    1C
    1UUSER                                                              
    1UDATE              27.october.2022                                 
    1UTIME              00:23:53                                        
    1UHOST                                                              
    1UPGM               CalculiX                                        
    1UVERSION           Version 2.17                             
    1UCOMPILETIME       Thu Jul 23 21:43:50 CEST 2020                    
    1UDIR                                                               
    1UDBN                                                               
    1UMAT    1SOLIDMATERIAL                                             
    2C                          4396                                     1
 -1         1 5.66167E+01 3.45924E+01 0.00000E+00
 -1         2 6.68748E+01 2.83969E+01 0.00000E+00
 -1         3 1.50000E+02 0.00000E+00 0.00000E+00
 -1         4 1.50000E+02 5.00000E+01 0.00000E+00
 -1         5 0.00000E+00 0.00000E+00 0.00000E+00
 -1         6 0.00000E+00 5.00000E+01 0.00000E+00
 -1         7 0.00000E+00 4.70500E+01 0.00000E+00
 -1         8 0.00000E+00 4.41000E+01 0.00000E+00
 -1         9 0.00000E+00 4.11500E+01 0.00000E+00
 -1        10 0.00000E+00 3.82000E+01 0.00000E+00
 -1        11 0.00000E+00 3.52500E+01 0.00000E+00
 -1        12 0.00000E+00 3.23500E+01 0.00000E+00
 -1        13 0.00000E+00 2.94000E+01 0.00000E+00
 -1        14 0.00000E+00 2.64500E+01 0.00000E+00
 -1        15 0.00000E+00 2.35000E+01 0.00000E+00
 -1        16 0.00000E+00 2.05500E+01 0.00000E+00
 -1        17 0.00000E+00 1.76000E+01 0.00000E+00
 -1        18 0.00000E+00 1.47000E+01 0.00000E+00
 -1        19 0.00000E+00 1.17500E+01 0.00000E+00
 -1        20 0.00000E+00 8.80000E+00 0.00000E+00
 -1        21 0.00000E+00 5.85000E+00 0.00000E+00
 -1        22 0.00000E+00 2.90000E+00 0.00000E+00
 -1        23 3.15000E+00 5.00000E+01 0.00000E+00
 -1        24 6.15000E+00 5.00000E+01 0.00000E+00
 -1        25 9.15000E+00 5.00000E+01 0.00000E+00
 -1        26 1.21500E+01 5.00000E+01 0.00000E+00
 -1        27 1.51500E+01 5.00000E+01 0.00000E+00
 -1        28 1.81500E+01 5.00000E+01 0.00000E+00
 -1        29 2.11500E+01 5.00000E+01 0.00000E+00
 -1        30 2.41500E+01 5.00000E+01 0.00000E+00
 -1        31 2.71500E+01 5.00000E+01 0.00000E+00
 -1        32 3.01500E+01 5.00000E+01 0.00000E+00
 -1        33 3.31500E+01 5.00000E+01 0.00000E+00
 -1        34 3.61500E+01 5.00000E+01 0.00000E+00
 -1        35 3.91500E+01 5.00000E+01 0.00000E+00
 -1        36 4.21500E+01 5.00000E+01 0.00000E+00
 -1        37 4.51500E+01 5.00000E+01 0.00000E+00
 -1        38 4.81500E+01 5.00000E+01 0.00000E+00
 -1        39 5.11500E+01 5.00000E+01 0.00000E+00
 -1        40 5.41500E+01 5.00000E+01 0.00000E+00
 -1        41 5.71500E+01 5.00000E+01 0.00000E+00
 -1        42 6.01500E+01 5.00000E+01 0.00000E+00
 -1        43 6.31500E+01 5.00000E+01 0.00000E+00
 -1        44 6.61500E+01 5.00000E+01 0.00000E+00
 -1        45 6.91500E+01 5.00000E+01 0.00000E+00
 -1        46 7.21500E+01 5.00000E+01 0.00000E+00
 -1        47 7.51500E+01 5.00000E+01 0.00000E+00
 -1        48 7.81500E+01 5.00000E+01 0.00000E+00
 -1        49 8.11500E+01 5.00000E+01 0.00000E+00
 -1        50 8.41500E+01 5.00000E+01 0.00000E+00
 -1        51 8.71500E+01 5.00000E+01 0.00000E+00
 -1        52 9.01500E+01 5.00000E+01 0.00000E+00
 -1        53 9.31500E+01 5.00000E+01 0.00000E+00
 -1        54 9.61500E+01 5.00000E+01 0.00000E+00
 -1        55 9.91500E+01 5.00000E+01 0.00000E+00
 -1        56 1.02150E+02 5.00000E+01 0.00000E+00
 -1        57 1.05150E+02 5.00000E+01 0.00000E+00
 -1        58 1.08150E+02 5.00000E+01 0.00000E+00
 -1        59 1.11150E+02 5.00000E+01 0.00000E+00
 -1        60 1.14150E+02 5.00000E+01 0.00000E+00
 -1        61 1.17150E+02 5.00000E+01 0.00000E+00
 -1        62 1.20150E+02 5.00000E+01 0.00000E+00
 -1        63 1.23150E+02 5.00000E+01 0.00000E+00
 -1        64 1.26150E+02 5.00000E+01 0.00000E+00
 -1        65 1.29150E+02 5.00000E+01 0.00000E+00
 -1        66 1.32150E+02 5.00000E+01 0.00000E+00
 -1        67 1.35150E+02 5.00000E+01 0.00000E+00
 -1        68 1.38150E+02 5.00000E+01 0.00000E+00
 -1        69 1.41150E+02 5.00000E+01 0.00000E+00
 -1        70 1.44150E+02 5.00000E+01 0.00000E+00
 -1        71 1.47150E+02 5.00000E+01 0.00000E+00
 -1        72 3.15000E+00 0.00000E+00 0.00000E+00
 -1        73 6.15000E+00 0.00000E+00 0.00000E+00
 -1        74 9.15000E+00 0.00000E+00 0.00000E+00
 -1        75 1.21500E+01 0.00000E+00 0.00000E+00
 -1        76 1.51500E+01 0.00000E+00 0.00000E+00
 -1        77 1.81500E+01 0.00000E+00 0.00000E+00
 -1        78 2.11500E+01 0.00000E+00 0.00000E+00
 -1        79 2.41500E+01 0.00000E+00 0.00000E+00
 -1        80 2.71500E+01 0.00000E+00 0.00000E+00
 -1        81 3.01500E+01 0.00000E+00 0.00000E+00
 -1        82 3.31500E+01 0.00000E+00 0.00000E+00
 -1        83 3.61500E+01 0.00000E+00 0.00000E+00
 -1        84 3.91500E+01 0.00000E+00 0.00000E+00
 -1        85 4.21500E+01 0.00000E+00 0.00000E+00
 -1        86 4.51500E+01 0.00000E+00 0.00000E+00
 -1        87 4.81500E+01 0.00000E+00 0.00000E+00
 -1        88 5.11500E+01 0.00000E+00 0.00000E+00
 -1        89 5.41500E+01 0.00000E+00 0.00000E+00
 -1        90 5.71500E+01 0.00000E+00 0.00000E+00
 -1        91 6.01500E+01 0.00000E+00 0.00000E+00
 -1        92 6.31500E+01 0.00000E+00 0.00000E+00
 -1        93 6.61500E+01 0.00000E+00 0.00000E+00
 -1        94 6.91500E+01 0.00000E+00 0.00000E+00
 -1        95 7.21500E+01 0.00000E+00 0.00000E+00
 -1        96 7.51500E+01 0.00000E+00 0.00000E+00
 -1        97 7.81500E+01 0.00000E+00 0.00000E+00
 -1        98 8.11500E+01 0.00000E+00 0.00000E+00
 -1        99 8.41500E+01 0.00000E+00 0.00000E+00
 -1       100 8.71500E+01 0.00000E+00 0.00000E+00
 -1       101 9.01500E+01 0.00000E+00 0.00000E+00
 -1       102 9.31500E+01 0.00000E+00 0.00000E+00
 -1       103 9.61500E+01 0.00000E+00 0.00000E+00
 -1       104 9.91500E+01 0.00000E+00 0.00000E+00
 -1       105 1.02150E+02 0.00000E+00 0.00000E+00
 -1       106 1.05150E+02 0.00000E+00 0.00000E+00
 -1       107 1.08150E+02 0.00000E+00 0.00000E+00
 -1       108 1.11150E+02 0.00000E+00 0.00000E+00
 -1       109 1.14150E+02 0.00000E+00 0.00000E+00
 -1       110 1.17150E+02 0.00000E+00 0.00000E+00
 -1       111 1.20150E+02 0.00000E+00 0.00000E+00
 -1       112 1.23150E+02 0.00000E+00 0.00000E+00
 -1       113 1.26150E+02 0.00000E+00 0.00000E+00
 -1       114 1.29150E+02 0.00000E+00 0.00000E+00
 -1       115 1.32150E+02 0.00000E+00 0.00000E+00
 -1       116 1.35150E+02 0.00000E+00 0.00000E+00
 -1       117 1.38150E+02 0.00000E+00 0.00000E+00
 -1       118 1.41150E+02 0.00000E+00 0.00000E+00
 -1       119 1.44150E+02 0.00000E+00 0.00000E+00
 -1       120 1.47150E+02 0.00000E+00 0.00000E+00
 -1       121 1.50000E+02 2.95000E+00 0.00000E+00
 -1       122 1.50000E+02 5.90000E+00 0.00000E+00
 -1       123 1.50000E+02 8.85000E+00 0.00000E+00
 -1       124 1.50000E+02 1.18000E+01 0.00000E+00
 -1       125 1.50000E+02 1.47500E+01 0.00000E+00
 -1       126 1.50000E+02 1.76500E+01 0.00000E+00
 -1       127 1.50000E+02 2.06000E+01 0.00000E+00
 -1       128 1.50000E+02 2.35500E+01 0.00000E+00
 -1       129 1.50000E+02 2.65000E+01 0.00000E+00
 -1       130 1.50000E+02 2.94500E+01 0.00000E+00
 -1       131 1.50000E+02 3.24000E+01 0.00000E+00
 -1       132 1.50000E+02 3.53000E+01 0.00000E+00
 -1       133 1.50000E+02 3.82500E+01 0.00000E+00
 -1       134 1.50000E+02 4.12000E+01 0.00000E+00
 -1       135 1.50000E+02 4.41500E+01 0.00000E+00
 -1       136 1.50000E+02 4.71000E+01 0.00000E+00
 -1       137 6.66955E+01 2.68228E+01 0.00000E+00
 -1       138 6.62079E+01 2.54149E+01 0.00000E+00
 -1       139 6.54084E+01 2.41098E+01 0.00000E+00
 -1       140 6.44056E+01 2.30610E+01 0.00000E+00
 -1       141 6.31986E+01 2.22363E+01 0.00000E+00
 -1       142 6.17429E+01 2.16508E+01 0.00000E+00
 -1       143 6.03637E+01 2.14140E+01 0.00000E+00
 -1       144 5.88746E+01 2.14687E+01 0.00000E+00
 -1       145 5.73082E+01 2.18844E+01 0.00000E+00
 -1       146 5.60429E+01 2.25389E+01 0.00000E+00
 -1       147 5.49598E+01 2.34127E+01 0.00000E+00
 -1       148 5.40400E+01 2.45298E+01 0.00000E+00
 -1       149 5.33291E+01 2.59163E+01 0.00000E+00
 -1       150 5.29670E+01 2.72645E+01 0.00000E+00
 -1       151 5.28789E+01 2.86358E+01 0.00000E+00
 -1       152 5.30799E+01 3.00789E+01 0.00000E+00
 -1       153 5.35917E+01 3.14826E+01 0.00000E+00
 -1       154 5.43280E+01 3.26668E+01 0.00000E+00
 -1       155 5.53499E+01 3.37378E+01 0.00000E+00
 -1       156 5.79170E+01 3.51175E+01 0.00000E+00
 -1       157 5.93484E+01 3.53771E+01 0.00000E+00
 -1       158 6.08243E+01 3.53322E+01 0.00000E+00
 -1       159 6.21620E+01 3.50127E+01 0.00000E+00
 -1       160 6.34809E+01 3.43966E+01 0.00000E+00
 -1       161 6.46455E+01 3.35195E+01 0.00000E+00
 -1       162 6.56087E+01 3.24121E+01 0.00000E+00
 -1       163 6.63029E+01 3.11682E+01 0.00000E+00
 -1       164 6.67320E+01 2.98036E+01 0.00000E+00
 -1       165 2.59800E+00 4.55750E+01 0.00000E+00
 -1       166 2.59800E+00 4.26250E+01 0.00000E+00
 -1       167 2.59800E+00 3.96750E+01 0.00000E+00
 -1       168 2.59800E+00 3.67250E+01 0.00000E+00
 -1       169 2.59800E+00 3.38250E+01 0.00000E+00
 -1       170 2.59800E+00 3.08750E+01 0.00000E+00
 -1       171 2.59800E+00 2.79250E+01 0.00000E+00
 -1       172 2.59800E+00 2.49750E+01 0.00000E+00
 -1       173 2.59800E+00 2.20250E+01 0.00000E+00
 -1       174 2.59800E+00 1.90750E+01 0.00000E+00
 -1       175 2.59800E+00 1.61750E+01 0.00000E+00
 -1       176 2.59800E+00 1.32250E+01 0.00000E+00
 -1       177 2.59800E+00 1.02750E+01 0.00000E+00
 -1       178 2.59800E+00 7.32500E+00 0.00000E+00
 -1       179 2.59800E+00 4.37500E+00 0.00000E+00
 -1       180 2.87400E+00 2.18750E+00 0.00000E+00
 -1       181 4.65000E+00 4.74020E+01 0.00000E+00
 -1       182 7.65000E+00 4.74020E+01 0.00000E+00
 -1       183 1.06500E+01 4.74020E+01 0.00000E+00
 -1       184 1.36500E+01 4.74020E+01 0.00000E+00
 -1       185 1.66500E+01 4.74020E+01 0.00000E+00
 -1       186 1.96500E+01 4.74020E+01 0.00000E+00
 -1       187 2.26500E+01 4.74020E+01 0.00000E+00
 -1       188 2.56500E+01 4.74020E+01 0.00000E+00
 -1       189 2.86500E+01 4.74020E+01 0.00000E+00
 -1       190 3.16500E+01 4.74020E+01 0.00000E+00
 -1       191 3.46500E+01 4.74020E+01 0.00000E+00
 -1       192 3.76500E+01 4.74020E+01 0.00000E+00
 -1       193 4.06500E+01 4.74020E+01 0.00000E+00
 -1       194 4.36500E+01 4.74020E+01 0.00000E+00
 -1       195 4.66500E+01 4.74020E+01 0.00000E+00
 -1       196 4.96500E+01 4.74020E+01 0.00000E+00
 -1       197 5.26500E+01 4.74020E+01 0.00000E+00
 -1       198 5.56500E+01 4.74020E+01 0.00000E+00
 -1       199 5.86500E+01 4.74020E+01 0.00000E+00
 -1       200 6.16500E+01 4.74020E+01 0.00000E+00
 -1       201 6.46500E+01 4.74020E+01 0.00000E+00
 -1       202 6.76500E+01 4.74020E+01 0.00000E+00
 -1       203 7.06500E+01 4.74020E+01 0.00000E+00
 -1       204 7.36500E+01 4.74020E+01 0.00000E+00
 -1       205 7.66500E+01 4.74020E+01 0.00000E+00
 -1       206 7.96500E+01 4.74020E+01 0.00000E+00
 -1       207 8.26500E+01 4.74020E+01 0.00000E+00
 -1       208 8.56500E+01 4.74020E+01 0.00000E+00
 -1       209 8.86500E+01 4.74020E+01 0.00000E+00
 -1       210 9.16500E+01 4.74020E+01 0.00000E+00
 -1       211 9.46500E+01 4.74020E+01 0.00000E+00
 -1       212 9.76500E+01 4.74020E+01 0.00000E+00
 -1       213 1.00650E+02 4.74020E+01 0.00000E+00
 -1       214 1.03650E+02 4.74020E+01 0.00000E+00
 -1       215 1.06650E+02 4.74020E+01 0.00000E+00
 -1       216 1.09650E+02 4.74020E+01 0.00000E+00
 -1       217 1.12650E+02 4.74020E+01 0.00000E+00
 -1       218 1.15650E+02 4.74020E+01 0.00000E+00
 -1       219 1.18650E+02 4.74020E+01 0.00000E+00
 -1       220 1.21650E+02 4.74020E+01 0.00000E+00
 -1       221 1.24650E+02 4.74020E+01 0.00000E+00
 -1       222 1.27650E+02 4.74020E+01 0.00000E+00
 -1       223 1.30650E+02 4.74020E+01 0.00000E+00
 -1       224 1.33650E+02 4.74020E+01 0.00000E+00
 -1       225 1.36650E+02 4.74020E+01 0.00000E+00
 -1       226 1.39650E+02 4.74020E+01 0.00000E+00
 -1       227 1.42650E+02 4.74020E+01 0.00000E+00
 -1       228 1.45650E+02 4.74020E+01 0.00000E+00
 -1       229 5.87400E+00 2.18750E+00 0.00000E+00
 -1       230 8.87400E+00 2.18750E+00 0.00000E+00
 -1       231 1.18740E+01 2.18750E+00 0.00000E+00
 -1       232 1.48740E+01 2.18750E+00 0.00000E+00
 -1       233 1.78740E+01 2.18750E+00 0.00000E+00
 -1       234 2.08740E+01 2.18750E+00 0.00000E+00
 -1       235 2.38740E+01 2.18750E+00 0.00000E+00
 -1       236 2.68740E+01 2.18750E+00 0.00000E+00
 -1       237 2.98740E+01 2.18750E+00 0.00000E+00
 -1       238 3.28740E+01 2.18750E+00 0.00000E+00
 -1       239 3.58740E+01 2.18750E+00 0.00000E+00
 -1       240 3.88740E+01 2.18750E+00 0.00000E+00
 -1       241 4.18740E+01 2.18750E+00 0.00000E+00
 -1       242 4.48740E+01 2.18750E+00 0.00000E+00
 -1       243 4.78740E+01 2.18750E+00 0.00000E+00
 -1       244 5.08740E+01 2.18750E+00 0.00000E+00
 -1       245 5.38740E+01 2.18750E+00 0.00000E+00
 -1       246 5.68740E+01 2.18750E+00 0.00000E+00
 -1       247 5.98740E+01 2.18750E+00 0.00000E+00
 -1       248 6.28740E+01 2.18750E+00 0.00000E+00
 -1       249 6.58740E+01 2.18750E+00 0.00000E+00
 -1       250 6.88740E+01 2.18750E+00 0.00000E+00
 -1       251 7.18740E+01 2.18750E+00 0.00000E+00
 -1       252 7.48740E+01 2.18750E+00 0.00000E+00
 -1       253 7.78740E+01 2.18750E+00 0.00000E+00
 -1       254 8.08740E+01 2.18750E+00 0.00000E+00
 -1       255 8.38740E+01 2.18750E+00 0.00000E+00
 -1       256 8.68740E+01 2.18750E+00 0.00000E+00
 -1       257 8.98740E+01 2.18750E+00 0.00000E+00
 -1       258 9.28740E+01 2.18750E+00 0.00000E+00
 -1       259 9.58740E+01 2.18750E+00 0.00000E+00
 -1       260 9.88740E+01 2.18750E+00 0.00000E+00
 -1       261 1.01874E+02 2.18750E+00 0.00000E+00
 -1       262 1.04874E+02 2.18750E+00 0.00000E+00
 -1       263 1.07874E+02 2.18750E+00 0.00000E+00
 -1       264 1.10874E+02 2.18750E+00 0.00000E+00
 -1       265 1.13874E+02 2.18750E+00 0.00000E+00
 -1       266 1.16874E+02 2.18750E+00 0.00000E+00
 -1       267 1.19874E+02 2.18750E+00 0.00000E+00
 -1       268 1.22874E+02 2.18750E+00 0.00000E+00
 -1       269 1.25874E+02 2.18750E+00 0.00000E+00
 -1       270 1.28874E+02 2.18750E+00 0.00000E+00
 -1       271 1.31874E+02 2.18750E+00 0.00000E+00
 -1       272 1.34874E+02 2.18750E+00 0.00000E+00
 -1       273 1.37874E+02 2.18750E+00 0.00000E+00
 -1       274 1.40874E+02 2.18750E+00 0.00000E+00
 -1       275 1.43874E+02 2.18750E+00 0.00000E+00
 -1       276 1.46874E+02 2.18750E+00 0.00000E+00
 -1       277 1.47402E+02 4.42500E+00 0.00000E+00
 -1       278 1.47402E+02 7.37500E+00 0.00000E+00
 -1       279 1.47402E+02 1.03250E+01 0.00000E+00
 -1       280 1.47402E+02 1.32750E+01 0.00000E+00
 -1       281 1.47402E+02 1.61750E+01 0.00000E+00
 -1       282 1.47402E+02 1.91250E+01 0.00000E+00
 -1       283 1.47402E+02 2.20750E+01 0.00000E+00
 -1       284 1.47402E+02 2.50250E+01 0.00000E+00
 -1       285 1.47402E+02 2.79750E+01 0.00000E+00
 -1       286 1.47402E+02 3.09250E+01 0.00000E+00
 -1       287 1.47402E+02 3.38250E+01 0.00000E+00
 -1       288 1.47402E+02 3.67750E+01 0.00000E+00
 -1       289 1.47402E+02 3.97250E+01 0.00000E+00
 -1       290 1.47402E+02 4.26750E+01 0.00000E+00
 -1       291 1.46526E+02 4.50385E+01 0.00000E+00
 -1       292 6.81563E+01 2.74537E+01 0.00000E+00
 -1       293 6.78349E+01 2.56398E+01 0.00000E+00
 -1       294 6.69849E+01 2.40415E+01 0.00000E+00
 -1       295 6.57833E+01 2.27475E+01 0.00000E+00
 -1       296 6.44861E+01 2.16476E+01 0.00000E+00
 -1       297 6.29858E+01 2.06633E+01 0.00000E+00
 -1       298 6.12585E+01 2.03375E+01 0.00000E+00
 -1       299 5.95715E+01 2.01460E+01 0.00000E+00
 -1       300 5.77159E+01 2.02618E+01 0.00000E+00
 -1       301 5.61185E+01 2.11348E+01 0.00000E+00
 -1       302 5.47401E+01 2.20322E+01 0.00000E+00
 -1       303 5.35639E+01 2.32006E+01 0.00000E+00
 -1       304 5.24566E+01 2.45934E+01 0.00000E+00
 -1       305 5.19772E+01 2.62759E+01 0.00000E+00
 -1       306 5.17131E+01 2.78724E+01 0.00000E+00
 -1       307 5.16956E+01 2.95362E+01 0.00000E+00
 -1       308 5.20393E+01 3.12534E+01 0.00000E+00
 -1       309 5.29302E+01 3.27149E+01 0.00000E+00
 -1       310 5.39012E+01 3.40971E+01 0.00000E+00
 -1       311 5.51647E+01 3.53785E+01 0.00000E+00
 -1       312 5.68129E+01 3.59792E+01 0.00000E+00
 -1       313 5.84014E+01 3.65227E+01 0.00000E+00
 -1       314 6.01282E+01 3.67340E+01 0.00000E+00
 -1       315 6.17748E+01 3.63517E+01 0.00000E+00
 -1       316 6.34055E+01 3.59549E+01 0.00000E+00
 -1       317 6.48430E+01 3.49934E+01 0.00000E+00
 -1       318 6.60418E+01 3.37616E+01 0.00000E+00
 -1       319 6.70145E+01 3.23809E+01 0.00000E+00
 -1       320 6.77540E+01 3.08747E+01 0.00000E+00
 -1       321 6.80096E+01 2.92227E+01 0.00000E+00
 -1       322 5.19600E+00 4.11500E+01 0.00000E+00
 -1       323 5.19600E+00 4.41000E+01 0.00000E+00
 -1       324 5.19600E+00 3.52750E+01 0.00000E+00
 -1       325 5.19600E+00 3.23250E+01 0.00000E+00
 -1       326 5.19600E+00 2.93750E+01 0.00000E+00
 -1       327 5.19600E+00 2.64250E+01 0.00000E+00
 -1       328 5.19600E+00 2.34750E+01 0.00000E+00
 -1       329 5.19600E+00 2.05250E+01 0.00000E+00
 -1       330 5.19600E+00 1.76250E+01 0.00000E+00
 -1       331 5.19600E+00 1.46750E+01 0.00000E+00
 -1       332 5.19600E+00 1.17250E+01 0.00000E+00
 -1       333 5.19600E+00 8.77500E+00 0.00000E+00
 -1       334 5.19600E+00 5.82500E+00 0.00000E+00
 -1       335 5.53500E+00 4.00625E+00 0.00000E+00
 -1       336 8.53500E+00 4.00625E+00 0.00000E+00
 -1       337 9.15000E+00 4.48040E+01 0.00000E+00
 -1       338 1.21500E+01 4.48040E+01 0.00000E+00
 -1       339 1.51500E+01 4.48040E+01 0.00000E+00
 -1       340 1.81500E+01 4.48040E+01 0.00000E+00
 -1       341 2.11500E+01 4.48040E+01 0.00000E+00
 -1       342 2.41500E+01 4.48040E+01 0.00000E+00
 -1       343 2.71500E+01 4.48040E+01 0.00000E+00
 -1       344 3.01500E+01 4.48040E+01 0.00000E+00
 -1       345 3.31500E+01 4.48040E+01 0.00000E+00
 -1       346 3.61500E+01 4.48040E+01 0.00000E+00
 -1       347 3.91500E+01 4.48040E+01 0.00000E+00
 -1       348 4.21500E+01 4.48040E+01 0.00000E+00
 -1       349 4.51500E+01 4.48040E+01 0.00000E+00
 -1       350 4.81500E+01 4.48040E+01 0.00000E+00
 -1       351 5.11500E+01 4.48040E+01 0.00000E+00
 -1       352 5.41500E+01 4.48040E+01 0.00000E+00
 -1       353 5.71500E+01 4.48040E+01 0.00000E+00
 -1       354 6.01500E+01 4.48040E+01 0.00000E+00
 -1       355 6.31500E+01 4.48040E+01 0.00000E+00
 -1       356 6.61500E+01 4.48040E+01 0.00000E+00
 -1       357 6.91500E+01 4.48040E+01 0.00000E+00
 -1       358 7.21500E+01 4.48040E+01 0.00000E+00
 -1       359 7.51500E+01 4.48040E+01 0.00000E+00
 -1       360 7.81500E+01 4.48040E+01 0.00000E+00
 -1       361 8.11500E+01 4.48040E+01 0.00000E+00
 -1       362 8.41500E+01 4.48040E+01 0.00000E+00
 -1       363 8.71500E+01 4.48040E+01 0.00000E+00
 -1       364 9.01500E+01 4.48040E+01 0.00000E+00
 -1       365 9.31500E+01 4.48040E+01 0.00000E+00
 -1       366 9.61500E+01 4.48040E+01 0.00000E+00
 -1       367 9.91500E+01 4.48040E+01 0.00000E+00
 -1       368 1.02150E+02 4.48040E+01 0.00000E+00
 -1       369 1.05150E+02 4.48040E+01 0.00000E+00
 -1       370 1.08150E+02 4.48040E+01 0.00000E+00
 -1       371 1.11150E+02 4.48040E+01 0.00000E+00
 -1       372 1.14150E+02 4.48040E+01 0.00000E+00
 -1       373 1.17150E+02 4.48040E+01 0.00000E+00
 -1       374 1.20150E+02 4.48040E+01 0.00000E+00
 -1       375 1.23150E+02 4.48040E+01 0.00000E+00
 -1       376 1.26150E+02 4.48040E+01 0.00000E+00
 -1       377 1.29150E+02 4.48040E+01 0.00000E+00
 -1       378 1.32150E+02 4.48040E+01 0.00000E+00
 -1       379 1.35150E+02 4.48040E+01 0.00000E+00
 -1       380 1.38150E+02 4.48040E+01 0.00000E+00
 -1       381 1.41150E+02 4.48040E+01 0.00000E+00
 -1       382 1.43838E+02 4.49212E+01 0.00000E+00
 -1       383 1.15350E+01 4.00625E+00 0.00000E+00
 -1       384 1.45350E+01 4.00625E+00 0.00000E+00
 -1       385 1.75350E+01 4.00625E+00 0.00000E+00
 -1       386 2.05350E+01 4.00625E+00 0.00000E+00
 -1       387 2.35350E+01 4.00625E+00 0.00000E+00
 -1       388 2.65350E+01 4.00625E+00 0.00000E+00
 -1       389 2.95350E+01 4.00625E+00 0.00000E+00
 -1       390 3.25350E+01 4.00625E+00 0.00000E+00
 -1       391 3.55350E+01 4.00625E+00 0.00000E+00
 -1       392 3.85350E+01 4.00625E+00 0.00000E+00
 -1       393 4.15350E+01 4.00625E+00 0.00000E+00
 -1       394 4.45350E+01 4.00625E+00 0.00000E+00
 -1       395 4.75350E+01 4.00625E+00 0.00000E+00
 -1       396 5.05350E+01 4.00625E+00 0.00000E+00
 -1       397 5.35350E+01 4.00625E+00 0.00000E+00
 -1       398 5.65350E+01 4.00625E+00 0.00000E+00
 -1       399 5.95350E+01 4.00625E+00 0.00000E+00
 -1       400 6.25350E+01 4.00625E+00 0.00000E+00
 -1       401 6.55350E+01 4.00625E+00 0.00000E+00
 -1       402 6.85350E+01 4.00625E+00 0.00000E+00
 -1       403 7.15350E+01 4.00625E+00 0.00000E+00
 -1       404 7.45350E+01 4.00625E+00 0.00000E+00
 -1       405 7.75350E+01 4.00625E+00 0.00000E+00
 -1       406 8.05350E+01 4.00625E+00 0.00000E+00
 -1       407 8.35350E+01 4.00625E+00 0.00000E+00
 -1       408 8.65350E+01 4.00625E+00 0.00000E+00
 -1       409 8.95350E+01 4.00625E+00 0.00000E+00
 -1       410 9.25350E+01 4.00625E+00 0.00000E+00
 -1       411 9.55350E+01 4.00625E+00 0.00000E+00
 -1       412 9.85350E+01 4.00625E+00 0.00000E+00
 -1       413 1.01535E+02 4.00625E+00 0.00000E+00
 -1       414 1.04535E+02 4.00625E+00 0.00000E+00
 -1       415 1.07535E+02 4.00625E+00 0.00000E+00
 -1       416 1.10535E+02 4.00625E+00 0.00000E+00
 -1       417 1.13535E+02 4.00625E+00 0.00000E+00
 -1       418 1.16535E+02 4.00625E+00 0.00000E+00
 -1       419 1.19535E+02 4.00625E+00 0.00000E+00
 -1       420 1.22535E+02 4.00625E+00 0.00000E+00
 -1       421 1.25535E+02 4.00625E+00 0.00000E+00
 -1       422 1.28535E+02 4.00625E+00 0.00000E+00
 -1       423 1.31535E+02 4.00625E+00 0.00000E+00
 -1       424 1.34535E+02 4.00625E+00 0.00000E+00
 -1       425 1.37535E+02 4.00625E+00 0.00000E+00
 -1       426 1.40535E+02 4.00625E+00 0.00000E+00
 -1       427 1.43535E+02 4.00625E+00 0.00000E+00
 -1       428 1.45469E+02 4.21562E+00 0.00000E+00
 -1       429 1.44804E+02 1.18000E+01 0.00000E+00
 -1       430 1.44804E+02 8.85000E+00 0.00000E+00
 -1       431 1.45136E+02 6.53281E+00 0.00000E+00
 -1       432 1.44804E+02 1.47000E+01 0.00000E+00
 -1       433 1.44804E+02 1.76500E+01 0.00000E+00
 -1       434 1.44804E+02 2.06000E+01 0.00000E+00
 -1       435 1.44804E+02 2.35500E+01 0.00000E+00
 -1       436 1.44804E+02 2.65000E+01 0.00000E+00
 -1       437 1.44804E+02 2.94500E+01 0.00000E+00
 -1       438 1.44804E+02 3.23500E+01 0.00000E+00
 -1       439 1.44804E+02 3.53000E+01 0.00000E+00
 -1       440 1.44804E+02 3.82500E+01 0.00000E+00
 -1       441 1.44804E+02 4.12000E+01 0.00000E+00
 -1       442 6.87762E+01 2.41140E+01 0.00000E+00
 -1       443 6.97087E+01 2.84730E+01 0.00000E+00
 -1       444 6.96844E+01 2.62475E+01 0.00000E+00
 -1       445 6.73953E+01 2.24555E+01 0.00000E+00
 -1       446 6.62439E+01 2.08894E+01 0.00000E+00
 -1       447 5.19600E+00 3.82125E+01 0.00000E+00
 -1       448 6.24401E+01 1.88150E+01 0.00000E+00
 -1       449 6.07531E+01 1.86236E+01 0.00000E+00
 -1       450 5.85370E+01 1.84921E+01 0.00000E+00
 -1       451 5.62956E+01 1.95609E+01 0.00000E+00
 -1       452 5.47221E+01 2.04972E+01 0.00000E+00
 -1       453 5.30614E+01 2.15185E+01 0.00000E+00
 -1       454 5.19301E+01 2.30382E+01 0.00000E+00
 -1       455 5.06480E+01 2.49876E+01 0.00000E+00
 -1       456 5.03839E+01 2.65841E+01 0.00000E+00
 -1       457 5.04082E+01 2.86907E+01 0.00000E+00
 -1       458 5.01857E+01 3.07314E+01 0.00000E+00
 -1       459 5.11634E+01 3.27897E+01 0.00000E+00
 -1       460 5.21343E+01 3.41719E+01 0.00000E+00
 -1       461 5.34310E+01 3.58244E+01 0.00000E+00
 -1       462 5.55163E+01 3.69754E+01 0.00000E+00
 -1       463 5.71048E+01 3.75189E+01 0.00000E+00
 -1       464 5.90870E+01 3.80812E+01 0.00000E+00
 -1       465 6.13015E+01 3.80503E+01 0.00000E+00
 -1       466 6.29322E+01 3.76535E+01 0.00000E+00
 -1       467 6.48915E+01 3.66212E+01 0.00000E+00
 -1       468 6.64314E+01 3.53399E+01 0.00000E+00
 -1       469 6.77933E+01 3.39626E+01 0.00000E+00
 -1       470 6.85478E+01 3.21990E+01 0.00000E+00
 -1       471 6.94530E+01 3.01250E+01 0.00000E+00
 -1       472 6.47436E+01 1.99051E+01 0.00000E+00
 -1       473 1.00350E+01 6.60425E+00 0.00000E+00
 -1       474 7.79400E+00 3.08500E+01 0.00000E+00
 -1       475 7.79400E+00 3.38000E+01 0.00000E+00
 -1       476 7.79400E+00 2.49500E+01 0.00000E+00
 -1       477 7.79400E+00 2.20000E+01 0.00000E+00
 -1       478 7.79400E+00 1.91000E+01 0.00000E+00
 -1       479 7.79400E+00 1.61500E+01 0.00000E+00
 -1       480 7.79400E+00 1.32000E+01 0.00000E+00
 -1       481 7.79400E+00 1.02500E+01 0.00000E+00
 -1       482 6.82014E+01 2.06565E+01 0.00000E+00
 -1       483 1.30350E+01 6.60425E+00 0.00000E+00
 -1       484 1.06500E+01 4.22060E+01 0.00000E+00
 -1       485 6.42896E+01 1.78855E+01 0.00000E+00
 -1       486 1.36500E+01 4.22060E+01 0.00000E+00
 -1       487 1.66500E+01 4.22060E+01 0.00000E+00
 -1       488 1.96500E+01 4.22060E+01 0.00000E+00
 -1       489 2.26500E+01 4.22060E+01 0.00000E+00
 -1       490 2.56500E+01 4.22060E+01 0.00000E+00
 -1       491 2.86500E+01 4.22060E+01 0.00000E+00
 -1       492 3.16500E+01 4.22060E+01 0.00000E+00
 -1       493 3.46500E+01 4.22060E+01 0.00000E+00
 -1       494 3.76500E+01 4.22060E+01 0.00000E+00
 -1       495 4.06500E+01 4.22060E+01 0.00000E+00
 -1       496 4.36500E+01 4.22060E+01 0.00000E+00
 -1       497 4.66500E+01 4.22060E+01 0.00000E+00
 -1       498 4.96500E+01 4.22060E+01 0.00000E+00
 -1       499 5.26500E+01 4.22060E+01 0.00000E+00
 -1       500 5.56500E+01 4.22060E+01 0.00000E+00
 -1       501 5.86500E+01 4.22060E+01 0.00000E+00
 -1       502 6.16500E+01 4.22060E+01 0.00000E+00
 -1       503 6.46500E+01 4.22060E+01 0.00000E+00
 -1       504 6.76500E+01 4.22060E+01 0.00000E+00
 -1       505 7.06500E+01 4.22060E+01 0.00000E+00
 -1       506 7.36500E+01 4.22060E+01 0.00000E+00
 -1       507 7.66500E+01 4.22060E+01 0.00000E+00
 -1       508 7.96500E+01 4.22060E+01 0.00000E+00
 -1       509 8.26500E+01 4.22060E+01 0.00000E+00
 -1       510 8.56500E+01 4.22060E+01 0.00000E+00
 -1       511 8.86500E+01 4.22060E+01 0.00000E+00
 -1       512 9.16500E+01 4.22060E+01 0.00000E+00
 -1       513 9.46500E+01 4.22060E+01 0.00000E+00
 -1       514 9.76500E+01 4.22060E+01 0.00000E+00
 -1       515 1.00650E+02 4.22060E+01 0.00000E+00
 -1       516 1.03650E+02 4.22060E+01 0.00000E+00
 -1       517 1.06650E+02 4.22060E+01 0.00000E+00
 -1       518 1.09650E+02 4.22060E+01 0.00000E+00
 -1       519 1.12650E+02 4.22060E+01 0.00000E+00
 -1       520 1.15650E+02 4.22060E+01 0.00000E+00
 -1       521 1.18650E+02 4.22060E+01 0.00000E+00
 -1       522 1.21650E+02 4.22060E+01 0.00000E+00
 -1       523 1.24650E+02 4.22060E+01 0.00000E+00
 -1       524 1.27650E+02 4.22060E+01 0.00000E+00
 -1       525 1.30650E+02 4.22060E+01 0.00000E+00
 -1       526 1.33650E+02 4.22060E+01 0.00000E+00
 -1       527 1.36650E+02 4.22060E+01 0.00000E+00
 -1       528 1.39650E+02 4.22060E+01 0.00000E+00
 -1       529 1.90350E+01 6.60425E+00 0.00000E+00
 -1       530 2.20350E+01 6.60425E+00 0.00000E+00
 -1       531 2.50350E+01 6.60425E+00 0.00000E+00
 -1       532 2.80350E+01 6.60425E+00 0.00000E+00
 -1       533 3.10350E+01 6.60425E+00 0.00000E+00
 -1       534 3.40350E+01 6.60425E+00 0.00000E+00
 -1       535 3.70350E+01 6.60425E+00 0.00000E+00
 -1       536 4.00350E+01 6.60425E+00 0.00000E+00
 -1       537 4.30350E+01 6.60425E+00 0.00000E+00
 -1       538 4.60350E+01 6.60425E+00 0.00000E+00
 -1       539 4.90350E+01 6.60425E+00 0.00000E+00
 -1       540 5.20350E+01 6.60425E+00 0.00000E+00
 -1       541 5.50350E+01 6.60425E+00 0.00000E+00
 -1       542 5.80350E+01 6.60425E+00 0.00000E+00
 -1       543 6.10350E+01 6.60425E+00 0.00000E+00
 -1       544 6.40350E+01 6.60425E+00 0.00000E+00
 -1       545 6.70350E+01 6.60425E+00 0.00000E+00
 -1       546 7.00350E+01 6.60425E+00 0.00000E+00
 -1       547 7.30350E+01 6.60425E+00 0.00000E+00
 -1       548 7.60350E+01 6.60425E+00 0.00000E+00
 -1       549 7.90350E+01 6.60425E+00 0.00000E+00
 -1       550 8.20350E+01 6.60425E+00 0.00000E+00
 -1       551 8.50350E+01 6.60425E+00 0.00000E+00
 -1       552 8.80350E+01 6.60425E+00 0.00000E+00
 -1       553 9.10350E+01 6.60425E+00 0.00000E+00
 -1       554 9.40350E+01 6.60425E+00 0.00000E+00
 -1       555 9.70350E+01 6.60425E+00 0.00000E+00
 -1       556 1.00035E+02 6.60425E+00 0.00000E+00
 -1       557 1.03035E+02 6.60425E+00 0.00000E+00
 -1       558 1.06035E+02 6.60425E+00 0.00000E+00
 -1       559 1.09035E+02 6.60425E+00 0.00000E+00
 -1       560 1.12035E+02 6.60425E+00 0.00000E+00
 -1       561 1.15035E+02 6.60425E+00 0.00000E+00
 -1       562 1.18035E+02 6.60425E+00 0.00000E+00
 -1       563 1.21035E+02 6.60425E+00 0.00000E+00
 -1       564 1.24035E+02 6.60425E+00 0.00000E+00
 -1       565 1.27035E+02 6.60425E+00 0.00000E+00
 -1       566 1.30035E+02 6.60425E+00 0.00000E+00
 -1       567 1.33035E+02 6.60425E+00 0.00000E+00
 -1       568 1.36035E+02 6.60425E+00 0.00000E+00
 -1       569 1.39035E+02 6.60425E+00 0.00000E+00
 -1       570 1.42035E+02 6.60425E+00 0.00000E+00
 -1       571 1.42206E+02 1.61750E+01 0.00000E+00
 -1       572 1.42206E+02 1.91250E+01 0.00000E+00
 -1       573 1.42206E+02 1.03250E+01 0.00000E+00
 -1       574 1.42206E+02 1.32500E+01 0.00000E+00
 -1       575 1.42206E+02 2.20750E+01 0.00000E+00
 -1       576 1.42206E+02 2.50250E+01 0.00000E+00
 -1       577 1.42206E+02 2.79750E+01 0.00000E+00
 -1       578 1.42206E+02 3.08750E+01 0.00000E+00
 -1       579 1.42206E+02 3.38250E+01 0.00000E+00
 -1       580 1.42206E+02 3.67750E+01 0.00000E+00
 -1       581 1.42206E+02 3.97250E+01 0.00000E+00
 -1       582 7.15791E+01 2.73396E+01 0.00000E+00
 -1       583 6.95823E+01 2.23150E+01 0.00000E+00
 -1       584 1.60350E+01 6.60425E+00 0.00000E+00
 -1       585 6.64346E+01 1.89632E+01 0.00000E+00
 -1       586 7.03420E+01 3.17475E+01 0.00000E+00
 -1       587 7.05771E+01 2.46074E+01 0.00000E+00
 -1       588 7.12758E+01 2.95613E+01 0.00000E+00
 -1       589 5.76965E+01 3.92083E+01 0.00000E+00
 -1       590 5.14993E+01 3.60052E+01 0.00000E+00
 -1       591 4.93523E+01 3.23885E+01 0.00000E+00
 -1       592 4.97161E+01 2.29784E+01 0.00000E+00
 -1       593 7.79400E+00 2.79000E+01 0.00000E+00
 -1       594 5.66781E+01 1.74784E+01 0.00000E+00
 -1       595 6.17711E+01 1.71816E+01 0.00000E+00
 -1       596 4.85920E+01 2.95251E+01 0.00000E+00
 -1       597 5.95549E+01 1.70502E+01 0.00000E+00
 -1       598 5.47604E+01 1.87711E+01 0.00000E+00
 -1       599 5.30996E+01 1.97924E+01 0.00000E+00
 -1       600 5.08473E+01 2.14587E+01 0.00000E+00
 -1       601 4.89065E+01 2.55196E+01 0.00000E+00
 -1       602 5.37258E+01 3.77547E+01 0.00000E+00
 -1       603 4.87492E+01 2.75224E+01 0.00000E+00
 -1       604 5.05283E+01 3.46229E+01 0.00000E+00
 -1       605 6.02159E+01 3.96131E+01 0.00000E+00
 -1       606 5.61079E+01 3.86647E+01 0.00000E+00
 -1       607 6.67048E+01 3.72346E+01 0.00000E+00
 -1       608 6.24827E+01 3.93555E+01 0.00000E+00
 -1       609 6.47113E+01 3.86547E+01 0.00000E+00
 -1       610 6.82128E+01 3.57393E+01 0.00000E+00
 -1       611 6.97474E+01 3.37554E+01 0.00000E+00
 -1       612 7.92300E+00 4.16780E+01 0.00000E+00
 -1       613 7.61550E+00 6.21462E+00 0.00000E+00
 -1       614 5.76960E+01 1.60364E+01 0.00000E+00
 -1       615 7.79400E+00 3.67375E+01 0.00000E+00
 -1       616 7.24718E+01 2.56996E+01 0.00000E+00
 -1       617 1.41678E+02 4.22645E+01 0.00000E+00
 -1       618 4.77586E+01 3.11823E+01 0.00000E+00
 -1       619 5.17941E+01 3.79355E+01 0.00000E+00
 -1       620 1.03920E+01 2.05500E+01 0.00000E+00
 -1       621 1.03920E+01 2.35000E+01 0.00000E+00
 -1       622 1.03920E+01 1.46750E+01 0.00000E+00
 -1       623 1.03920E+01 1.17250E+01 0.00000E+00
 -1       624 1.39206E+02 1.03250E+01 0.00000E+00
 -1       625 1.15350E+01 9.20225E+00 0.00000E+00
 -1       626 6.62826E+01 1.65923E+01 0.00000E+00
 -1       627 1.51500E+01 3.96080E+01 0.00000E+00
 -1       628 1.81500E+01 3.96080E+01 0.00000E+00
 -1       629 2.11500E+01 3.96080E+01 0.00000E+00
 -1       630 2.41500E+01 3.96080E+01 0.00000E+00
 -1       631 2.71500E+01 3.96080E+01 0.00000E+00
 -1       632 3.01500E+01 3.96080E+01 0.00000E+00
 -1       633 3.31500E+01 3.96080E+01 0.00000E+00
 -1       634 3.61500E+01 3.96080E+01 0.00000E+00
 -1       635 3.91500E+01 3.96080E+01 0.00000E+00
 -1       636 4.21500E+01 3.96080E+01 0.00000E+00
 -1       637 4.51500E+01 3.96080E+01 0.00000E+00
 -1       638 4.81500E+01 3.96080E+01 0.00000E+00
 -1       639 6.61500E+01 3.96530E+01 0.00000E+00
 -1       640 6.91500E+01 3.96530E+01 0.00000E+00
 -1       641 7.21500E+01 3.96530E+01 0.00000E+00
 -1       642 7.51500E+01 3.96530E+01 0.00000E+00
 -1       643 7.81500E+01 3.96530E+01 0.00000E+00
 -1       644 8.11500E+01 3.96530E+01 0.00000E+00
 -1       645 8.41500E+01 3.96530E+01 0.00000E+00
 -1       646 8.71500E+01 3.96530E+01 0.00000E+00
 -1       647 9.01500E+01 3.96530E+01 0.00000E+00
 -1       648 9.31500E+01 3.96530E+01 0.00000E+00
 -1       649 9.61500E+01 3.96530E+01 0.00000E+00
 -1       650 9.91500E+01 3.96530E+01 0.00000E+00
 -1       651 1.02150E+02 3.96530E+01 0.00000E+00
 -1       652 1.05150E+02 3.96530E+01 0.00000E+00
 -1       653 1.08150E+02 3.96530E+01 0.00000E+00
 -1       654 1.11150E+02 3.96530E+01 0.00000E+00
 -1       655 1.14150E+02 3.96530E+01 0.00000E+00
 -1       656 1.17150E+02 3.96530E+01 0.00000E+00
 -1       657 1.20150E+02 3.96530E+01 0.00000E+00
 -1       658 1.23150E+02 3.96530E+01 0.00000E+00
 -1       659 1.26150E+02 3.96530E+01 0.00000E+00
 -1       660 1.29150E+02 3.96530E+01 0.00000E+00
 -1       661 1.32150E+02 3.96530E+01 0.00000E+00
 -1       662 1.35150E+02 3.96530E+01 0.00000E+00
 -1       663 1.38150E+02 3.96530E+01 0.00000E+00
 -1       664 2.35350E+01 9.20225E+00 0.00000E+00
 -1       665 7.23861E+01 3.13281E+01 0.00000E+00
 -1       666 2.05350E+01 9.20225E+00 0.00000E+00
 -1       667 2.95350E+01 9.20225E+00 0.00000E+00
 -1       668 3.25350E+01 9.20225E+00 0.00000E+00
 -1       669 3.55350E+01 9.20225E+00 0.00000E+00
 -1       670 3.85350E+01 9.20225E+00 0.00000E+00
 -1       671 4.15350E+01 9.20225E+00 0.00000E+00
 -1       672 4.45350E+01 9.20225E+00 0.00000E+00
 -1       673 4.75350E+01 9.20225E+00 0.00000E+00
 -1       674 5.05350E+01 9.20225E+00 0.00000E+00
 -1       675 5.35350E+01 9.20225E+00 0.00000E+00
 -1       676 5.65350E+01 9.20225E+00 0.00000E+00
 -1       677 5.95350E+01 9.20225E+00 0.00000E+00
 -1       678 6.25350E+01 9.20225E+00 0.00000E+00
 -1       679 6.55350E+01 9.20225E+00 0.00000E+00
 -1       680 6.85350E+01 9.20225E+00 0.00000E+00
 -1       681 7.15350E+01 9.20225E+00 0.00000E+00
 -1       682 7.45350E+01 9.20225E+00 0.00000E+00
 -1       683 7.75350E+01 9.20225E+00 0.00000E+00
 -1       684 8.05350E+01 9.20225E+00 0.00000E+00
 -1       685 8.35350E+01 9.20225E+00 0.00000E+00
 -1       686 8.65350E+01 9.20225E+00 0.00000E+00
 -1       687 8.95350E+01 9.20225E+00 0.00000E+00
 -1       688 9.25350E+01 9.20225E+00 0.00000E+00
 -1       689 9.55350E+01 9.20225E+00 0.00000E+00
 -1       690 9.85350E+01 9.20225E+00 0.00000E+00
 -1       691 1.01535E+02 9.20225E+00 0.00000E+00
 -1       692 1.04535E+02 9.20225E+00 0.00000E+00
 -1       693 1.07535E+02 9.20225E+00 0.00000E+00
 -1       694 1.10535E+02 9.20225E+00 0.00000E+00
 -1       695 1.13535E+02 9.20225E+00 0.00000E+00
 -1       696 1.16535E+02 9.20225E+00 0.00000E+00
 -1       697 1.19535E+02 9.20225E+00 0.00000E+00
 -1       698 1.22535E+02 9.20225E+00 0.00000E+00
 -1       699 1.25535E+02 9.20225E+00 0.00000E+00
 -1       700 1.28535E+02 9.20225E+00 0.00000E+00
 -1       701 1.31535E+02 9.20225E+00 0.00000E+00
 -1       702 1.34535E+02 9.20225E+00 0.00000E+00
 -1       703 1.36870E+02 9.76363E+00 0.00000E+00
 -1       704 1.39608E+02 2.35500E+01 0.00000E+00
 -1       705 1.40178E+02 3.96890E+01 0.00000E+00
 -1       706 1.39608E+02 1.76500E+01 0.00000E+00
 -1       707 1.39608E+02 2.65000E+01 0.00000E+00
 -1       708 1.39608E+02 2.06000E+01 0.00000E+00
 -1       709 7.05962E+01 2.00666E+01 0.00000E+00
 -1       710 1.39608E+02 2.94000E+01 0.00000E+00
 -1       711 1.39608E+02 3.23500E+01 0.00000E+00
 -1       712 1.39608E+02 3.53000E+01 0.00000E+00
 -1       713 1.75350E+01 9.20225E+00 0.00000E+00
 -1       714 7.03367E+01 3.57968E+01 0.00000E+00
 -1       715 7.19605E+01 2.26450E+01 0.00000E+00
 -1       716 4.76771E+01 2.37284E+01 0.00000E+00
 -1       717 5.86973E+01 4.10214E+01 0.00000E+00
 -1       718 4.81260E+01 3.44606E+01 0.00000E+00
 -1       719 2.65350E+01 9.20225E+00 0.00000E+00
 -1       720 1.21500E+01 3.96080E+01 0.00000E+00
 -1       721 1.45350E+01 9.20225E+00 0.00000E+00
 -1       722 7.17916E+01 3.33360E+01 0.00000E+00
 -1       723 6.15241E+01 4.10220E+01 0.00000E+00
 -1       724 6.88294E+01 1.83734E+01 0.00000E+00
 -1       725 6.07844E+01 1.50692E+01 0.00000E+00
 -1       726 5.28560E+01 1.75353E+01 0.00000E+00
 -1       727 4.86371E+01 2.09943E+01 0.00000E+00
 -1       728 4.90970E+01 3.58428E+01 0.00000E+00
 -1       729 5.47737E+01 1.62426E+01 0.00000E+00
 -1       730 1.03920E+01 1.76125E+01 0.00000E+00
 -1       731 1.03920E+01 3.23250E+01 0.00000E+00
 -1       732 5.06037E+01 1.92016E+01 0.00000E+00
 -1       733 6.35822E+01 1.55590E+01 0.00000E+00
 -1       734 6.89024E+01 3.79428E+01 0.00000E+00
 -1       735 7.32928E+01 2.87051E+01 0.00000E+00
 -1       736 1.03920E+01 3.52625E+01 0.00000E+00
 -1       737 1.03920E+01 2.64500E+01 0.00000E+00
 -1       738 5.57917E+01 1.48006E+01 0.00000E+00
 -1       739 1.39608E+02 1.47250E+01 0.00000E+00
 -1       740 7.41856E+01 2.70651E+01 0.00000E+00
 -1       741 1.05210E+01 3.87342E+01 0.00000E+00
 -1       742 4.67937E+01 2.83763E+01 0.00000E+00
 -1       743 1.38879E+02 3.74765E+01 0.00000E+00
 -1       744 4.68777E+01 2.55946E+01 0.00000E+00
 -1       745 4.65323E+01 3.32543E+01 0.00000E+00
 -1       746 4.59603E+01 3.00335E+01 0.00000E+00
 -1       747 6.42121E+01 4.09610E+01 0.00000E+00
 -1       748 1.03920E+01 2.93875E+01 0.00000E+00
 -1       749 5.89255E+01 1.40555E+01 0.00000E+00
 -1       750 1.29900E+01 1.32000E+01 0.00000E+00
 -1       751 1.96500E+01 3.70100E+01 0.00000E+00
 -1       752 2.26500E+01 3.70100E+01 0.00000E+00
 -1       753 2.56500E+01 3.70100E+01 0.00000E+00
 -1       754 2.86500E+01 3.70100E+01 0.00000E+00
 -1       755 3.16500E+01 3.70100E+01 0.00000E+00
 -1       756 3.46500E+01 3.70100E+01 0.00000E+00
 -1       757 3.76500E+01 3.70100E+01 0.00000E+00
 -1       758 4.06500E+01 3.70100E+01 0.00000E+00
 -1       759 4.36500E+01 3.70100E+01 0.00000E+00
 -1       760 4.77220E+01 3.74728E+01 0.00000E+00
 -1       761 1.36500E+01 3.70100E+01 0.00000E+00
 -1       762 7.36500E+01 3.70550E+01 0.00000E+00
 -1       763 7.66500E+01 3.70550E+01 0.00000E+00
 -1       764 7.96500E+01 3.70550E+01 0.00000E+00
 -1       765 8.26500E+01 3.70550E+01 0.00000E+00
 -1       766 8.56500E+01 3.70550E+01 0.00000E+00
 -1       767 8.86500E+01 3.70550E+01 0.00000E+00
 -1       768 9.16500E+01 3.70550E+01 0.00000E+00
 -1       769 9.46500E+01 3.70550E+01 0.00000E+00
 -1       770 9.76500E+01 3.70550E+01 0.00000E+00
 -1       771 1.00650E+02 3.70550E+01 0.00000E+00
 -1       772 1.03650E+02 3.70550E+01 0.00000E+00
 -1       773 1.06650E+02 3.70550E+01 0.00000E+00
 -1       774 1.09650E+02 3.70550E+01 0.00000E+00
 -1       775 1.12650E+02 3.70550E+01 0.00000E+00
 -1       776 1.15650E+02 3.70550E+01 0.00000E+00
 -1       777 1.18650E+02 3.70550E+01 0.00000E+00
 -1       778 1.21650E+02 3.70550E+01 0.00000E+00
 -1       779 1.24650E+02 3.70550E+01 0.00000E+00
 -1       780 1.27650E+02 3.70550E+01 0.00000E+00
 -1       781 1.30650E+02 3.70550E+01 0.00000E+00
 -1       782 1.33650E+02 3.70550E+01 0.00000E+00
 -1       783 1.36264E+02 3.72658E+01 0.00000E+00
 -1       784 3.40350E+01 1.18003E+01 0.00000E+00
 -1       785 3.10350E+01 1.18003E+01 0.00000E+00
 -1       786 4.00350E+01 1.18003E+01 0.00000E+00
 -1       787 4.30350E+01 1.18003E+01 0.00000E+00
 -1       788 4.60350E+01 1.18003E+01 0.00000E+00
 -1       789 4.90350E+01 1.18003E+01 0.00000E+00
 -1       790 5.20350E+01 1.18003E+01 0.00000E+00
 -1       791 5.50350E+01 1.18003E+01 0.00000E+00
 -1       792 6.40350E+01 1.18003E+01 0.00000E+00
 -1       793 6.70350E+01 1.18003E+01 0.00000E+00
 -1       794 7.00350E+01 1.18003E+01 0.00000E+00
 -1       795 7.30350E+01 1.18003E+01 0.00000E+00
 -1       796 7.60350E+01 1.18003E+01 0.00000E+00
 -1       797 7.90350E+01 1.18003E+01 0.00000E+00
 -1       798 8.20350E+01 1.18003E+01 0.00000E+00
 -1       799 8.50350E+01 1.18003E+01 0.00000E+00
 -1       800 8.80350E+01 1.18003E+01 0.00000E+00
 -1       801 9.10350E+01 1.18003E+01 0.00000E+00
 -1       802 9.40350E+01 1.18003E+01 0.00000E+00
 -1       803 9.70350E+01 1.18003E+01 0.00000E+00
 -1       804 1.00035E+02 1.18003E+01 0.00000E+00
 -1       805 1.03035E+02 1.18003E+01 0.00000E+00
 -1       806 1.06035E+02 1.18003E+01 0.00000E+00
 -1       807 1.09035E+02 1.18003E+01 0.00000E+00
 -1       808 1.12035E+02 1.18003E+01 0.00000E+00
 -1       809 1.15035E+02 1.18003E+01 0.00000E+00
 -1       810 1.18035E+02 1.18003E+01 0.00000E+00
 -1       811 1.21035E+02 1.18003E+01 0.00000E+00
 -1       812 1.24035E+02 1.18003E+01 0.00000E+00
 -1       813 1.27035E+02 1.18003E+01 0.00000E+00
 -1       814 1.30035E+02 1.18003E+01 0.00000E+00
 -1       815 1.33035E+02 1.18003E+01 0.00000E+00
 -1       816 4.55468E+01 2.39202E+01 0.00000E+00
 -1       817 6.57849E+01 1.38478E+01 0.00000E+00
 -1       818 1.29900E+01 2.20250E+01 0.00000E+00
 -1       819 1.37010E+02 3.08750E+01 0.00000E+00
 -1       820 1.37010E+02 2.50250E+01 0.00000E+00
 -1       821 6.89230E+01 1.55280E+01 0.00000E+00
 -1       822 1.37010E+02 3.38250E+01 0.00000E+00
 -1       823 1.37010E+02 2.79500E+01 0.00000E+00
 -1       824 1.90350E+01 1.18003E+01 0.00000E+00
 -1       825 7.23392E+01 2.37402E+01 0.00000E+00
 -1       826 1.37625E+01 1.12011E+01 0.00000E+00
 -1       827 7.11848E+01 3.79159E+01 0.00000E+00
 -1       828 7.46189E+01 3.06317E+01 0.00000E+00
 -1       829 3.70350E+01 1.18003E+01 0.00000E+00
 -1       830 7.33868E+01 2.02402E+01 0.00000E+00
 -1       831 2.20350E+01 1.18003E+01 0.00000E+00
 -1       832 7.41167E+01 2.46040E+01 0.00000E+00
 -1       833 4.65068E+01 2.11861E+01 0.00000E+00
 -1       834 7.40243E+01 3.26396E+01 0.00000E+00
 -1       835 7.13633E+01 1.74978E+01 0.00000E+00
 -1       836 7.37518E+01 2.24221E+01 0.00000E+00
 -1       837 5.28562E+01 1.54668E+01 0.00000E+00
 -1       838 1.66500E+01 3.70100E+01 0.00000E+00
 -1       839 5.07098E+01 1.69897E+01 0.00000E+00
 -1       840 4.83521E+01 1.87066E+01 0.00000E+00
 -1       841 1.20210E+01 3.61362E+01 0.00000E+00
 -1       842 7.26847E+01 3.55246E+01 0.00000E+00
 -1       843 6.25657E+01 1.31295E+01 0.00000E+00
 -1       844 4.51214E+01 2.69337E+01 0.00000E+00
 -1       845 1.29900E+01 2.49750E+01 0.00000E+00
 -1       846 5.38741E+01 1.40248E+01 0.00000E+00
 -1       847 1.20210E+01 3.31987E+01 0.00000E+00
 -1       848 1.37010E+02 1.61875E+01 0.00000E+00
 -1       849 1.20210E+01 3.02612E+01 0.00000E+00
 -1       850 4.42880E+01 2.85909E+01 0.00000E+00
 -1       851 2.80350E+01 1.18003E+01 0.00000E+00
 -1       852 6.10350E+01 1.18003E+01 0.00000E+00
 -1       853 1.35370E+02 1.23616E+01 0.00000E+00
 -1       854 1.37010E+02 1.91375E+01 0.00000E+00
 -1       855 1.37010E+02 2.20812E+01 0.00000E+00
 -1       856 1.36637E+02 3.55454E+01 0.00000E+00
 -1       857 1.29900E+01 1.61375E+01 0.00000E+00
 -1       858 4.59907E+01 3.56259E+01 0.00000E+00
 -1       859 4.47340E+01 3.21056E+01 0.00000E+00
 -1       860 7.55116E+01 2.89917E+01 0.00000E+00
 -1       861 2.50350E+01 1.18003E+01 0.00000E+00
 -1       862 1.29900E+01 1.90875E+01 0.00000E+00
 -1       863 1.36940E+02 1.29756E+01 0.00000E+00
 -1       864 1.63988E+01 1.15007E+01 0.00000E+00
 -1       865 2.11500E+01 3.44120E+01 0.00000E+00
 -1       866 2.41500E+01 3.44120E+01 0.00000E+00
 -1       867 2.71500E+01 3.44120E+01 0.00000E+00
 -1       868 3.01500E+01 3.44120E+01 0.00000E+00
 -1       869 3.31500E+01 3.44120E+01 0.00000E+00
 -1       870 3.61500E+01 3.44120E+01 0.00000E+00
 -1       871 3.91500E+01 3.44120E+01 0.00000E+00
 -1       872 4.21500E+01 3.44120E+01 0.00000E+00
 -1       873 1.36500E+01 3.40725E+01 0.00000E+00
 -1       874 7.81500E+01 3.44570E+01 0.00000E+00
 -1       875 8.11500E+01 3.44570E+01 0.00000E+00
 -1       876 8.41500E+01 3.44570E+01 0.00000E+00
 -1       877 8.71500E+01 3.44570E+01 0.00000E+00
 -1       878 9.01500E+01 3.44570E+01 0.00000E+00
 -1       879 9.31500E+01 3.44570E+01 0.00000E+00
 -1       880 9.61500E+01 3.44570E+01 0.00000E+00
 -1       881 9.91500E+01 3.44570E+01 0.00000E+00
 -1       882 1.02150E+02 3.44570E+01 0.00000E+00
 -1       883 1.05150E+02 3.44570E+01 0.00000E+00
 -1       884 1.08150E+02 3.44570E+01 0.00000E+00
 -1       885 1.11150E+02 3.44570E+01 0.00000E+00
 -1       886 1.14150E+02 3.44570E+01 0.00000E+00
 -1       887 1.17150E+02 3.44570E+01 0.00000E+00
 -1       888 1.20150E+02 3.44570E+01 0.00000E+00
 -1       889 1.23150E+02 3.44570E+01 0.00000E+00
 -1       890 1.26150E+02 3.44570E+01 0.00000E+00
 -1       891 1.29150E+02 3.44570E+01 0.00000E+00
 -1       892 1.32150E+02 3.44570E+01 0.00000E+00
 -1       893 3.25350E+01 1.43982E+01 0.00000E+00
 -1       894 4.45350E+01 1.43982E+01 0.00000E+00
 -1       895 4.15350E+01 1.43982E+01 0.00000E+00
 -1       896 5.05350E+01 1.43982E+01 0.00000E+00
 -1       897 7.52141E+01 3.49455E+01 0.00000E+00
 -1       898 7.45350E+01 1.43982E+01 0.00000E+00
 -1       899 7.75350E+01 1.43982E+01 0.00000E+00
 -1       900 8.05350E+01 1.43982E+01 0.00000E+00
 -1       901 8.35350E+01 1.43982E+01 0.00000E+00
 -1       902 8.65350E+01 1.43982E+01 0.00000E+00
 -1       903 8.95350E+01 1.43982E+01 0.00000E+00
 -1       904 9.25350E+01 1.43982E+01 0.00000E+00
 -1       905 9.55350E+01 1.43982E+01 0.00000E+00
 -1       906 9.85350E+01 1.43982E+01 0.00000E+00
 -1       907 1.01535E+02 1.43982E+01 0.00000E+00
 -1       908 1.04535E+02 1.43982E+01 0.00000E+00
 -1       909 1.07535E+02 1.43982E+01 0.00000E+00
 -1       910 1.10535E+02 1.43982E+01 0.00000E+00
 -1       911 1.13535E+02 1.43982E+01 0.00000E+00
 -1       912 1.16535E+02 1.43982E+01 0.00000E+00
 -1       913 1.19535E+02 1.43982E+01 0.00000E+00
 -1       914 1.22535E+02 1.43982E+01 0.00000E+00
 -1       915 1.25535E+02 1.43982E+01 0.00000E+00
 -1       916 1.28535E+02 1.43982E+01 0.00000E+00
 -1       917 1.31535E+02 1.43982E+01 0.00000E+00
 -1       918 4.29721E+01 2.50935E+01 0.00000E+00
 -1       919 1.34412E+02 3.23500E+01 0.00000E+00
 -1       920 7.42945E+01 1.74527E+01 0.00000E+00
 -1       921 2.05350E+01 1.43982E+01 0.00000E+00
 -1       922 4.39342E+01 2.18184E+01 0.00000E+00
 -1       923 7.61268E+01 3.21702E+01 0.00000E+00
 -1       924 1.25055E+01 2.76181E+01 0.00000E+00
 -1       925 7.60331E+01 2.57819E+01 0.00000E+00
 -1       926 4.75350E+01 1.43982E+01 0.00000E+00
 -1       927 4.53814E+01 1.84222E+01 0.00000E+00
 -1       928 4.83240E+01 1.61908E+01 0.00000E+00
 -1       929 7.17467E+01 1.45264E+01 0.00000E+00
 -1       930 1.81500E+01 3.44120E+01 0.00000E+00
 -1       931 4.21388E+01 2.67507E+01 0.00000E+00
 -1       932 1.36500E+01 3.11350E+01 0.00000E+00
 -1       933 1.55880E+01 2.35000E+01 0.00000E+00
 -1       934 7.61485E+01 2.34463E+01 0.00000E+00
 -1       935 2.95350E+01 1.43982E+01 0.00000E+00
 -1       936 3.55350E+01 1.43982E+01 0.00000E+00
 -1       937 1.34394E+02 3.50012E+01 0.00000E+00
 -1       938 4.30617E+01 3.06629E+01 0.00000E+00
 -1       939 1.55880E+01 1.46687E+01 0.00000E+00
 -1       940 3.85350E+01 1.43982E+01 0.00000E+00
 -1       941 2.35350E+01 1.43982E+01 0.00000E+00
 -1       942 1.34412E+02 2.94250E+01 0.00000E+00
 -1       943 1.33870E+02 1.49596E+01 0.00000E+00
 -1       944 1.34412E+02 2.35531E+01 0.00000E+00
 -1       945 1.59934E+01 1.30847E+01 0.00000E+00
 -1       946 7.62682E+01 1.96370E+01 0.00000E+00
 -1       947 4.43411E+01 3.38332E+01 0.00000E+00
 -1       948 1.55880E+01 2.05625E+01 0.00000E+00
 -1       949 1.34412E+02 2.64781E+01 0.00000E+00
 -1       950 1.75351E+01 1.43983E+01 0.00000E+00
 -1       951 7.73591E+01 2.77085E+01 0.00000E+00
 -1       952 7.70195E+01 3.05302E+01 0.00000E+00
 -1       953 7.62083E+01 2.15416E+01 0.00000E+00
 -1       954 1.34412E+02 1.76625E+01 0.00000E+00
 -1       955 1.34412E+02 2.06063E+01 0.00000E+00
 -1       956 2.56500E+01 3.18140E+01 0.00000E+00
 -1       957 2.86500E+01 3.18140E+01 0.00000E+00
 -1       958 3.16500E+01 3.18140E+01 0.00000E+00
 -1       959 3.46500E+01 3.18140E+01 0.00000E+00
 -1       960 3.76500E+01 3.18140E+01 0.00000E+00
 -1       961 4.06500E+01 3.18140E+01 0.00000E+00
 -1       962 7.96500E+01 3.18590E+01 0.00000E+00
 -1       963 7.81385E+01 2.47152E+01 0.00000E+00
 -1       964 1.55880E+01 1.76156E+01 0.00000E+00
 -1       965 8.26500E+01 3.18590E+01 0.00000E+00
 -1       966 8.56500E+01 3.18590E+01 0.00000E+00
 -1       967 8.86500E+01 3.18590E+01 0.00000E+00
 -1       968 9.16500E+01 3.18590E+01 0.00000E+00
 -1       969 9.46500E+01 3.18590E+01 0.00000E+00
 -1       970 9.76500E+01 3.18590E+01 0.00000E+00
 -1       971 1.00650E+02 3.18590E+01 0.00000E+00
 -1       972 1.03650E+02 3.18590E+01 0.00000E+00
 -1       973 1.06650E+02 3.18590E+01 0.00000E+00
 -1       974 1.09650E+02 3.18590E+01 0.00000E+00
 -1       975 1.12650E+02 3.18590E+01 0.00000E+00
 -1       976 1.15650E+02 3.18590E+01 0.00000E+00
 -1       977 1.18650E+02 3.18590E+01 0.00000E+00
 -1       978 1.21650E+02 3.18590E+01 0.00000E+00
 -1       979 1.24650E+02 3.18590E+01 0.00000E+00
 -1       980 1.27650E+02 3.18590E+01 0.00000E+00
 -1       981 1.30650E+02 3.18590E+01 0.00000E+00
 -1       982 7.71755E+01 1.68332E+01 0.00000E+00
 -1       983 8.20350E+01 1.69963E+01 0.00000E+00
 -1       984 8.50350E+01 1.69963E+01 0.00000E+00
 -1       985 8.80350E+01 1.69963E+01 0.00000E+00
 -1       986 9.10350E+01 1.69963E+01 0.00000E+00
 -1       987 9.40350E+01 1.69963E+01 0.00000E+00
 -1       988 9.70350E+01 1.69963E+01 0.00000E+00
 -1       989 1.00035E+02 1.69963E+01 0.00000E+00
 -1       990 1.03035E+02 1.69963E+01 0.00000E+00
 -1       991 1.06035E+02 1.69963E+01 0.00000E+00
 -1       992 1.09035E+02 1.69963E+01 0.00000E+00
 -1       993 1.12035E+02 1.69963E+01 0.00000E+00
 -1       994 1.15035E+02 1.69963E+01 0.00000E+00
 -1       995 1.18035E+02 1.69963E+01 0.00000E+00
 -1       996 1.21035E+02 1.69963E+01 0.00000E+00
 -1       997 1.24035E+02 1.69963E+01 0.00000E+00
 -1       998 1.27035E+02 1.69963E+01 0.00000E+00
 -1       999 1.30035E+02 1.69963E+01 0.00000E+00
 -1      1000 4.22678E+01 1.91018E+01 0.00000E+00
 -1      1001 1.32223E+02 1.73294E+01 0.00000E+00
 -1      1002 1.55717E+01 2.64968E+01 0.00000E+00
 -1      1003 4.26920E+01 3.19598E+01 0.00000E+00
 -1      1004 2.65350E+01 1.43982E+01 0.00000E+00
 -1      1005 1.90351E+01 1.69963E+01 0.00000E+00
 -1      1006 1.81500E+01 3.14745E+01 0.00000E+00
 -1      1007 4.11645E+01 2.27836E+01 0.00000E+00
 -1      1008 7.96053E+01 1.69147E+01 0.00000E+00
 -1      1009 4.30350E+01 1.69963E+01 0.00000E+00
 -1      1010 2.26500E+01 3.18140E+01 0.00000E+00
 -1      1011 4.09125E+01 2.88227E+01 0.00000E+00
 -1      1012 7.81984E+01 2.28106E+01 0.00000E+00
 -1      1013 3.10350E+01 1.69963E+01 0.00000E+00
 -1      1014 1.31814E+02 2.20797E+01 0.00000E+00
 -1      1015 3.40350E+01 1.69963E+01 0.00000E+00
 -1      1016 1.81778E+01 2.50125E+01 0.00000E+00
 -1      1017 4.52829E+01 1.52363E+01 0.00000E+00
 -1      1018 4.00350E+01 1.69963E+01 0.00000E+00
 -1      1019 7.86979E+01 1.97185E+01 0.00000E+00
 -1      1020 2.20351E+01 1.69963E+01 0.00000E+00
 -1      1021 4.03312E+01 2.44408E+01 0.00000E+00
 -1      1022 1.31814E+02 2.50047E+01 0.00000E+00
 -1      1023 1.81778E+01 2.20750E+01 0.00000E+00
 -1      1024 1.32019E+02 1.97045E+01 0.00000E+00
 -1      1025 8.11500E+01 2.93061E+01 0.00000E+00
 -1      1026 3.01500E+01 2.92160E+01 0.00000E+00
 -1      1027 3.31500E+01 2.92160E+01 0.00000E+00
 -1      1028 3.61500E+01 2.92160E+01 0.00000E+00
 -1      1029 1.40635E+01 2.84087E+01 0.00000E+00
 -1      1030 2.50351E+01 1.69963E+01 0.00000E+00
 -1      1031 8.95350E+01 1.95942E+01 0.00000E+00
 -1      1032 3.70350E+01 1.69963E+01 0.00000E+00
 -1      1033 8.41500E+01 2.93061E+01 0.00000E+00
 -1      1034 8.71500E+01 2.93061E+01 0.00000E+00
 -1      1035 9.01500E+01 2.93061E+01 0.00000E+00
 -1      1036 9.31500E+01 2.93061E+01 0.00000E+00
 -1      1037 9.61500E+01 2.93061E+01 0.00000E+00
 -1      1038 9.91500E+01 2.93061E+01 0.00000E+00
 -1      1039 1.02150E+02 2.93061E+01 0.00000E+00
 -1      1040 1.05150E+02 2.93061E+01 0.00000E+00
 -1      1041 1.08150E+02 2.93061E+01 0.00000E+00
 -1      1042 1.11150E+02 2.93061E+01 0.00000E+00
 -1      1043 1.14150E+02 2.93061E+01 0.00000E+00
 -1      1044 1.17150E+02 2.93061E+01 0.00000E+00
 -1      1045 1.20150E+02 2.93061E+01 0.00000E+00
 -1      1046 1.23150E+02 2.93061E+01 0.00000E+00
 -1      1047 1.26150E+02 2.93061E+01 0.00000E+00
 -1      1048 1.29150E+02 2.93061E+01 0.00000E+00
 -1      1049 8.65350E+01 1.95942E+01 0.00000E+00
 -1      1050 7.92545E+01 2.85073E+01 0.00000E+00
 -1      1051 8.35350E+01 1.95942E+01 0.00000E+00
 -1      1052 9.25350E+01 1.95942E+01 0.00000E+00
 -1      1053 9.55350E+01 1.95942E+01 0.00000E+00
 -1      1054 9.85350E+01 1.95942E+01 0.00000E+00
 -1      1055 1.01535E+02 1.95942E+01 0.00000E+00
 -1      1056 1.04535E+02 1.95942E+01 0.00000E+00
 -1      1057 1.07535E+02 1.95942E+01 0.00000E+00
 -1      1058 1.10535E+02 1.95942E+01 0.00000E+00
 -1      1059 1.13535E+02 1.95942E+01 0.00000E+00
 -1      1060 1.16535E+02 1.95942E+01 0.00000E+00
 -1      1061 1.19535E+02 1.95942E+01 0.00000E+00
 -1      1062 1.22535E+02 1.95942E+01 0.00000E+00
 -1      1063 1.25535E+02 1.95942E+01 0.00000E+00
 -1      1064 1.28535E+02 1.95942E+01 0.00000E+00
 -1      1065 1.81605E+01 2.80122E+01 0.00000E+00
 -1      1066 3.89317E+01 2.06780E+01 0.00000E+00
 -1      1067 2.80350E+01 1.69963E+01 0.00000E+00
 -1      1068 2.71500E+01 2.92160E+01 0.00000E+00
 -1      1069 8.00340E+01 2.55140E+01 0.00000E+00
 -1      1070 1.31781E+02 2.78921E+01 0.00000E+00
 -1      1071 2.26605E+01 2.83517E+01 0.00000E+00
 -1      1072 2.49052E+01 2.87838E+01 0.00000E+00
 -1      1073 3.80984E+01 2.23352E+01 0.00000E+00
 -1      1074 1.81860E+01 1.90891E+01 0.00000E+00
 -1      1075 2.07758E+01 2.35438E+01 0.00000E+00
 -1      1076 3.25350E+01 1.95942E+01 0.00000E+00
 -1      1077 2.17181E+01 2.59477E+01 0.00000E+00
 -1      1078 2.95350E+01 1.95943E+01 0.00000E+00
 -1      1079 8.11276E+01 1.98000E+01 0.00000E+00
 -1      1080 3.91048E+01 2.65129E+01 0.00000E+00
 -1      1081 8.00938E+01 2.36094E+01 0.00000E+00
 -1      1082 1.29216E+02 2.35422E+01 0.00000E+00
 -1      1083 2.11860E+01 1.90891E+01 0.00000E+00
 -1      1084 3.55350E+01 1.95942E+01 0.00000E+00
 -1      1085 3.46500E+01 2.66180E+01 0.00000E+00
 -1      1086 8.19294E+01 2.63128E+01 0.00000E+00
 -1      1087 1.26216E+02 2.35422E+01 0.00000E+00
 -1      1088 2.41860E+01 1.90891E+01 0.00000E+00
 -1      1089 9.40350E+01 2.21922E+01 0.00000E+00
 -1      1090 1.29183E+02 2.64241E+01 0.00000E+00
 -1      1091 8.56500E+01 2.67081E+01 0.00000E+00
 -1      1092 8.86500E+01 2.67081E+01 0.00000E+00
 -1      1093 9.16500E+01 2.67081E+01 0.00000E+00
 -1      1094 9.46500E+01 2.67081E+01 0.00000E+00
 -1      1095 9.76500E+01 2.67081E+01 0.00000E+00
 -1      1096 1.00650E+02 2.67081E+01 0.00000E+00
 -1      1097 1.03650E+02 2.67081E+01 0.00000E+00
 -1      1098 1.06650E+02 2.67081E+01 0.00000E+00
 -1      1099 1.09650E+02 2.67081E+01 0.00000E+00
 -1      1100 1.12650E+02 2.67081E+01 0.00000E+00
 -1      1101 1.15650E+02 2.67081E+01 0.00000E+00
 -1      1102 1.18650E+02 2.67081E+01 0.00000E+00
 -1      1103 1.21650E+02 2.67081E+01 0.00000E+00
 -1      1104 1.24650E+02 2.67081E+01 0.00000E+00
 -1      1105 1.26916E+02 2.65661E+01 0.00000E+00
 -1      1106 8.80350E+01 2.21922E+01 0.00000E+00
 -1      1107 8.50350E+01 2.21922E+01 0.00000E+00
 -1      1108 9.70350E+01 2.21922E+01 0.00000E+00
 -1      1109 1.00035E+02 2.21922E+01 0.00000E+00
 -1      1110 1.03035E+02 2.21922E+01 0.00000E+00
 -1      1111 1.06035E+02 2.21922E+01 0.00000E+00
 -1      1112 1.09035E+02 2.21922E+01 0.00000E+00
 -1      1113 1.12035E+02 2.21922E+01 0.00000E+00
 -1      1114 1.15035E+02 2.21922E+01 0.00000E+00
 -1      1115 1.18035E+02 2.21922E+01 0.00000E+00
 -1      1116 1.21035E+02 2.21922E+01 0.00000E+00
 -1      1117 1.23626E+02 2.28672E+01 0.00000E+00
 -1      1118 9.10350E+01 2.21922E+01 0.00000E+00
 -1      1119 2.68605E+01 1.93417E+01 0.00000E+00
 -1      1120 8.26276E+01 2.23980E+01 0.00000E+00
 -1      1121 2.09809E+01 2.13164E+01 0.00000E+00
 -1      1122 2.86500E+01 2.66180E+01 0.00000E+00
 -1      1123 3.16500E+01 2.66180E+01 0.00000E+00
 -1      1124 2.34654E+01 2.26683E+01 0.00000E+00
 -1      1125 2.64052E+01 2.61858E+01 0.00000E+00
 -1      1126 3.10350E+01 2.21923E+01 0.00000E+00
 -1      1127 8.19893E+01 2.44082E+01 0.00000E+00
 -1      1128 3.40350E+01 2.21923E+01 0.00000E+00
 -1      1129 3.68721E+01 2.44073E+01 0.00000E+00
 -1      1130 2.41853E+01 2.57261E+01 0.00000E+00
 -1      1131 9.85350E+01 2.47903E+01 0.00000E+00
 -1      1132 9.01500E+01 2.41101E+01 0.00000E+00
 -1      1133 1.02150E+02 2.41101E+01 0.00000E+00
 -1      1134 8.65350E+01 2.47903E+01 0.00000E+00
 -1      1135 2.83605E+01 2.19397E+01 0.00000E+00
 -1      1136 2.55229E+01 2.25339E+01 0.00000E+00
 -1      1137 8.41388E+01 2.45530E+01 0.00000E+00
 -1      1138 2.94535E+01 2.46524E+01 0.00000E+00
 -1      1139 3.31628E+01 2.45299E+01 0.00000E+00
 -1      1140 2.73829E+01 2.40628E+01 0.00000E+00
 -1      1141 0.00000E+00 4.85250E+01 0.00000E+00
 -1      1142 0.00000E+00 4.55750E+01 0.00000E+00
 -1      1143 0.00000E+00 4.26250E+01 0.00000E+00
 -1      1144 0.00000E+00 3.96750E+01 0.00000E+00
 -1      1145 0.00000E+00 3.67250E+01 0.00000E+00
 -1      1146 0.00000E+00 3.38000E+01 0.00000E+00
 -1      1147 0.00000E+00 3.08750E+01 0.00000E+00
 -1      1148 0.00000E+00 2.79250E+01 0.00000E+00
 -1      1149 0.00000E+00 2.49750E+01 0.00000E+00
 -1      1150 0.00000E+00 2.20250E+01 0.00000E+00
 -1      1151 0.00000E+00 1.90750E+01 0.00000E+00
 -1      1152 0.00000E+00 1.61500E+01 0.00000E+00
 -1      1153 0.00000E+00 1.32250E+01 0.00000E+00
 -1      1154 0.00000E+00 1.02750E+01 0.00000E+00
 -1      1155 0.00000E+00 7.32500E+00 0.00000E+00
 -1      1156 0.00000E+00 4.37500E+00 0.00000E+00
 -1      1157 0.00000E+00 1.45000E+00 0.00000E+00
 -1      1158 1.57500E+00 5.00000E+01 0.00000E+00
 -1      1159 4.65000E+00 5.00000E+01 0.00000E+00
 -1      1160 7.65000E+00 5.00000E+01 0.00000E+00
 -1      1161 1.06500E+01 5.00000E+01 0.00000E+00
 -1      1162 1.36500E+01 5.00000E+01 0.00000E+00
 -1      1163 1.66500E+01 5.00000E+01 0.00000E+00
 -1      1164 1.96500E+01 5.00000E+01 0.00000E+00
 -1      1165 2.26500E+01 5.00000E+01 0.00000E+00
 -1      1166 2.56500E+01 5.00000E+01 0.00000E+00
 -1      1167 2.86500E+01 5.00000E+01 0.00000E+00
 -1      1168 3.16500E+01 5.00000E+01 0.00000E+00
 -1      1169 3.46500E+01 5.00000E+01 0.00000E+00
 -1      1170 3.76500E+01 5.00000E+01 0.00000E+00
 -1      1171 4.06500E+01 5.00000E+01 0.00000E+00
 -1      1172 4.36500E+01 5.00000E+01 0.00000E+00
 -1      1173 4.66500E+01 5.00000E+01 0.00000E+00
 -1      1174 4.96500E+01 5.00000E+01 0.00000E+00
 -1      1175 5.26500E+01 5.00000E+01 0.00000E+00
 -1      1176 5.56500E+01 5.00000E+01 0.00000E+00
 -1      1177 5.86500E+01 5.00000E+01 0.00000E+00
 -1      1178 6.16500E+01 5.00000E+01 0.00000E+00
 -1      1179 6.46500E+01 5.00000E+01 0.00000E+00
 -1      1180 6.76500E+01 5.00000E+01 0.00000E+00
 -1      1181 7.06500E+01 5.00000E+01 0.00000E+00
 -1      1182 7.36500E+01 5.00000E+01 0.00000E+00
 -1      1183 7.66500E+01 5.00000E+01 0.00000E+00
 -1      1184 7.96500E+01 5.00000E+01 0.00000E+00
 -1      1185 8.26500E+01 5.00000E+01 0.00000E+00
 -1      1186 8.56500E+01 5.00000E+01 0.00000E+00
 -1      1187 8.86500E+01 5.00000E+01 0.00000E+00
 -1      1188 9.16500E+01 5.00000E+01 0.00000E+00
 -1      1189 9.46500E+01 5.00000E+01 0.00000E+00
 -1      1190 9.76500E+01 5.00000E+01 0.00000E+00
 -1      1191 1.00650E+02 5.00000E+01 0.00000E+00
 -1      1192 1.03650E+02 5.00000E+01 0.00000E+00
 -1      1193 1.06650E+02 5.00000E+01 0.00000E+00
 -1      1194 1.09650E+02 5.00000E+01 0.00000E+00
 -1      1195 1.12650E+02 5.00000E+01 0.00000E+00
 -1      1196 1.15650E+02 5.00000E+01 0.00000E+00
 -1      1197 1.18650E+02 5.00000E+01 0.00000E+00
 -1      1198 1.21650E+02 5.00000E+01 0.00000E+00
 -1      1199 1.24650E+02 5.00000E+01 0.00000E+00
 -1      1200 1.27650E+02 5.00000E+01 0.00000E+00
 -1      1201 1.30650E+02 5.00000E+01 0.00000E+00
 -1      1202 1.33650E+02 5.00000E+01 0.00000E+00
 -1      1203 1.36650E+02 5.00000E+01 0.00000E+00
 -1      1204 1.39650E+02 5.00000E+01 0.00000E+00
 -1      1205 1.42650E+02 5.00000E+01 0.00000E+00
 -1      1206 1.45650E+02 5.00000E+01 0.00000E+00
 -1      1207 1.48575E+02 5.00000E+01 0.00000E+00
 -1      1208 1.57500E+00 0.00000E+00 0.00000E+00
 -1      1209 4.65000E+00 0.00000E+00 0.00000E+00
 -1      1210 7.65000E+00 0.00000E+00 0.00000E+00
 -1      1211 1.06500E+01 0.00000E+00 0.00000E+00
 -1      1212 1.36500E+01 0.00000E+00 0.00000E+00
 -1      1213 1.66500E+01 0.00000E+00 0.00000E+00
 -1      1214 1.96500E+01 0.00000E+00 0.00000E+00
 -1      1215 2.26500E+01 0.00000E+00 0.00000E+00
 -1      1216 2.56500E+01 0.00000E+00 0.00000E+00
 -1      1217 2.86500E+01 0.00000E+00 0.00000E+00
 -1      1218 3.16500E+01 0.00000E+00 0.00000E+00
 -1      1219 3.46500E+01 0.00000E+00 0.00000E+00
 -1      1220 3.76500E+01 0.00000E+00 0.00000E+00
 -1      1221 4.06500E+01 0.00000E+00 0.00000E+00
 -1      1222 4.36500E+01 0.00000E+00 0.00000E+00
 -1      1223 4.66500E+01 0.00000E+00 0.00000E+00
 -1      1224 4.96500E+01 0.00000E+00 0.00000E+00
 -1      1225 5.26500E+01 0.00000E+00 0.00000E+00
 -1      1226 5.56500E+01 0.00000E+00 0.00000E+00
 -1      1227 5.86500E+01 0.00000E+00 0.00000E+00
 -1      1228 6.16500E+01 0.00000E+00 0.00000E+00
 -1      1229 6.46500E+01 0.00000E+00 0.00000E+00
 -1      1230 6.76500E+01 0.00000E+00 0.00000E+00
 -1      1231 7.06500E+01 0.00000E+00 0.00000E+00
 -1      1232 7.36500E+01 0.00000E+00 0.00000E+00
 -1      1233 7.66500E+01 0.00000E+00 0.00000E+00
 -1      1234 7.96500E+01 0.00000E+00 0.00000E+00
 -1      1235 8.26500E+01 0.00000E+00 0.00000E+00
 -1      1236 8.56500E+01 0.00000E+00 0.00000E+00
 -1      1237 8.86500E+01 0.00000E+00 0.00000E+00
 -1      1238 9.16500E+01 0.00000E+00 0.00000E+00
 -1      1239 9.46500E+01 0.00000E+00 0.00000E+00
 -1      1240 9.76500E+01 0.00000E+00 0.00000E+00
 -1      1241 1.00650E+02 0.00000E+00 0.00000E+00
 -1      1242 1.03650E+02 0.00000E+00 0.00000E+00
 -1      1243 1.06650E+02 0.00000E+00 0.00000E+00
 -1      1244 1.09650E+02 0.00000E+00 0.00000E+00
 -1      1245 1.12650E+02 0.00000E+00 0.00000E+00
 -1      1246 1.15650E+02 0.00000E+00 0.00000E+00
 -1      1247 1.18650E+02 0.00000E+00 0.00000E+00
 -1      1248 1.21650E+02 0.00000E+00 0.00000E+00
 -1      1249 1.24650E+02 0.00000E+00 0.00000E+00
 -1      1250 1.27650E+02 0.00000E+00 0.00000E+00
 -1      1251 1.30650E+02 0.00000E+00 0.00000E+00
 -1      1252 1.33650E+02 0.00000E+00 0.00000E+00
 -1      1253 1.36650E+02 0.00000E+00 0.00000E+00
 -1      1254 1.39650E+02 0.00000E+00 0.00000E+00
 -1      1255 1.42650E+02 0.00000E+00 0.00000E+00
 -1      1256 1.45650E+02 0.00000E+00 0.00000E+00
 -1      1257 1.48575E+02 0.00000E+00 0.00000E+00
 -1      1258 1.50000E+02 1.47500E+00 0.00000E+00
 -1      1259 1.50000E+02 4.42500E+00 0.00000E+00
 -1      1260 1.50000E+02 7.37500E+00 0.00000E+00
 -1      1261 1.50000E+02 1.03250E+01 0.00000E+00
 -1      1262 1.50000E+02 1.32750E+01 0.00000E+00
 -1      1263 1.50000E+02 1.62000E+01 0.00000E+00
 -1      1264 1.50000E+02 1.91250E+01 0.00000E+00
 -1      1265 1.50000E+02 2.20750E+01 0.00000E+00
 -1      1266 1.50000E+02 2.50250E+01 0.00000E+00
 -1      1267 1.50000E+02 2.79750E+01 0.00000E+00
 -1      1268 1.50000E+02 3.09250E+01 0.00000E+00
 -1      1269 1.50000E+02 3.38500E+01 0.00000E+00
 -1      1270 1.50000E+02 3.67750E+01 0.00000E+00
 -1      1271 1.50000E+02 3.97250E+01 0.00000E+00
 -1      1272 1.50000E+02 4.26750E+01 0.00000E+00
 -1      1273 1.50000E+02 4.56250E+01 0.00000E+00
 -1      1274 1.50000E+02 4.85500E+01 0.00000E+00
 -1      1275 6.68299E+01 2.76047E+01 0.00000E+00
 -1      1276 6.64893E+01 2.61058E+01 0.00000E+00
 -1      1277 6.58439E+01 2.47404E+01 0.00000E+00
 -1      1278 6.49343E+01 2.35593E+01 0.00000E+00
 -1      1279 6.38237E+01 2.26171E+01 0.00000E+00
 -1      1280 6.24872E+01 2.19026E+01 0.00000E+00
 -1      1281 6.10593E+01 2.14978E+01 0.00000E+00
 -1      1282 5.96177E+01 2.14016E+01 0.00000E+00
 -1      1283 5.80793E+01 2.16311E+01 0.00000E+00
 -1      1284 5.66589E+01 2.21794E+01 0.00000E+00
 -1      1285 5.54796E+01 2.29488E+01 0.00000E+00
 -1      1286 5.44709E+01 2.39474E+01 0.00000E+00
 -1      1287 5.36459E+01 2.52032E+01 0.00000E+00
 -1      1288 5.31144E+01 2.65813E+01 0.00000E+00
 -1      1289 5.28892E+01 2.79480E+01 0.00000E+00
 -1      1290 5.29418E+01 2.93626E+01 0.00000E+00
 -1      1291 5.32982E+01 3.07945E+01 0.00000E+00
 -1      1292 5.39302E+01 3.20931E+01 0.00000E+00
 -1      1293 5.48105E+01 3.32294E+01 0.00000E+00
 -1      1294 5.59599E+01 3.41998E+01 0.00000E+00
 -1      1295 5.72537E+01 3.48876E+01 0.00000E+00
 -1      1296 5.86259E+01 3.52846E+01 0.00000E+00
 -1      1297 6.00875E+01 3.53937E+01 0.00000E+00
 -1      1298 6.15010E+01 3.52054E+01 0.00000E+00
 -1      1299 6.28375E+01 3.47390E+01 0.00000E+00
 -1      1300 6.40861E+01 3.39884E+01 0.00000E+00
 -1      1301 6.51562E+01 3.29911E+01 0.00000E+00
 -1      1302 6.59876E+01 3.18079E+01 0.00000E+00
 -1      1303 6.65524E+01 3.04969E+01 0.00000E+00
 -1      1304 6.68390E+01 2.91039E+01 0.00000E+00
 -1      1305 1.57500E+00 4.85250E+01 0.00000E+00
 -1      1306 1.29900E+00 4.48375E+01 0.00000E+00
 -1      1307 1.29900E+00 4.63125E+01 0.00000E+00
 -1      1308 1.29900E+00 4.18875E+01 0.00000E+00
 -1      1309 1.29900E+00 4.33625E+01 0.00000E+00
 -1      1310 2.59800E+00 4.41000E+01 0.00000E+00
 -1      1311 1.29900E+00 3.89375E+01 0.00000E+00
 -1      1312 1.29900E+00 4.04125E+01 0.00000E+00
 -1      1313 2.59800E+00 4.11500E+01 0.00000E+00
 -1      1314 1.29900E+00 3.59875E+01 0.00000E+00
 -1      1315 1.29900E+00 3.74625E+01 0.00000E+00
 -1      1316 2.59800E+00 3.82000E+01 0.00000E+00
 -1      1317 1.29900E+00 3.30875E+01 0.00000E+00
 -1      1318 1.29900E+00 3.45375E+01 0.00000E+00
 -1      1319 2.59800E+00 3.52750E+01 0.00000E+00
 -1      1320 1.29900E+00 3.01375E+01 0.00000E+00
 -1      1321 1.29900E+00 3.16125E+01 0.00000E+00
 -1      1322 2.59800E+00 3.23500E+01 0.00000E+00
 -1      1323 1.29900E+00 2.71875E+01 0.00000E+00
 -1      1324 1.29900E+00 2.86625E+01 0.00000E+00
 -1      1325 2.59800E+00 2.94000E+01 0.00000E+00
 -1      1326 1.29900E+00 2.42375E+01 0.00000E+00
 -1      1327 1.29900E+00 2.57125E+01 0.00000E+00
 -1      1328 2.59800E+00 2.64500E+01 0.00000E+00
 -1      1329 1.29900E+00 2.12875E+01 0.00000E+00
 -1      1330 1.29900E+00 2.27625E+01 0.00000E+00
 -1      1331 2.59800E+00 2.35000E+01 0.00000E+00
 -1      1332 1.29900E+00 1.83375E+01 0.00000E+00
 -1      1333 1.29900E+00 1.98125E+01 0.00000E+00
 -1      1334 2.59800E+00 2.05500E+01 0.00000E+00
 -1      1335 1.29900E+00 1.54375E+01 0.00000E+00
 -1      1336 1.29900E+00 1.68875E+01 0.00000E+00
 -1      1337 2.59800E+00 1.76250E+01 0.00000E+00
 -1      1338 1.29900E+00 1.24875E+01 0.00000E+00
 -1      1339 1.29900E+00 1.39625E+01 0.00000E+00
 -1      1340 2.59800E+00 1.47000E+01 0.00000E+00
 -1      1341 1.29900E+00 9.53750E+00 0.00000E+00
 -1      1342 1.29900E+00 1.10125E+01 0.00000E+00
 -1      1343 2.59800E+00 1.17500E+01 0.00000E+00
 -1      1344 1.29900E+00 6.58750E+00 0.00000E+00
 -1      1345 1.29900E+00 8.06250E+00 0.00000E+00
 -1      1346 2.59800E+00 8.80000E+00 0.00000E+00
 -1      1347 1.29900E+00 3.63750E+00 0.00000E+00
 -1      1348 1.29900E+00 5.11250E+00 0.00000E+00
 -1      1349 2.59800E+00 5.85000E+00 0.00000E+00
 -1      1350 1.43700E+00 1.09375E+00 0.00000E+00
 -1      1351 1.43700E+00 2.54375E+00 0.00000E+00
 -1      1352 2.73600E+00 3.28125E+00 0.00000E+00
 -1      1353 3.01200E+00 1.09375E+00 0.00000E+00
 -1      1354 3.90000E+00 4.87010E+01 0.00000E+00
 -1      1355 5.40000E+00 4.87010E+01 0.00000E+00
 -1      1356 6.90000E+00 4.87010E+01 0.00000E+00
 -1      1357 8.40000E+00 4.87010E+01 0.00000E+00
 -1      1358 6.15000E+00 4.74020E+01 0.00000E+00
 -1      1359 9.90000E+00 4.87010E+01 0.00000E+00
 -1      1360 1.14000E+01 4.87010E+01 0.00000E+00
 -1      1361 9.15000E+00 4.74020E+01 0.00000E+00
 -1      1362 1.29000E+01 4.87010E+01 0.00000E+00
 -1      1363 1.44000E+01 4.87010E+01 0.00000E+00
 -1      1364 1.21500E+01 4.74020E+01 0.00000E+00
 -1      1365 1.59000E+01 4.87010E+01 0.00000E+00
 -1      1366 1.74000E+01 4.87010E+01 0.00000E+00
 -1      1367 1.51500E+01 4.74020E+01 0.00000E+00
 -1      1368 1.89000E+01 4.87010E+01 0.00000E+00
 -1      1369 2.04000E+01 4.87010E+01 0.00000E+00
 -1      1370 1.81500E+01 4.74020E+01 0.00000E+00
 -1      1371 2.19000E+01 4.87010E+01 0.00000E+00
 -1      1372 2.34000E+01 4.87010E+01 0.00000E+00
 -1      1373 2.11500E+01 4.74020E+01 0.00000E+00
 -1      1374 2.49000E+01 4.87010E+01 0.00000E+00
 -1      1375 2.64000E+01 4.87010E+01 0.00000E+00
 -1      1376 2.41500E+01 4.74020E+01 0.00000E+00
 -1      1377 2.79000E+01 4.87010E+01 0.00000E+00
 -1      1378 2.94000E+01 4.87010E+01 0.00000E+00
 -1      1379 2.71500E+01 4.74020E+01 0.00000E+00
 -1      1380 3.09000E+01 4.87010E+01 0.00000E+00
 -1      1381 3.24000E+01 4.87010E+01 0.00000E+00
 -1      1382 3.01500E+01 4.74020E+01 0.00000E+00
 -1      1383 3.39000E+01 4.87010E+01 0.00000E+00
 -1      1384 3.54000E+01 4.87010E+01 0.00000E+00
 -1      1385 3.31500E+01 4.74020E+01 0.00000E+00
 -1      1386 3.69000E+01 4.87010E+01 0.00000E+00
 -1      1387 3.84000E+01 4.87010E+01 0.00000E+00
 -1      1388 3.61500E+01 4.74020E+01 0.00000E+00
 -1      1389 3.99000E+01 4.87010E+01 0.00000E+00
 -1      1390 4.14000E+01 4.87010E+01 0.00000E+00
 -1      1391 3.91500E+01 4.74020E+01 0.00000E+00
 -1      1392 4.29000E+01 4.87010E+01 0.00000E+00
 -1      1393 4.44000E+01 4.87010E+01 0.00000E+00
 -1      1394 4.21500E+01 4.74020E+01 0.00000E+00
 -1      1395 4.59000E+01 4.87010E+01 0.00000E+00
 -1      1396 4.74000E+01 4.87010E+01 0.00000E+00
 -1      1397 4.51500E+01 4.74020E+01 0.00000E+00
 -1      1398 4.89000E+01 4.87010E+01 0.00000E+00
 -1      1399 5.04000E+01 4.87010E+01 0.00000E+00
 -1      1400 4.81500E+01 4.74020E+01 0.00000E+00
 -1      1401 5.19000E+01 4.87010E+01 0.00000E+00
 -1      1402 5.34000E+01 4.87010E+01 0.00000E+00
 -1      1403 5.11500E+01 4.74020E+01 0.00000E+00
 -1      1404 5.49000E+01 4.87010E+01 0.00000E+00
 -1      1405 5.64000E+01 4.87010E+01 0.00000E+00
 -1      1406 5.41500E+01 4.74020E+01 0.00000E+00
 -1      1407 5.79000E+01 4.87010E+01 0.00000E+00
 -1      1408 5.94000E+01 4.87010E+01 0.00000E+00
 -1      1409 5.71500E+01 4.74020E+01 0.00000E+00
 -1      1410 6.09000E+01 4.87010E+01 0.00000E+00
 -1      1411 6.24000E+01 4.87010E+01 0.00000E+00
 -1      1412 6.01500E+01 4.74020E+01 0.00000E+00
 -1      1413 6.39000E+01 4.87010E+01 0.00000E+00
 -1      1414 6.54000E+01 4.87010E+01 0.00000E+00
 -1      1415 6.31500E+01 4.74020E+01 0.00000E+00
 -1      1416 6.69000E+01 4.87010E+01 0.00000E+00
 -1      1417 6.84000E+01 4.87010E+01 0.00000E+00
 -1      1418 6.61500E+01 4.74020E+01 0.00000E+00
 -1      1419 6.99000E+01 4.87010E+01 0.00000E+00
 -1      1420 7.14000E+01 4.87010E+01 0.00000E+00
 -1      1421 6.91500E+01 4.74020E+01 0.00000E+00
 -1      1422 7.29000E+01 4.87010E+01 0.00000E+00
 -1      1423 7.44000E+01 4.87010E+01 0.00000E+00
 -1      1424 7.21500E+01 4.74020E+01 0.00000E+00
 -1      1425 7.59000E+01 4.87010E+01 0.00000E+00
 -1      1426 7.74000E+01 4.87010E+01 0.00000E+00
 -1      1427 7.51500E+01 4.74020E+01 0.00000E+00
 -1      1428 7.89000E+01 4.87010E+01 0.00000E+00
 -1      1429 8.04000E+01 4.87010E+01 0.00000E+00
 -1      1430 7.81500E+01 4.74020E+01 0.00000E+00
 -1      1431 8.19000E+01 4.87010E+01 0.00000E+00
 -1      1432 8.34000E+01 4.87010E+01 0.00000E+00
 -1      1433 8.11500E+01 4.74020E+01 0.00000E+00
 -1      1434 8.49000E+01 4.87010E+01 0.00000E+00
 -1      1435 8.64000E+01 4.87010E+01 0.00000E+00
 -1      1436 8.41500E+01 4.74020E+01 0.00000E+00
 -1      1437 8.79000E+01 4.87010E+01 0.00000E+00
 -1      1438 8.94000E+01 4.87010E+01 0.00000E+00
 -1      1439 8.71500E+01 4.74020E+01 0.00000E+00
 -1      1440 9.09000E+01 4.87010E+01 0.00000E+00
 -1      1441 9.24000E+01 4.87010E+01 0.00000E+00
 -1      1442 9.01500E+01 4.74020E+01 0.00000E+00
 -1      1443 9.39000E+01 4.87010E+01 0.00000E+00
 -1      1444 9.54000E+01 4.87010E+01 0.00000E+00
 -1      1445 9.31500E+01 4.74020E+01 0.00000E+00
 -1      1446 9.69000E+01 4.87010E+01 0.00000E+00
 -1      1447 9.84000E+01 4.87010E+01 0.00000E+00
 -1      1448 9.61500E+01 4.74020E+01 0.00000E+00
 -1      1449 9.99000E+01 4.87010E+01 0.00000E+00
 -1      1450 1.01400E+02 4.87010E+01 0.00000E+00
 -1      1451 9.91500E+01 4.74020E+01 0.00000E+00
 -1      1452 1.02900E+02 4.87010E+01 0.00000E+00
 -1      1453 1.04400E+02 4.87010E+01 0.00000E+00
 -1      1454 1.02150E+02 4.74020E+01 0.00000E+00
 -1      1455 1.05900E+02 4.87010E+01 0.00000E+00
 -1      1456 1.07400E+02 4.87010E+01 0.00000E+00
 -1      1457 1.05150E+02 4.74020E+01 0.00000E+00
 -1      1458 1.08900E+02 4.87010E+01 0.00000E+00
 -1      1459 1.10400E+02 4.87010E+01 0.00000E+00
 -1      1460 1.08150E+02 4.74020E+01 0.00000E+00
 -1      1461 1.11900E+02 4.87010E+01 0.00000E+00
 -1      1462 1.13400E+02 4.87010E+01 0.00000E+00
 -1      1463 1.11150E+02 4.74020E+01 0.00000E+00
 -1      1464 1.14900E+02 4.87010E+01 0.00000E+00
 -1      1465 1.16400E+02 4.87010E+01 0.00000E+00
 -1      1466 1.14150E+02 4.74020E+01 0.00000E+00
 -1      1467 1.17900E+02 4.87010E+01 0.00000E+00
 -1      1468 1.19400E+02 4.87010E+01 0.00000E+00
 -1      1469 1.17150E+02 4.74020E+01 0.00000E+00
 -1      1470 1.20900E+02 4.87010E+01 0.00000E+00
 -1      1471 1.22400E+02 4.87010E+01 0.00000E+00
 -1      1472 1.20150E+02 4.74020E+01 0.00000E+00
 -1      1473 1.23900E+02 4.87010E+01 0.00000E+00
 -1      1474 1.25400E+02 4.87010E+01 0.00000E+00
 -1      1475 1.23150E+02 4.74020E+01 0.00000E+00
 -1      1476 1.26900E+02 4.87010E+01 0.00000E+00
 -1      1477 1.28400E+02 4.87010E+01 0.00000E+00
 -1      1478 1.26150E+02 4.74020E+01 0.00000E+00
 -1      1479 1.29900E+02 4.87010E+01 0.00000E+00
 -1      1480 1.31400E+02 4.87010E+01 0.00000E+00
 -1      1481 1.29150E+02 4.74020E+01 0.00000E+00
 -1      1482 1.32900E+02 4.87010E+01 0.00000E+00
 -1      1483 1.34400E+02 4.87010E+01 0.00000E+00
 -1      1484 1.32150E+02 4.74020E+01 0.00000E+00
 -1      1485 1.35900E+02 4.87010E+01 0.00000E+00
 -1      1486 1.37400E+02 4.87010E+01 0.00000E+00
 -1      1487 1.35150E+02 4.74020E+01 0.00000E+00
 -1      1488 1.38900E+02 4.87010E+01 0.00000E+00
 -1      1489 1.40400E+02 4.87010E+01 0.00000E+00
 -1      1490 1.38150E+02 4.74020E+01 0.00000E+00
 -1      1491 1.41900E+02 4.87010E+01 0.00000E+00
 -1      1492 1.43400E+02 4.87010E+01 0.00000E+00
 -1      1493 1.41150E+02 4.74020E+01 0.00000E+00
 -1      1494 1.44900E+02 4.87010E+01 0.00000E+00
 -1      1495 1.46400E+02 4.87010E+01 0.00000E+00
 -1      1496 1.44150E+02 4.74020E+01 0.00000E+00
 -1      1497 1.48575E+02 4.85500E+01 0.00000E+00
 -1      1498 1.47825E+02 4.72510E+01 0.00000E+00
 -1      1499 6.01200E+00 1.09375E+00 0.00000E+00
 -1      1500 4.51200E+00 1.09375E+00 0.00000E+00
 -1      1501 4.37400E+00 2.18750E+00 0.00000E+00
 -1      1502 9.01200E+00 1.09375E+00 0.00000E+00
 -1      1503 7.51200E+00 1.09375E+00 0.00000E+00
 -1      1504 7.37400E+00 2.18750E+00 0.00000E+00
 -1      1505 1.20120E+01 1.09375E+00 0.00000E+00
 -1      1506 1.05120E+01 1.09375E+00 0.00000E+00
 -1      1507 1.03740E+01 2.18750E+00 0.00000E+00
 -1      1508 1.50120E+01 1.09375E+00 0.00000E+00
 -1      1509 1.35120E+01 1.09375E+00 0.00000E+00
 -1      1510 1.33740E+01 2.18750E+00 0.00000E+00
 -1      1511 1.80120E+01 1.09375E+00 0.00000E+00
 -1      1512 1.65120E+01 1.09375E+00 0.00000E+00
 -1      1513 1.63740E+01 2.18750E+00 0.00000E+00
 -1      1514 2.10120E+01 1.09375E+00 0.00000E+00
 -1      1515 1.95120E+01 1.09375E+00 0.00000E+00
 -1      1516 1.93740E+01 2.18750E+00 0.00000E+00
 -1      1517 2.40120E+01 1.09375E+00 0.00000E+00
 -1      1518 2.25120E+01 1.09375E+00 0.00000E+00
 -1      1519 2.23740E+01 2.18750E+00 0.00000E+00
 -1      1520 2.70120E+01 1.09375E+00 0.00000E+00
 -1      1521 2.55120E+01 1.09375E+00 0.00000E+00
 -1      1522 2.53740E+01 2.18750E+00 0.00000E+00
 -1      1523 3.00120E+01 1.09375E+00 0.00000E+00
 -1      1524 2.85120E+01 1.09375E+00 0.00000E+00
 -1      1525 2.83740E+01 2.18750E+00 0.00000E+00
 -1      1526 3.30120E+01 1.09375E+00 0.00000E+00
 -1      1527 3.15120E+01 1.09375E+00 0.00000E+00
 -1      1528 3.13740E+01 2.18750E+00 0.00000E+00
 -1      1529 3.60120E+01 1.09375E+00 0.00000E+00
 -1      1530 3.45120E+01 1.09375E+00 0.00000E+00
 -1      1531 3.43740E+01 2.18750E+00 0.00000E+00
 -1      1532 3.90120E+01 1.09375E+00 0.00000E+00
 -1      1533 3.75120E+01 1.09375E+00 0.00000E+00
 -1      1534 3.73740E+01 2.18750E+00 0.00000E+00
 -1      1535 4.20120E+01 1.09375E+00 0.00000E+00
 -1      1536 4.05120E+01 1.09375E+00 0.00000E+00
 -1      1537 4.03740E+01 2.18750E+00 0.00000E+00
 -1      1538 4.50120E+01 1.09375E+00 0.00000E+00
 -1      1539 4.35120E+01 1.09375E+00 0.00000E+00
 -1      1540 4.33740E+01 2.18750E+00 0.00000E+00
 -1      1541 4.80120E+01 1.09375E+00 0.00000E+00
 -1      1542 4.65120E+01 1.09375E+00 0.00000E+00
 -1      1543 4.63740E+01 2.18750E+00 0.00000E+00
 -1      1544 5.10120E+01 1.09375E+00 0.00000E+00
 -1      1545 4.95120E+01 1.09375E+00 0.00000E+00
 -1      1546 4.93740E+01 2.18750E+00 0.00000E+00
 -1      1547 5.40120E+01 1.09375E+00 0.00000E+00
 -1      1548 5.25120E+01 1.09375E+00 0.00000E+00
 -1      1549 5.23740E+01 2.18750E+00 0.00000E+00
 -1      1550 5.70120E+01 1.09375E+00 0.00000E+00
 -1      1551 5.55120E+01 1.09375E+00 0.00000E+00
 -1      1552 5.53740E+01 2.18750E+00 0.00000E+00
 -1      1553 6.00120E+01 1.09375E+00 0.00000E+00
 -1      1554 5.85120E+01 1.09375E+00 0.00000E+00
 -1      1555 5.83740E+01 2.18750E+00 0.00000E+00
 -1      1556 6.30120E+01 1.09375E+00 0.00000E+00
 -1      1557 6.15120E+01 1.09375E+00 0.00000E+00
 -1      1558 6.13740E+01 2.18750E+00 0.00000E+00
 -1      1559 6.60120E+01 1.09375E+00 0.00000E+00
 -1      1560 6.45120E+01 1.09375E+00 0.00000E+00
 -1      1561 6.43740E+01 2.18750E+00 0.00000E+00
 -1      1562 6.90120E+01 1.09375E+00 0.00000E+00
 -1      1563 6.75120E+01 1.09375E+00 0.00000E+00
 -1      1564 6.73740E+01 2.18750E+00 0.00000E+00
 -1      1565 7.20120E+01 1.09375E+00 0.00000E+00
 -1      1566 7.05120E+01 1.09375E+00 0.00000E+00
 -1      1567 7.03740E+01 2.18750E+00 0.00000E+00
 -1      1568 7.50120E+01 1.09375E+00 0.00000E+00
 -1      1569 7.35120E+01 1.09375E+00 0.00000E+00
 -1      1570 7.33740E+01 2.18750E+00 0.00000E+00
 -1      1571 7.80120E+01 1.09375E+00 0.00000E+00
 -1      1572 7.65120E+01 1.09375E+00 0.00000E+00
 -1      1573 7.63740E+01 2.18750E+00 0.00000E+00
 -1      1574 8.10120E+01 1.09375E+00 0.00000E+00
 -1      1575 7.95120E+01 1.09375E+00 0.00000E+00
 -1      1576 7.93740E+01 2.18750E+00 0.00000E+00
 -1      1577 8.40120E+01 1.09375E+00 0.00000E+00
 -1      1578 8.25120E+01 1.09375E+00 0.00000E+00
 -1      1579 8.23740E+01 2.18750E+00 0.00000E+00
 -1      1580 8.70120E+01 1.09375E+00 0.00000E+00
 -1      1581 8.55120E+01 1.09375E+00 0.00000E+00
 -1      1582 8.53740E+01 2.18750E+00 0.00000E+00
 -1      1583 9.00120E+01 1.09375E+00 0.00000E+00
 -1      1584 8.85120E+01 1.09375E+00 0.00000E+00
 -1      1585 8.83740E+01 2.18750E+00 0.00000E+00
 -1      1586 9.30120E+01 1.09375E+00 0.00000E+00
 -1      1587 9.15120E+01 1.09375E+00 0.00000E+00
 -1      1588 9.13740E+01 2.18750E+00 0.00000E+00
 -1      1589 9.60120E+01 1.09375E+00 0.00000E+00
 -1      1590 9.45120E+01 1.09375E+00 0.00000E+00
 -1      1591 9.43740E+01 2.18750E+00 0.00000E+00
 -1      1592 9.90120E+01 1.09375E+00 0.00000E+00
 -1      1593 9.75120E+01 1.09375E+00 0.00000E+00
 -1      1594 9.73740E+01 2.18750E+00 0.00000E+00
 -1      1595 1.02012E+02 1.09375E+00 0.00000E+00
 -1      1596 1.00512E+02 1.09375E+00 0.00000E+00
 -1      1597 1.00374E+02 2.18750E+00 0.00000E+00
 -1      1598 1.05012E+02 1.09375E+00 0.00000E+00
 -1      1599 1.03512E+02 1.09375E+00 0.00000E+00
 -1      1600 1.03374E+02 2.18750E+00 0.00000E+00
 -1      1601 1.08012E+02 1.09375E+00 0.00000E+00
 -1      1602 1.06512E+02 1.09375E+00 0.00000E+00
 -1      1603 1.06374E+02 2.18750E+00 0.00000E+00
 -1      1604 1.11012E+02 1.09375E+00 0.00000E+00
 -1      1605 1.09512E+02 1.09375E+00 0.00000E+00
 -1      1606 1.09374E+02 2.18750E+00 0.00000E+00
 -1      1607 1.14012E+02 1.09375E+00 0.00000E+00
 -1      1608 1.12512E+02 1.09375E+00 0.00000E+00
 -1      1609 1.12374E+02 2.18750E+00 0.00000E+00
 -1      1610 1.17012E+02 1.09375E+00 0.00000E+00
 -1      1611 1.15512E+02 1.09375E+00 0.00000E+00
 -1      1612 1.15374E+02 2.18750E+00 0.00000E+00
 -1      1613 1.20012E+02 1.09375E+00 0.00000E+00
 -1      1614 1.18512E+02 1.09375E+00 0.00000E+00
 -1      1615 1.18374E+02 2.18750E+00 0.00000E+00
 -1      1616 1.23012E+02 1.09375E+00 0.00000E+00
 -1      1617 1.21512E+02 1.09375E+00 0.00000E+00
 -1      1618 1.21374E+02 2.18750E+00 0.00000E+00
 -1      1619 1.26012E+02 1.09375E+00 0.00000E+00
 -1      1620 1.24512E+02 1.09375E+00 0.00000E+00
 -1      1621 1.24374E+02 2.18750E+00 0.00000E+00
 -1      1622 1.29012E+02 1.09375E+00 0.00000E+00
 -1      1623 1.27512E+02 1.09375E+00 0.00000E+00
 -1      1624 1.27374E+02 2.18750E+00 0.00000E+00
 -1      1625 1.32012E+02 1.09375E+00 0.00000E+00
 -1      1626 1.30512E+02 1.09375E+00 0.00000E+00
 -1      1627 1.30374E+02 2.18750E+00 0.00000E+00
 -1      1628 1.35012E+02 1.09375E+00 0.00000E+00
 -1      1629 1.33512E+02 1.09375E+00 0.00000E+00
 -1      1630 1.33374E+02 2.18750E+00 0.00000E+00
 -1      1631 1.38012E+02 1.09375E+00 0.00000E+00
 -1      1632 1.36512E+02 1.09375E+00 0.00000E+00
 -1      1633 1.36374E+02 2.18750E+00 0.00000E+00
 -1      1634 1.41012E+02 1.09375E+00 0.00000E+00
 -1      1635 1.39512E+02 1.09375E+00 0.00000E+00
 -1      1636 1.39374E+02 2.18750E+00 0.00000E+00
 -1      1637 1.44012E+02 1.09375E+00 0.00000E+00
 -1      1638 1.42512E+02 1.09375E+00 0.00000E+00
 -1      1639 1.42374E+02 2.18750E+00 0.00000E+00
 -1      1640 1.47012E+02 1.09375E+00 0.00000E+00
 -1      1641 1.45512E+02 1.09375E+00 0.00000E+00
 -1      1642 1.45374E+02 2.18750E+00 0.00000E+00
 -1      1643 1.48575E+02 1.47500E+00 0.00000E+00
 -1      1644 1.48701E+02 5.16250E+00 0.00000E+00
 -1      1645 1.48701E+02 3.68750E+00 0.00000E+00
 -1      1646 1.48701E+02 8.11250E+00 0.00000E+00
 -1      1647 1.48701E+02 6.63750E+00 0.00000E+00
 -1      1648 1.47402E+02 5.90000E+00 0.00000E+00
 -1      1649 1.48701E+02 1.10625E+01 0.00000E+00
 -1      1650 1.48701E+02 9.58750E+00 0.00000E+00
 -1      1651 1.47402E+02 8.85000E+00 0.00000E+00
 -1      1652 1.48701E+02 1.40125E+01 0.00000E+00
 -1      1653 1.48701E+02 1.25375E+01 0.00000E+00
 -1      1654 1.47402E+02 1.18000E+01 0.00000E+00
 -1      1655 1.48701E+02 1.69125E+01 0.00000E+00
 -1      1656 1.48701E+02 1.54625E+01 0.00000E+00
 -1      1657 1.47402E+02 1.47250E+01 0.00000E+00
 -1      1658 1.48701E+02 1.98625E+01 0.00000E+00
 -1      1659 1.48701E+02 1.83875E+01 0.00000E+00
 -1      1660 1.47402E+02 1.76500E+01 0.00000E+00
 -1      1661 1.48701E+02 2.28125E+01 0.00000E+00
 -1      1662 1.48701E+02 2.13375E+01 0.00000E+00
 -1      1663 1.47402E+02 2.06000E+01 0.00000E+00
 -1      1664 1.48701E+02 2.57625E+01 0.00000E+00
 -1      1665 1.48701E+02 2.42875E+01 0.00000E+00
 -1      1666 1.47402E+02 2.35500E+01 0.00000E+00
 -1      1667 1.48701E+02 2.87125E+01 0.00000E+00
 -1      1668 1.48701E+02 2.72375E+01 0.00000E+00
 -1      1669 1.47402E+02 2.65000E+01 0.00000E+00
 -1      1670 1.48701E+02 3.16625E+01 0.00000E+00
 -1      1671 1.48701E+02 3.01875E+01 0.00000E+00
 -1      1672 1.47402E+02 2.94500E+01 0.00000E+00
 -1      1673 1.48701E+02 3.45625E+01 0.00000E+00
 -1      1674 1.48701E+02 3.31125E+01 0.00000E+00
 -1      1675 1.47402E+02 3.23750E+01 0.00000E+00
 -1      1676 1.48701E+02 3.75125E+01 0.00000E+00
 -1      1677 1.48701E+02 3.60375E+01 0.00000E+00
 -1      1678 1.47402E+02 3.53000E+01 0.00000E+00
 -1      1679 1.48701E+02 4.04625E+01 0.00000E+00
 -1      1680 1.48701E+02 3.89875E+01 0.00000E+00
 -1      1681 1.47402E+02 3.82500E+01 0.00000E+00
 -1      1682 1.48701E+02 4.34125E+01 0.00000E+00
 -1      1683 1.48701E+02 4.19375E+01 0.00000E+00
 -1      1684 1.47402E+02 4.12000E+01 0.00000E+00
 -1      1685 1.48263E+02 4.60692E+01 0.00000E+00
 -1      1686 1.48263E+02 4.45942E+01 0.00000E+00
 -1      1687 1.46964E+02 4.38568E+01 0.00000E+00
 -1      1688 1.46088E+02 4.62202E+01 0.00000E+00
 -1      1689 6.74259E+01 2.71382E+01 0.00000E+00
 -1      1690 6.75156E+01 2.79253E+01 0.00000E+00
 -1      1691 6.70214E+01 2.55274E+01 0.00000E+00
 -1      1692 6.72652E+01 2.62313E+01 0.00000E+00
 -1      1693 6.61967E+01 2.40756E+01 0.00000E+00
 -1      1694 6.65964E+01 2.47282E+01 0.00000E+00
 -1      1695 6.50945E+01 2.29042E+01 0.00000E+00
 -1      1696 6.55959E+01 2.34286E+01 0.00000E+00
 -1      1697 6.38423E+01 2.19420E+01 0.00000E+00
 -1      1698 6.44458E+01 2.23543E+01 0.00000E+00
 -1      1699 6.23644E+01 2.11570E+01 0.00000E+00
 -1      1700 6.30922E+01 2.14498E+01 0.00000E+00
 -1      1701 6.08111E+01 2.08757E+01 0.00000E+00
 -1      1702 6.15007E+01 2.09941E+01 0.00000E+00
 -1      1703 5.92230E+01 2.08074E+01 0.00000E+00
 -1      1704 5.99676E+01 2.07800E+01 0.00000E+00
 -1      1705 5.75121E+01 2.10731E+01 0.00000E+00
 -1      1706 5.82952E+01 2.08653E+01 0.00000E+00
 -1      1707 5.60807E+01 2.18368E+01 0.00000E+00
 -1      1708 5.67134E+01 2.15096E+01 0.00000E+00
 -1      1709 5.48499E+01 2.27224E+01 0.00000E+00
 -1      1710 5.53915E+01 2.22855E+01 0.00000E+00
 -1      1711 5.38020E+01 2.38652E+01 0.00000E+00
 -1      1712 5.42619E+01 2.33066E+01 0.00000E+00
 -1      1713 5.28929E+01 2.52548E+01 0.00000E+00
 -1      1714 5.32483E+01 2.45616E+01 0.00000E+00
 -1      1715 5.24721E+01 2.67702E+01 0.00000E+00
 -1      1716 5.26531E+01 2.60961E+01 0.00000E+00
 -1      1717 5.22960E+01 2.82541E+01 0.00000E+00
 -1      1718 5.23401E+01 2.75685E+01 0.00000E+00
 -1      1719 5.23878E+01 2.98076E+01 0.00000E+00
 -1      1720 5.22873E+01 2.90860E+01 0.00000E+00
 -1      1721 5.28155E+01 3.13680E+01 0.00000E+00
 -1      1722 5.25596E+01 3.06662E+01 0.00000E+00
 -1      1723 5.36291E+01 3.26908E+01 0.00000E+00
 -1      1724 5.32609E+01 3.20987E+01 0.00000E+00
 -1      1725 5.46255E+01 3.39174E+01 0.00000E+00
 -1      1726 5.41146E+01 3.33820E+01 0.00000E+00
 -1      1727 5.58907E+01 3.49855E+01 0.00000E+00
 -1      1728 5.52573E+01 3.45581E+01 0.00000E+00
 -1      1729 5.73649E+01 3.55483E+01 0.00000E+00
 -1      1730 5.67148E+01 3.52858E+01 0.00000E+00
 -1      1731 5.88749E+01 3.59499E+01 0.00000E+00
 -1      1732 5.81592E+01 3.58201E+01 0.00000E+00
 -1      1733 6.04762E+01 3.60331E+01 0.00000E+00
 -1      1734 5.97383E+01 3.60555E+01 0.00000E+00
 -1      1735 6.19684E+01 3.56822E+01 0.00000E+00
 -1      1736 6.12995E+01 3.58419E+01 0.00000E+00
 -1      1737 6.34432E+01 3.51757E+01 0.00000E+00
 -1      1738 6.27838E+01 3.54838E+01 0.00000E+00
 -1      1739 6.47442E+01 3.42565E+01 0.00000E+00
 -1      1740 6.41620E+01 3.46950E+01 0.00000E+00
 -1      1741 6.58253E+01 3.30869E+01 0.00000E+00
 -1      1742 6.53437E+01 3.36405E+01 0.00000E+00
 -1      1743 6.66587E+01 3.17745E+01 0.00000E+00
 -1      1744 6.63116E+01 3.23965E+01 0.00000E+00
 -1      1745 6.72430E+01 3.03392E+01 0.00000E+00
 -1      1746 6.70284E+01 3.10214E+01 0.00000E+00
 -1      1747 6.74422E+01 2.88098E+01 0.00000E+00
 -1      1748 6.73708E+01 2.95131E+01 0.00000E+00
 -1      1749 6.51347E+01 2.21975E+01 0.00000E+00
 -1      1750 6.63841E+01 2.33945E+01 0.00000E+00
 -1      1751 1.48437E+02 2.56875E+00 0.00000E+00
 -1      1752 1.47138E+02 3.30625E+00 0.00000E+00
 -1      1753 6.79956E+01 2.65467E+01 0.00000E+00
 -1      1754 6.74099E+01 2.48406E+01 0.00000E+00
 -1      1755 6.80830E+01 2.83382E+01 0.00000E+00
 -1      1756 6.37359E+01 2.11554E+01 0.00000E+00
 -1      1757 6.21221E+01 2.05004E+01 0.00000E+00
 -1      1758 6.04150E+01 2.02418E+01 0.00000E+00
 -1      1759 5.86437E+01 2.02039E+01 0.00000E+00
 -1      1760 5.69172E+01 2.06983E+01 0.00000E+00
 -1      1761 5.54293E+01 2.15835E+01 0.00000E+00
 -1      1762 5.41520E+01 2.26164E+01 0.00000E+00
 -1      1763 5.30103E+01 2.38970E+01 0.00000E+00
 -1      1764 5.22169E+01 2.54347E+01 0.00000E+00
 -1      1765 5.18451E+01 2.70742E+01 0.00000E+00
 -1      1766 5.17043E+01 2.87043E+01 0.00000E+00
 -1      1767 5.18675E+01 3.03948E+01 0.00000E+00
 -1      1768 5.24847E+01 3.19842E+01 0.00000E+00
 -1      1769 5.34157E+01 3.34060E+01 0.00000E+00
 -1      1770 5.45329E+01 3.47378E+01 0.00000E+00
 -1      1771 5.59888E+01 3.56788E+01 0.00000E+00
 -1      1772 5.76071E+01 3.62509E+01 0.00000E+00
 -1      1773 5.92648E+01 3.66283E+01 0.00000E+00
 -1      1774 6.09515E+01 3.65428E+01 0.00000E+00
 -1      1775 6.25902E+01 3.61533E+01 0.00000E+00
 -1      1776 6.41243E+01 3.54742E+01 0.00000E+00
 -1      1777 6.54424E+01 3.43775E+01 0.00000E+00
 -1      1778 6.65282E+01 3.30712E+01 0.00000E+00
 -1      1779 6.73843E+01 3.16278E+01 0.00000E+00
 -1      1780 6.78818E+01 3.00487E+01 0.00000E+00
 -1      1781 2.87400E+00 4.77875E+01 0.00000E+00
 -1      1782 3.89700E+00 4.04125E+01 0.00000E+00
 -1      1783 3.89700E+00 4.18875E+01 0.00000E+00
 -1      1784 3.89700E+00 4.33625E+01 0.00000E+00
 -1      1785 3.89700E+00 4.48375E+01 0.00000E+00
 -1      1786 5.19600E+00 4.26250E+01 0.00000E+00
 -1      1787 3.89700E+00 3.45500E+01 0.00000E+00
 -1      1788 3.89700E+00 3.60000E+01 0.00000E+00
 -1      1789 3.89700E+00 3.16000E+01 0.00000E+00
 -1      1790 3.89700E+00 3.30750E+01 0.00000E+00
 -1      1791 5.19600E+00 3.38000E+01 0.00000E+00
 -1      1792 3.89700E+00 2.86500E+01 0.00000E+00
 -1      1793 3.89700E+00 3.01250E+01 0.00000E+00
 -1      1794 5.19600E+00 3.08500E+01 0.00000E+00
 -1      1795 3.89700E+00 2.57000E+01 0.00000E+00
 -1      1796 3.89700E+00 2.71750E+01 0.00000E+00
 -1      1797 5.19600E+00 2.79000E+01 0.00000E+00
 -1      1798 3.89700E+00 2.27500E+01 0.00000E+00
 -1      1799 3.89700E+00 2.42250E+01 0.00000E+00
 -1      1800 5.19600E+00 2.49500E+01 0.00000E+00
 -1      1801 3.89700E+00 1.98000E+01 0.00000E+00
 -1      1802 3.89700E+00 2.12750E+01 0.00000E+00
 -1      1803 5.19600E+00 2.20000E+01 0.00000E+00
 -1      1804 3.89700E+00 1.69000E+01 0.00000E+00
 -1      1805 3.89700E+00 1.83500E+01 0.00000E+00
 -1      1806 5.19600E+00 1.90750E+01 0.00000E+00
 -1      1807 3.89700E+00 1.39500E+01 0.00000E+00
 -1      1808 3.89700E+00 1.54250E+01 0.00000E+00
 -1      1809 5.19600E+00 1.61500E+01 0.00000E+00
 -1      1810 3.89700E+00 1.10000E+01 0.00000E+00
 -1      1811 3.89700E+00 1.24750E+01 0.00000E+00
 -1      1812 5.19600E+00 1.32000E+01 0.00000E+00
 -1      1813 3.89700E+00 8.05000E+00 0.00000E+00
 -1      1814 3.89700E+00 9.52500E+00 0.00000E+00
 -1      1815 5.19600E+00 1.02500E+01 0.00000E+00
 -1      1816 3.89700E+00 5.10000E+00 0.00000E+00
 -1      1817 3.89700E+00 6.57500E+00 0.00000E+00
 -1      1818 5.19600E+00 7.30000E+00 0.00000E+00
 -1      1819 4.20450E+00 3.09687E+00 0.00000E+00
 -1      1820 4.06650E+00 4.19063E+00 0.00000E+00
 -1      1821 5.36550E+00 4.91563E+00 0.00000E+00
 -1      1822 5.70450E+00 3.09687E+00 0.00000E+00
 -1      1823 3.62400E+00 4.64885E+01 0.00000E+00
 -1      1824 8.70450E+00 3.09687E+00 0.00000E+00
 -1      1825 7.20450E+00 3.09687E+00 0.00000E+00
 -1      1826 7.03500E+00 4.00625E+00 0.00000E+00
 -1      1827 4.92300E+00 4.57510E+01 0.00000E+00
 -1      1828 8.40000E+00 4.61030E+01 0.00000E+00
 -1      1829 9.90000E+00 4.61030E+01 0.00000E+00
 -1      1830 1.14000E+01 4.61030E+01 0.00000E+00
 -1      1831 1.29000E+01 4.61030E+01 0.00000E+00
 -1      1832 1.06500E+01 4.48040E+01 0.00000E+00
 -1      1833 1.44000E+01 4.61030E+01 0.00000E+00
 -1      1834 1.59000E+01 4.61030E+01 0.00000E+00
 -1      1835 1.36500E+01 4.48040E+01 0.00000E+00
 -1      1836 1.74000E+01 4.61030E+01 0.00000E+00
 -1      1837 1.89000E+01 4.61030E+01 0.00000E+00
 -1      1838 1.66500E+01 4.48040E+01 0.00000E+00
 -1      1839 2.04000E+01 4.61030E+01 0.00000E+00
 -1      1840 2.19000E+01 4.61030E+01 0.00000E+00
 -1      1841 1.96500E+01 4.48040E+01 0.00000E+00
 -1      1842 2.34000E+01 4.61030E+01 0.00000E+00
 -1      1843 2.49000E+01 4.61030E+01 0.00000E+00
 -1      1844 2.26500E+01 4.48040E+01 0.00000E+00
 -1      1845 2.64000E+01 4.61030E+01 0.00000E+00
 -1      1846 2.79000E+01 4.61030E+01 0.00000E+00
 -1      1847 2.56500E+01 4.48040E+01 0.00000E+00
 -1      1848 2.94000E+01 4.61030E+01 0.00000E+00
 -1      1849 3.09000E+01 4.61030E+01 0.00000E+00
 -1      1850 2.86500E+01 4.48040E+01 0.00000E+00
 -1      1851 3.24000E+01 4.61030E+01 0.00000E+00
 -1      1852 3.39000E+01 4.61030E+01 0.00000E+00
 -1      1853 3.16500E+01 4.48040E+01 0.00000E+00
 -1      1854 3.54000E+01 4.61030E+01 0.00000E+00
 -1      1855 3.69000E+01 4.61030E+01 0.00000E+00
 -1      1856 3.46500E+01 4.48040E+01 0.00000E+00
 -1      1857 3.84000E+01 4.61030E+01 0.00000E+00
 -1      1858 3.99000E+01 4.61030E+01 0.00000E+00
 -1      1859 3.76500E+01 4.48040E+01 0.00000E+00
 -1      1860 4.14000E+01 4.61030E+01 0.00000E+00
 -1      1861 4.29000E+01 4.61030E+01 0.00000E+00
 -1      1862 4.06500E+01 4.48040E+01 0.00000E+00
 -1      1863 4.44000E+01 4.61030E+01 0.00000E+00
 -1      1864 4.59000E+01 4.61030E+01 0.00000E+00
 -1      1865 4.36500E+01 4.48040E+01 0.00000E+00
 -1      1866 4.74000E+01 4.61030E+01 0.00000E+00
 -1      1867 4.89000E+01 4.61030E+01 0.00000E+00
 -1      1868 4.66500E+01 4.48040E+01 0.00000E+00
 -1      1869 5.04000E+01 4.61030E+01 0.00000E+00
 -1      1870 5.19000E+01 4.61030E+01 0.00000E+00
 -1      1871 4.96500E+01 4.48040E+01 0.00000E+00
 -1      1872 5.34000E+01 4.61030E+01 0.00000E+00
 -1      1873 5.49000E+01 4.61030E+01 0.00000E+00
 -1      1874 5.26500E+01 4.48040E+01 0.00000E+00
 -1      1875 5.64000E+01 4.61030E+01 0.00000E+00
 -1      1876 5.79000E+01 4.61030E+01 0.00000E+00
 -1      1877 5.56500E+01 4.48040E+01 0.00000E+00
 -1      1878 5.94000E+01 4.61030E+01 0.00000E+00
 -1      1879 6.09000E+01 4.61030E+01 0.00000E+00
 -1      1880 5.86500E+01 4.48040E+01 0.00000E+00
 -1      1881 6.24000E+01 4.61030E+01 0.00000E+00
 -1      1882 6.39000E+01 4.61030E+01 0.00000E+00
 -1      1883 6.16500E+01 4.48040E+01 0.00000E+00
 -1      1884 6.54000E+01 4.61030E+01 0.00000E+00
 -1      1885 6.69000E+01 4.61030E+01 0.00000E+00
 -1      1886 6.46500E+01 4.48040E+01 0.00000E+00
 -1      1887 6.84000E+01 4.61030E+01 0.00000E+00
 -1      1888 6.99000E+01 4.61030E+01 0.00000E+00
 -1      1889 6.76500E+01 4.48040E+01 0.00000E+00
 -1      1890 7.14000E+01 4.61030E+01 0.00000E+00
 -1      1891 7.29000E+01 4.61030E+01 0.00000E+00
 -1      1892 7.06500E+01 4.48040E+01 0.00000E+00
 -1      1893 7.44000E+01 4.61030E+01 0.00000E+00
 -1      1894 7.59000E+01 4.61030E+01 0.00000E+00
 -1      1895 7.36500E+01 4.48040E+01 0.00000E+00
 -1      1896 7.74000E+01 4.61030E+01 0.00000E+00
 -1      1897 7.89000E+01 4.61030E+01 0.00000E+00
 -1      1898 7.66500E+01 4.48040E+01 0.00000E+00
 -1      1899 8.04000E+01 4.61030E+01 0.00000E+00
 -1      1900 8.19000E+01 4.61030E+01 0.00000E+00
 -1      1901 7.96500E+01 4.48040E+01 0.00000E+00
 -1      1902 8.34000E+01 4.61030E+01 0.00000E+00
 -1      1903 8.49000E+01 4.61030E+01 0.00000E+00
 -1      1904 8.26500E+01 4.48040E+01 0.00000E+00
 -1      1905 8.64000E+01 4.61030E+01 0.00000E+00
 -1      1906 8.79000E+01 4.61030E+01 0.00000E+00
 -1      1907 8.56500E+01 4.48040E+01 0.00000E+00
 -1      1908 8.94000E+01 4.61030E+01 0.00000E+00
 -1      1909 9.09000E+01 4.61030E+01 0.00000E+00
 -1      1910 8.86500E+01 4.48040E+01 0.00000E+00
 -1      1911 9.24000E+01 4.61030E+01 0.00000E+00
 -1      1912 9.39000E+01 4.61030E+01 0.00000E+00
 -1      1913 9.16500E+01 4.48040E+01 0.00000E+00
 -1      1914 9.54000E+01 4.61030E+01 0.00000E+00
 -1      1915 9.69000E+01 4.61030E+01 0.00000E+00
 -1      1916 9.46500E+01 4.48040E+01 0.00000E+00
 -1      1917 9.84000E+01 4.61030E+01 0.00000E+00
 -1      1918 9.99000E+01 4.61030E+01 0.00000E+00
 -1      1919 9.76500E+01 4.48040E+01 0.00000E+00
 -1      1920 1.01400E+02 4.61030E+01 0.00000E+00
 -1      1921 1.02900E+02 4.61030E+01 0.00000E+00
 -1      1922 1.00650E+02 4.48040E+01 0.00000E+00
 -1      1923 1.04400E+02 4.61030E+01 0.00000E+00
 -1      1924 1.05900E+02 4.61030E+01 0.00000E+00
 -1      1925 1.03650E+02 4.48040E+01 0.00000E+00
 -1      1926 1.07400E+02 4.61030E+01 0.00000E+00
 -1      1927 1.08900E+02 4.61030E+01 0.00000E+00
 -1      1928 1.06650E+02 4.48040E+01 0.00000E+00
 -1      1929 1.10400E+02 4.61030E+01 0.00000E+00
 -1      1930 1.11900E+02 4.61030E+01 0.00000E+00
 -1      1931 1.09650E+02 4.48040E+01 0.00000E+00
 -1      1932 1.13400E+02 4.61030E+01 0.00000E+00
 -1      1933 1.14900E+02 4.61030E+01 0.00000E+00
 -1      1934 1.12650E+02 4.48040E+01 0.00000E+00
 -1      1935 1.16400E+02 4.61030E+01 0.00000E+00
 -1      1936 1.17900E+02 4.61030E+01 0.00000E+00
 -1      1937 1.15650E+02 4.48040E+01 0.00000E+00
 -1      1938 1.19400E+02 4.61030E+01 0.00000E+00
 -1      1939 1.20900E+02 4.61030E+01 0.00000E+00
 -1      1940 1.18650E+02 4.48040E+01 0.00000E+00
 -1      1941 1.22400E+02 4.61030E+01 0.00000E+00
 -1      1942 1.23900E+02 4.61030E+01 0.00000E+00
 -1      1943 1.21650E+02 4.48040E+01 0.00000E+00
 -1      1944 1.25400E+02 4.61030E+01 0.00000E+00
 -1      1945 1.26900E+02 4.61030E+01 0.00000E+00
 -1      1946 1.24650E+02 4.48040E+01 0.00000E+00
 -1      1947 1.28400E+02 4.61030E+01 0.00000E+00
 -1      1948 1.29900E+02 4.61030E+01 0.00000E+00
 -1      1949 1.27650E+02 4.48040E+01 0.00000E+00
 -1      1950 1.31400E+02 4.61030E+01 0.00000E+00
 -1      1951 1.32900E+02 4.61030E+01 0.00000E+00
 -1      1952 1.30650E+02 4.48040E+01 0.00000E+00
 -1      1953 1.34400E+02 4.61030E+01 0.00000E+00
 -1      1954 1.35900E+02 4.61030E+01 0.00000E+00
 -1      1955 1.33650E+02 4.48040E+01 0.00000E+00
 -1      1956 1.37400E+02 4.61030E+01 0.00000E+00
 -1      1957 1.38900E+02 4.61030E+01 0.00000E+00
 -1      1958 1.36650E+02 4.48040E+01 0.00000E+00
 -1      1959 1.40400E+02 4.61030E+01 0.00000E+00
 -1      1960 1.41900E+02 4.61030E+01 0.00000E+00
 -1      1961 1.39650E+02 4.48040E+01 0.00000E+00
 -1      1962 1.43244E+02 4.61616E+01 0.00000E+00
 -1      1963 1.44744E+02 4.61616E+01 0.00000E+00
 -1      1964 1.45182E+02 4.49799E+01 0.00000E+00
 -1      1965 1.42494E+02 4.48626E+01 0.00000E+00
 -1      1966 1.17045E+01 3.09687E+00 0.00000E+00
 -1      1967 1.02045E+01 3.09687E+00 0.00000E+00
 -1      1968 1.00350E+01 4.00625E+00 0.00000E+00
 -1      1969 1.47045E+01 3.09687E+00 0.00000E+00
 -1      1970 1.32045E+01 3.09687E+00 0.00000E+00
 -1      1971 1.30350E+01 4.00625E+00 0.00000E+00
 -1      1972 1.77045E+01 3.09687E+00 0.00000E+00
 -1      1973 1.62045E+01 3.09687E+00 0.00000E+00
 -1      1974 1.60350E+01 4.00625E+00 0.00000E+00
 -1      1975 2.07045E+01 3.09687E+00 0.00000E+00
 -1      1976 1.92045E+01 3.09687E+00 0.00000E+00
 -1      1977 1.90350E+01 4.00625E+00 0.00000E+00
 -1      1978 2.37045E+01 3.09687E+00 0.00000E+00
 -1      1979 2.22045E+01 3.09687E+00 0.00000E+00
 -1      1980 2.20350E+01 4.00625E+00 0.00000E+00
 -1      1981 2.67045E+01 3.09687E+00 0.00000E+00
 -1      1982 2.52045E+01 3.09687E+00 0.00000E+00
 -1      1983 2.50350E+01 4.00625E+00 0.00000E+00
 -1      1984 2.97045E+01 3.09687E+00 0.00000E+00
 -1      1985 2.82045E+01 3.09687E+00 0.00000E+00
 -1      1986 2.80350E+01 4.00625E+00 0.00000E+00
 -1      1987 3.27045E+01 3.09687E+00 0.00000E+00
 -1      1988 3.12045E+01 3.09687E+00 0.00000E+00
 -1      1989 3.10350E+01 4.00625E+00 0.00000E+00
 -1      1990 3.57045E+01 3.09687E+00 0.00000E+00
 -1      1991 3.42045E+01 3.09687E+00 0.00000E+00
 -1      1992 3.40350E+01 4.00625E+00 0.00000E+00
 -1      1993 3.87045E+01 3.09687E+00 0.00000E+00
 -1      1994 3.72045E+01 3.09687E+00 0.00000E+00
 -1      1995 3.70350E+01 4.00625E+00 0.00000E+00
 -1      1996 4.17045E+01 3.09687E+00 0.00000E+00
 -1      1997 4.02045E+01 3.09687E+00 0.00000E+00
 -1      1998 4.00350E+01 4.00625E+00 0.00000E+00
 -1      1999 4.47045E+01 3.09687E+00 0.00000E+00
 -1      2000 4.32045E+01 3.09687E+00 0.00000E+00
 -1      2001 4.30350E+01 4.00625E+00 0.00000E+00
 -1      2002 4.77045E+01 3.09687E+00 0.00000E+00
 -1      2003 4.62045E+01 3.09687E+00 0.00000E+00
 -1      2004 4.60350E+01 4.00625E+00 0.00000E+00
 -1      2005 5.07045E+01 3.09687E+00 0.00000E+00
 -1      2006 4.92045E+01 3.09687E+00 0.00000E+00
 -1      2007 4.90350E+01 4.00625E+00 0.00000E+00
 -1      2008 5.37045E+01 3.09687E+00 0.00000E+00
 -1      2009 5.22045E+01 3.09687E+00 0.00000E+00
 -1      2010 5.20350E+01 4.00625E+00 0.00000E+00
 -1      2011 5.67045E+01 3.09687E+00 0.00000E+00
 -1      2012 5.52045E+01 3.09687E+00 0.00000E+00
 -1      2013 5.50350E+01 4.00625E+00 0.00000E+00
 -1      2014 5.97045E+01 3.09687E+00 0.00000E+00
 -1      2015 5.82045E+01 3.09687E+00 0.00000E+00
 -1      2016 5.80350E+01 4.00625E+00 0.00000E+00
 -1      2017 6.27045E+01 3.09687E+00 0.00000E+00
 -1      2018 6.12045E+01 3.09687E+00 0.00000E+00
 -1      2019 6.10350E+01 4.00625E+00 0.00000E+00
 -1      2020 6.57045E+01 3.09687E+00 0.00000E+00
 -1      2021 6.42045E+01 3.09687E+00 0.00000E+00
 -1      2022 6.40350E+01 4.00625E+00 0.00000E+00
 -1      2023 6.87045E+01 3.09687E+00 0.00000E+00
 -1      2024 6.72045E+01 3.09687E+00 0.00000E+00
 -1      2025 6.70350E+01 4.00625E+00 0.00000E+00
 -1      2026 7.17045E+01 3.09687E+00 0.00000E+00
 -1      2027 7.02045E+01 3.09687E+00 0.00000E+00
 -1      2028 7.00350E+01 4.00625E+00 0.00000E+00
 -1      2029 7.47045E+01 3.09687E+00 0.00000E+00
 -1      2030 7.32045E+01 3.09687E+00 0.00000E+00
 -1      2031 7.30350E+01 4.00625E+00 0.00000E+00
 -1      2032 7.77045E+01 3.09687E+00 0.00000E+00
 -1      2033 7.62045E+01 3.09687E+00 0.00000E+00
 -1      2034 7.60350E+01 4.00625E+00 0.00000E+00
 -1      2035 8.07045E+01 3.09687E+00 0.00000E+00
 -1      2036 7.92045E+01 3.09687E+00 0.00000E+00
 -1      2037 7.90350E+01 4.00625E+00 0.00000E+00
 -1      2038 8.37045E+01 3.09687E+00 0.00000E+00
 -1      2039 8.22045E+01 3.09687E+00 0.00000E+00
 -1      2040 8.20350E+01 4.00625E+00 0.00000E+00
 -1      2041 8.67045E+01 3.09687E+00 0.00000E+00
 -1      2042 8.52045E+01 3.09687E+00 0.00000E+00
 -1      2043 8.50350E+01 4.00625E+00 0.00000E+00
 -1      2044 8.97045E+01 3.09687E+00 0.00000E+00
 -1      2045 8.82045E+01 3.09687E+00 0.00000E+00
 -1      2046 8.80350E+01 4.00625E+00 0.00000E+00
 -1      2047 9.27045E+01 3.09687E+00 0.00000E+00
 -1      2048 9.12045E+01 3.09687E+00 0.00000E+00
 -1      2049 9.10350E+01 4.00625E+00 0.00000E+00
 -1      2050 9.57045E+01 3.09687E+00 0.00000E+00
 -1      2051 9.42045E+01 3.09687E+00 0.00000E+00
 -1      2052 9.40350E+01 4.00625E+00 0.00000E+00
 -1      2053 9.87045E+01 3.09687E+00 0.00000E+00
 -1      2054 9.72045E+01 3.09687E+00 0.00000E+00
 -1      2055 9.70350E+01 4.00625E+00 0.00000E+00
 -1      2056 1.01704E+02 3.09687E+00 0.00000E+00
 -1      2057 1.00204E+02 3.09687E+00 0.00000E+00
 -1      2058 1.00035E+02 4.00625E+00 0.00000E+00
 -1      2059 1.04704E+02 3.09687E+00 0.00000E+00
 -1      2060 1.03204E+02 3.09687E+00 0.00000E+00
 -1      2061 1.03035E+02 4.00625E+00 0.00000E+00
 -1      2062 1.07704E+02 3.09687E+00 0.00000E+00
 -1      2063 1.06204E+02 3.09687E+00 0.00000E+00
 -1      2064 1.06035E+02 4.00625E+00 0.00000E+00
 -1      2065 1.10704E+02 3.09687E+00 0.00000E+00
 -1      2066 1.09204E+02 3.09687E+00 0.00000E+00
 -1      2067 1.09035E+02 4.00625E+00 0.00000E+00
 -1      2068 1.13704E+02 3.09687E+00 0.00000E+00
 -1      2069 1.12204E+02 3.09687E+00 0.00000E+00
 -1      2070 1.12035E+02 4.00625E+00 0.00000E+00
 -1      2071 1.16704E+02 3.09687E+00 0.00000E+00
 -1      2072 1.15204E+02 3.09687E+00 0.00000E+00
 -1      2073 1.15035E+02 4.00625E+00 0.00000E+00
 -1      2074 1.19704E+02 3.09687E+00 0.00000E+00
 -1      2075 1.18204E+02 3.09687E+00 0.00000E+00
 -1      2076 1.18035E+02 4.00625E+00 0.00000E+00
 -1      2077 1.22704E+02 3.09687E+00 0.00000E+00
 -1      2078 1.21204E+02 3.09687E+00 0.00000E+00
 -1      2079 1.21035E+02 4.00625E+00 0.00000E+00
 -1      2080 1.25704E+02 3.09687E+00 0.00000E+00
 -1      2081 1.24204E+02 3.09687E+00 0.00000E+00
 -1      2082 1.24035E+02 4.00625E+00 0.00000E+00
 -1      2083 1.28704E+02 3.09687E+00 0.00000E+00
 -1      2084 1.27204E+02 3.09687E+00 0.00000E+00
 -1      2085 1.27035E+02 4.00625E+00 0.00000E+00
 -1      2086 1.31704E+02 3.09687E+00 0.00000E+00
 -1      2087 1.30204E+02 3.09687E+00 0.00000E+00
 -1      2088 1.30035E+02 4.00625E+00 0.00000E+00
 -1      2089 1.34704E+02 3.09687E+00 0.00000E+00
 -1      2090 1.33204E+02 3.09687E+00 0.00000E+00
 -1      2091 1.33035E+02 4.00625E+00 0.00000E+00
 -1      2092 1.37704E+02 3.09687E+00 0.00000E+00
 -1      2093 1.36204E+02 3.09687E+00 0.00000E+00
 -1      2094 1.36035E+02 4.00625E+00 0.00000E+00
 -1      2095 1.40704E+02 3.09687E+00 0.00000E+00
 -1      2096 1.39204E+02 3.09687E+00 0.00000E+00
 -1      2097 1.39035E+02 4.00625E+00 0.00000E+00
 -1      2098 1.43704E+02 3.09687E+00 0.00000E+00
 -1      2099 1.42204E+02 3.09687E+00 0.00000E+00
 -1      2100 1.42035E+02 4.00625E+00 0.00000E+00
 -1      2101 1.46171E+02 3.20156E+00 0.00000E+00
 -1      2102 1.44671E+02 3.20156E+00 0.00000E+00
 -1      2103 1.44502E+02 4.11094E+00 0.00000E+00
 -1      2104 1.46435E+02 4.32031E+00 0.00000E+00
 -1      2105 1.46103E+02 1.25375E+01 0.00000E+00
 -1      2106 1.46103E+02 1.10625E+01 0.00000E+00
 -1      2107 1.46103E+02 9.58750E+00 0.00000E+00
 -1      2108 1.46103E+02 8.11250E+00 0.00000E+00
 -1      2109 1.44804E+02 1.03250E+01 0.00000E+00
 -1      2110 1.46269E+02 6.95391E+00 0.00000E+00
 -1      2111 1.46269E+02 5.47891E+00 0.00000E+00
 -1      2112 1.45302E+02 5.37422E+00 0.00000E+00
 -1      2113 1.44970E+02 7.69141E+00 0.00000E+00
 -1      2114 1.46103E+02 1.54375E+01 0.00000E+00
 -1      2115 1.46103E+02 1.39875E+01 0.00000E+00
 -1      2116 1.44804E+02 1.32500E+01 0.00000E+00
 -1      2117 1.46103E+02 1.83875E+01 0.00000E+00
 -1      2118 1.46103E+02 1.69125E+01 0.00000E+00
 -1      2119 1.44804E+02 1.61750E+01 0.00000E+00
 -1      2120 1.46103E+02 2.13375E+01 0.00000E+00
 -1      2121 1.46103E+02 1.98625E+01 0.00000E+00
 -1      2122 1.44804E+02 1.91250E+01 0.00000E+00
 -1      2123 1.46103E+02 2.42875E+01 0.00000E+00
 -1      2124 1.46103E+02 2.28125E+01 0.00000E+00
 -1      2125 1.44804E+02 2.20750E+01 0.00000E+00
 -1      2126 1.46103E+02 2.72375E+01 0.00000E+00
 -1      2127 1.46103E+02 2.57625E+01 0.00000E+00
 -1      2128 1.44804E+02 2.50250E+01 0.00000E+00
 -1      2129 1.46103E+02 3.01875E+01 0.00000E+00
 -1      2130 1.46103E+02 2.87125E+01 0.00000E+00
 -1      2131 1.44804E+02 2.79750E+01 0.00000E+00
 -1      2132 1.46103E+02 3.30875E+01 0.00000E+00
 -1      2133 1.46103E+02 3.16375E+01 0.00000E+00
 -1      2134 1.44804E+02 3.09000E+01 0.00000E+00
 -1      2135 1.46103E+02 3.60375E+01 0.00000E+00
 -1      2136 1.46103E+02 3.45625E+01 0.00000E+00
 -1      2137 1.44804E+02 3.38250E+01 0.00000E+00
 -1      2138 1.46103E+02 3.89875E+01 0.00000E+00
 -1      2139 1.46103E+02 3.75125E+01 0.00000E+00
 -1      2140 1.44804E+02 3.67750E+01 0.00000E+00
 -1      2141 1.46103E+02 4.19375E+01 0.00000E+00
 -1      2142 1.46103E+02 4.04625E+01 0.00000E+00
 -1      2143 1.44804E+02 3.97250E+01 0.00000E+00
 -1      2144 6.78806E+01 2.40778E+01 0.00000E+00
 -1      2145 6.83055E+01 2.48769E+01 0.00000E+00
 -1      2146 6.89325E+01 2.79633E+01 0.00000E+00
 -1      2147 6.88592E+01 2.88478E+01 0.00000E+00
 -1      2148 6.87596E+01 2.59436E+01 0.00000E+00
 -1      2149 6.89203E+01 2.68506E+01 0.00000E+00
 -1      2150 6.65893E+01 2.26015E+01 0.00000E+00
 -1      2151 6.71901E+01 2.32485E+01 0.00000E+00
 -1      2152 6.53650E+01 2.12685E+01 0.00000E+00
 -1      2153 6.60136E+01 2.18184E+01 0.00000E+00
 -1      2154 3.89700E+00 3.74688E+01 0.00000E+00
 -1      2155 3.89700E+00 3.89437E+01 0.00000E+00
 -1      2156 5.19600E+00 3.96813E+01 0.00000E+00
 -1      2157 5.19600E+00 3.67438E+01 0.00000E+00
 -1      2158 6.18493E+01 1.95762E+01 0.00000E+00
 -1      2159 6.27129E+01 1.97391E+01 0.00000E+00
 -1      2160 6.01623E+01 1.93848E+01 0.00000E+00
 -1      2161 6.10058E+01 1.94805E+01 0.00000E+00
 -1      2162 6.15966E+01 1.87193E+01 0.00000E+00
 -1      2163 5.81264E+01 1.93770E+01 0.00000E+00
 -1      2164 5.90542E+01 1.93191E+01 0.00000E+00
 -1      2165 5.62071E+01 2.03478E+01 0.00000E+00
 -1      2166 5.70058E+01 1.99113E+01 0.00000E+00
 -1      2167 5.47311E+01 2.12647E+01 0.00000E+00
 -1      2168 5.54203E+01 2.08160E+01 0.00000E+00
 -1      2169 5.33126E+01 2.23595E+01 0.00000E+00
 -1      2170 5.39007E+01 2.17753E+01 0.00000E+00
 -1      2171 5.21933E+01 2.38158E+01 0.00000E+00
 -1      2172 5.27470E+01 2.31194E+01 0.00000E+00
 -1      2173 5.13126E+01 2.56318E+01 0.00000E+00
 -1      2174 5.15523E+01 2.47905E+01 0.00000E+00
 -1      2175 5.10485E+01 2.72283E+01 0.00000E+00
 -1      2176 5.11805E+01 2.64300E+01 0.00000E+00
 -1      2177 5.05160E+01 2.57859E+01 0.00000E+00
 -1      2178 5.10519E+01 2.91134E+01 0.00000E+00
 -1      2179 5.10606E+01 2.82815E+01 0.00000E+00
 -1      2180 5.11125E+01 3.09924E+01 0.00000E+00
 -1      2181 5.09407E+01 3.01338E+01 0.00000E+00
 -1      2182 5.20468E+01 3.27523E+01 0.00000E+00
 -1      2183 5.16013E+01 3.20216E+01 0.00000E+00
 -1      2184 5.30178E+01 3.41345E+01 0.00000E+00
 -1      2185 5.25323E+01 3.34434E+01 0.00000E+00
 -1      2186 5.16489E+01 3.34808E+01 0.00000E+00
 -1      2187 5.42978E+01 3.56014E+01 0.00000E+00
 -1      2188 5.36661E+01 3.49607E+01 0.00000E+00
 -1      2189 5.61646E+01 3.64773E+01 0.00000E+00
 -1      2190 5.53405E+01 3.61770E+01 0.00000E+00
 -1      2191 5.77531E+01 3.70208E+01 0.00000E+00
 -1      2192 5.69588E+01 3.67490E+01 0.00000E+00
 -1      2193 5.63105E+01 3.72472E+01 0.00000E+00
 -1      2194 5.96076E+01 3.74076E+01 0.00000E+00
 -1      2195 5.87442E+01 3.73020E+01 0.00000E+00
 -1      2196 6.15381E+01 3.72010E+01 0.00000E+00
 -1      2197 6.07149E+01 3.73921E+01 0.00000E+00
 -1      2198 6.31689E+01 3.68042E+01 0.00000E+00
 -1      2199 6.23535E+01 3.70026E+01 0.00000E+00
 -1      2200 6.21169E+01 3.78519E+01 0.00000E+00
 -1      2201 6.48672E+01 3.58073E+01 0.00000E+00
 -1      2202 6.41485E+01 3.62880E+01 0.00000E+00
 -1      2203 6.62366E+01 3.45507E+01 0.00000E+00
 -1      2204 6.56372E+01 3.51667E+01 0.00000E+00
 -1      2205 6.74039E+01 3.31717E+01 0.00000E+00
 -1      2206 6.69176E+01 3.38621E+01 0.00000E+00
 -1      2207 6.81509E+01 3.15369E+01 0.00000E+00
 -1      2208 6.77812E+01 3.22900E+01 0.00000E+00
 -1      2209 6.87313E+01 2.96738E+01 0.00000E+00
 -1      2210 6.86035E+01 3.04999E+01 0.00000E+00
 -1      2211 6.95809E+01 2.92990E+01 0.00000E+00
 -1      2212 6.38647E+01 2.02842E+01 0.00000E+00
 -1      2213 6.46148E+01 2.07763E+01 0.00000E+00
 -1      2214 6.54937E+01 2.03972E+01 0.00000E+00
 -1      2215 6.68196E+01 2.16724E+01 0.00000E+00
 -1      2216 6.42300E+00 4.57510E+01 0.00000E+00
 -1      2217 6.35918E+01 1.93600E+01 0.00000E+00
 -1      2218 7.17300E+00 4.44520E+01 0.00000E+00
 -1      2219 6.92303E+01 2.51807E+01 0.00000E+00
 -1      2220 6.96965E+01 2.73602E+01 0.00000E+00
 -1      2221 1.45665E+02 4.31193E+01 0.00000E+00
 -1      2222 6.80858E+01 2.32848E+01 0.00000E+00
 -1      2223 6.90004E+01 3.11620E+01 0.00000E+00
 -1      2224 6.81705E+01 3.30808E+01 0.00000E+00
 -1      2225 6.71123E+01 3.46512E+01 0.00000E+00
 -1      2226 6.39119E+01 3.71373E+01 0.00000E+00
 -1      2227 5.80959E+01 3.78001E+01 0.00000E+00
 -1      2228 5.27827E+01 3.49981E+01 0.00000E+00
 -1      2229 5.06745E+01 3.17605E+01 0.00000E+00
 -1      2230 5.03961E+01 2.76374E+01 0.00000E+00
 -1      2231 5.12890E+01 2.40129E+01 0.00000E+00
 -1      2232 5.24957E+01 2.22784E+01 0.00000E+00
 -1      2233 5.38917E+01 2.10079E+01 0.00000E+00
 -1      2234 5.55089E+01 2.00290E+01 0.00000E+00
 -1      2235 5.96450E+01 1.85579E+01 0.00000E+00
 -1      2236 5.74163E+01 1.90265E+01 0.00000E+00
 -1      2237 5.02970E+01 2.97110E+01 0.00000E+00
 -1      2238 5.44736E+01 3.63999E+01 0.00000E+00
 -1      2239 6.01943E+01 3.80658E+01 0.00000E+00
 -1      2240 6.56614E+01 3.59806E+01 0.00000E+00
 -1      2241 1.07850E+01 5.30525E+00 0.00000E+00
 -1      2242 9.28500E+00 5.30525E+00 0.00000E+00
 -1      2243 6.49500E+00 3.01125E+01 0.00000E+00
 -1      2244 6.49500E+00 3.15875E+01 0.00000E+00
 -1      2245 6.49500E+00 3.30625E+01 0.00000E+00
 -1      2246 6.49500E+00 3.45375E+01 0.00000E+00
 -1      2247 7.79400E+00 3.23250E+01 0.00000E+00
 -1      2248 6.49500E+00 2.42125E+01 0.00000E+00
 -1      2249 6.49500E+00 2.56875E+01 0.00000E+00
 -1      2250 6.49500E+00 2.12625E+01 0.00000E+00
 -1      2251 6.49500E+00 2.27375E+01 0.00000E+00
 -1      2252 7.79400E+00 2.34750E+01 0.00000E+00
 -1      2253 6.49500E+00 1.83625E+01 0.00000E+00
 -1      2254 6.49500E+00 1.98125E+01 0.00000E+00
 -1      2255 7.79400E+00 2.05500E+01 0.00000E+00
 -1      2256 6.49500E+00 1.54125E+01 0.00000E+00
 -1      2257 6.49500E+00 1.68875E+01 0.00000E+00
 -1      2258 7.79400E+00 1.76250E+01 0.00000E+00
 -1      2259 6.49500E+00 1.24625E+01 0.00000E+00
 -1      2260 6.49500E+00 1.39375E+01 0.00000E+00
 -1      2261 7.79400E+00 1.46750E+01 0.00000E+00
 -1      2262 6.49500E+00 9.51250E+00 0.00000E+00
 -1      2263 6.49500E+00 1.09875E+01 0.00000E+00
 -1      2264 7.79400E+00 1.17250E+01 0.00000E+00
 -1      2265 6.72226E+01 2.07729E+01 0.00000E+00
 -1      2266 6.77984E+01 2.15560E+01 0.00000E+00
 -1      2267 1.37850E+01 5.30525E+00 0.00000E+00
 -1      2268 1.22850E+01 5.30525E+00 0.00000E+00
 -1      2269 1.15350E+01 6.60425E+00 0.00000E+00
 -1      2270 9.90000E+00 4.35050E+01 0.00000E+00
 -1      2271 1.14000E+01 4.35050E+01 0.00000E+00
 -1      2272 6.33648E+01 1.83502E+01 0.00000E+00
 -1      2273 6.45166E+01 1.88953E+01 0.00000E+00
 -1      2274 1.29000E+01 4.35050E+01 0.00000E+00
 -1      2275 1.44000E+01 4.35050E+01 0.00000E+00
 -1      2276 1.21500E+01 4.22060E+01 0.00000E+00
 -1      2277 1.59000E+01 4.35050E+01 0.00000E+00
 -1      2278 1.74000E+01 4.35050E+01 0.00000E+00
 -1      2279 1.51500E+01 4.22060E+01 0.00000E+00
 -1      2280 1.89000E+01 4.35050E+01 0.00000E+00
 -1      2281 2.04000E+01 4.35050E+01 0.00000E+00
 -1      2282 1.81500E+01 4.22060E+01 0.00000E+00
 -1      2283 2.19000E+01 4.35050E+01 0.00000E+00
 -1      2284 2.34000E+01 4.35050E+01 0.00000E+00
 -1      2285 2.11500E+01 4.22060E+01 0.00000E+00
 -1      2286 2.49000E+01 4.35050E+01 0.00000E+00
 -1      2287 2.64000E+01 4.35050E+01 0.00000E+00
 -1      2288 2.41500E+01 4.22060E+01 0.00000E+00
 -1      2289 2.79000E+01 4.35050E+01 0.00000E+00
 -1      2290 2.94000E+01 4.35050E+01 0.00000E+00
 -1      2291 2.71500E+01 4.22060E+01 0.00000E+00
 -1      2292 3.09000E+01 4.35050E+01 0.00000E+00
 -1      2293 3.24000E+01 4.35050E+01 0.00000E+00
 -1      2294 3.01500E+01 4.22060E+01 0.00000E+00
 -1      2295 3.39000E+01 4.35050E+01 0.00000E+00
 -1      2296 3.54000E+01 4.35050E+01 0.00000E+00
 -1      2297 3.31500E+01 4.22060E+01 0.00000E+00
 -1      2298 3.69000E+01 4.35050E+01 0.00000E+00
 -1      2299 3.84000E+01 4.35050E+01 0.00000E+00
 -1      2300 3.61500E+01 4.22060E+01 0.00000E+00
 -1      2301 3.99000E+01 4.35050E+01 0.00000E+00
 -1      2302 4.14000E+01 4.35050E+01 0.00000E+00
 -1      2303 3.91500E+01 4.22060E+01 0.00000E+00
 -1      2304 4.29000E+01 4.35050E+01 0.00000E+00
 -1      2305 4.44000E+01 4.35050E+01 0.00000E+00
 -1      2306 4.21500E+01 4.22060E+01 0.00000E+00
 -1      2307 4.59000E+01 4.35050E+01 0.00000E+00
 -1      2308 4.74000E+01 4.35050E+01 0.00000E+00
 -1      2309 4.51500E+01 4.22060E+01 0.00000E+00
 -1      2310 4.89000E+01 4.35050E+01 0.00000E+00
 -1      2311 5.04000E+01 4.35050E+01 0.00000E+00
 -1      2312 4.81500E+01 4.22060E+01 0.00000E+00
 -1      2313 5.19000E+01 4.35050E+01 0.00000E+00
 -1      2314 5.34000E+01 4.35050E+01 0.00000E+00
 -1      2315 5.11500E+01 4.22060E+01 0.00000E+00
 -1      2316 5.49000E+01 4.35050E+01 0.00000E+00
 -1      2317 5.64000E+01 4.35050E+01 0.00000E+00
 -1      2318 5.41500E+01 4.22060E+01 0.00000E+00
 -1      2319 5.79000E+01 4.35050E+01 0.00000E+00
 -1      2320 5.94000E+01 4.35050E+01 0.00000E+00
 -1      2321 5.71500E+01 4.22060E+01 0.00000E+00
 -1      2322 6.09000E+01 4.35050E+01 0.00000E+00
 -1      2323 6.24000E+01 4.35050E+01 0.00000E+00
 -1      2324 6.01500E+01 4.22060E+01 0.00000E+00
 -1      2325 6.39000E+01 4.35050E+01 0.00000E+00
 -1      2326 6.54000E+01 4.35050E+01 0.00000E+00
 -1      2327 6.31500E+01 4.22060E+01 0.00000E+00
 -1      2328 6.69000E+01 4.35050E+01 0.00000E+00
 -1      2329 6.84000E+01 4.35050E+01 0.00000E+00
 -1      2330 6.61500E+01 4.22060E+01 0.00000E+00
 -1      2331 6.99000E+01 4.35050E+01 0.00000E+00
 -1      2332 7.14000E+01 4.35050E+01 0.00000E+00
 -1      2333 6.91500E+01 4.22060E+01 0.00000E+00
 -1      2334 7.29000E+01 4.35050E+01 0.00000E+00
 -1      2335 7.44000E+01 4.35050E+01 0.00000E+00
 -1      2336 7.21500E+01 4.22060E+01 0.00000E+00
 -1      2337 7.59000E+01 4.35050E+01 0.00000E+00
 -1      2338 7.74000E+01 4.35050E+01 0.00000E+00
 -1      2339 7.51500E+01 4.22060E+01 0.00000E+00
 -1      2340 7.89000E+01 4.35050E+01 0.00000E+00
 -1      2341 8.04000E+01 4.35050E+01 0.00000E+00
 -1      2342 7.81500E+01 4.22060E+01 0.00000E+00
 -1      2343 8.19000E+01 4.35050E+01 0.00000E+00
 -1      2344 8.34000E+01 4.35050E+01 0.00000E+00
 -1      2345 8.11500E+01 4.22060E+01 0.00000E+00
 -1      2346 8.49000E+01 4.35050E+01 0.00000E+00
 -1      2347 8.64000E+01 4.35050E+01 0.00000E+00
 -1      2348 8.41500E+01 4.22060E+01 0.00000E+00
 -1      2349 8.79000E+01 4.35050E+01 0.00000E+00
 -1      2350 8.94000E+01 4.35050E+01 0.00000E+00
 -1      2351 8.71500E+01 4.22060E+01 0.00000E+00
 -1      2352 9.09000E+01 4.35050E+01 0.00000E+00
 -1      2353 9.24000E+01 4.35050E+01 0.00000E+00
 -1      2354 9.01500E+01 4.22060E+01 0.00000E+00
 -1      2355 9.39000E+01 4.35050E+01 0.00000E+00
 -1      2356 9.54000E+01 4.35050E+01 0.00000E+00
 -1      2357 9.31500E+01 4.22060E+01 0.00000E+00
 -1      2358 9.69000E+01 4.35050E+01 0.00000E+00
 -1      2359 9.84000E+01 4.35050E+01 0.00000E+00
 -1      2360 9.61500E+01 4.22060E+01 0.00000E+00
 -1      2361 9.99000E+01 4.35050E+01 0.00000E+00
 -1      2362 1.01400E+02 4.35050E+01 0.00000E+00
 -1      2363 9.91500E+01 4.22060E+01 0.00000E+00
 -1      2364 1.02900E+02 4.35050E+01 0.00000E+00
 -1      2365 1.04400E+02 4.35050E+01 0.00000E+00
 -1      2366 1.02150E+02 4.22060E+01 0.00000E+00
 -1      2367 1.05900E+02 4.35050E+01 0.00000E+00
 -1      2368 1.07400E+02 4.35050E+01 0.00000E+00
 -1      2369 1.05150E+02 4.22060E+01 0.00000E+00
 -1      2370 1.08900E+02 4.35050E+01 0.00000E+00
 -1      2371 1.10400E+02 4.35050E+01 0.00000E+00
 -1      2372 1.08150E+02 4.22060E+01 0.00000E+00
 -1      2373 1.11900E+02 4.35050E+01 0.00000E+00
 -1      2374 1.13400E+02 4.35050E+01 0.00000E+00
 -1      2375 1.11150E+02 4.22060E+01 0.00000E+00
 -1      2376 1.14900E+02 4.35050E+01 0.00000E+00
 -1      2377 1.16400E+02 4.35050E+01 0.00000E+00
 -1      2378 1.14150E+02 4.22060E+01 0.00000E+00
 -1      2379 1.17900E+02 4.35050E+01 0.00000E+00
 -1      2380 1.19400E+02 4.35050E+01 0.00000E+00
 -1      2381 1.17150E+02 4.22060E+01 0.00000E+00
 -1      2382 1.20900E+02 4.35050E+01 0.00000E+00
 -1      2383 1.22400E+02 4.35050E+01 0.00000E+00
 -1      2384 1.20150E+02 4.22060E+01 0.00000E+00
 -1      2385 1.23900E+02 4.35050E+01 0.00000E+00
 -1      2386 1.25400E+02 4.35050E+01 0.00000E+00
 -1      2387 1.23150E+02 4.22060E+01 0.00000E+00
 -1      2388 1.26900E+02 4.35050E+01 0.00000E+00
 -1      2389 1.28400E+02 4.35050E+01 0.00000E+00
 -1      2390 1.26150E+02 4.22060E+01 0.00000E+00
 -1      2391 1.29900E+02 4.35050E+01 0.00000E+00
 -1      2392 1.31400E+02 4.35050E+01 0.00000E+00
 -1      2393 1.29150E+02 4.22060E+01 0.00000E+00
 -1      2394 1.32900E+02 4.35050E+01 0.00000E+00
 -1      2395 1.34400E+02 4.35050E+01 0.00000E+00
 -1      2396 1.32150E+02 4.22060E+01 0.00000E+00
 -1      2397 1.35900E+02 4.35050E+01 0.00000E+00
 -1      2398 1.37400E+02 4.35050E+01 0.00000E+00
 -1      2399 1.35150E+02 4.22060E+01 0.00000E+00
 -1      2400 1.38900E+02 4.35050E+01 0.00000E+00
 -1      2401 1.40400E+02 4.35050E+01 0.00000E+00
 -1      2402 1.38150E+02 4.22060E+01 0.00000E+00
 -1      2403 1.97850E+01 5.30525E+00 0.00000E+00
 -1      2404 1.82850E+01 5.30525E+00 0.00000E+00
 -1      2405 2.27850E+01 5.30525E+00 0.00000E+00
 -1      2406 2.12850E+01 5.30525E+00 0.00000E+00
 -1      2407 2.05350E+01 6.60425E+00 0.00000E+00
 -1      2408 2.57850E+01 5.30525E+00 0.00000E+00
 -1      2409 2.42850E+01 5.30525E+00 0.00000E+00
 -1      2410 2.35350E+01 6.60425E+00 0.00000E+00
 -1      2411 2.87850E+01 5.30525E+00 0.00000E+00
 -1      2412 2.72850E+01 5.30525E+00 0.00000E+00
 -1      2413 2.65350E+01 6.60425E+00 0.00000E+00
 -1      2414 3.17850E+01 5.30525E+00 0.00000E+00
 -1      2415 3.02850E+01 5.30525E+00 0.00000E+00
 -1      2416 2.95350E+01 6.60425E+00 0.00000E+00
 -1      2417 3.47850E+01 5.30525E+00 0.00000E+00
 -1      2418 3.32850E+01 5.30525E+00 0.00000E+00
 -1      2419 3.25350E+01 6.60425E+00 0.00000E+00
 -1      2420 3.77850E+01 5.30525E+00 0.00000E+00
 -1      2421 3.62850E+01 5.30525E+00 0.00000E+00
 -1      2422 3.55350E+01 6.60425E+00 0.00000E+00
 -1      2423 4.07850E+01 5.30525E+00 0.00000E+00
 -1      2424 3.92850E+01 5.30525E+00 0.00000E+00
 -1      2425 3.85350E+01 6.60425E+00 0.00000E+00
 -1      2426 4.37850E+01 5.30525E+00 0.00000E+00
 -1      2427 4.22850E+01 5.30525E+00 0.00000E+00
 -1      2428 4.15350E+01 6.60425E+00 0.00000E+00
 -1      2429 4.67850E+01 5.30525E+00 0.00000E+00
 -1      2430 4.52850E+01 5.30525E+00 0.00000E+00
 -1      2431 4.45350E+01 6.60425E+00 0.00000E+00
 -1      2432 4.97850E+01 5.30525E+00 0.00000E+00
 -1      2433 4.82850E+01 5.30525E+00 0.00000E+00
 -1      2434 4.75350E+01 6.60425E+00 0.00000E+00
 -1      2435 5.27850E+01 5.30525E+00 0.00000E+00
 -1      2436 5.12850E+01 5.30525E+00 0.00000E+00
 -1      2437 5.05350E+01 6.60425E+00 0.00000E+00
 -1      2438 5.57850E+01 5.30525E+00 0.00000E+00
 -1      2439 5.42850E+01 5.30525E+00 0.00000E+00
 -1      2440 5.35350E+01 6.60425E+00 0.00000E+00
 -1      2441 5.87850E+01 5.30525E+00 0.00000E+00
 -1      2442 5.72850E+01 5.30525E+00 0.00000E+00
 -1      2443 5.65350E+01 6.60425E+00 0.00000E+00
 -1      2444 6.17850E+01 5.30525E+00 0.00000E+00
 -1      2445 6.02850E+01 5.30525E+00 0.00000E+00
 -1      2446 5.95350E+01 6.60425E+00 0.00000E+00
 -1      2447 6.47850E+01 5.30525E+00 0.00000E+00
 -1      2448 6.32850E+01 5.30525E+00 0.00000E+00
 -1      2449 6.25350E+01 6.60425E+00 0.00000E+00
 -1      2450 6.77850E+01 5.30525E+00 0.00000E+00
 -1      2451 6.62850E+01 5.30525E+00 0.00000E+00
 -1      2452 6.55350E+01 6.60425E+00 0.00000E+00
 -1      2453 7.07850E+01 5.30525E+00 0.00000E+00
 -1      2454 6.92850E+01 5.30525E+00 0.00000E+00
 -1      2455 6.85350E+01 6.60425E+00 0.00000E+00
 -1      2456 7.37850E+01 5.30525E+00 0.00000E+00
 -1      2457 7.22850E+01 5.30525E+00 0.00000E+00
 -1      2458 7.15350E+01 6.60425E+00 0.00000E+00
 -1      2459 7.67850E+01 5.30525E+00 0.00000E+00
 -1      2460 7.52850E+01 5.30525E+00 0.00000E+00
 -1      2461 7.45350E+01 6.60425E+00 0.00000E+00
 -1      2462 7.97850E+01 5.30525E+00 0.00000E+00
 -1      2463 7.82850E+01 5.30525E+00 0.00000E+00
 -1      2464 7.75350E+01 6.60425E+00 0.00000E+00
 -1      2465 8.27850E+01 5.30525E+00 0.00000E+00
 -1      2466 8.12850E+01 5.30525E+00 0.00000E+00
 -1      2467 8.05350E+01 6.60425E+00 0.00000E+00
 -1      2468 8.57850E+01 5.30525E+00 0.00000E+00
 -1      2469 8.42850E+01 5.30525E+00 0.00000E+00
 -1      2470 8.35350E+01 6.60425E+00 0.00000E+00
 -1      2471 8.87850E+01 5.30525E+00 0.00000E+00
 -1      2472 8.72850E+01 5.30525E+00 0.00000E+00
 -1      2473 8.65350E+01 6.60425E+00 0.00000E+00
 -1      2474 9.17850E+01 5.30525E+00 0.00000E+00
 -1      2475 9.02850E+01 5.30525E+00 0.00000E+00
 -1      2476 8.95350E+01 6.60425E+00 0.00000E+00
 -1      2477 9.47850E+01 5.30525E+00 0.00000E+00
 -1      2478 9.32850E+01 5.30525E+00 0.00000E+00
 -1      2479 9.25350E+01 6.60425E+00 0.00000E+00
 -1      2480 9.77850E+01 5.30525E+00 0.00000E+00
 -1      2481 9.62850E+01 5.30525E+00 0.00000E+00
 -1      2482 9.55350E+01 6.60425E+00 0.00000E+00
 -1      2483 1.00785E+02 5.30525E+00 0.00000E+00
 -1      2484 9.92850E+01 5.30525E+00 0.00000E+00
 -1      2485 9.85350E+01 6.60425E+00 0.00000E+00
 -1      2486 1.03785E+02 5.30525E+00 0.00000E+00
 -1      2487 1.02285E+02 5.30525E+00 0.00000E+00
 -1      2488 1.01535E+02 6.60425E+00 0.00000E+00
 -1      2489 1.06785E+02 5.30525E+00 0.00000E+00
 -1      2490 1.05285E+02 5.30525E+00 0.00000E+00
 -1      2491 1.04535E+02 6.60425E+00 0.00000E+00
 -1      2492 1.09785E+02 5.30525E+00 0.00000E+00
 -1      2493 1.08285E+02 5.30525E+00 0.00000E+00
 -1      2494 1.07535E+02 6.60425E+00 0.00000E+00
 -1      2495 1.12785E+02 5.30525E+00 0.00000E+00
 -1      2496 1.11285E+02 5.30525E+00 0.00000E+00
 -1      2497 1.10535E+02 6.60425E+00 0.00000E+00
 -1      2498 1.15785E+02 5.30525E+00 0.00000E+00
 -1      2499 1.14285E+02 5.30525E+00 0.00000E+00
 -1      2500 1.13535E+02 6.60425E+00 0.00000E+00
 -1      2501 1.18785E+02 5.30525E+00 0.00000E+00
 -1      2502 1.17285E+02 5.30525E+00 0.00000E+00
 -1      2503 1.16535E+02 6.60425E+00 0.00000E+00
 -1      2504 1.21785E+02 5.30525E+00 0.00000E+00
 -1      2505 1.20285E+02 5.30525E+00 0.00000E+00
 -1      2506 1.19535E+02 6.60425E+00 0.00000E+00
 -1      2507 1.24785E+02 5.30525E+00 0.00000E+00
 -1      2508 1.23285E+02 5.30525E+00 0.00000E+00
 -1      2509 1.22535E+02 6.60425E+00 0.00000E+00
 -1      2510 1.27785E+02 5.30525E+00 0.00000E+00
 -1      2511 1.26285E+02 5.30525E+00 0.00000E+00
 -1      2512 1.25535E+02 6.60425E+00 0.00000E+00
 -1      2513 1.30785E+02 5.30525E+00 0.00000E+00
 -1      2514 1.29285E+02 5.30525E+00 0.00000E+00
 -1      2515 1.28535E+02 6.60425E+00 0.00000E+00
 -1      2516 1.33785E+02 5.30525E+00 0.00000E+00
 -1      2517 1.32285E+02 5.30525E+00 0.00000E+00
 -1      2518 1.31535E+02 6.60425E+00 0.00000E+00
 -1      2519 1.36785E+02 5.30525E+00 0.00000E+00
 -1      2520 1.35285E+02 5.30525E+00 0.00000E+00
 -1      2521 1.34535E+02 6.60425E+00 0.00000E+00
 -1      2522 1.39785E+02 5.30525E+00 0.00000E+00
 -1      2523 1.38285E+02 5.30525E+00 0.00000E+00
 -1      2524 1.37535E+02 6.60425E+00 0.00000E+00
 -1      2525 1.42785E+02 5.30525E+00 0.00000E+00
 -1      2526 1.41285E+02 5.30525E+00 0.00000E+00
 -1      2527 1.40535E+02 6.60425E+00 0.00000E+00
 -1      2528 1.44336E+02 5.26953E+00 0.00000E+00
 -1      2529 1.43505E+02 1.69125E+01 0.00000E+00
 -1      2530 1.43505E+02 1.54375E+01 0.00000E+00
 -1      2531 1.43505E+02 1.98625E+01 0.00000E+00
 -1      2532 1.43505E+02 1.83875E+01 0.00000E+00
 -1      2533 1.42206E+02 1.76500E+01 0.00000E+00
 -1      2534 1.43505E+02 1.10625E+01 0.00000E+00
 -1      2535 1.43505E+02 9.58750E+00 0.00000E+00
 -1      2536 1.43505E+02 1.39750E+01 0.00000E+00
 -1      2537 1.43505E+02 1.25250E+01 0.00000E+00
 -1      2538 1.42206E+02 1.17875E+01 0.00000E+00
 -1      2539 1.42206E+02 1.47125E+01 0.00000E+00
 -1      2540 1.43505E+02 2.28125E+01 0.00000E+00
 -1      2541 1.43505E+02 2.13375E+01 0.00000E+00
 -1      2542 1.42206E+02 2.06000E+01 0.00000E+00
 -1      2543 1.43505E+02 2.57625E+01 0.00000E+00
 -1      2544 1.43505E+02 2.42875E+01 0.00000E+00
 -1      2545 1.42206E+02 2.35500E+01 0.00000E+00
 -1      2546 1.43505E+02 2.87125E+01 0.00000E+00
 -1      2547 1.43505E+02 2.72375E+01 0.00000E+00
 -1      2548 1.42206E+02 2.65000E+01 0.00000E+00
 -1      2549 1.43505E+02 3.16125E+01 0.00000E+00
 -1      2550 1.43505E+02 3.01625E+01 0.00000E+00
 -1      2551 1.42206E+02 2.94250E+01 0.00000E+00
 -1      2552 1.43505E+02 3.45625E+01 0.00000E+00
 -1      2553 1.43505E+02 3.30875E+01 0.00000E+00
 -1      2554 1.42206E+02 3.23500E+01 0.00000E+00
 -1      2555 1.43505E+02 3.75125E+01 0.00000E+00
 -1      2556 1.43505E+02 3.60375E+01 0.00000E+00
 -1      2557 1.42206E+02 3.53000E+01 0.00000E+00
 -1      2558 1.43505E+02 4.04625E+01 0.00000E+00
 -1      2559 1.43505E+02 3.89875E+01 0.00000E+00
 -1      2560 1.42206E+02 3.82500E+01 0.00000E+00
 -1      2561 7.06318E+01 2.67935E+01 0.00000E+00
 -1      2562 7.06439E+01 2.79063E+01 0.00000E+00
 -1      2563 6.84888E+01 2.23852E+01 0.00000E+00
 -1      2564 6.91793E+01 2.32145E+01 0.00000E+00
 -1      2565 6.88919E+01 2.14857E+01 0.00000E+00
 -1      2566 1.67850E+01 5.30525E+00 0.00000E+00
 -1      2567 1.52850E+01 5.30525E+00 0.00000E+00
 -1      2568 1.75350E+01 6.60425E+00 0.00000E+00
 -1      2569 6.55891E+01 1.94341E+01 0.00000E+00
 -1      2570 6.63392E+01 1.99263E+01 0.00000E+00
 -1      2571 1.44321E+02 4.30606E+01 0.00000E+00
 -1      2572 6.98975E+01 3.09363E+01 0.00000E+00
 -1      2573 6.94449E+01 3.19733E+01 0.00000E+00
 -1      2574 6.96767E+01 2.43607E+01 0.00000E+00
 -1      2575 7.01308E+01 2.54274E+01 0.00000E+00
 -1      2576 7.04923E+01 2.90171E+01 0.00000E+00
 -1      2577 7.03644E+01 2.98431E+01 0.00000E+00
 -1      2578 5.83918E+01 3.86447E+01 0.00000E+00
 -1      2579 5.74006E+01 3.83636E+01 0.00000E+00
 -1      2580 5.24651E+01 3.59148E+01 0.00000E+00
 -1      2581 5.18168E+01 3.50885E+01 0.00000E+00
 -1      2582 5.02579E+01 3.25891E+01 0.00000E+00
 -1      2583 4.97690E+01 3.15600E+01 0.00000E+00
 -1      2584 5.01820E+01 2.39830E+01 0.00000E+00
 -1      2585 5.08231E+01 2.30083E+01 0.00000E+00
 -1      2586 6.49500E+00 2.71625E+01 0.00000E+00
 -1      2587 6.49500E+00 2.86375E+01 0.00000E+00
 -1      2588 7.79400E+00 2.93750E+01 0.00000E+00
 -1      2589 7.79400E+00 2.64250E+01 0.00000E+00
 -1      2590 5.64869E+01 1.85196E+01 0.00000E+00
 -1      2591 5.76075E+01 1.79853E+01 0.00000E+00
 -1      2592 6.12621E+01 1.79026E+01 0.00000E+00
 -1      2593 6.21056E+01 1.79983E+01 0.00000E+00
 -1      2594 4.93888E+01 3.01282E+01 0.00000E+00
 -1      2595 4.95001E+01 2.91079E+01 0.00000E+00
 -1      2596 5.90459E+01 1.77711E+01 0.00000E+00
 -1      2597 6.01540E+01 1.78369E+01 0.00000E+00
 -1      2598 6.06630E+01 1.71159E+01 0.00000E+00
 -1      2599 5.47412E+01 1.96342E+01 0.00000E+00
 -1      2600 5.55280E+01 1.91660E+01 0.00000E+00
 -1      2601 5.30805E+01 2.06555E+01 0.00000E+00
 -1      2602 5.39109E+01 2.01448E+01 0.00000E+00
 -1      2603 5.39300E+01 1.92818E+01 0.00000E+00
 -1      2604 5.13887E+01 2.22485E+01 0.00000E+00
 -1      2605 5.19543E+01 2.14886E+01 0.00000E+00
 -1      2606 5.02817E+01 2.22186E+01 0.00000E+00
 -1      2607 4.96452E+01 2.60519E+01 0.00000E+00
 -1      2608 4.97773E+01 2.52536E+01 0.00000E+00
 -1      2609 5.46210E+01 3.73651E+01 0.00000E+00
 -1      2610 5.35784E+01 3.67895E+01 0.00000E+00
 -1      2611 4.95787E+01 2.81065E+01 0.00000E+00
 -1      2612 4.95666E+01 2.70532E+01 0.00000E+00
 -1      2613 4.88279E+01 2.65210E+01 0.00000E+00
 -1      2614 4.86706E+01 2.85237E+01 0.00000E+00
 -1      2615 5.13313E+01 3.43974E+01 0.00000E+00
 -1      2616 5.08458E+01 3.37063E+01 0.00000E+00
 -1      2617 5.10138E+01 3.53141E+01 0.00000E+00
 -1      2618 6.07587E+01 3.88317E+01 0.00000E+00
 -1      2619 5.96515E+01 3.88472E+01 0.00000E+00
 -1      2620 5.66064E+01 3.80918E+01 0.00000E+00
 -1      2621 5.58121E+01 3.78201E+01 0.00000E+00
 -1      2622 5.69022E+01 3.89365E+01 0.00000E+00
 -1      2623 6.65681E+01 3.62873E+01 0.00000E+00
 -1      2624 6.57982E+01 3.69279E+01 0.00000E+00
 -1      2625 6.27075E+01 3.85045E+01 0.00000E+00
 -1      2626 6.18921E+01 3.87029E+01 0.00000E+00
 -1      2627 6.48014E+01 3.76380E+01 0.00000E+00
 -1      2628 6.38218E+01 3.81541E+01 0.00000E+00
 -1      2629 6.80030E+01 3.48509E+01 0.00000E+00
 -1      2630 6.73221E+01 3.55396E+01 0.00000E+00
 -1      2631 6.91476E+01 3.29772E+01 0.00000E+00
 -1      2632 6.87703E+01 3.38590E+01 0.00000E+00
 -1      2633 6.55950E+00 4.28890E+01 0.00000E+00
 -1      2634 8.53650E+00 4.32410E+01 0.00000E+00
 -1      2635 9.28650E+00 4.19420E+01 0.00000E+00
 -1      2636 6.55950E+00 4.14140E+01 0.00000E+00
 -1      2637 8.07525E+00 5.11044E+00 0.00000E+00
 -1      2638 6.57525E+00 5.11044E+00 0.00000E+00
 -1      2639 6.40575E+00 6.01981E+00 0.00000E+00
 -1      2640 8.82525E+00 6.40944E+00 0.00000E+00
 -1      2641 5.71871E+01 1.67574E+01 0.00000E+00
 -1      2642 5.81165E+01 1.72643E+01 0.00000E+00
 -1      2643 5.86255E+01 1.65433E+01 0.00000E+00
 -1      2644 7.79400E+00 3.52687E+01 0.00000E+00
 -1      2645 6.49500E+00 3.60062E+01 0.00000E+00
 -1      2646 6.49500E+00 3.74750E+01 0.00000E+00
 -1      2647 1.45350E+01 6.60425E+00 0.00000E+00
 -1      2648 6.73180E+01 1.98098E+01 0.00000E+00
 -1      2649 6.40575E+00 7.49481E+00 0.00000E+00
 -1      2650 6.55950E+00 3.99453E+01 0.00000E+00
 -1      2651 7.00447E+01 3.27515E+01 0.00000E+00
 -1      2652 6.53621E+01 1.84243E+01 0.00000E+00
 -1      2653 6.89801E+01 3.47474E+01 0.00000E+00
 -1      2654 6.57081E+01 3.79446E+01 0.00000E+00
 -1      2655 6.35970E+01 3.90051E+01 0.00000E+00
 -1      2656 1.43586E+02 6.56853E+00 0.00000E+00
 -1      2657 1.43419E+02 7.72713E+00 0.00000E+00
 -1      2658 7.14275E+01 2.84505E+01 0.00000E+00
 -1      2659 7.10781E+01 2.59735E+01 0.00000E+00
 -1      2660 7.20255E+01 2.65196E+01 0.00000E+00
 -1      2661 7.15245E+01 2.51535E+01 0.00000E+00
 -1      2662 7.00797E+01 2.34612E+01 0.00000E+00
 -1      2663 5.49169E+01 3.82097E+01 0.00000E+00
 -1      2664 5.19734E+01 2.06256E+01 0.00000E+00
 -1      2665 1.42758E+02 4.35929E+01 0.00000E+00
 -1      2666 1.43241E+02 4.17323E+01 0.00000E+00
 -1      2667 1.41942E+02 4.09948E+01 0.00000E+00
 -1      2668 1.41414E+02 4.35342E+01 0.00000E+00
 -1      2669 7.08089E+01 3.06544E+01 0.00000E+00
 -1      2670 4.89722E+01 3.09568E+01 0.00000E+00
 -1      2671 4.81753E+01 3.03537E+01 0.00000E+00
 -1      2672 4.85555E+01 3.17854E+01 0.00000E+00
 -1      2673 4.93113E+01 2.42490E+01 0.00000E+00
 -1      2674 5.89562E+01 3.94107E+01 0.00000E+00
 -1      2675 4.99403E+01 3.35057E+01 0.00000E+00
 -1      2676 5.26125E+01 3.68799E+01 0.00000E+00
 -1      2677 5.16467E+01 3.69704E+01 0.00000E+00
 -1      2678 5.27599E+01 3.78451E+01 0.00000E+00
 -1      2679 5.57192E+01 1.81248E+01 0.00000E+00
 -1      2680 6.30303E+01 1.75335E+01 0.00000E+00
 -1      2681 6.13493E+01 3.94843E+01 0.00000E+00
 -1      2682 6.74588E+01 3.64869E+01 0.00000E+00
 -1      2683 7.70475E+00 8.23231E+00 0.00000E+00
 -1      2684 1.42120E+02 8.46463E+00 0.00000E+00
 -1      2685 1.40664E+02 4.22352E+01 0.00000E+00
 -1      2686 9.09300E+00 1.98250E+01 0.00000E+00
 -1      2687 9.09300E+00 2.12750E+01 0.00000E+00
 -1      2688 9.09300E+00 2.27500E+01 0.00000E+00
 -1      2689 9.09300E+00 2.42250E+01 0.00000E+00
 -1      2690 1.03920E+01 2.20250E+01 0.00000E+00
 -1      2691 9.09300E+00 1.39375E+01 0.00000E+00
 -1      2692 9.09300E+00 1.54125E+01 0.00000E+00
 -1      2693 9.09300E+00 1.09875E+01 0.00000E+00
 -1      2694 9.09300E+00 1.24625E+01 0.00000E+00
 -1      2695 1.03920E+01 1.32000E+01 0.00000E+00
 -1      2696 1.40706E+02 1.03250E+01 0.00000E+00
 -1      2697 1.40620E+02 8.46463E+00 0.00000E+00
 -1      2698 1.39120E+02 8.46463E+00 0.00000E+00
 -1      2699 1.22850E+01 7.90325E+00 0.00000E+00
 -1      2700 1.07850E+01 7.90325E+00 0.00000E+00
 -1      2701 8.91450E+00 8.42712E+00 0.00000E+00
 -1      2702 6.52861E+01 1.72389E+01 0.00000E+00
 -1      2703 6.63586E+01 1.77778E+01 0.00000E+00
 -1      2704 1.44000E+01 4.09070E+01 0.00000E+00
 -1      2705 1.59000E+01 4.09070E+01 0.00000E+00
 -1      2706 1.74000E+01 4.09070E+01 0.00000E+00
 -1      2707 1.89000E+01 4.09070E+01 0.00000E+00
 -1      2708 1.66500E+01 3.96080E+01 0.00000E+00
 -1      2709 2.04000E+01 4.09070E+01 0.00000E+00
 -1      2710 2.19000E+01 4.09070E+01 0.00000E+00
 -1      2711 1.96500E+01 3.96080E+01 0.00000E+00
 -1      2712 2.34000E+01 4.09070E+01 0.00000E+00
 -1      2713 2.49000E+01 4.09070E+01 0.00000E+00
 -1      2714 2.26500E+01 3.96080E+01 0.00000E+00
 -1      2715 2.64000E+01 4.09070E+01 0.00000E+00
 -1      2716 2.79000E+01 4.09070E+01 0.00000E+00
 -1      2717 2.56500E+01 3.96080E+01 0.00000E+00
 -1      2718 2.94000E+01 4.09070E+01 0.00000E+00
 -1      2719 3.09000E+01 4.09070E+01 0.00000E+00
 -1      2720 2.86500E+01 3.96080E+01 0.00000E+00
 -1      2721 3.24000E+01 4.09070E+01 0.00000E+00
 -1      2722 3.39000E+01 4.09070E+01 0.00000E+00
 -1      2723 3.16500E+01 3.96080E+01 0.00000E+00
 -1      2724 3.54000E+01 4.09070E+01 0.00000E+00
 -1      2725 3.69000E+01 4.09070E+01 0.00000E+00
 -1      2726 3.46500E+01 3.96080E+01 0.00000E+00
 -1      2727 3.84000E+01 4.09070E+01 0.00000E+00
 -1      2728 3.99000E+01 4.09070E+01 0.00000E+00
 -1      2729 3.76500E+01 3.96080E+01 0.00000E+00
 -1      2730 4.14000E+01 4.09070E+01 0.00000E+00
 -1      2731 4.29000E+01 4.09070E+01 0.00000E+00
 -1      2732 4.06500E+01 3.96080E+01 0.00000E+00
 -1      2733 4.44000E+01 4.09070E+01 0.00000E+00
 -1      2734 4.59000E+01 4.09070E+01 0.00000E+00
 -1      2735 4.36500E+01 3.96080E+01 0.00000E+00
 -1      2736 4.74000E+01 4.09070E+01 0.00000E+00
 -1      2737 4.89000E+01 4.09070E+01 0.00000E+00
 -1      2738 4.66500E+01 3.96080E+01 0.00000E+00
 -1      2739 5.07220E+01 4.00708E+01 0.00000E+00
 -1      2740 5.22220E+01 4.00708E+01 0.00000E+00
 -1      2741 5.43790E+01 4.04354E+01 0.00000E+00
 -1      2742 5.58790E+01 4.04354E+01 0.00000E+00
 -1      2743 6.54000E+01 4.09295E+01 0.00000E+00
 -1      2744 6.69000E+01 4.09295E+01 0.00000E+00
 -1      2745 6.84000E+01 4.09295E+01 0.00000E+00
 -1      2746 6.99000E+01 4.09295E+01 0.00000E+00
 -1      2747 6.76500E+01 3.96530E+01 0.00000E+00
 -1      2748 7.14000E+01 4.09295E+01 0.00000E+00
 -1      2749 7.29000E+01 4.09295E+01 0.00000E+00
 -1      2750 7.06500E+01 3.96530E+01 0.00000E+00
 -1      2751 7.44000E+01 4.09295E+01 0.00000E+00
 -1      2752 7.59000E+01 4.09295E+01 0.00000E+00
 -1      2753 7.36500E+01 3.96530E+01 0.00000E+00
 -1      2754 7.74000E+01 4.09295E+01 0.00000E+00
 -1      2755 7.89000E+01 4.09295E+01 0.00000E+00
 -1      2756 7.66500E+01 3.96530E+01 0.00000E+00
 -1      2757 8.04000E+01 4.09295E+01 0.00000E+00
 -1      2758 8.19000E+01 4.09295E+01 0.00000E+00
 -1      2759 7.96500E+01 3.96530E+01 0.00000E+00
 -1      2760 8.34000E+01 4.09295E+01 0.00000E+00
 -1      2761 8.49000E+01 4.09295E+01 0.00000E+00
 -1      2762 8.26500E+01 3.96530E+01 0.00000E+00
 -1      2763 8.64000E+01 4.09295E+01 0.00000E+00
 -1      2764 8.79000E+01 4.09295E+01 0.00000E+00
 -1      2765 8.56500E+01 3.96530E+01 0.00000E+00
 -1      2766 8.94000E+01 4.09295E+01 0.00000E+00
 -1      2767 9.09000E+01 4.09295E+01 0.00000E+00
 -1      2768 8.86500E+01 3.96530E+01 0.00000E+00
 -1      2769 9.24000E+01 4.09295E+01 0.00000E+00
 -1      2770 9.39000E+01 4.09295E+01 0.00000E+00
 -1      2771 9.16500E+01 3.96530E+01 0.00000E+00
 -1      2772 9.54000E+01 4.09295E+01 0.00000E+00
 -1      2773 9.69000E+01 4.09295E+01 0.00000E+00
 -1      2774 9.46500E+01 3.96530E+01 0.00000E+00
 -1      2775 9.84000E+01 4.09295E+01 0.00000E+00
 -1      2776 9.99000E+01 4.09295E+01 0.00000E+00
 -1      2777 9.76500E+01 3.96530E+01 0.00000E+00
 -1      2778 1.01400E+02 4.09295E+01 0.00000E+00
 -1      2779 1.02900E+02 4.09295E+01 0.00000E+00
 -1      2780 1.00650E+02 3.96530E+01 0.00000E+00
 -1      2781 1.04400E+02 4.09295E+01 0.00000E+00
 -1      2782 1.05900E+02 4.09295E+01 0.00000E+00
 -1      2783 1.03650E+02 3.96530E+01 0.00000E+00
 -1      2784 1.07400E+02 4.09295E+01 0.00000E+00
 -1      2785 1.08900E+02 4.09295E+01 0.00000E+00
 -1      2786 1.06650E+02 3.96530E+01 0.00000E+00
 -1      2787 1.10400E+02 4.09295E+01 0.00000E+00
 -1      2788 1.11900E+02 4.09295E+01 0.00000E+00
 -1      2789 1.09650E+02 3.96530E+01 0.00000E+00
 -1      2790 1.13400E+02 4.09295E+01 0.00000E+00
 -1      2791 1.14900E+02 4.09295E+01 0.00000E+00
 -1      2792 1.12650E+02 3.96530E+01 0.00000E+00
 -1      2793 1.16400E+02 4.09295E+01 0.00000E+00
 -1      2794 1.17900E+02 4.09295E+01 0.00000E+00
 -1      2795 1.15650E+02 3.96530E+01 0.00000E+00
 -1      2796 1.19400E+02 4.09295E+01 0.00000E+00
 -1      2797 1.20900E+02 4.09295E+01 0.00000E+00
 -1      2798 1.18650E+02 3.96530E+01 0.00000E+00
 -1      2799 1.22400E+02 4.09295E+01 0.00000E+00
 -1      2800 1.23900E+02 4.09295E+01 0.00000E+00
 -1      2801 1.21650E+02 3.96530E+01 0.00000E+00
 -1      2802 1.25400E+02 4.09295E+01 0.00000E+00
 -1      2803 1.26900E+02 4.09295E+01 0.00000E+00
 -1      2804 1.24650E+02 3.96530E+01 0.00000E+00
 -1      2805 1.28400E+02 4.09295E+01 0.00000E+00
 -1      2806 1.29900E+02 4.09295E+01 0.00000E+00
 -1      2807 1.27650E+02 3.96530E+01 0.00000E+00
 -1      2808 1.31400E+02 4.09295E+01 0.00000E+00
 -1      2809 1.32900E+02 4.09295E+01 0.00000E+00
 -1      2810 1.30650E+02 3.96530E+01 0.00000E+00
 -1      2811 1.34400E+02 4.09295E+01 0.00000E+00
 -1      2812 1.35900E+02 4.09295E+01 0.00000E+00
 -1      2813 1.33650E+02 3.96530E+01 0.00000E+00
 -1      2814 1.37400E+02 4.09295E+01 0.00000E+00
 -1      2815 1.38900E+02 4.09295E+01 0.00000E+00
 -1      2816 1.36650E+02 3.96530E+01 0.00000E+00
 -1      2817 2.42850E+01 7.90325E+00 0.00000E+00
 -1      2818 2.27850E+01 7.90325E+00 0.00000E+00
 -1      2819 7.18310E+01 3.04447E+01 0.00000E+00
 -1      2820 7.13640E+01 3.15378E+01 0.00000E+00
 -1      2821 2.12850E+01 7.90325E+00 0.00000E+00
 -1      2822 1.97850E+01 7.90325E+00 0.00000E+00
 -1      2823 2.20350E+01 9.20225E+00 0.00000E+00
 -1      2824 3.02850E+01 7.90325E+00 0.00000E+00
 -1      2825 2.87850E+01 7.90325E+00 0.00000E+00
 -1      2826 3.32850E+01 7.90325E+00 0.00000E+00
 -1      2827 3.17850E+01 7.90325E+00 0.00000E+00
 -1      2828 3.10350E+01 9.20225E+00 0.00000E+00
 -1      2829 3.62850E+01 7.90325E+00 0.00000E+00
 -1      2830 3.47850E+01 7.90325E+00 0.00000E+00
 -1      2831 3.40350E+01 9.20225E+00 0.00000E+00
 -1      2832 3.92850E+01 7.90325E+00 0.00000E+00
 -1      2833 3.77850E+01 7.90325E+00 0.00000E+00
 -1      2834 3.70350E+01 9.20225E+00 0.00000E+00
 -1      2835 4.22850E+01 7.90325E+00 0.00000E+00
 -1      2836 4.07850E+01 7.90325E+00 0.00000E+00
 -1      2837 4.00350E+01 9.20225E+00 0.00000E+00
 -1      2838 4.52850E+01 7.90325E+00 0.00000E+00
 -1      2839 4.37850E+01 7.90325E+00 0.00000E+00
 -1      2840 4.30350E+01 9.20225E+00 0.00000E+00
 -1      2841 4.82850E+01 7.90325E+00 0.00000E+00
 -1      2842 4.67850E+01 7.90325E+00 0.00000E+00
 -1      2843 4.60350E+01 9.20225E+00 0.00000E+00
 -1      2844 5.12850E+01 7.90325E+00 0.00000E+00
 -1      2845 4.97850E+01 7.90325E+00 0.00000E+00
 -1      2846 4.90350E+01 9.20225E+00 0.00000E+00
 -1      2847 5.42850E+01 7.90325E+00 0.00000E+00
 -1      2848 5.27850E+01 7.90325E+00 0.00000E+00
 -1      2849 5.20350E+01 9.20225E+00 0.00000E+00
 -1      2850 5.72850E+01 7.90325E+00 0.00000E+00
 -1      2851 5.57850E+01 7.90325E+00 0.00000E+00
 -1      2852 5.50350E+01 9.20225E+00 0.00000E+00
 -1      2853 6.02850E+01 7.90325E+00 0.00000E+00
 -1      2854 5.87850E+01 7.90325E+00 0.00000E+00
 -1      2855 5.80350E+01 9.20225E+00 0.00000E+00
 -1      2856 6.32850E+01 7.90325E+00 0.00000E+00
 -1      2857 6.17850E+01 7.90325E+00 0.00000E+00
 -1      2858 6.10350E+01 9.20225E+00 0.00000E+00
 -1      2859 6.62850E+01 7.90325E+00 0.00000E+00
 -1      2860 6.47850E+01 7.90325E+00 0.00000E+00
 -1      2861 6.40350E+01 9.20225E+00 0.00000E+00
 -1      2862 6.92850E+01 7.90325E+00 0.00000E+00
 -1      2863 6.77850E+01 7.90325E+00 0.00000E+00
 -1      2864 6.70350E+01 9.20225E+00 0.00000E+00
 -1      2865 7.22850E+01 7.90325E+00 0.00000E+00
 -1      2866 7.07850E+01 7.90325E+00 0.00000E+00
 -1      2867 7.00350E+01 9.20225E+00 0.00000E+00
 -1      2868 7.52850E+01 7.90325E+00 0.00000E+00
 -1      2869 7.37850E+01 7.90325E+00 0.00000E+00
 -1      2870 7.30350E+01 9.20225E+00 0.00000E+00
 -1      2871 7.82850E+01 7.90325E+00 0.00000E+00
 -1      2872 7.67850E+01 7.90325E+00 0.00000E+00
 -1      2873 7.60350E+01 9.20225E+00 0.00000E+00
 -1      2874 8.12850E+01 7.90325E+00 0.00000E+00
 -1      2875 7.97850E+01 7.90325E+00 0.00000E+00
 -1      2876 7.90350E+01 9.20225E+00 0.00000E+00
 -1      2877 8.42850E+01 7.90325E+00 0.00000E+00
 -1      2878 8.27850E+01 7.90325E+00 0.00000E+00
 -1      2879 8.20350E+01 9.20225E+00 0.00000E+00
 -1      2880 8.72850E+01 7.90325E+00 0.00000E+00
 -1      2881 8.57850E+01 7.90325E+00 0.00000E+00
 -1      2882 8.50350E+01 9.20225E+00 0.00000E+00
 -1      2883 9.02850E+01 7.90325E+00 0.00000E+00
 -1      2884 8.87850E+01 7.90325E+00 0.00000E+00
 -1      2885 8.80350E+01 9.20225E+00 0.00000E+00
 -1      2886 9.32850E+01 7.90325E+00 0.00000E+00
 -1      2887 9.17850E+01 7.90325E+00 0.00000E+00
 -1      2888 9.10350E+01 9.20225E+00 0.00000E+00
 -1      2889 9.62850E+01 7.90325E+00 0.00000E+00
 -1      2890 9.47850E+01 7.90325E+00 0.00000E+00
 -1      2891 9.40350E+01 9.20225E+00 0.00000E+00
 -1      2892 9.92850E+01 7.90325E+00 0.00000E+00
 -1      2893 9.77850E+01 7.90325E+00 0.00000E+00
 -1      2894 9.70350E+01 9.20225E+00 0.00000E+00
 -1      2895 1.02285E+02 7.90325E+00 0.00000E+00
 -1      2896 1.00785E+02 7.90325E+00 0.00000E+00
 -1      2897 1.00035E+02 9.20225E+00 0.00000E+00
 -1      2898 1.05285E+02 7.90325E+00 0.00000E+00
 -1      2899 1.03785E+02 7.90325E+00 0.00000E+00
 -1      2900 1.03035E+02 9.20225E+00 0.00000E+00
 -1      2901 1.08285E+02 7.90325E+00 0.00000E+00
 -1      2902 1.06785E+02 7.90325E+00 0.00000E+00
 -1      2903 1.06035E+02 9.20225E+00 0.00000E+00
 -1      2904 1.11285E+02 7.90325E+00 0.00000E+00
 -1      2905 1.09785E+02 7.90325E+00 0.00000E+00
 -1      2906 1.09035E+02 9.20225E+00 0.00000E+00
 -1      2907 1.14285E+02 7.90325E+00 0.00000E+00
 -1      2908 1.12785E+02 7.90325E+00 0.00000E+00
 -1      2909 1.12035E+02 9.20225E+00 0.00000E+00
 -1      2910 1.17285E+02 7.90325E+00 0.00000E+00
 -1      2911 1.15785E+02 7.90325E+00 0.00000E+00
 -1      2912 1.15035E+02 9.20225E+00 0.00000E+00
 -1      2913 1.20285E+02 7.90325E+00 0.00000E+00
 -1      2914 1.18785E+02 7.90325E+00 0.00000E+00
 -1      2915 1.18035E+02 9.20225E+00 0.00000E+00
 -1      2916 1.23285E+02 7.90325E+00 0.00000E+00
 -1      2917 1.21785E+02 7.90325E+00 0.00000E+00
 -1      2918 1.21035E+02 9.20225E+00 0.00000E+00
 -1      2919 1.26285E+02 7.90325E+00 0.00000E+00
 -1      2920 1.24785E+02 7.90325E+00 0.00000E+00
 -1      2921 1.24035E+02 9.20225E+00 0.00000E+00
 -1      2922 1.29285E+02 7.90325E+00 0.00000E+00
 -1      2923 1.27785E+02 7.90325E+00 0.00000E+00
 -1      2924 1.27035E+02 9.20225E+00 0.00000E+00
 -1      2925 1.32285E+02 7.90325E+00 0.00000E+00
 -1      2926 1.30785E+02 7.90325E+00 0.00000E+00
 -1      2927 1.30035E+02 9.20225E+00 0.00000E+00
 -1      2928 1.35285E+02 7.90325E+00 0.00000E+00
 -1      2929 1.33785E+02 7.90325E+00 0.00000E+00
 -1      2930 1.33035E+02 9.20225E+00 0.00000E+00
 -1      2931 1.37953E+02 8.18394E+00 0.00000E+00
 -1      2932 1.36453E+02 8.18394E+00 0.00000E+00
 -1      2933 1.35703E+02 9.48294E+00 0.00000E+00
 -1      2934 1.38038E+02 1.00443E+01 0.00000E+00
 -1      2935 1.40907E+02 2.42875E+01 0.00000E+00
 -1      2936 1.40907E+02 2.28125E+01 0.00000E+00
 -1      2937 1.39914E+02 4.09475E+01 0.00000E+00
 -1      2938 1.40928E+02 4.09768E+01 0.00000E+00
 -1      2939 1.41192E+02 3.97070E+01 0.00000E+00
 -1      2940 1.39164E+02 3.96710E+01 0.00000E+00
 -1      2941 1.40907E+02 1.83875E+01 0.00000E+00
 -1      2942 1.40907E+02 1.69125E+01 0.00000E+00
 -1      2943 1.40907E+02 2.72375E+01 0.00000E+00
 -1      2944 1.40907E+02 2.57625E+01 0.00000E+00
 -1      2945 1.39608E+02 2.50250E+01 0.00000E+00
 -1      2946 1.40907E+02 2.13375E+01 0.00000E+00
 -1      2947 1.40907E+02 1.98625E+01 0.00000E+00
 -1      2948 1.39608E+02 1.91250E+01 0.00000E+00
 -1      2949 1.39608E+02 2.20750E+01 0.00000E+00
 -1      2950 6.93988E+01 2.03616E+01 0.00000E+00
 -1      2951 7.00893E+01 2.11908E+01 0.00000E+00
 -1      2952 1.40907E+02 3.01375E+01 0.00000E+00
 -1      2953 1.40907E+02 2.86875E+01 0.00000E+00
 -1      2954 1.39608E+02 2.79500E+01 0.00000E+00
 -1      2955 1.40907E+02 3.30875E+01 0.00000E+00
 -1      2956 1.40907E+02 3.16125E+01 0.00000E+00
 -1      2957 1.39608E+02 3.08750E+01 0.00000E+00
 -1      2958 1.40907E+02 3.60375E+01 0.00000E+00
 -1      2959 1.40907E+02 3.45625E+01 0.00000E+00
 -1      2960 1.39608E+02 3.38250E+01 0.00000E+00
 -1      2961 1.41192E+02 3.82320E+01 0.00000E+00
 -1      2962 1.82850E+01 7.90325E+00 0.00000E+00
 -1      2963 1.67850E+01 7.90325E+00 0.00000E+00
 -1      2964 1.90350E+01 9.20225E+00 0.00000E+00
 -1      2965 7.00420E+01 3.47761E+01 0.00000E+00
 -1      2966 6.92747E+01 3.57681E+01 0.00000E+00
 -1      2967 7.07714E+01 2.24800E+01 0.00000E+00
 -1      2968 7.12688E+01 2.36262E+01 0.00000E+00
 -1      2969 4.82918E+01 2.46240E+01 0.00000E+00
 -1      2970 4.86966E+01 2.33534E+01 0.00000E+00
 -1      2971 5.94566E+01 4.03172E+01 0.00000E+00
 -1      2972 5.81969E+01 4.01148E+01 0.00000E+00
 -1      2973 4.93272E+01 3.45418E+01 0.00000E+00
 -1      2974 4.87392E+01 3.34246E+01 0.00000E+00
 -1      2975 2.72850E+01 7.90325E+00 0.00000E+00
 -1      2976 2.57850E+01 7.90325E+00 0.00000E+00
 -1      2977 2.50350E+01 9.20225E+00 0.00000E+00
 -1      2978 2.80350E+01 9.20225E+00 0.00000E+00
 -1      2979 1.14000E+01 4.09070E+01 0.00000E+00
 -1      2980 1.29000E+01 4.09070E+01 0.00000E+00
 -1      2981 1.36500E+01 3.96080E+01 0.00000E+00
 -1      2982 1.52850E+01 7.90325E+00 0.00000E+00
 -1      2983 1.37850E+01 7.90325E+00 0.00000E+00
 -1      2984 1.30350E+01 9.20225E+00 0.00000E+00
 -1      2985 1.60350E+01 9.20225E+00 0.00000E+00
 -1      2986 7.85850E+00 3.92077E+01 0.00000E+00
 -1      2987 7.10668E+01 3.25418E+01 0.00000E+00
 -1      2988 7.07695E+01 3.35457E+01 0.00000E+00
 -1      2989 7.20888E+01 3.23321E+01 0.00000E+00
 -1      2990 6.20034E+01 4.01888E+01 0.00000E+00
 -1      2991 6.08700E+01 4.03176E+01 0.00000E+00
 -1      2992 6.76320E+01 1.86683E+01 0.00000E+00
 -1      2993 6.85154E+01 1.95149E+01 0.00000E+00
 -1      2994 6.97128E+01 1.92200E+01 0.00000E+00
 -1      2995 6.01696E+01 1.60597E+01 0.00000E+00
 -1      2996 6.12777E+01 1.61254E+01 0.00000E+00
 -1      2997 5.29778E+01 1.86639E+01 0.00000E+00
 -1      2998 5.38082E+01 1.81532E+01 0.00000E+00
 -1      2999 4.91766E+01 2.19864E+01 0.00000E+00
 -1      3000 4.97422E+01 2.12265E+01 0.00000E+00
 -1      3001 5.02981E+01 3.59240E+01 0.00000E+00
 -1      3002 4.98126E+01 3.52329E+01 0.00000E+00
 -1      3003 4.86115E+01 3.51517E+01 0.00000E+00
 -1      3004 5.47670E+01 1.75069E+01 0.00000E+00
 -1      3005 5.57259E+01 1.68605E+01 0.00000E+00
 -1      3006 5.38149E+01 1.68890E+01 0.00000E+00
 -1      3007 9.09300E+00 1.68813E+01 0.00000E+00
 -1      3008 9.09300E+00 1.83563E+01 0.00000E+00
 -1      3009 1.03920E+01 1.90812E+01 0.00000E+00
 -1      3010 1.03920E+01 1.61437E+01 0.00000E+00
 -1      3011 9.09300E+00 3.15875E+01 0.00000E+00
 -1      3012 9.09300E+00 3.30625E+01 0.00000E+00
 -1      3013 5.07255E+01 2.03302E+01 0.00000E+00
 -1      3014 5.18517E+01 1.94970E+01 0.00000E+00
 -1      3015 5.17299E+01 1.83685E+01 0.00000E+00
 -1      3016 6.26766E+01 1.63703E+01 0.00000E+00
 -1      3017 6.39359E+01 1.67222E+01 0.00000E+00
 -1      3018 6.85576E+01 3.68411E+01 0.00000E+00
 -1      3019 6.78036E+01 3.75887E+01 0.00000E+00
 -1      3020 7.24360E+01 2.80224E+01 0.00000E+00
 -1      3021 7.22843E+01 2.91332E+01 0.00000E+00
 -1      3022 6.64274E+01 3.84438E+01 0.00000E+00
 -1      3023 6.54307E+01 3.91539E+01 0.00000E+00
 -1      3024 9.09300E+00 3.45313E+01 0.00000E+00
 -1      3025 9.09300E+00 3.60000E+01 0.00000E+00
 -1      3026 1.03920E+01 3.37938E+01 0.00000E+00
 -1      3027 1.03920E+01 2.49750E+01 0.00000E+00
 -1      3028 9.09300E+00 2.57000E+01 0.00000E+00
 -1      3029 9.09300E+00 2.71750E+01 0.00000E+00
 -1      3030 7.12784E+01 2.13558E+01 0.00000E+00
 -1      3031 1.40706E+02 1.17875E+01 0.00000E+00
 -1      3032 6.75560E+01 1.74828E+01 0.00000E+00
 -1      3033 5.62349E+01 1.61395E+01 0.00000E+00
 -1      3034 5.67439E+01 1.54185E+01 0.00000E+00
 -1      3035 5.52827E+01 1.55216E+01 0.00000E+00
 -1      3036 9.66450E+00 9.72612E+00 0.00000E+00
 -1      3037 6.49324E+01 1.60756E+01 0.00000E+00
 -1      3038 4.99720E+01 3.87718E+01 0.00000E+00
 -1      3039 1.39608E+02 1.61875E+01 0.00000E+00
 -1      3040 1.40907E+02 1.54500E+01 0.00000E+00
 -1      3041 1.40907E+02 1.39875E+01 0.00000E+00
 -1      3042 6.01107E+01 4.10217E+01 0.00000E+00
 -1      3043 6.96195E+01 3.68698E+01 0.00000E+00
 -1      3044 6.75262E+01 3.87979E+01 0.00000E+00
 -1      3045 7.28823E+01 2.72024E+01 0.00000E+00
 -1      3046 7.37392E+01 2.78851E+01 0.00000E+00
 -1      3047 7.33287E+01 2.63823E+01 0.00000E+00
 -1      3048 9.15750E+00 3.77359E+01 0.00000E+00
 -1      3049 9.22200E+00 4.02061E+01 0.00000E+00
 -1      3050 1.05855E+01 4.04701E+01 0.00000E+00
 -1      3051 1.04565E+01 3.69984E+01 0.00000E+00
 -1      3052 4.76928E+01 2.89507E+01 0.00000E+00
 -1      3053 4.77715E+01 2.79494E+01 0.00000E+00
 -1      3054 1.39529E+02 3.85828E+01 0.00000E+00
 -1      3055 1.40542E+02 3.71258E+01 0.00000E+00
 -1      3056 1.39243E+02 3.63883E+01 0.00000E+00
 -1      3057 1.38514E+02 3.85648E+01 0.00000E+00
 -1      3058 4.78921E+01 2.55571E+01 0.00000E+00
 -1      3059 4.72774E+01 2.46615E+01 0.00000E+00
 -1      3060 1.09635E+01 1.04636E+01 0.00000E+00
 -1      3061 7.10641E+01 3.45664E+01 0.00000E+00
 -1      3062 4.79423E+01 3.28214E+01 0.00000E+00
 -1      3063 4.71454E+01 3.22183E+01 0.00000E+00
 -1      3064 4.73291E+01 3.38575E+01 0.00000E+00
 -1      3065 4.81571E+01 2.23614E+01 0.00000E+00
 -1      3066 4.68595E+01 3.06079E+01 0.00000E+00
 -1      3067 4.72762E+01 2.97793E+01 0.00000E+00
 -1      3068 4.63770E+01 2.92049E+01 0.00000E+00
 -1      3069 6.44617E+01 3.98078E+01 0.00000E+00
 -1      3070 6.33474E+01 4.01582E+01 0.00000E+00
 -1      3071 7.28395E+01 3.00166E+01 0.00000E+00
 -1      3072 1.13355E+01 3.91711E+01 0.00000E+00
 -1      3073 9.09300E+00 2.86437E+01 0.00000E+00
 -1      3074 9.09300E+00 3.01187E+01 0.00000E+00
 -1      3075 1.03920E+01 3.08563E+01 0.00000E+00
 -1      3076 1.03920E+01 2.79188E+01 0.00000E+00
 -1      3077 5.31879E+01 3.99804E+01 0.00000E+00
 -1      3078 6.28681E+01 4.09915E+01 0.00000E+00
 -1      3079 5.92402E+01 1.55528E+01 0.00000E+00
 -1      3080 5.98549E+01 1.45624E+01 0.00000E+00
 -1      3081 5.83108E+01 1.50459E+01 0.00000E+00
 -1      3082 6.21833E+01 1.53141E+01 0.00000E+00
 -1      3083 4.96204E+01 2.00980E+01 0.00000E+00
 -1      3084 4.78135E+01 2.65585E+01 0.00000E+00
 -1      3085 1.16910E+01 1.24625E+01 0.00000E+00
 -1      3086 1.16910E+01 1.39375E+01 0.00000E+00
 -1      3087 1.89000E+01 3.83090E+01 0.00000E+00
 -1      3088 2.04000E+01 3.83090E+01 0.00000E+00
 -1      3089 2.19000E+01 3.83090E+01 0.00000E+00
 -1      3090 2.34000E+01 3.83090E+01 0.00000E+00
 -1      3091 2.11500E+01 3.70100E+01 0.00000E+00
 -1      3092 2.49000E+01 3.83090E+01 0.00000E+00
 -1      3093 2.64000E+01 3.83090E+01 0.00000E+00
 -1      3094 2.41500E+01 3.70100E+01 0.00000E+00
 -1      3095 2.79000E+01 3.83090E+01 0.00000E+00
 -1      3096 2.94000E+01 3.83090E+01 0.00000E+00
 -1      3097 2.71500E+01 3.70100E+01 0.00000E+00
 -1      3098 3.09000E+01 3.83090E+01 0.00000E+00
 -1      3099 3.24000E+01 3.83090E+01 0.00000E+00
 -1      3100 3.01500E+01 3.70100E+01 0.00000E+00
 -1      3101 3.39000E+01 3.83090E+01 0.00000E+00
 -1      3102 3.54000E+01 3.83090E+01 0.00000E+00
 -1      3103 3.31500E+01 3.70100E+01 0.00000E+00
 -1      3104 3.69000E+01 3.83090E+01 0.00000E+00
 -1      3105 3.84000E+01 3.83090E+01 0.00000E+00
 -1      3106 3.61500E+01 3.70100E+01 0.00000E+00
 -1      3107 3.99000E+01 3.83090E+01 0.00000E+00
 -1      3108 4.14000E+01 3.83090E+01 0.00000E+00
 -1      3109 3.91500E+01 3.70100E+01 0.00000E+00
 -1      3110 4.29000E+01 3.83090E+01 0.00000E+00
 -1      3111 4.44000E+01 3.83090E+01 0.00000E+00
 -1      3112 4.21500E+01 3.70100E+01 0.00000E+00
 -1      3113 4.64360E+01 3.85404E+01 0.00000E+00
 -1      3114 4.79360E+01 3.85404E+01 0.00000E+00
 -1      3115 4.97581E+01 3.77042E+01 0.00000E+00
 -1      3116 4.56860E+01 3.72414E+01 0.00000E+00
 -1      3117 5.74026E+01 3.98430E+01 0.00000E+00
 -1      3118 5.71737E+01 4.16137E+01 0.00000E+00
 -1      3119 5.86737E+01 4.16137E+01 0.00000E+00
 -1      3120 6.00870E+01 4.16140E+01 0.00000E+00
 -1      3121 6.15870E+01 4.16140E+01 0.00000E+00
 -1      3122 6.29310E+01 4.15835E+01 0.00000E+00
 -1      3123 6.44310E+01 4.15835E+01 0.00000E+00
 -1      3124 1.29000E+01 3.83090E+01 0.00000E+00
 -1      3125 1.44000E+01 3.83090E+01 0.00000E+00
 -1      3126 7.29000E+01 3.83540E+01 0.00000E+00
 -1      3127 7.44000E+01 3.83540E+01 0.00000E+00
 -1      3128 7.59000E+01 3.83540E+01 0.00000E+00
 -1      3129 7.74000E+01 3.83540E+01 0.00000E+00
 -1      3130 7.51500E+01 3.70550E+01 0.00000E+00
 -1      3131 7.89000E+01 3.83540E+01 0.00000E+00
 -1      3132 8.04000E+01 3.83540E+01 0.00000E+00
 -1      3133 7.81500E+01 3.70550E+01 0.00000E+00
 -1      3134 8.19000E+01 3.83540E+01 0.00000E+00
 -1      3135 8.34000E+01 3.83540E+01 0.00000E+00
 -1      3136 8.11500E+01 3.70550E+01 0.00000E+00
 -1      3137 8.49000E+01 3.83540E+01 0.00000E+00
 -1      3138 8.64000E+01 3.83540E+01 0.00000E+00
 -1      3139 8.41500E+01 3.70550E+01 0.00000E+00
 -1      3140 8.79000E+01 3.83540E+01 0.00000E+00
 -1      3141 8.94000E+01 3.83540E+01 0.00000E+00
 -1      3142 8.71500E+01 3.70550E+01 0.00000E+00
 -1      3143 9.09000E+01 3.83540E+01 0.00000E+00
 -1      3144 9.24000E+01 3.83540E+01 0.00000E+00
 -1      3145 9.01500E+01 3.70550E+01 0.00000E+00
 -1      3146 9.39000E+01 3.83540E+01 0.00000E+00
 -1      3147 9.54000E+01 3.83540E+01 0.00000E+00
 -1      3148 9.31500E+01 3.70550E+01 0.00000E+00
 -1      3149 9.69000E+01 3.83540E+01 0.00000E+00
 -1      3150 9.84000E+01 3.83540E+01 0.00000E+00
 -1      3151 9.61500E+01 3.70550E+01 0.00000E+00
 -1      3152 9.99000E+01 3.83540E+01 0.00000E+00
 -1      3153 1.01400E+02 3.83540E+01 0.00000E+00
 -1      3154 9.91500E+01 3.70550E+01 0.00000E+00
 -1      3155 1.02900E+02 3.83540E+01 0.00000E+00
 -1      3156 1.04400E+02 3.83540E+01 0.00000E+00
 -1      3157 1.02150E+02 3.70550E+01 0.00000E+00
 -1      3158 1.05900E+02 3.83540E+01 0.00000E+00
 -1      3159 1.07400E+02 3.83540E+01 0.00000E+00
 -1      3160 1.05150E+02 3.70550E+01 0.00000E+00
 -1      3161 1.08900E+02 3.83540E+01 0.00000E+00
 -1      3162 1.10400E+02 3.83540E+01 0.00000E+00
 -1      3163 1.08150E+02 3.70550E+01 0.00000E+00
 -1      3164 1.11900E+02 3.83540E+01 0.00000E+00
 -1      3165 1.13400E+02 3.83540E+01 0.00000E+00
 -1      3166 1.11150E+02 3.70550E+01 0.00000E+00
 -1      3167 1.14900E+02 3.83540E+01 0.00000E+00
 -1      3168 1.16400E+02 3.83540E+01 0.00000E+00
 -1      3169 1.14150E+02 3.70550E+01 0.00000E+00
 -1      3170 1.17900E+02 3.83540E+01 0.00000E+00
 -1      3171 1.19400E+02 3.83540E+01 0.00000E+00
 -1      3172 1.17150E+02 3.70550E+01 0.00000E+00
 -1      3173 1.20900E+02 3.83540E+01 0.00000E+00
 -1      3174 1.22400E+02 3.83540E+01 0.00000E+00
 -1      3175 1.20150E+02 3.70550E+01 0.00000E+00
 -1      3176 1.23900E+02 3.83540E+01 0.00000E+00
 -1      3177 1.25400E+02 3.83540E+01 0.00000E+00
 -1      3178 1.23150E+02 3.70550E+01 0.00000E+00
 -1      3179 1.26900E+02 3.83540E+01 0.00000E+00
 -1      3180 1.28400E+02 3.83540E+01 0.00000E+00
 -1      3181 1.26150E+02 3.70550E+01 0.00000E+00
 -1      3182 1.29900E+02 3.83540E+01 0.00000E+00
 -1      3183 1.31400E+02 3.83540E+01 0.00000E+00
 -1      3184 1.29150E+02 3.70550E+01 0.00000E+00
 -1      3185 1.32900E+02 3.83540E+01 0.00000E+00
 -1      3186 1.34400E+02 3.83540E+01 0.00000E+00
 -1      3187 1.32150E+02 3.70550E+01 0.00000E+00
 -1      3188 1.35707E+02 3.84594E+01 0.00000E+00
 -1      3189 1.37207E+02 3.84594E+01 0.00000E+00
 -1      3190 1.37572E+02 3.73712E+01 0.00000E+00
 -1      3191 1.34957E+02 3.71604E+01 0.00000E+00
 -1      3192 3.47850E+01 1.05013E+01 0.00000E+00
 -1      3193 3.32850E+01 1.05013E+01 0.00000E+00
 -1      3194 3.17850E+01 1.05013E+01 0.00000E+00
 -1      3195 3.02850E+01 1.05013E+01 0.00000E+00
 -1      3196 3.25350E+01 1.18003E+01 0.00000E+00
 -1      3197 4.07850E+01 1.05013E+01 0.00000E+00
 -1      3198 3.92850E+01 1.05013E+01 0.00000E+00
 -1      3199 4.37850E+01 1.05013E+01 0.00000E+00
 -1      3200 4.22850E+01 1.05013E+01 0.00000E+00
 -1      3201 4.15350E+01 1.18003E+01 0.00000E+00
 -1      3202 4.67850E+01 1.05013E+01 0.00000E+00
 -1      3203 4.52850E+01 1.05013E+01 0.00000E+00
 -1      3204 4.45350E+01 1.18003E+01 0.00000E+00
 -1      3205 4.97850E+01 1.05013E+01 0.00000E+00
 -1      3206 4.82850E+01 1.05013E+01 0.00000E+00
 -1      3207 4.75350E+01 1.18003E+01 0.00000E+00
 -1      3208 5.27850E+01 1.05013E+01 0.00000E+00
 -1      3209 5.12850E+01 1.05013E+01 0.00000E+00
 -1      3210 5.05350E+01 1.18003E+01 0.00000E+00
 -1      3211 5.57850E+01 1.05013E+01 0.00000E+00
 -1      3212 5.42850E+01 1.05013E+01 0.00000E+00
 -1      3213 5.35350E+01 1.18003E+01 0.00000E+00
 -1      3214 5.92303E+01 1.16289E+01 0.00000E+00
 -1      3215 5.77303E+01 1.16289E+01 0.00000E+00
 -1      3216 6.47850E+01 1.05013E+01 0.00000E+00
 -1      3217 6.32850E+01 1.05013E+01 0.00000E+00
 -1      3218 6.77850E+01 1.05013E+01 0.00000E+00
 -1      3219 6.62850E+01 1.05013E+01 0.00000E+00
 -1      3220 6.55350E+01 1.18003E+01 0.00000E+00
 -1      3221 7.07850E+01 1.05013E+01 0.00000E+00
 -1      3222 6.92850E+01 1.05013E+01 0.00000E+00
 -1      3223 6.85350E+01 1.18003E+01 0.00000E+00
 -1      3224 7.37850E+01 1.05013E+01 0.00000E+00
 -1      3225 7.22850E+01 1.05013E+01 0.00000E+00
 -1      3226 7.15350E+01 1.18003E+01 0.00000E+00
 -1      3227 7.67850E+01 1.05013E+01 0.00000E+00
 -1      3228 7.52850E+01 1.05013E+01 0.00000E+00
 -1      3229 7.45350E+01 1.18003E+01 0.00000E+00
 -1      3230 7.97850E+01 1.05013E+01 0.00000E+00
 -1      3231 7.82850E+01 1.05013E+01 0.00000E+00
 -1      3232 7.75350E+01 1.18003E+01 0.00000E+00
 -1      3233 8.27850E+01 1.05013E+01 0.00000E+00
 -1      3234 8.12850E+01 1.05013E+01 0.00000E+00
 -1      3235 8.05350E+01 1.18003E+01 0.00000E+00
 -1      3236 8.57850E+01 1.05013E+01 0.00000E+00
 -1      3237 8.42850E+01 1.05013E+01 0.00000E+00
 -1      3238 8.35350E+01 1.18003E+01 0.00000E+00
 -1      3239 8.87850E+01 1.05013E+01 0.00000E+00
 -1      3240 8.72850E+01 1.05013E+01 0.00000E+00
 -1      3241 8.65350E+01 1.18003E+01 0.00000E+00
 -1      3242 9.17850E+01 1.05013E+01 0.00000E+00
 -1      3243 9.02850E+01 1.05013E+01 0.00000E+00
 -1      3244 8.95350E+01 1.18003E+01 0.00000E+00
 -1      3245 9.47850E+01 1.05013E+01 0.00000E+00
 -1      3246 9.32850E+01 1.05013E+01 0.00000E+00
 -1      3247 9.25350E+01 1.18003E+01 0.00000E+00
 -1      3248 9.77850E+01 1.05013E+01 0.00000E+00
 -1      3249 9.62850E+01 1.05013E+01 0.00000E+00
 -1      3250 9.55350E+01 1.18003E+01 0.00000E+00
 -1      3251 1.00785E+02 1.05013E+01 0.00000E+00
 -1      3252 9.92850E+01 1.05013E+01 0.00000E+00
 -1      3253 9.85350E+01 1.18003E+01 0.00000E+00
 -1      3254 1.03785E+02 1.05013E+01 0.00000E+00
 -1      3255 1.02285E+02 1.05013E+01 0.00000E+00
 -1      3256 1.01535E+02 1.18003E+01 0.00000E+00
 -1      3257 1.06785E+02 1.05013E+01 0.00000E+00
 -1      3258 1.05285E+02 1.05013E+01 0.00000E+00
 -1      3259 1.04535E+02 1.18003E+01 0.00000E+00
 -1      3260 1.09785E+02 1.05013E+01 0.00000E+00
 -1      3261 1.08285E+02 1.05013E+01 0.00000E+00
 -1      3262 1.07535E+02 1.18003E+01 0.00000E+00
 -1      3263 1.12785E+02 1.05013E+01 0.00000E+00
 -1      3264 1.11285E+02 1.05013E+01 0.00000E+00
 -1      3265 1.10535E+02 1.18003E+01 0.00000E+00
 -1      3266 1.15785E+02 1.05013E+01 0.00000E+00
 -1      3267 1.14285E+02 1.05013E+01 0.00000E+00
 -1      3268 1.13535E+02 1.18003E+01 0.00000E+00
 -1      3269 1.18785E+02 1.05013E+01 0.00000E+00
 -1      3270 1.17285E+02 1.05013E+01 0.00000E+00
 -1      3271 1.16535E+02 1.18003E+01 0.00000E+00
 -1      3272 1.21785E+02 1.05013E+01 0.00000E+00
 -1      3273 1.20285E+02 1.05013E+01 0.00000E+00
 -1      3274 1.19535E+02 1.18003E+01 0.00000E+00
 -1      3275 1.24785E+02 1.05013E+01 0.00000E+00
 -1      3276 1.23285E+02 1.05013E+01 0.00000E+00
 -1      3277 1.22535E+02 1.18003E+01 0.00000E+00
 -1      3278 1.27785E+02 1.05013E+01 0.00000E+00
 -1      3279 1.26285E+02 1.05013E+01 0.00000E+00
 -1      3280 1.25535E+02 1.18003E+01 0.00000E+00
 -1      3281 1.30785E+02 1.05013E+01 0.00000E+00
 -1      3282 1.29285E+02 1.05013E+01 0.00000E+00
 -1      3283 1.28535E+02 1.18003E+01 0.00000E+00
 -1      3284 1.33785E+02 1.05013E+01 0.00000E+00
 -1      3285 1.32285E+02 1.05013E+01 0.00000E+00
 -1      3286 1.31535E+02 1.18003E+01 0.00000E+00
 -1      3287 4.62123E+01 2.47574E+01 0.00000E+00
 -1      3288 4.66120E+01 2.38243E+01 0.00000E+00
 -1      3289 6.46835E+01 1.47034E+01 0.00000E+00
 -1      3290 6.60337E+01 1.52201E+01 0.00000E+00
 -1      3291 1.16910E+01 2.12875E+01 0.00000E+00
 -1      3292 1.16910E+01 2.27625E+01 0.00000E+00
 -1      3293 1.38309E+02 3.16125E+01 0.00000E+00
 -1      3294 1.38309E+02 3.01375E+01 0.00000E+00
 -1      3295 1.38309E+02 2.57625E+01 0.00000E+00
 -1      3296 1.38309E+02 2.42875E+01 0.00000E+00
 -1      3297 6.76028E+01 1.60602E+01 0.00000E+00
 -1      3298 6.88762E+01 1.69507E+01 0.00000E+00
 -1      3299 1.38309E+02 3.45625E+01 0.00000E+00
 -1      3300 1.38309E+02 3.30875E+01 0.00000E+00
 -1      3301 1.37010E+02 3.23500E+01 0.00000E+00
 -1      3302 1.38309E+02 2.86750E+01 0.00000E+00
 -1      3303 1.38309E+02 2.72250E+01 0.00000E+00
 -1      3304 1.37010E+02 2.64875E+01 0.00000E+00
 -1      3305 1.37010E+02 2.94125E+01 0.00000E+00
 -1      3306 6.90262E+01 3.87979E+01 0.00000E+00
 -1      3307 1.39407E+02 1.25250E+01 0.00000E+00
 -1      3308 1.97850E+01 1.05013E+01 0.00000E+00
 -1      3309 1.82850E+01 1.05013E+01 0.00000E+00
 -1      3310 7.14581E+01 2.41738E+01 0.00000E+00
 -1      3311 7.24055E+01 2.47199E+01 0.00000E+00
 -1      3312 1.26488E+01 1.02017E+01 0.00000E+00
 -1      3313 1.20772E+01 1.14631E+01 0.00000E+00
 -1      3314 1.33763E+01 1.22006E+01 0.00000E+00
 -1      3315 1.41488E+01 1.02017E+01 0.00000E+00
 -1      3316 5.04455E+01 3.68892E+01 0.00000E+00
 -1      3317 7.21498E+01 2.31926E+01 0.00000E+00
 -1      3318 7.07607E+01 3.68563E+01 0.00000E+00
 -1      3319 7.00436E+01 3.79294E+01 0.00000E+00
 -1      3320 6.51810E+01 4.03070E+01 0.00000E+00
 -1      3321 7.39558E+01 2.96684E+01 0.00000E+00
 -1      3322 7.35025E+01 3.09799E+01 0.00000E+00
 -1      3323 3.77850E+01 1.05013E+01 0.00000E+00
 -1      3324 3.62850E+01 1.05013E+01 0.00000E+00
 -1      3325 3.55350E+01 1.18003E+01 0.00000E+00
 -1      3326 3.85350E+01 1.18003E+01 0.00000E+00
 -1      3327 7.19915E+01 2.01534E+01 0.00000E+00
 -1      3328 7.26737E+01 2.14426E+01 0.00000E+00
 -1      3329 2.27850E+01 1.05013E+01 0.00000E+00
 -1      3330 2.12850E+01 1.05013E+01 0.00000E+00
 -1      3331 2.05350E+01 1.18003E+01 0.00000E+00
 -1      3332 7.01674E+01 3.87845E+01 0.00000E+00
 -1      3333 7.32279E+01 2.41721E+01 0.00000E+00
 -1      3334 7.32943E+01 2.51518E+01 0.00000E+00
 -1      3335 4.70919E+01 2.24573E+01 0.00000E+00
 -1      3336 4.75719E+01 2.10902E+01 0.00000E+00
 -1      3337 4.60268E+01 2.25532E+01 0.00000E+00
 -1      3338 7.32052E+01 3.19839E+01 0.00000E+00
 -1      3339 7.29079E+01 3.29878E+01 0.00000E+00
 -1      3340 7.43216E+01 3.16357E+01 0.00000E+00
 -1      3341 7.00963E+01 1.79356E+01 0.00000E+00
 -1      3342 7.09798E+01 1.87822E+01 0.00000E+00
 -1      3343 7.28561E+01 2.25336E+01 0.00000E+00
 -1      3344 7.30455E+01 2.30811E+01 0.00000E+00
 -1      3345 7.39342E+01 2.35131E+01 0.00000E+00
 -1      3346 7.35693E+01 2.13312E+01 0.00000E+00
 -1      3347 5.28561E+01 1.65011E+01 0.00000E+00
 -1      3348 5.38149E+01 1.58547E+01 0.00000E+00
 -1      3349 4.68357E+01 2.69855E+01 0.00000E+00
 -1      3350 1.59000E+01 3.83090E+01 0.00000E+00
 -1      3351 1.74000E+01 3.83090E+01 0.00000E+00
 -1      3352 1.81500E+01 3.70100E+01 0.00000E+00
 -1      3353 5.06568E+01 1.80956E+01 0.00000E+00
 -1      3354 5.17829E+01 1.72625E+01 0.00000E+00
 -1      3355 4.84946E+01 1.98505E+01 0.00000E+00
 -1      3356 4.94779E+01 1.89541E+01 0.00000E+00
 -1      3357 1.12710E+01 3.74352E+01 0.00000E+00
 -1      3358 1.20855E+01 3.78721E+01 0.00000E+00
 -1      3359 1.12065E+01 3.56994E+01 0.00000E+00
 -1      3360 7.22382E+01 3.44303E+01 0.00000E+00
 -1      3361 7.15107E+01 3.56607E+01 0.00000E+00
 -1      3362 6.16750E+01 1.40994E+01 0.00000E+00
 -1      3363 6.30739E+01 1.43442E+01 0.00000E+00
 -1      3364 4.59575E+01 2.76550E+01 0.00000E+00
 -1      3365 4.59996E+01 2.62641E+01 0.00000E+00
 -1      3366 1.16910E+01 2.42375E+01 0.00000E+00
 -1      3367 1.16910E+01 2.57125E+01 0.00000E+00
 -1      3368 1.29900E+01 2.35000E+01 0.00000E+00
 -1      3369 1.28355E+01 3.65731E+01 0.00000E+00
 -1      3370 5.43239E+01 1.51337E+01 0.00000E+00
 -1      3371 5.48329E+01 1.44127E+01 0.00000E+00
 -1      3372 5.33651E+01 1.47458E+01 0.00000E+00
 -1      3373 1.12065E+01 3.27619E+01 0.00000E+00
 -1      3374 1.12065E+01 3.42306E+01 0.00000E+00
 -1      3375 1.20210E+01 3.46675E+01 0.00000E+00
 -1      3376 5.17830E+01 1.62282E+01 0.00000E+00
 -1      3377 1.38309E+02 1.69188E+01 0.00000E+00
 -1      3378 1.38309E+02 1.54563E+01 0.00000E+00
 -1      3379 1.51500E+01 3.70100E+01 0.00000E+00
 -1      3380 7.16674E+01 3.87845E+01 0.00000E+00
 -1      3381 1.12065E+01 2.98244E+01 0.00000E+00
 -1      3382 1.12065E+01 3.12931E+01 0.00000E+00
 -1      3383 1.20210E+01 3.17300E+01 0.00000E+00
 -1      3384 4.55409E+01 2.84836E+01 0.00000E+00
 -1      3385 4.47047E+01 2.77623E+01 0.00000E+00
 -1      3386 4.51242E+01 2.93122E+01 0.00000E+00
 -1      3387 7.41511E+01 2.58346E+01 0.00000E+00
 -1      3388 2.95350E+01 1.18003E+01 0.00000E+00
 -1      3389 2.87850E+01 1.05013E+01 0.00000E+00
 -1      3390 2.72850E+01 1.05013E+01 0.00000E+00
 -1      3391 5.69803E+01 1.29279E+01 0.00000E+00
 -1      3392 6.17850E+01 1.05013E+01 0.00000E+00
 -1      3393 6.02850E+01 1.05013E+01 0.00000E+00
 -1      3394 7.33545E+01 3.40821E+01 0.00000E+00
 -1      3395 1.34953E+02 1.07819E+01 0.00000E+00
 -1      3396 1.34203E+02 1.20809E+01 0.00000E+00
 -1      3397 1.36120E+02 1.10626E+01 0.00000E+00
 -1      3398 4.53341E+01 2.54269E+01 0.00000E+00
 -1      3399 1.38309E+02 1.98687E+01 0.00000E+00
 -1      3400 1.38309E+02 1.83937E+01 0.00000E+00
 -1      3401 1.37010E+02 1.76625E+01 0.00000E+00
 -1      3402 6.73540E+01 1.46879E+01 0.00000E+00
 -1      3403 7.19348E+01 3.67202E+01 0.00000E+00
 -1      3404 7.23751E+01 1.88690E+01 0.00000E+00
 -1      3405 7.01432E+01 1.65129E+01 0.00000E+00
 -1      3406 1.38309E+02 2.28156E+01 0.00000E+00
 -1      3407 1.38309E+02 2.13406E+01 0.00000E+00
 -1      3408 1.37010E+02 2.06094E+01 0.00000E+00
 -1      3409 1.37010E+02 2.35531E+01 0.00000E+00
 -1      3410 6.09097E+01 1.34347E+01 0.00000E+00
 -1      3411 6.18003E+01 1.24649E+01 0.00000E+00
 -1      3412 1.37758E+02 3.65110E+01 0.00000E+00
 -1      3413 1.38123E+02 3.54227E+01 0.00000E+00
 -1      3414 1.36824E+02 3.46852E+01 0.00000E+00
 -1      3415 1.36451E+02 3.64056E+01 0.00000E+00
 -1      3416 1.29900E+01 1.46687E+01 0.00000E+00
 -1      3417 1.16910E+01 1.54063E+01 0.00000E+00
 -1      3418 1.16910E+01 1.68750E+01 0.00000E+00
 -1      3419 4.74295E+01 1.99463E+01 0.00000E+00
 -1      3420 4.70583E+01 3.50432E+01 0.00000E+00
 -1      3421 4.62615E+01 3.44401E+01 0.00000E+00
 -1      3422 4.62463E+01 3.16439E+01 0.00000E+00
 -1      3423 4.53472E+01 3.10696E+01 0.00000E+00
 -1      3424 4.56331E+01 3.26800E+01 0.00000E+00
 -1      3425 7.44022E+01 2.88484E+01 0.00000E+00
 -1      3426 7.50652E+01 2.98117E+01 0.00000E+00
 -1      3427 7.48486E+01 2.80284E+01 0.00000E+00
 -1      3428 2.42850E+01 1.05013E+01 0.00000E+00
 -1      3429 2.35350E+01 1.18003E+01 0.00000E+00
 -1      3430 2.57850E+01 1.05013E+01 0.00000E+00
 -1      3431 1.16910E+01 1.98188E+01 0.00000E+00
 -1      3432 1.29900E+01 2.05562E+01 0.00000E+00
 -1      3433 1.16910E+01 1.83500E+01 0.00000E+00
 -1      3434 1.38274E+02 1.38503E+01 0.00000E+00
 -1      3435 1.38073E+02 1.16503E+01 0.00000E+00
 -1      3436 1.36905E+02 1.13696E+01 0.00000E+00
 -1      3437 1.36975E+02 1.45815E+01 0.00000E+00
 -1      3438 6.41753E+01 1.34886E+01 0.00000E+00
 -1      3439 1.69669E+01 1.03515E+01 0.00000E+00
 -1      3440 1.54669E+01 1.03515E+01 0.00000E+00
 -1      3441 1.50806E+01 1.13509E+01 0.00000E+00
 -1      3442 1.77169E+01 1.16505E+01 0.00000E+00
 -1      3443 5.73586E+01 1.44280E+01 0.00000E+00
 -1      3444 7.24174E+01 3.74855E+01 0.00000E+00
 -1      3445 4.75438E+01 3.57344E+01 0.00000E+00
 -1      3446 4.84095E+01 3.66578E+01 0.00000E+00
 -1      3447 4.68564E+01 3.65493E+01 0.00000E+00
 -1      3448 4.95309E+01 1.78481E+01 0.00000E+00
 -1      3449 5.99803E+01 1.29279E+01 0.00000E+00
 -1      3450 6.25350E+01 1.18003E+01 0.00000E+00
 -1      3451 2.04000E+01 3.57110E+01 0.00000E+00
 -1      3452 2.19000E+01 3.57110E+01 0.00000E+00
 -1      3453 2.34000E+01 3.57110E+01 0.00000E+00
 -1      3454 2.49000E+01 3.57110E+01 0.00000E+00
 -1      3455 2.26500E+01 3.44120E+01 0.00000E+00
 -1      3456 2.64000E+01 3.57110E+01 0.00000E+00
 -1      3457 2.79000E+01 3.57110E+01 0.00000E+00
 -1      3458 2.56500E+01 3.44120E+01 0.00000E+00
 -1      3459 2.94000E+01 3.57110E+01 0.00000E+00
 -1      3460 3.09000E+01 3.57110E+01 0.00000E+00
 -1      3461 2.86500E+01 3.44120E+01 0.00000E+00
 -1      3462 3.24000E+01 3.57110E+01 0.00000E+00
 -1      3463 3.39000E+01 3.57110E+01 0.00000E+00
 -1      3464 3.16500E+01 3.44120E+01 0.00000E+00
 -1      3465 3.54000E+01 3.57110E+01 0.00000E+00
 -1      3466 3.69000E+01 3.57110E+01 0.00000E+00
 -1      3467 3.46500E+01 3.44120E+01 0.00000E+00
 -1      3468 3.84000E+01 3.57110E+01 0.00000E+00
 -1      3469 3.99000E+01 3.57110E+01 0.00000E+00
 -1      3470 3.76500E+01 3.44120E+01 0.00000E+00
 -1      3471 4.14000E+01 3.57110E+01 0.00000E+00
 -1      3472 4.29000E+01 3.57110E+01 0.00000E+00
 -1      3473 4.06500E+01 3.44120E+01 0.00000E+00
 -1      3474 5.54133E+01 1.33004E+01 0.00000E+00
 -1      3475 1.28355E+01 3.36356E+01 0.00000E+00
 -1      3476 1.28355E+01 3.51044E+01 0.00000E+00
 -1      3477 1.36500E+01 3.55412E+01 0.00000E+00
 -1      3478 7.74000E+01 3.57560E+01 0.00000E+00
 -1      3479 7.89000E+01 3.57560E+01 0.00000E+00
 -1      3480 8.04000E+01 3.57560E+01 0.00000E+00
 -1      3481 8.19000E+01 3.57560E+01 0.00000E+00
 -1      3482 7.96500E+01 3.44570E+01 0.00000E+00
 -1      3483 8.34000E+01 3.57560E+01 0.00000E+00
 -1      3484 8.49000E+01 3.57560E+01 0.00000E+00
 -1      3485 8.26500E+01 3.44570E+01 0.00000E+00
 -1      3486 8.64000E+01 3.57560E+01 0.00000E+00
 -1      3487 8.79000E+01 3.57560E+01 0.00000E+00
 -1      3488 8.56500E+01 3.44570E+01 0.00000E+00
 -1      3489 8.94000E+01 3.57560E+01 0.00000E+00
 -1      3490 9.09000E+01 3.57560E+01 0.00000E+00
 -1      3491 8.86500E+01 3.44570E+01 0.00000E+00
 -1      3492 9.24000E+01 3.57560E+01 0.00000E+00
 -1      3493 9.39000E+01 3.57560E+01 0.00000E+00
 -1      3494 9.16500E+01 3.44570E+01 0.00000E+00
 -1      3495 9.54000E+01 3.57560E+01 0.00000E+00
 -1      3496 9.69000E+01 3.57560E+01 0.00000E+00
 -1      3497 9.46500E+01 3.44570E+01 0.00000E+00
 -1      3498 9.84000E+01 3.57560E+01 0.00000E+00
 -1      3499 9.99000E+01 3.57560E+01 0.00000E+00
 -1      3500 9.76500E+01 3.44570E+01 0.00000E+00
 -1      3501 1.01400E+02 3.57560E+01 0.00000E+00
 -1      3502 1.02900E+02 3.57560E+01 0.00000E+00
 -1      3503 1.00650E+02 3.44570E+01 0.00000E+00
 -1      3504 1.04400E+02 3.57560E+01 0.00000E+00
 -1      3505 1.05900E+02 3.57560E+01 0.00000E+00
 -1      3506 1.03650E+02 3.44570E+01 0.00000E+00
 -1      3507 1.07400E+02 3.57560E+01 0.00000E+00
 -1      3508 1.08900E+02 3.57560E+01 0.00000E+00
 -1      3509 1.06650E+02 3.44570E+01 0.00000E+00
 -1      3510 1.10400E+02 3.57560E+01 0.00000E+00
 -1      3511 1.11900E+02 3.57560E+01 0.00000E+00
 -1      3512 1.09650E+02 3.44570E+01 0.00000E+00
 -1      3513 1.13400E+02 3.57560E+01 0.00000E+00
 -1      3514 1.14900E+02 3.57560E+01 0.00000E+00
 -1      3515 1.12650E+02 3.44570E+01 0.00000E+00
 -1      3516 1.16400E+02 3.57560E+01 0.00000E+00
 -1      3517 1.17900E+02 3.57560E+01 0.00000E+00
 -1      3518 1.15650E+02 3.44570E+01 0.00000E+00
 -1      3519 1.19400E+02 3.57560E+01 0.00000E+00
 -1      3520 1.20900E+02 3.57560E+01 0.00000E+00
 -1      3521 1.18650E+02 3.44570E+01 0.00000E+00
 -1      3522 1.22400E+02 3.57560E+01 0.00000E+00
 -1      3523 1.23900E+02 3.57560E+01 0.00000E+00
 -1      3524 1.21650E+02 3.44570E+01 0.00000E+00
 -1      3525 1.25400E+02 3.57560E+01 0.00000E+00
 -1      3526 1.26900E+02 3.57560E+01 0.00000E+00
 -1      3527 1.24650E+02 3.44570E+01 0.00000E+00
 -1      3528 1.28400E+02 3.57560E+01 0.00000E+00
 -1      3529 1.29900E+02 3.57560E+01 0.00000E+00
 -1      3530 1.27650E+02 3.44570E+01 0.00000E+00
 -1      3531 1.31400E+02 3.57560E+01 0.00000E+00
 -1      3532 1.32900E+02 3.57560E+01 0.00000E+00
 -1      3533 1.30650E+02 3.44570E+01 0.00000E+00
 -1      3534 3.32850E+01 1.30992E+01 0.00000E+00
 -1      3535 3.17850E+01 1.30992E+01 0.00000E+00
 -1      3536 4.52850E+01 1.30992E+01 0.00000E+00
 -1      3537 4.37850E+01 1.30992E+01 0.00000E+00
 -1      3538 4.22850E+01 1.30992E+01 0.00000E+00
 -1      3539 4.07850E+01 1.30992E+01 0.00000E+00
 -1      3540 4.30350E+01 1.43982E+01 0.00000E+00
 -1      3541 5.12850E+01 1.30992E+01 0.00000E+00
 -1      3542 4.97850E+01 1.30992E+01 0.00000E+00
 -1      3543 5.44546E+01 1.29125E+01 0.00000E+00
 -1      3544 7.46192E+01 3.37926E+01 0.00000E+00
 -1      3545 7.39494E+01 3.52350E+01 0.00000E+00
 -1      3546 7.52850E+01 1.30992E+01 0.00000E+00
 -1      3547 7.37850E+01 1.30992E+01 0.00000E+00
 -1      3548 7.82850E+01 1.30992E+01 0.00000E+00
 -1      3549 7.67850E+01 1.30992E+01 0.00000E+00
 -1      3550 7.60350E+01 1.43982E+01 0.00000E+00
 -1      3551 8.12850E+01 1.30992E+01 0.00000E+00
 -1      3552 7.97850E+01 1.30992E+01 0.00000E+00
 -1      3553 7.90350E+01 1.43982E+01 0.00000E+00
 -1      3554 8.42850E+01 1.30992E+01 0.00000E+00
 -1      3555 8.27850E+01 1.30992E+01 0.00000E+00
 -1      3556 8.20350E+01 1.43982E+01 0.00000E+00
 -1      3557 8.72850E+01 1.30992E+01 0.00000E+00
 -1      3558 8.57850E+01 1.30992E+01 0.00000E+00
 -1      3559 8.50350E+01 1.43982E+01 0.00000E+00
 -1      3560 9.02850E+01 1.30992E+01 0.00000E+00
 -1      3561 8.87850E+01 1.30992E+01 0.00000E+00
 -1      3562 8.80350E+01 1.43982E+01 0.00000E+00
 -1      3563 9.32850E+01 1.30992E+01 0.00000E+00
 -1      3564 9.17850E+01 1.30992E+01 0.00000E+00
 -1      3565 9.10350E+01 1.43982E+01 0.00000E+00
 -1      3566 9.62850E+01 1.30992E+01 0.00000E+00
 -1      3567 9.47850E+01 1.30992E+01 0.00000E+00
 -1      3568 9.40350E+01 1.43982E+01 0.00000E+00
 -1      3569 9.92850E+01 1.30992E+01 0.00000E+00
 -1      3570 9.77850E+01 1.30992E+01 0.00000E+00
 -1      3571 9.70350E+01 1.43982E+01 0.00000E+00
 -1      3572 1.02285E+02 1.30992E+01 0.00000E+00
 -1      3573 1.00785E+02 1.30992E+01 0.00000E+00
 -1      3574 1.00035E+02 1.43982E+01 0.00000E+00
 -1      3575 1.05285E+02 1.30992E+01 0.00000E+00
 -1      3576 1.03785E+02 1.30992E+01 0.00000E+00
 -1      3577 1.03035E+02 1.43982E+01 0.00000E+00
 -1      3578 1.08285E+02 1.30992E+01 0.00000E+00
 -1      3579 1.06785E+02 1.30992E+01 0.00000E+00
 -1      3580 1.06035E+02 1.43982E+01 0.00000E+00
 -1      3581 1.11285E+02 1.30992E+01 0.00000E+00
 -1      3582 1.09785E+02 1.30992E+01 0.00000E+00
 -1      3583 1.09035E+02 1.43982E+01 0.00000E+00
 -1      3584 1.14285E+02 1.30992E+01 0.00000E+00
 -1      3585 1.12785E+02 1.30992E+01 0.00000E+00
 -1      3586 1.12035E+02 1.43982E+01 0.00000E+00
 -1      3587 1.17285E+02 1.30992E+01 0.00000E+00
 -1      3588 1.15785E+02 1.30992E+01 0.00000E+00
 -1      3589 1.15035E+02 1.43982E+01 0.00000E+00
 -1      3590 1.20285E+02 1.30992E+01 0.00000E+00
 -1      3591 1.18785E+02 1.30992E+01 0.00000E+00
 -1      3592 1.18035E+02 1.43982E+01 0.00000E+00
 -1      3593 1.23285E+02 1.30992E+01 0.00000E+00
 -1      3594 1.21785E+02 1.30992E+01 0.00000E+00
 -1      3595 1.21035E+02 1.43982E+01 0.00000E+00
 -1      3596 1.26285E+02 1.30992E+01 0.00000E+00
 -1      3597 1.24785E+02 1.30992E+01 0.00000E+00
 -1      3598 1.24035E+02 1.43982E+01 0.00000E+00
 -1      3599 1.29285E+02 1.30992E+01 0.00000E+00
 -1      3600 1.27785E+02 1.30992E+01 0.00000E+00
 -1      3601 1.27035E+02 1.43982E+01 0.00000E+00
 -1      3602 1.32285E+02 1.30992E+01 0.00000E+00
 -1      3603 1.30785E+02 1.30992E+01 0.00000E+00
 -1      3604 1.30035E+02 1.43982E+01 0.00000E+00
 -1      3605 6.33003E+01 1.24649E+01 0.00000E+00
 -1      3606 4.40468E+01 2.60136E+01 0.00000E+00
 -1      3607 4.42595E+01 2.45068E+01 0.00000E+00
 -1      3608 6.49100E+01 1.28240E+01 0.00000E+00
 -1      3609 1.35711E+02 3.30875E+01 0.00000E+00
 -1      3610 1.35711E+02 3.16125E+01 0.00000E+00
 -1      3611 7.31674E+01 3.62898E+01 0.00000E+00
 -1      3612 5.06224E+01 1.56940E+01 0.00000E+00
 -1      3613 5.16956E+01 1.49325E+01 0.00000E+00
 -1      3614 7.28289E+01 1.74753E+01 0.00000E+00
 -1      3615 7.38407E+01 1.88465E+01 0.00000E+00
 -1      3616 2.12850E+01 1.30992E+01 0.00000E+00
 -1      3617 1.97850E+01 1.30992E+01 0.00000E+00
 -1      3618 4.47405E+01 2.28693E+01 0.00000E+00
 -1      3619 4.52205E+01 2.15023E+01 0.00000E+00
 -1      3620 7.53728E+01 3.14010E+01 0.00000E+00
 -1      3621 7.50755E+01 3.24049E+01 0.00000E+00
 -1      3622 1.14487E+01 2.70341E+01 0.00000E+00
 -1      3623 1.14487E+01 2.85028E+01 0.00000E+00
 -1      3624 1.22633E+01 2.89397E+01 0.00000E+00
 -1      3625 1.27478E+01 2.62966E+01 0.00000E+00
 -1      3626 7.50749E+01 2.51929E+01 0.00000E+00
 -1      3627 7.51093E+01 2.64235E+01 0.00000E+00
 -1      3628 1.51500E+01 3.55412E+01 0.00000E+00
 -1      3629 4.82850E+01 1.30992E+01 0.00000E+00
 -1      3630 4.67850E+01 1.30992E+01 0.00000E+00
 -1      3631 4.60350E+01 1.43982E+01 0.00000E+00
 -1      3632 4.90350E+01 1.43982E+01 0.00000E+00
 -1      3633 4.59441E+01 1.98041E+01 0.00000E+00
 -1      3634 4.68668E+01 1.85644E+01 0.00000E+00
 -1      3635 4.83381E+01 1.74487E+01 0.00000E+00
 -1      3636 4.95169E+01 1.65902E+01 0.00000E+00
 -1      3637 7.03348E+01 1.50272E+01 0.00000E+00
 -1      3638 7.15550E+01 1.60121E+01 0.00000E+00
 -1      3639 1.74000E+01 3.57110E+01 0.00000E+00
 -1      3640 1.89000E+01 3.57110E+01 0.00000E+00
 -1      3641 1.96500E+01 3.44120E+01 0.00000E+00
 -1      3642 6.64100E+01 1.28240E+01 0.00000E+00
 -1      3643 7.44320E+01 3.60003E+01 0.00000E+00
 -1      3644 6.79790E+01 1.36641E+01 0.00000E+00
 -1      3645 6.94790E+01 1.36641E+01 0.00000E+00
 -1      3646 7.08908E+01 1.31633E+01 0.00000E+00
 -1      3647 4.32134E+01 2.76708E+01 0.00000E+00
 -1      3648 4.36301E+01 2.68422E+01 0.00000E+00
 -1      3649 4.25555E+01 2.59221E+01 0.00000E+00
 -1      3650 4.46578E+01 2.01203E+01 0.00000E+00
 -1      3651 4.48203E+01 3.63179E+01 0.00000E+00
 -1      3652 1.28355E+01 3.21669E+01 0.00000E+00
 -1      3653 1.36500E+01 3.26037E+01 0.00000E+00
 -1      3654 1.28355E+01 3.06981E+01 0.00000E+00
 -1      3655 1.42890E+01 2.27625E+01 0.00000E+00
 -1      3656 1.42890E+01 2.42375E+01 0.00000E+00
 -1      3657 7.59320E+01 3.60003E+01 0.00000E+00
 -1      3658 7.66820E+01 3.47013E+01 0.00000E+00
 -1      3659 7.51326E+01 2.40251E+01 0.00000E+00
 -1      3660 7.60908E+01 2.46141E+01 0.00000E+00
 -1      3661 1.29900E+01 1.76125E+01 0.00000E+00
 -1      3662 3.10350E+01 1.43982E+01 0.00000E+00
 -1      3663 3.02850E+01 1.30992E+01 0.00000E+00
 -1      3664 2.87850E+01 1.30992E+01 0.00000E+00
 -1      3665 3.47850E+01 1.30992E+01 0.00000E+00
 -1      3666 3.40350E+01 1.43982E+01 0.00000E+00
 -1      3667 3.62850E+01 1.30992E+01 0.00000E+00
 -1      3668 1.34022E+02 3.60281E+01 0.00000E+00
 -1      3669 1.35329E+02 3.61335E+01 0.00000E+00
 -1      3670 1.35515E+02 3.52733E+01 0.00000E+00
 -1      3671 1.33272E+02 3.47291E+01 0.00000E+00
 -1      3672 4.68527E+01 1.73065E+01 0.00000E+00
 -1      3673 4.45110E+01 3.03482E+01 0.00000E+00
 -1      3674 4.36749E+01 2.96269E+01 0.00000E+00
 -1      3675 4.38979E+01 3.13843E+01 0.00000E+00
 -1      3676 1.42890E+01 1.39344E+01 0.00000E+00
 -1      3677 1.42890E+01 1.54031E+01 0.00000E+00
 -1      3678 4.00350E+01 1.43982E+01 0.00000E+00
 -1      3679 3.92850E+01 1.30992E+01 0.00000E+00
 -1      3680 3.77850E+01 1.30992E+01 0.00000E+00
 -1      3681 5.24456E+01 1.36335E+01 0.00000E+00
 -1      3682 2.27850E+01 1.30992E+01 0.00000E+00
 -1      3683 2.20350E+01 1.43982E+01 0.00000E+00
 -1      3684 2.42850E+01 1.30992E+01 0.00000E+00
 -1      3685 5.29546E+01 1.29125E+01 0.00000E+00
 -1      3686 7.56704E+01 3.35579E+01 0.00000E+00
 -1      3687 7.31408E+01 1.44623E+01 0.00000E+00
 -1      3688 7.23908E+01 1.31633E+01 0.00000E+00
 -1      3689 1.34412E+02 3.08875E+01 0.00000E+00
 -1      3690 1.35711E+02 3.01500E+01 0.00000E+00
 -1      3691 1.35711E+02 2.86875E+01 0.00000E+00
 -1      3692 1.33453E+02 1.33799E+01 0.00000E+00
 -1      3693 1.32703E+02 1.46789E+01 0.00000E+00
 -1      3694 1.34620E+02 1.36606E+01 0.00000E+00
 -1      3695 7.30206E+01 1.59896E+01 0.00000E+00
 -1      3696 1.36155E+02 1.26686E+01 0.00000E+00
 -1      3697 4.34532E+01 2.34559E+01 0.00000E+00
 -1      3698 1.35711E+02 2.42891E+01 0.00000E+00
 -1      3699 1.35711E+02 2.28172E+01 0.00000E+00
 -1      3700 1.35702E+02 3.44131E+01 0.00000E+00
 -1      3701 2.65350E+01 1.18003E+01 0.00000E+00
 -1      3702 4.94295E+01 1.52945E+01 0.00000E+00
 -1      3703 1.48779E+01 1.21429E+01 0.00000E+00
 -1      3704 1.44917E+01 1.31424E+01 0.00000E+00
 -1      3705 1.57907E+01 1.38767E+01 0.00000E+00
 -1      3706 1.61961E+01 1.22927E+01 0.00000E+00
 -1      3707 7.52813E+01 1.85449E+01 0.00000E+00
 -1      3708 7.48275E+01 1.99386E+01 0.00000E+00
 -1      3709 4.39956E+01 3.54216E+01 0.00000E+00
 -1      3710 4.51659E+01 3.47295E+01 0.00000E+00
 -1      3711 4.54367E+01 3.35438E+01 0.00000E+00
 -1      3712 4.32456E+01 3.41226E+01 0.00000E+00
 -1      3713 7.49501E+01 2.29342E+01 0.00000E+00
 -1      3714 1.42890E+01 2.12938E+01 0.00000E+00
 -1      3715 1.55880E+01 2.20313E+01 0.00000E+00
 -1      3716 1.42890E+01 1.98250E+01 0.00000E+00
 -1      3717 1.35711E+02 2.57516E+01 0.00000E+00
 -1      3718 1.34412E+02 2.50156E+01 0.00000E+00
 -1      3719 1.35711E+02 2.72141E+01 0.00000E+00
 -1      3720 1.34403E+02 3.36756E+01 0.00000E+00
 -1      3721 4.45376E+01 3.29694E+01 0.00000E+00
 -1      3722 1.90350E+01 1.43983E+01 0.00000E+00
 -1      3723 1.82850E+01 1.30993E+01 0.00000E+00
 -1      3724 7.57723E+01 2.73868E+01 0.00000E+00
 -1      3725 7.64353E+01 2.83501E+01 0.00000E+00
 -1      3726 7.66961E+01 2.67452E+01 0.00000E+00
 -1      3727 7.62655E+01 2.97609E+01 0.00000E+00
 -1      3728 7.58192E+01 3.05809E+01 0.00000E+00
 -1      3729 7.65731E+01 3.13502E+01 0.00000E+00
 -1      3730 1.69669E+01 1.29495E+01 0.00000E+00
 -1      3731 1.59000E+01 3.42422E+01 0.00000E+00
 -1      3732 7.47976E+01 2.08909E+01 0.00000E+00
 -1      3733 7.49800E+01 2.19819E+01 0.00000E+00
 -1      3734 7.61784E+01 2.24939E+01 0.00000E+00
 -1      3735 7.62382E+01 2.05893E+01 0.00000E+00
 -1      3736 1.35711E+02 1.84000E+01 0.00000E+00
 -1      3737 1.35711E+02 1.69250E+01 0.00000E+00
 -1      3738 1.34141E+02 1.63111E+01 0.00000E+00
 -1      3739 1.35440E+02 1.55736E+01 0.00000E+00
 -1      3740 1.35711E+02 1.98719E+01 0.00000E+00
 -1      3741 1.34412E+02 1.91344E+01 0.00000E+00
 -1      3742 1.35711E+02 2.13438E+01 0.00000E+00
 -1      3743 2.49000E+01 3.31130E+01 0.00000E+00
 -1      3744 2.64000E+01 3.31130E+01 0.00000E+00
 -1      3745 2.79000E+01 3.31130E+01 0.00000E+00
 -1      3746 2.94000E+01 3.31130E+01 0.00000E+00
 -1      3747 2.71500E+01 3.18140E+01 0.00000E+00
 -1      3748 3.09000E+01 3.31130E+01 0.00000E+00
 -1      3749 3.24000E+01 3.31130E+01 0.00000E+00
 -1      3750 3.01500E+01 3.18140E+01 0.00000E+00
 -1      3751 3.39000E+01 3.31130E+01 0.00000E+00
 -1      3752 3.54000E+01 3.31130E+01 0.00000E+00
 -1      3753 3.31500E+01 3.18140E+01 0.00000E+00
 -1      3754 3.69000E+01 3.31130E+01 0.00000E+00
 -1      3755 3.84000E+01 3.31130E+01 0.00000E+00
 -1      3756 3.61500E+01 3.18140E+01 0.00000E+00
 -1      3757 3.99000E+01 3.31130E+01 0.00000E+00
 -1      3758 4.14000E+01 3.31130E+01 0.00000E+00
 -1      3759 3.91500E+01 3.18140E+01 0.00000E+00
 -1      3760 7.89000E+01 3.31580E+01 0.00000E+00
 -1      3761 8.04000E+01 3.31580E+01 0.00000E+00
 -1      3762 7.71384E+01 3.33136E+01 0.00000E+00
 -1      3763 7.71435E+01 2.40807E+01 0.00000E+00
 -1      3764 7.70858E+01 2.52486E+01 0.00000E+00
 -1      3765 1.42890E+01 1.68766E+01 0.00000E+00
 -1      3766 1.42890E+01 1.83516E+01 0.00000E+00
 -1      3767 1.55880E+01 1.90891E+01 0.00000E+00
 -1      3768 1.55880E+01 1.61422E+01 0.00000E+00
 -1      3769 8.19000E+01 3.31580E+01 0.00000E+00
 -1      3770 8.34000E+01 3.31580E+01 0.00000E+00
 -1      3771 8.11500E+01 3.18590E+01 0.00000E+00
 -1      3772 8.49000E+01 3.31580E+01 0.00000E+00
 -1      3773 8.64000E+01 3.31580E+01 0.00000E+00
 -1      3774 8.41500E+01 3.18590E+01 0.00000E+00
 -1      3775 8.79000E+01 3.31580E+01 0.00000E+00
 -1      3776 8.94000E+01 3.31580E+01 0.00000E+00
 -1      3777 8.71500E+01 3.18590E+01 0.00000E+00
 -1      3778 9.09000E+01 3.31580E+01 0.00000E+00
 -1      3779 9.24000E+01 3.31580E+01 0.00000E+00
 -1      3780 9.01500E+01 3.18590E+01 0.00000E+00
 -1      3781 9.39000E+01 3.31580E+01 0.00000E+00
 -1      3782 9.54000E+01 3.31580E+01 0.00000E+00
 -1      3783 9.31500E+01 3.18590E+01 0.00000E+00
 -1      3784 9.69000E+01 3.31580E+01 0.00000E+00
 -1      3785 9.84000E+01 3.31580E+01 0.00000E+00
 -1      3786 9.61500E+01 3.18590E+01 0.00000E+00
 -1      3787 9.99000E+01 3.31580E+01 0.00000E+00
 -1      3788 1.01400E+02 3.31580E+01 0.00000E+00
 -1      3789 9.91500E+01 3.18590E+01 0.00000E+00
 -1      3790 1.02900E+02 3.31580E+01 0.00000E+00
 -1      3791 1.04400E+02 3.31580E+01 0.00000E+00
 -1      3792 1.02150E+02 3.18590E+01 0.00000E+00
 -1      3793 1.05900E+02 3.31580E+01 0.00000E+00
 -1      3794 1.07400E+02 3.31580E+01 0.00000E+00
 -1      3795 1.05150E+02 3.18590E+01 0.00000E+00
 -1      3796 1.08900E+02 3.31580E+01 0.00000E+00
 -1      3797 1.10400E+02 3.31580E+01 0.00000E+00
 -1      3798 1.08150E+02 3.18590E+01 0.00000E+00
 -1      3799 1.11900E+02 3.31580E+01 0.00000E+00
 -1      3800 1.13400E+02 3.31580E+01 0.00000E+00
 -1      3801 1.11150E+02 3.18590E+01 0.00000E+00
 -1      3802 1.14900E+02 3.31580E+01 0.00000E+00
 -1      3803 1.16400E+02 3.31580E+01 0.00000E+00
 -1      3804 1.14150E+02 3.18590E+01 0.00000E+00
 -1      3805 1.17900E+02 3.31580E+01 0.00000E+00
 -1      3806 1.19400E+02 3.31580E+01 0.00000E+00
 -1      3807 1.17150E+02 3.18590E+01 0.00000E+00
 -1      3808 1.20900E+02 3.31580E+01 0.00000E+00
 -1      3809 1.22400E+02 3.31580E+01 0.00000E+00
 -1      3810 1.20150E+02 3.18590E+01 0.00000E+00
 -1      3811 1.23900E+02 3.31580E+01 0.00000E+00
 -1      3812 1.25400E+02 3.31580E+01 0.00000E+00
 -1      3813 1.23150E+02 3.18590E+01 0.00000E+00
 -1      3814 1.26900E+02 3.31580E+01 0.00000E+00
 -1      3815 1.28400E+02 3.31580E+01 0.00000E+00
 -1      3816 1.26150E+02 3.18590E+01 0.00000E+00
 -1      3817 1.29900E+02 3.31580E+01 0.00000E+00
 -1      3818 1.31400E+02 3.31580E+01 0.00000E+00
 -1      3819 1.29150E+02 3.18590E+01 0.00000E+00
 -1      3820 1.33281E+02 3.34035E+01 0.00000E+00
 -1      3821 7.57350E+01 1.71430E+01 0.00000E+00
 -1      3822 7.67218E+01 1.82351E+01 0.00000E+00
 -1      3823 8.27850E+01 1.56973E+01 0.00000E+00
 -1      3824 8.12850E+01 1.56973E+01 0.00000E+00
 -1      3825 7.44147E+01 1.59255E+01 0.00000E+00
 -1      3826 7.73553E+01 1.56157E+01 0.00000E+00
 -1      3827 7.58553E+01 1.56157E+01 0.00000E+00
 -1      3828 8.57850E+01 1.56973E+01 0.00000E+00
 -1      3829 8.42850E+01 1.56973E+01 0.00000E+00
 -1      3830 8.35350E+01 1.69963E+01 0.00000E+00
 -1      3831 8.87850E+01 1.56973E+01 0.00000E+00
 -1      3832 8.72850E+01 1.56973E+01 0.00000E+00
 -1      3833 8.65350E+01 1.69963E+01 0.00000E+00
 -1      3834 9.17850E+01 1.56973E+01 0.00000E+00
 -1      3835 9.02850E+01 1.56973E+01 0.00000E+00
 -1      3836 8.95350E+01 1.69963E+01 0.00000E+00
 -1      3837 9.47850E+01 1.56973E+01 0.00000E+00
 -1      3838 9.32850E+01 1.56973E+01 0.00000E+00
 -1      3839 9.25350E+01 1.69963E+01 0.00000E+00
 -1      3840 9.77850E+01 1.56973E+01 0.00000E+00
 -1      3841 9.62850E+01 1.56973E+01 0.00000E+00
 -1      3842 9.55350E+01 1.69963E+01 0.00000E+00
 -1      3843 1.00785E+02 1.56973E+01 0.00000E+00
 -1      3844 9.92850E+01 1.56973E+01 0.00000E+00
 -1      3845 9.85350E+01 1.69963E+01 0.00000E+00
 -1      3846 1.03785E+02 1.56973E+01 0.00000E+00
 -1      3847 1.02285E+02 1.56973E+01 0.00000E+00
 -1      3848 1.01535E+02 1.69963E+01 0.00000E+00
 -1      3849 1.06785E+02 1.56973E+01 0.00000E+00
 -1      3850 1.05285E+02 1.56973E+01 0.00000E+00
 -1      3851 1.04535E+02 1.69963E+01 0.00000E+00
 -1      3852 1.09785E+02 1.56973E+01 0.00000E+00
 -1      3853 1.08285E+02 1.56973E+01 0.00000E+00
 -1      3854 1.07535E+02 1.69963E+01 0.00000E+00
 -1      3855 1.12785E+02 1.56973E+01 0.00000E+00
 -1      3856 1.11285E+02 1.56973E+01 0.00000E+00
 -1      3857 1.10535E+02 1.69963E+01 0.00000E+00
 -1      3858 1.15785E+02 1.56973E+01 0.00000E+00
 -1      3859 1.14285E+02 1.56973E+01 0.00000E+00
 -1      3860 1.13535E+02 1.69963E+01 0.00000E+00
 -1      3861 1.18785E+02 1.56973E+01 0.00000E+00
 -1      3862 1.17285E+02 1.56973E+01 0.00000E+00
 -1      3863 1.16535E+02 1.69963E+01 0.00000E+00
 -1      3864 1.21785E+02 1.56973E+01 0.00000E+00
 -1      3865 1.20285E+02 1.56973E+01 0.00000E+00
 -1      3866 1.19535E+02 1.69963E+01 0.00000E+00
 -1      3867 1.24785E+02 1.56973E+01 0.00000E+00
 -1      3868 1.23285E+02 1.56973E+01 0.00000E+00
 -1      3869 1.22535E+02 1.69963E+01 0.00000E+00
 -1      3870 1.27785E+02 1.56973E+01 0.00000E+00
 -1      3871 1.26285E+02 1.56973E+01 0.00000E+00
 -1      3872 1.25535E+02 1.69963E+01 0.00000E+00
 -1      3873 1.30785E+02 1.56973E+01 0.00000E+00
 -1      3874 1.29285E+02 1.56973E+01 0.00000E+00
 -1      3875 1.28535E+02 1.69963E+01 0.00000E+00
 -1      3876 4.31010E+01 2.04601E+01 0.00000E+00
 -1      3877 4.38246E+01 1.87620E+01 0.00000E+00
 -1      3878 1.33047E+02 1.61445E+01 0.00000E+00
 -1      3879 1.31879E+02 1.58638E+01 0.00000E+00
 -1      3880 1.31129E+02 1.71628E+01 0.00000E+00
 -1      3881 1.33318E+02 1.74959E+01 0.00000E+00
 -1      3882 1.55798E+01 2.49984E+01 0.00000E+00
 -1      3883 1.42808E+01 2.57359E+01 0.00000E+00
 -1      3884 4.24210E+01 3.31859E+01 0.00000E+00
 -1      3885 4.35166E+01 3.28965E+01 0.00000E+00
 -1      3886 4.37130E+01 3.20327E+01 0.00000E+00
 -1      3887 4.16710E+01 3.18869E+01 0.00000E+00
 -1      3888 4.79295E+01 1.52945E+01 0.00000E+00
 -1      3889 2.72850E+01 1.30992E+01 0.00000E+00
 -1      3890 2.57850E+01 1.30992E+01 0.00000E+00
 -1      3891 2.80350E+01 1.43982E+01 0.00000E+00
 -1      3892 1.97850E+01 1.56973E+01 0.00000E+00
 -1      3893 1.82851E+01 1.56973E+01 0.00000E+00
 -1      3894 1.35405E+02 1.39676E+01 0.00000E+00
 -1      3895 1.59000E+01 3.27735E+01 0.00000E+00
 -1      3896 1.81500E+01 3.29432E+01 0.00000E+00
 -1      3897 1.59000E+01 3.13048E+01 0.00000E+00
 -1      3898 1.32531E+02 3.21045E+01 0.00000E+00
 -1      3899 4.20683E+01 2.39386E+01 0.00000E+00
 -1      3900 4.25494E+01 2.23010E+01 0.00000E+00
 -1      3901 8.00701E+01 1.56565E+01 0.00000E+00
 -1      3902 7.85701E+01 1.56565E+01 0.00000E+00
 -1      3903 7.83904E+01 1.68740E+01 0.00000E+00
 -1      3904 8.08201E+01 1.69555E+01 0.00000E+00
 -1      3905 1.34412E+02 2.20797E+01 0.00000E+00
 -1      3906 4.37850E+01 1.56973E+01 0.00000E+00
 -1      3907 4.22850E+01 1.56973E+01 0.00000E+00
 -1      3908 1.96500E+01 3.29432E+01 0.00000E+00
 -1      3909 2.19000E+01 3.31130E+01 0.00000E+00
 -1      3910 2.34000E+01 3.31130E+01 0.00000E+00
 -1      3911 2.41500E+01 3.18140E+01 0.00000E+00
 -1      3912 7.78884E+01 3.20146E+01 0.00000E+00
 -1      3913 7.83348E+01 3.11946E+01 0.00000E+00
 -1      3914 4.26002E+01 2.87068E+01 0.00000E+00
 -1      3915 4.15256E+01 2.77867E+01 0.00000E+00
 -1      3916 4.19871E+01 2.97428E+01 0.00000E+00
 -1      3917 1.32531E+02 3.06420E+01 0.00000E+00
 -1      3918 1.34412E+02 2.79516E+01 0.00000E+00
 -1      3919 7.71734E+01 2.31284E+01 0.00000E+00
 -1      3920 7.81684E+01 2.37629E+01 0.00000E+00
 -1      3921 7.72033E+01 2.21761E+01 0.00000E+00
 -1      3922 3.17850E+01 1.56973E+01 0.00000E+00
 -1      3923 3.02850E+01 1.56973E+01 0.00000E+00
 -1      3924 3.70350E+01 1.43982E+01 0.00000E+00
 -1      3925 4.28769E+01 3.13114E+01 0.00000E+00
 -1      3926 1.33113E+02 2.28164E+01 0.00000E+00
 -1      3927 1.33113E+02 2.13430E+01 0.00000E+00
 -1      3928 3.47850E+01 1.56973E+01 0.00000E+00
 -1      3929 3.32850E+01 1.56973E+01 0.00000E+00
 -1      3930 3.25350E+01 1.69963E+01 0.00000E+00
 -1      3931 2.50350E+01 1.43982E+01 0.00000E+00
 -1      3932 7.77488E+01 2.62119E+01 0.00000E+00
 -1      3933 4.26514E+01 1.80490E+01 0.00000E+00
 -1      3934 4.42082E+01 1.77092E+01 0.00000E+00
 -1      3935 1.68829E+01 2.42563E+01 0.00000E+00
 -1      3936 1.68747E+01 2.57547E+01 0.00000E+00
 -1      3937 4.17161E+01 2.09427E+01 0.00000E+00
 -1      3938 4.53322E+01 1.68292E+01 0.00000E+00
 -1      3939 4.68035E+01 1.57136E+01 0.00000E+00
 -1      3940 4.07850E+01 1.56973E+01 0.00000E+00
 -1      3941 3.92850E+01 1.56973E+01 0.00000E+00
 -1      3942 4.15350E+01 1.69963E+01 0.00000E+00
 -1      3943 7.71893E+01 2.91193E+01 0.00000E+00
 -1      3944 7.79367E+01 1.82759E+01 0.00000E+00
 -1      3945 7.74830E+01 1.96777E+01 0.00000E+00
 -1      3946 7.91516E+01 1.83166E+01 0.00000E+00
 -1      3947 7.74531E+01 2.06300E+01 0.00000E+00
 -1      3948 2.12850E+01 1.56973E+01 0.00000E+00
 -1      3949 2.05351E+01 1.69963E+01 0.00000E+00
 -1      3950 2.27850E+01 1.56973E+01 0.00000E+00
 -1      3951 4.12350E+01 2.55957E+01 0.00000E+00
 -1      3952 4.16516E+01 2.47671E+01 0.00000E+00
 -1      3953 4.07478E+01 2.36122E+01 0.00000E+00
 -1      3954 1.33113E+02 2.57414E+01 0.00000E+00
 -1      3955 1.33113E+02 2.42789E+01 0.00000E+00
 -1      3956 1.31814E+02 2.35422E+01 0.00000E+00
 -1      3957 1.68829E+01 2.13188E+01 0.00000E+00
 -1      3958 1.68829E+01 2.27875E+01 0.00000E+00
 -1      3959 1.81778E+01 2.35438E+01 0.00000E+00
 -1      3960 1.40386E+01 2.70574E+01 0.00000E+00
 -1      3961 2.04000E+01 3.16443E+01 0.00000E+00
 -1      3962 1.33215E+02 2.01554E+01 0.00000E+00
 -1      3963 1.33215E+02 1.86835E+01 0.00000E+00
 -1      3964 1.32121E+02 1.85170E+01 0.00000E+00
 -1      3965 1.31916E+02 2.08921E+01 0.00000E+00
 -1      3966 4.64090E+01 1.48173E+01 0.00000E+00
 -1      3967 8.04000E+01 3.05826E+01 0.00000E+00
 -1      3968 8.19000E+01 3.05826E+01 0.00000E+00
 -1      3969 2.94000E+01 3.05150E+01 0.00000E+00
 -1      3970 3.09000E+01 3.05150E+01 0.00000E+00
 -1      3971 3.24000E+01 3.05150E+01 0.00000E+00
 -1      3972 3.39000E+01 3.05150E+01 0.00000E+00
 -1      3973 3.16500E+01 2.92160E+01 0.00000E+00
 -1      3974 3.54000E+01 3.05150E+01 0.00000E+00
 -1      3975 3.69000E+01 3.05150E+01 0.00000E+00
 -1      3976 3.46500E+01 2.92160E+01 0.00000E+00
 -1      3977 1.30423E+01 2.93350E+01 0.00000E+00
 -1      3978 1.38568E+01 2.97718E+01 0.00000E+00
 -1      3979 2.57850E+01 1.56973E+01 0.00000E+00
 -1      3980 2.42850E+01 1.56973E+01 0.00000E+00
 -1      3981 2.35351E+01 1.69963E+01 0.00000E+00
 -1      3982 9.02850E+01 1.82952E+01 0.00000E+00
 -1      3983 8.87850E+01 1.82952E+01 0.00000E+00
 -1      3984 3.77850E+01 1.56973E+01 0.00000E+00
 -1      3985 3.62850E+01 1.56973E+01 0.00000E+00
 -1      3986 3.55350E+01 1.69963E+01 0.00000E+00
 -1      3987 3.85350E+01 1.69963E+01 0.00000E+00
 -1      3988 8.34000E+01 3.05826E+01 0.00000E+00
 -1      3989 8.49000E+01 3.05826E+01 0.00000E+00
 -1      3990 8.26500E+01 2.93061E+01 0.00000E+00
 -1      3991 8.64000E+01 3.05826E+01 0.00000E+00
 -1      3992 8.79000E+01 3.05826E+01 0.00000E+00
 -1      3993 8.56500E+01 2.93061E+01 0.00000E+00
 -1      3994 8.94000E+01 3.05826E+01 0.00000E+00
 -1      3995 9.09000E+01 3.05826E+01 0.00000E+00
 -1      3996 8.86500E+01 2.93061E+01 0.00000E+00
 -1      3997 9.24000E+01 3.05826E+01 0.00000E+00
 -1      3998 9.39000E+01 3.05826E+01 0.00000E+00
 -1      3999 9.16500E+01 2.93061E+01 0.00000E+00
 -1      4000 9.54000E+01 3.05826E+01 0.00000E+00
 -1      4001 9.69000E+01 3.05826E+01 0.00000E+00
 -1      4002 9.46500E+01 2.93061E+01 0.00000E+00
 -1      4003 9.84000E+01 3.05826E+01 0.00000E+00
 -1      4004 9.99000E+01 3.05826E+01 0.00000E+00
 -1      4005 9.76500E+01 2.93061E+01 0.00000E+00
 -1      4006 1.01400E+02 3.05826E+01 0.00000E+00
 -1      4007 1.02900E+02 3.05826E+01 0.00000E+00
 -1      4008 1.00650E+02 2.93061E+01 0.00000E+00
 -1      4009 1.04400E+02 3.05826E+01 0.00000E+00
 -1      4010 1.05900E+02 3.05826E+01 0.00000E+00
 -1      4011 1.03650E+02 2.93061E+01 0.00000E+00
 -1      4012 1.07400E+02 3.05826E+01 0.00000E+00
 -1      4013 1.08900E+02 3.05826E+01 0.00000E+00
 -1      4014 1.06650E+02 2.93061E+01 0.00000E+00
 -1      4015 1.10400E+02 3.05826E+01 0.00000E+00
 -1      4016 1.11900E+02 3.05826E+01 0.00000E+00
 -1      4017 1.09650E+02 2.93061E+01 0.00000E+00
 -1      4018 1.13400E+02 3.05826E+01 0.00000E+00
 -1      4019 1.14900E+02 3.05826E+01 0.00000E+00
 -1      4020 1.12650E+02 2.93061E+01 0.00000E+00
 -1      4021 1.16400E+02 3.05826E+01 0.00000E+00
 -1      4022 1.17900E+02 3.05826E+01 0.00000E+00
 -1      4023 1.15650E+02 2.93061E+01 0.00000E+00
 -1      4024 1.19400E+02 3.05826E+01 0.00000E+00
 -1      4025 1.20900E+02 3.05826E+01 0.00000E+00
 -1      4026 1.18650E+02 2.93061E+01 0.00000E+00
 -1      4027 1.22400E+02 3.05826E+01 0.00000E+00
 -1      4028 1.23900E+02 3.05826E+01 0.00000E+00
 -1      4029 1.21650E+02 2.93061E+01 0.00000E+00
 -1      4030 1.25400E+02 3.05826E+01 0.00000E+00
 -1      4031 1.26900E+02 3.05826E+01 0.00000E+00
 -1      4032 1.24650E+02 2.93061E+01 0.00000E+00
 -1      4033 1.28400E+02 3.05826E+01 0.00000E+00
 -1      4034 1.29900E+02 3.05826E+01 0.00000E+00
 -1      4035 1.27650E+02 2.93061E+01 0.00000E+00
 -1      4036 8.72850E+01 1.82952E+01 0.00000E+00
 -1      4037 8.57850E+01 1.82952E+01 0.00000E+00
 -1      4038 8.80350E+01 1.95942E+01 0.00000E+00
 -1      4039 7.81370E+01 2.95187E+01 0.00000E+00
 -1      4040 7.94523E+01 3.01832E+01 0.00000E+00
 -1      4041 8.02023E+01 2.89067E+01 0.00000E+00
 -1      4042 7.83068E+01 2.81079E+01 0.00000E+00
 -1      4043 4.11514E+01 1.80490E+01 0.00000E+00
 -1      4044 8.42850E+01 1.82952E+01 0.00000E+00
 -1      4045 8.27850E+01 1.82952E+01 0.00000E+00
 -1      4046 8.50350E+01 1.95942E+01 0.00000E+00
 -1      4047 9.32850E+01 1.82952E+01 0.00000E+00
 -1      4048 9.17850E+01 1.82952E+01 0.00000E+00
 -1      4049 9.10350E+01 1.95942E+01 0.00000E+00
 -1      4050 9.62850E+01 1.82952E+01 0.00000E+00
 -1      4051 9.47850E+01 1.82952E+01 0.00000E+00
 -1      4052 9.40350E+01 1.95942E+01 0.00000E+00
 -1      4053 9.92850E+01 1.82952E+01 0.00000E+00
 -1      4054 9.77850E+01 1.82952E+01 0.00000E+00
 -1      4055 9.70350E+01 1.95942E+01 0.00000E+00
 -1      4056 1.02285E+02 1.82952E+01 0.00000E+00
 -1      4057 1.00785E+02 1.82952E+01 0.00000E+00
 -1      4058 1.00035E+02 1.95942E+01 0.00000E+00
 -1      4059 1.05285E+02 1.82952E+01 0.00000E+00
 -1      4060 1.03785E+02 1.82952E+01 0.00000E+00
 -1      4061 1.03035E+02 1.95942E+01 0.00000E+00
 -1      4062 1.08285E+02 1.82952E+01 0.00000E+00
 -1      4063 1.06785E+02 1.82952E+01 0.00000E+00
 -1      4064 1.06035E+02 1.95942E+01 0.00000E+00
 -1      4065 1.11285E+02 1.82952E+01 0.00000E+00
 -1      4066 1.09785E+02 1.82952E+01 0.00000E+00
 -1      4067 1.09035E+02 1.95942E+01 0.00000E+00
 -1      4068 1.14285E+02 1.82952E+01 0.00000E+00
 -1      4069 1.12785E+02 1.82952E+01 0.00000E+00
 -1      4070 1.12035E+02 1.95942E+01 0.00000E+00
 -1      4071 1.17285E+02 1.82952E+01 0.00000E+00
 -1      4072 1.15785E+02 1.82952E+01 0.00000E+00
 -1      4073 1.15035E+02 1.95942E+01 0.00000E+00
 -1      4074 1.20285E+02 1.82952E+01 0.00000E+00
 -1      4075 1.18785E+02 1.82952E+01 0.00000E+00
 -1      4076 1.18035E+02 1.95942E+01 0.00000E+00
 -1      4077 1.23285E+02 1.82952E+01 0.00000E+00
 -1      4078 1.21785E+02 1.82952E+01 0.00000E+00
 -1      4079 1.21035E+02 1.95942E+01 0.00000E+00
 -1      4080 1.26285E+02 1.82952E+01 0.00000E+00
 -1      4081 1.24785E+02 1.82952E+01 0.00000E+00
 -1      4082 1.24035E+02 1.95942E+01 0.00000E+00
 -1      4083 1.29285E+02 1.82952E+01 0.00000E+00
 -1      4084 1.27785E+02 1.82952E+01 0.00000E+00
 -1      4085 1.27035E+02 1.95942E+01 0.00000E+00
 -1      4086 1.81691E+01 2.65124E+01 0.00000E+00
 -1      4087 1.68661E+01 2.72545E+01 0.00000E+00
 -1      4088 4.00481E+01 2.17308E+01 0.00000E+00
 -1      4089 4.05998E+01 1.98899E+01 0.00000E+00
 -1      4090 3.94834E+01 1.88371E+01 0.00000E+00
 -1      4091 1.31027E+02 1.83504E+01 0.00000E+00
 -1      4092 1.73115E+01 1.58325E+01 0.00000E+00
 -1      4093 1.73115E+01 1.73059E+01 0.00000E+00
 -1      4094 2.87850E+01 1.56973E+01 0.00000E+00
 -1      4095 2.72850E+01 1.56973E+01 0.00000E+00
 -1      4096 2.65350E+01 1.69963E+01 0.00000E+00
 -1      4097 2.95350E+01 1.69963E+01 0.00000E+00
 -1      4098 2.64000E+01 3.05150E+01 0.00000E+00
 -1      4099 2.79000E+01 3.05150E+01 0.00000E+00
 -1      4100 2.86500E+01 2.92160E+01 0.00000E+00
 -1      4101 1.59052E+01 2.95736E+01 0.00000E+00
 -1      4102 1.81552E+01 2.97433E+01 0.00000E+00
 -1      4103 1.32845E+01 2.80134E+01 0.00000E+00
 -1      4104 7.90863E+01 2.51146E+01 0.00000E+00
 -1      4105 7.86965E+01 2.66113E+01 0.00000E+00
 -1      4106 7.96443E+01 2.70107E+01 0.00000E+00
 -1      4107 1.31215E+02 2.98756E+01 0.00000E+00
 -1      4108 1.33096E+02 2.86586E+01 0.00000E+00
 -1      4109 1.33096E+02 2.71851E+01 0.00000E+00
 -1      4110 1.30465E+02 2.85991E+01 0.00000E+00
 -1      4111 7.84481E+01 2.12645E+01 0.00000E+00
 -1      4112 1.67642E+01 1.37415E+01 0.00000E+00
 -1      4113 1.65615E+01 1.45335E+01 0.00000E+00
 -1      4114 2.04052E+01 2.99131E+01 0.00000E+00
 -1      4115 2.26552E+01 3.00828E+01 0.00000E+00
 -1      4116 2.04105E+01 2.81819E+01 0.00000E+00
 -1      4117 2.37776E+01 3.02989E+01 0.00000E+00
 -1      4118 2.52776E+01 3.02989E+01 0.00000E+00
 -1      4119 2.60276E+01 2.89999E+01 0.00000E+00
 -1      4120 2.37829E+01 2.85678E+01 0.00000E+00
 -1      4121 3.96314E+01 2.25594E+01 0.00000E+00
 -1      4122 3.85151E+01 2.15066E+01 0.00000E+00
 -1      4123 3.92148E+01 2.33880E+01 0.00000E+00
 -1      4124 3.85312E+01 2.90194E+01 0.00000E+00
 -1      4125 3.92812E+01 3.03184E+01 0.00000E+00
 -1      4126 1.61120E+01 2.82104E+01 0.00000E+00
 -1      4127 4.07812E+01 3.03184E+01 0.00000E+00
 -1      4128 1.68870E+01 1.83523E+01 0.00000E+00
 -1      4129 1.68870E+01 1.98258E+01 0.00000E+00
 -1      4130 1.31798E+02 2.64484E+01 0.00000E+00
 -1      4131 1.94768E+01 2.28094E+01 0.00000E+00
 -1      4132 1.94768E+01 2.42782E+01 0.00000E+00
 -1      4133 3.32850E+01 1.82952E+01 0.00000E+00
 -1      4134 3.17850E+01 1.82952E+01 0.00000E+00
 -1      4135 4.18559E+01 3.12385E+01 0.00000E+00
 -1      4136 1.48176E+01 2.74527E+01 0.00000E+00
 -1      4137 1.30277E+02 1.96494E+01 0.00000E+00
 -1      4138 1.99480E+01 2.54801E+01 0.00000E+00
 -1      4139 1.99393E+01 2.69800E+01 0.00000E+00
 -1      4140 2.21893E+01 2.71497E+01 0.00000E+00
 -1      4141 2.12470E+01 2.47458E+01 0.00000E+00
 -1      4142 3.02850E+01 1.82953E+01 0.00000E+00
 -1      4143 2.87850E+01 1.82953E+01 0.00000E+00
 -1      4144 3.10350E+01 1.95943E+01 0.00000E+00
 -1      4145 4.41590E+01 1.61163E+01 0.00000E+00
 -1      4146 8.03664E+01 1.83574E+01 0.00000E+00
 -1      4147 7.99128E+01 1.97592E+01 0.00000E+00
 -1      4148 8.15813E+01 1.83981E+01 0.00000E+00
 -1      4149 4.06218E+01 2.66318E+01 0.00000E+00
 -1      4150 3.97180E+01 2.54768E+01 0.00000E+00
 -1      4151 4.00086E+01 2.76678E+01 0.00000E+00
 -1      4152 7.96630E+01 2.13053E+01 0.00000E+00
 -1      4153 7.91162E+01 2.41623E+01 0.00000E+00
 -1      4154 8.00639E+01 2.45617E+01 0.00000E+00
 -1      4155 7.91461E+01 2.32100E+01 0.00000E+00
 -1      4156 1.81819E+01 2.05820E+01 0.00000E+00
 -1      4157 1.30515E+02 2.42734E+01 0.00000E+00
 -1      4158 1.30515E+02 2.28109E+01 0.00000E+00
 -1      4159 4.49090E+01 1.48173E+01 0.00000E+00
 -1      4160 1.30174E+02 2.08370E+01 0.00000E+00
 -1      4161 1.86105E+01 1.80427E+01 0.00000E+00
 -1      4162 1.28876E+02 2.15682E+01 0.00000E+00
 -1      4163 2.01105E+01 1.80427E+01 0.00000E+00
 -1      4164 1.96860E+01 1.90891E+01 0.00000E+00
 -1      4165 2.16105E+01 1.80427E+01 0.00000E+00
 -1      4166 8.23313E+01 1.96971E+01 0.00000E+00
 -1      4167 3.76274E+01 2.78644E+01 0.00000E+00
 -1      4168 3.47850E+01 1.82952E+01 0.00000E+00
 -1      4169 3.40350E+01 1.95942E+01 0.00000E+00
 -1      4170 3.62850E+01 1.82952E+01 0.00000E+00
 -1      4171 3.39000E+01 2.79170E+01 0.00000E+00
 -1      4172 3.54000E+01 2.79170E+01 0.00000E+00
 -1      4173 8.09817E+01 2.59134E+01 0.00000E+00
 -1      4174 8.05920E+01 2.74101E+01 0.00000E+00
 -1      4175 8.15397E+01 2.78095E+01 0.00000E+00
 -1      4176 1.27716E+02 2.35422E+01 0.00000E+00
 -1      4177 1.27376E+02 2.15682E+01 0.00000E+00
 -1      4178 1.25876E+02 2.15682E+01 0.00000E+00
 -1      4179 2.46105E+01 1.80427E+01 0.00000E+00
 -1      4180 2.31105E+01 1.80427E+01 0.00000E+00
 -1      4181 2.26860E+01 1.90891E+01 0.00000E+00
 -1      4182 9.47850E+01 2.08932E+01 0.00000E+00
 -1      4183 9.32850E+01 2.08932E+01 0.00000E+00
 -1      4184 1.30482E+02 2.71581E+01 0.00000E+00
 -1      4185 1.30499E+02 2.57144E+01 0.00000E+00
 -1      4186 1.29199E+02 2.49832E+01 0.00000E+00
 -1      4187 1.29167E+02 2.78651E+01 0.00000E+00
 -1      4188 8.30397E+01 2.78095E+01 0.00000E+00
 -1      4189 8.49000E+01 2.80071E+01 0.00000E+00
 -1      4190 8.64000E+01 2.80071E+01 0.00000E+00
 -1      4191 8.79000E+01 2.80071E+01 0.00000E+00
 -1      4192 8.94000E+01 2.80071E+01 0.00000E+00
 -1      4193 8.71500E+01 2.67081E+01 0.00000E+00
 -1      4194 9.09000E+01 2.80071E+01 0.00000E+00
 -1      4195 9.24000E+01 2.80071E+01 0.00000E+00
 -1      4196 9.01500E+01 2.67081E+01 0.00000E+00
 -1      4197 9.39000E+01 2.80071E+01 0.00000E+00
 -1      4198 9.54000E+01 2.80071E+01 0.00000E+00
 -1      4199 9.31500E+01 2.67081E+01 0.00000E+00
 -1      4200 9.69000E+01 2.80071E+01 0.00000E+00
 -1      4201 9.84000E+01 2.80071E+01 0.00000E+00
 -1      4202 9.61500E+01 2.67081E+01 0.00000E+00
 -1      4203 9.99000E+01 2.80071E+01 0.00000E+00
 -1      4204 1.01400E+02 2.80071E+01 0.00000E+00
 -1      4205 9.91500E+01 2.67081E+01 0.00000E+00
 -1      4206 1.02900E+02 2.80071E+01 0.00000E+00
 -1      4207 1.04400E+02 2.80071E+01 0.00000E+00
 -1      4208 1.02150E+02 2.67081E+01 0.00000E+00
 -1      4209 1.05900E+02 2.80071E+01 0.00000E+00
 -1      4210 1.07400E+02 2.80071E+01 0.00000E+00
 -1      4211 1.05150E+02 2.67081E+01 0.00000E+00
 -1      4212 1.08900E+02 2.80071E+01 0.00000E+00
 -1      4213 1.10400E+02 2.80071E+01 0.00000E+00
 -1      4214 1.08150E+02 2.67081E+01 0.00000E+00
 -1      4215 1.11900E+02 2.80071E+01 0.00000E+00
 -1      4216 1.13400E+02 2.80071E+01 0.00000E+00
 -1      4217 1.11150E+02 2.67081E+01 0.00000E+00
 -1      4218 1.14900E+02 2.80071E+01 0.00000E+00
 -1      4219 1.16400E+02 2.80071E+01 0.00000E+00
 -1      4220 1.14150E+02 2.67081E+01 0.00000E+00
 -1      4221 1.17900E+02 2.80071E+01 0.00000E+00
 -1      4222 1.19400E+02 2.80071E+01 0.00000E+00
 -1      4223 1.17150E+02 2.67081E+01 0.00000E+00
 -1      4224 1.20900E+02 2.80071E+01 0.00000E+00
 -1      4225 1.22400E+02 2.80071E+01 0.00000E+00
 -1      4226 1.20150E+02 2.67081E+01 0.00000E+00
 -1      4227 1.23900E+02 2.80071E+01 0.00000E+00
 -1      4228 1.25400E+02 2.80071E+01 0.00000E+00
 -1      4229 1.23150E+02 2.67081E+01 0.00000E+00
 -1      4230 1.26533E+02 2.79361E+01 0.00000E+00
 -1      4231 1.28033E+02 2.79361E+01 0.00000E+00
 -1      4232 1.28050E+02 2.64951E+01 0.00000E+00
 -1      4233 1.25783E+02 2.66371E+01 0.00000E+00
 -1      4234 8.87850E+01 2.08932E+01 0.00000E+00
 -1      4235 8.72850E+01 2.08932E+01 0.00000E+00
 -1      4236 8.57850E+01 2.08932E+01 0.00000E+00
 -1      4237 8.42850E+01 2.08932E+01 0.00000E+00
 -1      4238 8.65350E+01 2.21922E+01 0.00000E+00
 -1      4239 9.77850E+01 2.08932E+01 0.00000E+00
 -1      4240 9.62850E+01 2.08932E+01 0.00000E+00
 -1      4241 9.55350E+01 2.21922E+01 0.00000E+00
 -1      4242 1.00785E+02 2.08932E+01 0.00000E+00
 -1      4243 9.92850E+01 2.08932E+01 0.00000E+00
 -1      4244 9.85350E+01 2.21922E+01 0.00000E+00
 -1      4245 1.03785E+02 2.08932E+01 0.00000E+00
 -1      4246 1.02285E+02 2.08932E+01 0.00000E+00
 -1      4247 1.01535E+02 2.21922E+01 0.00000E+00
 -1      4248 1.06785E+02 2.08932E+01 0.00000E+00
 -1      4249 1.05285E+02 2.08932E+01 0.00000E+00
 -1      4250 1.04535E+02 2.21922E+01 0.00000E+00
 -1      4251 1.09785E+02 2.08932E+01 0.00000E+00
 -1      4252 1.08285E+02 2.08932E+01 0.00000E+00
 -1      4253 1.07535E+02 2.21922E+01 0.00000E+00
 -1      4254 1.12785E+02 2.08932E+01 0.00000E+00
 -1      4255 1.11285E+02 2.08932E+01 0.00000E+00
 -1      4256 1.10535E+02 2.21922E+01 0.00000E+00
 -1      4257 1.15785E+02 2.08932E+01 0.00000E+00
 -1      4258 1.14285E+02 2.08932E+01 0.00000E+00
 -1      4259 1.13535E+02 2.21922E+01 0.00000E+00
 -1      4260 1.18785E+02 2.08932E+01 0.00000E+00
 -1      4261 1.17285E+02 2.08932E+01 0.00000E+00
 -1      4262 1.16535E+02 2.21922E+01 0.00000E+00
 -1      4263 1.21785E+02 2.08932E+01 0.00000E+00
 -1      4264 1.20285E+02 2.08932E+01 0.00000E+00
 -1      4265 1.19535E+02 2.21922E+01 0.00000E+00
 -1      4266 1.24580E+02 2.12307E+01 0.00000E+00
 -1      4267 1.23080E+02 2.12307E+01 0.00000E+00
 -1      4268 1.22330E+02 2.25297E+01 0.00000E+00
 -1      4269 1.24921E+02 2.32047E+01 0.00000E+00
 -1      4270 3.79834E+01 1.88371E+01 0.00000E+00
 -1      4271 9.17850E+01 2.08932E+01 0.00000E+00
 -1      4272 9.02850E+01 2.08932E+01 0.00000E+00
 -1      4273 8.95350E+01 2.21922E+01 0.00000E+00
 -1      4274 9.25350E+01 2.21922E+01 0.00000E+00
 -1      4275 2.74478E+01 1.81690E+01 0.00000E+00
 -1      4276 2.59478E+01 1.81690E+01 0.00000E+00
 -1      4277 2.55233E+01 1.92154E+01 0.00000E+00
 -1      4278 2.81978E+01 1.94680E+01 0.00000E+00
 -1      4279 8.30813E+01 2.09961E+01 0.00000E+00
 -1      4280 8.18776E+01 2.10990E+01 0.00000E+00
 -1      4281 8.38313E+01 2.22951E+01 0.00000E+00
 -1      4282 1.95835E+01 2.02027E+01 0.00000E+00
 -1      4283 1.95794E+01 2.16957E+01 0.00000E+00
 -1      4284 2.08784E+01 2.24301E+01 0.00000E+00
 -1      4285 2.10835E+01 2.02027E+01 0.00000E+00
 -1      4286 2.79000E+01 2.79170E+01 0.00000E+00
 -1      4287 2.94000E+01 2.79170E+01 0.00000E+00
 -1      4288 3.09000E+01 2.79170E+01 0.00000E+00
 -1      4289 3.24000E+01 2.79170E+01 0.00000E+00
 -1      4290 3.31500E+01 2.66180E+01 0.00000E+00
 -1      4291 3.01500E+01 2.66180E+01 0.00000E+00
 -1      4292 1.28066E+02 2.50541E+01 0.00000E+00
 -1      4293 1.26566E+02 2.50541E+01 0.00000E+00
 -1      4294 3.68774E+01 2.65654E+01 0.00000E+00
 -1      4295 8.37897E+01 2.65105E+01 0.00000E+00
 -1      4296 2.22232E+01 2.19924E+01 0.00000E+00
 -1      4297 2.21206E+01 2.31060E+01 0.00000E+00
 -1      4298 2.67776E+01 2.77009E+01 0.00000E+00
 -1      4299 2.75276E+01 2.64019E+01 0.00000E+00
 -1      4300 2.56552E+01 2.74848E+01 0.00000E+00
 -1      4301 8.04130E+01 2.26043E+01 0.00000E+00
 -1      4302 2.25918E+01 2.43080E+01 0.00000E+00
 -1      4303 3.17850E+01 2.08933E+01 0.00000E+00
 -1      4304 3.02850E+01 2.08933E+01 0.00000E+00
 -1      4305 8.10116E+01 2.49611E+01 0.00000E+00
 -1      4306 8.19594E+01 2.53605E+01 0.00000E+00
 -1      4307 8.10415E+01 2.40088E+01 0.00000E+00
 -1      4308 3.47850E+01 2.08933E+01 0.00000E+00
 -1      4309 3.32850E+01 2.08933E+01 0.00000E+00
 -1      4310 3.25350E+01 2.21923E+01 0.00000E+00
 -1      4311 3.72334E+01 2.01361E+01 0.00000E+00
 -1      4312 3.86016E+01 2.44240E+01 0.00000E+00
 -1      4313 3.74852E+01 2.33712E+01 0.00000E+00
 -1      4314 3.79884E+01 2.54601E+01 0.00000E+00
 -1      4315 2.29517E+01 2.58369E+01 0.00000E+00
 -1      4316 2.34229E+01 2.70389E+01 0.00000E+00
 -1      4317 2.45453E+01 2.72550E+01 0.00000E+00
 -1      4318 2.38254E+01 2.41972E+01 0.00000E+00
 -1      4319 3.57610E+01 2.55126E+01 0.00000E+00
 -1      4320 9.92850E+01 2.34912E+01 0.00000E+00
 -1      4321 9.77850E+01 2.34912E+01 0.00000E+00
 -1      4322 9.58425E+01 2.44502E+01 0.00000E+00
 -1      4323 9.43425E+01 2.44502E+01 0.00000E+00
 -1      4324 8.94000E+01 2.54091E+01 0.00000E+00
 -1      4325 9.09000E+01 2.54091E+01 0.00000E+00
 -1      4326 9.28425E+01 2.44502E+01 0.00000E+00
 -1      4327 9.80925E+01 2.57492E+01 0.00000E+00
 -1      4328 9.95925E+01 2.57492E+01 0.00000E+00
 -1      4329 1.01400E+02 2.54091E+01 0.00000E+00
 -1      4330 1.02900E+02 2.54091E+01 0.00000E+00
 -1      4331 1.04842E+02 2.44502E+01 0.00000E+00
 -1      4332 1.06342E+02 2.44502E+01 0.00000E+00
 -1      4333 1.07842E+02 2.44502E+01 0.00000E+00
 -1      4334 1.09342E+02 2.44502E+01 0.00000E+00
 -1      4335 1.10842E+02 2.44502E+01 0.00000E+00
 -1      4336 1.12342E+02 2.44502E+01 0.00000E+00
 -1      4337 1.13842E+02 2.44502E+01 0.00000E+00
 -1      4338 1.15342E+02 2.44502E+01 0.00000E+00
 -1      4339 1.16842E+02 2.44502E+01 0.00000E+00
 -1      4340 1.18342E+02 2.44502E+01 0.00000E+00
 -1      4341 1.19842E+02 2.44502E+01 0.00000E+00
 -1      4342 1.21342E+02 2.44502E+01 0.00000E+00
 -1      4343 1.22638E+02 2.47876E+01 0.00000E+00
 -1      4344 1.24138E+02 2.47876E+01 0.00000E+00
 -1      4345 1.25433E+02 2.51251E+01 0.00000E+00
 -1      4346 8.72850E+01 2.34912E+01 0.00000E+00
 -1      4347 8.57850E+01 2.34912E+01 0.00000E+00
 -1      4348 1.02592E+02 2.31512E+01 0.00000E+00
 -1      4349 1.01092E+02 2.31512E+01 0.00000E+00
 -1      4350 2.25835E+01 2.02027E+01 0.00000E+00
 -1      4351 3.68167E+01 2.09647E+01 0.00000E+00
 -1      4352 8.60925E+01 2.57492E+01 0.00000E+00
 -1      4353 8.75925E+01 2.57492E+01 0.00000E+00
 -1      4354 3.60667E+01 2.22637E+01 0.00000E+00
 -1      4355 2.96978E+01 2.20660E+01 0.00000E+00
 -1      4356 2.89478E+01 2.07670E+01 0.00000E+00
 -1      4357 2.76105E+01 2.06407E+01 0.00000E+00
 -1      4358 2.38257E+01 2.08787E+01 0.00000E+00
 -1      4359 2.48545E+01 2.08115E+01 0.00000E+00
 -1      4360 2.44942E+01 2.26011E+01 0.00000E+00
 -1      4361 2.48541E+01 2.41300E+01 0.00000E+00
 -1      4362 2.61917E+01 2.09378E+01 0.00000E+00
 -1      4363 3.54535E+01 2.32998E+01 0.00000E+00
 -1      4364 1.00342E+02 2.44502E+01 0.00000E+00
 -1      4365 2.52953E+01 2.59560E+01 0.00000E+00
 -1      4366 9.20925E+01 2.31512E+01 0.00000E+00
 -1      4367 1.04092E+02 2.31512E+01 0.00000E+00
 -1      4368 8.53369E+01 2.46716E+01 0.00000E+00
 -1      4369 8.45869E+01 2.33726E+01 0.00000E+00
 -1      4370 8.33832E+01 2.34755E+01 0.00000E+00
 -1      4371 8.48944E+01 2.56306E+01 0.00000E+00
 -1      4372 8.30341E+01 2.54329E+01 0.00000E+00
 -1      4373 8.83425E+01 2.44502E+01 0.00000E+00
 -1      4374 3.02443E+01 2.34223E+01 0.00000E+00
 -1      4375 2.89070E+01 2.32961E+01 0.00000E+00
 -1      4376 3.35989E+01 2.33611E+01 0.00000E+00
 -1      4377 3.20989E+01 2.33611E+01 0.00000E+00
 -1      4378 3.13081E+01 2.45912E+01 0.00000E+00
 -1      4379 3.50174E+01 2.44686E+01 0.00000E+00
 -1      4380 3.39064E+01 2.55739E+01 0.00000E+00
 -1      4381 9.65925E+01 2.57492E+01 0.00000E+00
 -1      4382 2.90517E+01 2.56352E+01 0.00000E+00
 -1      4383 3.05517E+01 2.56352E+01 0.00000E+00
 -1      4384 3.24064E+01 2.55739E+01 0.00000E+00
 -1      4385 2.80164E+01 2.53404E+01 0.00000E+00
 -1      4386 2.84182E+01 2.43576E+01 0.00000E+00
 -1      4387 2.78717E+01 2.30012E+01 0.00000E+00
 -1      4388 2.68941E+01 2.51243E+01 0.00000E+00
 -1      4389 8.30640E+01 2.44806E+01 0.00000E+00
 -1      4390 8.23084E+01 2.34031E+01 0.00000E+00
 -1      4391 8.90925E+01 2.31512E+01 0.00000E+00
 -1      4392 8.13607E+01 2.30037E+01 0.00000E+00
 -1      4393 2.69417E+01 2.22368E+01 0.00000E+00
 -1      4394 2.59641E+01 2.43599E+01 0.00000E+00
 -1      4395 9.05925E+01 2.31512E+01 0.00000E+00
 -1      4396 2.64529E+01 2.32983E+01 0.00000E+00
 -3
    3C                          2116                                     1
 -1       165    8    0    1
 -2         6         7        23      1141      1305      1158
 -1       166    8    0    1
 -2         7         8       165      1142      1306      1307
 -1       167    8    0    1
 -2         8         9       166      1143      1308      1309
 -1       168    8    0    1
 -2         8       166       165      1309      1310      1306
 -1       169    8    0    1
 -2         9        10       167      1144      1311      1312
 -1       170    8    0    1
 -2         9       167       166      1312      1313      1308
 -1       171    8    0    1
 -2        10        11       168      1145      1314      1315
 -1       172    8    0    1
 -2        10       168       167      1315      1316      1311
 -1       173    8    0    1
 -2        11        12       169      1146      1317      1318
 -1       174    8    0    1
 -2        11       169       168      1318      1319      1314
 -1       175    8    0    1
 -2        12        13       170      1147      1320      1321
 -1       176    8    0    1
 -2        12       170       169      1321      1322      1317
 -1       177    8    0    1
 -2        13        14       171      1148      1323      1324
 -1       178    8    0    1
 -2        13       171       170      1324      1325      1320
 -1       179    8    0    1
 -2        14        15       172      1149      1326      1327
 -1       180    8    0    1
 -2        14       172       171      1327      1328      1323
 -1       181    8    0    1
 -2        15        16       173      1150      1329      1330
 -1       182    8    0    1
 -2        15       173       172      1330      1331      1326
 -1       183    8    0    1
 -2        16        17       174      1151      1332      1333
 -1       184    8    0    1
 -2        16       174       173      1333      1334      1329
 -1       185    8    0    1
 -2        17        18       175      1152      1335      1336
 -1       186    8    0    1
 -2        17       175       174      1336      1337      1332
 -1       187    8    0    1
 -2        18        19       176      1153      1338      1339
 -1       188    8    0    1
 -2        18       176       175      1339      1340      1335
 -1       189    8    0    1
 -2        19        20       177      1154      1341      1342
 -1       190    8    0    1
 -2        19       177       176      1342      1343      1338
 -1       191    8    0    1
 -2        20        21       178      1155      1344      1345
 -1       192    8    0    1
 -2        20       178       177      1345      1346      1341
 -1       193    8    0    1
 -2        21        22       179      1156      1347      1348
 -1       194    8    0    1
 -2        21       179       178      1348      1349      1344
 -1       195    8    0    1
 -2        22         5       180      1157      1350      1351
 -1       196    8    0    1
 -2       179        22       180      1347      1351      1352
 -1       197    8    0    1
 -2         5        72       180      1208      1353      1350
 -1       198    8    0    1
 -2        24        23       181      1159      1354      1355
 -1       199    8    0    1
 -2        25        24       182      1160      1356      1357
 -1       200    8    0    1
 -2        24       181       182      1355      1358      1356
 -1       201    8    0    1
 -2        26        25       183      1161      1359      1360
 -1       202    8    0    1
 -2        25       182       183      1357      1361      1359
 -1       203    8    0    1
 -2        27        26       184      1162      1362      1363
 -1       204    8    0    1
 -2        26       183       184      1360      1364      1362
 -1       205    8    0    1
 -2        28        27       185      1163      1365      1366
 -1       206    8    0    1
 -2        27       184       185      1363      1367      1365
 -1       207    8    0    1
 -2        29        28       186      1164      1368      1369
 -1       208    8    0    1
 -2        28       185       186      1366      1370      1368
 -1       209    8    0    1
 -2        30        29       187      1165      1371      1372
 -1       210    8    0    1
 -2        29       186       187      1369      1373      1371
 -1       211    8    0    1
 -2        31        30       188      1166      1374      1375
 -1       212    8    0    1
 -2        30       187       188      1372      1376      1374
 -1       213    8    0    1
 -2        32        31       189      1167      1377      1378
 -1       214    8    0    1
 -2        31       188       189      1375      1379      1377
 -1       215    8    0    1
 -2        33        32       190      1168      1380      1381
 -1       216    8    0    1
 -2        32       189       190      1378      1382      1380
 -1       217    8    0    1
 -2        34        33       191      1169      1383      1384
 -1       218    8    0    1
 -2        33       190       191      1381      1385      1383
 -1       219    8    0    1
 -2        35        34       192      1170      1386      1387
 -1       220    8    0    1
 -2        34       191       192      1384      1388      1386
 -1       221    8    0    1
 -2        36        35       193      1171      1389      1390
 -1       222    8    0    1
 -2        35       192       193      1387      1391      1389
 -1       223    8    0    1
 -2        37        36       194      1172      1392      1393
 -1       224    8    0    1
 -2        36       193       194      1390      1394      1392
 -1       225    8    0    1
 -2        38        37       195      1173      1395      1396
 -1       226    8    0    1
 -2        37       194       195      1393      1397      1395
 -1       227    8    0    1
 -2        39        38       196      1174      1398      1399
 -1       228    8    0    1
 -2        38       195       196      1396      1400      1398
 -1       229    8    0    1
 -2        40        39       197      1175      1401      1402
 -1       230    8    0    1
 -2        39       196       197      1399      1403      1401
 -1       231    8    0    1
 -2        41        40       198      1176      1404      1405
 -1       232    8    0    1
 -2        40       197       198      1402      1406      1404
 -1       233    8    0    1
 -2        42        41       199      1177      1407      1408
 -1       234    8    0    1
 -2        41       198       199      1405      1409      1407
 -1       235    8    0    1
 -2        43        42       200      1178      1410      1411
 -1       236    8    0    1
 -2        42       199       200      1408      1412      1410
 -1       237    8    0    1
 -2        44        43       201      1179      1413      1414
 -1       238    8    0    1
 -2        43       200       201      1411      1415      1413
 -1       239    8    0    1
 -2        45        44       202      1180      1416      1417
 -1       240    8    0    1
 -2        44       201       202      1414      1418      1416
 -1       241    8    0    1
 -2        46        45       203      1181      1419      1420
 -1       242    8    0    1
 -2        45       202       203      1417      1421      1419
 -1       243    8    0    1
 -2        47        46       204      1182      1422      1423
 -1       244    8    0    1
 -2        46       203       204      1420      1424      1422
 -1       245    8    0    1
 -2        48        47       205      1183      1425      1426
 -1       246    8    0    1
 -2        47       204       205      1423      1427      1425
 -1       247    8    0    1
 -2        49        48       206      1184      1428      1429
 -1       248    8    0    1
 -2        48       205       206      1426      1430      1428
 -1       249    8    0    1
 -2        50        49       207      1185      1431      1432
 -1       250    8    0    1
 -2        49       206       207      1429      1433      1431
 -1       251    8    0    1
 -2        51        50       208      1186      1434      1435
 -1       252    8    0    1
 -2        50       207       208      1432      1436      1434
 -1       253    8    0    1
 -2        52        51       209      1187      1437      1438
 -1       254    8    0    1
 -2        51       208       209      1435      1439      1437
 -1       255    8    0    1
 -2        53        52       210      1188      1440      1441
 -1       256    8    0    1
 -2        52       209       210      1438      1442      1440
 -1       257    8    0    1
 -2        54        53       211      1189      1443      1444
 -1       258    8    0    1
 -2        53       210       211      1441      1445      1443
 -1       259    8    0    1
 -2        55        54       212      1190      1446      1447
 -1       260    8    0    1
 -2        54       211       212      1444      1448      1446
 -1       261    8    0    1
 -2        56        55       213      1191      1449      1450
 -1       262    8    0    1
 -2        55       212       213      1447      1451      1449
 -1       263    8    0    1
 -2        57        56       214      1192      1452      1453
 -1       264    8    0    1
 -2        56       213       214      1450      1454      1452
 -1       265    8    0    1
 -2        58        57       215      1193      1455      1456
 -1       266    8    0    1
 -2        57       214       215      1453      1457      1455
 -1       267    8    0    1
 -2        59        58       216      1194      1458      1459
 -1       268    8    0    1
 -2        58       215       216      1456      1460      1458
 -1       269    8    0    1
 -2        60        59       217      1195      1461      1462
 -1       270    8    0    1
 -2        59       216       217      1459      1463      1461
 -1       271    8    0    1
 -2        61        60       218      1196      1464      1465
 -1       272    8    0    1
 -2        60       217       218      1462      1466      1464
 -1       273    8    0    1
 -2        62        61       219      1197      1467      1468
 -1       274    8    0    1
 -2        61       218       219      1465      1469      1467
 -1       275    8    0    1
 -2        63        62       220      1198      1470      1471
 -1       276    8    0    1
 -2        62       219       220      1468      1472      1470
 -1       277    8    0    1
 -2        64        63       221      1199      1473      1474
 -1       278    8    0    1
 -2        63       220       221      1471      1475      1473
 -1       279    8    0    1
 -2        65        64       222      1200      1476      1477
 -1       280    8    0    1
 -2        64       221       222      1474      1478      1476
 -1       281    8    0    1
 -2        66        65       223      1201      1479      1480
 -1       282    8    0    1
 -2        65       222       223      1477      1481      1479
 -1       283    8    0    1
 -2        67        66       224      1202      1482      1483
 -1       284    8    0    1
 -2        66       223       224      1480      1484      1482
 -1       285    8    0    1
 -2        68        67       225      1203      1485      1486
 -1       286    8    0    1
 -2        67       224       225      1483      1487      1485
 -1       287    8    0    1
 -2        69        68       226      1204      1488      1489
 -1       288    8    0    1
 -2        68       225       226      1486      1490      1488
 -1       289    8    0    1
 -2        70        69       227      1205      1491      1492
 -1       290    8    0    1
 -2        69       226       227      1489      1493      1491
 -1       291    8    0    1
 -2        71        70       228      1206      1494      1495
 -1       292    8    0    1
 -2        70       227       228      1492      1496      1494
 -1       293    8    0    1
 -2         4        71       136      1207      1497      1274
 -1       294    8    0    1
 -2       136        71       228      1497      1495      1498
 -1       295    8    0    1
 -2        72        73       229      1209      1499      1500
 -1       296    8    0    1
 -2        72       229       180      1500      1501      1353
 -1       297    8    0    1
 -2        73        74       230      1210      1502      1503
 -1       298    8    0    1
 -2        73       230       229      1503      1504      1499
 -1       299    8    0    1
 -2        74        75       231      1211      1505      1506
 -1       300    8    0    1
 -2        74       231       230      1506      1507      1502
 -1       301    8    0    1
 -2        75        76       232      1212      1508      1509
 -1       302    8    0    1
 -2        75       232       231      1509      1510      1505
 -1       303    8    0    1
 -2        76        77       233      1213      1511      1512
 -1       304    8    0    1
 -2        76       233       232      1512      1513      1508
 -1       305    8    0    1
 -2        77        78       234      1214      1514      1515
 -1       306    8    0    1
 -2        77       234       233      1515      1516      1511
 -1       307    8    0    1
 -2        78        79       235      1215      1517      1518
 -1       308    8    0    1
 -2        78       235       234      1518      1519      1514
 -1       309    8    0    1
 -2        79        80       236      1216      1520      1521
 -1       310    8    0    1
 -2        79       236       235      1521      1522      1517
 -1       311    8    0    1
 -2        80        81       237      1217      1523      1524
 -1       312    8    0    1
 -2        80       237       236      1524      1525      1520
 -1       313    8    0    1
 -2        81        82       238      1218      1526      1527
 -1       314    8    0    1
 -2        81       238       237      1527      1528      1523
 -1       315    8    0    1
 -2        82        83       239      1219      1529      1530
 -1       316    8    0    1
 -2        82       239       238      1530      1531      1526
 -1       317    8    0    1
 -2        83        84       240      1220      1532      1533
 -1       318    8    0    1
 -2        83       240       239      1533      1534      1529
 -1       319    8    0    1
 -2        84        85       241      1221      1535      1536
 -1       320    8    0    1
 -2        84       241       240      1536      1537      1532
 -1       321    8    0    1
 -2        85        86       242      1222      1538      1539
 -1       322    8    0    1
 -2        85       242       241      1539      1540      1535
 -1       323    8    0    1
 -2        86        87       243      1223      1541      1542
 -1       324    8    0    1
 -2        86       243       242      1542      1543      1538
 -1       325    8    0    1
 -2        87        88       244      1224      1544      1545
 -1       326    8    0    1
 -2        87       244       243      1545      1546      1541
 -1       327    8    0    1
 -2        88        89       245      1225      1547      1548
 -1       328    8    0    1
 -2        88       245       244      1548      1549      1544
 -1       329    8    0    1
 -2        89        90       246      1226      1550      1551
 -1       330    8    0    1
 -2        89       246       245      1551      1552      1547
 -1       331    8    0    1
 -2        90        91       247      1227      1553      1554
 -1       332    8    0    1
 -2        90       247       246      1554      1555      1550
 -1       333    8    0    1
 -2        91        92       248      1228      1556      1557
 -1       334    8    0    1
 -2        91       248       247      1557      1558      1553
 -1       335    8    0    1
 -2        92        93       249      1229      1559      1560
 -1       336    8    0    1
 -2        92       249       248      1560      1561      1556
 -1       337    8    0    1
 -2        93        94       250      1230      1562      1563
 -1       338    8    0    1
 -2        93       250       249      1563      1564      1559
 -1       339    8    0    1
 -2        94        95       251      1231      1565      1566
 -1       340    8    0    1
 -2        94       251       250      1566      1567      1562
 -1       341    8    0    1
 -2        95        96       252      1232      1568      1569
 -1       342    8    0    1
 -2        95       252       251      1569      1570      1565
 -1       343    8    0    1
 -2        96        97       253      1233      1571      1572
 -1       344    8    0    1
 -2        96       253       252      1572      1573      1568
 -1       345    8    0    1
 -2        97        98       254      1234      1574      1575
 -1       346    8    0    1
 -2        97       254       253      1575      1576      1571
 -1       347    8    0    1
 -2        98        99       255      1235      1577      1578
 -1       348    8    0    1
 -2        98       255       254      1578      1579      1574
 -1       349    8    0    1
 -2        99       100       256      1236      1580      1581
 -1       350    8    0    1
 -2        99       256       255      1581      1582      1577
 -1       351    8    0    1
 -2       100       101       257      1237      1583      1584
 -1       352    8    0    1
 -2       100       257       256      1584      1585      1580
 -1       353    8    0    1
 -2       101       102       258      1238      1586      1587
 -1       354    8    0    1
 -2       101       258       257      1587      1588      1583
 -1       355    8    0    1
 -2       102       103       259      1239      1589      1590
 -1       356    8    0    1
 -2       102       259       258      1590      1591      1586
 -1       357    8    0    1
 -2       103       104       260      1240      1592      1593
 -1       358    8    0    1
 -2       103       260       259      1593      1594      1589
 -1       359    8    0    1
 -2       104       105       261      1241      1595      1596
 -1       360    8    0    1
 -2       104       261       260      1596      1597      1592
 -1       361    8    0    1
 -2       105       106       262      1242      1598      1599
 -1       362    8    0    1
 -2       105       262       261      1599      1600      1595
 -1       363    8    0    1
 -2       106       107       263      1243      1601      1602
 -1       364    8    0    1
 -2       106       263       262      1602      1603      1598
 -1       365    8    0    1
 -2       107       108       264      1244      1604      1605
 -1       366    8    0    1
 -2       107       264       263      1605      1606      1601
 -1       367    8    0    1
 -2       108       109       265      1245      1607      1608
 -1       368    8    0    1
 -2       108       265       264      1608      1609      1604
 -1       369    8    0    1
 -2       109       110       266      1246      1610      1611
 -1       370    8    0    1
 -2       109       266       265      1611      1612      1607
 -1       371    8    0    1
 -2       110       111       267      1247      1613      1614
 -1       372    8    0    1
 -2       110       267       266      1614      1615      1610
 -1       373    8    0    1
 -2       111       112       268      1248      1616      1617
 -1       374    8    0    1
 -2       111       268       267      1617      1618      1613
 -1       375    8    0    1
 -2       112       113       269      1249      1619      1620
 -1       376    8    0    1
 -2       112       269       268      1620      1621      1616
 -1       377    8    0    1
 -2       113       114       270      1250      1622      1623
 -1       378    8    0    1
 -2       113       270       269      1623      1624      1619
 -1       379    8    0    1
 -2       114       115       271      1251      1625      1626
 -1       380    8    0    1
 -2       114       271       270      1626      1627      1622
 -1       381    8    0    1
 -2       115       116       272      1252      1628      1629
 -1       382    8    0    1
 -2       115       272       271      1629      1630      1625
 -1       383    8    0    1
 -2       116       117       273      1253      1631      1632
 -1       384    8    0    1
 -2       116       273       272      1632      1633      1628
 -1       385    8    0    1
 -2       117       118       274      1254      1634      1635
 -1       386    8    0    1
 -2       117       274       273      1635      1636      1631
 -1       387    8    0    1
 -2       118       119       275      1255      1637      1638
 -1       388    8    0    1
 -2       118       275       274      1638      1639      1634
 -1       389    8    0    1
 -2       119       120       276      1256      1640      1641
 -1       390    8    0    1
 -2       119       276       275      1641      1642      1637
 -1       391    8    0    1
 -2       120         3       121      1257      1258      1643
 -1       392    8    0    1
 -2       121       122       277      1259      1644      1645
 -1       393    8    0    1
 -2       122       123       278      1260      1646      1647
 -1       394    8    0    1
 -2       122       278       277      1647      1648      1644
 -1       395    8    0    1
 -2       123       124       279      1261      1649      1650
 -1       396    8    0    1
 -2       123       279       278      1650      1651      1646
 -1       397    8    0    1
 -2       124       125       280      1262      1652      1653
 -1       398    8    0    1
 -2       124       280       279      1653      1654      1649
 -1       399    8    0    1
 -2       125       126       281      1263      1655      1656
 -1       400    8    0    1
 -2       125       281       280      1656      1657      1652
 -1       401    8    0    1
 -2       126       127       282      1264      1658      1659
 -1       402    8    0    1
 -2       126       282       281      1659      1660      1655
 -1       403    8    0    1
 -2       127       128       283      1265      1661      1662
 -1       404    8    0    1
 -2       127       283       282      1662      1663      1658
 -1       405    8    0    1
 -2       128       129       284      1266      1664      1665
 -1       406    8    0    1
 -2       128       284       283      1665      1666      1661
 -1       407    8    0    1
 -2       129       130       285      1267      1667      1668
 -1       408    8    0    1
 -2       129       285       284      1668      1669      1664
 -1       409    8    0    1
 -2       130       131       286      1268      1670      1671
 -1       410    8    0    1
 -2       130       286       285      1671      1672      1667
 -1       411    8    0    1
 -2       131       132       287      1269      1673      1674
 -1       412    8    0    1
 -2       131       287       286      1674      1675      1670
 -1       413    8    0    1
 -2       132       133       288      1270      1676      1677
 -1       414    8    0    1
 -2       132       288       287      1677      1678      1673
 -1       415    8    0    1
 -2       133       134       289      1271      1679      1680
 -1       416    8    0    1
 -2       133       289       288      1680      1681      1676
 -1       417    8    0    1
 -2       134       135       290      1272      1682      1683
 -1       418    8    0    1
 -2       134       290       289      1683      1684      1679
 -1       419    8    0    1
 -2       135       136       291      1273      1685      1686
 -1       420    8    0    1
 -2       290       135       291      1682      1686      1687
 -1       421    8    0    1
 -2       136       228       291      1498      1688      1685
 -1       422    8    0    1
 -2         2       137       292      1275      1689      1690
 -1       423    8    0    1
 -2       137       138       293      1276      1691      1692
 -1       424    8    0    1
 -2       138       139       294      1277      1693      1694
 -1       425    8    0    1
 -2       139       140       295      1278      1695      1696
 -1       426    8    0    1
 -2       140       141       296      1279      1697      1698
 -1       427    8    0    1
 -2       141       142       297      1280      1699      1700
 -1       428    8    0    1
 -2       142       143       298      1281      1701      1702
 -1       429    8    0    1
 -2       143       144       299      1282      1703      1704
 -1       430    8    0    1
 -2       144       145       300      1283      1705      1706
 -1       431    8    0    1
 -2       145       146       301      1284      1707      1708
 -1       432    8    0    1
 -2       146       147       302      1285      1709      1710
 -1       433    8    0    1
 -2       147       148       303      1286      1711      1712
 -1       434    8    0    1
 -2       148       149       304      1287      1713      1714
 -1       435    8    0    1
 -2       149       150       305      1288      1715      1716
 -1       436    8    0    1
 -2       150       151       306      1289      1717      1718
 -1       437    8    0    1
 -2       151       152       307      1290      1719      1720
 -1       438    8    0    1
 -2       152       153       308      1291      1721      1722
 -1       439    8    0    1
 -2       153       154       309      1292      1723      1724
 -1       440    8    0    1
 -2       154       155       310      1293      1725      1726
 -1       441    8    0    1
 -2       155         1       311      1294      1727      1728
 -1       442    8    0    1
 -2         1       156       312      1295      1729      1730
 -1       443    8    0    1
 -2       156       157       313      1296      1731      1732
 -1       444    8    0    1
 -2       157       158       314      1297      1733      1734
 -1       445    8    0    1
 -2       158       159       315      1298      1735      1736
 -1       446    8    0    1
 -2       159       160       316      1299      1737      1738
 -1       447    8    0    1
 -2       160       161       317      1300      1739      1740
 -1       448    8    0    1
 -2       161       162       318      1301      1741      1742
 -1       449    8    0    1
 -2       162       163       319      1302      1743      1744
 -1       450    8    0    1
 -2       163       164       320      1303      1745      1746
 -1       451    8    0    1
 -2       164         2       321      1304      1747      1748
 -1       452    8    0    1
 -2       295       140       296      1695      1698      1749
 -1       453    8    0    1
 -2       294       139       295      1693      1696      1750
 -1       454    8    0    1
 -2       120       121       276      1643      1751      1640
 -1       455    8    0    1
 -2       121       277       276      1645      1752      1751
 -1       456    8    0    1
 -2       292       137       293      1689      1692      1753
 -1       457    8    0    1
 -2       293       138       294      1691      1694      1754
 -1       458    8    0    1
 -2         2       292       321      1690      1755      1747
 -1       459    8    0    1
 -2       141       297       296      1700      1756      1697
 -1       460    8    0    1
 -2       142       298       297      1702      1757      1699
 -1       461    8    0    1
 -2       143       299       298      1704      1758      1701
 -1       462    8    0    1
 -2       144       300       299      1706      1759      1703
 -1       463    8    0    1
 -2       145       301       300      1708      1760      1705
 -1       464    8    0    1
 -2       146       302       301      1710      1761      1707
 -1       465    8    0    1
 -2       147       303       302      1712      1762      1709
 -1       466    8    0    1
 -2       148       304       303      1714      1763      1711
 -1       467    8    0    1
 -2       149       305       304      1716      1764      1713
 -1       468    8    0    1
 -2       150       306       305      1718      1765      1715
 -1       469    8    0    1
 -2       151       307       306      1720      1766      1717
 -1       470    8    0    1
 -2       152       308       307      1722      1767      1719
 -1       471    8    0    1
 -2       153       309       308      1724      1768      1721
 -1       472    8    0    1
 -2       154       310       309      1726      1769      1723
 -1       473    8    0    1
 -2       155       311       310      1728      1770      1725
 -1       474    8    0    1
 -2         1       312       311      1730      1771      1727
 -1       475    8    0    1
 -2       156       313       312      1732      1772      1729
 -1       476    8    0    1
 -2       157       314       313      1734      1773      1731
 -1       477    8    0    1
 -2       158       315       314      1736      1774      1733
 -1       478    8    0    1
 -2       159       316       315      1738      1775      1735
 -1       479    8    0    1
 -2       160       317       316      1740      1776      1737
 -1       480    8    0    1
 -2       161       318       317      1742      1777      1739
 -1       481    8    0    1
 -2       162       319       318      1744      1778      1741
 -1       482    8    0    1
 -2       163       320       319      1746      1779      1743
 -1       483    8    0    1
 -2       164       321       320      1748      1780      1745
 -1       484    8    0    1
 -2        23         7       165      1305      1307      1781
 -1       485    8    0    1
 -2       166       167       322      1313      1782      1783
 -1       486    8    0    1
 -2       165       166       323      1310      1784      1785
 -1       487    8    0    1
 -2       166       322       323      1783      1786      1784
 -1       488    8    0    1
 -2       168       169       324      1319      1787      1788
 -1       489    8    0    1
 -2       169       170       325      1322      1789      1790
 -1       490    8    0    1
 -2       169       325       324      1790      1791      1787
 -1       491    8    0    1
 -2       170       171       326      1325      1792      1793
 -1       492    8    0    1
 -2       170       326       325      1793      1794      1789
 -1       493    8    0    1
 -2       171       172       327      1328      1795      1796
 -1       494    8    0    1
 -2       171       327       326      1796      1797      1792
 -1       495    8    0    1
 -2       172       173       328      1331      1798      1799
 -1       496    8    0    1
 -2       172       328       327      1799      1800      1795
 -1       497    8    0    1
 -2       173       174       329      1334      1801      1802
 -1       498    8    0    1
 -2       173       329       328      1802      1803      1798
 -1       499    8    0    1
 -2       174       175       330      1337      1804      1805
 -1       500    8    0    1
 -2       174       330       329      1805      1806      1801
 -1       501    8    0    1
 -2       175       176       331      1340      1807      1808
 -1       502    8    0    1
 -2       175       331       330      1808      1809      1804
 -1       503    8    0    1
 -2       176       177       332      1343      1810      1811
 -1       504    8    0    1
 -2       176       332       331      1811      1812      1807
 -1       505    8    0    1
 -2       177       178       333      1346      1813      1814
 -1       506    8    0    1
 -2       177       333       332      1814      1815      1810
 -1       507    8    0    1
 -2       178       179       334      1349      1816      1817
 -1       508    8    0    1
 -2       178       334       333      1817      1818      1813
 -1       509    8    0    1
 -2       179       180       335      1352      1819      1820
 -1       510    8    0    1
 -2       334       179       335      1816      1820      1821
 -1       511    8    0    1
 -2       180       229       335      1501      1822      1819
 -1       512    8    0    1
 -2       181        23       165      1354      1781      1823
 -1       513    8    0    1
 -2       229       230       336      1504      1824      1825
 -1       514    8    0    1
 -2       229       336       335      1825      1826      1822
 -1       515    8    0    1
 -2       181       165       323      1823      1785      1827
 -1       516    8    0    1
 -2       183       182       337      1361      1828      1829
 -1       517    8    0    1
 -2       184       183       338      1364      1830      1831
 -1       518    8    0    1
 -2       183       337       338      1829      1832      1830
 -1       519    8    0    1
 -2       185       184       339      1367      1833      1834
 -1       520    8    0    1
 -2       184       338       339      1831      1835      1833
 -1       521    8    0    1
 -2       186       185       340      1370      1836      1837
 -1       522    8    0    1
 -2       185       339       340      1834      1838      1836
 -1       523    8    0    1
 -2       187       186       341      1373      1839      1840
 -1       524    8    0    1
 -2       186       340       341      1837      1841      1839
 -1       525    8    0    1
 -2       188       187       342      1376      1842      1843
 -1       526    8    0    1
 -2       187       341       342      1840      1844      1842
 -1       527    8    0    1
 -2       189       188       343      1379      1845      1846
 -1       528    8    0    1
 -2       188       342       343      1843      1847      1845
 -1       529    8    0    1
 -2       190       189       344      1382      1848      1849
 -1       530    8    0    1
 -2       189       343       344      1846      1850      1848
 -1       531    8    0    1
 -2       191       190       345      1385      1851      1852
 -1       532    8    0    1
 -2       190       344       345      1849      1853      1851
 -1       533    8    0    1
 -2       192       191       346      1388      1854      1855
 -1       534    8    0    1
 -2       191       345       346      1852      1856      1854
 -1       535    8    0    1
 -2       193       192       347      1391      1857      1858
 -1       536    8    0    1
 -2       192       346       347      1855      1859      1857
 -1       537    8    0    1
 -2       194       193       348      1394      1860      1861
 -1       538    8    0    1
 -2       193       347       348      1858      1862      1860
 -1       539    8    0    1
 -2       195       194       349      1397      1863      1864
 -1       540    8    0    1
 -2       194       348       349      1861      1865      1863
 -1       541    8    0    1
 -2       196       195       350      1400      1866      1867
 -1       542    8    0    1
 -2       195       349       350      1864      1868      1866
 -1       543    8    0    1
 -2       197       196       351      1403      1869      1870
 -1       544    8    0    1
 -2       196       350       351      1867      1871      1869
 -1       545    8    0    1
 -2       198       197       352      1406      1872      1873
 -1       546    8    0    1
 -2       197       351       352      1870      1874      1872
 -1       547    8    0    1
 -2       199       198       353      1409      1875      1876
 -1       548    8    0    1
 -2       198       352       353      1873      1877      1875
 -1       549    8    0    1
 -2       200       199       354      1412      1878      1879
 -1       550    8    0    1
 -2       199       353       354      1876      1880      1878
 -1       551    8    0    1
 -2       201       200       355      1415      1881      1882
 -1       552    8    0    1
 -2       200       354       355      1879      1883      1881
 -1       553    8    0    1
 -2       202       201       356      1418      1884      1885
 -1       554    8    0    1
 -2       201       355       356      1882      1886      1884
 -1       555    8    0    1
 -2       203       202       357      1421      1887      1888
 -1       556    8    0    1
 -2       202       356       357      1885      1889      1887
 -1       557    8    0    1
 -2       204       203       358      1424      1890      1891
 -1       558    8    0    1
 -2       203       357       358      1888      1892      1890
 -1       559    8    0    1
 -2       205       204       359      1427      1893      1894
 -1       560    8    0    1
 -2       204       358       359      1891      1895      1893
 -1       561    8    0    1
 -2       206       205       360      1430      1896      1897
 -1       562    8    0    1
 -2       205       359       360      1894      1898      1896
 -1       563    8    0    1
 -2       207       206       361      1433      1899      1900
 -1       564    8    0    1
 -2       206       360       361      1897      1901      1899
 -1       565    8    0    1
 -2       208       207       362      1436      1902      1903
 -1       566    8    0    1
 -2       207       361       362      1900      1904      1902
 -1       567    8    0    1
 -2       209       208       363      1439      1905      1906
 -1       568    8    0    1
 -2       208       362       363      1903      1907      1905
 -1       569    8    0    1
 -2       210       209       364      1442      1908      1909
 -1       570    8    0    1
 -2       209       363       364      1906      1910      1908
 -1       571    8    0    1
 -2       211       210       365      1445      1911      1912
 -1       572    8    0    1
 -2       210       364       365      1909      1913      1911
 -1       573    8    0    1
 -2       212       211       366      1448      1914      1915
 -1       574    8    0    1
 -2       211       365       366      1912      1916      1914
 -1       575    8    0    1
 -2       213       212       367      1451      1917      1918
 -1       576    8    0    1
 -2       212       366       367      1915      1919      1917
 -1       577    8    0    1
 -2       214       213       368      1454      1920      1921
 -1       578    8    0    1
 -2       213       367       368      1918      1922      1920
 -1       579    8    0    1
 -2       215       214       369      1457      1923      1924
 -1       580    8    0    1
 -2       214       368       369      1921      1925      1923
 -1       581    8    0    1
 -2       216       215       370      1460      1926      1927
 -1       582    8    0    1
 -2       215       369       370      1924      1928      1926
 -1       583    8    0    1
 -2       217       216       371      1463      1929      1930
 -1       584    8    0    1
 -2       216       370       371      1927      1931      1929
 -1       585    8    0    1
 -2       218       217       372      1466      1932      1933
 -1       586    8    0    1
 -2       217       371       372      1930      1934      1932
 -1       587    8    0    1
 -2       219       218       373      1469      1935      1936
 -1       588    8    0    1
 -2       218       372       373      1933      1937      1935
 -1       589    8    0    1
 -2       220       219       374      1472      1938      1939
 -1       590    8    0    1
 -2       219       373       374      1936      1940      1938
 -1       591    8    0    1
 -2       221       220       375      1475      1941      1942
 -1       592    8    0    1
 -2       220       374       375      1939      1943      1941
 -1       593    8    0    1
 -2       222       221       376      1478      1944      1945
 -1       594    8    0    1
 -2       221       375       376      1942      1946      1944
 -1       595    8    0    1
 -2       223       222       377      1481      1947      1948
 -1       596    8    0    1
 -2       222       376       377      1945      1949      1947
 -1       597    8    0    1
 -2       224       223       378      1484      1950      1951
 -1       598    8    0    1
 -2       223       377       378      1948      1952      1950
 -1       599    8    0    1
 -2       225       224       379      1487      1953      1954
 -1       600    8    0    1
 -2       224       378       379      1951      1955      1953
 -1       601    8    0    1
 -2       226       225       380      1490      1956      1957
 -1       602    8    0    1
 -2       225       379       380      1954      1958      1956
 -1       603    8    0    1
 -2       227       226       381      1493      1959      1960
 -1       604    8    0    1
 -2       226       380       381      1957      1961      1959
 -1       605    8    0    1
 -2       228       227       382      1496      1962      1963
 -1       606    8    0    1
 -2       291       228       382      1688      1963      1964
 -1       607    8    0    1
 -2       227       381       382      1960      1965      1962
 -1       608    8    0    1
 -2       230       231       383      1507      1966      1967
 -1       609    8    0    1
 -2       230       383       336      1967      1968      1824
 -1       610    8    0    1
 -2       231       232       384      1510      1969      1970
 -1       611    8    0    1
 -2       231       384       383      1970      1971      1966
 -1       612    8    0    1
 -2       232       233       385      1513      1972      1973
 -1       613    8    0    1
 -2       232       385       384      1973      1974      1969
 -1       614    8    0    1
 -2       233       234       386      1516      1975      1976
 -1       615    8    0    1
 -2       233       386       385      1976      1977      1972
 -1       616    8    0    1
 -2       234       235       387      1519      1978      1979
 -1       617    8    0    1
 -2       234       387       386      1979      1980      1975
 -1       618    8    0    1
 -2       235       236       388      1522      1981      1982
 -1       619    8    0    1
 -2       235       388       387      1982      1983      1978
 -1       620    8    0    1
 -2       236       237       389      1525      1984      1985
 -1       621    8    0    1
 -2       236       389       388      1985      1986      1981
 -1       622    8    0    1
 -2       237       238       390      1528      1987      1988
 -1       623    8    0    1
 -2       237       390       389      1988      1989      1984
 -1       624    8    0    1
 -2       238       239       391      1531      1990      1991
 -1       625    8    0    1
 -2       238       391       390      1991      1992      1987
 -1       626    8    0    1
 -2       239       240       392      1534      1993      1994
 -1       627    8    0    1
 -2       239       392       391      1994      1995      1990
 -1       628    8    0    1
 -2       240       241       393      1537      1996      1997
 -1       629    8    0    1
 -2       240       393       392      1997      1998      1993
 -1       630    8    0    1
 -2       241       242       394      1540      1999      2000
 -1       631    8    0    1
 -2       241       394       393      2000      2001      1996
 -1       632    8    0    1
 -2       242       243       395      1543      2002      2003
 -1       633    8    0    1
 -2       242       395       394      2003      2004      1999
 -1       634    8    0    1
 -2       243       244       396      1546      2005      2006
 -1       635    8    0    1
 -2       243       396       395      2006      2007      2002
 -1       636    8    0    1
 -2       244       245       397      1549      2008      2009
 -1       637    8    0    1
 -2       244       397       396      2009      2010      2005
 -1       638    8    0    1
 -2       245       246       398      1552      2011      2012
 -1       639    8    0    1
 -2       245       398       397      2012      2013      2008
 -1       640    8    0    1
 -2       246       247       399      1555      2014      2015
 -1       641    8    0    1
 -2       246       399       398      2015      2016      2011
 -1       642    8    0    1
 -2       247       248       400      1558      2017      2018
 -1       643    8    0    1
 -2       247       400       399      2018      2019      2014
 -1       644    8    0    1
 -2       248       249       401      1561      2020      2021
 -1       645    8    0    1
 -2       248       401       400      2021      2022      2017
 -1       646    8    0    1
 -2       249       250       402      1564      2023      2024
 -1       647    8    0    1
 -2       249       402       401      2024      2025      2020
 -1       648    8    0    1
 -2       250       251       403      1567      2026      2027
 -1       649    8    0    1
 -2       250       403       402      2027      2028      2023
 -1       650    8    0    1
 -2       251       252       404      1570      2029      2030
 -1       651    8    0    1
 -2       251       404       403      2030      2031      2026
 -1       652    8    0    1
 -2       252       253       405      1573      2032      2033
 -1       653    8    0    1
 -2       252       405       404      2033      2034      2029
 -1       654    8    0    1
 -2       253       254       406      1576      2035      2036
 -1       655    8    0    1
 -2       253       406       405      2036      2037      2032
 -1       656    8    0    1
 -2       254       255       407      1579      2038      2039
 -1       657    8    0    1
 -2       254       407       406      2039      2040      2035
 -1       658    8    0    1
 -2       255       256       408      1582      2041      2042
 -1       659    8    0    1
 -2       255       408       407      2042      2043      2038
 -1       660    8    0    1
 -2       256       257       409      1585      2044      2045
 -1       661    8    0    1
 -2       256       409       408      2045      2046      2041
 -1       662    8    0    1
 -2       257       258       410      1588      2047      2048
 -1       663    8    0    1
 -2       257       410       409      2048      2049      2044
 -1       664    8    0    1
 -2       258       259       411      1591      2050      2051
 -1       665    8    0    1
 -2       258       411       410      2051      2052      2047
 -1       666    8    0    1
 -2       259       260       412      1594      2053      2054
 -1       667    8    0    1
 -2       259       412       411      2054      2055      2050
 -1       668    8    0    1
 -2       260       261       413      1597      2056      2057
 -1       669    8    0    1
 -2       260       413       412      2057      2058      2053
 -1       670    8    0    1
 -2       261       262       414      1600      2059      2060
 -1       671    8    0    1
 -2       261       414       413      2060      2061      2056
 -1       672    8    0    1
 -2       262       263       415      1603      2062      2063
 -1       673    8    0    1
 -2       262       415       414      2063      2064      2059
 -1       674    8    0    1
 -2       263       264       416      1606      2065      2066
 -1       675    8    0    1
 -2       263       416       415      2066      2067      2062
 -1       676    8    0    1
 -2       264       265       417      1609      2068      2069
 -1       677    8    0    1
 -2       264       417       416      2069      2070      2065
 -1       678    8    0    1
 -2       265       266       418      1612      2071      2072
 -1       679    8    0    1
 -2       265       418       417      2072      2073      2068
 -1       680    8    0    1
 -2       266       267       419      1615      2074      2075
 -1       681    8    0    1
 -2       266       419       418      2075      2076      2071
 -1       682    8    0    1
 -2       267       268       420      1618      2077      2078
 -1       683    8    0    1
 -2       267       420       419      2078      2079      2074
 -1       684    8    0    1
 -2       268       269       421      1621      2080      2081
 -1       685    8    0    1
 -2       268       421       420      2081      2082      2077
 -1       686    8    0    1
 -2       269       270       422      1624      2083      2084
 -1       687    8    0    1
 -2       269       422       421      2084      2085      2080
 -1       688    8    0    1
 -2       270       271       423      1627      2086      2087
 -1       689    8    0    1
 -2       270       423       422      2087      2088      2083
 -1       690    8    0    1
 -2       271       272       424      1630      2089      2090
 -1       691    8    0    1
 -2       271       424       423      2090      2091      2086
 -1       692    8    0    1
 -2       272       273       425      1633      2092      2093
 -1       693    8    0    1
 -2       272       425       424      2093      2094      2089
 -1       694    8    0    1
 -2       273       274       426      1636      2095      2096
 -1       695    8    0    1
 -2       273       426       425      2096      2097      2092
 -1       696    8    0    1
 -2       274       275       427      1639      2098      2099
 -1       697    8    0    1
 -2       274       427       426      2099      2100      2095
 -1       698    8    0    1
 -2       275       276       428      1642      2101      2102
 -1       699    8    0    1
 -2       427       275       428      2098      2102      2103
 -1       700    8    0    1
 -2       276       277       428      1752      2104      2101
 -1       701    8    0    1
 -2       279       280       429      1654      2105      2106
 -1       702    8    0    1
 -2       278       279       430      1651      2107      2108
 -1       703    8    0    1
 -2       279       429       430      2106      2109      2107
 -1       704    8    0    1
 -2       277       278       431      1648      2110      2111
 -1       705    8    0    1
 -2       428       277       431      2104      2111      2112
 -1       706    8    0    1
 -2       278       430       431      2108      2113      2110
 -1       707    8    0    1
 -2       280       281       432      1657      2114      2115
 -1       708    8    0    1
 -2       280       432       429      2115      2116      2105
 -1       709    8    0    1
 -2       281       282       433      1660      2117      2118
 -1       710    8    0    1
 -2       281       433       432      2118      2119      2114
 -1       711    8    0    1
 -2       282       283       434      1663      2120      2121
 -1       712    8    0    1
 -2       282       434       433      2121      2122      2117
 -1       713    8    0    1
 -2       283       284       435      1666      2123      2124
 -1       714    8    0    1
 -2       283       435       434      2124      2125      2120
 -1       715    8    0    1
 -2       284       285       436      1669      2126      2127
 -1       716    8    0    1
 -2       284       436       435      2127      2128      2123
 -1       717    8    0    1
 -2       285       286       437      1672      2129      2130
 -1       718    8    0    1
 -2       285       437       436      2130      2131      2126
 -1       719    8    0    1
 -2       286       287       438      1675      2132      2133
 -1       720    8    0    1
 -2       286       438       437      2133      2134      2129
 -1       721    8    0    1
 -2       287       288       439      1678      2135      2136
 -1       722    8    0    1
 -2       287       439       438      2136      2137      2132
 -1       723    8    0    1
 -2       288       289       440      1681      2138      2139
 -1       724    8    0    1
 -2       288       440       439      2139      2140      2135
 -1       725    8    0    1
 -2       289       290       441      1684      2141      2142
 -1       726    8    0    1
 -2       289       441       440      2142      2143      2138
 -1       727    8    0    1
 -2       293       294       442      1754      2144      2145
 -1       728    8    0    1
 -2       321       292       443      1755      2146      2147
 -1       729    8    0    1
 -2       292       293       444      1753      2148      2149
 -1       730    8    0    1
 -2       294       295       445      1750      2150      2151
 -1       731    8    0    1
 -2       295       296       446      1749      2152      2153
 -1       732    8    0    1
 -2       167       168       447      1316      2154      2155
 -1       733    8    0    1
 -2       322       167       447      1782      2155      2156
 -1       734    8    0    1
 -2       168       324       447      1788      2157      2154
 -1       735    8    0    1
 -2       297       298       448      1757      2158      2159
 -1       736    8    0    1
 -2       298       299       449      1758      2160      2161
 -1       737    8    0    1
 -2       298       449       448      2161      2162      2158
 -1       738    8    0    1
 -2       299       300       450      1759      2163      2164
 -1       739    8    0    1
 -2       300       301       451      1760      2165      2166
 -1       740    8    0    1
 -2       301       302       452      1761      2167      2168
 -1       741    8    0    1
 -2       302       303       453      1762      2169      2170
 -1       742    8    0    1
 -2       303       304       454      1763      2171      2172
 -1       743    8    0    1
 -2       304       305       455      1764      2173      2174
 -1       744    8    0    1
 -2       305       306       456      1765      2175      2176
 -1       745    8    0    1
 -2       305       456       455      2176      2177      2173
 -1       746    8    0    1
 -2       306       307       457      1766      2178      2179
 -1       747    8    0    1
 -2       307       308       458      1767      2180      2181
 -1       748    8    0    1
 -2       308       309       459      1768      2182      2183
 -1       749    8    0    1
 -2       309       310       460      1769      2184      2185
 -1       750    8    0    1
 -2       309       460       459      2185      2186      2182
 -1       751    8    0    1
 -2       310       311       461      1770      2187      2188
 -1       752    8    0    1
 -2       311       312       462      1771      2189      2190
 -1       753    8    0    1
 -2       312       313       463      1772      2191      2192
 -1       754    8    0    1
 -2       312       463       462      2192      2193      2189
 -1       755    8    0    1
 -2       313       314       464      1773      2194      2195
 -1       756    8    0    1
 -2       314       315       465      1774      2196      2197
 -1       757    8    0    1
 -2       315       316       466      1775      2198      2199
 -1       758    8    0    1
 -2       315       466       465      2199      2200      2196
 -1       759    8    0    1
 -2       316       317       467      1776      2201      2202
 -1       760    8    0    1
 -2       317       318       468      1777      2203      2204
 -1       761    8    0    1
 -2       318       319       469      1778      2205      2206
 -1       762    8    0    1
 -2       319       320       470      1779      2207      2208
 -1       763    8    0    1
 -2       320       321       471      1780      2209      2210
 -1       764    8    0    1
 -2       321       443       471      2147      2211      2209
 -1       765    8    0    1
 -2       296       297       472      1756      2212      2213
 -1       766    8    0    1
 -2       296       472       446      2213      2214      2152
 -1       767    8    0    1
 -2       445       295       446      2150      2153      2215
 -1       768    8    0    1
 -2       181       323       182      1827      2216      1358
 -1       769    8    0    1
 -2       297       448       472      2159      2217      2212
 -1       770    8    0    1
 -2       337       182       323      1828      2216      2218
 -1       771    8    0    1
 -2       444       293       442      2148      2145      2219
 -1       772    8    0    1
 -2       443       292       444      2146      2149      2220
 -1       773    8    0    1
 -2       441       290       291      2141      1687      2221
 -1       774    8    0    1
 -2       442       294       445      2144      2151      2222
 -1       775    8    0    1
 -2       470       320       471      2207      2210      2223
 -1       776    8    0    1
 -2       469       319       470      2205      2208      2224
 -1       777    8    0    1
 -2       468       318       469      2203      2206      2225
 -1       778    8    0    1
 -2       466       316       467      2198      2202      2226
 -1       779    8    0    1
 -2       463       313       464      2191      2195      2227
 -1       780    8    0    1
 -2       460       310       461      2184      2188      2228
 -1       781    8    0    1
 -2       458       308       459      2180      2183      2229
 -1       782    8    0    1
 -2       456       306       457      2175      2179      2230
 -1       783    8    0    1
 -2       454       304       455      2171      2174      2231
 -1       784    8    0    1
 -2       453       303       454      2169      2172      2232
 -1       785    8    0    1
 -2       452       302       453      2167      2170      2233
 -1       786    8    0    1
 -2       451       301       452      2165      2168      2234
 -1       787    8    0    1
 -2       299       450       449      2164      2235      2160
 -1       788    8    0    1
 -2       450       300       451      2163      2166      2236
 -1       789    8    0    1
 -2       457       307       458      2178      2181      2237
 -1       790    8    0    1
 -2       461       311       462      2187      2190      2238
 -1       791    8    0    1
 -2       464       314       465      2194      2197      2239
 -1       792    8    0    1
 -2       467       317       468      2201      2204      2240
 -1       793    8    0    1
 -2       336       383       473      1968      2241      2242
 -1       794    8    0    1
 -2       325       326       474      1794      2243      2244
 -1       795    8    0    1
 -2       324       325       475      1791      2245      2246
 -1       796    8    0    1
 -2       325       474       475      2244      2247      2245
 -1       797    8    0    1
 -2       327       328       476      1800      2248      2249
 -1       798    8    0    1
 -2       328       329       477      1803      2250      2251
 -1       799    8    0    1
 -2       328       477       476      2251      2252      2248
 -1       800    8    0    1
 -2       329       330       478      1806      2253      2254
 -1       801    8    0    1
 -2       329       478       477      2254      2255      2250
 -1       802    8    0    1
 -2       330       331       479      1809      2256      2257
 -1       803    8    0    1
 -2       330       479       478      2257      2258      2253
 -1       804    8    0    1
 -2       331       332       480      1812      2259      2260
 -1       805    8    0    1
 -2       331       480       479      2260      2261      2256
 -1       806    8    0    1
 -2       332       333       481      1815      2262      2263
 -1       807    8    0    1
 -2       332       481       480      2263      2264      2259
 -1       808    8    0    1
 -2       445       446       482      2215      2265      2266
 -1       809    8    0    1
 -2       383       384       483      1971      2267      2268
 -1       810    8    0    1
 -2       383       483       473      2268      2269      2241
 -1       811    8    0    1
 -2       338       337       484      1832      2270      2271
 -1       812    8    0    1
 -2       472       448       485      2217      2272      2273
 -1       813    8    0    1
 -2       339       338       486      1835      2274      2275
 -1       814    8    0    1
 -2       338       484       486      2271      2276      2274
 -1       815    8    0    1
 -2       340       339       487      1838      2277      2278
 -1       816    8    0    1
 -2       339       486       487      2275      2279      2277
 -1       817    8    0    1
 -2       341       340       488      1841      2280      2281
 -1       818    8    0    1
 -2       340       487       488      2278      2282      2280
 -1       819    8    0    1
 -2       342       341       489      1844      2283      2284
 -1       820    8    0    1
 -2       341       488       489      2281      2285      2283
 -1       821    8    0    1
 -2       343       342       490      1847      2286      2287
 -1       822    8    0    1
 -2       342       489       490      2284      2288      2286
 -1       823    8    0    1
 -2       344       343       491      1850      2289      2290
 -1       824    8    0    1
 -2       343       490       491      2287      2291      2289
 -1       825    8    0    1
 -2       345       344       492      1853      2292      2293
 -1       826    8    0    1
 -2       344       491       492      2290      2294      2292
 -1       827    8    0    1
 -2       346       345       493      1856      2295      2296
 -1       828    8    0    1
 -2       345       492       493      2293      2297      2295
 -1       829    8    0    1
 -2       347       346       494      1859      2298      2299
 -1       830    8    0    1
 -2       346       493       494      2296      2300      2298
 -1       831    8    0    1
 -2       348       347       495      1862      2301      2302
 -1       832    8    0    1
 -2       347       494       495      2299      2303      2301
 -1       833    8    0    1
 -2       349       348       496      1865      2304      2305
 -1       834    8    0    1
 -2       348       495       496      2302      2306      2304
 -1       835    8    0    1
 -2       350       349       497      1868      2307      2308
 -1       836    8    0    1
 -2       349       496       497      2305      2309      2307
 -1       837    8    0    1
 -2       351       350       498      1871      2310      2311
 -1       838    8    0    1
 -2       350       497       498      2308      2312      2310
 -1       839    8    0    1
 -2       352       351       499      1874      2313      2314
 -1       840    8    0    1
 -2       351       498       499      2311      2315      2313
 -1       841    8    0    1
 -2       353       352       500      1877      2316      2317
 -1       842    8    0    1
 -2       352       499       500      2314      2318      2316
 -1       843    8    0    1
 -2       354       353       501      1880      2319      2320
 -1       844    8    0    1
 -2       353       500       501      2317      2321      2319
 -1       845    8    0    1
 -2       355       354       502      1883      2322      2323
 -1       846    8    0    1
 -2       354       501       502      2320      2324      2322
 -1       847    8    0    1
 -2       356       355       503      1886      2325      2326
 -1       848    8    0    1
 -2       355       502       503      2323      2327      2325
 -1       849    8    0    1
 -2       357       356       504      1889      2328      2329
 -1       850    8    0    1
 -2       356       503       504      2326      2330      2328
 -1       851    8    0    1
 -2       358       357       505      1892      2331      2332
 -1       852    8    0    1
 -2       357       504       505      2329      2333      2331
 -1       853    8    0    1
 -2       359       358       506      1895      2334      2335
 -1       854    8    0    1
 -2       358       505       506      2332      2336      2334
 -1       855    8    0    1
 -2       360       359       507      1898      2337      2338
 -1       856    8    0    1
 -2       359       506       507      2335      2339      2337
 -1       857    8    0    1
 -2       361       360       508      1901      2340      2341
 -1       858    8    0    1
 -2       360       507       508      2338      2342      2340
 -1       859    8    0    1
 -2       362       361       509      1904      2343      2344
 -1       860    8    0    1
 -2       361       508       509      2341      2345      2343
 -1       861    8    0    1
 -2       363       362       510      1907      2346      2347
 -1       862    8    0    1
 -2       362       509       510      2344      2348      2346
 -1       863    8    0    1
 -2       364       363       511      1910      2349      2350
 -1       864    8    0    1
 -2       363       510       511      2347      2351      2349
 -1       865    8    0    1
 -2       365       364       512      1913      2352      2353
 -1       866    8    0    1
 -2       364       511       512      2350      2354      2352
 -1       867    8    0    1
 -2       366       365       513      1916      2355      2356
 -1       868    8    0    1
 -2       365       512       513      2353      2357      2355
 -1       869    8    0    1
 -2       367       366       514      1919      2358      2359
 -1       870    8    0    1
 -2       366       513       514      2356      2360      2358
 -1       871    8    0    1
 -2       368       367       515      1922      2361      2362
 -1       872    8    0    1
 -2       367       514       515      2359      2363      2361
 -1       873    8    0    1
 -2       369       368       516      1925      2364      2365
 -1       874    8    0    1
 -2       368       515       516      2362      2366      2364
 -1       875    8    0    1
 -2       370       369       517      1928      2367      2368
 -1       876    8    0    1
 -2       369       516       517      2365      2369      2367
 -1       877    8    0    1
 -2       371       370       518      1931      2370      2371
 -1       878    8    0    1
 -2       370       517       518      2368      2372      2370
 -1       879    8    0    1
 -2       372       371       519      1934      2373      2374
 -1       880    8    0    1
 -2       371       518       519      2371      2375      2373
 -1       881    8    0    1
 -2       373       372       520      1937      2376      2377
 -1       882    8    0    1
 -2       372       519       520      2374      2378      2376
 -1       883    8    0    1
 -2       374       373       521      1940      2379      2380
 -1       884    8    0    1
 -2       373       520       521      2377      2381      2379
 -1       885    8    0    1
 -2       375       374       522      1943      2382      2383
 -1       886    8    0    1
 -2       374       521       522      2380      2384      2382
 -1       887    8    0    1
 -2       376       375       523      1946      2385      2386
 -1       888    8    0    1
 -2       375       522       523      2383      2387      2385
 -1       889    8    0    1
 -2       377       376       524      1949      2388      2389
 -1       890    8    0    1
 -2       376       523       524      2386      2390      2388
 -1       891    8    0    1
 -2       378       377       525      1952      2391      2392
 -1       892    8    0    1
 -2       377       524       525      2389      2393      2391
 -1       893    8    0    1
 -2       379       378       526      1955      2394      2395
 -1       894    8    0    1
 -2       378       525       526      2392      2396      2394
 -1       895    8    0    1
 -2       380       379       527      1958      2397      2398
 -1       896    8    0    1
 -2       379       526       527      2395      2399      2397
 -1       897    8    0    1
 -2       381       380       528      1961      2400      2401
 -1       898    8    0    1
 -2       380       527       528      2398      2402      2400
 -1       899    8    0    1
 -2       385       386       529      1977      2403      2404
 -1       900    8    0    1
 -2       386       387       530      1980      2405      2406
 -1       901    8    0    1
 -2       386       530       529      2406      2407      2403
 -1       902    8    0    1
 -2       387       388       531      1983      2408      2409
 -1       903    8    0    1
 -2       387       531       530      2409      2410      2405
 -1       904    8    0    1
 -2       388       389       532      1986      2411      2412
 -1       905    8    0    1
 -2       388       532       531      2412      2413      2408
 -1       906    8    0    1
 -2       389       390       533      1989      2414      2415
 -1       907    8    0    1
 -2       389       533       532      2415      2416      2411
 -1       908    8    0    1
 -2       390       391       534      1992      2417      2418
 -1       909    8    0    1
 -2       390       534       533      2418      2419      2414
 -1       910    8    0    1
 -2       391       392       535      1995      2420      2421
 -1       911    8    0    1
 -2       391       535       534      2421      2422      2417
 -1       912    8    0    1
 -2       392       393       536      1998      2423      2424
 -1       913    8    0    1
 -2       392       536       535      2424      2425      2420
 -1       914    8    0    1
 -2       393       394       537      2001      2426      2427
 -1       915    8    0    1
 -2       393       537       536      2427      2428      2423
 -1       916    8    0    1
 -2       394       395       538      2004      2429      2430
 -1       917    8    0    1
 -2       394       538       537      2430      2431      2426
 -1       918    8    0    1
 -2       395       396       539      2007      2432      2433
 -1       919    8    0    1
 -2       395       539       538      2433      2434      2429
 -1       920    8    0    1
 -2       396       397       540      2010      2435      2436
 -1       921    8    0    1
 -2       396       540       539      2436      2437      2432
 -1       922    8    0    1
 -2       397       398       541      2013      2438      2439
 -1       923    8    0    1
 -2       397       541       540      2439      2440      2435
 -1       924    8    0    1
 -2       398       399       542      2016      2441      2442
 -1       925    8    0    1
 -2       398       542       541      2442      2443      2438
 -1       926    8    0    1
 -2       399       400       543      2019      2444      2445
 -1       927    8    0    1
 -2       399       543       542      2445      2446      2441
 -1       928    8    0    1
 -2       400       401       544      2022      2447      2448
 -1       929    8    0    1
 -2       400       544       543      2448      2449      2444
 -1       930    8    0    1
 -2       401       402       545      2025      2450      2451
 -1       931    8    0    1
 -2       401       545       544      2451      2452      2447
 -1       932    8    0    1
 -2       402       403       546      2028      2453      2454
 -1       933    8    0    1
 -2       402       546       545      2454      2455      2450
 -1       934    8    0    1
 -2       403       404       547      2031      2456      2457
 -1       935    8    0    1
 -2       403       547       546      2457      2458      2453
 -1       936    8    0    1
 -2       404       405       548      2034      2459      2460
 -1       937    8    0    1
 -2       404       548       547      2460      2461      2456
 -1       938    8    0    1
 -2       405       406       549      2037      2462      2463
 -1       939    8    0    1
 -2       405       549       548      2463      2464      2459
 -1       940    8    0    1
 -2       406       407       550      2040      2465      2466
 -1       941    8    0    1
 -2       406       550       549      2466      2467      2462
 -1       942    8    0    1
 -2       407       408       551      2043      2468      2469
 -1       943    8    0    1
 -2       407       551       550      2469      2470      2465
 -1       944    8    0    1
 -2       408       409       552      2046      2471      2472
 -1       945    8    0    1
 -2       408       552       551      2472      2473      2468
 -1       946    8    0    1
 -2       409       410       553      2049      2474      2475
 -1       947    8    0    1
 -2       409       553       552      2475      2476      2471
 -1       948    8    0    1
 -2       410       411       554      2052      2477      2478
 -1       949    8    0    1
 -2       410       554       553      2478      2479      2474
 -1       950    8    0    1
 -2       411       412       555      2055      2480      2481
 -1       951    8    0    1
 -2       411       555       554      2481      2482      2477
 -1       952    8    0    1
 -2       412       413       556      2058      2483      2484
 -1       953    8    0    1
 -2       412       556       555      2484      2485      2480
 -1       954    8    0    1
 -2       413       414       557      2061      2486      2487
 -1       955    8    0    1
 -2       413       557       556      2487      2488      2483
 -1       956    8    0    1
 -2       414       415       558      2064      2489      2490
 -1       957    8    0    1
 -2       414       558       557      2490      2491      2486
 -1       958    8    0    1
 -2       415       416       559      2067      2492      2493
 -1       959    8    0    1
 -2       415       559       558      2493      2494      2489
 -1       960    8    0    1
 -2       416       417       560      2070      2495      2496
 -1       961    8    0    1
 -2       416       560       559      2496      2497      2492
 -1       962    8    0    1
 -2       417       418       561      2073      2498      2499
 -1       963    8    0    1
 -2       417       561       560      2499      2500      2495
 -1       964    8    0    1
 -2       418       419       562      2076      2501      2502
 -1       965    8    0    1
 -2       418       562       561      2502      2503      2498
 -1       966    8    0    1
 -2       419       420       563      2079      2504      2505
 -1       967    8    0    1
 -2       419       563       562      2505      2506      2501
 -1       968    8    0    1
 -2       420       421       564      2082      2507      2508
 -1       969    8    0    1
 -2       420       564       563      2508      2509      2504
 -1       970    8    0    1
 -2       421       422       565      2085      2510      2511
 -1       971    8    0    1
 -2       421       565       564      2511      2512      2507
 -1       972    8    0    1
 -2       422       423       566      2088      2513      2514
 -1       973    8    0    1
 -2       422       566       565      2514      2515      2510
 -1       974    8    0    1
 -2       423       424       567      2091      2516      2517
 -1       975    8    0    1
 -2       423       567       566      2517      2518      2513
 -1       976    8    0    1
 -2       424       425       568      2094      2519      2520
 -1       977    8    0    1
 -2       424       568       567      2520      2521      2516
 -1       978    8    0    1
 -2       425       426       569      2097      2522      2523
 -1       979    8    0    1
 -2       425       569       568      2523      2524      2519
 -1       980    8    0    1
 -2       426       427       570      2100      2525      2526
 -1       981    8    0    1
 -2       426       570       569      2526      2527      2522
 -1       982    8    0    1
 -2       427       428       431      2103      2112      2528
 -1       983    8    0    1
 -2       432       433       571      2119      2529      2530
 -1       984    8    0    1
 -2       433       434       572      2122      2531      2532
 -1       985    8    0    1
 -2       433       572       571      2532      2533      2529
 -1       986    8    0    1
 -2       430       429       573      2109      2534      2535
 -1       987    8    0    1
 -2       429       432       574      2116      2536      2537
 -1       988    8    0    1
 -2       573       429       574      2534      2537      2538
 -1       989    8    0    1
 -2       432       571       574      2530      2539      2536
 -1       990    8    0    1
 -2       434       435       575      2125      2540      2541
 -1       991    8    0    1
 -2       434       575       572      2541      2542      2531
 -1       992    8    0    1
 -2       435       436       576      2128      2543      2544
 -1       993    8    0    1
 -2       435       576       575      2544      2545      2540
 -1       994    8    0    1
 -2       436       437       577      2131      2546      2547
 -1       995    8    0    1
 -2       436       577       576      2547      2548      2543
 -1       996    8    0    1
 -2       437       438       578      2134      2549      2550
 -1       997    8    0    1
 -2       437       578       577      2550      2551      2546
 -1       998    8    0    1
 -2       438       439       579      2137      2552      2553
 -1       999    8    0    1
 -2       438       579       578      2553      2554      2549
 -1      1000    8    0    1
 -2       439       440       580      2140      2555      2556
 -1      1001    8    0    1
 -2       439       580       579      2556      2557      2552
 -1      1002    8    0    1
 -2       440       441       581      2143      2558      2559
 -1      1003    8    0    1
 -2       440       581       580      2559      2560      2555
 -1      1004    8    0    1
 -2       443       444       582      2220      2561      2562
 -1      1005    8    0    1
 -2       442       445       583      2222      2563      2564
 -1      1006    8    0    1
 -2       445       482       583      2266      2565      2563
 -1      1007    8    0    1
 -2       384       385       584      1974      2566      2567
 -1      1008    8    0    1
 -2       385       529       584      2404      2568      2566
 -1      1009    8    0    1
 -2       446       472       585      2214      2569      2570
 -1      1010    8    0    1
 -2       441       291       382      2221      1964      2571
 -1      1011    8    0    1
 -2       470       471       586      2223      2572      2573
 -1      1012    8    0    1
 -2       444       442       587      2219      2574      2575
 -1      1013    8    0    1
 -2       471       443       588      2211      2576      2577
 -1      1014    8    0    1
 -2       463       464       589      2227      2578      2579
 -1      1015    8    0    1
 -2       460       461       590      2228      2580      2581
 -1      1016    8    0    1
 -2       458       459       591      2229      2582      2583
 -1      1017    8    0    1
 -2       454       455       592      2231      2584      2585
 -1      1018    8    0    1
 -2       326       327       593      1797      2586      2587
 -1      1019    8    0    1
 -2       474       326       593      2243      2587      2588
 -1      1020    8    0    1
 -2       327       476       593      2249      2589      2586
 -1      1021    8    0    1
 -2       450       451       594      2236      2590      2591
 -1      1022    8    0    1
 -2       448       449       595      2162      2592      2593
 -1      1023    8    0    1
 -2       457       458       596      2237      2594      2595
 -1      1024    8    0    1
 -2       449       450       597      2235      2596      2597
 -1      1025    8    0    1
 -2       449       597       595      2597      2598      2592
 -1      1026    8    0    1
 -2       451       452       598      2234      2599      2600
 -1      1027    8    0    1
 -2       452       453       599      2233      2601      2602
 -1      1028    8    0    1
 -2       452       599       598      2602      2603      2599
 -1      1029    8    0    1
 -2       453       454       600      2232      2604      2605
 -1      1030    8    0    1
 -2       454       592       600      2585      2606      2604
 -1      1031    8    0    1
 -2       455       456       601      2177      2607      2608
 -1      1032    8    0    1
 -2       461       462       602      2238      2609      2610
 -1      1033    8    0    1
 -2       456       457       603      2230      2611      2612
 -1      1034    8    0    1
 -2       601       456       603      2607      2612      2613
 -1      1035    8    0    1
 -2       457       596       603      2595      2614      2611
 -1      1036    8    0    1
 -2       459       460       604      2186      2615      2616
 -1      1037    8    0    1
 -2       460       590       604      2581      2617      2615
 -1      1038    8    0    1
 -2       464       465       605      2239      2618      2619
 -1      1039    8    0    1
 -2       462       463       606      2193      2620      2621
 -1      1040    8    0    1
 -2       463       589       606      2579      2622      2620
 -1      1041    8    0    1
 -2       467       468       607      2240      2623      2624
 -1      1042    8    0    1
 -2       465       466       608      2200      2625      2626
 -1      1043    8    0    1
 -2       466       467       609      2226      2627      2628
 -1      1044    8    0    1
 -2       468       469       610      2225      2629      2630
 -1      1045    8    0    1
 -2       469       470       611      2224      2631      2632
 -1      1046    8    0    1
 -2       337       323       612      2218      2633      2634
 -1      1047    8    0    1
 -2       484       337       612      2270      2634      2635
 -1      1048    8    0    1
 -2       323       322       612      1786      2636      2633
 -1      1049    8    0    1
 -2       335       336       613      1826      2637      2638
 -1      1050    8    0    1
 -2       334       335       613      1821      2638      2639
 -1      1051    8    0    1
 -2       336       473       613      2242      2640      2637
 -1      1052    8    0    1
 -2       450       594       614      2591      2641      2642
 -1      1053    8    0    1
 -2       450       614       597      2642      2643      2596
 -1      1054    8    0    1
 -2       324       475       615      2246      2644      2645
 -1      1055    8    0    1
 -2       324       615       447      2645      2646      2157
 -1      1056    8    0    1
 -2       384       584       483      2567      2647      2267
 -1      1057    8    0    1
 -2       482       446       585      2265      2570      2648
 -1      1058    8    0    1
 -2       333       334       613      1818      2639      2649
 -1      1059    8    0    1
 -2       612       322       447      2636      2156      2650
 -1      1060    8    0    1
 -2       611       470       586      2631      2573      2651
 -1      1061    8    0    1
 -2       472       485       585      2273      2652      2569
 -1      1062    8    0    1
 -2       610       469       611      2629      2632      2653
 -1      1063    8    0    1
 -2       609       467       607      2627      2624      2654
 -1      1064    8    0    1
 -2       608       466       609      2625      2628      2655
 -1      1065    8    0    1
 -2       427       431       570      2528      2656      2525
 -1      1066    8    0    1
 -2       431       430       570      2113      2657      2656
 -1      1067    8    0    1
 -2       443       582       588      2562      2658      2576
 -1      1068    8    0    1
 -2       582       444       616      2561      2659      2660
 -1      1069    8    0    1
 -2       444       587       616      2575      2661      2659
 -1      1070    8    0    1
 -2       442       583       587      2564      2662      2574
 -1      1071    8    0    1
 -2       602       462       606      2609      2621      2663
 -1      1072    8    0    1
 -2       599       453       600      2601      2605      2664
 -1      1073    8    0    1
 -2       441       382       617      2571      2665      2666
 -1      1074    8    0    1
 -2       581       441       617      2558      2666      2667
 -1      1075    8    0    1
 -2       382       381       617      1965      2668      2665
 -1      1076    8    0    1
 -2       586       471       588      2572      2577      2669
 -1      1077    8    0    1
 -2       596       458       618      2594      2670      2671
 -1      1078    8    0    1
 -2       458       591       618      2583      2672      2670
 -1      1079    8    0    1
 -2       592       455       601      2584      2608      2673
 -1      1080    8    0    1
 -2       464       605       589      2619      2674      2578
 -1      1081    8    0    1
 -2       591       459       604      2582      2616      2675
 -1      1082    8    0    1
 -2       590       461       619      2580      2676      2677
 -1      1083    8    0    1
 -2       461       602       619      2610      2678      2676
 -1      1084    8    0    1
 -2       451       598       594      2600      2679      2590
 -1      1085    8    0    1
 -2       485       448       595      2272      2593      2680
 -1      1086    8    0    1
 -2       605       465       608      2618      2626      2681
 -1      1087    8    0    1
 -2       607       468       610      2623      2630      2682
 -1      1088    8    0    1
 -2       333       613       481      2649      2683      2262
 -1      1089    8    0    1
 -2       570       430       573      2657      2535      2684
 -1      1090    8    0    1
 -2       617       381       528      2668      2401      2685
 -1      1091    8    0    1
 -2       477       478       620      2255      2686      2687
 -1      1092    8    0    1
 -2       476       477       621      2252      2688      2689
 -1      1093    8    0    1
 -2       477       620       621      2687      2690      2688
 -1      1094    8    0    1
 -2       479       480       622      2261      2691      2692
 -1      1095    8    0    1
 -2       480       481       623      2264      2693      2694
 -1      1096    8    0    1
 -2       480       623       622      2694      2695      2691
 -1      1097    8    0    1
 -2       570       573       624      2684      2696      2697
 -1      1098    8    0    1
 -2       570       624       569      2697      2698      2527
 -1      1099    8    0    1
 -2       473       483       625      2269      2699      2700
 -1      1100    8    0    1
 -2       613       473       481      2640      2701      2683
 -1      1101    8    0    1
 -2       585       485       626      2652      2702      2703
 -1      1102    8    0    1
 -2       487       486       627      2279      2704      2705
 -1      1103    8    0    1
 -2       488       487       628      2282      2706      2707
 -1      1104    8    0    1
 -2       487       627       628      2705      2708      2706
 -1      1105    8    0    1
 -2       489       488       629      2285      2709      2710
 -1      1106    8    0    1
 -2       488       628       629      2707      2711      2709
 -1      1107    8    0    1
 -2       490       489       630      2288      2712      2713
 -1      1108    8    0    1
 -2       489       629       630      2710      2714      2712
 -1      1109    8    0    1
 -2       491       490       631      2291      2715      2716
 -1      1110    8    0    1
 -2       490       630       631      2713      2717      2715
 -1      1111    8    0    1
 -2       492       491       632      2294      2718      2719
 -1      1112    8    0    1
 -2       491       631       632      2716      2720      2718
 -1      1113    8    0    1
 -2       493       492       633      2297      2721      2722
 -1      1114    8    0    1
 -2       492       632       633      2719      2723      2721
 -1      1115    8    0    1
 -2       494       493       634      2300      2724      2725
 -1      1116    8    0    1
 -2       493       633       634      2722      2726      2724
 -1      1117    8    0    1
 -2       495       494       635      2303      2727      2728
 -1      1118    8    0    1
 -2       494       634       635      2725      2729      2727
 -1      1119    8    0    1
 -2       496       495       636      2306      2730      2731
 -1      1120    8    0    1
 -2       495       635       636      2728      2732      2730
 -1      1121    8    0    1
 -2       497       496       637      2309      2733      2734
 -1      1122    8    0    1
 -2       496       636       637      2731      2735      2733
 -1      1123    8    0    1
 -2       498       497       638      2312      2736      2737
 -1      1124    8    0    1
 -2       497       637       638      2734      2738      2736
 -1      1125    8    0    1
 -2       499       498       619      2315      2739      2740
 -1      1126    8    0    1
 -2       500       499       606      2318      2741      2742
 -1      1127    8    0    1
 -2       504       503       639      2330      2743      2744
 -1      1128    8    0    1
 -2       505       504       640      2333      2745      2746
 -1      1129    8    0    1
 -2       504       639       640      2744      2747      2745
 -1      1130    8    0    1
 -2       506       505       641      2336      2748      2749
 -1      1131    8    0    1
 -2       505       640       641      2746      2750      2748
 -1      1132    8    0    1
 -2       507       506       642      2339      2751      2752
 -1      1133    8    0    1
 -2       506       641       642      2749      2753      2751
 -1      1134    8    0    1
 -2       508       507       643      2342      2754      2755
 -1      1135    8    0    1
 -2       507       642       643      2752      2756      2754
 -1      1136    8    0    1
 -2       509       508       644      2345      2757      2758
 -1      1137    8    0    1
 -2       508       643       644      2755      2759      2757
 -1      1138    8    0    1
 -2       510       509       645      2348      2760      2761
 -1      1139    8    0    1
 -2       509       644       645      2758      2762      2760
 -1      1140    8    0    1
 -2       511       510       646      2351      2763      2764
 -1      1141    8    0    1
 -2       510       645       646      2761      2765      2763
 -1      1142    8    0    1
 -2       512       511       647      2354      2766      2767
 -1      1143    8    0    1
 -2       511       646       647      2764      2768      2766
 -1      1144    8    0    1
 -2       513       512       648      2357      2769      2770
 -1      1145    8    0    1
 -2       512       647       648      2767      2771      2769
 -1      1146    8    0    1
 -2       514       513       649      2360      2772      2773
 -1      1147    8    0    1
 -2       513       648       649      2770      2774      2772
 -1      1148    8    0    1
 -2       515       514       650      2363      2775      2776
 -1      1149    8    0    1
 -2       514       649       650      2773      2777      2775
 -1      1150    8    0    1
 -2       516       515       651      2366      2778      2779
 -1      1151    8    0    1
 -2       515       650       651      2776      2780      2778
 -1      1152    8    0    1
 -2       517       516       652      2369      2781      2782
 -1      1153    8    0    1
 -2       516       651       652      2779      2783      2781
 -1      1154    8    0    1
 -2       518       517       653      2372      2784      2785
 -1      1155    8    0    1
 -2       517       652       653      2782      2786      2784
 -1      1156    8    0    1
 -2       519       518       654      2375      2787      2788
 -1      1157    8    0    1
 -2       518       653       654      2785      2789      2787
 -1      1158    8    0    1
 -2       520       519       655      2378      2790      2791
 -1      1159    8    0    1
 -2       519       654       655      2788      2792      2790
 -1      1160    8    0    1
 -2       521       520       656      2381      2793      2794
 -1      1161    8    0    1
 -2       520       655       656      2791      2795      2793
 -1      1162    8    0    1
 -2       522       521       657      2384      2796      2797
 -1      1163    8    0    1
 -2       521       656       657      2794      2798      2796
 -1      1164    8    0    1
 -2       523       522       658      2387      2799      2800
 -1      1165    8    0    1
 -2       522       657       658      2797      2801      2799
 -1      1166    8    0    1
 -2       524       523       659      2390      2802      2803
 -1      1167    8    0    1
 -2       523       658       659      2800      2804      2802
 -1      1168    8    0    1
 -2       525       524       660      2393      2805      2806
 -1      1169    8    0    1
 -2       524       659       660      2803      2807      2805
 -1      1170    8    0    1
 -2       526       525       661      2396      2808      2809
 -1      1171    8    0    1
 -2       525       660       661      2806      2810      2808
 -1      1172    8    0    1
 -2       527       526       662      2399      2811      2812
 -1      1173    8    0    1
 -2       526       661       662      2809      2813      2811
 -1      1174    8    0    1
 -2       528       527       663      2402      2814      2815
 -1      1175    8    0    1
 -2       527       662       663      2812      2816      2814
 -1      1176    8    0    1
 -2       530       531       664      2410      2817      2818
 -1      1177    8    0    1
 -2       586       588       665      2669      2819      2820
 -1      1178    8    0    1
 -2       529       530       666      2407      2821      2822
 -1      1179    8    0    1
 -2       530       664       666      2818      2823      2821
 -1      1180    8    0    1
 -2       532       533       667      2416      2824      2825
 -1      1181    8    0    1
 -2       533       534       668      2419      2826      2827
 -1      1182    8    0    1
 -2       533       668       667      2827      2828      2824
 -1      1183    8    0    1
 -2       534       535       669      2422      2829      2830
 -1      1184    8    0    1
 -2       534       669       668      2830      2831      2826
 -1      1185    8    0    1
 -2       535       536       670      2425      2832      2833
 -1      1186    8    0    1
 -2       535       670       669      2833      2834      2829
 -1      1187    8    0    1
 -2       536       537       671      2428      2835      2836
 -1      1188    8    0    1
 -2       536       671       670      2836      2837      2832
 -1      1189    8    0    1
 -2       537       538       672      2431      2838      2839
 -1      1190    8    0    1
 -2       537       672       671      2839      2840      2835
 -1      1191    8    0    1
 -2       538       539       673      2434      2841      2842
 -1      1192    8    0    1
 -2       538       673       672      2842      2843      2838
 -1      1193    8    0    1
 -2       539       540       674      2437      2844      2845
 -1      1194    8    0    1
 -2       539       674       673      2845      2846      2841
 -1      1195    8    0    1
 -2       540       541       675      2440      2847      2848
 -1      1196    8    0    1
 -2       540       675       674      2848      2849      2844
 -1      1197    8    0    1
 -2       541       542       676      2443      2850      2851
 -1      1198    8    0    1
 -2       541       676       675      2851      2852      2847
 -1      1199    8    0    1
 -2       542       543       677      2446      2853      2854
 -1      1200    8    0    1
 -2       542       677       676      2854      2855      2850
 -1      1201    8    0    1
 -2       543       544       678      2449      2856      2857
 -1      1202    8    0    1
 -2       543       678       677      2857      2858      2853
 -1      1203    8    0    1
 -2       544       545       679      2452      2859      2860
 -1      1204    8    0    1
 -2       544       679       678      2860      2861      2856
 -1      1205    8    0    1
 -2       545       546       680      2455      2862      2863
 -1      1206    8    0    1
 -2       545       680       679      2863      2864      2859
 -1      1207    8    0    1
 -2       546       547       681      2458      2865      2866
 -1      1208    8    0    1
 -2       546       681       680      2866      2867      2862
 -1      1209    8    0    1
 -2       547       548       682      2461      2868      2869
 -1      1210    8    0    1
 -2       547       682       681      2869      2870      2865
 -1      1211    8    0    1
 -2       548       549       683      2464      2871      2872
 -1      1212    8    0    1
 -2       548       683       682      2872      2873      2868
 -1      1213    8    0    1
 -2       549       550       684      2467      2874      2875
 -1      1214    8    0    1
 -2       549       684       683      2875      2876      2871
 -1      1215    8    0    1
 -2       550       551       685      2470      2877      2878
 -1      1216    8    0    1
 -2       550       685       684      2878      2879      2874
 -1      1217    8    0    1
 -2       551       552       686      2473      2880      2881
 -1      1218    8    0    1
 -2       551       686       685      2881      2882      2877
 -1      1219    8    0    1
 -2       552       553       687      2476      2883      2884
 -1      1220    8    0    1
 -2       552       687       686      2884      2885      2880
 -1      1221    8    0    1
 -2       553       554       688      2479      2886      2887
 -1      1222    8    0    1
 -2       553       688       687      2887      2888      2883
 -1      1223    8    0    1
 -2       554       555       689      2482      2889      2890
 -1      1224    8    0    1
 -2       554       689       688      2890      2891      2886
 -1      1225    8    0    1
 -2       555       556       690      2485      2892      2893
 -1      1226    8    0    1
 -2       555       690       689      2893      2894      2889
 -1      1227    8    0    1
 -2       556       557       691      2488      2895      2896
 -1      1228    8    0    1
 -2       556       691       690      2896      2897      2892
 -1      1229    8    0    1
 -2       557       558       692      2491      2898      2899
 -1      1230    8    0    1
 -2       557       692       691      2899      2900      2895
 -1      1231    8    0    1
 -2       558       559       693      2494      2901      2902
 -1      1232    8    0    1
 -2       558       693       692      2902      2903      2898
 -1      1233    8    0    1
 -2       559       560       694      2497      2904      2905
 -1      1234    8    0    1
 -2       559       694       693      2905      2906      2901
 -1      1235    8    0    1
 -2       560       561       695      2500      2907      2908
 -1      1236    8    0    1
 -2       560       695       694      2908      2909      2904
 -1      1237    8    0    1
 -2       561       562       696      2503      2910      2911
 -1      1238    8    0    1
 -2       561       696       695      2911      2912      2907
 -1      1239    8    0    1
 -2       562       563       697      2506      2913      2914
 -1      1240    8    0    1
 -2       562       697       696      2914      2915      2910
 -1      1241    8    0    1
 -2       563       564       698      2509      2916      2917
 -1      1242    8    0    1
 -2       563       698       697      2917      2918      2913
 -1      1243    8    0    1
 -2       564       565       699      2512      2919      2920
 -1      1244    8    0    1
 -2       564       699       698      2920      2921      2916
 -1      1245    8    0    1
 -2       565       566       700      2515      2922      2923
 -1      1246    8    0    1
 -2       565       700       699      2923      2924      2919
 -1      1247    8    0    1
 -2       566       567       701      2518      2925      2926
 -1      1248    8    0    1
 -2       566       701       700      2926      2927      2922
 -1      1249    8    0    1
 -2       567       568       702      2521      2928      2929
 -1      1250    8    0    1
 -2       567       702       701      2929      2930      2925
 -1      1251    8    0    1
 -2       568       569       703      2524      2931      2932
 -1      1252    8    0    1
 -2       702       568       703      2928      2932      2933
 -1      1253    8    0    1
 -2       569       624       703      2698      2934      2931
 -1      1254    8    0    1
 -2       575       576       704      2545      2935      2936
 -1      1255    8    0    1
 -2       617       528       705      2685      2937      2938
 -1      1256    8    0    1
 -2       581       617       705      2667      2938      2939
 -1      1257    8    0    1
 -2       528       663       705      2815      2940      2937
 -1      1258    8    0    1
 -2       571       572       706      2533      2941      2942
 -1      1259    8    0    1
 -2       576       577       707      2548      2943      2944
 -1      1260    8    0    1
 -2       576       707       704      2944      2945      2935
 -1      1261    8    0    1
 -2       572       575       708      2542      2946      2947
 -1      1262    8    0    1
 -2       706       572       708      2941      2947      2948
 -1      1263    8    0    1
 -2       575       704       708      2936      2949      2946
 -1      1264    8    0    1
 -2       583       482       709      2565      2950      2951
 -1      1265    8    0    1
 -2       577       578       710      2551      2952      2953
 -1      1266    8    0    1
 -2       577       710       707      2953      2954      2943
 -1      1267    8    0    1
 -2       578       579       711      2554      2955      2956
 -1      1268    8    0    1
 -2       578       711       710      2956      2957      2952
 -1      1269    8    0    1
 -2       579       580       712      2557      2958      2959
 -1      1270    8    0    1
 -2       579       712       711      2959      2960      2955
 -1      1271    8    0    1
 -2       580       581       705      2560      2939      2961
 -1      1272    8    0    1
 -2       584       529       713      2568      2962      2963
 -1      1273    8    0    1
 -2       529       666       713      2822      2964      2962
 -1      1274    8    0    1
 -2       610       611       714      2653      2965      2966
 -1      1275    8    0    1
 -2       587       583       715      2662      2967      2968
 -1      1276    8    0    1
 -2       592       601       716      2673      2969      2970
 -1      1277    8    0    1
 -2       589       605       717      2674      2971      2972
 -1      1278    8    0    1
 -2       591       604       718      2675      2973      2974
 -1      1279    8    0    1
 -2       531       532       719      2413      2975      2976
 -1      1280    8    0    1
 -2       664       531       719      2817      2976      2977
 -1      1281    8    0    1
 -2       532       667       719      2825      2978      2975
 -1      1282    8    0    1
 -2       486       484       720      2276      2979      2980
 -1      1283    8    0    1
 -2       486       720       627      2980      2981      2704
 -1      1284    8    0    1
 -2       483       584       721      2647      2982      2983
 -1      1285    8    0    1
 -2       625       483       721      2699      2983      2984
 -1      1286    8    0    1
 -2       584       713       721      2963      2985      2982
 -1      1287    8    0    1
 -2       612       447       615      2650      2646      2986
 -1      1288    8    0    1
 -2       611       586       722      2651      2987      2988
 -1      1289    8    0    1
 -2       586       665       722      2820      2989      2987
 -1      1290    8    0    1
 -2       605       608       723      2681      2990      2991
 -1      1291    8    0    1
 -2       482       585       724      2648      2992      2993
 -1      1292    8    0    1
 -2       482       724       709      2993      2994      2950
 -1      1293    8    0    1
 -2       595       597       725      2598      2995      2996
 -1      1294    8    0    1
 -2       598       599       726      2603      2997      2998
 -1      1295    8    0    1
 -2       600       592       727      2606      2999      3000
 -1      1296    8    0    1
 -2       604       590       728      2617      3001      3002
 -1      1297    8    0    1
 -2       604       728       718      3002      3003      2973
 -1      1298    8    0    1
 -2       594       598       729      2679      3004      3005
 -1      1299    8    0    1
 -2       598       726       729      2998      3006      3004
 -1      1300    8    0    1
 -2       478       479       730      2258      3007      3008
 -1      1301    8    0    1
 -2       620       478       730      2686      3008      3009
 -1      1302    8    0    1
 -2       479       622       730      2692      3010      3007
 -1      1303    8    0    1
 -2       475       474       731      2247      3011      3012
 -1      1304    8    0    1
 -2       599       600       732      2664      3013      3014
 -1      1305    8    0    1
 -2       599       732       726      3014      3015      2997
 -1      1306    8    0    1
 -2       485       595       733      2680      3016      3017
 -1      1307    8    0    1
 -2       607       610       734      2682      3018      3019
 -1      1308    8    0    1
 -2       588       582       735      2658      3020      3021
 -1      1309    8    0    1
 -2       609       607       639      2654      3022      3023
 -1      1310    8    0    1
 -2       615       475       736      2644      3024      3025
 -1      1311    8    0    1
 -2       475       731       736      3012      3026      3024
 -1      1312    8    0    1
 -2       476       621       737      2689      3027      3028
 -1      1313    8    0    1
 -2       476       737       593      3028      3029      2589
 -1      1314    8    0    1
 -2       583       709       715      2951      3030      2967
 -1      1315    8    0    1
 -2       624       573       574      2696      2538      3031
 -1      1316    8    0    1
 -2       724       585       626      2992      2703      3032
 -1      1317    8    0    1
 -2       614       594       738      2641      3033      3034
 -1      1318    8    0    1
 -2       594       729       738      3005      3035      3033
 -1      1319    8    0    1
 -2       481       473       625      2701      2700      3036
 -1      1320    8    0    1
 -2       626       485       733      2702      3017      3037
 -1      1321    8    0    1
 -2       498       638       619      2737      3038      2739
 -1      1322    8    0    1
 -2       571       706       739      2942      3039      3040
 -1      1323    8    0    1
 -2       571       739       574      3040      3041      2539
 -1      1324    8    0    1
 -2       605       723       717      2991      3042      2971
 -1      1325    8    0    1
 -2       610       714       734      2966      3043      3018
 -1      1326    8    0    1
 -2       639       607       734      3022      3019      3044
 -1      1327    8    0    1
 -2       735       582       740      3020      3045      3046
 -1      1328    8    0    1
 -2       582       616       740      2660      3047      3045
 -1      1329    8    0    1
 -2       612       615       741      2986      3048      3049
 -1      1330    8    0    1
 -2       484       612       741      2635      3049      3050
 -1      1331    8    0    1
 -2       615       736       741      3025      3051      3048
 -1      1332    8    0    1
 -2       603       596       742      2614      3052      3053
 -1      1333    8    0    1
 -2       580       705       743      2961      3054      3055
 -1      1334    8    0    1
 -2       712       580       743      2958      3055      3056
 -1      1335    8    0    1
 -2       705       663       743      2940      3057      3054
 -1      1336    8    0    1
 -2       716       601       744      2969      3058      3059
 -1      1337    8    0    1
 -2       481       625       623      3036      3060      2693
 -1      1338    8    0    1
 -2       714       611       722      2965      2988      3061
 -1      1339    8    0    1
 -2       618       591       745      2672      3062      3063
 -1      1340    8    0    1
 -2       591       718       745      2974      3064      3062
 -1      1341    8    0    1
 -2       592       716       727      2970      3065      2999
 -1      1342    8    0    1
 -2       596       618       746      2671      3066      3067
 -1      1343    8    0    1
 -2       596       746       742      3067      3068      3052
 -1      1344    8    0    1
 -2       608       609       747      2655      3069      3070
 -1      1345    8    0    1
 -2       665       588       735      2819      3021      3071
 -1      1346    8    0    1
 -2       484       741       720      3050      3072      2979
 -1      1347    8    0    1
 -2       474       593       748      2588      3073      3074
 -1      1348    8    0    1
 -2       731       474       748      3011      3074      3075
 -1      1349    8    0    1
 -2       593       737       748      3029      3076      3073
 -1      1350    8    0    1
 -2       602       606       499      2663      2741      3077
 -1      1351    8    0    1
 -2       723       608       747      2990      3070      3078
 -1      1352    8    0    1
 -2       725       597       749      2995      3079      3080
 -1      1353    8    0    1
 -2       597       614       749      2643      3081      3079
 -1      1354    8    0    1
 -2       595       725       733      2996      3082      3016
 -1      1355    8    0    1
 -2       600       727       732      3000      3083      3013
 -1      1356    8    0    1
 -2       601       603       744      2613      3084      3058
 -1      1357    8    0    1
 -2       622       623       750      2695      3085      3086
 -1      1358    8    0    1
 -2       602       499       619      3077      2740      2678
 -1      1359    8    0    1
 -2       629       628       751      2711      3087      3088
 -1      1360    8    0    1
 -2       630       629       752      2714      3089      3090
 -1      1361    8    0    1
 -2       629       751       752      3088      3091      3089
 -1      1362    8    0    1
 -2       631       630       753      2717      3092      3093
 -1      1363    8    0    1
 -2       630       752       753      3090      3094      3092
 -1      1364    8    0    1
 -2       632       631       754      2720      3095      3096
 -1      1365    8    0    1
 -2       631       753       754      3093      3097      3095
 -1      1366    8    0    1
 -2       633       632       755      2723      3098      3099
 -1      1367    8    0    1
 -2       632       754       755      3096      3100      3098
 -1      1368    8    0    1
 -2       634       633       756      2726      3101      3102
 -1      1369    8    0    1
 -2       633       755       756      3099      3103      3101
 -1      1370    8    0    1
 -2       635       634       757      2729      3104      3105
 -1      1371    8    0    1
 -2       634       756       757      3102      3106      3104
 -1      1372    8    0    1
 -2       636       635       758      2732      3107      3108
 -1      1373    8    0    1
 -2       635       757       758      3105      3109      3107
 -1      1374    8    0    1
 -2       637       636       759      2735      3110      3111
 -1      1375    8    0    1
 -2       636       758       759      3108      3112      3110
 -1      1376    8    0    1
 -2       638       637       760      2738      3113      3114
 -1      1377    8    0    1
 -2       619       638       760      3038      3114      3115
 -1      1378    8    0    1
 -2       637       759       760      3111      3116      3113
 -1      1379    8    0    1
 -2       500       606       717      2742      3117      3118
 -1      1380    8    0    1
 -2       501       500       717      2321      3118      3119
 -1      1381    8    0    1
 -2       502       501       723      2324      3120      3121
 -1      1382    8    0    1
 -2       503       502       747      2327      3122      3123
 -1      1383    8    0    1
 -2       627       720       761      2981      3124      3125
 -1      1384    8    0    1
 -2       642       641       762      2753      3126      3127
 -1      1385    8    0    1
 -2       643       642       763      2756      3128      3129
 -1      1386    8    0    1
 -2       642       762       763      3127      3130      3128
 -1      1387    8    0    1
 -2       644       643       764      2759      3131      3132
 -1      1388    8    0    1
 -2       643       763       764      3129      3133      3131
 -1      1389    8    0    1
 -2       645       644       765      2762      3134      3135
 -1      1390    8    0    1
 -2       644       764       765      3132      3136      3134
 -1      1391    8    0    1
 -2       646       645       766      2765      3137      3138
 -1      1392    8    0    1
 -2       645       765       766      3135      3139      3137
 -1      1393    8    0    1
 -2       647       646       767      2768      3140      3141
 -1      1394    8    0    1
 -2       646       766       767      3138      3142      3140
 -1      1395    8    0    1
 -2       648       647       768      2771      3143      3144
 -1      1396    8    0    1
 -2       647       767       768      3141      3145      3143
 -1      1397    8    0    1
 -2       649       648       769      2774      3146      3147
 -1      1398    8    0    1
 -2       648       768       769      3144      3148      3146
 -1      1399    8    0    1
 -2       650       649       770      2777      3149      3150
 -1      1400    8    0    1
 -2       649       769       770      3147      3151      3149
 -1      1401    8    0    1
 -2       651       650       771      2780      3152      3153
 -1      1402    8    0    1
 -2       650       770       771      3150      3154      3152
 -1      1403    8    0    1
 -2       652       651       772      2783      3155      3156
 -1      1404    8    0    1
 -2       651       771       772      3153      3157      3155
 -1      1405    8    0    1
 -2       653       652       773      2786      3158      3159
 -1      1406    8    0    1
 -2       652       772       773      3156      3160      3158
 -1      1407    8    0    1
 -2       654       653       774      2789      3161      3162
 -1      1408    8    0    1
 -2       653       773       774      3159      3163      3161
 -1      1409    8    0    1
 -2       655       654       775      2792      3164      3165
 -1      1410    8    0    1
 -2       654       774       775      3162      3166      3164
 -1      1411    8    0    1
 -2       656       655       776      2795      3167      3168
 -1      1412    8    0    1
 -2       655       775       776      3165      3169      3167
 -1      1413    8    0    1
 -2       657       656       777      2798      3170      3171
 -1      1414    8    0    1
 -2       656       776       777      3168      3172      3170
 -1      1415    8    0    1
 -2       658       657       778      2801      3173      3174
 -1      1416    8    0    1
 -2       657       777       778      3171      3175      3173
 -1      1417    8    0    1
 -2       659       658       779      2804      3176      3177
 -1      1418    8    0    1
 -2       658       778       779      3174      3178      3176
 -1      1419    8    0    1
 -2       660       659       780      2807      3179      3180
 -1      1420    8    0    1
 -2       659       779       780      3177      3181      3179
 -1      1421    8    0    1
 -2       661       660       781      2810      3182      3183
 -1      1422    8    0    1
 -2       660       780       781      3180      3184      3182
 -1      1423    8    0    1
 -2       662       661       782      2813      3185      3186
 -1      1424    8    0    1
 -2       661       781       782      3183      3187      3185
 -1      1425    8    0    1
 -2       663       662       783      2816      3188      3189
 -1      1426    8    0    1
 -2       743       663       783      3057      3189      3190
 -1      1427    8    0    1
 -2       662       782       783      3186      3191      3188
 -1      1428    8    0    1
 -2       668       669       784      2831      3192      3193
 -1      1429    8    0    1
 -2       667       668       785      2828      3194      3195
 -1      1430    8    0    1
 -2       668       784       785      3193      3196      3194
 -1      1431    8    0    1
 -2       670       671       786      2837      3197      3198
 -1      1432    8    0    1
 -2       671       672       787      2840      3199      3200
 -1      1433    8    0    1
 -2       671       787       786      3200      3201      3197
 -1      1434    8    0    1
 -2       672       673       788      2843      3202      3203
 -1      1435    8    0    1
 -2       672       788       787      3203      3204      3199
 -1      1436    8    0    1
 -2       673       674       789      2846      3205      3206
 -1      1437    8    0    1
 -2       673       789       788      3206      3207      3202
 -1      1438    8    0    1
 -2       674       675       790      2849      3208      3209
 -1      1439    8    0    1
 -2       674       790       789      3209      3210      3205
 -1      1440    8    0    1
 -2       675       676       791      2852      3211      3212
 -1      1441    8    0    1
 -2       675       791       790      3212      3213      3208
 -1      1442    8    0    1
 -2       676       677       749      2855      3214      3215
 -1      1443    8    0    1
 -2       678       679       792      2861      3216      3217
 -1      1444    8    0    1
 -2       679       680       793      2864      3218      3219
 -1      1445    8    0    1
 -2       679       793       792      3219      3220      3216
 -1      1446    8    0    1
 -2       680       681       794      2867      3221      3222
 -1      1447    8    0    1
 -2       680       794       793      3222      3223      3218
 -1      1448    8    0    1
 -2       681       682       795      2870      3224      3225
 -1      1449    8    0    1
 -2       681       795       794      3225      3226      3221
 -1      1450    8    0    1
 -2       682       683       796      2873      3227      3228
 -1      1451    8    0    1
 -2       682       796       795      3228      3229      3224
 -1      1452    8    0    1
 -2       683       684       797      2876      3230      3231
 -1      1453    8    0    1
 -2       683       797       796      3231      3232      3227
 -1      1454    8    0    1
 -2       684       685       798      2879      3233      3234
 -1      1455    8    0    1
 -2       684       798       797      3234      3235      3230
 -1      1456    8    0    1
 -2       685       686       799      2882      3236      3237
 -1      1457    8    0    1
 -2       685       799       798      3237      3238      3233
 -1      1458    8    0    1
 -2       686       687       800      2885      3239      3240
 -1      1459    8    0    1
 -2       686       800       799      3240      3241      3236
 -1      1460    8    0    1
 -2       687       688       801      2888      3242      3243
 -1      1461    8    0    1
 -2       687       801       800      3243      3244      3239
 -1      1462    8    0    1
 -2       688       689       802      2891      3245      3246
 -1      1463    8    0    1
 -2       688       802       801      3246      3247      3242
 -1      1464    8    0    1
 -2       689       690       803      2894      3248      3249
 -1      1465    8    0    1
 -2       689       803       802      3249      3250      3245
 -1      1466    8    0    1
 -2       690       691       804      2897      3251      3252
 -1      1467    8    0    1
 -2       690       804       803      3252      3253      3248
 -1      1468    8    0    1
 -2       691       692       805      2900      3254      3255
 -1      1469    8    0    1
 -2       691       805       804      3255      3256      3251
 -1      1470    8    0    1
 -2       692       693       806      2903      3257      3258
 -1      1471    8    0    1
 -2       692       806       805      3258      3259      3254
 -1      1472    8    0    1
 -2       693       694       807      2906      3260      3261
 -1      1473    8    0    1
 -2       693       807       806      3261      3262      3257
 -1      1474    8    0    1
 -2       694       695       808      2909      3263      3264
 -1      1475    8    0    1
 -2       694       808       807      3264      3265      3260
 -1      1476    8    0    1
 -2       695       696       809      2912      3266      3267
 -1      1477    8    0    1
 -2       695       809       808      3267      3268      3263
 -1      1478    8    0    1
 -2       696       697       810      2915      3269      3270
 -1      1479    8    0    1
 -2       696       810       809      3270      3271      3266
 -1      1480    8    0    1
 -2       697       698       811      2918      3272      3273
 -1      1481    8    0    1
 -2       697       811       810      3273      3274      3269
 -1      1482    8    0    1
 -2       698       699       812      2921      3275      3276
 -1      1483    8    0    1
 -2       698       812       811      3276      3277      3272
 -1      1484    8    0    1
 -2       699       700       813      2924      3278      3279
 -1      1485    8    0    1
 -2       699       813       812      3279      3280      3275
 -1      1486    8    0    1
 -2       700       701       814      2927      3281      3282
 -1      1487    8    0    1
 -2       700       814       813      3282      3283      3278
 -1      1488    8    0    1
 -2       701       702       815      2930      3284      3285
 -1      1489    8    0    1
 -2       701       815       814      3285      3286      3281
 -1      1490    8    0    1
 -2       716       744       816      3059      3287      3288
 -1      1491    8    0    1
 -2       626       733       817      3037      3289      3290
 -1      1492    8    0    1
 -2       621       620       818      2690      3291      3292
 -1      1493    8    0    1
 -2       710       711       819      2957      3293      3294
 -1      1494    8    0    1
 -2       704       707       820      2945      3295      3296
 -1      1495    8    0    1
 -2       724       626       821      3032      3297      3298
 -1      1496    8    0    1
 -2       711       712       822      2960      3299      3300
 -1      1497    8    0    1
 -2       711       822       819      3300      3301      3293
 -1      1498    8    0    1
 -2       707       710       823      2954      3302      3303
 -1      1499    8    0    1
 -2       820       707       823      3295      3303      3304
 -1      1500    8    0    1
 -2       710       819       823      3294      3305      3302
 -1      1501    8    0    1
 -2       639       734       640      3044      3306      2747
 -1      1502    8    0    1
 -2       624       574       739      3031      3041      3307
 -1      1503    8    0    1
 -2       713       666       824      2964      3308      3309
 -1      1504    8    0    1
 -2       616       587       825      2661      3310      3311
 -1      1505    8    0    1
 -2       623       625       826      3060      3312      3313
 -1      1506    8    0    1
 -2       750       623       826      3085      3313      3314
 -1      1507    8    0    1
 -2       625       721       826      2984      3315      3312
 -1      1508    8    0    1
 -2       728       590       619      3001      2677      3316
 -1      1509    8    0    1
 -2       587       715       825      2968      3317      3310
 -1      1510    8    0    1
 -2       734       714       827      3043      3318      3319
 -1      1511    8    0    1
 -2       747       609       639      3069      3023      3320
 -1      1512    8    0    1
 -2       665       735       828      3071      3321      3322
 -1      1513    8    0    1
 -2       669       670       829      2834      3323      3324
 -1      1514    8    0    1
 -2       784       669       829      3192      3324      3325
 -1      1515    8    0    1
 -2       670       786       829      3198      3326      3323
 -1      1516    8    0    1
 -2       715       709       830      3030      3327      3328
 -1      1517    8    0    1
 -2       666       664       831      2823      3329      3330
 -1      1518    8    0    1
 -2       666       831       824      3330      3331      3308
 -1      1519    8    0    1
 -2       640       734       827      3306      3319      3332
 -1      1520    8    0    1
 -2       616       825       832      3311      3333      3334
 -1      1521    8    0    1
 -2       727       716       833      3065      3335      3336
 -1      1522    8    0    1
 -2       716       816       833      3288      3337      3335
 -1      1523    8    0    1
 -2       722       665       834      2989      3338      3339
 -1      1524    8    0    1
 -2       665       828       834      3322      3340      3338
 -1      1525    8    0    1
 -2       709       724       835      2994      3341      3342
 -1      1526    8    0    1
 -2       825       715       836      3317      3343      3344
 -1      1527    8    0    1
 -2       832       825       836      3333      3344      3345
 -1      1528    8    0    1
 -2       715       830       836      3328      3346      3343
 -1      1529    8    0    1
 -2       729       726       837      3006      3347      3348
 -1      1530    8    0    1
 -2       744       603       742      3084      3053      3349
 -1      1531    8    0    1
 -2       628       627       838      2708      3350      3351
 -1      1532    8    0    1
 -2       628       838       751      3351      3352      3087
 -1      1533    8    0    1
 -2       726       732       839      3015      3353      3354
 -1      1534    8    0    1
 -2       732       727       840      3083      3355      3356
 -1      1535    8    0    1
 -2       720       741       841      3072      3357      3358
 -1      1536    8    0    1
 -2       741       736       841      3051      3359      3357
 -1      1537    8    0    1
 -2       714       722       842      3061      3360      3361
 -1      1538    8    0    1
 -2       733       725       843      3082      3362      3363
 -1      1539    8    0    1
 -2       744       742       844      3349      3364      3365
 -1      1540    8    0    1
 -2       737       621       845      3027      3366      3367
 -1      1541    8    0    1
 -2       621       818       845      3292      3368      3366
 -1      1542    8    0    1
 -2       761       720       841      3124      3358      3369
 -1      1543    8    0    1
 -2       738       729       846      3035      3370      3371
 -1      1544    8    0    1
 -2       729       837       846      3348      3372      3370
 -1      1545    8    0    1
 -2       736       731       847      3026      3373      3374
 -1      1546    8    0    1
 -2       736       847       841      3374      3375      3359
 -1      1547    8    0    1
 -2       726       839       837      3354      3376      3347
 -1      1548    8    0    1
 -2       739       706       848      3039      3377      3378
 -1      1549    8    0    1
 -2       747       502       723      3122      3121      3078
 -1      1550    8    0    1
 -2       501       717       723      3119      3042      3120
 -1      1551    8    0    1
 -2       503       747       639      3123      3320      2743
 -1      1552    8    0    1
 -2       627       761       838      3125      3379      3350
 -1      1553    8    0    1
 -2       641       640       827      2750      3332      3380
 -1      1554    8    0    1
 -2       731       748       849      3075      3381      3382
 -1      1555    8    0    1
 -2       731       849       847      3382      3383      3373
 -1      1556    8    0    1
 -2       844       742       850      3364      3384      3385
 -1      1557    8    0    1
 -2       742       746       850      3068      3386      3384
 -1      1558    8    0    1
 -2       740       616       832      3047      3334      3387
 -1      1559    8    0    1
 -2       667       785       851      3195      3388      3389
 -1      1560    8    0    1
 -2       667       851       719      3389      3390      2978
 -1      1561    8    0    1
 -2       791       676       749      3211      3215      3391
 -1      1562    8    0    1
 -2       677       678       852      2858      3392      3393
 -1      1563    8    0    1
 -2       722       834       842      3339      3394      3360
 -1      1564    8    0    1
 -2       815       702       853      3284      3395      3396
 -1      1565    8    0    1
 -2       702       703       853      2933      3397      3395
 -1      1566    8    0    1
 -2       816       744       844      3287      3365      3398
 -1      1567    8    0    1
 -2       706       708       854      2948      3399      3400
 -1      1568    8    0    1
 -2       706       854       848      3400      3401      3377
 -1      1569    8    0    1
 -2       626       817       821      3290      3402      3297
 -1      1570    8    0    1
 -2       714       842       827      3361      3403      3318
 -1      1571    8    0    1
 -2       830       709       835      3327      3342      3404
 -1      1572    8    0    1
 -2       724       821       835      3298      3405      3341
 -1      1573    8    0    1
 -2       708       704       855      2949      3406      3407
 -1      1574    8    0    1
 -2       854       708       855      3399      3407      3408
 -1      1575    8    0    1
 -2       704       820       855      3296      3409      3406
 -1      1576    8    0    1
 -2       843       725       852      3362      3410      3411
 -1      1577    8    0    1
 -2       712       743       856      3056      3412      3413
 -1      1578    8    0    1
 -2       822       712       856      3299      3413      3414
 -1      1579    8    0    1
 -2       743       783       856      3190      3415      3412
 -1      1580    8    0    1
 -2       622       750       857      3086      3416      3417
 -1      1581    8    0    1
 -2       622       857       730      3417      3418      3010
 -1      1582    8    0    1
 -2       727       833       840      3336      3419      3355
 -1      1583    8    0    1
 -2       745       718       858      3064      3420      3421
 -1      1584    8    0    1
 -2       746       618       859      3066      3422      3423
 -1      1585    8    0    1
 -2       618       745       859      3063      3424      3422
 -1      1586    8    0    1
 -2       828       735       860      3321      3425      3426
 -1      1587    8    0    1
 -2       735       740       860      3046      3427      3425
 -1      1588    8    0    1
 -2       831       664       861      3329      3428      3429
 -1      1589    8    0    1
 -2       664       719       861      2977      3430      3428
 -1      1590    8    0    1
 -2       818       620       862      3291      3431      3432
 -1      1591    8    0    1
 -2       620       730       862      3009      3433      3431
 -1      1592    8    0    1
 -2       624       739       863      3307      3434      3435
 -1      1593    8    0    1
 -2       703       624       863      2934      3435      3436
 -1      1594    8    0    1
 -2       739       848       863      3378      3437      3434
 -1      1595    8    0    1
 -2       817       733       843      3289      3363      3438
 -1      1596    8    0    1
 -2       721       713       864      2985      3439      3440
 -1      1597    8    0    1
 -2       826       721       864      3315      3440      3441
 -1      1598    8    0    1
 -2       713       824       864      3309      3442      3439
 -1      1599    8    0    1
 -2       749       614       738      3081      3034      3443
 -1      1600    8    0    1
 -2       762       641       827      3126      3380      3444
 -1      1601    8    0    1
 -2       718       728       858      3003      3445      3420
 -1      1602    8    0    1
 -2       858       728       760      3445      3446      3447
 -1      1603    8    0    1
 -2       839       732       840      3353      3356      3448
 -1      1604    8    0    1
 -2       728       619       760      3316      3115      3446
 -1      1605    8    0    1
 -2       725       749       852      3080      3449      3410
 -1      1606    8    0    1
 -2       852       678       792      3392      3217      3450
 -1      1607    8    0    1
 -2       752       751       865      3091      3451      3452
 -1      1608    8    0    1
 -2       753       752       866      3094      3453      3454
 -1      1609    8    0    1
 -2       752       865       866      3452      3455      3453
 -1      1610    8    0    1
 -2       754       753       867      3097      3456      3457
 -1      1611    8    0    1
 -2       753       866       867      3454      3458      3456
 -1      1612    8    0    1
 -2       755       754       868      3100      3459      3460
 -1      1613    8    0    1
 -2       754       867       868      3457      3461      3459
 -1      1614    8    0    1
 -2       756       755       869      3103      3462      3463
 -1      1615    8    0    1
 -2       755       868       869      3460      3464      3462
 -1      1616    8    0    1
 -2       757       756       870      3106      3465      3466
 -1      1617    8    0    1
 -2       756       869       870      3463      3467      3465
 -1      1618    8    0    1
 -2       758       757       871      3109      3468      3469
 -1      1619    8    0    1
 -2       757       870       871      3466      3470      3468
 -1      1620    8    0    1
 -2       759       758       872      3112      3471      3472
 -1      1621    8    0    1
 -2       758       871       872      3469      3473      3471
 -1      1622    8    0    1
 -2       749       738       791      3443      3474      3391
 -1      1623    8    0    1
 -2       841       847       873      3375      3475      3476
 -1      1624    8    0    1
 -2       841       873       761      3476      3477      3369
 -1      1625    8    0    1
 -2       764       763       874      3133      3478      3479
 -1      1626    8    0    1
 -2       765       764       875      3136      3480      3481
 -1      1627    8    0    1
 -2       764       874       875      3479      3482      3480
 -1      1628    8    0    1
 -2       766       765       876      3139      3483      3484
 -1      1629    8    0    1
 -2       765       875       876      3481      3485      3483
 -1      1630    8    0    1
 -2       767       766       877      3142      3486      3487
 -1      1631    8    0    1
 -2       766       876       877      3484      3488      3486
 -1      1632    8    0    1
 -2       768       767       878      3145      3489      3490
 -1      1633    8    0    1
 -2       767       877       878      3487      3491      3489
 -1      1634    8    0    1
 -2       769       768       879      3148      3492      3493
 -1      1635    8    0    1
 -2       768       878       879      3490      3494      3492
 -1      1636    8    0    1
 -2       770       769       880      3151      3495      3496
 -1      1637    8    0    1
 -2       769       879       880      3493      3497      3495
 -1      1638    8    0    1
 -2       771       770       881      3154      3498      3499
 -1      1639    8    0    1
 -2       770       880       881      3496      3500      3498
 -1      1640    8    0    1
 -2       772       771       882      3157      3501      3502
 -1      1641    8    0    1
 -2       771       881       882      3499      3503      3501
 -1      1642    8    0    1
 -2       773       772       883      3160      3504      3505
 -1      1643    8    0    1
 -2       772       882       883      3502      3506      3504
 -1      1644    8    0    1
 -2       774       773       884      3163      3507      3508
 -1      1645    8    0    1
 -2       773       883       884      3505      3509      3507
 -1      1646    8    0    1
 -2       775       774       885      3166      3510      3511
 -1      1647    8    0    1
 -2       774       884       885      3508      3512      3510
 -1      1648    8    0    1
 -2       776       775       886      3169      3513      3514
 -1      1649    8    0    1
 -2       775       885       886      3511      3515      3513
 -1      1650    8    0    1
 -2       777       776       887      3172      3516      3517
 -1      1651    8    0    1
 -2       776       886       887      3514      3518      3516
 -1      1652    8    0    1
 -2       778       777       888      3175      3519      3520
 -1      1653    8    0    1
 -2       777       887       888      3517      3521      3519
 -1      1654    8    0    1
 -2       779       778       889      3178      3522      3523
 -1      1655    8    0    1
 -2       778       888       889      3520      3524      3522
 -1      1656    8    0    1
 -2       780       779       890      3181      3525      3526
 -1      1657    8    0    1
 -2       779       889       890      3523      3527      3525
 -1      1658    8    0    1
 -2       781       780       891      3184      3528      3529
 -1      1659    8    0    1
 -2       780       890       891      3526      3530      3528
 -1      1660    8    0    1
 -2       782       781       892      3187      3531      3532
 -1      1661    8    0    1
 -2       781       891       892      3529      3533      3531
 -1      1662    8    0    1
 -2       785       784       893      3196      3534      3535
 -1      1663    8    0    1
 -2       787       788       894      3204      3536      3537
 -1      1664    8    0    1
 -2       786       787       895      3201      3538      3539
 -1      1665    8    0    1
 -2       787       894       895      3537      3540      3538
 -1      1666    8    0    1
 -2       789       790       896      3210      3541      3542
 -1      1667    8    0    1
 -2       677       852       749      3393      3449      3214
 -1      1668    8    0    1
 -2       791       738       846      3474      3371      3543
 -1      1669    8    0    1
 -2       842       834       897      3394      3544      3545
 -1      1670    8    0    1
 -2       795       796       898      3229      3546      3547
 -1      1671    8    0    1
 -2       796       797       899      3232      3548      3549
 -1      1672    8    0    1
 -2       796       899       898      3549      3550      3546
 -1      1673    8    0    1
 -2       797       798       900      3235      3551      3552
 -1      1674    8    0    1
 -2       797       900       899      3552      3553      3548
 -1      1675    8    0    1
 -2       798       799       901      3238      3554      3555
 -1      1676    8    0    1
 -2       798       901       900      3555      3556      3551
 -1      1677    8    0    1
 -2       799       800       902      3241      3557      3558
 -1      1678    8    0    1
 -2       799       902       901      3558      3559      3554
 -1      1679    8    0    1
 -2       800       801       903      3244      3560      3561
 -1      1680    8    0    1
 -2       800       903       902      3561      3562      3557
 -1      1681    8    0    1
 -2       801       802       904      3247      3563      3564
 -1      1682    8    0    1
 -2       801       904       903      3564      3565      3560
 -1      1683    8    0    1
 -2       802       803       905      3250      3566      3567
 -1      1684    8    0    1
 -2       802       905       904      3567      3568      3563
 -1      1685    8    0    1
 -2       803       804       906      3253      3569      3570
 -1      1686    8    0    1
 -2       803       906       905      3570      3571      3566
 -1      1687    8    0    1
 -2       804       805       907      3256      3572      3573
 -1      1688    8    0    1
 -2       804       907       906      3573      3574      3569
 -1      1689    8    0    1
 -2       805       806       908      3259      3575      3576
 -1      1690    8    0    1
 -2       805       908       907      3576      3577      3572
 -1      1691    8    0    1
 -2       806       807       909      3262      3578      3579
 -1      1692    8    0    1
 -2       806       909       908      3579      3580      3575
 -1      1693    8    0    1
 -2       807       808       910      3265      3581      3582
 -1      1694    8    0    1
 -2       807       910       909      3582      3583      3578
 -1      1695    8    0    1
 -2       808       809       911      3268      3584      3585
 -1      1696    8    0    1
 -2       808       911       910      3585      3586      3581
 -1      1697    8    0    1
 -2       809       810       912      3271      3587      3588
 -1      1698    8    0    1
 -2       809       912       911      3588      3589      3584
 -1      1699    8    0    1
 -2       810       811       913      3274      3590      3591
 -1      1700    8    0    1
 -2       810       913       912      3591      3592      3587
 -1      1701    8    0    1
 -2       811       812       914      3277      3593      3594
 -1      1702    8    0    1
 -2       811       914       913      3594      3595      3590
 -1      1703    8    0    1
 -2       812       813       915      3280      3596      3597
 -1      1704    8    0    1
 -2       812       915       914      3597      3598      3593
 -1      1705    8    0    1
 -2       813       814       916      3283      3599      3600
 -1      1706    8    0    1
 -2       813       916       915      3600      3601      3596
 -1      1707    8    0    1
 -2       814       815       917      3286      3602      3603
 -1      1708    8    0    1
 -2       814       917       916      3603      3604      3599
 -1      1709    8    0    1
 -2       852       792       843      3450      3605      3411
 -1      1710    8    0    1
 -2       816       844       918      3398      3606      3607
 -1      1711    8    0    1
 -2       817       843       792      3438      3605      3608
 -1      1712    8    0    1
 -2       819       822       919      3301      3609      3610
 -1      1713    8    0    1
 -2       827       842       762      3403      3611      3444
 -1      1714    8    0    1
 -2       837       839       896      3376      3612      3613
 -1      1715    8    0    1
 -2       830       835       920      3404      3614      3615
 -1      1716    8    0    1
 -2       824       831       921      3331      3616      3617
 -1      1717    8    0    1
 -2       833       816       922      3337      3618      3619
 -1      1718    8    0    1
 -2       834       828       923      3340      3620      3621
 -1      1719    8    0    1
 -2       748       737       924      3076      3622      3623
 -1      1720    8    0    1
 -2       849       748       924      3381      3623      3624
 -1      1721    8    0    1
 -2       737       845       924      3367      3625      3622
 -1      1722    8    0    1
 -2       740       832       925      3387      3626      3627
 -1      1723    8    0    1
 -2       838       761       873      3379      3477      3628
 -1      1724    8    0    1
 -2       788       789       926      3207      3629      3630
 -1      1725    8    0    1
 -2       894       788       926      3536      3630      3631
 -1      1726    8    0    1
 -2       789       896       926      3542      3632      3629
 -1      1727    8    0    1
 -2       840       833       927      3419      3633      3634
 -1      1728    8    0    1
 -2       839       840       928      3448      3635      3636
 -1      1729    8    0    1
 -2       606       589       717      2622      2972      3117
 -1      1730    8    0    1
 -2       835       821       929      3405      3637      3638
 -1      1731    8    0    1
 -2       751       838       930      3352      3639      3640
 -1      1732    8    0    1
 -2       751       930       865      3640      3641      3451
 -1      1733    8    0    1
 -2       817       792       793      3608      3220      3642
 -1      1734    8    0    1
 -2       762       842       897      3611      3545      3643
 -1      1735    8    0    1
 -2       817       793       821      3642      3644      3402
 -1      1736    8    0    1
 -2       821       793       794      3644      3223      3645
 -1      1737    8    0    1
 -2       821       794       929      3645      3646      3637
 -1      1738    8    0    1
 -2       844       850       931      3385      3647      3648
 -1      1739    8    0    1
 -2       844       931       918      3648      3649      3606
 -1      1740    8    0    1
 -2       927       833       922      3633      3619      3650
 -1      1741    8    0    1
 -2       760       759       858      3116      3651      3447
 -1      1742    8    0    1
 -2       873       847       932      3475      3652      3653
 -1      1743    8    0    1
 -2       847       849       932      3383      3654      3652
 -1      1744    8    0    1
 -2       845       818       933      3368      3655      3656
 -1      1745    8    0    1
 -2       874       763       897      3478      3657      3658
 -1      1746    8    0    1
 -2       925       832       934      3626      3659      3660
 -1      1747    8    0    1
 -2       730       857       862      3418      3661      3433
 -1      1748    8    0    1
 -2       785       893       935      3535      3662      3663
 -1      1749    8    0    1
 -2       785       935       851      3663      3664      3388
 -1      1750    8    0    1
 -2       893       784       936      3534      3665      3666
 -1      1751    8    0    1
 -2       784       829       936      3325      3667      3665
 -1      1752    8    0    1
 -2       783       782       937      3191      3668      3669
 -1      1753    8    0    1
 -2       856       783       937      3415      3669      3670
 -1      1754    8    0    1
 -2       782       892       937      3532      3671      3668
 -1      1755    8    0    1
 -2       840       927       928      3634      3672      3635
 -1      1756    8    0    1
 -2       850       746       938      3386      3673      3674
 -1      1757    8    0    1
 -2       746       859       938      3423      3675      3673
 -1      1758    8    0    1
 -2       857       750       939      3416      3676      3677
 -1      1759    8    0    1
 -2       786       895       940      3539      3678      3679
 -1      1760    8    0    1
 -2       786       940       829      3679      3680      3326
 -1      1761    8    0    1
 -2       896       790       837      3541      3681      3613
 -1      1762    8    0    1
 -2       921       831       941      3616      3682      3683
 -1      1763    8    0    1
 -2       831       861       941      3429      3684      3682
 -1      1764    8    0    1
 -2       790       791       846      3213      3543      3685
 -1      1765    8    0    1
 -2       897       834       923      3544      3621      3686
 -1      1766    8    0    1
 -2       795       898       929      3547      3687      3688
 -1      1767    8    0    1
 -2       762       897       763      3643      3657      3130
 -1      1768    8    0    1
 -2       819       919       942      3610      3689      3690
 -1      1769    8    0    1
 -2       819       942       823      3690      3691      3305
 -1      1770    8    0    1
 -2       917       815       943      3602      3692      3693
 -1      1771    8    0    1
 -2       815       853       943      3396      3694      3692
 -1      1772    8    0    1
 -2       920       835       929      3614      3638      3695
 -1      1773    8    0    1
 -2       853       703       863      3397      3436      3696
 -1      1774    8    0    1
 -2       816       918       922      3607      3697      3618
 -1      1775    8    0    1
 -2       855       820       944      3409      3698      3699
 -1      1776    8    0    1
 -2       822       856       937      3414      3670      3700
 -1      1777    8    0    1
 -2       719       851       861      3390      3701      3430
 -1      1778    8    0    1
 -2       896       839       928      3612      3636      3702
 -1      1779    8    0    1
 -2       750       826       945      3314      3703      3704
 -1      1780    8    0    1
 -2       939       750       945      3676      3704      3705
 -1      1781    8    0    1
 -2       826       864       945      3441      3706      3703
 -1      1782    8    0    1
 -2       830       920       946      3615      3707      3708
 -1      1783    8    0    1
 -2       858       759       947      3651      3709      3710
 -1      1784    8    0    1
 -2       745       858       947      3421      3710      3711
 -1      1785    8    0    1
 -2       759       872       947      3472      3712      3709
 -1      1786    8    0    1
 -2       934       832       836      3659      3345      3713
 -1      1787    8    0    1
 -2       933       818       948      3655      3714      3715
 -1      1788    8    0    1
 -2       818       862       948      3432      3716      3714
 -1      1789    8    0    1
 -2       944       820       949      3698      3717      3718
 -1      1790    8    0    1
 -2       820       823       949      3304      3719      3717
 -1      1791    8    0    1
 -2       822       937       919      3700      3720      3609
 -1      1792    8    0    1
 -2       745       947       859      3711      3721      3424
 -1      1793    8    0    1
 -2       794       795       929      3226      3688      3646
 -1      1794    8    0    1
 -2       824       921       950      3617      3722      3723
 -1      1795    8    0    1
 -2       860       740       951      3427      3724      3725
 -1      1796    8    0    1
 -2       740       925       951      3627      3726      3724
 -1      1797    8    0    1
 -2       828       860       952      3426      3727      3728
 -1      1798    8    0    1
 -2       828       952       923      3728      3729      3620
 -1      1799    8    0    1
 -2       864       824       950      3442      3723      3730
 -1      1800    8    0    1
 -2       838       873       930      3628      3731      3639
 -1      1801    8    0    1
 -2       836       830       953      3346      3732      3733
 -1      1802    8    0    1
 -2       934       836       953      3713      3733      3734
 -1      1803    8    0    1
 -2       830       946       953      3708      3735      3732
 -1      1804    8    0    1
 -2       848       854       954      3401      3736      3737
 -1      1805    8    0    1
 -2       848       954       943      3737      3738      3739
 -1      1806    8    0    1
 -2       954       854       955      3736      3740      3741
 -1      1807    8    0    1
 -2       854       855       955      3408      3742      3740
 -1      1808    8    0    1
 -2       867       866       956      3458      3743      3744
 -1      1809    8    0    1
 -2       868       867       957      3461      3745      3746
 -1      1810    8    0    1
 -2       867       956       957      3744      3747      3745
 -1      1811    8    0    1
 -2       869       868       958      3464      3748      3749
 -1      1812    8    0    1
 -2       868       957       958      3746      3750      3748
 -1      1813    8    0    1
 -2       870       869       959      3467      3751      3752
 -1      1814    8    0    1
 -2       869       958       959      3749      3753      3751
 -1      1815    8    0    1
 -2       871       870       960      3470      3754      3755
 -1      1816    8    0    1
 -2       870       959       960      3752      3756      3754
 -1      1817    8    0    1
 -2       872       871       961      3473      3757      3758
 -1      1818    8    0    1
 -2       871       960       961      3755      3759      3757
 -1      1819    8    0    1
 -2       875       874       962      3482      3760      3761
 -1      1820    8    0    1
 -2       874       897       923      3658      3686      3762
 -1      1821    8    0    1
 -2       925       934       963      3660      3763      3764
 -1      1822    8    0    1
 -2       862       857       964      3661      3765      3766
 -1      1823    8    0    1
 -2       948       862       964      3716      3766      3767
 -1      1824    8    0    1
 -2       857       939       964      3677      3768      3765
 -1      1825    8    0    1
 -2       876       875       965      3485      3769      3770
 -1      1826    8    0    1
 -2       875       962       965      3761      3771      3769
 -1      1827    8    0    1
 -2       877       876       966      3488      3772      3773
 -1      1828    8    0    1
 -2       876       965       966      3770      3774      3772
 -1      1829    8    0    1
 -2       878       877       967      3491      3775      3776
 -1      1830    8    0    1
 -2       877       966       967      3773      3777      3775
 -1      1831    8    0    1
 -2       879       878       968      3494      3778      3779
 -1      1832    8    0    1
 -2       878       967       968      3776      3780      3778
 -1      1833    8    0    1
 -2       880       879       969      3497      3781      3782
 -1      1834    8    0    1
 -2       879       968       969      3779      3783      3781
 -1      1835    8    0    1
 -2       881       880       970      3500      3784      3785
 -1      1836    8    0    1
 -2       880       969       970      3782      3786      3784
 -1      1837    8    0    1
 -2       882       881       971      3503      3787      3788
 -1      1838    8    0    1
 -2       881       970       971      3785      3789      3787
 -1      1839    8    0    1
 -2       883       882       972      3506      3790      3791
 -1      1840    8    0    1
 -2       882       971       972      3788      3792      3790
 -1      1841    8    0    1
 -2       884       883       973      3509      3793      3794
 -1      1842    8    0    1
 -2       883       972       973      3791      3795      3793
 -1      1843    8    0    1
 -2       885       884       974      3512      3796      3797
 -1      1844    8    0    1
 -2       884       973       974      3794      3798      3796
 -1      1845    8    0    1
 -2       886       885       975      3515      3799      3800
 -1      1846    8    0    1
 -2       885       974       975      3797      3801      3799
 -1      1847    8    0    1
 -2       887       886       976      3518      3802      3803
 -1      1848    8    0    1
 -2       886       975       976      3800      3804      3802
 -1      1849    8    0    1
 -2       888       887       977      3521      3805      3806
 -1      1850    8    0    1
 -2       887       976       977      3803      3807      3805
 -1      1851    8    0    1
 -2       889       888       978      3524      3808      3809
 -1      1852    8    0    1
 -2       888       977       978      3806      3810      3808
 -1      1853    8    0    1
 -2       890       889       979      3527      3811      3812
 -1      1854    8    0    1
 -2       889       978       979      3809      3813      3811
 -1      1855    8    0    1
 -2       891       890       980      3530      3814      3815
 -1      1856    8    0    1
 -2       890       979       980      3812      3816      3814
 -1      1857    8    0    1
 -2       892       891       981      3533      3817      3818
 -1      1858    8    0    1
 -2       891       980       981      3815      3819      3817
 -1      1859    8    0    1
 -2       937       892       919      3671      3820      3720
 -1      1860    8    0    1
 -2       946       920       982      3707      3821      3822
 -1      1861    8    0    1
 -2       900       901       983      3556      3823      3824
 -1      1862    8    0    1
 -2       929       898       920      3687      3825      3695
 -1      1863    8    0    1
 -2       898       899       982      3550      3826      3827
 -1      1864    8    0    1
 -2       901       902       984      3559      3828      3829
 -1      1865    8    0    1
 -2       901       984       983      3829      3830      3823
 -1      1866    8    0    1
 -2       902       903       985      3562      3831      3832
 -1      1867    8    0    1
 -2       902       985       984      3832      3833      3828
 -1      1868    8    0    1
 -2       903       904       986      3565      3834      3835
 -1      1869    8    0    1
 -2       903       986       985      3835      3836      3831
 -1      1870    8    0    1
 -2       904       905       987      3568      3837      3838
 -1      1871    8    0    1
 -2       904       987       986      3838      3839      3834
 -1      1872    8    0    1
 -2       905       906       988      3571      3840      3841
 -1      1873    8    0    1
 -2       905       988       987      3841      3842      3837
 -1      1874    8    0    1
 -2       906       907       989      3574      3843      3844
 -1      1875    8    0    1
 -2       906       989       988      3844      3845      3840
 -1      1876    8    0    1
 -2       907       908       990      3577      3846      3847
 -1      1877    8    0    1
 -2       907       990       989      3847      3848      3843
 -1      1878    8    0    1
 -2       908       909       991      3580      3849      3850
 -1      1879    8    0    1
 -2       908       991       990      3850      3851      3846
 -1      1880    8    0    1
 -2       909       910       992      3583      3852      3853
 -1      1881    8    0    1
 -2       909       992       991      3853      3854      3849
 -1      1882    8    0    1
 -2       910       911       993      3586      3855      3856
 -1      1883    8    0    1
 -2       910       993       992      3856      3857      3852
 -1      1884    8    0    1
 -2       911       912       994      3589      3858      3859
 -1      1885    8    0    1
 -2       911       994       993      3859      3860      3855
 -1      1886    8    0    1
 -2       912       913       995      3592      3861      3862
 -1      1887    8    0    1
 -2       912       995       994      3862      3863      3858
 -1      1888    8    0    1
 -2       913       914       996      3595      3864      3865
 -1      1889    8    0    1
 -2       913       996       995      3865      3866      3861
 -1      1890    8    0    1
 -2       914       915       997      3598      3867      3868
 -1      1891    8    0    1
 -2       914       997       996      3868      3869      3864
 -1      1892    8    0    1
 -2       915       916       998      3601      3870      3871
 -1      1893    8    0    1
 -2       915       998       997      3871      3872      3867
 -1      1894    8    0    1
 -2       916       917       999      3604      3873      3874
 -1      1895    8    0    1
 -2       916       999       998      3874      3875      3870
 -1      1896    8    0    1
 -2       927       922      1000      3650      3876      3877
 -1      1897    8    0    1
 -2       917       943      1001      3693      3878      3879
 -1      1898    8    0    1
 -2       999       917      1001      3873      3879      3880
 -1      1899    8    0    1
 -2       943       954      1001      3738      3881      3878
 -1      1900    8    0    1
 -2       845       933      1002      3656      3882      3883
 -1      1901    8    0    1
 -2       947       872      1003      3712      3884      3885
 -1      1902    8    0    1
 -2       859       947      1003      3721      3885      3886
 -1      1903    8    0    1
 -2       872       961      1003      3758      3887      3884
 -1      1904    8    0    1
 -2       837       790       846      3681      3685      3372
 -1      1905    8    0    1
 -2       896       928       926      3702      3888      3632
 -1      1906    8    0    1
 -2       861       851      1004      3701      3889      3890
 -1      1907    8    0    1
 -2       851       935      1004      3664      3891      3889
 -1      1908    8    0    1
 -2       950       921      1005      3722      3892      3893
 -1      1909    8    0    1
 -2       863       848       943      3437      3739      3894
 -1      1910    8    0    1
 -2       930       873      1006      3731      3895      3896
 -1      1911    8    0    1
 -2       873       932      1006      3653      3897      3895
 -1      1912    8    0    1
 -2       919       892       981      3820      3818      3898
 -1      1913    8    0    1
 -2       922       918      1007      3697      3899      3900
 -1      1914    8    0    1
 -2       899       900      1008      3553      3901      3902
 -1      1915    8    0    1
 -2       982       899      1008      3826      3902      3903
 -1      1916    8    0    1
 -2       900       983      1008      3824      3904      3901
 -1      1917    8    0    1
 -2       855       944       955      3699      3905      3742
 -1      1918    8    0    1
 -2       895       894      1009      3540      3906      3907
 -1      1919    8    0    1
 -2       865       930      1006      3641      3896      3908
 -1      1920    8    0    1
 -2       866       865      1010      3455      3909      3910
 -1      1921    8    0    1
 -2       866      1010       956      3910      3911      3743
 -1      1922    8    0    1
 -2       874       923       962      3762      3912      3760
 -1      1923    8    0    1
 -2       920       898       982      3825      3827      3821
 -1      1924    8    0    1
 -2       962       923       952      3912      3729      3913
 -1      1925    8    0    1
 -2       931       850      1011      3647      3914      3915
 -1      1926    8    0    1
 -2       850       938      1011      3674      3916      3914
 -1      1927    8    0    1
 -2       942       919       981      3689      3898      3917
 -1      1928    8    0    1
 -2       949       823       942      3719      3691      3918
 -1      1929    8    0    1
 -2       963       934      1012      3763      3919      3920
 -1      1930    8    0    1
 -2       934       953      1012      3734      3921      3919
 -1      1931    8    0    1
 -2       935       893      1013      3662      3922      3923
 -1      1932    8    0    1
 -2       936       829       940      3667      3680      3924
 -1      1933    8    0    1
 -2       938       859      1003      3675      3886      3925
 -1      1934    8    0    1
 -2       955       944      1014      3905      3926      3927
 -1      1935    8    0    1
 -2       893       936      1015      3666      3928      3929
 -1      1936    8    0    1
 -2       893      1015      1013      3929      3930      3922
 -1      1937    8    0    1
 -2       941       861      1004      3684      3890      3931
 -1      1938    8    0    1
 -2       925       963       951      3764      3932      3726
 -1      1939    8    0    1
 -2       927      1000      1009      3877      3933      3934
 -1      1940    8    0    1
 -2      1002       933      1016      3882      3935      3936
 -1      1941    8    0    1
 -2      1000       922      1007      3876      3900      3937
 -1      1942    8    0    1
 -2       943       853       863      3694      3696      3894
 -1      1943    8    0    1
 -2       928       927      1017      3672      3938      3939
 -1      1944    8    0    1
 -2       940       895      1018      3678      3940      3941
 -1      1945    8    0    1
 -2       895      1009      1018      3907      3942      3940
 -1      1946    8    0    1
 -2       860       951       952      3725      3943      3727
 -1      1947    8    0    1
 -2       946       982      1019      3822      3944      3945
 -1      1948    8    0    1
 -2       982      1008      1019      3903      3946      3944
 -1      1949    8    0    1
 -2       946      1019       953      3945      3947      3735
 -1      1950    8    0    1
 -2      1005       921      1020      3892      3948      3949
 -1      1951    8    0    1
 -2       921       941      1020      3683      3950      3948
 -1      1952    8    0    1
 -2       918       931      1021      3649      3951      3952
 -1      1953    8    0    1
 -2       918      1021      1007      3952      3953      3899
 -1      1954    8    0    1
 -2       944       949      1022      3718      3954      3955
 -1      1955    8    0    1
 -2       944      1022      1014      3955      3956      3926
 -1      1956    8    0    1
 -2       933       948      1023      3715      3957      3958
 -1      1957    8    0    1
 -2       933      1023      1016      3958      3959      3935
 -1      1958    8    0    1
 -2       924       845      1002      3625      3883      3960
 -1      1959    8    0    1
 -2       865      1006      1010      3908      3961      3909
 -1      1960    8    0    1
 -2       954       955      1024      3741      3962      3963
 -1      1961    8    0    1
 -2      1001       954      1024      3881      3963      3964
 -1      1962    8    0    1
 -2       955      1014      1024      3927      3965      3962
 -1      1963    8    0    1
 -2       926       928      1017      3888      3939      3966
 -1      1964    8    0    1
 -2       965       962      1025      3771      3967      3968
 -1      1965    8    0    1
 -2       958       957      1026      3750      3969      3970
 -1      1966    8    0    1
 -2       959       958      1027      3753      3971      3972
 -1      1967    8    0    1
 -2       958      1026      1027      3970      3973      3971
 -1      1968    8    0    1
 -2       960       959      1028      3756      3974      3975
 -1      1969    8    0    1
 -2       959      1027      1028      3972      3976      3974
 -1      1970    8    0    1
 -2       932       849      1029      3654      3977      3978
 -1      1971    8    0    1
 -2       941      1004      1030      3931      3979      3980
 -1      1972    8    0    1
 -2       941      1030      1020      3980      3981      3950
 -1      1973    8    0    1
 -2       985       986      1031      3836      3982      3983
 -1      1974    8    0    1
 -2       936       940      1032      3924      3984      3985
 -1      1975    8    0    1
 -2      1015       936      1032      3928      3985      3986
 -1      1976    8    0    1
 -2       940      1018      1032      3941      3987      3984
 -1      1977    8    0    1
 -2       966       965      1033      3774      3988      3989
 -1      1978    8    0    1
 -2       965      1025      1033      3968      3990      3988
 -1      1979    8    0    1
 -2       967       966      1034      3777      3991      3992
 -1      1980    8    0    1
 -2       966      1033      1034      3989      3993      3991
 -1      1981    8    0    1
 -2       968       967      1035      3780      3994      3995
 -1      1982    8    0    1
 -2       967      1034      1035      3992      3996      3994
 -1      1983    8    0    1
 -2       969       968      1036      3783      3997      3998
 -1      1984    8    0    1
 -2       968      1035      1036      3995      3999      3997
 -1      1985    8    0    1
 -2       970       969      1037      3786      4000      4001
 -1      1986    8    0    1
 -2       969      1036      1037      3998      4002      4000
 -1      1987    8    0    1
 -2       971       970      1038      3789      4003      4004
 -1      1988    8    0    1
 -2       970      1037      1038      4001      4005      4003
 -1      1989    8    0    1
 -2       972       971      1039      3792      4006      4007
 -1      1990    8    0    1
 -2       971      1038      1039      4004      4008      4006
 -1      1991    8    0    1
 -2       973       972      1040      3795      4009      4010
 -1      1992    8    0    1
 -2       972      1039      1040      4007      4011      4009
 -1      1993    8    0    1
 -2       974       973      1041      3798      4012      4013
 -1      1994    8    0    1
 -2       973      1040      1041      4010      4014      4012
 -1      1995    8    0    1
 -2       975       974      1042      3801      4015      4016
 -1      1996    8    0    1
 -2       974      1041      1042      4013      4017      4015
 -1      1997    8    0    1
 -2       976       975      1043      3804      4018      4019
 -1      1998    8    0    1
 -2       975      1042      1043      4016      4020      4018
 -1      1999    8    0    1
 -2       977       976      1044      3807      4021      4022
 -1      2000    8    0    1
 -2       976      1043      1044      4019      4023      4021
 -1      2001    8    0    1
 -2       978       977      1045      3810      4024      4025
 -1      2002    8    0    1
 -2       977      1044      1045      4022      4026      4024
 -1      2003    8    0    1
 -2       979       978      1046      3813      4027      4028
 -1      2004    8    0    1
 -2       978      1045      1046      4025      4029      4027
 -1      2005    8    0    1
 -2       980       979      1047      3816      4030      4031
 -1      2006    8    0    1
 -2       979      1046      1047      4028      4032      4030
 -1      2007    8    0    1
 -2       981       980      1048      3819      4033      4034
 -1      2008    8    0    1
 -2       980      1047      1048      4031      4035      4033
 -1      2009    8    0    1
 -2       984       985      1049      3833      4036      4037
 -1      2010    8    0    1
 -2       985      1031      1049      3983      4038      4036
 -1      2011    8    0    1
 -2       962       952      1050      3913      4039      4040
 -1      2012    8    0    1
 -2      1025       962      1050      3967      4040      4041
 -1      2013    8    0    1
 -2       952       951      1050      3943      4042      4039
 -1      2014    8    0    1
 -2      1009      1000      1018      3933      4043      3942
 -1      2015    8    0    1
 -2       983       984      1051      3830      4044      4045
 -1      2016    8    0    1
 -2       984      1049      1051      4037      4046      4044
 -1      2017    8    0    1
 -2       986       987      1052      3839      4047      4048
 -1      2018    8    0    1
 -2       986      1052      1031      4048      4049      3982
 -1      2019    8    0    1
 -2       987       988      1053      3842      4050      4051
 -1      2020    8    0    1
 -2       987      1053      1052      4051      4052      4047
 -1      2021    8    0    1
 -2       988       989      1054      3845      4053      4054
 -1      2022    8    0    1
 -2       988      1054      1053      4054      4055      4050
 -1      2023    8    0    1
 -2       989       990      1055      3848      4056      4057
 -1      2024    8    0    1
 -2       989      1055      1054      4057      4058      4053
 -1      2025    8    0    1
 -2       990       991      1056      3851      4059      4060
 -1      2026    8    0    1
 -2       990      1056      1055      4060      4061      4056
 -1      2027    8    0    1
 -2       991       992      1057      3854      4062      4063
 -1      2028    8    0    1
 -2       991      1057      1056      4063      4064      4059
 -1      2029    8    0    1
 -2       992       993      1058      3857      4065      4066
 -1      2030    8    0    1
 -2       992      1058      1057      4066      4067      4062
 -1      2031    8    0    1
 -2       993       994      1059      3860      4068      4069
 -1      2032    8    0    1
 -2       993      1059      1058      4069      4070      4065
 -1      2033    8    0    1
 -2       994       995      1060      3863      4071      4072
 -1      2034    8    0    1
 -2       994      1060      1059      4072      4073      4068
 -1      2035    8    0    1
 -2       995       996      1061      3866      4074      4075
 -1      2036    8    0    1
 -2       995      1061      1060      4075      4076      4071
 -1      2037    8    0    1
 -2       996       997      1062      3869      4077      4078
 -1      2038    8    0    1
 -2       996      1062      1061      4078      4079      4074
 -1      2039    8    0    1
 -2       997       998      1063      3872      4080      4081
 -1      2040    8    0    1
 -2       997      1063      1062      4081      4082      4077
 -1      2041    8    0    1
 -2       998       999      1064      3875      4083      4084
 -1      2042    8    0    1
 -2       998      1064      1063      4084      4085      4080
 -1      2043    8    0    1
 -2      1002      1016      1065      3936      4086      4087
 -1      2044    8    0    1
 -2      1000      1007      1066      3937      4088      4089
 -1      2045    8    0    1
 -2      1000      1066      1018      4089      4090      4043
 -1      2046    8    0    1
 -2       999      1001      1024      3880      3964      4091
 -1      2047    8    0    1
 -2       964       939      1005      3768      4092      4093
 -1      2048    8    0    1
 -2      1004       935      1067      3891      4094      4095
 -1      2049    8    0    1
 -2      1030      1004      1067      3979      4095      4096
 -1      2050    8    0    1
 -2       935      1013      1067      3923      4097      4094
 -1      2051    8    0    1
 -2       957       956      1068      3747      4098      4099
 -1      2052    8    0    1
 -2       957      1068      1026      4099      4100      3969
 -1      2053    8    0    1
 -2      1006       932      1065      3897      4101      4102
 -1      2054    8    0    1
 -2       849       924      1029      3624      4103      3977
 -1      2055    8    0    1
 -2       951       963      1069      3932      4104      4105
 -1      2056    8    0    1
 -2       951      1069      1050      4105      4106      4042
 -1      2057    8    0    1
 -2       942       981      1070      3917      4107      4108
 -1      2058    8    0    1
 -2       949       942      1070      3918      4108      4109
 -1      2059    8    0    1
 -2       981      1048      1070      4034      4110      4107
 -1      2060    8    0    1
 -2       953      1019      1012      3947      4111      3921
 -1      2061    8    0    1
 -2       939       945       950      3705      4112      4113
 -1      2062    8    0    1
 -2      1010      1006      1071      3961      4114      4115
 -1      2063    8    0    1
 -2      1006      1065      1071      4102      4116      4114
 -1      2064    8    0    1
 -2       864       950       945      3730      4112      3706
 -1      2065    8    0    1
 -2       956      1010      1072      3911      4117      4118
 -1      2066    8    0    1
 -2      1068       956      1072      4098      4118      4119
 -1      2067    8    0    1
 -2      1010      1071      1072      4115      4120      4117
 -1      2068    8    0    1
 -2       939       950      1005      4113      3893      4092
 -1      2069    8    0    1
 -2      1066      1007      1073      4088      4121      4122
 -1      2070    8    0    1
 -2      1007      1021      1073      3953      4123      4121
 -1      2071    8    0    1
 -2       960      1028      1011      3975      4124      4125
 -1      2072    8    0    1
 -2       932      1029      1065      3978      4126      4101
 -1      2073    8    0    1
 -2       961       960      1011      3759      4125      4127
 -1      2074    8    0    1
 -2       948       964      1074      3767      4128      4129
 -1      2075    8    0    1
 -2       949      1070      1022      4109      4130      3954
 -1      2076    8    0    1
 -2      1016      1023      1075      3959      4131      4132
 -1      2077    8    0    1
 -2      1013      1015      1076      3930      4133      4134
 -1      2078    8    0    1
 -2       938      1003       961      3925      3887      4135
 -1      2079    8    0    1
 -2       924      1002      1029      3960      4136      4103
 -1      2080    8    0    1
 -2      1002      1065      1029      4087      4126      4136
 -1      2081    8    0    1
 -2      1064       999      1024      4083      4091      4137
 -1      2082    8    0    1
 -2      1065      1016      1077      4086      4138      4139
 -1      2083    8    0    1
 -2      1071      1065      1077      4116      4139      4140
 -1      2084    8    0    1
 -2      1016      1075      1077      4132      4141      4138
 -1      2085    8    0    1
 -2      1067      1013      1078      4097      4142      4143
 -1      2086    8    0    1
 -2      1013      1076      1078      4134      4144      4142
 -1      2087    8    0    1
 -2       927      1009      1017      3934      4145      3938
 -1      2088    8    0    1
 -2      1019      1008      1079      3946      4146      4147
 -1      2089    8    0    1
 -2      1008       983      1079      3904      4148      4146
 -1      2090    8    0    1
 -2      1021       931      1080      3951      4149      4150
 -1      2091    8    0    1
 -2       931      1011      1080      3915      4151      4149
 -1      2092    8    0    1
 -2       961      1011       938      4127      3916      4135
 -1      2093    8    0    1
 -2      1012      1019      1079      4111      4147      4152
 -1      2094    8    0    1
 -2      1069       963      1081      4104      4153      4154
 -1      2095    8    0    1
 -2       963      1012      1081      3920      4155      4153
 -1      2096    8    0    1
 -2      1023       948      1074      3957      4129      4156
 -1      2097    8    0    1
 -2      1014      1022      1082      3956      4157      4158
 -1      2098    8    0    1
 -2      1009       894      1017      3906      4159      4145
 -1      2099    8    0    1
 -2      1024      1014      1064      3965      4160      4137
 -1      2100    8    0    1
 -2       964      1005      1074      4093      4161      4128
 -1      2101    8    0    1
 -2      1014      1082      1064      4158      4162      4160
 -1      2102    8    0    1
 -2      1074      1005      1083      4161      4163      4164
 -1      2103    8    0    1
 -2      1005      1020      1083      3949      4165      4163
 -1      2104    8    0    1
 -2      1079       983      1051      4148      4045      4166
 -1      2105    8    0    1
 -2      1011      1028      1080      4124      4167      4151
 -1      2106    8    0    1
 -2      1076      1015      1084      4133      4168      4169
 -1      2107    8    0    1
 -2      1015      1032      1084      3986      4170      4168
 -1      2108    8    0    1
 -2      1028      1027      1085      3976      4171      4172
 -1      2109    8    0    1
 -2      1050      1069      1086      4106      4173      4174
 -1      2110    8    0    1
 -2      1050      1086      1025      4174      4175      4041
 -1      2111    8    0    1
 -2      1064      1082      1087      4162      4176      4177
 -1      2112    8    0    1
 -2      1064      1087      1063      4177      4178      4085
 -1      2113    8    0    1
 -2      1020      1030      1088      3981      4179      4180
 -1      2114    8    0    1
 -2      1020      1088      1083      4180      4181      4165
 -1      2115    8    0    1
 -2      1052      1053      1089      4052      4182      4183
 -1      2116    8    0    1
 -2      1022      1070      1090      4130      4184      4185
 -1      2117    8    0    1
 -2      1082      1022      1090      4157      4185      4186
 -1      2118    8    0    1
 -2      1070      1048      1090      4110      4187      4184
 -1      2119    8    0    1
 -2      1033      1025      1086      3990      4175      4188
 -1      2120    8    0    1
 -2      1034      1033      1091      3993      4189      4190
 -1      2121    8    0    1
 -2      1035      1034      1092      3996      4191      4192
 -1      2122    8    0    1
 -2      1034      1091      1092      4190      4193      4191
 -1      2123    8    0    1
 -2      1036      1035      1093      3999      4194      4195
 -1      2124    8    0    1
 -2      1035      1092      1093      4192      4196      4194
 -1      2125    8    0    1
 -2      1037      1036      1094      4002      4197      4198
 -1      2126    8    0    1
 -2      1036      1093      1094      4195      4199      4197
 -1      2127    8    0    1
 -2      1038      1037      1095      4005      4200      4201
 -1      2128    8    0    1
 -2      1037      1094      1095      4198      4202      4200
 -1      2129    8    0    1
 -2      1039      1038      1096      4008      4203      4204
 -1      2130    8    0    1
 -2      1038      1095      1096      4201      4205      4203
 -1      2131    8    0    1
 -2      1040      1039      1097      4011      4206      4207
 -1      2132    8    0    1
 -2      1039      1096      1097      4204      4208      4206
 -1      2133    8    0    1
 -2      1041      1040      1098      4014      4209      4210
 -1      2134    8    0    1
 -2      1040      1097      1098      4207      4211      4209
 -1      2135    8    0    1
 -2      1042      1041      1099      4017      4212      4213
 -1      2136    8    0    1
 -2      1041      1098      1099      4210      4214      4212
 -1      2137    8    0    1
 -2      1043      1042      1100      4020      4215      4216
 -1      2138    8    0    1
 -2      1042      1099      1100      4213      4217      4215
 -1      2139    8    0    1
 -2      1044      1043      1101      4023      4218      4219
 -1      2140    8    0    1
 -2      1043      1100      1101      4216      4220      4218
 -1      2141    8    0    1
 -2      1045      1044      1102      4026      4221      4222
 -1      2142    8    0    1
 -2      1044      1101      1102      4219      4223      4221
 -1      2143    8    0    1
 -2      1046      1045      1103      4029      4224      4225
 -1      2144    8    0    1
 -2      1045      1102      1103      4222      4226      4224
 -1      2145    8    0    1
 -2      1047      1046      1104      4032      4227      4228
 -1      2146    8    0    1
 -2      1046      1103      1104      4225      4229      4227
 -1      2147    8    0    1
 -2      1048      1047      1105      4035      4230      4231
 -1      2148    8    0    1
 -2      1090      1048      1105      4187      4231      4232
 -1      2149    8    0    1
 -2      1047      1104      1105      4228      4233      4230
 -1      2150    8    0    1
 -2      1049      1031      1106      4038      4234      4235
 -1      2151    8    0    1
 -2      1051      1049      1107      4046      4236      4237
 -1      2152    8    0    1
 -2      1049      1106      1107      4235      4238      4236
 -1      2153    8    0    1
 -2      1053      1054      1108      4055      4239      4240
 -1      2154    8    0    1
 -2      1053      1108      1089      4240      4241      4182
 -1      2155    8    0    1
 -2      1054      1055      1109      4058      4242      4243
 -1      2156    8    0    1
 -2      1054      1109      1108      4243      4244      4239
 -1      2157    8    0    1
 -2      1055      1056      1110      4061      4245      4246
 -1      2158    8    0    1
 -2      1055      1110      1109      4246      4247      4242
 -1      2159    8    0    1
 -2      1056      1057      1111      4064      4248      4249
 -1      2160    8    0    1
 -2      1056      1111      1110      4249      4250      4245
 -1      2161    8    0    1
 -2      1057      1058      1112      4067      4251      4252
 -1      2162    8    0    1
 -2      1057      1112      1111      4252      4253      4248
 -1      2163    8    0    1
 -2      1058      1059      1113      4070      4254      4255
 -1      2164    8    0    1
 -2      1058      1113      1112      4255      4256      4251
 -1      2165    8    0    1
 -2      1059      1060      1114      4073      4257      4258
 -1      2166    8    0    1
 -2      1059      1114      1113      4258      4259      4254
 -1      2167    8    0    1
 -2      1060      1061      1115      4076      4260      4261
 -1      2168    8    0    1
 -2      1060      1115      1114      4261      4262      4257
 -1      2169    8    0    1
 -2      1061      1062      1116      4079      4263      4264
 -1      2170    8    0    1
 -2      1061      1116      1115      4264      4265      4260
 -1      2171    8    0    1
 -2      1062      1063      1117      4082      4266      4267
 -1      2172    8    0    1
 -2      1116      1062      1117      4263      4267      4268
 -1      2173    8    0    1
 -2      1063      1087      1117      4178      4269      4266
 -1      2174    8    0    1
 -2      1018      1066      1032      4090      4270      3987
 -1      2175    8    0    1
 -2      1031      1052      1118      4049      4271      4272
 -1      2176    8    0    1
 -2      1106      1031      1118      4234      4272      4273
 -1      2177    8    0    1
 -2      1052      1089      1118      4183      4274      4271
 -1      2178    8    0    1
 -2      1030      1067      1119      4096      4275      4276
 -1      2179    8    0    1
 -2      1088      1030      1119      4179      4276      4277
 -1      2180    8    0    1
 -2      1067      1078      1119      4143      4278      4275
 -1      2181    8    0    1
 -2       894       926      1017      3631      3966      4159
 -1      2182    8    0    1
 -2      1079      1051      1120      4166      4279      4280
 -1      2183    8    0    1
 -2      1051      1107      1120      4237      4281      4279
 -1      2184    8    0    1
 -2      1023      1074      1121      4156      4282      4283
 -1      2185    8    0    1
 -2      1075      1023      1121      4131      4283      4284
 -1      2186    8    0    1
 -2      1074      1083      1121      4164      4285      4282
 -1      2187    8    0    1
 -2      1026      1068      1122      4100      4286      4287
 -1      2188    8    0    1
 -2      1027      1026      1123      3973      4288      4289
 -1      2189    8    0    1
 -2      1085      1027      1123      4171      4289      4290
 -1      2190    8    0    1
 -2      1026      1122      1123      4287      4291      4288
 -1      2191    8    0    1
 -2      1087      1082      1105      4176      4292      4293
 -1      2192    8    0    1
 -2      1082      1090      1105      4186      4232      4292
 -1      2193    8    0    1
 -2      1028      1085      1080      4172      4294      4167
 -1      2194    8    0    1
 -2      1091      1033      1086      4189      4188      4295
 -1      2195    8    0    1
 -2      1075      1121      1124      4284      4296      4297
 -1      2196    8    0    1
 -2      1122      1068      1125      4286      4298      4299
 -1      2197    8    0    1
 -2      1068      1072      1125      4119      4300      4298
 -1      2198    8    0    1
 -2      1012      1079      1120      4152      4280      4301
 -1      2199    8    0    1
 -2      1077      1075      1124      4141      4297      4302
 -1      2200    8    0    1
 -2      1078      1076      1126      4144      4303      4304
 -1      2201    8    0    1
 -2      1086      1069      1127      4173      4305      4306
 -1      2202    8    0    1
 -2      1069      1081      1127      4154      4307      4305
 -1      2203    8    0    1
 -2      1076      1084      1128      4169      4308      4309
 -1      2204    8    0    1
 -2      1076      1128      1126      4309      4310      4303
 -1      2205    8    0    1
 -2      1032      1066      1084      4270      4311      4170
 -1      2206    8    0    1
 -2      1073      1021      1129      4123      4312      4313
 -1      2207    8    0    1
 -2      1021      1080      1129      4150      4314      4312
 -1      2208    8    0    1
 -2      1071      1077      1130      4140      4315      4316
 -1      2209    8    0    1
 -2      1072      1071      1130      4120      4316      4317
 -1      2210    8    0    1
 -2      1077      1124      1130      4302      4318      4315
 -1      2211    8    0    1
 -2      1080      1085      1129      4294      4319      4314
 -1      2212    8    0    1
 -2      1108      1109      1131      4244      4320      4321
 -1      2213    8    0    1
 -2      1089      1108      1094      4241      4322      4323
 -1      2214    8    0    1
 -2      1093      1092      1132      4196      4324      4325
 -1      2215    8    0    1
 -2      1094      1093      1089      4199      4326      4323
 -1      2216    8    0    1
 -2      1096      1095      1131      4205      4327      4328
 -1      2217    8    0    1
 -2      1097      1096      1133      4208      4329      4330
 -1      2218    8    0    1
 -2      1098      1097      1111      4211      4331      4332
 -1      2219    8    0    1
 -2      1099      1098      1112      4214      4333      4334
 -1      2220    8    0    1
 -2      1100      1099      1113      4217      4335      4336
 -1      2221    8    0    1
 -2      1101      1100      1114      4220      4337      4338
 -1      2222    8    0    1
 -2      1102      1101      1115      4223      4339      4340
 -1      2223    8    0    1
 -2      1103      1102      1116      4226      4341      4342
 -1      2224    8    0    1
 -2      1104      1103      1117      4229      4343      4344
 -1      2225    8    0    1
 -2      1105      1104      1087      4233      4345      4293
 -1      2226    8    0    1
 -2      1107      1106      1134      4238      4346      4347
 -1      2227    8    0    1
 -2      1109      1110      1133      4247      4348      4349
 -1      2228    8    0    1
 -2      1111      1112      1098      4253      4333      4332
 -1      2229    8    0    1
 -2      1112      1113      1099      4256      4335      4334
 -1      2230    8    0    1
 -2      1113      1114      1100      4259      4337      4336
 -1      2231    8    0    1
 -2      1114      1115      1101      4262      4339      4338
 -1      2232    8    0    1
 -2      1115      1116      1102      4265      4341      4340
 -1      2233    8    0    1
 -2      1083      1088      1121      4181      4350      4285
 -1      2234    8    0    1
 -2      1084      1066      1073      4311      4122      4351
 -1      2235    8    0    1
 -2      1092      1091      1134      4193      4352      4353
 -1      2236    8    0    1
 -2      1084      1073      1128      4351      4354      4308
 -1      2237    8    0    1
 -2      1078      1126      1135      4304      4355      4356
 -1      2238    8    0    1
 -2      1078      1135      1119      4356      4357      4278
 -1      2239    8    0    1
 -2      1121      1088      1124      4350      4358      4296
 -1      2240    8    0    1
 -2      1103      1116      1117      4342      4268      4343
 -1      2241    8    0    1
 -2      1087      1104      1117      4345      4344      4269
 -1      2242    8    0    1
 -2      1124      1088      1136      4358      4359      4360
 -1      2243    8    0    1
 -2      1130      1124      1136      4318      4360      4361
 -1      2244    8    0    1
 -2      1088      1119      1136      4277      4362      4359
 -1      2245    8    0    1
 -2      1073      1129      1128      4313      4363      4354
 -1      2246    8    0    1
 -2      1131      1109      1133      4320      4349      4364
 -1      2247    8    0    1
 -2      1096      1131      1133      4328      4364      4329
 -1      2248    8    0    1
 -2      1125      1072      1130      4300      4317      4365
 -1      2249    8    0    1
 -2      1089      1093      1132      4326      4325      4366
 -1      2250    8    0    1
 -2      1111      1097      1133      4331      4330      4367
 -1      2251    8    0    1
 -2      1107      1134      1137      4347      4368      4369
 -1      2252    8    0    1
 -2      1120      1107      1137      4281      4369      4370
 -1      2253    8    0    1
 -2      1134      1091      1137      4352      4371      4368
 -1      2254    8    0    1
 -2      1091      1086      1137      4295      4372      4371
 -1      2255    8    0    1
 -2      1092      1134      1132      4353      4373      4324
 -1      2256    8    0    1
 -2      1135      1126      1138      4355      4374      4375
 -1      2257    8    0    1
 -2      1126      1128      1139      4310      4376      4377
 -1      2258    8    0    1
 -2      1138      1126      1139      4374      4377      4378
 -1      2259    8    0    1
 -2      1128      1129      1139      4363      4379      4376
 -1      2260    8    0    1
 -2      1129      1085      1139      4319      4380      4379
 -1      2261    8    0    1
 -2      1094      1108      1131      4322      4321      4381
 -1      2262    8    0    1
 -2      1123      1122      1138      4291      4382      4383
 -1      2263    8    0    1
 -2      1085      1123      1139      4290      4384      4380
 -1      2264    8    0    1
 -2      1138      1122      1140      4382      4385      4386
 -1      2265    8    0    1
 -2      1135      1138      1140      4375      4386      4387
 -1      2266    8    0    1
 -2      1122      1125      1140      4299      4388      4385
 -1      2267    8    0    1
 -2      1095      1094      1131      4202      4381      4327
 -1      2268    8    0    1
 -2      1120      1137      1127      4370      4389      4390
 -1      2269    8    0    1
 -2      1134      1106      1132      4346      4391      4373
 -1      2270    8    0    1
 -2      1127      1081      1120      4307      4392      4390
 -1      2271    8    0    1
 -2      1110      1111      1133      4250      4367      4348
 -1      2272    8    0    1
 -2      1137      1086      1127      4372      4306      4389
 -1      2273    8    0    1
 -2      1012      1120      1081      4301      4392      4155
 -1      2274    8    0    1
 -2      1119      1135      1136      4357      4393      4362
 -1      2275    8    0    1
 -2      1125      1130      1136      4365      4361      4394
 -1      2276    8    0    1
 -2      1123      1138      1139      4383      4378      4384
 -1      2277    8    0    1
 -2      1106      1118      1132      4273      4395      4391
 -1      2278    8    0    1
 -2      1118      1089      1132      4274      4366      4395
 -1      2279    8    0    1
 -2      1125      1136      1140      4394      4396      4388
 -1      2280    8    0    1
 -2      1136      1135      1140      4393      4387      4396
 -3
    1PSTEP                         1           1           1          
  100CL  101 1.000000000        4396                     0    1           1
 -4  DISP        4    1
 -5  D1          1    2    1    0
 -5  D2          1    2    2    0
 -5  D3          1    2    3    0
 -5  ALL         1    2    0    0    1ALL
 -1         1 5.15920E-03-1.01648E-03-2.07904E-14
 -1         2 8.36448E-03-3.14239E-04-2.87120E-14
 -1         3 1.48054E-02-7.19163E-04-1.26374E-13
 -1         4 1.56039E-02-2.15064E-03-1.32502E-13
 -1         5 0.00000E+00 0.00000E+00 0.00000E+00
 -1         6 0.00000E+00 0.00000E+00 0.00000E+00
 -1         7 0.00000E+00 0.00000E+00 0.00000E+00
 -1         8 0.00000E+00 0.00000E+00 0.00000E+00
 -1         9 0.00000E+00 0.00000E+00 0.00000E+00
 -1        10 0.00000E+00 0.00000E+00 0.00000E+00
 -1        11 0.00000E+00 0.00000E+00 0.00000E+00
 -1        12 0.00000E+00 0.00000E+00 0.00000E+00
 -1        13 0.00000E+00 0.00000E+00 0.00000E+00
 -1        14 0.00000E+00 0.00000E+00 0.00000E+00
 -1        15 0.00000E+00 0.00000E+00 0.00000E+00
 -1        16 0.00000E+00 0.00000E+00 0.00000E+00
 -1        17 0.00000E+00 0.00000E+00 0.00000E+00
 -1        18 0.00000E+00 0.00000E+00 0.00000E+00
 -1        19 0.00000E+00 0.00000E+00 0.00000E+00
 -1        20 0.00000E+00 0.00000E+00 0.00000E+00
 -1        21 0.00000E+00 0.00000E+00 0.00000E+00
 -1        22 0.00000E+00 0.00000E+00 0.00000E+00
 -1        23 4.08271E-04-2.54914E-04 2.37135E-17
 -1        24 7.00467E-04-3.88199E-04-1.01075E-16
 -1        25 9.73101E-04-4.77966E-04-3.68690E-16
 -1        26 1.24236E-03-5.38688E-04-7.74391E-16
 -1        27 1.51330E-03-5.79598E-04-1.31318E-15
 -1        28 1.78879E-03-6.06298E-04-1.98267E-15
 -1        29 2.07086E-03-6.22963E-04-2.77959E-15
 -1        30 2.36133E-03-6.33149E-04-3.69916E-15
 -1        31 2.66200E-03-6.40315E-04-4.74221E-15
 -1        32 2.97479E-03-6.48253E-04-5.90541E-15
 -1        33 3.30162E-03-6.61493E-04-7.18642E-15
 -1        34 3.64409E-03-6.85662E-04-8.57943E-15
 -1        35 4.00265E-03-7.27621E-04-1.00832E-14
 -1        36 4.37536E-03-7.94993E-04-1.16978E-14
 -1        37 4.75612E-03-8.94394E-04-1.34217E-14
 -1        38 5.13332E-03-1.02763E-03-1.52616E-14
 -1        39 5.49074E-03-1.18602E-03-1.72231E-14
 -1        40 5.81316E-03-1.34576E-03-1.93118E-14
 -1        41 6.09630E-03-1.47065E-03-2.15281E-14
 -1        42 6.35429E-03-1.52662E-03-2.38789E-14
 -1        43 6.61546E-03-1.50140E-03-2.63677E-14
 -1        44 6.90646E-03-1.41272E-03-2.89893E-14
 -1        45 7.23781E-03-1.29673E-03-3.17412E-14
 -1        46 7.60239E-03-1.18812E-03-3.46264E-14
 -1        47 7.98420E-03-1.10778E-03-3.76202E-14
 -1        48 8.36778E-03-1.06205E-03-4.07026E-14
 -1        49 8.74281E-03-1.04804E-03-4.38596E-14
 -1        50 9.10437E-03-1.05904E-03-4.71001E-14
 -1        51 9.45135E-03-1.08794E-03-5.04215E-14
 -1        52 9.78483E-03-1.12877E-03-5.38260E-14
 -1        53 1.01067E-02-1.17703E-03-5.73129E-14
 -1        54 1.04193E-02-1.22954E-03-6.08720E-14
 -1        55 1.07244E-02-1.28419E-03-6.44955E-14
 -1        56 1.10239E-02-1.33961E-03-6.81672E-14
 -1        57 1.13191E-02-1.39497E-03-7.18913E-14
 -1        58 1.16112E-02-1.44979E-03-7.56642E-14
 -1        59 1.19010E-02-1.50383E-03-7.94761E-14
 -1        60 1.21892E-02-1.55701E-03-8.33266E-14
 -1        61 1.24762E-02-1.60933E-03-8.72234E-14
 -1        62 1.27626E-02-1.66086E-03-9.11784E-14
 -1        63 1.30484E-02-1.71168E-03-9.51935E-14
 -1        64 1.33340E-02-1.76190E-03-9.92518E-14
 -1        65 1.36194E-02-1.81161E-03-1.03349E-13
 -1        66 1.39048E-02-1.86092E-03-1.07481E-13
 -1        67 1.41902E-02-1.90993E-03-1.11638E-13
 -1        68 1.44756E-02-1.95871E-03-1.15805E-13
 -1        69 1.47612E-02-2.00735E-03-1.19989E-13
 -1        70 1.50468E-02-2.05591E-03-1.24200E-13
 -1        71 1.53325E-02-2.10447E-03-1.28443E-13
 -1        72 4.10806E-04 2.55834E-04 6.99920E-17
 -1        73 7.00617E-04 3.91451E-04 2.70034E-17
 -1        74 9.73987E-04 4.80835E-04-1.27875E-16
 -1        75 1.24344E-03 5.42279E-04-3.99207E-16
 -1        76 1.51416E-03 5.84374E-04-7.89377E-16
 -1        77 1.78887E-03 6.12774E-04-1.29766E-15
 -1        78 2.06927E-03 6.31736E-04-1.92537E-15
 -1        79 2.35653E-03 6.44847E-04-2.67182E-15
 -1        80 2.65149E-03 6.55428E-04-3.53657E-15
 -1        81 2.95460E-03 6.66760E-04-4.51865E-15
 -1        82 3.26582E-03 6.82177E-04-5.61672E-15
 -1        83 3.58425E-03 7.04977E-04-6.82606E-15
 -1        84 3.90785E-03 7.38064E-04-8.14759E-15
 -1        85 4.23305E-03 7.83237E-04-9.58081E-15
 -1        86 4.55474E-03 8.40104E-04-1.11297E-14
 -1        87 4.86681E-03 9.04838E-04-1.28014E-14
 -1        88 5.16361E-03 9.69342E-04-1.45925E-14
 -1        89 5.44216E-03 1.02174E-03-1.65021E-14
 -1        90 5.70423E-03 1.04886E-03-1.85362E-14
 -1        91 5.95694E-03 1.04045E-03-2.06939E-14
 -1        92 6.21085E-03 9.93110E-04-2.29724E-14
 -1        93 6.47614E-03 9.11714E-04-2.53824E-14
 -1        94 6.75912E-03 8.07404E-04-2.79276E-14
 -1        95 7.06070E-03 6.93418E-04-3.05901E-14
 -1        96 7.37739E-03 5.81167E-04-3.33730E-14
 -1        97 7.70346E-03 4.78125E-04-3.62708E-14
 -1        98 8.03313E-03 3.87667E-04-3.92838E-14
 -1        99 8.36178E-03 3.10052E-04-4.23943E-14
 -1       100 8.68642E-03 2.43707E-04-4.56016E-14
 -1       101 9.00549E-03 1.86288E-04-4.89029E-14
 -1       102 9.31856E-03 1.35376E-04-5.22750E-14
 -1       103 9.62590E-03 8.88379E-05-5.57137E-14
 -1       104 9.92815E-03 4.49682E-05-5.92184E-14
 -1       105 1.02261E-02 2.49456E-06-6.27897E-14
 -1       106 1.05206E-02-3.94741E-05-6.64433E-14
 -1       107 1.08124E-02-8.15220E-05-7.01731E-14
 -1       108 1.11021E-02-1.24001E-04-7.39808E-14
 -1       109 1.13903E-02-1.67098E-04-7.78395E-14
 -1       110 1.16775E-02-2.10881E-04-8.17454E-14
 -1       111 1.19639E-02-2.55348E-04-8.56951E-14
 -1       112 1.22498E-02-3.00449E-04-8.96806E-14
 -1       113 1.25354E-02-3.46109E-04-9.36934E-14
 -1       114 1.28209E-02-3.92243E-04-9.77410E-14
 -1       115 1.31063E-02-4.38762E-04-1.01843E-13
 -1       116 1.33917E-02-4.85581E-04-1.05963E-13
 -1       117 1.36772E-02-5.32619E-04-1.10083E-13
 -1       118 1.39627E-02-5.79797E-04-1.14210E-13
 -1       119 1.42483E-02-6.27045E-04-1.18341E-13
 -1       120 1.45340E-02-6.74300E-04-1.22468E-13
 -1       121 1.48518E-02-8.03450E-04-1.26738E-13
 -1       122 1.48982E-02-8.87767E-04-1.27110E-13
 -1       123 1.49446E-02-9.72143E-04-1.27488E-13
 -1       124 1.49911E-02-1.05658E-03-1.27867E-13
 -1       125 1.50376E-02-1.14108E-03-1.28240E-13
 -1       126 1.50835E-02-1.22418E-03-1.28622E-13
 -1       127 1.51303E-02-1.30874E-03-1.29001E-13
 -1       128 1.51773E-02-1.39331E-03-1.29375E-13
 -1       129 1.52244E-02-1.47790E-03-1.29751E-13
 -1       130 1.52716E-02-1.56247E-03-1.30102E-13
 -1       131 1.53190E-02-1.64704E-03-1.30444E-13
 -1       132 1.53658E-02-1.73014E-03-1.30798E-13
 -1       133 1.54135E-02-1.81464E-03-1.31158E-13
 -1       134 1.54612E-02-1.89909E-03-1.31516E-13
 -1       135 1.55091E-02-1.98346E-03-1.31878E-13
 -1       136 1.55569E-02-2.06778E-03-1.32210E-13
 -1       137 8.28880E-03-1.29838E-04-2.84654E-14
 -1       138 8.12020E-03 3.71656E-05-2.79601E-14
 -1       139 7.85695E-03 1.96743E-04-2.71995E-14
 -1       140 7.53350E-03 3.29831E-04-2.62929E-14
 -1       141 7.14824E-03 4.39069E-04-2.52504E-14
 -1       142 6.68919E-03 5.22920E-04-2.40473E-14
 -1       143 6.25466E-03 5.63414E-04-2.29535E-14
 -1       144 5.78832E-03 5.68945E-04-2.18164E-14
 -1       145 5.30267E-03 5.29920E-04-2.06733E-14
 -1       146 4.90976E-03 4.60062E-04-1.97933E-14
 -1       147 4.57622E-03 3.63065E-04-1.90700E-14
 -1       148 4.29488E-03 2.37012E-04-1.84853E-14
 -1       149 4.07942E-03 7.99530E-05-1.80615E-14
 -1       150 3.97203E-03-7.56392E-05-1.78733E-14
 -1       151 3.94957E-03-2.36688E-04-1.78743E-14
 -1       152 4.01772E-03-4.10229E-04-1.80771E-14
 -1       153 4.18374E-03-5.84850E-04-1.84954E-14
 -1       154 4.42072E-03-7.40557E-04-1.90640E-14
 -1       155 4.75057E-03-8.89052E-04-1.98358E-14
 -1       156 5.58202E-03-1.10124E-03-2.17839E-14
 -1       157 6.04679E-03-1.14988E-03-2.28926E-14
 -1       158 6.52261E-03-1.15383E-03-2.40491E-14
 -1       159 6.95276E-03-1.11679E-03-2.51086E-14
 -1       160 7.36852E-03-1.03850E-03-2.61591E-14
 -1       161 7.72948E-03-9.27731E-04-2.70836E-14
 -1       162 8.02036E-03-7.90809E-04-2.78362E-14
 -1       163 8.22211E-03-6.40622E-04-2.83672E-14
 -1       164 8.33832E-03-4.79779E-04-2.86642E-14
 -1       165 2.41389E-04-1.20474E-04-3.42167E-17
 -1       166 2.26600E-04-8.89717E-05-5.20214E-17
 -1       167 2.20528E-04-6.69157E-05-6.08678E-17
 -1       168 2.17095E-04-4.95709E-05-6.49607E-17
 -1       169 2.14913E-04-3.52875E-05-6.62685E-17
 -1       170 2.13461E-04-2.25768E-05-6.62414E-17
 -1       171 2.12634E-04-1.09815E-05-6.53571E-17
 -1       172 2.12381E-04 1.03916E-07-6.38290E-17
 -1       173 2.12686E-04 1.12371E-05-6.17284E-17
 -1       174 2.13552E-04 2.29678E-05-5.89128E-17
 -1       175 2.14991E-04 3.56511E-05-5.49250E-17
 -1       176 2.17210E-04 5.04203E-05-4.87993E-17
 -1       177 2.20648E-04 6.80880E-05-3.97055E-17
 -1       178 2.26712E-04 9.05424E-05-2.51806E-17
 -1       179 2.40306E-04 1.22710E-04-1.93124E-18
 -1       180 2.97700E-04 1.80401E-04 2.35374E-17
 -1       181 4.69506E-04-2.54051E-04-9.09984E-17
 -1       182 7.69743E-04-3.64898E-04-3.11244E-16
 -1       183 1.05735E-03-4.39454E-04-6.63091E-16
 -1       184 1.34054E-03-4.89406E-04-1.14546E-15
 -1       185 1.62350E-03-5.21853E-04-1.75542E-15
 -1       186 1.90901E-03-5.41740E-04-2.49146E-15
 -1       187 2.19913E-03-5.52943E-04-3.35087E-15
 -1       188 2.49557E-03-5.58937E-04-4.33047E-15
 -1       189 2.79990E-03-5.63292E-04-5.42946E-15
 -1       190 3.11356E-03-5.70123E-04-6.64557E-15
 -1       191 3.43780E-03-5.84533E-04-7.97435E-15
 -1       192 3.77342E-03-6.12972E-04-9.41297E-15
 -1       193 4.12023E-03-6.63245E-04-1.09623E-14
 -1       194 4.47638E-03-7.43613E-04-1.26209E-14
 -1       195 4.83752E-03-8.60094E-04-1.43932E-14
 -1       196 5.19643E-03-1.01126E-03-1.62827E-14
 -1       197 5.54410E-03-1.18144E-03-1.82936E-14
 -1       198 5.87369E-03-1.33749E-03-2.04307E-14
 -1       199 6.18618E-03-1.43725E-03-2.27020E-14
 -1       200 6.49264E-03-1.45147E-03-2.51109E-14
 -1       201 6.80829E-03-1.38360E-03-2.76582E-14
 -1       202 7.14250E-03-1.26742E-03-3.03354E-14
 -1       203 7.49443E-03-1.14485E-03-3.31429E-14
 -1       204 7.85642E-03-1.04595E-03-3.60700E-14
 -1       205 8.21970E-03-9.83308E-04-3.90948E-14
 -1       206 8.57768E-03-9.56569E-04-4.22018E-14
 -1       207 8.92666E-03-9.59223E-04-4.53896E-14
 -1       208 9.26535E-03-9.83344E-04-4.86618E-14
 -1       209 9.59392E-03-1.02191E-03-5.20146E-14
 -1       210 9.91340E-03-1.06953E-03-5.54490E-14
 -1       211 1.02251E-02-1.12237E-03-5.89597E-14
 -1       212 1.05305E-02-1.17784E-03-6.25392E-14
 -1       213 1.08307E-02-1.23431E-03-6.61804E-14
 -1       214 1.11270E-02-1.29077E-03-6.98710E-14
 -1       215 1.14202E-02-1.34664E-03-7.36120E-14
 -1       216 1.17111E-02-1.40163E-03-7.73981E-14
 -1       217 1.20003E-02-1.45564E-03-8.12254E-14
 -1       218 1.22883E-02-1.50866E-03-8.50965E-14
 -1       219 1.25754E-02-1.56076E-03-8.90216E-14
 -1       220 1.28619E-02-1.61205E-03-9.29994E-14
 -1       221 1.31479E-02-1.66263E-03-9.70253E-14
 -1       222 1.34337E-02-1.71262E-03-1.01093E-13
 -1       223 1.37194E-02-1.76214E-03-1.05197E-13
 -1       224 1.40050E-02-1.81129E-03-1.09332E-13
 -1       225 1.42906E-02-1.86016E-03-1.13483E-13
 -1       226 1.45762E-02-1.90885E-03-1.17657E-13
 -1       227 1.48619E-02-1.95743E-03-1.21848E-13
 -1       228 1.51475E-02-2.00597E-03-1.26067E-13
 -1       229 6.05654E-04 3.19057E-04-4.16605E-17
 -1       230 8.97369E-04 4.13260E-04-2.12832E-16
 -1       231 1.18063E-03 4.77343E-04-4.96402E-16
 -1       232 1.46139E-03 5.20683E-04-8.95310E-16
 -1       233 1.74309E-03 5.49385E-04-1.41015E-15
 -1       234 2.02788E-03 5.67951E-04-2.04289E-15
 -1       235 2.31718E-03 5.80108E-04-2.79375E-15
 -1       236 2.61196E-03 5.89266E-04-3.66146E-15
 -1       237 2.91277E-03 5.98793E-04-4.64385E-15
 -1       238 3.21971E-03 6.12143E-04-5.74047E-15
 -1       239 3.53228E-03 6.32805E-04-6.95015E-15
 -1       240 3.84915E-03 6.63996E-04-8.27123E-15
 -1       241 4.16805E-03 7.07960E-04-9.70457E-15
 -1       242 4.48568E-03 7.64848E-04-1.12513E-14
 -1       243 4.79810E-03 8.31330E-04-1.29170E-14
 -1       244 5.10157E-03 8.99493E-04-1.47036E-14
 -1       245 5.39390E-03 9.57046E-04-1.66103E-14
 -1       246 5.67580E-03 9.89732E-04-1.86398E-14
 -1       247 5.95141E-03 9.85828E-04-2.07947E-14
 -1       248 6.22720E-03 9.40795E-04-2.30740E-14
 -1       249 6.50966E-03 8.59232E-04-2.54792E-14
 -1       250 6.80297E-03 7.52874E-04-2.80150E-14
 -1       251 7.10790E-03 6.35986E-04-3.06689E-14
 -1       252 7.42237E-03 5.20914E-04-3.34431E-14
 -1       253 7.74276E-03 4.15706E-04-3.63356E-14
 -1       254 8.06529E-03 3.23930E-04-3.93379E-14
 -1       255 8.38683E-03 2.45782E-04-4.24409E-14
 -1       256 8.70526E-03 1.79505E-04-4.56381E-14
 -1       257 9.01940E-03 1.22551E-04-4.89249E-14
 -1       258 9.32886E-03 7.23206E-05-5.22913E-14
 -1       259 9.63374E-03 2.65480E-05-5.57238E-14
 -1       260 9.93447E-03-1.65633E-05-5.92254E-14
 -1       261 1.02316E-02-5.83391E-05-6.27974E-14
 -1       262 1.05258E-02-9.96975E-05-6.64472E-14
 -1       263 1.08176E-02-1.41232E-04-7.01683E-14
 -1       264 1.11076E-02-1.83293E-04-7.39589E-14
 -1       265 1.13962E-02-2.26057E-04-7.78055E-14
 -1       266 1.16837E-02-2.69584E-04-8.17040E-14
 -1       267 1.19705E-02-3.13857E-04-8.56456E-14
 -1       268 1.22568E-02-3.58816E-04-8.96278E-14
 -1       269 1.25427E-02-4.04376E-04-9.36386E-14
 -1       270 1.28284E-02-4.50442E-04-9.76852E-14
 -1       271 1.31141E-02-4.96920E-04-1.01771E-13
 -1       272 1.33996E-02-5.43717E-04-1.05877E-13
 -1       273 1.36852E-02-5.90746E-04-1.09992E-13
 -1       274 1.39708E-02-6.37927E-04-1.14114E-13
 -1       275 1.42565E-02-6.85185E-04-1.18235E-13
 -1       276 1.45421E-02-7.32452E-04-1.22354E-13
 -1       277 1.46276E-02-8.04709E-04-1.23360E-13
 -1       278 1.46740E-02-8.89040E-04-1.23734E-13
 -1       279 1.47204E-02-9.73404E-04-1.24108E-13
 -1       280 1.47669E-02-1.05780E-03-1.24482E-13
 -1       281 1.48127E-02-1.14079E-03-1.24853E-13
 -1       282 1.48594E-02-1.22522E-03-1.25229E-13
 -1       283 1.49063E-02-1.30967E-03-1.25595E-13
 -1       284 1.49533E-02-1.39412E-03-1.25957E-13
 -1       285 1.50005E-02-1.47857E-03-1.26310E-13
 -1       286 1.50478E-02-1.56302E-03-1.26658E-13
 -1       287 1.50945E-02-1.64602E-03-1.27000E-13
 -1       288 1.51421E-02-1.73045E-03-1.27347E-13
 -1       289 1.51899E-02-1.81485E-03-1.27694E-13
 -1       290 1.52377E-02-1.89921E-03-1.28037E-13
 -1       291 1.51926E-02-1.95260E-03-1.27062E-13
 -1       292 8.36093E-03-2.82420E-04-2.98612E-14
 -1       293 8.18746E-03-1.81232E-04-2.94576E-14
 -1       294 7.90267E-03-3.71748E-05-2.85948E-14
 -1       295 7.55835E-03 1.45041E-04-2.74612E-14
 -1       296 7.17929E-03 3.23359E-04-2.62869E-14
 -1       297 6.76495E-03 4.92070E-04-2.49846E-14
 -1       298 6.39323E-03 6.05809E-04-2.35831E-14
 -1       299 6.02764E-03 6.48199E-04-2.22698E-14
 -1       300 5.64636E-03 6.05324E-04-2.08977E-14
 -1       301 5.24596E-03 4.82858E-04-1.98003E-14
 -1       302 4.88630E-03 3.37367E-04-1.88904E-14
 -1       303 4.54284E-03 1.83312E-04-1.81549E-14
 -1       304 4.23688E-03 2.63740E-05-1.74972E-14
 -1       305 4.01720E-03-8.15412E-05-1.72550E-14
 -1       306 3.92451E-03-1.73489E-04-1.71527E-14
 -1       307 3.95336E-03-2.62467E-04-1.72150E-14
 -1       308 4.11768E-03-3.66661E-04-1.75113E-14
 -1       309 4.38222E-03-5.18881E-04-1.81532E-14
 -1       310 4.72948E-03-6.86085E-04-1.88682E-14
 -1       311 5.14292E-03-8.80844E-04-1.98009E-14
 -1       312 5.51904E-03-1.06691E-03-2.10081E-14
 -1       313 5.90343E-03-1.19213E-03-2.22190E-14
 -1       314 6.28063E-03-1.24112E-03-2.35684E-14
 -1       315 6.64965E-03-1.19071E-03-2.48714E-14
 -1       316 7.00852E-03-1.07572E-03-2.62033E-14
 -1       317 7.39431E-03-9.11095E-04-2.73743E-14
 -1       318 7.76234E-03-7.42795E-04-2.83459E-14
 -1       319 8.06687E-03-5.91227E-04-2.91293E-14
 -1       320 8.28240E-03-4.65922E-04-2.97067E-14
 -1       321 8.38631E-03-3.72412E-04-2.98334E-14
 -1       322 4.57936E-04-1.52892E-04-2.04613E-16
 -1       323 4.77184E-04-2.01409E-04-1.77132E-16
 -1       324 4.39984E-04-8.39549E-05-2.26381E-16
 -1       325 4.35383E-04-5.71366E-05-2.28120E-16
 -1       326 4.32522E-04-3.31252E-05-2.27191E-16
 -1       327 4.31180E-04-1.06531E-05-2.23823E-16
 -1       328 4.31277E-04 1.13921E-05-2.18535E-16
 -1       329 4.32792E-04 3.40691E-05-2.10993E-16
 -1       330 4.35709E-04 5.80292E-05-2.00920E-16
 -1       331 4.40352E-04 8.53028E-05-1.86794E-16
 -1       332 4.47336E-04 1.17078E-04-1.66896E-16
 -1       333 4.58392E-04 1.55774E-04-1.38463E-16
 -1       334 4.78692E-04 2.05895E-04-9.70530E-17
 -1       335 5.34465E-04 2.58412E-04-7.61991E-17
 -1       336 8.29503E-04 3.54415E-04-2.56912E-16
 -1       337 8.69594E-04-3.35319E-04-5.42132E-16
 -1       338 1.15991E-03-3.95237E-04-9.71699E-16
 -1       339 1.44822E-03-4.34965E-04-1.52633E-15
 -1       340 1.73648E-03-4.59783E-04-2.20440E-15
 -1       341 2.02635E-03-4.73842E-04-3.00440E-15
 -1       342 2.31923E-03-4.80693E-04-3.92404E-15
 -1       343 2.61637E-03-4.83743E-04-4.96062E-15
 -1       344 2.91892E-03-4.86679E-04-6.11356E-15
 -1       345 3.22804E-03-4.93911E-04-7.38001E-15
 -1       346 3.54497E-03-5.10997E-04-8.75584E-15
 -1       347 3.87105E-03-5.44956E-04-1.02406E-14
 -1       348 4.20765E-03-6.04167E-04-1.18349E-14
 -1       349 4.55559E-03-6.97220E-04-1.35394E-14
 -1       350 4.91387E-03-8.29570E-04-1.53579E-14
 -1       351 5.27769E-03-9.96991E-04-1.72922E-14
 -1       352 5.63776E-03-1.17667E-03-1.93488E-14
 -1       353 5.98529E-03-1.32362E-03-2.15380E-14
 -1       354 6.32154E-03-1.38812E-03-2.38658E-14
 -1       355 6.65936E-03-1.35052E-03-2.63367E-14
 -1       356 7.01009E-03-1.23876E-03-2.89421E-14
 -1       357 7.37254E-03-1.10440E-03-3.16762E-14
 -1       358 7.73715E-03-9.88652E-04-3.45370E-14
 -1       359 8.09533E-03-9.10298E-04-3.75009E-14
 -1       360 8.44318E-03-8.71153E-04-4.05580E-14
 -1       361 8.78027E-03-8.64938E-04-4.36952E-14
 -1       362 9.10770E-03-8.83257E-04-4.69146E-14
 -1       363 9.42689E-03-9.18413E-04-5.02192E-14
 -1       364 9.73919E-03-9.64341E-04-5.36001E-14
 -1       365 1.00458E-02-1.01665E-03-5.70602E-14
 -1       366 1.03477E-02-1.07232E-03-6.05944E-14
 -1       367 1.06458E-02-1.12940E-03-6.41989E-14
 -1       368 1.09408E-02-1.18667E-03-6.78590E-14
 -1       369 1.12334E-02-1.24341E-03-7.15695E-14
 -1       370 1.15241E-02-1.29925E-03-7.53236E-14
 -1       371 1.18134E-02-1.35404E-03-7.91231E-14
 -1       372 1.21015E-02-1.40775E-03-8.29734E-14
 -1       373 1.23889E-02-1.46043E-03-8.68690E-14
 -1       374 1.26757E-02-1.51221E-03-9.08182E-14
 -1       375 1.29620E-02-1.56318E-03-9.48163E-14
 -1       376 1.32481E-02-1.61349E-03-9.88543E-14
 -1       377 1.35340E-02-1.66325E-03-1.02930E-13
 -1       378 1.38198E-02-1.71257E-03-1.07037E-13
 -1       379 1.41055E-02-1.76157E-03-1.11171E-13
 -1       380 1.43912E-02-1.81032E-03-1.15327E-13
 -1       381 1.46768E-02-1.85893E-03-1.19499E-13
 -1       382 1.49347E-02-1.90577E-03-1.23269E-13
 -1       383 1.11884E-03 4.20859E-04-5.46743E-16
 -1       384 1.40507E-03 4.65859E-04-9.49263E-16
 -1       385 1.69086E-03 4.95471E-04-1.46616E-15
 -1       386 1.97818E-03 5.14288E-04-2.09918E-15
 -1       387 2.26845E-03 5.26116E-04-2.84908E-15
 -1       388 2.56269E-03 5.34410E-04-3.71511E-15
 -1       389 2.86159E-03 5.42564E-04-4.69438E-15
 -1       390 3.16552E-03 5.54065E-04-5.78767E-15
 -1       391 3.47445E-03 5.72501E-04-6.99320E-15
 -1       392 3.78781E-03 6.01298E-04-8.30919E-15
 -1       393 4.10432E-03 6.43104E-04-9.73751E-15
 -1       394 4.42186E-03 6.98708E-04-1.12784E-14
 -1       395 4.73748E-03 7.65565E-04-1.29367E-14
 -1       396 5.04790E-03 8.36413E-04-1.47143E-14
 -1       397 5.35050E-03 8.98976E-04-1.66133E-14
 -1       398 5.64481E-03 9.38005E-04-1.86342E-14
 -1       399 5.93345E-03 9.39967E-04-2.07815E-14
 -1       400 6.22161E-03 8.98671E-04-2.30541E-14
 -1       401 6.51474E-03 8.18113E-04-2.54529E-14
 -1       402 6.81618E-03 7.10601E-04-2.79781E-14
 -1       403 7.12618E-03 5.91519E-04-3.06227E-14
 -1       404 7.44255E-03 4.74176E-04-3.33865E-14
 -1       405 7.76213E-03 3.67154E-04-3.62687E-14
 -1       406 8.08194E-03 2.74179E-04-3.92588E-14
 -1       407 8.39977E-03 1.95399E-04-4.23525E-14
 -1       408 8.71425E-03 1.28934E-04-4.55375E-14
 -1       409 9.02474E-03 7.21020E-05-4.88154E-14
 -1       410 9.33110E-03 2.21888E-05-5.21722E-14
 -1       411 9.63355E-03-2.31620E-05-5.55989E-14
 -1       412 9.93249E-03-6.58123E-05-5.90938E-14
 -1       413 1.02284E-02-1.07132E-04-6.26611E-14
 -1       414 1.05218E-02-1.48068E-04-6.63040E-14
 -1       415 1.08132E-02-1.89227E-04-7.00187E-14
 -1       416 1.11029E-02-2.30967E-04-7.37983E-14
 -1       417 1.13915E-02-2.73464E-04-7.76373E-14
 -1       418 1.16790E-02-3.16774E-04-8.15239E-14
 -1       419 1.19660E-02-3.60876E-04-8.54576E-14
 -1       420 1.22524E-02-4.05703E-04-8.94352E-14
 -1       421 1.25385E-02-4.51163E-04-9.34438E-14
 -1       422 1.28244E-02-4.97158E-04-9.74864E-14
 -1       423 1.31101E-02-5.43586E-04-1.01560E-13
 -1       424 1.33958E-02-5.90351E-04-1.05656E-13
 -1       425 1.36814E-02-6.37363E-04-1.09767E-13
 -1       426 1.39671E-02-6.84540E-04-1.13881E-13
 -1       427 1.42528E-02-7.31803E-04-1.17999E-13
 -1       428 1.44402E-02-7.68260E-04-1.20679E-13
 -1       429 1.44962E-02-9.74565E-04-1.20727E-13
 -1       430 1.44497E-02-8.90236E-04-1.20353E-13
 -1       431 1.44450E-02-8.29245E-04-1.20516E-13
 -1       432 1.45419E-02-1.05747E-03-1.21091E-13
 -1       433 1.45886E-02-1.14180E-03-1.21456E-13
 -1       434 1.46354E-02-1.22614E-03-1.21818E-13
 -1       435 1.46823E-02-1.31047E-03-1.22173E-13
 -1       436 1.47294E-02-1.39479E-03-1.22530E-13
 -1       437 1.47767E-02-1.47913E-03-1.22875E-13
 -1       438 1.48233E-02-1.56203E-03-1.23212E-13
 -1       439 1.48709E-02-1.64637E-03-1.23553E-13
 -1       440 1.49185E-02-1.73071E-03-1.23891E-13
 -1       441 1.49663E-02-1.81504E-03-1.24224E-13
 -1       442 8.02503E-03-1.80082E-04-3.02237E-14
 -1       443 8.41396E-03-3.44681E-04-3.13844E-14
 -1       444 8.30692E-03-2.90199E-04-3.12106E-14
 -1       445 7.65985E-03-7.84141E-06-2.88639E-14
 -1       446 7.28243E-03 1.74448E-04-2.77441E-14
 -1       447 4.46844E-04-1.15041E-04-2.19415E-16
 -1       448 6.48965E-03 5.82542E-04-2.44256E-14
 -1       449 6.21823E-03 6.64943E-04-2.30838E-14
 -1       450 5.87255E-03 6.73408E-04-2.14002E-14
 -1       451 5.46576E-03 5.45926E-04-1.98520E-14
 -1       452 5.12871E-03 3.92058E-04-1.88187E-14
 -1       453 4.77101E-03 2.09744E-04-1.77712E-14
 -1       454 4.43348E-03 5.56166E-05-1.71171E-14
 -1       455 4.10028E-03-8.54038E-05-1.64077E-14
 -1       456 3.95667E-03-1.42807E-04-1.63107E-14
 -1       457 3.90629E-03-2.00855E-04-1.64077E-14
 -1       458 4.00575E-03-2.52168E-04-1.63568E-14
 -1       459 4.28526E-03-3.70837E-04-1.70400E-14
 -1       460 4.57224E-03-5.06453E-04-1.77145E-14
 -1       461 4.98090E-03-7.14432E-04-1.86366E-14
 -1       462 5.44000E-03-9.81977E-04-2.01230E-14
 -1       463 5.74955E-03-1.14105E-03-2.12947E-14
 -1       464 6.10785E-03-1.25913E-03-2.28179E-14
 -1       465 6.47176E-03-1.25614E-03-2.45743E-14
 -1       466 6.75417E-03-1.16780E-03-2.59008E-14
 -1       467 7.15623E-03-9.74263E-04-2.75208E-14
 -1       468 7.53763E-03-7.75107E-04-2.88073E-14
 -1       469 7.88383E-03-6.01171E-04-2.99585E-14
 -1       470 8.16919E-03-4.80011E-04-3.05426E-14
 -1       471 8.37672E-03-3.85791E-04-3.12534E-14
 -1       472 6.94250E-03 3.61243E-04-2.63926E-14
 -1       473 9.38002E-04 3.22486E-04-4.80000E-16
 -1       474 6.60204E-04-6.58143E-05-4.82755E-16
 -1       475 6.66719E-04-1.02498E-04-4.82162E-16
 -1       476 6.55439E-04 4.15714E-07-4.70144E-16
 -1       477 6.56901E-04 3.30345E-05-4.57709E-16
 -1       478 6.60810E-04 6.66718E-05-4.41081E-16
 -1       479 6.67460E-04 1.03982E-04-4.18543E-16
 -1       480 6.77347E-04 1.46116E-04-3.87938E-16
 -1       481 6.91892E-04 1.95175E-04-3.46684E-16
 -1       482 7.50017E-03 3.21778E-05-2.94512E-14
 -1       483 1.22735E-03 3.74835E-04-8.50977E-16
 -1       484 9.83034E-04-3.02149E-04-7.95547E-16
 -1       485 6.70248E-03 4.76037E-04-2.58691E-14
 -1       486 1.27184E-03-3.47967E-04-1.29675E-15
 -1       487 1.56059E-03-3.78037E-04-1.91894E-15
 -1       488 1.84955E-03-3.95988E-04-2.66158E-15
 -1       489 2.13929E-03-4.05192E-04-3.52277E-15
 -1       490 2.43049E-03-4.08828E-04-4.49938E-15
 -1       491 2.72383E-03-4.10143E-04-5.59122E-15
 -1       492 3.02016E-03-4.12785E-04-6.79497E-15
 -1       493 3.32068E-03-4.21176E-04-8.11016E-15
 -1       494 3.62724E-03-4.40894E-04-9.53312E-15
 -1       495 3.94283E-03-4.79044E-04-1.10635E-14
 -1       496 4.27175E-03-5.44425E-04-1.27019E-14
 -1       497 4.61880E-03-6.47003E-04-1.44498E-14
 -1       498 4.98602E-03-7.94594E-04-1.63087E-14
 -1       499 5.36895E-03-9.82443E-04-1.82844E-14
 -1       500 5.75259E-03-1.17789E-03-2.03879E-14
 -1       501 6.12252E-03-1.31176E-03-2.26316E-14
 -1       502 6.48511E-03-1.32164E-03-2.50235E-14
 -1       503 6.85815E-03-1.21549E-03-2.75585E-14
 -1       504 7.24297E-03-1.06253E-03-3.02249E-14
 -1       505 7.62441E-03-9.26781E-04-3.30181E-14
 -1       506 7.98891E-03-8.34489E-04-3.59239E-14
 -1       507 8.33310E-03-7.86406E-04-3.89272E-14
 -1       508 8.66026E-03-7.74051E-04-4.20156E-14
 -1       509 8.97529E-03-7.87865E-04-4.51825E-14
 -1       510 9.28225E-03-8.19747E-04-4.84342E-14
 -1       511 9.58386E-03-8.63459E-04-5.17647E-14
 -1       512 9.88177E-03-9.14443E-04-5.51747E-14
 -1       513 1.01770E-02-9.69501E-04-5.86623E-14
 -1       514 1.04701E-02-1.02647E-03-6.22240E-14
 -1       515 1.07616E-02-1.08397E-03-6.58498E-14
 -1       516 1.10518E-02-1.14113E-03-6.95305E-14
 -1       517 1.13409E-02-1.19749E-03-7.32561E-14
 -1       518 1.16291E-02-1.25282E-03-7.70267E-14
 -1       519 1.19166E-02-1.30705E-03-8.08467E-14
 -1       520 1.22037E-02-1.36022E-03-8.47173E-14
 -1       521 1.24903E-02-1.41240E-03-8.86416E-14
 -1       522 1.27766E-02-1.46373E-03-9.26071E-14
 -1       523 1.30627E-02-1.51433E-03-9.66219E-14
 -1       524 1.33487E-02-1.56432E-03-1.00671E-13
 -1       525 1.36345E-02-1.61382E-03-1.04754E-13
 -1       526 1.39203E-02-1.66294E-03-1.08863E-13
 -1       527 1.42061E-02-1.71179E-03-1.12995E-13
 -1       528 1.44918E-02-1.76044E-03-1.17148E-13
 -1       529 1.80495E-03 4.32782E-04-1.92817E-15
 -1       530 2.09495E-03 4.46552E-04-2.63815E-15
 -1       531 2.38703E-03 4.54899E-04-3.46277E-15
 -1       532 2.68203E-03 4.61124E-04-4.40054E-15
 -1       533 2.98074E-03 4.68585E-04-5.45210E-15
 -1       534 3.28383E-03 4.80811E-04-6.61474E-15
 -1       535 3.59188E-03 5.01455E-04-7.88667E-15
 -1       536 3.90515E-03 5.33985E-04-9.27003E-15
 -1       537 4.22330E-03 5.80954E-04-1.07651E-14
 -1       538 4.54489E-03 6.42698E-04-1.23733E-14
 -1       539 4.86706E-03 7.15476E-04-1.40981E-14
 -1       540 5.18581E-03 7.89651E-04-1.59424E-14
 -1       541 5.49766E-03 8.49502E-04-1.79082E-14
 -1       542 5.80204E-03 8.76736E-04-2.00010E-14
 -1       543 6.10278E-03 8.57775E-04-2.22208E-14
 -1       544 6.40607E-03 7.91224E-04-2.45672E-14
 -1       545 6.71652E-03 6.88272E-04-2.70380E-14
 -1       546 7.03457E-03 5.66873E-04-2.96324E-14
 -1       547 7.35722E-03 4.43827E-04-3.23442E-14
 -1       548 7.68044E-03 3.30335E-04-3.51724E-14
 -1       549 8.00111E-03 2.31518E-04-3.81126E-14
 -1       550 8.31751E-03 1.48055E-04-4.11583E-14
 -1       551 8.62914E-03 7.81451E-05-4.42982E-14
 -1       552 8.93617E-03 1.89888E-05-4.75311E-14
 -1       553 9.23909E-03-3.23190E-05-5.08517E-14
 -1       554 9.53849E-03-7.83436E-05-5.42444E-14
 -1       555 9.83492E-03-1.21144E-04-5.77074E-14
 -1       556 1.01289E-02-1.62260E-04-6.12419E-14
 -1       557 1.04210E-02-2.02774E-04-6.48491E-14
 -1       558 1.07114E-02-2.43401E-04-6.85300E-14
 -1       559 1.10006E-02-2.84569E-04-7.22794E-14
 -1       560 1.12888E-02-3.26508E-04-7.60883E-14
 -1       561 1.15763E-02-3.69302E-04-7.99463E-14
 -1       562 1.18632E-02-4.12948E-04-8.38540E-14
 -1       563 1.21497E-02-4.57385E-04-8.78106E-14
 -1       564 1.24359E-02-5.02524E-04-9.18024E-14
 -1       565 1.27219E-02-5.48260E-04-9.58223E-14
 -1       566 1.30078E-02-5.94488E-04-9.98769E-14
 -1       567 1.32936E-02-6.41106E-04-1.03954E-13
 -1       568 1.35793E-02-6.88019E-04-1.08047E-13
 -1       569 1.38650E-02-7.35140E-04-1.12157E-13
 -1       570 1.41507E-02-7.82388E-04-1.16271E-13
 -1       571 1.43178E-02-1.05849E-03-1.17694E-13
 -1       572 1.43645E-02-1.14272E-03-1.18053E-13
 -1       573 1.42255E-02-8.91388E-04-1.16976E-13
 -1       574 1.42716E-02-9.74946E-04-1.17339E-13
 -1       575 1.44114E-02-1.22693E-03-1.18408E-13
 -1       576 1.44584E-02-1.31114E-03-1.18761E-13
 -1       577 1.45056E-02-1.39535E-03-1.19108E-13
 -1       578 1.45521E-02-1.47814E-03-1.19436E-13
 -1       579 1.45996E-02-1.56237E-03-1.19769E-13
 -1       580 1.46472E-02-1.64663E-03-1.20105E-13
 -1       581 1.46950E-02-1.73091E-03-1.20436E-13
 -1       582 8.42779E-03-3.42971E-04-3.30743E-14
 -1       583 7.85341E-03-1.35431E-04-3.08300E-14
 -1       584 1.51608E-03 4.10150E-04-1.33298E-15
 -1       585 7.08621E-03 2.58302E-04-2.77671E-14
 -1       586 8.30301E-03-4.22471E-04-3.22031E-14
 -1       587 8.19208E-03-2.64832E-04-3.19247E-14
 -1       588 8.44216E-03-3.73145E-04-3.29428E-14
 -1       589 5.93181E-03-1.21994E-03-2.18059E-14
 -1       590 4.75712E-03-5.64410E-04-1.73754E-14
 -1       591 4.12373E-03-2.80661E-04-1.59141E-14
 -1       592 4.25145E-03-2.47431E-05-1.57601E-14
 -1       593 6.56514E-04-3.20399E-05-4.78604E-16
 -1       594 5.63005E-03 6.24076E-04-2.00013E-14
 -1       595 6.32341E-03 6.47115E-04-2.37819E-14
 -1       596 3.89005E-03-1.96648E-04-1.53607E-14
 -1       597 6.02522E-03 6.99373E-04-2.20671E-14
 -1       598 5.29590E-03 4.69360E-04-1.87570E-14
 -1       599 4.97773E-03 3.05719E-04-1.77132E-14
 -1       600 4.52280E-03 8.72577E-05-1.63750E-14
 -1       601 3.97446E-03-1.24660E-04-1.53907E-14
 -1       602 5.25249E-03-8.48801E-04-1.89101E-14
 -1       603 3.87888E-03-1.65986E-04-1.53789E-14
 -1       604 4.47719E-03-4.26494E-04-1.67130E-14
 -1       605 6.29696E-03-1.29562E-03-2.37711E-14
 -1       606 5.67420E-03-1.09864E-03-2.06143E-14
 -1       607 7.35823E-03-8.62044E-04-2.91625E-14
 -1       608 6.61822E-03-1.23717E-03-2.56069E-14
 -1       609 6.96758E-03-1.08023E-03-2.74712E-14
 -1       610 7.70664E-03-6.77039E-04-3.04538E-14
 -1       611 8.07924E-03-5.09220E-04-3.17685E-14
 -1       612 7.16973E-04-2.32979E-04-4.52143E-16
 -1       613 7.08453E-04 2.73680E-04-2.51196E-16
 -1       614 5.78847E-03 6.86667E-04-2.06285E-14
 -1       615 6.76548E-04-1.43702E-04-4.74792E-16
 -1       616 8.37843E-03-3.23984E-04-3.37988E-14
 -1       617 1.46859E-02-1.79493E-03-1.19973E-13
 -1       618 3.94173E-03-2.17796E-04-1.49264E-14
 -1       619 4.99694E-03-7.01982E-04-1.76253E-14
 -1       620 8.89424E-04 6.32187E-05-7.74662E-16
 -1       621 8.85318E-04 2.07100E-05-7.98010E-16
 -1       622 9.09179E-04 1.57752E-04-7.03827E-16
 -1       623 9.25970E-04 2.13624E-04-6.51091E-16
 -1       624 1.39398E-02-8.44081E-04-1.12865E-13
 -1       625 1.05457E-03 2.86613E-04-7.35631E-16
 -1       626 6.90008E-03 3.81185E-04-2.74442E-14
 -1       627 1.38768E-03-2.98636E-04-1.63860E-15
 -1       628 1.67436E-03-3.20201E-04-2.32455E-15
 -1       629 1.96095E-03-3.32357E-04-3.12802E-15
 -1       630 2.24724E-03-3.37847E-04-4.04616E-15
 -1       631 2.53325E-03-3.39439E-04-5.07809E-15
 -1       632 2.81920E-03-3.40069E-04-6.22227E-15
 -1       633 3.10568E-03-3.43058E-04-7.47612E-15
 -1       634 3.39403E-03-3.52383E-04-8.83793E-15
 -1       635 3.68695E-03-3.73072E-04-1.03065E-14
 -1       636 3.98927E-03-4.11840E-04-1.18806E-14
 -1       637 4.30905E-03-4.78281E-04-1.35613E-14
 -1       638 4.65561E-03-5.85972E-04-1.53476E-14
 -1       639 7.12541E-03-1.02845E-03-2.87810E-14
 -1       640 7.53204E-03-8.59907E-04-3.15121E-14
 -1       641 7.90715E-03-7.51626E-04-3.43605E-14
 -1       642 8.24863E-03-6.98772E-04-3.73094E-14
 -1       643 8.56466E-03-6.85031E-04-4.03459E-14
 -1       644 8.86516E-03-6.97537E-04-4.34625E-14
 -1       645 9.15733E-03-7.27616E-04-4.66603E-14
 -1       646 9.44552E-03-7.69347E-04-4.99422E-14
 -1       647 9.73209E-03-8.18546E-04-5.33031E-14
 -1       648 1.00181E-02-8.72220E-04-5.67436E-14
 -1       649 1.03041E-02-9.28256E-04-6.02611E-14
 -1       650 1.05902E-02-9.85211E-04-6.38485E-14
 -1       651 1.08763E-02-1.04215E-03-6.74967E-14
 -1       652 1.11625E-02-1.09850E-03-7.11953E-14
 -1       653 1.14486E-02-1.15396E-03-7.49398E-14
 -1       654 1.17347E-02-1.20840E-03-7.87302E-14
 -1       655 1.20208E-02-1.26180E-03-8.25714E-14
 -1       656 1.23068E-02-1.31424E-03-8.64655E-14
 -1       657 1.25927E-02-1.36580E-03-9.04091E-14
 -1       658 1.28786E-02-1.41660E-03-9.43949E-14
 -1       659 1.31644E-02-1.46676E-03-9.84248E-14
 -1       660 1.34502E-02-1.51641E-03-1.02484E-13
 -1       661 1.37360E-02-1.56564E-03-1.06567E-13
 -1       662 1.40218E-02-1.61455E-03-1.10673E-13
 -1       663 1.43075E-02-1.66324E-03-1.14805E-13
 -1       664 2.20960E-03 3.77707E-04-3.20014E-15
 -1       665 8.42826E-03-4.09763E-04-3.41279E-14
 -1       666 1.91972E-03 3.68490E-04-2.41497E-15
 -1       667 2.79486E-03 3.87296E-04-5.10632E-15
 -1       668 3.09212E-03 3.93898E-04-6.22800E-15
 -1       669 3.39411E-03 4.06251E-04-7.45805E-15
 -1       670 3.70231E-03 4.28102E-04-8.79718E-15
 -1       671 4.01809E-03 4.63223E-04-1.02467E-14
 -1       672 4.34203E-03 5.14666E-04-1.18078E-14
 -1       673 4.67288E-03 5.83125E-04-1.34813E-14
 -1       674 5.00659E-03 6.64070E-04-1.52709E-14
 -1       675 5.33683E-03 7.44456E-04-1.71808E-14
 -1       676 5.65830E-03 8.02379E-04-1.92156E-14
 -1       677 5.97157E-03 8.13471E-04-2.13801E-14
 -1       678 6.28388E-03 7.66245E-04-2.36726E-14
 -1       679 6.60330E-03 6.68162E-04-2.60924E-14
 -1       680 6.93206E-03 5.41786E-04-2.86349E-14
 -1       681 7.26583E-03 4.10622E-04-3.12982E-14
 -1       682 7.59815E-03 2.89854E-04-3.40773E-14
 -1       683 7.92435E-03 1.85859E-04-3.69696E-14
 -1       684 8.24259E-03 9.90474E-05-3.99682E-14
 -1       685 8.55315E-03 2.70226E-05-4.30637E-14
 -1       686 8.85728E-03-3.34672E-05-4.62522E-14
 -1       687 9.15644E-03-8.55901E-05-4.95311E-14
 -1       688 9.45191E-03-1.32056E-04-5.28914E-14
 -1       689 9.74471E-03-1.75013E-04-5.63211E-14
 -1       690 1.00356E-02-2.16071E-04-5.98242E-14
 -1       691 1.03251E-02-2.56375E-04-6.33979E-14
 -1       692 1.06135E-02-2.96693E-04-6.70429E-14
 -1       693 1.09012E-02-3.37500E-04-7.07623E-14
 -1       694 1.11884E-02-3.79060E-04-7.45411E-14
 -1       695 1.14751E-02-4.21486E-04-7.83737E-14
 -1       696 1.17616E-02-4.64790E-04-8.22543E-14
 -1       697 1.20478E-02-5.08922E-04-8.61862E-14
 -1       698 1.23338E-02-5.53798E-04-9.01587E-14
 -1       699 1.26198E-02-5.99316E-04-9.41620E-14
 -1       700 1.29056E-02-6.45369E-04-9.81965E-14
 -1       701 1.31914E-02-6.91852E-04-1.02258E-13
 -1       702 1.34772E-02-7.38671E-04-1.06338E-13
 -1       703 1.37085E-02-7.91314E-04-1.09598E-13
 -1       704 1.41875E-02-1.22762E-03-1.15013E-13
 -1       705 1.45012E-02-1.69710E-03-1.17613E-13
 -1       706 1.40937E-02-1.05943E-03-1.14312E-13
 -1       707 1.42346E-02-1.31168E-03-1.15358E-13
 -1       708 1.41405E-02-1.14354E-03-1.14667E-13
 -1       709 7.71770E-03-6.02357E-05-3.15720E-14
 -1       710 1.42810E-02-1.39434E-03-1.15686E-13
 -1       711 1.43284E-02-1.47845E-03-1.16016E-13
 -1       712 1.43760E-02-1.56260E-03-1.16341E-13
 -1       713 1.63077E-03 3.52309E-04-1.74336E-15
 -1       714 7.94243E-03-5.96753E-04-3.24408E-14
 -1       715 8.09807E-03-2.25420E-04-3.30636E-14
 -1       716 4.03094E-03-7.37838E-05-1.45906E-14
 -1       717 6.11101E-03-1.29282E-03-2.26330E-14
 -1       718 4.23616E-03-3.29519E-04-1.52380E-14
 -1       719 2.50104E-03 3.82966E-04-4.09695E-15
 -1       720 1.10153E-03-2.65039E-04-1.07069E-15
 -1       721 1.34237E-03 3.26075E-04-1.18395E-15
 -1       722 8.27325E-03-4.65069E-04-3.36857E-14
 -1       723 6.47070E-03-1.30201E-03-2.48817E-14
 -1       724 7.35515E-03 1.23667E-04-2.98224E-14
 -1       725 6.15981E-03 7.03136E-04-2.28569E-14
 -1       726 5.10439E-03 4.08581E-04-1.74222E-14
 -1       727 4.33214E-03 5.12227E-05-1.50143E-14
 -1       728 4.46369E-03-4.26453E-04-1.58617E-14
 -1       729 5.41019E-03 5.65391E-04-1.86062E-14
 -1       730 8.97290E-04 1.08283E-04-7.44037E-16
 -1       731 8.96024E-04-1.06884E-04-8.27704E-16
 -1       732 4.70077E-03 2.07143E-04-1.61003E-14
 -1       733 6.50971E-03 5.86612E-04-2.51071E-14
 -1       734 7.60029E-03-7.73674E-04-3.12059E-14
 -1       735 8.51715E-03-3.75741E-04-3.48167E-14
 -1       736 9.07806E-04-1.55354E-04-8.22516E-16
 -1       737 8.85003E-04-2.07314E-05-8.14598E-16
 -1       738 5.56496E-03 6.51679E-04-1.91954E-14
 -1       739 1.40474E-02-9.76001E-04-1.13956E-13
 -1       740 8.52402E-03-3.62287E-04-3.55553E-14
 -1       741 9.40362E-04-2.22665E-04-8.20772E-16
 -1       742 3.80885E-03-1.64790E-04-1.42744E-14
 -1       743 1.43417E-02-1.61293E-03-1.15577E-13
 -1       744 3.87285E-03-1.21862E-04-1.42139E-14
 -1       745 4.01044E-03-2.56005E-04-1.42696E-14
 -1       746 3.80388E-03-1.80832E-04-1.38535E-14
 -1       747 6.82133E-03-1.19626E-03-2.71374E-14
 -1       748 8.88527E-04-6.26188E-05-8.24465E-16
 -1       749 5.93619E-03 7.30663E-04-2.13759E-14
 -1       750 1.16012E-03 2.15442E-04-1.05175E-15
 -1       751 1.78807E-03-2.62536E-04-2.74280E-15
 -1       752 2.07029E-03-2.70263E-04-3.60307E-15
 -1       753 2.35080E-03-2.73335E-04-4.57618E-15
 -1       754 2.62907E-03-2.74067E-04-5.66126E-15
 -1       755 2.90480E-03-2.74912E-04-6.85588E-15
 -1       756 3.17818E-03-2.78541E-04-8.15803E-15
 -1       757 3.45030E-03-2.88018E-04-9.56521E-15
 -1       758 3.72396E-03-3.07242E-04-1.10777E-14
 -1       759 4.00522E-03-3.42371E-04-1.26935E-14
 -1       760 4.45504E-03-4.59833E-04-1.50586E-14
 -1       761 1.22202E-03-2.24455E-04-1.36662E-15
 -1       762 8.20506E-03-6.02591E-04-3.56989E-14
 -1       763 8.49979E-03-5.93504E-04-3.86834E-14
 -1       764 8.77843E-03-6.09123E-04-4.17511E-14
 -1       765 9.05073E-03-6.39778E-04-4.48960E-14
 -1       766 9.32190E-03-6.80356E-04-4.81266E-14
 -1       767 9.59435E-03-7.27636E-04-5.14395E-14
 -1       768 9.86897E-03-7.79285E-04-5.48317E-14
 -1       769 1.01459E-02-8.33539E-04-5.83016E-14
 -1       770 1.04248E-02-8.89086E-04-6.18493E-14
 -1       771 1.07055E-02-9.44994E-04-6.54629E-14
 -1       772 1.09876E-02-1.00064E-03-6.91320E-14
 -1       773 1.12707E-02-1.05566E-03-7.28507E-14
 -1       774 1.15545E-02-1.10984E-03-7.66164E-14
 -1       775 1.18390E-02-1.16313E-03-8.04266E-14
 -1       776 1.21239E-02-1.21553E-03-8.42898E-14
 -1       777 1.24090E-02-1.26711E-03-8.82068E-14
 -1       778 1.26944E-02-1.31795E-03-9.21664E-14
 -1       779 1.29799E-02-1.36818E-03-9.61717E-14
 -1       780 1.32655E-02-1.41788E-03-1.00210E-13
 -1       781 1.35512E-02-1.46716E-03-1.04272E-13
 -1       782 1.38369E-02-1.51611E-03-1.08357E-13
 -1       783 1.40893E-02-1.56458E-03-1.11958E-13
 -1       784 3.19625E-03 3.17795E-04-7.02200E-15
 -1       785 2.90167E-03 3.12899E-04-5.83348E-15
 -1       786 3.80510E-03 3.50113E-04-9.72454E-15
 -1       787 4.12483E-03 3.86254E-04-1.12390E-14
 -1       788 4.45745E-03 4.42019E-04-1.28639E-14
 -1       789 4.80170E-03 5.19903E-04-1.46003E-14
 -1       790 5.15107E-03 6.14806E-04-1.64536E-14
 -1       791 5.49577E-03 7.06781E-04-1.84279E-14
 -1       792 6.48195E-03 6.56287E-04-2.51377E-14
 -1       793 6.82394E-03 5.20313E-04-2.76312E-14
 -1       794 7.17282E-03 3.75281E-04-3.02473E-14
 -1       795 7.51880E-03 2.43765E-04-3.29812E-14
 -1       796 7.85402E-03 1.34337E-04-3.58267E-14
 -1       797 8.17615E-03 4.57297E-05-3.87807E-14
 -1       798 8.48652E-03-2.63808E-05-4.18341E-14
 -1       799 8.78778E-03-8.64295E-05-4.49783E-14
 -1       800 9.08266E-03-1.38114E-04-4.82169E-14
 -1       801 9.37337E-03-1.84289E-04-5.15395E-14
 -1       802 9.66152E-03-2.27085E-04-5.49385E-14
 -1       803 9.94820E-03-2.68052E-04-5.84087E-14
 -1       804 1.02341E-02-3.08282E-04-6.19508E-14
 -1       805 1.05196E-02-3.48512E-04-6.55627E-14
 -1       806 1.08050E-02-3.89209E-04-6.92478E-14
 -1       807 1.10904E-02-4.30637E-04-7.30019E-14
 -1       808 1.13758E-02-4.72914E-04-7.68051E-14
 -1       809 1.16613E-02-5.16064E-04-8.06587E-14
 -1       810 1.19469E-02-5.60044E-04-8.45643E-14
 -1       811 1.22325E-02-6.04778E-04-8.85142E-14
 -1       812 1.25181E-02-6.50168E-04-9.25004E-14
 -1       813 1.28038E-02-6.96111E-04-9.65187E-14
 -1       814 1.30895E-02-7.42507E-04-1.00565E-13
 -1       815 1.33752E-02-7.89261E-04-1.04636E-13
 -1       816 3.87165E-03-7.46631E-05-1.33859E-14
 -1       817 6.73048E-03 5.15171E-04-2.67778E-14
 -1       818 1.12075E-03 4.88926E-05-1.20109E-15
 -1       819 1.40573E-02-1.39459E-03-1.12286E-13
 -1       820 1.39637E-02-1.22816E-03-1.11629E-13
 -1       821 7.18581E-03 2.66600E-04-2.96447E-14
 -1       822 1.41048E-02-1.47860E-03-1.12610E-13
 -1       823 1.40104E-02-1.31136E-03-1.11961E-13
 -1       824 1.74689E-03 2.93082E-04-2.18171E-15
 -1       825 8.22351E-03-2.71542E-04-3.35136E-14
 -1       826 1.24916E-03 2.68675E-04-1.12270E-15
 -1       827 7.88480E-03-6.87481E-04-3.33545E-14
 -1       828 8.56522E-03-4.13477E-04-3.62481E-14
 -1       829 3.49651E-03 3.28857E-04-8.31937E-15
 -1       830 8.02629E-03-1.56779E-04-3.41961E-14
 -1       831 2.03400E-03 3.03439E-04-2.92778E-15
 -1       832 8.40311E-03-3.17206E-04-3.52867E-14
 -1       833 4.10959E-03 1.91214E-05-1.37881E-14
 -1       834 8.46672E-03-4.48765E-04-3.58042E-14
 -1       835 7.60293E-03 4.44052E-05-3.20399E-14
 -1       836 8.22573E-03-2.49877E-04-3.47460E-14
 -1       837 5.18448E-03 5.02990E-04-1.72786E-14
 -1       838 1.50496E-03-2.47917E-04-1.99666E-15
 -1       839 4.84980E-03 3.34153E-04-1.60241E-14
 -1       840 4.46405E-03 1.64612E-04-1.47110E-14
 -1       841 1.06336E-03-1.89765E-04-1.07836E-15
 -1       842 8.19898E-03-5.44981E-04-3.46751E-14
 -1       843 6.33800E-03 6.81926E-04-2.40849E-14
 -1       844 3.74283E-03-1.32469E-04-1.32765E-14
 -1       845 1.11762E-03-4.40826E-07-1.22948E-15
 -1       846 5.34137E-03 6.01380E-04-1.78365E-14
 -1       847 1.04773E-03-1.34712E-04-1.08790E-15
 -1       848 1.38231E-02-9.76665E-04-1.10594E-13
 -1       849 1.03720E-03-8.44373E-05-1.08647E-15
 -1       850 3.69336E-03-1.49371E-04-1.28737E-14
 -1       851 2.61067E-03 3.10775E-04-4.75409E-15
 -1       852 6.15237E-03 7.46069E-04-2.27697E-14
 -1       853 1.36065E-02-8.41850E-04-1.07885E-13
 -1       854 1.38699E-02-1.06066E-03-1.10951E-13
 -1       855 1.39167E-02-1.14443E-03-1.11294E-13
 -1       856 1.40970E-02-1.52158E-03-1.12287E-13
 -1       857 1.14197E-03 1.55283E-04-1.11421E-15
 -1       858 4.13811E-03-3.30140E-04-1.40048E-14
 -1       859 3.81980E-03-2.09387E-04-1.32190E-14
 -1       860 8.62348E-03-3.98838E-04-3.70023E-14
 -1       861 2.32177E-03 3.08502E-04-3.78547E-15
 -1       862 1.12886E-03 1.00105E-04-1.16308E-15
 -1       863 1.37657E-02-8.84030E-04-1.10101E-13
 -1       864 1.49792E-03 2.85078E-04-1.60727E-15
 -1       865 1.90185E-03-2.05802E-04-3.17256E-15
 -1       866 2.17855E-03-2.10660E-04-4.08695E-15
 -1       867 2.45189E-03-2.12710E-04-5.11238E-15
 -1       868 2.72077E-03-2.13811E-04-6.24775E-15
 -1       869 2.98422E-03-2.15809E-04-7.49118E-15
 -1       870 3.24153E-03-2.20530E-04-8.83964E-15
 -1       871 3.49250E-03-2.29847E-04-1.02918E-14
 -1       872 3.73828E-03-2.46165E-04-1.18463E-14
 -1       873 1.20223E-03-1.63704E-04-1.38108E-15
 -1       874 8.71390E-03-5.26360E-04-4.00464E-14
 -1       875 8.95882E-03-5.58948E-04-4.31424E-14
 -1       876 9.20896E-03-5.98773E-04-4.63211E-14
 -1       877 9.46503E-03-6.43866E-04-4.95838E-14
 -1       878 9.72675E-03-6.92836E-04-5.29297E-14
 -1       879 9.99348E-03-7.44470E-04-5.63522E-14
 -1       880 1.02644E-02-7.97724E-04-5.98535E-14
 -1       881 1.05389E-02-8.51757E-04-6.34306E-14
 -1       882 1.08161E-02-9.05942E-04-6.70703E-14
 -1       883 1.10955E-02-9.59854E-04-7.07604E-14
 -1       884 1.13766E-02-1.01323E-03-7.45019E-14
 -1       885 1.16589E-02-1.06594E-03-7.82863E-14
 -1       886 1.19423E-02-1.11794E-03-8.21210E-14
 -1       887 1.22263E-02-1.16925E-03-8.60076E-14
 -1       888 1.25109E-02-1.21992E-03-8.99408E-14
 -1       889 1.27959E-02-1.27003E-03-9.39192E-14
 -1       890 1.30812E-02-1.31967E-03-9.79377E-14
 -1       891 1.33666E-02-1.36890E-03-1.01980E-13
 -1       892 1.36522E-02-1.41783E-03-1.06048E-13
 -1       893 3.00232E-03 2.37830E-04-6.58079E-15
 -1       894 4.21926E-03 3.00938E-04-1.22451E-14
 -1       895 3.89629E-03 2.65648E-04-1.06695E-14
 -1       896 4.92299E-03 4.55071E-04-1.57278E-14
 -1       897 8.45515E-03-5.19887E-04-3.71246E-14
 -1       898 7.79688E-03 7.48117E-05-3.46871E-14
 -1       899 8.12273E-03-1.40422E-05-3.75947E-14
 -1       900 8.43180E-03-8.36829E-05-4.06057E-14
 -1       901 8.72875E-03-1.40888E-04-4.37101E-14
 -1       902 9.01792E-03-1.90354E-04-4.69054E-14
 -1       903 9.30255E-03-2.35102E-04-5.01877E-14
 -1       904 9.58487E-03-2.77136E-04-5.35520E-14
 -1       905 9.86630E-03-3.17798E-04-5.69936E-14
 -1       906 1.01477E-02-3.57995E-04-6.05050E-14
 -1       907 1.04294E-02-3.98330E-04-6.40886E-14
 -1       908 1.07118E-02-4.39182E-04-6.77430E-14
 -1       909 1.09948E-02-4.80763E-04-7.14637E-14
 -1       910 1.12784E-02-5.23169E-04-7.52426E-14
 -1       911 1.15625E-02-5.66414E-04-7.90698E-14
 -1       912 1.18470E-02-6.10458E-04-8.29480E-14
 -1       913 1.21319E-02-6.55226E-04-8.68730E-14
 -1       914 1.24171E-02-7.00630E-04-9.08390E-14
 -1       915 1.27024E-02-7.46574E-04-9.48386E-14
 -1       916 1.29879E-02-7.92964E-04-9.88704E-14
 -1       917 1.32735E-02-8.39711E-04-1.02930E-13
 -1       918 3.65414E-03-8.41075E-05-1.20308E-14
 -1       919 1.38337E-02-1.39464E-03-1.08905E-13
 -1       920 7.93221E-03-5.52268E-05-3.47838E-14
 -1       921 1.86338E-03 2.32930E-04-2.64881E-15
 -1       922 3.84771E-03-5.26027E-06-1.23937E-14
 -1       923 8.62253E-03-4.55334E-04-3.78500E-14
 -1       924 1.07554E-03-4.30924E-05-1.16090E-15
 -1       925 8.57966E-03-3.57416E-04-3.72547E-14
 -1       926 4.56179E-03 3.61899E-04-1.39307E-14
 -1       927 4.15242E-03 1.31976E-04-1.29909E-14
 -1       928 4.59030E-03 2.95138E-04-1.45257E-14
 -1       929 7.48163E-03 1.76034E-04-3.20919E-14
 -1       930 1.62301E-03-1.96497E-04-2.37030E-15
 -1       931 3.57143E-03-1.07577E-04-1.16537E-14
 -1       932 1.18826E-03-1.08023E-04-1.38228E-15
 -1       933 1.35423E-03 2.62633E-05-1.71885E-15
 -1       934 8.47625E-03-3.09029E-04-3.71639E-14
 -1       935 2.71601E-03 2.38592E-04-5.43357E-15
 -1       936 3.29228E-03 2.39664E-04-7.83594E-15
 -1       937 1.38746E-02-1.46974E-03-1.09160E-13
 -1       938 3.66021E-03-1.72347E-04-1.22647E-14
 -1       939 1.39398E-03 2.04633E-04-1.54758E-15
 -1       940 3.58890E-03 2.47397E-04-9.19861E-15
 -1       941 2.14732E-03 2.38177E-04-3.46648E-15
 -1       942 1.37868E-02-1.31155E-03-1.08585E-13
 -1       943 1.35047E-02-8.92268E-04-1.06173E-13
 -1       944 1.36929E-02-1.14490E-03-1.07927E-13
 -1       945 1.44492E-03 2.43788E-04-1.58074E-15
 -1       946 8.26372E-03-1.90816E-04-3.69154E-14
 -1       947 3.88290E-03-2.48374E-04-1.30356E-14
 -1       948 1.36152E-03 8.21303E-05-1.67534E-15
 -1       949 1.37396E-02-1.22790E-03-1.08259E-13
 -1       950 1.57971E-03 2.21830E-04-1.94044E-15
 -1       951 8.71377E-03-3.98585E-04-3.87345E-14
 -1       952 8.70708E-03-4.35524E-04-3.86204E-14
 -1       953 8.37172E-03-2.55483E-04-3.70452E-14
 -1       954 1.35992E-02-9.77639E-04-1.07241E-13
 -1       955 1.36459E-02-1.06126E-03-1.07589E-13
 -1       956 2.28794E-03-1.54087E-04-4.57804E-15
 -1       957 2.55376E-03-1.56539E-04-5.65349E-15
 -1       958 2.81276E-03-1.59322E-04-6.83686E-15
 -1       959 3.06310E-03-1.63693E-04-8.12673E-15
 -1       960 3.30258E-03-1.70706E-04-9.52043E-15
 -1       961 3.52812E-03-1.81519E-04-1.10169E-14
 -1       962 8.87400E-03-4.87942E-04-4.13960E-14
 -1       963 8.67724E-03-3.55684E-04-3.92558E-14
 -1       964 1.37491E-03 1.41164E-04-1.61874E-15
 -1       965 9.09999E-03-5.25869E-04-4.45250E-14
 -1       966 9.33851E-03-5.67862E-04-4.77393E-14
 -1       967 9.58701E-03-6.13291E-04-5.10363E-14
 -1       968 9.84350E-03-6.61445E-04-5.44125E-14
 -1       969 1.01064E-02-7.11559E-04-5.78672E-14
 -1       970 1.03744E-02-7.62906E-04-6.14024E-14
 -1       971 1.06466E-02-8.14876E-04-6.50073E-14
 -1       972 1.09221E-02-8.67010E-04-6.86729E-14
 -1       973 1.12001E-02-9.18994E-04-7.23868E-14
 -1       974 1.14801E-02-9.70631E-04-7.61445E-14
 -1       975 1.17617E-02-1.02182E-03-7.99554E-14
 -1       976 1.20445E-02-1.07251E-03-8.38113E-14
 -1       977 1.23282E-02-1.12273E-03-8.77179E-14
 -1       978 1.26125E-02-1.17252E-03-9.16690E-14
 -1       979 1.28973E-02-1.22191E-03-9.56611E-14
 -1       980 1.31824E-02-1.27098E-03-9.96879E-14
 -1       981 1.34677E-02-1.31978E-03-1.03741E-13
 -1       982 8.19997E-03-1.01469E-04-3.75122E-14
 -1       983 8.68260E-03-1.97078E-04-4.24454E-14
 -1       984 8.96294E-03-2.42283E-04-4.55997E-14
 -1       985 9.23926E-03-2.84308E-04-4.88403E-14
 -1       986 9.51415E-03-3.24859E-04-5.21675E-14
 -1       987 9.78915E-03-3.64922E-04-5.55767E-14
 -1       988 1.00651E-02-4.05078E-04-5.90608E-14
 -1       989 1.03424E-02-4.45688E-04-6.26160E-14
 -1       990 1.06211E-02-4.86966E-04-6.62414E-14
 -1       991 1.09012E-02-5.29015E-04-6.99315E-14
 -1       992 1.11825E-02-5.71867E-04-7.36831E-14
 -1       993 1.14649E-02-6.15505E-04-7.74848E-14
 -1       994 1.17482E-02-6.59875E-04-8.13366E-14
 -1       995 1.20321E-02-7.04904E-04-8.52367E-14
 -1       996 1.23166E-02-7.50508E-04-8.91820E-14
 -1       997 1.26014E-02-7.96602E-04-9.31623E-14
 -1       998 1.28866E-02-8.43103E-04-9.71776E-14
 -1       999 1.31720E-02-8.89933E-04-1.01221E-13
 -1      1000 3.81171E-03 9.01859E-05-1.13565E-14
 -1      1001 1.33855E-02-9.33712E-04-1.04227E-13
 -1      1002 1.35190E-03-2.93459E-05-1.74723E-15
 -1      1003 3.67700E-03-1.93789E-04-1.20952E-14
 -1      1004 2.43138E-03 2.39416E-04-4.39512E-15
 -1      1005 1.69995E-03 1.67024E-04-2.36395E-15
 -1      1006 1.60281E-03-1.33222E-04-2.37016E-15
 -1      1007 3.58561E-03-1.97705E-05-1.09824E-14
 -1      1008 8.44608E-03-1.53208E-04-3.99456E-14
 -1      1009 3.96833E-03 1.73755E-04-1.16267E-14
 -1      1010 2.01703E-03-1.50593E-04-3.61204E-15
 -1      1011 3.49135E-03-1.32266E-04-1.10814E-14
 -1      1012 8.60044E-03-3.13897E-04-3.91382E-14
 -1      1013 2.81705E-03 1.66854E-04-6.13451E-15
 -1      1014 1.34222E-02-1.06184E-03-1.04234E-13
 -1      1015 3.09614E-03 1.62405E-04-7.34823E-15
 -1      1016 1.58859E-03-3.01737E-06-2.32419E-15
 -1      1017 4.27466E-03 2.75577E-04-1.27175E-14
 -1      1018 3.66710E-03 1.61648E-04-1.00954E-14
 -1      1019 8.49253E-03-2.31896E-04-3.93325E-14
 -1      1020 1.98013E-03 1.72308E-04-3.14261E-15
 -1      1021 3.48141E-03-5.25201E-05-1.06323E-14
 -1      1022 1.34689E-02-1.14461E-03-1.04570E-13
 -1      1023 1.59380E-03 5.60560E-05-2.27712E-15
 -1      1024 1.34038E-02-9.97826E-04-1.04234E-13
 -1      1025 8.98366E-03-4.63016E-04-4.27433E-14
 -1      1026 2.66096E-03-1.04720E-04-6.19711E-15
 -1      1027 2.91134E-03-1.10480E-04-7.42699E-15
 -1      1028 3.15019E-03-1.18643E-04-8.76299E-15
 -1      1029 1.21787E-03-6.07679E-05-1.45316E-15
 -1      1030 2.25979E-03 1.73208E-04-4.03079E-15
 -1      1031 9.44838E-03-3.69682E-04-5.07910E-14
 -1      1032 3.37809E-03 1.59577E-04-8.66826E-15
 -1      1033 9.20667E-03-5.00179E-04-4.59071E-14
 -1      1034 9.44395E-03-5.41120E-04-4.91564E-14
 -1      1035 9.69175E-03-5.85061E-04-5.24862E-14
 -1      1036 9.94774E-03-6.31387E-04-5.58949E-14
 -1      1037 1.02102E-02-6.79436E-04-5.93847E-14
 -1      1038 1.04779E-02-7.28603E-04-6.29546E-14
 -1      1039 1.07497E-02-7.78406E-04-6.65870E-14
 -1      1040 1.10249E-02-8.28485E-04-7.02753E-14
 -1      1041 1.13026E-02-8.78594E-04-7.40073E-14
 -1      1042 1.15825E-02-9.28567E-04-7.77890E-14
 -1      1043 1.18639E-02-9.78318E-04-8.16208E-14
 -1      1044 1.21466E-02-1.02781E-03-8.54970E-14
 -1      1045 1.24301E-02-1.07703E-03-8.94245E-14
 -1      1046 1.27144E-02-1.12601E-03-9.33975E-14
 -1      1047 1.29991E-02-1.17476E-03-9.74050E-14
 -1      1048 1.32842E-02-1.22333E-03-1.01441E-13
 -1      1049 9.18306E-03-3.31167E-04-4.75028E-14
 -1      1050 8.84584E-03-4.29239E-04-4.07189E-14
 -1      1051 8.91844E-03-2.92939E-04-4.42969E-14
 -1      1052 9.71561E-03-4.08947E-04-5.41639E-14
 -1      1053 9.98527E-03-4.49106E-04-5.76163E-14
 -1      1054 1.02575E-02-4.90191E-04-6.11443E-14
 -1      1055 1.05322E-02-5.32186E-04-6.47438E-14
 -1      1056 1.08090E-02-5.75041E-04-6.84061E-14
 -1      1057 1.10879E-02-6.18684E-04-7.21277E-14
 -1      1058 1.13683E-02-6.63045E-04-7.59028E-14
 -1      1059 1.16501E-02-7.08042E-04-7.97300E-14
 -1      1060 1.19329E-02-7.53594E-04-8.36045E-14
 -1      1061 1.22166E-02-7.99622E-04-8.75256E-14
 -1      1062 1.25009E-02-8.46048E-04-9.14905E-14
 -1      1063 1.27856E-02-8.92805E-04-9.54880E-14
 -1      1064 1.30707E-02-9.39831E-04-9.95125E-14
 -1      1065 1.58996E-03-6.25976E-05-2.35332E-15
 -1      1066 3.45793E-03 4.70814E-05-9.76641E-15
 -1      1067 2.53864E-03 1.70953E-04-5.02858E-15
 -1      1068 2.40179E-03-1.00527E-04-5.07454E-15
 -1      1069 8.83843E-03-3.88384E-04-4.12540E-14
 -1      1070 1.35119E-02-1.22578E-03-1.04847E-13
 -1      1071 1.99891E-03-7.65844E-05-3.58754E-15
 -1      1072 2.20148E-03-8.86367E-05-4.29979E-15
 -1      1073 3.34814E-03 7.80763E-06-9.44559E-15
 -1      1074 1.60748E-03 1.18576E-04-2.21654E-15
 -1      1075 1.82684E-03 2.58542E-05-2.97077E-15
 -1      1076 2.91412E-03 9.64849E-05-6.85582E-15
 -1      1077 1.90972E-03-2.51507E-05-3.27722E-15
 -1      1078 2.64421E-03 1.03857E-04-5.68394E-15
 -1      1079 8.71368E-03-2.67324E-04-4.18128E-14
 -1      1080 3.36553E-03-8.44528E-05-1.00982E-14
 -1      1081 8.78032E-03-3.51355E-04-4.11348E-14
 -1      1082 1.31985E-02-1.06190E-03-1.00893E-13
 -1      1083 1.88490E-03 1.22862E-04-2.97600E-15
 -1      1084 3.18267E-03 8.78191E-05-8.13413E-15
 -1      1085 3.02471E-03-6.55688E-05-8.01704E-15
 -1      1086 8.99623E-03-4.22046E-04-4.32906E-14
 -1      1087 1.29135E-02-1.01423E-03-9.68624E-14
 -1      1088 2.16148E-03 1.23174E-04-3.84458E-15
 -1      1089 9.90653E-03-4.89635E-04-5.61732E-14
 -1      1090 1.32414E-02-1.14260E-03-1.01173E-13
 -1      1091 9.28899E-03-4.72796E-04-4.72826E-14
 -1      1092 9.53173E-03-5.12088E-04-5.05622E-14
 -1      1093 9.78340E-03-5.54269E-04-5.39247E-14
 -1      1094 1.00420E-02-5.98689E-04-5.73701E-14
 -1      1095 1.03064E-02-6.44627E-04-6.08982E-14
 -1      1096 1.05755E-02-6.91636E-04-6.44950E-14
 -1      1097 1.08483E-02-7.39359E-04-6.81524E-14
 -1      1098 1.11242E-02-7.87524E-04-7.18629E-14
 -1      1099 1.14025E-02-8.35884E-04-7.56197E-14
 -1      1100 1.16827E-02-8.84331E-04-7.94245E-14
 -1      1101 1.19644E-02-9.32782E-04-8.32778E-14
 -1      1102 1.22473E-02-9.81189E-04-8.71798E-14
 -1      1103 1.25310E-02-1.02953E-03-9.11301E-14
 -1      1104 1.28154E-02-1.07780E-03-9.51199E-14
 -1      1105 1.30283E-02-1.11023E-03-9.81387E-14
 -1      1106 9.38562E-03-4.10709E-04-4.94207E-14
 -1      1107 9.13223E-03-3.74185E-04-4.61685E-14
 -1      1108 1.01733E-02-5.31534E-04-5.96715E-14
 -1      1109 1.04438E-02-5.74572E-04-6.32450E-14
 -1      1110 1.07174E-02-6.18575E-04-6.68813E-14
 -1      1111 1.09936E-02-6.63380E-04-7.05763E-14
 -1      1112 1.12721E-02-7.08820E-04-7.43242E-14
 -1      1113 1.15524E-02-7.54766E-04-7.81248E-14
 -1      1114 1.18341E-02-8.01126E-04-8.19763E-14
 -1      1115 1.21169E-02-8.47821E-04-8.58675E-14
 -1      1116 1.24006E-02-8.94788E-04-8.98105E-14
 -1      1117 1.26569E-02-9.54335E-04-9.33263E-14
 -1      1118 9.64385E-03-4.49263E-04-5.27554E-14
 -1      1119 2.40414E-03 1.14676E-04-4.71979E-15
 -1      1120 8.93923E-03-3.51232E-04-4.36395E-14
 -1      1121 1.85328E-03 7.33917E-05-2.97888E-15
 -1      1122 2.52417E-03-4.92193E-05-5.57481E-15
 -1      1123 2.77923E-03-5.60741E-05-6.74223E-15
 -1      1124 2.07347E-03 4.29184E-05-3.72824E-15
 -1      1125 2.32823E-03-3.62491E-05-4.76183E-15
 -1      1126 2.74968E-03 3.92226E-05-6.36014E-15
 -1      1127 8.95210E-03-3.87103E-04-4.31732E-14
 -1      1128 3.00869E-03 2.91357E-05-7.59650E-15
 -1      1129 3.21526E-03-3.19609E-05-8.95336E-15
 -1      1130 2.13135E-03-2.33575E-05-4.01887E-15
 -1      1131 1.03544E-02-6.13932E-04-6.17458E-14
 -1      1132 9.60910E-03-4.79304E-04-5.19670E-14
 -1      1133 1.06695E-02-6.52446E-04-6.60262E-14
 -1      1134 9.32224E-03-4.46820E-04-4.80519E-14
 -1      1135 2.51644E-03 5.17360E-05-5.33947E-15
 -1      1136 2.25942E-03 4.35344E-05-4.37703E-15
 -1      1137 9.12403E-03-4.13578E-04-4.54521E-14
 -1      1138 2.59655E-03-1.00045E-05-5.82770E-15
 -1      1139 2.91216E-03-1.85218E-05-7.31007E-15
 -1      1140 2.41804E-03 7.05698E-06-5.05334E-15
 -1      1141 0.00000E+00 0.00000E+00 0.00000E+00
 -1      1142 0.00000E+00 0.00000E+00 0.00000E+00
 -1      1143 0.00000E+00 0.00000E+00 0.00000E+00
 -1      1144 0.00000E+00 0.00000E+00 0.00000E+00
 -1      1145 0.00000E+00 0.00000E+00 0.00000E+00
 -1      1146 0.00000E+00 0.00000E+00 0.00000E+00
 -1      1147 0.00000E+00 0.00000E+00 0.00000E+00
 -1      1148 0.00000E+00 0.00000E+00 0.00000E+00
 -1      1149 0.00000E+00 0.00000E+00 0.00000E+00
 -1      1150 0.00000E+00 0.00000E+00 0.00000E+00
 -1      1151 0.00000E+00 0.00000E+00 0.00000E+00
 -1      1152 0.00000E+00 0.00000E+00 0.00000E+00
 -1      1153 0.00000E+00 0.00000E+00 0.00000E+00
 -1      1154 0.00000E+00 0.00000E+00 0.00000E+00
 -1      1155 0.00000E+00 0.00000E+00 0.00000E+00
 -1      1156 0.00000E+00 0.00000E+00 0.00000E+00
 -1      1157 0.00000E+00 0.00000E+00 0.00000E+00
 -1      1158 2.09894E-04-1.45942E-04 9.29703E-18
 -1      1159 5.48756E-04-3.28650E-04-5.85469E-17
 -1      1160 8.32110E-04-4.42603E-04-2.51481E-16
 -1      1161 1.10542E-03-5.16319E-04-5.88749E-16
 -1      1162 1.37700E-03-5.65235E-04-1.06166E-15
 -1      1163 1.65102E-03-5.97330E-04-1.66578E-15
 -1      1164 1.93027E-03-6.17531E-04-2.39911E-15
 -1      1165 2.21685E-03-6.29558E-04-3.25715E-15
 -1      1166 2.51264E-03-6.36769E-04-4.23783E-15
 -1      1167 2.81951E-03-6.42664E-04-5.33998E-15
 -1      1168 3.13936E-03-6.51305E-04-6.56140E-15
 -1      1169 3.47391E-03-6.67755E-04-7.89955E-15
 -1      1170 3.82415E-03-6.98420E-04-9.34731E-15
 -1      1171 4.18939E-03-7.51047E-04-1.09081E-14
 -1      1172 4.56576E-03-8.33752E-04-1.25782E-14
 -1      1173 4.94472E-03-9.52193E-04-1.43587E-14
 -1      1174 5.31255E-03-1.10419E-03-1.62593E-14
 -1      1175 5.65324E-03-1.27327E-03-1.82844E-14
 -1      1176 5.95623E-03-1.42650E-03-2.04378E-14
 -1      1177 6.22591E-03-1.52386E-03-2.27234E-14
 -1      1178 6.48409E-03-1.53843E-03-2.51433E-14
 -1      1179 6.75948E-03-1.47336E-03-2.76983E-14
 -1      1180 7.07105E-03-1.35987E-03-3.03837E-14
 -1      1181 7.41980E-03-1.23811E-03-3.31995E-14
 -1      1182 7.79343E-03-1.13822E-03-3.61378E-14
 -1      1183 8.17603E-03-1.07364E-03-3.91782E-14
 -1      1184 8.55496E-03-1.04470E-03-4.22970E-14
 -1      1185 8.92287E-03-1.04520E-03-4.54921E-14
 -1      1186 9.27691E-03-1.06732E-03-4.87758E-14
 -1      1187 9.61706E-03-1.10408E-03-5.21379E-14
 -1      1188 9.94480E-03-1.15011E-03-5.55798E-14
 -1      1189 1.02621E-02-1.20158E-03-5.91042E-14
 -1      1190 1.05711E-02-1.25592E-03-6.26916E-14
 -1      1191 1.08735E-02-1.31146E-03-6.63361E-14
 -1      1192 1.11710E-02-1.36717E-03-7.00340E-14
 -1      1193 1.14648E-02-1.42245E-03-7.37830E-14
 -1      1194 1.17558E-02-1.47699E-03-7.75742E-14
 -1      1195 1.20448E-02-1.53066E-03-8.14074E-14
 -1      1196 1.23325E-02-1.58342E-03-8.52810E-14
 -1      1197 1.26193E-02-1.63534E-03-8.92056E-14
 -1      1198 1.29054E-02-1.68649E-03-9.31902E-14
 -1      1199 1.31911E-02-1.73698E-03-9.72303E-14
 -1      1200 1.34767E-02-1.78691E-03-1.01309E-13
 -1      1201 1.37621E-02-1.83640E-03-1.05422E-13
 -1      1202 1.40475E-02-1.88552E-03-1.09565E-13
 -1      1203 1.43329E-02-1.93439E-03-1.13725E-13
 -1      1204 1.46184E-02-1.98307E-03-1.17900E-13
 -1      1205 1.49040E-02-2.03165E-03-1.22096E-13
 -1      1206 1.51896E-02-2.08019E-03-1.26323E-13
 -1      1207 1.54682E-02-2.12755E-03-1.30477E-13
 -1      1208 2.26554E-04 1.58248E-04 3.54399E-17
 -1      1209 5.51130E-04 3.33540E-04 3.56838E-17
 -1      1210 8.33330E-04 4.45514E-04-6.39679E-17
 -1      1211 1.10655E-03 5.19402E-04-2.78681E-16
 -1      1212 1.37788E-03 5.69255E-04-6.10216E-16
 -1      1213 1.65131E-03 6.02802E-04-1.06032E-15
 -1      1214 1.92927E-03 6.25028E-04-1.62922E-15
 -1      1215 2.21333E-03 6.39757E-04-2.31546E-15
 -1      1216 2.50455E-03 6.50358E-04-3.12036E-15
 -1      1217 2.80361E-03 6.60098E-04-4.04365E-15
 -1      1218 3.11072E-03 6.72307E-04-5.08485E-15
 -1      1219 3.42540E-03 6.90405E-04-6.23811E-15
 -1      1220 3.74621E-03 7.17694E-04-7.50341E-15
 -1      1221 4.07040E-03 7.56832E-04-8.88174E-15
 -1      1222 4.39367E-03 8.08876E-04-1.03728E-14
 -1      1223 4.71050E-03 8.71980E-04-1.19851E-14
 -1      1224 5.01500E-03 9.40139E-04-1.37156E-14
 -1      1225 5.30281E-03 1.00281E-03-1.55648E-14
 -1      1226 5.57322E-03 1.04639E-03-1.75379E-14
 -1      1227 5.83063E-03 1.05792E-03-1.96339E-14
 -1      1228 6.08392E-03 1.02976E-03-2.18509E-14
 -1      1229 6.34356E-03 9.62740E-04-2.41949E-14
 -1      1230 6.61781E-03 8.65807E-04-2.66717E-14
 -1      1231 6.91022E-03 7.52436E-04-2.92766E-14
 -1      1232 7.21940E-03 6.35943E-04-3.20006E-14
 -1      1233 7.54072E-03 5.26206E-04-3.48392E-14
 -1      1234 7.86842E-03 4.28585E-04-3.77915E-14
 -1      1235 8.19738E-03 3.44573E-04-4.08545E-14
 -1      1236 8.52384E-03 2.73137E-04-4.40105E-14
 -1      1237 8.84556E-03 2.12017E-04-4.72648E-14
 -1      1238 9.16156E-03 1.58633E-04-5.05983E-14
 -1      1239 9.47175E-03 1.10600E-04-5.40046E-14
 -1      1240 9.77657E-03 6.59568E-05-5.74780E-14
 -1      1241 1.00767E-02 2.32093E-05-6.10132E-14
 -1      1242 1.03730E-02-1.87093E-05-6.46239E-14
 -1      1243 1.06662E-02-6.05148E-05-6.83158E-14
 -1      1244 1.09570E-02-1.02652E-04-7.20826E-14
 -1      1245 1.12461E-02-1.45370E-04-7.59215E-14
 -1      1246 1.15338E-02-1.88780E-04-7.98006E-14
 -1      1247 1.18206E-02-2.32901E-04-8.37258E-14
 -1      1248 1.21068E-02-2.77697E-04-8.76920E-14
 -1      1249 1.23926E-02-3.23100E-04-9.16916E-14
 -1      1250 1.26781E-02-3.69024E-04-9.57234E-14
 -1      1251 1.29636E-02-4.15379E-04-9.97950E-14
 -1      1252 1.32490E-02-4.62078E-04-1.03904E-13
 -1      1253 1.35344E-02-5.09034E-04-1.08021E-13
 -1      1254 1.38199E-02-5.56168E-04-1.12142E-13
 -1      1255 1.41055E-02-6.03404E-04-1.16276E-13
 -1      1256 1.43912E-02-6.50674E-04-1.20408E-13
 -1      1257 1.46697E-02-6.96739E-04-1.24426E-13
 -1      1258 1.48286E-02-7.61311E-04-1.26556E-13
 -1      1259 1.48750E-02-8.45609E-04-1.26926E-13
 -1      1260 1.49214E-02-9.29956E-04-1.27299E-13
 -1      1261 1.49678E-02-1.01437E-03-1.27678E-13
 -1      1262 1.50143E-02-1.09883E-03-1.28052E-13
 -1      1263 1.50605E-02-1.18263E-03-1.28427E-13
 -1      1264 1.51069E-02-1.26646E-03-1.28813E-13
 -1      1265 1.51537E-02-1.35103E-03-1.29190E-13
 -1      1266 1.52008E-02-1.43561E-03-1.29565E-13
 -1      1267 1.52479E-02-1.52018E-03-1.29929E-13
 -1      1268 1.52953E-02-1.60475E-03-1.30268E-13
 -1      1269 1.53424E-02-1.68859E-03-1.30615E-13
 -1      1270 1.53896E-02-1.77239E-03-1.30978E-13
 -1      1271 1.54373E-02-1.85686E-03-1.31335E-13
 -1      1272 1.54851E-02-1.94127E-03-1.31696E-13
 -1      1273 1.55330E-02-2.02562E-03-1.32047E-13
 -1      1274 1.55804E-02-2.10921E-03-1.32367E-13
 -1      1275 8.37844E-03-2.36564E-04-2.86330E-14
 -1      1276 8.23684E-03-8.09345E-05-2.82550E-14
 -1      1277 7.99503E-03 7.70735E-05-2.76295E-14
 -1      1278 7.67546E-03 2.34066E-04-2.67981E-14
 -1      1279 7.30639E-03 3.77773E-04-2.58277E-14
 -1      1280 6.88536E-03 5.01254E-04-2.47108E-14
 -1      1281 6.45298E-03 5.83320E-04-2.35598E-14
 -1      1282 6.02559E-03 6.11553E-04-2.24363E-14
 -1      1283 5.57072E-03 5.82718E-04-2.12798E-14
 -1      1284 5.14232E-03 5.04492E-04-2.02592E-14
 -1      1285 4.77387E-03 3.95741E-04-1.94462E-14
 -1      1286 4.44688E-03 2.65663E-04-1.87775E-14
 -1      1287 4.17017E-03 1.19122E-04-1.82575E-14
 -1      1288 3.98621E-03-2.69010E-05-1.79492E-14
 -1      1289 3.90901E-03-1.63896E-04-1.78543E-14
 -1      1290 3.93342E-03-3.06383E-04-1.79566E-14
 -1      1291 4.06766E-03-4.61331E-04-1.82751E-14
 -1      1292 4.29591E-03-6.20837E-04-1.87854E-14
 -1      1293 4.60377E-03-7.83605E-04-1.94654E-14
 -1      1294 4.98920E-03-9.45799E-04-2.03387E-14
 -1      1295 5.40600E-03-1.07999E-03-2.13305E-14
 -1      1296 5.83444E-03-1.16737E-03-2.23947E-14
 -1      1297 6.28133E-03-1.19971E-03-2.35321E-14
 -1      1298 6.71239E-03-1.17263E-03-2.46369E-14
 -1      1299 7.12469E-03-1.09151E-03-2.56901E-14
 -1      1300 7.51752E-03-9.69495E-04-2.66757E-14
 -1      1301 7.86256E-03-8.24770E-04-2.75052E-14
 -1      1302 8.13468E-03-6.74297E-04-2.81382E-14
 -1      1303 8.31777E-03-5.27858E-04-2.85500E-14
 -1      1304 8.40293E-03-3.85572E-04-2.87225E-14
 -1      1305 1.66298E-04-1.08108E-04-1.04761E-17
 -1      1306 1.13131E-04-5.46190E-05-3.16994E-17
 -1      1307 1.18001E-04-6.54592E-05-2.56278E-17
 -1      1308 1.09083E-04-4.06835E-05-4.15927E-17
 -1      1309 1.10940E-04-4.69589E-05-3.87331E-17
 -1      1310 2.27727E-04-1.02396E-04-9.10323E-17
 -1      1311 1.07327E-04-3.06288E-05-4.64039E-17
 -1      1312 1.08278E-04-3.53685E-05-4.50486E-17
 -1      1313 2.20420E-04-7.66470E-05-1.08068E-16
 -1      1314 1.06265E-04-2.25400E-05-4.88704E-17
 -1      1315 1.06845E-04-2.64312E-05-4.83419E-17
 -1      1316 2.16667E-04-5.74118E-05-1.16972E-16
 -1      1317 1.05569E-04-1.57559E-05-4.96700E-17
 -1      1318 1.05947E-04-1.90470E-05-4.95887E-17
 -1      1319 2.14343E-04-4.18785E-05-1.21105E-16
 -1      1320 1.05097E-04-9.65124E-06-4.98462E-17
 -1      1321 1.05338E-04-1.26428E-05-4.99411E-17
 -1      1322 2.12769E-04-2.85545E-05-1.22515E-16
 -1      1323 1.04846E-04-4.02217E-06-4.93041E-17
 -1      1324 1.04961E-04-6.81417E-06-4.95209E-17
 -1      1325 2.11757E-04-1.65602E-05-1.22257E-16
 -1      1326 1.04808E-04 1.42255E-06-4.82741E-17
 -1      1327 1.04803E-04-1.31289E-06-4.86265E-17
 -1      1328 2.11273E-04-5.36934E-06-1.20645E-16
 -1      1329 1.04980E-04 6.96069E-06-4.67427E-17
 -1      1330 1.04857E-04 4.14457E-06-4.71357E-17
 -1      1331 2.11297E-04 5.59373E-06-1.17731E-16
 -1      1332 1.05365E-04 1.28699E-05-4.46691E-17
 -1      1333 1.05120E-04 9.83372E-06-4.52383E-17
 -1      1334 2.11821E-04 1.68802E-05-1.13651E-16
 -1      1335 1.05967E-04 1.93269E-05-4.16334E-17
 -1      1336 1.05589E-04 1.59815E-05-4.25956E-17
 -1      1337 2.12841E-04 2.89423E-05-1.07959E-16
 -1      1338 1.06875E-04 2.69053E-05-3.72152E-17
 -1      1339 1.06294E-04 2.29416E-05-3.87467E-17
 -1      1340 2.14417E-04 4.24821E-05-9.99634E-17
 -1      1341 1.08285E-04 3.60271E-05-3.09675E-17
 -1      1342 1.07337E-04 3.12026E-05-3.33934E-17
 -1      1343 2.16758E-04 5.84426E-05-8.89452E-17
 -1      1344 1.10886E-04 4.77737E-05-2.11826E-17
 -1      1345 1.09052E-04 4.14281E-05-2.53297E-17
 -1      1346 2.20456E-04 7.80519E-05-7.30210E-17
 -1      1347 1.17308E-04 6.55750E-05-6.36969E-18
 -1      1348 1.12756E-04 5.54864E-05-1.34712E-17
 -1      1349 2.27650E-04 1.04370E-04-4.98597E-17
 -1      1350 1.57037E-04 1.07897E-04 1.62766E-17
 -1      1351 1.35838E-04 8.40193E-05 2.50722E-18
 -1      1352 2.56883E-04 1.47383E-04-2.26869E-17
 -1      1353 3.34252E-04 2.15780E-04 1.53279E-17
 -1      1354 4.20932E-04-2.54583E-04-6.88604E-17
 -1      1355 5.74531E-04-3.25898E-04-1.34658E-16
 -1      1356 7.22674E-04-3.82611E-04-2.38741E-16
 -1      1357 8.67257E-04-4.27901E-04-3.77628E-16
 -1      1358 6.14263E-04-3.17773E-04-2.21299E-16
 -1      1359 1.00921E-03-4.64852E-04-5.49569E-16
 -1      1360 1.14952E-03-4.94629E-04-7.55079E-16
 -1      1361 9.10492E-04-4.10261E-04-5.06878E-16
 -1      1362 1.28909E-03-5.19062E-04-9.93089E-16
 -1      1363 1.42849E-03-5.38675E-04-1.26459E-15
 -1      1364 1.19777E-03-4.70976E-04-9.23415E-16
 -1      1365 1.56825E-03-5.54503E-04-1.56822E-15
 -1      1366 1.70872E-03-5.66959E-04-1.90364E-15
 -1      1367 1.48186E-03-5.10543E-04-1.46930E-15
 -1      1368 1.85027E-03-5.76665E-04-2.27071E-15
 -1      1369 1.99314E-03-5.84038E-04-2.66905E-15
 -1      1370 1.76666E-03-5.35252E-04-2.14233E-15
 -1      1371 2.13761E-03-5.89516E-04-3.09793E-15
 -1      1372 2.28389E-03-5.93536E-04-3.55759E-15
 -1      1373 2.05483E-03-5.49441E-04-2.93945E-15
 -1      1374 2.43222E-03-5.96478E-04-4.04792E-15
 -1      1375 2.58279E-03-5.98823E-04-4.56807E-15
 -1      1376 2.34839E-03-5.56666E-04-3.85850E-15
 -1      1377 2.73584E-03-6.00979E-04-5.11838E-15
 -1      1378 2.89155E-03-6.03499E-04-5.69789E-15
 -1      1379 2.64898E-03-5.60332E-04-4.89757E-15
 -1      1380 3.05012E-03-6.06901E-04-6.30684E-15
 -1      1381 3.21173E-03-6.11845E-04-6.94513E-15
 -1      1382 2.95810E-03-5.64172E-04-6.05474E-15
 -1      1383 3.37652E-03-6.19044E-04-7.61149E-15
 -1      1384 3.54456E-03-6.29282E-04-8.30603E-15
 -1      1385 3.27706E-03-5.72726E-04-7.32650E-15
 -1      1386 3.71591E-03-6.43539E-04-9.02789E-15
 -1      1387 3.89045E-03-6.62711E-04-9.77666E-15
 -1      1388 3.60682E-03-5.91810E-04-8.71029E-15
 -1      1389 4.06800E-03-6.88035E-04-1.05545E-14
 -1      1390 4.24816E-03-7.20407E-04-1.13604E-14
 -1      1391 3.94762E-03-6.28821E-04-1.02053E-14
 -1      1392 4.43040E-03-7.61114E-04-1.21933E-14
 -1      1393 4.61387E-03-8.10742E-04-1.30528E-14
 -1      1394 4.29850E-03-6.92473E-04-1.18103E-14
 -1      1395 4.79763E-03-8.70054E-04-1.39408E-14
 -1      1396 4.98035E-03-9.38735E-04-1.48585E-14
 -1      1397 4.65657E-03-7.91129E-04-1.35258E-14
 -1      1398 5.16075E-03-1.01604E-03-1.58058E-14
 -1      1399 5.33724E-03-1.09987E-03-1.67842E-14
 -1      1400 5.01641E-03-9.28705E-04-1.53557E-14
 -1      1401 5.50860E-03-1.18704E-03-1.77928E-14
 -1      1402 5.67379E-03-1.27330E-03-1.88337E-14
 -1      1403 5.37013E-03-1.09771E-03-1.73055E-14
 -1      1404 5.83240E-03-1.35314E-03-1.99074E-14
 -1      1405 5.98477E-03-1.42120E-03-2.10142E-14
 -1      1406 5.70947E-03-1.27251E-03-1.93803E-14
 -1      1407 6.13186E-03-1.47210E-03-2.21533E-14
 -1      1408 6.27595E-03-1.50204E-03-2.33262E-14
 -1      1409 6.03063E-03-1.41100E-03-2.15859E-14
 -1      1410 6.41907E-03-1.50904E-03-2.45333E-14
 -1      1411 6.56426E-03-1.49355E-03-2.57749E-14
 -1      1412 6.33935E-03-1.47175E-03-2.39264E-14
 -1      1413 6.71341E-03-1.45845E-03-2.70499E-14
 -1      1414 6.86847E-03-1.40804E-03-2.83575E-14
 -1      1415 6.64978E-03-1.43948E-03-2.64039E-14
 -1      1416 7.03012E-03-1.34802E-03-2.96999E-14
 -1      1417 7.19841E-03-1.28378E-03-3.10732E-14
 -1      1418 6.97500E-03-1.33614E-03-2.90169E-14
 -1      1419 7.37272E-03-1.22046E-03-3.24781E-14
 -1      1420 7.55180E-03-1.16194E-03-3.39140E-14
 -1      1421 7.31880E-03-1.20541E-03-3.17594E-14
 -1      1422 7.73439E-03-1.11090E-03-3.53776E-14
 -1      1423 7.91894E-03-1.06906E-03-3.68695E-14
 -1      1424 7.67611E-03-1.08718E-03-3.46241E-14
 -1      1425 8.10422E-03-1.03680E-03-3.83847E-14
 -1      1426 8.28900E-03-1.01423E-03-3.99213E-14
 -1      1427 8.03847E-03-1.00339E-03-3.75966E-14
 -1      1428 8.47244E-03-1.00042E-03-4.14768E-14
 -1      1429 8.65381E-03-9.94754E-04-4.30516E-14
 -1      1430 8.39850E-03-9.58855E-04-4.06614E-14
 -1      1431 8.83268E-03-9.95937E-04-4.46495E-14
 -1      1432 9.00874E-03-1.00312E-03-4.62675E-14
 -1      1433 8.75142E-03-9.48553E-04-4.38088E-14
 -1      1434 9.18187E-03-1.01514E-03-4.79051E-14
 -1      1435 9.35206E-03-1.03122E-03-4.95651E-14
 -1      1436 9.09491E-03-9.64131E-04-4.70398E-14
 -1      1437 9.51938E-03-1.05049E-03-5.12437E-14
 -1      1438 9.68396E-03-1.07229E-03-5.29406E-14
 -1      1439 9.42841E-03-9.97517E-04-5.03512E-14
 -1      1440 9.84598E-03-1.09606E-03-5.46607E-14
 -1      1441 1.00056E-02-1.12129E-03-5.64002E-14
 -1      1442 9.75247E-03-1.04227E-03-5.37446E-14
 -1      1443 1.01631E-02-1.14765E-03-5.81586E-14
 -1      1444 1.03187E-02-1.17475E-03-5.99345E-14
 -1      1445 1.00682E-02-1.09375E-03-5.72164E-14
 -1      1446 1.04725E-02-1.20241E-03-6.17247E-14
 -1      1447 1.06247E-02-1.23036E-03-6.35294E-14
 -1      1448 1.03769E-02-1.14880E-03-6.07598E-14
 -1      1449 1.07756E-02-1.25850E-03-6.53502E-14
 -1      1450 1.09253E-02-1.28667E-03-6.71853E-14
 -1      1451 1.06799E-02-1.20538E-03-6.43676E-14
 -1      1452 1.10739E-02-1.31481E-03-6.90337E-14
 -1      1453 1.12216E-02-1.34280E-03-7.08929E-14
 -1      1454 1.09783E-02-1.26225E-03-6.80332E-14
 -1      1455 1.13684E-02-1.37066E-03-7.27643E-14
 -1      1456 1.15146E-02-1.39829E-03-7.46466E-14
 -1      1457 1.12731E-02-1.31867E-03-7.17485E-14
 -1      1458 1.16602E-02-1.42571E-03-7.65420E-14
 -1      1459 1.18053E-02-1.45288E-03-7.84470E-14
 -1      1460 1.15653E-02-1.37425E-03-7.55098E-14
 -1      1461 1.19499E-02-1.47982E-03-8.03618E-14
 -1      1462 1.20942E-02-1.50651E-03-8.22892E-14
 -1      1463 1.18555E-02-1.42883E-03-7.93180E-14
 -1      1464 1.22382E-02-1.53297E-03-8.42258E-14
 -1      1465 1.23819E-02-1.55919E-03-8.61729E-14
 -1      1466 1.21441E-02-1.48238E-03-8.31672E-14
 -1      1467 1.25254E-02-1.58520E-03-8.81366E-14
 -1      1468 1.26687E-02-1.61100E-03-9.01127E-14
 -1      1469 1.24317E-02-1.53495E-03-8.70663E-14
 -1      1470 1.28119E-02-1.63660E-03-9.21022E-14
 -1      1471 1.29550E-02-1.66203E-03-9.41075E-14
 -1      1472 1.27185E-02-1.58663E-03-9.10176E-14
 -1      1473 1.30980E-02-1.68729E-03-9.61242E-14
 -1      1474 1.32409E-02-1.71241E-03-9.81500E-14
 -1      1475 1.30048E-02-1.63753E-03-9.50203E-14
 -1      1476 1.33837E-02-1.73738E-03-1.00186E-13
 -1      1477 1.35266E-02-1.76223E-03-1.02233E-13
 -1      1478 1.32908E-02-1.68779E-03-9.90681E-14
 -1      1479 1.36693E-02-1.78698E-03-1.04287E-13
 -1      1480 1.38121E-02-1.81163E-03-1.06346E-13
 -1      1481 1.35766E-02-1.73752E-03-1.03152E-13
 -1      1482 1.39549E-02-1.83619E-03-1.08414E-13
 -1      1483 1.40976E-02-1.86068E-03-1.10488E-13
 -1      1484 1.38622E-02-1.78682E-03-1.07269E-13
 -1      1485 1.42404E-02-1.88511E-03-1.12568E-13
 -1      1486 1.43832E-02-1.90948E-03-1.14649E-13
 -1      1487 1.41478E-02-1.83581E-03-1.11411E-13
 -1      1488 1.45259E-02-1.93382E-03-1.16735E-13
 -1      1489 1.46687E-02-1.95812E-03-1.18827E-13
 -1      1490 1.44334E-02-1.88456E-03-1.15573E-13
 -1      1491 1.48115E-02-1.98241E-03-1.20926E-13
 -1      1492 1.49543E-02-2.00668E-03-1.23028E-13
 -1      1493 1.47190E-02-1.93317E-03-1.19754E-13
 -1      1494 1.50972E-02-2.03095E-03-1.25140E-13
 -1      1495 1.52400E-02-2.05522E-03-1.27260E-13
 -1      1496 1.50047E-02-1.98170E-03-1.23959E-13
 -1      1497 1.54447E-02-2.08612E-03-1.30333E-13
 -1      1498 1.53522E-02-2.03686E-03-1.29135E-13
 -1      1499 6.43071E-04 3.60062E-04-3.77031E-17
 -1      1500 4.92311E-04 2.95318E-04 2.73761E-18
 -1      1501 4.45595E-04 2.57685E-04-2.54788E-17
 -1      1502 9.31324E-04 4.52616E-04-2.03044E-16
 -1      1503 7.88895E-04 4.10860E-04-1.06306E-16
 -1      1504 7.47399E-04 3.75135E-04-1.42424E-16
 -1      1505 1.21085E-03 5.14445E-04-4.81792E-16
 -1      1506 1.07161E-03 4.86570E-04-3.27822E-16
 -1      1507 1.03699E-03 4.52878E-04-3.70851E-16
 -1      1508 1.48830E-03 5.56007E-04-8.76388E-16
 -1      1509 1.34949E-03 5.37347E-04-6.64345E-16
 -1      1510 1.32034E-03 5.04838E-04-7.12700E-16
 -1      1511 1.76748E-03 5.83498E-04-1.38915E-15
 -1      1512 1.62747E-03 5.71229E-04-1.11784E-15
 -1      1513 1.60227E-03 5.39268E-04-1.17004E-15
 -1      1514 2.05066E-03 6.01307E-04-2.01935E-15
 -1      1515 1.90845E-03 5.93378E-04-1.68936E-15
 -1      1516 1.88589E-03 5.61506E-04-1.74409E-15
 -1      1517 2.33930E-03 6.13049E-04-2.76659E-15
 -1      1518 2.19422E-03 6.07719E-04-2.37855E-15
 -1      1519 2.17315E-03 5.75598E-04-2.43566E-15
 -1      1520 2.63432E-03 6.22059E-04-3.63288E-15
 -1      1521 2.48596E-03 6.17683E-04-3.18497E-15
 -1      1522 2.46529E-03 5.85043E-04-3.24448E-15
 -1      1523 2.93623E-03 6.31667E-04-4.61497E-15
 -1      1524 2.78439E-03 6.26577E-04-4.10959E-15
 -1      1525 2.76311E-03 5.93199E-04-4.16960E-15
 -1      1526 3.24496E-03 6.45318E-04-5.71278E-15
 -1      1527 3.08975E-03 6.37784E-04-5.14951E-15
 -1      1528 3.06691E-03 6.03491E-04-5.20986E-15
 -1      1529 3.55976E-03 6.66514E-04-6.92081E-15
 -1      1530 3.40167E-03 6.54800E-04-6.30283E-15
 -1      1531 3.37649E-03 6.19482E-04-6.36274E-15
 -1      1532 3.87892E-03 6.98487E-04-8.24332E-15
 -1      1533 3.71893E-03 6.81051E-04-7.56779E-15
 -1      1534 3.69095E-03 6.44705E-04-7.62765E-15
 -1      1535 4.19955E-03 7.43471E-04-9.67659E-15
 -1      1536 4.03927E-03 7.19384E-04-8.94582E-15
 -1      1537 4.00850E-03 6.82173E-04-9.00517E-15
 -1      1538 4.51768E-03 8.01540E-04-1.12263E-14
 -1      1539 4.35922E-03 7.71110E-04-1.04361E-14
 -1      1540 4.32643E-03 7.33434E-04-1.04950E-14
 -1      1541 4.82868E-03 8.69165E-04-1.28959E-14
 -1      1542 4.67439E-03 8.34663E-04-1.20462E-14
 -1      1543 4.64122E-03 7.97197E-04-1.21025E-14
 -1      1544 5.12834E-03 9.38124E-04-1.46827E-14
 -1      1545 4.98017E-03 9.04233E-04-1.37747E-14
 -1      1546 4.94910E-03 8.67879E-04-1.38284E-14
 -1      1547 5.41444E-03 9.95793E-04-1.65932E-14
 -1      1548 5.27313E-03 9.69242E-04-1.56226E-14
 -1      1549 5.24711E-03 9.34925E-04-1.56755E-14
 -1      1550 5.68826E-03 1.02772E-03-1.86260E-14
 -1      1551 5.55266E-03 1.01571E-03-1.75939E-14
 -1      1552 5.53446E-03 9.84040E-04-1.76445E-14
 -1      1553 5.95493E-03 1.02225E-03-2.07802E-14
 -1      1554 5.82203E-03 1.02997E-03-1.96872E-14
 -1      1555 5.81349E-03 1.00093E-03-1.97361E-14
 -1      1556 6.22215E-03 9.75189E-04-2.30587E-14
 -1      1557 6.08793E-03 1.00366E-03-2.19041E-14
 -1      1558 6.08948E-03 9.76522E-04-2.19514E-14
 -1      1559 6.49752E-03 8.91539E-04-2.54695E-14
 -1      1560 6.35839E-03 9.37204E-04-2.42476E-14
 -1      1561 6.36889E-03 9.10805E-04-2.42943E-14
 -1      1562 6.78590E-03 7.83438E-04-2.80044E-14
 -1      1563 6.63989E-03 8.39615E-04-2.67214E-14
 -1      1564 6.65702E-03 8.12836E-04-2.67653E-14
 -1      1565 7.08830E-03 6.65377E-04-3.06662E-14
 -1      1566 6.93541E-03 7.24821E-04-2.93208E-14
 -1      1567 6.95626E-03 6.96934E-04-2.93605E-14
 -1      1568 7.40241E-03 5.49736E-04-3.34449E-14
 -1      1569 7.24413E-03 6.06696E-04-3.20406E-14
 -1      1570 7.26590E-03 5.77461E-04-3.20755E-14
 -1      1571 7.72405E-03 4.44453E-04-3.63356E-14
 -1      1572 7.56258E-03 4.95542E-04-3.48761E-14
 -1      1573 7.58310E-03 4.65097E-04-3.49080E-14
 -1      1574 8.04880E-03 3.52909E-04-3.93406E-14
 -1      1575 7.88632E-03 3.96937E-04-3.78242E-14
 -1      1576 7.90425E-03 3.65619E-04-3.78530E-14
 -1      1577 8.37296E-03 2.75118E-04-4.24455E-14
 -1      1578 8.21117E-03 3.12403E-04-4.08813E-14
 -1      1579 8.22597E-03 2.80593E-04-4.09050E-14
 -1      1580 8.69395E-03 2.09190E-04-4.56467E-14
 -1      1581 8.53398E-03 2.40836E-04-4.40337E-14
 -1      1582 8.54571E-03 2.08866E-04-4.40527E-14
 -1      1583 9.01037E-03 1.52503E-04-4.89343E-14
 -1      1584 8.85280E-03 1.79861E-04-4.72809E-14
 -1      1585 8.86183E-03 1.47979E-04-4.72938E-14
 -1      1586 9.32168E-03 1.02432E-04-5.23026E-14
 -1      1587 9.16668E-03 1.26789E-04-5.06095E-14
 -1      1588 9.17356E-03 9.51528E-05-5.06180E-14
 -1      1589 9.62797E-03 5.67173E-05-5.57396E-14
 -1      1590 9.47543E-03 7.91489E-05-5.40121E-14
 -1      1591 9.48072E-03 4.78424E-05-5.40175E-14
 -1      1592 9.92972E-03 1.35835E-05-5.92433E-14
 -1      1593 9.77938E-03 3.49164E-05-5.74837E-14
 -1      1594 9.78357E-03 3.96790E-06-5.74861E-14
 -1      1595 1.02276E-02-2.82704E-05-6.28159E-14
 -1      1596 1.00791E-02-7.44131E-06-6.10200E-14
 -1      1597 1.00826E-02-3.80406E-05-6.10227E-14
 -1      1598 1.05222E-02-6.97397E-05-6.64651E-14
 -1      1599 1.03752E-02-4.90122E-05-6.46301E-14
 -1      1600 1.03783E-02-7.92931E-05-6.46324E-14
 -1      1601 1.08142E-02-1.11400E-04-7.01889E-14
 -1      1602 1.06685E-02-9.05209E-05-6.83183E-14
 -1      1603 1.06714E-02-1.20525E-04-6.83173E-14
 -1      1604 1.11043E-02-1.53587E-04-7.39861E-14
 -1      1605 1.09594E-02-1.32414E-04-7.20786E-14
 -1      1606 1.09624E-02-1.62186E-04-7.20721E-14
 -1      1607 1.13928E-02-1.96471E-04-7.78399E-14
 -1      1608 1.12487E-02-1.74937E-04-7.59067E-14
 -1      1609 1.12517E-02-2.04520E-04-7.58926E-14
 -1      1610 1.16803E-02-2.40105E-04-8.17381E-14
 -1      1611 1.15367E-02-2.18194E-04-7.97841E-14
 -1      1612 1.15398E-02-2.47628E-04-7.97643E-14
 -1      1613 1.19670E-02-2.84471E-04-8.56823E-14
 -1      1614 1.18237E-02-2.62199E-04-8.37055E-14
 -1      1615 1.18270E-02-2.91518E-04-8.36830E-14
 -1      1616 1.22531E-02-3.29508E-04-8.96621E-14
 -1      1617 1.21101E-02-3.06910E-04-8.76676E-14
 -1      1618 1.21135E-02-3.36143E-04-8.76433E-14
 -1      1619 1.25390E-02-3.75131E-04-9.36774E-14
 -1      1620 1.23961E-02-3.52252E-04-9.16666E-14
 -1      1621 1.23997E-02-3.81421E-04-9.16395E-14
 -1      1622 1.28246E-02-4.21249E-04-9.77262E-14
 -1      1623 1.26818E-02-3.98134E-04-9.56955E-14
 -1      1624 1.26855E-02-4.27259E-04-9.56683E-14
 -1      1625 1.31102E-02-4.67766E-04-1.01811E-13
 -1      1626 1.29674E-02-4.44463E-04-9.97643E-14
 -1      1627 1.29712E-02-4.73558E-04-9.97313E-14
 -1      1628 1.33957E-02-5.14593E-04-1.05922E-13
 -1      1629 1.32529E-02-4.91146E-04-1.03865E-13
 -1      1630 1.32568E-02-5.20223E-04-1.03826E-13
 -1      1631 1.36812E-02-5.61644E-04-1.10036E-13
 -1      1632 1.35384E-02-5.38095E-04-1.07979E-13
 -1      1633 1.35424E-02-5.67163E-04-1.07935E-13
 -1      1634 1.39668E-02-6.08841E-04-1.14161E-13
 -1      1635 1.38240E-02-5.85229E-04-1.12098E-13
 -1      1636 1.38280E-02-6.14294E-04-1.12053E-13
 -1      1637 1.42524E-02-6.56108E-04-1.18289E-13
 -1      1638 1.41096E-02-6.32470E-04-1.16223E-13
 -1      1639 1.41136E-02-6.61537E-04-1.16174E-13
 -1      1640 1.45381E-02-7.03379E-04-1.22412E-13
 -1      1641 1.43952E-02-6.79746E-04-1.20351E-13
 -1      1642 1.43993E-02-7.08819E-04-1.20295E-13
 -1      1643 1.46929E-02-7.38883E-04-1.24604E-13
 -1      1644 1.47629E-02-8.46251E-04-1.25235E-13
 -1      1645 1.47397E-02-8.04091E-04-1.25050E-13
 -1      1646 1.48093E-02-9.30603E-04-1.25608E-13
 -1      1647 1.47861E-02-8.88422E-04-1.25422E-13
 -1      1648 1.46508E-02-8.46876E-04-1.23544E-13
 -1      1649 1.48557E-02-1.01500E-03-1.25987E-13
 -1      1650 1.48325E-02-9.72797E-04-1.25797E-13
 -1      1651 1.46972E-02-9.31225E-04-1.23919E-13
 -1      1652 1.49022E-02-1.09944E-03-1.26359E-13
 -1      1653 1.48790E-02-1.05722E-03-1.26177E-13
 -1      1654 1.47436E-02-1.01561E-03-1.24294E-13
 -1      1655 1.49481E-02-1.18248E-03-1.26734E-13
 -1      1656 1.49251E-02-1.14096E-03-1.26544E-13
 -1      1657 1.47897E-02-1.09930E-03-1.24666E-13
 -1      1658 1.49948E-02-1.26697E-03-1.27112E-13
 -1      1659 1.49714E-02-1.22472E-03-1.26924E-13
 -1      1660 1.48360E-02-1.18301E-03-1.25037E-13
 -1      1661 1.50417E-02-1.35148E-03-1.27483E-13
 -1      1662 1.50183E-02-1.30922E-03-1.27297E-13
 -1      1663 1.48828E-02-1.26745E-03-1.25408E-13
 -1      1664 1.50888E-02-1.43599E-03-1.27851E-13
 -1      1665 1.50652E-02-1.39373E-03-1.27667E-13
 -1      1666 1.49297E-02-1.35189E-03-1.25773E-13
 -1      1667 1.51360E-02-1.52050E-03-1.28205E-13
 -1      1668 1.51124E-02-1.47825E-03-1.28032E-13
 -1      1669 1.49768E-02-1.43634E-03-1.26135E-13
 -1      1670 1.51834E-02-1.60500E-03-1.28550E-13
 -1      1671 1.51597E-02-1.56275E-03-1.28378E-13
 -1      1672 1.50241E-02-1.52079E-03-1.26485E-13
 -1      1673 1.52301E-02-1.68806E-03-1.28894E-13
 -1      1674 1.52067E-02-1.64653E-03-1.28722E-13
 -1      1675 1.50711E-02-1.60452E-03-1.26829E-13
 -1      1676 1.52778E-02-1.77252E-03-1.29252E-13
 -1      1677 1.52539E-02-1.73029E-03-1.29073E-13
 -1      1678 1.51183E-02-1.68823E-03-1.27175E-13
 -1      1679 1.53255E-02-1.85694E-03-1.29602E-13
 -1      1680 1.53016E-02-1.81474E-03-1.29427E-13
 -1      1681 1.51660E-02-1.77264E-03-1.27522E-13
 -1      1682 1.53734E-02-1.94132E-03-1.29950E-13
 -1      1683 1.53495E-02-1.89914E-03-1.29776E-13
 -1      1684 1.52138E-02-1.85703E-03-1.27865E-13
 -1      1685 1.53748E-02-2.01018E-03-1.29631E-13
 -1      1686 1.53508E-02-1.96801E-03-1.29466E-13
 -1      1687 1.52151E-02-1.92591E-03-1.27550E-13
 -1      1688 1.51701E-02-1.97929E-03-1.26569E-13
 -1      1689 8.36378E-03-2.48392E-04-2.91695E-14
 -1      1690 8.41147E-03-2.96014E-04-2.92955E-14
 -1      1691 8.16434E-03-1.35194E-04-2.87209E-14
 -1      1692 8.26973E-03-1.90524E-04-2.89756E-14
 -1      1693 7.85761E-03 2.04112E-05-2.79171E-14
 -1      1694 8.01117E-03-5.35335E-05-2.82996E-14
 -1      1695 7.50249E-03 2.02838E-04-2.69062E-14
 -1      1696 7.67324E-03 1.21577E-04-2.73615E-14
 -1      1697 7.11486E-03 3.79846E-04-2.58101E-14
 -1      1698 7.29613E-03 2.98745E-04-2.63312E-14
 -1      1699 6.69386E-03 5.39849E-04-2.45673E-14
 -1      1700 6.88450E-03 4.68369E-04-2.51692E-14
 -1      1701 6.32120E-03 6.34758E-04-2.33255E-14
 -1      1702 6.48963E-03 6.00279E-04-2.38727E-14
 -1      1703 5.94370E-03 6.56242E-04-2.20990E-14
 -1      1704 6.11862E-03 6.57380E-04-2.26670E-14
 -1      1705 5.54257E-03 5.90387E-04-2.08356E-14
 -1      1706 5.73085E-03 6.33800E-04-2.14049E-14
 -1      1707 5.14503E-03 4.62384E-04-1.98385E-14
 -1      1708 5.31712E-03 5.24969E-04-2.02762E-14
 -1      1709 4.78414E-03 3.12366E-04-1.90136E-14
 -1      1710 4.94841E-03 3.83509E-04-1.93727E-14
 -1      1711 4.44155E-03 1.57287E-04-1.83428E-14
 -1      1712 4.59636E-03 2.28823E-04-1.86342E-14
 -1      1713 4.14566E-03 3.96286E-06-1.77936E-14
 -1      1714 4.27721E-03 6.85006E-05-1.80033E-14
 -1      1715 3.95505E-03-1.02848E-04-1.75716E-14
 -1      1716 4.02542E-03-5.47512E-05-1.76642E-14
 -1      1717 3.88882E-03-1.96977E-04-1.75194E-14
 -1      1718 3.90492E-03-1.55060E-04-1.75184E-14
 -1      1719 3.94715E-03-2.94071E-04-1.76534E-14
 -1      1720 3.90307E-03-2.47461E-04-1.75534E-14
 -1      1721 4.14016E-03-4.12500E-04-1.80176E-14
 -1      1722 4.03561E-03-3.53210E-04-1.78107E-14
 -1      1723 4.42055E-03-5.70885E-04-1.86339E-14
 -1      1724 4.28142E-03-4.99018E-04-1.83513E-14
 -1      1725 4.78498E-03-7.49485E-04-1.93851E-14
 -1      1726 4.60954E-03-6.60606E-04-1.90030E-14
 -1      1727 5.20617E-03-9.46023E-04-2.03371E-14
 -1      1728 5.01490E-03-8.51840E-04-1.98626E-14
 -1      1729 5.58642E-03-1.11641E-03-2.14500E-14
 -1      1730 5.40862E-03-1.04710E-03-2.09511E-14
 -1      1731 5.97792E-03-1.22341E-03-2.26155E-14
 -1      1732 5.79976E-03-1.18280E-03-2.20617E-14
 -1      1733 6.36490E-03-1.24834E-03-2.38664E-14
 -1      1734 6.18892E-03-1.24926E-03-2.32893E-14
 -1      1735 6.74036E-03-1.18281E-03-2.50397E-14
 -1      1736 6.57158E-03-1.22063E-03-2.45116E-14
 -1      1737 7.11420E-03-1.05086E-03-2.62251E-14
 -1      1738 6.93667E-03-1.12025E-03-2.56963E-14
 -1      1739 7.50407E-03-8.81884E-04-2.72642E-14
 -1      1740 7.32896E-03-9.62888E-04-2.67993E-14
 -1      1741 7.86633E-03-7.13361E-04-2.81124E-14
 -1      1742 7.70661E-03-7.91619E-04-2.77358E-14
 -1      1743 8.15439E-03-5.65724E-04-2.87581E-14
 -1      1744 8.03169E-03-6.29974E-04-2.84920E-14
 -1      1745 8.34734E-03-4.44196E-04-2.91910E-14
 -1      1746 8.27035E-03-4.94840E-04-2.90418E-14
 -1      1747 8.42418E-03-3.47988E-04-2.92763E-14
 -1      1748 8.40443E-03-3.91542E-04-2.92535E-14
 -1      1749 7.33534E-03 2.10944E-04-2.69050E-14
 -1      1750 7.71982E-03 1.21186E-05-2.80488E-14
 -1      1751 1.46970E-02-7.67963E-04-1.24550E-13
 -1      1752 1.45849E-02-7.68583E-04-1.22856E-13
 -1      1753 8.31758E-03-2.59344E-04-2.96703E-14
 -1      1754 8.06292E-03-1.53590E-04-2.90410E-14
 -1      1755 8.42736E-03-3.26765E-04-2.98539E-14
 -1      1756 6.92898E-03 4.10938E-04-2.56762E-14
 -1      1757 6.55114E-03 5.79641E-04-2.43312E-14
 -1      1758 6.20013E-03 6.71372E-04-2.29767E-14
 -1      1759 5.85125E-03 6.68232E-04-2.16282E-14
 -1      1760 5.48768E-03 5.63832E-04-2.03889E-14
 -1      1761 5.10666E-03 4.02892E-04-1.93774E-14
 -1      1762 4.74192E-03 2.28699E-04-1.85468E-14
 -1      1763 4.39084E-03 5.97239E-05-1.78412E-14
 -1      1764 4.09984E-03-6.67581E-05-1.73858E-14
 -1      1765 3.92505E-03-1.49419E-04-1.72094E-14
 -1      1766 3.88683E-03-2.14341E-04-1.71900E-14
 -1      1767 3.99315E-03-2.84947E-04-1.73739E-14
 -1      1768 4.23226E-03-3.96278E-04-1.78502E-14
 -1      1769 4.56615E-03-5.59176E-04-1.85391E-14
 -1      1770 4.97080E-03-7.57943E-04-1.93698E-14
 -1      1771 5.36967E-03-9.79131E-04-2.04457E-14
 -1      1772 5.74538E-03-1.16089E-03-2.16632E-14
 -1      1773 6.10341E-03-1.26298E-03-2.29450E-14
 -1      1774 6.44406E-03-1.25953E-03-2.42678E-14
 -1      1775 6.79501E-03-1.15845E-03-2.55775E-14
 -1      1776 7.15900E-03-9.88877E-04-2.68224E-14
 -1      1777 7.54922E-03-7.96119E-04-2.78848E-14
 -1      1778 7.91102E-03-6.21457E-04-2.87504E-14
 -1      1779 8.19840E-03-4.84736E-04-2.94232E-14
 -1      1780 8.37940E-03-3.94770E-04-2.97739E-14
 -1      1781 2.85496E-04-1.71350E-04-5.95769E-17
 -1      1782 3.34035E-04-1.07901E-04-1.70450E-16
 -1      1783 3.38486E-04-1.24275E-04-1.61749E-16
 -1      1784 3.44504E-04-1.43544E-04-1.50474E-16
 -1      1785 3.53901E-04-1.65946E-04-1.34075E-16
 -1      1786 4.61481E-04-1.76277E-04-2.34648E-16
 -1      1787 3.24261E-04-5.79464E-05-1.85914E-16
 -1      1788 3.25975E-04-6.85905E-05-1.84152E-16
 -1      1789 3.21693E-04-3.83257E-05-1.87215E-16
 -1      1790 3.22852E-04-4.77974E-05-1.86862E-16
 -1      1791 4.35344E-04-7.00965E-05-2.74832E-16
 -1      1792 3.20148E-04-2.06305E-05-1.86063E-16
 -1      1793 3.20809E-04-2.92784E-05-1.86889E-16
 -1      1794 4.31870E-04-4.48294E-05-2.75428E-16
 -1      1795 3.19529E-04-3.91513E-06-1.83149E-16
 -1      1796 3.19728E-04-1.21878E-05-1.84884E-16
 -1      1797 4.29898E-04-2.17406E-05-2.73178E-16
 -1      1798 3.19804E-04 1.26687E-05-1.78433E-16
 -1      1799 3.19554E-04 4.35801E-06-1.81102E-16
 -1      1800 4.29312E-04 3.62094E-07-2.68394E-16
 -1      1801 3.20969E-04 2.99429E-05-1.71643E-16
 -1      1802 3.20269E-04 2.11862E-05-1.75370E-16
 -1      1803 4.30075E-04 2.25706E-05-2.60873E-16
 -1      1804 3.23014E-04 4.84289E-05-1.62535E-16
 -1      1805 3.21864E-04 3.89699E-05-1.67563E-16
 -1      1806 4.32164E-04 4.57560E-05-2.50546E-16
 -1      1807 3.26171E-04 6.97549E-05-1.49728E-16
 -1      1808 3.24419E-04 5.87447E-05-1.56884E-16
 -1      1809 4.35664E-04 7.12323E-05-2.36654E-16
 -1      1810 3.30905E-04 9.50189E-05-1.31907E-16
 -1      1811 3.28263E-04 8.18576E-05-1.41746E-16
 -1      1812 4.40948E-04 1.00633E-04-2.17261E-16
 -1      1813 3.38646E-04 1.26629E-04-1.06252E-16
 -1      1814 3.34184E-04 1.09964E-04-1.20645E-16
 -1      1815 4.48897E-04 1.35753E-04-1.90521E-16
 -1      1816 3.54338E-04 1.69799E-04-6.93076E-17
 -1      1817 3.44994E-04 1.46561E-04-8.97584E-17
 -1      1818 4.62319E-04 1.80054E-04-1.52886E-16
 -1      1819 4.09093E-04 2.25689E-04-4.22297E-17
 -1      1820 3.79975E-04 1.94705E-04-5.94549E-17
 -1      1821 4.98874E-04 2.32716E-04-1.18490E-16
 -1      1822 5.60848E-04 2.90864E-04-8.94060E-17
 -1      1823 3.41464E-04-1.83982E-04-1.00126E-16
 -1      1824 8.58557E-04 3.87831E-04-2.67296E-16
 -1      1825 7.10640E-04 3.43964E-04-1.64772E-16
 -1      1826 6.77371E-04 3.13577E-04-1.83488E-16
 -1      1827 4.61559E-04-2.26373E-04-1.75004E-16
 -1      1828 8.12686E-04-3.54452E-04-4.60894E-16
 -1      1829 9.59815E-04-3.91336E-04-6.40492E-16
 -1      1830 1.10492E-03-4.21577E-04-8.51993E-16
 -1      1831 1.24932E-03-4.45887E-04-1.09491E-15
 -1      1832 1.01257E-03-3.71360E-04-7.78674E-16
 -1      1833 1.39297E-03-4.65629E-04-1.36956E-15
 -1      1834 1.53653E-03-4.81140E-04-1.67637E-15
 -1      1835 1.30306E-03-4.20016E-04-1.26982E-15
 -1      1836 1.68019E-03-4.93337E-04-2.01397E-15
 -1      1837 1.82432E-03-5.02522E-04-2.38234E-15
 -1      1838 1.59208E-03-4.51044E-04-1.88545E-15
 -1      1839 1.96912E-03-5.09342E-04-2.78117E-15
 -1      1840 2.11486E-03-5.14108E-04-3.21055E-15
 -1      1841 1.88161E-03-4.69249E-04-2.62361E-15
 -1      1842 2.26169E-03-5.17342E-04-3.67008E-15
 -1      1843 2.40987E-03-5.19383E-04-4.15949E-15
 -1      1844 2.17329E-03-4.78451E-04-3.48290E-15
 -1      1845 2.55946E-03-5.20733E-04-4.67810E-15
 -1      1846 2.71076E-03-5.21784E-04-5.22633E-15
 -1      1847 2.46850E-03-4.82051E-04-4.46042E-15
 -1      1848 2.86380E-03-5.23106E-04-5.80406E-15
 -1      1849 3.01884E-03-5.25177E-04-6.41007E-15
 -1      1850 2.76845E-03-4.83507E-04-5.55496E-15
 -1      1851 3.17592E-03-5.28718E-04-7.04440E-15
 -1      1852 3.33526E-03-5.34340E-04-7.70628E-15
 -1      1853 3.07426E-03-4.86791E-04-6.76445E-15
 -1      1854 3.49693E-03-5.42975E-04-8.39626E-15
 -1      1855 3.66099E-03-5.55418E-04-9.11382E-15
 -1      1856 3.38711E-03-4.96860E-04-8.08496E-15
 -1      1857 3.82766E-03-5.72822E-04-9.85849E-15
 -1      1858 3.99666E-03-5.96189E-04-1.06315E-14
 -1      1859 3.70827E-03-5.20100E-04-9.51593E-15
 -1      1860 4.16848E-03-6.26762E-04-1.14310E-14
 -1      1861 4.34222E-03-6.65667E-04-1.22590E-14
 -1      1862 4.03918E-03-5.64553E-04-1.10558E-14
 -1      1863 4.51879E-03-7.13851E-04-1.31146E-14
 -1      1864 4.69637E-03-7.72156E-04-1.39975E-14
 -1      1865 4.38125E-03-6.39494E-04-1.27057E-14
 -1      1866 4.87618E-03-8.40514E-04-1.49091E-14
 -1      1867 5.05550E-03-9.18620E-04-1.58502E-14
 -1      1868 4.73490E-03-7.53322E-04-1.44670E-14
 -1      1869 5.23537E-03-1.00450E-03-1.68230E-14
 -1      1870 5.41275E-03-1.09509E-03-1.78243E-14
 -1      1871 5.09771E-03-9.08604E-04-1.63433E-14
 -1      1872 5.58793E-03-1.18577E-03-1.88574E-14
 -1      1873 5.75936E-03-1.27084E-03-1.99235E-14
 -1      1874 5.46215E-03-1.09264E-03-1.83395E-14
 -1      1875 5.92592E-03-1.34438E-03-2.10227E-14
 -1      1876 6.09011E-03-1.39920E-03-2.21557E-14
 -1      1877 5.81670E-03-1.26947E-03-2.04626E-14
 -1      1878 6.24983E-03-1.43121E-03-2.33227E-14
 -1      1879 6.41120E-03-1.43770E-03-2.45249E-14
 -1      1880 6.15547E-03-1.38497E-03-2.27221E-14
 -1      1881 6.57183E-03-1.41914E-03-2.57615E-14
 -1      1882 6.73745E-03-1.37951E-03-2.70320E-14
 -1      1883 6.48753E-03-1.39720E-03-2.51212E-14
 -1      1884 6.90609E-03-1.32357E-03-2.83363E-14
 -1      1885 7.07929E-03-1.25844E-03-2.96744E-14
 -1      1886 6.82946E-03-1.31138E-03-2.76595E-14
 -1      1887 7.25624E-03-1.18997E-03-3.10432E-14
 -1      1888 7.43497E-03-1.12369E-03-3.24431E-14
 -1      1889 7.18739E-03-1.17487E-03-3.03297E-14
 -1      1890 7.61594E-03-1.06363E-03-3.38725E-14
 -1      1891 7.79603E-03-1.01216E-03-3.53291E-14
 -1      1892 7.55339E-03-1.04016E-03-3.31248E-14
 -1      1893 7.97641E-03-9.70866E-04-3.68128E-14
 -1      1894 8.15452E-03-9.39752E-04-3.83212E-14
 -1      1895 7.91635E-03-9.38684E-04-3.60339E-14
 -1      1896 8.33153E-03-9.18648E-04-3.98506E-14
 -1      1897 8.50585E-03-9.06620E-04-4.14000E-14
 -1      1898 8.26973E-03-8.79320E-04-3.90427E-14
 -1      1899 8.67830E-03-9.02650E-04-4.29715E-14
 -1      1900 8.84816E-03-9.05658E-04-4.45643E-14
 -1      1901 8.61191E-03-8.57994E-04-4.21392E-14
 -1      1902 9.01585E-03-9.14448E-04-4.61778E-14
 -1      1903 9.18120E-03-9.28109E-04-4.78111E-14
 -1      1904 8.94374E-03-8.66093E-04-4.53179E-14
 -1      1905 9.34437E-03-9.45600E-04-4.94634E-14
 -1      1906 9.50553E-03-9.66236E-04-5.11364E-14
 -1      1907 9.26673E-03-8.94878E-04-4.85798E-14
 -1      1908 9.66466E-03-9.89240E-04-5.28312E-14
 -1      1909 9.82208E-03-1.01412E-03-5.45443E-14
 -1      1910 9.58231E-03-9.37172E-04-5.19203E-14
 -1      1911 9.97774E-03-1.04035E-03-5.62781E-14
 -1      1912 1.01320E-02-1.06758E-03-5.80298E-14
 -1      1913 9.89171E-03-9.87665E-04-5.53421E-14
 -1      1914 1.02847E-02-1.09549E-03-5.97990E-14
 -1      1915 1.04363E-02-1.12383E-03-6.15842E-14
 -1      1916 1.01960E-02-1.04268E-03-5.88402E-14
 -1      1917 1.05866E-02-1.15242E-03-6.33858E-14
 -1      1918 1.07361E-02-1.18109E-03-6.52030E-14
 -1      1919 1.04961E-02-1.09978E-03-6.24064E-14
 -1      1920 1.08845E-02-1.20976E-03-6.70330E-14
 -1      1921 1.10322E-02-1.23830E-03-6.88777E-14
 -1      1922 1.07927E-02-1.15746E-03-6.60359E-14
 -1      1923 1.11792E-02-1.26668E-03-7.07343E-14
 -1      1924 1.13255E-02-1.29483E-03-7.26011E-14
 -1      1925 1.10866E-02-1.21480E-03-6.97191E-14
 -1      1926 1.14713E-02-1.32275E-03-7.44802E-14
 -1      1927 1.16167E-02-1.35040E-03-7.63714E-14
 -1      1928 1.13784E-02-1.27130E-03-7.34540E-14
 -1      1929 1.17616E-02-1.37778E-03-7.82736E-14
 -1      1930 1.19062E-02-1.40488E-03-8.01869E-14
 -1      1931 1.16685E-02-1.32674E-03-7.72308E-14
 -1      1932 1.20504E-02-1.43172E-03-8.21110E-14
 -1      1933 1.21944E-02-1.45830E-03-8.40481E-14
 -1      1934 1.19572E-02-1.38105E-03-8.10556E-14
 -1      1935 1.23382E-02-1.48463E-03-8.59975E-14
 -1      1936 1.24818E-02-1.51071E-03-8.79590E-14
 -1      1937 1.22450E-02-1.43428E-03-8.49280E-14
 -1      1938 1.26252E-02-1.53659E-03-8.99329E-14
 -1      1939 1.27685E-02-1.56225E-03-9.19202E-14
 -1      1940 1.25322E-02-1.48651E-03-8.88500E-14
 -1      1941 1.29117E-02-1.58772E-03-9.39207E-14
 -1      1942 1.30548E-02-1.61302E-03-9.59318E-14
 -1      1943 1.28188E-02-1.53788E-03-9.28227E-14
 -1      1944 1.31979E-02-1.63816E-03-9.79534E-14
 -1      1945 1.33408E-02-1.66316E-03-9.99841E-14
 -1      1946 1.31050E-02-1.58850E-03-9.68409E-14
 -1      1947 1.34838E-02-1.68803E-03-1.02022E-13
 -1      1948 1.36267E-02-1.71278E-03-1.04070E-13
 -1      1949 1.33910E-02-1.63851E-03-1.00896E-13
 -1      1950 1.37695E-02-1.73743E-03-1.06128E-13
 -1      1951 1.39124E-02-1.76200E-03-1.08190E-13
 -1      1952 1.36768E-02-1.68802E-03-1.04988E-13
 -1      1953 1.40552E-02-1.78649E-03-1.10257E-13
 -1      1954 1.41980E-02-1.81091E-03-1.12332E-13
 -1      1955 1.39626E-02-1.73716E-03-1.09107E-13
 -1      1956 1.43409E-02-1.83529E-03-1.14411E-13
 -1      1957 1.44837E-02-1.85962E-03-1.16495E-13
 -1      1958 1.42483E-02-1.78601E-03-1.13248E-13
 -1      1959 1.46265E-02-1.88392E-03-1.18585E-13
 -1      1960 1.47694E-02-1.90819E-03-1.20680E-13
 -1      1961 1.45340E-02-1.83467E-03-1.17415E-13
 -1      1962 1.48983E-02-1.93161E-03-1.22565E-13
 -1      1963 1.50411E-02-1.95587E-03-1.24671E-13
 -1      1964 1.50637E-02-1.92919E-03-1.25164E-13
 -1      1965 1.48058E-02-1.88237E-03-1.21385E-13
 -1      1966 1.14782E-03 4.52873E-04-5.54935E-16
 -1      1967 1.00373E-03 4.23610E-04-3.96764E-16
 -1      1968 9.71693E-04 3.94281E-04-4.19085E-16
 -1      1969 1.43300E-03 4.96282E-04-9.55616E-16
 -1      1970 1.29055E-03 4.76873E-04-7.41079E-16
 -1      1971 1.26087E-03 4.48750E-04-7.65420E-16
 -1      1972 1.71772E-03 5.24590E-04-1.47231E-15
 -1      1973 1.57520E-03 5.12050E-04-1.19944E-15
 -1      1974 1.54767E-03 4.84719E-04-1.22530E-15
 -1      1975 2.00435E-03 5.42453E-04-2.10536E-15
 -1      1976 1.86066E-03 5.34610E-04-1.77404E-15
 -1      1977 1.83465E-03 5.07668E-04-1.80029E-15
 -1      1978 2.29448E-03 5.53644E-04-2.85495E-15
 -1      1979 2.14889E-03 5.48688E-04-2.46568E-15
 -1      1980 2.12369E-03 5.21797E-04-2.49185E-15
 -1      1981 2.58916E-03 5.61591E-04-3.72151E-15
 -1      1982 2.44120E-03 5.57834E-04-3.27387E-15
 -1      1983 2.41606E-03 5.30700E-04-3.29954E-15
 -1      1984 2.88901E-03 5.69692E-04-4.70259E-15
 -1      1985 2.73841E-03 5.65432E-04-4.19748E-15
 -1      1986 2.71266E-03 5.37780E-04-4.22225E-15
 -1      1987 3.19424E-03 5.81470E-04-5.79746E-15
 -1      1988 3.04096E-03 5.74929E-04-5.23575E-15
 -1      1989 3.01402E-03 5.46493E-04-5.25862E-15
 -1      1990 3.50456E-03 6.00561E-04-7.00427E-15
 -1      1991 3.34882E-03 5.89921E-04-6.38748E-15
 -1      1992 3.32031E-03 5.60456E-04-6.40827E-15
 -1      1993 3.81901E-03 6.30436E-04-8.32315E-15
 -1      1994 3.66139E-03 6.14014E-04-7.64934E-15
 -1      1995 3.63125E-03 5.83339E-04-7.66852E-15
 -1      1996 4.13587E-03 6.73726E-04-9.75416E-15
 -1      1997 3.97735E-03 6.50369E-04-9.02444E-15
 -1      1998 3.94597E-03 6.18445E-04-9.04057E-15
 -1      1999 4.45258E-03 7.31062E-04-1.12993E-14
 -1      2000 4.29453E-03 7.00784E-04-1.05121E-14
 -1      2001 4.26285E-03 6.67836E-04-1.05257E-14
 -1      2002 4.76591E-03 7.99545E-04-1.29622E-14
 -1      2003 4.60999E-03 7.64315E-04-1.21162E-14
 -1      2004 4.57947E-03 7.30964E-04-1.21266E-14
 -1      2005 5.07259E-03 8.71398E-04-1.47444E-14
 -1      2006 4.92036E-03 8.35741E-04-1.38387E-14
 -1      2007 4.89271E-03 8.03029E-04-1.38448E-14
 -1      2008 5.37038E-03 9.33867E-04-1.66480E-14
 -1      2009 5.22269E-03 9.04680E-04-1.56805E-14
 -1      2010 5.19950E-03 8.73890E-04-1.56835E-14
 -1      2011 5.65939E-03 9.71550E-04-1.86744E-14
 -1      2012 5.51579E-03 9.56604E-04-1.76453E-14
 -1      2013 5.49807E-03 9.28792E-04-1.76430E-14
 -1      2014 5.94280E-03 9.71263E-04-2.08238E-14
 -1      2015 5.80134E-03 9.76554E-04-1.97338E-14
 -1      2016 5.78938E-03 9.51995E-04-1.97272E-14
 -1      2017 6.22603E-03 9.27450E-04-2.30989E-14
 -1      2018 6.08387E-03 9.54612E-04-2.19459E-14
 -1      2019 6.07743E-03 9.32612E-04-2.19364E-14
 -1      2020 6.51472E-03 8.44573E-04-2.55034E-14
 -1      2021 6.36925E-03 8.90184E-04-2.42844E-14
 -1      2022 6.36784E-03 8.69428E-04-2.42720E-14
 -1      2023 6.81236E-03 7.35237E-04-2.80299E-14
 -1      2024 6.66223E-03 7.92291E-04-2.67515E-14
 -1      2025 6.66519E-03 7.71472E-04-2.67335E-14
 -1      2026 7.11945E-03 6.14885E-04-3.06817E-14
 -1      2027 6.96479E-03 6.75621E-04-2.93416E-14
 -1      2028 6.97118E-03 6.53936E-04-2.93195E-14
 -1      2029 7.43405E-03 4.96797E-04-3.34512E-14
 -1      2030 7.27604E-03 5.55024E-04-3.20511E-14
 -1      2031 7.28462E-03 5.32226E-04-3.20246E-14
 -1      2032 7.75305E-03 3.89487E-04-3.63346E-14
 -1      2033 7.59328E-03 4.41566E-04-3.48788E-14
 -1      2034 7.60268E-03 4.17776E-04-3.48468E-14
 -1      2035 8.07332E-03 2.96566E-04-3.93293E-14
 -1      2036 7.91329E-03 3.41223E-04-3.78182E-14
 -1      2037 7.92229E-03 3.16713E-04-3.77815E-14
 -1      2038 8.39233E-03 2.18050E-04-4.24235E-14
 -1      2039 8.23317E-03 2.55628E-04-4.08646E-14
 -1      2040 8.24091E-03 2.30677E-04-4.08221E-14
 -1      2041 8.70836E-03 1.51931E-04-4.56156E-14
 -1      2042 8.55084E-03 1.83608E-04-4.40082E-14
 -1      2043 8.55686E-03 1.58452E-04-4.39603E-14
 -1      2044 9.02050E-03 9.54368E-05-4.88929E-14
 -1      2045 8.86498E-03 1.22647E-04-4.72441E-14
 -1      2046 8.86918E-03 9.74610E-05-4.71914E-14
 -1      2047 9.32840E-03 4.57987E-05-5.22510E-14
 -1      2048 9.17499E-03 6.99019E-05-5.05620E-14
 -1      2049 9.17750E-03 4.48071E-05-5.05060E-14
 -1      2050 9.63218E-03 6.39601E-07-5.56802E-14
 -1      2051 9.48079E-03 2.27688E-05-5.39565E-14
 -1      2052 9.48187E-03-2.15987E-06-5.38952E-14
 -1      2053 9.93220E-03-4.19010E-05-5.91810E-14
 -1      2054 9.78263E-03-2.08788E-05-5.74230E-14
 -1      2055 9.78257E-03-4.56024E-05-5.73576E-14
 -1      2056 1.02289E-02-8.31802E-05-6.27521E-14
 -1      2057 1.00809E-02-6.26446E-05-6.09578E-14
 -1      2058 1.00800E-02-8.71507E-05-6.08903E-14
 -1      2059 1.05229E-02-1.24127E-04-6.63963E-14
 -1      2060 1.03762E-02-1.03661E-04-6.45650E-14
 -1      2061 1.03747E-02-1.27956E-04-6.44952E-14
 -1      2062 1.08147E-02-1.65331E-04-7.01126E-14
 -1      2063 1.06691E-02-1.44677E-04-6.82458E-14
 -1      2064 1.06672E-02-1.68777E-04-6.81727E-14
 -1      2065 1.11047E-02-2.07136E-04-7.38949E-14
 -1      2066 1.09599E-02-1.86150E-04-7.19951E-14
 -1      2067 1.09578E-02-2.10078E-04-7.19174E-14
 -1      2068 1.13934E-02-2.49708E-04-7.77379E-14
 -1      2069 1.12492E-02-2.28324E-04-7.58105E-14
 -1      2070 1.12470E-02-2.52106E-04-7.57278E-14
 -1      2071 1.16811E-02-2.93094E-04-8.16290E-14
 -1      2072 1.15373E-02-2.71301E-04-7.96776E-14
 -1      2073 1.15351E-02-2.94961E-04-7.95904E-14
 -1      2074 1.19680E-02-3.37268E-04-8.55658E-14
 -1      2075 1.18246E-02-3.15087E-04-8.35918E-14
 -1      2076 1.18224E-02-3.38649E-04-8.35008E-14
 -1      2077 1.22544E-02-3.82160E-04-8.95403E-14
 -1      2078 1.21113E-02-3.59630E-04-8.75495E-14
 -1      2079 1.21091E-02-3.83115E-04-8.74547E-14
 -1      2080 1.25405E-02-4.27677E-04-9.35522E-14
 -1      2081 1.23975E-02-4.04846E-04-9.15415E-14
 -1      2082 1.23954E-02-4.28271E-04-9.14459E-14
 -1      2083 1.28263E-02-4.73719E-04-9.75963E-14
 -1      2084 1.26834E-02-4.50638E-04-9.55693E-14
 -1      2085 1.26814E-02-4.74019E-04-9.54691E-14
 -1      2086 1.31121E-02-5.20186E-04-1.01669E-13
 -1      2087 1.29692E-02-4.96905E-04-9.96296E-14
 -1      2088 1.29672E-02-5.20254E-04-9.95262E-14
 -1      2089 1.33977E-02-5.66982E-04-1.05770E-13
 -1      2090 1.32549E-02-5.43548E-04-1.03718E-13
 -1      2091 1.32529E-02-5.66876E-04-1.03609E-13
 -1      2092 1.36833E-02-6.14019E-04-1.09877E-13
 -1      2093 1.35405E-02-5.90475E-04-1.07821E-13
 -1      2094 1.35386E-02-6.13790E-04-1.07710E-13
 -1      2095 1.39690E-02-6.61212E-04-1.13998E-13
 -1      2096 1.38261E-02-6.37600E-04-1.11937E-13
 -1      2097 1.38243E-02-6.60908E-04-1.11821E-13
 -1      2098 1.42546E-02-7.08486E-04-1.18117E-13
 -1      2099 1.41118E-02-6.84843E-04-1.16058E-13
 -1      2100 1.41099E-02-7.08151E-04-1.15940E-13
 -1      2101 1.44912E-02-7.50358E-04-1.21518E-13
 -1      2102 1.43483E-02-7.26716E-04-1.19458E-13
 -1      2103 1.43465E-02-7.50027E-04-1.19340E-13
 -1      2104 1.45339E-02-7.86489E-04-1.22020E-13
 -1      2105 1.46315E-02-1.01618E-03-1.22606E-13
 -1      2106 1.46083E-02-9.73998E-04-1.22419E-13
 -1      2107 1.45850E-02-9.31820E-04-1.22230E-13
 -1      2108 1.45618E-02-8.89648E-04-1.22044E-13
 -1      2109 1.44729E-02-9.32399E-04-1.20542E-13
 -1      2110 1.45595E-02-8.59146E-04-1.22124E-13
 -1      2111 1.45363E-02-8.16984E-04-1.21936E-13
 -1      2112 1.44426E-02-7.98750E-04-1.20598E-13
 -1      2113 1.44473E-02-8.59739E-04-1.20435E-13
 -1      2114 1.46773E-02-1.09912E-03-1.22970E-13
 -1      2115 1.46544E-02-1.05765E-03-1.22789E-13
 -1      2116 1.45190E-02-1.01602E-03-1.20911E-13
 -1      2117 1.47239E-02-1.18350E-03-1.23340E-13
 -1      2118 1.47006E-02-1.14131E-03-1.23155E-13
 -1      2119 1.45652E-02-1.09964E-03-1.21274E-13
 -1      2120 1.47708E-02-1.26789E-03-1.23704E-13
 -1      2121 1.47473E-02-1.22570E-03-1.23523E-13
 -1      2122 1.46119E-02-1.18397E-03-1.21638E-13
 -1      2123 1.48178E-02-1.35228E-03-1.24066E-13
 -1      2124 1.47943E-02-1.31008E-03-1.23885E-13
 -1      2125 1.46588E-02-1.26830E-03-1.21998E-13
 -1      2126 1.48649E-02-1.43667E-03-1.24422E-13
 -1      2127 1.48413E-02-1.39447E-03-1.24244E-13
 -1      2128 1.47058E-02-1.35263E-03-1.22356E-13
 -1      2129 1.49122E-02-1.52105E-03-1.24768E-13
 -1      2130 1.48885E-02-1.47886E-03-1.24596E-13
 -1      2131 1.47530E-02-1.43696E-03-1.22707E-13
 -1      2132 1.49589E-02-1.60401E-03-1.25108E-13
 -1      2133 1.49355E-02-1.56253E-03-1.24938E-13
 -1      2134 1.47999E-02-1.52058E-03-1.23048E-13
 -1      2135 1.50065E-02-1.68839E-03-1.25451E-13
 -1      2136 1.49826E-02-1.64620E-03-1.25278E-13
 -1      2137 1.48470E-02-1.60420E-03-1.23385E-13
 -1      2138 1.50542E-02-1.77276E-03-1.25791E-13
 -1      2139 1.50303E-02-1.73058E-03-1.25622E-13
 -1      2140 1.48947E-02-1.68854E-03-1.23725E-13
 -1      2141 1.51020E-02-1.85711E-03-1.26126E-13
 -1      2142 1.50781E-02-1.81494E-03-1.25960E-13
 -1      2143 1.49424E-02-1.77287E-03-1.24060E-13
 -1      2144 7.95978E-03-1.62878E-04-2.94266E-14
 -1      2145 8.11454E-03-2.21723E-04-2.98620E-14
 -1      2146 8.42590E-03-3.29820E-04-3.06328E-14
 -1      2147 8.43757E-03-3.44152E-04-3.06193E-14
 -1      2148 8.27111E-03-2.78775E-04-3.03454E-14
 -1      2149 8.36459E-03-3.04597E-04-3.05504E-14
 -1      2150 7.57896E-03 2.31339E-05-2.81874E-14
 -1      2151 7.76092E-03-6.84058E-05-2.87562E-14
 -1      2152 7.18504E-03 2.24970E-04-2.70483E-14
 -1      2153 7.36837E-03 1.22781E-04-2.76375E-14
 -1      2154 3.27992E-04-8.04290E-05-1.80926E-16
 -1      2155 3.30632E-04-9.33176E-05-1.76400E-16
 -1      2156 4.48459E-04-1.33234E-04-2.57241E-16
 -1      2157 4.40554E-04-9.89202E-05-2.69370E-16
 -1      2158 6.42051E-03 6.27622E-04-2.40551E-14
 -1      2159 6.57211E-03 5.56129E-04-2.47545E-14
 -1      2160 6.13458E-03 6.99144E-04-2.27280E-14
 -1      2161 6.27448E-03 6.73311E-04-2.33868E-14
 -1      2162 6.33529E-03 6.56898E-04-2.37977E-14
 -1      2163 5.80118E-03 6.71689E-04-2.11984E-14
 -1      2164 5.95072E-03 7.01597E-04-2.18842E-14
 -1      2165 5.41440E-03 5.20621E-04-1.98680E-14
 -1      2166 5.58504E-03 5.97695E-04-2.04142E-14
 -1      2167 5.06359E-03 3.44265E-04-1.88892E-14
 -1      2168 5.23185E-03 4.33203E-04-1.93419E-14
 -1      2169 4.69841E-03 1.53707E-04-1.79910E-14
 -1      2170 4.87025E-03 2.40077E-04-1.83558E-14
 -1      2171 4.34486E-03-5.51342E-06-1.73271E-14
 -1      2172 4.50998E-03 6.84917E-05-1.76542E-14
 -1      2173 4.04163E-03-1.20502E-04-1.68447E-14
 -1      2174 4.16072E-03-8.25470E-05-1.69642E-14
 -1      2175 3.90394E-03-1.69837E-04-1.67424E-14
 -1      2176 3.96018E-03-1.49117E-04-1.67926E-14
 -1      2177 3.99975E-03-1.43467E-04-1.63741E-14
 -1      2178 3.89135E-03-2.13552E-04-1.68205E-14
 -1      2179 3.87658E-03-1.96647E-04-1.67899E-14
 -1      2180 4.03875E-03-2.64097E-04-1.69472E-14
 -1      2181 3.94892E-03-2.36393E-04-1.68009E-14
 -1      2182 4.33914E-03-3.87832E-04-1.76186E-14
 -1      2183 4.19308E-03-3.26225E-04-1.72992E-14
 -1      2184 4.67649E-03-5.47654E-04-1.83182E-14
 -1      2185 4.49786E-03-4.62593E-04-1.79647E-14
 -1      2186 4.42807E-03-3.95459E-04-1.74019E-14
 -1      2187 5.10343E-03-7.73615E-04-1.92540E-14
 -1      2188 4.90422E-03-6.62692E-04-1.87922E-14
 -1      2189 5.52307E-03-1.03303E-03-2.06115E-14
 -1      2190 5.34947E-03-9.23031E-04-2.00070E-14
 -1      2191 5.84839E-03-1.19937E-03-2.18077E-14
 -1      2192 5.68892E-03-1.12273E-03-2.12033E-14
 -1      2193 5.63084E-03-1.07753E-03-2.07501E-14
 -1      2194 6.18512E-03-1.29229E-03-2.32466E-14
 -1      2195 6.03730E-03-1.26389E-03-2.25736E-14
 -1      2196 6.51908E-03-1.25850E-03-2.47720E-14
 -1      2197 6.37524E-03-1.29005E-03-2.41198E-14
 -1      2198 6.82304E-03-1.13419E-03-2.60963E-14
 -1      2199 6.67108E-03-1.20723E-03-2.54302E-14
 -1      2200 6.58663E-03-1.24320E-03-2.52773E-14
 -1      2201 7.21636E-03-9.24633E-04-2.74854E-14
 -1      2202 7.03928E-03-1.02386E-03-2.68964E-14
 -1      2203 7.60799E-03-7.17220E-04-2.86049E-14
 -1      2204 7.42564E-03-8.12537E-04-2.81175E-14
 -1      2205 7.96062E-03-5.45803E-04-2.95619E-14
 -1      2206 7.79897E-03-6.19361E-04-2.91699E-14
 -1      2207 8.24218E-03-4.34335E-04-3.01352E-14
 -1      2208 8.12161E-03-4.81520E-04-2.98452E-14
 -1      2209 8.41515E-03-3.64447E-04-3.05522E-14
 -1      2210 8.35892E-03-3.85547E-04-3.04879E-14
 -1      2211 8.43687E-03-3.53711E-04-3.13329E-14
 -1      2212 6.81562E-03 4.32722E-04-2.57299E-14
 -1      2213 6.99842E-03 3.30159E-04-2.63835E-14
 -1      2214 7.07575E-03 2.56240E-04-2.71012E-14
 -1      2215 7.44502E-03 5.21566E-05-2.83319E-14
 -1      2216 6.11619E-04-2.83811E-04-2.81608E-16
 -1      2217 6.67764E-03 4.91571E-04-2.54426E-14
 -1      2218 6.68391E-04-2.75750E-04-3.73277E-16
 -1      2219 8.19800E-03-2.71920E-04-3.07346E-14
 -1      2220 8.40819E-03-3.29538E-04-3.13138E-14
 -1      2221 1.50795E-02-1.88382E-03-1.25643E-13
 -1      2222 7.84544E-03-1.37951E-04-2.95645E-14
 -1      2223 8.31182E-03-3.96639E-04-3.09102E-14
 -1      2224 8.03356E-03-4.97229E-04-3.02672E-14
 -1      2225 7.69445E-03-6.49445E-04-2.94042E-14
 -1      2226 6.91511E-03-1.08301E-03-2.67436E-14
 -1      2227 5.95314E-03-1.23895E-03-2.20982E-14
 -1      2228 4.79800E-03-5.76230E-04-1.82054E-14
 -1      2229 4.11350E-03-2.72392E-04-1.67168E-14
 -1      2230 3.88198E-03-1.81155E-04-1.63719E-14
 -1      2231 4.25098E-03-5.95993E-05-1.67779E-14
 -1      2232 4.61941E-03 9.56725E-05-1.74657E-14
 -1      2233 4.98234E-03 2.80757E-04-1.83188E-14
 -1      2234 5.33808E-03 4.73722E-04-1.93669E-14
 -1      2235 6.04590E-03 7.13085E-04-2.22807E-14
 -1      2236 5.70445E-03 6.43874E-04-2.06603E-14
 -1      2237 3.91116E-03-2.13156E-04-1.63975E-14
 -1      2238 5.24511E-03-8.38702E-04-1.94115E-14
 -1      2239 6.28598E-03-1.30477E-03-2.37353E-14
 -1      2240 7.31097E-03-8.56581E-04-2.81928E-14
 -1      2241 1.02497E-03 3.74312E-04-5.47902E-16
 -1      2242 8.78734E-04 3.41975E-04-3.96073E-16
 -1      2243 5.43443E-04-4.82980E-05-3.89933E-16
 -1      2244 5.45316E-04-6.31149E-05-3.90679E-16
 -1      2245 5.47746E-04-7.87330E-05-3.90286E-16
 -1      2246 5.50735E-04-9.52443E-05-3.88605E-16
 -1      2247 6.60971E-04-8.38435E-05-5.28291E-16
 -1      2248 5.40848E-04 7.22762E-06-3.78373E-16
 -1      2249 5.40779E-04-6.39969E-06-3.82574E-16
 -1      2250 5.42390E-04 3.50214E-05-3.67152E-16
 -1      2251 5.41388E-04 2.10051E-05-3.73318E-16
 -1      2252 6.53932E-04 1.66431E-05-5.08897E-16
 -1      2253 5.45759E-04 6.40576E-05-3.52298E-16
 -1      2254 5.43847E-04 4.92678E-05-3.60335E-16
 -1      2255 6.56553E-04 4.96530E-05-4.93434E-16
 -1      2256 5.51238E-04 9.67410E-05-3.31698E-16
 -1      2257 5.48232E-04 7.99370E-05-3.42730E-16
 -1      2258 6.61639E-04 8.50233E-05-4.72278E-16
 -1      2259 5.59355E-04 1.34325E-04-3.04010E-16
 -1      2260 5.54933E-04 1.14837E-04-3.19148E-16
 -1      2261 6.69541E-04 1.24712E-04-4.43994E-16
 -1      2262 5.71598E-04 1.79233E-04-2.66090E-16
 -1      2263 5.64882E-04 1.55728E-04-2.86663E-16
 -1      2264 6.81071E-04 1.70379E-04-4.06318E-16
 -1      2265 7.36596E-03 7.39213E-05-2.86244E-14
 -1      2266 7.54851E-03-2.11692E-05-2.91895E-14
 -1      2267 1.31495E-03 4.22949E-04-9.34501E-16
 -1      2268 1.17019E-03 4.01189E-04-7.27323E-16
 -1      2269 1.08052E-03 3.53539E-04-6.84199E-16
 -1      2270 9.22517E-04-3.21858E-04-7.04433E-16
 -1      2271 1.06833E-03-3.50698E-04-9.21626E-16
 -1      2272 6.57235E-03 5.44787E-04-2.51867E-14
 -1      2273 6.77487E-03 4.23964E-04-2.61738E-14
 -1      2274 1.21356E-03-3.74416E-04-1.16926E-15
 -1      2275 1.35867E-03-3.93461E-04-1.44776E-15
 -1      2276 1.12549E-03-3.29304E-04-1.06889E-15
 -1      2277 1.50346E-03-4.08689E-04-1.75714E-15
 -1      2278 1.64831E-03-4.20399E-04-2.09708E-15
 -1      2279 1.41518E-03-3.66502E-04-1.62960E-15
 -1      2280 1.79320E-03-4.29295E-04-2.46721E-15
 -1      2281 1.93840E-03-4.35652E-04-2.86725E-15
 -1      2282 1.70463E-03-3.89548E-04-2.31128E-15
 -1      2283 2.08395E-03-4.40046E-04-3.29694E-15
 -1      2284 2.23008E-03-4.42757E-04-3.75625E-15
 -1      2285 1.99437E-03-4.02068E-04-3.11254E-15
 -1      2286 2.37681E-03-4.44306E-04-4.24416E-15
 -1      2287 2.52437E-03-4.45003E-04-4.76184E-15
 -1      2288 2.28507E-03-4.07334E-04-4.03020E-15
 -1      2289 2.67277E-03-4.45387E-04-5.30809E-15
 -1      2290 2.82225E-03-4.45834E-04-5.88334E-15
 -1      2291 2.57744E-03-4.08507E-04-5.06360E-15
 -1      2292 2.97281E-03-4.46963E-04-6.48688E-15
 -1      2293 3.12472E-03-4.49266E-04-7.11804E-15
 -1      2294 2.87222E-03-4.08972E-04-6.21152E-15
 -1      2295 3.27806E-03-4.53493E-04-7.77640E-15
 -1      2296 3.43309E-03-4.60331E-04-8.46263E-15
 -1      2297 3.17042E-03-4.12706E-04-7.47088E-15
 -1      2298 3.59005E-03-4.70670E-04-9.17594E-15
 -1      2299 3.74914E-03-4.85499E-04-9.91625E-15
 -1      2300 3.47356E-03-4.24686E-04-8.83926E-15
 -1      2301 3.91092E-03-5.05785E-04-1.06839E-14
 -1      2302 4.07540E-03-5.32928E-04-1.14791E-14
 -1      2303 3.78412E-03-4.51311E-04-1.03158E-14
 -1      2304 4.24363E-03-5.67786E-04-1.23003E-14
 -1      2305 4.41508E-03-6.12169E-04-1.31506E-14
 -1      2306 4.10605E-03-5.00776E-04-1.19001E-14
 -1      2307 4.59127E-03-6.66500E-04-1.40287E-14
 -1      2308 4.77062E-03-7.32258E-04-1.49336E-14
 -1      2309 4.44459E-03-5.83283E-04-1.35933E-14
 -1      2310 4.95470E-03-8.08980E-04-1.58680E-14
 -1      2311 5.14048E-03-8.96319E-04-1.68318E-14
 -1      2312 4.80409E-03-7.09365E-04-1.53977E-14
 -1      2313 5.32979E-03-9.91338E-04-1.78257E-14
 -1      2314 5.51672E-03-1.08967E-03-1.88496E-14
 -1      2315 5.18439E-03-8.83401E-04-1.73163E-14
 -1      2316 5.70054E-03-1.18634E-03-1.99069E-14
 -1      2317 5.88084E-03-1.27009E-03-2.09987E-14
 -1      2318 5.57214E-03-1.09047E-03-1.93559E-14
 -1      2319 6.05482E-03-1.33535E-03-2.21258E-14
 -1      2320 6.22755E-03-1.37160E-03-2.32872E-14
 -1      2321 5.94592E-03-1.27442E-03-2.15316E-14
 -1      2322 6.39622E-03-1.37686E-03-2.44839E-14
 -1      2323 6.57001E-03-1.35217E-03-2.57172E-14
 -1      2324 6.30251E-03-1.35447E-03-2.38491E-14
 -1      2325 6.74581E-03-1.30079E-03-2.69838E-14
 -1      2326 6.92801E-03-1.23443E-03-2.82852E-14
 -1      2327 6.66141E-03-1.29477E-03-2.63108E-14
 -1      2328 7.11424E-03-1.15890E-03-2.96194E-14
 -1      2329 7.30188E-03-1.08396E-03-3.09850E-14
 -1      2330 7.03960E-03-1.14580E-03-2.89106E-14
 -1      2331 7.49070E-03-1.01426E-03-3.23822E-14
 -1      2332 7.67617E-03-9.53712E-04-3.38068E-14
 -1      2333 7.42789E-03-9.87893E-04-3.16404E-14
 -1      2334 7.85965E-03-9.04514E-04-3.52595E-14
 -1      2335 8.03816E-03-8.66198E-04-3.67381E-14
 -1      2336 7.80549E-03-8.68417E-04-3.44890E-14
 -1      2337 8.21348E-03-8.39252E-04-3.82399E-14
 -1      2338 8.38427E-03-8.21922E-04-3.97641E-14
 -1      2339 8.16195E-03-7.97881E-04-3.74406E-14
 -1      2340 8.55201E-03-8.13739E-04-4.13085E-14
 -1      2341 8.71632E-03-8.12984E-04-4.28759E-14
 -1      2342 8.49795E-03-7.69348E-04-4.04829E-14
 -1      2343 8.87815E-03-8.18804E-04-4.44627E-14
 -1      2344 9.03757E-03-8.29925E-04-4.60710E-14
 -1      2345 8.81864E-03-7.72281E-04-4.36106E-14
 -1      2346 9.19505E-03-8.45452E-04-4.76985E-14
 -1      2347 9.35085E-03-8.64515E-04-4.93456E-14
 -1      2348 9.12911E-03-7.97231E-04-4.68191E-14
 -1      2349 9.50511E-03-8.86349E-04-5.10143E-14
 -1      2350 9.65815E-03-9.10385E-04-5.27024E-14
 -1      2351 9.43298E-03-8.36820E-04-5.01105E-14
 -1      2352 9.80997E-03-9.36043E-04-5.44114E-14
 -1      2353 9.96085E-03-9.62950E-04-5.61392E-14
 -1      2354 9.73249E-03-8.85600E-04-5.34822E-14
 -1      2355 1.01107E-02-9.90705E-04-5.78836E-14
 -1      2356 1.02599E-02-1.01907E-03-5.96473E-14
 -1      2357 1.00289E-02-9.39716E-04-5.69308E-14
 -1      2358 1.04082E-02-1.04777E-03-6.14291E-14
 -1      2359 1.05559E-02-1.07667E-03-6.32261E-14
 -1      2360 1.03231E-02-9.96539E-04-6.04528E-14
 -1      2361 1.07030E-02-1.10561E-03-6.50395E-14
 -1      2362 1.08496E-02-1.13449E-03-6.68669E-14
 -1      2363 1.06154E-02-1.05435E-03-6.40440E-14
 -1      2364 1.09957E-02-1.16322E-03-6.87072E-14
 -1      2365 1.11413E-02-1.19176E-03-7.05607E-14
 -1      2366 1.09063E-02-1.11208E-03-6.76963E-14
 -1      2367 1.12866E-02-1.22005E-03-7.24251E-14
 -1      2368 1.14315E-02-1.24808E-03-7.43011E-14
 -1      2369 1.11960E-02-1.16911E-03-7.13987E-14
 -1      2370 1.15761E-02-1.27583E-03-7.61890E-14
 -1      2371 1.17205E-02-1.30328E-03-7.80871E-14
 -1      2372 1.14847E-02-1.22512E-03-7.51479E-14
 -1      2373 1.18646E-02-1.33046E-03-7.99994E-14
 -1      2374 1.20085E-02-1.35735E-03-8.19237E-14
 -1      2375 1.17726E-02-1.28001E-03-7.89438E-14
 -1      2376 1.21523E-02-1.38398E-03-8.38598E-14
 -1      2377 1.22959E-02-1.41034E-03-8.58084E-14
 -1      2378 1.20600E-02-1.33376E-03-8.27901E-14
 -1      2379 1.24393E-02-1.43646E-03-8.77676E-14
 -1      2380 1.25827E-02-1.46235E-03-8.97403E-14
 -1      2381 1.23468E-02-1.38646E-03-8.66859E-14
 -1      2382 1.27259E-02-1.48803E-03-9.17258E-14
 -1      2383 1.28691E-02-1.51352E-03-9.37225E-14
 -1      2384 1.26333E-02-1.43822E-03-9.06297E-14
 -1      2385 1.30122E-02-1.53883E-03-9.57293E-14
 -1      2386 1.31553E-02-1.56397E-03-9.77478E-14
 -1      2387 1.29196E-02-1.48918E-03-9.46191E-14
 -1      2388 1.32983E-02-1.58898E-03-9.97753E-14
 -1      2389 1.34412E-02-1.61385E-03-1.01809E-13
 -1      2390 1.32056E-02-1.53945E-03-9.86533E-14
 -1      2391 1.35842E-02-1.63860E-03-1.03851E-13
 -1      2392 1.37271E-02-1.66325E-03-1.05902E-13
 -1      2393 1.34916E-02-1.58918E-03-1.02718E-13
 -1      2394 1.38700E-02-1.68781E-03-1.07958E-13
 -1      2395 1.40129E-02-1.71230E-03-1.10019E-13
 -1      2396 1.37774E-02-1.63847E-03-1.06811E-13
 -1      2397 1.41557E-02-1.73672E-03-1.12089E-13
 -1      2398 1.42986E-02-1.76109E-03-1.14164E-13
 -1      2399 1.40632E-02-1.68743E-03-1.10930E-13
 -1      2400 1.44414E-02-1.78541E-03-1.16243E-13
 -1      2401 1.45843E-02-1.80970E-03-1.18329E-13
 -1      2402 1.43489E-02-1.73616E-03-1.15073E-13
 -1      2403 1.89228E-03 4.74828E-04-2.04836E-15
 -1      2404 1.74773E-03 4.66111E-04-1.72682E-15
 -1      2405 2.18279E-03 4.86830E-04-2.77774E-15
 -1      2406 2.03724E-03 4.81637E-04-2.39859E-15
 -1      2407 1.94980E-03 4.41580E-04-2.30180E-15
 -1      2408 2.47610E-03 4.94336E-04-3.62250E-15
 -1      2409 2.32904E-03 4.90960E-04-3.18572E-15
 -1      2410 2.24103E-03 4.51584E-04-3.06920E-15
 -1      2411 2.77305E-03 5.00726E-04-4.58115E-15
 -1      2412 2.62409E-03 4.97479E-04-4.08773E-15
 -1      2413 2.53465E-03 4.57814E-04-3.95020E-15
 -1      2414 3.07424E-03 5.09486E-04-5.65291E-15
 -1      2415 2.92310E-03 5.04606E-04-5.10273E-15
 -1      2416 2.83149E-03 4.63602E-04-4.94435E-15
 -1      2417 3.38004E-03 5.24279E-04-6.83640E-15
 -1      2418 3.22659E-03 5.15914E-04-6.23076E-15
 -1      2419 3.13230E-03 4.72431E-04-6.05137E-15
 -1      2420 3.69051E-03 5.48812E-04-8.13031E-15
 -1      2421 3.53477E-03 5.35119E-04-7.46968E-15
 -1      2422 3.43775E-03 4.87988E-04-7.26863E-15
 -1      2423 4.00525E-03 5.86360E-04-9.53617E-15
 -1      2424 3.84751E-03 5.65798E-04-8.81908E-15
 -1      2425 3.74834E-03 5.14018E-04-8.59615E-15
 -1      2426 4.32310E-03 6.38810E-04-1.10548E-14
 -1      2427 4.16404E-03 6.10688E-04-1.02809E-14
 -1      2428 4.06413E-03 5.53820E-04-1.00354E-14
 -1      2429 4.64193E-03 7.05163E-04-1.26891E-14
 -1      2430 4.48272E-03 6.70460E-04-1.18574E-14
 -1      2431 4.38438E-03 6.09220E-04-1.15877E-14
 -1      2432 4.95861E-03 7.79728E-04-1.44406E-14
 -1      2433 4.80088E-03 7.41990E-04-1.35499E-14
 -1      2434 4.70696E-03 6.78887E-04-1.32549E-14
 -1      2435 5.26967E-03 8.50954E-04-1.63120E-14
 -1      2436 5.11504E-03 8.16706E-04-1.53615E-14
 -1      2437 5.02824E-03 7.56227E-04-1.50392E-14
 -1      2438 5.57298E-03 9.02490E-04-1.83074E-14
 -1      2439 5.42219E-03 8.80308E-04-1.72942E-14
 -1      2440 5.34395E-03 8.27987E-04-1.69446E-14
 -1      2441 5.86959E-03 9.17661E-04-2.04266E-14
 -1      2442 5.72164E-03 9.15460E-04-1.93510E-14
 -1      2443 5.65155E-03 8.75710E-04-1.89739E-14
 -1      2444 6.16408E-03 8.86743E-04-2.26722E-14
 -1      2445 6.01640E-03 9.08188E-04-2.15337E-14
 -1      2446 5.95262E-03 8.81785E-04-2.11295E-14
 -1      2447 6.46242E-03 8.11186E-04-2.50459E-14
 -1      2448 6.31223E-03 8.53921E-04-2.38430E-14
 -1      2449 6.25306E-03 8.37817E-04-2.34119E-14
 -1      2450 6.76836E-03 7.03560E-04-2.75414E-14
 -1      2451 6.61425E-03 7.60333E-04-2.62784E-14
 -1      2452 6.55918E-03 7.49173E-04-2.58213E-14
 -1      2453 7.08204E-03 5.81012E-04-3.01620E-14
 -1      2454 6.92438E-03 6.43098E-04-2.88361E-14
 -1      2455 6.87366E-03 6.32200E-04-2.83536E-14
 -1      2456 7.40087E-03 4.58917E-04-3.29001E-14
 -1      2457 7.24114E-03 5.19154E-04-3.15161E-14
 -1      2458 7.19478E-03 5.05789E-04-3.10071E-14
 -1      2459 7.72141E-03 3.47344E-04-3.57517E-14
 -1      2460 7.56126E-03 4.01440E-04-3.43119E-14
 -1      2461 7.51848E-03 3.84702E-04-3.37772E-14
 -1      2462 8.04080E-03 2.50704E-04-3.87169E-14
 -1      2463 7.88150E-03 2.97068E-04-3.72213E-14
 -1      2464 7.84088E-03 2.77132E-04-3.66607E-14
 -1      2465 8.35725E-03 1.69319E-04-4.17816E-14
 -1      2466 8.19954E-03 2.08186E-04-4.02369E-14
 -1      2467 8.15956E-03 1.85622E-04-3.96538E-14
 -1      2468 8.66988E-03 1.01208E-04-4.49459E-14
 -1      2469 8.51411E-03 1.33760E-04-4.33524E-14
 -1      2470 8.47351E-03 1.09208E-04-4.27458E-14
 -1      2471 8.97845E-03 4.34938E-05-4.81981E-14
 -1      2472 8.82469E-03 7.12225E-05-4.65607E-14
 -1      2473 8.78270E-03 4.52675E-05-4.59309E-14
 -1      2474 9.28310E-03-6.74574E-06-5.15316E-14
 -1      2475 9.13125E-03 1.75953E-05-4.98551E-14
 -1      2476 9.08753E-03-9.26865E-06-4.92062E-14
 -1      2477 9.58416E-03-5.20492E-05-5.49402E-14
 -1      2478 9.43405E-03-2.98868E-05-5.32268E-14
 -1      2479 9.38858E-03-5.72639E-05-5.25601E-14
 -1      2480 9.88207E-03-9.44232E-05-5.84217E-14
 -1      2481 9.73347E-03-7.35047E-05-5.66713E-14
 -1      2482 9.68643E-03-1.01094E-04-5.59870E-14
 -1      2483 1.01773E-02-1.35345E-04-6.19736E-14
 -1      2484 1.00300E-02-1.14995E-04-6.01883E-14
 -1      2485 9.98162E-03-1.42582E-04-5.94875E-14
 -1      2486 1.04702E-02-1.75835E-04-6.55984E-14
 -1      2487 1.03240E-02-1.55596E-04-6.37777E-14
 -1      2488 1.02746E-02-1.83038E-04-6.30596E-14
 -1      2489 1.07614E-02-2.16551E-04-6.92930E-14
 -1      2490 1.06160E-02-1.96134E-04-6.74359E-14
 -1      2491 1.05659E-02-2.23348E-04-6.67015E-14
 -1      2492 1.10511E-02-2.57879E-04-7.30547E-14
 -1      2493 1.09064E-02-2.37120E-04-7.11659E-14
 -1      2494 1.08558E-02-2.64066E-04-7.04143E-14
 -1      2495 1.13396E-02-3.00010E-04-7.68767E-14
 -1      2496 1.11954E-02-2.78835E-04-7.49578E-14
 -1      2497 1.11445E-02-3.05502E-04-7.41913E-14
 -1      2498 1.16273E-02-3.43008E-04-8.07486E-14
 -1      2499 1.14835E-02-3.21397E-04-7.88073E-14
 -1      2500 1.14324E-02-3.47800E-04-7.80252E-14
 -1      2501 1.19143E-02-3.86851E-04-8.46701E-14
 -1      2502 1.17708E-02-3.64824E-04-8.27036E-14
 -1      2503 1.17196E-02-3.90985E-04-8.19072E-14
 -1      2504 1.22008E-02-4.31468E-04-8.86322E-14
 -1      2505 1.20576E-02-4.09066E-04-8.66449E-14
 -1      2506 1.20063E-02-4.35015E-04-8.58381E-14
 -1      2507 1.24871E-02-4.76765E-04-9.26317E-14
 -1      2508 1.23440E-02-4.54036E-04-9.06289E-14
 -1      2509 1.22927E-02-4.79806E-04-8.98107E-14
 -1      2510 1.27731E-02-5.22635E-04-9.66633E-14
 -1      2511 1.26301E-02-4.99633E-04-9.46432E-14
 -1      2512 1.25789E-02-5.25257E-04-9.38169E-14
 -1      2513 1.30589E-02-5.68973E-04-1.00721E-13
 -1      2514 1.29160E-02-5.45751E-04-9.86888E-14
 -1      2515 1.28648E-02-5.71257E-04-9.78520E-14
 -1      2516 1.33447E-02-6.15677E-04-1.04807E-13
 -1      2517 1.32018E-02-5.92284E-04-1.02762E-13
 -1      2518 1.31506E-02-6.17702E-04-1.01917E-13
 -1      2519 1.36304E-02-6.62654E-04-1.08907E-13
 -1      2520 1.34875E-02-6.39136E-04-1.06857E-13
 -1      2521 1.34364E-02-6.64490E-04-1.06003E-13
 -1      2522 1.39161E-02-7.09817E-04-1.13019E-13
 -1      2523 1.37732E-02-6.86217E-04-1.10959E-13
 -1      2524 1.37221E-02-7.11529E-04-1.10104E-13
 -1      2525 1.42017E-02-7.57086E-04-1.17134E-13
 -1      2526 1.40589E-02-7.33442E-04-1.15077E-13
 -1      2527 1.40079E-02-7.58735E-04-1.14215E-13
 -1      2528 1.43489E-02-7.80515E-04-1.19256E-13
 -1      2529 1.44531E-02-1.10013E-03-1.19577E-13
 -1      2530 1.44298E-02-1.05798E-03-1.19398E-13
 -1      2531 1.44999E-02-1.18441E-03-1.19939E-13
 -1      2532 1.44765E-02-1.14227E-03-1.19760E-13
 -1      2533 1.43411E-02-1.10060E-03-1.17884E-13
 -1      2534 1.43608E-02-9.32963E-04-1.18851E-13
 -1      2535 1.43376E-02-8.90811E-04-1.18664E-13
 -1      2536 1.44067E-02-1.01619E-03-1.19214E-13
 -1      2537 1.43838E-02-9.74759E-04-1.19035E-13
 -1      2538 1.42485E-02-9.33162E-04-1.17158E-13
 -1      2539 1.42946E-02-1.01671E-03-1.17522E-13
 -1      2540 1.45468E-02-1.26868E-03-1.20294E-13
 -1      2541 1.45233E-02-1.22655E-03-1.20114E-13
 -1      2542 1.43879E-02-1.18483E-03-1.18240E-13
 -1      2543 1.45939E-02-1.35295E-03-1.20649E-13
 -1      2544 1.45703E-02-1.31082E-03-1.20471E-13
 -1      2545 1.44348E-02-1.26904E-03-1.18593E-13
 -1      2546 1.46411E-02-1.43722E-03-1.20993E-13
 -1      2547 1.46175E-02-1.39509E-03-1.20820E-13
 -1      2548 1.44820E-02-1.35324E-03-1.18941E-13
 -1      2549 1.46877E-02-1.52007E-03-1.21327E-13
 -1      2550 1.46644E-02-1.47865E-03-1.21161E-13
 -1      2551 1.45288E-02-1.43674E-03-1.19277E-13
 -1      2552 1.47352E-02-1.60436E-03-1.21665E-13
 -1      2553 1.47114E-02-1.56222E-03-1.21498E-13
 -1      2554 1.45758E-02-1.52026E-03-1.19612E-13
 -1      2555 1.47829E-02-1.68867E-03-1.22001E-13
 -1      2556 1.47590E-02-1.64651E-03-1.21832E-13
 -1      2557 1.46234E-02-1.60450E-03-1.19946E-13
 -1      2558 1.48306E-02-1.77297E-03-1.22328E-13
 -1      2559 1.48067E-02-1.73082E-03-1.22165E-13
 -1      2560 1.46711E-02-1.68877E-03-1.20277E-13
 -1      2561 8.39611E-03-3.36433E-04-3.21558E-14
 -1      2562 8.44781E-03-3.45656E-04-3.22453E-14
 -1      2563 7.74492E-03-1.14817E-04-2.98688E-14
 -1      2564 7.93177E-03-1.93623E-04-3.05545E-14
 -1      2565 7.66842E-03-8.29815E-05-3.01674E-14
 -1      2566 1.60347E-03 4.54841E-04-1.43449E-15
 -1      2567 1.45925E-03 4.40730E-04-1.17030E-15
 -1      2568 1.66001E-03 4.24439E-04-1.64955E-15
 -1      2569 6.97984E-03 3.00036E-04-2.71157E-14
 -1      2570 7.14105E-03 2.00494E-04-2.77928E-14
 -1      2571 1.49505E-02-1.86041E-03-1.23752E-13
 -1      2572 8.36360E-03-3.81188E-04-3.17427E-14
 -1      2573 8.25143E-03-4.11575E-04-3.13848E-14
 -1      2574 8.11942E-03-2.60558E-04-3.10925E-14
 -1      2575 8.26730E-03-3.02342E-04-3.15896E-14
 -1      2576 8.45664E-03-3.55647E-04-3.21785E-14
 -1      2577 8.43578E-03-3.61280E-04-3.21122E-14
 -1      2578 6.02827E-03-1.27089E-03-2.23587E-14
 -1      2579 5.87580E-03-1.20547E-03-2.15986E-14
 -1      2580 4.89275E-03-6.07961E-04-1.80358E-14
 -1      2581 4.69309E-03-5.00723E-04-1.75790E-14
 -1      2582 4.19437E-03-2.85608E-04-1.64982E-14
 -1      2583 4.04684E-03-2.39936E-04-1.61587E-14
 -1      2584 4.17438E-03-8.93048E-05-1.61053E-14
 -1      2585 4.34760E-03-2.91488E-05-1.64546E-14
 -1      2586 5.41184E-04-2.01096E-05-3.85868E-16
 -1      2587 5.42064E-04-3.39937E-05-3.88375E-16
 -1      2588 6.56046E-04-4.87270E-05-5.26475E-16
 -1      2589 6.53739E-04-1.57503E-05-5.19875E-16
 -1      2590 5.59168E-03 6.01417E-04-1.99677E-14
 -1      2591 5.76521E-03 6.75193E-04-2.07359E-14
 -1      2592 6.26178E-03 6.84333E-04-2.34795E-14
 -1      2593 6.37800E-03 6.39472E-04-2.41495E-14
 -1      2594 3.91638E-03-2.02830E-04-1.58745E-14
 -1      2595 3.87113E-03-1.93873E-04-1.58994E-14
 -1      2596 5.96408E-03 7.17499E-04-2.17790E-14
 -1      2597 6.10965E-03 7.15082E-04-2.26194E-14
 -1      2598 6.16752E-03 7.08642E-04-2.29582E-14
 -1      2599 5.26045E-03 4.26292E-04-1.88211E-14
 -1      2600 5.41373E-03 5.12742E-04-1.93349E-14
 -1      2601 4.91339E-03 2.34781E-04-1.77733E-14
 -1      2602 5.08909E-03 3.31992E-04-1.82940E-14
 -1      2603 5.16903E-03 3.81531E-04-1.82606E-14
 -1      2604 4.50070E-03 3.41034E-05-1.67700E-14
 -1      2605 4.66606E-03 1.10662E-04-1.70912E-14
 -1      2606 4.38863E-03-1.40261E-06-1.60897E-14
 -1      2607 3.94650E-03-1.55832E-04-1.58669E-14
 -1      2608 4.01942E-03-1.37901E-04-1.59140E-14
 -1      2609 5.37932E-03-9.09044E-04-1.95536E-14
 -1      2610 5.15913E-03-7.67510E-04-1.88138E-14
 -1      2611 3.86169E-03-1.82946E-04-1.59067E-14
 -1      2612 3.88827E-03-1.73498E-04-1.58594E-14
 -1      2613 3.89332E-03-1.61904E-04-1.54047E-14
 -1      2614 3.84614E-03-1.80848E-04-1.53900E-14
 -1      2615 4.53809E-03-4.25882E-04-1.72409E-14
 -1      2616 4.38872E-03-3.61042E-04-1.69064E-14
 -1      2617 4.62787E-03-4.64282E-04-1.70741E-14
 -1      2618 6.36585E-03-1.31022E-03-2.42181E-14
 -1      2619 6.21322E-03-1.31234E-03-2.33418E-14
 -1      2620 5.74201E-03-1.13639E-03-2.10008E-14
 -1      2621 5.60240E-03-1.04999E-03-2.04135E-14
 -1      2622 5.82764E-03-1.18281E-03-2.12503E-14
 -1      2623 7.40474E-03-7.95217E-04-2.90192E-14
 -1      2624 7.22340E-03-9.02567E-04-2.83715E-14
 -1      2625 6.65082E-03-1.22403E-03-2.57970E-14
 -1      2626 6.52945E-03-1.27403E-03-2.51317E-14
 -1      2627 7.01265E-03-1.02728E-03-2.75361E-14
 -1      2628 6.83238E-03-1.13463E-03-2.67209E-14
 -1      2629 7.77179E-03-6.03028E-04-3.02337E-14
 -1      2630 7.59698E-03-6.90679E-04-2.96554E-14
 -1      2631 8.12201E-03-4.56305E-04-3.11727E-14
 -1      2632 7.97838E-03-5.10812E-04-3.08793E-14
 -1      2633 5.92675E-04-2.22709E-04-3.41131E-16
 -1      2634 7.87213E-04-2.84188E-04-5.39025E-16
 -1      2635 8.46528E-04-2.70857E-04-6.51836E-16
 -1      2636 5.82612E-04-1.94819E-04-3.58410E-16
 -1      2637 7.63230E-04 3.16008E-04-2.88235E-16
 -1      2638 6.15472E-04 2.70522E-04-1.85832E-16
 -1      2639 5.88713E-04 2.43966E-04-1.96918E-16
 -1      2640 8.19716E-04 3.02454E-04-3.88565E-16
 -1      2641 5.73120E-03 6.76467E-04-2.03525E-14
 -1      2642 5.84450E-03 7.03323E-04-2.10599E-14
 -1      2643 5.91060E-03 7.20270E-04-2.13823E-14
 -1      2644 6.68813E-04-1.22735E-04-5.23765E-16
 -1      2645 5.54427E-04-1.12949E-04-3.85082E-16
 -1      2646 5.58768E-04-1.32037E-04-3.79389E-16
 -1      2647 1.37060E-03 3.96514E-04-1.11090E-15
 -1      2648 7.26735E-03 1.27680E-04-2.86365E-14
 -1      2649 5.76033E-04 2.13506E-04-2.26680E-16
 -1      2650 5.74636E-04-1.70001E-04-3.71095E-16
 -1      2651 8.20844E-03-4.32620E-04-3.20044E-14
 -1      2652 6.86349E-03 3.70567E-04-2.68476E-14
 -1      2653 7.89346E-03-5.54927E-04-3.11333E-14
 -1      2654 7.13006E-03-9.68968E-04-2.83461E-14
 -1      2655 6.76567E-03-1.18042E-03-2.65689E-14
 -1      2656 1.42978E-02-8.05807E-04-1.18392E-13
 -1      2657 1.43002E-02-8.36296E-04-1.18312E-13
 -1      2658 8.47415E-03-3.56716E-04-3.30288E-14
 -1      2659 8.35441E-03-3.29085E-04-3.25177E-14
 -1      2660 8.42550E-03-3.44437E-04-3.34569E-14
 -1      2661 8.30570E-03-3.18120E-04-3.28791E-14
 -1      2662 8.03645E-03-2.34633E-04-3.14018E-14
 -1      2663 5.49385E-03-9.81129E-04-1.97919E-14
 -1      2664 4.76643E-03 1.67959E-04-1.70631E-14
 -1      2665 1.48103E-02-1.85036E-03-1.21623E-13
 -1      2666 1.48261E-02-1.80500E-03-1.22100E-13
 -1      2667 1.46904E-02-1.76293E-03-1.20210E-13
 -1      2668 1.46813E-02-1.82695E-03-1.19744E-13
 -1      2669 8.41063E-03-3.75271E-04-3.25905E-14
 -1      2670 3.95970E-03-2.10983E-04-1.56581E-14
 -1      2671 3.89126E-03-1.94229E-04-1.51669E-14
 -1      2672 4.01058E-03-2.23447E-04-1.54420E-14
 -1      2673 4.08909E-03-1.07045E-04-1.55970E-14
 -1      2674 6.12509E-03-1.30105E-03-2.28208E-14
 -1      2675 4.28550E-03-3.16068E-04-1.63386E-14
 -1      2676 5.03038E-03-6.83760E-04-1.81687E-14
 -1      2677 4.90328E-03-6.12990E-04-1.75361E-14
 -1      2678 5.14648E-03-7.61061E-04-1.82991E-14
 -1      2679 5.49756E-03 5.63160E-04-1.94063E-14
 -1      2680 6.48814E-03 5.88604E-04-2.48550E-14
 -1      2681 6.44491E-03-1.30435E-03-2.47218E-14
 -1      2682 7.50992E-03-7.45477E-04-2.98367E-14
 -1      2683 6.93922E-04 2.33574E-04-3.37024E-16
 -1      2684 1.41881E-02-8.36878E-04-1.16623E-13
 -1      2685 1.45888E-02-1.77770E-03-1.18565E-13
 -1      2686 7.72735E-04 6.65145E-05-6.38310E-16
 -1      2687 7.70350E-04 4.72642E-05-6.49600E-16
 -1      2688 7.68671E-04 2.82052E-05-6.59412E-16
 -1      2689 7.67774E-04 9.52547E-06-6.67896E-16
 -1      2690 8.84973E-04 4.18245E-05-8.28981E-16
 -1      2691 7.90730E-04 1.54471E-04-5.72310E-16
 -1      2692 7.84886E-04 1.30538E-04-5.92354E-16
 -1      2693 8.06142E-04 2.07733E-04-5.23155E-16
 -1      2694 7.97808E-04 1.80133E-04-5.49677E-16
 -1      2695 9.14592E-04 1.85587E-04-7.16427E-16
 -1      2696 1.40826E-02-8.67711E-04-1.14920E-13
 -1      2697 1.40452E-02-8.13226E-04-1.14569E-13
 -1      2698 1.39023E-02-7.89595E-04-1.12513E-13
 -1      2699 1.13809E-03 3.32092E-04-8.28385E-16
 -1      2700 9.93108E-04 3.07139E-04-6.37023E-16
 -1      2701 8.08156E-04 2.57468E-04-4.50120E-16
 -1      2702 6.77887E-03 4.30083E-04-2.66911E-14
 -1      2703 6.95814E-03 3.18893E-04-2.76441E-14
 -1      2704 1.32811E-03-3.25100E-04-1.50312E-15
 -1      2705 1.47246E-03-3.39240E-04-1.81516E-15
 -1      2706 1.61670E-03-3.50338E-04-2.15664E-15
 -1      2707 1.76100E-03-3.58638E-04-2.52824E-15
 -1      2708 1.52995E-03-3.11783E-04-2.00408E-15
 -1      2709 1.90523E-03-3.64681E-04-2.92927E-15
 -1      2710 2.04956E-03-3.68702E-04-3.35920E-15
 -1      2711 1.81706E-03-3.27860E-04-2.74791E-15
 -1      2712 2.19390E-03-3.71203E-04-3.81811E-15
 -1      2713 2.33842E-03-3.72430E-04-4.30534E-15
 -1      2714 2.10379E-03-3.35764E-04-3.60779E-15
 -1      2715 2.48305E-03-3.72881E-04-4.82130E-15
 -1      2716 2.62797E-03-3.72831E-04-5.36606E-15
 -1      2717 2.39008E-03-3.38253E-04-4.58173E-15
 -1      2718 2.77313E-03-3.72810E-04-5.93911E-15
 -1      2719 2.91877E-03-3.73166E-04-6.53988E-15
 -1      2720 2.67602E-03-3.38146E-04-5.66963E-15
 -1      2721 3.06487E-03-3.74491E-04-7.16820E-15
 -1      2722 3.21178E-03-3.77272E-04-7.82343E-15
 -1      2723 2.96201E-03-3.38518E-04-6.86843E-15
 -1      2724 3.35959E-03-3.82167E-04-8.50534E-15
 -1      2725 3.50878E-03-3.89923E-04-9.21485E-15
 -1      2726 3.24897E-03-3.42946E-04-8.17562E-15
 -1      2727 3.65972E-03-4.01222E-04-9.95125E-15
 -1      2728 3.81301E-03-4.17276E-04-1.07144E-14
 -1      2729 3.53895E-03-3.55832E-04-9.59026E-15
 -1      2730 3.96947E-03-4.38681E-04-1.15044E-14
 -1      2731 4.12980E-03-4.67443E-04-1.23205E-14
 -1      2732 3.83589E-03-3.82913E-04-1.11119E-14
 -1      2733 4.29549E-03-5.04007E-04-1.31632E-14
 -1      2734 4.46682E-03-5.51500E-04-1.40341E-14
 -1      2735 4.14668E-03-4.32211E-04-1.27390E-14
 -1      2736 4.64632E-03-6.09579E-04-1.49321E-14
 -1      2737 4.83212E-03-6.82311E-04-1.58579E-14
 -1      2738 4.48205E-03-5.16538E-04-1.44723E-14
 -1      2739 5.02277E-03-7.41119E-04-1.70094E-14
 -1      2740 5.22514E-03-8.45674E-04-1.79956E-14
 -1      2741 5.54241E-03-1.03726E-03-1.94819E-14
 -1      2742 5.74493E-03-1.15072E-03-2.05503E-14
 -1      2743 6.96418E-03-1.13467E-03-2.82050E-14
 -1      2744 7.16561E-03-1.04448E-03-2.95387E-14
 -1      2745 7.36880E-03-9.59442E-04-3.09021E-14
 -1      2746 7.56526E-03-8.86961E-04-3.22970E-14
 -1      2747 7.31557E-03-9.32802E-04-3.01657E-14
 -1      2748 7.75730E-03-8.29650E-04-3.37200E-14
 -1      2749 7.94026E-03-7.85401E-04-3.51698E-14
 -1      2750 7.71564E-03-7.87996E-04-3.29532E-14
 -1      2751 8.11699E-03-7.55070E-04-3.66437E-14
 -1      2752 8.28622E-03-7.34959E-04-3.81406E-14
 -1      2753 8.07897E-03-7.09269E-04-3.58502E-14
 -1      2754 8.45017E-03-7.25097E-04-3.96602E-14
 -1      2755 8.60927E-03-7.22591E-04-4.11997E-14
 -1      2756 8.40905E-03-6.79441E-04-3.88397E-14
 -1      2757 8.76485E-03-7.27051E-04-4.27611E-14
 -1      2758 8.91763E-03-7.36686E-04-4.43428E-14
 -1      2759 8.71700E-03-6.81902E-04-4.19159E-14
 -1      2760 9.06828E-03-7.50922E-04-4.59455E-14
 -1      2761 9.21743E-03-7.68694E-04-4.75673E-14
 -1      2762 9.01261E-03-7.05600E-04-4.50721E-14
 -1      2763 9.36535E-03-7.89403E-04-4.92098E-14
 -1      2764 9.51249E-03-8.12418E-04-5.08733E-14
 -1      2765 9.30212E-03-7.43365E-04-4.83128E-14
 -1      2766 9.65890E-03-8.37218E-04-5.25578E-14
 -1      2767 9.80490E-03-8.63417E-04-5.42617E-14
 -1      2768 9.58902E-03-7.90269E-04-5.16352E-14
 -1      2769 9.95044E-03-8.90608E-04-5.59828E-14
 -1      2770 1.00957E-02-9.18555E-04-5.77225E-14
 -1      2771 9.87503E-03-8.42811E-04-5.50363E-14
 -1      2772 1.02407E-02-9.46963E-04-5.94814E-14
 -1      2773 1.03855E-02-9.75686E-04-6.12593E-14
 -1      2774 1.01609E-02-8.98500E-04-5.85129E-14
 -1      2775 1.05301E-02-1.00453E-03-6.30535E-14
 -1      2776 1.06746E-02-1.03340E-03-6.48627E-14
 -1      2777 1.04468E-02-9.55611E-04-6.20646E-14
 -1      2778 1.08188E-02-1.06219E-03-6.66874E-14
 -1      2779 1.09629E-02-1.09083E-03-6.85258E-14
 -1      2780 1.07329E-02-1.01300E-03-6.56805E-14
 -1      2781 1.11069E-02-1.11926E-03-7.03747E-14
 -1      2782 1.12508E-02-1.14746E-03-7.22364E-14
 -1      2783 1.10191E-02-1.06995E-03-6.93523E-14
 -1      2784 1.13945E-02-1.17539E-03-7.41085E-14
 -1      2785 1.15382E-02-1.20305E-03-7.59943E-14
 -1      2786 1.13053E-02-1.12606E-03-7.30731E-14
 -1      2787 1.16817E-02-1.23043E-03-7.78929E-14
 -1      2788 1.18251E-02-1.25752E-03-7.98025E-14
 -1      2789 1.15914E-02-1.18115E-03-7.68413E-14
 -1      2790 1.19685E-02-1.28435E-03-8.17251E-14
 -1      2791 1.21118E-02-1.31091E-03-8.36598E-14
 -1      2792 1.18775E-02-1.23515E-03-8.06611E-14
 -1      2793 1.22550E-02-1.33721E-03-8.56061E-14
 -1      2794 1.23982E-02-1.36328E-03-8.75647E-14
 -1      2795 1.21636E-02-1.28812E-03-8.45267E-14
 -1      2796 1.25413E-02-1.38913E-03-8.95366E-14
 -1      2797 1.26844E-02-1.41476E-03-9.15198E-14
 -1      2798 1.24496E-02-1.34013E-03-8.84445E-14
 -1      2799 1.28275E-02-1.44021E-03-9.35118E-14
 -1      2800 1.29705E-02-1.46548E-03-9.55170E-14
 -1      2801 1.27355E-02-1.39132E-03-9.24062E-14
 -1      2802 1.31135E-02-1.49060E-03-9.75311E-14
 -1      2803 1.32564E-02-1.51557E-03-9.95554E-14
 -1      2804 1.30214E-02-1.44179E-03-9.64118E-14
 -1      2805 1.33994E-02-1.54042E-03-1.01586E-13
 -1      2806 1.35423E-02-1.56515E-03-1.03623E-13
 -1      2807 1.33073E-02-1.49168E-03-1.00454E-13
 -1      2808 1.36852E-02-1.58978E-03-1.05668E-13
 -1      2809 1.38281E-02-1.61432E-03-1.07717E-13
 -1      2810 1.35931E-02-1.54111E-03-1.04526E-13
 -1      2811 1.39710E-02-1.63879E-03-1.09774E-13
 -1      2812 1.41139E-02-1.66319E-03-1.11838E-13
 -1      2813 1.38788E-02-1.59016E-03-1.08621E-13
 -1      2814 1.42567E-02-1.68755E-03-1.13906E-13
 -1      2815 1.43996E-02-1.71186E-03-1.15980E-13
 -1      2816 1.41646E-02-1.63895E-03-1.12740E-13
 -1      2817 2.29848E-03 4.16116E-04-3.36577E-15
 -1      2818 2.15262E-03 4.12667E-04-2.94942E-15
 -1      2819 8.45821E-03-3.78706E-04-3.35536E-14
 -1      2820 8.38267E-03-3.92679E-04-3.31795E-14
 -1      2821 2.00720E-03 4.07993E-04-2.56164E-15
 -1      2822 1.86207E-03 4.01808E-04-2.20218E-15
 -1      2823 2.06424E-03 3.74247E-04-2.82725E-15
 -1      2824 2.88816E-03 4.26325E-04-5.31292E-15
 -1      2825 2.73958E-03 4.23520E-04-4.78399E-15
 -1      2826 3.18839E-03 4.35102E-04-6.45382E-15
 -1      2827 3.03775E-03 4.30043E-04-5.86937E-15
 -1      2828 2.94314E-03 3.88900E-04-5.68558E-15
 -1      2829 3.49356E-03 4.51171E-04-7.70505E-15
 -1      2830 3.34034E-03 4.41978E-04-7.06584E-15
 -1      2831 3.24266E-03 3.97421E-04-6.86114E-15
 -1      2832 3.80468E-03 4.78342E-04-9.06603E-15
 -1      2833 3.64840E-03 4.63111E-04-8.37175E-15
 -1      2834 3.54768E-03 4.13677E-04-8.14588E-15
 -1      2835 4.12236E-03 5.20048E-04-1.05388E-14
 -1      2836 3.96282E-03 4.97165E-04-9.78873E-15
 -1      2837 3.85981E-03 4.41614E-04-9.54030E-15
 -1      2838 4.44620E-03 5.78254E-04-1.21235E-14
 -1      2839 4.28376E-03 5.47026E-04-1.13164E-14
 -1      2840 4.18021E-03 4.84974E-04-1.10456E-14
 -1      2841 4.77394E-03 6.51556E-04-1.38238E-14
 -1      2842 4.61000E-03 6.13308E-04-1.29595E-14
 -1      2843 4.50874E-03 5.46169E-04-1.26629E-14
 -1      2844 5.10105E-03 7.32510E-04-1.56409E-14
 -1      2845 4.93806E-03 6.91922E-04-1.47178E-14
 -1      2846 4.84269E-03 6.23924E-04-1.43955E-14
 -1      2847 5.42198E-03 8.05726E-04-1.75800E-14
 -1      2848 5.26258E-03 7.71505E-04-1.65947E-14
 -1      2849 5.17619E-03 7.09708E-04-1.62451E-14
 -1      2850 5.73370E-03 8.49743E-04-1.96443E-14
 -1      2851 5.57881E-03 8.32908E-04-1.85968E-14
 -1      2852 5.50224E-03 7.84922E-04-1.82176E-14
 -1      2853 6.03830E-03 8.45518E-04-2.18355E-14
 -1      2854 5.88577E-03 8.54598E-04-2.07238E-14
 -1      2855 5.81708E-03 8.24485E-04-2.03164E-14
 -1      2856 6.34462E-03 7.86318E-04-2.41550E-14
 -1      2857 6.19047E-03 8.22333E-04-2.29795E-14
 -1      2858 6.12606E-03 8.06847E-04-2.25448E-14
 -1      2859 6.65882E-03 6.83152E-04-2.66002E-14
 -1      2860 6.50032E-03 7.38871E-04-2.53617E-14
 -1      2861 6.43942E-03 7.30050E-04-2.49007E-14
 -1      2862 6.98213E-03 5.56901E-04-2.91681E-14
 -1      2863 6.81954E-03 6.21399E-04-2.78691E-14
 -1      2864 6.76308E-03 6.11740E-04-2.73826E-14
 -1      2865 7.31045E-03 4.27795E-04-3.18556E-14
 -1      2866 7.14617E-03 4.91593E-04-3.04966E-14
 -1      2867 7.09565E-03 4.77474E-04-2.99857E-14
 -1      2868 7.63825E-03 3.09299E-04-3.46581E-14
 -1      2869 7.47489E-03 3.66737E-04-3.32428E-14
 -1      2870 7.43041E-03 3.47872E-04-3.27068E-14
 -1      2871 7.96157E-03 2.07035E-04-3.75734E-14
 -1      2872 7.80077E-03 2.56064E-04-3.61016E-14
 -1      2873 7.76095E-03 2.33818E-04-3.55430E-14
 -1      2874 8.27872E-03 1.21466E-04-4.05911E-14
 -1      2875 8.12105E-03 1.62303E-04-3.90693E-14
 -1      2876 8.08382E-03 1.38024E-04-3.84859E-14
 -1      2877 8.58967E-03 5.03955E-05-4.37097E-14
 -1      2878 8.43500E-03 8.43300E-05-4.21386E-14
 -1      2879 8.39840E-03 5.89102E-05-4.15328E-14
 -1      2880 8.89516E-03-9.30400E-06-4.69191E-14
 -1      2881 8.74307E-03 1.93366E-05-4.53036E-14
 -1      2882 8.70567E-03-6.73407E-06-4.46753E-14
 -1      2883 9.19620E-03-6.07629E-05-5.02135E-14
 -1      2884 9.04619E-03-3.58807E-05-4.85558E-14
 -1      2885 9.00714E-03-6.23375E-05-4.79071E-14
 -1      2886 9.49370E-03-1.06694E-04-5.35886E-14
 -1      2887 9.34534E-03-8.42747E-05-5.18925E-14
 -1      2888 9.30428E-03-1.10957E-04-5.12248E-14
 -1      2889 9.78845E-03-1.49253E-04-5.70352E-14
 -1      2890 9.64137E-03-1.28287E-04-5.53031E-14
 -1      2891 9.59827E-03-1.55077E-04-5.46197E-14
 -1      2892 1.00810E-02-1.90048E-04-6.05549E-14
 -1      2893 9.93497E-03-1.69794E-04-5.87854E-14
 -1      2894 9.89001E-03-1.96599E-04-5.80853E-14
 -1      2895 1.03720E-02-2.30208E-04-6.41445E-14
 -1      2896 1.02267E-02-2.10156E-04-6.23405E-14
 -1      2897 1.01801E-02-2.36901E-04-6.16236E-14
 -1      2898 1.06616E-02-2.70478E-04-6.78075E-14
 -1      2899 1.05169E-02-2.50296E-04-6.59692E-14
 -1      2900 1.04691E-02-2.76927E-04-6.52327E-14
 -1      2901 1.09502E-02-3.11310E-04-7.15375E-14
 -1      2902 1.08060E-02-2.90805E-04-6.96629E-14
 -1      2903 1.07572E-02-3.17286E-04-6.89150E-14
 -1      2904 1.12380E-02-3.52943E-04-7.53289E-14
 -1      2905 1.10942E-02-3.32017E-04-7.34270E-14
 -1      2906 1.10446E-02-3.58330E-04-7.26629E-14
 -1      2907 1.15253E-02-3.95471E-04-7.91729E-14
 -1      2908 1.13817E-02-3.74092E-04-7.72444E-14
 -1      2909 1.13316E-02-4.00234E-04-7.64661E-14
 -1      2910 1.18121E-02-4.38890E-04-8.30667E-14
 -1      2911 1.16687E-02-4.17071E-04-8.11129E-14
 -1      2912 1.16182E-02-4.43047E-04-8.03204E-14
 -1      2913 1.20985E-02-4.83140E-04-8.70067E-14
 -1      2914 1.19553E-02-4.60915E-04-8.50321E-14
 -1      2915 1.19046E-02-4.86739E-04-8.42250E-14
 -1      2916 1.23847E-02-5.28128E-04-9.09868E-14
 -1      2917 1.22416E-02-5.05547E-04-8.89917E-14
 -1      2918 1.21907E-02-5.31236E-04-8.81752E-14
 -1      2919 1.26707E-02-5.73746E-04-9.49997E-14
 -1      2920 1.25277E-02-5.50864E-04-9.29894E-14
 -1      2921 1.24767E-02-5.76438E-04-9.21614E-14
 -1      2922 1.29566E-02-6.19886E-04-9.90405E-14
 -1      2923 1.28137E-02-5.96756E-04-9.70177E-14
 -1      2924 1.27627E-02-6.22235E-04-9.61812E-14
 -1      2925 1.32424E-02-6.66441E-04-1.03109E-13
 -1      2926 1.30995E-02-6.43116E-04-1.01070E-13
 -1      2927 1.30485E-02-6.68519E-04-1.00228E-13
 -1      2928 1.35282E-02-7.13314E-04-1.07197E-13
 -1      2929 1.33853E-02-6.89843E-04-1.05151E-13
 -1      2930 1.33343E-02-7.15188E-04-1.04299E-13
 -1      2931 1.37867E-02-7.63205E-04-1.10878E-13
 -1      2932 1.36439E-02-7.39638E-04-1.08828E-13
 -1      2933 1.35928E-02-7.64945E-04-1.07970E-13
 -1      2934 1.38241E-02-8.17663E-04-1.11233E-13
 -1      2935 1.43229E-02-1.26936E-03-1.16891E-13
 -1      2936 1.42994E-02-1.22729E-03-1.16717E-13
 -1      2937 1.44965E-02-1.72878E-03-1.17387E-13
 -1      2938 1.45935E-02-1.74602E-03-1.18798E-13
 -1      2939 1.45981E-02-1.71402E-03-1.19026E-13
 -1      2940 1.44043E-02-1.68019E-03-1.16211E-13
 -1      2941 1.42291E-02-1.10105E-03-1.16189E-13
 -1      2942 1.42057E-02-1.05896E-03-1.16009E-13
 -1      2943 1.43700E-02-1.35350E-03-1.17234E-13
 -1      2944 1.43465E-02-1.31143E-03-1.17064E-13
 -1      2945 1.42110E-02-1.26965E-03-1.15192E-13
 -1      2946 1.42759E-02-1.18522E-03-1.16543E-13
 -1      2947 1.42525E-02-1.14314E-03-1.16367E-13
 -1      2948 1.41171E-02-1.10148E-03-1.14499E-13
 -1      2949 1.41639E-02-1.18558E-03-1.14850E-13
 -1      2950 7.59622E-03-4.14863E-05-3.05365E-14
 -1      2951 7.76878E-03-1.22375E-04-3.12337E-14
 -1      2952 1.44165E-02-1.43623E-03-1.17565E-13
 -1      2953 1.43933E-02-1.39486E-03-1.17401E-13
 -1      2954 1.42578E-02-1.35301E-03-1.15529E-13
 -1      2955 1.44640E-02-1.52041E-03-1.17900E-13
 -1      2956 1.44402E-02-1.47831E-03-1.17732E-13
 -1      2957 1.43047E-02-1.43639E-03-1.15859E-13
 -1      2958 1.45116E-02-1.60462E-03-1.18229E-13
 -1      2959 1.44877E-02-1.56251E-03-1.18065E-13
 -1      2960 1.43521E-02-1.52052E-03-1.16189E-13
 -1      2961 1.45742E-02-1.67189E-03-1.18866E-13
 -1      2962 1.71718E-03 3.93573E-04-1.87105E-15
 -1      2963 1.57237E-03 3.83008E-04-1.56856E-15
 -1      2964 1.77455E-03 3.62429E-04-2.09942E-15
 -1      2965 8.00215E-03-5.24311E-04-3.21289E-14
 -1      2966 7.81609E-03-6.04636E-04-3.14688E-14
 -1      2967 7.97950E-03-2.11244E-04-3.19674E-14
 -1      2968 8.14541E-03-2.69281E-04-3.25213E-14
 -1      2969 3.99323E-03-1.20876E-04-1.50132E-14
 -1      2970 4.13098E-03-7.89289E-05-1.51943E-14
 -1      2971 6.20212E-03-1.32440E-03-2.32442E-14
 -1      2972 6.04034E-03-1.28372E-03-2.22642E-14
 -1      2973 4.35440E-03-3.43792E-04-1.59974E-14
 -1      2974 4.17976E-03-2.79025E-04-1.56054E-14
 -1      2975 2.59184E-03 4.21145E-04-4.28287E-15
 -1      2976 2.44485E-03 4.18838E-04-3.81031E-15
 -1      2977 2.35503E-03 3.80565E-04-3.66794E-15
 -1      2978 2.64768E-03 3.84407E-04-4.62103E-15
 -1      2979 1.03975E-03-2.85734E-04-9.69372E-16
 -1      2980 1.18392E-03-3.07358E-04-1.22103E-15
 -1      2981 1.24283E-03-2.84762E-04-1.37841E-15
 -1      2982 1.42767E-03 3.69503E-04-1.29417E-15
 -1      2983 1.28283E-03 3.52755E-04-1.04733E-15
 -1      2984 1.19661E-03 3.09834E-04-9.80363E-16
 -1      2985 1.48542E-03 3.42043E-04-1.48406E-15
 -1      2986 6.91191E-04-1.85828E-04-5.10591E-16
 -1      2987 8.29450E-03-4.18847E-04-3.29611E-14
 -1      2988 8.18472E-03-4.55291E-04-3.27424E-14
 -1      2989 8.37134E-03-4.15578E-04-3.39283E-14
 -1      2990 6.52527E-03-1.29497E-03-2.52849E-14
 -1      2991 6.38160E-03-1.32638E-03-2.43672E-14
 -1      2992 7.20075E-03 1.74662E-04-2.88220E-14
 -1      2993 7.39823E-03 6.06442E-05-2.96722E-14
 -1      2994 7.52523E-03 1.27345E-05-3.07238E-14
 -1      2995 6.09567E-03 7.25831E-04-2.25036E-14
 -1      2996 6.22656E-03 6.99451E-04-2.33606E-14
 -1      2997 5.07806E-03 3.48763E-04-1.76032E-14
 -1      2998 5.22706E-03 4.33100E-04-1.81162E-14
 -1      2999 4.30097E-03-1.21498E-05-1.54130E-14
 -1      3000 4.43545E-03 4.02528E-05-1.57142E-14
 -1      3001 4.61702E-03-4.63518E-04-1.66420E-14
 -1      3002 4.48125E-03-3.98411E-04-1.63173E-14
 -1      3003 4.34771E-03-3.53003E-04-1.55788E-14
 -1      3004 5.39116E-03 5.23839E-04-1.87171E-14
 -1      3005 5.53898E-03 6.04928E-04-1.93333E-14
 -1      3006 5.28248E-03 4.92443E-04-1.80414E-14
 -1      3007 7.79965E-04 1.08098E-04-6.09674E-16
 -1      3008 7.75954E-04 8.67936E-05-6.25043E-16
 -1      3009 8.90888E-04 8.55332E-05-8.00873E-16
 -1      3010 9.00594E-04 1.32798E-04-7.64091E-16
 -1      3011 7.75073E-04-8.56545E-05-6.88482E-16
 -1      3012 7.78996E-04-1.06573E-04-6.87967E-16
 -1      3013 4.63594E-03 1.25408E-04-1.62676E-14
 -1      3014 4.85930E-03 2.32685E-04-1.69277E-14
 -1      3015 4.92326E-03 2.95742E-04-1.67845E-14
 -1      3016 6.40426E-03 6.35036E-04-2.44826E-14
 -1      3017 6.57498E-03 5.46340E-04-2.55291E-14
 -1      3018 7.62581E-03-7.03767E-04-3.08634E-14
 -1      3019 7.45883E-03-7.96978E-04-3.02104E-14
 -1      3020 8.49664E-03-3.63021E-04-3.39611E-14
 -1      3021 8.50120E-03-3.67975E-04-3.38964E-14
 -1      3022 7.20360E-03-9.41315E-04-2.90096E-14
 -1      3023 7.02212E-03-1.05461E-03-2.81606E-14
 -1      3024 7.83882E-04-1.28590E-04-6.85433E-16
 -1      3025 7.89722E-04-1.51977E-04-6.80201E-16
 -1      3026 8.99255E-04-1.30877E-04-8.68880E-16
 -1      3027 8.82775E-04-2.74875E-08-8.49703E-16
 -1      3028 7.67648E-04-9.02957E-06-6.74848E-16
 -1      3029 7.68301E-04-2.76126E-05-6.80459E-16
 -1      3030 7.91092E-03-1.69133E-04-3.23445E-14
 -1      3031 1.41056E-02-9.09478E-04-1.15103E-13
 -1      3032 7.10473E-03 2.47589E-04-2.86552E-14
 -1      3033 5.61895E-03 6.49475E-04-1.96374E-14
 -1      3034 5.68757E-03 6.85279E-04-1.99435E-14
 -1      3035 5.50719E-03 6.21472E-04-1.89340E-14
 -1      3036 8.69171E-04 2.44074E-04-5.58323E-16
 -1      3037 6.68233E-03 4.98416E-04-2.62990E-14
 -1      3038 4.83716E-03-6.21648E-04-1.65055E-14
 -1      3039 1.40705E-02-1.01771E-03-1.14142E-13
 -1      3040 1.41826E-02-1.01722E-03-1.15831E-13
 -1      3041 1.41595E-02-9.75470E-04-1.15650E-13
 -1      3042 6.29035E-03-1.33709E-03-2.37835E-14
 -1      3043 7.76084E-03-6.61144E-04-3.18514E-14
 -1      3044 7.34192E-03-8.90558E-04-3.00164E-14
 -1      3045 8.48942E-03-3.58856E-04-3.43287E-14
 -1      3046 8.54229E-03-3.70678E-04-3.52075E-14
 -1      3047 8.47250E-03-3.53112E-04-3.46945E-14
 -1      3048 8.04108E-04-1.82846E-04-6.79158E-16
 -1      3049 8.25742E-04-2.31745E-04-6.65863E-16
 -1      3050 9.57796E-04-2.62289E-04-8.51261E-16
 -1      3051 9.20708E-04-1.88379E-04-8.65261E-16
 -1      3052 3.82510E-03-1.74948E-04-1.48358E-14
 -1      3053 3.82181E-03-1.69987E-04-1.48442E-14
 -1      3054 1.44214E-02-1.65502E-03-1.16601E-13
 -1      3055 1.44944E-02-1.62981E-03-1.17846E-13
 -1      3056 1.43588E-02-1.58777E-03-1.15970E-13
 -1      3057 1.43246E-02-1.63810E-03-1.15199E-13
 -1      3058 3.90864E-03-1.41636E-04-1.48192E-14
 -1      3059 3.93186E-03-1.17145E-04-1.44270E-14
 -1      3060 9.86856E-04 2.50237E-04-7.30237E-16
 -1      3061 8.11980E-03-4.98988E-04-3.30862E-14
 -1      3062 4.06465E-03-2.43168E-04-1.51112E-14
 -1      3063 3.96451E-03-2.19352E-04-1.46253E-14
 -1      3064 4.11124E-03-2.69779E-04-1.47788E-14
 -1      3065 4.17211E-03-3.85543E-05-1.48304E-14
 -1      3066 3.85153E-03-1.86279E-04-1.44107E-14
 -1      3067 3.83297E-03-1.79904E-04-1.46230E-14
 -1      3068 3.78349E-03-1.68937E-04-1.40886E-14
 -1      3069 6.86236E-03-1.15017E-03-2.73436E-14
 -1      3070 6.70354E-03-1.23245E-03-2.64057E-14
 -1      3071 8.50789E-03-3.81474E-04-3.44937E-14
 -1      3072 1.01839E-03-2.45122E-04-9.81528E-16
 -1      3073 7.69749E-04-4.63986E-05-6.84511E-16
 -1      3074 7.71987E-04-6.57118E-05-6.87167E-16
 -1      3075 8.89776E-04-8.45401E-05-8.70004E-16
 -1      3076 8.84352E-04-4.15622E-05-8.63364E-16
 -1      3077 5.35570E-03-9.16037E-04-1.86465E-14
 -1      3078 6.63263E-03-1.27612E-03-2.60338E-14
 -1      3079 5.98214E-03 7.34467E-04-2.17663E-14
 -1      3080 6.04568E-03 7.40297E-04-2.21487E-14
 -1      3081 5.87429E-03 7.29778E-04-2.10410E-14
 -1      3082 6.32198E-03 6.73610E-04-2.40056E-14
 -1      3083 4.52165E-03 1.04576E-04-1.55812E-14
 -1      3084 3.85560E-03-1.55008E-04-1.48143E-14
 -1      3085 1.04091E-03 2.17236E-04-8.75764E-16
 -1      3086 1.03156E-03 1.87048E-04-9.07247E-16
 -1      3087 1.73034E-03-2.91871E-04-2.56880E-15
 -1      3088 1.87292E-03-2.97354E-04-2.97008E-15
 -1      3089 2.01521E-03-3.01141E-04-3.39991E-15
 -1      3090 2.15728E-03-3.03427E-04-3.85819E-15
 -1      3091 1.92844E-03-2.67224E-04-3.19480E-15
 -1      3092 2.29897E-03-3.04649E-04-4.34517E-15
 -1      3093 2.44038E-03-3.04999E-04-4.85976E-15
 -1      3094 2.21000E-03-2.71828E-04-4.11075E-15
 -1      3095 2.58135E-03-3.04933E-04-5.40270E-15
 -1      3096 2.72205E-03-3.04666E-04-5.97393E-15
 -1      3097 2.48940E-03-2.72802E-04-5.13938E-15
 -1      3098 2.86234E-03-3.04683E-04-6.57119E-15
 -1      3099 3.00246E-03-3.05253E-04-7.19681E-15
 -1      3100 2.76621E-03-2.72500E-04-6.27777E-15
 -1      3101 3.14235E-03-3.06882E-04-7.84910E-15
 -1      3102 3.28245E-03-3.09975E-04-8.52726E-15
 -1      3103 3.04034E-03-2.73422E-04-7.52505E-15
 -1      3104 3.42278E-03-3.15023E-04-9.23304E-15
 -1      3105 3.56412E-03-3.22728E-04-9.96523E-15
 -1      3106 3.31239E-03-2.78308E-04-8.87966E-15
 -1      3107 3.70673E-03-3.33487E-04-1.07240E-14
 -1      3108 3.85190E-03-3.48681E-04-1.15088E-14
 -1      3109 3.58434E-03-2.90370E-04-1.03402E-14
 -1      3110 4.00031E-03-3.68557E-04-1.23192E-14
 -1      3111 4.15372E-03-3.95541E-04-1.31558E-14
 -1      3112 3.86078E-03-3.14021E-04-1.19042E-14
 -1      3113 4.38922E-03-4.56240E-04-1.43354E-14
 -1      3114 4.56306E-03-5.09468E-04-1.52353E-14
 -1      3115 4.72380E-03-5.46429E-04-1.63484E-14
 -1      3116 4.22134E-03-3.77216E-04-1.38827E-14
 -1      3117 5.92948E-03-1.23538E-03-2.16542E-14
 -1      3118 5.93789E-03-1.26264E-03-2.15356E-14
 -1      3119 6.12229E-03-1.32397E-03-2.26762E-14
 -1      3120 6.28990E-03-1.34523E-03-2.37823E-14
 -1      3121 6.47096E-03-1.33249E-03-2.49931E-14
 -1      3122 6.63610E-03-1.28736E-03-2.61065E-14
 -1      3123 6.82566E-03-1.21662E-03-2.73840E-14
 -1      3124 1.15979E-03-2.46185E-04-1.25556E-15
 -1      3125 1.30226E-03-2.61709E-04-1.54014E-15
 -1      3126 8.05495E-03-6.59723E-04-3.50564E-14
 -1      3127 8.22046E-03-6.40019E-04-3.65264E-14
 -1      3128 8.37794E-03-6.32051E-04-3.80205E-14
 -1      3129 8.52950E-03-6.30868E-04-3.95347E-14
 -1      3130 8.35659E-03-5.82696E-04-3.72029E-14
 -1      3131 8.67640E-03-6.36513E-04-4.10710E-14
 -1      3132 8.82050E-03-6.46603E-04-4.26260E-14
 -1      3133 8.64276E-03-5.91059E-04-4.02284E-14
 -1      3134 8.96235E-03-6.60921E-04-4.42023E-14
 -1      3135 9.10315E-03-6.78293E-04-4.57997E-14
 -1      3136 8.91713E-03-6.17296E-04-4.33350E-14
 -1      3137 9.24309E-03-6.98354E-04-4.74179E-14
 -1      3138 9.38286E-03-7.20529E-04-4.90550E-14
 -1      3139 9.18788E-03-6.54921E-04-4.65240E-14
 -1      3140 9.52246E-03-7.44411E-04-5.07132E-14
 -1      3141 9.66230E-03-7.69686E-04-5.23931E-14
 -1      3142 9.45896E-03-7.00259E-04-4.97955E-14
 -1      3143 9.80226E-03-7.95981E-04-5.40911E-14
 -1      3144 9.94258E-03-8.23119E-04-5.58077E-14
 -1      3145 9.73200E-03-7.50776E-04-5.31475E-14
 -1      3146 1.00831E-02-8.50794E-04-5.75455E-14
 -1      3147 1.02240E-02-8.78901E-04-5.92996E-14
 -1      3148 1.00074E-02-8.04526E-04-5.65783E-14
 -1      3149 1.03652E-02-9.07214E-04-6.10743E-14
 -1      3150 1.05066E-02-9.35667E-04-6.28658E-14
 -1      3151 1.02852E-02-8.60031E-04-6.00854E-14
 -1      3152 1.06482E-02-9.64107E-04-6.46706E-14
 -1      3153 1.07901E-02-9.92496E-04-6.64920E-14
 -1      3154 1.05649E-02-9.16207E-04-6.36638E-14
 -1      3155 1.09321E-02-1.02074E-03-6.83281E-14
 -1      3156 1.10743E-02-1.04881E-03-7.01750E-14
 -1      3157 1.08463E-02-9.72311E-04-6.73036E-14
 -1      3158 1.12166E-02-1.07666E-03-7.20341E-14
 -1      3159 1.13590E-02-1.10428E-03-7.39051E-14
 -1      3160 1.11289E-02-1.02787E-03-7.09957E-14
 -1      3161 1.15015E-02-1.13165E-03-7.57886E-14
 -1      3162 1.16441E-02-1.15877E-03-7.76855E-14
 -1      3163 1.14124E-02-1.08263E-03-7.47384E-14
 -1      3164 1.17868E-02-1.18563E-03-7.95935E-14
 -1      3165 1.19295E-02-1.21224E-03-8.15141E-14
 -1      3166 1.16965E-02-1.13647E-03-7.85280E-14
 -1      3167 1.20722E-02-1.23861E-03-8.34472E-14
 -1      3168 1.22150E-02-1.26475E-03-8.53912E-14
 -1      3169 1.19812E-02-1.18937E-03-8.23666E-14
 -1      3170 1.23578E-02-1.29066E-03-8.73491E-14
 -1      3171 1.25006E-02-1.31638E-03-8.93195E-14
 -1      3172 1.22663E-02-1.24139E-03-8.62562E-14
 -1      3173 1.26434E-02-1.34190E-03-9.13005E-14
 -1      3174 1.27863E-02-1.36724E-03-9.32906E-14
 -1      3175 1.25516E-02-1.29262E-03-9.01934E-14
 -1      3176 1.29291E-02-1.39243E-03-9.52913E-14
 -1      3177 1.30720E-02-1.41746E-03-9.73026E-14
 -1      3178 1.28370E-02-1.34316E-03-9.41728E-14
 -1      3179 1.32149E-02-1.44236E-03-9.93228E-14
 -1      3180 1.33578E-02-1.46715E-03-1.01350E-13
 -1      3181 1.31226E-02-1.39311E-03-9.81907E-14
 -1      3182 1.35006E-02-1.49183E-03-1.03384E-13
 -1      3183 1.36435E-02-1.51641E-03-1.05423E-13
 -1      3184 1.34083E-02-1.44259E-03-1.02241E-13
 -1      3185 1.37864E-02-1.54091E-03-1.07469E-13
 -1      3186 1.39292E-02-1.56535E-03-1.09519E-13
 -1      3187 1.36940E-02-1.49170E-03-1.06317E-13
 -1      3188 1.40555E-02-1.58959E-03-1.11324E-13
 -1      3189 1.41983E-02-1.61392E-03-1.13384E-13
 -1      3190 1.42154E-02-1.58878E-03-1.13774E-13
 -1      3191 1.39630E-02-1.54039E-03-1.10163E-13
 -1      3192 3.29500E-03 3.59181E-04-7.27286E-15
 -1      3193 3.14511E-03 3.54428E-04-6.65439E-15
 -1      3194 2.99647E-03 3.51231E-04-6.06332E-15
 -1      3195 2.84893E-03 3.49084E-04-5.50037E-15
 -1      3196 3.04814E-03 3.13264E-04-6.44680E-15
 -1      3197 3.91306E-03 4.03308E-04-1.00185E-14
 -1      3198 3.75531E-03 3.87359E-04-9.29075E-15
 -1      3199 4.23669E-03 4.47936E-04-1.15556E-14
 -1      3200 4.07366E-03 4.23231E-04-1.07739E-14
 -1      3201 3.96443E-03 3.63256E-04-1.05007E-14
 -1      3202 4.57086E-03 5.12204E-04-1.32056E-14
 -1      3203 4.40277E-03 4.77427E-04-1.23659E-14
 -1      3204 4.29178E-03 4.08949E-04-1.20695E-14
 -1      3205 4.91236E-03 5.95414E-04-1.49695E-14
 -1      3206 4.74135E-03 5.51819E-04-1.40733E-14
 -1      3207 4.63248E-03 4.77053E-04-1.37506E-14
 -1      3208 5.25345E-03 6.87864E-04-1.68510E-14
 -1      3209 5.08373E-03 6.41850E-04-1.58950E-14
 -1      3210 4.98234E-03 5.67710E-04-1.55453E-14
 -1      3211 5.58524E-03 7.66454E-04-1.88585E-14
 -1      3212 5.42087E-03 7.31157E-04-1.78396E-14
 -1      3213 5.33149E-03 6.68900E-04-1.74602E-14
 -1      3214 5.95809E-03 7.81256E-04-2.14278E-14
 -1      3215 5.79730E-03 7.74600E-04-2.03340E-14
 -1      3216 6.53851E-03 6.68574E-04-2.56510E-14
 -1      3217 6.37576E-03 7.23622E-04-2.44386E-14
 -1      3218 6.87291E-03 5.34140E-04-2.81684E-14
 -1      3219 6.70411E-03 6.03532E-04-2.68942E-14
 -1      3220 6.64473E-03 5.98761E-04-2.64047E-14
 -1      3221 7.21513E-03 3.93485E-04-3.08079E-14
 -1      3222 7.04404E-03 4.62856E-04-2.94735E-14
 -1      3223 6.99180E-03 4.49573E-04-2.89594E-14
 -1      3224 7.55521E-03 2.65925E-04-3.35629E-14
 -1      3225 7.38617E-03 3.27361E-04-3.21710E-14
 -1      3226 7.34241E-03 3.06066E-04-3.16352E-14
 -1      3227 7.88676E-03 1.58422E-04-3.64316E-14
 -1      3228 7.72248E-03 2.09687E-04-3.49835E-14
 -1      3229 7.68540E-03 1.83775E-04-3.44241E-14
 -1      3230 8.20752E-03 7.03229E-05-3.94031E-14
 -1      3231 8.04860E-03 1.12231E-04-3.79048E-14
 -1      3232 8.01545E-03 8.47162E-05-3.73226E-14
 -1      3233 8.51833E-03-1.86144E-06-4.24765E-14
 -1      3234 8.36412E-03 3.25583E-05-4.09279E-14
 -1      3235 8.33220E-03 5.01593E-06-4.03245E-14
 -1      3236 8.82122E-03-6.20526E-05-4.56446E-14
 -1      3237 8.67065E-03-3.31810E-05-4.40485E-14
 -1      3238 8.63804E-03-6.02180E-05-4.34239E-14
 -1      3239 9.11835E-03-1.13754E-04-4.88980E-14
 -1      3240 8.97039E-03-8.87501E-05-4.72607E-14
 -1      3241 8.93593E-03-1.15262E-04-4.66139E-14
 -1      3242 9.41152E-03-1.59807E-04-5.22363E-14
 -1      3243 9.26533E-03-1.37328E-04-5.05568E-14
 -1      3244 9.22847E-03-1.63466E-04-4.98920E-14
 -1      3245 9.70208E-03-2.02395E-04-5.56499E-14
 -1      3246 9.55705E-03-1.81421E-04-5.39339E-14
 -1      3247 9.51768E-03-2.07344E-04-5.32497E-14
 -1      3248 9.99095E-03-2.43128E-04-5.91377E-14
 -1      3249 9.84667E-03-2.22915E-04-5.73854E-14
 -1      3250 9.80492E-03-2.48734E-04-5.66849E-14
 -1      3251 1.02787E-02-2.83145E-04-6.26966E-14
 -1      3252 1.01349E-02-2.63174E-04-6.09090E-14
 -1      3253 1.00911E-02-2.88947E-04-6.01937E-14
 -1      3254 1.05658E-02-3.23205E-04-6.63265E-14
 -1      3255 1.04223E-02-3.03137E-04-6.45013E-14
 -1      3256 1.03767E-02-3.28885E-04-6.37718E-14
 -1      3257 1.08525E-02-3.63783E-04-7.00230E-14
 -1      3258 1.07092E-02-3.43411E-04-6.81662E-14
 -1      3259 1.06621E-02-3.69134E-04-6.74185E-14
 -1      3260 1.11389E-02-4.05139E-04-7.37873E-14
 -1      3261 1.09957E-02-3.84355E-04-7.18978E-14
 -1      3262 1.09475E-02-4.10045E-04-7.11350E-14
 -1      3263 1.14251E-02-4.47386E-04-7.76026E-14
 -1      3264 1.12820E-02-4.26149E-04-7.56897E-14
 -1      3265 1.12329E-02-4.51796E-04-7.49128E-14
 -1      3266 1.17111E-02-4.90537E-04-8.14700E-14
 -1      3267 1.15681E-02-4.68851E-04-7.95297E-14
 -1      3268 1.15184E-02-4.94445E-04-7.87412E-14
 -1      3269 1.19971E-02-5.34540E-04-8.53849E-14
 -1      3270 1.18541E-02-5.12436E-04-8.34206E-14
 -1      3271 1.18039E-02-5.37974E-04-8.26176E-14
 -1      3272 1.22830E-02-5.79309E-04-8.93423E-14
 -1      3273 1.21400E-02-5.56834E-04-8.73602E-14
 -1      3274 1.20895E-02-5.82315E-04-8.65440E-14
 -1      3275 1.25688E-02-6.24740E-04-9.33377E-14
 -1      3276 1.24259E-02-6.01948E-04-9.13356E-14
 -1      3277 1.23752E-02-6.27373E-04-9.05101E-14
 -1      3278 1.28546E-02-6.70726E-04-9.73645E-14
 -1      3279 1.27117E-02-6.47670E-04-9.53479E-14
 -1      3280 1.26609E-02-6.73046E-04-9.45130E-14
 -1      3281 1.31404E-02-7.17161E-04-1.01415E-13
 -1      3282 1.29975E-02-6.93893E-04-9.93861E-14
 -1      3283 1.29466E-02-7.19226E-04-9.85440E-14
 -1      3284 1.34262E-02-7.63947E-04-1.05490E-13
 -1      3285 1.32833E-02-7.40515E-04-1.03449E-13
 -1      3286 1.32323E-02-7.65815E-04-1.02601E-13
 -1      3287 3.86132E-03-1.11175E-04-1.38224E-14
 -1      3288 3.94173E-03-9.12496E-05-1.40082E-14
 -1      3289 6.60792E-03 5.58503E-04-2.59752E-14
 -1      3290 6.79135E-03 4.56033E-04-2.71488E-14
 -1      3291 1.00289E-03 5.73721E-05-1.01710E-15
 -1      3292 1.00047E-03 3.40736E-05-1.03156E-15
 -1      3293 1.41928E-02-1.43652E-03-1.14157E-13
 -1      3294 1.41691E-02-1.39450E-03-1.13991E-13
 -1      3295 1.40991E-02-1.26990E-03-1.13499E-13
 -1      3296 1.40755E-02-1.22791E-03-1.13331E-13
 -1      3297 7.02895E-03 3.18327E-04-2.85706E-14
 -1      3298 7.24560E-03 1.90702E-04-2.97711E-14
 -1      3299 1.42403E-02-1.52060E-03-1.14483E-13
 -1      3300 1.42165E-02-1.47855E-03-1.14319E-13
 -1      3301 1.40810E-02-1.43660E-03-1.12458E-13
 -1      3302 1.41457E-02-1.35284E-03-1.13828E-13
 -1      3303 1.41225E-02-1.31155E-03-1.13664E-13
 -1      3304 1.39870E-02-1.26976E-03-1.11807E-13
 -1      3305 1.40338E-02-1.35298E-03-1.12133E-13
 -1      3306 7.54797E-03-8.05595E-04-3.13933E-14
 -1      3307 1.39935E-02-9.10036E-04-1.13418E-13
 -1      3308 1.83211E-03 3.31051E-04-2.33422E-15
 -1      3309 1.68787E-03 3.23757E-04-1.99360E-15
 -1      3310 8.21320E-03-2.91061E-04-3.27413E-14
 -1      3311 8.31925E-03-3.15725E-04-3.36799E-14
 -1      3312 1.14994E-03 2.80416E-04-9.54450E-16
 -1      3313 1.08482E-03 2.43793E-04-9.06732E-16
 -1      3314 1.20231E-03 2.42467E-04-1.12387E-15
 -1      3315 1.29375E-03 2.98268E-04-1.18940E-15
 -1      3316 4.73520E-03-5.33926E-04-1.67628E-14
 -1      3317 8.16870E-03-2.67978E-04-3.33151E-14
 -1      3318 7.90031E-03-6.23321E-04-3.29264E-14
 -1      3319 7.73552E-03-7.09995E-04-3.23044E-14
 -1      3320 6.94968E-03-1.12322E-03-2.79893E-14
 -1      3321 8.56116E-03-3.89479E-04-3.55524E-14
 -1      3322 8.51250E-03-3.99523E-04-3.52060E-14
 -1      3323 3.59979E-03 3.75151E-04-8.59047E-15
 -1      3324 3.44652E-03 3.65868E-04-7.91794E-15
 -1      3325 3.34542E-03 3.20242E-04-7.68893E-15
 -1      3326 3.64986E-03 3.35391E-04-9.04010E-15
 -1      3327 7.87269E-03-1.29775E-04-3.29030E-14
 -1      3328 8.05515E-03-2.07814E-04-3.36597E-14
 -1      3329 2.12096E-03 3.40387E-04-3.09889E-15
 -1      3330 1.97643E-03 3.36513E-04-2.70260E-15
 -1      3331 1.88958E-03 2.99530E-04-2.57579E-15
 -1      3332 7.69993E-03-7.56446E-04-3.24600E-14
 -1      3333 8.32719E-03-3.10617E-04-3.44203E-14
 -1      3334 8.40128E-03-3.32871E-04-3.45627E-14
 -1      3335 4.07169E-03-4.61919E-05-1.42167E-14
 -1      3336 4.21907E-03 1.47861E-05-1.44220E-14
 -1      3337 3.97741E-03-4.68617E-05-1.36147E-14
 -1      3338 8.45737E-03-4.14704E-04-3.49862E-14
 -1      3339 8.38356E-03-4.36224E-04-3.47638E-14
 -1      3340 8.53512E-03-4.18870E-04-3.60531E-14
 -1      3341 7.46870E-03 6.87730E-05-3.09574E-14
 -1      3342 7.64395E-03-2.08141E-05-3.18413E-14
 -1      3343 8.16600E-03-2.54935E-04-3.39280E-14
 -1      3344 8.22820E-03-2.76383E-04-3.41541E-14
 -1      3345 8.32726E-03-2.98722E-04-3.50418E-14
 -1      3346 8.12882E-03-2.19100E-04-3.44993E-14
 -1      3347 5.16841E-03 4.56405E-04-1.73864E-14
 -1      3348 5.31311E-03 5.36651E-04-1.79698E-14
 -1      3349 3.80567E-03-1.52013E-04-1.42694E-14
 -1      3350 1.44490E-03-2.74331E-04-1.85363E-15
 -1      3351 1.58769E-03-2.84252E-04-2.19651E-15
 -1      3352 1.64541E-03-2.56723E-04-2.39259E-15
 -1      3353 4.79732E-03 2.60765E-04-1.60959E-14
 -1      3354 4.99312E-03 3.61897E-04-1.67483E-14
 -1      3355 4.40922E-03 9.14987E-05-1.48935E-14
 -1      3356 4.59181E-03 1.67553E-04-1.54283E-14
 -1      3357 9.99566E-04-2.07685E-04-9.87153E-16
 -1      3358 1.07934E-03-2.27037E-04-1.11741E-15
 -1      3359 9.83105E-04-1.73056E-04-9.87830E-16
 -1      3360 8.23655E-03-4.84284E-04-3.42030E-14
 -1      3361 8.07323E-03-5.45121E-04-3.35756E-14
 -1      3362 6.24555E-03 7.09619E-04-2.35059E-14
 -1      3363 6.40770E-03 6.50840E-04-2.46333E-14
 -1      3364 3.75796E-03-1.51121E-04-1.37959E-14
 -1      3365 3.78809E-03-1.36768E-04-1.37656E-14
 -1      3366 9.99145E-04 1.11732E-05-1.04410E-15
 -1      3367 9.98935E-04-1.15300E-05-1.05444E-15
 -1      3368 1.11671E-03 2.41345E-05-1.25704E-15
 -1      3369 1.14049E-03-2.07872E-04-1.25864E-15
 -1      3370 5.39345E-03 5.88656E-04-1.82567E-14
 -1      3371 5.46494E-03 6.35308E-04-1.85450E-14
 -1      3372 5.27923E-03 5.58054E-04-1.75919E-14
 -1      3373 9.69542E-04-1.20923E-04-9.95799E-16
 -1      3374 9.75693E-04-1.46306E-04-9.93143E-16
 -1      3375 1.05294E-03-1.62047E-04-1.12573E-15
 -1      3376 5.03525E-03 4.16449E-04-1.66781E-14
 -1      3377 1.39584E-02-1.01802E-03-1.12455E-13
 -1      3378 1.39352E-02-9.76327E-04-1.12276E-13
 -1      3379 1.36183E-03-2.38100E-04-1.70583E-15
 -1      3380 7.88711E-03-7.07408E-04-3.38874E-14
 -1      3381 9.60644E-04-7.34059E-05-9.93441E-16
 -1      3382 9.64515E-04-9.67093E-05-9.95745E-16
 -1      3383 1.03994E-03-1.09359E-04-1.12982E-15
 -1      3384 3.73862E-03-1.56244E-04-1.35907E-14
 -1      3385 3.69949E-03-1.42833E-04-1.30998E-14
 -1      3386 3.73028E-03-1.60990E-04-1.33849E-14
 -1      3387 8.48617E-03-3.50023E-04-3.54448E-14
 -1      3388 2.75549E-03 3.10693E-04-5.31298E-15
 -1      3389 2.70224E-03 3.47585E-04-4.96424E-15
 -1      3390 2.55623E-03 3.46347E-04-4.45576E-15
 -1      3391 5.71848E-03 7.38204E-04-1.99134E-14
 -1      3392 6.21718E-03 7.66399E-04-2.32576E-14
 -1      3393 6.05941E-03 7.92356E-04-2.21085E-14
 -1      3394 8.35130E-03-4.73110E-04-3.52671E-14
 -1      3395 1.35418E-02-7.90238E-04-1.07116E-13
 -1      3396 1.34908E-02-8.15509E-04-1.06262E-13
 -1      3397 1.36575E-02-8.16569E-04-1.08742E-13
 -1      3398 3.78160E-03-1.16093E-04-1.33587E-14
 -1      3399 1.40052E-02-1.10207E-03-1.12810E-13
 -1      3400 1.39818E-02-1.06005E-03-1.12633E-13
 -1      3401 1.38465E-02-1.01866E-03-1.10773E-13
 -1      3402 6.94014E-03 3.95919E-04-2.82271E-14
 -1      3403 8.04297E-03-5.93402E-04-3.40420E-14
 -1      3404 7.81243E-03-7.47098E-05-3.31424E-14
 -1      3405 7.38230E-03 1.46192E-04-3.08656E-14
 -1      3406 1.40521E-02-1.18600E-03-1.13158E-13
 -1      3407 1.40286E-02-1.14399E-03-1.12987E-13
 -1      3408 1.38933E-02-1.10254E-03-1.11125E-13
 -1      3409 1.39401E-02-1.18629E-03-1.11472E-13
 -1      3410 6.15260E-03 7.38126E-04-2.28568E-14
 -1      3411 6.23930E-03 7.29952E-04-2.34589E-14
 -1      3412 1.42193E-02-1.56726E-03-1.13938E-13
 -1      3413 1.42364E-02-1.54212E-03-1.14322E-13
 -1      3414 1.41008E-02-1.50010E-03-1.12458E-13
 -1      3415 1.40931E-02-1.54310E-03-1.12133E-13
 -1      3416 1.14851E-03 1.85281E-04-1.12180E-15
 -1      3417 1.02349E-03 1.58637E-04-9.35260E-16
 -1      3418 1.01669E-03 1.31679E-04-9.59831E-16
 -1      3419 4.28500E-03 7.10041E-05-1.42754E-14
 -1      3420 4.18872E-03-3.10584E-04-1.46472E-14
 -1      3421 4.06984E-03-2.75814E-04-1.41682E-14
 -1      3422 3.87485E-03-1.99282E-04-1.40892E-14
 -1      3423 3.79642E-03-1.85297E-04-1.35626E-14
 -1      3424 3.90021E-03-2.17520E-04-1.37672E-14
 -1      3425 8.58328E-03-3.85279E-04-3.59274E-14
 -1      3426 8.61293E-03-4.01235E-04-3.66519E-14
 -1      3427 8.59438E-03-3.81733E-04-3.63012E-14
 -1      3428 2.26570E-03 3.43114E-04-3.52326E-15
 -1      3429 2.17721E-03 3.06504E-04-3.37682E-15
 -1      3430 2.41076E-03 3.44960E-04-3.97582E-15
 -1      3431 1.00640E-03 8.12042E-05-1.00033E-15
 -1      3432 1.12234E-03 7.43175E-05-1.22280E-15
 -1      3433 1.01096E-03 1.05859E-04-9.81054E-16
 -1      3434 1.39065E-02-9.29978E-04-1.12033E-13
 -1      3435 1.38527E-02-8.64048E-04-1.11483E-13
 -1      3436 1.37370E-02-8.37661E-04-1.09852E-13
 -1      3437 1.37944E-02-9.30343E-04-1.10349E-13
 -1      3438 6.52101E-03 6.17273E-04-2.54477E-14
 -1      3439 1.56282E-03 3.19343E-04-1.71167E-15
 -1      3440 1.41873E-03 3.07449E-04-1.42428E-15
 -1      3441 1.37203E-03 2.79106E-04-1.38916E-15
 -1      3442 1.62131E-03 2.90801E-04-1.91858E-15
 -1      3443 5.76334E-03 7.18996E-04-2.03036E-14
 -1      3444 8.04767E-03-6.24109E-04-3.45462E-14
 -1      3445 4.29573E-03-3.52307E-04-1.49499E-14
 -1      3446 4.46838E-03-4.24067E-04-1.54910E-14
 -1      3447 4.29142E-03-3.74114E-04-1.45567E-14
 -1      3448 4.66662E-03 2.34514E-04-1.53912E-14
 -1      3449 6.04811E-03 7.57381E-04-2.21057E-14
 -1      3450 6.31190E-03 7.20093E-04-2.39733E-14
 -1      3451 1.84377E-03-2.34179E-04-2.99275E-15
 -1      3452 1.98390E-03-2.37578E-04-3.42196E-15
 -1      3453 2.12342E-03-2.39847E-04-3.87938E-15
 -1      3454 2.26233E-03-2.41089E-04-4.36507E-15
 -1      3455 2.03932E-03-2.08510E-04-3.65154E-15
 -1      3456 2.40041E-03-2.41702E-04-4.87819E-15
 -1      3457 2.53768E-03-2.41803E-04-5.41933E-15
 -1      3458 2.31442E-03-2.11291E-04-4.62056E-15
 -1      3459 2.67390E-03-2.41810E-04-5.98725E-15
 -1      3460 2.80918E-03-2.41826E-04-6.58239E-15
 -1      3461 2.58543E-03-2.12090E-04-5.69989E-15
 -1      3462 2.94327E-03-2.42291E-04-7.20497E-15
 -1      3463 3.07640E-03-2.43304E-04-7.85415E-15
 -1      3464 2.85125E-03-2.12728E-04-6.88798E-15
 -1      3465 3.20830E-03-2.45301E-04-8.53023E-15
 -1      3466 3.33950E-03-2.48447E-04-9.23217E-15
 -1      3467 3.11099E-03-2.14951E-04-8.18367E-15
 -1      3468 3.46967E-03-2.53127E-04-9.95947E-15
 -1      3469 3.59989E-03-2.59743E-04-1.07140E-14
 -1      3470 3.36411E-03-2.20383E-04-9.58383E-15
 -1      3471 3.72968E-03-2.68635E-04-1.14934E-14
 -1      3472 3.86125E-03-2.80849E-04-1.22983E-14
 -1      3473 3.61094E-03-2.30741E-04-1.10866E-14
 -1      3474 5.54171E-03 6.87753E-04-1.88513E-14
 -1      3475 1.12280E-03-1.49512E-04-1.27132E-15
 -1      3476 1.13092E-03-1.77940E-04-1.26661E-15
 -1      3477 1.20967E-03-1.93951E-04-1.41572E-15
 -1      3478 8.61663E-03-5.47134E-04-3.93878E-14
 -1      3479 8.74726E-03-5.59826E-04-4.09178E-14
 -1      3480 8.87650E-03-5.75588E-04-4.24695E-14
 -1      3481 9.00610E-03-5.93568E-04-4.40407E-14
 -1      3482 8.84026E-03-5.35587E-04-4.16064E-14
 -1      3483 9.13578E-03-6.13493E-04-4.56318E-14
 -1      3484 9.26643E-03-6.35104E-04-4.72453E-14
 -1      3485 9.08640E-03-5.74050E-04-4.47432E-14
 -1      3486 9.39778E-03-6.58064E-04-4.88793E-14
 -1      3487 9.53025E-03-6.82267E-04-5.05331E-14
 -1      3488 9.33851E-03-6.17832E-04-4.79645E-14
 -1      3489 9.66360E-03-7.07372E-04-5.22063E-14
 -1      3490 9.79804E-03-7.33334E-04-5.39000E-14
 -1      3491 9.59671E-03-6.65797E-04-5.12677E-14
 -1      3492 9.93333E-03-7.59849E-04-5.56145E-14
 -1      3493 1.00696E-02-7.86888E-04-5.73473E-14
 -1      3494 9.86048E-03-7.16798E-04-5.46519E-14
 -1      3495 1.02066E-02-8.14206E-04-5.90996E-14
 -1      3496 1.03444E-02-8.41784E-04-6.08705E-14
 -1      3497 1.01290E-02-7.69783E-04-5.81149E-14
 -1      3498 1.04828E-02-8.69436E-04-6.26583E-14
 -1      3499 1.06218E-02-8.97153E-04-6.44611E-14
 -1      3500 1.04016E-02-8.23841E-04-6.16536E-14
 -1      3501 1.07614E-02-9.24803E-04-6.62802E-14
 -1      3502 1.09014E-02-9.52386E-04-6.81142E-14
 -1      3503 1.06773E-02-8.78262E-04-6.52587E-14
 -1      3504 1.10419E-02-9.79816E-04-6.99588E-14
 -1      3505 1.11827E-02-1.00710E-03-7.18161E-14
 -1      3506 1.09555E-02-9.32539E-04-6.89209E-14
 -1      3507 1.13238E-02-1.03418E-03-7.36865E-14
 -1      3508 1.14652E-02-1.06107E-03-7.55694E-14
 -1      3509 1.12358E-02-9.86347E-04-7.26356E-14
 -1      3510 1.16068E-02-1.08774E-03-7.74623E-14
 -1      3511 1.17486E-02-1.11421E-03-7.93691E-14
 -1      3512 1.15175E-02-1.03950E-03-7.63978E-14
 -1      3513 1.18906E-02-1.14046E-03-8.12876E-14
 -1      3514 1.20328E-02-1.16652E-03-8.32195E-14
 -1      3515 1.18004E-02-1.09193E-03-8.02095E-14
 -1      3516 1.21751E-02-1.19237E-03-8.51614E-14
 -1      3517 1.23175E-02-1.21804E-03-8.71164E-14
 -1      3518 1.20841E-02-1.14363E-03-8.40687E-14
 -1      3519 1.24599E-02-1.24353E-03-8.90868E-14
 -1      3520 1.26025E-02-1.26885E-03-9.10657E-14
 -1      3521 1.23685E-02-1.19464E-03-8.79787E-14
 -1      3522 1.27451E-02-1.29402E-03-9.30548E-14
 -1      3523 1.28878E-02-1.31905E-03-9.50517E-14
 -1      3524 1.26533E-02-1.24504E-03-9.19351E-14
 -1      3525 1.30305E-02-1.34396E-03-9.70590E-14
 -1      3526 1.31732E-02-1.36875E-03-9.90757E-14
 -1      3527 1.29384E-02-1.29492E-03-9.59297E-14
 -1      3528 1.33160E-02-1.39343E-03-1.01100E-13
 -1      3529 1.34588E-02-1.41802E-03-1.03129E-13
 -1      3530 1.32238E-02-1.34435E-03-9.99590E-14
 -1      3531 1.36016E-02-1.44253E-03-1.05164E-13
 -1      3532 1.37444E-02-1.46697E-03-1.07207E-13
 -1      3533 1.35093E-02-1.39342E-03-1.04014E-13
 -1      3534 3.09802E-03 2.74982E-04-6.83455E-15
 -1      3535 2.95227E-03 2.74012E-04-6.23725E-15
 -1      3536 4.34372E-03 3.67453E-04-1.25863E-14
 -1      3537 4.17622E-03 3.41219E-04-1.17729E-14
 -1      3538 4.01255E-03 3.21094E-04-1.09863E-14
 -1      3539 3.85315E-03 3.05492E-04-1.02267E-14
 -1      3540 4.05721E-03 2.76614E-04-1.14752E-14
 -1      3541 5.05205E-03 5.39579E-04-1.61235E-14
 -1      3542 4.87154E-03 4.86654E-04-1.51964E-14
 -1      3543 5.43229E-03 6.64655E-04-1.81691E-14
 -1      3544 8.46600E-03-4.70497E-04-3.64883E-14
 -1      3545 8.33494E-03-5.13839E-04-3.59161E-14
 -1      3546 7.82067E-03 1.01924E-04-3.52907E-14
 -1      3547 7.65161E-03 1.55367E-04-3.38650E-14
 -1      3548 8.14647E-03 1.31858E-05-3.82191E-14
 -1      3549 7.98582E-03 5.51003E-05-3.67423E-14
 -1      3550 7.95999E-03 2.30856E-05-3.61617E-14
 -1      3551 8.45730E-03-5.75741E-05-4.12478E-14
 -1      3552 8.30358E-03-2.39199E-05-3.97203E-14
 -1      3553 8.27850E-03-5.45569E-05-3.91189E-14
 -1      3554 8.75705E-03-1.15987E-04-4.43731E-14
 -1      3555 8.60833E-03-8.79376E-05-4.27992E-14
 -1      3556 8.58168E-03-1.16587E-04-4.21759E-14
 -1      3557 9.04940E-03-1.66290E-04-4.75856E-14
 -1      3558 8.90394E-03-1.41896E-04-4.59685E-14
 -1      3559 8.87452E-03-1.68816E-04-4.53239E-14
 -1      3560 9.33722E-03-2.11462E-04-5.08864E-14
 -1      3561 9.19372E-03-1.89350E-04-4.92269E-14
 -1      3562 9.16109E-03-2.15066E-04-4.85613E-14
 -1      3563 9.62254E-03-2.53585E-04-5.42669E-14
 -1      3564 9.48009E-03-2.32794E-04-5.25669E-14
 -1      3565 9.44425E-03-2.57807E-04-5.18840E-14
 -1      3566 9.90664E-03-2.94124E-04-5.77224E-14
 -1      3567 9.76467E-03-2.73981E-04-5.59842E-14
 -1      3568 9.72588E-03-2.98658E-04-5.52859E-14
 -1      3569 1.01903E-02-3.34087E-04-6.12507E-14
 -1      3570 1.00485E-02-3.14132E-04-5.94781E-14
 -1      3571 1.00071E-02-3.38709E-04-5.87627E-14
 -1      3572 1.04740E-02-3.74153E-04-6.48488E-14
 -1      3573 1.03321E-02-3.54080E-04-6.30411E-14
 -1      3574 1.02885E-02-3.78691E-04-6.23101E-14
 -1      3575 1.07579E-02-4.14745E-04-6.85137E-14
 -1      3576 1.06159E-02-3.94369E-04-6.66734E-14
 -1      3577 1.05705E-02-4.19074E-04-6.59287E-14
 -1      3578 1.10422E-02-4.56100E-04-7.22490E-14
 -1      3579 1.09000E-02-4.35321E-04-7.03737E-14
 -1      3580 1.08531E-02-4.60141E-04-6.96137E-14
 -1      3581 1.13267E-02-4.98324E-04-7.60383E-14
 -1      3582 1.11844E-02-4.77103E-04-7.41366E-14
 -1      3583 1.11364E-02-5.02031E-04-7.33621E-14
 -1      3584 1.16116E-02-5.41430E-04-7.98786E-14
 -1      3585 1.14691E-02-5.19770E-04-7.79532E-14
 -1      3586 1.14202E-02-5.44788E-04-7.71649E-14
 -1      3587 1.18967E-02-5.85374E-04-8.37675E-14
 -1      3588 1.17541E-02-5.63303E-04-8.18176E-14
 -1      3589 1.17046E-02-5.88390E-04-8.10180E-14
 -1      3590 1.21820E-02-6.30076E-04-8.77028E-14
 -1      3591 1.20393E-02-6.07637E-04-8.57303E-14
 -1      3592 1.19893E-02-6.32773E-04-8.49182E-14
 -1      3593 1.24674E-02-6.75439E-04-9.16779E-14
 -1      3594 1.23247E-02-6.52682E-04-8.96858E-14
 -1      3595 1.22744E-02-6.77850E-04-8.88630E-14
 -1      3596 1.27530E-02-7.21361E-04-9.56865E-14
 -1      3597 1.26102E-02-6.98336E-04-9.36775E-14
 -1      3598 1.25596E-02-7.23524E-04-9.28445E-14
 -1      3599 1.30386E-02-7.67740E-04-9.97238E-14
 -1      3600 1.28958E-02-7.44499E-04-9.77024E-14
 -1      3601 1.28451E-02-7.69697E-04-9.68591E-14
 -1      3602 1.33243E-02-8.14483E-04-1.03784E-13
 -1      3603 1.31814E-02-7.91072E-04-1.01750E-13
 -1      3604 1.31306E-02-8.16275E-04-1.00901E-13
 -1      3605 6.40419E-03 6.79989E-04-2.46454E-14
 -1      3606 3.68904E-03-1.14169E-04-1.26738E-14
 -1      3607 3.74939E-03-8.94244E-05-1.27267E-14
 -1      3608 6.59238E-03 5.98952E-04-2.59885E-14
 -1      3609 1.39692E-02-1.43662E-03-1.10761E-13
 -1      3610 1.39454E-02-1.39466E-03-1.10600E-13
 -1      3611 8.19984E-03-5.58512E-04-3.52093E-14
 -1      3612 4.90501E-03 3.92617E-04-1.59119E-14
 -1      3613 5.06474E-03 4.75774E-04-1.65281E-14
 -1      3614 7.76616E-03-1.89633E-05-3.34313E-14
 -1      3615 7.97075E-03-1.16197E-04-3.45223E-14
 -1      3616 1.94703E-03 2.67914E-04-2.82401E-15
 -1      3617 1.80410E-03 2.63542E-04-2.44691E-15
 -1      3618 3.85658E-03-5.12660E-05-1.29137E-14
 -1      3619 3.97141E-03-7.91637E-06-1.31093E-14
 -1      3620 8.60415E-03-4.26266E-04-3.70702E-14
 -1      3621 8.55562E-03-4.40615E-04-3.68470E-14
 -1      3622 9.77966E-04-3.13898E-05-1.02267E-15
 -1      3623 9.79843E-04-5.39380E-05-1.02870E-15
 -1      3624 1.05405E-03-6.39717E-05-1.16594E-15
 -1      3625 1.09422E-03-2.20246E-05-1.23722E-15
 -1      3626 8.50596E-03-3.46541E-04-3.62911E-14
 -1      3627 8.56320E-03-3.65199E-04-3.64270E-14
 -1      3628 1.35008E-03-2.05437E-04-1.71595E-15
 -1      3629 4.69172E-03 4.39682E-04-1.42982E-14
 -1      3630 4.51606E-03 3.99764E-04-1.34279E-14
 -1      3631 4.39220E-03 3.23441E-04-1.31061E-14
 -1      3632 4.74819E-03 4.01467E-04-1.48477E-14
 -1      3633 4.13770E-03 6.35386E-05-1.34193E-14
 -1      3634 4.30914E-03 1.32946E-04-1.38682E-14
 -1      3635 4.54065E-03 2.21071E-04-1.46519E-14
 -1      3636 4.72909E-03 3.04191E-04-1.52987E-14
 -1      3637 7.32660E-03 2.13628E-04-3.08927E-14
 -1      3638 7.52782E-03 1.05318E-04-3.21035E-14
 -1      3639 1.56253E-03-2.22741E-04-2.21932E-15
 -1      3640 1.70328E-03-2.29299E-04-2.59174E-15
 -1      3641 1.76129E-03-2.01944E-04-2.79414E-15
 -1      3642 6.76735E-03 5.21985E-04-2.72404E-14
 -1      3643 8.33861E-03-5.43277E-04-3.64346E-14
 -1      3644 6.98115E-03 4.02698E-04-2.86684E-14
 -1      3645 7.16390E-03 3.21700E-04-2.99873E-14
 -1      3646 7.31568E-03 2.75051E-04-3.12011E-14
 -1      3647 3.61977E-03-1.29726E-04-1.22839E-14
 -1      3648 3.64981E-03-1.22930E-04-1.24794E-14
 -1      3649 3.59999E-03-1.00217E-04-1.18696E-14
 -1      3650 3.99348E-03 4.65981E-05-1.27232E-14
 -1      3651 4.07274E-03-3.23481E-04-1.33741E-14
 -1      3652 1.11603E-03-1.22361E-04-1.27241E-15
 -1      3653 1.19277E-03-1.35668E-04-1.42350E-15
 -1      3654 1.11061E-03-9.62520E-05-1.27108E-15
 -1      3655 1.23546E-03 3.85496E-05-1.48804E-15
 -1      3656 1.23365E-03 1.22858E-05-1.50501E-15
 -1      3657 8.47739E-03-5.45900E-04-3.79254E-14
 -1      3658 8.59190E-03-5.11142E-04-3.85982E-14
 -1      3659 8.44519E-03-3.22746E-04-3.62455E-14
 -1      3660 8.54122E-03-3.42155E-04-3.72367E-14
 -1      3661 1.13294E-03 1.27494E-04-1.17851E-15
 -1      3662 2.85807E-03 2.36749E-04-6.02665E-15
 -1      3663 2.80746E-03 2.73752E-04-5.66729E-15
 -1      3664 2.66330E-03 2.73793E-04-5.12436E-15
 -1      3665 3.24497E-03 2.76954E-04-7.45905E-15
 -1      3666 3.14599E-03 2.36302E-04-7.22760E-15
 -1      3667 3.39351E-03 2.80535E-04-8.11023E-15
 -1      3668 1.38557E-02-1.49295E-03-1.08765E-13
 -1      3669 1.39819E-02-1.51717E-03-1.10564E-13
 -1      3670 1.39857E-02-1.49569E-03-1.10729E-13
 -1      3671 1.37633E-02-1.44381E-03-1.07605E-13
 -1      3672 4.37235E-03 1.97407E-04-1.37787E-14
 -1      3673 3.72404E-03-1.70080E-04-1.30750E-14
 -1      3674 3.66092E-03-1.57062E-04-1.25949E-14
 -1      3675 3.72484E-03-1.82511E-04-1.27647E-14
 -1      3676 1.27540E-03 2.12108E-04-1.32411E-15
 -1      3677 1.26542E-03 1.80344E-04-1.36042E-15
 -1      3678 3.74118E-03 2.51395E-04-9.95189E-15
 -1      3679 3.69707E-03 2.94223E-04-9.49418E-15
 -1      3680 3.54408E-03 2.85984E-04-8.78808E-15
 -1      3681 5.18489E-03 5.62598E-04-1.69053E-14
 -1      3682 2.09000E-03 2.70882E-04-3.22855E-15
 -1      3683 2.00433E-03 2.36250E-04-3.07871E-15
 -1      3684 2.23307E-03 2.72648E-04-3.66082E-15
 -1      3685 5.25554E-03 6.10608E-04-1.71761E-14
 -1      3686 8.55443E-03-4.73276E-04-3.75134E-14
 -1      3687 7.63667E-03 1.17529E-04-3.34128E-14
 -1      3688 7.49246E-03 2.08020E-04-3.25726E-14
 -1      3689 1.38101E-02-1.35309E-03-1.08748E-13
 -1      3690 1.39220E-02-1.35306E-03-1.10439E-13
 -1      3691 1.38985E-02-1.31149E-03-1.10277E-13
 -1      3692 1.34399E-02-8.40747E-04-1.05405E-13
 -1      3693 1.33891E-02-8.65945E-04-1.04550E-13
 -1      3694 1.35556E-02-8.67058E-04-1.07028E-13
 -1      3695 7.70068E-03 4.88080E-05-3.34604E-14
 -1      3696 1.36861E-02-8.62912E-04-1.08995E-13
 -1      3697 3.73368E-03-5.76696E-05-1.22426E-14
 -1      3698 1.38282E-02-1.18650E-03-1.09786E-13
 -1      3699 1.38048E-02-1.14468E-03-1.09614E-13
 -1      3700 1.39896E-02-1.47421E-03-1.10891E-13
 -1      3701 2.46560E-03 3.09366E-04-4.28921E-15
 -1      3702 4.76815E-03 3.69718E-04-1.51532E-14
 -1      3703 1.34555E-03 2.58248E-04-1.37805E-15
 -1      3704 1.30058E-03 2.31586E-04-1.33864E-15
 -1      3705 1.41768E-03 2.24596E-04-1.60142E-15
 -1      3706 1.46984E-03 2.65032E-04-1.63068E-15
 -1      3707 8.10092E-03-1.35777E-04-3.58729E-14
 -1      3708 8.14577E-03-1.85415E-04-3.55738E-14
 -1      3709 3.94096E-03-2.82263E-04-1.28977E-14
 -1      3710 3.99888E-03-2.72202E-04-1.35449E-14
 -1      3711 3.94115E-03-2.38138E-04-1.36754E-14
 -1      3712 3.80592E-03-2.37702E-04-1.24639E-14
 -1      3713 8.36213E-03-2.92969E-04-3.59726E-14
 -1      3714 1.23870E-03 6.51395E-05-1.46880E-15
 -1      3715 1.35536E-03 5.40243E-05-1.73696E-15
 -1      3716 1.24331E-03 9.23893E-05-1.44619E-15
 -1      3717 1.38516E-02-1.22806E-03-1.09952E-13
 -1      3718 1.37162E-02-1.18640E-03-1.08100E-13
 -1      3719 1.38750E-02-1.26961E-03-1.10115E-13
 -1      3720 1.38541E-02-1.43219E-03-1.09037E-13
 -1      3721 3.84123E-03-2.17539E-04-1.31560E-14
 -1      3722 1.72027E-03 2.28615E-04-2.31644E-15
 -1      3723 1.66130E-03 2.57415E-04-2.09735E-15
 -1      3724 8.62816E-03-3.82308E-04-3.71569E-14
 -1      3725 8.68107E-03-3.98273E-04-3.78934E-14
 -1      3726 8.66218E-03-3.81460E-04-3.80204E-14
 -1      3727 8.67796E-03-4.13358E-04-3.78344E-14
 -1      3728 8.64570E-03-4.18567E-04-3.74529E-14
 -1      3729 8.67859E-03-4.38407E-04-3.82603E-14
 -1      3730 1.53725E-03 2.54089E-04-1.80808E-15
 -1      3731 1.41073E-03-1.82122E-04-1.88249E-15
 -1      3732 8.20837E-03-2.22257E-04-3.56368E-14
 -1      3733 8.30059E-03-2.63984E-04-3.59143E-14
 -1      3734 8.43074E-03-2.92090E-04-3.71304E-14
 -1      3735 8.32047E-03-2.32407E-04-3.70068E-14
 -1      3736 1.37345E-02-1.01911E-03-1.09092E-13
 -1      3737 1.37111E-02-9.77147E-04-1.08915E-13
 -1      3738 1.35519E-02-9.34942E-04-1.06704E-13
 -1      3739 1.36639E-02-9.34414E-04-1.08382E-13
 -1      3740 1.37579E-02-1.06097E-03-1.09269E-13
 -1      3741 1.36225E-02-1.01945E-03-1.07415E-13
 -1      3742 1.37813E-02-1.10281E-03-1.09444E-13
 -1      3743 2.23149E-03-1.81548E-04-4.36673E-15
 -1      3744 2.36682E-03-1.82485E-04-4.87788E-15
 -1      3745 2.50082E-03-1.83202E-04-5.41640E-15
 -1      3746 2.63340E-03-1.83724E-04-5.98192E-15
 -1      3747 2.41981E-03-1.54703E-04-5.13623E-15
 -1      3748 2.76427E-03-1.84450E-04-6.57460E-15
 -1      3749 2.89340E-03-1.85322E-04-7.19425E-15
 -1      3750 2.68199E-03-1.56756E-04-6.26482E-15
 -1      3751 3.02041E-03-1.86786E-04-7.84001E-15
 -1      3752 3.14537E-03-1.88671E-04-8.51263E-15
 -1      3753 2.93617E-03-1.59671E-04-7.50036E-15
 -1      3754 3.26774E-03-1.91412E-04-9.21108E-15
 -1      3755 3.38783E-03-1.94811E-04-9.93467E-15
 -1      3756 3.18023E-03-1.64472E-04-8.84117E-15
 -1      3757 3.50464E-03-1.99582E-04-1.06841E-14
 -1      3758 3.61918E-03-2.04956E-04-1.14592E-14
 -1      3759 3.41126E-03-1.71958E-04-1.02856E-14
 -1      3760 8.80670E-03-4.98779E-04-4.07442E-14
 -1      3761 8.92145E-03-5.17648E-04-4.22915E-14
 -1      3762 8.67197E-03-4.82007E-04-3.89661E-14
 -1      3763 8.58748E-03-3.39561E-04-3.82314E-14
 -1      3764 8.63507E-03-3.61340E-04-3.82798E-14
 -1      3765 1.25668E-03 1.49875E-04-1.39248E-15
 -1      3766 1.24934E-03 1.20582E-04-1.42094E-15
 -1      3767 1.36578E-03 1.11426E-04-1.68672E-15
 -1      3768 1.38214E-03 1.72732E-04-1.62243E-15
 -1      3769 9.03830E-03-5.37180E-04-4.38569E-14
 -1      3770 9.15810E-03-5.58082E-04-4.54440E-14
 -1      3771 8.99068E-03-5.02951E-04-4.29728E-14
 -1      3772 9.27997E-03-5.79809E-04-4.70538E-14
 -1      3773 9.40424E-03-6.02636E-04-4.86832E-14
 -1      3774 9.22149E-03-5.44008E-04-4.61449E-14
 -1      3775 9.53039E-03-6.26149E-04-5.03321E-14
 -1      3776 9.65848E-03-6.50528E-04-5.20015E-14
 -1      3777 9.46408E-03-5.88434E-04-4.93989E-14
 -1      3778 9.78818E-03-6.75433E-04-5.36915E-14
 -1      3779 9.91945E-03-7.00955E-04-5.54019E-14
 -1      3780 9.71598E-03-6.35751E-04-5.27352E-14
 -1      3781 1.00520E-02-7.26816E-04-5.71325E-14
 -1      3782 1.01859E-02-7.53065E-04-5.88821E-14
 -1      3783 9.97527E-03-6.85307E-04-5.61510E-14
 -1      3784 1.03209E-02-7.79484E-04-6.06485E-14
 -1      3785 1.04569E-02-8.06102E-04-6.24337E-14
 -1      3786 1.02405E-02-7.36376E-04-5.96453E-14
 -1      3787 1.05937E-02-8.32755E-04-6.42363E-14
 -1      3788 1.07314E-02-8.59463E-04-6.60536E-14
 -1      3789 1.05105E-02-7.88300E-04-6.32144E-14
 -1      3790 1.08697E-02-8.86111E-04-6.78844E-14
 -1      3791 1.10087E-02-9.12716E-04-6.97286E-14
 -1      3792 1.07842E-02-8.40555E-04-6.68479E-14
 -1      3793 1.11482E-02-9.39200E-04-7.15840E-14
 -1      3794 1.12882E-02-9.65580E-04-7.34526E-14
 -1      3795 1.10609E-02-8.92765E-04-7.05350E-14
 -1      3796 1.14286E-02-9.91807E-04-7.53340E-14
 -1      3797 1.15693E-02-1.01790E-03-7.72272E-14
 -1      3798 1.13399E-02-9.44684E-04-7.42694E-14
 -1      3799 1.17104E-02-1.04382E-03-7.91319E-14
 -1      3800 1.18518E-02-1.06960E-03-8.10493E-14
 -1      3801 1.16207E-02-9.96169E-04-7.80548E-14
 -1      3802 1.19934E-02-1.09522E-03-8.29768E-14
 -1      3803 1.21352E-02-1.12069E-03-8.49173E-14
 -1      3804 1.19029E-02-1.04716E-03-8.18860E-14
 -1      3805 1.22772E-02-1.14601E-03-8.68741E-14
 -1      3806 1.24194E-02-1.17120E-03-8.88420E-14
 -1      3807 1.21862E-02-1.09765E-03-8.57698E-14
 -1      3808 1.25617E-02-1.19625E-03-9.08169E-14
 -1      3809 1.27041E-02-1.22119E-03-9.28027E-14
 -1      3810 1.24702E-02-1.14766E-03-8.96996E-14
 -1      3811 1.28465E-02-1.24601E-03-9.48001E-14
 -1      3812 1.29891E-02-1.27073E-03-9.68046E-14
 -1      3813 1.27547E-02-1.19726E-03-9.36704E-14
 -1      3814 1.31317E-02-1.29536E-03-9.88177E-14
 -1      3815 1.32744E-02-1.31991E-03-1.00839E-13
 -1      3816 1.30397E-02-1.24649E-03-9.76791E-14
 -1      3817 1.34171E-02-1.34438E-03-1.02864E-13
 -1      3818 1.35599E-02-1.36879E-03-1.04896E-13
 -1      3819 1.33250E-02-1.29542E-03-1.01715E-13
 -1      3820 1.37429E-02-1.40628E-03-1.07480E-13
 -1      3821 8.06602E-03-8.68141E-05-3.61686E-14
 -1      3822 8.22864E-03-1.52905E-04-3.72444E-14
 -1      3823 8.70457E-03-1.71867E-04-4.31050E-14
 -1      3824 8.55892E-03-1.45941E-04-4.15512E-14
 -1      3825 7.85601E-03 4.18500E-06-3.47712E-14
 -1      3826 8.15839E-03-6.24333E-05-3.75876E-14
 -1      3827 7.99855E-03-2.36796E-05-3.61221E-14
 -1      3828 8.98992E-03-2.18676E-04-4.62787E-14
 -1      3829 8.84799E-03-1.95832E-04-4.46819E-14
 -1      3830 8.82452E-03-2.23107E-04-4.40382E-14
 -1      3831 9.27064E-03-2.61642E-04-4.95387E-14
 -1      3832 9.13063E-03-2.40476E-04-4.78982E-14
 -1      3833 9.10240E-03-2.65649E-04-4.72370E-14
 -1      3834 9.54932E-03-3.02582E-04-5.28855E-14
 -1      3835 9.41009E-03-2.82271E-04-5.12025E-14
 -1      3836 9.37758E-03-3.06211E-04-5.05210E-14
 -1      3837 9.82754E-03-3.42646E-04-5.63070E-14
 -1      3838 9.68840E-03-3.22671E-04-5.45857E-14
 -1      3839 9.65218E-03-3.46015E-04-5.38883E-14
 -1      3840 1.01062E-02-3.82566E-04-5.98054E-14
 -1      3841 9.96675E-03-3.62594E-04-5.80469E-14
 -1      3842 9.92740E-03-3.85765E-04-5.73324E-14
 -1      3843 1.03857E-02-4.22820E-04-6.33753E-14
 -1      3844 1.02458E-02-4.02636E-04-6.15815E-14
 -1      3845 1.02038E-02-4.25886E-04-6.08522E-14
 -1      3846 1.06662E-02-4.63702E-04-6.70123E-14
 -1      3847 1.05258E-02-4.43176E-04-6.51844E-14
 -1      3848 1.04817E-02-4.66640E-04-6.44423E-14
 -1      3849 1.09477E-02-5.05365E-04-7.07138E-14
 -1      3850 1.08068E-02-4.84435E-04-6.88555E-14
 -1      3851 1.07610E-02-5.08168E-04-6.80980E-14
 -1      3852 1.12302E-02-5.47872E-04-7.44776E-14
 -1      3853 1.10888E-02-5.26516E-04-7.25898E-14
 -1      3854 1.10417E-02-5.50525E-04-7.18171E-14
 -1      3855 1.15135E-02-5.91215E-04-7.82927E-14
 -1      3856 1.13717E-02-5.69444E-04-7.63780E-14
 -1      3857 1.13236E-02-5.93706E-04-7.55935E-14
 -1      3858 1.17974E-02-6.35346E-04-8.21561E-14
 -1      3859 1.16553E-02-6.13188E-04-8.02182E-14
 -1      3860 1.16064E-02-6.37669E-04-7.94193E-14
 -1      3861 1.20818E-02-6.80187E-04-8.60669E-14
 -1      3862 1.19395E-02-6.57684E-04-8.41064E-14
 -1      3863 1.18900E-02-6.82344E-04-8.32940E-14
 -1      3864 1.23667E-02-7.25649E-04-9.00196E-14
 -1      3865 1.22242E-02-7.02847E-04-8.80373E-14
 -1      3866 1.21742E-02-7.27649E-04-8.72143E-14
 -1      3867 1.26518E-02-7.71638E-04-9.40108E-14
 -1      3868 1.25092E-02-7.48583E-04-9.20117E-14
 -1      3869 1.24589E-02-7.73495E-04-9.11779E-14
 -1      3870 1.29371E-02-8.18062E-04-9.80307E-14
 -1      3871 1.27944E-02-7.94801E-04-9.60158E-14
 -1      3872 1.27439E-02-8.19795E-04-9.51759E-14
 -1      3873 1.32226E-02-8.64837E-04-1.02080E-13
 -1      3874 1.30799E-02-8.41411E-04-1.00054E-13
 -1      3875 1.30292E-02-8.66466E-04-9.92034E-14
 -1      3876 3.83151E-03 3.42287E-05-1.19015E-14
 -1      3877 3.97709E-03 9.90304E-05-1.21905E-14
 -1      3878 1.34451E-02-9.12999E-04-1.05199E-13
 -1      3879 1.33295E-02-8.86699E-04-1.03581E-13
 -1      3880 1.32787E-02-9.11787E-04-1.02727E-13
 -1      3881 1.34923E-02-9.55647E-04-1.05730E-13
 -1      3882 1.35047E-03-1.59551E-06-1.77352E-15
 -1      3883 1.23257E-03-1.41593E-05-1.51768E-15
 -1      3884 3.69829E-03-2.11237E-04-1.20018E-14
 -1      3885 3.76551E-03-2.09983E-04-1.25898E-14
 -1      3886 3.73925E-03-1.93201E-04-1.26790E-14
 -1      3887 3.59520E-03-1.81942E-04-1.15786E-14
 -1      3888 4.58487E-03 3.23772E-04-1.42604E-14
 -1      3889 2.51962E-03 2.73824E-04-4.60885E-15
 -1      3890 2.37623E-03 2.73551E-04-4.12107E-15
 -1      3891 2.57275E-03 2.38366E-04-4.93441E-15
 -1      3892 1.77944E-03 1.99585E-04-2.54254E-15
 -1      3893 1.63832E-03 1.94991E-04-2.18478E-15
 -1      3894 1.36352E-02-8.88136E-04-1.08134E-13
 -1      3895 1.40125E-03-1.51458E-04-1.88506E-15
 -1      3896 1.61054E-03-1.64536E-04-2.41019E-15
 -1      3897 1.39351E-03-1.21845E-04-1.88365E-15
 -1      3898 1.36506E-02-1.35725E-03-1.06321E-13
 -1      3899 3.61489E-03-5.82190E-05-1.15309E-14
 -1      3900 3.70822E-03-2.12592E-05-1.17063E-14
 -1      3901 8.43729E-03-1.22148E-04-4.03075E-14
 -1      3902 8.28588E-03-9.13758E-05-3.87982E-14
 -1      3903 8.32459E-03-1.33492E-04-3.87523E-14
 -1      3904 8.56610E-03-1.79707E-04-4.12184E-14
 -1      3905 1.36694E-02-1.10308E-03-1.07762E-13
 -1      3906 4.09571E-03 2.29861E-04-1.19676E-14
 -1      3907 3.93579E-03 2.15840E-04-1.11773E-14
 -1      3908 1.74921E-03-1.69130E-04-2.79604E-15
 -1      3909 1.95778E-03-1.77918E-04-3.42731E-15
 -1      3910 2.09511E-03-1.80062E-04-3.88322E-15
 -1      3911 2.15147E-03-1.52217E-04-4.11686E-15
 -1      3912 8.75453E-03-4.64656E-04-3.96320E-14
 -1      3913 8.79589E-03-4.56726E-04-4.00238E-14
 -1      3914 3.58668E-03-1.39076E-04-1.19895E-14
 -1      3915 3.51828E-03-1.20235E-04-1.13957E-14
 -1      3916 3.56292E-03-1.49245E-04-1.16945E-14
 -1      3917 1.36272E-02-1.31576E-03-1.06164E-13
 -1      3918 1.37631E-02-1.26973E-03-1.08427E-13
 -1      3919 8.54277E-03-3.18094E-04-3.81736E-14
 -1      3920 8.64715E-03-3.40768E-04-3.92283E-14
 -1      3921 8.49443E-03-2.93499E-04-3.81139E-14
 -1      3922 2.90731E-03 1.99817E-04-6.39110E-15
 -1      3923 2.76602E-03 2.01474E-04-5.81455E-15
 -1      3924 3.43910E-03 2.39874E-04-8.53588E-15
 -1      3925 3.65762E-03-1.77133E-04-1.22076E-14
 -1      3926 1.35575E-02-1.10333E-03-1.06086E-13
 -1      3927 1.35340E-02-1.06157E-03-1.05913E-13
 -1      3928 3.19181E-03 1.97402E-04-7.62494E-15
 -1      3929 3.04909E-03 1.98327E-04-6.99422E-15
 -1      3930 2.95509E-03 1.62953E-04-6.76041E-15
 -1      3931 2.28844E-03 2.38872E-04-3.95123E-15
 -1      3932 8.71108E-03-3.81618E-04-3.90269E-14
 -1      3933 3.88876E-03 1.24091E-04-1.15231E-14
 -1      3934 4.06260E-03 1.45474E-04-1.23314E-14
 -1      3935 1.46951E-03 1.22419E-05-2.04865E-15
 -1      3936 1.46824E-03-1.67012E-05-2.06536E-15
 -1      3937 3.68931E-03 2.36851E-05-1.12031E-14
 -1      3938 4.22177E-03 1.96829E-04-1.28895E-14
 -1      3939 4.43579E-03 2.76008E-04-1.36401E-14
 -1      3940 3.78075E-03 2.07118E-04-1.04132E-14
 -1      3941 3.62955E-03 2.01401E-04-9.67570E-15
 -1      3942 3.81532E-03 1.61050E-04-1.08785E-14
 -1      3943 8.72989E-03-4.14893E-04-3.87066E-14
 -1      3944 8.34990E-03-1.76297E-04-3.84513E-14
 -1      3945 8.38135E-03-2.18816E-04-3.81443E-14
 -1      3946 8.46840E-03-1.97948E-04-3.96722E-14
 -1      3947 8.43143E-03-2.50196E-04-3.82106E-14
 -1      3948 1.92053E-03 2.02758E-04-2.92760E-15
 -1      3949 1.83874E-03 1.70374E-04-2.77546E-15
 -1      3950 2.06161E-03 2.04613E-04-3.34013E-15
 -1      3951 3.51797E-03-8.38847E-05-1.11674E-14
 -1      3952 3.56307E-03-7.23599E-05-1.13495E-14
 -1      3953 3.52534E-03-4.12273E-05-1.08365E-14
 -1      3954 1.36042E-02-1.18623E-03-1.06417E-13
 -1      3955 1.35808E-02-1.14478E-03-1.06251E-13
 -1      3956 1.34455E-02-1.10323E-03-1.04406E-13
 -1      3957 1.47594E-03 6.99716E-05-2.00310E-15
 -1      3958 1.47185E-03 4.08554E-05-2.02772E-15
 -1      3959 1.58852E-03 2.63443E-05-2.34070E-15
 -1      3960 1.21156E-03-3.70203E-05-1.48079E-15
 -1      3961 1.80892E-03-1.42645E-04-2.99690E-15
 -1      3962 1.35248E-02-1.02951E-03-1.05914E-13
 -1      3963 1.35014E-02-9.87748E-04-1.05737E-13
 -1      3964 1.33946E-02-9.65771E-04-1.04235E-13
 -1      3965 1.34130E-02-1.02984E-03-1.04240E-13
 -1      3966 4.42156E-03 3.11395E-04-1.33493E-14
 -1      3967 8.94063E-03-4.71954E-04-4.20927E-14
 -1      3968 9.04886E-03-4.91239E-04-4.36554E-14
 -1      3969 2.60413E-03-1.29451E-04-5.95827E-15
 -1      3970 2.73216E-03-1.31091E-04-6.54754E-15
 -1      3971 2.85783E-03-1.33251E-04-7.16419E-15
 -1      3972 2.98091E-03-1.35698E-04-7.80689E-15
 -1      3973 2.78451E-03-1.06712E-04-6.83123E-15
 -1      3974 3.10088E-03-1.38950E-04-8.47491E-15
 -1      3975 3.21749E-03-1.42544E-04-9.17010E-15
 -1      3976 3.02849E-03-1.13386E-04-8.11308E-15
 -1      3977 1.12547E-03-7.36214E-05-1.30524E-15
 -1      3978 1.20069E-03-8.45167E-05-1.45916E-15
 -1      3979 2.34346E-03 2.05255E-04-4.24761E-15
 -1      3980 2.20256E-03 2.05399E-04-3.77983E-15
 -1      3981 2.11881E-03 1.73042E-04-3.60779E-15
 -1      3982 9.48171E-03-3.48947E-04-5.15055E-14
 -1      3983 9.34656E-03-3.29413E-04-4.98405E-14
 -1      3984 3.48150E-03 1.98493E-04-8.96601E-15
 -1      3985 3.33572E-03 1.97209E-04-8.28268E-15
 -1      3986 3.23528E-03 1.58206E-04-8.02715E-15
 -1      3987 3.52037E-03 1.56143E-04-9.39992E-15
 -1      3988 9.16119E-03-5.10842E-04-4.52402E-14
 -1      3989 9.27736E-03-5.31646E-04-4.68462E-14
 -1      3990 9.09814E-03-4.79851E-04-4.43390E-14
 -1      3991 9.39662E-03-5.52976E-04-4.84708E-14
 -1      3992 9.51869E-03-5.75273E-04-5.01161E-14
 -1      3993 9.32715E-03-5.19262E-04-4.75447E-14
 -1      3994 9.64313E-03-5.98101E-04-5.17836E-14
 -1      3995 9.76975E-03-6.21672E-04-5.34691E-14
 -1      3996 9.56895E-03-5.61935E-04-5.08339E-14
 -1      3997 9.89824E-03-6.45661E-04-5.51764E-14
 -1      3998 1.00284E-02-6.70179E-04-5.69037E-14
 -1      3999 9.82035E-03-6.07315E-04-5.42040E-14
 -1      4000 1.01601E-02-6.94975E-04-5.86496E-14
 -1      4001 1.02932E-02-7.20116E-04-6.04140E-14
 -1      4002 1.00792E-02-6.54720E-04-5.76540E-14
 -1      4003 1.04274E-02-7.45409E-04-6.21945E-14
 -1      4004 1.05627E-02-7.70891E-04-6.39953E-14
 -1      4005 1.03441E-02-7.03515E-04-6.11799E-14
 -1      4006 1.06990E-02-7.96427E-04-6.58119E-14
 -1      4007 1.08361E-02-8.22038E-04-6.76432E-14
 -1      4008 1.06137E-02-7.53151E-04-6.47767E-14
 -1      4009 1.09740E-02-8.47629E-04-6.94856E-14
 -1      4010 1.11126E-02-8.73220E-04-7.13386E-14
 -1      4011 1.08871E-02-8.03212E-04-6.84348E-14
 -1      4012 1.12517E-02-8.98742E-04-7.32058E-14
 -1      4013 1.13914E-02-9.24215E-04-7.50862E-14
 -1      4014 1.11636E-02-8.53398E-04-7.21432E-14
 -1      4015 1.15315E-02-9.49592E-04-7.69790E-14
 -1      4016 1.16720E-02-9.74893E-04-7.88828E-14
 -1      4017 1.14424E-02-9.03503E-04-7.59017E-14
 -1      4018 1.18129E-02-1.00009E-03-8.07997E-14
 -1      4019 1.19541E-02-1.02520E-03-8.27257E-14
 -1      4020 1.17230E-02-9.53409E-04-7.97103E-14
 -1      4021 1.20956E-02-1.05020E-03-8.46658E-14
 -1      4022 1.22373E-02-1.07511E-03-8.66206E-14
 -1      4023 1.20051E-02-1.00306E-03-8.35656E-14
 -1      4024 1.23791E-02-1.09993E-03-8.85849E-14
 -1      4025 1.25212E-02-1.12466E-03-9.05592E-14
 -1      4026 1.22882E-02-1.05243E-03-8.74686E-14
 -1      4027 1.26634E-02-1.14931E-03-9.25410E-14
 -1      4028 1.28057E-02-1.17388E-03-9.45359E-14
 -1      4029 1.25721E-02-1.10154E-03-9.14157E-14
 -1      4030 1.29482E-02-1.19838E-03-9.65419E-14
 -1      4031 1.30907E-02-1.22282E-03-9.85521E-14
 -1      4032 1.28567E-02-1.15041E-03-9.54038E-14
 -1      4033 1.32333E-02-1.24720E-03-1.00571E-13
 -1      4034 1.33759E-02-1.27152E-03-1.02593E-13
 -1      4035 1.31416E-02-1.19907E-03-9.94260E-14
 -1      4036 9.21160E-03-3.09901E-04-4.81977E-14
 -1      4037 9.07638E-03-2.90255E-04-4.65766E-14
 -1      4038 9.31696E-03-3.51877E-04-4.91634E-14
 -1      4039 8.78904E-03-4.29769E-04-3.96935E-14
 -1      4040 8.87526E-03-4.54730E-04-4.10867E-14
 -1      4041 8.92078E-03-4.44446E-04-4.17530E-14
 -1      4042 8.78821E-03-4.13396E-04-3.97506E-14
 -1      4043 3.74093E-03 1.21293E-04-1.07491E-14
 -1      4044 8.94088E-03-2.70441E-04-4.49764E-14
 -1      4045 8.80439E-03-2.50086E-04-4.33968E-14
 -1      4046 9.05257E-03-3.14309E-04-4.59172E-14
 -1      4047 9.75273E-03-3.88260E-04-5.48951E-14
 -1      4048 9.61701E-03-3.68552E-04-5.31916E-14
 -1      4049 9.58278E-03-3.90257E-04-5.24938E-14
 -1      4050 1.00254E-02-4.28146E-04-5.83610E-14
 -1      4051 9.88882E-03-4.08128E-04-5.66183E-14
 -1      4052 9.85089E-03-4.29651E-04-5.59065E-14
 -1      4053 1.03001E-02-4.68772E-04-6.19042E-14
 -1      4054 1.01625E-02-4.48368E-04-6.01227E-14
 -1      4055 1.01216E-02-4.70052E-04-5.93947E-14
 -1      4056 1.05766E-02-5.10229E-04-6.55122E-14
 -1      4057 1.04381E-02-4.89403E-04-6.36999E-14
 -1      4058 1.03949E-02-5.11436E-04-6.29569E-14
 -1      4059 1.08551E-02-5.52536E-04-6.91849E-14
 -1      4060 1.07156E-02-5.31286E-04-6.73413E-14
 -1      4061 1.06705E-02-5.53755E-04-6.65852E-14
 -1      4062 1.11351E-02-5.95666E-04-7.29213E-14
 -1      4063 1.09949E-02-5.74007E-04-7.10460E-14
 -1      4064 1.09483E-02-5.96934E-04-7.02763E-14
 -1      4065 1.14165E-02-6.39569E-04-7.67096E-14
 -1      4066 1.12756E-02-6.17529E-04-7.48095E-14
 -1      4067 1.12279E-02-6.40886E-04-7.40249E-14
 -1      4068 1.16990E-02-6.84175E-04-8.05478E-14
 -1      4069 1.15576E-02-6.61792E-04-7.86227E-14
 -1      4070 1.15090E-02-6.85534E-04-7.78263E-14
 -1      4071 1.19824E-02-7.29406E-04-8.44326E-14
 -1      4072 1.18406E-02-7.06720E-04-8.24839E-14
 -1      4073 1.17913E-02-7.30789E-04-8.16757E-14
 -1      4074 1.22664E-02-7.75176E-04-8.83643E-14
 -1      4075 1.21243E-02-7.52230E-04-8.63937E-14
 -1      4076 1.20746E-02-7.76570E-04-8.55707E-14
 -1      4077 1.25510E-02-8.21402E-04-9.23356E-14
 -1      4078 1.24087E-02-7.98238E-04-9.03439E-14
 -1      4079 1.23586E-02-8.22794E-04-8.95124E-14
 -1      4080 1.28360E-02-8.68006E-04-9.63385E-14
 -1      4081 1.26935E-02-8.44661E-04-9.43339E-14
 -1      4082 1.26431E-02-8.69387E-04-9.34900E-14
 -1      4083 1.31213E-02-9.14915E-04-1.00372E-13
 -1      4084 1.29786E-02-8.91427E-04-9.83512E-14
 -1      4085 1.29281E-02-9.16282E-04-9.75012E-14
 -1      4086 1.58650E-03-3.28281E-05-2.37888E-15
 -1      4087 1.46887E-03-4.56156E-05-2.07848E-15
 -1      4088 3.52100E-03 9.02817E-06-1.03972E-14
 -1      4089 3.62678E-03 5.99278E-05-1.05780E-14
 -1      4090 3.55724E-03 9.60795E-05-9.96527E-15
 -1      4091 1.32879E-02-9.43828E-04-1.02735E-13
 -1      4092 1.54578E-03 1.87988E-04-1.97140E-15
 -1      4093 1.53547E-03 1.55045E-04-2.01117E-15
 -1      4094 2.62509E-03 2.03093E-04-5.26517E-15
 -1      4095 2.48425E-03 2.04430E-04-4.74294E-15
 -1      4096 2.39809E-03 1.71847E-04-4.55008E-15
 -1      4097 2.67659E-03 1.68041E-04-5.60141E-15
 -1      4098 2.34228E-03-1.26520E-04-4.86044E-15
 -1      4099 2.47410E-03-1.27902E-04-5.39594E-15
 -1      4100 2.53009E-03-1.02042E-04-5.65620E-15
 -1      4101 1.38696E-03-8.81134E-05-1.87917E-15
 -1      4102 1.59337E-03-9.75999E-05-2.40263E-15
 -1      4103 1.14467E-03-5.18097E-05-1.34411E-15
 -1      4104 8.76526E-03-3.75275E-04-4.02797E-14
 -1      4105 8.78345E-03-3.95857E-04-4.00174E-14
 -1      4106 8.85510E-03-4.10838E-04-4.10184E-14
 -1      4107 1.34897E-02-1.27280E-03-1.04299E-13
 -1      4108 1.36492E-02-1.26864E-03-1.06717E-13
 -1      4109 1.36257E-02-1.22688E-03-1.06557E-13
 -1      4110 1.33980E-02-1.22460E-03-1.03147E-13
 -1      4111 8.55067E-03-2.80702E-04-3.92692E-14
 -1      4112 1.51099E-03 2.33832E-04-1.79216E-15
 -1      4113 1.48527E-03 2.14080E-04-1.77491E-15
 -1      4114 1.79946E-03-1.05913E-04-2.98952E-15
 -1      4115 2.00452E-03-1.13090E-04-3.63904E-15
 -1      4116 1.79326E-03-6.98457E-05-2.97630E-15
 -1      4117 2.10692E-03-1.19165E-04-3.98768E-15
 -1      4118 2.24118E-03-1.20795E-04-4.47519E-15
 -1      4119 2.30007E-03-9.43097E-05-4.71419E-15
 -1      4120 2.09869E-03-8.24994E-05-3.97138E-15
 -1      4121 3.46423E-03-9.60519E-06-1.02297E-14
 -1      4122 3.39803E-03 2.31550E-05-9.63639E-15
 -1      4123 3.41167E-03-2.59023E-05-1.00616E-14
 -1      4124 3.32070E-03-1.23123E-04-9.91988E-15
 -1      4125 3.39040E-03-1.47265E-04-1.03213E-14
 -1      4126 1.40197E-03-6.25707E-05-1.91688E-15
 -1      4127 3.49484E-03-1.52684E-04-1.10812E-14
 -1      4128 1.48965E-03 1.31035E-04-1.94370E-15
 -1      4129 1.48223E-03 1.00250E-04-1.97543E-15
 -1      4130 1.34903E-02-1.18519E-03-1.04712E-13
 -1      4131 1.70869E-03 4.14780E-05-2.65033E-15
 -1      4132 1.70570E-03 1.11503E-05-2.67614E-15
 -1      4133 3.00146E-03 1.26468E-04-7.13481E-15
 -1      4134 2.86442E-03 1.30056E-04-6.52554E-15
 -1      4135 3.58801E-03-1.71644E-04-1.16617E-14
 -1      4136 1.28278E-03-4.56223E-05-1.63778E-15
 -1      4137 1.32372E-02-9.68786E-04-1.01874E-13
 -1      4138 1.74763E-03-1.37711E-05-2.81790E-15
 -1      4139 1.74790E-03-4.44829E-05-2.83577E-15
 -1      4140 1.95170E-03-5.07131E-05-3.46809E-15
 -1      4141 1.86583E-03 4.07230E-07-3.15974E-15
 -1      4142 2.72742E-03 1.33400E-04-5.94267E-15
 -1      4143 2.59011E-03 1.36363E-04-5.38660E-15
 -1      4144 2.77760E-03 9.92409E-05-6.28929E-15
 -1      4145 4.12143E-03 2.15633E-04-1.21984E-14
 -1      4146 8.58419E-03-2.17700E-04-4.09089E-14
 -1      4147 8.60612E-03-2.54816E-04-4.05948E-14
 -1      4148 8.69837E-03-2.36495E-04-4.21583E-14
 -1      4149 3.46376E-03-9.69688E-05-1.08910E-14
 -1      4150 3.41329E-03-7.12775E-05-1.03942E-14
 -1      4151 3.41843E-03-1.08911E-04-1.06149E-14
 -1      4152 8.65520E-03-2.95635E-04-4.04987E-14
 -1      4153 8.73323E-03-3.57423E-04-4.02212E-14
 -1      4154 8.81685E-03-3.73658E-04-4.12255E-14
 -1      4155 8.69684E-03-3.37532E-04-4.01612E-14
 -1      4156 1.59810E-03 8.70139E-05-2.28669E-15
 -1      4157 1.33336E-02-1.10321E-03-1.02732E-13
 -1      4158 1.33103E-02-1.06190E-03-1.02567E-13
 -1      4159 4.25020E-03 2.83652E-04-1.25132E-14
 -1      4160 1.32464E-02-1.00074E-03-1.01876E-13
 -1      4161 1.65163E-03 1.42560E-04-2.32789E-15
 -1      4162 1.31346E-02-1.00085E-03-1.00210E-13
 -1      4163 1.79110E-03 1.45482E-04-2.69806E-15
 -1      4164 1.74471E-03 1.21295E-04-2.61924E-15
 -1      4165 1.93050E-03 1.47211E-04-3.09598E-15
 -1      4166 8.81814E-03-2.83487E-04-4.30767E-14
 -1      4167 3.24957E-03-1.00494E-04-9.45244E-15
 -1      4168 3.13853E-03 1.22759E-04-7.77065E-15
 -1      4169 3.04639E-03 9.03812E-05-7.51382E-15
 -1      4170 3.27624E-03 1.19208E-04-8.43386E-15
 -1      4171 2.96204E-03-8.74636E-05-7.75408E-15
 -1      4172 3.08063E-03-9.22175E-05-8.41875E-15
 -1      4173 8.92303E-03-4.06573E-04-4.22954E-14
 -1      4174 8.92771E-03-4.26333E-04-4.20265E-14
 -1      4175 9.00047E-03-4.42727E-04-4.30435E-14
 -1      4176 1.30559E-02-1.03805E-03-9.88786E-14
 -1      4177 1.29920E-02-9.77160E-04-9.81928E-14
 -1      4178 1.28495E-02-9.53509E-04-9.61826E-14
 -1      4179 2.20859E-03 1.47540E-04-3.97296E-15
 -1      4180 2.06967E-03 1.47861E-04-3.52082E-15
 -1      4181 2.02190E-03 1.23334E-04-3.43188E-15
 -1      4182 9.94669E-03-4.70378E-04-5.69189E-14
 -1      4183 9.81329E-03-4.50234E-04-5.51933E-14
 -1      4184 1.33765E-02-1.18416E-03-1.03013E-13
 -1      4185 1.33551E-02-1.14364E-03-1.02873E-13
 -1      4186 1.32199E-02-1.10225E-03-1.01039E-13
 -1      4187 1.32627E-02-1.18296E-03-1.01313E-13
 -1      4188 9.10985E-03-4.60387E-04-4.46192E-14
 -1      4189 9.25384E-03-4.86402E-04-4.66192E-14
 -1      4190 9.37145E-03-5.06132E-04-4.82402E-14
 -1      4191 9.49203E-03-5.26486E-04-4.98834E-14
 -1      4192 9.61514E-03-5.47768E-04-5.15462E-14
 -1      4193 9.41182E-03-4.92008E-04-4.89355E-14
 -1      4194 9.74052E-03-5.69580E-04-5.32296E-14
 -1      4195 9.86787E-03-5.92067E-04-5.49338E-14
 -1      4196 9.65843E-03-5.32774E-04-5.22573E-14
 -1      4197 9.99699E-03-6.14971E-04-5.66571E-14
 -1      4198 1.01277E-02-6.38355E-04-5.84011E-14
 -1      4199 9.91320E-03-5.76124E-04-5.56608E-14
 -1      4200 1.02598E-02-6.62005E-04-6.01643E-14
 -1      4201 1.03932E-02-6.85987E-04-6.19431E-14
 -1      4202 1.01744E-02-6.21327E-04-5.91463E-14
 -1      4203 1.05277E-02-7.10138E-04-6.37401E-14
 -1      4204 1.06632E-02-7.34494E-04-6.55546E-14
 -1      4205 1.04410E-02-6.67878E-04-6.27056E-14
 -1      4206 1.07997E-02-7.58937E-04-6.73826E-14
 -1      4207 1.09370E-02-7.83486E-04-6.92235E-14
 -1      4208 1.07118E-02-7.15333E-04-6.63291E-14
 -1      4209 1.10750E-02-8.08071E-04-7.10763E-14
 -1      4210 1.12136E-02-8.32703E-04-7.29439E-14
 -1      4211 1.09861E-02-7.63333E-04-7.00095E-14
 -1      4212 1.13528E-02-8.57318E-04-7.48233E-14
 -1      4213 1.14926E-02-8.81942E-04-7.67146E-14
 -1      4214 1.12631E-02-8.11629E-04-7.37434E-14
 -1      4215 1.16327E-02-9.06531E-04-7.86189E-14
 -1      4216 1.17733E-02-9.31103E-04-8.05349E-14
 -1      4217 1.15424E-02-8.60063E-04-7.75257E-14
 -1      4218 1.19142E-02-9.55629E-04-8.24616E-14
 -1      4219 1.20554E-02-9.80125E-04-8.43999E-14
 -1      4220 1.18234E-02-9.08533E-04-8.13571E-14
 -1      4221 1.21969E-02-1.00457E-03-8.63524E-14
 -1      4222 1.23386E-02-1.02898E-03-8.83160E-14
 -1      4223 1.21057E-02-9.56976E-04-8.52348E-14
 -1      4224 1.24806E-02-1.05335E-03-9.02885E-14
 -1      4225 1.26226E-02-1.07767E-03-9.22698E-14
 -1      4226 1.23890E-02-1.00536E-03-8.91599E-14
 -1      4227 1.27648E-02-1.10196E-03-9.42639E-14
 -1      4228 1.29072E-02-1.12621E-03-9.62684E-14
 -1      4229 1.26731E-02-1.05367E-03-9.31269E-14
 -1      4230 1.30137E-02-1.14252E-03-9.77792E-14
 -1      4231 1.31562E-02-1.16671E-03-9.97939E-14
 -1      4232 1.31347E-02-1.12643E-03-9.96587E-14
 -1      4233 1.29217E-02-1.09402E-03-9.66322E-14
 -1      4234 9.41838E-03-3.91891E-04-5.01317E-14
 -1      4235 9.28836E-03-3.73282E-04-4.84860E-14
 -1      4236 9.15928E-03-3.55052E-04-4.68620E-14
 -1      4237 9.03066E-03-3.37252E-04-4.52593E-14
 -1      4238 9.26058E-03-3.93561E-04-4.78106E-14
 -1      4239 1.02159E-02-5.11635E-04-6.04310E-14
 -1      4240 1.00809E-02-4.90879E-04-5.86644E-14
 -1      4241 1.00402E-02-5.10790E-04-5.79358E-14
 -1      4242 1.04883E-02-5.53991E-04-6.40132E-14
 -1      4243 1.03518E-02-5.32697E-04-6.22141E-14
 -1      4244 1.03087E-02-5.53158E-04-6.14708E-14
 -1      4245 1.07634E-02-5.97295E-04-6.76612E-14
 -1      4246 1.06255E-02-5.75540E-04-6.58301E-14
 -1      4247 1.05806E-02-5.96630E-04-6.50739E-14
 -1      4248 1.10408E-02-6.41419E-04-7.13670E-14
 -1      4249 1.09019E-02-6.19275E-04-6.95058E-14
 -1      4250 1.08554E-02-6.41009E-04-6.87377E-14
 -1      4251 1.13202E-02-6.86232E-04-7.51278E-14
 -1      4252 1.11803E-02-6.63750E-04-7.32403E-14
 -1      4253 1.11327E-02-6.86100E-04-7.24577E-14
 -1      4254 1.16012E-02-7.31634E-04-7.89411E-14
 -1      4255 1.14605E-02-7.08868E-04-7.70288E-14
 -1      4256 1.14121E-02-7.31778E-04-7.62313E-14
 -1      4257 1.18834E-02-7.77535E-04-8.27993E-14
 -1      4258 1.17422E-02-7.54529E-04-8.08647E-14
 -1      4259 1.16930E-02-7.77924E-04-8.00548E-14
 -1      4260 1.21667E-02-8.23852E-04-8.67092E-14
 -1      4261 1.20249E-02-8.00647E-04-8.47501E-14
 -1      4262 1.19753E-02-8.24449E-04-8.39266E-14
 -1      4263 1.24506E-02-8.70515E-04-9.06573E-14
 -1      4264 1.23086E-02-8.47145E-04-8.86774E-14
 -1      4265 1.22586E-02-8.71280E-04-8.78433E-14
 -1      4266 1.27212E-02-9.23685E-04-9.44123E-14
 -1      4267 1.25788E-02-9.00156E-04-9.24150E-14
 -1      4268 1.25286E-02-9.24511E-04-9.15699E-14
 -1      4269 1.27851E-02-9.84243E-04-9.50955E-14
 -1      4270 3.41901E-03 9.93183E-05-9.24620E-15
 -1      4271 9.68080E-03-4.30381E-04-5.34853E-14
 -1      4272 9.54912E-03-4.10950E-04-5.17977E-14
 -1      4273 9.51580E-03-4.30610E-04-5.11033E-14
 -1      4274 9.77584E-03-4.69835E-04-5.44794E-14
 -1      4275 2.46890E-03 1.41649E-04-4.90908E-15
 -1      4276 2.33079E-03 1.43493E-04-4.40469E-15
 -1      4277 2.28163E-03 1.18865E-04-4.30576E-15
 -1      4278 2.52292E-03 1.08830E-04-5.22462E-15
 -1      4279 8.93166E-03-3.25692E-04-4.39980E-14
 -1      4280 8.83318E-03-3.14665E-04-4.27521E-14
 -1      4281 9.03814E-03-3.64579E-04-4.49250E-14
 -1      4282 1.72889E-03 9.67861E-05-2.62118E-15
 -1      4283 1.72176E-03 6.48278E-05-2.65417E-15
 -1      4284 1.83777E-03 4.93963E-05-3.01248E-15
 -1      4285 1.86694E-03 9.78135E-05-3.01490E-15
 -1      4286 2.45952E-03-7.44554E-05-5.35796E-15
 -1      4287 2.58861E-03-7.68940E-05-5.91657E-15
 -1      4288 2.71564E-03-7.98785E-05-6.50275E-15
 -1      4289 2.84021E-03-8.32529E-05-7.11547E-15
 -1      4290 2.89999E-03-6.05413E-05-7.39870E-15
 -1      4291 2.65018E-03-5.23219E-05-6.17849E-15
 -1      4292 1.31133E-02-1.08615E-03-9.95215E-14
 -1      4293 1.29708E-02-1.06220E-03-9.75059E-14
 -1      4294 3.19422E-03-7.43637E-05-9.05999E-15
 -1      4295 9.14442E-03-4.46928E-04-4.52940E-14
 -1      4296 1.96199E-03 5.84135E-05-3.37919E-15
 -1      4297 1.94845E-03 3.44211E-05-3.37556E-15
 -1      4298 2.36107E-03-6.83040E-05-4.95437E-15
 -1      4299 2.42453E-03-4.26251E-05-5.19428E-15
 -1      4300 2.26180E-03-6.22588E-05-4.56518E-15
 -1      4301 8.77166E-03-3.35858E-04-4.13930E-14
 -1      4302 1.98803E-03 8.42093E-06-3.53832E-15
 -1      4303 2.82752E-03 6.58453E-05-6.64081E-15
 -1      4304 2.69484E-03 7.02908E-05-6.05225E-15
 -1      4305 8.89932E-03-3.89945E-04-4.22375E-14
 -1      4306 8.98062E-03-4.06564E-04-4.32578E-14
 -1      4307 8.87163E-03-3.72072E-04-4.21764E-14
 -1      4308 3.09017E-03 5.52364E-05-7.89763E-15
 -1      4309 2.95920E-03 6.08799E-05-7.25608E-15
 -1      4310 2.87731E-03 3.33396E-05-6.99709E-15
 -1      4311 3.31946E-03 6.47640E-05-8.96364E-15
 -1      4312 3.34519E-03-4.40317E-05-9.80521E-15
 -1      4313 3.27480E-03-1.52605E-05-9.22964E-15
 -1      4314 3.28551E-03-6.00513E-05-9.54858E-15
 -1      4315 2.01903E-03-2.41928E-05-3.67470E-15
 -1      4316 2.06230E-03-4.99967E-05-3.83820E-15
 -1      4317 2.16290E-03-5.59351E-05-4.19571E-15
 -1      4318 2.09927E-03 9.50299E-06-3.90989E-15
 -1      4319 3.11333E-03-4.96116E-05-8.51204E-15
 -1      4320 1.03999E-02-5.94748E-04-6.25137E-14
 -1      4321 1.02653E-02-5.72797E-04-6.07272E-14
 -1      4322 1.01100E-02-5.66355E-04-5.85459E-14
 -1      4323 9.97828E-03-5.44785E-04-5.68008E-14
 -1      4324 9.57323E-03-4.96428E-04-5.12898E-14
 -1      4325 9.69927E-03-5.16865E-04-5.29701E-14
 -1      4326 9.84793E-03-5.23557E-04-5.50740E-14
 -1      4327 1.03313E-02-6.29388E-04-6.13412E-14
 -1      4328 1.04656E-02-6.52423E-04-6.31320E-14
 -1      4329 1.06232E-02-6.72313E-04-6.52765E-14
 -1      4330 1.07596E-02-6.95649E-04-6.71025E-14
 -1      4331 1.09218E-02-7.02153E-04-6.93788E-14
 -1      4332 1.10599E-02-7.25439E-04-7.12348E-14
 -1      4333 1.11987E-02-7.48811E-04-7.31057E-14
 -1      4334 1.13380E-02-7.72304E-04-7.49892E-14
 -1      4335 1.14778E-02-7.95854E-04-7.68838E-14
 -1      4336 1.16180E-02-8.19489E-04-7.87926E-14
 -1      4337 1.17586E-02-8.43162E-04-8.07095E-14
 -1      4338 1.18995E-02-8.66893E-04-8.26410E-14
 -1      4339 1.20407E-02-8.90651E-04-8.45862E-14
 -1      4340 1.21822E-02-9.14449E-04-8.65427E-14
 -1      4341 1.23239E-02-9.38265E-04-8.85053E-14
 -1      4342 1.24658E-02-9.62109E-04-9.04809E-14
 -1      4343 1.25939E-02-9.92083E-04-9.22339E-14
 -1      4344 1.27361E-02-1.01600E-03-9.42292E-14
 -1      4345 1.28644E-02-1.04609E-03-9.59956E-14
 -1      4346 9.35665E-03-4.30276E-04-4.87611E-14
 -1      4347 9.23274E-03-4.12381E-04-4.71344E-14
 -1      4348 1.06939E-02-6.35753E-04-6.64706E-14
 -1      4349 1.05573E-02-6.13401E-04-6.46490E-14
 -1      4350 2.00468E-03 9.79076E-05-3.43563E-15
 -1      4351 3.26472E-03 4.49469E-05-8.81172E-15
 -1      4352 9.30939E-03-4.60499E-04-4.76913E-14
 -1      4353 9.43047E-03-4.79473E-04-4.93264E-14
 -1      4354 3.17656E-03 1.69034E-05-8.52782E-15
 -1      4355 2.63156E-03 4.50591E-05-5.87236E-15
 -1      4356 2.57709E-03 7.66014E-05-5.54602E-15
 -1      4357 2.45832E-03 8.23979E-05-5.06134E-15
 -1      4358 2.11386E-03 8.21040E-05-3.82521E-15
 -1      4359 2.20784E-03 8.26697E-05-4.14425E-15
 -1      4360 2.16487E-03 4.31808E-05-4.08130E-15
 -1      4361 2.19157E-03 9.60699E-06-4.23434E-15
 -1      4362 2.32804E-03 7.80025E-05-4.58489E-15
 -1      4363 3.11019E-03-3.07837E-06-8.29415E-15
 -1      4364 1.05117E-02-6.33254E-04-6.38917E-14
 -1      4365 2.22823E-03-2.97427E-05-4.41785E-15
 -1      4366 9.75765E-03-4.85109E-04-5.40813E-14
 -1      4367 1.08312E-02-6.58325E-04-6.83055E-14
 -1      4368 9.22568E-03-4.30870E-04-4.67705E-14
 -1      4369 9.13194E-03-3.96125E-04-4.58376E-14
 -1      4370 9.03789E-03-3.85043E-04-4.45702E-14
 -1      4371 9.21198E-03-4.43902E-04-4.63894E-14
 -1      4372 9.06365E-03-4.19230E-04-4.43930E-14
 -1      4373 9.46620E-03-4.63268E-04-5.00208E-14
 -1      4374 2.66890E-03 1.37104E-05-6.12589E-15
 -1      4375 2.55335E-03 2.00054E-05-5.61678E-15
 -1      4376 2.95536E-03 3.66646E-06-7.48673E-15
 -1      4377 2.82845E-03 9.25282E-06-6.86080E-15
 -1      4378 2.75306E-03-1.41658E-05-6.58094E-15
 -1      4379 3.06178E-03-2.55577E-05-8.14313E-15
 -1      4380 2.96430E-03-4.28600E-05-7.69262E-15
 -1      4381 1.01982E-02-6.06632E-04-5.95649E-14
 -1      4382 2.55707E-03-2.98025E-05-5.73464E-15
 -1      4383 2.68525E-03-3.33989E-05-6.31096E-15
 -1      4384 2.84113E-03-3.76745E-05-7.05797E-15
 -1      4385 2.46791E-03-2.14532E-05-5.34626E-15
 -1      4386 2.50557E-03-1.64678E-06-5.46737E-15
 -1      4387 2.46411E-03 2.87570E-05-5.23134E-15
 -1      4388 2.37015E-03-1.48127E-05-4.94269E-15
 -1      4389 9.04152E-03-4.01807E-04-4.43323E-14
 -1      4390 8.95029E-03-3.72074E-04-4.34337E-14
 -1      4391 9.50043E-03-4.45789E-04-5.07154E-14
 -1      4392 8.86193E-03-3.54094E-04-4.24093E-14
 -1      4393 2.38621E-03 4.74719E-05-4.88111E-15
 -1      4394 2.28977E-03 3.06096E-06-4.60575E-15
 -1      4395 9.62834E-03-4.65138E-04-5.23879E-14
 -1      4396 2.33692E-03 2.50765E-05-4.74393E-15
 -3
    1PSTEP                         2           1           1          
  100CL  101 1.000000000        4396                     0    1           1
 -4  STRESS      6    1
 -5  SXX         1    4    1    1
 -5  SYY         1    4    2    2
 -5  SZZ         1    4    3    3
 -5  SXY         1    4    1    2
 -5  SYZ         1    4    2    3
 -5  SZX         1    4    3    1
 -1         1 3.68346E+01 9.77427E+00 1.93099E+00 1.83830E+01-1.29941E-12-2.48934E-12
 -1         2-7.38047E-01-2.45848E+01-3.35931E+00-1.35178E-01 1.23883E-12 6.99996E-14
 -1         3 2.00001E+01 2.93005E-04 4.40752E-05 2.81674E-04-4.81645E-13-3.94777E-13
 -1         4 2.00000E+01 2.52154E-04 2.30479E-06-2.46865E-04 3.97090E-13-1.22734E-13
 -1         5 3.24635E+01 6.08916E+00 2.67913E+00 6.15154E+00-4.30836E-14 2.95342E-12
 -1         6 3.53602E+01 1.21127E+01 5.01534E+00-8.52883E+00-1.80744E-13 2.41783E-12
 -1         7 2.08600E+01 6.10689E+00-1.09068E-01-4.61045E+00-2.75613E-14 2.63151E-13
 -1         8 1.97698E+01 5.96117E+00 6.09823E-02-3.12129E+00-2.91087E-14-3.56005E-13
 -1         9 1.92409E+01 5.80070E+00 5.44231E-02-2.34682E+00-2.47094E-14-6.74616E-13
 -1        10 1.89676E+01 5.71216E+00 5.17627E-02-1.76578E+00-1.43791E-14-8.15496E-13
 -1        11 1.87994E+01 5.65762E+00 4.72606E-02-1.28661E+00-1.00709E-14-8.61623E-13
 -1        12 1.86888E+01 5.62202E+00 4.27780E-02-8.80101E-01-2.96247E-15-8.60659E-13
 -1        13 1.86172E+01 5.59931E+00 3.92759E-02-5.10368E-01-2.40910E-16-8.43642E-13
 -1        14 1.85828E+01 5.58844E+00 3.75706E-02-1.65416E-01 5.51794E-15-8.18988E-13
 -1        15 1.85839E+01 5.58884E+00 3.77959E-02 1.72492E-01 9.40329E-15-7.83880E-13
 -1        16 1.86203E+01 5.60035E+00 3.98986E-02 5.20481E-01 1.36527E-14-7.47347E-13
 -1        17 1.86925E+01 5.62318E+00 4.36381E-02 8.95912E-01 1.87003E-14-6.96985E-13
 -1        18 1.88026E+01 5.65866E+00 4.83140E-02 1.30943E+00 2.28454E-14-6.01279E-13
 -1        19 1.89700E+01 5.71300E+00 5.25838E-02 1.79793E+00 3.18721E-14-4.48288E-13
 -1        20 1.92404E+01 5.80181E+00 5.39460E-02 2.38878E+00 3.61343E-14-1.92129E-13
 -1        21 1.97609E+01 5.97414E+00 5.55633E-02 3.16007E+00 4.10921E-14 2.73283E-13
 -1        22 2.12200E+01 6.38037E+00 1.48715E-01 4.41400E+00 4.14946E-15 1.13393E-12
 -1        23 2.29488E+01-1.37936E+00-9.40665E-01-6.80858E-01-1.21857E-13 1.79952E-12
 -1        24 1.94717E+01-9.98178E-02-3.06453E-01 6.59951E-02-3.67891E-14 1.25573E-12
 -1        25 1.89335E+01-5.78756E-02-6.88118E-02 6.12521E-02-1.22055E-14 7.55559E-13
 -1        26 1.88971E+01-2.50787E-02-9.40477E-03 3.37919E-02-6.93239E-16 4.13869E-13
 -1        27 1.91174E+01-1.61158E-02-3.45686E-03 2.43887E-02 7.85938E-16 1.94220E-13
 -1        28 1.95057E+01-1.18720E-02-5.29071E-03 1.97523E-02-2.24401E-14 7.28844E-15
 -1        29 2.00278E+01-9.98963E-03-7.51862E-03 1.81328E-02 1.58360E-14-1.18057E-13
 -1        30 2.06762E+01-9.18343E-03-9.58002E-03 1.88179E-02 5.65005E-15-2.03668E-13
 -1        31 2.14553E+01-8.53166E-03-1.13179E-02 2.16242E-02 3.53217E-15-3.22446E-13
 -1        32 2.23702E+01-7.05783E-03-1.17919E-02 2.64445E-02-5.38581E-14-5.09072E-13
 -1        33 2.34121E+01-3.51587E-03-8.88831E-03 3.27084E-02 1.73276E-14-6.97635E-13
 -1        34 2.45349E+01 3.58392E-03 9.51112E-04 3.84842E-02-4.33762E-15-6.75687E-13
 -1        35 2.56216E+01 1.54207E-02 2.21925E-02 3.90856E-02-2.72487E-14-7.26601E-13
 -1        36 2.64467E+01 3.13752E-02 5.71240E-02 2.57749E-02 3.63958E-14-6.62418E-13
 -1        37 2.66639E+01 4.64688E-02 9.83734E-02-1.29336E-02-5.87616E-14-3.93081E-13
 -1        38 2.58845E+01 5.01006E-02 1.20463E-01-8.27056E-02 4.90797E-15-6.05908E-13
 -1        39 2.39212E+01 2.99113E-02 8.23303E-02-1.64090E-01-4.45961E-14-7.81507E-13
 -1        40 2.11589E+01-1.50307E-02-3.18616E-02-2.01567E-01-2.21691E-14-9.58192E-13
 -1        41 1.86984E+01-6.30054E-02-1.69432E-01-1.37327E-01 2.75691E-15-1.17146E-12
 -1        42 1.78461E+01-8.10190E-02-2.23595E-01 1.62594E-02 2.19963E-15-1.14792E-12
 -1        43 1.91192E+01-5.53538E-02-1.46463E-01 1.58892E-01-1.35508E-14-1.12995E-12
 -1        44 2.17848E+01-5.46438E-03-5.92878E-03 2.01708E-01-6.16746E-15-1.18452E-12
 -1        45 2.45019E+01 3.55412E-02 9.50402E-02 1.50203E-01-7.49162E-14-1.26857E-12
 -1        46 2.62924E+01 5.03845E-02 1.18269E-01 6.79196E-02-4.92657E-14-1.53175E-12
 -1        47 2.69112E+01 4.33638E-02 8.95655E-02 4.03605E-03-1.22623E-14-1.46936E-12
 -1        48 2.66141E+01 2.72833E-02 4.80342E-02-2.85388E-02 8.52098E-14-9.56759E-13
 -1        49 2.57984E+01 1.18243E-02 1.53919E-02-3.76455E-02-3.94171E-14-5.60321E-13
 -1        50 2.47920E+01 9.44478E-04-3.55319E-03-3.46390E-02-3.66022E-14-7.02953E-13
 -1        51 2.37988E+01-5.20165E-03-1.18756E-02-2.74158E-02 2.03070E-14-4.69682E-13
 -1        52 2.29191E+01-7.87160E-03-1.39603E-02-1.99533E-02-5.26570E-15-1.67531E-13
 -1        53 2.21874E+01-8.42344E-03-1.30651E-02-1.37405E-02-2.89484E-14-4.98694E-13
 -1        54 2.16029E+01-7.86770E-03-1.10718E-02-9.05588E-03 5.71229E-14-2.26519E-13
 -1        55 2.11491E+01-6.83783E-03-8.90167E-03-5.71273E-03-9.97336E-14-2.60996E-13
 -1        56 2.08045E+01-5.68713E-03-6.93628E-03-3.40959E-03-6.80331E-15-3.31121E-13
 -1        57 2.05477E+01-4.59214E-03-5.29336E-03-1.86526E-03 3.10960E-14-3.85197E-13
 -1        58 2.03599E+01-3.62814E-03-3.97613E-03-8.56440E-04 6.47412E-15-4.08720E-13
 -1        59 2.02252E+01-2.81683E-03-2.94555E-03-2.17819E-04 4.06969E-14-5.74975E-13
 -1        60 2.01308E+01-2.15370E-03-2.15234E-03 1.68898E-04-7.36229E-14-3.60909E-13
 -1        61 2.00666E+01-1.62294E-03-1.54967E-03 3.86985E-04 5.26978E-14-5.26943E-13
 -1        62 2.00245E+01-1.20509E-03-1.09725E-03 4.94658E-04-7.90914E-14-1.05357E-12
 -1        63 1.99986E+01-8.80685E-04-7.61881E-04 5.32493E-04-6.74900E-14-1.19207E-12
 -1        64 1.99841E+01-6.31737E-04-5.16616E-04 5.28689E-04 3.13000E-15-9.25329E-13
 -1        65 1.99777E+01-4.42245E-04-3.39587E-04 5.02713E-04-4.18118E-15-3.82657E-13
 -1        66 1.99767E+01-2.98068E-04-2.12530E-04 4.67758E-04-2.20978E-14-4.64764E-13
 -1        67 1.99794E+01-1.86491E-04-1.18720E-04 4.32183E-04 1.08518E-13-3.34392E-13
 -1        68 1.99841E+01-9.54891E-05-3.92268E-05 3.99793E-04 6.86280E-14 4.12924E-13
 -1        69 1.99899E+01-1.44093E-05 5.15180E-05 3.65480E-04-1.51667E-14 4.94660E-13
 -1        70 1.99954E+01 4.92887E-05 1.65237E-04 2.88839E-04-7.07670E-14 2.91552E-13
 -1        71 1.99992E+01-1.16736E-05 2.22437E-04 1.31367E-04-7.53551E-14 1.55907E-13
 -1        72 2.09934E+01-4.02677E-01-9.79825E-01-3.16584E-01 3.68247E-14 2.75975E-12
 -1        73 1.94435E+01-6.60760E-02-2.88040E-01-5.50753E-02 1.05875E-14 2.23012E-12
 -1        74 1.89412E+01-2.16194E-02-6.41985E-02-2.02459E-02 1.14440E-14 1.79579E-12
 -1        75 1.88915E+01-1.15648E-02-1.15367E-02-1.49655E-02-4.08289E-15 1.54665E-12
 -1        76 1.90868E+01-7.23029E-03-3.01257E-03-1.21974E-02 1.43126E-14 1.28910E-12
 -1        77 1.94287E+01-4.82950E-03-2.88020E-03-1.08269E-02-2.78548E-15 1.09869E-12
 -1        78 1.98696E+01-3.16570E-03-3.15951E-03-1.06238E-02-1.71565E-14 1.09807E-12
 -1        79 2.03813E+01-1.59652E-03-2.61339E-03-1.14452E-02 9.56659E-15 9.91542E-13
 -1        80 2.09401E+01 3.24230E-04-8.67105E-04-1.32005E-02-4.74432E-15 8.15138E-13
 -1        81 2.15153E+01 2.91521E-03 2.66379E-03-1.56522E-02 3.32581E-14 6.86976E-13
 -1        82 2.20608E+01 6.29583E-03 8.67416E-03-1.81505E-02-3.27422E-14 6.71427E-13
 -1        83 2.25064E+01 1.01973E-02 1.74985E-02-1.93425E-02 2.28066E-14 5.89431E-13
 -1        84 2.27561E+01 1.37167E-02 2.83127E-02-1.69961E-02-3.42662E-15 5.90787E-13
 -1        85 2.26977E+01 1.52036E-02 3.81388E-02-8.31495E-03 1.99028E-14 6.59235E-13
 -1        86 2.22336E+01 1.26437E-02 4.13978E-02 8.69902E-03 9.15685E-15 5.16722E-13
 -1        87 2.13360E+01 4.85255E-03 3.14160E-02 3.26740E-02-5.58418E-14 6.48002E-13
 -1        88 2.01124E+01-6.93601E-03 4.91238E-03 5.64302E-02-1.51958E-15 7.69093E-13
 -1        89 1.88359E+01-1.84575E-02-3.23994E-02 6.79097E-02 2.22421E-14 4.95298E-13
 -1        90 1.78883E+01-2.43441E-02-6.48084E-02 5.67870E-02-2.47521E-14 4.69532E-13
 -1        91 1.76038E+01-2.18488E-02-7.50538E-02 2.38091E-02-4.20326E-14 4.35062E-13
 -1        92 1.80934E+01-1.24796E-02-5.70179E-02-1.73337E-02 5.12830E-14 2.79120E-13
 -1        93 1.91842E+01-9.52227E-04-2.16593E-02-4.87685E-02-1.31840E-14 5.26766E-14
 -1        94 2.05171E+01 8.32244E-03 1.35048E-02-6.02880E-02 2.69831E-14-2.14512E-13
 -1        95 2.17283E+01 1.30839E-02 3.53007E-02-5.35533E-02-6.00306E-14-2.42620E-13
 -1        96 2.25852E+01 1.34885E-02 4.07626E-02-3.70695E-02-3.68444E-14 4.89608E-14
 -1        97 2.30197E+01 1.10717E-02 3.47083E-02-1.93430E-02 2.36296E-14 2.15643E-14
 -1        98 2.30837E+01 7.53111E-03 2.37991E-02-5.30517E-03-6.90945E-14-2.28340E-13
 -1        99 2.28843E+01 4.09129E-03 1.29880E-02 3.66606E-03-1.37077E-14-1.82807E-13
 -1       100 2.25324E+01 1.36357E-03 4.63959E-03 8.23401E-03-1.39286E-14-2.54114E-13
 -1       101 2.21178E+01-4.99612E-04-7.82715E-04 9.73130E-03 6.64264E-15-3.64764E-13
 -1       102 2.17022E+01-1.59517E-03-3.75146E-03 9.41205E-03 5.16885E-15-3.07490E-13
 -1       103 2.13218E+01-2.11039E-03-4.99633E-03 8.19766E-03-1.32361E-14-2.22837E-13
 -1       104 2.09942E+01-2.23444E-03-5.17502E-03 6.67201E-03-1.20087E-14 9.94916E-14
 -1       105 2.07244E+01-2.12191E-03-4.77283E-03 5.16233E-03 5.78774E-14-1.33941E-13
 -1       106 2.05101E+01-1.88500E-03-4.10824E-03 3.82696E-03-9.22685E-14-3.69211E-13
 -1       107 2.03452E+01-1.59848E-03-3.37250E-03 2.72342E-03 9.30041E-14-6.21680E-13
 -1       108 2.02220E+01-1.30831E-03-2.67034E-03 1.85421E-03-2.49375E-14-1.33597E-12
 -1       109 2.01328E+01-1.04018E-03-2.05184E-03 1.19520E-03-6.77316E-14-4.88895E-13
 -1       110 2.00703E+01-8.06315E-04-1.53468E-03 7.12090E-04 2.15267E-14-4.92586E-13
 -1       111 2.00284E+01-6.10482E-04-1.11851E-03 3.69199E-04 4.43315E-15-4.05171E-13
 -1       112 2.00020E+01-4.51452E-04-7.93887E-04 1.33707E-04-9.24285E-14-4.41894E-13
 -1       113 1.99868E+01-3.25243E-04-5.47413E-04-2.26434E-05 7.87964E-14-3.95584E-13
 -1       114 1.99798E+01-2.26506E-04-3.64595E-04-1.23275E-04 4.28975E-15-7.51674E-13
 -1       115 1.99782E+01-1.48958E-04-2.30629E-04-1.87385E-04 2.70465E-14-1.07230E-12
 -1       116 1.99804E+01-8.63128E-05-1.29572E-04-2.30219E-04 1.65642E-14-8.81238E-13
 -1       117 1.99849E+01-3.19544E-05-4.33456E-05-2.62192E-04-5.37744E-14-1.09504E-12
 -1       118 1.99903E+01 1.99714E-05 5.24412E-05-2.90916E-04 6.63291E-14-1.81170E-12
 -1       119 1.99957E+01 7.47139E-05 1.80186E-04-3.04724E-04-7.90107E-14-1.74465E-12
 -1       120 1.99992E+01-3.65526E-05 1.80415E-04-1.88777E-04 1.60925E-13-1.00643E-12
 -1       121 1.99998E+01-7.55274E-04 1.47668E-04-1.71414E-04-7.50430E-13 2.87973E-13
 -1       122 1.99999E+01-4.21647E-03 1.03610E-04-2.65668E-04 2.26978E-14-4.26239E-14
 -1       123 1.99998E+01-8.82070E-03-3.33529E-05-2.50307E-04-2.00735E-13 1.72369E-13
 -1       124 1.99998E+01-1.30898E-02-9.64930E-05-1.87258E-04-2.82408E-13 2.08868E-13
 -1       125 1.99998E+01-1.64283E-02-1.03884E-04-1.22063E-04-5.89719E-14-2.78718E-13
 -1       126 1.99998E+01-1.87120E-02-8.91209E-05-7.29250E-05-5.81723E-13-1.49158E-13
 -1       127 1.99998E+01-2.01350E-02-6.82298E-05-3.75420E-05-1.46209E-13 2.08485E-13
 -1       128 1.99998E+01-2.08357E-02-5.61289E-05-1.38384E-05-3.23690E-13-1.32917E-13
 -1       129 1.99998E+01-2.09260E-02-5.81645E-05 6.25391E-06-3.51405E-13 8.57929E-14
 -1       130 1.99998E+01-2.03848E-02-7.39550E-05 3.17608E-05 1.51403E-13 1.02711E-13
 -1       131 1.99998E+01-1.90634E-02-9.64105E-05 7.20916E-05-2.91742E-13-3.01909E-13
 -1       132 1.99997E+01-1.67997E-02-1.13226E-04 1.24728E-04-1.07373E-12 3.11445E-13
 -1       133 1.99998E+01-1.33888E-02-1.02312E-04 1.94345E-04-1.07972E-12 8.46704E-14
 -1       134 1.99998E+01-8.98289E-03-2.94567E-05 2.70243E-04-1.47220E-12-2.26547E-13
 -1       135 1.99999E+01-4.34122E-03 8.70292E-05 3.78939E-04-1.28986E-12-2.63711E-14
 -1       136 1.99999E+01-8.66878E-04 1.39123E-04 1.72239E-04-7.52226E-13 2.68923E-13
 -1       137-1.48353E+00-1.88189E+01-2.98203E+00-3.71800E+00 2.05219E-12 5.60614E-13
 -1       138-1.20099E+00-7.13618E+00-2.11445E+00-2.25668E+00 2.78305E-12 1.41495E-12
 -1       139 4.21146E+00 4.86777E+00-8.54529E-01 4.78675E+00 2.63645E-12 1.98214E-12
 -1       140 1.69299E+01 1.09395E+01 5.35824E-01 1.34957E+01 1.99774E-12 2.41196E-12
 -1       141 3.58784E+01 9.85550E+00 1.89841E+00 1.82100E+01 1.21084E-12 2.21989E-12
 -1       142 5.51080E+01 4.75979E+00 2.96666E+00 1.47950E+01 2.66419E-13 7.08877E-13
 -1       143 6.50777E+01 1.07430E+00 3.45246E+00 4.24285E+00-7.26849E-15-9.56263E-13
 -1       144 6.25686E+01 2.18403E+00 3.35868E+00-8.81308E+00 3.85002E-13-2.53739E-12
 -1       145 4.71402E+01 7.16607E+00 2.55437E+00-1.73888E+01 1.12921E-12-3.01326E-12
 -1       146 2.77769E+01 1.10773E+01 1.35299E+00-1.72215E+01 2.05419E-12-3.04762E-12
 -1       147 1.14894E+01 9.62987E+00 3.57082E-02-1.04962E+01 2.62546E-12-2.75546E-12
 -1       148 1.47832E+00 1.17055E+00-1.33245E+00-1.80080E+00 2.73143E-12-1.85640E-12
 -1       149-1.78176E+00-1.17650E+01-2.50333E+00 3.76884E+00 2.27185E-12-8.48127E-13
 -1       150-1.09123E+00-2.17286E+01-3.18181E+00 3.19635E+00 8.99586E-13-2.12925E-13
 -1       151-7.32613E-01-2.47529E+01-3.39004E+00-8.71052E-01-8.42926E-13-9.44939E-14
 -1       152-1.65994E+00-1.92060E+01-3.08752E+00-4.23620E+00-2.41185E-12-6.56898E-13
 -1       153-1.43201E+00-7.59767E+00-2.27394E+00-2.71044E+00-3.24624E-12-1.62031E-12
 -1       154 3.44191E+00 3.77654E+00-1.09919E+00 3.88517E+00-2.91200E-12-2.14223E-12
 -1       155 1.68145E+01 1.02529E+01 4.01268E-01 1.29779E+01-2.01839E-12-2.40785E-12
 -1       156 5.58349E+01 5.01944E+00 3.12657E+00 1.54091E+01-5.03347E-13-1.71185E-12
 -1       157 6.70261E+01 1.32224E+00 3.76926E+00 4.71840E+00-3.63667E-14 5.57471E-14
 -1       158 6.50009E+01 1.95505E+00 3.64690E+00-8.26144E+00-3.39858E-13 1.84575E-12
 -1       159 5.12201E+01 6.36709E+00 2.83553E+00-1.69486E+01-8.72774E-13 2.69179E-12
 -1       160 3.12279E+01 1.03803E+01 1.53247E+00-1.75109E+01-1.82493E-12 2.96313E-12
 -1       161 1.27963E+01 9.44406E+00 1.42624E-02-1.09573E+01-2.97995E-12 3.03002E-12
 -1       162 1.56818E+00 1.43692E+00-1.41460E+00-1.90882E+00-2.68613E-12 2.06662E-12
 -1       163-1.84402E+00-1.05168E+01-2.49782E+00 3.69938E+00-1.65629E-12 6.73767E-13
 -1       164-1.38300E+00-2.08468E+01-3.16320E+00 3.90626E+00-3.50830E-14 8.02552E-14
 -1       165 2.11191E+01 3.66634E+00-5.49945E-02-3.44685E+00-3.83502E-13-4.01380E-14
 -1       166 2.01164E+01 4.20880E+00-4.40192E-02-2.62418E+00-3.23319E-13-4.24844E-13
 -1       167 1.96018E+01 4.50556E+00-3.05648E-02-2.00008E+00-2.38854E-13-6.16994E-13
 -1       168 1.93018E+01 4.66769E+00-2.27615E-02-1.49089E+00-1.62409E-13-7.02377E-13
 -1       169 1.91074E+01 4.76848E+00-1.83220E-02-1.06282E+00-8.74229E-14-7.20992E-13
 -1       170 1.89767E+01 4.83303E+00-1.60696E-02-6.80612E-01-1.90212E-14-7.22523E-13
 -1       171 1.89021E+01 4.86807E+00-1.49489E-02-3.31558E-01 4.64780E-14-6.97139E-13
 -1       172 1.88793E+01 4.87753E+00-1.46317E-02 2.33573E-03 1.00537E-13-6.73181E-13
 -1       173 1.89070E+01 4.86280E+00-1.50401E-02 3.37882E-01 1.64364E-13-6.46650E-13
 -1       174 1.89853E+01 4.82305E+00-1.62576E-02 6.91599E-01 2.11746E-13-6.03839E-13
 -1       175 1.91147E+01 4.75612E+00-1.86425E-02 1.07357E+00 2.62319E-13-5.31334E-13
 -1       176 1.93123E+01 4.65036E+00-2.31310E-02 1.51586E+00 3.34869E-13-4.13929E-13
 -1       177 1.96138E+01 4.48258E+00-3.19128E-02 2.03739E+00 3.89206E-13-2.38917E-13
 -1       178 2.01329E+01 4.18257E+00-4.56845E-02 2.66803E+00 4.10655E-13 8.39537E-14
 -1       179 2.12321E+01 3.44038E+00-5.77609E-02 3.38327E+00 3.74112E-13 6.15855E-13
 -1       180 2.24559E+01 1.12533E+00-3.32533E-01 2.90165E+00 2.57776E-13 1.30758E-12
 -1       181 2.20637E+01 8.46311E-01 1.11439E-03-1.83826E+00-3.45442E-13 4.39274E-13
 -1       182 2.06499E+01 1.91515E-01-9.06712E-03-6.43131E-01-2.89251E-13 2.87190E-13
 -1       183 2.00068E+01 1.11251E-01 1.43645E-02-1.48546E-01-1.97148E-13 1.70968E-13
 -1       184 1.98289E+01 6.35099E-02 1.09477E-02 1.03771E-01-1.41344E-13 5.63247E-14
 -1       185 1.99042E+01 4.55344E-02 6.36183E-03 2.62388E-01-1.10315E-13-1.65651E-14
 -1       186 2.01530E+01 3.94038E-02 3.88516E-03 3.83325E-01-1.08205E-13-6.67299E-14
 -1       187 2.05353E+01 3.89061E-02 2.72986E-03 4.91127E-01-5.16331E-14-1.59956E-13
 -1       188 2.10325E+01 4.05270E-02 2.03124E-03 5.96920E-01-7.11530E-14-1.92540E-13
 -1       189 2.16344E+01 4.06407E-02 1.26395E-03 7.02125E-01-1.19835E-13-2.21395E-13
 -1       190 2.23290E+01 3.39308E-02 1.02519E-04 7.96779E-01-1.00268E-13-2.17664E-13
 -1       191 2.30916E+01 1.22289E-02-1.61281E-03 8.54556E-01-3.96088E-14-3.31850E-13
 -1       192 2.38710E+01-3.54495E-02-3.72106E-03 8.26636E-01-4.16665E-14-3.67190E-13
 -1       193 2.45752E+01-1.18875E-01-5.49854E-03 6.40394E-01 2.72859E-14-3.42379E-13
 -1       194 2.50632E+01-2.33508E-01-5.63309E-03 2.17554E-01 8.08294E-14-3.08095E-13
 -1       195 2.51585E+01-3.37988E-01-3.40327E-03-4.66727E-01-4.39492E-14-1.54229E-13
 -1       196 2.47096E+01-3.34515E-01 3.77346E-04-1.27757E+00-8.45660E-14-1.14188E-13
 -1       197 2.37201E+01-1.16756E-01-7.23936E-04-1.83520E+00-1.10692E-13-1.18612E-13
 -1       198 2.25125E+01 2.86800E-01-7.44386E-03-1.65091E+00-1.60517E-13-3.24341E-13
 -1       199 2.17053E+01 6.16029E-01-1.29226E-02-5.73290E-01-1.43286E-13-4.78704E-13
 -1       200 2.18159E+01 5.76405E-01-1.26693E-02 8.61866E-01-2.77538E-14-7.03286E-13
 -1       201 2.27828E+01 2.05728E-01-5.53684E-03 1.79151E+00-7.05343E-14-8.25165E-13
 -1       202 2.40244E+01-1.76628E-01-3.19915E-04 1.80630E+00-6.88525E-14-8.79774E-13
 -1       203 2.49606E+01-3.47590E-01-9.38904E-04 1.16496E+00-4.96434E-14-6.92487E-13
 -1       204 2.53405E+01-3.19616E-01-4.16315E-03 3.63102E-01-9.49761E-15-4.71259E-13
 -1       205 2.52043E+01-2.06395E-01-5.74604E-03-2.66195E-01 1.47509E-13-4.64130E-13
 -1       206 2.47188E+01-9.49843E-02-5.07370E-03-6.27608E-01 1.47219E-13-6.58578E-13
 -1       207 2.40578E+01-1.82214E-02-3.14312E-03-7.64174E-01-4.49185E-16-5.70020E-13
 -1       208 2.33529E+01 2.37289E-02-1.12662E-03-7.57246E-01 1.97989E-13-3.64569E-13
 -1       209 2.26858E+01 4.13652E-02 3.72144E-04-6.76790E-01 1.61524E-13-2.19740E-13
 -1       210 2.20978E+01 4.49951E-02 1.23881E-03-5.68970E-01-1.35489E-13-1.97828E-13
 -1       211 2.16033E+01 4.17557E-02 1.60107E-03-4.59545E-01 1.58673E-15-1.04163E-13
 -1       212 2.12013E+01 3.58218E-02 1.63947E-03-3.60732E-01-4.24115E-14-2.79484E-13
 -1       213 2.08827E+01 2.93601E-02 1.50427E-03-2.76955E-01-9.30506E-15-3.01244E-13
 -1       214 2.06355E+01 2.33639E-02 1.29570E-03-2.08624E-01 5.06472E-14-3.31423E-13
 -1       215 2.04471E+01 1.82041E-02 1.07173E-03-1.54337E-01 1.05111E-14-2.85484E-13
 -1       216 2.03061E+01 1.39488E-02 8.61807E-04-1.12046E-01-1.85419E-13-2.74721E-13
 -1       217 2.02025E+01 1.05322E-02 6.78382E-04-7.96261E-02-8.30326E-14-4.11067E-13
 -1       218 2.01280E+01 7.84084E-03 5.24719E-04-5.51337E-02-7.33699E-14-4.62572E-13
 -1       219 2.00756E+01 5.75257E-03 3.99526E-04-3.68925E-02-2.26533E-13-5.77630E-13
 -1       220 2.00400E+01 4.15388E-03 2.99528E-04-2.35078E-02-9.47461E-14-4.49449E-13
 -1       221 2.00167E+01 2.94522E-03 2.20798E-04-1.38467E-02 1.68471E-13-4.95537E-13
 -1       222 2.00026E+01 2.04160E-03 1.59380E-04-7.00700E-03 3.01106E-13-4.52585E-13
 -1       223 1.99949E+01 1.37074E-03 1.11542E-04-2.28610E-03 6.75567E-14-4.54404E-14
 -1       224 1.99916E+01 8.69807E-04 7.39364E-05 8.45812E-04 2.22382E-13 1.97526E-13
 -1       225 1.99914E+01 4.81161E-04 4.39053E-05 2.76436E-03 3.05988E-13 3.27228E-13
 -1       226 1.99929E+01 1.42912E-04 2.11051E-05 3.69879E-03 2.27723E-13 8.19485E-14
 -1       227 1.99953E+01-2.27577E-04 7.98919E-06 3.71966E-03-3.44140E-14 3.02458E-13
 -1       228 1.99977E+01-7.14449E-04 1.01789E-05 2.77907E-03 4.71363E-15 4.58882E-13
 -1       229 2.10915E+01 2.73671E-01-4.97953E-02 1.06677E+00 2.62616E-13 1.13610E-12
 -1       230 2.01126E+01 1.28971E-01 8.89916E-03 3.44940E-01 2.12548E-13 9.20792E-13
 -1       231 1.97388E+01 6.42357E-02 1.29840E-02 3.78011E-02 1.52032E-13 7.37797E-13
 -1       232 1.96875E+01 3.69441E-02 7.81260E-03-1.25733E-01 1.58432E-13 6.05800E-13
 -1       233 1.98298E+01 2.44372E-02 3.97635E-03-2.26557E-01 7.64234E-14 5.17361E-13
 -1       234 2.00969E+01 1.74971E-02 1.97064E-03-2.94993E-01 2.05753E-14 4.55633E-13
 -1       235 2.04476E+01 1.21849E-02 8.95045E-04-3.42543E-01 8.34659E-14 3.61314E-13
 -1       236 2.08513E+01 6.02799E-03 1.86990E-04-3.70875E-01 8.45357E-14 3.38805E-13
 -1       237 2.12778E+01-3.06662E-03-3.49246E-04-3.74678E-01 7.29347E-14 2.95151E-13
 -1       238 2.16897E+01-1.69249E-02-6.97995E-04-3.42843E-01-1.49058E-14 3.09088E-13
 -1       239 2.20373E+01-3.65177E-02-7.29293E-04-2.60348E-01 5.61003E-14 3.23911E-13
 -1       240 2.22576E+01-6.06137E-02-2.98525E-04-1.12933E-01-1.74752E-15 2.90613E-13
 -1       241 2.22811E+01-8.38248E-02 5.98246E-04 1.03570E-01 2.55377E-14 2.42002E-13
 -1       242 2.20495E+01-9.51988E-02 1.62411E-03 3.69241E-01-2.82023E-15 2.81551E-13
 -1       243 2.15466E+01-8.01070E-02 2.02490E-03 6.26858E-01-9.50130E-14 3.92860E-13
 -1       244 2.08338E+01-2.84367E-02 1.00090E-03 7.83225E-01 3.28428E-14 2.91947E-13
 -1       245 2.00695E+01 5.25658E-02-1.52444E-03 7.41371E-01 1.28235E-13 2.36550E-13
 -1       246 1.94805E+01 1.32045E-01-4.06115E-03 4.61309E-01 3.03394E-14 1.89815E-13
 -1       247 1.92747E+01 1.68486E-01-4.45801E-03 1.19712E-02 4.37957E-14 1.24015E-13
 -1       248 1.95342E+01 1.41640E-01-2.04878E-03-4.45684E-01 8.57977E-14-2.44596E-16
 -1       249 2.01695E+01 6.75450E-02 1.07922E-03-7.47213E-01 2.31410E-14 1.36323E-14
 -1       250 2.09705E+01-1.40919E-02 3.14004E-03-8.14768E-01 1.32446E-13 2.54293E-14
 -1       251 2.17141E+01-7.01088E-02 3.19789E-03-6.79771E-01-2.55620E-14-9.79225E-14
 -1       252 2.22490E+01-9.01272E-02 1.77935E-03-4.36059E-01-3.43774E-14-1.28297E-13
 -1       253 2.25210E+01-8.21488E-02 1.14587E-04-1.78288E-01 4.51696E-14-9.12518E-14
 -1       254 2.25513E+01-6.03891E-02-1.02728E-03 3.30958E-02-9.27080E-15-8.45331E-15
 -1       255 2.24004E+01-3.63777E-02-1.45378E-03 1.75631E-01 4.35832E-14 3.26820E-14
 -1       256 2.21368E+01-1.63332E-02-1.33828E-03 2.52535E-01 1.12194E-14 5.28965E-14
 -1       257 2.18206E+01-2.20504E-03-9.52533E-04 2.78670E-01 1.89644E-14-1.02775E-13
 -1       258 2.14956E+01 6.40676E-03-5.13283E-04 2.71015E-01 5.17180E-14-3.03930E-13
 -1       259 2.11905E+01 1.07861E-02-1.40598E-04 2.44027E-01-5.59313E-14-4.20555E-13
 -1       260 2.09208E+01 1.22980E-02 1.23715E-04 2.08267E-01-4.36155E-14-4.06465E-13
 -1       261 2.06927E+01 1.20630E-02 2.82766E-04 1.70634E-01 1.29587E-13-2.45674E-13
 -1       262 2.05067E+01 1.08885E-02 3.58394E-04 1.35168E-01 6.21413E-14-3.50547E-13
 -1       263 2.03595E+01 9.30759E-03 3.75906E-04 1.03913E-01 2.70255E-13-6.55671E-13
 -1       264 2.02463E+01 7.64596E-03 3.57229E-04 7.76189E-02 5.20262E-14-6.09285E-13
 -1       265 2.01615E+01 6.08558E-03 3.18909E-04 5.62688E-02-4.12737E-13-5.16412E-13
 -1       266 2.00998E+01 4.71481E-03 2.72299E-04 3.94299E-02-2.54417E-14-3.55542E-13
 -1       267 2.00563E+01 3.56441E-03 2.24562E-04 2.64837E-02-1.17350E-13-1.46134E-13
 -1       268 2.00269E+01 2.63173E-03 1.79779E-04 1.67646E-02 3.48103E-14-1.11024E-13
 -1       269 2.00081E+01 1.89612E-03 1.39896E-04 9.63954E-03 1.85252E-13-2.97499E-13
 -1       270 1.99972E+01 1.32849E-03 1.05436E-04 4.54954E-03-2.90680E-14-2.25267E-13
 -1       271 1.99918E+01 8.96500E-04 7.61624E-05 1.02875E-03 1.97665E-13-3.17775E-14
 -1       272 1.99903E+01 5.64330E-04 5.17553E-05-1.28740E-03 5.88022E-14-2.48435E-13
 -1       273 1.99912E+01 2.95626E-04 3.31349E-05-2.65047E-03 9.89744E-14-2.61387E-13
 -1       274 1.99935E+01 5.36291E-05 2.41840E-05-3.20477E-03 2.59101E-13-2.92470E-13
 -1       275 1.99962E+01-2.39997E-04 2.70866E-05-2.95762E-03-8.98608E-14-2.00741E-13
 -1       276 1.99985E+01-6.42520E-04 3.70207E-05-1.80487E-03-2.76452E-13-3.09867E-13
 -1       277 1.99992E+01-2.21487E-03 3.92874E-06-2.61573E-03-2.81357E-13 6.23926E-13
 -1       278 1.99997E+01-4.45245E-03-2.36438E-06-3.23563E-03-2.58094E-14-5.77837E-14
 -1       279 2.00000E+01-6.69720E-03-2.38200E-06-3.00064E-03-8.20015E-15-7.44536E-15
 -1       280 2.00001E+01-8.60891E-03 2.71428E-06-2.36324E-03-2.12399E-13 1.57649E-13
 -1       281 2.00001E+01-1.00062E-02 6.10936E-06-1.64939E-03-9.71647E-14-2.40603E-13
 -1       282 2.00000E+01-1.09400E-02 8.12832E-06-1.00967E-03 5.86109E-14-1.51786E-13
 -1       283 2.00000E+01-1.14661E-02 8.66729E-06-4.98949E-04-5.30830E-14-7.82656E-14
 -1       284 2.00000E+01-1.16708E-02 8.82422E-06-6.84094E-05 2.75007E-13-1.72784E-14
 -1       285 2.00000E+01-1.15804E-02 8.92483E-06 3.77681E-04 2.61880E-13-1.98823E-13
 -1       286 2.00001E+01-1.11444E-02 8.47948E-06 9.32111E-04-2.01493E-13-1.84027E-13
 -1       287 2.00001E+01-1.02775E-02 6.68652E-06 1.62140E-03-9.20134E-14-3.52068E-13
 -1       288 2.00001E+01-8.85536E-03 3.00605E-06 2.40945E-03-2.67674E-13-9.65779E-14
 -1       289 2.00000E+01-6.89884E-03-3.73524E-06 3.10202E-03-5.49708E-13-2.02985E-14
 -1       290 1.99997E+01-4.52164E-03-1.83432E-06 3.25828E-03-2.33091E-13 1.48584E-13
 -1       291 1.99991E+01-2.40618E-03-9.87268E-06 3.58137E-03-7.10766E-14-3.38927E-14
 -1       292-6.00104E-01-9.65903E+00-7.89663E-01 1.69827E+00 4.45352E-13 5.09176E-13
 -1       293 3.87059E+00-7.50124E+00-5.53758E-01 4.51833E+00 6.95416E-13 7.73021E-13
 -1       294 1.08259E+01-4.66176E+00-3.83378E-01 6.12337E+00 9.36778E-13 6.52020E-13
 -1       295 1.93548E+01-3.54223E-01-5.28045E-02 7.38972E+00 9.85850E-13 8.86097E-13
 -1       296 2.94776E+01 2.88846E+00 3.54961E-01 7.71783E+00 8.43686E-13 5.41900E-13
 -1       297 3.82946E+01 5.01447E+00 6.19525E-01 5.30078E+00 8.74037E-13-1.02945E-13
 -1       298 4.50031E+01 6.36563E+00 9.39256E-01 3.09090E+00 7.93587E-13-4.31821E-13
 -1       299 4.57557E+01 6.91558E+00 9.30177E-01-6.09873E-01 7.62085E-13-8.12277E-13
 -1       300 4.14101E+01 6.11421E+00 6.73077E-01-3.50122E+00 6.27137E-13-1.07617E-12
 -1       301 3.51728E+01 4.36603E+00 5.87627E-01-7.22290E+00 9.74464E-13-1.46200E-12
 -1       302 2.56343E+01 1.77268E+00 2.06149E-01-7.79485E+00 1.11258E-12-1.37262E-12
 -1       303 1.59058E+01-1.75319E+00-2.02493E-01-6.94425E+00 1.08102E-12-1.21159E-12
 -1       304 7.95237E+00-5.94884E+00-5.00257E-01-5.53729E+00 8.06577E-13-9.08208E-13
 -1       305 1.47877E+00-9.30459E+00-8.45602E-01-2.92573E+00 4.94466E-13-9.20430E-13
 -1       306-1.16184E+00-1.11191E+01-1.00854E+00-8.59885E-01-3.08018E-14-8.78686E-13
 -1       307-5.70727E-01-1.03212E+01-8.91895E-01 1.31709E+00-5.78926E-13-9.20111E-13
 -1       308 3.67586E+00-8.08821E+00-6.79733E-01 3.96934E+00-8.35276E-13-8.70047E-13
 -1       309 1.00109E+01-4.97594E+00-5.18761E-01 5.50691E+00-1.23540E-12-7.15275E-13
 -1       310 1.97663E+01-1.47376E+00-1.09004E-01 7.00621E+00-1.16754E-12-8.66307E-13
 -1       311 3.05270E+01 1.34337E+00 2.48959E-01 6.19996E+00-8.49765E-13-7.73714E-13
 -1       312 3.97760E+01 4.83484E+00 7.50165E-01 5.95043E+00-7.73627E-13-7.35301E-13
 -1       313 4.53871E+01 6.45382E+00 9.65808E-01 2.84037E+00-9.47381E-13-3.25656E-13
 -1       314 4.61660E+01 7.11215E+00 9.40837E-01-4.13557E-01-9.04166E-13 1.36169E-13
 -1       315 4.46575E+01 5.97609E+00 9.55483E-01-3.86918E+00-7.79737E-13 7.63278E-13
 -1       316 3.70923E+01 3.84489E+00 5.42092E-01-5.36592E+00-8.28110E-13 1.01216E-12
 -1       317 2.77080E+01 1.18018E+00 2.06973E-01-7.09295E+00-1.11552E-12 9.86877E-13
 -1       318 1.68972E+01-1.96785E+00-2.29166E-01-6.74180E+00-9.25898E-13 1.18172E-12
 -1       319 8.03310E+00-5.81928E+00-6.08155E-01-4.94382E+00-5.79869E-13 1.19862E-12
 -1       320 2.19158E+00-8.85406E+00-8.00728E-01-3.10720E+00-1.62925E-13 9.21430E-13
 -1       321-9.75975E-01-1.09273E+01-9.69775E-01-7.56568E-01 1.88315E-13 6.19615E-13
 -1       322 2.02669E+01 3.05094E+00-1.78692E-02-1.88633E+00-3.37207E-13-3.73500E-13
 -1       323 2.09089E+01 2.20724E+00-1.70509E-02-2.16547E+00-3.88156E-13-1.57046E-13
 -1       324 1.95580E+01 3.81599E+00-1.43424E-02-1.11745E+00-1.58125E-13-5.51558E-13
 -1       325 1.93562E+01 4.00953E+00-1.24892E-02-7.68642E-01-7.12471E-14-5.60383E-13
 -1       326 1.92288E+01 4.12469E+00-1.13605E-02-4.49044E-01 1.88216E-14-5.47884E-13
 -1       327 1.91688E+01 4.17617E+00-1.08568E-02-1.47184E-01 9.29420E-14-5.30136E-13
 -1       328 1.91736E+01 4.17010E+00-1.09075E-02 1.50164E-01 1.63104E-13-4.99236E-13
 -1       329 1.92422E+01 4.10711E+00-1.15073E-02 4.56349E-01 2.29230E-13-4.86674E-13
 -1       330 1.93724E+01 3.98504E+00-1.27780E-02 7.77942E-01 2.95876E-13-4.33925E-13
 -1       331 1.95747E+01 3.78556E+00-1.49832E-02 1.13487E+00 3.60486E-13-3.34667E-13
 -1       332 1.98671E+01 3.47568E+00-1.84536E-02 1.52245E+00 4.25411E-13-2.15727E-13
 -1       333 2.02997E+01 2.98114E+00-2.24376E-02 1.91396E+00 4.59663E-13-2.93160E-14
 -1       334 2.08938E+01 2.12670E+00-2.97213E-02 2.13611E+00 4.39400E-13 3.14916E-13
 -1       335 2.12380E+01 1.17995E+00-2.37971E-02 1.76992E+00 3.70445E-13 6.25304E-13
 -1       336 2.06170E+01 4.98134E-01 8.85334E-03 7.63846E-01 3.05585E-13 5.05416E-13
 -1       337 2.07013E+01 7.05612E-01 1.29053E-02-8.02357E-01-2.87690E-13-8.64383E-14
 -1       338 2.03837E+01 3.92236E-01 7.85570E-03-1.83730E-01-2.07976E-13-8.93416E-14
 -1       339 2.02618E+01 2.56499E-01 5.02927E-03 2.00512E-01-1.72984E-13-1.08016E-13
 -1       340 2.02932E+01 1.96111E-01 3.07832E-03 4.72694E-01-1.38695E-13-1.37822E-13
 -1       341 2.04460E+01 1.72837E-01 2.23417E-03 6.91150E-01-9.65773E-14-1.38342E-13
 -1       342 2.06972E+01 1.67323E-01 1.88985E-03 8.86630E-01-7.06350E-14-1.65571E-13
 -1       343 2.10325E+01 1.65138E-01 1.60834E-03 1.07238E+00-8.48398E-14-1.90244E-13
 -1       344 2.14435E+01 1.49600E-01 1.08008E-03 1.24589E+00-1.40558E-13-1.97518E-13
 -1       345 2.19255E+01 9.70594E-02 5.85899E-06 1.38545E+00-1.29294E-13-2.13756E-13
 -1       346 2.24761E+01-2.52438E-02-1.88040E-03 1.44351E+00-3.65988E-14-1.89279E-13
 -1       347 2.30927E+01-2.53861E-01-4.62803E-03 1.34031E+00-2.68295E-14-1.28389E-13
 -1       348 2.37642E+01-6.04455E-01-7.69211E-03 9.66735E-01 1.16115E-13-1.18857E-13
 -1       349 2.44423E+01-1.01106E+00-9.67254E-03 2.20977E-01 1.04464E-13 1.85225E-14
 -1       350 2.50042E+01-1.25544E+00-1.04652E-02-8.89692E-01 5.01474E-14 9.10095E-14
 -1       351 2.52241E+01-9.44399E-01-9.24631E-03-2.06720E+00-1.55600E-13 1.45101E-13
 -1       352 2.48889E+01 1.88662E-01-2.27935E-02-2.61367E+00-2.59876E-13 8.80561E-14
 -1       353 2.42550E+01 1.64512E+00-2.92914E-02-1.78843E+00-2.75341E-13-5.21558E-14
 -1       354 2.39722E+01 2.25089E+00-3.43943E-02 2.38533E-01-2.83964E-13-3.44905E-13
 -1       355 2.43934E+01 1.39906E+00-2.98693E-02 2.11915E+00-2.27081E-13-5.68339E-13
 -1       356 2.50435E+01-8.02229E-02-1.80430E-02 2.65922E+00 4.88507E-14-5.73126E-13
 -1       357 2.52912E+01-1.05346E+00-1.09461E-02 1.92907E+00 1.11410E-13-2.87161E-13
 -1       358 2.50194E+01-1.22731E+00-1.05338E-02 7.27825E-01 1.29784E-13-1.58615E-13
 -1       359 2.44510E+01-9.23698E-01-9.43545E-03-3.11994E-01 5.12054E-14-1.14752E-13
 -1       360 2.38011E+01-5.11723E-01-6.92775E-03-9.65106E-01 8.22072E-14-2.32462E-13
 -1       361 2.31783E+01-1.81120E-01-3.81484E-03-1.25910E+00 2.08371E-13-3.13811E-13
 -1       362 2.26179E+01 2.50977E-02-1.23131E-03-1.30473E+00 2.45315E-13-1.37520E-13
 -1       363 2.21263E+01 1.29250E-01 4.48191E-04-1.20892E+00 2.51165E-13-1.92745E-13
 -1       364 2.17020E+01 1.67171E-01 1.31670E-03-1.04856E+00 1.61369E-14-2.80696E-13
 -1       365 2.13417E+01 1.68273E-01 1.62875E-03-8.70881E-01-3.13206E-14-2.11986E-13
 -1       366 2.10411E+01 1.51855E-01 1.61735E-03-7.01340E-01-1.63408E-14-8.92508E-14
 -1       367 2.07949E+01 1.29047E-01 1.44854E-03-5.51584E-01-1.54938E-13-4.36147E-14
 -1       368 2.05966E+01 1.05628E-01 1.22290E-03-4.25335E-01-6.37944E-14-1.83673E-13
 -1       369 2.04398E+01 8.42586E-02 9.94168E-04-3.22179E-01 1.85007E-14-1.42573E-13
 -1       370 2.03178E+01 6.59175E-02 7.87248E-04-2.39797E-01 1.02643E-13-2.92543E-13
 -1       371 2.02244E+01 5.07444E-02 6.11071E-04-1.75190E-01-1.70530E-13 2.22509E-15
 -1       372 2.01543E+01 3.84978E-02 4.66500E-04-1.25311E-01-1.13317E-13-3.20296E-14
 -1       373 2.01027E+01 2.87933E-02 3.50783E-04-8.73601E-02-5.49685E-14-3.02654E-15
 -1       374 2.00655E+01 2.12186E-02 2.59843E-04-5.88997E-02-3.56764E-14 1.42190E-13
 -1       375 2.00393E+01 1.53846E-02 1.89406E-04-3.78786E-02-2.27253E-14 2.38521E-13
 -1       376 2.00216E+01 1.09440E-02 1.35451E-04-2.26138E-02 2.06270E-13 2.07990E-13
 -1       377 2.00102E+01 7.59422E-03 9.44065E-05-1.17563E-02 4.39005E-13 3.45355E-13
 -1       378 2.00033E+01 5.07211E-03 6.30925E-05-4.25245E-03 3.75766E-13 4.88967E-13
 -1       379 1.99996E+01 3.14304E-03 3.86718E-05 6.90109E-04 1.68006E-13 6.19399E-13
 -1       380 1.99980E+01 1.58970E-03 1.99997E-05 3.62577E-03-1.43452E-13 4.54911E-13
 -1       381 1.99978E+01 1.83842E-04 4.60406E-06 4.92125E-03-2.53534E-14 3.55395E-13
 -1       382 1.99982E+01-1.09214E-03-1.62074E-05 4.80701E-03 8.70212E-15 3.69711E-13
 -1       383 2.02205E+01 2.49876E-01 1.11727E-02 2.08867E-01 2.43335E-13 4.18895E-13
 -1       384 2.00613E+01 1.46567E-01 6.68524E-03-1.09919E-01 2.00380E-13 3.23836E-13
 -1       385 2.00839E+01 9.57093E-02 3.40833E-03-3.09905E-01 1.32293E-13 2.43830E-13
 -1       386 2.02323E+01 6.67971E-02 1.77263E-03-4.44510E-01 4.90015E-14 1.67169E-13
 -1       387 2.04686E+01 4.53269E-02 8.92025E-04-5.37095E-01 9.69339E-14 1.01525E-13
 -1       388 2.07648E+01 2.23757E-02 2.00655E-04-5.93853E-01 1.11622E-13 1.14207E-13
 -1       389 2.10961E+01-9.15790E-03-5.55529E-04-6.09217E-01 9.30276E-14 1.23178E-13
 -1       390 2.14356E+01-5.51179E-02-1.45393E-03-5.68305E-01-1.79862E-14 1.60970E-13
 -1       391 2.17505E+01-1.18413E-01-2.44093E-03-4.49986E-01 1.14554E-14 1.92488E-13
 -1       392 2.19993E+01-1.95055E-01-3.32033E-03-2.33512E-01 6.42179E-14 1.78449E-13
 -1       393 2.21325E+01-2.68488E-01-3.78607E-03 8.85027E-02 7.83462E-14 1.09132E-13
 -1       394 2.20996E+01-3.05358E-01-3.45362E-03 4.90190E-01-4.21765E-14 2.05115E-13
 -1       395 2.18663E+01-2.60655E-01-2.13988E-03 8.91793E-01-1.10039E-13 1.72551E-13
 -1       396 2.14442E+01-1.01474E-01-1.11310E-04 1.15683E+00 4.89119E-14 1.58383E-13
 -1       397 2.09226E+01 1.53458E-01 1.91827E-03 1.13335E+00 2.06057E-13 1.50610E-13
 -1       398 2.04696E+01 4.11084E-01 3.09422E-03 7.44079E-01 1.45202E-13 1.03446E-13
 -1       399 2.02729E+01 5.38481E-01 4.29966E-03 7.54141E-02 6.75501E-14 6.80507E-14
 -1       400 2.04259E+01 4.63969E-01 5.46082E-03-6.29455E-01 1.17919E-13 6.63412E-14
 -1       401 2.08658E+01 2.31038E-01 4.26129E-03-1.10881E+00 5.00897E-14 7.29130E-14
 -1       402 2.14183E+01-3.43804E-02 1.91698E-03-1.22983E+00 2.04273E-13-5.07511E-14
 -1       403 2.19038E+01-2.21982E-01-9.07943E-04-1.03385E+00 2.69335E-14-4.77903E-14
 -1       404 2.22156E+01-2.93745E-01-3.18326E-03-6.63765E-01-1.21084E-13-1.19119E-13
 -1       405 2.23294E+01-2.72557E-01-4.06514E-03-2.66132E-01 2.69706E-14-1.40002E-14
 -1       406 2.22743E+01-2.03654E-01-3.78754E-03 6.42565E-02-1.88901E-14 7.04067E-14
 -1       407 2.20999E+01-1.25033E-01-2.86039E-03 2.90609E-01 6.87366E-14 3.36272E-13
 -1       408 2.18557E+01-5.79730E-02-1.76006E-03 4.15726E-01 5.30292E-14 2.59721E-13
 -1       409 2.15821E+01-9.77371E-03-7.83774E-04 4.60950E-01 8.28182E-14 4.19005E-13
 -1       410 2.13082E+01 2.02524E-02-5.94357E-05 4.51729E-01 8.73752E-14 2.58474E-13
 -1       411 2.10528E+01 3.60076E-02 4.01295E-04 4.10360E-01 1.10467E-13-5.43063E-15
 -1       412 2.08264E+01 4.18895E-02 6.44633E-04 3.53561E-01-4.50978E-14-2.43230E-13
 -1       413 2.06332E+01 4.16200E-02 7.32475E-04 2.92570E-01 6.28107E-14-3.25658E-13
 -1       414 2.04736E+01 3.79442E-02 7.21373E-04 2.34200E-01 1.83561E-13-1.76404E-13
 -1       415 2.03454E+01 3.27127E-02 6.54887E-04 1.82075E-01 2.85878E-13-4.82487E-14
 -1       416 2.02449E+01 2.70812E-02 5.63146E-04 1.37694E-01 4.34703E-14 7.44068E-14
 -1       417 2.01681E+01 2.17127E-02 4.65298E-04 1.01243E-01-3.81323E-13-8.42725E-15
 -1       418 2.01108E+01 1.69427E-02 3.72406E-04 7.21714E-02-4.57575E-14-2.20549E-13
 -1       419 2.00693E+01 1.29012E-02 2.90050E-04 4.95683E-02-2.28712E-13-2.63399E-13
 -1       420 2.00401E+01 9.59580E-03 2.20305E-04 3.24028E-02-7.50454E-14-5.18011E-15
 -1       421 2.00204E+01 6.96652E-03 1.63127E-04 1.96652E-02 1.33701E-13 6.79215E-14
 -1       422 2.00079E+01 4.91945E-03 1.17224E-04 1.04461E-02-1.08730E-14 2.04363E-13
 -1       423 2.00005E+01 3.34669E-03 8.05542E-05 3.97458E-03 9.15233E-14 2.83872E-13
 -1       424 1.99969E+01 2.13163E-03 5.15511E-05-3.67345E-04 2.50097E-13 5.98201E-13
 -1       425 1.99958E+01 1.14920E-03 2.89050E-05-3.02196E-03 7.90861E-14 4.21609E-13
 -1       426 1.99962E+01 2.88477E-04 1.16595E-05-4.27087E-03 1.25959E-13 5.67902E-13
 -1       427 1.99974E+01-6.28938E-04 8.86669E-07-4.25030E-03-5.44962E-14 8.85654E-13
 -1       428 1.99984E+01-1.38117E-03-9.10437E-06-3.65940E-03-1.34020E-13 9.54666E-13
 -1       429 2.00008E+01-3.03156E-03 5.01883E-06-3.68692E-03-2.05694E-13-1.31889E-13
 -1       430 2.00003E+01-2.58535E-03-1.56088E-06-4.44973E-03-2.20336E-14 3.36802E-14
 -1       431 1.99994E+01-2.19901E-03-1.21884E-05-4.45823E-03-1.01691E-13 7.84649E-14
 -1       432 2.00009E+01-3.17706E-03 8.27203E-06-2.64921E-03-7.80958E-14-9.27735E-14
 -1       433 2.00008E+01-3.10362E-03 1.02723E-05-1.67545E-03 2.35753E-14 1.50202E-13
 -1       434 2.00005E+01-2.96064E-03 9.71276E-06-9.20715E-04 2.26342E-13-2.53774E-13
 -1       435 2.00004E+01-2.87642E-03 9.16257E-06-3.61247E-04 6.07046E-15 1.31595E-13
 -1       436 2.00004E+01-2.92428E-03 9.30574E-06 1.37712E-04 7.27600E-14-2.41786E-16
 -1       437 2.00006E+01-3.09569E-03 1.00542E-05 7.45903E-04 7.20864E-14-4.20157E-13
 -1       438 2.00008E+01-3.29765E-03 1.05345E-05 1.57113E-03-2.08385E-13-4.17197E-13
 -1       439 2.00010E+01-3.40158E-03 9.32453E-06 2.64704E-03-3.25667E-13 1.66647E-13
 -1       440 2.00009E+01-3.24560E-03 5.43034E-06 3.79660E-03-9.12443E-14-3.40288E-13
 -1       441 2.00003E+01-2.79526E-03-6.87630E-06 4.70022E-03-2.92387E-13 1.29112E-13
 -1       442 1.19031E+01-5.33944E+00 9.85123E-03 7.23027E+00-1.09607E-13 1.44114E-13
 -1       443 1.63231E+00-3.61765E+00 2.72960E-02 2.05831E-01-6.45924E-15 6.71407E-13
 -1       444 4.88151E+00-3.81963E+00 8.09883E-02 4.91916E+00-8.49182E-14 6.21891E-13
 -1       445 1.99864E+01-4.97297E+00-1.07988E-02 6.59573E+00 1.19044E-13-5.11466E-14
 -1       446 2.72126E+01-3.10547E+00 5.05553E-04 3.95415E+00 1.78448E-13-2.90032E-13
 -1       447 1.98437E+01 3.52030E+00-2.00368E-02-1.50288E+00-2.50047E-13-5.06557E-13
 -1       448 3.38504E+01 5.68646E+00-2.06039E-02-5.04389E-01 9.15643E-13-4.81046E-13
 -1       449 3.46469E+01 7.86224E+00-2.29593E-02-2.35240E-01 8.62241E-13-5.17024E-13
 -1       450 3.38937E+01 7.42559E+00-5.73311E-02 4.78345E-01 6.60222E-13-5.42386E-13
 -1       451 3.40888E+01 3.62808E+00 6.14334E-02-9.27374E-01 6.01789E-13-5.64160E-13
 -1       452 3.05280E+01-2.49034E-01 4.76509E-02-3.12779E+00 5.44856E-13-6.78263E-13
 -1       453 2.46224E+01-4.01249E+00-9.05443E-03-5.23397E+00 2.26652E-13-5.88640E-13
 -1       454 1.70655E+01-5.47873E+00-1.48259E-02-7.09058E+00 1.77164E-13-5.81601E-13
 -1       455 8.44608E+00-5.08340E+00-7.81567E-03-6.68348E+00-1.85130E-14-7.67039E-13
 -1       456 3.41808E+00-4.54058E+00-1.62168E-02-4.20909E+00-4.91551E-14-1.04768E-12
 -1       457 9.49222E-01-4.80729E+00-9.60219E-02 3.67355E-01-7.52332E-14-1.11389E-12
 -1       458 5.01228E+00-4.18722E+00 5.45041E-02 4.73024E+00 1.60719E-13-6.95374E-13
 -1       459 1.22091E+01-5.71199E+00-1.02710E-02 6.94427E+00-1.21292E-14-2.64011E-13
 -1       460 1.92180E+01-5.77826E+00-4.44103E-02 6.48471E+00-2.67508E-13-1.81584E-13
 -1       461 2.74846E+01-4.02278E+00-2.50354E-02 3.74148E+00-3.33289E-13 1.11855E-14
 -1       462 3.34207E+01 1.13995E+00 7.08807E-02 9.80945E-01-4.92283E-13 9.78662E-14
 -1       463 3.59164E+01 4.88014E+00 8.19062E-02-7.36889E-02-6.98108E-13 2.30246E-13
 -1       464 3.61953E+01 7.65584E+00 5.07353E-02-2.97187E-01-9.15379E-13 1.02758E-13
 -1       465 3.57494E+01 7.03672E+00 1.49127E-02 6.27793E-01-8.59687E-13-1.22145E-13
 -1       466 3.50028E+01 4.17464E+00 3.41905E-02 5.33765E-01-5.15685E-13-1.67921E-13
 -1       467 3.18026E+01-6.41365E-01 1.27566E-02-1.77228E+00-3.31776E-13-1.29258E-13
 -1       468 2.55881E+01-4.16253E+00-2.08537E-02-4.72924E+00-1.87059E-13 1.17864E-13
 -1       469 1.79279E+01-5.79044E+00-2.37854E-02-6.62435E+00 3.00801E-13 6.16781E-13
 -1       470 9.30989E+00-5.76206E+00-7.63515E-02-6.41027E+00 1.94039E-13 8.59132E-13
 -1       471 3.10979E+00-4.41162E+00-2.15864E-02-3.47941E+00 1.50498E-13 7.26003E-13
 -1       472 3.13714E+01 4.38529E-01-3.04740E-02 1.56991E+00 6.02548E-13-4.68126E-13
 -1       473 2.05976E+01 8.77621E-01 4.14490E-03 7.20012E-01 3.17052E-13 1.11171E-13
 -1       474 1.95368E+01 3.36898E+00-4.82595E-03-4.81499E-01-2.63896E-14-5.05737E-13
 -1       475 1.97175E+01 3.15252E+00-5.39629E-03-7.32063E-01-1.16064E-13-4.67937E-13
 -1       476 1.94018E+01 3.51921E+00-4.43440E-03-5.75592E-03 1.27533E-13-4.60801E-13
 -1       477 1.94459E+01 3.46845E+00-4.54218E-03 2.32691E-01 1.84373E-13-4.44924E-13
 -1       478 1.95590E+01 3.33674E+00-4.93702E-03 4.77556E-01 2.49383E-13-4.11078E-13
 -1       479 1.97432E+01 3.11029E+00-5.60866E-03 7.39241E-01 3.21208E-13-3.48299E-13
 -1       480 1.99961E+01 2.76939E+00-6.34103E-03 1.00346E+00 3.71944E-13-2.38949E-13
 -1       481 2.03307E+01 2.26791E+00-5.63623E-03 1.24207E+00 4.06388E-13-1.29703E-13
 -1       482 2.44270E+01-5.22770E+00-8.23217E-04 4.29162E+00-1.46001E-13-2.88405E-13
 -1       483 2.04133E+01 5.23627E-01 5.36007E-03 1.60278E-01 2.62904E-13 5.62066E-14
 -1       484 2.05533E+01 1.07271E+00 3.38264E-03-6.28580E-01-2.43310E-13-2.49110E-13
 -1       485 3.00202E+01 1.97442E+00-1.28305E-01-1.51391E+00 5.76345E-13-5.99458E-13
 -1       486 2.04454E+01 6.86665E-01 2.30807E-03-7.00421E-02-1.82946E-13-2.37200E-13
 -1       487 2.03807E+01 4.95344E-01 1.51392E-03 3.42078E-01-1.65306E-13-2.15301E-13
 -1       488 2.03809E+01 4.03958E-01 1.02814E-03 6.63956E-01-1.11454E-13-2.07291E-13
 -1       489 2.04437E+01 3.66657E-01 8.59922E-04 9.36915E-01-9.91813E-14-1.73706E-13
 -1       490 2.05614E+01 3.53503E-01 7.81833E-04 1.18621E+00-1.02838E-13-2.07111E-13
 -1       491 2.07303E+01 3.36320E-01 6.68065E-04 1.42278E+00-8.04566E-14-2.37531E-13
 -1       492 2.09552E+01 2.79482E-01 3.71277E-04 1.64228E+00-1.22102E-13-1.55453E-13
 -1       493 2.12567E+01 1.33294E-01-2.65756E-04 1.82102E+00-3.74556E-14-4.33630E-14
 -1       494 2.16796E+01-1.66728E-01-1.38304E-03 1.90855E+00 3.89067E-14 1.52349E-14
 -1       495 2.22984E+01-6.83874E-01-2.96510E-03 1.81743E+00 6.02518E-14 8.19865E-14
 -1       496 2.32046E+01-1.42230E+00-4.61956E-03 1.41007E+00 1.63282E-13 3.33516E-14
 -1       497 2.44283E+01-2.17949E+00-4.51102E-03 5.23230E-01 1.33253E-13 3.99251E-14
 -1       498 2.58117E+01-2.43548E+00-1.80821E-02-9.55407E-01 4.74512E-15 1.69947E-13
 -1       499 2.66865E+01-1.29137E+00-5.22079E-02-2.53544E+00-2.30387E-13 3.04482E-13
 -1       500 2.67531E+01 1.56428E+00-9.41218E-02-2.91636E+00-4.25573E-13 1.74773E-13
 -1       501 2.64855E+01 4.15078E+00-1.17059E-01-1.08387E+00-5.54772E-13-2.36911E-14
 -1       502 2.65737E+01 3.80185E+00-1.14218E-01 1.67162E+00-3.32141E-13-2.33967E-13
 -1       503 2.68705E+01 9.85417E-01-9.80762E-02 2.99432E+00-1.14686E-13-3.45991E-13
 -1       504 2.66576E+01-1.61599E+00-3.34406E-02 2.23123E+00 2.68527E-13-3.03653E-13
 -1       505 2.55772E+01-2.43995E+00-1.22123E-02 6.66045E-01 2.56514E-13-2.29626E-13
 -1       506 2.42358E+01-2.03160E+00-4.95109E-03-6.43909E-01 2.06601E-13-7.17718E-14
 -1       507 2.30880E+01-1.23548E+00-3.69166E-03-1.40682E+00 5.36834E-14 5.76663E-15
 -1       508 2.22632E+01-5.30140E-01-2.31157E-03-1.71955E+00 7.29681E-14 1.91159E-13
 -1       509 2.17086E+01-5.70787E-02-9.39222E-04-1.74728E+00 2.05762E-13 2.18645E-14
 -1       510 2.13321E+01 2.04685E-01 2.42026E-05-1.61879E+00 1.66122E-13-4.53403E-14
 -1       511 2.10617E+01 3.19229E-01 5.32759E-04-1.41806E+00-7.06783E-15-3.03761E-13
 -1       512 2.08539E+01 3.45707E-01 7.33918E-04-1.19570E+00 1.23037E-14-3.03364E-13
 -1       513 2.06857E+01 3.25951E-01 7.54377E-04-9.80054E-01 3.86712E-14-1.81631E-13
 -1       514 2.05458E+01 2.85809E-01 6.86285E-04-7.85399E-01 6.62384E-14-1.60305E-13
 -1       515 2.04289E+01 2.39775E-01 5.84218E-04-6.17461E-01-1.87697E-13 3.47693E-14
 -1       516 2.03319E+01 1.95249E-01 4.77366E-04-4.77075E-01-7.86538E-14-2.49936E-14
 -1       517 2.02524E+01 1.55540E-01 3.79352E-04-3.62483E-01 5.98694E-14 2.04890E-13
 -1       518 2.01885E+01 1.21743E-01 2.95276E-04-2.70725E-01-9.66277E-14 6.61723E-14
 -1       519 2.01380E+01 9.38385E-02 2.25948E-04-1.98456E-01-9.87471E-14-5.23017E-14
 -1       520 2.00988E+01 7.12938E-02 1.70292E-04-1.42394E-01-8.47862E-14 1.11504E-13
 -1       521 2.00691E+01 5.33900E-02 1.26464E-04-9.95353E-02-1.10340E-14 1.12758E-13
 -1       522 2.00469E+01 3.93783E-02 9.24678E-05-6.72530E-02-6.94590E-15 2.85085E-13
 -1       523 2.00307E+01 2.85529E-02 6.64264E-05-4.33197E-02 6.06860E-14 3.16891E-13
 -1       524 2.00193E+01 2.02781E-02 4.66072E-05-2.58952E-02 4.04606E-13 3.76397E-13
 -1       525 2.00114E+01 1.39931E-02 3.16579E-05-1.34976E-02 3.31171E-13 4.23214E-13
 -1       526 2.00063E+01 9.20460E-03 2.03783E-05-4.96623E-03 2.65522E-13 2.71953E-13
 -1       527 2.00030E+01 5.46070E-03 1.21034E-05 5.68822E-04-9.50209E-14-5.05094E-15
 -1       528 2.00011E+01 2.35109E-03 6.34227E-06 3.72524E-03-1.45692E-13 1.64986E-13
 -1       529 2.03305E+01 2.29729E-01 1.40102E-03-4.70000E-01 1.55459E-13 2.37479E-14
 -1       530 2.04187E+01 1.60404E-01 7.22541E-04-6.52453E-01 1.05542E-13-5.58645E-14
 -1       531 2.05735E+01 1.00753E-01 3.00458E-04-7.78865E-01 8.98707E-14-3.96084E-14
 -1       532 2.07824E+01 3.14338E-02-1.19939E-04-8.51976E-01 5.25650E-14 1.92746E-14
 -1       533 2.10355E+01-6.34983E-02-6.44757E-04-8.61134E-01 1.69692E-14 1.00462E-13
 -1       534 2.13233E+01-1.95476E-01-1.30047E-03-7.84582E-01-1.91074E-14 4.93028E-14
 -1       535 2.16329E+01-3.65387E-01-2.01654E-03-5.93802E-01 8.59129E-14 8.59761E-14
 -1       536 2.19412E+01-5.52448E-01-2.59443E-03-2.63374E-01 5.33967E-14 7.91894E-14
 -1       537 2.22070E+01-7.00888E-01-2.82059E-03 2.09542E-01-3.22670E-14 4.48171E-14
 -1       538 2.23659E+01-7.15286E-01-2.27245E-03 7.74557E-01-9.44568E-14 3.89387E-14
 -1       539 2.23451E+01-4.88101E-01-9.06650E-04 1.29579E+00 8.93979E-15 1.84082E-14
 -1       540 2.21121E+01 2.12406E-02 6.20754E-04 1.55319E+00 9.92839E-14-1.70057E-14
 -1       541 2.17464E+01 6.83447E-01 8.40921E-04 1.33166E+00 1.59574E-13 9.18333E-14
 -1       542 2.14427E+01 1.20184E+00-4.36897E-04 5.85208E-01 9.22318E-14 1.10177E-13
 -1       543 2.14202E+01 1.25793E+00 3.00003E-03-4.18741E-01 1.03559E-14 7.85270E-14
 -1       544 2.16856E+01 8.32902E-01 1.56711E-03-1.25674E+00 2.03392E-13 1.20622E-13
 -1       545 2.20744E+01 1.78305E-01 1.14670E-03-1.61107E+00 1.58696E-13-5.14211E-14
 -1       546 2.23681E+01-3.78868E-01-1.02829E-04-1.45795E+00 1.29699E-13-1.34988E-14
 -1       547 2.24587E+01-6.67494E-01-2.18054E-03-9.90700E-01-2.97026E-14-9.89978E-14
 -1       548 2.23594E+01-6.95989E-01-2.95865E-03-4.38097E-01-7.73631E-14-2.35790E-13
 -1       549 2.21388E+01-5.65588E-01-2.82251E-03 4.30984E-02-6.60359E-14-1.20152E-13
 -1       550 2.18653E+01-3.79500E-01-2.18440E-03 3.86546E-01-1.29429E-13-1.30198E-13
 -1       551 2.15840E+01-2.04056E-01-1.40419E-03 5.88222E-01-4.47463E-14 8.24848E-14
 -1       552 2.13186E+01-6.82943E-02-6.90745E-04 6.73768E-01-5.23719E-14 2.47070E-13
 -1       553 2.10796E+01 2.27979E-02-1.48134E-04 6.76875E-01 1.14504E-13 2.72286E-13
 -1       554 2.08702E+01 7.57165E-02 2.05312E-04 6.28465E-01 2.22154E-13 3.21538E-13
 -1       555 2.06907E+01 1.00433E-01 4.00024E-04 5.52707E-01 1.43162E-13 3.15287E-13
 -1       556 2.05394E+01 1.06401E-01 4.79300E-04 4.66606E-01-5.25358E-14 2.92226E-13
 -1       557 2.04142E+01 1.01111E-01 4.83917E-04 3.81089E-01 1.80302E-13 4.24521E-13
 -1       558 2.03124E+01 8.99153E-02 4.45685E-04 3.02478E-01 1.71229E-13 4.33255E-13
 -1       559 2.02310E+01 7.63534E-02 3.86762E-04 2.33868E-01 5.54449E-14 5.20275E-13
 -1       560 2.01672E+01 6.25984E-02 3.21515E-04 1.76240E-01 5.01066E-14 4.15240E-13
 -1       561 2.01180E+01 4.98652E-02 2.58425E-04 1.29297E-01 5.90321E-16 1.26546E-13
 -1       562 2.00809E+01 3.87369E-02 2.01905E-04 9.20368E-02-5.79649E-14 7.91643E-14
 -1       563 2.00535E+01 2.93999E-02 1.53734E-04 6.31464E-02-2.90938E-13-6.77104E-14
 -1       564 2.00339E+01 2.18059E-02 1.14125E-04 4.12385E-02 7.58780E-14 3.20587E-14
 -1       565 2.00202E+01 1.57771E-02 8.23558E-05 2.50005E-02 8.98691E-14 2.02881E-13
 -1       566 2.00110E+01 1.10723E-02 5.70049E-05 1.32732E-02 3.23502E-14 1.15522E-13
 -1       567 2.00052E+01 7.42361E-03 3.87974E-05 5.09695E-03-2.69524E-14 3.02045E-13
 -1       568 2.00018E+01 4.56823E-03 2.81052E-05-3.00206E-04-5.16208E-15 3.75902E-13
 -1       569 2.00000E+01 2.10882E-03 5.53137E-06-3.54110E-03-8.68583E-14 5.47525E-13
 -1       570 1.99994E+01-4.77706E-05 1.44959E-06-4.87909E-03 8.95224E-14 5.51250E-13
 -1       571 2.00017E+01 3.56259E-03 4.48928E-06-1.49839E-03 3.42275E-13-6.70741E-14
 -1       572 2.00012E+01 4.85283E-03 4.85832E-06-7.19047E-04 2.44167E-13-5.81514E-14
 -1       573 2.00014E+01 9.11407E-04-8.24190E-06-3.88995E-03 8.70953E-14-2.33316E-13
 -1       574 2.00020E+01 2.17561E-03 4.19817E-06-2.61234E-03 2.13277E-13 1.99395E-13
 -1       575 2.00008E+01 5.72463E-03 4.25288E-06-3.27065E-04-8.97031E-15-1.82861E-13
 -1       576 2.00007E+01 6.00330E-03 4.00324E-06-1.56561E-04-1.82312E-13 1.84923E-13
 -1       577 2.00009E+01 5.63145E-03 4.20745E-06 4.58724E-05 2.12206E-14 3.81083E-14
 -1       578 2.00014E+01 4.70224E-03 4.37640E-06 5.16693E-04 1.94005E-13-6.77984E-13
 -1       579 2.00019E+01 3.36484E-03 3.13999E-06 1.41531E-03 2.56113E-14-6.18158E-13
 -1       580 2.00021E+01 1.93957E-03 6.81115E-07 2.69907E-03-3.54844E-13 2.63748E-13
 -1       581 2.00015E+01 7.15922E-04 2.14472E-07 4.01999E-03-3.12371E-14-2.51581E-13
 -1       582 6.14606E+00-8.69107E-01 1.98788E-01 2.32274E+00-6.27640E-14 6.32591E-13
 -1       583 1.85115E+01-5.20032E+00 8.19970E-02 6.58291E+00-2.62144E-13-3.29840E-14
 -1       584 2.03243E+01 3.35435E-01 2.81145E-03-2.12688E-01 2.15827E-13 5.42059E-14
 -1       585 2.86074E+01-2.54079E+00-6.47867E-02 7.20177E-01 2.56675E-13-5.92727E-13
 -1       586 9.10990E+00-3.35835E+00 1.36156E-01-5.71758E+00 2.95722E-13 7.25739E-13
 -1       587 1.09212E+01-3.38527E+00 1.26349E-01 6.45301E+00-3.96891E-13 9.23012E-14
 -1       588 5.57658E+00-1.21592E+00 1.80926E-01-1.98269E+00 1.28361E-13 4.75189E-13
 -1       589 3.16987E+01 5.52389E+00-1.07735E-01-1.78016E+00-6.44526E-13 3.57894E-13
 -1       590 2.42759E+01-5.53924E+00-1.52980E-02 4.25580E+00 7.82291E-14 2.42350E-13
 -1       591 1.14284E+01-3.75360E+00 1.27718E-01 6.27491E+00 3.74638E-13-3.42393E-13
 -1       592 1.62035E+01-4.77875E+00 1.18618E-01-6.93963E+00-2.70832E-13-3.83558E-13
 -1       593 1.94318E+01 3.48736E+00-4.51230E-03-2.41077E-01 5.46384E-14-4.79720E-13
 -1       594 2.99788E+01 4.26617E+00-1.60581E-01 1.74320E+00 3.19383E-13-2.89387E-13
 -1       595 2.98160E+01 6.21161E+00-1.65350E-01-1.37515E+00 8.12628E-13-4.29330E-13
 -1       596 5.49727E+00-1.39002E+00 1.88927E-01 1.96949E+00 2.31129E-13-7.98236E-13
 -1       597 2.95559E+01 7.30423E+00-1.83452E-01 1.85504E-01 7.50150E-13-3.44335E-13
 -1       598 3.03705E+01 1.81273E-01-9.07016E-02 3.07032E-01 2.67418E-13-5.87308E-14
 -1       599 2.80302E+01-3.44208E+00-2.57445E-02-2.17018E+00 4.31148E-14-2.01977E-13
 -1       600 2.17316E+01-5.66710E+00 2.51154E-02-5.63940E+00-2.70936E-13-3.24239E-13
 -1       601 8.59141E+00-2.66890E+00 1.63326E-01-5.54751E+00-2.19443E-13-7.76823E-13
 -1       602 2.98284E+01-2.51893E+00-9.10739E-02-6.16093E-02-2.28182E-13 3.34885E-13
 -1       603 4.89452E+00-1.55326E+00 1.67919E-01-2.13428E+00-1.38570E-14-1.01322E-12
 -1       604 1.94500E+01-5.63028E+00 7.66654E-02 6.19428E+00 1.92860E-13 4.61632E-14
 -1       605 3.08127E+01 6.90964E+00-1.74450E-01 3.95632E-01-7.79585E-13 1.58961E-13
 -1       606 3.17223E+01 2.56164E+00-1.05846E-01-1.97443E+00-5.92373E-13 5.00724E-13
 -1       607 2.87552E+01-3.88514E+00-4.29611E-02-1.26524E+00 1.11586E-13-4.76730E-13
 -1       608 3.10218E+01 4.65250E+00-1.57792E-01 2.11357E+00-5.60219E-13-1.18121E-13
 -1       609 3.09024E+01 3.06374E-01-1.19272E-01 1.82953E+00-1.35419E-13-2.09263E-13
 -1       610 2.38829E+01-5.73676E+00 2.84293E-02-4.56805E+00 3.41914E-13-1.20837E-13
 -1       611 1.60173E+01-5.02701E+00 8.86698E-02-6.59088E+00 5.21840E-13 4.95902E-13
 -1       612 2.05472E+01 1.83582E+00-5.63481E-03-1.27985E+00-3.15898E-13-3.04197E-13
 -1       613 2.07675E+01 1.32447E+00-8.64407E-04 1.33436E+00 3.89690E-13 2.00400E-13
 -1       614 2.75566E+01 5.33503E+00-1.42971E-01 1.56701E+00 4.43069E-13-1.55778E-14
 -1       615 1.99707E+01 2.82701E+00-6.51027E-03-9.92347E-01-1.95807E-13-4.80147E-13
 -1       616 9.89649E+00-1.06222E+00 1.46504E-01 4.32855E+00-2.90316E-13 1.01606E-13
 -1       617 2.00004E+01 3.88442E-04 4.40930E-07 4.77629E-03-4.48327E-14 3.89124E-13
 -1       618 9.60867E+00-1.41941E+00 1.58714E-01 4.22577E+00 3.29538E-13-3.91874E-13
 -1       619 2.74755E+01-4.65781E+00-1.18677E-02 1.13532E+00-2.71354E-14 2.65881E-13
 -1       620 1.96783E+01 2.79519E+00-1.43654E-03 2.22938E-01 1.96423E-13-3.52741E-13
 -1       621 1.95908E+01 2.90659E+00-1.34228E-03 6.09215E-02 1.23480E-13-4.11600E-13
 -1       622 2.00467E+01 2.26941E+00-1.53958E-03 5.53831E-01 2.90155E-13-2.54402E-13
 -1       623 2.02892E+01 1.82870E+00-2.14292E-03 6.78614E-01 3.21925E-13-1.54857E-13
 -1       624 2.00030E+01 5.28804E-03 3.08893E-06-1.77992E-03 3.05130E-14-1.23333E-13
 -1       625 2.04809E+01 1.14826E+00 2.83261E-03 5.06645E-01 3.08040E-13-7.69728E-14
 -1       626 2.76035E+01-8.55898E-01-7.32064E-02-1.51402E+00 3.12630E-13-4.81195E-13
 -1       627 2.03579E+01 9.40044E-01 3.17150E-04 9.82091E-02-1.45579E-13-2.89154E-13
 -1       628 2.03006E+01 7.34813E-01 3.54078E-04 4.84973E-01-1.30842E-13-2.47682E-13
 -1       629 2.02491E+01 6.32082E-01 2.85311E-04 8.10103E-01-9.27574E-14-2.61878E-13
 -1       630 2.02101E+01 5.88835E-01 2.66050E-04 1.09865E+00-1.14330E-13-2.55902E-13
 -1       631 2.01850E+01 5.67712E-01 2.74987E-04 1.37032E+00-6.47791E-14-2.32561E-13
 -1       632 2.01797E+01 5.27524E-01 2.52355E-04 1.63683E+00-8.93569E-16-1.63845E-13
 -1       633 2.02150E+01 4.13482E-01 1.26047E-04 1.90131E+00 5.81856E-15-1.77485E-15
 -1       634 2.03402E+01 1.49521E-01-1.24540E-04 2.15548E+00 3.24108E-14 4.34418E-14
 -1       635 2.06529E+01-3.61347E-01-1.50406E-04 2.37036E+00 6.18576E-14-1.95905E-14
 -1       636 2.13103E+01-1.21180E+00-2.56018E-05 2.47690E+00 1.31258E-13 7.65733E-14
 -1       637 2.25580E+01-2.42381E+00 9.52283E-04 2.28163E+00 1.74712E-13 1.09288E-13
 -1       638 2.44788E+01-3.59375E+00 7.46640E-03 1.58622E+00 2.05929E-13 9.96286E-14
 -1       639 2.89736E+01-1.60060E+00-7.33893E-02 1.91184E+00 1.73004E-13-3.25583E-13
 -1       640 2.65722E+01-3.72779E+00-3.04327E-03-9.60981E-02 3.40242E-13-3.53327E-13
 -1       641 2.41456E+01-3.35411E+00 1.40047E-02-1.61825E+00 3.05257E-13-2.51025E-13
 -1       642 2.23070E+01-2.11387E+00 3.09110E-03-2.23064E+00 1.58251E-13-1.53877E-13
 -1       643 2.11988E+01-9.70908E-01 6.65193E-04-2.32350E+00 1.55478E-13-1.29213E-13
 -1       644 2.06172E+01-1.88415E-01-6.25323E-06-2.17568E+00 4.01532E-15-7.80671E-14
 -1       645 2.03457E+01 2.62536E-01 1.20145E-04-1.93517E+00 7.72365E-14-8.25983E-14
 -1       646 2.02332E+01 4.77252E-01 2.42722E-04-1.66872E+00-9.34503E-14-4.15887E-13
 -1       647 2.01913E+01 5.45415E-01 2.99039E-04-1.40624E+00-7.54837E-15-2.27843E-13
 -1       648 2.01746E+01 5.31980E-01 2.93061E-04-1.16219E+00 1.43951E-14-1.40072E-13
 -1       649 2.01630E+01 4.78746E-01 2.59598E-04-9.43717E-01 1.53651E-14-2.23388E-13
 -1       650 2.01495E+01 4.10427E-01 2.17149E-04-7.53741E-01 6.38481E-14-3.10448E-13
 -1       651 2.01330E+01 3.40565E-01 1.75635E-04-5.92486E-01-7.40447E-14-1.88719E-14
 -1       652 2.01145E+01 2.75923E-01 1.39074E-04-4.58429E-01-6.81578E-14 5.31574E-14
 -1       653 2.00958E+01 2.19360E-01 1.08300E-04-3.49004E-01-2.47193E-14-2.32155E-13
 -1       654 2.00779E+01 1.71595E-01 8.29259E-05-2.61158E-01-2.35125E-13-1.32734E-13
 -1       655 2.00619E+01 1.32256E-01 6.25594E-05-1.91725E-01-1.87457E-14-3.23719E-14
 -1       656 2.00480E+01 1.00477E-01 4.65258E-05-1.37663E-01-5.48977E-14 2.74932E-13
 -1       657 2.00365E+01 7.52181E-02 3.40815E-05-9.61976E-02 3.79147E-14 3.56938E-13
 -1       658 2.00271E+01 5.54219E-02 2.45249E-05-6.48820E-02 4.28764E-14 3.61617E-13
 -1       659 2.00197E+01 4.00951E-02 1.72448E-05-4.16277E-02 1.42810E-13 2.38905E-13
 -1       660 2.00140E+01 2.83374E-02 1.14871E-05-2.46990E-02 2.87834E-13 5.55278E-14
 -1       661 2.00096E+01 1.93469E-02 7.10575E-06-1.26940E-02 1.27646E-13-1.29832E-13
 -1       662 2.00063E+01 1.24105E-02 8.92412E-06-4.50036E-03 1.36160E-14-3.51100E-13
 -1       663 2.00039E+01 6.86172E-03 9.11613E-07 6.73782E-04-7.95241E-14 2.87490E-13
 -1       664 2.04220E+01 2.61741E-01 1.80754E-04-8.19370E-01 1.02213E-13-3.37289E-14
 -1       665 1.00553E+01-1.13611E+00 1.43471E-01-4.07186E+00 1.26198E-13 5.73833E-13
 -1       666 2.03742E+01 3.74325E-01 3.03140E-04-6.14895E-01 1.31004E-13-1.76735E-14
 -1       667 2.06804E+01 1.57120E-02-9.71804E-05-1.05723E+00 4.78274E-15 1.02531E-14
 -1       668 2.09067E+01-1.71479E-01-3.28265E-04-1.07465E+00 7.11687E-14-3.93429E-14
 -1       669 2.12137E+01-4.25147E-01-6.45269E-04-9.92170E-01-4.71137E-15-3.78914E-14
 -1       670 2.16102E+01-7.38688E-01-9.63639E-04-7.72091E-01 3.27086E-14-5.66870E-15
 -1       671 2.20858E+01-1.06138E+00-1.10995E-03-3.75597E-01 6.70704E-15 1.15057E-13
 -1       672 2.25874E+01-1.27377E+00-1.48141E-03 2.12233E-01-8.00801E-14 1.33690E-13
 -1       673 2.29986E+01-1.18204E+00-1.79764E-03 9.31643E-01-5.39565E-14 1.37296E-13
 -1       674 2.31639E+01-5.93287E-01-2.32165E-03 1.58063E+00 5.25303E-14 1.95162E-13
 -1       675 2.29915E+01 4.99620E-01-3.46939E-03 1.80607E+00 8.33909E-14 1.88669E-13
 -1       676 2.26012E+01 1.68389E+00 4.20926E-04 1.29803E+00 1.12837E-13 2.32855E-13
 -1       677 2.23760E+01 2.27447E+00-4.23179E-03 1.32516E-01 1.21502E-13 1.01036E-13
 -1       678 2.25535E+01 1.91683E+00-8.46065E-03-1.13741E+00 1.26556E-13-1.56379E-13
 -1       679 2.29260E+01 8.05047E-01-6.14462E-03-1.83033E+00 1.76929E-13-2.41436E-14
 -1       680 2.31795E+01-3.60126E-01-1.24979E-03-1.75748E+00 2.35583E-13-3.24614E-14
 -1       681 2.30935E+01-1.06292E+00-2.28689E-03-1.18907E+00 1.80679E-13-6.48718E-14
 -1       682 2.27357E+01-1.24785E+00-1.75698E-03-4.79610E-01-1.90327E-14-7.61305E-14
 -1       683 2.22519E+01-1.08093E+00-1.31838E-03 1.27778E-01-4.95506E-14-1.53364E-13
 -1       684 2.17731E+01-7.67625E-01-9.59247E-04 5.47116E-01-2.41363E-13-3.84324E-14
 -1       685 2.13645E+01-4.47639E-01-6.55298E-04 7.84903E-01-1.00763E-13-9.83107E-14
 -1       686 2.10418E+01-1.87253E-01-3.68117E-04 8.80996E-01-1.29542E-13-3.26015E-14
 -1       687 2.07961E+01-3.95038E-03-1.33605E-04 8.79447E-01 9.68210E-14-3.72591E-14
 -1       688 2.06110E+01 1.09272E-01 2.12294E-05 8.17541E-01 1.52755E-13 3.43100E-14
 -1       689 2.04710E+01 1.68296E-01 1.11030E-04 7.23329E-01 1.80384E-13 1.23196E-13
 -1       690 2.03637E+01 1.89648E-01 1.52788E-04 6.16346E-01 7.54382E-14 2.71249E-13
 -1       691 2.02804E+01 1.87132E-01 1.63594E-04 5.09303E-01 1.08159E-14-8.57683E-14
 -1       692 2.02151E+01 1.71055E-01 1.56291E-04 4.09814E-01 1.13256E-13 6.94409E-14
 -1       693 2.01638E+01 1.48541E-01 1.39099E-04 3.21853E-01 5.58058E-14 5.33475E-14
 -1       694 2.01233E+01 1.24182E-01 1.17843E-04 2.46929E-01 1.58244E-14 2.32828E-13
 -1       695 2.00916E+01 1.00713E-01 9.62066E-05 1.84987E-01 2.23746E-13 4.03061E-13
 -1       696 2.00670E+01 7.95938E-02 7.62757E-05 1.35060E-01-6.36681E-14 2.18493E-13
 -1       697 2.00482E+01 6.14539E-02 5.88848E-05 9.57211E-02-2.86108E-13 3.64223E-13
 -1       698 2.00339E+01 4.64020E-02 4.43197E-05 6.53763E-02 3.43889E-14 2.79185E-14
 -1       699 2.00232E+01 3.42430E-02 3.24547E-05 4.24597E-02 2.82211E-14-1.45101E-13
 -1       700 2.00155E+01 2.46190E-02 2.28379E-05 2.55430E-02 5.16921E-14-2.91985E-14
 -1       701 2.00099E+01 1.70964E-02 1.69091E-05 1.34000E-02-1.91813E-13-1.45858E-13
 -1       702 2.00061E+01 1.12272E-02 1.64424E-05 5.04609E-03 3.24625E-14-2.17294E-13
 -1       703 2.00043E+01 8.30387E-03 8.41404E-06 1.00519E-03 2.66268E-14-1.03158E-13
 -1       704 2.00005E+01 1.55027E-02 9.77102E-07 1.45630E-04 1.84375E-13 4.20282E-14
 -1       705 2.00026E+01 3.65145E-03-6.59525E-06 2.79669E-03-1.18147E-13-1.35487E-13
 -1       706 2.00020E+01 1.21239E-02 1.40868E-06 6.57144E-04 1.86402E-13-3.09587E-13
 -1       707 2.00006E+01 1.54516E-02 1.12137E-06-5.34812E-04 8.01969E-14 1.70055E-13
 -1       708 2.00011E+01 1.43299E-02 1.16669E-06 6.60637E-04 8.61987E-14-2.24288E-13
 -1       709 2.23986E+01-4.79490E+00 3.54263E-02 4.31021E+00-3.45043E-13-2.83008E-13
 -1       710 2.00013E+01 1.42182E-02 5.42127E-07-9.70801E-04-1.65374E-14-1.52467E-13
 -1       711 2.00023E+01 1.19463E-02-1.27353E-06-8.38424E-04 1.08892E-13-7.10751E-13
 -1       712 2.00032E+01 9.01394E-03-2.76937E-06 3.66347E-05 5.22840E-14-4.55059E-13
 -1       713 2.03743E+01 5.25674E-01 7.19131E-04-3.42472E-01 2.03441E-13-4.23017E-14
 -1       714 2.13307E+01-5.02816E+00 6.16145E-02-4.90374E+00 5.94566E-13-1.04547E-13
 -1       715 1.64164E+01-3.41574E+00 7.75317E-02 5.88366E+00-2.95680E-13 1.97689E-14
 -1       716 1.39366E+01-2.79016E+00 1.03794E-01-5.92506E+00-3.12396E-13-4.57991E-13
 -1       717 2.79524E+01 5.28591E+00-2.12296E-01-1.17925E+00-6.49508E-13 7.94057E-14
 -1       718 1.73303E+01-3.74184E+00 8.18772E-02 5.58457E+00 2.85438E-13-1.05544E-13
 -1       719 2.05222E+01 1.51869E-01 6.25074E-05-9.67286E-01 4.19664E-14-3.05806E-14
 -1       720 2.03939E+01 1.32273E+00 9.07728E-04-3.76563E-01-1.64143E-13-3.14837E-13
 -1       721 2.04142E+01 7.61272E-01 1.31982E-03 1.99686E-02 2.45406E-13-7.49787E-14
 -1       722 1.44147E+01-2.94725E+00 1.02170E-01-5.65312E+00 3.96912E-13 4.39579E-13
 -1       723 2.80651E+01 4.92383E+00-1.50449E-01 1.62958E+00-4.41695E-13-1.29924E-13
 -1       724 2.59544E+01-4.24619E+00-2.53595E-02 1.60793E+00-1.06739E-13-5.12182E-13
 -1       725 2.62429E+01 5.60485E+00-1.48524E-01-7.61931E-01 7.12673E-13-4.64056E-14
 -1       726 2.78166E+01-2.23825E+00-6.15053E-02 4.36600E-01-3.27637E-14 2.92981E-13
 -1       727 2.04591E+01-4.63984E+00 5.52298E-02-5.29186E+00-3.30663E-13-2.20080E-13
 -1       728 2.11080E+01-4.91939E+00 4.90368E-02 4.86336E+00 2.03778E-13 1.22354E-13
 -1       729 2.76852E+01 1.09932E+00-1.14062E-01 2.05293E+00-8.23022E-14 1.52402E-13
 -1       730 1.98346E+01 2.58524E+00-1.51731E-03 3.90666E-01 2.64322E-13-3.32593E-13
 -1       731 1.97938E+01 2.64354E+00-1.74278E-03-3.97017E-01-7.31222E-14-4.04352E-13
 -1       732 2.51371E+01-4.85006E+00 4.65384E-03-2.85551E+00-3.12231E-13-6.92172E-14
 -1       733 2.70703E+01 3.24311E+00-1.17231E-01-2.25177E+00 6.20823E-13-3.02326E-13
 -1       734 2.62486E+01-4.85582E+00-1.35466E-02-1.76041E+00 3.97718E-13-3.90221E-13
 -1       735 8.45756E+00 2.77923E-01 1.43082E-01-1.96376E-01 4.74794E-15 4.54262E-13
 -1       736 2.00052E+01 2.33973E+00-2.24928E-03-5.44437E-01-1.37824E-13-4.00222E-13
 -1       737 1.95797E+01 2.92038E+00-1.51386E-03-9.32577E-02 7.92377E-14-4.08931E-13
 -1       738 2.62608E+01 2.52798E+00-1.07696E-01 2.20047E+00-2.51014E-14 3.13884E-13
 -1       739 2.00029E+01 9.29353E-03-2.17838E-06-3.85395E-05 4.57059E-13 2.89693E-13
 -1       740 1.01978E+01 3.22163E-01 9.66842E-02 1.94760E+00-1.48326E-13 2.03660E-13
 -1       741 2.03145E+01 1.78759E+00-8.39168E-04-6.55162E-01-2.03841E-13-3.76782E-13
 -1       742 8.05171E+00 4.64968E-02 1.58813E-01-3.15091E-01 9.20913E-14-8.00401E-13
 -1       743 2.00038E+01 8.25730E-03-2.59643E-06 2.55640E-04-1.99629E-13 7.00194E-15
 -1       744 1.04618E+01-9.48858E-01 1.31963E-01-4.23451E+00-1.28328E-13-6.59035E-13
 -1       745 1.46440E+01-1.84875E+00 9.31329E-02 4.86487E+00 3.15413E-13-2.97803E-13
 -1       746 1.00915E+01 1.07197E-01 1.11698E-01 1.98426E+00 2.52525E-13-4.93713E-13
 -1       747 2.82293E+01 1.58091E+00-1.23076E-01 2.91835E+00-1.97287E-13-4.38122E-13
 -1       748 1.96486E+01 2.83441E+00-1.62271E-03-2.44973E-01 1.39692E-14-4.26271E-13
 -1       749 2.51337E+01 4.86939E+00-9.32969E-02 7.07460E-01 4.40214E-13 2.77621E-13
 -1       750 2.02401E+01 1.54273E+00-3.34006E-04 2.51465E-01 2.55163E-13-1.79462E-13
 -1       751 2.00900E+01 9.52163E-01 9.93985E-05 5.82696E-01-9.70599E-14-2.90217E-13
 -1       752 1.99626E+01 8.54009E-01 1.01090E-04 8.76760E-01-8.35980E-14-2.41850E-13
 -1       753 1.98053E+01 8.13254E-01 9.11242E-05 1.14895E+00-6.38142E-14-1.95837E-13
 -1       754 1.96221E+01 7.88246E-01 1.03850E-04 1.41605E+00 1.24034E-14-1.30102E-13
 -1       755 1.94215E+01 7.29371E-01 9.72011E-05 1.69697E+00 7.52825E-14-1.25633E-13
 -1       756 1.92291E+01 5.68931E-01-2.93785E-05 2.01384E+00 4.04456E-14-1.08578E-13
 -1       757 1.91056E+01 2.11743E-01 1.08787E-04 2.39341E+00 8.63612E-14-7.75902E-14
 -1       758 1.91760E+01-4.69717E-01 2.23032E-03 2.86462E+00 1.66679E-13 8.58421E-14
 -1       759 1.96758E+01-1.61567E+00 1.90979E-02 3.43062E+00 1.70334E-13 6.18069E-14
 -1       760 2.23211E+01-3.93934E+00 3.60839E-02 3.44387E+00 2.40476E-13 1.99599E-13
 -1       761 2.02174E+01 1.49620E+00 5.17365E-04-1.43868E-01-1.29732E-13-3.58553E-13
 -1       762 2.07239E+01-2.91992E+00 2.49097E-02-3.61271E+00 1.61638E-13-1.83291E-14
 -1       763 1.95392E+01-1.30676E+00 9.85316E-03-3.15949E+00 1.49245E-13-1.48597E-13
 -1       764 1.91164E+01-2.45712E-01 1.82895E-03-2.62201E+00 6.22845E-14-1.73778E-13
 -1       765 1.90735E+01 3.61501E-01 5.27453E-04-2.16096E+00 1.74960E-14-3.41203E-13
 -1       766 1.91921E+01 6.58300E-01 1.61480E-04-1.78737E+00-7.70162E-14-3.44680E-13
 -1       767 1.93593E+01 7.63094E-01 1.26555E-04-1.48049E+00 3.35177E-14-1.38059E-13
 -1       768 1.95229E+01 7.57283E-01 1.04830E-04-1.22177E+00 1.15918E-13-1.25391E-13
 -1       769 1.96615E+01 6.93914E-01 8.48714E-05-1.00008E+00-9.01152E-14-2.50483E-13
 -1       770 1.97702E+01 6.05543E-01 6.41838E-05-8.09450E-01-1.16146E-13-2.75145E-13
 -1       771 1.98509E+01 5.11052E-01 4.71643E-05-6.46562E-01-1.73201E-14-3.79889E-13
 -1       772 1.99085E+01 4.20713E-01 3.59718E-05-5.09080E-01-4.12935E-14-5.38572E-13
 -1       773 1.99481E+01 3.39548E-01 2.83872E-05-3.94736E-01-9.79404E-14-4.20116E-13
 -1       774 1.99743E+01 2.69456E-01 2.16331E-05-3.01093E-01-9.07839E-14-4.18880E-13
 -1       775 1.99910E+01 2.10584E-01 1.60215E-05-2.25596E-01 4.12561E-14-1.57875E-13
 -1       776 2.00011E+01 1.62185E-01 1.16892E-05-1.65678E-01 3.16613E-13 1.68372E-13
 -1       777 2.00067E+01 1.23098E-01 8.40233E-06-1.18862E-01 5.38584E-14 4.85423E-13
 -1       778 2.00092E+01 9.20163E-02 5.91807E-06-8.28566E-02-8.81048E-14 3.40467E-13
 -1       779 2.00099E+01 6.76337E-02 4.00896E-06-5.56212E-02 2.95240E-14 1.81638E-13
 -1       780 2.00094E+01 4.87229E-02 2.39422E-06-3.53946E-02-3.87388E-15 8.40347E-15
 -1       781 2.00082E+01 3.41603E-02 8.61414E-07-2.06968E-02-2.61057E-13-3.55192E-13
 -1       782 2.00067E+01 2.29318E-02 4.45068E-06-1.03743E-02 2.42785E-14-4.13081E-13
 -1       783 2.00053E+01 1.47413E-02-1.30339E-06-4.00627E-03 5.70681E-13-1.73248E-13
 -1       784 2.06986E+01-3.19652E-01-1.30049E-04-1.31057E+00 1.89271E-14-5.47198E-14
 -1       785 2.04693E+01-2.22383E-02-2.07491E-05-1.25031E+00 3.11382E-14-1.00685E-13
 -1       786 2.16167E+01-1.20760E+00-3.14725E-04-1.08603E+00-9.43653E-14-4.63499E-14
 -1       787 2.23492E+01-1.69350E+00 2.91809E-04-6.73373E-01-1.02136E-13 3.55318E-14
 -1       788 2.31932E+01-1.96584E+00-2.02519E-03 2.69662E-02-9.24326E-14 1.22983E-13
 -1       789 2.39488E+01-1.66941E+00-5.83269E-03 9.68838E-01-5.39804E-14 9.22819E-14
 -1       790 2.42855E+01-4.60987E-01-1.69058E-02 1.84702E+00 2.24308E-14 2.19112E-13
 -1       791 2.40784E+01 1.51024E+00-2.94164E-02 2.02314E+00 6.03692E-14 2.66045E-13
 -1       792 2.40237E+01 2.00349E+00-4.30671E-02-1.93641E+00 1.60622E-13-2.41888E-13
 -1       793 2.43025E+01-2.72156E-02-2.89671E-02-2.05395E+00 1.75367E-13-3.38740E-13
 -1       794 2.40964E+01-1.42867E+00-2.94791E-03-1.30060E+00 5.14246E-14-1.66250E-13
 -1       795 2.33822E+01-1.91129E+00-2.44725E-03-3.32938E-01-3.67931E-14 4.28555E-14
 -1       796 2.25265E+01-1.72680E+00-7.49742E-04 4.18286E-01-3.53216E-14 6.21440E-14
 -1       797 2.17522E+01-1.25929E+00-6.25184E-05 8.72476E-01-7.78009E-14 1.53109E-13
 -1       798 2.11537E+01-7.62881E-01-1.15240E-04 1.08682E+00-2.06506E-13-1.29681E-13
 -1       799 2.07330E+01-3.49922E-01-1.18211E-04 1.13880E+00-9.17632E-14-3.01282E-14
 -1       800 2.04567E+01-5.26170E-02-2.98875E-05 1.09289E+00-6.46757E-14 3.23533E-14
 -1       801 2.02839E+01 1.37077E-01 1.90535E-05 9.93256E-01 1.65665E-13-1.69996E-13
 -1       802 2.01795E+01 2.41818E-01 4.44000E-05 8.68688E-01 8.31094E-14-2.58414E-13
 -1       803 2.01180E+01 2.86033E-01 5.20312E-05 7.37289E-01-1.05433E-13-2.26787E-13
 -1       804 2.00821E+01 2.90596E-01 5.11991E-05 6.10117E-01 1.54060E-13-7.33955E-15
 -1       805 2.00609E+01 2.71471E-01 4.80767E-05 4.93597E-01 6.52419E-14-2.20097E-14
 -1       806 2.00478E+01 2.40047E-01 4.24119E-05 3.90994E-01-5.44799E-15-8.21804E-14
 -1       807 2.00391E+01 2.03947E-01 3.55047E-05 3.03413E-01-9.63167E-14-8.79067E-14
 -1       808 2.00327E+01 1.67911E-01 2.86238E-05 2.30566E-01-5.94339E-14 1.74949E-13
 -1       809 2.00275E+01 1.34641E-01 2.26979E-05 1.71342E-01 5.98358E-14 4.23177E-13
 -1       810 2.00230E+01 1.05469E-01 1.75551E-05 1.24185E-01-1.68287E-13 2.02939E-13
 -1       811 2.00191E+01 8.08329E-02 1.31924E-05 8.73676E-02-6.58828E-15-2.50680E-13
 -1       812 2.00155E+01 6.06226E-02 9.51765E-06 5.91747E-02 1.10185E-13-1.76754E-13
 -1       813 2.00124E+01 4.44148E-02 6.37119E-06 3.80212E-02-3.64322E-14-6.22534E-16
 -1       814 2.00097E+01 3.16275E-02 5.88841E-06 2.25231E-02-7.41034E-14 4.98835E-14
 -1       815 2.00073E+01 2.16592E-02 9.56031E-06 1.15542E-02-1.01565E-13 4.22655E-15
 -1       816 1.41292E+01-1.29907E+00 6.81263E-02-4.57750E+00-2.23536E-13-3.59915E-13
 -1       817 2.55895E+01 6.68875E-01-3.88660E-02-2.25617E+00 2.27128E-13-4.32724E-13
 -1       818 1.97295E+01 2.34903E+00-2.94034E-04 3.71195E-02 1.27998E-13-3.39952E-13
 -1       819 2.00015E+01 2.29294E-02-3.15424E-06-3.56850E-03-9.86604E-16-4.18297E-13
 -1       820 1.99993E+01 2.67061E-02 6.28480E-09-2.43770E-04 1.37326E-13-1.55411E-13
 -1       821 2.57806E+01-2.53386E+00-1.68353E-02-6.24121E-01-2.24959E-14-5.66883E-13
 -1       822 2.00034E+01 1.87127E-02 2.01365E-06-3.82100E-03 1.13241E-13-5.70484E-13
 -1       823 2.00000E+01 2.56985E-02 2.53723E-07-2.20808E-03-1.12724E-13 2.51619E-13
 -1       824 2.02952E+01 6.89974E-01-2.39618E-05-4.74647E-01 1.66590E-13-1.09731E-13
 -1       825 1.39288E+01-2.44998E+00 1.15291E-01 5.64505E+00-3.36481E-13 2.52350E-13
 -1       826 2.03629E+01 1.13709E+00 2.37532E-04 1.52622E-01 2.43558E-13-1.23837E-13
 -1       827 2.36361E+01-4.29512E+00 1.43742E-02-2.79736E+00 3.67324E-13-1.49964E-13
 -1       828 1.13833E+01 2.48853E-01 8.44610E-02-2.30630E+00 3.03403E-14 5.07060E-13
 -1       829 2.10690E+01-7.19848E-01-3.27614E-04-1.27407E+00 1.49349E-14-3.06622E-14
 -1       830 1.98998E+01-3.31660E+00 2.94829E-02 4.29200E+00-3.64318E-13-1.85169E-13
 -1       831 2.02761E+01 5.08622E-01 5.11935E-05-7.41109E-01 1.03587E-13-9.68159E-14
 -1       832 1.29462E+01-8.70740E-01 7.49121E-02 4.22763E+00-1.52154E-13 8.61707E-14
 -1       833 1.87272E+01-3.26799E+00 3.32442E-02-4.90776E+00-3.16761E-13-2.22598E-13
 -1       834 1.36232E+01-9.68943E-01 7.14781E-02-4.12058E+00 1.13212E-13 2.72230E-13
 -1       835 2.39467E+01-3.94945E+00 3.02351E-03 2.04783E+00-2.31847E-13-3.60018E-13
 -1       836 1.64486E+01-2.27126E+00 5.05972E-02 4.93320E+00-4.11960E-13-3.38618E-14
 -1       837 2.65442E+01-9.91091E-01-4.22585E-02 1.56311E+00-5.03052E-14 1.65340E-13
 -1       838 2.01832E+01 1.14058E+00-1.10901E-03 2.42694E-01-1.05830E-13-3.25266E-13
 -1       839 2.59861E+01-3.51293E+00-1.98880E-02-5.52987E-01-1.43632E-13 2.45082E-13
 -1       840 2.31982E+01-4.36113E+00 1.76760E-02-3.20555E+00-3.37171E-13-6.52783E-14
 -1       841 2.01366E+01 1.89100E+00 1.85000E-04-3.60599E-01-1.09930E-13-4.11569E-13
 -1       842 1.89515E+01-3.26025E+00 5.53202E-02-4.72145E+00 4.23044E-13-1.33400E-15
 -1       843 2.46717E+01 3.47497E+00-6.60556E-02-1.65328E+00 5.22929E-13-9.53404E-14
 -1       844 1.08528E+01 2.99587E-01 8.16522E-02-1.97183E+00-2.31074E-14-6.25590E-13
 -1       845 1.96733E+01 2.42116E+00-7.25036E-05-3.14232E-02 9.71497E-14-3.69834E-13
 -1       846 2.56392E+01 4.90635E-01-4.94690E-02 2.05950E+00 1.70905E-14 2.57669E-13
 -1       847 1.99142E+01 2.23186E+00-9.86884E-04-2.83069E-01-1.09290E-13-3.51712E-13
 -1       848 2.00029E+01 1.89113E-02-3.72262E-06 3.66990E-03-5.32785E-14-1.58701E-13
 -1       849 1.97500E+01 2.46050E+00-9.93491E-04-1.92096E-01-7.67673E-15-3.77355E-13
 -1       850 1.13824E+01 7.23124E-01 6.44704E-02 2.72478E-02 1.22554E-13-5.79363E-13
 -1       851 2.03423E+01 1.91879E-01 3.34842E-05-1.12667E+00-1.12404E-14-1.07672E-13
 -1       852 2.36288E+01 3.47584E+00-3.88980E-02-7.39779E-01 4.11240E-13 8.57595E-14
 -1       853 2.00054E+01 1.64649E-02-4.23406E-05 5.76336E-03-3.56821E-13 4.06865E-13
 -1       854 2.00011E+01 2.30509E-02-1.52666E-06 3.24274E-03 2.65250E-13-1.92302E-13
 -1       855 1.99997E+01 2.57837E-02-7.38743E-07 1.78290E-03 2.43610E-13-1.59426E-13
 -1       856 2.00044E+01 1.70681E-02 3.62993E-05-4.10510E-03 2.38627E-13-6.15889E-13
 -1       857 2.00393E+01 1.90608E+00-1.74899E-04 1.92585E-01 2.24370E-13-2.96880E-13
 -1       858 1.87493E+01-2.60843E+00 5.61330E-02 4.37365E+00 3.10983E-13-8.88629E-14
 -1       859 1.35354E+01-3.05987E-01 5.95681E-02 3.38262E+00 2.50225E-13-3.68134E-13
 -1       860 1.13271E+01 8.05849E-01 6.26614E-02-4.13957E-01-6.48010E-14 4.04253E-13
 -1       861 2.02858E+01 3.56204E-01 5.41702E-05-9.55943E-01 6.91766E-14-6.65619E-14
 -1       862 1.98577E+01 2.17654E+00-3.29616E-04 1.13950E-01 1.70960E-13-2.86069E-13
 -1       863 2.00044E+01 1.36590E-02 6.46949E-06 2.98896E-03-2.00007E-14 4.18289E-13
 -1       864 2.03307E+01 8.76935E-01 2.03618E-04-1.91429E-01 2.11845E-13-1.30190E-13
 -1       865 1.98010E+01 1.12609E+00-9.14258E-04 5.91952E-01-3.89092E-14-2.93964E-13
 -1       866 1.95784E+01 1.04824E+00 2.23050E-05 8.34307E-01-3.25040E-14-2.29859E-13
 -1       867 1.92887E+01 1.01738E+00 1.47591E-05 1.05998E+00-1.16628E-14-1.69962E-13
 -1       868 1.89287E+01 9.97823E-01-5.84546E-07 1.29261E+00 2.33688E-14-2.01112E-13
 -1       869 1.84955E+01 9.39381E-01-5.39528E-05 1.56101E+00 4.04765E-14-2.60739E-13
 -1       870 1.79925E+01 7.74580E-01-5.40958E-04 1.91143E+00 7.46781E-14-2.65005E-13
 -1       871 1.74468E+01 4.02460E-01-1.38197E-04 2.41476E+00 1.64372E-13-2.63541E-13
 -1       872 1.69488E+01-3.22548E-01 1.50749E-02 3.17869E+00 2.05151E-13-2.72975E-13
 -1       873 2.00133E+01 1.84514E+00-5.64764E-04-1.27632E-01-9.32912E-14-3.49712E-13
 -1       874 1.69613E+01-7.24615E-02 9.89933E-03-2.89481E+00-2.79581E-14 1.85943E-13
 -1       875 1.74471E+01 5.72099E-01 1.99301E-03-2.18259E+00-3.57017E-14 1.45930E-13
 -1       876 1.79537E+01 8.79368E-01 1.36649E-04-1.70417E+00-6.75342E-14 1.62503E-13
 -1       877 1.84047E+01 9.88741E-01-1.35913E-05-1.37286E+00-8.15176E-14 8.84497E-14
 -1       878 1.87837E+01 9.80018E-01-1.22171E-06-1.12521E+00 1.91293E-14-1.16928E-14
 -1       879 1.90898E+01 9.06472E-01 1.92251E-05-9.27086E-01-1.23065E-13-1.71387E-13
 -1       880 1.93306E+01 8.01876E-01 1.54080E-05-7.60959E-01-4.38949E-14-2.45862E-13
 -1       881 1.95160E+01 6.87020E-01 3.85297E-06-6.18639E-01-3.40079E-14-1.57838E-13
 -1       882 1.96564E+01 5.74192E-01 2.08585E-06-4.96512E-01-4.07055E-14-9.28102E-14
 -1       883 1.97610E+01 4.70279E-01 6.18964E-06-3.92644E-01 3.64748E-14 5.54564E-14
 -1       884 1.98376E+01 3.78528E-01 5.67052E-06-3.05494E-01-3.34090E-14 2.20484E-13
 -1       885 1.98929E+01 2.99892E-01 3.36395E-06-2.33531E-01 6.63944E-14 3.01529E-13
 -1       886 1.99322E+01 2.34045E-01 1.67414E-06-1.75124E-01 1.74925E-13 1.57235E-13
 -1       887 1.99595E+01 1.79977E-01 7.74648E-07-1.28530E-01 4.09659E-13-1.84483E-13
 -1       888 1.99780E+01 1.36333E-01 1.81447E-07-9.19876E-02-1.54086E-13 2.50122E-14
 -1       889 1.99900E+01 1.01629E-01-1.28013E-07-6.38187E-02-2.06956E-13 1.94465E-13
 -1       890 1.99975E+01 7.43916E-02 7.59831E-10-4.24987E-02-1.17532E-13-2.94428E-13
 -1       891 2.00016E+01 5.32364E-02 1.86409E-06-2.67037E-02-2.06575E-13-2.67618E-13
 -1       892 2.00036E+01 3.67823E-02-1.86956E-05-1.52681E-02-1.06869E-13-1.44345E-13
 -1       893 2.01253E+01-5.69539E-02 3.01577E-05-1.45693E+00-4.65860E-15-1.51475E-13
 -1       894 2.25857E+01-2.43117E+00 5.21753E-03-1.29134E+00-2.18947E-13 6.56619E-14
 -1       895 2.15217E+01-1.72836E+00 1.09606E-03-1.62974E+00-1.23887E-13-5.19890E-14
 -1       896 2.52235E+01-2.17009E+00-1.85863E-02 8.15957E-01-7.60789E-14 1.96259E-13
 -1       897 1.73281E+01-1.41321E+00 3.26241E-02-3.92912E+00 4.28542E-14 2.35889E-13
 -1       898 2.28268E+01-2.49956E+00-3.09341E-04 1.03560E+00-2.61467E-13-3.83069E-13
 -1       899 2.16665E+01-1.81551E+00 4.14742E-03 1.46163E+00-1.00108E-13-1.13159E-13
 -1       900 2.08432E+01-1.10086E+00 1.70892E-03 1.56157E+00-1.22694E-13-1.58954E-13
 -1       901 2.03208E+01-5.15360E-01 1.91124E-04 1.48900E+00-1.78169E-13-6.50326E-15
 -1       902 2.00219E+01-9.51433E-02 7.13632E-05 1.34112E+00-1.58201E-13 8.10583E-15
 -1       903 1.98721E+01 1.74719E-01 5.73921E-05 1.16669E+00 2.54197E-13-2.08435E-13
 -1       904 1.98136E+01 3.27256E-01 4.41599E-05 9.91038E-01 2.84780E-13-1.02311E-13
 -1       905 1.98068E+01 3.95891E-01 2.64813E-05 8.25968E-01 7.96680E-15-1.57977E-13
 -1       906 1.98264E+01 4.08721E-01 1.53206E-05 6.76684E-01-5.04470E-14-2.94864E-13
 -1       907 1.98569E+01 3.87153E-01 1.34527E-05 5.45295E-01 8.42024E-14-1.49810E-13
 -1       908 1.98894E+01 3.46736E-01 1.05909E-05 4.32278E-01-8.58113E-14 8.55191E-14
 -1       909 1.99191E+01 2.98216E-01 6.66312E-06 3.37006E-01 5.56623E-15 7.42150E-14
 -1       910 1.99442E+01 2.48488E-01 3.19308E-06 2.58141E-01-1.33633E-13 8.14086E-14
 -1       911 1.99641E+01 2.01643E-01 2.29548E-06 1.94005E-01-1.38254E-13-8.11244E-14
 -1       912 1.99790E+01 1.59867E-01 1.67327E-06 1.42746E-01-1.14767E-13 4.44106E-14
 -1       913 1.99897E+01 1.24064E-01 1.29222E-06 1.02469E-01-3.60872E-14 1.90651E-14
 -1       914 1.99968E+01 9.43027E-02 7.65909E-07 7.13526E-02-1.53977E-14 1.60921E-13
 -1       915 2.00013E+01 7.01518E-02-4.99353E-08 4.77405E-02-1.67345E-13 2.65713E-13
 -1       916 2.00036E+01 5.09232E-02 1.04858E-06 3.01800E-02-9.72702E-14 5.26921E-13
 -1       917 2.00045E+01 3.58445E-02 5.28607E-06 1.75004E-02-3.99357E-14 5.58912E-13
 -1       918 1.40603E+01 1.31476E-01 2.82057E-02-2.72235E+00-1.07249E-13-3.19916E-13
 -1       919 2.00017E+01 3.17899E-02 1.78749E-05-8.27535E-03-1.17628E-13-3.75137E-13
 -1       920 2.19110E+01-3.06493E+00 5.27263E-03 2.58608E+00-2.16867E-13-1.43705E-13
 -1       921 2.01256E+01 8.26014E-01 9.22844E-05-5.83316E-01 1.39184E-13-1.95409E-13
 -1       922 1.72466E+01-1.62191E+00 1.76624E-02-4.07455E+00-1.75489E-13-2.63222E-13
 -1       923 1.40983E+01 1.08652E-01 3.63336E-02-2.86966E+00-4.98980E-14 4.81872E-13
 -1       924 1.96808E+01 2.48251E+00-3.54616E-04-9.51720E-02 5.50390E-14-3.67540E-13
 -1       925 1.28792E+01 3.23302E-01 3.99315E-02 2.51570E+00 4.78166E-15 1.00246E-13
 -1       926 2.39134E+01-2.79192E+00-1.52366E-03-4.56130E-01-8.94096E-14 1.20877E-13
 -1       927 2.13026E+01-3.15659E+00 1.22594E-02-3.25577E+00-2.55060E-13-1.58705E-13
 -1       928 2.43061E+01-3.52232E+00 3.30799E-05-1.20116E+00-1.66533E-13 2.48537E-14
 -1       929 2.41576E+01-2.78747E+00 8.42063E-04 2.52213E-01-2.36963E-14-4.46560E-13
 -1       930 1.99567E+01 1.30826E+00 2.29699E-03 3.29690E-01-6.47352E-14-3.13296E-13
 -1       931 1.36544E+01 7.69837E-01 2.62367E-02-1.36914E+00-2.54577E-14-4.13727E-13
 -1       932 1.98326E+01 2.11110E+00-1.03080E-04-9.71782E-02-3.11214E-14-3.40021E-13
 -1       933 1.97126E+01 1.98636E+00-7.01876E-05-6.50752E-02 7.88790E-14-3.33189E-13
 -1       934 1.52603E+01-6.35792E-01 3.12420E-02 3.65255E+00-2.12915E-14-1.42505E-13
 -1       935 2.00361E+01 2.33107E-01 7.41471E-05-1.26889E+00 1.94294E-14-2.03498E-13
 -1       936 2.03544E+01-4.69112E-01 6.76395E-05-1.61225E+00-3.38999E-14-1.29549E-13
 -1       937 2.00045E+01 2.57914E-02 1.94587E-06-8.99082E-03 1.38423E-13-3.35869E-13
 -1       938 1.33018E+01 6.34921E-01 3.13730E-02 1.76695E+00 2.20879E-13-3.28494E-13
 -1       939 2.01661E+01 1.33859E+00-1.63812E-05-8.27330E-02 2.05156E-13-2.16543E-13
 -1       940 2.07908E+01-1.02984E+00-2.27275E-04-1.69585E+00-3.98146E-14-6.09811E-14
 -1       941 2.00698E+01 6.28540E-01 8.32909E-06-8.35879E-01 7.38531E-14-2.10463E-13
 -1       942 1.99987E+01 3.68342E-02-1.79372E-06-5.90495E-03-1.54110E-13 1.61544E-13
 -1       943 2.00040E+01 2.77536E-02 1.26142E-05 1.02351E-02-2.71884E-13 3.19672E-13
 -1       944 1.99967E+01 3.96171E-02 2.29947E-07 1.80710E-03 1.05200E-13-4.26746E-13
 -1       945 2.02584E+01 1.10696E+00 4.13277E-04-1.33076E-01 2.04377E-13-1.75170E-13
 -1       946 1.92954E+01-2.00749E+00 8.17753E-03 3.40935E+00-2.14964E-13-1.58371E-13
 -1       947 1.59553E+01-9.61707E-01 3.78583E-02 3.88988E+00 2.45533E-13-2.66645E-13
 -1       948 1.98153E+01 1.85825E+00-7.18737E-05-7.94654E-02 1.10433E-13-2.90562E-13
 -1       949 1.99969E+01 3.95966E-02-1.55979E-06-2.32479E-03-3.08972E-14-2.32774E-13
 -1       950 2.01691E+01 1.08658E+00-5.49198E-04-2.90356E-01 1.68225E-13-1.98153E-13
 -1       951 1.29825E+01 1.01186E+00 2.86940E-02 7.43928E-01-1.22566E-13 4.02922E-13
 -1       952 1.32890E+01 8.33079E-01 3.43194E-02-1.50865E+00-2.56954E-13 3.96783E-13
 -1       953 1.74109E+01-1.43810E+00 2.11329E-02 3.77162E+00-2.08529E-13-4.60495E-14
 -1       954 2.00011E+01 3.18420E-02-9.28085E-06 8.14633E-03 1.81931E-13 2.96585E-13
 -1       955 1.99983E+01 3.68963E-02-1.05867E-05 5.60414E-03 4.31075E-13-3.33277E-13
 -1       956 1.91550E+01 1.19268E+00-4.58626E-04 6.57491E-01-5.35564E-15-2.49076E-13
 -1       957 1.87289E+01 1.17611E+00-1.37003E-04 8.04463E-01 2.80324E-15-2.42275E-13
 -1       958 1.81814E+01 1.17010E+00-4.11557E-05 9.59831E-01-4.84752E-15-2.37683E-13
 -1       959 1.74806E+01 1.13359E+00 1.69806E-04 1.15528E+00 5.51569E-14-2.54542E-13
 -1       960 1.65780E+01 1.02237E+00-5.14840E-05 1.45512E+00 1.12649E-13-2.49944E-13
 -1       961 1.54105E+01 7.46007E-01 1.70526E-02 1.94414E+00 1.57871E-13-3.13595E-13
 -1       962 1.54829E+01 9.01716E-01 3.49754E-03-1.73964E+00-2.07238E-13 2.34241E-13
 -1       963 1.48669E+01 3.78837E-01 2.02023E-02 2.40591E+00-1.86184E-14 2.53773E-14
 -1       964 1.99779E+01 1.63708E+00-6.38021E-05-8.27094E-02 1.54144E-13-2.60211E-13
 -1       965 1.65807E+01 1.12258E+00-4.22244E-04-1.28741E+00-9.54674E-15 7.00006E-14
 -1       966 1.73997E+01 1.19631E+00-2.17588E-04-1.01541E+00-1.45068E-13 4.28985E-14
 -1       967 1.80249E+01 1.17111E+00-1.58158E-04-8.35879E-01 7.04321E-14 4.97757E-14
 -1       968 1.85060E+01 1.08824E+00-3.76771E-05-7.02616E-01-1.71386E-13-1.49369E-13
 -1       969 1.88780E+01 9.74029E-01-4.85273E-06-5.92535E-01-1.97582E-13-1.93278E-13
 -1       970 1.91655E+01 8.46889E-01-2.51798E-05-4.95891E-01-1.15009E-14-2.52592E-13
 -1       971 1.93867E+01 7.18687E-01-2.69119E-05-4.09445E-01 4.62783E-14-2.76806E-13
 -1       972 1.95554E+01 5.97513E-01-3.72901E-06-3.32640E-01 1.14003E-13-2.26792E-13
 -1       973 1.96829E+01 4.87978E-01 1.29637E-06-2.65431E-01 1.01611E-13-2.86208E-13
 -1       974 1.97783E+01 3.92012E-01-3.86324E-06-2.07739E-01 1.09631E-13-1.39566E-13
 -1       975 1.98488E+01 3.10006E-01-5.85069E-06-1.59349E-01 1.72346E-13 3.06186E-14
 -1       976 1.99000E+01 2.41455E-01-5.57524E-06-1.19643E-01 2.77498E-14 2.15516E-14
 -1       977 1.99366E+01 1.85228E-01-4.73605E-06-8.77177E-02 6.60370E-14-5.57393E-13
 -1       978 1.99620E+01 1.39881E-01-3.62975E-06-6.25483E-02-2.52604E-14-4.78877E-13
 -1       979 1.99792E+01 1.03834E-01-3.75585E-06-4.31001E-02-2.70468E-13-3.16089E-13
 -1       980 1.99903E+01 7.55121E-02-2.46626E-06-2.83712E-02-6.91686E-14-2.65621E-13
 -1       981 1.99970E+01 5.35540E-02-5.70544E-07-1.73576E-02-1.57977E-13-1.59034E-13
 -1       982 2.08988E+01-2.00941E+00 4.43363E-03 2.33269E+00-2.05565E-13-3.10773E-13
 -1       983 1.96739E+01-6.20432E-01-8.66779E-04 1.94297E+00-1.60418E-13-2.17342E-13
 -1       984 1.94178E+01-8.51172E-02 1.99423E-04 1.62185E+00-1.51284E-13-2.87079E-13
 -1       985 1.93389E+01 2.50639E-01 6.60434E-05 1.33185E+00 5.94885E-14-2.49328E-13
 -1       986 1.93591E+01 4.39803E-01 6.75820E-05 1.08282E+00 1.41978E-13-8.54304E-14
 -1       987 1.94291E+01 5.25119E-01 1.01234E-06 8.74142E-01 1.04025E-13 1.21447E-13
 -1       988 1.95188E+01 5.41815E-01-2.71732E-05 7.00494E-01 9.17763E-14 8.35069E-14
 -1       989 1.96111E+01 5.15482E-01 2.55738E-06 5.56383E-01-1.95614E-13 9.29795E-14
 -1       990 1.96966E+01 4.64734E-01 7.96172E-06 4.37417E-01-1.62309E-13 3.51845E-13
 -1       991 1.97708E+01 4.02802E-01-6.75915E-06 3.39918E-01-9.86139E-14 3.33308E-13
 -1       992 1.98323E+01 3.38571E-01-1.63507E-05 2.60613E-01-1.81160E-13 4.02102E-13
 -1       993 1.98815E+01 2.77288E-01-1.34625E-05 1.96769E-01 9.39010E-15 3.78775E-13
 -1       994 1.99195E+01 2.21981E-01-1.03743E-05 1.45998E-01-5.57491E-14 3.99990E-13
 -1       995 1.99479E+01 1.74034E-01-6.99068E-06 1.06135E-01 1.36109E-14 2.84439E-13
 -1       996 1.99684E+01 1.33761E-01-5.51928E-06 7.52725E-02-1.67040E-13 1.26599E-13
 -1       997 1.99827E+01 1.00740E-01-8.95940E-06 5.17057E-02-1.21140E-13 2.48367E-13
 -1       998 1.99922E+01 7.41967E-02-7.19887E-06 3.40167E-02-4.26598E-13 5.79823E-13
 -1       999 1.99979E+01 5.32846E-02-1.11207E-06 2.10367E-02-1.04170E-13 6.80035E-13
 -1      1000 1.94988E+01-1.70952E+00 5.10915E-03-3.09728E+00-1.08811E-13-1.25760E-13
 -1      1001 1.99998E+01 4.19154E-02 1.22246E-05 1.36268E-02 1.82409E-13 7.50639E-13
 -1      1002 1.96904E+01 2.00962E+00-7.37130E-04-3.71763E-02 2.97223E-14-3.01907E-13
 -1      1003 1.45011E+01 3.12296E-01 2.63876E-02 2.54227E+00 2.26925E-13-4.05725E-13
 -1      1004 2.00306E+01 4.46012E-01 5.02985E-05-1.06206E+00 2.34509E-14-1.92046E-13
 -1      1005 1.99796E+01 1.18152E+00 5.62837E-04-3.95235E-01 1.52351E-13-2.29804E-13
 -1      1006 1.97741E+01 1.52758E+00-6.31293E-04 2.15916E-01-4.04281E-14-2.52581E-13
 -1      1007 1.65867E+01-2.97545E-01 3.54842E-03-2.89541E+00-7.91880E-14-2.76793E-13
 -1      1008 2.01339E+01-1.24316E+00-1.41321E-03 2.18577E+00-7.42237E-14-2.17784E-14
 -1      1009 2.10967E+01-2.25872E+00-7.34908E-04-2.48455E+00-1.77833E-13-2.51123E-13
 -1      1010 1.94802E+01 1.25967E+00 5.99670E-04 5.03662E-01 5.67946E-15-2.17947E-13
 -1      1011 1.42061E+01 1.07624E+00 9.55367E-03 2.43256E-01 6.78344E-14-2.99729E-13
 -1      1012 1.63771E+01-2.89644E-01 1.25199E-02 2.96100E+00-4.50573E-14-3.22879E-13
 -1      1013 1.95828E+01 3.01767E-01 1.03308E-04-1.38804E+00 2.51960E-15-1.81023E-13
 -1      1014 1.99928E+01 5.42527E-02-1.03464E-05 6.51921E-03-1.48787E-14-6.58715E-13
 -1      1015 1.95896E+01-4.34227E-02-7.73740E-05-1.67569E+00-4.21457E-14-2.00024E-13
 -1      1016 1.96224E+01 1.70524E+00-2.67500E-04-7.97558E-02 3.18457E-14-3.13999E-13
 -1      1017 2.27581E+01-2.75074E+00 1.04935E-02-1.52242E+00-1.65125E-13-8.61685E-14
 -1      1018 2.02094E+01-1.28449E+00 4.64863E-04-2.29706E+00-6.55105E-14-1.75696E-13
 -1      1019 1.87349E+01-1.07986E+00-1.70753E-04 2.85634E+00-1.33815E-13-2.18139E-13
 -1      1020 1.98856E+01 9.39397E-01 7.96649E-05-6.43104E-01 9.24367E-14-1.78760E-13
 -1      1021 1.57720E+01 3.96282E-01 1.12331E-02-2.12846E+00-4.03110E-14-2.62853E-13
 -1      1022 1.99916E+01 5.61832E-02-8.18136E-06-2.31312E-04 4.31546E-14-4.63040E-13
 -1      1023 1.97036E+01 1.61759E+00-1.77320E-04-1.90321E-01 8.24157E-14-2.66557E-13
 -1      1024 1.99960E+01 4.88695E-02 2.02237E-05 1.08439E-02 1.22695E-13-2.05478E-13
 -1      1025 1.53355E+01 1.25740E+00 5.41044E-03-3.85778E-01-1.14585E-13 5.37028E-13
 -1      1026 1.82198E+01 1.25117E+00-2.55365E-04 3.67699E-01 9.54451E-15-2.22376E-13
 -1      1027 1.75075E+01 1.24962E+00 1.25009E-04 3.81683E-01 2.75156E-14-2.22342E-13
 -1      1028 1.65771E+01 1.23276E+00-6.69261E-04 4.05266E-01 9.31153E-14-2.04572E-13
 -1      1029 1.97281E+01 2.19594E+00 1.42361E-03-6.02512E-02 1.33345E-14-3.27069E-13
 -1      1030 1.97716E+01 7.41657E-01 8.05719E-05-8.83200E-01 3.12937E-14-1.80698E-13
 -1      1031 1.87994E+01 5.97155E-01 1.12085E-04 1.11755E+00-1.16458E-13 3.94792E-14
 -1      1032 1.97624E+01-5.62010E-01-2.83395E-03-1.99483E+00-5.20621E-14-1.34470E-13
 -1      1033 1.65105E+01 1.30985E+00 1.80650E-03-3.53912E-01-1.18533E-13 4.34235E-13
 -1      1034 1.73638E+01 1.27561E+00-3.10353E-05-3.33825E-01-1.60477E-13 3.26529E-13
 -1      1035 1.79954E+01 1.19950E+00 1.76003E-05-3.22184E-01-2.09009E-13 2.12177E-14
 -1      1036 1.84771E+01 1.09029E+00 2.70796E-05-3.04892E-01-2.22784E-13 3.98670E-14
 -1      1037 1.88483E+01 9.65000E-01-1.35816E-04-2.79278E-01-3.33354E-14 8.65453E-14
 -1      1038 1.91370E+01 8.33460E-01-8.24772E-05-2.47719E-01 5.31634E-14 9.94285E-14
 -1      1039 1.93600E+01 7.04952E-01 1.86072E-05-2.13599E-01-6.58963E-15-1.32242E-13
 -1      1040 1.95319E+01 5.84468E-01-1.40702E-05-1.78973E-01-4.71548E-15-3.47377E-13
 -1      1041 1.96630E+01 4.76669E-01-5.02986E-05-1.45564E-01 2.45547E-13-4.27273E-13
 -1      1042 1.97624E+01 3.82058E-01-4.12609E-05-1.15451E-01 1.91411E-13-5.87643E-13
 -1      1043 1.98365E+01 3.01394E-01-3.59275E-05-8.93434E-02 1.36020E-13-6.07744E-13
 -1      1044 1.98908E+01 2.34074E-01-2.96663E-05-6.73766E-02-5.68613E-14-5.05647E-13
 -1      1045 1.99299E+01 1.78916E-01-2.30602E-05-4.94218E-02-7.91454E-14-2.82738E-13
 -1      1046 1.99573E+01 1.34523E-01-1.55687E-05-3.50823E-02-6.39748E-14-2.74865E-13
 -1      1047 1.99759E+01 9.92752E-02-1.20177E-05-2.40670E-02-7.08065E-14-1.12207E-13
 -1      1048 1.99880E+01 7.16189E-02-2.07112E-05-1.57088E-02 9.09686E-14-1.54195E-13
 -1      1049 1.86370E+01 3.98502E-01-2.19169E-04 1.45021E+00-7.00294E-14 3.59174E-14
 -1      1050 1.42090E+01 1.19926E+00 8.46100E-03 5.81723E-02-2.47591E-13 5.94672E-13
 -1      1051 1.85420E+01 3.11983E-02-7.40971E-04 1.89184E+00-2.11175E-13-2.57809E-14
 -1      1052 1.89838E+01 6.81118E-01-1.19549E-04 8.63024E-01 1.74070E-14 1.15183E-13
 -1      1053 1.91662E+01 6.90994E-01-1.98037E-04 6.67602E-01 9.05318E-14 7.59513E-14
 -1      1054 1.93339E+01 6.54242E-01 1.54845E-05 5.16389E-01-9.02193E-14 1.80635E-13
 -1      1055 1.94807E+01 5.89724E-01 4.85653E-05 3.98135E-01-2.42228E-13 3.41229E-13
 -1      1056 1.96042E+01 5.12734E-01-4.26487E-05 3.04958E-01-1.59286E-13 2.71970E-13
 -1      1057 1.97054E+01 4.33463E-01-7.83020E-05 2.31788E-01-1.85680E-13 2.75688E-13
 -1      1058 1.97866E+01 3.57281E-01-6.00179E-05 1.74248E-01-8.05345E-14 3.77470E-13
 -1      1059 1.98497E+01 2.88116E-01-4.81297E-05 1.29320E-01-5.38809E-14 5.66116E-13
 -1      1060 1.98977E+01 2.27733E-01-3.86967E-05 9.44354E-02 4.99347E-15 5.60766E-13
 -1      1061 1.99332E+01 1.76551E-01-2.97176E-05 6.75588E-02 1.60244E-13 6.86282E-13
 -1      1062 1.99586E+01 1.34424E-01-2.65157E-05 4.71905E-02-1.18344E-13 4.66962E-13
 -1      1063 1.99763E+01 1.00387E-01 6.80203E-06 3.20181E-02-2.02022E-13 3.42505E-13
 -1      1064 1.99880E+01 7.30639E-02-2.12105E-06 2.04844E-02-2.01024E-13-2.68113E-13
 -1      1065 1.96432E+01 1.68282E+00-2.97220E-04 6.10962E-02 1.39714E-14-2.64645E-13
 -1      1066 1.82183E+01-3.65365E-01 3.74774E-03-2.47319E+00-4.61568E-14-1.87947E-13
 -1      1067 1.96590E+01 5.45704E-01 6.49041E-05-1.12719E+00 5.87028E-14-1.72316E-13
 -1      1068 1.87603E+01 1.26512E+00-4.57081E-04 3.37341E-01-1.69777E-15-2.32139E-13
 -1      1069 1.52704E+01 8.38034E-01 6.88067E-03 1.55773E+00-3.04724E-13 1.70782E-13
 -1      1070 1.99930E+01 5.47086E-02-4.54360E-06-7.04987E-03-2.45538E-15-2.01305E-13
 -1      1071 1.93191E+01 1.37977E+00 2.32180E-04 1.71421E-01-8.53787E-15-2.28344E-13
 -1      1072 1.90639E+01 1.30836E+00-5.90348E-05 2.47592E-01-1.06923E-14-2.23184E-13
 -1      1073 1.74551E+01 1.94204E-01 3.32903E-03-2.09033E+00-5.16449E-14-2.69978E-13
 -1      1074 1.98602E+01 1.43564E+00-1.37965E-04-2.76705E-01 1.38397E-13-2.10834E-13
 -1      1075 1.95210E+01 1.43990E+00-6.56616E-05-2.20662E-01 8.44069E-14-2.47970E-13
 -1      1076 1.89501E+01 4.28717E-01-3.69208E-04-1.45005E+00-1.30389E-14-1.41464E-13
 -1      1077 1.93927E+01 1.43192E+00 3.40758E-04-5.81125E-02 1.54385E-14-2.32408E-13
 -1      1078 1.91656E+01 6.73009E-01 1.12858E-04-1.12615E+00-6.18754E-15-1.92578E-13
 -1      1079 1.84895E+01-3.93982E-01-2.29264E-03 2.33483E+00-5.11045E-14-1.94719E-13
 -1      1080 1.54620E+01 9.79200E-01 6.41090E-03-9.35390E-01-3.31081E-14-3.33390E-13
 -1      1081 1.62317E+01 3.66843E-01 7.17581E-03 2.16083E+00-2.20357E-13-1.49753E-13
 -1      1082 1.99840E+01 7.57024E-02 4.64379E-06 5.56359E-03 8.45624E-14-4.64399E-13
 -1      1083 1.97563E+01 1.16453E+00 8.11195E-04-4.92421E-01 9.35155E-14-1.66186E-13
 -1      1084 1.88074E+01 6.54460E-02 3.61314E-04-1.86114E+00-5.48233E-14-1.07110E-13
 -1      1085 1.71124E+01 1.14012E+00-2.08283E-03-4.18373E-01 4.86779E-14-1.94247E-13
 -1      1086 1.58001E+01 1.10775E+00 2.23593E-03 8.79526E-01-1.46752E-13 3.86656E-13
 -1      1087 1.99698E+01 1.04683E-01-1.32937E-05 9.04406E-03 1.68724E-13-5.62494E-13
 -1      1088 1.95936E+01 9.58777E-01-2.42478E-04-7.13261E-01 6.40819E-14-1.92111E-13
 -1      1089 1.87815E+01 8.57595E-01 3.17517E-05 5.65832E-01-9.32023E-15 1.36229E-13
 -1      1090 1.99842E+01 7.61826E-02 5.99376E-05-5.51402E-03 6.70566E-15-1.57759E-13
 -1      1091 1.69621E+01 1.20688E+00-1.02249E-03 3.85725E-01-2.03970E-13 3.57404E-13
 -1      1092 1.76635E+01 1.18706E+00 4.94501E-04 2.16790E-01-3.82227E-13 2.68209E-13
 -1      1093 1.81952E+01 1.11795E+00 4.61309E-04 1.10482E-01-2.30975E-13 4.18411E-13
 -1      1094 1.86117E+01 1.01864E+00 1.59952E-04 3.91222E-02-1.27171E-13 5.09266E-13
 -1      1095 1.89488E+01 8.97148E-01 3.06272E-04-9.32733E-03-1.19483E-13 3.80865E-13
 -1      1096 1.92035E+01 7.76297E-01 1.29720E-04-3.40352E-02-1.89076E-13 3.39295E-13
 -1      1097 1.94038E+01 6.57609E-01 2.16888E-04-4.06437E-02-2.32181E-13 1.76318E-13
 -1      1098 1.95599E+01 5.46197E-01 4.63068E-05-4.16774E-02-1.33575E-13-8.34307E-14
 -1      1099 1.96826E+01 4.44063E-01-3.69212E-05-3.91325E-02 2.35784E-14-6.08626E-13
 -1      1100 1.97759E+01 3.55174E-01-2.53247E-05-3.38001E-02 1.84253E-14-7.45977E-13
 -1      1101 1.98458E+01 2.79398E-01-1.49588E-05-2.76322E-02 1.15517E-13-6.32456E-13
 -1      1102 1.98973E+01 2.16183E-01-9.11938E-06-2.16381E-02 8.90960E-14-4.26499E-13
 -1      1103 1.99345E+01 1.64402E-01 1.57405E-05-1.64122E-02 2.27047E-13-3.20726E-13
 -1      1104 1.99604E+01 1.22790E-01 9.41157E-06-1.20041E-02 5.23615E-14-3.47375E-13
 -1      1105 1.99741E+01 9.72902E-02 1.31333E-05-8.29805E-03 4.19383E-14-2.00686E-13
 -1      1106 1.81363E+01 8.06408E-01 1.97297E-04 1.03850E+00-1.15633E-13 5.29207E-14
 -1      1107 1.77389E+01 6.37937E-01-6.56175E-04 1.43347E+00-2.21589E-13-1.60593E-13
 -1      1108 1.90406E+01 7.99217E-01 7.45390E-04 4.17500E-01-2.07700E-13 1.54455E-13
 -1      1109 1.92579E+01 7.15285E-01 1.37529E-04 3.05122E-01-2.64498E-13 2.17226E-13
 -1      1110 1.94356E+01 6.22055E-01 3.76758E-04 2.26591E-01-1.38202E-13 3.00144E-13
 -1      1111 1.95741E+01 5.28539E-01-5.78929E-05 1.68957E-01-8.75966E-14 2.20756E-13
 -1      1112 1.96867E+01 4.37834E-01 3.02305E-05 1.23937E-01-3.91452E-13 3.01026E-13
 -1      1113 1.97757E+01 3.55001E-01 4.51657E-05 9.06204E-02-1.04878E-13 3.80464E-13
 -1      1114 1.98437E+01 2.82382E-01 3.74407E-05 6.55658E-02 1.25946E-13 3.87853E-13
 -1      1115 1.98945E+01 2.20596E-01 3.21166E-05 4.68094E-02 2.44276E-13 4.84996E-14
 -1      1116 1.99315E+01 1.69364E-01 1.65745E-05 3.27436E-02 2.05287E-13 7.18647E-14
 -1      1117 1.99532E+01 1.34537E-01 4.49941E-05 1.83098E-02 8.57092E-14-4.09022E-13
 -1      1118 1.84883E+01 8.62392E-01 8.01549E-05 7.61966E-01-2.79655E-14-8.20993E-14
 -1      1119 1.93962E+01 8.19025E-01 2.11353E-04-9.06880E-01 4.53494E-14-2.13159E-13
 -1      1120 1.73238E+01 4.37808E-01-2.01152E-03 1.83238E+00-2.16175E-13-1.83264E-13
 -1      1121 1.96157E+01 1.32371E+00 3.18801E-04-3.64382E-01 8.91097E-14-2.18330E-13
 -1      1122 1.84887E+01 1.22386E+00-5.05103E-04-1.17449E-01 2.78264E-14-1.78806E-13
 -1      1123 1.78892E+01 1.18961E+00 8.43262E-05-2.36154E-01 5.01446E-14-1.81539E-13
 -1      1124 1.93535E+01 1.23704E+00 4.99455E-04-4.03324E-01 7.28259E-14-2.21077E-13
 -1      1125 1.88518E+01 1.25661E+00-9.15381E-05-1.21934E-01 1.05969E-14-1.86090E-13
 -1      1126 1.85539E+01 8.42510E-01 1.19423E-04-1.00939E+00 1.31921E-14-1.61941E-13
 -1      1127 1.63934E+01 7.63140E-01-1.52808E-04 1.51724E+00-1.12198E-13 1.30951E-13
 -1      1128 1.81284E+01 6.44427E-01-2.03468E-04-1.37180E+00-3.07589E-14-2.33586E-13
 -1      1129 1.68931E+01 7.74435E-01 1.28377E-03-1.35692E+00-2.73007E-14-2.53119E-13
 -1      1130 1.91457E+01 1.31566E+00 2.38468E-04-1.25004E-01 8.07787E-15-1.64761E-13
 -1      1131 1.90476E+01 8.32453E-01-8.74045E-04 1.45959E-01-1.32477E-13 1.35915E-13
 -1      1132 1.81342E+01 1.00734E+00-1.31444E-03 5.74454E-01-6.20326E-14 1.30874E-13
 -1      1133 1.93292E+01 6.89381E-01-5.47621E-04 1.29661E-01-2.28536E-13-4.71425E-14
 -1      1134 1.74086E+01 1.04758E+00 2.02683E-04 7.69888E-01-3.05946E-13-6.87115E-14
 -1      1135 1.89252E+01 9.51106E-01-8.56444E-05-7.96430E-01-7.57380E-15-1.46081E-13
 -1      1136 1.91652E+01 1.12793E+00 1.26740E-04-5.33842E-01 3.87669E-14-1.81529E-13
 -1      1137 1.69058E+01 9.50788E-01 4.70235E-04 1.11846E+00-2.38740E-13-3.31578E-14
 -1      1138 1.84697E+01 1.11440E+00-2.75097E-04-4.92325E-01 2.17452E-14-1.70828E-13
 -1      1139 1.77818E+01 9.86598E-01-8.90219E-04-8.22393E-01 7.45508E-15-2.25906E-13
 -1      1140 1.88279E+01 1.13928E+00 1.48361E-05-4.55480E-01 7.55721E-15-1.36475E-13
 -1      1141 2.78049E+01 9.02880E+00 2.29093E+00-6.58862E+00-5.26246E-14 1.31192E-12
 -1      1142 2.06086E+01 6.24881E+00 2.20706E-01-3.76885E+00-2.65066E-14 2.21489E-14
 -1      1143 1.95367E+01 5.88636E+00 8.44421E-02-2.72026E+00-1.69309E-14-4.99425E-13
 -1      1144 1.91151E+01 5.75383E+00 6.43127E-02-2.05123E+00-1.03667E-14-7.28666E-13
 -1      1145 1.88894E+01 5.68385E+00 5.67576E-02-1.52290E+00-6.11663E-15-8.25489E-13
 -1      1146 1.87484E+01 5.63977E+00 5.08242E-02-1.08098E+00-2.94209E-15-8.46769E-13
 -1      1147 1.86566E+01 5.61082E+00 4.61102E-02-6.93682E-01-7.27716E-16-8.39375E-13
 -1      1148 1.86032E+01 5.59388E+00 4.30456E-02-3.37160E-01 9.41521E-16-8.15508E-13
 -1      1149 1.85864E+01 5.58858E+00 4.21572E-02 3.45931E-03 3.14635E-15-7.86628E-13
 -1      1150 1.86053E+01 5.59464E+00 4.34842E-02 3.45611E-01 5.49821E-15-7.52025E-13
 -1      1151 1.86599E+01 5.61204E+00 4.68713E-02 7.06492E-01 6.79491E-15-7.08171E-13
 -1      1152 1.87523E+01 5.64132E+00 5.20763E-02 1.10028E+00 9.46812E-15-6.33360E-13
 -1      1153 1.88925E+01 5.68517E+00 5.80094E-02 1.55032E+00 1.30139E-14-5.08673E-13
 -1      1154 1.91160E+01 5.75412E+00 6.43948E-02 2.08861E+00 1.54946E-14-3.05725E-13
 -1      1155 1.95283E+01 5.88193E+00 7.81092E-02 2.76546E+00 2.07057E-14 5.53984E-14
 -1      1156 2.05135E+01 6.20352E+00 1.64909E-01 3.74905E+00 2.08444E-14 7.09263E-13
 -1      1157 2.51100E+01 7.95643E+00 1.41131E+00 5.74693E+00 3.75810E-14 1.98003E-12
 -1      1158 2.85714E+01 3.55060E+00 1.21888E+00-4.14385E+00-2.03504E-13 2.11986E-12
 -1      1159 2.02416E+01-1.79765E-01-6.16941E-01-9.81912E-02-7.01036E-14 1.64052E-12
 -1      1160 1.90123E+01-9.83031E-02-2.35497E-01 6.42579E-02-3.11279E-14 9.93082E-13
 -1      1161 1.88312E+01-5.21263E-02-6.32911E-02 4.14361E-02-8.76903E-15 5.81833E-13
 -1      1162 1.89592E+01-3.09046E-02-2.26362E-02 2.83564E-02-9.16671E-15 2.99587E-13
 -1      1163 1.92783E+01-2.16408E-02-1.57791E-02 2.19855E-02-1.64192E-14 1.01995E-13
 -1      1164 1.97391E+01-1.75301E-02-1.57063E-02 1.91970E-02-7.25982E-15-6.37337E-14
 -1      1165 2.03258E+01-1.59802E-02-1.71547E-02 1.89142E-02 3.11621E-15-1.30312E-13
 -1      1166 2.10393E+01-1.54388E-02-1.89124E-02 2.07520E-02 1.67119E-15-2.82184E-13
 -1      1167 2.18873E+01-1.44691E-02-1.96250E-02 2.45645E-02-1.27619E-14-4.11695E-13
 -1      1168 2.28712E+01-1.12406E-02-1.67204E-02 2.99769E-02-1.62551E-14-6.42798E-13
 -1      1169 2.39687E+01-3.24143E-03-5.89112E-03 3.56922E-02-3.55818E-15-7.03354E-13
 -1      1170 2.51046E+01 1.25577E-02 1.87130E-02 3.83990E-02-1.13342E-14-6.91530E-13
 -1      1171 2.61119E+01 3.83659E-02 6.19194E-02 3.14952E-02-1.38735E-14-7.69065E-13
 -1      1172 2.66995E+01 7.19322E-02 1.20050E-01 5.14869E-03 7.18869E-15-4.79367E-13
 -1      1173 2.64724E+01 1.00510E-01 1.69205E-01-4.90732E-02-2.28333E-14-5.00773E-13
 -1      1174 2.50874E+01 9.76740E-02 1.59696E-01-1.24629E-01-7.84702E-15-6.75487E-13
 -1      1175 2.25927E+01 3.38897E-02 4.51280E-02-1.84583E-01-1.45513E-14-8.84209E-13
 -1      1176 1.97599E+01-8.13171E-02-1.50320E-01-1.71579E-01-4.96998E-16-1.12027E-12
 -1      1177 1.79322E+01-1.73771E-01-3.01970E-01-6.14859E-02 1.51146E-14-1.14464E-12
 -1      1178 1.81628E+01-1.62995E-01-2.83915E-01 8.89372E-02 9.07607E-15-1.11756E-12
 -1      1179 2.03265E+01-5.81516E-02-1.11912E-01 1.82526E-01-3.05042E-14-1.16840E-12
 -1      1180 2.32302E+01 5.08298E-02 7.47033E-02 1.77584E-01-3.26215E-15-1.20098E-12
 -1      1181 2.55912E+01 1.01365E-01 1.67206E-01 1.10298E-01-8.13767E-14-1.46060E-12
 -1      1182 2.67910E+01 9.54501E-02 1.60594E-01 3.73215E-02-4.35329E-15-1.53934E-12
 -1      1183 2.68913E+01 6.38967E-02 1.06321E-01-1.09478E-02 5.10616E-15-1.27743E-12
 -1      1184 2.62695E+01 3.09902E-02 4.96530E-02-3.21874E-02 2.55156E-14-6.16011E-13
 -1      1185 2.53106E+01 7.04056E-03 9.86278E-03-3.57795E-02-2.53956E-14-7.37313E-13
 -1      1186 2.42832E+01-6.94097E-03-1.17824E-02-3.11093E-02-1.30615E-14-5.99604E-13
 -1      1187 2.33343E+01-1.34302E-02-2.06097E-02-2.40302E-02 3.10695E-14-3.21167E-13
 -1      1188 2.25253E+01-1.52800E-02-2.21684E-02-1.72978E-02-6.55600E-14-3.93890E-13
 -1      1189 2.18686E+01-1.46502E-02-2.02985E-02-1.18521E-02 5.08968E-14-4.26761E-13
 -1      1190 2.13529E+01-1.29081E-02-1.71872E-02-7.78882E-03-2.10509E-15-2.76582E-13
 -1      1191 2.09576E+01-1.08234E-02-1.39194E-02-4.89709E-03-5.87112E-14-2.76015E-13
 -1      1192 2.06607E+01-8.78636E-03-1.09592E-02-2.90385E-03 2.81278E-14-4.00564E-13
 -1      1193 2.04418E+01-6.96946E-03-8.45806E-03-1.56531E-03 3.65104E-14-3.34927E-13
 -1      1194 2.02833E+01-5.42888E-03-6.42511E-03-6.90034E-04 2.02003E-14-5.61813E-13
 -1      1195 2.01710E+01-4.16359E-03-4.81223E-03-1.36237E-04 1.56299E-15-5.16565E-13
 -1      1196 2.00934E+01-3.14731E-03-3.55440E-03 1.98051E-04 1.96277E-14-3.84328E-13
 -1      1197 2.00416E+01-2.34496E-03-2.58705E-03 3.85132E-04-1.04660E-14-7.42226E-13
 -1      1198 2.00087E+01-1.72063E-03-1.85256E-03 4.75933E-04-6.28870E-14-1.20493E-12
 -1      1199 1.99893E+01-1.24096E-03-1.30177E-03 5.06179E-04-1.95486E-14-1.08764E-12
 -1      1200 1.99795E+01-8.76279E-04-8.93535E-04 5.00793E-04 6.45561E-14-5.30668E-13
 -1      1201 1.99763E+01-6.00629E-04-5.93265E-04 4.76949E-04-3.19447E-14-3.64553E-13
 -1      1202 1.99774E+01-3.91131E-04-3.70736E-04 4.46025E-04-5.87508E-15-4.44248E-13
 -1      1203 1.99814E+01-2.27008E-04-1.96649E-04 4.14435E-04 1.16417E-13 3.57286E-14
 -1      1204 1.99869E+01-8.86210E-05-3.72856E-05 3.82135E-04 7.03890E-15 5.20465E-13
 -1      1205 1.99927E+01 4.32038E-05 1.40510E-04 3.30699E-04-1.61325E-14 4.28830E-13
 -1      1206 1.99977E+01 1.74269E-04 3.31690E-04 2.18761E-04-3.55960E-14 4.19236E-14
 -1      1207 1.99998E+01 1.79016E-05 1.12076E-04-1.31960E-05 1.28001E-13 4.58571E-14
 -1      1208 2.75797E+01 5.18916E-01 3.41654E-01 1.94284E+00-3.52010E-14 3.00371E-12
 -1      1209 2.01161E+01-6.79158E-02-5.72868E-01 1.25166E-01 1.31839E-14 2.51960E-12
 -1      1210 1.90881E+01-4.29453E-02-1.92956E-01 1.88108E-02 6.66307E-15 2.03168E-12
 -1      1211 1.88531E+01-2.48227E-02-5.35491E-02 2.28029E-03-4.46691E-17 1.67792E-12
 -1      1212 1.89479E+01-1.67975E-02-1.89400E-02-2.73775E-03 7.54345E-15 1.43894E-12
 -1      1213 1.92274E+01-1.25480E-02-1.20052E-02-4.32705E-03 7.47492E-15 1.19497E-12
 -1      1214 1.96247E+01-9.79290E-03-1.04003E-02-5.29018E-03-3.36742E-15 1.11052E-12
 -1      1215 2.01051E+01-7.37900E-03-8.95865E-03-6.53864E-03-1.09230E-14 1.09054E-12
 -1      1216 2.06444E+01-4.43916E-03-6.36684E-03-8.47937E-03 7.65983E-15 8.91814E-13
 -1      1217 2.12172E+01-1.86671E-04-1.63197E-03-1.13146E-02 1.05395E-14 7.90090E-13
 -1      1218 2.17870E+01 6.02118E-03 6.38416E-03-1.49547E-02 9.35650E-15 6.47468E-13
 -1      1219 2.22970E+01 1.43750E-02 1.85488E-02-1.87635E-02-5.09618E-15 6.62108E-13
 -1      1220 2.26646E+01 2.40527E-02 3.45305E-02-2.12398E-02 1.81899E-14 5.54575E-13
 -1      1221 2.27832E+01 3.25743E-02 5.14689E-02-1.98673E-02-9.72746E-15 6.68034E-13
 -1      1222 2.25415E+01 3.56383E-02 6.29017E-02-1.16138E-02 2.72130E-14 5.96634E-13
 -1      1223 2.18663E+01 2.84222E-02 5.95455E-02 5.37208E-03-1.03702E-14 5.68816E-13
 -1      1224 2.07871E+01 8.92825E-03 3.37610E-02 2.90476E-02-3.39540E-14 7.14359E-13
 -1      1225 1.94914E+01-1.83102E-02-1.29670E-02 5.16175E-02 2.35535E-14 6.26117E-13
 -1      1226 1.83194E+01-4.19784E-02-6.50912E-02 6.16233E-02-3.71101E-15 4.79228E-13
 -1      1227 1.76542E+01-5.04766E-02-9.85118E-02 5.09328E-02-1.55796E-14 4.93678E-13
 -1      1228 1.77407E+01-4.06321E-02-9.61233E-02 2.19368E-02-2.71883E-14 4.33452E-13
 -1      1229 1.85518E+01-1.95367E-02-6.11013E-02-1.30997E-02 3.53259E-14 1.63695E-13
 -1      1230 1.98062E+01 1.81502E-03-1.31896E-02-3.96662E-02 1.35240E-14-9.02611E-14
 -1      1231 2.11207E+01 1.58493E-02 2.63926E-02-5.01626E-02-2.12352E-15-2.36346E-13
 -1      1232 2.21829E+01 2.09945E-02 4.65285E-02-4.59438E-02-7.25067E-14-1.20154E-13
 -1      1233 2.28397E+01 1.96076E-02 4.81999E-02-3.34148E-02-7.70130E-15 1.09888E-13
 -1      1234 2.30875E+01 1.49718E-02 3.87105E-02-1.91409E-02 3.01291E-14-1.11407E-13
 -1      1235 2.30121E+01 9.62553E-03 2.55200E-02-7.17818E-03-5.54071E-14-1.82396E-13
 -1      1236 2.27271E+01 4.95870E-03 1.34181E-02 1.03794E-03 6.09625E-15-2.18795E-13
 -1      1237 2.23357E+01 1.47747E-03 4.38514E-03 5.72046E-03-7.24908E-15-3.23035E-13
 -1      1238 2.19144E+01-8.16700E-04-1.40215E-03 7.74613E-03 1.33482E-14-4.14904E-13
 -1      1239 2.15121E+01-2.13883E-03-4.56629E-03 8.05706E-03 1.79696E-14-2.57603E-13
 -1      1240 2.11556E+01-2.75371E-03-5.90312E-03 7.40967E-03-5.54697E-14-7.68257E-14
 -1      1241 2.08556E+01-2.89893E-03-6.10119E-03 6.32495E-03-6.01727E-15-3.55774E-14
 -1      1242 2.06131E+01-2.75983E-03-5.66559E-03 5.12396E-03 5.09396E-15-2.85715E-13
 -1      1243 2.04236E+01-2.46898E-03-4.93174E-03 3.98408E-03-3.14620E-14-4.12329E-13
 -1      1244 2.02798E+01-2.11495E-03-4.10577E-03 2.98928E-03 1.02340E-13-1.08974E-12
 -1      1245 2.01741E+01-1.75306E-03-3.30462E-03 2.16742E-03-3.61687E-14-9.36393E-13
 -1      1246 2.00988E+01-1.41511E-03-2.58748E-03 1.51534E-03-2.47863E-14-3.37269E-13
 -1      1247 2.00471E+01-1.11703E-03-1.97812E-03 1.01465E-03 1.12186E-15-5.49371E-13
 -1      1248 2.00134E+01-8.64525E-04-1.47971E-03 6.40967E-04 6.52612E-15-4.28113E-13
 -1      1249 1.99930E+01-6.56909E-04-1.08419E-03 3.69073E-04-2.81185E-14-2.87886E-13
 -1      1250 1.99822E+01-4.89691E-04-7.77896E-04 1.75427E-04-1.95949E-14-5.18728E-13
 -1      1251 1.99781E+01-3.55950E-04-5.44444E-04 3.90755E-05 1.04461E-13-9.45375E-13
 -1      1252 1.99787E+01-2.46216E-04-3.64782E-04-5.82090E-05-2.47348E-14-1.00097E-12
 -1      1253 1.99822E+01-1.50084E-04-2.16709E-04-1.31543E-04-3.54659E-14-9.23819E-13
 -1      1254 1.99873E+01-5.36815E-05-7.19523E-05-1.93568E-04 6.61805E-15-1.34117E-12
 -1      1255 1.99929E+01 6.13985E-05 1.05717E-04-2.50195E-04 2.74165E-14-1.91533E-12
 -1      1256 1.99977E+01 1.89128E-04 3.02646E-04-2.64120E-04 1.97145E-14-1.33655E-12
 -1      1257 1.99998E+01 4.28229E-06 1.07619E-04 1.02176E-06-5.09777E-14-7.35707E-13
 -1      1258 1.99998E+01-2.31938E-05 8.86276E-05-2.20896E-05-7.17216E-13-4.03664E-15
 -1      1259 1.99999E+01-2.12862E-03 2.42563E-04-1.81137E-04-3.10125E-13 9.78240E-14
 -1      1260 1.99998E+01-6.47135E-03 4.34854E-05-2.58423E-04-1.25060E-13 4.46151E-14
 -1      1261 1.99997E+01-1.10764E-02-1.04323E-04-2.20532E-04-2.53436E-13-2.13601E-14
 -1      1262 1.99997E+01-1.49433E-02-1.56310E-04-1.57795E-04 4.66061E-14 4.52504E-14
 -1      1263 1.99997E+01-1.77501E-02-1.51735E-04-9.91285E-05-5.43319E-13-1.81515E-13
 -1      1264 1.99997E+01-1.95738E-02-1.22887E-04-5.76866E-05-3.46102E-13 1.59822E-15
 -1      1265 1.99997E+01-2.06076E-02-9.75882E-05-2.70186E-05-1.99202E-13-9.83216E-14
 -1      1266 1.99997E+01-2.09944E-02-8.97708E-05-3.76228E-06-5.22287E-13-8.36811E-14
 -1      1267 1.99997E+01-2.07853E-02-1.03839E-04 2.04703E-05 4.75779E-14 1.98769E-13
 -1      1268 1.99997E+01-1.98878E-02-1.33731E-04 5.39495E-05 1.16123E-13-1.31042E-13
 -1      1269 1.99997E+01-1.81249E-02-1.63953E-04 1.01665E-04-7.88959E-13 3.54942E-14
 -1      1270 1.99997E+01-1.52929E-02-1.68655E-04 1.62559E-04-1.06071E-12 8.99381E-14
 -1      1271 1.99997E+01-1.13091E-02-1.07116E-04 2.31706E-04-1.19690E-12-4.44832E-15
 -1      1272 1.99999E+01-6.49317E-03 8.01082E-05 3.14398E-04-1.64052E-12-1.43615E-13
 -1      1273 2.00000E+01-2.14692E-03 2.78500E-04 2.30537E-04-1.11125E-12-3.45916E-14
 -1      1274 1.99998E+01-4.81263E-05 6.30334E-05 4.47842E-05-6.38693E-14 1.10917E-13
 -1      1275-1.16194E+00-2.35486E+01-3.66926E+00-2.29022E+00 1.69803E-12 2.95923E-13
 -1      1276-1.78865E+00-1.41020E+01-2.97827E+00-3.68957E+00 2.50600E-12 9.93594E-13
 -1      1277 8.43868E-01-1.34906E+00-1.72376E+00 6.86569E-01 2.83018E-12 1.79989E-12
 -1      1278 1.01426E+01 8.46306E+00-1.23147E-01 9.14764E+00 2.28906E-12 2.23133E-12
 -1      1279 2.67036E+01 1.12159E+01 1.54008E+00 1.65067E+01 1.70575E-12 2.46936E-12
 -1      1280 4.68060E+01 7.92815E+00 2.96114E+00 1.73175E+01 7.58671E-13 1.58362E-12
 -1      1281 6.23545E+01 3.11099E+00 3.90030E+00 1.00591E+01 9.26481E-14-4.95159E-14
 -1      1282 6.64264E+01 1.73539E+00 4.15823E+00-2.40107E+00 1.69927E-13-1.88047E-12
 -1      1283 5.67775E+01 5.14088E+00 3.60758E+00-1.38375E+01 7.67136E-13-2.94020E-12
 -1      1284 3.84012E+01 9.86678E+00 2.44085E+00-1.81724E+01 1.60738E-12-3.08109E-12
 -1      1285 1.96165E+01 1.10795E+01 8.96659E-01-1.42363E+01 2.43250E-12-3.05378E-12
 -1      1286 5.95894E+00 5.77239E+00-6.92340E-01-5.96354E+00 2.76756E-12-2.38298E-12
 -1      1287-6.95015E-01-5.71389E+00-2.16577E+00 1.59841E+00 2.58615E-12-1.38745E-12
 -1      1288-1.63642E+00-1.80640E+01-3.25314E+00 4.07949E+00 1.70031E-12-5.87669E-13
 -1      1289-9.67948E-01-2.49688E+01-3.77737E+00 1.34368E+00 2.63123E-14-1.28886E-13
 -1      1290-1.27249E+00-2.37282E+01-3.73024E+00-2.92095E+00-1.69581E-12-3.97501E-13
 -1      1291-1.97877E+00-1.44608E+01-3.08243E+00-4.14062E+00-2.96430E-12-1.20676E-12
 -1      1292 3.87372E-01-2.13926E+00-1.91840E+00-2.04713E-03-3.23208E-12-2.01528E-12
 -1      1293 9.70081E+00 7.64688E+00-2.70972E-01 8.43183E+00-2.48934E-12-2.29061E-12
 -1      1294 2.70584E+01 1.08690E+01 1.46641E+00 1.62507E+01-1.70064E-12-2.51310E-12
 -1      1295 4.77478E+01 7.96032E+00 3.08033E+00 1.78398E+01-9.49740E-13-2.26952E-12
 -1      1296 6.38085E+01 3.47001E+00 4.19550E+00 1.06551E+01-2.45137E-13-8.93841E-13
 -1      1297 6.85700E+01 1.91571E+00 4.49263E+00-1.88502E+00-1.32068E-13 9.97952E-13
 -1      1298 6.03538E+01 4.48337E+00 3.96589E+00-1.33783E+01-6.14592E-13 2.40319E-12
 -1      1299 4.22427E+01 9.12470E+00 2.67440E+00-1.80205E+01-1.38567E-12 2.84817E-12
 -1      1300 2.21145E+01 1.07502E+01 1.04622E+00-1.47373E+01-2.43228E-12 3.10196E-12
 -1      1301 6.64686E+00 5.85820E+00-7.20503E-01-6.27233E+00-3.10263E-12 2.77667E-12
 -1      1302-6.74183E-01-4.96044E+00-2.21358E+00 1.53348E+00-2.05413E-12 1.29075E-12
 -1      1303-1.94037E+00-1.68404E+01-3.23204E+00 4.39042E+00-8.83071E-13 4.33931E-13
 -1      1304-1.07307E+00-2.45533E+01-3.77056E+00 2.17412E+00 6.61471E-13 8.22294E-14
 -1      1305 2.22385E+01 1.83928E+00-7.17373E-01-2.71664E+00-7.78544E-14 1.00864E-12
 -1      1306 2.04564E+01 4.68611E+00-4.45574E-02-3.15472E+00-1.88016E-13-2.19283E-13
 -1      1307 2.09372E+01 4.79330E+00-1.06184E-01-4.01862E+00-2.57960E-13 5.49491E-14
 -1      1308 1.96431E+01 5.00444E+00-1.79947E-02-2.47426E+00-1.77518E-13-6.05925E-13
 -1      1309 1.99426E+01 5.10086E+00 5.71097E-03-2.87549E+00-2.04600E-13-4.48447E-13
 -1      1310 2.06420E+01 3.94442E+00-2.32519E-02-2.90356E+00-3.21021E-13-1.99993E-13
 -1      1311 1.92639E+01 5.10606E+00-4.16464E-03-1.88185E+00-1.27977E-13-7.75446E-13
 -1      1312 1.94334E+01 5.16690E+00 1.41730E-02-2.17614E+00-1.52933E-13-7.01418E-13
 -1      1313 1.98646E+01 4.38371E+00-2.22334E-02-2.29926E+00-2.71451E-13-5.12639E-13
 -1      1314 1.90365E+01 5.15911E+00 1.35704E-03-1.38856E+00-8.54525E-14-8.38477E-13
 -1      1315 1.91423E+01 5.19720E+00 1.44715E-02-1.62984E+00-1.02536E-13-8.14616E-13
 -1      1316 1.94567E+01 4.59791E+00-1.82007E-02-1.74114E+00-1.92351E-13-6.53495E-13
 -1      1317 1.88883E+01 5.19241E+00 3.84026E-03-9.71765E-01-4.12127E-14-8.49498E-13
 -1      1318 1.89583E+01 5.21695E+00 1.31573E-02-1.17592E+00-5.85625E-14-8.44855E-13
 -1      1319 1.92083E+01 4.72437E+00-1.48036E-02-1.27384E+00-1.22594E-13-7.00766E-13
 -1      1320 1.87903E+01 5.21416E+00 5.06448E-03-5.95595E-01-6.00735E-15-8.40862E-13
 -1      1321 1.88352E+01 5.22953E+00 1.11254E-02-7.81140E-01-1.48067E-14-8.49498E-13
 -1      1322 1.90447E+01 4.80534E+00-1.27134E-02-8.69821E-01-4.90346E-14-7.22471E-13
 -1      1323 1.87385E+01 5.22729E+00 6.25804E-03-2.48332E-01 3.23869E-14-8.17775E-13
 -1      1324 1.87599E+01 5.23453E+00 9.06606E-03-4.21526E-01 2.08995E-14-8.28568E-13
 -1      1325 1.89416E+01 4.85409E+00-1.16946E-02-5.05061E-01 1.09771E-14-7.02154E-13
 -1      1326 1.87300E+01 5.23320E+00 7.69509E-03 8.78167E-02 6.35262E-14-7.83729E-13
 -1      1327 1.87290E+01 5.23280E+00 7.38416E-03-8.18838E-02 5.22497E-14-8.03361E-13
 -1      1328 1.88926E+01 4.87583E+00-1.12873E-02-1.64335E-01 6.82404E-14-6.81392E-13
 -1      1329 1.87642E+01 5.23251E+00 9.46373E-03 4.29807E-01 1.01662E-13-7.50068E-13
 -1      1330 1.87411E+01 5.22459E+00 6.09473E-03 2.55074E-01 8.76397E-14-7.70316E-13
 -1      1331 1.88951E+01 4.87314E+00-1.13547E-02 1.69664E-01 1.23237E-13-6.54216E-13
 -1      1332 1.88415E+01 5.22504E+00 1.14422E-02 7.94553E-01 1.31694E-13-7.01649E-13
 -1      1333 1.87958E+01 5.20944E+00 5.06473E-03 6.06134E-01 1.17474E-13-7.32088E-13
 -1      1334 1.89482E+01 4.84636E+00-1.19033E-02 5.13562E-01 1.78505E-13-6.21909E-13
 -1      1335 1.89636E+01 5.21100E+00 1.34400E-02 1.19258E+00 1.59078E-13-6.14186E-13
 -1      1336 1.88937E+01 5.18625E+00 3.85630E-03 9.85021E-01 1.47373E-13-6.67596E-13
 -1      1337 1.90529E+01 4.79407E+00-1.29528E-02 8.80696E-01 2.27384E-13-5.61932E-13
 -1      1338 1.91492E+01 5.18890E+00 1.47106E-02 1.65847E+00 2.05402E-13-4.77729E-13
 -1      1339 1.90431E+01 5.15076E+00 1.42961E-03 1.41264E+00 1.85994E-13-5.57845E-13
 -1      1340 1.92170E+01 4.70983E+00-1.51065E-02 1.29172E+00 2.80982E-13-4.63202E-13
 -1      1341 1.94392E+01 5.15742E+00 1.35485E-02 2.21543E+00 2.40453E-13-2.57981E-13
 -1      1342 1.92702E+01 5.09521E+00-4.72055E-03 1.91604E+00 2.21455E-13-3.91753E-13
 -1      1343 1.94683E+01 4.57798E+00-1.87641E-02 1.77180E+00 3.46426E-13-3.22076E-13
 -1      1344 1.99624E+01 5.10782E+00 1.10149E-02 2.91924E+00 2.59473E-13 1.37501E-13
 -1      1345 1.96491E+01 4.99386E+00-1.88989E-02 2.52152E+00 2.33549E-13-9.76962E-14
 -1      1346 1.98800E+01 4.35978E+00-2.28448E-02 2.34362E+00 3.79773E-13-6.99232E-14
 -1      1347 2.11626E+01 4.88916E+00 1.25378E-02 3.92118E+00 2.10415E-13 8.23924E-13
 -1      1348 2.04276E+01 4.72841E+00-4.40428E-02 3.26774E+00 2.11192E-13 4.08590E-13
 -1      1349 2.06750E+01 3.90702E+00-1.97835E-02 3.01209E+00 3.77396E-13 3.61267E-13
 -1      1350 2.70798E+01 3.17257E+00 9.04658E-01 4.48997E+00 8.66252E-14 2.06379E-12
 -1      1351 2.20400E+01 3.50775E+00-1.77436E-01 3.77588E+00 9.61176E-14 1.21389E-12
 -1      1352 2.21766E+01 2.54373E+00-2.99228E-02 3.31915E+00 3.34519E-13 9.82270E-13
 -1      1353 2.14274E+01 3.53276E-01-7.58238E-01 1.12270E+00 1.69316E-13 2.01011E-12
 -1      1354 2.20239E+01 1.27298E-01-3.98055E-01-1.21344E+00-2.18700E-13 1.09690E-12
 -1      1355 2.07798E+01 3.02002E-01-1.61093E-01-7.44620E-01-1.98480E-13 8.39953E-13
 -1      1356 2.02348E+01 1.53892E-01-7.18210E-02-3.40757E-01-1.55646E-13 7.42883E-13
 -1      1357 1.98409E+01 9.31195E-02-1.32691E-02-2.68957E-01-1.43711E-13 5.18932E-13
 -1      1358 2.11174E+01 3.64677E-01-1.03679E-01-1.15352E+00-3.36481E-13 3.69281E-13
 -1      1359 1.95502E+01 6.85274E-02 3.76698E-03-6.74457E-02-1.05519E-13 4.49616E-13
 -1      1360 1.94805E+01 4.67388E-02 1.41381E-02-4.71809E-02-9.33125E-14 2.95680E-13
 -1      1361 2.01850E+01 1.37171E-01-3.63085E-02-3.75950E-01-2.49994E-13 2.36517E-13
 -1      1362 1.94018E+01 3.88077E-02 1.34703E-02 5.66649E-02-7.58668E-14 2.23467E-13
 -1      1363 1.94880E+01 2.79012E-02 1.18020E-02 7.01450E-02-6.69829E-14 1.17906E-13
 -1      1364 1.98523E+01 6.54123E-02-1.04126E-02-1.63397E-02-1.76859E-13 1.20893E-13
 -1      1365 1.95355E+01 2.65059E-02 8.78276E-03 1.35130E-01-5.61942E-14 8.25347E-14
 -1      1366 1.97156E+01 2.06509E-02 7.15590E-03 1.45514E-01-6.73619E-14-1.20390E-15
 -1      1367 1.98239E+01 3.98676E-02-6.26623E-03 1.85498E-01-1.22305E-13 1.46255E-14
 -1      1368 1.98484E+01 2.17157E-02 4.43778E-03 1.95142E-01-6.10588E-14-3.35391E-14
 -1      1369 2.00998E+01 1.81775E-02 4.29572E-03 2.04547E-01-4.00136E-14-1.01200E-13
 -1      1370 1.99977E+01 3.12200E-02-5.83358E-03 3.24002E-01-1.16172E-13-3.16804E-14
 -1      1371 2.02989E+01 2.04958E-02 1.80968E-03 2.48984E-01-8.37698E-15-1.43628E-13
 -1      1372 2.06148E+01 1.79056E-02 2.62722E-03 2.58574E-01-2.58144E-14-1.81953E-13
 -1      1373 2.03188E+01 2.94759E-02-5.82538E-03 4.37750E-01-7.47588E-14-1.20393E-13
 -1      1374 2.08716E+01 2.08929E-02 5.31913E-05 3.02386E-01-2.99726E-14-2.08635E-13
 -1      1375 2.12523E+01 1.81710E-02 1.35156E-03 3.12657E-01-3.81117E-14-2.52741E-13
 -1      1376 2.07613E+01 3.06711E-02-5.93540E-03 5.44340E-01-7.09849E-14-1.76124E-13
 -1      1377 2.15624E+01 2.11915E-02-1.44467E-03 3.56364E-01-5.75349E-14-2.70239E-13
 -1      1378 2.20083E+01 1.70999E-02 7.85088E-05 3.67014E-01-8.66906E-14-3.69399E-13
 -1      1379 2.13129E+01 3.19122E-02-6.08221E-03 6.50059E-01-9.41565E-14-2.07503E-13
 -1      1380 2.23664E+01 1.90710E-02-2.81342E-03 4.06339E-01-8.63287E-14-3.68202E-13
 -1      1381 2.28706E+01 1.19637E-02-1.17885E-03 4.15794E-01-4.02330E-14-4.63924E-13
 -1      1382 2.19648E+01 2.94843E-02-5.91864E-03 7.50814E-01-1.25299E-13-2.41082E-13
 -1      1383 2.32645E+01 1.09848E-02-3.64130E-03 4.39524E-01-1.04580E-14-5.04839E-13
 -1      1384 2.38013E+01-1.18947E-03-1.89865E-03 4.44121E-01-2.08080E-14-5.18353E-13
 -1      1385 2.27012E+01 1.76573E-02-4.73319E-03 8.28761E-01-6.09094E-14-2.95083E-13
 -1      1386 2.42044E+01-8.04658E-03-2.79759E-03 4.31487E-01-2.81095E-14-4.96297E-13
 -1      1387 2.47144E+01-2.70755E-02-8.81577E-04 4.24532E-01-4.12307E-14-5.30322E-13
 -1      1388 2.34869E+01-1.17926E-02-1.36188E-03 8.46623E-01-4.13868E-14-3.59998E-13
 -1      1389 2.50783E+01-4.31968E-02 1.55995E-03 3.44712E-01 4.04884E-15-5.18051E-13
 -1      1390 2.54526E+01-6.84220E-02 3.53017E-03 3.16330E-01 1.97524E-14-4.92372E-13
 -1      1391 2.42528E+01-6.77453E-02 5.72822E-03 7.43541E-01-1.20780E-14-3.95441E-13
 -1      1392 2.57015E+01-9.48601E-02 1.09802E-02 1.36436E-01 7.56114E-14-4.65600E-13
 -1      1393 2.57818E+01-1.19054E-01 1.18668E-02 7.68371E-02 6.07153E-15-3.65654E-13
 -1      1394 2.48818E+01-1.51949E-01 1.76867E-02 4.42446E-01 4.54879E-14-3.33380E-13
 -1      1395 2.58197E+01-1.49045E-01 2.36719E-02-2.12760E-01-6.00024E-14-2.80678E-13
 -1      1396 2.54401E+01-1.54043E-01 2.06348E-02-3.03452E-01-4.95038E-14-3.71807E-13
 -1      1397 2.52066E+01-2.43570E-01 3.28240E-02-1.12462E-01 2.41977E-14-2.53320E-13
 -1      1398 2.51833E+01-1.66231E-01 3.11408E-02-6.43802E-01-3.95378E-14-3.80522E-13
 -1      1399 2.42817E+01-1.26961E-01 1.95494E-02-7.38160E-01-1.00557E-13-4.73982E-13
 -1      1400 2.50436E+01-2.81635E-01 4.33137E-02-8.73240E-01-5.74592E-14-1.11380E-13
 -1      1401 2.37314E+01-9.36066E-02 1.83712E-02-9.67837E-01-6.02092E-14-4.42299E-13
 -1      1402 2.25007E+01-2.51493E-03-1.85376E-03-1.00514E+00-8.52443E-14-5.39069E-13
 -1      1403 2.42907E+01-1.78503E-01 3.38242E-02-1.58477E+00-8.97598E-14-1.00912E-13
 -1      1404 2.18328E+01 7.66028E-02-1.70567E-02-9.22094E-01-1.06429E-13-6.15077E-13
 -1      1405 2.07573E+01 1.79023E-01-3.84058E-02-8.45683E-01-1.01821E-13-7.33941E-13
 -1      1406 2.30978E+01 8.29940E-02-1.00871E-02-1.79600E+00-1.58254E-13-2.51372E-13
 -1      1407 2.03114E+01 2.48581E-01-5.35465E-02-3.92415E-01-5.50150E-14-7.97418E-13
 -1      1408 1.99433E+01 2.88516E-01-6.14181E-02-2.20495E-01-7.46556E-14-8.45550E-13
 -1      1409 2.19772E+01 3.82830E-01-6.58068E-02-1.15580E+00-1.35753E-13-4.20775E-13
 -1      1410 2.00038E+01 2.80052E-01-5.96742E-02 3.79688E-01-1.26635E-14-9.47041E-13
 -1      1411 2.05571E+01 2.23272E-01-4.82219E-02 5.39985E-01-3.17836E-14-9.47666E-13
 -1      1412 2.15835E+01 4.97742E-01-8.94694E-02 1.49593E-01-8.11989E-14-5.91475E-13
 -1      1413 2.10898E+01 1.45911E-01-3.12474E-02 9.32308E-01-4.32883E-14-9.72666E-13
 -1      1414 2.22603E+01 3.99291E-02-9.15974E-03 9.85548E-01-4.87388E-14-9.81354E-13
 -1      1415 2.21863E+01 3.33849E-01-5.65204E-02 1.37598E+00-5.78947E-14-7.96686E-13
 -1      1416 2.29461E+01-3.32208E-02 3.64290E-03 9.97697E-01-2.17482E-14-1.02110E-12
 -1      1417 2.41648E+01-1.15707E-01 2.25889E-02 9.44031E-01-5.12142E-14-1.08541E-12
 -1      1418 2.34061E+01 2.53382E-02 6.68846E-04 1.84898E+00-8.22307E-14-8.36244E-13
 -1      1419 2.46849E+01-1.38401E-01 2.05833E-02 6.78389E-01-7.46850E-14-9.70640E-13
 -1      1420 2.55151E+01-1.67399E-01 3.02815E-02 5.81349E-01-6.63133E-14-1.07341E-12
 -1      1421 2.45786E+01-2.11930E-01 3.68377E-02 1.50791E+00-4.09880E-14-8.00408E-13
 -1      1422 2.57329E+01-1.49139E-01 1.88198E-02 2.44179E-01-2.61735E-14-9.58331E-13
 -1      1423 2.60421E+01-1.38475E-01 2.10721E-02 1.59178E-01-7.77156E-16-9.24054E-13
 -1      1424 2.52591E+01-2.80526E-01 4.15340E-02 7.61295E-01-3.86306E-14-6.00872E-13
 -1      1425 2.59808E+01-1.07624E-01 9.72537E-03-1.07477E-01 7.79984E-14-9.76159E-13
 -1      1426 2.58640E+01-8.21421E-02 8.71453E-03-1.59584E-01 1.48864E-13-7.40673E-13
 -1      1427 2.53610E+01-2.24902E-01 2.92823E-02 3.53165E-02 3.78586E-14-5.00255E-13
 -1      1428 2.56152E+01-5.70312E-02 2.08805E-03-3.13606E-01 1.52780E-13-7.67168E-13
 -1      1429 2.52447E+01-3.27865E-02 3.16598E-04-3.35750E-01 4.08163E-14-6.07278E-13
 -1      1430 2.50155E+01-1.30505E-01 1.43911E-02-4.59984E-01 1.92809E-13-5.00909E-13
 -1      1431 2.49027E+01-1.82435E-02-1.61396E-03-3.94542E-01-2.83413E-14-6.10678E-13
 -1      1432 2.44303E+01-8.88631E-04-3.27554E-03-3.97184E-01-2.32587E-14-6.15862E-13
 -1      1433 2.44106E+01-5.02962E-02 3.38951E-03-7.05108E-01 2.39353E-14-6.56291E-13
 -1      1434 2.40658E+01 5.00710E-03-2.32135E-03-3.95043E-01 8.96327E-14-5.37702E-13
 -1      1435 2.35904E+01 1.55095E-02-3.80262E-03-3.87630E-01 1.06502E-13-3.97127E-13
 -1      1436 2.37056E+01 4.29572E-04-2.85237E-03-7.66011E-01 1.14159E-13-5.05290E-13
 -1      1437 2.32464E+01 1.61581E-02-1.64824E-03-3.54250E-01 8.40886E-14-3.31176E-13
 -1      1438 2.28197E+01 2.16667E-02-3.02134E-03-3.42971E-01 8.86752E-14-2.12951E-13
 -1      1439 2.30069E+01 2.58274E-02-5.59863E-03-7.19540E-01 1.60705E-13-2.53502E-13
 -1      1440 2.25176E+01 1.97727E-02-6.88505E-04-2.97956E-01-5.74174E-14-1.83666E-13
 -1      1441 2.21592E+01 2.21562E-02-1.97178E-03-2.86191E-01-9.46140E-14-2.89825E-13
 -1      1442 2.23737E+01 3.48458E-02-6.29817E-03-6.23746E-01 4.86009E-14-2.85319E-13
 -1      1443 2.19061E+01 1.93747E-02 7.70468E-05-2.40467E-01 1.65256E-14-2.55520E-13
 -1      1444 2.16176E+01 1.99939E-02-1.08613E-03-2.29783E-01 5.68449E-14-1.33417E-13
 -1      1445 2.18312E+01 3.50152E-02-5.97968E-03-5.14256E-01-8.27394E-14-1.30460E-13
 -1      1446 2.14125E+01 1.71777E-02 5.42310E-04-1.88516E-01-1.45617E-14-2.19815E-13
 -1      1447 2.11871E+01 1.68915E-02-4.65876E-04-1.79468E-01-7.71501E-14-2.91578E-13
 -1      1448 2.13841E+01 3.11896E-02-5.24213E-03-4.09743E-01-1.48770E-14-1.96067E-13
 -1      1449 2.10251E+01 1.44068E-02 7.56787E-04-1.44517E-01-5.99516E-14-2.70241E-13
 -1      1450 2.08530E+01 1.37134E-02-7.94029E-05-1.37163E-01-2.10921E-14-3.20749E-13
 -1      1451 2.10260E+01 2.60618E-02-4.39421E-03-3.18312E-01-6.33391E-15-2.96534E-13
 -1      1452 2.07277E+01 1.16696E-02 8.05130E-04-1.08691E-01-8.87376E-15-2.93860E-13
 -1      1453 2.05989E+01 1.08406E-02 1.37637E-04-1.02873E-01 5.03942E-14-3.83256E-13
 -1      1454 2.07457E+01 2.09517E-02-3.57965E-03-2.42249E-01-2.68841E-14-3.33812E-13
 -1      1455 2.05037E+01 9.22805E-03 7.59641E-04-8.02825E-02-6.65364E-15-2.61153E-13
 -1      1456 2.04091E+01 8.40282E-03 2.43766E-04-7.57681E-02-3.70720E-14-2.86757E-13
 -1      1457 2.05303E+01 1.64141E-02-2.85696E-03-1.80989E-01 8.33721E-14-3.58835E-13
 -1      1458 2.03380E+01 7.16498E-03 6.69818E-04-5.81915E-02-7.84093E-14-3.72793E-13
 -1      1459 2.02698E+01 6.40910E-03 2.82129E-04-5.47433E-02-6.08057E-14-3.97357E-13
 -1      1460 2.03679E+01 1.26155E-02-2.24317E-03-1.32768E-01-1.17787E-13-3.11122E-13
 -1      1461 2.02178E+01 5.47825E-03 5.65534E-04-4.12867E-02 2.47825E-14-5.09249E-13
 -1      1462 2.01697E+01 4.81755E-03 2.81599E-04-3.86898E-02-7.13104E-14-4.06139E-13
 -1      1463 2.02475E+01 9.54406E-03-1.73610E-03-9.54833E-02-1.17173E-13-3.73270E-13
 -1      1464 2.01324E+01 4.12973E-03 4.63046E-04-2.85366E-02-8.13532E-14-3.61537E-13
 -1      1465 2.00995E+01 3.56934E-03 2.60422E-04-2.66080E-02-7.85640E-15-5.12447E-13
 -1      1466 2.01600E+01 7.11670E-03-1.32542E-03-6.70929E-02-8.41983E-14-4.09309E-13
 -1      1467 2.00734E+01 3.06980E-03 3.70149E-04-1.90558E-02-1.33958E-13-5.68024E-13
 -1      1468 2.00516E+01 2.60455E-03 2.29657E-04-1.76442E-02-1.99915E-13-8.02604E-13
 -1      1469 2.00978E+01 5.23049E-03-9.98078E-04-4.57834E-02-1.51987E-13-5.54836E-13
 -1      1470 2.00340E+01 2.24859E-03 2.89745E-04-1.21100E-02-8.31494E-14-8.09667E-13
 -1      1471 2.00204E+01 1.86850E-03 1.95719E-04-1.10932E-02-7.16952E-14-8.91541E-13
 -1      1472 2.00548E+01 3.78535E-03-7.40786E-04-3.00188E-02-1.65775E-13-5.16616E-13
 -1      1473 2.00089E+01 1.62057E-03 2.22084E-04-7.10417E-03 3.01162E-15-8.73851E-13
 -1      1474 2.00012E+01 1.31370E-03 1.62104E-04-6.38521E-03 7.85431E-14-7.84281E-13
 -1      1475 2.00261E+01 2.69243E-03-5.41159E-04-1.85358E-02 6.47410E-15-5.09262E-13
 -1      1476 1.99943E+01 1.14584E-03 1.66088E-04-3.56531E-03 1.68301E-13-6.34970E-13
 -1      1477 1.99906E+01 8.99735E-04 1.30496E-04-3.06839E-03 1.57532E-13-4.65886E-13
 -1      1478 2.00081E+01 1.87583E-03-3.88113E-04-1.03174E-02 2.68175E-13-4.11168E-13
 -1      1479 1.99869E+01 7.89945E-04 1.20108E-04-1.12526E-03-3.48013E-14-2.46528E-13
 -1      1480 1.99861E+01 5.92219E-04 1.01533E-04-7.92576E-04 1.02711E-14-2.24772E-13
 -1      1481 1.99976E+01 1.27162E-03-2.71920E-04-4.56228E-03 1.60767E-13-2.79240E-13
 -1      1482 1.99847E+01 5.22767E-04 8.25222E-05 4.93885E-04 9.35274E-14-2.71349E-13
 -1      1483 1.99856E+01 3.61149E-04 7.56209E-05 7.04607E-04 1.37357E-13-1.22303E-13
 -1      1484 1.99925E+01 8.25222E-04-1.84056E-04-6.54701E-04 1.77988E-13 4.72102E-14
 -1      1485 1.99857E+01 3.16835E-04 5.25806E-05 1.49004E-03 2.06880E-13-3.86232E-14
 -1      1486 1.99878E+01 1.78777E-04 5.43187E-05 1.60681E-03 1.85781E-13 2.60491E-13
 -1      1487 1.99910E+01 4.88116E-04-1.16675E-04 1.85765E-03 2.66219E-13 3.19573E-13
 -1      1488 1.99887E+01 1.44366E-04 3.24461E-05 1.98522E-03 1.42880E-13 2.42830E-13
 -1      1489 1.99913E+01 1.57765E-05 4.30342E-05 2.02044E-03 7.06578E-14 3.28955E-13
 -1      1490 1.99919E+01 2.12453E-04-6.16578E-05 3.27779E-03 2.62776E-13 1.38723E-13
 -1      1491 1.99926E+01-3.00018E-05 2.95977E-05 2.01864E-03-1.47239E-14 3.85598E-13
 -1      1492 1.99951E+01-1.64472E-04 4.55005E-05 1.96248E-03-3.17574E-14 3.48122E-13
 -1      1493 1.99940E+01-6.09107E-05-1.05645E-05 3.75317E-03 7.27720E-14 2.44936E-13
 -1      1494 1.99964E+01-2.39333E-04 5.17674E-05 1.53202E-03-9.33742E-14 4.32345E-13
 -1      1495 1.99983E+01-3.58911E-04 6.95044E-05 1.38875E-03-8.88238E-14 3.85909E-13
 -1      1496 1.99965E+01-4.25615E-04 3.99057E-05 3.28223E-03 1.90575E-14 3.20655E-13
 -1      1497 1.99995E+01-3.61292E-04 1.43377E-04 2.52088E-04-2.75435E-13 3.22167E-13
 -1      1498 1.99990E+01-9.87538E-04 7.46098E-05 1.50125E-03-3.27658E-13 3.80367E-13
 -1      1499 2.03800E+01 7.47023E-02-1.49142E-01 4.33507E-01 1.52267E-13 1.66555E-12
 -1      1500 2.15715E+01 2.15938E-01-2.28142E-01 6.67014E-01 1.36016E-13 1.89507E-12
 -1      1501 2.18003E+01 8.67295E-01-8.71413E-02 1.96039E+00 2.61673E-13 1.28772E-12
 -1      1502 1.95806E+01 3.35689E-02-2.03484E-02 1.35644E-01 1.21649E-13 1.34641E-12
 -1      1503 1.99308E+01 1.14931E-01-6.08619E-02 1.88260E-01 1.13090E-13 1.53427E-12
 -1      1504 2.04851E+01 1.85235E-01-5.56395E-02 6.89394E-01 2.36394E-13 1.04230E-12
 -1      1505 1.93425E+01 1.76273E-02 5.48439E-03-4.29117E-03 7.53980E-14 1.12448E-12
 -1      1506 1.94046E+01 5.52307E-02 1.90235E-03 2.44688E-02 8.01199E-14 1.24821E-12
 -1      1507 1.98635E+01 7.43341E-02-1.32282E-02 1.94816E-01 1.81084E-13 8.54736E-13
 -1      1508 1.94040E+01 1.06296E-02 6.21183E-03-7.96251E-02 9.17382E-14 9.37993E-13
 -1      1509 1.93271E+01 3.14068E-02 1.14951E-02-6.13544E-02 7.34382E-14 1.05812E-12
 -1      1510 1.96722E+01 3.66787E-02-4.14675E-03-3.97797E-02 1.43450E-13 6.82423E-13
 -1      1511 1.96409E+01 7.35779E-03 3.71303E-03-1.26629E-01 3.76687E-14 7.97733E-13
 -1      1512 1.94841E+01 2.09008E-02 8.73164E-03-1.13465E-01 4.36827E-14 8.78780E-13
 -1      1513 1.97293E+01 2.10764E-02-3.79522E-03-1.72615E-01 1.23335E-13 5.61319E-13
 -1      1514 1.99918E+01 5.38590E-03 2.08376E-03-1.59054E-01 4.36890E-15 7.58024E-13
 -1      1515 1.97828E+01 1.53651E-02 5.49299E-03-1.48682E-01 6.31569E-15 7.62824E-13
 -1      1516 1.99410E+01 1.36055E-02-4.21412E-03-2.57858E-01 4.46791E-14 5.04316E-13
 -1      1517 2.04207E+01 3.60906E-03 1.35793E-03-1.81827E-01 4.64147E-14 6.73319E-13
 -1      1518 2.01753E+01 1.16155E-02 3.48309E-03-1.73417E-01 2.81576E-14 7.19804E-13
 -1      1519 2.02544E+01 9.01052E-03-4.19594E-03-3.16424E-01 4.49783E-14 4.31428E-13
 -1      1520 2.08994E+01 1.27096E-03 1.28472E-03-1.95203E-01 3.73389E-14 5.54876E-13
 -1      1521 2.06306E+01 7.86676E-03 2.30640E-03-1.88897E-01 4.95422E-14 6.32105E-13
 -1      1522 2.06355E+01 4.72191E-03-3.71943E-03-3.55033E-01 9.31674E-14 3.47664E-13
 -1      1523 2.13969E+01-2.30527E-03 1.89096E-03-1.95943E-01 4.10737E-14 4.98435E-13
 -1      1524 2.11206E+01 2.72849E-03 1.60282E-03-1.92794E-01 3.01716E-14 5.48662E-13
 -1      1525 2.10554E+01-1.07568E-03-2.67288E-03-3.72039E-01 7.34320E-14 3.22908E-13
 -1      1526 2.18706E+01-7.67769E-03 3.38667E-03-1.77792E-01-2.56884E-14 4.80910E-13
 -1      1527 2.16100E+01-5.03562E-03 1.27904E-03-1.79773E-01 1.30497E-14 4.87468E-13
 -1      1528 2.14812E+01-9.95840E-03-7.63475E-04-3.59387E-01 3.48087E-14 3.15051E-13
 -1      1529 2.22605E+01-1.50085E-02 5.95674E-03-1.32439E-01 5.24444E-14 4.42577E-13
 -1      1530 2.20497E+01-1.62763E-02 1.41144E-03-1.42281E-01 1.22827E-14 4.95024E-13
 -1      1531 2.18704E+01-2.30881E-02 2.33887E-03-3.04077E-01 4.94266E-15 3.20586E-13
 -1      1532 2.24877E+01-2.35321E-02 9.43908E-03-5.20762E-02-1.15992E-14 4.24987E-13
 -1      1533 2.23723E+01-3.07754E-02 2.10090E-03-7.26020E-02 1.20958E-14 4.23046E-13
 -1      1534 2.21668E+01-4.04465E-02 6.74753E-03-1.91312E-01 4.53249E-14 3.15333E-13
 -1      1535 2.24633E+01-3.08863E-02 1.28766E-02 6.54329E-02 7.09285E-15 4.62877E-13
 -1      1536 2.24951E+01-4.61654E-02 3.25951E-03 3.28205E-02-1.59725E-14 4.25300E-13
 -1      1537 2.23028E+01-5.94956E-02 1.19703E-02-1.13379E-02-6.77496E-15 2.55001E-13
 -1      1538 2.21126E+01-3.28268E-02 1.41816E-02 2.08813E-01-6.81660E-15 3.76532E-13
 -1      1539 2.23350E+01-5.69659E-02 4.33186E-03 1.66557E-01 3.27785E-14 4.22308E-13
 -1      1540 2.22109E+01-7.36753E-02 1.65266E-02 2.28965E-01 3.55879E-14 2.71998E-13
 -1      1541 2.14174E+01-2.43776E-02 1.05025E-02 3.46241E-01-7.18644E-14 5.14214E-13
 -1      1542 2.18398E+01-5.50738E-02 4.14092E-03 3.03013E-01-4.25961E-14 4.39468E-13
 -1      1543 2.18481E+01-7.23338E-02 1.79315E-02 4.92163E-01-7.31628E-14 3.44169E-13
 -1      1544 2.04640E+01-3.22692E-03-1.76128E-05 4.26564E-01 8.71146E-15 5.23012E-13
 -1      1545 2.10334E+01-3.33990E-02 1.28966E-03 3.97173E-01-3.13187E-14 4.85834E-13
 -1      1546 2.12316E+01-4.44912E-02 1.37025E-02 7.03471E-01-4.53223E-14 3.63466E-13
 -1      1547 1.94651E+01 2.60025E-02-1.55451E-02 3.97629E-01 8.64569E-14 3.61967E-13
 -1      1548 2.00542E+01 7.53263E-03-4.62927E-03 3.97743E-01 7.52844E-14 4.82295E-13
 -1      1549 2.04695E+01 1.23865E-02 3.41866E-03 7.66488E-01 9.93203E-14 2.27346E-13
 -1      1550 1.87169E+01 5.09365E-02-2.93265E-02 2.39802E-01-1.08386E-14 2.94154E-13
 -1      1551 1.91511E+01 5.47000E-02-1.16312E-02 2.76156E-01 2.45090E-14 3.19904E-13
 -1      1552 1.97607E+01 8.30326E-02-9.64965E-03 6.09736E-01 9.81645E-14 2.55858E-13
 -1      1553 1.84811E+01 5.80695E-02-3.30263E-02-6.77145E-03 1.99918E-14 2.56397E-13
 -1      1554 1.86097E+01 8.64669E-02-1.55665E-02 5.58040E-02 8.46198E-15 2.91999E-13
 -1      1555 1.93353E+01 1.35929E-01-1.92167E-02 2.45036E-01 1.36367E-14 1.63355E-13
 -1      1556 1.88504E+01 4.35998E-02-2.33305E-02-2.53122E-01 5.02107E-14 1.16945E-13
 -1      1557 1.86233E+01 8.69065E-02-1.32109E-02-1.87463E-01 1.36861E-14 1.86615E-13
 -1      1558 1.93493E+01 1.40960E-01-2.09169E-02-2.12058E-01 8.37819E-14 8.83165E-14
 -1      1559 1.96973E+01 1.58070E-02-5.80148E-03-4.10863E-01 8.08164E-15 2.18991E-14
 -1      1560 1.91928E+01 5.75087E-02-5.28120E-03-3.65414E-01 4.51306E-14 1.08705E-13
 -1      1561 1.98018E+01 9.40341E-02-1.54820E-02-5.96087E-01 4.25051E-14 5.78357E-15
 -1      1562 2.07457E+01-1.10692E-02 1.08333E-02-4.40525E-01 7.50810E-14-6.64468E-14
 -1      1563 2.01268E+01 1.52234E-02 3.84745E-03-4.25886E-01 5.29915E-14 6.79110E-14
 -1      1564 2.05372E+01 2.04685E-02-7.11687E-03-7.83096E-01 7.89568E-14 5.08846E-14
 -1      1565 2.17091E+01-2.72813E-02 2.00751E-02-3.62161E-01-2.84430E-14-1.49505E-13
 -1      1566 2.11429E+01-2.06623E-02 1.00688E-02-3.74166E-01 2.87179E-14-1.21625E-13
 -1      1567 2.13298E+01-4.45351E-02 1.68444E-04-7.49575E-01 8.03142E-14-4.09239E-14
 -1      1568 2.23985E+01-3.12169E-02 2.09030E-02-2.28236E-01-5.39343E-14-8.38149E-14
 -1      1569 2.19939E+01-3.99604E-02 1.16028E-02-2.54829E-01-8.01867E-14-1.91326E-13
 -1      1570 2.19855E+01-7.94901E-02 4.36637E-03-5.59359E-01-6.10336E-14-1.22064E-13
 -1      1571 2.27515E+01-2.66402E-02 1.63471E-02-8.98529E-02 1.35677E-14-4.44844E-14
 -1      1572 2.25432E+01-4.30194E-02 9.43405E-03-1.19150E-01 6.62404E-15-5.92703E-14
 -1      1573 2.23985E+01-8.33898E-02 5.65988E-03-3.07773E-01 3.17107E-15-1.11039E-13
 -1      1574 2.28024E+01-1.85120E-02 1.00530E-02 2.15142E-02-5.13001E-14-8.94337E-14
 -1      1575 2.27685E+01-3.57963E-02 5.74690E-03-3.04632E-03 1.07770E-14-2.74429E-14
 -1      1576 2.25530E+01-6.75069E-02 5.15357E-03-7.27751E-02 4.46414E-14-2.31792E-14
 -1      1577 2.26320E+01-1.03943E-02 4.47465E-03 9.51184E-02-6.82440E-15-6.35603E-14
 -1      1578 2.27244E+01-2.46640E-02 2.28679E-03 7.80829E-02-1.63710E-14-1.20200E-13
 -1      1579 2.24916E+01-4.46012E-02 3.89153E-03 1.04284E-01 3.81414E-14 5.65507E-14
 -1      1580 2.23290E+01-3.99081E-03 5.76674E-04 1.33691E-01-2.40985E-14-8.72835E-14
 -1      1581 2.24957E+01-1.38876E-02-1.15548E-04 1.23932E-01-1.77952E-14-1.04097E-13
 -1      1582 2.22809E+01-2.32167E-02 2.54854E-03 2.13986E-01-6.61710E-15 4.54827E-14
 -1      1583 2.19672E+01 3.19857E-04-1.65529E-03 1.45726E-01 3.01794E-14-1.97953E-13
 -1      1584 2.21657E+01-5.42312E-03-1.38163E-03 1.41652E-01 4.46856E-14-1.21531E-13
 -1      1585 2.19870E+01-7.05898E-03 1.43428E-03 2.65496E-01 2.66670E-14 1.41215E-14
 -1      1586 2.15993E+01 2.81669E-03-2.63931E-03 1.40453E-01 1.64406E-14-2.84045E-13
 -1      1587 2.17999E+01 3.29084E-04-1.79513E-03 1.40229E-01 2.56133E-14-3.42965E-13
 -1      1588 2.16627E+01 3.38247E-03 6.25368E-04 2.74768E-01 3.21386E-14-2.50467E-13
 -1      1589 2.12580E+01 3.98331E-03-2.83881E-03 1.25529E-01-2.10190E-14-2.71922E-13
 -1      1590 2.14428E+01 3.73242E-03-1.70539E-03 1.27587E-01-1.64300E-14-3.16595E-13
 -1      1591 2.13448E+01 9.10524E-03 8.98016E-05 2.57507E-01 2.31527E-14-3.70317E-13
 -1      1592 2.09601E+01 4.28146E-03-2.61677E-03 1.06430E-01-2.01724E-14-1.16266E-13
 -1      1593 2.11201E+01 5.39068E-03-1.38753E-03 1.09619E-01-6.87018E-14-2.64039E-13
 -1      1594 2.10554E+01 1.14862E-02-2.35889E-04 2.26201E-01-7.62832E-14-3.81465E-13
 -1      1595 2.07114E+01 4.07084E-03-2.21248E-03 8.66642E-02 1.15424E-13-2.02437E-13
 -1      1596 2.08438E+01 5.88455E-03-1.01330E-03 9.02208E-02 6.76300E-14-1.21495E-13
 -1      1597 2.08052E+01 1.17591E-02-4.12779E-04 1.89564E-01 4.88442E-14-3.23713E-13
 -1      1598 2.05111E+01 3.60179E-03-1.76538E-03 6.82412E-02-3.22353E-14-3.18411E-13
 -1      1599 2.06168E+01 5.67502E-03-6.70942E-04 7.17057E-02 4.35700E-14-2.37654E-13
 -1      1600 2.05975E+01 1.08515E-02-4.89623E-04 1.53055E-01 9.67572E-14-2.79723E-13
 -1      1601 2.03548E+01 3.03482E-03-1.34748E-03 5.21416E-02 1.67559E-13-6.07099E-13
 -1      1602 2.04365E+01 5.09088E-03-3.95066E-04 5.52680E-02 6.69819E-14-4.82884E-13
 -1      1603 2.04307E+01 9.39034E-03-5.02440E-04 1.19717E-01 1.46612E-13-4.71202E-13
 -1      1604 2.02362E+01 2.46508E-03-9.89824E-04 3.86931E-02 2.01394E-14-9.93114E-13
 -1      1605 2.02975E+01 4.34914E-03-1.90963E-04 4.13753E-02 1.43466E-13-6.88731E-13
 -1      1606 2.03005E+01 7.76603E-03-4.76811E-04 9.09482E-02 2.29953E-13-6.53611E-13
 -1      1607 2.01488E+01 1.94356E-03-7.00531E-04 2.78417E-02-1.97035E-13-5.57270E-13
 -1      1608 2.01935E+01 3.58297E-03-5.04327E-05 3.00595E-02-2.15258E-13-8.69899E-13
 -1      1609 2.02016E+01 6.20113E-03-4.30384E-04 6.71205E-02-2.11902E-13-5.31471E-13
 -1      1610 2.00864E+01 1.49318E-03-4.76104E-04 1.93337E-02 9.08675E-15-3.84115E-13
 -1      1611 2.01179E+01 2.86726E-03 3.93071E-05 2.11148E-02-5.81792E-14-4.06330E-13
 -1      1612 2.01286E+01 4.80776E-03-3.74986E-04 4.80125E-02-2.02828E-13-4.96576E-13
 -1      1613 2.00434E+01 1.11997E-03-3.07985E-04 1.28303E-02-5.28293E-14-2.86226E-13
 -1      1614 2.00647E+01 2.23864E-03 9.11422E-05 1.42265E-02-3.13598E-14-3.86342E-13
 -1      1615 2.00763E+01 3.62962E-03-3.18241E-04 3.31021E-02-5.27674E-14-2.72132E-13
 -1      1616 2.00153E+01 8.20405E-04-1.86133E-04 7.97668E-03-3.18948E-14-3.10918E-13
 -1      1617 2.00289E+01 1.70976E-03 1.16172E-04 9.04824E-03 1.46028E-14-2.61405E-13
 -1      1618 2.00402E+01 2.67065E-03-2.64766E-04 2.17501E-02-2.87913E-14-6.68184E-14
 -1      1619 1.99981E+01 5.86016E-04-1.00832E-04 4.44053E-03 1.57413E-13-3.27294E-13
 -1      1620 2.00061E+01 1.27903E-03 1.23153E-04 5.24742E-03 8.40937E-15-3.50160E-13
 -1      1621 2.00164E+01 1.91331E-03-2.17061E-04 1.33090E-02 7.17022E-14-2.17556E-13
 -1      1622 1.99889E+01 4.06161E-04-4.34670E-05 1.93146E-03-1.69974E-14-5.32785E-13
 -1      1623 1.99928E+01 9.36925E-04 1.18572E-04 2.52816E-03 6.14299E-15-4.15934E-13
 -1      1624 2.00017E+01 1.32992E-03-1.76145E-04 7.18353E-03 7.80727E-14-2.69005E-13
 -1      1625 1.99854E+01 2.69437E-04-6.53674E-06 2.09503E-04 1.02835E-13-5.53009E-13
 -1      1626 1.99864E+01 6.69689E-04 1.07031E-04 6.42376E-04 1.04509E-13-4.56415E-13
 -1      1627 1.99938E+01 8.89060E-04-1.41935E-04 2.86167E-03 8.72766E-14-1.14061E-13
 -1      1628 1.99856E+01 1.63209E-04 1.73087E-05-9.10836E-04 8.45927E-15-5.89002E-13
 -1      1629 1.99848E+01 4.60439E-04 9.19590E-05-6.05840E-04 1.57296E-14-6.78101E-13
 -1      1630 1.99905E+01 5.58404E-04-1.12993E-04-7.21911E-05 1.59292E-13-1.40522E-13
 -1      1631 1.99882E+01 7.51193E-05 3.61800E-05-1.55556E-03 3.74116E-14-6.64769E-13
 -1      1632 1.99862E+01 2.89740E-04 7.68232E-05-1.35513E-03 3.82993E-14-5.43600E-13
 -1      1633 1.99903E+01 3.03708E-04-8.60185E-05-1.92757E-03 1.87194E-14-2.66843E-13
 -1      1634 1.99920E+01-9.31218E-06 6.01429E-05-1.79298E-03 1.42599E-13-1.00791E-12
 -1      1635 1.99895E+01 1.36110E-04 6.61503E-05-1.68738E-03 1.13259E-13-8.27685E-13
 -1      1636 1.99921E+01 9.11447E-05-5.54772E-05-2.90417E-03 2.43727E-13-3.19886E-13
 -1      1637 1.99959E+01-1.12437E-04 9.62600E-05-1.61254E-03-1.09922E-13-1.05798E-12
 -1      1638 1.99935E+01-3.42319E-05 6.63373E-05-1.61817E-03-2.50858E-14-1.07886E-12
 -1      1639 1.99948E+01-1.22456E-04-1.21642E-05-3.08075E-03 6.13112E-14-1.57988E-13
 -1      1640 1.99988E+01-2.76347E-04 9.12958E-05-9.46597E-04-9.01633E-14-7.22051E-13
 -1      1641 1.99971E+01-2.56485E-04 7.77424E-05-1.08544E-03-1.31799E-13-9.99457E-13
 -1      1642 1.99974E+01-4.41750E-04 4.10632E-05-2.41018E-03-1.57029E-13-2.48972E-13
 -1      1643 1.99995E+01-3.98240E-04 1.19749E-04-2.77571E-04-3.29548E-13-3.11218E-13
 -1      1644 1.99996E+01-3.25583E-03 3.23281E-05-1.45693E-03-1.14691E-13 2.78206E-13
 -1      1645 1.99995E+01-1.64624E-03 3.80307E-05-1.27349E-03-4.64981E-13 4.24604E-13
 -1      1646 1.99998E+01-6.57468E-03-1.41090E-05-1.72373E-03-1.59785E-13 6.87370E-14
 -1      1647 1.99997E+01-4.45910E-03 1.67915E-05-1.71932E-03 4.30095E-15-1.22435E-13
 -1      1648 1.99995E+01-3.26516E-03 2.48763E-05-2.97632E-03-1.27586E-13 1.51908E-13
 -1      1649 1.99999E+01-9.78112E-03-2.95516E-05-1.56078E-03-1.77259E-13-4.67854E-14
 -1      1650 1.99999E+01-7.78243E-03-7.35828E-06-1.62583E-03-5.04912E-14 5.81982E-14
 -1      1651 1.99999E+01-5.60684E-03-1.95114E-05-3.15125E-03-6.56874E-15 7.24201E-14
 -1      1652 2.00000E+01-1.24020E-02-2.71708E-05-1.20921E-03-1.00322E-13-6.23014E-14
 -1      1653 1.99999E+01-1.08081E-02-1.32705E-05-1.29275E-03-1.93967E-13 2.71919E-13
 -1      1654 2.00000E+01-7.74127E-03-3.65341E-05-2.69562E-03-1.02075E-13 9.53018E-14
 -1      1655 1.99999E+01-1.42584E-02-2.00043E-05-8.33789E-04-2.81352E-13-1.24268E-13
 -1      1656 1.99999E+01-1.31474E-02-9.14321E-06-9.08032E-04-1.05699E-13-2.60207E-13
 -1      1657 2.00001E+01-9.41363E-03-3.85505E-05-2.00612E-03-2.16223E-13-1.36575E-13
 -1      1658 1.99999E+01-1.54599E-02-1.20136E-05-5.03221E-04-1.48635E-14 1.31130E-13
 -1      1659 1.99999E+01-1.47578E-02-5.17799E-06-5.62251E-04-2.12561E-13-8.38165E-14
 -1      1660 2.00000E+01-1.05684E-02-2.89423E-05-1.32486E-03-8.72808E-14-1.13755E-13
 -1      1661 1.99999E+01-1.60881E-02-5.99734E-06-2.40519E-04-1.90020E-13-1.69016E-13
 -1      1662 1.99999E+01-1.57399E-02-2.37182E-06-2.85146E-04-1.16719E-13 3.94673E-14
 -1      1663 2.00000E+01-1.12784E-02-1.91928E-05-7.49477E-04 3.14317E-14-9.11684E-14
 -1      1664 1.99999E+01-1.62386E-02-2.92134E-06-1.55097E-05-8.73744E-14-6.02265E-14
 -1      1665 1.99999E+01-1.61966E-02-2.75422E-06-5.57172E-05-6.42399E-15-1.06491E-13
 -1      1666 2.00000E+01-1.16313E-02-1.34538E-05-2.82250E-04 7.15044E-14-3.31692E-14
 -1      1667 1.99999E+01-1.59155E-02-2.96185E-06 2.23698E-04 6.79748E-14-3.60583E-14
 -1      1668 1.99999E+01-1.61898E-02-6.35326E-06 1.75813E-04 6.32344E-14 4.04738E-14
 -1      1669 2.00000E+01-1.16911E-02-1.43670E-05 1.51640E-04 3.37173E-13-4.89308E-14
 -1      1670 1.99999E+01-1.50278E-02-5.98580E-06 5.24769E-04-2.21620E-13-3.03913E-13
 -1      1671 1.99999E+01-1.56824E-02-1.30376E-05 4.59889E-04-1.33841E-14 1.75655E-14
 -1      1672 2.00000E+01-1.14450E-02-2.17024E-05 6.48817E-04-1.83625E-14-1.19828E-13
 -1      1673 1.99999E+01-1.34642E-02-1.08126E-05 8.98232E-04-5.47517E-13 8.78249E-15
 -1      1674 2.00000E+01-1.45643E-02-2.14073E-05 8.17877E-04-1.47096E-13-3.45698E-13
 -1      1675 2.00000E+01-1.08137E-02-3.22354E-05 1.27143E-03-1.27255E-13-3.67917E-13
 -1      1676 1.99999E+01-1.10752E-02-1.38278E-05 1.32115E-03-7.13017E-13-7.66835E-14
 -1      1677 2.00000E+01-1.27027E-02-2.90770E-05 1.23079E-03-6.59137E-13 1.89297E-13
 -1      1678 2.00001E+01-9.68249E-03-4.12547E-05 2.01615E-03-2.26342E-13-5.89729E-15
 -1      1679 1.99999E+01-7.97572E-03-1.23587E-05 1.68713E-03-1.01017E-12-5.16811E-14
 -1      1680 1.99999E+01-1.00231E-02-3.03105E-05 1.61148E-03-8.76538E-13 7.58778E-14
 -1      1681 2.00000E+01-7.97172E-03-3.97307E-05 2.76796E-03-4.22769E-13-2.08677E-13
 -1      1682 1.99997E+01-4.61211E-03-1.81077E-06 1.75283E-03-7.82869E-13 1.83093E-13
 -1      1683 1.99998E+01-6.72518E-03-1.94017E-05 1.75284E-03-8.75949E-13-5.26585E-14
 -1      1684 1.99998E+01-5.73921E-03-2.23496E-05 3.25339E-03-4.57795E-13 1.29284E-14
 -1      1685 1.99994E+01-1.88939E-03-2.43774E-06 1.72759E-03-4.94861E-13 5.02642E-14
 -1      1686 1.99995E+01-3.48597E-03-1.86145E-05 2.01658E-03-5.46630E-13-8.22775E-14
 -1      1687 1.99996E+01-3.27832E-03 8.86686E-05 3.41569E-03-1.65279E-13 7.69790E-14
 -1      1688 1.99984E+01-1.39375E-03 5.46672E-05 3.17151E-03 2.53927E-14 1.47360E-13
 -1      1689-4.77532E-01-1.36992E+01-1.52530E+00-6.63616E-01 1.23623E-12 4.69680E-13
 -1      1690-5.40786E-01-1.62828E+01-1.78325E+00 5.02508E-01 8.32417E-13 2.39364E-13
 -1      1691 2.08813E+00-7.11556E+00-1.00313E+00 1.28197E+00 1.69686E-12 9.92262E-13
 -1      1692 1.11740E+00-1.21654E+01-1.52722E+00 4.84271E-01 1.35270E-12 6.80716E-13
 -1      1693 8.05310E+00 1.10355E-01-4.02295E-01 5.23113E+00 1.79279E-12 1.27875E-12
 -1      1694 4.71178E+00-5.28255E+00-1.14360E+00 2.29973E+00 1.77036E-12 1.08319E-12
 -1      1695 1.80488E+01 5.48812E+00 3.20832E-01 1.00667E+01 1.48925E-12 1.60483E-12
 -1      1696 1.15837E+01 2.29925E+00-5.47273E-01 6.48516E+00 1.75282E-12 1.40754E-12
 -1      1697 3.19132E+01 6.56896E+00 9.96472E-01 1.26798E+01 1.04250E-12 1.35736E-12
 -1      1698 2.30024E+01 6.36764E+00 1.71756E-01 1.08241E+01 1.38067E-12 1.48503E-12
 -1      1699 4.55731E+01 4.96546E+00 1.51171E+00 9.99636E+00 5.96093E-13 3.40394E-13
 -1      1700 3.69695E+01 6.46418E+00 8.80586E-01 1.15860E+01 9.58483E-13 9.73666E-13
 -1      1701 5.39663E+01 3.56650E+00 1.83328E+00 3.99170E+00 3.70315E-13-6.23723E-13
 -1      1702 4.94261E+01 4.82019E+00 1.51516E+00 8.55568E+00 4.68389E-13 7.72715E-14
 -1      1703 5.32225E+01 3.89786E+00 1.65344E+00-4.19823E+00 5.26218E-13-1.57008E-12
 -1      1704 5.44659E+01 3.58613E+00 1.77703E+00 1.36448E+00 3.99902E-13-9.33947E-13
 -1      1705 4.38776E+01 5.74981E+00 1.18666E+00-1.00408E+01 8.04884E-13-1.97986E-12
 -1      1706 5.06034E+01 4.14015E+00 1.62301E+00-6.35287E+00 5.37098E-13-1.78835E-12
 -1      1707 3.12383E+01 7.01120E+00 6.48703E-01-1.22240E+01 1.44357E-12-2.20424E-12
 -1      1708 4.00497E+01 5.86982E+00 1.31000E+00-1.21187E+01 1.08846E-12-2.18425E-12
 -1      1709 1.84604E+01 5.28995E+00-8.30791E-02-9.42616E+00 1.77625E-12-2.04148E-12
 -1      1710 2.63011E+01 6.53338E+00 7.35080E-01-1.21024E+01 1.62670E-12-2.15827E-12
 -1      1711 8.49016E+00-6.81255E-02-8.07805E-01-4.74777E+00 1.87250E-12-1.53522E-12
 -1      1712 1.38090E+01 4.06598E+00 3.46419E-02-8.37279E+00 1.86728E-12-1.92291E-12
 -1      1713 2.95165E+00-8.19262E+00-1.38700E+00-1.18295E+00 1.50080E-12-8.79075E-13
 -1      1714 5.36036E+00-2.43566E+00-6.82133E-01-3.56008E+00 1.75038E-12-1.31356E-12
 -1      1715 8.64987E-02-1.47560E+01-1.82922E+00 2.47247E-01 7.30416E-13-5.87017E-13
 -1      1716 4.47615E-01-1.02499E+01-1.37351E+00 2.61221E-01 1.34603E-12-8.29573E-13
 -1      1717-6.86066E-01-1.71736E+01-1.89441E+00-5.92232E-01-3.94219E-13-4.66377E-13
 -1      1718-6.82117E-01-1.58307E+01-1.77198E+00 8.34869E-01 3.90299E-13-5.07400E-13
 -1      1719-5.62434E-01-1.42174E+01-1.63687E+00-1.10452E+00-1.43030E-12-7.00384E-13
 -1      1720-5.39531E-01-1.67082E+01-1.86012E+00 1.10633E-02-7.29861E-13-5.20944E-13
 -1      1721 1.86832E+00-7.66107E+00-1.15473E+00 7.62739E-01-1.99041E-12-1.15816E-12
 -1      1722 9.29479E-01-1.27236E+01-1.65965E+00-6.65677E-02-1.58251E-12-8.12666E-13
 -1      1723 7.12786E+00-4.56235E-01-6.01426E-01 4.47696E+00-2.09699E-12-1.38101E-12
 -1      1724 4.04720E+00-5.69701E+00-1.33075E+00 1.66403E+00-2.16405E-12-1.20626E-12
 -1      1725 1.81088E+01 4.41079E+00 1.55477E-01 9.55282E+00-1.58495E-12-1.59472E-12
 -1      1726 1.14377E+01 1.10185E+00-7.18798E-01 5.86465E+00-1.93245E-12-1.45817E-12
 -1      1727 3.30274E+01 5.55593E+00 9.51738E-01 1.17377E+01-1.09346E-12-1.55387E-12
 -1      1728 2.38437E+01 5.06639E+00 8.75380E-02 9.79729E+00-1.35902E-12-1.59717E-12
 -1      1729 4.66836E+01 5.08336E+00 1.67507E+00 1.06514E+01-6.70519E-13-1.23990E-12
 -1      1730 3.79889E+01 6.54686E+00 9.76505E-01 1.20847E+01-1.00492E-12-1.58895E-12
 -1      1731 5.48499E+01 3.68095E+00 1.91104E+00 4.10372E+00-5.22860E-13-2.00173E-13
 -1      1732 4.99786E+01 4.98167E+00 1.60168E+00 8.68643E+00-6.94098E-13-9.58233E-13
 -1      1733 5.45725E+01 3.99255E+00 1.81335E+00-3.80348E+00-6.03906E-13 9.35974E-13
 -1      1734 5.54381E+01 3.77013E+00 1.86689E+00 1.64419E+00-4.61298E-13 1.59844E-13
 -1      1735 4.73625E+01 5.39758E+00 1.45941E+00-1.01088E+01-7.71355E-13 1.75004E-12
 -1      1736 5.35643E+01 3.89443E+00 1.91468E+00-6.30635E+00-5.79689E-13 1.35092E-12
 -1      1737 3.40863E+01 6.20931E+00 6.90704E-01-1.13542E+01-1.28053E-12 1.95222E-12
 -1      1738 4.30733E+01 5.19106E+00 1.43323E+00-1.09005E+01-9.14768E-13 1.83509E-12
 -1      1739 2.01970E+01 4.80937E+00-1.10718E-01-9.31880E+00-1.94267E-12 1.92957E-12
 -1      1740 2.88540E+01 5.82760E+00 7.52856E-01-1.18656E+01-1.47637E-12 1.95532E-12
 -1      1741 9.01764E+00-1.43631E-01-8.96444E-01-4.70219E+00-1.80123E-12 1.71685E-12
 -1      1742 1.48797E+01 3.81851E+00-2.25011E-02-8.45959E+00-1.99130E-12 2.08766E-12
 -1      1743 2.91130E+00-7.54540E+00-1.45482E+00-8.60965E-01-1.13665E-12 9.02001E-13
 -1      1744 5.34054E+00-2.08479E+00-7.71392E-01-3.29768E+00-1.57740E-12 1.56275E-12
 -1      1745 3.49493E-01-1.39558E+01-1.75687E+00 4.03308E-01-1.63758E-13 5.38625E-13
 -1      1746 8.62223E-01-9.44139E+00-1.33799E+00 1.17874E-01-8.91731E-13 7.80723E-13
 -1      1747-6.66212E-01-1.69657E+01-1.86991E+00-1.36272E-01 7.01481E-13 3.57880E-13
 -1      1748-7.33530E-01-1.53485E+01-1.75453E+00 1.27925E+00 8.82627E-14 3.50414E-13
 -1      1749 2.47376E+01 1.56799E+00 3.29087E-01 7.66543E+00 9.24150E-13 8.02580E-13
 -1      1750 1.49035E+01-2.73429E+00-3.11125E-01 6.62712E+00 1.03861E-12 7.60780E-13
 -1      1751 1.99994E+01-8.21913E-04 1.08569E-04-9.90857E-04-4.94063E-13-7.85224E-14
 -1      1752 1.99989E+01-1.33888E-03 5.70969E-05-2.20564E-03-3.63977E-13 2.52981E-13
 -1      1753 1.14882E+00-9.36775E+00-1.01527E+00 3.06866E+00 6.48426E-13 7.45792E-13
 -1      1754 6.98713E+00-6.68822E+00-7.27752E-01 5.22020E+00 8.23674E-13 7.38465E-13
 -1      1755-1.35207E+00-1.13060E+01-1.29976E+00 4.54487E-01 3.70738E-13 5.65603E-13
 -1      1756 3.48864E+01 4.47342E+00 8.97246E-01 6.81591E+00 8.95062E-13 2.09055E-13
 -1      1757 4.27280E+01 6.41739E+00 1.28888E+00 4.32971E+00 8.34111E-13-2.06390E-13
 -1      1758 4.69446E+01 7.35293E+00 1.56723E+00 1.30089E+00 7.96974E-13-6.44318E-13
 -1      1759 4.48178E+01 7.30301E+00 1.36742E+00-2.14415E+00 7.00773E-13-9.98257E-13
 -1      1760 3.95360E+01 5.74888E+00 1.10117E+00-5.57354E+00 7.87689E-13-1.31006E-12
 -1      1761 3.09336E+01 3.49264E+00 6.69043E-01-7.68495E+00 1.13026E-12-1.47993E-12
 -1      1762 2.09094E+01 1.58186E-01 8.27305E-02-7.43787E+00 1.10134E-12-1.37734E-12
 -1      1763 1.17048E+01-4.22477E+00-4.92438E-01-6.07908E+00 9.83658E-13-1.09390E-12
 -1      1764 4.30789E+00-8.09030E+00-9.12351E-01-4.22693E+00 6.83897E-13-9.39700E-13
 -1      1765-3.52248E-01-1.10910E+01-1.30408E+00-1.76670E+00 2.53908E-13-9.25260E-13
 -1      1766-1.32807E+00-1.17104E+01-1.34096E+00 1.91043E-01-3.35676E-13-9.46521E-13
 -1      1767 1.05919E+00-9.95093E+00-1.12230E+00 2.57982E+00-7.59837E-13-9.60676E-13
 -1      1768 6.44433E+00-7.20685E+00-8.78346E-01 4.55108E+00-1.07570E-12-8.29170E-13
 -1      1769 1.47895E+01-3.25821E+00-3.46131E-01 6.32061E+00-1.27498E-12-7.74325E-13
 -1      1770 2.56691E+01 2.02380E-01 2.76228E-01 6.82709E+00-1.03978E-12-9.30034E-13
 -1      1771 3.56058E+01 3.57067E+00 7.80983E-01 6.10287E+00-8.34277E-13-7.62945E-13
 -1      1772 4.38766E+01 6.26710E+00 1.38437E+00 4.58629E+00-8.64586E-13-5.62106E-13
 -1      1773 4.72279E+01 7.53399E+00 1.56484E+00 1.22225E+00-9.14602E-13-1.19960E-13
 -1      1774 4.69213E+01 7.26583E+00 1.56500E+00-2.19537E+00-8.37885E-13 4.86722E-13
 -1      1775 4.18140E+01 5.57801E+00 1.21017E+00-4.74027E+00-8.17832E-13 9.23817E-13
 -1      1776 3.31658E+01 2.94002E+00 7.03410E-01-6.43019E+00-9.82048E-13 1.09956E-12
 -1      1777 2.25619E+01-1.78531E-01 1.20776E-01-7.07624E+00-1.12521E-12 1.08846E-12
 -1      1778 1.22650E+01-4.10398E+00-5.22602E-01-5.80155E+00-7.17981E-13 1.31500E-12
 -1      1779 4.74094E+00-7.98436E+00-9.72296E-01-3.86242E+00-3.55826E-13 9.84116E-13
 -1      1780 1.10329E-01-1.07066E+01-1.24543E+00-1.89285E+00-3.47500E-14 8.36997E-13
 -1      1781 2.28725E+01 1.96561E+00-2.54247E-02-2.61678E+00-2.64892E-13 8.04190E-13
 -1      1782 1.99295E+01 3.74388E+00-3.61290E-02-1.94515E+00-2.79806E-13-4.45172E-13
 -1      1783 2.01846E+01 3.58167E+00-3.81185E-02-2.24014E+00-3.37560E-13-3.53995E-13
 -1      1784 2.04995E+01 3.17962E+00-4.56820E-02-2.39561E+00-3.40745E-13-2.23613E-13
 -1      1785 2.07198E+01 2.79777E+00-1.38638E-01-2.67456E+00-3.83655E-13-5.24164E-14
 -1      1786 2.05655E+01 2.71118E+00-3.00374E-03-2.01355E+00-3.59206E-13-2.59431E-13
 -1      1787 1.93244E+01 4.28512E+00-2.05267E-02-1.09336E+00-1.23049E-13-5.78598E-13
 -1      1788 1.94353E+01 4.23825E+00-1.51650E-02-1.30303E+00-1.62837E-13-5.72896E-13
 -1      1789 1.91609E+01 4.41646E+00-1.67175E-02-7.26930E-01-4.21648E-14-5.81177E-13
 -1      1790 1.92358E+01 4.38741E+00-1.25309E-02-9.14944E-01-8.33897E-14-5.84704E-13
 -1      1791 1.94623E+01 3.92706E+00-7.47049E-03-9.41471E-01-1.18946E-13-5.57786E-13
 -1      1792 1.90623E+01 4.49322E+00-1.41945E-02-3.91920E-01 3.28998E-14-5.64682E-13
 -1      1793 1.91051E+01 4.47770E+00-1.17524E-02-5.64113E-01-1.68810E-15-5.81205E-13
 -1      1794 1.92966E+01 4.07748E+00-7.36722E-03-6.07767E-01-2.10844E-14-5.60416E-13
 -1      1795 1.90232E+01 4.52491E+00-1.25651E-02-7.35295E-02 9.78991E-14-5.45487E-13
 -1      1796 1.90359E+01 4.52066E+00-1.19499E-02-2.38461E-01 6.78327E-14-5.57330E-13
 -1      1797 1.92023E+01 4.15897E+00-7.22773E-03-2.97615E-01 5.22476E-14-5.41886E-13
 -1      1798 1.90414E+01 4.51535E+00-1.16851E-02 2.43292E-01 1.65942E-13-5.18504E-13
 -1      1799 1.90249E+01 4.52166E+00-1.28795E-02 7.74995E-02 1.34367E-13-5.34265E-13
 -1      1800 1.91745E+01 4.18105E+00-7.23848E-03 1.38098E-03 1.25490E-13-5.19594E-13
 -1      1801 1.91166E+01 4.46428E+00-1.16380E-02 5.73468E-01 2.20956E-13-4.89947E-13
 -1      1802 1.90709E+01 4.48185E+00-1.44926E-02 3.98844E-01 1.98689E-13-5.13317E-13
 -1      1803 1.92112E+01 4.14696E+00-7.45198E-03 3.02571E-01 1.90403E-13-4.94930E-13
 -1      1804 1.92478E+01 4.36937E+00-1.26719E-02 9.25174E-01 2.85250E-13-4.33337E-13
 -1      1805 1.91730E+01 4.39933E+00-1.70076E-02 7.37107E-01 2.52214E-13-4.67158E-13
 -1      1806 1.93114E+01 4.05601E+00-7.71945E-03 6.15952E-01 2.56547E-13-4.60257E-13
 -1      1807 1.94485E+01 4.21422E+00-1.57225E-02 1.32432E+00 3.50972E-13-3.24856E-13
 -1      1808 1.93363E+01 4.26404E+00-2.09454E-02 1.10739E+00 3.08266E-13-3.85837E-13
 -1      1809 1.94784E+01 3.89919E+00-8.14527E-03 9.54768E-01 3.21980E-13-3.84911E-13
 -1      1810 1.97435E+01 3.96598E+00-2.35932E-02 1.77691E+00 4.14400E-13-1.83280E-13
 -1      1811 1.95785E+01 4.05149E+00-2.75779E-02 1.52376E+00 3.77590E-13-2.69222E-13
 -1      1812 1.97281E+01 3.65301E+00-7.98919E-03 1.32696E+00 3.83085E-13-2.76021E-13
 -1      1813 2.01979E+01 3.53536E+00-4.33642E-02 2.27615E+00 4.38852E-13 6.15966E-14
 -1      1814 1.99386E+01 3.70600E+00-4.00696E-02 1.98260E+00 4.15726E-13-8.92307E-14
 -1      1815 2.00936E+01 3.26948E+00-4.93943E-03 1.71882E+00 4.36567E-13-1.16625E-13
 -1      1816 2.10438E+01 2.67012E+00-5.56633E-02 2.68876E+00 4.08347E-13 4.89678E-13
 -1      1817 2.05437E+01 3.09368E+00-4.99473E-02 2.43386E+00 4.13806E-13 2.38157E-13
 -1      1818 2.06493E+01 2.62172E+00 3.25768E-03 2.04432E+00 4.41988E-13 1.43486E-13
 -1      1819 2.18218E+01 1.20176E+00-1.20196E-01 2.20016E+00 3.27731E-13 9.95148E-13
 -1      1820 2.13878E+01 2.24650E+00-1.04031E-04 2.58858E+00 3.65454E-13 6.65357E-13
 -1      1821 2.10839E+01 1.68114E+00-2.10072E-02 1.96982E+00 4.07303E-13 4.70995E-13
 -1      1822 2.10917E+01 7.73676E-01-5.99103E-02 1.39680E+00 3.21902E-13 8.86768E-13
 -1      1823 2.18880E+01 2.43442E+00 8.92063E-02-2.90163E+00-3.51956E-13 2.59792E-13
 -1      1824 2.03400E+01 3.04632E-01-7.05266E-03 5.24621E-01 2.60486E-13 7.17133E-13
 -1      1825 2.08330E+01 4.42917E-01-1.13083E-02 9.05053E-01 2.70124E-13 8.11737E-13
 -1      1826 2.09241E+01 8.44168E-01 1.25294E-03 1.25835E+00 3.32935E-13 5.71848E-13
 -1      1827 2.16294E+01 1.73415E+00 7.85604E-02-2.17428E+00-3.63373E-13 1.37626E-13
 -1      1828 2.07470E+01 5.14775E-01 3.30056E-02-7.51055E-01-2.83752E-13 1.05333E-13
 -1      1829 2.03837E+01 3.75714E-01 1.06668E-02-4.48483E-01-2.36113E-13 3.73070E-14
 -1      1830 2.02391E+01 2.88332E-01 2.79584E-02-1.86925E-01-2.06622E-13 4.03531E-14
 -1      1831 2.01314E+01 2.17936E-01 1.38665E-02-2.82205E-02-1.75773E-13-1.10684E-14
 -1      1832 2.04887E+01 5.23886E-01-7.61757E-03-4.75381E-01-2.54902E-13-8.30230E-14
 -1      1833 2.00740E+01 1.79585E-01 1.74464E-02 1.38868E-01-1.53168E-13-1.59317E-14
 -1      1834 2.01010E+01 1.49087E-01 1.12042E-02 2.40037E-01-1.31276E-13-6.53358E-14
 -1      1835 2.02802E+01 3.08771E-01-7.42581E-03 1.49437E-02-1.95045E-13-9.61518E-14
 -1      1836 2.01178E+01 1.31604E-01 9.79800E-03 3.58696E-01-1.20861E-13-6.82167E-14
 -1      1837 2.02372E+01 1.19462E-01 9.28005E-03 4.34930E-01-1.18171E-13-8.91219E-14
 -1      1838 2.02456E+01 2.14622E-01-6.55667E-03 3.39775E-01-1.60550E-13-1.23685E-13
 -1      1839 2.03133E+01 1.12271E-01 5.59374E-03 5.30687E-01-1.13587E-13-9.91252E-14
 -1      1840 2.05027E+01 1.09306E-01 8.46827E-03 5.97174E-01-7.15166E-14-1.39522E-13
 -1      1841 2.03451E+01 1.75300E-01-5.68607E-03 5.83348E-01-1.21134E-13-1.43975E-13
 -1      1842 2.06270E+01 1.06978E-01 3.31875E-03 6.83540E-01-6.44396E-14-1.59439E-13
 -1      1843 2.08755E+01 1.07772E-01 8.03392E-03 7.47253E-01-6.29588E-14-1.76768E-13
 -1      1844 2.05517E+01 1.62418E-01-4.86975E-03 7.89440E-01-8.52307E-14-1.54895E-13
 -1      1845 2.10414E+01 1.06182E-01 1.95372E-03 8.29988E-01-7.72681E-14-1.74170E-13
 -1      1846 2.13424E+01 1.05564E-01 7.22457E-03 8.92068E-01-9.28493E-14-1.81988E-13
 -1      1847 2.08481E+01 1.59529E-01-4.29326E-03 9.79839E-01-7.84069E-14-1.66509E-13
 -1      1848 2.15465E+01 9.98238E-02 9.95000E-04 9.69835E-01-1.27288E-13-1.93171E-13
 -1      1849 2.18923E+01 9.08549E-02 5.23151E-03 1.02490E+00-1.20107E-13-1.79329E-13
 -1      1850 2.12238E+01 1.51453E-01-4.02930E-03 1.15998E+00-1.09922E-13-2.12006E-13
 -1      1851 2.21333E+01 7.39264E-02 2.78045E-04 1.08753E+00-1.11136E-13-2.09291E-13
 -1      1852 2.25095E+01 4.65523E-02 1.11491E-03 1.12119E+00-7.32003E-14-2.51918E-13
 -1      1853 2.16730E+01 1.18326E-01-4.14263E-03 1.31802E+00-1.56045E-13-2.17784E-13
 -1      1854 2.27877E+01 8.58679E-03-9.06200E-05 1.14640E+00-5.47822E-14-2.46952E-13
 -1      1855 2.31661E+01-5.01815E-02-5.99515E-03 1.13224E+00-2.18955E-14-2.75666E-13
 -1      1856 2.21924E+01 3.21712E-02-4.71729E-03 1.41972E+00-7.73883E-14-2.21040E-13
 -1      1857 2.34824E+01-1.20273E-01 1.88963E-04 1.08242E+00-3.18300E-14-2.45370E-13
 -1      1858 2.38148E+01-2.21666E-01-1.62281E-02 9.81649E-01-7.89386E-15-2.53346E-13
 -1      1859 2.27798E+01-1.41576E-01-5.70424E-03 1.40173E+00-1.81593E-14-1.48324E-13
 -1      1860 2.41652E+01-3.28739E-01 1.18476E-03 8.05313E-01 7.34031E-14-2.56594E-13
 -1      1861 2.43814E+01-4.67180E-01-2.73666E-02 5.76116E-01 9.34842E-14-1.94907E-13
 -1      1862 2.34289E+01-4.29174E-01-6.42108E-03 1.16931E+00 3.01595E-14-1.64365E-13
 -1      1863 2.47405E+01-5.91058E-01 1.73488E-03 2.26312E-01 9.49987E-14-1.22390E-13
 -1      1864 2.47593E+01-7.18598E-01-3.38479E-02-1.45058E-01 4.93945E-14-7.94666E-14
 -1      1865 2.41127E+01-8.04470E-01-4.55649E-03 6.13959E-01 1.13067E-13-4.62630E-14
 -1      1866 2.50557E+01-7.90842E-01-2.32178E-03-6.61129E-01 1.43496E-14-9.07212E-15
 -1      1867 2.48212E+01-7.94563E-01-2.65726E-02-1.10678E+00-2.04871E-15 3.19432E-14
 -1      1868 2.47466E+01-1.12314E+00 1.68881E-03-3.16785E-01 7.24030E-14 2.98925E-14
 -1      1869 2.49261E+01-6.93057E-01-1.43146E-02-1.64405E+00-8.49841E-14 4.43725E-14
 -1      1870 2.44672E+01-4.44470E-01-2.87602E-03-1.96382E+00-1.28559E-13 3.77805E-14
 -1      1871 2.51538E+01-1.08219E+00 1.00309E-02-1.48567E+00-4.22579E-14 1.20823E-13
 -1      1872 2.42686E+01-8.96644E-02-3.58026E-02-2.19515E+00-1.90596E-13-2.58266E-14
 -1      1873 2.37436E+01 3.83175E-01 1.63742E-02-2.11378E+00-2.05971E-13-1.02520E-13
 -1      1874 2.51085E+01-3.51211E-01 7.61109E-03-2.39980E+00-2.31155E-13 9.56409E-14
 -1      1875 2.33786E+01 8.43512E-01-3.72417E-02-1.71992E+00-1.90629E-13-2.20341E-13
 -1      1876 2.30406E+01 1.23320E+00 1.32082E-02-1.13550E+00-1.97925E-13-2.62816E-13
 -1      1877 2.45889E+01 9.20283E-01-2.40125E-02-2.28530E+00-2.68310E-13 2.04823E-14
 -1      1878 2.28814E+01 1.42425E+00-1.11734E-02-2.06414E-01-2.26846E-13-3.50353E-13
 -1      1879 2.29268E+01 1.37676E+00-1.82911E-02 5.83180E-01-1.45092E-13-4.44865E-13
 -1      1880 2.40769E+01 1.92704E+00-5.68236E-02-8.12034E-01-2.70346E-13-2.00097E-13
 -1      1881 2.31668E+01 1.10853E+00 1.60882E-02 1.44792E+00-1.37196E-13-6.33051E-13
 -1      1882 2.35751E+01 6.69589E-01-3.95345E-02 1.94742E+00-1.33255E-13-7.09755E-13
 -1      1883 2.41546E+01 1.81053E+00-5.22768E-02 1.23246E+00-2.59119E-13-5.05674E-13
 -1      1884 2.39471E+01 2.04365E-01 1.51588E-02 2.21304E+00-2.82344E-14-7.28608E-13
 -1      1885 2.44943E+01-2.42174E-01-3.13632E-02 2.20170E+00-8.84579E-15-7.12819E-13
 -1      1886 2.47445E+01 6.71014E-01-1.60361E-02 2.47503E+00-9.48304E-14-5.87949E-13
 -1      1887 2.46463E+01-5.49851E-01-9.36883E-03 1.88285E+00-1.65987E-14-5.83599E-13
 -1      1888 2.50898E+01-7.42631E-01-1.20989E-02 1.52099E+00 3.85716E-14-5.33676E-13
 -1      1889 2.52209E+01-5.38063E-01 1.14214E-02 2.34025E+00 1.01761E-13-4.18591E-13
 -1      1890 2.49525E+01-8.00550E-01-2.99877E-02 9.70407E-01 4.66016E-14-4.67107E-13
 -1      1891 2.51582E+01-7.60373E-01-7.08688E-04 5.31617E-01 9.53820E-14-3.50215E-13
 -1      1892 2.51967E+01-1.12269E+00 9.53920E-03 1.32954E+00 1.13617E-13-2.35899E-13
 -1      1893 2.48559E+01-6.69008E-01-3.35889E-02 4.66653E-02-1.63949E-14-3.14956E-13
 -1      1894 2.48178E+01-5.31191E-01 2.39558E-03-2.94320E-01 3.49894E-14-2.76992E-13
 -1      1895 2.47553E+01-1.06784E+00-7.99490E-05 1.89401E-01 1.07523E-13-1.55636E-13
 -1      1896 2.44734E+01-4.05737E-01-2.53982E-02-6.01482E-01 9.14937E-14-3.30425E-13
 -1      1897 2.42575E+01-2.71110E-01 1.73809E-03-7.96952E-01 1.36761E-13-4.55840E-13
 -1      1898 2.41319E+01-7.15675E-01-5.57920E-03-6.58448E-01 4.52676E-14-1.78182E-13
 -1      1899 2.39325E+01-1.70231E-01-1.40134E-02-9.36245E-01 1.27661E-13-4.92405E-13
 -1      1900 2.36201E+01-7.67995E-02 8.60910E-04-1.00979E+00 8.18122E-14-4.37753E-13
 -1      1901 2.34881E+01-3.47174E-01-6.49410E-03-1.12672E+00 1.62300E-13-2.97275E-13
 -1      1902 2.33328E+01-1.36308E-02-4.40802E-03-1.03285E+00 1.13415E-13-3.44426E-13
 -1      1903 2.29902E+01 3.80988E-02 6.51076E-04-1.02782E+00 2.02358E-13-2.62440E-13
 -1      1904 2.28921E+01-8.07321E-02-5.54506E-03-1.29071E+00 2.11222E-13-2.06495E-13
 -1      1905 2.27420E+01 7.04216E-02 1.91512E-03-9.85045E-01 2.28139E-13-2.40357E-13
 -1      1906 2.24123E+01 9.24478E-02 8.96650E-04-9.39063E-01 2.01132E-13-1.70979E-13
 -1      1907 2.23631E+01 7.30333E-02-4.44625E-03-1.26124E+00 2.43373E-13-1.98715E-13
 -1      1908 2.22005E+01 1.04794E-01 5.27572E-03-8.66538E-01 1.01472E-13-2.36381E-13
 -1      1909 2.19066E+01 1.09254E-01 1.23690E-03-8.04841E-01-4.76242E-14-2.53698E-13
 -1      1910 2.19032E+01 1.43253E-01-3.67267E-03-1.13038E+00 1.21426E-13-2.35389E-13
 -1      1911 2.17281E+01 1.10476E-01 6.54769E-03-7.24504E-01-1.07541E-13-1.84833E-13
 -1      1912 2.14791E+01 1.06037E-01 1.47573E-03-6.61479E-01-3.41064E-14-1.08400E-13
 -1      1913 2.15100E+01 1.62511E-01-3.17857E-03-9.59805E-01 8.27984E-15-3.04227E-13
 -1      1914 2.13309E+01 1.01908E-01 6.56846E-03-5.85009E-01-5.25827E-14-1.25420E-13
 -1      1915 2.11273E+01 9.38183E-02 1.56263E-03-5.27678E-01-4.85209E-14-1.73567E-13
 -1      1916 2.11797E+01 1.55024E-01-2.82505E-03-7.85436E-01-1.20297E-14-1.39429E-13
 -1      1917 2.10062E+01 8.76562E-02 5.95054E-03-4.60327E-01-8.21478E-14-1.90644E-13
 -1      1918 2.08441E+01 7.87459E-02 1.52144E-03-4.11368E-01-5.47401E-14-1.64865E-13
 -1      1919 2.09071E+01 1.35848E-01-2.51744E-03-6.25492E-01-1.05208E-13-7.34495E-14
 -1      1920 2.07468E+01 7.22786E-02 5.07976E-03-3.54751E-01-8.23595E-14-2.65868E-13
 -1      1921 2.06206E+01 6.39068E-02 1.39659E-03-3.14547E-01-1.52638E-14-2.45468E-13
 -1      1922 2.06860E+01 1.13304E-01-2.21553E-03-4.87441E-01-1.28924E-13-1.75107E-13
 -1      1923 2.05436E+01 5.79376E-02 4.17208E-03-2.68411E-01 5.44189E-14-2.39819E-13
 -1      1924 2.04472E+01 5.06515E-02 1.22867E-03-2.36267E-01 8.96334E-14-3.01602E-13
 -1      1925 2.05098E+01 9.15192E-02-1.91314E-03-3.72811E-01 3.29836E-15-1.15653E-13
 -1      1926 2.03873E+01 4.54878E-02 3.33420E-03-1.99514E-01 1.15574E-13-3.31853E-13
 -1      1927 2.03149E+01 3.94188E-02 1.04709E-03-1.74324E-01-7.13273E-14-2.32686E-13
 -1      1928 2.03717E+01 7.22521E-02-1.61845E-03-2.80163E-01 6.78588E-14-2.38374E-13
 -1      1929 2.02692E+01 3.51195E-02 2.60924E-03-1.45568E-01-2.14209E-13-9.94853E-14
 -1      1930 2.02159E+01 3.02053E-02 8.70436E-04-1.26147E-01-1.89838E-13-1.28762E-13
 -1      1931 2.02654E+01 5.60299E-02-1.34213E-03-2.06801E-01-5.97677E-14-1.29000E-13
 -1      1932 2.01815E+01 2.67148E-02 2.00630E-03-1.03996E-01-4.67135E-14-1.86524E-13
 -1      1933 2.01430E+01 2.28155E-02 7.09107E-04-8.92430E-02-4.60307E-14-2.28379E-13
 -1      1934 2.01848E+01 4.27870E-02-1.09231E-03-1.49684E-01-9.20621E-14-2.09551E-14
 -1      1935 2.01177E+01 2.00337E-02 1.51803E-03-7.24244E-02-9.98924E-14-2.62733E-13
 -1      1936 2.00906E+01 1.69892E-02 5.67865E-04-6.13769E-02-1.04910E-13-2.10253E-13
 -1      1937 2.01249E+01 3.22072E-02-8.73461E-04-1.05881E-01-1.28958E-13-9.97347E-14
 -1      1938 2.00724E+01 1.48054E-02 1.13030E-03-4.87906E-02-6.34720E-14-1.36714E-13
 -1      1939 2.00538E+01 1.24616E-02 4.47862E-04-4.06390E-02-3.57143E-14-6.77519E-14
 -1      1940 2.00813E+01 2.38954E-02-6.86769E-04-7.27708E-02-3.21104E-14 1.34266E-13
 -1      1941 2.00410E+01 1.07697E-02 8.27208E-04-3.13623E-02-5.40652E-14-6.58627E-14
 -1      1942 2.00288E+01 8.98839E-03 3.48028E-04-2.54440E-02 1.71129E-13-4.45920E-15
 -1      1943 2.00502E+01 1.74574E-02-5.31012E-04-4.81092E-02-8.41114E-14 2.94849E-14
 -1      1944 2.00202E+01 7.69244E-03 5.93392E-04-1.87223E-02 1.85091E-13-8.71164E-14
 -1      1945 2.00127E+01 6.35381E-03 2.65976E-04-1.45063E-02 2.29839E-13-4.04158E-14
 -1      1946 2.00289E+01 1.25334E-02-4.03434E-04-3.00305E-02 1.52558E-13 2.37331E-13
 -1      1947 2.00071E+01 5.36938E-03 4.15083E-04-9.73627E-03 3.59653E-13-7.55003E-14
 -1      1948 2.00029E+01 4.37058E-03 1.98543E-04-6.80640E-03 3.39171E-13 7.64437E-14
 -1      1949 2.00147E+01 8.80695E-03-3.00465E-04-1.70203E-02 2.71432E-13 3.32315E-13
 -1      1950 1.99996E+01 3.62357E-03 2.80407E-04-3.51802E-03 2.36786E-13 2.92275E-13
 -1      1951 1.99977E+01 2.87515E-03 1.42024E-04-1.55861E-03 2.95279E-13 5.08855E-13
 -1      1952 2.00059E+01 6.00358E-03-2.18249E-04-7.87880E-03 4.48354E-13 3.49883E-13
 -1      1953 1.99960E+01 2.29868E-03 1.79530E-04 6.00438E-04 1.95657E-13 5.85717E-13
 -1      1954 1.99956E+01 1.71996E-03 9.24704E-05 1.81525E-03 2.17236E-13 6.27382E-13
 -1      1955 2.00008E+01 3.88191E-03-1.53211E-04-1.68420E-03 2.87272E-13 5.52169E-13
 -1      1956 1.99949E+01 1.25123E-03 1.04836E-04 3.09129E-03 1.17271E-13 4.12485E-13
 -1      1957 1.99956E+01 7.69464E-04 5.02374E-05 3.70189E-03 1.19158E-13 2.69926E-13
 -1      1958 1.99984E+01 2.22411E-03-1.01338E-04 2.23764E-03 5.20772E-14 4.58481E-13
 -1      1959 1.99955E+01 3.24443E-04 4.75587E-05 4.26170E-03 1.49321E-13 1.00657E-13
 -1      1960 1.99966E+01-1.35351E-04 1.35634E-05 4.31547E-03-1.68312E-14 2.86160E-13
 -1      1961 1.99977E+01 8.36615E-04-5.87974E-05 4.33938E-03-8.53429E-14 4.14654E-13
 -1      1962 1.99968E+01-5.35213E-04 2.27338E-05 4.23343E-03-1.21647E-14 2.81679E-13
 -1      1963 1.99979E+01-1.04922E-03-1.77315E-05 3.73920E-03 9.78631E-14 2.57428E-13
 -1      1964 1.99986E+01-1.74767E-03-2.63740E-05 4.24929E-03-7.99465E-14 1.81592E-13
 -1      1965 1.99979E+01-5.25945E-04-4.34575E-05 4.91117E-03 2.27325E-15 3.63540E-13
 -1      1966 1.99761E+01 1.57075E-01 9.37371E-03 1.06697E-01 2.08401E-13 5.76829E-13
 -1      1967 2.01807E+01 2.16184E-01 1.73150E-02 2.90036E-01 2.18360E-13 6.72316E-13
 -1      1968 2.03768E+01 3.64053E-01-2.56103E-03 4.79073E-01 2.74551E-13 4.69586E-13
 -1      1969 1.98778E+01 9.33314E-02 8.44377E-03-1.28861E-01 1.82859E-13 4.67720E-13
 -1      1970 1.99126E+01 1.21240E-01 1.51459E-02-2.43011E-02 1.72819E-13 5.29358E-13
 -1      1971 2.01010E+01 1.89592E-01-3.14219E-03 4.70956E-02 2.22565E-13 3.85006E-13
 -1      1972 1.99622E+01 6.19247E-02 5.98112E-03-2.76140E-01 1.08913E-13 3.77822E-13
 -1      1973 1.98957E+01 7.68451E-02 9.44630E-03-2.08457E-01 1.47014E-13 4.20580E-13
 -1      1974 2.00435E+01 1.13136E-01-4.13570E-03-2.10610E-01 1.76287E-13 2.79552E-13
 -1      1975 2.01704E+01 4.36780E-02 4.34312E-03-3.75780E-01 4.12921E-14 3.13718E-13
 -1      1976 2.00394E+01 5.30473E-02 5.53734E-03-3.27932E-01 6.23392E-14 3.60274E-13
 -1      1977 2.01367E+01 7.45924E-02-4.31022E-03-3.77120E-01 8.47434E-14 2.10593E-13
 -1      1978 2.04634E+01 2.95761E-02 3.13237E-03-4.44480E-01 9.40626E-14 2.39220E-13
 -1      1979 2.02899E+01 3.71541E-02 3.22616E-03-4.09752E-01 5.40698E-14 2.97177E-13
 -1      1980 2.03346E+01 5.06315E-02-3.92476E-03-4.90567E-01 6.52976E-14 1.46824E-13
 -1      1981 2.08119E+01 1.39208E-02 1.85555E-03-4.85690E-01 9.00533E-14 2.38167E-13
 -1      1982 2.06121E+01 2.21478E-02 1.65940E-03-4.63092E-01 9.72397E-14 2.33705E-13
 -1      1983 2.06053E+01 2.95831E-02-3.36822E-03-5.65546E-01 1.20255E-13 9.51264E-14
 -1      1984 2.11884E+01-7.91361E-03 2.36002E-04-4.93580E-01 9.11049E-14 2.04041E-13
 -1      1985 2.09782E+01 2.85632E-03 2.87112E-04-4.86357E-01 8.80299E-14 2.42069E-13
 -1      1986 2.09234E+01 3.65645E-03-2.73835E-03-6.02374E-01 9.28006E-14 1.33385E-13
 -1      1987 2.15604E+01-3.96712E-02-1.79183E-03-4.54826E-01-7.65794E-15 2.26156E-13
 -1      1988 2.13591E+01-2.50688E-02-1.16479E-03-4.69810E-01 4.05752E-14 2.34165E-13
 -1      1989 2.12639E+01-3.33506E-02-1.93483E-03-5.90848E-01 4.01386E-14 1.53751E-13
 -1      1990 2.18868E+01-8.29242E-02-4.03359E-03-3.51146E-01 9.62858E-15 2.58786E-13
 -1      1991 2.17192E+01-6.44952E-02-2.77342E-03-3.97662E-01-1.17003E-14 2.31863E-13
 -1      1992 2.15974E+01-8.55555E-02-7.59111E-04-5.12883E-01 4.65665E-15 1.71150E-13
 -1      1993 2.21163E+01-1.34274E-01-5.94730E-03-1.65141E-01 3.76344E-14 2.57138E-13
 -1      1994 2.20126E+01-1.14619E-01-4.43518E-03-2.52194E-01 6.12895E-14 2.64022E-13
 -1      1995 2.18869E+01-1.52261E-01 1.01279E-03-3.47206E-01 3.15828E-14 1.78416E-13
 -1      1996 2.21911E+01-1.81573E-01-6.66781E-03 1.08288E-01 8.34445E-14 1.69840E-13
 -1      1997 2.21836E+01-1.67379E-01-5.87106E-03-2.23319E-02 4.01554E-14 2.03653E-13
 -1      1998 2.20863E+01-2.23300E-01 3.49483E-03-7.89692E-02 6.78381E-14 1.45203E-13
 -1      1999 2.20593E+01-2.01614E-01-5.32928E-03 4.44756E-01-4.49467E-15 2.74856E-13
 -1      2000 2.21732E+01-2.03899E-01-6.61868E-03 2.82109E-01 9.60169E-15 2.36288E-13
 -1      2001 2.21437E+01-2.74417E-01 6.43330E-03 2.83842E-01 1.05809E-14 1.71717E-13
 -1      2002 2.16970E+01-1.64837E-01-1.88985E-03 7.73663E-01-1.21862E-13 2.77382E-13
 -1      2003 2.19374E+01-1.95337E-01-6.13251E-03 6.13333E-01-8.14305E-14 2.55498E-13
 -1      2004 2.20136E+01-2.68002E-01 8.88589E-03 6.89682E-01-5.55719E-14 1.77942E-13
 -1      2005 2.11394E+01-5.25088E-02 2.07064E-03 9.78566E-01 2.79856E-14 2.50244E-13
 -1      2006 2.14762E+01-1.14564E-01-3.95257E-03 8.77041E-01-4.19608E-14 2.74544E-13
 -1      2007 2.16808E+01-1.67657E-01 9.03603E-03 1.03037E+00-4.82244E-14 1.33737E-13
 -1      2008 2.05050E+01 1.17710E-01 3.76277E-03 9.35827E-01 1.28614E-13 1.91042E-13
 -1      2009 2.08667E+01 3.95629E-02 9.11621E-06 9.51844E-01 1.24381E-13 2.03709E-13
 -1      2010 2.11938E+01 3.14185E-02 5.10952E-03 1.15863E+00 1.49963E-13 1.66709E-13
 -1      2011 1.99857E+01 2.80497E-01 1.51511E-03 5.90726E-01 9.57819E-14 1.79776E-13
 -1      2012 2.02707E+01 2.20704E-01 4.96008E-03 7.48220E-01 1.18534E-13 1.71799E-13
 -1      2013 2.06849E+01 2.74974E-01-2.33870E-03 9.54545E-01 1.59886E-13 1.30172E-13
 -1      2014 1.97787E+01 3.51221E-01-2.23493E-03 2.64612E-02 4.35017E-14 7.77872E-14
 -1      2015 1.98912E+01 3.44188E-01 9.76109E-03 2.83285E-01 3.86375E-14 1.06862E-13
 -1      2016 2.03419E+01 4.55438E-01-9.28708E-03 4.18515E-01 1.00990E-13 9.54705E-14
 -1      2017 1.99782E+01 2.90965E-01-3.56008E-03-5.53642E-01 1.12494E-13 1.72432E-14
 -1      2018 1.98725E+01 3.42226E-01 1.20130E-02-2.91636E-01 9.38642E-14 7.67659E-14
 -1      2019 2.03155E+01 4.81654E-01-9.05124E-03-2.80181E-01 1.17188E-13 5.97005E-14
 -1      2020 2.05140E+01 1.34925E-01-1.76966E-03-9.38286E-01 4.41474E-14 2.02945E-14
 -1      2021 2.02223E+01 2.17577E-01 9.82730E-03-7.64782E-01 5.09792E-14 5.61357E-14
 -1      2022 2.06212E+01 3.36346E-01-4.12254E-03-8.81435E-01 3.00220E-14 5.65867E-14
 -1      2023 2.11949E+01-3.43697E-02 2.15894E-03-1.02590E+00 1.67586E-13-7.84772E-14
 -1      2024 2.08098E+01 3.96706E-02 4.07956E-03-9.82572E-01 1.04131E-13-1.00944E-14
 -1      2025 2.11327E+01 9.87938E-02 1.46298E-03-1.18254E+00 1.59652E-13 5.68903E-15
 -1      2026 2.18154E+01-1.49487E-01 5.20468E-03-8.55155E-01-4.19066E-15-8.49373E-14
 -1      2027 2.14446E+01-1.09175E-01-2.24147E-03-9.23094E-01 1.04088E-13-4.20896E-14
 -1      2028 2.16645E+01-1.20868E-01 3.95338E-03-1.13977E+00 1.21917E-13-6.07830E-14
 -1      2029 2.22423E+01-1.90146E-01 5.81554E-03-5.45190E-01-6.95737E-14-1.44189E-13
 -1      2030 2.19653E+01-1.85426E-01-6.76195E-03-6.72978E-01-1.20861E-13-1.60413E-13
 -1      2031 2.20700E+01-2.49323E-01 3.20524E-03-8.50331E-01-5.21944E-14-1.10381E-13
 -1      2032 2.24353E+01-1.73120E-01 4.56636E-03-2.16435E-01-1.51962E-14-7.07057E-14
 -1      2033 2.22854E+01-1.91643E-01-8.52517E-03-3.53246E-01-1.59065E-14-7.35373E-14
 -1      2034 2.22849E+01-2.76374E-01 1.36183E-03-4.62199E-01-4.11763E-14-1.68766E-14
 -1      2035 2.24204E+01-1.27577E-01 2.58915E-03 5.40726E-02 3.60302E-14-2.46036E-14
 -1      2036 2.23921E+01-1.54740E-01-7.95868E-03-5.94504E-02 5.87481E-14-2.03800E-14
 -1      2037 2.23134E+01-2.33805E-01-3.18882E-05-9.66333E-02-5.11657E-15-1.76192E-14
 -1      2038 2.22545E+01-7.71581E-02 8.19473E-04 2.37352E-01 7.33779E-14 1.87116E-13
 -1      2039 2.23201E+01-1.02885E-01-6.10041E-03 1.59481E-01 1.93144E-14 1.41256E-13
 -1      2040 2.21963E+01-1.62082E-01-6.37956E-04 1.81481E-01 3.22151E-14 2.44189E-13
 -1      2041 2.19978E+01-3.47556E-02-3.43052E-04 3.36949E-01 3.95953E-14 1.51568E-13
 -1      2042 2.21234E+01-5.44450E-02-3.86484E-03 2.93622E-01 1.76673E-14 1.24908E-13
 -1      2043 2.19841E+01-9.06605E-02-7.15336E-04 3.56195E-01 5.83927E-14 2.91202E-13
 -1      2044 2.17009E+01-4.57014E-03-9.01924E-04 3.71318E-01 4.71216E-15 6.11460E-14
 -1      2045 2.18561E+01-1.74116E-02-1.83179E-03 3.55170E-01 7.45502E-14 2.32117E-13
 -1      2046 2.17224E+01-3.39591E-02-5.91220E-04 4.40253E-01 7.19345E-14 3.24003E-13
 -1      2047 2.14004E+01 1.40623E-02-1.03345E-03 3.61839E-01 7.67579E-14-9.37080E-14
 -1      2048 2.15622E+01 7.02633E-03-2.66217E-04 3.64173E-01 1.59363E-14-1.25778E-14
 -1      2049 2.14462E+01 4.56462E-03-4.60025E-04 4.57348E-01 7.35866E-14 3.21347E-13
 -1      2050 2.11197E+01 2.37080E-02-9.27095E-04 3.26932E-01-1.89009E-15-2.51428E-13
 -1      2051 2.12730E+01 2.08820E-02 7.81866E-04 3.40173E-01 7.19737E-14-1.36698E-13
 -1      2052 2.11797E+01 2.71017E-02-3.88046E-04 4.31422E-01 1.00375E-13 1.33567E-13
 -1      2053 2.08715E+01 2.71761E-02-7.22436E-04 2.80204E-01-2.85408E-14-3.69572E-13
 -1      2054 2.10080E+01 2.70644E-02 1.37910E-03 2.98701E-01-6.81047E-14-3.34168E-13
 -1      2055 2.09374E+01 3.77362E-02-3.70868E-04 3.81951E-01 8.61659E-15-1.57896E-13
 -1      2056 2.06611E+01 2.68175E-02-5.02949E-04 2.30663E-01 8.11585E-14-2.77022E-13
 -1      2057 2.07770E+01 2.82571E-02 1.63539E-03 2.50634E-01 1.44021E-14-4.51492E-13
 -1      2058 2.07269E+01 4.04827E-02-3.81784E-04 3.22849E-01 3.26094E-14-3.26027E-13
 -1      2059 2.04886E+01 2.43560E-02-3.09664E-04 1.83671E-01 1.35403E-13-2.77478E-13
 -1      2060 2.05835E+01 2.65363E-02 1.66088E-03 2.02831E-01 1.31538E-13-2.21471E-13
 -1      2061 2.05502E+01 3.85393E-02-3.96703E-04 2.63080E-01 1.27062E-13-2.57719E-13
 -1      2062 2.03513E+01 2.09491E-02-1.57379E-04 1.42009E-01 2.61376E-13-3.97358E-13
 -1      2063 2.04266E+01 2.33511E-02 1.54679E-03 1.59142E-01 1.67197E-13-3.23170E-13
 -1      2064 2.04063E+01 3.41740E-02-4.01685E-04 2.07816E-01 2.14706E-13-1.21847E-13
 -1      2065 2.02447E+01 1.73169E-02-4.68934E-05 1.06757E-01 5.73218E-15-3.06399E-13
 -1      2066 2.03028E+01 1.96360E-02 1.36053E-03 1.21361E-01 1.82579E-13-3.45793E-13
 -1      2067 2.02921E+01 2.88653E-02-3.91985E-04 1.59586E-01 1.89384E-13 3.92379E-14
 -1      2068 2.01642E+01 1.38707E-02 2.73710E-05 7.79707E-02-4.82692E-13-3.11906E-13
 -1      2069 2.02078E+01 1.59483E-02 1.14775E-03 8.99780E-02-2.31755E-13-3.45741E-13
 -1      2070 2.02038E+01 2.35035E-02-3.68531E-04 1.19211E-01-1.40364E-13 1.17115E-14
 -1      2071 2.01049E+01 1.08172E-02 7.30263E-05 5.51376E-02-3.35577E-14-2.46080E-13
 -1      2072 2.01367E+01 1.25877E-02 9.36839E-04 6.47270E-02-2.54698E-13-3.26066E-13
 -1      2073 2.01371E+01 1.85740E-02-3.34918E-04 8.64959E-02-2.53168E-13-1.41489E-13
 -1      2074 2.00625E+01 8.23444E-03 9.75053E-05 3.74809E-02-1.86479E-13-2.30614E-13
 -1      2075 2.00850E+01 9.68863E-03 7.43693E-04 4.49501E-02-1.25608E-13-3.01368E-13
 -1      2076 2.00881E+01 1.43005E-02-2.95437E-04 6.07036E-02-1.16380E-13-2.86473E-13
 -1      2077 2.00334E+01 6.12449E-03 1.07094E-04 2.41454E-02 2.06535E-14-2.35385E-14
 -1      2078 2.00486E+01 7.28418E-03 5.75743E-04 2.98323E-02-8.82090E-14-7.30206E-14
 -1      2079 2.00531E+01 1.07464E-02-2.53940E-04 4.08593E-02-1.62566E-13-1.22897E-13
 -1      2080 2.00142E+01 4.44712E-03 1.06621E-04 1.43068E-02 1.70865E-13-1.04435E-13
 -1      2081 2.00240E+01 5.34963E-03 4.34990E-04 1.85427E-02 8.73308E-14-6.18810E-14
 -1      2082 2.00290E+01 7.88298E-03-2.13350E-04 2.59414E-02 4.02246E-14 2.27873E-14
 -1      2083 2.00025E+01 3.14112E-03 9.94411E-05 7.23028E-03-5.81804E-14 4.58923E-14
 -1      2084 2.00083E+01 3.82972E-03 3.20134E-04 1.03135E-02 4.14850E-14-3.96943E-14
 -1      2085 2.00132E+01 5.63298E-03-1.75614E-04 1.49898E-02 3.97156E-14 1.09389E-13
 -1      2086 1.99962E+01 2.13619E-03 8.75556E-05 2.29895E-03 1.60056E-13 1.27116E-13
 -1      2087 1.99991E+01 2.65511E-03 2.28010E-04 4.48158E-03 3.35697E-14 1.31581E-13
 -1      2088 2.00035E+01 3.89660E-03-1.41821E-04 7.16479E-03 4.13890E-14 2.58853E-13
 -1      2089 1.99937E+01 1.35592E-03 7.19317E-05-9.76589E-04 1.51561E-13 2.18298E-13
 -1      2090 1.99946E+01 1.75038E-03 1.54738E-04 5.05709E-04 2.39292E-13 2.72804E-13
 -1      2091 1.99982E+01 2.56593E-03-1.11977E-04 1.77216E-03 2.07777E-13 3.87966E-13
 -1      2092 1.99936E+01 7.18900E-04 5.40858E-05-2.93881E-03 9.98790E-15 4.05059E-14
 -1      2093 1.99932E+01 1.03017E-03 9.67354E-05-2.02029E-03-1.59581E-14 1.03380E-13
 -1      2094 1.99960E+01 1.51732E-03-8.61496E-05-1.71854E-03 8.94451E-14 5.83647E-13
 -1      2095 1.99949E+01 1.45548E-04 3.42977E-05-3.79813E-03 2.29239E-13 2.01595E-13
 -1      2096 1.99938E+01 4.18162E-04 5.25718E-05-3.36455E-03 1.75017E-13 1.01065E-13
 -1      2097 1.99958E+01 6.39857E-04-6.09136E-05-3.66816E-03 1.64050E-13 3.76543E-13
 -1      2098 1.99968E+01-4.77608E-04 1.83243E-05-3.59782E-03-7.42478E-14 4.29816E-13
 -1      2099 1.99955E+01-1.85596E-04 2.32863E-05-3.67712E-03 4.98528E-14 3.26968E-13
 -1      2100 1.99967E+01-2.02913E-04-3.74449E-05-4.30709E-03 1.26248E-15 7.32282E-13
 -1      2101 1.99984E+01-1.11236E-03-6.08273E-07-2.68849E-03-2.57794E-13 4.37046E-13
 -1      2102 1.99973E+01-7.42639E-04 6.29779E-06-3.28713E-03-1.03763E-13 4.51859E-13
 -1      2103 1.99979E+01-9.43530E-04-4.83465E-06-3.96029E-03-6.45327E-14 9.70739E-13
 -1      2104 1.99988E+01-1.79177E-03 1.71426E-05-3.14567E-03-2.14030E-13 8.21040E-13
 -1      2105 2.00005E+01-5.79336E-03-3.81519E-06-3.00551E-03-1.94747E-13-2.68164E-15
 -1      2106 2.00004E+01-4.84287E-03 2.43333E-05-3.35651E-03-1.53324E-13-2.77764E-14
 -1      2107 2.00002E+01-4.60535E-03 1.20180E-06-3.71541E-03-3.69639E-14-3.45809E-14
 -1      2108 1.99999E+01-3.53755E-03 4.45549E-06-3.84847E-03-1.71830E-14 1.47056E-13
 -1      2109 2.00005E+01-2.84071E-03-1.46389E-05-4.09653E-03-1.31003E-13-1.50726E-13
 -1      2110 1.99996E+01-3.33140E-03 5.83797E-06-3.83063E-03-6.66411E-14-1.43262E-14
 -1      2111 1.99992E+01-2.27651E-03-1.14144E-05-3.50833E-03-1.54815E-13 3.53579E-13
 -1      2112 1.99989E+01-1.83294E-03-1.56797E-05-4.04789E-03-7.05692E-14 4.27033E-13
 -1      2113 1.99998E+01-2.45676E-03-2.65715E-05-4.50014E-03-4.31776E-14 1.65556E-13
 -1      2114 2.00005E+01-6.57006E-03-6.03897E-06-2.13641E-03-1.71146E-13-1.94179E-13
 -1      2115 2.00005E+01-5.85076E-03 3.87506E-05-2.52940E-03-2.22445E-13 5.96039E-14
 -1      2116 2.00008E+01-3.14458E-03-1.35252E-05-3.17114E-03-1.74947E-13-7.95791E-14
 -1      2117 2.00004E+01-7.00862E-03-4.56197E-06-1.33470E-03-4.64226E-15-8.90337E-14
 -1      2118 2.00005E+01-6.51477E-03 3.98084E-05-1.68428E-03-1.00990E-13-3.48609E-14
 -1      2119 2.00008E+01-3.16317E-03-1.29494E-06-2.15349E-03 5.06002E-15-3.79598E-14
 -1      2120 2.00002E+01-7.20299E-03 4.08280E-07-7.05515E-04 9.70954E-14-1.61590E-13
 -1      2121 2.00003E+01-6.91764E-03 3.20928E-05-9.80476E-04 1.68814E-13-2.61622E-13
 -1      2122 2.00006E+01-3.03474E-03 8.94341E-06-1.28691E-03 1.34211E-13-4.26843E-14
 -1      2123 2.00002E+01-7.25956E-03 9.61885E-06-2.09841E-04 1.04559E-13-4.48733E-14
 -1      2124 2.00002E+01-7.14999E-03 2.02030E-05-4.38586E-04 5.60129E-14-6.56185E-14
 -1      2125 2.00005E+01-2.90447E-03 1.60700E-05-6.34244E-04 1.80775E-13-1.53625E-13
 -1      2126 2.00002E+01-7.22824E-03 2.19282E-05 2.67763E-04 2.38817E-13-2.35387E-13
 -1      2127 2.00002E+01-7.28443E-03 8.77967E-06 3.00793E-05 1.80973E-13 7.90983E-14
 -1      2128 2.00004E+01-2.88098E-03 1.83049E-05-1.12992E-04-5.05985E-14 1.48653E-13
 -1      2129 2.00004E+01-7.08403E-03 3.40856E-05 8.56554E-04-6.37891E-14-3.54158E-13
 -1      2130 2.00003E+01-7.32627E-03 5.56932E-07 5.56561E-04 1.34072E-13-3.40065E-13
 -1      2131 2.00005E+01-2.99881E-03 1.49773E-05 4.32907E-04 6.14693E-14-2.97600E-13
 -1      2132 2.00005E+01-6.74242E-03 4.17478E-05 1.61952E-03-1.72671E-13-4.63090E-13
 -1      2133 2.00004E+01-7.20629E-03-3.70703E-06 1.24303E-03-2.65692E-13-2.28462E-13
 -1      2134 2.00007E+01-3.20337E-03 7.74513E-06 1.14609E-03-6.68987E-14-3.61138E-13
 -1      2135 2.00006E+01-6.08556E-03 3.98968E-05 2.55348E-03-2.40359E-13 9.01573E-14
 -1      2136 2.00006E+01-6.81448E-03-4.30692E-06 2.11787E-03-2.27729E-13-1.09640E-14
 -1      2137 2.00009E+01-3.37755E-03-3.29300E-06 2.09880E-03-2.24516E-13-2.00458E-13
 -1      2138 2.00004E+01-5.04799E-03 2.33670E-05 3.45991E-03-2.29650E-13-1.79415E-13
 -1      2139 2.00005E+01-6.01824E-03-1.87609E-06 3.07977E-03-1.29414E-13-2.65860E-13
 -1      2140 2.00009E+01-3.36702E-03-1.39856E-05 3.22614E-03-2.21002E-13-1.04277E-13
 -1      2141 1.99998E+01-3.72016E-03-2.62578E-05 4.04624E-03-2.76654E-13 1.83487E-13
 -1      2142 2.00003E+01-4.78543E-03 1.37001E-05 3.85124E-03-3.65717E-13 8.93703E-14
 -1      2143 2.00006E+01-3.02056E-03-9.02439E-06 4.24279E-03-2.06919E-13-1.41012E-13
 -1      2144 1.15994E+01-4.95083E+00-7.64188E-02 6.83332E+00 4.36651E-13 3.71252E-13
 -1      2145 7.89129E+00-6.16996E+00-2.57882E-01 5.83769E+00 2.71616E-13 5.23429E-13
 -1      2146 5.92546E-01-6.26356E+00-2.52309E-01 1.13348E+00 1.65479E-13 5.51115E-13
 -1      2147 4.68114E-01-6.91685E+00-3.48261E-01-5.21794E-01 6.09096E-14 5.92304E-13
 -1      2148 4.48896E+00-5.47837E+00-1.22883E-01 4.91162E+00 2.97762E-13 6.65468E-13
 -1      2149 2.18346E+00-6.37038E+00-2.77362E-01 3.17481E+00 1.56625E-13 6.25999E-13
 -1      2150 1.97653E+01-2.69113E+00 2.58965E-02 6.97064E+00 5.62828E-13 3.79252E-13
 -1      2151 1.52853E+01-4.70849E+00-2.57468E-01 6.34878E+00 5.33074E-13 2.73781E-13
 -1      2152 2.81284E+01-2.78096E-01 1.41265E-01 5.66924E+00 4.93272E-13 6.34492E-14
 -1      2153 2.34284E+01-2.08895E+00-1.61954E-01 5.63548E+00 5.09703E-13 2.35145E-13
 -1      2154 1.95616E+01 4.07992E+00-2.76078E-02-1.49980E+00-2.05196E-13-5.48585E-13
 -1      2155 1.97238E+01 4.00040E+00-2.28536E-02-1.74607E+00-2.53114E-13-4.97380E-13
 -1      2156 2.00598E+01 3.30554E+00-1.36731E-02-1.69511E+00-2.83071E-13-4.40280E-13
 -1      2157 1.97129E+01 3.68870E+00-6.14675E-03-1.30825E+00-1.96875E-13-5.33663E-13
 -1      2158 3.87143E+01 5.98028E+00 2.99453E-01 1.38188E+00 8.95672E-13-4.62574E-13
 -1      2159 3.57451E+01 5.04198E+00 8.32357E-02 1.99410E+00 8.66390E-13-2.83495E-13
 -1      2160 3.94555E+01 7.23194E+00 2.04077E-01-1.41082E-01 8.21565E-13-6.67792E-13
 -1      2161 3.91989E+01 6.86613E+00 2.23916E-01 1.05870E+00 8.65530E-13-4.80171E-13
 -1      2162 3.47881E+01 7.19680E+00 2.69213E-01-3.54946E-01 9.01335E-13-4.50417E-13
 -1      2163 3.73218E+01 6.53401E+00 1.21072E-01-1.10457E+00 6.23612E-13-7.50067E-13
 -1      2164 3.92379E+01 7.13784E+00 2.89483E-01-3.70874E-01 7.23976E-13-6.82288E-13
 -1      2165 3.46303E+01 3.66870E+00 2.14742E-01-3.80072E+00 7.42219E-13-1.01330E-12
 -1      2166 3.71583E+01 4.78019E+00 2.04721E-01-2.36046E+00 6.19116E-13-8.33500E-13
 -1      2167 2.79728E+01 4.89676E-01-2.50723E-02-5.35747E+00 8.02025E-13-1.02707E-12
 -1      2168 3.25134E+01 2.07546E+00 2.76528E-01-5.18229E+00 7.83568E-13-1.06548E-12
 -1      2169 2.03949E+01-3.08952E+00-2.01883E-01-6.11992E+00 5.91749E-13-8.79963E-13
 -1      2170 2.51172E+01-1.17425E+00 1.37635E-01-6.43540E+00 6.61138E-13-9.38194E-13
 -1      2171 1.24022E+01-5.54863E+00-2.92657E-01-6.26916E+00 4.65072E-13-7.66942E-13
 -1      2172 1.66707E+01-3.62279E+00-2.36839E-02-7.06000E+00 6.30829E-13-8.73246E-13
 -1      2173 5.01434E+00-6.89625E+00-3.87187E-01-4.82528E+00 2.07168E-13-8.30225E-13
 -1      2174 8.35947E+00-5.40100E+00-1.31115E-01-6.27300E+00 3.92020E-13-8.01609E-13
 -1      2175 1.09713E+00-7.44285E+00-4.32847E-01-2.40620E+00-3.60267E-14-9.35529E-13
 -1      2176 2.74282E+00-6.62328E+00-2.69531E-01-3.80693E+00 2.21712E-13-9.72444E-13
 -1      2177 5.82763E+00-5.06735E+00-1.26598E-01-5.45154E+00-2.78666E-14-9.39526E-13
 -1      2178 3.07741E-01-7.29717E+00-3.90248E-01 1.00969E+00-3.26961E-13-9.93816E-13
 -1      2179-2.37204E-02-7.70746E+00-4.62849E-01-4.72439E-01-5.62883E-14-1.00275E-12
 -1      2180 4.53270E+00-5.93576E+00-1.74936E-01 4.58617E+00-3.27516E-13-7.43294E-13
 -1      2181 2.26328E+00-6.87809E+00-3.42307E-01 2.92242E+00-2.01755E-13-8.20066E-13
 -1      2182 1.14593E+01-5.34475E+00-1.36563E-01 6.37072E+00-6.00076E-13-4.63206E-13
 -1      2183 7.92178E+00-6.61075E+00-3.19703E-01 5.47566E+00-3.76699E-13-5.44370E-13
 -1      2184 1.94379E+01-3.67374E+00-3.58475E-02 6.72212E+00-7.41185E-13-4.85167E-13
 -1      2185 1.46046E+01-5.41934E+00-3.47406E-01 6.01241E+00-7.27640E-13-4.42174E-13
 -1      2186 1.56874E+01-5.88251E+00-6.59879E-02 6.66133E+00-1.89293E-13-2.52662E-13
 -1      2187 2.86613E+01-1.31810E+00 8.37143E-02 5.04948E+00-6.06792E-13-4.11615E-13
 -1      2188 2.37154E+01-2.96216E+00-1.59499E-01 5.29711E+00-7.21312E-13-5.15032E-13
 -1      2189 3.63083E+01 2.97035E+00 3.80495E-01 3.48358E+00-6.34957E-13-3.04645E-13
 -1      2190 3.17666E+01 1.08776E+00 9.58148E-03 3.47590E+00-6.73572E-13-2.81108E-13
 -1      2191 4.00624E+01 5.60602E+00 3.72278E-01 1.54618E+00-8.24341E-13-5.25691E-14
 -1      2192 3.76566E+01 4.50233E+00 2.44046E-01 2.62113E+00-7.08766E-13-2.34479E-13
 -1      2193 3.50863E+01 3.31295E+00 2.81254E-01 4.22530E-01-5.75623E-13 1.09301E-13
 -1      2194 4.06153E+01 7.22205E+00 3.09619E-01-4.77589E-02-9.14491E-13 7.37223E-14
 -1      2195 4.04254E+01 6.85093E+00 3.56471E-01 8.72855E-01-8.90010E-13-8.40994E-14
 -1      2196 3.98282E+01 6.21285E+00 2.98150E-01-1.20698E+00-8.13460E-13 2.30371E-13
 -1      2197 4.03222E+01 6.94435E+00 2.81183E-01-1.39071E-01-8.88511E-13 2.49384E-14
 -1      2198 3.58235E+01 3.72483E+00 9.75353E-02-2.13414E+00-6.20032E-13 3.41283E-13
 -1      2199 3.92843E+01 5.00873E+00 3.74229E-01-1.73452E+00-6.57807E-13 2.46858E-13
 -1      2200 3.58988E+01 5.98100E+00 2.87050E-01 5.95886E-01-6.45539E-13-9.85878E-14
 -1      2201 2.97120E+01-3.66159E-02-3.02155E-02-4.25763E+00-6.76514E-13 4.53859E-13
 -1      2202 3.40186E+01 1.60161E+00 2.05758E-01-3.66021E+00-5.78440E-13 4.35985E-13
 -1      2203 2.12435E+01-3.24914E+00-2.31768E-01-5.71307E+00-5.49116E-13 5.82590E-13
 -1      2204 2.64439E+01-1.47541E+00 9.61417E-02-5.89488E+00-6.79734E-13 4.99822E-13
 -1      2205 1.30358E+01-5.76224E+00-3.57202E-01-5.86598E+00-5.72875E-14 9.86350E-13
 -1      2206 1.76024E+01-3.96946E+00-4.21171E-02-6.69977E+00-2.73448E-13 8.55177E-13
 -1      2207 5.66453E+00-7.05437E+00-4.24729E-01-4.68024E+00 7.31082E-14 8.04662E-13
 -1      2208 8.91009E+00-5.70371E+00-2.31081E-01-5.80465E+00-1.95843E-13 9.63930E-13
 -1      2209 1.16043E+00-7.24873E+00-3.97052E-01-1.99249E+00 1.64979E-13 6.73739E-13
 -1      2210 2.79814E+00-6.40781E+00-2.77860E-01-3.51335E+00-8.32667E-15 8.69471E-13
 -1      2211 2.20139E+00-4.36726E+00-1.50484E-01-1.62914E+00 1.15019E-13 6.56142E-13
 -1      2212 3.41968E+01 2.68344E+00 1.54608E-01 3.44215E+00 7.67358E-13-3.05200E-13
 -1      2213 3.03286E+01 1.21492E+00-1.46792E-02 4.35299E+00 6.89004E-13-2.45359E-14
 -1      2214 2.96661E+01-1.12755E+00 1.71264E-01 2.75838E+00 3.82236E-13-3.71647E-13
 -1      2215 2.38934E+01-3.99595E+00 6.31468E-02 5.40838E+00 1.62426E-13-1.38722E-13
 -1      2216 2.09128E+01 1.11043E+00-1.88527E-02-1.45087E+00-3.38528E-13 5.79311E-14
 -1      2217 3.33472E+01 3.31227E+00 1.85005E-01 5.98462E-01 7.60281E-13-4.32876E-13
 -1      2218 2.08146E+01 1.34386E+00-2.00722E-02-1.46750E+00-3.45031E-13-1.08503E-13
 -1      2219 8.13707E+00-4.92159E+00-6.45574E-02 6.14734E+00-9.87543E-14 4.47226E-13
 -1      2220 2.93646E+00-4.03200E+00-7.25093E-02 2.61441E+00-7.89646E-15 6.80067E-13
 -1      2221 1.99996E+01-2.75696E-03-1.52179E-05 4.17367E-03-2.49735E-13 1.80857E-13
 -1      2222 1.58743E+01-5.42718E+00-5.94792E-02 6.90838E+00 2.35367E-14 2.98164E-14
 -1      2223 5.89452E+00-5.45004E+00-1.63011E-01-4.96221E+00 1.87961E-13 8.12461E-13
 -1      2224 1.36203E+01-5.90111E+00-9.20120E-02-6.62937E+00 2.31148E-13 8.21131E-13
 -1      2225 2.18796E+01-5.05872E+00 1.26790E-02-5.66039E+00 3.75255E-14 3.88467E-13
 -1      2226 3.40219E+01 1.96575E+00 2.10476E-01-6.42508E-01-4.54650E-13-1.32727E-13
 -1      2227 3.67260E+01 6.64177E+00 3.24168E-01-1.88486E-01-8.17069E-13 1.66811E-13
 -1      2228 2.36039E+01-4.80147E+00 6.84966E-02 5.29176E+00-3.23686E-13-1.36030E-13
 -1      2229 8.34914E+00-5.35526E+00-1.00580E-01 5.88510E+00 8.85958E-14-5.06262E-13
 -1      2230 1.81912E+00-5.06261E+00-2.13441E-01-1.95264E+00-6.05349E-14-1.09035E-12
 -1      2231 1.26354E+01-5.59503E+00-7.24255E-02-6.90665E+00 8.82627E-14-7.10425E-13
 -1      2232 2.09802E+01-4.81745E+00-7.71782E-03-6.27924E+00 2.10276E-13-6.11039E-13
 -1      2233 2.77925E+01-2.07641E+00 1.10296E-01-4.13100E+00 4.10283E-13-6.47593E-13
 -1      2234 3.28011E+01 1.95059E+00 2.61976E-01-2.08068E+00 5.99708E-13-6.50535E-13
 -1      2235 3.49500E+01 8.06108E+00 2.20875E-01 9.13521E-02 7.94032E-13-5.95992E-13
 -1      2236 3.47466E+01 5.85842E+00 2.19397E-01-2.17841E-01 5.97966E-13-5.11313E-13
 -1      2237 2.69534E+00-4.73314E+00-1.42113E-01 2.62031E+00-1.15463E-14-9.16267E-13
 -1      2238 3.07213E+01-1.49640E+00 7.63748E-02 2.37876E+00-4.56191E-13 5.96745E-14
 -1      2239 3.66651E+01 7.71026E+00 2.81620E-01 1.73063E-01-9.26759E-13-6.41848E-15
 -1      2240 2.90877E+01-2.28295E+00 1.36012E-01-3.32874E+00-2.76085E-13 3.35842E-14
 -1      2241 2.04278E+01 5.42611E-01 5.68155E-03 4.55153E-01 2.76614E-13 2.62733E-13
 -1      2242 2.06420E+01 7.26501E-01 2.08489E-02 7.62318E-01 3.07291E-13 3.10097E-13
 -1      2243 1.93788E+01 3.73978E+00-1.12422E-02-4.68580E-01-1.01400E-16-5.27946E-13
 -1      2244 1.94469E+01 3.68322E+00-9.27069E-03-6.22178E-01-4.76679E-14-5.39636E-13
 -1      2245 1.95316E+01 3.57164E+00-1.33330E-02-7.54501E-01-8.89359E-14-5.22814E-13
 -1      2246 1.96371E+01 3.47477E+00-1.12142E-02-9.20741E-01-1.43254E-13-5.16987E-13
 -1      2247 1.96338E+01 3.27835E+00 1.57807E-03-6.06156E-01-6.91404E-14-4.83961E-13
 -1      2248 1.92869E+01 3.83992E+00-8.83404E-03 6.98550E-02 1.47000E-13-4.79486E-13
 -1      2249 1.92838E+01 3.84264E+00-9.14511E-03-7.39755E-02 1.08559E-13-4.95682E-13
 -1      2250 1.93443E+01 3.78310E+00-8.59100E-03 3.42236E-01 2.11921E-13-4.71832E-13
 -1      2251 1.93068E+01 3.81355E+00-1.00566E-02 1.94186E-01 1.69936E-13-4.72420E-13
 -1      2252 1.94288E+01 3.50656E+00 5.73476E-04 1.13095E-01 1.51498E-13-4.54010E-13
 -1      2253 1.94664E+01 3.65515E+00-9.26183E-03 6.24996E-01 2.76882E-13-4.26607E-13
 -1      2254 1.93964E+01 3.71468E+00-1.14957E-02 4.70056E-01 2.38376E-13-4.56119E-13
 -1      2255 1.95081E+01 3.41638E+00 7.37971E-04 3.54487E-01 2.14031E-13-4.32628E-13
 -1      2256 1.96582E+01 3.43885E+00-1.14996E-02 9.33016E-01 3.46760E-13-3.45004E-13
 -1      2257 1.95526E+01 3.53844E+00-1.35031E-02 7.62583E-01 3.09342E-13-3.96571E-13
 -1      2258 1.96573E+01 3.24065E+00 1.14648E-03 6.07735E-01 2.83208E-13-3.80676E-13
 -1      2259 1.99250E+01 3.10511E+00-1.67044E-02 1.25579E+00 4.01429E-13-2.33496E-13
 -1      2260 1.97811E+01 3.26429E+00-1.60546E-02 1.07454E+00 3.64798E-13-2.91501E-13
 -1      2261 1.98780E+01 2.96295E+00 2.44104E-03 8.71397E-01 3.38410E-13-2.91301E-13
 -1      2262 2.02813E+01 2.59771E+00-2.70401E-02 1.55880E+00 4.41457E-13-8.78325E-14
 -1      2263 2.00926E+01 2.85480E+00-1.80231E-02 1.38374E+00 4.12259E-13-1.75594E-13
 -1      2264 2.01678E+01 2.55645E+00 5.94023E-03 1.11945E+00 3.87039E-13-1.79026E-13
 -1      2265 2.54925E+01-4.28219E+00-8.56871E-02 4.20445E+00 4.78784E-14-2.38809E-13
 -1      2266 2.23851E+01-5.05193E+00 1.31693E-02 5.32598E+00-1.42664E-14-1.77858E-13
 -1      2267 2.02546E+01 3.21344E-01 6.98807E-03 1.63011E-02 2.24509E-13 1.98658E-13
 -1      2268 2.03495E+01 4.12799E-01 2.03503E-02 1.96062E-01 2.49428E-13 2.42088E-13
 -1      2269 2.04694E+01 6.90716E-01-3.61243E-03 4.27632E-01 2.94921E-13 8.55561E-14
 -1      2270 2.06308E+01 9.17039E-01 1.33989E-02-7.33138E-01-2.58792E-13-1.72185E-13
 -1      2271 2.04724E+01 7.07883E-01-1.12012E-03-3.95670E-01-2.16619E-13-1.72093E-13
 -1      2272 3.16949E+01 3.67522E+00-1.60411E-01-8.68556E-01 7.35412E-13-5.51031E-13
 -1      2273 3.08391E+01 1.27811E+00-5.68165E-02-9.97714E-02 5.82256E-13-5.18863E-13
 -1      2274 2.04365E+01 5.66090E-01 1.58703E-02-1.40284E-01-1.90899E-13-1.62222E-13
 -1      2275 2.03642E+01 4.60509E-01 3.50533E-03 7.17487E-02-1.76685E-13-1.78286E-13
 -1      2276 2.04814E+01 8.63649E-01-3.03794E-03-3.39125E-01-2.19946E-13-2.38579E-13
 -1      2277 2.03392E+01 3.92813E-01 1.04527E-02 2.61811E-01-1.72697E-13-1.63364E-13
 -1      2278 2.03471E+01 3.41667E-01 4.81867E-03 4.12602E-01-1.56865E-13-1.81857E-13
 -1      2279 2.03913E+01 5.81982E-01-4.72833E-03 1.41464E-01-1.76221E-13-2.30273E-13
 -1      2280 2.03501E+01 3.09929E-01 5.97395E-03 5.61493E-01-1.27417E-13-1.72313E-13
 -1      2281 2.04226E+01 2.88265E-01 5.49962E-03 6.81884E-01-9.52936E-14-1.73758E-13
 -1      2282 2.03621E+01 4.42327E-01-4.67350E-03 5.05862E-01-1.40999E-13-2.09959E-13
 -1      2283 2.04541E+01 2.75361E-01 3.16990E-03 8.08998E-01-9.33305E-14-1.63971E-13
 -1      2284 2.05786E+01 2.68798E-01 5.95421E-03 9.15389E-01-7.39298E-14-1.75683E-13
 -1      2285 2.03973E+01 3.79582E-01-3.94793E-03 8.01856E-01-1.17071E-13-1.91859E-13
 -1      2286 2.06362E+01 2.63901E-01 1.51486E-03 1.03252E+00-8.86156E-14-1.79740E-13
 -1      2287 2.08041E+01 2.61357E-01 6.04625E-03 1.13224E+00-9.31863E-14-2.08510E-13
 -1      2288 2.04908E+01 3.55566E-01-3.21347E-03 1.06221E+00-9.31624E-14-1.76231E-13
 -1      2289 2.08870E+01 2.54231E-01 7.55760E-04 1.24427E+00-7.67336E-14-2.28536E-13
 -1      2290 2.10929E+01 2.43237E-01 5.47824E-03 1.33654E+00-9.00155E-14-2.26049E-13
 -1      2291 2.06362E+01 3.41264E-01-2.82006E-03 1.30500E+00-9.68811E-14-2.36953E-13
 -1      2292 2.12052E+01 2.20695E-01 9.50146E-04 1.44075E+00-1.37282E-13-1.80997E-13
 -1      2293 2.14451E+01 1.84089E-01 3.76483E-03 1.51529E+00-1.37730E-13-1.73291E-13
 -1      2294 2.08335E+01 3.04624E-01-3.15110E-03 1.53361E+00-9.43697E-14-1.93553E-13
 -1      2295 2.15994E+01 1.27573E-01 2.44386E-03 1.59896E+00-8.55213E-14-1.27624E-13
 -1      2296 2.18699E+01 4.17269E-02 2.53944E-04 1.63303E+00-1.54690E-14-1.05143E-13
 -1      2297 2.10943E+01 2.02581E-01-4.79129E-03 1.73428E+00-1.06194E-13-1.26268E-13
 -1      2298 2.20917E+01-7.26930E-02 5.77418E-03 1.66932E+00 9.25074E-15-6.03328E-14
 -1      2299 2.23882E+01-2.35134E-01-5.78552E-03 1.62507E+00 1.45799E-14-3.40754E-14
 -1      2300 2.14492E+01-2.27671E-02-8.51996E-03 1.87035E+00 2.32244E-14-1.23349E-14
 -1      2301 2.27180E+01-4.29745E-01 1.12719E-02 1.56766E+00 1.78583E-14-2.55885E-14
 -1      2302 2.30307E+01-6.85533E-01-1.50259E-02 1.39371E+00 8.89904E-14 1.36158E-14
 -1      2303 2.19557E+01-4.36385E-01-1.49255E-02 1.87344E+00 2.65152E-14 4.75676E-14
 -1      2304 2.35152E+01-9.57837E-01 1.75828E-02 1.17157E+00 1.49537E-13-1.45782E-14
 -1      2305 2.38175E+01-1.27050E+00-2.57943E-02 8.17046E-01 1.38353E-13 3.32471E-14
 -1      2306 2.26983E+01-1.07465E+00-2.34246E-02 1.63249E+00 1.19390E-13 7.77816E-14
 -1      2307 2.44602E+01-1.53601E+00 1.93814E-02 3.54501E-01 1.04125E-13 5.78808E-14
 -1      2308 2.47003E+01-1.75953E+00-3.26994E-02-1.79321E-01 8.57144E-14 6.89808E-14
 -1      2309 2.37479E+01-1.83123E+00-2.71986E-02 9.93474E-01 1.38167E-13 2.33871E-14
 -1      2310 2.53768E+01-1.80155E+00 2.03857E-03-8.88599E-01 2.48512E-14 1.24121E-13
 -1      2311 2.54889E+01-1.63374E+00-1.86132E-02-1.45962E+00-9.62277E-14 1.66795E-13
 -1      2312 2.50089E+01-2.34555E+00-4.19637E-02-1.86865E-01 7.61496E-14 9.18762E-14
 -1      2313 2.59436E+01-1.19039E+00-4.47880E-02-2.20879E+00-1.88316E-13 2.19331E-13
 -1      2314 2.58214E+01-3.65679E-01-1.23597E-02-2.51306E+00-2.59053E-13 1.98525E-13
 -1      2315 2.62588E+01-1.88637E+00-5.55128E-02-1.77379E+00-1.12656E-13 2.58189E-13
 -1      2316 2.57778E+01 6.72745E-01-1.01739E-01-2.67570E+00-3.23571E-13 1.41005E-13
 -1      2317 2.55164E+01 1.79980E+00-2.80490E-02-2.30231E+00-3.69510E-13 1.02352E-13
 -1      2318 2.68450E+01 1.18219E-02-2.44661E-02-2.75340E+00-3.26784E-13 2.47816E-13
 -1      2319 2.53102E+01 2.74950E+00-9.19476E-02-1.42641E+00-4.22454E-13-1.96544E-14
 -1      2320 2.51588E+01 3.22181E+00-7.18480E-02-4.29652E-01-4.20150E-13-1.97002E-13
 -1      2321 2.67051E+01 2.92402E+00-8.28115E-02-2.02266E+00-5.01751E-13 8.81517E-14
 -1      2322 2.52303E+01 3.11425E+00-4.95967E-02 9.39867E-01-3.10807E-13-3.52931E-13
 -1      2323 2.53849E+01 2.42529E+00-1.08114E-01 1.85541E+00-2.65787E-13-4.14162E-13
 -1      2324 2.65311E+01 4.16309E+00-1.02429E-01 3.14076E-01-4.64531E-13-1.32715E-13
 -1      2325 2.56429E+01 1.38885E+00-1.75106E-02 2.54265E+00-1.65146E-13-4.42335E-13
 -1      2326 2.58871E+01 2.48073E-01-9.49787E-02 2.76342E+00 5.37070E-15-4.28739E-13
 -1      2327 2.67991E+01 2.48361E+00-7.08736E-02 2.43464E+00-2.53311E-13-3.31776E-13
 -1      2328 2.58478E+01-7.07783E-01-1.31106E-02 2.45376E+00 1.50071E-13-4.20574E-13
 -1      2329 2.59340E+01-1.39570E+00-3.44749E-02 2.05187E+00 2.30272E-13-3.05560E-13
 -1      2330 2.68445E+01-3.18855E-01-2.84475E-02 2.69329E+00 8.82489E-14-2.81941E-13
 -1      2331 2.54199E+01-1.73438E+00-2.92817E-02 1.30266E+00 1.99376E-13-2.35526E-13
 -1      2332 2.53074E+01-1.80254E+00 6.84957E-03 7.03285E-01 1.93592E-13-1.60033E-13
 -1      2333 2.61106E+01-2.04547E+00-1.77574E-02 1.44635E+00 2.80971E-13-3.01727E-13
 -1      2334 2.46167E+01-1.67729E+00-3.19332E-02 4.12670E-02 1.39401E-13-1.03798E-13
 -1      2335 2.43746E+01-1.41773E+00 2.01888E-02-4.59356E-01 1.54236E-13-5.73474E-14
 -1      2336 2.48491E+01-2.26678E+00-2.43590E-02-1.87553E-02 2.28453E-13-1.82611E-13
 -1      2337 2.37659E+01-1.13232E+00-2.34700E-02-8.61591E-01 7.12841E-14-7.94091E-14
 -1      2338 2.34745E+01-8.20693E-01 1.71379E-02-1.17008E+00 7.75647E-14-3.94324E-14
 -1      2339 2.35968E+01-1.66254E+00-2.66750E-02-1.05129E+00 1.02056E-13-5.08825E-14
 -1      2340 2.30328E+01-5.59066E-01-1.29012E-02-1.34365E+00 7.49817E-14-3.06135E-15
 -1      2341 2.27417E+01-3.19908E-01 1.06573E-02-1.47913E+00 1.77760E-13-6.12481E-14
 -1      2342 2.26271E+01-9.00672E-01-2.07985E-02-1.57984E+00 8.10129E-14 1.36851E-13
 -1      2343 2.24458E+01-1.41276E-01-4.52547E-03-1.50393E+00 2.60628E-13-1.72741E-13
 -1      2344 2.21758E+01 4.55800E-03 5.43991E-03-1.52008E+00 2.63410E-13-6.12192E-14
 -1      2345 2.19568E+01-3.03259E-01-1.30191E-02-1.74273E+00 1.44305E-13 1.02372E-13
 -1      2346 2.19784E+01 1.04708E-01 8.88952E-04-1.46272E+00 2.34714E-13-1.58854E-13
 -1      2347 2.17362E+01 1.77036E-01 2.26115E-03-1.41032E+00 2.18755E-13-1.19858E-13
 -1      2348 2.15044E+01 6.87305E-02-7.13522E-03-1.68771E+00 1.63213E-13-7.92908E-14
 -1      2349 2.15983E+01 2.21797E-01 3.89601E-03-1.31501E+00 1.46431E-13-2.53919E-13
 -1      2350 2.13860E+01 2.46929E-01 6.28654E-04-1.23095E+00 1.17207E-14-2.53496E-13
 -1      2351 2.11879E+01 2.58949E-01-3.69354E-03-1.52028E+00 8.51729E-14-1.33946E-13
 -1      2352 2.12830E+01 2.58433E-01 5.23036E-03-1.12417E+00-6.52679E-15-3.16367E-13
 -1      2353 2.11007E+01 2.57274E-01-6.35907E-05-1.03146E+00 2.00113E-14-2.83475E-13
 -1      2354 2.09518E+01 3.30213E-01-2.01573E-03-1.30710E+00-2.68737E-14-3.46209E-13
 -1      2355 2.10191E+01 2.51300E-01 5.51707E-03-9.27825E-01-1.86791E-14-1.68393E-13
 -1      2356 2.08657E+01 2.37536E-01-2.70617E-04-8.39136E-01 1.95896E-14-9.94285E-14
 -1      2357 2.07649E+01 3.33780E-01-1.32717E-03-1.08723E+00 6.30571E-14-2.43201E-13
 -1      2358 2.07988E+01 2.23821E-01 5.21091E-03-7.45810E-01 3.51521E-14-1.38377E-13
 -1      2359 2.06723E+01 2.05430E-01-2.63311E-04-6.67109E-01-7.58223E-14 2.31430E-14
 -1      2360 2.06111E+01 3.03886E-01-1.09745E-03-8.81690E-01 5.01879E-14-2.52783E-13
 -1      2361 2.06169E+01 1.89404E-01 4.61670E-03-5.86864E-01-1.77251E-13 4.56191E-14
 -1      2362 2.05146E+01 1.70609E-01-1.83508E-04-5.20175E-01-9.10321E-14-5.18474E-14
 -1      2363 2.04828E+01 2.60865E-01-1.03285E-03-7.00274E-01-8.35321E-14-1.81827E-14
 -1      2364 2.04688E+01 1.55024E-01 3.92225E-03-4.53335E-01-1.39039E-14-1.18607E-13
 -1      2365 2.03874E+01 1.37820E-01-9.59657E-05-3.98564E-01 3.96113E-15-1.14368E-13
 -1      2366 2.03761E+01 2.15708E-01-9.97912E-04-5.46143E-01-1.37660E-13 9.74560E-15
 -1      2367 2.03500E+01 1.23899E-01 3.23403E-03-3.44193E-01-1.75419E-14 3.11092E-14
 -1      2368 2.02865E+01 1.09052E-01-2.51200E-05-3.00236E-01 3.07423E-14-5.62191E-14
 -1      2369 2.02882E+01 1.73763E-01-9.44382E-04-4.18761E-01 1.66230E-14 9.05889E-14
 -1      2370 2.02565E+01 9.72026E-02 2.60613E-03-2.56840E-01 9.45121E-15-9.08845E-14
 -1      2371 2.02077E+01 8.48449E-02 2.36167E-05-2.22205E-01-1.28603E-13-1.41771E-14
 -1      2372 2.02170E+01 1.37213E-01-8.64464E-04-3.15721E-01-3.06746E-14 1.40417E-13
 -1      2373 2.01840E+01 7.50638E-02 2.06093E-03-1.88130E-01-1.09608E-13-4.17090E-14
 -1      2374 2.01472E+01 6.50301E-02 5.26873E-05-1.61270E-01-1.84817E-13-3.39977E-14
 -1      2375 2.01603E+01 1.06575E-01-7.65348E-04-2.33848E-01-9.06390E-14-2.18235E-14
 -1      2376 2.01288E+01 5.71304E-02 1.60288E-03-1.34911E-01-1.70208E-13 2.55884E-15
 -1      2377 2.01016E+01 4.91347E-02 6.69240E-05-1.14386E-01-2.50593E-14 6.19999E-14
 -1      2378 2.01159E+01 8.15551E-02-6.57492E-04-1.69815E-01-1.30292E-13-2.65600E-14
 -1      2379 2.00876E+01 4.28626E-02 1.22713E-03-9.42904E-02 8.77396E-14 6.79223E-14
 -1      2380 2.00679E+01 3.65891E-02 7.10002E-05-7.88322E-02 2.81273E-14 1.97369E-13
 -1      2381 2.00819E+01 6.15193E-02-5.50041E-04-1.20472E-01-2.57230E-15 9.32417E-14
 -1      2382 2.00576E+01 3.16807E-02 9.24674E-04-6.37359E-02-1.07074E-13 1.34267E-13
 -1      2383 2.00436E+01 2.68252E-02 6.85419E-05-5.22692E-02-5.93656E-14 1.29308E-13
 -1      2384 2.00563E+01 4.57280E-02-4.49367E-04-8.30024E-02-1.01994E-13 2.91931E-13
 -1      2385 2.00361E+01 2.30326E-02 6.85110E-04-4.11069E-02-1.29221E-14 2.40220E-13
 -1      2386 2.00266E+01 1.93194E-02 6.19570E-05-3.27434E-02 1.64283E-13 1.67960E-13
 -1      2387 2.00375E+01 3.34522E-02-3.59084E-04-5.49791E-02 9.15427E-14 3.00137E-13
 -1      2388 2.00213E+01 1.64193E-02 4.98136E-04-2.46386E-02 3.13075E-13 2.58605E-13
 -1      2389 2.00150E+01 1.36057E-02 5.25695E-05-1.86622E-02 3.63937E-13 4.23913E-13
 -1      2390 2.00240E+01 2.40217E-02-2.80709E-04-3.43691E-02 2.27239E-13 3.11128E-13
 -1      2391 2.00114E+01 1.14014E-02 3.54377E-04-1.29119E-02 3.72365E-13 4.34423E-13
 -1      2392 2.00076E+01 9.27523E-03 4.09722E-05-8.76056E-03 3.92639E-13 3.54744E-13
 -1      2393 2.00146E+01 1.68405E-02-2.14306E-04-1.95127E-02 3.27895E-13 4.37434E-13
 -1      2394 2.00052E+01 7.59300E-03 2.45752E-04-4.81580E-03 3.22132E-13 2.97023E-13
 -1      2395 2.00031E+01 5.96569E-03 2.66344E-05-2.06355E-03 2.05350E-13 3.44608E-13
 -1      2396 2.00083E+01 1.13847E-02-1.58938E-04-9.09055E-03 3.05860E-13 3.19427E-13
 -1      2397 2.00016E+01 4.64530E-03 1.65211E-04 4.85613E-04 1.33675E-13 3.27357E-13
 -1      2398 2.00006E+01 3.35254E-03 1.32395E-05 2.13800E-03-1.02328E-13 2.71179E-13
 -1      2399 2.00042E+01 7.18326E-03-1.14384E-04-2.08484E-03 9.73650E-14 1.51073E-13
 -1      2400 1.99998E+01 2.21494E-03 9.79815E-05 3.59132E-03-2.55417E-13 4.22487E-13
 -1      2401 1.99995E+01 1.15435E-03 1.22806E-05 4.32105E-03-1.21596E-13 4.28741E-13
 -1      2402 2.00018E+01 3.83820E-03-7.57748E-05 2.24856E-03-1.50633E-13 1.30561E-14
 -1      2403 2.02895E+01 1.44676E-01 4.38520E-03-4.63139E-01 9.43551E-14 8.42091E-14
 -1      2404 2.02225E+01 1.73761E-01 7.51719E-03-3.85174E-01 1.32825E-13 1.43573E-13
 -1      2405 2.04486E+01 1.00019E-01 3.23328E-03-5.99322E-01 9.14569E-14-3.77183E-15
 -1      2406 2.03358E+01 1.21619E-01 4.47448E-03-5.45266E-01 7.98956E-14 4.62667E-14
 -1      2407 2.03577E+01 1.88637E-01-4.65703E-03-5.63844E-01 1.34443E-13-1.15666E-14
 -1      2408 2.06711E+01 5.77992E-02 1.81998E-03-6.89492E-01 1.11192E-13 2.05147E-14
 -1      2409 2.05279E+01 7.99188E-02 2.77660E-03-6.55737E-01 9.71988E-14 6.89569E-15
 -1      2410 2.04835E+01 1.25711E-01-3.92234E-03-7.17874E-01 9.42202E-14-5.92058E-14
 -1      2411 2.09380E+01 5.06577E-03-1.64470E-04-7.31995E-01 7.23547E-14 6.20645E-14
 -1      2412 2.07777E+01 3.41422E-02 1.83418E-03-7.21241E-01 9.39218E-14 6.75683E-14
 -1      2413 2.06688E+01 6.24395E-02-3.31728E-03-8.17867E-01 8.28088E-14 3.43990E-15
 -1      2414 2.12307E+01-6.88195E-02-2.89344E-03-7.13859E-01-1.18992E-14 1.35471E-13
 -1      2415 2.10676E+01-2.75488E-02 1.32448E-03-7.33770E-01 5.82798E-14 1.12771E-13
 -1      2416 2.09027E+01-1.86341E-02-2.89394E-03-8.59765E-01 3.78983E-14 5.95760E-14
 -1      2417 2.15280E+01-1.70379E-01-6.32208E-03-6.13546E-01 7.36542E-15 1.36940E-13
 -1      2418 2.13789E+01-1.14266E-01 1.03492E-03-6.75090E-01-2.95766E-14 1.11815E-13
 -1      2419 2.11760E+01-1.31045E-01-2.54933E-03-8.27263E-01-8.21207E-15 8.27596E-14
 -1      2420 2.18031E+01-2.96592E-01-9.98835E-03-4.06554E-01 6.42255E-14 1.08015E-13
 -1      2421 2.16884E+01-2.28880E-01 7.26933E-04-5.20527E-01 6.05130E-14 1.52179E-13
 -1      2422 2.14778E+01-2.80776E-01-2.02815E-03-6.94972E-01 4.64049E-14 7.89587E-14
 -1      2423 2.20209E+01-4.26151E-01-1.27920E-02-7.70174E-02 6.23330E-14 6.17675E-14
 -1      2424 2.19636E+01-3.60822E-01 2.77598E-05-2.47335E-01 6.72778E-14 9.63471E-14
 -1      2425 2.17910E+01-4.57586E-01-8.53654E-04-4.35331E-01 6.63545E-14 6.61144E-14
 -1      2426 2.21374E+01-5.10956E-01-1.28940E-02 3.62432E-01-5.70594E-14 1.12271E-13
 -1      2427 2.21591E+01-4.76633E-01-1.64371E-03 1.49006E-01 1.52144E-14 9.26218E-14
 -1      2428 2.20840E+01-6.22721E-01 1.56046E-03-3.30811E-02 1.52465E-14 7.43901E-14
 -1      2429 2.21059E+01-4.78361E-01-8.25069E-03 8.44852E-01-6.29462E-14 1.16148E-13
 -1      2430 2.22179E+01-5.14518E-01-4.64469E-03 6.29754E-01-5.59683E-14 1.31900E-13
 -1      2431 2.23040E+01-7.00337E-01 5.45731E-03 4.89725E-01-6.76221E-14 3.85006E-14
 -1      2432 2.18971E+01-2.61152E-01 1.49131E-03 1.23212E+00 2.14477E-14 5.88639E-14
 -1      2433 2.20884E+01-3.97944E-01-8.50436E-03 1.08737E+00-4.19300E-14 1.07773E-13
 -1      2434 2.23796E+01-5.89807E-01 9.72700E-03 1.04142E+00-3.07087E-14 3.62224E-14
 -1      2435 2.15367E+01 1.39082E-01 1.25720E-02 1.33816E+00 1.76292E-13 6.89800E-14
 -1      2436 2.17641E+01-8.32071E-02-1.10410E-02 1.34597E+00 9.30551E-14 8.23200E-14
 -1      2437 2.22516E+01-2.20531E-01 1.07823E-02 1.44294E+00 3.59623E-14-7.16603E-15
 -1      2438 2.11397E+01 5.95446E-01 1.77046E-02 1.02179E+00 1.66641E-13 1.07290E-13
 -1      2439 2.13321E+01 3.69851E-01-8.99103E-03 1.22540E+00 2.09775E-13 1.40847E-13
 -1      2440 2.19371E+01 3.58092E-01 4.19482E-03 1.46927E+00 1.35422E-13 4.94514E-14
 -1      2441 2.08886E+01 8.82742E-01 1.22569E-02 3.11433E-01 8.38635E-14 1.26030E-13
 -1      2442 2.09732E+01 7.74779E-01-7.73929E-04 6.66172E-01 1.21913E-13 1.39039E-13
 -1      2443 2.15800E+01 9.33165E-01-8.66582E-03 9.82668E-01 1.11474E-13 9.84415E-14
 -1      2444 2.09367E+01 8.33411E-01 2.94382E-03-5.34823E-01 9.02195E-14 1.16230E-13
 -1      2445 2.08770E+01 9.04523E-01 1.25024E-02-1.63640E-01 6.96327E-14 7.92376E-14
 -1      2446 2.14052E+01 1.21367E+00-1.32528E-02 8.44356E-02 5.42066E-14 6.90279E-14
 -1      2447 2.12689E+01 4.79622E-01-7.18577E-03-1.18025E+00 9.49497E-14 6.99254E-14
 -1      2448 2.10863E+01 6.87004E-01 1.88078E-02-9.33691E-01 1.24257E-13 1.49888E-13
 -1      2449 2.15329E+01 1.03310E+00-9.19400E-03-8.56990E-01 9.19733E-14 1.36595E-13
 -1      2450 2.17256E+01 2.31199E-02-9.97266E-03-1.41025E+00 1.83608E-13-2.92227E-14
 -1      2451 2.14858E+01 2.51730E-01 1.46425E-02-1.35497E+00 1.37369E-13 2.00803E-14
 -1      2452 2.18826E+01 5.07422E-01 1.77707E-03-1.46131E+00 1.96257E-13 1.44972E-14
 -1      2453 2.21118E+01-3.28074E-01-7.43351E-03-1.23607E+00 5.00437E-14-3.27078E-14
 -1      2454 2.18893E+01-1.73128E-01 3.92818E-03-1.34451E+00 1.54841E-13 1.24501E-14
 -1      2455 2.22414E+01-8.81959E-02 1.02748E-02-1.55499E+00 1.54609E-13-4.25146E-14
 -1      2456 2.23168E+01-4.85598E-01-3.72548E-03-8.21302E-01-7.20509E-14-8.97657E-14
 -1      2457 2.21636E+01-4.31805E-01-6.55510E-03-1.01626E+00-2.22765E-14-8.26748E-14
 -1      2458 2.24368E+01-5.11479E-01 9.88639E-03-1.23282E+00 3.44852E-14-8.40038E-14
 -1      2459 2.23305E+01-4.74572E-01-6.63282E-04-3.50004E-01 1.02288E-14-5.96646E-14
 -1      2460 2.22649E+01-4.98284E-01-1.22003E-02-5.55909E-01-1.12424E-13-7.16854E-14
 -1      2461 2.24267E+01-6.73614E-01 5.67171E-03-7.13386E-01-6.05716E-14-1.61915E-13
 -1      2462 2.21989E+01-3.69269E-01 9.13419E-04 5.35804E-02-1.06640E-13-1.94544E-14
 -1      2463 2.22136E+01-4.30817E-01-1.28098E-02-1.16070E-01 3.36146E-14-2.62022E-14
 -1      2464 2.22592E+01-6.26679E-01 1.56490E-03-1.91811E-01-3.32163E-14-1.42588E-13
 -1      2465 2.19797E+01-2.37289E-01 1.39252E-03 3.37621E-01-1.21752E-14 1.18336E-13
 -1      2466 2.20547E+01-3.05130E-01-1.04172E-02 2.21898E-01-1.02237E-13 6.46767E-14
 -1      2467 2.20062E+01-4.71103E-01-9.07869E-04 2.21511E-01-1.12262E-13-1.52730E-13
 -1      2468 2.17202E+01-1.19145E-01 1.34897E-03 5.00834E-01 1.96319E-14 2.09891E-13
 -1      2469 2.18327E+01-1.76286E-01-6.98283E-03 4.37139E-01 3.78183E-14 2.03780E-13
 -1      2470 2.17251E+01-2.91900E-01-1.92773E-03 4.93204E-01-6.41193E-14-4.69994E-14
 -1      2471 2.14528E+01-3.08383E-02 1.16201E-03 5.66251E-01-1.17486E-14 3.95463E-13
 -1      2472 2.15830E+01-7.17286E-02-3.71278E-03 5.43620E-01 2.55469E-14 3.04407E-13
 -1      2473 2.14495E+01-1.37203E-01-2.11941E-03 6.35322E-01-5.23014E-14 1.33514E-13
 -1      2474 2.11975E+01 2.65279E-02 9.84926E-04 5.63250E-01 8.31879E-14 3.39873E-13
 -1      2475 2.13305E+01 1.08745E-03-1.13891E-03 5.68721E-01 7.93138E-14 4.44203E-13
 -1      2476 2.11959E+01-2.43211E-02-1.97794E-03 6.78173E-01 1.53289E-14 3.04314E-13
 -1      2477 2.09656E+01 5.84807E-02 8.51606E-04 5.18396E-01 2.02872E-13 1.50621E-13
 -1      2478 2.10914E+01 4.51699E-02 6.24536E-04 5.40576E-01 1.68843E-13 3.56248E-13
 -1      2479 2.09709E+01 4.73665E-02-1.76349E-03 6.54318E-01 1.78601E-13 2.63222E-13
 -1      2480 2.07626E+01 7.21756E-02 7.53550E-04 4.52145E-01 2.57696E-14 1.13299E-14
 -1      2481 2.08754E+01 6.73029E-02 1.67347E-03 4.82432E-01 1.64284E-13 1.35967E-13
 -1      2482 2.07759E+01 8.60354E-02-1.56789E-03 5.91359E-01 1.72640E-13 3.20287E-13
 -1      2483 2.05901E+01 7.40410E-02 6.74123E-04 3.78636E-01 4.01588E-15 3.80158E-14
 -1      2484 2.06872E+01 7.44715E-02 2.17753E-03 4.11194E-01-2.33455E-14 4.89032E-14
 -1      2485 2.06104E+01 1.01363E-01-1.40323E-03 5.09846E-01 4.34254E-14 2.13995E-13
 -1      2486 2.04474E+01 6.90173E-02 6.01897E-04 3.06748E-01 1.36012E-13 1.38985E-13
 -1      2487 2.05281E+01 7.24164E-02 2.30718E-03 3.37999E-01 9.43035E-14 7.69325E-14
 -1      2488 2.04722E+01 1.01792E-01-1.25732E-03 4.23682E-01 7.36102E-14 3.30388E-13
 -1      2489 2.03318E+01 6.05563E-02 5.31761E-04 2.41456E-01 2.37321E-13 2.73849E-13
 -1      2490 2.03971E+01 6.53302E-02 2.20383E-03 2.69464E-01 1.81195E-13 1.83601E-13
 -1      2491 2.03590E+01 9.37116E-02-1.11837E-03 3.41426E-01 1.40527E-13 4.68739E-13
 -1      2492 2.02404E+01 5.08938E-02 4.62711E-04 1.85049E-01 2.86975E-14 3.90313E-13
 -1      2493 2.02918E+01 5.60326E-02 1.97287E-03 2.08992E-01 1.54635E-13 3.73396E-13
 -1      2494 2.02678E+01 8.15372E-02-9.81559E-04 2.67734E-01 1.11776E-13 4.09173E-13
 -1      2495 2.01696E+01 4.13692E-02 3.95875E-04 1.38106E-01-1.64333E-13 2.62178E-13
 -1      2496 2.02091E+01 4.62841E-02 1.68684E-03 1.57853E-01 2.38101E-14 3.39198E-13
 -1      2497 2.01957E+01 6.81011E-02-8.47099E-04 2.04604E-01 1.02712E-13 4.56918E-13
 -1      2498 2.01160E+01 3.27065E-02 3.33005E-04 1.00194E-01-3.07066E-14-5.89100E-14
 -1      2499 2.01456E+01 3.70930E-02 1.39202E-03 1.16014E-01-1.69382E-13 1.65253E-13
 -1      2500 2.01397E+01 5.50784E-02-7.17637E-04 1.52346E-01-1.44911E-14 2.48395E-13
 -1      2501 2.00763E+01 2.52300E-02 2.75593E-04 7.03537E-02-1.66180E-13-1.04308E-13
 -1      2502 2.00979E+01 2.89653E-02 1.11535E-03 8.27113E-02-3.42750E-14-9.37347E-14
 -1      2503 2.00971E+01 4.33554E-02-5.96473E-04 1.10293E-01 7.91560E-15 7.69345E-14
 -1      2504 2.00478E+01 1.90181E-02 2.24458E-04 4.74087E-02-2.01602E-13-4.71886E-14
 -1      2505 2.00630E+01 2.20894E-02 8.70581E-04 5.68405E-02-2.84525E-13-1.07346E-13
 -1      2506 2.00653E+01 3.33094E-02-4.86412E-04 7.72745E-02-2.13046E-13 7.08496E-14
 -1      2507 2.00278E+01 1.40057E-02 1.79676E-04 3.01594E-02 1.04510E-13 1.02689E-13
 -1      2508 2.00382E+01 1.64628E-02 6.62878E-04 3.71961E-02-4.24595E-14 2.83436E-14
 -1      2509 2.00422E+01 2.50062E-02-3.89121E-04 5.19313E-02-1.30907E-13-1.11490E-13
 -1      2510 2.00145E+01 1.00516E-02 1.40585E-04 1.74943E-02 7.14231E-14 1.77543E-13
 -1      2511 2.00212E+01 1.19767E-02 4.92134E-04 2.26178E-02 1.00138E-13 1.41413E-13
 -1      2512 2.00258E+01 1.83322E-02-3.05128E-04 3.29094E-02 1.09873E-13 1.79977E-13
 -1      2513 2.00061E+01 6.97829E-03 1.05435E-04 8.44949E-03 3.21103E-14 1.87680E-13
 -1      2514 2.00101E+01 8.46781E-03 3.55205E-04 1.20704E-02 1.05479E-13 1.94575E-13
 -1      2515 2.00147E+01 1.30796E-02-2.34128E-04 1.89708E-02 8.45232E-14 1.63929E-13
 -1      2516 2.00013E+01 4.60146E-03 7.73543E-05 2.23891E-03 1.48661E-13 4.49902E-13
 -1      2517 2.00033E+01 5.75047E-03 2.47488E-04 4.68550E-03-5.62484E-15 3.07759E-13
 -1      2518 2.00074E+01 8.99607E-03-1.74897E-04 9.05163E-03-2.85628E-14 1.29346E-13
 -1      2519 1.99989E+01 2.70198E-03 5.10977E-05-1.76020E-03 1.24324E-13 4.83831E-13
 -1      2520 1.99997E+01 3.62106E-03 1.58846E-04-2.46395E-04 1.66755E-13 5.47316E-13
 -1      2521 2.00030E+01 5.83808E-03-1.26260E-04 2.30006E-03 3.68900E-15 4.26157E-13
 -1      2522 1.99982E+01 1.07597E-03 2.04193E-05-3.93758E-03 8.58981E-15 5.58265E-13
 -1      2523 1.99981E+01 1.86950E-03 9.60740E-05-3.20030E-03 1.02441E-13 5.12615E-13
 -1      2524 2.00006E+01 3.18002E-03-1.14301E-04-2.01639E-03-4.64456E-14 4.39910E-13
 -1      2525 1.99984E+01-4.34947E-04-1.05941E-05-4.55789E-03-3.68212E-14 6.22132E-13
 -1      2526 1.99979E+01 3.54795E-04 6.87031E-05-4.48363E-03 1.32691E-14 6.41825E-13
 -1      2527 1.99995E+01 8.63573E-04-8.99602E-05-4.30451E-03 1.00941E-14 6.28429E-13
 -1      2528 1.99985E+01-1.26996E-03 2.61971E-05-4.33661E-03-6.23412E-14 4.57176E-13
 -1      2529 2.00012E+01 1.98030E-04-2.71543E-05-1.59806E-03 1.66328E-13 1.01650E-13
 -1      2530 2.00013E+01 2.07331E-04 3.48313E-05-2.07611E-03 2.00773E-13-1.60938E-13
 -1      2531 2.00008E+01 9.04110E-04-2.62592E-05-8.39284E-04 2.83027E-13-9.67042E-14
 -1      2532 2.00010E+01 8.78475E-04 2.95376E-05-1.19397E-03 1.57794E-13 1.01777E-13
 -1      2533 2.00015E+01 4.27919E-03 2.97049E-05-1.08770E-03 2.36162E-13-2.03798E-15
 -1      2534 2.00011E+01-1.06942E-03-1.10536E-05-3.75883E-03-4.07084E-14-1.63788E-13
 -1      2535 2.00008E+01-8.03691E-04 1.92635E-05-4.13463E-03 1.74406E-14-9.87651E-14
 -1      2536 2.00014E+01-5.29619E-04-1.58380E-05-2.63189E-03 5.16444E-14 1.06256E-13
 -1      2537 2.00014E+01-4.32790E-04 3.23010E-05-3.16325E-03-3.61255E-14 6.51209E-14
 -1      2538 2.00017E+01 1.48640E-03-3.04297E-05-3.27191E-03 1.63434E-13-7.49831E-14
 -1      2539 2.00018E+01 2.89650E-03 1.41647E-05-2.04597E-03 2.70106E-13 8.36393E-14
 -1      2540 2.00006E+01 1.38469E-03-1.69336E-05-3.64743E-04 5.82493E-16 1.25343E-13
 -1      2541 2.00007E+01 1.36839E-03 1.39321E-05-6.12671E-04 8.87178E-14-2.45532E-13
 -1      2542 2.00011E+01 5.38878E-03 4.29134E-05-5.07834E-04 1.31602E-13-1.78190E-13
 -1      2543 2.00006E+01 1.51195E-03-1.48119E-06-2.60873E-05-5.19023E-14 1.23354E-13
 -1      2544 2.00005E+01 1.53333E-03-3.64707E-06-2.40862E-04-1.45281E-13 3.48851E-13
 -1      2545 2.00008E+01 5.98017E-03 5.00026E-05-2.37153E-04-7.96150E-14 9.00958E-14
 -1      2546 2.00008E+01 1.25666E-03 1.59726E-05 3.86716E-04 6.61526E-14-2.03314E-13
 -1      2547 2.00006E+01 1.31347E-03-1.83008E-05 1.12960E-04-3.11044E-15-3.15319E-14
 -1      2548 2.00009E+01 5.93319E-03 4.93580E-05-6.29572E-05-1.15009E-13 1.40548E-15
 -1      2549 2.00012E+01 7.08732E-04 3.07225E-05 1.04203E-03-2.63317E-14-6.06952E-13
 -1      2550 2.00010E+01 7.59768E-04-2.70688E-05 6.51010E-04 1.71401E-13-5.87723E-13
 -1      2551 2.00012E+01 5.26471E-03 4.25219E-05 2.63904E-04 2.22500E-13-3.50343E-13
 -1      2552 2.00015E+01-3.08458E-07 3.61076E-05 2.03346E-03-1.98192E-13-2.41724E-13
 -1      2553 2.00013E+01 4.74950E-06-2.72037E-05 1.50374E-03-3.60005E-14-5.60963E-13
 -1      2554 2.00017E+01 4.10328E-03 2.73686E-05 9.43686E-04 1.17370E-13-6.13318E-13
 -1      2555 2.00015E+01-6.71930E-04 2.28007E-05 3.24172E-03-2.12256E-13-6.78272E-14
 -1      2556 2.00016E+01-7.47786E-04-1.47238E-05 2.65997E-03-3.66648E-13 2.43862E-13
 -1      2557 2.00020E+01 2.69192E-03 1.64391E-05 2.04600E-03-2.35610E-13-1.33786E-13
 -1      2558 2.00009E+01-1.04664E-03 7.51340E-06 4.32201E-03-1.30934E-13-1.26886E-13
 -1      2559 2.00013E+01-1.27302E-03-3.57559E-06 3.90081E-03-8.35949E-14-2.92674E-13
 -1      2560 2.00019E+01 1.28210E-03-1.75441E-05 3.35002E-03-2.02083E-13-6.05511E-14
 -1      2561 5.38883E+00-2.29982E+00 1.19872E-01 3.59213E+00-8.26839E-14 5.88529E-13
 -1      2562 3.98131E+00-2.17950E+00 1.39771E-01 1.23342E+00-6.61797E-14 7.31415E-13
 -1      2563 1.90846E+01-5.25629E+00-1.22046E-02 6.64838E+00-5.76206E-14-6.42923E-14
 -1      2564 1.53510E+01-5.12958E+00 7.63198E-02 6.83356E+00-1.74222E-13-6.15480E-15
 -1      2565 2.16284E+01-5.27250E+00 8.27469E-02 5.45506E+00-2.07390E-13-2.01200E-13
 -1      2566 2.02161E+01 2.08921E-01 5.64700E-03-2.68610E-01 1.74000E-13 1.53309E-13
 -1      2567 2.02153E+01 2.57764E-01 1.27838E-02-1.54038E-01 2.02152E-13 1.89215E-13
 -1      2568 2.03052E+01 2.74050E-01-5.19109E-03-3.45126E-01 1.85657E-13 4.36337E-14
 -1      2569 2.97055E+01-1.22700E+00-1.29051E-01 1.27107E+00 4.19808E-13-5.30909E-13
 -1      2570 2.79642E+01-2.73432E+00-2.01823E-02 2.20968E+00 2.10686E-13-4.13058E-13
 -1      2571 1.99994E+01-1.78593E-03 3.14290E-05 4.76700E-03-1.90634E-13 3.47993E-13
 -1      2572 6.05143E+00-3.79892E+00 5.24889E-02-4.56540E+00 1.81688E-13 7.11819E-13
 -1      2573 9.16051E+00-4.61067E+00 1.92181E-02-6.13725E+00 2.42251E-13 7.79238E-13
 -1      2574 1.12522E+01-4.39279E+00 4.31472E-02 6.92513E+00-2.71227E-13 1.11966E-13
 -1      2575 7.95041E+00-3.50770E+00 1.18780E-01 5.67407E+00-2.63761E-13 3.77004E-13
 -1      2576 3.63622E+00-2.34466E+00 9.56943E-02-8.41743E-01 7.78405E-14 5.64104E-13
 -1      2577 4.45762E+00-2.71770E+00 1.09016E-01-2.79607E+00 1.12993E-13 5.78593E-13
 -1      2578 3.36870E+01 6.49844E+00-9.67581E-02-9.31502E-01-7.93199E-13 2.45401E-13
 -1      2579 3.37299E+01 5.18199E+00-2.98045E-02-1.08083E+00-6.97720E-13 3.24935E-13
 -1      2580 2.56189E+01-4.83490E+00-5.99817E-02 3.96174E+00-1.24512E-13 1.63008E-13
 -1      2581 2.19431E+01-5.64258E+00-2.86694E-02 5.28332E+00-5.76206E-14 3.28904E-14
 -1      2582 1.16877E+01-4.79177E+00 4.25957E-02 6.67276E+00 1.60982E-13-2.73476E-13
 -1      2583 8.22073E+00-3.88226E+00 9.44018E-02 5.47837E+00 2.62318E-13-5.05679E-13
 -1      2584 1.24677E+01-4.78675E+00 9.18168E-02-6.80942E+00-1.51518E-13-5.96689E-13
 -1      2585 1.65271E+01-5.23175E+00 2.56026E-02-7.07922E+00-4.91829E-14-4.53748E-13
 -1      2586 1.92980E+01 3.82620E+00-9.75499E-03-1.96817E-01 7.74658E-14-5.09153E-13
 -1      2587 1.93301E+01 3.80103E+00-8.79890E-03-3.42573E-01 3.48479E-14-5.15215E-13
 -1      2588 1.94898E+01 3.44250E+00 9.30695E-04-3.60895E-01 1.78236E-14-4.97316E-13
 -1      2589 1.94219E+01 3.51612E+00 6.50971E-04-1.23329E-01 8.79760E-14-4.71147E-13
 -1      2590 3.21785E+01 3.97725E+00-3.04767E-02 6.17400E-01 4.80449E-13-4.31155E-13
 -1      2591 3.17001E+01 5.76953E+00-1.82984E-01 1.06658E+00 4.86833E-13-4.45172E-13
 -1      2592 3.20856E+01 6.86879E+00-1.46943E-01-6.56997E-01 8.23341E-13-4.23564E-13
 -1      2593 3.17346E+01 5.94573E+00-1.11587E-01-1.06579E+00 8.53206E-13-4.24105E-13
 -1      2594 5.07979E+00-2.75430E+00 9.57686E-02 3.28674E+00 2.02519E-13-7.28528E-13
 -1      2595 3.34900E+00-2.99908E+00 8.25283E-02 1.11886E+00 1.10370E-13-9.54348E-13
 -1      2596 3.15494E+01 7.33430E+00-1.73678E-01 4.05189E-01 7.40186E-13-4.38344E-13
 -1      2597 3.21539E+01 7.57281E+00-1.05759E-01-1.74684E-01 8.29448E-13-4.66606E-13
 -1      2598 2.99664E+01 6.95131E+00-8.49544E-02-6.09600E-01 8.22731E-13-4.17763E-13
 -1      2599 3.04853E+01-4.85696E-02-4.04277E-02-1.28359E+00 3.91027E-13-3.75255E-13
 -1      2600 3.18281E+01 1.75570E+00-1.26320E-01-4.00234E-01 4.45366E-13-3.24574E-13
 -1      2601 2.63922E+01-3.59648E+00 2.38894E-03-3.61214E+00 1.62870E-13-4.28213E-13
 -1      2602 2.90581E+01-1.96437E+00-5.16649E-02-2.72889E+00 3.29181E-13-3.97793E-13
 -1      2603 2.94392E+01-1.55275E+00 2.02448E-02-9.04463E-01 1.75760E-13-1.04056E-13
 -1      2604 1.95400E+01-5.48071E+00 2.43491E-02-6.23638E+00-5.91194E-14-4.23384E-13
 -1      2605 2.28992E+01-5.00724E+00-6.00137E-02-5.54193E+00-2.07334E-14-4.60243E-13
 -1      2606 1.90981E+01-5.24825E+00 1.05078E-01-6.26610E+00-2.42362E-13-3.44835E-13
 -1      2607 6.15269E+00-3.55609E+00 8.74389E-02-4.74227E+00-1.53488E-13-9.00391E-13
 -1      2608 8.40773E+00-3.83807E+00 5.81319E-02-6.16937E+00-1.21514E-13-7.46736E-13
 -1      2609 3.14200E+01-8.33590E-01-6.21569E-02 6.92188E-01-3.63432E-13 2.24931E-13
 -1      2610 2.88289E+01-3.11174E+00-1.82471E-02 1.93129E+00-3.02106E-13 2.57128E-13
 -1      2611 2.91815E+00-3.08912E+00 4.19308E-02-8.21911E-01-3.16726E-14-1.04483E-12
 -1      2612 4.10105E+00-2.98733E+00 8.63748E-02-3.21403E+00-3.44169E-14-1.02740E-12
 -1      2613 6.69251E+00-2.18016E+00 1.52142E-01-3.83926E+00-1.24345E-13-9.24844E-13
 -1      2614 5.12875E+00-1.58915E+00 1.63652E-01-2.35765E-02 1.21096E-13-9.25315E-13
 -1      2615 1.93176E+01-5.73222E+00 4.71867E-04 6.39650E+00-2.14828E-14-7.24490E-14
 -1      2616 1.59554E+01-5.57318E+00 3.95340E-02 6.51003E+00 8.90399E-14-9.68739E-14
 -1      2617 2.20023E+01-5.69651E+00 2.91837E-02 5.24867E+00 1.33032E-13 9.84594E-14
 -1      2618 3.31976E+01 6.93446E+00-1.09323E-01 6.29977E-01-8.39107E-13 6.16174E-15
 -1      2619 3.33535E+01 7.21749E+00-1.07611E-01-8.45379E-02-8.16347E-13 1.20452E-13
 -1      2620 3.35896E+01 3.50081E+00-1.14046E-01-8.23420E-01-6.24334E-13 3.92547E-13
 -1      2621 3.25923E+01 1.89457E+00-4.50051E-02-6.31019E-01-5.05818E-13 3.03924E-13
 -1      2622 3.19964E+01 4.32735E+00 2.03907E-02-1.90294E+00-6.11483E-13 4.36595E-13
 -1      2623 2.72932E+01-3.99732E+00-2.85417E-02-2.88639E+00-4.46865E-15-2.48940E-13
 -1      2624 2.98910E+01-2.46013E+00-1.25284E-01-1.60020E+00-1.05721E-13-3.65791E-13
 -1      2625 3.28922E+01 4.42499E+00-8.58558E-02 1.47657E+00-5.20389E-13-1.09662E-13
 -1      2626 3.31362E+01 5.67655E+00-1.52268E-01 1.24017E+00-6.71019E-13-1.09329E-13
 -1      2627 3.14663E+01-1.27161E-01-3.93445E-02 2.27052E-01-2.15272E-13-2.44527E-13
 -1      2628 3.25977E+01 2.03607E+00-1.52799E-01 1.05762E+00-3.73340E-13-2.07112E-13
 -1      2629 2.10074E+01-5.64667E+00 2.48762E-02-5.49787E+00 2.80304E-13 1.81299E-13
 -1      2630 2.45185E+01-5.07366E+00-5.78398E-02-4.72378E+00 7.48013E-14-2.42029E-14
 -1      2631 1.28673E+01-5.27984E+00 3.38210E-02-6.44341E+00 3.33511E-13 6.40737E-13
 -1      2632 1.67373E+01-5.48821E+00-2.50367E-02-6.67422E+00 3.98570E-13 5.06900E-13
 -1      2633 2.07061E+01 1.98765E+00-1.21419E-02-1.67037E+00-3.42283E-13-2.41277E-13
 -1      2634 2.06128E+01 1.26385E+00-5.32070E-03-1.04012E+00-3.04225E-13-2.09390E-13
 -1      2635 2.05560E+01 1.45641E+00 4.09053E-03-9.48034E-01-2.77421E-13-2.66552E-13
 -1      2636 2.04245E+01 2.43480E+00-5.47999E-03-1.59834E+00-3.28159E-13-3.29136E-13
 -1      2637 2.06976E+01 8.91059E-01-5.28371E-03 1.03756E+00 3.52319E-13 3.53532E-13
 -1      2638 2.10052E+01 1.26286E+00-5.34495E-03 1.54639E+00 3.70624E-13 4.04425E-13
 -1      2639 2.08086E+01 1.72398E+00-1.57796E-02 1.72256E+00 4.12801E-13 2.58968E-13
 -1      2640 2.06507E+01 1.09002E+00-9.86338E-03 1.00954E+00 3.59813E-13 1.63695E-13
 -1      2641 2.87555E+01 4.85570E+00-1.36430E-01 1.56208E+00 3.65985E-13-1.33421E-13
 -1      2642 3.05208E+01 6.25877E+00-1.00234E-01 1.04587E+00 5.47423E-13-3.20438E-13
 -1      2643 2.86134E+01 6.32865E+00-1.36413E-01 9.67330E-01 5.80480E-13-2.06155E-13
 -1      2644 1.98543E+01 3.01004E+00 3.42279E-03-8.58208E-01-1.54458E-13-4.69803E-13
 -1      2645 1.97608E+01 3.30244E+00-1.59658E-02-1.05569E+00-1.69846E-13-5.14140E-13
 -1      2646 1.99045E+01 3.16122E+00-1.56524E-02-1.23979E+00-2.25647E-13-5.02837E-13
 -1      2647 2.03413E+01 4.18055E-01-4.83887E-03-3.24709E-02 2.43654E-13 5.81887E-14
 -1      2648 2.67648E+01-3.93753E+00 1.38857E-02 2.58094E+00 6.53644E-14-4.09894E-13
 -1      2649 2.05719E+01 2.13844E+00-1.26240E-02 1.65964E+00 4.21178E-13 7.98233E-14
 -1      2650 2.02143E+01 2.69340E+00-1.24113E-02-1.43131E+00-2.77512E-13-4.07167E-13
 -1      2651 1.26436E+01-4.23438E+00 1.27937E-01-6.25236E+00 4.09756E-13 5.50171E-13
 -1      2652 2.95981E+01-2.54695E-01-1.92824E-02-4.68994E-01 4.14432E-13-5.93858E-13
 -1      2653 2.00627E+01-5.48465E+00 9.55148E-02-5.67760E+00 4.63934E-13 2.61976E-13
 -1      2654 3.02326E+01-1.69413E+00 3.45069E-02 3.41026E-01-1.40929E-14-3.14915E-13
 -1      2655 3.12072E+01 2.58332E+00-5.37619E-02 2.00666E+00-3.45113E-13-1.20765E-13
 -1      2656 1.99992E+01-1.04036E-03-2.88707E-05-4.70804E-03-4.38791E-14 3.46884E-13
 -1      2657 2.00000E+01-1.19709E-03 4.71572E-06-4.63721E-03 8.46866E-14 2.92970E-13
 -1      2658 5.77854E+00-1.13685E+00 1.76161E-01 2.23216E-01 4.47871E-14 5.78843E-13
 -1      2659 7.70990E+00-2.29956E+00 1.60092E-01 4.60406E+00-2.25625E-13 3.72369E-13
 -1      2660 8.03557E+00-9.68669E-01 1.59671E-01 3.44188E+00-1.61503E-13 2.79776E-13
 -1      2661 1.01982E+01-2.23840E+00 8.69305E-02 5.29473E+00-3.66929E-13 1.10301E-13
 -1      2662 1.47053E+01-4.41057E+00 9.90718E-02 6.68930E+00-2.83856E-13 7.22200E-14
 -1      2663 3.11468E+01-1.13481E-01-2.28216E-02-1.12573E+00-3.96898E-13 3.75644E-13
 -1      2664 2.50463E+01-4.72666E+00 3.01900E-02-3.98412E+00-1.45439E-13-3.16788E-13
 -1      2665 1.99993E+01-4.34744E-04 1.34918E-06 4.78725E-03-4.18918E-15 4.77559E-13
 -1      2666 2.00003E+01-1.17191E-03-2.61497E-05 4.80623E-03-1.74837E-13 1.83898E-13
 -1      2667 2.00010E+01 6.45410E-04 3.21411E-05 4.38578E-03-5.40304E-14 1.73697E-14
 -1      2668 1.99992E+01 4.26327E-04 5.38445E-05 4.78418E-03-5.12741E-14 5.47717E-13
 -1      2669 7.15718E+00-2.34371E+00 1.41876E-01-3.84631E+00 1.77094E-13 7.08822E-13
 -1      2670 7.58500E+00-2.71680E+00 1.54156E-01 4.45751E+00 2.61097E-13-5.47284E-13
 -1      2671 7.51357E+00-1.40618E+00 1.65200E-01 3.22705E+00 2.46414E-13-5.88779E-13
 -1      2672 1.03201E+01-2.61384E+00 1.00376E-01 5.14211E+00 3.68358E-13-3.58436E-13
 -1      2673 1.22922E+01-3.79779E+00 1.28880E-01-6.41427E+00-2.47191E-13-6.12371E-13
 -1      2674 3.14787E+01 6.32912E+00-9.51220E-02-6.58928E-01-6.88560E-13 2.56600E-13
 -1      2675 1.53822E+01-4.84880E+00 8.76279E-02 6.38480E+00 2.71727E-13-1.45162E-13
 -1      2676 2.76037E+01-4.46209E+00-3.21222E-02 2.31383E+00-1.51407E-13 2.35006E-13
 -1      2677 2.62605E+01-4.92458E+00 1.19807E-01 2.71791E+00 2.30510E-14 2.84432E-13
 -1      2678 2.84427E+01-3.64733E+00-1.40764E-01 3.95378E-01-1.43809E-13 3.11584E-13
 -1      2679 3.05909E+01 2.41181E+00-1.13522E-02 1.05516E+00 3.10640E-13-2.15605E-13
 -1      2680 3.01799E+01 4.22083E+00-7.66786E-02-1.48520E+00 6.85701E-13-4.55996E-13
 -1      2681 3.11590E+01 5.91383E+00-8.95267E-02 1.29854E+00-7.15150E-13-6.43929E-15
 -1      2682 2.65468E+01-4.85833E+00 4.46163E-02-2.93591E+00 2.22322E-13-3.40977E-13
 -1      2683 2.05780E+01 1.85619E+00 1.21804E-02 1.32305E+00 3.94285E-13 2.68379E-14
 -1      2684 2.00006E+01 4.55765E-04 4.02750E-05-4.40299E-03 1.13980E-13 8.82775E-14
 -1      2685 2.00006E+01 1.25394E-03-7.17179E-05 4.27637E-03-5.88825E-14 3.19178E-13
 -1      2686 1.96170E+01 3.05822E+00-5.41794E-03 3.46661E-01 2.26073E-13-3.81742E-13
 -1      2687 1.95581E+01 3.12343E+00-6.58246E-03 2.31644E-01 1.88878E-13-4.02016E-13
 -1      2688 1.95166E+01 3.18048E+00-5.20398E-03 1.43353E-01 1.53187E-13-4.26879E-13
 -1      2689 1.94931E+01 3.20517E+00-5.97052E-03 3.10905E-02 1.27748E-13-4.35132E-13
 -1      2690 1.96407E+01 2.86697E+00 4.83539E-03 1.41515E-01 1.55702E-13-3.85742E-13
 -1      2691 2.00129E+01 2.50476E+00-9.27101E-03 7.71757E-01 3.37125E-13-2.49854E-13
 -1      2692 1.98928E+01 2.67856E+00-7.56848E-03 6.51836E-01 3.02877E-13-3.00187E-13
 -1      2693 2.02938E+01 2.02627E+00-1.06319E-02 9.43060E-01 3.64488E-13-1.43804E-13
 -1      2694 2.01483E+01 2.28884E+00-6.08389E-03 8.50851E-01 3.48007E-13-1.95010E-13
 -1      2695 2.01776E+01 2.07481E+00 6.44612E-03 6.19984E-01 3.07817E-13-2.00798E-13
 -1      2696 2.00021E+01 3.07994E-03-1.96513E-05-2.93303E-03 5.20155E-14-1.99021E-13
 -1      2697 2.00012E+01 2.34371E-03 1.74220E-05-3.45801E-03 7.55807E-14 1.52587E-13
 -1      2698 2.00017E+01 3.84391E-03 9.01456E-05-2.62083E-03-7.83522E-14 1.09250E-13
 -1      2699 2.04476E+01 8.20303E-01-1.45533E-03 3.27457E-01 2.84880E-13-1.69842E-14
 -1      2700 2.05496E+01 1.02955E+00 9.25738E-03 6.19038E-01 3.07770E-13 1.13187E-14
 -1      2701 2.04985E+01 1.56452E+00-1.09227E-03 1.00773E+00 3.61804E-13-1.27845E-14
 -1      2702 2.85352E+01 3.18927E-01-2.02098E-01-1.40389E+00 4.52374E-13-5.36515E-13
 -1      2703 2.82263E+01-1.48150E+00 5.52334E-03-5.29828E-01 3.05686E-13-5.89695E-13
 -1      2704 2.04120E+01 8.29315E-01 7.01144E-03 7.55035E-03-1.56132E-13-2.61258E-13
 -1      2705 2.03722E+01 7.09099E-01-6.06142E-04 2.22642E-01-1.48120E-13-2.54155E-13
 -1      2706 2.03502E+01 6.26418E-01 4.92317E-03 4.08005E-01-1.43296E-13-2.26137E-13
 -1      2707 2.03449E+01 5.65035E-01 1.43875E-03 5.76929E-01-1.10776E-13-2.47489E-13
 -1      2708 2.03207E+01 8.33911E-01-1.62796E-03 2.95108E-01-1.42013E-13-2.55729E-13
 -1      2709 2.03221E+01 5.24918E-01 2.55515E-03 7.33015E-01-9.79720E-14-2.37059E-13
 -1      2710 2.03508E+01 4.98080E-01 2.80202E-03 8.75514E-01-1.01726E-13-2.08304E-13
 -1      2711 2.02671E+01 6.80405E-01-1.72521E-03 6.49701E-01-1.11336E-13-2.56696E-13
 -1      2712 2.03316E+01 4.81363E-01 7.03459E-04 1.01505E+00-1.11315E-13-1.93930E-13
 -1      2713 2.03899E+01 4.71622E-01 3.71060E-03 1.14393E+00-1.07722E-13-2.11748E-13
 -1      2714 2.02241E+01 6.08341E-01-1.31742E-03 9.55484E-01-1.11154E-13-2.53400E-13
 -1      2715 2.03763E+01 4.62450E-01-4.68691E-04 1.27643E+00-8.91191E-14-2.17140E-13
 -1      2716 2.04617E+01 4.52967E-01 4.33750E-03 1.39760E+00-7.90223E-14-2.26707E-13
 -1      2717 2.01940E+01 5.77117E-01-8.74818E-04 1.23493E+00-9.18052E-14-2.39774E-13
 -1      2718 2.04579E+01 4.33817E-01-7.64480E-04 1.52824E+00-4.71853E-14-1.91673E-13
 -1      2719 2.05722E+01 4.03639E-01 4.74872E-03 1.64047E+00-4.35432E-14-1.51290E-13
 -1      2720 2.01796E+01 5.47042E-01-9.12397E-04 1.50370E+00-3.26029E-14-2.15501E-13
 -1      2721 2.05905E+01 3.50984E-01 2.32847E-04 1.76940E+00-6.12328E-14-1.01636E-13
 -1      2722 2.07430E+01 2.71043E-01 4.93124E-03 1.86275E+00-2.31400E-14-3.71453E-14
 -1      2723 2.01924E+01 4.69595E-01-2.13599E-03 1.76925E+00-2.70016E-15-8.71369E-14
 -1      2724 2.08109E+01 1.52493E-01 3.34317E-03 1.98297E+00-9.53592E-15 1.29731E-14
 -1      2725 2.10224E+01-1.60531E-02 4.65912E-03 2.03592E+00 3.35649E-14 6.06757E-15
 -1      2726 2.02643E+01 2.78320E-01-5.62445E-03 2.02916E+00 2.94318E-14 3.39889E-14
 -1      2727 2.11921E+01-2.39965E-01 9.94641E-03 2.12782E+00 5.25436E-14-1.90671E-14
 -1      2728 2.14973E+01-5.39512E-01 3.44509E-03 2.10281E+00 6.18472E-14 1.59946E-14
 -1      2729 2.04642E+01-1.15120E-01-1.27188E-02 2.26548E+00 4.30928E-14-5.41787E-15
 -1      2730 2.18544E+01-9.01357E-01 2.18678E-02 2.12360E+00 8.79793E-14 4.67866E-14
 -1      2731 2.22879E+01-1.35688E+00-3.10628E-03 1.96291E+00 1.32221E-13 5.21456E-14
 -1      2732 2.09152E+01-8.08036E-01-2.45905E-02 2.42897E+00 8.56103E-14 2.15986E-14
 -1      2733 2.29625E+01-1.84273E+00 3.84043E-02 1.80814E+00 1.63078E-13 5.26497E-14
 -1      2734 2.35466E+01-2.34591E+00-3.93229E-03 1.41856E+00 1.55067E-13 4.10869E-14
 -1      2735 2.18196E+01-1.87424E+00-4.39734E-02 2.41118E+00 1.61722E-13 1.29098E-13
 -1      2736 2.45939E+01-2.80532E+00 4.78115E-02 1.00020E+00 1.69679E-13 6.06420E-14
 -1      2737 2.53309E+01-3.09966E+00 4.22083E-03 3.00699E-01 1.00316E-13 1.30479E-13
 -1      2738 2.33867E+01-2.99538E+00-3.02563E-02 1.92624E+00 1.87027E-13 9.99721E-14
 -1      2739 2.66957E+01-3.37073E+00 1.16609E-02-7.80854E-02-9.16454E-15 2.24668E-13
 -1      2740 2.74356E+01-2.66285E+00 8.00221E-04-8.66296E-01-1.54609E-13 2.77955E-13
 -1      2741 2.86445E+01 1.83991E-01-1.57566E-01-2.27886E+00-4.21836E-13 3.69156E-13
 -1      2742 2.89631E+01 2.02919E+00-1.38121E-01-2.55423E+00-5.01890E-13 3.13125E-13
 -1      2743 2.79800E+01-8.71065E-02-5.61367E-02 2.49367E+00 4.18832E-14-3.55105E-13
 -1      2744 2.77461E+01-1.70142E+00-6.27937E-02 2.07662E+00 2.13156E-13-2.97817E-13
 -1      2745 2.66390E+01-2.66779E+00-4.21621E-02 1.06072E+00 2.76630E-13-3.09443E-13
 -1      2746 2.61291E+01-3.02754E+00 2.08367E-02 3.31366E-01 3.03954E-13-2.71633E-13
 -1      2747 2.76423E+01-2.86071E+00-7.88336E-02 8.72293E-01 2.16764E-13-3.07872E-13
 -1      2748 2.48905E+01-2.96768E+00-2.53943E-02-4.85043E-01 2.58004E-13-2.36143E-13
 -1      2749 2.42754E+01-2.59802E+00 4.77865E-02-1.06535E+00 2.91383E-13-1.83642E-13
 -1      2750 2.52054E+01-3.64042E+00-3.93335E-02-9.15189E-01 3.14011E-13-3.08344E-13
 -1      2751 2.33040E+01-2.13108E+00-9.96066E-03-1.46138E+00 1.89340E-13-8.23796E-14
 -1      2752 2.27652E+01-1.60185E+00 3.52596E-02-1.78112E+00 9.43434E-14-5.42691E-14
 -1      2753 2.30792E+01-2.79835E+00-4.33086E-02-1.95731E+00 2.34069E-13-2.04500E-13
 -1      2754 2.21708E+01-1.13535E+00-6.23869E-04-1.88075E+00 1.39422E-13-5.97038E-15
 -1      2755 2.17729E+01-7.08625E-01 1.94250E-02-2.00083E+00 1.51459E-13 4.95844E-14
 -1      2756 2.16464E+01-1.57999E+00-3.58399E-02-2.29212E+00 1.51520E-13-1.19604E-13
 -1      2757 2.14581E+01-3.74475E-01 3.16791E-03-1.95505E+00 3.09665E-14 8.46849E-14
 -1      2758 2.11845E+01-1.01831E-01 8.56637E-03-1.95148E+00 5.83579E-14 1.78867E-14
 -1      2759 2.08506E+01-5.97955E-01-2.11686E-02-2.25518E+00 9.15465E-14-1.25427E-13
 -1      2760 2.10374E+01 9.66406E-02 4.39798E-03-1.84405E+00 1.18940E-13-1.70283E-14
 -1      2761 2.08481E+01 2.42291E-01 2.52251E-03-1.77277E+00 1.11925E-13-4.26281E-14
 -1      2762 2.04555E+01 3.00142E-02-1.03019E-02-2.05729E+00 3.83513E-14-1.16790E-13
 -1      2763 2.07884E+01 3.39843E-01 4.61335E-03-1.64454E+00 1.57041E-14-1.72244E-13
 -1      2764 2.06502E+01 4.00306E-01-5.10214E-04-1.54191E+00-6.66057E-14-3.36095E-13
 -1      2765 2.02805E+01 3.68074E-01-3.96334E-03-1.80221E+00-7.91901E-15-2.30575E-13
 -1      2766 2.06301E+01 4.34006E-01 4.48540E-03-1.41237E+00-3.27893E-14-3.00855E-13
 -1      2767 2.05225E+01 4.44245E-01-1.80051E-03-1.30058E+00-6.56785E-15-2.45304E-13
 -1      2768 2.02109E+01 5.11601E-01-8.69889E-04-1.53700E+00-4.17513E-14-3.40120E-13
 -1      2769 2.05171E+01 4.42108E-01 4.22964E-03-1.17922E+00 1.55206E-14-2.21714E-13
 -1      2770 2.04290E+01 4.26100E-01-2.16902E-03-1.07107E+00 4.78709E-14-2.03868E-13
 -1      2771 2.01842E+01 5.39505E-01 3.53110E-04-1.28332E+00 4.87456E-15-1.71044E-13
 -1      2772 2.04271E+01 4.06387E-01 3.88799E-03-9.62414E-01 4.37064E-14-2.30423E-13
 -1      2773 2.03532E+01 3.78882E-01-2.08637E-03-8.64535E-01 8.25207E-14-2.53602E-13
 -1      2774 2.01704E+01 5.06056E-01 6.38255E-04-1.05185E+00 7.09761E-15-1.70135E-13
 -1      2775 2.03504E+01 3.52383E-01 3.48422E-03-7.70326E-01 9.01612E-14-1.91502E-13
 -1      2776 2.02882E+01 3.21722E-01-1.81551E-03-6.85512E-01-6.30944E-14-1.55035E-13
 -1      2777 2.01573E+01 4.44966E-01 5.30650E-04-8.47551E-01 7.03902E-14-2.97687E-13
 -1      2778 2.02836E+01 2.94307E-01 3.04537E-03-6.05867E-01-1.24889E-13-1.53202E-14
 -1      2779 2.02317E+01 2.64815E-01-1.49272E-03-5.34623E-01-1.09993E-13 2.50588E-14
 -1      2780 2.01415E+01 3.75566E-01 3.10180E-04-6.71957E-01 1.04470E-14-1.71333E-13
 -1      2781 2.02257E+01 2.39381E-01 2.60017E-03-4.68690E-01-9.40881E-14 5.19929E-14
 -1      2782 2.01831E+01 2.13038E-01-1.18322E-03-4.10252E-01 5.34716E-14 1.55967E-13
 -1      2783 2.01235E+01 3.08083E-01 1.00474E-04-5.24384E-01-1.03929E-13 8.18611E-14
 -1      2784 2.01764E+01 1.90797E-01 2.17325E-03-3.56654E-01 3.81312E-14 2.86732E-14
 -1      2785 2.01419E+01 1.68281E-01-9.14117E-04-3.09642E-01-9.26928E-14-2.10433E-14
 -1      2786 2.01045E+01 2.47335E-01-5.67364E-05-4.02759E-01-1.37005E-14-1.13667E-13
 -1      2787 2.01352E+01 1.49534E-01 1.78176E-03-2.66779E-01-1.40255E-13-2.62539E-14
 -1      2788 2.01079E+01 1.30847E-01-6.92587E-04-2.29589E-01-1.41230E-13-9.04379E-14
 -1      2789 2.00859E+01 1.95099E-01-1.56503E-04-3.04254E-01-1.18919E-13-1.90602E-13
 -1      2790 2.01017E+01 1.15442E-01 1.43514E-03-1.95830E-01 1.31281E-14-8.02393E-14
 -1      2791 2.00804E+01 1.00263E-01-5.16082E-04-1.66858E-01-1.76874E-14 8.07273E-14
 -1      2792 2.00689E+01 1.51528E-01-2.07946E-04-2.25742E-01-1.65250E-13-1.23693E-13
 -1      2793 2.00749E+01 8.78468E-02 1.13672E-03-1.40661E-01-2.83286E-14 1.97380E-13
 -1      2794 2.00586E+01 7.57298E-02-3.78531E-04-1.18423E-01-5.41725E-14 1.20653E-13
 -1      2795 2.00540E+01 1.15986E-01-2.24211E-04-1.64116E-01 1.14929E-14 1.20953E-13
 -1      2796 2.00540E+01 6.58823E-02 8.85784E-04-9.83930E-02-4.20500E-14 1.61866E-13
 -1      2797 2.00418E+01 5.63525E-02-2.73254E-04-8.15776E-02 3.89824E-14 3.06320E-13
 -1      2798 2.00414E+01 8.75044E-02-2.17582E-04-1.16460E-01-3.35308E-14 3.00330E-13
 -1      2799 2.00379E+01 4.86501E-02 6.79073E-04-6.64964E-02 5.00231E-14 3.40923E-13
 -1      2800 2.00290E+01 4.12528E-02-1.94129E-04-5.39812E-02 6.04600E-14 2.83119E-13
 -1      2801 2.00310E+01 6.50231E-02-1.97606E-04-8.01637E-02 4.35744E-14 3.99896E-13
 -1      2802 2.00260E+01 3.53002E-02 5.11994E-04-4.28160E-02 7.11907E-14 2.86291E-13
 -1      2803 2.00196E+01 2.96204E-02-1.36075E-04-3.36684E-02 2.93262E-13 3.03796E-13
 -1      2804 2.00228E+01 4.75107E-02-1.71039E-04-5.29580E-02 7.67402E-14 2.46770E-13
 -1      2805 2.00172E+01 2.50611E-02 3.79335E-04-2.55650E-02 3.63596E-13 2.16451E-13
 -1      2806 2.00128E+01 2.07295E-02-9.49977E-05-1.90297E-02 3.11330E-13 2.30831E-13
 -1      2807 2.00163E+01 3.40159E-02-1.42508E-04-3.29315E-02 2.57497E-13 1.09177E-13
 -1      2808 2.00109E+01 1.72469E-02 2.76206E-04-1.33011E-02 2.41846E-13 2.09686E-13
 -1      2809 2.00080E+01 1.39389E-02-6.68974E-05-8.78393E-03 2.18395E-13 2.04834E-13
 -1      2810 2.00114E+01 2.36858E-02-1.14677E-04-1.85160E-02 2.35358E-13-5.91043E-15
 -1      2811 2.00066E+01 1.12569E-02 1.99630E-04-4.88960E-03 8.71477E-14-2.56541E-14
 -1      2812 2.00047E+01 8.67383E-03-4.69452E-05-1.93331E-03-1.44155E-13-1.52609E-13
 -1      2813 2.00076E+01 1.57686E-02-8.82376E-05-8.46047E-03 4.36417E-14-2.98025E-13
 -1      2814 2.00037E+01 6.49592E-03 1.33168E-04 5.12798E-04-1.09606E-13-5.48254E-15
 -1      2815 2.00025E+01 4.47404E-03-1.20604E-05 2.20648E-03-5.71446E-14 1.04661E-13
 -1      2816 2.00048E+01 9.51787E-03-8.54387E-05-1.77915E-03-5.76439E-14 5.77816E-15
 -1      2817 2.05017E+01 1.77110E-01 1.48539E-03-8.00899E-01 8.69877E-14-2.50212E-14
 -1      2818 2.04289E+01 2.20135E-01 3.64101E-03-7.31480E-01 1.03283E-13-2.52454E-14
 -1      2819 7.69572E+00-1.20293E+00 1.15054E-01-3.06147E+00 1.11820E-13 5.60163E-13
 -1      2820 9.59368E+00-2.25810E+00 1.30116E-01-4.90330E+00 2.16493E-13 6.77070E-13
 -1      2821 2.04014E+01 2.62725E-01 1.65321E-03-6.36106E-01 1.21825E-13-2.53701E-14
 -1      2822 2.03631E+01 3.13381E-01 5.21932E-03-5.36788E-01 1.52947E-13 8.21432E-16
 -1      2823 2.03862E+01 3.13491E-01-3.74121E-03-7.19700E-01 1.18070E-13-3.18549E-14
 -1      2824 2.08594E+01-3.17224E-02-7.51907E-04-9.59767E-01 1.27160E-14 3.95493E-14
 -1      2825 2.07386E+01 3.35136E-02 3.20276E-03-9.51014E-01 2.58392E-14 1.81666E-14
 -1      2826 2.11147E+01-1.95195E-01-2.99522E-03-9.29652E-01 2.14822E-14 1.72838E-14
 -1      2827 2.09791E+01-1.04620E-01 4.14281E-03-9.63973E-01 3.85853E-14 2.96981E-14
 -1      2828 2.07822E+01-8.22575E-02-4.67200E-03-1.06958E+00 3.52940E-14-4.21013E-14
 -1      2829 2.14209E+01-4.11563E-01-6.00361E-03-7.92476E-01 2.87565E-14 2.19614E-14
 -1      2830 2.12779E+01-2.93444E-01 5.60311E-03-8.83785E-01-1.06211E-14-2.28288E-14
 -1      2831 2.10469E+01-3.03602E-01-5.71994E-03-1.03854E+00 4.33621E-14-2.37512E-14
 -1      2832 2.17705E+01-6.65514E-01-9.37837E-03-5.16523E-01 2.59784E-14 6.55749E-14
 -1      2833 2.16319E+01-5.31452E-01 7.06519E-03-6.77760E-01 5.51046E-14 6.21091E-14
 -1      2834 2.13965E+01-5.88392E-01-6.64306E-03-8.89187E-01 1.82305E-14-1.52742E-14
 -1      2835 2.21378E+01-9.00380E-01-1.20185E-02-8.07607E-02-7.41746E-15 8.25430E-14
 -1      2836 2.20226E+01-7.85826E-01 7.41950E-03-3.14761E-01 3.56750E-14 1.22831E-13
 -1      2837 2.18328E+01-9.07138E-01-6.32909E-03-5.82664E-01 1.83360E-14 2.97871E-14
 -1      2838 2.24663E+01-1.00292E+00-1.15737E-02 4.97209E-01-1.06692E-13 5.90301E-14
 -1      2839 2.24003E+01-9.73882E-01 4.55256E-03 2.12417E-01-5.10208E-14 7.55664E-14
 -1      2840 2.23275E+01-1.17276E+00-3.29723E-03-9.05977E-02-3.29495E-14 1.48694E-13
 -1      2841 2.26649E+01-8.17524E-01-4.96039E-03 1.11816E+00 6.19697E-15 8.23274E-14
 -1      2842 2.26731E+01-9.56513E-01-3.14889E-03 8.47246E-01-7.35287E-14 8.57207E-14
 -1      2843 2.27990E+01-1.22696E+00 3.20520E-03 5.67990E-01-7.22900E-14 1.22215E-13
 -1      2844 2.26423E+01-2.31468E-01 8.02069E-03 1.56829E+00 7.14045E-14 7.18837E-14
 -1      2845 2.27292E+01-5.82721E-01-1.50291E-02 1.42222E+00 2.15852E-14 1.01876E-13
 -1      2846 2.31069E+01-8.75782E-01 1.12863E-02 1.26540E+00-5.45993E-15 1.77563E-13
 -1      2847 2.23891E+01 6.66902E-01 1.93011E-02 1.56178E+00 1.10646E-13 1.22144E-13
 -1      2848 2.25181E+01 1.85501E-01-2.51842E-02 1.65910E+00 8.93565E-14 6.97845E-14
 -1      2849 2.31147E+01-2.74667E-02 1.35147E-02 1.72454E+00 7.78147E-14 1.90091E-13
 -1      2850 2.20483E+01 1.50927E+00 1.21948E-02 9.32640E-01 1.14114E-13 1.46719E-13
 -1      2851 2.21576E+01 1.11579E+00-2.66410E-02 1.30396E+00 1.23517E-13 1.30824E-13
 -1      2852 2.28307E+01 1.11028E+00 5.35228E-04 1.59582E+00 1.03521E-13 2.18839E-13
 -1      2853 2.19150E+01 1.76557E+00-2.95434E-03-1.55851E-01 5.74287E-14 8.30317E-14
 -1      2854 2.19189E+01 1.72626E+00-9.95115E-03 3.48014E-01 1.26475E-13 9.47961E-14
 -1      2855 2.24939E+01 1.96187E+00-5.32040E-03 7.26601E-01 1.24433E-13 1.68584E-13
 -1      2856 2.20992E+01 1.30869E+00-2.12162E-02-1.18720E+00 1.80179E-13-3.29251E-14
 -1      2857 2.20076E+01 1.63156E+00 1.49034E-02-7.64709E-01 5.27668E-14-2.89452E-14
 -1      2858 2.24759E+01 2.11247E+00-1.39629E-02-5.18247E-01 1.03347E-13-2.37223E-14
 -1      2859 2.24677E+01 4.11838E-01-2.64421E-02-1.70019E+00 1.55253E-13-2.03667E-14
 -1      2860 2.23282E+01 8.92845E-01 1.92380E-02-1.53323E+00 2.23516E-13 3.30742E-14
 -1      2861 2.27595E+01 1.36887E+00-4.03786E-03-1.52146E+00 1.71677E-13-1.13611E-13
 -1      2862 2.27453E+01-4.17711E-01-1.64438E-02-1.59043E+00 1.99958E-13-3.95634E-14
 -1      2863 2.26340E+01-2.88621E-02 1.15121E-02-1.68494E+00 1.86292E-13-4.42563E-14
 -1      2864 2.30905E+01 2.44021E-01 1.31380E-02-1.83065E+00 1.88823E-13-9.21745E-15
 -1      2865 2.27641E+01-8.78952E-01-5.21277E-03-1.08144E+00 7.42982E-14-1.24376E-13
 -1      2866 2.27253E+01-6.95397E-01-2.58792E-03-1.32748E+00 1.74823E-13-7.27270E-14
 -1      2867 2.31638E+01-6.98279E-01 1.20770E-02-1.48588E+00 2.22412E-13-7.27641E-14
 -1      2868 2.25485E+01-9.61024E-01 3.58699E-03-4.59019E-01-5.63320E-14-2.41606E-13
 -1      2869 2.25865E+01-9.61365E-01-1.11140E-02-7.39226E-01 2.99804E-15-1.10029E-13
 -1      2870 2.29252E+01-1.15278E+00 4.63508E-03-8.32231E-01 6.91987E-14-8.83282E-14
 -1      2871 2.22036E+01-8.02346E-01 7.39178E-03 8.11306E-02-6.43245E-14-1.76820E-13
 -1      2872 2.22961E+01-9.06125E-01-1.26803E-02-1.57841E-01-7.31565E-14-2.35870E-13
 -1      2873 2.24875E+01-1.16889E+00-2.33883E-03-1.67410E-01-4.22200E-14-1.01455E-13
 -1      2874 2.18292E+01-5.52344E-01 7.55589E-03 4.61721E-01-1.79123E-13-1.11346E-13
 -1      2875 2.19496E+01-6.86625E-01-1.03885E-02 2.93582E-01-9.14162E-14-1.22191E-13
 -1      2876 2.19984E+01-9.31113E-01-5.87004E-03 3.46518E-01-1.24975E-13-1.29156E-13
 -1      2877 2.14832E+01-3.08618E-01 6.04596E-03 6.82117E-01-6.21168E-14-6.97012E-15
 -1      2878 2.16115E+01-4.30432E-01-7.00755E-03 5.84899E-01-1.02642E-13-1.09636E-13
 -1      2879 2.15540E+01-6.14028E-01-6.41035E-03 6.73373E-01-1.73877E-13-4.97816E-14
 -1      2880 2.11871E+01-1.15507E-01 4.20559E-03 7.73970E-01-1.22320E-13 1.04455E-13
 -1      2881 2.13117E+01-2.07757E-01-3.88380E-03 7.34279E-01-9.88653E-14 4.22366E-14
 -1      2882 2.11909E+01-3.22482E-01-5.47601E-03 8.38186E-01-9.48502E-14-9.60557E-14
 -1      2883 2.09428E+01 1.72625E-02 2.62393E-03 7.75667E-01 1.53831E-13 1.15293E-13
 -1      2884 2.10576E+01-4.37017E-02-1.46152E-03 7.76700E-01 8.56036E-14 1.14808E-13
 -1      2885 2.09097E+01-9.92889E-02-4.14233E-03 8.83600E-01-3.27437E-14 6.06889E-16
 -1      2886 2.07440E+01 9.69314E-02 1.46048E-03 7.21191E-01 1.72716E-13 1.52790E-13
 -1      2887 2.08465E+01 6.20855E-02 2.11938E-04 7.47668E-01 1.63584E-13 1.08178E-13
 -1      2888 2.06968E+01 4.99844E-02-2.96339E-03 8.50439E-01 1.25459E-13 5.36838E-14
 -1      2889 2.05832E+01 1.36426E-01 6.91266E-04 6.36673E-01 1.62924E-13 2.48171E-13
 -1      2890 2.06725E+01 1.20681E-01 1.24927E-03 6.76653E-01 2.04017E-13 2.63479E-13
 -1      2891 2.05360E+01 1.36777E-01-2.09824E-03 7.71361E-01 1.81532E-13 8.71772E-14
 -1      2892 2.04532E+01 1.48550E-01 2.25479E-04 5.40444E-01 1.73679E-14 2.29142E-13
 -1      2893 2.05295E+01 1.45452E-01 1.80343E-03 5.85487E-01 1.36938E-13 3.29622E-13
 -1      2894 2.04134E+01 1.77383E-01-1.52114E-03 6.70081E-01 1.16566E-13 1.78650E-13
 -1      2895 2.03486E+01 1.43734E-01-3.02354E-05 4.44381E-01 1.30012E-13 1.70910E-13
 -1      2896 2.04124E+01 1.48217E-01 2.01643E-03 4.89023E-01-1.86441E-14 1.09534E-13
 -1      2897 2.03188E+01 1.87067E-01-1.15143E-03 5.62642E-01 3.31608E-14 3.30178E-14
 -1      2898 2.02647E+01 1.29618E-01-1.51075E-04 3.55488E-01 1.45525E-13 2.67713E-13
 -1      2899 2.03171E+01 1.38060E-01 2.00434E-03 3.96543E-01 2.28762E-13 2.41143E-13
 -1      2900 2.02450E+01 1.77957E-01-9.11698E-04 4.59136E-01 5.94361E-14-6.27155E-15
 -1      2901 2.01982E+01 1.11385E-01-1.91674E-04 2.77323E-01 5.28918E-14 2.21684E-13
 -1      2902 2.02404E+01 1.21379E-01 1.85592E-03 3.13214E-01 1.30162E-13 2.34593E-13
 -1      2903 2.01871E+01 1.58809E-01-7.48228E-04 3.65301E-01 8.27433E-14 9.92636E-14
 -1      2904 2.01459E+01 9.23065E-02-1.88489E-04 2.11145E-01 8.33501E-14 2.70315E-13
 -1      2905 2.01793E+01 1.02369E-01 1.63614E-03 2.41360E-01 6.87824E-14 3.37348E-13
 -1      2906 2.01414E+01 1.35501E-01-6.27694E-04 2.83832E-01 5.18306E-14 1.00508E-13
 -1      2907 2.01053E+01 7.42812E-02-1.64294E-04 1.56784E-01 9.63538E-14 2.11269E-13
 -1      2908 2.01312E+01 8.35783E-02 1.38967E-03 1.81463E-01 1.56747E-13 4.01130E-13
 -1      2909 2.01057E+01 1.11706E-01-5.30651E-04 2.15424E-01 1.02524E-13 3.39837E-13
 -1      2910 2.00744E+01 5.82812E-02-1.32481E-04 1.13261E-01-1.76905E-14 1.63830E-13
 -1      2911 2.00941E+01 6.64098E-02 1.14500E-03 1.32906E-01 7.37854E-16 1.84215E-13
 -1      2912 2.00778E+01 8.95250E-02-4.47194E-04 1.59543E-01 7.60415E-14 2.42022E-13
 -1      2913 2.00512E+01 4.46822E-02-1.00617E-04 7.92051E-02-2.60227E-13 2.19632E-13
 -1      2914 2.00658E+01 5.15133E-02 9.18885E-04 9.44859E-02-1.46365E-13 2.79768E-13
 -1      2915 2.00563E+01 7.00000E-02-3.73252E-04 1.14976E-01-1.78782E-13 2.98106E-13
 -1      2916 2.00341E+01 3.34953E-02-7.26183E-05 5.31290E-02 4.49428E-14-1.08786E-13
 -1      2917 2.00448E+01 3.90644E-02 7.19912E-04 6.47556E-02-1.36024E-13-1.54407E-14
 -1      2918 2.00399E+01 5.34989E-02-3.07352E-04 8.02021E-02-1.25319E-13 3.21357E-13
 -1      2919 2.00219E+01 2.45233E-02-5.03147E-05 3.35943E-02 4.50889E-14 2.58072E-14
 -1      2920 2.00294E+01 2.89572E-02 5.51208E-04 4.22428E-02 1.11712E-13-7.23181E-14
 -1      2921 2.00277E+01 3.99780E-02-2.48933E-04 5.36354E-02 5.35940E-14-1.58910E-13
 -1      2922 2.00134E+01 1.74608E-02-3.46842E-05 1.93085E-02 1.49054E-14 4.06492E-14
 -1      2923 2.00185E+01 2.09317E-02 4.12435E-04 2.55787E-02 7.24641E-14 9.98201E-14
 -1      2924 2.00187E+01 2.91603E-02-1.97817E-04 3.37753E-02-1.05156E-14 5.42104E-15
 -1      2925 2.00077E+01 1.19630E-02-2.00425E-05 9.17739E-03-5.80234E-14 4.99980E-14
 -1      2926 2.00109E+01 1.46542E-02 3.01421E-04 1.35683E-02-5.41521E-14 5.47635E-14
 -1      2927 2.00122E+01 2.06502E-02-1.53570E-04 1.92899E-02-4.74915E-14-9.45409E-14
 -1      2928 2.00041E+01 7.73535E-03 3.85744E-05 2.36269E-03 1.84483E-14 9.94013E-14
 -1      2929 2.00060E+01 9.72094E-03 2.06414E-04 5.20914E-03 1.65747E-14 1.89900E-13
 -1      2930 2.00076E+01 1.40133E-02-1.19291E-04 9.05957E-03-1.19775E-13-1.16631E-13
 -1      2931 2.00023E+01 5.06931E-03 5.23058E-05-1.29698E-03-2.48251E-14 1.71892E-13
 -1      2932 2.00033E+01 6.67748E-03 1.23907E-04 4.51405E-04 7.20314E-15 7.66979E-14
 -1      2933 2.00049E+01 9.61665E-03-1.31894E-04 2.93610E-03 8.45035E-14-2.04226E-13
 -1      2934 2.00034E+01 6.54712E-03-1.28209E-04-4.66293E-04-2.38064E-14-9.48428E-14
 -1      2935 2.00006E+01 1.06662E-02-3.39491E-05-5.20870E-05-2.58921E-14 1.01598E-13
 -1      2936 2.00007E+01 1.05457E-02-1.32902E-05-5.12321E-05 1.33673E-13-9.00607E-14
 -1      2937 2.00020E+01 3.17063E-03 8.07735E-05 3.18635E-03-1.14470E-13-7.94895E-14
 -1      2938 2.00015E+01 1.93067E-03 3.46234E-06 3.76825E-03-8.35850E-14-4.90432E-14
 -1      2939 2.00020E+01 2.20184E-03-1.89116E-05 3.43839E-03-6.94196E-14-2.71120E-13
 -1      2940 2.00030E+01 5.12361E-03-8.24288E-05 1.79880E-03-8.42144E-14 1.71348E-13
 -1      2941 2.00015E+01 8.39438E-03-5.85130E-05-7.51650E-05 1.76183E-13-1.99411E-13
 -1      2942 2.00019E+01 7.82488E-03 2.80024E-05-4.03375E-04 3.31370E-13-1.48633E-13
 -1      2943 2.00008E+01 1.04756E-02-1.12740E-05-2.81638E-04 3.31080E-14 1.42504E-13
 -1      2944 2.00006E+01 1.06385E-02-3.62630E-05-2.97719E-04-8.66909E-14 9.72434E-14
 -1      2945 2.00007E+01 1.57052E-02 8.98536E-05-1.96670E-04 3.80329E-14 7.46231E-14
 -1      2946 2.00009E+01 9.92931E-03-5.14133E-05 1.17404E-04 4.71436E-14-2.39396E-13
 -1      2947 2.00012E+01 9.55053E-03 1.06363E-05-1.89392E-06 1.24366E-13-1.97645E-13
 -1      2948 2.00016E+01 1.34072E-02 6.85220E-05 6.88667E-04 5.75603E-14-2.49524E-13
 -1      2949 2.00009E+01 1.51313E-02 8.45005E-05 4.19731E-04 2.04944E-13-1.02227E-13
 -1      2950 2.31375E+01-5.11819E+00-6.58702E-02 4.37733E+00-2.65357E-13-3.06817E-13
 -1      2951 2.06589E+01-4.85960E+00 1.10642E-01 5.33397E+00-3.43128E-13-1.71256E-13
 -1      2952 2.00014E+01 9.42238E-03 1.22308E-05-2.53635E-04 1.41072E-13-4.96597E-13
 -1      2953 2.00010E+01 9.82302E-03-5.34813E-05-4.13005E-04 5.66911E-14-3.96472E-15
 -1      2954 2.00011E+01 1.50478E-02 8.43160E-05-7.71614E-04 7.55036E-14 1.15740E-13
 -1      2955 2.00022E+01 7.63728E-03 2.52124E-05 2.73695E-04 1.10374E-13-6.04660E-13
 -1      2956 2.00018E+01 8.23231E-03-6.03033E-05-1.17986E-04 1.34144E-13-5.38123E-13
 -1      2957 2.00019E+01 1.32634E-02 6.67983E-05-9.39583E-04 4.66680E-14-4.90774E-13
 -1      2958 2.00027E+01 5.38951E-03 9.19877E-07 1.36590E-03-1.91663E-13-2.88822E-14
 -1      2959 2.00025E+01 6.12220E-03-5.29393E-05 7.29592E-04 2.42079E-14-5.43148E-13
 -1      2960 2.00028E+01 1.06469E-02 4.77767E-05-4.38766E-04 8.83195E-14-6.64622E-13
 -1      2961 2.00025E+01 3.02360E-03 4.48024E-05 2.69362E-03-2.15088E-13 5.63363E-14
 -1      2962 2.03586E+01 3.69932E-01 1.30168E-03-4.09538E-01 1.73568E-13-1.69658E-14
 -1      2963 2.03624E+01 4.45163E-01 7.66125E-03-2.70595E-01 2.00281E-13 2.31469E-15
 -1      2964 2.03614E+01 4.43764E-01-3.76003E-03-4.81970E-01 1.70644E-13-3.51022E-14
 -1      2965 1.88666E+01-4.90535E+00 1.35810E-01-5.66853E+00 5.57387E-13 2.63886E-13
 -1      2966 2.23103E+01-5.54305E+00-6.00860E-02-4.80314E+00 4.61853E-13-5.95617E-14
 -1      2967 1.71883E+01-4.39345E+00 4.67622E-03 6.29648E+00-3.01148E-13 5.96467E-14
 -1      2968 1.38990E+01-3.33124E+00 1.47793E-01 6.14717E+00-3.09461E-13 1.00378E-13
 -1      2969 1.13651E+01-2.66521E+00 1.55351E-01-5.71013E+00-2.77861E-13-6.21891E-13
 -1      2970 1.47575E+01-3.87327E+00 2.22668E-02-6.46485E+00-2.92655E-13-4.32321E-13
 -1      2971 2.93317E+01 6.10031E+00-1.78563E-01-3.01843E-01-7.19980E-13 1.83437E-13
 -1      2972 2.97480E+01 5.30054E+00-2.29684E-01-1.46536E+00-6.25333E-13 2.30482E-13
 -1      2973 1.81841E+01-4.72205E+00 4.49700E-02 5.93973E+00 2.20865E-13 1.19418E-14
 -1      2974 1.45385E+01-3.69603E+00 1.20227E-01 5.95967E+00 3.24241E-13-2.38198E-13
 -1      2975 2.06551E+01 8.64164E-02 7.11865E-04-9.10797E-01 4.60730E-14 7.78575E-15
 -1      2976 2.05552E+01 1.34921E-01 3.00081E-03-8.69331E-01 7.58875E-14-9.98299E-15
 -1      2977 2.04614E+01 2.02757E-01-3.68272E-03-8.95674E-01 7.56903E-14-3.85393E-14
 -1      2978 2.05909E+01 7.98392E-02-3.95893E-03-1.01496E+00 2.66055E-14-4.11932E-15
 -1      2979 2.04726E+01 1.20586E+00 3.29762E-03-5.06212E-01-2.06000E-13-2.81523E-13
 -1      2980 2.04187E+01 9.90124E-01-2.85349E-03-2.20485E-01-1.70708E-13-2.73734E-13
 -1      2981 2.03711E+01 1.12234E+00-6.19047E-04-1.33358E-01-1.58576E-13-2.99631E-13
 -1      2982 2.03763E+01 5.36003E-01 4.84584E-04-9.96296E-02 2.37839E-13-2.11993E-14
 -1      2983 2.04274E+01 6.61212E-01 1.03246E-02 9.89542E-02 2.53527E-13-1.53523E-14
 -1      2984 2.04359E+01 9.49380E-01-4.62303E-04 2.55715E-01 2.80379E-13-7.13065E-14
 -1      2985 2.03818E+01 6.36388E-01-2.88223E-03-1.65184E-01 2.26487E-13-5.51255E-14
 -1      2986 2.02560E+01 2.38803E+00 6.57989E-04-1.15443E+00-2.54875E-13-3.99700E-13
 -1      2987 1.19394E+01-3.06464E+00 1.44368E-01-5.62536E+00 3.79030E-13 4.77507E-13
 -1      2988 1.49488E+01-4.06802E+00 5.05308E-03-6.16610E+00 4.27963E-13 4.70748E-13
 -1      2989 1.23302E+01-2.04439E+00 1.56551E-01-4.89872E+00 2.65316E-13 4.10644E-13
 -1      2990 2.95058E+01 4.84542E+00-1.35097E-01 1.94261E+00-5.51004E-13-1.42553E-13
 -1      2991 2.93219E+01 5.74844E+00-2.09860E-01 9.31349E-01-6.24500E-13 2.96013E-14
 -1      2992 2.69893E+01-3.61880E+00-1.51474E-01 1.26873E+00 8.69721E-14-5.58165E-13
 -1      2993 2.53271E+01-4.55642E+00 4.66113E-02 2.84543E+00-1.44426E-13-3.80099E-13
 -1      2994 2.43222E+01-4.53837E+00 4.95255E-02 2.96370E+00-2.49696E-13-3.85497E-13
 -1      2995 2.77564E+01 6.40951E+00-2.04043E-01-2.20726E-01 7.00273E-13-1.74831E-13
 -1      2996 2.79485E+01 6.01521E+00-1.46394E-01-1.13402E+00 7.65277E-13-3.15740E-13
 -1      2997 2.79985E+01-2.67991E+00-5.65342E-03-7.03642E-01-6.86950E-16 6.66828E-14
 -1      2998 2.88174E+01-1.19286E+00-1.57352E-01 3.03726E-01 1.21167E-13 1.55667E-13
 -1      2999 1.85506E+01-4.59177E+00 1.42423E-01-6.00000E+00-3.08156E-13-2.40453E-13
 -1      3000 2.08647E+01-5.21217E+00-4.08410E-02-5.54646E+00-2.77903E-13-2.54782E-13
 -1      3001 2.25453E+01-5.45807E+00-5.58865E-02 4.66841E+00 1.42358E-13 1.71032E-13
 -1      3002 2.04196E+01-5.09331E+00 1.33752E-01 5.33418E+00 1.88849E-13 8.25295E-14
 -1      3003 1.91828E+01-4.34116E+00 5.54147E-02 5.28382E+00 2.29095E-13 1.79856E-14
 -1      3004 2.90716E+01 7.33350E-01-8.36659E-02 1.32115E+00 9.69086E-14 6.93889E-14
 -1      3005 2.86048E+01 2.57249E+00-2.04508E-01 1.86571E+00 1.21680E-13-1.08802E-14
 -1      3006 2.79330E+01-4.95536E-01-4.10026E-02 1.29441E+00-5.54279E-14 1.90445E-13
 -1      3007 1.97854E+01 2.83771E+00-6.65156E-03 5.60202E-01 2.95430E-13-3.39445E-13
 -1      3008 1.96928E+01 2.95153E+00-7.22999E-03 4.38537E-01 2.56813E-13-3.62622E-13
 -1      3009 1.97632E+01 2.70781E+00 5.17406E-03 3.06533E-01 2.27140E-13-3.41734E-13
 -1      3010 1.99486E+01 2.44806E+00 6.01307E-03 4.72690E-01 2.72798E-13-2.96689E-13
 -1      3011 1.96633E+01 2.99516E+00-6.95472E-03-4.44066E-01-4.87017E-14-4.53567E-13
 -1      3012 1.97535E+01 2.88551E+00-6.84088E-03-5.60553E-01-9.63755E-14-4.32880E-13
 -1      3013 2.35797E+01-5.08205E+00 6.56778E-02-4.17474E+00-2.93571E-13-2.08722E-13
 -1      3014 2.63241E+01-4.38937E+00-1.02510E-01-2.59997E+00-1.61073E-13-1.53100E-13
 -1      3015 2.66661E+01-3.62533E+00 6.02797E-05-1.20867E+00-1.75204E-13 1.31450E-13
 -1      3016 2.82498E+01 4.60469E+00-2.01090E-01-1.76255E+00 6.81261E-13-3.54654E-13
 -1      3017 2.85559E+01 2.77000E+00-8.21878E-02-1.97536E+00 5.84199E-13-4.63296E-13
 -1      3018 2.52559E+01-5.08519E+00 8.20032E-02-2.98465E+00 3.64625E-13-2.97734E-13
 -1      3019 2.72179E+01-4.62149E+00-1.43716E-01-1.60491E+00 2.30656E-13-4.12323E-13
 -1      3020 7.20973E+00-3.30652E-01 1.29281E-01 1.02792E+00-1.53627E-14 6.00631E-13
 -1      3021 7.11478E+00-4.24852E-01 1.87450E-01-1.07304E+00 6.71616E-14 4.41647E-13
 -1      3022 2.90283E+01-2.53766E+00-4.49564E-03 4.64204E-01 1.14155E-13-3.56354E-13
 -1      3023 2.96432E+01-8.35108E-01-2.13709E-01 1.73504E+00 2.15383E-14-2.64455E-13
 -1      3024 1.98616E+01 2.73066E+00-7.79534E-03-6.43028E-01-1.24130E-13-4.30525E-13
 -1      3025 1.99776E+01 2.56150E+00-1.13285E-02-7.60854E-01-1.68154E-13-4.49486E-13
 -1      3026 1.99067E+01 2.50634E+00 3.92301E-03-4.69995E-01-1.04660E-13-3.93545E-13
 -1      3027 1.95916E+01 2.92824E+00 4.51499E-03-1.64937E-02 1.04996E-13-4.10032E-13
 -1      3028 1.94889E+01 3.21196E+00-5.64748E-03-5.36876E-02 1.06050E-13-4.40604E-13
 -1      3029 1.95040E+01 3.19614E+00-5.50951E-03-1.64484E-01 6.15085E-14-4.42069E-13
 -1      3030 1.94945E+01-4.19090E+00 7.67302E-02 5.25896E+00-3.23075E-13-1.36335E-13
 -1      3031 2.00025E+01 3.90900E-03-8.15550E-06-2.16453E-03 1.99062E-13 1.57775E-14
 -1      3032 2.70096E+01-2.63163E+00-1.85458E-02 3.81020E-02 1.11976E-13-5.58747E-13
 -1      3033 2.80191E+01 3.29493E+00-1.30081E-01 1.95392E+00 1.03834E-13 5.11813E-14
 -1      3034 2.68677E+01 3.92099E+00-1.41820E-01 1.88149E+00 1.95233E-13 1.59060E-13
 -1      3035 2.70344E+01 1.88584E+00-7.27960E-02 2.06417E+00-5.13617E-14 2.56364E-13
 -1      3036 2.04140E+01 1.68310E+00-2.41151E-03 8.74290E-01 3.57187E-13-9.44965E-14
 -1      3037 2.74923E+01 1.20549E+00-6.96962E-02-1.95957E+00 4.45755E-13-3.70010E-13
 -1      3038 2.57063E+01-4.16036E+00-6.03944E-03 1.38334E+00 9.92921E-14 1.65569E-13
 -1      3039 2.00025E+01 1.08311E-02 4.90562E-05 3.41119E-04 3.09989E-13-2.23124E-14
 -1      3040 2.00022E+01 6.33120E-03-5.52803E-05-7.97392E-04 4.05637E-13 2.29880E-14
 -1      3041 2.00024E+01 5.75288E-03 2.99055E-05-1.31070E-03 3.99300E-13 1.97688E-13
 -1      3042 2.81543E+01 5.24812E+00-1.15604E-01 2.87067E-01-5.53280E-13-2.17465E-14
 -1      3043 2.39532E+01-4.94991E+00 5.60388E-02-3.36433E+00 5.18363E-13-2.69784E-13
 -1      3044 2.78201E+01-3.35969E+00-2.44529E-02 1.20006E-01 2.55334E-13-3.02702E-13
 -1      3045 8.44926E+00-2.53105E-01 1.86447E-01 2.10753E+00-9.57082E-14 3.80446E-13
 -1      3046 9.29034E+00 2.53331E-01 9.15388E-02 9.55076E-01-6.53227E-14 4.02969E-13
 -1      3047 9.85846E+00-4.23467E-01 6.44554E-02 3.07681E+00-2.20261E-13 7.77434E-14
 -1      3048 2.01583E+01 2.30012E+00-1.62834E-03-8.40008E-01-1.96543E-13-4.28491E-13
 -1      3049 2.04074E+01 1.80596E+00-8.75494E-03-9.46340E-01-2.61455E-13-3.43962E-13
 -1      3050 2.04273E+01 1.44493E+00 6.70394E-04-6.46033E-01-2.31371E-13-3.11229E-13
 -1      3051 2.01724E+01 2.08342E+00 5.76443E-03-6.05227E-01-1.64373E-13-4.00342E-13
 -1      3052 6.70067E+00-6.83246E-01 1.41078E-01 8.25501E-01 1.77785E-13-7.79543E-13
 -1      3053 6.51152E+00-7.28127E-01 1.69095E-01-1.23746E+00 6.05557E-14-8.86069E-13
 -1      3054 2.00032E+01 5.86081E-03-2.79154E-05 1.52549E-03-1.18978E-13 1.84125E-14
 -1      3055 2.00029E+01 5.09845E-03-3.39901E-05 1.58647E-03-2.54125E-13 8.97098E-14
 -1      3056 2.00036E+01 8.86871E-03 8.96131E-05 1.22371E-04-1.24841E-13-1.34136E-13
 -1      3057 2.00040E+01 7.86677E-03 1.25581E-04 3.51658E-04-1.43259E-13 1.64349E-13
 -1      3058 9.53432E+00-1.80824E+00 1.19388E-01-4.90213E+00-1.64868E-13-7.14095E-13
 -1      3059 1.23034E+01-1.87776E+00 1.56049E-01-5.01419E+00-2.23870E-13-5.62994E-13
 -1      3060 2.03863E+01 1.49945E+00 2.75786E-03 5.98927E-01 3.18453E-13-1.15423E-13
 -1      3061 1.79512E+01-4.01639E+00 1.28627E-01-5.39635E+00 4.92786E-13 2.11650E-13
 -1      3062 1.32575E+01-2.72720E+00 1.48972E-01 5.55878E+00 3.57700E-13-3.26864E-13
 -1      3063 1.21574E+01-1.63238E+00 1.19986E-01 4.64281E+00 2.98712E-13-3.34482E-13
 -1      3064 1.59147E+01-2.80782E+00 7.07389E-02 5.16757E+00 3.21902E-13-2.26048E-13
 -1      3065 1.72888E+01-3.74092E+00 1.13006E-01-5.75315E+00-3.20674E-13-3.32193E-13
 -1      3066 9.68244E+00-6.84006E-01 8.90375E-02 3.01711E+00 3.02876E-13-4.36415E-13
 -1      3067 8.03670E+00-5.81143E-01 1.91005E-01 1.96388E+00 2.33966E-13-6.65606E-13
 -1      3068 9.04717E+00 4.44677E-02 1.22391E-01 9.36768E-01 1.73818E-13-6.67230E-13
 -1      3069 2.95490E+01 1.09081E+00-8.64541E-02 2.47581E+00-1.46716E-13-2.77028E-13
 -1      3070 2.94274E+01 2.88916E+00-2.05855E-01 2.43013E+00-3.94434E-13-2.58404E-13
 -1      3071 9.07638E+00-3.89009E-01 1.50753E-01-2.12553E+00 2.71484E-14 5.41789E-13
 -1      3072 2.03542E+01 1.56432E+00 2.66940E-03-5.21722E-01-1.87140E-13-3.32393E-13
 -1      3073 1.95380E+01 3.15174E+00-6.25457E-03-2.47606E-01 3.77915E-14-4.50461E-13
 -1      3074 1.95913E+01 3.09238E+00-5.75085E-03-3.60532E-01-1.27215E-14-4.64956E-13
 -1      3075 1.97256E+01 2.75316E+00 3.33708E-03-3.20650E-01-3.75513E-14-4.13504E-13
 -1      3076 1.96190E+01 2.89168E+00 3.73785E-03-1.68844E-01 5.02299E-14-4.15636E-13
 -1      3077 2.83347E+01-1.86372E+00-4.40341E-02-1.59898E+00-2.13253E-13 2.87187E-13
 -1      3078 2.82548E+01 3.31931E+00-8.01788E-02 2.37440E+00-3.68622E-13-3.07587E-13
 -1      3079 2.72392E+01 5.94285E+00-1.55515E-01 4.23585E-01 5.65881E-13-1.03058E-13
 -1      3080 2.57750E+01 5.30938E+00-8.65276E-02 2.11132E-03 5.93248E-13 9.60898E-14
 -1      3081 2.63204E+01 5.18138E+00-1.32345E-01 1.15298E+00 4.55358E-13 9.54098E-14
 -1      3082 2.67866E+01 4.55219E+00-1.01701E-01-1.54566E+00 6.83828E-13-1.69927E-13
 -1      3083 2.29020E+01-4.77014E+00 6.72834E-02-4.06962E+00-3.19349E-13-2.02414E-13
 -1      3084 7.71689E+00-1.19366E+00 1.40883E-01-3.26190E+00-8.88456E-14-8.22342E-13
 -1      3085 2.02556E+01 1.67641E+00-5.64268E-03 4.58492E-01 2.88449E-13-1.73374E-13
 -1      3086 2.01469E+01 1.89909E+00-1.91512E-03 4.09362E-01 2.68058E-13-2.14336E-13
 -1      3087 2.01989E+01 8.50409E-01 1.67363E-03 5.31445E-01-1.17736E-13-2.68514E-13
 -1      3088 2.01694E+01 7.87959E-01-1.68225E-04 6.96252E-01-9.42854E-14-2.83302E-13
 -1      3089 2.01076E+01 7.46533E-01-1.58214E-05 8.42160E-01-9.71325E-14-2.69634E-13
 -1      3090 2.00865E+01 7.19649E-01 1.11885E-03 9.87590E-01-1.02539E-13-2.64712E-13
 -1      3091 2.00280E+01 9.03662E-01 1.31737E-03 7.31099E-01-9.21398E-14-2.73518E-13
 -1      3092 2.00076E+01 7.01856E-01-1.46442E-03 1.12353E+00-8.09221E-14-2.36833E-13
 -1      3093 1.99954E+01 6.90537E-01 2.26901E-03 1.25909E+00-5.35751E-14-2.10348E-13
 -1      3094 1.98873E+01 8.35076E-01 1.61252E-03 1.01354E+00-7.48168E-14-1.99898E-13
 -1      3095 1.99021E+01 6.76653E-01-2.60245E-03 1.39375E+00-2.45257E-14-1.90479E-13
 -1      3096 1.99020E+01 6.59598E-01 3.59718E-03 1.52572E+00 1.10215E-15-1.50814E-13
 -1      3097 1.97191E+01 8.03112E-01 2.00718E-03 1.28242E+00-2.96709E-14-1.85081E-13
 -1      3098 1.97995E+01 6.25746E-01-3.18750E-03 1.66771E+00 3.87604E-14-1.24187E-13
 -1      3099 1.98220E+01 5.75014E-01 5.55485E-03 1.79897E+00 4.51926E-14-5.83984E-14
 -1      3100 1.95280E+01 7.61837E-01 1.93131E-03 1.55558E+00 4.35351E-14-1.07425E-13
 -1      3101 1.97243E+01 4.88462E-01-2.74570E-03 1.95733E+00 2.54923E-14-3.56325E-14
 -1      3102 1.97950E+01 3.65057E-01 8.70223E-03 2.08664E+00 5.00145E-14-3.90336E-14
 -1      3103 1.93290E+01 6.51960E-01 5.56532E-04 1.85335E+00 5.69610E-14-1.22157E-13
 -1      3104 1.97349E+01 1.80931E-01 7.73611E-05 2.27043E+00 4.77343E-14-3.37583E-14
 -1      3105 1.99033E+01-6.72816E-02 1.39761E-02 2.38912E+00 6.46202E-14-5.36167E-14
 -1      3106 1.91608E+01 3.90635E-01-3.43072E-03 2.20015E+00 5.49400E-14-1.04573E-13
 -1      3107 1.99495E+01-4.05466E-01 8.79169E-03 2.60218E+00 1.11397E-13 4.12404E-14
 -1      3108 2.02908E+01-8.41095E-01 1.98817E-02 2.68569E+00 1.59479E-13 8.36923E-14
 -1      3109 1.91096E+01-1.34918E-01-1.10022E-02 2.62248E+00 1.30893E-13 1.47105E-15
 -1      3110 2.05765E+01-1.35237E+00 3.86053E-02 2.89762E+00 1.66248E-13 9.04624E-14
 -1      3111 2.11195E+01-2.08055E+00 1.39832E-03 2.91441E+00 1.68351E-13 9.31592E-14
 -1      3112 1.93679E+01-1.06013E+00-1.40471E-02 3.13089E+00 1.74887E-13 8.59417E-14
 -1      3113 2.25435E+01-3.07418E+00 5.34490E-02 2.78670E+00 2.04208E-13 1.33599E-13
 -1      3114 2.33684E+01-3.79420E+00 4.32520E-03 2.53517E+00 2.31084E-13 1.19942E-13
 -1      3115 2.46567E+01-4.56171E+00-1.43774E-02 2.48522E+00 1.28723E-13 1.78997E-13
 -1      3116 2.07960E+01-2.77855E+00-1.35265E-02 3.46219E+00 1.91544E-13 1.32186E-13
 -1      3117 3.00374E+01 4.30747E+00-1.19047E-01-1.71864E+00-6.51201E-13 2.62290E-13
 -1      3118 2.72668E+01 3.45923E+00-1.59364E-01-2.18974E+00-5.40179E-13 7.32192E-14
 -1      3119 2.72443E+01 4.56362E+00-1.72644E-01-1.15016E+00-5.60135E-13 3.92741E-15
 -1      3120 2.72660E+01 4.73534E+00-1.26053E-01 2.23515E-01-4.91884E-13-9.02863E-14
 -1      3121 2.72605E+01 4.20774E+00-1.90456E-01 1.62597E+00-3.50039E-13-1.52420E-13
 -1      3122 2.74500E+01 2.88856E+00-9.07520E-02 2.29893E+00-2.98511E-13-3.37383E-13
 -1      3123 2.74115E+01 1.13516E+00-2.01403E-01 2.91335E+00-1.61135E-13-4.06231E-13
 -1      3124 2.03042E+01 1.41441E+00 1.02229E-03-2.59799E-01-1.44870E-13-3.39950E-13
 -1      3125 2.02834E+01 1.20855E+00-3.63590E-03-2.13080E-02-1.44439E-13-3.27888E-13
 -1      3126 2.24883E+01-3.22163E+00 7.46421E-03-2.67091E+00 2.23273E-13-1.28491E-13
 -1      3127 2.16348E+01-2.43228E+00 5.54359E-02-2.85702E+00 1.67275E-13-1.52932E-13
 -1      3128 2.09852E+01-1.72964E+00 2.23202E-02-2.72640E+00 1.43923E-13-1.95302E-13
 -1      3129 2.04360E+01-1.10477E+00 2.56118E-02-2.71167E+00 1.01346E-13-1.76573E-13
 -1      3130 1.99917E+01-2.14886E+00-3.06023E-02-3.39660E+00 1.64277E-13-1.06005E-13
 -1      3131 2.01974E+01-6.05334E-01 1.86275E-02-2.48834E+00 1.01041E-13-1.96153E-13
 -1      3132 1.98946E+01-2.08671E-01 6.89054E-03-2.38841E+00 6.78973E-14-1.67625E-13
 -1      3133 1.92584E+01-8.00114E-01-2.20113E-02-2.88812E+00 9.64341E-14-1.68676E-13
 -1      3134 1.98651E+01 9.34861E-02 1.25009E-02-2.17416E+00 3.27133E-14-2.29049E-13
 -1      3135 1.97182E+01 3.10602E-01-5.37011E-04-2.04577E+00 5.50035E-14-2.46493E-13
 -1      3136 1.90702E+01 5.34286E-02-8.87804E-03-2.38669E+00 2.05443E-14-2.66188E-13
 -1      3137 1.97768E+01 4.66183E-01 7.85773E-03-1.86246E+00-7.03177E-15-2.57156E-13
 -1      3138 1.97124E+01 5.63299E-01-3.27563E-03-1.72911E+00-8.79560E-14-4.12099E-13
 -1      3139 1.91308E+01 5.11542E-01-1.61343E-03-1.97066E+00-1.92006E-14-4.12614E-13
 -1      3140 1.97985E+01 6.24489E-01 5.05701E-03-1.57400E+00-2.16372E-14-3.18769E-13
 -1      3141 1.97717E+01 6.49006E-01-4.00761E-03-1.44551E+00 2.31621E-14-1.89348E-13
 -1      3142 1.92826E+01 7.14481E-01 1.68097E-03-1.63162E+00-1.95513E-14-1.71201E-13
 -1      3143 1.98571E+01 6.54922E-01 3.53961E-03-1.31296E+00 7.41173E-14-1.06502E-13
 -1      3144 1.98442E+01 6.39398E-01-3.93729E-03-1.19420E+00 5.69939E-14-4.38606E-14
 -1      3145 1.94504E+01 7.64265E-01 2.82783E-03-1.34947E+00 9.18543E-14-1.04832E-13
 -1      3146 1.99176E+01 6.16265E-01 2.74053E-03-1.08025E+00-4.23094E-14-1.35024E-13
 -1      3147 1.99081E+01 5.81412E-01-3.53665E-03-9.73815E-01-3.99945E-14-1.62028E-13
 -1      3148 1.96009E+01 7.29171E-01 2.87850E-03-1.10960E+00-3.96825E-14-1.96851E-13
 -1      3149 1.99664E+01 5.45403E-01 2.30118E-03-8.76049E-01-8.23759E-14-2.60146E-13
 -1      3150 1.99563E+01 5.03514E-01-3.02726E-03-7.83104E-01-1.86168E-14-3.01831E-13
 -1      3151 1.97230E+01 6.52545E-01 2.46821E-03-9.03597E-01-8.96771E-14-2.99552E-13
 -1      3152 2.00004E+01 4.63941E-01 2.01464E-03-6.99963E-01 3.32433E-15-3.54098E-13
 -1      3153 1.99892E+01 4.21847E-01-2.51042E-03-6.20652E-01-4.04035E-14-2.86594E-13
 -1      3154 1.98159E+01 5.60369E-01 1.92969E-03-7.26924E-01-3.44988E-14-2.60664E-13
 -1      3155 2.00213E+01 3.83701E-01 1.78031E-03-5.50860E-01-5.25978E-14-3.32207E-13
 -1      3156 2.00095E+01 3.44888E-01-2.03243E-03-4.84566E-01-8.40874E-14-2.61858E-13
 -1      3157 1.98835E+01 4.67327E-01 1.42068E-03-5.76818E-01-7.04748E-15-4.68715E-13
 -1      3158 2.00321E+01 3.10567E-01 1.55912E-03-4.26833E-01-1.35058E-13-2.46845E-13
 -1      3159 2.00204E+01 2.76546E-01-1.61466E-03-3.72436E-01-7.57424E-14-3.81371E-13
 -1      3160 1.99308E+01 3.81085E-01 9.97021E-04-4.50996E-01-8.75517E-14-4.70932E-13
 -1      3161 2.00360E+01 2.46946E-01 1.34255E-03-3.25395E-01-4.50485E-15-3.72904E-13
 -1      3162 2.00251E+01 2.18102E-01-1.26363E-03-2.81510E-01-1.25555E-13-3.43234E-13
 -1      3163 1.99628E+01 3.05095E-01 6.68363E-04-3.47104E-01-5.28887E-14-3.91724E-13
 -1      3164 2.00354E+01 1.93303E-01 1.13373E-03-2.43760E-01-1.40000E-13-1.63567E-13
 -1      3165 2.00257E+01 1.69434E-01-9.75620E-04-2.08915E-01-8.37669E-14-1.04621E-13
 -1      3166 1.99836E+01 2.40362E-01 4.27085E-04-2.62640E-01-4.67809E-14-3.51934E-13
 -1      3167 2.00324E+01 1.49103E-01 9.38486E-04-1.79080E-01 1.01935E-13 1.00175E-13
 -1      3168 2.00240E+01 1.29728E-01-7.43305E-04-1.51834E-01 1.21003E-13 2.52152E-13
 -1      3169 1.99965E+01 1.86558E-01 2.57553E-04-1.95039E-01 2.01946E-13-2.71759E-14
 -1      3170 2.00281E+01 1.13354E-01 7.61885E-04-1.28613E-01-3.25163E-14 3.67121E-13
 -1      3171 2.00212E+01 9.78817E-02-5.58767E-04-1.07630E-01 2.96055E-14 4.53241E-13
 -1      3172 2.00041E+01 1.42706E-01 1.42637E-04-1.41771E-01 1.98185E-13 2.92591E-13
 -1      3173 2.00236E+01 8.48961E-02 6.07091E-04-8.98366E-02-4.52830E-14 4.65336E-13
 -1      3174 2.00180E+01 7.27161E-02-4.14420E-04-7.39285E-02 9.06723E-15 4.08607E-13
 -1      3175 2.00079E+01 1.07556E-01 6.76751E-05-1.00451E-01-5.69914E-14 4.57518E-13
 -1      3176 2.00191E+01 6.25542E-02 4.75126E-04-6.05153E-02 5.13106E-14 3.83341E-13
 -1      3177 2.00147E+01 5.30852E-02-3.03257E-04-4.86575E-02 5.60194E-14 2.75691E-13
 -1      3178 2.00095E+01 7.97881E-02 2.11306E-05-6.89105E-02 2.58491E-14 2.11769E-13
 -1      3179 2.00150E+01 4.52207E-02 3.65426E-04-3.87296E-02 6.44875E-14 1.96699E-13
 -1      3180 2.00116E+01 3.79294E-02-2.19517E-04-3.00644E-02 1.32918E-13 2.53600E-14
 -1      3181 2.00095E+01 5.81250E-02-5.84642E-06-4.52473E-02-2.57165E-14 1.06750E-13
 -1      3182 2.00115E+01 3.18834E-02 2.75723E-04-2.28767E-02-1.15344E-15-1.01168E-13
 -1      3183 2.00088E+01 2.62909E-02-1.57493E-04-1.67079E-02-4.46815E-14-3.19586E-13
 -1      3184 2.00087E+01 4.13867E-02-1.95922E-05-2.78415E-02-1.16975E-13-1.97611E-13
 -1      3185 2.00084E+01 2.16393E-02 2.03066E-04-1.16650E-02-1.81193E-14-4.55744E-13
 -1      3186 2.00065E+01 1.73475E-02-9.65723E-05-7.44407E-03 4.92374E-14-4.12007E-13
 -1      3187 2.00073E+01 2.85237E-02-1.85017E-05-1.53706E-02-1.19052E-13-4.53681E-13
 -1      3188 2.00060E+01 1.39654E-02 1.57635E-04-4.37283E-03 3.75213E-13-2.59283E-13
 -1      3189 2.00046E+01 1.05770E-02-5.48238E-05-1.63811E-03 2.04040E-13 1.19456E-13
 -1      3190 2.00044E+01 1.12965E-02-9.73953E-05-1.79023E-03 1.41876E-13-9.40522E-14
 -1      3191 2.00058E+01 1.87072E-02-7.33227E-05-7.08793E-03 3.30174E-13-2.45103E-13
 -1      3192 2.09614E+01-3.83396E-01-1.04216E-03-1.15426E+00 2.00800E-14-2.61068E-14
 -1      3193 2.08157E+01-2.30359E-01 6.51377E-03-1.18627E+00 5.62281E-14-2.50466E-14
 -1      3194 2.06927E+01-1.03915E-01 4.49936E-04-1.16463E+00 3.95912E-14-8.76845E-14
 -1      3195 2.05844E+01 7.44094E-03 4.30193E-03-1.14916E+00 1.19452E-14-4.90639E-14
 -1      3196 2.05653E+01-1.77963E-01-7.31404E-03-1.28369E+00 1.83260E-14-9.10908E-14
 -1      3197 2.18539E+01-1.15728E+00-7.56815E-03-7.34853E-01-5.33258E-14 6.66985E-15
 -1      3198 2.16353E+01-9.43955E-01 1.31053E-02-9.17506E-01-1.35009E-14-5.16169E-14
 -1      3199 2.24653E+01-1.50838E+00-1.19348E-02-2.33293E-01-7.28781E-14 1.33306E-13
 -1      3200 2.22394E+01-1.34382E+00 1.51510E-02-5.11795E-01-4.59540E-14 1.14424E-13
 -1      3201 2.19425E+01-1.46841E+00-1.39995E-02-8.91762E-01-1.10413E-13-3.27429E-15
 -1      3202 2.30869E+01-1.58522E+00-1.41537E-02 4.80405E-01-9.14659E-14 1.14242E-13
 -1      3203 2.29026E+01-1.59393E+00 1.03696E-02 1.27375E-01-8.97112E-14 1.34892E-13
 -1      3204 2.27379E+01-1.84549E+00-1.01746E-02-3.37761E-01-9.79906E-14 7.64752E-14
 -1      3205 2.35462E+01-1.09992E+00-7.56597E-03 1.27889E+00 1.12180E-14 1.46014E-13
 -1      3206 2.34618E+01-1.43073E+00-4.58463E-03 9.43054E-01-5.84594E-14 1.12403E-13
 -1      3207 2.35632E+01-1.82657E+00-2.62523E-03 4.88095E-01-5.90404E-14 1.01016E-13
 -1      3208 2.36563E+01 1.08488E-01 8.66966E-03 1.81598E+00 4.62703E-14 1.99196E-13
 -1      3209 2.36922E+01-5.92252E-01-3.02397E-02 1.67536E+00 3.72054E-14 2.08383E-13
 -1      3210 2.41472E+01-1.06578E+00-1.47770E-04 1.42237E+00-8.47239E-15 1.44029E-13
 -1      3211 2.33297E+01 1.70333E+00 1.25107E-02 1.64465E+00 9.47679E-14 2.78117E-13
 -1      3212 2.35067E+01 8.85986E-01-5.11422E-02 1.86765E+00 8.41662E-14 2.44420E-13
 -1      3213 2.42865E+01 5.25388E-01 2.16641E-03 1.95156E+00 1.71911E-14 2.30718E-13
 -1      3214 2.36610E+01 3.49269E+00-3.71211E-02 3.89284E-01 2.77868E-13 2.34519E-13
 -1      3215 2.37619E+01 3.08667E+00-5.42453E-02 1.04440E+00 2.30607E-13 3.16910E-13
 -1      3216 2.34179E+01 1.29044E+00-5.57978E-02-1.84755E+00 1.58188E-13-1.11339E-13
 -1      3217 2.32977E+01 2.05618E+00 3.25870E-03-1.52381E+00 1.43024E-13-1.63581E-13
 -1      3218 2.37005E+01-2.84828E-01-3.57134E-02-1.85882E+00 1.97648E-13-1.51765E-13
 -1      3219 2.36280E+01 4.80840E-01 8.42186E-03-1.93402E+00 1.76944E-13-1.17497E-13
 -1      3220 2.42399E+01 1.02828E+00 2.87646E-03-2.05045E+00 1.71644E-13-2.88679E-13
 -1      3221 2.35678E+01-1.25743E+00-5.92144E-03-1.22601E+00 1.38491E-13-4.64273E-14
 -1      3222 2.36114E+01-8.48609E-01-3.79566E-03-1.51897E+00 1.93482E-13-3.86603E-14
 -1      3223 2.42243E+01-7.00868E-01 2.06402E-03-1.69486E+00 1.11010E-13-2.95882E-13
 -1      3224 2.30663E+01-1.55606E+00 9.01347E-03-4.10623E-01-3.58311E-14 1.97442E-14
 -1      3225 2.32219E+01-1.49387E+00-1.58148E-02-7.59708E-01 1.00419E-13 3.90540E-14
 -1      3226 2.37207E+01-1.69777E+00-8.38160E-03-8.04656E-01 3.80859E-14-7.96039E-14
 -1      3227 2.24097E+01-1.36976E+00 1.47303E-02 2.61074E-01-3.51258E-14-3.42825E-15
 -1      3228 2.26259E+01-1.51135E+00-1.37996E-02-2.81507E-02-3.13985E-14 4.19480E-14
 -1      3229 2.29217E+01-1.83998E+00-1.14129E-02 5.75457E-02-7.35491E-14 1.98227E-14
 -1      3230 2.17847E+01-9.83234E-01 1.39061E-02 6.98043E-01-2.32662E-13 4.45502E-14
 -1      3231 2.20034E+01-1.19429E+00-8.93966E-03 5.04118E-01-4.16427E-14 4.87639E-14
 -1      3232 2.20992E+01-1.51060E+00-1.38135E-02 6.58450E-01-3.55498E-14 1.18000E-13
 -1      3233 2.12770E+01-5.82642E-01 1.04026E-02 9.26797E-01-1.94341E-13-1.22838E-13
 -1      3234 2.14676E+01-7.83238E-01-4.64651E-03 8.20609E-01-2.51727E-13-5.79704E-14
 -1      3235 2.14175E+01-1.02570E+00-1.29779E-02 9.88317E-01-1.35783E-13-3.15067E-14
 -1      3236 2.09000E+01-2.53539E-01 6.78903E-03 1.00379E+00-1.06150E-13-1.61148E-13
 -1      3237 2.10534E+01-4.10425E-01-1.73238E-03 9.64652E-01-1.11198E-13-1.08143E-13
 -1      3238 2.09166E+01-5.66852E-01-1.03383E-02 1.11819E+00-1.48108E-13-3.02127E-14
 -1      3239 2.06344E+01-1.92033E-02 3.92560E-03 9.82360E-01-5.21156E-14-8.52152E-14
 -1      3240 2.07533E+01-1.26680E-01 4.52219E-05 9.88871E-01-7.19542E-14-1.03743E-13
 -1      3241 2.05770E+01-2.08053E-01-7.21474E-03 1.11892E+00-7.63553E-14-3.31003E-14
 -1      3242 2.04521E+01 1.28009E-01 1.90213E-03 9.03166E-01 1.53277E-13-1.11889E-13
 -1      3243 2.05432E+01 6.32938E-02 1.03450E-03 9.37643E-01 7.04386E-14-1.17786E-13
 -1      3244 2.03592E+01 3.81349E-02-4.61956E-03 1.04464E+00 1.93864E-14 2.22416E-14
 -1      3245 2.03277E+01 2.07067E-01 5.99814E-04 7.94769E-01 9.72101E-14-4.37411E-14
 -1      3246 2.03979E+01 1.74616E-01 1.53570E-03 8.44038E-01 1.00709E-13-1.65404E-13
 -1      3247 2.02252E+01 1.87095E-01-2.78659E-03 9.31588E-01 1.28593E-13-2.83309E-13
 -1      3248 2.02420E+01 2.38074E-01-1.69596E-04 6.76163E-01-2.64228E-14 9.42428E-14
 -1      3249 2.02967E+01 2.27747E-01 1.74966E-03 7.31055E-01 1.49829E-14-1.59345E-14
 -1      3250 2.01452E+01 2.62613E-01-1.60689E-03 8.03016E-01-3.26129E-15-2.29865E-13
 -1      3251 2.01817E+01 2.38055E-01-5.73881E-04 5.59383E-01 9.70162E-14-4.83959E-14
 -1      3252 2.02249E+01 2.41621E-01 1.78979E-03 6.13907E-01 1.02942E-13 1.40895E-13
 -1      3253 2.00981E+01 2.87579E-01-9.00765E-04 6.73375E-01 2.29941E-14-1.51143E-13
 -1      3254 2.01380E+01 2.19914E-01-7.41277E-04 4.51550E-01 2.95572E-14 3.40768E-15
 -1      3255 2.01725E+01 2.31289E-01 1.72111E-03 5.02097E-01 6.65628E-14-1.57029E-14
 -1      3256 2.00704E+01 2.80600E-01-4.99797E-04 5.51329E-01 1.16824E-13 1.92734E-14
 -1      3257 2.01056E+01 1.92738E-01-7.65627E-04 3.56351E-01 4.79359E-14 3.82257E-15
 -1      3258 2.01331E+01 2.07723E-01 1.58304E-03 4.01029E-01 7.25710E-14 8.98898E-15
 -1      3259 2.00536E+01 2.55471E-01-2.85178E-04 4.41678E-01 4.05707E-14-5.84054E-14
 -1      3260 2.00810E+01 1.62507E-01-7.11016E-04 2.75134E-01-4.27474E-14 1.69835E-13
 -1      3261 2.01029E+01 1.78395E-01 1.40559E-03 3.13228E-01-1.89062E-15 4.94285E-14
 -1      3262 2.00429E+01 2.21772E-01-1.79375E-04 3.46573E-01-5.31392E-14-1.40401E-13
 -1      3263 2.00620E+01 1.32868E-01-6.18864E-04 2.07752E-01 8.85107E-14 3.90104E-13
 -1      3264 2.00793E+01 1.48049E-01 1.21218E-03 2.39300E-01-3.05743E-14 2.93748E-13
 -1      3265 2.00354E+01 1.85730E-01-1.31378E-04 2.66390E-01-8.29713E-14 1.64705E-14
 -1      3266 2.00471E+01 1.05848E-01-5.14249E-04 1.53179E-01 2.84224E-16 3.25230E-13
 -1      3267 2.00607E+01 1.19461E-01 1.01907E-03 1.78663E-01 1.66833E-13 4.46854E-13
 -1      3268 2.00296E+01 1.51091E-01-1.10196E-04 2.00413E-01 1.44421E-14 3.07902E-13
 -1      3269 2.00355E+01 8.23852E-02-4.12125E-04 1.09930E-01-2.81042E-13 1.85195E-13
 -1      3270 2.00460E+01 9.40665E-02 8.36988E-04 1.30060E-01-1.49957E-13 2.52744E-13
 -1      3271 2.00248E+01 1.19880E-01-1.00254E-04 1.47292E-01-4.86218E-14 4.02323E-13
 -1      3272 2.00264E+01 6.27315E-02-3.20499E-04 7.63477E-02 2.74168E-14-7.99501E-14
 -1      3273 2.00345E+01 7.24280E-02 6.72664E-04 9.19188E-02-1.59479E-13-2.73926E-14
 -1      3274 2.00206E+01 9.29885E-02-9.37046E-05 1.05378E-01-1.18892E-13-7.33390E-14
 -1      3275 2.00193E+01 4.67197E-02-2.42968E-04 5.07938E-02 4.38658E-14-2.68732E-13
 -1      3276 2.00254E+01 5.45624E-02 5.29600E-04 6.25885E-02 1.11449E-13-1.73245E-13
 -1      3277 2.00169E+01 7.05805E-02-8.71547E-05 7.29431E-02 1.06908E-13-2.23951E-13
 -1      3278 2.00139E+01 3.39518E-02-1.80790E-04 3.17615E-02-2.82650E-14-8.18627E-14
 -1      3279 2.00184E+01 4.01708E-02 4.08743E-04 4.04964E-02-3.42528E-14-1.58251E-13
 -1      3280 2.00136E+01 5.23895E-02-7.91448E-05 4.83330E-02 1.05115E-14-1.47034E-13
 -1      3281 2.00098E+01 2.39269E-02-1.27319E-04 1.79419E-02-1.73807E-13-8.21918E-14
 -1      3282 2.00130E+01 2.87895E-02 3.09840E-04 2.42350E-02 5.38596E-14-1.35964E-13
 -1      3283 2.00107E+01 3.79102E-02-6.99434E-05 3.00575E-02-4.01778E-14-4.41449E-14
 -1      3284 2.00067E+01 1.61911E-02-3.57072E-05 8.28124E-03-5.79184E-14-1.67766E-13
 -1      3285 2.00089E+01 1.98527E-02 2.24295E-04 1.25874E-02-1.93416E-13-1.60131E-13
 -1      3286 2.00082E+01 2.65350E-02-6.87018E-05 1.68435E-02-1.32981E-13 9.04134E-14
 -1      3287 1.23984E+01-1.12299E+00 1.16693E-01-4.36198E+00-1.70669E-13-4.99850E-13
 -1      3288 1.39111E+01-2.11374E+00 2.03181E-02-5.23776E+00-2.45706E-13-4.06036E-13
 -1      3289 2.61717E+01 1.73795E+00-1.49423E-01-2.17174E+00 4.36123E-13-3.59917E-13
 -1      3290 2.66677E+01 1.15536E-01 1.74646E-02-1.98111E+00 2.80873E-13-4.15931E-13
 -1      3291 1.97015E+01 2.56390E+00-3.70740E-03 1.26034E-01 1.68464E-13-3.41510E-13
 -1      3292 1.96559E+01 2.61903E+00-4.53164E-03 5.33562E-02 1.19619E-13-3.78647E-13
 -1      3293 2.00020E+01 1.73792E-02 1.70756E-05-2.23959E-03 2.66379E-14-6.55804E-13
 -1      3294 2.00012E+01 1.84077E-02-9.43047E-05-2.18560E-03 1.37906E-14-2.48667E-13
 -1      3295 1.99999E+01 2.09476E-02-4.42226E-05-4.61177E-04 8.30461E-14-2.51292E-14
 -1      3296 1.99999E+01 2.09700E-02-4.70393E-05 2.42112E-05 1.90630E-13 5.29743E-15
 -1      3297 2.64533E+01-1.93614E+00-1.44919E-01-9.45300E-01 1.42667E-13-4.86999E-13
 -1      3298 2.59986E+01-3.20253E+00 4.88380E-02 4.16927E-01-4.08458E-14-5.26284E-13
 -1      3299 2.00033E+01 1.37330E-02-1.03784E-05-1.88292E-03 1.06099E-13-5.58446E-13
 -1      3300 2.00027E+01 1.51784E-02-9.32280E-05-2.27932E-03 9.18420E-14-6.60396E-13
 -1      3301 2.00025E+01 2.10802E-02 8.42530E-05-3.76683E-03 3.21423E-14-4.99033E-13
 -1      3302 2.00007E+01 1.98653E-02-1.16452E-05-1.64392E-03-9.88072E-14 6.50533E-14
 -1      3303 2.00002E+01 2.04161E-02-7.58091E-05-1.29112E-03 2.02300E-14 1.89227E-13
 -1      3304 1.99998E+01 2.65486E-02 1.36567E-04-1.24443E-03-1.41119E-14 4.54674E-14
 -1      3305 2.00009E+01 2.46263E-02 1.20140E-04-2.92431E-03 1.22897E-16 7.98791E-15
 -1      3306 2.65624E+01-4.14236E+00 7.13581E-02-8.54104E-01 3.88899E-13-3.74173E-13
 -1      3307 2.00031E+01 7.46010E-03 2.52972E-05-8.28744E-04 3.30160E-13 1.86585E-13
 -1      3308 2.03368E+01 5.26147E-01-2.72793E-04-5.46567E-01 1.37913E-13-5.73003E-14
 -1      3309 2.03420E+01 6.18172E-01 3.79902E-03-4.03959E-01 1.94477E-13-7.50808E-14
 -1      3310 1.25509E+01-2.89087E+00 1.31539E-01 6.01057E+00-3.47791E-13 1.55737E-13
 -1      3311 1.18720E+01-1.79303E+00 1.33379E-01 5.09178E+00-3.02855E-13 1.74818E-13
 -1      3312 2.04160E+01 1.14165E+00-4.88075E-04 3.28740E-01 2.79128E-13-1.08697E-13
 -1      3313 2.03317E+01 1.48052E+00 2.27960E-03 4.15639E-01 2.83381E-13-1.34866E-13
 -1      3314 2.03049E+01 1.34548E+00 2.21133E-03 2.04963E-01 2.53402E-13-1.41593E-13
 -1      3315 2.03825E+01 9.48040E-01-2.03063E-03 8.41316E-02 2.43955E-13-1.02119E-13
 -1      3316 2.43911E+01-5.11836E+00-9.67054E-03 3.21958E+00 1.08080E-13 1.79898E-13
 -1      3317 1.52168E+01-2.89374E+00 1.11354E-01 5.69034E+00-2.86146E-13 1.85012E-13
 -1      3318 2.27010E+01-4.50017E+00 1.14747E-01-3.70894E+00 4.81289E-13-2.13098E-13
 -1      3319 2.46565E+01-4.69763E+00-9.86033E-02-2.37267E+00 3.96148E-13-2.89572E-13
 -1      3320 2.88062E+01 1.56842E-01-1.89956E-02 2.48751E+00 5.22082E-14-3.93796E-13
 -1      3321 9.83506E+00 2.26500E-01 8.42504E-02-1.31623E+00-5.60663E-15 4.53179E-13
 -1      3322 1.07039E+01-3.91380E-01 1.19562E-01-3.15218E+00 2.55768E-14 5.30298E-13
 -1      3323 2.13446E+01-7.45937E-01-3.72035E-03-1.02684E+00 1.94700E-14-4.95968E-14
 -1      3324 2.11590E+01-5.50757E-01 9.62732E-03-1.12427E+00-1.18297E-15-3.61719E-14
 -1      3325 2.08573E+01-5.29991E-01-1.02743E-02-1.29742E+00 9.85068E-15-4.52140E-14
 -1      3326 2.13077E+01-9.78225E-01-1.32764E-02-1.18823E+00-2.17380E-14-4.04080E-14
 -1      3327 2.08889E+01-4.18895E+00-5.75885E-02 4.36784E+00-3.60476E-13-2.28755E-13
 -1      3328 1.83569E+01-3.27735E+00 1.05788E-01 5.03574E+00-3.36460E-13-1.66117E-13
 -1      3329 2.03522E+01 3.80699E-01 6.77636E-04-7.81741E-01 1.08447E-13-6.07288E-14
 -1      3330 2.03326E+01 4.50446E-01 3.32835E-03-6.74105E-01 1.10498E-13-4.05554E-14
 -1      3331 2.02779E+01 5.96348E-01-2.14627E-03-6.10751E-01 1.28718E-13-1.00850E-13
 -1      3332 2.51646E+01-4.11793E+00-4.71468E-03-1.49846E+00 3.83662E-13-2.67016E-13
 -1      3333 1.32501E+01-1.73105E+00 3.11929E-02 4.94773E+00-2.49287E-13 1.53932E-13
 -1      3334 1.15664E+01-8.97000E-01 1.64310E-01 4.23590E+00-2.30635E-13 5.10009E-14
 -1      3335 1.65236E+01-2.94665E+00 1.13054E-01-5.40855E+00-3.18752E-13-3.09017E-13
 -1      3336 1.93434E+01-4.09409E+00-6.06974E-02-5.13234E+00-3.32213E-13-2.29976E-13
 -1      3337 1.65378E+01-2.25524E+00 1.01423E-01-4.80308E+00-2.68351E-13-3.05894E-13
 -1      3338 1.19337E+01-1.03742E+00 1.08543E-01-4.03304E+00 1.26951E-13 3.99139E-13
 -1      3339 1.37968E+01-2.01034E+00 1.18831E-02-4.89481E+00 2.29761E-13 4.12170E-13
 -1      3340 1.25663E+01-3.27818E-01 1.15527E-01-3.19042E+00 8.83668E-14 3.88814E-13
 -1      3341 2.46786E+01-4.22742E+00-1.07014E-01 1.92140E+00-1.75460E-13-4.45152E-13
 -1      3342 2.33178E+01-4.20862E+00 8.59629E-02 3.06848E+00-2.59409E-13-3.45357E-13
 -1      3343 1.63381E+01-2.87934E+00 1.68665E-02 5.38869E+00-3.36238E-13-7.31568E-14
 -1      3344 1.52765E+01-2.31494E+00 1.10122E-01 5.23077E+00-3.54779E-13 1.24997E-13
 -1      3345 1.46703E+01-1.61335E+00 5.28342E-02 4.63650E+00-2.65912E-13 9.62980E-14
 -1      3346 1.82390E+01-2.81111E+00 4.62965E-02 4.63908E+00-3.75561E-13-1.49502E-13
 -1      3347 2.72800E+01-1.45114E+00 8.06315E-03 1.06073E+00-5.14172E-14 2.05315E-13
 -1      3348 2.69774E+01-3.00565E-02-1.29350E-01 1.75673E+00-6.76820E-14 1.14145E-13
 -1      3349 9.08505E+00-4.20473E-01 1.54076E-01-2.34164E+00-2.50286E-14-7.62376E-13
 -1      3350 2.02765E+01 1.05202E+00 3.12367E-03 1.68176E-01-1.29568E-13-3.04234E-13
 -1      3351 2.02394E+01 9.34334E-01-1.99376E-03 3.64412E-01-1.17101E-13-2.94613E-13
 -1      3352 2.01349E+01 1.05060E+00 1.02057E-03 4.15588E-01-1.01010E-13-3.07467E-13
 -1      3353 2.57033E+01-3.99604E+00 5.99508E-02-1.61243E+00-2.53434E-13 1.38417E-13
 -1      3354 2.67007E+01-3.05328E+00-1.27682E-01-1.47413E-01-8.40547E-14 2.53346E-13
 -1      3355 2.19657E+01-4.38537E+00 8.92737E-02-4.14957E+00-3.24747E-13-1.72976E-13
 -1      3356 2.39207E+01-4.74845E+00-8.79402E-02-3.10898E+00-3.17302E-13-8.78178E-14
 -1      3357 2.02154E+01 1.83360E+00-5.33516E-03-5.01754E-01-1.57807E-13-3.96789E-13
 -1      3358 2.02657E+01 1.61722E+00 1.22672E-03-3.70372E-01-1.45960E-13-3.70846E-13
 -1      3359 2.00734E+01 2.11730E+00 4.38702E-04-4.58681E-01-1.20407E-13-3.91103E-13
 -1      3360 1.68734E+01-3.03472E+00 1.32185E-01-5.14509E+00 4.58959E-13 2.48829E-13
 -1      3361 1.98580E+01-4.27011E+00-4.49878E-02-4.86254E+00 4.99586E-13-7.70009E-14
 -1      3362 2.53914E+01 4.46251E+00-1.31972E-01-1.19770E+00 6.21794E-13-2.25445E-14
 -1      3363 2.58757E+01 3.49664E+00-5.06077E-02-1.98156E+00 6.04045E-13-1.90611E-13
 -1      3364 9.46516E+00 1.62988E-01 1.19534E-01-1.15588E+00 1.86873E-14-7.27265E-13
 -1      3365 1.04802E+01-3.58665E-01 6.80996E-02-3.08906E+00-6.56940E-14-6.34270E-13
 -1      3366 1.96296E+01 2.65626E+00-3.54949E-03 1.02647E-02 1.14467E-13-3.96481E-13
 -1      3367 1.96236E+01 2.66449E+00-3.35700E-03-5.78186E-02 8.56606E-14-3.84788E-13
 -1      3368 1.97080E+01 2.40173E+00 6.30815E-03 1.94757E-03 1.07777E-13-3.60946E-13
 -1      3369 2.01783E+01 1.69441E+00 1.07920E-03-2.57399E-01-1.20062E-13-3.87489E-13
 -1      3370 2.66917E+01 7.51834E-01-6.67124E-02 2.03907E+00-4.83294E-14 2.02623E-13
 -1      3371 2.59175E+01 1.53223E+00-7.68247E-02 2.17127E+00 3.33067E-15 3.03466E-13
 -1      3372 2.61367E+01-2.26617E-01-3.17065E-02 1.79611E+00-1.38778E-16 1.85251E-13
 -1      3373 1.98550E+01 2.43525E+00-1.72803E-03-3.43731E-01-8.52043E-14-3.74830E-13
 -1      3374 1.99516E+01 2.28038E+00-5.39419E-03-4.07241E-01-1.27664E-13-3.73149E-13
 -1      3375 2.00284E+01 2.07163E+00 3.18225E-03-3.21284E-01-1.05832E-13-3.83452E-13
 -1      3376 2.63855E+01-2.30548E+00-2.63784E-02 5.24734E-01-8.22840E-14 1.88627E-13
 -1      3377 2.00023E+01 1.53842E-02-9.46468E-05 2.11008E-03 7.01527E-14-2.91104E-13
 -1      3378 2.00030E+01 1.41049E-02 4.85663E-05 1.85932E-03 1.74339E-13 1.03235E-13
 -1      3379 2.02005E+01 1.30904E+00-1.53623E-03 5.45094E-02-1.26132E-13-3.39089E-13
 -1      3380 2.40491E+01-3.68594E+00 9.75227E-02-2.16303E+00 3.49547E-13-1.77265E-13
 -1      3381 1.96983E+01 2.64235E+00-3.08728E-03-2.21560E-01 4.54136E-15-4.05341E-13
 -1      3382 1.97660E+01 2.54834E+00-4.22452E-03-2.90379E-01-4.39855E-14-3.96405E-13
 -1      3383 1.98349E+01 2.35572E+00 2.24712E-03-2.37811E-01-5.91078E-14-3.62140E-13
 -1      3384 9.88731E+00 4.10083E-01 1.41228E-01-1.56708E-01 1.07454E-13-7.05075E-13
 -1      3385 1.11111E+01 5.03312E-01 7.33403E-02-8.85318E-01 4.39813E-14-6.16243E-13
 -1      3386 1.06014E+01 3.73288E-01 4.83519E-02 9.46363E-01 1.92108E-13-5.55028E-13
 -1      3387 1.14927E+01-2.64466E-01 9.46436E-02 3.16469E+00-1.76720E-13 3.44308E-14
 -1      3388 2.03926E+01 7.99950E-02-5.06748E-03-1.19071E+00 1.54439E-14-9.35301E-14
 -1      3389 2.05154E+01 9.90297E-02 1.09832E-03-1.09364E+00-1.06713E-14-4.42474E-14
 -1      3390 2.04398E+01 1.80213E-01 3.11199E-03-1.04325E+00 1.28993E-14-8.35752E-14
 -1      3391 2.46005E+01 3.18902E+00-6.16594E-02 1.50557E+00 2.17930E-13 2.97658E-13
 -1      3392 2.30660E+01 2.63868E+00-4.25510E-02-9.14350E-01 2.40676E-13-4.57679E-14
 -1      3393 2.29847E+01 2.92861E+00-1.08363E-03-2.66794E-01 2.48964E-13 9.08032E-14
 -1      3394 1.62969E+01-2.07952E+00 1.03401E-01-4.52596E+00 2.90531E-13 1.73903E-13
 -1      3395 2.00060E+01 1.41948E-02 1.15234E-04 5.55828E-03-1.54882E-13-1.22288E-13
 -1      3396 2.00061E+01 1.89943E-02-1.03551E-04 8.53748E-03-1.71377E-13 2.52560E-13
 -1      3397 2.00050E+01 1.24020E-02 3.73405E-05 3.49468E-03-1.90141E-13 1.11737E-13
 -1      3398 1.23804E+01-4.45800E-01 9.42389E-02-3.36037E+00-1.30198E-13-4.75529E-13
 -1      3399 2.00009E+01 1.85306E-02-9.13774E-05 1.87283E-03 1.57958E-13-1.67014E-13
 -1      3400 2.00016E+01 1.75329E-02 1.72299E-05 1.98818E-03 1.87246E-13-2.43613E-13
 -1      3401 2.00021E+01 2.12533E-02 9.53538E-05 3.50525E-03 1.12741E-13-2.30746E-13
 -1      3402 2.58532E+01-9.56707E-01-1.03782E-03-1.52004E+00 1.03879E-13-4.78836E-13
 -1      3403 2.13736E+01-3.83519E+00 4.16994E-02-3.81404E+00 3.58956E-13-6.52482E-14
 -1      3404 2.20285E+01-3.72477E+00 3.04983E-02 3.27228E+00-3.08323E-13-2.97157E-13
 -1      3405 2.50109E+01-3.28459E+00 2.53599E-02 7.12565E-01-1.60016E-13-4.48471E-13
 -1      3406 2.00000E+01 2.04868E-02-7.35070E-05 8.83371E-04 2.42205E-13-3.61726E-14
 -1      3407 2.00004E+01 1.99600E-02-1.32148E-05 1.27906E-03 2.03256E-13-2.18448E-13
 -1      3408 2.00006E+01 2.47274E-02 1.17774E-04 2.55173E-03 2.50168E-13-8.69700E-14
 -1      3409 1.99997E+01 2.65886E-02 1.34160E-04 7.81335E-04 2.13987E-13-1.50328E-13
 -1      3410 2.49030E+01 4.40138E+00-1.00668E-01-7.54605E-01 5.66470E-13 4.90302E-14
 -1      3411 2.42125E+01 3.57317E+00-5.05945E-03-1.15125E+00 4.67876E-13 2.84373E-14
 -1      3412 2.00041E+01 1.23870E-02-4.47830E-05-1.91017E-03 3.59288E-14-2.77541E-13
 -1      3413 2.00037E+01 1.28294E-02-6.39274E-05-1.92010E-03 1.32862E-13-5.40910E-13
 -1      3414 2.00040E+01 1.80935E-02 8.54595E-05-3.98072E-03 1.01896E-13-6.11657E-13
 -1      3415 2.00050E+01 1.61635E-02 1.30109E-04-4.13770E-03 4.31053E-13-3.63234E-13
 -1      3416 2.01475E+01 1.74284E+00 5.96011E-03 2.23796E-01 2.33842E-13-2.33399E-13
 -1      3417 2.00362E+01 2.07640E+00-5.47495E-03 3.67373E-01 2.52927E-13-2.77973E-13
 -1      3418 1.99349E+01 2.23600E+00-4.09059E-03 2.96396E-01 2.46654E-13-3.22767E-13
 -1      3419 2.10952E+01-3.84239E+00 6.77169E-02-4.10224E+00-3.21642E-13-1.60247E-13
 -1      3420 1.82087E+01-3.06617E+00 1.36738E-01 4.90717E+00 3.12604E-13-1.10717E-13
 -1      3421 1.66562E+01-2.30060E+00 3.29096E-02 4.65842E+00 3.24813E-13-1.97994E-13
 -1      3422 1.18013E+01-7.98447E-01 1.48536E-01 3.78141E+00 2.93991E-13-3.67720E-13
 -1      3423 1.18176E+01-1.32051E-01 7.36294E-02 2.79486E+00 2.37400E-13-3.90819E-13
 -1      3424 1.39643E+01-1.09593E+00 4.53866E-02 4.05613E+00 2.82836E-13-3.30652E-13
 -1      3425 1.00926E+01 5.67859E-01 1.43786E-01-3.17515E-01-2.48777E-14 3.78780E-13
 -1      3426 1.13067E+01 5.34367E-01 6.81801E-02-1.29421E+00-2.58292E-14 4.83176E-13
 -1      3427 1.07197E+01 5.61353E-01 7.56910E-02 6.78792E-01-9.95714E-14 3.66623E-13
 -1      3428 2.03609E+01 3.16836E-01 2.84337E-03-8.84098E-01 9.02818E-14-5.29017E-14
 -1      3429 2.02726E+01 4.29264E-01-2.77315E-03-8.50517E-01 9.44020E-14-8.16281E-14
 -1      3430 2.04075E+01 2.50075E-01 1.14160E-03-9.63122E-01 4.22040E-14-5.61574E-14
 -1      3431 1.97641E+01 2.47662E+00-4.59727E-03 1.72876E-01 1.77041E-13-3.10998E-13
 -1      3432 1.98004E+01 2.27992E+00 6.29367E-03 7.51733E-02 1.46058E-13-3.07101E-13
 -1      3433 1.98424E+01 2.37159E+00-4.28661E-03 2.47741E-01 2.27177E-13-3.14434E-13
 -1      3434 2.00035E+01 1.13586E-02-9.56614E-05 1.39127E-03 2.71376E-13 3.98391E-13
 -1      3435 2.00038E+01 9.43480E-03 4.20688E-05 6.42395E-04 4.32402E-14 1.72576E-13
 -1      3436 2.00045E+01 1.12337E-02 9.00425E-05 2.10591E-03-3.38900E-14 1.71891E-13
 -1      3437 2.00038E+01 1.64815E-02 6.43360E-05 3.38258E-03-2.07653E-14 1.02538E-13
 -1      3438 2.51818E+01 2.09230E+00-5.11728E-02-2.00804E+00 3.63494E-13-3.09201E-13
 -1      3439 2.03534E+01 6.94585E-01-1.08036E-03-2.68563E-01 2.16337E-13-8.00256E-14
 -1      3440 2.03767E+01 8.27062E-01 3.36723E-03-8.20004E-02 2.19707E-13-9.72439E-14
 -1      3441 2.03428E+01 1.00962E+00 6.37264E-04-2.08310E-02 2.20872E-13-1.28229E-13
 -1      3442 2.03079E+01 7.80403E-01-1.61519E-03-3.35795E-01 1.99154E-13-1.21372E-13
 -1      3443 2.58402E+01 3.91958E+00-7.04092E-02 1.48753E+00 2.08014E-13 2.71779E-13
 -1      3444 2.19738E+01-3.70489E+00-5.02377E-02-3.26956E+00 2.54158E-13 7.12624E-15
 -1      3445 1.96848E+01-3.75577E+00 9.81661E-04 4.65517E+00 2.37442E-13 1.43843E-14
 -1      3446 2.18765E+01-4.30360E+00 1.15339E-01 4.09878E+00 2.42219E-13 1.72583E-13
 -1      3447 2.04930E+01-3.40065E+00 1.98639E-03 4.00421E+00 2.55435E-13 9.09134E-14
 -1      3448 2.47278E+01-3.96641E+00 3.73452E-02-1.86038E+00-2.68410E-13 1.17358E-13
 -1      3449 2.43499E+01 4.18334E+00-7.73384E-02-1.06014E-01 4.65288E-13 1.90809E-13
 -1      3450 2.38516E+01 2.75801E+00-5.14466E-02-1.36865E+00 2.78440E-13-8.69617E-14
 -1      3451 1.99454E+01 1.04297E+00-7.46018E-04 5.88554E-01-6.97952E-14-2.93292E-13
 -1      3452 1.98776E+01 9.87745E-01-1.54458E-03 7.33139E-01-5.28677E-14-2.61180E-13
 -1      3453 1.97674E+01 9.51989E-01-1.89981E-03 8.56693E-01-5.06857E-14-2.26788E-13
 -1      3454 1.96879E+01 9.28692E-01-1.95436E-04 9.89214E-01-5.67490E-14-1.98310E-13
 -1      3455 1.96979E+01 1.09406E+00 3.90073E-03 7.14589E-01-3.19227E-14-2.57439E-13
 -1      3456 1.95417E+01 9.12874E-01-3.57617E-03 1.10673E+00-4.73174E-14-1.89794E-13
 -1      3457 1.94514E+01 9.02902E-01 9.82559E-04 1.23525E+00 7.37138E-15-1.61682E-13
 -1      3458 1.94457E+01 1.03731E+00 4.48373E-03 9.47165E-01-3.71532E-14-1.79076E-13
 -1      3459 1.92680E+01 8.87105E-01-5.32435E-03 1.35785E+00 2.03695E-14-1.36153E-13
 -1      3460 1.91716E+01 8.66937E-01 2.79452E-03 1.49177E+00 3.72181E-14-1.65128E-13
 -1      3461 1.91247E+01 1.01377E+00 5.51585E-03 1.17560E+00 2.44568E-14-1.77715E-13
 -1      3462 1.89495E+01 8.23972E-01-7.34459E-03 1.63362E+00 4.75545E-14-2.04995E-13
 -1      3463 1.88616E+01 7.62916E-01 5.99644E-03 1.78482E+00 4.34897E-14-2.02357E-13
 -1      3464 1.87322E+01 9.76592E-01 6.49775E-03 1.42464E+00 1.72559E-14-2.33304E-13
 -1      3465 1.86025E+01 6.55489E-01-9.63124E-03 1.96767E+00 6.18504E-14-1.86543E-13
 -1      3466 1.85557E+01 5.10190E-01 1.17458E-02 2.15211E+00 1.06123E-13-1.72628E-13
 -1      3467 1.82674E+01 8.66854E-01 6.98403E-03 1.73123E+00 5.66556E-14-2.74334E-13
 -1      3468 1.82740E+01 2.85755E-01-1.03298E-02 2.40801E+00 1.39129E-13-1.44197E-13
 -1      3469 1.83288E+01-4.93984E-03 2.16133E-02 2.64484E+00 1.68356E-13-9.74537E-14
 -1      3470 1.77416E+01 5.99191E-01 5.79959E-03 2.15463E+00 1.14295E-13-2.56380E-13
 -1      3471 1.80674E+01-4.14791E-01-3.80335E-03 3.01145E+00 1.68381E-13-8.93521E-14
 -1      3472 1.83209E+01-9.80780E-01 2.27207E-02 3.32782E+00 1.78470E-13-9.42896E-14
 -1      3473 1.72100E+01 4.63580E-02 7.02074E-03 2.78323E+00 1.96076E-13-2.92589E-13
 -1      3474 2.51097E+01 1.95053E+00-9.56611E-02 2.12754E+00 2.11532E-14 2.83686E-13
 -1      3475 1.99587E+01 2.04321E+00-1.27463E-03-2.13338E-01-9.87713E-14-3.33062E-13
 -1      3476 2.00636E+01 1.87075E+00-3.00580E-03-2.42049E-01-1.00153E-13-3.97289E-13
 -1      3477 2.01167E+01 1.69098E+00 5.27856E-03-1.40559E-01-1.13831E-13-3.71441E-13
 -1      3478 1.82758E+01-6.60758E-01 3.73908E-02-3.06017E+00 4.67118E-14 7.57441E-14
 -1      3479 1.80536E+01-1.70939E-01 8.03750E-04-2.76062E+00 2.90805E-15 6.74465E-14
 -1      3480 1.83009E+01 1.87920E-01 2.12253E-02-2.40652E+00-6.47269E-15 3.01858E-14
 -1      3481 1.82568E+01 4.45012E-01-9.09773E-03-2.17592E+00-3.79739E-14-1.22912E-14
 -1      3482 1.72120E+01 2.51430E-01 4.46657E-03-2.52613E+00-8.16502E-15 1.03191E-13
 -1      3483 1.85179E+01 6.36371E-01 1.09147E-02-1.93107E+00-1.72020E-14-7.09928E-14
 -1      3484 1.85627E+01 7.52643E-01-9.26298E-03-1.75155E+00-7.73420E-14-9.16703E-14
 -1      3485 1.77251E+01 7.35798E-01 7.67263E-03-1.93419E+00-5.70342E-14 1.65867E-13
 -1      3486 1.87963E+01 8.31904E-01 5.33600E-03-1.57701E+00-6.74487E-14-3.74979E-14
 -1      3487 1.88714E+01 8.64284E-01-7.64263E-03-1.43209E+00-3.73786E-14 8.72696E-15
 -1      3488 1.82038E+01 9.44126E-01 7.56352E-03-1.53406E+00-6.22597E-14 1.22955E-13
 -1      3489 1.90673E+01 8.75976E-01 2.68992E-03-1.29949E+00 8.11422E-15-7.15836E-14
 -1      3490 1.91438E+01 8.60116E-01-6.14202E-03-1.17809E+00 6.78454E-14-1.17604E-13
 -1      3491 1.86158E+01 9.92934E-01 6.88771E-03-1.24650E+00-6.29138E-14 4.67492E-14
 -1      3492 1.93020E+01 8.34465E-01 1.47216E-03-1.07149E+00-9.94322E-15-2.82753E-13
 -1      3493 1.93678E+01 7.93619E-01-4.94109E-03-9.67283E-01-1.24056E-13-2.71352E-13
 -1      3494 1.89545E+01 9.50166E-01 5.85971E-03-1.02464E+00-3.31880E-14-1.15684E-13
 -1      3495 1.94925E+01 7.49827E-01 9.86952E-04-8.78224E-01-5.54554E-14-2.98598E-13
 -1      3496 1.95440E+01 6.98389E-01-4.00531E-03-7.88091E-01-7.33622E-14-2.80388E-13
 -1      3497 1.92242E+01 8.59598E-01 4.76179E-03-8.42980E-01-9.01373E-14-1.70611E-13
 -1      3498 1.96405E+01 6.48086E-01 8.30157E-04-7.12388E-01-1.10898E-13-1.88988E-13
 -1      3499 1.96785E+01 5.94578E-01-3.25729E-03-6.34814E-01-4.59231E-14-3.05921E-13
 -1      3500 1.94340E+01 7.48588E-01 3.73729E-03-6.88948E-01-5.73268E-14-1.51602E-13
 -1      3501 1.97519E+01 5.44457E-01 7.95158E-04-5.70422E-01-3.56572E-14-2.51097E-13
 -1      3502 1.97786E+01 4.93672E-01-2.63549E-03-5.04467E-01-7.23776E-14-3.07253E-13
 -1      3503 1.95943E+01 6.33713E-01 2.86959E-03-5.56800E-01 9.30930E-15-1.73561E-13
 -1      3504 1.98337E+01 4.47344E-01 7.81806E-04-4.50171E-01-5.32681E-14-1.79992E-13
 -1      3505 1.98516E+01 4.01713E-01-2.11346E-03-3.94934E-01-3.43565E-14-1.69013E-13
 -1      3506 1.97146E+01 5.24517E-01 2.16371E-03-4.43859E-01-5.61520E-14 3.40666E-14
 -1      3507 1.98923E+01 3.60834E-01 7.52046E-04-3.49733E-01-1.83369E-14-9.61022E-14
 -1      3508 1.99037E+01 3.21302E-01-1.68161E-03-3.04209E-01-1.04841E-13-4.38308E-14
 -1      3509 1.98035E+01 4.26042E-01 1.60037E-03-3.48408E-01 3.36586E-14 5.49125E-14
 -1      3510 1.99335E+01 2.86357E-01 6.98357E-04-2.67142E-01-7.11747E-14-1.11226E-14
 -1      3511 1.99403E+01 2.53001E-01-1.32558E-03-2.30232E-01 6.17870E-14 9.48518E-14
 -1      3512 1.98683E+01 3.40369E-01 1.16400E-03-2.68913E-01 1.10280E-14 3.01645E-13
 -1      3513 1.99617E+01 2.23835E-01 6.25551E-04-2.00326E-01 1.62548E-13 5.14377E-14
 -1      3514 1.99654E+01 1.96281E-01-1.03293E-03-1.70882E-01 2.75285E-13 6.57484E-14
 -1      3515 1.99146E+01 2.67776E-01 8.34414E-04-2.03797E-01 1.15752E-13 2.94980E-13
 -1      3516 1.99805E+01 1.72411E-01 5.42320E-04-1.47151E-01 3.70888E-13 9.76498E-15
 -1      3517 1.99822E+01 1.50056E-01-7.94702E-04-1.24039E-01 2.13630E-13 1.92979E-13
 -1      3518 1.99473E+01 2.07560E-01 5.88403E-04-1.51369E-01 3.21188E-13-1.28401E-13
 -1      3519 1.99926E+01 1.30848E-01 4.57017E-04-1.05516E-01-7.59115E-14 2.43197E-13
 -1      3520 1.99930E+01 1.12995E-01-6.03477E-04-8.76626E-02-1.28140E-13 2.04226E-13
 -1      3521 1.99697E+01 1.58520E-01 4.07716E-04-1.09874E-01 1.07084E-13-1.20294E-13
 -1      3522 1.99999E+01 9.77641E-02 3.75764E-04-7.34468E-02-1.36084E-13 2.09493E-13
 -1      3523 1.99995E+01 8.37036E-02-4.52255E-04-5.98865E-02-3.87433E-14 1.51955E-13
 -1      3524 1.99846E+01 1.19215E-01 2.76689E-04-7.75859E-02-1.89431E-13 1.98744E-13
 -1      3525 2.00040E+01 7.17807E-02 3.02279E-04-4.91716E-02 2.24902E-14-1.43589E-13
 -1      3526 2.00031E+01 6.08359E-02-3.34613E-04-3.90609E-02-1.95623E-14-1.28371E-13
 -1      3527 1.99941E+01 8.81539E-02 1.83528E-04-5.29014E-02-1.18368E-13-1.06348E-13
 -1      3528 2.00058E+01 5.15959E-02 2.38035E-04-3.11492E-02-9.10251E-14-2.23510E-13
 -1      3529 2.00047E+01 4.31562E-02-2.39880E-04-2.37789E-02-2.41431E-13-3.29342E-13
 -1      3530 1.99998E+01 6.38983E-02 1.19556E-04-3.43903E-02-1.82029E-13-2.57045E-13
 -1      3531 2.00061E+01 3.59485E-02 1.61658E-04-1.80546E-02-2.06881E-13-2.36632E-13
 -1      3532 2.00051E+01 2.95291E-02-1.26952E-04-1.29201E-02-2.45256E-14-2.44788E-13
 -1      3533 2.00027E+01 4.51371E-02 8.28176E-05-2.07967E-02-1.60606E-13-1.78896E-13
 -1      3534 2.04218E+01-1.91719E-01 3.23360E-03-1.38814E+00 2.68896E-15-1.08328E-13
 -1      3535 2.03088E+01-3.04333E-02 4.41282E-03-1.34818E+00 2.06531E-14-1.13519E-13
 -1      3536 2.29102E+01-2.24001E+00-1.07083E-02-6.29547E-01-1.57112E-13 1.03940E-13
 -1      3537 2.25129E+01-2.01439E+00 2.52094E-02-9.48444E-01-1.60970E-13 5.16952E-14
 -1      3538 2.19519E+01-1.73814E+00-3.54881E-03-1.16089E+00-1.30573E-13-8.42742E-15
 -1      3539 2.16064E+01-1.42823E+00 2.00694E-02-1.33699E+00-1.29393E-13-3.34112E-14
 -1      3540 2.19865E+01-2.09817E+00-1.80372E-02-1.47215E+00-1.72562E-13 4.24071E-14
 -1      3541 2.47933E+01-1.27605E+00-1.45765E-02 1.33567E+00 5.80265E-16 1.71857E-13
 -1      3542 2.45945E+01-1.91556E+00-3.67821E-03 8.88873E-01-9.67863E-14 1.40332E-13
 -1      3543 2.48784E+01 1.11671E+00-1.41009E-02 2.01418E+00 3.59018E-14 2.34470E-13
 -1      3544 1.55767E+01-1.17585E+00 7.25221E-02-4.04258E+00 8.65141E-14 2.32137E-13
 -1      3545 1.79289E+01-2.38499E+00-2.19617E-02-4.33968E+00 2.35565E-13 1.15997E-13
 -1      3546 2.27139E+01-2.05268E+00 2.53319E-02 7.00564E-01-1.59348E-13-1.57312E-13
 -1      3547 2.31212E+01-2.24301E+00-1.31950E-02 3.62350E-01-1.70006E-13-1.79549E-13
 -1      3548 2.17453E+01-1.49550E+00 2.11955E-02 1.14342E+00-9.66935E-14 5.04780E-14
 -1      3549 2.21143E+01-1.80203E+00-4.72064E-03 9.47698E-01-8.08520E-14 2.66438E-14
 -1      3550 2.21586E+01-2.19285E+00-2.60906E-02 1.27284E+00-2.22981E-13-1.79157E-13
 -1      3551 2.10258E+01-9.05867E-01 1.40098E-02 1.30891E+00-1.57138E-13-1.32807E-13
 -1      3552 2.13145E+01-1.19890E+00 5.57450E-05 1.22443E+00-4.88555E-14 2.56643E-14
 -1      3553 2.11926E+01-1.47957E+00-1.85891E-02 1.52221E+00-3.86939E-14-1.82065E-13
 -1      3554 2.05452E+01-4.16699E-01 8.42859E-03 1.30490E+00-1.28988E-13 4.02305E-14
 -1      3555 2.07508E+01-6.47246E-01 2.52994E-03 1.29455E+00-1.99830E-13-6.30030E-14
 -1      3556 2.05383E+01-8.22220E-01-1.50091E-02 1.52936E+00-2.06846E-13-7.34718E-14
 -1      3557 2.02502E+01-6.57190E-02 4.34939E-03 1.21193E+00-1.35428E-13 6.83167E-14
 -1      3558 2.03874E+01-2.25709E-01 3.15377E-03 1.24439E+00-1.43609E-13 5.82311E-14
 -1      3559 2.01442E+01-3.14819E-01-1.03801E-02 1.41700E+00-1.42230E-13-1.88781E-15
 -1      3560 2.00836E+01 1.59325E-01 1.72604E-03 1.07741E+00 2.34247E-13-1.49267E-13
 -1      3561 2.01711E+01 6.06901E-02 3.10085E-03 1.13240E+00 1.23419E-13-1.81349E-14
 -1      3562 1.99319E+01 3.44868E-02-6.16398E-03 1.25426E+00 5.57279E-14-1.18047E-13
 -1      3563 1.99989E+01 2.85195E-01 1.64081E-04 9.28797E-01 2.14730E-13-2.12775E-13
 -1      3564 2.00529E+01 2.33192E-01 2.71219E-03 9.93595E-01 2.41100E-13-1.22023E-13
 -1      3565 1.98352E+01 2.48423E-01-3.32130E-03 1.07857E+00 2.32742E-13-1.23338E-13
 -1      3566 1.99629E+01 3.40062E-01-7.00946E-04 7.81392E-01-6.67364E-14-2.72250E-13
 -1      3567 1.99958E+01 3.20563E-01 2.29188E-03 8.48101E-01 6.39210E-14-2.28809E-13
 -1      3568 1.98071E+01 3.60614E-01-1.55208E-03 9.07920E-01 1.61916E-13-1.35171E-13
 -1      3569 1.99538E+01 3.47928E-01-1.12240E-03 6.43586E-01 4.65253E-14-1.21329E-13
 -1      3570 1.99740E+01 3.49417E-01 1.93281E-03 7.07416E-01-9.33546E-14-2.38518E-13
 -1      3571 1.98160E+01 4.02202E-01-5.31173E-04 7.50620E-01-4.33573E-14-2.64972E-13
 -1      3572 1.99579E+01 3.27211E-01-1.26668E-03 5.19815E-01 5.60436E-14-6.82240E-14
 -1      3573 1.99708E+01 3.41056E-01 1.64687E-03 5.77982E-01 1.39637E-13-8.58248E-14
 -1      3574 1.98422E+01 3.98250E-01 2.29515E-05 6.10232E-01 3.54634E-14-2.47169E-13
 -1      3575 1.99675E+01 2.91217E-01-1.24825E-03 4.12054E-01-7.08732E-14 1.16341E-14
 -1      3576 1.99761E+01 3.11290E-01 1.41019E-03 4.63158E-01 2.32196E-14 6.54672E-16
 -1      3577 1.98742E+01 3.67402E-01 2.83160E-04 4.88031E-01-7.27315E-15 1.52584E-14
 -1      3578 1.99781E+01 2.49010E-01-1.14082E-03 3.20603E-01-2.66386E-14-8.61549E-14
 -1      3579 1.99843E+01 2.71217E-01 1.20381E-03 3.64211E-01-3.70647E-14-9.38469E-15
 -1      3580 1.99054E+01 3.22942E-01 3.71553E-04 3.83929E-01-7.02421E-14 8.91732E-14
 -1      3581 1.99875E+01 2.06326E-01-9.92318E-04 2.44692E-01-1.38574E-13-9.49907E-16
 -1      3582 1.99924E+01 2.28136E-01 1.02088E-03 2.80993E-01-1.24396E-13-6.67639E-14
 -1      3583 1.99327E+01 2.73755E-01 3.64688E-04 2.96923E-01-3.54698E-14 7.87050E-14
 -1      3584 1.99950E+01 1.66511E-01-8.30662E-04 1.82948E-01-5.68659E-14 8.21161E-14
 -1      3585 1.99990E+01 1.86489E-01 8.57271E-04 2.12505E-01-8.07194E-14-1.18448E-14
 -1      3586 1.99550E+01 2.25389E-01 3.18394E-04 2.25496E-01-1.39527E-13 4.42428E-14
 -1      3587 2.00004E+01 1.31292E-01-6.74339E-04 1.33679E-01-1.12837E-13 1.96604E-13
 -1      3588 2.00038E+01 1.48742E-01 7.10022E-04 1.57259E-01-6.98552E-14 2.36878E-13
 -1      3589 1.99722E+01 1.80994E-01 2.56767E-04 1.67877E-01-1.50927E-13-7.80855E-14
 -1      3590 2.00039E+01 1.01316E-01-5.33168E-04 9.50773E-02-6.01550E-14-4.64330E-14
 -1      3591 2.00069E+01 1.16027E-01 5.79047E-04 1.13531E-01-5.21699E-14 4.42723E-14
 -1      3592 1.99848E+01 1.42130E-01 1.94911E-04 1.22187E-01-3.79508E-14 4.64534E-14
 -1      3593 2.00059E+01 7.65498E-02-4.12281E-04 6.53786E-02 3.18358E-14 1.35056E-13
 -1      3594 2.00084E+01 8.86134E-02 4.64664E-04 7.95467E-02-3.78165E-14 1.03638E-14
 -1      3595 1.99935E+01 1.09288E-01 1.39914E-04 8.65633E-02-6.52683E-14 8.27327E-14
 -1      3596 2.00066E+01 5.65601E-02-3.12615E-04 4.29626E-02-1.14234E-13 2.39352E-13
 -1      3597 2.00088E+01 6.62390E-02 3.66852E-04 5.36233E-02-1.51305E-14 1.03293E-13
 -1      3598 1.99992E+01 8.22864E-02 9.44560E-05 5.92638E-02-3.13007E-14 1.79579E-13
 -1      3599 2.00065E+01 4.07125E-02-2.27566E-04 2.64054E-02-9.61696E-14 3.40805E-13
 -1      3600 2.00084E+01 4.83524E-02 2.85293E-04 3.42424E-02-4.90962E-14 4.02847E-13
 -1      3601 2.00025E+01 6.05672E-02 6.08117E-05 3.87334E-02-1.78616E-13 3.53499E-13
 -1      3602 2.00059E+01 2.83921E-02-1.12007E-04 1.45455E-02-1.00410E-13 2.11396E-13
 -1      3603 2.00074E+01 3.42443E-02 2.20013E-04 2.00801E-02-3.59990E-14 3.42032E-13
 -1      3604 2.00041E+01 4.33677E-02 2.42623E-05 2.36387E-02-3.92868E-14 6.23233E-13
 -1      3605 2.43015E+01 2.60617E+00-1.06465E-01-1.78341E+00 3.38507E-13-1.95831E-13
 -1      3606 1.25274E+01 2.32284E-01 6.32552E-02-2.36514E+00-7.78501E-14-4.55018E-13
 -1      3607 1.39062E+01-6.08957E-01-4.98424E-03-3.63971E+00-1.72857E-13-3.42823E-13
 -1      3608 2.48279E+01 1.51945E+00 2.33871E-03-2.08579E+00 2.11751E-13-3.77604E-13
 -1      3609 2.00027E+01 2.51473E-02 2.96015E-05-6.08224E-03 3.36957E-14-4.51549E-13
 -1      3610 2.00014E+01 2.70676E-02-1.40871E-04-5.86207E-03-8.00374E-14-4.26270E-13
 -1      3611 1.99768E+01-2.98619E+00 9.98922E-02-4.10030E+00 2.84675E-13 2.41925E-14
 -1      3612 2.56637E+01-2.69096E+00 2.53124E-02 2.10700E-01-8.08433E-14 2.18926E-13
 -1      3613 2.57857E+01-1.65780E+00-6.54132E-02 1.16420E+00-5.94524E-14 2.26924E-13
 -1      3614 2.27202E+01-3.63957E+00-7.79123E-02 2.38794E+00-2.00725E-13-2.07532E-13
 -1      3615 2.10258E+01-3.13030E+00 5.07344E-02 3.39414E+00-3.20236E-13-1.85903E-13
 -1      3616 2.02016E+01 6.63104E-01-2.85133E-04-6.62692E-01 1.09993E-13-1.46212E-13
 -1      3617 2.02147E+01 7.64811E-01 2.11902E-03-5.27077E-01 1.42460E-13-1.53247E-13
 -1      3618 1.58408E+01-1.41822E+00 8.16808E-02-4.27352E+00-2.12040E-13-2.94816E-13
 -1      3619 1.77362E+01-2.53397E+00-6.45171E-02-4.50899E+00-2.25086E-13-2.36339E-13
 -1      3620 1.27402E+01 1.47788E-01 4.36874E-02-2.58460E+00 2.40415E-14 5.10883E-13
 -1      3621 1.37817E+01-4.71415E-01 1.61601E-02-3.48094E+00 6.38586E-14 3.32449E-13
 -1      3622 1.96275E+01 2.69294E+00-4.23176E-03-9.84830E-02 7.00482E-14-3.86453E-13
 -1      3623 1.96615E+01 2.65493E+00-2.89468E-03-1.67253E-01 3.84528E-14-4.03574E-13
 -1      3624 1.97186E+01 2.48376E+00 3.68162E-03-1.42730E-01 2.18385E-14-3.79715E-13
 -1      3625 1.96840E+01 2.46433E+00 5.31437E-03-6.20380E-02 7.31314E-14-3.61340E-13
 -1      3626 1.27744E+01-3.10516E-01 1.24389E-02 3.36270E+00-4.73441E-14 6.56489E-14
 -1      3627 1.15790E+01 3.41398E-01 7.51498E-02 2.23785E+00-6.96075E-14 8.94770E-14
 -1      3628 2.01009E+01 1.48011E+00-2.49111E-03 4.90941E-02-9.68614E-14-3.48825E-13
 -1      3629 2.39529E+01-2.25597E+00-1.78308E-02 2.56149E-01-8.31306E-14 8.64998E-14
 -1      3630 2.35898E+01-2.33588E+00 1.66511E-02-1.92057E-01-7.82143E-14 1.08553E-13
 -1      3631 2.32028E+01-2.64158E+00-9.24208E-03-8.99357E-01-1.49555E-13 7.66019E-14
 -1      3632 2.45447E+01-2.54072E+00-1.96809E-02 1.62123E-01-8.94701E-14 1.66850E-13
 -1      3633 2.01908E+01-3.12004E+00 7.90182E-02-4.01075E+00-2.62910E-13-1.75459E-13
 -1      3634 2.20221E+01-3.86822E+00-6.94827E-02-3.29473E+00-2.87697E-13-9.08457E-14
 -1      3635 2.38505E+01-3.83303E+00 5.06550E-02-2.10964E+00-2.53784E-13 4.08788E-15
 -1      3636 2.49879E+01-3.63647E+00-7.68975E-02-9.30750E-01-1.31811E-13 1.62903E-13
 -1      3637 2.47764E+01-2.75000E+00-6.03991E-02-1.01020E-01-2.50459E-14-5.30071E-13
 -1      3638 2.42003E+01-3.23082E+00 6.87983E-02 1.05229E+00-1.33207E-13-4.14637E-13
 -1      3639 2.00672E+01 1.23045E+00 7.07995E-04 2.84097E-01-7.92288E-14-3.20576E-13
 -1      3640 2.00169E+01 1.12516E+00-2.02129E-03 4.56601E-01-7.99674E-14-3.07002E-13
 -1      3641 1.98838E+01 1.21264E+00 9.01490E-04 4.63686E-01-5.82126E-14-3.09335E-13
 -1      3642 2.48396E+01 1.76866E-01-9.95918E-02-2.11988E+00 1.88590E-13-3.95754E-13
 -1      3643 1.90641E+01-2.15949E+00 5.48964E-02-3.81052E+00 1.12896E-13 9.81003E-14
 -1      3644 2.51338E+01-1.13017E+00-2.70547E-03-1.43321E+00 8.54108E-14-5.06094E-13
 -1      3645 2.48992E+01-1.92493E+00-8.12981E-03-1.00269E+00-3.63615E-14-4.26402E-13
 -1      3646 2.41452E+01-2.12845E+00-1.30474E-02-5.23407E-01-2.15082E-14-3.14282E-13
 -1      3647 1.24564E+01 7.20683E-01 1.70096E-02-7.27497E-01 4.86460E-14-4.95305E-13
 -1      3648 1.23910E+01 5.54955E-01 7.02925E-02-1.67707E+00-1.55518E-14-5.13693E-13
 -1      3649 1.38542E+01 4.46625E-01 2.73098E-02-1.98151E+00-7.61231E-14-3.43617E-13
 -1      3650 1.93769E+01-2.39629E+00 4.73058E-02-3.73279E+00-1.92214E-13-2.32152E-13
 -1      3651 1.93262E+01-1.99009E+00 9.79864E-02 3.84955E+00 2.38908E-13-2.51622E-14
 -1      3652 1.98661E+01 2.16700E+00-4.41207E-03-1.89972E-01-7.51627E-14-3.45052E-13
 -1      3653 1.99315E+01 1.99959E+00 7.34119E-03-1.13604E-01-7.29072E-14-3.33313E-13
 -1      3654 1.97884E+01 2.28551E+00-1.60920E-03-1.50269E-01-1.14527E-14-3.45829E-13
 -1      3655 1.97189E+01 2.15980E+00-2.98456E-03-1.80369E-02 9.94994E-14-3.44230E-13
 -1      3656 1.96890E+01 2.19538E+00-3.55370E-03-4.38924E-02 8.91797E-14-3.58914E-13
 -1      3657 1.84836E+01-1.33394E+00 3.20972E-02-3.50313E+00 1.24467E-13 9.68323E-14
 -1      3658 1.70469E+01-7.65267E-01-1.53933E-02-3.40339E+00-1.57964E-14 2.47653E-13
 -1      3659 1.42536E+01-6.91853E-01 9.81132E-02 3.90599E+00-5.79484E-14 1.91964E-14
 -1      3660 1.40793E+01-1.81944E-01 3.66376E-02 3.15779E+00 1.01291E-14 2.61909E-14
 -1      3661 1.99555E+01 2.05908E+00 6.30601E-03 1.53561E-01 2.08929E-13-2.99519E-13
 -1      3662 2.00650E+01 8.26230E-02-6.07081E-03-1.36375E+00 5.27071E-15-1.73207E-13
 -1      3663 2.02594E+01 1.03681E-01 2.84548E-03-1.26229E+00 2.44114E-14-1.55368E-13
 -1      3664 2.01967E+01 2.18634E-01 2.55187E-03-1.19423E+00 2.24777E-15-1.62862E-13
 -1      3665 2.05442E+01-3.78777E-01 7.80493E-03-1.45266E+00-1.74968E-14-7.67445E-14
 -1      3666 2.02132E+01-2.72379E-01-1.00830E-02-1.53658E+00-1.47514E-14-1.53788E-13
 -1      3667 2.07249E+01-6.01725E-01 2.74174E-03-1.44982E+00-9.35612E-15-5.90446E-14
 -1      3668 2.00058E+01 2.46690E-02 1.19213E-04-9.79392E-03 1.20787E-13-1.84684E-13
 -1      3669 2.00050E+01 2.00318E-02-4.41103E-05-6.53282E-03 3.41360E-13-1.84518E-13
 -1      3670 2.00044E+01 2.12103E-02-4.93111E-05-6.48399E-03 1.41731E-13-5.34671E-13
 -1      3671 2.00041E+01 3.13789E-02 3.77217E-05-1.21528E-02 4.42479E-14-2.06444E-13
 -1      3672 2.28748E+01-3.39248E+00 2.60692E-02-2.26474E+00-2.22985E-13-9.57116E-14
 -1      3673 1.18675E+01 4.26178E-01 1.14627E-01 1.87766E+00 2.38615E-13-4.01193E-13
 -1      3674 1.22925E+01 6.75495E-01 3.80759E-02 9.92543E-01 1.76642E-13-4.55420E-13
 -1      3675 1.33383E+01 1.39691E-01 2.74622E-02 2.52678E+00 2.28135E-13-3.41803E-13
 -1      3676 2.01982E+01 1.43515E+00-2.74957E-03 8.12622E-02 2.30685E-13-2.03480E-13
 -1      3677 2.01020E+01 1.61553E+00-1.67561E-03 6.12440E-02 2.06451E-13-2.48959E-13
 -1      3678 2.10961E+01-1.40384E+00-2.16277E-02-1.67274E+00-7.15004E-14-7.36191E-14
 -1      3679 2.12202E+01-1.13505E+00 2.53390E-04-1.40038E+00-6.64834E-14-2.38475E-14
 -1      3680 2.09577E+01-8.49679E-01 1.29654E-02-1.47132E+00 1.00837E-14-2.65643E-14
 -1      3681 2.53723E+01-6.59735E-01-1.47643E-02 1.73060E+00 5.21458E-15 2.18625E-13
 -1      3682 2.01775E+01 5.74266E-01 1.67385E-03-7.86117E-01 8.70463E-14-1.55622E-13
 -1      3683 2.00943E+01 7.25934E-01-8.38523E-04-7.10862E-01 1.10439E-13-1.99779E-13
 -1      3684 2.01803E+01 4.89710E-01 9.43504E-04-8.96915E-01 7.09658E-14-1.34950E-13
 -1      3685 2.48507E+01-6.49509E-02-7.34072E-02 1.92261E+00 1.41363E-14 2.49018E-13
 -1      3686 1.57528E+01-6.04070E-01 7.58157E-02-3.45335E+00 1.50227E-14 3.19810E-13
 -1      3687 2.33862E+01-2.73099E+00-4.58989E-02 6.76804E-01-1.30654E-13-4.35640E-13
 -1      3688 2.38065E+01-2.27471E+00 2.95569E-02-7.27768E-02-5.28317E-14-1.93544E-13
 -1      3689 2.00003E+01 3.46023E-02 1.00604E-04-7.18167E-03-1.64299E-13-1.95183E-13
 -1      3690 2.00001E+01 2.97946E-02-2.60486E-07-4.86175E-03-7.15952E-14-5.95607E-14
 -1      3691 1.99991E+01 3.10421E-02-1.25762E-04-3.97818E-03-1.26349E-13 2.50095E-13
 -1      3692 2.00058E+01 2.51513E-02 1.43117E-04 1.11047E-02-1.43239E-13 2.41703E-13
 -1      3693 2.00040E+01 3.16977E-02-8.78598E-05 1.37548E-02-1.25002E-13 4.22358E-13
 -1      3694 2.00048E+01 2.20190E-02 1.32111E-05 8.05042E-03-3.24788E-13 4.37862E-13
 -1      3695 2.31594E+01-2.99283E+00 1.82827E-02 1.44306E+00-7.91780E-14-3.01230E-13
 -1      3696 2.00047E+01 1.49075E-02-1.04331E-04 4.35854E-03-2.32038E-13 5.04235E-13
 -1      3697 1.56165E+01-6.95975E-01 4.99399E-02-3.47640E+00-1.41059E-13-3.30146E-13
 -1      3698 1.99979E+01 3.29492E-02-8.87658E-05 6.71899E-04 1.00736E-13-2.68089E-13
 -1      3699 1.99982E+01 3.25311E-02-4.78275E-05 1.88629E-03 1.81778E-13-3.49497E-13
 -1      3700 2.00038E+01 2.21183E-02-7.82683E-05-6.30605E-03 8.12096E-14-5.84575E-13
 -1      3701 2.03041E+01 2.70404E-01-3.62317E-03-1.04317E+00 2.70087E-14-9.83140E-14
 -1      3702 2.48333E+01-2.89429E+00-1.19521E-02-1.69756E-01-1.10226E-13 1.15219E-13
 -1      3703 2.03078E+01 1.12082E+00-1.37552E-03 9.20883E-03 2.20863E-13-1.56017E-13
 -1      3704 2.02497E+01 1.32174E+00 7.32204E-04 5.82012E-02 2.27423E-13-1.73264E-13
 -1      3705 2.02150E+01 1.22950E+00 3.13234E-03-1.07660E-01 2.13245E-13-1.88190E-13
 -1      3706 2.02928E+01 9.93133E-01-3.59828E-04-1.61655E-01 2.04865E-13-1.60459E-13
 -1      3707 2.06713E+01-2.49239E+00 4.60138E-02 2.99272E+00-2.47276E-13-1.60724E-13
 -1      3708 1.95065E+01-2.63514E+00 2.57423E-03 3.84699E+00-2.73592E-13-1.19507E-13
 -1      3709 1.78547E+01-1.38794E+00-3.17461E-03 3.72558E+00 2.01183E-13-1.04375E-13
 -1      3710 1.72898E+01-1.76669E+00 3.92601E-02 4.14004E+00 2.87957E-13-1.68272E-13
 -1      3711 1.54060E+01-1.35151E+00 1.08922E-01 4.32574E+00 2.75287E-13-2.69874E-13
 -1      3712 1.65293E+01-6.10666E-01 5.09007E-02 3.51319E+00 2.22738E-13-2.78689E-13
 -1      3713 1.57229E+01-1.44786E+00 1.74208E-02 4.27343E+00-2.30409E-13-5.26350E-14
 -1      3714 1.97680E+01 2.09460E+00-3.90259E-03-1.68005E-02 1.18540E-13-3.16148E-13
 -1      3715 1.97706E+01 1.93843E+00 6.29283E-03-7.30698E-02 9.50543E-14-3.09335E-13
 -1      3716 1.98338E+01 2.00912E+00-3.26631E-03 1.32635E-02 1.33243E-13-2.93106E-13
 -1      3717 1.99980E+01 3.29397E-02-9.09593E-05-1.17238E-03-9.53159E-15-2.30438E-13
 -1      3718 1.99970E+01 4.00971E-02 1.94878E-04-2.55771E-04-2.88423E-14-3.22549E-13
 -1      3719 1.99984E+01 3.24848E-02-4.28422E-05-2.36759E-03-5.21447E-14 2.34063E-14
 -1      3720 2.00030E+01 2.90395E-02 3.47393E-05-8.69521E-03 6.41537E-14-4.00772E-13
 -1      3721 1.46316E+01-6.96128E-01 7.02839E-03 3.65028E+00 2.46830E-13-3.29896E-13
 -1      3722 2.01460E+01 9.56651E-01 5.01367E-04-4.40223E-01 1.57471E-13-2.06823E-13
 -1      3723 2.02325E+01 8.83330E-01-1.22897E-03-3.82073E-01 1.71532E-13-1.61473E-13
 -1      3724 1.16927E+01 6.91467E-01 6.95506E-02 1.30661E+00-1.10126E-13 2.70534E-13
 -1      3725 1.21234E+01 8.80522E-01 2.40007E-02 1.63101E-01-9.06579E-14 3.78524E-13
 -1      3726 1.28819E+01 6.60612E-01 2.07917E-02 1.57945E+00-7.29456E-14 2.08406E-13
 -1      3727 1.22633E+01 7.94966E-01 2.87435E-02-9.75141E-01-1.53215E-13 4.56954E-13
 -1      3728 1.24359E+01 5.30116E-01 6.71523E-02-1.90603E+00-8.73294E-14 4.46261E-13
 -1      3729 1.37632E+01 4.76161E-01 5.79405E-02-2.14967E+00-1.78052E-13 4.46660E-13
 -1      3730 2.02535E+01 9.88018E-01 1.09167E-03-2.39016E-01 1.97237E-13-1.71183E-13
 -1      3731 1.99924E+01 1.55018E+00-2.16779E-03 1.02379E-01-7.26462E-14-3.28693E-13
 -1      3732 1.85184E+01-2.35423E+00 1.78416E-02 4.03120E+00-2.34444E-13-5.87863E-14
 -1      3733 1.70288E+01-1.78725E+00 7.88543E-02 4.31745E+00-2.88760E-13-2.20327E-14
 -1      3734 1.62807E+01-1.08745E+00-4.37961E-03 3.75376E+00-1.13888E-13-1.07111E-13
 -1      3735 1.83410E+01-1.73266E+00 8.58874E-03 3.61175E+00-2.38084E-13-1.01646E-13
 -1      3736 2.00009E+01 2.72283E-02-1.32274E-04 5.56494E-03 2.56322E-13-6.10305E-14
 -1      3737 2.00021E+01 2.52251E-02-3.04591E-06 5.89533E-03 9.76616E-14 6.70921E-14
 -1      3738 2.00027E+01 3.02041E-02 1.39320E-04 9.24831E-03-3.96642E-14 3.19691E-13
 -1      3739 2.00032E+01 2.31522E-02-1.08436E-04 6.74012E-03-2.25523E-13 1.03532E-13
 -1      3740 1.99998E+01 2.98525E-02-6.89045E-06 4.46971E-03 3.60180E-13-2.73748E-13
 -1      3741 1.99998E+01 3.47817E-02 1.33162E-04 6.95631E-03 3.41397E-13-2.33939E-14
 -1      3742 1.99988E+01 3.11171E-02-1.20561E-04 3.56081E-03 2.87962E-13-2.45729E-13
 -1      3743 1.93585E+01 1.11824E+00-4.08768E-03 7.48590E-01-8.80535E-15-2.37571E-13
 -1      3744 1.92148E+01 1.10308E+00-1.38078E-03 8.54877E-01-1.61870E-14-2.09240E-13
 -1      3745 1.89981E+01 1.09107E+00-5.64835E-03 9.37023E-01-1.11131E-15-2.04727E-13
 -1      3746 1.88189E+01 1.08600E+00-1.14671E-03 1.04317E+00 2.05078E-14-2.30890E-13
 -1      3747 1.89643E+01 1.19096E+00 7.21441E-03 7.31047E-01-8.95963E-15-2.41219E-13
 -1      3748 1.85397E+01 1.07356E+00-8.29659E-03 1.13339E+00 9.06892E-15-2.28262E-13
 -1      3749 1.83265E+01 1.05769E+00 2.61034E-04 1.25364E+00 2.02621E-14-2.34154E-13
 -1      3750 1.84841E+01 1.18376E+00 9.80070E-03 8.81580E-01-1.37715E-15-2.32576E-13
 -1      3751 1.79663E+01 1.01758E+00-1.26559E-02 1.36807E+00 5.18138E-14-2.41669E-13
 -1      3752 1.77231E+01 9.64347E-01 3.06933E-03 1.52421E+00 5.48682E-14-2.53488E-13
 -1      3753 1.78714E+01 1.16679E+00 1.35369E-02 1.05494E+00 2.28926E-14-2.43893E-13
 -1      3754 1.72537E+01 8.62360E-01-1.91820E-02 1.69321E+00 8.64729E-14-2.37409E-13
 -1      3755 1.69941E+01 7.26825E-01 7.34237E-03 1.92151E+00 1.35948E-13-2.42610E-13
 -1      3756 1.70903E+01 1.10071E+00 2.25190E-02 1.29715E+00 8.12170E-14-2.62211E-13
 -1      3757 1.63723E+01 5.39608E-01-1.95191E-02 2.19296E+00 1.59997E-13-2.93780E-13
 -1      3758 1.61107E+01 2.42303E-01 2.07742E-02 2.57712E+00 2.03217E-13-3.06825E-13
 -1      3759 1.60376E+01 8.75863E-01 1.23996E-02 1.70142E+00 1.24978E-13-2.73773E-13
 -1      3760 1.62284E+01 4.50370E-01 2.71768E-02-2.30672E+00-1.33132E-13 1.44017E-13
 -1      3761 1.64425E+01 6.99078E-01-1.56504E-02-1.97920E+00-1.07482E-13 1.16893E-13
 -1      3762 1.55659E+01 8.45923E-03 1.87266E-02-2.89075E+00-3.06326E-14 3.01710E-13
 -1      3763 1.49595E+01-1.56961E-01-8.31857E-03 3.00143E+00-4.15831E-14-5.89025E-14
 -1      3764 1.39835E+01 4.15022E-01 7.44663E-02 2.47224E+00-2.42063E-14 9.28476E-14
 -1      3765 2.00051E+01 1.76271E+00-3.56235E-03 5.06894E-02 1.91690E-13-2.86100E-13
 -1      3766 1.99152E+01 1.89909E+00-2.95839E-03 1.98058E-02 1.58021E-13-2.79436E-13
 -1      3767 1.99018E+01 1.76428E+00 5.77019E-03-8.11844E-02 1.25134E-13-2.69115E-13
 -1      3768 2.00788E+01 1.50035E+00 4.70046E-03-8.26742E-02 1.80584E-13-2.42100E-13
 -1      3769 1.69979E+01 8.65964E-01 7.44205E-03-1.72521E+00-2.28168E-14 1.18401E-13
 -1      3770 1.72386E+01 9.71839E-01-1.76153E-02-1.51005E+00-5.03807E-14 8.70347E-14
 -1      3771 1.61198E+01 1.02485E+00 2.53191E-02-1.50213E+00-8.06592E-14 1.67511E-13
 -1      3772 1.76624E+01 1.04676E+00 2.35866E-03-1.35172E+00-9.25891E-14 7.21886E-14
 -1      3773 1.78804E+01 1.07421E+00-1.22079E-02-1.20450E+00-8.96938E-14 5.03428E-14
 -1      3774 1.70448E+01 1.17927E+00 1.73757E-02-1.14575E+00-8.55944E-14-3.25141E-14
 -1      3775 1.82024E+01 1.08333E+00 7.65282E-05-1.09765E+00-2.69324E-14-6.18551E-16
 -1      3776 1.83879E+01 1.06408E+00-8.50649E-03-9.88243E-01 6.21752E-14 3.34138E-14
 -1      3777 1.77515E+01 1.19778E+00 1.25722E-02-9.22901E-01-6.91034E-14 5.32775E-14
 -1      3778 1.86347E+01 1.03486E+00-7.35293E-04-9.08572E-01-5.77545E-14-5.60736E-14
 -1      3779 1.87856E+01 9.89662E-01-6.13130E-03-8.20577E-01-1.45893E-13-1.22058E-13
 -1      3780 1.82939E+01 1.14021E+00 9.36441E-03-7.68060E-01-3.43823E-14-1.96454E-14
 -1      3781 1.89760E+01 9.40105E-01-8.48746E-04-7.55669E-01-1.80347E-13-1.75361E-13
 -1      3782 1.90950E+01 8.82374E-01-4.63375E-03-6.81065E-01-1.16916E-13-2.36957E-13
 -1      3783 1.87132E+01 1.03909E+00 7.14009E-03-6.46958E-01-1.95660E-13-2.59525E-13
 -1      3784 1.92421E+01 8.24190E-01-6.94238E-04-6.25310E-01-6.55710E-14-2.97333E-13
 -1      3785 1.93336E+01 7.62562E-01-3.64693E-03-5.60544E-01-1.10617E-14-2.35664E-13
 -1      3786 1.90376E+01 9.16475E-01 5.45218E-03-5.43824E-01-8.32605E-14-1.82970E-13
 -1      3787 1.94470E+01 7.02968E-01-4.46173E-04-5.11743E-01-2.02543E-15-1.97492E-13
 -1      3788 1.95161E+01 6.42817E-01-2.91743E-03-4.55479E-01-2.62259E-14-2.08569E-13
 -1      3789 1.92881E+01 7.87395E-01 4.18603E-03-4.52280E-01 3.99202E-14-2.25791E-13
 -1      3790 1.96028E+01 5.86284E-01-2.06453E-04-4.12941E-01 2.04523E-14-1.64676E-13
 -1      3791 1.96540E+01 5.30853E-01-2.33618E-03-3.64547E-01 1.08957E-13-1.02632E-13
 -1      3792 1.94800E+01 6.61558E-01 3.20443E-03-3.70651E-01 5.07564E-14-3.55067E-13
 -1      3793 1.97198E+01 4.79795E-01-1.93967E-05-3.27909E-01 1.47657E-13-1.29030E-13
 -1      3794 1.97570E+01 4.30671E-01-1.87738E-03-2.86898E-01 2.70934E-14-3.82884E-14
 -1      3795 1.96259E+01 5.45340E-01 2.44816E-03-2.98649E-01 1.25925E-13-2.33414E-13
 -1      3796 1.98065E+01 3.86085E-01 1.05888E-04-2.55863E-01-1.35719E-14 9.54616E-14
 -1      3797 1.98332E+01 3.43765E-01-1.50651E-03-2.21718E-01 4.24871E-14 6.03834E-14
 -1      3798 1.97356E+01 4.41910E-01 1.84329E-03-2.36198E-01 9.48345E-14-2.12379E-13
 -1      3799 1.98700E+01 3.05824E-01 1.77299E-04-1.95952E-01 1.50201E-13 1.50613E-13
 -1      3800 1.98886E+01 2.70198E-01-1.19677E-03-1.68046E-01 1.58236E-13 1.53076E-13
 -1      3801 1.98172E+01 3.52427E-01 1.38270E-03-1.83168E-01 1.59653E-13-1.33047E-13
 -1      3802 1.99156E+01 2.38607E-01 2.07512E-04-1.47085E-01 9.79736E-14 1.44925E-13
 -1      3803 1.99284E+01 2.09213E-01-9.38608E-04-1.24685E-01 2.40573E-13-1.26783E-13
 -1      3804 1.98770E+01 2.76759E-01 1.02458E-03-1.39154E-01 9.85005E-14 6.16939E-14
 -1      3805 1.99477E+01 1.83395E-01 2.11297E-04-1.07954E-01 2.87359E-13-4.04201E-13
 -1      3806 1.99562E+01 1.59565E-01-7.26308E-04-9.02896E-02 1.40171E-14-3.09773E-13
 -1      3807 1.99202E+01 2.14078E-01 7.50550E-04-1.03378E-01 5.93255E-14-3.61377E-13
 -1      3808 1.99699E+01 1.38808E-01 1.98360E-04-7.71842E-02-7.17249E-14-1.82883E-13
 -1      3809 1.99753E+01 1.19784E-01-5.54552E-04-6.34977E-02-1.12830E-13-1.35284E-13
 -1      3810 1.99506E+01 1.63075E-01 5.43527E-04-7.48753E-02 2.64402E-14-4.71823E-13
 -1      3811 1.99846E+01 1.03334E-01 1.77191E-04-5.34272E-02-3.02779E-13-6.56443E-14
 -1      3812 1.99878E+01 8.83495E-02-4.18084E-04-4.30202E-02-2.57974E-13-2.77229E-13
 -1      3813 1.99715E+01 1.22213E-01 3.86525E-04-5.26067E-02-1.99292E-13-4.15152E-13
 -1      3814 1.99939E+01 7.54698E-02 1.53631E-04-3.54351E-02-1.51100E-13-2.04521E-13
 -1      3815 1.99956E+01 6.37915E-02-3.07740E-04-2.76883E-02-1.38940E-13-1.93137E-13
 -1      3816 1.99854E+01 8.99064E-02 2.62881E-04-3.55475E-02-1.52367E-13-2.93984E-13
 -1      3817 1.99994E+01 5.37910E-02 1.24862E-04-2.21214E-02-1.84896E-13-1.25109E-13
 -1      3818 2.00002E+01 4.48022E-02-1.55544E-04-1.64293E-02-1.26669E-13-1.41181E-13
 -1      3819 1.99940E+01 6.46537E-02 1.66887E-04-2.28091E-02-7.72282E-14-2.09876E-13
 -1      3820 2.00025E+01 3.43312E-02-3.72286E-05-1.17241E-02-9.72016E-14-2.38791E-13
 -1      3821 2.12680E+01-2.57535E+00-4.20032E-02 2.47820E+00-2.34481E-13-2.33278E-13
 -1      3822 2.01527E+01-1.98999E+00 1.91826E-02 2.83960E+00-1.72779E-13-2.42951E-13
 -1      3823 2.00197E+01-5.57100E-01 6.64389E-03 1.70520E+00-2.10462E-13-1.51954E-13
 -1      3824 2.02864E+01-8.58299E-01 1.06985E-02 1.76153E+00-2.13711E-13-1.47392E-13
 -1      3825 2.24822E+01-2.72193E+00 3.98252E-02 1.76886E+00-2.10889E-13-3.00270E-13
 -1      3826 2.13409E+01-1.88414E+00 2.63745E-02 1.87383E+00-1.70769E-13-2.43449E-13
 -1      3827 2.19311E+01-2.25991E+00 2.49859E-02 1.69586E+00-2.71570E-13-3.66800E-13
 -1      3828 1.97317E+01-8.64045E-02 2.99157E-03 1.47621E+00-1.49755E-13-1.11871E-13
 -1      3829 1.98862E+01-2.96024E-01 8.18698E-03 1.56250E+00-1.55945E-13-1.42190E-13
 -1      3830 1.95124E+01-3.59465E-01-1.20293E-02 1.78152E+00-1.80954E-13-3.42569E-13
 -1      3831 1.96105E+01 2.12165E-01 2.70530E-04 1.24712E+00 1.94525E-13-2.29634E-13
 -1      3832 1.96907E+01 8.26514E-02 6.14762E-03 1.34030E+00 2.42718E-14-8.49523E-14
 -1      3833 1.93625E+01 7.76236E-02-6.49262E-03 1.47516E+00-3.72821E-14-2.24975E-13
 -1      3834 1.95875E+01 3.81073E-01-1.09590E-03 1.03654E+00 1.97714E-13-1.04091E-13
 -1      3835 1.96215E+01 3.11845E-01 4.51406E-03 1.12665E+00 1.80464E-13-1.63393E-13
 -1      3836 1.93428E+01 3.43509E-01-2.91397E-03 1.20551E+00 1.08912E-13-1.68029E-13
 -1      3837 1.96170E+01 4.57382E-01-1.72546E-03 8.50549E-01 9.80670E-14 2.44542E-14
 -1      3838 1.96245E+01 4.30095E-01 3.21718E-03 9.33340E-01 2.11511E-13-7.69968E-15
 -1      3839 1.93932E+01 4.82466E-01-8.80247E-04 9.76859E-01 1.23945E-13 1.32643E-14
 -1      3840 1.96707E+01 4.71988E-01-1.92952E-03 6.89476E-01 1.79340E-14-1.96959E-13
 -1      3841 1.96643E+01 4.72071E-01 2.29294E-03 7.63390E-01 7.42136E-14-4.64630E-14
 -1      3842 1.94757E+01 5.34319E-01 1.87050E-04 7.85995E-01 1.16748E-13 6.21544E-14
 -1      3843 1.97318E+01 4.48125E-01-1.88871E-03 5.51844E-01-7.43187E-14-1.02899E-13
 -1      3844 1.97194E+01 4.64809E-01 1.69228E-03 6.16413E-01-9.73455E-14-1.36307E-13
 -1      3845 1.95678E+01 5.29931E-01 7.77699E-04 6.27324E-01-6.36176E-14 7.77004E-14
 -1      3846 1.97908E+01 4.02785E-01-1.74189E-03 4.35818E-01-1.14303E-13 2.35185E-13
 -1      3847 1.97770E+01 4.28275E-01 1.28653E-03 4.91144E-01-4.75091E-14 1.62948E-13
 -1      3848 1.96570E+01 4.91453E-01 1.01924E-03 4.95945E-01-2.23291E-13 2.61642E-13
 -1      3849 1.98430E+01 3.47894E-01-1.54289E-03 3.39323E-01-4.62884E-14 1.67718E-13
 -1      3850 1.98301E+01 3.76801E-01 9.99507E-04 3.85883E-01-6.76601E-14 2.00074E-13
 -1      3851 1.97367E+01 4.35007E-01 1.03035E-03 3.87846E-01-7.32169E-14 3.88894E-13
 -1      3852 1.98866E+01 2.91254E-01-1.32495E-03 2.60107E-01-1.56612E-13 2.74827E-13
 -1      3853 1.98758E+01 3.20161E-01 7.92941E-04 2.98646E-01-1.19542E-13 2.15004E-13
 -1      3854 1.98042E+01 3.71737E-01 9.23475E-04 2.99575E-01-1.57720E-13 3.00488E-13
 -1      3855 1.99214E+01 2.37530E-01-1.10260E-03 1.95982E-01-5.97350E-14 2.43826E-13
 -1      3856 1.99129E+01 2.64426E-01 6.43012E-04 2.27345E-01-3.42424E-14 3.38376E-13
 -1      3857 1.98591E+01 3.08815E-01 7.99112E-04 2.28098E-01-8.87983E-14 4.34067E-13
 -1      3858 1.99481E+01 1.89314E-01-8.95512E-04 1.44841E-01-8.01093E-14 1.49378E-13
 -1      3859 1.99419E+01 2.13133E-01 5.24304E-04 1.69945E-01-8.54701E-14 2.13663E-13
 -1      3860 1.99022E+01 2.50334E-01 6.59251E-04 1.70886E-01-1.25697E-14 3.89494E-13
 -1      3861 1.99679E+01 1.47735E-01-7.11403E-04 1.04661E-01-8.62188E-15 1.28505E-13
 -1      3862 1.99636E+01 1.68070E-01 4.27567E-04 1.24427E-01-4.63108E-14 1.16663E-13
 -1      3863 1.99350E+01 1.98541E-01 5.23224E-04 1.25652E-01-2.76821E-14 3.22627E-13
 -1      3864 1.99820E+01 1.12976E-01-5.54830E-04 7.35788E-02-1.05344E-13 1.03886E-13
 -1      3865 1.99792E+01 1.29844E-01 3.47115E-04 8.88851E-02-1.16474E-13 3.20758E-14
 -1      3866 1.99591E+01 1.54288E-01 4.03126E-04 9.03656E-02-7.89565E-14 1.49014E-13
 -1      3867 1.99915E+01 8.46153E-02-4.27835E-04 4.99177E-02-8.90340E-14 2.54452E-13
 -1      3868 1.99899E+01 9.82963E-02 2.79597E-04 6.15633E-02 1.03638E-14 1.72634E-13
 -1      3869 1.99763E+01 1.17517E-01 2.92586E-04 6.32049E-02-1.23087E-13 2.05498E-13
 -1      3870 1.99975E+01 6.19339E-02-3.14811E-04 3.22463E-02-2.67594E-13 4.49875E-13
 -1      3871 1.99968E+01 7.28151E-02 2.22664E-04 4.09228E-02-2.85059E-13 3.97822E-13
 -1      3872 1.99879E+01 8.76526E-02 2.02010E-04 4.26216E-02-2.95749E-13 4.23069E-13
 -1      3873 2.00011E+01 4.41459E-02-1.79346E-04 1.94212E-02-6.58719E-14 7.24055E-13
 -1      3874 2.00009E+01 5.25543E-02 1.67250E-04 2.56210E-02-9.76975E-14 6.41037E-13
 -1      3875 1.99953E+01 6.38897E-02 1.51140E-04 2.73288E-02-2.79095E-13 6.79202E-13
 -1      3876 1.85421E+01-1.60773E+00 6.01323E-02-3.55583E+00-1.60884E-13-1.79669E-13
 -1      3877 2.02332E+01-2.46754E+00-3.82725E-02-3.18897E+00-1.94076E-13-1.43625E-13
 -1      3878 2.00019E+01 3.45986E-02-7.39283E-05 1.20321E-02 1.35966E-14 5.09192E-13
 -1      3879 2.00023E+01 3.93105E-02 1.50915E-04 1.57016E-02 8.00065E-14 6.79956E-13
 -1      3880 1.99989E+01 4.77457E-02 6.34056E-05 1.72596E-02 5.84106E-14 7.07415E-13
 -1      3881 2.00003E+01 3.65512E-02-1.17746E-04 1.08338E-02 1.27649E-13 5.97901E-13
 -1      3882 1.97065E+01 2.01595E+00 5.96886E-03-5.19713E-02 6.00510E-14-3.09924E-13
 -1      3883 1.96777E+01 2.20858E+00-3.60907E-03-4.03979E-02 6.62186E-14-3.32079E-13
 -1      3884 1.56471E+01-4.86100E-02-1.15014E-02 2.89698E+00 2.29015E-13-3.20508E-13
 -1      3885 1.51499E+01-2.89529E-01 3.33171E-02 3.19455E+00 2.36229E-13-3.49474E-13
 -1      3886 1.40725E+01 5.51258E-02 7.86709E-02 2.92263E+00 2.33755E-13-4.02886E-13
 -1      3887 1.49820E+01 5.42148E-01 2.65796E-02 2.22447E+00 2.06197E-13-3.65125E-13
 -1      3888 2.41339E+01-3.06047E+00 2.98658E-02-7.97291E-01-1.32093E-13 8.39450E-14
 -1      3889 2.01907E+01 3.17231E-01 1.99957E-03-1.09599E+00 5.23128E-15-1.51821E-13
 -1      3890 2.01636E+01 4.06405E-01 1.77965E-03-1.00634E+00 4.88794E-14-1.28082E-13
 -1      3891 2.00240E+01 3.36355E-01-3.52645E-03-1.16617E+00 2.69292E-14-1.92618E-13
 -1      3892 2.00496E+01 1.00039E+00-1.14644E-03-4.87313E-01 1.49102E-13-2.17895E-13
 -1      3893 2.00771E+01 1.14315E+00 2.76748E-03-3.45355E-01 1.57678E-13-2.26175E-13
 -1      3894 2.00043E+01 2.04143E-02 9.05881E-06 6.53603E-03-2.32925E-13 3.50376E-13
 -1      3895 1.98927E+01 1.66938E+00-5.40400E-03 5.90133E-02-6.39176E-14-2.92513E-13
 -1      3896 1.98642E+01 1.43626E+00 5.73131E-03 2.70191E-01-6.25945E-14-2.78503E-13
 -1      3897 1.98103E+01 1.80177E+00-1.88372E-03 5.69370E-02-2.64083E-14-2.86714E-13
 -1      3898 1.99997E+01 4.23276E-02 4.61660E-05-1.26463E-02-2.22415E-13-2.89581E-13
 -1      3899 1.54023E+01-7.24985E-02 3.52506E-02-2.82108E+00-9.99006E-14-2.99333E-13
 -1      3900 1.67542E+01-1.00813E+00-4.29598E-02-3.49416E+00-1.31040E-13-2.70837E-13
 -1      3901 2.05258E+01-1.15225E+00 1.39303E-02 1.85936E+00-1.00706E-13-1.12198E-13
 -1      3902 2.09352E+01-1.52962E+00 1.43701E-02 1.83837E+00-2.12510E-14-1.44221E-13
 -1      3903 2.04299E+01-1.66808E+00-3.44073E-02 2.26902E+00-1.20124E-13-1.34727E-13
 -1      3904 1.98535E+01-9.54961E-01-2.20458E-02 2.06607E+00-1.14974E-13-3.76357E-14
 -1      3905 1.99977E+01 3.87226E-02 1.71700E-04 3.73793E-03 2.44600E-13-4.33773E-13
 -1      3906 2.18748E+01-2.38086E+00-4.77859E-04-1.89342E+00-2.16281E-13-1.34773E-13
 -1      3907 2.13597E+01-1.94659E+00 2.26890E-02-2.02169E+00-1.44912E-13-1.52919E-13
 -1      3908 1.97828E+01 1.32122E+00-2.19443E-03 3.91423E-01-4.67034E-14-2.79526E-13
 -1      3909 1.96336E+01 1.19515E+00-2.02603E-03 5.47066E-01-1.62595E-14-2.46763E-13
 -1      3910 1.95229E+01 1.15063E+00-1.48201E-03 6.65243E-01-7.98987E-15-2.39715E-13
 -1      3911 1.93339E+01 1.23043E+00 5.64704E-03 5.81916E-01 3.55830E-15-2.34121E-13
 -1      3912 1.48116E+01 5.22077E-01 1.17330E-02-2.27720E+00-1.87407E-13 3.93642E-13
 -1      3913 1.44521E+01 8.63173E-01 2.14634E-02-1.61264E+00-2.43053E-13 3.32908E-13
 -1      3914 1.29446E+01 9.38146E-01 7.18961E-02 1.14883E-01 1.05484E-13-4.16115E-13
 -1      3915 1.38693E+01 9.17221E-01 8.86491E-03-5.28045E-01 1.68472E-14-3.98303E-13
 -1      3916 1.36463E+01 8.43891E-01-6.20146E-03 9.61509E-01 1.56567E-13-3.07913E-13
 -1      3917 1.99976E+01 4.50676E-02-9.31956E-05-1.11721E-02-1.88272E-13-9.91307E-14
 -1      3918 1.99980E+01 3.87409E-02 2.15331E-04-4.17072E-03-1.90727E-15 4.89635E-14
 -1      3919 1.58845E+01-4.15201E-01 5.49912E-02 3.27877E+00-6.07032E-14-2.90209E-13
 -1      3920 1.55830E+01 2.20052E-02 6.00728E-03 2.69891E+00-5.66890E-14-2.06077E-13
 -1      3921 1.67943E+01-8.84723E-01-1.01176E-02 3.36713E+00-1.44781E-13-2.00121E-13
 -1      3922 1.98637E+01 1.26114E-01 5.60607E-03-1.42607E+00-1.04722E-14-1.61226E-13
 -1      3923 1.98154E+01 2.68950E-01 7.95505E-04-1.32580E+00 5.60646E-15-1.85810E-13
 -1      3924 2.05317E+01-7.65169E-01-1.54889E-02-1.65755E+00-4.26331E-14-9.71831E-14
 -1      3925 1.39014E+01 4.19759E-01 1.56241E-02 2.15277E+00 2.18220E-13-3.59344E-13
 -1      3926 1.99946E+01 4.66396E-02-1.41834E-04 4.03390E-03 2.89732E-14-5.91846E-13
 -1      3927 1.99956E+01 4.54085E-02-4.02385E-05 6.20143E-03 2.01545E-13-5.52178E-13
 -1      3928 1.99890E+01-2.52517E-01 7.95362E-03-1.65080E+00-3.45245E-14-1.74432E-13
 -1      3929 1.98696E+01-4.64273E-02 2.73521E-03-1.56118E+00-2.24313E-14-1.85323E-13
 -1      3930 1.95717E+01 1.23972E-01-5.98221E-03-1.53026E+00-1.74117E-14-2.01466E-13
 -1      3931 2.00445E+01 5.35303E-01-1.95944E-03-9.49970E-01 4.67092E-14-2.05413E-13
 -1      3932 1.39033E+01 7.04404E-01 3.31694E-02 1.63797E+00-6.99545E-14 2.37458E-13
 -1      3933 2.02735E+01-2.00068E+00-8.22988E-03-2.81414E+00-1.29137E-13-1.89031E-13
 -1      3934 2.11959E+01-2.66111E+00 1.26472E-02-2.82399E+00-2.40059E-13-1.73207E-13
 -1      3935 1.96663E+01 1.83969E+00-2.25814E-03-7.51879E-02 5.76714E-14-3.16763E-13
 -1      3936 1.96511E+01 1.84868E+00-4.65476E-03-5.26592E-02 2.34819E-14-3.03286E-13
 -1      3937 1.80635E+01-1.02106E+00 1.57971E-02-3.08377E+00-8.77666E-14-1.72047E-13
 -1      3938 2.21019E+01-2.93944E+00 1.77301E-02-2.33758E+00-2.30542E-13-1.39984E-13
 -1      3939 2.34291E+01-3.18544E+00-2.41221E-02-1.39706E+00-1.74272E-13-3.35548E-14
 -1      3940 2.08830E+01-1.51642E+00 4.03454E-03-1.97466E+00-8.32435E-14-1.51119E-13
 -1      3941 2.05396E+01-1.12689E+00 1.66411E-02-1.97046E+00-6.37862E-14-1.39343E-13
 -1      3942 2.05531E+01-1.77575E+00-2.82013E-02-2.39912E+00-1.00262E-13-2.03392E-13
 -1      3943 1.30507E+01 9.64484E-01 4.41884E-02-4.07559E-01-1.79680E-13 4.49786E-13
 -1      3944 1.98477E+01-1.52484E+00 2.33509E-02 2.61566E+00-1.76687E-13-2.61886E-13
 -1      3945 1.89248E+01-1.55839E+00-2.73768E-02 3.12166E+00-1.69675E-13-2.22846E-13
 -1      3946 1.94725E+01-1.15266E+00 1.07721E-02 2.50652E+00-1.64047E-13-1.32091E-13
 -1      3947 1.81654E+01-1.21613E+00 3.58676E-02 3.27761E+00-1.79295E-13-1.56084E-13
 -1      3948 2.00059E+01 8.85503E-01 9.93321E-05-6.12131E-01 1.23745E-13-1.92495E-13
 -1      3949 1.99312E+01 1.06005E+00 2.25636E-04-5.18364E-01 1.30139E-13-2.07445E-13
 -1      3950 1.99774E+01 7.82440E-01 3.48494E-04-7.39714E-01 8.16722E-14-1.92660E-13
 -1      3951 1.46710E+01 5.47119E-01-2.26061E-03-1.79136E+00-3.34472E-14-3.11284E-13
 -1      3952 1.49910E+01 2.58612E-01 2.72617E-02-2.42701E+00-6.84236E-14-2.72315E-13
 -1      3953 1.61903E+01 6.83737E-02 1.80916E-02-2.46627E+00-6.84563E-14-2.85039E-13
 -1      3954 1.99942E+01 4.76051E-02-1.05813E-04-1.41571E-03 4.68574E-15-3.66583E-13
 -1      3955 1.99941E+01 4.76433E-02-8.97895E-05 9.32841E-04 1.08547E-13-4.51351E-13
 -1      3956 1.99925E+01 5.58464E-02 2.55839E-04 3.18886E-03 2.70130E-14-5.30423E-13
 -1      3957 1.97589E+01 1.73107E+00-2.30877E-03-1.37928E-01 1.10060E-13-2.90355E-13
 -1      3958 1.97030E+01 1.79349E+00-3.89290E-03-1.23613E-01 7.06974E-14-2.99524E-13
 -1      3959 1.96673E+01 1.67853E+00 6.00878E-03-1.36014E-01 4.77955E-14-2.89416E-13
 -1      3960 1.96863E+01 2.24203E+00-1.27084E-03-6.31416E-02 4.43132E-14-3.31572E-13
 -1      3961 1.96398E+01 1.38381E+00 1.39644E-03 3.58058E-01-1.75380E-14-2.14720E-13
 -1      3962 1.99970E+01 4.24765E-02-1.53536E-04 8.20720E-03 3.14851E-13-2.71376E-13
 -1      3963 1.99986E+01 4.01422E-02-2.69417E-05 9.61514E-03 1.43845E-13 1.13334E-13
 -1      3964 1.99978E+01 4.55146E-02 9.61273E-06 1.22802E-02 1.60851E-13 3.07698E-13
 -1      3965 1.99944E+01 5.18625E-02 1.08054E-04 8.80653E-03 3.98071E-14-5.47454E-13
 -1      3966 2.33186E+01-2.83157E+00-8.81028E-03-1.02088E+00-1.17219E-13 4.39202E-14
 -1      3967 1.53251E+01 1.06854E+00-1.12357E-02-1.05626E+00-1.41500E-13 3.86374E-13
 -1      3968 1.58955E+01 1.17395E+00-2.04432E-02-8.66786E-01-3.98835E-14 3.15961E-13
 -1      3969 1.84582E+01 1.20761E+00-6.72227E-03 5.93463E-01 6.77193E-16-2.48594E-13
 -1      3970 1.81823E+01 1.20562E+00-5.01106E-03 6.55078E-01-7.25114E-15-2.51023E-13
 -1      3971 1.78197E+01 1.19845E+00-1.01731E-02 6.81701E-01 1.32113E-14-2.66161E-13
 -1      3972 1.74669E+01 1.18894E+00-5.61625E-03 7.56073E-01 4.23184E-14-2.56763E-13
 -1      3973 1.79047E+01 1.26501E+00 1.38648E-02 3.75568E-01 1.97514E-14-2.25126E-13
 -1      3974 1.69758E+01 1.15359E+00-1.90436E-02 7.90646E-01 8.93894E-14-2.47713E-13
 -1      3975 1.65435E+01 1.12704E+00-7.03441E-03 8.98550E-01 1.12606E-13-2.45461E-13
 -1      3976 1.70967E+01 1.26441E+00 2.30231E-02 3.89142E-01 5.57544E-14-2.18721E-13
 -1      3977 1.97347E+01 2.32307E+00-2.69382E-03-1.22380E-01 1.19875E-15-3.64954E-13
 -1      3978 1.97797E+01 2.16946E+00 4.73928E-03-7.85752E-02-9.39927E-15-3.36304E-13
 -1      3979 1.99027E+01 5.94240E-01 1.84079E-03-9.73837E-01 2.45243E-14-1.99274E-13
 -1      3980 1.99220E+01 6.87043E-01 3.55073E-05-8.58699E-01 5.09318E-14-1.85889E-13
 -1      3981 1.98279E+01 8.39420E-01-2.35239E-04-7.63356E-01 6.05095E-14-1.62814E-13
 -1      3982 1.90770E+01 5.10926E-01-3.50608E-03 1.10141E+00 1.86468E-14-1.19955E-14
 -1      3983 1.90752E+01 4.33037E-01 6.33574E-03 1.22617E+00-8.00436E-14-8.89187E-14
 -1      3984 2.03030E+01-7.95301E-01 8.98678E-03-1.85711E+00-6.03174E-14-1.18461E-13
 -1      3985 2.00784E+01-5.01715E-01 6.63655E-03-1.79366E+00-3.30120E-14-1.46708E-13
 -1      3986 1.96402E+01-3.08367E-01-1.25123E-02-1.83352E+00-4.57096E-14-1.61834E-13
 -1      3987 1.99370E+01-9.61930E-01-2.52110E-02-2.15231E+00-6.19218E-14-1.40963E-13
 -1      3988 1.65098E+01 1.21061E+00-7.59703E-03-7.98797E-01-7.03571E-14 2.41488E-13
 -1      3989 1.69224E+01 1.22900E+00-1.51910E-02-6.98065E-01-1.59671E-13 2.24199E-13
 -1      3990 1.60004E+01 1.31702E+00 2.94305E-02-3.68989E-01-1.10178E-13 4.69623E-13
 -1      3991 1.73583E+01 1.23308E+00-5.22750E-03-6.62443E-01-1.43822E-13 2.39904E-13
 -1      3992 1.76716E+01 1.21165E+00-9.67805E-03-5.95617E-01-1.67009E-14 2.15443E-13
 -1      3993 1.69996E+01 1.31135E+00 2.06831E-02-3.43194E-01-1.30324E-13 3.78469E-13
 -1      3994 1.79939E+01 1.18102E+00-4.25276E-03-5.70565E-01-4.85038E-14 3.47880E-14
 -1      3995 1.82353E+01 1.13636E+00-6.46380E-03-5.19854E-01-1.81388E-13-1.96346E-14
 -1      3996 1.77193E+01 1.25185E+00 1.32595E-02-3.28524E-01-1.88452E-13 1.18613E-13
 -1      3997 1.84795E+01 1.08559E+00-3.29666E-03-4.97337E-01-1.95735E-13-1.19142E-13
 -1      3998 1.86663E+01 1.02742E+00-4.61033E-03-4.53964E-01-1.84287E-13-4.66532E-14
 -1      3999 1.82645E+01 1.15565E+00 9.65730E-03-3.13607E-01-2.24966E-13-4.04214E-14
 -1      4000 1.88544E+01 9.66443E-01-2.53921E-03-4.31186E-01-1.04199E-13-1.95957E-14
 -1      4001 1.89986E+01 9.02366E-01-3.56012E-03-3.91639E-01 7.25684E-16-1.47853E-14
 -1      4002 1.86828E+01 1.03501E+00 6.75881E-03-2.92512E-01-1.14257E-13 7.41092E-14
 -1      4003 1.91447E+01 8.38049E-01-1.85059E-03-3.68266E-01 4.92190E-15-4.85540E-14
 -1      4004 1.92555E+01 7.73124E-01-2.81224E-03-3.31717E-01 1.02632E-13-5.00698E-14
 -1      4005 1.90079E+01 9.05129E-01 5.20306E-03-2.63682E-01 2.69825E-14 1.30047E-13
 -1      4006 1.93685E+01 7.10285E-01-1.30510E-03-3.08939E-01 5.30818E-14-2.18418E-13
 -1      4007 1.94528E+01 6.48624E-01-2.24717E-03-2.75463E-01 5.31054E-14-1.70853E-13
 -1      4008 1.92602E+01 7.73608E-01 4.10187E-03-2.30840E-01 3.26128E-14-2.51972E-14
 -1      4009 1.95401E+01 5.90214E-01-8.78145E-04-2.53856E-01 7.62835E-14-1.86058E-13
 -1      4010 1.96036E+01 5.34139E-01-1.82730E-03-2.23959E-01 5.61745E-14-2.98859E-13
 -1      4011 1.94548E+01 6.48241E-01 3.22937E-03-1.96124E-01-4.59180E-15-2.40683E-13
 -1      4012 1.96704E+01 4.81943E-01-5.84854E-04-2.04120E-01 9.79410E-14-3.47297E-13
 -1      4013 1.97178E+01 4.32446E-01-1.50371E-03-1.78021E-01 1.64998E-13-2.81690E-13
 -1      4014 1.96039E+01 5.33203E-01 2.38714E-03-1.62250E-01 1.17687E-13-4.43259E-13
 -1      4015 1.97686E+01 3.87001E-01-3.59326E-04-1.60596E-01 1.73763E-13-3.40367E-13
 -1      4016 1.98034E+01 3.44419E-01-1.22078E-03-1.38440E-01 1.17485E-13-3.15612E-13
 -1      4017 1.97177E+01 4.31332E-01 1.84222E-03-1.30362E-01 2.14896E-13-4.86594E-13
 -1      4018 1.98414E+01 3.05856E-01-2.10561E-04-1.23646E-01 1.41135E-13-2.73222E-13
 -1      4019 1.98665E+01 2.70075E-01-9.76207E-04-1.05274E-01 9.01528E-14-2.74035E-13
 -1      4020 1.98032E+01 3.43192E-01 1.39594E-03-1.02242E-01 1.36277E-13-6.55322E-13
 -1      4021 1.98946E+01 2.38028E-01-1.07451E-04-9.30285E-02-9.24693E-14-2.10278E-13
 -1      4022 1.99124E+01 2.08538E-01-7.70146E-04-7.81268E-02-1.05353E-13-4.40293E-13
 -1      4023 1.98664E+01 2.68820E-01 1.04749E-03-7.82008E-02 5.53742E-14-5.67865E-13
 -1      4024 1.99327E+01 1.82386E-01-4.13291E-05-6.82450E-02-8.98465E-14-3.40064E-13
 -1      4025 1.99450E+01 1.58509E-01-5.96379E-04-5.64122E-02-8.02994E-14-3.38722E-13
 -1      4026 1.99124E+01 2.07286E-01 7.74779E-04-5.82429E-02-5.65067E-14-3.65058E-13
 -1      4027 1.99593E+01 1.37514E-01 6.60945E-07-4.86120E-02-1.19186E-13-4.20681E-13
 -1      4028 1.99675E+01 1.18439E-01-4.63037E-04-3.93988E-02-1.65914E-13-4.15452E-13
 -1      4029 1.99450E+01 1.57288E-01 5.68332E-04-4.21337E-02-7.74854E-14-2.14750E-13
 -1      4030 1.99774E+01 1.01903E-01 4.97954E-05-3.34443E-02-1.31774E-13-2.45622E-13
 -1      4031 1.99826E+01 8.68434E-02-3.44613E-04-2.63625E-02-7.20403E-14-2.82862E-13
 -1      4032 1.99677E+01 1.17215E-01 3.98901E-04-2.94545E-02-6.03623E-14-1.84720E-13
 -1      4033 1.99891E+01 7.38765E-02 7.23133E-05-2.18997E-02-2.93024E-15-1.85194E-13
 -1      4034 1.99921E+01 6.22375E-02-2.34348E-04-1.66825E-02-5.65741E-15-1.11722E-13
 -1      4035 1.99825E+01 8.55224E-02 1.97418E-04-1.97806E-02-2.11972E-14-1.82531E-13
 -1      4036 1.89893E+01 3.16636E-01-3.26029E-03 1.39101E+00-7.27611E-14-1.22884E-13
 -1      4037 1.90398E+01 1.69027E-01 9.56606E-03 1.54007E+00-9.60865E-14-1.38664E-13
 -1      4038 1.87195E+01 4.99231E-01-4.47482E-04 1.28013E+00-1.03313E-13 7.44611E-14
 -1      4039 1.36555E+01 9.99582E-01-6.03921E-03-7.19103E-01-2.74370E-13 4.91693E-13
 -1      4040 1.47830E+01 1.05800E+00 5.63509E-03-8.87619E-01-2.28844E-13 4.41543E-13
 -1      4041 1.48057E+01 1.24263E+00 1.85722E-02-1.67144E-01-1.81837E-13 5.71497E-13
 -1      4042 1.36062E+01 1.07761E+00 1.15557E-02 3.96789E-01-1.86098E-13 5.63721E-13
 -1      4043 1.99299E+01-1.43438E+00 3.63452E-02-2.65516E+00-7.31602E-14-1.53282E-13
 -1      4044 1.89904E+01-3.44911E-02-2.11871E-03 1.75037E+00-1.51526E-13-2.05192E-13
 -1      4045 1.91307E+01-2.80260E-01 1.25837E-02 1.92307E+00-1.07906E-13-1.42030E-13
 -1      4046 1.85840E+01 2.15826E-01-3.27753E-03 1.66471E+00-1.57218E-13-1.85187E-14
 -1      4047 1.92029E+01 5.96625E-01-3.47453E-03 8.70394E-01 2.89006E-14 1.51421E-13
 -1      4048 1.91740E+01 5.67244E-01 4.05675E-03 9.73135E-01 4.45672E-14 1.93730E-14
 -1      4049 1.88964E+01 6.41406E-01 1.01887E-03 9.87357E-01-3.96663E-14 5.49636E-14
 -1      4050 1.93385E+01 6.10911E-01-3.19859E-03 6.86064E-01 9.59092E-14 1.61424E-13
 -1      4051 1.92983E+01 6.12787E-01 2.51382E-03 7.70628E-01 8.14730E-14 8.84706E-14
 -1      4052 1.90809E+01 6.88094E-01 1.32708E-03 7.63297E-01 7.03931E-14 9.84940E-14
 -1      4053 1.94687E+01 5.80070E-01-2.69782E-03 5.38172E-01-1.17307E-13 2.04419E-13
 -1      4054 1.94261E+01 6.01263E-01 1.65204E-03 6.07731E-01 7.33709E-15 2.23314E-13
 -1      4055 1.92567E+01 6.75690E-01 2.10269E-03 5.90582E-01-3.62494E-15 8.51456E-14
 -1      4056 1.95851E+01 5.23386E-01-2.27979E-03 4.19366E-01-2.44828E-13 3.10823E-13
 -1      4057 1.95451E+01 5.55122E-01 1.11345E-03 4.76455E-01-2.28346E-13 2.43660E-13
 -1      4058 1.94136E+01 6.24376E-01 2.07744E-03 4.55984E-01-1.70111E-13 2.43966E-13
 -1      4059 1.96845E+01 4.54615E-01-1.95391E-03 3.23844E-01-1.55022E-13 3.26711E-13
 -1      4060 1.96495E+01 4.90758E-01 7.30951E-04 3.70482E-01-1.21719E-13 2.52578E-13
 -1      4061 1.95476E+01 5.53312E-01 1.77885E-03 3.50599E-01-1.66673E-13 3.55645E-13
 -1      4062 1.97664E+01 3.83351E-01-1.66236E-03 2.47355E-01-1.55073E-13 4.12285E-13
 -1      4063 1.97373E+01 4.19660E-01 4.82019E-04 2.85293E-01-1.81605E-13 3.14018E-13
 -1      4064 1.96592E+01 4.74707E-01 1.46085E-03 2.67710E-01-1.96593E-13 2.06600E-13
 -1      4065 1.98320E+01 3.15093E-01-1.36221E-03 1.86435E-01-5.66874E-14 3.40667E-13
 -1      4066 1.98088E+01 3.49201E-01 3.55936E-04 2.16947E-01-1.18955E-13 3.85595E-13
 -1      4067 1.97497E+01 3.96888E-01 1.30028E-03 2.02389E-01-1.44682E-13 3.31171E-13
 -1      4068 1.98830E+01 2.53278E-01-1.09329E-03 1.38388E-01-9.44552E-14 4.58585E-13
 -1      4069 1.98651E+01 2.83752E-01 2.65629E-04 1.62673E-01-1.37061E-14 3.77638E-13
 -1      4070 1.98211E+01 3.23904E-01 1.06970E-03 1.51287E-01-2.88212E-14 4.99304E-13
 -1      4071 1.99215E+01 1.99466E-01-8.63196E-04 1.00846E-01-9.92833E-15 4.92685E-13
 -1      4072 1.99082E+01 2.25728E-01 2.07833E-04 1.19946E-01-7.11130E-14 5.09780E-13
 -1      4073 1.98760E+01 2.58862E-01 8.52130E-04 1.11481E-01-4.25746E-14 5.59124E-13
 -1      4074 1.99498E+01 1.54021E-01-6.79942E-04 7.18423E-02-4.50514E-14 3.91199E-13
 -1      4075 1.99403E+01 1.76028E-01 1.69906E-04 8.66677E-02 6.08813E-14 5.09284E-13
 -1      4076 1.99172E+01 2.02860E-01 6.58993E-04 8.06808E-02 8.27501E-14 6.19533E-13
 -1      4077 1.99699E+01 1.16643E-01-5.54451E-04 4.97359E-02-1.85653E-13 2.97427E-13
 -1      4078 1.99634E+01 1.34710E-01 1.72408E-04 6.11398E-02-1.16860E-13 3.25767E-13
 -1      4079 1.99473E+01 1.55917E-01 5.12155E-04 5.71308E-02 3.29903E-14 5.77352E-13
 -1      4080 1.99836E+01 8.65307E-02-4.27645E-04 3.30946E-02-3.21375E-13 4.21897E-13
 -1      4081 1.99795E+01 1.01076E-01 1.78583E-04 4.17433E-02-2.02853E-13 3.51603E-13
 -1      4082 1.99685E+01 1.17665E-01 3.79925E-04 3.93611E-02-1.88356E-13 4.59778E-13
 -1      4083 1.99927E+01 6.26869E-02-2.17360E-04 2.08491E-02-1.37725E-13 1.20052E-13
 -1      4084 1.99902E+01 7.40137E-02 1.32609E-04 2.72098E-02-2.77186E-13 1.95022E-13
 -1      4085 1.99827E+01 8.68976E-02 2.42597E-04 2.61005E-02-1.58707E-13 1.36730E-13
 -1      4086 1.96338E+01 1.71965E+00 7.28472E-03-1.30068E-02 2.21957E-14-2.78295E-13
 -1      4087 1.96662E+01 1.83880E+00-2.44297E-03 5.64068E-03 2.46375E-14-2.92916E-13
 -1      4088 1.74796E+01-3.03089E-01 2.75892E-02-2.68118E+00-4.43814E-14-2.34339E-13
 -1      4089 1.87185E+01-1.06389E+00-3.11793E-02-2.80565E+00-5.79373E-14-1.58164E-13
 -1      4090 1.92096E+01-8.44140E-01 2.61685E-03-2.44675E+00-5.90886E-14-1.63963E-13
 -1      4091 1.99968E+01 5.13173E-02 2.40145E-05 1.58519E-02 1.57520E-14 1.96365E-13
 -1      4092 2.00730E+01 1.25742E+00-1.20604E-03-2.45793E-01 1.76906E-13-2.31117E-13
 -1      4093 1.99782E+01 1.40170E+00-9.82894E-04-2.36879E-01 1.57994E-13-2.30295E-13
 -1      4094 1.98526E+01 3.91650E-01 3.63581E-03-1.20000E+00 2.66385E-14-1.74862E-13
 -1      4095 1.98479E+01 4.96902E-01 1.09319E-04-1.09320E+00 2.97367E-14-1.88062E-13
 -1      4096 1.97120E+01 6.42579E-01-1.20022E-03-1.00475E+00 4.57873E-14-1.90009E-13
 -1      4097 1.96138E+01 4.22005E-01-2.62997E-03-1.25672E+00 3.23152E-14-1.63177E-13
 -1      4098 1.89433E+01 1.22348E+00-6.57233E-03 5.01266E-01-5.87312E-16-2.55821E-13
 -1      4099 1.87330E+01 1.21625E+00-3.78656E-03 5.64867E-01 5.63438E-15-2.47549E-13
 -1      4100 1.85213E+01 1.26667E+00 9.65012E-03 3.53883E-01 6.56625E-15-2.18978E-13
 -1      4101 1.97356E+01 1.87922E+00-5.56429E-03-3.67731E-04-5.36650E-15-3.13232E-13
 -1      4102 1.97134E+01 1.63082E+00 7.58694E-03 1.39241E-01-1.59852E-14-2.68489E-13
 -1      4103 1.96984E+01 2.33085E+00-3.76535E-03-7.74607E-02 3.72085E-14-3.49153E-13
 -1      4104 1.50251E+01 5.68896E-01-1.18908E-02 1.97874E+00-1.71366E-13 9.29751E-14
 -1      4105 1.41550E+01 9.34462E-01 2.00612E-02 1.18469E+00-1.98350E-13 2.62016E-13
 -1      4106 1.47642E+01 1.04387E+00 2.70268E-02 8.41862E-01-2.20677E-13 3.37781E-13
 -1      4107 1.99948E+01 5.49509E-02 1.56075E-04-1.22612E-02-7.88039E-14-1.07273E-13
 -1      4108 1.99959E+01 4.54319E-02-8.06800E-05-6.56283E-03-8.79372E-14-1.77404E-14
 -1      4109 1.99947E+01 4.67289E-02-1.66737E-04-4.56708E-03 1.91157E-14-2.37922E-13
 -1      4110 1.99904E+01 6.30988E-02-5.19033E-05-1.10745E-02 9.18622E-14-2.04158E-13
 -1      4111 1.76020E+01-6.97394E-01 1.52837E-02 2.94789E+00-4.26872E-14-1.82767E-13
 -1      4112 2.02123E+01 1.09574E+00-1.57446E-03-2.11166E-01 1.86153E-13-1.72409E-13
 -1      4113 2.01639E+01 1.20710E+00-2.59802E-03-1.86570E-01 1.77832E-13-1.89522E-13
 -1      4114 1.95447E+01 1.44443E+00-5.48847E-03 2.11781E-01-1.61129E-14-2.42221E-13
 -1      4115 1.93945E+01 1.32975E+00 2.07387E-03 3.37362E-01 1.90928E-15-2.23727E-13
 -1      4116 1.94937E+01 1.52207E+00 5.63622E-04 1.15616E-01 2.52944E-15-2.25823E-13
 -1      4117 1.92619E+01 1.27864E+00-5.55540E-03 3.83237E-01-7.00779E-15-2.29299E-13
 -1      4118 1.91010E+01 1.25019E+00-1.94454E-03 4.49682E-01-1.27926E-14-2.38305E-13
 -1      4119 1.89317E+01 1.29656E+00 8.16030E-03 2.91520E-01-8.62597E-15-2.30430E-13
 -1      4120 1.92005E+01 1.35398E+00 5.46587E-03 2.05771E-01-7.59362E-15-2.28625E-13
 -1      4121 1.70108E+01-5.31770E-02-7.17645E-03-2.47932E+00-6.25368E-14-2.75673E-13
 -1      4122 1.78770E+01-7.16488E-02 2.00583E-02-2.25715E+00-5.52869E-14-2.23059E-13
 -1      4123 1.66025E+01 2.69364E-01-7.16460E-03-2.11185E+00-4.47981E-14-2.67175E-13
 -1      4124 1.55352E+01 1.17697E+00 3.01563E-02 3.42762E-01 7.10497E-14-2.44541E-13
 -1      4125 1.53882E+01 1.05435E+00-2.19970E-03 9.26696E-01 8.27927E-14-2.60589E-13
 -1      4126 1.96941E+01 1.91890E+00-1.99246E-03 1.79479E-04 1.84463E-14-2.90430E-13
 -1      4127 1.47461E+01 9.08030E-01 1.10145E-02 1.11836E+00 1.07615E-13-2.77559E-13
 -1      4128 1.99156E+01 1.52825E+00-3.23621E-03-1.80059E-01 1.57505E-13-2.31780E-13
 -1      4129 1.98334E+01 1.63998E+00-2.94772E-03-1.73017E-01 1.23342E-13-2.42954E-13
 -1      4130 1.99926E+01 5.60184E-02 2.38669E-04-3.70115E-03 1.70738E-14-2.81667E-13
 -1      4131 1.96128E+01 1.52087E+00-2.42631E-03-2.08452E-01 7.94552E-14-2.41468E-13
 -1      4132 1.95642E+01 1.56241E+00-5.22398E-03-1.48495E-01 5.75848E-14-2.88253E-13
 -1      4133 1.92800E+01 2.02620E-01 7.75288E-03-1.56620E+00-2.03461E-14-1.78187E-13
 -1      4134 1.92683E+01 3.59427E-01-2.76998E-03-1.41845E+00 8.16800E-15-1.70206E-13
 -1      4135 1.44130E+01 6.95793E-01 3.44925E-02 1.83385E+00 1.87292E-13-3.14181E-13
 -1      4136 1.97146E+01 2.10923E+00 4.01793E-03-4.58068E-02 2.32185E-14-3.09212E-13
 -1      4137 1.99924E+01 6.07399E-02 9.76308E-05 1.53387E-02-8.21970E-14-3.19655E-13
 -1      4138 1.95165E+01 1.55722E+00-8.02402E-04-7.04433E-02 3.52060E-14-2.89894E-13
 -1      4139 1.95094E+01 1.54838E+00-5.59996E-03 4.29424E-03 1.81483E-14-2.41465E-13
 -1      4140 1.93539E+01 1.40986E+00 1.30443E-03 4.89598E-02-1.71526E-15-2.20976E-13
 -1      4141 1.94539E+01 1.44073E+00 8.95047E-04-1.41985E-01 4.78591E-14-2.59683E-13
 -1      4142 1.93784E+01 4.94625E-01 5.18934E-03-1.25884E+00 6.41360E-16-1.90041E-13
 -1      4143 1.94116E+01 6.04906E-01-2.43330E-03-1.12746E+00 2.58075E-14-1.83508E-13
 -1      4144 1.90575E+01 5.52541E-01-3.70699E-04-1.28480E+00-1.42776E-15-1.58914E-13
 -1      4145 2.19435E+01-2.50087E+00 9.53035E-03-2.00022E+00-1.93382E-13-1.87378E-13
 -1      4146 1.93379E+01-7.96833E-01 1.84219E-02 2.28599E+00-8.51911E-14-1.54615E-13
 -1      4147 1.85501E+01-7.77238E-01-3.21548E-02 2.59912E+00-9.24113E-14-2.14161E-13
 -1      4148 1.90968E+01-5.07350E-01 2.67566E-03 2.14044E+00-5.27237E-14-1.66218E-13
 -1      4149 1.46474E+01 9.10940E-01 4.96989E-02-1.15116E+00-2.57194E-14-3.91114E-13
 -1      4150 1.55789E+01 6.93123E-01 9.04177E-03-1.51957E+00-3.39746E-14-3.10548E-13
 -1      4151 1.47685E+01 9.97554E-01-1.44357E-02-4.05563E-01 1.45344E-14-3.46626E-13
 -1      4152 1.75053E+01-3.43383E-01 6.25906E-03 2.63416E+00-3.32802E-14-1.87348E-13
 -1      4153 1.56072E+01 3.78837E-01 2.73043E-02 2.26153E+00-1.16985E-13-6.92484E-14
 -1      4154 1.57671E+01 6.03839E-01 1.67776E-02 1.87459E+00-3.28999E-13 9.08761E-14
 -1      4155 1.62761E+01 3.54062E-02 3.49236E-03 2.53960E+00-1.02062E-13-2.91046E-13
 -1      4156 1.97865E+01 1.54072E+00 4.99124E-03-2.35017E-01 1.13281E-13-2.45195E-13
 -1      4157 1.99877E+01 6.55511E-02-1.29698E-04 2.49426E-03-7.97930E-15-4.37372E-13
 -1      4158 1.99885E+01 6.45364E-02-9.95650E-05 6.03374E-03 6.41595E-14-4.57242E-13
 -1      4159 2.27002E+01-2.53986E+00 3.32110E-02-1.41942E+00-1.85697E-13-1.87784E-14
 -1      4160 1.99901E+01 6.36219E-02-7.45028E-05 1.29568E-02-1.31737E-13-5.45580E-13
 -1      4161 1.99236E+01 1.31482E+00 3.43181E-03-3.34019E-01 1.51103E-13-2.11009E-13
 -1      4162 1.99857E+01 7.51497E-02 1.23027E-04 1.30239E-02-6.46605E-14-3.87544E-13
 -1      4163 1.98642E+01 1.17023E+00-1.92856E-03-4.43625E-01 1.23406E-13-1.98146E-13
 -1      4164 1.98088E+01 1.29660E+00-3.72502E-04-3.84379E-01 1.10376E-13-1.89255E-13
 -1      4165 1.98206E+01 1.05384E+00 1.00636E-03-5.67545E-01 9.74313E-14-1.68048E-13
 -1      4166 1.85005E+01-1.85971E-01-5.56276E-03 2.10612E+00-1.10966E-13-5.32449E-14
 -1      4167 1.59798E+01 1.11619E+00-6.87046E-03-2.14582E-01 2.13605E-14-2.46945E-13
 -1      4168 1.91997E+01 7.06958E-03-1.12296E-03-1.76188E+00-3.97899E-14-1.60143E-13
 -1      4169 1.88691E+01 2.44763E-01-2.47669E-03-1.65160E+00-3.64235E-14-1.18615E-13
 -1      4170 1.93018E+01-2.31183E-01 1.16410E-02-1.93038E+00-5.44770E-14-1.49315E-13
 -1      4171 1.72724E+01 1.18934E+00-9.33579E-03-1.03973E-02 3.07861E-14-1.76703E-13
 -1      4172 1.67941E+01 1.16974E+00-1.59716E-02-3.14041E-02 5.74428E-14-1.83439E-13
 -1      4173 1.55166E+01 9.47898E-01-7.71778E-03 1.21195E+00-2.11086E-13 2.62079E-13
 -1      4174 1.50173E+01 1.16419E+00 6.00588E-03 5.08876E-01-2.10583E-13 4.82290E-13
 -1      4175 1.55440E+01 1.18642E+00 3.91411E-03 2.68461E-01-1.75264E-13 5.17133E-13
 -1      4176 1.99778E+01 9.01703E-02 2.49086E-04 7.22103E-03 1.31971E-13-4.96118E-13
 -1      4177 1.99785E+01 8.83670E-02-3.03937E-04 1.56058E-02 3.41454E-14-3.01300E-13
 -1      4178 1.99728E+01 1.03322E-01 1.52284E-04 2.06259E-02 2.58630E-14-1.31486E-13
 -1      4179 1.96871E+01 8.51240E-01 1.54610E-03-7.96575E-01 4.00432E-14-1.84813E-13
 -1      4180 1.97425E+01 9.46297E-01-1.26540E-03-6.77496E-01 7.04816E-14-1.76506E-13
 -1      4181 1.96787E+01 1.05849E+00 5.15951E-04-5.99855E-01 8.72221E-14-1.71883E-13
 -1      4182 1.89657E+01 7.65645E-01-5.21287E-03 6.16558E-01 8.01137E-14 1.28779E-13
 -1      4183 1.88803E+01 7.73699E-01 1.66964E-03 7.10315E-01 7.10163E-14 9.93742E-14
 -1      4184 1.99886E+01 6.49876E-02-1.02923E-04-6.38529E-03 2.30628E-14-1.52122E-13
 -1      4185 1.99877E+01 6.56821E-02-1.61939E-04-2.76936E-03-2.03651E-14-3.37992E-13
 -1      4186 1.99838E+01 7.64559E-02 1.01755E-04 1.18585E-04-1.78178E-15-3.58953E-13
 -1      4187 1.99861E+01 7.43793E-02 1.62128E-04-1.07235E-02 9.55141E-14-1.57053E-13
 -1      4188 1.61044E+01 1.21517E+00-6.25567E-03 2.23165E-01-1.42058E-13 4.61957E-13
 -1      4189 1.66950E+01 1.24621E+00-1.27501E-02 3.29812E-02-1.39892E-13 4.34517E-13
 -1      4190 1.71299E+01 1.23937E+00-7.96523E-03 1.63042E-02-1.96892E-13 3.83311E-13
 -1      4191 1.74883E+01 1.21816E+00-9.00205E-03-4.74160E-02-3.27607E-13 3.03579E-13
 -1      4192 1.78087E+01 1.18856E+00-5.73267E-03-6.19432E-02-3.33272E-13 2.22161E-13
 -1      4193 1.73529E+01 1.21379E+00 1.42488E-02 2.97754E-01-3.10847E-13 3.13316E-13
 -1      4194 1.80810E+01 1.14801E+00-6.12119E-03-1.01997E-01-2.59591E-13 2.18484E-13
 -1      4195 1.83236E+01 1.09948E+00-4.29713E-03-1.09372E-01-2.71659E-13 2.12936E-13
 -1      4196 1.79658E+01 1.16597E+00 1.31458E-02 1.62021E-01-3.23596E-13 3.17349E-13
 -1      4197 1.85311E+01 1.04789E+00-5.13591E-03-1.30266E-01-1.98774E-13 3.24851E-13
 -1      4198 1.87210E+01 9.89462E-01-3.14112E-03-1.27351E-01-9.75388E-14 3.29586E-13
 -1      4199 1.84251E+01 1.08003E+00 8.99017E-03 7.21590E-02-1.67085E-13 4.02589E-13
 -1      4200 1.88873E+01 9.27683E-01-3.32995E-03-1.40768E-01-5.64149E-14 2.73209E-13
 -1      4201 1.90335E+01 8.65237E-01-2.20280E-03-1.32343E-01 3.06311E-15 2.53752E-13
 -1      4202 1.87939E+01 9.58087E-01 2.26564E-03 1.31765E-02-1.48070E-13 4.53947E-13
 -1      4203 1.91631E+01 8.01124E-01-2.56429E-03-1.37701E-01-9.72768E-14 2.11125E-13
 -1      4204 1.92754E+01 7.39164E-01-1.99590E-03-1.26751E-01-9.24448E-14 8.88166E-14
 -1      4205 1.90868E+01 8.41651E-01 4.17769E-03-2.33648E-02-1.76682E-13 3.73139E-13
 -1      4206 1.93780E+01 6.78120E-01-1.66067E-03-1.26052E-01-1.23339E-13 5.61218E-15
 -1      4207 1.94635E+01 6.18608E-01-1.91165E-03-1.13970E-01-1.18596E-13-8.60921E-14
 -1      4208 1.93155E+01 7.21633E-01 4.52759E-03-3.76491E-02-1.90047E-13 2.26676E-13
 -1      4209 1.95428E+01 5.63053E-01-1.51380E-03-1.09364E-01-7.00544E-14-2.12739E-13
 -1      4210 1.96097E+01 5.09571E-01-1.27253E-03-9.62370E-02 1.54407E-13-2.31165E-13
 -1      4211 1.94906E+01 6.06781E-01 3.71566E-03-4.15874E-02-1.96457E-13 6.40777E-14
 -1      4212 1.96706E+01 4.58503E-01-1.24017E-03-9.14343E-02 1.96082E-13-4.53052E-13
 -1      4213 1.97213E+01 4.11391E-01-1.07265E-03-7.91149E-02 1.50878E-13-5.03948E-13
 -1      4214 1.96310E+01 4.98323E-01 3.38327E-03-4.07494E-02-4.29105E-14-3.77638E-13
 -1      4215 1.97676E+01 3.67304E-01-8.83812E-04-7.39647E-02 1.25395E-13-6.76977E-13
 -1      4216 1.98052E+01 3.26834E-01-8.70567E-04-6.29230E-02 6.26213E-14-6.17278E-13
 -1      4217 1.97368E+01 4.02258E-01 2.68579E-03-3.66445E-02 1.63334E-14-7.35602E-13
 -1      4218 1.98400E+01 2.89503E-01-6.26454E-04-5.80206E-02 9.31837E-14-6.08953E-13
 -1      4219 1.98676E+01 2.55523E-01-6.93175E-04-4.84941E-02 6.60629E-14-6.50378E-13
 -1      4220 1.98166E+01 3.19271E-01 2.07361E-03-3.08369E-02 4.96387E-14-5.80926E-13
 -1      4221 1.98932E+01 2.24559E-01-4.37525E-04-4.41687E-02 6.35664E-14-5.39541E-13
 -1      4222 1.99130E+01 1.96585E-01-5.36934E-04-3.62093E-02 3.06820E-14-4.18886E-13
 -1      4223 1.98757E+01 2.49231E-01 1.55414E-03-2.47250E-02 1.19875E-13-5.39560E-13
 -1      4224 1.99315E+01 1.71356E-01-3.05484E-04-3.25769E-02 5.93459E-14-3.23080E-13
 -1      4225 1.99454E+01 1.48789E-01-3.80121E-04-2.61032E-02 1.12413E-13-2.21176E-13
 -1      4226 1.99187E+01 1.91191E-01 1.04086E-03-1.90963E-02 1.28966E-13-3.07007E-13
 -1      4227 1.99584E+01 1.28513E-01-1.80713E-04-2.32082E-02 1.50808E-14-2.65137E-13
 -1      4228 1.99677E+01 1.10480E-01-3.16875E-04-1.82460E-02-5.04249E-14-1.33157E-13
 -1      4229 1.99495E+01 1.44084E-01 7.41017E-04-1.42134E-02 1.78348E-13-3.32975E-13
 -1      4230 1.99748E+01 9.85220E-02-3.75810E-06-1.61780E-02-3.26945E-14-1.43831E-13
 -1      4231 1.99809E+01 8.40158E-02-1.83460E-04-1.25102E-02 6.96352E-14-9.67988E-14
 -1      4232 1.99795E+01 8.65623E-02 9.00915E-05-6.87019E-03 4.66507E-14-1.14550E-13
 -1      4233 1.99683E+01 1.10662E-01 5.03983E-04-1.00894E-02-7.00001E-15-3.27787E-13
 -1      4234 1.84592E+01 6.87205E-01-6.95977E-03 1.08321E+00-1.07741E-13 6.74324E-14
 -1      4235 1.83862E+01 6.14543E-01 5.98669E-03 1.24410E+00-8.59162E-14 5.55280E-14
 -1      4236 1.81780E+01 5.01483E-01-9.73361E-03 1.44577E+00-1.51793E-13-7.35218E-14
 -1      4237 1.81353E+01 3.52071E-01 6.55602E-03 1.66636E+00-2.56033E-13-1.07326E-13
 -1      4238 1.79531E+01 7.30161E-01 4.48822E-03 1.23045E+00-2.24944E-13-6.86052E-14
 -1      4239 1.91832E+01 7.18835E-01-3.48683E-03 4.66722E-01-1.24543E-13 1.13072E-13
 -1      4240 1.91019E+01 7.47051E-01 9.10807E-04 5.36490E-01-5.32701E-15 1.12362E-13
 -1      4241 1.89231E+01 8.36288E-01 6.00659E-03 4.89085E-01-9.51237E-14 1.38286E-13
 -1      4242 1.93644E+01 6.47554E-01-2.75130E-03 3.54024E-01-2.46158E-13 2.59282E-13
 -1      4243 1.92928E+01 6.87055E-01 5.03386E-04 4.08912E-01-1.85141E-13 2.40228E-13
 -1      4244 1.91628E+01 7.62164E-01 5.01420E-03 3.59775E-01-2.25031E-13 1.83117E-13
 -1      4245 1.95147E+01 5.64300E-01-2.15225E-03 2.67066E-01-1.36207E-13 3.55441E-13
 -1      4246 1.94548E+01 6.08342E-01 4.92303E-04 3.10995E-01-1.71430E-13 3.26258E-13
 -1      4247 1.93534E+01 6.71499E-01 2.57296E-03 2.64347E-01-2.50593E-13 2.41991E-13
 -1      4248 1.96365E+01 4.77586E-01-2.14780E-03 2.00807E-01-1.44808E-13 1.22579E-13
 -1      4249 1.95879E+01 5.21229E-01 3.32178E-06 2.35157E-01-1.08576E-13 2.58423E-13
 -1      4250 1.95092E+01 5.73927E-01 3.50854E-04 1.96991E-01-5.24453E-14 3.42158E-13
 -1      4251 1.97347E+01 3.94190E-01-1.82828E-03 1.49546E-01-1.80681E-13 2.68029E-13
 -1      4252 1.96963E+01 4.35924E-01 1.13680E-04 1.76050E-01-2.61423E-13 2.61991E-13
 -1      4253 1.96387E+01 4.86716E-01 3.26123E-03 1.45263E-01-2.99295E-13 2.53754E-13
 -1      4254 1.98111E+01 3.18859E-01-1.43834E-03 1.10267E-01-5.52716E-14 4.90588E-13
 -1      4255 1.97813E+01 3.56290E-01 6.45009E-05 1.30976E-01-6.97481E-14 4.32022E-13
 -1      4256 1.97387E+01 3.99286E-01 2.82891E-03 1.06779E-01-2.50513E-13 3.39281E-13
 -1      4257 1.98694E+01 2.52938E-01-1.12019E-03 8.01970E-02 1.65215E-14 4.99731E-13
 -1      4258 1.98468E+01 2.85348E-01 3.75744E-05 9.63227E-02-2.80482E-14 5.51109E-13
 -1      4259 1.98156E+01 3.20930E-01 2.25374E-03 7.76812E-02 2.82782E-14 4.07362E-13
 -1      4260 1.99129E+01 1.96955E-01-8.51357E-04 5.72871E-02 1.98525E-13 3.95072E-13
 -1      4261 1.98962E+01 2.24252E-01 2.78056E-05 6.97687E-02 1.16598E-13 3.27761E-13
 -1      4262 1.98735E+01 2.53166E-01 1.73403E-03 5.58338E-02 1.69209E-13 2.43219E-13
 -1      4263 1.99442E+01 1.50470E-01-7.30735E-04 3.99334E-02 6.18203E-14 2.65354E-13
 -1      4264 1.99324E+01 1.72974E-01 8.13762E-06 4.94416E-02 2.33636E-13 3.80871E-13
 -1      4265 1.99162E+01 1.96132E-01 1.24482E-03 3.94883E-02 2.06829E-13 1.01763E-13
 -1      4266 1.99641E+01 1.16385E-01-5.16653E-04 2.56632E-02-1.14446E-13-4.79295E-14
 -1      4267 1.99559E+01 1.34951E-01 1.48388E-04 3.25307E-02-6.25154E-15 8.08561E-14
 -1      4268 1.99441E+01 1.52933E-01 8.45905E-04 2.50460E-02 1.51683E-13-9.34545E-14
 -1      4269 1.99627E+01 1.20192E-01 5.42048E-04 1.33198E-02 9.53248E-14-4.77109E-13
 -1      4270 1.90390E+01-4.61486E-01 6.90038E-03-2.23563E+00-6.27070E-14-1.48429E-13
 -1      4271 1.87259E+01 7.63476E-01-5.30926E-03 8.15340E-01 1.27211E-14 1.30977E-14
 -1      4272 1.86397E+01 7.40687E-01 4.08744E-03 9.38078E-01-6.80582E-14-9.34588E-15
 -1      4273 1.83257E+01 8.41578E-01 4.76476E-03 8.94379E-01-4.04506E-14 1.86282E-14
 -1      4274 1.86429E+01 8.59450E-01-2.40124E-04 6.58967E-01-1.74917E-14 1.41071E-14
 -1      4275 1.95309E+01 6.85413E-01 2.79975E-03-1.01661E+00 6.42623E-14-1.98715E-13
 -1      4276 1.95834E+01 7.77793E-01-1.96299E-03-8.94630E-01 3.46752E-14-1.97172E-13
 -1      4277 1.95002E+01 8.91321E-01 1.76177E-03-8.10005E-01 4.86723E-14-1.86411E-13
 -1      4278 1.92865E+01 7.46069E-01 1.18524E-03-1.01480E+00 1.51836E-14-2.08306E-13
 -1      4279 1.79135E+01 2.09511E-01-1.15688E-02 1.87807E+00-2.43255E-13-1.01170E-13
 -1      4280 1.79115E+01 3.94607E-02 8.47385E-03 2.08581E+00-1.07478E-13-1.28562E-13
 -1      4281 1.75602E+01 5.42200E-01 9.20420E-03 1.62634E+00-2.01340E-13-2.20963E-13
 -1      4282 1.97378E+01 1.37634E+00-1.76865E-03-3.26775E-01 1.01521E-13-2.21770E-13
 -1      4283 1.96584E+01 1.46327E+00-2.39505E-03-2.75176E-01 8.49092E-14-2.35614E-13
 -1      4284 1.95784E+01 1.39061E+00 5.51819E-03-2.92453E-01 9.62229E-14-2.27917E-13
 -1      4285 1.96850E+01 1.24985E+00 2.17990E-03-4.29622E-01 8.59547E-14-1.94490E-13
 -1      4286 1.86074E+01 1.24236E+00-5.65093E-03 1.16929E-01 9.16463E-15-1.94100E-13
 -1      4287 1.83365E+01 1.23035E+00-6.61656E-03 1.19418E-01 3.06736E-14-1.82964E-13
 -1      4288 1.80326E+01 1.21829E+00-5.59615E-03 7.31568E-02 3.29439E-14-1.78967E-13
 -1      4289 1.76700E+01 1.20778E+00-9.61640E-03 6.13780E-02 2.58368E-14-1.90384E-13
 -1      4290 1.75353E+01 1.18073E+00 1.34344E-02-3.26474E-01 3.82844E-14-2.00391E-13
 -1      4291 1.82158E+01 1.21250E+00 7.52734E-03-1.75150E-01 4.27475E-14-1.74547E-13
 -1      4292 1.99785E+01 8.61826E-02-2.36493E-04-9.19643E-04 7.71827E-14-3.82371E-13
 -1      4293 1.99713E+01 1.01151E-01-1.25171E-04 2.50267E-04 5.11791E-14-4.71950E-13
 -1      4294 1.63672E+01 1.08192E+00 1.93647E-02-6.58697E-01 7.33658E-15-2.64476E-13
 -1      4295 1.64408E+01 1.17757E+00 1.55781E-02 6.14086E-01-1.29018E-13 3.52282E-13
 -1      4296 1.94878E+01 1.27446E+00-8.56796E-04-3.84649E-01 8.68367E-14-2.20727E-13
 -1      4297 1.94402E+01 1.34090E+00 1.58438E-03-3.08504E-01 7.76250E-14-2.31091E-13
 -1      4298 1.87954E+01 1.25854E+00-2.94640E-03 1.05499E-01-1.19750E-15-2.01937E-13
 -1      4299 1.86937E+01 1.25059E+00 9.04661E-03-1.19502E-01 1.62153E-14-1.71553E-13
 -1      4300 1.89424E+01 1.27598E+00-6.33108E-03 6.73803E-02 6.75150E-15-2.15941E-13
 -1      4301 1.68597E+01 9.70780E-02-6.86994E-04 2.35511E+00-1.24651E-13-1.99973E-13
 -1      4302 1.93600E+01 1.33878E+00-1.60437E-03-2.28051E-01 3.92353E-14-2.13803E-13
 -1      4303 1.87512E+01 6.45771E-01 4.99726E-03-1.23079E+00-3.65531E-15-1.51669E-13
 -1      4304 1.88523E+01 7.47422E-01-5.64169E-03-1.07166E+00 3.46806E-15-1.62433E-13
 -1      4305 1.58571E+01 7.97598E-01 7.18491E-03 1.52242E+00-2.54220E-13 2.05152E-13
 -1      4306 1.61263E+01 9.30151E-01 1.04849E-02 1.20690E+00-9.34666E-14 2.20803E-13
 -1      4307 1.62784E+01 5.53226E-01-9.03351E-03 1.84055E+00-2.18917E-13 2.44522E-14
 -1      4308 1.84660E+01 3.73872E-01 9.85844E-03-1.62375E+00-5.05837E-14-1.79992E-13
 -1      4309 1.85266E+01 5.22424E-01-7.60436E-03-1.41562E+00-3.47936E-14-1.90409E-13
 -1      4310 1.83504E+01 7.41266E-01 1.99086E-03-1.18814E+00 6.18738E-15-2.08094E-13
 -1      4311 1.85183E+01-1.65744E-01-8.39137E-03-2.14844E+00-6.17006E-14-1.46647E-13
 -1      4312 1.63598E+01 5.93148E-01 1.28615E-02-1.73255E+00-3.66172E-14-2.61854E-13
 -1      4313 1.71771E+01 4.99798E-01 1.38198E-02-1.72284E+00-3.85280E-14-2.66740E-13
 -1      4314 1.61441E+01 8.36457E-01-1.88631E-02-1.17324E+00-3.70600E-14-2.75433E-13
 -1      4315 1.92821E+01 1.38539E+00 7.07014E-03-8.99251E-02 3.81406E-15-1.84202E-13
 -1      4316 1.92189E+01 1.34535E+00-4.24124E-03 2.16555E-02-3.92266E-15-2.15950E-13
 -1      4317 1.90981E+01 1.30985E+00-1.89177E-03 5.62968E-02 1.15711E-14-2.00354E-13
 -1      4318 1.92353E+01 1.27246E+00-4.69548E-03-2.67307E-01 3.18932E-14-1.89043E-13
 -1      4319 1.69947E+01 9.79231E-01 5.69401E-03-8.64601E-01 1.71599E-14-2.49871E-13
 -1      4320 1.91446E+01 7.70712E-01-3.17819E-03 2.29965E-01-2.17427E-13 1.44174E-13
 -1      4321 1.90309E+01 8.17091E-01-2.50484E-03 2.83025E-01-2.17146E-13 1.56449E-13
 -1      4322 1.88079E+01 9.03002E-01-4.56771E-03 2.40466E-01-1.96873E-13 3.15921E-13
 -1      4323 1.86699E+01 9.40927E-01-2.18109E-03 3.04687E-01-6.88729E-14 2.55753E-13
 -1      4324 1.78794E+01 1.08467E+00-8.96385E-03 4.08516E-01-2.15082E-13 1.47419E-13
 -1      4325 1.81418E+01 1.06334E+00-5.00723E-03 3.42877E-01-1.33467E-13 3.11160E-13
 -1      4326 1.84688E+01 9.77967E-01-6.36145E-03 3.56478E-01-1.08732E-13 2.94707E-13
 -1      4327 1.90029E+01 8.61129E-01-2.39709E-04 6.99377E-02-1.43163E-13 2.39916E-13
 -1      4328 1.91229E+01 8.03003E-01-1.62880E-03 5.26220E-02-1.22638E-13 2.70105E-13
 -1      4329 1.92613E+01 7.30760E-01-1.94376E-03 5.17869E-02-2.15798E-13 1.29837E-13
 -1      4330 1.93585E+01 6.72685E-01-2.28735E-03 4.45747E-02-2.38907E-13 9.03467E-14
 -1      4331 1.94804E+01 5.91489E-01-2.13055E-03 6.99135E-02-1.87105E-13 1.95384E-13
 -1      4332 1.95567E+01 5.38735E-01-1.46992E-03 6.32365E-02-2.00378E-13 6.93186E-14
 -1      4333 1.96142E+01 4.89144E-01-2.83249E-03 4.51330E-02-3.22804E-13 1.10718E-13
 -1      4334 1.96763E+01 4.42220E-01-1.37364E-03 4.22694E-02-2.35530E-13-1.75335E-13
 -1      4335 1.97216E+01 3.97385E-01-2.36325E-03 2.88426E-02-6.40420E-14-2.20230E-13
 -1      4336 1.97692E+01 3.56151E-01-1.13737E-03 2.83119E-02-4.60798E-14-2.55000E-13
 -1      4337 1.98040E+01 3.17158E-01-1.84962E-03 1.82904E-02 1.26674E-13-2.55500E-13
 -1      4338 1.98397E+01 2.81797E-01-8.85372E-04 1.88948E-02 1.97955E-13-1.83209E-13
 -1      4339 1.98659E+01 2.48784E-01-1.40166E-03 1.14571E-02 2.34738E-13-3.54854E-13
 -1      4340 1.98923E+01 2.19167E-01-6.38008E-04 1.25527E-02 2.00803E-13-1.79783E-13
 -1      4341 1.99115E+01 1.91971E-01-9.59978E-04 7.12950E-03 1.23336E-13-1.67585E-13
 -1      4342 1.99306E+01 1.67685E-01-3.41070E-04 8.17652E-03 2.47210E-13-1.75573E-13
 -1      4343 1.99418E+01 1.48749E-01-7.13201E-04 1.56654E-03 2.04750E-13-4.53421E-13
 -1      4344 1.99556E+01 1.28972E-01-2.03057E-04 2.83455E-03 1.24317E-13-4.60132E-13
 -1      4345 1.99638E+01 1.13180E-01-5.11851E-04-1.41214E-03 9.73654E-14-4.87875E-13
 -1      4346 1.77592E+01 9.10393E-01-8.71359E-03 9.16743E-01-2.09976E-13-7.82854E-14
 -1      4347 1.75604E+01 8.54314E-01 3.06214E-03 1.10077E+00-2.33306E-13-7.22810E-14
 -1      4348 1.93843E+01 6.53427E-01-2.22301E-04 1.79295E-01-1.73622E-13 8.00520E-14
 -1      4349 1.92904E+01 7.02026E-01-1.13168E-03 2.14565E-01-2.46692E-13 7.23978E-14
 -1      4350 1.95955E+01 1.14060E+00-1.28723E-03-5.32881E-01 8.40027E-14-2.01299E-13
 -1      4351 1.81324E+01 1.14405E-01-7.22462E-03-1.97303E+00-6.22829E-14-1.80139E-13
 -1      4352 1.71596E+01 1.10332E+00-1.35579E-02 5.86923E-01-2.85525E-13 1.54062E-13
 -1      4353 1.75258E+01 1.11986E+00-2.22198E-03 4.82184E-01-3.33472E-13 1.17614E-13
 -1      4354 1.77892E+01 4.24176E-01-6.76538E-04-1.71952E+00-4.20970E-14-2.70555E-13
 -1      4355 1.87522E+01 9.02233E-01 4.49037E-03-8.99834E-01-9.39131E-15-1.41585E-13
 -1      4356 1.90447E+01 8.18515E-01 2.63808E-03-9.58242E-01-4.05946E-15-1.72824E-13
 -1      4357 1.91547E+01 8.79070E-01-3.94428E-03-8.52463E-01 1.73417E-14-1.95287E-13
 -1      4358 1.94695E+01 1.10345E+00 1.31817E-03-5.61729E-01 7.66028E-14-2.20110E-13
 -1      4359 1.93755E+01 1.03929E+00-3.18456E-03-6.32004E-01 4.35021E-14-2.12781E-13
 -1      4360 1.92722E+01 1.18802E+00 5.39413E-03-4.66755E-01 5.19396E-14-2.13594E-13
 -1      4361 1.91416E+01 1.22036E+00-3.35813E-03-3.26682E-01 2.40504E-14-1.64800E-13
 -1      4362 1.92751E+01 9.75841E-01 4.74535E-04-7.21276E-01 3.75214E-14-2.03563E-13
 -1      4363 1.75077E+01 6.86723E-01-1.08195E-02-1.36801E+00-2.83304E-14-2.34214E-13
 -1      4364 1.91981E+01 7.65210E-01 2.59073E-03 1.37422E-01-2.16466E-13 7.06431E-14
 -1      4365 1.90170E+01 1.29516E+00 7.62056E-03-1.23967E-01 1.81575E-14-1.75326E-13
 -1      4366 1.84887E+01 9.36905E-01 6.40778E-03 5.70865E-01-6.91334E-14 1.52497E-13
 -1      4367 1.94615E+01 6.10485E-01 2.27859E-03 1.51104E-01-1.27028E-13 1.13805E-13
 -1      4368 1.71846E+01 1.01715E+00 1.32715E-02 9.35759E-01-2.70594E-13-3.48601E-14
 -1      4369 1.72915E+01 7.69831E-01-1.53174E-02 1.28900E+00-2.01437E-13-1.01277E-13
 -1      4370 1.70965E+01 6.96336E-01 1.26202E-03 1.47733E+00-2.11016E-13-1.29995E-13
 -1      4371 1.69422E+01 1.08560E+00 4.78998E-03 7.34738E-01-2.26646E-13 1.20980E-13
 -1      4372 1.63631E+01 1.00967E+00-6.96426E-03 1.01170E+00-1.61086E-13 1.90986E-13
 -1      4373 1.78056E+01 1.03702E+00 7.95576E-03 6.67654E-01-2.01361E-13-3.22459E-14
 -1      4374 1.85068E+01 9.86366E-01 2.28243E-03-7.45531E-01 2.48221E-14-1.52766E-13
 -1      4375 1.86871E+01 1.02382E+00-4.90795E-03-6.52249E-01 7.31696E-15-1.50355E-13
 -1      4376 1.79674E+01 8.27276E-01 8.88691E-03-1.09394E+00-1.48317E-14-2.02040E-13
 -1      4377 1.81583E+01 8.99752E-01-8.33472E-03-9.22692E-01 8.72859E-15-2.05015E-13
 -1      4378 1.81460E+01 1.05586E+00 4.43772E-03-6.53468E-01 2.24397E-14-1.99303E-13
 -1      4379 1.73586E+01 8.88827E-01 5.67063E-03-1.07888E+00-3.87429E-15-2.53675E-13
 -1      4380 1.74164E+01 1.03848E+00-1.57179E-02-6.30452E-01 4.05292E-14-2.21784E-13
 -1      4381 1.88491E+01 9.27419E-01 3.87787E-03 9.64056E-02-1.36318E-13 3.16861E-13
 -1      4382 1.84742E+01 1.16806E+00-1.64600E-03-3.01295E-01 1.96935E-14-1.96977E-13
 -1      4383 1.81717E+01 1.13712E+00-8.03130E-03-3.69547E-01 3.98682E-14-1.83913E-13
 -1      4384 1.78308E+01 1.09740E+00 2.55404E-03-5.20518E-01 4.50521E-14-2.15556E-13
 -1      4385 1.86505E+01 1.17491E+00-4.11935E-03-2.94342E-01 2.24651E-14-1.52865E-13
 -1      4386 1.86640E+01 1.13348E+00 6.21115E-03-4.74716E-01 1.28447E-14-1.38005E-13
 -1      4387 1.88759E+01 1.04570E+00 5.61861E-04-6.23918E-01-1.04325E-15-1.33218E-13
 -1      4388 1.88262E+01 1.19206E+00-5.51490E-03-2.90339E-01 1.25804E-14-1.65799E-13
 -1      4389 1.66615E+01 8.61528E-01 3.88153E-03 1.31525E+00-1.32716E-13 4.71469E-14
 -1      4390 1.68410E+01 5.88720E-01-7.56964E-03 1.68607E+00-1.73177E-13-5.90297E-14
 -1      4391 1.81284E+01 9.13311E-01 1.20167E-04 7.98818E-01-5.16634E-14 1.01141E-13
 -1      4392 1.67868E+01 4.06304E-01-1.93761E-03 1.97953E+00-2.17727E-13-1.98082E-13
 -1      4393 1.90510E+01 1.04044E+00 1.43917E-03-6.61827E-01 2.86326E-14-1.53718E-13
 -1      4394 1.89991E+01 1.18989E+00-2.73704E-03-3.34097E-01 2.70716E-14-1.69222E-13
 -1      4395 1.83142E+01 9.25226E-01-2.64088E-03 6.71421E-01-2.91342E-14 4.35022E-14
 -1      4396 1.90066E+01 1.13473E+00 2.73472E-03-4.94622E-01 2.67871E-14-1.57133E-13
 -3
    1PSTEP                         3           1           1          
  100CL  101 1.000000000        4396                     0    1           1
 -4  TOSTRAIN    6    1
 -5  EXX         1    4    1    1
 -5  EYY         1    4    2    2
 -5  EZZ         1    4    3    3
 -5  EXY         1    4    1    2
 -5  EYZ         1    4    2    3
 -5  EZX         1    4    3    1
 -1         1 1.58681E-04-8.83532E-06-5.73890E-05 1.13800E-04-8.04258E-18-1.54113E-17
 -1         2 3.64057E-05-1.11217E-04 2.01788E-05-8.36816E-07 7.66882E-18 4.33257E-19
 -1         3 9.52380E-05-2.85702E-05-2.85717E-05 1.74370E-09-2.98161E-18-2.44386E-18
 -1         4 9.52379E-05-2.85703E-05-2.85718E-05-1.52821E-09 2.45818E-18-7.59784E-19
 -1         5 1.42062E-04-2.12078E-05-4.23176E-05 3.80810E-05-2.66498E-19 1.82833E-17
 -1         6 1.43913E-04 2.56500E-10-4.39359E-05-5.27975E-05-1.11872E-18 1.49675E-17
 -1         7 9.07650E-05-5.63753E-07-3.90435E-05-2.85409E-05-1.70465E-19 1.62908E-18
 -1         8 8.55387E-05 5.68522E-08-3.64681E-05-1.93222E-05-1.80233E-19-2.20381E-18
 -1         9 8.32587E-05 5.76862E-08-3.55145E-05-1.45279E-05-1.52889E-19-4.17619E-18
 -1        10 8.20877E-05 3.02585E-08-3.50103E-05-1.09310E-05-8.90179E-20-5.04831E-18
 -1        11 8.13711E-05 1.72235E-08-3.47136E-05-7.96475E-06-6.23165E-20-5.33386E-18
 -1        12 8.09016E-05 1.21715E-08-3.45260E-05-5.44824E-06-1.83336E-20-5.32789E-18
 -1        13 8.05983E-05 1.12404E-08-3.44080E-05-3.15942E-06-1.49223E-21-5.22253E-18
 -1        14 8.04522E-05 1.11573E-08-3.43514E-05-1.02400E-06 3.41609E-20-5.06993E-18
 -1        15 8.04569E-05 1.10390E-08-3.43526E-05 1.06781E-06 5.82070E-20-4.85258E-18
 -1        16 8.06105E-05 1.09270E-08-3.44109E-05 3.22202E-06 8.45197E-20-4.62644E-18
 -1        17 8.09166E-05 1.10996E-08-3.45289E-05 5.54612E-06 1.15746E-19-4.31467E-18
 -1        18 8.13834E-05 1.61021E-08-3.47146E-05 8.10599E-06 1.41421E-19-3.72222E-18
 -1        19 8.20969E-05 2.96106E-08-3.50111E-05 1.11300E-05 1.97286E-19-2.77512E-18
 -1        20 8.32556E-05 6.43100E-08-3.55177E-05 1.47877E-05 2.23709E-19-1.18936E-18
 -1        21 8.54854E-05 1.39100E-07-3.64997E-05 1.95623E-05 2.54428E-19 1.69175E-18
 -1        22 9.17205E-05-1.44069E-07-3.87210E-05 2.73248E-05 2.60463E-20 7.01962E-18
 -1        23 1.12594E-04-3.80086E-05-3.52928E-05-4.21483E-06-7.54521E-19 1.11404E-17
 -1        24 9.33026E-05-2.78542E-05-2.91334E-05 4.08541E-07-2.27746E-19 7.77360E-18
 -1        25 9.03406E-05-2.72252E-05-2.72929E-05 3.79179E-07-7.55514E-20 4.67728E-18
 -1        26 9.00356E-05-2.71019E-05-2.70049E-05 2.09188E-07-4.28810E-21 2.56202E-18
 -1        27 9.10631E-05-2.73823E-05-2.73040E-05 1.50978E-07 4.86465E-21 1.20228E-18
 -1        28 9.29086E-05-2.79142E-05-2.78735E-05 1.22276E-07-1.38914E-19 4.50913E-20
 -1        29 9.53957E-05-2.86480E-05-2.86327E-05 1.12250E-07 9.80329E-20-7.30804E-19
 -1        30 9.84851E-05-2.95675E-05-2.95700E-05 1.16492E-07 3.49753E-20-1.26078E-18
 -1        31 1.02196E-04-3.06749E-05-3.06921E-05 1.33864E-07 2.18669E-20-1.99607E-18
 -1        32 1.06552E-04-3.19742E-05-3.20035E-05 1.63704E-07-3.33412E-19-3.15137E-18
 -1        33 1.11504E-04-3.34499E-05-3.34832E-05 2.02480E-07 1.07265E-19-4.31869E-18
 -1        34 1.16827E-04-3.50342E-05-3.50505E-05 2.38236E-07-2.68515E-20-4.18285E-18
 -1        35 1.21954E-04-3.65606E-05-3.65187E-05 2.41958E-07-1.68680E-19-4.49801E-18
 -1        36 1.25810E-04-3.77131E-05-3.75537E-05 1.59559E-07 2.25304E-19-4.10067E-18
 -1        37 1.26764E-04-3.80105E-05-3.76892E-05-8.00650E-08-3.63756E-19-2.43336E-18
 -1        38 1.23016E-04-3.69114E-05-3.64758E-05-5.11987E-07 3.03708E-20-3.75079E-18
 -1        39 1.13750E-04-3.41484E-05-3.38239E-05-1.01580E-06-2.76067E-19-4.83793E-18
 -1        40 1.00824E-04-3.02531E-05-3.03573E-05-1.24779E-06-1.37242E-19-5.93161E-18
 -1        41 8.93721E-05-2.67700E-05-2.74288E-05-8.50122E-07 1.70565E-20-7.25193E-18
 -1        42 8.54168E-05-2.55609E-05-2.64435E-05 1.00653E-07 1.35790E-20-7.10618E-18
 -1        43 9.13320E-05-2.73675E-05-2.79315E-05 9.83617E-07-8.38794E-20-6.99488E-18
 -1        44 1.03754E-04-3.11387E-05-3.11416E-05 1.24867E-06-3.81849E-20-7.33250E-18
 -1        45 1.16489E-04-3.49693E-05-3.46010E-05 9.29830E-07-4.63760E-19-7.85295E-18
 -1        46 1.24961E-04-3.74897E-05-3.70694E-05 4.20455E-07-3.04975E-19-9.48240E-18
 -1        47 1.27958E-04-3.83660E-05-3.80800E-05 2.49850E-08-7.59104E-20-9.09602E-18
 -1        48 1.26626E-04-3.79588E-05-3.78304E-05-1.76669E-07 5.27490E-19-5.92279E-18
 -1        49 1.22811E-04-3.68205E-05-3.67984E-05-2.33043E-07-2.44012E-19-3.46868E-18
 -1        50 1.18061E-04-3.54076E-05-3.54354E-05-2.14432E-07-2.26586E-19-4.35159E-18
 -1        51 1.13352E-04-3.40061E-05-3.40474E-05-1.69717E-07 1.25710E-19-2.90753E-18
 -1        52 1.09170E-04-3.27591E-05-3.27968E-05-1.23520E-07-3.25967E-20-1.03709E-18
 -1        53 1.05685E-04-3.17177E-05-3.17464E-05-8.50605E-08-1.79202E-19-3.08715E-18
 -1        54 1.02898E-04-3.08829E-05-3.09027E-05-5.60602E-08 3.53617E-19-1.40227E-18
 -1        55 1.00732E-04-3.02328E-05-3.02456E-05-3.53645E-08-6.17397E-19-1.61569E-18
 -1        56 9.90869E-05-2.97378E-05-2.97455E-05-2.11070E-08-4.21155E-20-2.04980E-18
 -1        57 9.78603E-05-2.93682E-05-2.93725E-05-1.15468E-08 1.92500E-19-2.38455E-18
 -1        58 9.69628E-05-2.90972E-05-2.90993E-05-5.30177E-09 4.00771E-20-2.53017E-18
 -1        59 9.63188E-05-2.89024E-05-2.89032E-05-1.34840E-09 2.51934E-19-3.55937E-18
 -1        60 9.58673E-05-2.87655E-05-2.87655E-05 1.04556E-09-4.55761E-19-2.23420E-18
 -1        61 9.55596E-05-2.86720E-05-2.86716E-05 2.39562E-09 3.26224E-19-3.26203E-18
 -1        62 9.53581E-05-2.86106E-05-2.86099E-05 3.06217E-09-4.89614E-19-6.52212E-18
 -1        63 9.52335E-05-2.85725E-05-2.85717E-05 3.29639E-09-4.17795E-19-7.37948E-18
 -1        64 9.51640E-05-2.85510E-05-2.85503E-05 3.27284E-09 1.93762E-20-5.72823E-18
 -1        65 9.51329E-05-2.85412E-05-2.85405E-05 3.11203E-09-2.58834E-20-2.36883E-18
 -1        66 9.51281E-05-2.85393E-05-2.85388E-05 2.89564E-09-1.36796E-19-2.87711E-18
 -1        67 9.51403E-05-2.85427E-05-2.85423E-05 2.67542E-09 6.71775E-19-2.07004E-18
 -1        68 9.51627E-05-2.85492E-05-2.85488E-05 2.47491E-09 4.24840E-19 2.55620E-18
 -1        69 9.51897E-05-2.85571E-05-2.85567E-05 2.26249E-09-9.38888E-20 3.06218E-18
 -1        70 9.52157E-05-2.85648E-05-2.85641E-05 1.78805E-09-4.38082E-19 1.80485E-18
 -1        71 9.52342E-05-2.85707E-05-2.85693E-05 8.13226E-10-4.66484E-19 9.65136E-19
 -1        72 1.01943E-04-3.05083E-05-3.40811E-05-1.95981E-06 2.28037E-19 1.70840E-17
 -1        73 9.30940E-05-2.76796E-05-2.90537E-05-3.40942E-07 6.55392E-20 1.38056E-17
 -1        74 9.03187E-05-2.70701E-05-2.73336E-05-1.25332E-07 7.08472E-20 1.11168E-17
 -1        75 8.99923E-05-2.70264E-05-2.70262E-05-9.26435E-08-2.52762E-20 9.57449E-18
 -1        76 9.09040E-05-2.72969E-05-2.72708E-05-7.55078E-08 8.86026E-20 7.98018E-18
 -1        77 9.25285E-05-2.77741E-05-2.77621E-05-6.70237E-08-1.72418E-20 6.80142E-18
 -1        78 9.46259E-05-2.83956E-05-2.83956E-05-6.57664E-08-1.06207E-19 6.79755E-18
 -1        79 9.70600E-05-2.91201E-05-2.91263E-05-7.08514E-08 5.92224E-20 6.13812E-18
 -1        80 9.97154E-05-2.99116E-05-2.99190E-05-8.17177E-08-2.93700E-20 5.04611E-18
 -1        81 1.02446E-04-3.07261E-05-3.07277E-05-9.68943E-08 2.05884E-19 4.25273E-18
 -1        82 1.05030E-04-3.14978E-05-3.14831E-05-1.12360E-07-2.02690E-19 4.15646E-18
 -1        83 1.07134E-04-3.21284E-05-3.20832E-05-1.19739E-07 1.41185E-19 3.64886E-18
 -1        84 1.08302E-04-3.24839E-05-3.23935E-05-1.05214E-07-2.12064E-20 3.65725E-18
 -1        85 1.08008E-04-3.24074E-05-3.22654E-05-5.14735E-08 1.23201E-19 4.08097E-18
 -1        86 1.05797E-04-3.17612E-05-3.15832E-05 5.38511E-08 5.66834E-20 3.19877E-18
 -1        87 1.01548E-04-3.05018E-05-3.03374E-05 2.02268E-07-3.45688E-19 4.01146E-18
 -1        88 9.57762E-05-2.87720E-05-2.86987E-05 3.49330E-07-9.40685E-21 4.76107E-18
 -1        89 8.97673E-05-2.69500E-05-2.70363E-05 4.20393E-07 1.37684E-19 3.06614E-18
 -1        90 8.53099E-05-2.55781E-05-2.58286E-05 3.51539E-07-1.53229E-19 2.90665E-18
 -1        91 8.39658E-05-2.51450E-05-2.54744E-05 1.47389E-07-2.60201E-19 2.69323E-18
 -1        92 8.62585E-05-2.58257E-05-2.61015E-05-1.07304E-07 3.17469E-19 1.72789E-18
 -1        93 9.13856E-05-2.73796E-05-2.75078E-05-3.01900E-07-8.16171E-20 3.26108E-19
 -1        94 9.76694E-05-2.92898E-05-2.92578E-05-3.73211E-07 1.67038E-19-1.32791E-18
 -1        95 1.03399E-04-3.10286E-05-3.08910E-05-3.31521E-07-3.71618E-19-1.50196E-18
 -1        96 1.07471E-04-3.22586E-05-3.20898E-05-2.29478E-07-2.28083E-19 3.03092E-19
 -1        97 1.09552E-04-3.28821E-05-3.27358E-05-1.19742E-07 1.46278E-19 1.33494E-19
 -1        98 1.09878E-04-3.29749E-05-3.28742E-05-3.28415E-08-4.27730E-19-1.41353E-18
 -1        99 1.08948E-04-3.26909E-05-3.26358E-05 2.26946E-08-8.48572E-20-1.13168E-18
 -1       100 1.07288E-04-3.21892E-05-3.21690E-05 5.09724E-08-8.62250E-20-1.57308E-18
 -1       101 1.05325E-04-3.15982E-05-3.15999E-05 6.02414E-08 4.11212E-20-2.25806E-18
 -1       102 1.03351E-04-3.10054E-05-3.10187E-05 5.82651E-08 3.19974E-20-1.90350E-18
 -1       103 1.01543E-04-3.04627E-05-3.04805E-05 5.07474E-08-8.19375E-20-1.37946E-18
 -1       104 9.99830E-05-2.99950E-05-3.00132E-05 4.13029E-08-7.43399E-20 6.15905E-19
 -1       105 9.86975E-05-2.96096E-05-2.96260E-05 3.19573E-08 3.58289E-19-8.29158E-19
 -1       106 9.76758E-05-2.93033E-05-2.93170E-05 2.36907E-08-5.71186E-19-2.28559E-18
 -1       107 9.68890E-05-2.90674E-05-2.90783E-05 1.68593E-08 5.75740E-19-3.84849E-18
 -1       108 9.63009E-05-2.88910E-05-2.88994E-05 1.14784E-08-1.54375E-19-8.27029E-18
 -1       109 9.58747E-05-2.87631E-05-2.87694E-05 7.39884E-09-4.19291E-19-3.02649E-18
 -1       110 9.55762E-05-2.86735E-05-2.86780E-05 4.40818E-09 1.33260E-19-3.04934E-18
 -1       111 9.53759E-05-2.86133E-05-2.86165E-05 2.28552E-09 2.74435E-20-2.50820E-18
 -1       112 9.52493E-05-2.85753E-05-2.85774E-05 8.27710E-10-5.72176E-19-2.73554E-18
 -1       113 9.51767E-05-2.85534E-05-2.85548E-05-1.40173E-10 4.87787E-19-2.44885E-18
 -1       114 9.51425E-05-2.85431E-05-2.85439E-05-7.63129E-10 2.65557E-20-4.65322E-18
 -1       115 9.51350E-05-2.85407E-05-2.85412E-05-1.16000E-09 1.67431E-19-6.63805E-18
 -1       116 9.51452E-05-2.85437E-05-2.85440E-05-1.42517E-09 1.02540E-19-5.45528E-18
 -1       117 9.51661E-05-2.85499E-05-2.85500E-05-1.62309E-09-3.32889E-19-6.77884E-18
 -1       118 9.51920E-05-2.85576E-05-2.85574E-05-1.80091E-09 4.10609E-19-1.12153E-17
 -1       119 9.52170E-05-2.85651E-05-2.85645E-05-1.88639E-09-4.89114E-19-1.08002E-17
 -1       120 9.52342E-05-2.85708E-05-2.85694E-05-1.16862E-09 9.96204E-19-6.23029E-18
 -1       121 9.52382E-05-2.85750E-05-2.85694E-05-1.06113E-09-4.64552E-18 1.78269E-18
 -1       122 9.52433E-05-2.85914E-05-2.85647E-05-1.64461E-09 1.40510E-19-2.63862E-19
 -1       123 9.52498E-05-2.86131E-05-2.85587E-05-1.54952E-09-1.24264E-18 1.06705E-18
 -1       124 9.52558E-05-2.86333E-05-2.85528E-05-1.15921E-09-1.74824E-18 1.29299E-18
 -1       125 9.52605E-05-2.86492E-05-2.85481E-05-7.55626E-10-3.65064E-19-1.72540E-18
 -1       126 9.52638E-05-2.86601E-05-2.85448E-05-4.51440E-10-3.60114E-18-9.23359E-19
 -1       127 9.52658E-05-2.86669E-05-2.85426E-05-2.32403E-10-9.05106E-19 1.29062E-18
 -1       128 9.52668E-05-2.86702E-05-2.85416E-05-8.56662E-11-2.00379E-18-8.22822E-19
 -1       129 9.52670E-05-2.86707E-05-2.85415E-05 3.87147E-11-2.17537E-18 5.31099E-19
 -1       130 9.52662E-05-2.86680E-05-2.85423E-05 1.96615E-10 9.37258E-19 6.35828E-19
 -1       131 9.52643E-05-2.86617E-05-2.85443E-05 4.46281E-10-1.80602E-18-1.86896E-18
 -1       132 9.52610E-05-2.86509E-05-2.85476E-05 7.72128E-10-6.64690E-18 1.92799E-18
 -1       133 9.52562E-05-2.86347E-05-2.85524E-05 1.20309E-09-6.68395E-18 5.24150E-19
 -1       134 9.52500E-05-2.86139E-05-2.85585E-05 1.67293E-09-9.11360E-18-1.40243E-18
 -1       135 9.52435E-05-2.85920E-05-2.85646E-05 2.34582E-09-7.98484E-18-1.63250E-19
 -1       136 9.52386E-05-2.85756E-05-2.85694E-05 1.06624E-09-4.65664E-18 1.66476E-18
 -1       137 2.40798E-05-8.32345E-05 1.48033E-05-2.30162E-05 1.27038E-17 3.47032E-18
 -1       138 7.49620E-06-2.92455E-05 1.84144E-06-1.39699E-05 1.72278E-17 8.75853E-18
 -1       139 1.43214E-05 1.83842E-05-1.70395E-05 2.96322E-05 1.63215E-17 1.22710E-17
 -1       140 6.42254E-05 2.71417E-05-3.72619E-05 8.35450E-05 1.23667E-17 1.49298E-17
 -1       141 1.54058E-04-7.03598E-06-5.62942E-05 1.12729E-04 7.49603E-18 1.37406E-17
 -1       142 2.51381E-04-6.02981E-05-7.13985E-05 9.15879E-05 1.64896E-18 4.38678E-18
 -1       143 3.03427E-04-9.27845E-05-7.80625E-05 2.62653E-05-4.50251E-20-5.92023E-18
 -1       144 2.90028E-04-8.37817E-05-7.65101E-05-5.45571E-05 2.38339E-18-1.57070E-17
 -1       145 2.10591E-04-3.68681E-05-6.54167E-05-1.07645E-04 6.98961E-18-1.86538E-17
 -1       146 1.14513E-04 1.11348E-05-4.90631E-05-1.06609E-04 1.27169E-17-1.88647E-17
 -1       147 4.09034E-05 2.93921E-05-3.00003E-05-6.49762E-05 1.62541E-17-1.70588E-17
 -1       148 7.27089E-06 5.36565E-06-1.01291E-05-1.11478E-05 1.69072E-17-1.14923E-17
 -1       149 1.18988E-05-4.99024E-05 7.43195E-06 2.33309E-05 1.40654E-17-5.25065E-18
 -1       150 3.03900E-05-9.73652E-05 1.74483E-05 1.97869E-05 5.56903E-18-1.31812E-18
 -1       151 3.67155E-05-1.11981E-04 2.02648E-05-5.39222E-06-5.21809E-18-5.84929E-19
 -1       152 2.39434E-05-8.46750E-05 1.51060E-05-2.62241E-05-1.49306E-17-4.06661E-18
 -1       153 7.28322E-06-3.08852E-05 2.07126E-06-1.67789E-05-2.00967E-17-1.00304E-17
 -1       154 1.25653E-05 1.46368E-05-1.55463E-05 2.40510E-05-1.80270E-17-1.32611E-17
 -1       155 6.48488E-05 2.42295E-05-3.67570E-05 8.03395E-05-1.24963E-17-1.49057E-17
 -1       156 2.54244E-04-6.03286E-05-7.20464E-05 9.53899E-05-3.11576E-18-1.05985E-17
 -1       157 3.11898E-04-9.48399E-05-7.96916E-05 2.92091E-05-2.24940E-19 3.45166E-19
 -1       158 3.01525E-04-8.87585E-05-7.82851E-05-5.11422E-05-2.10378E-18 1.14269E-17
 -1       159 2.30759E-04-4.69028E-05-6.87649E-05-1.04920E-04-5.40238E-18 1.66641E-17
 -1       160 1.31686E-04 2.62948E-06-5.21428E-05-1.08401E-04-1.12975E-17 1.83438E-17
 -1       161 4.74228E-05 2.66709E-05-3.17040E-05-6.78308E-05-1.84492E-17 1.87584E-17
 -1       162 7.43564E-06 6.62306E-06-1.10292E-05-1.18165E-05-1.66268E-17 1.27927E-17
 -1       163 9.81126E-06-4.38773E-05 5.76388E-06 2.29009E-05-1.02525E-17 4.17121E-18
 -1       164 2.77144E-05-9.27761E-05 1.66941E-05 2.41816E-05-2.17899E-19 4.96811E-19
 -1       165 9.54081E-05-1.26328E-05-3.56697E-05-2.13376E-05-2.37407E-18-2.48525E-19
 -1       166 8.98429E-05-8.63300E-06-3.49600E-05-1.62449E-05-2.00151E-18-2.62998E-18
 -1       167 8.69489E-05-6.50379E-06-3.45846E-05-1.23814E-05-1.47862E-18-3.81947E-18
 -1       168 8.52776E-05-5.31437E-06-3.43505E-05-9.22930E-06-1.00539E-18-4.34805E-18
 -1       169 8.42018E-05-4.56312E-06-3.41957E-05-6.57938E-06-5.41188E-19-4.46327E-18
 -1       170 8.34839E-05-4.07217E-06-3.40904E-05-4.21331E-06-1.17753E-19-4.47275E-18
 -1       171 8.30768E-05-3.80028E-06-3.40285E-05-2.05250E-06 2.87722E-19-4.31560E-18
 -1       172 8.29545E-05-3.72319E-06-3.40080E-05 1.44593E-08 6.22370E-19-4.16732E-18
 -1       173 8.31081E-05-3.83238E-06-3.40285E-05 2.09165E-06 1.01749E-18-4.00306E-18
 -1       174 8.35394E-05-4.13173E-06-3.40894E-05 4.28132E-06 1.31081E-18-3.73805E-18
 -1       175 8.42548E-05-4.63195E-06-3.41900E-05 6.64588E-06 1.62388E-18-3.28920E-18
 -1       176 8.53531E-05-5.41141E-06-3.43426E-05 9.38391E-06 2.07300E-18-2.56240E-18
 -1       177 8.70412E-05-6.62858E-06-3.45754E-05 1.26124E-05 2.40935E-18-1.47904E-18
 -1       178 8.99610E-05-8.77899E-06-3.49539E-05 1.65164E-05 2.54216E-18 5.19708E-19
 -1       179 9.62731E-05-1.38663E-05-3.55215E-05 2.09441E-05 2.31593E-18 3.81236E-18
 -1       180 1.05800E-04-2.62461E-05-3.52709E-05 1.79626E-05 1.59577E-18 8.09446E-18
 -1       181 1.03855E-04-2.74911E-05-3.27233E-05-1.13797E-05-2.13844E-18 2.71940E-18
 -1       182 9.80724E-05-2.85750E-05-2.98167E-05-3.98129E-06-1.79061E-18 1.77785E-18
 -1       183 9.50908E-05-2.80718E-05-2.86716E-05-9.19570E-07-1.22045E-18 1.05837E-18
 -1       184 9.43168E-05-2.80402E-05-2.83655E-05 6.42390E-07-8.74990E-19 3.48680E-19
 -1       185 9.47077E-05-2.82268E-05-2.84693E-05 1.62431E-06-6.82904E-19-1.02551E-19
 -1       186 9.59048E-05-2.86079E-05-2.88278E-05 2.37296E-06-6.69843E-19-4.13089E-19
 -1       187 9.77278E-05-2.91548E-05-2.93788E-05 3.04031E-06-3.19635E-19-9.90203E-19
 -1       188 1.00094E-04-2.98563E-05-3.00946E-05 3.69522E-06-4.40471E-19-1.19191E-18
 -1       189 1.02961E-04-3.07145E-05-3.09583E-05 4.34649E-06-7.41840E-19-1.37054E-18
 -1       190 1.06280E-04-3.17372E-05-3.19466E-05 4.93244E-06-6.20709E-19-1.34745E-18
 -1       191 1.09945E-04-3.29275E-05-3.30132E-05 5.29011E-06-2.45198E-19-2.05431E-18
 -1       192 1.13727E-04-3.42649E-05-3.40685E-05 5.11727E-06-2.57937E-19-2.27307E-18
 -1       193 1.17202E-04-3.56656E-05-3.49638E-05 3.96434E-06 1.68917E-19-2.11948E-18
 -1       194 1.19690E-04-3.69084E-05-3.54978E-05 1.34676E-06 5.00365E-19-1.90725E-18
 -1       195 1.20290E-04-3.75453E-05-3.54741E-05-2.88926E-06-2.72070E-19-9.54751E-19
 -1       196 1.18142E-04-3.68928E-05-3.48197E-05-7.90878E-06-5.23513E-19-7.06889E-19
 -1       197 1.13121E-04-3.44409E-05-3.37226E-05-1.13607E-05-6.85236E-19-7.34206E-19
 -1       198 1.06803E-04-3.07843E-05-3.26058E-05-1.02199E-05-9.93689E-19-2.00782E-18
 -1       199 1.02497E-04-2.80557E-05-3.19492E-05-3.54894E-06-8.87002E-19-2.96342E-18
 -1       200 1.03080E-04-2.84027E-05-3.20493E-05 5.33536E-06-1.71762E-19-4.35369E-18
 -1       201 1.08203E-04-3.15592E-05-3.28671E-05 1.10903E-05-4.36652E-19-5.10816E-18
 -1       202 1.14654E-04-3.51611E-05-3.40697E-05 1.11818E-05-4.26231E-19-5.44621E-18
 -1       203 1.19358E-04-3.73119E-05-3.51659E-05 7.21166E-06-3.07314E-19-4.28683E-18
 -1       204 1.21131E-04-3.77167E-05-3.57639E-05 2.24777E-06-5.87795E-20-2.91732E-18
 -1       205 1.20324E-04-3.69808E-05-3.57387E-05-1.64788E-06 9.13141E-19-2.87319E-18
 -1       206 1.17851E-04-3.57576E-05-3.52010E-05-3.88519E-06 9.11358E-19-4.07691E-18
 -1       207 1.14591E-04-3.44505E-05-3.43572E-05-4.73060E-06-2.78139E-21-3.52870E-18
 -1       208 1.11172E-04-3.32467E-05-3.34006E-05-4.68771E-06 1.22564E-18-2.25687E-18
 -1       209 1.07968E-04-3.22118E-05-3.24656E-05-4.18965E-06 9.99906E-19-1.36030E-18
 -1       210 1.05161E-04-3.13557E-05-3.16266E-05-3.52219E-06-8.38743E-19-1.22465E-18
 -1       211 1.02811E-04-3.06654E-05-3.09139E-05-2.84480E-06 9.82525E-21-6.44821E-19
 -1       212 1.00905E-04-3.01194E-05-3.03310E-05-2.23310E-06-2.62547E-19-1.73014E-18
 -1       213 9.93975E-05-2.96948E-05-2.98673E-05-1.71448E-06-5.76024E-20-1.86484E-18
 -1       214 9.82289E-05-2.93698E-05-2.95064E-05-1.29148E-06 3.13533E-19-2.05166E-18
 -1       215 9.73395E-05-2.91250E-05-2.92310E-05-9.55421E-07 6.50697E-20-1.76728E-18
 -1       216 9.66745E-05-2.89435E-05-2.90245E-05-6.93617E-07-1.14783E-18-1.70065E-18
 -1       217 9.61864E-05-2.88115E-05-2.88725E-05-4.92924E-07-5.14011E-19-2.54470E-18
 -1       218 9.58355E-05-2.87176E-05-2.87629E-05-3.41304E-07-4.54195E-19-2.86354E-18
 -1       219 9.55893E-05-2.86526E-05-2.86857E-05-2.28382E-07-1.40235E-18-3.57580E-18
 -1       220 9.54220E-05-2.86092E-05-2.86330E-05-1.45525E-07-5.86524E-19-2.78230E-18
 -1       221 9.53133E-05-2.85816E-05-2.85985E-05-8.57177E-08 1.04291E-18-3.06761E-18
 -1       222 9.52471E-05-2.85656E-05-2.85772E-05-4.33767E-08 1.86399E-18-2.80172E-18
 -1       223 9.52114E-05-2.85577E-05-2.85655E-05-1.41520E-08 4.18208E-19-2.81297E-19
 -1       224 9.51969E-05-2.85554E-05-2.85604E-05 5.23598E-09 1.37665E-18 1.22278E-18
 -1       225 9.51964E-05-2.85569E-05-2.85596E-05 1.71127E-08 1.89421E-18 2.02570E-18
 -1       226 9.52042E-05-2.85607E-05-2.85614E-05 2.28973E-08 1.40971E-18 5.07300E-19
 -1       227 9.52159E-05-2.85658E-05-2.85643E-05 2.30265E-08-2.13039E-19 1.87236E-18
 -1       228 9.52280E-05-2.85715E-05-2.85670E-05 1.72037E-08 2.91796E-20 2.84070E-18
 -1       229 1.00116E-04-2.87564E-05-3.07588E-05 6.60379E-06 1.62567E-18 7.03305E-18
 -1       230 9.55773E-05-2.81308E-05-2.88741E-05 2.13534E-06 1.31577E-18 5.70015E-18
 -1       231 9.38841E-05-2.79110E-05-2.82283E-05 2.34007E-07 9.41146E-19 4.56732E-18
 -1       232 9.36860E-05-2.79602E-05-2.81406E-05-7.78345E-07 9.80775E-19 3.75019E-18
 -1       233 9.43872E-05-2.82176E-05-2.83443E-05-1.40250E-06 4.73095E-19 3.20271E-18
 -1       234 9.56719E-05-2.86294E-05-2.87255E-05-1.82614E-06 1.27371E-19 2.82058E-18
 -1       235 9.73506E-05-2.91540E-05-2.92239E-05-2.12051E-06 5.16693E-19 2.23671E-18
 -1       236 9.92828E-05-2.97591E-05-2.97952E-05-2.29589E-06 5.23317E-19 2.09736E-18
 -1       237 1.01328E-04-3.04110E-05-3.03942E-05-2.31944E-06 4.51501E-19 1.82713E-18
 -1       238 1.03310E-04-3.10649E-05-3.09645E-05-2.12236E-06-9.22761E-20 1.91340E-18
 -1       239 1.04993E-04-3.16547E-05-3.14331E-05-1.61168E-06 3.47286E-19 2.00516E-18
 -1       240 1.06076E-04-3.20848E-05-3.17114E-05-6.99111E-07-1.08162E-20 1.79904E-18
 -1       241 1.06219E-04-3.22302E-05-3.17076E-05 6.41148E-07 1.58087E-19 1.49811E-18
 -1       242 1.05131E-04-3.19550E-05-3.13556E-05 2.28578E-06-1.74552E-20 1.74294E-18
 -1       243 1.02714E-04-3.11652E-05-3.06567E-05 3.88055E-06-5.88168E-19 2.43199E-18
 -1       244 9.92476E-05-2.98994E-05-2.97171E-05 4.84854E-06 2.03313E-19 1.80731E-18
 -1       245 9.54960E-05-2.84182E-05-2.87530E-05 4.58944E-06 7.93834E-19 1.46435E-18
 -1       246 9.25813E-05-2.71946E-05-2.80372E-05 2.85572E-06 1.87820E-19 1.17504E-18
 -1       247 9.15499E-05-2.67266E-05-2.77972E-05 7.41071E-08 2.71100E-19 7.67714E-19
 -1       248 9.28208E-05-2.72287E-05-2.81182E-05-2.75900E-06 5.31126E-19-1.51870E-21
 -1       249 9.59470E-05-2.84934E-05-2.89049E-05-4.62561E-06 1.43258E-19 8.43823E-20
 -1       250 9.98751E-05-3.00294E-05-2.99227E-05-5.04380E-06 8.19898E-19 1.57406E-19
 -1       251 1.03496E-04-3.13585E-05-3.09047E-05-4.20811E-06-1.58248E-19-6.06191E-19
 -1       252 1.06074E-04-3.22160E-05-3.16471E-05-2.69941E-06-2.12812E-19-7.94216E-19
 -1       253 1.07360E-04-3.25642E-05-3.20549E-05-1.10369E-06 2.79623E-19-5.64892E-19
 -1       254 1.07475E-04-3.25023E-05-3.21348E-05 2.04879E-07-5.73931E-20-5.23316E-20
 -1       255 1.06722E-04-3.21717E-05-3.19555E-05 1.08724E-06 2.69797E-19 2.02319E-19
 -1       256 1.05439E-04-3.16999E-05-3.16071E-05 1.56331E-06 6.94538E-20 3.27453E-19
 -1       257 1.03912E-04-3.11814E-05-3.11736E-05 1.72510E-06 1.17399E-19-6.36231E-19
 -1       258 1.02352E-04-3.06768E-05-3.07197E-05 1.67771E-06 3.20159E-19-1.88147E-18
 -1       259 1.00892E-04-3.02206E-05-3.02883E-05 1.51064E-06-3.46242E-19-2.60344E-18
 -1       260 9.96050E-05-2.98284E-05-2.99038E-05 1.28927E-06-2.70001E-19-2.51622E-18
 -1       261 9.85192E-05-2.95040E-05-2.95769E-05 1.05631E-06 8.02205E-19-1.52084E-18
 -1       262 9.76349E-05-2.92440E-05-2.93092E-05 8.36756E-07 3.84684E-19-2.17005E-18
 -1       263 9.69363E-05-2.90413E-05-2.90965E-05 6.43269E-07 1.67301E-18-4.05892E-18
 -1       264 9.63994E-05-2.88873E-05-2.89325E-05 4.80498E-07 3.22067E-19-3.77176E-18
 -1       265 9.59978E-05-2.87736E-05-2.88093E-05 3.48331E-07-2.55504E-18-3.19684E-18
 -1       266 9.57060E-05-2.86919E-05-2.87194E-05 2.44090E-07-1.57496E-19-2.20098E-18
 -1       267 9.55007E-05-2.86352E-05-2.86559E-05 1.63946E-07-7.26452E-19-9.04638E-19
 -1       268 9.53622E-05-2.85976E-05-2.86128E-05 1.03781E-07 2.15492E-19-6.87293E-19
 -1       269 9.52740E-05-2.85742E-05-2.85851E-05 5.96733E-08 1.14680E-18-1.84166E-18
 -1       270 9.52226E-05-2.85612E-05-2.85688E-05 2.81638E-08-1.79945E-19-1.39451E-18
 -1       271 9.51977E-05-2.85556E-05-2.85606E-05 6.36844E-09 1.22364E-18-1.96718E-19
 -1       272 9.51909E-05-2.85549E-05-2.85581E-05-7.96961E-09 3.64014E-19-1.53793E-18
 -1       273 9.51959E-05-2.85575E-05-2.85592E-05-1.64077E-08 6.12699E-19-1.61811E-18
 -1       274 9.52072E-05-2.85620E-05-2.85622E-05-1.98391E-08 1.60396E-18-1.81053E-18
 -1       275 9.52205E-05-2.85672E-05-2.85656E-05-1.83091E-08-5.56281E-19-1.24268E-18
 -1       276 9.52320E-05-2.85725E-05-2.85683E-05-1.11730E-08-1.71137E-18-1.91822E-18
 -1       277 9.52376E-05-2.85809E-05-2.85671E-05-1.61926E-08-1.74174E-18 3.86240E-18
 -1       278 9.52432E-05-2.85923E-05-2.85647E-05-2.00301E-08-1.59772E-19-3.57709E-19
 -1       279 9.52478E-05-2.86034E-05-2.85619E-05-1.85754E-08-5.07628E-20-4.60904E-20
 -1       280 9.52509E-05-2.86126E-05-2.85593E-05-1.46296E-08-1.31485E-18 9.75921E-19
 -1       281 9.52528E-05-2.86192E-05-2.85572E-05-1.02105E-08-6.01496E-19-1.48945E-18
 -1       282 9.52539E-05-2.86236E-05-2.85558E-05-6.25036E-09 3.62829E-19-9.39625E-19
 -1       283 9.52544E-05-2.86260E-05-2.85550E-05-3.08873E-09-3.28609E-19-4.84502E-19
 -1       284 9.52546E-05-2.86270E-05-2.85547E-05-4.23487E-10 1.70243E-18-1.06961E-19
 -1       285 9.52546E-05-2.86266E-05-2.85548E-05 2.33803E-09 1.62116E-18-1.23081E-18
 -1       286 9.52543E-05-2.86246E-05-2.85556E-05 5.77021E-09-1.24734E-18-1.13921E-18
 -1       287 9.52534E-05-2.86206E-05-2.85569E-05 1.00372E-08-5.69607E-19-2.17947E-18
 -1       288 9.52514E-05-2.86138E-05-2.85590E-05 1.49157E-08-1.65703E-18-5.97863E-19
 -1       289 9.52482E-05-2.86043E-05-2.85617E-05 1.92030E-08-3.40296E-18-1.25658E-19
 -1       290 9.52431E-05-2.85925E-05-2.85645E-05 2.01703E-08-1.44294E-18 9.19808E-19
 -1       291 9.52371E-05-2.85815E-05-2.85667E-05 2.21704E-08-4.39998E-19-2.09812E-19
 -1       292 1.20691E-05-4.40100E-05 1.08956E-05 1.05131E-05 2.75699E-18 3.15181E-18
 -1       293 2.99385E-05-4.04585E-05 2.54971E-06 2.79706E-05 4.30441E-18 4.78537E-18
 -1       294 5.87595E-05-3.71168E-05-1.06316E-05 3.79066E-05 5.79985E-18 4.03627E-18
 -1       295 9.27472E-05-2.92611E-05-2.73951E-05 4.57459E-05 6.10203E-18 5.48539E-18
 -1       296 1.35736E-04-2.88634E-05-4.45470E-05 4.77770E-05 5.22302E-18 3.35510E-18
 -1       297 1.74306E-04-3.17131E-05-5.89199E-05 3.28144E-05 5.41042E-18-6.37604E-19
 -1       298 2.03865E-04-3.53194E-05-6.89112E-05 1.91341E-05 4.91258E-18-2.67324E-18
 -1       299 2.06676E-04-3.37628E-05-7.08153E-05-3.77540E-06 4.71829E-18-5.02833E-18
 -1       300 1.87495E-04-3.10035E-05-6.46867E-05-2.16742E-05 3.88206E-18-6.66170E-18
 -1       301 1.60413E-04-3.02957E-05-5.36858E-05-4.47132E-05 6.03225E-18-9.05139E-18
 -1       302 1.19241E-04-2.84737E-05-3.81712E-05-4.82538E-05 6.88722E-18-8.49659E-18
 -1       303 7.85357E-05-3.07818E-05-2.11823E-05-4.29882E-05 6.69198E-18-7.49984E-18
 -1       304 4.70814E-05-3.89737E-05-5.24436E-06-3.42785E-05 4.99347E-18-5.62231E-18
 -1       305 2.15420E-05-4.52121E-05 7.15307E-06-1.81117E-05 3.06118E-18-5.69820E-18
 -1       306 1.17926E-05-4.98475E-05 1.27416E-05-5.32310E-06-1.90794E-19-5.43912E-18
 -1       307 1.33010E-05-4.70593E-05 1.13128E-05 8.15344E-06-3.58358E-18-5.69608E-18
 -1       308 3.00297E-05-4.27955E-05 3.06654E-06 2.45721E-05-5.17071E-18-5.38596E-18
 -1       309 5.55207E-05-3.72552E-05-9.66315E-06 3.40904E-05-7.64744E-18-4.42786E-18
 -1       310 9.63866E-05-3.50998E-05-2.66513E-05 4.33718E-05-7.22773E-18-5.36341E-18
 -1       311 1.43092E-04-3.75686E-05-4.43435E-05 3.83807E-05-5.26029E-18-4.79018E-18
 -1       312 1.81431E-04-3.48715E-05-6.01576E-05 3.68360E-05-4.78919E-18-4.55090E-18
 -1       313 2.05529E-04-3.54859E-05-6.94593E-05 1.75832E-05-5.86507E-18-2.01530E-18
 -1       314 2.08334E-04-3.34281E-05-7.16315E-05-2.56011E-06-5.59719E-18 8.42851E-19
 -1       315 2.02753E-04-3.67039E-05-6.77838E-05-2.39521E-05-4.82724E-18 4.72602E-18
 -1       316 1.70363E-04-3.54544E-05-5.59003E-05-3.32176E-05-5.12633E-18 6.26656E-18
 -1       317 1.29961E-04-3.42587E-05-4.02833E-05-4.39088E-05-6.90607E-18 6.10923E-18
 -1       318 8.36015E-05-3.31822E-05-2.24189E-05-4.17349E-05-5.73039E-18 7.31540E-18
 -1       319 4.74349E-05-3.83179E-05-6.05857E-06-3.06046E-05-3.58994E-18 7.42006E-18
 -1       320 2.42286E-05-4.41491E-05 5.70484E-06-1.92351E-05-1.00860E-18 5.70397E-18
 -1       321 1.23484E-05-4.92553E-05 1.23868E-05-4.68352E-06 1.16599E-18 3.83579E-18
 -1       322 9.21760E-05-1.43989E-05-3.33963E-05-1.16773E-05-2.08747E-18-2.31213E-18
 -1       323 9.64373E-05-1.93348E-05-3.31042E-05-1.34053E-05-2.40288E-18-9.72195E-19
 -1       324 8.77024E-05-9.74812E-06-3.34597E-05-6.91754E-06-9.78871E-19-3.41441E-18
 -1       325 8.64621E-05-8.54079E-06-3.34390E-05-4.75826E-06-4.41052E-19-3.46904E-18
 -1       326 8.56895E-05-7.81210E-06-3.34162E-05-2.77980E-06 1.16515E-19-3.39167E-18
 -1       327 8.53297E-05-7.48198E-06-3.34017E-05-9.11140E-07 5.75355E-19-3.28179E-18
 -1       328 8.53612E-05-7.51768E-06-3.34001E-05 9.29587E-07 1.00969E-18-3.09050E-18
 -1       329 8.57785E-05-7.91469E-06-3.34109E-05 2.82502E-06 1.41904E-18-3.01274E-18
 -1       330 8.65747E-05-8.68015E-06-3.34286E-05 4.81583E-06 1.83162E-18-2.68618E-18
 -1       331 8.78264E-05-9.91600E-06-3.34432E-05 7.02538E-06 2.23158E-18-2.07175E-18
 -1       332 8.96664E-05-1.18044E-05-3.34347E-05 9.42472E-06 2.63350E-18-1.33546E-18
 -1       333 9.24387E-05-1.47716E-05-3.33652E-05 1.18483E-05 2.84553E-18-1.81464E-19
 -1       334 9.64986E-05-1.96787E-05-3.30280E-05 1.32236E-05 2.72010E-18 1.94955E-18
 -1       335 9.94816E-05-2.46872E-05-3.21389E-05 1.09566E-05 2.29322E-18 3.87092E-18
 -1       336 9.74518E-05-2.70934E-05-3.01223E-05 4.72857E-06 1.89171E-18 3.12877E-18
 -1       337 9.75512E-05-2.62317E-05-3.05199E-05-4.96697E-06-1.78093E-18-5.35091E-19
 -1       338 9.64937E-05-2.72630E-05-2.96425E-05-1.13738E-06-1.28747E-18-5.53066E-19
 -1       339 9.61113E-05-2.77312E-05-2.92880E-05 1.24126E-06-1.07085E-18-6.68668E-19
 -1       340 9.63497E-05-2.80608E-05-2.92558E-05 2.92620E-06-8.58589E-19-8.53180E-19
 -1       341 9.71116E-05-2.83887E-05-2.94448E-05 4.27855E-06-5.97857E-19-8.56401E-19
 -1       342 9.83161E-05-2.87733E-05-2.97974E-05 5.48866E-06-4.37264E-19-1.02496E-18
 -1       343 9.99164E-05-2.92623E-05-3.02746E-05 6.63855E-06-5.25199E-19-1.17770E-18
 -1       344 1.01897E-04-2.99227E-05-3.08421E-05 7.71264E-06-8.70125E-19-1.22273E-18
 -1       345 1.04269E-04-3.08600E-05-3.14608E-05 8.57659E-06-8.00391E-19-1.32326E-18
 -1       346 1.07068E-04-3.22262E-05-3.20816E-05 8.93604E-06-2.26565E-19-1.17173E-18
 -1       347 1.10334E-04-3.41918E-05-3.26489E-05 8.29715E-06-1.66090E-19-7.94784E-19
 -1       348 1.14037E-04-3.68162E-05-3.31219E-05 5.98455E-06 7.18815E-19-7.35780E-19
 -1       349 1.17850E-04-3.97184E-05-3.35193E-05 1.36795E-06 6.46678E-19 1.14665E-19
 -1       350 1.20876E-04-4.16836E-05-3.39766E-05-5.50762E-06 3.10439E-19 5.63394E-19
 -1       351 1.21477E-04-4.05183E-05-3.47293E-05-1.27969E-05-9.63235E-19 8.98247E-19
 -1       352 1.18282E-04-3.46246E-05-3.59336E-05-1.61799E-05-1.60877E-18 5.45105E-19
 -1       353 1.13192E-04-2.67743E-05-3.71397E-05-1.10712E-05-1.70444E-18-3.22873E-19
 -1       354 1.10987E-04-2.34783E-05-3.76253E-05 1.47663E-06-1.75783E-18-2.13512E-18
 -1       355 1.14203E-04-2.81429E-05-3.69886E-05 1.31185E-05-1.40578E-18-3.51829E-18
 -1       356 1.19395E-04-3.61327E-05-3.57478E-05 1.64618E-05 3.02397E-19-3.54792E-18
 -1       357 1.21955E-04-4.11311E-05-3.46775E-05 1.19418E-05 6.89685E-19-1.77767E-18
 -1       358 1.20909E-04-4.15713E-05-3.40389E-05 4.50559E-06 8.03417E-19-9.81907E-19
 -1       359 1.17766E-04-3.93151E-05-3.36554E-05-1.93139E-06 3.16986E-19-7.10373E-19
 -1       360 1.14079E-04-3.64284E-05-3.33035E-05-5.97446E-06 5.08896E-19-1.43905E-18
 -1       361 1.10637E-04-3.39689E-05-3.28713E-05-7.79444E-06 1.28991E-18-1.94264E-18
 -1       362 1.07670E-04-3.21900E-05-3.23530E-05-8.07693E-06 1.51862E-18-8.51313E-19
 -1       363 1.05178E-04-3.09942E-05-3.17915E-05-7.48378E-06 1.55483E-18-1.19318E-18
 -1       364 1.03102E-04-3.02087E-05-3.12354E-05-6.49108E-06 9.98969E-20-1.73764E-18
 -1       365 1.01384E-04-2.96892E-05-3.07208E-05-5.39117E-06-1.93890E-19-1.31230E-18
 -1       366 9.99766E-05-2.93380E-05-3.02680E-05-4.34163E-06-1.01159E-19-5.52505E-19
 -1       367 9.88367E-05-2.90945E-05-2.98844E-05-3.41457E-06-9.59141E-19-2.69996E-19
 -1       368 9.79265E-05-2.89225E-05-2.95688E-05-2.63302E-06-3.94919E-19-1.13702E-18
 -1       369 9.72104E-05-2.87999E-05-2.93153E-05-1.99444E-06 1.14528E-19-8.82595E-19
 -1       370 9.66559E-05-2.87126E-05-2.91158E-05-1.48446E-06 6.35407E-19-1.81098E-18
 -1       371 9.62335E-05-2.86513E-05-2.89616E-05-1.08451E-06-1.05566E-18 1.37742E-20
 -1       372 9.59174E-05-2.86093E-05-2.88447E-05-7.75736E-07-7.01487E-19-1.98278E-19
 -1       373 9.56855E-05-2.85815E-05-2.87576E-05-5.40801E-07-3.40281E-19-1.87357E-20
 -1       374 9.55192E-05-2.85643E-05-2.86940E-05-3.64617E-07-2.20854E-19 8.80224E-19
 -1       375 9.54032E-05-2.85547E-05-2.86487E-05-2.34487E-07-1.40680E-19 1.47656E-18
 -1       376 9.53253E-05-2.85504E-05-2.86173E-05-1.39990E-07 1.27691E-18 1.28756E-18
 -1       377 9.52756E-05-2.85499E-05-2.85964E-05-7.27771E-08 2.71765E-18 2.13792E-18
 -1       378 9.52463E-05-2.85520E-05-2.85830E-05-2.63247E-08 2.32617E-18 3.02694E-18
 -1       379 9.52315E-05-2.85559E-05-2.85751E-05 4.27211E-09 1.04004E-18 3.83437E-18
 -1       380 9.52264E-05-2.85611E-05-2.85708E-05 2.24452E-08-8.88038E-19 2.81612E-18
 -1       381 9.52274E-05-2.85674E-05-2.85685E-05 3.04649E-08-1.56950E-19 2.20006E-18
 -1       382 9.52310E-05-2.85740E-05-2.85673E-05 2.97577E-08 5.38703E-20 2.28869E-18
 -1       383 9.59153E-05-2.77125E-05-2.91902E-05 1.29298E-06 1.50635E-18 2.59316E-18
 -1       384 9.53112E-05-2.79707E-05-2.88366E-05-6.80448E-07 1.24044E-18 2.00470E-18
 -1       385 9.54958E-05-2.82403E-05-2.88117E-05-1.91846E-06 8.18957E-19 1.50942E-18
 -1       386 9.62463E-05-2.85877E-05-2.89903E-05-2.75173E-06 3.03342E-19 1.03485E-18
 -1       387 9.74037E-05-2.90264E-05-2.93014E-05-3.32488E-06 6.00067E-19 6.28488E-19
 -1       388 9.88478E-05-2.95578E-05-2.96950E-05-3.67624E-06 6.90992E-19 7.06999E-19
 -1       389 1.00471E-04-3.01800E-05-3.01268E-05-3.77135E-06 5.75885E-19 7.62528E-19
 -1       390 1.02155E-04-3.08827E-05-3.05505E-05-3.51808E-06-1.11343E-19 9.96478E-19
 -1       391 1.03747E-04-3.16326E-05-3.09146E-05-2.78563E-06 7.09142E-20 1.19159E-18
 -1       392 1.05042E-04-3.23517E-05-3.11647E-05-1.44555E-06 3.97541E-19 1.10469E-18
 -1       393 1.05782E-04-3.28910E-05-3.12523E-05 5.47874E-07 4.85004E-19 6.75576E-19
 -1       394 1.05677E-04-3.30200E-05-3.11511E-05 3.03451E-06-2.61095E-19 1.26976E-18
 -1       395 1.04501E-04-3.24757E-05-3.08754E-05 5.52062E-06-6.81195E-19 1.06817E-18
 -1       396 1.02260E-04-3.11176E-05-3.04901E-05 7.16135E-06 3.02787E-19 9.80477E-19
 -1       397 9.94092E-05-2.91613E-05-3.00994E-05 7.01597E-06 1.27559E-18 9.32347E-19
 -1       398 9.68824E-05-2.72891E-05-2.98147E-05 4.60621E-06 8.98867E-19 6.40384E-19
 -1       399 9.57622E-05-2.64032E-05-2.97101E-05 4.66849E-07 4.18160E-19 4.21265E-19
 -1       400 9.65955E-05-2.69783E-05-2.98166E-05-3.89662E-06 7.29967E-19 4.10680E-19
 -1       401 9.90246E-05-2.87141E-05-3.01180E-05-6.86403E-06 3.10075E-19 4.51363E-19
 -1       402 1.02038E-04-3.07640E-05-3.05393E-05-7.61321E-06 1.26455E-18-3.14175E-19
 -1       403 1.04622E-04-3.23469E-05-3.09783E-05-6.40004E-06 1.66733E-19-2.95836E-19
 -1       404 1.06213E-04-3.31307E-05-3.13320E-05-4.10902E-06-7.49568E-19-7.37402E-19
 -1       405 1.06726E-04-3.31912E-05-3.15291E-05-1.64748E-06 1.66966E-19-8.66668E-20
 -1       406 1.06364E-04-3.27847E-05-3.15475E-05 3.97779E-07-1.16935E-19 4.35851E-19
 -1       407 1.05420E-04-3.21625E-05-3.14062E-05 1.79901E-06 4.25513E-19 2.08168E-18
 -1       408 1.04160E-04-3.14959E-05-3.11479E-05 2.57354E-06 3.28276E-19 1.60780E-18
 -1       409 1.02787E-04-3.08770E-05-3.08213E-05 2.85350E-06 5.12684E-19 2.59384E-18
 -1       410 1.01439E-04-3.03438E-05-3.04695E-05 2.79642E-06 5.40894E-19 1.60008E-18
 -1       411 1.00200E-04-2.99046E-05-3.01250E-05 2.54032E-06 6.83846E-19-3.36188E-20
 -1       412 9.91124E-05-2.95534E-05-2.98087E-05 2.18871E-06-2.79177E-19-1.50571E-18
 -1       413 9.81928E-05-2.92788E-05-2.95319E-05 1.81115E-06 3.88829E-19-2.01598E-18
 -1       414 9.74381E-05-2.90683E-05-2.92988E-05 1.44981E-06 1.13633E-18-1.09203E-18
 -1       415 9.68350E-05-2.89099E-05-2.91084E-05 1.12713E-06 1.76972E-18-2.98682E-19
 -1       416 9.63647E-05-2.87931E-05-2.89573E-05 8.52390E-07 2.69101E-19 4.60614E-19
 -1       417 9.60067E-05-2.87088E-05-2.88403E-05 6.26742E-07-2.36057E-18-5.21685E-20
 -1       418 9.57410E-05-2.86496E-05-2.87522E-05 4.46775E-07-2.83261E-19-1.36531E-18
 -1       419 9.55491E-05-2.86094E-05-2.86874E-05 3.06851E-07-1.41584E-18-1.63057E-18
 -1       420 9.54150E-05-2.85833E-05-2.86414E-05 2.00588E-07-4.64567E-19-3.20674E-20
 -1       421 9.53251E-05-2.85676E-05-2.86098E-05 1.21737E-07 8.27676E-19 4.20467E-19
 -1       422 9.52683E-05-2.85594E-05-2.85891E-05 6.46663E-08-6.73091E-20 1.26510E-18
 -1       423 9.52358E-05-2.85564E-05-2.85766E-05 2.46045E-08 5.66573E-19 1.75730E-18
 -1       424 9.52204E-05-2.85570E-05-2.85698E-05-2.27404E-09 1.54822E-18 3.70315E-18
 -1       425 9.52165E-05-2.85600E-05-2.85670E-05-1.87074E-08 4.89580E-19 2.60996E-18
 -1       426 9.52197E-05-2.85647E-05-2.85664E-05-2.64387E-08 7.79747E-19 3.51558E-18
 -1       427 9.52267E-05-2.85707E-05-2.85668E-05-2.63114E-08-3.37357E-19 5.48262E-18
 -1       428 9.52323E-05-2.85757E-05-2.85672E-05-2.26534E-08-8.29650E-19 5.90984E-18
 -1       429 9.52463E-05-2.85870E-05-2.85682E-05-2.28238E-08-1.27335E-18-8.16459E-19
 -1       430 9.52431E-05-2.85841E-05-2.85681E-05-2.75459E-08-1.36399E-19 2.08497E-19
 -1       431 9.52382E-05-2.85810E-05-2.85674E-05-2.75986E-08-6.29513E-19 4.85735E-19
 -1       432 9.52470E-05-2.85879E-05-2.85681E-05-1.63998E-08-4.83450E-19-5.74312E-19
 -1       433 9.52461E-05-2.85873E-05-2.85680E-05-1.03719E-08 1.45942E-19 9.29822E-19
 -1       434 9.52449E-05-2.85863E-05-2.85679E-05-5.69967E-09 1.40116E-18-1.57098E-18
 -1       435 9.52441E-05-2.85857E-05-2.85679E-05-2.23629E-09 3.75790E-20 8.14639E-19
 -1       436 9.52443E-05-2.85860E-05-2.85678E-05 8.52504E-10 4.50419E-19-1.49677E-21
 -1       437 9.52454E-05-2.85871E-05-2.85678E-05 4.61749E-09 4.46249E-19-2.60097E-18
 -1       438 9.52468E-05-2.85884E-05-2.85679E-05 9.72601E-09-1.29000E-18-2.58265E-18
 -1       439 9.52478E-05-2.85891E-05-2.85680E-05 1.63865E-08-2.01603E-18 1.03162E-18
 -1       440 9.52469E-05-2.85882E-05-2.85680E-05 2.35027E-08-5.64845E-19-2.10655E-18
 -1       441 9.52434E-05-2.85851E-05-2.85679E-05 2.90966E-08-1.81002E-18 7.99264E-19
 -1       442 6.42953E-05-4.24445E-05-9.32980E-06 4.47588E-05-6.78368E-19 8.92032E-19
 -1       443 1.29020E-05-1.95978E-05 2.96617E-06 1.27419E-06-3.99710E-20 4.15671E-18
 -1       444 2.85862E-05-2.52780E-05-1.13131E-06 3.04519E-05-5.25478E-19 3.84976E-18
 -1       445 1.02293E-04-5.22174E-05-2.14992E-05 4.08307E-05 7.37130E-19-3.16473E-19
 -1       446 1.34020E-04-5.36639E-05-3.44364E-05 2.44781E-05 1.10458E-18-1.79550E-18
 -1       447 8.94936E-05-1.15562E-05-3.34726E-05-9.30355E-06-1.54790E-18-3.13583E-18
 -1       448 1.53098E-04-2.12499E-05-5.65794E-05-3.12241E-06 5.66845E-18-2.97817E-18
 -1       449 1.53786E-04-1.20235E-05-6.08367E-05-1.45624E-06 5.33758E-18-3.20065E-18
 -1       450 1.50872E-04-1.29777E-05-5.93005E-05 2.96118E-06 4.08672E-18-3.35753E-18
 -1       451 1.57057E-04-3.15094E-05-5.35887E-05-5.74089E-06 3.72536E-18-3.49263E-18
 -1       452 1.45659E-04-4.48653E-05-4.30287E-05-1.93625E-05 3.37304E-18-4.19906E-18
 -1       453 1.22995E-04-5.42690E-05-2.94859E-05-3.24008E-05 1.40332E-18-3.64351E-18
 -1       454 8.91120E-05-5.04473E-05-1.66231E-05-4.38941E-05 1.09691E-18-3.60045E-18
 -1       455 4.74926E-05-3.62614E-05-4.84105E-06-4.13739E-05-1.14561E-19-4.74810E-18
 -1       456 2.27863E-05-2.64816E-05 1.52635E-06-2.60563E-05-3.04402E-19-6.48584E-18
 -1       457 1.15248E-05-2.41107E-05 5.05427E-06 2.27410E-06-4.65762E-19-6.89538E-18
 -1       458 2.97719E-05-2.71774E-05-9.19122E-07 2.92824E-05 9.95105E-19-4.30494E-18
 -1       459 6.63133E-05-4.46269E-05-9.33052E-06 4.29883E-05-7.49624E-20-1.63432E-18
 -1       460 9.98322E-05-5.49063E-05-1.94111E-05 4.01434E-05-1.65616E-18-1.12412E-18
 -1       461 1.36662E-04-5.83840E-05-3.36361E-05 2.31615E-05-2.06337E-18 6.93508E-20
 -1       462 1.57416E-04-4.24167E-05-4.90348E-05 6.07252E-06-3.04747E-18 6.05946E-19
 -1       463 1.63942E-04-2.81874E-05-5.78907E-05-4.56169E-07-4.32177E-18 1.42524E-18
 -1       464 1.61349E-04-1.53236E-05-6.24028E-05-1.83973E-06-5.66676E-18 6.36069E-19
 -1       465 1.60161E-04-1.75836E-05-6.10519E-05 3.88634E-06-5.32170E-18-7.56347E-19
 -1       466 1.60668E-04-3.01736E-05-5.58050E-05 3.30426E-06-3.19247E-18-1.03973E-18
 -1       467 1.52339E-04-4.85046E-05-4.44552E-05-1.09713E-05-2.05376E-18-7.99705E-19
 -1       468 1.27824E-04-5.63462E-05-3.07072E-05-2.92762E-05-1.15768E-18 7.29189E-19
 -1       469 9.36769E-05-5.31508E-05-1.74525E-05-4.10079E-05 1.86231E-18 3.81816E-18
 -1       470 5.26734E-05-4.06291E-05-5.43192E-06-3.96826E-05 1.20162E-18 5.31863E-18
 -1       471 2.11417E-05-2.54194E-05 1.75696E-06-2.15392E-05 9.31789E-19 4.49446E-18
 -1       472 1.48805E-04-4.26845E-05-4.55878E-05 9.71851E-06 3.73002E-18-2.89802E-18
 -1       473 9.68241E-05-2.52519E-05-3.06591E-05 4.45722E-06 1.96270E-18 6.88203E-19
 -1       474 8.82263E-05-1.18600E-05-3.27455E-05-2.98071E-06-1.63364E-19-3.13076E-18
 -1       475 8.93970E-05-1.31481E-05-3.26972E-05-4.53182E-06-7.18491E-19-2.89675E-18
 -1       476 8.73683E-05-1.09524E-05-3.27654E-05-3.56319E-08 7.89488E-19-2.85258E-18
 -1       477 8.76511E-05-1.12570E-05-3.27564E-05 1.44047E-06 1.14136E-18-2.75430E-18
 -1       478 8.83786E-05-1.20452E-05-3.27318E-05 2.95630E-06 1.54380E-18-2.54477E-18
 -1       479 8.95797E-05-1.33856E-05-3.26745E-05 4.57625E-06 1.98843E-18-2.15614E-18
 -1       480 9.12722E-05-1.53692E-05-3.25523E-05 6.21191E-06 2.30251E-18-1.47921E-18
 -1       481 9.35810E-05-1.82362E-05-3.23105E-05 7.68898E-06 2.51574E-18-8.02928E-19
 -1       482 1.23789E-04-5.97884E-05-2.74315E-05 2.65671E-05-9.03784E-19-1.78533E-18
 -1       483 9.64503E-05-2.66760E-05-2.98843E-05 9.92198E-07 1.62750E-18 3.47947E-19
 -1       484 9.63356E-05-2.42585E-05-3.08782E-05-3.89121E-06-1.50620E-18-1.54211E-18
 -1       485 1.40316E-04-3.33007E-05-4.63175E-05-9.37182E-06 3.56776E-18-3.71080E-18
 -1       486 9.63749E-05-2.59412E-05-3.01777E-05-4.33594E-07-1.13252E-18-1.46838E-18
 -1       487 9.63410E-05-2.67586E-05-2.98157E-05 2.11763E-06-1.02332E-18-1.33282E-18
 -1       488 9.64733E-05-2.71934E-05-2.96877E-05 4.11021E-06-6.89955E-19-1.28323E-18
 -1       489 9.68258E-05-2.74605E-05-2.97249E-05 5.79995E-06-6.13980E-19-1.07532E-18
 -1       490 9.74054E-05-2.76912E-05-2.98748E-05 7.34318E-06-6.36616E-19-1.28212E-18
 -1       491 9.82341E-05-2.80141E-05-3.00919E-05 8.80766E-06-4.98065E-19-1.47043E-18
 -1       492 9.93867E-05-2.86056E-05-3.03334E-05 1.01665E-05-7.55870E-19-9.62329E-19
 -1       493 1.01032E-04-2.97316E-05-3.05584E-05 1.12730E-05-2.31868E-19-2.68438E-19
 -1       494 1.03476E-04-3.17628E-05-3.07392E-05 1.18148E-05 2.40851E-19 9.43108E-20
 -1       495 1.07164E-04-3.51072E-05-3.08920E-05 1.12507E-05 3.72987E-19 5.07535E-19
 -1       496 1.12537E-04-3.99157E-05-3.11396E-05 8.72900E-06 1.01080E-18 2.06459E-19
 -1       497 1.19445E-04-4.52696E-05-3.18055E-05 3.23905E-06 8.24888E-19 2.47152E-19
 -1       498 1.26418E-04-4.84456E-05-3.34808E-05-5.91442E-06 2.93765E-20 1.05205E-18
 -1       499 1.28998E-04-4.41984E-05-3.65274E-05-1.56956E-05-1.42622E-18 1.88487E-18
 -1       500 1.25296E-04-3.06353E-05-4.09016E-05-1.80537E-05-2.63454E-18 1.08187E-18
 -1       501 1.20359E-04-1.79036E-05-4.43236E-05-6.70970E-06-3.43432E-18-1.46682E-19
 -1       502 1.21273E-04-1.96953E-05-4.39376E-05 1.03481E-05-2.05604E-18-1.44839E-18
 -1       503 1.26687E-04-3.35538E-05-4.02611E-05 1.85363E-05-7.09867E-19-2.14183E-18
 -1       504 1.29297E-04-4.57297E-05-3.59329E-05 1.38124E-05 1.66231E-18-1.87976E-18
 -1       505 1.25299E-04-4.81402E-05-3.31113E-05 4.12313E-06 1.58794E-18-1.42149E-18
 -1       506 1.18318E-04-4.42898E-05-3.17439E-05-3.98610E-06 1.27896E-18-4.44304E-19
 -1       507 1.11713E-04-3.88608E-05-3.12354E-05-8.70891E-06 3.32326E-19 3.56997E-20
 -1       508 1.06776E-04-3.43258E-05-3.10583E-05-1.06448E-05 4.51706E-19 1.18337E-18
 -1       509 1.03457E-04-3.12828E-05-3.09353E-05-1.08165E-05 1.27376E-18 1.35352E-19
 -1       510 1.01289E-04-2.94997E-05-3.07667E-05-1.00211E-05 1.02838E-18-2.80678E-19
 -1       511 9.98371E-05-2.85688E-05-3.05417E-05-8.77849E-06-4.37534E-20-1.88043E-18
 -1       512 9.88096E-05-2.81462E-05-3.02817E-05-7.40194E-06 7.61654E-20-1.87797E-18
 -1       513 9.80366E-05-2.79999E-05-3.00131E-05-6.06700E-06 2.39393E-19-1.12438E-18
 -1       514 9.74280E-05-2.79912E-05-2.97562E-05-4.86199E-06 4.10048E-19-9.92364E-19
 -1       515 9.69370E-05-2.80432E-05-2.95239E-05-3.82238E-06-1.16193E-18 2.15239E-19
 -1       516 9.65387E-05-2.81164E-05-2.93222E-05-2.95332E-06-4.86905E-19-1.54723E-19
 -1       517 9.62174E-05-2.81919E-05-2.91524E-05-2.24394E-06 3.70620E-19 1.26836E-18
 -1       518 9.59615E-05-2.82614E-05-2.90133E-05-1.67592E-06-5.98171E-19 4.09638E-19
 -1       519 9.57610E-05-2.83221E-05-2.89016E-05-1.22854E-06-6.11292E-19-3.23772E-19
 -1       520 9.56067E-05-2.83734E-05-2.88137E-05-8.81487E-07-5.24867E-19 6.90261E-19
 -1       521 9.54905E-05-2.84160E-05-2.87457E-05-6.16171E-07-6.83056E-20 6.98028E-19
 -1       522 9.54049E-05-2.84510E-05-2.86942E-05-4.16328E-07-4.29984E-20 1.76481E-18
 -1       523 9.53435E-05-2.84795E-05-2.86558E-05-2.68170E-07 3.75675E-19 1.96170E-18
 -1       524 9.53009E-05-2.85025E-05-2.86277E-05-1.60304E-07 2.50470E-18 2.33008E-18
 -1       525 9.52725E-05-2.85212E-05-2.86076E-05-8.35567E-08 2.05011E-18 2.61990E-18
 -1       526 9.52547E-05-2.85366E-05-2.85934E-05-3.07433E-08 1.64371E-18 1.68352E-18
 -1       527 9.52447E-05-2.85498E-05-2.85835E-05 3.52128E-09-5.88225E-19-3.12677E-20
 -1       528 9.52402E-05-2.85619E-05-2.85764E-05 2.30610E-08-9.01901E-19 1.02134E-18
 -1       529 9.64817E-05-2.79516E-05-2.93651E-05-2.90952E-06 9.62363E-19 1.47011E-19
 -1       530 9.70018E-05-2.84068E-05-2.93953E-05-4.03900E-06 6.53356E-19-3.45828E-19
 -1       531 9.78248E-05-2.89114E-05-2.95333E-05-4.82155E-06 5.56342E-19-2.45196E-19
 -1       532 9.89192E-05-2.95393E-05-2.97347E-05-5.27414E-06 3.25403E-19 1.19319E-19
 -1       533 1.00261E-04-3.03522E-05-2.99631E-05-5.33083E-06 1.05048E-19 6.21906E-19
 -1       534 1.01821E-04-3.13909E-05-3.01888E-05-4.85694E-06-1.18284E-19 3.05209E-19
 -1       535 1.03539E-04-3.26412E-05-3.03918E-05-3.67592E-06 5.31841E-19 5.32233E-19
 -1       536 1.05275E-04-3.39716E-05-3.05678E-05-1.63041E-06 3.30549E-19 4.90221E-19
 -1       537 1.06753E-04-3.50578E-05-3.07364E-05 1.29716E-06-1.99747E-19 2.77439E-19
 -1       538 1.07530E-04-3.53542E-05-3.09403E-05 4.79488E-06-5.84732E-19 2.41049E-19
 -1       539 1.07104E-04-3.42446E-05-3.12287E-05 8.02154E-06 5.53417E-20 1.13957E-19
 -1       540 1.05265E-04-3.14885E-05-3.16162E-05 9.61501E-06 6.14616E-19-1.05272E-19
 -1       541 1.02577E-04-2.78130E-05-3.20386E-05 8.24361E-06 9.87839E-19 5.68493E-19
 -1       542 1.00392E-04-2.49087E-05-3.23514E-05 3.62272E-06 5.70947E-19 6.82045E-19
 -1       543 1.00200E-04-2.46145E-05-3.23831E-05-2.59221E-06 6.41048E-20 4.86121E-19
 -1       544 1.02073E-04-2.70155E-05-3.21619E-05-7.77985E-06 1.25909E-18 7.46710E-19
 -1       545 1.04860E-04-3.06874E-05-3.17841E-05-9.97332E-06 9.82399E-19-3.18322E-19
 -1       546 1.07056E-04-3.37584E-05-3.14137E-05-9.02541E-06 8.02898E-19-8.35651E-20
 -1       547 1.07903E-04-3.52593E-05-3.11407E-05-6.13290E-06-1.83870E-19-6.12843E-19
 -1       548 1.07472E-04-3.52519E-05-3.09618E-05-2.71203E-06-4.78914E-19-1.45965E-18
 -1       549 1.06235E-04-3.43161E-05-3.08324E-05 2.66800E-07-4.08795E-19-7.43801E-19
 -1       550 1.04666E-04-3.30402E-05-3.07044E-05 2.39290E-06-8.01226E-19-8.05990E-19
 -1       551 1.03074E-04-3.18040E-05-3.05495E-05 3.64138E-06-2.77001E-19 5.10620E-19
 -1       552 1.01616E-04-3.07794E-05-3.03609E-05 4.17095E-06-3.24207E-19 1.52948E-18
 -1       553 1.00347E-04-3.00049E-05-3.01470E-05 4.19018E-06 7.08835E-19 1.68558E-18
 -1       554 9.92736E-05-2.94544E-05-2.99218E-05 3.89050E-06 1.37524E-18 1.99047E-18
 -1       555 9.83830E-05-2.90804E-05-2.96997E-05 3.42152E-06 8.86241E-19 1.95177E-18
 -1       556 9.76541E-05-2.88360E-05-2.94917E-05 2.88851E-06-3.25222E-19 1.80902E-18
 -1       557 9.70655E-05-2.86824E-05-2.93053E-05 2.35912E-06 1.11616E-18 2.62799E-18
 -1       558 9.65966E-05-2.85902E-05-2.91440E-05 1.87248E-06 1.05999E-18 2.68206E-18
 -1       559 9.62285E-05-2.85384E-05-2.90087E-05 1.44775E-06 3.43230E-19 3.22075E-18
 -1       560 9.59442E-05-2.85126E-05-2.88981E-05 1.09101E-06 3.10183E-19 2.57053E-18
 -1       561 9.57284E-05-2.85029E-05-2.88100E-05 8.00407E-07 3.65433E-21 7.83378E-19
 -1       562 9.55677E-05-2.85028E-05-2.87414E-05 5.69752E-07-3.58831E-19 4.90065E-19
 -1       563 9.54508E-05-2.85081E-05-2.86892E-05 3.90906E-07-1.80104E-18-4.19159E-19
 -1       564 9.53680E-05-2.85161E-05-2.86504E-05 2.55286E-07 4.69721E-19 1.98458E-19
 -1       565 9.53115E-05-2.85252E-05-2.86224E-05 1.54765E-07 5.56332E-19 1.25593E-18
 -1       566 9.52745E-05-2.85345E-05-2.86027E-05 8.21677E-08 2.00263E-19 7.15138E-19
 -1       567 9.52521E-05-2.85435E-05-2.85893E-05 3.15525E-08-1.66848E-19 1.86980E-18
 -1       568 9.52400E-05-2.85523E-05-2.85804E-05-1.85842E-09-3.19558E-20 2.32701E-18
 -1       569 9.52353E-05-2.85614E-05-2.85745E-05-2.19211E-08-5.37694E-19 3.38944E-18
 -1       570 9.52355E-05-2.85708E-05-2.85705E-05-3.02039E-08 5.54187E-19 3.41250E-18
 -1       571 9.52412E-05-2.85569E-05-2.85790E-05-9.27577E-09 2.11885E-18-4.15221E-19
 -1       572 9.52371E-05-2.85501E-05-2.85801E-05-4.45124E-09 1.51151E-18-3.59985E-19
 -1       573 9.52435E-05-2.85691E-05-2.85748E-05-2.40807E-08 5.39161E-19-1.44434E-18
 -1       574 9.52443E-05-2.85639E-05-2.85773E-05-1.61717E-08 1.32029E-18 1.23435E-18
 -1       575 9.52339E-05-2.85454E-05-2.85808E-05-2.02469E-09-5.55305E-20-1.13200E-18
 -1       576 9.52329E-05-2.85439E-05-2.85810E-05-9.69189E-10-1.12860E-18 1.14476E-18
 -1       577 9.52345E-05-2.85460E-05-2.85808E-05 2.83972E-10 1.31366E-19 2.35909E-19
 -1       578 9.52381E-05-2.85511E-05-2.85801E-05 3.19857E-09 1.20098E-18-4.19704E-18
 -1       579 9.52425E-05-2.85582E-05-2.85790E-05 8.76144E-09 1.58546E-19-3.82669E-18
 -1       580 9.52455E-05-2.85652E-05-2.85772E-05 1.67085E-08-2.19666E-18 1.63272E-18
 -1       581 9.52444E-05-2.85702E-05-2.85747E-05 2.48857E-08-1.93373E-19-1.55741E-18
 -1       582 3.02245E-05-1.32027E-05-6.59189E-06 1.43789E-05-3.88563E-19 3.91552E-18
 -1       583 9.54621E-05-5.13256E-05-1.86256E-05 4.07513E-05-1.62292E-18-2.04201E-19
 -1       584 9.62991E-05-2.74414E-05-2.95005E-05-1.31664E-06 1.33607E-18 3.35561E-19
 -1       585 1.39948E-04-5.28742E-05-3.75466E-05 4.45824E-06 1.58893E-18-3.66935E-18
 -1       586 4.79836E-05-2.92008E-05-7.56814E-06-3.53946E-05 1.83081E-18 4.49261E-18
 -1       587 5.66614E-05-3.19025E-05-1.01640E-05 3.99472E-05-2.45677E-18 5.71271E-19
 -1       588 2.80337E-05-1.40151E-05-5.36796E-06-1.22738E-05 7.94583E-19 2.94132E-18
 -1       589 1.43209E-04-1.88257E-05-5.36881E-05-1.10200E-05-3.98974E-18 2.21536E-18
 -1       590 1.23535E-04-6.10354E-05-2.68396E-05 2.63454E-05 4.84238E-19 1.50029E-18
 -1       591 5.96007E-05-3.43830E-05-1.03558E-05 3.88447E-05 2.31907E-18-2.11959E-18
 -1       592 8.38170E-05-4.60733E-05-1.57563E-05-4.29596E-05-1.67649E-18-2.37439E-18
 -1       593 8.75571E-05-1.11468E-05-3.27632E-05-1.49238E-06 3.38238E-19-2.96969E-18
 -1       594 1.36891E-04-2.22823E-05-4.96860E-05 1.07912E-05 1.97713E-18-1.79142E-18
 -1       595 1.33344E-04-1.27790E-05-5.22555E-05-8.51283E-06 5.03101E-18-2.65772E-18
 -1       596 2.78933E-05-1.47423E-05-4.96785E-06 1.21921E-05 1.43069E-18-4.94127E-18
 -1       597 1.30570E-04-7.17858E-06-5.35309E-05 1.14836E-06 4.64386E-18-2.13158E-18
 -1       598 1.44492E-04-4.23937E-05-4.40773E-05 1.90067E-06 1.65534E-18-3.63430E-19
 -1       599 1.38431E-04-5.63973E-05-3.52485E-05-1.34344E-05 2.66961E-19-1.25043E-18
 -1       600 1.11544E-04-5.80672E-05-2.28297E-05-3.49106E-05-1.67728E-18-2.00718E-18
 -1       601 4.44909E-05-2.52158E-05-7.68298E-06-3.43418E-05-1.35843E-18-4.80892E-18
 -1       602 1.45768E-04-5.44768E-05-3.94472E-05-3.81391E-07-1.41248E-18 2.07327E-18
 -1       603 2.52863E-05-1.46285E-05-3.97361E-06-1.32122E-05-8.57753E-20-6.27238E-18
 -1       604 1.00553E-04-5.47061E-05-1.93774E-05 3.83455E-05 1.19389E-18 2.85771E-19
 -1       605 1.37105E-04-1.08659E-05-5.47198E-05 2.44915E-06-4.82586E-18 9.84074E-19
 -1       606 1.47550E-04-3.29681E-05-4.94811E-05-1.22226E-05-3.66702E-18 3.09961E-18
 -1       607 1.42541E-04-5.95182E-05-3.57333E-05-7.83242E-06 6.90755E-19-2.95112E-18
 -1       608 1.41302E-04-2.19367E-05-5.17147E-05 1.30840E-05-3.46812E-18-7.31307E-19
 -1       609 1.46887E-04-4.25170E-05-4.51520E-05 1.13257E-05-8.38166E-19-1.29533E-18
 -1       610 1.21883E-04-6.14769E-05-2.57876E-05-2.82784E-05 2.11658E-18-7.48036E-19
 -1       611 8.33278E-05-4.69467E-05-1.52782E-05-4.08007E-05 3.23048E-18 3.06986E-18
 -1       612 9.52290E-05-2.06030E-05-3.20025E-05-7.92287E-06-1.95556E-18-1.88313E-18
 -1       613 9.70022E-05-2.33597E-05-3.15641E-05 8.26032E-06 2.41236E-18 1.24057E-18
 -1       614 1.23804E-04-1.37574E-05-4.76688E-05 9.70055E-06 2.74290E-18-9.63765E-20
 -1       615 9.10694E-05-1.50583E-05-3.25992E-05-6.14310E-06-1.21214E-18-2.97234E-18
 -1       616 4.84343E-05-1.94053E-05-1.19227E-05 2.67958E-05-1.79718E-18 6.29134E-19
 -1       617 9.52394E-05-2.85701E-05-2.85725E-05 2.95675E-08-2.77536E-19 2.40886E-18
 -1       618 4.75566E-05-2.07125E-05-1.09432E-05 2.61595E-05 2.03991E-18-2.42601E-18
 -1       619 1.37507E-04-6.14139E-05-3.26532E-05 7.02816E-06-1.67971E-19 1.64597E-18
 -1       620 8.97150E-05-1.47993E-05-3.21118E-05 1.38009E-06 1.21595E-18-2.18363E-18
 -1       621 8.91390E-05-1.41440E-05-3.21455E-05 3.77133E-07 7.64397E-19-2.54800E-18
 -1       622 9.22207E-05-1.78292E-05-3.18875E-05 3.42848E-06 1.79620E-18-1.57487E-18
 -1       623 9.40058E-05-2.02734E-05-3.16072E-05 4.20094E-06 1.99287E-18-9.58639E-19
 -1       624 9.52448E-05-2.85505E-05-2.85833E-05-1.10185E-08 1.88890E-19-7.63490E-19
 -1       625 9.58837E-05-2.37946E-05-3.08853E-05 3.13637E-06 1.90691E-18-4.76499E-19
 -1       626 1.32773E-04-4.34047E-05-3.85595E-05-9.37250E-06 1.93535E-18-2.97880E-18
 -1       627 9.55990E-05-2.46068E-05-3.04241E-05 6.07961E-07-9.01202E-19-1.79000E-18
 -1       628 9.56191E-05-2.55022E-05-3.00488E-05 3.00221E-06-8.09978E-19-1.53327E-18
 -1       629 9.55209E-05-2.59178E-05-2.98289E-05 5.01492E-06-5.74212E-19-1.62115E-18
 -1       630 9.53970E-05-2.60680E-05-2.97115E-05 6.80116E-06-7.07759E-19-1.58415E-18
 -1       631 9.53074E-05-2.61327E-05-2.96454E-05 8.48294E-06-4.01013E-19-1.43966E-18
 -1       632 9.53398E-05-2.63165E-05-2.95805E-05 1.01327E-05-5.53117E-21-1.01428E-18
 -1       633 9.56708E-05-2.69097E-05-2.94686E-05 1.17700E-05 3.60195E-20-1.09872E-20
 -1       634 9.66447E-05-2.83453E-05-2.92716E-05 1.33435E-05 2.00639E-19 2.68925E-19
 -1       635 9.88634E-05-3.12246E-05-2.89886E-05 1.46737E-05 3.82930E-19-1.21275E-19
 -1       636 1.03209E-04-3.62138E-05-2.87123E-05 1.53332E-05 8.12550E-19 4.74021E-19
 -1       637 1.10880E-04-4.37690E-05-2.87586E-05 1.41244E-05 1.08155E-18 6.76544E-19
 -1       638 1.21689E-04-5.20936E-05-2.98003E-05 9.81947E-06 1.27483E-18 6.16752E-19
 -1       639 1.40361E-04-4.89079E-05-3.94538E-05 1.18352E-05 1.07102E-18-2.01551E-18
 -1       640 1.31864E-04-5.57074E-05-3.26494E-05-5.94893E-07 2.10626E-18-2.18727E-18
 -1       641 1.19750E-04-5.04856E-05-2.96354E-05-1.00178E-05 1.88968E-18-1.55395E-18
 -1       642 1.09239E-04-4.19376E-05-2.88326E-05-1.38087E-05 9.79652E-19-9.52571E-19
 -1       643 1.02333E-04-3.49084E-05-2.88939E-05-1.43836E-05 9.62483E-19-7.99887E-19
 -1       644 9.84462E-05-3.03503E-05-2.91840E-05-1.34685E-05 2.48556E-20-4.83272E-19
 -1       645 9.65088E-05-2.78152E-05-2.94397E-05-1.19796E-05 4.78131E-19-5.11324E-19
 -1       646 9.56665E-05-2.66323E-05-2.95852E-05-1.03302E-05-5.78501E-19-2.57454E-18
 -1       647 9.53693E-05-2.62479E-05-2.96224E-05-8.70530E-06-4.67282E-20-1.41046E-18
 -1       648 9.53089E-05-2.62880E-05-2.95794E-05-7.19452E-06 8.91122E-20-8.67110E-19
 -1       649 9.53299E-05-2.65249E-05-2.94869E-05-5.84206E-06 9.51174E-20-1.38288E-18
 -1       650 9.53632E-05-2.68309E-05-2.93702E-05-4.66601E-06 3.95250E-19-1.92182E-18
 -1       651 9.53844E-05-2.71399E-05-2.92470E-05-3.66777E-06-4.58372E-19-1.16826E-19
 -1       652 9.53891E-05-2.74213E-05-2.91286E-05-2.83789E-06-4.21929E-19 3.29070E-19
 -1       653 9.53805E-05-2.76638E-05-2.90211E-05-2.16050E-06-1.53024E-19-1.43715E-18
 -1       654 9.53639E-05-2.78657E-05-2.89275E-05-1.61669E-06-1.45554E-18-8.21686E-19
 -1       655 9.53437E-05-2.80301E-05-2.88485E-05-1.18687E-06-1.16045E-19-2.00397E-19
 -1       656 9.53232E-05-2.81617E-05-2.87834E-05-8.52202E-07-3.39843E-19 1.70196E-18
 -1       657 9.53043E-05-2.82654E-05-2.87308E-05-5.95509E-07 2.34710E-19 2.20961E-18
 -1       658 9.52881E-05-2.83463E-05-2.86892E-05-4.01650E-07 2.65425E-19 2.23858E-18
 -1       659 9.52746E-05-2.84087E-05-2.86568E-05-2.57696E-07 8.84059E-19 1.47893E-18
 -1       660 9.52641E-05-2.84564E-05-2.86318E-05-1.52899E-07 1.78183E-18 3.43744E-19
 -1       661 9.52561E-05-2.84930E-05-2.86127E-05-7.85818E-08 7.90188E-19-8.03719E-19
 -1       662 9.52503E-05-2.85213E-05-2.85981E-05-2.78593E-08 8.42893E-20-2.17347E-18
 -1       663 9.52467E-05-2.85443E-05-2.85867E-05 4.17103E-09-4.92292E-19 1.77970E-18
 -1       664 9.68734E-05-2.79281E-05-2.95473E-05-5.07229E-06 6.32748E-19-2.08798E-19
 -1       665 4.93005E-05-1.99797E-05-1.20585E-05-2.52068E-05 7.81256E-19 3.55219E-18
 -1       666 9.64846E-05-2.73239E-05-2.96392E-05-3.80649E-06 8.10977E-19-1.09407E-19
 -1       667 9.84559E-05-2.94685E-05-2.95664E-05-6.54475E-06 2.96074E-20 6.34715E-20
 -1       668 9.98013E-05-3.06829E-05-2.96234E-05-6.65258E-06 4.40568E-19-2.43551E-19
 -1       669 1.01626E-04-3.23289E-05-2.97011E-05-6.14201E-06-2.91658E-20-2.34566E-19
 -1       670 1.03962E-04-3.43879E-05-2.98210E-05-4.77961E-06 2.02482E-19-3.50921E-20
 -1       671 1.06688E-04-3.66038E-05-3.00402E-05-2.32513E-06 4.15208E-20 7.12256E-19
 -1       672 1.09381E-04-3.83312E-05-3.04551E-05 1.31382E-06-4.95734E-19 8.27607E-19
 -1       673 1.11208E-04-3.84814E-05-3.11751E-05 5.76731E-06-3.34016E-19 8.49930E-19
 -1       674 1.11155E-04-3.59132E-05-3.22548E-05 9.78485E-06 3.25187E-19 1.20814E-18
 -1       675 1.08775E-04-3.04609E-05-3.35753E-05 1.11804E-05 5.16229E-19 1.16795E-18
 -1       676 1.05219E-04-2.42695E-05-3.46910E-05 8.03543E-06 6.98518E-19 1.44150E-18
 -1       677 1.03309E-04-2.11289E-05-3.52351E-05 8.20340E-07 7.52149E-19 6.25468E-19
 -1       678 1.04671E-04-2.30795E-05-3.49979E-05-7.04108E-06 7.83436E-19-9.68054E-19
 -1       679 1.08030E-04-2.89091E-05-3.39307E-05-1.13306E-05 1.09527E-18-1.49460E-19
 -1       680 1.10895E-04-3.48267E-05-3.26051E-05-1.08797E-05 1.45838E-18-2.00950E-19
 -1       681 1.11491E-04-3.80490E-05-3.14832E-05-7.36092E-06 1.11849E-18-4.01589E-19
 -1       682 1.10050E-04-3.84192E-05-3.07053E-05-2.96902E-06-1.17822E-19-4.71284E-19
 -1       683 1.07508E-04-3.69338E-05-3.02505E-05 7.91008E-07-3.06742E-19-9.49398E-19
 -1       684 1.04779E-04-3.47584E-05-3.00124E-05 3.38691E-06-1.49415E-18-2.37915E-19
 -1       685 1.02376E-04-3.26515E-05-2.98844E-05 4.85892E-06-6.23771E-19-6.08591E-19
 -1       686 1.00467E-04-3.09509E-05-2.97940E-05 5.45379E-06-8.01929E-19-2.01819E-19
 -1       687 9.90349E-05-2.97273E-05-2.97037E-05 5.44420E-06 5.99368E-19-2.30651E-19
 -1       688 9.79917E-05-2.89240E-05-2.96003E-05 5.06097E-06 9.45628E-19 2.12395E-19
 -1       689 9.72403E-05-2.84430E-05-2.94841E-05 4.47775E-06 1.11666E-18 7.62642E-19
 -1       690 9.66987E-05-2.81881E-05-2.93612E-05 3.81548E-06 4.66998E-19 1.67916E-18
 -1       691 9.63058E-05-2.80811E-05-2.92386E-05 3.15283E-06 6.69557E-20-5.30946E-19
 -1       692 9.60180E-05-2.80645E-05-2.91224E-05 2.53694E-06 7.01111E-19 4.29872E-19
 -1       693 9.58055E-05-2.80982E-05-2.90169E-05 1.99242E-06 3.45465E-19 3.30246E-19
 -1       694 9.56477E-05-2.81564E-05-2.89244E-05 1.52861E-06 9.79606E-20 1.44132E-18
 -1       695 9.55304E-05-2.82229E-05-2.88457E-05 1.14515E-06 1.38509E-18 2.49514E-18
 -1       696 9.54435E-05-2.82883E-05-2.87805E-05 8.36087E-07-3.94136E-19 1.35257E-18
 -1       697 9.53795E-05-2.83477E-05-2.87277E-05 5.92559E-07-1.77115E-18 2.25471E-18
 -1       698 9.53330E-05-2.83989E-05-2.86859E-05 4.04710E-07 2.12884E-19 1.72829E-19
 -1       699 9.52998E-05-2.84416E-05-2.86534E-05 2.62846E-07 1.74702E-19-8.98245E-19
 -1       700 9.52766E-05-2.84763E-05-2.86286E-05 1.58123E-07 3.19998E-19-1.80753E-19
 -1       701 9.52609E-05-2.85042E-05-2.86100E-05 8.29525E-08-1.18741E-18-9.02933E-19
 -1       702 9.52511E-05-2.85267E-05-2.85961E-05 3.12377E-08 2.00958E-19-1.34515E-18
 -1       703 9.52467E-05-2.85381E-05-2.85894E-05 6.22259E-09 1.64833E-19-6.38595E-19
 -1       704 9.52185E-05-2.84984E-05-2.85943E-05 9.01520E-10 1.14137E-18 2.60175E-19
 -1       705 9.52452E-05-2.85577E-05-2.85804E-05 1.73128E-08-7.31388E-19-8.38729E-19
 -1       706 9.52304E-05-2.85166E-05-2.85916E-05 4.06803E-09 1.15391E-18-1.91649E-18
 -1       707 9.52190E-05-2.84987E-05-2.85944E-05-3.31074E-09 4.96457E-19 1.05272E-18
 -1       708 9.52228E-05-2.85047E-05-2.85934E-05 4.08966E-09 5.33611E-19-1.38845E-18
 -1       709 1.13459E-04-5.48815E-05-2.49795E-05 2.66822E-05-2.13597E-18-1.75197E-18
 -1       710 9.52239E-05-2.85056E-05-2.85936E-05-6.00972E-09-1.02374E-19-9.43842E-19
 -1       711 9.52321E-05-2.85179E-05-2.85918E-05-5.19025E-09 6.74091E-19-4.39989E-18
 -1       712 9.52404E-05-2.85331E-05-2.85889E-05 2.26787E-10 3.23663E-19-2.81703E-18
 -1       713 9.62683E-05-2.66039E-05-2.98536E-05-2.12006E-06 1.25939E-18-2.61868E-19
 -1       714 1.08670E-04-5.45040E-05-2.29959E-05-3.03565E-05 3.68073E-18-6.47186E-19
 -1       715 8.29422E-05-3.98282E-05-1.82032E-05 3.64227E-05-1.83039E-18 1.22383E-19
 -1       716 7.02024E-05-3.33441E-05-1.54292E-05-3.66790E-05-1.93386E-18-2.83539E-18
 -1       717 1.25859E-04-1.44578E-05-4.84943E-05-7.30011E-06-4.02097E-18 4.91534E-19
 -1       718 8.77535E-05-4.26928E-05-1.90221E-05 3.45712E-05 1.76688E-18-6.53459E-19
 -1       719 9.75076E-05-2.85943E-05-2.95341E-05-5.98796E-06 2.59792E-19-1.89308E-19
 -1       720 9.52227E-05-2.28367E-05-3.10194E-05-2.33111E-06-1.01612E-18-1.94899E-18
 -1       721 9.61211E-05-2.55399E-05-3.02444E-05 1.23615E-07 1.51918E-18-4.64153E-19
 -1       722 7.27059E-05-3.47729E-05-1.58956E-05-3.49955E-05 2.45711E-18 2.72123E-18
 -1       723 1.26824E-04-1.64312E-05-4.78434E-05 1.00879E-05-2.73417E-18-8.04297E-19
 -1       724 1.29695E-04-5.72615E-05-3.11325E-05 9.95387E-06-6.60725E-19-3.17070E-18
 -1       725 1.17171E-04-1.05879E-05-4.62040E-05-4.71672E-06 4.41180E-18-2.87280E-19
 -1       726 1.35745E-04-5.03084E-05-3.68334E-05 2.70276E-06-2.02805E-19 1.81371E-18
 -1       727 1.03974E-04-5.14007E-05-2.23359E-05-3.27591E-05-2.04701E-18-1.36239E-18
 -1       728 1.07472E-04-5.36500E-05-2.28930E-05 3.01065E-05 1.26144E-18 7.57433E-19
 -1       729 1.30427E-04-3.41525E-05-4.16639E-05 1.27086E-05-5.09384E-19 9.43489E-19
 -1       730 9.07594E-05-1.60223E-05-3.20356E-05 2.41841E-06 1.63628E-18-2.05891E-18
 -1       731 9.04823E-05-1.56861E-05-3.20617E-05-2.45772E-06-4.52661E-19-2.50313E-18
 -1       732 1.26622E-04-5.90123E-05-2.89593E-05-1.76770E-05-1.93285E-18-4.28506E-19
 -1       733 1.24441E-04-2.30609E-05-4.38631E-05-1.39395E-05 3.84325E-18-1.87152E-18
 -1       734 1.31950E-04-6.06016E-05-3.06256E-05-1.08978E-05 2.46205E-18-2.41565E-18
 -1       735 3.96726E-05-1.09632E-05-1.17979E-05-1.21566E-06 2.93980E-20 2.81199E-18
 -1       736 9.19237E-05-1.74341E-05-3.19321E-05-3.37032E-06-8.53198E-19-2.47756E-18
 -1       737 8.90669E-05-1.40623E-05-3.21502E-05-5.77309E-07 4.90519E-19-2.53148E-18
 -1       738 1.21594E-04-2.53236E-05-4.16397E-05 1.36220E-05-1.55364E-19 1.94309E-18
 -1       739 9.52386E-05-2.85313E-05-2.85888E-05-2.38578E-10 2.82942E-18 1.79334E-18
 -1       740 4.79624E-05-1.31722E-05-1.45680E-05 1.20566E-05-9.18190E-19 1.26078E-18
 -1       741 9.41831E-05-2.05071E-05-3.15784E-05-4.05576E-06-1.26187E-18-2.33246E-18
 -1       742 3.80482E-05-1.15079E-05-1.08126E-05-1.95057E-06 5.70086E-19-4.95488E-18
 -1       743 9.52444E-05-2.85375E-05-2.85887E-05 1.58253E-09-1.23580E-18 4.33453E-20
 -1       744 5.09852E-05-1.96523E-05-1.29616E-05-2.62136E-05-7.94398E-19-4.07987E-18
 -1       745 7.22413E-05-2.98566E-05-1.78354E-05 3.01159E-05 1.95258E-18-1.84351E-18
 -1       746 4.77422E-05-1.40656E-05-1.40377E-05 1.22835E-05 1.56325E-18-3.05639E-18
 -1       747 1.32343E-04-3.26236E-05-4.31721E-05 1.80660E-05-1.22129E-18-2.71223E-18
 -1       748 8.95177E-05-1.45699E-05-3.21262E-05-1.51650E-06 8.64763E-20-2.63882E-18
 -1       749 1.12861E-04-1.25844E-05-4.33058E-05 4.37952E-06 2.72509E-18 1.71863E-18
 -1       750 9.41779E-05-2.15676E-05-3.11199E-05 1.55669E-06 1.57958E-18-1.11095E-18
 -1       751 9.43061E-05-2.41660E-05-3.00597E-05 3.60717E-06-6.00847E-19-1.79658E-18
 -1       752 9.38400E-05-2.44515E-05-2.97376E-05 5.42756E-06-5.17512E-19-1.49717E-18
 -1       753 9.31488E-05-2.44207E-05-2.94546E-05 7.11255E-06-3.95040E-19-1.21232E-18
 -1       754 9.23121E-05-2.42781E-05-2.91571E-05 8.76602E-06 7.67833E-20-8.05396E-19
 -1       755 9.14414E-05-2.42720E-05-2.87866E-05 1.05050E-05 4.66035E-19-7.77727E-19
 -1       756 9.07546E-05-2.47609E-05-2.82831E-05 1.24666E-05 2.50378E-19-6.72147E-19
 -1       757 9.06766E-05-2.62856E-05-2.75957E-05 1.48163E-05 5.34619E-19-4.80320E-19
 -1       758 9.19822E-05-2.96342E-05-2.67127E-05 1.77334E-05 1.03182E-18 5.31404E-19
 -1       759 9.59749E-05-3.58292E-05-2.57092E-05 2.12372E-05 1.05445E-18 3.82607E-19
 -1       760 1.11867E-04-5.06976E-05-2.60878E-05 2.13192E-05 1.48866E-18 1.23561E-18
 -1       761 9.41351E-05-2.17580E-05-3.10169E-05-8.90610E-07-8.03106E-19-2.21961E-18
 -1       762 1.02821E-04-4.35456E-05-2.53157E-05-2.23644E-05 1.00062E-18-1.13476E-19
 -1       763 9.48967E-05-3.41500E-05-2.59995E-05-1.95588E-05 9.23903E-19-9.19889E-19
 -1       764 9.13789E-05-2.84818E-05-2.69494E-05-1.62315E-05 3.85569E-19-1.07577E-18
 -1       765 9.03091E-05-2.55272E-05-2.77618E-05-1.33774E-05 1.08310E-19-2.11221E-18
 -1       766 9.04501E-05-2.42827E-05-2.83569E-05-1.10647E-05-4.76767E-19-2.13373E-18
 -1       767 9.10971E-05-2.40226E-05-2.87457E-05-9.16492E-06 2.07491E-19-8.54649E-19
 -1       768 9.18840E-05-2.42838E-05-2.89711E-05-7.56335E-06 7.17586E-19-7.76228E-19
 -1       769 9.26349E-05-2.47837E-05-2.90788E-05-6.19100E-06-5.57856E-19-1.55061E-18
 -1       770 9.32786E-05-2.53597E-05-2.91079E-05-5.01088E-06-7.19000E-19-1.70328E-18
 -1       771 9.37981E-05-2.59250E-05-2.90883E-05-4.00253E-06-1.07220E-19-2.35169E-18
 -1       772 9.42014E-05-2.64374E-05-2.90416E-05-3.15145E-06-2.55626E-19-3.33401E-18
 -1       773 9.45058E-05-2.68804E-05-2.89822E-05-2.44360E-06-6.06298E-19-2.60072E-18
 -1       774 9.47310E-05-2.72517E-05-2.89196E-05-1.86391E-06-5.61995E-19-2.59306E-18
 -1       775 9.48946E-05-2.75559E-05-2.88594E-05-1.39655E-06 2.55395E-19-9.77319E-19
 -1       776 9.50116E-05-2.78007E-05-2.88046E-05-1.02563E-06 1.95999E-18 1.04230E-18
 -1       777 9.50939E-05-2.79948E-05-2.87568E-05-7.35813E-07 3.33409E-19 3.00500E-18
 -1       778 9.51506E-05-2.81465E-05-2.87160E-05-5.12922E-07-5.45411E-19 2.10765E-18
 -1       779 9.51886E-05-2.82635E-05-2.86822E-05-3.44322E-07 1.82768E-19 1.12443E-18
 -1       780 9.52133E-05-2.83528E-05-2.86545E-05-2.19109E-07-2.39812E-20 5.20215E-20
 -1       781 9.52285E-05-2.84205E-05-2.86320E-05-1.28123E-07-1.61607E-18-2.19881E-18
 -1       782 9.52373E-05-2.84718E-05-2.86138E-05-6.42221E-08 1.50296E-19-2.55717E-18
 -1       783 9.52423E-05-2.85088E-05-2.86001E-05-2.48007E-08 3.53279E-18-1.07249E-18
 -1       784 9.90217E-05-3.10914E-05-2.91134E-05-8.11304E-06 1.17167E-19-3.38742E-19
 -1       785 9.75046E-05-2.93477E-05-2.92102E-05-7.74001E-06 1.92760E-19-6.23290E-19
 -1       786 1.04662E-04-3.66311E-05-2.91574E-05-6.72305E-06-5.84167E-19-2.86927E-19
 -1       787 1.08844E-04-3.99922E-05-2.95068E-05-4.16850E-06-6.32275E-19 2.19959E-19
 -1       788 1.13255E-04-4.24913E-05-3.03344E-05 1.66933E-07-5.72202E-19 7.61324E-19
 -1       789 1.16435E-04-4.21538E-05-3.18555E-05 5.99757E-06-3.34168E-19 5.71269E-19
 -1       790 1.16328E-04-3.68646E-05-3.41156E-05 1.14339E-05 1.38859E-19 1.35641E-18
 -1       791 1.12544E-04-2.71641E-05-3.66953E-05 1.25242E-05 3.73714E-19 1.64696E-18
 -1       792 1.11598E-04-2.47176E-05-3.73868E-05-1.19873E-05 9.94344E-19-1.49741E-18
 -1       793 1.15807E-04-3.48061E-05-3.48170E-05-1.27149E-05 1.08561E-18-2.09697E-18
 -1       794 1.16790E-04-4.12224E-05-3.23966E-05-8.05136E-06 3.18342E-19-1.02917E-18
 -1       795 1.14078E-04-4.25011E-05-3.06844E-05-2.06105E-06-2.27763E-19 2.65293E-19
 -1       796 1.09737E-04-4.04026E-05-2.97175E-05 2.58939E-06-2.18658E-19 3.84701E-19
 -1       797 1.05381E-04-3.70711E-05-2.92759E-05 5.40104E-06-4.81625E-19 9.47818E-19
 -1       798 1.01822E-04-3.38521E-05-2.91303E-05 6.72791E-06-1.27837E-18-8.02784E-19
 -1       799 9.92287E-05-3.12847E-05-2.91193E-05 7.04969E-06-5.68058E-19-1.86508E-19
 -1       800 9.74881E-05-2.94744E-05-2.91488E-05 6.76552E-06-4.00373E-19 2.00282E-19
 -1       801 9.63939E-05-2.83242E-05-2.91727E-05 6.14873E-06 1.02554E-18-1.05235E-18
 -1       802 9.57475E-05-2.76764E-05-2.91731E-05 5.37759E-06 5.14487E-19-1.59971E-18
 -1       803 9.53915E-05-2.73781E-05-2.91484E-05 4.56417E-06-6.52680E-19-1.40392E-18
 -1       804 9.52140E-05-2.73050E-05-2.91037E-05 3.77692E-06 9.53707E-19-4.54352E-20
 -1       805 9.51403E-05-2.73658E-05-2.90460E-05 3.05560E-06 4.03879E-19-1.36251E-19
 -1       806 9.51229E-05-2.74967E-05-2.89825E-05 2.42044E-06-3.37256E-20-5.08736E-19
 -1       807 9.51329E-05-2.76562E-05-2.89185E-05 1.87827E-06-5.96247E-19-5.44184E-19
 -1       808 9.51537E-05-2.78185E-05-2.88578E-05 1.42732E-06-3.67924E-19 1.08302E-18
 -1       809 9.51765E-05-2.79695E-05-2.88029E-05 1.06069E-06 3.70412E-19 2.61967E-18
 -1       810 9.51970E-05-2.81021E-05-2.87549E-05 7.68765E-07-1.04178E-18 1.25629E-18
 -1       811 9.52134E-05-2.82138E-05-2.87141E-05 5.40847E-07-4.07846E-20-1.55183E-18
 -1       812 9.52255E-05-2.83050E-05-2.86802E-05 3.66320E-07 6.82097E-19-1.09419E-18
 -1       813 9.52338E-05-2.83777E-05-2.86526E-05 2.35369E-07-2.25533E-19-3.85380E-21
 -1       814 9.52389E-05-2.84346E-05-2.86304E-05 1.39428E-07-4.58735E-19 3.08802E-19
 -1       815 9.52417E-05-2.84787E-05-2.86127E-05 7.15263E-08-6.28736E-19 2.61644E-20
 -1       816 6.90402E-05-2.64679E-05-1.80043E-05-2.83369E-05-1.38378E-18-2.22805E-18
 -1       817 1.20955E-04-3.33158E-05-3.76970E-05-1.39668E-05 1.40603E-18-2.67874E-18
 -1       818 9.05946E-05-1.69987E-05-3.15421E-05 2.29787E-07 7.92367E-19-2.10447E-18
 -1       819 9.52124E-05-2.84644E-05-2.86063E-05-2.20907E-08-6.10754E-21-2.58946E-18
 -1       820 9.51966E-05-2.84433E-05-2.86086E-05-1.50905E-09 8.50111E-19-9.62071E-19
 -1       821 1.26408E-04-4.88713E-05-3.32898E-05-3.86361E-06-1.39244E-19-3.50929E-18
 -1       822 9.52274E-05-2.84871E-05-2.86030E-05-2.36538E-08 7.01014E-19-3.53157E-18
 -1       823 9.52012E-05-2.84490E-05-2.86081E-05-1.36691E-08-6.97817E-19 1.55764E-18
 -1       824 9.56584E-05-2.57076E-05-2.99790E-05-2.93829E-06 1.03127E-18-6.79290E-19
 -1       825 6.96629E-05-3.17296E-05-1.58493E-05 3.49455E-05-2.08296E-18 1.56222E-18
 -1       826 9.53413E-05-2.36755E-05-3.07131E-05 9.44802E-07 1.50774E-18-7.66611E-19
 -1       827 1.18668E-04-5.42394E-05-2.75616E-05-1.73170E-05 2.27395E-18-9.28360E-19
 -1       828 5.37301E-05-1.51975E-05-1.62152E-05-1.42771E-05 1.87816E-19 3.13900E-18
 -1       829 1.01357E-04-3.35259E-05-2.90718E-05-7.88712E-06 9.24557E-20-1.89814E-19
 -1       830 9.94568E-05-4.42637E-05-2.35499E-05 2.65695E-05-2.25530E-18-1.14627E-18
 -1       831 9.58264E-05-2.65440E-05-2.96923E-05-4.58782E-06 6.41253E-19-5.99337E-19
 -1       832 6.27855E-05-2.27480E-05-1.68939E-05 2.61711E-05-9.41927E-19 5.33445E-19
 -1       833 9.37981E-05-4.23624E-05-2.19263E-05-3.03814E-05-1.96087E-18-1.37798E-18
 -1       834 6.61546E-05-2.41779E-05-1.77372E-05-2.55083E-05 7.00834E-19 1.68526E-18
 -1       835 1.19669E-04-5.30207E-05-2.85530E-05 1.26771E-05-1.43524E-18-2.22870E-18
 -1       836 8.14991E-05-3.43858E-05-2.00124E-05 3.05389E-05-2.55018E-18-2.09641E-19
 -1       837 1.27877E-04-4.25794E-05-3.67057E-05 9.67641E-06-3.11377E-19 1.02353E-18
 -1       838 9.44826E-05-2.34002E-05-3.04678E-05 1.50239E-06-6.55141E-19-2.01355E-18
 -1       839 1.28790E-04-5.38229E-05-3.21993E-05-3.42325E-06-8.89149E-19 1.51717E-18
 -1       840 1.16672E-04-5.39328E-05-2.68259E-05-1.98439E-05-2.08726E-18-4.04098E-19
 -1       841 9.31869E-05-1.97621E-05-3.14671E-05-2.23228E-06-6.80519E-19-2.54781E-18
 -1       842 9.48237E-05-4.26776E-05-2.21526E-05-2.92280E-05 2.61883E-18-8.31151E-21
 -1       843 1.12614E-04-1.86035E-05-4.05241E-05-1.02346E-05 3.23727E-18-5.90197E-19
 -1       844 5.11352E-05-1.41940E-05-1.55431E-05-1.22066E-05-1.43059E-19-3.87266E-18
 -1       845 9.02238E-05-1.65753E-05-3.15639E-05-1.94525E-07 6.01403E-19-2.28945E-18
 -1       846 1.21461E-04-3.42204E-05-3.75640E-05 1.27493E-05 1.05793E-19 1.59509E-18
 -1       847 9.16425E-05-1.78195E-05-3.16419E-05-1.75233E-06-6.76558E-19-2.17726E-18
 -1       848 9.52248E-05-2.84855E-05-2.86026E-05 2.27184E-08-3.29819E-19-9.82437E-19
 -1       849 9.05340E-05-1.64962E-05-3.17340E-05-1.18916E-06-4.75227E-20-2.33601E-18
 -1       850 5.30767E-05-1.29092E-05-1.69866E-05 1.68677E-07 7.58669E-19-3.58651E-18
 -1       851 9.65939E-05-2.81468E-05-2.93344E-05-6.97465E-06-6.95833E-20-6.66539E-19
 -1       852 1.07608E-04-1.71482E-05-3.89061E-05-4.57958E-06 2.54576E-18 5.30871E-19
 -1       853 9.52403E-05-2.85007E-05-2.86029E-05 3.56780E-08-2.20889E-18 2.51869E-18
 -1       854 9.52105E-05-2.84632E-05-2.86060E-05 2.00741E-08 1.64202E-18-1.19044E-18
 -1       855 9.52000E-05-2.84483E-05-2.86079E-05 1.10370E-08 1.50806E-18-9.86923E-19
 -1       856 9.52348E-05-2.84965E-05-2.86020E-05-2.54125E-08 1.47722E-18-3.81264E-18
 -1       857 9.27026E-05-1.95508E-05-3.13514E-05 1.19219E-06 1.38896E-18-1.83783E-18
 -1       858 9.29285E-05-3.92860E-05-2.27911E-05 2.70750E-05 1.92513E-18-5.50115E-19
 -1       859 6.48064E-05-2.08785E-05-1.86155E-05 2.09400E-05 1.54899E-18-2.27894E-18
 -1       860 5.26979E-05-1.24337E-05-1.70344E-05-2.56259E-06-4.01164E-19 2.50248E-18
 -1       861 9.60899E-05-2.72835E-05-2.94883E-05-5.91774E-06 4.28236E-19-4.12050E-19
 -1       862 9.14515E-05-1.80031E-05-3.14790E-05 7.05403E-07 1.05832E-18-1.77090E-18
 -1       863 9.52398E-05-2.85128E-05-2.85973E-05 1.85031E-08-1.23814E-19 2.58941E-18
 -1       864 9.55599E-05-2.48683E-05-3.02957E-05-1.18504E-06 1.31142E-18-8.05941E-19
 -1       865 9.26831E-05-2.29235E-05-2.99002E-05 3.66447E-06-2.40867E-19-1.81978E-18
 -1       866 9.17328E-05-2.29775E-05-2.94665E-05 5.16476E-06-2.01215E-19-1.42294E-18
 -1       867 9.03977E-05-2.27107E-05-2.90087E-05 6.56177E-06-7.21983E-20-1.05215E-18
 -1       868 8.87112E-05-2.22894E-05-2.84665E-05 8.00185E-06 1.44664E-19-1.24498E-18
 -1       869 8.67320E-05-2.19489E-05-2.77644E-05 9.66338E-06 2.50570E-19-1.61410E-18
 -1       870 8.45727E-05-2.20143E-05-2.68126E-05 1.18327E-05 4.62291E-19-1.64051E-18
 -1       871 8.25051E-05-2.30073E-05-2.54996E-05 1.49485E-05 1.01754E-18-1.63145E-18
 -1       872 8.11476E-05-2.57700E-05-2.36799E-05 1.96776E-05 1.26999E-18-1.68984E-18
 -1       873 9.26665E-05-1.98033E-05-3.12291E-05-7.90103E-07-5.77516E-19-2.16489E-18
 -1       874 8.08577E-05-2.45897E-05-2.40798E-05-1.79203E-05-1.73074E-19 1.15108E-18
 -1       875 8.22614E-05-2.22030E-05-2.57322E-05-1.35113E-05-2.21013E-19 9.03376E-19
 -1       876 8.42373E-05-2.14608E-05-2.69037E-05-1.05496E-05-4.18069E-19 1.00597E-18
 -1       877 8.62292E-05-2.15842E-05-2.77050E-05-8.49865E-06-5.04634E-19 5.47545E-19
 -1       878 8.80460E-05-2.21671E-05-2.82338E-05-6.96557E-06 1.18420E-19-7.23841E-20
 -1       879 8.96089E-05-2.29547E-05-2.85660E-05-5.73910E-06-7.61829E-19-1.06097E-18
 -1       880 9.09048E-05-2.37967E-05-2.87606E-05-4.71070E-06-2.71730E-19-1.52200E-18
 -1       881 9.19521E-05-2.46085E-05-2.88615E-05-3.82967E-06-2.10525E-19-9.77093E-19
 -1       882 9.27817E-05-2.53464E-05-2.89009E-05-3.07364E-06-2.51987E-19-5.74539E-19
 -1       883 9.34279E-05-2.59905E-05-2.89017E-05-2.43066E-06 2.25796E-19 3.43302E-19
 -1       884 9.39239E-05-2.65369E-05-2.88801E-05-1.89115E-06-2.06818E-19 1.36490E-18
 -1       885 9.42998E-05-2.69904E-05-2.88469E-05-1.44567E-06 4.11013E-19 1.86661E-18
 -1       886 9.45809E-05-2.73601E-05-2.88089E-05-1.08410E-06 1.08287E-18 9.73362E-19
 -1       887 9.47881E-05-2.76565E-05-2.87707E-05-7.95660E-07 2.53599E-18-1.14204E-18
 -1       888 9.49384E-05-2.78907E-05-2.87347E-05-5.69447E-07-9.53868E-19 1.54838E-19
 -1       889 9.50454E-05-2.80732E-05-2.87024E-05-3.95068E-07-1.28115E-18 1.20383E-18
 -1       890 9.51197E-05-2.82136E-05-2.86741E-05-2.63087E-07-7.27578E-19-1.82265E-18
 -1       891 9.51699E-05-2.83203E-05-2.86498E-05-1.65308E-07-1.27880E-18-1.65669E-18
 -1       892 9.52027E-05-2.84014E-05-2.86292E-05-9.45168E-08-6.61569E-19-8.93566E-19
 -1       893 9.59161E-05-2.90217E-05-2.86689E-05-9.01912E-06-2.88386E-20-9.37700E-19
 -1       894 1.11016E-04-4.38497E-05-2.87673E-05-7.99399E-06-1.35539E-18 4.06482E-19
 -1       895 1.04952E-04-3.89771E-05-2.82709E-05-1.00889E-05-7.66920E-19-3.21836E-19
 -1       896 1.23239E-04-4.63408E-05-3.30220E-05 5.05116E-06-4.70967E-19 1.21491E-18
 -1       897 8.44869E-05-3.15306E-05-2.25802E-05-2.43231E-05 2.65290E-19 1.46027E-18
 -1       898 1.12270E-04-4.45119E-05-2.90403E-05 6.41084E-06-1.61861E-18-2.37138E-18
 -1       899 1.05761E-04-3.96033E-05-2.83388E-05 9.04821E-06-6.19714E-19-7.00500E-19
 -1       900 1.00824E-04-3.50207E-05-2.81953E-05 9.66688E-06-7.59534E-19-9.83998E-19
 -1       901 9.75017E-05-3.14841E-05-2.82926E-05 9.21765E-06-1.10295E-18-4.02578E-20
 -1       902 9.54784E-05-2.90559E-05-2.84665E-05 8.30219E-06-9.79341E-19 5.01801E-20
 -1       903 9.43795E-05-2.75568E-05-2.86381E-05 7.22238E-06 1.57360E-18-1.29031E-18
 -1       904 9.38827E-05-2.67468E-05-2.87724E-05 6.13499E-06 1.76293E-18-6.33356E-19
 -1       905 9.37525E-05-2.64103E-05-2.88609E-05 5.11314E-06 4.93181E-20-9.77953E-19
 -1       906 9.38275E-05-2.63772E-05-2.89072E-05 4.18900E-06-3.12291E-19-1.82535E-18
 -1       907 9.40035E-05-2.65234E-05-2.89200E-05 3.37564E-06 5.21253E-19-9.27398E-19
 -1       908 9.42159E-05-2.67623E-05-2.89087E-05 2.67601E-06-5.31213E-19 5.29404E-19
 -1       909 9.44271E-05-2.70359E-05-2.88819E-05 2.08623E-06 3.44576E-20 4.59426E-19
 -1       910 9.46176E-05-2.73085E-05-2.88467E-05 1.59801E-06-8.27253E-19 5.03958E-19
 -1       911 9.47791E-05-2.75599E-05-2.88082E-05 1.20098E-06-8.55860E-19-5.02199E-19
 -1       912 9.49099E-05-2.77802E-05-2.87699E-05 8.83666E-07-7.10463E-19 2.74923E-19
 -1       913 9.50118E-05-2.79659E-05-2.87339E-05 6.34329E-07-2.23397E-19 1.18022E-19
 -1       914 9.50883E-05-2.81179E-05-2.87016E-05 4.41706E-07-9.53193E-20 9.96179E-19
 -1       915 9.51439E-05-2.82392E-05-2.86735E-05 2.95536E-07-1.03594E-18 1.64489E-18
 -1       916 9.51827E-05-2.83342E-05-2.86494E-05 1.86829E-07-6.02149E-19 3.26189E-18
 -1       917 9.52085E-05-2.84072E-05-2.86291E-05 1.08336E-07-2.47221E-19 3.45993E-18
 -1       918 6.67256E-05-1.95003E-05-2.01396E-05-1.68526E-05-6.63923E-19-1.98046E-18
 -1       919 9.52008E-05-2.84225E-05-2.86192E-05-5.12283E-08-7.28175E-19-2.32228E-18
 -1       920 1.08709E-04-4.59039E-05-2.68979E-05 1.60090E-05-1.34252E-18-8.89613E-19
 -1       921 9.46559E-05-2.48176E-05-2.99304E-05-3.61101E-06 8.61618E-19-1.20967E-18
 -1       922 8.44182E-05-3.23865E-05-2.22368E-05-2.52234E-05-1.08636E-18-1.62948E-18
 -1       923 6.69276E-05-1.96749E-05-2.01226E-05-1.77646E-05-3.08886E-19 2.98302E-18
 -1       924 9.01721E-05-1.62934E-05-3.16635E-05-5.89160E-07 3.40717E-19-2.27525E-18
 -1       925 6.08108E-05-1.69164E-05-1.86706E-05 1.55734E-05 2.95998E-20 6.20558E-19
 -1       926 1.17864E-04-4.74547E-05-3.01808E-05-2.82366E-06-5.53488E-19 7.48285E-19
 -1       927 1.05933E-04-4.54812E-05-2.58645E-05-2.01548E-05-1.57894E-18-9.82454E-19
 -1       928 1.20775E-04-5.14960E-05-2.96909E-05-7.43578E-06-1.03091E-18 1.53860E-19
 -1       929 1.19017E-04-4.77858E-05-3.05248E-05 1.56132E-06-1.46681E-19-2.76443E-18
 -1       930 9.31596E-05-2.22830E-05-3.03676E-05 2.04093E-06-4.00741E-19-1.93945E-18
 -1       931 6.38836E-05-1.58778E-05-2.04811E-05-8.47564E-06-1.57599E-19-2.56117E-18
 -1       932 9.14254E-05-1.82793E-05-3.13487E-05-6.01579E-07-1.92656E-19-2.10489E-18
 -1       933 9.10318E-05-1.87019E-05-3.09988E-05-4.02847E-07 4.88299E-19-2.06260E-18
 -1       934 7.35319E-05-2.48727E-05-2.07434E-05 2.26110E-05-1.31799E-19-8.82185E-19
 -1       935 9.50768E-05-2.75131E-05-2.89556E-05-7.85500E-06 1.20277E-19-1.25975E-18
 -1       936 9.75957E-05-3.13116E-05-2.84072E-05-9.98062E-06-2.09857E-19-8.01972E-19
 -1       937 9.52228E-05-2.84551E-05-2.86147E-05-5.56574E-08 8.56902E-19-2.07919E-18
 -1       938 6.23899E-05-1.60239E-05-1.97602E-05 1.09382E-05 1.36734E-18-2.03351E-18
 -1       939 9.41169E-05-2.24345E-05-3.07211E-05-5.12157E-07 1.27001E-18-1.34051E-18
 -1       940 1.00475E-04-3.46048E-05-2.82311E-05-1.04981E-05-2.46470E-19-3.77503E-19
 -1       941 9.46726E-05-2.56781E-05-2.95690E-05-5.17449E-06 4.57186E-19-1.30286E-18
 -1       942 9.51792E-05-2.83942E-05-2.86222E-05-3.65545E-08-9.54017E-19 1.00003E-18
 -1       943 9.52175E-05-2.84450E-05-2.86167E-05 6.33602E-08-1.68309E-18 1.97892E-18
 -1       944 9.51659E-05-2.83781E-05-2.86234E-05 1.11868E-08 6.51241E-19-2.64176E-18
 -1       945 9.48866E-05-2.36699E-05-3.05200E-05-8.23803E-07 1.26519E-18-1.08439E-18
 -1       946 9.47391E-05-3.71361E-05-2.46581E-05 2.11055E-05-1.33074E-18-9.80401E-19
 -1       947 7.72973E-05-2.74269E-05-2.12391E-05 2.40802E-05 1.51998E-18-1.65067E-18
 -1       948 9.17042E-05-1.94587E-05-3.09626E-05-4.91929E-07 6.83631E-19-1.79872E-18
 -1       949 9.51666E-05-2.83784E-05-2.86235E-05-1.43915E-08-1.91268E-19-1.44098E-18
 -1       950 9.44917E-05-2.36380E-05-3.03678E-05-1.79744E-06 1.04139E-18-1.22666E-18
 -1       951 6.03349E-05-1.37690E-05-1.98553E-05 4.60527E-06-7.58746E-19 2.49431E-18
 -1       952 6.20417E-05-1.50662E-05-2.00110E-05-9.33925E-06-1.59067E-18 2.45630E-18
 -1       953 8.49331E-05-3.17509E-05-2.27176E-05 2.33481E-05-1.29089E-18-2.85075E-19
 -1       954 9.51977E-05-2.84213E-05-2.86185E-05 5.04297E-08 1.12624E-18 1.83601E-18
 -1       955 9.51772E-05-2.83933E-05-2.86217E-05 3.46923E-08 2.66856E-18-2.06314E-18
 -1       956 8.95109E-05-2.16841E-05-2.90702E-05 4.07018E-06-3.31540E-20-1.54190E-18
 -1       957 8.75055E-05-2.11549E-05-2.84364E-05 4.98001E-06 1.73532E-20-1.49980E-18
 -1       958 8.49067E-05-2.04015E-05-2.76452E-05 5.94181E-06-3.00090E-20-1.47137E-18
 -1       959 8.16214E-05-1.95745E-05-2.65909E-05 7.15175E-06 3.41448E-19-1.57574E-18
 -1       960 7.74826E-05-1.88144E-05-2.51437E-05 9.00786E-06 6.97356E-19-1.54727E-18
 -1       961 7.22930E-05-1.84869E-05-2.29995E-05 1.20352E-05 9.77297E-19-1.94130E-18
 -1       962 7.24350E-05-1.78295E-05-2.33899E-05-1.07692E-05-1.28290E-18 1.45007E-18
 -1       963 7.02247E-05-1.94633E-05-2.16834E-05 1.48937E-05-1.15264E-19 1.57093E-19
 -1       964 9.27941E-05-2.07441E-05-3.08788E-05-5.12011E-07 9.54222E-19-1.61083E-18
 -1       965 7.73527E-05-1.83405E-05-2.52924E-05-7.96971E-06-5.91018E-20 4.33334E-19
 -1       966 8.11472E-05-1.91598E-05-2.65668E-05-6.28585E-06-8.98039E-19 2.65562E-19
 -1       967 8.41600E-05-2.01729E-05-2.74236E-05-5.17449E-06 4.36009E-19 3.08135E-19
 -1       968 8.65691E-05-2.12549E-05-2.79919E-05-4.34953E-06-1.06096E-18-9.24666E-19
 -1       969 8.85040E-05-2.23304E-05-2.83601E-05-3.66807E-06-1.22312E-18-1.19648E-18
 -1       970 9.00544E-05-2.33464E-05-2.85892E-05-3.06980E-06-7.11962E-20-1.56367E-18
 -1       971 9.12908E-05-2.42729E-05-2.87221E-05-2.53466E-06 2.86484E-19-1.71356E-18
 -1       972 9.22675E-05-2.50910E-05-2.87899E-05-2.05920E-06 7.05735E-19-1.40395E-18
 -1       973 9.30312E-05-2.57948E-05-2.88156E-05-1.64315E-06 6.29022E-19-1.77177E-18
 -1       974 9.36225E-05-2.63880E-05-2.88148E-05-1.28600E-06 6.78665E-19-8.63977E-19
 -1       975 9.40752E-05-2.68792E-05-2.87983E-05-9.86446E-07 1.06690E-18 1.89544E-19
 -1       976 9.44170E-05-2.72788E-05-2.87736E-05-7.40649E-07 1.71785E-19 1.33415E-19
 -1       977 9.46714E-05-2.75988E-05-2.87454E-05-5.43014E-07 4.08801E-19-3.45053E-18
 -1       978 9.48574E-05-2.78511E-05-2.87170E-05-3.87204E-07-1.56374E-19-2.96448E-18
 -1       979 9.49908E-05-2.80473E-05-2.86901E-05-2.66810E-07-1.67433E-18-1.95674E-18
 -1       980 9.50843E-05-2.81981E-05-2.86655E-05-1.75631E-07-4.28187E-19-1.64432E-18
 -1       981 9.51472E-05-2.83121E-05-2.86436E-05-1.07452E-07-9.77955E-19-9.84494E-19
 -1       982 1.02382E-04-3.94304E-05-2.69637E-05 1.44405E-05-1.27254E-18-1.92384E-18
 -1       983 9.45726E-05-3.10587E-05-2.72233E-05 1.20279E-05-9.93067E-19-1.34545E-18
 -1       984 9.25870E-05-2.81453E-05-2.76172E-05 1.00400E-05-9.36518E-19-1.77716E-18
 -1       985 9.17316E-05-2.64335E-05-2.79847E-05 8.24478E-06 3.68262E-19-1.54346E-18
 -1       986 9.15577E-05-2.55616E-05-2.82838E-05 6.70319E-06 8.78909E-19-5.28855E-19
 -1       987 9.17693E-05-2.52553E-05-2.85060E-05 5.41135E-06 6.43967E-19 7.51813E-19
 -1       988 9.21727E-05-2.53039E-05-2.86582E-05 4.33639E-06 5.68139E-19 5.16947E-19
 -1       989 9.26498E-05-2.55612E-05-2.87522E-05 3.44428E-06-1.21094E-18 5.75588E-19
 -1       990 9.31293E-05-2.59250E-05-2.88018E-05 2.70782E-06-1.00477E-18 2.17809E-18
 -1       991 9.35713E-05-2.63259E-05-2.88195E-05 2.10425E-06-6.10467E-19 2.06334E-18
 -1       992 9.39559E-05-2.67196E-05-2.88156E-05 1.61332E-06-1.12147E-18 2.48920E-18
 -1       993 9.42776E-05-2.70817E-05-2.87983E-05 1.21810E-06 5.81292E-20 2.34480E-18
 -1       994 9.45375E-05-2.73993E-05-2.87735E-05 9.03799E-07-3.45113E-19 2.47613E-18
 -1       995 9.47414E-05-2.76682E-05-2.87456E-05 6.57026E-07 8.42579E-20 1.76082E-18
 -1       996 9.48967E-05-2.78894E-05-2.87174E-05 4.65973E-07-1.03406E-18 7.83710E-19
 -1       997 9.50118E-05-2.80670E-05-2.86907E-05 3.20083E-07-7.49912E-19 1.53751E-18
 -1       998 9.50948E-05-2.82069E-05-2.86663E-05 2.10579E-07-2.64084E-18 3.58938E-18
 -1       999 9.51519E-05-2.83147E-05-2.86445E-05 1.30227E-07-6.44860E-19 4.20974E-18
 -1      1000 9.52864E-05-3.60033E-05-2.53890E-05-1.91736E-05-6.73600E-19-7.78515E-19
 -1      1001 9.51773E-05-2.83716E-05-2.86310E-05 8.43564E-08 1.12920E-18 4.64681E-18
 -1      1002 9.08939E-05-1.85584E-05-3.10035E-05-2.30139E-07 1.83995E-19-1.86895E-18
 -1      1003 6.85691E-05-1.92665E-05-2.10364E-05 1.57379E-05 1.40478E-18-2.51163E-18
 -1      1004 9.47466E-05-2.64914E-05-2.92521E-05-6.57466E-06 1.45172E-19-1.18886E-18
 -1      1005 9.34525E-05-2.29169E-05-3.02276E-05-2.44669E-06 9.43126E-19-1.42259E-18
 -1      1006 9.19812E-05-2.09737E-05-3.04340E-05 1.33662E-06-2.50269E-19-1.56360E-18
 -1      1007 7.94044E-05-2.51173E-05-2.32534E-05-1.79240E-05-4.90207E-19-1.71348E-18
 -1      1008 9.76539E-05-3.46806E-05-2.69936E-05 1.35310E-05-4.59478E-19-1.34821E-19
 -1      1009 1.03688E-04-4.08929E-05-2.69149E-05-1.53806E-05-1.10087E-18-1.55457E-18
 -1      1010 9.09626E-05-2.18313E-05-2.96256E-05 3.11790E-06 3.51591E-20-1.34919E-18
 -1      1011 6.60969E-05-1.51831E-05-2.17864E-05 1.50587E-06 4.19928E-19-1.85547E-18
 -1      1012 7.83822E-05-2.47930E-05-2.29225E-05 1.83300E-05-2.78929E-19-1.99877E-18
 -1      1013 9.28200E-05-2.65385E-05-2.84060E-05-8.59261E-06 1.55971E-20-1.12062E-18
 -1      1014 9.51262E-05-2.83027E-05-2.86387E-05 4.03570E-08-9.21062E-20-4.07776E-18
 -1      1015 9.33460E-05-2.81918E-05-2.79235E-05-1.03733E-05-2.60902E-19-1.23825E-18
 -1      1016 9.10043E-05-1.99114E-05-3.04693E-05-4.93726E-07 1.97140E-19-1.94380E-18
 -1      1017 1.12287E-04-4.56253E-05-2.85320E-05-9.42452E-06-1.02220E-18-5.33421E-19
 -1      1018 9.80698E-05-3.49879E-05-2.70334E-05-1.42199E-05-4.05544E-19-1.08764E-18
 -1      1019 9.07568E-05-3.19061E-05-2.52223E-05 1.76821E-05-8.28382E-19-1.35038E-18
 -1      1020 9.33512E-05-2.39348E-05-2.97496E-05-3.98112E-06 5.72227E-19-1.10661E-18
 -1      1021 7.45225E-05-2.06604E-05-2.30440E-05-1.31762E-05-2.49546E-19-1.62718E-18
 -1      1022 9.51179E-05-2.82919E-05-2.86397E-05-1.43193E-09 2.67148E-19-2.86644E-18
 -1      1023 9.15159E-05-2.04449E-05-3.04596E-05-1.17818E-06 5.10193E-19-1.65012E-18
 -1      1024 9.51492E-05-2.83330E-05-2.86354E-05 6.71292E-08 7.59540E-19-1.27201E-18
 -1      1025 7.12222E-05-1.59280E-05-2.36784E-05-2.38815E-06-7.09331E-19 3.32446E-18
 -1      1026 8.49741E-05-2.00700E-05-2.78169E-05 2.27623E-06 5.90858E-20-1.37661E-18
 -1      1027 8.15838E-05-1.90603E-05-2.67953E-05 2.36280E-06 1.70335E-19-1.37640E-18
 -1      1028 7.71784E-05-1.78103E-05-2.54458E-05 2.50879E-06 5.76423E-19-1.26640E-18
 -1      1029 9.08041E-05-1.77282E-05-3.13132E-05-3.72984E-07 8.25472E-20-2.02471E-18
 -1      1030 9.30911E-05-2.47136E-05-2.93043E-05-5.46743E-06 1.93723E-19-1.11861E-18
 -1      1031 8.86678E-05-2.40129E-05-2.77089E-05 6.91816E-06-7.20930E-19 2.44395E-19
 -1      1032 9.49135E-05-3.09042E-05-2.74426E-05-1.23489E-05-3.22290E-19-8.32431E-19
 -1      1033 7.67474E-05-1.73516E-05-2.54490E-05-2.19089E-06-7.33773E-19 2.68812E-18
 -1      1034 8.08623E-05-1.87310E-05-2.66278E-05-2.06654E-06-9.93432E-19 2.02137E-18
 -1      1035 8.39789E-05-1.99959E-05-2.74213E-05-1.99447E-06-1.29386E-18 1.31347E-19
 -1      1036 8.64288E-05-2.12041E-05-2.79533E-05-1.88743E-06-1.37914E-18 2.46796E-19
 -1      1037 8.83753E-05-2.23307E-05-2.83053E-05-1.72886E-06-2.06363E-19 5.35756E-19
 -1      1038 8.99380E-05-2.33696E-05-2.85296E-05-1.53350E-06 3.29106E-19 6.15510E-19
 -1      1039 9.11831E-05-2.43002E-05-2.86641E-05-1.32228E-06-4.07929E-20-8.18643E-19
 -1      1040 9.21741E-05-2.51195E-05-2.87377E-05-1.10793E-06-2.91911E-20-2.15043E-18
 -1      1041 9.29522E-05-2.58200E-05-2.87711E-05-9.01112E-07 1.52005E-18-2.64503E-18
 -1      1042 9.35610E-05-2.64126E-05-2.87780E-05-7.14696E-07 1.18493E-18-3.63779E-18
 -1      1043 9.40290E-05-2.69026E-05-2.87686E-05-5.53078E-07 8.42029E-19-3.76222E-18
 -1      1044 9.43838E-05-2.73008E-05-2.87500E-05-4.17094E-07-3.51999E-19-3.13020E-18
 -1      1045 9.46487E-05-2.76193E-05-2.87270E-05-3.05944E-07-4.89948E-19-1.75028E-18
 -1      1046 9.48426E-05-2.78698E-05-2.87027E-05-2.17176E-07-3.96034E-19-1.70155E-18
 -1      1047 9.49816E-05-2.80643E-05-2.86789E-05-1.48986E-07-4.38326E-19-6.94613E-19
 -1      1048 9.50785E-05-2.82132E-05-2.86567E-05-9.72450E-08 5.63139E-19-9.54540E-19
 -1      1049 8.81785E-05-2.47263E-05-2.71946E-05 8.97751E-06-4.33515E-19 2.22345E-19
 -1      1050 6.59364E-05-1.45998E-05-2.19714E-05 3.60114E-07-1.53271E-18 3.68130E-18
 -1      1051 8.82518E-05-2.63390E-05-2.65367E-05 1.17114E-05-1.30727E-18-1.59597E-19
 -1      1052 8.94264E-05-2.38762E-05-2.80934E-05 5.34253E-06 1.07758E-19 7.13039E-19
 -1      1053 9.02808E-05-2.40896E-05-2.83684E-05 4.13277E-06 5.60435E-19 4.70175E-19
 -1      1054 9.11316E-05-2.45045E-05-2.85544E-05 3.19670E-06-5.58500E-19 1.11822E-18
 -1      1055 9.19226E-05-2.50214E-05-2.86718E-05 2.46465E-06-1.49950E-18 2.11237E-18
 -1      1056 9.26211E-05-2.55644E-05-2.87387E-05 1.88783E-06-9.86055E-19 1.68362E-18
 -1      1057 9.32163E-05-2.60864E-05-2.87702E-05 1.43488E-06-1.14945E-18 1.70664E-18
 -1      1058 9.37115E-05-2.65651E-05-2.87772E-05 1.07868E-06-4.98547E-19 2.33672E-18
 -1      1059 9.41111E-05-2.69847E-05-2.87686E-05 8.00550E-07-3.33548E-19 3.50453E-18
 -1      1060 9.44257E-05-2.73408E-05-2.87508E-05 5.84600E-07 3.09119E-20 3.47141E-18
 -1      1061 9.46679E-05-2.76353E-05-2.87284E-05 4.18221E-07 9.91985E-19 4.24841E-18
 -1      1062 9.48489E-05-2.78721E-05-2.87044E-05 2.92132E-07-7.32607E-19 2.89072E-18
 -1      1063 9.49816E-05-2.80595E-05-2.86809E-05 1.98207E-07-1.25061E-18 2.12027E-18
 -1      1064 9.50765E-05-2.82063E-05-2.86587E-05 1.26808E-07-1.24444E-18-1.65975E-18
 -1      1065 9.11353E-05-2.00478E-05-3.04671E-05 3.78214E-07 8.64905E-20-1.63828E-18
 -1      1066 8.72705E-05-2.77714E-05-2.54864E-05-1.53102E-05-2.85736E-19-1.16349E-18
 -1      1067 9.28344E-05-2.54857E-05-2.88635E-05-6.97784E-06 3.63398E-19-1.06672E-18
 -1      1068 8.75280E-05-2.07754E-05-2.86099E-05 2.08830E-06-1.05095E-20-1.43705E-18
 -1      1069 7.15093E-05-1.78341E-05-2.29793E-05 9.64306E-06-1.88639E-18 1.05722E-18
 -1      1070 9.51264E-05-2.83009E-05-2.86396E-05-4.36420E-08-1.52000E-20-1.24617E-18
 -1      1071 9.00242E-05-2.10287E-05-2.95687E-05 1.06118E-06-5.28534E-20-1.41356E-18
 -1      1072 8.89117E-05-2.10038E-05-2.91036E-05 1.53271E-06-6.61905E-20-1.38161E-18
 -1      1073 8.28372E-05-2.40158E-05-2.51974E-05-1.29401E-05-3.19706E-19-1.67129E-18
 -1      1074 9.25214E-05-2.15350E-05-3.04232E-05-1.71293E-06 8.56746E-19-1.30516E-18
 -1      1075 9.09003E-05-2.10304E-05-2.99445E-05-1.36600E-06 5.22518E-19-1.53505E-18
 -1      1076 8.96267E-05-2.50295E-05-2.76858E-05-8.97650E-06-8.07175E-20-8.75732E-19
 -1      1077 9.03000E-05-2.08857E-05-2.97478E-05-3.59744E-07 9.55708E-20-1.43872E-18
 -1      1078 9.03032E-05-2.41748E-05-2.83404E-05-6.97141E-06-3.83039E-20-1.19215E-18
 -1      1079 8.86113E-05-2.82864E-05-2.58616E-05 1.44537E-05-3.16365E-19-1.20540E-18
 -1      1080 7.22204E-05-1.74348E-05-2.34569E-05-5.79051E-06-2.04955E-19-2.06384E-18
 -1      1081 7.67594E-05-2.14515E-05-2.36780E-05 1.33766E-05-1.36412E-18-9.27042E-19
 -1      1082 9.50538E-05-2.81881E-05-2.86567E-05 3.44412E-08 5.23482E-19-2.87485E-18
 -1      1083 9.24130E-05-2.26791E-05-2.98831E-05-3.04832E-06 5.78905E-19-1.02877E-18
 -1      1084 8.94652E-05-2.65566E-05-2.69595E-05-1.15213E-05-3.39382E-19-6.63061E-19
 -1      1085 7.98620E-05-1.90142E-05-2.60850E-05-2.58993E-06 3.01340E-19-1.20248E-18
 -1      1086 7.36529E-05-1.72998E-05-2.41434E-05 5.44469E-06-9.08463E-19 2.39358E-18
 -1      1087 9.49447E-05-2.80298E-05-2.86779E-05 5.59871E-08 1.04448E-18-3.48210E-18
 -1      1088 9.19337E-05-2.34250E-05-2.93618E-05-4.41542E-06 3.96698E-19-1.18926E-18
 -1      1089 8.82107E-05-2.27470E-05-2.80558E-05 3.50277E-06-5.76961E-20 8.43323E-19
 -1      1090 9.50538E-05-2.81861E-05-2.86574E-05-3.41344E-08 4.15112E-20-9.76604E-19
 -1      1091 7.90494E-05-1.84831E-05-2.59606E-05 2.38782E-06-1.26268E-18 2.21250E-18
 -1      1092 8.24155E-05-1.95817E-05-2.69270E-05 1.34203E-06-2.36616E-18 1.66034E-18
 -1      1093 8.50459E-05-2.06702E-05-2.75880E-05 6.83938E-07-1.42984E-18 2.59016E-18
 -1      1094 8.71715E-05-2.17376E-05-2.80425E-05 2.42185E-07-7.87250E-19 3.15260E-18
 -1      1095 8.89501E-05-2.27979E-05-2.83498E-05-5.77406E-08-7.39659E-19 2.35774E-18
 -1      1096 9.03361E-05-2.37371E-05-2.85420E-05-2.10694E-07-1.17047E-18 2.10040E-18
 -1      1097 9.14595E-05-2.45886E-05-2.86582E-05-2.51604E-07-1.43731E-18 1.09149E-18
 -1      1098 9.23622E-05-2.53419E-05-2.87228E-05-2.58003E-07-8.26894E-19-5.16475E-19
 -1      1099 9.30925E-05-2.60034E-05-2.87526E-05-2.42249E-07 1.45961E-19-3.76768E-18
 -1      1100 9.36636E-05-2.65599E-05-2.87588E-05-2.09238E-07 1.14061E-19-4.61795E-18
 -1      1101 9.41047E-05-2.70207E-05-2.87504E-05-1.71057E-07 7.15104E-19-3.91520E-18
 -1      1102 9.44400E-05-2.73952E-05-2.87335E-05-1.33950E-07 5.51546E-19-2.64023E-18
 -1      1103 9.46911E-05-2.76950E-05-2.87126E-05-1.01599E-07 1.40553E-18-1.98544E-18
 -1      1104 9.48739E-05-2.79301E-05-2.86902E-05-7.43114E-08 3.24143E-19-2.15042E-18
 -1      1105 9.49760E-05-2.80712E-05-2.86734E-05-5.13689E-08 2.59618E-19-1.24234E-18
 -1      1106 8.52112E-05-2.20693E-05-2.70601E-05 6.42881E-06-7.15825E-19 3.27604E-19
 -1      1107 8.35604E-05-2.23025E-05-2.62557E-05 8.87388E-06-1.37174E-18-9.94146E-19
 -1      1108 8.95268E-05-2.33962E-05-2.83391E-05 2.58452E-06-1.28577E-18 9.56147E-19
 -1      1109 9.06821E-05-2.41053E-05-2.85324E-05 1.88885E-06-1.63737E-18 1.34473E-18
 -1      1110 9.16611E-05-2.48034E-05-2.86519E-05 1.40271E-06-8.55534E-19 1.85803E-18
 -1      1111 9.24550E-05-2.54461E-05-2.87183E-05 1.04593E-06-5.42264E-19 1.36659E-18
 -1      1112 9.31207E-05-2.60390E-05-2.87492E-05 7.67231E-07-2.42327E-18 1.86350E-18
 -1      1113 9.36628E-05-2.65606E-05-2.87579E-05 5.60984E-07-6.49247E-19 2.35526E-18
 -1      1114 9.40903E-05-2.70035E-05-2.87513E-05 4.05884E-07 7.79667E-19 2.40100E-18
 -1      1115 9.44206E-05-2.73703E-05-2.87357E-05 2.89772E-07 1.51218E-18 3.00236E-19
 -1      1116 9.46697E-05-2.76670E-05-2.87154E-05 2.02699E-07 1.27082E-18 4.44877E-19
 -1      1117 9.48228E-05-2.78639E-05-2.86965E-05 1.13346E-07 5.30581E-19-2.53204E-18
 -1      1118 8.68076E-05-2.23054E-05-2.76435E-05 4.71693E-06-1.73120E-19-5.08233E-19
 -1      1119 9.11927E-05-2.38091E-05-2.88779E-05-5.61402E-06 2.80734E-19-1.31955E-18
 -1      1120 8.18717E-05-2.26606E-05-2.53833E-05 1.13433E-05-1.33823E-18-1.13449E-18
 -1      1121 9.15165E-05-2.17195E-05-2.99119E-05-2.25570E-06 5.51631E-19-1.35157E-18
 -1      1122 8.62939E-05-2.05838E-05-2.81632E-05-7.27065E-07 1.72259E-19-1.10689E-18
 -1      1123 8.34869E-05-1.98913E-05-2.72550E-05-1.46191E-06 3.10418E-19-1.12382E-18
 -1      1124 9.03914E-05-2.17578E-05-2.94126E-05-2.49677E-06 4.50827E-19-1.36857E-18
 -1      1125 8.79755E-05-2.09472E-05-2.87267E-05-7.54831E-07 6.56002E-20-1.15199E-18
 -1      1126 8.71483E-05-2.24938E-05-2.77086E-05-6.24858E-06 8.16656E-20-1.00249E-18
 -1      1127 7.69739E-05-1.97850E-05-2.45101E-05 9.39244E-06-6.94561E-19 8.10648E-19
 -1      1128 8.54053E-05-2.28287E-05-2.68193E-05-8.49209E-06-1.90414E-19-1.44601E-18
 -1      1129 7.93354E-05-2.04471E-05-2.52333E-05-8.40001E-06-1.69004E-19-1.56693E-18
 -1      1130 8.92899E-05-2.10862E-05-2.92293E-05-7.73836E-07 5.00059E-20-1.01995E-18
 -1      1131 8.95147E-05-2.32455E-05-2.84042E-05 9.03557E-07-8.20095E-19 8.41379E-19
 -1      1132 8.49160E-05-2.11072E-05-2.73513E-05 3.55614E-06-3.84011E-19 8.10172E-19
 -1      1133 9.10597E-05-2.43296E-05-2.86006E-05 8.02666E-07-1.41475E-18-2.91834E-19
 -1      1134 8.14015E-05-1.98813E-05-2.63651E-05 4.76597E-06-1.89395E-18-4.25357E-19
 -1      1135 8.87613E-05-2.25068E-05-2.83951E-05-4.93028E-06-4.68847E-20-9.04309E-19
 -1      1136 8.96515E-05-2.20080E-05-2.89896E-05-3.30474E-06 2.39985E-19-1.12375E-18
 -1      1137 7.91449E-05-1.96243E-05-2.55072E-05 6.92379E-06-1.47791E-18-2.05262E-19
 -1      1138 8.63593E-05-2.10782E-05-2.79786E-05-3.04773E-06 1.34614E-19-1.05751E-18
 -1      1139 8.32670E-05-2.07032E-05-2.68162E-05-5.09101E-06 4.61505E-20-1.39846E-18
 -1      1140 8.80291E-05-2.14719E-05-2.85245E-05-2.81964E-06 4.67827E-20-8.44842E-19
 -1      1141 1.16233E-04 2.56500E-10-4.17103E-05-4.07867E-05-3.25684E-19 8.12156E-18
 -1      1142 8.88941E-05 7.34934E-11-3.73168E-05-2.33310E-05-1.63901E-19 1.37113E-19
 -1      1143 8.45024E-05 4.25452E-11-3.59166E-05-1.68397E-05-1.04873E-19-3.09168E-18
 -1      1144 8.27126E-05 3.21333E-11-3.52208E-05-1.26981E-05-6.41098E-20-4.51079E-18
 -1      1145 8.17485E-05 2.63808E-11-3.48343E-05-9.42746E-06-3.78783E-20-5.11018E-18
 -1      1146 8.11487E-05 2.26967E-11-3.45982E-05-6.69176E-06-1.81980E-20-5.24190E-18
 -1      1147 8.07597E-05 2.02819E-11-3.44482E-05-4.29422E-06-4.51310E-21-5.19613E-18
 -1      1148 8.05340E-05 1.89288E-11-3.43623E-05-2.08718E-06 5.82666E-21-5.04838E-18
 -1      1149 8.04629E-05 1.85453E-11-3.43350E-05 2.14148E-08 1.94751E-20-4.86960E-18
 -1      1150 8.05422E-05 1.90924E-11-3.43643E-05 2.13949E-06 3.40434E-20-4.65539E-18
 -1      1151 8.07725E-05 2.05842E-11-3.44510E-05 4.37352E-06 4.20539E-20-4.38391E-18
 -1      1152 8.11632E-05 2.30715E-11-3.46000E-05 6.81129E-06 5.86041E-20-3.92081E-18
 -1      1153 8.17599E-05 2.68725E-11-3.48348E-05 9.59723E-06 8.05475E-20-3.14895E-18
 -1      1154 8.27164E-05 3.27085E-11-3.52221E-05 1.29295E-05 9.59530E-20-1.89257E-18
 -1      1155 8.44775E-05 4.30212E-11-3.59284E-05 1.71195E-05 1.28114E-19 3.42969E-19
 -1      1156 8.85853E-05 6.83975E-11-3.73818E-05 2.32084E-05 1.28961E-19 4.39070E-18
 -1      1157 1.06189E-04 1.64674E-10-4.05173E-05 3.55762E-05 2.32722E-19 1.22575E-17
 -1      1158 1.29241E-04-2.56499E-05-4.00843E-05-2.56524E-05-1.25986E-18 1.31227E-17
 -1      1159 9.75267E-05-2.88913E-05-3.15976E-05-6.07850E-07-4.34131E-19 1.01559E-17
 -1      1160 9.10115E-05-2.72921E-05-2.81414E-05 3.97787E-07-1.92674E-19 6.14766E-18
 -1      1161 8.98372E-05-2.70595E-05-2.71286E-05 2.56509E-07-5.42763E-20 3.60180E-18
 -1      1162 9.03585E-05-2.71994E-05-2.71483E-05 1.75539E-07-5.67479E-20 1.85458E-18
 -1      1163 9.18547E-05-2.76209E-05-2.75846E-05 1.36100E-07-1.01644E-19 6.31357E-19
 -1      1164 9.40431E-05-2.82597E-05-2.82484E-05 1.18839E-07-4.49407E-20-3.94532E-19
 -1      1165 9.68366E-05-2.90884E-05-2.90957E-05 1.17088E-07 1.92899E-20-8.06706E-19
 -1      1166 1.00236E-04-3.01027E-05-3.01242E-05 1.28465E-07 1.03455E-20-1.74682E-18
 -1      1167 1.04274E-04-3.13084E-05-3.13403E-05 1.52066E-07-7.90065E-20-2.54856E-18
 -1      1168 1.08950E-04-3.27028E-05-3.27367E-05 1.85571E-07-1.00629E-19-3.97920E-18
 -1      1169 1.14150E-04-3.42481E-05-3.42645E-05 2.20952E-07-2.20267E-20-4.35412E-18
 -1      1170 1.19501E-04-3.58306E-05-3.57925E-05 2.37708E-07-7.01631E-20-4.28088E-18
 -1      1171 1.24199E-04-3.72085E-05-3.70627E-05 1.94970E-07-8.58812E-20-4.76091E-18
 -1      1172 1.26866E-04-3.79712E-05-3.76733E-05 3.18728E-08 4.45089E-20-2.96751E-18
 -1      1173 1.25674E-04-3.75808E-05-3.71555E-05-3.03787E-07-1.41349E-19-3.10009E-18
 -1      1174 1.19096E-04-3.56022E-05-3.52182E-05-7.71513E-07-4.85720E-20-4.18180E-18
 -1      1175 1.07471E-04-3.21784E-05-3.21088E-05-1.14266E-06-9.00800E-20-5.47374E-18
 -1      1176 9.44255E-05-2.84009E-05-2.88280E-05-1.06216E-06-3.09035E-21-6.93498E-18
 -1      1177 8.60710E-05-2.60135E-05-2.68071E-05-3.80627E-07 9.35971E-20-7.08601E-18
 -1      1178 8.71281E-05-2.63175E-05-2.70660E-05 5.50563E-07 5.61689E-20-6.91835E-18
 -1      1179 9.70357E-05-2.91549E-05-2.94877E-05 1.12993E-06-1.88842E-19-7.23281E-18
 -1      1180 1.10440E-04-3.30506E-05-3.29028E-05 1.09933E-06-2.01964E-20-7.43462E-18
 -1      1181 1.21479E-04-3.63150E-05-3.59074E-05 6.82799E-07-5.03760E-19-9.04197E-18
 -1      1182 1.27210E-04-3.80477E-05-3.76444E-05 2.31038E-07-2.69529E-20-9.52933E-18
 -1      1183 1.27811E-04-3.82638E-05-3.80012E-05-6.77722E-08 3.16115E-20-7.90789E-18
 -1      1184 1.24978E-04-3.74512E-05-3.73357E-05-1.99255E-07 1.57952E-19-3.81342E-18
 -1      1185 1.20503E-04-3.61386E-05-3.61211E-05-2.21492E-07-1.57211E-19-4.56432E-18
 -1      1186 1.15661E-04-3.47066E-05-3.47365E-05-1.92582E-07-8.08569E-20-3.71186E-18
 -1      1187 1.11164E-04-3.33692E-05-3.34137E-05-1.48758E-07 1.92335E-19-1.98815E-18
 -1      1188 1.07317E-04-3.22201E-05-3.22627E-05-1.07082E-07-4.05847E-19-2.43838E-18
 -1      1189 1.04186E-04-3.12816E-05-3.13166E-05-7.33700E-08 3.15078E-19-2.64184E-18
 -1      1190 1.01723E-04-3.05410E-05-3.05675E-05-4.82165E-08-1.30322E-20-1.71218E-18
 -1      1191 9.98336E-05-2.99711E-05-2.99903E-05-3.03153E-08-3.63449E-19-1.70866E-18
 -1      1192 9.84126E-05-2.95415E-05-2.95550E-05-1.79762E-08 1.74126E-19-2.47968E-18
 -1      1193 9.73637E-05-2.92236E-05-2.92328E-05-9.69002E-09 2.26016E-19-2.07336E-18
 -1      1194 9.66040E-05-2.89928E-05-2.89989E-05-4.27164E-09 1.25048E-19-3.47789E-18
 -1      1195 9.60651E-05-2.88286E-05-2.88326E-05-8.43370E-10 9.67636E-21-3.19778E-18
 -1      1196 9.56925E-05-2.87148E-05-2.87173E-05 1.22603E-09 1.21505E-19-2.37917E-18
 -1      1197 9.54434E-05-2.86384E-05-2.86399E-05 2.38415E-09-6.47897E-20-4.59473E-18
 -1      1198 9.52846E-05-2.85894E-05-2.85902E-05 2.94625E-09-3.89300E-19-7.45909E-18
 -1      1199 9.51908E-05-2.85602E-05-2.85606E-05 3.13349E-09-1.21015E-19-6.73300E-18
 -1      1200 9.51429E-05-2.85450E-05-2.85451E-05 3.10015E-09 3.99633E-19-3.28509E-18
 -1      1201 9.51267E-05-2.85395E-05-2.85395E-05 2.95254E-09-1.97753E-19-2.25676E-18
 -1      1202 9.51318E-05-2.85405E-05-2.85404E-05 2.76111E-09-3.63696E-20-2.75011E-18
 -1      1203 9.51502E-05-2.85457E-05-2.85455E-05 2.56555E-09 7.20677E-19 2.21177E-19
 -1      1204 9.51758E-05-2.85531E-05-2.85527E-05 2.36560E-09 4.35742E-20 3.22193E-18
 -1      1205 9.52033E-05-2.85611E-05-2.85605E-05 2.04718E-09-9.98678E-20 2.65466E-18
 -1      1206 9.52264E-05-2.85678E-05-2.85668E-05 1.35423E-09-2.20356E-19 2.59527E-19
 -1      1207 9.52370E-05-2.85712E-05-2.85707E-05-8.16894E-11 7.92384E-19 2.83877E-19
 -1      1208 1.30102E-04-3.74166E-05-3.85139E-05 1.20271E-05-2.17820E-19 1.85941E-17
 -1      1209 9.67063E-05-2.82423E-05-3.13682E-05 7.74835E-07 8.16328E-20 1.55973E-17
 -1      1210 9.12327E-05-2.71975E-05-2.81262E-05 1.16448E-07 4.12598E-20 1.25770E-17
 -1      1211 8.98885E-05-2.69747E-05-2.71525E-05 1.41161E-08-2.74624E-22 1.03872E-17
 -1      1212 9.02793E-05-2.71214E-05-2.71347E-05-1.69480E-08 4.66960E-20 8.90766E-18
 -1      1213 9.15943E-05-2.75104E-05-2.75070E-05-2.67865E-08 4.62758E-20 7.39748E-18
 -1      1214 9.34800E-05-2.80671E-05-2.80709E-05-3.27487E-08-2.08441E-20 6.87465E-18
 -1      1215 9.57618E-05-2.87439E-05-2.87536E-05-4.04773E-08-6.76187E-20 6.75097E-18
 -1      1216 9.83220E-05-2.95040E-05-2.95159E-05-5.24913E-08 4.74185E-20 5.52075E-18
 -1      1217 1.01037E-04-3.03089E-05-3.03178E-05-7.00428E-08 6.52443E-20 4.89103E-18
 -1      1218 1.03730E-04-3.11047E-05-3.11025E-05-9.25766E-08 5.79213E-20 4.00816E-18
 -1      1219 1.06129E-04-3.18109E-05-3.17851E-05-1.16155E-07-3.15495E-20 4.09877E-18
 -1      1220 1.07843E-04-3.23127E-05-3.22479E-05-1.31484E-07 1.12607E-19 3.43311E-18
 -1      1221 1.08371E-04-3.24658E-05-3.23489E-05-1.22988E-07-6.02121E-20 4.13543E-18
 -1      1222 1.07200E-04-3.21223E-05-3.19535E-05-7.18949E-08 1.68460E-19 3.69343E-18
 -1      1223 1.04000E-04-3.11873E-05-3.09947E-05 3.32557E-08-6.42025E-20 3.52127E-18
 -1      1224 9.89251E-05-2.97015E-05-2.95478E-05 1.79818E-07-2.10190E-19 4.42215E-18
 -1      1225 9.28609E-05-2.79135E-05-2.78805E-05 3.19537E-07 1.45808E-19 3.87608E-18
 -1      1226 8.73883E-05-2.62775E-05-2.64206E-05 3.81478E-07-2.29758E-20 2.96668E-18
 -1      1227 8.42806E-05-2.53200E-05-2.56173E-05 3.15299E-07-9.64393E-20 3.05611E-18
 -1      1228 8.46749E-05-2.54000E-05-2.57436E-05 1.35799E-07-1.68311E-19 2.68328E-18
 -1      1229 8.84573E-05-2.65084E-05-2.67657E-05-8.10934E-08 2.18687E-19 1.01337E-18
 -1      1230 9.43316E-05-2.82671E-05-2.83600E-05-2.45552E-07 8.37206E-20-5.58724E-19
 -1      1231 1.00514E-04-3.01346E-05-3.00694E-05-3.10530E-07-1.31439E-20-1.46320E-18
 -1      1232 1.05536E-04-3.16563E-05-3.14983E-05-2.84414E-07-4.48850E-19-7.43801E-19
 -1      1233 1.08664E-04-3.26036E-05-3.24266E-05-2.06853E-07-4.76754E-20 6.80273E-19
 -1      1234 1.09864E-04-3.29662E-05-3.28193E-05-1.18491E-07 1.86513E-19-6.89650E-19
 -1      1235 1.09531E-04-3.28651E-05-3.27667E-05-4.44363E-08-3.42999E-19-1.12912E-18
 -1      1236 1.08198E-04-3.24629E-05-3.24105E-05 6.42534E-09 3.77376E-20-1.35446E-18
 -1      1237 1.06352E-04-3.19074E-05-3.18894E-05 3.54124E-08-4.48758E-20-1.99971E-18
 -1      1238 1.04357E-04-3.13081E-05-3.13117E-05 4.79522E-08 8.26317E-20-2.56844E-18
 -1      1239 1.02448E-04-3.07353E-05-3.07503E-05 4.98770E-08 1.11240E-19-1.59469E-18
 -1      1240 1.00753E-04-3.02270E-05-3.02465E-05 4.58694E-08-3.43384E-19-4.75583E-19
 -1      1241 9.93253E-05-2.97988E-05-2.98187E-05 3.91544E-08-3.72510E-20-2.20248E-19
 -1      1242 9.81697E-05-2.94524E-05-2.94703E-05 3.17198E-08 3.15342E-20-1.76871E-18
 -1      1243 9.72656E-05-2.91812E-05-2.91965E-05 2.46634E-08-1.94765E-19-2.55251E-18
 -1      1244 9.65796E-05-2.89754E-05-2.89877E-05 1.85051E-08 6.33534E-19-6.74598E-18
 -1      1245 9.60744E-05-2.88238E-05-2.88334E-05 1.34173E-08-2.23901E-19-5.79672E-18
 -1      1246 9.57141E-05-2.87156E-05-2.87228E-05 9.38066E-09-1.53439E-19-2.08786E-18
 -1      1247 9.54668E-05-2.86412E-05-2.86465E-05 6.28114E-09 6.94491E-21-3.40087E-18
 -1      1248 9.53052E-05-2.85926E-05-2.85964E-05 3.96789E-09 4.03999E-20-2.65022E-18
 -1      1249 9.52072E-05-2.85630E-05-2.85656E-05 2.28474E-09-1.74067E-19-1.78215E-18
 -1      1250 9.51551E-05-2.85472E-05-2.85490E-05 1.08598E-09-1.21301E-19-3.21117E-18
 -1      1251 9.51353E-05-2.85411E-05-2.85423E-05 2.41896E-10 6.46663E-19-5.85232E-18
 -1      1252 9.51375E-05-2.85416E-05-2.85424E-05-3.60341E-10-1.53120E-19-6.19649E-18
 -1      1253 9.51538E-05-2.85464E-05-2.85468E-05-8.14314E-10-2.19551E-19-5.71888E-18
 -1      1254 9.51778E-05-2.85534E-05-2.85536E-05-1.19828E-09 4.09689E-20-8.30246E-18
 -1      1255 9.52041E-05-2.85612E-05-2.85609E-05-1.54883E-09 1.69721E-19-1.18568E-17
 -1      1256 9.52266E-05-2.85677E-05-2.85670E-05-1.63503E-09 1.22042E-19-8.27388E-18
 -1      1257 9.52370E-05-2.85713E-05-2.85706E-05 6.32518E-12-3.15576E-19-4.55438E-18
 -1      1258 9.52370E-05-2.85714E-05-2.85707E-05-1.36745E-10-4.43991E-18-2.49887E-20
 -1      1259 9.52405E-05-2.85818E-05-2.85671E-05-1.12132E-09-1.91982E-18 6.05577E-19
 -1      1260 9.52464E-05-2.86020E-05-2.85617E-05-1.59976E-09-7.74183E-19 2.76189E-19
 -1      1261 9.52528E-05-2.86236E-05-2.85557E-05-1.36520E-09-1.56889E-18-1.32229E-19
 -1      1262 9.52583E-05-2.86419E-05-2.85504E-05-9.76829E-10 2.88514E-19 2.80121E-19
 -1      1263 9.52623E-05-2.86553E-05-2.85464E-05-6.13653E-10-3.36340E-18-1.12366E-18
 -1      1264 9.52649E-05-2.86641E-05-2.85437E-05-3.57108E-10-2.14254E-18 9.89373E-21
 -1      1265 9.52664E-05-2.86690E-05-2.85421E-05-1.67258E-10-1.23315E-18-6.08658E-19
 -1      1266 9.52670E-05-2.86709E-05-2.85415E-05-2.32903E-11-3.23320E-18-5.18026E-19
 -1      1267 9.52667E-05-2.86699E-05-2.85419E-05 1.26721E-10 2.94530E-19 1.23048E-18
 -1      1268 9.52653E-05-2.86655E-05-2.85433E-05 3.33973E-10 7.18857E-19-8.11213E-19
 -1      1269 9.52628E-05-2.86571E-05-2.85459E-05 6.29356E-10-4.88403E-18 2.19726E-19
 -1      1270 9.52587E-05-2.86436E-05-2.85500E-05 1.00632E-09-6.56631E-18 5.56759E-19
 -1      1271 9.52531E-05-2.86247E-05-2.85554E-05 1.43437E-09-7.40941E-18-2.75372E-20
 -1      1272 9.52466E-05-2.86023E-05-2.85616E-05 1.94627E-09-1.01556E-17-8.89044E-19
 -1      1273 9.52407E-05-2.85820E-05-2.85670E-05 1.42714E-09-6.87919E-18-2.14139E-19
 -1      1274 9.52369E-05-2.85714E-05-2.85707E-05 2.77236E-10-3.95381E-19 6.86629E-19
 -1      1275 3.33496E-05-1.05235E-04 1.78281E-05-1.41775E-05 1.05113E-17 1.83179E-18
 -1      1276 1.58831E-05-6.03427E-05 8.51877E-06-2.28402E-05 1.55126E-17 6.15031E-18
 -1      1277 8.40816E-06-5.16712E-06-7.48667E-06 4.25019E-06 1.75183E-17 1.11427E-17
 -1      1278 3.63840E-05 2.59867E-05-2.71660E-05 5.66282E-05 1.41726E-17 1.38134E-17
 -1      1279 1.08937E-04 1.30607E-05-4.68369E-05 1.02184E-04 1.05591E-17 1.52839E-17
 -1      1280 2.07329E-04-3.33428E-05-6.40909E-05 1.07203E-04 4.69595E-18 9.80187E-18
 -1      1281 2.86910E-04-7.98355E-05-7.49493E-05 6.22709E-05 5.73600E-19-3.07473E-19
 -1      1282 3.07897E-04-9.25714E-05-7.75729E-05-1.48638E-05 1.05207E-18-1.16410E-17
 -1      1283 2.57871E-04-6.17840E-05-7.12758E-05-8.56605E-05 4.74847E-18-1.82010E-17
 -1      1284 1.65281E-04-1.13612E-05-5.73312E-05-1.12496E-04 9.95179E-18-1.90718E-17
 -1      1285 7.63032E-05 2.34551E-05-3.95817E-05-8.81295E-05 1.50586E-17-1.89058E-17
 -1      1286 2.11187E-05 1.99639E-05-2.00559E-05-3.69172E-05 1.71338E-17-1.47519E-17
 -1      1287 7.94706E-06-2.31222E-05-1.15762E-06 9.89492E-06 1.60106E-17-8.58891E-18
 -1      1288 2.26606E-05-7.90339E-05 1.26523E-05 2.52540E-05 1.05244E-17-3.63801E-18
 -1      1289 3.64567E-05-1.12120E-04 1.90650E-05 8.31801E-06 1.63689E-19-7.97720E-19
 -1      1290 3.31669E-05-1.05845E-04 1.79523E-05-1.80821E-05-1.04981E-17-2.46074E-18
 -1      1291 1.56390E-05-6.16305E-05 8.80681E-06-2.56324E-05-1.83476E-17-7.46956E-18
 -1      1292 7.64129E-06-7.99979E-06-6.63253E-06-1.26727E-08-2.00120E-17-1.24759E-17
 -1      1293 3.56573E-05 2.29425E-05-2.60728E-05 5.21971E-05-1.54109E-17-1.41810E-17
 -1      1294 1.11227E-04 1.10073E-05-4.71990E-05 1.00600E-04-1.05278E-17-1.55583E-17
 -1      1295 2.11598E-04-3.47054E-05-6.49148E-05 1.10437E-04-5.87799E-18-1.40472E-17
 -1      1296 2.92899E-04-8.06248E-05-7.61336E-05 6.59601E-05-1.51730E-18-5.53451E-18
 -1      1297 3.17369E-04-9.52528E-05-7.93004E-05-1.16692E-05-8.17387E-19 6.17805E-18
 -1      1298 2.75328E-04-7.05358E-05-7.37393E-05-8.28178E-05-3.80466E-18 1.48781E-17
 -1      1299 1.84300E-04-2.07164E-05-6.06468E-05-1.11556E-04-8.57748E-18 1.76335E-17
 -1      1300 8.84551E-05 1.81046E-05-4.19675E-05-9.12309E-05-1.50594E-17 1.92005E-17
 -1      1301 2.43121E-05 1.94300E-05-2.12953E-05-3.88287E-05-1.92073E-17 1.71871E-17
 -1      1302 7.03822E-06-1.94958E-05-2.49141E-06 9.49299E-06-1.27140E-17 7.99091E-18
 -1      1303 1.94351E-05-7.28034E-05 1.14391E-05 2.71788E-05-5.46590E-18 2.68658E-18
 -1      1304 3.53528E-05-1.10001E-04 1.86540E-05 1.34588E-05 4.09456E-18 5.09093E-19
 -1      1305 1.04295E-04-2.19861E-05-3.78130E-05-1.68173E-05-4.82174E-19 6.24433E-18
 -1      1306 9.07808E-05-6.84504E-06-3.61301E-05-1.95292E-05-1.16388E-18-1.35748E-18
 -1      1307 9.30050E-05-6.93332E-06-3.72635E-05-2.48772E-05-1.59687E-18 3.40084E-19
 -1      1308 8.64150E-05-4.20520E-06-3.52964E-05-1.53168E-05-1.09887E-18-3.75098E-18
 -1      1309 8.76699E-05-4.20783E-06-3.57493E-05-1.78006E-05-1.26653E-18-2.77604E-18
 -1      1310 9.26934E-05-1.06723E-05-3.52341E-05-1.79744E-05-1.98725E-18-1.23804E-18
 -1      1311 8.44443E-05-3.19931E-06-3.48340E-05-1.16495E-05-7.92227E-19-4.80036E-18
 -1      1312 8.51383E-05-3.17794E-06-3.50757E-05-1.34713E-05-9.46692E-19-4.34210E-18
 -1      1313 8.83625E-05-7.47142E-06-3.47463E-05-1.42335E-05-1.68043E-18-3.17344E-18
 -1      1314 8.32780E-05-2.62981E-06-3.45587E-05-8.59587E-06-5.28972E-19-5.19059E-18
 -1      1315 8.37086E-05-2.61826E-06-3.47018E-05-1.00895E-05-6.34745E-19-5.04286E-18
 -1      1316 8.61084E-05-5.87444E-06-3.44504E-05-1.07785E-05-1.19077E-18-4.04540E-18
 -1      1317 8.25209E-05-2.26296E-06-3.43827E-05-6.01569E-06-2.55116E-19-5.25879E-18
 -1      1318 8.28059E-05-2.25941E-06-3.44734E-05-7.27953E-06-3.62517E-19-5.23003E-18
 -1      1319 8.47403E-05-4.92231E-06-3.42601E-05-7.88566E-06-7.58908E-19-4.33808E-18
 -1      1320 8.20217E-05-2.02122E-06-3.42680E-05-3.68702E-06-3.71967E-20-5.20532E-18
 -1      1321 8.22046E-05-2.02074E-06-3.43252E-05-4.83563E-06-9.16648E-20-5.25878E-18
 -1      1322 8.38425E-05-4.30600E-06-3.41320E-05-5.38460E-06-3.03549E-19-4.47245E-18
 -1      1323 8.17543E-05-1.88630E-06-3.42070E-05-1.53730E-06 2.00491E-19-5.06242E-18
 -1      1324 8.18418E-05-1.88643E-06-3.42345E-05-2.60944E-06 1.29378E-19-5.12923E-18
 -1      1325 8.32802E-05-3.92792E-06-3.40495E-05-3.12657E-06 6.79545E-20-4.34664E-18
 -1      1326 8.17037E-05-1.84823E-06-3.41966E-05 5.43627E-07 3.93255E-19-4.85167E-18
 -1      1327 8.16999E-05-1.84823E-06-3.41960E-05-5.06900E-07 3.23451E-19-4.97320E-18
 -1      1328 8.30154E-05-3.75507E-06-3.40087E-05-1.01731E-06 4.22441E-19-4.21812E-18
 -1      1329 8.18649E-05-1.90286E-06-3.42360E-05 2.66071E-06 6.29342E-19-4.64328E-18
 -1      1330 8.17711E-05-1.90277E-06-3.42077E-05 1.57903E-06 5.42531E-19-4.76862E-18
 -1      1331 8.30311E-05-3.77129E-06-3.40086E-05 1.05030E-06 7.62895E-19-4.04993E-18
 -1      1332 8.22407E-05-2.05163E-06-3.43263E-05 4.91866E-06 8.15243E-19-4.34353E-18
 -1      1333 8.20547E-05-2.05156E-06-3.42692E-05 3.75226E-06 7.27221E-19-4.53198E-18
 -1      1334 8.33231E-05-3.97392E-06-3.40489E-05 3.17920E-06 1.10503E-18-3.84990E-18
 -1      1335 8.28392E-05-2.29575E-06-3.44711E-05 7.38261E-06 9.84755E-19-3.80207E-18
 -1      1336 8.25554E-05-2.30002E-06-3.43815E-05 6.09775E-06 9.12307E-19-4.13273E-18
 -1      1337 8.38977E-05-4.37098E-06-3.41287E-05 5.45193E-06 1.40761E-18-3.47861E-18
 -1      1338 8.37530E-05-2.66798E-06-3.46987E-05 1.02667E-05 1.27150E-18-2.95739E-18
 -1      1339 8.33211E-05-2.67905E-06-3.45558E-05 8.74492E-06 1.15141E-18-3.45334E-18
 -1      1340 8.48026E-05-5.00345E-06-3.42531E-05 7.99636E-06 1.73941E-18-2.86744E-18
 -1      1341 8.51804E-05-3.23045E-06-3.50735E-05 1.37146E-05 1.48853E-18-1.59705E-18
 -1      1342 8.44909E-05-3.25925E-06-3.48303E-05 1.18612E-05 1.37090E-18-2.42517E-18
 -1      1343 8.61929E-05-5.98512E-06-3.44412E-05 1.09683E-05 2.14454E-18-1.99381E-18
 -1      1344 8.77462E-05-4.21041E-06-3.57621E-05 1.80715E-05 1.60635E-18 8.51162E-19
 -1      1345 8.64602E-05-4.26289E-06-3.52943E-05 1.56094E-05 1.44578E-18-6.04782E-19
 -1      1346 8.84712E-05-7.60656E-06-3.47371E-05 1.45081E-05 2.35099E-18-4.32913E-19
 -1      1347 9.37721E-05-6.96853E-06-3.71572E-05 2.42739E-05 1.30274E-18 5.10030E-18
 -1      1348 9.05826E-05-6.60321E-06-3.61470E-05 2.02289E-05 1.30740E-18 2.52940E-18
 -1      1349 9.28992E-05-1.09026E-05-3.52114E-05 1.86463E-05 2.33622E-18 2.23654E-18
 -1      1350 1.23127E-04-2.48703E-05-3.89097E-05 2.77950E-05 5.36384E-19 1.27758E-17
 -1      1351 1.00195E-04-1.45287E-05-3.73417E-05 2.33745E-05 5.95464E-19 7.51445E-18
 -1      1352 1.02012E-04-1.95252E-05-3.54573E-05 2.05471E-05 2.07090E-18 6.08064E-18
 -1      1353 1.02614E-04-2.78451E-05-3.47259E-05 6.95005E-06 1.04820E-18 1.24433E-17
 -1      1354 1.05262E-04-3.02878E-05-3.35400E-05-7.51179E-06-1.35388E-18 6.79056E-18
 -1      1355 9.87503E-05-2.80172E-05-3.08840E-05-4.60956E-06-1.22867E-18 5.19972E-18
 -1      1356 9.62389E-05-2.80714E-05-2.94687E-05-2.10945E-06-9.63500E-19 4.59880E-18
 -1      1357 9.43666E-05-2.78818E-05-2.85404E-05-1.66497E-06-8.89623E-19 3.21245E-18
 -1      1358 1.00186E-04-2.82830E-05-3.11824E-05-7.14084E-06-2.08301E-18 2.28612E-18
 -1      1359 9.29928E-05-2.76079E-05-2.80088E-05-4.17521E-07-6.53221E-19 2.78332E-18
 -1      1360 9.26774E-05-2.76269E-05-2.78287E-05-2.92072E-07-5.77663E-19 1.83036E-18
 -1      1361 9.59751E-05-2.81307E-05-2.92046E-05-2.32731E-06-1.54761E-18 1.46418E-18
 -1      1362 9.23147E-05-2.75513E-05-2.77081E-05 3.50783E-07-4.69653E-19 1.38336E-18
 -1      1363 9.27434E-05-2.77240E-05-2.78237E-05 4.34231E-07-4.14652E-19 7.29878E-19
 -1      1364 9.44563E-05-2.80341E-05-2.85035E-05-1.01151E-07-1.09484E-18 7.48407E-19
 -1      1365 9.29756E-05-2.77941E-05-2.79038E-05 8.36520E-07-3.47869E-19 5.10893E-19
 -1      1366 9.38441E-05-2.80770E-05-2.81606E-05 9.00803E-07-4.16998E-19-7.46448E-21
 -1      1367 9.43516E-05-2.81211E-05-2.84067E-05 1.14832E-06-7.57128E-19 9.05200E-20
 -1      1368 9.44790E-05-2.82578E-05-2.83648E-05 1.20802E-06-3.77985E-19-2.07642E-19
 -1      1369 9.56811E-05-2.86335E-05-2.87195E-05 1.26624E-06-2.47704E-19-6.26447E-19
 -1      1370 9.51907E-05-2.84111E-05-2.86405E-05 2.00573E-06-7.19161E-19-1.96111E-19
 -1      1371 9.66293E-05-2.89033E-05-2.90190E-05 1.54133E-06-5.18576E-20-8.89120E-19
 -1      1372 9.81363E-05-2.93682E-05-2.94628E-05 1.60070E-06-1.59808E-19-1.12637E-18
 -1      1373 9.67226E-05-2.88782E-05-2.90968E-05 2.70988E-06-4.62791E-19-7.45290E-19
 -1      1374 9.93585E-05-2.97171E-05-2.98461E-05 1.87192E-06-1.85545E-19-1.29154E-18
 -1      1375 1.01173E-04-3.02758E-05-3.03799E-05 1.93549E-06-2.35927E-19-1.56459E-18
 -1      1376 9.88280E-05-2.95045E-05-2.97311E-05 3.36973E-06-4.39435E-19-1.09029E-18
 -1      1377 1.02650E-04-3.07005E-05-3.08406E-05 2.20606E-06-3.56172E-19-1.67290E-18
 -1      1378 1.04777E-04-3.13591E-05-3.14645E-05 2.27199E-06-5.36662E-19-2.28678E-18
 -1      1379 1.01453E-04-3.02864E-05-3.05216E-05 4.02418E-06-5.82871E-19-1.28455E-18
 -1      1380 1.06484E-04-3.18572E-05-3.19927E-05 2.51543E-06-5.34418E-19-2.27935E-18
 -1      1381 1.08892E-04-3.26137E-05-3.26950E-05 2.57396E-06-2.49062E-19-2.87192E-18
 -1      1382 1.04561E-04-3.12295E-05-3.14486E-05 4.64790E-06-7.75662E-19-1.49241E-18
 -1      1383 1.10773E-04-3.31774E-05-3.32680E-05 2.72086E-06-6.47404E-20-3.12521E-18
 -1      1384 1.13344E-04-3.40048E-05-3.40092E-05 2.74932E-06-1.28811E-19-3.20885E-18
 -1      1385 1.08082E-04-3.23394E-05-3.24780E-05 5.13043E-06-3.77058E-19-1.82671E-18
 -1      1386 1.15275E-04-3.46121E-05-3.45796E-05 2.67111E-06-1.74012E-19-3.07232E-18
 -1      1387 1.17728E-04-3.54339E-05-3.52718E-05 2.62805E-06-2.55241E-19-3.28294E-18
 -1      1388 1.11861E-04-3.36070E-05-3.35424E-05 5.24100E-06-2.56204E-19-2.22856E-18
 -1      1389 1.19480E-04-3.60340E-05-3.57570E-05 2.13393E-06 2.50669E-20-3.20697E-18
 -1      1390 1.21296E-04-3.66917E-05-3.62463E-05 1.95823E-06 1.22284E-19-3.04802E-18
 -1      1391 1.15578E-04-3.49777E-05-3.45229E-05 4.60287E-06-7.47705E-20-2.44797E-18
 -1      1392 1.22508E-04-3.71838E-05-3.65286E-05 8.44604E-07 4.68078E-19-2.88227E-18
 -1      1393 1.22923E-04-3.74150E-05-3.66045E-05 4.75658E-07 3.75937E-20-2.26357E-18
 -1      1394 1.18677E-04-3.62942E-05-3.52441E-05 2.73895E-06 2.81586E-19-2.06378E-18
 -1      1395 1.23130E-04-3.76288E-05-3.65596E-05-1.31708E-06-3.71437E-19-1.73753E-18
 -1      1396 1.21334E-04-3.71060E-05-3.60247E-05-1.87851E-06-3.06441E-19-2.30171E-18
 -1      1397 1.20332E-04-3.72162E-05-3.55051E-05-6.96194E-07 1.49792E-19-1.56817E-18
 -1      1398 1.20114E-04-3.68123E-05-3.55904E-05-3.98544E-06-2.44779E-19-2.35560E-18
 -1      1399 1.15781E-04-3.53207E-05-3.44137E-05-4.56956E-06-6.22490E-19-2.93423E-18
 -1      1400 1.19596E-04-3.71796E-05-3.51680E-05-5.40577E-06-3.55727E-19-6.89485E-19
 -1      1401 1.13114E-04-3.43739E-05-3.36807E-05-5.99138E-06-3.72728E-19-2.73803E-18
 -1      1402 1.07152E-04-3.21532E-05-3.21491E-05-6.22229E-06-5.27708E-19-3.33710E-18
 -1      1403 1.15877E-04-3.55994E-05-3.42849E-05-9.81047E-06-5.55667E-19-6.24713E-19
 -1      1404 1.03881E-04-3.08006E-05-3.13804E-05-5.70820E-06-6.58873E-19-3.80762E-18
 -1      1405 9.86436E-05-2.87460E-05-3.00920E-05-5.23518E-06-6.30338E-19-4.54338E-18
 -1      1406 1.09885E-04-3.25873E-05-3.31635E-05-1.11181E-05-9.79680E-19-1.55608E-18
 -1      1407 9.64421E-05-2.77560E-05-2.96263E-05-2.42924E-06-3.40587E-19-4.93646E-18
 -1      1408 9.46438E-05-2.70288E-05-2.91951E-05-1.36497E-06-4.62189E-19-5.23435E-18
 -1      1409 1.04201E-04-2.94790E-05-3.22563E-05-7.15494E-06-8.40363E-19-2.60481E-18
 -1      1410 9.49412E-05-2.71580E-05-2.92611E-05 2.35045E-06-7.83505E-20-5.86265E-18
 -1      1411 9.76410E-05-2.82352E-05-2.99159E-05 3.34276E-06-1.96776E-19-5.86655E-18
 -1      1412 1.02196E-04-2.83356E-05-3.19707E-05 9.26050E-07-5.02608E-19-3.66153E-18
 -1      1413 1.00264E-04-2.93889E-05-3.04856E-05 5.77143E-06-2.67967E-19-6.02119E-18
 -1      1414 1.05958E-04-3.15973E-05-3.19012E-05 6.10101E-06-3.01709E-19-6.07492E-18
 -1      1415 1.05253E-04-3.00243E-05-3.24408E-05 8.51800E-06-3.58401E-19-4.93185E-18
 -1      1416 1.09309E-04-3.29435E-05-3.27153E-05 6.17622E-06-1.34619E-19-6.32120E-18
 -1      1417 1.15204E-04-3.51044E-05-3.42483E-05 5.84400E-06-3.17042E-19-6.71909E-18
 -1      1418 1.11421E-04-3.33176E-05-3.34703E-05 1.14461E-05-5.09037E-19-5.17675E-18
 -1      1419 1.17716E-04-3.59526E-05-3.49684E-05 4.19955E-06-4.62321E-19-6.00875E-18
 -1      1420 1.21696E-04-3.72905E-05-3.60668E-05 3.59882E-06-4.10520E-19-6.64492E-18
 -1      1421 1.17291E-04-3.61741E-05-3.46341E-05 9.33467E-06-2.53746E-19-4.95493E-18
 -1      1422 1.22724E-04-3.74983E-05-3.64586E-05 1.51158E-06-1.61995E-19-5.93259E-18
 -1      1423 1.24178E-04-3.78925E-05-3.69048E-05 9.85386E-07-4.79103E-21-5.72033E-18
 -1      1424 1.20623E-04-3.74796E-05-3.54859E-05 4.71278E-06-2.39115E-19-3.71969E-18
 -1      1425 1.23858E-04-3.76418E-05-3.69154E-05-6.65335E-07 4.82835E-19-6.04289E-18
 -1      1426 1.23267E-04-3.73522E-05-3.67898E-05-9.87900E-07 9.21526E-19-4.58513E-18
 -1      1427 1.21046E-04-3.73427E-05-3.57692E-05 2.18626E-07 2.34377E-19-3.09682E-18
 -1      1428 1.22055E-04-3.68676E-05-3.65017E-05-1.94137E-06 9.45775E-19-4.74914E-18
 -1      1429 1.20259E-04-3.62205E-05-3.60155E-05-2.07845E-06 2.52674E-19-3.75934E-18
 -1      1430 1.19287E-04-3.63784E-05-3.54814E-05-2.84752E-06 1.19357E-18-3.10088E-18
 -1      1431 1.18613E-04-3.56599E-05-3.55570E-05-2.44240E-06-1.75447E-19-3.78039E-18
 -1      1432 1.16341E-04-3.49000E-05-3.49148E-05-2.45876E-06-1.43982E-19-3.81246E-18
 -1      1433 1.16308E-04-3.51166E-05-3.47843E-05-4.36496E-06 1.48171E-19-4.06275E-18
 -1      1434 1.14595E-04-3.43525E-05-3.43979E-05-2.44551E-06 5.54869E-19-3.32863E-18
 -1      1435 1.12319E-04-3.36213E-05-3.37409E-05-2.39962E-06 6.59295E-19-2.45841E-18
 -1      1436 1.12887E-04-3.38590E-05-3.38793E-05-4.74197E-06 7.06695E-19-3.12800E-18
 -1      1437 1.10676E-04-3.31298E-05-3.32401E-05-2.19297E-06 5.20548E-19-2.05012E-18
 -1      1438 1.08639E-04-3.24921E-05-3.26450E-05-2.12315E-06 5.48944E-19-1.31829E-18
 -1      1439 1.09528E-04-3.27360E-05-3.29305E-05-4.45429E-06 9.94840E-19-1.56929E-18
 -1      1440 1.07199E-04-3.20728E-05-3.21995E-05-1.84449E-06-3.55441E-19-1.13697E-18
 -1      1441 1.05491E-04-3.15477E-05-3.16970E-05-1.77166E-06-5.85705E-19-1.79415E-18
 -1      1442 1.06500E-04-3.17874E-05-3.20421E-05-3.86128E-06 3.00864E-19-1.76626E-18
 -1      1443 1.04287E-04-3.12022E-05-3.13217E-05-1.48861E-06 1.02302E-19-1.58178E-18
 -1      1444 1.02914E-04-3.07855E-05-3.09160E-05-1.42246E-06 3.51899E-19-8.25917E-19
 -1      1445 1.03916E-04-3.10121E-05-3.12659E-05-3.18349E-06-5.12197E-19-8.07606E-19
 -1      1446 1.01939E-04-3.05082E-05-3.06112E-05-1.16700E-06-9.01445E-20-1.36076E-18
 -1      1447 1.00867E-04-3.01862E-05-3.02936E-05-1.11099E-06-4.77598E-19-1.80501E-18
 -1      1448 1.01792E-04-3.03927E-05-3.06182E-05-2.53651E-06-9.20917E-20-1.21375E-18
 -1      1449 1.00098E-04-2.99683E-05-3.00528E-05-8.94627E-07-3.71128E-19-1.67292E-18
 -1      1450 9.92807E-05-2.97246E-05-2.98100E-05-8.49107E-07-1.30572E-19-1.98559E-18
 -1      1451 1.00093E-04-2.99068E-05-3.00954E-05-1.97050E-06-3.92051E-20-1.83569E-18
 -1      1452 9.86856E-05-2.95566E-05-2.96239E-05-6.72851E-07-5.49331E-20-1.81913E-18
 -1      1453 9.80743E-05-2.93756E-05-2.94418E-05-6.36836E-07 3.11965E-19-2.37254E-18
 -1      1454 9.87641E-05-2.95318E-05-2.96836E-05-1.49964E-06-1.66425E-19-2.06645E-18
 -1      1455 9.76225E-05-2.92482E-05-2.93006E-05-4.96987E-07-4.11886E-20-1.61666E-18
 -1      1456 9.71736E-05-2.91161E-05-2.91666E-05-4.69041E-07-2.29495E-19-1.77516E-18
 -1      1457 9.77441E-05-2.92468E-05-2.93661E-05-1.12041E-06 5.16114E-19-2.22136E-18
 -1      1458 9.68366E-05-2.90212E-05-2.90614E-05-3.60233E-07-4.85391E-19-2.30777E-18
 -1      1459 9.65134E-05-2.89268E-05-2.89647E-05-3.38887E-07-3.76417E-19-2.45983E-18
 -1      1460 9.69750E-05-2.90337E-05-2.91256E-05-8.21897E-07-7.29158E-19-1.92599E-18
 -1      1461 9.62667E-05-2.88573E-05-2.88877E-05-2.55584E-07 1.53416E-19-3.15249E-18
 -1      1462 9.60391E-05-2.87914E-05-2.88195E-05-2.39509E-07-4.41444E-19-2.51419E-18
 -1      1463 9.64054E-05-2.88770E-05-2.89469E-05-5.91087E-07-7.25359E-19-2.31072E-18
 -1      1464 9.58622E-05-2.87416E-05-2.87643E-05-1.76655E-07-5.03615E-19-2.23809E-18
 -1      1465 9.57064E-05-2.86969E-05-2.87174E-05-1.64716E-07-4.86353E-20-3.17229E-18
 -1      1466 9.59916E-05-2.87642E-05-2.88164E-05-4.15337E-07-5.21226E-19-2.53382E-18
 -1      1467 9.55827E-05-2.86622E-05-2.86789E-05-1.17965E-07-8.29266E-19-3.51634E-18
 -1      1468 9.54799E-05-2.86331E-05-2.86478E-05-1.09226E-07-1.23757E-18-4.96850E-18
 -1      1469 9.56977E-05-2.86848E-05-2.87233E-05-2.83421E-07-9.40875E-19-3.43470E-18
 -1      1470 9.53963E-05-2.86097E-05-2.86218E-05-7.49667E-08-5.14735E-19-5.01222E-18
 -1      1471 9.53321E-05-2.85919E-05-2.86023E-05-6.86724E-08-4.43827E-19-5.51906E-18
 -1      1472 9.54946E-05-2.86306E-05-2.86586E-05-1.85831E-07-1.02623E-18-3.19810E-18
 -1      1473 9.52780E-05-2.85768E-05-2.85855E-05-4.39782E-08 1.86434E-20-5.40955E-18
 -1      1474 9.52415E-05-2.85671E-05-2.85742E-05-3.95275E-08 4.86219E-19-4.85507E-18
 -1      1475 9.53595E-05-2.85952E-05-2.86152E-05-1.14745E-07 4.00773E-20-3.15257E-18
 -1      1476 9.52090E-05-2.85580E-05-2.85641E-05-2.20710E-08 1.04186E-18-3.93077E-18
 -1      1477 9.51919E-05-2.85539E-05-2.85587E-05-1.89948E-08 9.75198E-19-2.88406E-18
 -1      1478 9.52743E-05-2.85734E-05-2.85875E-05-6.38698E-08 1.66013E-18-2.54533E-18
 -1      1479 9.51746E-05-2.85492E-05-2.85533E-05-6.96591E-09-2.15436E-19-1.52612E-18
 -1      1480 9.51709E-05-2.85489E-05-2.85519E-05-4.90642E-09 6.35828E-20-1.39144E-18
 -1      1481 9.52251E-05-2.85615E-05-2.85711E-05-2.82427E-08 9.95223E-19-1.72863E-18
 -1      1482 9.51642E-05-2.85472E-05-2.85499E-05 3.05738E-09 5.78979E-19-1.67978E-18
 -1      1483 9.51691E-05-2.85493E-05-2.85511E-05 4.36185E-09 8.50308E-19-7.57112E-19
 -1      1484 9.52013E-05-2.85565E-05-2.85627E-05-4.05291E-09 1.10183E-18 2.92254E-19
 -1      1485 9.51695E-05-2.85496E-05-2.85512E-05 9.22404E-09 1.28068E-18-2.39097E-19
 -1      1486 9.51796E-05-2.85532E-05-2.85540E-05 9.94695E-09 1.15007E-18 1.61256E-18
 -1      1487 9.51948E-05-2.85561E-05-2.85599E-05 1.14998E-08 1.64802E-18 1.97831E-18
 -1      1488 9.51841E-05-2.85547E-05-2.85554E-05 1.22895E-08 8.84496E-19 1.50323E-18
 -1      1489 9.51967E-05-2.85590E-05-2.85588E-05 1.25075E-08 4.37406E-19 2.03639E-18
 -1      1490 9.51993E-05-2.85588E-05-2.85605E-05 2.02911E-08 1.62671E-18 8.58762E-19
 -1      1491 9.52030E-05-2.85611E-05-2.85607E-05 1.24964E-08-9.11481E-20 2.38704E-18
 -1      1492 9.52151E-05-2.85653E-05-2.85640E-05 1.21487E-08-1.96594E-19 2.15504E-18
 -1      1493 9.52098E-05-2.85632E-05-2.85629E-05 2.32339E-08 4.50493E-19 1.51627E-18
 -1      1494 9.52213E-05-2.85675E-05-2.85657E-05 9.48392E-09-5.78031E-19 2.67642E-18
 -1      1495 9.52302E-05-2.85707E-05-2.85681E-05 8.59702E-09-5.49862E-19 2.38896E-18
 -1      1496 9.52222E-05-2.85686E-05-2.85657E-05 2.03186E-08 1.17975E-19 1.98501E-18
 -1      1497 9.52360E-05-2.85726E-05-2.85695E-05 1.56055E-09-1.70508E-18 1.99437E-18
 -1      1498 9.52346E-05-2.85748E-05-2.85682E-05 9.29345E-09-2.02836E-18 2.35465E-18
 -1      1499 9.71541E-05-2.85455E-05-2.99312E-05 2.68362E-06 9.42509E-19 1.03106E-17
 -1      1500 1.02739E-04-2.94622E-05-3.22113E-05 4.12913E-06 8.41951E-19 1.17313E-17
 -1      1501 1.02697E-04-2.68889E-05-3.27973E-05 1.21357E-05 1.61990E-18 7.97164E-18
 -1      1502 9.32221E-05-2.77834E-05-2.81172E-05 8.39704E-07 7.53065E-19 8.33491E-18
 -1      1503 9.48315E-05-2.78384E-05-2.89266E-05 1.16542E-06 7.00073E-19 9.49785E-18
 -1      1504 9.73628E-05-2.83028E-05-2.97939E-05 4.26768E-06 1.46336E-18 6.45232E-18
 -1      1505 9.20742E-05-2.75561E-05-2.76312E-05-2.65644E-08 4.66742E-19 6.96110E-18
 -1      1506 9.23214E-05-2.74606E-05-2.77908E-05 1.51474E-07 4.95977E-19 7.72703E-18
 -1      1507 9.45006E-05-2.80035E-05-2.85455E-05 1.20600E-06 1.12100E-18 5.29124E-18
 -1      1508 9.23757E-05-2.76782E-05-2.77055E-05-4.92918E-07 5.67906E-19 5.80660E-18
 -1      1509 9.19724E-05-2.74770E-05-2.76002E-05-3.79813E-07 4.54622E-19 6.55026E-18
 -1      1510 9.36306E-05-2.79225E-05-2.81753E-05-2.46255E-07 8.88028E-19 4.22451E-18
 -1      1511 9.35120E-05-2.80286E-05-2.80512E-05-7.83895E-07 2.33184E-19 4.93836E-18
 -1      1512 9.27392E-05-2.77474E-05-2.78228E-05-7.02403E-07 2.70415E-19 5.44008E-18
 -1      1513 9.39246E-05-2.80790E-05-2.82330E-05-1.06857E-06 7.63498E-19 3.47483E-18
 -1      1514 9.51884E-05-2.85370E-05-2.85575E-05-9.84617E-07 2.70438E-20 4.69254E-18
 -1      1515 9.41740E-05-2.81958E-05-2.82569E-05-9.20411E-07 3.90992E-20 4.72226E-18
 -1      1516 9.49435E-05-2.84163E-05-2.85266E-05-1.59626E-06 2.76579E-19 3.12195E-18
 -1      1517 9.72342E-05-2.91572E-05-2.91711E-05-1.12560E-06 2.87330E-19 4.16817E-18
 -1      1518 9.60511E-05-2.87715E-05-2.88218E-05-1.07353E-06 1.74308E-19 4.45592E-18
 -1      1519 9.64426E-05-2.88859E-05-2.89677E-05-1.95881E-06 2.78437E-19 2.67074E-18
 -1      1520 9.95173E-05-2.98521E-05-2.98520E-05-1.20840E-06 2.31146E-19 3.43496E-18
 -1      1521 9.82265E-05-2.94382E-05-2.94726E-05-1.16936E-06 3.06690E-19 3.91304E-18
 -1      1522 9.82629E-05-2.94515E-05-2.95038E-05-2.19782E-06 5.76752E-19 2.15221E-18
 -1      1523 1.01890E-04-3.05806E-05-3.05546E-05-1.21298E-06 2.54266E-19 3.08557E-18
 -1      1524 1.00568E-04-3.01616E-05-3.01685E-05-1.19349E-06 1.86777E-19 3.39650E-18
 -1      1525 1.00269E-04-3.00804E-05-3.00903E-05-2.30310E-06 4.54579E-19 1.99895E-18
 -1      1526 1.04152E-04-3.12851E-05-3.12166E-05-1.10062E-06-1.59025E-19 2.97705E-18
 -1      1527 1.02910E-04-3.08972E-05-3.08581E-05-1.11288E-06 8.07849E-20 3.01767E-18
 -1      1528 1.02307E-04-3.07338E-05-3.06769E-05-2.22477E-06 2.15481E-19 1.95032E-18
 -1      1529 1.06015E-04-3.18807E-05-3.17509E-05-8.19862E-07 3.24655E-19 2.73976E-18
 -1      1530 1.05020E-04-3.15790E-05-3.14695E-05-8.80784E-07 7.60344E-20 3.06445E-18
 -1      1531 1.04175E-04-3.13568E-05-3.11994E-05-1.88238E-06 3.05991E-20 1.98458E-18
 -1      1532 1.07105E-04-3.22509E-05-3.20468E-05-3.22377E-07-7.18059E-20 2.63087E-18
 -1      1533 1.06575E-04-3.21099E-05-3.19064E-05-4.49441E-07 7.48830E-20 2.61886E-18
 -1      1534 1.05604E-04-3.18691E-05-3.15769E-05-1.18431E-06 2.80583E-19 1.95206E-18
 -1      1535 1.06994E-04-3.22560E-05-3.19850E-05 4.05061E-07 4.39067E-20 2.86543E-18
 -1      1536 1.07181E-04-3.23603E-05-3.20544E-05 2.03175E-07-9.88812E-20 2.63281E-18
 -1      1537 1.06271E-04-3.21615E-05-3.17191E-05-7.01872E-08-4.19414E-20 1.57858E-18
 -1      1538 1.05325E-04-3.17660E-05-3.14750E-05 1.29265E-06-4.21994E-20 2.33092E-18
 -1      1539 1.06432E-04-3.21845E-05-3.18051E-05 1.03107E-06 2.02917E-19 2.61429E-18
 -1      1540 1.05848E-04-3.21042E-05-3.15459E-05 1.41740E-06 2.20308E-19 1.68380E-18
 -1      1541 1.02008E-04-3.07274E-05-3.05115E-05 2.14339E-06-4.44871E-19 3.18323E-18
 -1      1542 1.04072E-04-3.14679E-05-3.11013E-05 1.87580E-06-2.63689E-19 2.72048E-18
 -1      1543 1.04117E-04-3.15817E-05-3.10229E-05 3.04672E-06-4.52918E-19 2.13058E-18
 -1      1544 9.74522E-05-2.92496E-05-2.92298E-05 2.64064E-06 5.39289E-20 3.23770E-18
 -1      1545 1.00205E-04-3.02086E-05-2.99939E-05 2.45869E-06-1.93876E-19 3.00755E-18
 -1      1546 1.01147E-04-3.05622E-05-3.02020E-05 4.35482E-06-2.80566E-19 2.25004E-18
 -1      1547 9.26760E-05-2.76613E-05-2.79185E-05 2.46152E-06 5.35207E-19 2.24080E-18
 -1      1548 9.54920E-05-2.86064E-05-2.86816E-05 2.46222E-06 4.66047E-19 2.98566E-18
 -1      1549 9.74514E-05-2.91881E-05-2.92436E-05 4.74493E-06 6.14838E-19 1.40737E-18
 -1      1550 8.90970E-05-2.64539E-05-2.69508E-05 1.48449E-06-6.71009E-20 1.82096E-18
 -1      1551 9.11344E-05-2.70817E-05-2.74923E-05 1.70954E-06 1.51725E-19 1.98031E-18
 -1      1552 9.39939E-05-2.78204E-05-2.83942E-05 3.77455E-06 6.07680E-19 1.58387E-18
 -1      1553 8.79693E-05-2.60778E-05-2.66417E-05-4.19185E-08 1.23759E-19 1.58721E-18
 -1      1554 8.85161E-05-2.61512E-05-2.67829E-05 3.45453E-07 5.23837E-20 1.80765E-18
 -1      1555 9.19061E-05-2.69471E-05-2.79075E-05 1.51689E-06 8.44121E-20 1.01124E-18
 -1      1556 8.97349E-05-2.66882E-05-2.71025E-05-1.56695E-06 3.10821E-19 7.23975E-19
 -1      1557 8.85769E-05-2.61720E-05-2.67917E-05-1.16048E-06 8.47165E-20 1.15523E-18
 -1      1558 9.19679E-05-2.69407E-05-2.79428E-05-1.31274E-06 5.18649E-19 5.46713E-19
 -1      1559 9.37824E-05-2.80555E-05-2.81892E-05-2.54344E-06 5.00279E-20 1.35552E-19
 -1      1560 9.13199E-05-2.71370E-05-2.75257E-05-2.26209E-06 2.79382E-19 6.72968E-19
 -1      1561 9.41823E-05-2.78184E-05-2.84964E-05-3.69006E-06 2.63143E-19 3.58004E-20
 -1      1562 9.87893E-05-2.97049E-05-2.95693E-05-2.72706E-06 4.64787E-19-4.11393E-19
 -1      1563 9.58149E-05-2.86856E-05-2.87561E-05-2.63644E-06 3.28041E-19 4.20367E-19
 -1      1564 9.77773E-05-2.92313E-05-2.94020E-05-4.84774E-06 4.88780E-19 3.14977E-19
 -1      1565 1.03387E-04-3.11716E-05-3.08784E-05-2.24195E-06-1.76084E-19-9.25542E-19
 -1      1566 1.00696E-04-3.03169E-05-3.01267E-05-2.31626E-06 1.77774E-19-7.52906E-19
 -1      1567 1.01634E-04-3.06835E-05-3.04068E-05-4.64023E-06 4.97175E-19-2.53342E-19
 -1      1568 1.06674E-04-3.21763E-05-3.18537E-05-1.41289E-06-3.33880E-19-5.18861E-19
 -1      1569 1.04774E-04-3.16268E-05-3.13076E-05-1.57752E-06-4.96388E-19-1.18434E-18
 -1      1570 1.04800E-04-3.17926E-05-3.12735E-05-3.46270E-06-3.77830E-19-7.55620E-19
 -1      1571 1.08355E-04-3.26524E-05-3.23863E-05-5.56232E-07 8.39886E-20-2.75378E-19
 -1      1572 1.07396E-04-3.24228E-05-3.20981E-05-7.37597E-07 4.10050E-20-3.66924E-19
 -1      1573 1.06771E-04-3.24031E-05-3.18518E-05-1.90526E-06 1.96406E-20-6.87387E-19
 -1      1574 1.08595E-04-3.26773E-05-3.25005E-05 1.33183E-07-3.17574E-19-5.53637E-19
 -1      1575 1.08464E-04-3.27051E-05-3.24480E-05-1.88582E-08 6.67171E-20-1.69876E-19
 -1      1576 1.07484E-04-3.25474E-05-3.20976E-05-4.50513E-07 2.76358E-19-1.43489E-19
 -1      1577 1.07780E-04-3.23874E-05-3.22953E-05 5.88828E-07-4.22491E-20-3.93467E-19
 -1      1578 1.08243E-04-3.25841E-05-3.24173E-05 4.83371E-07-1.01345E-19-7.44085E-19
 -1      1579 1.07161E-04-3.23487E-05-3.20485E-05 6.45570E-07 2.36110E-19 3.50076E-19
 -1      1580 1.06333E-04-3.19183E-05-3.18901E-05 8.27612E-07-1.49180E-19-5.40314E-19
 -1      1581 1.07142E-04-3.22027E-05-3.21174E-05 7.67196E-07-1.10159E-19-6.44420E-19
 -1      1582 1.06129E-04-3.19441E-05-3.17846E-05 1.32468E-06-4.09653E-20 2.81552E-19
 -1      1583 1.04607E-04-3.13778E-05-3.13900E-05 9.02111E-07 1.86825E-19-1.22541E-18
 -1      1584 1.05561E-04-3.16891E-05-3.16641E-05 8.76891E-07 2.76625E-19-7.52317E-19
 -1      1585 1.04708E-04-3.14456E-05-3.13931E-05 1.64355E-06 1.65082E-19 8.74231E-20
 -1      1586 1.02854E-04-3.08390E-05-3.08728E-05 8.69472E-07 1.01775E-19-1.75837E-18
 -1      1587 1.03811E-04-3.11386E-05-3.11518E-05 8.68084E-07 1.58559E-19-2.12311E-18
 -1      1588 1.03150E-04-3.09315E-05-3.09486E-05 1.70094E-06 1.98953E-19-1.55051E-18
 -1      1589 1.01227E-04-3.03456E-05-3.03878E-05 7.77084E-07-1.30118E-19-1.68332E-18
 -1      1590 1.02106E-04-3.06124E-05-3.06460E-05 7.89826E-07-1.01711E-19-1.95988E-18
 -1      1591 1.01629E-04-3.04494E-05-3.05052E-05 1.59409E-06 1.43325E-19-2.29244E-18
 -1      1592 9.98075E-05-2.99188E-05-2.99615E-05 6.58853E-07-1.24877E-19-7.19736E-19
 -1      1593 1.00566E-04-3.01439E-05-3.01858E-05 6.78594E-07-4.25297E-19-1.63452E-18
 -1      1594 1.00248E-04-3.00241E-05-3.00967E-05 1.40029E-06-4.72229E-19-2.36145E-18
 -1      1595 9.86229E-05-2.95651E-05-2.96040E-05 5.36493E-07 7.14528E-19-1.25318E-18
 -1      1596 9.92491E-05-2.97473E-05-2.97900E-05 5.58510E-07 4.18661E-19-7.52112E-19
 -1      1597 9.90564E-05-2.96652E-05-2.97405E-05 1.17349E-06 3.02368E-19-2.00393E-18
 -1      1598 9.76693E-05-2.92819E-05-2.93151E-05 4.22446E-07-1.99552E-19-1.97111E-18
 -1      1599 9.81679E-05-2.94245E-05-2.94638E-05 4.43892E-07 2.69719E-19-1.47119E-18
 -1      1600 9.80687E-05-2.93727E-05-2.94429E-05 9.47484E-07 5.98973E-19-1.73162E-18
 -1      1601 9.69251E-05-2.90619E-05-2.90890E-05 3.22781E-07 1.03727E-18-3.75823E-18
 -1      1602 9.73098E-05-2.91702E-05-2.92041E-05 3.42135E-07 4.14650E-19-2.98928E-18
 -1      1603 9.72763E-05-2.91413E-05-2.92025E-05 7.41104E-07 9.07597E-19-2.91696E-18
 -1      1604 9.63608E-05-2.88957E-05-2.89171E-05 2.39529E-07 1.24673E-19-6.14785E-18
 -1      1605 9.66490E-05-2.89755E-05-2.90036E-05 2.56133E-07 8.88122E-19-4.26357E-18
 -1      1606 9.66586E-05-2.89630E-05-2.90141E-05 5.63013E-07 1.42352E-18-4.04616E-18
 -1      1607 9.59450E-05-2.87738E-05-2.87902E-05 1.72354E-07-1.21974E-18-3.44977E-18
 -1      1608 9.61544E-05-2.88307E-05-2.88532E-05 1.86083E-07-1.33255E-18-5.38509E-18
 -1      1609 9.61900E-05-2.88293E-05-2.88704E-05 4.15508E-07-1.31177E-18-3.29006E-18
 -1      1610 9.56481E-05-2.86871E-05-2.86993E-05 1.19685E-07 5.62516E-20-2.37785E-18
 -1      1611 9.57952E-05-2.87262E-05-2.87437E-05 1.30711E-07-3.60157E-19-2.51538E-18
 -1      1612 9.58443E-05-2.87318E-05-2.87638E-05 2.97220E-07-1.25560E-18-3.07404E-18
 -1      1613 9.54438E-05-2.86277E-05-2.86366E-05 7.94255E-08-3.27038E-19-1.77188E-18
 -1      1614 9.55429E-05-2.86533E-05-2.86666E-05 8.80686E-08-1.94132E-19-2.39164E-18
 -1      1615 9.55969E-05-2.86627E-05-2.86872E-05 2.04918E-07-3.26655E-19-1.68463E-18
 -1      1616 9.53100E-05-2.85891E-05-2.85953E-05 4.93794E-08-1.97444E-19-1.92473E-18
 -1      1617 9.53729E-05-2.86047E-05-2.86146E-05 5.60129E-08 9.03988E-20-1.61822E-18
 -1      1618 9.54261E-05-2.86158E-05-2.86339E-05 1.34644E-07-1.78232E-19-4.13638E-19
 -1      1619 9.52285E-05-2.85658E-05-2.85701E-05 2.74890E-08 9.74461E-19-2.02610E-18
 -1      1620 9.52649E-05-2.85742E-05-2.85813E-05 3.24840E-08 5.20579E-20-2.16766E-18
 -1      1621 9.53137E-05-2.85854E-05-2.85986E-05 8.23888E-08 4.43871E-19-1.34677E-18
 -1      1622 9.51849E-05-2.85536E-05-2.85564E-05 1.19566E-08-1.05222E-19-3.29819E-18
 -1      1623 9.52024E-05-2.85569E-05-2.85619E-05 1.56505E-08 3.80279E-20-2.57483E-18
 -1      1624 9.52448E-05-2.85673E-05-2.85767E-05 4.44694E-08 4.83308E-19-1.66527E-18
 -1      1625 9.51680E-05-2.85492E-05-2.85509E-05 1.29692E-09 6.36596E-19-3.42339E-18
 -1      1626 9.51724E-05-2.85490E-05-2.85525E-05 3.97661E-09 6.46963E-19-2.82543E-18
 -1      1627 9.52074E-05-2.85581E-05-2.85645E-05 1.77151E-08 5.40284E-19-7.06093E-19
 -1      1628 9.51692E-05-2.85501E-05-2.85510E-05-5.63851E-09 5.23668E-20-3.64620E-18
 -1      1629 9.51648E-05-2.85476E-05-2.85499E-05-3.75044E-09 9.73739E-20-4.19777E-18
 -1      1630 9.51922E-05-2.85550E-05-2.85592E-05-4.46897E-10 9.86093E-19-8.69895E-19
 -1      1631 9.51817E-05-2.85542E-05-2.85545E-05-9.62967E-09 2.31596E-19-4.11524E-18
 -1      1632 9.51720E-05-2.85505E-05-2.85518E-05-8.38889E-09 2.37091E-19-3.36514E-18
 -1      1633 9.51918E-05-2.85561E-05-2.85585E-05-1.19326E-08 1.15882E-19-1.65189E-18
 -1      1634 9.51999E-05-2.85601E-05-2.85597E-05-1.10994E-08 8.82753E-19-6.23943E-18
 -1      1635 9.51878E-05-2.85559E-05-2.85563E-05-1.04457E-08 7.01130E-19-5.12376E-18
 -1      1636 9.52005E-05-2.85596E-05-2.85606E-05-1.79782E-08 1.50879E-18-1.98025E-18
 -1      1637 9.52186E-05-2.85662E-05-2.85649E-05-9.98238E-09-6.80468E-19-6.54940E-18
 -1      1638 9.52070E-05-2.85624E-05-2.85617E-05-1.00172E-08-1.55293E-19-6.67867E-18
 -1      1639 9.52133E-05-2.85645E-05-2.85638E-05-1.90713E-08 3.79545E-19-9.78024E-19
 -1      1640 9.52324E-05-2.85711E-05-2.85688E-05-5.85989E-09-5.58154E-19-4.46984E-18
 -1      1641 9.52247E-05-2.85687E-05-2.85666E-05-6.71942E-09-8.15900E-19-6.18711E-18
 -1      1642 9.52263E-05-2.85699E-05-2.85669E-05-1.49202E-08-9.72082E-19-1.54126E-18
 -1      1643 9.52360E-05-2.85728E-05-2.85695E-05-1.71830E-09-2.04006E-18-1.92659E-18
 -1      1644 9.52409E-05-2.85864E-05-2.85661E-05-9.01908E-09-7.09993E-19 1.72223E-18
 -1      1645 9.52380E-05-2.85786E-05-2.85682E-05-7.88349E-09-2.87846E-18 2.62850E-18
 -1      1646 9.52467E-05-2.86025E-05-2.85619E-05-1.06707E-08-9.89147E-19 4.25515E-19
 -1      1647 9.52431E-05-2.85923E-05-2.85646E-05-1.06434E-08 2.66249E-20-7.57932E-19
 -1      1648 9.52404E-05-2.85863E-05-2.85660E-05-1.84249E-08-7.89816E-19 9.40384E-19
 -1      1649 9.52518E-05-2.86179E-05-2.85575E-05-9.66200E-09-1.09732E-18-2.89624E-19
 -1      1650 9.52486E-05-2.86083E-05-2.85602E-05-1.00647E-08-3.12564E-19 3.60275E-19
 -1      1651 9.52455E-05-2.85979E-05-2.85633E-05-1.95077E-08-4.06636E-20 4.48315E-19
 -1      1652 9.52556E-05-2.86304E-05-2.85538E-05-7.48558E-09-6.21040E-19-3.85676E-19
 -1      1653 9.52532E-05-2.86228E-05-2.85559E-05-8.00277E-09-1.20075E-18 1.68331E-18
 -1      1654 9.52493E-05-2.86083E-05-2.85606E-05-1.66872E-08-6.31892E-19 5.89963E-19
 -1      1655 9.52582E-05-2.86392E-05-2.85511E-05-5.16155E-09-1.74170E-18-7.69278E-19
 -1      1656 9.52566E-05-2.86339E-05-2.85526E-05-5.62115E-09-6.54325E-19-1.61081E-18
 -1      1657 9.52519E-05-2.86163E-05-2.85582E-05-1.24189E-08-1.33852E-18-8.45465E-19
 -1      1658 9.52598E-05-2.86449E-05-2.85493E-05-3.11518E-09-9.20121E-20 8.11757E-19
 -1      1659 9.52588E-05-2.86416E-05-2.85502E-05-3.48060E-09-1.31586E-18-5.18864E-19
 -1      1660 9.52534E-05-2.86218E-05-2.85565E-05-8.20151E-09-5.40310E-19-7.04199E-19
 -1      1661 9.52605E-05-2.86479E-05-2.85483E-05-1.48893E-09-1.17632E-18-1.04629E-18
 -1      1662 9.52601E-05-2.86462E-05-2.85488E-05-1.76519E-09-7.22547E-19 2.44321E-19
 -1      1663 9.52542E-05-2.86251E-05-2.85554E-05-4.63962E-09 1.94577E-19-5.64376E-19
 -1      1664 9.52607E-05-2.86486E-05-2.85481E-05-9.60127E-11-5.40889E-19-3.72831E-19
 -1      1665 9.52607E-05-2.86484E-05-2.85481E-05-3.44916E-10-3.97675E-20-6.59232E-19
 -1      1666 9.52546E-05-2.86267E-05-2.85548E-05-1.74726E-09 4.42646E-19-2.05333E-19
 -1      1667 9.52604E-05-2.86471E-05-2.85486E-05 1.38480E-09 4.20796E-19-2.23218E-19
 -1      1668 9.52607E-05-2.86484E-05-2.85482E-05 1.08837E-09 3.91451E-19 2.50552E-19
 -1      1669 9.52547E-05-2.86270E-05-2.85548E-05 9.38721E-10 2.08726E-18-3.02905E-19
 -1      1670 9.52592E-05-2.86429E-05-2.85499E-05 3.24857E-09-1.37193E-18-1.88137E-18
 -1      1671 9.52601E-05-2.86460E-05-2.85490E-05 2.84693E-09-8.28537E-20 1.08739E-19
 -1      1672 9.52545E-05-2.86259E-05-2.85552E-05 4.01648E-09-1.13672E-19-7.41792E-19
 -1      1673 9.52571E-05-2.86355E-05-2.85522E-05 5.56048E-09-3.38939E-18 5.43678E-20
 -1      1674 9.52587E-05-2.86407E-05-2.85507E-05 5.06305E-09-9.10593E-19-2.14004E-18
 -1      1675 9.52538E-05-2.86229E-05-2.85562E-05 7.87075E-09-7.87767E-19-2.27758E-18
 -1      1676 9.52537E-05-2.86241E-05-2.85556E-05 8.17852E-09-4.41391E-18-4.74707E-19
 -1      1677 9.52561E-05-2.86318E-05-2.85534E-05 7.61916E-09-4.08037E-18 1.17184E-18
 -1      1678 9.52524E-05-2.86176E-05-2.85579E-05 1.24809E-08-1.40116E-18-3.65070E-20
 -1      1679 9.52489E-05-2.86092E-05-2.85599E-05 1.04441E-08-6.25342E-18-3.19930E-19
 -1      1680 9.52522E-05-2.86190E-05-2.85572E-05 9.97585E-09-5.42619E-18 4.69720E-19
 -1      1681 9.52497E-05-2.86094E-05-2.85603E-05 1.71350E-08-2.61714E-18-1.29181E-18
 -1      1682 9.52435E-05-2.85930E-05-2.85645E-05 1.08509E-08-4.84633E-18 1.13343E-18
 -1      1683 9.52469E-05-2.86032E-05-2.85617E-05 1.08509E-08-5.42254E-18-3.25981E-19
 -1      1684 9.52456E-05-2.85985E-05-2.85631E-05 2.01400E-08-2.83397E-18 8.00328E-20
 -1      1685 9.52378E-05-2.85795E-05-2.85678E-05 1.06946E-08-3.06343E-18 3.11160E-19
 -1      1686 9.52407E-05-2.85873E-05-2.85658E-05 1.24836E-08-3.38390E-18-5.09337E-19
 -1      1687 9.52406E-05-2.85865E-05-2.85657E-05 2.11447E-08-1.02316E-18 4.76537E-19
 -1      1688 9.52325E-05-2.85759E-05-2.85669E-05 1.96331E-08 1.57193E-19 9.12231E-19
 -1      1689 1.94753E-05-6.23729E-05 1.29891E-05-4.10810E-06 7.65294E-18 2.90744E-18
 -1      1690 2.32334E-05-7.42170E-05 1.55420E-05 3.11076E-06 5.15314E-18 1.48146E-18
 -1      1691 2.15416E-05-3.54336E-05 2.40524E-06 7.93603E-06 1.05032E-17 6.14226E-18
 -1      1692 2.48819E-05-5.73452E-05 8.51043E-06 2.99787E-06 8.37292E-18 4.21388E-18
 -1      1693 3.87652E-05-1.04042E-05-1.35778E-05 3.23832E-05 1.10987E-17 7.91679E-18
 -1      1694 3.16173E-05-3.02524E-05-4.63036E-06 1.42364E-05 1.09589E-17 6.70511E-18
 -1      1695 7.76484E-05-1.08511E-07-3.20965E-05 6.23177E-05 9.21995E-18 9.93570E-18
 -1      1696 5.26576E-05-4.81751E-06-2.24388E-05 4.01462E-05 1.08496E-17 8.71258E-18
 -1      1697 1.41160E-04-1.57330E-05-5.02294E-05 7.84943E-05 6.45397E-18 8.39918E-18
 -1      1698 1.00193E-04-2.78377E-06-4.11392E-05 6.70066E-05 8.54656E-18 9.19200E-18
 -1      1699 2.07762E-04-4.36189E-05-6.49993E-05 6.18823E-05 3.68983E-18 2.10657E-18
 -1      1700 1.65553E-04-2.32897E-05-5.78548E-05 7.17229E-05 5.93325E-18 6.02579E-18
 -1      1701 2.49268E-04-6.27304E-05-7.34598E-05 2.47105E-05 2.29207E-18-3.86205E-18
 -1      1702 2.26312E-04-4.98199E-05-7.02796E-05 5.29637E-05 2.89939E-18 4.77727E-19
 -1      1703 2.45510E-04-5.98329E-05-7.37269E-05-2.59890E-05 3.25748E-18-9.71907E-18
 -1      1704 2.51700E-04-6.32703E-05-7.44695E-05 8.44678E-06 2.47567E-18-5.78158E-18
 -1      1705 1.99032E-04-3.69975E-05-6.52456E-05-6.21575E-05 4.98204E-18-1.22557E-17
 -1      1706 2.32735E-04-5.48941E-05-7.04764E-05-3.93273E-05 3.32482E-18-1.10699E-17
 -1      1707 1.37811E-04-1.21662E-05-5.15530E-05-7.56722E-05 8.93704E-18-1.36440E-17
 -1      1708 1.80456E-04-3.11337E-05-5.93612E-05-7.50204E-05 6.73836E-18-1.35220E-17
 -1      1709 8.04682E-05-1.06304E-06-3.43247E-05-5.83524E-05 1.09970E-17-1.26403E-17
 -1      1710 1.14860E-04-7.51183E-06-4.34060E-05-7.49197E-05 1.00704E-17-1.33594E-17
 -1      1711 4.16807E-05-1.12992E-05-1.58782E-05-2.93910E-05 1.15925E-17-9.50371E-18
 -1      1712 5.98989E-05-4.14742E-07-2.53707E-05-5.18316E-05 1.15595E-17-1.19042E-17
 -1      1713 2.77407E-05-4.12477E-05 8.82354E-07-7.32302E-06 9.29195E-18-5.44219E-18
 -1      1714 2.99795E-05-1.82816E-05-7.42640E-06-2.20386E-05 1.08344E-17-8.13152E-18
 -1      1715 2.41050E-05-6.77769E-05 1.22458E-05 1.53058E-06 4.52146E-18-3.63398E-18
 -1      1716 1.87364E-05-4.74863E-05 7.46276E-06 1.61709E-06 8.33226E-18-5.13556E-18
 -1      1717 2.39730E-05-7.80924E-05 1.64927E-05-3.66620E-06-2.44030E-18-2.88690E-18
 -1      1718 2.18985E-05-7.18784E-05 1.51517E-05 5.16824E-06 2.41574E-18-3.14122E-18
 -1      1719 1.99707E-05-6.45599E-05 1.33194E-05-6.83751E-06-8.85404E-18-4.33596E-18
 -1      1720 2.39569E-05-7.61346E-05 1.57818E-05 6.84873E-08-4.51807E-18-3.22508E-18
 -1      1721 2.14908E-05-3.75007E-05 2.77665E-06 4.72172E-06-1.23209E-17-7.16908E-18
 -1      1722 2.49737E-05-5.95457E-05 8.94571E-06-4.12086E-07-9.79678E-18-5.03066E-18
 -1      1723 3.54531E-05-1.14960E-05-1.23948E-05 2.77145E-05-1.29808E-17-8.54995E-18
 -1      1724 2.93121E-05-3.10093E-05-3.98005E-06 1.03011E-05-1.33992E-17-7.46744E-18
 -1      1725 7.97092E-05-5.08809E-06-3.14305E-05 5.91365E-05-9.81203E-18-9.87302E-18
 -1      1726 5.39183E-05-1.00659E-05-2.13366E-05 3.63050E-05-1.19618E-17-9.02768E-18
 -1      1727 1.47977E-04-2.20849E-05-5.05870E-05 7.26617E-05-6.76864E-18-9.61975E-18
 -1      1728 1.06179E-04-1.00618E-05-4.08832E-05 6.06499E-05-8.41443E-18-9.88657E-18
 -1      1729 2.12648E-04-4.48774E-05-6.59763E-05 6.59372E-05-4.15078E-18-7.67497E-18
 -1      1730 1.70152E-04-2.44893E-05-5.89725E-05 7.48100E-05-6.22019E-18-9.83490E-18
 -1      1731 2.53201E-04-6.35588E-05-7.45153E-05 2.54040E-05-3.23715E-18-1.23921E-18
 -1      1732 2.28589E-04-4.99639E-05-7.08876E-05 5.37731E-05-4.29679E-18-5.93347E-18
 -1      1733 2.51575E-04-6.15391E-05-7.50294E-05-2.35454E-05-3.73838E-18 5.79392E-18
 -1      1734 2.55938E-04-6.39113E-05-7.56933E-05 1.01783E-05-2.85598E-18 9.89652E-19
 -1      1735 2.15740E-04-4.40428E-05-6.84220E-05-6.25785E-05-4.77488E-18 1.08336E-17
 -1      1736 2.46770E-04-6.07108E-05-7.29664E-05-3.90393E-05-3.58856E-18 8.36360E-18
 -1      1737 1.52459E-04-2.01133E-05-5.42762E-05-7.02879E-05-7.92780E-18 1.20863E-17
 -1      1738 1.95648E-04-3.88614E-05-6.21242E-05-6.74791E-05-5.66284E-18 1.13604E-17
 -1      1739 8.94638E-05-5.79292E-06-3.62506E-05-5.76878E-05-1.20270E-17 1.19457E-17
 -1      1740 1.27999E-04-1.45451E-05-4.59601E-05-7.34539E-05-9.13864E-18 1.21049E-17
 -1      1741 4.44270E-05-1.22857E-05-1.69459E-05-2.91088E-05-1.11486E-17 1.06269E-17
 -1      1742 6.54329E-05-3.04119E-06-2.68189E-05-5.23689E-05-1.23269E-17 1.29249E-17
 -1      1743 2.67208E-05-3.80111E-05-3.07583E-07-5.32979E-06-7.03630E-18 5.58364E-18
 -1      1744 2.95114E-05-1.64549E-05-8.32438E-06-2.04142E-05-9.76121E-18 9.67481E-18
 -1      1745 2.41109E-05-6.44455E-05 1.10715E-05 2.49667E-06-1.01475E-18 3.33424E-18
 -1      1746 1.95049E-05-4.42793E-05 5.88458E-06 7.29698E-07-5.52011E-18 4.83328E-18
 -1      1747 2.37355E-05-7.71658E-05 1.62841E-05-8.43588E-07 4.34237E-18 2.21520E-18
 -1      1748 2.09399E-05-6.95336E-05 1.46194E-05 7.91917E-06 5.46336E-19 2.16925E-18
 -1      1749 1.15088E-04-2.83429E-05-3.60123E-05 4.74527E-05 5.72001E-18 4.96954E-18
 -1      1750 7.53195E-05-3.38667E-05-1.88661E-05 4.10250E-05 6.42898E-18 4.70908E-18
 -1      1751 9.52360E-05-2.85746E-05-2.85688E-05-6.13388E-09-3.05849E-18-4.86091E-19
 -1      1752 9.52347E-05-2.85763E-05-2.85677E-05-1.36540E-08-2.25319E-18 1.56607E-18
 -1      1753 2.03035E-05-4.47991E-05 6.90669E-06 1.89965E-05 4.01324E-18 4.61654E-18
 -1      1754 4.38663E-05-4.07906E-05-3.89251E-06 3.23155E-05 5.09829E-18 4.57136E-18
 -1      1755 1.15698E-05-5.00497E-05 1.18936E-05 2.81349E-06 2.29514E-18 3.50079E-18
 -1      1756 1.58453E-04-2.98174E-05-5.19556E-05 4.21937E-05 5.54065E-18 1.29511E-18
 -1      1757 1.92458E-04-3.23223E-05-6.40702E-05 2.68030E-05 5.16351E-18-1.27733E-18
 -1      1758 2.10803E-04-3.42887E-05-7.01049E-05 8.05315E-06 4.93481E-18-3.98868E-18
 -1      1759 2.01032E-04-3.12027E-05-6.79469E-05-1.32733E-05 4.33808E-18-6.17911E-18
 -1      1760 1.78481E-04-3.06774E-05-5.94490E-05-3.45029E-05 4.87605E-18-8.11119E-18
 -1      1761 1.41358E-04-2.85151E-05-4.59945E-05-4.75735E-05 6.99734E-18-9.16066E-18
 -1      1762 9.92245E-05-2.92355E-05-2.97026E-05-4.60440E-05 6.81777E-18-8.52539E-18
 -1      1763 6.24758E-05-3.61356E-05-1.30306E-05-3.76324E-05 6.08932E-18-6.77139E-18
 -1      1764 3.33747E-05-4.33760E-05 1.05891E-06-2.61667E-05 4.23347E-18-5.81726E-18
 -1      1765 1.60299E-05-5.04483E-05 1.01377E-05-1.09367E-05 1.57167E-18-5.72721E-18
 -1      1766 1.23207E-05-5.19510E-05 1.22409E-05 1.18265E-06-2.07782E-18-5.85935E-18
 -1      1767 2.08627E-05-4.72952E-05 7.35821E-06 1.59703E-05-4.70357E-18-5.94681E-18
 -1      1768 4.22376E-05-4.22698E-05-3.09328E-06 2.81733E-05-6.66022E-18-5.13302E-18
 -1      1769 7.55754E-05-3.61487E-05-1.81216E-05 3.91276E-05-7.89181E-18-4.79378E-18
 -1      1770 1.21550E-04-3.61011E-05-3.56439E-05 4.22629E-05-6.43660E-18-5.75728E-18
 -1      1771 1.63335E-04-3.49779E-05-5.22474E-05 3.77796E-05-5.16447E-18-4.72306E-18
 -1      1772 1.98005E-04-3.48151E-05-6.50416E-05 2.83913E-05-5.35240E-18-3.47792E-18
 -1      1773 2.11896E-04-3.38277E-05-7.07796E-05 7.56632E-06-5.66242E-18-7.42848E-19
 -1      1774 2.10819E-04-3.46669E-05-6.99578E-05-1.35904E-05-5.18723E-18 3.01290E-18
 -1      1775 1.89417E-04-3.49012E-05-6.19402E-05-2.93445E-05-5.06272E-18 5.72086E-18
 -1      1776 1.52727E-04-3.43845E-05-4.82301E-05-3.98060E-05-6.07873E-18 6.80591E-18
 -1      1777 1.07520E-04-3.32540E-05-3.14011E-05-4.38053E-05-6.96558E-18 6.73815E-18
 -1      1778 6.50142E-05-3.63176E-05-1.41472E-05-3.59143E-05-4.44438E-18 8.14041E-18
 -1      1779 3.53711E-05-4.34045E-05 3.47442E-09-2.39102E-05-2.20398E-18 6.09205E-18
 -1      1780 1.75997E-05-4.93622E-05 9.20690E-06-1.17176E-05-2.14299E-19 5.18130E-18
 -1      1781 1.06145E-04-2.32786E-05-3.56041E-05-1.61991E-05-1.63988E-18 4.97886E-18
 -1      1782 8.96058E-05-1.05912E-05-3.39912E-05-1.20414E-05-1.73213E-18-2.75577E-18
 -1      1783 9.10551E-05-1.17252E-05-3.41334E-05-1.38675E-05-2.08966E-18-2.19133E-18
 -1      1784 9.31398E-05-1.40787E-05-3.40449E-05-1.48300E-05-2.10938E-18-1.38421E-18
 -1      1785 9.48670E-05-1.60790E-05-3.42567E-05-1.65568E-05-2.37501E-18-3.24519E-19
 -1      1786 9.40621E-05-1.64646E-05-3.32667E-05-1.24648E-05-2.22367E-18-1.60603E-18
 -1      1787 8.59285E-05-7.17158E-06-3.38256E-05-6.76844E-06-7.61731E-19-3.58178E-18
 -1      1788 8.65159E-05-7.56085E-06-3.38915E-05-8.06638E-06-1.00804E-18-3.54651E-18
 -1      1789 8.49570E-05-6.31805E-06-3.37615E-05-4.50004E-06-2.61020E-19-3.59776E-18
 -1      1790 8.53493E-05-6.56943E-06-3.38071E-05-5.66394E-06-5.16220E-19-3.61962E-18
 -1      1791 8.70783E-05-9.09237E-06-3.34490E-05-5.82815E-06-7.36332E-19-3.45298E-18
 -1      1792 8.43743E-05-5.81532E-06-3.37184E-05-2.42617E-06 2.03666E-19-3.49565E-18
 -1      1793 8.45966E-05-5.95378E-06-3.37456E-05-3.49213E-06-1.04498E-20-3.59790E-18
 -1      1794 8.60741E-05-8.13946E-06-3.34266E-05-3.76237E-06-1.30522E-19-3.46924E-18
 -1      1795 8.41403E-05-5.61083E-06-3.37000E-05-4.55182E-07 6.06043E-19-3.37682E-18
 -1      1796 8.42061E-05-5.65008E-06-3.37091E-05-1.47619E-06 4.19917E-19-3.45015E-18
 -1      1797 8.55085E-05-7.61691E-06-3.34077E-05-1.84238E-06 3.23437E-19-3.35452E-18
 -1      1798 8.42396E-05-5.68368E-06-3.37082E-05 1.50609E-06 1.02726E-18-3.20978E-18
 -1      1799 8.41537E-05-5.62830E-06-3.36993E-05 4.79759E-07 8.31797E-19-3.30737E-18
 -1      1800 8.53445E-05-7.47201E-06-3.33995E-05 8.54893E-09 7.76844E-19-3.21653E-18
 -1      1801 8.46703E-05-6.03424E-06-3.37423E-05 3.55004E-06 1.36783E-18-3.03300E-18
 -1      1802 8.44321E-05-5.88138E-06-3.37159E-05 2.46904E-06 1.22998E-18-3.17766E-18
 -1      1803 8.55682E-05-7.68644E-06-3.34042E-05 1.87306E-06 1.17869E-18-3.06385E-18
 -1      1804 8.54321E-05-6.67216E-06-3.37991E-05 5.72727E-06 1.76583E-18-2.68258E-18
 -1      1805 8.50398E-05-6.41660E-06-3.37558E-05 4.56304E-06 1.56133E-18-2.89193E-18
 -1      1806 8.61757E-05-8.26232E-06-3.34187E-05 3.81303E-06 1.58815E-18-2.84921E-18
 -1      1807 8.66140E-05-7.69338E-06-3.38788E-05 8.19818E-06 2.17269E-18-2.01103E-18
 -1      1808 8.60161E-05-7.28841E-06-3.38145E-05 6.85530E-06 1.90831E-18-2.38853E-18
 -1      1809 8.71958E-05-9.24713E-06-3.34354E-05 5.91047E-06 1.99321E-18-2.38278E-18
 -1      1810 8.83847E-05-9.28568E-06-3.39831E-05 1.09999E-05 2.56533E-18-1.13460E-18
 -1      1811 8.74827E-05-8.63711E-06-3.38885E-05 9.43279E-06 2.33746E-18-1.66662E-18
 -1      1812 8.87364E-05-1.07764E-05-3.34397E-05 8.21450E-06 2.37148E-18-1.70870E-18
 -1      1813 9.11918E-05-1.19571E-05-3.41111E-05 1.40904E-05 2.71670E-18 3.81297E-19
 -1      1814 8.97085E-05-1.07788E-05-3.39688E-05 1.22732E-05 2.57353E-18-5.52371E-19
 -1      1815 9.10204E-05-1.31292E-05-3.33994E-05 1.06403E-05 2.70256E-18-7.21950E-19
 -1      1816 9.64737E-05-1.72682E-05-3.41421E-05 1.66447E-05 2.52785E-18 3.03137E-18
 -1      1817 9.34787E-05-1.45449E-05-3.40055E-05 1.50668E-05 2.56167E-18 1.47429E-18
 -1      1818 9.45800E-05-1.70193E-05-3.32288E-05 1.26553E-05 2.73611E-18 8.88273E-19
 -1      1819 1.02368E-04-2.52796E-05-3.34632E-05 1.36201E-05 2.02880E-18 6.16047E-18
 -1      1820 9.86375E-05-1.98562E-05-3.37638E-05 1.60245E-05 2.26232E-18 4.11880E-18
 -1      1821 9.80281E-05-2.20844E-05-3.26216E-05 1.21941E-05 2.52141E-18 2.91573E-18
 -1      1822 9.94169E-05-2.63612E-05-3.15215E-05 8.64687E-06 1.99270E-18 5.48951E-18
 -1      1823 1.00623E-04-1.98036E-05-3.43216E-05-1.79625E-05-2.17877E-18 1.60830E-18
 -1      1824 9.64318E-05-2.75964E-05-2.95259E-05 3.24765E-06 1.61250E-18 4.43941E-18
 -1      1825 9.85882E-05-2.76362E-05-3.04480E-05 5.60271E-06 1.67215E-18 5.02503E-18
 -1      1826 9.84306E-05-2.58735E-05-3.10915E-05 7.78979E-06 2.06102E-18 3.54000E-18
 -1      1827 1.00407E-04-2.27534E-05-3.30024E-05-1.34598E-05-2.24945E-18 8.52009E-19
 -1      1828 9.80127E-05-2.72344E-05-3.02168E-05-4.64939E-06-1.75659E-18 6.52062E-19
 -1      1829 9.65134E-05-2.73457E-05-2.96056E-05-2.77632E-06-1.46166E-18 2.30942E-19
 -1      1830 9.59250E-05-2.75800E-05-2.91918E-05-1.15716E-06-1.27908E-18 2.49795E-19
 -1      1831 9.55325E-05-2.77411E-05-2.90044E-05-1.74698E-07-1.08812E-18-6.85170E-20
 -1      1832 9.68277E-05-2.67640E-05-3.00543E-05-2.94284E-06-1.57797E-18-5.13955E-19
 -1      1833 9.53088E-05-2.78468E-05-2.88506E-05 8.59656E-07-9.48181E-19-9.86231E-20
 -1      1834 9.54901E-05-2.80218E-05-2.88753E-05 1.48594E-06-8.12662E-19-4.04458E-19
 -1      1835 9.61419E-05-2.74908E-05-2.94482E-05 9.25085E-08-1.20742E-18-5.95219E-19
 -1      1836 9.55971E-05-2.81270E-05-2.88811E-05 2.22050E-06-7.48187E-19-4.22294E-19
 -1      1837 9.61839E-05-2.83547E-05-2.90368E-05 2.69243E-06-7.31535E-19-5.51703E-19
 -1      1838 9.61106E-05-2.78910E-05-2.92602E-05 2.10337E-06-9.93881E-19-7.65668E-19
 -1      1839 9.65615E-05-2.84923E-05-2.91527E-05 3.28520E-06-7.03158E-19-6.13632E-19
 -1      1840 9.74637E-05-2.87812E-05-2.94054E-05 3.69679E-06-4.42724E-19-8.63710E-19
 -1      1841 9.66389E-05-2.82215E-05-2.93419E-05 3.61120E-06-7.49872E-19-8.91273E-19
 -1      1842 9.80663E-05-2.89625E-05-2.96042E-05 4.23144E-06-3.98913E-19-9.87003E-19
 -1      1843 9.92416E-05-2.93204E-05-2.99378E-05 4.62585E-06-3.89748E-19-1.09428E-18
 -1      1844 9.76403E-05-2.85792E-05-2.96148E-05 4.88701E-06-5.27619E-19-9.58875E-19
 -1      1845 1.00043E-04-2.95563E-05-3.02016E-05 5.13802E-06-4.78325E-19-1.07820E-18
 -1      1846 1.01469E-04-2.99968E-05-3.06055E-05 5.52232E-06-5.74781E-19-1.12659E-18
 -1      1847 9.90550E-05-2.90172E-05-3.00314E-05 6.06567E-06-4.85378E-19-1.03077E-18
 -1      1848 1.02458E-04-3.03067E-05-3.09185E-05 6.00374E-06-7.87976E-19-1.19582E-18
 -1      1849 1.04112E-04-3.08496E-05-3.13796E-05 6.34461E-06-7.43523E-19-1.11013E-18
 -1      1850 1.00855E-04-2.95928E-05-3.05553E-05 7.18081E-06-6.80469E-19-1.31242E-18
 -1      1851 1.05290E-04-3.12673E-05-3.17232E-05 6.73235E-06-6.87987E-19-1.29561E-18
 -1      1852 1.07120E-04-3.19363E-05-3.22176E-05 6.94068E-06-4.53144E-19-1.55950E-18
 -1      1853 1.03042E-04-3.03920E-05-3.11502E-05 8.15916E-06-9.65995E-19-1.34819E-18
 -1      1854 1.08501E-04-3.25128E-05-3.25665E-05 7.09678E-06-3.39130E-19-1.52875E-18
 -1      1855 1.10395E-04-3.33248E-05-3.30513E-05 7.00908E-06-1.35542E-19-1.70649E-18
 -1      1856 1.05639E-04-3.15435E-05-3.17719E-05 8.78876E-06-4.79071E-19-1.36834E-18
 -1      1857 1.11993E-04-3.41193E-05-3.33736E-05 6.70071E-06-1.97041E-19-1.51895E-18
 -1      1858 1.13744E-04-3.50535E-05-3.37817E-05 6.07688E-06-4.88698E-20-1.56833E-18
 -1      1859 1.08686E-04-3.32086E-05-3.23675E-05 8.67738E-06-1.12415E-19-9.18197E-19
 -1      1860 1.15540E-04-3.60889E-05-3.40465E-05 4.98527E-06 4.54400E-19-1.58844E-18
 -1      1861 1.16808E-04-3.70161E-05-3.42935E-05 3.56643E-06 5.78689E-19-1.20657E-18
 -1      1862 1.12188E-04-3.55043E-05-3.28873E-05 7.23861E-06 1.86708E-19-1.01750E-18
 -1      1863 1.18654E-04-3.81605E-05-3.44909E-05 1.40098E-06 5.88079E-19-7.57654E-19
 -1      1864 1.18976E-04-3.87440E-05-3.45050E-05-8.97981E-07 3.05752E-19-4.91936E-19
 -1      1865 1.15978E-04-3.82710E-05-3.33191E-05 3.80070E-06 6.99914E-19-2.86391E-19
 -1      1866 1.20446E-04-3.95565E-05-3.46752E-05-4.09270E-06 8.88458E-20-5.61623E-20
 -1      1867 1.19369E-04-3.92046E-05-3.44504E-05-6.85148E-06-1.27055E-20 1.97742E-19
 -1      1868 1.19443E-04-4.07029E-05-3.37397E-05-1.96105E-06 4.48213E-19 1.85048E-19
 -1      1869 1.19706E-04-3.88885E-05-3.46868E-05-1.01774E-05-5.26100E-19 2.74690E-19
 -1      1870 1.17149E-04-3.70655E-05-3.43319E-05-1.21570E-05-7.95840E-19 2.33887E-19
 -1      1871 1.21312E-04-4.11016E-05-3.43402E-05-9.19698E-06-2.61607E-19 7.47958E-19
 -1      1872 1.15744E-04-3.50453E-05-3.47118E-05-1.35890E-05-1.17987E-18-1.59864E-19
 -1      1873 1.12494E-04-3.21181E-05-3.43888E-05-1.30853E-05-1.27509E-18-6.34653E-19
 -1      1874 1.20055E-04-3.75526E-05-3.53313E-05-1.48559E-05-1.43094E-18 5.92059E-19
 -1      1875 1.10175E-04-2.93280E-05-3.47803E-05-1.06471E-05-1.18008E-18-1.36401E-18
 -1      1876 1.07936E-04-2.70616E-05-3.46139E-05-7.02930E-06-1.22523E-18-1.62695E-18
 -1      1877 1.15810E-04-3.07104E-05-3.65560E-05-1.41471E-05-1.66093E-18 1.26790E-19
 -1      1878 1.06940E-04-2.58896E-05-3.47755E-05-1.27780E-06-1.40425E-18-2.16885E-18
 -1      1879 1.07235E-04-2.61705E-05-3.48065E-05 3.61016E-06-8.98173E-19-2.75393E-18
 -1      1880 1.11980E-04-2.51380E-05-3.74190E-05-5.02687E-06-1.67358E-18-1.23869E-18
 -1      1881 1.08712E-04-2.78397E-05-3.46025E-05 8.96330E-06-8.49283E-19-3.91890E-18
 -1      1882 1.11362E-04-3.04337E-05-3.48235E-05 1.20555E-05-8.24957E-19-4.39375E-18
 -1      1883 1.12510E-04-2.58103E-05-3.73419E-05 7.62950E-06-1.60404E-18-3.13036E-18
 -1      1884 1.13720E-04-3.32586E-05-3.44299E-05 1.36998E-05-1.74806E-19-4.51042E-18
 -1      1885 1.17030E-04-3.61003E-05-3.47952E-05 1.36296E-05-5.47643E-20-4.41267E-18
 -1      1886 1.16895E-04-3.21310E-05-3.63842E-05 1.53216E-05-5.87047E-19-3.63968E-18
 -1      1887 1.18162E-04-3.78140E-05-3.44681E-05 1.16558E-05-1.02756E-19-3.61278E-18
 -1      1888 1.20553E-04-3.93616E-05-3.48393E-05 9.41564E-06 2.38790E-19-3.30371E-18
 -1      1889 1.20852E-04-3.86083E-05-3.52068E-05 1.44873E-05 6.29948E-19-2.59128E-18
 -1      1890 1.20008E-04-3.94158E-05-3.46456E-05 6.00728E-06 2.88481E-19-2.89162E-18
 -1      1891 1.20888E-04-3.95600E-05-3.48573E-05 3.29096E-06 5.90461E-19-2.16799E-18
 -1      1892 1.21575E-04-4.13551E-05-3.43460E-05 8.23052E-06 7.03342E-19-1.46033E-18
 -1      1893 1.19365E-04-3.86462E-05-3.47126E-05 2.88880E-07-1.01512E-19-1.94972E-18
 -1      1894 1.18936E-04-3.79870E-05-3.46838E-05-1.82198E-06 2.16589E-19-1.71471E-18
 -1      1895 1.19408E-04-4.04495E-05-3.38396E-05 1.17248E-06 6.65616E-19-9.63459E-19
 -1      1896 1.17156E-04-3.68578E-05-3.45034E-05-3.72346E-06 5.66394E-19-2.04549E-18
 -1      1897 1.15897E-04-3.59471E-05-3.42581E-05-4.93351E-06 8.46616E-19-2.82188E-18
 -1      1898 1.15944E-04-3.78742E-05-3.34783E-05-4.07611E-06 2.80222E-19-1.10303E-18
 -1      1899 1.14227E-04-3.49798E-05-3.40128E-05-5.79580E-06 7.90275E-19-3.04822E-18
 -1      1900 1.12585E-04-3.41100E-05-3.36292E-05-6.25107E-06 5.06455E-19-2.70989E-18
 -1      1901 1.12353E-04-3.51983E-05-3.30893E-05-6.97494E-06 1.00471E-18-1.84028E-18
 -1      1902 1.11134E-04-3.33912E-05-3.33341E-05-6.39380E-06 7.02091E-19-2.13216E-18
 -1      1903 1.09422E-04-3.26626E-05-3.28944E-05-6.36269E-06 1.25269E-18-1.62463E-18
 -1      1904 1.09133E-04-3.30795E-05-3.26141E-05-7.99010E-06 1.30757E-18-1.27831E-18
 -1      1905 1.08192E-04-3.21559E-05-3.25800E-05-6.09790E-06 1.41229E-18-1.48793E-18
 -1      1906 1.06592E-04-3.15786E-05-3.21453E-05-5.81325E-06 1.24510E-18-1.05844E-18
 -1      1907 1.06393E-04-3.15931E-05-3.20728E-05-7.80767E-06 1.50659E-18-1.23014E-18
 -1      1908 1.05559E-04-3.12235E-05-3.18395E-05-5.36428E-06 6.28161E-19-1.46331E-18
 -1      1909 1.04159E-04-3.07767E-05-3.14454E-05-4.98235E-06-2.94819E-19-1.57051E-18
 -1      1910 1.04101E-04-3.06028E-05-3.15124E-05-6.99757E-06 7.51682E-19-1.45717E-18
 -1      1911 1.03300E-04-3.05235E-05-3.11668E-05-4.48503E-06-6.65732E-19-1.14421E-18
 -1      1912 1.02128E-04-3.01817E-05-3.08289E-05-4.09487E-06-2.11136E-19-6.71048E-19
 -1      1913 1.02201E-04-2.99502E-05-3.09759E-05-5.94165E-06 5.12554E-20-1.88331E-18
 -1      1914 1.01421E-04-2.99968E-05-3.05870E-05-3.62149E-06-3.25510E-19-7.76408E-19
 -1      1915 1.00470E-04-2.97374E-05-3.03085E-05-3.26658E-06-3.00367E-19-1.07446E-18
 -1      1916 1.00638E-04-2.95145E-05-3.04917E-05-4.86222E-06-7.44694E-20-8.63132E-19
 -1      1917 9.98958E-05-2.95999E-05-3.01057E-05-2.84964E-06-5.08537E-19-1.18018E-18
 -1      1918 9.91431E-05-2.94045E-05-2.98826E-05-2.54656E-06-3.38866E-19-1.02059E-18
 -1      1919 9.93671E-05-2.92168E-05-3.00733E-05-3.87209E-06-6.51290E-19-4.54688E-19
 -1      1920 9.86837E-05-2.93013E-05-2.97173E-05-2.19608E-06-5.09844E-19-1.64585E-18
 -1      1921 9.80998E-05-2.91556E-05-2.95426E-05-1.94720E-06-9.44913E-20-1.51956E-18
 -1      1922 9.83461E-05-2.90087E-05-2.97238E-05-3.01749E-06-7.98103E-19-1.08400E-18
 -1      1923 9.77380E-05-2.90781E-05-2.94109E-05-1.66159E-06 3.36882E-19-1.48459E-18
 -1      1924 9.72933E-05-2.89708E-05-2.92767E-05-1.46261E-06 5.54874E-19-1.86706E-18
 -1      1925 9.75378E-05-2.88612E-05-2.94396E-05-2.30788E-06 2.04173E-20-7.15947E-19
 -1      1926 9.70128E-05-2.89129E-05-2.91739E-05-1.23509E-06 7.15458E-19-2.05433E-18
 -1      1927 9.66800E-05-2.88351E-05-2.90727E-05-1.07915E-06-4.41550E-19-1.44044E-18
 -1      1928 9.69074E-05-2.87561E-05-2.92134E-05-1.73434E-06 4.20079E-19-1.47565E-18
 -1      1929 9.64662E-05-2.87925E-05-2.89938E-05-9.01134E-07-1.32605E-18-6.15862E-19
 -1      1930 9.62216E-05-2.87372E-05-2.89188E-05-7.80912E-07-1.17519E-18-7.97099E-19
 -1      1931 9.64236E-05-2.86818E-05-2.90369E-05-1.28020E-06-3.69991E-19-7.98570E-19
 -1      1932 9.60616E-05-2.87064E-05-2.88594E-05-6.43782E-07-2.89179E-19-1.15467E-18
 -1      1933 9.58855E-05-2.86681E-05-2.88050E-05-5.52457E-07-2.84951E-19-1.41377E-18
 -1      1934 9.60585E-05-2.86301E-05-2.89017E-05-9.26617E-07-5.69908E-19-1.29722E-19
 -1      1935 9.57680E-05-2.86464E-05-2.87610E-05-4.48342E-07-6.18382E-19-1.62644E-18
 -1      1936 9.56443E-05-2.86207E-05-2.87224E-05-3.79952E-07-6.49443E-19-1.30157E-18
 -1      1937 9.57880E-05-2.85952E-05-2.88000E-05-6.55454E-07-7.98310E-19-6.17406E-19
 -1      1938 9.55600E-05-2.86059E-05-2.86906E-05-3.02037E-07-3.92921E-19-8.46322E-19
 -1      1939 9.54759E-05-2.85896E-05-2.86640E-05-2.51575E-07-2.21088E-19-4.19417E-19
 -1      1940 9.55919E-05-2.85727E-05-2.87249E-05-4.50486E-07-1.98779E-19 8.31171E-19
 -1      1941 9.54170E-05-2.85800E-05-2.86415E-05-1.94147E-07-3.34689E-19-4.07721E-19
 -1      1942 9.53621E-05-2.85703E-05-2.86238E-05-1.57511E-07 1.05937E-18-2.76045E-20
 -1      1943 9.54532E-05-2.85593E-05-2.86707E-05-2.97819E-07-5.20690E-19 1.82526E-19
 -1      1944 9.53225E-05-2.85645E-05-2.86085E-05-1.15900E-07 1.14580E-18-5.39292E-19
 -1      1945 9.52890E-05-2.85597E-05-2.85974E-05-8.98008E-08 1.42281E-18-2.50193E-19
 -1      1946 9.53582E-05-2.85524E-05-2.86325E-05-1.85903E-07 9.44409E-19 1.46919E-18
 -1      1947 9.52637E-05-2.85566E-05-2.85873E-05-6.02721E-08 2.22642E-18-4.67383E-19
 -1      1948 9.52455E-05-2.85551E-05-2.85809E-05-4.21349E-08 2.09963E-18 4.73223E-19
 -1      1949 9.52960E-05-2.85501E-05-2.86065E-05-1.05364E-07 1.68029E-18 2.05719E-18
 -1      1950 9.52305E-05-2.85540E-05-2.85747E-05-2.17782E-08 1.46582E-18 1.80932E-18
 -1      1951 9.52230E-05-2.85547E-05-2.85716E-05-9.64855E-09 1.82792E-18 3.15006E-18
 -1      1952 9.52578E-05-2.85509E-05-2.85894E-05-4.87735E-08 2.77552E-18 2.16594E-18
 -1      1953 9.52153E-05-2.85550E-05-2.85681E-05 3.71700E-09 1.21121E-18 3.62587E-18
 -1      1954 9.52148E-05-2.85572E-05-2.85672E-05 1.12373E-08 1.34479E-18 3.88379E-18
 -1      1955 9.52367E-05-2.85539E-05-2.85789E-05-1.04260E-08 1.77835E-18 3.41819E-18
 -1      1956 9.52120E-05-2.85584E-05-2.85655E-05 1.91365E-08 7.25962E-19 2.55348E-18
 -1      1957 9.52158E-05-2.85615E-05-2.85659E-05 2.29165E-08 7.37643E-19 1.67097E-18
 -1      1958 9.52275E-05-2.85584E-05-2.85728E-05 1.38521E-08 3.22382E-19 2.83822E-18
 -1      1959 9.52161E-05-2.85635E-05-2.85652E-05 2.63820E-08 9.24371E-19 6.23117E-19
 -1      1960 9.52219E-05-2.85672E-05-2.85663E-05 2.67148E-08-1.04193E-19 1.77147E-18
 -1      1961 9.52260E-05-2.85641E-05-2.85696E-05 2.68628E-08-5.28313E-19 2.56691E-18
 -1      1962 9.52235E-05-2.85694E-05-2.85660E-05 2.62069E-08-7.53051E-20 1.74373E-18
 -1      1963 9.52296E-05-2.85734E-05-2.85670E-05 2.31474E-08 6.05819E-19 1.59360E-18
 -1      1964 9.52338E-05-2.85777E-05-2.85670E-05 2.63051E-08-4.94907E-19 1.12414E-18
 -1      1965 9.52289E-05-2.85709E-05-2.85679E-05 3.04025E-08 1.40725E-20 2.25049E-18
 -1      1966 9.48864E-05-2.78027E-05-2.87170E-05 6.60503E-07 1.29010E-18 3.57087E-18
 -1      1967 9.57648E-05-2.78248E-05-2.90559E-05 1.79546E-06 1.35175E-18 4.16195E-18
 -1      1968 9.65158E-05-2.73724E-05-2.96419E-05 2.96569E-06 1.69960E-18 2.90696E-18
 -1      1969 9.45107E-05-2.79645E-05-2.84900E-05-7.97712E-07 1.13198E-18 2.89540E-18
 -1      1970 9.46273E-05-2.78909E-05-2.85477E-05-1.50435E-07 1.06984E-18 3.27698E-18
 -1      1971 9.54529E-05-2.78085E-05-2.90016E-05 2.91544E-07 1.37777E-18 2.38338E-18
 -1      1972 9.49612E-05-2.82311E-05-2.85774E-05-1.70944E-06 6.74225E-19 2.33890E-18
 -1      1973 9.46179E-05-2.80699E-05-2.84872E-05-1.29045E-06 9.10087E-19 2.60359E-18
 -1      1974 9.52895E-05-2.80889E-05-2.88149E-05-1.30377E-06 1.09130E-18 1.73056E-18
 -1      1975 9.59810E-05-2.86131E-05-2.88566E-05-2.32626E-06 2.55619E-19 1.94206E-18
 -1      1976 9.53419E-05-2.83830E-05-2.86771E-05-2.03005E-06 3.85910E-19 2.23027E-18
 -1      1977 9.57887E-05-2.84054E-05-2.88938E-05-2.33455E-06 5.24605E-19 1.30367E-18
 -1      1978 9.73980E-05-2.90971E-05-2.92608E-05-2.75154E-06 5.82292E-19 1.48089E-18
 -1      1979 9.65608E-05-2.88132E-05-2.90233E-05-2.53656E-06 3.34719E-19 1.83967E-18
 -1      1980 9.67648E-05-2.88027E-05-2.91405E-05-3.03684E-06 4.04222E-19 9.08909E-19
 -1      1981 9.90820E-05-2.96677E-05-2.97424E-05-3.00665E-06 5.57473E-19 1.47436E-18
 -1      1982 9.81191E-05-2.93428E-05-2.94697E-05-2.86676E-06 6.01960E-19 1.44675E-18
 -1      1983 9.80831E-05-2.92905E-05-2.94945E-05-3.50100E-06 7.44434E-19 5.88878E-19
 -1      1984 1.00908E-04-3.03071E-05-3.02567E-05-3.05550E-06 5.63982E-19 1.26311E-18
 -1      1985 9.98917E-05-2.99557E-05-2.99716E-05-3.01078E-06 5.44947E-19 1.49852E-18
 -1      1986 9.96339E-05-2.98693E-05-2.99088E-05-3.72898E-06 5.74480E-19 8.25713E-19
 -1      1987 1.02728E-04-3.09869E-05-3.07524E-05-2.81559E-06-4.74074E-20 1.40001E-18
 -1      1988 1.01747E-04-3.06307E-05-3.04827E-05-2.90835E-06 2.51178E-19 1.44959E-18
 -1      1989 1.01307E-04-3.05330E-05-3.03385E-05-3.65763E-06 2.48477E-19 9.51790E-19
 -1      1990 1.04347E-04-3.16560E-05-3.11676E-05-2.17376E-06 5.96050E-20 1.60201E-18
 -1      1991 1.03521E-04-3.13305E-05-3.09484E-05-2.46171E-06-7.24263E-20 1.43534E-18
 -1      1992 1.02968E-04-3.12598E-05-3.07348E-05-3.17499E-06 2.88306E-20 1.05950E-18
 -1      1993 1.05516E-04-3.22256E-05-3.14312E-05-1.02230E-06 2.32974E-19 1.59180E-18
 -1      1994 1.04992E-04-3.19861E-05-3.13040E-05-1.56120E-06 3.79405E-19 1.63442E-18
 -1      1995 1.04440E-04-3.19935E-05-3.10447E-05-2.14937E-06 1.95512E-19 1.10448E-18
 -1      1996 1.05941E-04-3.25567E-05-3.14739E-05 6.70357E-07 5.16568E-19 1.05139E-18
 -1      1997 1.05884E-04-3.24795E-05-3.14797E-05-1.38245E-07 2.48578E-19 1.26071E-18
 -1      1998 1.05487E-04-3.26201E-05-3.12162E-05-4.88857E-07 4.19956E-19 8.98877E-19
 -1      1999 1.05340E-04-3.24657E-05-3.12506E-05 2.75325E-06-2.78197E-20 1.70148E-18
 -1      2000 1.05888E-04-3.26375E-05-3.14163E-05 1.74639E-06 5.94445E-20 1.46273E-18
 -1      2001 1.05829E-04-3.29498E-05-3.12112E-05 1.75712E-06 6.54929E-20 1.06301E-18
 -1      2002 1.03557E-04-3.17780E-05-3.07693E-05 4.78934E-06-7.54379E-19 1.71714E-18
 -1      2003 1.04751E-04-3.22605E-05-3.10892E-05 3.79682E-06-5.04090E-19 1.58166E-18
 -1      2004 1.05197E-04-3.27369E-05-3.10228E-05 4.26946E-06-3.44014E-19 1.10155E-18
 -1      2005 1.00736E-04-3.04521E-05-3.01143E-05 6.05779E-06 1.73245E-19 1.54914E-18
 -1      2006 1.02437E-04-3.12201E-05-3.05354E-05 5.42930E-06-2.59758E-19 1.69956E-18
 -1      2007 1.03468E-04-3.17838E-05-3.06900E-05 6.37849E-06-2.98536E-19 8.27895E-19
 -1      2008 9.74695E-05-2.87378E-05-2.94431E-05 5.79322E-06 7.96183E-19 1.18263E-18
 -1      2009 9.93086E-05-2.96212E-05-2.98660E-05 5.89237E-06 7.69974E-19 1.26105E-18
 -1      2010 1.00871E-04-3.01345E-05-3.02974E-05 7.17250E-06 9.28337E-19 1.03201E-18
 -1      2011 9.47669E-05-2.72174E-05-2.89444E-05 3.65688E-06 5.92936E-19 1.11292E-18
 -1      2012 9.62050E-05-2.79143E-05-2.92499E-05 4.63184E-06 7.33782E-19 1.06353E-18
 -1      2013 9.81102E-05-2.82372E-05-2.99539E-05 5.90909E-06 9.89765E-19 8.05823E-19
 -1      2014 9.36856E-05-2.65796E-05-2.87676E-05 1.63808E-07 2.69277E-19 4.81535E-19
 -1      2015 9.42145E-05-2.67910E-05-2.88613E-05 1.75367E-06 2.39207E-19 6.61529E-19
 -1      2016 9.62289E-05-2.68778E-05-2.97547E-05 2.59080E-06 6.25190E-19 5.91007E-19
 -1      2017 9.47236E-05-2.71496E-05-2.89729E-05-3.42731E-06 6.96387E-19 1.06739E-19
 -1      2018 9.41250E-05-2.67768E-05-2.88210E-05-1.80536E-06 5.81078E-19 4.75215E-19
 -1      2019 9.60651E-05-2.67156E-05-2.97533E-05-1.73445E-06 7.25444E-19 3.69576E-19
 -1      2020 9.74955E-05-2.86607E-05-2.95069E-05-5.80844E-06 2.73291E-19 1.25626E-19
 -1      2021 9.59720E-05-2.78670E-05-2.91531E-05-4.73436E-06 3.15593E-19 3.47495E-19
 -1      2022 9.77214E-05-2.78513E-05-2.99589E-05-5.45650E-06 1.85858E-19 3.50298E-19
 -1      2023 1.00974E-04-3.04452E-05-3.02191E-05-6.35079E-06 1.03744E-18-4.85820E-19
 -1      2024 9.90319E-05-2.95453E-05-2.97656E-05-6.08259E-06 6.44620E-19-6.25084E-20
 -1      2025 1.00489E-04-2.97212E-05-3.03237E-05-7.32050E-06 9.88322E-19 3.52114E-20
 -1      2026 1.04089E-04-3.18842E-05-3.09265E-05-5.29382E-06-2.59503E-20-5.25802E-19
 -1      2027 1.02276E-04-3.11519E-05-3.04899E-05-5.71439E-06 6.44347E-19-2.60549E-19
 -1      2028 1.03331E-04-3.15304E-05-3.07577E-05-7.05572E-06 7.54725E-19-3.76271E-19
 -1      2029 1.06179E-04-3.26885E-05-3.14754E-05-3.37498E-06-4.30696E-19-8.92602E-19
 -1      2030 1.04871E-04-3.22523E-05-3.11463E-05-4.16606E-06-7.48188E-19-9.93034E-19
 -1      2031 1.05447E-04-3.27205E-05-3.11572E-05-5.26395E-06-3.23110E-19-6.83304E-19
 -1      2032 1.07075E-04-3.28813E-05-3.17813E-05-1.33984E-06-9.40703E-20-4.37701E-19
 -1      2033 1.06407E-04-3.27366E-05-3.16030E-05-2.18676E-06-9.84676E-20-4.55231E-19
 -1      2034 1.06511E-04-3.31535E-05-3.14342E-05-2.86123E-06-2.54897E-19-1.04475E-19
 -1      2035 1.06943E-04-3.26404E-05-3.18346E-05 3.34735E-07 2.23044E-19-1.52310E-19
 -1      2036 1.06862E-04-3.27142E-05-3.18056E-05-3.68026E-07 3.63682E-19-1.26161E-19
 -1      2037 1.06588E-04-3.29896E-05-3.15424E-05-5.98206E-07-3.16678E-20-1.09071E-19
 -1      2038 1.06083E-04-3.21608E-05-3.16781E-05 1.46932E-06 4.54243E-19 1.15834E-18
 -1      2039 1.06442E-04-3.23671E-05-3.17680E-05 9.87265E-07 1.19564E-19 8.74442E-19
 -1      2040 1.05929E-04-3.24799E-05-3.14805E-05 1.12345E-06 1.99427E-19 1.51164E-18
 -1      2041 1.04802E-04-3.15905E-05-3.13774E-05 2.08588E-06 2.45112E-19 9.38283E-19
 -1      2042 1.05433E-04-3.18587E-05-3.15456E-05 1.81766E-06 1.09367E-19 7.73243E-19
 -1      2043 1.04817E-04-3.18366E-05-3.12798E-05 2.20502E-06 3.61478E-19 1.80268E-18
 -1      2044 1.03345E-04-3.10217E-05-3.09990E-05 2.29863E-06 2.91709E-20 3.78524E-19
 -1      2045 1.04104E-04-3.13033E-05-3.12069E-05 2.19867E-06 4.61501E-19 1.43691E-18
 -1      2046 1.03489E-04-3.11929E-05-3.09863E-05 2.72537E-06 4.45311E-19 2.00573E-18
 -1      2047 1.01888E-04-3.05035E-05-3.05970E-05 2.23996E-06 4.75168E-19-5.80098E-19
 -1      2048 1.02668E-04-3.07693E-05-3.08145E-05 2.25440E-06 9.86533E-20-7.78642E-20
 -1      2049 1.02119E-04-3.06150E-05-3.06461E-05 2.83120E-06 4.55537E-19 1.98929E-18
 -1      2050 1.00537E-04-3.00567E-05-3.02092E-05 2.02386E-06-1.17009E-20-1.55646E-18
 -1      2051 1.01269E-04-3.02917E-05-3.04161E-05 2.10583E-06 4.45552E-19-8.46227E-19
 -1      2052 1.00817E-04-3.01271E-05-3.02972E-05 2.67071E-06 6.21367E-19 8.26846E-19
 -1      2053 9.93505E-05-2.96860E-05-2.98587E-05 1.73460E-06-1.76682E-19-2.28783E-18
 -1      2054 9.99973E-05-2.98845E-05-3.00435E-05 1.84910E-06-4.21602E-19-2.06866E-18
 -1      2055 9.96487E-05-2.97304E-05-2.99663E-05 2.36446E-06 5.33399E-20-9.77454E-19
 -1      2056 9.83488E-05-2.93875E-05-2.95566E-05 1.42791E-06 5.02410E-19-1.71490E-18
 -1      2057 9.88955E-05-2.95492E-05-2.97140E-05 1.55155E-06 8.91544E-20-2.79495E-18
 -1      2058 9.86421E-05-2.94165E-05-2.96695E-05 1.99859E-06 2.01868E-19-2.01826E-18
 -1      2059 9.75306E-05-2.91531E-05-2.93058E-05 1.13701E-06 8.38205E-19-1.71772E-18
 -1      2060 9.79765E-05-2.92810E-05-2.94350E-05 1.25562E-06 8.14282E-19-1.37101E-18
 -1      2061 9.78035E-05-2.91733E-05-2.94144E-05 1.62859E-06 7.86574E-19-1.59540E-18
 -1      2062 9.68811E-05-2.89732E-05-2.91039E-05 8.79101E-07 1.61804E-18-2.45984E-18
 -1      2063 9.72338E-05-2.90718E-05-2.92068E-05 9.85166E-07 1.03503E-18-2.00057E-18
 -1      2064 9.71245E-05-2.89885E-05-2.92026E-05 1.28648E-06 1.32913E-18-7.54294E-19
 -1      2065 9.63787E-05-2.88385E-05-2.89460E-05 6.60876E-07 3.54840E-20-1.89676E-18
 -1      2066 9.66500E-05-2.89124E-05-2.90256E-05 7.51281E-07 1.13025E-18-2.14062E-18
 -1      2067 9.65885E-05-2.88507E-05-2.90319E-05 9.87912E-07 1.17237E-18 2.42902E-19
 -1      2068 9.59999E-05-2.87399E-05-2.88256E-05 4.82675E-07-2.98809E-18-1.93084E-18
 -1      2069 9.62030E-05-2.87939E-05-2.88856E-05 5.57007E-07-1.43468E-18-2.14030E-18
 -1      2070 9.61756E-05-2.87501E-05-2.88979E-05 7.37970E-07-8.68922E-19 7.24999E-20
 -1      2071 9.57219E-05-2.86698E-05-2.87363E-05 3.41328E-07-2.07738E-19-1.52335E-18
 -1      2072 9.58697E-05-2.87081E-05-2.87802E-05 4.00691E-07-1.57670E-18-2.01850E-18
 -1      2073 9.58651E-05-2.86784E-05-2.87955E-05 5.35451E-07-1.56723E-18-8.75883E-19
 -1      2074 9.55240E-05-2.86217E-05-2.86721E-05 2.32025E-07-1.15439E-18-1.42761E-18
 -1      2075 9.56280E-05-2.86478E-05-2.87032E-05 2.78262E-07-7.77575E-19-1.86561E-18
 -1      2076 9.56377E-05-2.86288E-05-2.87192E-05 3.75784E-07-7.20445E-19-1.77340E-18
 -1      2077 9.53881E-05-2.85901E-05-2.86273E-05 1.49472E-07 1.27855E-19-1.45714E-19
 -1      2078 9.54584E-05-2.86070E-05-2.86486E-05 1.84676E-07-5.46056E-19-4.52032E-19
 -1      2079 9.54760E-05-2.85958E-05-2.86639E-05 2.52939E-07-1.00636E-18-7.60790E-19
 -1      2080 9.52993E-05-2.85707E-05-2.85976E-05 8.85657E-08 1.05773E-18-6.46502E-19
 -1      2081 9.53443E-05-2.85809E-05-2.86113E-05 1.14788E-07 5.40619E-19-3.83073E-19
 -1      2082 9.53653E-05-2.85750E-05-2.86251E-05 1.60589E-07 2.49009E-19 1.41064E-19
 -1      2083 9.52455E-05-2.85602E-05-2.85791E-05 4.47588E-08-3.60164E-19 2.84095E-19
 -1      2084 9.52717E-05-2.85655E-05-2.85872E-05 6.38454E-08 2.56812E-19-2.45727E-19
 -1      2085 9.52930E-05-2.85632E-05-2.85991E-05 9.27942E-08 2.45859E-19 6.77172E-19
 -1      2086 9.52169E-05-2.85560E-05-2.85687E-05 1.42316E-08 9.90820E-19 7.86907E-19
 -1      2087 9.52298E-05-2.85578E-05-2.85729E-05 2.77431E-08 2.07813E-19 8.14548E-19
 -1      2088 9.52492E-05-2.85576E-05-2.85826E-05 4.43535E-08 2.56218E-19 1.60242E-18
 -1      2089 9.52059E-05-2.85560E-05-2.85640E-05-6.04555E-09 9.38235E-19 1.35137E-18
 -1      2090 9.52095E-05-2.85556E-05-2.85654E-05 3.13058E-09 1.48133E-18 1.68879E-18
 -1      2091 9.52260E-05-2.85565E-05-2.85730E-05 1.09705E-08 1.28624E-18 2.40170E-18
 -1      2092 9.52064E-05-2.85589E-05-2.85630E-05-1.81927E-08 6.18299E-20 2.50751E-19
 -1      2093 9.52041E-05-2.85570E-05-2.85627E-05-1.25066E-08-9.87885E-20 6.39969E-19
 -1      2094 9.52169E-05-2.85583E-05-2.85683E-05-1.06386E-08 5.53708E-19 3.61305E-18
 -1      2095 9.52136E-05-2.85635E-05-2.85642E-05-2.35122E-08 1.41910E-18 1.24797E-18
 -1      2096 9.52081E-05-2.85607E-05-2.85630E-05-2.08282E-08 1.08344E-18 6.25637E-19
 -1      2097 9.52171E-05-2.85623E-05-2.85666E-05-2.27076E-08 1.01555E-18 2.33098E-18
 -1      2098 9.52236E-05-2.85692E-05-2.85661E-05-2.22722E-08-4.59629E-19 2.66076E-18
 -1      2099 9.52171E-05-2.85660E-05-2.85647E-05-2.27631E-08 3.08613E-19 2.02409E-18
 -1      2100 9.52226E-05-2.85676E-05-2.85666E-05-2.66629E-08 7.81538E-21 4.53318E-18
 -1      2101 9.52321E-05-2.85744E-05-2.85676E-05-1.66430E-08-1.59587E-18 2.70552E-18
 -1      2102 9.52262E-05-2.85711E-05-2.85664E-05-2.03489E-08-6.42340E-19 2.79722E-18
 -1      2103 9.52292E-05-2.85729E-05-2.85670E-05-2.45161E-08-3.99488E-19 6.00934E-18
 -1      2104 9.52350E-05-2.85783E-05-2.85671E-05-1.94732E-08-1.32495E-18 5.08263E-18
 -1      2105 9.52487E-05-2.85997E-05-2.85639E-05-1.86055E-08-1.20558E-18-1.66006E-20
 -1      2106 9.52468E-05-2.85951E-05-2.85650E-05-2.07784E-08-9.49151E-19-1.71949E-19
 -1      2107 9.52457E-05-2.85937E-05-2.85651E-05-2.30002E-08-2.28824E-19-2.14072E-19
 -1      2108 9.52428E-05-2.85882E-05-2.85662E-05-2.38239E-08-1.06371E-19 9.10344E-19
 -1      2109 9.52446E-05-2.85857E-05-2.85682E-05-2.53595E-08-8.10971E-19-9.33065E-19
 -1      2110 9.52410E-05-2.85868E-05-2.85661E-05-2.37134E-08-4.12540E-19-8.86857E-20
 -1      2111 9.52375E-05-2.85811E-05-2.85671E-05-2.17183E-08-9.58380E-19 2.18882E-18
 -1      2112 9.52353E-05-2.85785E-05-2.85673E-05-2.50584E-08-4.36857E-19 2.64354E-18
 -1      2113 9.52407E-05-2.85828E-05-2.85678E-05-2.78580E-08-2.67290E-19 1.02487E-18
 -1      2114 9.52499E-05-2.86034E-05-2.85628E-05-1.32254E-08-1.05947E-18-1.20206E-18
 -1      2115 9.52489E-05-2.86001E-05-2.85636E-05-1.56582E-08-1.37704E-18 3.68976E-19
 -1      2116 9.52466E-05-2.85876E-05-2.85682E-05-1.96309E-08-1.08301E-18-4.92632E-19
 -1      2117 9.52499E-05-2.86053E-05-2.85620E-05-8.26240E-09-2.87378E-20-5.51161E-19
 -1      2118 9.52495E-05-2.86032E-05-2.85626E-05-1.04265E-08-6.25178E-19-2.15806E-19
 -1      2119 9.52465E-05-2.85877E-05-2.85681E-05-1.33312E-08 3.13239E-20-2.34990E-19
 -1      2120 9.52496E-05-2.86061E-05-2.85615E-05-4.36748E-09 6.01067E-19-1.00032E-18
 -1      2121 9.52495E-05-2.86049E-05-2.85618E-05-6.06961E-09 1.04504E-18-1.61957E-18
 -1      2122 9.52455E-05-2.85868E-05-2.85680E-05-7.96656E-09 8.30828E-19-2.64236E-19
 -1      2123 9.52494E-05-2.86063E-05-2.85613E-05-1.29902E-09 6.47269E-19-2.77787E-19
 -1      2124 9.52493E-05-2.86058E-05-2.85614E-05-2.71506E-09 3.46746E-19-4.06210E-19
 -1      2125 9.52445E-05-2.85860E-05-2.85679E-05-3.92627E-09 1.11908E-18-9.51009E-19
 -1      2126 9.52495E-05-2.86062E-05-2.85613E-05 1.65758E-09 1.47839E-18-1.45716E-18
 -1      2127 9.52494E-05-2.86064E-05-2.85613E-05 1.86205E-10 1.12031E-18 4.89656E-19
 -1      2128 9.52442E-05-2.85858E-05-2.85678E-05-6.99476E-10-3.13229E-19 9.20231E-19
 -1      2129 9.52499E-05-2.86057E-05-2.85617E-05 5.30248E-09-3.94885E-19-2.19241E-18
 -1      2130 9.52499E-05-2.86067E-05-2.85614E-05 3.44538E-09 8.29968E-19-2.10517E-18
 -1      2131 9.52449E-05-2.85865E-05-2.85678E-05 2.67990E-09 3.80524E-19-1.84228E-18
 -1      2132 9.52502E-05-2.86043E-05-2.85623E-05 1.00256E-08-1.06892E-18-2.86675E-18
 -1      2133 9.52505E-05-2.86064E-05-2.85618E-05 7.69498E-09-1.64476E-18-1.41429E-18
 -1      2134 9.52461E-05-2.85877E-05-2.85678E-05 7.09484E-09-4.14135E-19-2.23562E-18
 -1      2135 9.52496E-05-2.86013E-05-2.85634E-05 1.58073E-08-1.48794E-18 5.58116E-19
 -1      2136 9.52505E-05-2.86047E-05-2.85625E-05 1.31106E-08-1.40975E-18-6.78723E-20
 -1      2137 9.52473E-05-2.85888E-05-2.85679E-05 1.29926E-08-1.38986E-18-1.24093E-18
 -1      2138 9.52473E-05-2.85961E-05-2.85647E-05 2.14185E-08-1.42164E-18-1.11067E-18
 -1      2139 9.52493E-05-2.86009E-05-2.85636E-05 1.90653E-08-8.01137E-19-1.64580E-18
 -1      2140 9.52473E-05-2.85888E-05-2.85680E-05 1.99713E-08-1.36811E-18-6.45526E-19
 -1      2141 9.52426E-05-2.85889E-05-2.85660E-05 2.50482E-08-1.71262E-18 1.13587E-18
 -1      2142 9.52462E-05-2.85946E-05-2.85649E-05 2.38410E-08-2.26396E-18 5.53245E-19
 -1      2143 9.52452E-05-2.85866E-05-2.85680E-05 2.62649E-08-1.28092E-18-8.72930E-19
 -1      2144 6.24173E-05-4.00368E-05-9.86193E-06 4.23015E-05 2.70415E-18 2.29821E-18
 -1      2145 4.67602E-05-4.02856E-05-3.68704E-06 3.61381E-05 1.68136E-18 3.24032E-18
 -1      2146 1.21300E-05-3.03125E-05 6.89997E-06 7.01681E-06 1.02459E-18 3.41227E-18
 -1      2147 1.26078E-05-3.31086E-05 7.55410E-06-3.23016E-06 3.77247E-19 3.66681E-18
 -1      2148 2.93778E-05-3.23247E-05 8.28283E-07 3.04053E-05 1.84272E-18 4.11976E-18
 -1      2149 1.98942E-05-3.30581E-05 4.66053E-06 1.96536E-05 9.70064E-19 3.87518E-18
 -1      2150 9.79278E-05-4.10880E-05-2.42683E-05 4.31516E-05 3.48427E-18 2.34798E-18
 -1      2151 7.98813E-05-4.38897E-05-1.63357E-05 3.93019E-05 3.30089E-18 1.69491E-18
 -1      2152 1.34140E-04-4.17096E-05-3.91135E-05 3.50953E-05 3.05355E-18 3.93447E-19
 -1      2153 1.14779E-04-4.31851E-05-3.12561E-05 3.48863E-05 3.15562E-18 1.45520E-18
 -1      2154 8.73613E-05-8.47746E-06-3.39050E-05-9.28445E-06-1.27026E-18-3.39599E-18
 -1      2155 8.82408E-05-9.09472E-06-3.40006E-05-1.08090E-05-1.56690E-18-3.07903E-18
 -1      2156 9.08200E-05-1.28966E-05-3.34441E-05-1.04935E-05-1.75234E-18-2.72554E-18
 -1      2157 8.86101E-05-1.05873E-05-3.34601E-05-8.09871E-06-1.21875E-18-3.30363E-18
 -1      2158 1.75383E-04-2.72565E-05-6.24235E-05 8.55450E-06 5.54510E-18-2.86382E-18
 -1      2159 1.62893E-04-2.71738E-05-5.78708E-05 1.23444E-05 5.36299E-18-1.75505E-18
 -1      2160 1.77261E-04-2.22188E-05-6.57246E-05-8.73363E-07 5.08559E-18-4.13390E-18
 -1      2161 1.76533E-04-2.36225E-05-6.47410E-05 6.55386E-06 5.35791E-18-2.97266E-18
 -1      2162 1.54992E-04-1.58114E-05-5.86965E-05-2.19729E-06 5.57941E-18-2.78843E-18
 -1      2163 1.68216E-04-2.23755E-05-6.20747E-05-6.83784E-06 3.85993E-18-4.64343E-18
 -1      2164 1.76237E-04-2.24780E-05-6.48726E-05-2.29589E-06 4.48207E-18-4.22352E-18
 -1      2165 1.59358E-04-3.23086E-05-5.36902E-05-2.35283E-05 4.59462E-18-6.27313E-18
 -1      2166 1.69823E-04-3.06130E-05-5.89373E-05-1.46124E-05 3.83240E-18-5.16012E-18
 -1      2167 1.32540E-04-3.75935E-05-4.07800E-05-3.31653E-05 4.96510E-18-6.35825E-18
 -1      2168 1.51466E-04-3.69596E-05-4.80958E-05-3.20808E-05 4.85064E-18-6.59542E-18
 -1      2169 1.01820E-04-4.35591E-05-2.56832E-05-3.78852E-05 3.66384E-18-5.44727E-18
 -1      2170 1.21087E-04-4.16701E-05-3.35489E-05-3.98382E-05 4.09244E-18-5.80853E-18
 -1      2171 6.74030E-05-4.37214E-05-1.11845E-05-3.88091E-05 2.87906E-18-4.74773E-18
 -1      2172 8.45934E-05-4.10328E-05-1.87526E-05-4.37048E-05 3.90482E-18-5.40576E-18
 -1      2173 3.42827E-05-3.94495E-05 8.44704E-07-2.98708E-05 1.28283E-18-5.13980E-18
 -1      2174 4.77100E-05-3.74738E-05-4.85074E-06-3.88329E-05 2.42633E-18-4.96234E-18
 -1      2175 1.64754E-05-3.63911E-05 7.00414E-06-1.48955E-05-2.23193E-19-5.79116E-18
 -1      2176 2.29079E-05-3.50727E-05 4.26004E-06-2.35667E-05 1.37262E-18-6.02007E-18
 -1      2177 3.51705E-05-3.22746E-05-1.68896E-06-3.37477E-05-1.72371E-19-5.81658E-18
 -1      2178 1.24475E-05-3.46305E-05 8.12657E-06 6.25043E-06-2.02399E-18-6.15242E-18
 -1      2179 1.15589E-05-3.60071E-05 8.84051E-06-2.92462E-06-3.48660E-19-6.20790E-18
 -1      2180 3.03139E-05-3.44909E-05 1.17134E-06 2.83906E-05-2.02695E-18-4.60129E-18
 -1      2181 2.10924E-05-3.54971E-05 4.96255E-06 1.80912E-05-1.24895E-18-5.07712E-18
 -1      2182 6.23986E-05-4.16265E-05-9.38538E-06 3.94378E-05-3.71551E-18-2.86747E-18
 -1      2183 4.76234E-05-4.23399E-05-3.39531E-06 3.38969E-05-2.33146E-18-3.36992E-18
 -1      2184 9.78609E-05-4.52112E-05-2.26910E-05 4.16131E-05-4.58711E-18-3.00358E-18
 -1      2185 7.77839E-05-4.61738E-05-1.47761E-05 3.72197E-05-4.50367E-18-2.73740E-18
 -1      2186 8.31997E-05-5.03283E-05-1.43212E-05 4.12368E-05-1.17102E-18-1.56405E-18
 -1      2187 1.38246E-04-4.73410E-05-3.86631E-05 3.12587E-05-3.75638E-18-2.54703E-18
 -1      2188 1.17390E-04-4.77567E-05-3.04069E-05 3.27916E-05-4.46513E-18-3.18823E-18
 -1      2189 1.68110E-04-3.82680E-05-5.43005E-05 2.15650E-05-3.93074E-18-1.88634E-18
 -1      2190 1.49702E-04-4.02147E-05-4.68892E-05 2.15174E-05-4.16963E-18-1.74108E-18
 -1      2191 1.82233E-04-3.10685E-05-6.34678E-05 9.57158E-06-5.10337E-18-3.25261E-19
 -1      2192 1.72536E-04-3.27041E-05-5.90649E-05 1.62261E-05-4.38784E-18-1.45266E-18
 -1      2193 1.61943E-04-3.47492E-05-5.35168E-05 2.61566E-06-3.56326E-18 6.77203E-19
 -1      2194 1.82647E-04-2.40735E-05-6.68648E-05-2.95650E-07-5.66157E-18 4.56233E-19
 -1      2195 1.82206E-04-2.56364E-05-6.58402E-05 5.40339E-06-5.50953E-18-5.20925E-19
 -1      2196 1.80357E-04-2.77384E-05-6.43532E-05-7.47175E-06-5.03603E-18 1.42640E-18
 -1      2197 1.81688E-04-2.49365E-05-6.61847E-05-8.60916E-07-5.50063E-18 1.54160E-19
 -1      2198 1.65127E-04-3.35784E-05-5.60331E-05-1.32113E-05-3.83844E-18 2.11292E-18
 -1      2199 1.79378E-04-3.28039E-05-6.14937E-05-1.07375E-05-4.07211E-18 1.52847E-18
 -1      2200 1.61992E-04-2.32131E-05-5.84614E-05 3.68882E-06-3.99630E-18-6.10499E-19
 -1      2201 1.41581E-04-4.25769E-05-4.25373E-05-2.63568E-05-4.18815E-18 2.80961E-18
 -1      2202 1.59412E-04-4.12653E-05-4.99062E-05-2.26584E-05-3.58073E-18 2.69949E-18
 -1      2203 1.06132E-04-4.54888E-05-2.68099E-05-3.53666E-05-3.39872E-18 3.60624E-18
 -1      2204 1.27894E-04-4.49401E-05-3.52114E-05-3.64921E-05-4.20806E-18 3.09379E-18
 -1      2205 7.08172E-05-4.55515E-05-1.20917E-05-3.63132E-05-3.54060E-19 6.10594E-18
 -1      2206 8.95520E-05-4.39884E-05-1.96762E-05-4.14748E-05-1.69322E-18 5.29417E-18
 -1      2207 3.76584E-05-4.10777E-05-3.70376E-08-2.89729E-05 4.52739E-19 4.98098E-18
 -1      2208 5.09073E-05-3.95591E-05-5.68092E-06-3.59335E-05-1.21253E-18 5.96721E-18
 -1      2209 1.64484E-05-3.56083E-05 6.80684E-06-1.23345E-05 1.02131E-18 4.16994E-18
 -1      2210 2.28754E-05-3.41138E-05 3.83353E-06-2.17493E-05-5.12455E-20 5.38289E-18
 -1      2211 1.69367E-05-2.37263E-05 2.37752E-06-1.00852E-05 7.11931E-19 4.06195E-18
 -1      2212 1.58788E-04-3.62952E-05-5.19498E-05 2.13085E-05 4.75037E-18-1.88973E-18
 -1      2213 1.42707E-04-3.75202E-05-4.51320E-05 2.69471E-05 4.26492E-18-1.51619E-19
 -1      2214 1.42633E-04-4.79940E-05-3.99538E-05 1.70757E-05 2.36619E-18-2.30139E-18
 -1      2215 1.19396E-04-5.32519E-05-2.81242E-05 3.34804E-05 1.00543E-18-8.58468E-19
 -1      2216 9.80256E-05-2.45608E-05-3.15516E-05-8.98157E-06-2.09564E-18 3.58626E-19
 -1      2217 1.53800E-04-3.21304E-05-5.14897E-05 3.70476E-06 4.70633E-18-2.68001E-18
 -1      2218 9.72262E-05-2.33072E-05-3.17506E-05-9.08452E-06-2.13590E-18-6.71684E-19
 -1      2219 4.58710E-05-3.49683E-05-4.90096E-06 3.80550E-05-6.11558E-19 2.76874E-18
 -1      2220 1.98467E-05-2.32914E-05 1.21977E-06 1.61845E-05-4.87044E-20 4.21060E-18
 -1      2221 9.52403E-05-2.85840E-05-2.85670E-05 2.58370E-08-1.54598E-18 1.11959E-18
 -1      2222 8.34302E-05-4.84364E-05-1.52078E-05 4.27661E-05 1.46113E-19 1.84653E-19
 -1      2223 3.60878E-05-3.41404E-05-1.41121E-06-3.07184E-05 1.16404E-18 5.02968E-18
 -1      2224 7.34204E-05-4.74267E-05-1.14656E-05-4.10389E-05 1.43149E-18 5.08320E-18
 -1      2225 1.11397E-04-5.53638E-05-2.39694E-05-3.50405E-05 2.32934E-19 2.40473E-18
 -1      2226 1.58900E-04-3.95427E-05-5.04087E-05-3.97743E-06-2.81448E-18-8.21198E-19
 -1      2227 1.64934E-04-2.13013E-05-6.04103E-05-1.16682E-06-5.05763E-18 1.03253E-18
 -1      2228 1.19161E-04-5.66818E-05-2.65344E-05 3.27585E-05-2.00408E-18-8.42163E-19
 -1      2229 4.75519E-05-3.72849E-05-4.75592E-06 3.64316E-05 5.48877E-19-3.13381E-18
 -1      2230 1.61997E-05-2.64015E-05 3.61717E-06-1.20878E-05-3.74706E-19-6.74958E-18
 -1      2231 6.82650E-05-4.45901E-05-1.04026E-05-4.27554E-05 5.46760E-19-4.39769E-18
 -1      2232 1.06799E-04-5.29009E-05-2.31264E-05-3.88715E-05 1.30189E-18-3.78264E-18
 -1      2233 1.35154E-04-4.97487E-05-3.62120E-05-2.55728E-05 2.53983E-18-4.00858E-18
 -1      2234 1.53035E-04-3.79444E-05-4.83978E-05-1.28804E-05 3.71247E-18-4.02679E-18
 -1      2235 1.54597E-04-1.18581E-05-6.03927E-05 5.65513E-07 4.91449E-18-3.68941E-18
 -1      2236 1.56777E-04-2.20542E-05-5.69624E-05-1.34854E-06 3.70111E-18-3.16536E-18
 -1      2237 1.97996E-05-2.61862E-05 2.23441E-06 1.62210E-05-7.15743E-20-5.67173E-18
 -1      2238 1.48321E-04-5.11224E-05-4.13862E-05 1.47257E-05-2.82422E-18 3.69306E-19
 -1      2239 1.63179E-04-1.60656E-05-6.20524E-05 1.07134E-06-5.73738E-18-3.96782E-20
 -1      2240 1.41580E-04-5.26193E-05-3.76448E-05-2.06065E-05-1.70931E-18 2.07947E-19
 -1      2241 9.64919E-05-2.66068E-05-2.99307E-05 2.81762E-06 1.71237E-18 1.62644E-18
 -1      2242 9.72277E-05-2.60589E-05-3.04272E-05 4.71911E-06 1.90226E-18 1.91965E-18
 -1      2243 8.69536E-05-9.85947E-06-3.30801E-05-2.90073E-06-6.27416E-22-3.26823E-18
 -1      2244 8.73557E-05-1.02289E-05-3.30872E-05-3.85158E-06-2.95087E-19-3.34061E-18
 -1      2245 8.79243E-05-1.08754E-05-3.30681E-05-4.67072E-06-5.50556E-19-3.23646E-18
 -1      2246 8.85619E-05-1.14904E-05-3.30703E-05-5.69982E-06-8.86812E-19-3.20041E-18
 -1      2247 8.88085E-05-1.24393E-05-3.27241E-05-3.75239E-06-4.28011E-19-2.99594E-18
 -1      2248 8.63694E-05-9.25479E-06-3.30804E-05 4.32436E-07 9.09999E-19-2.96825E-18
 -1      2249 8.63512E-05-9.23696E-06-3.30813E-05-4.57944E-07 6.72033E-19-3.06851E-18
 -1      2250 8.67236E-05-9.60769E-06-3.30801E-05 2.11860E-06 1.31190E-18-2.92087E-18
 -1      2251 8.65034E-05-9.40698E-06-3.30769E-05 1.20210E-06 1.05199E-18-2.92450E-18
 -1      2252 8.75080E-05-1.10584E-05-3.27621E-05 7.00114E-07 9.37845E-19-2.81053E-18
 -1      2253 8.74885E-05-1.03904E-05-3.30748E-05 3.86902E-06 1.71403E-18-2.64090E-18
 -1      2254 8.70734E-05-1.00037E-05-3.30705E-05 2.90987E-06 1.47566E-18-2.82358E-18
 -1      2255 8.80140E-05-1.16013E-05-3.27457E-05 2.19445E-06 1.32495E-18-2.67817E-18
 -1      2256 8.87142E-05-1.16912E-05-3.30505E-05 5.77581E-06 2.14661E-18-2.13575E-18
 -1      2257 8.80720E-05-1.10633E-05-3.30515E-05 4.72075E-06 1.91497E-18-2.45497E-18
 -1      2258 8.89751E-05-1.26519E-05-3.27059E-05 3.76217E-06 1.75319E-18-2.35657E-18
 -1      2259 9.04690E-05-1.36542E-05-3.29797E-05 7.77396E-06 2.48504E-18-1.44546E-18
 -1      2260 8.95555E-05-1.26916E-05-3.29985E-05 6.65193E-06 2.25827E-18-1.80454E-18
 -1      2261 9.04209E-05-1.42913E-05-3.26183E-05 5.39436E-06 2.09492E-18-1.80329E-18
 -1      2262 9.29052E-05-1.65646E-05-3.28131E-05 9.64970E-06 2.73283E-18-5.43716E-19
 -1      2263 9.16266E-05-1.50837E-05-3.28679E-05 8.56599E-06 2.55209E-18-1.08701E-18
 -1      2264 9.23765E-05-1.66461E-05-3.24349E-05 6.92995E-06 2.39596E-18-1.10826E-18
 -1      2265 1.27632E-04-5.66868E-05-3.07084E-05 2.60275E-05 2.96356E-19-1.47850E-18
 -1      2266 1.13794E-04-5.60543E-05-2.46989E-05 3.29704E-05-8.83032E-20-1.10104E-18
 -1      2267 9.59816E-05-2.74150E-05-2.93610E-05 1.00912E-07 1.38982E-18 1.22979E-18
 -1      2268 9.62837E-05-2.71341E-05-2.95635E-05 1.21372E-06 1.54407E-18 1.49865E-18
 -1      2269 9.64917E-05-2.59477E-05-3.02459E-05 2.64724E-06 1.82570E-18 5.29637E-19
 -1      2270 9.69126E-05-2.51248E-05-3.07188E-05-4.53847E-06-1.60204E-18-1.06591E-18
 -1      2271 9.64779E-05-2.58738E-05-3.02629E-05-2.44938E-06-1.34097E-18-1.06534E-18
 -1      2272 1.45907E-04-2.75483E-05-5.12927E-05-5.37678E-06 4.55259E-18-3.41121E-18
 -1      2273 1.45108E-04-3.78884E-05-4.61522E-05-6.17633E-07 3.60434E-18-3.21153E-18
 -1      2274 9.64852E-05-2.65220E-05-2.99281E-05-8.68426E-07-1.18175E-18-1.00423E-18
 -1      2275 9.63094E-05-2.69038E-05-2.97329E-05 4.44159E-07-1.09377E-18-1.10368E-18
 -1      2276 9.63011E-05-2.51422E-05-3.05074E-05-2.09935E-06-1.36157E-18-1.47692E-18
 -1      2277 9.62773E-05-2.72004E-05-2.95674E-05 1.62073E-06-1.06907E-18-1.01130E-18
 -1      2278 9.63961E-05-2.74472E-05-2.95325E-05 2.55420E-06-9.71072E-19-1.12578E-18
 -1      2279 9.62766E-05-2.63523E-05-2.99843E-05 8.75730E-07-1.09089E-18-1.42550E-18
 -1      2280 9.64539E-05-2.76042E-05-2.94859E-05 3.47591E-06-7.88771E-19-1.06670E-18
 -1      2281 9.68309E-05-2.78103E-05-2.95608E-05 4.22119E-06-5.89911E-19-1.07564E-18
 -1      2282 9.63370E-05-2.69757E-05-2.97428E-05 3.13153E-06-8.72850E-19-1.29975E-18
 -1      2283 9.70028E-05-2.79135E-05-2.95985E-05 5.00808E-06-5.77758E-19-1.01506E-18
 -1      2284 9.76007E-05-2.81265E-05-2.97536E-05 5.66670E-06-4.57662E-19-1.08756E-18
 -1      2285 9.65936E-05-2.73259E-05-2.97001E-05 4.96387E-06-7.24726E-19-1.18770E-18
 -1      2286 9.78882E-05-2.82257E-05-2.98500E-05 6.39180E-06-5.48574E-19-1.11267E-18
 -1      2287 9.86850E-05-2.84842E-05-3.00647E-05 7.00908E-06-5.76867E-19-1.29077E-18
 -1      2288 9.70718E-05-2.75748E-05-2.97958E-05 6.57561E-06-5.76719E-19-1.09095E-18
 -1      2289 9.90976E-05-2.86290E-05-3.01981E-05 7.70265E-06-4.75018E-19-1.41474E-18
 -1      2290 1.00087E-04-2.89823E-05-3.04541E-05 8.27384E-06-5.57238E-19-1.39935E-18
 -1      2291 9.77841E-05-2.78512E-05-2.99812E-05 8.07856E-06-5.99740E-19-1.46685E-18
 -1      2292 1.00661E-04-2.92436E-05-3.06039E-05 8.91896E-06-8.49839E-19-1.12046E-18
 -1      2293 1.01851E-04-2.97647E-05-3.08809E-05 9.38035E-06-8.52612E-19-1.07275E-18
 -1      2294 9.87766E-05-2.83071E-05-3.02124E-05 9.49377E-06-5.84193E-19-1.19819E-18
 -1      2295 1.02669E-04-3.02523E-05-3.10270E-05 9.89830E-06-5.29418E-19-7.90054E-19
 -1      2296 1.04082E-04-3.10444E-05-3.13011E-05 1.01092E-05-9.57606E-20-6.50884E-19
 -1      2297 1.00167E-04-2.91632E-05-3.04470E-05 1.07360E-05-6.57393E-19-7.81657E-19
 -1      2298 1.05294E-04-3.19139E-05-3.14282E-05 1.03339E-05 5.72665E-20-3.73489E-19
 -1      2299 1.06955E-04-3.30946E-05-3.16748E-05 1.00599E-05 9.02553E-20-2.10939E-19
 -1      2300 1.02184E-04-3.07380E-05-3.06498E-05 1.15783E-05 1.43770E-19-7.63585E-20
 -1      2301 1.08779E-04-3.45167E-05-3.17866E-05 9.70454E-06 1.10553E-19-1.58400E-19
 -1      2302 1.10671E-04-3.61440E-05-3.19933E-05 8.62775E-06 5.50899E-19 8.42930E-20
 -1      2303 1.05196E-04-3.34220E-05-3.08130E-05 1.15975E-05 1.64141E-19 2.94466E-19
 -1      2304 1.13320E-04-3.81794E-05-3.21411E-05 7.25260E-06 9.25711E-19-9.02421E-20
 -1      2305 1.15269E-04-4.00382E-05-3.23328E-05 5.05790E-06 8.56456E-19 2.05819E-19
 -1      2306 1.09656E-04-3.75101E-05-3.10025E-05 1.01059E-05 7.39084E-19 4.81505E-19
 -1      2307 1.18644E-04-4.22852E-05-3.26565E-05 2.19453E-06 6.44576E-19 3.58311E-19
 -1      2308 1.20181E-04-4.36181E-05-3.29282E-05-1.11008E-06 5.30620E-19 4.27027E-19
 -1      2309 1.15740E-04-4.26068E-05-3.14390E-05 6.15008E-06 8.55318E-19 1.44781E-19
 -1      2310 1.23413E-04-4.48343E-05-3.36692E-05-5.50085E-06 1.53839E-19 7.68391E-19
 -1      2311 1.23736E-04-4.41658E-05-3.41674E-05-9.03573E-06-5.95683E-19 1.03255E-18
 -1      2312 1.22501E-04-4.68363E-05-3.25760E-05-1.15678E-06 4.71399E-19 5.68756E-19
 -1      2313 1.25306E-04-4.26668E-05-3.55750E-05-1.36734E-05-1.16578E-18 1.35777E-18
 -1      2314 1.23499E-04-3.86113E-05-3.64241E-05-1.55570E-05-1.60367E-18 1.22897E-18
 -1      2315 1.27816E-04-4.64159E-05-3.50820E-05-1.09806E-05-6.97399E-19 1.59830E-18
 -1      2316 1.21936E-04-3.34766E-05-3.82710E-05-1.65639E-05-2.00307E-18 8.72881E-19
 -1      2317 1.18976E-04-2.78414E-05-3.91567E-05-1.42524E-05-2.28747E-18 6.33607E-19
 -1      2318 1.27851E-04-3.82587E-05-3.84834E-05-1.70448E-05-2.02294E-18 1.53414E-18
 -1      2319 1.16728E-04-2.29333E-05-4.05231E-05-8.83013E-06-2.61516E-18-1.21678E-19
 -1      2320 1.15304E-04-2.04966E-05-4.08859E-05-2.65975E-06-2.60087E-18-1.21957E-18
 -1      2321 1.23108E-04-2.41079E-05-4.27217E-05-1.25212E-05-3.10618E-18 5.45648E-19
 -1      2322 1.15766E-04-2.11426E-05-4.07283E-05 5.81822E-06-1.92398E-18-2.18482E-18
 -1      2323 1.17570E-04-2.45607E-05-4.02437E-05 1.14859E-05-1.64536E-18-2.56387E-18
 -1      2324 1.20538E-04-1.79311E-05-4.43366E-05 1.94428E-06-2.87557E-18-8.21615E-19
 -1      2325 1.20150E-04-2.99941E-05-3.87001E-05 1.57402E-05-1.02232E-18-2.73825E-18
 -1      2326 1.23053E-04-3.56646E-05-3.77882E-05 1.71069E-05 3.32460E-20-2.65410E-18
 -1      2327 1.24168E-04-2.63565E-05-4.21700E-05 1.50716E-05-1.56818E-18-2.05395E-18
 -1      2328 1.24115E-04-4.02771E-05-3.59768E-05 1.51899E-05 9.29010E-19-2.60355E-18
 -1      2329 1.25538E-04-4.36456E-05-3.52189E-05 1.27020E-05 1.42550E-18-1.89156E-18
 -1      2330 1.28327E-04-3.98270E-05-3.80293E-05 1.66727E-05 5.46336E-19-1.74539E-18
 -1      2331 1.23566E-04-4.45312E-05-3.39758E-05 8.06411E-06 1.23424E-18-1.45801E-18
 -1      2332 1.23077E-04-4.47467E-05-3.35457E-05 4.35367E-06 1.19843E-18-9.90684E-19
 -1      2333 1.27284E-04-4.70158E-05-3.44633E-05 8.95361E-06 1.73934E-18-1.86783E-18
 -1      2334 1.19664E-04-4.31082E-05-3.29227E-05 2.55462E-07 8.62941E-19-6.42567E-19
 -1      2335 1.18066E-04-4.16008E-05-3.26994E-05-2.84363E-06 9.54798E-19-3.55013E-19
 -1      2336 1.21602E-04-4.62581E-05-3.23764E-05-1.16104E-07 1.41424E-18-1.13045E-18
 -1      2337 1.14822E-04-3.93097E-05-3.24454E-05-5.33366E-06 4.41284E-19-4.91585E-19
 -1      2338 1.12932E-04-3.74676E-05-3.22810E-05-7.24334E-06 4.80162E-19-2.44103E-19
 -1      2339 1.14779E-04-4.15884E-05-3.14617E-05-6.50798E-06 6.31777E-19-3.14985E-19
 -1      2340 1.10497E-04-3.55477E-05-3.21667E-05-8.31786E-06 4.64171E-19-1.89491E-20
 -1      2341 1.08736E-04-3.40268E-05-3.19804E-05-9.15650E-06 1.10042E-18-3.79151E-19
 -1      2342 1.09064E-04-3.65836E-05-3.11368E-05-9.77999E-06 5.01506E-19 8.47174E-19
 -1      2343 1.07093E-04-3.27317E-05-3.18852E-05-9.31005E-06 1.61341E-18-1.06935E-18
 -1      2344 1.05585E-04-3.16657E-05-3.16603E-05-9.40999E-06 1.63063E-18-3.78974E-19
 -1      2345 1.05008E-04-3.27924E-05-3.09956E-05-1.07883E-05 8.93319E-19 6.33730E-19
 -1      2346 1.04508E-04-3.09004E-05-3.15430E-05-9.05491E-06 1.45299E-18-9.83378E-19
 -1      2347 1.03250E-04-3.02119E-05-3.12939E-05-8.73058E-06 1.35420E-18-7.41980E-19
 -1      2348 1.02314E-04-3.03830E-05-3.08527E-05-1.04477E-05 1.01037E-18-4.90848E-19
 -1      2349 1.02527E-04-2.98042E-05-3.11531E-05-8.14052E-06 9.06479E-19-1.57188E-18
 -1      2350 1.01485E-04-2.93765E-05-3.09012E-05-7.62015E-06 7.25570E-20-1.56926E-18
 -1      2351 1.00530E-04-2.90300E-05-3.06559E-05-9.41124E-06 5.27261E-19-8.29190E-19
 -1      2352 1.00971E-04-2.91811E-05-3.07486E-05-6.95916E-06-4.04028E-20-1.95846E-18
 -1      2353 1.00112E-04-2.89186E-05-3.05117E-05-6.38522E-06 1.23879E-19-1.75484E-18
 -1      2354 9.93017E-05-2.83559E-05-3.04125E-05-8.09160E-06-1.66361E-19-2.14320E-18
 -1      2355 9.97240E-05-2.88385E-05-3.03600E-05-5.74368E-06-1.15633E-19-1.04243E-18
 -1      2356 9.90215E-05-2.86766E-05-3.01488E-05-5.19465E-06 1.21268E-19-6.15510E-19
 -1      2357 9.84054E-05-2.80728E-05-3.01472E-05-6.73050E-06 3.90352E-19-1.50553E-18
 -1      2358 9.87149E-05-2.86543E-05-3.00076E-05-4.61692E-06 2.17608E-19-8.56620E-19
 -1      2359 9.81467E-05-2.85533E-05-2.98267E-05-4.12972E-06-4.69375E-19 1.43267E-19
 -1      2360 9.77155E-05-2.79958E-05-2.98838E-05-5.45808E-06 3.10687E-19-1.56485E-18
 -1      2361 9.78986E-05-2.85574E-05-2.97013E-05-3.63297E-06-1.09727E-18 2.82404E-19
 -1      2362 9.74450E-05-2.84938E-05-2.95511E-05-3.22013E-06-5.63533E-19-3.20960E-19
 -1      2363 9.71662E-05-2.80175E-05-2.96388E-05-4.33503E-06-5.17105E-19-1.12560E-19
 -1      2364 9.72433E-05-2.85085E-05-2.94439E-05-2.80636E-06-8.60719E-20-7.34234E-19
 -1      2365 9.68863E-05-2.84685E-05-2.93223E-05-2.46730E-06 2.45218E-20-7.07993E-19
 -1      2366 9.67223E-05-2.80801E-05-2.94216E-05-3.38089E-06-8.52184E-19 6.03299E-20
 -1      2367 9.67234E-05-2.84861E-05-2.92331E-05-2.13072E-06-1.08592E-19 1.92581E-19
 -1      2368 9.64468E-05-2.84614E-05-2.91367E-05-1.85860E-06 1.90309E-19-3.48023E-19
 -1      2369 9.63637E-05-2.81544E-05-2.92359E-05-2.59233E-06 1.02904E-19 5.60788E-19
 -1      2370 9.63168E-05-2.84787E-05-2.90643E-05-1.58996E-06 5.85073E-20-5.62618E-19
 -1      2371 9.61060E-05-2.84642E-05-2.89893E-05-1.37555E-06-7.96111E-19-8.77634E-20
 -1      2372 9.60767E-05-2.82268E-05-2.90816E-05-1.95447E-06-1.89890E-19 8.69249E-19
 -1      2373 9.60041E-05-2.84798E-05-2.89317E-05-1.16461E-06-6.78526E-19-2.58198E-19
 -1      2374 9.58462E-05-2.84722E-05-2.88744E-05-9.98337E-07-1.14410E-18-2.10462E-19
 -1      2375 9.58502E-05-2.82918E-05-2.89563E-05-1.44763E-06-5.61099E-19-1.35098E-19
 -1      2376 9.57677E-05-2.84857E-05-2.88294E-05-8.35165E-07-1.05367E-18 1.58404E-20
 -1      2377 9.56517E-05-2.84827E-05-2.87865E-05-7.08105E-07-1.55129E-19 3.83808E-19
 -1      2378 9.56745E-05-2.83477E-05-2.88567E-05-1.05124E-06-8.06572E-19-1.64419E-19
 -1      2379 9.55925E-05-2.84943E-05-2.87520E-05-5.83703E-07 5.43150E-19 4.20472E-19
 -1      2380 9.55093E-05-2.84944E-05-2.87204E-05-4.88009E-07 1.74122E-19 1.22181E-18
 -1      2381 9.55409E-05-2.83947E-05-2.87789E-05-7.45778E-07-1.59238E-20 5.77210E-19
 -1      2382 9.54656E-05-2.85041E-05-2.86945E-05-3.94556E-07-6.62837E-19 8.31174E-19
 -1      2383 9.54075E-05-2.85061E-05-2.86718E-05-3.23571E-07-3.67501E-19 8.00476E-19
 -1      2384 9.54415E-05-2.84335E-05-2.87193E-05-5.13824E-07-6.31390E-19 1.80719E-18
 -1      2385 9.53761E-05-2.85143E-05-2.86526E-05-2.54471E-07-7.99943E-20 1.48708E-18
 -1      2386 9.53370E-05-2.85175E-05-2.86367E-05-2.02697E-07 1.01699E-18 1.03975E-18
 -1      2387 9.53693E-05-2.84652E-05-2.86745E-05-3.40347E-07 5.66693E-19 1.85799E-18
 -1      2388 9.53152E-05-2.85243E-05-2.86229E-05-1.52525E-07 1.93808E-18 1.60089E-18
 -1      2389 9.52902E-05-2.85282E-05-2.86121E-05-1.15528E-07 2.25294E-18 2.62422E-18
 -1      2390 9.53184E-05-2.84909E-05-2.86414E-05-2.12761E-07 1.40672E-18 1.92603E-18
 -1      2391 9.52756E-05-2.85339E-05-2.86023E-05-7.99311E-08 2.30511E-18 2.68929E-18
 -1      2392 9.52609E-05-2.85381E-05-2.85953E-05-5.42320E-08 2.43062E-18 2.19604E-18
 -1      2393 9.52839E-05-2.85118E-05-2.86174E-05-1.20793E-07 2.02982E-18 2.70793E-18
 -1      2394 9.52516E-05-2.85430E-05-2.85885E-05-2.98121E-08 1.99415E-18 1.83871E-18
 -1      2395 9.52441E-05-2.85474E-05-2.85842E-05-1.27744E-08 1.27122E-18 2.13329E-18
 -1      2396 9.52615E-05-2.85288E-05-2.86003E-05-5.62748E-08 1.89342E-18 1.97740E-18
 -1      2397 9.52388E-05-2.85518E-05-2.85796E-05 3.00618E-09 8.27513E-19 2.02650E-18
 -1      2398 9.52362E-05-2.85564E-05-2.85770E-05 1.32352E-08-6.33460E-19 1.67873E-18
 -1      2399 9.52482E-05-2.85431E-05-2.85883E-05-1.29061E-08 6.02736E-19 9.35216E-19
 -1      2400 9.52338E-05-2.85607E-05-2.85738E-05 2.22320E-08-1.58115E-18 2.61539E-18
 -1      2401 9.52342E-05-2.85653E-05-2.85724E-05 2.67493E-08-7.52736E-19 2.65411E-18
 -1      2402 9.52413E-05-2.85556E-05-2.85799E-05 1.39197E-08-9.32491E-19 8.08233E-20
 -1      2403 9.64037E-05-2.83023E-05-2.91708E-05-2.86705E-06 5.84104E-19 5.21294E-19
 -1      2404 9.60386E-05-2.80726E-05-2.91017E-05-2.38441E-06 8.22249E-19 8.88783E-19
 -1      2405 9.72267E-05-2.87406E-05-2.93398E-05-3.71009E-06 5.66162E-19-2.33497E-20
 -1      2406 9.66571E-05-2.84784E-05-2.92036E-05-3.37545E-06 4.94592E-19 2.86413E-19
 -1      2407 9.66785E-05-2.81775E-05-2.93741E-05-3.49046E-06 8.32266E-19-7.16024E-20
 -1      2408 9.83487E-05-2.92575E-05-2.96041E-05-4.26829E-06 6.88329E-19 1.26995E-19
 -1      2409 9.76337E-05-2.89489E-05-2.94265E-05-4.05933E-06 6.01708E-19 4.26867E-20
 -1      2410 9.73664E-05-2.86579E-05-2.94604E-05-4.44398E-06 5.83268E-19-3.66513E-19
 -1      2411 9.96978E-05-2.98871E-05-2.99195E-05-4.53140E-06 4.47910E-19 3.84208E-19
 -1      2412 9.88902E-05-2.95225E-05-2.97225E-05-4.46483E-06 5.81421E-19 4.18282E-19
 -1      2413 9.83383E-05-2.92248E-05-2.96318E-05-5.06298E-06 5.12625E-19 2.12949E-20
 -1      2414 1.01201E-04-3.06531E-05-3.02450E-05-4.41913E-06-7.36625E-20 8.38632E-19
 -1      2415 1.00359E-04-3.02296E-05-3.00508E-05-4.54238E-06 3.60780E-19 6.98105E-19
 -1      2416 9.95675E-05-2.99456E-05-2.98482E-05-5.32235E-06 2.34609E-19 3.68804E-19
 -1      2417 1.02767E-04-3.15565E-05-3.05410E-05-3.79814E-06 4.55975E-20 8.47721E-19
 -1      2418 1.01966E-04-3.10868E-05-3.03731E-05-4.17913E-06-1.83093E-19 6.92191E-19
 -1      2419 1.01029E-04-3.08718E-05-3.00763E-05-5.12115E-06-5.08369E-20 5.12321E-19
 -1      2420 1.04262E-04-3.25453E-05-3.07711E-05-2.51676E-06 3.97586E-19 6.68665E-19
 -1      2421 1.03604E-04-3.20744E-05-3.06530E-05-3.22231E-06 3.74604E-19 9.42059E-19
 -1      2422 1.02679E-04-3.20167E-05-3.02911E-05-4.30221E-06 2.87267E-19 4.88792E-19
 -1      2423 1.05488E-04-3.34694E-05-3.09105E-05-4.76774E-07 3.85873E-19 3.82370E-19
 -1      2424 1.05104E-04-3.30949E-05-3.08610E-05-1.53112E-06 4.16479E-19 5.96434E-19
 -1      2425 1.04421E-04-3.33077E-05-3.04803E-05-2.69491E-06 4.10766E-19 4.09280E-19
 -1      2426 1.06165E-04-3.40396E-05-3.09563E-05 2.24363E-06-3.53229E-19 6.95009E-19
 -1      2427 1.06203E-04-3.39231E-05-3.09827E-05 9.22418E-07 9.41927E-20 5.73373E-19
 -1      2428 1.06049E-04-3.45161E-05-3.06515E-05-2.04788E-07 9.43813E-20 4.60510E-19
 -1      2429 1.05961E-04-3.38459E-05-3.09357E-05 5.23004E-06-3.89662E-19 7.19015E-19
 -1      2430 1.06541E-04-3.41833E-05-3.10269E-05 3.89848E-06-3.46470E-19 8.16522E-19
 -1      2431 1.07202E-04-3.52056E-05-3.08364E-05 3.03163E-06-4.18613E-19 2.38338E-19
 -1      2432 1.04643E-04-3.25272E-05-3.09014E-05 7.62743E-06 1.32771E-19 3.64390E-19
 -1      2433 1.05764E-04-3.34377E-05-3.10269E-05 6.73136E-06-2.59571E-19 6.67169E-19
 -1      2434 1.07398E-04-3.47933E-05-3.10819E-05 6.44690E-06-1.90103E-19 2.24234E-19
 -1      2435 1.02339E-04-3.01223E-05-3.09055E-05 8.28383E-06 1.09133E-18 4.27017E-19
 -1      2436 1.03773E-04-3.14720E-05-3.10253E-05 8.33222E-06 5.76054E-19 5.09600E-19
 -1      2437 1.06259E-04-3.28535E-05-3.14216E-05 8.93246E-06 2.22622E-19-4.43592E-20
 -1      2438 9.97895E-05-2.73895E-05-3.09660E-05 6.32536E-06 1.03159E-18 6.64183E-19
 -1      2439 1.01066E-04-2.87004E-05-3.10456E-05 7.58582E-06 1.29861E-18 8.71915E-19
 -1      2440 1.03945E-04-2.96396E-05-3.18304E-05 9.09549E-06 8.38329E-19 3.06127E-19
 -1      2441 9.81910E-05-2.56548E-05-3.10436E-05 1.92792E-06 5.19152E-19 7.80187E-19
 -1      2442 9.87666E-05-2.62712E-05-3.10722E-05 4.12392E-06 7.54700E-19 8.60721E-19
 -1      2443 1.01441E-04-2.63726E-05-3.22029E-05 6.08318E-06 6.90070E-19 6.09400E-19
 -1      2444 9.85040E-05-2.59452E-05-3.10862E-05-3.31081E-06 5.58506E-19 7.19525E-19
 -1      2445 9.81041E-05-2.55348E-05-3.10569E-05-1.01301E-06 4.31054E-19 4.90519E-19
 -1      2446 1.00215E-04-2.47806E-05-3.23758E-05 5.22696E-07 3.35567E-19 4.27314E-19
 -1      2447 1.00606E-04-2.80900E-05-3.11036E-05-7.30631E-06 5.87788E-19 4.32880E-19
 -1      2448 9.94027E-05-2.68787E-05-3.10152E-05-5.77999E-06 7.69212E-19 9.27882E-19
 -1      2449 1.01075E-04-2.58286E-05-3.22809E-05-5.30518E-06 5.69355E-19 8.45589E-19
 -1      2450 1.03437E-04-3.09123E-05-3.11171E-05-8.73011E-06 1.13662E-18-1.80908E-19
 -1      2451 1.01933E-04-2.95162E-05-3.09838E-05-8.38791E-06 8.50380E-19 1.24312E-19
 -1      2452 1.03475E-04-2.88471E-05-3.19773E-05-9.04622E-06 1.21492E-18 8.97439E-20
 -1      2453 1.05774E-04-3.31400E-05-3.11551E-05-7.65189E-06 3.09796E-19-2.02472E-19
 -1      2454 1.04476E-04-3.21004E-05-3.10043E-05-8.32315E-06 9.58541E-19 7.70701E-20
 -1      2455 1.06023E-04-3.22081E-05-3.15985E-05-9.62614E-06 9.57100E-19-2.63187E-19
 -1      2456 1.06970E-04-3.41882E-05-3.12052E-05-5.08425E-06-4.46032E-19-5.55692E-19
 -1      2457 1.06167E-04-3.37091E-05-3.10766E-05-6.29116E-06-1.37901E-19-5.11787E-19
 -1      2458 1.07558E-04-3.45023E-05-3.12748E-05-7.63177E-06 2.13479E-19-5.20022E-19
 -1      2459 1.07015E-04-3.41597E-05-3.12260E-05-2.16669E-06 6.33223E-20-3.69353E-19
 -1      2460 1.06753E-04-3.41623E-05-3.11533E-05-3.44134E-06-6.95957E-19-4.43768E-19
 -1      2461 1.07748E-04-3.52540E-05-3.10489E-05-4.41620E-06-3.74964E-19-1.00233E-18
 -1      2462 1.06235E-04-3.34725E-05-3.11808E-05 3.31688E-07-6.60153E-19-1.20433E-19
 -1      2463 1.06413E-04-3.37669E-05-3.11793E-05-7.18528E-07 2.08092E-19-1.62205E-19
 -1      2464 1.06889E-04-3.47852E-05-3.08961E-05-1.18740E-06-2.05626E-19-8.82687E-19
 -1      2465 1.05002E-04-3.25315E-05-3.10540E-05 2.09004E-06-7.53677E-20 7.32555E-19
 -1      2466 1.05473E-04-3.29448E-05-3.11204E-05 1.37366E-06-6.32894E-19 4.00380E-19
 -1      2467 1.05466E-04-3.36795E-05-3.07688E-05 1.37126E-06-6.94952E-19-9.45471E-19
 -1      2468 1.03598E-04-3.15982E-05-3.08522E-05 3.10040E-06 1.21529E-19 1.29933E-18
 -1      2469 1.04227E-04-3.20191E-05-3.09710E-05 2.70610E-06 2.34112E-19 1.26149E-18
 -1      2470 1.03873E-04-3.24231E-05-3.06280E-05 3.05316E-06-3.96928E-19-2.90949E-19
 -1      2471 1.02199E-04-3.07953E-05-3.05973E-05 3.50536E-06-7.27294E-20 2.44811E-18
 -1      2472 1.02884E-04-3.11692E-05-3.07481E-05 3.36527E-06 1.58147E-19 1.88443E-18
 -1      2473 1.02340E-04-3.12925E-05-3.04563E-05 3.93295E-06-3.23770E-19 8.26518E-19
 -1      2474 1.00901E-04-3.01572E-05-3.03153E-05 3.48678E-06 5.14973E-19 2.10397E-18
 -1      2475 1.01574E-04-3.04654E-05-3.04792E-05 3.52065E-06 4.90990E-19 2.74983E-18
 -1      2476 1.00971E-04-3.03929E-05-3.02546E-05 4.19821E-06 9.48933E-20 1.88385E-18
 -1      2477 9.97513E-05-2.96736E-05-3.00303E-05 3.20912E-06 1.25588E-18 9.32418E-19
 -1      2478 1.00370E-04-2.99164E-05-3.01922E-05 3.34642E-06 1.04522E-18 2.20534E-18
 -1      2479 9.97961E-05-2.97303E-05-3.00344E-05 4.05054E-06 1.10562E-18 1.62947E-18
 -1      2480 9.87653E-05-2.93182E-05-2.97604E-05 2.79899E-06 1.59526E-19 7.01378E-20
 -1      2481 9.93081E-05-2.95039E-05-2.99102E-05 2.98648E-06 1.01699E-18 8.41700E-19
 -1      2482 9.88123E-05-2.92680E-05-2.98103E-05 3.66079E-06 1.06872E-18 1.98273E-18
 -1      2483 9.79416E-05-2.90629E-05-2.95171E-05 2.34394E-06 2.48605E-20 2.35336E-19
 -1      2484 9.84008E-05-2.92016E-05-2.96491E-05 2.54549E-06-1.44519E-19 3.02734E-19
 -1      2485 9.80018E-05-2.89587E-05-2.95949E-05 3.15619E-06 2.68824E-19 1.32473E-18
 -1      2486 9.72689E-05-2.88827E-05-2.93062E-05 1.89892E-06 8.41978E-19 8.60384E-19
 -1      2487 9.76459E-05-2.89843E-05-2.94183E-05 2.09237E-06 5.83784E-19 4.76249E-19
 -1      2488 9.73432E-05-2.87595E-05-2.93975E-05 2.62279E-06 4.55681E-19 2.04526E-18
 -1      2489 9.67310E-05-2.87579E-05-2.91295E-05 1.49473E-06 1.46913E-18 1.69526E-18
 -1      2490 9.70325E-05-2.88308E-05-2.92215E-05 1.66811E-06 1.12168E-18 1.13658E-18
 -1      2491 9.68155E-05-2.86365E-05-2.92235E-05 2.11359E-06 8.69930E-19 2.90172E-18
 -1      2492 9.63096E-05-2.86732E-05-2.89854E-05 1.14554E-06 1.77651E-19 2.41622E-18
 -1      2493 9.65449E-05-2.87243E-05-2.90590E-05 1.29376E-06 9.57265E-19 2.31150E-18
 -1      2494 9.63985E-05-2.85644E-05-2.90752E-05 1.65740E-06 6.91947E-19 2.53297E-18
 -1      2495 9.59862E-05-2.86173E-05-2.88710E-05 8.54940E-07-1.01730E-18 1.62301E-18
 -1      2496 9.61655E-05-2.86522E-05-2.89283E-05 9.77188E-07 1.47396E-19 2.09980E-18
 -1      2497 9.60740E-05-2.85255E-05-2.89523E-05 1.26659E-06 6.35839E-19 2.82854E-18
 -1      2498 9.57433E-05-2.85819E-05-2.87823E-05 6.20248E-07-1.90089E-19-3.64681E-19
 -1      2499 9.58765E-05-2.86048E-05-2.88258E-05 7.18181E-07-1.04855E-18 1.02300E-18
 -1      2500 9.58257E-05-2.85077E-05-2.88531E-05 9.43096E-07-8.97069E-20 1.53768E-18
 -1      2501 9.55651E-05-2.85607E-05-2.87152E-05 4.35523E-07-1.02873E-18-6.45718E-19
 -1      2502 9.56615E-05-2.85750E-05-2.87474E-05 5.12022E-07-2.12178E-19-5.80263E-19
 -1      2503 9.56393E-05-2.85028E-05-2.87749E-05 6.82768E-07 4.90011E-20 4.76261E-19
 -1      2504 9.54380E-05-2.85494E-05-2.86658E-05 2.93483E-07-1.24801E-18-2.92120E-19
 -1      2505 9.55055E-05-2.85575E-05-2.86889E-05 3.51870E-07-1.76135E-18-6.64524E-19
 -1      2506 9.55021E-05-2.85054E-05-2.87146E-05 4.78366E-07-1.31886E-18 4.38592E-19
 -1      2507 9.53504E-05-2.85448E-05-2.86304E-05 1.86701E-07 6.46964E-19 6.35693E-19
 -1      2508 9.53957E-05-2.85486E-05-2.86464E-05 2.30262E-07-2.62845E-19 1.75461E-19
 -1      2509 9.54038E-05-2.85120E-05-2.86693E-05 3.21479E-07-8.10379E-19-6.90174E-19
 -1      2510 9.52927E-05-2.85445E-05-2.86059E-05 1.08298E-07 4.42143E-19 1.09907E-18
 -1      2511 9.53214E-05-2.85454E-05-2.86165E-05 1.40015E-07 6.19902E-19 8.75413E-19
 -1      2512 9.53354E-05-2.85206E-05-2.86360E-05 2.03725E-07 6.80168E-19 1.11414E-18
 -1      2513 9.52571E-05-2.85471E-05-2.85896E-05 5.23064E-08 1.98778E-19 1.16183E-18
 -1      2514 9.52737E-05-2.85461E-05-2.85963E-05 7.47218E-08 6.52962E-19 1.20451E-18
 -1      2515 9.52897E-05-2.85298E-05-2.86122E-05 1.17438E-07 5.23239E-19 1.01480E-18
 -1      2516 9.52375E-05-2.85515E-05-2.85795E-05 1.38599E-08 9.20283E-19 2.78511E-18
 -1      2517 9.52455E-05-2.85492E-05-2.85833E-05 2.90054E-08-3.48205E-20 1.90518E-18
 -1      2518 9.52609E-05-2.85390E-05-2.85957E-05 5.60339E-08-1.76817E-19 8.00713E-19
 -1      2519 9.52291E-05-2.85571E-05-2.85735E-05-1.08965E-08 7.69625E-19 2.99514E-18
 -1      2520 9.52311E-05-2.85539E-05-2.85754E-05-1.52530E-09 1.03229E-18 3.38815E-18
 -1      2521 9.52442E-05-2.85477E-05-2.85846E-05 1.42385E-08 2.28367E-20 2.63812E-18
 -1      2522 9.52279E-05-2.85637E-05-2.85703E-05-2.43755E-08 5.31750E-20 3.45593E-18
 -1      2523 9.52263E-05-2.85600E-05-2.85709E-05-1.98114E-08 6.34157E-19 3.17333E-18
 -1      2524 9.52364E-05-2.85569E-05-2.85773E-05-1.24824E-08-2.87521E-19 2.72325E-18
 -1      2525 9.52309E-05-2.85711E-05-2.85685E-05-2.82155E-08-2.27941E-19 3.85129E-18
 -1      2526 9.52276E-05-2.85669E-05-2.85686E-05-2.77558E-08 8.21419E-20 3.97320E-18
 -1      2527 9.52347E-05-2.85665E-05-2.85724E-05-2.66469E-08 6.24871E-20 3.89027E-18
 -1      2528 9.52325E-05-2.85753E-05-2.85673E-05-2.68457E-08-3.85922E-19 2.83013E-18
 -1      2529 9.52435E-05-2.85722E-05-2.85735E-05-9.89272E-09 1.02965E-18 6.29263E-19
 -1      2530 9.52442E-05-2.85724E-05-2.85735E-05-1.28521E-08 1.24288E-18-9.96285E-19
 -1      2531 9.52409E-05-2.85683E-05-2.85741E-05-5.19557E-09 1.75207E-18-5.98645E-19
 -1      2532 9.52417E-05-2.85688E-05-2.85740E-05-7.39124E-09 9.76818E-19 6.30046E-19
 -1      2533 9.52392E-05-2.85533E-05-2.85796E-05-6.73338E-09 1.46195E-18-1.26161E-20
 -1      2534 9.52451E-05-2.85781E-05-2.85716E-05-2.32690E-08-2.52004E-19-1.01393E-18
 -1      2535 9.52431E-05-2.85764E-05-2.85714E-05-2.55953E-08 1.07965E-19-6.11403E-19
 -1      2536 9.52456E-05-2.85760E-05-2.85728E-05-1.62926E-08 3.19704E-19 6.57776E-19
 -1      2537 9.52452E-05-2.85755E-05-2.85726E-05-1.95820E-08-2.23634E-19 4.03129E-19
 -1      2538 9.52440E-05-2.85667E-05-2.85761E-05-2.02547E-08 1.01174E-18-4.64181E-19
 -1      2539 9.52427E-05-2.85603E-05-2.85781E-05-1.26655E-08 1.67209E-18 5.17767E-19
 -1      2540 9.52389E-05-2.85657E-05-2.85743E-05-2.25793E-09 3.60591E-21 7.75933E-19
 -1      2541 9.52395E-05-2.85659E-05-2.85743E-05-3.79273E-09 5.49205E-19-1.51996E-18
 -1      2542 9.52355E-05-2.85474E-05-2.85805E-05-3.14374E-09 8.14682E-19-1.10308E-18
 -1      2543 9.52386E-05-2.85650E-05-2.85744E-05-1.61493E-10-3.21300E-19 7.63620E-19
 -1      2544 9.52385E-05-2.85649E-05-2.85744E-05-1.49105E-09-8.99358E-19 2.15955E-18
 -1      2545 9.52334E-05-2.85442E-05-2.85809E-05-1.46809E-09-4.92855E-19 5.57736E-19
 -1      2546 9.52401E-05-2.85666E-05-2.85743E-05 2.39396E-09 4.09516E-19-1.25861E-18
 -1      2547 9.52393E-05-2.85661E-05-2.85743E-05 6.99276E-10-1.92551E-20-1.95198E-19
 -1      2548 9.52337E-05-2.85445E-05-2.85809E-05-3.89735E-10-7.11961E-19 8.70060E-21
 -1      2549 9.52426E-05-2.85698E-05-2.85740E-05 6.45064E-09-1.63006E-19-3.75732E-18
 -1      2550 9.52416E-05-2.85691E-05-2.85740E-05 4.03006E-09 1.06106E-18-3.63829E-18
 -1      2551 9.52363E-05-2.85482E-05-2.85805E-05 1.63369E-09 1.37738E-18-2.16879E-18
 -1      2552 9.52452E-05-2.85736E-05-2.85734E-05 1.25881E-08-1.22690E-18-1.49639E-18
 -1      2553 9.52445E-05-2.85733E-05-2.85735E-05 9.30888E-09-2.22860E-19-3.47263E-18
 -1      2554 9.52403E-05-2.85544E-05-2.85796E-05 5.84186E-09 7.26579E-19-3.79673E-18
 -1      2555 9.52462E-05-2.85768E-05-2.85725E-05 2.00678E-08-1.31396E-18-4.19883E-19
 -1      2556 9.52466E-05-2.85772E-05-2.85727E-05 1.64665E-08-2.26973E-18 1.50962E-18
 -1      2557 9.52440E-05-2.85616E-05-2.85781E-05 1.26657E-08-1.45854E-18-8.28201E-19
 -1      2558 9.52437E-05-2.85777E-05-2.85711E-05 2.67553E-08-8.10541E-19-7.85485E-19
 -1      2559 9.52460E-05-2.85793E-05-2.85714E-05 2.41478E-08-5.17492E-19-1.81179E-18
 -1      2560 9.52452E-05-2.85680E-05-2.85760E-05 2.07382E-08-1.25099E-18-3.74840E-19
 -1      2561 2.87753E-05-1.88211E-05-3.84206E-06 2.22370E-05-5.11820E-19 3.64267E-18
 -1      2562 2.18725E-05-1.62658E-05-1.90843E-06 7.63543E-06-4.09673E-19 4.52781E-18
 -1      2563 9.84053E-05-5.22762E-05-1.98128E-05 4.11567E-05-3.56813E-19-3.98000E-19
 -1      2564 8.03191E-05-4.64657E-05-1.42386E-05 4.23030E-05-1.07870E-18-3.82224E-20
 -1      2565 1.10406E-04-5.61231E-05-2.29716E-05 3.37694E-05-1.28378E-18-1.24554E-18
 -1      2566 9.59605E-05-2.78933E-05-2.91517E-05-1.66283E-06 1.07714E-18 9.49053E-19
 -1      2567 9.58767E-05-2.76698E-05-2.91863E-05-9.53570E-07 1.25142E-18 1.17133E-18
 -1      2568 9.63073E-05-2.76950E-05-2.94236E-05-2.13649E-06 1.14931E-18 2.70113E-19
 -1      2569 1.43392E-04-4.80949E-05-4.12980E-05 7.86853E-06 2.59882E-18-3.28670E-18
 -1      2570 1.37098E-04-5.29405E-05-3.61387E-05 1.36789E-05 1.30427E-18-2.55740E-18
 -1      2571 9.52376E-05-2.85791E-05-2.85678E-05 2.95100E-08-1.18012E-18 2.15424E-18
 -1      2572 3.41684E-05-2.68100E-05-2.96793E-06-2.82620E-05 1.12486E-18 4.40669E-18
 -1      2573 5.01807E-05-3.50695E-05-6.40826E-06-3.79925E-05 1.50010E-18 4.82406E-18
 -1      2574 5.97959E-05-3.70543E-05-9.59375E-06 4.28699E-05-1.67924E-18 6.92873E-19
 -1      2575 4.27004E-05-2.82308E-05-5.78111E-06 3.51252E-05-1.63287E-18 2.33400E-18
 -1      2576 2.05281E-05-1.64964E-05-1.38940E-06-5.21079E-06 4.81856E-19 3.49211E-18
 -1      2577 2.49535E-05-1.94652E-05-1.96647E-06-1.73090E-05 6.99543E-19 3.58210E-18
 -1      2578 1.51269E-04-1.70412E-05-5.78686E-05-5.76644E-06-4.91067E-18 1.51915E-18
 -1      2579 1.53258E-04-2.34668E-05-5.57303E-05-6.69082E-06-4.31923E-18 2.01170E-18
 -1      2580 1.28987E-04-5.95360E-05-2.99770E-05 2.45251E-05-7.70800E-19 1.00903E-18
 -1      2581 1.12593E-04-5.81758E-05-2.34231E-05 3.27063E-05-3.57236E-19 2.03500E-19
 -1      2582 6.24400E-05-3.95754E-05-9.64842E-06 4.13076E-05 9.96323E-19-1.69280E-18
 -1      2583 4.45576E-05-3.03657E-05-5.74829E-06 3.39137E-05 1.62397E-18-3.13021E-18
 -1      2584 6.60772E-05-4.07363E-05-1.05356E-05-4.21536E-05-9.37877E-19-3.69380E-18
 -1      2585 8.61378E-05-4.85598E-05-1.60143E-05-4.38238E-05-3.03873E-19-2.80897E-18
 -1      2586 8.64430E-05-9.33456E-06-3.30810E-05-1.21839E-06 4.79550E-19-3.15191E-18
 -1      2587 8.66304E-05-9.50167E-06-3.30863E-05-2.12069E-06 2.15725E-19-3.18942E-18
 -1      2588 8.78893E-05-1.14510E-05-3.27560E-05-2.23411E-06 1.10337E-19-3.07862E-18
 -1      2589 8.74612E-05-1.10030E-05-3.27655E-05-7.63462E-07 5.44613E-19-2.91662E-18
 -1      2590 1.47593E-04-2.69864E-05-5.17962E-05 3.82200E-06 2.97393E-18-2.66942E-18
 -1      2591 1.42972E-04-1.75505E-05-5.43994E-05 6.60267E-06 3.01311E-18-2.75550E-18
 -1      2592 1.43186E-04-1.29182E-05-5.63489E-05-4.06712E-06 5.09681E-18-2.62210E-18
 -1      2593 1.42782E-04-1.68627E-05-5.43603E-05-6.59775E-06 5.28210E-18-2.62538E-18
 -1      2594 2.79873E-05-2.05093E-05-2.86609E-06 2.03465E-05 1.25340E-18-4.51003E-18
 -1      2595 2.01141E-05-1.91835E-05-1.06892E-07 6.92625E-06 6.83211E-19-5.90805E-18
 -1      2596 1.40006E-04-9.89725E-06-5.63752E-05 2.50831E-06 4.58224E-18-2.71368E-18
 -1      2597 1.42446E-04-9.72202E-06-5.72560E-05-1.08138E-06 5.13471E-18-2.88854E-18
 -1      2598 1.32888E-04-9.58628E-06-5.31441E-05-3.77371E-06 5.09342E-18-2.58618E-18
 -1      2599 1.45295E-04-4.37240E-05-4.36736E-05-7.94602E-06 2.42066E-18-2.32341E-18
 -1      2600 1.49235E-04-3.69278E-05-4.85784E-05-2.47764E-06 2.75709E-18-2.00916E-18
 -1      2601 1.30811E-04-5.48326E-05-3.25539E-05-2.23609E-05 1.00829E-18-2.65058E-18
 -1      2602 1.41252E-04-5.07919E-05-3.89513E-05-1.68931E-05 2.03796E-18-2.46275E-18
 -1      2603 1.42376E-04-4.94789E-05-3.97413E-05-5.59905E-06 1.08806E-18-6.44169E-19
 -1      2604 1.00843E-04-5.40478E-05-1.99688E-05-3.86062E-05-3.65706E-19-2.62104E-18
 -1      2605 1.16283E-04-5.64713E-05-2.58457E-05-3.43072E-05-1.28325E-19-2.84910E-18
 -1      2606 9.82909E-05-5.24248E-05-1.92852E-05-3.87901E-05-1.50031E-18-2.13466E-18
 -1      2607 3.42537E-05-2.58482E-05-3.29305E-06-2.93569E-05-9.50371E-19-5.57432E-18
 -1      2608 4.54367E-05-3.03706E-05-6.25127E-06-3.81913E-05-7.52165E-19-4.62268E-18
 -1      2609 1.50899E-04-4.87664E-05-4.39908E-05 4.28497E-06-2.24979E-18 1.39252E-18
 -1      2610 1.41752E-04-5.59759E-05-3.68257E-05 1.19556E-05-1.87025E-18 1.59221E-18
 -1      2611 1.82491E-05-1.89388E-05 4.43917E-07-5.08802E-06-1.96088E-19-6.46794E-18
 -1      2612 2.36730E-05-2.02074E-05-1.17971E-06-1.98964E-05-2.12923E-19-6.35952E-18
 -1      2613 3.47663E-05-2.01598E-05-5.72173E-06-2.37669E-05-7.69847E-19-5.72531E-18
 -1      2614 2.64590E-05-1.51279E-05-4.27727E-06-1.45950E-07 7.49598E-19-5.72806E-18
 -1      2615 1.00177E-04-5.48936E-05-1.94055E-05 3.95974E-05-1.33196E-19-4.48504E-19
 -1      2616 8.38835E-05-4.93889E-05-1.46435E-05 4.03002E-05 5.51418E-19-5.99858E-19
 -1      2617 1.12869E-04-5.85998E-05-2.31550E-05 3.24918E-05 8.23316E-19 6.09573E-19
 -1      2618 1.48334E-04-1.42477E-05-5.78521E-05 3.89986E-06-5.19443E-18 3.82224E-20
 -1      2619 1.48669E-04-1.31251E-05-5.84710E-05-5.23330E-07-5.05425E-18 7.45601E-19
 -1      2620 1.55112E-04-3.11518E-05-5.35294E-05-5.09736E-06-3.86459E-18 2.43035E-18
 -1      2621 1.52559E-04-3.74744E-05-4.94813E-05-3.90631E-06-3.13137E-18 1.88126E-18
 -1      2622 1.46153E-04-2.51318E-05-5.17939E-05-1.17801E-05-3.78518E-18 2.70267E-18
 -1      2623 1.35719E-04-5.79843E-05-3.34157E-05-1.78681E-05-2.79521E-20-1.54118E-18
 -1      2624 1.46031E-04-5.42374E-05-3.97835E-05-9.90601E-06-6.54439E-19-2.26454E-18
 -1      2625 1.50431E-04-2.57947E-05-5.37190E-05 9.14066E-06-3.22148E-18-6.79109E-19
 -1      2626 1.49900E-04-2.00887E-05-5.61719E-05 7.67723E-06-4.15385E-18-6.77097E-19
 -1      2627 1.50077E-04-4.55011E-05-4.49575E-05 1.40556E-06-1.33259E-18-1.51365E-18
 -1      2628 1.52537E-04-3.66542E-05-5.02044E-05 6.54715E-06-2.31124E-18-1.28156E-18
 -1      2629 1.08066E-04-5.69349E-05-2.18254E-05-3.40345E-05 1.73515E-18 1.12221E-18
 -1      2630 1.24086E-04-5.91041E-05-2.80538E-05-2.92425E-05 4.62692E-19-1.49713E-19
 -1      2631 6.87672E-05-4.35723E-05-1.06782E-05-3.98878E-05 2.06507E-18 3.96644E-18
 -1      2632 8.75774E-05-5.00090E-05-1.61893E-05-4.13166E-05 2.46762E-18 3.13789E-18
 -1      2633 9.57784E-05-2.00978E-05-3.24775E-05-1.03404E-05-2.11891E-18-1.49364E-18
 -1      2634 9.63584E-05-2.34209E-05-3.12777E-05-6.43887E-06-1.88330E-18-1.29622E-18
 -1      2635 9.57995E-05-2.24363E-05-3.14269E-05-5.86878E-06-1.71737E-18-1.65009E-18
 -1      2636 9.37890E-05-1.75757E-05-3.26822E-05-9.89448E-06-2.03147E-18-2.03748E-18
 -1      2637 9.72948E-05-2.53174E-05-3.08662E-05 6.42296E-06 2.18102E-18 2.18853E-18
 -1      2638 9.82283E-05-2.39862E-05-3.18370E-05 9.57291E-06 2.29435E-18 2.50359E-18
 -1      2639 9.66482E-05-2.14946E-05-3.22645E-05 1.06635E-05 2.55543E-18 1.60317E-18
 -1      2640 9.67937E-05-2.42964E-05-3.11052E-05 6.24952E-06 2.22741E-18 1.01335E-18
 -1      2641 1.30189E-04-1.77620E-05-4.86657E-05 9.67001E-06 2.26539E-18-8.25857E-19
 -1      2642 1.36539E-04-1.36542E-05-5.30195E-05 6.47441E-06 3.38856E-18-1.98375E-18
 -1      2643 1.27408E-04-1.05450E-05-5.05668E-05 5.98823E-06 3.59354E-18-1.27621E-18
 -1      2644 9.02392E-05-1.40346E-05-3.26470E-05-5.31272E-06-9.56169E-19-2.90831E-18
 -1      2645 8.94043E-05-1.24811E-05-3.30236E-05-6.53521E-06-1.05143E-18-3.18277E-18
 -1      2646 9.02895E-05-1.33592E-05-3.30255E-05-7.67486E-06-1.39686E-18-3.11281E-18
 -1      2647 9.62730E-05-2.70613E-05-2.96792E-05-2.01011E-07 1.50834E-18 3.60214E-19
 -1      2648 1.33057E-04-5.70054E-05-3.25443E-05 1.59772E-05 4.04511E-19-2.53750E-18
 -1      2649 9.49243E-05-1.91873E-05-3.25034E-05 1.02739E-05 2.60729E-18 4.94151E-19
 -1      2650 9.24288E-05-1.60342E-05-3.27845E-05-8.86050E-06-1.71793E-18-2.52058E-18
 -1      2651 6.60740E-05-3.84088E-05-1.14040E-05-3.87051E-05 2.53686E-18 3.40603E-18
 -1      2652 1.41335E-04-4.34683E-05-4.20110E-05-2.90330E-06 2.56540E-18-3.67612E-18
 -1      2653 1.03235E-04-5.49148E-05-2.03709E-05-3.51470E-05 2.87187E-18 1.62168E-18
 -1      2654 1.46336E-04-5.13060E-05-4.06049E-05 2.11112E-06-8.71120E-20-1.94966E-18
 -1      2655 1.44992E-04-3.22035E-05-4.85282E-05 1.24222E-05-2.13622E-18-7.47507E-19
 -1      2656 9.52360E-05-2.85753E-05-2.85690E-05-2.91450E-08-2.71632E-19 2.14738E-18
 -1      2657 9.52397E-05-2.85771E-05-2.85697E-05-2.87066E-08 5.24250E-19 1.81362E-18
 -1      2658 2.88893E-05-1.39203E-05-5.79212E-06 1.38181E-06 2.77211E-19 3.58295E-18
 -1      2659 3.97702E-05-2.21931E-05-6.96672E-06 2.85013E-05-1.39686E-18 2.30520E-18
 -1      2660 3.94203E-05-1.63202E-05-9.33523E-06 2.13069E-05-9.99817E-19 1.73134E-18
 -1      2661 5.16365E-05-2.53521E-05-1.09572E-05 3.27769E-05-2.27142E-18 6.83132E-19
 -1      2662 7.61844E-05-4.21518E-05-1.42350E-05 4.14100E-05-1.75717E-18 4.47128E-19
 -1      2663 1.48513E-04-4.50032E-05-4.44419E-05-6.96879E-06-2.45687E-18 2.32532E-18
 -1      2664 1.25978E-04-5.83315E-05-2.88843E-05-2.46636E-05-9.00184E-19-1.96109E-18
 -1      2665 9.52352E-05-2.85724E-05-2.85697E-05 2.96353E-08-2.59330E-20 2.95632E-18
 -1      2666 9.52414E-05-2.85774E-05-2.85704E-05 2.97529E-08-1.08232E-18 1.13842E-18
 -1      2667 9.52421E-05-2.85699E-05-2.85737E-05 2.71500E-08-3.34474E-19 1.07527E-19
 -1      2668 9.52334E-05-2.85683E-05-2.85706E-05 2.96164E-08-3.17411E-19 3.39063E-18
 -1      2669 3.72273E-05-2.15878E-05-6.20078E-06-2.38105E-05 1.09617E-18 4.38784E-18
 -1      2670 3.97800E-05-2.39931E-05-6.22050E-06 2.75941E-05 1.61614E-18-3.38813E-18
 -1      2671 3.75517E-05-1.76658E-05-7.93817E-06 1.99770E-05 1.52524E-18-3.64478E-18
 -1      2672 5.27338E-05-2.73332E-05-1.05309E-05 3.18321E-05 2.28032E-18-2.21880E-18
 -1      2673 6.37754E-05-3.58291E-05-1.15211E-05-3.97074E-05-1.53038E-18-3.79079E-18
 -1      2674 1.40993E-04-1.46949E-05-5.44641E-05-4.07908E-06-4.26227E-18 1.58835E-18
 -1      2675 8.00503E-05-4.51893E-05-1.46305E-05 3.95249E-05 1.68178E-18-8.98702E-19
 -1      2676 1.37866E-04-6.06359E-05-3.32124E-05 1.43237E-05-9.37242E-19 1.45499E-18
 -1      2677 1.31914E-04-6.11366E-05-2.99094E-05 1.68252E-05 1.42831E-19 1.76077E-18
 -1      2678 1.40853E-04-5.77995E-05-3.60922E-05 2.44758E-06-8.90232E-19 1.92901E-18
 -1      2679 1.42242E-04-3.22003E-05-4.72008E-05 6.53195E-06 1.92266E-18-1.33450E-18
 -1      2680 1.37794E-04-2.29054E-05-4.95091E-05-9.19410E-06 4.24512E-18-2.82295E-18
 -1      2681 1.40056E-04-1.62238E-05-5.33875E-05 8.03860E-06-4.42702E-18-3.98105E-20
 -1      2682 1.33290E-04-6.11226E-05-3.07710E-05-1.81747E-05 1.37611E-18-2.11059E-18
 -1      2683 9.53214E-05-2.05756E-05-3.19908E-05 8.19031E-06 2.44081E-18 1.66138E-19
 -1      2684 9.52402E-05-2.85701E-05-2.85727E-05-2.72566E-08 7.05588E-19 5.46480E-19
 -1      2685 9.52393E-05-2.85662E-05-2.85744E-05 2.64728E-08-3.64511E-19 1.97586E-18
 -1      2686 8.90532E-05-1.34536E-05-3.24190E-05 2.14600E-06 1.39950E-18-2.36316E-18
 -1      2687 8.86813E-05-1.30573E-05-3.24336E-05 1.43399E-06 1.16924E-18-2.48867E-18
 -1      2688 8.84003E-05-1.27283E-05-3.24492E-05 8.87425E-07 9.48298E-19-2.64258E-18
 -1      2689 8.82538E-05-1.25760E-05-3.24545E-05 1.92465E-07 7.90821E-19-2.69367E-18
 -1      2690 8.94248E-05-1.44129E-05-3.21309E-05 8.76046E-07 9.63870E-19-2.38793E-18
 -1      2691 9.17343E-05-1.66491E-05-3.22122E-05 4.77754E-06 2.08696E-18-1.54672E-18
 -1      2692 9.09120E-05-1.56525E-05-3.22809E-05 4.03518E-06 1.87495E-18-1.85830E-18
 -1      2693 9.37575E-05-1.93270E-05-3.19364E-05 5.83799E-06 2.25635E-18-8.90218E-19
 -1      2694 9.26830E-05-1.78753E-05-3.20820E-05 5.26717E-06 2.15433E-18-1.20720E-18
 -1      2695 9.31105E-05-1.89543E-05-3.17584E-05 3.83799E-06 1.90554E-18-1.24304E-18
 -1      2696 9.52437E-05-2.85597E-05-2.85789E-05-1.81568E-08 3.22001E-19-1.23203E-18
 -1      2697 9.52405E-05-2.85620E-05-2.85764E-05-2.14068E-08 4.67880E-19 9.44585E-19
 -1      2698 9.52406E-05-2.85557E-05-2.85789E-05-1.62242E-08-4.85037E-19 6.76308E-19
 -1      2699 9.61998E-05-2.53026E-05-3.03897E-05 2.02712E-06 1.76354E-18-1.05140E-19
 -1      2700 9.63713E-05-2.44672E-05-3.07833E-05 3.83214E-06 1.90525E-18 7.00667E-20
 -1      2701 9.53782E-05-2.18318E-05-3.15237E-05 6.23832E-06 2.23974E-18-7.91413E-20
 -1      2702 1.35715E-04-3.89572E-05-4.21826E-05-8.69075E-06 2.80029E-18-3.32122E-18
 -1      2703 1.36519E-04-4.73859E-05-3.81805E-05-3.27989E-06 1.89227E-18-3.65071E-18
 -1      2704 9.60054E-05-2.52209E-05-3.03114E-05 4.67402E-08-9.66532E-19-1.61731E-18
 -1      2705 9.59982E-05-2.57256E-05-3.01190E-05 1.37826E-06-9.16934E-19-1.57334E-18
 -1      2706 9.60039E-05-2.60958E-05-2.99432E-05 2.52575E-06-8.87072E-19-1.39990E-18
 -1      2707 9.60714E-05-2.63756E-05-2.98645E-05 3.57147E-06-6.85755E-19-1.53207E-18
 -1      2708 9.55762E-05-2.50562E-05-3.02286E-05 1.82686E-06-8.79128E-19-1.58308E-18
 -1      2709 9.60185E-05-2.65357E-05-2.97693E-05 4.53771E-06-6.06493E-19-1.46751E-18
 -1      2710 9.61931E-05-2.67048E-05-2.97708E-05 5.41985E-06-6.29734E-19-1.28950E-18
 -1      2711 9.55404E-05-2.57105E-05-2.99332E-05 4.02196E-06-6.89223E-19-1.58907E-18
 -1      2712 9.61284E-05-2.67539E-05-2.97294E-05 6.28364E-06-6.89091E-19-1.20052E-18
 -1      2713 9.64158E-05-2.68879E-05-2.97845E-05 7.08146E-06-6.66854E-19-1.31082E-18
 -1      2714 9.54379E-05-2.59928E-05-2.97669E-05 5.91490E-06-6.88099E-19-1.56867E-18
 -1      2715 9.63699E-05-2.69061E-05-2.97718E-05 7.90169E-06-5.51689E-19-1.34420E-18
 -1      2716 9.67832E-05-2.70802E-05-2.98574E-05 8.65182E-06-4.89186E-19-1.40342E-18
 -1      2717 9.53389E-05-2.60992E-05-2.96773E-05 7.64479E-06-5.68318E-19-1.48432E-18
 -1      2718 9.68001E-05-2.71587E-05-2.98490E-05 9.46054E-06-2.92100E-19-1.18655E-18
 -1      2719 9.73793E-05-2.74735E-05-2.99428E-05 1.01553E-05-2.69553E-19-9.36556E-19
 -1      2720 9.53133E-05-2.62218E-05-2.96139E-05 9.30862E-06-2.01827E-19-1.33406E-18
 -1      2721 9.75485E-05-2.77440E-05-2.99154E-05 1.09534E-05-3.79061E-19-6.29176E-19
 -1      2722 9.83820E-05-2.83492E-05-2.99966E-05 1.15313E-05-1.43247E-19-2.29947E-19
 -1      2723 9.54864E-05-2.66070E-05-2.95273E-05 1.09525E-05-1.67153E-20-5.39419E-19
 -1      2724 9.88768E-05-2.90084E-05-2.99317E-05 1.22755E-05-5.90323E-20 8.03089E-20
 -1      2725 1.00123E-04-3.01151E-05-2.99869E-05 1.26033E-05 2.07782E-19 3.75614E-20
 -1      2726 9.61073E-05-2.76157E-05-2.93734E-05 1.25615E-05 1.82197E-19 2.10407E-19
 -1      2727 1.01243E-04-3.14314E-05-2.98843E-05 1.31722E-05 3.25270E-19-1.18035E-19
 -1      2728 1.03134E-04-3.32845E-05-2.99233E-05 1.30174E-05 3.82866E-19 9.90119E-20
 -1      2729 9.76314E-05-2.97647E-05-2.91307E-05 1.40244E-05 2.66765E-19-3.35389E-20
 -1      2730 1.05325E-04-3.55440E-05-2.98288E-05 1.31461E-05 5.44633E-19 2.89628E-19
 -1      2731 1.08076E-04-3.82967E-05-2.99162E-05 1.21514E-05 8.18512E-19 3.22799E-19
 -1      2732 1.00786E-04-3.36915E-05-2.88416E-05 1.50365E-05 5.29972E-19 1.33705E-19
 -1      2733 1.11923E-04-4.16334E-05-2.99882E-05 1.11932E-05 1.00953E-18 3.25922E-19
 -1      2734 1.15483E-04-4.48033E-05-3.03054E-05 8.78157E-06 9.59927E-19 2.54348E-19
 -1      2735 1.06643E-04-4.00330E-05-2.87028E-05 1.49264E-05 1.00113E-18 7.99179E-19
 -1      2736 1.21053E-04-4.85612E-05-3.08989E-05 6.19171E-06 1.05041E-18 3.75404E-19
 -1      2737 1.25045E-04-5.09533E-05-3.17388E-05 1.86147E-06 6.20981E-19 8.07705E-19
 -1      2738 1.15688E-04-4.76300E-05-2.92745E-05 1.19243E-05 1.15779E-18 6.18863E-19
 -1      2739 1.31921E-04-5.42044E-05-3.32658E-05-4.83386E-07-5.67247E-20 1.39075E-18
 -1      2740 1.34449E-04-5.18751E-05-3.53858E-05-5.36278E-06-9.57094E-19 1.72069E-18
 -1      2741 1.36365E-04-3.98195E-05-4.19339E-05-1.41072E-05-2.61135E-18 2.28524E-18
 -1      2742 1.35218E-04-3.15157E-05-4.49324E-05-1.58119E-05-3.10671E-18 1.93833E-18
 -1      2743 1.33443E-04-4.03060E-05-4.01143E-05 1.54370E-05 2.59351E-19-2.19826E-18
 -1      2744 1.34645E-04-4.76496E-05-3.75057E-05 1.28552E-05 1.31954E-18-1.84378E-18
 -1      2745 1.30724E-04-5.06992E-05-3.44453E-05 6.56635E-06 1.71247E-18-1.91558E-18
 -1      2746 1.28720E-04-5.17740E-05-3.29030E-05 2.05131E-06 1.88161E-18-1.68153E-18
 -1      2747 1.35829E-04-5.29988E-05-3.57777E-05 5.39991E-06 1.34189E-18-1.90588E-18
 -1      2748 1.22802E-04-4.96534E-05-3.14392E-05-3.00265E-06 1.59717E-18-1.46183E-18
 -1      2749 1.19240E-04-4.71190E-05-3.07402E-05-6.59503E-06 1.80379E-18-1.13684E-18
 -1      2750 1.25282E-04-5.32868E-05-3.09944E-05-5.66546E-06 1.94387E-18-1.90881E-18
 -1      2751 1.14030E-04-4.34252E-05-3.02945E-05-9.04662E-06 1.17211E-18-5.09973E-19
 -1      2752 1.10644E-04-4.01999E-05-3.00654E-05-1.10260E-05 5.84029E-19-3.35947E-19
 -1      2753 1.13961E-04-4.62339E-05-2.91789E-05-1.21167E-05 1.44900E-18-1.26594E-18
 -1      2754 1.07198E-04-3.70781E-05-3.00536E-05-1.16427E-05 8.63090E-19-3.69576E-20
 -1      2755 1.04665E-04-3.45064E-05-2.99994E-05-1.23861E-05 9.37604E-19 3.06950E-19
 -1      2756 1.05386E-04-3.83960E-05-2.88370E-05-1.41893E-05 9.37981E-19-7.40399E-19
 -1      2757 1.02712E-04-3.24422E-05-3.01044E-05-1.21027E-05 1.91696E-19 5.24241E-19
 -1      2758 1.01012E-04-3.07608E-05-3.00774E-05-1.20806E-05 3.61262E-19 1.10727E-19
 -1      2759 1.00173E-04-3.26037E-05-2.90331E-05-1.39607E-05 5.66714E-19-7.76451E-19
 -1      2760 1.00034E-04-2.95996E-05-3.01706E-05-1.14155E-05 7.36293E-19-1.05413E-19
 -1      2761 9.89271E-05-2.86329E-05-3.01172E-05-1.09743E-05 6.92869E-19-2.63888E-19
 -1      2762 9.73792E-05-2.90646E-05-2.93141E-05-1.27356E-05 2.37413E-19-7.22988E-19
 -1      2763 9.85001E-05-2.80860E-05-3.01612E-05-1.01805E-05 9.72154E-20-1.06627E-18
 -1      2764 9.77633E-05-2.75934E-05-3.00746E-05-9.54513E-06-4.12321E-19-2.08059E-18
 -1      2765 9.60537E-05-2.72138E-05-2.95168E-05-1.11566E-05-4.90224E-20-1.42737E-18
 -1      2766 9.76122E-05-2.74113E-05-3.00702E-05-8.74324E-06-2.02981E-19-1.86244E-18
 -1      2767 9.70940E-05-2.71998E-05-2.99610E-05-8.05122E-06-4.06586E-20-1.51855E-18
 -1      2768 9.55128E-05-2.64353E-05-2.96077E-05-9.51473E-06-2.58460E-19-2.10551E-18
 -1      2769 9.70630E-05-2.72109E-05-2.99216E-05-7.29996E-06 9.60795E-20-1.37252E-18
 -1      2770 9.66754E-05-2.71522E-05-2.98033E-05-6.63045E-06 2.96344E-19-1.26204E-18
 -1      2771 9.53440E-05-2.62660E-05-2.96036E-05-7.94436E-06 3.01758E-20-1.05884E-18
 -1      2772 9.66856E-05-2.72519E-05-2.97435E-05-5.95780E-06 2.70563E-19-1.42643E-18
 -1      2773 9.63816E-05-2.72688E-05-2.96272E-05-5.35188E-06 5.10842E-19-1.56992E-18
 -1      2774 9.53255E-05-2.64059E-05-2.95347E-05-6.51144E-06 4.39375E-20-1.05322E-18
 -1      2775 9.63981E-05-2.73989E-05-2.95587E-05-4.76868E-06 5.58141E-19-1.18549E-18
 -1      2776 9.61534E-05-2.74485E-05-2.94514E-05-4.24365E-06-3.90585E-19-9.59743E-19
 -1      2777 9.53506E-05-2.66780E-05-2.94292E-05-5.24674E-06 4.35749E-19-1.84283E-18
 -1      2778 9.61637E-05-2.75794E-05-2.93825E-05-3.75060E-06-7.73126E-19-9.48389E-20
 -1      2779 9.59653E-05-2.76393E-05-2.92879E-05-3.30957E-06-6.80908E-19 1.55126E-19
 -1      2780 9.53751E-05-2.69857E-05-2.93087E-05-4.15973E-06 6.46721E-20-1.06063E-18
 -1      2781 9.59672E-05-2.77577E-05-2.92235E-05-2.90141E-06-5.82451E-19 3.21861E-19
 -1      2782 9.58071E-05-2.78168E-05-2.91429E-05-2.53965E-06 3.31015E-19 9.65511E-19
 -1      2783 9.53858E-05-2.72809E-05-2.91875E-05-3.24619E-06-6.43371E-19 5.06759E-19
 -1      2784 9.58024E-05-2.79180E-05-2.90856E-05-2.20786E-06 2.36050E-19 1.77501E-19
 -1      2785 9.56748E-05-2.79715E-05-2.90189E-05-1.91683E-06-5.73812E-19-1.30268E-19
 -1      2786 9.53823E-05-2.75428E-05-2.90743E-05-2.49327E-06-8.48130E-20-7.03652E-19
 -1      2787 9.56660E-05-2.80551E-05-2.89698E-05-1.65149E-06-8.68242E-19-1.62524E-19
 -1      2788 9.55659E-05-2.81015E-05-2.89158E-05-1.42126E-06-8.74280E-19-5.59853E-19
 -1      2789 9.53689E-05-2.77649E-05-2.89737E-05-1.88347E-06-7.36167E-19-1.17992E-18
 -1      2790 9.55553E-05-2.81690E-05-2.88748E-05-1.21228E-06 8.12692E-20-4.96720E-19
 -1      2791 9.54783E-05-2.82081E-05-2.88319E-05-1.03293E-06-1.09493E-19 4.99740E-19
 -1      2792 9.53502E-05-2.79480E-05-2.88874E-05-1.39745E-06-1.02298E-18-7.65716E-19
 -1      2793 9.54676E-05-2.82617E-05-2.87985E-05-8.70757E-07-1.75368E-19 1.22187E-18
 -1      2794 9.54095E-05-2.82940E-05-2.87651E-05-7.33097E-07-3.35354E-19 7.46900E-19
 -1      2795 9.53299E-05-2.80959E-05-2.88153E-05-1.01595E-06 7.11463E-20 7.48758E-19
 -1      2796 9.53996E-05-2.83360E-05-2.87384E-05-6.09100E-07-2.60309E-19 1.00203E-18
 -1      2797 9.53568E-05-2.83623E-05-2.87129E-05-5.05004E-07 2.41320E-19 1.89627E-18
 -1      2798 9.53105E-05-2.82136E-05-2.87566E-05-7.20945E-07-2.07572E-19 1.85919E-18
 -1      2799 9.53483E-05-2.83949E-05-2.86919E-05-4.11644E-07 3.09667E-19 2.11047E-18
 -1      2800 9.53176E-05-2.84162E-05-2.86727E-05-3.34170E-07 3.74276E-19 1.75264E-18
 -1      2801 9.52933E-05-2.83059E-05-2.87096E-05-4.96251E-07 2.69746E-19 2.47555E-18
 -1      2802 9.53106E-05-2.84412E-05-2.86565E-05-2.65051E-07 4.40704E-19 1.77228E-18
 -1      2803 9.52892E-05-2.84582E-05-2.86424E-05-2.08424E-07 1.81543E-18 1.88064E-18
 -1      2804 9.52789E-05-2.83775E-05-2.86726E-05-3.27835E-07 4.75059E-19 1.52763E-18
 -1      2805 9.52837E-05-2.84772E-05-2.86300E-05-1.58260E-07 2.25083E-18 1.33994E-18
 -1      2806 9.52694E-05-2.84908E-05-2.86197E-05-1.17803E-07 1.92728E-18 1.42895E-18
 -1      2807 9.52674E-05-2.84325E-05-2.86440E-05-2.03862E-07 1.59403E-18 6.75855E-19
 -1      2808 9.52652E-05-2.85053E-05-2.86104E-05-8.23404E-08 1.49714E-18 1.29805E-18
 -1      2809 9.52562E-05-2.85163E-05-2.86030E-05-5.43767E-08 1.35197E-18 1.26802E-18
 -1      2810 9.52585E-05-2.84747E-05-2.86220E-05-1.14623E-07 1.45698E-18-3.65884E-20
 -1      2811 9.52531E-05-2.85275E-05-2.85960E-05-3.02689E-08 5.39486E-19-1.58811E-19
 -1      2812 9.52481E-05-2.85368E-05-2.85907E-05-1.19681E-08-8.92390E-19-9.44723E-19
 -1      2813 9.52519E-05-2.85071E-05-2.86053E-05-5.23743E-08 2.70163E-19-1.84492E-18
 -1      2814 9.52461E-05-2.85459E-05-2.85853E-05 3.17446E-09-6.78512E-19-3.39395E-20
 -1      2815 9.52438E-05-2.85537E-05-2.85815E-05 1.36592E-08-3.53753E-19 6.47900E-19
 -1      2816 9.52475E-05-2.85329E-05-2.85923E-05-1.10138E-08-3.56843E-19 3.57696E-20
 -1      2817 9.73721E-05-2.84469E-05-2.95341E-05-4.95794E-06 5.38495E-19-1.54894E-19
 -1      2818 9.69610E-05-2.81411E-05-2.94814E-05-4.52821E-06 6.39371E-19-1.56282E-19
 -1      2819 3.82004E-05-1.68865E-05-8.72754E-06-1.89520E-05 6.92185E-19 3.46754E-18
 -1      2820 4.87242E-05-2.46440E-05-9.85981E-06-3.03538E-05 1.34001E-18 4.19133E-18
 -1      2821 9.67720E-05-2.78962E-05-2.95124E-05-3.93780E-06 7.54154E-19-1.57053E-19
 -1      2822 9.65121E-05-2.76053E-05-2.95130E-05-3.32298E-06 9.46816E-19 5.08489E-21
 -1      2823 9.66345E-05-2.76249E-05-2.95888E-05-4.45528E-06 7.30909E-19-1.97197E-19
 -1      2824 9.93767E-05-2.99491E-05-2.97574E-05-5.94141E-06 7.87181E-20 2.44830E-19
 -1      2825 9.87027E-05-2.94715E-05-2.96592E-05-5.88723E-06 1.59957E-19 1.12460E-19
 -1      2826 1.00830E-04-3.10891E-05-2.98993E-05-5.75499E-06 1.32985E-19 1.06995E-19
 -1      2827 1.00044E-04-3.04742E-05-2.98009E-05-5.96745E-06 2.38862E-19 1.83846E-19
 -1      2828 9.90871E-05-3.00739E-05-2.95936E-05-6.62120E-06 2.18487E-19-2.60627E-19
 -1      2829 1.02601E-04-3.25525E-05-3.00419E-05-4.90580E-06 1.78014E-19 1.35950E-19
 -1      2830 1.01734E-04-3.18023E-05-2.99510E-05-5.47105E-06-6.57493E-20-1.41321E-19
 -1      2831 1.00665E-04-3.15045E-05-2.96605E-05-6.42907E-06 2.68432E-19-1.47031E-19
 -1      2832 1.04633E-04-3.42564E-05-3.01946E-05-3.19752E-06 1.60820E-19 4.05941E-19
 -1      2833 1.03758E-04-3.34435E-05-3.01098E-05-4.19566E-06 3.41122E-19 3.84483E-19
 -1      2834 1.02738E-04-3.33589E-05-2.97576E-05-5.50449E-06 1.12855E-19-9.45546E-20
 -1      2835 1.06722E-04-3.58958E-05-3.03964E-05-4.99947E-07-4.59168E-20 5.10980E-19
 -1      2836 1.05982E-04-3.52135E-05-3.03030E-05-1.94852E-06 2.20846E-19 7.60381E-19
 -1      2837 1.05271E-04-3.55003E-05-2.99239E-05-3.60697E-06 1.13510E-19 1.84396E-19
 -1      2838 1.08432E-04-3.68540E-05-3.07171E-05 3.07796E-06-6.60472E-19 3.65425E-19
 -1      2839 1.08053E-04-3.66444E-05-3.05874E-05 1.31496E-06-3.15842E-19 4.67792E-19
 -1      2840 1.08002E-04-3.74763E-05-3.02368E-05-5.60843E-07-2.03971E-19 9.20485E-19
 -1      2841 1.09103E-04-3.62643E-05-3.12341E-05 6.92192E-06 3.83622E-20 5.09647E-19
 -1      2842 1.09338E-04-3.69404E-05-3.10387E-05 5.24486E-06-4.55178E-19 5.30652E-19
 -1      2843 1.10315E-04-3.84173E-05-3.08020E-05 3.51613E-06-4.47510E-19 7.56568E-19
 -1      2844 1.08140E-04-3.34598E-05-3.19772E-05 9.70847E-06 4.42030E-19 4.44995E-19
 -1      2845 1.09088E-04-3.52237E-05-3.17095E-05 8.80424E-06 1.33619E-19 6.30660E-19
 -1      2846 1.11268E-04-3.71963E-05-3.17049E-05 7.83341E-06-3.37998E-20 1.09920E-18
 -1      2847 1.05634E-04-2.88362E-05-3.28452E-05 9.66815E-06 6.84949E-19 7.56129E-19
 -1      2848 1.07000E-04-3.12494E-05-3.25537E-05 1.02706E-05 5.53161E-19 4.32003E-19
 -1      2849 1.10090E-04-3.31711E-05-3.29174E-05 1.06758E-05 4.81714E-19 1.17675E-18
 -1      2850 1.02818E-04-2.43280E-05-3.35956E-05 5.77348E-06 7.06412E-19 9.08264E-19
 -1      2851 1.03956E-04-2.63023E-05-3.33745E-05 8.07214E-06 7.64633E-19 8.09859E-19
 -1      2852 1.07131E-04-2.73290E-05-3.41989E-05 9.87888E-06 6.40850E-19 1.35472E-18
 -1      2853 1.01839E-04-2.28955E-05-3.38435E-05-9.64790E-07 3.55506E-19 5.14003E-19
 -1      2854 1.01924E-04-2.30783E-05-3.38263E-05 2.15438E-06 7.82936E-19 5.86833E-19
 -1      2855 1.04319E-04-2.27843E-05-3.49622E-05 4.49801E-06 7.70290E-19 1.04362E-18
 -1      2856 1.03395E-04-2.53082E-05-3.35409E-05-7.34933E-06 1.11539E-18-2.03811E-19
 -1      2857 1.02446E-04-2.36913E-05-3.36992E-05-4.73391E-06 3.26650E-19-1.79177E-19
 -1      2858 1.04030E-04-2.20291E-05-3.51927E-05-3.20820E-06 6.39771E-19-1.46854E-19
 -1      2859 1.06439E-04-3.00979E-05-3.28110E-05-1.05250E-05 9.61086E-19-1.26079E-19
 -1      2860 1.05022E-04-2.76733E-05-3.30814E-05-9.49145E-06 1.38367E-18 2.04752E-19
 -1      2861 1.06429E-04-2.59893E-05-3.44883E-05-9.41858E-06 1.06276E-18-7.03304E-19
 -1      2862 1.08931E-04-3.44589E-05-3.19749E-05-9.84554E-06 1.23784E-18-2.44918E-19
 -1      2863 1.07806E-04-3.24882E-05-3.22383E-05-1.04306E-05 1.15324E-18-2.73970E-19
 -1      2864 1.09587E-04-3.18431E-05-3.32724E-05-1.13326E-05 1.16891E-18-5.70655E-20
 -1      2865 1.09663E-04-3.66981E-05-3.12893E-05-6.69460E-06 4.59944E-19-7.69947E-19
 -1      2866 1.09213E-04-3.57724E-05-3.14836E-05-8.21775E-06 1.08224E-18-4.50216E-19
 -1      2867 1.11284E-04-3.64335E-05-3.20360E-05-9.19831E-06 1.37684E-18-4.50446E-19
 -1      2868 1.08742E-04-3.67936E-05-3.08222E-05-2.84155E-06-3.48723E-19-1.49566E-18
 -1      2869 1.08944E-04-3.68285E-05-3.09460E-05-4.57616E-06 1.85611E-20-6.81135E-19
 -1      2870 1.10808E-04-3.82463E-05-3.10813E-05-5.15191E-06 4.28372E-19-5.46793E-19
 -1      2871 1.06867E-04-3.55506E-05-3.05380E-05 5.02237E-07-3.98199E-19-1.09460E-18
 -1      2872 1.07484E-04-3.61483E-05-3.06175E-05-9.77110E-07-4.52871E-19-1.46014E-18
 -1      2873 1.08757E-04-3.76878E-05-3.04663E-05-1.03635E-06-2.61363E-19-6.28053E-19
 -1      2874 1.04727E-04-3.38256E-05-3.03596E-05 2.85827E-06-1.10886E-18-6.89285E-19
 -1      2875 1.05518E-04-3.46114E-05-3.04252E-05 1.81741E-06-5.65911E-19-7.56423E-19
 -1      2876 1.06093E-04-3.58517E-05-3.01241E-05 2.14511E-06-7.73652E-19-7.99535E-19
 -1      2877 1.02733E-04-3.21685E-05-3.02206E-05 4.22263E-06-3.84532E-19-4.31486E-20
 -1      2878 1.03537E-04-3.29133E-05-3.02921E-05 3.62080E-06-6.35400E-19-6.78701E-19
 -1      2879 1.03525E-04-3.37062E-05-2.99448E-05 4.16850E-06-1.07638E-18-3.08172E-19
 -1      2880 1.01050E-04-3.08233E-05-3.00822E-05 4.79124E-06-7.57216E-19 6.46628E-19
 -1      2881 1.01786E-04-3.14290E-05-3.01669E-05 4.54554E-06-6.12023E-19 2.61464E-19
 -1      2882 1.01377E-04-3.18005E-05-2.98380E-05 5.18877E-06-5.87168E-19-5.94630E-19
 -1      2883 9.96990E-05-2.98398E-05-2.99304E-05 4.80175E-06 9.52285E-19 7.13718E-19
 -1      2884 1.00339E-04-3.02883E-05-3.00268E-05 4.80814E-06 5.29927E-19 7.10718E-19
 -1      2885 9.97177E-05-3.03379E-05-2.97489E-05 5.46990E-06-2.02699E-19 3.75674E-21
 -1      2886 9.86406E-05-2.91749E-05-2.97659E-05 4.46451E-06 1.06919E-18 9.45846E-19
 -1      2887 9.91803E-05-2.94854E-05-2.98685E-05 4.62842E-06 1.01266E-18 6.69672E-19
 -1      2888 9.84890E-05-2.93246E-05-2.96524E-05 5.26462E-06 7.76654E-19 3.32329E-19
 -1      2889 9.78193E-05-2.87559E-05-2.95962E-05 3.94131E-06 1.00858E-18 1.53630E-18
 -1      2890 9.82664E-05-2.89593E-05-2.96986E-05 4.18880E-06 1.26297E-18 1.63106E-18
 -1      2891 9.75980E-05-2.86828E-05-2.95425E-05 4.77509E-06 1.12377E-18 5.39668E-19
 -1      2892 9.71838E-05-2.85119E-05-2.94301E-05 3.34561E-06 1.07516E-19 1.41850E-18
 -1      2893 9.75490E-05-2.86378E-05-2.95270E-05 3.62444E-06 8.47712E-19 2.04052E-18
 -1      2894 9.69555E-05-2.83152E-05-2.94227E-05 4.14812E-06 7.21598E-19 1.10593E-18
 -1      2895 9.66927E-05-2.83849E-05-2.92749E-05 2.75093E-06 8.04834E-19 1.05801E-18
 -1      2896 9.69872E-05-2.84576E-05-2.93627E-05 3.02729E-06-1.15416E-19 6.78071E-19
 -1      2897 9.64907E-05-2.81345E-05-2.92996E-05 3.48302E-06 2.05281E-19 2.04396E-19
 -1      2898 9.63138E-05-2.83322E-05-2.91355E-05 2.20064E-06 9.00872E-19 1.65727E-18
 -1      2899 9.65482E-05-2.83699E-05-2.92122E-05 2.45479E-06 1.41615E-18 1.49279E-18
 -1      2900 9.61520E-05-2.80728E-05-2.91800E-05 2.84227E-06 3.67938E-19-3.88239E-20
 -1      2901 9.60229E-05-2.83238E-05-2.90146E-05 1.71676E-06 3.27426E-19 1.37233E-18
 -1      2902 9.62068E-05-2.83395E-05-2.90794E-05 1.93894E-06 8.05766E-19 1.45224E-18
 -1      2903 9.59031E-05-2.80814E-05-2.90691E-05 2.26139E-06 5.12221E-19 6.14489E-19
 -1      2904 9.58011E-05-2.83400E-05-2.89126E-05 1.30709E-06 5.15977E-19 1.67338E-18
 -1      2905 9.59432E-05-2.83424E-05-2.89660E-05 1.49413E-06 4.25796E-19 2.08835E-18
 -1      2906 9.57190E-05-2.81273E-05-2.89701E-05 1.75706E-06 3.20856E-19 6.22192E-19
 -1      2907 9.56338E-05-2.83680E-05-2.88288E-05 9.70568E-07 5.96476E-19 1.30785E-18
 -1      2908 9.57417E-05-2.83629E-05-2.88717E-05 1.12334E-06 9.70336E-19 2.48319E-18
 -1      2909 9.55824E-05-2.81897E-05-2.88845E-05 1.33358E-06 6.34675E-19 2.10375E-18
 -1      2910 9.55093E-05-2.84000E-05-2.87616E-05 7.01138E-07-1.09513E-19 1.01419E-18
 -1      2911 9.55896E-05-2.83912E-05-2.87952E-05 8.22752E-07 4.56769E-21 1.14038E-18
 -1      2912 9.54812E-05-2.82556E-05-2.88126E-05 9.87648E-07 4.70733E-19 1.49823E-18
 -1      2913 9.54182E-05-2.84316E-05-2.87089E-05 4.90317E-07-1.61093E-18 1.35963E-18
 -1      2914 9.54766E-05-2.84215E-05-2.87347E-05 5.84913E-07-9.06069E-19 1.73190E-18
 -1      2915 9.54066E-05-2.83180E-05-2.87536E-05 7.11757E-07-1.10675E-18 1.84542E-18
 -1      2916 9.53529E-05-2.84606E-05-2.86684E-05 3.28894E-07 2.78217E-19-6.73439E-19
 -1      2917 9.53944E-05-2.84504E-05-2.86877E-05 4.00868E-07-8.42052E-19-9.55854E-20
 -1      2918 9.53522E-05-2.83733E-05-2.87064E-05 4.96489E-07-7.75782E-19 1.98935E-18
 -1      2919 9.53075E-05-2.84859E-05-2.86380E-05 2.07965E-07 2.79122E-19 1.59759E-19
 -1      2920 9.53359E-05-2.84763E-05-2.86521E-05 2.61503E-07 6.91553E-19-4.47683E-19
 -1      2921 9.53131E-05-2.84202E-05-2.86693E-05 3.32029E-07 3.31772E-19-9.83730E-19
 -1      2922 9.52770E-05-2.85074E-05-2.86157E-05 1.19529E-07 9.22716E-20 2.51638E-19
 -1      2923 9.52955E-05-2.84987E-05-2.86257E-05 1.58344E-07 4.48587E-19 6.17934E-19
 -1      2924 9.52856E-05-2.84589E-05-2.86407E-05 2.09085E-07-6.50964E-20 3.35588E-20
 -1      2925 9.52576E-05-2.85254E-05-2.85996E-05 5.68124E-08-3.59192E-19 3.09511E-19
 -1      2926 9.52689E-05-2.85177E-05-2.86066E-05 8.39944E-08-3.35227E-19 3.39012E-19
 -1      2927 9.52667E-05-2.84902E-05-2.86190E-05 1.19414E-07-2.93995E-19-5.85253E-19
 -1      2928 9.52466E-05-2.85405E-05-2.85882E-05 1.46262E-08 1.14204E-19 6.15341E-19
 -1      2929 9.52524E-05-2.85340E-05-2.85929E-05 3.22471E-08 1.02605E-19 1.17557E-18
 -1      2930 9.52542E-05-2.85153E-05-2.86028E-05 5.60831E-08-7.41466E-19-7.22003E-19
 -1      2931 9.52418E-05-2.85507E-05-2.85817E-05-8.02893E-09-1.53679E-19 1.06409E-18
 -1      2932 9.52441E-05-2.85445E-05-2.85851E-05 2.79441E-09 4.45909E-20 4.74797E-19
 -1      2933 9.52477E-05-2.85324E-05-2.85927E-05 1.81759E-08 5.23117E-19-1.26425E-18
 -1      2934 9.52452E-05-2.85449E-05-2.85863E-05-2.88657E-09-1.47373E-19-5.87122E-19
 -1      2935 9.52257E-05-2.85214E-05-2.85877E-05-3.22444E-10-1.60284E-19 6.28939E-19
 -1      2936 9.52263E-05-2.85222E-05-2.85875E-05-3.17151E-10 8.27502E-19-5.57519E-19
 -1      2937 9.52430E-05-2.85593E-05-2.85784E-05 1.97250E-08-7.08627E-19-4.92078E-19
 -1      2938 9.52425E-05-2.85644E-05-2.85763E-05 2.33273E-08-5.17431E-19-3.03601E-19
 -1      2939 9.52444E-05-2.85638E-05-2.85775E-05 2.12853E-08-4.29740E-19-1.67836E-18
 -1      2940 9.52454E-05-2.85513E-05-2.85835E-05 1.11354E-08-5.21327E-19 1.06073E-18
 -1      2941 9.52335E-05-2.85336E-05-2.85859E-05-4.65307E-10 1.09066E-18-1.23445E-18
 -1      2942 9.52360E-05-2.85370E-05-2.85852E-05-2.49708E-09 2.05134E-18-9.20109E-19
 -1      2943 9.52269E-05-2.85226E-05-2.85876E-05-1.74347E-09 2.04954E-19 8.82168E-19
 -1      2944 9.52259E-05-2.85216E-05-2.85877E-05-1.84302E-09-5.36658E-19 6.01983E-19
 -1      2945 9.52188E-05-2.84977E-05-2.85944E-05-1.21748E-09 2.35442E-19 4.61953E-19
 -1      2946 9.52282E-05-2.85253E-05-2.85871E-05 7.26789E-10 2.91841E-19-1.48198E-18
 -1      2947 9.52301E-05-2.85277E-05-2.85867E-05-1.17243E-11 7.69886E-19-1.22352E-18
 -1      2948 9.52266E-05-2.85100E-05-2.85926E-05 4.26318E-09 3.56326E-19-1.54467E-18
 -1      2949 9.52207E-05-2.85008E-05-2.85939E-05 2.59833E-09 1.26870E-18-6.32833E-19
 -1      2950 1.17584E-04-5.73318E-05-2.60555E-05 2.70978E-05-1.64261E-18-1.89930E-18
 -1      2951 1.05160E-04-5.28117E-05-2.20435E-05 3.30198E-05-2.12394E-18-1.06018E-18
 -1      2952 9.52313E-05-2.85286E-05-2.85868E-05-1.57012E-09 8.73304E-19-3.07417E-18
 -1      2953 9.52290E-05-2.85260E-05-2.85872E-05-2.55670E-09 3.50945E-19-2.45435E-20
 -1      2954 9.52215E-05-2.85014E-05-2.85940E-05-4.77666E-09 4.67403E-19 7.16483E-19
 -1      2955 9.52375E-05-2.85382E-05-2.85853E-05 1.69430E-09 6.83270E-19-3.74313E-18
 -1      2956 9.52348E-05-2.85347E-05-2.85860E-05-7.30388E-10 8.30413E-19-3.33124E-18
 -1      2957 9.52280E-05-2.85111E-05-2.85928E-05-5.81647E-09 2.88897E-19-3.03812E-18
 -1      2958 9.52431E-05-2.85496E-05-2.85829E-05 8.45557E-09-1.18648E-18-1.78794E-19
 -1      2959 9.52413E-05-2.85458E-05-2.85840E-05 4.51652E-09 1.49858E-19-3.36234E-18
 -1      2960 9.52362E-05-2.85248E-05-2.85904E-05-2.71617E-09 5.46740E-19-4.11432E-18
 -1      2961 9.52454E-05-2.85606E-05-2.85791E-05 1.66748E-08-1.33150E-18 3.48749E-19
 -1      2962 9.64152E-05-2.73239E-05-2.96059E-05-2.53524E-06 1.07447E-18-1.05027E-19
 -1      2963 9.63170E-05-2.69803E-05-2.96886E-05-1.67511E-06 1.23984E-18 1.43284E-20
 -1      2964 9.63304E-05-2.69692E-05-2.97395E-05-2.98362E-06 1.05636E-18-2.17300E-19
 -1      2965 9.66548E-05-5.05052E-05-1.92980E-05-3.50909E-05 3.45049E-18 1.63361E-18
 -1      2966 1.14244E-04-5.81815E-05-2.42393E-05-2.97337E-05 2.85895E-18-3.68698E-19
 -1      2967 8.81186E-05-4.54826E-05-1.82560E-05 3.89782E-05-1.86443E-18 3.69253E-19
 -1      2968 7.07334E-05-3.59299E-05-1.43930E-05 3.80539E-05-1.91567E-18 6.21299E-19
 -1      2969 5.77048E-05-2.91492E-05-1.16886E-05-3.53484E-05-1.72022E-18-3.84945E-18
 -1      2970 7.57753E-05-3.95581E-05-1.54429E-05-4.00205E-05-1.81180E-18-2.67631E-18
 -1      2971 1.31215E-04-1.25982E-05-5.14674E-05-1.86855E-06-4.45730E-18 1.13557E-18
 -1      2972 1.34413E-04-1.69283E-05-5.11630E-05-9.07125E-06-3.87094E-18 1.42672E-18
 -1      2973 9.32723E-05-4.85274E-05-1.90173E-05 3.67697E-05 1.36711E-18 7.38507E-20
 -1      2974 7.43391E-05-3.85411E-05-1.49167E-05 3.68932E-05 2.00694E-18-1.47458E-18
 -1      2975 9.82330E-05-2.90968E-05-2.96273E-05-5.63826E-06 2.85214E-19 4.81974E-20
 -1      2976 9.76848E-05-2.87263E-05-2.95430E-05-5.38157E-06 4.69779E-19-6.17994E-20
 -1      2977 9.71511E-05-2.82599E-05-2.95378E-05-5.54465E-06 4.68559E-19-2.38576E-19
 -1      2978 9.79435E-05-2.90297E-05-2.95485E-05-6.28309E-06 1.64701E-19-2.55005E-20
 -1      2979 9.57612E-05-2.35091E-05-3.09535E-05-3.13369E-06-1.27524E-18-1.74276E-18
 -1      2980 9.58216E-05-2.44506E-05-3.05976E-05-1.36490E-06-1.05676E-18-1.69454E-18
 -1      2981 9.54029E-05-2.37562E-05-3.07079E-05-8.25552E-07-9.81663E-19-1.85486E-18
 -1      2982 9.62634E-05-2.65572E-05-2.98723E-05-6.16754E-07 1.47234E-18-1.31231E-19
 -1      2983 9.63138E-05-2.60481E-05-3.00774E-05 6.12573E-07 1.56945E-18-9.50373E-20
 -1      2984 9.59584E-05-2.46727E-05-3.05527E-05 1.58300E-06 1.73567E-18-4.41420E-19
 -1      2985 9.61510E-05-2.60823E-05-3.00396E-05-1.02257E-06 1.40207E-18-3.41253E-19
 -1      2986 9.30449E-05-1.75666E-05-3.23455E-05-7.14648E-06-1.57780E-18-2.47434E-18
 -1      2987 6.10259E-05-3.18560E-05-1.19907E-05-3.48237E-05 2.34660E-18 2.95604E-18
 -1      2988 7.69888E-05-4.07341E-05-1.55198E-05-3.81711E-05 2.64920E-18 2.91422E-18
 -1      2989 6.14120E-05-2.75733E-05-1.39485E-05-3.03254E-05 1.64250E-18 2.54195E-18
 -1      2990 1.33775E-04-1.88847E-05-4.97165E-05 1.20257E-05-3.41100E-18-8.82502E-19
 -1      2991 1.31716E-04-1.42151E-05-5.10998E-05 5.76550E-06-3.86586E-18 1.83250E-19
 -1      2992 1.33907E-04-5.55722E-05-3.41078E-05 7.85404E-06 5.38395E-19-3.45531E-18
 -1      2993 1.27048E-04-5.79454E-05-2.94504E-05 1.76146E-05-8.94043E-19-2.35306E-18
 -1      2994 1.22233E-04-5.64281E-05-2.80268E-05 1.83467E-05-1.54568E-18-2.38649E-18
 -1      2995 1.23309E-04-8.83908E-06-4.97801E-05-1.36640E-06 4.33490E-18-1.08226E-18
 -1      2996 1.24704E-04-1.10734E-05-4.92167E-05-7.02010E-06 4.73767E-18-1.95453E-18
 -1      2997 1.37163E-04-5.27513E-05-3.61963E-05-4.35588E-06-4.23516E-21 4.12823E-19
 -1      2998 1.39155E-04-4.66232E-05-4.02129E-05 1.88021E-06 7.50048E-19 9.63923E-19
 -1      2999 9.46925E-05-4.85699E-05-1.92630E-05-3.71429E-05-1.90773E-18-1.48850E-18
 -1      3000 1.06860E-04-5.45683E-05-2.25553E-05-3.43352E-05-1.72043E-18-1.57723E-18
 -1      3001 1.15236E-04-5.81185E-05-2.46765E-05 2.88997E-05 8.81338E-19 1.05878E-18
 -1      3002 1.04321E-04-5.36157E-05-2.12578E-05 3.30211E-05 1.16901E-18 5.10920E-19
 -1      3003 9.74693E-05-4.81554E-05-2.09385E-05 3.27094E-05 1.41814E-18 1.11385E-19
 -1      3004 1.37508E-04-3.79192E-05-4.29769E-05 8.17852E-06 5.99911E-19 4.29552E-19
 -1      3005 1.32831E-04-2.83219E-05-4.55129E-05 1.15496E-05 7.53224E-19-6.75509E-20
 -1      3006 1.33781E-04-4.22054E-05-3.93917E-05 8.01303E-06-3.43154E-19 1.17886E-18
 -1      3007 9.01716E-05-1.47424E-05-3.23504E-05 3.46792E-06 1.82885E-18-2.10132E-18
 -1      3008 8.95691E-05-1.40674E-05-3.23835E-05 2.71475E-06 1.58979E-18-2.24481E-18
 -1      3009 9.02349E-05-1.53462E-05-3.20768E-05 1.89759E-06 1.40611E-18-2.11550E-18
 -1      3010 9.14873E-05-1.68491E-05-3.19665E-05 2.92618E-06 1.68875E-18-1.83665E-18
 -1      3011 8.93661E-05-1.38179E-05-3.24024E-05-2.74898E-06-3.01487E-19-2.80779E-18
 -1      3012 8.99521E-05-1.44691E-05-3.23741E-05-3.47009E-06-5.96610E-19-2.67974E-18
 -1      3013 1.19450E-04-5.79793E-05-2.61124E-05-2.58436E-05-1.81720E-18-1.29215E-18
 -1      3014 1.31770E-04-5.83611E-05-3.18234E-05-1.60951E-05-9.97170E-19-9.47777E-19
 -1      3015 1.32160E-04-5.53580E-05-3.29151E-05-7.48221E-06-1.08457E-18 8.13681E-19
 -1      3016 1.28232E-04-1.81425E-05-4.78925E-05-1.09110E-05 4.21738E-18-2.19546E-18
 -1      3017 1.32141E-04-2.74862E-05-4.51426E-05-1.22284E-05 3.61630E-18-2.86784E-18
 -1      3018 1.27414E-04-6.04122E-05-2.84248E-05-1.84764E-05 2.25713E-18-1.84314E-18
 -1      3019 1.36416E-04-6.06845E-05-3.29650E-05-9.93517E-06 1.42783E-18-2.55243E-18
 -1      3020 3.46197E-05-1.20588E-05-9.21163E-06 6.36330E-06-9.51192E-20 3.71847E-18
 -1      3021 3.42190E-05-1.24549E-05-8.66442E-06-6.64264E-06 4.15734E-19 2.73401E-18
 -1      3022 1.41862E-04-5.35467E-05-3.78652E-05 2.87364E-06 7.06690E-19-2.20589E-18
 -1      3023 1.42657E-04-4.60189E-05-4.21721E-05 1.07407E-05 1.33408E-19-1.63742E-18
 -1      3024 9.06892E-05-1.53594E-05-3.23118E-05-3.98065E-06-7.68422E-19-2.66515E-18
 -1      3025 9.14882E-05-1.63256E-05-3.22526E-05-4.71005E-06-1.04095E-18-2.78254E-18
 -1      3026 9.12078E-05-1.65088E-05-3.20000E-05-2.90949E-06-6.47893E-19-2.43623E-18
 -1      3027 8.91037E-05-1.40504E-05-3.21497E-05-1.02104E-07 6.49976E-19-2.53829E-18
 -1      3028 8.82238E-05-1.25381E-05-3.24567E-05-3.32352E-07 6.56503E-19-2.72755E-18
 -1      3029 8.83179E-05-1.26352E-05-3.24549E-05-1.01823E-06 3.80767E-19-2.73662E-18
 -1      3030 9.87084E-05-4.79156E-05-2.14969E-05 3.25555E-05-1.99990E-18-8.43962E-19
 -1      3031 9.52445E-05-2.85564E-05-2.85806E-05-1.33995E-08 1.23229E-18 9.76702E-20
 -1      3032 1.32403E-04-5.10903E-05-3.49140E-05 2.35869E-07 6.93184E-19-3.45896E-18
 -1      3033 1.28903E-04-2.41513E-05-4.53538E-05 1.20957E-05 6.42792E-19 3.16737E-19
 -1      3034 1.22543E-04-1.95085E-05-4.46592E-05 1.16473E-05 1.20861E-18 9.84729E-19
 -1      3035 1.26145E-04-2.95364E-05-4.16613E-05 1.27782E-05-3.17902E-19 1.58692E-18
 -1      3036 9.48087E-05-2.11447E-05-3.15788E-05 5.41227E-06 2.21116E-18-5.84982E-19
 -1      3037 1.29293E-04-3.34347E-05-4.13287E-05-1.21307E-05 2.75947E-18-2.29054E-18
 -1      3038 1.28363E-04-5.65259E-05-3.08087E-05 8.56352E-06 6.14734E-19 1.02493E-18
 -1      3039 9.52345E-05-2.85235E-05-2.85902E-05 2.11169E-09 1.91898E-18-1.38125E-19
 -1      3040 9.52397E-05-2.85444E-05-2.85839E-05-4.93624E-09 2.51109E-18 1.42307E-19
 -1      3041 9.52415E-05-2.85476E-05-2.85830E-05-8.11383E-09 2.47186E-18 1.22378E-18
 -1      3042 1.26736E-04-1.50643E-05-4.82682E-05 1.77708E-06-3.42498E-18-1.34678E-19
 -1      3043 1.21054E-04-5.78699E-05-2.68807E-05-2.08268E-05 3.20898E-18-1.67008E-18
 -1      3044 1.37311E-04-5.57066E-05-3.50599E-05 7.42893E-07 1.58063E-18-1.87374E-18
 -1      3045 4.03298E-05-1.35420E-05-1.08209E-05 1.30466E-05-5.92500E-19 2.35486E-18
 -1      3046 4.37471E-05-1.21964E-05-1.31979E-05 5.91237E-06-4.04392E-19 2.49451E-18
 -1      3047 4.74579E-05-1.61921E-05-1.31716E-05 1.90469E-05-1.36354E-18 4.81432E-19
 -1      3048 9.27085E-05-1.78424E-05-3.20912E-05-5.20005E-06-1.21670E-18-2.65257E-18
 -1      3049 9.46108E-05-2.05412E-05-3.17751E-05-5.85830E-06-1.61853E-18-2.12929E-18
 -1      3050 9.52076E-05-2.23021E-05-3.12428E-05-3.99925E-06-1.43230E-18-1.92666E-18
 -1      3051 9.30746E-05-1.89049E-05-3.17666E-05-3.74664E-06-1.01755E-18-2.47831E-18
 -1      3052 3.26825E-05-1.30275E-05-7.92452E-06 5.11024E-06 1.10055E-18-4.82555E-18
 -1      3053 3.18059E-05-1.30110E-05-7.45678E-06-7.66046E-06 3.74865E-19-5.48496E-18
 -1      3054 9.52450E-05-2.85480E-05-2.85845E-05 9.44351E-09-7.36533E-19 1.13982E-19
 -1      3055 9.52445E-05-2.85512E-05-2.85830E-05 9.82101E-09-1.57315E-18 5.55346E-19
 -1      3056 9.52425E-05-2.85345E-05-2.85888E-05 7.57536E-10-7.72826E-19-8.30365E-19
 -1      3057 9.52458E-05-2.85399E-05-2.85878E-05 2.17693E-09-8.86844E-19 1.01740E-18
 -1      3058 4.78142E-05-2.24017E-05-1.04688E-05-3.03465E-05-1.02067E-18-4.42056E-18
 -1      3059 6.10472E-05-2.67409E-05-1.41507E-05-3.10402E-05-1.38585E-18-3.48512E-18
 -1      3060 9.49316E-05-2.19870E-05-3.12522E-05 3.70765E-06 1.97138E-18-7.14525E-19
 -1      3061 9.10358E-05-4.49540E-05-1.92943E-05-3.34060E-05 3.05059E-18 1.31025E-18
 -1      3062 6.68142E-05-3.21388E-05-1.43339E-05 3.44115E-05 2.21436E-18-2.02346E-18
 -1      3063 6.00529E-05-2.53124E-05-1.44644E-05 2.87412E-05 1.84913E-18-2.07057E-18
 -1      3064 7.96944E-05-3.62069E-05-1.83873E-05 3.19897E-05 1.99272E-18-1.39946E-18
 -1      3065 8.75104E-05-4.26736E-05-1.88160E-05-3.56147E-05-1.98523E-18-2.05649E-18
 -1      3066 4.69568E-05-1.72164E-05-1.24309E-05 1.86773E-05 1.87491E-18-2.70182E-18
 -1      3067 3.88273E-05-1.45212E-05-9.74125E-06 1.21574E-05 1.44827E-18-4.12029E-18
 -1      3068 4.28434E-05-1.28876E-05-1.24052E-05 5.79904E-06 1.07600E-18-4.13045E-18
 -1      3069 1.39275E-04-3.68950E-05-4.41829E-05 1.53264E-05-9.08125E-19-1.71503E-18
 -1      3070 1.36297E-04-2.79871E-05-4.71467E-05 1.50436E-05-2.44157E-18-1.59962E-18
 -1      3071 4.35612E-05-1.50340E-05-1.16927E-05-1.31580E-05 1.68030E-19 3.35404E-18
 -1      3072 9.46860E-05-2.16321E-05-3.12994E-05-3.22971E-06-1.15849E-18-2.05767E-18
 -1      3073 8.85447E-05-1.28943E-05-3.24438E-05-1.53280E-06 2.33947E-19-2.78856E-18
 -1      3074 8.88824E-05-1.32537E-05-3.24326E-05-2.23186E-06-7.87521E-20-2.87830E-18
 -1      3075 8.99936E-05-1.50739E-05-3.20966E-05-1.98498E-06-2.32461E-19-2.55979E-18
 -1      3076 8.92873E-05-1.42625E-05-3.21403E-05-1.04523E-06 3.10947E-19-2.57299E-18
 -1      3077 1.37653E-04-4.92901E-05-3.80254E-05-9.89842E-06-1.32010E-18 1.77782E-18
 -1      3078 1.29919E-04-2.44432E-05-4.54877E-05 1.46987E-05-2.28191E-18-1.90413E-18
 -1      3079 1.21443E-04-1.03917E-05-4.81435E-05 2.62219E-06 3.50280E-18-6.37961E-19
 -1      3080 1.15277E-04-1.14150E-05-4.48182E-05 1.30701E-08 3.67252E-18 5.94829E-19
 -1      3081 1.18122E-04-1.27382E-05-4.56327E-05 7.13749E-06 2.81893E-18 5.90620E-19
 -1      3082 1.21197E-04-1.64442E-05-4.52539E-05-9.56835E-06 4.23326E-18-1.05191E-18
 -1      3083 1.15776E-04-5.55283E-05-2.55823E-05-2.51929E-05-1.97692E-18-1.25307E-18
 -1      3084 3.82511E-05-1.69095E-05-8.64803E-06-2.01927E-05-5.50042E-19-5.09088E-18
 -1      3085 9.40683E-05-2.09456E-05-3.13583E-05 2.83828E-06 1.78564E-18-1.07327E-18
 -1      3086 9.32272E-05-1.97352E-05-3.15033E-05 2.53415E-06 1.65941E-18-1.32684E-18
 -1      3087 9.49678E-05-2.48083E-05-3.00624E-05 3.28990E-06-7.28842E-19-1.66223E-18
 -1      3088 9.49194E-05-2.50610E-05-2.99399E-05 4.31013E-06-5.83671E-19-1.75378E-18
 -1      3089 9.46841E-05-2.51702E-05-2.97917E-05 5.21337E-06-6.01296E-19-1.66916E-18
 -1      3090 9.46203E-05-2.52697E-05-2.97177E-05 6.11365E-06-6.34766E-19-1.63870E-18
 -1      3091 9.40785E-05-2.43101E-05-2.98961E-05 4.52585E-06-5.70388E-19-1.69321E-18
 -1      3092 9.42737E-05-2.52380E-05-2.95919E-05 6.95519E-06-5.00947E-19-1.46611E-18
 -1      3093 9.42267E-05-2.52799E-05-2.95406E-05 7.79438E-06-3.31656E-19-1.30216E-18
 -1      3094 9.35060E-05-2.44361E-05-2.95957E-05 6.27427E-06-4.63152E-19-1.23746E-18
 -1      3095 9.38091E-05-2.52057E-05-2.94106E-05 8.62796E-06-1.51825E-19-1.17916E-18
 -1      3096 9.38240E-05-2.52956E-05-2.93566E-05 9.44494E-06 6.82341E-21-9.33608E-19
 -1      3097 9.27501E-05-2.43486E-05-2.93078E-05 7.93879E-06-1.83677E-19-1.14574E-18
 -1      3098 9.33938E-05-2.53006E-05-2.91940E-05 1.03239E-05 2.39946E-19-7.68778E-19
 -1      3099 9.35613E-05-2.55870E-05-2.91122E-05 1.11365E-05 2.79764E-19-3.61514E-19
 -1      3100 9.18995E-05-2.42721E-05-2.89763E-05 9.62978E-06 2.69503E-19-6.65011E-19
 -1      3101 9.32314E-05-2.58477E-05-2.88885E-05 1.21168E-05 1.57810E-19-2.20582E-19
 -1      3102 9.37282E-05-2.65527E-05-2.87587E-05 1.29173E-05 3.09614E-19-2.41637E-19
 -1      3103 9.11106E-05-2.45091E-05-2.85416E-05 1.14731E-05 3.52617E-19-7.56209E-19
 -1      3104 9.37172E-05-2.73313E-05-2.84508E-05 1.40551E-05 2.95497E-19-2.08980E-19
 -1      3105 9.48536E-05-2.87736E-05-2.82706E-05 1.47898E-05 4.00032E-19-3.31912E-19
 -1      3106 9.06890E-05-2.55076E-05-2.79470E-05 1.36200E-05 3.40106E-19-6.47357E-19
 -1      3107 9.55645E-05-3.04427E-05-2.78782E-05 1.61087E-05 6.89601E-19 2.55295E-19
 -1      3108 9.77959E-05-3.30204E-05-2.76906E-05 1.66257E-05 9.87252E-19 5.18091E-19
 -1      3109 9.12063E-05-2.79261E-05-2.71590E-05 1.62344E-05 8.10295E-19 9.10560E-21
 -1      3110 9.98600E-05-3.58900E-05-2.72792E-05 1.79376E-05 1.02915E-18 5.60001E-19
 -1      3111 1.03539E-04-4.00801E-05-2.71918E-05 1.80416E-05 1.04217E-18 5.76697E-19
 -1      3112 9.37628E-05-3.26966E-05-2.62209E-05 1.93817E-05 1.08264E-18 5.32016E-19
 -1      3113 1.11665E-04-4.69203E-05-2.75588E-05 1.72510E-05 1.26416E-18 8.27038E-19
 -1      3114 1.16692E-04-5.14573E-05-2.79426E-05 1.56939E-05 1.43053E-18 7.42477E-19
 -1      3115 1.23950E-04-5.69257E-05-2.87756E-05 1.53847E-05 7.96846E-19 1.10804E-18
 -1      3116 1.03017E-04-4.29204E-05-2.58036E-05 2.14326E-05 1.18573E-18 8.18287E-19
 -1      3117 1.37052E-04-2.22287E-05-4.96309E-05-1.06392E-05-4.03103E-18 1.62350E-18
 -1      3118 1.25128E-04-2.22523E-05-4.46531E-05-1.35555E-05-3.34430E-18 4.53163E-19
 -1      3119 1.23462E-04-1.69422E-05-4.62620E-05-7.12005E-06-3.46765E-18 2.43522E-20
 -1      3120 1.23253E-04-1.62221E-05-4.63164E-05 1.38366E-06-3.04508E-18-5.58949E-19
 -1      3121 1.24073E-04-1.86346E-05-4.58616E-05 1.00655E-05-2.16692E-18-9.43489E-19
 -1      3122 1.26718E-04-2.53297E-05-4.37730E-05 1.42315E-05-1.84780E-18-2.08852E-18
 -1      3123 1.29197E-04-3.34661E-05-4.17400E-05 1.80350E-05-9.97487E-19-2.51479E-18
 -1      3124 9.46647E-05-2.22722E-05-3.10217E-05-1.60828E-06-8.96814E-19-2.10445E-18
 -1      3125 9.48662E-05-2.32160E-05-3.07200E-05-1.31907E-07-8.94145E-19-2.02978E-18
 -1      3126 1.11679E-04-4.74779E-05-2.74882E-05-1.65342E-05 1.38216E-18-7.95423E-19
 -1      3127 1.06418E-04-4.25683E-05-2.71682E-05-1.76863E-05 1.03551E-18-9.46723E-19
 -1      3128 1.02368E-04-3.82471E-05-2.74016E-05-1.68777E-05 8.90960E-19-1.20901E-18
 -1      3129 9.88559E-05-3.44917E-05-2.74941E-05-1.67865E-05 6.27378E-19-1.09307E-18
 -1      3130 9.83120E-05-3.87485E-05-2.56355E-05-2.10266E-05 1.01695E-18-6.56226E-19
 -1      3131 9.70160E-05-3.17625E-05-2.78999E-05-1.54040E-05 6.25491E-19-1.21428E-18
 -1      3132 9.50245E-05-2.94244E-05-2.80900E-05-1.47854E-05 4.20315E-19-1.03768E-18
 -1      3133 9.28812E-05-3.12906E-05-2.64738E-05-1.78788E-05 5.96970E-19-1.04418E-18
 -1      3134 9.44442E-05-2.79514E-05-2.84527E-05-1.34591E-05 2.02513E-19-1.41792E-18
 -1      3135 9.34532E-05-2.66890E-05-2.86151E-05-1.26643E-05 3.40498E-19-1.52591E-18
 -1      3136 9.07466E-05-2.69760E-05-2.73617E-05-1.47747E-05 1.27181E-19-1.64783E-18
 -1      3137 9.34979E-05-2.60438E-05-2.88811E-05-1.15295E-05-4.35301E-20-1.59192E-18
 -1      3138 9.30687E-05-2.54736E-05-2.89809E-05-1.07040E-05-5.44490E-19-2.55109E-18
 -1      3139 9.03704E-05-2.48915E-05-2.80681E-05-1.21993E-05-1.18861E-19-2.55428E-18
 -1      3140 9.33792E-05-2.53170E-05-2.91516E-05-9.74379E-06-1.33945E-19-1.97333E-18
 -1      3141 9.32295E-05-2.51490E-05-2.91915E-05-8.94837E-06 1.43384E-19-1.17215E-18
 -1      3142 9.07987E-05-2.41467E-05-2.85592E-05-1.01005E-05-1.21032E-19-1.05982E-18
 -1      3143 9.36169E-05-2.52536E-05-2.92860E-05-8.12783E-06 4.58821E-19-6.59297E-19
 -1      3144 9.35886E-05-2.52986E-05-2.92811E-05-7.39269E-06 3.52820E-19-2.71518E-19
 -1      3145 9.15249E-05-2.41509E-05-2.88646E-05-8.35388E-06 5.68622E-19-6.48962E-19
 -1      3146 9.39614E-05-2.55230E-05-2.93210E-05-6.68728E-06-2.61915E-19-8.35865E-19
 -1      3147 9.39748E-05-2.56664E-05-2.92875E-05-6.02838E-06-2.47585E-19-1.00303E-18
 -1      3148 9.22920E-05-2.45332E-05-2.90293E-05-6.86896E-06-2.45654E-19-1.21860E-18
 -1      3149 9.42955E-05-2.59295E-05-2.92916E-05-5.42316E-06-5.09946E-19-1.61043E-18
 -1      3150 9.43152E-05-2.61070E-05-2.92428E-05-4.84779E-06-1.15247E-19-1.86848E-18
 -1      3151 9.29834E-05-2.50719E-05-2.90962E-05-5.59369E-06-5.55144E-19-1.85437E-18
 -1      3152 9.45743E-05-2.63656E-05-2.92252E-05-4.33310E-06 2.05791E-20-2.19204E-18
 -1      3153 9.45876E-05-2.65436E-05-2.91706E-05-3.84213E-06-2.50117E-19-1.77415E-18
 -1      3154 9.35583E-05-2.56428E-05-2.90998E-05-4.50000E-06-2.13564E-19-1.61363E-18
 -1      3155 9.47888E-05-2.67772E-05-2.91415E-05-3.41008E-06-3.25606E-19-2.05652E-18
 -1      3156 9.47933E-05-2.69397E-05-2.90873E-05-2.99970E-06-5.20541E-19-1.62102E-18
 -1      3157 9.40138E-05-2.61817E-05-2.90659E-05-3.57078E-06-4.36276E-20-2.90157E-18
 -1      3158 9.49451E-05-2.71406E-05-2.90535E-05-2.64230E-06-8.36076E-19-1.52809E-18
 -1      3159 9.49425E-05-2.72814E-05-2.90033E-05-2.30556E-06-4.68881E-19-2.36087E-18
 -1      3160 9.43629E-05-2.66594E-05-2.90123E-05-2.79188E-06-5.41987E-19-2.91529E-18
 -1      3161 9.50546E-05-2.74488E-05-2.89692E-05-2.01435E-06-2.78871E-20-2.30845E-18
 -1      3162 9.50476E-05-2.75668E-05-2.89248E-05-1.74268E-06-7.77248E-19-2.12478E-18
 -1      3163 9.46242E-05-2.70664E-05-2.89510E-05-2.14874E-06-3.27406E-19-2.42496E-18
 -1      3164 9.51290E-05-2.77032E-05-2.88928E-05-1.50899E-06-8.66667E-19-1.01256E-18
 -1      3165 9.51198E-05-2.77999E-05-2.88548E-05-1.29328E-06-5.18557E-19-6.47652E-19
 -1      3166 9.48161E-05-2.74041E-05-2.88894E-05-1.62587E-06-2.89596E-19-2.17864E-18
 -1      3167 9.51779E-05-2.79090E-05-2.88262E-05-1.10859E-06 6.31029E-19 6.20130E-19
 -1      3168 9.51683E-05-2.79870E-05-2.87946E-05-9.39924E-07 7.49063E-19 1.56094E-18
 -1      3169 9.49547E-05-2.76785E-05-2.88318E-05-1.20738E-06 1.25014E-18-1.68232E-19
 -1      3170 9.52091E-05-2.80729E-05-2.87699E-05-7.96176E-07-2.01292E-19 2.27266E-18
 -1      3171 9.52001E-05-2.81348E-05-2.87442E-05-6.66284E-07 1.83272E-19 2.80578E-18
 -1      3172 9.50533E-05-2.78979E-05-2.87804E-05-8.77632E-07 1.22686E-18 1.81128E-18
 -1      3173 9.52281E-05-2.82017E-05-2.87235E-05-5.56131E-07-2.80323E-19 2.88065E-18
 -1      3174 9.52203E-05-2.82502E-05-2.87029E-05-4.57653E-07 5.61305E-20 2.52947E-18
 -1      3175 9.51222E-05-2.80707E-05-2.87361E-05-6.21842E-07-3.52804E-19 2.83225E-18
 -1      3176 9.52390E-05-2.83015E-05-2.86858E-05-3.74619E-07 3.17637E-19 2.37306E-18
 -1      3177 9.52325E-05-2.83392E-05-2.86697E-05-3.01213E-07 3.46787E-19 1.70666E-18
 -1      3178 9.51692E-05-2.82050E-05-2.86988E-05-4.26589E-07 1.60018E-19 1.31095E-18
 -1      3179 9.52446E-05-2.83781E-05-2.86558E-05-2.39755E-07 3.99209E-19 1.21766E-18
 -1      3180 9.52394E-05-2.84071E-05-2.86432E-05-1.86113E-07 8.22829E-19 1.56990E-19
 -1      3181 9.52003E-05-2.83082E-05-2.86681E-05-2.80102E-07-1.59197E-19 6.60831E-19
 -1      3182 9.52468E-05-2.84364E-05-2.86321E-05-1.41618E-07-7.14032E-21-6.26278E-19
 -1      3183 9.52429E-05-2.84586E-05-2.86224E-05-1.03430E-07-2.76599E-19-1.97839E-18
 -1      3184 9.52202E-05-2.83867E-05-2.86430E-05-1.72352E-07-7.24133E-19-1.22331E-18
 -1      3185 9.52470E-05-2.84807E-05-2.86134E-05-7.22119E-08-1.12167E-19-2.82127E-18
 -1      3186 9.52443E-05-2.84979E-05-2.86059E-05-4.60823E-08 3.04803E-19-2.55052E-18
 -1      3187 9.52322E-05-2.84460E-05-2.86227E-05-9.51515E-08-7.36988E-19-2.80850E-18
 -1      3188 9.52467E-05-2.85138E-05-2.85992E-05-2.70699E-08 2.32275E-18-1.60509E-18
 -1      3189 9.52448E-05-2.85275E-05-2.85933E-05-1.01407E-08 1.26311E-18 7.39491E-19
 -1      3190 9.52429E-05-2.85237E-05-2.85943E-05-1.10824E-08 8.78282E-19-5.82228E-19
 -1      3191 9.52393E-05-2.84906E-05-2.86068E-05-4.38776E-08 2.04393E-18-1.51730E-18
 -1      3192 1.00365E-04-3.17691E-05-2.94021E-05-7.14543E-06 1.24305E-19-1.61614E-19
 -1      3193 9.94422E-05-3.08430E-05-2.93766E-05-7.34359E-06 3.48079E-19-1.55051E-19
 -1      3194 9.86844E-05-3.00564E-05-2.94104E-05-7.20961E-06 2.45088E-19-5.42809E-19
 -1      3195 9.80042E-05-2.93770E-05-2.93964E-05-7.11383E-06 7.39465E-20-3.03729E-19
 -1      3196 9.81945E-05-3.02160E-05-2.91596E-05-7.94663E-06 1.13447E-19-5.63896E-19
 -1      3197 1.05730E-04-3.67199E-05-2.96026E-05-4.54909E-06-3.30112E-19 4.12904E-20
 -1      3198 1.04355E-04-3.54214E-05-2.94967E-05-5.67980E-06-8.35775E-20-3.19533E-19
 -1      3199 1.09150E-04-3.92590E-05-2.99953E-05-1.44420E-06-4.51149E-19 8.25226E-19
 -1      3200 1.07800E-04-3.81913E-05-2.97786E-05-3.16825E-06-2.84477E-19 7.08337E-19
 -1      3201 1.06606E-04-3.83188E-05-2.93153E-05-5.52043E-06-6.83512E-19-2.02717E-20
 -1      3202 1.12222E-04-4.05097E-05-3.07841E-05 2.97393E-06-5.66217E-19 7.07213E-19
 -1      3203 1.11322E-04-4.03229E-05-3.03916E-05 7.88514E-07-5.55357E-19 8.35042E-19
 -1      3204 1.10926E-04-4.12562E-05-2.98947E-05-2.09090E-06-6.06612E-19 4.73418E-19
 -1      3205 1.13707E-04-3.88642E-05-3.21021E-05 7.91691E-06 6.94418E-20 9.03899E-19
 -1      3206 1.13773E-04-4.03234E-05-3.14948E-05 5.83795E-06-3.61895E-19 6.95828E-19
 -1      3207 1.14819E-04-4.23559E-05-3.10649E-05 3.02154E-06-3.65488E-19 6.25342E-19
 -1      3208 1.12482E-04-3.32905E-05-3.39084E-05 1.12418E-05 2.86436E-19 1.23312E-18
 -1      3209 1.13709E-04-3.66231E-05-3.31440E-05 1.03713E-05 2.30321E-19 1.28999E-18
 -1      3210 1.16509E-04-3.95709E-05-3.29741E-05 8.80518E-06-5.24433E-20 8.91608E-19
 -1      3211 1.08643E-04-2.52349E-05-3.57019E-05 1.01811E-05 5.86676E-19 1.72172E-18
 -1      3212 1.10744E-04-2.92890E-05-3.50903E-05 1.15616E-05 5.21038E-19 1.51307E-18
 -1      3213 1.14896E-04-3.21962E-05-3.54352E-05 1.20811E-05 1.06409E-19 1.42827E-18
 -1      3214 1.07735E-04-1.71165E-05-3.89677E-05 2.40985E-06 1.72011E-18 1.45179E-18
 -1      3215 1.08820E-04-1.91697E-05-3.86135E-05 6.46535E-06 1.42755E-18 1.96187E-18
 -1      3216 1.09750E-04-2.72294E-05-3.55633E-05-1.14372E-05 9.79263E-19-6.89233E-19
 -1      3217 1.07999E-04-2.34958E-05-3.62043E-05-9.43309E-06 8.85401E-19-1.01264E-18
 -1      3218 1.13318E-04-3.51632E-05-3.36211E-05-1.15070E-05 1.22355E-18-9.39497E-19
 -1      3219 1.11815E-04-3.14765E-05-3.44010E-05-1.19725E-05 1.09536E-18-7.27362E-19
 -1      3220 1.13955E-04-2.97359E-05-3.60836E-05-1.26932E-05 1.06258E-18-1.78707E-18
 -1      3221 1.14032E-04-3.96476E-05-3.19002E-05-7.58961E-06 8.57325E-19-2.87412E-19
 -1      3222 1.13653E-04-3.77661E-05-3.25363E-05-9.40313E-06 1.19775E-18-2.39325E-19
 -1      3223 1.16352E-04-3.79465E-05-3.35951E-05-1.04920E-05 6.87208E-19-1.83165E-18
 -1      3224 1.12050E-04-4.03746E-05-3.06860E-05-2.54195E-06-2.21813E-19 1.22226E-19
 -1      3225 1.12737E-04-4.02653E-05-3.11154E-05-4.70296E-06 6.21643E-19 2.41762E-19
 -1      3226 1.15393E-04-4.19594E-05-3.15012E-05-4.98120E-06 2.35776E-19-4.92775E-19
 -1      3227 1.08649E-04-3.85575E-05-2.99869E-05 1.61617E-06-2.17446E-19-2.12205E-20
 -1      3228 1.09921E-04-3.94999E-05-3.02293E-05-1.74266E-07-1.94373E-19 2.59676E-19
 -1      3229 1.11796E-04-4.14907E-05-3.01710E-05 3.56235E-07-4.55304E-19 1.22712E-19
 -1      3230 1.05121E-04-3.58229E-05-2.96501E-05 4.32122E-06-1.44029E-18 2.75785E-19
 -1      3231 1.06497E-04-3.71078E-05-2.97699E-05 3.12073E-06-2.57788E-19 3.01874E-19
 -1      3232 1.07412E-04-3.87439E-05-2.94781E-05 4.07612E-06-2.20072E-19 7.30477E-19
 -1      3233 1.02136E-04-3.31850E-05-2.95138E-05 5.73732E-06-1.20306E-18-7.60429E-19
 -1      3234 1.03352E-04-3.43911E-05-2.95712E-05 5.07996E-06-1.55831E-18-3.58865E-19
 -1      3235 1.03472E-04-3.54622E-05-2.91930E-05 6.11815E-06-8.40561E-19-1.95042E-19
 -1      3236 9.98764E-05-3.10742E-05-2.94626E-05 6.21396E-06-6.57122E-19-9.97585E-19
 -1      3237 1.00843E-04-3.20283E-05-2.94982E-05 5.97166E-06-6.88369E-19-6.69454E-19
 -1      3238 1.00427E-04-3.25654E-05-2.91203E-05 6.92211E-06-9.16858E-19-1.87031E-19
 -1      3239 9.82810E-05-2.95748E-05-2.94316E-05 6.08127E-06-3.22621E-19-5.27523E-19
 -1      3240 9.90062E-05-3.02509E-05-2.94664E-05 6.12158E-06-4.45431E-19-6.42220E-19
 -1      3241 9.82931E-05-3.03761E-05-2.91328E-05 6.92668E-06-4.72675E-19-2.04907E-19
 -1      3242 9.72055E-05-2.86105E-05-2.93911E-05 5.59103E-06 9.48859E-19-6.92644E-19
 -1      3243 9.77330E-05-2.90475E-05-2.94330E-05 5.80446E-06 4.36049E-19-7.29149E-19
 -1      3244 9.69007E-05-2.88964E-05-2.91611E-05 6.46683E-06 1.20011E-19 1.37686E-19
 -1      3245 9.65021E-05-2.80544E-05-2.93326E-05 4.92000E-06 6.01777E-19-2.70778E-19
 -1      3246 9.68812E-05-2.83105E-05-2.93820E-05 5.22500E-06 6.23439E-19-1.02393E-18
 -1      3247 9.60473E-05-2.79983E-05-2.91737E-05 5.76698E-06 7.96051E-19-1.75382E-18
 -1      3248 9.60506E-05-2.77832E-05-2.92581E-05 4.18577E-06-1.63570E-19 5.83408E-19
 -1      3249 9.63232E-05-2.79133E-05-2.93123E-05 4.52558E-06 9.27507E-20-9.86423E-20
 -1      3250 9.55565E-05-2.75260E-05-2.91616E-05 4.97105E-06-2.01889E-20-1.42297E-18
 -1      3251 9.57639E-05-2.76965E-05-2.91738E-05 3.46285E-06 6.00576E-19-2.99594E-19
 -1      3252 9.59611E-05-2.77446E-05-2.92293E-05 3.80038E-06 6.37262E-19 8.72209E-19
 -1      3253 9.52956E-05-2.73408E-05-2.91267E-05 4.16851E-06 1.42344E-19-9.35646E-19
 -1      3254 9.55824E-05-2.77204E-05-2.90863E-05 2.79531E-06 1.82973E-19 2.10953E-20
 -1      3255 9.57264E-05-2.77189E-05-2.91400E-05 3.10822E-06 4.12055E-19-9.72083E-20
 -1      3256 9.51731E-05-2.73351E-05-2.90752E-05 3.41299E-06 7.23195E-19 1.19312E-19
 -1      3257 9.54669E-05-2.78035E-05-2.90013E-05 2.20598E-06 2.96746E-19 2.36636E-20
 -1      3258 9.55731E-05-2.77747E-05-2.90508E-05 2.48256E-06 4.49249E-19 5.56461E-20
 -1      3259 9.51290E-05-2.74311E-05-2.90144E-05 2.73420E-06 2.51152E-19-3.61557E-19
 -1      3260 9.53927E-05-2.79123E-05-2.89227E-05 1.70321E-06-2.64627E-19 1.05136E-18
 -1      3261 9.54714E-05-2.78710E-05-2.89666E-05 1.93903E-06-1.17038E-20 3.05986E-19
 -1      3262 9.51259E-05-2.75764E-05-2.89504E-05 2.14545E-06-3.28957E-19-8.69149E-19
 -1      3263 9.53442E-05-2.80264E-05-2.88527E-05 1.28608E-06 5.47924E-19 2.41493E-18
 -1      3264 9.54026E-05-2.79815E-05-2.88905E-05 1.48138E-06-1.89269E-19 1.81844E-18
 -1      3265 9.51415E-05-2.77374E-05-2.88879E-05 1.64908E-06-5.13632E-19 1.01960E-19
 -1      3266 9.53119E-05-2.81339E-05-2.87924E-05 9.48249E-07 1.75946E-21 2.01333E-18
 -1      3267 9.53551E-05-2.80908E-05-2.88240E-05 1.10601E-06 1.03277E-18 2.76624E-18
 -1      3268 9.51633E-05-2.78941E-05-2.88301E-05 1.24065E-06 8.94039E-20 1.90606E-18
 -1      3269 9.52899E-05-2.82292E-05-2.87418E-05 6.80517E-07-1.73978E-18 1.14645E-18
 -1      3270 9.53217E-05-2.81904E-05-2.87676E-05 8.05135E-07-9.28303E-19 1.56461E-18
 -1      3271 9.51850E-05-2.80358E-05-2.87786E-05 9.11809E-07-3.00992E-19 2.49057E-18
 -1      3272 9.52746E-05-2.83100E-05-2.87003E-05 4.72629E-07 1.69723E-19-4.94929E-19
 -1      3273 9.52978E-05-2.82767E-05-2.87209E-05 5.69021E-07-9.87250E-19-1.69573E-19
 -1      3274 9.52036E-05-2.81580E-05-2.87342E-05 6.52343E-07-7.35998E-19-4.54003E-19
 -1      3275 9.52638E-05-2.83762E-05-2.86670E-05 3.14438E-07 2.71550E-19-1.66358E-18
 -1      3276 9.52804E-05-2.83487E-05-2.86831E-05 3.87453E-07 6.89922E-19-1.07247E-18
 -1      3277 9.52180E-05-2.82594E-05-2.86969E-05 4.51553E-07 6.61809E-19-1.38636E-18
 -1      3278 9.52561E-05-2.84294E-05-2.86407E-05 1.96619E-07-1.74974E-19-5.06769E-19
 -1      3279 9.52677E-05-2.84070E-05-2.86531E-05 2.50692E-07-2.12041E-19-9.79650E-19
 -1      3280 9.52283E-05-2.83413E-05-2.86661E-05 2.99204E-07 6.50710E-20-9.10208E-19
 -1      3281 9.52507E-05-2.84713E-05-2.86202E-05 1.11069E-07-1.07595E-18-5.08806E-19
 -1      3282 9.52585E-05-2.84534E-05-2.86297E-05 1.50026E-07 3.33417E-19-8.41683E-19
 -1      3283 9.52352E-05-2.84062E-05-2.86413E-05 1.86070E-07-2.48720E-19-2.73278E-19
 -1      3284 9.52471E-05-2.85039E-05-2.86043E-05 5.12648E-08-3.58542E-19-1.03855E-18
 -1      3285 9.52519E-05-2.84900E-05-2.86115E-05 7.79220E-08-1.19733E-18-9.91287E-19
 -1      3286 9.52392E-05-2.84566E-05-2.86213E-05 1.04269E-07-8.23217E-19 5.59702E-19
 -1      3287 6.04774E-05-2.32262E-05-1.55520E-05-2.70027E-05-1.05651E-18-3.09426E-18
 -1      3288 6.92338E-05-2.99674E-05-1.67566E-05-3.24243E-05-1.52101E-18-2.51352E-18
 -1      3289 1.22358E-04-2.88987E-05-4.05824E-05-1.34441E-05 2.69981E-18-2.22807E-18
 -1      3290 1.26799E-04-3.75716E-05-3.81787E-05-1.22640E-05 1.73869E-18-2.57472E-18
 -1      3291 9.01593E-05-1.59307E-05-3.18254E-05 7.80212E-07 1.04287E-18-2.11411E-18
 -1      3292 8.98646E-05-1.56018E-05-3.18429E-05 3.30301E-07 7.40496E-19-2.34401E-18
 -1      3293 9.52227E-05-2.84915E-05-2.85990E-05-1.38641E-08 1.64901E-19-4.05974E-18
 -1      3294 9.52178E-05-2.84854E-05-2.85999E-05-1.35299E-08 8.53704E-20-1.53937E-18
 -1      3295 9.52079E-05-2.84715E-05-2.86015E-05-2.85491E-09 5.14095E-19-1.55562E-19
 -1      3296 9.52076E-05-2.84713E-05-2.86014E-05 1.49879E-10 1.18009E-18 3.27936E-20
 -1      3297 1.28941E-04-4.68031E-05-3.57146E-05-5.85186E-06 8.83191E-19-3.01475E-18
 -1      3298 1.28308E-04-5.24608E-05-3.23333E-05 2.58098E-06-2.52853E-19-3.25795E-18
 -1      3299 9.52342E-05-2.85107E-05-2.85958E-05-1.16562E-08 6.56802E-19-3.45705E-18
 -1      3300 9.52294E-05-2.85029E-05-2.85974E-05-1.41101E-08 5.68546E-19-4.08817E-18
 -1      3301 9.52199E-05-2.84748E-05-2.86047E-05-2.33184E-08 1.98976E-19-3.08925E-18
 -1      3302 9.52128E-05-2.84778E-05-2.86008E-05-1.01767E-08-6.11664E-19 4.02711E-19
 -1      3303 9.52099E-05-2.84744E-05-2.86012E-05-7.99262E-09 1.25233E-19 1.17141E-18
 -1      3304 9.51990E-05-2.84449E-05-2.86084E-05-7.70364E-09-8.73592E-20 2.81465E-19
 -1      3305 9.52069E-05-2.84556E-05-2.86073E-05-1.81029E-08 7.60795E-22 4.94490E-20
 -1      3306 1.32303E-04-5.77738E-05-3.16889E-05-5.28731E-06 2.40747E-18-2.31632E-18
 -1      3307 9.52419E-05-2.85403E-05-2.85863E-05-5.13032E-09 2.04385E-18 1.15505E-18
 -1      3308 9.60904E-05-2.65467E-05-2.98054E-05-3.38351E-06 8.53745E-19-3.54716E-19
 -1      3309 9.59781E-05-2.61217E-05-2.99250E-05-2.50070E-06 1.20390E-18-4.64786E-19
 -1      3310 6.37083E-05-3.18839E-05-1.31737E-05 3.72083E-05-2.15295E-18 9.63818E-19
 -1      3311 5.89041E-05-2.56887E-05-1.37633E-05 3.15206E-05-1.87485E-18 1.08219E-18
 -1      3312 9.55890E-05-2.37286E-05-3.07990E-05 2.03506E-06 1.72793E-18-6.72883E-19
 -1      3313 9.46993E-05-2.19984E-05-3.11495E-05 2.57301E-06 1.75426E-18-8.34885E-19
 -1      3314 9.47648E-05-2.26031E-05-3.09186E-05 1.26882E-06 1.56868E-18-8.76526E-19
 -1      3315 9.57079E-05-2.46004E-05-3.04818E-05 5.20815E-07 1.51020E-18-6.32165E-19
 -1      3316 1.23474E-04-5.92038E-05-2.75786E-05 1.99307E-05 6.69156E-19 1.11369E-18
 -1      3317 7.64357E-05-3.56770E-05-1.70741E-05 3.52259E-05-1.77136E-18 1.14529E-18
 -1      3318 1.14365E-04-5.40233E-05-2.54547E-05-2.29601E-05 2.97936E-18-1.31920E-18
 -1      3319 1.24264E-04-5.74523E-05-2.89822E-05-1.46879E-05 2.45240E-18-1.79257E-18
 -1      3320 1.36975E-04-4.03776E-05-4.14662E-05 1.53989E-05 3.23143E-19-2.43776E-18
 -1      3321 4.63897E-05-1.30919E-05-1.39725E-05-8.14806E-06-3.46886E-20 2.80548E-18
 -1      3322 5.13591E-05-1.73258E-05-1.41628E-05-1.95135E-05 1.58289E-19 3.28278E-18
 -1      3323 1.02712E-04-3.40390E-05-2.94443E-05-6.35661E-06 1.20529E-19-3.07028E-19
 -1      3324 1.01530E-04-3.28636E-05-2.93946E-05-6.95977E-06-7.32282E-21-2.23921E-19
 -1      3325 1.00092E-04-3.23053E-05-2.90880E-05-8.03165E-06 6.09798E-20-2.79896E-19
 -1      3326 1.02882E-04-3.50788E-05-2.91053E-05-7.35569E-06-1.34567E-19-2.50144E-19
 -1      3327 1.05537E-04-4.97064E-05-2.41313E-05 2.70390E-05-2.23146E-18-1.41611E-18
 -1      3328 9.19445E-05-4.19817E-05-2.10384E-05 3.11736E-05-2.08285E-18-1.02832E-18
 -1      3329 9.63703E-05-2.72627E-05-2.96152E-05-4.83935E-06 6.71338E-19-3.75941E-19
 -1      3330 9.61737E-05-2.69064E-05-2.96742E-05-4.17303E-06 6.84037E-19-2.51058E-19
 -1      3331 9.57128E-05-2.61257E-05-2.98306E-05-3.78084E-06 7.96827E-19-6.24312E-19
 -1      3332 1.25721E-04-5.55519E-05-3.00892E-05-9.27620E-06 2.37503E-18-1.65295E-18
 -1      3333 6.55240E-05-2.72163E-05-1.63072E-05 3.06288E-05-1.54308E-18 9.52965E-19
 -1      3334 5.61247E-05-2.10296E-05-1.44595E-05 2.62222E-05-1.42773E-18 3.15837E-19
 -1      3335 8.27319E-05-3.77984E-05-1.88573E-05-3.34815E-05-1.97316E-18-1.91297E-18
 -1      3336 9.80466E-05-4.70423E-05-2.20737E-05-3.17716E-05-2.05670E-18-1.42360E-18
 -1      3337 8.18284E-05-3.45096E-05-1.99207E-05-2.97334E-05-1.66122E-18-1.89365E-18
 -1      3338 5.81541E-05-2.21433E-05-1.50492E-05-2.49664E-05 7.85861E-19 2.47058E-18
 -1      3339 6.85539E-05-2.92997E-05-1.67812E-05-3.03012E-05 1.42233E-18 2.55158E-18
 -1      3340 6.01427E-05-1.96779E-05-1.69334E-05-1.97502E-05 5.46998E-19 2.40695E-18
 -1      3341 1.23709E-04-5.52329E-05-2.97256E-05 1.18944E-05-1.08616E-18-2.75569E-18
 -1      3342 1.16927E-04-5.34750E-05-2.68894E-05 1.89954E-05-1.60584E-18-2.13795E-18
 -1      3343 8.18899E-05-3.70754E-05-1.91465E-05 3.33586E-05-2.08148E-18-4.52898E-19
 -1      3344 7.58949E-05-3.30044E-05-1.79921E-05 3.23810E-05-2.19625E-18 7.73765E-19
 -1      3345 7.20879E-05-2.87157E-05-1.84012E-05 2.87022E-05-1.64608E-18 5.96099E-19
 -1      3346 9.08019E-05-3.95080E-05-2.18193E-05 2.87181E-05-2.32489E-18-9.25489E-19
 -1      3347 1.31966E-04-4.58931E-05-3.68600E-05 6.56642E-06-3.18326E-19 1.27103E-18
 -1      3348 1.28692E-04-3.84975E-05-3.91122E-05 1.08750E-05-4.18964E-19 7.06584E-19
 -1      3349 4.36427E-05-1.52010E-05-1.16443E-05-1.44958E-05-1.54954E-19-4.71967E-18
 -1      3350 9.50476E-05-2.39613E-05-3.04545E-05 1.04109E-06-8.02086E-19-1.88335E-18
 -1      3351 9.50461E-05-2.44613E-05-3.02577E-05 2.25589E-06-7.24908E-19-1.82379E-18
 -1      3352 9.43781E-05-2.37627E-05-3.02601E-05 2.57269E-06-6.25300E-19-1.90337E-18
 -1      3353 1.28020E-04-5.58334E-05-3.07249E-05-9.98171E-06-1.56886E-18 8.56853E-19
 -1      3354 1.31691E-04-5.25009E-05-3.43901E-05-9.12559E-07-5.20343E-19 1.56839E-18
 -1      3355 1.10736E-04-5.23899E-05-2.46897E-05-2.56878E-05-2.01038E-18-1.07079E-18
 -1      3356 1.20817E-04-5.66585E-05-2.78077E-05-1.92461E-05-1.96427E-18-5.43643E-19
 -1      3357 9.36519E-05-2.01401E-05-3.15239E-05-3.10609E-06-9.76900E-19-2.45631E-18
 -1      3358 9.41914E-05-2.12517E-05-3.12555E-05-2.29278E-06-9.03559E-19-2.29571E-18
 -1      3359 9.25622E-05-1.85945E-05-3.16989E-05-2.83945E-06-7.45374E-19-2.42111E-18
 -1      3360 8.44961E-05-3.87447E-05-1.91401E-05-3.18506E-05 2.84121E-18 1.54033E-18
 -1      3361 1.00726E-04-4.86382E-05-2.24826E-05-3.01014E-05 3.09262E-18-4.76774E-19
 -1      3362 1.14725E-04-1.48348E-05-4.32768E-05-7.41433E-06 3.84913E-18-1.39575E-19
 -1      3363 1.18295E-04-2.02423E-05-4.22015E-05-1.22668E-05 3.73944E-18-1.17997E-18
 -1      3364 4.46686E-05-1.29163E-05-1.31853E-05-7.15547E-06 1.15686E-19-4.50219E-18
 -1      3365 5.03208E-05-1.67769E-05-1.41351E-05-1.91227E-05-4.06682E-19-3.92663E-18
 -1      3366 8.96846E-05-1.53883E-05-3.18538E-05 6.35435E-08 7.08607E-19-2.45440E-18
 -1      3367 8.96443E-05-1.53409E-05-3.18562E-05-3.57924E-07 5.30280E-19-2.38202E-18
 -1      3368 9.04074E-05-1.67264E-05-3.15552E-05 1.20564E-08 6.67192E-19-2.23443E-18
 -1      3369 9.36653E-05-2.07591E-05-3.12417E-05-1.59342E-06-7.43242E-19-2.39874E-18
 -1      3370 1.26124E-04-3.44555E-05-3.95227E-05 1.26228E-05-2.99214E-19 1.25430E-18
 -1      3371 1.21337E-04-2.96189E-05-3.95797E-05 1.34412E-05 2.06200E-20 1.87859E-18
 -1      3372 1.24830E-04-3.83720E-05-3.71654E-05 1.11188E-05-8.47033E-22 1.14680E-18
 -1      3373 9.10710E-05-1.67653E-05-3.18514E-05-2.12786E-06-5.27456E-19-2.32037E-18
 -1      3374 9.17575E-05-1.76356E-05-3.17856E-05-2.52102E-06-7.90300E-19-2.30997E-18
 -1      3375 9.24092E-05-1.87516E-05-3.15563E-05-1.98890E-06-6.55149E-19-2.37375E-18
 -1      3376 1.28976E-04-4.86343E-05-3.45256E-05 3.24835E-06-5.09378E-19 1.16769E-18
 -1      3377 9.52271E-05-2.85013E-05-2.85971E-05 1.30624E-08 4.34279E-19-1.80208E-18
 -1      3378 9.52321E-05-2.85086E-05-2.85956E-05 1.15101E-08 1.07924E-18 6.39071E-19
 -1      3379 9.43251E-05-2.26222E-05-3.07353E-05 3.37439E-07-7.80819E-19-2.09912E-18
 -1      3380 1.19646E-04-5.20473E-05-2.86258E-05-1.33902E-05 2.16385E-18-1.09733E-18
 -1      3381 9.00310E-05-1.55534E-05-3.19299E-05-1.37156E-06 2.81133E-20-2.50925E-18
 -1      3382 9.04894E-05-1.60962E-05-3.18978E-05-1.79759E-06-2.72291E-19-2.45393E-18
 -1      3383 9.10832E-05-1.71210E-05-3.16901E-05-1.47216E-06-3.65906E-19-2.24182E-18
 -1      3384 4.62949E-05-1.23737E-05-1.40381E-05-9.70097E-07 6.65195E-19-4.36487E-18
 -1      3385 5.20861E-05-1.35810E-05-1.62427E-05-5.48054E-06 2.72268E-19-3.81493E-18
 -1      3386 4.98806E-05-1.34364E-05-1.54479E-05 5.85844E-06 1.18924E-18-3.43583E-18
 -1      3387 5.49699E-05-1.78128E-05-1.55897E-05 1.95909E-05-1.09400E-18 2.13188E-19
 -1      3388 9.70007E-05-2.87442E-05-2.92707E-05-7.37106E-06 9.56051E-20-5.78996E-19
 -1      3389 9.75494E-05-2.88377E-05-2.94440E-05-6.77017E-06-6.60602E-20-2.73913E-19
 -1      3390 9.70707E-05-2.83461E-05-2.94424E-05-6.45824E-06 7.98526E-20-5.17371E-19
 -1      3391 1.12678E-04-1.98697E-05-3.99929E-05 9.32022E-06 1.34911E-18 1.84267E-18
 -1      3392 1.06129E-04-2.03255E-05-3.69236E-05-5.66026E-06 1.48985E-18-2.83329E-19
 -1      3393 1.05269E-04-1.88880E-05-3.70242E-05-1.65158E-06 1.54122E-18 5.62116E-19
 -1      3394 8.04274E-05-3.33315E-05-1.98182E-05-2.80178E-05 1.79849E-18 1.07653E-18
 -1      3395 9.52461E-05-2.85125E-05-2.85997E-05 3.44084E-08-9.58793E-19-7.57021E-19
 -1      3396 9.52400E-05-2.84895E-05-2.86077E-05 5.28511E-08-1.06090E-18 1.56347E-18
 -1      3397 9.52442E-05-2.85196E-05-2.85961E-05 2.16338E-08-1.17706E-18 6.91703E-19
 -1      3398 5.94566E-05-1.99438E-05-1.66007E-05-2.08023E-05-8.06005E-19-2.94376E-18
 -1      3399 9.52163E-05-2.84844E-05-2.85997E-05 1.15937E-08 9.77837E-19-1.03389E-18
 -1      3400 9.52208E-05-2.84903E-05-2.85987E-05 1.23078E-08 1.15914E-18-1.50808E-18
 -1      3401 9.52176E-05-2.84734E-05-2.86043E-05 2.16992E-08 6.97923E-19-1.42843E-18
 -1      3402 1.24479E-04-4.14874E-05-3.55714E-05-9.40979E-06 6.43030E-19-2.96414E-18
 -1      3403 1.07198E-04-4.88560E-05-2.48562E-05-2.36107E-05 2.22214E-18-4.03962E-19
 -1      3404 1.10175E-04-4.92498E-05-2.60030E-05 2.02570E-05-1.90866E-18-1.83955E-18
 -1      3405 1.23755E-04-5.14070E-05-3.09168E-05 4.41112E-06-9.90559E-19-2.77626E-18
 -1      3406 9.52091E-05-2.84738E-05-2.86011E-05 5.46849E-09 1.49936E-18-2.23926E-19
 -1      3407 9.52117E-05-2.84770E-05-2.86006E-05 7.91798E-09 1.25825E-18-1.35230E-18
 -1      3408 9.52052E-05-2.84546E-05-2.86070E-05 1.57964E-08 1.54866E-18-5.38386E-19
 -1      3409 9.51983E-05-2.84445E-05-2.86083E-05 4.83684E-09 1.32468E-18-9.30603E-19
 -1      3410 1.12442E-04-1.44729E-05-4.23428E-05-4.67137E-06 3.50672E-18 3.03516E-19
 -1      3411 1.10200E-04-1.75669E-05-3.97179E-05-7.12681E-06 2.89638E-18 1.76031E-19
 -1      3412 9.52400E-05-2.85182E-05-2.85952E-05-1.18249E-08 2.22417E-19-1.71811E-18
 -1      3413 9.52375E-05-2.85155E-05-2.85954E-05-1.18863E-08 8.22478E-19-3.34849E-18
 -1      3414 9.52309E-05-2.84910E-05-2.86025E-05-2.46426E-08 6.30787E-19-3.78645E-18
 -1      3415 9.52388E-05-2.85018E-05-2.86011E-05-2.56143E-08 2.66843E-18-2.24859E-18
 -1      3416 9.34423E-05-2.04915E-05-3.12436E-05 1.38540E-06 1.44759E-18-1.44485E-18
 -1      3417 9.24518E-05-1.87277E-05-3.16154E-05 2.27421E-06 1.56574E-18-1.72079E-18
 -1      3418 9.17397E-05-1.78250E-05-3.16922E-05 1.83484E-06 1.52690E-18-1.99808E-18
 -1      3419 1.05846E-04-4.85298E-05-2.43244E-05-2.53948E-05-1.99111E-18-9.92001E-19
 -1      3420 9.08930E-05-4.08086E-05-2.09811E-05 3.03777E-05 1.93518E-18-6.85461E-19
 -1      3421 8.25548E-05-3.47968E-05-2.03513E-05 2.88378E-05 2.01080E-18-1.22560E-18
 -1      3422 5.71252E-05-2.08734E-05-1.50111E-05 2.34087E-05 1.81988E-18-2.27645E-18
 -1      3423 5.63580E-05-1.76164E-05-1.63431E-05 1.73015E-05 1.46963E-18-2.41934E-18
 -1      3424 6.79974E-05-2.52325E-05-1.81672E-05 2.51094E-05 1.75088E-18-2.04691E-18
 -1      3425 4.70431E-05-1.19192E-05-1.45445E-05-1.96557E-06-1.54008E-19 2.34480E-18
 -1      3426 5.29807E-05-1.37052E-05-1.65911E-05-8.01179E-06-1.59897E-19 2.99109E-18
 -1      3427 5.01359E-05-1.27488E-05-1.57553E-05 4.20205E-06-6.16408E-19 2.26962E-18
 -1      3428 9.65000E-05-2.75823E-05-2.95261E-05-5.47299E-06 5.58887E-19-3.27487E-19
 -1      3429 9.59269E-05-2.69128E-05-2.95873E-05-5.26510E-06 5.84394E-19-5.05317E-19
 -1      3430 9.68197E-05-2.79644E-05-2.95054E-05-5.96219E-06 2.61263E-19-3.47640E-19
 -1      3431 9.05834E-05-1.64345E-05-3.17944E-05 1.07018E-06 1.09597E-18-1.92522E-18
 -1      3432 9.10217E-05-1.74385E-05-3.15134E-05 4.65359E-07 9.04171E-19-1.90110E-18
 -1      3433 9.11058E-05-1.70469E-05-3.17547E-05 1.53364E-06 1.40633E-18-1.94650E-18
 -1      3434 9.52387E-05-2.85222E-05-2.85931E-05 8.61263E-09 1.67995E-18 2.46623E-18
 -1      3435 9.52427E-05-2.85320E-05-2.85902E-05 3.97673E-09 2.67677E-19 1.06832E-18
 -1      3436 9.52433E-05-2.85245E-05-2.85935E-05 1.30366E-08-2.09795E-19 1.06408E-18
 -1      3437 9.52323E-05-2.84984E-05-2.86000E-05 2.09398E-08-1.28547E-19 6.34759E-19
 -1      3438 1.16998E-04-2.59376E-05-3.92067E-05-1.24307E-05 2.25014E-18-1.91408E-18
 -1      3439 9.59302E-05-2.57672E-05-3.00737E-05-1.66253E-06 1.33923E-18-4.95396E-19
 -1      3440 9.58456E-05-2.51760E-05-3.02751E-05-5.07621E-07 1.36009E-18-6.01986E-19
 -1      3441 9.54271E-05-2.42543E-05-3.05004E-05-1.28954E-07 1.36730E-18-7.93798E-19
 -1      3442 9.55919E-05-2.52928E-05-3.01339E-05-2.07873E-06 1.23286E-18-7.51351E-19
 -1      3443 1.17550E-04-1.81494E-05-4.28493E-05 9.20850E-06 1.28765E-18 1.68242E-18
 -1      3444 1.10002E-04-4.89617E-05-2.63377E-05-2.02401E-05 1.57336E-18 4.40854E-20
 -1      3445 9.91013E-05-4.60072E-05-2.27511E-05 2.88177E-05 1.46981E-18 8.90179E-20
 -1      3446 1.10157E-04-5.19103E-05-2.45550E-05 2.53734E-05 1.49949E-18 1.06837E-18
 -1      3447 1.02441E-04-4.54722E-05-2.44083E-05 2.47879E-05 1.58123E-18 5.62774E-19
 -1      3448 1.23364E-04-5.42664E-05-2.94812E-05-1.15166E-05-1.66159E-18 7.26543E-19
 -1      3449 1.10086E-04-1.47545E-05-4.11301E-05-6.56279E-07 2.88028E-18 1.18119E-18
 -1      3450 1.09713E-04-2.08669E-05-3.82587E-05-8.47261E-06 1.72369E-18-5.38356E-19
 -1      3451 9.34890E-05-2.35258E-05-2.99869E-05 3.64343E-06-4.32066E-19-1.81562E-18
 -1      3452 9.32463E-05-2.36908E-05-2.98150E-05 4.53848E-06-3.27276E-19-1.61683E-18
 -1      3453 9.27733E-05-2.37032E-05-2.96082E-05 5.30334E-06-3.13769E-19-1.40393E-18
 -1      3454 9.24255E-05-2.37030E-05-2.94532E-05 6.12371E-06-3.51303E-19-1.22763E-18
 -1      3455 9.22312E-05-2.29357E-05-2.96843E-05 4.42365E-06-1.97617E-19-1.59367E-18
 -1      3456 9.17568E-05-2.35646E-05-2.92379E-05 6.85116E-06-2.92917E-19-1.17491E-18
 -1      3457 9.13343E-05-2.34895E-05-2.90728E-05 7.64681E-06 4.56314E-20-1.00089E-18
 -1      3458 9.11103E-05-2.28464E-05-2.92401E-05 5.86340E-06-2.29996E-19-1.10857E-18
 -1      3459 9.04925E-05-2.32937E-05-2.88183E-05 8.40574E-06 1.26097E-19-8.42852E-19
 -1      3460 9.00511E-05-2.32638E-05-2.86132E-05 9.23478E-06 2.30398E-19-1.02222E-18
 -1      3461 8.96140E-05-2.25014E-05-2.87430E-05 7.27752E-06 1.51399E-19-1.10014E-18
 -1      3462 8.90692E-05-2.31366E-05-2.82828E-05 1.01129E-05 2.94385E-19-1.26902E-18
 -1      3463 8.87185E-05-2.33207E-05-2.80064E-05 1.10489E-05 2.69222E-19-1.25268E-18
 -1      3464 8.77964E-05-2.21191E-05-2.81244E-05 8.81919E-06 1.06822E-19-1.44426E-18
 -1      3465 8.76606E-05-2.34398E-05-2.75572E-05 1.21808E-05 3.82883E-19-1.15479E-18
 -1      3466 8.76147E-05-2.40954E-05-2.71810E-05 1.33226E-05 6.56951E-19-1.06865E-18
 -1      3467 8.57393E-05-2.19784E-05-2.73014E-05 1.07172E-05 3.50726E-19-1.69826E-18
 -1      3468 8.66256E-05-2.47302E-05-2.65631E-05 1.49068E-05 8.61273E-19-8.92647E-19
 -1      3469 8.72561E-05-2.62384E-05-2.60740E-05 1.63728E-05 1.04221E-18-6.03284E-19
 -1      3470 8.36195E-05-2.25001E-05-2.61735E-05 1.33382E-05 7.07534E-19-1.58711E-18
 -1      3471 8.66330E-05-2.77803E-05-2.52361E-05 1.86423E-05 1.04236E-18-5.53129E-19
 -1      3472 8.86110E-05-3.08755E-05-2.46634E-05 2.06008E-05 1.10483E-18-5.83695E-19
 -1      3473 8.18761E-05-2.43750E-05-2.46185E-05 1.72295E-05 1.21381E-18-1.81127E-18
 -1      3474 1.16920E-04-2.64461E-05-3.91129E-05 1.31705E-05 1.30920E-19 1.75616E-18
 -1      3475 9.21246E-05-1.87811E-05-3.14374E-05-1.32066E-06-6.11441E-19-2.06181E-18
 -1      3476 9.28728E-05-1.97497E-05-3.13491E-05-1.49840E-06-6.19995E-19-2.45941E-18
 -1      3477 9.33708E-05-2.06935E-05-3.11288E-05-8.70126E-07-7.04671E-19-2.29940E-18
 -1      3478 8.79183E-05-2.93082E-05-2.49863E-05-1.89439E-05 2.89169E-19 4.68892E-19
 -1      3479 8.62127E-05-2.66060E-05-2.55429E-05-1.70895E-05 1.80019E-20 4.17528E-19
 -1      3480 8.68484E-05-2.52796E-05-2.63115E-05-1.48975E-05-4.00711E-20 1.86864E-19
 -1      3481 8.63144E-05-2.39490E-05-2.67602E-05-1.34700E-05-2.35077E-19-7.60907E-20
 -1      3482 8.15962E-05-2.33976E-05-2.49265E-05-1.56379E-05-5.05457E-20 6.38805E-19
 -1      3483 8.72560E-05-2.34395E-05-2.73113E-05-1.19542E-05-1.06488E-19-4.39481E-19
 -1      3484 8.73321E-05-2.29210E-05-2.76375E-05-1.08430E-05-4.78784E-19-5.67484E-19
 -1      3485 8.33429E-05-2.18287E-05-2.63361E-05-1.19735E-05-3.53070E-19 1.02679E-18
 -1      3486 8.83102E-05-2.28980E-05-2.80149E-05-9.76243E-06-4.17539E-19-2.32130E-19
 -1      3487 8.86402E-05-2.28326E-05-2.82303E-05-8.86531E-06-2.31391E-19 5.40250E-20
 -1      3488 8.53251E-05-2.15204E-05-2.73181E-05-9.49653E-06-3.85417E-19 7.61148E-19
 -1      3489 8.95416E-05-2.30716E-05-2.84776E-05-8.04445E-06 5.02305E-20-4.43136E-19
 -1      3490 8.99409E-05-2.32437E-05-2.86062E-05-7.29291E-06 4.19995E-19-7.28025E-19
 -1      3491 8.72185E-05-2.18756E-05-2.79797E-05-7.71643E-06-3.89465E-19 2.89399E-19
 -1      3492 9.07203E-05-2.36028E-05-2.87594E-05-6.63304E-06-6.15534E-20-1.75038E-18
 -1      3493 9.11007E-05-2.38820E-05-2.88255E-05-5.98794E-06-7.67964E-19-1.67980E-18
 -1      3494 8.88938E-05-2.25616E-05-2.84073E-05-6.34301E-06-2.05450E-19-7.16136E-19
 -1      3495 9.17488E-05-2.42772E-05-2.89129E-05-5.43662E-06-3.43295E-19-1.84846E-18
 -1      3496 9.20747E-05-2.45886E-05-2.89368E-05-4.87866E-06-4.54147E-19-1.73574E-18
 -1      3497 9.03090E-05-2.33766E-05-2.86685E-05-5.21845E-06-5.57993E-19-1.05617E-18
 -1      3498 9.25992E-05-2.49729E-05-2.89797E-05-4.41002E-06-6.86510E-19-1.16993E-18
 -1      3499 9.28623E-05-2.52761E-05-2.89770E-05-3.92980E-06-2.84286E-19-1.89379E-18
 -1      3500 9.14683E-05-2.42036E-05-2.88145E-05-4.26491E-06-3.54880E-19-9.38490E-19
 -1      3501 9.32780E-05-2.56255E-05-2.89911E-05-3.53119E-06-2.20735E-19-1.55441E-18
 -1      3502 9.34823E-05-2.59005E-05-2.89729E-05-3.12289E-06-4.48052E-19-1.90204E-18
 -1      3503 9.23967E-05-2.49783E-05-2.88835E-05-3.44686E-06 5.76286E-20-1.07442E-18
 -1      3504 9.38061E-05-2.62048E-05-2.89692E-05-2.78677E-06-3.29755E-19-1.11423E-18
 -1      3505 9.39604E-05-2.64434E-05-2.89433E-05-2.44483E-06-2.12683E-19-1.04627E-18
 -1      3506 9.31266E-05-2.56691E-05-2.89027E-05-2.74770E-06-3.47608E-19 2.10888E-19
 -1      3507 9.42089E-05-2.67005E-05-2.89295E-05-2.16501E-06-1.13515E-19-5.94918E-19
 -1      3508 9.43231E-05-2.69015E-05-2.89009E-05-1.88320E-06-6.49017E-19-2.71333E-19
 -1      3509 9.36916E-05-2.62643E-05-2.88918E-05-2.15681E-06 2.08363E-19 3.39935E-19
 -1      3510 9.45113E-05-2.71138E-05-2.88822E-05-1.65374E-06-4.40605E-19-6.88544E-20
 -1      3511 9.45944E-05-2.72795E-05-2.88539E-05-1.42524E-06 3.82491E-19 5.87178E-19
 -1      3512 9.41228E-05-2.67641E-05-2.88639E-05-1.66470E-06 6.82685E-20 1.86732E-18
 -1      3513 9.47351E-05-2.74517E-05-2.88335E-05-1.24011E-06 1.00625E-18 3.18424E-19
 -1      3514 9.47945E-05-2.75859E-05-2.88074E-05-1.05784E-06 1.70414E-18 4.07014E-19
 -1      3515 9.44479E-05-2.71756E-05-2.88280E-05-1.26160E-06 7.16557E-19 1.82607E-18
 -1      3516 9.48982E-05-2.77234E-05-2.87873E-05-9.10936E-07 2.29597E-18 6.04498E-20
 -1      3517 9.49400E-05-2.78303E-05-2.87641E-05-7.67858E-07 1.32247E-18 1.19463E-18
 -1      3518 9.46896E-05-2.75085E-05-2.87898E-05-9.37049E-07 1.98830E-18-7.94861E-19
 -1      3519 9.50152E-05-2.79384E-05-2.87456E-05-6.53192E-07-4.69928E-19 1.50551E-18
 -1      3520 9.50440E-05-2.80224E-05-2.87257E-05-5.42673E-07-7.93246E-19 1.26425E-18
 -1      3521 9.48666E-05-2.77738E-05-2.87526E-05-6.80172E-07 6.62899E-19-7.44675E-19
 -1      3522 9.50974E-05-2.81063E-05-2.87092E-05-4.54670E-07-8.42427E-19 1.29686E-18
 -1      3523 9.51168E-05-2.81715E-05-2.86925E-05-3.70726E-07-2.39839E-19 9.40676E-19
 -1      3524 9.49940E-05-2.79821E-05-2.87184E-05-4.80294E-07-1.17267E-18 1.23032E-18
 -1      3525 9.51539E-05-2.82357E-05-2.86782E-05-3.04396E-07 1.39225E-19-8.88882E-19
 -1      3526 9.51665E-05-2.82857E-05-2.86644E-05-2.41805E-07-1.21100E-19-7.94681E-19
 -1      3527 9.50838E-05-2.81435E-05-2.86881E-05-3.27485E-07-7.32753E-19-6.58346E-19
 -1      3528 9.51915E-05-2.83343E-05-2.86522E-05-1.92828E-07-5.63489E-19-1.38364E-18
 -1      3529 9.51992E-05-2.83723E-05-2.86410E-05-1.47202E-07-1.49457E-18-2.03879E-18
 -1      3530 9.51455E-05-2.82670E-05-2.86618E-05-2.12892E-07-1.12684E-18-1.59123E-18
 -1      3531 9.52155E-05-2.84092E-05-2.86307E-05-1.11767E-07-1.28069E-18-1.46487E-18
 -1      3532 9.52204E-05-2.84379E-05-2.86215E-05-7.99818E-08-1.51825E-19-1.51535E-18
 -1      3533 9.51864E-05-2.83605E-05-2.86394E-05-1.28741E-07-9.94228E-19-1.10745E-18
 -1      3534 9.75161E-05-3.00916E-05-2.88848E-05-8.59327E-06 1.66456E-20-6.70600E-19
 -1      3535 9.67459E-05-2.91639E-05-2.89481E-05-8.34590E-06 1.27852E-19-7.02737E-19
 -1      3536 1.12311E-04-4.33802E-05-2.95798E-05-3.89720E-06-9.72606E-19 6.43432E-19
 -1      3537 1.10046E-04-4.17896E-05-2.91635E-05-5.87132E-06-9.96484E-19 3.20016E-19
 -1      3538 1.07021E-04-3.96316E-05-2.88937E-05-7.18647E-06-8.08308E-19-5.21675E-20
 -1      3539 1.04899E-04-3.76960E-05-2.87303E-05-8.27663E-06-8.01007E-19-2.06831E-19
 -1      3540 1.07721E-04-4.13748E-05-2.84978E-05-9.11331E-06-1.06824E-18 2.62521E-19
 -1      3541 1.19907E-04-4.14746E-05-3.36655E-05 8.26845E-06 3.59989E-21 1.06388E-18
 -1      3542 1.19859E-04-4.42515E-05-3.24161E-05 5.50255E-06-5.99150E-19 8.68718E-19
 -1      3543 1.16893E-04-3.02027E-05-3.72030E-05 1.24687E-05 2.22187E-19 1.45149E-18
 -1      3544 7.57509E-05-2.79553E-05-2.02273E-05-2.50255E-05 5.35550E-19 1.43710E-18
 -1      3545 8.88143E-05-3.69385E-05-2.23102E-05-2.68647E-05 1.45822E-18 7.18125E-19
 -1      3546 1.11058E-04-4.22593E-05-2.93954E-05 4.33682E-06-9.86439E-19-9.73836E-19
 -1      3547 1.13324E-04-4.36925E-05-2.98889E-05 2.24312E-06-1.05242E-18-1.11149E-18
 -1      3548 1.05655E-04-3.82164E-05-2.88273E-05 7.07831E-06-5.98581E-19 3.12484E-19
 -1      3549 1.07887E-04-4.01663E-05-2.90401E-05 5.86670E-06-5.00514E-19 1.64943E-19
 -1      3550 1.08687E-04-4.20601E-05-2.86468E-05 7.87950E-06-1.38036E-18-1.10906E-18
 -1      3551 1.01397E-04-3.43705E-05-2.86760E-05 8.10279E-06-9.72763E-19-8.22135E-19
 -1      3552 1.03210E-04-3.61584E-05-2.87363E-05 7.57981E-06-3.02437E-19 1.58874E-19
 -1      3553 1.03057E-04-3.72941E-05-2.82500E-05 9.42321E-06-2.39535E-19-1.12707E-18
 -1      3554 9.84176E-05-3.13466E-05-2.87149E-05 8.07796E-06-7.98499E-19 2.49046E-19
 -1      3555 9.97345E-05-3.27298E-05-2.87074E-05 8.01388E-06-1.23704E-18-3.90016E-19
 -1      3556 9.89975E-05-3.32343E-05-2.82373E-05 9.46748E-06-1.28047E-18-4.54824E-19
 -1      3557 9.65173E-05-2.92480E-05-2.88143E-05 7.50244E-06-8.38363E-19 4.22913E-19
 -1      3558 9.74006E-05-3.02041E-05-2.87873E-05 7.70336E-06-8.89008E-19 3.60479E-19
 -1      3559 9.63895E-05-3.02618E-05-2.83772E-05 8.77188E-06-8.80470E-19-1.16848E-20
 -1      3560 9.54062E-05-2.79347E-05-2.89103E-05 6.66969E-06 1.45010E-18-9.24031E-19
 -1      3561 9.59615E-05-2.85312E-05-2.88877E-05 7.01010E-06 7.64021E-19-1.12264E-19
 -1      3562 9.48732E-05-2.83011E-05-2.85527E-05 7.76447E-06 3.44982E-19-7.30765E-19
 -1      3563 9.48253E-05-2.72120E-05-2.89765E-05 5.74970E-06 1.32928E-18-1.31718E-18
 -1      3564 9.51532E-05-2.75405E-05-2.89673E-05 6.15083E-06 1.49252E-18-7.55382E-19
 -1      3565 9.41033E-05-2.71483E-05-2.87068E-05 6.67689E-06 1.44079E-18-7.63523E-19
 -1      3566 9.45767E-05-2.68981E-05-2.90076E-05 4.83719E-06-4.13130E-19-1.68536E-18
 -1      3567 9.47571E-05-2.70423E-05-2.90125E-05 5.25015E-06 3.95701E-19-1.41644E-18
 -1      3568 9.38064E-05-2.65764E-05-2.88184E-05 5.62046E-06 1.00233E-18-8.36773E-19
 -1      3569 9.45224E-05-2.68470E-05-2.90077E-05 3.98410E-06 2.88014E-19-7.51086E-19
 -1      3570 9.46123E-05-2.68731E-05-2.90242E-05 4.37924E-06-5.77909E-19-1.47654E-18
 -1      3571 9.37879E-05-2.63925E-05-2.88856E-05 4.64670E-06-2.68402E-19-1.64030E-18
 -1      3572 9.45722E-05-2.69514E-05-2.89848E-05 3.21790E-06 3.46936E-19-4.22339E-19
 -1      3573 9.46093E-05-2.69079E-05-2.90090E-05 3.57798E-06 8.64417E-19-5.31296E-19
 -1      3574 9.39177E-05-2.64496E-05-2.89148E-05 3.77763E-06 2.19535E-19-1.53009E-18
 -1      3575 9.46691E-05-2.71365E-05-2.89470E-05 2.55081E-06-4.38739E-19 7.20208E-20
 -1      3576 9.46777E-05-2.70570E-05-2.89753E-05 2.86717E-06 1.43741E-19 4.05272E-21
 -1      3577 9.41136E-05-2.66425E-05-2.89152E-05 3.02114E-06-4.50242E-20 9.44564E-20
 -1      3578 9.47796E-05-2.73527E-05-2.89013E-05 1.98468E-06-1.64906E-19-5.33340E-19
 -1      3579 9.47743E-05-2.72592E-05-2.89308E-05 2.25464E-06-2.29448E-19-5.80958E-20
 -1      3580 9.43256E-05-2.68989E-05-2.88958E-05 2.37671E-06-4.34832E-19 5.52025E-19
 -1      3581 9.48854E-05-2.75697E-05-2.88531E-05 1.51476E-06-8.57839E-19-5.88032E-21
 -1      3582 9.48746E-05-2.74757E-05-2.88816E-05 1.73948E-06-7.70073E-19-4.13301E-19
 -1      3583 9.45259E-05-2.71722E-05-2.88646E-05 1.83810E-06-2.19575E-19 4.87221E-19
 -1      3584 9.49777E-05-2.77702E-05-2.88062E-05 1.13254E-06-3.52027E-19 5.08338E-19
 -1      3585 9.49659E-05-2.76832E-05-2.88324E-05 1.31551E-06-4.99691E-19-7.33251E-20
 -1      3586 9.47012E-05-2.74343E-05-2.88276E-05 1.39593E-06-8.63740E-19 2.73884E-19
 -1      3587 9.50535E-05-2.79459E-05-2.87628E-05 8.27535E-07-6.98518E-19 1.21707E-18
 -1      3588 9.50429E-05-2.78696E-05-2.87860E-05 9.73510E-07-4.32437E-19 1.46639E-18
 -1      3589 9.48466E-05-2.76701E-05-2.87890E-05 1.03924E-06-9.34309E-19-4.83387E-19
 -1      3590 9.51128E-05-2.80938E-05-2.87243E-05 5.88574E-07-3.72388E-19-2.87443E-19
 -1      3591 9.51043E-05-2.80296E-05-2.87443E-05 7.02808E-07-3.22956E-19 2.74066E-19
 -1      3592 9.49622E-05-2.78731E-05-2.87518E-05 7.56394E-07-2.34933E-19 2.87569E-19
 -1      3593 9.51572E-05-2.82147E-05-2.86911E-05 4.04725E-07 1.97079E-19 8.36062E-19
 -1      3594 9.51509E-05-2.81621E-05-2.87078E-05 4.92432E-07-2.34102E-19 6.41569E-20
 -1      3595 9.50509E-05-2.80420E-05-2.87176E-05 5.35868E-07-4.04042E-19 5.12155E-19
 -1      3596 9.51891E-05-2.83111E-05-2.86631E-05 2.65959E-07-7.07163E-19 1.48170E-18
 -1      3597 9.51849E-05-2.82691E-05-2.86769E-05 3.31954E-07-9.36650E-20 6.39431E-19
 -1      3598 9.51166E-05-2.81786E-05-2.86874E-05 3.66871E-07-1.93766E-19 1.11168E-18
 -1      3599 9.52111E-05-2.83865E-05-2.86399E-05 1.63462E-07-5.95336E-19 2.10974E-18
 -1      3600 9.52084E-05-2.83535E-05-2.86511E-05 2.11976E-07-3.03929E-19 2.49382E-18
 -1      3601 9.51635E-05-2.82867E-05-2.86613E-05 2.39778E-07-1.10572E-18 2.18833E-18
 -1      3602 9.52256E-05-2.84444E-05-2.86209E-05 9.00436E-08-6.21588E-19 1.30864E-18
 -1      3603 9.52240E-05-2.84192E-05-2.86298E-05 1.24306E-07-2.22851E-19 2.11734E-18
 -1      3604 9.51955E-05-2.83708E-05-2.86391E-05 1.46335E-07-2.43204E-19 3.85811E-18
 -1      3605 1.12151E-04-2.21541E-05-3.89466E-05-1.10401E-05 2.09556E-18-1.21229E-18
 -1      3606 5.92323E-05-1.68806E-05-1.79270E-05-1.46413E-05-4.81942E-19-2.81676E-18
 -1      3607 6.70970E-05-2.27587E-05-1.90198E-05-2.25315E-05-1.07007E-18-2.12229E-18
 -1      3608 1.16054E-04-2.82363E-05-3.76279E-05-1.29120E-05 1.31084E-18-2.33756E-18
 -1      3609 9.52148E-05-2.84555E-05-2.86110E-05-3.76520E-08 2.08592E-19-2.79530E-18
 -1      3610 9.52062E-05-2.84443E-05-2.86127E-05-3.62890E-08-4.95469E-19-2.63882E-18
 -1      3611 9.92508E-05-4.29009E-05-2.37966E-05-2.53828E-05 1.76228E-18 1.49766E-19
 -1      3612 1.26016E-04-4.95126E-05-3.26976E-05 1.30434E-06-5.00464E-19 1.35520E-18
 -1      3613 1.25251E-04-4.46375E-05-3.47799E-05 7.20694E-06-3.68062E-19 1.40476E-18
 -1      3614 1.13502E-04-4.96774E-05-2.76290E-05 1.47825E-05-1.24258E-18-1.28473E-18
 -1      3615 1.04522E-04-4.50155E-05-2.53234E-05 2.10114E-05-1.98241E-18-1.15083E-18
 -1      3616 9.52513E-05-2.57014E-05-2.98081E-05-4.10238E-06 6.80910E-19-9.05120E-19
 -1      3617 9.51649E-05-2.52392E-05-2.99606E-05-3.26286E-06 8.81898E-19-9.48674E-19
 -1      3618 7.73416E-05-2.94998E-05-2.02147E-05-2.64551E-05-1.31262E-18-1.82512E-18
 -1      3619 8.81701E-05-3.73117E-05-2.20246E-05-2.79128E-05-1.39338E-18-1.46304E-18
 -1      3620 6.03940E-05-1.75589E-05-1.82033E-05-1.59999E-05 1.48826E-19 3.16266E-18
 -1      3621 6.62774E-05-2.19560E-05-1.89377E-05-2.15487E-05 3.95353E-19 2.05813E-18
 -1      3622 8.96230E-05-1.52096E-05-3.19064E-05-6.09656E-07 4.33632E-19-2.39233E-18
 -1      3623 8.98378E-05-1.54413E-05-3.18945E-05-1.03537E-06 2.38041E-19-2.49832E-18
 -1      3624 9.03447E-05-1.63473E-05-3.17001E-05-8.83566E-07 1.35191E-19-2.35062E-18
 -1      3625 9.02051E-05-1.63926E-05-3.16151E-05-3.84045E-07 4.52718E-19-2.23686E-18
 -1      3626 6.12564E-05-1.97456E-05-1.77463E-05 2.08167E-05-2.93113E-19 4.06364E-19
 -1      3627 5.45428E-05-1.50230E-05-1.66712E-05 1.38534E-05-4.30882E-19 5.53907E-19
 -1      3628 9.36076E-05-2.16639E-05-3.08418E-05 3.03916E-07-5.99618E-19-2.15939E-18
 -1      3629 1.17310E-04-4.49357E-05-3.10805E-05 1.58569E-06-5.14617E-19 5.35475E-19
 -1      3630 1.15645E-04-4.48467E-05-3.02834E-05-1.18893E-06-4.84189E-19 6.71992E-19
 -1      3631 1.14277E-04-4.57127E-05-2.94172E-05-5.56745E-06-9.25817E-19 4.74206E-19
 -1      3632 1.20537E-04-4.71344E-05-3.15279E-05 1.00362E-06-5.53857E-19 1.03288E-18
 -1      3633 1.00491E-04-4.38143E-05-2.40106E-05-2.48284E-05-1.62753E-18-1.08614E-18
 -1      3634 1.10492E-04-4.97809E-05-2.62649E-05-2.03960E-05-1.78099E-18-5.62377E-19
 -1      3635 1.18977E-04-5.23970E-05-2.83552E-05-1.30597E-05-1.57105E-18 2.53150E-20
 -1      3636 1.24295E-04-5.29037E-05-3.08682E-05-5.76178E-06-8.15964E-19 1.00845E-18
 -1      3637 1.21998E-04-4.84038E-05-3.17539E-05-6.25364E-07-1.55020E-19-3.28141E-18
 -1      3638 1.19757E-04-5.00550E-05-2.96288E-05 6.51416E-06-8.24600E-19-2.56683E-18
 -1      3639 9.37991E-05-2.28091E-05-3.04218E-05 1.75870E-06-4.90464E-19-1.98452E-18
 -1      3640 9.37143E-05-2.32348E-05-3.02126E-05 2.82658E-06-4.95036E-19-1.90049E-18
 -1      3641 9.29511E-05-2.26322E-05-3.01335E-05 2.87044E-06-3.60364E-19-1.91493E-18
 -1      3642 1.18174E-04-3.45007E-05-3.62121E-05-1.31231E-05 1.16749E-18-2.44990E-18
 -1      3643 9.37879E-05-3.75961E-05-2.38880E-05-2.35890E-05 6.98895E-19 6.07336E-19
 -1      3644 1.21303E-04-4.12833E-05-3.43038E-05-8.87228E-06 5.28734E-19-3.13296E-18
 -1      3645 1.21329E-04-4.47250E-05-3.28591E-05-6.20711E-06-2.25073E-19-2.63963E-18
 -1      3646 1.18037E-04-4.46100E-05-3.15147E-05-3.24014E-06-1.33138E-19-1.94555E-18
 -1      3647 5.82625E-05-1.43874E-05-1.87434E-05-4.50355E-06 3.01140E-19-3.06621E-18
 -1      3648 5.81117E-05-1.51592E-05-1.81595E-05-1.03819E-05-9.62772E-20-3.18003E-18
 -1      3649 6.52954E-05-1.77040E-05-2.02997E-05-1.22665E-05-4.71237E-19-2.12720E-18
 -1      3650 9.56266E-05-3.91598E-05-2.40327E-05-2.31077E-05-1.18990E-18-1.43714E-18
 -1      3651 9.47327E-05-3.72255E-05-2.42993E-05 2.38305E-05 1.47894E-18-1.55748E-19
 -1      3652 9.15109E-05-1.80547E-05-3.14968E-05-1.17602E-06-4.65293E-19-2.13603E-18
 -1      3653 9.20446E-05-1.89621E-05-3.12951E-05-7.03260E-07-4.51331E-19-2.06336E-18
 -1      3654 9.09679E-05-1.73835E-05-3.15419E-05-9.30239E-07-7.08977E-20-2.14085E-18
 -1      3655 9.08185E-05-1.78809E-05-3.12695E-05-1.11657E-07 6.15949E-19-2.13095E-18
 -1      3656 9.06258E-05-1.76678E-05-3.12803E-05-2.71715E-07 5.52065E-19-2.22185E-18
 -1      3657 8.98768E-05-3.28030E-05-2.43467E-05-2.16860E-05 7.70522E-19 5.99435E-19
 -1      3658 8.22909E-05-2.79748E-05-2.33328E-05-2.10686E-05-9.77893E-20 1.53308E-18
 -1      3659 6.87224E-05-2.37970E-05-1.89067E-05 2.41799E-05-3.58745E-19 1.18796E-19
 -1      3660 6.72517E-05-2.10320E-05-1.96788E-05 1.95482E-05 6.27069E-20 1.62127E-19
 -1      3661 9.20758E-05-1.87118E-05-3.14194E-05 9.50613E-07 1.29337E-18-1.85416E-18
 -1      3662 9.54382E-05-2.82621E-05-2.88112E-05-8.44226E-06 3.26279E-20-1.07223E-18
 -1      3663 9.63210E-05-2.84523E-05-2.90765E-05-7.81417E-06 1.51118E-19-9.61802E-19
 -1      3664 9.58586E-05-2.78149E-05-2.91526E-05-7.39287E-06 1.39149E-20-1.00820E-18
 -1      3665 9.83597E-05-3.11638E-05-2.87706E-05-8.99266E-06-1.08314E-19-4.75086E-19
 -1      3666 9.66569E-05-3.01587E-05-2.85349E-05-9.51218E-06-9.13170E-20-9.52020E-19
 -1      3667 9.95455E-05-3.24762E-05-2.87343E-05-8.97510E-06-5.79188E-20-3.65515E-19
 -1      3668 9.52301E-05-2.84624E-05-2.86143E-05-6.06290E-08 7.47727E-19-1.14328E-18
 -1      3669 9.52332E-05-2.84831E-05-2.86074E-05-4.04413E-08 2.11318E-18-1.14226E-18
 -1      3670 9.52290E-05-2.84767E-05-2.86083E-05-4.01390E-08 8.77380E-19-3.30987E-18
 -1      3671 9.52127E-05-2.84279E-05-2.86219E-05-7.52314E-08 2.73915E-19-1.27798E-18
 -1      3672 1.13737E-04-4.88702E-05-2.77078E-05-1.40198E-05-1.38038E-18-5.92496E-19
 -1      3673 5.57391E-05-1.50878E-05-1.70165E-05 1.16236E-05 1.47715E-18-2.48350E-18
 -1      3674 5.75164E-05-1.43985E-05-1.83444E-05 6.14431E-06 1.09348E-18-2.81922E-18
 -1      3675 6.32767E-05-1.84287E-05-1.91234E-05 1.56420E-05 1.41227E-18-2.11584E-18
 -1      3676 9.41357E-05-2.20166E-05-3.09179E-05 5.03052E-07 1.42805E-18-1.25964E-18
 -1      3677 9.34183E-05-2.10218E-05-3.10330E-05 3.79129E-07 1.27803E-18-1.54118E-18
 -1      3678 1.02494E-04-3.67913E-05-2.82348E-05-1.03551E-05-4.42623E-19-4.55740E-19
 -1      3679 1.02670E-04-3.57200E-05-2.86919E-05-8.66899E-06-4.11563E-19-1.47627E-19
 -1      3680 1.00994E-04-3.40042E-05-2.86641E-05-9.10814E-06 6.24248E-20-1.64445E-19
 -1      3681 1.21784E-04-3.93667E-05-3.53740E-05 1.07132E-05 3.22667E-20 1.35337E-18
 -1      3682 9.52606E-05-2.60928E-05-2.96374E-05-4.86644E-06 5.38858E-19-9.63375E-19
 -1      3683 9.46511E-05-2.52481E-05-2.97471E-05-4.40057E-06 6.83670E-19-1.23673E-18
 -1      3684 9.53956E-05-2.64983E-05-2.95240E-05-5.55233E-06 4.39312E-19-8.35408E-19
 -1      3685 1.18534E-04-3.57054E-05-3.57577E-05 1.19019E-05 8.74826E-20 1.54153E-18
 -1      3686 7.57680E-05-2.54888E-05-2.12800E-05-2.13779E-05 9.30016E-20 1.97978E-18
 -1      3687 1.15330E-04-4.63479E-05-2.97259E-05 4.18974E-06-8.08809E-19-2.69682E-18
 -1      3688 1.16572E-04-4.48835E-05-3.06190E-05-4.50523E-07-3.27051E-19-1.19813E-18
 -1      3689 9.51898E-05-2.84072E-05-2.86208E-05-4.44579E-08-1.01709E-18-1.20827E-18
 -1      3690 9.51962E-05-2.84298E-05-2.86142E-05-3.00965E-08-4.43208E-19-3.68709E-19
 -1      3691 9.51897E-05-2.84222E-05-2.86151E-05-2.46268E-08-7.82164E-19 1.54821E-18
 -1      3692 9.52295E-05-2.84601E-05-2.86149E-05 6.87434E-08-8.86715E-19 1.49626E-18
 -1      3693 9.52121E-05-2.84261E-05-2.86229E-05 8.51486E-08-7.73820E-19 2.61460E-18
 -1      3694 9.52297E-05-2.84735E-05-2.86097E-05 4.98359E-08-2.01059E-18 2.71057E-18
 -1      3695 1.14532E-04-4.73625E-05-2.87223E-05 8.93323E-06-4.90154E-19-1.86477E-18
 -1      3696 9.52395E-05-2.85071E-05-2.86000E-05 2.69815E-08-1.43642E-18 3.12145E-18
 -1      3697 7.52872E-05-2.56948E-05-2.10772E-05-2.15206E-05-8.73218E-19-2.04378E-18
 -1      3698 9.51812E-05-2.84114E-05-2.86159E-05 4.15937E-09 6.23605E-19-1.65960E-18
 -1      3699 9.51832E-05-2.84139E-05-2.86156E-05 1.16770E-08 1.12529E-18-2.16355E-18
 -1      3700 9.52247E-05-2.84714E-05-2.86088E-05-3.90374E-08 5.02726E-19-3.61880E-18
 -1      3701 9.63051E-05-2.77130E-05-2.94094E-05-6.45770E-06 1.67196E-19-6.08610E-19
 -1      3702 1.22406E-04-4.92414E-05-3.13983E-05-1.05087E-06-6.82351E-19 7.13222E-19
 -1      3703 9.51047E-05-2.36720E-05-3.06189E-05 5.70070E-08 1.36725E-18-9.65819E-19
 -1      3704 9.45381E-05-2.26353E-05-3.08129E-05 3.60293E-07 1.40786E-18-1.07259E-18
 -1      3705 9.45011E-05-2.30283E-05-3.06201E-05-6.66464E-07 1.32009E-18-1.16499E-18
 -1      3706 9.52142E-05-2.42600E-05-3.04102E-05-1.00072E-06 1.26821E-18-9.93319E-19
 -1      3707 1.01930E-04-4.14648E-05-2.57508E-05 1.85264E-05-1.53077E-18-9.94958E-19
 -1      3708 9.66490E-05-4.04184E-05-2.40897E-05 2.38147E-05-1.69367E-18-7.39830E-19
 -1      3709 8.70095E-05-3.21113E-05-2.35390E-05 2.30631E-05 1.24543E-18-6.46114E-19
 -1      3710 8.48000E-05-3.31686E-05-2.19889E-05 2.56288E-05 1.78261E-18-1.04169E-18
 -1      3711 7.51370E-05-2.85999E-05-1.95592E-05 2.67784E-05 1.70418E-18-1.67059E-18
 -1      3712 7.95106E-05-2.65939E-05-2.24985E-05 2.17483E-05 1.37888E-18-1.72521E-18
 -1      3713 7.69142E-05-2.93807E-05-2.03099E-05 2.64546E-05-1.42630E-18-3.25869E-19
 -1      3714 9.11468E-05-1.82602E-05-3.12509E-05-1.04003E-07 7.33817E-19-1.95711E-18
 -1      3715 9.13674E-05-1.90220E-05-3.09829E-05-4.52337E-07 5.88431E-19-1.91493E-18
 -1      3716 9.15810E-05-1.87621E-05-3.12197E-05 8.21074E-08 8.24840E-19-1.81447E-18
 -1      3717 9.51815E-05-2.84115E-05-2.86160E-05-7.25761E-09-5.90051E-20-1.42652E-18
 -1      3718 9.51663E-05-2.83765E-05-2.86235E-05-1.58334E-09-1.78547E-19-1.99673E-18
 -1      3719 9.51842E-05-2.84144E-05-2.86158E-05-1.46565E-08-3.22801E-19 1.44896E-19
 -1      3720 9.52110E-05-2.84375E-05-2.86171E-05-5.38275E-08 3.97142E-19-2.48097E-18
 -1      3721 7.06587E-05-2.42272E-05-1.98743E-05 2.25970E-05 1.52797E-18-2.04228E-18
 -1      3722 9.45658E-05-2.42252E-05-3.01442E-05-2.72519E-06 9.74820E-19-1.28033E-18
 -1      3723 9.50853E-05-2.46955E-05-3.01714E-05-2.36522E-06 1.06187E-18-9.99593E-19
 -1      3724 5.45922E-05-1.35105E-05-1.73604E-05 8.08852E-06-6.81736E-19 1.67466E-18
 -1      3725 5.64385E-05-1.31605E-05-1.84628E-05 1.00967E-06-5.61220E-19 2.34321E-18
 -1      3726 6.03692E-05-1.52867E-05-1.92475E-05 9.77753E-06-4.51568E-19 1.29014E-18
 -1      3727 5.72199E-05-1.37745E-05-1.85178E-05-6.03659E-06-9.48478E-19 2.82875E-18
 -1      3728 5.83655E-05-1.53372E-05-1.82032E-05-1.17992E-05-5.40619E-19 2.76265E-18
 -1      3729 6.47759E-05-1.74770E-05-2.00660E-05-1.33075E-05-1.10223E-18 2.76506E-18
 -1      3730 9.50321E-05-2.42302E-05-3.03398E-05-1.47962E-06 1.22099E-18-1.05970E-18
 -1      3731 9.29903E-05-2.11756E-05-3.07854E-05 6.33773E-07-4.49714E-19-2.03476E-18
 -1      3732 9.15204E-05-3.76909E-05-2.30067E-05 2.49550E-05-1.45131E-18-3.63946E-19
 -1      3733 8.35301E-05-3.29502E-05-2.13982E-05 2.67271E-05-1.78754E-18-1.36399E-19
 -1      3734 7.90871E-05-2.84303E-05-2.17255E-05 2.32376E-05-7.05023E-19-6.63081E-19
 -1      3735 8.98012E-05-3.44645E-05-2.36853E-05 2.23585E-05-1.47386E-18-6.29246E-19
 -1      3736 9.52035E-05-2.84428E-05-2.86122E-05 3.44496E-08 1.58676E-18-3.77808E-19
 -1      3737 9.52119E-05-2.84543E-05-2.86104E-05 3.64949E-08 6.04572E-19 4.15332E-19
 -1      3738 9.52074E-05-2.84316E-05-2.86177E-05 5.72514E-08-2.45540E-19 1.97904E-18
 -1      3739 9.52203E-05-2.84656E-05-2.86096E-05 4.17245E-08-1.39609E-18 6.40912E-19
 -1      3740 9.51944E-05-2.84289E-05-2.86138E-05 2.76697E-08 2.22969E-18-1.69463E-18
 -1      3741 9.51873E-05-2.84057E-05-2.86202E-05 4.30629E-08 2.11341E-18-1.44819E-19
 -1      3742 9.51882E-05-2.84214E-05-2.86148E-05 2.20431E-08 1.78262E-18-1.52118E-18
 -1      3743 9.05918E-05-2.23242E-05-2.92720E-05 4.63413E-06-5.45091E-20-1.47068E-18
 -1      3744 8.99252E-05-2.21950E-05-2.90321E-05 5.29209E-06-1.00205E-19-1.29530E-18
 -1      3745 8.89164E-05-2.19364E-05-2.87257E-05 5.80062E-06-6.87966E-21-1.26736E-18
 -1      3746 8.80641E-05-2.17111E-05-2.84410E-05 6.45774E-06 1.26953E-19-1.42932E-18
 -1      3747 8.85944E-05-2.14309E-05-2.87588E-05 4.52553E-06-5.54643E-20-1.49326E-18
 -1      3748 8.67625E-05-2.13612E-05-2.80585E-05 7.01622E-06 5.61412E-20-1.41305E-18
 -1      3749 8.57575E-05-2.11444E-05-2.76904E-05 7.76064E-06 1.25431E-19-1.44952E-18
 -1      3750 8.63144E-05-2.07829E-05-2.80503E-05 5.45740E-06-8.52534E-21-1.43976E-18
 -1      3751 8.41182E-05-2.08024E-05-2.71801E-05 8.46903E-06 3.20753E-19-1.49604E-18
 -1      3752 8.30139E-05-2.07310E-05-2.66818E-05 9.43556E-06 3.39660E-19-1.56921E-18
 -1      3753 8.34158E-05-1.99938E-05-2.71330E-05 6.53061E-06 1.41715E-19-1.50981E-18
 -1      3754 8.09559E-05-2.05142E-05-2.59714E-05 1.04818E-05 5.35306E-19-1.46967E-18
 -1      3755 7.98756E-05-2.08267E-05-2.52807E-05 1.18951E-05 8.41587E-19-1.50187E-18
 -1      3756 7.97779E-05-1.92054E-05-2.58800E-05 8.03000E-06 5.02775E-19-1.62321E-18
 -1      3757 7.72202E-05-2.07915E-05-2.42528E-05 1.35755E-05 9.90457E-19-1.81864E-18
 -1      3758 7.63418E-05-2.18911E-05-2.32625E-05 1.59536E-05 1.25801E-18-1.89939E-18
 -1      3759 7.51006E-05-1.87578E-05-2.41030E-05 1.05326E-05 7.73672E-19-1.69478E-18
 -1      3760 7.65958E-05-2.10776E-05-2.36974E-05-1.42797E-05-8.24150E-19 8.91535E-19
 -1      3761 7.73213E-05-2.01380E-05-2.45625E-05-1.22522E-05-6.65366E-19 7.23624E-19
 -1      3762 7.40844E-05-2.22234E-05-2.21599E-05-1.78951E-05-1.89636E-19 1.86773E-18
 -1      3763 7.14716E-05-2.21062E-05-2.11860E-05 1.85803E-05-2.57420E-19-3.64621E-19
 -1      3764 6.58889E-05-1.81065E-05-2.02147E-05 1.53043E-05-1.49852E-19 5.74765E-19
 -1      3765 9.27492E-05-2.01797E-05-3.11138E-05 3.13792E-07 1.18665E-18-1.77109E-18
 -1      3766 9.21253E-05-1.94027E-05-3.11773E-05 1.22607E-07 9.78224E-19-1.72984E-18
 -1      3767 9.22420E-05-2.00381E-05-3.09241E-05-5.02570E-07 7.74638E-19-1.66595E-18
 -1      3768 9.34631E-05-2.15462E-05-3.08049E-05-5.11793E-07 1.11790E-18-1.49872E-18
 -1      3769 7.96946E-05-2.01697E-05-2.54843E-05-1.06799E-05-1.41249E-19 7.32958E-19
 -1      3770 8.07252E-05-1.99736E-05-2.60987E-05-9.34792E-06-3.11883E-19 5.38787E-19
 -1      3771 7.52609E-05-1.81842E-05-2.43718E-05-9.29893E-06-4.99323E-19 1.03697E-18
 -1      3772 8.26080E-05-2.02508E-05-2.67162E-05-8.36782E-06-5.73170E-19 4.46883E-19
 -1      3773 8.36277E-05-2.04107E-05-2.71362E-05-7.45645E-06-5.55248E-19 3.11645E-19
 -1      3774 7.94561E-05-1.87589E-05-2.59516E-05-7.09276E-06-5.29870E-19-2.01278E-19
 -1      3775 8.51303E-05-2.08448E-05-2.75507E-05-6.79498E-06-1.66724E-19-3.83005E-21
 -1      3776 8.60535E-05-2.11892E-05-2.78291E-05-6.11770E-06 3.84895E-19 2.06847E-19
 -1      3777 8.28020E-05-1.96736E-05-2.70106E-05-5.71320E-06-4.27783E-19 3.29813E-19
 -1      3778 8.72594E-05-2.16921E-05-2.81029E-05-5.62449E-06-3.57528E-19-3.47122E-19
 -1      3779 8.80504E-05-2.21152E-05-2.82796E-05-5.07976E-06-9.03146E-19-7.55597E-19
 -1      3780 8.54716E-05-2.07180E-05-2.77184E-05-4.75466E-06-2.12843E-19-1.21615E-19
 -1      3781 8.90203E-05-2.26307E-05-2.84557E-05-4.67795E-06-1.11643E-18-1.08557E-18
 -1      3782 8.96747E-05-2.30702E-05-2.85612E-05-4.21611E-06-7.23765E-19-1.46688E-18
 -1      3783 8.76157E-05-2.17952E-05-2.81835E-05-4.00498E-06-1.21123E-18-1.60658E-18
 -1      3784 9.04525E-05-2.35630E-05-2.86694E-05-3.87096E-06-4.05916E-19-1.84063E-18
 -1      3785 9.09808E-05-2.39830E-05-2.87262E-05-3.47003E-06-6.84768E-20-1.45888E-18
 -1      3786 8.93384E-05-2.28403E-05-2.84799E-05-3.36653E-06-5.15422E-19-1.13267E-18
 -1      3787 9.16011E-05-2.44333E-05-2.87878E-05-3.16793E-06-1.25385E-20-1.22257E-18
 -1      3788 9.20195E-05-2.48149E-05-2.88123E-05-2.81963E-06-1.62351E-19-1.29114E-18
 -1      3789 9.07171E-05-2.38108E-05-2.86593E-05-2.79983E-06 2.47125E-19-1.39776E-18
 -1      3790 9.25095E-05-2.52119E-05-2.88425E-05-2.55630E-06 1.26610E-19-1.01943E-18
 -1      3791 9.28353E-05-2.55459E-05-2.88466E-05-2.25672E-06 6.74495E-19-6.35339E-19
 -1      3792 9.18124E-05-2.46829E-05-2.87584E-05-2.29451E-06 3.14206E-19-2.19803E-18
 -1      3793 9.32184E-05-2.58864E-05-2.88567E-05-2.02991E-06 9.14067E-19-7.98758E-19
 -1      3794 9.34686E-05-2.61708E-05-2.88485E-05-1.77604E-06 1.67721E-19-2.37024E-19
 -1      3795 9.26740E-05-2.54436E-05-2.88044E-05-1.84878E-06 7.79537E-19-1.44494E-18
 -1      3796 9.37651E-05-2.64567E-05-2.88461E-05-1.58392E-06-8.40166E-20 5.90953E-19
 -1      3797 9.39547E-05-2.66940E-05-2.88314E-05-1.37254E-06 2.63015E-19 3.73802E-19
 -1      3798 9.33450E-05-2.60920E-05-2.88162E-05-1.46218E-06 5.87071E-19-1.31473E-18
 -1      3799 9.41817E-05-2.69296E-05-2.88217E-05-1.21304E-06 9.29813E-19 9.32369E-19
 -1      3800 9.43235E-05-2.71240E-05-2.88040E-05-1.04029E-06 9.79557E-19 9.47610E-19
 -1      3801 9.38621E-05-2.66340E-05-2.88071E-05-1.13390E-06 9.88326E-19-8.23626E-19
 -1      3802 9.44948E-05-2.73149E-05-2.87907E-05-9.10524E-07 6.06503E-19 8.97158E-19
 -1      3803 9.45994E-05-2.74715E-05-2.87724E-05-7.71857E-07 1.48926E-18-7.84850E-19
 -1      3804 9.42557E-05-2.70793E-05-2.87862E-05-8.61428E-07 6.09765E-19 3.81915E-19
 -1      3805 9.47269E-05-2.76237E-05-2.87577E-05-6.68288E-07 1.77889E-18-2.50220E-18
 -1      3806 9.48028E-05-2.77480E-05-2.87403E-05-5.58936E-07 8.67726E-20-1.91764E-18
 -1      3807 9.45510E-05-2.74390E-05-2.87596E-05-6.39960E-07 3.67253E-19-2.23710E-18
 -1      3808 9.48960E-05-2.78677E-05-2.87257E-05-4.77807E-07-4.44011E-19-1.13213E-18
 -1      3809 9.49500E-05-2.79649E-05-2.87099E-05-3.93081E-07-6.98469E-19-8.37472E-19
 -1      3810 9.47691E-05-2.77251E-05-2.87312E-05-4.63514E-07 1.63677E-19-2.92081E-18
 -1      3811 9.50168E-05-2.80576E-05-2.86962E-05-3.30740E-07-1.87435E-18-4.06370E-19
 -1      3812 9.50544E-05-2.81327E-05-2.86822E-05-2.66315E-07-1.59698E-18-1.71618E-18
 -1      3813 9.49274E-05-2.79493E-05-2.87035E-05-3.25661E-07-1.23371E-18-2.56999E-18
 -1      3814 9.51011E-05-2.82036E-05-2.86698E-05-2.19360E-07-9.35383E-19-1.26608E-18
 -1      3815 9.51265E-05-2.82609E-05-2.86577E-05-1.71404E-07-8.60103E-19-1.19561E-18
 -1      3816 9.50396E-05-2.81228E-05-2.86777E-05-2.20056E-07-9.43222E-19-1.81990E-18
 -1      3817 9.51582E-05-2.83146E-05-2.86468E-05-1.36942E-07-1.14460E-18-7.74487E-19
 -1      3818 9.51751E-05-2.83581E-05-2.86364E-05-1.01705E-07-7.84144E-19-8.73979E-19
 -1      3819 9.51171E-05-2.82553E-05-2.86545E-05-1.41199E-07-4.78080E-19-1.29923E-18
 -1      3820 9.52010E-05-2.84114E-05-2.86242E-05-7.25776E-08-6.01724E-19-1.47823E-18
 -1      3821 1.05015E-04-4.25864E-05-2.69037E-05 1.53412E-05-1.45154E-18-1.44411E-18
 -1      3822 9.87806E-05-3.82931E-05-2.58554E-05 1.75785E-05-1.06958E-18-1.50398E-18
 -1      3823 9.61183E-05-3.12619E-05-2.77721E-05 1.05560E-05-1.30286E-18-9.40668E-19
 -1      3824 9.78128E-05-3.30830E-05-2.77035E-05 1.09047E-05-1.32297E-18-9.12425E-19
 -1      3825 1.10890E-04-4.51359E-05-2.80393E-05 1.09501E-05-1.30551E-18-1.85881E-18
 -1      3826 1.04277E-04-3.94968E-05-2.76698E-05 1.15999E-05-1.05714E-18-1.50706E-18
 -1      3827 1.07626E-04-4.21273E-05-2.79827E-05 1.04982E-05-1.68115E-18-2.27067E-18
 -1      3828 9.40794E-05-2.86038E-05-2.80504E-05 9.13844E-06-9.27056E-19-6.92533E-19
 -1      3829 9.51076E-05-2.98303E-05-2.79470E-05 9.67260E-06-9.65377E-19-8.80223E-19
 -1      3830 9.34470E-05-2.95694E-05-2.74186E-05 1.10285E-05-1.12019E-18-2.12066E-18
 -1      3831 9.30799E-05-2.70051E-05-2.83168E-05 7.72029E-06 1.20421E-18-1.42155E-18
 -1      3832 9.36384E-05-2.77448E-05-2.82184E-05 8.29707E-06 1.50254E-19-5.25895E-19
 -1      3833 9.21007E-05-2.72818E-05-2.78025E-05 9.13193E-06-2.30794E-19-1.39270E-18
 -1      3834 9.27308E-05-2.61659E-05-2.85317E-05 6.41665E-06 1.22395E-18-6.44374E-19
 -1      3835 9.29838E-05-2.65522E-05-2.84547E-05 6.97452E-06 1.11716E-18-1.01148E-18
 -1      3836 9.16218E-05-2.59926E-05-2.81371E-05 7.46269E-06 6.74218E-19-1.04018E-18
 -1      3837 9.27636E-05-2.58439E-05-2.86860E-05 5.26530E-06 6.07081E-19 1.51383E-19
 -1      3838 9.28308E-05-2.59915E-05-2.86340E-05 5.77782E-06 1.30936E-18-4.76645E-20
 -1      3839 9.16604E-05-2.54058E-05-2.83979E-05 6.04722E-06 7.67278E-19 8.21120E-20
 -1      3840 9.29987E-05-2.58507E-05-2.87845E-05 4.26818E-06 1.11020E-19-1.21927E-18
 -1      3841 9.29620E-05-2.58472E-05-2.87554E-05 4.72575E-06 4.59418E-19-2.87628E-19
 -1      3842 9.19777E-05-2.52783E-05-2.85848E-05 4.86568E-06 7.22723E-19 3.84765E-19
 -1      3843 9.33235E-05-2.60517E-05-2.88375E-05 3.41618E-06-4.60068E-19-6.36994E-19
 -1      3844 9.32355E-05-2.59596E-05-2.88265E-05 3.81589E-06-6.02615E-19-8.43808E-19
 -1      3845 9.24221E-05-2.54317E-05-2.87074E-05 3.88343E-06-3.93824E-19 4.81003E-19
 -1      3846 9.36690E-05-2.63521E-05-2.88563E-05 2.69792E-06-7.07587E-19 1.45591E-18
 -1      3847 9.35623E-05-2.62152E-05-2.88585E-05 3.04041E-06-2.94104E-19 1.00872E-18
 -1      3848 9.29015E-05-2.57427E-05-2.87787E-05 3.07014E-06-1.38228E-18 1.61969E-18
 -1      3849 9.39958E-05-2.66883E-05-2.88515E-05 2.10057E-06-2.86547E-19 1.03826E-18
 -1      3850 9.38895E-05-2.65359E-05-2.88623E-05 2.38880E-06-4.18848E-19 1.23855E-18
 -1      3851 9.33615E-05-2.61253E-05-2.88118E-05 2.40095E-06-4.53247E-19 2.40744E-18
 -1      3852 9.42838E-05-2.70206E-05-2.88318E-05 1.61019E-06-9.69501E-19 1.70131E-18
 -1      3853 9.41879E-05-2.68705E-05-2.88475E-05 1.84876E-06-7.40024E-19 1.33098E-18
 -1      3854 9.37732E-05-2.65228E-05-2.88183E-05 1.85451E-06-9.76361E-19 1.86017E-18
 -1      3855 9.45260E-05-2.73265E-05-2.88037E-05 1.21322E-06-3.69788E-19 1.50940E-18
 -1      3856 9.44446E-05-2.71887E-05-2.88217E-05 1.40738E-06-2.11977E-19 2.09471E-18
 -1      3857 9.41247E-05-2.69007E-05-2.88074E-05 1.41204E-06-5.49704E-19 2.68708E-18
 -1      3858 9.47220E-05-2.75946E-05-2.87720E-05 8.96633E-07-4.95915E-19 9.24719E-19
 -1      3859 9.46560E-05-2.74742E-05-2.87903E-05 1.05204E-06-5.29101E-19 1.32268E-18
 -1      3860 9.44138E-05-2.72406E-05-2.87862E-05 1.05786E-06-7.78126E-20 2.41115E-18
 -1      3861 9.48753E-05-2.78211E-05-2.87400E-05 6.47903E-07-5.33736E-20 7.95508E-19
 -1      3862 9.48239E-05-2.77197E-05-2.87575E-05 7.70261E-07-2.86686E-19 7.22199E-19
 -1      3863 9.46442E-05-2.75339E-05-2.87597E-05 7.77848E-07-1.71365E-19 1.99722E-18
 -1      3864 9.49917E-05-2.80069E-05-2.87097E-05 4.55488E-07-6.52131E-19 6.43101E-19
 -1      3865 9.49530E-05-2.79239E-05-2.87255E-05 5.50241E-07-7.21027E-19 1.98564E-19
 -1      3866 9.48225E-05-2.77789E-05-2.87315E-05 5.59406E-07-4.88778E-19 9.22466E-19
 -1      3867 9.50773E-05-2.81557E-05-2.86822E-05 3.09014E-07-5.51163E-19 1.57518E-18
 -1      3868 9.50493E-05-2.80893E-05-2.86961E-05 3.81106E-07 6.41571E-20 1.06869E-18
 -1      3869 9.49567E-05-2.79783E-05-2.87040E-05 3.91268E-07-7.61967E-19 1.27213E-18
 -1      3870 9.51383E-05-2.82725E-05-2.86579E-05 1.99620E-07-1.65653E-18 2.78494E-18
 -1      3871 9.51187E-05-2.82205E-05-2.86699E-05 2.53332E-07-1.76465E-18 2.46271E-18
 -1      3872 9.50549E-05-2.81370E-05-2.86784E-05 2.63848E-07-1.83082E-18 2.61900E-18
 -1      3873 9.51803E-05-2.83625E-05-2.86368E-05 1.20226E-07-4.07779E-19 4.48224E-18
 -1      3874 9.51672E-05-2.83227E-05-2.86470E-05 1.58606E-07-6.04794E-19 3.96832E-18
 -1      3875 9.51243E-05-2.82607E-05-2.86553E-05 1.69178E-07-1.72773E-18 4.20459E-18
 -1      3876 9.05064E-05-3.42304E-05-2.39056E-05-2.20123E-05-9.95957E-19-1.11223E-18
 -1      3877 9.99281E-05-4.06000E-05-2.55617E-05-1.97412E-05-1.20143E-18-8.89113E-19
 -1      3878 9.51976E-05-2.84092E-05-2.86239E-05 7.44845E-08 8.41691E-20 3.15214E-18
 -1      3879 9.51927E-05-2.83878E-05-2.86302E-05 9.72002E-08 4.95278E-19 4.20925E-18
 -1      3880 9.51644E-05-2.83426E-05-2.86377E-05 1.06845E-07 3.61590E-19 4.37923E-18
 -1      3881 9.51876E-05-2.83977E-05-2.86247E-05 6.70661E-08 7.90208E-19 3.70129E-18
 -1      3882 9.09520E-05-1.85609E-05-3.10036E-05-3.21727E-07 3.71744E-19-1.91858E-18
 -1      3883 9.05533E-05-1.75888E-05-3.12833E-05-2.50082E-07 4.09925E-19-2.05573E-18
 -1      3884 7.45957E-05-2.25680E-05-2.23383E-05 1.79337E-05 1.41772E-18-1.98407E-18
 -1      3885 7.25083E-05-2.30690E-05-2.10704E-05 1.97758E-05 1.46238E-18-2.16340E-18
 -1      3886 6.68210E-05-1.99535E-05-1.98078E-05 1.80925E-05 1.44706E-18-2.49404E-18
 -1      3887 7.05303E-05-1.88592E-05-2.20508E-05 1.37705E-05 1.27647E-18-2.26029E-18
 -1      3888 1.19253E-04-4.90933E-05-2.99627E-05-4.93561E-06-8.17724E-19 5.19665E-19
 -1      3889 9.56902E-05-2.73361E-05-2.92875E-05-6.78472E-06 3.23842E-20-9.39845E-19
 -1      3890 9.54339E-05-2.68724E-05-2.93772E-05-6.22972E-06 3.02587E-19-7.92888E-19
 -1      3891 9.48769E-05-2.69990E-05-2.91030E-05-7.21916E-06 1.66705E-19-1.19240E-18
 -1      3892 9.40470E-05-2.38770E-05-3.00769E-05-3.01670E-06 9.23013E-19-1.34887E-18
 -1      3893 9.39683E-05-2.32420E-05-3.03015E-05-2.13791E-06 9.76102E-19-1.40013E-18
 -1      3894 9.52296E-05-2.84804E-05-2.86068E-05 4.04611E-08-1.44192E-18 2.16899E-18
 -1      3895 9.23502E-05-2.04610E-05-3.08287E-05 3.65321E-07-3.95681E-19-1.81080E-18
 -1      3896 9.25314E-05-2.15463E-05-3.04019E-05 1.67261E-06-3.87489E-19-1.72407E-18
 -1      3897 9.17637E-05-1.97179E-05-3.08834E-05 3.52467E-07-1.63480E-19-1.77490E-18
 -1      3898 9.51760E-05-2.83695E-05-2.86312E-05-7.82866E-08-1.37686E-18-1.79264E-18
 -1      3899 7.33976E-05-2.23989E-05-2.17319E-05-1.74638E-05-6.18430E-19-1.85302E-18
 -1      3900 8.12833E-05-2.86738E-05-2.26989E-05-2.16305E-05-8.11199E-19-1.67662E-18
 -1      3901 9.93682E-05-3.48294E-05-2.76102E-05 1.15103E-05-6.23420E-19-6.94557E-19
 -1      3902 1.01856E-04-3.72118E-05-2.76538E-05 1.13804E-05-1.31553E-19-8.92800E-19
 -1      3903 9.97172E-05-3.70796E-05-2.69664E-05 1.40463E-05-7.43629E-19-8.34033E-19
 -1      3904 9.59360E-05-3.28780E-05-2.71028E-05 1.27899E-05-7.11745E-19-2.32984E-19
 -1      3905 9.51715E-05-2.83840E-05-2.86226E-05 2.31396E-08 1.51419E-18-2.68526E-18
 -1      3906 1.07568E-04-4.25865E-05-2.78508E-05-1.17212E-05-1.33888E-18-8.34308E-19
 -1      3907 1.04461E-04-3.98158E-05-2.76250E-05-1.25152E-05-8.97072E-19-9.46642E-19
 -1      3908 9.23194E-05-2.19665E-05-3.01590E-05 2.42309E-06-2.89116E-19-1.73040E-18
 -1      3909 9.17889E-05-2.23539E-05-2.97650E-05 3.38660E-06-1.00655E-19-1.52758E-18
 -1      3910 9.13244E-05-2.24085E-05-2.95406E-05 4.11817E-06-4.94606E-20-1.48395E-18
 -1      3911 9.03003E-05-2.17687E-05-2.93507E-05 3.60234E-06 2.20284E-20-1.44932E-18
 -1      3912 6.97687E-05-1.86901E-05-2.18493E-05-1.40970E-05-1.16013E-18 2.43683E-18
 -1      3913 6.75558E-05-1.65662E-05-2.17768E-05-9.98302E-06-1.50461E-18 2.06086E-18
 -1      3914 6.01980E-05-1.41276E-05-1.94901E-05 7.11179E-07 6.52996E-19-2.57588E-18
 -1      3915 6.47212E-05-1.54582E-05-2.10814E-05-3.26885E-06 1.04298E-19-2.46569E-18
 -1      3916 6.37856E-05-1.54673E-05-2.07298E-05 5.95220E-06 9.69224E-19-1.90612E-18
 -1      3917 9.51623E-05-2.83532E-05-2.86328E-05-6.91609E-08-1.16549E-18-6.13666E-19
 -1      3918 9.51731E-05-2.83845E-05-2.86229E-05-2.58187E-08-1.18069E-20 3.03108E-19
 -1      3919 7.61551E-05-2.47479E-05-2.18371E-05 2.02971E-05-3.75786E-19-1.79653E-18
 -1      3920 7.41649E-05-2.21653E-05-2.22643E-05 1.67076E-05-3.50936E-19-1.27572E-18
 -1      3921 8.12510E-05-2.81903E-05-2.27761E-05 2.08441E-05-8.96262E-19-1.23885E-18
 -1      3922 9.44008E-05-2.77842E-05-2.85302E-05-8.82804E-06-6.48280E-20-9.98065E-19
 -1      3923 9.39735E-05-2.70281E-05-2.86881E-05-8.20732E-06 3.47066E-20-1.15025E-18
 -1      3924 9.88853E-05-3.29526E-05-2.83117E-05-1.02610E-05-2.63919E-19-6.01610E-19
 -1      3925 6.55752E-05-1.78826E-05-2.03844E-05 1.33267E-05 1.35088E-18-2.22451E-18
 -1      3926 9.51458E-05-2.83414E-05-2.86310E-05 2.49717E-08 1.79358E-19-3.66381E-18
 -1      3927 9.51521E-05-2.83488E-05-2.86301E-05 3.83898E-08 1.24766E-18-3.41825E-18
 -1      3928 9.55351E-05-2.97695E-05-2.81571E-05-1.02192E-05-2.13724E-19-1.07982E-18
 -1      3929 9.46794E-05-2.86101E-05-2.83057E-05-9.66443E-06-1.38859E-19-1.14724E-18
 -1      3930 9.30299E-05-2.73606E-05-2.81651E-05-9.47303E-06-1.07787E-19-1.24717E-18
 -1      3931 9.46882E-05-2.60832E-05-2.94091E-05-5.88077E-06 2.89152E-19-1.27160E-18
 -1      3932 6.51526E-05-1.65550E-05-2.07102E-05 1.01398E-05-4.33046E-19 1.46998E-18
 -1      3933 9.94102E-05-3.84774E-05-2.61432E-05-1.74209E-05-7.99420E-19-1.17020E-18
 -1      3934 1.04716E-04-4.29698E-05-2.64180E-05-1.74818E-05-1.48608E-18-1.07223E-18
 -1      3935 9.10241E-05-1.93310E-05-3.07336E-05-4.65449E-07 3.57013E-19-1.96091E-18
 -1      3936 9.09422E-05-1.92631E-05-3.07361E-05-3.25986E-07 1.45364E-19-1.87748E-18
 -1      3937 8.74529E-05-3.06898E-05-2.42712E-05-1.90900E-05-5.43319E-19-1.06505E-18
 -1      3938 1.09421E-04-4.55968E-05-2.72905E-05-1.44707E-05-1.42717E-18-8.66564E-19
 -1      3939 1.16152E-04-4.86044E-05-2.90343E-05-8.64847E-06-1.07882E-18-2.07722E-19
 -1      3940 1.01603E-04-3.70596E-05-2.76473E-05-1.22241E-05-5.15318E-19-9.35498E-19
 -1      3941 9.93938E-05-3.47322E-05-2.76532E-05-1.21981E-05-3.94870E-19-8.62600E-19
 -1      3942 1.00449E-04-3.77772E-05-2.69590E-05-1.48517E-05-6.20673E-19-1.25910E-18
 -1      3943 6.07053E-05-1.41142E-05-1.98113E-05-2.52299E-06-1.11231E-18 2.78442E-18
 -1      3944 9.66577E-05-3.56483E-05-2.60643E-05 1.61922E-05-1.09377E-18-1.62120E-18
 -1      3945 9.23833E-05-3.44171E-05-2.49395E-05 1.93246E-05-1.05037E-18-1.37953E-18
 -1      3946 9.43575E-05-3.33221E-05-2.61199E-05 1.55166E-05-1.01553E-18-8.17706E-19
 -1      3947 8.81879E-05-3.17929E-05-2.40424E-05 2.02899E-05-1.10992E-18-9.66234E-19
 -1      3948 9.40010E-05-2.43633E-05-2.98444E-05-3.78938E-06 7.66044E-19-1.19163E-18
 -1      3949 9.33958E-05-2.34256E-05-2.99864E-05-3.20892E-06 8.05624E-19-1.28418E-18
 -1      3950 9.40124E-05-2.48138E-05-2.96553E-05-4.57918E-06 5.05590E-19-1.19266E-18
 -1      3951 6.90833E-05-1.83499E-05-2.17509E-05-1.10894E-05-2.07073E-19-1.92699E-18
 -1      3952 7.09775E-05-2.02232E-05-2.16554E-05-1.50243E-05-4.23573E-19-1.68577E-18
 -1      3953 7.69730E-05-2.28292E-05-2.31405E-05-1.52674E-05-4.23777E-19-1.76454E-18
 -1      3954 9.51424E-05-2.83362E-05-2.86316E-05-8.76389E-09 2.90070E-20-2.26932E-18
 -1      3955 9.51421E-05-2.83360E-05-2.86315E-05 5.77473E-09 6.71959E-19-2.79408E-18
 -1      3956 9.51223E-05-2.82952E-05-2.86393E-05 1.97406E-08 1.67224E-19-3.28357E-18
 -1      3957 9.16203E-05-1.99805E-05-3.07110E-05-8.53838E-07 6.81323E-19-1.79743E-18
 -1      3958 9.12670E-05-1.96011E-05-3.07277E-05-7.65226E-07 4.37650E-19-1.85420E-18
 -1      3959 9.12473E-05-2.01117E-05-3.04654E-05-8.41990E-07 2.95877E-19-1.79162E-18
 -1      3960 9.05432E-05-1.74451E-05-3.13322E-05-3.90876E-07 2.74320E-19-2.05259E-18
 -1      3961 9.15441E-05-2.14693E-05-3.00271E-05 2.21655E-06-1.08568E-19-1.32922E-18
 -1      3962 9.51632E-05-2.83646E-05-2.86285E-05 5.08065E-08 1.94908E-18-1.67995E-18
 -1      3963 9.51742E-05-2.83782E-05-2.86269E-05 5.95223E-08 8.90469E-19 7.01588E-19
 -1      3964 9.51625E-05-2.83515E-05-2.86332E-05 7.60203E-08 9.95743E-19 1.90479E-18
 -1      3965 9.51374E-05-2.83167E-05-2.86371E-05 5.45166E-08 2.46425E-19-3.38900E-18
 -1      3966 1.15099E-04-4.67834E-05-2.93092E-05-6.31972E-06-7.25646E-19 2.71889E-19
 -1      3967 7.14663E-05-1.67887E-05-2.34730E-05-6.53873E-06-8.75951E-19 2.39183E-18
 -1      3968 7.40452E-05-1.70885E-05-2.44823E-05-5.36582E-06-2.46899E-19 1.95595E-18
 -1      3969 8.61806E-05-2.06087E-05-2.81260E-05 3.67382E-06 4.19174E-21-1.53892E-18
 -1      3970 8.48672E-05-2.02265E-05-2.77209E-05 4.05525E-06-4.48878E-20-1.55395E-18
 -1      3971 8.31583E-05-1.97353E-05-2.72173E-05 4.22006E-06 8.17850E-20-1.64766E-18
 -1      3972 8.14854E-05-1.92831E-05-2.66780E-05 4.68045E-06 2.61971E-19-1.58949E-18
 -1      3973 8.34336E-05-1.95742E-05-2.73193E-05 2.32494E-06 1.22272E-19-1.39364E-18
 -1      3974 7.92166E-05-1.87307E-05-2.59899E-05 4.89448E-06 5.53367E-19-1.53346E-18
 -1      3975 7.71784E-05-1.82566E-05-2.52771E-05 5.56245E-06 6.97085E-19-1.51952E-18
 -1      3976 7.95736E-05-1.84357E-05-2.61205E-05 2.40897E-06 3.45147E-19-1.35399E-18
 -1      3977 9.06598E-05-1.71263E-05-3.15239E-05-7.57589E-07 7.42090E-21-2.25924E-18
 -1      3978 9.10833E-05-1.79328E-05-3.13334E-05-4.86418E-07-5.81857E-20-2.08188E-18
 -1      3979 9.39232E-05-2.56053E-05-2.92726E-05-6.02851E-06 1.51817E-19-1.23360E-18
 -1      3980 9.38852E-05-2.51884E-05-2.94413E-05-5.31575E-06 3.15292E-19-1.15074E-18
 -1      3981 9.32195E-05-2.43279E-05-2.95258E-05-4.72553E-06 3.74583E-19-1.00790E-18
 -1      3982 9.01181E-05-2.48149E-05-2.79995E-05 6.81828E-06 1.15433E-19-7.42583E-20
 -1      3983 9.02068E-05-2.51973E-05-2.78388E-05 7.59058E-06-4.95508E-19-5.50449E-19
 -1      3984 9.78042E-05-3.28042E-05-2.78253E-05-1.14964E-05-3.73393E-19-7.33333E-19
 -1      3985 9.63186E-05-3.10820E-05-2.79351E-05-1.11036E-05-2.04360E-19-9.08193E-19
 -1      3986 9.39833E-05-2.95080E-05-2.76765E-05-1.13503E-05-2.82965E-19-1.00183E-18
 -1      3987 9.63482E-05-3.30260E-05-2.72273E-05-1.33238E-05-3.83330E-19-8.72633E-19
 -1      3988 7.68994E-05-1.78098E-05-2.53510E-05-4.94494E-06-4.35543E-19 1.49492E-18
 -1      3989 7.88487E-05-1.83007E-05-2.60029E-05-4.32135E-06-9.88438E-19 1.38790E-18
 -1      3990 7.42690E-05-1.66283E-05-2.45990E-05-2.28422E-06-6.82053E-19 2.90719E-18
 -1      3991 8.09045E-05-1.89183E-05-2.65840E-05-4.10084E-06-8.90328E-19 1.48512E-18
 -1      3992 8.24336E-05-1.94616E-05-2.70222E-05-3.68715E-06-1.03386E-19 1.33369E-18
 -1      3993 7.90476E-05-1.80702E-05-2.60600E-05-2.12453E-06-8.06773E-19 2.34290E-18
 -1      3994 8.40041E-05-2.00756E-05-2.74130E-05-3.53207E-06-3.00260E-19 2.15354E-19
 -1      3995 8.52206E-05-2.06300E-05-2.77046E-05-3.21814E-06-1.12288E-18-1.21547E-19
 -1      3996 8.25704E-05-1.93711E-05-2.70385E-05-2.03372E-06-1.16661E-18 7.34269E-19
 -1      3997 8.64514E-05-2.12251E-05-2.79658E-05-3.07875E-06-1.21169E-18-7.37549E-19
 -1      3998 8.74261E-05-2.17671E-05-2.81559E-05-2.81025E-06-1.14083E-18-2.88805E-19
 -1      3999 8.53090E-05-2.06028E-05-2.76971E-05-1.94138E-06-1.39265E-18-2.50228E-19
 -1      4000 8.84057E-05-2.23291E-05-2.83275E-05-2.66924E-06-6.45039E-19-1.21306E-19
 -1      4001 8.91856E-05-2.28388E-05-2.84469E-05-2.42443E-06 4.49221E-21-9.15276E-20
 -1      4002 8.74774E-05-2.17707E-05-2.81361E-05-1.81079E-06-7.07306E-19 4.58771E-19
 -1      4003 8.99706E-05-2.33562E-05-2.85556E-05-2.27974E-06 3.04686E-20-3.00572E-19
 -1      4004 9.05924E-05-2.38223E-05-2.86257E-05-2.05349E-06 6.35338E-19-3.09956E-19
 -1      4005 8.92134E-05-2.28515E-05-2.84224E-05-1.63232E-06 1.67034E-19 8.05053E-19
 -1      4006 9.12183E-05-2.42852E-05-2.86902E-05-1.91248E-06 3.28601E-19-1.35211E-18
 -1      4007 9.17091E-05-2.46979E-05-2.87271E-05-1.70525E-06 3.28747E-19-1.05766E-18
 -1      4008 9.06042E-05-2.38366E-05-2.86002E-05-1.42901E-06 2.01889E-19-1.55982E-19
 -1      4009 9.22063E-05-2.51027E-05-2.87618E-05-1.57149E-06 4.72231E-19-1.15179E-18
 -1      4010 9.25900E-05-2.54590E-05-2.87769E-05-1.38641E-06 3.47747E-19-1.85008E-18
 -1      4011 9.17111E-05-2.47103E-05-2.87032E-05-1.21410E-06-2.84254E-20-1.48994E-18
 -1      4012 9.29811E-05-2.58048E-05-2.87919E-05-1.26360E-06 6.06301E-19-2.14994E-18
 -1      4013 9.32784E-05-2.61068E-05-2.87932E-05-1.10204E-06 1.02142E-18-1.74380E-18
 -1      4014 9.25870E-05-2.54700E-05-2.87560E-05-1.00441E-06 7.28541E-19-2.74399E-18
 -1      4015 9.35838E-05-2.63975E-05-2.87954E-05-9.94167E-07 1.07568E-18-2.10704E-18
 -1      4016 9.38114E-05-2.66487E-05-2.87883E-05-8.57010E-07 7.27286E-19-1.95379E-18
 -1      4017 9.32751E-05-2.61169E-05-2.87756E-05-8.07001E-07 1.33031E-18-3.01225E-18
 -1      4018 9.40462E-05-2.68881E-05-2.87828E-05-7.65426E-07 8.73695E-19-1.69137E-18
 -1      4019 9.42181E-05-2.70933E-05-2.87712E-05-6.51697E-07 5.58089E-19-1.69640E-18
 -1      4020 9.38087E-05-2.66580E-05-2.87739E-05-6.32927E-07 8.43621E-19-4.05675E-18
 -1      4021 9.43961E-05-2.72872E-05-2.87614E-05-5.75891E-07-5.72429E-19-1.30172E-18
 -1      4022 9.45241E-05-2.74521E-05-2.87478E-05-4.83642E-07-6.52182E-19-2.72563E-18
 -1      4023 9.42165E-05-2.71020E-05-2.87596E-05-4.84100E-07 3.42792E-19-3.51535E-18
 -1      4024 9.46569E-05-2.76067E-05-2.87360E-05-4.22469E-07-5.56193E-19-2.10516E-18
 -1      4025 9.47505E-05-2.77372E-05-2.87221E-05-3.49218E-07-4.97091E-19-2.09685E-18
 -1      4026 9.45235E-05-2.74603E-05-2.87387E-05-3.60551E-07-3.49804E-19-2.25988E-18
 -1      4027 9.48479E-05-2.78585E-05-2.87097E-05-3.00931E-07-7.37819E-19-2.60422E-18
 -1      4028 9.49150E-05-2.79604E-05-2.86965E-05-2.43897E-07-1.02708E-18-2.57185E-18
 -1      4029 9.47508E-05-2.77447E-05-2.87149E-05-2.60828E-07-4.79671E-19-1.32940E-18
 -1      4030 9.49847E-05-2.80539E-05-2.86845E-05-2.07036E-07-8.15743E-19-1.52052E-18
 -1      4031 9.50316E-05-2.81325E-05-2.86723E-05-1.63196E-07-4.45964E-19-1.75105E-18
 -1      4032 9.49160E-05-2.79676E-05-2.86908E-05-1.82337E-07-3.73671E-19-1.14351E-18
 -1      4033 9.50807E-05-2.82042E-05-2.86611E-05-1.35570E-07-1.81396E-20-1.14644E-18
 -1      4034 9.51120E-05-2.82635E-05-2.86502E-05-1.03273E-07-3.50221E-20-6.91610E-19
 -1      4035 9.50324E-05-2.81395E-05-2.86677E-05-1.22451E-07-1.31220E-19-1.12995E-18
 -1      4036 8.99774E-05-2.56151E-05-2.75954E-05 8.61104E-06-4.50426E-19-7.60712E-19
 -1      4037 9.04106E-05-2.64085E-05-2.73956E-05 9.53378E-06-5.94821E-19-8.58394E-19
 -1      4038 8.84278E-05-2.43642E-05-2.74574E-05 7.92462E-06-6.39553E-19 4.60949E-19
 -1      4039 6.36067E-05-1.47393E-05-2.09645E-05-4.45159E-06-1.69848E-18 3.04381E-18
 -1      4040 6.88757E-05-1.60885E-05-2.26031E-05-5.49478E-06-1.41664E-18 2.73336E-18
 -1      4041 6.87017E-05-1.52603E-05-2.28378E-05-1.03470E-06-1.12566E-18 3.53783E-18
 -1      4042 6.32357E-05-1.43225E-05-2.09219E-05 2.45631E-06-1.15203E-18 3.48971E-18
 -1      4043 9.69013E-05-3.53535E-05-2.62490E-05-1.64367E-05-4.52898E-19-9.48884E-19
 -1      4044 9.04829E-05-2.72904E-05-2.70900E-05 1.08356E-05-9.38020E-19-1.27024E-18
 -1      4045 9.14808E-05-2.86821E-05-2.68692E-05 1.19047E-05-6.67991E-19-8.79237E-19
 -1      4046 8.81917E-05-2.55162E-05-2.68725E-05 1.03054E-05-9.73252E-19-1.14640E-19
 -1      4047 9.05949E-05-2.45866E-05-2.83015E-05 5.38816E-06 1.78908E-19 9.37370E-19
 -1      4048 9.04885E-05-2.46960E-05-2.81824E-05 6.02417E-06 2.75892E-19 1.19928E-19
 -1      4049 8.90649E-05-2.39419E-05-2.79062E-05 6.11221E-06-2.45554E-19 3.40251E-19
 -1      4050 9.12199E-05-2.47127E-05-2.85144E-05 4.24706E-06 5.93724E-19 9.99289E-19
 -1      4051 9.10174E-05-2.46545E-05-2.84324E-05 4.77055E-06 5.04357E-19 5.47675E-19
 -1      4052 8.98764E-05-2.39836E-05-2.82351E-05 4.72517E-06 4.35767E-19 6.09724E-19
 -1      4053 9.18835E-05-2.50464E-05-2.86540E-05 3.33154E-06-7.26187E-19 1.26545E-18
 -1      4054 9.16438E-05-2.48907E-05-2.86026E-05 3.76214E-06 4.54202E-20 1.38242E-18
 -1      4055 9.07305E-05-2.42951E-05-2.84649E-05 3.65599E-06-2.24399E-20 5.27091E-19
 -1      4056 9.25181E-05-2.54832E-05-2.87373E-05 2.59608E-06-1.51560E-18 1.92414E-18
 -1      4057 9.22773E-05-2.52797E-05-2.87093E-05 2.94948E-06-1.41357E-18 1.50837E-18
 -1      4058 9.15506E-05-2.47634E-05-2.86157E-05 2.82276E-06-1.05307E-18 1.51027E-18
 -1      4059 9.30892E-05-2.59531E-05-2.87795E-05 2.00475E-06-9.59659E-19 2.02250E-18
 -1      4060 9.28669E-05-2.57348E-05-2.87683E-05 2.29346E-06-7.53496E-19 1.56358E-18
 -1      4061 9.22910E-05-2.52929E-05-2.87072E-05 2.17037E-06-1.03179E-18 2.20161E-18
 -1      4062 9.35802E-05-2.64098E-05-2.87932E-05 1.53125E-06-9.59977E-19 2.55224E-18
 -1      4063 9.33871E-05-2.61985E-05-2.87934E-05 1.76610E-06-1.12422E-18 1.94392E-18
 -1      4064 9.29352E-05-2.58262E-05-2.87558E-05 1.65725E-06-1.21700E-18 1.27895E-18
 -1      4065 9.39897E-05-2.68290E-05-2.87880E-05 1.15412E-06-3.50922E-19 2.10889E-18
 -1      4066 9.38282E-05-2.66359E-05-2.87954E-05 1.34300E-06-7.36386E-19 2.38702E-18
 -1      4067 9.34775E-05-2.63258E-05-2.87747E-05 1.25289E-06-8.95648E-19 2.05011E-18
 -1      4068 9.43205E-05-2.71966E-05-2.87713E-05 8.56690E-07-5.84722E-19 2.83886E-18
 -1      4069 9.41899E-05-2.70279E-05-2.87828E-05 1.00702E-06-8.48470E-20 2.33776E-18
 -1      4070 9.39221E-05-2.67750E-05-2.87735E-05 9.36536E-07-1.78417E-19 3.09093E-18
 -1      4071 9.45806E-05-2.75082E-05-2.87484E-05 6.24285E-07-6.14611E-20 3.04995E-18
 -1      4072 9.44782E-05-2.73657E-05-2.87618E-05 7.42526E-07-4.40224E-19 3.15578E-18
 -1      4073 9.42767E-05-2.71629E-05-2.87601E-05 6.90118E-07-2.63557E-19 3.46124E-18
 -1      4074 9.47801E-05-2.77653E-05-2.87230E-05 4.44738E-07-2.78890E-19 2.42171E-18
 -1      4075 9.47020E-05-2.76481E-05-2.87368E-05 5.36515E-07 3.76884E-19 3.15271E-18
 -1      4076 9.45529E-05-2.74880E-05-2.87398E-05 4.99453E-07 5.12263E-19 3.83521E-18
 -1      4077 9.49287E-05-2.79721E-05-2.86976E-05 3.07889E-07-1.14928E-18 1.84121E-18
 -1      4078 9.48713E-05-2.78780E-05-2.87108E-05 3.78484E-07-7.23418E-19 2.01665E-18
 -1      4079 9.47637E-05-2.77544E-05-2.87165E-05 3.53667E-07 2.04226E-19 3.57408E-18
 -1      4080 9.50368E-05-2.81353E-05-2.86736E-05 2.04871E-07-1.98947E-18 2.61174E-18
 -1      4081 9.49960E-05-2.80611E-05-2.86857E-05 2.58411E-07-1.25576E-18 2.17659E-18
 -1      4082 9.49193E-05-2.79666E-05-2.86927E-05 2.43664E-07-1.16601E-18 2.84625E-18
 -1      4083 9.51141E-05-2.82622E-05-2.86516E-05 1.29066E-07-8.52584E-19 7.43178E-19
 -1      4084 9.50853E-05-2.82051E-05-2.86625E-05 1.68442E-07-1.71591E-18 1.20728E-18
 -1      4085 9.50313E-05-2.81333E-05-2.86697E-05 1.61575E-07-9.82472E-19 8.46427E-19
 -1      4086 9.10271E-05-1.98699E-05-3.04702E-05-8.05182E-08 1.37402E-19-1.72278E-18
 -1      4087 9.10251E-05-1.93349E-05-3.07330E-05 3.49185E-08 1.52518E-19-1.81329E-18
 -1      4088 8.36297E-05-2.64535E-05-2.44065E-05-1.65978E-05-2.74749E-19-1.45067E-18
 -1      4089 9.06999E-05-3.17622E-05-2.53693E-05-1.73683E-05-3.58666E-19-9.79117E-19
 -1      4090 9.26762E-05-3.14657E-05-2.62238E-05-1.51465E-05-3.65793E-19-1.01501E-18
 -1      4091 9.51494E-05-2.83225E-05-2.86400E-05 9.81308E-08 9.75126E-20 1.21559E-18
 -1      4092 9.37913E-05-2.26863E-05-3.04778E-05-1.52157E-06 1.09513E-18-1.43073E-18
 -1      4093 9.31333E-05-2.18641E-05-3.05474E-05-1.46640E-06 9.78058E-19-1.42563E-18
 -1      4094 9.39715E-05-2.65011E-05-2.89030E-05-7.42859E-06 1.64905E-19-1.08248E-18
 -1      4095 9.38036E-05-2.59880E-05-2.90634E-05-6.76741E-06 1.84084E-19-1.16419E-18
 -1      4096 9.29505E-05-2.50984E-05-2.90837E-05-6.21986E-06 2.83445E-19-1.17625E-18
 -1      4097 9.28001E-05-2.60065E-05-2.86352E-05-7.77970E-06 2.00046E-19-1.01014E-18
 -1      4098 8.84678E-05-2.12264E-05-2.88410E-05 3.10307E-06-3.63567E-21-1.58365E-18
 -1      4099 8.74728E-05-2.09644E-05-2.85170E-05 3.49680E-06 3.48789E-20-1.53245E-18
 -1      4100 8.63733E-05-2.04410E-05-2.82225E-05 2.19071E-06 4.06489E-20-1.35558E-18
 -1      4101 9.13024E-05-1.92371E-05-3.09048E-05-2.27643E-09-3.32212E-20-1.93906E-18
 -1      4102 9.15328E-05-2.04070E-05-3.04556E-05 8.61968E-07-9.89559E-20-1.66207E-18
 -1      4103 9.04777E-05-1.70360E-05-3.14883E-05-4.79518E-07 2.30339E-19-2.16142E-18
 -1      4104 7.07526E-05-1.87385E-05-2.23338E-05 1.22493E-05-1.06084E-18 5.75559E-19
 -1      4105 6.60410E-05-1.58002E-05-2.14608E-05 7.33382E-06-1.22788E-18 1.62201E-18
 -1      4106 6.87757E-05-1.61595E-05-2.24542E-05 5.21153E-06-1.36610E-18 2.09103E-18
 -1      4107 9.51347E-05-2.83026E-05-2.86418E-05-7.59029E-08-4.87833E-19-6.64069E-19
 -1      4108 9.51536E-05-2.83491E-05-2.86308E-05-4.06271E-08-5.44373E-19-1.09821E-19
 -1      4109 9.51465E-05-2.83412E-05-2.86315E-05-2.82724E-08 1.18335E-19-1.47285E-18
 -1      4110 9.51022E-05-2.82571E-05-2.86481E-05-6.85566E-08 5.68671E-19-1.26384E-18
 -1      4111 8.47936E-05-2.84885E-05-2.40767E-05 1.82489E-05-2.64254E-19-1.13142E-18
 -1      4112 9.46857E-05-2.36546E-05-3.04475E-05-1.30722E-06 1.15237E-18-1.06729E-18
 -1      4113 9.42979E-05-2.30538E-05-3.05424E-05-1.15496E-06 1.10086E-18-1.17323E-18
 -1      4114 9.10143E-05-2.10349E-05-3.00106E-05 1.31103E-06-9.97465E-20-1.49946E-18
 -1      4115 9.04522E-05-2.13773E-05-2.95962E-05 2.08843E-06 1.18196E-20-1.38498E-18
 -1      4116 9.06518E-05-2.06009E-05-3.00198E-05 7.15720E-07 1.56591E-20-1.39795E-18
 -1      4117 8.99048E-05-2.14203E-05-2.93701E-05 2.37242E-06-4.33811E-20-1.41947E-18
 -1      4118 8.91739E-05-2.13311E-05-2.90824E-05 2.78375E-06-7.91914E-20-1.47522E-18
 -1      4119 8.82868E-05-2.08828E-05-2.88586E-05 1.80465E-06-5.33986E-20-1.42647E-18
 -1      4120 8.94888E-05-2.09895E-05-2.93375E-05 1.27382E-06-4.70078E-20-1.41529E-18
 -1      4121 8.10902E-05-2.45442E-05-2.42594E-05-1.53482E-05-3.87130E-19-1.70655E-18
 -1      4122 8.52021E-05-2.59084E-05-2.53406E-05-1.39728E-05-3.42251E-19-1.38084E-18
 -1      4123 7.86848E-05-2.24249E-05-2.41367E-05-1.30734E-05-2.77322E-19-1.65393E-18
 -1      4124 7.22527E-05-1.66316E-05-2.37309E-05 2.12186E-06 4.39820E-19-1.51383E-18
 -1      4125 7.17742E-05-1.69593E-05-2.34999E-05 5.73669E-06 5.12531E-19-1.61317E-18
 -1      4126 9.10429E-05-1.89939E-05-3.08852E-05 1.11106E-09 1.14191E-19-1.79790E-18
 -1      4127 6.89064E-05-1.67576E-05-2.23105E-05 6.92318E-06 6.66185E-19-1.71822E-18
 -1      4128 9.26578E-05-2.11689E-05-3.06495E-05-1.11465E-06 9.75029E-19-1.43483E-18
 -1      4129 9.21063E-05-2.05198E-05-3.06904E-05-1.07105E-06 7.63544E-19-1.50400E-18
 -1      4130 9.51224E-05-2.82944E-05-2.86397E-05-2.29119E-08 1.05695E-19-1.74365E-18
 -1      4131 9.12249E-05-2.07725E-05-3.02025E-05-1.29042E-06 4.91866E-19-1.49480E-18
 -1      4132 9.09381E-05-2.05013E-05-3.02057E-05-9.19254E-07 3.56477E-19-1.78442E-18
 -1      4133 9.15089E-05-2.65891E-05-2.77954E-05-9.69552E-06-1.25952E-19-1.10306E-18
 -1      4134 9.12443E-05-2.58106E-05-2.80528E-05-8.78088E-06 5.05636E-20-1.05365E-18
 -1      4135 6.75901E-05-1.73260E-05-2.14197E-05 1.13524E-05 1.15943E-18-1.94491E-18
 -1      4136 9.08603E-05-1.81255E-05-3.11578E-05-2.83566E-07 1.43733E-19-1.91417E-18
 -1      4137 9.51150E-05-2.82715E-05-2.86469E-05 9.49540E-08-5.08838E-19-1.97882E-18
 -1      4138 9.07120E-05-2.04642E-05-3.01091E-05-4.36078E-07 2.17942E-19-1.79458E-18
 -1      4139 9.06977E-05-2.04893E-05-3.01092E-05 2.65834E-08 1.12347E-19-1.49479E-18
 -1      4140 9.01457E-05-2.09367E-05-2.96564E-05 3.03084E-07-1.06185E-20-1.36795E-18
 -1      4141 9.05780E-05-2.09319E-05-2.98452E-05-8.78958E-07 2.96270E-19-1.60756E-18
 -1      4142 9.15642E-05-2.53355E-05-2.83654E-05-7.79281E-06 3.97042E-21-1.17644E-18
 -1      4143 9.15757E-05-2.48469E-05-2.86067E-05-6.97949E-06 1.59760E-19-1.13600E-18
 -1      4144 8.99612E-05-2.45933E-05-2.80161E-05-7.95351E-06-8.83811E-21-9.83751E-19
 -1      4145 1.08052E-04-4.32703E-05-2.77297E-05-1.23823E-05-1.19713E-18-1.15996E-18
 -1      4146 9.31974E-05-3.14464E-05-2.63996E-05 1.41514E-05-5.27371E-19-9.57145E-19
 -1      4147 8.94900E-05-3.01553E-05-2.55429E-05 1.60898E-05-5.72071E-19-1.32576E-18
 -1      4148 9.16582E-05-2.97009E-05-2.65436E-05 1.32503E-05-3.26384E-19-1.02897E-18
 -1      4149 6.83774E-05-1.66581E-05-2.19896E-05-7.12622E-06-1.59216E-19-2.42118E-18
 -1      4150 7.31822E-05-1.89679E-05-2.32027E-05-9.40688E-06-2.10319E-19-1.92244E-18
 -1      4151 6.89217E-05-1.63270E-05-2.25917E-05-2.51063E-06 8.99708E-20-2.14577E-18
 -1      4152 8.38401E-05-2.66517E-05-2.44872E-05 1.63067E-05-2.06028E-19-1.15977E-18
 -1      4153 7.37398E-05-2.05310E-05-2.27072E-05 1.39999E-05-7.24210E-19-4.28685E-19
 -1      4154 7.41949E-05-1.96730E-05-2.33072E-05 1.16046E-05-2.03666E-18 5.62562E-19
 -1      4155 7.74499E-05-2.30880E-05-2.32856E-05 1.57213E-05-6.31824E-19-1.80171E-18
 -1      4156 9.20134E-05-2.09368E-05-3.04437E-05-1.45487E-06 7.01261E-19-1.51787E-18
 -1      4157 9.50862E-05-2.82416E-05-2.86482E-05 1.54407E-08-4.93957E-20-2.70754E-18
 -1      4158 9.50912E-05-2.82475E-05-2.86476E-05 3.73517E-08 3.97178E-19-2.83055E-18
 -1      4159 1.11677E-04-4.45709E-05-2.86424E-05-8.78689E-06-1.14956E-18-1.16249E-19
 -1      4160 9.51003E-05-2.82543E-05-2.86486E-05 8.02088E-08-8.15514E-19-3.37740E-18
 -1      4161 9.29910E-05-2.22062E-05-3.03242E-05-2.06774E-06 9.35401E-19-1.30625E-18
 -1      4162 9.50627E-05-2.81934E-05-2.86578E-05 8.06242E-08-4.00279E-19-2.39908E-18
 -1      4163 9.29227E-05-2.28022E-05-3.00584E-05-2.74625E-06 7.63944E-19-1.22662E-18
 -1      4164 9.24756E-05-2.21234E-05-3.01523E-05-2.37949E-06 6.83278E-19-1.17158E-18
 -1      4165 9.28770E-05-2.32983E-05-2.98159E-05-3.51337E-06 6.03146E-19-1.04030E-18
 -1      4166 8.83712E-05-2.73069E-05-2.61901E-05 1.30379E-05-6.86933E-19-3.29611E-19
 -1      4167 7.45094E-05-1.75032E-05-2.44555E-05-1.32836E-06 1.32223E-19-1.52871E-18
 -1      4168 9.14185E-05-2.73928E-05-2.74435E-05-1.09069E-05-2.46317E-19-9.91361E-19
 -1      4169 8.95068E-05-2.57868E-05-2.73173E-05-1.02242E-05-2.25479E-19-7.34281E-19
 -1      4170 9.22271E-05-2.86916E-05-2.71884E-05-1.19499E-05-3.37237E-19-9.24331E-19
 -1      4171 8.05639E-05-1.89980E-05-2.64184E-05-6.43640E-08 1.90581E-19-1.09388E-18
 -1      4172 7.83237E-05-1.83986E-05-2.57387E-05-1.94406E-07 3.55605E-19-1.13557E-18
 -1      4173 7.25453E-05-1.76417E-05-2.35574E-05 7.50253E-06-1.30672E-18 1.62239E-18
 -1      4174 6.98393E-05-1.59181E-05-2.30878E-05 3.15018E-06-1.30360E-18 2.98560E-18
 -1      4175 7.23188E-05-1.65617E-05-2.38820E-05 1.66190E-06-1.08497E-18 3.20129E-18
 -1      4176 9.50030E-05-2.81106E-05-2.86673E-05 4.47016E-08 8.16963E-19-3.07120E-18
 -1      4177 9.50099E-05-2.81195E-05-2.86684E-05 9.66072E-08 2.11376E-19-1.86519E-18
 -1      4178 9.49609E-05-2.80408E-05-2.86795E-05 1.27684E-07 1.60104E-19-8.13962E-19
 -1      4179 9.25298E-05-2.40731E-05-2.93331E-05-4.93118E-06 2.47887E-19-1.14408E-18
 -1      4180 9.26618E-05-2.36956E-05-2.95614E-05-4.19403E-06 4.36315E-19-1.09266E-18
 -1      4181 9.21953E-05-2.30728E-05-2.96221E-05-3.71339E-06 5.39947E-19-1.06404E-18
 -1      4182 8.92263E-05-2.34404E-05-2.82124E-05 3.81679E-06 4.95942E-19 7.97202E-19
 -1      4183 8.87984E-05-2.32899E-05-2.80692E-05 4.39719E-06 4.39625E-19 6.15174E-19
 -1      4184 9.50909E-05-2.82455E-05-2.86484E-05-3.95280E-08 1.42770E-19-9.41710E-19
 -1      4185 9.50860E-05-2.82409E-05-2.86485E-05-1.71437E-08-1.26069E-19-2.09233E-18
 -1      4186 9.50517E-05-2.81844E-05-2.86571E-05 7.34101E-10-1.10300E-20-2.22209E-18
 -1      4187 9.50655E-05-2.81977E-05-2.86571E-05-6.63838E-08 5.91278E-19-9.72234E-19
 -1      4188 7.49607E-05-1.72108E-05-2.47721E-05 1.38150E-06-8.79412E-19 2.85973E-18
 -1      4189 7.77378E-05-1.78974E-05-2.56910E-05 2.04170E-07-8.65999E-19 2.68987E-18
 -1      4190 7.98120E-05-1.85582E-05-2.62798E-05 1.00931E-07-1.21886E-18 2.37288E-18
 -1      4191 8.15502E-05-1.91696E-05-2.67664E-05-2.93528E-07-2.02805E-18 1.87930E-18
 -1      4192 8.31137E-05-1.97730E-05-2.71663E-05-3.83458E-07-2.06312E-18 1.37528E-18
 -1      4193 8.08786E-05-1.90303E-05-2.64560E-05 1.84324E-06-1.92429E-18 1.93958E-18
 -1      4194 8.44686E-05-2.03545E-05-2.74991E-05-6.31412E-07-1.60699E-18 1.35252E-18
 -1      4195 8.56908E-05-2.09349E-05-2.77678E-05-6.77067E-07-1.68170E-18 1.31818E-18
 -1      4196 8.38670E-05-2.01320E-05-2.72685E-05 1.00299E-06-2.00321E-18 1.96454E-18
 -1      4197 8.67537E-05-2.14757E-05-2.79944E-05-8.06408E-07-1.23051E-18 2.01098E-18
 -1      4198 8.77387E-05-2.20281E-05-2.81728E-05-7.88361E-07-6.03812E-19 2.04029E-18
 -1      4199 8.61828E-05-2.11914E-05-2.78216E-05 4.46699E-07-1.03434E-18 2.49222E-18
 -1      4200 8.86189E-05-2.25595E-05-2.83229E-05-8.71418E-07-3.49235E-19 1.69130E-18
 -1      4201 8.94029E-05-2.30674E-05-2.84373E-05-8.19268E-07 1.89620E-20 1.57084E-18
 -1      4202 8.81230E-05-2.22894E-05-2.82064E-05 8.15686E-08-9.16625E-19 2.81015E-18
 -1      4203 9.01119E-05-2.35573E-05-2.85325E-05-8.52436E-07-6.02190E-19 1.30697E-18
 -1      4204 9.07343E-05-2.40135E-05-2.86017E-05-7.84648E-07-5.72277E-19 5.49817E-19
 -1      4205 8.96812E-05-2.32650E-05-2.84493E-05-1.44639E-07-1.09375E-18 2.30991E-18
 -1      4206 9.13099E-05-2.44514E-05-2.86595E-05-7.80321E-07-7.63527E-19 3.47423E-20
 -1      4207 9.18025E-05-2.48566E-05-2.86979E-05-7.05532E-07-7.34168E-19-5.32951E-19
 -1      4208 9.09414E-05-2.41638E-05-2.86030E-05-2.33066E-07-1.17648E-18 1.40323E-18
 -1      4209 9.22590E-05-2.52350E-05-2.87299E-05-6.77014E-07-4.33670E-19-1.31695E-18
 -1      4210 9.26533E-05-2.55855E-05-2.87478E-05-5.95753E-07 9.55854E-19-1.43102E-18
 -1      4211 9.19401E-05-2.49595E-05-2.86928E-05-2.57446E-07-1.21616E-18 3.96672E-19
 -1      4212 9.30161E-05-2.59157E-05-2.87617E-05-5.66022E-07 1.21384E-18-2.80461E-18
 -1      4213 9.33246E-05-2.62127E-05-2.87660E-05-4.89759E-07 9.34009E-19-3.11968E-18
 -1      4214 9.27641E-05-2.56761E-05-2.87400E-05-2.52258E-07-2.65636E-19-2.33776E-18
 -1      4215 9.36079E-05-2.64891E-05-2.87683E-05-4.57877E-07 7.76253E-19-4.19081E-18
 -1      4216 9.38450E-05-2.67356E-05-2.87642E-05-3.89523E-07 3.87655E-19-3.82125E-18
 -1      4217 9.34061E-05-2.62837E-05-2.87573E-05-2.26847E-07 1.01111E-19-4.55373E-18
 -1      4218 9.40635E-05-2.69634E-05-2.87594E-05-3.59175E-07 5.76851E-19-3.76971E-18
 -1      4219 9.42434E-05-2.71645E-05-2.87506E-05-3.00202E-07 4.08961E-19-4.02615E-18
 -1      4220 9.39055E-05-2.67920E-05-2.87556E-05-1.90895E-07 3.07287E-19-3.59621E-18
 -1      4221 9.44093E-05-2.73489E-05-2.87417E-05-2.73425E-07 3.93506E-19-3.34002E-18
 -1      4222 9.45437E-05-2.75102E-05-2.87305E-05-2.24153E-07 1.89936E-19-2.59310E-18
 -1      4223 9.42881E-05-2.72093E-05-2.87426E-05-1.53060E-07 7.42085E-19-3.34013E-18
 -1      4224 9.46674E-05-2.76571E-05-2.87198E-05-2.01667E-07 3.67379E-19-2.00002E-18
 -1      4225 9.47661E-05-2.77844E-05-2.87078E-05-1.61591E-07 6.95887E-19-1.36918E-18
 -1      4226 9.45761E-05-2.75463E-05-2.87234E-05-1.18215E-07 7.98360E-19-1.90052E-18
 -1      4227 9.48565E-05-2.78997E-05-2.86964E-05-1.43670E-07 9.33576E-20-1.64133E-18
 -1      4228 9.49269E-05-2.79987E-05-2.86846E-05-1.12952E-07-3.12154E-19-8.24306E-19
 -1      4229 9.47905E-05-2.78142E-05-2.87015E-05-8.79878E-08 1.10406E-18-2.06127E-18
 -1      4230 9.49774E-05-2.80663E-05-2.86762E-05-1.00149E-07-2.02395E-19-8.90385E-19
 -1      4231 9.50276E-05-2.81439E-05-2.86651E-05-7.74441E-08 4.31075E-19-5.99231E-19
 -1      4232 9.50167E-05-2.81301E-05-2.86654E-05-4.25297E-08 2.88790E-19-7.09117E-19
 -1      4233 9.49283E-05-2.79999E-05-2.86818E-05-6.24583E-08-4.33335E-20-2.02916E-18
 -1      4234 8.69289E-05-2.30879E-05-2.73851E-05 6.70560E-06-6.66970E-19 4.17438E-19
 -1      4235 8.66666E-05-2.33481E-05-2.71153E-05 7.70160E-06-5.31862E-19 3.43744E-19
 -1      4236 8.58593E-05-2.35666E-05-2.67313E-05 8.94999E-06-9.39672E-19-4.55136E-19
 -1      4237 8.58461E-05-2.42404E-05-2.63793E-05 1.03156E-05-1.58497E-18-6.64403E-19
 -1      4238 8.44413E-05-2.21767E-05-2.66690E-05 7.61708E-06-1.39251E-18-4.24698E-19
 -1      4239 9.03269E-05-2.39766E-05-2.84482E-05 2.88923E-06-7.70980E-19 6.99971E-19
 -1      4240 8.98931E-05-2.37324E-05-2.83514E-05 3.32113E-06-3.29778E-20 6.95574E-19
 -1      4241 8.89066E-05-2.30592E-05-2.81991E-05 3.02767E-06-5.88862E-19 8.56056E-19
 -1      4242 9.12901E-05-2.45758E-05-2.86015E-05 2.19158E-06-1.52384E-18 1.60508E-18
 -1      4243 9.08882E-05-2.42901E-05-2.85402E-05 2.53136E-06-1.14611E-18 1.48713E-18
 -1      4244 9.01556E-05-2.37533E-05-2.84404E-05 2.22718E-06-1.39305E-18 1.13358E-18
 -1      4245 9.21243E-05-2.51880E-05-2.86946E-05 1.65326E-06-8.43189E-19 2.20035E-18
 -1      4246 9.17720E-05-2.48964E-05-2.86592E-05 1.92520E-06-1.06123E-18 2.01970E-18
 -1      4247 9.11959E-05-2.44537E-05-2.85947E-05 1.63643E-06-1.55129E-18 1.49804E-18
 -1      4248 9.28277E-05-2.57748E-05-2.87446E-05 1.24309E-06-8.96429E-19 7.58824E-19
 -1      4249 9.25311E-05-2.55007E-05-2.87273E-05 1.45574E-06-6.72135E-19 1.59976E-18
 -1      4250 9.20806E-05-2.51378E-05-2.86885E-05 1.21947E-06-3.24662E-19 2.11812E-18
 -1      4251 9.34140E-05-2.63127E-05-2.87642E-05 9.25761E-07-1.11850E-18 1.65922E-18
 -1      4252 9.31690E-05-2.60619E-05-2.87598E-05 1.08984E-06-1.61833E-18 1.62185E-18
 -1      4253 9.28176E-05-2.57422E-05-2.87351E-05 8.99245E-07-1.85278E-18 1.57086E-18
 -1      4254 9.38853E-05-2.67812E-05-2.87640E-05 6.82605E-07-3.42158E-19 3.03698E-18
 -1      4255 9.36876E-05-2.65625E-05-2.87677E-05 8.10807E-07-4.31774E-19 2.67442E-18
 -1      4256 9.34196E-05-2.63009E-05-2.87551E-05 6.61015E-07-1.55080E-18 2.10031E-18
 -1      4257 9.42566E-05-2.71788E-05-2.87516E-05 4.96458E-07 1.02276E-19 3.09357E-18
 -1      4258 9.41010E-05-2.69939E-05-2.87601E-05 5.96284E-07-1.73632E-19 3.41163E-18
 -1      4259 9.38981E-05-2.67829E-05-2.87557E-05 4.80883E-07 1.75056E-19 2.52177E-18
 -1      4260 9.45430E-05-2.75079E-05-2.87324E-05 3.54635E-07 1.22897E-18 2.44568E-18
 -1      4261 9.44233E-05-2.73553E-05-2.87433E-05 4.31901E-07 7.21797E-19 2.02899E-18
 -1      4262 9.42718E-05-2.71877E-05-2.87442E-05 3.45638E-07 1.04748E-18 1.50564E-18
 -1      4263 9.47582E-05-2.77741E-05-2.87101E-05 2.47206E-07 3.82697E-19 1.64267E-18
 -1      4264 9.46691E-05-2.76512E-05-2.87219E-05 3.06067E-07 1.44632E-18 2.35777E-18
 -1      4265 9.45570E-05-2.75195E-05-2.87259E-05 2.44451E-07 1.28037E-18 6.29960E-19
 -1      4266 9.49015E-05-2.79652E-05-2.86888E-05 1.58867E-07-7.08478E-19-2.96706E-19
 -1      4267 9.48351E-05-2.78660E-05-2.87005E-05 2.01380E-07-3.87000E-20 5.00538E-19
 -1      4268 9.47524E-05-2.77646E-05-2.87061E-05 1.55047E-07 9.38987E-19-5.78528E-19
 -1      4269 9.48879E-05-2.79466E-05-2.86872E-05 8.24559E-08 5.90106E-19-2.95353E-18
 -1      4270 9.13114E-05-2.94060E-05-2.65065E-05-1.38396E-05-3.88186E-19-9.18842E-19
 -1      4271 8.80878E-05-2.31081E-05-2.78672E-05 5.04734E-06 7.87501E-20 8.10815E-20
 -1      4272 8.76966E-05-2.31069E-05-2.76668E-05 5.80715E-06-4.21313E-19-5.78559E-20
 -1      4273 8.60560E-05-2.21788E-05-2.73591E-05 5.53663E-06-2.50408E-19 1.15317E-19
 -1      4274 8.75482E-05-2.25397E-05-2.78616E-05 4.07932E-06-1.08282E-19 8.73300E-20
 -1      4275 9.20213E-05-2.46415E-05-2.88672E-05-6.29331E-06 3.97814E-19-1.23014E-18
 -1      4276 9.21458E-05-2.42697E-05-2.90967E-05-5.53818E-06 2.14656E-19-1.22059E-18
 -1      4277 9.15824E-05-2.36156E-05-2.91224E-05-5.01432E-06 3.01305E-19-1.15397E-18
 -1      4278 9.07728E-05-2.40011E-05-2.86123E-05-6.28209E-06 9.39930E-20-1.28951E-18
 -1      4279 8.50194E-05-2.45765E-05-2.59450E-05 1.16262E-05-1.50587E-18-6.26290E-19
 -1      4280 8.52243E-05-2.54120E-05-2.56039E-05 1.29121E-05-6.65338E-19-7.95860E-19
 -1      4281 8.28324E-05-2.25173E-05-2.58168E-05 1.00678E-05-1.24639E-18-1.36787E-18
 -1      4282 9.20260E-05-2.16404E-05-3.01715E-05-2.02290E-06 6.28466E-19-1.37286E-18
 -1      4283 9.15243E-05-2.11120E-05-3.01852E-05-1.70347E-06 5.25629E-19-1.45857E-18
 -1      4284 9.12362E-05-2.13551E-05-2.99295E-05-1.81043E-06 5.95665E-19-1.41091E-18
 -1      4285 9.19495E-05-2.21729E-05-2.98965E-05-2.65956E-06 5.32101E-19-1.20398E-18
 -1      4286 8.68399E-05-2.06579E-05-2.83837E-05 7.23849E-07 5.67338E-20-1.20157E-18
 -1      4287 8.55685E-05-2.03268E-05-2.79842E-05 7.39253E-07 1.89883E-19-1.13264E-18
 -1      4288 8.41373E-05-1.99515E-05-2.75280E-05 4.52875E-07 2.03938E-19-1.10789E-18
 -1      4289 8.24314E-05-1.94778E-05-2.70141E-05 3.79959E-07 1.59941E-19-1.17857E-18
 -1      4290 8.17955E-05-1.94471E-05-2.66732E-05-2.02103E-06 2.36998E-19-1.24052E-18
 -1      4291 8.49992E-05-2.02596E-05-2.77189E-05-1.08426E-06 2.64628E-19-1.08053E-18
 -1      4292 9.50131E-05-2.81300E-05-2.86650E-05-5.69303E-09 4.77798E-19-2.36706E-18
 -1      4293 9.49573E-05-2.80486E-05-2.86756E-05 1.54927E-09 3.16823E-19-2.92159E-18
 -1      4294 7.63658E-05-1.82574E-05-2.48351E-05-4.07765E-06 4.54180E-20-1.63723E-18
 -1      4295 7.65849E-05-1.79016E-05-2.50949E-05 3.80149E-06-7.98684E-19 2.18079E-18
 -1      4296 9.09795E-05-2.17696E-05-2.96644E-05-2.38116E-06 5.37560E-19-1.36640E-18
 -1      4297 9.06545E-05-2.13887E-05-2.96797E-05-1.90978E-06 4.80535E-19-1.43056E-18
 -1      4298 8.77080E-05-2.08533E-05-2.86625E-05 6.53090E-07-7.41278E-21-1.25009E-18
 -1      4299 8.72183E-05-2.07631E-05-2.84488E-05-7.39773E-07 1.00381E-19-1.06199E-18
 -1      4300 8.83879E-05-2.09754E-05-2.89135E-05 4.17116E-07 4.17950E-20-1.33678E-18
 -1      4301 8.01466E-05-2.36220E-05-2.42272E-05 1.45793E-05-7.71653E-19-1.23793E-18
 -1      4302 9.02802E-05-2.12797E-05-2.95773E-05-1.41174E-06 2.42885E-19-1.32354E-18
 -1      4303 8.83616E-05-2.37194E-05-2.76861E-05-7.61916E-06-2.26284E-20-9.38903E-19
 -1      4304 8.87131E-05-2.33646E-05-2.80265E-05-6.63407E-06 2.14691E-20-1.00554E-18
 -1      4305 7.43604E-05-1.88652E-05-2.37582E-05 9.42451E-06-1.57374E-18 1.26999E-18
 -1      4306 7.54480E-05-1.86232E-05-2.43164E-05 7.47128E-06-5.78602E-19 1.36688E-18
 -1      4307 7.67389E-05-2.06076E-05-2.40882E-05 1.13939E-05-1.35520E-18 1.51371E-19
 -1      4308 8.73854E-05-2.46138E-05-2.68672E-05-1.00518E-05-3.13138E-19-1.11424E-18
 -1      4309 8.74864E-05-2.39680E-05-2.72491E-05-8.76339E-06-2.15390E-19-1.17872E-18
 -1      4310 8.63211E-05-2.26879E-05-2.72643E-05-7.35513E-06 3.83030E-20-1.28820E-18
 -1      4311 8.84310E-05-2.72319E-05-2.62579E-05-1.32998E-05-3.81956E-19-9.07816E-19
 -1      4312 7.70379E-05-2.05650E-05-2.41572E-05-1.07253E-05-2.26677E-19-1.62100E-18
 -1      4313 8.10621E-05-2.21785E-05-2.51869E-05-1.06652E-05-2.38508E-19-1.65124E-18
 -1      4314 7.57088E-05-1.90530E-05-2.43478E-05-7.26291E-06-2.29419E-19-1.70506E-18
 -1      4315 8.98305E-05-2.09589E-05-2.94914E-05-5.56679E-07 2.36108E-20-1.14030E-18
 -1      4316 8.96027E-05-2.10431E-05-2.93977E-05 1.34058E-07-2.42826E-20-1.33683E-18
 -1      4317 8.90750E-05-2.10430E-05-2.91633E-05 3.48504E-07 7.16305E-20-1.24029E-18
 -1      4318 8.97854E-05-2.14129E-05-2.93191E-05-1.65476E-06 1.97435E-19-1.17027E-18
 -1      4319 7.95201E-05-1.96233E-05-2.56499E-05-5.35229E-06 1.06230E-19-1.54682E-18
 -1      4320 9.00683E-05-2.36748E-05-2.84656E-05 1.42360E-06-1.34598E-18 8.92507E-19
 -1      4321 8.94594E-05-2.32925E-05-2.83661E-05 1.75206E-06-1.34423E-18 9.68492E-19
 -1      4322 8.82777E-05-2.25618E-05-2.81801E-05 1.48860E-06-1.21874E-18 1.95570E-18
 -1      4323 8.75633E-05-2.21876E-05-2.80259E-05 1.88616E-06-4.26356E-19 1.58323E-18
 -1      4324 8.36032E-05-2.03641E-05-2.71342E-05 2.52891E-06-1.33146E-18 9.12591E-19
 -1      4325 8.48776E-05-2.08462E-05-2.74597E-05 2.12257E-06-8.26222E-19 1.92623E-18
 -1      4326 8.65586E-05-2.17179E-05-2.78114E-05 2.20677E-06-6.73102E-19 1.82438E-18
 -1      4327 8.92600E-05-2.30460E-05-2.83783E-05 4.32947E-07-8.86250E-19 1.48519E-18
 -1      4328 8.99167E-05-2.34923E-05-2.84733E-05 3.25755E-07-7.59188E-19 1.67208E-18
 -1      4329 9.06792E-05-2.40335E-05-2.85693E-05 3.20586E-07-1.33589E-18 8.03752E-19
 -1      4330 9.12256E-05-2.44485E-05-2.86269E-05 2.75939E-07-1.47895E-18 5.59289E-19
 -1      4331 9.19217E-05-2.50094E-05-2.86842E-05 4.32798E-07-1.15827E-18 1.20952E-18
 -1      4332 9.23598E-05-2.53707E-05-2.87148E-05 3.91464E-07-1.24043E-18 4.29115E-19
 -1      4333 9.27063E-05-2.56870E-05-2.87326E-05 2.79395E-07-1.99831E-18 6.85394E-19
 -1      4334 9.30668E-05-2.60012E-05-2.87473E-05 2.61668E-07-1.45805E-18-1.08541E-18
 -1      4335 9.33482E-05-2.62781E-05-2.87527E-05 1.78550E-07-3.96450E-19-1.36333E-18
 -1      4336 9.36317E-05-2.65441E-05-2.87559E-05 1.75264E-07-2.85256E-19-1.57857E-18
 -1      4337 9.38543E-05-2.67785E-05-2.87533E-05 1.13227E-07 7.84170E-19-1.58166E-18
 -1      4338 9.40736E-05-2.69993E-05-2.87492E-05 1.16968E-07 1.22544E-18-1.13415E-18
 -1      4339 9.42460E-05-2.71931E-05-2.87419E-05 7.09247E-08 1.45314E-18-2.19671E-18
 -1      4340 9.44130E-05-2.73730E-05-2.87337E-05 7.77075E-08 1.24307E-18-1.11294E-18
 -1      4341 9.45438E-05-2.75295E-05-2.87238E-05 4.41350E-08 7.63509E-19-1.03743E-18
 -1      4342 9.46687E-05-2.76733E-05-2.87135E-05 5.06166E-08 1.53035E-18-1.08688E-18
 -1      4343 9.47495E-05-2.77790E-05-2.87042E-05 9.69764E-09 1.26750E-18-2.80689E-18
 -1      4344 9.48426E-05-2.78935E-05-2.86932E-05 1.75472E-08 7.69580E-19-2.84844E-18
 -1      4345 9.49049E-05-2.79801E-05-2.86839E-05-8.74185E-09 6.02738E-19-3.02018E-18
 -1      4346 8.32796E-05-2.10227E-05-2.67124E-05 5.67508E-06-1.29985E-18-4.84623E-19
 -1      4347 8.23963E-05-2.10226E-05-2.62922E-05 6.81432E-06-1.44428E-18-4.47455E-19
 -1      4348 9.13730E-05-2.45800E-05-2.86264E-05 1.10992E-06-1.07480E-18 4.95560E-19
 -1      4349 9.08580E-05-2.42132E-05-2.85661E-05 1.32826E-06-1.52714E-18 4.48177E-19
 -1      4350 9.16843E-05-2.25603E-05-2.96291E-05-3.29878E-06 5.20017E-19-1.24614E-18
 -1      4351 8.61918E-05-2.53484E-05-2.61013E-05-1.22140E-05-3.85560E-19-1.11514E-18
 -1      4352 8.01554E-05-1.92404E-05-2.61544E-05 3.63333E-06-1.76753E-18 9.53713E-19
 -1      4353 8.18596E-05-1.97010E-05-2.66472E-05 2.98495E-06-2.06435E-18 7.28087E-19
 -1      4354 8.41054E-05-2.33923E-05-2.60223E-05-1.06447E-05-2.60601E-19-1.67487E-18
 -1      4355 8.80010E-05-2.24990E-05-2.80564E-05-5.57040E-06-5.81361E-20-8.76476E-19
 -1      4356 8.95161E-05-2.33128E-05-2.83635E-05-5.93198E-06-2.51301E-20-1.06987E-18
 -1      4357 8.99625E-05-2.31721E-05-2.86384E-05-5.27715E-06 1.07353E-19-1.20892E-18
 -1      4358 9.11336E-05-2.25609E-05-2.93836E-05-3.47737E-06 4.74208E-19-1.36259E-18
 -1      4359 9.07843E-05-2.27258E-05-2.91792E-05-3.91241E-06 2.69299E-19-1.31722E-18
 -1      4360 9.00677E-05-2.18822E-05-2.92033E-05-2.88944E-06 3.21532E-19-1.32225E-18
 -1      4361 8.94118E-05-2.15291E-05-2.91045E-05-2.02232E-06 1.48883E-19-1.02019E-18
 -1      4362 9.03916E-05-2.28897E-05-2.89277E-05-4.46504E-06 2.32276E-19-1.26015E-18
 -1      4363 8.24044E-05-2.17254E-05-2.60435E-05-8.46861E-06-1.75378E-19-1.44989E-18
 -1      4364 9.03229E-05-2.37858E-05-2.85067E-05 8.50709E-07-1.34003E-18 4.37314E-19
 -1      4365 8.86963E-05-2.10107E-05-2.89812E-05-7.67414E-07 1.12403E-19-1.08535E-18
 -1      4366 8.66936E-05-2.19601E-05-2.77203E-05 3.53393E-06-4.27968E-19 9.44028E-19
 -1      4367 9.17986E-05-2.48984E-05-2.86635E-05 9.35405E-07-7.86364E-19 7.04505E-19
 -1      4368 8.03596E-05-1.97249E-05-2.59394E-05 5.79279E-06-1.67510E-18-2.15801E-19
 -1      4369 8.12624E-05-2.10143E-05-2.58748E-05 7.97952E-06-1.24699E-18-6.26951E-19
 -1      4370 8.04155E-05-2.11095E-05-2.54124E-05 9.14540E-06-1.30629E-18-8.04729E-19
 -1      4371 7.91194E-05-1.90405E-05-2.57312E-05 4.54838E-06-1.40304E-18 7.48925E-19
 -1      4372 7.64869E-05-1.85579E-05-2.48514E-05 6.26292E-06-9.97197E-19 1.18230E-18
 -1      4373 8.32956E-05-2.05097E-05-2.68801E-05 4.13309E-06-1.24652E-18-1.99617E-19
 -1      4374 8.67155E-05-2.17446E-05-2.78366E-05-4.61519E-06 1.53661E-19-9.45696E-19
 -1      4375 8.75307E-05-2.18136E-05-2.81818E-05-4.03773E-06 4.52956E-20-9.30771E-19
 -1      4376 8.43647E-05-2.17411E-05-2.68073E-05-6.77201E-06-9.18170E-20-1.25072E-18
 -1      4377 8.51948E-05-2.16440E-05-2.72655E-05-5.71191E-06 5.40331E-20-1.26914E-18
 -1      4378 8.48948E-05-2.09013E-05-2.74101E-05-4.04528E-06 1.38913E-19-1.23378E-18
 -1      4379 8.13823E-05-2.05736E-05-2.60408E-05-6.67881E-06-2.39812E-20-1.57037E-18
 -1      4380 8.14742E-05-1.99130E-05-2.64390E-05-3.90280E-06 2.50894E-19-1.37295E-18
 -1      4381 8.84271E-05-2.25165E-05-2.82337E-05 5.96797E-07-8.43874E-19 1.96152E-18
 -1      4382 8.63062E-05-2.08272E-05-2.80682E-05-1.86516E-06 1.21912E-19-1.21938E-18
 -1      4383 8.49187E-05-2.05332E-05-2.76222E-05-2.28767E-06 2.46803E-19-1.13851E-18
 -1      4384 8.33370E-05-2.02504E-05-2.70281E-05-3.22225E-06 2.78894E-19-1.33439E-18
 -1      4385 8.71392E-05-2.10428E-05-2.83416E-05-1.82212E-06 1.39070E-19-9.46308E-19
 -1      4386 8.72480E-05-2.12742E-05-2.82525E-05-2.93872E-06 7.95154E-20-8.54317E-19
 -1      4387 8.83906E-05-2.19868E-05-2.84568E-05-3.86235E-06-6.45785E-21-8.24681E-19
 -1      4388 8.79533E-05-2.12102E-05-2.86237E-05-1.79734E-06 7.78786E-20-1.02638E-18
 -1      4389 7.81043E-05-1.97052E-05-2.50144E-05 8.14205E-06-8.21574E-19 2.91861E-19
 -1      4390 7.93651E-05-2.12443E-05-2.49357E-05 1.04376E-05-1.07205E-18-3.65424E-19
 -1      4391 8.50207E-05-2.15488E-05-2.72018E-05 4.94506E-06-3.19820E-19 6.26109E-19
 -1      4392 7.93596E-05-2.20436E-05-2.45708E-05 1.22543E-05-1.34783E-18-1.22622E-18
 -1      4393 8.92305E-05-2.22633E-05-2.86952E-05-4.09702E-06 1.77250E-19-9.51589E-19
 -1      4394 8.87758E-05-2.14715E-05-2.88544E-05-2.06822E-06 1.67586E-19-1.04756E-18
 -1      4395 8.58925E-05-2.17535E-05-2.74975E-05 4.15642E-06-1.80355E-19 2.69299E-19
 -1      4396 8.88827E-05-2.17527E-05-2.87603E-05-3.06194E-06 1.65825E-19-9.72729E-19
 -3
    1PSTEP                         4           1           1          
  100CL  101 1.000000000        4396                     0    1           1
 -4  ERROR       1    1
 -5  STR(%)      1    1    0    0
 -1         1 1.19806E+01
 -1         2 2.54167E+01
 -1         3 8.19693E-04
 -1         4 8.96472E-04
 -1         5 1.38759E+01
 -1         6 1.29742E+01
 -1         7 1.29742E+01
 -1         8 3.55375E+00
 -1         9 1.79249E+00
 -1        10 1.29584E+00
 -1        11 1.03850E+00
 -1        12 8.69725E-01
 -1        13 7.53902E-01
 -1        14 6.74724E-01
 -1        15 6.82111E-01
 -1        16 7.64739E-01
 -1        17 8.76503E-01
 -1        18 1.05036E+00
 -1        19 1.31592E+00
 -1        20 1.80802E+00
 -1        21 3.40594E+00
 -1        22 8.43219E+00
 -1        23 1.29742E+01
 -1        24 4.30322E+00
 -1        25 3.26328E+00
 -1        26 2.01538E+00
 -1        27 1.46816E+00
 -1        28 1.14841E+00
 -1        29 9.17008E-01
 -1        30 8.70442E-01
 -1        31 9.64955E-01
 -1        32 1.02777E+00
 -1        33 1.33517E+00
 -1        34 1.70751E+00
 -1        35 1.98038E+00
 -1        36 1.98038E+00
 -1        37 1.97933E+00
 -1        38 1.97933E+00
 -1        39 2.54705E+00
 -1        40 4.80858E+00
 -1        41 5.71657E+00
 -1        42 5.73049E+00
 -1        43 5.73049E+00
 -1        44 4.42564E+00
 -1        45 2.47086E+00
 -1        46 2.00101E+00
 -1        47 2.00101E+00
 -1        48 1.99613E+00
 -1        49 1.93291E+00
 -1        50 1.64378E+00
 -1        51 1.30002E+00
 -1        52 1.03244E+00
 -1        53 7.83174E-01
 -1        54 6.45611E-01
 -1        55 5.22835E-01
 -1        56 4.11158E-01
 -1        57 3.15498E-01
 -1        58 2.36797E-01
 -1        59 1.73924E-01
 -1        60 1.24841E-01
 -1        61 1.02216E-01
 -1        62 8.26659E-02
 -1        63 6.54130E-02
 -1        64 5.05466E-02
 -1        65 3.79382E-02
 -1        66 2.73382E-02
 -1        67 2.08748E-02
 -1        68 1.58525E-02
 -1        69 1.06942E-02
 -1        70 6.06150E-03
 -1        71 4.67303E-03
 -1        72 1.38759E+01
 -1        73 3.40936E+00
 -1        74 2.39452E+00
 -1        75 1.63296E+00
 -1        76 1.28721E+00
 -1        77 1.08717E+00
 -1        78 9.18295E-01
 -1        79 7.58510E-01
 -1        80 6.09803E-01
 -1        81 5.93687E-01
 -1        82 5.77577E-01
 -1        83 6.92555E-01
 -1        84 7.51768E-01
 -1        85 9.79445E-01
 -1        86 1.01034E+00
 -1        87 1.28151E+00
 -1        88 1.43640E+00
 -1        89 2.19313E+00
 -1        90 2.56978E+00
 -1        91 2.89507E+00
 -1        92 2.89507E+00
 -1        93 2.82996E+00
 -1        94 2.15605E+00
 -1        95 1.31931E+00
 -1        96 9.21726E-01
 -1        97 7.33897E-01
 -1        98 8.40988E-01
 -1        99 8.53591E-01
 -1       100 8.53591E-01
 -1       101 7.77570E-01
 -1       102 6.58469E-01
 -1       103 5.52490E-01
 -1       104 4.42477E-01
 -1       105 3.39254E-01
 -1       106 2.56059E-01
 -1       107 2.03030E-01
 -1       108 1.55945E-01
 -1       109 1.16131E-01
 -1       110 8.37142E-02
 -1       111 5.81346E-02
 -1       112 4.30417E-02
 -1       113 3.57376E-02
 -1       114 2.86593E-02
 -1       115 2.20685E-02
 -1       116 1.78879E-02
 -1       117 1.50169E-02
 -1       118 1.12912E-02
 -1       119 6.96859E-03
 -1       120 4.32423E-03
 -1       121 2.03428E-03
 -1       122 1.15393E-03
 -1       123 5.35320E-04
 -1       124 7.14127E-04
 -1       125 7.14127E-04
 -1       126 6.68705E-04
 -1       127 5.40440E-04
 -1       128 4.27047E-04
 -1       129 4.52621E-04
 -1       130 5.82595E-04
 -1       131 7.24408E-04
 -1       132 7.70728E-04
 -1       133 7.70728E-04
 -1       134 5.76405E-04
 -1       135 1.57454E-03
 -1       136 2.92632E-03
 -1       137 2.54167E+01
 -1       138 4.57220E+01
 -1       139 4.57220E+01
 -1       140 1.82887E+01
 -1       141 1.24192E+01
 -1       142 1.24192E+01
 -1       143 1.19531E+01
 -1       144 1.30766E+01
 -1       145 1.30766E+01
 -1       146 1.18434E+01
 -1       147 2.57511E+01
 -1       148 2.94754E+01
 -1       149 2.94754E+01
 -1       150 2.43975E+01
 -1       151 2.47114E+01
 -1       152 2.48575E+01
 -1       153 4.74330E+01
 -1       154 4.74330E+01
 -1       155 2.04649E+01
 -1       156 1.26317E+01
 -1       157 1.26317E+01
 -1       158 1.25507E+01
 -1       159 1.23165E+01
 -1       160 1.22459E+01
 -1       161 2.55373E+01
 -1       162 3.07604E+01
 -1       163 3.07604E+01
 -1       164 2.49608E+01
 -1       165 5.90127E+00
 -1       166 2.27463E+00
 -1       167 1.52447E+00
 -1       168 1.16410E+00
 -1       169 9.56650E-01
 -1       170 8.19900E-01
 -1       171 7.25457E-01
 -1       172 6.68451E-01
 -1       173 7.33985E-01
 -1       174 8.28256E-01
 -1       175 9.69629E-01
 -1       176 1.18263E+00
 -1       177 1.54625E+00
 -1       178 2.26682E+00
 -1       179 3.83793E+00
 -1       180 1.38759E+01
 -1       181 4.30322E+00
 -1       182 3.26328E+00
 -1       183 2.01538E+00
 -1       184 1.46816E+00
 -1       185 1.14841E+00
 -1       186 9.17008E-01
 -1       187 7.65026E-01
 -1       188 8.70442E-01
 -1       189 9.64955E-01
 -1       190 1.12263E+00
 -1       191 1.37094E+00
 -1       192 1.70751E+00
 -1       193 1.98038E+00
 -1       194 1.97696E+00
 -1       195 1.97933E+00
 -1       196 1.80403E+00
 -1       197 2.83018E+00
 -1       198 4.80858E+00
 -1       199 5.71657E+00
 -1       200 5.73049E+00
 -1       201 4.42564E+00
 -1       202 2.53542E+00
 -1       203 1.74326E+00
 -1       204 2.00101E+00
 -1       205 1.99613E+00
 -1       206 1.93291E+00
 -1       207 1.64378E+00
 -1       208 1.36703E+00
 -1       209 1.18497E+00
 -1       210 9.84027E-01
 -1       211 7.78466E-01
 -1       212 5.92389E-01
 -1       213 4.35893E-01
 -1       214 3.17051E-01
 -1       215 2.45289E-01
 -1       216 1.85950E-01
 -1       217 1.38198E-01
 -1       218 1.02216E-01
 -1       219 8.26659E-02
 -1       220 6.54130E-02
 -1       221 5.05466E-02
 -1       222 3.79382E-02
 -1       223 2.77743E-02
 -1       224 2.08748E-02
 -1       225 1.58525E-02
 -1       226 1.06942E-02
 -1       227 6.58068E-03
 -1       228 4.67303E-03
 -1       229 3.40936E+00
 -1       230 2.39452E+00
 -1       231 1.63296E+00
 -1       232 1.28721E+00
 -1       233 1.08717E+00
 -1       234 9.18295E-01
 -1       235 7.58510E-01
 -1       236 6.09803E-01
 -1       237 5.93687E-01
 -1       238 5.77577E-01
 -1       239 5.69679E-01
 -1       240 6.92555E-01
 -1       241 7.51768E-01
 -1       242 9.79445E-01
 -1       243 1.01034E+00
 -1       244 1.28151E+00
 -1       245 1.61055E+00
 -1       246 2.19313E+00
 -1       247 2.56978E+00
 -1       248 2.89507E+00
 -1       249 2.82996E+00
 -1       250 2.15605E+00
 -1       251 1.31931E+00
 -1       252 9.21726E-01
 -1       253 7.02150E-01
 -1       254 7.33897E-01
 -1       255 8.40988E-01
 -1       256 8.53591E-01
 -1       257 7.77570E-01
 -1       258 6.58469E-01
 -1       259 5.52490E-01
 -1       260 4.55397E-01
 -1       261 3.60405E-01
 -1       262 2.74021E-01
 -1       263 2.03030E-01
 -1       264 1.55945E-01
 -1       265 1.16131E-01
 -1       266 8.50842E-02
 -1       267 6.10680E-02
 -1       268 4.30417E-02
 -1       269 3.57376E-02
 -1       270 2.86593E-02
 -1       271 2.20685E-02
 -1       272 1.78879E-02
 -1       273 1.50169E-02
 -1       274 1.12912E-02
 -1       275 6.96859E-03
 -1       276 4.32423E-03
 -1       277 1.32861E-03
 -1       278 1.01413E-03
 -1       279 1.23545E-03
 -1       280 1.23545E-03
 -1       281 1.21500E-03
 -1       282 1.07021E-03
 -1       283 8.10324E-04
 -1       284 6.54856E-04
 -1       285 8.94378E-04
 -1       286 1.16567E-03
 -1       287 1.32048E-03
 -1       288 1.32840E-03
 -1       289 1.32840E-03
 -1       290 1.26725E-03
 -1       291 2.64785E-03
 -1       292 3.23828E+01
 -1       293 2.60765E+01
 -1       294 4.57220E+01
 -1       295 1.88926E+01
 -1       296 1.07996E+01
 -1       297 1.24192E+01
 -1       298 1.19475E+01
 -1       299 1.19531E+01
 -1       300 1.30766E+01
 -1       301 1.16467E+01
 -1       302 1.18434E+01
 -1       303 2.69657E+01
 -1       304 3.27047E+01
 -1       305 3.27047E+01
 -1       306 2.90654E+01
 -1       307 2.90654E+01
 -1       308 2.77976E+01
 -1       309 4.74330E+01
 -1       310 2.20881E+01
 -1       311 1.12969E+01
 -1       312 1.19806E+01
 -1       313 1.26317E+01
 -1       314 1.25507E+01
 -1       315 1.23165E+01
 -1       316 1.20964E+01
 -1       317 1.22459E+01
 -1       318 2.71738E+01
 -1       319 3.19218E+01
 -1       320 3.19218E+01
 -1       321 3.23828E+01
 -1       322 1.05203E+00
 -1       323 2.39108E+00
 -1       324 7.97788E-01
 -1       325 6.79972E-01
 -1       326 5.96185E-01
 -1       327 5.31769E-01
 -1       328 5.40348E-01
 -1       329 6.04886E-01
 -1       330 6.93434E-01
 -1       331 8.06398E-01
 -1       332 9.53509E-01
 -1       333 1.16271E+00
 -1       334 1.30601E+00
 -1       335 2.09240E+00
 -1       336 1.76938E+00
 -1       337 1.61802E+00
 -1       338 1.10856E+00
 -1       339 7.89367E-01
 -1       340 6.53111E-01
 -1       341 5.15713E-01
 -1       342 6.26689E-01
 -1       343 7.49618E-01
 -1       344 9.80267E-01
 -1       345 1.16902E+00
 -1       346 1.34098E+00
 -1       347 1.50979E+00
 -1       348 1.53659E+00
 -1       349 1.45544E+00
 -1       350 1.63442E+00
 -1       351 2.05775E+00
 -1       352 2.53204E+00
 -1       353 3.21900E+00
 -1       354 3.72283E+00
 -1       355 3.17205E+00
 -1       356 2.38296E+00
 -1       357 1.77967E+00
 -1       358 1.67369E+00
 -1       359 1.55253E+00
 -1       360 1.59493E+00
 -1       361 1.52837E+00
 -1       362 1.37696E+00
 -1       363 1.25084E+00
 -1       364 1.08535E+00
 -1       365 8.95130E-01
 -1       366 7.10222E-01
 -1       367 5.46217E-01
 -1       368 4.08951E-01
 -1       369 2.98612E-01
 -1       370 2.12584E-01
 -1       371 1.47175E-01
 -1       372 1.00587E-01
 -1       373 7.14991E-02
 -1       374 5.19744E-02
 -1       375 3.97053E-02
 -1       376 3.18404E-02
 -1       377 2.46099E-02
 -1       378 1.81168E-02
 -1       379 1.25275E-02
 -1       380 9.27909E-03
 -1       381 6.12594E-03
 -1       382 3.58132E-03
 -1       383 1.08038E+00
 -1       384 7.40169E-01
 -1       385 6.52062E-01
 -1       386 5.99591E-01
 -1       387 5.26328E-01
 -1       388 4.77244E-01
 -1       389 4.73924E-01
 -1       390 4.85590E-01
 -1       391 4.85590E-01
 -1       392 4.69004E-01
 -1       393 3.73257E-01
 -1       394 4.59931E-01
 -1       395 8.55978E-01
 -1       396 1.29933E+00
 -1       397 1.57410E+00
 -1       398 1.57410E+00
 -1       399 1.56433E+00
 -1       400 1.67437E+00
 -1       401 1.80455E+00
 -1       402 1.54247E+00
 -1       403 1.07321E+00
 -1       404 6.71864E-01
 -1       405 4.25513E-01
 -1       406 5.12548E-01
 -1       407 5.85824E-01
 -1       408 6.27593E-01
 -1       409 6.14713E-01
 -1       410 5.54004E-01
 -1       411 4.95179E-01
 -1       412 4.20668E-01
 -1       413 3.41552E-01
 -1       414 2.66594E-01
 -1       415 2.00566E-01
 -1       416 1.50635E-01
 -1       417 1.14872E-01
 -1       418 8.50842E-02
 -1       419 6.10680E-02
 -1       420 4.22367E-02
 -1       421 2.78381E-02
 -1       422 2.17092E-02
 -1       423 1.75228E-02
 -1       424 1.33326E-02
 -1       425 9.35753E-03
 -1       426 7.08604E-03
 -1       427 4.93560E-03
 -1       428 3.11903E-03
 -1       429 1.85013E-03
 -1       430 1.91222E-03
 -1       431 2.59228E-03
 -1       432 1.63759E-03
 -1       433 1.41860E-03
 -1       434 1.01811E-03
 -1       435 6.12221E-04
 -1       436 6.98637E-04
 -1       437 1.14475E-03
 -1       438 1.55771E-03
 -1       439 1.80058E-03
 -1       440 1.94239E-03
 -1       441 2.81166E-03
 -1       442 2.60765E+01
 -1       443 3.40835E+01
 -1       444 2.57831E+01
 -1       445 1.54417E+01
 -1       446 8.84934E+00
 -1       447 9.36075E-01
 -1       448 1.06931E+01
 -1       449 1.11846E+01
 -1       450 1.13556E+01
 -1       451 8.21256E+00
 -1       452 7.09011E+00
 -1       453 1.09648E+01
 -1       454 1.90628E+01
 -1       455 3.27047E+01
 -1       456 3.16147E+01
 -1       457 3.16147E+01
 -1       458 3.07511E+01
 -1       459 2.77976E+01
 -1       460 1.66635E+01
 -1       461 9.45671E+00
 -1       462 7.50312E+00
 -1       463 9.49964E+00
 -1       464 1.03474E+01
 -1       465 1.04174E+01
 -1       466 9.43481E+00
 -1       467 6.59327E+00
 -1       468 1.09637E+01
 -1       469 1.91877E+01
 -1       470 3.19218E+01
 -1       471 3.40835E+01
 -1       472 7.82988E+00
 -1       473 9.21133E-01
 -1       474 4.71408E-01
 -1       475 5.19650E-01
 -1       476 3.77206E-01
 -1       477 4.26135E-01
 -1       478 4.80763E-01
 -1       479 5.27283E-01
 -1       480 5.42424E-01
 -1       481 6.89431E-01
 -1       482 7.55566E+00
 -1       483 7.16372E-01
 -1       484 6.70446E-01
 -1       485 4.78724E+00
 -1       486 4.82236E-01
 -1       487 3.30027E-01
 -1       488 2.62560E-01
 -1       489 4.18139E-01
 -1       490 6.23890E-01
 -1       491 8.51630E-01
 -1       492 1.08599E+00
 -1       493 1.30206E+00
 -1       494 1.46193E+00
 -1       495 1.82359E+00
 -1       496 2.19742E+00
 -1       497 2.56951E+00
 -1       498 2.77232E+00
 -1       499 4.70680E+00
 -1       500 5.10485E+00
 -1       501 3.72283E+00
 -1       502 3.72283E+00
 -1       503 3.13368E+00
 -1       504 2.98911E+00
 -1       505 2.95414E+00
 -1       506 2.48355E+00
 -1       507 2.17302E+00
 -1       508 1.81105E+00
 -1       509 1.50614E+00
 -1       510 1.35386E+00
 -1       511 1.15912E+00
 -1       512 9.56842E-01
 -1       513 7.67523E-01
 -1       514 6.01248E-01
 -1       515 4.61338E-01
 -1       516 3.47238E-01
 -1       517 2.56445E-01
 -1       518 1.85674E-01
 -1       519 1.31527E-01
 -1       520 9.08369E-02
 -1       521 6.08279E-02
 -1       522 3.91533E-02
 -1       523 2.54149E-02
 -1       524 1.77017E-02
 -1       525 1.45699E-02
 -1       526 1.12621E-02
 -1       527 8.03058E-03
 -1       528 5.22795E-03
 -1       529 4.23506E-01
 -1       530 3.15842E-01
 -1       531 3.56045E-01
 -1       532 3.69436E-01
 -1       533 4.20082E-01
 -1       534 4.85590E-01
 -1       535 4.91145E-01
 -1       536 5.74256E-01
 -1       537 6.49369E-01
 -1       538 8.26406E-01
 -1       539 1.09739E+00
 -1       540 1.35846E+00
 -1       541 1.57410E+00
 -1       542 1.73468E+00
 -1       543 1.53822E+00
 -1       544 1.59886E+00
 -1       545 1.38801E+00
 -1       546 1.16391E+00
 -1       547 8.43499E-01
 -1       548 6.49887E-01
 -1       549 5.87959E-01
 -1       550 5.79705E-01
 -1       551 6.06218E-01
 -1       552 5.79838E-01
 -1       553 5.42801E-01
 -1       554 4.87544E-01
 -1       555 4.27028E-01
 -1       556 3.57329E-01
 -1       557 2.87772E-01
 -1       558 2.24002E-01
 -1       559 1.68857E-01
 -1       560 1.23251E-01
 -1       561 8.69001E-02
 -1       562 5.88684E-02
 -1       563 4.01242E-02
 -1       564 2.82256E-02
 -1       565 2.17092E-02
 -1       566 1.75228E-02
 -1       567 1.33326E-02
 -1       568 9.35753E-03
 -1       569 7.10780E-03
 -1       570 5.45912E-03
 -1       571 1.77312E-03
 -1       572 1.22502E-03
 -1       573 3.66850E-03
 -1       574 2.34083E-03
 -1       575 1.02892E-03
 -1       576 1.04525E-03
 -1       577 1.14329E-03
 -1       578 1.39028E-03
 -1       579 1.91393E-03
 -1       580 2.50458E-03
 -1       581 2.30358E-03
 -1       582 2.57831E+01
 -1       583 1.18690E+01
 -1       584 5.05647E-01
 -1       585 5.31062E+00
 -1       586 2.35950E+01
 -1       587 1.88096E+01
 -1       588 3.40835E+01
 -1       589 6.60050E+00
 -1       590 7.79178E+00
 -1       591 1.94320E+01
 -1       592 1.48312E+01
 -1       593 4.17994E-01
 -1       594 6.15790E+00
 -1       595 6.95801E+00
 -1       596 3.07511E+01
 -1       597 7.59172E+00
 -1       598 4.18089E+00
 -1       599 6.99300E+00
 -1       600 8.32678E+00
 -1       601 2.01991E+01
 -1       602 4.70680E+00
 -1       603 3.16147E+01
 -1       604 1.20488E+01
 -1       605 7.66050E+00
 -1       606 5.10485E+00
 -1       607 6.00898E+00
 -1       608 6.37775E+00
 -1       609 4.45475E+00
 -1       610 9.95229E+00
 -1       611 1.40680E+01
 -1       612 8.40180E-01
 -1       613 1.21951E+00
 -1       614 6.04506E+00
 -1       615 8.12421E-01
 -1       616 1.42301E+01
 -1       617 3.64291E-03
 -1       618 1.65961E+01
 -1       619 6.92835E+00
 -1       620 3.35862E-01
 -1       621 2.93283E-01
 -1       622 3.86192E-01
 -1       623 3.93659E-01
 -1       624 5.45912E-03
 -1       625 4.40553E-01
 -1       626 3.12883E+00
 -1       627 2.95175E-01
 -1       628 2.69167E-01
 -1       629 3.44314E-01
 -1       630 4.87603E-01
 -1       631 6.88624E-01
 -1       632 9.40025E-01
 -1       633 1.24845E+00
 -1       634 1.61783E+00
 -1       635 2.02356E+00
 -1       636 2.49019E+00
 -1       637 3.66948E+00
 -1       638 5.36360E+00
 -1       639 3.84705E+00
 -1       640 3.98923E+00
 -1       641 4.35108E+00
 -1       642 3.31102E+00
 -1       643 2.42922E+00
 -1       644 2.03387E+00
 -1       645 1.64297E+00
 -1       646 1.30375E+00
 -1       647 1.03225E+00
 -1       648 8.05625E-01
 -1       649 6.25131E-01
 -1       650 4.81948E-01
 -1       651 3.67603E-01
 -1       652 2.76908E-01
 -1       653 2.05650E-01
 -1       654 1.50291E-01
 -1       655 1.07831E-01
 -1       656 7.57350E-02
 -1       657 5.18706E-02
 -1       658 3.44625E-02
 -1       659 2.20512E-02
 -1       660 1.34512E-02
 -1       661 8.22704E-03
 -1       662 6.31385E-03
 -1       663 4.83660E-03
 -1       664 2.53593E-01
 -1       665 1.59332E+01
 -1       666 1.68413E-01
 -1       667 4.24890E-01
 -1       668 5.35165E-01
 -1       669 6.32804E-01
 -1       670 6.94291E-01
 -1       671 8.93312E-01
 -1       672 1.07991E+00
 -1       673 1.21038E+00
 -1       674 1.41226E+00
 -1       675 1.52720E+00
 -1       676 2.84716E+00
 -1       677 3.39117E+00
 -1       678 2.18472E+00
 -1       679 1.69356E+00
 -1       680 1.46336E+00
 -1       681 1.25588E+00
 -1       682 1.12122E+00
 -1       683 9.49992E-01
 -1       684 7.86801E-01
 -1       685 7.56200E-01
 -1       686 6.81198E-01
 -1       687 5.93135E-01
 -1       688 5.27591E-01
 -1       689 4.61585E-01
 -1       690 3.88667E-01
 -1       691 3.16941E-01
 -1       692 2.51259E-01
 -1       693 1.94061E-01
 -1       694 1.46139E-01
 -1       695 1.07245E-01
 -1       696 7.65564E-02
 -1       697 5.29774E-02
 -1       698 3.53423E-02
 -1       699 2.25312E-02
 -1       700 1.37287E-02
 -1       701 9.57969E-03
 -1       702 7.91990E-03
 -1       703 7.10780E-03
 -1       704 2.58318E-03
 -1       705 3.55284E-03
 -1       706 2.14427E-03
 -1       707 2.60238E-03
 -1       708 2.58318E-03
 -1       709 7.65150E+00
 -1       710 2.60238E-03
 -1       711 2.15314E-03
 -1       712 2.50458E-03
 -1       713 1.95521E-01
 -1       714 9.23373E+00
 -1       715 1.02033E+01
 -1       716 1.21602E+01
 -1       717 5.71127E+00
 -1       718 1.06738E+01
 -1       719 3.42959E-01
 -1       720 3.96340E-01
 -1       721 3.01761E-01
 -1       722 1.14026E+01
 -1       723 5.01322E+00
 -1       724 4.57659E+00
 -1       725 5.78789E+00
 -1       726 3.82127E+00
 -1       727 9.23822E+00
 -1       728 6.92835E+00
 -1       729 3.79516E+00
 -1       730 3.75380E-01
 -1       731 3.63909E-01
 -1       732 5.63066E+00
 -1       733 4.26324E+00
 -1       734 6.18698E+00
 -1       735 1.22121E+01
 -1       736 4.74006E-01
 -1       737 2.80508E-01
 -1       738 4.32725E+00
 -1       739 2.46163E-03
 -1       740 9.70874E+00
 -1       741 5.98782E-01
 -1       742 1.44471E+01
 -1       743 2.99727E-03
 -1       744 1.65956E+01
 -1       745 1.12438E+01
 -1       746 1.18963E+01
 -1       747 3.45123E+00
 -1       748 3.20304E-01
 -1       749 5.56945E+00
 -1       750 2.93525E-01
 -1       751 3.75666E-01
 -1       752 4.83976E-01
 -1       753 6.41220E-01
 -1       754 8.71808E-01
 -1       755 1.15907E+00
 -1       756 1.55541E+00
 -1       757 2.15721E+00
 -1       758 3.29782E+00
 -1       759 5.07306E+00
 -1       760 5.36360E+00
 -1       761 3.11452E-01
 -1       762 4.43909E+00
 -1       763 3.63751E+00
 -1       764 3.00216E+00
 -1       765 2.08177E+00
 -1       766 1.55798E+00
 -1       767 1.21611E+00
 -1       768 9.64212E-01
 -1       769 7.49835E-01
 -1       770 5.73953E-01
 -1       771 4.32947E-01
 -1       772 3.21754E-01
 -1       773 2.35331E-01
 -1       774 1.69090E-01
 -1       775 1.19082E-01
 -1       776 8.37192E-02
 -1       777 5.75922E-02
 -1       778 3.84941E-02
 -1       779 2.61689E-02
 -1       780 1.73019E-02
 -1       781 1.11043E-02
 -1       782 6.89383E-03
 -1       783 4.17447E-03
 -1       784 7.14410E-01
 -1       785 5.58073E-01
 -1       786 1.07635E+00
 -1       787 1.31815E+00
 -1       788 1.62276E+00
 -1       789 1.72448E+00
 -1       790 2.32833E+00
 -1       791 2.91073E+00
 -1       792 2.18472E+00
 -1       793 1.97173E+00
 -1       794 1.89005E+00
 -1       795 1.69703E+00
 -1       796 1.38843E+00
 -1       797 1.18208E+00
 -1       798 1.03202E+00
 -1       799 8.56841E-01
 -1       800 7.00565E-01
 -1       801 6.06906E-01
 -1       802 5.11764E-01
 -1       803 4.20429E-01
 -1       804 3.36169E-01
 -1       805 2.63976E-01
 -1       806 2.04215E-01
 -1       807 1.55183E-01
 -1       808 1.15744E-01
 -1       809 8.46154E-02
 -1       810 6.05126E-02
 -1       811 4.22215E-02
 -1       812 2.86395E-02
 -1       813 1.87985E-02
 -1       814 1.18768E-02
 -1       815 7.03939E-03
 -1       816 7.88714E+00
 -1       817 2.45374E+00
 -1       818 2.41672E-01
 -1       819 4.79606E-03
 -1       820 4.91591E-03
 -1       821 2.88860E+00
 -1       822 3.64723E-03
 -1       823 4.91591E-03
 -1       824 2.17997E-01
 -1       825 9.91135E+00
 -1       826 2.51394E-01
 -1       827 5.78026E+00
 -1       828 8.62176E+00
 -1       829 8.99400E-01
 -1       830 5.67313E+00
 -1       831 2.57714E-01
 -1       832 7.72369E+00
 -1       833 7.01727E+00
 -1       834 8.01826E+00
 -1       835 4.90350E+00
 -1       836 6.23485E+00
 -1       837 2.32833E+00
 -1       838 3.15127E-01
 -1       839 3.58819E+00
 -1       840 5.29932E+00
 -1       841 3.96340E-01
 -1       842 7.91731E+00
 -1       843 3.68654E+00
 -1       844 8.16035E+00
 -1       845 1.91401E-01
 -1       846 2.39082E+00
 -1       847 3.11482E-01
 -1       848 3.56893E-03
 -1       849 2.31355E-01
 -1       850 8.09319E+00
 -1       851 4.49654E-01
 -1       852 3.75885E+00
 -1       853 4.03553E-03
 -1       854 4.65931E-03
 -1       855 4.74906E-03
 -1       856 2.99727E-03
 -1       857 2.87915E-01
 -1       858 6.62927E+00
 -1       859 8.40108E+00
 -1       860 7.08869E+00
 -1       861 3.44535E-01
 -1       862 2.81135E-01
 -1       863 3.26968E-03
 -1       864 2.18807E-01
 -1       865 4.31762E-01
 -1       866 5.91536E-01
 -1       867 8.24301E-01
 -1       868 1.13525E+00
 -1       869 1.55541E+00
 -1       870 2.12286E+00
 -1       871 2.99196E+00
 -1       872 4.08002E+00
 -1       873 3.26325E-01
 -1       874 4.48076E+00
 -1       875 2.82270E+00
 -1       876 2.06754E+00
 -1       877 1.55798E+00
 -1       878 1.17583E+00
 -1       879 8.91281E-01
 -1       880 6.76581E-01
 -1       881 5.12559E-01
 -1       882 3.86079E-01
 -1       883 2.88200E-01
 -1       884 2.12643E-01
 -1       885 1.54694E-01
 -1       886 1.10587E-01
 -1       887 7.73886E-02
 -1       888 5.35056E-02
 -1       889 3.63941E-02
 -1       890 2.39386E-02
 -1       891 1.50683E-02
 -1       892 8.96166E-03
 -1       893 7.83164E-01
 -1       894 1.89689E+00
 -1       895 1.69843E+00
 -1       896 2.14927E+00
 -1       897 6.46773E+00
 -1       898 2.32904E+00
 -1       899 1.86066E+00
 -1       900 1.42826E+00
 -1       901 1.11996E+00
 -1       902 9.24571E-01
 -1       903 7.37843E-01
 -1       904 5.84251E-01
 -1       905 4.60811E-01
 -1       906 3.71452E-01
 -1       907 3.02898E-01
 -1       908 2.40563E-01
 -1       909 1.86040E-01
 -1       910 1.40260E-01
 -1       911 1.03042E-01
 -1       912 7.35841E-02
 -1       913 5.17061E-02
 -1       914 3.54774E-02
 -1       915 2.34456E-02
 -1       916 1.47599E-02
 -1       917 8.76894E-03
 -1       918 6.31363E+00
 -1       919 7.09909E-03
 -1       920 3.30119E+00
 -1       921 2.93445E-01
 -1       922 5.56186E+00
 -1       923 5.28360E+00
 -1       924 1.48529E-01
 -1       925 5.68045E+00
 -1       926 1.72448E+00
 -1       927 5.26722E+00
 -1       928 3.51034E+00
 -1       929 3.05128E+00
 -1       930 3.17109E-01
 -1       931 5.79482E+00
 -1       932 3.26325E-01
 -1       933 1.59755E-01
 -1       934 4.82053E+00
 -1       935 5.92655E-01
 -1       936 9.79474E-01
 -1       937 4.92392E-03
 -1       938 6.68547E+00
 -1       939 2.51119E-01
 -1       940 1.24769E+00
 -1       941 3.49505E-01
 -1       942 8.60474E-03
 -1       943 6.08622E-03
 -1       944 7.89899E-03
 -1       945 2.18807E-01
 -1       946 3.59884E+00
 -1       947 5.07306E+00
 -1       948 2.06183E-01
 -1       949 8.60474E-03
 -1       950 2.54188E-01
 -1       951 5.68045E+00
 -1       952 4.92022E+00
 -1       953 3.59884E+00
 -1       954 6.96729E-03
 -1       955 7.89899E-03
 -1       956 6.64527E-01
 -1       957 9.30413E-01
 -1       958 1.32163E+00
 -1       959 1.92512E+00
 -1       960 3.99802E+00
 -1       961 3.99802E+00
 -1       962 4.20240E+00
 -1       963 4.78385E+00
 -1       964 2.51119E-01
 -1       965 2.73911E+00
 -1       966 1.87604E+00
 -1       967 1.31323E+00
 -1       968 9.56156E-01
 -1       969 7.13376E-01
 -1       970 5.39028E-01
 -1       971 4.09161E-01
 -1       972 3.09791E-01
 -1       973 2.32890E-01
 -1       974 1.73351E-01
 -1       975 1.27246E-01
 -1       976 9.17790E-02
 -1       977 6.48562E-02
 -1       978 4.46993E-02
 -1       979 3.05338E-02
 -1       980 2.03647E-02
 -1       981 1.30568E-02
 -1       982 2.70773E+00
 -1       983 1.75681E+00
 -1       984 1.25900E+00
 -1       985 9.14905E-01
 -1       986 7.08769E-01
 -1       987 5.59288E-01
 -1       988 4.60811E-01
 -1       989 3.71452E-01
 -1       990 2.93356E-01
 -1       991 2.27387E-01
 -1       992 1.73043E-01
 -1       993 1.29250E-01
 -1       994 9.44315E-02
 -1       995 6.73850E-02
 -1       996 4.67672E-02
 -1       997 3.20364E-02
 -1       998 2.14288E-02
 -1       999 1.36860E-02
 -1      1000 4.15339E+00
 -1      1001 8.76894E-03
 -1      1002 1.34296E-01
 -1      1003 4.08002E+00
 -1      1004 4.38351E-01
 -1      1005 2.81654E-01
 -1      1006 5.66119E-01
 -1      1007 4.38621E+00
 -1      1008 2.14694E+00
 -1      1009 2.41187E+00
 -1      1010 5.78499E-01
 -1      1011 5.58316E+00
 -1      1012 3.44214E+00
 -1      1013 7.86834E-01
 -1      1014 1.15617E-02
 -1      1015 1.09240E+00
 -1      1016 2.93611E-01
 -1      1017 2.76891E+00
 -1      1018 2.79962E+00
 -1      1019 3.44214E+00
 -1      1020 3.49505E-01
 -1      1021 3.93121E+00
 -1      1022 1.15617E-02
 -1      1023 2.96346E-01
 -1      1024 1.06366E-02
 -1      1025 3.03612E+00
 -1      1026 9.91817E-01
 -1      1027 1.38979E+00
 -1      1028 3.75950E+00
 -1      1029 2.10665E-01
 -1      1030 4.51685E-01
 -1      1031 8.92292E-01
 -1      1032 2.04320E+00
 -1      1033 1.89715E+00
 -1      1034 1.26698E+00
 -1      1035 9.09241E-01
 -1      1036 6.66075E-01
 -1      1037 5.00485E-01
 -1      1038 3.78684E-01
 -1      1039 2.86475E-01
 -1      1040 2.20364E-01
 -1      1041 1.67835E-01
 -1      1042 1.26176E-01
 -1      1043 9.31851E-02
 -1      1044 6.76210E-02
 -1      1045 4.80162E-02
 -1      1046 3.31748E-02
 -1      1047 2.25524E-02
 -1      1048 1.77172E-02
 -1      1049 1.18491E+00
 -1      1050 4.61148E+00
 -1      1051 1.63076E+00
 -1      1052 7.08769E-01
 -1      1053 5.56876E-01
 -1      1054 4.34532E-01
 -1      1055 3.34676E-01
 -1      1056 2.56539E-01
 -1      1057 1.94286E-01
 -1      1058 1.45837E-01
 -1      1059 1.07243E-01
 -1      1060 7.75482E-02
 -1      1061 5.49470E-02
 -1      1062 3.78554E-02
 -1      1063 2.99165E-02
 -1      1064 2.38282E-02
 -1      1065 5.15652E-01
 -1      1066 2.92757E+00
 -1      1067 5.98617E-01
 -1      1068 7.23042E-01
 -1      1069 4.61148E+00
 -1      1070 1.15367E-02
 -1      1071 5.66119E-01
 -1      1072 5.78499E-01
 -1      1073 2.36174E+00
 -1      1074 2.96346E-01
 -1      1075 3.38449E-01
 -1      1076 1.06485E+00
 -1      1077 3.23297E-01
 -1      1078 7.86834E-01
 -1      1079 2.58787E+00
 -1      1080 3.75950E+00
 -1      1081 2.22211E+00
 -1      1082 1.88562E-02
 -1      1083 3.25768E-01
 -1      1084 1.77542E+00
 -1      1085 2.47175E+00
 -1      1086 3.03612E+00
 -1      1087 2.40069E-02
 -1      1088 5.55686E-01
 -1      1089 9.77205E-01
 -1      1090 1.52470E-02
 -1      1091 1.80648E+00
 -1      1092 1.05443E+00
 -1      1093 9.77205E-01
 -1      1094 6.80684E-01
 -1      1095 5.80987E-01
 -1      1096 3.69599E-01
 -1      1097 3.20992E-01
 -1      1098 2.04885E-01
 -1      1099 1.52954E-01
 -1      1100 1.12910E-01
 -1      1101 8.32027E-02
 -1      1102 6.01387E-02
 -1      1103 4.22440E-02
 -1      1104 2.87725E-02
 -1      1105 1.77172E-02
 -1      1106 1.18491E+00
 -1      1107 1.53951E+00
 -1      1108 6.69649E-01
 -1      1109 3.47536E-01
 -1      1110 2.89208E-01
 -1      1111 3.20992E-01
 -1      1112 2.04885E-01
 -1      1113 1.52954E-01
 -1      1114 1.12022E-01
 -1      1115 8.06193E-02
 -1      1116 5.60867E-02
 -1      1117 3.01931E-02
 -1      1118 8.54316E-01
 -1      1119 5.99365E-01
 -1      1120 2.58787E+00
 -1      1121 3.38449E-01
 -1      1122 8.41296E-01
 -1      1123 1.14360E+00
 -1      1124 5.06551E-01
 -1      1125 5.18210E-01
 -1      1126 1.06485E+00
 -1      1127 2.00155E+00
 -1      1128 1.73696E+00
 -1      1129 2.47175E+00
 -1      1130 4.00142E-01
 -1      1131 5.80987E-01
 -1      1132 1.00673E+00
 -1      1133 3.69599E-01
 -1      1134 1.17731E+00
 -1      1135 7.69743E-01
 -1      1136 5.75164E-01
 -1      1137 1.80648E+00
 -1      1138 1.02184E+00
 -1      1139 1.73696E+00
 -1      1140 5.67133E-01
 -1      1141 1.29742E+01
 -1      1142 8.26398E+00
 -1      1143 2.67312E+00
 -1      1144 1.54416E+00
 -1      1145 1.16717E+00
 -1      1146 9.54115E-01
 -1      1147 8.11813E-01
 -1      1148 7.14313E-01
 -1      1149 6.78418E-01
 -1      1150 7.23425E-01
 -1      1151 8.20621E-01
 -1      1152 9.63432E-01
 -1      1153 1.18314E+00
 -1      1154 1.56197E+00
 -1      1155 2.60698E+00
 -1      1156 5.91907E+00
 -1      1157 1.11540E+01
 -1      1158 1.29742E+01
 -1      1159 8.63872E+00
 -1      1160 3.78325E+00
 -1      1161 2.63933E+00
 -1      1162 1.74177E+00
 -1      1163 1.30828E+00
 -1      1164 1.03271E+00
 -1      1165 8.93725E-01
 -1      1166 9.17698E-01
 -1      1167 9.96364E-01
 -1      1168 1.18147E+00
 -1      1169 1.52134E+00
 -1      1170 1.84395E+00
 -1      1171 1.98038E+00
 -1      1172 1.97986E+00
 -1      1173 1.97933E+00
 -1      1174 2.26319E+00
 -1      1175 3.67781E+00
 -1      1176 5.26257E+00
 -1      1177 5.72353E+00
 -1      1178 5.73049E+00
 -1      1179 5.07806E+00
 -1      1180 3.44825E+00
 -1      1181 2.23594E+00
 -1      1182 2.00101E+00
 -1      1183 1.99857E+00
 -1      1184 1.96452E+00
 -1      1185 1.78834E+00
 -1      1186 1.47190E+00
 -1      1187 1.16623E+00
 -1      1188 9.07809E-01
 -1      1189 7.14392E-01
 -1      1190 5.84223E-01
 -1      1191 4.66996E-01
 -1      1192 3.63328E-01
 -1      1193 2.76147E-01
 -1      1194 2.05360E-01
 -1      1195 1.49382E-01
 -1      1196 1.13529E-01
 -1      1197 9.24411E-02
 -1      1198 7.40395E-02
 -1      1199 5.79798E-02
 -1      1200 4.42424E-02
 -1      1201 3.26382E-02
 -1      1202 2.41065E-02
 -1      1203 1.83637E-02
 -1      1204 1.32733E-02
 -1      1205 8.37783E-03
 -1      1206 5.36727E-03
 -1      1207 2.78475E-03
 -1      1208 1.38759E+01
 -1      1209 8.64262E+00
 -1      1210 2.90194E+00
 -1      1211 2.01374E+00
 -1      1212 1.46008E+00
 -1      1213 1.18719E+00
 -1      1214 1.00273E+00
 -1      1215 8.38403E-01
 -1      1216 6.84157E-01
 -1      1217 6.01745E-01
 -1      1218 5.85632E-01
 -1      1219 6.35066E-01
 -1      1220 7.22161E-01
 -1      1221 8.65606E-01
 -1      1222 9.94892E-01
 -1      1223 1.14592E+00
 -1      1224 1.35895E+00
 -1      1225 1.81476E+00
 -1      1226 2.38146E+00
 -1      1227 2.73243E+00
 -1      1228 2.89507E+00
 -1      1229 2.86251E+00
 -1      1230 2.49300E+00
 -1      1231 1.73768E+00
 -1      1232 1.12052E+00
 -1      1233 8.27811E-01
 -1      1234 7.87442E-01
 -1      1235 8.47289E-01
 -1      1236 8.53591E-01
 -1      1237 8.15580E-01
 -1      1238 7.18019E-01
 -1      1239 6.05480E-01
 -1      1240 4.97484E-01
 -1      1241 3.90866E-01
 -1      1242 2.97656E-01
 -1      1243 2.29544E-01
 -1      1244 1.79488E-01
 -1      1245 1.36038E-01
 -1      1246 9.99225E-02
 -1      1247 7.09244E-02
 -1      1248 5.05882E-02
 -1      1249 3.93897E-02
 -1      1250 3.21984E-02
 -1      1251 2.53639E-02
 -1      1252 1.99782E-02
 -1      1253 1.64524E-02
 -1      1254 1.31541E-02
 -1      1255 9.12990E-03
 -1      1256 5.64641E-03
 -1      1257 2.57196E-03
 -1      1258 1.42699E-03
 -1      1259 1.59410E-03
 -1      1260 8.44623E-04
 -1      1261 6.24723E-04
 -1      1262 7.14127E-04
 -1      1263 6.91416E-04
 -1      1264 6.04572E-04
 -1      1265 4.83744E-04
 -1      1266 4.39834E-04
 -1      1267 5.17608E-04
 -1      1268 6.53502E-04
 -1      1269 7.47568E-04
 -1      1270 7.70728E-04
 -1      1271 6.73567E-04
 -1      1272 1.07547E-03
 -1      1273 2.25043E-03
 -1      1274 1.91140E-03
 -1      1275 2.54167E+01
 -1      1276 3.55693E+01
 -1      1277 4.57220E+01
 -1      1278 3.20054E+01
 -1      1279 1.53540E+01
 -1      1280 1.24192E+01
 -1      1281 1.21862E+01
 -1      1282 1.25149E+01
 -1      1283 1.30766E+01
 -1      1284 1.24600E+01
 -1      1285 1.87972E+01
 -1      1286 2.76133E+01
 -1      1287 2.94754E+01
 -1      1288 2.69365E+01
 -1      1289 2.45545E+01
 -1      1290 2.47844E+01
 -1      1291 3.61452E+01
 -1      1292 4.74330E+01
 -1      1293 3.39489E+01
 -1      1294 1.62228E+01
 -1      1295 1.23061E+01
 -1      1296 1.26317E+01
 -1      1297 1.25912E+01
 -1      1298 1.24336E+01
 -1      1299 1.22812E+01
 -1      1300 1.88916E+01
 -1      1301 2.81488E+01
 -1      1302 3.07604E+01
 -1      1303 2.78606E+01
 -1      1304 2.51887E+01
 -1      1305 1.29742E+01
 -1      1306 4.72751E+00
 -1      1307 9.43775E+00
 -1      1308 2.03356E+00
 -1      1309 2.91419E+00
 -1      1310 4.08795E+00
 -1      1311 1.41015E+00
 -1      1312 1.65848E+00
 -1      1313 1.89955E+00
 -1      1314 1.10130E+00
 -1      1315 1.22997E+00
 -1      1316 1.34429E+00
 -1      1317 9.13187E-01
 -1      1318 9.97577E-01
 -1      1319 1.06037E+00
 -1      1320 7.86901E-01
 -1      1321 8.44813E-01
 -1      1322 8.88275E-01
 -1      1323 7.00091E-01
 -1      1324 7.39679E-01
 -1      1325 7.72679E-01
 -1      1326 6.75281E-01
 -1      1327 6.71588E-01
 -1      1328 6.96954E-01
 -1      1329 7.49362E-01
 -1      1330 7.08048E-01
 -1      1331 7.01218E-01
 -1      1332 8.52380E-01
 -1      1333 7.96498E-01
 -1      1334 7.81121E-01
 -1      1335 1.00999E+00
 -1      1336 9.23066E-01
 -1      1337 8.98943E-01
 -1      1338 1.24928E+00
 -1      1339 1.11649E+00
 -1      1340 1.07613E+00
 -1      1341 1.67713E+00
 -1      1342 1.43109E+00
 -1      1343 1.36444E+00
 -1      1344 2.83638E+00
 -1      1345 2.03742E+00
 -1      1346 1.90653E+00
 -1      1347 6.13507E+00
 -1      1348 3.62194E+00
 -1      1349 3.05238E+00
 -1      1350 1.38759E+01
 -1      1351 1.11540E+01
 -1      1352 8.85691E+00
 -1      1353 1.38759E+01
 -1      1354 8.63872E+00
 -1      1355 4.30322E+00
 -1      1356 3.78325E+00
 -1      1357 3.26328E+00
 -1      1358 3.78325E+00
 -1      1359 2.63933E+00
 -1      1360 2.01538E+00
 -1      1361 2.63933E+00
 -1      1362 1.74177E+00
 -1      1363 1.46816E+00
 -1      1364 1.74177E+00
 -1      1365 1.30828E+00
 -1      1366 1.14841E+00
 -1      1367 1.30828E+00
 -1      1368 1.03271E+00
 -1      1369 9.17008E-01
 -1      1370 1.03271E+00
 -1      1371 8.41017E-01
 -1      1372 8.17734E-01
 -1      1373 8.41017E-01
 -1      1374 8.70442E-01
 -1      1375 9.17698E-01
 -1      1376 8.17734E-01
 -1      1377 9.64955E-01
 -1      1378 9.96364E-01
 -1      1379 9.17698E-01
 -1      1380 1.07520E+00
 -1      1381 1.22890E+00
 -1      1382 1.04379E+00
 -1      1383 1.35305E+00
 -1      1384 1.53922E+00
 -1      1385 1.24679E+00
 -1      1386 1.70751E+00
 -1      1387 1.84395E+00
 -1      1388 1.53922E+00
 -1      1389 1.98038E+00
 -1      1390 1.98038E+00
 -1      1391 1.84395E+00
 -1      1392 1.97867E+00
 -1      1393 1.97815E+00
 -1      1394 1.97867E+00
 -1      1395 1.97933E+00
 -1      1396 1.97933E+00
 -1      1397 1.97815E+00
 -1      1398 1.89168E+00
 -1      1399 2.17554E+00
 -1      1400 1.89168E+00
 -1      1401 2.68861E+00
 -1      1402 3.81938E+00
 -1      1403 2.31710E+00
 -1      1404 4.80858E+00
 -1      1405 5.26257E+00
 -1      1406 3.81938E+00
 -1      1407 5.71657E+00
 -1      1408 5.72353E+00
 -1      1409 5.26257E+00
 -1      1410 5.73049E+00
 -1      1411 5.73049E+00
 -1      1412 5.72353E+00
 -1      1413 5.07806E+00
 -1      1414 4.42564E+00
 -1      1415 5.07806E+00
 -1      1416 3.48053E+00
 -1      1417 2.50314E+00
 -1      1418 3.48053E+00
 -1      1419 2.10706E+00
 -1      1420 1.87213E+00
 -1      1421 2.13934E+00
 -1      1422 2.00101E+00
 -1      1423 2.00101E+00
 -1      1424 1.87213E+00
 -1      1425 1.99857E+00
 -1      1426 1.99613E+00
 -1      1427 1.99857E+00
 -1      1428 1.96452E+00
 -1      1429 1.93291E+00
 -1      1430 1.96452E+00
 -1      1431 1.78834E+00
 -1      1432 1.64378E+00
 -1      1433 1.78834E+00
 -1      1434 1.50540E+00
 -1      1435 1.33352E+00
 -1      1436 1.50540E+00
 -1      1437 1.24249E+00
 -1      1438 1.10871E+00
 -1      1439 1.27600E+00
 -1      1440 1.00824E+00
 -1      1441 8.83600E-01
 -1      1442 1.08450E+00
 -1      1443 7.80820E-01
 -1      1444 7.12039E-01
 -1      1445 8.81246E-01
 -1      1446 6.19000E-01
 -1      1447 5.57612E-01
 -1      1448 6.85427E-01
 -1      1449 4.79364E-01
 -1      1450 4.23525E-01
 -1      1451 5.14141E-01
 -1      1452 3.64105E-01
 -1      1453 3.16275E-01
 -1      1454 3.76472E-01
 -1      1455 2.80393E-01
 -1      1456 2.41043E-01
 -1      1457 2.81170E-01
 -1      1458 2.11374E-01
 -1      1459 1.79937E-01
 -1      1460 2.15620E-01
 -1      1461 1.56061E-01
 -1      1462 1.31519E-01
 -1      1463 1.62074E-01
 -1      1464 1.13529E-01
 -1      1465 1.02216E-01
 -1      1466 1.20207E-01
 -1      1467 9.24411E-02
 -1      1468 8.26659E-02
 -1      1469 9.24411E-02
 -1      1470 7.40395E-02
 -1      1471 6.54130E-02
 -1      1472 7.40395E-02
 -1      1473 5.79798E-02
 -1      1474 5.05466E-02
 -1      1475 5.79798E-02
 -1      1476 4.42424E-02
 -1      1477 3.79382E-02
 -1      1478 4.42424E-02
 -1      1479 3.28562E-02
 -1      1480 2.75563E-02
 -1      1481 3.28562E-02
 -1      1482 2.41065E-02
 -1      1483 2.08748E-02
 -1      1484 2.43245E-02
 -1      1485 1.83637E-02
 -1      1486 1.58525E-02
 -1      1487 1.83637E-02
 -1      1488 1.32733E-02
 -1      1489 1.06942E-02
 -1      1490 1.32733E-02
 -1      1491 8.63742E-03
 -1      1492 6.32109E-03
 -1      1493 8.63742E-03
 -1      1494 5.36727E-03
 -1      1495 4.67303E-03
 -1      1496 5.62686E-03
 -1      1497 3.79968E-03
 -1      1498 3.79968E-03
 -1      1499 3.40936E+00
 -1      1500 8.64262E+00
 -1      1501 8.64262E+00
 -1      1502 2.39452E+00
 -1      1503 2.90194E+00
 -1      1504 2.90194E+00
 -1      1505 1.63296E+00
 -1      1506 2.01374E+00
 -1      1507 2.01374E+00
 -1      1508 1.28721E+00
 -1      1509 1.46008E+00
 -1      1510 1.46008E+00
 -1      1511 1.08717E+00
 -1      1512 1.18719E+00
 -1      1513 1.18719E+00
 -1      1514 9.18295E-01
 -1      1515 1.00273E+00
 -1      1516 1.00273E+00
 -1      1517 7.58510E-01
 -1      1518 8.38403E-01
 -1      1519 8.38403E-01
 -1      1520 6.09803E-01
 -1      1521 6.84157E-01
 -1      1522 6.84157E-01
 -1      1523 5.93687E-01
 -1      1524 6.01745E-01
 -1      1525 6.01745E-01
 -1      1526 5.77577E-01
 -1      1527 5.85632E-01
 -1      1528 5.85632E-01
 -1      1529 6.31117E-01
 -1      1530 5.73628E-01
 -1      1531 5.73628E-01
 -1      1532 7.22161E-01
 -1      1533 6.92555E-01
 -1      1534 6.31117E-01
 -1      1535 8.65606E-01
 -1      1536 7.51768E-01
 -1      1537 7.22161E-01
 -1      1538 9.94892E-01
 -1      1539 9.79445E-01
 -1      1540 8.65606E-01
 -1      1541 1.14592E+00
 -1      1542 1.01034E+00
 -1      1543 9.94892E-01
 -1      1544 1.35895E+00
 -1      1545 1.28151E+00
 -1      1546 1.14592E+00
 -1      1547 1.90184E+00
 -1      1548 1.52347E+00
 -1      1549 1.44603E+00
 -1      1550 2.38146E+00
 -1      1551 2.19313E+00
 -1      1552 1.90184E+00
 -1      1553 2.73243E+00
 -1      1554 2.56978E+00
 -1      1555 2.38146E+00
 -1      1556 2.89507E+00
 -1      1557 2.89507E+00
 -1      1558 2.73243E+00
 -1      1559 2.82996E+00
 -1      1560 2.86251E+00
 -1      1561 2.86251E+00
 -1      1562 2.15605E+00
 -1      1563 2.49300E+00
 -1      1564 2.49300E+00
 -1      1565 1.31931E+00
 -1      1566 1.73768E+00
 -1      1567 1.73768E+00
 -1      1568 9.21726E-01
 -1      1569 1.12052E+00
 -1      1570 1.12052E+00
 -1      1571 7.18023E-01
 -1      1572 8.11938E-01
 -1      1573 8.11938E-01
 -1      1574 7.87442E-01
 -1      1575 7.33897E-01
 -1      1576 7.18023E-01
 -1      1577 8.47289E-01
 -1      1578 8.40988E-01
 -1      1579 7.87442E-01
 -1      1580 8.53591E-01
 -1      1581 8.53591E-01
 -1      1582 8.47289E-01
 -1      1583 7.77570E-01
 -1      1584 8.15580E-01
 -1      1585 8.15580E-01
 -1      1586 6.58469E-01
 -1      1587 7.18019E-01
 -1      1588 7.18019E-01
 -1      1589 5.52490E-01
 -1      1590 6.05480E-01
 -1      1591 6.05480E-01
 -1      1592 4.48937E-01
 -1      1593 5.03943E-01
 -1      1594 5.03943E-01
 -1      1595 3.49830E-01
 -1      1596 4.01441E-01
 -1      1597 4.07901E-01
 -1      1598 2.65040E-01
 -1      1599 3.06638E-01
 -1      1600 3.17213E-01
 -1      1601 2.03030E-01
 -1      1602 2.29544E-01
 -1      1603 2.38526E-01
 -1      1604 1.55945E-01
 -1      1605 1.79488E-01
 -1      1606 1.79488E-01
 -1      1607 1.16131E-01
 -1      1608 1.36038E-01
 -1      1609 1.36038E-01
 -1      1610 8.43992E-02
 -1      1611 1.00607E-01
 -1      1612 1.00607E-01
 -1      1613 5.96013E-02
 -1      1614 7.23911E-02
 -1      1615 7.30761E-02
 -1      1616 4.30417E-02
 -1      1617 5.05882E-02
 -1      1618 5.20549E-02
 -1      1619 3.57376E-02
 -1      1620 3.93897E-02
 -1      1621 3.93897E-02
 -1      1622 2.86593E-02
 -1      1623 3.21984E-02
 -1      1624 3.21984E-02
 -1      1625 2.20685E-02
 -1      1626 2.53639E-02
 -1      1627 2.53639E-02
 -1      1628 1.78879E-02
 -1      1629 1.99782E-02
 -1      1630 1.99782E-02
 -1      1631 1.50169E-02
 -1      1632 1.64524E-02
 -1      1633 1.64524E-02
 -1      1634 1.12912E-02
 -1      1635 1.31541E-02
 -1      1636 1.31541E-02
 -1      1637 6.96859E-03
 -1      1638 9.12990E-03
 -1      1639 9.12990E-03
 -1      1640 4.32423E-03
 -1      1641 5.64641E-03
 -1      1642 5.64641E-03
 -1      1643 3.17925E-03
 -1      1644 1.24127E-03
 -1      1645 1.68145E-03
 -1      1646 7.74727E-04
 -1      1647 1.08403E-03
 -1      1648 1.17137E-03
 -1      1649 9.74789E-04
 -1      1650 8.85385E-04
 -1      1651 1.12479E-03
 -1      1652 9.74789E-04
 -1      1653 9.74789E-04
 -1      1654 1.23545E-03
 -1      1655 9.41851E-04
 -1      1656 9.64562E-04
 -1      1657 1.22522E-03
 -1      1658 8.05323E-04
 -1      1659 8.69455E-04
 -1      1660 1.14260E-03
 -1      1661 6.18686E-04
 -1      1662 6.75382E-04
 -1      1663 9.40265E-04
 -1      1664 5.53738E-04
 -1      1665 5.40952E-04
 -1      1666 7.32590E-04
 -1      1667 7.38487E-04
 -1      1668 6.73500E-04
 -1      1669 7.74617E-04
 -1      1670 9.45037E-04
 -1      1671 8.74131E-04
 -1      1672 1.03002E-03
 -1      1673 1.04560E-03
 -1      1674 1.02244E-03
 -1      1675 1.24307E-03
 -1      1676 1.04956E-03
 -1      1677 1.04956E-03
 -1      1678 1.32444E-03
 -1      1679 9.52401E-04
 -1      1680 1.04956E-03
 -1      1681 1.32840E-03
 -1      1682 1.42090E-03
 -1      1683 9.21830E-04
 -1      1684 1.29783E-03
 -1      1685 2.78709E-03
 -1      1686 2.11120E-03
 -1      1687 1.95755E-03
 -1      1688 3.66044E-03
 -1      1689 2.88997E+01
 -1      1690 2.88997E+01
 -1      1691 3.58992E+01
 -1      1692 2.57466E+01
 -1      1693 4.57220E+01
 -1      1694 4.57220E+01
 -1      1695 1.85907E+01
 -1      1696 3.23073E+01
 -1      1697 1.16094E+01
 -1      1698 1.45442E+01
 -1      1699 1.24192E+01
 -1      1700 1.24192E+01
 -1      1701 1.19503E+01
 -1      1702 1.21833E+01
 -1      1703 1.25149E+01
 -1      1704 1.19531E+01
 -1      1705 1.30766E+01
 -1      1706 1.30766E+01
 -1      1707 1.17451E+01
 -1      1708 1.23617E+01
 -1      1709 1.87972E+01
 -1      1710 1.18434E+01
 -1      1711 2.82206E+01
 -1      1712 2.63584E+01
 -1      1713 3.10900E+01
 -1      1714 3.10900E+01
 -1      1715 2.85511E+01
 -1      1716 3.10900E+01
 -1      1717 2.68884E+01
 -1      1718 2.67314E+01
 -1      1719 2.69614E+01
 -1      1720 2.68884E+01
 -1      1721 3.76153E+01
 -1      1722 2.63276E+01
 -1      1723 4.74330E+01
 -1      1724 4.74330E+01
 -1      1725 2.12765E+01
 -1      1726 3.47605E+01
 -1      1727 1.16388E+01
 -1      1728 1.58809E+01
 -1      1729 1.23061E+01
 -1      1730 1.19806E+01
 -1      1731 1.26317E+01
 -1      1732 1.26317E+01
 -1      1733 1.25507E+01
 -1      1734 1.25912E+01
 -1      1735 1.23165E+01
 -1      1736 1.24336E+01
 -1      1737 1.21711E+01
 -1      1738 1.22064E+01
 -1      1739 1.88916E+01
 -1      1740 1.22459E+01
 -1      1741 2.89671E+01
 -1      1742 2.63555E+01
 -1      1743 3.13411E+01
 -1      1744 3.13411E+01
 -1      1745 2.84413E+01
 -1      1746 3.13411E+01
 -1      1747 2.88997E+01
 -1      1748 2.86718E+01
 -1      1749 1.48461E+01
 -1      1750 3.23073E+01
 -1      1751 3.17925E-03
 -1      1752 2.82642E-03
 -1      1753 2.92296E+01
 -1      1754 3.58992E+01
 -1      1755 3.23828E+01
 -1      1756 1.16094E+01
 -1      1757 1.21833E+01
 -1      1758 1.19503E+01
 -1      1759 1.25149E+01
 -1      1760 1.23617E+01
 -1      1761 1.17451E+01
 -1      1762 1.94045E+01
 -1      1763 2.98352E+01
 -1      1764 3.27047E+01
 -1      1765 3.08850E+01
 -1      1766 2.90654E+01
 -1      1767 2.84315E+01
 -1      1768 3.76153E+01
 -1      1769 3.47605E+01
 -1      1770 1.66925E+01
 -1      1771 1.16388E+01
 -1      1772 1.23061E+01
 -1      1773 1.25912E+01
 -1      1774 1.24336E+01
 -1      1775 1.22064E+01
 -1      1776 1.21711E+01
 -1      1777 1.97098E+01
 -1      1778 2.95478E+01
 -1      1779 3.19218E+01
 -1      1780 3.21523E+01
 -1      1781 9.43775E+00
 -1      1782 1.28825E+00
 -1      1783 1.66333E+00
 -1      1784 2.33285E+00
 -1      1785 4.14618E+00
 -1      1786 1.72155E+00
 -1      1787 8.77219E-01
 -1      1788 9.80944E-01
 -1      1789 7.49936E-01
 -1      1790 8.18311E-01
 -1      1791 7.38880E-01
 -1      1792 6.60821E-01
 -1      1793 7.08043E-01
 -1      1794 6.38078E-01
 -1      1795 6.00110E-01
 -1      1796 6.28613E-01
 -1      1797 5.63977E-01
 -1      1798 6.37167E-01
 -1      1799 6.04400E-01
 -1      1800 5.36059E-01
 -1      1801 7.16571E-01
 -1      1802 6.69436E-01
 -1      1803 5.72617E-01
 -1      1804 8.31532E-01
 -1      1805 7.60845E-01
 -1      1806 6.49160E-01
 -1      1807 9.94513E-01
 -1      1808 8.88014E-01
 -1      1809 7.49916E-01
 -1      1810 1.24988E+00
 -1      1811 1.06807E+00
 -1      1812 8.79954E-01
 -1      1813 1.71477E+00
 -1      1814 1.35448E+00
 -1      1815 1.05811E+00
 -1      1816 2.57197E+00
 -1      1817 1.78641E+00
 -1      1818 1.23436E+00
 -1      1819 7.98414E+00
 -1      1820 2.96517E+00
 -1      1821 1.69920E+00
 -1      1822 2.75088E+00
 -1      1823 5.10225E+00
 -1      1824 2.08195E+00
 -1      1825 2.58937E+00
 -1      1826 1.93089E+00
 -1      1827 3.34715E+00
 -1      1828 2.44065E+00
 -1      1829 1.81670E+00
 -1      1830 1.56197E+00
 -1      1831 1.28836E+00
 -1      1832 1.36329E+00
 -1      1833 1.12876E+00
 -1      1834 9.68887E-01
 -1      1835 9.48965E-01
 -1      1836 9.00759E-01
 -1      1837 7.85060E-01
 -1      1838 7.21239E-01
 -1      1839 7.16361E-01
 -1      1840 6.40370E-01
 -1      1841 5.84412E-01
 -1      1842 6.95858E-01
 -1      1843 7.48565E-01
 -1      1844 5.71201E-01
 -1      1845 8.10030E-01
 -1      1846 8.57286E-01
 -1      1847 6.88153E-01
 -1      1848 9.72611E-01
 -1      1849 1.05145E+00
 -1      1850 8.64942E-01
 -1      1851 1.14583E+00
 -1      1852 1.26998E+00
 -1      1853 1.07464E+00
 -1      1854 1.35596E+00
 -1      1855 1.52425E+00
 -1      1856 1.25500E+00
 -1      1857 1.60865E+00
 -1      1858 1.74509E+00
 -1      1859 1.42539E+00
 -1      1860 1.75849E+00
 -1      1861 1.75677E+00
 -1      1862 1.52319E+00
 -1      1863 1.71620E+00
 -1      1864 1.71739E+00
 -1      1865 1.49602E+00
 -1      1866 1.80688E+00
 -1      1867 1.71923E+00
 -1      1868 1.54493E+00
 -1      1869 1.93089E+00
 -1      1870 2.44396E+00
 -1      1871 1.84609E+00
 -1      1872 2.68111E+00
 -1      1873 3.67031E+00
 -1      1874 2.29489E+00
 -1      1875 4.01379E+00
 -1      1876 4.46779E+00
 -1      1877 2.87552E+00
 -1      1878 4.71970E+00
 -1      1879 4.72666E+00
 -1      1880 3.47092E+00
 -1      1881 4.45127E+00
 -1      1882 3.79885E+00
 -1      1883 3.44744E+00
 -1      1884 3.40430E+00
 -1      1885 2.45919E+00
 -1      1886 2.77751E+00
 -1      1887 2.15755E+00
 -1      1888 1.76147E+00
 -1      1889 2.08132E+00
 -1      1890 1.70847E+00
 -1      1891 1.83735E+00
 -1      1892 1.72668E+00
 -1      1893 1.77677E+00
 -1      1894 1.77433E+00
 -1      1895 1.61311E+00
 -1      1896 1.79553E+00
 -1      1897 1.76392E+00
 -1      1898 1.57373E+00
 -1      1899 1.73064E+00
 -1      1900 1.58607E+00
 -1      1901 1.56165E+00
 -1      1902 1.51037E+00
 -1      1903 1.37199E+00
 -1      1904 1.45266E+00
 -1      1905 1.30893E+00
 -1      1906 1.21790E+00
 -1      1907 1.31390E+00
 -1      1908 1.13516E+00
 -1      1909 1.03469E+00
 -1      1910 1.16810E+00
 -1      1911 9.39579E-01
 -1      1912 8.36798E-01
 -1      1913 9.90241E-01
 -1      1914 7.44344E-01
 -1      1915 6.51306E-01
 -1      1916 8.02676E-01
 -1      1917 5.69303E-01
 -1      1918 4.91055E-01
 -1      1919 6.28220E-01
 -1      1920 4.22422E-01
 -1      1921 3.63001E-01
 -1      1922 4.77584E-01
 -1      1923 3.07832E-01
 -1      1924 2.71950E-01
 -1      1925 3.53781E-01
 -1      1926 2.28937E-01
 -1      1927 1.99267E-01
 -1      1928 2.55598E-01
 -1      1929 1.66563E-01
 -1      1930 1.42687E-01
 -1      1931 1.79880E-01
 -1      1932 1.19392E-01
 -1      1933 1.01401E-01
 -1      1934 1.23881E-01
 -1      1935 8.68577E-02
 -1      1936 7.70825E-02
 -1      1937 8.60428E-02
 -1      1938 6.73202E-02
 -1      1939 5.86937E-02
 -1      1940 6.17368E-02
 -1      1941 5.25591E-02
 -1      1942 4.51259E-02
 -1      1943 4.58398E-02
 -1      1944 4.11935E-02
 -1      1945 3.48893E-02
 -1      1946 3.57728E-02
 -1      1947 3.12740E-02
 -1      1948 2.61921E-02
 -1      1949 2.82251E-02
 -1      1950 2.29455E-02
 -1      1951 1.94958E-02
 -1      1952 2.13633E-02
 -1      1953 1.67012E-02
 -1      1954 1.41900E-02
 -1      1955 1.53222E-02
 -1      1956 1.25658E-02
 -1      1957 9.98662E-03
 -1      1958 1.09033E-02
 -1      1959 8.41005E-03
 -1      1960 6.35331E-03
 -1      1961 7.70251E-03
 -1      1962 5.08100E-03
 -1      1963 4.12718E-03
 -1      1964 3.11459E-03
 -1      1965 4.85363E-03
 -1      1966 1.35667E+00
 -1      1967 1.73745E+00
 -1      1968 1.42488E+00
 -1      1969 1.01369E+00
 -1      1970 1.18656E+00
 -1      1971 9.10276E-01
 -1      1972 8.69618E-01
 -1      1973 9.69634E-01
 -1      1974 6.96115E-01
 -1      1975 7.58943E-01
 -1      1976 8.43382E-01
 -1      1977 6.25827E-01
 -1      1978 6.42419E-01
 -1      1979 7.22312E-01
 -1      1980 5.62960E-01
 -1      1981 5.43524E-01
 -1      1982 6.17877E-01
 -1      1983 5.01786E-01
 -1      1984 5.33806E-01
 -1      1985 5.41864E-01
 -1      1986 4.75584E-01
 -1      1987 5.31583E-01
 -1      1988 5.39639E-01
 -1      1989 4.79757E-01
 -1      1990 5.27635E-01
 -1      1991 5.31583E-01
 -1      1992 4.85590E-01
 -1      1993 5.80779E-01
 -1      1994 5.19341E-01
 -1      1995 4.77297E-01
 -1      1996 5.62513E-01
 -1      1997 5.32906E-01
 -1      1998 4.21131E-01
 -1      1999 7.19688E-01
 -1      2000 6.05850E-01
 -1      2001 4.16594E-01
 -1      2002 9.33158E-01
 -1      2003 9.17711E-01
 -1      2004 6.57954E-01
 -1      2005 1.29042E+00
 -1      2006 1.15484E+00
 -1      2007 1.07765E+00
 -1      2008 1.59233E+00
 -1      2009 1.42781E+00
 -1      2010 1.43672E+00
 -1      2011 1.88362E+00
 -1      2012 1.59233E+00
 -1      2013 1.57410E+00
 -1      2014 2.06706E+00
 -1      2015 1.87873E+00
 -1      2016 1.56922E+00
 -1      2017 2.28472E+00
 -1      2018 2.12208E+00
 -1      2019 1.61935E+00
 -1      2020 2.31726E+00
 -1      2021 2.34981E+00
 -1      2022 1.73946E+00
 -1      2023 1.84926E+00
 -1      2024 2.18621E+00
 -1      2025 1.67351E+00
 -1      2026 1.19626E+00
 -1      2027 1.61463E+00
 -1      2028 1.30784E+00
 -1      2029 7.96795E-01
 -1      2030 9.95587E-01
 -1      2031 8.72538E-01
 -1      2032 5.63831E-01
 -1      2033 6.73619E-01
 -1      2034 5.48688E-01
 -1      2035 6.23222E-01
 -1      2036 6.07349E-01
 -1      2037 4.69030E-01
 -1      2038 7.13406E-01
 -1      2039 6.59860E-01
 -1      2040 5.49186E-01
 -1      2041 7.40592E-01
 -1      2042 7.34291E-01
 -1      2043 6.06709E-01
 -1      2044 6.96141E-01
 -1      2045 7.34152E-01
 -1      2046 6.21153E-01
 -1      2047 6.06237E-01
 -1      2048 6.65787E-01
 -1      2049 5.84359E-01
 -1      2050 5.23835E-01
 -1      2051 5.76824E-01
 -1      2052 5.24592E-01
 -1      2053 4.38032E-01
 -1      2054 4.86579E-01
 -1      2055 4.57923E-01
 -1      2056 3.50978E-01
 -1      2057 3.98474E-01
 -1      2058 3.81110E-01
 -1      2059 2.70308E-01
 -1      2060 3.13500E-01
 -1      2061 3.04073E-01
 -1      2062 2.01798E-01
 -1      2063 2.37294E-01
 -1      2064 2.33580E-01
 -1      2065 1.53290E-01
 -1      2066 1.76832E-01
 -1      2067 1.75600E-01
 -1      2068 1.15502E-01
 -1      2069 1.35409E-01
 -1      2070 1.32754E-01
 -1      2071 8.50842E-02
 -1      2072 1.00607E-01
 -1      2073 9.99783E-02
 -1      2074 6.10680E-02
 -1      2075 7.30761E-02
 -1      2076 7.30761E-02
 -1      2077 4.26392E-02
 -1      2078 5.16523E-02
 -1      2079 5.16523E-02
 -1      2080 3.17879E-02
 -1      2081 3.54399E-02
 -1      2082 3.50374E-02
 -1      2083 2.51842E-02
 -1      2084 2.87234E-02
 -1      2085 2.47736E-02
 -1      2086 1.97957E-02
 -1      2087 2.30910E-02
 -1      2088 1.96160E-02
 -1      2089 1.56102E-02
 -1      2090 1.77006E-02
 -1      2091 1.54277E-02
 -1      2092 1.21872E-02
 -1      2093 1.36227E-02
 -1      2094 1.13450E-02
 -1      2095 9.18863E-03
 -1      2096 1.10515E-02
 -1      2097 8.22178E-03
 -1      2098 5.95209E-03
 -1      2099 8.11341E-03
 -1      2100 6.01082E-03
 -1      2101 3.72163E-03
 -1      2102 5.04381E-03
 -1      2103 4.02731E-03
 -1      2104 2.22382E-03
 -1      2105 1.54279E-03
 -1      2106 1.54279E-03
 -1      2107 1.57383E-03
 -1      2108 1.46318E-03
 -1      2109 1.88117E-03
 -1      2110 1.80320E-03
 -1      2111 1.96044E-03
 -1      2112 2.85565E-03
 -1      2113 2.25225E-03
 -1      2114 1.42630E-03
 -1      2115 1.43652E-03
 -1      2116 1.74386E-03
 -1      2117 1.24440E-03
 -1      2118 1.31680E-03
 -1      2119 1.52810E-03
 -1      2120 9.14216E-04
 -1      2121 1.04416E-03
 -1      2122 1.21835E-03
 -1      2123 6.33538E-04
 -1      2124 7.11272E-04
 -1      2125 8.15165E-04
 -1      2126 7.96507E-04
 -1      2127 6.76746E-04
 -1      2128 6.55429E-04
 -1      2129 1.15521E-03
 -1      2130 1.01956E-03
 -1      2131 9.21692E-04
 -1      2132 1.43909E-03
 -1      2133 1.36169E-03
 -1      2134 1.35123E-03
 -1      2135 1.56449E-03
 -1      2136 1.56053E-03
 -1      2137 1.67915E-03
 -1      2138 1.63540E-03
 -1      2139 1.63540E-03
 -1      2140 1.87149E-03
 -1      2141 2.03946E-03
 -1      2142 2.07003E-03
 -1      2143 2.37703E-03
 -1      2144 3.58992E+01
 -1      2145 2.60765E+01
 -1      2146 3.32331E+01
 -1      2147 3.32331E+01
 -1      2148 2.59298E+01
 -1      2149 2.90829E+01
 -1      2150 1.71672E+01
 -1      2151 3.05819E+01
 -1      2152 9.82446E+00
 -1      2153 1.38710E+01
 -1      2154 1.05009E+00
 -1      2155 1.23027E+00
 -1      2156 9.94052E-01
 -1      2157 8.66931E-01
 -1      2158 1.13203E+01
 -1      2159 1.15562E+01
 -1      2160 1.15689E+01
 -1      2161 1.15660E+01
 -1      2162 1.09389E+01
 -1      2163 1.22161E+01
 -1      2164 1.16544E+01
 -1      2165 9.92965E+00
 -1      2166 1.06446E+01
 -1      2167 9.46674E+00
 -1      2168 9.36842E+00
 -1      2169 1.89652E+01
 -1      2170 1.14041E+01
 -1      2171 2.58838E+01
 -1      2172 2.30143E+01
 -1      2173 3.27047E+01
 -1      2174 3.27047E+01
 -1      2175 3.03400E+01
 -1      2176 3.21597E+01
 -1      2177 3.21597E+01
 -1      2178 3.03400E+01
 -1      2179 3.03400E+01
 -1      2180 2.92744E+01
 -1      2181 2.99082E+01
 -1      2182 3.76153E+01
 -1      2183 2.77976E+01
 -1      2184 1.93758E+01
 -1      2185 3.20482E+01
 -1      2186 2.22306E+01
 -1      2187 1.03768E+01
 -1      2188 1.57724E+01
 -1      2189 9.74186E+00
 -1      2190 9.40002E+00
 -1      2191 1.10657E+01
 -1      2192 1.07401E+01
 -1      2193 8.50138E+00
 -1      2194 1.14491E+01
 -1      2195 1.14896E+01
 -1      2196 1.13670E+01
 -1      2197 1.14841E+01
 -1      2198 1.07656E+01
 -1      2199 1.08757E+01
 -1      2200 9.92612E+00
 -1      2201 9.41957E+00
 -1      2202 9.34483E+00
 -1      2203 1.90687E+01
 -1      2204 1.16048E+01
 -1      2205 2.55547E+01
 -1      2206 2.31807E+01
 -1      2207 3.19218E+01
 -1      2208 3.19218E+01
 -1      2209 3.32331E+01
 -1      2210 3.30026E+01
 -1      2211 3.40835E+01
 -1      2212 1.01246E+01
 -1      2213 9.31473E+00
 -1      2214 8.33961E+00
 -1      2215 1.21455E+01
 -1      2216 2.82718E+00
 -1      2217 9.26150E+00
 -1      2218 2.00455E+00
 -1      2219 2.59298E+01
 -1      2220 2.99333E+01
 -1      2221 2.72976E-03
 -1      2222 2.07591E+01
 -1      2223 3.30026E+01
 -1      2224 2.55547E+01
 -1      2225 1.50757E+01
 -1      2226 8.01404E+00
 -1      2227 9.92353E+00
 -1      2228 1.30601E+01
 -1      2229 2.92744E+01
 -1      2230 3.16147E+01
 -1      2231 2.58838E+01
 -1      2232 1.50138E+01
 -1      2233 9.02744E+00
 -1      2234 7.65133E+00
 -1      2235 1.12701E+01
 -1      2236 9.78410E+00
 -1      2237 3.11829E+01
 -1      2238 8.47992E+00
 -1      2239 1.03824E+01
 -1      2240 8.77847E+00
 -1      2241 1.00076E+00
 -1      2242 1.34526E+00
 -1      2243 5.33797E-01
 -1      2244 5.75690E-01
 -1      2245 5.99811E-01
 -1      2246 6.58719E-01
 -1      2247 4.95529E-01
 -1      2248 4.58777E-01
 -1      2249 4.54487E-01
 -1      2250 5.15511E-01
 -1      2251 4.83242E-01
 -1      2252 4.01670E-01
 -1      2253 5.87098E-01
 -1      2254 5.42825E-01
 -1      2255 4.53449E-01
 -1      2256 6.66841E-01
 -1      2257 6.10358E-01
 -1      2258 5.04023E-01
 -1      2259 7.47966E-01
 -1      2260 6.74411E-01
 -1      2261 5.34854E-01
 -1      2262 9.26073E-01
 -1      2263 8.21470E-01
 -1      2264 6.15928E-01
 -1      2265 8.20250E+00
 -1      2266 1.14987E+01
 -1      2267 7.28270E-01
 -1      2268 8.98378E-01
 -1      2269 8.18752E-01
 -1      2270 1.14423E+00
 -1      2271 8.89504E-01
 -1      2272 7.74018E+00
 -1      2273 6.30856E+00
 -1      2274 7.95399E-01
 -1      2275 6.35802E-01
 -1      2276 5.76341E-01
 -1      2277 5.59697E-01
 -1      2278 4.91569E-01
 -1      2279 4.06131E-01
 -1      2280 4.57835E-01
 -1      2281 3.89137E-01
 -1      2282 2.96293E-01
 -1      2283 4.66926E-01
 -1      2284 5.22414E-01
 -1      2285 3.40350E-01
 -1      2286 6.25290E-01
 -1      2287 6.86754E-01
 -1      2288 5.21015E-01
 -1      2289 8.00624E-01
 -1      2290 9.15948E-01
 -1      2291 7.37760E-01
 -1      2292 1.03313E+00
 -1      2293 1.12751E+00
 -1      2294 9.68812E-01
 -1      2295 1.23554E+00
 -1      2296 1.32152E+00
 -1      2297 1.19402E+00
 -1      2298 1.40145E+00
 -1      2299 1.48586E+00
 -1      2300 1.38199E+00
 -1      2301 1.66669E+00
 -1      2302 1.68009E+00
 -1      2303 1.64276E+00
 -1      2304 1.86700E+00
 -1      2305 1.82643E+00
 -1      2306 2.01050E+00
 -1      2307 2.01248E+00
 -1      2308 2.10197E+00
 -1      2309 2.38346E+00
 -1      2310 2.20337E+00
 -1      2311 2.41504E+00
 -1      2312 2.67092E+00
 -1      2313 3.38227E+00
 -1      2314 3.61942E+00
 -1      2315 3.73956E+00
 -1      2316 3.81844E+00
 -1      2317 4.16193E+00
 -1      2318 4.90583E+00
 -1      2319 3.47092E+00
 -1      2320 3.72283E+00
 -1      2321 4.41384E+00
 -1      2322 3.72283E+00
 -1      2323 3.44744E+00
 -1      2324 3.72283E+00
 -1      2325 3.15287E+00
 -1      2326 2.75832E+00
 -1      2327 3.42825E+00
 -1      2328 2.68603E+00
 -1      2329 2.38439E+00
 -1      2330 3.06139E+00
 -1      2331 2.36691E+00
 -1      2332 2.31392E+00
 -1      2333 2.97163E+00
 -1      2334 2.07862E+00
 -1      2335 2.01804E+00
 -1      2336 2.71885E+00
 -1      2337 1.86277E+00
 -1      2338 1.88398E+00
 -1      2339 2.32828E+00
 -1      2340 1.70299E+00
 -1      2341 1.66971E+00
 -1      2342 1.99204E+00
 -1      2343 1.51725E+00
 -1      2344 1.44155E+00
 -1      2345 1.65859E+00
 -1      2346 1.36541E+00
 -1      2347 1.30235E+00
 -1      2348 1.43000E+00
 -1      2349 1.20498E+00
 -1      2350 1.12224E+00
 -1      2351 1.25649E+00
 -1      2352 1.02110E+00
 -1      2353 9.25986E-01
 -1      2354 1.05798E+00
 -1      2355 8.31327E-01
 -1      2356 7.38873E-01
 -1      2357 8.62182E-01
 -1      2358 6.55735E-01
 -1      2359 5.73733E-01
 -1      2360 6.84385E-01
 -1      2361 5.03778E-01
 -1      2362 4.35145E-01
 -1      2363 5.31293E-01
 -1      2364 3.78095E-01
 -1      2365 3.22925E-01
 -1      2366 4.04288E-01
 -1      2367 2.77528E-01
 -1      2368 2.34515E-01
 -1      2369 3.01842E-01
 -1      2370 1.99129E-01
 -1      2371 1.66425E-01
 -1      2372 2.21060E-01
 -1      2373 1.39351E-01
 -1      2374 1.16057E-01
 -1      2375 1.58601E-01
 -1      2376 9.57117E-02
 -1      2377 8.11680E-02
 -1      2378 1.11182E-01
 -1      2379 6.61635E-02
 -1      2380 5.64012E-02
 -1      2381 7.58324E-02
 -1      2382 4.55639E-02
 -1      2383 3.94293E-02
 -1      2384 4.99906E-02
 -1      2385 3.25601E-02
 -1      2386 2.86277E-02
 -1      2387 3.22841E-02
 -1      2388 2.47710E-02
 -1      2389 2.11558E-02
 -1      2390 2.15583E-02
 -1      2391 1.95899E-02
 -1      2392 1.63433E-02
 -1      2393 1.61358E-02
 -1      2394 1.46894E-02
 -1      2395 1.18948E-02
 -1      2396 1.29160E-02
 -1      2397 1.02791E-02
 -1      2398 8.65484E-03
 -1      2399 9.64634E-03
 -1      2400 7.25352E-03
 -1      2401 5.67695E-03
 -1      2402 6.62927E-03
 -1      2403 5.11549E-01
 -1      2404 5.37784E-01
 -1      2405 4.21085E-01
 -1      2406 4.57717E-01
 -1      2407 3.69674E-01
 -1      2408 4.16645E-01
 -1      2409 4.41187E-01
 -1      2410 3.35943E-01
 -1      2411 4.21680E-01
 -1      2412 4.23340E-01
 -1      2413 3.62740E-01
 -1      2414 4.52836E-01
 -1      2415 4.47003E-01
 -1      2416 3.94759E-01
 -1      2417 4.85590E-01
 -1      2418 4.85590E-01
 -1      2419 4.52836E-01
 -1      2420 4.80074E-01
 -1      2421 4.88368E-01
 -1      2422 4.88368E-01
 -1      2423 4.73757E-01
 -1      2424 5.21630E-01
 -1      2425 5.32700E-01
 -1      2426 5.54650E-01
 -1      2427 5.11313E-01
 -1      2428 6.11812E-01
 -1      2429 8.41192E-01
 -1      2430 6.43168E-01
 -1      2431 7.37887E-01
 -1      2432 1.19836E+00
 -1      2433 9.76683E-01
 -1      2434 9.61897E-01
 -1      2435 1.46628E+00
 -1      2436 1.32889E+00
 -1      2437 1.22792E+00
 -1      2438 1.57410E+00
 -1      2439 1.57410E+00
 -1      2440 1.46628E+00
 -1      2441 1.64950E+00
 -1      2442 1.65439E+00
 -1      2443 1.65439E+00
 -1      2444 1.60630E+00
 -1      2445 1.55127E+00
 -1      2446 1.63645E+00
 -1      2447 1.70170E+00
 -1      2448 1.63661E+00
 -1      2449 1.56854E+00
 -1      2450 1.46524E+00
 -1      2451 1.59628E+00
 -1      2452 1.49343E+00
 -1      2453 1.11856E+00
 -1      2454 1.35319E+00
 -1      2455 1.27596E+00
 -1      2456 7.57682E-01
 -1      2457 9.58356E-01
 -1      2458 1.00371E+00
 -1      2459 5.37700E-01
 -1      2460 6.60876E-01
 -1      2461 7.46693E-01
 -1      2462 5.50254E-01
 -1      2463 5.06736E-01
 -1      2464 6.18923E-01
 -1      2465 5.82764E-01
 -1      2466 5.46127E-01
 -1      2467 5.83832E-01
 -1      2468 6.16906E-01
 -1      2469 5.96021E-01
 -1      2470 5.92961E-01
 -1      2471 5.97276E-01
 -1      2472 6.03715E-01
 -1      2473 5.93028E-01
 -1      2474 5.48402E-01
 -1      2475 5.78757E-01
 -1      2476 5.61319E-01
 -1      2477 4.91362E-01
 -1      2478 5.20774E-01
 -1      2479 5.15173E-01
 -1      2480 4.23848E-01
 -1      2481 4.61103E-01
 -1      2482 4.57286E-01
 -1      2483 3.49440E-01
 -1      2484 3.88998E-01
 -1      2485 3.92178E-01
 -1      2486 2.77183E-01
 -1      2487 3.14662E-01
 -1      2488 3.22551E-01
 -1      2489 2.12284E-01
 -1      2490 2.45298E-01
 -1      2491 2.55887E-01
 -1      2492 1.59746E-01
 -1      2493 1.84712E-01
 -1      2494 1.96429E-01
 -1      2495 1.19062E-01
 -1      2496 1.36943E-01
 -1      2497 1.46054E-01
 -1      2498 8.59921E-02
 -1      2499 1.00886E-01
 -1      2500 1.05076E-01
 -1      2501 5.99682E-02
 -1      2502 7.19763E-02
 -1      2503 7.28842E-02
 -1      2504 4.11804E-02
 -1      2505 5.05961E-02
 -1      2506 4.94963E-02
 -1      2507 2.80319E-02
 -1      2508 3.52311E-02
 -1      2509 3.41749E-02
 -1      2510 2.17092E-02
 -1      2511 2.47736E-02
 -1      2512 2.49674E-02
 -1      2513 1.75228E-02
 -1      2514 1.96160E-02
 -1      2515 1.96160E-02
 -1      2516 1.33326E-02
 -1      2517 1.54277E-02
 -1      2518 1.54277E-02
 -1      2519 9.35753E-03
 -1      2520 1.13450E-02
 -1      2521 1.13450E-02
 -1      2522 7.09692E-03
 -1      2523 8.23266E-03
 -1      2524 8.23266E-03
 -1      2525 5.19736E-03
 -1      2526 6.27258E-03
 -1      2527 6.28346E-03
 -1      2528 3.76394E-03
 -1      2529 1.59586E-03
 -1      2530 1.70536E-03
 -1      2531 1.12157E-03
 -1      2532 1.32181E-03
 -1      2533 1.49907E-03
 -1      2534 2.75931E-03
 -1      2535 2.79036E-03
 -1      2536 1.98921E-03
 -1      2537 2.09548E-03
 -1      2538 3.00467E-03
 -1      2539 2.05698E-03
 -1      2540 8.20571E-04
 -1      2541 1.02352E-03
 -1      2542 1.12697E-03
 -1      2543 8.71942E-04
 -1      2544 8.28734E-04
 -1      2545 1.03708E-03
 -1      2546 1.14402E-03
 -1      2547 9.20963E-04
 -1      2548 1.09427E-03
 -1      2549 1.47399E-03
 -1      2550 1.26751E-03
 -1      2551 1.26678E-03
 -1      2552 1.85726E-03
 -1      2553 1.73582E-03
 -1      2554 1.65211E-03
 -1      2555 2.22349E-03
 -1      2556 2.15258E-03
 -1      2557 2.20926E-03
 -1      2558 2.55762E-03
 -1      2559 2.12299E-03
 -1      2560 2.40408E-03
 -1      2561 2.57831E+01
 -1      2562 2.99333E+01
 -1      2563 1.36554E+01
 -1      2564 1.89727E+01
 -1      2565 9.71234E+00
 -1      2566 5.78855E-01
 -1      2567 6.22908E-01
 -1      2568 4.64576E-01
 -1      2569 6.57025E+00
 -1      2570 7.07998E+00
 -1      2571 3.19649E-03
 -1      2572 2.88392E+01
 -1      2573 2.77584E+01
 -1      2574 2.24430E+01
 -1      2575 2.22963E+01
 -1      2576 3.40835E+01
 -1      2577 3.40835E+01
 -1      2578 8.47396E+00
 -1      2579 8.05007E+00
 -1      2580 8.62425E+00
 -1      2581 1.22276E+01
 -1      2582 2.36148E+01
 -1      2583 2.50916E+01
 -1      2584 2.37679E+01
 -1      2585 1.69470E+01
 -1      2586 4.74882E-01
 -1      2587 5.07090E-01
 -1      2588 4.44701E-01
 -1      2589 3.97600E-01
 -1      2590 7.18523E+00
 -1      2591 8.75677E+00
 -1      2592 9.07129E+00
 -1      2593 8.82557E+00
 -1      2594 3.07511E+01
 -1      2595 3.11829E+01
 -1      2596 9.47368E+00
 -1      2597 9.38815E+00
 -1      2598 7.27487E+00
 -1      2599 5.63550E+00
 -1      2600 6.19673E+00
 -1      2601 8.97888E+00
 -1      2602 7.04155E+00
 -1      2603 5.58695E+00
 -1      2604 1.36948E+01
 -1      2605 9.64577E+00
 -1      2606 1.15790E+01
 -1      2607 2.59069E+01
 -1      2608 2.64519E+01
 -1      2609 6.10496E+00
 -1      2610 7.08175E+00
 -1      2611 3.16147E+01
 -1      2612 3.16147E+01
 -1      2613 2.59069E+01
 -1      2614 3.11829E+01
 -1      2615 1.43561E+01
 -1      2616 1.99232E+01
 -1      2617 9.92031E+00
 -1      2618 9.03896E+00
 -1      2619 9.00396E+00
 -1      2620 7.30225E+00
 -1      2621 6.30399E+00
 -1      2622 5.85267E+00
 -1      2623 8.48633E+00
 -1      2624 6.30112E+00
 -1      2625 7.90628E+00
 -1      2626 8.39759E+00
 -1      2627 5.52401E+00
 -1      2628 6.94478E+00
 -1      2629 1.45700E+01
 -1      2630 1.04580E+01
 -1      2631 2.29949E+01
 -1      2632 1.66278E+01
 -1      2633 1.61563E+00
 -1      2634 1.22910E+00
 -1      2635 7.55313E-01
 -1      2636 9.46105E-01
 -1      2637 1.49445E+00
 -1      2638 1.65595E+00
 -1      2639 1.26276E+00
 -1      2640 1.07032E+00
 -1      2641 6.10148E+00
 -1      2642 8.70035E+00
 -1      2643 6.81839E+00
 -1      2644 6.66035E-01
 -1      2645 8.05104E-01
 -1      2646 8.74248E-01
 -1      2647 6.11009E-01
 -1      2648 6.43314E+00
 -1      2649 1.19111E+00
 -1      2650 8.88128E-01
 -1      2651 1.88315E+01
 -1      2652 5.04893E+00
 -1      2653 1.20101E+01
 -1      2654 5.23186E+00
 -1      2655 5.41625E+00
 -1      2656 4.02570E-03
 -1      2657 3.68567E-03
 -1      2658 2.99333E+01
 -1      2659 2.00066E+01
 -1      2660 2.00066E+01
 -1      2661 1.65199E+01
 -1      2662 1.53393E+01
 -1      2663 4.90583E+00
 -1      2664 7.65989E+00
 -1      2665 3.61212E-03
 -1      2666 3.22729E-03
 -1      2667 2.97324E-03
 -1      2668 4.88443E-03
 -1      2669 2.88392E+01
 -1      2670 2.36736E+01
 -1      2671 2.36736E+01
 -1      2672 1.80141E+01
 -1      2673 1.75152E+01
 -1      2674 7.13050E+00
 -1      2675 1.57404E+01
 -1      2676 8.19253E+00
 -1      2677 7.36006E+00
 -1      2678 5.81757E+00
 -1      2679 5.16940E+00
 -1      2680 5.87263E+00
 -1      2681 7.01912E+00
 -1      2682 7.98063E+00
 -1      2683 9.54470E-01
 -1      2684 4.56381E-03
 -1      2685 4.43543E-03
 -1      2686 4.08312E-01
 -1      2687 3.80999E-01
 -1      2688 3.59709E-01
 -1      2689 3.35244E-01
 -1      2690 3.14573E-01
 -1      2691 4.64308E-01
 -1      2692 4.56738E-01
 -1      2693 5.41545E-01
 -1      2694 4.68041E-01
 -1      2695 3.89926E-01
 -1      2696 4.56381E-03
 -1      2697 5.45912E-03
 -1      2698 6.28346E-03
 -1      2699 5.78463E-01
 -1      2700 6.80843E-01
 -1      2701 8.05282E-01
 -1      2702 3.95803E+00
 -1      2703 4.21973E+00
 -1      2704 3.88705E-01
 -1      2705 3.12601E-01
 -1      2706 2.99597E-01
 -1      2707 2.65863E-01
 -1      2708 2.82171E-01
 -1      2709 3.03437E-01
 -1      2710 3.81227E-01
 -1      2711 3.06740E-01
 -1      2712 4.52871E-01
 -1      2713 5.55747E-01
 -1      2714 4.15958E-01
 -1      2715 6.56257E-01
 -1      2716 7.70127E-01
 -1      2717 5.88113E-01
 -1      2718 8.95827E-01
 -1      2719 1.01301E+00
 -1      2720 8.14324E-01
 -1      2721 1.16722E+00
 -1      2722 1.27525E+00
 -1      2723 1.09424E+00
 -1      2724 1.45994E+00
 -1      2725 1.53988E+00
 -1      2726 1.43314E+00
 -1      2727 1.74274E+00
 -1      2728 1.92357E+00
 -1      2729 1.82070E+00
 -1      2730 2.15689E+00
 -1      2731 2.34380E+00
 -1      2732 2.25688E+00
 -1      2733 2.93345E+00
 -1      2734 3.11950E+00
 -1      2735 3.07984E+00
 -1      2736 3.96656E+00
 -1      2737 4.06796E+00
 -1      2738 4.51654E+00
 -1      2739 4.85033E+00
 -1      2740 5.81757E+00
 -1      2741 4.90583E+00
 -1      2742 5.10485E+00
 -1      2743 3.49037E+00
 -1      2744 3.41808E+00
 -1      2745 3.48917E+00
 -1      2746 3.47169E+00
 -1      2747 3.91814E+00
 -1      2748 3.65261E+00
 -1      2749 3.41731E+00
 -1      2750 4.17016E+00
 -1      2751 2.89729E+00
 -1      2752 2.74202E+00
 -1      2753 3.83105E+00
 -1      2754 2.30112E+00
 -1      2755 2.12014E+00
 -1      2756 2.87012E+00
 -1      2757 1.92246E+00
 -1      2758 1.77001E+00
 -1      2759 2.23155E+00
 -1      2760 1.57455E+00
 -1      2761 1.49842E+00
 -1      2762 1.83842E+00
 -1      2763 1.32881E+00
 -1      2764 1.23144E+00
 -1      2765 1.47336E+00
 -1      2766 1.09569E+00
 -1      2767 9.94546E-01
 -1      2768 1.16800E+00
 -1      2769 8.81233E-01
 -1      2770 7.86574E-01
 -1      2771 9.18938E-01
 -1      2772 6.96327E-01
 -1      2773 6.13190E-01
 -1      2774 7.15378E-01
 -1      2775 5.41598E-01
 -1      2776 4.71643E-01
 -1      2777 5.53539E-01
 -1      2778 4.14470E-01
 -1      2779 3.57421E-01
 -1      2780 4.24775E-01
 -1      2781 3.12073E-01
 -1      2782 2.66676E-01
 -1      2783 3.22255E-01
 -1      2784 2.31047E-01
 -1      2785 1.95662E-01
 -1      2786 2.41279E-01
 -1      2787 1.67982E-01
 -1      2788 1.40909E-01
 -1      2789 1.77970E-01
 -1      2790 1.19679E-01
 -1      2791 9.93339E-02
 -1      2792 1.29061E-01
 -1      2793 8.32859E-02
 -1      2794 6.82814E-02
 -1      2795 9.17829E-02
 -1      2796 5.63492E-02
 -1      2797 4.55119E-02
 -1      2798 6.38028E-02
 -1      2799 3.68079E-02
 -1      2800 2.99387E-02
 -1      2801 4.31666E-02
 -1      2802 2.37331E-02
 -1      2803 1.98764E-02
 -1      2804 2.82568E-02
 -1      2805 1.55764E-02
 -1      2806 1.40105E-02
 -1      2807 1.77512E-02
 -1      2808 1.13984E-02
 -1      2809 9.74457E-03
 -1      2810 1.08391E-02
 -1      2811 8.78797E-03
 -1      2812 7.17221E-03
 -1      2813 7.27044E-03
 -1      2814 6.43359E-03
 -1      2815 5.03228E-03
 -1      2816 5.57522E-03
 -1      2817 3.04819E-01
 -1      2818 2.84718E-01
 -1      2819 2.50083E+01
 -1      2820 1.97641E+01
 -1      2821 2.42127E-01
 -1      2822 2.95959E-01
 -1      2823 2.11003E-01
 -1      2824 4.22486E-01
 -1      2825 3.97163E-01
 -1      2826 5.10378E-01
 -1      2827 4.77624E-01
 -1      2828 4.80028E-01
 -1      2829 5.61975E-01
 -1      2830 5.59197E-01
 -1      2831 5.83985E-01
 -1      2832 6.34273E-01
 -1      2833 5.92718E-01
 -1      2834 6.63548E-01
 -1      2835 7.71341E-01
 -1      2836 7.33784E-01
 -1      2837 7.93802E-01
 -1      2838 9.53157E-01
 -1      2839 8.64638E-01
 -1      2840 9.86610E-01
 -1      2841 1.15388E+00
 -1      2842 1.01839E+00
 -1      2843 1.14514E+00
 -1      2844 1.38536E+00
 -1      2845 1.25482E+00
 -1      2846 1.31132E+00
 -1      2847 1.55065E+00
 -1      2848 1.44283E+00
 -1      2849 1.46973E+00
 -1      2850 2.29092E+00
 -1      2851 2.21063E+00
 -1      2852 2.18718E+00
 -1      2853 2.46470E+00
 -1      2854 2.56292E+00
 -1      2855 3.11917E+00
 -1      2856 1.89179E+00
 -1      2857 1.86147E+00
 -1      2858 2.78795E+00
 -1      2859 1.54078E+00
 -1      2860 1.64621E+00
 -1      2861 1.93914E+00
 -1      2862 1.31364E+00
 -1      2863 1.42568E+00
 -1      2864 1.57846E+00
 -1      2865 1.04969E+00
 -1      2866 1.20989E+00
 -1      2867 1.35962E+00
 -1      2868 8.85554E-01
 -1      2869 9.82361E-01
 -1      2870 1.18855E+00
 -1      2871 7.68975E-01
 -1      2872 7.99940E-01
 -1      2873 1.03561E+00
 -1      2874 6.83253E-01
 -1      2875 6.87380E-01
 -1      2876 8.68396E-01
 -1      2877 6.81209E-01
 -1      2878 6.67952E-01
 -1      2879 7.71500E-01
 -1      2880 6.30518E-01
 -1      2881 6.43708E-01
 -1      2882 7.18699E-01
 -1      2883 5.67968E-01
 -1      2884 5.86486E-01
 -1      2885 6.37167E-01
 -1      2886 5.07568E-01
 -1      2887 5.35196E-01
 -1      2888 5.60363E-01
 -1      2889 4.44307E-01
 -1      2890 4.74565E-01
 -1      2891 4.94588E-01
 -1      2892 3.72998E-01
 -1      2893 4.07847E-01
 -1      2894 4.25126E-01
 -1      2895 3.02357E-01
 -1      2896 3.37135E-01
 -1      2897 3.52804E-01
 -1      2898 2.37631E-01
 -1      2899 2.69516E-01
 -1      2900 2.84100E-01
 -1      2901 1.81459E-01
 -1      2902 2.09031E-01
 -1      2903 2.22660E-01
 -1      2904 1.34695E-01
 -1      2905 1.57498E-01
 -1      2906 1.70100E-01
 -1      2907 9.70727E-02
 -1      2908 1.15248E-01
 -1      2909 1.26692E-01
 -1      2910 6.77124E-02
 -1      2911 8.17282E-02
 -1      2912 9.19009E-02
 -1      2913 4.65508E-02
 -1      2914 5.59229E-02
 -1      2915 6.47669E-02
 -1      2916 3.17840E-02
 -1      2917 3.77333E-02
 -1      2918 4.41599E-02
 -1      2919 2.21202E-02
 -1      2920 2.53784E-02
 -1      2921 2.89368E-02
 -1      2922 1.56258E-02
 -1      2923 1.77190E-02
 -1      2924 1.81300E-02
 -1      2925 1.14561E-02
 -1      2926 1.35512E-02
 -1      2927 1.16542E-02
 -1      2928 8.63871E-03
 -1      2929 1.06262E-02
 -1      2930 8.74979E-03
 -1      2931 7.10780E-03
 -1      2932 8.23266E-03
 -1      2933 7.51385E-03
 -1      2934 6.28346E-03
 -1      2935 1.81421E-03
 -1      2936 1.80605E-03
 -1      2937 4.39040E-03
 -1      2938 3.59787E-03
 -1      2939 2.92821E-03
 -1      2940 4.19472E-03
 -1      2941 1.68465E-03
 -1      2942 1.95869E-03
 -1      2943 1.87283E-03
 -1      2944 1.82381E-03
 -1      2945 2.59278E-03
 -1      2946 1.80605E-03
 -1      2947 1.90410E-03
 -1      2948 2.36372E-03
 -1      2949 2.58318E-03
 -1      2950 7.60358E+00
 -1      2951 9.76025E+00
 -1      2952 1.99633E-03
 -1      2953 1.87283E-03
 -1      2954 2.60238E-03
 -1      2955 2.03354E-03
 -1      2956 1.77171E-03
 -1      2957 2.37776E-03
 -1      2958 2.50458E-03
 -1      2959 2.20926E-03
 -1      2960 2.32886E-03
 -1      2961 3.02871E-03
 -1      2962 3.09513E-01
 -1      2963 3.50584E-01
 -1      2964 1.81967E-01
 -1      2965 1.16509E+01
 -1      2966 9.59301E+00
 -1      2967 1.10362E+01
 -1      2968 1.45065E+01
 -1      2969 1.61797E+01
 -1      2970 1.34957E+01
 -1      2971 6.68589E+00
 -1      2972 6.15588E+00
 -1      2973 1.13613E+01
 -1      2974 1.50529E+01
 -1      2975 3.56197E-01
 -1      2976 3.49502E-01
 -1      2977 2.98276E-01
 -1      2978 3.83925E-01
 -1      2979 5.33393E-01
 -1      2980 4.39288E-01
 -1      2981 3.45758E-01
 -1      2982 4.03704E-01
 -1      2983 5.09067E-01
 -1      2984 3.71157E-01
 -1      2985 2.48641E-01
 -1      2986 8.26301E-01
 -1      2987 1.74988E+01
 -1      2988 1.27353E+01
 -1      2989 1.36679E+01
 -1      2990 5.69548E+00
 -1      2991 6.33686E+00
 -1      2992 4.94361E+00
 -1      2993 6.06613E+00
 -1      2994 6.11404E+00
 -1      2995 6.68980E+00
 -1      2996 6.37295E+00
 -1      2997 5.40714E+00
 -1      2998 4.00108E+00
 -1      2999 1.20347E+01
 -1      3000 8.78250E+00
 -1      3001 7.36006E+00
 -1      3002 9.48859E+00
 -1      3003 8.80110E+00
 -1      3004 3.98803E+00
 -1      3005 4.97653E+00
 -1      3006 3.80822E+00
 -1      3007 4.51332E-01
 -1      3008 4.28071E-01
 -1      3009 3.55621E-01
 -1      3010 3.80786E-01
 -1      3011 4.17659E-01
 -1      3012 4.41779E-01
 -1      3013 6.97872E+00
 -1      3014 6.31183E+00
 -1      3015 4.72597E+00
 -1      3016 5.61063E+00
 -1      3017 4.52524E+00
 -1      3018 8.06963E+00
 -1      3019 6.09798E+00
 -1      3020 1.89976E+01
 -1      3021 2.31478E+01
 -1      3022 4.92801E+00
 -1      3023 4.15090E+00
 -1      3024 4.96828E-01
 -1      3025 6.43213E-01
 -1      3026 4.18957E-01
 -1      3027 2.86896E-01
 -1      3028 3.28857E-01
 -1      3029 3.49251E-01
 -1      3030 8.92742E+00
 -1      3031 3.89998E-03
 -1      3032 3.85271E+00
 -1      3033 5.24258E+00
 -1      3034 5.18616E+00
 -1      3035 4.06121E+00
 -1      3036 5.64992E-01
 -1      3037 3.69603E+00
 -1      3038 6.14597E+00
 -1      3039 2.30295E-03
 -1      3040 2.11737E-03
 -1      3041 2.40123E-03
 -1      3042 5.36225E+00
 -1      3043 7.71035E+00
 -1      3044 5.01701E+00
 -1      3045 1.77459E+01
 -1      3046 1.09604E+01
 -1      3047 1.19694E+01
 -1      3048 7.05601E-01
 -1      3049 7.19481E-01
 -1      3050 6.34614E-01
 -1      3051 5.36394E-01
 -1      3052 2.25991E+01
 -1      3053 2.30309E+01
 -1      3054 3.27506E-03
 -1      3055 2.75093E-03
 -1      3056 2.75093E-03
 -1      3057 3.91694E-03
 -1      3058 1.83974E+01
 -1      3059 1.43779E+01
 -1      3060 4.17106E-01
 -1      3061 1.03182E+01
 -1      3062 1.53379E+01
 -1      3063 1.39200E+01
 -1      3064 1.09588E+01
 -1      3065 1.06992E+01
 -1      3066 1.42462E+01
 -1      3067 2.13237E+01
 -1      3068 1.31717E+01
 -1      3069 3.95299E+00
 -1      3070 4.91449E+00
 -1      3071 1.40727E+01
 -1      3072 4.97561E-01
 -1      3073 3.69149E-01
 -1      3074 3.95856E-01
 -1      3075 3.42106E-01
 -1      3076 3.00406E-01
 -1      3077 4.70680E+00
 -1      3078 4.23223E+00
 -1      3079 6.58058E+00
 -1      3080 5.67867E+00
 -1      3081 5.80726E+00
 -1      3082 5.02556E+00
 -1      3083 7.43444E+00
 -1      3084 2.41052E+01
 -1      3085 3.43592E-01
 -1      3086 3.39859E-01
 -1      3087 3.22416E-01
 -1      3088 3.59990E-01
 -1      3089 4.14145E-01
 -1      3090 4.85789E-01
 -1      3091 4.29821E-01
 -1      3092 5.64412E-01
 -1      3093 6.64922E-01
 -1      3094 5.62598E-01
 -1      3095 7.80216E-01
 -1      3096 9.05916E-01
 -1      3097 7.56514E-01
 -1      3098 1.04955E+00
 -1      3099 1.20376E+00
 -1      3100 1.01544E+00
 -1      3101 1.40193E+00
 -1      3102 1.58662E+00
 -1      3103 1.35724E+00
 -1      3104 1.88752E+00
 -1      3105 2.09038E+00
 -1      3106 1.85631E+00
 -1      3107 2.66069E+00
 -1      3108 2.89401E+00
 -1      3109 2.72752E+00
 -1      3110 3.78163E+00
 -1      3111 4.37127E+00
 -1      3112 4.18544E+00
 -1      3113 4.51654E+00
 -1      3114 5.36360E+00
 -1      3115 6.14597E+00
 -1      3116 5.21833E+00
 -1      3117 5.40806E+00
 -1      3118 5.40806E+00
 -1      3119 4.71705E+00
 -1      3120 4.36802E+00
 -1      3121 4.36802E+00
 -1      3122 3.58703E+00
 -1      3123 3.29245E+00
 -1      3124 3.53896E-01
 -1      3125 3.03313E-01
 -1      3126 4.39509E+00
 -1      3127 3.87506E+00
 -1      3128 3.47426E+00
 -1      3129 3.03337E+00
 -1      3130 4.03830E+00
 -1      3131 2.71569E+00
 -1      3132 2.51802E+00
 -1      3133 3.31983E+00
 -1      3134 2.05782E+00
 -1      3135 1.86237E+00
 -1      3136 2.54196E+00
 -1      3137 1.60047E+00
 -1      3138 1.43087E+00
 -1      3139 1.81987E+00
 -1      3140 1.25993E+00
 -1      3141 1.12418E+00
 -1      3142 1.38705E+00
 -1      3143 9.98231E-01
 -1      3144 8.84918E-01
 -1      3145 1.09016E+00
 -1      3146 7.77730E-01
 -1      3147 6.87483E-01
 -1      3148 8.57023E-01
 -1      3149 5.99542E-01
 -1      3150 5.27950E-01
 -1      3151 6.61894E-01
 -1      3152 4.57447E-01
 -1      3153 4.00275E-01
 -1      3154 5.03450E-01
 -1      3155 3.44679E-01
 -1      3156 2.99331E-01
 -1      3157 3.77350E-01
 -1      3158 2.56119E-01
 -1      3159 2.20491E-01
 -1      3160 2.78543E-01
 -1      3161 1.87370E-01
 -1      3162 1.59690E-01
 -1      3163 2.02211E-01
 -1      3164 1.34686E-01
 -1      3165 1.13457E-01
 -1      3166 1.44086E-01
 -1      3167 9.57751E-02
 -1      3168 7.97271E-02
 -1      3169 1.01401E-01
 -1      3170 6.66636E-02
 -1      3171 5.47314E-02
 -1      3172 7.06557E-02
 -1      3173 4.51823E-02
 -1      3174 3.64783E-02
 -1      3175 4.80431E-02
 -1      3176 3.03157E-02
 -1      3177 2.41100E-02
 -1      3178 3.23315E-02
 -1      3179 1.96765E-02
 -1      3180 1.53765E-02
 -1      3181 2.17354E-02
 -1      3182 1.22777E-02
 -1      3183 9.66565E-03
 -1      3184 1.42031E-02
 -1      3185 7.56044E-03
 -1      3186 6.60384E-03
 -1      3187 8.99905E-03
 -1      3188 5.24416E-03
 -1      3189 4.50553E-03
 -1      3190 3.58587E-03
 -1      3191 5.53415E-03
 -1      3192 6.73607E-01
 -1      3193 6.24787E-01
 -1      3194 5.46619E-01
 -1      3195 4.91482E-01
 -1      3196 6.36241E-01
 -1      3197 9.84831E-01
 -1      3198 8.85320E-01
 -1      3199 1.19903E+00
 -1      3200 1.10573E+00
 -1      3201 1.19725E+00
 -1      3202 1.41657E+00
 -1      3203 1.35133E+00
 -1      3204 1.47045E+00
 -1      3205 1.56837E+00
 -1      3206 1.46743E+00
 -1      3207 1.67362E+00
 -1      3208 1.92776E+00
 -1      3209 1.87029E+00
 -1      3210 2.02640E+00
 -1      3211 2.87894E+00
 -1      3212 2.21896E+00
 -1      3213 2.61953E+00
 -1      3214 4.48031E+00
 -1      3215 4.20830E+00
 -1      3216 1.93914E+00
 -1      3217 2.18472E+00
 -1      3218 1.71755E+00
 -1      3219 1.83265E+00
 -1      3220 2.07823E+00
 -1      3221 1.57296E+00
 -1      3222 1.67671E+00
 -1      3223 1.93089E+00
 -1      3224 1.40913E+00
 -1      3225 1.47645E+00
 -1      3226 1.79354E+00
 -1      3227 1.16921E+00
 -1      3228 1.25482E+00
 -1      3229 1.54273E+00
 -1      3230 9.84438E-01
 -1      3231 1.06603E+00
 -1      3232 1.28525E+00
 -1      3233 8.94112E-01
 -1      3234 9.09413E-01
 -1      3235 1.10705E+00
 -1      3236 7.69020E-01
 -1      3237 8.06520E-01
 -1      3238 9.44433E-01
 -1      3239 6.46850E-01
 -1      3240 6.90882E-01
 -1      3241 7.78703E-01
 -1      3242 5.67248E-01
 -1      3243 6.00020E-01
 -1      3244 6.53735E-01
 -1      3245 4.86675E-01
 -1      3246 5.19678E-01
 -1      3247 5.59335E-01
 -1      3248 4.04548E-01
 -1      3249 4.41007E-01
 -1      3250 4.66096E-01
 -1      3251 3.26555E-01
 -1      3252 3.62418E-01
 -1      3253 3.78299E-01
 -1      3254 2.57618E-01
 -1      3255 2.90459E-01
 -1      3256 3.00073E-01
 -1      3257 1.99138E-01
 -1      3258 2.27737E-01
 -1      3259 2.34095E-01
 -1      3260 1.50661E-01
 -1      3261 1.74622E-01
 -1      3262 1.79699E-01
 -1      3263 1.11495E-01
 -1      3264 1.30941E-01
 -1      3265 1.35463E-01
 -1      3266 8.05859E-02
 -1      3267 9.59304E-02
 -1      3268 1.00180E-01
 -1      3269 5.67450E-02
 -1      3270 6.85345E-02
 -1      3271 7.25640E-02
 -1      3272 3.87819E-02
 -1      3273 4.75994E-02
 -1      3274 5.13671E-02
 -1      3275 2.55853E-02
 -1      3276 3.19909E-02
 -1      3277 3.54305E-02
 -1      3278 1.62636E-02
 -1      3279 2.06649E-02
 -1      3280 2.37190E-02
 -1      3281 1.07283E-02
 -1      3282 1.28028E-02
 -1      3283 1.53377E-02
 -1      3284 7.47964E-03
 -1      3285 8.30954E-03
 -1      3286 9.45810E-03
 -1      3287 1.22414E+01
 -1      3288 1.00237E+01
 -1      3289 3.35849E+00
 -1      3290 2.79128E+00
 -1      3291 2.88767E-01
 -1      3292 2.67478E-01
 -1      3293 3.47460E-03
 -1      3294 3.69922E-03
 -1      3295 3.75914E-03
 -1      3296 3.74954E-03
 -1      3297 3.00872E+00
 -1      3298 3.73260E+00
 -1      3299 3.07590E-03
 -1      3300 2.90019E-03
 -1      3301 4.22164E-03
 -1      3302 3.75914E-03
 -1      3303 3.75914E-03
 -1      3304 4.91591E-03
 -1      3305 4.85598E-03
 -1      3306 5.08810E+00
 -1      3307 3.96037E-03
 -1      3308 1.93205E-01
 -1      3309 2.06759E-01
 -1      3310 1.43605E+01
 -1      3311 1.20707E+01
 -1      3312 3.45974E-01
 -1      3313 3.22526E-01
 -1      3314 2.72460E-01
 -1      3315 2.76578E-01
 -1      3316 6.92835E+00
 -1      3317 1.00573E+01
 -1      3318 7.50700E+00
 -1      3319 5.98362E+00
 -1      3320 3.64914E+00
 -1      3321 1.04169E+01
 -1      3322 1.22775E+01
 -1      3323 7.96846E-01
 -1      3324 7.66102E-01
 -1      3325 8.06905E-01
 -1      3326 9.87875E-01
 -1      3327 6.66231E+00
 -1      3328 7.93824E+00
 -1      3329 2.55654E-01
 -1      3330 2.13063E-01
 -1      3331 2.37855E-01
 -1      3332 4.88475E+00
 -1      3333 8.81752E+00
 -1      3334 1.09769E+01
 -1      3335 9.58874E+00
 -1      3336 8.12775E+00
 -1      3337 7.45220E+00
 -1      3338 1.19757E+01
 -1      3339 9.71044E+00
 -1      3340 8.32001E+00
 -1      3341 4.74005E+00
 -1      3342 6.27750E+00
 -1      3343 8.21910E+00
 -1      3344 8.07310E+00
 -1      3345 6.97927E+00
 -1      3346 5.95399E+00
 -1      3347 3.07480E+00
 -1      3348 3.06174E+00
 -1      3349 1.55214E+01
 -1      3350 3.05151E-01
 -1      3351 2.92147E-01
 -1      3352 3.45396E-01
 -1      3353 4.60943E+00
 -1      3354 3.70473E+00
 -1      3355 7.26877E+00
 -1      3356 5.46499E+00
 -1      3357 4.97561E-01
 -1      3358 3.96340E-01
 -1      3359 4.35173E-01
 -1      3360 9.65996E+00
 -1      3361 8.57552E+00
 -1      3362 4.73722E+00
 -1      3363 3.97489E+00
 -1      3364 1.13037E+01
 -1      3365 1.23780E+01
 -1      3366 2.42342E-01
 -1      3367 2.35955E-01
 -1      3368 2.16537E-01
 -1      3369 3.53896E-01
 -1      3370 3.09299E+00
 -1      3371 3.35903E+00
 -1      3372 2.35957E+00
 -1      3373 3.37695E-01
 -1      3374 3.92744E-01
 -1      3375 3.53911E-01
 -1      3376 2.95826E+00
 -1      3377 2.85660E-03
 -1      3378 3.01528E-03
 -1      3379 3.13289E-01
 -1      3380 5.06567E+00
 -1      3381 2.75830E-01
 -1      3382 2.97632E-01
 -1      3383 2.71419E-01
 -1      3384 1.12701E+01
 -1      3385 8.12677E+00
 -1      3386 9.99477E+00
 -1      3387 8.71622E+00
 -1      3388 5.03864E-01
 -1      3389 4.37272E-01
 -1      3390 3.96306E-01
 -1      3391 4.24009E+00
 -1      3392 2.97178E+00
 -1      3393 3.57501E+00
 -1      3394 7.96779E+00
 -1      3395 5.97771E-03
 -1      3396 5.53746E-03
 -1      3397 5.57167E-03
 -1      3398 8.02374E+00
 -1      3399 3.62125E-03
 -1      3400 3.40179E-03
 -1      3401 4.11412E-03
 -1      3402 2.67117E+00
 -1      3403 6.84879E+00
 -1      3404 5.28832E+00
 -1      3405 3.89605E+00
 -1      3406 3.66612E-03
 -1      3407 3.66612E-03
 -1      3408 4.70419E-03
 -1      3409 4.83248E-03
 -1      3410 4.77337E+00
 -1      3411 3.72269E+00
 -1      3412 2.99727E-03
 -1      3413 2.75093E-03
 -1      3414 3.32225E-03
 -1      3415 3.58587E-03
 -1      3416 2.90720E-01
 -1      3417 3.37054E-01
 -1      3418 3.31648E-01
 -1      3419 6.15830E+00
 -1      3420 8.65156E+00
 -1      3421 8.93654E+00
 -1      3422 1.24986E+01
 -1      3423 1.01487E+01
 -1      3424 9.82244E+00
 -1      3425 9.65041E+00
 -1      3426 7.85523E+00
 -1      3427 8.39872E+00
 -1      3428 2.99064E-01
 -1      3429 3.01124E-01
 -1      3430 3.43747E-01
 -1      3431 3.08499E-01
 -1      3432 2.61404E-01
 -1      3433 3.28257E-01
 -1      3434 2.86566E-03
 -1      3435 4.36440E-03
 -1      3436 5.18874E-03
 -1      3437 3.41931E-03
 -1      3438 3.07014E+00
 -1      3439 2.07164E-01
 -1      3440 2.60284E-01
 -1      3441 2.35101E-01
 -1      3442 2.18402E-01
 -1      3443 4.94835E+00
 -1      3444 5.10968E+00
 -1      3445 6.77881E+00
 -1      3446 6.14597E+00
 -1      3447 5.99644E+00
 -1      3448 4.44376E+00
 -1      3449 4.66415E+00
 -1      3450 2.97178E+00
 -1      3451 4.03714E-01
 -1      3452 4.57869E-01
 -1      3453 5.37756E-01
 -1      3454 6.16378E-01
 -1      3455 5.11649E-01
 -1      3456 7.32760E-01
 -1      3457 8.48054E-01
 -1      3458 7.07918E-01
 -1      3459 1.00353E+00
 -1      3460 1.14716E+00
 -1      3461 9.79777E-01
 -1      3462 1.35724E+00
 -1      3463 1.55541E+00
 -1      3464 1.34533E+00
 -1      3465 1.83914E+00
 -1      3466 2.14004E+00
 -1      3467 1.83914E+00
 -1      3468 2.57459E+00
 -1      3469 3.14489E+00
 -1      3470 2.55741E+00
 -1      3471 3.68892E+00
 -1      3472 4.57654E+00
 -1      3473 3.53599E+00
 -1      3474 3.61899E+00
 -1      3475 3.18904E-01
 -1      3476 3.61333E-01
 -1      3477 3.18889E-01
 -1      3478 4.05913E+00
 -1      3479 3.74146E+00
 -1      3480 2.91243E+00
 -1      3481 2.45224E+00
 -1      3482 3.65173E+00
 -1      3483 2.07465E+00
 -1      3484 1.81276E+00
 -1      3485 2.44512E+00
 -1      3486 1.55798E+00
 -1      3487 1.38705E+00
 -1      3488 1.81276E+00
 -1      3489 1.19597E+00
 -1      3490 1.07002E+00
 -1      3491 1.36690E+00
 -1      3492 9.27746E-01
 -1      3493 8.20558E-01
 -1      3494 1.03355E+00
 -1      3495 7.13208E-01
 -1      3496 6.25267E-01
 -1      3497 7.83931E-01
 -1      3498 5.43256E-01
 -1      3499 4.72753E-01
 -1      3500 5.94570E-01
 -1      3501 4.09513E-01
 -1      3502 3.53917E-01
 -1      3503 4.49319E-01
 -1      3504 3.04977E-01
 -1      3505 2.61765E-01
 -1      3506 3.37139E-01
 -1      3507 2.23987E-01
 -1      3508 1.90867E-01
 -1      3509 2.50421E-01
 -1      3510 1.61892E-01
 -1      3511 1.36888E-01
 -1      3512 1.83668E-01
 -1      3513 1.14835E-01
 -1      3514 9.71531E-02
 -1      3515 1.32640E-01
 -1      3516 8.05539E-02
 -1      3517 6.74904E-02
 -1      3518 9.39878E-02
 -1      3519 5.55489E-02
 -1      3520 4.59998E-02
 -1      3521 6.54471E-02
 -1      3522 3.74441E-02
 -1      3523 3.12815E-02
 -1      3524 4.49498E-02
 -1      3525 2.50537E-02
 -1      3526 2.06202E-02
 -1      3527 3.01663E-02
 -1      3528 1.61851E-02
 -1      3529 1.30863E-02
 -1      3530 1.95034E-02
 -1      3531 1.00330E-02
 -1      3532 7.92775E-03
 -1      3533 1.20150E-02
 -1      3534 7.48787E-01
 -1      3535 6.70618E-01
 -1      3536 1.75982E+00
 -1      3537 1.60752E+00
 -1      3538 1.50829E+00
 -1      3539 1.38739E+00
 -1      3540 1.79766E+00
 -1      3541 2.23880E+00
 -1      3542 1.93688E+00
 -1      3543 2.65077E+00
 -1      3544 7.24299E+00
 -1      3545 7.19252E+00
 -1      3546 1.85873E+00
 -1      3547 2.01303E+00
 -1      3548 1.52137E+00
 -1      3549 1.62454E+00
 -1      3550 2.09485E+00
 -1      3551 1.23014E+00
 -1      3552 1.30517E+00
 -1      3553 1.64446E+00
 -1      3554 9.88399E-01
 -1      3555 1.07599E+00
 -1      3556 1.27411E+00
 -1      3557 8.12568E-01
 -1      3558 8.90706E-01
 -1      3559 1.02226E+00
 -1      3560 6.72374E-01
 -1      3561 7.19204E-01
 -1      3562 8.31207E-01
 -1      3563 5.48007E-01
 -1      3564 5.95578E-01
 -1      3565 6.61047E-01
 -1      3566 4.40620E-01
 -1      3567 4.86287E-01
 -1      3568 5.22531E-01
 -1      3569 3.53811E-01
 -1      3570 3.95940E-01
 -1      3571 4.16131E-01
 -1      3572 2.83437E-01
 -1      3573 3.19533E-01
 -1      3574 3.37175E-01
 -1      3575 2.22389E-01
 -1      3576 2.52270E-01
 -1      3577 2.71731E-01
 -1      3578 1.70612E-01
 -1      3579 1.95128E-01
 -1      3580 2.13302E-01
 -1      3581 1.28002E-01
 -1      3582 1.47722E-01
 -1      3583 1.63150E-01
 -1      3584 9.38288E-02
 -1      3585 1.09393E-01
 -1      3586 1.21651E-01
 -1      3587 6.70484E-02
 -1      3588 7.90997E-02
 -1      3589 8.83131E-02
 -1      3590 4.69638E-02
 -1      3591 5.61094E-02
 -1      3592 6.26451E-02
 -1      3593 3.20584E-02
 -1      3594 3.88494E-02
 -1      3595 4.35918E-02
 -1      3596 2.11220E-02
 -1      3597 2.60425E-02
 -1      3598 2.94615E-02
 -1      3599 1.33184E-02
 -1      3600 1.67792E-02
 -1      3601 1.91028E-02
 -1      3602 7.90416E-03
 -1      3603 1.03229E-02
 -1      3604 1.17644E-02
 -1      3605 2.93563E+00
 -1      3606 7.23699E+00
 -1      3607 7.10038E+00
 -1      3608 2.31923E+00
 -1      3609 5.37316E-03
 -1      3610 5.94758E-03
 -1      3611 6.17820E+00
 -1      3612 2.86873E+00
 -1      3613 2.23880E+00
 -1      3614 4.10235E+00
 -1      3615 4.48716E+00
 -1      3616 2.75580E-01
 -1      3617 2.55721E-01
 -1      3618 6.72450E+00
 -1      3619 6.28957E+00
 -1      3620 6.95268E+00
 -1      3621 6.65093E+00
 -1      3622 2.14518E-01
 -1      3623 2.34416E-01
 -1      3624 1.89942E-01
 -1      3625 1.69965E-01
 -1      3626 6.70207E+00
 -1      3627 7.69459E+00
 -1      3628 3.20726E-01
 -1      3629 1.72448E+00
 -1      3630 1.67362E+00
 -1      3631 1.81068E+00
 -1      3632 1.93688E+00
 -1      3633 6.14225E+00
 -1      3634 5.28327E+00
 -1      3635 4.40483E+00
 -1      3636 3.54927E+00
 -1      3637 2.96994E+00
 -1      3638 3.97739E+00
 -1      3639 3.16118E-01
 -1      3640 3.46387E-01
 -1      3641 3.74435E-01
 -1      3642 2.21274E+00
 -1      3643 5.45341E+00
 -1      3644 2.43017E+00
 -1      3645 2.38933E+00
 -1      3646 2.47067E+00
 -1      3647 6.94400E+00
 -1      3648 6.97758E+00
 -1      3649 6.05422E+00
 -1      3650 5.41454E+00
 -1      3651 5.85117E+00
 -1      3652 3.18904E-01
 -1      3653 3.26325E-01
 -1      3654 2.78840E-01
 -1      3655 2.00714E-01
 -1      3656 1.75578E-01
 -1      3657 5.05262E+00
 -1      3658 5.47424E+00
 -1      3659 6.27211E+00
 -1      3660 5.25049E+00
 -1      3661 2.84525E-01
 -1      3662 6.87909E-01
 -1      3663 5.75364E-01
 -1      3664 5.21154E-01
 -1      3665 8.46942E-01
 -1      3666 8.81319E-01
 -1      3667 9.39437E-01
 -1      3668 5.90888E-03
 -1      3669 4.54919E-03
 -1      3670 3.96060E-03
 -1      3671 6.94279E-03
 -1      3672 4.38878E+00
 -1      3673 9.29091E+00
 -1      3674 7.38933E+00
 -1      3675 7.54327E+00
 -1      3676 2.72322E-01
 -1      3677 2.69517E-01
 -1      3678 1.47306E+00
 -1      3679 1.16202E+00
 -1      3680 1.07355E+00
 -1      3681 2.32833E+00
 -1      3682 3.03609E-01
 -1      3683 3.21475E-01
 -1      3684 3.47020E-01
 -1      3685 2.35957E+00
 -1      3686 5.87566E+00
 -1      3687 2.69016E+00
 -1      3688 2.37416E+00
 -1      3689 7.85192E-03
 -1      3690 6.70040E-03
 -1      3691 6.76032E-03
 -1      3692 6.56280E-03
 -1      3693 7.42758E-03
 -1      3694 5.06088E-03
 -1      3695 3.17623E+00
 -1      3696 3.65261E-03
 -1      3697 5.93774E+00
 -1      3698 6.40745E-03
 -1      3699 6.32402E-03
 -1      3700 4.28557E-03
 -1      3701 3.97094E-01
 -1      3702 2.82981E+00
 -1      3703 2.35101E-01
 -1      3704 2.56166E-01
 -1      3705 2.34963E-01
 -1      3706 2.18807E-01
 -1      3707 3.45001E+00
 -1      3708 4.63598E+00
 -1      3709 5.07306E+00
 -1      3710 5.85117E+00
 -1      3711 8.15843E+00
 -1      3712 4.57654E+00
 -1      3713 5.52769E+00
 -1      3714 2.23928E-01
 -1      3715 1.82969E-01
 -1      3716 2.43659E-01
 -1      3717 6.76032E-03
 -1      3718 8.25186E-03
 -1      3719 6.76032E-03
 -1      3720 6.01151E-03
 -1      3721 6.73707E+00
 -1      3722 2.73817E-01
 -1      3723 2.36093E-01
 -1      3724 7.69459E+00
 -1      3725 6.38457E+00
 -1      3726 5.68045E+00
 -1      3727 6.00446E+00
 -1      3728 6.77099E+00
 -1      3729 5.10191E+00
 -1      3730 2.36498E-01
 -1      3731 3.21717E-01
 -1      3732 4.63598E+00
 -1      3733 4.91685E+00
 -1      3734 4.20969E+00
 -1      3735 3.59884E+00
 -1      3736 5.81330E-03
 -1      3737 5.26811E-03
 -1      3738 6.52676E-03
 -1      3739 4.82758E-03
 -1      3740 6.27915E-03
 -1      3741 7.43314E-03
 -1      3742 6.32402E-03
 -1      3743 6.28032E-01
 -1      3744 7.44414E-01
 -1      3745 8.77357E-01
 -1      3746 1.03283E+00
 -1      3747 7.97470E-01
 -1      3748 1.22844E+00
 -1      3749 1.43852E+00
 -1      3750 1.12602E+00
 -1      3751 1.74027E+00
 -1      3752 2.02399E+00
 -1      3753 1.62338E+00
 -1      3754 3.06044E+00
 -1      3755 3.49499E+00
 -1      3756 2.96157E+00
 -1      3757 3.49499E+00
 -1      3758 4.03902E+00
 -1      3759 3.99802E+00
 -1      3760 4.34158E+00
 -1      3761 3.51255E+00
 -1      3762 4.88218E+00
 -1      3763 4.80219E+00
 -1      3764 5.23215E+00
 -1      3765 2.69517E-01
 -1      3766 2.66127E-01
 -1      3767 2.28651E-01
 -1      3768 2.51119E-01
 -1      3769 2.78091E+00
 -1      3770 2.40332E+00
 -1      3771 3.47076E+00
 -1      3772 1.97179E+00
 -1      3773 1.71701E+00
 -1      3774 2.30757E+00
 -1      3775 1.43560E+00
 -1      3776 1.24453E+00
 -1      3777 1.59463E+00
 -1      3778 1.06599E+00
 -1      3779 9.23718E-01
 -1      3780 1.13469E+00
 -1      3781 8.02328E-01
 -1      3782 6.94978E-01
 -1      3783 8.34766E-01
 -1      3784 6.07804E-01
 -1      3785 5.25794E-01
 -1      3786 6.26202E-01
 -1      3787 4.60860E-01
 -1      3788 3.97620E-01
 -1      3789 4.74094E-01
 -1      3790 3.47935E-01
 -1      3791 2.98995E-01
 -1      3792 3.59476E-01
 -1      3793 2.60545E-01
 -1      3794 2.22767E-01
 -1      3795 2.71341E-01
 -1      3796 1.92997E-01
 -1      3797 1.64022E-01
 -1      3798 2.03121E-01
 -1      3799 1.40970E-01
 -1      3800 1.18917E-01
 -1      3801 1.50299E-01
 -1      3802 1.01183E-01
 -1      3803 8.45838E-02
 -1      3804 1.09513E-01
 -1      3805 7.11224E-02
 -1      3806 5.91809E-02
 -1      3807 7.83176E-02
 -1      3808 4.91025E-02
 -1      3809 4.05467E-02
 -1      3810 5.47778E-02
 -1      3811 3.34639E-02
 -1      3812 2.72362E-02
 -1      3813 3.76165E-02
 -1      3814 2.21516E-02
 -1      3815 1.77165E-02
 -1      3816 2.54492E-02
 -1      3817 1.40626E-02
 -1      3818 1.10092E-02
 -1      3819 1.67107E-02
 -1      3820 8.03038E-03
 -1      3821 3.00446E+00
 -1      3822 3.15328E+00
 -1      3823 1.43838E+00
 -1      3824 1.59253E+00
 -1      3825 2.81511E+00
 -1      3826 2.28420E+00
 -1      3827 2.51838E+00
 -1      3828 1.09179E+00
 -1      3829 1.18948E+00
 -1      3830 1.50791E+00
 -1      3831 8.26374E-01
 -1      3832 9.19738E-01
 -1      3833 1.08695E+00
 -1      3834 6.46510E-01
 -1      3835 7.23306E-01
 -1      3836 8.11837E-01
 -1      3837 5.10050E-01
 -1      3838 5.71769E-01
 -1      3839 6.34028E-01
 -1      3840 4.16131E-01
 -1      3841 4.60811E-01
 -1      3842 5.10050E-01
 -1      3843 3.37175E-01
 -1      3844 3.71452E-01
 -1      3845 4.16131E-01
 -1      3846 2.66960E-01
 -1      3847 2.98127E-01
 -1      3848 3.32404E-01
 -1      3849 2.06714E-01
 -1      3850 2.33975E-01
 -1      3851 2.60372E-01
 -1      3852 1.56651E-01
 -1      3853 1.79541E-01
 -1      3854 2.00215E-01
 -1      3855 1.16146E-01
 -1      3856 1.34755E-01
 -1      3857 1.51146E-01
 -1      3858 8.40078E-02
 -1      3859 9.87369E-02
 -1      3860 1.11841E-01
 -1      3861 5.95456E-02
 -1      3862 7.04846E-02
 -1      3863 8.09083E-02
 -1      3864 4.11223E-02
 -1      3865 4.92367E-02
 -1      3866 5.70761E-02
 -1      3867 2.77410E-02
 -1      3868 3.37569E-02
 -1      3869 3.94018E-02
 -1      3870 1.80944E-02
 -1      3871 2.24372E-02
 -1      3872 2.67326E-02
 -1      3873 1.12275E-02
 -1      3874 1.42230E-02
 -1      3875 1.75574E-02
 -1      3876 4.85762E+00
 -1      3877 4.71030E+00
 -1      3878 7.42758E-03
 -1      3879 8.76894E-03
 -1      3880 1.12275E-02
 -1      3881 7.86811E-03
 -1      3882 1.47026E-01
 -1      3883 1.62849E-01
 -1      3884 4.08002E+00
 -1      3885 4.57654E+00
 -1      3886 6.24055E+00
 -1      3887 4.03902E+00
 -1      3888 2.61741E+00
 -1      3889 4.44003E-01
 -1      3890 3.91443E-01
 -1      3891 5.15503E-01
 -1      3892 2.87550E-01
 -1      3893 2.67921E-01
 -1      3894 4.67795E-03
 -1      3895 4.46222E-01
 -1      3896 4.41614E-01
 -1      3897 4.46222E-01
 -1      3898 1.00780E-02
 -1      3899 5.34992E+00
 -1      3900 4.97403E+00
 -1      3901 1.78760E+00
 -1      3902 2.00380E+00
 -1      3903 2.42733E+00
 -1      3904 1.95187E+00
 -1      3905 7.89899E-03
 -1      3906 2.15438E+00
 -1      3907 2.05515E+00
 -1      3908 4.98940E-01
 -1      3909 5.05130E-01
 -1      3910 5.85017E-01
 -1      3911 6.21513E-01
 -1      3912 4.74300E+00
 -1      3913 4.56131E+00
 -1      3914 6.83818E+00
 -1      3915 5.68899E+00
 -1      3916 6.13431E+00
 -1      3917 1.08308E-02
 -1      3918 8.60474E-03
 -1      3919 4.13133E+00
 -1      3920 4.11299E+00
 -1      3921 3.52049E+00
 -1      3922 7.84999E-01
 -1      3923 6.89744E-01
 -1      3924 1.11358E+00
 -1      3925 5.38274E+00
 -1      3926 9.73036E-03
 -1      3927 9.73036E-03
 -1      3928 1.03594E+00
 -1      3929 9.37783E-01
 -1      3930 9.39618E-01
 -1      3931 3.93928E-01
 -1      3932 5.23215E+00
 -1      3933 3.28263E+00
 -1      3934 3.83955E+00
 -1      3935 2.26683E-01
 -1      3936 2.13954E-01
 -1      3937 4.26980E+00
 -1      3938 4.01807E+00
 -1      3939 3.13963E+00
 -1      3940 2.24902E+00
 -1      3941 2.02366E+00
 -1      3942 2.60575E+00
 -1      3943 5.30034E+00
 -1      3944 3.07493E+00
 -1      3945 3.52049E+00
 -1      3946 2.79454E+00
 -1      3947 3.52049E+00
 -1      3948 3.21475E-01
 -1      3949 3.15580E-01
 -1      3950 3.49505E-01
 -1      3951 4.86301E+00
 -1      3952 5.12242E+00
 -1      3953 4.15871E+00
 -1      3954 1.00832E-02
 -1      3955 9.73036E-03
 -1      3956 1.15617E-02
 -1      3957 2.51264E-01
 -1      3958 2.28050E-01
 -1      3959 2.94978E-01
 -1      3960 1.41412E-01
 -1      3961 5.72309E-01
 -1      3962 9.26781E-03
 -1      3963 8.80196E-03
 -1      3964 9.70279E-03
 -1      3965 1.10992E-02
 -1      3966 2.24670E+00
 -1      3967 3.61926E+00
 -1      3968 2.88761E+00
 -1      3969 9.61115E-01
 -1      3970 1.15672E+00
 -1      3971 1.35571E+00
 -1      3972 1.65746E+00
 -1      3973 1.19080E+00
 -1      3974 2.84231E+00
 -1      3975 3.87876E+00
 -1      3976 2.57464E+00
 -1      3977 2.21010E-01
 -1      3978 2.68495E-01
 -1      3979 4.45018E-01
 -1      3980 4.00595E-01
 -1      3981 4.00595E-01
 -1      3982 8.00530E-01
 -1      3983 9.03598E-01
 -1      3984 1.64544E+00
 -1      3985 1.51134E+00
 -1      3986 1.56780E+00
 -1      3987 2.42141E+00
 -1      3988 2.31813E+00
 -1      3989 1.88659E+00
 -1      3990 2.46663E+00
 -1      3991 1.57151E+00
 -1      3992 1.29010E+00
 -1      3993 1.58206E+00
 -1      3994 1.11124E+00
 -1      3995 9.32698E-01
 -1      3996 1.08811E+00
 -1      3997 8.11115E-01
 -1      3998 6.89725E-01
 -1      3999 7.87658E-01
 -1      4000 6.06930E-01
 -1      4001 5.19757E-01
 -1      4002 5.83280E-01
 -1      4003 4.58856E-01
 -1      4004 3.93922E-01
 -1      4005 4.39585E-01
 -1      4006 3.47818E-01
 -1      4007 2.98133E-01
 -1      4008 3.32580E-01
 -1      4009 2.65078E-01
 -1      4010 2.26627E-01
 -1      4011 2.53420E-01
 -1      4012 2.00363E-01
 -1      4013 1.70593E-01
 -1      4014 1.94100E-01
 -1      4015 1.49763E-01
 -1      4016 1.26711E-01
 -1      4017 1.47005E-01
 -1      4018 1.10216E-01
 -1      4019 9.24821E-02
 -1      4020 1.09680E-01
 -1      4021 7.97000E-02
 -1      4022 6.62386E-02
 -1      4023 8.04031E-02
 -1      4024 5.64362E-02
 -1      4025 4.63578E-02
 -1      4026 5.78186E-02
 -1      4027 3.89371E-02
 -1      4028 3.18543E-02
 -1      4029 4.05955E-02
 -1      4030 2.65431E-02
 -1      4031 2.14585E-02
 -1      4032 2.78636E-02
 -1      4033 1.90410E-02
 -1      4034 1.53870E-02
 -1      4035 2.01348E-02
 -1      4036 1.04990E+00
 -1      4037 1.22195E+00
 -1      4038 1.03860E+00
 -1      4039 4.76585E+00
 -1      4040 4.40694E+00
 -1      4041 3.82380E+00
 -1      4042 5.14597E+00
 -1      4043 3.47650E+00
 -1      4044 1.44488E+00
 -1      4045 1.69379E+00
 -1      4046 1.40783E+00
 -1      4047 6.34028E-01
 -1      4048 7.08769E-01
 -1      4049 8.00530E-01
 -1      4050 5.08844E-01
 -1      4051 5.58082E-01
 -1      4052 6.32823E-01
 -1      4053 4.02992E-01
 -1      4054 4.47671E-01
 -1      4055 4.95704E-01
 -1      4056 3.14016E-01
 -1      4057 3.53064E-01
 -1      4058 3.84604E-01
 -1      4059 2.41963E-01
 -1      4060 2.74947E-01
 -1      4061 2.95608E-01
 -1      4062 1.83664E-01
 -1      4063 2.10836E-01
 -1      4064 2.25412E-01
 -1      4065 1.37543E-01
 -1      4066 1.59440E-01
 -1      4067 1.70061E-01
 -1      4068 1.00837E-01
 -1      4069 1.18246E-01
 -1      4070 1.26540E-01
 -1      4071 7.24666E-02
 -1      4072 8.59898E-02
 -1      4073 9.23954E-02
 -1      4074 5.08571E-02
 -1      4075 6.11660E-02
 -1      4076 6.62476E-02
 -1      4077 3.49459E-02
 -1      4078 4.23113E-02
 -1      4079 4.64012E-02
 -1      4080 2.56727E-02
 -1      4081 3.09765E-02
 -1      4082 3.38859E-02
 -1      4083 1.87571E-02
 -1      4084 2.26285E-02
 -1      4085 2.68724E-02
 -1      4086 4.04631E-01
 -1      4087 3.24974E-01
 -1      4088 3.65689E+00
 -1      4089 3.54048E+00
 -1      4090 2.86360E+00
 -1      4091 1.21613E-02
 -1      4092 2.66387E-01
 -1      4093 2.66387E-01
 -1      4094 5.95636E-01
 -1      4095 5.18484E-01
 -1      4096 5.25151E-01
 -1      4097 6.92725E-01
 -1      4098 6.93784E-01
 -1      4099 8.26728E-01
 -1      4100 8.57430E-01
 -1      4101 4.20989E-01
 -1      4102 5.40885E-01
 -1      4103 1.79597E-01
 -1      4104 4.69766E+00
 -1      4105 5.14597E+00
 -1      4106 4.61148E+00
 -1      4107 1.22968E-02
 -1      4108 1.00707E-02
 -1      4109 1.00707E-02
 -1      4110 1.46270E-02
 -1      4111 3.44214E+00
 -1      4112 2.36498E-01
 -1      4113 2.52654E-01
 -1      4114 5.66119E-01
 -1      4115 5.72309E-01
 -1      4116 5.40885E-01
 -1      4117 5.78499E-01
 -1      4118 6.21513E-01
 -1      4119 6.50770E-01
 -1      4120 5.72309E-01
 -1      4121 3.37397E+00
 -1      4122 2.64466E+00
 -1      4123 3.14648E+00
 -1      4124 4.67133E+00
 -1      4125 4.79059E+00
 -1      4126 3.63158E-01
 -1      4127 4.79059E+00
 -1      4128 2.73732E-01
 -1      4129 2.51264E-01
 -1      4130 1.15492E-02
 -1      4131 3.17398E-01
 -1      4132 3.16030E-01
 -1      4133 1.07863E+00
 -1      4134 9.25843E-01
 -1      4135 5.34174E+00
 -1      4136 1.72481E-01
 -1      4137 1.72324E-02
 -1      4138 3.08454E-01
 -1      4139 4.19474E-01
 -1      4140 4.44708E-01
 -1      4141 3.30873E-01
 -1      4142 7.86834E-01
 -1      4143 6.92725E-01
 -1      4144 9.25843E-01
 -1      4145 2.59039E+00
 -1      4146 2.36740E+00
 -1      4147 3.01500E+00
 -1      4148 2.17234E+00
 -1      4149 4.77716E+00
 -1      4150 3.84535E+00
 -1      4151 4.67133E+00
 -1      4152 3.01500E+00
 -1      4153 3.50298E+00
 -1      4154 3.41680E+00
 -1      4155 2.83212E+00
 -1      4156 2.96346E-01
 -1      4157 1.52090E-02
 -1      4158 1.52090E-02
 -1      4159 2.33290E+00
 -1      4160 1.76950E-02
 -1      4161 2.89000E-01
 -1      4162 2.13422E-02
 -1      4163 3.03711E-01
 -1      4164 3.11057E-01
 -1      4165 3.37637E-01
 -1      4166 2.10932E+00
 -1      4167 3.75950E+00
 -1      4168 1.43391E+00
 -1      4169 1.42014E+00
 -1      4170 1.90931E+00
 -1      4171 1.93077E+00
 -1      4172 3.11562E+00
 -1      4173 3.82380E+00
 -1      4174 3.82380E+00
 -1      4175 3.03612E+00
 -1      4176 2.14315E-02
 -1      4177 2.39176E-02
 -1      4178 2.69617E-02
 -1      4179 5.03686E-01
 -1      4180 4.52596E-01
 -1      4181 4.40727E-01
 -1      4182 7.67041E-01
 -1      4183 8.42987E-01
 -1      4184 1.33918E-02
 -1      4185 1.34043E-02
 -1      4186 1.70516E-02
 -1      4187 1.64821E-02
 -1      4188 2.46663E+00
 -1      4189 1.85182E+00
 -1      4190 1.53673E+00
 -1      4191 1.16071E+00
 -1      4192 9.81838E-01
 -1      4193 1.43046E+00
 -1      4194 9.43223E-01
 -1      4195 8.21640E-01
 -1      4196 1.01582E+00
 -1      4197 6.73379E-01
 -1      4198 5.90585E-01
 -1      4199 8.28945E-01
 -1      4200 5.40736E-01
 -1      4201 4.79836E-01
 -1      4202 6.30836E-01
 -1      4203 3.74141E-01
 -1      4204 3.28037E-01
 -1      4205 4.75293E-01
 -1      4206 3.03733E-01
 -1      4207 2.70678E-01
 -1      4208 3.45295E-01
 -1      4209 2.12625E-01
 -1      4210 1.86360E-01
 -1      4211 2.62938E-01
 -1      4212 1.60395E-01
 -1      4213 1.39565E-01
 -1      4214 1.78920E-01
 -1      4215 1.19543E-01
 -1      4216 1.03047E-01
 -1      4217 1.32932E-01
 -1      4218 8.81939E-02
 -1      4219 7.54119E-02
 -1      4220 9.80562E-02
 -1      4221 6.38799E-02
 -1      4222 5.40775E-02
 -1      4223 7.16707E-02
 -1      4224 4.51301E-02
 -1      4225 3.77094E-02
 -1      4226 5.11914E-02
 -1      4227 3.09737E-02
 -1      4228 2.56625E-02
 -1      4229 3.55083E-02
 -1      4230 2.01348E-02
 -1      4231 1.77172E-02
 -1      4232 1.64821E-02
 -1      4233 2.32449E-02
 -1      4234 1.03860E+00
 -1      4235 1.18491E+00
 -1      4236 1.36221E+00
 -1      4237 1.58514E+00
 -1      4238 1.36221E+00
 -1      4239 5.52091E-01
 -1      4240 6.13263E-01
 -1      4241 8.23427E-01
 -1      4242 3.41106E-01
 -1      4243 3.91034E-01
 -1      4244 5.08593E-01
 -1      4245 2.72874E-01
 -1      4246 3.11942E-01
 -1      4247 3.18372E-01
 -1      4248 2.57639E-01
 -1      4249 2.88765E-01
 -1      4250 3.05100E-01
 -1      4251 1.75361E-01
 -1      4252 1.99585E-01
 -1      4253 2.62938E-01
 -1      4254 1.30098E-01
 -1      4255 1.49396E-01
 -1      4256 1.78920E-01
 -1      4257 9.47852E-02
 -1      4258 1.09632E-01
 -1      4259 1.32488E-01
 -1      4260 6.77832E-02
 -1      4261 7.90837E-02
 -1      4262 9.63208E-02
 -1      4263 4.69710E-02
 -1      4264 5.55168E-02
 -1      4265 6.83530E-02
 -1      4266 3.00548E-02
 -1      4267 3.40242E-02
 -1      4268 4.31399E-02
 -1      4269 2.71000E-02
 -1      4270 2.48538E+00
 -1      4271 7.81542E-01
 -1      4272 8.73304E-01
 -1      4273 1.01961E+00
 -1      4274 9.15761E-01
 -1      4275 5.98991E-01
 -1      4276 5.25525E-01
 -1      4277 5.77526E-01
 -1      4278 6.93099E-01
 -1      4279 2.10932E+00
 -1      4280 2.58787E+00
 -1      4281 2.06369E+00
 -1      4282 3.17398E-01
 -1      4283 3.17398E-01
 -1      4284 3.38449E-01
 -1      4285 3.32109E-01
 -1      4286 7.82169E-01
 -1      4287 9.16557E-01
 -1      4288 1.06771E+00
 -1      4289 1.26670E+00
 -1      4290 1.80768E+00
 -1      4291 9.92448E-01
 -1      4292 1.82867E-02
 -1      4293 2.08621E-02
 -1      4294 3.11562E+00
 -1      4295 2.42130E+00
 -1      4296 4.22500E-01
 -1      4297 4.22500E-01
 -1      4298 6.20626E-01
 -1      4299 6.79753E-01
 -1      4300 5.48354E-01
 -1      4301 3.01500E+00
 -1      4302 4.14924E-01
 -1      4303 1.06485E+00
 -1      4304 9.25843E-01
 -1      4305 3.30652E+00
 -1      4306 2.51884E+00
 -1      4307 2.11183E+00
 -1      4308 1.75619E+00
 -1      4309 1.40091E+00
 -1      4310 1.40091E+00
 -1      4311 2.35150E+00
 -1      4312 3.20148E+00
 -1      4313 2.41675E+00
 -1      4314 3.11562E+00
 -1      4315 3.61719E-01
 -1      4316 4.83131E-01
 -1      4317 4.89320E-01
 -1      4318 4.53346E-01
 -1      4319 2.47175E+00
 -1      4320 4.64262E-01
 -1      4321 6.25318E-01
 -1      4322 6.75167E-01
 -1      4323 8.28945E-01
 -1      4324 1.03058E+00
 -1      4325 9.91970E-01
 -1      4326 9.77205E-01
 -1      4327 5.80987E-01
 -1      4328 4.75293E-01
 -1      4329 3.69599E-01
 -1      4330 3.45295E-01
 -1      4331 3.20992E-01
 -1      4332 2.62938E-01
 -1      4333 2.04885E-01
 -1      4334 1.78920E-01
 -1      4335 1.52954E-01
 -1      4336 1.32932E-01
 -1      4337 1.12466E-01
 -1      4338 9.76125E-02
 -1      4339 8.19110E-02
 -1      4340 7.03790E-02
 -1      4341 5.81127E-02
 -1      4342 4.91653E-02
 -1      4343 3.62186E-02
 -1      4344 2.94828E-02
 -1      4345 2.63897E-02
 -1      4346 1.18111E+00
 -1      4347 1.35841E+00
 -1      4348 3.29404E-01
 -1      4349 3.58567E-01
 -1      4350 4.47068E-01
 -1      4351 2.06858E+00
 -1      4352 1.49190E+00
 -1      4353 1.11587E+00
 -1      4354 2.04935E+00
 -1      4355 9.17297E-01
 -1      4356 7.78288E-01
 -1      4357 6.84554E-01
 -1      4358 5.31118E-01
 -1      4359 5.65425E-01
 -1      4360 5.40857E-01
 -1      4361 4.87653E-01
 -1      4362 5.87265E-01
 -1      4363 2.10436E+00
 -1      4364 4.75293E-01
 -1      4365 4.59176E-01
 -1      4366 9.91970E-01
 -1      4367 3.45295E-01
 -1      4368 1.49190E+00
 -1      4369 1.67300E+00
 -1      4370 2.19718E+00
 -1      4371 1.80648E+00
 -1      4372 2.42130E+00
 -1      4373 1.09202E+00
 -1      4374 1.04334E+00
 -1      4375 8.95790E-01
 -1      4376 1.73696E+00
 -1      4377 1.40091E+00
 -1      4378 1.37940E+00
 -1      4379 2.10436E+00
 -1      4380 2.10436E+00
 -1      4381 6.30836E-01
 -1      4382 9.31566E-01
 -1      4383 1.08272E+00
 -1      4384 1.44028E+00
 -1      4385 7.04215E-01
 -1      4386 7.94485E-01
 -1      4387 6.68438E-01
 -1      4388 5.42672E-01
 -1      4389 1.90402E+00
 -1      4390 2.29471E+00
 -1      4391 1.09582E+00
 -1      4392 2.40499E+00
 -1      4393 6.72453E-01
 -1      4394 5.46687E-01
 -1      4395 9.30525E-01
 -1      4396 5.71149E-01
 -3
 9999
