    1C
    1UUSER                                                              
    1UDATE              27.october.2022                                 
    1UTIME              01:08:23                                        
    1UHOST                                                              
    1UPGM               CalculiX                                        
    1UVERSION           Version 2.17                             
    1UCOMPILETIME       Thu Jul 23 21:43:50 CEST 2020                    
    1UDIR                                                               
    1UDBN                                                               
    1UMAT    1SOLIDMATERIAL                                             
    2C                          4219                                     1
 -1         1 5.70589E+01 1.40919E+01 0.00000E+00
 -1         2 7.10019E+01 1.49833E+01 0.00000E+00
 -1         3 1.50000E+02 0.00000E+00 0.00000E+00
 -1         4 1.50000E+02 5.00000E+01 0.00000E+00
 -1         5 0.00000E+00 0.00000E+00 0.00000E+00
 -1         6 0.00000E+00 5.00000E+01 0.00000E+00
 -1         7 0.00000E+00 4.70500E+01 0.00000E+00
 -1         8 0.00000E+00 4.41000E+01 0.00000E+00
 -1         9 0.00000E+00 4.11500E+01 0.00000E+00
 -1        10 0.00000E+00 3.82000E+01 0.00000E+00
 -1        11 0.00000E+00 3.52500E+01 0.00000E+00
 -1        12 0.00000E+00 3.23500E+01 0.00000E+00
 -1        13 0.00000E+00 2.94000E+01 0.00000E+00
 -1        14 0.00000E+00 2.64500E+01 0.00000E+00
 -1        15 0.00000E+00 2.35000E+01 0.00000E+00
 -1        16 0.00000E+00 2.05500E+01 0.00000E+00
 -1        17 0.00000E+00 1.76000E+01 0.00000E+00
 -1        18 0.00000E+00 1.47000E+01 0.00000E+00
 -1        19 0.00000E+00 1.17500E+01 0.00000E+00
 -1        20 0.00000E+00 8.80000E+00 0.00000E+00
 -1        21 0.00000E+00 5.85000E+00 0.00000E+00
 -1        22 0.00000E+00 2.90000E+00 0.00000E+00
 -1        23 3.15000E+00 5.00000E+01 0.00000E+00
 -1        24 6.15000E+00 5.00000E+01 0.00000E+00
 -1        25 9.15000E+00 5.00000E+01 0.00000E+00
 -1        26 1.21500E+01 5.00000E+01 0.00000E+00
 -1        27 1.51500E+01 5.00000E+01 0.00000E+00
 -1        28 1.81500E+01 5.00000E+01 0.00000E+00
 -1        29 2.11500E+01 5.00000E+01 0.00000E+00
 -1        30 2.41500E+01 5.00000E+01 0.00000E+00
 -1        31 2.71500E+01 5.00000E+01 0.00000E+00
 -1        32 3.01500E+01 5.00000E+01 0.00000E+00
 -1        33 3.31500E+01 5.00000E+01 0.00000E+00
 -1        34 3.61500E+01 5.00000E+01 0.00000E+00
 -1        35 3.91500E+01 5.00000E+01 0.00000E+00
 -1        36 4.21500E+01 5.00000E+01 0.00000E+00
 -1        37 4.51500E+01 5.00000E+01 0.00000E+00
 -1        38 4.81500E+01 5.00000E+01 0.00000E+00
 -1        39 5.11500E+01 5.00000E+01 0.00000E+00
 -1        40 5.41500E+01 5.00000E+01 0.00000E+00
 -1        41 5.71500E+01 5.00000E+01 0.00000E+00
 -1        42 6.01500E+01 5.00000E+01 0.00000E+00
 -1        43 6.31500E+01 5.00000E+01 0.00000E+00
 -1        44 6.61500E+01 5.00000E+01 0.00000E+00
 -1        45 6.91500E+01 5.00000E+01 0.00000E+00
 -1        46 7.21500E+01 5.00000E+01 0.00000E+00
 -1        47 7.51500E+01 5.00000E+01 0.00000E+00
 -1        48 7.81500E+01 5.00000E+01 0.00000E+00
 -1        49 8.11500E+01 5.00000E+01 0.00000E+00
 -1        50 8.41500E+01 5.00000E+01 0.00000E+00
 -1        51 8.71500E+01 5.00000E+01 0.00000E+00
 -1        52 9.01500E+01 5.00000E+01 0.00000E+00
 -1        53 9.31500E+01 5.00000E+01 0.00000E+00
 -1        54 9.61500E+01 5.00000E+01 0.00000E+00
 -1        55 9.91500E+01 5.00000E+01 0.00000E+00
 -1        56 1.02150E+02 5.00000E+01 0.00000E+00
 -1        57 1.05150E+02 5.00000E+01 0.00000E+00
 -1        58 1.08150E+02 5.00000E+01 0.00000E+00
 -1        59 1.11150E+02 5.00000E+01 0.00000E+00
 -1        60 1.14150E+02 5.00000E+01 0.00000E+00
 -1        61 1.17150E+02 5.00000E+01 0.00000E+00
 -1        62 1.20150E+02 5.00000E+01 0.00000E+00
 -1        63 1.23150E+02 5.00000E+01 0.00000E+00
 -1        64 1.26150E+02 5.00000E+01 0.00000E+00
 -1        65 1.29150E+02 5.00000E+01 0.00000E+00
 -1        66 1.32150E+02 5.00000E+01 0.00000E+00
 -1        67 1.35150E+02 5.00000E+01 0.00000E+00
 -1        68 1.38150E+02 5.00000E+01 0.00000E+00
 -1        69 1.41150E+02 5.00000E+01 0.00000E+00
 -1        70 1.44150E+02 5.00000E+01 0.00000E+00
 -1        71 1.47150E+02 5.00000E+01 0.00000E+00
 -1        72 3.00000E+00 0.00000E+00 0.00000E+00
 -1        73 6.00000E+00 0.00000E+00 0.00000E+00
 -1        74 9.00000E+00 0.00000E+00 0.00000E+00
 -1        75 1.20000E+01 0.00000E+00 0.00000E+00
 -1        76 1.50000E+01 0.00000E+00 0.00000E+00
 -1        77 1.78500E+01 0.00000E+00 0.00000E+00
 -1        78 2.08500E+01 0.00000E+00 0.00000E+00
 -1        79 2.38500E+01 0.00000E+00 0.00000E+00
 -1        80 2.68500E+01 0.00000E+00 0.00000E+00
 -1        81 2.98500E+01 0.00000E+00 0.00000E+00
 -1        82 3.27000E+01 0.00000E+00 0.00000E+00
 -1        83 3.57000E+01 0.00000E+00 0.00000E+00
 -1        84 3.87000E+01 0.00000E+00 0.00000E+00
 -1        85 4.17000E+01 0.00000E+00 0.00000E+00
 -1        86 4.47000E+01 0.00000E+00 0.00000E+00
 -1        87 4.77000E+01 0.00000E+00 0.00000E+00
 -1        88 5.05500E+01 0.00000E+00 0.00000E+00
 -1        89 5.35500E+01 0.00000E+00 0.00000E+00
 -1        90 5.65500E+01 0.00000E+00 0.00000E+00
 -1        91 5.95500E+01 0.00000E+00 0.00000E+00
 -1        92 6.22500E+01 0.00000E+00 0.00000E+00
 -1        93 6.46500E+01 0.00000E+00 0.00000E+00
 -1        94 6.73500E+01 0.00000E+00 0.00000E+00
 -1        95 6.99000E+01 0.00000E+00 0.00000E+00
 -1        96 7.27500E+01 0.00000E+00 0.00000E+00
 -1        97 7.57500E+01 0.00000E+00 0.00000E+00
 -1        98 7.87500E+01 0.00000E+00 0.00000E+00
 -1        99 8.17500E+01 0.00000E+00 0.00000E+00
 -1       100 8.47500E+01 0.00000E+00 0.00000E+00
 -1       101 8.76000E+01 0.00000E+00 0.00000E+00
 -1       102 9.06000E+01 0.00000E+00 0.00000E+00
 -1       103 9.36000E+01 0.00000E+00 0.00000E+00
 -1       104 9.66000E+01 0.00000E+00 0.00000E+00
 -1       105 9.96000E+01 0.00000E+00 0.00000E+00
 -1       106 1.02450E+02 0.00000E+00 0.00000E+00
 -1       107 1.05450E+02 0.00000E+00 0.00000E+00
 -1       108 1.08450E+02 0.00000E+00 0.00000E+00
 -1       109 1.11450E+02 0.00000E+00 0.00000E+00
 -1       110 1.14450E+02 0.00000E+00 0.00000E+00
 -1       111 1.17450E+02 0.00000E+00 0.00000E+00
 -1       112 1.20300E+02 0.00000E+00 0.00000E+00
 -1       113 1.23300E+02 0.00000E+00 0.00000E+00
 -1       114 1.26300E+02 0.00000E+00 0.00000E+00
 -1       115 1.29300E+02 0.00000E+00 0.00000E+00
 -1       116 1.32300E+02 0.00000E+00 0.00000E+00
 -1       117 1.35150E+02 0.00000E+00 0.00000E+00
 -1       118 1.38150E+02 0.00000E+00 0.00000E+00
 -1       119 1.41150E+02 0.00000E+00 0.00000E+00
 -1       120 1.44150E+02 0.00000E+00 0.00000E+00
 -1       121 1.47150E+02 0.00000E+00 0.00000E+00
 -1       122 1.50000E+02 2.95000E+00 0.00000E+00
 -1       123 1.50000E+02 5.90000E+00 0.00000E+00
 -1       124 1.50000E+02 8.85000E+00 0.00000E+00
 -1       125 1.50000E+02 1.18000E+01 0.00000E+00
 -1       126 1.50000E+02 1.47500E+01 0.00000E+00
 -1       127 1.50000E+02 1.76500E+01 0.00000E+00
 -1       128 1.50000E+02 2.06000E+01 0.00000E+00
 -1       129 1.50000E+02 2.35500E+01 0.00000E+00
 -1       130 1.50000E+02 2.65000E+01 0.00000E+00
 -1       131 1.50000E+02 2.94500E+01 0.00000E+00
 -1       132 1.50000E+02 3.24000E+01 0.00000E+00
 -1       133 1.50000E+02 3.53000E+01 0.00000E+00
 -1       134 1.50000E+02 3.82500E+01 0.00000E+00
 -1       135 1.50000E+02 4.12000E+01 0.00000E+00
 -1       136 1.50000E+02 4.41500E+01 0.00000E+00
 -1       137 1.50000E+02 4.71000E+01 0.00000E+00
 -1       138 7.08598E+01 1.35802E+01 0.00000E+00
 -1       139 7.04206E+01 1.21904E+01 0.00000E+00
 -1       140 6.96667E+01 1.08711E+01 0.00000E+00
 -1       141 6.86824E+01 9.77824E+00 0.00000E+00
 -1       142 6.74540E+01 8.89371E+00 0.00000E+00
 -1       143 6.60218E+01 8.28106E+00 0.00000E+00
 -1       144 6.45276E+01 8.00305E+00 0.00000E+00
 -1       145 6.31098E+01 8.04035E+00 0.00000E+00
 -1       146 6.16233E+01 8.39977E+00 0.00000E+00
 -1       147 6.01351E+01 9.14823E+00 0.00000E+00
 -1       148 5.89950E+01 1.00913E+01 0.00000E+00
 -1       149 5.80366E+01 1.13206E+01 0.00000E+00
 -1       150 5.73953E+01 1.26697E+01 0.00000E+00
 -1       151 5.70195E+01 1.54790E+01 0.00000E+00
 -1       152 5.72735E+01 1.69143E+01 0.00000E+00
 -1       153 5.77806E+01 1.81920E+01 0.00000E+00
 -1       154 5.85816E+01 1.94128E+01 0.00000E+00
 -1       155 5.95656E+01 2.03980E+01 0.00000E+00
 -1       156 6.07029E+01 2.11571E+01 0.00000E+00
 -1       157 6.21597E+01 2.17365E+01 0.00000E+00
 -1       158 6.35420E+01 2.19682E+01 0.00000E+00
 -1       159 6.49875E+01 2.19135E+01 0.00000E+00
 -1       160 6.64293E+01 2.15489E+01 0.00000E+00
 -1       161 6.76915E+01 2.09319E+01 0.00000E+00
 -1       162 6.88733E+01 2.00101E+01 0.00000E+00
 -1       163 6.98247E+01 1.88685E+01 0.00000E+00
 -1       164 7.04680E+01 1.76646E+01 0.00000E+00
 -1       165 7.08716E+01 1.63277E+01 0.00000E+00
 -1       166 2.59800E+00 4.55750E+01 0.00000E+00
 -1       167 2.59800E+00 4.26250E+01 0.00000E+00
 -1       168 2.59800E+00 3.96750E+01 0.00000E+00
 -1       169 2.59800E+00 3.67250E+01 0.00000E+00
 -1       170 2.59800E+00 3.38250E+01 0.00000E+00
 -1       171 2.59800E+00 3.08750E+01 0.00000E+00
 -1       172 2.59800E+00 2.79250E+01 0.00000E+00
 -1       173 2.59800E+00 2.49750E+01 0.00000E+00
 -1       174 2.59800E+00 2.20250E+01 0.00000E+00
 -1       175 2.59800E+00 1.90750E+01 0.00000E+00
 -1       176 2.59800E+00 1.61750E+01 0.00000E+00
 -1       177 2.59800E+00 1.32250E+01 0.00000E+00
 -1       178 2.59800E+00 1.02750E+01 0.00000E+00
 -1       179 2.59800E+00 7.32500E+00 0.00000E+00
 -1       180 2.59800E+00 4.37500E+00 0.00000E+00
 -1       181 4.65000E+00 4.74020E+01 0.00000E+00
 -1       182 7.65000E+00 4.74020E+01 0.00000E+00
 -1       183 1.06500E+01 4.74020E+01 0.00000E+00
 -1       184 1.36500E+01 4.74020E+01 0.00000E+00
 -1       185 1.66500E+01 4.74020E+01 0.00000E+00
 -1       186 1.96500E+01 4.74020E+01 0.00000E+00
 -1       187 2.26500E+01 4.74020E+01 0.00000E+00
 -1       188 2.56500E+01 4.74020E+01 0.00000E+00
 -1       189 2.86500E+01 4.74020E+01 0.00000E+00
 -1       190 3.16500E+01 4.74020E+01 0.00000E+00
 -1       191 3.46500E+01 4.74020E+01 0.00000E+00
 -1       192 3.76500E+01 4.74020E+01 0.00000E+00
 -1       193 4.06500E+01 4.74020E+01 0.00000E+00
 -1       194 4.36500E+01 4.74020E+01 0.00000E+00
 -1       195 4.66500E+01 4.74020E+01 0.00000E+00
 -1       196 4.96500E+01 4.74020E+01 0.00000E+00
 -1       197 5.26500E+01 4.74020E+01 0.00000E+00
 -1       198 5.56500E+01 4.74020E+01 0.00000E+00
 -1       199 5.86500E+01 4.74020E+01 0.00000E+00
 -1       200 6.16500E+01 4.74020E+01 0.00000E+00
 -1       201 6.46500E+01 4.74020E+01 0.00000E+00
 -1       202 6.76500E+01 4.74020E+01 0.00000E+00
 -1       203 7.06500E+01 4.74020E+01 0.00000E+00
 -1       204 7.36500E+01 4.74020E+01 0.00000E+00
 -1       205 7.66500E+01 4.74020E+01 0.00000E+00
 -1       206 7.96500E+01 4.74020E+01 0.00000E+00
 -1       207 8.26500E+01 4.74020E+01 0.00000E+00
 -1       208 8.56500E+01 4.74020E+01 0.00000E+00
 -1       209 8.86500E+01 4.74020E+01 0.00000E+00
 -1       210 9.16500E+01 4.74020E+01 0.00000E+00
 -1       211 9.46500E+01 4.74020E+01 0.00000E+00
 -1       212 9.76500E+01 4.74020E+01 0.00000E+00
 -1       213 1.00650E+02 4.74020E+01 0.00000E+00
 -1       214 1.03650E+02 4.74020E+01 0.00000E+00
 -1       215 1.06650E+02 4.74020E+01 0.00000E+00
 -1       216 1.09650E+02 4.74020E+01 0.00000E+00
 -1       217 1.12650E+02 4.74020E+01 0.00000E+00
 -1       218 1.15650E+02 4.74020E+01 0.00000E+00
 -1       219 1.18650E+02 4.74020E+01 0.00000E+00
 -1       220 1.21650E+02 4.74020E+01 0.00000E+00
 -1       221 1.24650E+02 4.74020E+01 0.00000E+00
 -1       222 1.27650E+02 4.74020E+01 0.00000E+00
 -1       223 1.30650E+02 4.74020E+01 0.00000E+00
 -1       224 1.33650E+02 4.74020E+01 0.00000E+00
 -1       225 1.36650E+02 4.74020E+01 0.00000E+00
 -1       226 1.39650E+02 4.74020E+01 0.00000E+00
 -1       227 1.42650E+02 4.74020E+01 0.00000E+00
 -1       228 1.45650E+02 4.74020E+01 0.00000E+00
 -1       229 4.50000E+00 2.59800E+00 0.00000E+00
 -1       230 7.50000E+00 2.59800E+00 0.00000E+00
 -1       231 1.05000E+01 2.59800E+00 0.00000E+00
 -1       232 1.35000E+01 2.59800E+00 0.00000E+00
 -1       233 1.63500E+01 2.59800E+00 0.00000E+00
 -1       234 1.93500E+01 2.59800E+00 0.00000E+00
 -1       235 2.23500E+01 2.59800E+00 0.00000E+00
 -1       236 2.53500E+01 2.59800E+00 0.00000E+00
 -1       237 2.83500E+01 2.59800E+00 0.00000E+00
 -1       238 3.12000E+01 2.59800E+00 0.00000E+00
 -1       239 3.42000E+01 2.59800E+00 0.00000E+00
 -1       240 3.72000E+01 2.59800E+00 0.00000E+00
 -1       241 4.02000E+01 2.59800E+00 0.00000E+00
 -1       242 4.32000E+01 2.59800E+00 0.00000E+00
 -1       243 4.62000E+01 2.59800E+00 0.00000E+00
 -1       244 4.90500E+01 2.59800E+00 0.00000E+00
 -1       245 5.20500E+01 2.59800E+00 0.00000E+00
 -1       246 5.50500E+01 2.59800E+00 0.00000E+00
 -1       247 5.80500E+01 2.59800E+00 0.00000E+00
 -1       248 6.07500E+01 2.59800E+00 0.00000E+00
 -1       249 6.31500E+01 2.59800E+00 0.00000E+00
 -1       250 6.58500E+01 2.59800E+00 0.00000E+00
 -1       251 6.84000E+01 2.59800E+00 0.00000E+00
 -1       252 7.12500E+01 2.59800E+00 0.00000E+00
 -1       253 7.42500E+01 2.59800E+00 0.00000E+00
 -1       254 7.72500E+01 2.59800E+00 0.00000E+00
 -1       255 8.02500E+01 2.59800E+00 0.00000E+00
 -1       256 8.32500E+01 2.59800E+00 0.00000E+00
 -1       257 8.61000E+01 2.59800E+00 0.00000E+00
 -1       258 8.91000E+01 2.59800E+00 0.00000E+00
 -1       259 9.21000E+01 2.59800E+00 0.00000E+00
 -1       260 9.51000E+01 2.59800E+00 0.00000E+00
 -1       261 9.81000E+01 2.59800E+00 0.00000E+00
 -1       262 1.00950E+02 2.59800E+00 0.00000E+00
 -1       263 1.03950E+02 2.59800E+00 0.00000E+00
 -1       264 1.06950E+02 2.59800E+00 0.00000E+00
 -1       265 1.09950E+02 2.59800E+00 0.00000E+00
 -1       266 1.12950E+02 2.59800E+00 0.00000E+00
 -1       267 1.15950E+02 2.59800E+00 0.00000E+00
 -1       268 1.18800E+02 2.59800E+00 0.00000E+00
 -1       269 1.21800E+02 2.59800E+00 0.00000E+00
 -1       270 1.24800E+02 2.59800E+00 0.00000E+00
 -1       271 1.27800E+02 2.59800E+00 0.00000E+00
 -1       272 1.30800E+02 2.59800E+00 0.00000E+00
 -1       273 1.33650E+02 2.59800E+00 0.00000E+00
 -1       274 1.36650E+02 2.59800E+00 0.00000E+00
 -1       275 1.39650E+02 2.59800E+00 0.00000E+00
 -1       276 1.42650E+02 2.59800E+00 0.00000E+00
 -1       277 1.45650E+02 2.59800E+00 0.00000E+00
 -1       278 1.47402E+02 4.42500E+00 0.00000E+00
 -1       279 1.47402E+02 7.37500E+00 0.00000E+00
 -1       280 1.47402E+02 1.03250E+01 0.00000E+00
 -1       281 1.47402E+02 1.32750E+01 0.00000E+00
 -1       282 1.47402E+02 1.61750E+01 0.00000E+00
 -1       283 1.47402E+02 1.91250E+01 0.00000E+00
 -1       284 1.47402E+02 2.20750E+01 0.00000E+00
 -1       285 1.47402E+02 2.50250E+01 0.00000E+00
 -1       286 1.47402E+02 2.79750E+01 0.00000E+00
 -1       287 1.47402E+02 3.09250E+01 0.00000E+00
 -1       288 1.47402E+02 3.38250E+01 0.00000E+00
 -1       289 1.47402E+02 3.67750E+01 0.00000E+00
 -1       290 1.47402E+02 3.97250E+01 0.00000E+00
 -1       291 1.47402E+02 4.26750E+01 0.00000E+00
 -1       292 1.46526E+02 4.50385E+01 0.00000E+00
 -1       293 7.21371E+01 1.41596E+01 0.00000E+00
 -1       294 7.17963E+01 1.25200E+01 0.00000E+00
 -1       295 7.12418E+01 1.08461E+01 0.00000E+00
 -1       296 7.01377E+01 9.45723E+00 0.00000E+00
 -1       297 6.87767E+01 8.35209E+00 0.00000E+00
 -1       298 6.72477E+01 7.39566E+00 0.00000E+00
 -1       299 6.55272E+01 6.78536E+00 0.00000E+00
 -1       300 6.37868E+01 6.80972E+00 0.00000E+00
 -1       301 6.20619E+01 6.96018E+00 0.00000E+00
 -1       302 6.01839E+01 7.39144E+00 0.00000E+00
 -1       303 5.87923E+01 8.68557E+00 0.00000E+00
 -1       304 5.75597E+01 9.96046E+00 0.00000E+00
 -1       305 5.65453E+01 1.14386E+01 0.00000E+00
 -1       306 5.60472E+01 1.31017E+01 0.00000E+00
 -1       307 5.58272E+01 1.47510E+01 0.00000E+00
 -1       308 5.58701E+01 1.64225E+01 0.00000E+00
 -1       309 5.64002E+01 1.80004E+01 0.00000E+00
 -1       310 5.70974E+01 1.95135E+01 0.00000E+00
 -1       311 5.82158E+01 2.07622E+01 0.00000E+00
 -1       312 5.94612E+01 2.17860E+01 0.00000E+00
 -1       313 6.09213E+01 2.27291E+01 0.00000E+00
 -1       314 6.26366E+01 2.31307E+01 0.00000E+00
 -1       315 6.43137E+01 2.32361E+01 0.00000E+00
 -1       316 6.60467E+01 2.30691E+01 0.00000E+00
 -1       317 6.75928E+01 2.23297E+01 0.00000E+00
 -1       318 6.90796E+01 2.14931E+01 0.00000E+00
 -1       319 7.02804E+01 2.02155E+01 0.00000E+00
 -1       320 7.12157E+01 1.88379E+01 0.00000E+00
 -1       321 7.18304E+01 1.73465E+01 0.00000E+00
 -1       322 7.21435E+01 1.57725E+01 0.00000E+00
 -1       323 5.19600E+00 4.11500E+01 0.00000E+00
 -1       324 5.19600E+00 4.41000E+01 0.00000E+00
 -1       325 5.19600E+00 3.52750E+01 0.00000E+00
 -1       326 5.19600E+00 3.23250E+01 0.00000E+00
 -1       327 5.19600E+00 2.93750E+01 0.00000E+00
 -1       328 5.19600E+00 2.64250E+01 0.00000E+00
 -1       329 5.19600E+00 2.34750E+01 0.00000E+00
 -1       330 5.19600E+00 2.05250E+01 0.00000E+00
 -1       331 5.19600E+00 1.76250E+01 0.00000E+00
 -1       332 5.19600E+00 1.46750E+01 0.00000E+00
 -1       333 5.19600E+00 1.17250E+01 0.00000E+00
 -1       334 5.19600E+00 8.77500E+00 0.00000E+00
 -1       335 5.19600E+00 5.82500E+00 0.00000E+00
 -1       336 7.17700E+01 9.29293E+00 0.00000E+00
 -1       337 9.15000E+00 4.48040E+01 0.00000E+00
 -1       338 1.21500E+01 4.48040E+01 0.00000E+00
 -1       339 1.51500E+01 4.48040E+01 0.00000E+00
 -1       340 1.81500E+01 4.48040E+01 0.00000E+00
 -1       341 2.11500E+01 4.48040E+01 0.00000E+00
 -1       342 2.41500E+01 4.48040E+01 0.00000E+00
 -1       343 2.71500E+01 4.48040E+01 0.00000E+00
 -1       344 3.01500E+01 4.48040E+01 0.00000E+00
 -1       345 3.31500E+01 4.48040E+01 0.00000E+00
 -1       346 3.61500E+01 4.48040E+01 0.00000E+00
 -1       347 3.91500E+01 4.48040E+01 0.00000E+00
 -1       348 4.21500E+01 4.48040E+01 0.00000E+00
 -1       349 4.51500E+01 4.48040E+01 0.00000E+00
 -1       350 4.81500E+01 4.48040E+01 0.00000E+00
 -1       351 5.11500E+01 4.48040E+01 0.00000E+00
 -1       352 5.41500E+01 4.48040E+01 0.00000E+00
 -1       353 5.71500E+01 4.48040E+01 0.00000E+00
 -1       354 6.01500E+01 4.48040E+01 0.00000E+00
 -1       355 6.31500E+01 4.48040E+01 0.00000E+00
 -1       356 6.61500E+01 4.48040E+01 0.00000E+00
 -1       357 6.91500E+01 4.48040E+01 0.00000E+00
 -1       358 7.21500E+01 4.48040E+01 0.00000E+00
 -1       359 7.51500E+01 4.48040E+01 0.00000E+00
 -1       360 7.81500E+01 4.48040E+01 0.00000E+00
 -1       361 8.11500E+01 4.48040E+01 0.00000E+00
 -1       362 8.41500E+01 4.48040E+01 0.00000E+00
 -1       363 8.71500E+01 4.48040E+01 0.00000E+00
 -1       364 9.01500E+01 4.48040E+01 0.00000E+00
 -1       365 9.31500E+01 4.48040E+01 0.00000E+00
 -1       366 9.61500E+01 4.48040E+01 0.00000E+00
 -1       367 9.91500E+01 4.48040E+01 0.00000E+00
 -1       368 1.02150E+02 4.48040E+01 0.00000E+00
 -1       369 1.05150E+02 4.48040E+01 0.00000E+00
 -1       370 1.08150E+02 4.48040E+01 0.00000E+00
 -1       371 1.11150E+02 4.48040E+01 0.00000E+00
 -1       372 1.14150E+02 4.48040E+01 0.00000E+00
 -1       373 1.17150E+02 4.48040E+01 0.00000E+00
 -1       374 1.20150E+02 4.48040E+01 0.00000E+00
 -1       375 1.23150E+02 4.48040E+01 0.00000E+00
 -1       376 1.26150E+02 4.48040E+01 0.00000E+00
 -1       377 1.29150E+02 4.48040E+01 0.00000E+00
 -1       378 1.32150E+02 4.48040E+01 0.00000E+00
 -1       379 1.35150E+02 4.48040E+01 0.00000E+00
 -1       380 1.38150E+02 4.48040E+01 0.00000E+00
 -1       381 1.41150E+02 4.48040E+01 0.00000E+00
 -1       382 1.43838E+02 4.49212E+01 0.00000E+00
 -1       383 1.20000E+01 5.19600E+00 0.00000E+00
 -1       384 9.00000E+00 5.19600E+00 0.00000E+00
 -1       385 1.48500E+01 5.19600E+00 0.00000E+00
 -1       386 1.78500E+01 5.19600E+00 0.00000E+00
 -1       387 2.08500E+01 5.19600E+00 0.00000E+00
 -1       388 2.38500E+01 5.19600E+00 0.00000E+00
 -1       389 2.68500E+01 5.19600E+00 0.00000E+00
 -1       390 2.97000E+01 5.19600E+00 0.00000E+00
 -1       391 3.27000E+01 5.19600E+00 0.00000E+00
 -1       392 3.57000E+01 5.19600E+00 0.00000E+00
 -1       393 3.87000E+01 5.19600E+00 0.00000E+00
 -1       394 4.17000E+01 5.19600E+00 0.00000E+00
 -1       395 4.47000E+01 5.19600E+00 0.00000E+00
 -1       396 4.75500E+01 5.19600E+00 0.00000E+00
 -1       397 5.05500E+01 5.19600E+00 0.00000E+00
 -1       398 5.35500E+01 5.19600E+00 0.00000E+00
 -1       399 5.65500E+01 5.19600E+00 0.00000E+00
 -1       400 6.19500E+01 4.81582E+00 0.00000E+00
 -1       401 6.71250E+01 4.48068E+00 0.00000E+00
 -1       402 6.98250E+01 4.81582E+00 0.00000E+00
 -1       403 7.28250E+01 4.81582E+00 0.00000E+00
 -1       404 7.58250E+01 4.81582E+00 0.00000E+00
 -1       405 7.88250E+01 4.81582E+00 0.00000E+00
 -1       406 8.18250E+01 4.81582E+00 0.00000E+00
 -1       407 8.46750E+01 4.81582E+00 0.00000E+00
 -1       408 8.76750E+01 4.81582E+00 0.00000E+00
 -1       409 9.06750E+01 4.81582E+00 0.00000E+00
 -1       410 9.36750E+01 4.81582E+00 0.00000E+00
 -1       411 9.66750E+01 4.81582E+00 0.00000E+00
 -1       412 9.95250E+01 4.81582E+00 0.00000E+00
 -1       413 1.02525E+02 4.81582E+00 0.00000E+00
 -1       414 1.05525E+02 4.81582E+00 0.00000E+00
 -1       415 1.08525E+02 4.81582E+00 0.00000E+00
 -1       416 1.11525E+02 4.81582E+00 0.00000E+00
 -1       417 1.14525E+02 4.81582E+00 0.00000E+00
 -1       418 1.17375E+02 4.81582E+00 0.00000E+00
 -1       419 1.20375E+02 4.81582E+00 0.00000E+00
 -1       420 1.23375E+02 4.81582E+00 0.00000E+00
 -1       421 1.26375E+02 4.81582E+00 0.00000E+00
 -1       422 1.29375E+02 4.81582E+00 0.00000E+00
 -1       423 1.32225E+02 4.81582E+00 0.00000E+00
 -1       424 1.35225E+02 4.81582E+00 0.00000E+00
 -1       425 1.38225E+02 4.81582E+00 0.00000E+00
 -1       426 1.41225E+02 4.81582E+00 0.00000E+00
 -1       427 1.44225E+02 4.81582E+00 0.00000E+00
 -1       428 7.33178E+01 1.30590E+01 0.00000E+00
 -1       429 1.44804E+02 1.18000E+01 0.00000E+00
 -1       430 1.44804E+02 8.85000E+00 0.00000E+00
 -1       431 1.44804E+02 1.47000E+01 0.00000E+00
 -1       432 1.44804E+02 1.76500E+01 0.00000E+00
 -1       433 1.44804E+02 2.06000E+01 0.00000E+00
 -1       434 1.44804E+02 2.35500E+01 0.00000E+00
 -1       435 1.44804E+02 2.65000E+01 0.00000E+00
 -1       436 1.44804E+02 2.94500E+01 0.00000E+00
 -1       437 1.44804E+02 3.23500E+01 0.00000E+00
 -1       438 1.44804E+02 3.53000E+01 0.00000E+00
 -1       439 1.44804E+02 3.82500E+01 0.00000E+00
 -1       440 1.44804E+02 4.12000E+01 0.00000E+00
 -1       441 7.28290E+01 1.12491E+01 0.00000E+00
 -1       442 7.36878E+01 1.49599E+01 0.00000E+00
 -1       443 5.19600E+00 3.82125E+01 0.00000E+00
 -1       444 6.88329E+01 6.56189E+00 0.00000E+00
 -1       445 6.68488E+01 5.78994E+00 0.00000E+00
 -1       446 6.46353E+01 5.25015E+00 0.00000E+00
 -1       447 6.28044E+01 5.51019E+00 0.00000E+00
 -1       448 6.07391E+01 5.50421E+00 0.00000E+00
 -1       449 5.84342E+01 6.90524E+00 0.00000E+00
 -1       450 5.71839E+01 8.36383E+00 0.00000E+00
 -1       451 5.59838E+01 9.96613E+00 0.00000E+00
 -1       452 5.50546E+01 1.18983E+01 0.00000E+00
 -1       453 5.44033E+01 1.37218E+01 0.00000E+00
 -1       454 5.44692E+01 1.56221E+01 0.00000E+00
 -1       455 5.45093E+01 1.77576E+01 0.00000E+00
 -1       456 5.52066E+01 1.92707E+01 0.00000E+00
 -1       457 5.66287E+01 2.10585E+01 0.00000E+00
 -1       458 5.79622E+01 2.23401E+01 0.00000E+00
 -1       459 5.94223E+01 2.32832E+01 0.00000E+00
 -1       460 6.14453E+01 2.43551E+01 0.00000E+00
 -1       461 6.33938E+01 2.44770E+01 0.00000E+00
 -1       462 6.53367E+01 2.47764E+01 0.00000E+00
 -1       463 6.74875E+01 2.40955E+01 0.00000E+00
 -1       464 6.89742E+01 2.32589E+01 0.00000E+00
 -1       465 7.06855E+01 2.17994E+01 0.00000E+00
 -1       466 7.20283E+01 2.03960E+01 0.00000E+00
 -1       467 7.27989E+01 1.86181E+01 0.00000E+00
 -1       468 7.33404E+01 1.68287E+01 0.00000E+00
 -1       469 7.03270E+01 7.83338E+00 0.00000E+00
 -1       470 5.90756E+01 4.92215E+00 0.00000E+00
 -1       471 7.79400E+00 3.08500E+01 0.00000E+00
 -1       472 7.79400E+00 3.38000E+01 0.00000E+00
 -1       473 7.79400E+00 2.49500E+01 0.00000E+00
 -1       474 7.79400E+00 2.20000E+01 0.00000E+00
 -1       475 7.79400E+00 1.91000E+01 0.00000E+00
 -1       476 7.79400E+00 1.61500E+01 0.00000E+00
 -1       477 7.79400E+00 1.32000E+01 0.00000E+00
 -1       478 7.79400E+00 1.02500E+01 0.00000E+00
 -1       479 8.39700E+00 7.72300E+00 0.00000E+00
 -1       480 1.06500E+01 4.22060E+01 0.00000E+00
 -1       481 1.36500E+01 4.22060E+01 0.00000E+00
 -1       482 1.66500E+01 4.22060E+01 0.00000E+00
 -1       483 1.96500E+01 4.22060E+01 0.00000E+00
 -1       484 2.26500E+01 4.22060E+01 0.00000E+00
 -1       485 2.56500E+01 4.22060E+01 0.00000E+00
 -1       486 2.86500E+01 4.22060E+01 0.00000E+00
 -1       487 3.16500E+01 4.22060E+01 0.00000E+00
 -1       488 3.46500E+01 4.22060E+01 0.00000E+00
 -1       489 3.76500E+01 4.22060E+01 0.00000E+00
 -1       490 4.06500E+01 4.22060E+01 0.00000E+00
 -1       491 4.36500E+01 4.22060E+01 0.00000E+00
 -1       492 4.66500E+01 4.22060E+01 0.00000E+00
 -1       493 4.96500E+01 4.22060E+01 0.00000E+00
 -1       494 5.26500E+01 4.22060E+01 0.00000E+00
 -1       495 5.56500E+01 4.22060E+01 0.00000E+00
 -1       496 5.86500E+01 4.22060E+01 0.00000E+00
 -1       497 6.16500E+01 4.22060E+01 0.00000E+00
 -1       498 6.46500E+01 4.22060E+01 0.00000E+00
 -1       499 6.76500E+01 4.22060E+01 0.00000E+00
 -1       500 7.06500E+01 4.22060E+01 0.00000E+00
 -1       501 7.36500E+01 4.22060E+01 0.00000E+00
 -1       502 7.66500E+01 4.22060E+01 0.00000E+00
 -1       503 7.96500E+01 4.22060E+01 0.00000E+00
 -1       504 8.26500E+01 4.22060E+01 0.00000E+00
 -1       505 8.56500E+01 4.22060E+01 0.00000E+00
 -1       506 8.86500E+01 4.22060E+01 0.00000E+00
 -1       507 9.16500E+01 4.22060E+01 0.00000E+00
 -1       508 9.46500E+01 4.22060E+01 0.00000E+00
 -1       509 9.76500E+01 4.22060E+01 0.00000E+00
 -1       510 1.00650E+02 4.22060E+01 0.00000E+00
 -1       511 1.03650E+02 4.22060E+01 0.00000E+00
 -1       512 1.06650E+02 4.22060E+01 0.00000E+00
 -1       513 1.09650E+02 4.22060E+01 0.00000E+00
 -1       514 1.12650E+02 4.22060E+01 0.00000E+00
 -1       515 1.15650E+02 4.22060E+01 0.00000E+00
 -1       516 1.18650E+02 4.22060E+01 0.00000E+00
 -1       517 1.21650E+02 4.22060E+01 0.00000E+00
 -1       518 1.24650E+02 4.22060E+01 0.00000E+00
 -1       519 1.27650E+02 4.22060E+01 0.00000E+00
 -1       520 1.30650E+02 4.22060E+01 0.00000E+00
 -1       521 1.33650E+02 4.22060E+01 0.00000E+00
 -1       522 1.36650E+02 4.22060E+01 0.00000E+00
 -1       523 1.39650E+02 4.22060E+01 0.00000E+00
 -1       524 1.13970E+01 7.72300E+00 0.00000E+00
 -1       525 1.93500E+01 7.79400E+00 0.00000E+00
 -1       526 2.23500E+01 7.79400E+00 0.00000E+00
 -1       527 2.53500E+01 7.79400E+00 0.00000E+00
 -1       528 2.82000E+01 7.79400E+00 0.00000E+00
 -1       529 3.12000E+01 7.79400E+00 0.00000E+00
 -1       530 3.42000E+01 7.79400E+00 0.00000E+00
 -1       531 3.72000E+01 7.79400E+00 0.00000E+00
 -1       532 4.02000E+01 7.79400E+00 0.00000E+00
 -1       533 4.32000E+01 7.79400E+00 0.00000E+00
 -1       534 4.60500E+01 7.79400E+00 0.00000E+00
 -1       535 4.90500E+01 7.79400E+00 0.00000E+00
 -1       536 5.20500E+01 7.79400E+00 0.00000E+00
 -1       537 8.03250E+01 7.41382E+00 0.00000E+00
 -1       538 8.31750E+01 7.41382E+00 0.00000E+00
 -1       539 8.61750E+01 7.41382E+00 0.00000E+00
 -1       540 8.91750E+01 7.41382E+00 0.00000E+00
 -1       541 9.21750E+01 7.41382E+00 0.00000E+00
 -1       542 9.51750E+01 7.41382E+00 0.00000E+00
 -1       543 9.80250E+01 7.41382E+00 0.00000E+00
 -1       544 1.01025E+02 7.41382E+00 0.00000E+00
 -1       545 1.04025E+02 7.41382E+00 0.00000E+00
 -1       546 1.07025E+02 7.41382E+00 0.00000E+00
 -1       547 1.10025E+02 7.41382E+00 0.00000E+00
 -1       548 1.13025E+02 7.41382E+00 0.00000E+00
 -1       549 1.15875E+02 7.41382E+00 0.00000E+00
 -1       550 1.18875E+02 7.41382E+00 0.00000E+00
 -1       551 1.21875E+02 7.41382E+00 0.00000E+00
 -1       552 1.24875E+02 7.41382E+00 0.00000E+00
 -1       553 1.27875E+02 7.41382E+00 0.00000E+00
 -1       554 1.30725E+02 7.41382E+00 0.00000E+00
 -1       555 1.33725E+02 7.41382E+00 0.00000E+00
 -1       556 1.36725E+02 7.41382E+00 0.00000E+00
 -1       557 1.39725E+02 7.41382E+00 0.00000E+00
 -1       558 1.42264E+02 8.13191E+00 0.00000E+00
 -1       559 7.48909E+01 1.16632E+01 0.00000E+00
 -1       560 1.42206E+02 1.91250E+01 0.00000E+00
 -1       561 7.36604E+01 9.53427E+00 0.00000E+00
 -1       562 1.42206E+02 2.20750E+01 0.00000E+00
 -1       563 1.42206E+02 2.50250E+01 0.00000E+00
 -1       564 1.42206E+02 2.79750E+01 0.00000E+00
 -1       565 1.42206E+02 3.08750E+01 0.00000E+00
 -1       566 1.42206E+02 3.38250E+01 0.00000E+00
 -1       567 1.42206E+02 3.67750E+01 0.00000E+00
 -1       568 1.42206E+02 3.97250E+01 0.00000E+00
 -1       569 7.22086E+01 7.41626E+00 0.00000E+00
 -1       570 7.50356E+01 1.61771E+01 0.00000E+00
 -1       571 1.63500E+01 7.79400E+00 0.00000E+00
 -1       572 7.47112E+01 1.82202E+01 0.00000E+00
 -1       573 1.42206E+02 1.32500E+01 0.00000E+00
 -1       574 6.69804E+01 2.62308E+01 0.00000E+00
 -1       575 5.47065E+01 2.11280E+01 0.00000E+00
 -1       576 5.29420E+01 1.67190E+01 0.00000E+00
 -1       577 1.42235E+02 1.06910E+01 0.00000E+00
 -1       578 1.42206E+02 1.61875E+01 0.00000E+00
 -1       579 7.73250E+01 7.41382E+00 0.00000E+00
 -1       580 7.48573E+01 1.37458E+01 0.00000E+00
 -1       581 7.79400E+00 2.79000E+01 0.00000E+00
 -1       582 1.38735E+01 7.75850E+00 0.00000E+00
 -1       583 5.61070E+01 2.29359E+01 0.00000E+00
 -1       584 5.54122E+01 8.28748E+00 0.00000E+00
 -1       585 5.40490E+01 1.02252E+01 0.00000E+00
 -1       586 5.34294E+01 1.23459E+01 0.00000E+00
 -1       587 5.28761E+01 1.48186E+01 0.00000E+00
 -1       588 5.34524E+01 1.91618E+01 0.00000E+00
 -1       589 6.22915E+01 2.64623E+01 0.00000E+00
 -1       590 5.78980E+01 2.40412E+01 0.00000E+00
 -1       591 7.27172E+01 2.23992E+01 0.00000E+00
 -1       592 5.96700E+01 2.52606E+01 0.00000E+00
 -1       593 6.42344E+01 2.67617E+01 0.00000E+00
 -1       594 6.90719E+01 2.51719E+01 0.00000E+00
 -1       595 7.10059E+01 2.38588E+01 0.00000E+00
 -1       596 7.39104E+01 2.01558E+01 0.00000E+00
 -1       597 7.92300E+00 4.16780E+01 0.00000E+00
 -1       598 7.05829E+01 6.01907E+00 0.00000E+00
 -1       599 7.79400E+00 3.67375E+01 0.00000E+00
 -1       600 1.41678E+02 4.22645E+01 0.00000E+00
 -1       601 7.85850E+00 3.92077E+01 0.00000E+00
 -1       602 5.19022E+01 1.34427E+01 0.00000E+00
 -1       603 5.66626E+01 6.82889E+00 0.00000E+00
 -1       604 1.03920E+01 2.05500E+01 0.00000E+00
 -1       605 1.03920E+01 2.35000E+01 0.00000E+00
 -1       606 1.03920E+01 1.46750E+01 0.00000E+00
 -1       607 1.03920E+01 1.17250E+01 0.00000E+00
 -1       608 1.08945E+01 9.72400E+00 0.00000E+00
 -1       609 1.40178E+02 3.96665E+01 0.00000E+00
 -1       610 1.21500E+01 3.96080E+01 0.00000E+00
 -1       611 1.51500E+01 3.96080E+01 0.00000E+00
 -1       612 1.81500E+01 3.96080E+01 0.00000E+00
 -1       613 2.11500E+01 3.96080E+01 0.00000E+00
 -1       614 2.41500E+01 3.96080E+01 0.00000E+00
 -1       615 2.71500E+01 3.96080E+01 0.00000E+00
 -1       616 3.01500E+01 3.96080E+01 0.00000E+00
 -1       617 3.31500E+01 3.96080E+01 0.00000E+00
 -1       618 3.61500E+01 3.96080E+01 0.00000E+00
 -1       619 3.91500E+01 3.96080E+01 0.00000E+00
 -1       620 4.21500E+01 3.96080E+01 0.00000E+00
 -1       621 4.51500E+01 3.96080E+01 0.00000E+00
 -1       622 4.81500E+01 3.96080E+01 0.00000E+00
 -1       623 5.11500E+01 3.96080E+01 0.00000E+00
 -1       624 5.41500E+01 3.96080E+01 0.00000E+00
 -1       625 5.71500E+01 3.96080E+01 0.00000E+00
 -1       626 6.01500E+01 3.96080E+01 0.00000E+00
 -1       627 6.31500E+01 3.96080E+01 0.00000E+00
 -1       628 6.61500E+01 3.96080E+01 0.00000E+00
 -1       629 6.91500E+01 3.96080E+01 0.00000E+00
 -1       630 7.21500E+01 3.96080E+01 0.00000E+00
 -1       631 7.51500E+01 3.96080E+01 0.00000E+00
 -1       632 7.81500E+01 3.96080E+01 0.00000E+00
 -1       633 8.11500E+01 3.96080E+01 0.00000E+00
 -1       634 8.41500E+01 3.96080E+01 0.00000E+00
 -1       635 8.71500E+01 3.96080E+01 0.00000E+00
 -1       636 9.01500E+01 3.96080E+01 0.00000E+00
 -1       637 9.31500E+01 3.96080E+01 0.00000E+00
 -1       638 9.61500E+01 3.96080E+01 0.00000E+00
 -1       639 9.91500E+01 3.96080E+01 0.00000E+00
 -1       640 1.02150E+02 3.96080E+01 0.00000E+00
 -1       641 1.05150E+02 3.96080E+01 0.00000E+00
 -1       642 1.08150E+02 3.96080E+01 0.00000E+00
 -1       643 1.11150E+02 3.96080E+01 0.00000E+00
 -1       644 1.14150E+02 3.96080E+01 0.00000E+00
 -1       645 1.17150E+02 3.96080E+01 0.00000E+00
 -1       646 1.20150E+02 3.96080E+01 0.00000E+00
 -1       647 1.23150E+02 3.96080E+01 0.00000E+00
 -1       648 1.26150E+02 3.96080E+01 0.00000E+00
 -1       649 1.29150E+02 3.96080E+01 0.00000E+00
 -1       650 1.32150E+02 3.96080E+01 0.00000E+00
 -1       651 1.35150E+02 3.96080E+01 0.00000E+00
 -1       652 1.37664E+02 3.96372E+01 0.00000E+00
 -1       653 7.69912E+01 1.48115E+01 0.00000E+00
 -1       654 2.38500E+01 1.03920E+01 0.00000E+00
 -1       655 2.08500E+01 1.03920E+01 0.00000E+00
 -1       656 2.97000E+01 1.03920E+01 0.00000E+00
 -1       657 3.27000E+01 1.03920E+01 0.00000E+00
 -1       658 3.57000E+01 1.03920E+01 0.00000E+00
 -1       659 3.87000E+01 1.03920E+01 0.00000E+00
 -1       660 4.17000E+01 1.03920E+01 0.00000E+00
 -1       661 4.45500E+01 1.03920E+01 0.00000E+00
 -1       662 4.75500E+01 1.03920E+01 0.00000E+00
 -1       663 5.05500E+01 1.03920E+01 0.00000E+00
 -1       664 5.59258E+01 2.52333E+01 0.00000E+00
 -1       665 8.76750E+01 1.00118E+01 0.00000E+00
 -1       666 7.11906E+01 2.62115E+01 0.00000E+00
 -1       667 8.46750E+01 1.00118E+01 0.00000E+00
 -1       668 7.60507E+01 9.57271E+00 0.00000E+00
 -1       669 8.18250E+01 1.00118E+01 0.00000E+00
 -1       670 9.06750E+01 1.00118E+01 0.00000E+00
 -1       671 9.36750E+01 1.00118E+01 0.00000E+00
 -1       672 9.65250E+01 1.00118E+01 0.00000E+00
 -1       673 9.95250E+01 1.00118E+01 0.00000E+00
 -1       674 1.02525E+02 1.00118E+01 0.00000E+00
 -1       675 1.05525E+02 1.00118E+01 0.00000E+00
 -1       676 1.08525E+02 1.00118E+01 0.00000E+00
 -1       677 1.11525E+02 1.00118E+01 0.00000E+00
 -1       678 1.14375E+02 1.00118E+01 0.00000E+00
 -1       679 1.17375E+02 1.00118E+01 0.00000E+00
 -1       680 1.20375E+02 1.00118E+01 0.00000E+00
 -1       681 1.23375E+02 1.00118E+01 0.00000E+00
 -1       682 1.26375E+02 1.00118E+01 0.00000E+00
 -1       683 1.29225E+02 1.00118E+01 0.00000E+00
 -1       684 1.32225E+02 1.00118E+01 0.00000E+00
 -1       685 1.35225E+02 1.00118E+01 0.00000E+00
 -1       686 1.38225E+02 1.00118E+01 0.00000E+00
 -1       687 1.40230E+02 1.03514E+01 0.00000E+00
 -1       688 1.39608E+02 2.35500E+01 0.00000E+00
 -1       689 7.70248E+01 1.27289E+01 0.00000E+00
 -1       690 5.20929E+01 1.08045E+01 0.00000E+00
 -1       691 1.39608E+02 2.06000E+01 0.00000E+00
 -1       692 1.39608E+02 2.94250E+01 0.00000E+00
 -1       693 1.39608E+02 3.23750E+01 0.00000E+00
 -1       694 1.39608E+02 3.53250E+01 0.00000E+00
 -1       695 5.39184E+01 2.31849E+01 0.00000E+00
 -1       696 7.29019E+01 2.47520E+01 0.00000E+00
 -1       697 5.23509E+01 2.12474E+01 0.00000E+00
 -1       698 5.11950E+01 1.58282E+01 0.00000E+00
 -1       699 7.51240E+01 2.22402E+01 0.00000E+00
 -1       700 7.88250E+01 1.00118E+01 0.00000E+00
 -1       701 1.78500E+01 1.03920E+01 0.00000E+00
 -1       702 7.57408E+01 1.97796E+01 0.00000E+00
 -1       703 7.67328E+01 1.74938E+01 0.00000E+00
 -1       704 1.39608E+02 2.64875E+01 0.00000E+00
 -1       705 2.67750E+01 1.03920E+01 0.00000E+00
 -1       706 6.02661E+01 2.74206E+01 0.00000E+00
 -1       707 5.16004E+01 1.82741E+01 0.00000E+00
 -1       708 1.03920E+01 1.76125E+01 0.00000E+00
 -1       709 5.76978E+01 2.64528E+01 0.00000E+00
 -1       710 1.03920E+01 3.23250E+01 0.00000E+00
 -1       711 6.88765E+01 2.73810E+01 0.00000E+00
 -1       712 6.29763E+01 2.84727E+01 0.00000E+00
 -1       713 1.00042E+01 3.94079E+01 0.00000E+00
 -1       714 6.59965E+01 2.85092E+01 0.00000E+00
 -1       715 1.03920E+01 2.64500E+01 0.00000E+00
 -1       716 1.33710E+01 9.75950E+00 0.00000E+00
 -1       717 1.03920E+01 3.52625E+01 0.00000E+00
 -1       718 1.39608E+02 1.76625E+01 0.00000E+00
 -1       719 1.39608E+02 1.47250E+01 0.00000E+00
 -1       720 1.39919E+02 1.25382E+01 0.00000E+00
 -1       721 1.03920E+01 2.93875E+01 0.00000E+00
 -1       722 1.56105E+01 1.00758E+01 0.00000E+00
 -1       723 1.28685E+01 1.17605E+01 0.00000E+00
 -1       724 1.36500E+01 3.70100E+01 0.00000E+00
 -1       725 5.55545E+01 2.76700E+01 0.00000E+00
 -1       726 1.66500E+01 3.70100E+01 0.00000E+00
 -1       727 1.96500E+01 3.70100E+01 0.00000E+00
 -1       728 2.26500E+01 3.70100E+01 0.00000E+00
 -1       729 2.56500E+01 3.70100E+01 0.00000E+00
 -1       730 2.86500E+01 3.70100E+01 0.00000E+00
 -1       731 3.16500E+01 3.70100E+01 0.00000E+00
 -1       732 3.46500E+01 3.70100E+01 0.00000E+00
 -1       733 3.76500E+01 3.70100E+01 0.00000E+00
 -1       734 4.06500E+01 3.70100E+01 0.00000E+00
 -1       735 4.36500E+01 3.70100E+01 0.00000E+00
 -1       736 4.66500E+01 3.70100E+01 0.00000E+00
 -1       737 4.96500E+01 3.70100E+01 0.00000E+00
 -1       738 5.26500E+01 3.70100E+01 0.00000E+00
 -1       739 5.56500E+01 3.70100E+01 0.00000E+00
 -1       740 5.86500E+01 3.70100E+01 0.00000E+00
 -1       741 6.16500E+01 3.70100E+01 0.00000E+00
 -1       742 6.46500E+01 3.70100E+01 0.00000E+00
 -1       743 6.76500E+01 3.70100E+01 0.00000E+00
 -1       744 7.06500E+01 3.70100E+01 0.00000E+00
 -1       745 7.36500E+01 3.70100E+01 0.00000E+00
 -1       746 7.66500E+01 3.70100E+01 0.00000E+00
 -1       747 7.96500E+01 3.70100E+01 0.00000E+00
 -1       748 8.26500E+01 3.70100E+01 0.00000E+00
 -1       749 8.56500E+01 3.70100E+01 0.00000E+00
 -1       750 8.86500E+01 3.70100E+01 0.00000E+00
 -1       751 9.16500E+01 3.70100E+01 0.00000E+00
 -1       752 9.46500E+01 3.70100E+01 0.00000E+00
 -1       753 9.76500E+01 3.70100E+01 0.00000E+00
 -1       754 1.00650E+02 3.70100E+01 0.00000E+00
 -1       755 1.03650E+02 3.70100E+01 0.00000E+00
 -1       756 1.06650E+02 3.70100E+01 0.00000E+00
 -1       757 1.09650E+02 3.70100E+01 0.00000E+00
 -1       758 1.12650E+02 3.70100E+01 0.00000E+00
 -1       759 1.15650E+02 3.70100E+01 0.00000E+00
 -1       760 1.18650E+02 3.70100E+01 0.00000E+00
 -1       761 1.21650E+02 3.70100E+01 0.00000E+00
 -1       762 1.24650E+02 3.70100E+01 0.00000E+00
 -1       763 1.27650E+02 3.70100E+01 0.00000E+00
 -1       764 1.30650E+02 3.70100E+01 0.00000E+00
 -1       765 1.33650E+02 3.70100E+01 0.00000E+00
 -1       766 3.42000E+01 1.29900E+01 0.00000E+00
 -1       767 3.12000E+01 1.29900E+01 0.00000E+00
 -1       768 4.02000E+01 1.29900E+01 0.00000E+00
 -1       769 4.30500E+01 1.29900E+01 0.00000E+00
 -1       770 4.60500E+01 1.29900E+01 0.00000E+00
 -1       771 7.75837E+01 2.15492E+01 0.00000E+00
 -1       772 8.61750E+01 1.26098E+01 0.00000E+00
 -1       773 9.21750E+01 1.26098E+01 0.00000E+00
 -1       774 5.13851E+01 1.94036E+01 0.00000E+00
 -1       775 8.91750E+01 1.26098E+01 0.00000E+00
 -1       776 9.50250E+01 1.26098E+01 0.00000E+00
 -1       777 9.80250E+01 1.26098E+01 0.00000E+00
 -1       778 1.01025E+02 1.26098E+01 0.00000E+00
 -1       779 1.04025E+02 1.26098E+01 0.00000E+00
 -1       780 1.07025E+02 1.26098E+01 0.00000E+00
 -1       781 1.10025E+02 1.26098E+01 0.00000E+00
 -1       782 1.12875E+02 1.26098E+01 0.00000E+00
 -1       783 1.15875E+02 1.26098E+01 0.00000E+00
 -1       784 1.18875E+02 1.26098E+01 0.00000E+00
 -1       785 1.21875E+02 1.26098E+01 0.00000E+00
 -1       786 1.24875E+02 1.26098E+01 0.00000E+00
 -1       787 1.27725E+02 1.26098E+01 0.00000E+00
 -1       788 1.30725E+02 1.26098E+01 0.00000E+00
 -1       789 1.33725E+02 1.26098E+01 0.00000E+00
 -1       790 1.36725E+02 1.26098E+01 0.00000E+00
 -1       791 5.14104E+01 2.36111E+01 0.00000E+00
 -1       792 7.90580E+01 1.38033E+01 0.00000E+00
 -1       793 5.03593E+01 1.30302E+01 0.00000E+00
 -1       794 1.37010E+02 3.38500E+01 0.00000E+00
 -1       795 1.37010E+02 3.09000E+01 0.00000E+00
 -1       796 1.01981E+01 3.73352E+01 0.00000E+00
 -1       797 7.37029E+01 2.74242E+01 0.00000E+00
 -1       798 6.44576E+01 3.08762E+01 0.00000E+00
 -1       799 5.81998E+01 2.90120E+01 0.00000E+00
 -1       800 1.93500E+01 1.29900E+01 0.00000E+00
 -1       801 8.03250E+01 1.26098E+01 0.00000E+00
 -1       802 7.85757E+01 1.92634E+01 0.00000E+00
 -1       803 7.59250E+01 2.49124E+01 0.00000E+00
 -1       804 8.32500E+01 1.26098E+01 0.00000E+00
 -1       805 4.92097E+01 1.74138E+01 0.00000E+00
 -1       806 1.37010E+02 2.20750E+01 0.00000E+00
 -1       807 5.32184E+01 2.58787E+01 0.00000E+00
 -1       808 2.23500E+01 1.29900E+01 0.00000E+00
 -1       809 6.09100E+01 3.00642E+01 0.00000E+00
 -1       810 7.88341E+01 1.65811E+01 0.00000E+00
 -1       811 1.37337E+02 3.67436E+01 0.00000E+00
 -1       812 1.29900E+01 2.20250E+01 0.00000E+00
 -1       813 6.81844E+01 2.98541E+01 0.00000E+00
 -1       814 3.72000E+01 1.29900E+01 0.00000E+00
 -1       815 7.10339E+01 2.87757E+01 0.00000E+00
 -1       816 4.99034E+01 2.13546E+01 0.00000E+00
 -1       817 1.29900E+01 1.61437E+01 0.00000E+00
 -1       818 1.29900E+01 3.37938E+01 0.00000E+00
 -1       819 2.82750E+01 1.29900E+01 0.00000E+00
 -1       820 4.83740E+01 1.46158E+01 0.00000E+00
 -1       821 1.37010E+02 1.91375E+01 0.00000E+00
 -1       822 1.29900E+01 1.90875E+01 0.00000E+00
 -1       823 1.37010E+02 2.79625E+01 0.00000E+00
 -1       824 2.52750E+01 1.29900E+01 0.00000E+00
 -1       825 1.37010E+02 1.62000E+01 0.00000E+00
 -1       826 6.66454E+01 3.22211E+01 0.00000E+00
 -1       827 1.63501E+01 1.29900E+01 0.00000E+00
 -1       828 1.29900E+01 3.08563E+01 0.00000E+00
 -1       829 1.29900E+01 2.49750E+01 0.00000E+00
 -1       830 1.37010E+02 2.50187E+01 0.00000E+00
 -1       831 4.95565E+01 1.93842E+01 0.00000E+00
 -1       832 1.81500E+01 3.44120E+01 0.00000E+00
 -1       833 2.11500E+01 3.44120E+01 0.00000E+00
 -1       834 2.41500E+01 3.44120E+01 0.00000E+00
 -1       835 2.71500E+01 3.44120E+01 0.00000E+00
 -1       836 3.01500E+01 3.44120E+01 0.00000E+00
 -1       837 3.31500E+01 3.44120E+01 0.00000E+00
 -1       838 3.61500E+01 3.44120E+01 0.00000E+00
 -1       839 3.91500E+01 3.44120E+01 0.00000E+00
 -1       840 4.21500E+01 3.44120E+01 0.00000E+00
 -1       841 4.51500E+01 3.44120E+01 0.00000E+00
 -1       842 4.81500E+01 3.44120E+01 0.00000E+00
 -1       843 5.11500E+01 3.44120E+01 0.00000E+00
 -1       844 5.41500E+01 3.44120E+01 0.00000E+00
 -1       845 5.71500E+01 3.44120E+01 0.00000E+00
 -1       846 6.01500E+01 3.44120E+01 0.00000E+00
 -1       847 6.31500E+01 3.44120E+01 0.00000E+00
 -1       848 7.21500E+01 3.44120E+01 0.00000E+00
 -1       849 7.51500E+01 3.44120E+01 0.00000E+00
 -1       850 7.81500E+01 3.44120E+01 0.00000E+00
 -1       851 8.11500E+01 3.44120E+01 0.00000E+00
 -1       852 8.41500E+01 3.44120E+01 0.00000E+00
 -1       853 8.71500E+01 3.44120E+01 0.00000E+00
 -1       854 9.01500E+01 3.44120E+01 0.00000E+00
 -1       855 9.31500E+01 3.44120E+01 0.00000E+00
 -1       856 9.61500E+01 3.44120E+01 0.00000E+00
 -1       857 9.91500E+01 3.44120E+01 0.00000E+00
 -1       858 1.02150E+02 3.44120E+01 0.00000E+00
 -1       859 1.05150E+02 3.44120E+01 0.00000E+00
 -1       860 1.08150E+02 3.44120E+01 0.00000E+00
 -1       861 1.11150E+02 3.44120E+01 0.00000E+00
 -1       862 1.14150E+02 3.44120E+01 0.00000E+00
 -1       863 1.17150E+02 3.44120E+01 0.00000E+00
 -1       864 1.20150E+02 3.44120E+01 0.00000E+00
 -1       865 1.23150E+02 3.44120E+01 0.00000E+00
 -1       866 1.26150E+02 3.44120E+01 0.00000E+00
 -1       867 1.29150E+02 3.44120E+01 0.00000E+00
 -1       868 1.32150E+02 3.44120E+01 0.00000E+00
 -1       869 4.45500E+01 1.53754E+01 0.00000E+00
 -1       870 4.17000E+01 1.53754E+01 0.00000E+00
 -1       871 7.67598E+01 2.78897E+01 0.00000E+00
 -1       872 9.36000E+01 1.52078E+01 0.00000E+00
 -1       873 1.34580E+02 3.41310E+01 0.00000E+00
 -1       874 7.35421E+01 3.04178E+01 0.00000E+00
 -1       875 1.02525E+02 1.52078E+01 0.00000E+00
 -1       876 1.05525E+02 1.52078E+01 0.00000E+00
 -1       877 1.08525E+02 1.52078E+01 0.00000E+00
 -1       878 1.11375E+02 1.52078E+01 0.00000E+00
 -1       879 1.14375E+02 1.52078E+01 0.00000E+00
 -1       880 1.17375E+02 1.52078E+01 0.00000E+00
 -1       881 1.20375E+02 1.52078E+01 0.00000E+00
 -1       882 1.23375E+02 1.52078E+01 0.00000E+00
 -1       883 1.26225E+02 1.52078E+01 0.00000E+00
 -1       884 1.29225E+02 1.52078E+01 0.00000E+00
 -1       885 1.32225E+02 1.52078E+01 0.00000E+00
 -1       886 1.34617E+02 1.57039E+01 0.00000E+00
 -1       887 5.57222E+01 3.06178E+01 0.00000E+00
 -1       888 1.78501E+01 1.55880E+01 0.00000E+00
 -1       889 5.28329E+01 2.88003E+01 0.00000E+00
 -1       890 5.86917E+01 3.17618E+01 0.00000E+00
 -1       891 1.34580E+02 3.11810E+01 0.00000E+00
 -1       892 5.03182E+01 2.63364E+01 0.00000E+00
 -1       893 1.29900E+01 2.79188E+01 0.00000E+00
 -1       894 8.09125E+01 1.81349E+01 0.00000E+00
 -1       895 8.02679E+01 2.13560E+01 0.00000E+00
 -1       896 9.66000E+01 1.52078E+01 0.00000E+00
 -1       897 3.87000E+01 1.53754E+01 0.00000E+00
 -1       898 9.95625E+01 1.52078E+01 0.00000E+00
 -1       899 2.08501E+01 1.55880E+01 0.00000E+00
 -1       900 3.27000E+01 1.55880E+01 0.00000E+00
 -1       901 7.04535E+01 3.15459E+01 0.00000E+00
 -1       902 7.90440E+01 2.43600E+01 0.00000E+00
 -1       903 4.88126E+01 2.37146E+01 0.00000E+00
 -1       904 1.55700E+01 3.41029E+01 0.00000E+00
 -1       905 3.57000E+01 1.55880E+01 0.00000E+00
 -1       906 8.10420E+01 1.45955E+01 0.00000E+00
 -1       907 2.97750E+01 1.55880E+01 0.00000E+00
 -1       908 6.91500E+01 3.44120E+01 0.00000E+00
 -1       909 9.06000E+01 1.52078E+01 0.00000E+00
 -1       910 4.69879E+01 1.65536E+01 0.00000E+00
 -1       911 8.76000E+01 1.52078E+01 0.00000E+00
 -1       912 1.34617E+02 1.86414E+01 0.00000E+00
 -1       913 4.71927E+01 2.15338E+01 0.00000E+00
 -1       914 1.34580E+02 2.82435E+01 0.00000E+00
 -1       915 1.55700E+01 3.11654E+01 0.00000E+00
 -1       916 1.55880E+01 2.35000E+01 0.00000E+00
 -1       917 2.37751E+01 1.55880E+01 0.00000E+00
 -1       918 1.78501E+01 1.85318E+01 0.00000E+00
 -1       919 8.46750E+01 1.52078E+01 0.00000E+00
 -1       920 1.67190E+01 2.10159E+01 0.00000E+00
 -1       921 4.73347E+01 1.85240E+01 0.00000E+00
 -1       922 1.34412E+02 2.35469E+01 0.00000E+00
 -1       923 1.34515E+02 2.10941E+01 0.00000E+00
 -1       924 1.96500E+01 3.18140E+01 0.00000E+00
 -1       925 2.26500E+01 3.18140E+01 0.00000E+00
 -1       926 2.56500E+01 3.18140E+01 0.00000E+00
 -1       927 2.86500E+01 3.18140E+01 0.00000E+00
 -1       928 3.16500E+01 3.18140E+01 0.00000E+00
 -1       929 3.46500E+01 3.18140E+01 0.00000E+00
 -1       930 3.76500E+01 3.18140E+01 0.00000E+00
 -1       931 4.06500E+01 3.18140E+01 0.00000E+00
 -1       932 4.36500E+01 3.18140E+01 0.00000E+00
 -1       933 4.66500E+01 3.18140E+01 0.00000E+00
 -1       934 4.96500E+01 3.18140E+01 0.00000E+00
 -1       935 1.55880E+01 2.64438E+01 0.00000E+00
 -1       936 7.66500E+01 3.18140E+01 0.00000E+00
 -1       937 7.96500E+01 3.18140E+01 0.00000E+00
 -1       938 8.26500E+01 3.18140E+01 0.00000E+00
 -1       939 8.56500E+01 3.18140E+01 0.00000E+00
 -1       940 8.86500E+01 3.18140E+01 0.00000E+00
 -1       941 9.16500E+01 3.18140E+01 0.00000E+00
 -1       942 9.46500E+01 3.18140E+01 0.00000E+00
 -1       943 9.76500E+01 3.18140E+01 0.00000E+00
 -1       944 1.00650E+02 3.18140E+01 0.00000E+00
 -1       945 1.03650E+02 3.18140E+01 0.00000E+00
 -1       946 1.06650E+02 3.18140E+01 0.00000E+00
 -1       947 1.09650E+02 3.18140E+01 0.00000E+00
 -1       948 1.12650E+02 3.18140E+01 0.00000E+00
 -1       949 1.15650E+02 3.18140E+01 0.00000E+00
 -1       950 1.18650E+02 3.18140E+01 0.00000E+00
 -1       951 1.21650E+02 3.18140E+01 0.00000E+00
 -1       952 1.24650E+02 3.18140E+01 0.00000E+00
 -1       953 1.27650E+02 3.18140E+01 0.00000E+00
 -1       954 1.30650E+02 3.18140E+01 0.00000E+00
 -1       955 4.31250E+01 1.77608E+01 0.00000E+00
 -1       956 3.73837E+01 1.80732E+01 0.00000E+00
 -1       957 4.73125E+01 2.63193E+01 0.00000E+00
 -1       958 1.09950E+02 1.78058E+01 0.00000E+00
 -1       959 1.04025E+02 1.78058E+01 0.00000E+00
 -1       960 1.12950E+02 1.78058E+01 0.00000E+00
 -1       961 1.15950E+02 1.78058E+01 0.00000E+00
 -1       962 1.18950E+02 1.78058E+01 0.00000E+00
 -1       963 1.21950E+02 1.78058E+01 0.00000E+00
 -1       964 1.24800E+02 1.78058E+01 0.00000E+00
 -1       965 1.27800E+02 1.78058E+01 0.00000E+00
 -1       966 1.30800E+02 1.78058E+01 0.00000E+00
 -1       967 1.32709E+02 1.82236E+01 0.00000E+00
 -1       968 4.56926E+01 2.41385E+01 0.00000E+00
 -1       969 8.00831E+01 2.75363E+01 0.00000E+00
 -1       970 1.06988E+02 1.78058E+01 0.00000E+00
 -1       971 3.43837E+01 1.80732E+01 0.00000E+00
 -1       972 5.19915E+01 3.16061E+01 0.00000E+00
 -1       973 2.67750E+01 1.55880E+01 0.00000E+00
 -1       974 1.55790E+01 2.88046E+01 0.00000E+00
 -1       975 8.35285E+01 1.64586E+01 0.00000E+00
 -1       976 1.34496E+02 2.58952E+01 0.00000E+00
 -1       977 4.96520E+01 2.89627E+01 0.00000E+00
 -1       978 9.51000E+01 1.78058E+01 0.00000E+00
 -1       979 4.02543E+01 1.79170E+01 0.00000E+00
 -1       980 8.20619E+01 2.38382E+01 0.00000E+00
 -1       981 8.27649E+01 2.01807E+01 0.00000E+00
 -1       982 1.76100E+01 3.14897E+01 0.00000E+00
 -1       983 4.41913E+01 2.15396E+01 0.00000E+00
 -1       984 3.14587E+01 1.80732E+01 0.00000E+00
 -1       985 1.30650E+02 2.88765E+01 0.00000E+00
 -1       986 9.80625E+01 1.78058E+01 0.00000E+00
 -1       987 9.21000E+01 1.78058E+01 0.00000E+00
 -1       988 8.91000E+01 1.78058E+01 0.00000E+00
 -1       989 2.11697E+01 1.89143E+01 0.00000E+00
 -1       990 1.31858E+02 2.48139E+01 0.00000E+00
 -1       991 1.01063E+02 1.78058E+01 0.00000E+00
 -1       992 1.81860E+01 2.49719E+01 0.00000E+00
 -1       993 1.31960E+02 2.23612E+01 0.00000E+00
 -1       994 1.93170E+01 2.24878E+01 0.00000E+00
 -1       995 2.41500E+01 2.92160E+01 0.00000E+00
 -1       996 2.71500E+01 2.92160E+01 0.00000E+00
 -1       997 3.01500E+01 2.92160E+01 0.00000E+00
 -1       998 3.31500E+01 2.92160E+01 0.00000E+00
 -1       999 3.61500E+01 2.92160E+01 0.00000E+00
 -1      1000 3.91500E+01 2.92160E+01 0.00000E+00
 -1      1001 4.21500E+01 2.92160E+01 0.00000E+00
 -1      1002 4.51500E+01 2.92160E+01 0.00000E+00
 -1      1003 8.71500E+01 2.92160E+01 0.00000E+00
 -1      1004 9.01500E+01 2.92160E+01 0.00000E+00
 -1      1005 9.31500E+01 2.92160E+01 0.00000E+00
 -1      1006 9.61500E+01 2.92160E+01 0.00000E+00
 -1      1007 9.91500E+01 2.92160E+01 0.00000E+00
 -1      1008 1.02150E+02 2.92160E+01 0.00000E+00
 -1      1009 1.05150E+02 2.92160E+01 0.00000E+00
 -1      1010 1.08150E+02 2.92160E+01 0.00000E+00
 -1      1011 1.11150E+02 2.92160E+01 0.00000E+00
 -1      1012 1.14150E+02 2.92160E+01 0.00000E+00
 -1      1013 1.17150E+02 2.92160E+01 0.00000E+00
 -1      1014 1.20150E+02 2.92160E+01 0.00000E+00
 -1      1015 1.23150E+02 2.92160E+01 0.00000E+00
 -1      1016 1.26150E+02 2.92160E+01 0.00000E+00
 -1      1017 1.28400E+02 2.90462E+01 0.00000E+00
 -1      1018 8.56476E+01 1.88327E+01 0.00000E+00
 -1      1019 4.13206E+01 2.16958E+01 0.00000E+00
 -1      1020 3.58837E+01 2.06712E+01 0.00000E+00
 -1      1021 1.11450E+02 2.04038E+01 0.00000E+00
 -1      1022 1.20450E+02 2.04038E+01 0.00000E+00
 -1      1023 1.23300E+02 2.04038E+01 0.00000E+00
 -1      1024 1.26300E+02 2.04038E+01 0.00000E+00
 -1      1025 1.29300E+02 2.04038E+01 0.00000E+00
 -1      1026 4.44170E+01 2.67781E+01 0.00000E+00
 -1      1027 8.49647E+01 2.24998E+01 0.00000E+00
 -1      1028 8.33632E+01 2.69130E+01 0.00000E+00
 -1      1029 1.17450E+02 2.04038E+01 0.00000E+00
 -1      1030 1.14450E+02 2.04038E+01 0.00000E+00
 -1      1031 8.61001E+01 1.78058E+01 0.00000E+00
 -1      1032 1.31254E+02 2.68452E+01 0.00000E+00
 -1      1033 2.45176E+01 1.88532E+01 0.00000E+00
 -1      1034 1.81770E+01 2.73327E+01 0.00000E+00
 -1      1035 4.28219E+01 2.42947E+01 0.00000E+00
 -1      1036 1.32335E+02 2.02924E+01 0.00000E+00
 -1      1037 2.11500E+01 2.92160E+01 0.00000E+00
 -1      1038 2.84587E+01 1.80732E+01 0.00000E+00
 -1      1039 1.29313E+02 2.34788E+01 0.00000E+00
 -1      1040 4.81500E+01 2.92160E+01 0.00000E+00
 -1      1041 3.29587E+01 2.06712E+01 0.00000E+00
 -1      1042 9.65813E+01 2.04038E+01 0.00000E+00
 -1      1043 9.35813E+01 2.04038E+01 0.00000E+00
 -1      1044 9.05813E+01 2.04038E+01 0.00000E+00
 -1      1045 1.08488E+02 2.04038E+01 0.00000E+00
 -1      1046 8.62659E+01 2.55746E+01 0.00000E+00
 -1      1047 1.05525E+02 2.04038E+01 0.00000E+00
 -1      1048 1.02563E+02 2.04038E+01 0.00000E+00
 -1      1049 1.28709E+02 2.55101E+01 0.00000E+00
 -1      1050 3.86021E+01 2.11835E+01 0.00000E+00
 -1      1051 2.11590E+01 2.68552E+01 0.00000E+00
 -1      1052 2.26650E+01 2.24267E+01 0.00000E+00
 -1      1053 8.76001E+01 2.04038E+01 0.00000E+00
 -1      1054 2.19120E+01 2.46409E+01 0.00000E+00
 -1      1055 2.86500E+01 2.66180E+01 0.00000E+00
 -1      1056 3.16500E+01 2.66180E+01 0.00000E+00
 -1      1057 3.46500E+01 2.66180E+01 0.00000E+00
 -1      1058 3.76500E+01 2.66180E+01 0.00000E+00
 -1      1059 4.06500E+01 2.66180E+01 0.00000E+00
 -1      1060 8.86500E+01 2.66180E+01 0.00000E+00
 -1      1061 9.16500E+01 2.66180E+01 0.00000E+00
 -1      1062 9.46500E+01 2.66180E+01 0.00000E+00
 -1      1063 9.76500E+01 2.66180E+01 0.00000E+00
 -1      1064 1.00650E+02 2.66180E+01 0.00000E+00
 -1      1065 1.03650E+02 2.66180E+01 0.00000E+00
 -1      1066 1.06650E+02 2.66180E+01 0.00000E+00
 -1      1067 1.09650E+02 2.66180E+01 0.00000E+00
 -1      1068 1.12650E+02 2.66180E+01 0.00000E+00
 -1      1069 1.15650E+02 2.66180E+01 0.00000E+00
 -1      1070 1.18650E+02 2.66180E+01 0.00000E+00
 -1      1071 1.21650E+02 2.66180E+01 0.00000E+00
 -1      1072 1.24650E+02 2.66180E+01 0.00000E+00
 -1      1073 1.24800E+02 2.30018E+01 0.00000E+00
 -1      1074 1.21950E+02 2.30018E+01 0.00000E+00
 -1      1075 8.90907E+01 2.30018E+01 0.00000E+00
 -1      1076 9.95719E+01 2.04038E+01 0.00000E+00
 -1      1077 1.28555E+02 2.72782E+01 0.00000E+00
 -1      1078 3.96261E+01 2.39008E+01 0.00000E+00
 -1      1079 1.18950E+02 2.30018E+01 0.00000E+00
 -1      1080 2.56500E+01 2.66180E+01 0.00000E+00
 -1      1081 2.66061E+01 2.16467E+01 0.00000E+00
 -1      1082 9.80766E+01 2.30018E+01 0.00000E+00
 -1      1083 2.97824E+01 2.11590E+01 0.00000E+00
 -1      1084 1.15950E+02 2.30018E+01 0.00000E+00
 -1      1085 9.50766E+01 2.30018E+01 0.00000E+00
 -1      1086 3.44212E+01 2.32692E+01 0.00000E+00
 -1      1087 1.26602E+02 2.69481E+01 0.00000E+00
 -1      1088 9.20836E+01 2.30018E+01 0.00000E+00
 -1      1089 1.09969E+02 2.30018E+01 0.00000E+00
 -1      1090 1.12959E+02 2.30018E+01 0.00000E+00
 -1      1091 1.07006E+02 2.30018E+01 0.00000E+00
 -1      1092 1.04044E+02 2.30018E+01 0.00000E+00
 -1      1093 3.70236E+01 2.35850E+01 0.00000E+00
 -1      1094 3.01500E+01 2.40200E+01 0.00000E+00
 -1      1095 1.01060E+02 2.30018E+01 0.00000E+00
 -1      1096 2.58531E+01 2.38610E+01 0.00000E+00
 -1      1097 0.00000E+00 4.85250E+01 0.00000E+00
 -1      1098 0.00000E+00 4.55750E+01 0.00000E+00
 -1      1099 0.00000E+00 4.26250E+01 0.00000E+00
 -1      1100 0.00000E+00 3.96750E+01 0.00000E+00
 -1      1101 0.00000E+00 3.67250E+01 0.00000E+00
 -1      1102 0.00000E+00 3.38000E+01 0.00000E+00
 -1      1103 0.00000E+00 3.08750E+01 0.00000E+00
 -1      1104 0.00000E+00 2.79250E+01 0.00000E+00
 -1      1105 0.00000E+00 2.49750E+01 0.00000E+00
 -1      1106 0.00000E+00 2.20250E+01 0.00000E+00
 -1      1107 0.00000E+00 1.90750E+01 0.00000E+00
 -1      1108 0.00000E+00 1.61500E+01 0.00000E+00
 -1      1109 0.00000E+00 1.32250E+01 0.00000E+00
 -1      1110 0.00000E+00 1.02750E+01 0.00000E+00
 -1      1111 0.00000E+00 7.32500E+00 0.00000E+00
 -1      1112 0.00000E+00 4.37500E+00 0.00000E+00
 -1      1113 0.00000E+00 1.45000E+00 0.00000E+00
 -1      1114 1.57500E+00 5.00000E+01 0.00000E+00
 -1      1115 4.65000E+00 5.00000E+01 0.00000E+00
 -1      1116 7.65000E+00 5.00000E+01 0.00000E+00
 -1      1117 1.06500E+01 5.00000E+01 0.00000E+00
 -1      1118 1.36500E+01 5.00000E+01 0.00000E+00
 -1      1119 1.66500E+01 5.00000E+01 0.00000E+00
 -1      1120 1.96500E+01 5.00000E+01 0.00000E+00
 -1      1121 2.26500E+01 5.00000E+01 0.00000E+00
 -1      1122 2.56500E+01 5.00000E+01 0.00000E+00
 -1      1123 2.86500E+01 5.00000E+01 0.00000E+00
 -1      1124 3.16500E+01 5.00000E+01 0.00000E+00
 -1      1125 3.46500E+01 5.00000E+01 0.00000E+00
 -1      1126 3.76500E+01 5.00000E+01 0.00000E+00
 -1      1127 4.06500E+01 5.00000E+01 0.00000E+00
 -1      1128 4.36500E+01 5.00000E+01 0.00000E+00
 -1      1129 4.66500E+01 5.00000E+01 0.00000E+00
 -1      1130 4.96500E+01 5.00000E+01 0.00000E+00
 -1      1131 5.26500E+01 5.00000E+01 0.00000E+00
 -1      1132 5.56500E+01 5.00000E+01 0.00000E+00
 -1      1133 5.86500E+01 5.00000E+01 0.00000E+00
 -1      1134 6.16500E+01 5.00000E+01 0.00000E+00
 -1      1135 6.46500E+01 5.00000E+01 0.00000E+00
 -1      1136 6.76500E+01 5.00000E+01 0.00000E+00
 -1      1137 7.06500E+01 5.00000E+01 0.00000E+00
 -1      1138 7.36500E+01 5.00000E+01 0.00000E+00
 -1      1139 7.66500E+01 5.00000E+01 0.00000E+00
 -1      1140 7.96500E+01 5.00000E+01 0.00000E+00
 -1      1141 8.26500E+01 5.00000E+01 0.00000E+00
 -1      1142 8.56500E+01 5.00000E+01 0.00000E+00
 -1      1143 8.86500E+01 5.00000E+01 0.00000E+00
 -1      1144 9.16500E+01 5.00000E+01 0.00000E+00
 -1      1145 9.46500E+01 5.00000E+01 0.00000E+00
 -1      1146 9.76500E+01 5.00000E+01 0.00000E+00
 -1      1147 1.00650E+02 5.00000E+01 0.00000E+00
 -1      1148 1.03650E+02 5.00000E+01 0.00000E+00
 -1      1149 1.06650E+02 5.00000E+01 0.00000E+00
 -1      1150 1.09650E+02 5.00000E+01 0.00000E+00
 -1      1151 1.12650E+02 5.00000E+01 0.00000E+00
 -1      1152 1.15650E+02 5.00000E+01 0.00000E+00
 -1      1153 1.18650E+02 5.00000E+01 0.00000E+00
 -1      1154 1.21650E+02 5.00000E+01 0.00000E+00
 -1      1155 1.24650E+02 5.00000E+01 0.00000E+00
 -1      1156 1.27650E+02 5.00000E+01 0.00000E+00
 -1      1157 1.30650E+02 5.00000E+01 0.00000E+00
 -1      1158 1.33650E+02 5.00000E+01 0.00000E+00
 -1      1159 1.36650E+02 5.00000E+01 0.00000E+00
 -1      1160 1.39650E+02 5.00000E+01 0.00000E+00
 -1      1161 1.42650E+02 5.00000E+01 0.00000E+00
 -1      1162 1.45650E+02 5.00000E+01 0.00000E+00
 -1      1163 1.48575E+02 5.00000E+01 0.00000E+00
 -1      1164 1.50000E+00 0.00000E+00 0.00000E+00
 -1      1165 4.50000E+00 0.00000E+00 0.00000E+00
 -1      1166 7.50000E+00 0.00000E+00 0.00000E+00
 -1      1167 1.05000E+01 0.00000E+00 0.00000E+00
 -1      1168 1.35000E+01 0.00000E+00 0.00000E+00
 -1      1169 1.64250E+01 0.00000E+00 0.00000E+00
 -1      1170 1.93500E+01 0.00000E+00 0.00000E+00
 -1      1171 2.23500E+01 0.00000E+00 0.00000E+00
 -1      1172 2.53500E+01 0.00000E+00 0.00000E+00
 -1      1173 2.83500E+01 0.00000E+00 0.00000E+00
 -1      1174 3.12750E+01 0.00000E+00 0.00000E+00
 -1      1175 3.42000E+01 0.00000E+00 0.00000E+00
 -1      1176 3.72000E+01 0.00000E+00 0.00000E+00
 -1      1177 4.02000E+01 0.00000E+00 0.00000E+00
 -1      1178 4.32000E+01 0.00000E+00 0.00000E+00
 -1      1179 4.62000E+01 0.00000E+00 0.00000E+00
 -1      1180 4.91250E+01 0.00000E+00 0.00000E+00
 -1      1181 5.20500E+01 0.00000E+00 0.00000E+00
 -1      1182 5.50500E+01 0.00000E+00 0.00000E+00
 -1      1183 5.80500E+01 0.00000E+00 0.00000E+00
 -1      1184 6.09000E+01 0.00000E+00 0.00000E+00
 -1      1185 6.34500E+01 0.00000E+00 0.00000E+00
 -1      1186 6.60000E+01 0.00000E+00 0.00000E+00
 -1      1187 6.86250E+01 0.00000E+00 0.00000E+00
 -1      1188 7.13250E+01 0.00000E+00 0.00000E+00
 -1      1189 7.42500E+01 0.00000E+00 0.00000E+00
 -1      1190 7.72500E+01 0.00000E+00 0.00000E+00
 -1      1191 8.02500E+01 0.00000E+00 0.00000E+00
 -1      1192 8.32500E+01 0.00000E+00 0.00000E+00
 -1      1193 8.61750E+01 0.00000E+00 0.00000E+00
 -1      1194 8.91000E+01 0.00000E+00 0.00000E+00
 -1      1195 9.21000E+01 0.00000E+00 0.00000E+00
 -1      1196 9.51000E+01 0.00000E+00 0.00000E+00
 -1      1197 9.81000E+01 0.00000E+00 0.00000E+00
 -1      1198 1.01025E+02 0.00000E+00 0.00000E+00
 -1      1199 1.03950E+02 0.00000E+00 0.00000E+00
 -1      1200 1.06950E+02 0.00000E+00 0.00000E+00
 -1      1201 1.09950E+02 0.00000E+00 0.00000E+00
 -1      1202 1.12950E+02 0.00000E+00 0.00000E+00
 -1      1203 1.15950E+02 0.00000E+00 0.00000E+00
 -1      1204 1.18875E+02 0.00000E+00 0.00000E+00
 -1      1205 1.21800E+02 0.00000E+00 0.00000E+00
 -1      1206 1.24800E+02 0.00000E+00 0.00000E+00
 -1      1207 1.27800E+02 0.00000E+00 0.00000E+00
 -1      1208 1.30800E+02 0.00000E+00 0.00000E+00
 -1      1209 1.33725E+02 0.00000E+00 0.00000E+00
 -1      1210 1.36650E+02 0.00000E+00 0.00000E+00
 -1      1211 1.39650E+02 0.00000E+00 0.00000E+00
 -1      1212 1.42650E+02 0.00000E+00 0.00000E+00
 -1      1213 1.45650E+02 0.00000E+00 0.00000E+00
 -1      1214 1.48575E+02 0.00000E+00 0.00000E+00
 -1      1215 1.50000E+02 1.47500E+00 0.00000E+00
 -1      1216 1.50000E+02 4.42500E+00 0.00000E+00
 -1      1217 1.50000E+02 7.37500E+00 0.00000E+00
 -1      1218 1.50000E+02 1.03250E+01 0.00000E+00
 -1      1219 1.50000E+02 1.32750E+01 0.00000E+00
 -1      1220 1.50000E+02 1.62000E+01 0.00000E+00
 -1      1221 1.50000E+02 1.91250E+01 0.00000E+00
 -1      1222 1.50000E+02 2.20750E+01 0.00000E+00
 -1      1223 1.50000E+02 2.50250E+01 0.00000E+00
 -1      1224 1.50000E+02 2.79750E+01 0.00000E+00
 -1      1225 1.50000E+02 3.09250E+01 0.00000E+00
 -1      1226 1.50000E+02 3.38500E+01 0.00000E+00
 -1      1227 1.50000E+02 3.67750E+01 0.00000E+00
 -1      1228 1.50000E+02 3.97250E+01 0.00000E+00
 -1      1229 1.50000E+02 4.26750E+01 0.00000E+00
 -1      1230 1.50000E+02 4.56250E+01 0.00000E+00
 -1      1231 1.50000E+02 4.85500E+01 0.00000E+00
 -1      1232 7.09663E+01 1.42782E+01 0.00000E+00
 -1      1233 7.06765E+01 1.28739E+01 0.00000E+00
 -1      1234 7.00795E+01 1.15102E+01 0.00000E+00
 -1      1235 6.92033E+01 1.02987E+01 0.00000E+00
 -1      1236 6.80922E+01 9.30267E+00 0.00000E+00
 -1      1237 6.67550E+01 8.54742E+00 0.00000E+00
 -1      1238 6.52823E+01 8.10138E+00 0.00000E+00
 -1      1239 6.38177E+01 7.98570E+00 0.00000E+00
 -1      1240 6.23567E+01 8.17935E+00 0.00000E+00
 -1      1241 6.08569E+01 8.72957E+00 0.00000E+00
 -1      1242 5.95401E+01 9.58955E+00 0.00000E+00
 -1      1243 5.84815E+01 1.06792E+01 0.00000E+00
 -1      1244 5.76798E+01 1.19780E+01 0.00000E+00
 -1      1245 5.71898E+01 1.33720E+01 0.00000E+00
 -1      1246 5.70047E+01 1.47845E+01 0.00000E+00
 -1      1247 5.71090E+01 1.62032E+01 0.00000E+00
 -1      1248 5.74956E+01 1.75656E+01 0.00000E+00
 -1      1249 5.81492E+01 1.88234E+01 0.00000E+00
 -1      1250 5.90491E+01 1.99300E+01 0.00000E+00
 -1      1251 6.01157E+01 2.08054E+01 0.00000E+00
 -1      1252 6.14150E+01 2.14877E+01 0.00000E+00
 -1      1253 6.28450E+01 2.18870E+01 0.00000E+00
 -1      1254 6.42662E+01 2.19783E+01 0.00000E+00
 -1      1255 6.57181E+01 2.17696E+01 0.00000E+00
 -1      1256 6.70759E+01 2.12722E+01 0.00000E+00
 -1      1257 6.83071E+01 2.05028E+01 0.00000E+00
 -1      1258 6.93794E+01 1.94646E+01 0.00000E+00
 -1      1259 7.01758E+01 1.82823E+01 0.00000E+00
 -1      1260 7.07032E+01 1.70062E+01 0.00000E+00
 -1      1261 7.09692E+01 1.56586E+01 0.00000E+00
 -1      1262 1.57500E+00 4.85250E+01 0.00000E+00
 -1      1263 1.29900E+00 4.48375E+01 0.00000E+00
 -1      1264 1.29900E+00 4.63125E+01 0.00000E+00
 -1      1265 1.29900E+00 4.18875E+01 0.00000E+00
 -1      1266 1.29900E+00 4.33625E+01 0.00000E+00
 -1      1267 2.59800E+00 4.41000E+01 0.00000E+00
 -1      1268 1.29900E+00 3.89375E+01 0.00000E+00
 -1      1269 1.29900E+00 4.04125E+01 0.00000E+00
 -1      1270 2.59800E+00 4.11500E+01 0.00000E+00
 -1      1271 1.29900E+00 3.59875E+01 0.00000E+00
 -1      1272 1.29900E+00 3.74625E+01 0.00000E+00
 -1      1273 2.59800E+00 3.82000E+01 0.00000E+00
 -1      1274 1.29900E+00 3.30875E+01 0.00000E+00
 -1      1275 1.29900E+00 3.45375E+01 0.00000E+00
 -1      1276 2.59800E+00 3.52750E+01 0.00000E+00
 -1      1277 1.29900E+00 3.01375E+01 0.00000E+00
 -1      1278 1.29900E+00 3.16125E+01 0.00000E+00
 -1      1279 2.59800E+00 3.23500E+01 0.00000E+00
 -1      1280 1.29900E+00 2.71875E+01 0.00000E+00
 -1      1281 1.29900E+00 2.86625E+01 0.00000E+00
 -1      1282 2.59800E+00 2.94000E+01 0.00000E+00
 -1      1283 1.29900E+00 2.42375E+01 0.00000E+00
 -1      1284 1.29900E+00 2.57125E+01 0.00000E+00
 -1      1285 2.59800E+00 2.64500E+01 0.00000E+00
 -1      1286 1.29900E+00 2.12875E+01 0.00000E+00
 -1      1287 1.29900E+00 2.27625E+01 0.00000E+00
 -1      1288 2.59800E+00 2.35000E+01 0.00000E+00
 -1      1289 1.29900E+00 1.83375E+01 0.00000E+00
 -1      1290 1.29900E+00 1.98125E+01 0.00000E+00
 -1      1291 2.59800E+00 2.05500E+01 0.00000E+00
 -1      1292 1.29900E+00 1.54375E+01 0.00000E+00
 -1      1293 1.29900E+00 1.68875E+01 0.00000E+00
 -1      1294 2.59800E+00 1.76250E+01 0.00000E+00
 -1      1295 1.29900E+00 1.24875E+01 0.00000E+00
 -1      1296 1.29900E+00 1.39625E+01 0.00000E+00
 -1      1297 2.59800E+00 1.47000E+01 0.00000E+00
 -1      1298 1.29900E+00 9.53750E+00 0.00000E+00
 -1      1299 1.29900E+00 1.10125E+01 0.00000E+00
 -1      1300 2.59800E+00 1.17500E+01 0.00000E+00
 -1      1301 1.29900E+00 6.58750E+00 0.00000E+00
 -1      1302 1.29900E+00 8.06250E+00 0.00000E+00
 -1      1303 2.59800E+00 8.80000E+00 0.00000E+00
 -1      1304 1.29900E+00 3.63750E+00 0.00000E+00
 -1      1305 1.29900E+00 5.11250E+00 0.00000E+00
 -1      1306 2.59800E+00 5.85000E+00 0.00000E+00
 -1      1307 1.50000E+00 1.45000E+00 0.00000E+00
 -1      1308 3.90000E+00 4.87010E+01 0.00000E+00
 -1      1309 5.40000E+00 4.87010E+01 0.00000E+00
 -1      1310 6.90000E+00 4.87010E+01 0.00000E+00
 -1      1311 8.40000E+00 4.87010E+01 0.00000E+00
 -1      1312 6.15000E+00 4.74020E+01 0.00000E+00
 -1      1313 9.90000E+00 4.87010E+01 0.00000E+00
 -1      1314 1.14000E+01 4.87010E+01 0.00000E+00
 -1      1315 9.15000E+00 4.74020E+01 0.00000E+00
 -1      1316 1.29000E+01 4.87010E+01 0.00000E+00
 -1      1317 1.44000E+01 4.87010E+01 0.00000E+00
 -1      1318 1.21500E+01 4.74020E+01 0.00000E+00
 -1      1319 1.59000E+01 4.87010E+01 0.00000E+00
 -1      1320 1.74000E+01 4.87010E+01 0.00000E+00
 -1      1321 1.51500E+01 4.74020E+01 0.00000E+00
 -1      1322 1.89000E+01 4.87010E+01 0.00000E+00
 -1      1323 2.04000E+01 4.87010E+01 0.00000E+00
 -1      1324 1.81500E+01 4.74020E+01 0.00000E+00
 -1      1325 2.19000E+01 4.87010E+01 0.00000E+00
 -1      1326 2.34000E+01 4.87010E+01 0.00000E+00
 -1      1327 2.11500E+01 4.74020E+01 0.00000E+00
 -1      1328 2.49000E+01 4.87010E+01 0.00000E+00
 -1      1329 2.64000E+01 4.87010E+01 0.00000E+00
 -1      1330 2.41500E+01 4.74020E+01 0.00000E+00
 -1      1331 2.79000E+01 4.87010E+01 0.00000E+00
 -1      1332 2.94000E+01 4.87010E+01 0.00000E+00
 -1      1333 2.71500E+01 4.74020E+01 0.00000E+00
 -1      1334 3.09000E+01 4.87010E+01 0.00000E+00
 -1      1335 3.24000E+01 4.87010E+01 0.00000E+00
 -1      1336 3.01500E+01 4.74020E+01 0.00000E+00
 -1      1337 3.39000E+01 4.87010E+01 0.00000E+00
 -1      1338 3.54000E+01 4.87010E+01 0.00000E+00
 -1      1339 3.31500E+01 4.74020E+01 0.00000E+00
 -1      1340 3.69000E+01 4.87010E+01 0.00000E+00
 -1      1341 3.84000E+01 4.87010E+01 0.00000E+00
 -1      1342 3.61500E+01 4.74020E+01 0.00000E+00
 -1      1343 3.99000E+01 4.87010E+01 0.00000E+00
 -1      1344 4.14000E+01 4.87010E+01 0.00000E+00
 -1      1345 3.91500E+01 4.74020E+01 0.00000E+00
 -1      1346 4.29000E+01 4.87010E+01 0.00000E+00
 -1      1347 4.44000E+01 4.87010E+01 0.00000E+00
 -1      1348 4.21500E+01 4.74020E+01 0.00000E+00
 -1      1349 4.59000E+01 4.87010E+01 0.00000E+00
 -1      1350 4.74000E+01 4.87010E+01 0.00000E+00
 -1      1351 4.51500E+01 4.74020E+01 0.00000E+00
 -1      1352 4.89000E+01 4.87010E+01 0.00000E+00
 -1      1353 5.04000E+01 4.87010E+01 0.00000E+00
 -1      1354 4.81500E+01 4.74020E+01 0.00000E+00
 -1      1355 5.19000E+01 4.87010E+01 0.00000E+00
 -1      1356 5.34000E+01 4.87010E+01 0.00000E+00
 -1      1357 5.11500E+01 4.74020E+01 0.00000E+00
 -1      1358 5.49000E+01 4.87010E+01 0.00000E+00
 -1      1359 5.64000E+01 4.87010E+01 0.00000E+00
 -1      1360 5.41500E+01 4.74020E+01 0.00000E+00
 -1      1361 5.79000E+01 4.87010E+01 0.00000E+00
 -1      1362 5.94000E+01 4.87010E+01 0.00000E+00
 -1      1363 5.71500E+01 4.74020E+01 0.00000E+00
 -1      1364 6.09000E+01 4.87010E+01 0.00000E+00
 -1      1365 6.24000E+01 4.87010E+01 0.00000E+00
 -1      1366 6.01500E+01 4.74020E+01 0.00000E+00
 -1      1367 6.39000E+01 4.87010E+01 0.00000E+00
 -1      1368 6.54000E+01 4.87010E+01 0.00000E+00
 -1      1369 6.31500E+01 4.74020E+01 0.00000E+00
 -1      1370 6.69000E+01 4.87010E+01 0.00000E+00
 -1      1371 6.84000E+01 4.87010E+01 0.00000E+00
 -1      1372 6.61500E+01 4.74020E+01 0.00000E+00
 -1      1373 6.99000E+01 4.87010E+01 0.00000E+00
 -1      1374 7.14000E+01 4.87010E+01 0.00000E+00
 -1      1375 6.91500E+01 4.74020E+01 0.00000E+00
 -1      1376 7.29000E+01 4.87010E+01 0.00000E+00
 -1      1377 7.44000E+01 4.87010E+01 0.00000E+00
 -1      1378 7.21500E+01 4.74020E+01 0.00000E+00
 -1      1379 7.59000E+01 4.87010E+01 0.00000E+00
 -1      1380 7.74000E+01 4.87010E+01 0.00000E+00
 -1      1381 7.51500E+01 4.74020E+01 0.00000E+00
 -1      1382 7.89000E+01 4.87010E+01 0.00000E+00
 -1      1383 8.04000E+01 4.87010E+01 0.00000E+00
 -1      1384 7.81500E+01 4.74020E+01 0.00000E+00
 -1      1385 8.19000E+01 4.87010E+01 0.00000E+00
 -1      1386 8.34000E+01 4.87010E+01 0.00000E+00
 -1      1387 8.11500E+01 4.74020E+01 0.00000E+00
 -1      1388 8.49000E+01 4.87010E+01 0.00000E+00
 -1      1389 8.64000E+01 4.87010E+01 0.00000E+00
 -1      1390 8.41500E+01 4.74020E+01 0.00000E+00
 -1      1391 8.79000E+01 4.87010E+01 0.00000E+00
 -1      1392 8.94000E+01 4.87010E+01 0.00000E+00
 -1      1393 8.71500E+01 4.74020E+01 0.00000E+00
 -1      1394 9.09000E+01 4.87010E+01 0.00000E+00
 -1      1395 9.24000E+01 4.87010E+01 0.00000E+00
 -1      1396 9.01500E+01 4.74020E+01 0.00000E+00
 -1      1397 9.39000E+01 4.87010E+01 0.00000E+00
 -1      1398 9.54000E+01 4.87010E+01 0.00000E+00
 -1      1399 9.31500E+01 4.74020E+01 0.00000E+00
 -1      1400 9.69000E+01 4.87010E+01 0.00000E+00
 -1      1401 9.84000E+01 4.87010E+01 0.00000E+00
 -1      1402 9.61500E+01 4.74020E+01 0.00000E+00
 -1      1403 9.99000E+01 4.87010E+01 0.00000E+00
 -1      1404 1.01400E+02 4.87010E+01 0.00000E+00
 -1      1405 9.91500E+01 4.74020E+01 0.00000E+00
 -1      1406 1.02900E+02 4.87010E+01 0.00000E+00
 -1      1407 1.04400E+02 4.87010E+01 0.00000E+00
 -1      1408 1.02150E+02 4.74020E+01 0.00000E+00
 -1      1409 1.05900E+02 4.87010E+01 0.00000E+00
 -1      1410 1.07400E+02 4.87010E+01 0.00000E+00
 -1      1411 1.05150E+02 4.74020E+01 0.00000E+00
 -1      1412 1.08900E+02 4.87010E+01 0.00000E+00
 -1      1413 1.10400E+02 4.87010E+01 0.00000E+00
 -1      1414 1.08150E+02 4.74020E+01 0.00000E+00
 -1      1415 1.11900E+02 4.87010E+01 0.00000E+00
 -1      1416 1.13400E+02 4.87010E+01 0.00000E+00
 -1      1417 1.11150E+02 4.74020E+01 0.00000E+00
 -1      1418 1.14900E+02 4.87010E+01 0.00000E+00
 -1      1419 1.16400E+02 4.87010E+01 0.00000E+00
 -1      1420 1.14150E+02 4.74020E+01 0.00000E+00
 -1      1421 1.17900E+02 4.87010E+01 0.00000E+00
 -1      1422 1.19400E+02 4.87010E+01 0.00000E+00
 -1      1423 1.17150E+02 4.74020E+01 0.00000E+00
 -1      1424 1.20900E+02 4.87010E+01 0.00000E+00
 -1      1425 1.22400E+02 4.87010E+01 0.00000E+00
 -1      1426 1.20150E+02 4.74020E+01 0.00000E+00
 -1      1427 1.23900E+02 4.87010E+01 0.00000E+00
 -1      1428 1.25400E+02 4.87010E+01 0.00000E+00
 -1      1429 1.23150E+02 4.74020E+01 0.00000E+00
 -1      1430 1.26900E+02 4.87010E+01 0.00000E+00
 -1      1431 1.28400E+02 4.87010E+01 0.00000E+00
 -1      1432 1.26150E+02 4.74020E+01 0.00000E+00
 -1      1433 1.29900E+02 4.87010E+01 0.00000E+00
 -1      1434 1.31400E+02 4.87010E+01 0.00000E+00
 -1      1435 1.29150E+02 4.74020E+01 0.00000E+00
 -1      1436 1.32900E+02 4.87010E+01 0.00000E+00
 -1      1437 1.34400E+02 4.87010E+01 0.00000E+00
 -1      1438 1.32150E+02 4.74020E+01 0.00000E+00
 -1      1439 1.35900E+02 4.87010E+01 0.00000E+00
 -1      1440 1.37400E+02 4.87010E+01 0.00000E+00
 -1      1441 1.35150E+02 4.74020E+01 0.00000E+00
 -1      1442 1.38900E+02 4.87010E+01 0.00000E+00
 -1      1443 1.40400E+02 4.87010E+01 0.00000E+00
 -1      1444 1.38150E+02 4.74020E+01 0.00000E+00
 -1      1445 1.41900E+02 4.87010E+01 0.00000E+00
 -1      1446 1.43400E+02 4.87010E+01 0.00000E+00
 -1      1447 1.41150E+02 4.74020E+01 0.00000E+00
 -1      1448 1.44900E+02 4.87010E+01 0.00000E+00
 -1      1449 1.46400E+02 4.87010E+01 0.00000E+00
 -1      1450 1.44150E+02 4.74020E+01 0.00000E+00
 -1      1451 1.48575E+02 4.85500E+01 0.00000E+00
 -1      1452 1.47825E+02 4.72510E+01 0.00000E+00
 -1      1453 5.25000E+00 1.29900E+00 0.00000E+00
 -1      1454 3.75000E+00 1.29900E+00 0.00000E+00
 -1      1455 8.25000E+00 1.29900E+00 0.00000E+00
 -1      1456 6.75000E+00 1.29900E+00 0.00000E+00
 -1      1457 6.00000E+00 2.59800E+00 0.00000E+00
 -1      1458 1.12500E+01 1.29900E+00 0.00000E+00
 -1      1459 9.75000E+00 1.29900E+00 0.00000E+00
 -1      1460 9.00000E+00 2.59800E+00 0.00000E+00
 -1      1461 1.42500E+01 1.29900E+00 0.00000E+00
 -1      1462 1.27500E+01 1.29900E+00 0.00000E+00
 -1      1463 1.20000E+01 2.59800E+00 0.00000E+00
 -1      1464 1.71000E+01 1.29900E+00 0.00000E+00
 -1      1465 1.56750E+01 1.29900E+00 0.00000E+00
 -1      1466 1.49250E+01 2.59800E+00 0.00000E+00
 -1      1467 2.01000E+01 1.29900E+00 0.00000E+00
 -1      1468 1.86000E+01 1.29900E+00 0.00000E+00
 -1      1469 1.78500E+01 2.59800E+00 0.00000E+00
 -1      1470 2.31000E+01 1.29900E+00 0.00000E+00
 -1      1471 2.16000E+01 1.29900E+00 0.00000E+00
 -1      1472 2.08500E+01 2.59800E+00 0.00000E+00
 -1      1473 2.61000E+01 1.29900E+00 0.00000E+00
 -1      1474 2.46000E+01 1.29900E+00 0.00000E+00
 -1      1475 2.38500E+01 2.59800E+00 0.00000E+00
 -1      1476 2.91000E+01 1.29900E+00 0.00000E+00
 -1      1477 2.76000E+01 1.29900E+00 0.00000E+00
 -1      1478 2.68500E+01 2.59800E+00 0.00000E+00
 -1      1479 3.19500E+01 1.29900E+00 0.00000E+00
 -1      1480 3.05250E+01 1.29900E+00 0.00000E+00
 -1      1481 2.97750E+01 2.59800E+00 0.00000E+00
 -1      1482 3.49500E+01 1.29900E+00 0.00000E+00
 -1      1483 3.34500E+01 1.29900E+00 0.00000E+00
 -1      1484 3.27000E+01 2.59800E+00 0.00000E+00
 -1      1485 3.79500E+01 1.29900E+00 0.00000E+00
 -1      1486 3.64500E+01 1.29900E+00 0.00000E+00
 -1      1487 3.57000E+01 2.59800E+00 0.00000E+00
 -1      1488 4.09500E+01 1.29900E+00 0.00000E+00
 -1      1489 3.94500E+01 1.29900E+00 0.00000E+00
 -1      1490 3.87000E+01 2.59800E+00 0.00000E+00
 -1      1491 4.39500E+01 1.29900E+00 0.00000E+00
 -1      1492 4.24500E+01 1.29900E+00 0.00000E+00
 -1      1493 4.17000E+01 2.59800E+00 0.00000E+00
 -1      1494 4.69500E+01 1.29900E+00 0.00000E+00
 -1      1495 4.54500E+01 1.29900E+00 0.00000E+00
 -1      1496 4.47000E+01 2.59800E+00 0.00000E+00
 -1      1497 4.98000E+01 1.29900E+00 0.00000E+00
 -1      1498 4.83750E+01 1.29900E+00 0.00000E+00
 -1      1499 4.76250E+01 2.59800E+00 0.00000E+00
 -1      1500 5.28000E+01 1.29900E+00 0.00000E+00
 -1      1501 5.13000E+01 1.29900E+00 0.00000E+00
 -1      1502 5.05500E+01 2.59800E+00 0.00000E+00
 -1      1503 5.58000E+01 1.29900E+00 0.00000E+00
 -1      1504 5.43000E+01 1.29900E+00 0.00000E+00
 -1      1505 5.35500E+01 2.59800E+00 0.00000E+00
 -1      1506 5.88000E+01 1.29900E+00 0.00000E+00
 -1      1507 5.73000E+01 1.29900E+00 0.00000E+00
 -1      1508 5.65500E+01 2.59800E+00 0.00000E+00
 -1      1509 6.15000E+01 1.29900E+00 0.00000E+00
 -1      1510 6.01500E+01 1.29900E+00 0.00000E+00
 -1      1511 5.94000E+01 2.59800E+00 0.00000E+00
 -1      1512 6.39000E+01 1.29900E+00 0.00000E+00
 -1      1513 6.27000E+01 1.29900E+00 0.00000E+00
 -1      1514 6.19500E+01 2.59800E+00 0.00000E+00
 -1      1515 6.66000E+01 1.29900E+00 0.00000E+00
 -1      1516 6.52500E+01 1.29900E+00 0.00000E+00
 -1      1517 6.45000E+01 2.59800E+00 0.00000E+00
 -1      1518 6.91500E+01 1.29900E+00 0.00000E+00
 -1      1519 6.78750E+01 1.29900E+00 0.00000E+00
 -1      1520 6.71250E+01 2.59800E+00 0.00000E+00
 -1      1521 7.20000E+01 1.29900E+00 0.00000E+00
 -1      1522 7.05750E+01 1.29900E+00 0.00000E+00
 -1      1523 6.98250E+01 2.59800E+00 0.00000E+00
 -1      1524 7.50000E+01 1.29900E+00 0.00000E+00
 -1      1525 7.35000E+01 1.29900E+00 0.00000E+00
 -1      1526 7.27500E+01 2.59800E+00 0.00000E+00
 -1      1527 7.80000E+01 1.29900E+00 0.00000E+00
 -1      1528 7.65000E+01 1.29900E+00 0.00000E+00
 -1      1529 7.57500E+01 2.59800E+00 0.00000E+00
 -1      1530 8.10000E+01 1.29900E+00 0.00000E+00
 -1      1531 7.95000E+01 1.29900E+00 0.00000E+00
 -1      1532 7.87500E+01 2.59800E+00 0.00000E+00
 -1      1533 8.40000E+01 1.29900E+00 0.00000E+00
 -1      1534 8.25000E+01 1.29900E+00 0.00000E+00
 -1      1535 8.17500E+01 2.59800E+00 0.00000E+00
 -1      1536 8.68500E+01 1.29900E+00 0.00000E+00
 -1      1537 8.54250E+01 1.29900E+00 0.00000E+00
 -1      1538 8.46750E+01 2.59800E+00 0.00000E+00
 -1      1539 8.98500E+01 1.29900E+00 0.00000E+00
 -1      1540 8.83500E+01 1.29900E+00 0.00000E+00
 -1      1541 8.76000E+01 2.59800E+00 0.00000E+00
 -1      1542 9.28500E+01 1.29900E+00 0.00000E+00
 -1      1543 9.13500E+01 1.29900E+00 0.00000E+00
 -1      1544 9.06000E+01 2.59800E+00 0.00000E+00
 -1      1545 9.58500E+01 1.29900E+00 0.00000E+00
 -1      1546 9.43500E+01 1.29900E+00 0.00000E+00
 -1      1547 9.36000E+01 2.59800E+00 0.00000E+00
 -1      1548 9.88500E+01 1.29900E+00 0.00000E+00
 -1      1549 9.73500E+01 1.29900E+00 0.00000E+00
 -1      1550 9.66000E+01 2.59800E+00 0.00000E+00
 -1      1551 1.01700E+02 1.29900E+00 0.00000E+00
 -1      1552 1.00275E+02 1.29900E+00 0.00000E+00
 -1      1553 9.95250E+01 2.59800E+00 0.00000E+00
 -1      1554 1.04700E+02 1.29900E+00 0.00000E+00
 -1      1555 1.03200E+02 1.29900E+00 0.00000E+00
 -1      1556 1.02450E+02 2.59800E+00 0.00000E+00
 -1      1557 1.07700E+02 1.29900E+00 0.00000E+00
 -1      1558 1.06200E+02 1.29900E+00 0.00000E+00
 -1      1559 1.05450E+02 2.59800E+00 0.00000E+00
 -1      1560 1.10700E+02 1.29900E+00 0.00000E+00
 -1      1561 1.09200E+02 1.29900E+00 0.00000E+00
 -1      1562 1.08450E+02 2.59800E+00 0.00000E+00
 -1      1563 1.13700E+02 1.29900E+00 0.00000E+00
 -1      1564 1.12200E+02 1.29900E+00 0.00000E+00
 -1      1565 1.11450E+02 2.59800E+00 0.00000E+00
 -1      1566 1.16700E+02 1.29900E+00 0.00000E+00
 -1      1567 1.15200E+02 1.29900E+00 0.00000E+00
 -1      1568 1.14450E+02 2.59800E+00 0.00000E+00
 -1      1569 1.19550E+02 1.29900E+00 0.00000E+00
 -1      1570 1.18125E+02 1.29900E+00 0.00000E+00
 -1      1571 1.17375E+02 2.59800E+00 0.00000E+00
 -1      1572 1.22550E+02 1.29900E+00 0.00000E+00
 -1      1573 1.21050E+02 1.29900E+00 0.00000E+00
 -1      1574 1.20300E+02 2.59800E+00 0.00000E+00
 -1      1575 1.25550E+02 1.29900E+00 0.00000E+00
 -1      1576 1.24050E+02 1.29900E+00 0.00000E+00
 -1      1577 1.23300E+02 2.59800E+00 0.00000E+00
 -1      1578 1.28550E+02 1.29900E+00 0.00000E+00
 -1      1579 1.27050E+02 1.29900E+00 0.00000E+00
 -1      1580 1.26300E+02 2.59800E+00 0.00000E+00
 -1      1581 1.31550E+02 1.29900E+00 0.00000E+00
 -1      1582 1.30050E+02 1.29900E+00 0.00000E+00
 -1      1583 1.29300E+02 2.59800E+00 0.00000E+00
 -1      1584 1.34400E+02 1.29900E+00 0.00000E+00
 -1      1585 1.32975E+02 1.29900E+00 0.00000E+00
 -1      1586 1.32225E+02 2.59800E+00 0.00000E+00
 -1      1587 1.37400E+02 1.29900E+00 0.00000E+00
 -1      1588 1.35900E+02 1.29900E+00 0.00000E+00
 -1      1589 1.35150E+02 2.59800E+00 0.00000E+00
 -1      1590 1.40400E+02 1.29900E+00 0.00000E+00
 -1      1591 1.38900E+02 1.29900E+00 0.00000E+00
 -1      1592 1.38150E+02 2.59800E+00 0.00000E+00
 -1      1593 1.43400E+02 1.29900E+00 0.00000E+00
 -1      1594 1.41900E+02 1.29900E+00 0.00000E+00
 -1      1595 1.41150E+02 2.59800E+00 0.00000E+00
 -1      1596 1.46400E+02 1.29900E+00 0.00000E+00
 -1      1597 1.44900E+02 1.29900E+00 0.00000E+00
 -1      1598 1.44150E+02 2.59800E+00 0.00000E+00
 -1      1599 1.48575E+02 1.47500E+00 0.00000E+00
 -1      1600 1.48701E+02 5.16250E+00 0.00000E+00
 -1      1601 1.48701E+02 3.68750E+00 0.00000E+00
 -1      1602 1.48701E+02 8.11250E+00 0.00000E+00
 -1      1603 1.48701E+02 6.63750E+00 0.00000E+00
 -1      1604 1.47402E+02 5.90000E+00 0.00000E+00
 -1      1605 1.48701E+02 1.10625E+01 0.00000E+00
 -1      1606 1.48701E+02 9.58750E+00 0.00000E+00
 -1      1607 1.47402E+02 8.85000E+00 0.00000E+00
 -1      1608 1.48701E+02 1.40125E+01 0.00000E+00
 -1      1609 1.48701E+02 1.25375E+01 0.00000E+00
 -1      1610 1.47402E+02 1.18000E+01 0.00000E+00
 -1      1611 1.48701E+02 1.69125E+01 0.00000E+00
 -1      1612 1.48701E+02 1.54625E+01 0.00000E+00
 -1      1613 1.47402E+02 1.47250E+01 0.00000E+00
 -1      1614 1.48701E+02 1.98625E+01 0.00000E+00
 -1      1615 1.48701E+02 1.83875E+01 0.00000E+00
 -1      1616 1.47402E+02 1.76500E+01 0.00000E+00
 -1      1617 1.48701E+02 2.28125E+01 0.00000E+00
 -1      1618 1.48701E+02 2.13375E+01 0.00000E+00
 -1      1619 1.47402E+02 2.06000E+01 0.00000E+00
 -1      1620 1.48701E+02 2.57625E+01 0.00000E+00
 -1      1621 1.48701E+02 2.42875E+01 0.00000E+00
 -1      1622 1.47402E+02 2.35500E+01 0.00000E+00
 -1      1623 1.48701E+02 2.87125E+01 0.00000E+00
 -1      1624 1.48701E+02 2.72375E+01 0.00000E+00
 -1      1625 1.47402E+02 2.65000E+01 0.00000E+00
 -1      1626 1.48701E+02 3.16625E+01 0.00000E+00
 -1      1627 1.48701E+02 3.01875E+01 0.00000E+00
 -1      1628 1.47402E+02 2.94500E+01 0.00000E+00
 -1      1629 1.48701E+02 3.45625E+01 0.00000E+00
 -1      1630 1.48701E+02 3.31125E+01 0.00000E+00
 -1      1631 1.47402E+02 3.23750E+01 0.00000E+00
 -1      1632 1.48701E+02 3.75125E+01 0.00000E+00
 -1      1633 1.48701E+02 3.60375E+01 0.00000E+00
 -1      1634 1.47402E+02 3.53000E+01 0.00000E+00
 -1      1635 1.48701E+02 4.04625E+01 0.00000E+00
 -1      1636 1.48701E+02 3.89875E+01 0.00000E+00
 -1      1637 1.47402E+02 3.82500E+01 0.00000E+00
 -1      1638 1.48701E+02 4.34125E+01 0.00000E+00
 -1      1639 1.48701E+02 4.19375E+01 0.00000E+00
 -1      1640 1.47402E+02 4.12000E+01 0.00000E+00
 -1      1641 1.48263E+02 4.60692E+01 0.00000E+00
 -1      1642 1.48263E+02 4.45942E+01 0.00000E+00
 -1      1643 1.46964E+02 4.38568E+01 0.00000E+00
 -1      1644 1.46088E+02 4.62202E+01 0.00000E+00
 -1      1645 7.14985E+01 1.38699E+01 0.00000E+00
 -1      1646 7.15695E+01 1.45715E+01 0.00000E+00
 -1      1647 7.11084E+01 1.23552E+01 0.00000E+00
 -1      1648 7.13280E+01 1.30501E+01 0.00000E+00
 -1      1649 7.04542E+01 1.08586E+01 0.00000E+00
 -1      1650 7.08312E+01 1.15183E+01 0.00000E+00
 -1      1651 6.94101E+01 9.61774E+00 0.00000E+00
 -1      1652 6.99022E+01 1.01642E+01 0.00000E+00
 -1      1653 6.81153E+01 8.62290E+00 0.00000E+00
 -1      1654 6.87295E+01 9.06517E+00 0.00000E+00
 -1      1655 6.66348E+01 7.83836E+00 0.00000E+00
 -1      1656 6.73509E+01 8.14468E+00 0.00000E+00
 -1      1657 6.50274E+01 7.39420E+00 0.00000E+00
 -1      1658 6.57745E+01 7.53321E+00 0.00000E+00
 -1      1659 6.34483E+01 7.42503E+00 0.00000E+00
 -1      1660 6.41572E+01 7.40638E+00 0.00000E+00
 -1      1661 6.18426E+01 7.67997E+00 0.00000E+00
 -1      1662 6.25858E+01 7.50027E+00 0.00000E+00
 -1      1663 6.01595E+01 8.26984E+00 0.00000E+00
 -1      1664 6.09036E+01 7.89561E+00 0.00000E+00
 -1      1665 5.88937E+01 9.38843E+00 0.00000E+00
 -1      1666 5.94637E+01 8.91690E+00 0.00000E+00
 -1      1667 5.77981E+01 1.06405E+01 0.00000E+00
 -1      1668 5.82774E+01 1.00259E+01 0.00000E+00
 -1      1669 5.69703E+01 1.20542E+01 0.00000E+00
 -1      1670 5.72909E+01 1.13796E+01 0.00000E+00
 -1      1671 5.65530E+01 1.35968E+01 0.00000E+00
 -1      1672 5.67212E+01 1.28857E+01 0.00000E+00
 -1      1673 5.64234E+01 1.51150E+01 0.00000E+00
 -1      1674 5.64431E+01 1.44215E+01 0.00000E+00
 -1      1675 5.65718E+01 1.66684E+01 0.00000E+00
 -1      1676 5.64448E+01 1.59507E+01 0.00000E+00
 -1      1677 5.70904E+01 1.80962E+01 0.00000E+00
 -1      1678 5.68368E+01 1.74573E+01 0.00000E+00
 -1      1679 5.78395E+01 1.94632E+01 0.00000E+00
 -1      1680 5.74390E+01 1.88528E+01 0.00000E+00
 -1      1681 5.88907E+01 2.05801E+01 0.00000E+00
 -1      1682 5.83987E+01 2.00875E+01 0.00000E+00
 -1      1683 6.00820E+01 2.14716E+01 0.00000E+00
 -1      1684 5.95134E+01 2.10920E+01 0.00000E+00
 -1      1685 6.15405E+01 2.22328E+01 0.00000E+00
 -1      1686 6.08121E+01 2.19431E+01 0.00000E+00
 -1      1687 6.30893E+01 2.25494E+01 0.00000E+00
 -1      1688 6.23982E+01 2.24336E+01 0.00000E+00
 -1      1689 6.46506E+01 2.25748E+01 0.00000E+00
 -1      1690 6.39278E+01 2.26021E+01 0.00000E+00
 -1      1691 6.62380E+01 2.23090E+01 0.00000E+00
 -1      1692 6.55171E+01 2.24913E+01 0.00000E+00
 -1      1693 6.76422E+01 2.16308E+01 0.00000E+00
 -1      1694 6.70111E+01 2.19393E+01 0.00000E+00
 -1      1695 6.89765E+01 2.07516E+01 0.00000E+00
 -1      1696 6.83856E+01 2.12125E+01 0.00000E+00
 -1      1697 7.00525E+01 1.95420E+01 0.00000E+00
 -1      1698 6.95768E+01 2.01128E+01 0.00000E+00
 -1      1699 7.08418E+01 1.82512E+01 0.00000E+00
 -1      1700 7.05202E+01 1.88532E+01 0.00000E+00
 -1      1701 7.13510E+01 1.68371E+01 0.00000E+00
 -1      1702 7.11492E+01 1.75055E+01 0.00000E+00
 -1      1703 7.15727E+01 1.53779E+01 0.00000E+00
 -1      1704 7.15075E+01 1.60501E+01 0.00000E+00
 -1      1705 2.79900E+00 2.18750E+00 0.00000E+00
 -1      1706 7.06897E+01 1.01517E+01 0.00000E+00
 -1      1707 1.47825E+02 2.77400E+00 0.00000E+00
 -1      1708 7.19667E+01 1.33398E+01 0.00000E+00
 -1      1709 7.15190E+01 1.16830E+01 0.00000E+00
 -1      1710 7.21403E+01 1.49661E+01 0.00000E+00
 -1      1711 6.94572E+01 8.90466E+00 0.00000E+00
 -1      1712 6.80122E+01 7.87388E+00 0.00000E+00
 -1      1713 6.63874E+01 7.09051E+00 0.00000E+00
 -1      1714 6.46570E+01 6.79754E+00 0.00000E+00
 -1      1715 6.29244E+01 6.88495E+00 0.00000E+00
 -1      1716 6.11229E+01 7.17581E+00 0.00000E+00
 -1      1717 5.94881E+01 8.03850E+00 0.00000E+00
 -1      1718 5.81760E+01 9.32301E+00 0.00000E+00
 -1      1719 5.70525E+01 1.06995E+01 0.00000E+00
 -1      1720 5.62963E+01 1.22702E+01 0.00000E+00
 -1      1721 5.59372E+01 1.39264E+01 0.00000E+00
 -1      1722 5.58487E+01 1.55868E+01 0.00000E+00
 -1      1723 5.61351E+01 1.72115E+01 0.00000E+00
 -1      1724 5.67488E+01 1.87570E+01 0.00000E+00
 -1      1725 5.76566E+01 2.01379E+01 0.00000E+00
 -1      1726 5.88385E+01 2.12741E+01 0.00000E+00
 -1      1727 6.01912E+01 2.22575E+01 0.00000E+00
 -1      1728 6.17790E+01 2.29299E+01 0.00000E+00
 -1      1729 6.34752E+01 2.31834E+01 0.00000E+00
 -1      1730 6.51802E+01 2.31526E+01 0.00000E+00
 -1      1731 6.68198E+01 2.26994E+01 0.00000E+00
 -1      1732 6.83362E+01 2.19114E+01 0.00000E+00
 -1      1733 6.96800E+01 2.08543E+01 0.00000E+00
 -1      1734 7.07480E+01 1.95267E+01 0.00000E+00
 -1      1735 7.15230E+01 1.80922E+01 0.00000E+00
 -1      1736 7.19870E+01 1.65595E+01 0.00000E+00
 -1      1737 2.87400E+00 4.77875E+01 0.00000E+00
 -1      1738 3.89700E+00 4.04125E+01 0.00000E+00
 -1      1739 3.89700E+00 4.18875E+01 0.00000E+00
 -1      1740 3.89700E+00 4.33625E+01 0.00000E+00
 -1      1741 3.89700E+00 4.48375E+01 0.00000E+00
 -1      1742 5.19600E+00 4.26250E+01 0.00000E+00
 -1      1743 3.89700E+00 3.45500E+01 0.00000E+00
 -1      1744 3.89700E+00 3.60000E+01 0.00000E+00
 -1      1745 3.89700E+00 3.16000E+01 0.00000E+00
 -1      1746 3.89700E+00 3.30750E+01 0.00000E+00
 -1      1747 5.19600E+00 3.38000E+01 0.00000E+00
 -1      1748 3.89700E+00 2.86500E+01 0.00000E+00
 -1      1749 3.89700E+00 3.01250E+01 0.00000E+00
 -1      1750 5.19600E+00 3.08500E+01 0.00000E+00
 -1      1751 3.89700E+00 2.57000E+01 0.00000E+00
 -1      1752 3.89700E+00 2.71750E+01 0.00000E+00
 -1      1753 5.19600E+00 2.79000E+01 0.00000E+00
 -1      1754 3.89700E+00 2.27500E+01 0.00000E+00
 -1      1755 3.89700E+00 2.42250E+01 0.00000E+00
 -1      1756 5.19600E+00 2.49500E+01 0.00000E+00
 -1      1757 3.89700E+00 1.98000E+01 0.00000E+00
 -1      1758 3.89700E+00 2.12750E+01 0.00000E+00
 -1      1759 5.19600E+00 2.20000E+01 0.00000E+00
 -1      1760 3.89700E+00 1.69000E+01 0.00000E+00
 -1      1761 3.89700E+00 1.83500E+01 0.00000E+00
 -1      1762 5.19600E+00 1.90750E+01 0.00000E+00
 -1      1763 3.89700E+00 1.39500E+01 0.00000E+00
 -1      1764 3.89700E+00 1.54250E+01 0.00000E+00
 -1      1765 5.19600E+00 1.61500E+01 0.00000E+00
 -1      1766 3.89700E+00 1.10000E+01 0.00000E+00
 -1      1767 3.89700E+00 1.24750E+01 0.00000E+00
 -1      1768 5.19600E+00 1.32000E+01 0.00000E+00
 -1      1769 3.89700E+00 8.05000E+00 0.00000E+00
 -1      1770 3.89700E+00 9.52500E+00 0.00000E+00
 -1      1771 5.19600E+00 1.02500E+01 0.00000E+00
 -1      1772 3.89700E+00 5.10000E+00 0.00000E+00
 -1      1773 3.89700E+00 6.57500E+00 0.00000E+00
 -1      1774 5.19600E+00 7.30000E+00 0.00000E+00
 -1      1775 7.09538E+01 9.37508E+00 0.00000E+00
 -1      1776 7.15059E+01 1.00695E+01 0.00000E+00
 -1      1777 3.62400E+00 4.64885E+01 0.00000E+00
 -1      1778 3.54900E+00 3.48650E+00 0.00000E+00
 -1      1779 8.40000E+00 4.61030E+01 0.00000E+00
 -1      1780 9.90000E+00 4.61030E+01 0.00000E+00
 -1      1781 1.14000E+01 4.61030E+01 0.00000E+00
 -1      1782 1.29000E+01 4.61030E+01 0.00000E+00
 -1      1783 1.06500E+01 4.48040E+01 0.00000E+00
 -1      1784 1.44000E+01 4.61030E+01 0.00000E+00
 -1      1785 1.59000E+01 4.61030E+01 0.00000E+00
 -1      1786 1.36500E+01 4.48040E+01 0.00000E+00
 -1      1787 1.74000E+01 4.61030E+01 0.00000E+00
 -1      1788 1.89000E+01 4.61030E+01 0.00000E+00
 -1      1789 1.66500E+01 4.48040E+01 0.00000E+00
 -1      1790 2.04000E+01 4.61030E+01 0.00000E+00
 -1      1791 2.19000E+01 4.61030E+01 0.00000E+00
 -1      1792 1.96500E+01 4.48040E+01 0.00000E+00
 -1      1793 2.34000E+01 4.61030E+01 0.00000E+00
 -1      1794 2.49000E+01 4.61030E+01 0.00000E+00
 -1      1795 2.26500E+01 4.48040E+01 0.00000E+00
 -1      1796 2.64000E+01 4.61030E+01 0.00000E+00
 -1      1797 2.79000E+01 4.61030E+01 0.00000E+00
 -1      1798 2.56500E+01 4.48040E+01 0.00000E+00
 -1      1799 2.94000E+01 4.61030E+01 0.00000E+00
 -1      1800 3.09000E+01 4.61030E+01 0.00000E+00
 -1      1801 2.86500E+01 4.48040E+01 0.00000E+00
 -1      1802 3.24000E+01 4.61030E+01 0.00000E+00
 -1      1803 3.39000E+01 4.61030E+01 0.00000E+00
 -1      1804 3.16500E+01 4.48040E+01 0.00000E+00
 -1      1805 3.54000E+01 4.61030E+01 0.00000E+00
 -1      1806 3.69000E+01 4.61030E+01 0.00000E+00
 -1      1807 3.46500E+01 4.48040E+01 0.00000E+00
 -1      1808 3.84000E+01 4.61030E+01 0.00000E+00
 -1      1809 3.99000E+01 4.61030E+01 0.00000E+00
 -1      1810 3.76500E+01 4.48040E+01 0.00000E+00
 -1      1811 4.14000E+01 4.61030E+01 0.00000E+00
 -1      1812 4.29000E+01 4.61030E+01 0.00000E+00
 -1      1813 4.06500E+01 4.48040E+01 0.00000E+00
 -1      1814 4.44000E+01 4.61030E+01 0.00000E+00
 -1      1815 4.59000E+01 4.61030E+01 0.00000E+00
 -1      1816 4.36500E+01 4.48040E+01 0.00000E+00
 -1      1817 4.74000E+01 4.61030E+01 0.00000E+00
 -1      1818 4.89000E+01 4.61030E+01 0.00000E+00
 -1      1819 4.66500E+01 4.48040E+01 0.00000E+00
 -1      1820 5.04000E+01 4.61030E+01 0.00000E+00
 -1      1821 5.19000E+01 4.61030E+01 0.00000E+00
 -1      1822 4.96500E+01 4.48040E+01 0.00000E+00
 -1      1823 5.34000E+01 4.61030E+01 0.00000E+00
 -1      1824 5.49000E+01 4.61030E+01 0.00000E+00
 -1      1825 5.26500E+01 4.48040E+01 0.00000E+00
 -1      1826 5.64000E+01 4.61030E+01 0.00000E+00
 -1      1827 5.79000E+01 4.61030E+01 0.00000E+00
 -1      1828 5.56500E+01 4.48040E+01 0.00000E+00
 -1      1829 5.94000E+01 4.61030E+01 0.00000E+00
 -1      1830 6.09000E+01 4.61030E+01 0.00000E+00
 -1      1831 5.86500E+01 4.48040E+01 0.00000E+00
 -1      1832 6.24000E+01 4.61030E+01 0.00000E+00
 -1      1833 6.39000E+01 4.61030E+01 0.00000E+00
 -1      1834 6.16500E+01 4.48040E+01 0.00000E+00
 -1      1835 6.54000E+01 4.61030E+01 0.00000E+00
 -1      1836 6.69000E+01 4.61030E+01 0.00000E+00
 -1      1837 6.46500E+01 4.48040E+01 0.00000E+00
 -1      1838 6.84000E+01 4.61030E+01 0.00000E+00
 -1      1839 6.99000E+01 4.61030E+01 0.00000E+00
 -1      1840 6.76500E+01 4.48040E+01 0.00000E+00
 -1      1841 7.14000E+01 4.61030E+01 0.00000E+00
 -1      1842 7.29000E+01 4.61030E+01 0.00000E+00
 -1      1843 7.06500E+01 4.48040E+01 0.00000E+00
 -1      1844 7.44000E+01 4.61030E+01 0.00000E+00
 -1      1845 7.59000E+01 4.61030E+01 0.00000E+00
 -1      1846 7.36500E+01 4.48040E+01 0.00000E+00
 -1      1847 7.74000E+01 4.61030E+01 0.00000E+00
 -1      1848 7.89000E+01 4.61030E+01 0.00000E+00
 -1      1849 7.66500E+01 4.48040E+01 0.00000E+00
 -1      1850 8.04000E+01 4.61030E+01 0.00000E+00
 -1      1851 8.19000E+01 4.61030E+01 0.00000E+00
 -1      1852 7.96500E+01 4.48040E+01 0.00000E+00
 -1      1853 8.34000E+01 4.61030E+01 0.00000E+00
 -1      1854 8.49000E+01 4.61030E+01 0.00000E+00
 -1      1855 8.26500E+01 4.48040E+01 0.00000E+00
 -1      1856 8.64000E+01 4.61030E+01 0.00000E+00
 -1      1857 8.79000E+01 4.61030E+01 0.00000E+00
 -1      1858 8.56500E+01 4.48040E+01 0.00000E+00
 -1      1859 8.94000E+01 4.61030E+01 0.00000E+00
 -1      1860 9.09000E+01 4.61030E+01 0.00000E+00
 -1      1861 8.86500E+01 4.48040E+01 0.00000E+00
 -1      1862 9.24000E+01 4.61030E+01 0.00000E+00
 -1      1863 9.39000E+01 4.61030E+01 0.00000E+00
 -1      1864 9.16500E+01 4.48040E+01 0.00000E+00
 -1      1865 9.54000E+01 4.61030E+01 0.00000E+00
 -1      1866 9.69000E+01 4.61030E+01 0.00000E+00
 -1      1867 9.46500E+01 4.48040E+01 0.00000E+00
 -1      1868 9.84000E+01 4.61030E+01 0.00000E+00
 -1      1869 9.99000E+01 4.61030E+01 0.00000E+00
 -1      1870 9.76500E+01 4.48040E+01 0.00000E+00
 -1      1871 1.01400E+02 4.61030E+01 0.00000E+00
 -1      1872 1.02900E+02 4.61030E+01 0.00000E+00
 -1      1873 1.00650E+02 4.48040E+01 0.00000E+00
 -1      1874 1.04400E+02 4.61030E+01 0.00000E+00
 -1      1875 1.05900E+02 4.61030E+01 0.00000E+00
 -1      1876 1.03650E+02 4.48040E+01 0.00000E+00
 -1      1877 1.07400E+02 4.61030E+01 0.00000E+00
 -1      1878 1.08900E+02 4.61030E+01 0.00000E+00
 -1      1879 1.06650E+02 4.48040E+01 0.00000E+00
 -1      1880 1.10400E+02 4.61030E+01 0.00000E+00
 -1      1881 1.11900E+02 4.61030E+01 0.00000E+00
 -1      1882 1.09650E+02 4.48040E+01 0.00000E+00
 -1      1883 1.13400E+02 4.61030E+01 0.00000E+00
 -1      1884 1.14900E+02 4.61030E+01 0.00000E+00
 -1      1885 1.12650E+02 4.48040E+01 0.00000E+00
 -1      1886 1.16400E+02 4.61030E+01 0.00000E+00
 -1      1887 1.17900E+02 4.61030E+01 0.00000E+00
 -1      1888 1.15650E+02 4.48040E+01 0.00000E+00
 -1      1889 1.19400E+02 4.61030E+01 0.00000E+00
 -1      1890 1.20900E+02 4.61030E+01 0.00000E+00
 -1      1891 1.18650E+02 4.48040E+01 0.00000E+00
 -1      1892 1.22400E+02 4.61030E+01 0.00000E+00
 -1      1893 1.23900E+02 4.61030E+01 0.00000E+00
 -1      1894 1.21650E+02 4.48040E+01 0.00000E+00
 -1      1895 1.25400E+02 4.61030E+01 0.00000E+00
 -1      1896 1.26900E+02 4.61030E+01 0.00000E+00
 -1      1897 1.24650E+02 4.48040E+01 0.00000E+00
 -1      1898 1.28400E+02 4.61030E+01 0.00000E+00
 -1      1899 1.29900E+02 4.61030E+01 0.00000E+00
 -1      1900 1.27650E+02 4.48040E+01 0.00000E+00
 -1      1901 1.31400E+02 4.61030E+01 0.00000E+00
 -1      1902 1.32900E+02 4.61030E+01 0.00000E+00
 -1      1903 1.30650E+02 4.48040E+01 0.00000E+00
 -1      1904 1.34400E+02 4.61030E+01 0.00000E+00
 -1      1905 1.35900E+02 4.61030E+01 0.00000E+00
 -1      1906 1.33650E+02 4.48040E+01 0.00000E+00
 -1      1907 1.37400E+02 4.61030E+01 0.00000E+00
 -1      1908 1.38900E+02 4.61030E+01 0.00000E+00
 -1      1909 1.36650E+02 4.48040E+01 0.00000E+00
 -1      1910 1.40400E+02 4.61030E+01 0.00000E+00
 -1      1911 1.41900E+02 4.61030E+01 0.00000E+00
 -1      1912 1.39650E+02 4.48040E+01 0.00000E+00
 -1      1913 1.43244E+02 4.61616E+01 0.00000E+00
 -1      1914 1.44744E+02 4.61616E+01 0.00000E+00
 -1      1915 1.45182E+02 4.49799E+01 0.00000E+00
 -1      1916 1.42494E+02 4.48626E+01 0.00000E+00
 -1      1917 1.27500E+01 3.89700E+00 0.00000E+00
 -1      1918 1.12500E+01 3.89700E+00 0.00000E+00
 -1      1919 9.75000E+00 3.89700E+00 0.00000E+00
 -1      1920 8.25000E+00 3.89700E+00 0.00000E+00
 -1      1921 1.05000E+01 5.19600E+00 0.00000E+00
 -1      1922 1.56000E+01 3.89700E+00 0.00000E+00
 -1      1923 1.41750E+01 3.89700E+00 0.00000E+00
 -1      1924 1.34250E+01 5.19600E+00 0.00000E+00
 -1      1925 1.86000E+01 3.89700E+00 0.00000E+00
 -1      1926 1.71000E+01 3.89700E+00 0.00000E+00
 -1      1927 1.63500E+01 5.19600E+00 0.00000E+00
 -1      1928 2.16000E+01 3.89700E+00 0.00000E+00
 -1      1929 2.01000E+01 3.89700E+00 0.00000E+00
 -1      1930 1.93500E+01 5.19600E+00 0.00000E+00
 -1      1931 2.46000E+01 3.89700E+00 0.00000E+00
 -1      1932 2.31000E+01 3.89700E+00 0.00000E+00
 -1      1933 2.23500E+01 5.19600E+00 0.00000E+00
 -1      1934 2.76000E+01 3.89700E+00 0.00000E+00
 -1      1935 2.61000E+01 3.89700E+00 0.00000E+00
 -1      1936 2.53500E+01 5.19600E+00 0.00000E+00
 -1      1937 3.04500E+01 3.89700E+00 0.00000E+00
 -1      1938 2.90250E+01 3.89700E+00 0.00000E+00
 -1      1939 2.82750E+01 5.19600E+00 0.00000E+00
 -1      1940 3.34500E+01 3.89700E+00 0.00000E+00
 -1      1941 3.19500E+01 3.89700E+00 0.00000E+00
 -1      1942 3.12000E+01 5.19600E+00 0.00000E+00
 -1      1943 3.64500E+01 3.89700E+00 0.00000E+00
 -1      1944 3.49500E+01 3.89700E+00 0.00000E+00
 -1      1945 3.42000E+01 5.19600E+00 0.00000E+00
 -1      1946 3.94500E+01 3.89700E+00 0.00000E+00
 -1      1947 3.79500E+01 3.89700E+00 0.00000E+00
 -1      1948 3.72000E+01 5.19600E+00 0.00000E+00
 -1      1949 4.24500E+01 3.89700E+00 0.00000E+00
 -1      1950 4.09500E+01 3.89700E+00 0.00000E+00
 -1      1951 4.02000E+01 5.19600E+00 0.00000E+00
 -1      1952 4.54500E+01 3.89700E+00 0.00000E+00
 -1      1953 4.39500E+01 3.89700E+00 0.00000E+00
 -1      1954 4.32000E+01 5.19600E+00 0.00000E+00
 -1      1955 4.83000E+01 3.89700E+00 0.00000E+00
 -1      1956 4.68750E+01 3.89700E+00 0.00000E+00
 -1      1957 4.61250E+01 5.19600E+00 0.00000E+00
 -1      1958 5.13000E+01 3.89700E+00 0.00000E+00
 -1      1959 4.98000E+01 3.89700E+00 0.00000E+00
 -1      1960 4.90500E+01 5.19600E+00 0.00000E+00
 -1      1961 5.43000E+01 3.89700E+00 0.00000E+00
 -1      1962 5.28000E+01 3.89700E+00 0.00000E+00
 -1      1963 5.20500E+01 5.19600E+00 0.00000E+00
 -1      1964 5.73000E+01 3.89700E+00 0.00000E+00
 -1      1965 5.58000E+01 3.89700E+00 0.00000E+00
 -1      1966 5.50500E+01 5.19600E+00 0.00000E+00
 -1      1967 6.25500E+01 3.70691E+00 0.00000E+00
 -1      1968 6.13500E+01 3.70691E+00 0.00000E+00
 -1      1969 6.77625E+01 3.53934E+00 0.00000E+00
 -1      1970 6.64875E+01 3.53934E+00 0.00000E+00
 -1      1971 7.05375E+01 3.70691E+00 0.00000E+00
 -1      1972 6.91125E+01 3.70691E+00 0.00000E+00
 -1      1973 7.35375E+01 3.70691E+00 0.00000E+00
 -1      1974 7.20375E+01 3.70691E+00 0.00000E+00
 -1      1975 7.13250E+01 4.81582E+00 0.00000E+00
 -1      1976 7.65375E+01 3.70691E+00 0.00000E+00
 -1      1977 7.50375E+01 3.70691E+00 0.00000E+00
 -1      1978 7.43250E+01 4.81582E+00 0.00000E+00
 -1      1979 7.95375E+01 3.70691E+00 0.00000E+00
 -1      1980 7.80375E+01 3.70691E+00 0.00000E+00
 -1      1981 7.73250E+01 4.81582E+00 0.00000E+00
 -1      1982 8.25375E+01 3.70691E+00 0.00000E+00
 -1      1983 8.10375E+01 3.70691E+00 0.00000E+00
 -1      1984 8.03250E+01 4.81582E+00 0.00000E+00
 -1      1985 8.53875E+01 3.70691E+00 0.00000E+00
 -1      1986 8.39625E+01 3.70691E+00 0.00000E+00
 -1      1987 8.32500E+01 4.81582E+00 0.00000E+00
 -1      1988 8.83875E+01 3.70691E+00 0.00000E+00
 -1      1989 8.68875E+01 3.70691E+00 0.00000E+00
 -1      1990 8.61750E+01 4.81582E+00 0.00000E+00
 -1      1991 9.13875E+01 3.70691E+00 0.00000E+00
 -1      1992 8.98875E+01 3.70691E+00 0.00000E+00
 -1      1993 8.91750E+01 4.81582E+00 0.00000E+00
 -1      1994 9.43875E+01 3.70691E+00 0.00000E+00
 -1      1995 9.28875E+01 3.70691E+00 0.00000E+00
 -1      1996 9.21750E+01 4.81582E+00 0.00000E+00
 -1      1997 9.73875E+01 3.70691E+00 0.00000E+00
 -1      1998 9.58875E+01 3.70691E+00 0.00000E+00
 -1      1999 9.51750E+01 4.81582E+00 0.00000E+00
 -1      2000 1.00238E+02 3.70691E+00 0.00000E+00
 -1      2001 9.88125E+01 3.70691E+00 0.00000E+00
 -1      2002 9.81000E+01 4.81582E+00 0.00000E+00
 -1      2003 1.03238E+02 3.70691E+00 0.00000E+00
 -1      2004 1.01738E+02 3.70691E+00 0.00000E+00
 -1      2005 1.01025E+02 4.81582E+00 0.00000E+00
 -1      2006 1.06238E+02 3.70691E+00 0.00000E+00
 -1      2007 1.04738E+02 3.70691E+00 0.00000E+00
 -1      2008 1.04025E+02 4.81582E+00 0.00000E+00
 -1      2009 1.09238E+02 3.70691E+00 0.00000E+00
 -1      2010 1.07738E+02 3.70691E+00 0.00000E+00
 -1      2011 1.07025E+02 4.81582E+00 0.00000E+00
 -1      2012 1.12238E+02 3.70691E+00 0.00000E+00
 -1      2013 1.10738E+02 3.70691E+00 0.00000E+00
 -1      2014 1.10025E+02 4.81582E+00 0.00000E+00
 -1      2015 1.15238E+02 3.70691E+00 0.00000E+00
 -1      2016 1.13738E+02 3.70691E+00 0.00000E+00
 -1      2017 1.13025E+02 4.81582E+00 0.00000E+00
 -1      2018 1.18088E+02 3.70691E+00 0.00000E+00
 -1      2019 1.16662E+02 3.70691E+00 0.00000E+00
 -1      2020 1.15950E+02 4.81582E+00 0.00000E+00
 -1      2021 1.21088E+02 3.70691E+00 0.00000E+00
 -1      2022 1.19588E+02 3.70691E+00 0.00000E+00
 -1      2023 1.18875E+02 4.81582E+00 0.00000E+00
 -1      2024 1.24088E+02 3.70691E+00 0.00000E+00
 -1      2025 1.22588E+02 3.70691E+00 0.00000E+00
 -1      2026 1.21875E+02 4.81582E+00 0.00000E+00
 -1      2027 1.27088E+02 3.70691E+00 0.00000E+00
 -1      2028 1.25588E+02 3.70691E+00 0.00000E+00
 -1      2029 1.24875E+02 4.81582E+00 0.00000E+00
 -1      2030 1.30087E+02 3.70691E+00 0.00000E+00
 -1      2031 1.28587E+02 3.70691E+00 0.00000E+00
 -1      2032 1.27875E+02 4.81582E+00 0.00000E+00
 -1      2033 1.32938E+02 3.70691E+00 0.00000E+00
 -1      2034 1.31512E+02 3.70691E+00 0.00000E+00
 -1      2035 1.30800E+02 4.81582E+00 0.00000E+00
 -1      2036 1.35938E+02 3.70691E+00 0.00000E+00
 -1      2037 1.34438E+02 3.70691E+00 0.00000E+00
 -1      2038 1.33725E+02 4.81582E+00 0.00000E+00
 -1      2039 1.38938E+02 3.70691E+00 0.00000E+00
 -1      2040 1.37438E+02 3.70691E+00 0.00000E+00
 -1      2041 1.36725E+02 4.81582E+00 0.00000E+00
 -1      2042 1.41938E+02 3.70691E+00 0.00000E+00
 -1      2043 1.40438E+02 3.70691E+00 0.00000E+00
 -1      2044 1.39725E+02 4.81582E+00 0.00000E+00
 -1      2045 1.44938E+02 3.70691E+00 0.00000E+00
 -1      2046 1.43438E+02 3.70691E+00 0.00000E+00
 -1      2047 1.42725E+02 4.81582E+00 0.00000E+00
 -1      2048 7.25570E+01 1.27895E+01 0.00000E+00
 -1      2049 7.27274E+01 1.36093E+01 0.00000E+00
 -1      2050 1.46103E+02 1.25375E+01 0.00000E+00
 -1      2051 1.46103E+02 1.10625E+01 0.00000E+00
 -1      2052 1.46103E+02 9.58750E+00 0.00000E+00
 -1      2053 1.46103E+02 8.11250E+00 0.00000E+00
 -1      2054 1.44804E+02 1.03250E+01 0.00000E+00
 -1      2055 1.46526E+02 3.51150E+00 0.00000E+00
 -1      2056 1.46103E+02 1.54375E+01 0.00000E+00
 -1      2057 1.46103E+02 1.39875E+01 0.00000E+00
 -1      2058 1.44804E+02 1.32500E+01 0.00000E+00
 -1      2059 1.46103E+02 1.83875E+01 0.00000E+00
 -1      2060 1.46103E+02 1.69125E+01 0.00000E+00
 -1      2061 1.44804E+02 1.61750E+01 0.00000E+00
 -1      2062 1.46103E+02 2.13375E+01 0.00000E+00
 -1      2063 1.46103E+02 1.98625E+01 0.00000E+00
 -1      2064 1.44804E+02 1.91250E+01 0.00000E+00
 -1      2065 1.46103E+02 2.42875E+01 0.00000E+00
 -1      2066 1.46103E+02 2.28125E+01 0.00000E+00
 -1      2067 1.44804E+02 2.20750E+01 0.00000E+00
 -1      2068 1.46103E+02 2.72375E+01 0.00000E+00
 -1      2069 1.46103E+02 2.57625E+01 0.00000E+00
 -1      2070 1.44804E+02 2.50250E+01 0.00000E+00
 -1      2071 1.46103E+02 3.01875E+01 0.00000E+00
 -1      2072 1.46103E+02 2.87125E+01 0.00000E+00
 -1      2073 1.44804E+02 2.79750E+01 0.00000E+00
 -1      2074 1.46103E+02 3.30875E+01 0.00000E+00
 -1      2075 1.46103E+02 3.16375E+01 0.00000E+00
 -1      2076 1.44804E+02 3.09000E+01 0.00000E+00
 -1      2077 1.46103E+02 3.60375E+01 0.00000E+00
 -1      2078 1.46103E+02 3.45625E+01 0.00000E+00
 -1      2079 1.44804E+02 3.38250E+01 0.00000E+00
 -1      2080 1.46103E+02 3.89875E+01 0.00000E+00
 -1      2081 1.46103E+02 3.75125E+01 0.00000E+00
 -1      2082 1.44804E+02 3.67750E+01 0.00000E+00
 -1      2083 1.46103E+02 4.19375E+01 0.00000E+00
 -1      2084 1.46103E+02 4.04625E+01 0.00000E+00
 -1      2085 1.44804E+02 3.97250E+01 0.00000E+00
 -1      2086 7.20354E+01 1.10476E+01 0.00000E+00
 -1      2087 7.23126E+01 1.18846E+01 0.00000E+00
 -1      2088 7.29124E+01 1.45598E+01 0.00000E+00
 -1      2089 7.29156E+01 1.53662E+01 0.00000E+00
 -1      2090 3.89700E+00 3.74688E+01 0.00000E+00
 -1      2091 3.89700E+00 3.89437E+01 0.00000E+00
 -1      2092 5.19600E+00 3.96813E+01 0.00000E+00
 -1      2093 5.19600E+00 3.67438E+01 0.00000E+00
 -1      2094 6.80403E+01 6.97877E+00 0.00000E+00
 -1      2095 6.88048E+01 7.45699E+00 0.00000E+00
 -1      2096 6.61880E+01 6.28765E+00 0.00000E+00
 -1      2097 6.70482E+01 6.59280E+00 0.00000E+00
 -1      2098 6.42111E+01 6.02993E+00 0.00000E+00
 -1      2099 6.50812E+01 6.01776E+00 0.00000E+00
 -1      2100 6.24332E+01 6.23519E+00 0.00000E+00
 -1      2101 6.32956E+01 6.15995E+00 0.00000E+00
 -1      2102 6.04615E+01 6.44783E+00 0.00000E+00
 -1      2103 6.14005E+01 6.23220E+00 0.00000E+00
 -1      2104 5.86133E+01 7.79540E+00 0.00000E+00
 -1      2105 5.93091E+01 7.14834E+00 0.00000E+00
 -1      2106 5.73718E+01 9.16215E+00 0.00000E+00
 -1      2107 5.79881E+01 8.52470E+00 0.00000E+00
 -1      2108 5.62645E+01 1.07024E+01 0.00000E+00
 -1      2109 5.67717E+01 9.96330E+00 0.00000E+00
 -1      2110 5.55509E+01 1.25000E+01 0.00000E+00
 -1      2111 5.57999E+01 1.16685E+01 0.00000E+00
 -1      2112 5.51153E+01 1.42364E+01 0.00000E+00
 -1      2113 5.52253E+01 1.34117E+01 0.00000E+00
 -1      2114 5.51696E+01 1.60223E+01 0.00000E+00
 -1      2115 5.51482E+01 1.51866E+01 0.00000E+00
 -1      2116 5.54547E+01 1.78790E+01 0.00000E+00
 -1      2117 5.51897E+01 1.70901E+01 0.00000E+00
 -1      2118 5.61520E+01 1.93921E+01 0.00000E+00
 -1      2119 5.58034E+01 1.86356E+01 0.00000E+00
 -1      2120 5.48579E+01 1.85142E+01 0.00000E+00
 -1      2121 5.74222E+01 2.09104E+01 0.00000E+00
 -1      2122 5.68630E+01 2.02860E+01 0.00000E+00
 -1      2123 5.87117E+01 2.20630E+01 0.00000E+00
 -1      2124 5.80890E+01 2.15511E+01 0.00000E+00
 -1      2125 6.01718E+01 2.30062E+01 0.00000E+00
 -1      2126 5.94417E+01 2.25346E+01 0.00000E+00
 -1      2127 5.86922E+01 2.28117E+01 0.00000E+00
 -1      2128 6.20410E+01 2.37429E+01 0.00000E+00
 -1      2129 6.11833E+01 2.35421E+01 0.00000E+00
 -1      2130 6.38538E+01 2.38566E+01 0.00000E+00
 -1      2131 6.30152E+01 2.38039E+01 0.00000E+00
 -1      2132 6.56917E+01 2.39227E+01 0.00000E+00
 -1      2133 6.48252E+01 2.40063E+01 0.00000E+00
 -1      2134 6.75402E+01 2.32126E+01 0.00000E+00
 -1      2135 6.67671E+01 2.35823E+01 0.00000E+00
 -1      2136 6.90269E+01 2.23760E+01 0.00000E+00
 -1      2137 6.82835E+01 2.27943E+01 0.00000E+00
 -1      2138 6.82309E+01 2.36772E+01 0.00000E+00
 -1      2139 7.04830E+01 2.10074E+01 0.00000E+00
 -1      2140 6.98826E+01 2.16462E+01 0.00000E+00
 -1      2141 7.16220E+01 1.96169E+01 0.00000E+00
 -1      2142 7.11544E+01 2.03057E+01 0.00000E+00
 -1      2143 7.23147E+01 1.79823E+01 0.00000E+00
 -1      2144 7.20073E+01 1.87280E+01 0.00000E+00
 -1      2145 7.27419E+01 1.63006E+01 0.00000E+00
 -1      2146 7.25854E+01 1.70876E+01 0.00000E+00
 -1      2147 4.84800E+00 4.21150E+00 0.00000E+00
 -1      2148 6.95519E+01 8.09273E+00 0.00000E+00
 -1      2149 7.02324E+01 8.64531E+00 0.00000E+00
 -1      2150 4.92300E+00 4.57510E+01 0.00000E+00
 -1      2151 1.45814E+02 4.62041E+00 0.00000E+00
 -1      2152 1.45814E+02 6.09541E+00 0.00000E+00
 -1      2153 7.22995E+01 1.02710E+01 0.00000E+00
 -1      2154 7.10485E+01 8.56315E+00 0.00000E+00
 -1      2155 6.42300E+00 4.57510E+01 0.00000E+00
 -1      2156 6.95800E+01 7.19763E+00 0.00000E+00
 -1      2157 7.17300E+00 4.44520E+01 0.00000E+00
 -1      2158 7.09800E+00 5.51050E+00 0.00000E+00
 -1      2159 6.34800E+00 4.21150E+00 0.00000E+00
 -1      2160 5.85628E+01 3.76007E+00 0.00000E+00
 -1      2161 5.78128E+01 5.05907E+00 0.00000E+00
 -1      2162 5.99128E+01 3.76007E+00 0.00000E+00
 -1      2163 6.58802E+01 4.86542E+00 0.00000E+00
 -1      2164 6.52427E+01 3.92408E+00 0.00000E+00
 -1      2165 6.38927E+01 3.92408E+00 0.00000E+00
 -1      2166 6.84750E+01 4.64825E+00 0.00000E+00
 -1      2167 7.35028E+01 1.40095E+01 0.00000E+00
 -1      2168 1.44514E+02 6.83291E+00 0.00000E+00
 -1      2169 7.30734E+01 1.21540E+01 0.00000E+00
 -1      2170 1.45665E+02 4.31193E+01 0.00000E+00
 -1      2171 7.35141E+01 1.58943E+01 0.00000E+00
 -1      2172 7.30696E+01 1.77234E+01 0.00000E+00
 -1      2173 7.24136E+01 1.95071E+01 0.00000E+00
 -1      2174 6.98299E+01 2.25291E+01 0.00000E+00
 -1      2175 6.64121E+01 2.44359E+01 0.00000E+00
 -1      2176 6.43653E+01 2.46267E+01 0.00000E+00
 -1      2177 6.04338E+01 2.38192E+01 0.00000E+00
 -1      2178 5.59176E+01 2.01646E+01 0.00000E+00
 -1      2179 5.44892E+01 1.66899E+01 0.00000E+00
 -1      2180 5.44362E+01 1.46720E+01 0.00000E+00
 -1      2181 5.47289E+01 1.28100E+01 0.00000E+00
 -1      2182 5.55192E+01 1.09322E+01 0.00000E+00
 -1      2183 5.65838E+01 9.16498E+00 0.00000E+00
 -1      2184 5.78090E+01 7.63454E+00 0.00000E+00
 -1      2185 5.95866E+01 6.20472E+00 0.00000E+00
 -1      2186 6.17717E+01 5.50720E+00 0.00000E+00
 -1      2187 6.37199E+01 5.38017E+00 0.00000E+00
 -1      2188 6.78408E+01 6.17591E+00 0.00000E+00
 -1      2189 6.57420E+01 5.52004E+00 0.00000E+00
 -1      2190 5.72954E+01 2.16993E+01 0.00000E+00
 -1      2191 6.24196E+01 2.44161E+01 0.00000E+00
 -1      2192 7.13569E+01 2.10977E+01 0.00000E+00
 -1      2193 6.49500E+00 3.01125E+01 0.00000E+00
 -1      2194 6.49500E+00 3.15875E+01 0.00000E+00
 -1      2195 6.49500E+00 3.30625E+01 0.00000E+00
 -1      2196 6.49500E+00 3.45375E+01 0.00000E+00
 -1      2197 7.79400E+00 3.23250E+01 0.00000E+00
 -1      2198 6.49500E+00 2.42125E+01 0.00000E+00
 -1      2199 6.49500E+00 2.56875E+01 0.00000E+00
 -1      2200 6.49500E+00 2.12625E+01 0.00000E+00
 -1      2201 6.49500E+00 2.27375E+01 0.00000E+00
 -1      2202 7.79400E+00 2.34750E+01 0.00000E+00
 -1      2203 6.49500E+00 1.83625E+01 0.00000E+00
 -1      2204 6.49500E+00 1.98125E+01 0.00000E+00
 -1      2205 7.79400E+00 2.05500E+01 0.00000E+00
 -1      2206 6.49500E+00 1.54125E+01 0.00000E+00
 -1      2207 6.49500E+00 1.68875E+01 0.00000E+00
 -1      2208 7.79400E+00 1.76250E+01 0.00000E+00
 -1      2209 6.49500E+00 1.24625E+01 0.00000E+00
 -1      2210 6.49500E+00 1.39375E+01 0.00000E+00
 -1      2211 7.79400E+00 1.46750E+01 0.00000E+00
 -1      2212 6.49500E+00 9.51250E+00 0.00000E+00
 -1      2213 6.49500E+00 1.09875E+01 0.00000E+00
 -1      2214 7.79400E+00 1.17250E+01 0.00000E+00
 -1      2215 6.79650E+00 6.77400E+00 0.00000E+00
 -1      2216 6.79650E+00 8.24900E+00 0.00000E+00
 -1      2217 8.09550E+00 8.98650E+00 0.00000E+00
 -1      2218 8.69850E+00 6.45950E+00 0.00000E+00
 -1      2219 9.90000E+00 4.35050E+01 0.00000E+00
 -1      2220 1.14000E+01 4.35050E+01 0.00000E+00
 -1      2221 1.29000E+01 4.35050E+01 0.00000E+00
 -1      2222 1.44000E+01 4.35050E+01 0.00000E+00
 -1      2223 1.21500E+01 4.22060E+01 0.00000E+00
 -1      2224 1.59000E+01 4.35050E+01 0.00000E+00
 -1      2225 1.74000E+01 4.35050E+01 0.00000E+00
 -1      2226 1.51500E+01 4.22060E+01 0.00000E+00
 -1      2227 1.89000E+01 4.35050E+01 0.00000E+00
 -1      2228 2.04000E+01 4.35050E+01 0.00000E+00
 -1      2229 1.81500E+01 4.22060E+01 0.00000E+00
 -1      2230 2.19000E+01 4.35050E+01 0.00000E+00
 -1      2231 2.34000E+01 4.35050E+01 0.00000E+00
 -1      2232 2.11500E+01 4.22060E+01 0.00000E+00
 -1      2233 2.49000E+01 4.35050E+01 0.00000E+00
 -1      2234 2.64000E+01 4.35050E+01 0.00000E+00
 -1      2235 2.41500E+01 4.22060E+01 0.00000E+00
 -1      2236 2.79000E+01 4.35050E+01 0.00000E+00
 -1      2237 2.94000E+01 4.35050E+01 0.00000E+00
 -1      2238 2.71500E+01 4.22060E+01 0.00000E+00
 -1      2239 3.09000E+01 4.35050E+01 0.00000E+00
 -1      2240 3.24000E+01 4.35050E+01 0.00000E+00
 -1      2241 3.01500E+01 4.22060E+01 0.00000E+00
 -1      2242 3.39000E+01 4.35050E+01 0.00000E+00
 -1      2243 3.54000E+01 4.35050E+01 0.00000E+00
 -1      2244 3.31500E+01 4.22060E+01 0.00000E+00
 -1      2245 3.69000E+01 4.35050E+01 0.00000E+00
 -1      2246 3.84000E+01 4.35050E+01 0.00000E+00
 -1      2247 3.61500E+01 4.22060E+01 0.00000E+00
 -1      2248 3.99000E+01 4.35050E+01 0.00000E+00
 -1      2249 4.14000E+01 4.35050E+01 0.00000E+00
 -1      2250 3.91500E+01 4.22060E+01 0.00000E+00
 -1      2251 4.29000E+01 4.35050E+01 0.00000E+00
 -1      2252 4.44000E+01 4.35050E+01 0.00000E+00
 -1      2253 4.21500E+01 4.22060E+01 0.00000E+00
 -1      2254 4.59000E+01 4.35050E+01 0.00000E+00
 -1      2255 4.74000E+01 4.35050E+01 0.00000E+00
 -1      2256 4.51500E+01 4.22060E+01 0.00000E+00
 -1      2257 4.89000E+01 4.35050E+01 0.00000E+00
 -1      2258 5.04000E+01 4.35050E+01 0.00000E+00
 -1      2259 4.81500E+01 4.22060E+01 0.00000E+00
 -1      2260 5.19000E+01 4.35050E+01 0.00000E+00
 -1      2261 5.34000E+01 4.35050E+01 0.00000E+00
 -1      2262 5.11500E+01 4.22060E+01 0.00000E+00
 -1      2263 5.49000E+01 4.35050E+01 0.00000E+00
 -1      2264 5.64000E+01 4.35050E+01 0.00000E+00
 -1      2265 5.41500E+01 4.22060E+01 0.00000E+00
 -1      2266 5.79000E+01 4.35050E+01 0.00000E+00
 -1      2267 5.94000E+01 4.35050E+01 0.00000E+00
 -1      2268 5.71500E+01 4.22060E+01 0.00000E+00
 -1      2269 6.09000E+01 4.35050E+01 0.00000E+00
 -1      2270 6.24000E+01 4.35050E+01 0.00000E+00
 -1      2271 6.01500E+01 4.22060E+01 0.00000E+00
 -1      2272 6.39000E+01 4.35050E+01 0.00000E+00
 -1      2273 6.54000E+01 4.35050E+01 0.00000E+00
 -1      2274 6.31500E+01 4.22060E+01 0.00000E+00
 -1      2275 6.69000E+01 4.35050E+01 0.00000E+00
 -1      2276 6.84000E+01 4.35050E+01 0.00000E+00
 -1      2277 6.61500E+01 4.22060E+01 0.00000E+00
 -1      2278 6.99000E+01 4.35050E+01 0.00000E+00
 -1      2279 7.14000E+01 4.35050E+01 0.00000E+00
 -1      2280 6.91500E+01 4.22060E+01 0.00000E+00
 -1      2281 7.29000E+01 4.35050E+01 0.00000E+00
 -1      2282 7.44000E+01 4.35050E+01 0.00000E+00
 -1      2283 7.21500E+01 4.22060E+01 0.00000E+00
 -1      2284 7.59000E+01 4.35050E+01 0.00000E+00
 -1      2285 7.74000E+01 4.35050E+01 0.00000E+00
 -1      2286 7.51500E+01 4.22060E+01 0.00000E+00
 -1      2287 7.89000E+01 4.35050E+01 0.00000E+00
 -1      2288 8.04000E+01 4.35050E+01 0.00000E+00
 -1      2289 7.81500E+01 4.22060E+01 0.00000E+00
 -1      2290 8.19000E+01 4.35050E+01 0.00000E+00
 -1      2291 8.34000E+01 4.35050E+01 0.00000E+00
 -1      2292 8.11500E+01 4.22060E+01 0.00000E+00
 -1      2293 8.49000E+01 4.35050E+01 0.00000E+00
 -1      2294 8.64000E+01 4.35050E+01 0.00000E+00
 -1      2295 8.41500E+01 4.22060E+01 0.00000E+00
 -1      2296 8.79000E+01 4.35050E+01 0.00000E+00
 -1      2297 8.94000E+01 4.35050E+01 0.00000E+00
 -1      2298 8.71500E+01 4.22060E+01 0.00000E+00
 -1      2299 9.09000E+01 4.35050E+01 0.00000E+00
 -1      2300 9.24000E+01 4.35050E+01 0.00000E+00
 -1      2301 9.01500E+01 4.22060E+01 0.00000E+00
 -1      2302 9.39000E+01 4.35050E+01 0.00000E+00
 -1      2303 9.54000E+01 4.35050E+01 0.00000E+00
 -1      2304 9.31500E+01 4.22060E+01 0.00000E+00
 -1      2305 9.69000E+01 4.35050E+01 0.00000E+00
 -1      2306 9.84000E+01 4.35050E+01 0.00000E+00
 -1      2307 9.61500E+01 4.22060E+01 0.00000E+00
 -1      2308 9.99000E+01 4.35050E+01 0.00000E+00
 -1      2309 1.01400E+02 4.35050E+01 0.00000E+00
 -1      2310 9.91500E+01 4.22060E+01 0.00000E+00
 -1      2311 1.02900E+02 4.35050E+01 0.00000E+00
 -1      2312 1.04400E+02 4.35050E+01 0.00000E+00
 -1      2313 1.02150E+02 4.22060E+01 0.00000E+00
 -1      2314 1.05900E+02 4.35050E+01 0.00000E+00
 -1      2315 1.07400E+02 4.35050E+01 0.00000E+00
 -1      2316 1.05150E+02 4.22060E+01 0.00000E+00
 -1      2317 1.08900E+02 4.35050E+01 0.00000E+00
 -1      2318 1.10400E+02 4.35050E+01 0.00000E+00
 -1      2319 1.08150E+02 4.22060E+01 0.00000E+00
 -1      2320 1.11900E+02 4.35050E+01 0.00000E+00
 -1      2321 1.13400E+02 4.35050E+01 0.00000E+00
 -1      2322 1.11150E+02 4.22060E+01 0.00000E+00
 -1      2323 1.14900E+02 4.35050E+01 0.00000E+00
 -1      2324 1.16400E+02 4.35050E+01 0.00000E+00
 -1      2325 1.14150E+02 4.22060E+01 0.00000E+00
 -1      2326 1.17900E+02 4.35050E+01 0.00000E+00
 -1      2327 1.19400E+02 4.35050E+01 0.00000E+00
 -1      2328 1.17150E+02 4.22060E+01 0.00000E+00
 -1      2329 1.20900E+02 4.35050E+01 0.00000E+00
 -1      2330 1.22400E+02 4.35050E+01 0.00000E+00
 -1      2331 1.20150E+02 4.22060E+01 0.00000E+00
 -1      2332 1.23900E+02 4.35050E+01 0.00000E+00
 -1      2333 1.25400E+02 4.35050E+01 0.00000E+00
 -1      2334 1.23150E+02 4.22060E+01 0.00000E+00
 -1      2335 1.26900E+02 4.35050E+01 0.00000E+00
 -1      2336 1.28400E+02 4.35050E+01 0.00000E+00
 -1      2337 1.26150E+02 4.22060E+01 0.00000E+00
 -1      2338 1.29900E+02 4.35050E+01 0.00000E+00
 -1      2339 1.31400E+02 4.35050E+01 0.00000E+00
 -1      2340 1.29150E+02 4.22060E+01 0.00000E+00
 -1      2341 1.32900E+02 4.35050E+01 0.00000E+00
 -1      2342 1.34400E+02 4.35050E+01 0.00000E+00
 -1      2343 1.32150E+02 4.22060E+01 0.00000E+00
 -1      2344 1.35900E+02 4.35050E+01 0.00000E+00
 -1      2345 1.37400E+02 4.35050E+01 0.00000E+00
 -1      2346 1.35150E+02 4.22060E+01 0.00000E+00
 -1      2347 1.38900E+02 4.35050E+01 0.00000E+00
 -1      2348 1.40400E+02 4.35050E+01 0.00000E+00
 -1      2349 1.38150E+02 4.22060E+01 0.00000E+00
 -1      2350 1.16985E+01 6.45950E+00 0.00000E+00
 -1      2351 1.01985E+01 6.45950E+00 0.00000E+00
 -1      2352 9.89700E+00 7.72300E+00 0.00000E+00
 -1      2353 2.01000E+01 6.49500E+00 0.00000E+00
 -1      2354 1.86000E+01 6.49500E+00 0.00000E+00
 -1      2355 2.31000E+01 6.49500E+00 0.00000E+00
 -1      2356 2.16000E+01 6.49500E+00 0.00000E+00
 -1      2357 2.08500E+01 7.79400E+00 0.00000E+00
 -1      2358 2.61000E+01 6.49500E+00 0.00000E+00
 -1      2359 2.46000E+01 6.49500E+00 0.00000E+00
 -1      2360 2.38500E+01 7.79400E+00 0.00000E+00
 -1      2361 2.89500E+01 6.49500E+00 0.00000E+00
 -1      2362 2.75250E+01 6.49500E+00 0.00000E+00
 -1      2363 2.67750E+01 7.79400E+00 0.00000E+00
 -1      2364 3.19500E+01 6.49500E+00 0.00000E+00
 -1      2365 3.04500E+01 6.49500E+00 0.00000E+00
 -1      2366 2.97000E+01 7.79400E+00 0.00000E+00
 -1      2367 3.49500E+01 6.49500E+00 0.00000E+00
 -1      2368 3.34500E+01 6.49500E+00 0.00000E+00
 -1      2369 3.27000E+01 7.79400E+00 0.00000E+00
 -1      2370 3.79500E+01 6.49500E+00 0.00000E+00
 -1      2371 3.64500E+01 6.49500E+00 0.00000E+00
 -1      2372 3.57000E+01 7.79400E+00 0.00000E+00
 -1      2373 4.09500E+01 6.49500E+00 0.00000E+00
 -1      2374 3.94500E+01 6.49500E+00 0.00000E+00
 -1      2375 3.87000E+01 7.79400E+00 0.00000E+00
 -1      2376 4.39500E+01 6.49500E+00 0.00000E+00
 -1      2377 4.24500E+01 6.49500E+00 0.00000E+00
 -1      2378 4.17000E+01 7.79400E+00 0.00000E+00
 -1      2379 4.68000E+01 6.49500E+00 0.00000E+00
 -1      2380 4.53750E+01 6.49500E+00 0.00000E+00
 -1      2381 4.46250E+01 7.79400E+00 0.00000E+00
 -1      2382 4.98000E+01 6.49500E+00 0.00000E+00
 -1      2383 4.83000E+01 6.49500E+00 0.00000E+00
 -1      2384 4.75500E+01 7.79400E+00 0.00000E+00
 -1      2385 5.28000E+01 6.49500E+00 0.00000E+00
 -1      2386 5.13000E+01 6.49500E+00 0.00000E+00
 -1      2387 5.05500E+01 7.79400E+00 0.00000E+00
 -1      2388 6.05128E+01 4.86898E+00 0.00000E+00
 -1      2389 6.29772E+01 4.05410E+00 0.00000E+00
 -1      2390 8.10750E+01 6.11482E+00 0.00000E+00
 -1      2391 7.95750E+01 6.11482E+00 0.00000E+00
 -1      2392 8.39250E+01 6.11482E+00 0.00000E+00
 -1      2393 8.25000E+01 6.11482E+00 0.00000E+00
 -1      2394 8.17500E+01 7.41382E+00 0.00000E+00
 -1      2395 8.69250E+01 6.11482E+00 0.00000E+00
 -1      2396 8.54250E+01 6.11482E+00 0.00000E+00
 -1      2397 8.46750E+01 7.41382E+00 0.00000E+00
 -1      2398 8.99250E+01 6.11482E+00 0.00000E+00
 -1      2399 8.84250E+01 6.11482E+00 0.00000E+00
 -1      2400 8.76750E+01 7.41382E+00 0.00000E+00
 -1      2401 9.29250E+01 6.11482E+00 0.00000E+00
 -1      2402 9.14250E+01 6.11482E+00 0.00000E+00
 -1      2403 9.06750E+01 7.41382E+00 0.00000E+00
 -1      2404 9.59250E+01 6.11482E+00 0.00000E+00
 -1      2405 9.44250E+01 6.11482E+00 0.00000E+00
 -1      2406 9.36750E+01 7.41382E+00 0.00000E+00
 -1      2407 9.87750E+01 6.11482E+00 0.00000E+00
 -1      2408 9.73500E+01 6.11482E+00 0.00000E+00
 -1      2409 9.66000E+01 7.41382E+00 0.00000E+00
 -1      2410 1.01775E+02 6.11482E+00 0.00000E+00
 -1      2411 1.00275E+02 6.11482E+00 0.00000E+00
 -1      2412 9.95250E+01 7.41382E+00 0.00000E+00
 -1      2413 1.04775E+02 6.11482E+00 0.00000E+00
 -1      2414 1.03275E+02 6.11482E+00 0.00000E+00
 -1      2415 1.02525E+02 7.41382E+00 0.00000E+00
 -1      2416 1.07775E+02 6.11482E+00 0.00000E+00
 -1      2417 1.06275E+02 6.11482E+00 0.00000E+00
 -1      2418 1.05525E+02 7.41382E+00 0.00000E+00
 -1      2419 1.10775E+02 6.11482E+00 0.00000E+00
 -1      2420 1.09275E+02 6.11482E+00 0.00000E+00
 -1      2421 1.08525E+02 7.41382E+00 0.00000E+00
 -1      2422 1.13775E+02 6.11482E+00 0.00000E+00
 -1      2423 1.12275E+02 6.11482E+00 0.00000E+00
 -1      2424 1.11525E+02 7.41382E+00 0.00000E+00
 -1      2425 1.16625E+02 6.11482E+00 0.00000E+00
 -1      2426 1.15200E+02 6.11482E+00 0.00000E+00
 -1      2427 1.14450E+02 7.41382E+00 0.00000E+00
 -1      2428 1.19625E+02 6.11482E+00 0.00000E+00
 -1      2429 1.18125E+02 6.11482E+00 0.00000E+00
 -1      2430 1.17375E+02 7.41382E+00 0.00000E+00
 -1      2431 1.22625E+02 6.11482E+00 0.00000E+00
 -1      2432 1.21125E+02 6.11482E+00 0.00000E+00
 -1      2433 1.20375E+02 7.41382E+00 0.00000E+00
 -1      2434 1.25625E+02 6.11482E+00 0.00000E+00
 -1      2435 1.24125E+02 6.11482E+00 0.00000E+00
 -1      2436 1.23375E+02 7.41382E+00 0.00000E+00
 -1      2437 1.28625E+02 6.11482E+00 0.00000E+00
 -1      2438 1.27125E+02 6.11482E+00 0.00000E+00
 -1      2439 1.26375E+02 7.41382E+00 0.00000E+00
 -1      2440 1.31475E+02 6.11482E+00 0.00000E+00
 -1      2441 1.30050E+02 6.11482E+00 0.00000E+00
 -1      2442 1.29300E+02 7.41382E+00 0.00000E+00
 -1      2443 1.34475E+02 6.11482E+00 0.00000E+00
 -1      2444 1.32975E+02 6.11482E+00 0.00000E+00
 -1      2445 1.32225E+02 7.41382E+00 0.00000E+00
 -1      2446 1.37475E+02 6.11482E+00 0.00000E+00
 -1      2447 1.35975E+02 6.11482E+00 0.00000E+00
 -1      2448 1.35225E+02 7.41382E+00 0.00000E+00
 -1      2449 1.40475E+02 6.11482E+00 0.00000E+00
 -1      2450 1.38975E+02 6.11482E+00 0.00000E+00
 -1      2451 1.38225E+02 7.41382E+00 0.00000E+00
 -1      2452 1.43245E+02 6.47387E+00 0.00000E+00
 -1      2453 1.41745E+02 6.47387E+00 0.00000E+00
 -1      2454 1.40995E+02 7.77287E+00 0.00000E+00
 -1      2455 1.43534E+02 8.49096E+00 0.00000E+00
 -1      2456 7.38600E+01 1.14561E+01 0.00000E+00
 -1      2457 7.41043E+01 1.23611E+01 0.00000E+00
 -1      2458 1.43505E+02 1.98625E+01 0.00000E+00
 -1      2459 1.43505E+02 1.83875E+01 0.00000E+00
 -1      2460 7.27152E+01 9.41360E+00 0.00000E+00
 -1      2461 7.32447E+01 1.03917E+01 0.00000E+00
 -1      2462 1.43505E+02 2.28125E+01 0.00000E+00
 -1      2463 1.43505E+02 2.13375E+01 0.00000E+00
 -1      2464 1.42206E+02 2.06000E+01 0.00000E+00
 -1      2465 1.43505E+02 2.57625E+01 0.00000E+00
 -1      2466 1.43505E+02 2.42875E+01 0.00000E+00
 -1      2467 1.42206E+02 2.35500E+01 0.00000E+00
 -1      2468 1.43505E+02 2.87125E+01 0.00000E+00
 -1      2469 1.43505E+02 2.72375E+01 0.00000E+00
 -1      2470 1.42206E+02 2.65000E+01 0.00000E+00
 -1      2471 1.43505E+02 3.16125E+01 0.00000E+00
 -1      2472 1.43505E+02 3.01625E+01 0.00000E+00
 -1      2473 1.42206E+02 2.94250E+01 0.00000E+00
 -1      2474 1.43505E+02 3.45625E+01 0.00000E+00
 -1      2475 1.43505E+02 3.30875E+01 0.00000E+00
 -1      2476 1.42206E+02 3.23500E+01 0.00000E+00
 -1      2477 1.43505E+02 3.75125E+01 0.00000E+00
 -1      2478 1.43505E+02 3.60375E+01 0.00000E+00
 -1      2479 1.42206E+02 3.53000E+01 0.00000E+00
 -1      2480 1.43505E+02 4.04625E+01 0.00000E+00
 -1      2481 1.43505E+02 3.89875E+01 0.00000E+00
 -1      2482 1.42206E+02 3.82500E+01 0.00000E+00
 -1      2483 1.44321E+02 4.30606E+01 0.00000E+00
 -1      2484 7.12678E+01 7.62482E+00 0.00000E+00
 -1      2485 7.19893E+01 8.35459E+00 0.00000E+00
 -1      2486 7.43617E+01 1.55685E+01 0.00000E+00
 -1      2487 7.41880E+01 1.65029E+01 0.00000E+00
 -1      2488 1.71000E+01 6.49500E+00 0.00000E+00
 -1      2489 1.56000E+01 6.49500E+00 0.00000E+00
 -1      2490 1.78500E+01 7.79400E+00 0.00000E+00
 -1      2491 7.40258E+01 1.75244E+01 0.00000E+00
 -1      2492 7.37551E+01 1.84192E+01 0.00000E+00
 -1      2493 1.43505E+02 1.39750E+01 0.00000E+00
 -1      2494 1.43505E+02 1.25250E+01 0.00000E+00
 -1      2495 6.72339E+01 2.51631E+01 0.00000E+00
 -1      2496 6.61585E+01 2.55036E+01 0.00000E+00
 -1      2497 5.56676E+01 2.10933E+01 0.00000E+00
 -1      2498 5.49565E+01 2.01994E+01 0.00000E+00
 -1      2499 5.37256E+01 1.72383E+01 0.00000E+00
 -1      2500 5.37056E+01 1.61706E+01 0.00000E+00
 -1      2501 1.43520E+02 1.12455E+01 0.00000E+00
 -1      2502 1.43520E+02 9.77048E+00 0.00000E+00
 -1      2503 1.42250E+02 9.41143E+00 0.00000E+00
 -1      2504 1.42221E+02 1.19705E+01 0.00000E+00
 -1      2505 1.43505E+02 1.69188E+01 0.00000E+00
 -1      2506 1.43505E+02 1.54438E+01 0.00000E+00
 -1      2507 1.42206E+02 1.47188E+01 0.00000E+00
 -1      2508 1.42206E+02 1.76563E+01 0.00000E+00
 -1      2509 7.80750E+01 6.11482E+00 0.00000E+00
 -1      2510 7.65750E+01 6.11482E+00 0.00000E+00
 -1      2511 7.88250E+01 7.41382E+00 0.00000E+00
 -1      2512 7.40875E+01 1.34024E+01 0.00000E+00
 -1      2513 7.42726E+01 1.43529E+01 0.00000E+00
 -1      2514 6.49500E+00 2.71625E+01 0.00000E+00
 -1      2515 6.49500E+00 2.86375E+01 0.00000E+00
 -1      2516 7.79400E+00 2.93750E+01 0.00000E+00
 -1      2517 7.79400E+00 2.64250E+01 0.00000E+00
 -1      2518 1.43617E+01 6.47725E+00 0.00000E+00
 -1      2519 1.29368E+01 6.47725E+00 0.00000E+00
 -1      2520 1.26353E+01 7.74075E+00 0.00000E+00
 -1      2521 1.51117E+01 7.77625E+00 0.00000E+00
 -1      2522 5.70346E+01 2.26380E+01 0.00000E+00
 -1      2523 5.63678E+01 2.19972E+01 0.00000E+00
 -1      2524 5.56980E+01 9.12681E+00 0.00000E+00
 -1      2525 5.62980E+01 8.32566E+00 0.00000E+00
 -1      2526 5.45518E+01 1.10618E+01 0.00000E+00
 -1      2527 5.50164E+01 1.00957E+01 0.00000E+00
 -1      2528 5.39163E+01 1.30338E+01 0.00000E+00
 -1      2529 5.42420E+01 1.21221E+01 0.00000E+00
 -1      2530 5.36726E+01 1.52204E+01 0.00000E+00
 -1      2531 5.36397E+01 1.42702E+01 0.00000E+00
 -1      2532 5.29090E+01 1.57688E+01 0.00000E+00
 -1      2533 5.43295E+01 1.92163E+01 0.00000E+00
 -1      2534 5.39809E+01 1.84597E+01 0.00000E+00
 -1      2535 6.28427E+01 2.54697E+01 0.00000E+00
 -1      2536 6.18684E+01 2.54087E+01 0.00000E+00
 -1      2537 5.86602E+01 2.36622E+01 0.00000E+00
 -1      2538 5.79301E+01 2.31907E+01 0.00000E+00
 -1      2539 7.23728E+01 2.13976E+01 0.00000E+00
 -1      2540 7.17014E+01 2.20993E+01 0.00000E+00
 -1      2541 6.05576E+01 2.48079E+01 0.00000E+00
 -1      2542 5.95461E+01 2.42719E+01 0.00000E+00
 -1      2543 6.47856E+01 2.57690E+01 0.00000E+00
 -1      2544 6.38141E+01 2.56194E+01 0.00000E+00
 -1      2545 6.32630E+01 2.66120E+01 0.00000E+00
 -1      2546 6.90231E+01 2.42154E+01 0.00000E+00
 -1      2547 6.82797E+01 2.46337E+01 0.00000E+00
 -1      2548 7.08457E+01 2.28291E+01 0.00000E+00
 -1      2549 6.99901E+01 2.35588E+01 0.00000E+00
 -1      2550 7.18616E+01 2.31290E+01 0.00000E+00
 -1      2551 7.33546E+01 1.93870E+01 0.00000E+00
 -1      2552 7.29694E+01 2.02759E+01 0.00000E+00
 -1      2553 6.55950E+00 4.28890E+01 0.00000E+00
 -1      2554 8.53650E+00 4.32410E+01 0.00000E+00
 -1      2555 9.28650E+00 4.19420E+01 0.00000E+00
 -1      2556 6.55950E+00 4.14140E+01 0.00000E+00
 -1      2557 6.97079E+01 6.29048E+00 0.00000E+00
 -1      2558 7.04550E+01 6.92623E+00 0.00000E+00
 -1      2559 7.79400E+00 3.52687E+01 0.00000E+00
 -1      2560 6.49500E+00 3.60062E+01 0.00000E+00
 -1      2561 6.49500E+00 3.74750E+01 0.00000E+00
 -1      2562 7.43108E+01 1.91880E+01 0.00000E+00
 -1      2563 6.93289E+01 5.68886E+00 0.00000E+00
 -1      2564 6.79790E+01 5.52128E+00 0.00000E+00
 -1      2565 7.29345E+01 8.47526E+00 0.00000E+00
 -1      2566 5.70025E+01 2.34886E+01 0.00000E+00
 -1      2567 5.44811E+01 6.74174E+00 0.00000E+00
 -1      2568 5.37311E+01 8.04074E+00 0.00000E+00
 -1      2569 6.69869E+01 5.13531E+00 0.00000E+00
 -1      2570 7.17040E+01 5.41745E+00 0.00000E+00
 -1      2571 7.02040E+01 5.41745E+00 0.00000E+00
 -1      2572 7.42757E+01 1.05987E+01 0.00000E+00
 -1      2573 7.47668E+01 7.41504E+00 0.00000E+00
 -1      2574 7.40168E+01 6.11604E+00 0.00000E+00
 -1      2575 7.48741E+01 1.27045E+01 0.00000E+00
 -1      2576 1.42758E+02 4.35929E+01 0.00000E+00
 -1      2577 1.43241E+02 4.17323E+01 0.00000E+00
 -1      2578 1.41942E+02 4.09948E+01 0.00000E+00
 -1      2579 1.41414E+02 4.35342E+01 0.00000E+00
 -1      2580 7.49464E+01 1.49615E+01 0.00000E+00
 -1      2581 7.13958E+01 6.71767E+00 0.00000E+00
 -1      2582 7.48734E+01 1.71987E+01 0.00000E+00
 -1      2583 5.54067E+01 2.20320E+01 0.00000E+00
 -1      2584 6.52725E+00 3.87101E+01 0.00000E+00
 -1      2585 6.52725E+00 4.01789E+01 0.00000E+00
 -1      2586 7.89075E+00 4.04429E+01 0.00000E+00
 -1      2587 7.82625E+00 3.79726E+01 0.00000E+00
 -1      2588 6.56074E+01 2.64962E+01 0.00000E+00
 -1      2589 5.40795E+01 2.01449E+01 0.00000E+00
 -1      2590 6.09808E+01 2.58615E+01 0.00000E+00
 -1      2591 5.31972E+01 1.79404E+01 0.00000E+00
 -1      2592 7.33138E+01 2.12775E+01 0.00000E+00
 -1      2593 5.87840E+01 2.46509E+01 0.00000E+00
 -1      2594 6.80261E+01 2.57014E+01 0.00000E+00
 -1      2595 5.31527E+01 1.35822E+01 0.00000E+00
 -1      2596 5.26658E+01 1.28943E+01 0.00000E+00
 -1      2597 5.23891E+01 1.41307E+01 0.00000E+00
 -1      2598 7.25168E+01 6.11604E+00 0.00000E+00
 -1      2599 5.37392E+01 1.12855E+01 0.00000E+00
 -1      2600 5.47306E+01 9.25635E+00 0.00000E+00
 -1      2601 5.60374E+01 7.55819E+00 0.00000E+00
 -1      2602 5.69232E+01 7.59636E+00 0.00000E+00
 -1      2603 5.75484E+01 6.86706E+00 0.00000E+00
 -1      2604 7.00389E+01 2.45153E+01 0.00000E+00
 -1      2605 5.87549E+01 5.91369E+00 0.00000E+00
 -1      2606 5.74921E+01 6.05062E+00 0.00000E+00
 -1      2607 5.66063E+01 6.01244E+00 0.00000E+00
 -1      2608 1.40664E+02 4.22352E+01 0.00000E+00
 -1      2609 9.09300E+00 1.98250E+01 0.00000E+00
 -1      2610 9.09300E+00 2.12750E+01 0.00000E+00
 -1      2611 9.09300E+00 2.27500E+01 0.00000E+00
 -1      2612 9.09300E+00 2.42250E+01 0.00000E+00
 -1      2613 1.03920E+01 2.20250E+01 0.00000E+00
 -1      2614 9.09300E+00 1.39375E+01 0.00000E+00
 -1      2615 9.09300E+00 1.54125E+01 0.00000E+00
 -1      2616 9.09300E+00 1.09875E+01 0.00000E+00
 -1      2617 9.09300E+00 1.24625E+01 0.00000E+00
 -1      2618 1.03920E+01 1.32000E+01 0.00000E+00
 -1      2619 9.64575E+00 8.72350E+00 0.00000E+00
 -1      2620 9.34425E+00 9.98700E+00 0.00000E+00
 -1      2621 1.06433E+01 1.07245E+01 0.00000E+00
 -1      2622 1.11458E+01 8.72350E+00 0.00000E+00
 -1      2623 1.39914E+02 4.09362E+01 0.00000E+00
 -1      2624 1.40928E+02 4.09655E+01 0.00000E+00
 -1      2625 1.41192E+02 3.96958E+01 0.00000E+00
 -1      2626 1.14000E+01 4.09070E+01 0.00000E+00
 -1      2627 1.29000E+01 4.09070E+01 0.00000E+00
 -1      2628 1.44000E+01 4.09070E+01 0.00000E+00
 -1      2629 1.59000E+01 4.09070E+01 0.00000E+00
 -1      2630 1.36500E+01 3.96080E+01 0.00000E+00
 -1      2631 1.74000E+01 4.09070E+01 0.00000E+00
 -1      2632 1.89000E+01 4.09070E+01 0.00000E+00
 -1      2633 1.66500E+01 3.96080E+01 0.00000E+00
 -1      2634 2.04000E+01 4.09070E+01 0.00000E+00
 -1      2635 2.19000E+01 4.09070E+01 0.00000E+00
 -1      2636 1.96500E+01 3.96080E+01 0.00000E+00
 -1      2637 2.34000E+01 4.09070E+01 0.00000E+00
 -1      2638 2.49000E+01 4.09070E+01 0.00000E+00
 -1      2639 2.26500E+01 3.96080E+01 0.00000E+00
 -1      2640 2.64000E+01 4.09070E+01 0.00000E+00
 -1      2641 2.79000E+01 4.09070E+01 0.00000E+00
 -1      2642 2.56500E+01 3.96080E+01 0.00000E+00
 -1      2643 2.94000E+01 4.09070E+01 0.00000E+00
 -1      2644 3.09000E+01 4.09070E+01 0.00000E+00
 -1      2645 2.86500E+01 3.96080E+01 0.00000E+00
 -1      2646 3.24000E+01 4.09070E+01 0.00000E+00
 -1      2647 3.39000E+01 4.09070E+01 0.00000E+00
 -1      2648 3.16500E+01 3.96080E+01 0.00000E+00
 -1      2649 3.54000E+01 4.09070E+01 0.00000E+00
 -1      2650 3.69000E+01 4.09070E+01 0.00000E+00
 -1      2651 3.46500E+01 3.96080E+01 0.00000E+00
 -1      2652 3.84000E+01 4.09070E+01 0.00000E+00
 -1      2653 3.99000E+01 4.09070E+01 0.00000E+00
 -1      2654 3.76500E+01 3.96080E+01 0.00000E+00
 -1      2655 4.14000E+01 4.09070E+01 0.00000E+00
 -1      2656 4.29000E+01 4.09070E+01 0.00000E+00
 -1      2657 4.06500E+01 3.96080E+01 0.00000E+00
 -1      2658 4.44000E+01 4.09070E+01 0.00000E+00
 -1      2659 4.59000E+01 4.09070E+01 0.00000E+00
 -1      2660 4.36500E+01 3.96080E+01 0.00000E+00
 -1      2661 4.74000E+01 4.09070E+01 0.00000E+00
 -1      2662 4.89000E+01 4.09070E+01 0.00000E+00
 -1      2663 4.66500E+01 3.96080E+01 0.00000E+00
 -1      2664 5.04000E+01 4.09070E+01 0.00000E+00
 -1      2665 5.19000E+01 4.09070E+01 0.00000E+00
 -1      2666 4.96500E+01 3.96080E+01 0.00000E+00
 -1      2667 5.34000E+01 4.09070E+01 0.00000E+00
 -1      2668 5.49000E+01 4.09070E+01 0.00000E+00
 -1      2669 5.26500E+01 3.96080E+01 0.00000E+00
 -1      2670 5.64000E+01 4.09070E+01 0.00000E+00
 -1      2671 5.79000E+01 4.09070E+01 0.00000E+00
 -1      2672 5.56500E+01 3.96080E+01 0.00000E+00
 -1      2673 5.94000E+01 4.09070E+01 0.00000E+00
 -1      2674 6.09000E+01 4.09070E+01 0.00000E+00
 -1      2675 5.86500E+01 3.96080E+01 0.00000E+00
 -1      2676 6.24000E+01 4.09070E+01 0.00000E+00
 -1      2677 6.39000E+01 4.09070E+01 0.00000E+00
 -1      2678 6.16500E+01 3.96080E+01 0.00000E+00
 -1      2679 6.54000E+01 4.09070E+01 0.00000E+00
 -1      2680 6.69000E+01 4.09070E+01 0.00000E+00
 -1      2681 6.46500E+01 3.96080E+01 0.00000E+00
 -1      2682 6.84000E+01 4.09070E+01 0.00000E+00
 -1      2683 6.99000E+01 4.09070E+01 0.00000E+00
 -1      2684 6.76500E+01 3.96080E+01 0.00000E+00
 -1      2685 7.14000E+01 4.09070E+01 0.00000E+00
 -1      2686 7.29000E+01 4.09070E+01 0.00000E+00
 -1      2687 7.06500E+01 3.96080E+01 0.00000E+00
 -1      2688 7.44000E+01 4.09070E+01 0.00000E+00
 -1      2689 7.59000E+01 4.09070E+01 0.00000E+00
 -1      2690 7.36500E+01 3.96080E+01 0.00000E+00
 -1      2691 7.74000E+01 4.09070E+01 0.00000E+00
 -1      2692 7.89000E+01 4.09070E+01 0.00000E+00
 -1      2693 7.66500E+01 3.96080E+01 0.00000E+00
 -1      2694 8.04000E+01 4.09070E+01 0.00000E+00
 -1      2695 8.19000E+01 4.09070E+01 0.00000E+00
 -1      2696 7.96500E+01 3.96080E+01 0.00000E+00
 -1      2697 8.34000E+01 4.09070E+01 0.00000E+00
 -1      2698 8.49000E+01 4.09070E+01 0.00000E+00
 -1      2699 8.26500E+01 3.96080E+01 0.00000E+00
 -1      2700 8.64000E+01 4.09070E+01 0.00000E+00
 -1      2701 8.79000E+01 4.09070E+01 0.00000E+00
 -1      2702 8.56500E+01 3.96080E+01 0.00000E+00
 -1      2703 8.94000E+01 4.09070E+01 0.00000E+00
 -1      2704 9.09000E+01 4.09070E+01 0.00000E+00
 -1      2705 8.86500E+01 3.96080E+01 0.00000E+00
 -1      2706 9.24000E+01 4.09070E+01 0.00000E+00
 -1      2707 9.39000E+01 4.09070E+01 0.00000E+00
 -1      2708 9.16500E+01 3.96080E+01 0.00000E+00
 -1      2709 9.54000E+01 4.09070E+01 0.00000E+00
 -1      2710 9.69000E+01 4.09070E+01 0.00000E+00
 -1      2711 9.46500E+01 3.96080E+01 0.00000E+00
 -1      2712 9.84000E+01 4.09070E+01 0.00000E+00
 -1      2713 9.99000E+01 4.09070E+01 0.00000E+00
 -1      2714 9.76500E+01 3.96080E+01 0.00000E+00
 -1      2715 1.01400E+02 4.09070E+01 0.00000E+00
 -1      2716 1.02900E+02 4.09070E+01 0.00000E+00
 -1      2717 1.00650E+02 3.96080E+01 0.00000E+00
 -1      2718 1.04400E+02 4.09070E+01 0.00000E+00
 -1      2719 1.05900E+02 4.09070E+01 0.00000E+00
 -1      2720 1.03650E+02 3.96080E+01 0.00000E+00
 -1      2721 1.07400E+02 4.09070E+01 0.00000E+00
 -1      2722 1.08900E+02 4.09070E+01 0.00000E+00
 -1      2723 1.06650E+02 3.96080E+01 0.00000E+00
 -1      2724 1.10400E+02 4.09070E+01 0.00000E+00
 -1      2725 1.11900E+02 4.09070E+01 0.00000E+00
 -1      2726 1.09650E+02 3.96080E+01 0.00000E+00
 -1      2727 1.13400E+02 4.09070E+01 0.00000E+00
 -1      2728 1.14900E+02 4.09070E+01 0.00000E+00
 -1      2729 1.12650E+02 3.96080E+01 0.00000E+00
 -1      2730 1.16400E+02 4.09070E+01 0.00000E+00
 -1      2731 1.17900E+02 4.09070E+01 0.00000E+00
 -1      2732 1.15650E+02 3.96080E+01 0.00000E+00
 -1      2733 1.19400E+02 4.09070E+01 0.00000E+00
 -1      2734 1.20900E+02 4.09070E+01 0.00000E+00
 -1      2735 1.18650E+02 3.96080E+01 0.00000E+00
 -1      2736 1.22400E+02 4.09070E+01 0.00000E+00
 -1      2737 1.23900E+02 4.09070E+01 0.00000E+00
 -1      2738 1.21650E+02 3.96080E+01 0.00000E+00
 -1      2739 1.25400E+02 4.09070E+01 0.00000E+00
 -1      2740 1.26900E+02 4.09070E+01 0.00000E+00
 -1      2741 1.24650E+02 3.96080E+01 0.00000E+00
 -1      2742 1.28400E+02 4.09070E+01 0.00000E+00
 -1      2743 1.29900E+02 4.09070E+01 0.00000E+00
 -1      2744 1.27650E+02 3.96080E+01 0.00000E+00
 -1      2745 1.31400E+02 4.09070E+01 0.00000E+00
 -1      2746 1.32900E+02 4.09070E+01 0.00000E+00
 -1      2747 1.30650E+02 3.96080E+01 0.00000E+00
 -1      2748 1.34400E+02 4.09070E+01 0.00000E+00
 -1      2749 1.35900E+02 4.09070E+01 0.00000E+00
 -1      2750 1.33650E+02 3.96080E+01 0.00000E+00
 -1      2751 1.37157E+02 4.09216E+01 0.00000E+00
 -1      2752 1.38657E+02 4.09216E+01 0.00000E+00
 -1      2753 1.38921E+02 3.96519E+01 0.00000E+00
 -1      2754 1.36407E+02 3.96226E+01 0.00000E+00
 -1      2755 7.59243E+01 1.42787E+01 0.00000E+00
 -1      2756 7.60134E+01 1.54943E+01 0.00000E+00
 -1      2757 2.46000E+01 9.09300E+00 0.00000E+00
 -1      2758 2.31000E+01 9.09300E+00 0.00000E+00
 -1      2759 2.16000E+01 9.09300E+00 0.00000E+00
 -1      2760 2.01000E+01 9.09300E+00 0.00000E+00
 -1      2761 2.23500E+01 1.03920E+01 0.00000E+00
 -1      2762 3.04500E+01 9.09300E+00 0.00000E+00
 -1      2763 2.89500E+01 9.09300E+00 0.00000E+00
 -1      2764 3.34500E+01 9.09300E+00 0.00000E+00
 -1      2765 3.19500E+01 9.09300E+00 0.00000E+00
 -1      2766 3.12000E+01 1.03920E+01 0.00000E+00
 -1      2767 3.64500E+01 9.09300E+00 0.00000E+00
 -1      2768 3.49500E+01 9.09300E+00 0.00000E+00
 -1      2769 3.42000E+01 1.03920E+01 0.00000E+00
 -1      2770 3.94500E+01 9.09300E+00 0.00000E+00
 -1      2771 3.79500E+01 9.09300E+00 0.00000E+00
 -1      2772 3.72000E+01 1.03920E+01 0.00000E+00
 -1      2773 4.24500E+01 9.09300E+00 0.00000E+00
 -1      2774 4.09500E+01 9.09300E+00 0.00000E+00
 -1      2775 4.02000E+01 1.03920E+01 0.00000E+00
 -1      2776 4.53000E+01 9.09300E+00 0.00000E+00
 -1      2777 4.38750E+01 9.09300E+00 0.00000E+00
 -1      2778 4.31250E+01 1.03920E+01 0.00000E+00
 -1      2779 4.83000E+01 9.09300E+00 0.00000E+00
 -1      2780 4.68000E+01 9.09300E+00 0.00000E+00
 -1      2781 4.60500E+01 1.03920E+01 0.00000E+00
 -1      2782 5.13000E+01 9.09300E+00 0.00000E+00
 -1      2783 4.98000E+01 9.09300E+00 0.00000E+00
 -1      2784 4.90500E+01 1.03920E+01 0.00000E+00
 -1      2785 5.69119E+01 2.46373E+01 0.00000E+00
 -1      2786 5.60164E+01 2.40846E+01 0.00000E+00
 -1      2787 5.59811E+01 6.74174E+00 0.00000E+00
 -1      2788 8.84250E+01 8.71282E+00 0.00000E+00
 -1      2789 8.69250E+01 8.71282E+00 0.00000E+00
 -1      2790 6.23772E+01 5.16301E+00 0.00000E+00
 -1      2791 7.10983E+01 2.50352E+01 0.00000E+00
 -1      2792 7.01313E+01 2.56917E+01 0.00000E+00
 -1      2793 8.54250E+01 8.71282E+00 0.00000E+00
 -1      2794 8.39250E+01 8.71282E+00 0.00000E+00
 -1      2795 8.61750E+01 1.00118E+01 0.00000E+00
 -1      2796 7.48556E+01 9.55349E+00 0.00000E+00
 -1      2797 7.54708E+01 1.06180E+01 0.00000E+00
 -1      2798 8.25000E+01 8.71282E+00 0.00000E+00
 -1      2799 8.10750E+01 8.71282E+00 0.00000E+00
 -1      2800 8.32500E+01 1.00118E+01 0.00000E+00
 -1      2801 9.14250E+01 8.71282E+00 0.00000E+00
 -1      2802 8.99250E+01 8.71282E+00 0.00000E+00
 -1      2803 8.91750E+01 1.00118E+01 0.00000E+00
 -1      2804 9.44250E+01 8.71282E+00 0.00000E+00
 -1      2805 9.29250E+01 8.71282E+00 0.00000E+00
 -1      2806 9.21750E+01 1.00118E+01 0.00000E+00
 -1      2807 9.72750E+01 8.71282E+00 0.00000E+00
 -1      2808 9.58500E+01 8.71282E+00 0.00000E+00
 -1      2809 9.51000E+01 1.00118E+01 0.00000E+00
 -1      2810 1.00275E+02 8.71282E+00 0.00000E+00
 -1      2811 9.87750E+01 8.71282E+00 0.00000E+00
 -1      2812 9.80250E+01 1.00118E+01 0.00000E+00
 -1      2813 1.03275E+02 8.71282E+00 0.00000E+00
 -1      2814 1.01775E+02 8.71282E+00 0.00000E+00
 -1      2815 1.01025E+02 1.00118E+01 0.00000E+00
 -1      2816 1.06275E+02 8.71282E+00 0.00000E+00
 -1      2817 1.04775E+02 8.71282E+00 0.00000E+00
 -1      2818 1.04025E+02 1.00118E+01 0.00000E+00
 -1      2819 1.09275E+02 8.71282E+00 0.00000E+00
 -1      2820 1.07775E+02 8.71282E+00 0.00000E+00
 -1      2821 1.07025E+02 1.00118E+01 0.00000E+00
 -1      2822 1.12275E+02 8.71282E+00 0.00000E+00
 -1      2823 1.10775E+02 8.71282E+00 0.00000E+00
 -1      2824 1.10025E+02 1.00118E+01 0.00000E+00
 -1      2825 1.15125E+02 8.71282E+00 0.00000E+00
 -1      2826 1.13700E+02 8.71282E+00 0.00000E+00
 -1      2827 1.12950E+02 1.00118E+01 0.00000E+00
 -1      2828 1.18125E+02 8.71282E+00 0.00000E+00
 -1      2829 1.16625E+02 8.71282E+00 0.00000E+00
 -1      2830 1.15875E+02 1.00118E+01 0.00000E+00
 -1      2831 1.21125E+02 8.71282E+00 0.00000E+00
 -1      2832 1.19625E+02 8.71282E+00 0.00000E+00
 -1      2833 1.18875E+02 1.00118E+01 0.00000E+00
 -1      2834 1.24125E+02 8.71282E+00 0.00000E+00
 -1      2835 1.22625E+02 8.71282E+00 0.00000E+00
 -1      2836 1.21875E+02 1.00118E+01 0.00000E+00
 -1      2837 1.27125E+02 8.71282E+00 0.00000E+00
 -1      2838 1.25625E+02 8.71282E+00 0.00000E+00
 -1      2839 1.24875E+02 1.00118E+01 0.00000E+00
 -1      2840 1.29975E+02 8.71282E+00 0.00000E+00
 -1      2841 1.28550E+02 8.71282E+00 0.00000E+00
 -1      2842 1.27800E+02 1.00118E+01 0.00000E+00
 -1      2843 1.32975E+02 8.71282E+00 0.00000E+00
 -1      2844 1.31475E+02 8.71282E+00 0.00000E+00
 -1      2845 1.30725E+02 1.00118E+01 0.00000E+00
 -1      2846 1.35975E+02 8.71282E+00 0.00000E+00
 -1      2847 1.34475E+02 8.71282E+00 0.00000E+00
 -1      2848 1.33725E+02 1.00118E+01 0.00000E+00
 -1      2849 1.38975E+02 8.71282E+00 0.00000E+00
 -1      2850 1.37475E+02 8.71282E+00 0.00000E+00
 -1      2851 1.36725E+02 1.00118E+01 0.00000E+00
 -1      2852 1.41247E+02 9.24165E+00 0.00000E+00
 -1      2853 1.39978E+02 8.88260E+00 0.00000E+00
 -1      2854 1.39228E+02 1.01816E+01 0.00000E+00
 -1      2855 1.41233E+02 1.05212E+01 0.00000E+00
 -1      2856 1.40907E+02 2.42875E+01 0.00000E+00
 -1      2857 1.40907E+02 2.28125E+01 0.00000E+00
 -1      2858 7.59579E+01 1.21961E+01 0.00000E+00
 -1      2859 7.59411E+01 1.32374E+01 0.00000E+00
 -1      2860 7.70080E+01 1.37702E+01 0.00000E+00
 -1      2861 5.27611E+01 1.15752E+01 0.00000E+00
 -1      2862 5.30710E+01 1.05149E+01 0.00000E+00
 -1      2863 1.40907E+02 2.13375E+01 0.00000E+00
 -1      2864 1.40907E+02 1.98625E+01 0.00000E+00
 -1      2865 1.39608E+02 2.20750E+01 0.00000E+00
 -1      2866 1.40907E+02 3.01500E+01 0.00000E+00
 -1      2867 1.40907E+02 2.87000E+01 0.00000E+00
 -1      2868 1.40907E+02 3.31000E+01 0.00000E+00
 -1      2869 1.40907E+02 3.16250E+01 0.00000E+00
 -1      2870 1.39608E+02 3.09000E+01 0.00000E+00
 -1      2871 1.40907E+02 3.60500E+01 0.00000E+00
 -1      2872 1.40907E+02 3.45750E+01 0.00000E+00
 -1      2873 1.39608E+02 3.38500E+01 0.00000E+00
 -1      2874 1.41192E+02 3.82207E+01 0.00000E+00
 -1      2875 5.50127E+01 2.30604E+01 0.00000E+00
 -1      2876 5.43124E+01 2.21564E+01 0.00000E+00
 -1      2877 7.28096E+01 2.35756E+01 0.00000E+00
 -1      2878 7.19539E+01 2.43054E+01 0.00000E+00
 -1      2879 7.20463E+01 2.54818E+01 0.00000E+00
 -1      2880 5.35287E+01 2.11877E+01 0.00000E+00
 -1      2881 5.29017E+01 2.02046E+01 0.00000E+00
 -1      2882 5.20685E+01 1.62736E+01 0.00000E+00
 -1      2883 5.20355E+01 1.53234E+01 0.00000E+00
 -1      2884 7.45172E+01 2.11980E+01 0.00000E+00
 -1      2885 7.39206E+01 2.23197E+01 0.00000E+00
 -1      2886 7.95750E+01 8.71282E+00 0.00000E+00
 -1      2887 7.80750E+01 8.71282E+00 0.00000E+00
 -1      2888 8.03250E+01 1.00118E+01 0.00000E+00
 -1      2889 1.86000E+01 9.09300E+00 0.00000E+00
 -1      2890 1.71000E+01 9.09300E+00 0.00000E+00
 -1      2891 1.93500E+01 1.03920E+01 0.00000E+00
 -1      2892 7.52260E+01 1.89999E+01 0.00000E+00
 -1      2893 7.48256E+01 1.99677E+01 0.00000E+00
 -1      2894 7.58842E+01 1.68355E+01 0.00000E+00
 -1      2895 7.57220E+01 1.78570E+01 0.00000E+00
 -1      2896 1.40907E+02 2.72313E+01 0.00000E+00
 -1      2897 1.40907E+02 2.57563E+01 0.00000E+00
 -1      2898 1.39608E+02 2.50187E+01 0.00000E+00
 -1      2899 1.39608E+02 2.79562E+01 0.00000E+00
 -1      2900 2.74875E+01 9.09300E+00 0.00000E+00
 -1      2901 2.60625E+01 9.09300E+00 0.00000E+00
 -1      2902 2.53125E+01 1.03920E+01 0.00000E+00
 -1      2903 2.82375E+01 1.03920E+01 0.00000E+00
 -1      2904 6.13445E+01 5.16002E+00 0.00000E+00
 -1      2905 5.99073E+01 5.21318E+00 0.00000E+00
 -1      2906 6.12788E+01 2.69415E+01 0.00000E+00
 -1      2907 5.99680E+01 2.63406E+01 0.00000E+00
 -1      2908 5.25264E+01 1.87179E+01 0.00000E+00
 -1      2909 5.22712E+01 1.74965E+01 0.00000E+00
 -1      2910 9.09300E+00 1.68813E+01 0.00000E+00
 -1      2911 9.09300E+00 1.83563E+01 0.00000E+00
 -1      2912 1.03920E+01 1.90812E+01 0.00000E+00
 -1      2913 1.03920E+01 1.61437E+01 0.00000E+00
 -1      2914 5.86839E+01 2.58567E+01 0.00000E+00
 -1      2915 5.77979E+01 2.52470E+01 0.00000E+00
 -1      2916 5.68118E+01 2.58430E+01 0.00000E+00
 -1      2917 9.09300E+00 3.15875E+01 0.00000E+00
 -1      2918 9.09300E+00 3.30625E+01 0.00000E+00
 -1      2919 6.89742E+01 2.62765E+01 0.00000E+00
 -1      2920 6.79284E+01 2.68059E+01 0.00000E+00
 -1      2921 6.36053E+01 2.76172E+01 0.00000E+00
 -1      2922 6.26339E+01 2.74675E+01 0.00000E+00
 -1      2923 8.96362E+00 4.05429E+01 0.00000E+00
 -1      2924 1.03271E+01 4.08069E+01 0.00000E+00
 -1      2925 1.10771E+01 3.95079E+01 0.00000E+00
 -1      2926 8.93137E+00 3.93078E+01 0.00000E+00
 -1      2927 6.64884E+01 2.73700E+01 0.00000E+00
 -1      2928 6.51155E+01 2.76355E+01 0.00000E+00
 -1      2929 1.03920E+01 2.49750E+01 0.00000E+00
 -1      2930 9.09300E+00 2.57000E+01 0.00000E+00
 -1      2931 9.09300E+00 2.71750E+01 0.00000E+00
 -1      2932 1.23840E+01 8.74125E+00 0.00000E+00
 -1      2933 1.21327E+01 9.74175E+00 0.00000E+00
 -1      2934 1.36222E+01 8.75900E+00 0.00000E+00
 -1      2935 6.74365E+01 2.79451E+01 0.00000E+00
 -1      2936 7.68620E+01 1.61527E+01 0.00000E+00
 -1      2937 7.54927E+01 8.47404E+00 0.00000E+00
 -1      2938 5.31346E+01 2.22162E+01 0.00000E+00
 -1      2939 7.65378E+01 1.11508E+01 0.00000E+00
 -1      2940 7.54324E+01 2.10099E+01 0.00000E+00
 -1      2941 5.49221E+01 2.42091E+01 0.00000E+00
 -1      2942 5.20715E+01 9.29926E+00 0.00000E+00
 -1      2943 5.13215E+01 1.05983E+01 0.00000E+00
 -1      2944 1.03920E+01 3.37938E+01 0.00000E+00
 -1      2945 9.09300E+00 3.45313E+01 0.00000E+00
 -1      2946 9.09300E+00 3.60000E+01 0.00000E+00
 -1      2947 7.00336E+01 2.67963E+01 0.00000E+00
 -1      2948 1.40907E+02 1.83937E+01 0.00000E+00
 -1      2949 1.40907E+02 1.69250E+01 0.00000E+00
 -1      2950 1.39608E+02 1.91313E+01 0.00000E+00
 -1      2951 5.19975E+01 1.21236E+01 0.00000E+00
 -1      2952 5.89819E+01 2.69367E+01 0.00000E+00
 -1      2953 1.39893E+02 3.74958E+01 0.00000E+00
 -1      2954 7.40130E+01 2.34961E+01 0.00000E+00
 -1      2955 1.40907E+02 1.54563E+01 0.00000E+00
 -1      2956 1.40907E+02 1.39875E+01 0.00000E+00
 -1      2957 1.39608E+02 1.61938E+01 0.00000E+00
 -1      2958 5.15486E+01 1.46355E+01 0.00000E+00
 -1      2959 1.41063E+02 1.28941E+01 0.00000E+00
 -1      2960 1.41077E+02 1.16146E+01 0.00000E+00
 -1      2961 1.40075E+02 1.14448E+01 0.00000E+00
 -1      2962 1.39764E+02 1.36316E+01 0.00000E+00
 -1      2963 6.44864E+01 2.84910E+01 0.00000E+00
 -1      2964 7.62368E+01 1.86367E+01 0.00000E+00
 -1      2965 9.09300E+00 2.86437E+01 0.00000E+00
 -1      2966 9.09300E+00 3.01187E+01 0.00000E+00
 -1      2967 1.03920E+01 3.08563E+01 0.00000E+00
 -1      2968 1.03920E+01 2.79188E+01 0.00000E+00
 -1      2969 5.30495E+01 9.00961E+00 0.00000E+00
 -1      2970 5.13977E+01 1.70511E+01 0.00000E+00
 -1      2971 6.16212E+01 2.79467E+01 0.00000E+00
 -1      2972 1.59803E+01 8.93487E+00 0.00000E+00
 -1      2973 1.47420E+01 8.91712E+00 0.00000E+00
 -1      2974 1.44908E+01 9.91763E+00 0.00000E+00
 -1      2975 1.67302E+01 1.02339E+01 0.00000E+00
 -1      2976 1.18815E+01 1.07423E+01 0.00000E+00
 -1      2977 1.16302E+01 1.17428E+01 0.00000E+00
 -1      2978 1.31198E+01 1.07600E+01 0.00000E+00
 -1      2979 1.16302E+01 1.32177E+01 0.00000E+00
 -1      2980 1.29000E+01 3.83090E+01 0.00000E+00
 -1      2981 1.44000E+01 3.83090E+01 0.00000E+00
 -1      2982 5.66261E+01 2.70614E+01 0.00000E+00
 -1      2983 5.57401E+01 2.64517E+01 0.00000E+00
 -1      2984 1.59000E+01 3.83090E+01 0.00000E+00
 -1      2985 1.74000E+01 3.83090E+01 0.00000E+00
 -1      2986 1.51500E+01 3.70100E+01 0.00000E+00
 -1      2987 1.89000E+01 3.83090E+01 0.00000E+00
 -1      2988 2.04000E+01 3.83090E+01 0.00000E+00
 -1      2989 1.81500E+01 3.70100E+01 0.00000E+00
 -1      2990 2.19000E+01 3.83090E+01 0.00000E+00
 -1      2991 2.34000E+01 3.83090E+01 0.00000E+00
 -1      2992 2.11500E+01 3.70100E+01 0.00000E+00
 -1      2993 2.49000E+01 3.83090E+01 0.00000E+00
 -1      2994 2.64000E+01 3.83090E+01 0.00000E+00
 -1      2995 2.41500E+01 3.70100E+01 0.00000E+00
 -1      2996 2.79000E+01 3.83090E+01 0.00000E+00
 -1      2997 2.94000E+01 3.83090E+01 0.00000E+00
 -1      2998 2.71500E+01 3.70100E+01 0.00000E+00
 -1      2999 3.09000E+01 3.83090E+01 0.00000E+00
 -1      3000 3.24000E+01 3.83090E+01 0.00000E+00
 -1      3001 3.01500E+01 3.70100E+01 0.00000E+00
 -1      3002 3.39000E+01 3.83090E+01 0.00000E+00
 -1      3003 3.54000E+01 3.83090E+01 0.00000E+00
 -1      3004 3.31500E+01 3.70100E+01 0.00000E+00
 -1      3005 3.69000E+01 3.83090E+01 0.00000E+00
 -1      3006 3.84000E+01 3.83090E+01 0.00000E+00
 -1      3007 3.61500E+01 3.70100E+01 0.00000E+00
 -1      3008 3.99000E+01 3.83090E+01 0.00000E+00
 -1      3009 4.14000E+01 3.83090E+01 0.00000E+00
 -1      3010 3.91500E+01 3.70100E+01 0.00000E+00
 -1      3011 4.29000E+01 3.83090E+01 0.00000E+00
 -1      3012 4.44000E+01 3.83090E+01 0.00000E+00
 -1      3013 4.21500E+01 3.70100E+01 0.00000E+00
 -1      3014 4.59000E+01 3.83090E+01 0.00000E+00
 -1      3015 4.74000E+01 3.83090E+01 0.00000E+00
 -1      3016 4.51500E+01 3.70100E+01 0.00000E+00
 -1      3017 4.89000E+01 3.83090E+01 0.00000E+00
 -1      3018 5.04000E+01 3.83090E+01 0.00000E+00
 -1      3019 4.81500E+01 3.70100E+01 0.00000E+00
 -1      3020 5.19000E+01 3.83090E+01 0.00000E+00
 -1      3021 5.34000E+01 3.83090E+01 0.00000E+00
 -1      3022 5.11500E+01 3.70100E+01 0.00000E+00
 -1      3023 5.49000E+01 3.83090E+01 0.00000E+00
 -1      3024 5.64000E+01 3.83090E+01 0.00000E+00
 -1      3025 5.41500E+01 3.70100E+01 0.00000E+00
 -1      3026 5.79000E+01 3.83090E+01 0.00000E+00
 -1      3027 5.94000E+01 3.83090E+01 0.00000E+00
 -1      3028 5.71500E+01 3.70100E+01 0.00000E+00
 -1      3029 6.09000E+01 3.83090E+01 0.00000E+00
 -1      3030 6.24000E+01 3.83090E+01 0.00000E+00
 -1      3031 6.01500E+01 3.70100E+01 0.00000E+00
 -1      3032 6.39000E+01 3.83090E+01 0.00000E+00
 -1      3033 6.54000E+01 3.83090E+01 0.00000E+00
 -1      3034 6.31500E+01 3.70100E+01 0.00000E+00
 -1      3035 6.69000E+01 3.83090E+01 0.00000E+00
 -1      3036 6.84000E+01 3.83090E+01 0.00000E+00
 -1      3037 6.61500E+01 3.70100E+01 0.00000E+00
 -1      3038 6.99000E+01 3.83090E+01 0.00000E+00
 -1      3039 7.14000E+01 3.83090E+01 0.00000E+00
 -1      3040 6.91500E+01 3.70100E+01 0.00000E+00
 -1      3041 7.29000E+01 3.83090E+01 0.00000E+00
 -1      3042 7.44000E+01 3.83090E+01 0.00000E+00
 -1      3043 7.21500E+01 3.70100E+01 0.00000E+00
 -1      3044 7.59000E+01 3.83090E+01 0.00000E+00
 -1      3045 7.74000E+01 3.83090E+01 0.00000E+00
 -1      3046 7.51500E+01 3.70100E+01 0.00000E+00
 -1      3047 7.89000E+01 3.83090E+01 0.00000E+00
 -1      3048 8.04000E+01 3.83090E+01 0.00000E+00
 -1      3049 7.81500E+01 3.70100E+01 0.00000E+00
 -1      3050 8.19000E+01 3.83090E+01 0.00000E+00
 -1      3051 8.34000E+01 3.83090E+01 0.00000E+00
 -1      3052 8.11500E+01 3.70100E+01 0.00000E+00
 -1      3053 8.49000E+01 3.83090E+01 0.00000E+00
 -1      3054 8.64000E+01 3.83090E+01 0.00000E+00
 -1      3055 8.41500E+01 3.70100E+01 0.00000E+00
 -1      3056 8.79000E+01 3.83090E+01 0.00000E+00
 -1      3057 8.94000E+01 3.83090E+01 0.00000E+00
 -1      3058 8.71500E+01 3.70100E+01 0.00000E+00
 -1      3059 9.09000E+01 3.83090E+01 0.00000E+00
 -1      3060 9.24000E+01 3.83090E+01 0.00000E+00
 -1      3061 9.01500E+01 3.70100E+01 0.00000E+00
 -1      3062 9.39000E+01 3.83090E+01 0.00000E+00
 -1      3063 9.54000E+01 3.83090E+01 0.00000E+00
 -1      3064 9.31500E+01 3.70100E+01 0.00000E+00
 -1      3065 9.69000E+01 3.83090E+01 0.00000E+00
 -1      3066 9.84000E+01 3.83090E+01 0.00000E+00
 -1      3067 9.61500E+01 3.70100E+01 0.00000E+00
 -1      3068 9.99000E+01 3.83090E+01 0.00000E+00
 -1      3069 1.01400E+02 3.83090E+01 0.00000E+00
 -1      3070 9.91500E+01 3.70100E+01 0.00000E+00
 -1      3071 1.02900E+02 3.83090E+01 0.00000E+00
 -1      3072 1.04400E+02 3.83090E+01 0.00000E+00
 -1      3073 1.02150E+02 3.70100E+01 0.00000E+00
 -1      3074 1.05900E+02 3.83090E+01 0.00000E+00
 -1      3075 1.07400E+02 3.83090E+01 0.00000E+00
 -1      3076 1.05150E+02 3.70100E+01 0.00000E+00
 -1      3077 1.08900E+02 3.83090E+01 0.00000E+00
 -1      3078 1.10400E+02 3.83090E+01 0.00000E+00
 -1      3079 1.08150E+02 3.70100E+01 0.00000E+00
 -1      3080 1.11900E+02 3.83090E+01 0.00000E+00
 -1      3081 1.13400E+02 3.83090E+01 0.00000E+00
 -1      3082 1.11150E+02 3.70100E+01 0.00000E+00
 -1      3083 1.14900E+02 3.83090E+01 0.00000E+00
 -1      3084 1.16400E+02 3.83090E+01 0.00000E+00
 -1      3085 1.14150E+02 3.70100E+01 0.00000E+00
 -1      3086 1.17900E+02 3.83090E+01 0.00000E+00
 -1      3087 1.19400E+02 3.83090E+01 0.00000E+00
 -1      3088 1.17150E+02 3.70100E+01 0.00000E+00
 -1      3089 1.20900E+02 3.83090E+01 0.00000E+00
 -1      3090 1.22400E+02 3.83090E+01 0.00000E+00
 -1      3091 1.20150E+02 3.70100E+01 0.00000E+00
 -1      3092 1.23900E+02 3.83090E+01 0.00000E+00
 -1      3093 1.25400E+02 3.83090E+01 0.00000E+00
 -1      3094 1.23150E+02 3.70100E+01 0.00000E+00
 -1      3095 1.26900E+02 3.83090E+01 0.00000E+00
 -1      3096 1.28400E+02 3.83090E+01 0.00000E+00
 -1      3097 1.26150E+02 3.70100E+01 0.00000E+00
 -1      3098 1.29900E+02 3.83090E+01 0.00000E+00
 -1      3099 1.31400E+02 3.83090E+01 0.00000E+00
 -1      3100 1.29150E+02 3.70100E+01 0.00000E+00
 -1      3101 1.32900E+02 3.83090E+01 0.00000E+00
 -1      3102 1.34400E+02 3.83090E+01 0.00000E+00
 -1      3103 1.32150E+02 3.70100E+01 0.00000E+00
 -1      3104 3.49500E+01 1.16910E+01 0.00000E+00
 -1      3105 3.34500E+01 1.16910E+01 0.00000E+00
 -1      3106 3.19500E+01 1.16910E+01 0.00000E+00
 -1      3107 3.04500E+01 1.16910E+01 0.00000E+00
 -1      3108 3.27000E+01 1.29900E+01 0.00000E+00
 -1      3109 4.09500E+01 1.16910E+01 0.00000E+00
 -1      3110 3.94500E+01 1.16910E+01 0.00000E+00
 -1      3111 4.38000E+01 1.16910E+01 0.00000E+00
 -1      3112 4.23750E+01 1.16910E+01 0.00000E+00
 -1      3113 4.16250E+01 1.29900E+01 0.00000E+00
 -1      3114 4.68000E+01 1.16910E+01 0.00000E+00
 -1      3115 4.53000E+01 1.16910E+01 0.00000E+00
 -1      3116 4.45500E+01 1.29900E+01 0.00000E+00
 -1      3117 7.66622E+01 2.06644E+01 0.00000E+00
 -1      3118 7.63538E+01 2.18947E+01 0.00000E+00
 -1      3119 8.69250E+01 1.13108E+01 0.00000E+00
 -1      3120 8.54250E+01 1.13108E+01 0.00000E+00
 -1      3121 9.29250E+01 1.13108E+01 0.00000E+00
 -1      3122 9.14250E+01 1.13108E+01 0.00000E+00
 -1      3123 5.18680E+01 2.03255E+01 0.00000E+00
 -1      3124 5.24188E+01 1.92827E+01 0.00000E+00
 -1      3125 8.99250E+01 1.13108E+01 0.00000E+00
 -1      3126 8.84250E+01 1.13108E+01 0.00000E+00
 -1      3127 8.76750E+01 1.26098E+01 0.00000E+00
 -1      3128 9.06750E+01 1.26098E+01 0.00000E+00
 -1      3129 9.57750E+01 1.13108E+01 0.00000E+00
 -1      3130 9.43500E+01 1.13108E+01 0.00000E+00
 -1      3131 9.36000E+01 1.26098E+01 0.00000E+00
 -1      3132 9.87750E+01 1.13108E+01 0.00000E+00
 -1      3133 9.72750E+01 1.13108E+01 0.00000E+00
 -1      3134 9.65250E+01 1.26098E+01 0.00000E+00
 -1      3135 1.01775E+02 1.13108E+01 0.00000E+00
 -1      3136 1.00275E+02 1.13108E+01 0.00000E+00
 -1      3137 9.95250E+01 1.26098E+01 0.00000E+00
 -1      3138 1.04775E+02 1.13108E+01 0.00000E+00
 -1      3139 1.03275E+02 1.13108E+01 0.00000E+00
 -1      3140 1.02525E+02 1.26098E+01 0.00000E+00
 -1      3141 1.07775E+02 1.13108E+01 0.00000E+00
 -1      3142 1.06275E+02 1.13108E+01 0.00000E+00
 -1      3143 1.05525E+02 1.26098E+01 0.00000E+00
 -1      3144 1.10775E+02 1.13108E+01 0.00000E+00
 -1      3145 1.09275E+02 1.13108E+01 0.00000E+00
 -1      3146 1.08525E+02 1.26098E+01 0.00000E+00
 -1      3147 1.13625E+02 1.13108E+01 0.00000E+00
 -1      3148 1.12200E+02 1.13108E+01 0.00000E+00
 -1      3149 1.11450E+02 1.26098E+01 0.00000E+00
 -1      3150 1.16625E+02 1.13108E+01 0.00000E+00
 -1      3151 1.15125E+02 1.13108E+01 0.00000E+00
 -1      3152 1.14375E+02 1.26098E+01 0.00000E+00
 -1      3153 1.19625E+02 1.13108E+01 0.00000E+00
 -1      3154 1.18125E+02 1.13108E+01 0.00000E+00
 -1      3155 1.17375E+02 1.26098E+01 0.00000E+00
 -1      3156 1.22625E+02 1.13108E+01 0.00000E+00
 -1      3157 1.21125E+02 1.13108E+01 0.00000E+00
 -1      3158 1.20375E+02 1.26098E+01 0.00000E+00
 -1      3159 1.25625E+02 1.13108E+01 0.00000E+00
 -1      3160 1.24125E+02 1.13108E+01 0.00000E+00
 -1      3161 1.23375E+02 1.26098E+01 0.00000E+00
 -1      3162 1.28475E+02 1.13108E+01 0.00000E+00
 -1      3163 1.27050E+02 1.13108E+01 0.00000E+00
 -1      3164 1.26300E+02 1.26098E+01 0.00000E+00
 -1      3165 1.31475E+02 1.13108E+01 0.00000E+00
 -1      3166 1.29975E+02 1.13108E+01 0.00000E+00
 -1      3167 1.29225E+02 1.26098E+01 0.00000E+00
 -1      3168 1.34475E+02 1.13108E+01 0.00000E+00
 -1      3169 1.32975E+02 1.13108E+01 0.00000E+00
 -1      3170 1.32225E+02 1.26098E+01 0.00000E+00
 -1      3171 1.37475E+02 1.13108E+01 0.00000E+00
 -1      3172 1.35975E+02 1.13108E+01 0.00000E+00
 -1      3173 1.35225E+02 1.26098E+01 0.00000E+00
 -1      3174 5.26644E+01 2.33980E+01 0.00000E+00
 -1      3175 5.18807E+01 2.24293E+01 0.00000E+00
 -1      3176 7.80414E+01 1.32661E+01 0.00000E+00
 -1      3177 7.80246E+01 1.43074E+01 0.00000E+00
 -1      3178 5.11307E+01 1.32364E+01 0.00000E+00
 -1      3179 5.12261E+01 1.19174E+01 0.00000E+00
 -1      3180 5.04546E+01 1.17111E+01 0.00000E+00
 -1      3181 1.38309E+02 3.45875E+01 0.00000E+00
 -1      3182 1.38309E+02 3.31125E+01 0.00000E+00
 -1      3183 1.38309E+02 3.16375E+01 0.00000E+00
 -1      3184 1.38309E+02 3.01625E+01 0.00000E+00
 -1      3185 1.37010E+02 3.23750E+01 0.00000E+00
 -1      3186 8.99606E+00 3.70363E+01 0.00000E+00
 -1      3187 9.02831E+00 3.82715E+01 0.00000E+00
 -1      3188 1.01012E+01 3.83715E+01 0.00000E+00
 -1      3189 1.02951E+01 3.62988E+01 0.00000E+00
 -1      3190 7.33024E+01 2.60881E+01 0.00000E+00
 -1      3191 7.24468E+01 2.68179E+01 0.00000E+00
 -1      3192 6.52271E+01 2.96927E+01 0.00000E+00
 -1      3193 6.37169E+01 2.96745E+01 0.00000E+00
 -1      3194 5.92330E+01 2.82163E+01 0.00000E+00
 -1      3195 5.79488E+01 2.77324E+01 0.00000E+00
 -1      3196 2.01000E+01 1.16910E+01 0.00000E+00
 -1      3197 1.86000E+01 1.16910E+01 0.00000E+00
 -1      3198 7.66879E+01 8.49327E+00 0.00000E+00
 -1      3199 8.10750E+01 1.13108E+01 0.00000E+00
 -1      3200 7.95750E+01 1.13108E+01 0.00000E+00
 -1      3201 7.76542E+01 1.83786E+01 0.00000E+00
 -1      3202 7.71582E+01 1.95215E+01 0.00000E+00
 -1      3203 7.80797E+01 2.04063E+01 0.00000E+00
 -1      3204 7.55245E+01 2.35763E+01 0.00000E+00
 -1      3205 7.44135E+01 2.48322E+01 0.00000E+00
 -1      3206 7.48140E+01 2.61683E+01 0.00000E+00
 -1      3207 8.39625E+01 1.13108E+01 0.00000E+00
 -1      3208 8.25375E+01 1.13108E+01 0.00000E+00
 -1      3209 8.17875E+01 1.26098E+01 0.00000E+00
 -1      3210 8.47125E+01 1.26098E+01 0.00000E+00
 -1      3211 5.04050E+01 1.78439E+01 0.00000E+00
 -1      3212 5.02023E+01 1.66210E+01 0.00000E+00
 -1      3213 5.14927E+01 1.88388E+01 0.00000E+00
 -1      3214 1.38309E+02 2.28125E+01 0.00000E+00
 -1      3215 1.38309E+02 2.13375E+01 0.00000E+00
 -1      3216 5.45721E+01 2.55560E+01 0.00000E+00
 -1      3217 5.35684E+01 2.45318E+01 0.00000E+00
 -1      3218 2.31000E+01 1.16910E+01 0.00000E+00
 -1      3219 2.16000E+01 1.16910E+01 0.00000E+00
 -1      3220 2.08500E+01 1.29900E+01 0.00000E+00
 -1      3221 6.19431E+01 2.92684E+01 0.00000E+00
 -1      3222 6.05881E+01 2.87424E+01 0.00000E+00
 -1      3223 5.95549E+01 2.95381E+01 0.00000E+00
 -1      3224 5.07771E+01 1.44292E+01 0.00000E+00
 -1      3225 7.79127E+01 1.56963E+01 0.00000E+00
 -1      3226 7.77834E+01 1.70375E+01 0.00000E+00
 -1      3227 7.87049E+01 1.79223E+01 0.00000E+00
 -1      3228 1.38758E+02 3.82051E+01 0.00000E+00
 -1      3229 1.38473E+02 3.60343E+01 0.00000E+00
 -1      3230 1.37173E+02 3.52968E+01 0.00000E+00
 -1      3231 1.37501E+02 3.81904E+01 0.00000E+00
 -1      3232 1.16910E+01 2.12875E+01 0.00000E+00
 -1      3233 1.16910E+01 2.27625E+01 0.00000E+00
 -1      3234 6.85304E+01 2.86176E+01 0.00000E+00
 -1      3235 6.70905E+01 2.91817E+01 0.00000E+00
 -1      3236 3.79500E+01 1.16910E+01 0.00000E+00
 -1      3237 3.64500E+01 1.16910E+01 0.00000E+00
 -1      3238 3.57000E+01 1.29900E+01 0.00000E+00
 -1      3239 7.11123E+01 2.74936E+01 0.00000E+00
 -1      3240 6.99552E+01 2.80784E+01 0.00000E+00
 -1      3241 7.74379E+01 9.79227E+00 0.00000E+00
 -1      3242 5.11271E+01 2.13010E+01 0.00000E+00
 -1      3243 5.06442E+01 2.03791E+01 0.00000E+00
 -1      3244 7.79249E+01 1.13704E+01 0.00000E+00
 -1      3245 5.68772E+01 2.83410E+01 0.00000E+00
 -1      3246 5.43864E+01 2.67744E+01 0.00000E+00
 -1      3247 3.87000E+01 1.29900E+01 0.00000E+00
 -1      3248 6.96091E+01 2.93149E+01 0.00000E+00
 -1      3249 1.36243E+02 3.81758E+01 0.00000E+00
 -1      3250 1.16910E+01 1.54094E+01 0.00000E+00
 -1      3251 1.16910E+01 1.68781E+01 0.00000E+00
 -1      3252 1.16910E+01 3.30594E+01 0.00000E+00
 -1      3253 1.16910E+01 3.45281E+01 0.00000E+00
 -1      3254 2.97375E+01 1.29900E+01 0.00000E+00
 -1      3255 2.89875E+01 1.16910E+01 0.00000E+00
 -1      3256 2.75250E+01 1.16910E+01 0.00000E+00
 -1      3257 4.89546E+01 1.17111E+01 0.00000E+00
 -1      3258 7.86749E+01 1.26694E+01 0.00000E+00
 -1      3259 7.23684E+01 2.81000E+01 0.00000E+00
 -1      3260 4.87918E+01 1.60148E+01 0.00000E+00
 -1      3261 4.97845E+01 1.52220E+01 0.00000E+00
 -1      3262 4.93666E+01 1.38230E+01 0.00000E+00
 -1      3263 1.37010E+02 2.06063E+01 0.00000E+00
 -1      3264 1.38309E+02 1.98687E+01 0.00000E+00
 -1      3265 1.38309E+02 1.84000E+01 0.00000E+00
 -1      3266 1.35493E+02 3.68768E+01 0.00000E+00
 -1      3267 5.06569E+01 2.24828E+01 0.00000E+00
 -1      3268 5.23144E+01 2.47449E+01 0.00000E+00
 -1      3269 1.39072E+02 1.12750E+01 0.00000E+00
 -1      3270 4.82046E+01 1.30101E+01 0.00000E+00
 -1      3271 7.89460E+01 1.51922E+01 0.00000E+00
 -1      3272 1.16910E+01 1.98188E+01 0.00000E+00
 -1      3273 1.29900E+01 2.05562E+01 0.00000E+00
 -1      3274 1.16910E+01 1.83500E+01 0.00000E+00
 -1      3275 1.37010E+02 2.94312E+01 0.00000E+00
 -1      3276 1.38309E+02 2.86938E+01 0.00000E+00
 -1      3277 1.38309E+02 2.72250E+01 0.00000E+00
 -1      3278 2.45625E+01 1.16910E+01 0.00000E+00
 -1      3279 2.38125E+01 1.29900E+01 0.00000E+00
 -1      3280 2.60250E+01 1.16910E+01 0.00000E+00
 -1      3281 1.38309E+02 1.69312E+01 0.00000E+00
 -1      3282 1.38309E+02 1.54625E+01 0.00000E+00
 -1      3283 1.37010E+02 1.76688E+01 0.00000E+00
 -1      3284 6.63210E+01 3.03652E+01 0.00000E+00
 -1      3285 6.55515E+01 3.15487E+01 0.00000E+00
 -1      3286 6.74149E+01 3.10376E+01 0.00000E+00
 -1      3287 6.26838E+01 3.04702E+01 0.00000E+00
 -1      3288 1.38167E+02 1.36674E+01 0.00000E+00
 -1      3289 1.38322E+02 1.25740E+01 0.00000E+00
 -1      3290 1.36867E+02 1.44049E+01 0.00000E+00
 -1      3291 1.78500E+01 1.29900E+01 0.00000E+00
 -1      3292 1.71000E+01 1.16910E+01 0.00000E+00
 -1      3293 1.16910E+01 3.01219E+01 0.00000E+00
 -1      3294 1.16910E+01 3.15906E+01 0.00000E+00
 -1      3295 1.29900E+01 3.23250E+01 0.00000E+00
 -1      3296 1.29292E+01 1.39521E+01 0.00000E+00
 -1      3297 1.29900E+01 2.35000E+01 0.00000E+00
 -1      3298 1.16910E+01 2.42375E+01 0.00000E+00
 -1      3299 1.16910E+01 2.57125E+01 0.00000E+00
 -1      3300 1.38309E+02 2.57531E+01 0.00000E+00
 -1      3301 1.38309E+02 2.42844E+01 0.00000E+00
 -1      3302 1.37010E+02 2.35469E+01 0.00000E+00
 -1      3303 1.37010E+02 2.64906E+01 0.00000E+00
 -1      3304 7.67543E+01 2.32308E+01 0.00000E+00
 -1      3305 5.04708E+01 1.93939E+01 0.00000E+00
 -1      3306 5.05784E+01 1.88291E+01 0.00000E+00
 -1      3307 4.93831E+01 1.83990E+01 0.00000E+00
 -1      3308 4.97299E+01 2.03694E+01 0.00000E+00
 -1      3309 1.11741E+01 3.84716E+01 0.00000E+00
 -1      3310 1.59803E+01 1.15329E+01 0.00000E+00
 -1      3311 1.19241E+01 3.71726E+01 0.00000E+00
 -1      3312 1.42395E+01 1.09181E+01 0.00000E+00
 -1      3313 1.46093E+01 1.23753E+01 0.00000E+00
 -1      3314 1.74000E+01 3.57110E+01 0.00000E+00
 -1      3315 1.89000E+01 3.57110E+01 0.00000E+00
 -1      3316 2.04000E+01 3.57110E+01 0.00000E+00
 -1      3317 2.19000E+01 3.57110E+01 0.00000E+00
 -1      3318 1.96500E+01 3.44120E+01 0.00000E+00
 -1      3319 2.34000E+01 3.57110E+01 0.00000E+00
 -1      3320 2.49000E+01 3.57110E+01 0.00000E+00
 -1      3321 2.26500E+01 3.44120E+01 0.00000E+00
 -1      3322 2.64000E+01 3.57110E+01 0.00000E+00
 -1      3323 2.79000E+01 3.57110E+01 0.00000E+00
 -1      3324 2.56500E+01 3.44120E+01 0.00000E+00
 -1      3325 2.94000E+01 3.57110E+01 0.00000E+00
 -1      3326 3.09000E+01 3.57110E+01 0.00000E+00
 -1      3327 2.86500E+01 3.44120E+01 0.00000E+00
 -1      3328 3.24000E+01 3.57110E+01 0.00000E+00
 -1      3329 3.39000E+01 3.57110E+01 0.00000E+00
 -1      3330 3.16500E+01 3.44120E+01 0.00000E+00
 -1      3331 3.54000E+01 3.57110E+01 0.00000E+00
 -1      3332 3.69000E+01 3.57110E+01 0.00000E+00
 -1      3333 3.46500E+01 3.44120E+01 0.00000E+00
 -1      3334 3.84000E+01 3.57110E+01 0.00000E+00
 -1      3335 3.99000E+01 3.57110E+01 0.00000E+00
 -1      3336 3.76500E+01 3.44120E+01 0.00000E+00
 -1      3337 4.14000E+01 3.57110E+01 0.00000E+00
 -1      3338 4.29000E+01 3.57110E+01 0.00000E+00
 -1      3339 4.06500E+01 3.44120E+01 0.00000E+00
 -1      3340 4.44000E+01 3.57110E+01 0.00000E+00
 -1      3341 4.59000E+01 3.57110E+01 0.00000E+00
 -1      3342 4.36500E+01 3.44120E+01 0.00000E+00
 -1      3343 4.74000E+01 3.57110E+01 0.00000E+00
 -1      3344 4.89000E+01 3.57110E+01 0.00000E+00
 -1      3345 4.66500E+01 3.44120E+01 0.00000E+00
 -1      3346 5.04000E+01 3.57110E+01 0.00000E+00
 -1      3347 5.19000E+01 3.57110E+01 0.00000E+00
 -1      3348 4.96500E+01 3.44120E+01 0.00000E+00
 -1      3349 5.34000E+01 3.57110E+01 0.00000E+00
 -1      3350 5.49000E+01 3.57110E+01 0.00000E+00
 -1      3351 5.26500E+01 3.44120E+01 0.00000E+00
 -1      3352 5.64000E+01 3.57110E+01 0.00000E+00
 -1      3353 5.79000E+01 3.57110E+01 0.00000E+00
 -1      3354 5.56500E+01 3.44120E+01 0.00000E+00
 -1      3355 5.94000E+01 3.57110E+01 0.00000E+00
 -1      3356 6.09000E+01 3.57110E+01 0.00000E+00
 -1      3357 5.86500E+01 3.44120E+01 0.00000E+00
 -1      3358 6.24000E+01 3.57110E+01 0.00000E+00
 -1      3359 6.39000E+01 3.57110E+01 0.00000E+00
 -1      3360 6.16500E+01 3.44120E+01 0.00000E+00
 -1      3361 6.56477E+01 3.46156E+01 0.00000E+00
 -1      3362 6.71477E+01 3.46156E+01 0.00000E+00
 -1      3363 7.14000E+01 3.57110E+01 0.00000E+00
 -1      3364 7.29000E+01 3.57110E+01 0.00000E+00
 -1      3365 7.44000E+01 3.57110E+01 0.00000E+00
 -1      3366 7.59000E+01 3.57110E+01 0.00000E+00
 -1      3367 7.36500E+01 3.44120E+01 0.00000E+00
 -1      3368 7.74000E+01 3.57110E+01 0.00000E+00
 -1      3369 7.89000E+01 3.57110E+01 0.00000E+00
 -1      3370 7.66500E+01 3.44120E+01 0.00000E+00
 -1      3371 8.04000E+01 3.57110E+01 0.00000E+00
 -1      3372 8.19000E+01 3.57110E+01 0.00000E+00
 -1      3373 7.96500E+01 3.44120E+01 0.00000E+00
 -1      3374 8.34000E+01 3.57110E+01 0.00000E+00
 -1      3375 8.49000E+01 3.57110E+01 0.00000E+00
 -1      3376 8.26500E+01 3.44120E+01 0.00000E+00
 -1      3377 8.64000E+01 3.57110E+01 0.00000E+00
 -1      3378 8.79000E+01 3.57110E+01 0.00000E+00
 -1      3379 8.56500E+01 3.44120E+01 0.00000E+00
 -1      3380 8.94000E+01 3.57110E+01 0.00000E+00
 -1      3381 9.09000E+01 3.57110E+01 0.00000E+00
 -1      3382 8.86500E+01 3.44120E+01 0.00000E+00
 -1      3383 9.24000E+01 3.57110E+01 0.00000E+00
 -1      3384 9.39000E+01 3.57110E+01 0.00000E+00
 -1      3385 9.16500E+01 3.44120E+01 0.00000E+00
 -1      3386 9.54000E+01 3.57110E+01 0.00000E+00
 -1      3387 9.69000E+01 3.57110E+01 0.00000E+00
 -1      3388 9.46500E+01 3.44120E+01 0.00000E+00
 -1      3389 9.84000E+01 3.57110E+01 0.00000E+00
 -1      3390 9.99000E+01 3.57110E+01 0.00000E+00
 -1      3391 9.76500E+01 3.44120E+01 0.00000E+00
 -1      3392 1.01400E+02 3.57110E+01 0.00000E+00
 -1      3393 1.02900E+02 3.57110E+01 0.00000E+00
 -1      3394 1.00650E+02 3.44120E+01 0.00000E+00
 -1      3395 1.04400E+02 3.57110E+01 0.00000E+00
 -1      3396 1.05900E+02 3.57110E+01 0.00000E+00
 -1      3397 1.03650E+02 3.44120E+01 0.00000E+00
 -1      3398 1.07400E+02 3.57110E+01 0.00000E+00
 -1      3399 1.08900E+02 3.57110E+01 0.00000E+00
 -1      3400 1.06650E+02 3.44120E+01 0.00000E+00
 -1      3401 1.10400E+02 3.57110E+01 0.00000E+00
 -1      3402 1.11900E+02 3.57110E+01 0.00000E+00
 -1      3403 1.09650E+02 3.44120E+01 0.00000E+00
 -1      3404 1.13400E+02 3.57110E+01 0.00000E+00
 -1      3405 1.14900E+02 3.57110E+01 0.00000E+00
 -1      3406 1.12650E+02 3.44120E+01 0.00000E+00
 -1      3407 1.16400E+02 3.57110E+01 0.00000E+00
 -1      3408 1.17900E+02 3.57110E+01 0.00000E+00
 -1      3409 1.15650E+02 3.44120E+01 0.00000E+00
 -1      3410 1.19400E+02 3.57110E+01 0.00000E+00
 -1      3411 1.20900E+02 3.57110E+01 0.00000E+00
 -1      3412 1.18650E+02 3.44120E+01 0.00000E+00
 -1      3413 1.22400E+02 3.57110E+01 0.00000E+00
 -1      3414 1.23900E+02 3.57110E+01 0.00000E+00
 -1      3415 1.21650E+02 3.44120E+01 0.00000E+00
 -1      3416 1.25400E+02 3.57110E+01 0.00000E+00
 -1      3417 1.26900E+02 3.57110E+01 0.00000E+00
 -1      3418 1.24650E+02 3.44120E+01 0.00000E+00
 -1      3419 1.28400E+02 3.57110E+01 0.00000E+00
 -1      3420 1.29900E+02 3.57110E+01 0.00000E+00
 -1      3421 1.27650E+02 3.44120E+01 0.00000E+00
 -1      3422 1.31400E+02 3.57110E+01 0.00000E+00
 -1      3423 1.32900E+02 3.57110E+01 0.00000E+00
 -1      3424 1.30650E+02 3.44120E+01 0.00000E+00
 -1      3425 1.46700E+01 1.45669E+01 0.00000E+00
 -1      3426 4.53000E+01 1.41827E+01 0.00000E+00
 -1      3427 4.38000E+01 1.41827E+01 0.00000E+00
 -1      3428 4.23750E+01 1.41827E+01 0.00000E+00
 -1      3429 4.09500E+01 1.41827E+01 0.00000E+00
 -1      3430 4.31250E+01 1.53754E+01 0.00000E+00
 -1      3431 7.63424E+01 2.64011E+01 0.00000E+00
 -1      3432 7.52314E+01 2.76570E+01 0.00000E+00
 -1      3433 9.43125E+01 1.39088E+01 0.00000E+00
 -1      3434 9.28875E+01 1.39088E+01 0.00000E+00
 -1      3435 1.34115E+02 3.55705E+01 0.00000E+00
 -1      3436 1.35958E+02 3.54373E+01 0.00000E+00
 -1      3437 1.35795E+02 3.39905E+01 0.00000E+00
 -1      3438 1.33365E+02 3.42715E+01 0.00000E+00
 -1      3439 7.96915E+01 1.32066E+01 0.00000E+00
 -1      3440 7.36225E+01 2.89210E+01 0.00000E+00
 -1      3441 7.22880E+01 2.95967E+01 0.00000E+00
 -1      3442 1.03275E+02 1.39088E+01 0.00000E+00
 -1      3443 1.01775E+02 1.39088E+01 0.00000E+00
 -1      3444 1.06275E+02 1.39088E+01 0.00000E+00
 -1      3445 1.04775E+02 1.39088E+01 0.00000E+00
 -1      3446 1.04025E+02 1.52078E+01 0.00000E+00
 -1      3447 1.09275E+02 1.39088E+01 0.00000E+00
 -1      3448 1.07775E+02 1.39088E+01 0.00000E+00
 -1      3449 1.07025E+02 1.52078E+01 0.00000E+00
 -1      3450 1.12125E+02 1.39088E+01 0.00000E+00
 -1      3451 1.10700E+02 1.39088E+01 0.00000E+00
 -1      3452 1.09950E+02 1.52078E+01 0.00000E+00
 -1      3453 1.15125E+02 1.39088E+01 0.00000E+00
 -1      3454 1.13625E+02 1.39088E+01 0.00000E+00
 -1      3455 1.12875E+02 1.52078E+01 0.00000E+00
 -1      3456 1.18125E+02 1.39088E+01 0.00000E+00
 -1      3457 1.16625E+02 1.39088E+01 0.00000E+00
 -1      3458 1.15875E+02 1.52078E+01 0.00000E+00
 -1      3459 1.21125E+02 1.39088E+01 0.00000E+00
 -1      3460 1.19625E+02 1.39088E+01 0.00000E+00
 -1      3461 1.18875E+02 1.52078E+01 0.00000E+00
 -1      3462 1.24125E+02 1.39088E+01 0.00000E+00
 -1      3463 1.22625E+02 1.39088E+01 0.00000E+00
 -1      3464 1.21875E+02 1.52078E+01 0.00000E+00
 -1      3465 1.26975E+02 1.39088E+01 0.00000E+00
 -1      3466 1.25550E+02 1.39088E+01 0.00000E+00
 -1      3467 1.24800E+02 1.52078E+01 0.00000E+00
 -1      3468 1.29975E+02 1.39088E+01 0.00000E+00
 -1      3469 1.28475E+02 1.39088E+01 0.00000E+00
 -1      3470 1.27725E+02 1.52078E+01 0.00000E+00
 -1      3471 1.32975E+02 1.39088E+01 0.00000E+00
 -1      3472 1.31475E+02 1.39088E+01 0.00000E+00
 -1      3473 1.30725E+02 1.52078E+01 0.00000E+00
 -1      3474 1.35671E+02 1.41569E+01 0.00000E+00
 -1      3475 1.34171E+02 1.41569E+01 0.00000E+00
 -1      3476 1.33421E+02 1.54559E+01 0.00000E+00
 -1      3477 1.35814E+02 1.59520E+01 0.00000E+00
 -1      3478 1.20210E+01 3.61362E+01 0.00000E+00
 -1      3479 5.69610E+01 2.98149E+01 0.00000E+00
 -1      3480 5.56383E+01 2.91439E+01 0.00000E+00
 -1      3481 1.33200E+01 3.54019E+01 0.00000E+00
 -1      3482 1.86000E+01 1.42890E+01 0.00000E+00
 -1      3483 1.71001E+01 1.42890E+01 0.00000E+00
 -1      3484 5.41937E+01 2.82352E+01 0.00000E+00
 -1      3485 5.30257E+01 2.73395E+01 0.00000E+00
 -1      3486 5.98008E+01 3.09130E+01 0.00000E+00
 -1      3487 5.84458E+01 3.03869E+01 0.00000E+00
 -1      3488 1.35795E+02 3.25155E+01 0.00000E+00
 -1      3489 1.35795E+02 3.10405E+01 0.00000E+00
 -1      3490 1.34580E+02 3.26560E+01 0.00000E+00
 -1      3491 5.17683E+01 2.61076E+01 0.00000E+00
 -1      3492 5.08643E+01 2.49738E+01 0.00000E+00
 -1      3493 1.16910E+01 2.71844E+01 0.00000E+00
 -1      3494 1.16910E+01 2.86531E+01 0.00000E+00
 -1      3495 1.29900E+01 2.93875E+01 0.00000E+00
 -1      3496 7.98733E+01 1.73580E+01 0.00000E+00
 -1      3497 7.97441E+01 1.86992E+01 0.00000E+00
 -1      3498 7.94218E+01 2.03097E+01 0.00000E+00
 -1      3499 7.89258E+01 2.14526E+01 0.00000E+00
 -1      3500 9.73125E+01 1.39088E+01 0.00000E+00
 -1      3501 9.58125E+01 1.39088E+01 0.00000E+00
 -1      3502 9.51000E+01 1.52078E+01 0.00000E+00
 -1      3503 3.94500E+01 1.41827E+01 0.00000E+00
 -1      3504 3.79500E+01 1.41827E+01 0.00000E+00
 -1      3505 4.02000E+01 1.53754E+01 0.00000E+00
 -1      3506 1.00294E+02 1.39088E+01 0.00000E+00
 -1      3507 9.87937E+01 1.39088E+01 0.00000E+00
 -1      3508 9.80813E+01 1.52078E+01 0.00000E+00
 -1      3509 1.01044E+02 1.52078E+01 0.00000E+00
 -1      3510 2.16000E+01 1.42890E+01 0.00000E+00
 -1      3511 2.01000E+01 1.42890E+01 0.00000E+00
 -1      3512 1.93501E+01 1.55880E+01 0.00000E+00
 -1      3513 3.34500E+01 1.42890E+01 0.00000E+00
 -1      3514 3.19500E+01 1.42890E+01 0.00000E+00
 -1      3515 7.07437E+01 3.01608E+01 0.00000E+00
 -1      3516 6.93189E+01 3.07000E+01 0.00000E+00
 -1      3517 7.83138E+01 2.29546E+01 0.00000E+00
 -1      3518 7.74845E+01 2.46362E+01 0.00000E+00
 -1      3519 1.29900E+01 1.76156E+01 0.00000E+00
 -1      3520 5.01115E+01 2.36629E+01 0.00000E+00
 -1      3521 4.93580E+01 2.25346E+01 0.00000E+00
 -1      3522 6.38038E+01 3.26441E+01 0.00000E+00
 -1      3523 6.20300E+01 3.22381E+01 0.00000E+00
 -1      3524 1.46100E+01 3.55564E+01 0.00000E+00
 -1      3525 1.61100E+01 3.55564E+01 0.00000E+00
 -1      3526 1.68600E+01 3.42574E+01 0.00000E+00
 -1      3527 1.42800E+01 3.39483E+01 0.00000E+00
 -1      3528 3.64500E+01 1.42890E+01 0.00000E+00
 -1      3529 3.49500E+01 1.42890E+01 0.00000E+00
 -1      3530 3.42000E+01 1.55880E+01 0.00000E+00
 -1      3531 8.06835E+01 1.36026E+01 0.00000E+00
 -1      3532 8.00500E+01 1.41994E+01 0.00000E+00
 -1      3533 7.99381E+01 1.55883E+01 0.00000E+00
 -1      3534 8.21460E+01 1.36026E+01 0.00000E+00
 -1      3535 1.54200E+01 1.58659E+01 0.00000E+00
 -1      3536 3.72000E+01 1.54817E+01 0.00000E+00
 -1      3537 6.48977E+01 3.33166E+01 0.00000E+00
 -1      3538 3.04875E+01 1.42890E+01 0.00000E+00
 -1      3539 2.90250E+01 1.42890E+01 0.00000E+00
 -1      3540 3.12375E+01 1.55880E+01 0.00000E+00
 -1      3541 6.84000E+01 3.57110E+01 0.00000E+00
 -1      3542 6.99000E+01 3.57110E+01 0.00000E+00
 -1      3543 1.29900E+01 2.64469E+01 0.00000E+00
 -1      3544 2.67750E+01 1.29900E+01 0.00000E+00
 -1      3545 7.79019E+01 2.61249E+01 0.00000E+00
 -1      3546 9.21000E+01 1.52078E+01 0.00000E+00
 -1      3547 9.13875E+01 1.39088E+01 0.00000E+00
 -1      3548 8.98875E+01 1.39088E+01 0.00000E+00
 -1      3549 4.80988E+01 1.69837E+01 0.00000E+00
 -1      3550 4.76810E+01 1.55847E+01 0.00000E+00
 -1      3551 4.95654E+01 2.50255E+01 0.00000E+00
 -1      3552 8.83875E+01 1.39088E+01 0.00000E+00
 -1      3553 8.68875E+01 1.39088E+01 0.00000E+00
 -1      3554 8.91000E+01 1.52078E+01 0.00000E+00
 -1      3555 7.51509E+01 2.91538E+01 0.00000E+00
 -1      3556 5.42775E+01 2.97090E+01 0.00000E+00
 -1      3557 1.35814E+02 1.74207E+01 0.00000E+00
 -1      3558 1.34617E+02 1.71727E+01 0.00000E+00
 -1      3559 1.35814E+02 1.88895E+01 0.00000E+00
 -1      3560 7.06500E+01 3.44120E+01 0.00000E+00
 -1      3561 4.80026E+01 2.26242E+01 0.00000E+00
 -1      3562 4.85480E+01 2.14442E+01 0.00000E+00
 -1      3563 7.19978E+01 3.09818E+01 0.00000E+00
 -1      3564 1.35795E+02 2.95718E+01 0.00000E+00
 -1      3565 1.35795E+02 2.81030E+01 0.00000E+00
 -1      3566 1.34580E+02 2.97122E+01 0.00000E+00
 -1      3567 5.72069E+01 3.11898E+01 0.00000E+00
 -1      3568 6.85494E+01 3.18835E+01 0.00000E+00
 -1      3569 8.05902E+01 1.97455E+01 0.00000E+00
 -1      3570 5.15756E+01 2.75683E+01 0.00000E+00
 -1      3571 4.72120E+01 1.38029E+01 0.00000E+00
 -1      3572 4.64620E+01 1.49956E+01 0.00000E+00
 -1      3573 1.42800E+01 3.10108E+01 0.00000E+00
 -1      3574 1.42800E+01 3.24796E+01 0.00000E+00
 -1      3575 1.55700E+01 3.26341E+01 0.00000E+00
 -1      3576 8.09773E+01 1.63652E+01 0.00000E+00
 -1      3577 1.42890E+01 2.27625E+01 0.00000E+00
 -1      3578 1.42890E+01 2.42375E+01 0.00000E+00
 -1      3579 2.45250E+01 1.42890E+01 0.00000E+00
 -1      3580 2.30625E+01 1.42890E+01 0.00000E+00
 -1      3581 2.23126E+01 1.55880E+01 0.00000E+00
 -1      3582 7.96559E+01 2.28580E+01 0.00000E+00
 -1      3583 1.78501E+01 1.70599E+01 0.00000E+00
 -1      3584 1.54200E+01 1.73378E+01 0.00000E+00
 -1      3585 1.54200E+01 1.88096E+01 0.00000E+00
 -1      3586 4.83746E+01 2.04590E+01 0.00000E+00
 -1      3587 8.54250E+01 1.39088E+01 0.00000E+00
 -1      3588 8.39625E+01 1.39088E+01 0.00000E+00
 -1      3589 8.61375E+01 1.52078E+01 0.00000E+00
 -1      3590 1.48545E+01 2.00517E+01 0.00000E+00
 -1      3591 1.48545E+01 2.15204E+01 0.00000E+00
 -1      3592 1.61535E+01 2.22579E+01 0.00000E+00
 -1      3593 1.72845E+01 1.97738E+01 0.00000E+00
 -1      3594 4.84456E+01 1.89541E+01 0.00000E+00
 -1      3595 4.82722E+01 1.79689E+01 0.00000E+00
 -1      3596 4.71613E+01 1.75388E+01 0.00000E+00
 -1      3597 1.35711E+02 2.42828E+01 0.00000E+00
 -1      3598 1.35711E+02 2.28109E+01 0.00000E+00
 -1      3599 1.35762E+02 2.15846E+01 0.00000E+00
 -1      3600 1.35762E+02 2.01158E+01 0.00000E+00
 -1      3601 1.34566E+02 1.98678E+01 0.00000E+00
 -1      3602 1.34463E+02 2.23205E+01 0.00000E+00
 -1      3603 1.89000E+01 3.31130E+01 0.00000E+00
 -1      3604 2.04000E+01 3.31130E+01 0.00000E+00
 -1      3605 2.19000E+01 3.31130E+01 0.00000E+00
 -1      3606 2.34000E+01 3.31130E+01 0.00000E+00
 -1      3607 2.11500E+01 3.18140E+01 0.00000E+00
 -1      3608 2.49000E+01 3.31130E+01 0.00000E+00
 -1      3609 2.64000E+01 3.31130E+01 0.00000E+00
 -1      3610 2.41500E+01 3.18140E+01 0.00000E+00
 -1      3611 2.79000E+01 3.31130E+01 0.00000E+00
 -1      3612 2.94000E+01 3.31130E+01 0.00000E+00
 -1      3613 2.71500E+01 3.18140E+01 0.00000E+00
 -1      3614 3.09000E+01 3.31130E+01 0.00000E+00
 -1      3615 3.24000E+01 3.31130E+01 0.00000E+00
 -1      3616 3.01500E+01 3.18140E+01 0.00000E+00
 -1      3617 3.39000E+01 3.31130E+01 0.00000E+00
 -1      3618 3.54000E+01 3.31130E+01 0.00000E+00
 -1      3619 3.31500E+01 3.18140E+01 0.00000E+00
 -1      3620 3.69000E+01 3.31130E+01 0.00000E+00
 -1      3621 3.84000E+01 3.31130E+01 0.00000E+00
 -1      3622 3.61500E+01 3.18140E+01 0.00000E+00
 -1      3623 3.99000E+01 3.31130E+01 0.00000E+00
 -1      3624 4.14000E+01 3.31130E+01 0.00000E+00
 -1      3625 3.91500E+01 3.18140E+01 0.00000E+00
 -1      3626 4.29000E+01 3.31130E+01 0.00000E+00
 -1      3627 4.44000E+01 3.31130E+01 0.00000E+00
 -1      3628 4.21500E+01 3.18140E+01 0.00000E+00
 -1      3629 4.59000E+01 3.31130E+01 0.00000E+00
 -1      3630 4.74000E+01 3.31130E+01 0.00000E+00
 -1      3631 4.51500E+01 3.18140E+01 0.00000E+00
 -1      3632 4.89000E+01 3.31130E+01 0.00000E+00
 -1      3633 5.04000E+01 3.31130E+01 0.00000E+00
 -1      3634 4.81500E+01 3.18140E+01 0.00000E+00
 -1      3635 5.79208E+01 3.30869E+01 0.00000E+00
 -1      3636 5.94208E+01 3.30869E+01 0.00000E+00
 -1      3637 1.42890E+01 2.57094E+01 0.00000E+00
 -1      3638 1.42890E+01 2.71812E+01 0.00000E+00
 -1      3639 1.55880E+01 2.49719E+01 0.00000E+00
 -1      3640 7.59000E+01 3.31130E+01 0.00000E+00
 -1      3641 7.74000E+01 3.31130E+01 0.00000E+00
 -1      3642 7.89000E+01 3.31130E+01 0.00000E+00
 -1      3643 8.04000E+01 3.31130E+01 0.00000E+00
 -1      3644 7.81500E+01 3.18140E+01 0.00000E+00
 -1      3645 8.19000E+01 3.31130E+01 0.00000E+00
 -1      3646 8.34000E+01 3.31130E+01 0.00000E+00
 -1      3647 8.11500E+01 3.18140E+01 0.00000E+00
 -1      3648 8.49000E+01 3.31130E+01 0.00000E+00
 -1      3649 8.64000E+01 3.31130E+01 0.00000E+00
 -1      3650 8.41500E+01 3.18140E+01 0.00000E+00
 -1      3651 8.79000E+01 3.31130E+01 0.00000E+00
 -1      3652 8.94000E+01 3.31130E+01 0.00000E+00
 -1      3653 8.71500E+01 3.18140E+01 0.00000E+00
 -1      3654 9.09000E+01 3.31130E+01 0.00000E+00
 -1      3655 9.24000E+01 3.31130E+01 0.00000E+00
 -1      3656 9.01500E+01 3.18140E+01 0.00000E+00
 -1      3657 9.39000E+01 3.31130E+01 0.00000E+00
 -1      3658 9.54000E+01 3.31130E+01 0.00000E+00
 -1      3659 9.31500E+01 3.18140E+01 0.00000E+00
 -1      3660 9.69000E+01 3.31130E+01 0.00000E+00
 -1      3661 9.84000E+01 3.31130E+01 0.00000E+00
 -1      3662 9.61500E+01 3.18140E+01 0.00000E+00
 -1      3663 9.99000E+01 3.31130E+01 0.00000E+00
 -1      3664 1.01400E+02 3.31130E+01 0.00000E+00
 -1      3665 9.91500E+01 3.18140E+01 0.00000E+00
 -1      3666 1.02900E+02 3.31130E+01 0.00000E+00
 -1      3667 1.04400E+02 3.31130E+01 0.00000E+00
 -1      3668 1.02150E+02 3.18140E+01 0.00000E+00
 -1      3669 1.05900E+02 3.31130E+01 0.00000E+00
 -1      3670 1.07400E+02 3.31130E+01 0.00000E+00
 -1      3671 1.05150E+02 3.18140E+01 0.00000E+00
 -1      3672 1.08900E+02 3.31130E+01 0.00000E+00
 -1      3673 1.10400E+02 3.31130E+01 0.00000E+00
 -1      3674 1.08150E+02 3.18140E+01 0.00000E+00
 -1      3675 1.11900E+02 3.31130E+01 0.00000E+00
 -1      3676 1.13400E+02 3.31130E+01 0.00000E+00
 -1      3677 1.11150E+02 3.18140E+01 0.00000E+00
 -1      3678 1.14900E+02 3.31130E+01 0.00000E+00
 -1      3679 1.16400E+02 3.31130E+01 0.00000E+00
 -1      3680 1.14150E+02 3.18140E+01 0.00000E+00
 -1      3681 1.17900E+02 3.31130E+01 0.00000E+00
 -1      3682 1.19400E+02 3.31130E+01 0.00000E+00
 -1      3683 1.17150E+02 3.18140E+01 0.00000E+00
 -1      3684 1.20900E+02 3.31130E+01 0.00000E+00
 -1      3685 1.22400E+02 3.31130E+01 0.00000E+00
 -1      3686 1.20150E+02 3.18140E+01 0.00000E+00
 -1      3687 1.23900E+02 3.31130E+01 0.00000E+00
 -1      3688 1.25400E+02 3.31130E+01 0.00000E+00
 -1      3689 1.23150E+02 3.18140E+01 0.00000E+00
 -1      3690 1.26900E+02 3.31130E+01 0.00000E+00
 -1      3691 1.28400E+02 3.31130E+01 0.00000E+00
 -1      3692 1.26150E+02 3.18140E+01 0.00000E+00
 -1      3693 1.29900E+02 3.31130E+01 0.00000E+00
 -1      3694 1.31400E+02 3.31130E+01 0.00000E+00
 -1      3695 1.29150E+02 3.18140E+01 0.00000E+00
 -1      3696 4.38375E+01 1.65681E+01 0.00000E+00
 -1      3697 4.24125E+01 1.65681E+01 0.00000E+00
 -1      3698 3.80418E+01 1.67243E+01 0.00000E+00
 -1      3699 3.65418E+01 1.68306E+01 0.00000E+00
 -1      3700 4.88154E+01 2.63279E+01 0.00000E+00
 -1      3701 4.80625E+01 2.50170E+01 0.00000E+00
 -1      3702 1.10662E+02 1.65068E+01 0.00000E+00
 -1      3703 1.09238E+02 1.65068E+01 0.00000E+00
 -1      3704 1.93501E+01 1.70599E+01 0.00000E+00
 -1      3705 1.04775E+02 1.65068E+01 0.00000E+00
 -1      3706 1.03275E+02 1.65068E+01 0.00000E+00
 -1      3707 1.13662E+02 1.65068E+01 0.00000E+00
 -1      3708 1.12162E+02 1.65068E+01 0.00000E+00
 -1      3709 1.11450E+02 1.78058E+01 0.00000E+00
 -1      3710 1.16662E+02 1.65068E+01 0.00000E+00
 -1      3711 1.15162E+02 1.65068E+01 0.00000E+00
 -1      3712 1.14450E+02 1.78058E+01 0.00000E+00
 -1      3713 1.19662E+02 1.65068E+01 0.00000E+00
 -1      3714 1.18162E+02 1.65068E+01 0.00000E+00
 -1      3715 1.17450E+02 1.78058E+01 0.00000E+00
 -1      3716 1.22662E+02 1.65068E+01 0.00000E+00
 -1      3717 1.21162E+02 1.65068E+01 0.00000E+00
 -1      3718 1.20450E+02 1.78058E+01 0.00000E+00
 -1      3719 1.25512E+02 1.65068E+01 0.00000E+00
 -1      3720 1.24088E+02 1.65068E+01 0.00000E+00
 -1      3721 1.23375E+02 1.78058E+01 0.00000E+00
 -1      3722 1.28512E+02 1.65068E+01 0.00000E+00
 -1      3723 1.27012E+02 1.65068E+01 0.00000E+00
 -1      3724 1.26300E+02 1.78058E+01 0.00000E+00
 -1      3725 1.31512E+02 1.65068E+01 0.00000E+00
 -1      3726 1.30012E+02 1.65068E+01 0.00000E+00
 -1      3727 1.29300E+02 1.78058E+01 0.00000E+00
 -1      3728 1.33663E+02 1.69638E+01 0.00000E+00
 -1      3729 1.32467E+02 1.67157E+01 0.00000E+00
 -1      3730 1.31754E+02 1.80147E+01 0.00000E+00
 -1      3731 1.33663E+02 1.84325E+01 0.00000E+00
 -1      3732 6.05300E+01 3.22381E+01 0.00000E+00
 -1      3733 4.72526E+01 2.39266E+01 0.00000E+00
 -1      3734 4.64426E+01 2.28362E+01 0.00000E+00
 -1      3735 4.65025E+01 2.52289E+01 0.00000E+00
 -1      3736 7.95635E+01 2.59482E+01 0.00000E+00
 -1      3737 7.84214E+01 2.77130E+01 0.00000E+00
 -1      3738 6.98017E+01 3.29789E+01 0.00000E+00
 -1      3739 7.13017E+01 3.29789E+01 0.00000E+00
 -1      3740 6.78977E+01 3.33166E+01 0.00000E+00
 -1      3741 5.64361E+01 3.25149E+01 0.00000E+00
 -1      3742 5.49361E+01 3.25149E+01 0.00000E+00
 -1      3743 7.28460E+01 3.24149E+01 0.00000E+00
 -1      3744 1.07756E+02 1.65068E+01 0.00000E+00
 -1      3745 1.06256E+02 1.65068E+01 0.00000E+00
 -1      3746 1.05506E+02 1.78058E+01 0.00000E+00
 -1      3747 1.08469E+02 1.78058E+01 0.00000E+00
 -1      3748 3.50418E+01 1.68306E+01 0.00000E+00
 -1      3749 3.35418E+01 1.68306E+01 0.00000E+00
 -1      3750 3.58837E+01 1.80732E+01 0.00000E+00
 -1      3751 7.43460E+01 3.24149E+01 0.00000E+00
 -1      3752 5.30707E+01 3.30091E+01 0.00000E+00
 -1      3753 5.38568E+01 3.11120E+01 0.00000E+00
 -1      3754 5.24122E+01 3.02032E+01 0.00000E+00
 -1      3755 5.15707E+01 3.30091E+01 0.00000E+00
 -1      3756 2.75250E+01 1.42890E+01 0.00000E+00
 -1      3757 2.60250E+01 1.42890E+01 0.00000E+00
 -1      3758 2.52750E+01 1.55880E+01 0.00000E+00
 -1      3759 2.82750E+01 1.55880E+01 0.00000E+00
 -1      3760 1.42845E+01 2.83617E+01 0.00000E+00
 -1      3761 1.42845E+01 2.98304E+01 0.00000E+00
 -1      3762 1.55745E+01 2.99850E+01 0.00000E+00
 -1      3763 1.55835E+01 2.76242E+01 0.00000E+00
 -1      3764 8.22853E+01 1.55270E+01 0.00000E+00
 -1      3765 8.22205E+01 1.72968E+01 0.00000E+00
 -1      3766 1.35753E+02 2.69288E+01 0.00000E+00
 -1      3767 1.35753E+02 2.54570E+01 0.00000E+00
 -1      3768 1.34454E+02 2.47210E+01 0.00000E+00
 -1      3769 1.34538E+02 2.70693E+01 0.00000E+00
 -1      3770 5.12425E+01 2.88815E+01 0.00000E+00
 -1      3771 4.99851E+01 2.76496E+01 0.00000E+00
 -1      3772 4.84822E+01 2.76410E+01 0.00000E+00
 -1      3773 5.08217E+01 3.02844E+01 0.00000E+00
 -1      3774 9.58500E+01 1.65068E+01 0.00000E+00
 -1      3775 9.43500E+01 1.65068E+01 0.00000E+00
 -1      3776 4.09772E+01 1.66462E+01 0.00000E+00
 -1      3777 3.94772E+01 1.66462E+01 0.00000E+00
 -1      3778 3.88190E+01 1.79951E+01 0.00000E+00
 -1      3779 4.16897E+01 1.78389E+01 0.00000E+00
 -1      3780 8.11649E+01 2.25971E+01 0.00000E+00
 -1      3781 8.05530E+01 2.40991E+01 0.00000E+00
 -1      3782 1.33365E+02 3.27965E+01 0.00000E+00
 -1      3783 8.18387E+01 1.91578E+01 0.00000E+00
 -1      3784 8.15164E+01 2.07683E+01 0.00000E+00
 -1      3785 4.72637E+01 2.00289E+01 0.00000E+00
 -1      3786 1.65900E+01 3.27963E+01 0.00000E+00
 -1      3787 1.78800E+01 3.29508E+01 0.00000E+00
 -1      3788 1.86300E+01 3.16518E+01 0.00000E+00
 -1      3789 1.65900E+01 3.13275E+01 0.00000E+00
 -1      3790 7.50960E+01 3.11159E+01 0.00000E+00
 -1      3791 1.32615E+02 3.14975E+01 0.00000E+00
 -1      3792 4.49419E+01 2.28391E+01 0.00000E+00
 -1      3793 4.56920E+01 2.15367E+01 0.00000E+00
 -1      3794 3.20793E+01 1.68306E+01 0.00000E+00
 -1      3795 3.06168E+01 1.68306E+01 0.00000E+00
 -1      3796 3.29212E+01 1.80732E+01 0.00000E+00
 -1      3797 8.31467E+01 1.83196E+01 0.00000E+00
 -1      3798 1.30650E+02 3.03452E+01 0.00000E+00
 -1      3799 1.32615E+02 3.00287E+01 0.00000E+00
 -1      3800 1.32615E+02 2.85600E+01 0.00000E+00
 -1      3801 8.10725E+01 2.56873E+01 0.00000E+00
 -1      3802 4.57690E+01 1.59645E+01 0.00000E+00
 -1      3803 4.50565E+01 1.71572E+01 0.00000E+00
 -1      3804 7.67049E+01 2.98519E+01 0.00000E+00
 -1      3805 7.98665E+01 2.96752E+01 0.00000E+00
 -1      3806 7.82049E+01 2.98519E+01 0.00000E+00
 -1      3807 9.88125E+01 1.65068E+01 0.00000E+00
 -1      3808 9.73313E+01 1.65068E+01 0.00000E+00
 -1      3809 9.65813E+01 1.78058E+01 0.00000E+00
 -1      3810 9.28500E+01 1.65068E+01 0.00000E+00
 -1      3811 9.13500E+01 1.65068E+01 0.00000E+00
 -1      3812 9.36000E+01 1.78058E+01 0.00000E+00
 -1      3813 5.08207E+01 3.17101E+01 0.00000E+00
 -1      3814 8.98500E+01 1.65068E+01 0.00000E+00
 -1      3815 8.83500E+01 1.65068E+01 0.00000E+00
 -1      3816 9.06000E+01 1.78058E+01 0.00000E+00
 -1      3817 2.10099E+01 1.72511E+01 0.00000E+00
 -1      3818 1.95099E+01 1.87230E+01 0.00000E+00
 -1      3819 4.55896E+01 1.90466E+01 0.00000E+00
 -1      3820 4.36581E+01 1.96502E+01 0.00000E+00
 -1      3821 8.24134E+01 2.20094E+01 0.00000E+00
 -1      3822 1.33177E+02 2.53545E+01 0.00000E+00
 -1      3823 1.33135E+02 2.41804E+01 0.00000E+00
 -1      3824 2.24724E+01 1.72511E+01 0.00000E+00
 -1      3825 1.02544E+02 1.78058E+01 0.00000E+00
 -1      3826 1.01794E+02 1.65068E+01 0.00000E+00
 -1      3827 1.00313E+02 1.65068E+01 0.00000E+00
 -1      3828 1.68870E+01 2.42359E+01 0.00000E+00
 -1      3829 1.68870E+01 2.57078E+01 0.00000E+00
 -1      3830 1.31909E+02 2.35875E+01 0.00000E+00
 -1      3831 1.33186E+02 2.29540E+01 0.00000E+00
 -1      3832 1.33238E+02 2.17277E+01 0.00000E+00
 -1      3833 1.80180E+01 2.17518E+01 0.00000E+00
 -1      3834 1.74525E+01 2.29939E+01 0.00000E+00
 -1      3835 1.87515E+01 2.37298E+01 0.00000E+00
 -1      3836 8.28585E+01 1.49016E+01 0.00000E+00
 -1      3837 2.34000E+01 3.05150E+01 0.00000E+00
 -1      3838 2.49000E+01 3.05150E+01 0.00000E+00
 -1      3839 2.64000E+01 3.05150E+01 0.00000E+00
 -1      3840 2.79000E+01 3.05150E+01 0.00000E+00
 -1      3841 2.56500E+01 2.92160E+01 0.00000E+00
 -1      3842 2.94000E+01 3.05150E+01 0.00000E+00
 -1      3843 3.09000E+01 3.05150E+01 0.00000E+00
 -1      3844 2.86500E+01 2.92160E+01 0.00000E+00
 -1      3845 3.24000E+01 3.05150E+01 0.00000E+00
 -1      3846 3.39000E+01 3.05150E+01 0.00000E+00
 -1      3847 3.16500E+01 2.92160E+01 0.00000E+00
 -1      3848 3.54000E+01 3.05150E+01 0.00000E+00
 -1      3849 3.69000E+01 3.05150E+01 0.00000E+00
 -1      3850 3.46500E+01 2.92160E+01 0.00000E+00
 -1      3851 3.84000E+01 3.05150E+01 0.00000E+00
 -1      3852 3.99000E+01 3.05150E+01 0.00000E+00
 -1      3853 3.76500E+01 2.92160E+01 0.00000E+00
 -1      3854 4.14000E+01 3.05150E+01 0.00000E+00
 -1      3855 4.29000E+01 3.05150E+01 0.00000E+00
 -1      3856 4.06500E+01 2.92160E+01 0.00000E+00
 -1      3857 4.44000E+01 3.05150E+01 0.00000E+00
 -1      3858 4.59000E+01 3.05150E+01 0.00000E+00
 -1      3859 4.36500E+01 2.92160E+01 0.00000E+00
 -1      3860 8.13665E+01 2.96752E+01 0.00000E+00
 -1      3861 8.64000E+01 3.05150E+01 0.00000E+00
 -1      3862 8.79000E+01 3.05150E+01 0.00000E+00
 -1      3863 8.94000E+01 3.05150E+01 0.00000E+00
 -1      3864 9.09000E+01 3.05150E+01 0.00000E+00
 -1      3865 8.86500E+01 2.92160E+01 0.00000E+00
 -1      3866 9.24000E+01 3.05150E+01 0.00000E+00
 -1      3867 9.39000E+01 3.05150E+01 0.00000E+00
 -1      3868 9.16500E+01 2.92160E+01 0.00000E+00
 -1      3869 9.54000E+01 3.05150E+01 0.00000E+00
 -1      3870 9.69000E+01 3.05150E+01 0.00000E+00
 -1      3871 9.46500E+01 2.92160E+01 0.00000E+00
 -1      3872 9.84000E+01 3.05150E+01 0.00000E+00
 -1      3873 9.99000E+01 3.05150E+01 0.00000E+00
 -1      3874 9.76500E+01 2.92160E+01 0.00000E+00
 -1      3875 1.01400E+02 3.05150E+01 0.00000E+00
 -1      3876 1.02900E+02 3.05150E+01 0.00000E+00
 -1      3877 1.00650E+02 2.92160E+01 0.00000E+00
 -1      3878 1.04400E+02 3.05150E+01 0.00000E+00
 -1      3879 1.05900E+02 3.05150E+01 0.00000E+00
 -1      3880 1.03650E+02 2.92160E+01 0.00000E+00
 -1      3881 1.07400E+02 3.05150E+01 0.00000E+00
 -1      3882 1.08900E+02 3.05150E+01 0.00000E+00
 -1      3883 1.06650E+02 2.92160E+01 0.00000E+00
 -1      3884 1.10400E+02 3.05150E+01 0.00000E+00
 -1      3885 1.11900E+02 3.05150E+01 0.00000E+00
 -1      3886 1.09650E+02 2.92160E+01 0.00000E+00
 -1      3887 1.13400E+02 3.05150E+01 0.00000E+00
 -1      3888 1.14900E+02 3.05150E+01 0.00000E+00
 -1      3889 1.12650E+02 2.92160E+01 0.00000E+00
 -1      3890 1.16400E+02 3.05150E+01 0.00000E+00
 -1      3891 1.17900E+02 3.05150E+01 0.00000E+00
 -1      3892 1.15650E+02 2.92160E+01 0.00000E+00
 -1      3893 1.19400E+02 3.05150E+01 0.00000E+00
 -1      3894 1.20900E+02 3.05150E+01 0.00000E+00
 -1      3895 1.18650E+02 2.92160E+01 0.00000E+00
 -1      3896 1.22400E+02 3.05150E+01 0.00000E+00
 -1      3897 1.23900E+02 3.05150E+01 0.00000E+00
 -1      3898 1.21650E+02 2.92160E+01 0.00000E+00
 -1      3899 1.25400E+02 3.05150E+01 0.00000E+00
 -1      3900 1.26900E+02 3.05150E+01 0.00000E+00
 -1      3901 1.24650E+02 2.92160E+01 0.00000E+00
 -1      3902 1.28025E+02 3.04301E+01 0.00000E+00
 -1      3903 1.29525E+02 3.04301E+01 0.00000E+00
 -1      3904 1.29525E+02 2.89614E+01 0.00000E+00
 -1      3905 1.27275E+02 2.91311E+01 0.00000E+00
 -1      3906 8.45880E+01 1.76457E+01 0.00000E+00
 -1      3907 8.42062E+01 1.95067E+01 0.00000E+00
 -1      3908 4.27560E+01 2.16177E+01 0.00000E+00
 -1      3909 4.22228E+01 1.97283E+01 0.00000E+00
 -1      3910 4.07875E+01 1.98064E+01 0.00000E+00
 -1      3911 3.66337E+01 1.93722E+01 0.00000E+00
 -1      3912 3.51337E+01 1.93722E+01 0.00000E+00
 -1      3913 1.12200E+02 1.91048E+01 0.00000E+00
 -1      3914 1.10700E+02 1.91048E+01 0.00000E+00
 -1      3915 1.21200E+02 1.91048E+01 0.00000E+00
 -1      3916 1.19700E+02 1.91048E+01 0.00000E+00
 -1      3917 1.24050E+02 1.91048E+01 0.00000E+00
 -1      3918 1.22625E+02 1.91048E+01 0.00000E+00
 -1      3919 1.21875E+02 2.04038E+01 0.00000E+00
 -1      3920 1.27050E+02 1.91048E+01 0.00000E+00
 -1      3921 1.25550E+02 1.91048E+01 0.00000E+00
 -1      3922 1.24800E+02 2.04038E+01 0.00000E+00
 -1      3923 1.30050E+02 1.91048E+01 0.00000E+00
 -1      3924 1.28550E+02 1.91048E+01 0.00000E+00
 -1      3925 1.27800E+02 2.04038E+01 0.00000E+00
 -1      3926 4.58647E+01 2.65487E+01 0.00000E+00
 -1      3927 4.50548E+01 2.54583E+01 0.00000E+00
 -1      3928 8.38648E+01 2.13402E+01 0.00000E+00
 -1      3929 8.35133E+01 2.31690E+01 0.00000E+00
 -1      3930 8.27125E+01 2.53756E+01 0.00000E+00
 -1      3931 8.17231E+01 2.72247E+01 0.00000E+00
 -1      3932 1.18200E+02 1.91048E+01 0.00000E+00
 -1      3933 1.16700E+02 1.91048E+01 0.00000E+00
 -1      3934 1.18950E+02 2.04038E+01 0.00000E+00
 -1      3935 1.15200E+02 1.91048E+01 0.00000E+00
 -1      3936 1.13700E+02 1.91048E+01 0.00000E+00
 -1      3937 1.12950E+02 2.04038E+01 0.00000E+00
 -1      3938 1.15950E+02 2.04038E+01 0.00000E+00
 -1      3939 8.76000E+01 1.78058E+01 0.00000E+00
 -1      3940 8.68500E+01 1.65068E+01 0.00000E+00
 -1      3941 8.41018E+01 1.58332E+01 0.00000E+00
 -1      3942 1.32917E+02 2.75444E+01 0.00000E+00
 -1      3943 1.32875E+02 2.63702E+01 0.00000E+00
 -1      3944 1.31556E+02 2.58296E+01 0.00000E+00
 -1      3945 1.30952E+02 2.78609E+01 0.00000E+00
 -1      3946 2.41463E+01 1.72206E+01 0.00000E+00
 -1      3947 2.28436E+01 1.88837E+01 0.00000E+00
 -1      3948 8.53875E+01 1.65068E+01 0.00000E+00
 -1      3949 1.85835E+01 2.05098E+01 0.00000E+00
 -1      3950 1.81815E+01 2.61523E+01 0.00000E+00
 -1      3951 1.68825E+01 2.68882E+01 0.00000E+00
 -1      3952 1.68780E+01 2.80686E+01 0.00000E+00
 -1      3953 4.42572E+01 2.42166E+01 0.00000E+00
 -1      3954 4.35066E+01 2.29172E+01 0.00000E+00
 -1      3955 4.20713E+01 2.29953E+01 0.00000E+00
 -1      3956 4.57630E+01 2.00318E+01 0.00000E+00
 -1      3957 1.33425E+02 2.06933E+01 0.00000E+00
 -1      3958 1.33476E+02 1.94669E+01 0.00000E+00
 -1      3959 1.32522E+02 1.92580E+01 0.00000E+00
 -1      3960 1.32147E+02 2.13268E+01 0.00000E+00
 -1      3961 2.04000E+01 3.05150E+01 0.00000E+00
 -1      3962 2.19000E+01 3.05150E+01 0.00000E+00
 -1      3963 2.26500E+01 2.92160E+01 0.00000E+00
 -1      3964 4.96510E+01 3.03884E+01 0.00000E+00
 -1      3965 8.30066E+01 2.93635E+01 0.00000E+00
 -1      3966 2.99587E+01 1.80732E+01 0.00000E+00
 -1      3967 2.91168E+01 1.68306E+01 0.00000E+00
 -1      3968 2.76169E+01 1.68306E+01 0.00000E+00
 -1      3969 1.30585E+02 2.41464E+01 0.00000E+00
 -1      3970 1.30637E+02 2.29200E+01 0.00000E+00
 -1      3971 4.74000E+01 3.05150E+01 0.00000E+00
 -1      3972 4.89000E+01 3.05150E+01 0.00000E+00
 -1      3973 2.56463E+01 1.72206E+01 0.00000E+00
 -1      3974 9.95625E+01 1.78058E+01 0.00000E+00
 -1      3975 8.45066E+01 2.93635E+01 0.00000E+00
 -1      3976 8.53061E+01 2.06663E+01 0.00000E+00
 -1      3977 3.36712E+01 1.93722E+01 0.00000E+00
 -1      3978 3.22087E+01 1.93722E+01 0.00000E+00
 -1      3979 3.44212E+01 2.06712E+01 0.00000E+00
 -1      3980 9.73219E+01 1.91048E+01 0.00000E+00
 -1      3981 9.58406E+01 1.91048E+01 0.00000E+00
 -1      3982 9.43406E+01 1.91048E+01 0.00000E+00
 -1      3983 9.28406E+01 1.91048E+01 0.00000E+00
 -1      3984 9.50813E+01 2.04038E+01 0.00000E+00
 -1      3985 9.13406E+01 1.91048E+01 0.00000E+00
 -1      3986 8.98406E+01 1.91048E+01 0.00000E+00
 -1      3987 9.20813E+01 2.04038E+01 0.00000E+00
 -1      3988 8.52566E+01 2.80645E+01 0.00000E+00
 -1      3989 1.09969E+02 2.04038E+01 0.00000E+00
 -1      3990 1.09219E+02 1.91048E+01 0.00000E+00
 -1      3991 1.07738E+02 1.91048E+01 0.00000E+00
 -1      3992 4.36194E+01 2.55364E+01 0.00000E+00
 -1      3993 4.62312E+01 2.77677E+01 0.00000E+00
 -1      3994 4.47835E+01 2.79971E+01 0.00000E+00
 -1      3995 1.31567E+02 1.90491E+01 0.00000E+00
 -1      3996 1.89135E+01 2.95733E+01 0.00000E+00
 -1      3997 1.96635E+01 2.82743E+01 0.00000E+00
 -1      3998 8.56153E+01 2.40372E+01 0.00000E+00
 -1      3999 8.41639E+01 2.47064E+01 0.00000E+00
 -1      4000 8.48146E+01 2.62438E+01 0.00000E+00
 -1      4001 1.06256E+02 1.91048E+01 0.00000E+00
 -1      4002 1.04775E+02 1.91048E+01 0.00000E+00
 -1      4003 1.07006E+02 2.04038E+01 0.00000E+00
 -1      4004 2.02433E+01 2.07010E+01 0.00000E+00
 -1      4005 8.48143E+01 1.71322E+01 0.00000E+00
 -1      4006 1.03294E+02 1.91048E+01 0.00000E+00
 -1      4007 1.01813E+02 1.91048E+01 0.00000E+00
 -1      4008 1.04044E+02 2.04038E+01 0.00000E+00
 -1      4009 1.29982E+02 2.61776E+01 0.00000E+00
 -1      4010 1.30284E+02 2.51620E+01 0.00000E+00
 -1      4011 1.29011E+02 2.44944E+01 0.00000E+00
 -1      4012 1.65945E+01 3.01471E+01 0.00000E+00
 -1      4013 3.94282E+01 1.95502E+01 0.00000E+00
 -1      4014 3.79929E+01 1.96284E+01 0.00000E+00
 -1      4015 3.72429E+01 2.09274E+01 0.00000E+00
 -1      4016 3.99614E+01 2.14397E+01 0.00000E+00
 -1      4017 1.96725E+01 2.59135E+01 0.00000E+00
 -1      4018 1.96680E+01 2.70939E+01 0.00000E+00
 -1      4019 2.11545E+01 2.80356E+01 0.00000E+00
 -1      4020 2.35913E+01 2.06399E+01 0.00000E+00
 -1      4021 2.19173E+01 2.06705E+01 0.00000E+00
 -1      4022 2.09910E+01 2.24572E+01 0.00000E+00
 -1      4023 8.83500E+01 1.91048E+01 0.00000E+00
 -1      4024 8.68501E+01 1.91048E+01 0.00000E+00
 -1      4025 2.06145E+01 2.35643E+01 0.00000E+00
 -1      4026 2.00490E+01 2.48064E+01 0.00000E+00
 -1      4027 2.15355E+01 2.57481E+01 0.00000E+00
 -1      4028 2.22885E+01 2.35338E+01 0.00000E+00
 -1      4029 4.66500E+01 2.92160E+01 0.00000E+00
 -1      4030 1.30817E+02 2.03481E+01 0.00000E+00
 -1      4031 8.90907E+01 2.04038E+01 0.00000E+00
 -1      4032 4.89010E+01 2.90894E+01 0.00000E+00
 -1      4033 1.30630E+02 2.13825E+01 0.00000E+00
 -1      4034 2.79000E+01 2.79170E+01 0.00000E+00
 -1      4035 2.94000E+01 2.79170E+01 0.00000E+00
 -1      4036 3.09000E+01 2.79170E+01 0.00000E+00
 -1      4037 3.24000E+01 2.79170E+01 0.00000E+00
 -1      4038 3.01500E+01 2.66180E+01 0.00000E+00
 -1      4039 3.39000E+01 2.79170E+01 0.00000E+00
 -1      4040 3.54000E+01 2.79170E+01 0.00000E+00
 -1      4041 3.31500E+01 2.66180E+01 0.00000E+00
 -1      4042 3.69000E+01 2.79170E+01 0.00000E+00
 -1      4043 3.84000E+01 2.79170E+01 0.00000E+00
 -1      4044 3.61500E+01 2.66180E+01 0.00000E+00
 -1      4045 3.99000E+01 2.79170E+01 0.00000E+00
 -1      4046 4.14000E+01 2.79170E+01 0.00000E+00
 -1      4047 3.91500E+01 2.66180E+01 0.00000E+00
 -1      4048 4.32835E+01 2.79971E+01 0.00000E+00
 -1      4049 8.79000E+01 2.79170E+01 0.00000E+00
 -1      4050 8.94000E+01 2.79170E+01 0.00000E+00
 -1      4051 2.64882E+01 1.84632E+01 0.00000E+00
 -1      4052 9.09000E+01 2.79170E+01 0.00000E+00
 -1      4053 9.24000E+01 2.79170E+01 0.00000E+00
 -1      4054 9.01500E+01 2.66180E+01 0.00000E+00
 -1      4055 9.39000E+01 2.79170E+01 0.00000E+00
 -1      4056 9.54000E+01 2.79170E+01 0.00000E+00
 -1      4057 9.31500E+01 2.66180E+01 0.00000E+00
 -1      4058 9.69000E+01 2.79170E+01 0.00000E+00
 -1      4059 9.84000E+01 2.79170E+01 0.00000E+00
 -1      4060 9.61500E+01 2.66180E+01 0.00000E+00
 -1      4061 9.99000E+01 2.79170E+01 0.00000E+00
 -1      4062 1.01400E+02 2.79170E+01 0.00000E+00
 -1      4063 9.91500E+01 2.66180E+01 0.00000E+00
 -1      4064 1.02900E+02 2.79170E+01 0.00000E+00
 -1      4065 1.04400E+02 2.79170E+01 0.00000E+00
 -1      4066 1.02150E+02 2.66180E+01 0.00000E+00
 -1      4067 1.05900E+02 2.79170E+01 0.00000E+00
 -1      4068 1.07400E+02 2.79170E+01 0.00000E+00
 -1      4069 1.05150E+02 2.66180E+01 0.00000E+00
 -1      4070 1.08900E+02 2.79170E+01 0.00000E+00
 -1      4071 1.10400E+02 2.79170E+01 0.00000E+00
 -1      4072 1.08150E+02 2.66180E+01 0.00000E+00
 -1      4073 1.11900E+02 2.79170E+01 0.00000E+00
 -1      4074 1.13400E+02 2.79170E+01 0.00000E+00
 -1      4075 1.11150E+02 2.66180E+01 0.00000E+00
 -1      4076 1.14900E+02 2.79170E+01 0.00000E+00
 -1      4077 1.16400E+02 2.79170E+01 0.00000E+00
 -1      4078 1.14150E+02 2.66180E+01 0.00000E+00
 -1      4079 1.17900E+02 2.79170E+01 0.00000E+00
 -1      4080 1.19400E+02 2.79170E+01 0.00000E+00
 -1      4081 1.17150E+02 2.66180E+01 0.00000E+00
 -1      4082 1.20900E+02 2.79170E+01 0.00000E+00
 -1      4083 1.22400E+02 2.79170E+01 0.00000E+00
 -1      4084 1.20150E+02 2.66180E+01 0.00000E+00
 -1      4085 1.23900E+02 2.79170E+01 0.00000E+00
 -1      4086 1.25400E+02 2.79170E+01 0.00000E+00
 -1      4087 1.23150E+02 2.66180E+01 0.00000E+00
 -1      4088 1.25550E+02 2.17028E+01 0.00000E+00
 -1      4089 1.24050E+02 2.17028E+01 0.00000E+00
 -1      4090 2.26545E+01 2.80356E+01 0.00000E+00
 -1      4091 1.22625E+02 2.17028E+01 0.00000E+00
 -1      4092 1.21200E+02 2.17028E+01 0.00000E+00
 -1      4093 1.23375E+02 2.30018E+01 0.00000E+00
 -1      4094 8.98360E+01 2.17028E+01 0.00000E+00
 -1      4095 8.83454E+01 2.17028E+01 0.00000E+00
 -1      4096 1.76145E+01 3.03093E+01 0.00000E+00
 -1      4097 4.25335E+01 2.66981E+01 0.00000E+00
 -1      4098 4.17360E+01 2.54564E+01 0.00000E+00
 -1      4099 8.58738E+01 1.83193E+01 0.00000E+00
 -1      4100 1.00317E+02 1.91048E+01 0.00000E+00
 -1      4101 9.88172E+01 1.91048E+01 0.00000E+00
 -1      4102 9.80766E+01 2.04038E+01 0.00000E+00
 -1      4103 1.01067E+02 2.04038E+01 0.00000E+00
 -1      4104 1.29602E+02 2.80773E+01 0.00000E+00
 -1      4105 1.29904E+02 2.70617E+01 0.00000E+00
 -1      4106 1.28632E+02 2.63941E+01 0.00000E+00
 -1      4107 1.28477E+02 2.81622E+01 0.00000E+00
 -1      4108 4.12240E+01 2.40977E+01 0.00000E+00
 -1      4109 4.04733E+01 2.27983E+01 0.00000E+00
 -1      4110 3.91141E+01 2.25421E+01 0.00000E+00
 -1      4111 4.01380E+01 2.52594E+01 0.00000E+00
 -1      4112 1.19700E+02 2.17028E+01 0.00000E+00
 -1      4113 1.18200E+02 2.17028E+01 0.00000E+00
 -1      4114 1.20450E+02 2.30018E+01 0.00000E+00
 -1      4115 1.29307E+02 2.19413E+01 0.00000E+00
 -1      4116 2.49000E+01 2.79170E+01 0.00000E+00
 -1      4117 2.64000E+01 2.79170E+01 0.00000E+00
 -1      4118 2.71500E+01 2.66180E+01 0.00000E+00
 -1      4119 2.34045E+01 2.67366E+01 0.00000E+00
 -1      4120 1.27807E+02 2.19413E+01 0.00000E+00
 -1      4121 1.27057E+02 2.32403E+01 0.00000E+00
 -1      4122 8.67080E+01 2.73953E+01 0.00000E+00
 -1      4123 8.74580E+01 2.60963E+01 0.00000E+00
 -1      4124 2.75324E+01 1.98600E+01 0.00000E+00
 -1      4125 2.55618E+01 2.02499E+01 0.00000E+00
 -1      4126 2.46355E+01 2.20367E+01 0.00000E+00
 -1      4127 9.88242E+01 2.17028E+01 0.00000E+00
 -1      4128 9.73289E+01 2.17028E+01 0.00000E+00
 -1      4129 3.06205E+01 1.96161E+01 0.00000E+00
 -1      4130 2.91205E+01 1.96161E+01 0.00000E+00
 -1      4131 2.81942E+01 2.14028E+01 0.00000E+00
 -1      4132 3.13705E+01 2.09151E+01 0.00000E+00
 -1      4133 1.17450E+02 2.30018E+01 0.00000E+00
 -1      4134 1.16700E+02 2.17028E+01 0.00000E+00
 -1      4135 1.15200E+02 2.17028E+01 0.00000E+00
 -1      4136 9.58289E+01 2.17028E+01 0.00000E+00
 -1      4137 9.43289E+01 2.17028E+01 0.00000E+00
 -1      4138 9.65766E+01 2.30018E+01 0.00000E+00
 -1      4139 3.51524E+01 2.19702E+01 0.00000E+00
 -1      4140 3.36899E+01 2.19702E+01 0.00000E+00
 -1      4141 1.26376E+02 2.80820E+01 0.00000E+00
 -1      4142 1.27501E+02 2.79972E+01 0.00000E+00
 -1      4143 1.27579E+02 2.71131E+01 0.00000E+00
 -1      4144 1.25626E+02 2.67830E+01 0.00000E+00
 -1      4145 9.28324E+01 2.17028E+01 0.00000E+00
 -1      4146 9.13324E+01 2.17028E+01 0.00000E+00
 -1      4147 9.05871E+01 2.30018E+01 0.00000E+00
 -1      4148 9.35801E+01 2.30018E+01 0.00000E+00
 -1      4149 1.10709E+02 2.17028E+01 0.00000E+00
 -1      4150 1.09228E+02 2.17028E+01 0.00000E+00
 -1      4151 8.70277E+01 2.27508E+01 0.00000E+00
 -1      4152 8.76783E+01 2.42882E+01 0.00000E+00
 -1      4153 1.13705E+02 2.17028E+01 0.00000E+00
 -1      4154 1.12205E+02 2.17028E+01 0.00000E+00
 -1      4155 1.11464E+02 2.30018E+01 0.00000E+00
 -1      4156 1.14455E+02 2.30018E+01 0.00000E+00
 -1      4157 4.77312E+01 2.77677E+01 0.00000E+00
 -1      4158 2.37810E+01 2.56295E+01 0.00000E+00
 -1      4159 1.07747E+02 2.17028E+01 0.00000E+00
 -1      4160 1.06266E+02 2.17028E+01 0.00000E+00
 -1      4161 1.08488E+02 2.30018E+01 0.00000E+00
 -1      4162 1.04784E+02 2.17028E+01 0.00000E+00
 -1      4163 1.03303E+02 2.17028E+01 0.00000E+00
 -1      4164 1.05525E+02 2.30018E+01 0.00000E+00
 -1      4165 1.26982E+02 2.50484E+01 0.00000E+00
 -1      4166 1.24725E+02 2.48099E+01 0.00000E+00
 -1      4167 3.78129E+01 2.23842E+01 0.00000E+00
 -1      4168 3.64536E+01 2.21281E+01 0.00000E+00
 -1      4169 3.57224E+01 2.34271E+01 0.00000E+00
 -1      4170 3.83248E+01 2.37429E+01 0.00000E+00
 -1      4171 2.94000E+01 2.53190E+01 0.00000E+00
 -1      4172 3.09000E+01 2.53190E+01 0.00000E+00
 -1      4173 3.30356E+01 2.49436E+01 0.00000E+00
 -1      4174 3.45356E+01 2.49436E+01 0.00000E+00
 -1      4175 3.58368E+01 2.51015E+01 0.00000E+00
 -1      4176 3.73368E+01 2.51015E+01 0.00000E+00
 -1      4177 3.86380E+01 2.52594E+01 0.00000E+00
 -1      4178 9.03668E+01 2.48099E+01 0.00000E+00
 -1      4179 9.18668E+01 2.48099E+01 0.00000E+00
 -1      4180 8.66238E+01 1.96183E+01 0.00000E+00
 -1      4181 9.33668E+01 2.48099E+01 0.00000E+00
 -1      4182 9.48633E+01 2.48099E+01 0.00000E+00
 -1      4183 9.63633E+01 2.48099E+01 0.00000E+00
 -1      4184 9.78633E+01 2.48099E+01 0.00000E+00
 -1      4185 9.93633E+01 2.48099E+01 0.00000E+00
 -1      4186 1.02347E+02 2.48099E+01 0.00000E+00
 -1      4187 1.03847E+02 2.48099E+01 0.00000E+00
 -1      4188 1.05347E+02 2.48099E+01 0.00000E+00
 -1      4189 1.06828E+02 2.48099E+01 0.00000E+00
 -1      4190 1.08328E+02 2.48099E+01 0.00000E+00
 -1      4191 1.09809E+02 2.48099E+01 0.00000E+00
 -1      4192 1.11309E+02 2.48099E+01 0.00000E+00
 -1      4193 1.12805E+02 2.48099E+01 0.00000E+00
 -1      4194 1.14305E+02 2.48099E+01 0.00000E+00
 -1      4195 1.15800E+02 2.48099E+01 0.00000E+00
 -1      4196 1.17300E+02 2.48099E+01 0.00000E+00
 -1      4197 1.18800E+02 2.48099E+01 0.00000E+00
 -1      4198 1.20300E+02 2.48099E+01 0.00000E+00
 -1      4199 1.21800E+02 2.48099E+01 0.00000E+00
 -1      4200 1.23300E+02 2.48099E+01 0.00000E+00
 -1      4201 8.88703E+01 2.48099E+01 0.00000E+00
 -1      4202 8.62824E+01 2.14518E+01 0.00000E+00
 -1      4203 1.01811E+02 2.17028E+01 0.00000E+00
 -1      4204 1.00316E+02 2.17028E+01 0.00000E+00
 -1      4205 9.95684E+01 2.30018E+01 0.00000E+00
 -1      4206 1.02552E+02 2.30018E+01 0.00000E+00
 -1      4207 2.42590E+01 2.31438E+01 0.00000E+00
 -1      4208 2.38825E+01 2.42509E+01 0.00000E+00
 -1      4209 2.62296E+01 2.27538E+01 0.00000E+00
 -1      4210 3.22856E+01 2.36446E+01 0.00000E+00
 -1      4211 3.15543E+01 2.23456E+01 0.00000E+00
 -1      4212 2.57515E+01 2.52395E+01 0.00000E+00
 -1      4213 2.72515E+01 2.52395E+01 0.00000E+00
 -1      4214 2.99662E+01 2.25895E+01 0.00000E+00
 -1      4215 2.80015E+01 2.39405E+01 0.00000E+00
 -1      4216 1.00855E+02 2.48099E+01 0.00000E+00
 -1      4217 1.27656E+02 2.62291E+01 0.00000E+00
 -1      4218 2.83780E+01 2.28334E+01 0.00000E+00
 -1      4219 1.26680E+02 2.60640E+01 0.00000E+00
 -3
    3C                          2027                                     1
 -1       166    8    0    1
 -2         6         7        23      1097      1262      1114
 -1       167    8    0    1
 -2         7         8       166      1098      1263      1264
 -1       168    8    0    1
 -2         8         9       167      1099      1265      1266
 -1       169    8    0    1
 -2         8       167       166      1266      1267      1263
 -1       170    8    0    1
 -2         9        10       168      1100      1268      1269
 -1       171    8    0    1
 -2         9       168       167      1269      1270      1265
 -1       172    8    0    1
 -2        10        11       169      1101      1271      1272
 -1       173    8    0    1
 -2        10       169       168      1272      1273      1268
 -1       174    8    0    1
 -2        11        12       170      1102      1274      1275
 -1       175    8    0    1
 -2        11       170       169      1275      1276      1271
 -1       176    8    0    1
 -2        12        13       171      1103      1277      1278
 -1       177    8    0    1
 -2        12       171       170      1278      1279      1274
 -1       178    8    0    1
 -2        13        14       172      1104      1280      1281
 -1       179    8    0    1
 -2        13       172       171      1281      1282      1277
 -1       180    8    0    1
 -2        14        15       173      1105      1283      1284
 -1       181    8    0    1
 -2        14       173       172      1284      1285      1280
 -1       182    8    0    1
 -2        15        16       174      1106      1286      1287
 -1       183    8    0    1
 -2        15       174       173      1287      1288      1283
 -1       184    8    0    1
 -2        16        17       175      1107      1289      1290
 -1       185    8    0    1
 -2        16       175       174      1290      1291      1286
 -1       186    8    0    1
 -2        17        18       176      1108      1292      1293
 -1       187    8    0    1
 -2        17       176       175      1293      1294      1289
 -1       188    8    0    1
 -2        18        19       177      1109      1295      1296
 -1       189    8    0    1
 -2        18       177       176      1296      1297      1292
 -1       190    8    0    1
 -2        19        20       178      1110      1298      1299
 -1       191    8    0    1
 -2        19       178       177      1299      1300      1295
 -1       192    8    0    1
 -2        20        21       179      1111      1301      1302
 -1       193    8    0    1
 -2        20       179       178      1302      1303      1298
 -1       194    8    0    1
 -2        21        22       180      1112      1304      1305
 -1       195    8    0    1
 -2        21       180       179      1305      1306      1301
 -1       196    8    0    1
 -2        22         5        72      1113      1164      1307
 -1       197    8    0    1
 -2        24        23       181      1115      1308      1309
 -1       198    8    0    1
 -2        25        24       182      1116      1310      1311
 -1       199    8    0    1
 -2        24       181       182      1309      1312      1310
 -1       200    8    0    1
 -2        26        25       183      1117      1313      1314
 -1       201    8    0    1
 -2        25       182       183      1311      1315      1313
 -1       202    8    0    1
 -2        27        26       184      1118      1316      1317
 -1       203    8    0    1
 -2        26       183       184      1314      1318      1316
 -1       204    8    0    1
 -2        28        27       185      1119      1319      1320
 -1       205    8    0    1
 -2        27       184       185      1317      1321      1319
 -1       206    8    0    1
 -2        29        28       186      1120      1322      1323
 -1       207    8    0    1
 -2        28       185       186      1320      1324      1322
 -1       208    8    0    1
 -2        30        29       187      1121      1325      1326
 -1       209    8    0    1
 -2        29       186       187      1323      1327      1325
 -1       210    8    0    1
 -2        31        30       188      1122      1328      1329
 -1       211    8    0    1
 -2        30       187       188      1326      1330      1328
 -1       212    8    0    1
 -2        32        31       189      1123      1331      1332
 -1       213    8    0    1
 -2        31       188       189      1329      1333      1331
 -1       214    8    0    1
 -2        33        32       190      1124      1334      1335
 -1       215    8    0    1
 -2        32       189       190      1332      1336      1334
 -1       216    8    0    1
 -2        34        33       191      1125      1337      1338
 -1       217    8    0    1
 -2        33       190       191      1335      1339      1337
 -1       218    8    0    1
 -2        35        34       192      1126      1340      1341
 -1       219    8    0    1
 -2        34       191       192      1338      1342      1340
 -1       220    8    0    1
 -2        36        35       193      1127      1343      1344
 -1       221    8    0    1
 -2        35       192       193      1341      1345      1343
 -1       222    8    0    1
 -2        37        36       194      1128      1346      1347
 -1       223    8    0    1
 -2        36       193       194      1344      1348      1346
 -1       224    8    0    1
 -2        38        37       195      1129      1349      1350
 -1       225    8    0    1
 -2        37       194       195      1347      1351      1349
 -1       226    8    0    1
 -2        39        38       196      1130      1352      1353
 -1       227    8    0    1
 -2        38       195       196      1350      1354      1352
 -1       228    8    0    1
 -2        40        39       197      1131      1355      1356
 -1       229    8    0    1
 -2        39       196       197      1353      1357      1355
 -1       230    8    0    1
 -2        41        40       198      1132      1358      1359
 -1       231    8    0    1
 -2        40       197       198      1356      1360      1358
 -1       232    8    0    1
 -2        42        41       199      1133      1361      1362
 -1       233    8    0    1
 -2        41       198       199      1359      1363      1361
 -1       234    8    0    1
 -2        43        42       200      1134      1364      1365
 -1       235    8    0    1
 -2        42       199       200      1362      1366      1364
 -1       236    8    0    1
 -2        44        43       201      1135      1367      1368
 -1       237    8    0    1
 -2        43       200       201      1365      1369      1367
 -1       238    8    0    1
 -2        45        44       202      1136      1370      1371
 -1       239    8    0    1
 -2        44       201       202      1368      1372      1370
 -1       240    8    0    1
 -2        46        45       203      1137      1373      1374
 -1       241    8    0    1
 -2        45       202       203      1371      1375      1373
 -1       242    8    0    1
 -2        47        46       204      1138      1376      1377
 -1       243    8    0    1
 -2        46       203       204      1374      1378      1376
 -1       244    8    0    1
 -2        48        47       205      1139      1379      1380
 -1       245    8    0    1
 -2        47       204       205      1377      1381      1379
 -1       246    8    0    1
 -2        49        48       206      1140      1382      1383
 -1       247    8    0    1
 -2        48       205       206      1380      1384      1382
 -1       248    8    0    1
 -2        50        49       207      1141      1385      1386
 -1       249    8    0    1
 -2        49       206       207      1383      1387      1385
 -1       250    8    0    1
 -2        51        50       208      1142      1388      1389
 -1       251    8    0    1
 -2        50       207       208      1386      1390      1388
 -1       252    8    0    1
 -2        52        51       209      1143      1391      1392
 -1       253    8    0    1
 -2        51       208       209      1389      1393      1391
 -1       254    8    0    1
 -2        53        52       210      1144      1394      1395
 -1       255    8    0    1
 -2        52       209       210      1392      1396      1394
 -1       256    8    0    1
 -2        54        53       211      1145      1397      1398
 -1       257    8    0    1
 -2        53       210       211      1395      1399      1397
 -1       258    8    0    1
 -2        55        54       212      1146      1400      1401
 -1       259    8    0    1
 -2        54       211       212      1398      1402      1400
 -1       260    8    0    1
 -2        56        55       213      1147      1403      1404
 -1       261    8    0    1
 -2        55       212       213      1401      1405      1403
 -1       262    8    0    1
 -2        57        56       214      1148      1406      1407
 -1       263    8    0    1
 -2        56       213       214      1404      1408      1406
 -1       264    8    0    1
 -2        58        57       215      1149      1409      1410
 -1       265    8    0    1
 -2        57       214       215      1407      1411      1409
 -1       266    8    0    1
 -2        59        58       216      1150      1412      1413
 -1       267    8    0    1
 -2        58       215       216      1410      1414      1412
 -1       268    8    0    1
 -2        60        59       217      1151      1415      1416
 -1       269    8    0    1
 -2        59       216       217      1413      1417      1415
 -1       270    8    0    1
 -2        61        60       218      1152      1418      1419
 -1       271    8    0    1
 -2        60       217       218      1416      1420      1418
 -1       272    8    0    1
 -2        62        61       219      1153      1421      1422
 -1       273    8    0    1
 -2        61       218       219      1419      1423      1421
 -1       274    8    0    1
 -2        63        62       220      1154      1424      1425
 -1       275    8    0    1
 -2        62       219       220      1422      1426      1424
 -1       276    8    0    1
 -2        64        63       221      1155      1427      1428
 -1       277    8    0    1
 -2        63       220       221      1425      1429      1427
 -1       278    8    0    1
 -2        65        64       222      1156      1430      1431
 -1       279    8    0    1
 -2        64       221       222      1428      1432      1430
 -1       280    8    0    1
 -2        66        65       223      1157      1433      1434
 -1       281    8    0    1
 -2        65       222       223      1431      1435      1433
 -1       282    8    0    1
 -2        67        66       224      1158      1436      1437
 -1       283    8    0    1
 -2        66       223       224      1434      1438      1436
 -1       284    8    0    1
 -2        68        67       225      1159      1439      1440
 -1       285    8    0    1
 -2        67       224       225      1437      1441      1439
 -1       286    8    0    1
 -2        69        68       226      1160      1442      1443
 -1       287    8    0    1
 -2        68       225       226      1440      1444      1442
 -1       288    8    0    1
 -2        70        69       227      1161      1445      1446
 -1       289    8    0    1
 -2        69       226       227      1443      1447      1445
 -1       290    8    0    1
 -2        71        70       228      1162      1448      1449
 -1       291    8    0    1
 -2        70       227       228      1446      1450      1448
 -1       292    8    0    1
 -2         4        71       137      1163      1451      1231
 -1       293    8    0    1
 -2       137        71       228      1451      1449      1452
 -1       294    8    0    1
 -2        72        73       229      1165      1453      1454
 -1       295    8    0    1
 -2        73        74       230      1166      1455      1456
 -1       296    8    0    1
 -2        73       230       229      1456      1457      1453
 -1       297    8    0    1
 -2        74        75       231      1167      1458      1459
 -1       298    8    0    1
 -2        74       231       230      1459      1460      1455
 -1       299    8    0    1
 -2        75        76       232      1168      1461      1462
 -1       300    8    0    1
 -2        75       232       231      1462      1463      1458
 -1       301    8    0    1
 -2        76        77       233      1169      1464      1465
 -1       302    8    0    1
 -2        76       233       232      1465      1466      1461
 -1       303    8    0    1
 -2        77        78       234      1170      1467      1468
 -1       304    8    0    1
 -2        77       234       233      1468      1469      1464
 -1       305    8    0    1
 -2        78        79       235      1171      1470      1471
 -1       306    8    0    1
 -2        78       235       234      1471      1472      1467
 -1       307    8    0    1
 -2        79        80       236      1172      1473      1474
 -1       308    8    0    1
 -2        79       236       235      1474      1475      1470
 -1       309    8    0    1
 -2        80        81       237      1173      1476      1477
 -1       310    8    0    1
 -2        80       237       236      1477      1478      1473
 -1       311    8    0    1
 -2        81        82       238      1174      1479      1480
 -1       312    8    0    1
 -2        81       238       237      1480      1481      1476
 -1       313    8    0    1
 -2        82        83       239      1175      1482      1483
 -1       314    8    0    1
 -2        82       239       238      1483      1484      1479
 -1       315    8    0    1
 -2        83        84       240      1176      1485      1486
 -1       316    8    0    1
 -2        83       240       239      1486      1487      1482
 -1       317    8    0    1
 -2        84        85       241      1177      1488      1489
 -1       318    8    0    1
 -2        84       241       240      1489      1490      1485
 -1       319    8    0    1
 -2        85        86       242      1178      1491      1492
 -1       320    8    0    1
 -2        85       242       241      1492      1493      1488
 -1       321    8    0    1
 -2        86        87       243      1179      1494      1495
 -1       322    8    0    1
 -2        86       243       242      1495      1496      1491
 -1       323    8    0    1
 -2        87        88       244      1180      1497      1498
 -1       324    8    0    1
 -2        87       244       243      1498      1499      1494
 -1       325    8    0    1
 -2        88        89       245      1181      1500      1501
 -1       326    8    0    1
 -2        88       245       244      1501      1502      1497
 -1       327    8    0    1
 -2        89        90       246      1182      1503      1504
 -1       328    8    0    1
 -2        89       246       245      1504      1505      1500
 -1       329    8    0    1
 -2        90        91       247      1183      1506      1507
 -1       330    8    0    1
 -2        90       247       246      1507      1508      1503
 -1       331    8    0    1
 -2        91        92       248      1184      1509      1510
 -1       332    8    0    1
 -2        91       248       247      1510      1511      1506
 -1       333    8    0    1
 -2        92        93       249      1185      1512      1513
 -1       334    8    0    1
 -2        92       249       248      1513      1514      1509
 -1       335    8    0    1
 -2        93        94       250      1186      1515      1516
 -1       336    8    0    1
 -2        93       250       249      1516      1517      1512
 -1       337    8    0    1
 -2        94        95       251      1187      1518      1519
 -1       338    8    0    1
 -2        94       251       250      1519      1520      1515
 -1       339    8    0    1
 -2        95        96       252      1188      1521      1522
 -1       340    8    0    1
 -2        95       252       251      1522      1523      1518
 -1       341    8    0    1
 -2        96        97       253      1189      1524      1525
 -1       342    8    0    1
 -2        96       253       252      1525      1526      1521
 -1       343    8    0    1
 -2        97        98       254      1190      1527      1528
 -1       344    8    0    1
 -2        97       254       253      1528      1529      1524
 -1       345    8    0    1
 -2        98        99       255      1191      1530      1531
 -1       346    8    0    1
 -2        98       255       254      1531      1532      1527
 -1       347    8    0    1
 -2        99       100       256      1192      1533      1534
 -1       348    8    0    1
 -2        99       256       255      1534      1535      1530
 -1       349    8    0    1
 -2       100       101       257      1193      1536      1537
 -1       350    8    0    1
 -2       100       257       256      1537      1538      1533
 -1       351    8    0    1
 -2       101       102       258      1194      1539      1540
 -1       352    8    0    1
 -2       101       258       257      1540      1541      1536
 -1       353    8    0    1
 -2       102       103       259      1195      1542      1543
 -1       354    8    0    1
 -2       102       259       258      1543      1544      1539
 -1       355    8    0    1
 -2       103       104       260      1196      1545      1546
 -1       356    8    0    1
 -2       103       260       259      1546      1547      1542
 -1       357    8    0    1
 -2       104       105       261      1197      1548      1549
 -1       358    8    0    1
 -2       104       261       260      1549      1550      1545
 -1       359    8    0    1
 -2       105       106       262      1198      1551      1552
 -1       360    8    0    1
 -2       105       262       261      1552      1553      1548
 -1       361    8    0    1
 -2       106       107       263      1199      1554      1555
 -1       362    8    0    1
 -2       106       263       262      1555      1556      1551
 -1       363    8    0    1
 -2       107       108       264      1200      1557      1558
 -1       364    8    0    1
 -2       107       264       263      1558      1559      1554
 -1       365    8    0    1
 -2       108       109       265      1201      1560      1561
 -1       366    8    0    1
 -2       108       265       264      1561      1562      1557
 -1       367    8    0    1
 -2       109       110       266      1202      1563      1564
 -1       368    8    0    1
 -2       109       266       265      1564      1565      1560
 -1       369    8    0    1
 -2       110       111       267      1203      1566      1567
 -1       370    8    0    1
 -2       110       267       266      1567      1568      1563
 -1       371    8    0    1
 -2       111       112       268      1204      1569      1570
 -1       372    8    0    1
 -2       111       268       267      1570      1571      1566
 -1       373    8    0    1
 -2       112       113       269      1205      1572      1573
 -1       374    8    0    1
 -2       112       269       268      1573      1574      1569
 -1       375    8    0    1
 -2       113       114       270      1206      1575      1576
 -1       376    8    0    1
 -2       113       270       269      1576      1577      1572
 -1       377    8    0    1
 -2       114       115       271      1207      1578      1579
 -1       378    8    0    1
 -2       114       271       270      1579      1580      1575
 -1       379    8    0    1
 -2       115       116       272      1208      1581      1582
 -1       380    8    0    1
 -2       115       272       271      1582      1583      1578
 -1       381    8    0    1
 -2       116       117       273      1209      1584      1585
 -1       382    8    0    1
 -2       116       273       272      1585      1586      1581
 -1       383    8    0    1
 -2       117       118       274      1210      1587      1588
 -1       384    8    0    1
 -2       117       274       273      1588      1589      1584
 -1       385    8    0    1
 -2       118       119       275      1211      1590      1591
 -1       386    8    0    1
 -2       118       275       274      1591      1592      1587
 -1       387    8    0    1
 -2       119       120       276      1212      1593      1594
 -1       388    8    0    1
 -2       119       276       275      1594      1595      1590
 -1       389    8    0    1
 -2       120       121       277      1213      1596      1597
 -1       390    8    0    1
 -2       120       277       276      1597      1598      1593
 -1       391    8    0    1
 -2       121         3       122      1214      1215      1599
 -1       392    8    0    1
 -2       122       123       278      1216      1600      1601
 -1       393    8    0    1
 -2       123       124       279      1217      1602      1603
 -1       394    8    0    1
 -2       123       279       278      1603      1604      1600
 -1       395    8    0    1
 -2       124       125       280      1218      1605      1606
 -1       396    8    0    1
 -2       124       280       279      1606      1607      1602
 -1       397    8    0    1
 -2       125       126       281      1219      1608      1609
 -1       398    8    0    1
 -2       125       281       280      1609      1610      1605
 -1       399    8    0    1
 -2       126       127       282      1220      1611      1612
 -1       400    8    0    1
 -2       126       282       281      1612      1613      1608
 -1       401    8    0    1
 -2       127       128       283      1221      1614      1615
 -1       402    8    0    1
 -2       127       283       282      1615      1616      1611
 -1       403    8    0    1
 -2       128       129       284      1222      1617      1618
 -1       404    8    0    1
 -2       128       284       283      1618      1619      1614
 -1       405    8    0    1
 -2       129       130       285      1223      1620      1621
 -1       406    8    0    1
 -2       129       285       284      1621      1622      1617
 -1       407    8    0    1
 -2       130       131       286      1224      1623      1624
 -1       408    8    0    1
 -2       130       286       285      1624      1625      1620
 -1       409    8    0    1
 -2       131       132       287      1225      1626      1627
 -1       410    8    0    1
 -2       131       287       286      1627      1628      1623
 -1       411    8    0    1
 -2       132       133       288      1226      1629      1630
 -1       412    8    0    1
 -2       132       288       287      1630      1631      1626
 -1       413    8    0    1
 -2       133       134       289      1227      1632      1633
 -1       414    8    0    1
 -2       133       289       288      1633      1634      1629
 -1       415    8    0    1
 -2       134       135       290      1228      1635      1636
 -1       416    8    0    1
 -2       134       290       289      1636      1637      1632
 -1       417    8    0    1
 -2       135       136       291      1229      1638      1639
 -1       418    8    0    1
 -2       135       291       290      1639      1640      1635
 -1       419    8    0    1
 -2       136       137       292      1230      1641      1642
 -1       420    8    0    1
 -2       291       136       292      1638      1642      1643
 -1       421    8    0    1
 -2       137       228       292      1452      1644      1641
 -1       422    8    0    1
 -2         2       138       293      1232      1645      1646
 -1       423    8    0    1
 -2       138       139       294      1233      1647      1648
 -1       424    8    0    1
 -2       139       140       295      1234      1649      1650
 -1       425    8    0    1
 -2       140       141       296      1235      1651      1652
 -1       426    8    0    1
 -2       141       142       297      1236      1653      1654
 -1       427    8    0    1
 -2       142       143       298      1237      1655      1656
 -1       428    8    0    1
 -2       143       144       299      1238      1657      1658
 -1       429    8    0    1
 -2       144       145       300      1239      1659      1660
 -1       430    8    0    1
 -2       145       146       301      1240      1661      1662
 -1       431    8    0    1
 -2       146       147       302      1241      1663      1664
 -1       432    8    0    1
 -2       147       148       303      1242      1665      1666
 -1       433    8    0    1
 -2       148       149       304      1243      1667      1668
 -1       434    8    0    1
 -2       149       150       305      1244      1669      1670
 -1       435    8    0    1
 -2       150         1       306      1245      1671      1672
 -1       436    8    0    1
 -2         1       151       307      1246      1673      1674
 -1       437    8    0    1
 -2       151       152       308      1247      1675      1676
 -1       438    8    0    1
 -2       152       153       309      1248      1677      1678
 -1       439    8    0    1
 -2       153       154       310      1249      1679      1680
 -1       440    8    0    1
 -2       154       155       311      1250      1681      1682
 -1       441    8    0    1
 -2       155       156       312      1251      1683      1684
 -1       442    8    0    1
 -2       156       157       313      1252      1685      1686
 -1       443    8    0    1
 -2       157       158       314      1253      1687      1688
 -1       444    8    0    1
 -2       158       159       315      1254      1689      1690
 -1       445    8    0    1
 -2       159       160       316      1255      1691      1692
 -1       446    8    0    1
 -2       160       161       317      1256      1693      1694
 -1       447    8    0    1
 -2       161       162       318      1257      1695      1696
 -1       448    8    0    1
 -2       162       163       319      1258      1697      1698
 -1       449    8    0    1
 -2       163       164       320      1259      1699      1700
 -1       450    8    0    1
 -2       164       165       321      1260      1701      1702
 -1       451    8    0    1
 -2       165         2       322      1261      1703      1704
 -1       452    8    0    1
 -2        22        72       180      1307      1705      1304
 -1       453    8    0    1
 -2       295       140       296      1649      1652      1706
 -1       454    8    0    1
 -2       121       122       277      1599      1707      1596
 -1       455    8    0    1
 -2       293       138       294      1645      1648      1708
 -1       456    8    0    1
 -2       294       139       295      1647      1650      1709
 -1       457    8    0    1
 -2         2       293       322      1646      1710      1703
 -1       458    8    0    1
 -2       141       297       296      1654      1711      1651
 -1       459    8    0    1
 -2       142       298       297      1656      1712      1653
 -1       460    8    0    1
 -2       143       299       298      1658      1713      1655
 -1       461    8    0    1
 -2       144       300       299      1660      1714      1657
 -1       462    8    0    1
 -2       145       301       300      1662      1715      1659
 -1       463    8    0    1
 -2       146       302       301      1664      1716      1661
 -1       464    8    0    1
 -2       147       303       302      1666      1717      1663
 -1       465    8    0    1
 -2       148       304       303      1668      1718      1665
 -1       466    8    0    1
 -2       149       305       304      1670      1719      1667
 -1       467    8    0    1
 -2       150       306       305      1672      1720      1669
 -1       468    8    0    1
 -2         1       307       306      1674      1721      1671
 -1       469    8    0    1
 -2       151       308       307      1676      1722      1673
 -1       470    8    0    1
 -2       152       309       308      1678      1723      1675
 -1       471    8    0    1
 -2       153       310       309      1680      1724      1677
 -1       472    8    0    1
 -2       154       311       310      1682      1725      1679
 -1       473    8    0    1
 -2       155       312       311      1684      1726      1681
 -1       474    8    0    1
 -2       156       313       312      1686      1727      1683
 -1       475    8    0    1
 -2       157       314       313      1688      1728      1685
 -1       476    8    0    1
 -2       158       315       314      1690      1729      1687
 -1       477    8    0    1
 -2       159       316       315      1692      1730      1689
 -1       478    8    0    1
 -2       160       317       316      1694      1731      1691
 -1       479    8    0    1
 -2       161       318       317      1696      1732      1693
 -1       480    8    0    1
 -2       162       319       318      1698      1733      1695
 -1       481    8    0    1
 -2       163       320       319      1700      1734      1697
 -1       482    8    0    1
 -2       164       321       320      1702      1735      1699
 -1       483    8    0    1
 -2       165       322       321      1704      1736      1701
 -1       484    8    0    1
 -2        23         7       166      1262      1264      1737
 -1       485    8    0    1
 -2       167       168       323      1270      1738      1739
 -1       486    8    0    1
 -2       166       167       324      1267      1740      1741
 -1       487    8    0    1
 -2       167       323       324      1739      1742      1740
 -1       488    8    0    1
 -2       169       170       325      1276      1743      1744
 -1       489    8    0    1
 -2       170       171       326      1279      1745      1746
 -1       490    8    0    1
 -2       170       326       325      1746      1747      1743
 -1       491    8    0    1
 -2       171       172       327      1282      1748      1749
 -1       492    8    0    1
 -2       171       327       326      1749      1750      1745
 -1       493    8    0    1
 -2       172       173       328      1285      1751      1752
 -1       494    8    0    1
 -2       172       328       327      1752      1753      1748
 -1       495    8    0    1
 -2       173       174       329      1288      1754      1755
 -1       496    8    0    1
 -2       173       329       328      1755      1756      1751
 -1       497    8    0    1
 -2       174       175       330      1291      1757      1758
 -1       498    8    0    1
 -2       174       330       329      1758      1759      1754
 -1       499    8    0    1
 -2       175       176       331      1294      1760      1761
 -1       500    8    0    1
 -2       175       331       330      1761      1762      1757
 -1       501    8    0    1
 -2       176       177       332      1297      1763      1764
 -1       502    8    0    1
 -2       176       332       331      1764      1765      1760
 -1       503    8    0    1
 -2       177       178       333      1300      1766      1767
 -1       504    8    0    1
 -2       177       333       332      1767      1768      1763
 -1       505    8    0    1
 -2       178       179       334      1303      1769      1770
 -1       506    8    0    1
 -2       178       334       333      1770      1771      1766
 -1       507    8    0    1
 -2       179       180       335      1306      1772      1773
 -1       508    8    0    1
 -2       179       335       334      1773      1774      1769
 -1       509    8    0    1
 -2       295       296       336      1706      1775      1776
 -1       510    8    0    1
 -2       181        23       166      1308      1737      1777
 -1       511    8    0    1
 -2        72       229       180      1454      1778      1705
 -1       512    8    0    1
 -2       183       182       337      1315      1779      1780
 -1       513    8    0    1
 -2       184       183       338      1318      1781      1782
 -1       514    8    0    1
 -2       183       337       338      1780      1783      1781
 -1       515    8    0    1
 -2       185       184       339      1321      1784      1785
 -1       516    8    0    1
 -2       184       338       339      1782      1786      1784
 -1       517    8    0    1
 -2       186       185       340      1324      1787      1788
 -1       518    8    0    1
 -2       185       339       340      1785      1789      1787
 -1       519    8    0    1
 -2       187       186       341      1327      1790      1791
 -1       520    8    0    1
 -2       186       340       341      1788      1792      1790
 -1       521    8    0    1
 -2       188       187       342      1330      1793      1794
 -1       522    8    0    1
 -2       187       341       342      1791      1795      1793
 -1       523    8    0    1
 -2       189       188       343      1333      1796      1797
 -1       524    8    0    1
 -2       188       342       343      1794      1798      1796
 -1       525    8    0    1
 -2       190       189       344      1336      1799      1800
 -1       526    8    0    1
 -2       189       343       344      1797      1801      1799
 -1       527    8    0    1
 -2       191       190       345      1339      1802      1803
 -1       528    8    0    1
 -2       190       344       345      1800      1804      1802
 -1       529    8    0    1
 -2       192       191       346      1342      1805      1806
 -1       530    8    0    1
 -2       191       345       346      1803      1807      1805
 -1       531    8    0    1
 -2       193       192       347      1345      1808      1809
 -1       532    8    0    1
 -2       192       346       347      1806      1810      1808
 -1       533    8    0    1
 -2       194       193       348      1348      1811      1812
 -1       534    8    0    1
 -2       193       347       348      1809      1813      1811
 -1       535    8    0    1
 -2       195       194       349      1351      1814      1815
 -1       536    8    0    1
 -2       194       348       349      1812      1816      1814
 -1       537    8    0    1
 -2       196       195       350      1354      1817      1818
 -1       538    8    0    1
 -2       195       349       350      1815      1819      1817
 -1       539    8    0    1
 -2       197       196       351      1357      1820      1821
 -1       540    8    0    1
 -2       196       350       351      1818      1822      1820
 -1       541    8    0    1
 -2       198       197       352      1360      1823      1824
 -1       542    8    0    1
 -2       197       351       352      1821      1825      1823
 -1       543    8    0    1
 -2       199       198       353      1363      1826      1827
 -1       544    8    0    1
 -2       198       352       353      1824      1828      1826
 -1       545    8    0    1
 -2       200       199       354      1366      1829      1830
 -1       546    8    0    1
 -2       199       353       354      1827      1831      1829
 -1       547    8    0    1
 -2       201       200       355      1369      1832      1833
 -1       548    8    0    1
 -2       200       354       355      1830      1834      1832
 -1       549    8    0    1
 -2       202       201       356      1372      1835      1836
 -1       550    8    0    1
 -2       201       355       356      1833      1837      1835
 -1       551    8    0    1
 -2       203       202       357      1375      1838      1839
 -1       552    8    0    1
 -2       202       356       357      1836      1840      1838
 -1       553    8    0    1
 -2       204       203       358      1378      1841      1842
 -1       554    8    0    1
 -2       203       357       358      1839      1843      1841
 -1       555    8    0    1
 -2       205       204       359      1381      1844      1845
 -1       556    8    0    1
 -2       204       358       359      1842      1846      1844
 -1       557    8    0    1
 -2       206       205       360      1384      1847      1848
 -1       558    8    0    1
 -2       205       359       360      1845      1849      1847
 -1       559    8    0    1
 -2       207       206       361      1387      1850      1851
 -1       560    8    0    1
 -2       206       360       361      1848      1852      1850
 -1       561    8    0    1
 -2       208       207       362      1390      1853      1854
 -1       562    8    0    1
 -2       207       361       362      1851      1855      1853
 -1       563    8    0    1
 -2       209       208       363      1393      1856      1857
 -1       564    8    0    1
 -2       208       362       363      1854      1858      1856
 -1       565    8    0    1
 -2       210       209       364      1396      1859      1860
 -1       566    8    0    1
 -2       209       363       364      1857      1861      1859
 -1       567    8    0    1
 -2       211       210       365      1399      1862      1863
 -1       568    8    0    1
 -2       210       364       365      1860      1864      1862
 -1       569    8    0    1
 -2       212       211       366      1402      1865      1866
 -1       570    8    0    1
 -2       211       365       366      1863      1867      1865
 -1       571    8    0    1
 -2       213       212       367      1405      1868      1869
 -1       572    8    0    1
 -2       212       366       367      1866      1870      1868
 -1       573    8    0    1
 -2       214       213       368      1408      1871      1872
 -1       574    8    0    1
 -2       213       367       368      1869      1873      1871
 -1       575    8    0    1
 -2       215       214       369      1411      1874      1875
 -1       576    8    0    1
 -2       214       368       369      1872      1876      1874
 -1       577    8    0    1
 -2       216       215       370      1414      1877      1878
 -1       578    8    0    1
 -2       215       369       370      1875      1879      1877
 -1       579    8    0    1
 -2       217       216       371      1417      1880      1881
 -1       580    8    0    1
 -2       216       370       371      1878      1882      1880
 -1       581    8    0    1
 -2       218       217       372      1420      1883      1884
 -1       582    8    0    1
 -2       217       371       372      1881      1885      1883
 -1       583    8    0    1
 -2       219       218       373      1423      1886      1887
 -1       584    8    0    1
 -2       218       372       373      1884      1888      1886
 -1       585    8    0    1
 -2       220       219       374      1426      1889      1890
 -1       586    8    0    1
 -2       219       373       374      1887      1891      1889
 -1       587    8    0    1
 -2       221       220       375      1429      1892      1893
 -1       588    8    0    1
 -2       220       374       375      1890      1894      1892
 -1       589    8    0    1
 -2       222       221       376      1432      1895      1896
 -1       590    8    0    1
 -2       221       375       376      1893      1897      1895
 -1       591    8    0    1
 -2       223       222       377      1435      1898      1899
 -1       592    8    0    1
 -2       222       376       377      1896      1900      1898
 -1       593    8    0    1
 -2       224       223       378      1438      1901      1902
 -1       594    8    0    1
 -2       223       377       378      1899      1903      1901
 -1       595    8    0    1
 -2       225       224       379      1441      1904      1905
 -1       596    8    0    1
 -2       224       378       379      1902      1906      1904
 -1       597    8    0    1
 -2       226       225       380      1444      1907      1908
 -1       598    8    0    1
 -2       225       379       380      1905      1909      1907
 -1       599    8    0    1
 -2       227       226       381      1447      1910      1911
 -1       600    8    0    1
 -2       226       380       381      1908      1912      1910
 -1       601    8    0    1
 -2       228       227       382      1450      1913      1914
 -1       602    8    0    1
 -2       292       228       382      1644      1914      1915
 -1       603    8    0    1
 -2       227       381       382      1911      1916      1913
 -1       604    8    0    1
 -2       231       232       383      1463      1917      1918
 -1       605    8    0    1
 -2       230       231       384      1460      1919      1920
 -1       606    8    0    1
 -2       231       383       384      1918      1921      1919
 -1       607    8    0    1
 -2       232       233       385      1466      1922      1923
 -1       608    8    0    1
 -2       232       385       383      1923      1924      1917
 -1       609    8    0    1
 -2       233       234       386      1469      1925      1926
 -1       610    8    0    1
 -2       233       386       385      1926      1927      1922
 -1       611    8    0    1
 -2       234       235       387      1472      1928      1929
 -1       612    8    0    1
 -2       234       387       386      1929      1930      1925
 -1       613    8    0    1
 -2       235       236       388      1475      1931      1932
 -1       614    8    0    1
 -2       235       388       387      1932      1933      1928
 -1       615    8    0    1
 -2       236       237       389      1478      1934      1935
 -1       616    8    0    1
 -2       236       389       388      1935      1936      1931
 -1       617    8    0    1
 -2       237       238       390      1481      1937      1938
 -1       618    8    0    1
 -2       237       390       389      1938      1939      1934
 -1       619    8    0    1
 -2       238       239       391      1484      1940      1941
 -1       620    8    0    1
 -2       238       391       390      1941      1942      1937
 -1       621    8    0    1
 -2       239       240       392      1487      1943      1944
 -1       622    8    0    1
 -2       239       392       391      1944      1945      1940
 -1       623    8    0    1
 -2       240       241       393      1490      1946      1947
 -1       624    8    0    1
 -2       240       393       392      1947      1948      1943
 -1       625    8    0    1
 -2       241       242       394      1493      1949      1950
 -1       626    8    0    1
 -2       241       394       393      1950      1951      1946
 -1       627    8    0    1
 -2       242       243       395      1496      1952      1953
 -1       628    8    0    1
 -2       242       395       394      1953      1954      1949
 -1       629    8    0    1
 -2       243       244       396      1499      1955      1956
 -1       630    8    0    1
 -2       243       396       395      1956      1957      1952
 -1       631    8    0    1
 -2       244       245       397      1502      1958      1959
 -1       632    8    0    1
 -2       244       397       396      1959      1960      1955
 -1       633    8    0    1
 -2       245       246       398      1505      1961      1962
 -1       634    8    0    1
 -2       245       398       397      1962      1963      1958
 -1       635    8    0    1
 -2       246       247       399      1508      1964      1965
 -1       636    8    0    1
 -2       246       399       398      1965      1966      1961
 -1       637    8    0    1
 -2       248       249       400      1514      1967      1968
 -1       638    8    0    1
 -2       250       251       401      1520      1969      1970
 -1       639    8    0    1
 -2       251       252       402      1523      1971      1972
 -1       640    8    0    1
 -2       252       253       403      1526      1973      1974
 -1       641    8    0    1
 -2       252       403       402      1974      1975      1971
 -1       642    8    0    1
 -2       253       254       404      1529      1976      1977
 -1       643    8    0    1
 -2       253       404       403      1977      1978      1973
 -1       644    8    0    1
 -2       254       255       405      1532      1979      1980
 -1       645    8    0    1
 -2       254       405       404      1980      1981      1976
 -1       646    8    0    1
 -2       255       256       406      1535      1982      1983
 -1       647    8    0    1
 -2       255       406       405      1983      1984      1979
 -1       648    8    0    1
 -2       256       257       407      1538      1985      1986
 -1       649    8    0    1
 -2       256       407       406      1986      1987      1982
 -1       650    8    0    1
 -2       257       258       408      1541      1988      1989
 -1       651    8    0    1
 -2       257       408       407      1989      1990      1985
 -1       652    8    0    1
 -2       258       259       409      1544      1991      1992
 -1       653    8    0    1
 -2       258       409       408      1992      1993      1988
 -1       654    8    0    1
 -2       259       260       410      1547      1994      1995
 -1       655    8    0    1
 -2       259       410       409      1995      1996      1991
 -1       656    8    0    1
 -2       260       261       411      1550      1997      1998
 -1       657    8    0    1
 -2       260       411       410      1998      1999      1994
 -1       658    8    0    1
 -2       261       262       412      1553      2000      2001
 -1       659    8    0    1
 -2       261       412       411      2001      2002      1997
 -1       660    8    0    1
 -2       262       263       413      1556      2003      2004
 -1       661    8    0    1
 -2       262       413       412      2004      2005      2000
 -1       662    8    0    1
 -2       263       264       414      1559      2006      2007
 -1       663    8    0    1
 -2       263       414       413      2007      2008      2003
 -1       664    8    0    1
 -2       264       265       415      1562      2009      2010
 -1       665    8    0    1
 -2       264       415       414      2010      2011      2006
 -1       666    8    0    1
 -2       265       266       416      1565      2012      2013
 -1       667    8    0    1
 -2       265       416       415      2013      2014      2009
 -1       668    8    0    1
 -2       266       267       417      1568      2015      2016
 -1       669    8    0    1
 -2       266       417       416      2016      2017      2012
 -1       670    8    0    1
 -2       267       268       418      1571      2018      2019
 -1       671    8    0    1
 -2       267       418       417      2019      2020      2015
 -1       672    8    0    1
 -2       268       269       419      1574      2021      2022
 -1       673    8    0    1
 -2       268       419       418      2022      2023      2018
 -1       674    8    0    1
 -2       269       270       420      1577      2024      2025
 -1       675    8    0    1
 -2       269       420       419      2025      2026      2021
 -1       676    8    0    1
 -2       270       271       421      1580      2027      2028
 -1       677    8    0    1
 -2       270       421       420      2028      2029      2024
 -1       678    8    0    1
 -2       271       272       422      1583      2030      2031
 -1       679    8    0    1
 -2       271       422       421      2031      2032      2027
 -1       680    8    0    1
 -2       272       273       423      1586      2033      2034
 -1       681    8    0    1
 -2       272       423       422      2034      2035      2030
 -1       682    8    0    1
 -2       273       274       424      1589      2036      2037
 -1       683    8    0    1
 -2       273       424       423      2037      2038      2033
 -1       684    8    0    1
 -2       274       275       425      1592      2039      2040
 -1       685    8    0    1
 -2       274       425       424      2040      2041      2036
 -1       686    8    0    1
 -2       275       276       426      1595      2042      2043
 -1       687    8    0    1
 -2       275       426       425      2043      2044      2039
 -1       688    8    0    1
 -2       276       277       427      1598      2045      2046
 -1       689    8    0    1
 -2       276       427       426      2046      2047      2042
 -1       690    8    0    1
 -2       293       294       428      1708      2048      2049
 -1       691    8    0    1
 -2       280       281       429      1610      2050      2051
 -1       692    8    0    1
 -2       279       280       430      1607      2052      2053
 -1       693    8    0    1
 -2       280       429       430      2051      2054      2052
 -1       694    8    0    1
 -2       122       278       277      1601      2055      1707
 -1       695    8    0    1
 -2       281       282       431      1613      2056      2057
 -1       696    8    0    1
 -2       281       431       429      2057      2058      2050
 -1       697    8    0    1
 -2       282       283       432      1616      2059      2060
 -1       698    8    0    1
 -2       282       432       431      2060      2061      2056
 -1       699    8    0    1
 -2       283       284       433      1619      2062      2063
 -1       700    8    0    1
 -2       283       433       432      2063      2064      2059
 -1       701    8    0    1
 -2       284       285       434      1622      2065      2066
 -1       702    8    0    1
 -2       284       434       433      2066      2067      2062
 -1       703    8    0    1
 -2       285       286       435      1625      2068      2069
 -1       704    8    0    1
 -2       285       435       434      2069      2070      2065
 -1       705    8    0    1
 -2       286       287       436      1628      2071      2072
 -1       706    8    0    1
 -2       286       436       435      2072      2073      2068
 -1       707    8    0    1
 -2       287       288       437      1631      2074      2075
 -1       708    8    0    1
 -2       287       437       436      2075      2076      2071
 -1       709    8    0    1
 -2       288       289       438      1634      2077      2078
 -1       710    8    0    1
 -2       288       438       437      2078      2079      2074
 -1       711    8    0    1
 -2       289       290       439      1637      2080      2081
 -1       712    8    0    1
 -2       289       439       438      2081      2082      2077
 -1       713    8    0    1
 -2       290       291       440      1640      2083      2084
 -1       714    8    0    1
 -2       290       440       439      2084      2085      2080
 -1       715    8    0    1
 -2       294       295       441      1709      2086      2087
 -1       716    8    0    1
 -2       322       293       442      1710      2088      2089
 -1       717    8    0    1
 -2       168       169       443      1273      2090      2091
 -1       718    8    0    1
 -2       323       168       443      1738      2091      2092
 -1       719    8    0    1
 -2       169       325       443      1744      2093      2090
 -1       720    8    0    1
 -2       297       298       444      1712      2094      2095
 -1       721    8    0    1
 -2       298       299       445      1713      2096      2097
 -1       722    8    0    1
 -2       299       300       446      1714      2098      2099
 -1       723    8    0    1
 -2       300       301       447      1715      2100      2101
 -1       724    8    0    1
 -2       301       302       448      1716      2102      2103
 -1       725    8    0    1
 -2       302       303       449      1717      2104      2105
 -1       726    8    0    1
 -2       303       304       450      1718      2106      2107
 -1       727    8    0    1
 -2       304       305       451      1719      2108      2109
 -1       728    8    0    1
 -2       305       306       452      1720      2110      2111
 -1       729    8    0    1
 -2       306       307       453      1721      2112      2113
 -1       730    8    0    1
 -2       307       308       454      1722      2114      2115
 -1       731    8    0    1
 -2       308       309       455      1723      2116      2117
 -1       732    8    0    1
 -2       309       310       456      1724      2118      2119
 -1       733    8    0    1
 -2       309       456       455      2119      2120      2116
 -1       734    8    0    1
 -2       310       311       457      1725      2121      2122
 -1       735    8    0    1
 -2       311       312       458      1726      2123      2124
 -1       736    8    0    1
 -2       312       313       459      1727      2125      2126
 -1       737    8    0    1
 -2       312       459       458      2126      2127      2123
 -1       738    8    0    1
 -2       313       314       460      1728      2128      2129
 -1       739    8    0    1
 -2       314       315       461      1729      2130      2131
 -1       740    8    0    1
 -2       315       316       462      1730      2132      2133
 -1       741    8    0    1
 -2       316       317       463      1731      2134      2135
 -1       742    8    0    1
 -2       317       318       464      1732      2136      2137
 -1       743    8    0    1
 -2       317       464       463      2137      2138      2134
 -1       744    8    0    1
 -2       318       319       465      1733      2139      2140
 -1       745    8    0    1
 -2       319       320       466      1734      2141      2142
 -1       746    8    0    1
 -2       320       321       467      1735      2143      2144
 -1       747    8    0    1
 -2       321       322       468      1736      2145      2146
 -1       748    8    0    1
 -2       180       229       335      1778      2147      1772
 -1       749    8    0    1
 -2       296       297       469      1711      2148      2149
 -1       750    8    0    1
 -2       181       166       324      1777      1741      2150
 -1       751    8    0    1
 -2       277       278       427      2055      2151      2045
 -1       752    8    0    1
 -2       427       278       279      2151      1604      2152
 -1       753    8    0    1
 -2       295       336       441      1776      2153      2086
 -1       754    8    0    1
 -2       296       469       336      2149      2154      1775
 -1       755    8    0    1
 -2       182       181       324      1312      2150      2155
 -1       756    8    0    1
 -2       297       444       469      2095      2156      2148
 -1       757    8    0    1
 -2       337       182       324      1779      2155      2157
 -1       758    8    0    1
 -2       230       384       335      1920      2158      2159
 -1       759    8    0    1
 -2       229       230       335      1457      2159      2147
 -1       760    8    0    1
 -2       399       247       470      1964      2160      2161
 -1       761    8    0    1
 -2       247       248       470      1511      2162      2160
 -1       762    8    0    1
 -2       250       401       446      1970      2163      2164
 -1       763    8    0    1
 -2       249       250       446      1517      2164      2165
 -1       764    8    0    1
 -2       251       402       401      1972      2166      1969
 -1       765    8    0    1
 -2       293       428       442      2049      2167      2088
 -1       766    8    0    1
 -2       427       279       430      2152      2053      2168
 -1       767    8    0    1
 -2       428       294       441      2048      2087      2169
 -1       768    8    0    1
 -2       440       291       292      2083      1643      2170
 -1       769    8    0    1
 -2       468       322       442      2145      2089      2171
 -1       770    8    0    1
 -2       467       321       468      2143      2146      2172
 -1       771    8    0    1
 -2       466       320       467      2141      2144      2173
 -1       772    8    0    1
 -2       464       318       465      2136      2140      2174
 -1       773    8    0    1
 -2       462       316       463      2132      2135      2175
 -1       774    8    0    1
 -2       461       315       462      2130      2133      2176
 -1       775    8    0    1
 -2       459       313       460      2125      2129      2177
 -1       776    8    0    1
 -2       456       310       457      2118      2122      2178
 -1       777    8    0    1
 -2       454       308       455      2114      2117      2179
 -1       778    8    0    1
 -2       453       307       454      2112      2115      2180
 -1       779    8    0    1
 -2       452       306       453      2110      2113      2181
 -1       780    8    0    1
 -2       451       305       452      2108      2111      2182
 -1       781    8    0    1
 -2       450       304       451      2106      2109      2183
 -1       782    8    0    1
 -2       449       303       450      2104      2107      2184
 -1       783    8    0    1
 -2       448       302       449      2102      2105      2185
 -1       784    8    0    1
 -2       447       301       448      2100      2103      2186
 -1       785    8    0    1
 -2       446       300       447      2098      2101      2187
 -1       786    8    0    1
 -2       444       298       445      2094      2097      2188
 -1       787    8    0    1
 -2       445       299       446      2096      2099      2189
 -1       788    8    0    1
 -2       457       311       458      2121      2124      2190
 -1       789    8    0    1
 -2       460       314       461      2128      2131      2191
 -1       790    8    0    1
 -2       465       319       466      2139      2142      2192
 -1       791    8    0    1
 -2       326       327       471      1750      2193      2194
 -1       792    8    0    1
 -2       325       326       472      1747      2195      2196
 -1       793    8    0    1
 -2       326       471       472      2194      2197      2195
 -1       794    8    0    1
 -2       328       329       473      1756      2198      2199
 -1       795    8    0    1
 -2       329       330       474      1759      2200      2201
 -1       796    8    0    1
 -2       329       474       473      2201      2202      2198
 -1       797    8    0    1
 -2       330       331       475      1762      2203      2204
 -1       798    8    0    1
 -2       330       475       474      2204      2205      2200
 -1       799    8    0    1
 -2       331       332       476      1765      2206      2207
 -1       800    8    0    1
 -2       331       476       475      2207      2208      2203
 -1       801    8    0    1
 -2       332       333       477      1768      2209      2210
 -1       802    8    0    1
 -2       332       477       476      2210      2211      2206
 -1       803    8    0    1
 -2       333       334       478      1771      2212      2213
 -1       804    8    0    1
 -2       333       478       477      2213      2214      2209
 -1       805    8    0    1
 -2       334       335       479      1774      2215      2216
 -1       806    8    0    1
 -2       478       334       479      2212      2216      2217
 -1       807    8    0    1
 -2       335       384       479      2158      2218      2215
 -1       808    8    0    1
 -2       338       337       480      1783      2219      2220
 -1       809    8    0    1
 -2       339       338       481      1786      2221      2222
 -1       810    8    0    1
 -2       338       480       481      2220      2223      2221
 -1       811    8    0    1
 -2       340       339       482      1789      2224      2225
 -1       812    8    0    1
 -2       339       481       482      2222      2226      2224
 -1       813    8    0    1
 -2       341       340       483      1792      2227      2228
 -1       814    8    0    1
 -2       340       482       483      2225      2229      2227
 -1       815    8    0    1
 -2       342       341       484      1795      2230      2231
 -1       816    8    0    1
 -2       341       483       484      2228      2232      2230
 -1       817    8    0    1
 -2       343       342       485      1798      2233      2234
 -1       818    8    0    1
 -2       342       484       485      2231      2235      2233
 -1       819    8    0    1
 -2       344       343       486      1801      2236      2237
 -1       820    8    0    1
 -2       343       485       486      2234      2238      2236
 -1       821    8    0    1
 -2       345       344       487      1804      2239      2240
 -1       822    8    0    1
 -2       344       486       487      2237      2241      2239
 -1       823    8    0    1
 -2       346       345       488      1807      2242      2243
 -1       824    8    0    1
 -2       345       487       488      2240      2244      2242
 -1       825    8    0    1
 -2       347       346       489      1810      2245      2246
 -1       826    8    0    1
 -2       346       488       489      2243      2247      2245
 -1       827    8    0    1
 -2       348       347       490      1813      2248      2249
 -1       828    8    0    1
 -2       347       489       490      2246      2250      2248
 -1       829    8    0    1
 -2       349       348       491      1816      2251      2252
 -1       830    8    0    1
 -2       348       490       491      2249      2253      2251
 -1       831    8    0    1
 -2       350       349       492      1819      2254      2255
 -1       832    8    0    1
 -2       349       491       492      2252      2256      2254
 -1       833    8    0    1
 -2       351       350       493      1822      2257      2258
 -1       834    8    0    1
 -2       350       492       493      2255      2259      2257
 -1       835    8    0    1
 -2       352       351       494      1825      2260      2261
 -1       836    8    0    1
 -2       351       493       494      2258      2262      2260
 -1       837    8    0    1
 -2       353       352       495      1828      2263      2264
 -1       838    8    0    1
 -2       352       494       495      2261      2265      2263
 -1       839    8    0    1
 -2       354       353       496      1831      2266      2267
 -1       840    8    0    1
 -2       353       495       496      2264      2268      2266
 -1       841    8    0    1
 -2       355       354       497      1834      2269      2270
 -1       842    8    0    1
 -2       354       496       497      2267      2271      2269
 -1       843    8    0    1
 -2       356       355       498      1837      2272      2273
 -1       844    8    0    1
 -2       355       497       498      2270      2274      2272
 -1       845    8    0    1
 -2       357       356       499      1840      2275      2276
 -1       846    8    0    1
 -2       356       498       499      2273      2277      2275
 -1       847    8    0    1
 -2       358       357       500      1843      2278      2279
 -1       848    8    0    1
 -2       357       499       500      2276      2280      2278
 -1       849    8    0    1
 -2       359       358       501      1846      2281      2282
 -1       850    8    0    1
 -2       358       500       501      2279      2283      2281
 -1       851    8    0    1
 -2       360       359       502      1849      2284      2285
 -1       852    8    0    1
 -2       359       501       502      2282      2286      2284
 -1       853    8    0    1
 -2       361       360       503      1852      2287      2288
 -1       854    8    0    1
 -2       360       502       503      2285      2289      2287
 -1       855    8    0    1
 -2       362       361       504      1855      2290      2291
 -1       856    8    0    1
 -2       361       503       504      2288      2292      2290
 -1       857    8    0    1
 -2       363       362       505      1858      2293      2294
 -1       858    8    0    1
 -2       362       504       505      2291      2295      2293
 -1       859    8    0    1
 -2       364       363       506      1861      2296      2297
 -1       860    8    0    1
 -2       363       505       506      2294      2298      2296
 -1       861    8    0    1
 -2       365       364       507      1864      2299      2300
 -1       862    8    0    1
 -2       364       506       507      2297      2301      2299
 -1       863    8    0    1
 -2       366       365       508      1867      2302      2303
 -1       864    8    0    1
 -2       365       507       508      2300      2304      2302
 -1       865    8    0    1
 -2       367       366       509      1870      2305      2306
 -1       866    8    0    1
 -2       366       508       509      2303      2307      2305
 -1       867    8    0    1
 -2       368       367       510      1873      2308      2309
 -1       868    8    0    1
 -2       367       509       510      2306      2310      2308
 -1       869    8    0    1
 -2       369       368       511      1876      2311      2312
 -1       870    8    0    1
 -2       368       510       511      2309      2313      2311
 -1       871    8    0    1
 -2       370       369       512      1879      2314      2315
 -1       872    8    0    1
 -2       369       511       512      2312      2316      2314
 -1       873    8    0    1
 -2       371       370       513      1882      2317      2318
 -1       874    8    0    1
 -2       370       512       513      2315      2319      2317
 -1       875    8    0    1
 -2       372       371       514      1885      2320      2321
 -1       876    8    0    1
 -2       371       513       514      2318      2322      2320
 -1       877    8    0    1
 -2       373       372       515      1888      2323      2324
 -1       878    8    0    1
 -2       372       514       515      2321      2325      2323
 -1       879    8    0    1
 -2       374       373       516      1891      2326      2327
 -1       880    8    0    1
 -2       373       515       516      2324      2328      2326
 -1       881    8    0    1
 -2       375       374       517      1894      2329      2330
 -1       882    8    0    1
 -2       374       516       517      2327      2331      2329
 -1       883    8    0    1
 -2       376       375       518      1897      2332      2333
 -1       884    8    0    1
 -2       375       517       518      2330      2334      2332
 -1       885    8    0    1
 -2       377       376       519      1900      2335      2336
 -1       886    8    0    1
 -2       376       518       519      2333      2337      2335
 -1       887    8    0    1
 -2       378       377       520      1903      2338      2339
 -1       888    8    0    1
 -2       377       519       520      2336      2340      2338
 -1       889    8    0    1
 -2       379       378       521      1906      2341      2342
 -1       890    8    0    1
 -2       378       520       521      2339      2343      2341
 -1       891    8    0    1
 -2       380       379       522      1909      2344      2345
 -1       892    8    0    1
 -2       379       521       522      2342      2346      2344
 -1       893    8    0    1
 -2       381       380       523      1912      2347      2348
 -1       894    8    0    1
 -2       380       522       523      2345      2349      2347
 -1       895    8    0    1
 -2       384       383       524      1921      2350      2351
 -1       896    8    0    1
 -2       384       524       479      2351      2352      2218
 -1       897    8    0    1
 -2       386       387       525      1930      2353      2354
 -1       898    8    0    1
 -2       387       388       526      1933      2355      2356
 -1       899    8    0    1
 -2       387       526       525      2356      2357      2353
 -1       900    8    0    1
 -2       388       389       527      1936      2358      2359
 -1       901    8    0    1
 -2       388       527       526      2359      2360      2355
 -1       902    8    0    1
 -2       389       390       528      1939      2361      2362
 -1       903    8    0    1
 -2       389       528       527      2362      2363      2358
 -1       904    8    0    1
 -2       390       391       529      1942      2364      2365
 -1       905    8    0    1
 -2       390       529       528      2365      2366      2361
 -1       906    8    0    1
 -2       391       392       530      1945      2367      2368
 -1       907    8    0    1
 -2       391       530       529      2368      2369      2364
 -1       908    8    0    1
 -2       392       393       531      1948      2370      2371
 -1       909    8    0    1
 -2       392       531       530      2371      2372      2367
 -1       910    8    0    1
 -2       393       394       532      1951      2373      2374
 -1       911    8    0    1
 -2       393       532       531      2374      2375      2370
 -1       912    8    0    1
 -2       394       395       533      1954      2376      2377
 -1       913    8    0    1
 -2       394       533       532      2377      2378      2373
 -1       914    8    0    1
 -2       395       396       534      1957      2379      2380
 -1       915    8    0    1
 -2       395       534       533      2380      2381      2376
 -1       916    8    0    1
 -2       396       397       535      1960      2382      2383
 -1       917    8    0    1
 -2       396       535       534      2383      2384      2379
 -1       918    8    0    1
 -2       397       398       536      1963      2385      2386
 -1       919    8    0    1
 -2       397       536       535      2386      2387      2382
 -1       920    8    0    1
 -2       248       400       470      1968      2388      2162
 -1       921    8    0    1
 -2       249       446       447      2165      2187      2389
 -1       922    8    0    1
 -2       405       406       537      1984      2390      2391
 -1       923    8    0    1
 -2       406       407       538      1987      2392      2393
 -1       924    8    0    1
 -2       406       538       537      2393      2394      2390
 -1       925    8    0    1
 -2       407       408       539      1990      2395      2396
 -1       926    8    0    1
 -2       407       539       538      2396      2397      2392
 -1       927    8    0    1
 -2       408       409       540      1993      2398      2399
 -1       928    8    0    1
 -2       408       540       539      2399      2400      2395
 -1       929    8    0    1
 -2       409       410       541      1996      2401      2402
 -1       930    8    0    1
 -2       409       541       540      2402      2403      2398
 -1       931    8    0    1
 -2       410       411       542      1999      2404      2405
 -1       932    8    0    1
 -2       410       542       541      2405      2406      2401
 -1       933    8    0    1
 -2       411       412       543      2002      2407      2408
 -1       934    8    0    1
 -2       411       543       542      2408      2409      2404
 -1       935    8    0    1
 -2       412       413       544      2005      2410      2411
 -1       936    8    0    1
 -2       412       544       543      2411      2412      2407
 -1       937    8    0    1
 -2       413       414       545      2008      2413      2414
 -1       938    8    0    1
 -2       413       545       544      2414      2415      2410
 -1       939    8    0    1
 -2       414       415       546      2011      2416      2417
 -1       940    8    0    1
 -2       414       546       545      2417      2418      2413
 -1       941    8    0    1
 -2       415       416       547      2014      2419      2420
 -1       942    8    0    1
 -2       415       547       546      2420      2421      2416
 -1       943    8    0    1
 -2       416       417       548      2017      2422      2423
 -1       944    8    0    1
 -2       416       548       547      2423      2424      2419
 -1       945    8    0    1
 -2       417       418       549      2020      2425      2426
 -1       946    8    0    1
 -2       417       549       548      2426      2427      2422
 -1       947    8    0    1
 -2       418       419       550      2023      2428      2429
 -1       948    8    0    1
 -2       418       550       549      2429      2430      2425
 -1       949    8    0    1
 -2       419       420       551      2026      2431      2432
 -1       950    8    0    1
 -2       419       551       550      2432      2433      2428
 -1       951    8    0    1
 -2       420       421       552      2029      2434      2435
 -1       952    8    0    1
 -2       420       552       551      2435      2436      2431
 -1       953    8    0    1
 -2       421       422       553      2032      2437      2438
 -1       954    8    0    1
 -2       421       553       552      2438      2439      2434
 -1       955    8    0    1
 -2       422       423       554      2035      2440      2441
 -1       956    8    0    1
 -2       422       554       553      2441      2442      2437
 -1       957    8    0    1
 -2       423       424       555      2038      2443      2444
 -1       958    8    0    1
 -2       423       555       554      2444      2445      2440
 -1       959    8    0    1
 -2       424       425       556      2041      2446      2447
 -1       960    8    0    1
 -2       424       556       555      2447      2448      2443
 -1       961    8    0    1
 -2       425       426       557      2044      2449      2450
 -1       962    8    0    1
 -2       425       557       556      2450      2451      2446
 -1       963    8    0    1
 -2       426       427       558      2047      2452      2453
 -1       964    8    0    1
 -2       557       426       558      2449      2453      2454
 -1       965    8    0    1
 -2       427       430       558      2168      2455      2452
 -1       966    8    0    1
 -2       428       441       559      2169      2456      2457
 -1       967    8    0    1
 -2       432       433       560      2064      2458      2459
 -1       968    8    0    1
 -2       441       336       561      2153      2460      2461
 -1       969    8    0    1
 -2       433       434       562      2067      2462      2463
 -1       970    8    0    1
 -2       433       562       560      2463      2464      2458
 -1       971    8    0    1
 -2       434       435       563      2070      2465      2466
 -1       972    8    0    1
 -2       434       563       562      2466      2467      2462
 -1       973    8    0    1
 -2       435       436       564      2073      2468      2469
 -1       974    8    0    1
 -2       435       564       563      2469      2470      2465
 -1       975    8    0    1
 -2       436       437       565      2076      2471      2472
 -1       976    8    0    1
 -2       436       565       564      2472      2473      2468
 -1       977    8    0    1
 -2       437       438       566      2079      2474      2475
 -1       978    8    0    1
 -2       437       566       565      2475      2476      2471
 -1       979    8    0    1
 -2       438       439       567      2082      2477      2478
 -1       980    8    0    1
 -2       438       567       566      2478      2479      2474
 -1       981    8    0    1
 -2       439       440       568      2085      2480      2481
 -1       982    8    0    1
 -2       439       568       567      2481      2482      2477
 -1       983    8    0    1
 -2       440       292       382      2170      1915      2483
 -1       984    8    0    1
 -2       336       469       569      2154      2484      2485
 -1       985    8    0    1
 -2       468       442       570      2171      2486      2487
 -1       986    8    0    1
 -2       385       386       571      1927      2488      2489
 -1       987    8    0    1
 -2       386       525       571      2354      2490      2488
 -1       988    8    0    1
 -2       467       468       572      2172      2491      2492
 -1       989    8    0    1
 -2       429       431       573      2058      2493      2494
 -1       990    8    0    1
 -2       462       463       574      2175      2495      2496
 -1       991    8    0    1
 -2       456       457       575      2178      2497      2498
 -1       992    8    0    1
 -2       454       455       576      2179      2499      2500
 -1       993    8    0    1
 -2       430       429       577      2054      2501      2502
 -1       994    8    0    1
 -2       558       430       577      2455      2502      2503
 -1       995    8    0    1
 -2       429       573       577      2494      2504      2501
 -1       996    8    0    1
 -2       431       432       578      2061      2505      2506
 -1       997    8    0    1
 -2       573       431       578      2493      2506      2507
 -1       998    8    0    1
 -2       432       560       578      2459      2508      2505
 -1       999    8    0    1
 -2       404       405       579      1981      2509      2510
 -1      1000    8    0    1
 -2       405       537       579      2391      2511      2509
 -1      1001    8    0    1
 -2       442       428       580      2167      2512      2513
 -1      1002    8    0    1
 -2       327       328       581      1753      2514      2515
 -1      1003    8    0    1
 -2       471       327       581      2193      2515      2516
 -1      1004    8    0    1
 -2       328       473       581      2199      2517      2514
 -1      1005    8    0    1
 -2       383       385       582      1924      2518      2519
 -1      1006    8    0    1
 -2       524       383       582      2350      2519      2520
 -1      1007    8    0    1
 -2       385       571       582      2489      2521      2518
 -1      1008    8    0    1
 -2       457       458       583      2190      2522      2523
 -1      1009    8    0    1
 -2       450       451       584      2183      2524      2525
 -1      1010    8    0    1
 -2       451       452       585      2182      2526      2527
 -1      1011    8    0    1
 -2       452       453       586      2181      2528      2529
 -1      1012    8    0    1
 -2       453       454       587      2180      2530      2531
 -1      1013    8    0    1
 -2       454       576       587      2500      2532      2530
 -1      1014    8    0    1
 -2       455       456       588      2120      2533      2534
 -1      1015    8    0    1
 -2       460       461       589      2191      2535      2536
 -1      1016    8    0    1
 -2       458       459       590      2127      2537      2538
 -1      1017    8    0    1
 -2       465       466       591      2192      2539      2540
 -1      1018    8    0    1
 -2       459       460       592      2177      2541      2542
 -1      1019    8    0    1
 -2       461       462       593      2176      2543      2544
 -1      1020    8    0    1
 -2       461       593       589      2544      2545      2535
 -1      1021    8    0    1
 -2       463       464       594      2138      2546      2547
 -1      1022    8    0    1
 -2       464       465       595      2174      2548      2549
 -1      1023    8    0    1
 -2       465       591       595      2540      2550      2548
 -1      1024    8    0    1
 -2       466       467       596      2173      2551      2552
 -1      1025    8    0    1
 -2       337       324       597      2157      2553      2554
 -1      1026    8    0    1
 -2       480       337       597      2219      2554      2555
 -1      1027    8    0    1
 -2       324       323       597      1742      2556      2553
 -1      1028    8    0    1
 -2       469       444       598      2156      2557      2558
 -1      1029    8    0    1
 -2       325       472       599      2196      2559      2560
 -1      1030    8    0    1
 -2       325       599       443      2560      2561      2093
 -1      1031    8    0    1
 -2       467       572       596      2492      2562      2551
 -1      1032    8    0    1
 -2       401       402       444      2166      2563      2564
 -1      1033    8    0    1
 -2       336       569       561      2485      2565      2460
 -1      1034    8    0    1
 -2       583       458       590      2522      2538      2566
 -1      1035    8    0    1
 -2       536       398       584      2385      2567      2568
 -1      1036    8    0    1
 -2       446       401       445      2163      2569      2189
 -1      1037    8    0    1
 -2       402       403       598      1975      2570      2571
 -1      1038    8    0    1
 -2       559       441       561      2456      2461      2572
 -1      1039    8    0    1
 -2       404       579       569      2510      2573      2574
 -1      1040    8    0    1
 -2       428       559       580      2457      2575      2512
 -1      1041    8    0    1
 -2       440       382       600      2483      2576      2577
 -1      1042    8    0    1
 -2       568       440       600      2480      2577      2578
 -1      1043    8    0    1
 -2       382       381       600      1916      2579      2576
 -1      1044    8    0    1
 -2       570       442       580      2486      2513      2580
 -1      1045    8    0    1
 -2       569       469       598      2484      2558      2581
 -1      1046    8    0    1
 -2       468       570       572      2487      2582      2491
 -1      1047    8    0    1
 -2       457       583       575      2523      2583      2497
 -1      1048    8    0    1
 -2       323       443       601      2092      2584      2585
 -1      1049    8    0    1
 -2       597       323       601      2556      2585      2586
 -1      1050    8    0    1
 -2       443       599       601      2561      2587      2584
 -1      1051    8    0    1
 -2       462       574       593      2496      2588      2543
 -1      1052    8    0    1
 -2       456       575       588      2498      2589      2533
 -1      1053    8    0    1
 -2       592       460       589      2541      2536      2590
 -1      1054    8    0    1
 -2       455       588       576      2534      2591      2499
 -1      1055    8    0    1
 -2       591       466       596      2539      2552      2592
 -1      1056    8    0    1
 -2       590       459       592      2537      2542      2593
 -1      1057    8    0    1
 -2       463       594       574      2547      2594      2495
 -1      1058    8    0    1
 -2       586       453       602      2528      2595      2596
 -1      1059    8    0    1
 -2       453       587       602      2531      2597      2595
 -1      1060    8    0    1
 -2       403       404       569      1978      2574      2598
 -1      1061    8    0    1
 -2       585       452       586      2526      2529      2599
 -1      1062    8    0    1
 -2       584       451       585      2524      2527      2600
 -1      1063    8    0    1
 -2       402       598       444      2571      2557      2563
 -1      1064    8    0    1
 -2       450       584       603      2525      2601      2602
 -1      1065    8    0    1
 -2       450       603       449      2602      2603      2184
 -1      1066    8    0    1
 -2       444       445       401      2188      2569      2564
 -1      1067    8    0    1
 -2       403       569       598      2598      2581      2570
 -1      1068    8    0    1
 -2       594       464       595      2546      2549      2604
 -1      1069    8    0    1
 -2       399       470       449      2161      2605      2606
 -1      1070    8    0    1
 -2       399       449       603      2606      2603      2607
 -1      1071    8    0    1
 -2       600       381       523      2579      2348      2608
 -1      1072    8    0    1
 -2       474       475       604      2205      2609      2610
 -1      1073    8    0    1
 -2       473       474       605      2202      2611      2612
 -1      1074    8    0    1
 -2       474       604       605      2610      2613      2611
 -1      1075    8    0    1
 -2       476       477       606      2211      2614      2615
 -1      1076    8    0    1
 -2       477       478       607      2214      2616      2617
 -1      1077    8    0    1
 -2       477       607       606      2617      2618      2614
 -1      1078    8    0    1
 -2       478       479       608      2217      2619      2620
 -1      1079    8    0    1
 -2       607       478       608      2616      2620      2621
 -1      1080    8    0    1
 -2       479       524       608      2352      2622      2619
 -1      1081    8    0    1
 -2       600       523       609      2608      2623      2624
 -1      1082    8    0    1
 -2       600       609       568      2624      2625      2578
 -1      1083    8    0    1
 -2       481       480       610      2223      2626      2627
 -1      1084    8    0    1
 -2       482       481       611      2226      2628      2629
 -1      1085    8    0    1
 -2       481       610       611      2627      2630      2628
 -1      1086    8    0    1
 -2       483       482       612      2229      2631      2632
 -1      1087    8    0    1
 -2       482       611       612      2629      2633      2631
 -1      1088    8    0    1
 -2       484       483       613      2232      2634      2635
 -1      1089    8    0    1
 -2       483       612       613      2632      2636      2634
 -1      1090    8    0    1
 -2       485       484       614      2235      2637      2638
 -1      1091    8    0    1
 -2       484       613       614      2635      2639      2637
 -1      1092    8    0    1
 -2       486       485       615      2238      2640      2641
 -1      1093    8    0    1
 -2       485       614       615      2638      2642      2640
 -1      1094    8    0    1
 -2       487       486       616      2241      2643      2644
 -1      1095    8    0    1
 -2       486       615       616      2641      2645      2643
 -1      1096    8    0    1
 -2       488       487       617      2244      2646      2647
 -1      1097    8    0    1
 -2       487       616       617      2644      2648      2646
 -1      1098    8    0    1
 -2       489       488       618      2247      2649      2650
 -1      1099    8    0    1
 -2       488       617       618      2647      2651      2649
 -1      1100    8    0    1
 -2       490       489       619      2250      2652      2653
 -1      1101    8    0    1
 -2       489       618       619      2650      2654      2652
 -1      1102    8    0    1
 -2       491       490       620      2253      2655      2656
 -1      1103    8    0    1
 -2       490       619       620      2653      2657      2655
 -1      1104    8    0    1
 -2       492       491       621      2256      2658      2659
 -1      1105    8    0    1
 -2       491       620       621      2656      2660      2658
 -1      1106    8    0    1
 -2       493       492       622      2259      2661      2662
 -1      1107    8    0    1
 -2       492       621       622      2659      2663      2661
 -1      1108    8    0    1
 -2       494       493       623      2262      2664      2665
 -1      1109    8    0    1
 -2       493       622       623      2662      2666      2664
 -1      1110    8    0    1
 -2       495       494       624      2265      2667      2668
 -1      1111    8    0    1
 -2       494       623       624      2665      2669      2667
 -1      1112    8    0    1
 -2       496       495       625      2268      2670      2671
 -1      1113    8    0    1
 -2       495       624       625      2668      2672      2670
 -1      1114    8    0    1
 -2       497       496       626      2271      2673      2674
 -1      1115    8    0    1
 -2       496       625       626      2671      2675      2673
 -1      1116    8    0    1
 -2       498       497       627      2274      2676      2677
 -1      1117    8    0    1
 -2       497       626       627      2674      2678      2676
 -1      1118    8    0    1
 -2       499       498       628      2277      2679      2680
 -1      1119    8    0    1
 -2       498       627       628      2677      2681      2679
 -1      1120    8    0    1
 -2       500       499       629      2280      2682      2683
 -1      1121    8    0    1
 -2       499       628       629      2680      2684      2682
 -1      1122    8    0    1
 -2       501       500       630      2283      2685      2686
 -1      1123    8    0    1
 -2       500       629       630      2683      2687      2685
 -1      1124    8    0    1
 -2       502       501       631      2286      2688      2689
 -1      1125    8    0    1
 -2       501       630       631      2686      2690      2688
 -1      1126    8    0    1
 -2       503       502       632      2289      2691      2692
 -1      1127    8    0    1
 -2       502       631       632      2689      2693      2691
 -1      1128    8    0    1
 -2       504       503       633      2292      2694      2695
 -1      1129    8    0    1
 -2       503       632       633      2692      2696      2694
 -1      1130    8    0    1
 -2       505       504       634      2295      2697      2698
 -1      1131    8    0    1
 -2       504       633       634      2695      2699      2697
 -1      1132    8    0    1
 -2       506       505       635      2298      2700      2701
 -1      1133    8    0    1
 -2       505       634       635      2698      2702      2700
 -1      1134    8    0    1
 -2       507       506       636      2301      2703      2704
 -1      1135    8    0    1
 -2       506       635       636      2701      2705      2703
 -1      1136    8    0    1
 -2       508       507       637      2304      2706      2707
 -1      1137    8    0    1
 -2       507       636       637      2704      2708      2706
 -1      1138    8    0    1
 -2       509       508       638      2307      2709      2710
 -1      1139    8    0    1
 -2       508       637       638      2707      2711      2709
 -1      1140    8    0    1
 -2       510       509       639      2310      2712      2713
 -1      1141    8    0    1
 -2       509       638       639      2710      2714      2712
 -1      1142    8    0    1
 -2       511       510       640      2313      2715      2716
 -1      1143    8    0    1
 -2       510       639       640      2713      2717      2715
 -1      1144    8    0    1
 -2       512       511       641      2316      2718      2719
 -1      1145    8    0    1
 -2       511       640       641      2716      2720      2718
 -1      1146    8    0    1
 -2       513       512       642      2319      2721      2722
 -1      1147    8    0    1
 -2       512       641       642      2719      2723      2721
 -1      1148    8    0    1
 -2       514       513       643      2322      2724      2725
 -1      1149    8    0    1
 -2       513       642       643      2722      2726      2724
 -1      1150    8    0    1
 -2       515       514       644      2325      2727      2728
 -1      1151    8    0    1
 -2       514       643       644      2725      2729      2727
 -1      1152    8    0    1
 -2       516       515       645      2328      2730      2731
 -1      1153    8    0    1
 -2       515       644       645      2728      2732      2730
 -1      1154    8    0    1
 -2       517       516       646      2331      2733      2734
 -1      1155    8    0    1
 -2       516       645       646      2731      2735      2733
 -1      1156    8    0    1
 -2       518       517       647      2334      2736      2737
 -1      1157    8    0    1
 -2       517       646       647      2734      2738      2736
 -1      1158    8    0    1
 -2       519       518       648      2337      2739      2740
 -1      1159    8    0    1
 -2       518       647       648      2737      2741      2739
 -1      1160    8    0    1
 -2       520       519       649      2340      2742      2743
 -1      1161    8    0    1
 -2       519       648       649      2740      2744      2742
 -1      1162    8    0    1
 -2       521       520       650      2343      2745      2746
 -1      1163    8    0    1
 -2       520       649       650      2743      2747      2745
 -1      1164    8    0    1
 -2       522       521       651      2346      2748      2749
 -1      1165    8    0    1
 -2       521       650       651      2746      2750      2748
 -1      1166    8    0    1
 -2       523       522       652      2349      2751      2752
 -1      1167    8    0    1
 -2       609       523       652      2623      2752      2753
 -1      1168    8    0    1
 -2       522       651       652      2749      2754      2751
 -1      1169    8    0    1
 -2       570       580       653      2580      2755      2756
 -1      1170    8    0    1
 -2       526       527       654      2360      2757      2758
 -1      1171    8    0    1
 -2       525       526       655      2357      2759      2760
 -1      1172    8    0    1
 -2       526       654       655      2758      2761      2759
 -1      1173    8    0    1
 -2       528       529       656      2366      2762      2763
 -1      1174    8    0    1
 -2       529       530       657      2369      2764      2765
 -1      1175    8    0    1
 -2       529       657       656      2765      2766      2762
 -1      1176    8    0    1
 -2       530       531       658      2372      2767      2768
 -1      1177    8    0    1
 -2       530       658       657      2768      2769      2764
 -1      1178    8    0    1
 -2       531       532       659      2375      2770      2771
 -1      1179    8    0    1
 -2       531       659       658      2771      2772      2767
 -1      1180    8    0    1
 -2       532       533       660      2378      2773      2774
 -1      1181    8    0    1
 -2       532       660       659      2774      2775      2770
 -1      1182    8    0    1
 -2       533       534       661      2381      2776      2777
 -1      1183    8    0    1
 -2       533       661       660      2777      2778      2773
 -1      1184    8    0    1
 -2       534       535       662      2384      2779      2780
 -1      1185    8    0    1
 -2       534       662       661      2780      2781      2776
 -1      1186    8    0    1
 -2       535       536       663      2387      2782      2783
 -1      1187    8    0    1
 -2       535       663       662      2783      2784      2779
 -1      1188    8    0    1
 -2       583       590       664      2566      2785      2786
 -1      1189    8    0    1
 -2       398       399       584      1966      2787      2567
 -1      1190    8    0    1
 -2       539       540       665      2400      2788      2789
 -1      1191    8    0    1
 -2       249       447       400      2389      2790      1967
 -1      1192    8    0    1
 -2       594       595       666      2604      2791      2792
 -1      1193    8    0    1
 -2       538       539       667      2397      2793      2794
 -1      1194    8    0    1
 -2       539       665       667      2789      2795      2793
 -1      1195    8    0    1
 -2       559       561       668      2572      2796      2797
 -1      1196    8    0    1
 -2       537       538       669      2394      2798      2799
 -1      1197    8    0    1
 -2       538       667       669      2794      2800      2798
 -1      1198    8    0    1
 -2       540       541       670      2403      2801      2802
 -1      1199    8    0    1
 -2       540       670       665      2802      2803      2788
 -1      1200    8    0    1
 -2       541       542       671      2406      2804      2805
 -1      1201    8    0    1
 -2       541       671       670      2805      2806      2801
 -1      1202    8    0    1
 -2       542       543       672      2409      2807      2808
 -1      1203    8    0    1
 -2       542       672       671      2808      2809      2804
 -1      1204    8    0    1
 -2       543       544       673      2412      2810      2811
 -1      1205    8    0    1
 -2       543       673       672      2811      2812      2807
 -1      1206    8    0    1
 -2       544       545       674      2415      2813      2814
 -1      1207    8    0    1
 -2       544       674       673      2814      2815      2810
 -1      1208    8    0    1
 -2       545       546       675      2418      2816      2817
 -1      1209    8    0    1
 -2       545       675       674      2817      2818      2813
 -1      1210    8    0    1
 -2       546       547       676      2421      2819      2820
 -1      1211    8    0    1
 -2       546       676       675      2820      2821      2816
 -1      1212    8    0    1
 -2       547       548       677      2424      2822      2823
 -1      1213    8    0    1
 -2       547       677       676      2823      2824      2819
 -1      1214    8    0    1
 -2       548       549       678      2427      2825      2826
 -1      1215    8    0    1
 -2       548       678       677      2826      2827      2822
 -1      1216    8    0    1
 -2       549       550       679      2430      2828      2829
 -1      1217    8    0    1
 -2       549       679       678      2829      2830      2825
 -1      1218    8    0    1
 -2       550       551       680      2433      2831      2832
 -1      1219    8    0    1
 -2       550       680       679      2832      2833      2828
 -1      1220    8    0    1
 -2       551       552       681      2436      2834      2835
 -1      1221    8    0    1
 -2       551       681       680      2835      2836      2831
 -1      1222    8    0    1
 -2       552       553       682      2439      2837      2838
 -1      1223    8    0    1
 -2       552       682       681      2838      2839      2834
 -1      1224    8    0    1
 -2       553       554       683      2442      2840      2841
 -1      1225    8    0    1
 -2       553       683       682      2841      2842      2837
 -1      1226    8    0    1
 -2       554       555       684      2445      2843      2844
 -1      1227    8    0    1
 -2       554       684       683      2844      2845      2840
 -1      1228    8    0    1
 -2       555       556       685      2448      2846      2847
 -1      1229    8    0    1
 -2       555       685       684      2847      2848      2843
 -1      1230    8    0    1
 -2       556       557       686      2451      2849      2850
 -1      1231    8    0    1
 -2       556       686       685      2850      2851      2846
 -1      1232    8    0    1
 -2       557       558       687      2454      2852      2853
 -1      1233    8    0    1
 -2       686       557       687      2849      2853      2854
 -1      1234    8    0    1
 -2       558       577       687      2503      2855      2852
 -1      1235    8    0    1
 -2       562       563       688      2467      2856      2857
 -1      1236    8    0    1
 -2       580       559       689      2575      2858      2859
 -1      1237    8    0    1
 -2       580       689       653      2859      2860      2755
 -1      1238    8    0    1
 -2       585       586       690      2599      2861      2862
 -1      1239    8    0    1
 -2       560       562       691      2464      2863      2864
 -1      1240    8    0    1
 -2       562       688       691      2857      2865      2863
 -1      1241    8    0    1
 -2       564       565       692      2473      2866      2867
 -1      1242    8    0    1
 -2       565       566       693      2476      2868      2869
 -1      1243    8    0    1
 -2       565       693       692      2869      2870      2866
 -1      1244    8    0    1
 -2       566       567       694      2479      2871      2872
 -1      1245    8    0    1
 -2       566       694       693      2872      2873      2868
 -1      1246    8    0    1
 -2       567       568       609      2482      2625      2874
 -1      1247    8    0    1
 -2       575       583       695      2583      2875      2876
 -1      1248    8    0    1
 -2       595       591       696      2550      2877      2878
 -1      1249    8    0    1
 -2       595       696       666      2878      2879      2791
 -1      1250    8    0    1
 -2       588       575       697      2589      2880      2881
 -1      1251    8    0    1
 -2       587       576       698      2532      2882      2883
 -1      1252    8    0    1
 -2       591       596       699      2592      2884      2885
 -1      1253    8    0    1
 -2       579       537       700      2511      2886      2887
 -1      1254    8    0    1
 -2       537       669       700      2799      2888      2886
 -1      1255    8    0    1
 -2       571       525       701      2490      2889      2890
 -1      1256    8    0    1
 -2       525       655       701      2760      2891      2889
 -1      1257    8    0    1
 -2       596       572       702      2562      2892      2893
 -1      1258    8    0    1
 -2       572       570       703      2582      2894      2895
 -1      1259    8    0    1
 -2       563       564       704      2470      2896      2897
 -1      1260    8    0    1
 -2       688       563       704      2856      2897      2898
 -1      1261    8    0    1
 -2       564       692       704      2867      2899      2896
 -1      1262    8    0    1
 -2       527       528       705      2363      2900      2901
 -1      1263    8    0    1
 -2       654       527       705      2757      2901      2902
 -1      1264    8    0    1
 -2       528       656       705      2763      2903      2900
 -1      1265    8    0    1
 -2       447       448       400      2186      2904      2790
 -1      1266    8    0    1
 -2       448       449       470      2185      2605      2905
 -1      1267    8    0    1
 -2       592       589       706      2590      2906      2907
 -1      1268    8    0    1
 -2       576       588       707      2591      2908      2909
 -1      1269    8    0    1
 -2       475       476       708      2208      2910      2911
 -1      1270    8    0    1
 -2       604       475       708      2609      2911      2912
 -1      1271    8    0    1
 -2       476       606       708      2615      2913      2910
 -1      1272    8    0    1
 -2       590       592       709      2593      2914      2915
 -1      1273    8    0    1
 -2       590       709       664      2915      2916      2785
 -1      1274    8    0    1
 -2       472       471       710      2197      2917      2918
 -1      1275    8    0    1
 -2       574       594       711      2594      2919      2920
 -1      1276    8    0    1
 -2       589       593       712      2545      2921      2922
 -1      1277    8    0    1
 -2       480       597       713      2555      2923      2924
 -1      1278    8    0    1
 -2       610       480       713      2626      2924      2925
 -1      1279    8    0    1
 -2       597       601       713      2586      2926      2923
 -1      1280    8    0    1
 -2       593       574       714      2588      2927      2928
 -1      1281    8    0    1
 -2       473       605       715      2612      2929      2930
 -1      1282    8    0    1
 -2       473       715       581      2930      2931      2517
 -1      1283    8    0    1
 -2       608       524       716      2622      2932      2933
 -1      1284    8    0    1
 -2       524       582       716      2520      2934      2932
 -1      1285    8    0    1
 -2       714       574       711      2927      2920      2935
 -1      1286    8    0    1
 -2       570       653       703      2756      2936      2894
 -1      1287    8    0    1
 -2       561       569       579      2565      2573      2937
 -1      1288    8    0    1
 -2       575       695       697      2876      2938      2880
 -1      1289    8    0    1
 -2       559       668       689      2797      2939      2858
 -1      1290    8    0    1
 -2       400       448       470      2904      2905      2388
 -1      1291    8    0    1
 -2       596       702       699      2893      2940      2884
 -1      1292    8    0    1
 -2       583       664       695      2786      2941      2875
 -1      1293    8    0    1
 -2       663       536       690      2782      2942      2943
 -1      1294    8    0    1
 -2       472       710       717      2918      2944      2945
 -1      1295    8    0    1
 -2       472       717       599      2945      2946      2559
 -1      1296    8    0    1
 -2       594       666       711      2792      2947      2919
 -1      1297    8    0    1
 -2       578       560       718      2508      2948      2949
 -1      1298    8    0    1
 -2       560       691       718      2864      2950      2948
 -1      1299    8    0    1
 -2       690       586       602      2861      2596      2951
 -1      1300    8    0    1
 -2       709       592       706      2914      2907      2952
 -1      1301    8    0    1
 -2       694       567       609      2871      2874      2953
 -1      1302    8    0    1
 -2       696       591       699      2877      2885      2954
 -1      1303    8    0    1
 -2       573       578       719      2507      2955      2956
 -1      1304    8    0    1
 -2       578       718       719      2949      2957      2955
 -1      1305    8    0    1
 -2       587       698       602      2883      2958      2597
 -1      1306    8    0    1
 -2       577       573       720      2504      2959      2960
 -1      1307    8    0    1
 -2       687       577       720      2855      2960      2961
 -1      1308    8    0    1
 -2       573       719       720      2956      2962      2959
 -1      1309    8    0    1
 -2       593       714       712      2928      2963      2921
 -1      1310    8    0    1
 -2       702       572       703      2892      2895      2964
 -1      1311    8    0    1
 -2       471       581       721      2516      2965      2966
 -1      1312    8    0    1
 -2       710       471       721      2917      2966      2967
 -1      1313    8    0    1
 -2       581       715       721      2931      2968      2965
 -1      1314    8    0    1
 -2       690       536       585      2942      2969      2862
 -1      1315    8    0    1
 -2       698       576       707      2882      2909      2970
 -1      1316    8    0    1
 -2       706       589       712      2906      2922      2971
 -1      1317    8    0    1
 -2       584       585       536      2600      2969      2568
 -1      1318    8    0    1
 -2       582       571       722      2521      2972      2973
 -1      1319    8    0    1
 -2       716       582       722      2934      2973      2974
 -1      1320    8    0    1
 -2       571       701       722      2890      2975      2972
 -1      1321    8    0    1
 -2       607       608       723      2621      2976      2977
 -1      1322    8    0    1
 -2       608       716       723      2933      2978      2976
 -1      1323    8    0    1
 -2       606       607       723      2618      2977      2979
 -1      1324    8    0    1
 -2       611       610       724      2630      2980      2981
 -1      1325    8    0    1
 -2       664       709       725      2916      2982      2983
 -1      1326    8    0    1
 -2       612       611       726      2633      2984      2985
 -1      1327    8    0    1
 -2       611       724       726      2981      2986      2984
 -1      1328    8    0    1
 -2       613       612       727      2636      2987      2988
 -1      1329    8    0    1
 -2       612       726       727      2985      2989      2987
 -1      1330    8    0    1
 -2       614       613       728      2639      2990      2991
 -1      1331    8    0    1
 -2       613       727       728      2988      2992      2990
 -1      1332    8    0    1
 -2       615       614       729      2642      2993      2994
 -1      1333    8    0    1
 -2       614       728       729      2991      2995      2993
 -1      1334    8    0    1
 -2       616       615       730      2645      2996      2997
 -1      1335    8    0    1
 -2       615       729       730      2994      2998      2996
 -1      1336    8    0    1
 -2       617       616       731      2648      2999      3000
 -1      1337    8    0    1
 -2       616       730       731      2997      3001      2999
 -1      1338    8    0    1
 -2       618       617       732      2651      3002      3003
 -1      1339    8    0    1
 -2       617       731       732      3000      3004      3002
 -1      1340    8    0    1
 -2       619       618       733      2654      3005      3006
 -1      1341    8    0    1
 -2       618       732       733      3003      3007      3005
 -1      1342    8    0    1
 -2       620       619       734      2657      3008      3009
 -1      1343    8    0    1
 -2       619       733       734      3006      3010      3008
 -1      1344    8    0    1
 -2       621       620       735      2660      3011      3012
 -1      1345    8    0    1
 -2       620       734       735      3009      3013      3011
 -1      1346    8    0    1
 -2       622       621       736      2663      3014      3015
 -1      1347    8    0    1
 -2       621       735       736      3012      3016      3014
 -1      1348    8    0    1
 -2       623       622       737      2666      3017      3018
 -1      1349    8    0    1
 -2       622       736       737      3015      3019      3017
 -1      1350    8    0    1
 -2       624       623       738      2669      3020      3021
 -1      1351    8    0    1
 -2       623       737       738      3018      3022      3020
 -1      1352    8    0    1
 -2       625       624       739      2672      3023      3024
 -1      1353    8    0    1
 -2       624       738       739      3021      3025      3023
 -1      1354    8    0    1
 -2       626       625       740      2675      3026      3027
 -1      1355    8    0    1
 -2       625       739       740      3024      3028      3026
 -1      1356    8    0    1
 -2       627       626       741      2678      3029      3030
 -1      1357    8    0    1
 -2       626       740       741      3027      3031      3029
 -1      1358    8    0    1
 -2       628       627       742      2681      3032      3033
 -1      1359    8    0    1
 -2       627       741       742      3030      3034      3032
 -1      1360    8    0    1
 -2       629       628       743      2684      3035      3036
 -1      1361    8    0    1
 -2       628       742       743      3033      3037      3035
 -1      1362    8    0    1
 -2       630       629       744      2687      3038      3039
 -1      1363    8    0    1
 -2       629       743       744      3036      3040      3038
 -1      1364    8    0    1
 -2       631       630       745      2690      3041      3042
 -1      1365    8    0    1
 -2       630       744       745      3039      3043      3041
 -1      1366    8    0    1
 -2       632       631       746      2693      3044      3045
 -1      1367    8    0    1
 -2       631       745       746      3042      3046      3044
 -1      1368    8    0    1
 -2       633       632       747      2696      3047      3048
 -1      1369    8    0    1
 -2       632       746       747      3045      3049      3047
 -1      1370    8    0    1
 -2       634       633       748      2699      3050      3051
 -1      1371    8    0    1
 -2       633       747       748      3048      3052      3050
 -1      1372    8    0    1
 -2       635       634       749      2702      3053      3054
 -1      1373    8    0    1
 -2       634       748       749      3051      3055      3053
 -1      1374    8    0    1
 -2       636       635       750      2705      3056      3057
 -1      1375    8    0    1
 -2       635       749       750      3054      3058      3056
 -1      1376    8    0    1
 -2       637       636       751      2708      3059      3060
 -1      1377    8    0    1
 -2       636       750       751      3057      3061      3059
 -1      1378    8    0    1
 -2       638       637       752      2711      3062      3063
 -1      1379    8    0    1
 -2       637       751       752      3060      3064      3062
 -1      1380    8    0    1
 -2       639       638       753      2714      3065      3066
 -1      1381    8    0    1
 -2       638       752       753      3063      3067      3065
 -1      1382    8    0    1
 -2       640       639       754      2717      3068      3069
 -1      1383    8    0    1
 -2       639       753       754      3066      3070      3068
 -1      1384    8    0    1
 -2       641       640       755      2720      3071      3072
 -1      1385    8    0    1
 -2       640       754       755      3069      3073      3071
 -1      1386    8    0    1
 -2       642       641       756      2723      3074      3075
 -1      1387    8    0    1
 -2       641       755       756      3072      3076      3074
 -1      1388    8    0    1
 -2       643       642       757      2726      3077      3078
 -1      1389    8    0    1
 -2       642       756       757      3075      3079      3077
 -1      1390    8    0    1
 -2       644       643       758      2729      3080      3081
 -1      1391    8    0    1
 -2       643       757       758      3078      3082      3080
 -1      1392    8    0    1
 -2       645       644       759      2732      3083      3084
 -1      1393    8    0    1
 -2       644       758       759      3081      3085      3083
 -1      1394    8    0    1
 -2       646       645       760      2735      3086      3087
 -1      1395    8    0    1
 -2       645       759       760      3084      3088      3086
 -1      1396    8    0    1
 -2       647       646       761      2738      3089      3090
 -1      1397    8    0    1
 -2       646       760       761      3087      3091      3089
 -1      1398    8    0    1
 -2       648       647       762      2741      3092      3093
 -1      1399    8    0    1
 -2       647       761       762      3090      3094      3092
 -1      1400    8    0    1
 -2       649       648       763      2744      3095      3096
 -1      1401    8    0    1
 -2       648       762       763      3093      3097      3095
 -1      1402    8    0    1
 -2       650       649       764      2747      3098      3099
 -1      1403    8    0    1
 -2       649       763       764      3096      3100      3098
 -1      1404    8    0    1
 -2       651       650       765      2750      3101      3102
 -1      1405    8    0    1
 -2       650       764       765      3099      3103      3101
 -1      1406    8    0    1
 -2       657       658       766      2769      3104      3105
 -1      1407    8    0    1
 -2       656       657       767      2766      3106      3107
 -1      1408    8    0    1
 -2       657       766       767      3105      3108      3106
 -1      1409    8    0    1
 -2       659       660       768      2775      3109      3110
 -1      1410    8    0    1
 -2       660       661       769      2778      3111      3112
 -1      1411    8    0    1
 -2       660       769       768      3112      3113      3109
 -1      1412    8    0    1
 -2       661       662       770      2781      3114      3115
 -1      1413    8    0    1
 -2       661       770       769      3115      3116      3111
 -1      1414    8    0    1
 -2       699       702       771      2940      3117      3118
 -1      1415    8    0    1
 -2       667       665       772      2795      3119      3120
 -1      1416    8    0    1
 -2       670       671       773      2806      3121      3122
 -1      1417    8    0    1
 -2       588       697       774      2881      3123      3124
 -1      1418    8    0    1
 -2       665       670       775      2803      3125      3126
 -1      1419    8    0    1
 -2       772       665       775      3119      3126      3127
 -1      1420    8    0    1
 -2       670       773       775      3122      3128      3125
 -1      1421    8    0    1
 -2       671       672       776      2809      3129      3130
 -1      1422    8    0    1
 -2       671       776       773      3130      3131      3121
 -1      1423    8    0    1
 -2       672       673       777      2812      3132      3133
 -1      1424    8    0    1
 -2       672       777       776      3133      3134      3129
 -1      1425    8    0    1
 -2       673       674       778      2815      3135      3136
 -1      1426    8    0    1
 -2       673       778       777      3136      3137      3132
 -1      1427    8    0    1
 -2       674       675       779      2818      3138      3139
 -1      1428    8    0    1
 -2       674       779       778      3139      3140      3135
 -1      1429    8    0    1
 -2       675       676       780      2821      3141      3142
 -1      1430    8    0    1
 -2       675       780       779      3142      3143      3138
 -1      1431    8    0    1
 -2       676       677       781      2824      3144      3145
 -1      1432    8    0    1
 -2       676       781       780      3145      3146      3141
 -1      1433    8    0    1
 -2       677       678       782      2827      3147      3148
 -1      1434    8    0    1
 -2       677       782       781      3148      3149      3144
 -1      1435    8    0    1
 -2       678       679       783      2830      3150      3151
 -1      1436    8    0    1
 -2       678       783       782      3151      3152      3147
 -1      1437    8    0    1
 -2       679       680       784      2833      3153      3154
 -1      1438    8    0    1
 -2       679       784       783      3154      3155      3150
 -1      1439    8    0    1
 -2       680       681       785      2836      3156      3157
 -1      1440    8    0    1
 -2       680       785       784      3157      3158      3153
 -1      1441    8    0    1
 -2       681       682       786      2839      3159      3160
 -1      1442    8    0    1
 -2       681       786       785      3160      3161      3156
 -1      1443    8    0    1
 -2       682       683       787      2842      3162      3163
 -1      1444    8    0    1
 -2       682       787       786      3163      3164      3159
 -1      1445    8    0    1
 -2       683       684       788      2845      3165      3166
 -1      1446    8    0    1
 -2       683       788       787      3166      3167      3162
 -1      1447    8    0    1
 -2       684       685       789      2848      3168      3169
 -1      1448    8    0    1
 -2       684       789       788      3169      3170      3165
 -1      1449    8    0    1
 -2       685       686       790      2851      3171      3172
 -1      1450    8    0    1
 -2       685       790       789      3172      3173      3168
 -1      1451    8    0    1
 -2       697       695       791      2938      3174      3175
 -1      1452    8    0    1
 -2       653       689       792      2860      3176      3177
 -1      1453    8    0    1
 -2       690       602       793      2951      3178      3179
 -1      1454    8    0    1
 -2       690       793       663      3179      3180      2943
 -1      1455    8    0    1
 -2       693       694       794      2873      3181      3182
 -1      1456    8    0    1
 -2       692       693       795      2870      3183      3184
 -1      1457    8    0    1
 -2       693       794       795      3182      3185      3183
 -1      1458    8    0    1
 -2       601       599       796      2587      3186      3187
 -1      1459    8    0    1
 -2       713       601       796      2926      3187      3188
 -1      1460    8    0    1
 -2       599       717       796      2946      3189      3186
 -1      1461    8    0    1
 -2       666       696       797      2879      3190      3191
 -1      1462    8    0    1
 -2       712       714       798      2963      3192      3193
 -1      1463    8    0    1
 -2       709       706       799      2952      3194      3195
 -1      1464    8    0    1
 -2       701       655       800      2891      3196      3197
 -1      1465    8    0    1
 -2       561       579       668      2937      3198      2796
 -1      1466    8    0    1
 -2       700       669       801      2888      3199      3200
 -1      1467    8    0    1
 -2       702       703       802      2964      3201      3202
 -1      1468    8    0    1
 -2       702       802       771      3202      3203      3117
 -1      1469    8    0    1
 -2       696       699       803      2954      3204      3205
 -1      1470    8    0    1
 -2       696       803       797      3205      3206      3190
 -1      1471    8    0    1
 -2       669       667       804      2800      3207      3208
 -1      1472    8    0    1
 -2       801       669       804      3199      3208      3209
 -1      1473    8    0    1
 -2       667       772       804      3120      3210      3207
 -1      1474    8    0    1
 -2       698       707       805      2970      3211      3212
 -1      1475    8    0    1
 -2       707       588       774      2908      3124      3213
 -1      1476    8    0    1
 -2       691       688       806      2865      3214      3215
 -1      1477    8    0    1
 -2       695       664       807      2941      3216      3217
 -1      1478    8    0    1
 -2       655       654       808      2761      3218      3219
 -1      1479    8    0    1
 -2       655       808       800      3219      3220      3196
 -1      1480    8    0    1
 -2       706       712       809      2971      3221      3222
 -1      1481    8    0    1
 -2       706       809       799      3222      3223      3194
 -1      1482    8    0    1
 -2       602       698       793      2958      3224      3178
 -1      1483    8    0    1
 -2       703       653       810      2936      3225      3226
 -1      1484    8    0    1
 -2       703       810       802      3226      3227      3201
 -1      1485    8    0    1
 -2       694       609       811      2953      3228      3229
 -1      1486    8    0    1
 -2       794       694       811      3181      3229      3230
 -1      1487    8    0    1
 -2       609       652       811      2753      3231      3228
 -1      1488    8    0    1
 -2       605       604       812      2613      3232      3233
 -1      1489    8    0    1
 -2       714       711       813      2935      3234      3235
 -1      1490    8    0    1
 -2       658       659       814      2772      3236      3237
 -1      1491    8    0    1
 -2       658       814       766      3237      3238      3104
 -1      1492    8    0    1
 -2       711       666       815      2947      3239      3240
 -1      1493    8    0    1
 -2       668       579       700      3198      2887      3241
 -1      1494    8    0    1
 -2       774       697       816      3123      3242      3243
 -1      1495    8    0    1
 -2       668       700       689      3241      3244      2939
 -1      1496    8    0    1
 -2       725       709       799      2982      3195      3245
 -1      1497    8    0    1
 -2       664       725       807      2983      3246      3216
 -1      1498    8    0    1
 -2       659       768       814      3110      3247      3236
 -1      1499    8    0    1
 -2       711       815       813      3240      3248      3234
 -1      1500    8    0    1
 -2       652       651       811      2754      3249      3231
 -1      1501    8    0    1
 -2       708       606       817      2913      3250      3251
 -1      1502    8    0    1
 -2       717       710       818      2944      3252      3253
 -1      1503    8    0    1
 -2       656       767       819      3107      3254      3255
 -1      1504    8    0    1
 -2       656       819       705      3255      3256      2903
 -1      1505    8    0    1
 -2       662       663       793      2784      3180      3257
 -1      1506    8    0    1
 -2       689       700       801      3244      3200      3258
 -1      1507    8    0    1
 -2       666       797       815      3191      3259      3239
 -1      1508    8    0    1
 -2       698       805       820      3212      3260      3261
 -1      1509    8    0    1
 -2       698       820       793      3261      3262      3224
 -1      1510    8    0    1
 -2       584       399       603      2787      2607      2601
 -1      1511    8    0    1
 -2       691       806       821      3215      3263      3264
 -1      1512    8    0    1
 -2       691       821       718      3264      3265      2950
 -1      1513    8    0    1
 -2       651       765       811      3102      3266      3249
 -1      1514    8    0    1
 -2       697       791       816      3175      3267      3242
 -1      1515    8    0    1
 -2       791       695       807      3174      3217      3268
 -1      1516    8    0    1
 -2       686       687       720      2854      2961      3269
 -1      1517    8    0    1
 -2       662       793       770      3257      3270      3114
 -1      1518    8    0    1
 -2       653       792       810      3177      3271      3225
 -1      1519    8    0    1
 -2       812       604       822      3232      3272      3273
 -1      1520    8    0    1
 -2       604       708       822      2912      3274      3272
 -1      1521    8    0    1
 -2       692       795       823      3184      3275      3276
 -1      1522    8    0    1
 -2       692       823       704      3276      3277      2899
 -1      1523    8    0    1
 -2       808       654       824      3218      3278      3279
 -1      1524    8    0    1
 -2       654       705       824      2902      3280      3278
 -1      1525    8    0    1
 -2       719       718       825      2957      3281      3282
 -1      1526    8    0    1
 -2       718       821       825      3265      3283      3281
 -1      1527    8    0    1
 -2       798       714       826      3192      3284      3285
 -1      1528    8    0    1
 -2       714       813       826      3235      3286      3284
 -1      1529    8    0    1
 -2       712       798       809      3193      3287      3221
 -1      1530    8    0    1
 -2       720       719       790      2962      3288      3289
 -1      1531    8    0    1
 -2       719       825       790      3282      3290      3288
 -1      1532    8    0    1
 -2       701       800       827      3197      3291      3292
 -1      1533    8    0    1
 -2       710       721       828      2967      3293      3294
 -1      1534    8    0    1
 -2       710       828       818      3294      3295      3252
 -1      1535    8    0    1
 -2       606       723       817      2979      3296      3250
 -1      1536    8    0    1
 -2       605       812       829      3233      3297      3298
 -1      1537    8    0    1
 -2       605       829       715      3298      3299      2929
 -1      1538    8    0    1
 -2       688       704       830      2898      3300      3301
 -1      1539    8    0    1
 -2       806       688       830      3214      3301      3302
 -1      1540    8    0    1
 -2       704       823       830      3277      3303      3300
 -1      1541    8    0    1
 -2       803       699       771      3204      3118      3304
 -1      1542    8    0    1
 -2       707       774       831      3213      3305      3306
 -1      1543    8    0    1
 -2       805       707       831      3211      3306      3307
 -1      1544    8    0    1
 -2       774       816       831      3243      3308      3305
 -1      1545    8    0    1
 -2       686       720       790      3269      3289      3171
 -1      1546    8    0    1
 -2       610       713       796      2925      3188      3309
 -1      1547    8    0    1
 -2       722       701       827      2975      3292      3310
 -1      1548    8    0    1
 -2       610       796       724      3309      3311      2980
 -1      1549    8    0    1
 -2       723       716       722      2978      2974      3312
 -1      1550    8    0    1
 -2       723       722       827      3312      3310      3313
 -1      1551    8    0    1
 -2       727       726       832      2989      3314      3315
 -1      1552    8    0    1
 -2       728       727       833      2992      3316      3317
 -1      1553    8    0    1
 -2       727       832       833      3315      3318      3316
 -1      1554    8    0    1
 -2       729       728       834      2995      3319      3320
 -1      1555    8    0    1
 -2       728       833       834      3317      3321      3319
 -1      1556    8    0    1
 -2       730       729       835      2998      3322      3323
 -1      1557    8    0    1
 -2       729       834       835      3320      3324      3322
 -1      1558    8    0    1
 -2       731       730       836      3001      3325      3326
 -1      1559    8    0    1
 -2       730       835       836      3323      3327      3325
 -1      1560    8    0    1
 -2       732       731       837      3004      3328      3329
 -1      1561    8    0    1
 -2       731       836       837      3326      3330      3328
 -1      1562    8    0    1
 -2       733       732       838      3007      3331      3332
 -1      1563    8    0    1
 -2       732       837       838      3329      3333      3331
 -1      1564    8    0    1
 -2       734       733       839      3010      3334      3335
 -1      1565    8    0    1
 -2       733       838       839      3332      3336      3334
 -1      1566    8    0    1
 -2       735       734       840      3013      3337      3338
 -1      1567    8    0    1
 -2       734       839       840      3335      3339      3337
 -1      1568    8    0    1
 -2       736       735       841      3016      3340      3341
 -1      1569    8    0    1
 -2       735       840       841      3338      3342      3340
 -1      1570    8    0    1
 -2       737       736       842      3019      3343      3344
 -1      1571    8    0    1
 -2       736       841       842      3341      3345      3343
 -1      1572    8    0    1
 -2       738       737       843      3022      3346      3347
 -1      1573    8    0    1
 -2       737       842       843      3344      3348      3346
 -1      1574    8    0    1
 -2       739       738       844      3025      3349      3350
 -1      1575    8    0    1
 -2       738       843       844      3347      3351      3349
 -1      1576    8    0    1
 -2       740       739       845      3028      3352      3353
 -1      1577    8    0    1
 -2       739       844       845      3350      3354      3352
 -1      1578    8    0    1
 -2       741       740       846      3031      3355      3356
 -1      1579    8    0    1
 -2       740       845       846      3353      3357      3355
 -1      1580    8    0    1
 -2       742       741       847      3034      3358      3359
 -1      1581    8    0    1
 -2       741       846       847      3356      3360      3358
 -1      1582    8    0    1
 -2       743       742       826      3037      3361      3362
 -1      1583    8    0    1
 -2       745       744       848      3043      3363      3364
 -1      1584    8    0    1
 -2       746       745       849      3046      3365      3366
 -1      1585    8    0    1
 -2       745       848       849      3364      3367      3365
 -1      1586    8    0    1
 -2       747       746       850      3049      3368      3369
 -1      1587    8    0    1
 -2       746       849       850      3366      3370      3368
 -1      1588    8    0    1
 -2       748       747       851      3052      3371      3372
 -1      1589    8    0    1
 -2       747       850       851      3369      3373      3371
 -1      1590    8    0    1
 -2       749       748       852      3055      3374      3375
 -1      1591    8    0    1
 -2       748       851       852      3372      3376      3374
 -1      1592    8    0    1
 -2       750       749       853      3058      3377      3378
 -1      1593    8    0    1
 -2       749       852       853      3375      3379      3377
 -1      1594    8    0    1
 -2       751       750       854      3061      3380      3381
 -1      1595    8    0    1
 -2       750       853       854      3378      3382      3380
 -1      1596    8    0    1
 -2       752       751       855      3064      3383      3384
 -1      1597    8    0    1
 -2       751       854       855      3381      3385      3383
 -1      1598    8    0    1
 -2       753       752       856      3067      3386      3387
 -1      1599    8    0    1
 -2       752       855       856      3384      3388      3386
 -1      1600    8    0    1
 -2       754       753       857      3070      3389      3390
 -1      1601    8    0    1
 -2       753       856       857      3387      3391      3389
 -1      1602    8    0    1
 -2       755       754       858      3073      3392      3393
 -1      1603    8    0    1
 -2       754       857       858      3390      3394      3392
 -1      1604    8    0    1
 -2       756       755       859      3076      3395      3396
 -1      1605    8    0    1
 -2       755       858       859      3393      3397      3395
 -1      1606    8    0    1
 -2       757       756       860      3079      3398      3399
 -1      1607    8    0    1
 -2       756       859       860      3396      3400      3398
 -1      1608    8    0    1
 -2       758       757       861      3082      3401      3402
 -1      1609    8    0    1
 -2       757       860       861      3399      3403      3401
 -1      1610    8    0    1
 -2       759       758       862      3085      3404      3405
 -1      1611    8    0    1
 -2       758       861       862      3402      3406      3404
 -1      1612    8    0    1
 -2       760       759       863      3088      3407      3408
 -1      1613    8    0    1
 -2       759       862       863      3405      3409      3407
 -1      1614    8    0    1
 -2       761       760       864      3091      3410      3411
 -1      1615    8    0    1
 -2       760       863       864      3408      3412      3410
 -1      1616    8    0    1
 -2       762       761       865      3094      3413      3414
 -1      1617    8    0    1
 -2       761       864       865      3411      3415      3413
 -1      1618    8    0    1
 -2       763       762       866      3097      3416      3417
 -1      1619    8    0    1
 -2       762       865       866      3414      3418      3416
 -1      1620    8    0    1
 -2       764       763       867      3100      3419      3420
 -1      1621    8    0    1
 -2       763       866       867      3417      3421      3419
 -1      1622    8    0    1
 -2       765       764       868      3103      3422      3423
 -1      1623    8    0    1
 -2       764       867       868      3420      3424      3422
 -1      1624    8    0    1
 -2       817       723       827      3296      3313      3425
 -1      1625    8    0    1
 -2       769       770       869      3116      3426      3427
 -1      1626    8    0    1
 -2       768       769       870      3113      3428      3429
 -1      1627    8    0    1
 -2       769       869       870      3427      3430      3428
 -1      1628    8    0    1
 -2       797       803       871      3206      3431      3432
 -1      1629    8    0    1
 -2       773       776       872      3131      3433      3434
 -1      1630    8    0    1
 -2       811       765       873      3266      3435      3436
 -1      1631    8    0    1
 -2       794       811       873      3230      3436      3437
 -1      1632    8    0    1
 -2       765       868       873      3423      3438      3435
 -1      1633    8    0    1
 -2       792       689       801      3176      3258      3439
 -1      1634    8    0    1
 -2       815       797       874      3259      3440      3441
 -1      1635    8    0    1
 -2       778       779       875      3140      3442      3443
 -1      1636    8    0    1
 -2       779       780       876      3143      3444      3445
 -1      1637    8    0    1
 -2       779       876       875      3445      3446      3442
 -1      1638    8    0    1
 -2       780       781       877      3146      3447      3448
 -1      1639    8    0    1
 -2       780       877       876      3448      3449      3444
 -1      1640    8    0    1
 -2       781       782       878      3149      3450      3451
 -1      1641    8    0    1
 -2       781       878       877      3451      3452      3447
 -1      1642    8    0    1
 -2       782       783       879      3152      3453      3454
 -1      1643    8    0    1
 -2       782       879       878      3454      3455      3450
 -1      1644    8    0    1
 -2       783       784       880      3155      3456      3457
 -1      1645    8    0    1
 -2       783       880       879      3457      3458      3453
 -1      1646    8    0    1
 -2       784       785       881      3158      3459      3460
 -1      1647    8    0    1
 -2       784       881       880      3460      3461      3456
 -1      1648    8    0    1
 -2       785       786       882      3161      3462      3463
 -1      1649    8    0    1
 -2       785       882       881      3463      3464      3459
 -1      1650    8    0    1
 -2       786       787       883      3164      3465      3466
 -1      1651    8    0    1
 -2       786       883       882      3466      3467      3462
 -1      1652    8    0    1
 -2       787       788       884      3167      3468      3469
 -1      1653    8    0    1
 -2       787       884       883      3469      3470      3465
 -1      1654    8    0    1
 -2       788       789       885      3170      3471      3472
 -1      1655    8    0    1
 -2       788       885       884      3472      3473      3468
 -1      1656    8    0    1
 -2       789       790       886      3173      3474      3475
 -1      1657    8    0    1
 -2       885       789       886      3471      3475      3476
 -1      1658    8    0    1
 -2       790       825       886      3290      3477      3474
 -1      1659    8    0    1
 -2       796       717       724      3189      3478      3311
 -1      1660    8    0    1
 -2       725       799       887      3245      3479      3480
 -1      1661    8    0    1
 -2       724       717       818      3478      3253      3481
 -1      1662    8    0    1
 -2       827       800       888      3291      3482      3483
 -1      1663    8    0    1
 -2       807       725       889      3246      3484      3485
 -1      1664    8    0    1
 -2       799       809       890      3223      3486      3487
 -1      1665    8    0    1
 -2       795       794       891      3185      3488      3489
 -1      1666    8    0    1
 -2       794       873       891      3437      3490      3488
 -1      1667    8    0    1
 -2       791       807       892      3268      3491      3492
 -1      1668    8    0    1
 -2       721       715       893      2968      3493      3494
 -1      1669    8    0    1
 -2       721       893       828      3494      3495      3293
 -1      1670    8    0    1
 -2       802       810       894      3227      3496      3497
 -1      1671    8    0    1
 -2       771       802       895      3203      3498      3499
 -1      1672    8    0    1
 -2       776       777       896      3134      3500      3501
 -1      1673    8    0    1
 -2       776       896       872      3501      3502      3433
 -1      1674    8    0    1
 -2       814       768       897      3247      3503      3504
 -1      1675    8    0    1
 -2       768       870       897      3429      3505      3503
 -1      1676    8    0    1
 -2       777       778       898      3137      3506      3507
 -1      1677    8    0    1
 -2       896       777       898      3500      3507      3508
 -1      1678    8    0    1
 -2       778       875       898      3443      3509      3506
 -1      1679    8    0    1
 -2       800       808       899      3220      3510      3511
 -1      1680    8    0    1
 -2       800       899       888      3511      3512      3482
 -1      1681    8    0    1
 -2       767       766       900      3108      3513      3514
 -1      1682    8    0    1
 -2       813       815       901      3248      3515      3516
 -1      1683    8    0    1
 -2       803       771       902      3304      3517      3518
 -1      1684    8    0    1
 -2       708       817       822      3251      3519      3274
 -1      1685    8    0    1
 -2       816       791       903      3267      3520      3521
 -1      1686    8    0    1
 -2       809       798       847      3287      3522      3523
 -1      1687    8    0    1
 -2       726       724       904      2986      3524      3525
 -1      1688    8    0    1
 -2       832       726       904      3314      3525      3526
 -1      1689    8    0    1
 -2       724       818       904      3481      3527      3524
 -1      1690    8    0    1
 -2       766       814       905      3238      3528      3529
 -1      1691    8    0    1
 -2       766       905       900      3529      3530      3513
 -1      1692    8    0    1
 -2       792       801       906      3439      3531      3532
 -1      1693    8    0    1
 -2       810       792       906      3271      3532      3533
 -1      1694    8    0    1
 -2       801       804       906      3209      3534      3531
 -1      1695    8    0    1
 -2       817       827       888      3425      3483      3535
 -1      1696    8    0    1
 -2       905       814       897      3528      3504      3536
 -1      1697    8    0    1
 -2       798       826       847      3285      3537      3522
 -1      1698    8    0    1
 -2       819       767       907      3254      3538      3539
 -1      1699    8    0    1
 -2       767       900       907      3514      3540      3538
 -1      1700    8    0    1
 -2       742       847       826      3359      3537      3361
 -1      1701    8    0    1
 -2       744       743       908      3040      3541      3542
 -1      1702    8    0    1
 -2       715       829       893      3299      3543      3493
 -1      1703    8    0    1
 -2       705       819       824      3256      3544      3280
 -1      1704    8    0    1
 -2       871       803       902      3431      3518      3545
 -1      1705    8    0    1
 -2       773       872       909      3434      3546      3547
 -1      1706    8    0    1
 -2       773       909       775      3547      3548      3128
 -1      1707    8    0    1
 -2       820       805       910      3260      3549      3550
 -1      1708    8    0    1
 -2       791       892       903      3492      3551      3520
 -1      1709    8    0    1
 -2       772       775       911      3127      3552      3553
 -1      1710    8    0    1
 -2       775       909       911      3548      3554      3552
 -1      1711    8    0    1
 -2       874       797       871      3440      3432      3555
 -1      1712    8    0    1
 -2       889       725       887      3484      3480      3556
 -1      1713    8    0    1
 -2       886       825       912      3477      3557      3558
 -1      1714    8    0    1
 -2       825       821       912      3283      3559      3557
 -1      1715    8    0    1
 -2       848       744       908      3363      3542      3560
 -1      1716    8    0    1
 -2       816       903       913      3521      3561      3562
 -1      1717    8    0    1
 -2       815       874       901      3441      3563      3515
 -1      1718    8    0    1
 -2       823       795       914      3275      3564      3565
 -1      1719    8    0    1
 -2       795       891       914      3489      3566      3564
 -1      1720    8    0    1
 -2       887       799       890      3479      3487      3567
 -1      1721    8    0    1
 -2       826       813       901      3286      3516      3568
 -1      1722    8    0    1
 -2       802       894       895      3497      3569      3498
 -1      1723    8    0    1
 -2       807       889       892      3485      3570      3491
 -1      1724    8    0    1
 -2       770       793       820      3270      3262      3571
 -1      1725    8    0    1
 -2       770       820       869      3571      3572      3426
 -1      1726    8    0    1
 -2       818       828       915      3295      3573      3574
 -1      1727    8    0    1
 -2       818       915       904      3574      3575      3527
 -1      1728    8    0    1
 -2       894       810       906      3496      3533      3576
 -1      1729    8    0    1
 -2       829       812       916      3297      3577      3578
 -1      1730    8    0    1
 -2       808       824       917      3279      3579      3580
 -1      1731    8    0    1
 -2       808       917       899      3580      3581      3510
 -1      1732    8    0    1
 -2       771       895       902      3499      3582      3517
 -1      1733    8    0    1
 -2       817       888       918      3535      3583      3584
 -1      1734    8    0    1
 -2       817       918       822      3584      3585      3519
 -1      1735    8    0    1
 -2       831       816       913      3308      3562      3586
 -1      1736    8    0    1
 -2       804       772       919      3210      3587      3588
 -1      1737    8    0    1
 -2       772       911       919      3553      3589      3587
 -1      1738    8    0    1
 -2       812       822       920      3273      3590      3591
 -1      1739    8    0    1
 -2       916       812       920      3577      3591      3592
 -1      1740    8    0    1
 -2       822       918       920      3585      3593      3590
 -1      1741    8    0    1
 -2       805       831       921      3307      3594      3595
 -1      1742    8    0    1
 -2       805       921       910      3595      3596      3549
 -1      1743    8    0    1
 -2       806       830       922      3302      3597      3598
 -1      1744    8    0    1
 -2       821       806       923      3263      3599      3600
 -1      1745    8    0    1
 -2       912       821       923      3559      3600      3601
 -1      1746    8    0    1
 -2       806       922       923      3598      3602      3599
 -1      1747    8    0    1
 -2       833       832       924      3318      3603      3604
 -1      1748    8    0    1
 -2       834       833       925      3321      3605      3606
 -1      1749    8    0    1
 -2       833       924       925      3604      3607      3605
 -1      1750    8    0    1
 -2       835       834       926      3324      3608      3609
 -1      1751    8    0    1
 -2       834       925       926      3606      3610      3608
 -1      1752    8    0    1
 -2       836       835       927      3327      3611      3612
 -1      1753    8    0    1
 -2       835       926       927      3609      3613      3611
 -1      1754    8    0    1
 -2       837       836       928      3330      3614      3615
 -1      1755    8    0    1
 -2       836       927       928      3612      3616      3614
 -1      1756    8    0    1
 -2       838       837       929      3333      3617      3618
 -1      1757    8    0    1
 -2       837       928       929      3615      3619      3617
 -1      1758    8    0    1
 -2       839       838       930      3336      3620      3621
 -1      1759    8    0    1
 -2       838       929       930      3618      3622      3620
 -1      1760    8    0    1
 -2       840       839       931      3339      3623      3624
 -1      1761    8    0    1
 -2       839       930       931      3621      3625      3623
 -1      1762    8    0    1
 -2       841       840       932      3342      3626      3627
 -1      1763    8    0    1
 -2       840       931       932      3624      3628      3626
 -1      1764    8    0    1
 -2       842       841       933      3345      3629      3630
 -1      1765    8    0    1
 -2       841       932       933      3627      3631      3629
 -1      1766    8    0    1
 -2       843       842       934      3348      3632      3633
 -1      1767    8    0    1
 -2       842       933       934      3630      3634      3632
 -1      1768    8    0    1
 -2       846       845       890      3357      3635      3636
 -1      1769    8    0    1
 -2       893       829       935      3543      3637      3638
 -1      1770    8    0    1
 -2       829       916       935      3578      3639      3637
 -1      1771    8    0    1
 -2       850       849       936      3370      3640      3641
 -1      1772    8    0    1
 -2       851       850       937      3373      3642      3643
 -1      1773    8    0    1
 -2       850       936       937      3641      3644      3642
 -1      1774    8    0    1
 -2       852       851       938      3376      3645      3646
 -1      1775    8    0    1
 -2       851       937       938      3643      3647      3645
 -1      1776    8    0    1
 -2       853       852       939      3379      3648      3649
 -1      1777    8    0    1
 -2       852       938       939      3646      3650      3648
 -1      1778    8    0    1
 -2       854       853       940      3382      3651      3652
 -1      1779    8    0    1
 -2       853       939       940      3649      3653      3651
 -1      1780    8    0    1
 -2       855       854       941      3385      3654      3655
 -1      1781    8    0    1
 -2       854       940       941      3652      3656      3654
 -1      1782    8    0    1
 -2       856       855       942      3388      3657      3658
 -1      1783    8    0    1
 -2       855       941       942      3655      3659      3657
 -1      1784    8    0    1
 -2       857       856       943      3391      3660      3661
 -1      1785    8    0    1
 -2       856       942       943      3658      3662      3660
 -1      1786    8    0    1
 -2       858       857       944      3394      3663      3664
 -1      1787    8    0    1
 -2       857       943       944      3661      3665      3663
 -1      1788    8    0    1
 -2       859       858       945      3397      3666      3667
 -1      1789    8    0    1
 -2       858       944       945      3664      3668      3666
 -1      1790    8    0    1
 -2       860       859       946      3400      3669      3670
 -1      1791    8    0    1
 -2       859       945       946      3667      3671      3669
 -1      1792    8    0    1
 -2       861       860       947      3403      3672      3673
 -1      1793    8    0    1
 -2       860       946       947      3670      3674      3672
 -1      1794    8    0    1
 -2       862       861       948      3406      3675      3676
 -1      1795    8    0    1
 -2       861       947       948      3673      3677      3675
 -1      1796    8    0    1
 -2       863       862       949      3409      3678      3679
 -1      1797    8    0    1
 -2       862       948       949      3676      3680      3678
 -1      1798    8    0    1
 -2       864       863       950      3412      3681      3682
 -1      1799    8    0    1
 -2       863       949       950      3679      3683      3681
 -1      1800    8    0    1
 -2       865       864       951      3415      3684      3685
 -1      1801    8    0    1
 -2       864       950       951      3682      3686      3684
 -1      1802    8    0    1
 -2       866       865       952      3418      3687      3688
 -1      1803    8    0    1
 -2       865       951       952      3685      3689      3687
 -1      1804    8    0    1
 -2       867       866       953      3421      3690      3691
 -1      1805    8    0    1
 -2       866       952       953      3688      3692      3690
 -1      1806    8    0    1
 -2       868       867       954      3424      3693      3694
 -1      1807    8    0    1
 -2       867       953       954      3691      3695      3693
 -1      1808    8    0    1
 -2       870       869       955      3430      3696      3697
 -1      1809    8    0    1
 -2       905       897       956      3536      3698      3699
 -1      1810    8    0    1
 -2       903       892       957      3551      3700      3701
 -1      1811    8    0    1
 -2       877       878       958      3452      3702      3703
 -1      1812    8    0    1
 -2       888       899       918      3512      3704      3583
 -1      1813    8    0    1
 -2       875       876       959      3446      3705      3706
 -1      1814    8    0    1
 -2       878       879       960      3455      3707      3708
 -1      1815    8    0    1
 -2       878       960       958      3708      3709      3702
 -1      1816    8    0    1
 -2       879       880       961      3458      3710      3711
 -1      1817    8    0    1
 -2       879       961       960      3711      3712      3707
 -1      1818    8    0    1
 -2       880       881       962      3461      3713      3714
 -1      1819    8    0    1
 -2       880       962       961      3714      3715      3710
 -1      1820    8    0    1
 -2       881       882       963      3464      3716      3717
 -1      1821    8    0    1
 -2       881       963       962      3717      3718      3713
 -1      1822    8    0    1
 -2       882       883       964      3467      3719      3720
 -1      1823    8    0    1
 -2       882       964       963      3720      3721      3716
 -1      1824    8    0    1
 -2       883       884       965      3470      3722      3723
 -1      1825    8    0    1
 -2       883       965       964      3723      3724      3719
 -1      1826    8    0    1
 -2       884       885       966      3473      3725      3726
 -1      1827    8    0    1
 -2       884       966       965      3726      3727      3722
 -1      1828    8    0    1
 -2       885       886       967      3476      3728      3729
 -1      1829    8    0    1
 -2       966       885       967      3725      3729      3730
 -1      1830    8    0    1
 -2       886       912       967      3558      3731      3728
 -1      1831    8    0    1
 -2       890       809       846      3486      3732      3636
 -1      1832    8    0    1
 -2       913       903       968      3561      3733      3734
 -1      1833    8    0    1
 -2       903       957       968      3701      3735      3733
 -1      1834    8    0    1
 -2       871       902       969      3545      3736      3737
 -1      1835    8    0    1
 -2       848       908       901      3560      3738      3739
 -1      1836    8    0    1
 -2       743       826       908      3362      3740      3541
 -1      1837    8    0    1
 -2       846       809       847      3732      3523      3360
 -1      1838    8    0    1
 -2       890       845       887      3635      3741      3567
 -1      1839    8    0    1
 -2       887       845       844      3741      3354      3742
 -1      1840    8    0    1
 -2       901       908       826      3738      3740      3568
 -1      1841    8    0    1
 -2       848       901       874      3739      3563      3743
 -1      1842    8    0    1
 -2       876       877       970      3449      3744      3745
 -1      1843    8    0    1
 -2       959       876       970      3705      3745      3746
 -1      1844    8    0    1
 -2       877       958       970      3703      3747      3744
 -1      1845    8    0    1
 -2       900       905       971      3530      3748      3749
 -1      1846    8    0    1
 -2       905       956       971      3699      3750      3748
 -1      1847    8    0    1
 -2       848       874       849      3743      3751      3367
 -1      1848    8    0    1
 -2       887       844       972      3742      3752      3753
 -1      1849    8    0    1
 -2       889       887       972      3556      3753      3754
 -1      1850    8    0    1
 -2       844       843       972      3351      3755      3752
 -1      1851    8    0    1
 -2       824       819       973      3544      3756      3757
 -1      1852    8    0    1
 -2       917       824       973      3579      3757      3758
 -1      1853    8    0    1
 -2       819       907       973      3539      3759      3756
 -1      1854    8    0    1
 -2       828       893       974      3495      3760      3761
 -1      1855    8    0    1
 -2       915       828       974      3573      3761      3762
 -1      1856    8    0    1
 -2       893       935       974      3638      3763      3760
 -1      1857    8    0    1
 -2       894       906       975      3576      3764      3765
 -1      1858    8    0    1
 -2       830       823       976      3303      3766      3767
 -1      1859    8    0    1
 -2       922       830       976      3597      3767      3768
 -1      1860    8    0    1
 -2       823       914       976      3565      3769      3766
 -1      1861    8    0    1
 -2       892       889       977      3570      3770      3771
 -1      1862    8    0    1
 -2       957       892       977      3700      3771      3772
 -1      1863    8    0    1
 -2       889       972       977      3754      3773      3770
 -1      1864    8    0    1
 -2       872       896       978      3502      3774      3775
 -1      1865    8    0    1
 -2       897       870       979      3505      3776      3777
 -1      1866    8    0    1
 -2       956       897       979      3698      3777      3778
 -1      1867    8    0    1
 -2       870       955       979      3697      3779      3776
 -1      1868    8    0    1
 -2       902       895       980      3582      3780      3781
 -1      1869    8    0    1
 -2       891       873       868      3490      3438      3782
 -1      1870    8    0    1
 -2       895       894       981      3569      3783      3784
 -1      1871    8    0    1
 -2       831       913       921      3586      3785      3594
 -1      1872    8    0    1
 -2       832       904       982      3526      3786      3787
 -1      1873    8    0    1
 -2       924       832       982      3603      3787      3788
 -1      1874    8    0    1
 -2       904       915       982      3575      3789      3786
 -1      1875    8    0    1
 -2       849       874       936      3751      3790      3640
 -1      1876    8    0    1
 -2       891       868       954      3782      3694      3791
 -1      1877    8    0    1
 -2       913       968       983      3734      3792      3793
 -1      1878    8    0    1
 -2       907       900       984      3540      3794      3795
 -1      1879    8    0    1
 -2       900       971       984      3749      3796      3794
 -1      1880    8    0    1
 -2       894       975       981      3765      3797      3783
 -1      1881    8    0    1
 -2       891       954       985      3791      3798      3799
 -1      1882    8    0    1
 -2       891       985       914      3799      3800      3566
 -1      1883    8    0    1
 -2       902       980       969      3781      3801      3736
 -1      1884    8    0    1
 -2       955       869       910      3696      3802      3803
 -1      1885    8    0    1
 -2       936       874       871      3790      3555      3804
 -1      1886    8    0    1
 -2       871       969       937      3737      3805      3806
 -1      1887    8    0    1
 -2       896       898       986      3508      3807      3808
 -1      1888    8    0    1
 -2       896       986       978      3808      3809      3774
 -1      1889    8    0    1
 -2       909       872       987      3546      3810      3811
 -1      1890    8    0    1
 -2       872       978       987      3775      3812      3810
 -1      1891    8    0    1
 -2       843       934       972      3633      3813      3755
 -1      1892    8    0    1
 -2       911       909       988      3554      3814      3815
 -1      1893    8    0    1
 -2       909       987       988      3811      3816      3814
 -1      1894    8    0    1
 -2       918       899       989      3704      3817      3818
 -1      1895    8    0    1
 -2       955       910       983      3803      3819      3820
 -1      1896    8    0    1
 -2       980       895       981      3780      3784      3821
 -1      1897    8    0    1
 -2       922       976       990      3768      3822      3823
 -1      1898    8    0    1
 -2       899       917       989      3581      3824      3817
 -1      1899    8    0    1
 -2       875       959       991      3706      3825      3826
 -1      1900    8    0    1
 -2       875       991       898      3826      3827      3509
 -1      1901    8    0    1
 -2       935       916       992      3639      3828      3829
 -1      1902    8    0    1
 -2       922       990       993      3823      3830      3831
 -1      1903    8    0    1
 -2       922       993       923      3831      3832      3602
 -1      1904    8    0    1
 -2       871       937       936      3806      3644      3804
 -1      1905    8    0    1
 -2       820       910       869      3550      3802      3572
 -1      1906    8    0    1
 -2       916       920       994      3592      3833      3834
 -1      1907    8    0    1
 -2       916       994       992      3834      3835      3828
 -1      1908    8    0    1
 -2       906       804       919      3534      3588      3836
 -1      1909    8    0    1
 -2       926       925       995      3610      3837      3838
 -1      1910    8    0    1
 -2       927       926       996      3613      3839      3840
 -1      1911    8    0    1
 -2       926       995       996      3838      3841      3839
 -1      1912    8    0    1
 -2       928       927       997      3616      3842      3843
 -1      1913    8    0    1
 -2       927       996       997      3840      3844      3842
 -1      1914    8    0    1
 -2       929       928       998      3619      3845      3846
 -1      1915    8    0    1
 -2       928       997       998      3843      3847      3845
 -1      1916    8    0    1
 -2       930       929       999      3622      3848      3849
 -1      1917    8    0    1
 -2       929       998       999      3846      3850      3848
 -1      1918    8    0    1
 -2       931       930      1000      3625      3851      3852
 -1      1919    8    0    1
 -2       930       999      1000      3849      3853      3851
 -1      1920    8    0    1
 -2       932       931      1001      3628      3854      3855
 -1      1921    8    0    1
 -2       931      1000      1001      3852      3856      3854
 -1      1922    8    0    1
 -2       933       932      1002      3631      3857      3858
 -1      1923    8    0    1
 -2       932      1001      1002      3855      3859      3857
 -1      1924    8    0    1
 -2       938       937       969      3647      3805      3860
 -1      1925    8    0    1
 -2       940       939      1003      3653      3861      3862
 -1      1926    8    0    1
 -2       941       940      1004      3656      3863      3864
 -1      1927    8    0    1
 -2       940      1003      1004      3862      3865      3863
 -1      1928    8    0    1
 -2       942       941      1005      3659      3866      3867
 -1      1929    8    0    1
 -2       941      1004      1005      3864      3868      3866
 -1      1930    8    0    1
 -2       943       942      1006      3662      3869      3870
 -1      1931    8    0    1
 -2       942      1005      1006      3867      3871      3869
 -1      1932    8    0    1
 -2       944       943      1007      3665      3872      3873
 -1      1933    8    0    1
 -2       943      1006      1007      3870      3874      3872
 -1      1934    8    0    1
 -2       945       944      1008      3668      3875      3876
 -1      1935    8    0    1
 -2       944      1007      1008      3873      3877      3875
 -1      1936    8    0    1
 -2       946       945      1009      3671      3878      3879
 -1      1937    8    0    1
 -2       945      1008      1009      3876      3880      3878
 -1      1938    8    0    1
 -2       947       946      1010      3674      3881      3882
 -1      1939    8    0    1
 -2       946      1009      1010      3879      3883      3881
 -1      1940    8    0    1
 -2       948       947      1011      3677      3884      3885
 -1      1941    8    0    1
 -2       947      1010      1011      3882      3886      3884
 -1      1942    8    0    1
 -2       949       948      1012      3680      3887      3888
 -1      1943    8    0    1
 -2       948      1011      1012      3885      3889      3887
 -1      1944    8    0    1
 -2       950       949      1013      3683      3890      3891
 -1      1945    8    0    1
 -2       949      1012      1013      3888      3892      3890
 -1      1946    8    0    1
 -2       951       950      1014      3686      3893      3894
 -1      1947    8    0    1
 -2       950      1013      1014      3891      3895      3893
 -1      1948    8    0    1
 -2       952       951      1015      3689      3896      3897
 -1      1949    8    0    1
 -2       951      1014      1015      3894      3898      3896
 -1      1950    8    0    1
 -2       953       952      1016      3692      3899      3900
 -1      1951    8    0    1
 -2       952      1015      1016      3897      3901      3899
 -1      1952    8    0    1
 -2       954       953      1017      3695      3902      3903
 -1      1953    8    0    1
 -2       985       954      1017      3798      3903      3904
 -1      1954    8    0    1
 -2       953      1016      1017      3900      3905      3902
 -1      1955    8    0    1
 -2       981       975      1018      3797      3906      3907
 -1      1956    8    0    1
 -2       955       983      1019      3820      3908      3909
 -1      1957    8    0    1
 -2       955      1019       979      3909      3910      3779
 -1      1958    8    0    1
 -2       971       956      1020      3750      3911      3912
 -1      1959    8    0    1
 -2       958       960      1021      3709      3913      3914
 -1      1960    8    0    1
 -2       962       963      1022      3718      3915      3916
 -1      1961    8    0    1
 -2       963       964      1023      3721      3917      3918
 -1      1962    8    0    1
 -2       963      1023      1022      3918      3919      3915
 -1      1963    8    0    1
 -2       964       965      1024      3724      3920      3921
 -1      1964    8    0    1
 -2       964      1024      1023      3921      3922      3917
 -1      1965    8    0    1
 -2       965       966      1025      3727      3923      3924
 -1      1966    8    0    1
 -2       965      1025      1024      3924      3925      3920
 -1      1967    8    0    1
 -2       968       957      1026      3735      3926      3927
 -1      1968    8    0    1
 -2       980       981      1027      3821      3928      3929
 -1      1969    8    0    1
 -2       969       980      1028      3801      3930      3931
 -1      1970    8    0    1
 -2       961       962      1029      3715      3932      3933
 -1      1971    8    0    1
 -2       962      1022      1029      3916      3934      3932
 -1      1972    8    0    1
 -2       960       961      1030      3712      3935      3936
 -1      1973    8    0    1
 -2      1021       960      1030      3913      3936      3937
 -1      1974    8    0    1
 -2       961      1029      1030      3933      3938      3935
 -1      1975    8    0    1
 -2       911       988      1031      3815      3939      3940
 -1      1976    8    0    1
 -2       975       906       919      3764      3836      3941
 -1      1977    8    0    1
 -2       976       914      1032      3769      3942      3943
 -1      1978    8    0    1
 -2       990       976      1032      3822      3943      3944
 -1      1979    8    0    1
 -2       914       985      1032      3800      3945      3942
 -1      1980    8    0    1
 -2       989       917      1033      3824      3946      3947
 -1      1981    8    0    1
 -2       919       911      1031      3589      3940      3948
 -1      1982    8    0    1
 -2       920       918       994      3593      3949      3833
 -1      1983    8    0    1
 -2       935       992      1034      3829      3950      3951
 -1      1984    8    0    1
 -2       935      1034       974      3951      3952      3763
 -1      1985    8    0    1
 -2       983       968      1035      3792      3953      3954
 -1      1986    8    0    1
 -2       983      1035      1019      3954      3955      3908
 -1      1987    8    0    1
 -2       913       983       921      3793      3956      3785
 -1      1988    8    0    1
 -2       912       923      1036      3601      3957      3958
 -1      1989    8    0    1
 -2       967       912      1036      3731      3958      3959
 -1      1990    8    0    1
 -2       923       993      1036      3832      3960      3957
 -1      1991    8    0    1
 -2       925       924      1037      3607      3961      3962
 -1      1992    8    0    1
 -2       925      1037       995      3962      3963      3837
 -1      1993    8    0    1
 -2       972       934       977      3813      3964      3773
 -1      1994    8    0    1
 -2       938       969      1028      3860      3931      3965
 -1      1995    8    0    1
 -2       907       984      1038      3795      3966      3967
 -1      1996    8    0    1
 -2       907      1038       973      3967      3968      3759
 -1      1997    8    0    1
 -2       993       990      1039      3830      3969      3970
 -1      1998    8    0    1
 -2       934       933      1040      3634      3971      3972
 -1      1999    8    0    1
 -2       917       973      1033      3758      3973      3946
 -1      2000    8    0    1
 -2       986       898       991      3807      3827      3974
 -1      2001    8    0    1
 -2       939       938      1028      3650      3965      3975
 -1      2002    8    0    1
 -2       981      1018      1027      3907      3976      3928
 -1      2003    8    0    1
 -2       984       971      1041      3796      3977      3978
 -1      2004    8    0    1
 -2       971      1020      1041      3912      3979      3977
 -1      2005    8    0    1
 -2       978       986      1042      3809      3980      3981
 -1      2006    8    0    1
 -2       987       978      1043      3812      3982      3983
 -1      2007    8    0    1
 -2       978      1042      1043      3981      3984      3982
 -1      2008    8    0    1
 -2       988       987      1044      3816      3985      3986
 -1      2009    8    0    1
 -2       987      1043      1044      3983      3987      3985
 -1      2010    8    0    1
 -2       939      1028      1003      3975      3988      3861
 -1      2011    8    0    1
 -2       958      1021      1045      3914      3989      3990
 -1      2012    8    0    1
 -2       958      1045       970      3990      3991      3747
 -1      2013    8    0    1
 -2       968      1026      1035      3927      3992      3953
 -1      2014    8    0    1
 -2      1026       957      1002      3926      3993      3994
 -1      2015    8    0    1
 -2       966       967      1036      3730      3959      3995
 -1      2016    8    0    1
 -2      1037       924      1034      3961      3996      3997
 -1      2017    8    0    1
 -2       980      1027      1046      3929      3998      3999
 -1      2018    8    0    1
 -2       980      1046      1028      3999      4000      3930
 -1      2019    8    0    1
 -2       959       970      1047      3746      4001      4002
 -1      2020    8    0    1
 -2       970      1045      1047      3991      4003      4001
 -1      2021    8    0    1
 -2       994       918       989      3949      3818      4004
 -1      2022    8    0    1
 -2       975       919      1031      3941      3948      4005
 -1      2023    8    0    1
 -2       991       959      1048      3825      4006      4007
 -1      2024    8    0    1
 -2       959      1047      1048      4002      4008      4006
 -1      2025    8    0    1
 -2       990      1032      1049      3944      4009      4010
 -1      2026    8    0    1
 -2       990      1049      1039      4010      4011      3969
 -1      2027    8    0    1
 -2       915       974       982      3762      4012      3789
 -1      2028    8    0    1
 -2       956       979      1050      3778      4013      4014
 -1      2029    8    0    1
 -2      1020       956      1050      3911      4014      4015
 -1      2030    8    0    1
 -2       979      1019      1050      3910      4016      4013
 -1      2031    8    0    1
 -2      1034       992      1051      3950      4017      4018
 -1      2032    8    0    1
 -2      1034      1051      1037      4018      4019      3997
 -1      2033    8    0    1
 -2       989      1033      1052      3947      4020      4021
 -1      2034    8    0    1
 -2       989      1052       994      4021      4022      4004
 -1      2035    8    0    1
 -2      1031       988      1053      3939      4023      4024
 -1      2036    8    0    1
 -2       992       994      1054      3835      4025      4026
 -1      2037    8    0    1
 -2      1051       992      1054      4017      4026      4027
 -1      2038    8    0    1
 -2       994      1052      1054      4022      4028      4025
 -1      2039    8    0    1
 -2      1040       933      1002      3971      3858      4029
 -1      2040    8    0    1
 -2       966      1036      1025      3995      4030      3923
 -1      2041    8    0    1
 -2      1053       988      1044      4023      3986      4031
 -1      2042    8    0    1
 -2       934      1040       977      3972      4032      3964
 -1      2043    8    0    1
 -2      1025      1036       993      4030      3960      4033
 -1      2044    8    0    1
 -2       997       996      1055      3844      4034      4035
 -1      2045    8    0    1
 -2       998       997      1056      3847      4036      4037
 -1      2046    8    0    1
 -2       997      1055      1056      4035      4038      4036
 -1      2047    8    0    1
 -2       999       998      1057      3850      4039      4040
 -1      2048    8    0    1
 -2       998      1056      1057      4037      4041      4039
 -1      2049    8    0    1
 -2      1000       999      1058      3853      4042      4043
 -1      2050    8    0    1
 -2       999      1057      1058      4040      4044      4042
 -1      2051    8    0    1
 -2      1001      1000      1059      3856      4045      4046
 -1      2052    8    0    1
 -2      1000      1058      1059      4043      4047      4045
 -1      2053    8    0    1
 -2      1002      1001      1026      3859      4048      3994
 -1      2054    8    0    1
 -2      1004      1003      1060      3865      4049      4050
 -1      2055    8    0    1
 -2      1033       973      1038      3973      3968      4051
 -1      2056    8    0    1
 -2      1005      1004      1061      3868      4052      4053
 -1      2057    8    0    1
 -2      1004      1060      1061      4050      4054      4052
 -1      2058    8    0    1
 -2      1006      1005      1062      3871      4055      4056
 -1      2059    8    0    1
 -2      1005      1061      1062      4053      4057      4055
 -1      2060    8    0    1
 -2      1007      1006      1063      3874      4058      4059
 -1      2061    8    0    1
 -2      1006      1062      1063      4056      4060      4058
 -1      2062    8    0    1
 -2      1008      1007      1064      3877      4061      4062
 -1      2063    8    0    1
 -2      1007      1063      1064      4059      4063      4061
 -1      2064    8    0    1
 -2      1009      1008      1065      3880      4064      4065
 -1      2065    8    0    1
 -2      1008      1064      1065      4062      4066      4064
 -1      2066    8    0    1
 -2      1010      1009      1066      3883      4067      4068
 -1      2067    8    0    1
 -2      1009      1065      1066      4065      4069      4067
 -1      2068    8    0    1
 -2      1011      1010      1067      3886      4070      4071
 -1      2069    8    0    1
 -2      1010      1066      1067      4068      4072      4070
 -1      2070    8    0    1
 -2      1012      1011      1068      3889      4073      4074
 -1      2071    8    0    1
 -2      1011      1067      1068      4071      4075      4073
 -1      2072    8    0    1
 -2      1013      1012      1069      3892      4076      4077
 -1      2073    8    0    1
 -2      1012      1068      1069      4074      4078      4076
 -1      2074    8    0    1
 -2      1014      1013      1070      3895      4079      4080
 -1      2075    8    0    1
 -2      1013      1069      1070      4077      4081      4079
 -1      2076    8    0    1
 -2      1015      1014      1071      3898      4082      4083
 -1      2077    8    0    1
 -2      1014      1070      1071      4080      4084      4082
 -1      2078    8    0    1
 -2      1016      1015      1072      3901      4085      4086
 -1      2079    8    0    1
 -2      1015      1071      1072      4083      4087      4085
 -1      2080    8    0    1
 -2      1023      1024      1073      3922      4088      4089
 -1      2081    8    0    1
 -2      1037      1051       995      4019      4090      3963
 -1      2082    8    0    1
 -2      1022      1023      1074      3919      4091      4092
 -1      2083    8    0    1
 -2      1023      1073      1074      4089      4093      4091
 -1      2084    8    0    1
 -2      1053      1044      1075      4031      4094      4095
 -1      2085    8    0    1
 -2      1034       924       974      3996      4096      3952
 -1      2086    8    0    1
 -2      1035      1026      1059      3992      4097      4098
 -1      2087    8    0    1
 -2       975      1031      1018      4005      4099      3906
 -1      2088    8    0    1
 -2       986       991      1076      3974      4100      4101
 -1      2089    8    0    1
 -2      1042       986      1076      3980      4101      4102
 -1      2090    8    0    1
 -2       991      1048      1076      4007      4103      4100
 -1      2091    8    0    1
 -2      1032       985      1077      3945      4104      4105
 -1      2092    8    0    1
 -2      1049      1032      1077      4009      4105      4106
 -1      2093    8    0    1
 -2       985      1017      1077      3904      4107      4104
 -1      2094    8    0    1
 -2      1019      1035      1078      3955      4108      4109
 -1      2095    8    0    1
 -2      1050      1019      1078      4016      4109      4110
 -1      2096    8    0    1
 -2      1035      1059      1078      4098      4111      4108
 -1      2097    8    0    1
 -2      1029      1022      1079      3934      4112      4113
 -1      2098    8    0    1
 -2      1022      1074      1079      4092      4114      4112
 -1      2099    8    0    1
 -2       993      1039      1025      3970      4115      4033
 -1      2100    8    0    1
 -2       996       995      1080      3841      4116      4117
 -1      2101    8    0    1
 -2       996      1080      1055      4117      4118      4034
 -1      2102    8    0    1
 -2      1026      1001      1059      4048      4046      4097
 -1      2103    8    0    1
 -2       995      1051      1080      4090      4119      4116
 -1      2104    8    0    1
 -2      1025      1039      1024      4115      4120      3925
 -1      2105    8    0    1
 -2      1024      1039      1073      4120      4121      4088
 -1      2106    8    0    1
 -2      1060      1003      1046      4049      4122      4123
 -1      2107    8    0    1
 -2      1033      1038      1081      4051      4124      4125
 -1      2108    8    0    1
 -2      1033      1081      1052      4125      4126      4020
 -1      2109    8    0    1
 -2      1042      1076      1082      4102      4127      4128
 -1      2110    8    0    1
 -2      1038       984      1083      3966      4129      4130
 -1      2111    8    0    1
 -2      1081      1038      1083      4124      4130      4131
 -1      2112    8    0    1
 -2       984      1041      1083      3978      4132      4129
 -1      2113    8    0    1
 -2      1029      1079      1084      4113      4133      4134
 -1      2114    8    0    1
 -2      1029      1084      1030      4134      4135      3938
 -1      2115    8    0    1
 -2      1043      1042      1085      3984      4136      4137
 -1      2116    8    0    1
 -2      1042      1082      1085      4128      4138      4136
 -1      2117    8    0    1
 -2      1041      1020      1086      3979      4139      4140
 -1      2118    8    0    1
 -2      1017      1016      1087      3905      4141      4142
 -1      2119    8    0    1
 -2      1077      1017      1087      4107      4142      4143
 -1      2120    8    0    1
 -2      1016      1072      1087      4086      4144      4141
 -1      2121    8    0    1
 -2      1003      1028      1046      3988      4000      4122
 -1      2122    8    0    1
 -2      1044      1043      1088      3987      4145      4146
 -1      2123    8    0    1
 -2      1075      1044      1088      4094      4146      4147
 -1      2124    8    0    1
 -2      1043      1085      1088      4137      4148      4145
 -1      2125    8    0    1
 -2       983       910       921      3819      3596      3956
 -1      2126    8    0    1
 -2      1045      1021      1089      3989      4149      4150
 -1      2127    8    0    1
 -2      1046      1027      1075      3998      4151      4152
 -1      2128    8    0    1
 -2      1021      1030      1090      3937      4153      4154
 -1      2129    8    0    1
 -2      1089      1021      1090      4149      4154      4155
 -1      2130    8    0    1
 -2      1030      1084      1090      4135      4156      4153
 -1      2131    8    0    1
 -2      1002       957      1040      3993      4157      4029
 -1      2132    8    0    1
 -2      1080      1051      1054      4119      4027      4158
 -1      2133    8    0    1
 -2      1047      1045      1091      4003      4159      4160
 -1      2134    8    0    1
 -2      1045      1089      1091      4150      4161      4159
 -1      2135    8    0    1
 -2      1048      1047      1092      4008      4162      4163
 -1      2136    8    0    1
 -2      1047      1091      1092      4160      4164      4162
 -1      2137    8    0    1
 -2      1073      1039      1072      4121      4165      4166
 -1      2138    8    0    1
 -2       957       977      1040      3772      4032      4157
 -1      2139    8    0    1
 -2      1020      1050      1093      4015      4167      4168
 -1      2140    8    0    1
 -2      1086      1020      1093      4139      4168      4169
 -1      2141    8    0    1
 -2      1050      1078      1093      4110      4170      4167
 -1      2142    8    0    1
 -2      1056      1055      1094      4038      4171      4172
 -1      2143    8    0    1
 -2      1057      1056      1086      4041      4173      4174
 -1      2144    8    0    1
 -2      1058      1057      1093      4044      4175      4176
 -1      2145    8    0    1
 -2      1059      1058      1078      4047      4177      4111
 -1      2146    8    0    1
 -2      1061      1060      1088      4054      4178      4179
 -1      2147    8    0    1
 -2      1031      1053      1018      4024      4180      4099
 -1      2148    8    0    1
 -2      1062      1061      1088      4057      4179      4181
 -1      2149    8    0    1
 -2      1063      1062      1085      4060      4182      4183
 -1      2150    8    0    1
 -2      1064      1063      1082      4063      4184      4185
 -1      2151    8    0    1
 -2      1065      1064      1092      4066      4186      4187
 -1      2152    8    0    1
 -2      1066      1065      1092      4069      4187      4188
 -1      2153    8    0    1
 -2      1067      1066      1091      4072      4189      4190
 -1      2154    8    0    1
 -2      1068      1067      1089      4075      4191      4192
 -1      2155    8    0    1
 -2      1069      1068      1090      4078      4193      4194
 -1      2156    8    0    1
 -2      1070      1069      1084      4081      4195      4196
 -1      2157    8    0    1
 -2      1071      1070      1079      4084      4197      4198
 -1      2158    8    0    1
 -2      1072      1071      1074      4087      4199      4200
 -1      2159    8    0    1
 -2      1060      1046      1075      4123      4152      4201
 -1      2160    8    0    1
 -2      1074      1071      1079      4199      4198      4114
 -1      2161    8    0    1
 -2      1075      1027      1053      4151      4202      4095
 -1      2162    8    0    1
 -2      1074      1073      1072      4093      4166      4200
 -1      2163    8    0    1
 -2      1079      1070      1084      4197      4196      4133
 -1      2164    8    0    1
 -2      1089      1067      1091      4191      4190      4161
 -1      2165    8    0    1
 -2      1076      1048      1095      4103      4203      4204
 -1      2166    8    0    1
 -2      1082      1076      1095      4127      4204      4205
 -1      2167    8    0    1
 -2      1048      1092      1095      4163      4206      4203
 -1      2168    8    0    1
 -2      1053      1027      1018      4202      3976      4180
 -1      2169    8    0    1
 -2      1057      1086      1093      4174      4169      4175
 -1      2170    8    0    1
 -2      1082      1063      1085      4184      4183      4138
 -1      2171    8    0    1
 -2      1091      1066      1092      4189      4188      4164
 -1      2172    8    0    1
 -2      1068      1089      1090      4192      4155      4193
 -1      2173    8    0    1
 -2      1060      1075      1088      4201      4147      4178
 -1      2174    8    0    1
 -2      1054      1052      1096      4028      4207      4208
 -1      2175    8    0    1
 -2      1052      1081      1096      4126      4209      4207
 -1      2176    8    0    1
 -2      1041      1086      1094      4140      4210      4211
 -1      2177    8    0    1
 -2      1080      1054      1096      4158      4208      4212
 -1      2178    8    0    1
 -2      1086      1056      1094      4173      4172      4210
 -1      2179    8    0    1
 -2      1055      1080      1096      4118      4212      4213
 -1      2180    8    0    1
 -2      1058      1093      1078      4176      4170      4177
 -1      2181    8    0    1
 -2      1041      1094      1083      4211      4214      4132
 -1      2182    8    0    1
 -2      1094      1055      1096      4171      4213      4215
 -1      2183    8    0    1
 -2      1085      1062      1088      4182      4181      4148
 -1      2184    8    0    1
 -2      1064      1082      1095      4185      4205      4216
 -1      2185    8    0    1
 -2      1069      1090      1084      4194      4156      4195
 -1      2186    8    0    1
 -2       974       924       982      4096      3788      4012
 -1      2187    8    0    1
 -2      1064      1095      1092      4216      4206      4186
 -1      2188    8    0    1
 -2      1049      1077      1087      4106      4143      4217
 -1      2189    8    0    1
 -2      1083      1094      1081      4214      4218      4131
 -1      2190    8    0    1
 -2      1081      1094      1096      4218      4215      4209
 -1      2191    8    0    1
 -2      1072      1039      1049      4165      4011      4219
 -1      2192    8    0    1
 -2      1072      1049      1087      4219      4217      4144
 -3
    1PSTEP                         1           1           1          
  100CL  101 1.000000000        4219                     0    1           1
 -4  DISP        4    1
 -5  D1          1    2    1    0
 -5  D2          1    2    2    0
 -5  D3          1    2    3    0
 -5  ALL         1    2    0    0    1ALL
 -1         1 4.45846E-03 7.06624E-04-1.23035E-14
 -1         2 9.20839E-03 9.40743E-04-2.00850E-14
 -1         3 1.65699E-02 5.12971E-03-9.15045E-14
 -1         4 1.40011E-02 3.69954E-03-1.05905E-13
 -1         5 0.00000E+00 0.00000E+00 0.00000E+00
 -1         6 0.00000E+00 0.00000E+00 0.00000E+00
 -1         7 0.00000E+00 0.00000E+00 0.00000E+00
 -1         8 0.00000E+00 0.00000E+00 0.00000E+00
 -1         9 0.00000E+00 0.00000E+00 0.00000E+00
 -1        10 0.00000E+00 0.00000E+00 0.00000E+00
 -1        11 0.00000E+00 0.00000E+00 0.00000E+00
 -1        12 0.00000E+00 0.00000E+00 0.00000E+00
 -1        13 0.00000E+00 0.00000E+00 0.00000E+00
 -1        14 0.00000E+00 0.00000E+00 0.00000E+00
 -1        15 0.00000E+00 0.00000E+00 0.00000E+00
 -1        16 0.00000E+00 0.00000E+00 0.00000E+00
 -1        17 0.00000E+00 0.00000E+00 0.00000E+00
 -1        18 0.00000E+00 0.00000E+00 0.00000E+00
 -1        19 0.00000E+00 0.00000E+00 0.00000E+00
 -1        20 0.00000E+00 0.00000E+00 0.00000E+00
 -1        21 0.00000E+00 0.00000E+00 0.00000E+00
 -1        22 0.00000E+00 0.00000E+00 0.00000E+00
 -1        23 4.10097E-04-2.58789E-04-2.60209E-18
 -1        24 7.01861E-04-3.96749E-04-1.18327E-16
 -1        25 9.72428E-04-4.91590E-04-3.40511E-16
 -1        26 1.23808E-03-5.57633E-04-6.63325E-16
 -1        27 1.50354E-03-6.04085E-04-1.08409E-15
 -1        28 1.77107E-03-6.36444E-04-1.59896E-15
 -1        29 2.04182E-03-6.58620E-04-2.20731E-15
 -1        30 2.31638E-03-6.73624E-04-2.90481E-15
 -1        31 2.59494E-03-6.83922E-04-3.69263E-15
 -1        32 2.87740E-03-6.91622E-04-4.56902E-15
 -1        33 3.16333E-03-6.98552E-04-5.53311E-15
 -1        34 3.45191E-03-7.06258E-04-6.57860E-15
 -1        35 3.74184E-03-7.15894E-04-7.70884E-15
 -1        36 4.03124E-03-7.28002E-04-8.92135E-15
 -1        37 4.31772E-03-7.42185E-04-1.02194E-14
 -1        38 4.59847E-03-7.56743E-04-1.16090E-14
 -1        39 4.87076E-03-7.68376E-04-1.30848E-14
 -1        40 5.13250E-03-7.72169E-04-1.46432E-14
 -1        41 5.38303E-03-7.62036E-04-1.62847E-14
 -1        42 5.62369E-03-7.31721E-04-1.80097E-14
 -1        43 5.85793E-03-6.76168E-04-1.98233E-14
 -1        44 6.09072E-03-5.92839E-04-2.17283E-14
 -1        45 6.32742E-03-4.82427E-04-2.37312E-14
 -1        46 6.57252E-03-3.48662E-04-2.58426E-14
 -1        47 6.82864E-03-1.97288E-04-2.80508E-14
 -1        48 7.09635E-03-3.46672E-05-3.03554E-14
 -1        49 7.37443E-03 1.33459E-04-3.27433E-14
 -1        50 7.66059E-03 3.02721E-04-3.52212E-14
 -1        51 7.95221E-03 4.70333E-04-3.77936E-14
 -1        52 8.24688E-03 6.34910E-04-4.04667E-14
 -1        53 8.54265E-03 7.96097E-04-4.32297E-14
 -1        54 8.83820E-03 9.54179E-04-4.60813E-14
 -1        55 9.13271E-03 1.10975E-03-4.90225E-14
 -1        56 9.42580E-03 1.26349E-03-5.20360E-14
 -1        57 9.71739E-03 1.41604E-03-5.51179E-14
 -1        58 1.00076E-02 1.56791E-03-5.82496E-14
 -1        59 1.02965E-02 1.71950E-03-6.14171E-14
 -1        60 1.05844E-02 1.87109E-03-6.46107E-14
 -1        61 1.08716E-02 2.02284E-03-6.78455E-14
 -1        62 1.11582E-02 2.17485E-03-7.11230E-14
 -1        63 1.14443E-02 2.32717E-03-7.44511E-14
 -1        64 1.17302E-02 2.47978E-03-7.78254E-14
 -1        65 1.20159E-02 2.63268E-03-8.12545E-14
 -1        66 1.23015E-02 2.78581E-03-8.47384E-14
 -1        67 1.25871E-02 2.93915E-03-8.82565E-14
 -1        68 1.28727E-02 3.09264E-03-9.17989E-14
 -1        69 1.31583E-02 3.24623E-03-9.53563E-14
 -1        70 1.34440E-02 3.39989E-03-9.89198E-14
 -1        71 1.37297E-02 3.55356E-03-1.02491E-13
 -1        72 3.93884E-04 2.50238E-04 6.95177E-17
 -1        73 6.87575E-04 3.90761E-04 9.40240E-17
 -1        74 9.58421E-04 4.86823E-04 6.16674E-17
 -1        75 1.22401E-03 5.53225E-04-3.28073E-17
 -1        76 1.48935E-03 5.99236E-04-1.91867E-16
 -1        77 1.74351E-03 6.29022E-04-4.05031E-16
 -1        78 2.01470E-03 6.49275E-04-7.00781E-16
 -1        79 2.29083E-03 6.60861E-04-1.07069E-15
 -1        80 2.57310E-03 6.65985E-04-1.51267E-15
 -1        81 2.86307E-03 6.66596E-04-2.02897E-15
 -1        82 3.14768E-03 6.64875E-04-2.58660E-15
 -1        83 3.45994E-03 6.63126E-04-3.24641E-15
 -1        84 3.78978E-03 6.65326E-04-3.97967E-15
 -1        85 4.14356E-03 6.78004E-04-4.79021E-15
 -1        86 4.52932E-03 7.12263E-04-5.67122E-15
 -1        87 4.95501E-03 7.86262E-04-6.61938E-15
 -1        88 5.39899E-03 9.17495E-04-7.58357E-15
 -1        89 5.89548E-03 1.14817E-03-8.66017E-15
 -1        90 6.38108E-03 1.48389E-03-9.81036E-15
 -1        91 6.79117E-03 1.87248E-03-1.10402E-14
 -1        92 7.06330E-03 2.15190E-03-1.22332E-14
 -1        93 7.25764E-03 2.25099E-03-1.33865E-14
 -1        94 7.50015E-03 2.16997E-03-1.47982E-14
 -1        95 7.80795E-03 1.98152E-03-1.62380E-14
 -1        96 8.23970E-03 1.76779E-03-1.79671E-14
 -1        97 8.73879E-03 1.62891E-03-1.99074E-14
 -1        98 9.22719E-03 1.59567E-03-2.19641E-14
 -1        99 9.67750E-03 1.64480E-03-2.41232E-14
 -1       100 1.00859E-02 1.74666E-03-2.63750E-14
 -1       101 1.04410E-02 1.87176E-03-2.85951E-14
 -1       102 1.07885E-02 2.01955E-03-3.10229E-14
 -1       103 1.11165E-02 2.17567E-03-3.35352E-14
 -1       104 1.14309E-02 2.33552E-03-3.61201E-14
 -1       105 1.17360E-02 2.49664E-03-3.87594E-14
 -1       106 1.20199E-02 2.64976E-03-4.13071E-14
 -1       107 1.23144E-02 2.81042E-03-4.40407E-14
 -1       108 1.26058E-02 2.97031E-03-4.68425E-14
 -1       109 1.28951E-02 3.12935E-03-4.97228E-14
 -1       110 1.31830E-02 3.28759E-03-5.26774E-14
 -1       111 1.34699E-02 3.44509E-03-5.57058E-14
 -1       112 1.37420E-02 3.59411E-03-5.86449E-14
 -1       113 1.40279E-02 3.75043E-03-6.18126E-14
 -1       114 1.43137E-02 3.90630E-03-6.50493E-14
 -1       115 1.45993E-02 4.06178E-03-6.83133E-14
 -1       116 1.48848E-02 4.21696E-03-7.15900E-14
 -1       117 1.51560E-02 4.36417E-03-7.47387E-14
 -1       118 1.54416E-02 4.51895E-03-7.80798E-14
 -1       119 1.57272E-02 4.67363E-03-8.14348E-14
 -1       120 1.60128E-02 4.82823E-03-8.48341E-14
 -1       121 1.62985E-02 4.98283E-03-8.82441E-14
 -1       122 1.64179E-02 5.04542E-03-9.23278E-14
 -1       123 1.62658E-02 4.96111E-03-9.31243E-14
 -1       124 1.61138E-02 4.87676E-03-9.39043E-14
 -1       125 1.59618E-02 4.79237E-03-9.47159E-14
 -1       126 1.58099E-02 4.70795E-03-9.55317E-14
 -1       127 1.56606E-02 4.62495E-03-9.63747E-14
 -1       128 1.55089E-02 4.54052E-03-9.72612E-14
 -1       129 1.53572E-02 4.45608E-03-9.81399E-14
 -1       130 1.52057E-02 4.37165E-03-9.89999E-14
 -1       131 1.50542E-02 4.28722E-03-9.98852E-14
 -1       132 1.49028E-02 4.20280E-03-1.00773E-13
 -1       133 1.47541E-02 4.11982E-03-1.01672E-13
 -1       134 1.46029E-02 4.03542E-03-1.02573E-13
 -1       135 1.44518E-02 3.95105E-03-1.03450E-13
 -1       136 1.43007E-02 3.86671E-03-1.04290E-13
 -1       137 1.41496E-02 3.78240E-03-1.05107E-13
 -1       138 9.22718E-03 1.11960E-03-1.97255E-14
 -1       139 9.14596E-03 1.30402E-03-1.91875E-14
 -1       140 8.95086E-03 1.49105E-03-1.84788E-14
 -1       141 8.65767E-03 1.66320E-03-1.76797E-14
 -1       142 8.25513E-03 1.81764E-03-1.67929E-14
 -1       143 7.75187E-03 1.92895E-03-1.58643E-14
 -1       144 7.20351E-03 1.96541E-03-1.49957E-14
 -1       145 6.66777E-03 1.92006E-03-1.42541E-14
 -1       146 6.10657E-03 1.78991E-03-1.35594E-14
 -1       147 5.55627E-03 1.57985E-03-1.29502E-14
 -1       148 5.14191E-03 1.36354E-03-1.25591E-14
 -1       149 4.80249E-03 1.12814E-03-1.23099E-14
 -1       150 4.57809E-03 9.09491E-04-1.22306E-14
 -1       151 4.43716E-03 5.27917E-04-1.25061E-14
 -1       152 4.51018E-03 3.58347E-04-1.28529E-14
 -1       153 4.66445E-03 2.16948E-04-1.32955E-14
 -1       154 4.91243E-03 9.14063E-05-1.38781E-14
 -1       155 5.22022E-03-1.64608E-06-1.45269E-14
 -1       156 5.57975E-03-6.39270E-05-1.52375E-14
 -1       157 6.04352E-03-9.70313E-05-1.61108E-14
 -1       158 6.49016E-03-8.99345E-05-1.69125E-14
 -1       159 6.96436E-03-4.66216E-05-1.77220E-14
 -1       160 7.44506E-03 3.42442E-05-1.84987E-14
 -1       161 7.87845E-03 1.40105E-04-1.91429E-14
 -1       162 8.29724E-03 2.80131E-04-1.97007E-14
 -1       163 8.65265E-03 4.39810E-04-2.00844E-14
 -1       164 8.91316E-03 5.99450E-04-2.02608E-14
 -1       165 9.10411E-03 7.70874E-04-2.02588E-14
 -1       166 2.40565E-04-1.23921E-04-3.49113E-17
 -1       167 2.25605E-04-9.28543E-05-4.37848E-17
 -1       168 2.19835E-04-7.09496E-05-4.69900E-17
 -1       169 2.16893E-04-5.33532E-05-4.73864E-17
 -1       170 2.15231E-04-3.84578E-05-4.63327E-17
 -1       171 2.14234E-04-2.48135E-05-4.44116E-17
 -1       172 2.13698E-04-1.20835E-05-4.21280E-17
 -1       173 2.13532E-04 2.03492E-07-3.95734E-17
 -1       174 2.13712E-04 1.24725E-05-3.63343E-17
 -1       175 2.14269E-04 2.51563E-05-3.24685E-17
 -1       176 2.15278E-04 3.85081E-05-2.76268E-17
 -1       177 2.17002E-04 5.36158E-05-2.13351E-17
 -1       178 2.19987E-04 7.12332E-05-1.27224E-17
 -1       179 2.25807E-04 9.32382E-05-2.81215E-19
 -1       180 2.40861E-04 1.24558E-04 1.78283E-17
 -1       181 4.68552E-04-2.60474E-04-9.11136E-17
 -1       182 7.67103E-04-3.76515E-04-2.71220E-16
 -1       183 1.05186E-03-4.56619E-04-5.48037E-16
 -1       184 1.33075E-03-5.12449E-04-9.19461E-16
 -1       185 1.60757E-03-5.51097E-04-1.38343E-15
 -1       186 1.88451E-03-5.77397E-04-1.93858E-15
 -1       187 2.16287E-03-5.94906E-04-2.58292E-15
 -1       188 2.44336E-03-6.06439E-04-3.31577E-15
 -1       189 2.72629E-03-6.14349E-04-4.13581E-15
 -1       190 3.01167E-03-6.20679E-04-5.04167E-15
 -1       191 3.29916E-03-6.27216E-04-6.03142E-15
 -1       192 3.58811E-03-6.35438E-04-7.10325E-15
 -1       193 3.87750E-03-6.46356E-04-8.25922E-15
 -1       194 4.16591E-03-6.60213E-04-9.49700E-15
 -1       195 4.45162E-03-6.76100E-04-1.08217E-14
 -1       196 4.73279E-03-6.91548E-04-1.22336E-14
 -1       197 5.00781E-03-7.02292E-04-1.37291E-14
 -1       198 5.27572E-03-7.02431E-04-1.53087E-14
 -1       199 5.53672E-03-6.85183E-04-1.69751E-14
 -1       200 5.79235E-03-6.44215E-04-1.87281E-14
 -1       201 6.04540E-03-5.75227E-04-2.05732E-14
 -1       202 6.29929E-03-4.77165E-04-2.25123E-14
 -1       203 6.55731E-03-3.52540E-04-2.45536E-14
 -1       204 6.82179E-03-2.06688E-04-2.66977E-14
 -1       205 7.09376E-03-4.63267E-05-2.89360E-14
 -1       206 7.37296E-03 1.21968E-04-3.12639E-14
 -1       207 7.65821E-03 2.92857E-04-3.36780E-14
 -1       208 7.94788E-03 4.62702E-04-3.61851E-14
 -1       209 8.24029E-03 6.29515E-04-3.87863E-14
 -1       210 8.53400E-03 7.92592E-04-4.14859E-14
 -1       211 8.82791E-03 9.52078E-04-4.42716E-14
 -1       212 9.12129E-03 1.10856E-03-4.71409E-14
 -1       213 9.41372E-03 1.26280E-03-5.00906E-14
 -1       214 9.70503E-03 1.41551E-03-5.31111E-14
 -1       215 9.99520E-03 1.56733E-03-5.61924E-14
 -1       216 1.02843E-02 1.71874E-03-5.93213E-14
 -1       217 1.05726E-02 1.87006E-03-6.24892E-14
 -1       218 1.08601E-02 2.02153E-03-6.56880E-14
 -1       219 1.11470E-02 2.17327E-03-6.89316E-14
 -1       220 1.14335E-02 2.32533E-03-7.22200E-14
 -1       221 1.17197E-02 2.47773E-03-7.55565E-14
 -1       222 1.20056E-02 2.63044E-03-7.89400E-14
 -1       223 1.22914E-02 2.78344E-03-8.23700E-14
 -1       224 1.25771E-02 2.93667E-03-8.58469E-14
 -1       225 1.28628E-02 3.09008E-03-8.93551E-14
 -1       226 1.31485E-02 3.24364E-03-9.28885E-14
 -1       227 1.34342E-02 3.39727E-03-9.64360E-14
 -1       228 1.37199E-02 3.55095E-03-9.99942E-14
 -1       229 4.53290E-04 2.53453E-04 3.90923E-17
 -1       230 7.52451E-04 3.71164E-04 7.05409E-18
 -1       231 1.03768E-03 4.52111E-04-8.22909E-17
 -1       232 1.31690E-03 5.07902E-04-2.33934E-16
 -1       233 1.58031E-03 5.44109E-04-4.38770E-16
 -1       234 1.85805E-03 5.69011E-04-7.22668E-16
 -1       235 2.13795E-03 5.83619E-04-1.07979E-15
 -1       236 2.42140E-03 5.90398E-04-1.50877E-15
 -1       237 2.70970E-03 5.91338E-04-2.01125E-15
 -1       238 2.98945E-03 5.88502E-04-2.55654E-15
 -1       239 3.29188E-03 5.83545E-04-3.20183E-15
 -1       240 3.60489E-03 5.79415E-04-3.92140E-15
 -1       241 3.93167E-03 5.80792E-04-4.71574E-15
 -1       242 4.27610E-03 5.95835E-04-5.58329E-15
 -1       243 4.64250E-03 6.38647E-04-6.51940E-15
 -1       244 5.01448E-03 7.25827E-04-7.47212E-15
 -1       245 5.43245E-03 8.96836E-04-8.54096E-15
 -1       246 5.87273E-03 1.17871E-03-9.68182E-15
 -1       247 6.31930E-03 1.56535E-03-1.09018E-14
 -1       248 6.70535E-03 1.92298E-03-1.20799E-14
 -1       249 7.02905E-03 2.13503E-03-1.32086E-14
 -1       250 7.38543E-03 2.15843E-03-1.45845E-14
 -1       251 7.73837E-03 1.99854E-03-1.59864E-14
 -1       252 8.15639E-03 1.75284E-03-1.76700E-14
 -1       253 8.60400E-03 1.55889E-03-1.95646E-14
 -1       254 9.03707E-03 1.48057E-03-2.15763E-14
 -1       255 9.44500E-03 1.50223E-03-2.36951E-14
 -1       256 9.82644E-03 1.59027E-03-2.59091E-14
 -1       257 1.01670E-02 1.70997E-03-2.80972E-14
 -1       258 1.05068E-02 1.85639E-03-3.04838E-14
 -1       259 1.08317E-02 2.01319E-03-3.29585E-14
 -1       260 1.11455E-02 2.17450E-03-3.55098E-14
 -1       261 1.14511E-02 2.33725E-03-3.81231E-14
 -1       262 1.17359E-02 2.49182E-03-4.06584E-14
 -1       263 1.20315E-02 2.65381E-03-4.33784E-14
 -1       264 1.23240E-02 2.81482E-03-4.61607E-14
 -1       265 1.26143E-02 2.97478E-03-4.90110E-14
 -1       266 1.29031E-02 3.13375E-03-5.19353E-14
 -1       267 1.31908E-02 3.29184E-03-5.49369E-14
 -1       268 1.34635E-02 3.44131E-03-5.78536E-14
 -1       269 1.37499E-02 3.59801E-03-6.09859E-14
 -1       270 1.40360E-02 3.75416E-03-6.41851E-14
 -1       271 1.43219E-02 3.90986E-03-6.74344E-14
 -1       272 1.46077E-02 4.06520E-03-7.07081E-14
 -1       273 1.48791E-02 4.21252E-03-7.38428E-14
 -1       274 1.51648E-02 4.36738E-03-7.71717E-14
 -1       275 1.54504E-02 4.52210E-03-8.05192E-14
 -1       276 1.57361E-02 4.67672E-03-8.38900E-14
 -1       277 1.60218E-02 4.83131E-03-8.72847E-14
 -1       278 1.60944E-02 4.86938E-03-8.97857E-14
 -1       279 1.59424E-02 4.78506E-03-9.06032E-14
 -1       280 1.57903E-02 4.70073E-03-9.14198E-14
 -1       281 1.56384E-02 4.61638E-03-9.22392E-14
 -1       282 1.54890E-02 4.53346E-03-9.30577E-14
 -1       283 1.53373E-02 4.44910E-03-9.39099E-14
 -1       284 1.51856E-02 4.36475E-03-9.47716E-14
 -1       285 1.50340E-02 4.28040E-03-9.56351E-14
 -1       286 1.48825E-02 4.19605E-03-9.64915E-14
 -1       287 1.47311E-02 4.11170E-03-9.73510E-14
 -1       288 1.45823E-02 4.02879E-03-9.82068E-14
 -1       289 1.44311E-02 3.94445E-03-9.90704E-14
 -1       290 1.42799E-02 3.86011E-03-9.99298E-14
 -1       291 1.41288E-02 3.77579E-03-1.00770E-13
 -1       292 1.39243E-02 3.66336E-03-1.00387E-13
 -1       293 9.25942E-03 1.03383E-03-2.07001E-14
 -1       294 9.20057E-03 1.13738E-03-2.01538E-14
 -1       295 8.99738E-03 1.26328E-03-1.94669E-14
 -1       296 8.68239E-03 1.44662E-03-1.84971E-14
 -1       297 8.29633E-03 1.66550E-03-1.74518E-14
 -1       298 7.84973E-03 1.88253E-03-1.63686E-14
 -1       299 7.40296E-03 2.03524E-03-1.52872E-14
 -1       300 6.98118E-03 2.04119E-03-1.43679E-14
 -1       301 6.54876E-03 1.90962E-03-1.35216E-14
 -1       302 6.08167E-03 1.63299E-03-1.26958E-14
 -1       303 5.54812E-03 1.33667E-03-1.22676E-14
 -1       304 5.10357E-03 1.06650E-03-1.19197E-14
 -1       305 4.74327E-03 8.42183E-04-1.17085E-14
 -1       306 4.50420E-03 6.98090E-04-1.17450E-14
 -1       307 4.40797E-03 5.88398E-04-1.18980E-14
 -1       308 4.44544E-03 4.93994E-04-1.21686E-14
 -1       309 4.60652E-03 3.91516E-04-1.26398E-14
 -1       310 4.86795E-03 2.77055E-04-1.31888E-14
 -1       311 5.19040E-03 1.36613E-04-1.39118E-14
 -1       312 5.53879E-03 5.18503E-06-1.46878E-14
 -1       313 5.92894E-03-1.10512E-04-1.55908E-14
 -1       314 6.30803E-03-1.69229E-04-1.65828E-14
 -1       315 6.67725E-03-1.51302E-04-1.75451E-14
 -1       316 7.06131E-03-5.35266E-05-1.85308E-14
 -1       317 7.48081E-03 1.10090E-04-1.93396E-14
 -1       318 7.89344E-03 3.12445E-04-2.01199E-14
 -1       319 8.33037E-03 5.14906E-04-2.06547E-14
 -1       320 8.70163E-03 6.91789E-04-2.10039E-14
 -1       321 8.99320E-03 8.30422E-04-2.11214E-14
 -1       322 9.18562E-03 9.39802E-04-2.10215E-14
 -1       323 4.56013E-04-1.60949E-04-1.58605E-16
 -1       324 4.74941E-04-2.09285E-04-1.46920E-16
 -1       325 4.40492E-04-9.07103E-05-1.60665E-16
 -1       326 4.37090E-04-6.22827E-05-1.56430E-16
 -1       327 4.35102E-04-3.62231E-05-1.50626E-16
 -1       328 4.34172E-04-1.14904E-05-1.43464E-16
 -1       329 4.34179E-04 1.27894E-05-1.34932E-16
 -1       330 4.35136E-04 3.74550E-05-1.24477E-16
 -1       331 4.37146E-04 6.29576E-05-1.11951E-16
 -1       332 4.40639E-04 9.12589E-05-9.61924E-17
 -1       333 4.46419E-04 1.23445E-04-7.62804E-17
 -1       334 4.56500E-04 1.61836E-04-5.02155E-17
 -1       335 4.75719E-04 2.10632E-04-1.57379E-17
 -1       336 8.81284E-03 1.30159E-03-1.94884E-14
 -1       337 8.64760E-04-3.50219E-04-4.33396E-16
 -1       338 1.15218E-03-4.16013E-04-7.59616E-16
 -1       339 1.43649E-03-4.62042E-04-1.17569E-15
 -1       340 1.71934E-03-4.93545E-04-1.68033E-15
 -1       341 2.00197E-03-5.14509E-04-2.27303E-15
 -1       342 2.28527E-03-5.28070E-04-2.95316E-15
 -1       343 2.56985E-03-5.36804E-04-3.71840E-15
 -1       344 2.85603E-03-5.42929E-04-4.56755E-15
 -1       345 3.14395E-03-5.48402E-04-5.50015E-15
 -1       346 3.43350E-03-5.54937E-04-6.51479E-15
 -1       347 3.72434E-03-5.63917E-04-7.61262E-15
 -1       348 4.01583E-03-5.76168E-04-8.79331E-15
 -1       349 4.30698E-03-5.91603E-04-1.00568E-14
 -1       350 4.59650E-03-6.08759E-04-1.14053E-14
 -1       351 4.88291E-03-6.24365E-04-1.28378E-14
 -1       352 5.16484E-03-6.33154E-04-1.43537E-14
 -1       353 5.44151E-03-6.28220E-04-1.59579E-14
 -1       354 5.71321E-03-6.02134E-04-1.76497E-14
 -1       355 5.98153E-03-5.48694E-04-1.94334E-14
 -1       356 6.24908E-03-4.64722E-04-2.13087E-14
 -1       357 6.51877E-03-3.51085E-04-2.32837E-14
 -1       358 6.79285E-03-2.12412E-04-2.53621E-14
 -1       359 7.07240E-03-5.56512E-05-2.75370E-14
 -1       360 7.35726E-03 1.11795E-04-2.98031E-14
 -1       361 7.64638E-03 2.83577E-04-3.21567E-14
 -1       362 7.93839E-03 4.55167E-04-3.45990E-14
 -1       363 8.23192E-03 6.23925E-04-3.71347E-14
 -1       364 8.52591E-03 7.88760E-04-3.97621E-14
 -1       365 8.81957E-03 9.49625E-04-4.24821E-14
 -1       366 9.11246E-03 1.10707E-03-4.52874E-14
 -1       367 9.40435E-03 1.26187E-03-4.81755E-14
 -1       368 9.69518E-03 1.41485E-03-5.11358E-14
 -1       369 9.98499E-03 1.56670E-03-5.41637E-14
 -1       370 1.02739E-02 1.71798E-03-5.72483E-14
 -1       371 1.05620E-02 1.86909E-03-6.03779E-14
 -1       372 1.08495E-02 2.02030E-03-6.35493E-14
 -1       373 1.11365E-02 2.17178E-03-6.67576E-14
 -1       374 1.14231E-02 2.32359E-03-7.00078E-14
 -1       375 1.17093E-02 2.47576E-03-7.33019E-14
 -1       376 1.19954E-02 2.62829E-03-7.66455E-14
 -1       377 1.22813E-02 2.78113E-03-8.00375E-14
 -1       378 1.25672E-02 2.93424E-03-8.34685E-14
 -1       379 1.28529E-02 3.08756E-03-8.69395E-14
 -1       380 1.31386E-02 3.24106E-03-9.04395E-14
 -1       381 1.34243E-02 3.39467E-03-9.39639E-14
 -1       382 1.36743E-02 3.52901E-03-9.71653E-14
 -1       383 1.13821E-03 4.11647E-04-2.51057E-16
 -1       384 8.50495E-04 3.45572E-04-1.05662E-16
 -1       385 1.40872E-03 4.55356E-04-4.48467E-16
 -1       386 1.69213E-03 4.86143E-04-7.22048E-16
 -1       387 1.97556E-03 5.05023E-04-1.06643E-15
 -1       388 2.26015E-03 5.14815E-04-1.48332E-15
 -1       389 2.54684E-03 5.17709E-04-1.97191E-15
 -1       390 2.82188E-03 5.15774E-04-2.50424E-15
 -1       391 3.11497E-03 5.10567E-04-3.13614E-15
 -1       392 3.41251E-03 5.04356E-04-3.84245E-15
 -1       393 3.71541E-03 5.00523E-04-4.62265E-15
 -1       394 4.02482E-03 5.04680E-04-5.47585E-15
 -1       395 4.34264E-03 5.26372E-04-6.39966E-15
 -1       396 4.65580E-03 5.77708E-04-7.34159E-15
 -1       397 5.00468E-03 6.87724E-04-8.40213E-15
 -1       398 5.38667E-03 8.89065E-04-9.53160E-15
 -1       399 5.81890E-03 1.21499E-03-1.07333E-14
 -1       400 6.73772E-03 1.97902E-03-1.30668E-14
 -1       401 7.59952E-03 2.02263E-03-1.56856E-14
 -1       402 8.05239E-03 1.75727E-03-1.73173E-14
 -1       403 8.51242E-03 1.51529E-03-1.91697E-14
 -1       404 8.92622E-03 1.39779E-03-2.11411E-14
 -1       405 9.30049E-03 1.39293E-03-2.32212E-14
 -1       406 9.64831E-03 1.46403E-03-2.54006E-14
 -1       407 9.96343E-03 1.57434E-03-2.75551E-14
 -1       408 1.02842E-02 1.71565E-03-2.99044E-14
 -1       409 1.05968E-02 1.87035E-03-3.23412E-14
 -1       410 1.09029E-02 2.03121E-03-3.48608E-14
 -1       411 1.12040E-02 2.19435E-03-3.74504E-14
 -1       412 1.14864E-02 2.34963E-03-3.99662E-14
 -1       413 1.17807E-02 2.51247E-03-4.26674E-14
 -1       414 1.20727E-02 2.67430E-03-4.54312E-14
 -1       415 1.23628E-02 2.83501E-03-4.82601E-14
 -1       416 1.26517E-02 2.99463E-03-5.11585E-14
 -1       417 1.29395E-02 3.15326E-03-5.41321E-14
 -1       418 1.32124E-02 3.30315E-03-5.70215E-14
 -1       419 1.34990E-02 3.46021E-03-6.01317E-14
 -1       420 1.37854E-02 3.61665E-03-6.33027E-14
 -1       421 1.40714E-02 3.77258E-03-6.65302E-14
 -1       422 1.43573E-02 3.92810E-03-6.97919E-14
 -1       423 1.46289E-02 4.07554E-03-7.29188E-14
 -1       424 1.49146E-02 4.23049E-03-7.62371E-14
 -1       425 1.52003E-02 4.38527E-03-7.95789E-14
 -1       426 1.54860E-02 4.53992E-03-8.29322E-14
 -1       427 1.57717E-02 4.69451E-03-8.63102E-14
 -1       428 9.26273E-03 1.07906E-03-2.12791E-14
 -1       429 1.54669E-02 4.52476E-03-8.89318E-14
 -1       430 1.56189E-02 4.60907E-03-8.81034E-14
 -1       431 1.53175E-02 4.44189E-03-8.97481E-14
 -1       432 1.51657E-02 4.35760E-03-9.05788E-14
 -1       433 1.50140E-02 4.27333E-03-9.14187E-14
 -1       434 1.48623E-02 4.18906E-03-9.22666E-14
 -1       435 1.47108E-02 4.10479E-03-9.31116E-14
 -1       436 1.45593E-02 4.02053E-03-9.39521E-14
 -1       437 1.44105E-02 3.93768E-03-9.47754E-14
 -1       438 1.42592E-02 3.85340E-03-9.56125E-14
 -1       439 1.41080E-02 3.76912E-03-9.64480E-14
 -1       440 1.39569E-02 3.68482E-03-9.72805E-14
 -1       441 9.12740E-03 1.15184E-03-2.05818E-14
 -1       442 9.25723E-03 1.03152E-03-2.19152E-14
 -1       443 4.46136E-04-1.22802E-04-1.62017E-16
 -1       444 8.02776E-03 1.75470E-03-1.71108E-14
 -1       445 7.60765E-03 1.99113E-03-1.58094E-14
 -1       446 7.18738E-03 2.10867E-03-1.45001E-14
 -1       447 6.84437E-03 2.03338E-03-1.36170E-14
 -1       448 6.47039E-03 1.80542E-03-1.26227E-14
 -1       449 5.87360E-03 1.37476E-03-1.18239E-14
 -1       450 5.41726E-03 1.09239E-03-1.15186E-14
 -1       451 4.97871E-03 8.45843E-04-1.12601E-14
 -1       452 4.61611E-03 6.72193E-04-1.11632E-14
 -1       453 4.42858E-03 5.76610E-04-1.11595E-14
 -1       454 4.39167E-03 5.27766E-04-1.14580E-14
 -1       455 4.50879E-03 4.64297E-04-1.17760E-14
 -1       456 4.70501E-03 3.94107E-04-1.22928E-14
 -1       457 5.07316E-03 2.45300E-04-1.31950E-14
 -1       458 5.41499E-03 9.56276E-05-1.40186E-14
 -1       459 5.74008E-03-4.33533E-05-1.48878E-14
 -1       460 6.14401E-03-1.76917E-04-1.61115E-14
 -1       461 6.47267E-03-2.01996E-04-1.72109E-14
 -1       462 6.78577E-03-1.40470E-04-1.83827E-14
 -1       463 7.19276E-03 4.46783E-05-1.95752E-14
 -1       464 7.53759E-03 2.35028E-04-2.03680E-14
 -1       465 8.03175E-03 5.04320E-04-2.12178E-14
 -1       466 8.44701E-03 7.19287E-04-2.18509E-14
 -1       467 8.82555E-03 8.66809E-04-2.20314E-14
 -1       468 9.10188E-03 9.65874E-04-2.20497E-14
 -1       469 8.42812E-03 1.51478E-03-1.82782E-14
 -1       470 6.25059E-03 1.59222E-03-1.17644E-14
 -1       471 6.64513E-04-7.17494E-05-3.26203E-16
 -1       472 6.69226E-04-1.11272E-04-3.35859E-16
 -1       473 6.61036E-04 1.06631E-06-2.98298E-16
 -1       474 6.61868E-04 3.67822E-05-2.79880E-16
 -1       475 6.64461E-04 7.29764E-05-2.58037E-16
 -1       476 6.69273E-04 1.12210E-04-2.31403E-16
 -1       477 6.77093E-04 1.55494E-04-1.99009E-16
 -1       478 6.89634E-04 2.04946E-04-1.58676E-16
 -1       479 7.64146E-04 2.69918E-04-1.40472E-16
 -1       480 9.78176E-04-3.19942E-04-6.05852E-16
 -1       481 1.26499E-03-3.71732E-04-9.76544E-16
 -1       482 1.55125E-03-4.08186E-04-1.43320E-15
 -1       483 1.83709E-03-4.32856E-04-1.97598E-15
 -1       484 2.12297E-03-4.48863E-04-2.60414E-15
 -1       485 2.40937E-03-4.58849E-04-3.31589E-15
 -1       486 2.69677E-03-4.65095E-04-4.11067E-15
 -1       487 2.98556E-03-4.69627E-04-4.98672E-15
 -1       488 3.27606E-03-4.74281E-04-5.94504E-15
 -1       489 3.56851E-03-4.80694E-04-6.98529E-15
 -1       490 3.86292E-03-4.90175E-04-8.10737E-15
 -1       491 4.15902E-03-5.03445E-04-9.31117E-15
 -1       492 4.45608E-03-5.20197E-04-1.05970E-14
 -1       493 4.75280E-03-5.38518E-04-1.19678E-14
 -1       494 5.04743E-03-5.54331E-04-1.34211E-14
 -1       495 5.33819E-03-5.61166E-04-1.49611E-14
 -1       496 5.62401E-03-5.50746E-04-1.65901E-14
 -1       497 5.90529E-03-5.14662E-04-1.83121E-14
 -1       498 6.18417E-03-4.46877E-04-2.01257E-14
 -1       499 6.46378E-03-3.45880E-04-2.20349E-14
 -1       500 6.74699E-03-2.15256E-04-2.40454E-14
 -1       501 7.03523E-03-6.23539E-05-2.61571E-14
 -1       502 7.32822E-03 1.04209E-04-2.83609E-14
 -1       503 7.62452E-03 2.76763E-04-3.06547E-14
 -1       504 7.92232E-03 4.49771E-04-3.30349E-14
 -1       505 8.22007E-03 6.19996E-04-3.55056E-14
 -1       506 8.51675E-03 7.86063E-04-3.80659E-14
 -1       507 8.81186E-03 9.47839E-04-4.07191E-14
 -1       508 9.10527E-03 1.10588E-03-4.34598E-14
 -1       509 9.39710E-03 1.26101E-03-4.62873E-14
 -1       510 9.68755E-03 1.41410E-03-4.91887E-14
 -1       511 9.97686E-03 1.56592E-03-5.21595E-14
 -1       512 1.02653E-02 1.71706E-03-5.51963E-14
 -1       513 1.05530E-02 1.86798E-03-5.82852E-14
 -1       514 1.08401E-02 2.01897E-03-6.14226E-14
 -1       515 1.11268E-02 2.17021E-03-6.45983E-14
 -1       516 1.14133E-02 2.32180E-03-6.78118E-14
 -1       517 1.16995E-02 2.47378E-03-7.10654E-14
 -1       518 1.19855E-02 2.62613E-03-7.43679E-14
 -1       519 1.22714E-02 2.77882E-03-7.77218E-14
 -1       520 1.25572E-02 2.93181E-03-8.11179E-14
 -1       521 1.28430E-02 3.08505E-03-8.45483E-14
 -1       522 1.31288E-02 3.23848E-03-8.80121E-14
 -1       523 1.34145E-02 3.39206E-03-9.15014E-14
 -1       524 1.05069E-03 3.35042E-04-2.96888E-16
 -1       525 1.80882E-03 4.25490E-04-1.03219E-15
 -1       526 2.09439E-03 4.39123E-04-1.43630E-15
 -1       527 2.38007E-03 4.45148E-04-1.91150E-15
 -1       528 2.65173E-03 4.45637E-04-2.43059E-15
 -1       529 2.93791E-03 4.42410E-04-3.04962E-15
 -1       530 3.22399E-03 4.37337E-04-3.74238E-15
 -1       531 3.50928E-03 4.33037E-04-4.50943E-15
 -1       532 3.79284E-03 4.33358E-04-5.34871E-15
 -1       533 4.07380E-03 4.44248E-04-6.25785E-15
 -1       534 4.33862E-03 4.72808E-04-7.18904E-15
 -1       535 4.61915E-03 5.35734E-04-8.23987E-15
 -1       536 4.91424E-03 6.55716E-04-9.35770E-15
 -1       537 9.52090E-03 1.33911E-03-2.49260E-14
 -1       538 9.79370E-03 1.43962E-03-2.70468E-14
 -1       539 1.00799E-02 1.57276E-03-2.93622E-14
 -1       540 1.03675E-02 1.72183E-03-3.17604E-14
 -1       541 1.06564E-02 1.87930E-03-3.42438E-14
 -1       542 1.09461E-02 2.04065E-03-3.68025E-14
 -1       543 1.12213E-02 2.19520E-03-3.92961E-14
 -1       544 1.15108E-02 2.35789E-03-4.19784E-14
 -1       545 1.17996E-02 2.51991E-03-4.47219E-14
 -1       546 1.20879E-02 2.68097E-03-4.75334E-14
 -1       547 1.23757E-02 2.84100E-03-5.04105E-14
 -1       548 1.26629E-02 3.00003E-03-5.33595E-14
 -1       549 1.29354E-02 3.15028E-03-5.62256E-14
 -1       550 1.32220E-02 3.30766E-03-5.93115E-14
 -1       551 1.35083E-02 3.46437E-03-6.24580E-14
 -1       552 1.37944E-02 3.62053E-03-6.56594E-14
 -1       553 1.40803E-02 3.77622E-03-6.89039E-14
 -1       554 1.43519E-02 3.92380E-03-7.20205E-14
 -1       555 1.46377E-02 4.07886E-03-7.53295E-14
 -1       556 1.49234E-02 4.23370E-03-7.86611E-14
 -1       557 1.52092E-02 4.38840E-03-8.20077E-14
 -1       558 1.54140E-02 4.49875E-03-8.50552E-14
 -1       559 9.25609E-03 1.12212E-03-2.20563E-14
 -1       560 1.48424E-02 4.18181E-03-8.80845E-14
 -1       561 9.01665E-03 1.20695E-03-2.07686E-14
 -1       562 1.46907E-02 4.09762E-03-8.89187E-14
 -1       563 1.45391E-02 4.01345E-03-8.97482E-14
 -1       564 1.43876E-02 3.92927E-03-9.05706E-14
 -1       565 1.42388E-02 3.84651E-03-9.13752E-14
 -1       566 1.40874E-02 3.76231E-03-9.21858E-14
 -1       567 1.39362E-02 3.67809E-03-9.29989E-14
 -1       568 1.37850E-02 3.59384E-03-9.38137E-14
 -1       569 8.63625E-03 1.38895E-03-1.93640E-14
 -1       570 9.20823E-03 1.04864E-03-2.30916E-14
 -1       571 1.52302E-03 4.01899E-04-6.99443E-16
 -1       572 8.98360E-03 9.90809E-04-2.32690E-14
 -1       573 1.51448E-02 4.34955E-03-8.64392E-14
 -1       574 6.94325E-03-4.96937E-05-1.96047E-14
 -1       575 4.87899E-03 3.16006E-04-1.23203E-14
 -1       576 4.38855E-03 4.79109E-04-1.09699E-14
 -1       577 1.52794E-02 4.42414E-03-8.57496E-14
 -1       578 1.49935E-02 4.26567E-03-8.72622E-14
 -1       579 9.22428E-03 1.28025E-03-2.27818E-14
 -1       580 9.30625E-03 1.08034E-03-2.24712E-14
 -1       581 6.61895E-04-3.47230E-05-3.13904E-16
 -1       582 1.28706E-03 3.73814E-04-4.75375E-16
 -1       583 5.23210E-03 1.66750E-04-1.32051E-14
 -1       584 5.21464E-03 8.81051E-04-1.07684E-14
 -1       585 4.78890E-03 6.68804E-04-1.05085E-14
 -1       586 4.50777E-03 5.68755E-04-1.05664E-14
 -1       587 4.36190E-03 5.07706E-04-1.06856E-14
 -1       588 4.57634E-03 4.17360E-04-1.15091E-14
 -1       589 6.29456E-03-2.25613E-04-1.68816E-14
 -1       590 5.57674E-03 1.54422E-05-1.42231E-14
 -1       591 8.18171E-03 6.72027E-04-2.26851E-14
 -1       592 5.90553E-03-1.27609E-04-1.52949E-14
 -1       593 6.54870E-03-2.05181E-04-1.80355E-14
 -1       594 7.32270E-03 1.68816E-04-2.07513E-14
 -1       595 7.75019E-03 4.28830E-04-2.17917E-14
 -1       596 8.65416E-03 8.76916E-04-2.30879E-14
 -1       597 7.13899E-04-2.45763E-04-3.46823E-16
 -1       598 8.26197E-03 1.61048E-03-1.80421E-14
 -1       599 6.76819E-04-1.54620E-04-3.41571E-16
 -1       600 1.36047E-02 3.49425E-03-9.38929E-14
 -1       601 6.92636E-04-1.97001E-04-3.47114E-16
 -1       602 4.37841E-03 4.97931E-04-1.01056E-14
 -1       603 5.61218E-03 1.12261E-03-1.10530E-14
 -1       604 8.96462E-04 7.03071E-05-4.68541E-16
 -1       605 8.93957E-04 2.40453E-05-5.00844E-16
 -1       606 9.10705E-04 1.69785E-04-3.85065E-16
 -1       607 9.24402E-04 2.26739E-04-3.30126E-16
 -1       608 9.85046E-04 2.78400E-04-3.18694E-16
 -1       609 1.35949E-02 3.49162E-03-9.14303E-14
 -1       610 1.09913E-03-2.84684E-04-7.87798E-16
 -1       611 1.38513E-03-3.23944E-04-1.19872E-15
 -1       612 1.67199E-03-3.51437E-04-1.69252E-15
 -1       613 1.95922E-03-3.69655E-04-2.27031E-15
 -1       614 2.24685E-03-3.80976E-04-2.92954E-15
 -1       615 2.53513E-03-3.87545E-04-3.67030E-15
 -1       616 2.82451E-03-3.91303E-04-4.49183E-15
 -1       617 3.11553E-03-3.94051E-04-5.39352E-15
 -1       618 3.40882E-03-3.97497E-04-6.37665E-15
 -1       619 3.70499E-03-4.03244E-04-7.44110E-15
 -1       620 4.00449E-03-4.12669E-04-8.58636E-15
 -1       621 4.30736E-03-4.26613E-04-9.81160E-15
 -1       622 4.61286E-03-4.44813E-04-1.11196E-14
 -1       623 4.91927E-03-4.65070E-04-1.25105E-14
 -1       624 5.22398E-03-4.82323E-04-1.39874E-14
 -1       625 5.52429E-03-4.88251E-04-1.55530E-14
 -1       626 5.81877E-03-4.72233E-04-1.72097E-14
 -1       627 6.10851E-03-4.24223E-04-1.89610E-14
 -1       628 6.39701E-03-3.38788E-04-2.08053E-14
 -1       629 6.68845E-03-2.17377E-04-2.27495E-14
 -1       630 6.98546E-03-6.79064E-05-2.47951E-14
 -1       631 7.28793E-03 9.89237E-05-2.69377E-14
 -1       632 7.59372E-03 2.73233E-04-2.91690E-14
 -1       633 7.90005E-03 4.48025E-04-3.14883E-14
 -1       634 8.20463E-03 6.19461E-04-3.38955E-14
 -1       635 8.50618E-03 7.86110E-04-3.63949E-14
 -1       636 8.80434E-03 9.48006E-04-3.89809E-14
 -1       637 9.09932E-03 1.10589E-03-4.16574E-14
 -1       638 9.39165E-03 1.26076E-03-4.44216E-14
 -1       639 9.68193E-03 1.41354E-03-4.72661E-14
 -1       640 9.97071E-03 1.56506E-03-5.01813E-14
 -1       641 1.02584E-02 1.71593E-03-5.31634E-14
 -1       642 1.05454E-02 1.86659E-03-5.62077E-14
 -1       643 1.08320E-02 2.01735E-03-5.93053E-14
 -1       644 1.11182E-02 2.16840E-03-6.24497E-14
 -1       645 1.14042E-02 2.31981E-03-6.56293E-14
 -1       646 1.16901E-02 2.47163E-03-6.88520E-14
 -1       647 1.19760E-02 2.62385E-03-7.21159E-14
 -1       648 1.22618E-02 2.77643E-03-7.54267E-14
 -1       649 1.25475E-02 2.92934E-03-7.87846E-14
 -1       650 1.28333E-02 3.08250E-03-8.21850E-14
 -1       651 1.31190E-02 3.23588E-03-8.56096E-14
 -1       652 1.33569E-02 3.36371E-03-8.85081E-14
 -1       653 9.34578E-03 1.11969E-03-2.41891E-14
 -1       654 2.21340E-03 3.73104E-04-1.83174E-15
 -1       655 1.92828E-03 3.63592E-04-1.36911E-15
 -1       656 2.76530E-03 3.76712E-04-2.94157E-15
 -1       657 3.04456E-03 3.74651E-04-3.62119E-15
 -1       658 3.31939E-03 3.72852E-04-4.37464E-15
 -1       659 3.58754E-03 3.74259E-04-5.19972E-15
 -1       660 3.84611E-03 3.82835E-04-6.09686E-15
 -1       661 4.07985E-03 4.02400E-04-7.01465E-15
 -1       662 4.31075E-03 4.41824E-04-8.05381E-15
 -1       663 4.52599E-03 5.10778E-04-9.16060E-15
 -1       664 5.37377E-03 4.33946E-05-1.34128E-14
 -1       665 1.01624E-02 1.58871E-03-3.11742E-14
 -1       666 7.52638E-03 3.26343E-04-2.23052E-14
 -1       667 9.90645E-03 1.44899E-03-2.88113E-14
 -1       668 9.21687E-03 1.19207E-03-2.23926E-14
 -1       669 9.67531E-03 1.33170E-03-2.66450E-14
 -1       670 1.04287E-02 1.73894E-03-3.36237E-14
 -1       671 1.07024E-02 1.89526E-03-3.61502E-14
 -1       672 1.09670E-02 2.04669E-03-3.86168E-14
 -1       673 1.12487E-02 2.20737E-03-4.12779E-14
 -1       674 1.15324E-02 2.36826E-03-4.40043E-14
 -1       675 1.18172E-02 2.52876E-03-4.67915E-14
 -1       676 1.21027E-02 2.68858E-03-4.96522E-14
 -1       677 1.23884E-02 2.84759E-03-5.25809E-14
 -1       678 1.26600E-02 2.99792E-03-5.54264E-14
 -1       679 1.29459E-02 3.15544E-03-5.84880E-14
 -1       680 1.32318E-02 3.31230E-03-6.16126E-14
 -1       681 1.35177E-02 3.46860E-03-6.47928E-14
 -1       682 1.38036E-02 3.62442E-03-6.80197E-14
 -1       683 1.40751E-02 3.77210E-03-7.11215E-14
 -1       684 1.43609E-02 3.92724E-03-7.44171E-14
 -1       685 1.46467E-02 4.08215E-03-7.77397E-14
 -1       686 1.49324E-02 4.23688E-03-8.10776E-14
 -1       687 1.51059E-02 4.33053E-03-8.34121E-14
 -1       688 1.43675E-02 3.92201E-03-8.64113E-14
 -1       689 9.38011E-03 1.14167E-03-2.37701E-14
 -1       690 4.58924E-03 5.52740E-04-9.81444E-15
 -1       691 1.45191E-02 4.00609E-03-8.55951E-14
 -1       692 1.40658E-02 3.75457E-03-8.80179E-14
 -1       693 1.39144E-02 3.67046E-03-8.88101E-14
 -1       694 1.37631E-02 3.58632E-03-8.95989E-14
 -1       695 4.97947E-03 2.17290E-04-1.22243E-14
 -1       696 7.90116E-03 5.51590E-04-2.32177E-14
 -1       697 4.66124E-03 3.28636E-04-1.12966E-14
 -1       698 4.30798E-03 4.55207E-04-1.01379E-14
 -1       699 8.47571E-03 8.46778E-04-2.43171E-14
 -1       700 9.44546E-03 1.23318E-03-2.44462E-14
 -1       701 1.64242E-03 3.46266E-04-9.77446E-16
 -1       702 8.85042E-03 9.84198E-04-2.42928E-14
 -1       703 9.16084E-03 1.07954E-03-2.45517E-14
 -1       704 1.42166E-02 3.83829E-03-8.72199E-14
 -1       705 2.49023E-03 3.76780E-04-2.35181E-15
 -1       706 6.02486E-03-2.06508E-04-1.59035E-14
 -1       707 4.40298E-03 4.22930E-04-1.06132E-14
 -1       708 9.01841E-04 1.18310E-04-4.30455E-16
 -1       709 5.66586E-03-8.59718E-05-1.44397E-14
 -1       710 9.02043E-04-1.16526E-04-5.68135E-16
 -1       711 7.12883E-03 7.65751E-05-2.09756E-14
 -1       712 6.35205E-03-2.42316E-04-1.75509E-14
 -1       713 8.94562E-04-2.43974E-04-5.45730E-16
 -1       714 6.71206E-03-1.45887E-04-1.93414E-14
 -1       715 8.94059E-04-2.16902E-05-5.28088E-16
 -1       716 1.22047E-03 3.16303E-04-5.02680E-16
 -1       717 9.10689E-04-1.68518E-04-5.80756E-16
 -1       718 1.46702E-02 4.08984E-03-8.47742E-14
 -1       719 1.48214E-02 4.17364E-03-8.39543E-14
 -1       720 1.49636E-02 4.25207E-03-8.36843E-14
 -1       721 8.96690E-04-6.80437E-05-5.50168E-16
 -1       722 1.43146E-03 3.34925E-04-7.19239E-16
 -1       723 1.15773E-03 2.62302E-04-5.19146E-16
 -1       724 1.22453E-03-2.44255E-04-9.78062E-16
 -1       725 5.41151E-03-6.81689E-05-1.35265E-14
 -1       726 1.50993E-03-2.72533E-04-1.42479E-15
 -1       727 1.79683E-03-2.91923E-04-1.95265E-15
 -1       728 2.08456E-03-3.04172E-04-2.56125E-15
 -1       729 2.37296E-03-3.11041E-04-3.24934E-15
 -1       730 2.66224E-03-3.14195E-04-4.01711E-15
 -1       731 2.95292E-03-3.15213E-04-4.86383E-15
 -1       732 3.24580E-03-3.15656E-04-5.78987E-15
 -1       733 3.54189E-03-3.17138E-04-6.79571E-15
 -1       734 3.84234E-03-3.21367E-04-7.88253E-15
 -1       735 4.14809E-03-3.30052E-04-9.04889E-15
 -1       736 4.45947E-03-3.44559E-04-1.02950E-14
 -1       737 4.77560E-03-3.65106E-04-1.16235E-14
 -1       738 5.09383E-03-3.89345E-04-1.30362E-14
 -1       739 5.41007E-03-4.10676E-04-1.45380E-14
 -1       740 5.72027E-03-4.17420E-04-1.61291E-14
 -1       741 6.02291E-03-3.94776E-04-1.78143E-14
 -1       742 6.32103E-03-3.30453E-04-1.95949E-14
 -1       743 6.62027E-03-2.21328E-04-2.14741E-14
 -1       744 6.92593E-03-7.51027E-05-2.34528E-14
 -1       745 7.23880E-03 9.42677E-05-2.55328E-14
 -1       746 7.55605E-03 2.72753E-04-2.77049E-14
 -1       747 7.87331E-03 4.50804E-04-2.99636E-14
 -1       748 8.18698E-03 6.23742E-04-3.23101E-14
 -1       749 8.49521E-03 7.90408E-04-3.47449E-14
 -1       750 8.79765E-03 9.51442E-04-3.72680E-14
 -1       751 9.09495E-03 1.10812E-03-3.98806E-14
 -1       752 9.38816E-03 1.26179E-03-4.25808E-14
 -1       753 9.67837E-03 1.41356E-03-4.53689E-14
 -1       754 9.96653E-03 1.56429E-03-4.82299E-14
 -1       755 1.02534E-02 1.71459E-03-5.11567E-14
 -1       756 1.05395E-02 1.86485E-03-5.41500E-14
 -1       757 1.08251E-02 2.01534E-03-5.72046E-14
 -1       758 1.11106E-02 2.16619E-03-6.03102E-14
 -1       759 1.13960E-02 2.31747E-03-6.34611E-14
 -1       760 1.16814E-02 2.46920E-03-6.66520E-14
 -1       761 1.19669E-02 2.62134E-03-6.98795E-14
 -1       762 1.22525E-02 2.77387E-03-7.31529E-14
 -1       763 1.25380E-02 2.92672E-03-7.64734E-14
 -1       764 1.28237E-02 3.07986E-03-7.98358E-14
 -1       765 1.31093E-02 3.23321E-03-8.32340E-14
 -1       766 3.14607E-03 3.14773E-04-4.21821E-15
 -1       767 2.87546E-03 3.12973E-04-3.47907E-15
 -1       768 3.65838E-03 3.30218E-04-5.91413E-15
 -1       769 3.88057E-03 3.49416E-04-6.82001E-15
 -1       770 4.09209E-03 3.82967E-04-7.84423E-15
 -1       771 8.79597E-03 9.94040E-04-2.59415E-14
 -1       772 9.96847E-03 1.47323E-03-3.05849E-14
 -1       773 1.04677E-02 1.76053E-03-3.54910E-14
 -1       774 4.45436E-03 3.89144E-04-1.06635E-14
 -1       775 1.02112E-02 1.61259E-03-3.29959E-14
 -1       776 1.07203E-02 1.90618E-03-3.79323E-14
 -1       777 1.09929E-02 2.06265E-03-4.05722E-14
 -1       778 1.12701E-02 2.22075E-03-4.32751E-14
 -1       779 1.15503E-02 2.37948E-03-4.60444E-14
 -1       780 1.18325E-02 2.53820E-03-4.88813E-14
 -1       781 1.21160E-02 2.69658E-03-5.17890E-14
 -1       782 1.23862E-02 2.84657E-03-5.46155E-14
 -1       783 1.26710E-02 3.00391E-03-5.76553E-14
 -1       784 1.29563E-02 3.16070E-03-6.07620E-14
 -1       785 1.32417E-02 3.31699E-03-6.39198E-14
 -1       786 1.35272E-02 3.47283E-03-6.71302E-14
 -1       787 1.37986E-02 3.62054E-03-7.02182E-14
 -1       788 1.40843E-02 3.77572E-03-7.35029E-14
 -1       789 1.43700E-02 3.93066E-03-7.68166E-14
 -1       790 1.46557E-02 4.08541E-03-8.01450E-14
 -1       791 4.72240E-03 2.15697E-04-1.11654E-14
 -1       792 9.46583E-03 1.18820E-03-2.54600E-14
 -1       793 4.33643E-03 4.62733E-04-9.44473E-15
 -1       794 1.35914E-02 3.49525E-03-8.62377E-14
 -1       795 1.37427E-02 3.57927E-03-8.54625E-14
 -1       796 9.01326E-04-2.05246E-04-5.65422E-16
 -1       797 7.75680E-03 4.72163E-04-2.42055E-14
 -1       798 6.46343E-03-2.34818E-04-1.87397E-14
 -1       799 5.76539E-03-1.96422E-04-1.50161E-14
 -1       800 1.76500E-03 2.89123E-04-1.28304E-15
 -1       801 9.55683E-03 1.24099E-03-2.61236E-14
 -1       802 9.10637E-03 1.10070E-03-2.62286E-14
 -1       803 8.26046E-03 7.54728E-04-2.53499E-14
 -1       804 9.75032E-03 1.34924E-03-2.83145E-14
 -1       805 4.23939E-03 3.90798E-04-9.54738E-15
 -1       806 1.41960E-02 3.83045E-03-8.30988E-14
 -1       807 5.05146E-03 7.95610E-05-1.22209E-14
 -1       808 2.04956E-03 3.01528E-04-1.73194E-15
 -1       809 6.08341E-03-2.66981E-04-1.65975E-14
 -1       810 9.33491E-03 1.15542E-03-2.58809E-14
 -1       811 1.34741E-02 3.42952E-03-8.73691E-14
 -1       812 1.13250E-03 5.61785E-05-7.44471E-16
 -1       813 6.91989E-03-3.77386E-05-2.08962E-14
 -1       814 3.40822E-03 3.19473E-04-5.03077E-15
 -1       815 7.32278E-03 2.03992E-04-2.25988E-14
 -1       816 4.44843E-03 3.03253E-04-1.02790E-14
 -1       817 1.14662E-03 1.69557E-04-6.36193E-16
 -1       818 1.14722E-03-1.67562E-04-8.74907E-16
 -1       819 2.60594E-03 3.11535E-04-2.83014E-15
 -1       820 4.18903E-03 4.05369E-04-8.88939E-15
 -1       821 1.43470E-02 3.91407E-03-8.22899E-14
 -1       822 1.13757E-03 1.11452E-04-6.94767E-16
 -1       823 1.38935E-02 3.66290E-03-8.46868E-14
 -1       824 2.32552E-03 3.08275E-04-2.23861E-15
 -1       825 1.44981E-02 3.99775E-03-8.14730E-14
 -1       826 6.66191E-03-1.69052E-04-2.02491E-14
 -1       827 1.48000E-03 2.69308E-04-9.04397E-16
 -1       828 1.13825E-03-1.08709E-04-8.52017E-16
 -1       829 1.13102E-03 1.82121E-06-7.87161E-16
 -1       830 1.40447E-02 3.74667E-03-8.38989E-14
 -1       831 4.32630E-03 3.58551E-04-9.91493E-15
 -1       832 1.63803E-03-2.17474E-04-1.65418E-15
 -1       833 1.92468E-03-2.29710E-04-2.21237E-15
 -1       834 2.21229E-03-2.36531E-04-2.84902E-15
 -1       835 2.50068E-03-2.39160E-04-3.56359E-15
 -1       836 2.79011E-03-2.38784E-04-4.35599E-15
 -1       837 3.08127E-03-2.36601E-04-5.22643E-15
 -1       838 3.37531E-03-2.33933E-04-6.17509E-15
 -1       839 3.67378E-03-2.32382E-04-7.20213E-15
 -1       840 3.97850E-03-2.33973E-04-8.30898E-15
 -1       841 4.29113E-03-2.41174E-04-9.49475E-15
 -1       842 4.61248E-03-2.56526E-04-1.07604E-14
 -1       843 4.94145E-03-2.81468E-04-1.21094E-14
 -1       844 5.27399E-03-3.13450E-04-1.35447E-14
 -1       845 5.60327E-03-3.43055E-04-1.50693E-14
 -1       846 5.92429E-03-3.52191E-04-1.66882E-14
 -1       847 6.23525E-03-3.18699E-04-1.84025E-14
 -1       848 7.18341E-03 8.72486E-05-2.41466E-14
 -1       849 7.51422E-03 2.74115E-04-2.62585E-14
 -1       850 7.84507E-03 4.58466E-04-2.84585E-14
 -1       851 8.16998E-03 6.34008E-04-3.07454E-14
 -1       852 8.48625E-03 8.00303E-04-3.31201E-14
 -1       853 8.79366E-03 9.59346E-04-3.55817E-14
 -1       854 9.09345E-03 1.11348E-03-3.81310E-14
 -1       855 9.38742E-03 1.26473E-03-4.07688E-14
 -1       856 9.67731E-03 1.41453E-03-4.34953E-14
 -1       857 9.96454E-03 1.56379E-03-4.63023E-14
 -1       858 1.02502E-02 1.71307E-03-4.91774E-14
 -1       859 1.05350E-02 1.86269E-03-5.21196E-14
 -1       860 1.08196E-02 2.01279E-03-5.51237E-14
 -1       861 1.11040E-02 2.16344E-03-5.81856E-14
 -1       862 1.13886E-02 2.31463E-03-6.12991E-14
 -1       863 1.16734E-02 2.46632E-03-6.44594E-14
 -1       864 1.19584E-02 2.61847E-03-6.76561E-14
 -1       865 1.22435E-02 2.77101E-03-7.08946E-14
 -1       866 1.25288E-02 2.92389E-03-7.41787E-14
 -1       867 1.28143E-02 3.07704E-03-7.75085E-14
 -1       868 1.30998E-02 3.23042E-03-8.08769E-14
 -1       869 3.94569E-03 3.34363E-04-7.59160E-15
 -1       870 3.74006E-03 3.02504E-04-6.63129E-15
 -1       871 8.09579E-03 6.55584E-04-2.64432E-14
 -1       872 1.04821E-02 1.77797E-03-3.73014E-14
 -1       873 1.33456E-02 3.36278E-03-8.35527E-14
 -1       874 7.53539E-03 3.23669E-04-2.45509E-14
 -1       875 1.12858E-02 2.23388E-03-4.52912E-14
 -1       876 1.15645E-02 2.39053E-03-4.81049E-14
 -1       877 1.18454E-02 2.54753E-03-5.09915E-14
 -1       878 1.21137E-02 2.69666E-03-5.37945E-14
 -1       879 1.23972E-02 2.85341E-03-5.68142E-14
 -1       880 1.26815E-02 3.00983E-03-5.98990E-14
 -1       881 1.29663E-02 3.16589E-03-6.30427E-14
 -1       882 1.32514E-02 3.32161E-03-6.62353E-14
 -1       883 1.35224E-02 3.46924E-03-6.93063E-14
 -1       884 1.38079E-02 3.62438E-03-7.25796E-14
 -1       885 1.40935E-02 3.77929E-03-7.58851E-14
 -1       886 1.42958E-02 3.88858E-03-7.86766E-14
 -1       887 5.46530E-03-1.97632E-04-1.39414E-14
 -1       888 1.60651E-03 2.17209E-04-1.18052E-15
 -1       889 5.09280E-03-6.26997E-05-1.23606E-14
 -1       890 5.80727E-03-2.84187E-04-1.55980E-14
 -1       891 1.34970E-02 3.44670E-03-8.27889E-14
 -1       892 4.72320E-03 8.48530E-05-1.09850E-14
 -1       893 1.13295E-03-5.27151E-05-8.22794E-16
 -1       894 9.35393E-03 1.19785E-03-2.77319E-14
 -1       895 9.04619E-03 1.10216E-03-2.78787E-14
 -1       896 1.07464E-02 1.92833E-03-3.99205E-14
 -1       897 3.50317E-03 2.80612E-04-5.69127E-15
 -1       898 1.10139E-02 2.08015E-03-4.25762E-14
 -1       899 1.89024E-03 2.31026E-04-1.61498E-15
 -1       900 2.98650E-03 2.55195E-04-4.04237E-15
 -1       901 7.11304E-03 6.81622E-05-2.26100E-14
 -1       902 8.65649E-03 9.42917E-04-2.75169E-14
 -1       903 4.45712E-03 2.00528E-04-1.00844E-14
 -1       904 1.39138E-03-1.94574E-04-1.23435E-15
 -1       905 3.24935E-03 2.63128E-04-4.84062E-15
 -1       906 9.55149E-03 1.24549E-03-2.70886E-14
 -1       907 2.72254E-03 2.50252E-04-3.33534E-15
 -1       908 6.85881E-03-8.78771E-05-2.21321E-14
 -1       909 1.02271E-02 1.63304E-03-3.47591E-14
 -1       910 4.09817E-03 3.58496E-04-8.60089E-15
 -1       911 9.98486E-03 1.49615E-03-3.22989E-14
 -1       912 1.41447E-02 3.80500E-03-7.94890E-14
 -1       913 4.22328E-03 2.58809E-04-9.21580E-15
 -1       914 1.36478E-02 3.53021E-03-8.20245E-14
 -1       915 1.38026E-03-1.28574E-04-1.20373E-15
 -1       916 1.37219E-03 3.33320E-05-1.08677E-15
 -1       917 2.16587E-03 2.39862E-04-2.10795E-15
 -1       918 1.59365E-03 1.48523E-04-1.27552E-15
 -1       919 9.76595E-03 1.37329E-03-2.99853E-14
 -1       920 1.48083E-03 8.88600E-05-1.18589E-15
 -1       921 4.14680E-03 3.34942E-04-8.95088E-15
 -1       922 1.38731E-02 3.65501E-03-8.05978E-14
 -1       923 1.40089E-02 3.72998E-03-8.00475E-14
 -1       924 1.76883E-03-1.58918E-04-1.88378E-15
 -1       925 2.05491E-03-1.64959E-04-2.46894E-15
 -1       926 2.34180E-03-1.66945E-04-3.13091E-15
 -1       927 2.62932E-03-1.65540E-04-3.86968E-15
 -1       928 2.91782E-03-1.61441E-04-4.68515E-15
 -1       929 3.20824E-03-1.55435E-04-5.57772E-15
 -1       930 3.50213E-03-1.48610E-04-6.54707E-15
 -1       931 3.80172E-03-1.42638E-04-7.59440E-15
 -1       932 4.10979E-03-1.40149E-04-8.71996E-15
 -1       933 4.42917E-03-1.44995E-04-9.92427E-15
 -1       934 4.76148E-03-1.61891E-04-1.12092E-14
 -1       935 1.37266E-03-2.78504E-05-1.13939E-15
 -1       936 7.82029E-03 4.71037E-04-2.69712E-14
 -1       937 8.15820E-03 6.51302E-04-2.91995E-14
 -1       938 8.48323E-03 8.17044E-04-3.15159E-14
 -1       939 8.79575E-03 9.72629E-04-3.39172E-14
 -1       940 9.09706E-03 1.12264E-03-3.64054E-14
 -1       941 9.39089E-03 1.26998E-03-3.89840E-14
 -1       942 9.67959E-03 1.41663E-03-4.16493E-14
 -1       943 9.96517E-03 1.56359E-03-4.43959E-14
 -1       944 1.02491E-02 1.71132E-03-4.72200E-14
 -1       945 1.05322E-02 1.85999E-03-5.01124E-14
 -1       946 1.08152E-02 2.00958E-03-5.30642E-14
 -1       947 1.10984E-02 2.16000E-03-5.60796E-14
 -1       948 1.13820E-02 2.31114E-03-5.91497E-14
 -1       949 1.16659E-02 2.46288E-03-6.22716E-14
 -1       950 1.19503E-02 2.61512E-03-6.54380E-14
 -1       951 1.22350E-02 2.76777E-03-6.86473E-14
 -1       952 1.25199E-02 2.92074E-03-7.18978E-14
 -1       953 1.28051E-02 3.07399E-03-7.51970E-14
 -1       954 1.30905E-02 3.22744E-03-7.85338E-14
 -1       955 3.83821E-03 2.80447E-04-7.34733E-15
 -1       956 3.37868E-03 2.20994E-04-5.53349E-15
 -1       957 4.39344E-03 8.38487E-05-9.72894E-15
 -1       958 1.18492E-02 2.55238E-03-5.30438E-14
 -1       959 1.12972E-02 2.24582E-03-4.73240E-14
 -1       960 1.21313E-02 2.70811E-03-5.60430E-14
 -1       961 1.24145E-02 2.86382E-03-5.91100E-14
 -1       962 1.26985E-02 3.01940E-03-6.22354E-14
 -1       963 1.29830E-02 3.17478E-03-6.54127E-14
 -1       964 1.32537E-02 3.32220E-03-6.84716E-14
 -1       965 1.35389E-02 3.47718E-03-7.17306E-14
 -1       966 1.38243E-02 3.63199E-03-7.50271E-14
 -1       967 1.39845E-02 3.71853E-03-7.72559E-14
 -1       968 4.16837E-03 1.55552E-04-8.88999E-15
 -1       969 8.50013E-03 8.57000E-04-2.88391E-14
 -1       970 1.15722E-02 2.39881E-03-5.01509E-14
 -1       971 3.12055E-03 2.05626E-04-4.67357E-15
 -1       972 5.02821E-03-1.77452E-04-1.22499E-14
 -1       973 2.44615E-03 2.45753E-04-2.68491E-15
 -1       974 1.37513E-03-7.75701E-05-1.17404E-15
 -1       975 9.62876E-03 1.31274E-03-2.93685E-14
 -1       976 1.37604E-02 3.59262E-03-8.13145E-14
 -1       977 4.71949E-03-3.60072E-05-1.09540E-14
 -1       978 1.04908E-02 1.79596E-03-3.91889E-14
 -1       979 3.61536E-03 2.46110E-04-6.40869E-15
 -1       980 8.99681E-03 1.09163E-03-2.96936E-14
 -1       981 9.34184E-03 1.22098E-03-2.95399E-14
 -1       982 1.57386E-03-1.44409E-04-1.52498E-15
 -1       983 3.96963E-03 2.15754E-04-8.08876E-15
 -1       984 2.86067E-03 1.95776E-04-3.90559E-15
 -1       985 1.32414E-02 3.31070E-03-7.77887E-14
 -1       986 1.07536E-02 1.94237E-03-4.18237E-14
 -1       987 1.02318E-02 1.65282E-03-3.65947E-14
 -1       988 9.98236E-03 1.51706E-03-3.40799E-14
 -1       989 1.90477E-03 1.51179E-04-1.80041E-15
 -1       990 1.35650E-02 3.48778E-03-7.80820E-14
 -1       991 1.10251E-02 2.09401E-03-4.45619E-14
 -1       992 1.61517E-03 4.11621E-06-1.49612E-15
 -1       993 1.37007E-02 3.56259E-03-7.75464E-14
 -1       994 1.72237E-03 6.23255E-05-1.61314E-15
 -1       995 2.18719E-03-9.80360E-05-2.72054E-15
 -1       996 2.47260E-03-9.58460E-05-3.40505E-15
 -1       997 2.75815E-03-9.06494E-05-4.16628E-15
 -1       998 3.04425E-03-8.26170E-05-5.00338E-15
 -1       999 3.33203E-03-7.20864E-05-5.91720E-15
 -1      1000 3.62346E-03-5.98553E-05-6.90539E-15
 -1      1001 3.92160E-03-4.77404E-05-7.97148E-15
 -1      1002 4.23048E-03-3.91984E-05-9.11436E-15
 -1      1003 9.10894E-03 1.13597E-03-3.46992E-14
 -1      1004 9.40065E-03 1.27752E-03-3.72180E-14
 -1      1005 9.68642E-03 1.41971E-03-3.98251E-14
 -1      1006 9.96901E-03 1.56347E-03-4.25138E-14
 -1      1007 1.02502E-02 1.70912E-03-4.52817E-14
 -1      1008 1.05309E-02 1.85654E-03-4.81238E-14
 -1      1009 1.08120E-02 2.00550E-03-5.10292E-14
 -1      1010 1.10936E-02 2.15569E-03-5.39913E-14
 -1      1011 1.13759E-02 2.30683E-03-5.70144E-14
 -1      1012 1.16589E-02 2.45872E-03-6.00935E-14
 -1      1013 1.19425E-02 2.61116E-03-6.32285E-14
 -1      1014 1.22267E-02 2.76402E-03-6.64054E-14
 -1      1015 1.25112E-02 2.91721E-03-6.96288E-14
 -1      1016 1.27961E-02 3.07063E-03-7.28981E-14
 -1      1017 1.30187E-02 3.19061E-03-7.53336E-14
 -1      1018 9.65306E-03 1.35530E-03-3.15135E-14
 -1      1019 3.72739E-03 1.77036E-04-7.09264E-15
 -1      1020 3.24968E-03 1.55354E-04-5.29149E-15
 -1      1021 1.18584E-02 2.56028E-03-5.51931E-14
 -1      1022 1.27078E-02 3.02469E-03-6.45008E-14
 -1      1023 1.29781E-02 3.17175E-03-6.75450E-14
 -1      1024 1.32630E-02 3.32645E-03-7.07914E-14
 -1      1025 1.35482E-02 3.48107E-03-7.40779E-14
 -1      1026 4.10752E-03 5.09790E-05-8.63342E-15
 -1      1027 9.35825E-03 1.24672E-03-3.17013E-14
 -1      1028 8.88871E-03 1.03937E-03-3.12537E-14
 -1      1029 1.24238E-02 2.86983E-03-6.13421E-14
 -1      1030 1.21406E-02 2.71499E-03-5.82363E-14
 -1      1031 9.74552E-03 1.39116E-03-3.16579E-14
 -1      1032 1.34032E-02 3.39922E-03-7.79394E-14
 -1      1033 2.21907E-03 1.61143E-04-2.40562E-15
 -1      1034 1.61658E-03-4.94972E-05-1.54551E-15
 -1      1035 3.90264E-03 1.21590E-04-7.83653E-15
 -1      1036 1.38426E-02 3.64053E-03-7.74037E-14
 -1      1037 1.90208E-03-9.71185E-05-2.11110E-15
 -1      1038 2.58772E-03 1.88617E-04-3.19230E-15
 -1      1039 1.33916E-02 3.39481E-03-7.49115E-14
 -1      1040 4.55488E-03-4.02160E-05-1.03356E-14
 -1      1041 2.98981E-03 1.40571E-04-4.46685E-15
 -1      1042 1.04907E-02 1.80895E-03-4.10765E-14
 -1      1043 1.02259E-02 1.66619E-03-3.84286E-14
 -1      1044 9.96699E-03 1.52974E-03-3.58608E-14
 -1      1045 1.15811E-02 2.40787E-03-5.22527E-14
 -1      1046 9.26373E-03 1.21265E-03-3.33192E-14
 -1      1047 1.13056E-02 2.25616E-03-4.93782E-14
 -1      1048 1.10323E-02 2.10568E-03-4.65662E-14
 -1      1049 1.32298E-02 3.30638E-03-7.47726E-14
 -1      1050 3.48854E-03 1.63051E-04-6.15903E-15
 -1      1051 1.89726E-03-3.91025E-05-2.05345E-15
 -1      1052 2.03725E-03 7.00927E-05-2.19720E-15
 -1      1053 9.71646E-03 1.40210E-03-3.33964E-14
 -1      1054 1.96587E-03 1.52077E-05-2.13037E-15
 -1      1055 2.60438E-03-2.39493E-05-3.67040E-15
 -1      1056 2.88653E-03-1.53705E-05-4.45275E-15
 -1      1057 3.16825E-03-3.29205E-06-5.30976E-15
 -1      1058 3.45059E-03 1.24271E-05-6.24203E-15
 -1      1059 3.73587E-03 3.13760E-05-7.24886E-15
 -1      1060 9.41923E-03 1.28671E-03-3.54703E-14
 -1      1061 9.69907E-03 1.42307E-03-3.80167E-14
 -1      1062 9.97663E-03 1.56280E-03-4.06512E-14
 -1      1063 1.02536E-02 1.70592E-03-4.33618E-14
 -1      1064 1.05312E-02 1.85195E-03-4.61502E-14
 -1      1065 1.08096E-02 2.00023E-03-4.90073E-14
 -1      1066 1.10894E-02 2.15025E-03-5.19241E-14
 -1      1067 1.13702E-02 2.30153E-03-5.48964E-14
 -1      1068 1.16521E-02 2.45369E-03-5.79328E-14
 -1      1069 1.19349E-02 2.60648E-03-6.10253E-14
 -1      1070 1.22185E-02 2.75970E-03-6.41706E-14
 -1      1071 1.25026E-02 2.91320E-03-6.73640E-14
 -1      1072 1.27873E-02 3.06690E-03-7.06032E-14
 -1      1073 1.29872E-02 3.17614E-03-6.98407E-14
 -1      1074 1.27169E-02 3.02954E-03-6.67703E-14
 -1      1075 9.68634E-03 1.40467E-03-3.51429E-14
 -1      1076 1.07596E-02 1.95577E-03-4.37878E-14
 -1      1077 1.31243E-02 3.24850E-03-7.50558E-14
 -1      1078 3.60412E-03 1.03435E-04-6.70039E-15
 -1      1079 1.24327E-02 2.87527E-03-6.35798E-14
 -1      1080 2.32142E-03-2.95974E-05-2.96413E-15
 -1      1081 2.40697E-03 9.73635E-05-2.96903E-15
 -1      1082 1.04888E-02 1.81884E-03-4.29902E-14
 -1      1083 2.70106E-03 1.17629E-04-3.68004E-15
 -1      1084 1.21492E-02 2.72112E-03-6.04426E-14
 -1      1085 1.02181E-02 1.67531E-03-4.02910E-14
 -1      1086 3.12740E-03 8.43294E-05-5.04225E-15
 -1      1087 1.29557E-02 3.15771E-03-7.28220E-14
 -1      1088 9.95084E-03 1.53691E-03-3.76751E-14
 -1      1089 1.15869E-02 2.41471E-03-5.43554E-14
 -1      1090 1.18675E-02 2.56770E-03-5.73674E-14
 -1      1091 1.13103E-02 2.26388E-03-5.14337E-14
 -1      1092 1.10355E-02 2.11418E-03-4.85702E-14
 -1      1093 3.36535E-03 9.19504E-05-5.84161E-15
 -1      1094 2.73722E-03 4.75918E-05-3.92538E-15
 -1      1095 1.07609E-02 1.96523E-03-4.57501E-14
 -1      1096 2.33616E-03 4.07245E-05-2.90198E-15
 -1      1097 0.00000E+00 0.00000E+00 0.00000E+00
 -1      1098 0.00000E+00 0.00000E+00 0.00000E+00
 -1      1099 0.00000E+00 0.00000E+00 0.00000E+00
 -1      1100 0.00000E+00 0.00000E+00 0.00000E+00
 -1      1101 0.00000E+00 0.00000E+00 0.00000E+00
 -1      1102 0.00000E+00 0.00000E+00 0.00000E+00
 -1      1103 0.00000E+00 0.00000E+00 0.00000E+00
 -1      1104 0.00000E+00 0.00000E+00 0.00000E+00
 -1      1105 0.00000E+00 0.00000E+00 0.00000E+00
 -1      1106 0.00000E+00 0.00000E+00 0.00000E+00
 -1      1107 0.00000E+00 0.00000E+00 0.00000E+00
 -1      1108 0.00000E+00 0.00000E+00 0.00000E+00
 -1      1109 0.00000E+00 0.00000E+00 0.00000E+00
 -1      1110 0.00000E+00 0.00000E+00 0.00000E+00
 -1      1111 0.00000E+00 0.00000E+00 0.00000E+00
 -1      1112 0.00000E+00 0.00000E+00 0.00000E+00
 -1      1113 0.00000E+00 0.00000E+00 0.00000E+00
 -1      1114 2.10957E-04-1.47518E-04-3.14419E-18
 -1      1115 5.50275E-04-3.34578E-04-7.56367E-17
 -1      1116 8.32269E-04-4.53574E-04-2.41872E-16
 -1      1117 1.10269E-03-5.32579E-04-5.14589E-16
 -1      1118 1.36965E-03-5.87016E-04-8.86796E-16
 -1      1119 1.63687E-03-6.24848E-04-1.35517E-15
 -1      1120 1.90637E-03-6.50868E-04-1.91725E-15
 -1      1121 2.17921E-03-6.68448E-04-2.56938E-15
 -1      1122 2.45585E-03-6.80255E-04-3.31159E-15
 -1      1123 2.73637E-03-6.88538E-04-4.14289E-15
 -1      1124 3.02053E-03-6.95261E-04-5.06337E-15
 -1      1125 3.30770E-03-7.02139E-04-6.06878E-15
 -1      1126 3.59683E-03-7.10584E-04-7.15533E-15
 -1      1127 3.88635E-03-7.21534E-04-8.32693E-15
 -1      1128 4.17415E-03-7.35168E-04-9.58221E-15
 -1      1129 4.45766E-03-7.50526E-04-1.09265E-14
 -1      1130 4.73412E-03-7.65128E-04-1.23591E-14
 -1      1131 5.00115E-03-7.74765E-04-1.38758E-14
 -1      1132 5.25737E-03-7.73683E-04-1.54767E-14
 -1      1133 5.50310E-03-7.55328E-04-1.71605E-14
 -1      1134 5.74070E-03-7.13629E-04-1.89310E-14
 -1      1135 5.97438E-03-6.44485E-04-2.07898E-14
 -1      1136 6.20929E-03-5.46894E-04-2.27436E-14
 -1      1137 6.45034E-03-4.23249E-04-2.48029E-14
 -1      1138 6.70107E-03-2.78653E-04-2.69618E-14
 -1      1139 6.96305E-03-1.19571E-04-2.92172E-14
 -1      1140 7.23595E-03 4.76149E-05-3.15635E-14
 -1      1141 7.51800E-03 2.17668E-04-3.39962E-14
 -1      1142 7.80679E-03 3.86973E-04-3.65236E-14
 -1      1143 8.09980E-03 5.53511E-04-3.91453E-14
 -1      1144 8.39490E-03 7.16523E-04-4.18610E-14
 -1      1145 8.69045E-03 8.76090E-04-4.46657E-14
 -1      1146 8.98540E-03 1.03275E-03-4.75614E-14
 -1      1147 9.27916E-03 1.18720E-03-5.05400E-14
 -1      1148 9.57147E-03 1.34015E-03-5.35862E-14
 -1      1149 9.86235E-03 1.49220E-03-5.66925E-14
 -1      1150 1.01519E-02 1.64381E-03-5.98391E-14
 -1      1151 1.04404E-02 1.79531E-03-6.30224E-14
 -1      1152 1.07279E-02 1.94692E-03-6.62358E-14
 -1      1153 1.10148E-02 2.09877E-03-6.94922E-14
 -1      1154 1.13012E-02 2.25092E-03-7.27915E-14
 -1      1155 1.15872E-02 2.40338E-03-7.61439E-14
 -1      1156 1.18730E-02 2.55614E-03-7.95478E-14
 -1      1157 1.21587E-02 2.70917E-03-8.30046E-14
 -1      1158 1.24443E-02 2.86242E-03-8.65074E-14
 -1      1159 1.27299E-02 3.01585E-03-9.00347E-14
 -1      1160 1.30155E-02 3.16941E-03-9.35829E-14
 -1      1161 1.33011E-02 3.32305E-03-9.71408E-14
 -1      1162 1.35868E-02 3.47672E-03-1.00707E-13
 -1      1163 1.38654E-02 3.62655E-03-1.04202E-13
 -1      1164 2.02226E-04 1.42307E-04 3.30004E-17
 -1      1165 5.35379E-04 3.27388E-04 7.53114E-17
 -1      1166 8.18067E-04 4.48320E-04 7.12321E-17
 -1      1167 1.08861E-03 5.28206E-04 6.50521E-18
 -1      1168 1.35555E-03 5.82655E-04-1.21417E-16
 -1      1169 1.61612E-03 6.18901E-04-3.09391E-16
 -1      1170 1.87921E-03 6.42893E-04-5.63555E-16
 -1      1171 2.15319E-03 6.57814E-04-8.96351E-16
 -1      1172 2.43266E-03 6.65267E-04-1.30211E-15
 -1      1173 2.71906E-03 6.67198E-04-1.78218E-15
 -1      1174 3.00678E-03 6.65513E-04-2.32030E-15
 -1      1175 3.30542E-03 6.62216E-04-2.92790E-15
 -1      1176 3.62678E-03 6.60003E-04-3.62441E-15
 -1      1177 3.96874E-03 6.63639E-04-4.39522E-15
 -1      1178 4.33826E-03 6.81394E-04-5.24025E-15
 -1      1179 4.74312E-03 7.27814E-04-6.15548E-15
 -1      1180 5.17734E-03 8.23424E-04-7.11520E-15
 -1      1181 5.64737E-03 1.00002E-03-8.13752E-15
 -1      1182 6.14251E-03 1.29333E-03-9.24998E-15
 -1      1183 6.59727E-03 1.68612E-03-1.04393E-14
 -1      1184 6.93702E-03 2.05655E-03-1.16549E-14
 -1      1185 7.16244E-03 2.26011E-03-1.28332E-14
 -1      1186 7.37156E-03 2.26556E-03-1.41121E-14
 -1      1187 7.64478E-03 2.09958E-03-1.55390E-14
 -1      1188 8.01669E-03 1.86616E-03-1.71221E-14
 -1      1189 8.48748E-03 1.66869E-03-1.89546E-14
 -1      1190 8.98335E-03 1.57984E-03-2.09505E-14
 -1      1191 9.45207E-03 1.59431E-03-2.30598E-14
 -1      1192 9.88037E-03 1.67802E-03-2.52646E-14
 -1      1193 1.02612E-02 1.79837E-03-2.74977E-14
 -1      1194 1.06128E-02 1.93906E-03-2.98209E-14
 -1      1195 1.09508E-02 2.09395E-03-3.22890E-14
 -1      1196 1.12724E-02 2.25368E-03-3.48339E-14
 -1      1197 1.15825E-02 2.41517E-03-3.74496E-14
 -1      1198 1.18772E-02 2.57284E-03-4.00439E-14
 -1      1199 1.21666E-02 2.73003E-03-4.26817E-14
 -1      1200 1.24597E-02 2.89047E-03-4.54486E-14
 -1      1201 1.27501E-02 3.05001E-03-4.82968E-14
 -1      1202 1.30388E-02 3.20868E-03-5.12170E-14
 -1      1203 1.33263E-02 3.36654E-03-5.42050E-14
 -1      1204 1.36059E-02 3.51978E-03-5.71890E-14
 -1      1205 1.38849E-02 3.67244E-03-6.02403E-14
 -1      1206 1.41708E-02 3.82851E-03-6.34403E-14
 -1      1207 1.44564E-02 3.98416E-03-6.66875E-14
 -1      1208 1.47420E-02 4.13947E-03-6.99530E-14
 -1      1209 1.50204E-02 4.29063E-03-7.31680E-14
 -1      1210 1.52988E-02 4.44161E-03-7.64164E-14
 -1      1211 1.55844E-02 4.59632E-03-7.97633E-14
 -1      1212 1.58700E-02 4.75095E-03-8.31379E-14
 -1      1213 1.61557E-02 4.90553E-03-8.65348E-14
 -1      1214 1.64342E-02 5.05627E-03-8.98701E-14
 -1      1215 1.64939E-02 5.08756E-03-9.19195E-14
 -1      1216 1.63419E-02 5.00327E-03-9.27293E-14
 -1      1217 1.61898E-02 4.91894E-03-9.35090E-14
 -1      1218 1.60378E-02 4.83457E-03-9.43052E-14
 -1      1219 1.58858E-02 4.75016E-03-9.51222E-14
 -1      1220 1.57352E-02 4.66645E-03-9.59490E-14
 -1      1221 1.55847E-02 4.58273E-03-9.68252E-14
 -1      1222 1.54330E-02 4.49830E-03-9.77089E-14
 -1      1223 1.52814E-02 4.41387E-03-9.85694E-14
 -1      1224 1.51299E-02 4.32944E-03-9.94395E-14
 -1      1225 1.49785E-02 4.24501E-03-1.00326E-13
 -1      1226 1.48285E-02 4.16131E-03-1.01218E-13
 -1      1227 1.46785E-02 4.07762E-03-1.02127E-13
 -1      1228 1.45273E-02 3.99324E-03-1.03015E-13
 -1      1229 1.43762E-02 3.90888E-03-1.03869E-13
 -1      1230 1.42252E-02 3.82455E-03-1.04699E-13
 -1      1231 1.40754E-02 3.74097E-03-1.05515E-13
 -1      1232 9.27597E-03 1.01826E-03-1.99241E-14
 -1      1233 9.23313E-03 1.17543E-03-1.94795E-14
 -1      1234 9.06999E-03 1.34895E-03-1.88666E-14
 -1      1235 8.79579E-03 1.53608E-03-1.81167E-14
 -1      1236 8.42695E-03 1.72701E-03-1.72770E-14
 -1      1237 7.96934E-03 1.89857E-03-1.63704E-14
 -1      1238 7.45707E-03 2.00389E-03-1.54705E-14
 -1      1239 6.93993E-03 2.00937E-03-1.46624E-14
 -1      1240 6.41507E-03 1.90593E-03-1.39335E-14
 -1      1241 5.86742E-03 1.69789E-03-1.32635E-14
 -1      1242 5.37544E-03 1.44671E-03-1.27520E-14
 -1      1243 4.97127E-03 1.19886E-03-1.24196E-14
 -1      1244 4.66004E-03 9.70970E-04-1.22504E-14
 -1      1245 4.46581E-03 7.77714E-04-1.22457E-14
 -1      1246 4.38919E-03 6.13427E-04-1.23881E-14
 -1      1247 4.42357E-03 4.64786E-04-1.26689E-14
 -1      1248 4.56020E-03 3.26036E-04-1.30749E-14
 -1      1249 4.78791E-03 1.93957E-04-1.35953E-14
 -1      1250 5.09091E-03 7.14308E-05-1.42215E-14
 -1      1251 5.43756E-03-2.91651E-05-1.49107E-14
 -1      1252 5.84543E-03-1.03807E-04-1.57099E-14
 -1      1253 6.28508E-03-1.36022E-04-1.65551E-14
 -1      1254 6.72177E-03-1.15843E-04-1.73651E-14
 -1      1255 7.17715E-03-4.22069E-05-1.81580E-14
 -1      1256 7.62248E-03 7.39846E-05-1.88624E-14
 -1      1257 8.05328E-03 2.23874E-04-1.94602E-14
 -1      1258 8.45990E-03 3.95172E-04-1.99244E-14
 -1      1259 8.79366E-03 5.62470E-04-2.01944E-14
 -1      1260 9.04571E-03 7.19898E-04-2.02786E-14
 -1      1261 9.21005E-03 8.70291E-04-2.01884E-14
 -1      1262 1.66446E-04-1.09610E-04-1.64934E-17
 -1      1263 1.12662E-04-5.62506E-05-2.81350E-17
 -1      1264 1.17661E-04-6.69204E-05-2.47063E-17
 -1      1265 1.08591E-04-4.26385E-05-3.32443E-17
 -1      1266 1.10435E-04-4.87978E-05-3.19704E-17
 -1      1267 2.26645E-04-1.06002E-04-7.57586E-17
 -1      1268 1.07003E-04-3.27105E-05-3.49791E-17
 -1      1269 1.07862E-04-3.74442E-05-3.46132E-17
 -1      1270 2.19465E-04-8.06816E-05-8.38088E-17
 -1      1271 1.06166E-04-2.44793E-05-3.51688E-17
 -1      1272 1.06631E-04-2.84745E-05-3.53179E-17
 -1      1273 2.16160E-04-6.14651E-05-8.64245E-17
 -1      1274 1.05689E-04-1.73569E-05-3.45183E-17
 -1      1275 1.05954E-04-2.08442E-05-3.48435E-17
 -1      1276 2.14341E-04-4.55157E-05-8.61399E-17
 -1      1277 1.05406E-04-1.07313E-05-3.33934E-17
 -1      1278 1.05560E-04-1.39946E-05-3.37729E-17
 -1      1279 2.13258E-04-3.14067E-05-8.40799E-17
 -1      1280 1.05267E-04-4.47764E-06-3.19298E-17
 -1      1281 1.05337E-04-7.57895E-06-3.24041E-17
 -1      1282 2.12625E-04-1.83301E-05-8.11932E-17
 -1      1283 1.05249E-04 1.61664E-06-3.01137E-17
 -1      1284 1.05247E-04-1.42894E-06-3.06152E-17
 -1      1285 2.12332E-04-5.90645E-06-7.74120E-17
 -1      1286 1.05351E-04 7.75402E-06-2.78233E-17
 -1      1287 1.05275E-04 4.66109E-06-2.84603E-17
 -1      1288 2.12340E-04 6.29328E-06-7.26958E-17
 -1      1289 1.05588E-04 1.41467E-05-2.50586E-17
 -1      1290 1.05427E-04 1.08959E-05-2.58989E-17
 -1      1291 2.12652E-04 1.86838E-05-6.69224E-17
 -1      1292 1.05996E-04 2.09150E-05-2.15756E-17
 -1      1293 1.05722E-04 1.74406E-05-2.26734E-17
 -1      1294 2.13307E-04 3.15963E-05-5.99835E-17
 -1      1295 1.06692E-04 2.86032E-05-1.72253E-17
 -1      1296 1.06218E-04 2.46085E-05-1.87025E-17
 -1      1297 2.14421E-04 4.56545E-05-5.13776E-17
 -1      1298 1.07935E-04 3.75970E-05-1.14248E-17
 -1      1299 1.07068E-04 3.28484E-05-1.35661E-17
 -1      1300 2.16290E-04 6.17299E-05-4.05356E-17
 -1      1301 1.10520E-04 4.90159E-05-3.45589E-18
 -1      1302 1.08664E-04 4.28216E-05-6.85758E-18
 -1      1303 2.19625E-04 8.10127E-05-2.64274E-17
 -1      1304 1.17772E-04 6.72369E-05 8.05020E-18
 -1      1305 1.12729E-04 5.65172E-05 2.75116E-18
 -1      1306 2.26831E-04 1.06503E-04-7.49455E-18
 -1      1307 1.58847E-04 1.04951E-04 2.23617E-17
 -1      1308 4.21010E-04-2.59400E-04-7.46880E-17
 -1      1309 5.74125E-04-3.33233E-04-1.32896E-16
 -1      1310 7.21470E-04-3.92550E-04-2.19822E-16
 -1      1311 8.64934E-04-4.40512E-04-3.32715E-16
 -1      1312 6.12278E-04-3.26636E-04-1.96471E-16
 -1      1313 1.00541E-03-4.80205E-04-4.69636E-16
 -1      1314 1.14386E-03-5.12778E-04-6.31114E-16
 -1      1315 9.06183E-04-4.24607E-04-4.24086E-16
 -1      1316 1.28113E-03-5.40095E-04-8.16851E-16
 -1      1317 1.41775E-03-5.62651E-04-1.02667E-15
 -1      1318 1.18983E-03-4.91115E-04-7.47923E-16
 -1      1319 1.55417E-03-5.81515E-04-1.25965E-15
 -1      1320 1.69067E-03-5.97044E-04-1.51604E-15
 -1      1321 1.46863E-03-5.36831E-04-1.16576E-15
 -1      1322 1.82750E-03-6.09887E-04-1.79525E-15
 -1      1323 1.96480E-03-6.20368E-04-2.09681E-15
 -1      1324 1.74596E-03-5.68029E-04-1.67527E-15
 -1      1325 2.10272E-03-6.28930E-04-2.42071E-15
 -1      1326 2.24130E-03-6.35867E-04-2.76729E-15
 -1      1327 2.02384E-03-5.88880E-04-2.27501E-15
 -1      1328 2.38063E-03-6.41519E-04-3.13596E-15
 -1      1329 2.52071E-03-6.46148E-04-3.52661E-15
 -1      1330 2.30337E-03-6.02517E-04-2.96323E-15
 -1      1331 2.66157E-03-6.50040E-04-3.93938E-15
 -1      1332 2.80317E-03-6.53427E-04-4.37383E-15
 -1      1333 2.58511E-03-6.11485E-04-3.73926E-15
 -1      1334 2.94548E-03-6.56565E-04-4.83008E-15
 -1      1335 3.08845E-03-6.59650E-04-5.30851E-15
 -1      1336 2.86923E-03-6.17966E-04-4.60158E-15
 -1      1337 3.23199E-03-6.62918E-04-5.80676E-15
 -1      1338 3.37599E-03-6.66519E-04-6.32528E-15
 -1      1339 3.15558E-03-6.23889E-04-5.54872E-15
 -1      1340 3.52032E-03-6.70654E-04-6.86545E-15
 -1      1341 3.66482E-03-6.75407E-04-7.42599E-15
 -1      1342 3.44368E-03-6.30929E-04-6.57901E-15
 -1      1343 3.80929E-03-6.80916E-04-8.00780E-15
 -1      1344 3.95353E-03-6.87164E-04-8.61069E-15
 -1      1345 3.73267E-03-6.40408E-04-7.69338E-15
 -1      1346 4.09728E-03-6.94174E-04-9.23437E-15
 -1      1347 4.24030E-03-7.01786E-04-9.87956E-15
 -1      1348 4.02138E-03-6.53053E-04-8.89057E-15
 -1      1349 4.38229E-03-7.09844E-04-1.05465E-14
 -1      1350 4.52300E-03-7.18005E-04-1.12360E-14
 -1      1351 4.30826E-03-6.68638E-04-1.01719E-14
 -1      1352 4.66215E-03-7.25872E-04-1.19469E-14
 -1      1353 4.79951E-03-7.32904E-04-1.26789E-14
 -1      1354 4.59156E-03-6.85541E-04-1.15401E-14
 -1      1355 4.93489E-03-7.38435E-04-1.34321E-14
 -1      1356 5.06815E-03-7.41751E-04-1.42060E-14
 -1      1357 4.86960E-03-7.00370E-04-1.29940E-14
 -1      1358 5.19924E-03-7.41975E-04-1.50014E-14
 -1      1359 5.32819E-03-7.38308E-04-1.58180E-14
 -1      1360 5.14111E-03-7.07873E-04-1.45318E-14
 -1      1361 5.45515E-03-7.29812E-04-1.66559E-14
 -1      1362 5.58034E-03-7.15750E-04-1.75150E-14
 -1      1363 5.40571E-03-7.01381E-04-1.61551E-14
 -1      1364 5.70411E-03-6.95347E-04-1.83954E-14
 -1      1365 5.82687E-03-6.68109E-04-1.92996E-14
 -1      1366 5.66423E-03-6.73908E-04-1.78653E-14
 -1      1367 5.94912E-03-6.33638E-04-2.02257E-14
 -1      1368 6.07134E-03-5.91816E-04-2.11737E-14
 -1      1369 5.91882E-03-6.19742E-04-1.96636E-14
 -1      1370 6.19408E-03-5.42748E-04-2.21490E-14
 -1      1371 6.31781E-03-4.86725E-04-2.31492E-14
 -1      1372 6.17255E-03-5.35992E-04-2.15580E-14
 -1      1373 6.44298E-03-4.24321E-04-2.41733E-14
 -1      1374 6.56992E-03-3.56157E-04-2.52238E-14
 -1      1375 6.42875E-03-4.23444E-04-2.35484E-14
 -1      1376 6.69892E-03-2.83101E-04-2.62991E-14
 -1      1377 6.83012E-03-2.05943E-04-2.73982E-14
 -1      1378 6.69019E-03-2.86326E-04-2.56414E-14
 -1      1379 6.96359E-03-1.25615E-04-2.85215E-14
 -1      1380 7.09931E-03-4.29060E-05-2.96673E-14
 -1      1381 6.95853E-03-1.31090E-04-2.78307E-14
 -1      1382 7.23715E-03 4.13839E-05-3.08357E-14
 -1      1383 7.37696E-03 1.26591E-04-3.20254E-14
 -1      1384 7.23412E-03 3.52249E-05-3.01138E-14
 -1      1385 7.51853E-03 2.12155E-04-3.32379E-14
 -1      1386 7.66160E-03 2.97597E-04-3.44739E-14
 -1      1387 7.51627E-03 2.06405E-04-3.24850E-14
 -1      1388 7.80593E-03 3.82611E-04-3.57324E-14
 -1      1389 7.95127E-03 4.66901E-04-3.70148E-14
 -1      1390 7.80359E-03 3.77864E-04-3.49471E-14
 -1      1391 8.09737E-03 5.50369E-04-3.83217E-14
 -1      1392 8.24402E-03 6.32874E-04-3.96502E-14
 -1      1393 8.09446E-03 5.46820E-04-3.75015E-14
 -1      1394 8.39102E-03 7.14454E-04-4.10032E-14
 -1      1395 8.53821E-03 7.95072E-04-4.23789E-14
 -1      1396 8.38736E-03 7.12026E-04-4.01512E-14
 -1      1397 8.68544E-03 8.74843E-04-4.37766E-14
 -1      1398 8.83260E-03 9.53792E-04-4.51949E-14
 -1      1399 8.68103E-03 8.73321E-04-4.28909E-14
 -1      1400 8.97960E-03 1.03206E-03-4.66358E-14
 -1      1401 9.12638E-03 1.10969E-03-4.80985E-14
 -1      1402 8.97457E-03 1.03118E-03-4.57181E-14
 -1      1403 9.27289E-03 1.18683E-03-4.95802E-14
 -1      1404 9.41910E-03 1.26353E-03-5.10792E-14
 -1      1405 9.26741E-03 1.18635E-03-4.86272E-14
 -1      1406 9.56500E-03 1.33991E-03-5.25962E-14
 -1      1407 9.71058E-03 1.41603E-03-5.41281E-14
 -1      1408 9.55924E-03 1.33963E-03-5.16125E-14
 -1      1409 9.85586E-03 1.49196E-03-5.56728E-14
 -1      1410 1.00008E-02 1.56776E-03-5.72295E-14
 -1      1411 9.84997E-03 1.49172E-03-5.46616E-14
 -1      1412 1.01455E-02 1.64349E-03-5.87990E-14
 -1      1413 1.02900E-02 1.71917E-03-6.03769E-14
 -1      1414 1.01396E-02 1.64320E-03-5.77640E-14
 -1      1415 1.04342E-02 1.79486E-03-6.19634E-14
 -1      1416 1.05782E-02 1.87057E-03-6.35608E-14
 -1      1417 1.04283E-02 1.79446E-03-6.09119E-14
 -1      1418 1.07220E-02 1.94632E-03-6.51649E-14
 -1      1419 1.08656E-02 2.02214E-03-6.67773E-14
 -1      1420 1.07162E-02 1.94578E-03-6.40954E-14
 -1      1421 1.10091E-02 2.09803E-03-6.84033E-14
 -1      1422 1.11524E-02 2.17400E-03-7.00394E-14
 -1      1423 1.10035E-02 2.09734E-03-6.73183E-14
 -1      1424 1.12956E-02 2.25004E-03-7.16852E-14
 -1      1425 1.14388E-02 2.32618E-03-7.33445E-14
 -1      1426 1.12902E-02 2.24922E-03-7.05823E-14
 -1      1427 1.15819E-02 2.40239E-03-7.50174E-14
 -1      1428 1.17249E-02 2.47868E-03-7.67018E-14
 -1      1429 1.15765E-02 2.40144E-03-7.38941E-14
 -1      1430 1.18678E-02 2.55505E-03-7.83985E-14
 -1      1431 1.20107E-02 2.63149E-03-8.01088E-14
 -1      1432 1.18626E-02 2.55400E-03-7.72548E-14
 -1      1433 1.21536E-02 2.70800E-03-8.18320E-14
 -1      1434 1.22965E-02 2.78457E-03-8.35651E-14
 -1      1435 1.21485E-02 2.70686E-03-8.06649E-14
 -1      1436 1.24393E-02 2.86119E-03-8.53077E-14
 -1      1437 1.25821E-02 2.93786E-03-8.70596E-14
 -1      1438 1.24343E-02 2.85999E-03-8.41187E-14
 -1      1439 1.27250E-02 3.01458E-03-8.88184E-14
 -1      1440 1.28678E-02 3.09133E-03-9.05814E-14
 -1      1441 1.27200E-02 3.01332E-03-8.76080E-14
 -1      1442 1.30106E-02 3.16811E-03-9.23502E-14
 -1      1443 1.31534E-02 3.24492E-03-9.41239E-14
 -1      1444 1.30057E-02 3.16682E-03-9.11253E-14
 -1      1445 1.32963E-02 3.32174E-03-9.59017E-14
 -1      1446 1.34391E-02 3.39857E-03-9.76797E-14
 -1      1447 1.32913E-02 3.32043E-03-9.46649E-14
 -1      1448 1.35819E-02 3.47542E-03-9.94623E-14
 -1      1449 1.37248E-02 3.55226E-03-1.01248E-13
 -1      1450 1.35770E-02 3.47411E-03-9.82179E-14
 -1      1451 1.39396E-02 3.66798E-03-1.03804E-13
 -1      1452 1.39347E-02 3.66668E-03-1.02551E-13
 -1      1453 5.58955E-04 3.26600E-04 4.94125E-17
 -1      1454 4.05350E-04 2.51387E-04 4.50486E-17
 -1      1455 8.50463E-04 4.35562E-04 1.56803E-17
 -1      1456 7.06700E-04 3.86900E-04 3.96140E-17
 -1      1457 5.97295E-04 3.20610E-04 1.56396E-17
 -1      1458 1.12974E-03 5.08471E-04-7.73714E-17
 -1      1459 9.91137E-04 4.75687E-04-2.29173E-17
 -1      1460 8.91732E-04 4.19866E-04-4.57398E-17
 -1      1461 1.40389E-03 5.58150E-04-2.33740E-16
 -1      1462 1.26714E-03 5.35795E-04-1.47506E-16
 -1      1463 1.17581E-03 4.86808E-04-1.67076E-16
 -1      1464 1.66356E-03 5.90088E-04-4.44401E-16
 -1      1465 1.53366E-03 5.75742E-04-3.31142E-16
 -1      1466 1.44812E-03 5.31167E-04-3.47053E-16
 -1      1467 1.93859E-03 6.11742E-04-7.34994E-16
 -1      1468 1.80075E-03 6.02263E-04-5.80807E-16
 -1      1469 1.71922E-03 5.60697E-04-5.91378E-16
 -1      1470 2.21704E-03 6.24018E-04-1.09733E-15
 -1      1471 2.07730E-03 6.18893E-04-9.07044E-16
 -1      1472 1.99839E-03 5.79422E-04-9.12166E-16
 -1      1473 2.50036E-03 6.29161E-04-1.53350E-15
 -1      1474 2.35801E-03 6.27341E-04-1.30610E-15
 -1      1475 2.28034E-03 5.89208E-04-1.30489E-15
 -1      1476 2.79008E-03 6.29024E-04-2.04269E-15
 -1      1477 2.64432E-03 6.29613E-04-1.77919E-15
 -1      1478 2.56649E-03 5.92180E-04-1.77053E-15
 -1      1479 3.07297E-03 6.25612E-04-2.59505E-15
 -1      1480 2.93046E-03 6.27579E-04-2.31054E-15
 -1      1481 2.85091E-03 5.90214E-04-2.29568E-15
 -1      1482 3.38126E-03 6.20590E-04-3.24694E-15
 -1      1483 3.22558E-03 6.23082E-04-2.91202E-15
 -1      1484 3.14228E-03 5.85071E-04-2.89037E-15
 -1      1485 3.70372E-03 6.17108E-04-3.97462E-15
 -1      1486 3.54046E-03 6.18342E-04-3.60150E-15
 -1      1487 3.45044E-03 5.78625E-04-3.57338E-15
 -1      1488 4.04483E-03 6.20365E-04-4.77472E-15
 -1      1489 3.87162E-03 6.17388E-04-4.36545E-15
 -1      1490 3.77076E-03 5.74314E-04-4.33007E-15
 -1      1491 4.40985E-03 6.39687E-04-5.64783E-15
 -1      1492 4.22400E-03 6.27178E-04-5.20254E-15
 -1      1493 4.10659E-03 5.78010E-04-5.16002E-15
 -1      1494 4.80388E-03 6.91592E-04-6.59115E-15
 -1      1495 4.60298E-03 6.60192E-04-6.11094E-15
 -1      1496 4.46170E-03 6.00361E-04-6.06172E-15
 -1      1497 5.20736E-03 7.95457E-04-7.55200E-15
 -1      1498 5.00216E-03 7.35047E-04-7.06295E-15
 -1      1499 4.83013E-03 6.57863E-04-7.00824E-15
 -1      1500 5.65840E-03 9.96939E-04-8.62598E-15
 -1      1501 5.43037E-03 8.82169E-04-8.08076E-15
 -1      1502 5.22320E-03 7.78288E-04-8.01933E-15
 -1      1503 6.11852E-03 1.32016E-03-9.77262E-15
 -1      1504 5.88953E-03 1.14303E-03-9.19001E-15
 -1      1505 5.65220E-03 1.00402E-03-9.12451E-15
 -1      1506 6.55365E-03 1.73649E-03-1.10020E-14
 -1      1507 6.34229E-03 1.52247E-03-1.03763E-14
 -1      1508 6.09952E-03 1.35612E-03-1.03054E-14
 -1      1509 6.89569E-03 2.08245E-03-1.21947E-14
 -1      1510 6.73125E-03 1.92335E-03-1.15870E-14
 -1      1511 6.52030E-03 1.76709E-03-1.15088E-14
 -1      1512 7.16368E-03 2.24570E-03-1.33401E-14
 -1      1513 7.03156E-03 2.18810E-03-1.27573E-14
 -1      1514 6.87345E-03 2.08442E-03-1.26686E-14
 -1      1515 7.46370E-03 2.20288E-03-1.47301E-14
 -1      1516 7.30913E-03 2.25297E-03-1.40211E-14
 -1      1517 7.20522E-03 2.21849E-03-1.39198E-14
 -1      1518 7.78727E-03 2.00230E-03-1.61498E-14
 -1      1519 7.61936E-03 2.11363E-03-1.54267E-14
 -1      1520 7.55373E-03 2.12229E-03-1.53098E-14
 -1      1521 8.19999E-03 1.74793E-03-1.78552E-14
 -1      1522 7.98863E-03 1.86984E-03-1.69878E-14
 -1      1523 7.94074E-03 1.88004E-03-1.68491E-14
 -1      1524 8.66137E-03 1.56980E-03-1.97684E-14
 -1      1525 8.43017E-03 1.64371E-03-1.87971E-14
 -1      1526 8.37886E-03 1.62876E-03-1.86360E-14
 -1      1527 9.11534E-03 1.51423E-03-2.17989E-14
 -1      1528 8.89093E-03 1.52764E-03-2.07707E-14
 -1      1529 8.82115E-03 1.48466E-03-2.05870E-14
 -1      1530 9.54355E-03 1.55480E-03-2.39380E-14
 -1      1531 9.33334E-03 1.52471E-03-2.28551E-14
 -1      1532 9.24059E-03 1.46145E-03-2.26519E-14
 -1      1533 9.94066E-03 1.65582E-03-2.61671E-14
 -1      1534 9.74592E-03 1.59971E-03-2.50427E-14
 -1      1535 9.63390E-03 1.52494E-03-2.48175E-14
 -1      1536 1.02916E-02 1.78277E-03-2.83699E-14
 -1      1537 1.01191E-02 1.71664E-03-2.72572E-14
 -1      1538 9.99397E-03 1.63667E-03-2.70173E-14
 -1      1539 1.06385E-02 1.93318E-03-3.07782E-14
 -1      1540 1.04676E-02 1.85655E-03-2.95627E-14
 -1      1541 1.03344E-02 1.77474E-03-2.93022E-14
 -1      1542 1.09675E-02 2.09174E-03-3.32634E-14
 -1      1543 1.08049E-02 2.01187E-03-3.20101E-14
 -1      1544 1.06671E-02 1.92993E-03-3.17313E-14
 -1      1545 1.12836E-02 2.25358E-03-3.58316E-14
 -1      1546 1.11269E-02 2.17249E-03-3.45398E-14
 -1      1547 1.09869E-02 2.09118E-03-3.42423E-14
 -1      1548 1.15904E-02 2.41626E-03-3.84575E-14
 -1      1549 1.14380E-02 2.33494E-03-3.71367E-14
 -1      1550 1.12970E-02 2.25450E-03-3.68264E-14
 -1      1551 1.18756E-02 2.57050E-03-4.09992E-14
 -1      1552 1.17336E-02 2.49348E-03-3.97240E-14
 -1      1553 1.15925E-02 2.41389E-03-3.94003E-14
 -1      1554 1.21714E-02 2.73207E-03-4.37265E-14
 -1      1555 1.20240E-02 2.65142E-03-4.23566E-14
 -1      1556 1.18830E-02 2.57259E-03-4.20271E-14
 -1      1557 1.24638E-02 2.89264E-03-4.65227E-14
 -1      1558 1.23180E-02 2.81249E-03-4.51154E-14
 -1      1559 1.21773E-02 2.73432E-03-4.47784E-14
 -1      1560 1.27540E-02 3.05220E-03-4.93893E-14
 -1      1561 1.26092E-02 2.97255E-03-4.79459E-14
 -1      1562 1.24688E-02 2.89492E-03-4.75958E-14
 -1      1563 1.30426E-02 3.21083E-03-5.23325E-14
 -1      1564 1.28985E-02 3.13163E-03-5.08530E-14
 -1      1565 1.27585E-02 3.05444E-03-5.04851E-14
 -1      1566 1.33301E-02 3.36862E-03-5.53428E-14
 -1      1567 1.31865E-02 3.28982E-03-5.38309E-14
 -1      1568 1.30468E-02 3.21299E-03-5.34520E-14
 -1      1569 1.36025E-02 3.51785E-03-5.82705E-14
 -1      1570 1.34664E-02 3.44331E-03-5.67974E-14
 -1      1571 1.33270E-02 3.36676E-03-5.64092E-14
 -1      1572 1.38888E-02 3.67435E-03-6.14172E-14
 -1      1573 1.37457E-02 3.59617E-03-5.98350E-14
 -1      1574 1.36066E-02 3.51983E-03-5.94299E-14
 -1      1575 1.41748E-02 3.83033E-03-6.46298E-14
 -1      1576 1.40318E-02 3.75240E-03-6.30170E-14
 -1      1577 1.38929E-02 3.67623E-03-6.25956E-14
 -1      1578 1.44606E-02 3.98591E-03-6.78775E-14
 -1      1579 1.43177E-02 3.90817E-03-6.62520E-14
 -1      1580 1.41789E-02 3.83213E-03-6.58181E-14
 -1      1581 1.47462E-02 4.14115E-03-7.11568E-14
 -1      1582 1.46034E-02 4.06357E-03-6.95132E-14
 -1      1583 1.44648E-02 3.98763E-03-6.90750E-14
 -1      1584 1.50176E-02 4.28839E-03-7.42998E-14
 -1      1585 1.48819E-02 4.21480E-03-7.27238E-14
 -1      1586 1.47434E-02 4.13894E-03-7.22796E-14
 -1      1587 1.53032E-02 4.44320E-03-7.76309E-14
 -1      1588 1.51604E-02 4.36582E-03-7.59648E-14
 -1      1589 1.50219E-02 4.29001E-03-7.55126E-14
 -1      1590 1.55888E-02 4.59788E-03-8.09856E-14
 -1      1591 1.54460E-02 4.52056E-03-7.93026E-14
 -1      1592 1.53076E-02 4.44478E-03-7.88496E-14
 -1      1593 1.58745E-02 4.75249E-03-8.43629E-14
 -1      1594 1.57316E-02 4.67519E-03-8.26728E-14
 -1      1595 1.55932E-02 4.59943E-03-8.22045E-14
 -1      1596 1.61601E-02 4.90707E-03-8.77600E-14
 -1      1597 1.60173E-02 4.82978E-03-8.60608E-14
 -1      1598 1.58789E-02 4.75402E-03-8.55879E-14
 -1      1599 1.63582E-02 5.01412E-03-9.02890E-14
 -1      1600 1.61801E-02 4.91524E-03-9.14572E-14
 -1      1601 1.62562E-02 4.95739E-03-9.10545E-14
 -1      1602 1.60281E-02 4.83091E-03-9.22531E-14
 -1      1603 1.61041E-02 4.87308E-03-9.18546E-14
 -1      1604 1.60184E-02 4.82722E-03-9.01920E-14
 -1      1605 1.58760E-02 4.74655E-03-9.30639E-14
 -1      1606 1.59520E-02 4.78873E-03-9.26560E-14
 -1      1607 1.58663E-02 4.74290E-03-9.10040E-14
 -1      1608 1.57241E-02 4.66217E-03-9.38859E-14
 -1      1609 1.58000E-02 4.70436E-03-9.34761E-14
 -1      1610 1.57143E-02 4.65856E-03-9.18232E-14
 -1      1611 1.55748E-02 4.57921E-03-9.47167E-14
 -1      1612 1.56494E-02 4.62069E-03-9.42976E-14
 -1      1613 1.55637E-02 4.57492E-03-9.26456E-14
 -1      1614 1.54230E-02 4.49482E-03-9.55877E-14
 -1      1615 1.54989E-02 4.53702E-03-9.51513E-14
 -1      1616 1.54131E-02 4.49128E-03-9.34854E-14
 -1      1617 1.52714E-02 4.41043E-03-9.64558E-14
 -1      1618 1.53472E-02 4.45262E-03-9.60217E-14
 -1      1619 1.52614E-02 4.40692E-03-9.43428E-14
 -1      1620 1.51198E-02 4.32603E-03-9.73126E-14
 -1      1621 1.51956E-02 4.36823E-03-9.68869E-14
 -1      1622 1.51097E-02 4.32257E-03-9.52017E-14
 -1      1623 1.49683E-02 4.24165E-03-9.81832E-14
 -1      1624 1.50440E-02 4.28384E-03-9.77449E-14
 -1      1625 1.49582E-02 4.23822E-03-9.60585E-14
 -1      1626 1.48169E-02 4.15726E-03-9.90562E-14
 -1      1627 1.48926E-02 4.19945E-03-9.86206E-14
 -1      1628 1.48067E-02 4.15388E-03-9.69170E-14
 -1      1629 1.46682E-02 4.07432E-03-9.99305E-14
 -1      1630 1.47425E-02 4.11579E-03-9.94922E-14
 -1      1631 1.46566E-02 4.07025E-03-9.77753E-14
 -1      1632 1.45170E-02 3.98995E-03-1.00818E-13
 -1      1633 1.45926E-02 4.03213E-03-1.00376E-13
 -1      1634 1.45067E-02 3.98662E-03-9.86394E-14
 -1      1635 1.43658E-02 3.90559E-03-1.01686E-13
 -1      1636 1.44414E-02 3.94777E-03-1.01256E-13
 -1      1637 1.43555E-02 3.90228E-03-9.95062E-14
 -1      1638 1.42147E-02 3.82126E-03-1.02527E-13
 -1      1639 1.42903E-02 3.86342E-03-1.02110E-13
 -1      1640 1.42043E-02 3.81795E-03-1.00356E-13
 -1      1641 1.40370E-02 3.72289E-03-1.02747E-13
 -1      1642 1.41125E-02 3.76504E-03-1.02336E-13
 -1      1643 1.40266E-02 3.71957E-03-1.00583E-13
 -1      1644 1.38221E-02 3.60715E-03-1.00196E-13
 -1      1645 9.29220E-03 1.04163E-03-2.02128E-14
 -1      1646 9.28825E-03 9.94949E-04-2.03943E-14
 -1      1647 9.19994E-03 1.15757E-03-1.96762E-14
 -1      1648 9.26024E-03 1.10102E-03-1.99452E-14
 -1      1649 8.96352E-03 1.30269E-03-1.89889E-14
 -1      1650 9.08873E-03 1.22702E-03-1.93465E-14
 -1      1651 8.62775E-03 1.50120E-03-1.81131E-14
 -1      1652 8.79339E-03 1.40698E-03-1.85150E-14
 -1      1653 8.22050E-03 1.73058E-03-1.71560E-14
 -1      1654 8.41897E-03 1.62373E-03-1.76012E-14
 -1      1655 7.75824E-03 1.94350E-03-1.61590E-14
 -1      1656 7.97178E-03 1.84957E-03-1.66230E-14
 -1      1657 7.29999E-03 2.06941E-03-1.51884E-14
 -1      1658 7.50592E-03 2.02714E-03-1.56210E-14
 -1      1659 6.86402E-03 2.04817E-03-1.43576E-14
 -1      1660 7.06280E-03 2.07380E-03-1.47271E-14
 -1      1661 6.40337E-03 1.88561E-03-1.35824E-14
 -1      1662 6.62269E-03 1.97994E-03-1.39268E-14
 -1      1663 5.90521E-03 1.58849E-03-1.28528E-14
 -1      1664 6.14672E-03 1.73678E-03-1.31543E-14
 -1      1665 5.39348E-03 1.30111E-03-1.24306E-14
 -1      1666 5.60527E-03 1.43333E-03-1.26241E-14
 -1      1667 4.96023E-03 1.03654E-03-1.21220E-14
 -1      1668 5.15404E-03 1.15458E-03-1.22457E-14
 -1      1669 4.63139E-03 8.28195E-04-1.19695E-14
 -1      1670 4.76975E-03 9.12567E-04-1.20093E-14
 -1      1671 4.42932E-03 6.87178E-04-1.20215E-14
 -1      1672 4.50462E-03 7.48679E-04-1.19856E-14
 -1      1673 4.36979E-03 5.77918E-04-1.22015E-14
 -1      1674 4.38042E-03 6.24738E-04-1.21014E-14
 -1      1675 4.44362E-03 4.77863E-04-1.25162E-14
 -1      1676 4.39232E-03 5.24354E-04-1.23440E-14
 -1      1677 4.63039E-03 3.67084E-04-1.29813E-14
 -1      1678 4.53229E-03 4.18061E-04-1.27618E-14
 -1      1679 4.91832E-03 2.41653E-04-1.35541E-14
 -1      1680 4.77441E-03 3.04470E-04-1.32653E-14
 -1      1681 5.25347E-03 9.87397E-05-1.42471E-14
 -1      1682 5.09360E-03 1.63114E-04-1.39242E-14
 -1      1683 5.61112E-03-3.10162E-05-1.49969E-14
 -1      1684 5.44476E-03 2.68891E-05-1.46431E-14
 -1      1685 6.01924E-03-1.39783E-04-1.58892E-14
 -1      1686 5.82955E-03-9.29121E-05-1.54538E-14
 -1      1687 6.40074E-03-1.83155E-04-1.67894E-14
 -1      1688 6.23042E-03-1.72013E-04-1.63880E-14
 -1      1689 6.78444E-03-1.49604E-04-1.76754E-14
 -1      1690 6.60620E-03-1.75024E-04-1.72691E-14
 -1      1691 7.18690E-03-3.71913E-05-1.85520E-14
 -1      1692 6.99856E-03-9.92144E-05-1.81619E-14
 -1      1693 7.60895E-03 1.29138E-04-1.92702E-14
 -1      1694 7.42039E-03 4.80595E-05-1.89463E-14
 -1      1695 8.03552E-03 3.34090E-04-1.99296E-14
 -1      1696 7.83277E-03 2.36751E-04-1.96492E-14
 -1      1697 8.46456E-03 5.31766E-04-2.03792E-14
 -1      1698 8.27355E-03 4.40455E-04-2.01866E-14
 -1      1699 8.81485E-03 6.98856E-04-2.06343E-14
 -1      1700 8.66376E-03 6.27431E-04-2.05457E-14
 -1      1701 9.08586E-03 8.33231E-04-2.06888E-14
 -1      1702 8.97113E-03 7.74587E-04-2.06886E-14
 -1      1703 9.24903E-03 9.41045E-04-2.05517E-14
 -1      1704 9.18817E-03 8.94389E-04-2.06386E-14
 -1      1705 2.77843E-04 1.71135E-04 2.56956E-17
 -1      1706 8.84267E-03 1.29988E-03-1.90020E-14
 -1      1707 1.62198E-02 4.93835E-03-8.98038E-14
 -1      1708 9.28313E-03 1.05861E-03-2.04314E-14
 -1      1709 9.13274E-03 1.15280E-03-1.98224E-14
 -1      1710 9.27878E-03 9.88572E-04-2.08627E-14
 -1      1711 8.46361E-03 1.51912E-03-1.80008E-14
 -1      1712 8.02925E-03 1.77362E-03-1.69446E-14
 -1      1713 7.58734E-03 2.00022E-03-1.58665E-14
 -1      1714 7.18474E-03 2.10521E-03-1.48683E-14
 -1      1715 6.78187E-03 2.03981E-03-1.39833E-14
 -1      1716 6.35066E-03 1.80457E-03-1.31377E-14
 -1      1717 5.85937E-03 1.47122E-03-1.25035E-14
 -1      1718 5.34334E-03 1.15731E-03-1.21039E-14
 -1      1719 4.90936E-03 8.98824E-04-1.18166E-14
 -1      1720 4.58149E-03 7.28438E-04-1.17253E-14
 -1      1721 4.39934E-03 6.26038E-04-1.18201E-14
 -1      1722 4.37188E-03 5.52523E-04-1.20363E-14
 -1      1723 4.48877E-03 4.80193E-04-1.24135E-14
 -1      1724 4.72694E-03 3.80774E-04-1.29316E-14
 -1      1725 5.04686E-03 2.47742E-04-1.35725E-14
 -1      1726 5.40286E-03 9.16278E-05-1.43280E-14
 -1      1727 5.77955E-03-5.87551E-05-1.51721E-14
 -1      1728 6.14873E-03-1.72817E-04-1.61213E-14
 -1      1729 6.50085E-03-2.06741E-04-1.71005E-14
 -1      1730 6.85269E-03-1.45353E-04-1.80716E-14
 -1      1731 7.22980E-03 5.06778E-06-1.89646E-14
 -1      1732 7.64511E-03 2.14238E-04-1.97501E-14
 -1      1733 8.08091E-03 4.43824E-04-2.04003E-14
 -1      1734 8.50999E-03 6.48784E-04-2.08352E-14
 -1      1735 8.86936E-03 8.05409E-04-2.10639E-14
 -1      1736 9.13437E-03 9.13111E-04-2.10714E-14
 -1      1737 2.85101E-04-1.74659E-04-5.99835E-17
 -1      1738 3.32691E-04-1.14010E-04-1.29915E-16
 -1      1739 3.36833E-04-1.30257E-04-1.26662E-16
 -1      1740 3.42771E-04-1.49343E-04-1.21756E-16
 -1      1741 3.52231E-04-1.71463E-04-1.13380E-16
 -1      1742 4.59122E-04-1.84324E-04-1.84938E-16
 -1      1743 3.24618E-04-6.29864E-05-1.30972E-16
 -1      1744 3.25907E-04-7.40946E-05-1.31961E-16
 -1      1745 3.22850E-04-4.20514E-05-1.27326E-16
 -1      1746 3.23637E-04-5.22320E-05-1.29372E-16
 -1      1747 4.36378E-04-7.62555E-05-1.91606E-16
 -1      1748 3.21849E-04-2.27049E-05-1.22556E-16
 -1      1749 3.22277E-04-3.22091E-05-1.25130E-16
 -1      1750 4.33978E-04-4.91055E-05-1.86049E-16
 -1      1751 3.21447E-04-4.19401E-06-1.16416E-16
 -1      1752 3.21582E-04-1.33702E-05-1.19682E-16
 -1      1753 4.32664E-04-2.37883E-05-1.78663E-16
 -1      1754 3.21596E-04 1.41312E-05-1.09111E-16
 -1      1755 3.21452E-04 4.96829E-06-1.13123E-16
 -1      1756 4.32247E-04 6.44453E-07-1.69542E-16
 -1      1757 3.22322E-04 3.29128E-05-1.00126E-16
 -1      1758 3.21876E-04 2.34417E-05-1.04910E-16
 -1      1759 4.32685E-04 2.50424E-05-1.58524E-16
 -1      1760 3.23706E-04 5.25117E-05-8.93383E-17
 -1      1761 3.22907E-04 4.25498E-05-9.52878E-17
 -1      1762 4.34032E-04 5.00523E-05-1.45337E-16
 -1      1763 3.26057E-04 7.44888E-05-7.58670E-17
 -1      1764 3.24715E-04 6.32197E-05-8.31719E-17
 -1      1765 4.36490E-04 7.68505E-05-1.29332E-16
 -1      1766 3.29991E-04 9.98358E-05-5.86011E-17
 -1      1767 3.27727E-04 8.67112E-05-6.79795E-17
 -1      1768 4.40568E-04 1.06970E-04-1.09274E-16
 -1      1769 3.37167E-04 1.30913E-04-3.60904E-17
 -1      1770 3.32979E-04 1.14574E-04-4.82605E-17
 -1      1771 4.47390E-04 1.42097E-04-8.36733E-17
 -1      1772 3.52731E-04 1.72489E-04-6.55942E-18
 -1      1773 3.43168E-04 1.50181E-04-2.28902E-17
 -1      1774 4.59754E-04 1.85441E-04-5.11201E-17
 -1      1775 8.72668E-03 1.31421E-03-1.90151E-14
 -1      1776 8.89743E-03 1.22768E-03-1.95038E-14
 -1      1777 3.40232E-04-1.88699E-04-9.10865E-17
 -1      1778 3.33005E-04 1.85570E-04 1.40540E-17
 -1      1779 8.08363E-04-3.67721E-04-3.78237E-16
 -1      1780 9.54094E-04-4.07467E-04-5.17314E-16
 -1      1781 1.09752E-03-4.40665E-04-6.79564E-16
 -1      1782 1.23991E-03-4.68027E-04-8.65139E-16
 -1      1783 1.00603E-03-3.89239E-04-6.12493E-16
 -1      1784 1.38118E-03-4.90938E-04-1.07333E-15
 -1      1785 1.52190E-03-5.09710E-04-1.30442E-15
 -1      1786 1.29302E-03-4.44089E-04-9.82992E-16
 -1      1787 1.66227E-03-5.25278E-04-1.55790E-15
 -1      1788 1.80252E-03-5.37902E-04-1.83379E-15
 -1      1789 1.57727E-03-4.81766E-04-1.44295E-15
 -1      1790 1.94286E-03-5.48225E-04-2.13170E-15
 -1      1791 2.08337E-03-5.56482E-04-2.45164E-15
 -1      1792 1.86038E-03-5.07018E-04-1.99139E-15
 -1      1793 2.22420E-03-5.63151E-04-2.79366E-15
 -1      1794 2.36538E-03-5.68448E-04-3.15725E-15
 -1      1795 2.14355E-03-5.23425E-04-2.62723E-15
 -1      1796 2.50703E-03-5.72757E-04-3.54231E-15
 -1      1797 2.64911E-03-5.76275E-04-3.94891E-15
 -1      1798 2.42760E-03-5.33830E-04-3.34939E-15
 -1      1799 2.79170E-03-5.79331E-04-4.37701E-15
 -1      1800 2.93474E-03-5.82106E-04-4.82584E-15
 -1      1801 2.71301E-03-5.40620E-04-4.15615E-15
 -1      1802 3.07828E-03-5.84890E-04-5.29580E-15
 -1      1803 3.22220E-03-5.87842E-04-5.78590E-15
 -1      1804 3.00004E-03-5.45885E-04-5.04683E-15
 -1      1805 3.36656E-03-5.91214E-04-6.29745E-15
 -1      1806 3.51115E-03-5.95130E-04-6.83004E-15
 -1      1807 3.28871E-03-5.51490E-04-6.02021E-15
 -1      1808 3.65602E-03-5.99779E-04-7.38237E-15
 -1      1809 3.80090E-03-6.05226E-04-7.95611E-15
 -1      1810 3.57882E-03-5.59042E-04-7.07652E-15
 -1      1811 3.94585E-03-6.11553E-04-8.55063E-15
 -1      1812 4.09049E-03-6.18728E-04-9.16627E-15
 -1      1813 3.86990E-03-5.69729E-04-8.21500E-15
 -1      1814 4.23489E-03-6.26665E-04-9.80298E-15
 -1      1815 4.37863E-03-6.35182E-04-1.04604E-14
 -1      1816 4.16118E-03-5.84024E-04-9.43775E-15
 -1      1817 4.52174E-03-6.43955E-04-1.11388E-14
 -1      1818 4.66382E-03-6.52610E-04-1.18388E-14
 -1      1819 4.45153E-03-6.01246E-04-1.07433E-14
 -1      1820 4.80487E-03-6.60537E-04-1.25617E-14
 -1      1821 4.94459E-03-6.67147E-04-1.33041E-14
 -1      1822 4.73958E-03-6.19069E-04-1.21338E-14
 -1      1823 5.08294E-03-6.71564E-04-1.40678E-14
 -1      1824 5.21984E-03-6.73020E-04-1.48527E-14
 -1      1825 5.02388E-03-6.33152E-04-1.36091E-14
 -1      1826 5.35521E-03-6.70482E-04-1.56599E-14
 -1      1827 5.48927E-03-6.63128E-04-1.64891E-14
 -1      1828 5.30331E-03-6.37174E-04-1.51697E-14
 -1      1829 5.62194E-03-6.49978E-04-1.73392E-14
 -1      1830 5.75376E-03-6.30346E-04-1.82120E-14
 -1      1831 5.57754E-03-6.23579E-04-1.68183E-14
 -1      1832 5.88463E-03-6.03557E-04-1.91075E-14
 -1      1833 6.01536E-03-5.69264E-04-2.00259E-14
 -1      1834 5.84748E-03-5.85101E-04-1.85554E-14
 -1      1835 6.14584E-03-5.27300E-04-2.09691E-14
 -1      1836 6.27693E-03-4.77761E-04-2.19374E-14
 -1      1837 6.11530E-03-5.16703E-04-2.03858E-14
 -1      1838 6.40854E-03-4.21038E-04-2.29292E-14
 -1      1839 6.54138E-03-3.57646E-04-2.39455E-14
 -1      1840 6.38381E-03-4.17143E-04-2.23126E-14
 -1      1841 6.67536E-03-2.88414E-04-2.49871E-14
 -1      1842 6.81089E-03-2.14111E-04-2.60542E-14
 -1      1843 6.65569E-03-2.89375E-04-2.43388E-14
 -1      1844 6.94790E-03-1.35766E-04-2.71451E-14
 -1      1845 7.08647E-03-5.42057E-05-2.82587E-14
 -1      1846 6.93260E-03-1.39597E-04-2.64634E-14
 -1      1847 7.22657E-03 2.95851E-05-2.93965E-14
 -1      1848 7.36799E-03 1.14895E-04-3.05553E-14
 -1      1849 7.21494E-03 2.45783E-05-2.86837E-14
 -1      1850 7.51075E-03 2.00949E-04-3.17368E-14
 -1      1851 7.65448E-03 2.87232E-04-3.29408E-14
 -1      1852 7.50206E-03 1.95953E-04-3.09939E-14
 -1      1853 7.79922E-03 3.73243E-04-3.41665E-14
 -1      1854 7.94456E-03 4.58673E-04-3.54161E-14
 -1      1855 7.79269E-03 3.68932E-04-3.33917E-14
 -1      1856 8.09057E-03 5.43280E-04-3.66884E-14
 -1      1857 8.23686E-03 6.26918E-04-3.79845E-14
 -1      1858 8.08546E-03 5.39920E-04-3.58812E-14
 -1      1859 8.38349E-03 7.09539E-04-3.93045E-14
 -1      1860 8.53017E-03 7.91112E-04-4.06458E-14
 -1      1861 8.37916E-03 7.07131E-04-3.84622E-14
 -1      1862 8.67693E-03 8.71710E-04-4.20108E-14
 -1      1863 8.82357E-03 9.51366E-04-4.33973E-14
 -1      1864 8.67290E-03 8.70107E-04-4.11357E-14
 -1      1865 8.97013E-03 1.03021E-03-4.48066E-14
 -1      1866 9.11647E-03 1.10831E-03-4.62351E-14
 -1      1867 8.96609E-03 1.02921E-03-4.38996E-14
 -1      1868 9.26263E-03 1.18579E-03-4.76815E-14
 -1      1869 9.40852E-03 1.26275E-03-4.91501E-14
 -1      1870 9.25841E-03 1.18519E-03-4.67448E-14
 -1      1871 9.55417E-03 1.33929E-03-5.06363E-14
 -1      1872 9.69956E-03 1.41549E-03-5.21392E-14
 -1      1873 9.54971E-03 1.33890E-03-4.96675E-14
 -1      1874 9.84470E-03 1.49146E-03-5.36576E-14
 -1      1875 9.98959E-03 1.56723E-03-5.51890E-14
 -1      1876 9.84000E-03 1.49115E-03-5.26586E-14
 -1      1877 1.01342E-02 1.64289E-03-5.67364E-14
 -1      1878 1.02787E-02 1.71849E-03-5.82949E-14
 -1      1879 1.01293E-02 1.64256E-03-5.57149E-14
 -1      1880 1.04229E-02 1.79406E-03-5.98629E-14
 -1      1881 1.05669E-02 1.86964E-03-6.14421E-14
 -1      1882 1.04179E-02 1.79365E-03-5.88207E-14
 -1      1883 1.07108E-02 1.94526E-03-6.30306E-14
 -1      1884 1.08545E-02 2.02093E-03-6.46287E-14
 -1      1885 1.07057E-02 1.94473E-03-6.19698E-14
 -1      1886 1.09981E-02 2.09668E-03-6.62362E-14
 -1      1887 1.11415E-02 2.17250E-03-6.78549E-14
 -1      1888 1.09929E-02 2.09601E-03-6.51591E-14
 -1      1889 1.12849E-02 2.24842E-03-6.94846E-14
 -1      1890 1.14281E-02 2.32442E-03-7.11237E-14
 -1      1891 1.12797E-02 2.24762E-03-6.83890E-14
 -1      1892 1.15713E-02 2.40051E-03-7.27771E-14
 -1      1893 1.17144E-02 2.47670E-03-7.44406E-14
 -1      1894 1.15661E-02 2.39960E-03-7.16631E-14
 -1      1895 1.18574E-02 2.55297E-03-7.61155E-14
 -1      1896 1.20004E-02 2.62932E-03-7.78045E-14
 -1      1897 1.18523E-02 2.55195E-03-7.49819E-14
 -1      1898 1.21434E-02 2.70574E-03-7.95024E-14
 -1      1899 1.22863E-02 2.78224E-03-8.12142E-14
 -1      1900 1.21383E-02 2.70463E-03-7.83493E-14
 -1      1901 1.24292E-02 2.85880E-03-8.29366E-14
 -1      1902 1.25721E-02 2.93541E-03-8.46670E-14
 -1      1903 1.24242E-02 2.85762E-03-8.17594E-14
 -1      1904 1.27150E-02 3.01208E-03-8.64061E-14
 -1      1905 1.28579E-02 3.08879E-03-8.81536E-14
 -1      1906 1.27100E-02 3.01085E-03-8.52117E-14
 -1      1907 1.30007E-02 3.16554E-03-8.99068E-14
 -1      1908 1.31436E-02 3.24233E-03-9.16654E-14
 -1      1909 1.29958E-02 3.16427E-03-8.86930E-14
 -1      1910 1.32864E-02 3.31913E-03-9.34331E-14
 -1      1911 1.34293E-02 3.39596E-03-9.52024E-14
 -1      1912 1.32815E-02 3.31783E-03-9.22054E-14
 -1      1913 1.35543E-02 3.46313E-03-9.68075E-14
 -1      1914 1.36971E-02 3.53998E-03-9.85849E-14
 -1      1915 1.37993E-02 3.59618E-03-9.87782E-14
 -1      1916 1.35493E-02 3.46182E-03-9.55687E-14
 -1      1917 1.22606E-03 4.63698E-04-2.63339E-16
 -1      1918 1.08344E-03 4.36324E-04-1.80533E-16
 -1      1919 9.39820E-04 4.02920E-04-1.13692E-16
 -1      1920 7.93869E-04 3.62730E-04-6.20977E-17
 -1      1921 9.91955E-04 3.84891E-04-1.88014E-16
 -1      1922 1.49451E-03 5.03022E-04-4.65787E-16
 -1      1923 1.36051E-03 4.85342E-04-3.57041E-16
 -1      1924 1.27217E-03 4.38584E-04-3.60999E-16
 -1      1925 1.77600E-03 5.30139E-04-7.45619E-16
 -1      1926 1.63526E-03 5.18217E-04-5.96569E-16
 -1      1927 1.54987E-03 4.74989E-04-5.96514E-16
 -1      1928 2.05824E-03 5.46152E-04-1.09593E-15
 -1      1929 1.91692E-03 5.39376E-04-9.11814E-16
 -1      1930 1.83376E-03 4.98846E-04-9.05499E-16
 -1      1931 2.34267E-03 5.53683E-04-1.51861E-15
 -1      1932 2.20009E-03 5.50850E-04-1.29835E-15
 -1      1933 2.11811E-03 5.12297E-04-1.28639E-15
 -1      1934 2.63053E-03 5.54754E-04-2.01426E-15
 -1      1935 2.48607E-03 5.54913E-04-1.75707E-15
 -1      1936 2.40404E-03 5.17784E-04-1.73860E-15
 -1      1937 2.90824E-03 5.51357E-04-2.55339E-15
 -1      1938 2.76875E-03 5.53494E-04-2.27546E-15
 -1      1939 2.68520E-03 5.17310E-04-2.24994E-15
 -1      1940 3.20632E-03 5.44847E-04-3.19235E-15
 -1      1941 3.05637E-03 5.48354E-04-2.86392E-15
 -1      1942 2.96949E-03 5.12684E-04-2.83164E-15
 -1      1943 3.51181E-03 5.37613E-04-3.90564E-15
 -1      1944 3.35789E-03 5.41139E-04-3.53946E-15
 -1      1945 3.26505E-03 5.05431E-04-3.50096E-15
 -1      1946 3.82656E-03 5.33361E-04-4.69159E-15
 -1      1947 3.66770E-03 5.34820E-04-4.28956E-15
 -1      1948 3.56545E-03 4.98146E-04-4.24384E-15
 -1      1949 4.15279E-03 5.38633E-04-5.55091E-15
 -1      1950 3.98785E-03 5.34290E-04-5.11281E-15
 -1      1951 3.87155E-03 4.94912E-04-5.06001E-15
 -1      1952 4.49333E-03 5.65164E-04-6.48123E-15
 -1      1953 4.32087E-03 5.48284E-04-6.00697E-15
 -1      1954 4.18461E-03 5.02819E-04-5.94816E-15
 -1      1955 4.83381E-03 6.28232E-04-7.42998E-15
 -1      1956 4.66126E-03 5.90594E-04-6.94747E-15
 -1      1957 4.49901E-03 5.33003E-04-6.88199E-15
 -1      1958 5.21651E-03 7.64302E-04-8.49474E-15
 -1      1959 5.02218E-03 6.84664E-04-7.95314E-15
 -1      1960 4.82811E-03 6.04451E-04-7.88258E-15
 -1      1961 5.63336E-03 1.01017E-03-9.63007E-15
 -1      1962 5.42188E-03 8.70114E-04-9.05310E-15
 -1      1963 5.19322E-03 7.51512E-04-8.97688E-15
 -1      1964 6.08886E-03 1.38685E-03-1.08449E-14
 -1      1965 5.86030E-03 1.18177E-03-1.02275E-14
 -1      1966 5.60666E-03 1.01445E-03-1.01435E-14
 -1      1967 6.90820E-03 2.10463E-03-1.31794E-14
 -1      1968 6.72978E-03 1.98336E-03-1.26058E-14
 -1      1969 7.65949E-03 2.03258E-03-1.58741E-14
 -1      1970 7.46892E-03 2.13127E-03-1.51696E-14
 -1      1971 8.09210E-03 1.74944E-03-1.75312E-14
 -1      1972 7.87179E-03 1.89155E-03-1.66840E-14
 -1      1973 8.54776E-03 1.51645E-03-1.94012E-14
 -1      1974 8.32501E-03 1.61825E-03-1.84514E-14
 -1      1975 8.27261E-03 1.61015E-03-1.82642E-14
 -1      1976 8.97180E-03 1.41675E-03-2.13887E-14
 -1      1977 8.76629E-03 1.45205E-03-2.03804E-14
 -1      1978 8.71915E-03 1.41931E-03-2.01736E-14
 -1      1979 9.36215E-03 1.42718E-03-2.34871E-14
 -1      1980 9.17128E-03 1.41037E-03-2.24245E-14
 -1      1981 9.11621E-03 1.36267E-03-2.21972E-14
 -1      1982 9.72692E-03 1.51199E-03-2.56811E-14
 -1      1983 9.54725E-03 1.46272E-03-2.45721E-14
 -1      1984 9.47550E-03 1.40399E-03-2.43267E-14
 -1      1985 1.00560E-02 1.63156E-03-2.78493E-14
 -1      1986 9.89315E-03 1.56829E-03-2.67559E-14
 -1      1987 9.80517E-03 1.50310E-03-2.64932E-14
 -1      1988 1.03881E-02 1.77915E-03-3.02183E-14
 -1      1989 1.02234E-02 1.70338E-03-2.90218E-14
 -1      1990 1.01225E-02 1.63441E-03-2.87436E-14
 -1      1991 1.07085E-02 1.93750E-03-3.26700E-14
 -1      1992 1.05494E-02 1.85745E-03-3.14351E-14
 -1      1993 1.04389E-02 1.78656E-03-3.11358E-14
 -1      1994 1.10200E-02 2.10030E-03-3.52023E-14
 -1      1995 1.08651E-02 2.01860E-03-3.39245E-14
 -1      1996 1.07484E-02 1.94701E-03-3.36113E-14
 -1      1997 1.13245E-02 2.26432E-03-3.78024E-14
 -1      1998 1.11729E-02 2.18228E-03-3.64951E-14
 -1      1999 1.10523E-02 2.11066E-03-3.61628E-14
 -1      2000 1.16089E-02 2.41988E-03-4.03278E-14
 -1      2001 1.14672E-02 2.34219E-03-3.90580E-14
 -1      2002 1.13443E-02 2.27084E-03-3.87154E-14
 -1      2003 1.19045E-02 2.58271E-03-4.30392E-14
 -1      2004 1.17571E-02 2.50145E-03-4.16769E-14
 -1      2005 1.16329E-02 2.43049E-03-4.13235E-14
 -1      2006 1.21972E-02 2.74438E-03-4.58153E-14
 -1      2007 1.20512E-02 2.66371E-03-4.44191E-14
 -1      2008 1.19262E-02 2.59317E-03-4.40577E-14
 -1      2009 1.24878E-02 2.90485E-03-4.86550E-14
 -1      2010 1.23427E-02 2.82477E-03-4.72268E-14
 -1      2011 1.22174E-02 2.75464E-03-4.68554E-14
 -1      2012 1.27769E-02 3.06423E-03-5.15712E-14
 -1      2013 1.26325E-02 2.98468E-03-5.01033E-14
 -1      2014 1.25070E-02 2.91490E-03-4.97208E-14
 -1      2015 1.30648E-02 3.22262E-03-5.45580E-14
 -1      2016 1.29210E-02 3.14354E-03-5.30566E-14
 -1      2017 1.27954E-02 3.07408E-03-5.26592E-14
 -1      2018 1.33377E-02 3.37232E-03-5.74583E-14
 -1      2019 1.32013E-02 3.29756E-03-5.60006E-14
 -1      2020 1.30758E-02 3.22835E-03-5.55926E-14
 -1      2021 1.36243E-02 3.52920E-03-6.05783E-14
 -1      2022 1.34810E-02 3.45085E-03-5.90104E-14
 -1      2023 1.33556E-02 3.38183E-03-5.85905E-14
 -1      2024 1.39106E-02 3.68549E-03-6.37603E-14
 -1      2025 1.37675E-02 3.60741E-03-6.21620E-14
 -1      2026 1.36421E-02 3.53857E-03-6.17298E-14
 -1      2027 1.41966E-02 3.84129E-03-6.69908E-14
 -1      2028 1.40536E-02 3.76345E-03-6.53704E-14
 -1      2029 1.39283E-02 3.69474E-03-6.49246E-14
 -1      2030 1.44825E-02 3.99671E-03-7.02571E-14
 -1      2031 1.43396E-02 3.91905E-03-6.86205E-14
 -1      2032 1.42143E-02 3.85044E-03-6.81665E-14
 -1      2033 1.47540E-02 4.14408E-03-7.33913E-14
 -1      2034 1.46182E-02 4.07042E-03-7.18196E-14
 -1      2035 1.44931E-02 4.00190E-03-7.13611E-14
 -1      2036 1.50397E-02 4.29898E-03-7.67099E-14
 -1      2037 1.48968E-02 4.22155E-03-7.50461E-14
 -1      2038 1.47717E-02 4.15308E-03-7.45823E-14
 -1      2039 1.53254E-02 4.45371E-03-8.00507E-14
 -1      2040 1.51825E-02 4.37636E-03-7.83786E-14
 -1      2041 1.50574E-02 4.30793E-03-7.79076E-14
 -1      2042 1.56110E-02 4.60834E-03-8.34148E-14
 -1      2043 1.54682E-02 4.53103E-03-8.17309E-14
 -1      2044 1.53432E-02 4.46263E-03-8.12564E-14
 -1      2045 1.58967E-02 4.76291E-03-8.67958E-14
 -1      2046 1.57539E-02 4.68563E-03-8.51049E-14
 -1      2047 1.56289E-02 4.61723E-03-8.46213E-14
 -1      2048 9.26584E-03 1.06504E-03-2.07240E-14
 -1      2049 9.30304E-03 1.04270E-03-2.09999E-14
 -1      2050 1.55526E-02 4.57058E-03-9.05869E-14
 -1      2051 1.56286E-02 4.61274E-03-9.01719E-14
 -1      2052 1.57046E-02 4.65490E-03-8.97591E-14
 -1      2053 1.57806E-02 4.69706E-03-8.93481E-14
 -1      2054 1.55429E-02 4.56692E-03-8.85159E-14
 -1      2055 1.60581E-02 4.85034E-03-8.85370E-14
 -1      2056 1.54033E-02 4.48768E-03-9.14021E-14
 -1      2057 1.54779E-02 4.52913E-03-9.09913E-14
 -1      2058 1.53922E-02 4.48333E-03-8.93376E-14
 -1      2059 1.52514E-02 4.40336E-03-9.22472E-14
 -1      2060 1.53273E-02 4.44552E-03-9.18225E-14
 -1      2061 1.52416E-02 4.39975E-03-9.01622E-14
 -1      2062 1.50997E-02 4.31905E-03-9.30958E-14
 -1      2063 1.51756E-02 4.36120E-03-9.26720E-14
 -1      2064 1.50898E-02 4.31546E-03-9.10011E-14
 -1      2065 1.49481E-02 4.23474E-03-9.39481E-14
 -1      2066 1.50239E-02 4.27689E-03-9.35222E-14
 -1      2067 1.49381E-02 4.23119E-03-9.18446E-14
 -1      2068 1.47966E-02 4.15043E-03-9.47979E-14
 -1      2069 1.48723E-02 4.19258E-03-9.43737E-14
 -1      2070 1.47865E-02 4.14692E-03-9.26894E-14
 -1      2071 1.46452E-02 4.06612E-03-9.56481E-14
 -1      2072 1.47209E-02 4.10828E-03-9.52231E-14
 -1      2073 1.46350E-02 4.06266E-03-9.35310E-14
 -1      2074 1.44964E-02 3.98324E-03-9.64881E-14
 -1      2075 1.45708E-02 4.02468E-03-9.60670E-14
 -1      2076 1.44849E-02 3.97910E-03-9.43650E-14
 -1      2077 1.43451E-02 3.89893E-03-9.73416E-14
 -1      2078 1.44207E-02 3.94109E-03-9.69139E-14
 -1      2079 1.43348E-02 3.89554E-03-9.51977E-14
 -1      2080 1.41939E-02 3.81462E-03-9.81896E-14
 -1      2081 1.42695E-02 3.85678E-03-9.77659E-14
 -1      2082 1.41836E-02 3.81126E-03-9.60348E-14
 -1      2083 1.40428E-02 3.73031E-03-9.90243E-14
 -1      2084 1.41184E-02 3.77246E-03-9.86091E-14
 -1      2085 1.40324E-02 3.72697E-03-9.68691E-14
 -1      2086 9.07398E-03 1.14715E-03-2.00397E-14
 -1      2087 9.18695E-03 1.10301E-03-2.03835E-14
 -1      2088 9.30107E-03 1.01995E-03-2.13153E-14
 -1      2089 9.26320E-03 1.00410E-03-2.14763E-14
 -1      2090 3.27543E-04-8.62706E-05-1.32246E-16
 -1      2091 3.29766E-04-9.93824E-05-1.31717E-16
 -1      2092 4.47007E-04-1.41352E-04-1.93178E-16
 -1      2093 4.40347E-04-1.06399E-04-1.94587E-16
 -1      2094 7.89291E-03 1.82346E-03-1.67767E-14
 -1      2095 8.09505E-03 1.69158E-03-1.73192E-14
 -1      2096 7.48178E-03 2.05560E-03-1.55903E-14
 -1      2097 7.66652E-03 1.95906E-03-1.61312E-14
 -1      2098 7.09572E-03 2.13473E-03-1.44794E-14
 -1      2099 7.25850E-03 2.12520E-03-1.49359E-14
 -1      2100 6.73985E-03 2.02071E-03-1.36130E-14
 -1      2101 6.91024E-03 2.09698E-03-1.40338E-14
 -1      2102 6.34108E-03 1.73257E-03-1.26946E-14
 -1      2103 6.54200E-03 1.89393E-03-1.31053E-14
 -1      2104 5.77347E-03 1.32548E-03-1.20694E-14
 -1      2105 6.01990E-03 1.49564E-03-1.22808E-14
 -1      2106 5.29204E-03 1.02653E-03-1.17327E-14
 -1      2107 5.51997E-03 1.16947E-03-1.19052E-14
 -1      2108 4.85675E-03 7.91796E-04-1.14896E-14
 -1      2109 5.05267E-03 8.93334E-04-1.15954E-14
 -1      2110 4.52802E-03 6.52070E-04-1.14554E-14
 -1      2111 4.65947E-03 7.00863E-04-1.14377E-14
 -1      2112 4.37413E-03 5.80326E-04-1.15303E-14
 -1      2113 4.42709E-03 6.03354E-04-1.14546E-14
 -1      2114 4.37962E-03 5.39269E-04-1.18187E-14
 -1      2115 4.35707E-03 5.57025E-04-1.16844E-14
 -1      2116 4.54170E-03 4.81717E-04-1.22188E-14
 -1      2117 4.45012E-03 5.09442E-04-1.19851E-14
 -1      2118 4.79292E-03 3.94030E-04-1.27558E-14
 -1      2119 4.65426E-03 4.42057E-04-1.24850E-14
 -1      2120 4.58723E-03 4.68627E-04-1.20488E-14
 -1      2121 5.16652E-03 2.35272E-04-1.35768E-14
 -1      2122 4.99823E-03 3.09380E-04-1.32179E-14
 -1      2123 5.52394E-03 6.97444E-05-1.43824E-14
 -1      2124 5.35547E-03 1.49730E-04-1.39956E-14
 -1      2125 5.87405E-03-8.65988E-05-1.52720E-14
 -1      2126 5.70100E-03-1.07163E-05-1.48230E-14
 -1      2127 5.61836E-03 3.49104E-05-1.44803E-14
 -1      2128 6.24615E-03-2.07713E-04-1.63845E-14
 -1      2129 6.09027E-03-1.64365E-04-1.58882E-14
 -1      2130 6.56492E-03-2.20225E-04-1.74164E-14
 -1      2131 6.41925E-03-2.25689E-04-1.69343E-14
 -1      2132 6.88151E-03-1.31233E-04-1.84930E-14
 -1      2133 6.73046E-03-1.88356E-04-1.79982E-14
 -1      2134 7.27410E-03 6.66851E-05-1.94888E-14
 -1      2135 7.09794E-03-3.04089E-05-1.90816E-14
 -1      2136 7.65315E-03 2.90416E-04-2.02695E-14
 -1      2137 7.46165E-03 1.71810E-04-1.98778E-14
 -1      2138 7.32399E-03 1.30964E-04-1.99969E-14
 -1      2139 8.13704E-03 5.51677E-04-2.09517E-14
 -1      2140 7.92101E-03 4.38257E-04-2.06829E-14
 -1      2141 8.55784E-03 7.57327E-04-2.14373E-14
 -1      2142 8.36339E-03 6.70061E-04-2.12608E-14
 -1      2143 8.92402E-03 8.90670E-04-2.15844E-14
 -1      2144 8.76641E-03 8.35244E-04-2.15242E-14
 -1      2145 9.17983E-03 9.71669E-04-2.15417E-14
 -1      2146 9.07511E-03 9.41646E-04-2.15907E-14
 -1      2147 4.52615E-04 2.31003E-04-2.73761E-18
 -1      2148 8.31833E-03 1.55523E-03-1.78943E-14
 -1      2149 8.51448E-03 1.43433E-03-1.84188E-14
 -1      2150 4.59469E-04-2.33412E-04-1.50067E-16
 -1      2151 1.59331E-02 4.78195E-03-8.80471E-14
 -1      2152 1.58570E-02 4.73979E-03-8.84598E-14
 -1      2153 8.98994E-03 1.17373E-03-2.00566E-14
 -1      2154 8.60861E-03 1.36057E-03-1.89085E-14
 -1      2155 6.08647E-04-2.93518E-04-2.35204E-16
 -1      2156 8.19149E-03 1.61470E-03-1.77247E-14
 -1      2157 6.64742E-04-2.87056E-04-2.99972E-16
 -1      2158 6.58134E-04 2.85176E-04-6.77220E-17
 -1      2159 6.01930E-04 2.91551E-04-2.40964E-17
 -1      2160 6.30094E-03 1.58346E-03-1.13595E-14
 -1      2161 6.05284E-03 1.39213E-03-1.12663E-14
 -1      2162 6.50966E-03 1.78589E-03-1.19544E-14
 -1      2163 7.38854E-03 2.12396E-03-1.51245E-14
 -1      2164 7.29031E-03 2.17883E-03-1.45869E-14
 -1      2165 7.08835E-03 2.17622E-03-1.38892E-14
 -1      2166 7.80549E-03 1.90791E-03-1.65251E-14
 -1      2167 9.31238E-03 1.04126E-03-2.16116E-14
 -1      2168 1.56953E-02 4.65180E-03-8.72080E-14
 -1      2169 9.23487E-03 1.07863E-03-2.09477E-14
 -1      2170 1.39406E-02 3.67410E-03-9.88350E-14
 -1      2171 9.22802E-03 1.01468E-03-2.19972E-14
 -1      2172 8.99529E-03 9.52135E-04-2.20541E-14
 -1      2173 8.64225E-03 8.36577E-04-2.19550E-14
 -1      2174 7.74618E-03 3.85165E-04-2.08116E-14
 -1      2175 6.95949E-03-8.22537E-05-1.90041E-14
 -1      2176 6.62962E-03-2.14433E-04-1.78254E-14
 -1      2177 5.98358E-03-1.30879E-04-1.55269E-14
 -1      2178 4.88846E-03 3.65231E-04-1.27606E-14
 -1      2179 4.40515E-03 5.18188E-04-1.16292E-14
 -1      2180 4.35746E-03 5.50417E-04-1.13161E-14
 -1      2181 4.47558E-03 5.92759E-04-1.11671E-14
 -1      2182 4.76898E-03 7.08205E-04-1.12184E-14
 -1      2183 5.20210E-03 9.17969E-04-1.14006E-14
 -1      2184 5.67742E-03 1.20304E-03-1.16908E-14
 -1      2185 6.21363E-03 1.60290E-03-1.22484E-14
 -1      2186 6.67628E-03 1.96928E-03-1.31506E-14
 -1      2187 7.02223E-03 2.13544E-03-1.40956E-14
 -1      2188 7.77961E-03 1.89261E-03-1.64914E-14
 -1      2189 7.37199E-03 2.10975E-03-1.51874E-14
 -1      2190 5.27291E-03 2.01095E-04-1.36301E-14
 -1      2191 6.32548E-03-2.28086E-04-1.66915E-14
 -1      2192 8.22090E-03 6.49840E-04-2.15480E-14
 -1      2193 5.46797E-04-5.28209E-05-2.61686E-16
 -1      2194 5.48086E-04-6.89401E-05-2.66090E-16
 -1      2195 5.49793E-04-8.57464E-05-2.69899E-16
 -1      2196 5.51960E-04-1.03296E-04-2.73070E-16
 -1      2197 6.64373E-04-9.14145E-05-3.62693E-16
 -1      2198 5.44942E-04 8.35336E-06-2.37671E-16
 -1      2199 5.44942E-04-6.67808E-06-2.44542E-16
 -1      2200 5.45870E-04 3.87334E-05-2.21774E-16
 -1      2201 5.45249E-04 2.34715E-05-2.30163E-16
 -1      2202 6.59275E-04 1.88969E-05-3.17875E-16
 -1      2203 5.48116E-04 6.98451E-05-2.03044E-16
 -1      2204 5.46818E-04 5.40877E-05-2.12870E-16
 -1      2205 6.60901E-04 5.48110E-05-2.96272E-16
 -1      2206 5.52098E-04 1.04006E-04-1.79937E-16
 -1      2207 5.49868E-04 8.65529E-05-1.92121E-16
 -1      2208 6.64377E-04 9.24813E-05-2.70468E-16
 -1      2209 5.58570E-04 1.42343E-04-1.51382E-16
 -1      2210 5.54972E-04 1.22577E-04-1.66520E-16
 -1      2211 6.70274E-04 1.33733E-04-2.39134E-16
 -1      2212 5.69293E-04 1.87253E-04-1.15752E-16
 -1      2213 5.63284E-04 1.63867E-04-1.34834E-16
 -1      2214 6.79692E-04 1.80182E-04-2.00903E-16
 -1      2215 6.15357E-04 2.47185E-04-8.32396E-17
 -1      2216 6.04582E-04 2.17921E-04-1.07756E-16
 -1      2217 7.22098E-04 2.37496E-04-1.70518E-16
 -1      2218 8.01910E-04 3.09020E-04-1.42952E-16
 -1      2219 9.17078E-04-3.38395E-04-5.46289E-16
 -1      2220 1.06165E-03-3.70200E-04-7.09326E-16
 -1      2221 1.20547E-03-3.97012E-04-8.94358E-16
 -1      2222 1.34894E-03-4.19263E-04-1.10162E-15
 -1      2223 1.11937E-03-3.50233E-04-8.07920E-16
 -1      2224 1.49189E-03-4.37820E-04-1.33056E-15
 -1      2225 1.63458E-03-4.52965E-04-1.58157E-15
 -1      2226 1.40677E-03-3.93740E-04-1.22104E-15
 -1      2227 1.77706E-03-4.65400E-04-1.85432E-15
 -1      2228 1.91947E-03-4.75362E-04-2.14863E-15
 -1      2229 1.69336E-03-4.23544E-04-1.72020E-15
 -1      2230 2.06190E-03-4.83390E-04-2.46415E-15
 -1      2231 2.20442E-03-4.89697E-04-2.80148E-15
 -1      2232 1.97955E-03-4.43142E-04-2.30496E-15
 -1      2233 2.34714E-03-4.94713E-04-3.15943E-15
 -1      2234 2.49009E-03-4.98634E-04-3.53898E-15
 -1      2235 2.26588E-03-4.55459E-04-2.97357E-15
 -1      2236 2.63336E-03-5.01817E-04-3.93938E-15
 -1      2237 2.77695E-03-5.04451E-04-4.36053E-15
 -1      2238 2.55289E-03-4.62966E-04-3.72657E-15
 -1      2239 2.92094E-03-5.06844E-04-4.80231E-15
 -1      2240 3.06529E-03-5.09176E-04-5.26451E-15
 -1      2241 2.84101E-03-4.67824E-04-4.56193E-15
 -1      2242 3.21010E-03-5.11716E-04-5.74719E-15
 -1      2243 3.35528E-03-5.14630E-04-6.25099E-15
 -1      2244 3.13065E-03-4.71982E-04-5.47900E-15
 -1      2245 3.50092E-03-5.18138E-04-6.77502E-15
 -1      2246 3.64687E-03-5.22379E-04-7.31918E-15
 -1      2247 3.42210E-03-4.77215E-04-6.47780E-15
 -1      2248 3.79325E-03-5.27494E-04-7.88448E-15
 -1      2249 3.93981E-03-5.33559E-04-8.47070E-15
 -1      2250 3.71553E-03-4.85060E-04-7.55891E-15
 -1      2251 4.08666E-03-5.40589E-04-9.07721E-15
 -1      2252 4.23348E-03-5.48544E-04-9.70515E-15
 -1      2253 4.01085E-03-4.96626E-04-8.72203E-15
 -1      2254 4.38035E-03-5.57249E-04-1.03535E-14
 -1      2255 4.52688E-03-5.66472E-04-1.10217E-14
 -1      2256 4.30759E-03-5.12233E-04-9.96688E-15
 -1      2257 4.67311E-03-5.75787E-04-1.17111E-14
 -1      2258 4.81861E-03-5.84697E-04-1.24231E-14
 -1      2259 4.60477E-03-5.30879E-04-1.12951E-14
 -1      2260 4.96338E-03-5.92494E-04-1.31559E-14
 -1      2261 5.10709E-03-5.98387E-04-1.39090E-14
 -1      2262 4.90080E-03-5.49610E-04-1.27071E-14
 -1      2263 5.24964E-03-6.01429E-04-1.46843E-14
 -1      2264 5.39098E-03-6.00606E-04-1.54823E-14
 -1      2265 5.19381E-03-5.63046E-04-1.42054E-14
 -1      2266 5.53096E-03-5.94879E-04-1.63018E-14
 -1      2267 5.66989E-03-5.83226E-04-1.71435E-14
 -1      2268 5.48217E-03-5.63496E-04-1.57902E-14
 -1      2269 5.80762E-03-5.64763E-04-1.80083E-14
 -1      2270 5.94484E-03-5.38755E-04-1.88960E-14
 -1      2271 5.76545E-03-5.42111E-04-1.74655E-14
 -1      2272 6.08141E-03-5.04745E-04-1.98068E-14
 -1      2273 6.21822E-03-4.62559E-04-2.07420E-14
 -1      2274 6.04494E-03-4.91125E-04-1.92330E-14
 -1      2275 6.35517E-03-4.12311E-04-2.17015E-14
 -1      2276 6.49306E-03-3.54443E-04-2.26863E-14
 -1      2277 6.32352E-03-4.06462E-04-2.10954E-14
 -1      2278 6.63178E-03-2.89619E-04-2.36957E-14
 -1      2279 6.77185E-03-2.18723E-04-2.47289E-14
 -1      2280 6.60447E-03-2.89249E-04-2.30563E-14
 -1      2281 6.91313E-03-1.42737E-04-2.57870E-14
 -1      2282 7.05576E-03-6.27196E-05-2.68693E-14
 -1      2283 6.89008E-03-1.45380E-04-2.51162E-14
 -1      2284 7.19962E-03 2.03065E-05-2.79755E-14
 -1      2285 7.34453E-03 1.05402E-04-2.91047E-14
 -1      2286 7.18089E-03 1.66140E-05-2.72725E-14
 -1      2287 7.49042E-03 1.91708E-04-3.02554E-14
 -1      2288 7.63694E-03 2.78543E-04-3.14280E-14
 -1      2289 7.47589E-03 1.88154E-04-2.95216E-14
 -1      2290 7.78407E-03 3.65311E-04-3.26230E-14
 -1      2291 7.93144E-03 4.51616E-04-3.38400E-14
 -1      2292 7.77328E-03 3.62420E-04-3.18583E-14
 -1      2293 8.07908E-03 5.37125E-04-3.50801E-14
 -1      2294 8.22666E-03 6.21671E-04-3.63432E-14
 -1      2295 8.07129E-03 5.34997E-04-3.42838E-14
 -1      2296 8.37426E-03 7.05131E-04-3.76287E-14
 -1      2297 8.52161E-03 7.87489E-04-3.89374E-14
 -1      2298 8.36862E-03 7.03665E-04-3.68005E-14
 -1      2299 8.66881E-03 8.68762E-04-4.02694E-14
 -1      2300 8.81569E-03 9.49014E-04-4.16219E-14
 -1      2301 8.66453E-03 8.67791E-04-3.94075E-14
 -1      2302 8.96233E-03 1.02834E-03-4.29981E-14
 -1      2303 9.10863E-03 1.10684E-03-4.43972E-14
 -1      2304 8.95875E-03 1.02770E-03-4.21046E-14
 -1      2305 9.25466E-03 1.18463E-03-4.58132E-14
 -1      2306 9.40036E-03 1.26181E-03-4.72487E-14
 -1      2307 9.25131E-03 1.18418E-03-4.48867E-14
 -1      2308 9.54580E-03 1.33851E-03-4.87055E-14
 -1      2309 9.69095E-03 1.41480E-03-5.01791E-14
 -1      2310 9.54238E-03 1.33813E-03-4.77497E-14
 -1      2311 9.83584E-03 1.49080E-03-5.16696E-14
 -1      2312 9.98050E-03 1.56657E-03-5.31757E-14
 -1      2313 9.83221E-03 1.49043E-03-5.06853E-14
 -1      2314 1.01249E-02 1.64219E-03-5.46976E-14
 -1      2315 1.02692E-02 1.71771E-03-5.62338E-14
 -1      2316 1.01210E-02 1.64176E-03-5.36879E-14
 -1      2317 1.04132E-02 1.79319E-03-5.77818E-14
 -1      2318 1.05571E-02 1.86866E-03-5.93410E-14
 -1      2319 1.04090E-02 1.79268E-03-5.67475E-14
 -1      2320 1.07009E-02 1.94416E-03-6.09121E-14
 -1      2321 1.08445E-02 2.01971E-03-6.24946E-14
 -1      2322 1.06965E-02 1.94354E-03-5.98588E-14
 -1      2323 1.09880E-02 2.09533E-03-6.40854E-14
 -1      2324 1.11314E-02 2.17102E-03-6.56855E-14
 -1      2325 1.09834E-02 2.09459E-03-6.30145E-14
 -1      2326 1.12747E-02 2.24681E-03-6.72984E-14
 -1      2327 1.14180E-02 2.32270E-03-6.89206E-14
 -1      2328 1.12700E-02 2.24597E-03-6.62104E-14
 -1      2329 1.15611E-02 2.39868E-03-7.05529E-14
 -1      2330 1.17043E-02 2.47475E-03-7.21968E-14
 -1      2331 1.15563E-02 2.39773E-03-6.94480E-14
 -1      2332 1.18473E-02 2.55092E-03-7.38524E-14
 -1      2333 1.19903E-02 2.62718E-03-7.55199E-14
 -1      2334 1.18424E-02 2.54989E-03-7.27271E-14
 -1      2335 1.21333E-02 2.70352E-03-7.71993E-14
 -1      2336 1.22763E-02 2.77995E-03-7.88896E-14
 -1      2337 1.21284E-02 2.70241E-03-7.60531E-14
 -1      2338 1.24192E-02 2.85644E-03-8.05902E-14
 -1      2339 1.25621E-02 2.93300E-03-8.23028E-14
 -1      2340 1.24143E-02 2.85526E-03-7.94275E-14
 -1      2341 1.27050E-02 3.00961E-03-8.40229E-14
 -1      2342 1.28479E-02 3.08628E-03-8.57501E-14
 -1      2343 1.27001E-02 3.00838E-03-8.28389E-14
 -1      2344 1.29908E-02 3.16300E-03-8.74864E-14
 -1      2345 1.31337E-02 3.23975E-03-8.92282E-14
 -1      2346 1.29859E-02 3.16173E-03-8.62839E-14
 -1      2347 1.32766E-02 3.31654E-03-9.09814E-14
 -1      2348 1.34194E-02 3.39335E-03-9.27394E-14
 -1      2349 1.32716E-02 3.31524E-03-8.97620E-14
 -1      2350 1.09118E-03 3.75487E-04-2.94862E-16
 -1      2351 9.46589E-04 3.45098E-04-2.11013E-16
 -1      2352 9.04233E-04 3.07034E-04-2.29539E-16
 -1      2353 1.89234E-03 4.66937E-04-1.07228E-15
 -1      2354 1.74967E-03 4.57962E-04-8.94169E-16
 -1      2355 2.17789E-03 4.78068E-04-1.48294E-15
 -1      2356 2.03503E-03 4.73576E-04-1.26872E-15
 -1      2357 1.95140E-03 4.34721E-04-1.24592E-15
 -1      2358 2.46434E-03 4.81835E-04-1.96472E-15
 -1      2359 2.32094E-03 4.80765E-04-1.71490E-15
 -1      2360 2.23736E-03 4.43772E-04-1.68584E-15
 -1      2361 2.73779E-03 4.80295E-04-2.49078E-15
 -1      2362 2.60085E-03 4.81605E-04-2.21939E-15
 -1      2363 2.51630E-03 4.46164E-04-2.18373E-15
 -1      2364 3.02733E-03 4.74949E-04-3.11673E-15
 -1      2365 2.88226E-03 4.78008E-04-2.79427E-15
 -1      2366 2.79544E-03 4.43917E-04-2.75192E-15
 -1      2367 3.31875E-03 4.67729E-04-3.81569E-15
 -1      2368 3.17270E-03 4.71459E-04-3.45680E-15
 -1      2369 3.08173E-03 4.38540E-04-3.40769E-15
 -1      2370 3.61199E-03 4.61388E-04-4.58844E-15
 -1      2371 3.46500E-03 4.64283E-04-4.19281E-15
 -1      2372 3.36744E-03 4.32168E-04-4.13661E-15
 -1      2373 3.90693E-03 4.60320E-04-5.43378E-15
 -1      2374 3.75905E-03 4.59916E-04-5.00208E-15
 -1      2375 3.65163E-03 4.27772E-04-4.93923E-15
 -1      2376 4.20387E-03 4.71875E-04-6.35111E-15
 -1      2377 4.05483E-03 4.64004E-04-5.88417E-15
 -1      2378 3.93313E-03 4.29906E-04-5.81413E-15
 -1      2379 4.48996E-03 5.05534E-04-7.28856E-15
 -1      2380 4.34590E-03 4.85047E-04-6.81132E-15
 -1      2381 4.20444E-03 4.45048E-04-6.73580E-15
 -1      2382 4.80295E-03 5.83889E-04-8.34200E-15
 -1      2383 4.64398E-03 5.37291E-04-7.80640E-15
 -1      2384 4.47471E-03 4.83384E-04-7.72514E-15
 -1      2385 5.14618E-03 7.37286E-04-9.46519E-15
 -1      2386 4.96926E-03 6.47335E-04-8.89474E-15
 -1      2387 4.76012E-03 5.64289E-04-8.80737E-15
 -1      2388 6.51539E-03 1.82261E-03-1.24357E-14
 -1      2389 6.95418E-03 2.13031E-03-1.34583E-14
 -1      2390 9.57777E-03 1.38411E-03-2.51893E-14
 -1      2391 9.41852E-03 1.34181E-03-2.40978E-14
 -1      2392 9.87209E-03 1.49393E-03-2.73258E-14
 -1      2393 9.72564E-03 1.43514E-03-2.62483E-14
 -1      2394 9.66012E-03 1.37184E-03-2.60012E-14
 -1      2395 1.01762E-02 1.63503E-03-2.96570E-14
 -1      2396 1.00244E-02 1.56203E-03-2.84810E-14
 -1      2397 9.93757E-03 1.49429E-03-2.82168E-14
 -1      2398 1.04771E-02 1.78990E-03-3.20748E-14
 -1      2399 1.03268E-02 1.71123E-03-3.08563E-14
 -1      2400 1.02233E-02 1.63965E-03-3.05736E-14
 -1      2401 1.07756E-02 1.95120E-03-3.45698E-14
 -1      2402 1.06265E-02 1.87001E-03-3.33130E-14
 -1      2403 1.05111E-02 1.79579E-03-3.30139E-14
 -1      2404 1.10719E-02 2.11491E-03-3.71424E-14
 -1      2405 1.09239E-02 2.03290E-03-3.58476E-14
 -1      2406 1.08004E-02 1.95708E-03-3.55322E-14
 -1      2407 1.13515E-02 2.27076E-03-3.96471E-14
 -1      2408 1.12118E-02 2.19287E-03-3.83883E-14
 -1      2409 1.10829E-02 2.11621E-03-3.80585E-14
 -1      2410 1.16439E-02 2.43418E-03-4.23397E-14
 -1      2411 1.14979E-02 2.35259E-03-4.09859E-14
 -1      2412 1.13654E-02 2.27557E-03-4.06464E-14
 -1      2413 1.19348E-02 2.59652E-03-4.50965E-14
 -1      2414 1.17895E-02 2.51550E-03-4.37099E-14
 -1      2415 1.16547E-02 2.43840E-03-4.33602E-14
 -1      2416 1.22244E-02 2.75767E-03-4.79167E-14
 -1      2417 1.20798E-02 2.67725E-03-4.64986E-14
 -1      2418 1.19434E-02 2.60022E-03-4.61382E-14
 -1      2419 1.25130E-02 2.91765E-03-5.08079E-14
 -1      2420 1.23688E-02 2.83781E-03-4.93527E-14
 -1      2421 1.22315E-02 2.76093E-03-4.89833E-14
 -1      2422 1.28007E-02 3.07658E-03-5.37688E-14
 -1      2423 1.26569E-02 2.99725E-03-5.22782E-14
 -1      2424 1.25191E-02 2.92055E-03-5.18974E-14
 -1      2425 1.30735E-02 3.22671E-03-5.66460E-14
 -1      2426 1.29372E-02 3.15175E-03-5.51995E-14
 -1      2427 1.27990E-02 3.07523E-03-5.48057E-14
 -1      2428 1.33603E-02 3.38396E-03-5.97416E-14
 -1      2429 1.32169E-02 3.30543E-03-5.81848E-14
 -1      2430 1.30786E-02 3.22908E-03-5.77800E-14
 -1      2431 1.36466E-02 3.54056E-03-6.28970E-14
 -1      2432 1.35035E-02 3.46234E-03-6.13108E-14
 -1      2433 1.33650E-02 3.38613E-03-6.08944E-14
 -1      2434 1.39328E-02 3.69660E-03-6.61060E-14
 -1      2435 1.37897E-02 3.61864E-03-6.44976E-14
 -1      2436 1.36512E-02 3.54256E-03-6.40672E-14
 -1      2437 1.42188E-02 3.85221E-03-6.93568E-14
 -1      2438 1.40758E-02 3.77445E-03-6.77252E-14
 -1      2439 1.39373E-02 3.69847E-03-6.72887E-14
 -1      2440 1.44903E-02 3.99971E-03-7.24785E-14
 -1      2441 1.43545E-02 3.92599E-03-7.09143E-14
 -1      2442 1.42161E-02 3.85009E-03-7.04675E-14
 -1      2443 1.47761E-02 4.15471E-03-7.57889E-14
 -1      2444 1.46332E-02 4.07724E-03-7.41310E-14
 -1      2445 1.44948E-02 4.00139E-03-7.36779E-14
 -1      2446 1.50619E-02 4.30951E-03-7.91211E-14
 -1      2447 1.49190E-02 4.23213E-03-7.74519E-14
 -1      2448 1.47806E-02 4.15633E-03-7.69969E-14
 -1      2449 1.53476E-02 4.46418E-03-8.24720E-14
 -1      2450 1.52047E-02 4.38686E-03-8.07937E-14
 -1      2451 1.50663E-02 4.31108E-03-8.03325E-14
 -1      2452 1.55929E-02 4.59664E-03-8.56801E-14
 -1      2453 1.54500E-02 4.51935E-03-8.39991E-14
 -1      2454 1.53116E-02 4.44360E-03-8.35292E-14
 -1      2455 1.55164E-02 4.55392E-03-8.65772E-14
 -1      2456 9.21284E-03 1.09296E-03-2.13341E-14
 -1      2457 9.28349E-03 1.07478E-03-2.16865E-14
 -1      2458 1.49281E-02 4.22758E-03-8.97565E-14
 -1      2459 1.50040E-02 4.26970E-03-8.93383E-14
 -1      2460 8.91602E-03 1.20173E-03-2.01508E-14
 -1      2461 9.07821E-03 1.13826E-03-2.07022E-14
 -1      2462 1.47765E-02 4.14335E-03-9.05905E-14
 -1      2463 1.48523E-02 4.18547E-03-9.01724E-14
 -1      2464 1.47665E-02 4.13972E-03-8.85066E-14
 -1      2465 1.46249E-02 4.05913E-03-9.14274E-14
 -1      2466 1.47007E-02 4.10124E-03-9.10107E-14
 -1      2467 1.46149E-02 4.05553E-03-8.93373E-14
 -1      2468 1.44734E-02 3.97491E-03-9.22618E-14
 -1      2469 1.45492E-02 4.01702E-03-9.18453E-14
 -1      2470 1.44633E-02 3.97136E-03-9.01654E-14
 -1      2471 1.43246E-02 3.89211E-03-9.30738E-14
 -1      2472 1.43990E-02 3.93351E-03-9.26660E-14
 -1      2473 1.43132E-02 3.88789E-03-9.09789E-14
 -1      2474 1.41733E-02 3.80786E-03-9.39009E-14
 -1      2475 1.42489E-02 3.84999E-03-9.34894E-14
 -1      2476 1.41631E-02 3.80441E-03-9.17874E-14
 -1      2477 1.40221E-02 3.72360E-03-9.47277E-14
 -1      2478 1.40977E-02 3.76573E-03-9.43145E-14
 -1      2479 1.40118E-02 3.72020E-03-9.26035E-14
 -1      2480 1.38709E-02 3.63933E-03-9.55485E-14
 -1      2481 1.39465E-02 3.68147E-03-9.51369E-14
 -1      2482 1.38606E-02 3.63596E-03-9.34162E-14
 -1      2483 1.38156E-02 3.60691E-03-9.72298E-14
 -1      2484 8.50987E-03 1.40966E-03-1.88485E-14
 -1      2485 8.70329E-03 1.30276E-03-1.94592E-14
 -1      2486 9.26659E-03 1.04421E-03-2.25181E-14
 -1      2487 9.18453E-03 1.03052E-03-2.25842E-14
 -1      2488 1.60698E-03 4.46176E-04-7.33585E-16
 -1      2489 1.46407E-03 4.31353E-04-5.90226E-16
 -1      2490 1.66528E-03 4.16881E-04-8.77269E-16
 -1      2491 9.06186E-03 1.00441E-03-2.26731E-14
 -1      2492 8.91941E-03 9.69173E-04-2.26622E-14
 -1      2493 1.52311E-02 4.39573E-03-8.80892E-14
 -1      2494 1.53058E-02 4.43715E-03-8.76833E-14
 -1      2495 7.02517E-03-2.32365E-05-1.96210E-14
 -1      2496 6.85199E-03-1.22751E-04-1.90193E-14
 -1      2497 4.99159E-03 3.23300E-04-1.27763E-14
 -1      2498 4.80157E-03 3.93096E-04-1.23282E-14
 -1      2499 4.41997E-03 5.01121E-04-1.13844E-14
 -1      2500 4.36137E-03 5.15443E-04-1.12274E-14
 -1      2501 1.53731E-02 4.47446E-03-8.73382E-14
 -1      2502 1.54491E-02 4.51661E-03-8.69196E-14
 -1      2503 1.53467E-02 4.46146E-03-8.53996E-14
 -1      2504 1.52120E-02 4.38685E-03-8.60895E-14
 -1      2505 1.50796E-02 4.31165E-03-8.89225E-14
 -1      2506 1.51555E-02 4.35378E-03-8.85058E-14
 -1      2507 1.50691E-02 4.30761E-03-8.68511E-14
 -1      2508 1.49179E-02 4.22374E-03-8.76790E-14
 -1      2509 9.25458E-03 1.31376E-03-2.30322E-14
 -1      2510 9.08304E-03 1.30691E-03-2.19888E-14
 -1      2511 9.37853E-03 1.28234E-03-2.38699E-14
 -1      2512 9.31801E-03 1.05736E-03-2.18881E-14
 -1      2513 9.31869E-03 1.05382E-03-2.22100E-14
 -1      2514 5.45245E-04-2.18218E-05-2.50911E-16
 -1      2515 5.45856E-04-3.71329E-05-2.56726E-16
 -1      2516 6.60931E-04-5.31707E-05-3.51038E-16
 -1      2517 6.59289E-04-1.68064E-05-3.36048E-16
 -1      2518 1.34613E-03 4.16838E-04-4.84178E-16
 -1      2519 1.20971E-03 3.96281E-04-3.76706E-16
 -1      2520 1.16692E-03 3.58168E-04-3.99867E-16
 -1      2521 1.40382E-03 3.91181E-04-6.01353E-16
 -1      2522 5.35644E-03 1.59583E-04-1.36359E-14
 -1      2523 5.18923E-03 2.38505E-04-1.32278E-14
 -1      2524 5.11023E-03 8.18263E-04-1.10263E-14
 -1      2525 5.33215E-03 9.38983E-04-1.11548E-14
 -1      2526 4.68885E-03 6.31419E-04-1.08437E-14
 -1      2527 4.87674E-03 7.03460E-04-1.08914E-14
 -1      2528 4.43535E-03 5.54180E-04-1.08698E-14
 -1      2529 4.53646E-03 5.82714E-04-1.08715E-14
 -1      2530 4.34349E-03 5.25842E-04-1.10801E-14
 -1      2531 4.35865E-03 5.29980E-04-1.09321E-14
 -1      2532 4.33569E-03 5.01826E-04-1.08429E-14
 -1      2533 4.63431E-03 4.46237E-04-1.19155E-14
 -1      2534 4.53105E-03 4.72073E-04-1.16598E-14
 -1      2535 6.38858E-03-2.46471E-04-1.70816E-14
 -1      2536 6.25385E-03-2.30139E-04-1.65298E-14
 -1      2537 5.69639E-03-7.39988E-06-1.45844E-14
 -1      2538 5.54356E-03 7.04330E-05-1.41513E-14
 -1      2539 8.28621E-03 7.31844E-04-2.22844E-14
 -1      2540 8.07901E-03 6.24192E-04-2.19626E-14
 -1      2541 6.05036E-03-1.70174E-04-1.57335E-14
 -1      2542 5.87472E-03-9.22380E-05-1.51251E-14
 -1      2543 6.64838E-03-2.06248E-04-1.82424E-14
 -1      2544 6.52293E-03-2.38399E-04-1.76562E-14
 -1      2545 6.42878E-03-2.49860E-04-1.74841E-14
 -1      2546 7.38112E-03 2.01609E-04-2.05887E-14
 -1      2547 7.22571E-03 9.82360E-05-2.01878E-14
 -1      2548 7.84365E-03 4.89441E-04-2.15261E-14
 -1      2549 7.60981E-03 3.45926E-04-2.10974E-14
 -1      2550 7.94309E-03 5.73046E-04-2.22544E-14
 -1      2551 8.73757E-03 9.10372E-04-2.25753E-14
 -1      2552 8.54649E-03 8.42200E-04-2.24809E-14
 -1      2553 5.89610E-04-2.33111E-04-2.67595E-16
 -1      2554 7.82839E-04-2.98171E-04-4.19546E-16
 -1      2555 8.42374E-04-2.86216E-04-4.96294E-16
 -1      2556 5.79986E-04-2.05248E-04-2.74371E-16
 -1      2557 8.11393E-03 1.66730E-03-1.76083E-14
 -1      2558 8.30346E-03 1.53717E-03-1.81957E-14
 -1      2559 6.70095E-04-1.32854E-04-3.70689E-16
 -1      2560 5.54743E-04-1.21862E-04-2.75076E-16
 -1      2561 5.58240E-04-1.41591E-04-2.75929E-16
 -1      2562 8.83676E-03 9.67416E-04-2.31970E-14
 -1      2563 8.00151E-03 1.74976E-03-1.72518E-14
 -1      2564 7.76082E-03 1.91093E-03-1.64294E-14
 -1      2565 8.83226E-03 1.25199E-03-2.00940E-14
 -1      2566 5.43267E-03 1.07690E-04-1.37355E-14
 -1      2567 5.33232E-03 8.53944E-04-1.01638E-14
 -1      2568 5.06521E-03 7.18159E-04-1.00671E-14
 -1      2569 7.57357E-03 2.03373E-03-1.57882E-14
 -1      2570 8.36930E-03 1.53638E-03-1.86350E-14
 -1      2571 8.13113E-03 1.67410E-03-1.77148E-14
 -1      2572 9.16786E-03 1.12237E-03-2.14356E-14
 -1      2573 8.94533E-03 1.26099E-03-2.10660E-14
 -1      2574 8.75695E-03 1.35364E-03-2.02727E-14
 -1      2575 9.32012E-03 1.08074E-03-2.22856E-14
 -1      2576 1.36395E-02 3.51162E-03-9.55345E-14
 -1      2577 1.37808E-02 3.58953E-03-9.55906E-14
 -1      2578 1.36948E-02 3.54404E-03-9.38621E-14
 -1      2579 1.35145E-02 3.44445E-03-9.39364E-14
 -1      2580 9.30780E-03 1.06437E-03-2.28013E-14
 -1      2581 8.43213E-03 1.46859E-03-1.87324E-14
 -1      2582 9.13060E-03 1.04076E-03-2.31999E-14
 -1      2583 5.07005E-03 2.72619E-04-1.27824E-14
 -1      2584 5.64957E-04-1.60187E-04-2.77813E-16
 -1      2585 5.70605E-04-1.83164E-04-2.75672E-16
 -1      2586 6.98947E-04-2.21710E-04-3.78088E-16
 -1      2587 6.81298E-04-1.75941E-04-3.75906E-16
 -1      2588 6.73067E-03-1.67243E-04-1.88387E-14
 -1      2589 4.71719E-03 4.03942E-04-1.19312E-14
 -1      2590 6.13143E-03-2.10178E-04-1.61077E-14
 -1      2591 4.44853E-03 4.76177E-04-1.12565E-14
 -1      2592 8.41315E-03 8.09336E-04-2.29047E-14
 -1      2593 5.77829E-03-6.20415E-05-1.47834E-14
 -1      2594 7.10129E-03 3.88137E-05-2.02001E-14
 -1      2595 4.38000E-03 5.21276E-04-1.06382E-14
 -1      2596 4.41290E-03 5.12034E-04-1.03485E-14
 -1      2597 4.33914E-03 4.97317E-04-1.04080E-14
 -1      2598 8.54866E-03 1.42708E-03-1.93048E-14
 -1      2599 4.61562E-03 5.82222E-04-1.05501E-14
 -1      2600 4.98867E-03 7.26863E-04-1.06520E-14
 -1      2601 5.42690E-03 9.63765E-04-1.09281E-14
 -1      2602 5.54872E-03 1.07127E-03-1.13046E-14
 -1      2603 5.76856E-03 1.22074E-03-1.14565E-14
 -1      2604 7.50220E-03 3.00174E-04-2.12916E-14
 -1      2605 6.10895E-03 1.48161E-03-1.18237E-14
 -1      2606 5.88065E-03 1.27274E-03-1.12972E-14
 -1      2607 5.74017E-03 1.14662E-03-1.09158E-14
 -1      2608 1.35096E-02 3.44314E-03-9.27055E-14
 -1      2609 7.77908E-04 7.33571E-05-3.81002E-16
 -1      2610 7.76360E-04 5.26096E-05-3.95815E-16
 -1      2611 7.75328E-04 3.18592E-05-4.09313E-16
 -1      2612 7.74841E-04 1.13569E-05-4.21944E-16
 -1      2613 8.92952E-04 4.71599E-05-5.11554E-16
 -1      2614 7.91161E-04 1.65349E-04-3.06111E-16
 -1      2615 7.86612E-04 1.40742E-04-3.27646E-16
 -1      2616 8.03993E-04 2.19348E-04-2.56617E-16
 -1      2617 7.96945E-04 1.91493E-04-2.82638E-16
 -1      2618 9.14533E-04 1.98430E-04-3.80365E-16
 -1      2619 8.71302E-04 2.78355E-04-2.40422E-16
 -1      2620 8.33627E-04 2.44542E-04-2.51494E-16
 -1      2621 9.51635E-04 2.53293E-04-3.45915E-16
 -1      2622 1.01475E-03 3.08100E-04-3.28662E-16
 -1      2623 1.35047E-02 3.44183E-03-9.14783E-14
 -1      2624 1.35997E-02 3.49293E-03-9.26683E-14
 -1      2625 1.36899E-02 3.54272E-03-9.26290E-14
 -1      2626 1.03552E-03-3.04825E-04-7.23746E-16
 -1      2627 1.17911E-03-3.29378E-04-9.08101E-16
 -1      2628 1.32268E-03-3.50177E-04-1.11407E-15
 -1      2629 1.46637E-03-3.67471E-04-1.34116E-15
 -1      2630 1.24008E-03-3.07500E-04-1.01027E-15
 -1      2631 1.60994E-03-3.81817E-04-1.58913E-15
 -1      2632 1.75351E-03-3.93455E-04-1.85854E-15
 -1      2633 1.52719E-03-3.40475E-04-1.46184E-15
 -1      2634 1.89704E-03-4.02886E-04-2.14906E-15
 -1      2635 2.04060E-03-4.10321E-04-2.46026E-15
 -1      2636 1.81468E-03-3.62791E-04-1.99671E-15
 -1      2637 2.18422E-03-4.16183E-04-2.79261E-15
 -1      2638 2.32795E-03-4.20669E-04-3.14467E-15
 -1      2639 2.10240E-03-3.77001E-04-2.61495E-15
 -1      2640 2.47187E-03-4.24133E-04-3.51801E-15
 -1      2641 2.61601E-03-4.26764E-04-3.91209E-15
 -1      2642 2.39052E-03-3.85410E-04-3.31437E-15
 -1      2643 2.76047E-03-4.28868E-04-4.32621E-15
 -1      2644 2.90525E-03-4.30633E-04-4.76072E-15
 -1      2645 2.67944E-03-3.90078E-04-4.09526E-15
 -1      2646 3.05048E-03-4.32326E-04-5.21538E-15
 -1      2647 3.19615E-03-4.34140E-04-5.69022E-15
 -1      2648 2.96967E-03-3.92889E-04-4.95665E-15
 -1      2649 3.34240E-03-4.36304E-04-6.18593E-15
 -1      2650 3.48918E-03-4.39014E-04-6.70193E-15
 -1      2651 3.26183E-03-3.95620E-04-5.89886E-15
 -1      2652 3.63666E-03-4.42448E-04-7.23793E-15
 -1      2653 3.78472E-03-4.46787E-04-7.79470E-15
 -1      2654 3.55658E-03-3.99966E-04-6.92240E-15
 -1      2655 3.93353E-03-4.52128E-04-8.37175E-15
 -1      2656 4.08288E-03-4.58589E-04-8.96882E-15
 -1      2657 3.85453E-03-4.07490E-04-8.02671E-15
 -1      2658 4.23292E-03-4.66142E-04-9.58612E-15
 -1      2659 4.38330E-03-4.74757E-04-1.02249E-14
 -1      2660 4.15597E-03-4.19412E-04-9.21163E-15
 -1      2661 4.53411E-03-4.84215E-04-1.08843E-14
 -1      2662 4.68490E-03-4.94221E-04-1.15636E-14
 -1      2663 4.46061E-03-4.36175E-04-1.04781E-14
 -1      2664 4.83564E-03-5.04297E-04-1.22651E-14
 -1      2665 4.98583E-03-5.13748E-04-1.29877E-14
 -1      2666 4.76720E-03-4.56717E-04-1.18289E-14
 -1      2667 5.13532E-03-5.21801E-04-1.37315E-14
 -1      2668 5.28373E-03-5.27324E-04-1.44974E-14
 -1      2669 5.07344E-03-4.77490E-04-1.32634E-14
 -1      2670 5.43084E-03-5.29302E-04-1.52852E-14
 -1      2671 5.57661E-03-5.26294E-04-1.60952E-14
 -1      2672 5.37636E-03-4.91664E-04-1.47855E-14
 -1      2673 5.72083E-03-5.17232E-04-1.69279E-14
 -1      2674 5.86399E-03-5.00798E-04-1.77846E-14
 -1      2675 5.67357E-03-4.89262E-04-1.63966E-14
 -1      2676 6.00596E-03-4.76205E-04-1.86636E-14
 -1      2677 6.14767E-03-4.42713E-04-1.95664E-14
 -1      2678 5.96474E-03-4.59169E-04-1.80997E-14
 -1      2679 6.28907E-03-4.00114E-04-2.04945E-14
 -1      2680 6.43121E-03-3.48655E-04-2.14469E-14
 -1      2681 6.25249E-03-3.92891E-04-1.98977E-14
 -1      2682 6.57400E-03-2.88803E-04-2.24229E-14
 -1      2683 6.71824E-03-2.21552E-04-2.34242E-14
 -1      2684 6.54119E-03-2.88314E-04-2.17938E-14
 -1      2685 6.86375E-03-1.47863E-04-2.44509E-14
 -1      2686 7.01078E-03-6.91788E-05-2.55005E-14
 -1      2687 6.83480E-03-1.50551E-04-2.37885E-14
 -1      2688 7.15909E-03 1.34198E-05-2.65739E-14
 -1      2689 7.30850E-03 9.86051E-05-2.76717E-14
 -1      2690 7.13464E-03 1.03134E-05-2.58815E-14
 -1      2691 7.45880E-03 1.85446E-04-2.87919E-14
 -1      2692 7.60953E-03 2.72981E-04-2.99338E-14
 -1      2693 7.43933E-03 1.83286E-04-2.80674E-14
 -1      2694 7.76059E-03 3.60555E-04-3.10988E-14
 -1      2695 7.91151E-03 4.47650E-04-3.22850E-14
 -1      2696 7.74607E-03 3.59598E-04-3.03435E-14
 -1      2697 8.06229E-03 5.33884E-04-3.34933E-14
 -1      2698 8.21255E-03 6.19075E-04-3.47239E-14
 -1      2699 8.05208E-03 5.33804E-04-3.27081E-14
 -1      2700 8.36238E-03 7.03061E-04-3.59772E-14
 -1      2701 8.51152E-03 7.85863E-04-3.72536E-14
 -1      2702 8.35550E-03 7.03414E-04-3.51606E-14
 -1      2703 8.66011E-03 8.67464E-04-3.85532E-14
 -1      2704 8.80801E-03 9.47981E-04-3.98742E-14
 -1      2705 8.65552E-03 8.67901E-04-3.77041E-14
 -1      2706 8.95536E-03 1.02748E-03-4.12169E-14
 -1      2707 9.10209E-03 1.10611E-03-4.25821E-14
 -1      2708 8.95212E-03 1.02780E-03-4.03358E-14
 -1      2709 9.24834E-03 1.18396E-03-4.39675E-14
 -1      2710 9.39409E-03 1.26117E-03-4.53733E-14
 -1      2711 9.24573E-03 1.18407E-03-4.30538E-14
 -1      2712 9.53944E-03 1.33786E-03-4.67995E-14
 -1      2713 9.68441E-03 1.41412E-03-4.82444E-14
 -1      2714 9.53697E-03 1.33774E-03-4.58568E-14
 -1      2715 9.82907E-03 1.49006E-03-4.97089E-14
 -1      2716 9.97344E-03 1.56576E-03-5.11886E-14
 -1      2717 9.82642E-03 1.48974E-03-4.87367E-14
 -1      2718 1.01176E-02 1.64129E-03-5.26829E-14
 -1      2719 1.02615E-02 1.71672E-03-5.41939E-14
 -1      2720 1.01146E-02 1.64079E-03-5.16848E-14
 -1      2721 1.04053E-02 1.79210E-03-5.57187E-14
 -1      2722 1.05489E-02 1.86746E-03-5.72577E-14
 -1      2723 1.04019E-02 1.79144E-03-5.46954E-14
 -1      2724 1.06924E-02 1.94285E-03-5.88095E-14
 -1      2725 1.08358E-02 2.01828E-03-6.03734E-14
 -1      2726 1.06887E-02 1.94207E-03-5.77645E-14
 -1      2727 1.09791E-02 2.09379E-03-6.19465E-14
 -1      2728 1.11223E-02 2.16938E-03-6.35308E-14
 -1      2729 1.09750E-02 2.09291E-03-6.08826E-14
 -1      2730 1.12654E-02 2.24507E-03-6.51248E-14
 -1      2731 1.14086E-02 2.32085E-03-6.67305E-14
 -1      2732 1.12611E-02 2.24409E-03-6.40436E-14
 -1      2733 1.15516E-02 2.39674E-03-6.83456E-14
 -1      2734 1.16946E-02 2.47273E-03-6.99705E-14
 -1      2735 1.15471E-02 2.39568E-03-6.72468E-14
 -1      2736 1.18376E-02 2.54881E-03-7.16076E-14
 -1      2737 1.19806E-02 2.62499E-03-7.32547E-14
 -1      2738 1.18330E-02 2.54769E-03-7.04908E-14
 -1      2739 1.21236E-02 2.70126E-03-7.49151E-14
 -1      2740 1.22665E-02 2.77762E-03-7.65843E-14
 -1      2741 1.21188E-02 2.70009E-03-7.37808E-14
 -1      2742 1.24094E-02 2.85406E-03-7.82671E-14
 -1      2743 1.25523E-02 2.93056E-03-7.99615E-14
 -1      2744 1.24046E-02 2.85283E-03-7.71137E-14
 -1      2745 1.26952E-02 3.00713E-03-8.16616E-14
 -1      2746 1.28381E-02 3.08376E-03-8.33713E-14
 -1      2747 1.26904E-02 3.00587E-03-8.04902E-14
 -1      2748 1.29810E-02 3.16045E-03-8.50921E-14
 -1      2749 1.31239E-02 3.23717E-03-8.68156E-14
 -1      2750 1.29761E-02 3.15915E-03-8.39028E-14
 -1      2751 1.32428E-02 3.30108E-03-8.82715E-14
 -1      2752 1.33857E-02 3.37787E-03-9.00125E-14
 -1      2753 1.34759E-02 3.42764E-03-8.99779E-14
 -1      2754 1.32379E-02 3.29977E-03-8.70677E-14
 -1      2755 9.35294E-03 1.09108E-03-2.33405E-14
 -1      2756 9.30628E-03 1.09087E-03-2.36545E-14
 -1      2757 2.29655E-03 4.09639E-04-1.89496E-15
 -1      2758 2.15377E-03 4.06864E-04-1.65165E-15
 -1      2759 2.01087E-03 4.02338E-04-1.42593E-15
 -1      2760 1.86780E-03 3.95904E-04-1.21797E-15
 -1      2761 2.07055E-03 3.69990E-04-1.61256E-15
 -1      2762 2.85123E-03 4.08697E-04-3.01971E-15
 -1      2763 2.70940E-03 4.10344E-04-2.70438E-15
 -1      2764 3.13330E-03 4.04047E-04-3.70473E-15
 -1      2765 2.99250E-03 4.06569E-04-3.35287E-15
 -1      2766 2.90531E-03 3.74909E-04-3.29306E-15
 -1      2767 3.41221E-03 3.99475E-04-4.46401E-15
 -1      2768 3.27316E-03 4.01657E-04-4.07572E-15
 -1      2769 3.18234E-03 3.71754E-04-4.00884E-15
 -1      2770 3.68609E-03 3.98139E-04-5.29593E-15
 -1      2771 3.54978E-03 3.98279E-04-4.87095E-15
 -1      2772 3.45356E-03 3.69928E-04-4.79791E-15
 -1      2773 3.95269E-03 4.04608E-04-6.20031E-15
 -1      2774 3.82024E-03 4.00218E-04-5.73926E-15
 -1      2775 3.71617E-03 3.72716E-04-5.65930E-15
 -1      2776 4.19754E-03 4.23930E-04-7.12509E-15
 -1      2777 4.07589E-03 4.12432E-04-6.65422E-15
 -1      2778 3.96063E-03 3.84060E-04-6.56743E-15
 -1      2779 4.44728E-03 4.67016E-04-8.16785E-15
 -1      2780 4.32263E-03 4.41866E-04-7.63769E-15
 -1      2781 4.19040E-03 4.08847E-04-7.54414E-15
 -1      2782 4.69659E-03 5.49794E-04-9.27863E-15
 -1      2783 4.57004E-03 5.02023E-04-8.71493E-15
 -1      2784 4.40922E-03 4.55658E-04-8.61613E-15
 -1      2785 5.50319E-03 4.28546E-05-1.38440E-14
 -1      2786 5.33775E-03 1.19530E-04-1.33380E-14
 -1      2787 5.54089E-03 1.01669E-03-1.07738E-14
 -1      2788 1.02632E-02 1.64810E-03-3.14916E-14
 -1      2789 1.01266E-02 1.57285E-03-3.02895E-14
 -1      2790 6.80497E-03 2.04977E-03-1.33811E-14
 -1      2791 7.60034E-03 3.83463E-04-2.20731E-14
 -1      2792 7.39993E-03 2.50289E-04-2.15467E-14
 -1      2793 9.99221E-03 1.50081E-03-2.91089E-14
 -1      2794 9.85928E-03 1.43226E-03-2.79512E-14
 -1      2795 1.00357E-02 1.51093E-03-3.00048E-14
 -1      2796 9.12650E-03 1.15882E-03-2.16011E-14
 -1      2797 9.24909E-03 1.12880E-03-2.22513E-14
 -1      2798 9.73536E-03 1.37207E-03-2.68702E-14
 -1      2799 9.61222E-03 1.31724E-03-2.58074E-14
 -1      2800 9.79434E-03 1.37898E-03-2.77405E-14
 -1      2801 1.05406E-02 1.80412E-03-3.39546E-14
 -1      2802 1.04010E-02 1.72523E-03-3.27134E-14
 -1      2803 1.02957E-02 1.65854E-03-3.24099E-14
 -1      2804 1.08223E-02 1.96455E-03-3.64939E-14
 -1      2805 1.06809E-02 1.88391E-03-3.52154E-14
 -1      2806 1.05651E-02 1.81365E-03-3.48971E-14
 -1      2807 1.10925E-02 2.11862E-03-3.89752E-14
 -1      2808 1.09571E-02 2.04145E-03-3.77269E-14
 -1      2809 1.08342E-02 1.96879E-03-3.73938E-14
 -1      2810 1.13783E-02 2.28110E-03-4.16465E-14
 -1      2811 1.12352E-02 2.19986E-03-4.03032E-14
 -1      2812 1.11073E-02 2.12565E-03-3.99588E-14
 -1      2813 1.16649E-02 2.44310E-03-4.43844E-14
 -1      2814 1.15215E-02 2.36218E-03-4.30079E-14
 -1      2815 1.13901E-02 2.28700E-03-4.26527E-14
 -1      2816 1.19517E-02 2.60425E-03-4.71831E-14
 -1      2817 1.18083E-02 2.52379E-03-4.57741E-14
 -1      2818 1.16744E-02 2.44807E-03-4.54106E-14
 -1      2819 1.22385E-02 2.76441E-03-5.00532E-14
 -1      2820 1.20951E-02 2.68445E-03-4.86087E-14
 -1      2821 1.19596E-02 2.60845E-03-4.82326E-14
 -1      2822 1.25252E-02 2.92359E-03-5.29914E-14
 -1      2823 1.23818E-02 2.84412E-03-5.15130E-14
 -1      2824 1.22453E-02 2.76801E-03-5.11272E-14
 -1      2825 1.27973E-02 3.07398E-03-5.58467E-14
 -1      2826 1.26613E-02 2.99888E-03-5.44114E-14
 -1      2827 1.25240E-02 2.92275E-03-5.40144E-14
 -1      2828 1.30837E-02 3.23149E-03-5.89200E-14
 -1      2829 1.29405E-02 3.15283E-03-5.73755E-14
 -1      2830 1.28028E-02 3.07673E-03-5.69679E-14
 -1      2831 1.33698E-02 3.38832E-03-6.20505E-14
 -1      2832 1.32268E-02 3.30999E-03-6.04775E-14
 -1      2833 1.30888E-02 3.23395E-03-6.00609E-14
 -1      2834 1.36559E-02 3.54457E-03-6.52418E-14
 -1      2835 1.35129E-02 3.46651E-03-6.36396E-14
 -1      2836 1.33747E-02 3.39053E-03-6.32109E-14
 -1      2837 1.39418E-02 3.70034E-03-6.84704E-14
 -1      2838 1.37989E-02 3.62251E-03-6.68511E-14
 -1      2839 1.36606E-02 3.54659E-03-6.64129E-14
 -1      2840 1.42134E-02 3.84797E-03-7.15794E-14
 -1      2841 1.40776E-02 3.77419E-03-7.00207E-14
 -1      2842 1.39393E-02 3.69833E-03-6.95752E-14
 -1      2843 1.44992E-02 4.00307E-03-7.48826E-14
 -1      2844 1.43563E-02 3.92555E-03-7.32287E-14
 -1      2845 1.42180E-02 3.84973E-03-7.27750E-14
 -1      2846 1.47850E-02 4.15794E-03-7.82034E-14
 -1      2847 1.46421E-02 4.08053E-03-7.65395E-14
 -1      2848 1.45037E-02 4.00474E-03-7.60844E-14
 -1      2849 1.50708E-02 4.31265E-03-8.15411E-14
 -1      2850 1.49279E-02 4.23532E-03-7.98705E-14
 -1      2851 1.47895E-02 4.15955E-03-7.94085E-14
 -1      2852 1.52599E-02 4.41465E-03-8.42338E-14
 -1      2853 1.51575E-02 4.35948E-03-8.27102E-14
 -1      2854 1.50191E-02 4.28373E-03-8.22440E-14
 -1      2855 1.51926E-02 4.37735E-03-8.45790E-14
 -1      2856 1.44533E-02 3.96774E-03-8.80803E-14
 -1      2857 1.45291E-02 4.00980E-03-8.76698E-14
 -1      2858 9.34534E-03 1.10628E-03-2.29270E-14
 -1      2859 9.36380E-03 1.09780E-03-2.31360E-14
 -1      2860 9.39559E-03 1.12232E-03-2.39982E-14
 -1      2861 4.53173E-03 5.35382E-04-1.02012E-14
 -1      2862 4.67158E-03 5.73156E-04-1.01723E-14
 -1      2863 1.46049E-02 4.05187E-03-8.72553E-14
 -1      2864 1.46807E-02 4.09395E-03-8.68440E-14
 -1      2865 1.44433E-02 3.96405E-03-8.60068E-14
 -1      2866 1.41523E-02 3.80055E-03-8.96954E-14
 -1      2867 1.42267E-02 3.84190E-03-8.92999E-14
 -1      2868 1.40009E-02 3.71639E-03-9.05046E-14
 -1      2869 1.40766E-02 3.75847E-03-9.01013E-14
 -1      2870 1.39901E-02 3.71251E-03-8.84235E-14
 -1      2871 1.38496E-02 3.63220E-03-9.13073E-14
 -1      2872 1.39252E-02 3.67430E-03-9.09048E-14
 -1      2873 1.38387E-02 3.62839E-03-8.92187E-14
 -1      2874 1.37655E-02 3.58484E-03-9.22295E-14
 -1      2875 5.12126E-03 2.19278E-04-1.27342E-14
 -1      2876 4.94969E-03 2.92860E-04-1.22973E-14
 -1      2877 8.01221E-03 6.30423E-04-2.29719E-14
 -1      2878 7.80206E-03 5.07621E-04-2.25201E-14
 -1      2879 7.69067E-03 4.46017E-04-2.27802E-14
 -1      2880 4.77263E-03 3.55013E-04-1.18238E-14
 -1      2881 4.62100E-03 3.99501E-04-1.14249E-14
 -1      2882 4.32261E-03 4.78586E-04-1.05672E-14
 -1      2883 4.30964E-03 4.81953E-04-1.04268E-14
 -1      2884 8.55219E-03 8.89460E-04-2.37198E-14
 -1      2885 8.32202E-03 7.89968E-04-2.35100E-14
 -1      2886 9.48420E-03 1.26736E-03-2.47107E-14
 -1      2887 9.35457E-03 1.22805E-03-2.36388E-14
 -1      2888 9.56681E-03 1.26503E-03-2.55575E-14
 -1      2889 1.72463E-03 3.87170E-04-1.02799E-15
 -1      2890 1.58127E-03 3.75952E-04-8.55490E-16
 -1      2891 1.78465E-03 3.57204E-04-1.18513E-15
 -1      2892 8.92529E-03 1.01177E-03-2.37981E-14
 -1      2893 8.75922E-03 9.61487E-04-2.37045E-14
 -1      2894 9.20465E-03 1.07596E-03-2.38360E-14
 -1      2895 9.09273E-03 1.05759E-03-2.39237E-14
 -1      2896 1.43021E-02 3.88379E-03-8.88964E-14
 -1      2897 1.43778E-02 3.92585E-03-8.84881E-14
 -1      2898 1.42920E-02 3.88015E-03-8.68211E-14
 -1      2899 1.41412E-02 3.79643E-03-8.76235E-14
 -1      2900 2.57085E-03 4.11116E-04-2.41511E-15
 -1      2901 2.43555E-03 4.10985E-04-2.15012E-15
 -1      2902 2.35182E-03 3.75862E-04-2.10431E-15
 -1      2903 2.62799E-03 3.76902E-04-2.65947E-15
 -1      2904 6.63331E-03 1.92648E-03-1.28803E-14
 -1      2905 6.38556E-03 1.71419E-03-1.22196E-14
 -1      2906 6.17209E-03-2.38698E-04-1.64195E-14
 -1      2907 5.99907E-03-1.83262E-04-1.56309E-14
 -1      2908 4.47118E-03 4.47207E-04-1.10756E-14
 -1      2909 4.37775E-03 4.67562E-04-1.08109E-14
 -1      2910 7.82957E-04 1.17397E-04-3.46985E-16
 -1      2911 7.80105E-04 9.49675E-05-3.64766E-16
 -1      2912 8.96771E-04 9.42921E-05-4.75179E-16
 -1      2913 9.03654E-04 1.44070E-04-4.32068E-16
 -1      2914 5.81081E-03-1.09705E-04-1.48937E-14
 -1      2915 5.66265E-03-3.43362E-05-1.43623E-14
 -1      2916 5.54485E-03-1.92966E-05-1.39480E-14
 -1      2917 7.80193E-04-9.34803E-05-4.69338E-16
 -1      2918 7.82987E-04-1.16104E-04-4.75856E-16
 -1      2919 7.19149E-03 1.12691E-04-2.08936E-14
 -1      2920 7.01820E-03-9.61487E-07-2.03120E-14
 -1      2921 6.44814E-03-2.49551E-04-1.78243E-14
 -1      2922 6.33652E-03-2.58377E-04-1.72473E-14
 -1      2923 8.00725E-04-2.48184E-04-4.71167E-16
 -1      2924 9.32324E-04-2.82448E-04-6.05337E-16
 -1      2925 9.94127E-04-2.66545E-04-6.89864E-16
 -1      2926 7.90268E-04-2.22371E-04-4.70828E-16
 -1      2927 6.80499E-03-1.21532E-04-1.95032E-14
 -1      2928 6.62955E-03-2.01771E-04-1.87135E-14
 -1      2929 8.91791E-04 1.18062E-06-5.42426E-16
 -1      2930 7.74865E-04-9.12022E-06-4.33423E-16
 -1      2931 7.75396E-04-2.96769E-05-4.44021E-16
 -1      2932 1.13309E-03 3.28806E-04-4.13826E-16
 -1      2933 1.10047E-03 3.00336E-04-4.25170E-16
 -1      2934 1.25159E-03 3.46637E-04-5.10429E-16
 -1      2935 6.89936E-03-6.28575E-05-2.01757E-14
 -1      2936 9.29178E-03 1.10831E-03-2.43889E-14
 -1      2937 9.10499E-03 1.20132E-03-2.17925E-14
 -1      2938 4.82094E-03 2.99794E-04-1.17785E-14
 -1      2939 9.33816E-03 1.13655E-03-2.31060E-14
 -1      2940 8.66684E-03 9.41833E-04-2.43245E-14
 -1      2941 5.19482E-03 1.48284E-04-1.28360E-14
 -1      2942 4.73917E-03 5.72529E-04-9.60464E-15
 -1      2943 4.54588E-03 5.08488E-04-9.50038E-15
 -1      2944 9.03735E-04-1.42572E-04-6.04931E-16
 -1      2945 7.86548E-04-1.39637E-04-4.80911E-16
 -1      2946 7.90931E-04-1.64316E-04-4.84571E-16
 -1      2947 7.30218E-03 1.93028E-04-2.16594E-14
 -1      2948 1.47563E-02 4.13585E-03-8.64329E-14
 -1      2949 1.48318E-02 4.17775E-03-8.60205E-14
 -1      2950 1.45946E-02 4.04797E-03-8.51854E-14
 -1      2951 4.44741E-03 5.03067E-04-9.97709E-15
 -1      2952 5.87037E-03-1.61681E-04-1.51897E-14
 -1      2953 1.36789E-02 3.53898E-03-9.05249E-14
 -1      2954 8.17893E-03 7.24147E-04-2.37837E-14
 -1      2955 1.49074E-02 4.21967E-03-8.56101E-14
 -1      2956 1.49830E-02 4.26160E-03-8.51943E-14
 -1      2957 1.47458E-02 4.13174E-03-8.43668E-14
 -1      2958 4.30398E-03 4.72252E-04-1.01405E-14
 -1      2959 1.50542E-02 4.30082E-03-8.50593E-14
 -1      2960 1.51215E-02 4.33811E-03-8.47137E-14
 -1      2961 1.50347E-02 4.29131E-03-8.35491E-14
 -1      2962 1.48925E-02 4.21286E-03-8.38205E-14
 -1      2963 6.53005E-03-2.29418E-04-1.84621E-14
 -1      2964 9.03138E-03 1.05507E-03-2.44407E-14
 -1      2965 7.76446E-04-5.04411E-05-4.53237E-16
 -1      2966 7.78024E-04-7.16919E-05-4.61599E-16
 -1      2967 8.96988E-04-9.22781E-05-5.88884E-16
 -1      2968 8.93124E-04-4.48512E-05-5.68014E-16
 -1      2969 4.86074E-03 6.27985E-04-9.94287E-15
 -1      2970 4.32220E-03 4.53060E-04-1.03954E-14
 -1      2971 6.20562E-03-2.56034E-04-1.67448E-14
 -1      2972 1.47567E-03 3.69832E-04-7.31552E-16
 -1      2973 1.35731E-03 3.56840E-04-6.12696E-16
 -1      2974 1.32435E-03 3.28201E-04-6.26005E-16
 -1      2975 1.53578E-03 3.42840E-04-8.63608E-16
 -1      2976 1.06896E-03 2.73020E-04-4.33803E-16
 -1      2977 1.03856E-03 2.46788E-04-4.39847E-16
 -1      2978 1.18675E-03 2.90334E-04-5.32763E-16
 -1      2979 1.03044E-03 2.15369E-04-4.74203E-16
 -1      2980 1.15935E-03-2.66451E-04-9.09930E-16
 -1      2981 1.30229E-03-2.84654E-04-1.11383E-15
 -1      2982 5.55610E-03-7.38244E-05-1.40071E-14
 -1      2983 5.41875E-03-9.33218E-06-1.34994E-14
 -1      2984 1.44557E-03-3.00015E-04-1.33803E-15
 -1      2985 1.58918E-03-3.12741E-04-1.58292E-15
 -1      2986 1.36534E-03-2.60701E-04-1.21837E-15
 -1      2987 1.73292E-03-3.23176E-04-1.84865E-15
 -1      2988 1.87682E-03-3.31518E-04-2.13486E-15
 -1      2989 1.65201E-03-2.84247E-04-1.70481E-15
 -1      2990 2.02081E-03-3.38115E-04-2.44138E-15
 -1      2991 2.16492E-03-3.43147E-04-2.76839E-15
 -1      2992 1.93970E-03-2.99673E-04-2.27254E-15
 -1      2993 2.30916E-03-3.46929E-04-3.11516E-15
 -1      2994 2.45357E-03-3.49638E-04-3.48209E-15
 -1      2995 2.22801E-03-3.08807E-04-2.92057E-15
 -1      2996 2.59821E-03-3.51549E-04-3.86919E-15
 -1      2997 2.74314E-03-3.52841E-04-4.27641E-15
 -1      2998 2.51698E-03-3.13395E-04-3.64825E-15
 -1      2999 2.88845E-03-3.53756E-04-4.70317E-15
 -1      3000 3.03421E-03-3.54489E-04-5.15008E-15
 -1      3001 2.80703E-03-3.15071E-04-4.45527E-15
 -1      3002 3.18057E-03-3.55250E-04-5.61747E-15
 -1      3003 3.32758E-03-3.56265E-04-6.10493E-15
 -1      3004 3.09882E-03-3.15413E-04-5.34138E-15
 -1      3005 3.47542E-03-3.57715E-04-6.61178E-15
 -1      3006 3.62411E-03-3.59854E-04-7.13902E-15
 -1      3007 3.39333E-03-3.16025E-04-6.30710E-15
 -1      3008 3.77388E-03-3.62826E-04-7.68707E-15
 -1      3009 3.92466E-03-3.66896E-04-8.25502E-15
 -1      3010 3.69169E-03-3.18604E-04-7.35283E-15
 -1      3011 4.07668E-03-3.72145E-04-8.84222E-15
 -1      3012 4.22974E-03-3.78787E-04-9.45001E-15
 -1      3013 3.99504E-03-3.24940E-04-8.47883E-15
 -1      3014 4.38402E-03-3.86794E-04-1.00791E-14
 -1      3015 4.53911E-03-3.96193E-04-1.07281E-14
 -1      3016 4.30412E-03-3.36726E-04-9.68511E-15
 -1      3017 4.69508E-03-4.06767E-04-1.13975E-14
 -1      3018 4.85130E-03-4.18159E-04-1.20887E-14
 -1      3019 4.61871E-03-3.54996E-04-1.09731E-14
 -1      3020 5.00766E-03-4.29858E-04-1.28008E-14
 -1      3021 5.16340E-03-4.40840E-04-1.35346E-14
 -1      3022 4.93701E-03-3.79019E-04-1.23437E-14
 -1      3023 5.31824E-03-4.50261E-04-1.42896E-14
 -1      3024 5.47165E-03-4.56361E-04-1.50685E-14
 -1      3025 5.25531E-03-4.04523E-04-1.38010E-14
 -1      3026 5.62329E-03-4.57961E-04-1.58691E-14
 -1      3027 5.77317E-03-4.52940E-04-1.66929E-14
 -1      3028 5.56893E-03-4.22084E-04-1.53468E-14
 -1      3029 5.92106E-03-4.40100E-04-1.75410E-14
 -1      3030 6.06790E-03-4.17747E-04-1.84108E-14
 -1      3031 5.87451E-03-4.17546E-04-1.69856E-14
 -1      3032 6.21370E-03-3.85190E-04-1.93065E-14
 -1      3033 6.35972E-03-3.41990E-04-2.02263E-14
 -1      3034 6.17286E-03-3.75895E-04-1.87199E-14
 -1      3035 6.50583E-03-2.88401E-04-2.11696E-14
 -1      3036 6.65378E-03-2.25354E-04-2.21380E-14
 -1      3037 6.46894E-03-2.88845E-04-2.05501E-14
 -1      3038 6.80319E-03-1.53862E-04-2.31317E-14
 -1      3039 6.95458E-03-7.59564E-05-2.41499E-14
 -1      3040 6.76973E-03-1.58292E-04-2.24795E-14
 -1      3041 7.10765E-03 7.11814E-06-2.51922E-14
 -1      3042 7.26217E-03 9.33893E-05-2.62577E-14
 -1      3043 7.07871E-03 3.14531E-06-2.45074E-14
 -1      3044 7.41781E-03 1.81779E-04-2.73480E-14
 -1      3045 7.57386E-03 2.70822E-04-2.84595E-14
 -1      3046 7.39453E-03 1.80316E-04-2.66332E-14
 -1      3047 7.73013E-03 3.59804E-04-2.95932E-14
 -1      3048 7.88588E-03 4.48016E-04-3.07496E-14
 -1      3049 7.71291E-03 3.60866E-04-2.88487E-14
 -1      3050 8.04108E-03 5.35072E-04-3.19275E-14
 -1      3051 8.19520E-03 6.20791E-04-3.31267E-14
 -1      3052 8.02938E-03 5.37619E-04-3.11520E-14
 -1      3053 8.34836E-03 7.05027E-04-3.43484E-14
 -1      3054 8.50023E-03 7.87886E-04-3.55923E-14
 -1      3055 8.34101E-03 7.07965E-04-3.35416E-14
 -1      3056 8.65103E-03 8.69355E-04-3.68600E-14
 -1      3057 8.80062E-03 9.49654E-04-3.81501E-14
 -1      3058 8.64671E-03 8.71945E-04-3.60222E-14
 -1      3059 8.94922E-03 1.02884E-03-3.94602E-14
 -1      3060 9.09681E-03 1.10713E-03-4.07921E-14
 -1      3061 8.94671E-03 1.03072E-03-3.85907E-14
 -1      3062 9.24359E-03 1.18462E-03-4.21480E-14
 -1      3063 9.38960E-03 1.26150E-03-4.35234E-14
 -1      3064 9.24195E-03 1.18573E-03-4.12469E-14
 -1      3065 9.53500E-03 1.33786E-03-4.49197E-14
 -1      3066 9.67985E-03 1.41383E-03-4.63362E-14
 -1      3067 9.53358E-03 1.33828E-03-4.39896E-14
 -1      3068 9.82428E-03 1.48949E-03-4.77702E-14
 -1      3069 9.96833E-03 1.56495E-03-4.92234E-14
 -1      3070 9.82266E-03 1.48936E-03-4.68123E-14
 -1      3071 1.01121E-02 1.64027E-03-5.06924E-14
 -1      3072 1.02556E-02 1.71550E-03-5.21762E-14
 -1      3073 1.01101E-02 1.63974E-03-4.97044E-14
 -1      3074 1.03990E-02 1.79071E-03-5.36765E-14
 -1      3075 1.05422E-02 1.86593E-03-5.51924E-14
 -1      3076 1.03965E-02 1.78991E-03-5.26643E-14
 -1      3077 1.06853E-02 1.94119E-03-5.67240E-14
 -1      3078 1.08283E-02 2.01651E-03-5.82676E-14
 -1      3079 1.06823E-02 1.94020E-03-5.56879E-14
 -1      3080 1.09713E-02 2.09192E-03-5.98206E-14
 -1      3081 1.11142E-02 2.16741E-03-6.13873E-14
 -1      3082 1.09678E-02 2.09081E-03-5.87644E-14
 -1      3083 1.12571E-02 2.24302E-03-6.29643E-14
 -1      3084 1.13999E-02 2.31873E-03-6.45533E-14
 -1      3085 1.12533E-02 2.24183E-03-6.18893E-14
 -1      3086 1.15428E-02 2.39454E-03-6.61527E-14
 -1      3087 1.16856E-02 2.47047E-03-6.77604E-14
 -1      3088 1.15387E-02 2.39331E-03-6.50603E-14
 -1      3089 1.18285E-02 2.54650E-03-6.93798E-14
 -1      3090 1.19713E-02 2.62263E-03-7.10097E-14
 -1      3091 1.18241E-02 2.54523E-03-6.82720E-14
 -1      3092 1.21142E-02 2.69885E-03-7.26497E-14
 -1      3093 1.22570E-02 2.77517E-03-7.43020E-14
 -1      3094 1.21096E-02 2.69756E-03-7.15238E-14
 -1      3095 1.23999E-02 2.85156E-03-7.59665E-14
 -1      3096 1.25427E-02 2.92803E-03-7.76392E-14
 -1      3097 1.23952E-02 2.85025E-03-7.48207E-14
 -1      3098 1.26856E-02 3.00458E-03-7.93242E-14
 -1      3099 1.28284E-02 3.08118E-03-8.10174E-14
 -1      3100 1.26808E-02 3.00324E-03-7.81619E-14
 -1      3101 1.29713E-02 3.15784E-03-8.27167E-14
 -1      3102 1.31141E-02 3.23455E-03-8.44266E-14
 -1      3103 1.29665E-02 3.15650E-03-8.15401E-14
 -1      3104 3.23002E-03 3.41969E-04-4.31979E-15
 -1      3105 3.09500E-03 3.42326E-04-3.93739E-15
 -1      3106 2.95836E-03 3.42840E-04-3.57327E-15
 -1      3107 2.82024E-03 3.43494E-04-3.22847E-15
 -1      3108 3.01081E-03 3.12638E-04-3.86078E-15
 -1      3109 3.74465E-03 3.51753E-04-6.02834E-15
 -1      3110 3.62066E-03 3.46989E-04-5.57386E-15
 -1      3111 3.96799E-03 3.68723E-04-6.94037E-15
 -1      3112 3.85835E-03 3.59161E-04-6.47620E-15
 -1      3113 3.76721E-03 3.34835E-04-6.37958E-15
 -1      3114 4.18143E-03 4.00568E-04-7.97024E-15
 -1      3115 4.07751E-03 3.83140E-04-7.44642E-15
 -1      3116 3.98196E-03 3.59212E-04-7.34323E-15
 -1      3117 8.82053E-03 1.00774E-03-2.51323E-14
 -1      3118 8.64096E-03 9.43073E-04-2.51398E-14
 -1      3119 1.00682E-02 1.52411E-03-3.09018E-14
 -1      3120 9.94732E-03 1.45431E-03-2.97183E-14
 -1      3121 1.05850E-02 1.82420E-03-3.58398E-14
 -1      3122 1.04517E-02 1.74667E-03-3.45761E-14
 -1      3123 4.54626E-03 3.82515E-04-1.09997E-14
 -1      3124 4.50718E-03 4.28703E-04-1.11022E-14
 -1      3125 1.03209E-02 1.67069E-03-3.33327E-14
 -1      3126 1.01927E-02 1.59611E-03-3.21075E-14
 -1      3127 1.00911E-02 1.53794E-03-3.18019E-14
 -1      3128 1.03397E-02 1.68303E-03-3.42545E-14
 -1      3129 1.08432E-02 1.97377E-03-3.82955E-14
 -1      3130 1.07133E-02 1.89860E-03-3.70592E-14
 -1      3131 1.05939E-02 1.83096E-03-3.67219E-14
 -1      3132 1.11201E-02 2.13314E-03-4.09435E-14
 -1      3133 1.09811E-02 2.05325E-03-3.96104E-14
 -1      3134 1.08563E-02 1.98276E-03-3.92627E-14
 -1      3135 1.14006E-02 2.29322E-03-4.36599E-14
 -1      3136 1.12600E-02 2.21312E-03-4.22928E-14
 -1      3137 1.11311E-02 2.14064E-03-4.19328E-14
 -1      3138 1.16831E-02 2.45325E-03-4.64406E-14
 -1      3139 1.15416E-02 2.37326E-03-4.50432E-14
 -1      3140 1.14098E-02 2.29946E-03-4.46712E-14
 -1      3141 1.19671E-02 2.61281E-03-4.92881E-14
 -1      3142 1.18249E-02 2.53310E-03-4.78557E-14
 -1      3143 1.16911E-02 2.45846E-03-4.74761E-14
 -1      3144 1.22518E-02 2.77171E-03-5.22048E-14
 -1      3145 1.21093E-02 2.69235E-03-5.07376E-14
 -1      3146 1.19740E-02 2.61719E-03-5.03469E-14
 -1      3147 1.25227E-02 2.92201E-03-5.50396E-14
 -1      3148 1.23872E-02 2.84694E-03-5.36138E-14
 -1      3149 1.22509E-02 2.77148E-03-5.32118E-14
 -1      3150 1.28082E-02 3.07953E-03-5.80928E-14
 -1      3151 1.26654E-02 3.00085E-03-5.65586E-14
 -1      3152 1.25284E-02 2.92522E-03-5.61454E-14
 -1      3153 1.30938E-02 3.23642E-03-6.12027E-14
 -1      3154 1.29510E-02 3.15805E-03-5.96408E-14
 -1      3155 1.28135E-02 3.08233E-03-5.92178E-14
 -1      3156 1.33795E-02 3.39275E-03-6.43715E-14
 -1      3157 1.32367E-02 3.31465E-03-6.27783E-14
 -1      3158 1.30989E-02 3.23889E-03-6.23480E-14
 -1      3159 1.36653E-02 3.54861E-03-6.75835E-14
 -1      3160 1.35224E-02 3.47073E-03-6.59722E-14
 -1      3161 1.33844E-02 3.39496E-03-6.55292E-14
 -1      3162 1.39368E-02 3.69631E-03-7.06792E-14
 -1      3163 1.38010E-02 3.62250E-03-6.91284E-14
 -1      3164 1.36628E-02 3.54674E-03-6.86775E-14
 -1      3165 1.42225E-02 3.85149E-03-7.39707E-14
 -1      3166 1.40796E-02 3.77394E-03-7.23192E-14
 -1      3167 1.39414E-02 3.69818E-03-7.18635E-14
 -1      3168 1.45083E-02 4.00641E-03-7.72789E-14
 -1      3169 1.43654E-02 3.92898E-03-7.56217E-14
 -1      3170 1.42271E-02 3.85323E-03-7.51599E-14
 -1      3171 1.47940E-02 4.16115E-03-8.06103E-14
 -1      3172 1.46511E-02 4.08380E-03-7.89435E-14
 -1      3173 1.45128E-02 4.00807E-03-7.84765E-14
 -1      3174 4.85647E-03 2.37380E-04-1.17130E-14
 -1      3175 4.70134E-03 2.89943E-04-1.12567E-14
 -1      3176 9.44380E-03 1.15314E-03-2.46279E-14
 -1      3177 9.42351E-03 1.14914E-03-2.48372E-14
 -1      3178 4.33748E-03 4.68968E-04-9.78915E-15
 -1      3179 4.42789E-03 4.83037E-04-9.64779E-15
 -1      3180 4.40186E-03 4.67558E-04-9.32258E-15
 -1      3181 1.36772E-02 3.54078E-03-8.79247E-14
 -1      3182 1.37529E-02 3.58283E-03-8.75337E-14
 -1      3183 1.38285E-02 3.62487E-03-8.71419E-14
 -1      3184 1.39042E-02 3.66690E-03-8.67441E-14
 -1      3185 1.36670E-02 3.53726E-03-8.58564E-14
 -1      3186 7.85763E-04-1.80990E-04-4.77049E-16
 -1      3187 7.94002E-04-2.04250E-04-4.80546E-16
 -1      3188 8.94975E-04-2.25471E-04-5.85293E-16
 -1      3189 9.03384E-04-1.87510E-04-6.03155E-16
 -1      3190 7.80423E-03 5.18370E-04-2.37346E-14
 -1      3191 7.62633E-03 4.07132E-04-2.32696E-14
 -1      3192 6.57858E-03-2.11561E-04-1.90693E-14
 -1      3193 6.41330E-03-2.58899E-04-1.81716E-14
 -1      3194 5.90931E-03-2.10231E-04-1.54869E-14
 -1      3195 5.74296E-03-1.50138E-04-1.47564E-14
 -1      3196 1.84535E-03 3.27069E-04-1.34921E-15
 -1      3197 1.70238E-03 3.18929E-04-1.14779E-15
 -1      3198 9.22068E-03 1.20925E-03-2.26174E-14
 -1      3199 9.62608E-03 1.27408E-03-2.64057E-14
 -1      3200 9.52603E-03 1.22028E-03-2.53056E-14
 -1      3201 9.14324E-03 1.10252E-03-2.54041E-14
 -1      3202 8.99071E-03 1.06224E-03-2.52700E-14
 -1      3203 8.96453E-03 1.06485E-03-2.61045E-14
 -1      3204 8.35190E-03 8.16493E-04-2.48540E-14
 -1      3205 8.07346E-03 6.72998E-04-2.42929E-14
 -1      3206 7.99469E-03 6.24408E-04-2.47976E-14
 -1      3207 9.83433E-03 1.38998E-03-2.85853E-14
 -1      3208 9.72843E-03 1.33017E-03-2.75008E-14
 -1      3209 9.66017E-03 1.28584E-03-2.72288E-14
 -1      3210 9.86264E-03 1.40451E-03-2.94602E-14
 -1      3211 4.30382E-03 4.19994E-04-1.00926E-14
 -1      3212 4.25745E-03 4.28636E-04-9.86062E-15
 -1      3213 4.41533E-03 4.23369E-04-1.06597E-14
 -1      3214 1.42817E-02 3.87624E-03-8.47537E-14
 -1      3215 1.43575E-02 3.91826E-03-8.43457E-14
 -1      3216 5.22543E-03 7.67167E-05-1.28357E-14
 -1      3217 5.03826E-03 1.61529E-04-1.22508E-14
 -1      3218 2.13051E-03 3.37809E-04-1.80506E-15
 -1      3219 1.98806E-03 3.33311E-04-1.56811E-15
 -1      3220 1.90655E-03 2.96847E-04-1.51956E-15
 -1      3221 6.22184E-03-2.74370E-04-1.71009E-14
 -1      3222 6.07290E-03-2.53742E-04-1.62814E-14
 -1      3223 5.94038E-03-2.50712E-04-1.58231E-14
 -1      3224 4.28287E-03 4.55803E-04-9.80917E-15
 -1      3225 9.36120E-03 1.13866E-03-2.50459E-14
 -1      3226 9.26643E-03 1.12636E-03-2.52285E-14
 -1      3227 9.24355E-03 1.13914E-03-2.60738E-14
 -1      3228 1.35344E-02 3.46056E-03-8.94025E-14
 -1      3229 1.36186E-02 3.50790E-03-8.84969E-14
 -1      3230 1.35327E-02 3.46238E-03-8.68135E-14
 -1      3231 1.34155E-02 3.39661E-03-8.79499E-14
 -1      3232 1.01214E-03 6.46855E-05-6.23769E-16
 -1      3233 1.01073E-03 3.92621E-05-6.43853E-16
 -1      3234 7.00266E-03 5.12626E-06-2.09666E-14
 -1      3235 6.80825E-03-1.08392E-04-2.01395E-14
 -1      3236 3.49332E-03 3.43818E-04-5.13732E-15
 -1      3237 3.36285E-03 3.42488E-04-4.71936E-15
 -1      3238 3.27697E-03 3.14816E-04-4.63595E-15
 -1      3239 7.39804E-03 2.61065E-04-2.24789E-14
 -1      3240 7.21031E-03 1.36042E-04-2.18066E-14
 -1      3241 9.34414E-03 1.18399E-03-2.34345E-14
 -1      3242 4.55134E-03 3.35361E-04-1.08036E-14
 -1      3243 4.44987E-03 3.61929E-04-1.04949E-14
 -1      3244 9.42633E-03 1.16905E-03-2.41308E-14
 -1      3245 5.60804E-03-1.39002E-04-1.42869E-14
 -1      3246 5.24741E-03 1.25211E-05-1.28901E-14
 -1      3247 3.53250E-03 3.21220E-04-5.48357E-15
 -1      3248 7.10378E-03 6.86706E-05-2.17638E-14
 -1      3249 1.32965E-02 3.33267E-03-8.65032E-14
 -1      3250 1.02640E-03 1.71971E-04-5.24998E-16
 -1      3251 1.02142E-03 1.43902E-04-5.52889E-16
 -1      3252 1.02174E-03-1.42008E-04-7.42380E-16
 -1      3253 1.02658E-03-1.70455E-04-7.50363E-16
 -1      3254 2.74070E-03 3.11882E-04-3.16704E-15
 -1      3255 2.68453E-03 3.43772E-04-2.91016E-15
 -1      3256 2.54786E-03 3.43640E-04-2.60946E-15
 -1      3257 4.31566E-03 4.36217E-04-8.75663E-15
 -1      3258 9.47858E-03 1.17666E-03-2.49545E-14
 -1      3259 7.52281E-03 3.37382E-04-2.34184E-14
 -1      3260 4.18565E-03 4.01579E-04-9.23693E-15
 -1      3261 4.23183E-03 4.29339E-04-9.52264E-15
 -1      3262 4.24105E-03 4.25618E-04-9.18494E-15
 -1      3263 1.42714E-02 3.87226E-03-8.26933E-14
 -1      3264 1.44330E-02 3.96010E-03-8.39400E-14
 -1      3265 1.45086E-02 4.00195E-03-8.35322E-14
 -1      3266 1.32917E-02 3.33132E-03-8.53064E-14
 -1      3267 4.58016E-03 2.78553E-04-1.07414E-14
 -1      3268 4.89443E-03 1.63647E-04-1.17123E-14
 -1      3269 1.49480E-02 4.24449E-03-8.23803E-14
 -1      3270 4.20976E-03 4.09308E-04-8.64575E-15
 -1      3271 9.43023E-03 1.17140E-03-2.56898E-14
 -1      3272 1.01438E-03 9.04190E-05-6.02125E-16
 -1      3273 1.13277E-03 8.38717E-05-7.45375E-16
 -1      3274 1.01741E-03 1.16731E-04-5.78490E-16
 -1      3275 1.38181E-02 3.62109E-03-8.50783E-14
 -1      3276 1.39796E-02 3.70874E-03-8.63510E-14
 -1      3277 1.40550E-02 3.75057E-03-8.59575E-14
 -1      3278 2.26897E-03 3.40852E-04-2.05351E-15
 -1      3279 2.18716E-03 3.05850E-04-1.99804E-15
 -1      3280 2.40698E-03 3.42678E-04-2.31912E-15
 -1      3281 1.45841E-02 4.04382E-03-8.31244E-14
 -1      3282 1.46597E-02 4.08570E-03-8.27129E-14
 -1      3283 1.44225E-02 3.95591E-03-8.18813E-14
 -1      3284 6.67968E-03-1.69514E-04-1.98279E-14
 -1      3285 6.56137E-03-2.18681E-04-1.95139E-14
 -1      3286 6.77895E-03-1.19472E-04-2.06007E-14
 -1      3287 6.28021E-03-2.81483E-04-1.76770E-14
 -1      3288 1.47385E-02 4.12956E-03-8.20491E-14
 -1      3289 1.48096E-02 4.16877E-03-8.19123E-14
 -1      3290 1.45768E-02 4.04158E-03-8.08092E-14
 -1      3291 1.62128E-03 2.81209E-04-1.10640E-15
 -1      3292 1.55935E-03 3.08524E-04-9.64317E-16
 -1      3293 1.01476E-03-8.79171E-05-7.21360E-16
 -1      3294 1.01781E-03-1.14549E-04-7.32758E-16
 -1      3295 1.14036E-03-1.38245E-04-8.92610E-16
 -1      3296 1.14882E-03 2.15586E-04-6.02423E-16
 -1      3297 1.12955E-03 2.90268E-05-7.92457E-16
 -1      3298 1.01006E-03 1.40395E-05-6.62258E-16
 -1      3299 1.01014E-03-1.11321E-05-6.79375E-16
 -1      3300 1.41306E-02 3.79249E-03-8.55580E-14
 -1      3301 1.42061E-02 3.83432E-03-8.51571E-14
 -1      3302 1.41203E-02 3.78856E-03-8.34983E-14
 -1      3303 1.39691E-02 3.70478E-03-8.42937E-14
 -1      3304 8.52837E-03 8.96679E-04-2.56684E-14
 -1      3305 4.38050E-03 3.88578E-04-1.03068E-14
 -1      3306 4.35730E-03 4.04567E-04-1.02828E-14
 -1      3307 4.26527E-03 3.86030E-04-9.75113E-15
 -1      3308 4.37727E-03 3.45507E-04-1.01188E-14
 -1      3309 9.96731E-04-2.45207E-04-7.01303E-16
 -1      3310 1.45371E-03 3.03177E-04-8.32586E-16
 -1      3311 1.06021E-03-2.27853E-04-7.86900E-16
 -1      3312 1.29233E-03 3.00364E-04-6.36711E-16
 -1      3313 1.31705E-03 2.69274E-04-7.19070E-16
 -1      3314 1.57226E-03-2.46355E-04-1.56570E-15
 -1      3315 1.71569E-03-2.55012E-04-1.82722E-15
 -1      3316 1.85938E-03-2.61925E-04-2.10837E-15
 -1      3317 2.00329E-03-2.67246E-04-2.40972E-15
 -1      3318 1.78002E-03-2.25018E-04-1.94941E-15
 -1      3319 2.14737E-03-2.71213E-04-2.73063E-15
 -1      3320 2.29163E-03-2.73968E-04-3.07141E-15
 -1      3321 2.06745E-03-2.34260E-04-2.54582E-15
 -1      3322 2.43606E-03-2.75734E-04-3.43204E-15
 -1      3323 2.58072E-03-2.76656E-04-3.81238E-15
 -1      3324 2.35564E-03-2.38663E-04-3.22097E-15
 -1      3325 2.72568E-03-2.76933E-04-4.21187E-15
 -1      3326 2.87101E-03-2.76727E-04-4.63122E-15
 -1      3327 2.64465E-03-2.39451E-04-3.97410E-15
 -1      3328 3.01686E-03-2.76214E-04-5.07039E-15
 -1      3329 3.16332E-03-2.75597E-04-5.52951E-15
 -1      3330 2.93497E-03-2.37815E-04-4.80509E-15
 -1      3331 3.31060E-03-2.75032E-04-6.00824E-15
 -1      3332 3.45881E-03-2.74789E-04-6.50620E-15
 -1      3333 3.22757E-03-2.35007E-04-5.71461E-15
 -1      3334 3.60821E-03-2.75011E-04-7.02506E-15
 -1      3335 3.75891E-03-2.76050E-04-7.56358E-15
 -1      3336 3.52385E-03-2.32488E-04-6.70299E-15
 -1      3337 3.91121E-03-2.78034E-04-8.12130E-15
 -1      3338 4.06511E-03-2.81389E-04-8.69881E-15
 -1      3339 3.82560E-03-2.32093E-04-7.76953E-15
 -1      3340 4.22092E-03-2.86218E-04-9.29724E-15
 -1      3341 4.37844E-03-2.92929E-04-9.91580E-15
 -1      3342 4.13469E-03-2.36167E-04-8.91618E-15
 -1      3343 4.53791E-03-3.01549E-04-1.05542E-14
 -1      3344 4.69876E-03-3.12255E-04-1.12133E-14
 -1      3345 4.45253E-03-2.47445E-04-1.01417E-14
 -1      3346 4.86109E-03-3.24879E-04-1.18932E-14
 -1      3347 5.02387E-03-3.38982E-04-1.25945E-14
 -1      3348 4.77907E-03-2.68284E-04-1.14495E-14
 -1      3349 5.18695E-03-3.54131E-04-1.33176E-14
 -1      3350 5.34908E-03-3.68515E-04-1.40626E-14
 -1      3351 5.11157E-03-2.98971E-04-1.28404E-14
 -1      3352 5.50989E-03-3.81072E-04-1.48309E-14
 -1      3353 5.66853E-03-3.89158E-04-1.56220E-14
 -1      3354 5.44416E-03-3.33946E-04-1.43203E-14
 -1      3355 5.82448E-03-3.91210E-04-1.64361E-14
 -1      3356 5.97821E-03-3.83749E-04-1.72742E-14
 -1      3357 5.76936E-03-3.58627E-04-1.58918E-14
 -1      3358 6.12905E-03-3.65291E-04-1.81372E-14
 -1      3359 6.27971E-03-3.34168E-04-1.90241E-14
 -1      3360 6.08292E-03-3.51392E-04-1.75594E-14
 -1      3361 6.48430E-03-2.61702E-04-1.99585E-14
 -1      3362 6.63845E-03-2.00728E-04-2.08954E-14
 -1      3363 7.04757E-03-1.81694E-06-2.38291E-14
 -1      3364 7.20779E-03 8.72855E-05-2.48636E-14
 -1      3365 7.36976E-03 1.79099E-04-2.59225E-14
 -1      3366 7.53224E-03 2.71320E-04-2.70040E-14
 -1      3367 7.34386E-03 1.77041E-04-2.52170E-14
 -1      3368 7.69499E-03 3.63094E-04-2.81082E-14
 -1      3369 7.85682E-03 4.53369E-04-2.92337E-14
 -1      3370 7.67658E-03 3.65935E-04-2.73718E-14
 -1      3371 8.01766E-03 5.41773E-04-3.03816E-14
 -1      3372 8.17670E-03 6.28175E-04-3.15513E-14
 -1      3373 8.00608E-03 5.47371E-04-2.96161E-14
 -1      3374 8.33410E-03 7.12511E-04-3.27419E-14
 -1      3375 8.48946E-03 7.95062E-04-3.39543E-14
 -1      3376 8.32781E-03 7.18715E-04-3.19467E-14
 -1      3377 8.64306E-03 8.75880E-04-3.51906E-14
 -1      3378 8.79478E-03 9.55368E-04-3.64492E-14
 -1      3379 8.64026E-03 8.81291E-04-3.43652E-14
 -1      3380 8.94494E-03 1.03360E-03-3.77289E-14
 -1      3381 9.09360E-03 1.11094E-03-3.90295E-14
 -1      3382 8.94409E-03 1.03760E-03-3.68727E-14
 -1      3383 9.24104E-03 1.18748E-03-4.03530E-14
 -1      3384 9.38737E-03 1.26350E-03-4.16992E-14
 -1      3385 9.24099E-03 1.18998E-03-3.94668E-14
 -1      3386 9.53282E-03 1.33905E-03-4.30658E-14
 -1      3387 9.67752E-03 1.41432E-03-4.44528E-14
 -1      3388 9.53282E-03 1.34025E-03-4.21477E-14
 -1      3389 9.82164E-03 1.48938E-03-4.58578E-14
 -1      3390 9.96528E-03 1.56433E-03-4.72826E-14
 -1      3391 9.82126E-03 1.48957E-03-4.49113E-14
 -1      3392 1.01086E-02 1.63921E-03-4.87252E-14
 -1      3393 1.02516E-02 1.71409E-03-5.01839E-14
 -1      3394 1.01076E-02 1.63870E-03-4.77506E-14
 -1      3395 1.03944E-02 1.78901E-03-5.16600E-14
 -1      3396 1.05371E-02 1.86400E-03-5.31504E-14
 -1      3397 1.03927E-02 1.78804E-03-5.06595E-14
 -1      3398 1.06796E-02 1.93908E-03-5.46559E-14
 -1      3399 1.08222E-02 2.01426E-03-5.61783E-14
 -1      3400 1.06773E-02 1.93783E-03-5.36316E-14
 -1      3401 1.09647E-02 2.08955E-03-5.77129E-14
 -1      3402 1.11072E-02 2.16497E-03-5.92578E-14
 -1      3403 1.09618E-02 2.08815E-03-5.66639E-14
 -1      3404 1.12497E-02 2.24051E-03-6.08167E-14
 -1      3405 1.13922E-02 2.31617E-03-6.23884E-14
 -1      3406 1.12463E-02 2.23903E-03-5.97478E-14
 -1      3407 1.15347E-02 2.39195E-03-6.39702E-14
 -1      3408 1.16773E-02 2.46784E-03-6.55627E-14
 -1      3409 1.15310E-02 2.39045E-03-6.28823E-14
 -1      3410 1.18199E-02 2.54385E-03-6.71649E-14
 -1      3411 1.19625E-02 2.61996E-03-6.87789E-14
 -1      3412 1.18158E-02 2.54236E-03-6.60602E-14
 -1      3413 1.21052E-02 2.69617E-03-7.04012E-14
 -1      3414 1.22479E-02 2.77248E-03-7.20341E-14
 -1      3415 1.21009E-02 2.69470E-03-6.92811E-14
 -1      3416 1.23906E-02 2.84886E-03-7.36815E-14
 -1      3417 1.25334E-02 2.92533E-03-7.53385E-14
 -1      3418 1.23861E-02 2.84741E-03-7.25447E-14
 -1      3419 1.26761E-02 3.00186E-03-7.70043E-14
 -1      3420 1.28189E-02 3.07846E-03-7.86822E-14
 -1      3421 1.26715E-02 3.00043E-03-7.58523E-14
 -1      3422 1.29617E-02 3.15512E-03-8.03696E-14
 -1      3423 1.31045E-02 3.23182E-03-8.20618E-14
 -1      3424 1.29570E-02 3.15369E-03-7.92001E-14
 -1      3425 1.30984E-03 2.19096E-04-7.90600E-16
 -1      3426 4.00446E-03 3.55236E-04-7.74025E-15
 -1      3427 3.90355E-03 3.37682E-04-7.22339E-15
 -1      3428 3.80116E-03 3.23402E-04-6.74825E-15
 -1      3429 3.69341E-03 3.12677E-04-6.28981E-15
 -1      3430 3.83933E-03 3.15357E-04-7.12356E-15
 -1      3431 8.16290E-03 7.11513E-04-2.59184E-14
 -1      3432 7.92026E-03 5.72932E-04-2.53335E-14
 -1      3433 1.06024E-02 1.83964E-03-3.76388E-14
 -1      3434 1.04780E-02 1.76773E-03-3.64139E-14
 -1      3435 1.32274E-02 3.29799E-03-8.33993E-14
 -1      3436 1.34098E-02 3.39615E-03-8.54647E-14
 -1      3437 1.34684E-02 3.42899E-03-8.48999E-14
 -1      3438 1.32227E-02 3.29657E-03-8.22214E-14
 -1      3439 9.52572E-03 1.20664E-03-2.58091E-14
 -1      3440 7.62775E-03 3.96177E-04-2.44062E-14
 -1      3441 7.41905E-03 2.64595E-04-2.35907E-14
 -1      3442 1.14179E-02 2.30569E-03-4.56865E-14
 -1      3443 1.12786E-02 2.22678E-03-4.42978E-14
 -1      3444 1.16982E-02 2.46367E-03-4.85168E-14
 -1      3445 1.15578E-02 2.38465E-03-4.70949E-14
 -1      3446 1.14249E-02 2.31169E-03-4.67089E-14
 -1      3447 1.19804E-02 2.62157E-03-5.14111E-14
 -1      3448 1.18391E-02 2.54264E-03-4.99564E-14
 -1      3449 1.17047E-02 2.46872E-03-4.95628E-14
 -1      3450 1.22497E-02 2.77128E-03-5.42244E-14
 -1      3451 1.21149E-02 2.69647E-03-5.28099E-14
 -1      3452 1.19794E-02 2.62192E-03-5.24069E-14
 -1      3453 1.25339E-02 2.92844E-03-5.72558E-14
 -1      3454 1.23917E-02 2.84991E-03-5.57325E-14
 -1      3455 1.22553E-02 2.77495E-03-5.53184E-14
 -1      3456 1.28187E-02 3.08512E-03-6.03458E-14
 -1      3457 1.26762E-02 3.00684E-03-5.87923E-14
 -1      3458 1.25392E-02 2.93160E-03-5.83672E-14
 -1      3459 1.31038E-02 3.24135E-03-6.34943E-14
 -1      3460 1.29612E-02 3.16329E-03-6.19137E-14
 -1      3461 1.28237E-02 3.08787E-03-6.14785E-14
 -1      3462 1.33892E-02 3.39717E-03-6.66903E-14
 -1      3463 1.32465E-02 3.31931E-03-6.50877E-14
 -1      3464 1.31087E-02 3.24378E-03-6.46433E-14
 -1      3465 1.36604E-02 3.54486E-03-6.97716E-14
 -1      3466 1.35248E-02 3.47105E-03-6.82262E-14
 -1      3467 1.33868E-02 3.39546E-03-6.77744E-14
 -1      3468 1.39460E-02 3.70003E-03-7.30491E-14
 -1      3469 1.38032E-02 3.62248E-03-7.14061E-14
 -1      3470 1.36651E-02 3.54685E-03-7.09472E-14
 -1      3471 1.42317E-02 3.85497E-03-7.63509E-14
 -1      3472 1.40888E-02 3.77753E-03-7.46982E-14
 -1      3473 1.39506E-02 3.70187E-03-7.42323E-14
 -1      3474 1.44757E-02 3.98698E-03-7.94110E-14
 -1      3475 1.43328E-02 3.90963E-03-7.77464E-14
 -1      3476 1.41946E-02 3.83396E-03-7.72795E-14
 -1      3477 1.43969E-02 3.94319E-03-8.00743E-14
 -1      3478 1.06422E-03-2.07021E-04-7.95723E-16
 -1      3479 5.62566E-03-1.99202E-04-1.45022E-14
 -1      3480 5.45820E-03-1.37194E-04-1.37635E-14
 -1      3481 1.18304E-03-2.05650E-04-9.55060E-16
 -1      3482 1.68393E-03 2.53499E-04-1.25515E-15
 -1      3483 1.54155E-03 2.44426E-04-1.06091E-15
 -1      3484 5.26165E-03-5.94381E-05-1.29634E-14
 -1      3485 5.09018E-03 1.20488E-05-1.23197E-14
 -1      3486 5.95190E-03-2.86014E-04-1.61234E-14
 -1      3487 5.80219E-03-2.50738E-04-1.53361E-14
 -1      3488 1.35441E-02 3.47099E-03-8.45152E-14
 -1      3489 1.36198E-02 3.51297E-03-8.41287E-14
 -1      3490 1.34213E-02 3.40474E-03-8.31764E-14
 -1      3491 4.89176E-03 9.44871E-05-1.16194E-14
 -1      3492 4.73500E-03 1.59621E-04-1.11029E-14
 -1      3493 1.01095E-03-3.64064E-05-6.94770E-16
 -1      3494 1.01247E-03-6.19178E-05-7.08648E-16
 -1      3495 1.13335E-03-8.07412E-05-8.65817E-16
 -1      3496 9.35450E-03 1.18073E-03-2.68167E-14
 -1      3497 9.24376E-03 1.15748E-03-2.69925E-14
 -1      3498 9.07951E-03 1.11124E-03-2.70686E-14
 -1      3499 8.92719E-03 1.06063E-03-2.69191E-14
 -1      3500 1.08701E-02 1.99365E-03-4.02645E-14
 -1      3501 1.07353E-02 1.91618E-03-3.89427E-14
 -1      3502 1.06143E-02 1.85146E-03-3.86199E-14
 -1      3503 3.57504E-03 3.03538E-04-5.82512E-15
 -1      3504 3.45237E-03 2.97112E-04-5.37797E-15
 -1      3505 3.61989E-03 2.88642E-04-6.17235E-15
 -1      3506 1.11420E-02 2.14909E-03-4.29446E-14
 -1      3507 1.10046E-02 2.07063E-03-4.15889E-14
 -1      3508 1.08800E-02 2.00307E-03-4.12566E-14
 -1      3509 1.11496E-02 2.15622E-03-4.39431E-14
 -1      3510 1.96839E-03 2.66607E-04-1.69702E-15
 -1      3511 1.82625E-03 2.60841E-04-1.46735E-15
 -1      3512 1.74723E-03 2.25339E-04-1.41102E-15
 -1      3513 3.06367E-03 2.84290E-04-4.15436E-15
 -1      3514 2.92960E-03 2.82654E-04-3.77901E-15
 -1      3515 7.20045E-03 1.27376E-04-2.26338E-14
 -1      3516 7.00821E-03 7.66231E-06-2.17738E-14
 -1      3517 8.71844E-03 9.80206E-04-2.67484E-14
 -1      3518 8.46042E-03 8.64627E-04-2.64431E-14
 -1      3519 1.13974E-03 1.40608E-04-6.90108E-16
 -1      3520 4.58901E-03 2.21630E-04-1.06419E-14
 -1      3521 4.45577E-03 2.63210E-04-1.02074E-14
 -1      3522 6.34720E-03-2.88529E-04-1.86036E-14
 -1      3523 6.17193E-03-3.11524E-04-1.75243E-14
 -1      3524 1.30581E-03-2.21344E-04-1.13207E-15
 -1      3525 1.44838E-03-2.33610E-04-1.35573E-15
 -1      3526 1.51301E-03-2.07258E-04-1.46359E-15
 -1      3527 1.26718E-03-1.82253E-04-1.07492E-15
 -1      3528 3.32482E-03 2.90133E-04-4.95804E-15
 -1      3529 3.19552E-03 2.86792E-04-4.54698E-15
 -1      3530 3.11755E-03 2.57776E-04-4.45332E-15
 -1      3531 9.57218E-03 1.23722E-03-2.66262E-14
 -1      3532 9.52184E-03 1.21155E-03-2.62875E-14
 -1      3533 9.46147E-03 1.19989E-03-2.65002E-14
 -1      3534 9.66040E-03 1.29049E-03-2.77190E-14
 -1      3535 1.37424E-03 1.95765E-04-9.09890E-16
 -1      3536 3.37540E-03 2.69835E-04-5.27783E-15
 -1      3537 6.44282E-03-2.65937E-04-1.93413E-14
 -1      3538 2.79715E-03 2.81290E-04-3.43122E-15
 -1      3539 2.66320E-03 2.80122E-04-3.10188E-15
 -1      3540 2.85425E-03 2.52025E-04-3.70206E-15
 -1      3541 6.73391E-03-1.64223E-04-2.18318E-14
 -1      3542 6.88956E-03-8.67066E-05-2.28177E-14
 -1      3543 1.12979E-03-2.54421E-05-8.32383E-16
 -1      3544 2.46561E-03 3.10261E-04-2.54687E-15
 -1      3545 8.37059E-03 8.13087E-04-2.70021E-14
 -1      3546 1.03550E-02 1.70319E-03-3.60428E-14
 -1      3547 1.03496E-02 1.69355E-03-3.51472E-14
 -1      3548 1.02242E-02 1.62075E-03-3.39010E-14
 -1      3549 4.15645E-03 3.77784E-04-9.08765E-15
 -1      3550 4.12757E-03 3.81400E-04-8.76607E-15
 -1      3551 4.59207E-03 1.55033E-04-1.05553E-14
 -1      3552 1.01024E-02 1.55033E-03-3.26724E-14
 -1      3553 9.98481E-03 1.48191E-03-3.14633E-14
 -1      3554 1.01071E-02 1.56160E-03-3.35420E-14
 -1      3555 7.80255E-03 4.93019E-04-2.55131E-14
 -1      3556 5.29299E-03-1.31260E-04-1.31638E-14
 -1      3557 1.43213E-02 3.90136E-03-8.04811E-14
 -1      3558 1.42202E-02 3.84679E-03-7.90839E-14
 -1      3559 1.42458E-02 3.85955E-03-8.08868E-14
 -1      3560 7.01518E-03-8.81970E-06-2.31535E-14
 -1      3561 4.33283E-03 2.41920E-04-9.66835E-15
 -1      3562 4.33134E-03 2.91368E-04-9.76180E-15
 -1      3563 7.31188E-03 1.89421E-04-2.35962E-14
 -1      3564 1.36952E-02 3.55476E-03-8.37447E-14
 -1      3565 1.37706E-02 3.59654E-03-8.33576E-14
 -1      3566 1.35724E-02 3.48846E-03-8.24120E-14
 -1      3567 5.64924E-03-2.51144E-04-1.47835E-14
 -1      3568 6.87664E-03-7.00194E-05-2.14378E-14
 -1      3569 9.21633E-03 1.16159E-03-2.78258E-14
 -1      3570 4.91711E-03 1.95553E-05-1.16875E-14
 -1      3571 4.12953E-03 3.87343E-04-8.37897E-15
 -1      3572 4.06264E-03 3.64808E-04-8.24826E-15
 -1      3573 1.25712E-03-1.19341E-04-1.04829E-15
 -1      3574 1.26161E-03-1.50381E-04-1.06279E-15
 -1      3575 1.38367E-03-1.61755E-04-1.24760E-15
 -1      3576 9.47875E-03 1.22531E-03-2.74344E-14
 -1      3577 1.25020E-03 4.58554E-05-9.32644E-16
 -1      3578 1.24944E-03 1.67486E-05-9.57866E-16
 -1      3579 2.24431E-03 2.74287E-04-2.19743E-15
 -1      3580 2.10659E-03 2.71004E-04-1.93836E-15
 -1      3581 2.02728E-03 2.36279E-04-1.87507E-15
 -1      3582 8.85704E-03 1.03678E-03-2.77195E-14
 -1      3583 1.59805E-03 1.83053E-04-1.25229E-15
 -1      3584 1.36796E-03 1.63185E-04-9.50113E-16
 -1      3585 1.36299E-03 1.31376E-04-9.87640E-16
 -1      3586 4.27400E-03 3.17792E-04-9.58613E-15
 -1      3587 9.87509E-03 1.41854E-03-3.03058E-14
 -1      3588 9.77099E-03 1.35756E-03-2.91703E-14
 -1      3589 9.87800E-03 1.43124E-03-3.11537E-14
 -1      3590 1.30692E-03 1.02517E-04-9.47430E-16
 -1      3591 1.30422E-03 7.24021E-05-9.78235E-16
 -1      3592 1.42447E-03 6.06958E-05-1.16199E-15
 -1      3593 1.53519E-03 1.18457E-04-1.25566E-15
 -1      3594 4.22404E-03 3.55391E-04-9.44710E-15
 -1      3595 4.18431E-03 3.68501E-04-9.26737E-15
 -1      3596 4.10876E-03 3.51317E-04-8.79693E-15
 -1      3597 1.39589E-02 3.70086E-03-8.22426E-14
 -1      3598 1.40345E-02 3.74271E-03-8.18452E-14
 -1      3599 1.41024E-02 3.78023E-03-8.15704E-14
 -1      3600 1.41779E-02 3.82201E-03-8.11673E-14
 -1      3601 1.40768E-02 3.76749E-03-7.97669E-14
 -1      3602 1.39409E-02 3.69249E-03-8.03202E-14
 -1      3603 1.70183E-03-1.89190E-04-1.79503E-15
 -1      3604 1.84502E-03-1.94316E-04-2.07083E-15
 -1      3605 1.98847E-03-1.98125E-04-2.36619E-15
 -1      3606 2.13216E-03-2.00738E-04-2.68104E-15
 -1      3607 1.91058E-03-1.62898E-04-2.19174E-15
 -1      3608 2.27600E-03-2.02304E-04-3.01514E-15
 -1      3609 2.42003E-03-2.02917E-04-3.36883E-15
 -1      3610 2.19731E-03-1.66717E-04-2.81485E-15
 -1      3611 2.56423E-03-2.02714E-04-3.74211E-15
 -1      3612 2.70870E-03-2.01802E-04-4.13391E-15
 -1      3613 2.48466E-03-1.66771E-04-3.51475E-15
 -1      3614 2.85349E-03-2.00301E-04-4.54500E-15
 -1      3615 2.99875E-03-1.98355E-04-4.97643E-15
 -1      3616 2.77272E-03-1.63743E-04-4.29126E-15
 -1      3617 3.14462E-03-1.96067E-04-5.42697E-15
 -1      3618 3.29129E-03-1.93656E-04-5.89685E-15
 -1      3619 3.06217E-03-1.58354E-04-5.14478E-15
 -1      3620 3.43901E-03-1.91221E-04-6.38659E-15
 -1      3621 3.58801E-03-1.89102E-04-6.89566E-15
 -1      3622 3.35427E-03-1.51505E-04-6.07630E-15
 -1      3623 3.73862E-03-1.87408E-04-7.42390E-15
 -1      3624 3.89108E-03-1.86654E-04-7.97147E-15
 -1      3625 3.65101E-03-1.44536E-04-7.08433E-15
 -1      3626 4.04579E-03-1.86976E-04-8.53976E-15
 -1      3627 4.20287E-03-1.89080E-04-9.12811E-15
 -1      3628 3.95503E-03-1.39592E-04-8.17056E-15
 -1      3629 4.36282E-03-1.93140E-04-9.73585E-15
 -1      3630 4.52535E-03-1.99936E-04-1.03633E-14
 -1      3631 4.26937E-03-1.40011E-04-9.33588E-15
 -1      3632 4.69096E-03-2.09548E-04-1.10116E-14
 -1      3633 4.85873E-03-2.22597E-04-1.16805E-14
 -1      3634 4.59666E-03-1.50441E-04-1.05803E-14
 -1      3635 5.71123E-03-3.18752E-04-1.53623E-14
 -1      3636 5.87532E-03-3.30229E-04-1.61668E-14
 -1      3637 1.24961E-03-1.22838E-05-9.80959E-16
 -1      3638 1.25071E-03-4.14817E-05-1.00230E-15
 -1      3639 1.37029E-03 2.76632E-06-1.13963E-15
 -1      3640 7.65825E-03 3.70021E-04-2.66399E-14
 -1      3641 7.82767E-03 4.64128E-04-2.77364E-14
 -1      3642 7.99564E-03 5.54845E-04-2.88553E-14
 -1      3643 8.16060E-03 6.42438E-04-2.99952E-14
 -1      3644 7.98655E-03 5.63929E-04-2.80987E-14
 -1      3645 8.32309E-03 7.26895E-04-3.11569E-14
 -1      3646 8.48243E-03 8.08753E-04-3.23400E-14
 -1      3647 8.32022E-03 7.37032E-04-3.03711E-14
 -1      3648 8.63916E-03 8.88304E-04-3.35447E-14
 -1      3649 8.79308E-03 9.66291E-04-3.47714E-14
 -1      3650 8.63997E-03 8.97229E-04-3.27301E-14
 -1      3651 8.94471E-03 1.04278E-03-3.60224E-14
 -1      3652 9.09428E-03 1.11839E-03-3.72937E-14
 -1      3653 8.94711E-03 1.04928E-03-3.51757E-14
 -1      3654 9.24215E-03 1.19324E-03-3.85849E-14
 -1      3655 9.38856E-03 1.26772E-03-3.98996E-14
 -1      3656 9.24473E-03 1.19737E-03-3.77094E-14
 -1      3657 9.53379E-03 1.34186E-03-4.12368E-14
 -1      3658 9.67809E-03 1.41593E-03-4.25937E-14
 -1      3659 9.53588E-03 1.34396E-03-4.03302E-14
 -1      3660 9.82163E-03 1.48993E-03-4.39719E-14
 -1      3661 9.96463E-03 1.56402E-03-4.53667E-14
 -1      3662 9.82285E-03 1.49049E-03-4.30370E-14
 -1      3663 1.01072E-02 1.63818E-03-4.67818E-14
 -1      3664 1.02495E-02 1.71249E-03-4.82168E-14
 -1      3665 1.01074E-02 1.63766E-03-4.58207E-14
 -1      3666 1.03915E-02 1.78696E-03-4.96641E-14
 -1      3667 1.05335E-02 1.86160E-03-5.11298E-14
 -1      3668 1.03908E-02 1.78576E-03-4.86762E-14
 -1      3669 1.06754E-02 1.93641E-03-5.26124E-14
 -1      3670 1.08173E-02 2.01140E-03-5.41080E-14
 -1      3671 1.06738E-02 1.93483E-03-5.15970E-14
 -1      3672 1.09592E-02 2.08657E-03-5.56205E-14
 -1      3673 1.11011E-02 2.16190E-03-5.71447E-14
 -1      3674 1.09568E-02 2.08479E-03-5.45803E-14
 -1      3675 1.12431E-02 2.23739E-03-5.86840E-14
 -1      3676 1.13852E-02 2.31302E-03-6.02340E-14
 -1      3677 1.12402E-02 2.23555E-03-5.76230E-14
 -1      3678 1.15273E-02 2.38880E-03-6.17974E-14
 -1      3679 1.16696E-02 2.46471E-03-6.33727E-14
 -1      3680 1.15239E-02 2.38697E-03-6.07162E-14
 -1      3681 1.18119E-02 2.54073E-03-6.49575E-14
 -1      3682 1.19542E-02 2.61687E-03-6.65553E-14
 -1      3683 1.18080E-02 2.53896E-03-6.38580E-14
 -1      3684 1.20967E-02 2.69311E-03-6.81651E-14
 -1      3685 1.22392E-02 2.76944E-03-6.97820E-14
 -1      3686 1.20925E-02 2.69140E-03-6.70477E-14
 -1      3687 1.23817E-02 2.84586E-03-7.14100E-14
 -1      3688 1.25243E-02 2.92236E-03-7.30524E-14
 -1      3689 1.23774E-02 2.84422E-03-7.02804E-14
 -1      3690 1.26670E-02 2.99892E-03-7.47030E-14
 -1      3691 1.28096E-02 3.07554E-03-7.63635E-14
 -1      3692 1.26625E-02 2.99733E-03-7.35560E-14
 -1      3693 1.29524E-02 3.15222E-03-7.80328E-14
 -1      3694 1.30951E-02 3.22895E-03-7.97132E-14
 -1      3695 1.29478E-02 3.15069E-03-7.68726E-14
 -1      3696 3.88260E-03 3.08264E-04-7.49203E-15
 -1      3697 3.77997E-03 2.90719E-04-7.00666E-15
 -1      3698 3.43608E-03 2.50728E-04-5.63544E-15
 -1      3699 3.31019E-03 2.40718E-04-5.20286E-15
 -1      3700 4.55785E-03 9.33106E-05-1.03710E-14
 -1      3701 4.43134E-03 1.48608E-04-9.93282E-15
 -1      3702 1.19814E-02 2.62414E-03-5.34415E-14
 -1      3703 1.18475E-02 2.54984E-03-5.20374E-14
 -1      3704 1.73970E-03 1.89741E-04-1.46655E-15
 -1      3705 1.14309E-02 2.31747E-03-4.77362E-14
 -1      3706 1.12921E-02 2.23961E-03-4.63225E-14
 -1      3707 1.22641E-02 2.78049E-03-5.64523E-14
 -1      3708 1.21226E-02 2.70233E-03-5.49383E-14
 -1      3709 1.19900E-02 2.63010E-03-5.45573E-14
 -1      3710 1.25479E-02 2.93664E-03-5.95223E-14
 -1      3711 1.24059E-02 2.85860E-03-5.79792E-14
 -1      3712 1.22727E-02 2.78589E-03-5.75892E-14
 -1      3713 1.28322E-02 3.09252E-03-6.26516E-14
 -1      3714 1.26900E-02 3.01462E-03-6.10792E-14
 -1      3715 1.25563E-02 2.94158E-03-6.06807E-14
 -1      3716 1.31171E-02 3.24811E-03-6.58345E-14
 -1      3717 1.29746E-02 3.17035E-03-6.42371E-14
 -1      3718 1.28406E-02 3.09709E-03-6.38289E-14
 -1      3719 1.33880E-02 3.39567E-03-6.88989E-14
 -1      3720 1.32525E-02 3.32192E-03-6.73619E-14
 -1      3721 1.31183E-02 3.24850E-03-6.69470E-14
 -1      3722 1.36733E-02 3.55075E-03-7.21643E-14
 -1      3723 1.35306E-02 3.47323E-03-7.05269E-14
 -1      3724 1.33962E-02 3.39971E-03-7.01047E-14
 -1      3725 1.39588E-02 3.70562E-03-7.54588E-14
 -1      3726 1.38161E-02 3.62821E-03-7.38081E-14
 -1      3727 1.36816E-02 3.55461E-03-7.33802E-14
 -1      3728 1.41401E-02 3.80354E-03-7.79663E-14
 -1      3729 1.40389E-02 3.74891E-03-7.65705E-14
 -1      3730 1.39044E-02 3.67528E-03-7.61405E-14
 -1      3731 1.40646E-02 3.76178E-03-7.83692E-14
 -1      3732 6.01058E-03-3.17260E-04-1.66793E-14
 -1      3733 4.31098E-03 1.85382E-04-9.50074E-15
 -1      3734 4.19684E-03 2.13754E-04-9.07683E-15
 -1      3735 4.27860E-03 1.27944E-04-9.32826E-15
 -1      3736 8.56958E-03 9.06063E-04-2.82007E-14
 -1      3737 8.29782E-03 7.65724E-04-2.76492E-14
 -1      3738 6.97473E-03-2.06583E-05-2.24005E-14
 -1      3739 7.14175E-03 7.39040E-05-2.34032E-14
 -1      3740 6.75743E-03-1.37754E-04-2.12081E-14
 -1      3741 5.55059E-03-2.81366E-04-1.45307E-14
 -1      3742 5.37837E-03-2.58427E-04-1.37759E-14
 -1      3743 7.34246E-03 1.96067E-04-2.43814E-14
 -1      3744 1.17087E-02 2.47264E-03-5.05950E-14
 -1      3745 1.15687E-02 2.39450E-03-4.91492E-14
 -1      3746 1.14345E-02 2.32193E-03-4.87499E-14
 -1      3747 1.17105E-02 2.47535E-03-5.16114E-14
 -1      3748 3.18189E-03 2.34216E-04-4.77968E-15
 -1      3749 3.05105E-03 2.29305E-04-4.37519E-15
 -1      3750 3.24868E-03 2.12088E-04-5.11475E-15
 -1      3751 7.51557E-03 2.96535E-04-2.54296E-14
 -1      3752 5.16219E-03-2.49857E-04-1.29138E-14
 -1      3753 5.25182E-03-1.84884E-04-1.31074E-14
 -1      3754 5.07150E-03-1.20110E-04-1.23342E-14
 -1      3755 4.99127E-03-2.30918E-04-1.22074E-14
 -1      3756 2.52458E-03 2.78647E-04-2.78174E-15
 -1      3757 2.38486E-03 2.76829E-04-2.48019E-15
 -1      3758 2.30555E-03 2.43232E-04-2.40949E-15
 -1      3759 2.58407E-03 2.47906E-04-3.02320E-15
 -1      3760 1.25184E-03-6.51148E-05-1.01773E-15
 -1      3761 1.25461E-03-9.49484E-05-1.03581E-15
 -1      3762 1.37577E-03-1.03255E-04-1.21689E-15
 -1      3763 1.37197E-03-5.27900E-05-1.18392E-15
 -1      3764 9.59970E-03 1.27738E-03-2.82400E-14
 -1      3765 9.50301E-03 1.25634E-03-2.85618E-14
 -1      3766 1.38269E-02 3.62778E-03-8.29985E-14
 -1      3767 1.39025E-02 3.66963E-03-8.26064E-14
 -1      3768 1.38167E-02 3.62381E-03-8.09550E-14
 -1      3769 1.37041E-02 3.56141E-03-8.16733E-14
 -1      3770 4.90959E-03-4.21393E-05-1.16706E-14
 -1      3771 4.73070E-03 2.86819E-05-1.09964E-14
 -1      3772 4.55912E-03 3.28901E-05-1.03561E-14
 -1      3773 4.88307E-03-1.03772E-04-1.16168E-14
 -1      3774 1.06201E-02 1.86070E-03-3.95741E-14
 -1      3775 1.04888E-02 1.78647E-03-3.82645E-14
 -1      3776 3.67106E-03 2.74387E-04-6.54296E-15
 -1      3777 3.55319E-03 2.62002E-04-6.06739E-15
 -1      3778 3.49531E-03 2.32237E-04-5.98385E-15
 -1      3779 3.72386E-03 2.62158E-04-6.89066E-15
 -1      3780 9.01991E-03 1.10349E-03-2.88015E-14
 -1      3781 8.83094E-03 1.02635E-03-2.86164E-14
 -1      3782 1.32984E-02 3.33852E-03-8.18428E-14
 -1      3783 9.35335E-03 1.21420E-03-2.86508E-14
 -1      3784 9.20312E-03 1.16864E-03-2.87221E-14
 -1      3785 4.17328E-03 3.06980E-04-9.10725E-15
 -1      3786 1.48079E-03-1.71067E-04-1.40469E-15
 -1      3787 1.60396E-03-1.80952E-04-1.61667E-15
 -1      3788 1.66984E-03-1.52263E-04-1.72562E-15
 -1      3789 1.47534E-03-1.37140E-04-1.38664E-15
 -1      3790 7.67304E-03 4.00146E-04-2.57725E-14
 -1      3791 1.32937E-02 3.33703E-03-8.06637E-14
 -1      3792 4.06196E-03 1.93532E-04-8.50756E-15
 -1      3793 4.09211E-03 2.42176E-04-8.66417E-15
 -1      3794 2.92134E-03 2.25384E-04-3.99828E-15
 -1      3795 2.78983E-03 2.22286E-04-3.63862E-15
 -1      3796 2.99001E-03 1.99894E-04-4.30230E-15
 -1      3797 9.50288E-03 1.27274E-03-2.94797E-14
 -1      3798 1.31659E-02 3.26908E-03-7.81702E-14
 -1      3799 1.33691E-02 3.37873E-03-8.02863E-14
 -1      3800 1.34446E-02 3.42042E-03-7.99081E-14
 -1      3801 8.74963E-03 9.86096E-04-2.92915E-14
 -1      3802 4.01317E-03 3.44728E-04-8.10927E-15
 -1      3803 3.96679E-03 3.18595E-04-7.98311E-15
 -1      3804 7.94232E-03 5.62409E-04-2.67352E-14
 -1      3805 8.31848E-03 7.56473E-04-2.90507E-14
 -1      3806 8.11729E-03 6.54207E-04-2.78355E-14
 -1      3807 1.08845E-02 2.01008E-03-4.22201E-14
 -1      3808 1.07515E-02 1.93493E-03-4.08883E-14
 -1      3809 1.06223E-02 1.86805E-03-4.05180E-14
 -1      3810 1.03597E-02 1.71372E-03-3.69712E-14
 -1      3811 1.02331E-02 1.64242E-03-3.56981E-14
 -1      3812 1.03617E-02 1.72293E-03-3.79042E-14
 -1      3813 4.89862E-03-1.67579E-04-1.17477E-14
 -1      3814 1.01093E-02 1.57333E-03-3.44460E-14
 -1      3815 9.98914E-03 1.50625E-03-3.32138E-14
 -1      3816 1.01081E-02 1.58323E-03-3.53514E-14
 -1      3817 1.89544E-03 1.91247E-04-1.73211E-15
 -1      3818 1.74793E-03 1.50825E-04-1.54956E-15
 -1      3819 4.02539E-03 2.96353E-04-8.37541E-15
 -1      3820 3.88892E-03 2.54404E-04-7.73917E-15
 -1      3821 9.17765E-03 1.16657E-03-2.96424E-14
 -1      3822 1.36626E-02 3.54021E-03-7.96990E-14
 -1      3823 1.37190E-02 3.57137E-03-7.93391E-14
 -1      3824 2.03321E-03 1.95596E-04-1.97836E-15
 -1      3825 1.11610E-02 2.16934E-03-4.59526E-14
 -1      3826 1.11558E-02 2.16303E-03-4.49449E-14
 -1      3827 1.10205E-02 2.08676E-03-4.35828E-14
 -1      3828 1.49175E-03 1.93894E-05-1.30821E-15
 -1      3829 1.49208E-03-1.27054E-05-1.33853E-15
 -1      3830 1.36328E-02 3.52518E-03-7.78196E-14
 -1      3831 1.37869E-02 3.60882E-03-7.90684E-14
 -1      3832 1.38547E-02 3.64627E-03-7.87977E-14
 -1      3833 1.59992E-03 7.63723E-05-1.41514E-15
 -1      3834 1.54536E-03 4.74311E-05-1.36306E-15
 -1      3835 1.66690E-03 3.29001E-05-1.58078E-15
 -1      3836 9.66262E-03 1.30454E-03-2.85418E-14
 -1      3837 2.11975E-03-1.32004E-04-2.61993E-15
 -1      3838 2.26292E-03-1.32260E-04-2.94681E-15
 -1      3839 2.40615E-03-1.31686E-04-3.29322E-15
 -1      3840 2.54950E-03-1.30303E-04-3.65865E-15
 -1      3841 2.32888E-03-9.74434E-05-3.07726E-15
 -1      3842 2.69296E-03-1.28179E-04-4.04319E-15
 -1      3843 2.83663E-03-1.25370E-04-4.44607E-15
 -1      3844 2.61445E-03-9.35777E-05-3.80003E-15
 -1      3845 2.98058E-03-1.21916E-04-4.86885E-15
 -1      3846 3.12503E-03-1.17928E-04-5.31092E-15
 -1      3847 2.90026E-03-8.67396E-05-4.59891E-15
 -1      3848 3.27010E-03-1.13447E-04-5.77197E-15
 -1      3849 3.41613E-03-1.08692E-04-6.25268E-15
 -1      3850 3.18712E-03-7.71075E-05-5.47399E-15
 -1      3851 3.56336E-03-1.03706E-04-6.75183E-15
 -1      3852 3.71223E-03-9.89207E-05-7.26994E-15
 -1      3853 3.47658E-03-6.51809E-05-6.42505E-15
 -1      3854 3.86311E-03-9.44308E-05-7.80781E-15
 -1      3855 4.01647E-03-9.09727E-05-8.36545E-15
 -1      3856 3.77127E-03-5.21272E-05-7.45205E-15
 -1      3857 4.17289E-03-8.86902E-05-8.94254E-15
 -1      3858 4.33272E-03-8.88310E-05-9.53945E-15
 -1      3859 4.07496E-03-4.05699E-05-8.55606E-15
 -1      3860 8.48298E-03 8.37061E-04-3.01942E-14
 -1      3861 8.95182E-03 1.05705E-03-3.43360E-14
 -1      3862 9.10166E-03 1.13000E-03-3.55782E-14
 -1      3863 9.24922E-03 1.20226E-03-3.68394E-14
 -1      3864 9.39501E-03 1.27439E-03-3.81229E-14
 -1      3865 9.25591E-03 1.20803E-03-3.59736E-14
 -1      3866 9.53934E-03 1.34642E-03-3.94299E-14
 -1      3867 9.68262E-03 1.41868E-03-4.07588E-14
 -1      3868 9.54439E-03 1.34931E-03-3.85350E-14
 -1      3869 9.82505E-03 1.49115E-03-4.21060E-14
 -1      3870 9.96691E-03 1.56395E-03-4.34741E-14
 -1      3871 9.82834E-03 1.49191E-03-4.11818E-14
 -1      3872 1.01083E-02 1.63708E-03-4.48642E-14
 -1      3873 1.02495E-02 1.71057E-03-4.62701E-14
 -1      3874 1.01100E-02 1.63641E-03-4.39101E-14
 -1      3875 1.03906E-02 1.78439E-03-4.76916E-14
 -1      3876 1.05315E-02 1.85855E-03-4.91312E-14
 -1      3877 1.03908E-02 1.78284E-03-4.67125E-14
 -1      3878 1.06725E-02 1.93302E-03-5.05878E-14
 -1      3879 1.08136E-02 2.00777E-03-5.20596E-14
 -1      3880 1.06716E-02 1.93097E-03-4.95831E-14
 -1      3881 1.09547E-02 2.08279E-03-5.35473E-14
 -1      3882 1.10960E-02 2.15803E-03-5.50485E-14
 -1      3883 1.09528E-02 2.08053E-03-5.25179E-14
 -1      3884 1.12374E-02 2.23349E-03-5.65650E-14
 -1      3885 1.13789E-02 2.30914E-03-5.80951E-14
 -1      3886 1.12347E-02 2.23120E-03-5.55120E-14
 -1      3887 1.15206E-02 2.38495E-03-5.96382E-14
 -1      3888 1.16624E-02 2.46092E-03-6.11932E-14
 -1      3889 1.15174E-02 2.38272E-03-5.85624E-14
 -1      3890 1.18043E-02 2.53701E-03-6.27610E-14
 -1      3891 1.19463E-02 2.61323E-03-6.43404E-14
 -1      3892 1.18006E-02 2.53489E-03-6.16666E-14
 -1      3893 1.20885E-02 2.68955E-03-6.59329E-14
 -1      3894 1.22307E-02 2.76596E-03-6.75379E-14
 -1      3895 1.20845E-02 2.68755E-03-6.48207E-14
 -1      3896 1.23731E-02 2.84246E-03-6.91511E-14
 -1      3897 1.25155E-02 2.91903E-03-7.07755E-14
 -1      3898 1.23689E-02 2.84058E-03-6.80232E-14
 -1      3899 1.26580E-02 2.99566E-03-7.24126E-14
 -1      3900 1.28006E-02 3.07235E-03-7.40595E-14
 -1      3901 1.26536E-02 2.99389E-03-7.12694E-14
 -1      3902 1.29119E-02 3.13229E-03-7.52776E-14
 -1      3903 1.30545E-02 3.20907E-03-7.69396E-14
 -1      3904 1.31300E-02 3.25064E-03-7.65656E-14
 -1      3905 1.29074E-02 3.13060E-03-7.41242E-14
 -1      3906 9.64666E-03 1.33511E-03-3.04547E-14
 -1      3907 9.50478E-03 1.28986E-03-3.05396E-14
 -1      3908 3.84596E-03 1.98119E-04-7.60407E-15
 -1      3909 3.77618E-03 2.33085E-04-7.24738E-15
 -1      3910 3.66098E-03 2.14832E-04-6.77233E-15
 -1      3911 3.31123E-03 1.88853E-04-5.43482E-15
 -1      3912 3.18147E-03 1.80369E-04-4.99989E-15
 -1      3913 1.19949E-02 2.63392E-03-5.56393E-14
 -1      3914 1.18540E-02 2.55632E-03-5.41367E-14
 -1      3915 1.28453E-02 3.09963E-03-6.49670E-14
 -1      3916 1.27031E-02 3.02206E-03-6.33774E-14
 -1      3917 1.31158E-02 3.24690E-03-6.80182E-14
 -1      3918 1.29805E-02 3.17328E-03-6.64886E-14
 -1      3919 1.28429E-02 3.09821E-03-6.60265E-14
 -1      3920 1.34009E-02 3.40177E-03-7.12696E-14
 -1      3921 1.32583E-02 3.32435E-03-6.96393E-14
 -1      3922 1.31205E-02 3.24910E-03-6.91713E-14
 -1      3923 1.36862E-02 3.55649E-03-7.45584E-14
 -1      3924 1.35435E-02 3.47915E-03-7.29096E-14
 -1      3925 1.34055E-02 3.40377E-03-7.24360E-14
 -1      3926 4.24978E-03 7.20823E-05-9.19646E-15
 -1      3927 4.14029E-03 1.07347E-04-8.78681E-15
 -1      3928 9.35079E-03 1.23757E-03-3.06350E-14
 -1      3929 9.18397E-03 1.17505E-03-3.07098E-14
 -1      3930 8.93870E-03 1.06990E-03-3.04928E-14
 -1      3931 8.69664E-03 9.54995E-04-3.00548E-14
 -1      3932 1.25611E-02 2.94447E-03-6.18019E-14
 -1      3933 1.24192E-02 2.86684E-03-6.02402E-14
 -1      3934 1.25657E-02 2.94723E-03-6.29247E-14
 -1      3935 1.22775E-02 2.78920E-03-5.86921E-14
 -1      3936 1.21360E-02 2.71155E-03-5.71589E-14
 -1      3937 1.19994E-02 2.63752E-03-5.67249E-14
 -1      3938 1.22821E-02 2.79235E-03-5.97982E-14
 -1      3939 9.86588E-03 1.45245E-03-3.28832E-14
 -1      3940 9.87282E-03 1.44225E-03-3.20032E-14
 -1      3941 9.70508E-03 1.34140E-03-2.96947E-14
 -1      3942 1.35254E-02 3.46473E-03-7.99822E-14
 -1      3943 1.35818E-02 3.49589E-03-7.96273E-14
 -1      3944 1.34840E-02 3.44349E-03-7.80162E-14
 -1      3945 1.33223E-02 3.35495E-03-7.78702E-14
 -1      3946 2.19050E-03 2.00548E-04-2.27991E-15
 -1      3947 2.06106E-03 1.56660E-04-2.11520E-15
 -1      3948 9.76406E-03 1.38243E-03-3.08433E-14
 -1      3949 1.65545E-03 1.06174E-04-1.46527E-15
 -1      3950 1.61404E-03-2.26992E-05-1.54721E-15
 -1      3951 1.49274E-03-3.85755E-05-1.36040E-15
 -1      3952 1.49409E-03-6.46631E-05-1.38108E-15
 -1      3953 4.03326E-03 1.42228E-04-8.37720E-15
 -1      3954 3.93532E-03 1.72951E-04-7.98730E-15
 -1      3955 3.80936E-03 1.53717E-04-7.48329E-15
 -1      3956 4.05774E-03 2.80132E-04-8.54029E-15
 -1      3957 1.39257E-02 3.68527E-03-7.87229E-14
 -1      3958 1.39936E-02 3.72275E-03-7.84460E-14
 -1      3959 1.39135E-02 3.67952E-03-7.73293E-14
 -1      3960 1.37716E-02 3.60155E-03-7.74780E-14
 -1      3961 1.83391E-03-1.28734E-04-2.02303E-15
 -1      3962 1.97674E-03-1.30839E-04-2.31202E-15
 -1      3963 2.04342E-03-9.81869E-05-2.43077E-15
 -1      3964 4.74877E-03-9.78860E-05-1.11079E-14
 -1      3965 8.67911E-03 9.32690E-04-3.14161E-14
 -1      3966 2.72372E-03 1.91787E-04-3.56209E-15
 -1      3967 2.65335E-03 2.19444E-04-3.28852E-15
 -1      3968 2.51551E-03 2.16883E-04-2.95680E-15
 -1      3969 1.34782E-02 3.44131E-03-7.64978E-14
 -1      3970 1.35461E-02 3.47867E-03-7.62308E-14
 -1      3971 4.49672E-03-9.15432E-05-1.01561E-14
 -1      3972 4.66477E-03-9.86185E-05-1.07927E-14
 -1      3973 2.33063E-03 2.03682E-04-2.57048E-15
 -1      3974 1.08893E-02 2.01736E-03-4.32024E-14
 -1      3975 8.83409E-03 1.00644E-03-3.26031E-14
 -1      3976 9.51503E-03 1.30673E-03-3.16336E-14
 -1      3977 3.05285E-03 1.73493E-04-4.59391E-15
 -1      3978 2.92259E-03 1.67942E-04-4.20550E-15
 -1      3979 3.11883E-03 1.47373E-04-4.89191E-15
 -1      3980 1.06237E-02 1.87497E-03-4.14713E-14
 -1      3981 1.04923E-02 1.80251E-03-4.01505E-14
 -1      3982 1.03608E-02 1.73045E-03-3.88328E-14
 -1      3983 1.02311E-02 1.65977E-03-3.75331E-14
 -1      3984 1.03587E-02 1.73670E-03-3.97646E-14
 -1      3985 1.01033E-02 1.59098E-03-3.62517E-14
 -1      3986 9.97788E-03 1.52410E-03-3.49940E-14
 -1      3987 1.00973E-02 1.59705E-03-3.71588E-14
 -1      3988 8.99713E-03 1.08831E-03-3.29804E-14
 -1      3989 1.17196E-02 2.48390E-03-5.37351E-14
 -1      3990 1.17152E-02 2.47977E-03-5.26709E-14
 -1      3991 1.15769E-02 2.40331E-03-5.12219E-14
 -1      3992 4.00205E-03 9.18591E-05-8.25343E-15
 -1      3993 4.31721E-03 2.47673E-05-9.44721E-15
 -1      3994 4.17028E-03 9.97011E-06-8.89652E-15
 -1      3995 1.38334E-02 3.63628E-03-7.62177E-14
 -1      3996 1.68972E-03-1.03024E-04-1.73811E-15
 -1      3997 1.75735E-03-7.30097E-05-1.84229E-15
 -1      3998 9.31077E-03 1.23337E-03-3.25332E-14
 -1      3999 9.12868E-03 1.15381E-03-3.15072E-14
 -1      4000 9.07953E-03 1.13061E-03-3.23009E-14
 -1      4001 1.14391E-02 2.32703E-03-4.97863E-14
 -1      4002 1.13019E-02 2.25095E-03-4.83659E-14
 -1      4003 1.14432E-02 2.33174E-03-5.08264E-14
 -1      4004 1.81118E-03 1.06315E-04-1.73335E-15
 -1      4005 9.69110E-03 1.35143E-03-3.05254E-14
 -1      4006 1.11653E-02 2.17519E-03-4.69653E-14
 -1      4007 1.10295E-02 2.09980E-03-4.55791E-14
 -1      4008 1.11689E-02 2.18052E-03-4.79816E-14
 -1      4009 1.33164E-02 3.35282E-03-7.63589E-14
 -1      4010 1.33973E-02 3.39706E-03-7.64300E-14
 -1      4011 1.33107E-02 3.35058E-03-7.48492E-14
 -1      4012 1.47218E-03-1.10423E-04-1.37078E-15
 -1      4013 3.54747E-03 2.06484E-04-6.30901E-15
 -1      4014 3.42750E-03 1.92945E-04-5.86547E-15
 -1      4015 3.36726E-03 1.58839E-04-5.73756E-15
 -1      4016 3.60529E-03 1.70465E-04-6.63868E-15
 -1      4017 1.75430E-03-1.70035E-05-1.78828E-15
 -1      4018 1.75544E-03-4.48916E-05-1.81616E-15
 -1      4019 1.89802E-03-6.81430E-05-2.10797E-15
 -1      4020 2.12595E-03 1.15582E-04-2.32836E-15
 -1      4021 1.96871E-03 1.11105E-04-2.01929E-15
 -1      4022 1.87857E-03 6.63234E-05-1.91822E-15
 -1      4023 9.85546E-03 1.46021E-03-3.37658E-14
 -1      4024 9.73531E-03 1.39840E-03-3.25502E-14
 -1      4025 1.84232E-03 3.93732E-05-1.88712E-15
 -1      4026 1.78904E-03 9.30022E-06-1.82462E-15
 -1      4027 1.92999E-03-1.20832E-05-2.11773E-15
 -1      4028 1.99998E-03 4.26283E-05-2.18951E-15
 -1      4029 4.39255E-03-3.53366E-05-9.73856E-15
 -1      4030 1.36953E-02 3.56080E-03-7.57409E-14
 -1      4031 9.84324E-03 1.46537E-03-3.46421E-14
 -1      4032 4.64030E-03-3.42870E-05-1.06664E-14
 -1      4033 1.36244E-02 3.52187E-03-7.58142E-14
 -1      4034 2.53740E-03-5.99264E-05-3.56289E-15
 -1      4035 2.67950E-03-5.67363E-05-3.93915E-15
 -1      4036 2.82150E-03-5.27870E-05-4.33432E-15
 -1      4037 2.96356E-03-4.80365E-05-4.74844E-15
 -1      4038 2.74454E-03-1.98925E-05-4.07543E-15
 -1      4039 3.10572E-03-4.24742E-05-5.18144E-15
 -1      4040 3.24825E-03-3.61484E-05-5.63327E-15
 -1      4041 3.02639E-03-9.33441E-06-4.89475E-15
 -1      4042 3.39126E-03-2.90230E-05-6.10429E-15
 -1      4043 3.53522E-03-2.13004E-05-6.59381E-15
 -1      4044 3.30819E-03 4.90804E-06-5.78937E-15
 -1      4045 3.68036E-03-1.29800E-05-7.10217E-15
 -1      4046 3.82734E-03-4.52058E-06-7.62953E-15
 -1      4047 3.59170E-03 2.29870E-05-6.75882E-15
 -1      4048 4.01674E-03 3.09830E-06-8.32511E-15
 -1      4049 9.26553E-03 1.21435E-03-3.51145E-14
 -1      4050 9.40923E-03 1.28322E-03-3.63677E-14
 -1      4051 2.40306E-03 1.75026E-04-2.80859E-15
 -1      4052 9.55131E-03 1.35232E-03-3.76452E-14
 -1      4053 9.69248E-03 1.42217E-03-3.89439E-14
 -1      4054 9.56030E-03 1.35545E-03-3.67594E-14
 -1      4055 9.83285E-03 1.49259E-03-4.02623E-14
 -1      4056 9.97279E-03 1.56372E-03-4.16017E-14
 -1      4057 9.83867E-03 1.49316E-03-3.93483E-14
 -1      4058 1.01124E-02 1.63550E-03-4.29611E-14
 -1      4059 1.02520E-02 1.70795E-03-4.43413E-14
 -1      4060 1.01156E-02 1.63434E-03-4.20183E-14
 -1      4061 1.03915E-02 1.78099E-03-4.57399E-14
 -1      4062 1.05311E-02 1.85457E-03-4.71523E-14
 -1      4063 1.03927E-02 1.77881E-03-4.47675E-14
 -1      4064 1.06709E-02 1.92862E-03-4.85814E-14
 -1      4065 1.08109E-02 2.00311E-03-5.00299E-14
 -1      4066 1.06705E-02 1.92590E-03-4.75881E-14
 -1      4067 1.09511E-02 2.07798E-03-5.14926E-14
 -1      4068 1.10915E-02 2.15317E-03-5.29704E-14
 -1      4069 1.09495E-02 2.07510E-03-5.04715E-14
 -1      4070 1.12322E-02 2.22863E-03-5.44625E-14
 -1      4071 1.13731E-02 2.30433E-03-5.59691E-14
 -1      4072 1.12298E-02 2.22577E-03-5.34168E-14
 -1      4073 1.15142E-02 2.38025E-03-5.74914E-14
 -1      4074 1.16555E-02 2.45633E-03-5.90267E-14
 -1      4075 1.15111E-02 2.37752E-03-5.64225E-14
 -1      4076 1.17970E-02 2.53256E-03-6.05759E-14
 -1      4077 1.19387E-02 2.60892E-03-6.21363E-14
 -1      4078 1.17934E-02 2.53002E-03-5.94863E-14
 -1      4079 1.20806E-02 2.68538E-03-6.37141E-14
 -1      4080 1.22225E-02 2.76194E-03-6.53011E-14
 -1      4081 1.20766E-02 2.68304E-03-6.26073E-14
 -1      4082 1.23647E-02 2.83857E-03-6.68976E-14
 -1      4083 1.25069E-02 2.91526E-03-6.85081E-14
 -1      4084 1.23605E-02 2.83641E-03-6.57765E-14
 -1      4085 1.26492E-02 2.99201E-03-7.01299E-14
 -1      4086 1.27916E-02 3.06881E-03-7.17635E-14
 -1      4087 1.26449E-02 2.99003E-03-6.89924E-14
 -1      4088 1.31251E-02 3.25124E-03-7.03263E-14
 -1      4089 1.29827E-02 3.17398E-03-6.87015E-14
 -1      4090 2.04028E-03-6.82560E-05-2.39943E-15
 -1      4091 1.28474E-02 3.10057E-03-6.71688E-14
 -1      4092 1.27123E-02 3.02715E-03-6.56449E-14
 -1      4093 1.28520E-02 3.10282E-03-6.83115E-14
 -1      4094 9.83098E-03 1.46864E-03-3.55284E-14
 -1      4095 9.70324E-03 1.40521E-03-3.42938E-14
 -1      4096 1.56896E-03-1.17246E-04-1.53394E-15
 -1      4097 3.91898E-03 4.40888E-05-7.94804E-15
 -1      4098 3.82018E-03 7.82735E-05-7.56528E-15
 -1      4099 9.70441E-03 1.37377E-03-3.16076E-14
 -1      4100 1.08932E-02 2.02424E-03-4.41933E-14
 -1      4101 1.07577E-02 1.94904E-03-4.28218E-14
 -1      4102 1.06253E-02 1.88163E-03-4.24418E-14
 -1      4103 1.08959E-02 2.03017E-03-4.51867E-14
 -1      4104 1.31828E-02 3.27962E-03-7.64264E-14
 -1      4105 1.32637E-02 3.32384E-03-7.65010E-14
 -1      4106 1.31770E-02 3.27744E-03-7.49222E-14
 -1      4107 1.30715E-02 3.21955E-03-7.52029E-14
 -1      4108 3.75058E-03 1.14242E-04-7.27876E-15
 -1      4109 3.66465E-03 1.42091E-04-6.91890E-15
 -1      4110 3.54190E-03 1.35682E-04-6.44965E-15
 -1      4111 3.66710E-03 7.07286E-05-6.99553E-15
 -1      4112 1.25702E-02 2.94987E-03-6.40530E-14
 -1      4113 1.24283E-02 2.87259E-03-6.24737E-14
 -1      4114 1.25747E-02 2.95238E-03-6.51832E-14
 -1      4115 1.34698E-02 3.43793E-03-7.45019E-14
 -1      4116 2.25298E-03-6.40741E-05-2.86723E-15
 -1      4117 2.39524E-03-6.23577E-05-3.20580E-15
 -1      4118 2.46195E-03-2.71260E-05-3.33171E-15
 -1      4119 2.10822E-03-3.51660E-05-2.51288E-15
 -1      4120 1.33272E-02 3.36071E-03-7.28519E-14
 -1      4121 1.31893E-02 3.28549E-03-7.23716E-14
 -1      4122 9.18458E-03 1.17688E-03-3.40386E-14
 -1      4123 9.34182E-03 1.25080E-03-3.44139E-14
 -1      4124 2.49506E-03 1.43284E-04-3.10740E-15
 -1      4125 2.31111E-03 1.29405E-04-2.70414E-15
 -1      4126 2.22140E-03 8.35448E-05-2.59296E-15
 -1      4127 1.06255E-02 1.88710E-03-4.34102E-14
 -1      4128 1.04907E-02 1.81418E-03-4.20520E-14
 -1      4129 2.77869E-03 1.57092E-04-3.81792E-15
 -1      4130 2.64189E-03 1.53065E-04-3.45660E-15
 -1      4131 2.55341E-03 1.07266E-04-3.33795E-15
 -1      4132 2.84490E-03 1.28620E-04-4.08632E-15
 -1      4133 1.22909E-02 2.79814E-03-6.20202E-14
 -1      4134 1.22865E-02 2.79533E-03-6.09071E-14
 -1      4135 1.21450E-02 2.71810E-03-5.93558E-14
 -1      4136 1.03564E-02 1.74214E-03-4.07062E-14
 -1      4137 1.02232E-02 1.67128E-03-3.93811E-14
 -1      4138 1.03538E-02 1.74657E-03-4.16535E-14
 -1      4139 3.18680E-03 1.20693E-04-5.19002E-15
 -1      4140 3.05560E-03 1.12976E-04-4.77397E-15
 -1      4141 1.28759E-02 3.11416E-03-7.28738E-14
 -1      4142 1.29872E-02 3.17419E-03-7.40868E-14
 -1      4143 1.30399E-02 3.20310E-03-7.39464E-14
 -1      4144 1.28714E-02 3.11230E-03-7.17236E-14
 -1      4145 1.00914E-02 1.60209E-03-3.80764E-14
 -1      4146 9.96049E-03 1.53433E-03-3.67890E-14
 -1      4147 9.81990E-03 1.47087E-03-3.64212E-14
 -1      4148 1.00852E-02 1.60572E-03-3.89950E-14
 -1      4149 1.17228E-02 2.48727E-03-5.47930E-14
 -1      4150 1.15842E-02 2.41134E-03-5.33210E-14
 -1      4151 9.52334E-03 1.32590E-03-3.34240E-14
 -1      4152 9.48043E-03 1.31217E-03-3.42529E-14
 -1      4153 1.20041E-02 2.64116E-03-5.78204E-14
 -1      4154 1.18631E-02 2.56404E-03-5.62965E-14
 -1      4155 1.17271E-02 2.49107E-03-5.58703E-14
 -1      4156 1.20083E-02 2.64432E-03-5.89145E-14
 -1      4157 4.47909E-03 2.71540E-05-1.00557E-14
 -1      4158 2.14188E-03-6.98072E-06-2.55406E-15
 -1      4159 1.14460E-02 2.33561E-03-5.18632E-14
 -1      4160 1.13083E-02 2.26009E-03-5.04191E-14
 -1      4161 1.14485E-02 2.33910E-03-5.29024E-14
 -1      4162 1.11710E-02 2.18488E-03-4.89920E-14
 -1      4163 1.10344E-02 2.11004E-03-4.75816E-14
 -1      4164 1.11729E-02 2.18877E-03-5.00092E-14
 -1      4165 1.30893E-02 3.23069E-03-7.27605E-14
 -1      4166 1.28872E-02 3.12151E-03-7.02371E-14
 -1      4167 3.42545E-03 1.28748E-04-6.02296E-15
 -1      4168 3.30346E-03 1.25065E-04-5.58635E-15
 -1      4169 3.24489E-03 8.81947E-05-5.45617E-15
 -1      4170 3.48282E-03 9.83207E-05-6.28469E-15
 -1      4171 2.66956E-03 1.20308E-05-3.82280E-15
 -1      4172 2.80969E-03 1.67393E-05-4.20916E-15
 -1      4173 3.00658E-03 3.49310E-05-4.77016E-15
 -1      4174 3.14537E-03 4.20752E-05-5.20073E-15
 -1      4175 3.26660E-03 4.50584E-05-5.59891E-15
 -1      4176 3.40531E-03 5.44297E-05-6.06476E-15
 -1      4177 3.52739E-03 5.91836E-05-6.49491E-15
 -1      4178 9.69123E-03 1.41500E-03-3.65928E-14
 -1      4179 9.82741E-03 1.48229E-03-3.78752E-14
 -1      4180 9.68714E-03 1.37965E-03-3.24723E-14
 -1      4181 9.96343E-03 1.55083E-03-3.91768E-14
 -1      4182 1.00992E-02 1.62043E-03-4.04983E-14
 -1      4183 1.02358E-02 1.69132E-03-4.18407E-14
 -1      4184 1.03727E-02 1.76320E-03-4.32018E-14
 -1      4185 1.05101E-02 1.83594E-03-4.45827E-14
 -1      4186 1.07846E-02 1.98280E-03-4.73803E-14
 -1      4187 1.09234E-02 2.05749E-03-4.88069E-14
 -1      4188 1.10626E-02 2.13260E-03-5.02547E-14
 -1      4189 1.12004E-02 2.20719E-03-5.16979E-14
 -1      4190 1.13404E-02 2.28302E-03-5.31747E-14
 -1      4191 1.14789E-02 2.35817E-03-5.46465E-14
 -1      4192 1.16196E-02 2.43447E-03-5.61529E-14
 -1      4193 1.17601E-02 2.51071E-03-5.76703E-14
 -1      4194 1.19013E-02 2.58731E-03-5.92063E-14
 -1      4195 1.20422E-02 2.66380E-03-6.07524E-14
 -1      4196 1.21839E-02 2.74060E-03-6.23182E-14
 -1      4197 1.23257E-02 2.81747E-03-6.38948E-14
 -1      4198 1.24677E-02 2.89439E-03-6.54826E-14
 -1      4199 1.26098E-02 2.97135E-03-6.70827E-14
 -1      4200 1.27520E-02 3.04834E-03-6.86956E-14
 -1      4201 9.55533E-03 1.34910E-03-3.53386E-14
 -1      4202 9.54426E-03 1.32736E-03-3.25686E-14
 -1      4203 1.08975E-02 2.03517E-03-4.61788E-14
 -1      4204 1.07609E-02 1.96066E-03-4.47844E-14
 -1      4205 1.06250E-02 1.89158E-03-4.43807E-14
 -1      4206 1.08983E-02 2.03938E-03-4.71686E-14
 -1      4207 2.18536E-03 5.55346E-05-2.56099E-15
 -1      4208 2.15010E-03 2.74785E-05-2.52633E-15
 -1      4209 2.37001E-03 6.91570E-05-2.96047E-15
 -1      4210 2.93220E-03 6.51407E-05-4.48930E-15
 -1      4211 2.86231E-03 9.45383E-05-4.21957E-15
 -1      4212 2.32702E-03 5.76126E-06-2.95884E-15
 -1      4213 2.46804E-03 8.70899E-06-3.29902E-15
 -1      4214 2.71686E-03 8.30278E-05-3.82694E-15
 -1      4215 2.53602E-03 4.35673E-05-3.41747E-15
 -1      4216 1.06471E-02 1.90902E-03-4.59746E-14
 -1      4217 1.30927E-02 3.23201E-03-7.38057E-14
 -1      4218 2.57011E-03 7.24019E-05-3.45350E-15
 -1      4219 1.30084E-02 3.18657E-03-7.26914E-14
 -3
    1PSTEP                         2           1           1          
  100CL  101 1.000000000        4219                     0    1           1
 -4  STRESS      6    1
 -5  SXX         1    4    1    1
 -5  SYY         1    4    2    2
 -5  SZZ         1    4    3    3
 -5  SXY         1    4    1    2
 -5  SYZ         1    4    2    3
 -5  SZX         1    4    3    1
 -1         1-1.07953E+00-2.62249E+01-3.53792E+00 3.22531E+00-1.13909E-12 8.80216E-14
 -1         2-6.61090E-01-2.65888E+01-3.47489E+00-1.32762E-01 1.07804E-12-8.94944E-14
 -1         3 2.00000E+01 1.74390E-04 8.37888E-05 1.66723E-04-1.01478E-13-4.05844E-13
 -1         4 1.99999E+01 1.43735E-04 1.01708E-04-1.39493E-04 1.05816E-13 1.12910E-14
 -1         5 3.58614E+01 1.23236E+01 5.21718E+00 8.71447E+00 2.72005E-14 2.35655E-12
 -1         6 3.56049E+01 1.22080E+01 5.08804E+00-8.60537E+00-1.47049E-13 1.34165E-12
 -1         7 2.08164E+01 6.09762E+00-1.22843E-01-4.68886E+00-1.91236E-14-1.08771E-13
 -1         8 1.96924E+01 5.94017E+00 5.37401E-02-3.22782E+00-1.55223E-14-4.59044E-13
 -1         9 1.91653E+01 5.77977E+00 5.06682E-02-2.47226E+00-1.00371E-14-5.99272E-13
 -1        10 1.89206E+01 5.69915E+00 5.16581E-02-1.89455E+00-5.17815E-16-6.33717E-13
 -1        11 1.87890E+01 5.65547E+00 4.96908E-02-1.40338E+00 2.01922E-15-6.15893E-13
 -1        12 1.87146E+01 5.63052E+00 4.70999E-02-9.72434E-01 6.45534E-15-5.79973E-13
 -1        13 1.86718E+01 5.61630E+00 4.49620E-02-5.68037E-01 7.09524E-15-5.39372E-13
 -1        14 1.86526E+01 5.60992E+00 4.37508E-02-1.83232E-01 1.05901E-14-4.91072E-13
 -1        15 1.86536E+01 5.61019E+00 4.36657E-02 1.94799E-01 1.55636E-14-4.42619E-13
 -1        16 1.86750E+01 5.61717E+00 4.47543E-02 5.78604E-01 1.71278E-14-3.83160E-13
 -1        17 1.87204E+01 5.63203E+00 4.69118E-02 9.81627E-01 2.13874E-14-3.05973E-13
 -1        18 1.87975E+01 5.65771E+00 4.95852E-02 1.41130E+00 2.44804E-14-1.96541E-13
 -1        19 1.89316E+01 5.70235E+00 5.17603E-02 1.90272E+00 2.74381E-14-4.84005E-14
 -1        20 1.91781E+01 5.78373E+00 5.08252E-02 2.48236E+00 3.46390E-14 1.76754E-13
 -1        21 1.97074E+01 5.94624E+00 5.36390E-02 3.24135E+00 2.90185E-14 5.56573E-13
 -1        22 2.07953E+01 6.11777E+00-1.24881E-01 4.69509E+00 3.63598E-15 1.11889E-12
 -1        23 2.29832E+01-1.37812E+00-9.38544E-01-7.01771E-01-1.09145E-13 8.61144E-13
 -1        24 1.93781E+01-9.94867E-02-3.08726E-01 6.40660E-02-2.60660E-14 4.53089E-13
 -1        25 1.87354E+01-5.66483E-02-6.87319E-02 6.10277E-02-1.11887E-14 1.01153E-13
 -1        26 1.85821E+01-2.27285E-02-7.16830E-03 3.34299E-02-6.69213E-15-1.69640E-13
 -1        27 1.86524E+01-1.26125E-02 4.60480E-04 2.34134E-02-5.27909E-15-3.65936E-13
 -1        28 1.88388E+01-7.08271E-03 4.59511E-04 1.76415E-02-2.01960E-15-4.79359E-13
 -1        29 1.90857E+01-3.76354E-03 4.58172E-04 1.41423E-02 2.37356E-15-5.14001E-13
 -1        30 1.93601E+01-1.47092E-03 1.04792E-03 1.18872E-02 6.16647E-15-5.15271E-13
 -1        31 1.96383E+01 4.27218E-04 2.12781E-03 1.02862E-02-3.67246E-15-5.96453E-13
 -1        32 1.98985E+01 2.30113E-03 3.77580E-03 8.87570E-03-1.40485E-14-7.55548E-13
 -1        33 2.01160E+01 4.34686E-03 6.14389E-03 7.16868E-03 5.20871E-14-8.11327E-13
 -1        34 2.02601E+01 6.57987E-03 9.26540E-03 4.60580E-03-1.00279E-14-7.83063E-13
 -1        35 2.02940E+01 8.78569E-03 1.28624E-02 6.03069E-04-5.57583E-15-9.10205E-13
 -1        36 2.01779E+01 1.04740E-02 1.61676E-02-5.27541E-03-4.01800E-15-9.55867E-13
 -1        37 1.98778E+01 1.09033E-02 1.78551E-02-1.30056E-02-3.98646E-14-1.08555E-12
 -1        38 1.93793E+01 9.25129E-03 1.62468E-02-2.17169E-02-1.45164E-15-1.18124E-12
 -1        39 1.87051E+01 4.97652E-03 9.96175E-03-2.94483E-02-3.10943E-14-1.29425E-12
 -1        40 1.79282E+01-1.71675E-03-1.09048E-03-3.33891E-02 5.68493E-14-1.30306E-12
 -1        41 1.71710E+01-9.56202E-03-1.48625E-02-3.08636E-02 3.73121E-14-1.19012E-12
 -1        42 1.65830E+01-1.64092E-02-2.73199E-02-2.08388E-02-4.00157E-15-1.17475E-12
 -1        43 1.62979E+01-2.00114E-02-3.39693E-02-5.07561E-03-1.36984E-14-1.04600E-12
 -1        44 1.63867E+01-1.90909E-02-3.22067E-02 1.21651E-02-2.91531E-14-1.14067E-12
 -1        45 1.68309E+01-1.40158E-02-2.27799E-02 2.59450E-02-4.94071E-15-1.30847E-12
 -1        46 1.75298E+01-6.59635E-03-9.37603E-03 3.29178E-02 3.09315E-14-1.23494E-12
 -1        47 1.83395E+01 8.35015E-04 3.44250E-03 3.25988E-02 3.56968E-14-1.07136E-12
 -1        48 1.91201E+01 6.44508E-03 1.23660E-02 2.69214E-02 3.23423E-14-9.72914E-13
 -1        49 1.97712E+01 9.44443E-03 1.63358E-02 1.87975E-02 3.17686E-14-9.32519E-13
 -1        50 2.02448E+01 1.00098E-02 1.61211E-02 1.07625E-02-3.88359E-14-9.57965E-13
 -1        51 2.05382E+01 8.87047E-03 1.33410E-02 4.32521E-03 1.24273E-14-6.70167E-13
 -1        52 2.06781E+01 6.86790E-03 9.57843E-03-1.90100E-05 3.39021E-14-6.15416E-13
 -1        53 2.07039E+01 4.68148E-03 5.94208E-03-2.44449E-03-4.38382E-14-6.96597E-13
 -1        54 2.06557E+01 2.73463E-03 3.00276E-03-3.42624E-03-5.47956E-14-1.01400E-12
 -1        55 2.05671E+01 1.21866E-03 9.21558E-04-3.48159E-03-3.44100E-14-1.47763E-12
 -1        56 2.04630E+01 1.63987E-04-3.78019E-04-3.03837E-03-7.97314E-14-1.50268E-12
 -1        57 2.03597E+01-4.87261E-04-1.07043E-03-2.39607E-03 3.85277E-14-1.42944E-12
 -1        58 2.02669E+01-8.27241E-04-1.34268E-03-1.73719E-03 5.78714E-14-1.26833E-12
 -1        59 2.01888E+01-9.49809E-04-1.35369E-03-1.15645E-03-9.79228E-14-1.08441E-12
 -1        60 2.01264E+01-9.34749E-04-1.22205E-03-6.90749E-04-6.33679E-15-6.51925E-13
 -1        61 2.00790E+01-8.42708E-04-1.02808E-03-3.43199E-04 1.02140E-13-5.75598E-13
 -1        62 2.00444E+01-7.15909E-04-8.21407E-04-9.98499E-05-7.95837E-14-3.46682E-13
 -1        63 2.00205E+01-5.81346E-04-6.29534E-04 5.97782E-05-8.51805E-14-7.60934E-13
 -1        64 2.00050E+01-4.54550E-04-4.65205E-04 1.56773E-04 9.10805E-14-9.32339E-13
 -1        65 1.99959E+01-3.43011E-04-3.31986E-04 2.09910E-04-1.61229E-14-1.17940E-12
 -1        66 1.99915E+01-2.48846E-04-2.27971E-04 2.34542E-04 6.93165E-15-1.12438E-12
 -1        67 1.99904E+01-1.70653E-04-1.47772E-04 2.42438E-04 6.32429E-14-7.28218E-13
 -1        68 1.99916E+01-1.04588E-04-8.23580E-05 2.41709E-04 4.39118E-15-3.56998E-13
 -1        69 1.99940E+01-4.52849E-05-1.59586E-05 2.35226E-04-3.16186E-14-1.74806E-13
 -1        70 1.99969E+01 5.58364E-06 6.67308E-05 2.05480E-04 1.09048E-13 2.79320E-13
 -1        71 1.99993E+01-4.59251E-06 1.50210E-04 1.25910E-04-1.87414E-14 3.30803E-13
 -1        72 2.31878E+01-1.33776E+00-9.29791E-01 7.92945E-01 1.74756E-14 2.21209E-12
 -1        73 1.94233E+01-1.08400E-01-3.27704E-01-6.63821E-02 1.07431E-14 2.05990E-12
 -1        74 1.87392E+01-5.87625E-02-7.48243E-02-6.13624E-02 6.56398E-15 1.79222E-12
 -1        75 1.85744E+01-2.45266E-02-9.15582E-03-3.31936E-02-5.90803E-15 1.62505E-12
 -1        76 1.86495E+01-1.39984E-02-5.31367E-04-2.33001E-02-9.42172E-15 1.55558E-12
 -1        77 1.88498E+01-9.96318E-03-1.41869E-03-1.64164E-02 2.07213E-14 1.45373E-12
 -1        78 1.91513E+01-7.92512E-03-3.08816E-03-1.28761E-02 7.71220E-15 1.45440E-12
 -1        79 1.95365E+01-7.87819E-03-5.30720E-03-1.08313E-02 2.28873E-14 1.38950E-12
 -1        80 2.00166E+01-9.48152E-03-8.82166E-03-1.03922E-02-2.00838E-15 1.32219E-12
 -1        81 2.06249E+01-1.15504E-02-1.42132E-02-1.31004E-02-1.24345E-14 1.35707E-12
 -1        82 2.13760E+01-1.63924E-02-2.23921E-02-1.64813E-02-6.42065E-16 1.39974E-12
 -1        83 2.24276E+01-2.11485E-02-3.43095E-02-2.66387E-02 1.45955E-15 1.38511E-12
 -1        84 2.38605E+01-2.56491E-02-4.91519E-02-4.46987E-02 8.85316E-15 1.35306E-12
 -1        85 2.57996E+01-2.60484E-02-6.08446E-02-7.45366E-02 2.83881E-14 1.35901E-12
 -1        86 2.83230E+01-1.54431E-02-4.97849E-02-1.16369E-01 2.72205E-14 1.23785E-12
 -1        87 3.12869E+01 1.36754E-02 2.28734E-02-1.52497E-01-3.04348E-14 1.29770E-12
 -1        88 3.39315E+01 7.27308E-02 1.91918E-01-1.33741E-01 1.95759E-14 1.63730E-12
 -1        89 3.49823E+01 1.21954E-01 4.12090E-01 6.16802E-02-3.21852E-14 2.12158E-12
 -1        90 3.20772E+01 9.57248E-02 3.65126E-01 5.04963E-01-2.49540E-14 2.50375E-12
 -1        91 2.47889E+01-2.04542E-02-2.94448E-01 8.67049E-01 1.33552E-13 2.50855E-12
 -1        92 1.81637E+01-1.13218E-01-1.06148E+00 4.76085E-01 8.54525E-15 2.03002E-12
 -1        93 1.67479E+01-2.21236E-01-1.28546E+00-2.33818E-01-4.25528E-14 1.77999E-12
 -1        94 2.16423E+01-1.20107E-01-6.46744E-01-8.36685E-01 4.55001E-14 1.39949E-12
 -1        95 2.87705E+01 5.18150E-02 1.04584E-01-7.32979E-01-2.42471E-14 1.02598E-12
 -1        96 3.40562E+01 1.30506E-01 4.46035E-01-2.86916E-01 5.34746E-14 8.90649E-13
 -1        97 3.50040E+01 1.03399E-01 3.23746E-01 5.33748E-02 1.38969E-14 6.76978E-13
 -1        98 3.29657E+01 4.27006E-02 1.06851E-01 1.56307E-01 4.72298E-14 3.65687E-13
 -1        99 3.00029E+01-3.50744E-03-2.50454E-02 1.38271E-01-8.36554E-14 5.70315E-13
 -1       100 2.72687E+01-2.16251E-02-6.09628E-02 9.20841E-02 1.47772E-14 7.59844E-13
 -1       101 2.51925E+01-2.91746E-02-5.93162E-02 5.80907E-02 9.64339E-14 2.60250E-13
 -1       102 2.35828E+01-2.44603E-02-4.42191E-02 3.30172E-02-4.81607E-14 2.62478E-13
 -1       103 2.24450E+01-1.94619E-02-3.05148E-02 1.79710E-02 3.84962E-14 1.64097E-13
 -1       104 2.16559E+01-1.46429E-02-2.03384E-02 9.49814E-03 5.35187E-14-2.23242E-13
 -1       105 2.11143E+01-1.01982E-02-1.31562E-02 4.22790E-03-6.70787E-14 2.46058E-13
 -1       106 2.07566E+01-8.02255E-03-9.20138E-03 2.39984E-03-2.40533E-14 5.20186E-13
 -1       107 2.04968E+01-5.48708E-03-6.01592E-03 8.88033E-04 1.25913E-14 3.76850E-13
 -1       108 2.03195E+01-3.90501E-03-4.02900E-03 1.41739E-04 3.98073E-14 1.87249E-13
 -1       109 2.01990E+01-2.77535E-03-2.72155E-03-2.31268E-04-3.25217E-15 8.37567E-14
 -1       110 2.01178E+01-1.98541E-03-1.85076E-03-3.99334E-04-1.20919E-13 7.15031E-13
 -1       111 2.00640E+01-1.35621E-03-1.23659E-03-5.39581E-04 1.60412E-13 5.15051E-13
 -1       112 2.00304E+01-1.04348E-03-8.86521E-04-4.57322E-04-6.53072E-14 2.47817E-13
 -1       113 2.00081E+01-7.17597E-04-5.91692E-04-4.53019E-04 7.22634E-14 1.15437E-13
 -1       114 1.99952E+01-5.04615E-04-3.96071E-04-4.17660E-04-6.73740E-14 5.44981E-13
 -1       115 1.99887E+01-3.52797E-04-2.61441E-04-3.77556E-04 6.33944E-14 8.66676E-13
 -1       116 1.99865E+01-2.31014E-04-1.65430E-04-3.54005E-04 2.39157E-13 6.94968E-14
 -1       117 1.99871E+01-1.58725E-04-1.04552E-04-3.07280E-04-7.13342E-15 3.94470E-14
 -1       118 1.99895E+01-8.94564E-05-4.98946E-05-2.86445E-04 4.09502E-14 5.33517E-13
 -1       119 1.99929E+01-3.01522E-05 1.04158E-05-2.65252E-04 3.17159E-14 4.76514E-13
 -1       120 1.99965E+01 1.96591E-05 9.50456E-05-2.26041E-04 8.63516E-14 5.06168E-13
 -1       121 1.99993E+01 6.65162E-06 1.67653E-04-1.27402E-04-1.55333E-13 1.85550E-14
 -1       122 1.99999E+01-6.91935E-04 1.10292E-04-2.10926E-04 6.62556E-13 1.46195E-13
 -1       123 1.99998E+01-3.16001E-03 4.39953E-05-2.08612E-04 2.25414E-12-2.33822E-14
 -1       124 1.99998E+01-6.12572E-03-5.73768E-05-1.73410E-04 1.14746E-12-1.65033E-13
 -1       125 1.99998E+01-8.51981E-03-9.26743E-05-1.12560E-04 2.47709E-13 3.28024E-13
 -1       126 1.99998E+01-1.00123E-02-8.49942E-05-5.58686E-05-4.25691E-15-2.81884E-13
 -1       127 1.99998E+01-1.06673E-02-5.99487E-05-1.74997E-05-1.82172E-12 1.35143E-14
 -1       128 1.99998E+01-1.07501E-02-3.10268E-05 4.82401E-06-9.02722E-13 2.47604E-13
 -1       129 1.99998E+01-1.05284E-02-1.07707E-05 1.30608E-05-1.57729E-14 4.95811E-14
 -1       130 1.99998E+01-1.02071E-02-4.70372E-06 1.43027E-05-6.15102E-13 1.78538E-13
 -1       131 1.99998E+01-9.84964E-03-1.38199E-05 1.67371E-05-1.38235E-12-2.38354E-14
 -1       132 1.99998E+01-9.36794E-03-3.45178E-05 2.87879E-05-1.96158E-12-4.93036E-14
 -1       133 1.99998E+01-8.57619E-03-5.81893E-05 5.33550E-05-2.73341E-12 2.08668E-13
 -1       134 1.99998E+01-7.22575E-03-7.04879E-05 9.54747E-05-1.71291E-12 2.74987E-13
 -1       135 1.99998E+01-5.21285E-03-4.71118E-05 1.50211E-04-7.64123E-13 1.13114E-13
 -1       136 1.99998E+01-2.78121E-03 2.34181E-05 2.50447E-04-3.44375E-13 1.72543E-15
 -1       137 1.99998E+01-6.59322E-04 9.65588E-05 1.82236E-04-3.99264E-13-2.58043E-14
 -1       138-1.59525E+00-2.43584E+01-3.50723E+00-4.67986E+00 2.20804E-12 5.42733E-13
 -1       139-2.83632E+00-1.42578E+01-3.05818E+00-5.50294E+00 3.38346E-12 1.51001E-12
 -1       140 4.80193E-01-1.23967E+00-2.07952E+00 3.48197E-01 2.82230E-12 1.95466E-12
 -1       141 1.23882E+01 8.16027E+00-5.60574E-01 1.02406E+01 1.89793E-12 2.18137E-12
 -1       142 3.49883E+01 1.01958E+01 1.58703E+00 1.84753E+01 1.09945E-12 1.62170E-12
 -1       143 6.16011E+01 5.88016E+00 3.86285E+00 1.72150E+01 1.64341E-13 7.88813E-13
 -1       144 7.78769E+01 1.61879E+00 5.21865E+00 5.74771E+00 3.59539E-14-5.38208E-13
 -1       145 7.56140E+01 2.25066E+00 5.01456E+00-9.28456E+00 3.52759E-13-1.79370E-12
 -1       146 5.53923E+01 7.31242E+00 3.33145E+00-1.87513E+01 1.14672E-12-2.79587E-12
 -1       147 2.75347E+01 1.02687E+01 9.30107E-01-1.65080E+01 1.91658E-12-3.01792E-12
 -1       148 7.59343E+00 6.20131E+00-1.08066E+00-7.08138E+00 2.00684E-12-1.94889E-12
 -1       149-1.60760E+00-5.57679E+00-2.49367E+00 2.42233E+00 1.24234E-12-8.03690E-13
 -1       150-2.59079E+00-1.83935E+01-3.26133E+00 5.87701E+00 2.91545E-13-9.48408E-14
 -1       151-8.00722E-01-2.53820E+01-3.36830E+00-1.60458E+00-2.18031E-12-2.21866E-13
 -1       152-1.52733E+00-1.64180E+01-2.76612E+00-3.96820E+00-2.68857E-12-7.41920E-13
 -1       153-5.66726E-01-3.89088E+00-1.80842E+00-1.11851E+00-2.54041E-12-1.32971E-12
 -1       154 6.26308E+00 7.34020E+00-5.36617E-01 6.90579E+00-2.13385E-12-1.74061E-12
 -1       155 2.00012E+01 1.21692E+01 7.92591E-01 1.54106E+01-1.63630E-12-1.95638E-12
 -1       156 3.86158E+01 1.03995E+01 2.03442E+00 1.94332E+01-9.49851E-13-1.69098E-12
 -1       157 5.81213E+01 4.89432E+00 3.05721E+00 1.52886E+01-2.45054E-13-7.26086E-13
 -1       158 6.79155E+01 1.13543E+00 3.49636E+00 4.26591E+00 3.42434E-15 3.93519E-13
 -1       159 6.54725E+01 2.14366E+00 3.39269E+00-9.00803E+00-3.02000E-13 1.59434E-12
 -1       160 5.13706E+01 7.04726E+00 2.71520E+00-1.79693E+01-8.57009E-13 2.31376E-12
 -1       161 3.20305E+01 1.17095E+01 1.62812E+00-1.89286E+01-1.42203E-12 2.26280E-12
 -1       162 1.35655E+01 1.11120E+01 2.60110E-01-1.21943E+01-1.67488E-12 1.69587E-12
 -1       163 2.18332E+00 2.97770E+00-1.13139E+00-2.87851E+00-1.66384E-12 1.13798E-12
 -1       164-1.38689E+00-9.09468E+00-2.22810E+00 2.97792E+00-1.29219E-12 5.93664E-13
 -1       165-1.21550E+00-2.07305E+01-3.04920E+00 3.56573E+00-1.70974E-13 8.13932E-15
 -1       166 2.10329E+01 3.68361E+00-5.66745E-02-3.55925E+00-2.52433E-13-2.48843E-13
 -1       167 2.00220E+01 4.20722E+00-4.54197E-02-2.75133E+00-1.76435E-13-4.38198E-13
 -1       168 1.95388E+01 4.48428E+00-3.10100E-02-2.13574E+00-9.28658E-14-5.10489E-13
 -1       169 1.92839E+01 4.63145E+00-2.31850E-02-1.61669E+00-2.77237E-14-5.21903E-13
 -1       170 1.91378E+01 4.72068E+00-1.91547E-02-1.16880E+00 2.98913E-14-5.01714E-13
 -1       171 1.90491E+01 4.77822E+00-1.69724E-02-7.55029E-01 8.75842E-14-4.76542E-13
 -1       172 1.90011E+01 4.81118E+00-1.58867E-02-3.67646E-01 1.23733E-13-4.26430E-13
 -1       173 1.89860E+01 4.82291E+00-1.55481E-02 6.64394E-03 1.70119E-13-3.84795E-13
 -1       174 1.90021E+01 4.81400E+00-1.58642E-02 3.80216E-01 2.07545E-13-3.40693E-13
 -1       175 1.90520E+01 4.78288E+00-1.69258E-02 7.65737E-01 2.42860E-13-2.80028E-13
 -1       176 1.91418E+01 4.72679E+00-1.90890E-02 1.17007E+00 2.79205E-13-1.96259E-13
 -1       177 1.92936E+01 4.63487E+00-2.32053E-02 1.62390E+00 3.18227E-13-8.25754E-14
 -1       178 1.95529E+01 4.48397E+00-3.10659E-02 2.14345E+00 3.34146E-13 8.64690E-14
 -1       179 2.00406E+01 4.20227E+00-4.53508E-02 2.76206E+00 3.12594E-13 3.53051E-13
 -1       180 2.10537E+01 3.66837E+00-5.35228E-02 3.57841E+00 2.32840E-13 7.38718E-13
 -1       181 2.19828E+01 8.54270E-01 7.90666E-04-1.92185E+00-2.34125E-13 8.05432E-14
 -1       182 2.04920E+01 1.90537E-01-9.68987E-03-7.27600E-01-1.89276E-13 3.86930E-15
 -1       183 1.97556E+01 1.03907E-01 1.37624E-02-2.45433E-01-1.55779E-13-7.67910E-14
 -1       184 1.94615E+01 5.07895E-02 1.01577E-02-1.99933E-02-1.20276E-13-1.56792E-13
 -1       185 1.93864E+01 2.69269E-02 5.29362E-03 9.75820E-02-8.29470E-14-2.01782E-13
 -1       186 1.94375E+01 1.38931E-02 2.52485E-03 1.61323E-01-3.11786E-14-1.92320E-13
 -1       187 1.95599E+01 5.44112E-03 1.11738E-03 1.93335E-01-5.79796E-15-2.29318E-13
 -1       188 1.97187E+01-1.37583E-03 3.01770E-04 2.03089E-01-3.32139E-14-2.08914E-13
 -1       189 1.98885E+01-8.33579E-03-2.97465E-04 1.93429E-01-6.15299E-14-2.01808E-13
 -1       190 2.00468E+01-1.66138E-02-8.21350E-04 1.63155E-01-5.88003E-14-1.78397E-13
 -1       191 2.01707E+01-2.67833E-02-1.29801E-03 1.08719E-01-3.36959E-14-3.29745E-13
 -1       192 2.02353E+01-3.85152E-02-1.69009E-03 2.62165E-02-4.90960E-14-3.96254E-13
 -1       193 2.02149E+01-5.01300E-02-1.91537E-03-8.57657E-02-2.79859E-14-4.22506E-13
 -1       194 2.00858E+01-5.82546E-02-1.87194E-03-2.22367E-01-4.62106E-14-3.89271E-13
 -1       195 1.98336E+01-5.80317E-02-1.47779E-03-3.68549E-01-3.51756E-14-3.02897E-13
 -1       196 1.94622E+01-4.44445E-02-7.27377E-04-4.97085E-01-3.63647E-14-3.41448E-13
 -1       197 1.90026E+01-1.49615E-02 2.78614E-04-5.71433E-01 1.52816E-14-2.90596E-13
 -1       198 1.85171E+01 2.73205E-02 1.34165E-03-5.55762E-01 4.05804E-14-4.11742E-13
 -1       199 1.80916E+01 7.22172E-02 2.24512E-03-4.30774E-01-4.67226E-14-4.52222E-13
 -1       200 1.78162E+01 1.05062E-01 2.80321E-03-2.08238E-01 1.85182E-15-5.16492E-13
 -1       201 1.77563E+01 1.13502E-01 2.93698E-03 6.61374E-02-6.72366E-14-5.60598E-13
 -1       202 1.79287E+01 9.42811E-02 2.63735E-03 3.27024E-01-8.96434E-14-6.53746E-13
 -1       203 1.82954E+01 5.51381E-02 1.95076E-03 5.14700E-01 1.09357E-13-5.18741E-13
 -1       204 1.87789E+01 1.04180E-02 1.00470E-03 5.97230E-01 1.36891E-13-4.48800E-13
 -1       205 1.92892E+01-2.65190E-02-2.73368E-05 5.77403E-01-1.16875E-14-4.42717E-13
 -1       206 1.97504E+01-4.84964E-02-9.12458E-04 4.83629E-01 7.31435E-15-5.49714E-13
 -1       207 2.01149E+01-5.51869E-02-1.49536E-03 3.53626E-01 4.82710E-14-5.64342E-13
 -1       208 2.03654E+01-5.05985E-02-1.72176E-03 2.20561E-01 1.37879E-13-4.19650E-13
 -1       209 2.05078E+01-3.99728E-02-1.64353E-03 1.06161E-01 1.73087E-14-3.08540E-13
 -1       210 2.05618E+01-2.76988E-02-1.36636E-03 2.02229E-02-1.43675E-13-4.05011E-13
 -1       211 2.05518E+01-1.65574E-02-1.00206E-03-3.63863E-02-2.08809E-13-4.88538E-13
 -1       212 2.05013E+01-7.83011E-03-6.38604E-04-6.79241E-02-2.43754E-13-4.85745E-13
 -1       213 2.04298E+01-1.75466E-03-3.29540E-04-8.06274E-02 1.75076E-14-4.96995E-13
 -1       214 2.03516E+01 1.99706E-03-9.69643E-05-8.07003E-02 8.52711E-15-3.12065E-13
 -1       215 2.02759E+01 3.96664E-03 5.88077E-05-7.33169E-02 4.62024E-14-4.87113E-13
 -1       216 2.02083E+01 4.70339E-03 1.49422E-04-6.23179E-02 9.90073E-14-5.04509E-13
 -1       217 2.01513E+01 4.66882E-03 1.90850E-04-5.02873E-02 8.61876E-14-6.56248E-13
 -1       218 2.01053E+01 4.20873E-03 1.98726E-04-3.87920E-02 7.86052E-14-4.34318E-13
 -1       219 2.00698E+01 3.56009E-03 1.86085E-04-2.86557E-02 7.28456E-14-4.07942E-13
 -1       220 2.00434E+01 2.87190E-03 1.62667E-04-2.02031E-02-7.29815E-14-2.67954E-13
 -1       221 2.00245E+01 2.22850E-03 1.35106E-04-1.34530E-02-1.23392E-13-2.89481E-13
 -1       222 2.00118E+01 1.66992E-03 1.07474E-04-8.25676E-03 3.40236E-17-3.97440E-13
 -1       223 2.00038E+01 1.20763E-03 8.18722E-05-4.39349E-03 5.70400E-14-7.27436E-14
 -1       224 1.99994E+01 8.35441E-04 5.90982E-05-1.63020E-03 2.07195E-13-3.49536E-14
 -1       225 1.99974E+01 5.35313E-04 3.91893E-05 2.39068E-04 3.51561E-13 4.29489E-14
 -1       226 1.99971E+01 2.79270E-04 2.26659E-05 1.36694E-03 1.25052E-13 6.74702E-14
 -1       227 1.99977E+01 1.60160E-05 1.22302E-05 1.82406E-03 2.05125E-13 6.58395E-14
 -1       228 1.99987E+01-3.16227E-04 1.14865E-05 1.59504E-03 3.50653E-14 1.48005E-14
 -1       229 2.20442E+01 9.14985E-01 4.65669E-04 1.99843E+00 1.66631E-13 1.04484E-12
 -1       230 2.05354E+01 2.08000E-01-1.10567E-02 7.61751E-01 1.71618E-13 9.32978E-13
 -1       231 1.97837E+01 1.10447E-01 1.35075E-02 2.55513E-01 1.38289E-13 8.17241E-13
 -1       232 1.94904E+01 5.65792E-02 1.08573E-02 1.40304E-02 8.91609E-14 6.79568E-13
 -1       233 1.94327E+01 3.52849E-02 6.17956E-03-1.16365E-01 5.90736E-14 6.09266E-13
 -1       234 1.95220E+01 2.69243E-02 3.76493E-03-2.09277E-01 1.73705E-14 5.89912E-13
 -1       235 1.97218E+01 2.65808E-02 2.81922E-03-2.87010E-01 3.20967E-14 5.77318E-13
 -1       236 2.00169E+01 3.28562E-02 2.77037E-03-3.69335E-01 5.96465E-14 5.76388E-13
 -1       237 2.04116E+01 4.59118E-02 3.11938E-03-4.74152E-01 2.03036E-14 4.83747E-13
 -1       238 2.08977E+01 6.51123E-02 3.74127E-03-6.10445E-01-4.40839E-14 4.44925E-13
 -1       239 2.15580E+01 9.37675E-02 4.20169E-03-8.09862E-01 6.17974E-15 4.59254E-13
 -1       240 2.24150E+01 1.29426E-01 3.87226E-03-1.08548E+00-1.84128E-14 5.12337E-13
 -1       241 2.35161E+01 1.63644E-01 1.88139E-03-1.44109E+00 3.60701E-14 5.35798E-13
 -1       242 2.48933E+01 1.69115E-01-2.18378E-03-1.83929E+00 4.41396E-14 4.81564E-13
 -1       243 2.65264E+01 7.87166E-02-6.20934E-03-2.14033E+00-4.58676E-14 5.44019E-13
 -1       244 2.82068E+01-1.94749E-01-5.36905E-03-2.03920E+00-1.94610E-13 5.78756E-13
 -1       245 2.98585E+01-7.71867E-01 7.39893E-03-1.00782E+00-3.09711E-13 7.37012E-13
 -1       246 3.08812E+01-1.38759E+00 6.34804E-03 1.34548E+00-2.71486E-13 9.93225E-13
 -1       247 3.06643E+01-9.93287E-01-7.95621E-02 4.08057E+00-8.81240E-15 1.17668E-12
 -1       248 2.93892E+01 8.14885E-01-1.89128E-01 4.32308E+00 3.43933E-13 1.32879E-12
 -1       249 2.80957E+01 2.43529E+00-3.00241E-01 1.44491E+00 4.80546E-13 1.05466E-12
 -1       250 2.86071E+01 1.84308E+00-2.36377E-01-2.99178E+00 2.39531E-13 6.78469E-13
 -1       251 2.99363E+01-1.11230E-01-1.52552E-01-4.65470E+00 2.05239E-13 4.78754E-13
 -1       252 3.09673E+01-1.39946E+00-3.93413E-02-2.98254E+00 1.42317E-13 2.87905E-13
 -1       253 3.06314E+01-1.14312E+00 1.82706E-02-1.64580E-01 6.33556E-14 2.26694E-13
 -1       254 2.92929E+01-4.83761E-01 1.01423E-02 1.59650E+00 1.54082E-13 2.91858E-13
 -1       255 2.75667E+01-3.00279E-02-6.36095E-03 2.12717E+00-1.30799E-13 3.14852E-13
 -1       256 2.58802E+01 1.48291E-01-4.86807E-03 1.96911E+00-9.26156E-14 2.70850E-13
 -1       257 2.44814E+01 1.79962E-01-2.88677E-04 1.59947E+00 1.31567E-13 3.27561E-13
 -1       258 2.32854E+01 1.57200E-01 2.93528E-03 1.19901E+00 8.81951E-14 5.30677E-13
 -1       259 2.23705E+01 1.20377E-01 4.12113E-03 8.64729E-01 1.61663E-13 2.53725E-13
 -1       260 2.16899E+01 8.69242E-02 3.96663E-03 6.11449E-01 2.40220E-13 2.35370E-13
 -1       261 2.11937E+01 6.09871E-02 3.33962E-03 4.28115E-01-1.44441E-13 3.59826E-13
 -1       262 2.08503E+01 4.31290E-02 2.49615E-03 3.03627E-01-3.73781E-14 1.03379E-13
 -1       263 2.05888E+01 2.99371E-02 1.91839E-03 2.11192E-01 8.99882E-14-7.78108E-15
 -1       264 2.04028E+01 2.07493E-02 1.39068E-03 1.46322E-01 1.45643E-13-1.91422E-13
 -1       265 2.02710E+01 1.44319E-02 1.00123E-03 1.00914E-01-6.44759E-14-3.00224E-14
 -1       266 2.01783E+01 1.00701E-02 7.18685E-04 6.90390E-02-1.31151E-13-2.34438E-13
 -1       267 2.01138E+01 7.03454E-03 5.19435E-04 4.66034E-02 4.54364E-14-3.18102E-13
 -1       268 2.00711E+01 5.00089E-03 3.64771E-04 3.14641E-02 1.88603E-13 2.05341E-13
 -1       269 2.00405E+01 3.50019E-03 2.68411E-04 2.01923E-02-2.23729E-13 2.49383E-13
 -1       270 2.00204E+01 2.42782E-03 1.90191E-04 1.22666E-02-1.12667E-13 5.01046E-13
 -1       271 2.00079E+01 1.66736E-03 1.34457E-04 6.76056E-03-1.62451E-13 1.44279E-13
 -1       272 2.00006E+01 1.12368E-03 9.37437E-05 2.97910E-03 3.30372E-13 3.07678E-13
 -1       273 1.99970E+01 7.47170E-04 6.16787E-05 5.46841E-04-1.52405E-13 5.11245E-13
 -1       274 1.99957E+01 4.52584E-04 3.93381E-05-1.10107E-03-1.91259E-13 7.45755E-13
 -1       275 1.99960E+01 2.03822E-04 2.05924E-05-2.02720E-03 1.54528E-14 7.36205E-13
 -1       276 1.99971E+01-4.88681E-05 9.90911E-06-2.29441E-03-1.53235E-13 8.52707E-13
 -1       277 1.99985E+01-4.18755E-04 1.04748E-05-1.87790E-03 1.84034E-13 9.30143E-13
 -1       278 1.99995E+01-1.41022E-03 2.86234E-06-1.80470E-03 4.68377E-13 8.65590E-13
 -1       279 1.99999E+01-2.73968E-03-5.39970E-06-2.00589E-03 4.74195E-13-7.39294E-13
 -1       280 2.00001E+01-3.89734E-03-3.34053E-07-1.60968E-03 5.65893E-13-3.95189E-13
 -1       281 2.00001E+01-4.63822E-03 2.73398E-06-9.78681E-04 1.33644E-13-2.28108E-13
 -1       282 2.00000E+01-4.94452E-03 3.70405E-06-4.03651E-04-2.24813E-13-1.09788E-12
 -1       283 1.99999E+01-4.92075E-03 3.58732E-06-1.49933E-08-1.05824E-13 3.38022E-13
 -1       284 1.99998E+01-4.72072E-03 2.65945E-06 1.95807E-04-2.40562E-13 3.54050E-13
 -1       285 1.99998E+01-4.49588E-03 1.87604E-06 2.40612E-04-2.91444E-13-2.48109E-13
 -1       286 1.99998E+01-4.32844E-03 1.71437E-06 2.38781E-04-8.71895E-14-3.30009E-13
 -1       287 1.99999E+01-4.20915E-03 1.94192E-06 3.02819E-04-5.29030E-13-4.66849E-13
 -1       288 1.99999E+01-4.04965E-03 1.78788E-06 5.09983E-04-5.95492E-13-2.31141E-13
 -1       289 2.00000E+01-3.71523E-03 7.18977E-07 8.82349E-04-3.55376E-13 6.03068E-13
 -1       290 2.00000E+01-3.10843E-03-2.82573E-06 1.33929E-03-4.19575E-13 5.66302E-13
 -1       291 1.99998E+01-2.17199E-03 2.09422E-06 1.60880E-03-1.59820E-13 3.38362E-13
 -1       292 1.99996E+01-1.12284E-03-3.02798E-06 1.92050E-03 4.07357E-14-8.73906E-14
 -1       293-1.48045E+00-1.22410E+01-1.07144E+00-2.54006E-01 7.77586E-13 6.39017E-13
 -1       294 1.10091E+00-1.07551E+01-1.02562E+00 1.77787E+00 1.05027E-12 9.10258E-13
 -1       295 8.46010E+00-7.47117E+00-6.89002E-01 4.63361E+00 1.06593E-12 4.65832E-13
 -1       296 1.83844E+01-4.06238E+00-4.14306E-01 5.97305E+00 1.03495E-12 5.64743E-13
 -1       297 3.06603E+01-7.87722E-02 1.31174E-01 6.51359E+00 8.85181E-13 4.49918E-13
 -1       298 4.29636E+01 3.21547E+00 7.85854E-01 4.45285E+00 6.59205E-13 2.93099E-13
 -1       299 4.99178E+01 6.34637E+00 1.22978E+00 1.46284E+00 6.19949E-13-5.67046E-14
 -1       300 5.39052E+01 7.12189E+00 1.62842E+00-3.69104E-01 6.54421E-13-2.28637E-13
 -1       301 4.93063E+01 5.71425E+00 1.20719E+00-2.46735E+00 7.60988E-13-4.76508E-13
 -1       302 3.95399E+01 1.44045E+00 4.36030E-01-3.46880E+00 6.33181E-13-5.00378E-13
 -1       303 2.66966E+01-1.12547E+00-5.93955E-02-6.65375E+00 4.61964E-13-1.20659E-12
 -1       304 1.40136E+01-4.90755E+00-6.11115E-01-5.52307E+00 2.01172E-13-9.39249E-13
 -1       305 5.22317E+00-8.64245E+00-8.48411E-01-3.59397E+00-4.80449E-14-5.17909E-13
 -1       306-1.92980E-01-1.15804E+01-1.05597E+00-1.08171E+00-4.40314E-13-5.99007E-13
 -1       307-1.59524E+00-1.22758E+01-1.04266E+00 8.70376E-01-7.88345E-13-4.99462E-13
 -1       308 2.38606E-01-1.03026E+01-8.43716E-01 2.97836E+00-8.85209E-13-4.30211E-13
 -1       309 4.87210E+00-7.50718E+00-6.71499E-01 4.83435E+00-1.05754E-12-4.64181E-13
 -1       310 1.26139E+01-3.57831E+00-3.32339E-01 6.93265E+00-9.74221E-13-5.86642E-13
 -1       311 2.16674E+01 7.12751E-01 3.74941E-02 8.24521E+00-9.24788E-13-7.41268E-13
 -1       312 3.15897E+01 3.75185E+00 4.15870E-01 8.46686E+00-7.34995E-13-6.14120E-13
 -1       313 4.02805E+01 5.64092E+00 6.45243E-01 5.89688E+00-6.67383E-13-3.59102E-13
 -1       314 4.64271E+01 6.94824E+00 8.82744E-01 3.08210E+00-6.22613E-13-1.60233E-13
 -1       315 4.78401E+01 7.25661E+00 9.34356E-01-7.37972E-01-5.90861E-13 1.81556E-13
 -1       316 4.40569E+01 6.70816E+00 7.61813E-01-4.08158E+00-5.25358E-13 4.16001E-13
 -1       317 3.78903E+01 5.19422E+00 6.40172E-01-7.62564E+00-5.11802E-13 8.08020E-13
 -1       318 2.81448E+01 2.45951E+00 2.64644E-01-8.27974E+00-5.02015E-13 8.09436E-13
 -1       319 1.72969E+01-8.31447E-01-1.38513E-01-7.78594E+00-3.81167E-13 6.89504E-13
 -1       320 8.66351E+00-5.08404E+00-5.06017E-01-5.98776E+00-2.12885E-13 3.79911E-13
 -1       321 2.52981E+00-8.94383E+00-8.01098E-01-3.94009E+00 5.55112E-17 4.94715E-13
 -1       322-8.71844E-01-1.15219E+01-9.84430E-01-2.07521E+00 3.19481E-13 4.59480E-13
 -1       323 2.01715E+01 3.00968E+00-2.19264E-02-2.02822E+00-1.60135E-13-3.46849E-13
 -1       324 2.07935E+01 2.20668E+00-1.74380E-02-2.30349E+00-2.28897E-13-2.55069E-13
 -1       325 1.95847E+01 3.72963E+00-1.53850E-02-1.25221E+00-2.96334E-15-3.84984E-13
 -1       326 1.94406E+01 3.90114E+00-1.33689E-02-8.70459E-01 6.57434E-14-3.67971E-13
 -1       327 1.93540E+01 4.00448E+00-1.22766E-02-5.08337E-01 1.31302E-13-3.52962E-13
 -1       328 1.93128E+01 4.05474E+00-1.17918E-02-1.60018E-01 1.82181E-13-3.00517E-13
 -1       329 1.93127E+01 4.05729E+00-1.17851E-02 1.82632E-01 2.35413E-13-2.63475E-13
 -1       330 1.93546E+01 4.01110E+00-1.22448E-02 5.28475E-01 2.76046E-13-2.35551E-13
 -1       331 1.94419E+01 3.91134E+00-1.33036E-02 8.80385E-01 3.11047E-13-1.56518E-13
 -1       332 1.95905E+01 3.73849E+00-1.52314E-02 1.25758E+00 3.56244E-13-6.22961E-14
 -1       333 1.98256E+01 3.45862E+00-1.83351E-02 1.65502E+00 3.72874E-13 4.37757E-14
 -1       334 2.01984E+01 2.99442E+00-2.14175E-02 2.03917E+00 3.61760E-13 2.05588E-13
 -1       335 2.08160E+01 2.17084E+00-1.78452E-02 2.29547E+00 2.94682E-13 4.66287E-13
 -1       336 1.90468E+01-6.69320E+00-8.61102E-02 6.08194E+00 2.15356E-13-3.20726E-13
 -1       337 2.05210E+01 6.82588E-01 1.27181E-02-9.58486E-01-1.76032E-13-1.83149E-13
 -1       338 2.01302E+01 3.49479E-01 7.29799E-03-3.79335E-01-1.54481E-13-1.58684E-13
 -1       339 1.99142E+01 1.92768E-01 4.24085E-03-5.39534E-02-1.06975E-13-1.35894E-13
 -1       340 1.98250E+01 1.07956E-01 2.02922E-03 1.35952E-01-4.90394E-14-1.64941E-13
 -1       341 1.98240E+01 5.65767E-02 8.86687E-04 2.45171E-01-4.95933E-15-1.38250E-13
 -1       342 1.98807E+01 2.03323E-02 2.61801E-04 3.01345E-01-1.72030E-14-1.45339E-13
 -1       343 1.99719E+01-1.08882E-02-1.81529E-04 3.17109E-01-3.95023E-14-1.46815E-13
 -1       344 2.00793E+01-4.34462E-02-5.90962E-04 2.95952E-01-4.42374E-14-1.35432E-13
 -1       345 2.01865E+01-8.11337E-02-1.01736E-03 2.35588E-01-1.09212E-13-1.63214E-13
 -1       346 2.02773E+01-1.24747E-01-1.45439E-03 1.30900E-01-8.35474E-14-1.61882E-13
 -1       347 2.03336E+01-1.70768E-01-1.84419E-03-2.22785E-02-9.08862E-14-1.73171E-13
 -1       348 2.03364E+01-2.09876E-01-2.07988E-03-2.21938E-01-1.70793E-14-1.62698E-13
 -1       349 2.02667E+01-2.26544E-01-2.02249E-03-4.53492E-01 1.85440E-14-1.12824E-13
 -1       350 2.01111E+01-2.01627E-01-1.53622E-03-6.84083E-01-2.29574E-14-1.01320E-13
 -1       351 1.98691E+01-1.19720E-01-5.89997E-04-8.61571E-01-4.56154E-14-1.10414E-13
 -1       352 1.95632E+01 1.94317E-02 6.93244E-04-9.23447E-01-3.98462E-14-1.02276E-13
 -1       353 1.92444E+01 1.90911E-01 2.01856E-03-8.18271E-01-3.82279E-14-9.21057E-14
 -1       354 1.89852E+01 3.45506E-01 3.08155E-03-5.34172E-01-1.18298E-13-1.24941E-13
 -1       355 1.88573E+01 4.28055E-01 3.53979E-03-1.18238E-01-7.49151E-14-2.84031E-13
 -1       356 1.89008E+01 4.06508E-01 3.37242E-03 3.31757E-01-9.92930E-14-3.44649E-13
 -1       357 1.91051E+01 2.89975E-01 2.63456E-03 7.04664E-01 7.55641E-14-2.19545E-13
 -1       358 1.94142E+01 1.23935E-01 1.52721E-03 9.21101E-01 4.54764E-14-3.55547E-13
 -1       359 1.97533E+01-3.57397E-02 2.22842E-04 9.60160E-01 5.65780E-14-4.03321E-13
 -1       360 2.00583E+01-1.49145E-01-8.94030E-04 8.53908E-01 1.50496E-14-2.71800E-13
 -1       361 2.02913E+01-2.02998E-01-1.62167E-03 6.61575E-01 7.11812E-14-2.39484E-13
 -1       362 2.04413E+01-2.05635E-01-1.88919E-03 4.42758E-01 1.22835E-13-2.57054E-13
 -1       363 2.05155E+01-1.75477E-01-1.78930E-03 2.41151E-01 1.43699E-13-4.08229E-13
 -1       364 2.05302E+01-1.31020E-01-1.46796E-03 8.03749E-02-8.14147E-14-3.67119E-13
 -1       365 2.05035E+01-8.57923E-02-1.06166E-03-3.26149E-02-3.01530E-13-3.20377E-13
 -1       366 2.04517E+01-4.74010E-02-6.68920E-04-1.01550E-01-1.53498E-13-2.00570E-13
 -1       367 2.03878E+01-1.86811E-02-3.44249E-04-1.35296E-01 1.28225E-14-1.15659E-14
 -1       368 2.03209E+01 5.29651E-04-1.05959E-04-1.43930E-01-2.28565E-14-1.08630E-13
 -1       369 2.02571E+01 1.18475E-02 4.98386E-05-1.36537E-01-8.65182E-14-9.88180E-14
 -1       370 2.01999E+01 1.73167E-02 1.38187E-04-1.20295E-01 1.83944E-13-1.06982E-13
 -1       371 2.01509E+01 1.88507E-02 1.77141E-04-1.00339E-01-5.13811E-14-3.88900E-14
 -1       372 2.01106E+01 1.79950E-02 1.83362E-04-8.00119E-02 2.21558E-13 8.96702E-14
 -1       373 2.00785E+01 1.58797E-02 1.70210E-04-6.12652E-02 1.22686E-13-2.02800E-14
 -1       374 2.00537E+01 1.32647E-02 1.47360E-04-4.50579E-02 7.56682E-14 1.01181E-13
 -1       375 2.00351E+01 1.06184E-02 1.21220E-04-3.16970E-02-1.21189E-13 1.06944E-13
 -1       376 2.00218E+01 8.19762E-03 9.56301E-05-2.10996E-02-1.54154E-13 4.19845E-13
 -1       377 2.00125E+01 6.11502E-03 7.25709E-05-1.29789E-02 2.58623E-13 2.52681E-13
 -1       378 2.00064E+01 4.39066E-03 5.25752E-05-6.97054E-03 2.16842E-13 3.87053E-13
 -1       379 2.00027E+01 2.98631E-03 3.55927E-05-2.71249E-03 1.13770E-13 1.15442E-13
 -1       380 2.00006E+01 1.82072E-03 2.18091E-05 9.89488E-05 3.76839E-14-5.48911E-14
 -1       381 1.99997E+01 7.90467E-04 1.22546E-05 1.70377E-03 1.69877E-13-1.82263E-13
 -1       382 1.99994E+01-1.57831E-04-5.19086E-06 2.22372E-03-7.14758E-14-9.67205E-14
 -1       383 2.01602E+01 3.79494E-01 8.44068E-03 3.81724E-01 1.80708E-13 3.77915E-13
 -1       384 2.05416E+01 7.17941E-01 1.31463E-02 9.79475E-01 2.44595E-13 4.44634E-13
 -1       385 1.99617E+01 2.29811E-01 5.29854E-03 4.01725E-02 1.25083E-13 3.48693E-13
 -1       386 1.98875E+01 1.53637E-01 2.78059E-03-1.94878E-01 7.88040E-14 3.02634E-13
 -1       387 1.99198E+01 1.26622E-01 1.91875E-03-3.67468E-01 5.78008E-14 2.29675E-13
 -1       388 2.00350E+01 1.30792E-01 1.85187E-03-5.20087E-01 4.99273E-14 2.16344E-13
 -1       389 2.02196E+01 1.61488E-01 2.21473E-03-6.84097E-01 7.14355E-14 1.57705E-13
 -1       390 2.04541E+01 2.15323E-01 2.85033E-03-8.74985E-01 2.59877E-14 6.92799E-14
 -1       391 2.07629E+01 2.98772E-01 3.79286E-03-1.13740E+00-1.84170E-14 7.00434E-14
 -1       392 2.11365E+01 4.07962E-01 4.66270E-03-1.48750E+00-6.39436E-14 1.04980E-13
 -1       393 2.15790E+01 5.26436E-01 5.03390E-03-1.94063E+00-7.48830E-14 1.53259E-13
 -1       394 2.21014E+01 6.01361E-01 4.18789E-03-2.48587E+00 4.75002E-14 2.23472E-13
 -1       395 2.27450E+01 4.99857E-01 1.55711E-03-3.05001E+00 2.79129E-14 1.38530E-13
 -1       396 2.35950E+01 1.57946E-02 7.29577E-04-3.42201E+00-1.25780E-13 1.07287E-13
 -1       397 2.50386E+01-1.21578E+00 5.56829E-03-3.24676E+00-2.78984E-13 8.70575E-14
 -1       398 2.75738E+01-3.22312E+00 8.55494E-04-1.83384E+00-5.21392E-13 1.00410E-13
 -1       399 3.13294E+01-4.22906E+00-5.69610E-03 1.02566E+00-3.83660E-13 4.03177E-13
 -1       400 3.62723E+01 4.24758E+00-1.14437E-02 3.11588E+00 7.13124E-13 4.00485E-13
 -1       401 3.45060E+01 2.00271E+00-1.63255E-01-4.37426E+00 3.96572E-13 1.50380E-13
 -1       402 3.30248E+01-2.69181E+00-7.68494E-02-3.35100E+00 2.35516E-13-1.17795E-13
 -1       403 2.95934E+01-3.72664E+00-6.19500E-02-6.23896E-02 6.23217E-14-7.22469E-14
 -1       404 2.68967E+01-2.11544E+00 2.04574E-02 2.31881E+00 3.77962E-14-5.31730E-14
 -1       405 2.49393E+01-4.89237E-01-7.46963E-03 3.19693E+00-9.75912E-14 1.67026E-13
 -1       406 2.37551E+01 2.91224E-01-2.28925E-03 3.08174E+00-1.23968E-13 2.90766E-13
 -1       407 2.29551E+01 5.31827E-01 2.10369E-03 2.61266E+00-1.20504E-13 2.43240E-13
 -1       408 2.22997E+01 5.29910E-01 4.62235E-03 2.04048E+00-2.74787E-14 4.06953E-13
 -1       409 2.17734E+01 4.36006E-01 5.24178E-03 1.52669E+00 2.28230E-13 6.18331E-13
 -1       410 2.13481E+01 3.29858E-01 4.61307E-03 1.11456E+00 2.25759E-13 4.53855E-13
 -1       411 2.10108E+01 2.39333E-01 3.66948E-03 8.02417E-01 1.73689E-13 1.19108E-13
 -1       412 2.07584E+01 1.73498E-01 2.70035E-03 5.82638E-01 1.03652E-13-5.88519E-14
 -1       413 2.05532E+01 1.22345E-01 1.96947E-03 4.13886E-01 1.45105E-13-1.91750E-13
 -1       414 2.03982E+01 8.61048E-02 1.39089E-03 2.92825E-01 2.90812E-13-3.26953E-13
 -1       415 2.02824E+01 6.06355E-02 9.75268E-04 2.06183E-01 1.17602E-13-3.87539E-13
 -1       416 2.01969E+01 4.27842E-02 6.84076E-04 1.44215E-01 1.72587E-14-6.26250E-13
 -1       417 2.01346E+01 3.02205E-02 4.85297E-04 9.98763E-02-1.63502E-13-3.74774E-13
 -1       418 2.00915E+01 2.17637E-02 3.36906E-04 6.94946E-02-2.30626E-13-2.19124E-13
 -1       419 2.00590E+01 1.53631E-02 2.41995E-04 4.64362E-02-1.45683E-13 1.68171E-13
 -1       420 2.00364E+01 1.08027E-02 1.68932E-04 3.00156E-02-3.00082E-13 3.37381E-13
 -1       421 2.00211E+01 7.53759E-03 1.17937E-04 1.83907E-02 1.13054E-13 4.34748E-13
 -1       422 2.00111E+01 5.18660E-03 8.18698E-05 1.02418E-02 2.42146E-16 9.71932E-14
 -1       423 2.00051E+01 3.56237E-03 5.38584E-05 4.86111E-03 9.69775E-14 2.01830E-13
 -1       424 2.00014E+01 2.28599E-03 3.49969E-05 1.03695E-03-3.29247E-13 3.61555E-13
 -1       425 1.99996E+01 1.29133E-03 1.91102E-05-1.34670E-03-2.90901E-13 4.44518E-13
 -1       426 1.99990E+01 4.11349E-04 4.33809E-06-2.58551E-03-2.44287E-13 4.61296E-13
 -1       427 1.99991E+01-5.12734E-04-1.23285E-06-2.81127E-03-1.79459E-14 4.50416E-13
 -1       428 2.47086E+00-5.25204E+00-9.13050E-02 2.81769E+00 4.22509E-13 7.73326E-13
 -1       429 2.00008E+01-8.35758E-04 6.31491E-06-1.47203E-03 4.05153E-13-3.52316E-13
 -1       430 2.00005E+01-1.03760E-03-8.93008E-07-2.37313E-03 1.39086E-13-2.39552E-13
 -1       431 2.00007E+01-3.45963E-04 6.81508E-06-5.65593E-04-5.28340E-14-1.15376E-12
 -1       432 2.00004E+01 2.96951E-04 5.85821E-06 1.14783E-04 2.40950E-13-1.09405E-13
 -1       433 2.00001E+01 9.15730E-04 4.18983E-06 4.41859E-04 3.30809E-15 7.81928E-14
 -1       434 1.99998E+01 1.34735E-03 2.55075E-06 4.56468E-04-2.01812E-13-3.76648E-14
 -1       435 1.99997E+01 1.48801E-03 1.91085E-06 3.05309E-04-2.84823E-13-2.19185E-13
 -1       436 1.99998E+01 1.31580E-03 2.48880E-06 1.78189E-04-1.49054E-13-6.20195E-13
 -1       437 2.00001E+01 9.02766E-04 3.68645E-06 2.42185E-04-7.90824E-15-3.45895E-13
 -1       438 2.00004E+01 3.56125E-04 3.45453E-06 5.89395E-04 1.42665E-13 6.82496E-13
 -1       439 2.00005E+01-1.51133E-04 2.94226E-06 1.19576E-03 5.81432E-14 3.95101E-13
 -1       440 2.00004E+01-5.26948E-04-1.65348E-06 1.87980E-03 2.16028E-13 5.55527E-13
 -1       441 8.56127E+00-6.08905E+00-1.09677E-01 5.76843E+00 2.31065E-13 3.83082E-13
 -1       442 1.02657E+00-4.22887E+00-1.91945E-02-1.42532E+00 2.47831E-13 8.11406E-13
 -1       443 1.98118E+01 3.45615E+00-1.85861E-02-1.64965E+00-7.77096E-14-3.82819E-13
 -1       444 3.58085E+01-2.09847E+00 9.31359E-04-6.58428E-01 3.56985E-13-3.30819E-13
 -1       445 3.95248E+01 3.11260E+00 1.24705E-01-2.42801E+00 5.37806E-13-1.45911E-13
 -1       446 3.91037E+01 6.85598E+00 1.60248E-01-1.05273E+00 5.94941E-13 2.06279E-13
 -1       447 4.03817E+01 6.29249E+00 1.73788E-01 1.50583E+00 7.64305E-13 2.55074E-13
 -1       448 3.76660E+01 2.24232E+00 6.05117E-02 3.07143E+00 5.23914E-13 2.91822E-13
 -1       449 3.36068E+01-3.92439E+00-3.54537E-02-5.36335E-01-4.48599E-14 4.97102E-14
 -1       450 2.54214E+01-6.08430E+00-9.05556E-02-4.74845E+00-3.22742E-13-5.54723E-13
 -1       451 1.51159E+01-6.73337E+00-1.38805E-01-6.37780E+00-3.58186E-13-5.17622E-13
 -1       452 5.78820E+00-6.03406E+00-1.37440E-01-4.91708E+00-3.81722E-13-4.95409E-13
 -1       453 1.71113E+00-4.45963E+00-1.71031E-02-1.53752E+00-3.11761E-13-7.06601E-13
 -1       454 1.30442E+00-4.76040E+00-5.09139E-02 2.84783E+00-2.74017E-13-3.83776E-13
 -1       455 6.81021E+00-4.57889E+00 5.86346E-02 6.86433E+00-9.86572E-14-1.84686E-13
 -1       456 1.28153E+01-5.55897E+00-1.04449E-02 8.01571E+00-1.23609E-13-1.65142E-13
 -1       457 2.18665E+01-4.57838E+00-1.42973E-03 7.01541E+00-2.83606E-13-1.39957E-13
 -1       458 2.87498E+01-1.89747E+00 2.31205E-02 4.76221E+00-4.05821E-13-7.16233E-14
 -1       459 3.35239E+01 1.79795E+00 4.19579E-02 2.57514E+00-5.05408E-13-2.12053E-14
 -1       460 3.60644E+01 6.34790E+00 3.39515E-02 1.34112E-01-5.80994E-13-3.82611E-14
 -1       461 3.76508E+01 8.59624E+00 6.34728E-02 1.50099E-02-6.10373E-13-4.88498E-14
 -1       462 3.57465E+01 8.14027E+00-2.86616E-02 2.95956E-01-5.61440E-13-1.24720E-13
 -1       463 3.49440E+01 4.45513E+00-1.64020E-02-5.67751E-01-3.23186E-13-8.50708E-14
 -1       464 3.25858E+01 7.86134E-01 3.60520E-02-2.60491E+00-1.59069E-13 1.03473E-13
 -1       465 2.58847E+01-3.27003E+00-5.45628E-03-5.85933E+00 1.81841E-13 3.77406E-13
 -1       466 1.83118E+01-5.21852E+00-3.80465E-03-7.75422E+00 3.11876E-13 2.38642E-13
 -1       467 9.78171E+00-5.45314E+00-3.96539E-02-7.66124E+00 3.07809E-13 2.43881E-13
 -1       468 3.51728E+00-5.04495E+00-5.86449E-02-5.33262E+00 3.02855E-13 4.99031E-13
 -1       469 2.89109E+01-5.44588E+00-3.95770E-02 3.40460E+00 2.48385E-13-3.52829E-13
 -1       470 3.39780E+01-1.45932E+00-1.64788E-01 3.88144E+00-1.49047E-14 5.97522E-13
 -1       471 1.96868E+01 3.19204E+00-5.23303E-03-5.75263E-01 9.54140E-14-3.13257E-13
 -1       472 1.98087E+01 2.99872E+00-5.86815E-03-8.75070E-01 4.49378E-14-3.26772E-13
 -1       473 1.95907E+01 3.34164E+00-4.81791E-03 1.45746E-02 2.08979E-13-2.40442E-13
 -1       474 1.96125E+01 3.31152E+00-4.90154E-03 3.04760E-01 2.44226E-13-2.23312E-13
 -1       475 1.96816E+01 3.20942E+00-5.22564E-03 5.90546E-01 2.83796E-13-1.71558E-13
 -1       476 1.98056E+01 3.01850E+00-5.83576E-03 8.81464E-01 3.23621E-13-7.88885E-14
 -1       477 1.99929E+01 2.71396E+00-6.53753E-03 1.16110E+00 3.37048E-13-2.13338E-14
 -1       478 2.02453E+01 2.25003E+00-6.72267E-03 1.38900E+00 3.20542E-13 9.70879E-14
 -1       479 2.04896E+01 1.49182E+00-3.13828E-03 1.30843E+00 2.87100E-13 2.26573E-13
 -1       480 2.04044E+01 9.96753E-01 2.70802E-03-8.48278E-01-1.45371E-13-2.37826E-13
 -1       481 2.02552E+01 5.75586E-01 1.94386E-03-3.53625E-01-1.12087E-13-2.03312E-13
 -1       482 2.01372E+01 3.40193E-01 1.10812E-03-2.79803E-02-8.09673E-14-1.60573E-13
 -1       483 2.00737E+01 1.97418E-01 5.09364E-04 1.79439E-01-1.50547E-14-1.36844E-13
 -1       484 2.00613E+01 1.02126E-01 1.87418E-04 3.05594E-01-1.77284E-15-1.34755E-13
 -1       485 2.00905E+01 2.85447E-02-1.15151E-05 3.72077E-01-5.68260E-14-1.32560E-13
 -1       486 2.01521E+01-3.96391E-02-1.81609E-04 3.89016E-01-3.99461E-14-1.60733E-13
 -1       487 2.02384E+01-1.13180E-01-3.60609E-04 3.58004E-01-7.86338E-14-1.39265E-13
 -1       488 2.03416E+01-1.97662E-01-5.57042E-04 2.74710E-01-9.76345E-14-8.24902E-14
 -1       489 2.04525E+01-2.91688E-01-7.56338E-04 1.32142E-01-6.04520E-14-4.83029E-14
 -1       490 2.05578E+01-3.83830E-01-9.17127E-04-7.44598E-02-7.96235E-15-3.29280E-14
 -1       491 2.06378E+01-4.49941E-01-9.76369E-04-3.40386E-01-3.83990E-14 4.93561E-14
 -1       492 2.06664E+01-4.53901E-01-8.59304E-04-6.42254E-01 3.10578E-15 8.87319E-14
 -1       493 2.06161E+01-3.56118E-01-4.59865E-04-9.29672E-01-8.59426E-14 7.37229E-14
 -1       494 2.04711E+01-1.33183E-01 1.62570E-04-1.12459E+00-5.76333E-14 2.76250E-14
 -1       495 2.02458E+01 1.96043E-01 8.38539E-04-1.13804E+00-3.25314E-14-7.48420E-14
 -1       496 1.99964E+01 5.53825E-01 1.29805E-03-9.07840E-01-1.04583E-13-8.34468E-14
 -1       497 1.98110E+01 8.19790E-01 1.54173E-03-4.45034E-01-1.22601E-13-6.19034E-14
 -1       498 1.97672E+01 8.88372E-01 1.29324E-03 1.45443E-01-1.00588E-13-6.08054E-15
 -1       499 1.98859E+01 7.32282E-01 1.09302E-03 7.02441E-01 2.70259E-14-6.05727E-14
 -1       500 2.01188E+01 4.17239E-01 1.06079E-03 1.07963E+00 8.90736E-14-6.97555E-14
 -1       501 2.03772E+01 6.43846E-02 5.38196E-04 1.21193E+00 1.89029E-14-4.51597E-14
 -1       502 2.05843E+01-2.19803E-01-3.81393E-05 1.12455E+00 7.29187E-14-5.96251E-14
 -1       503 2.07023E+01-3.83439E-01-5.57891E-04 8.96230E-01-2.42027E-14-1.45100E-13
 -1       504 2.07322E+01-4.28976E-01-8.17854E-04 6.14249E-01 6.71041E-14-1.47673E-13
 -1       505 2.06965E+01-3.90232E-01-8.56140E-04 3.44834E-01-1.35995E-14-1.88574E-13
 -1       506 2.06225E+01-3.07590E-01-7.48249E-04 1.24879E-01 5.61173E-14-2.32538E-13
 -1       507 2.05325E+01-2.13495E-01-5.68031E-04-3.31481E-02-1.09822E-13-2.74746E-13
 -1       508 2.04414E+01-1.28174E-01-3.77402E-04-1.32407E-01-1.29732E-13 2.69961E-14
 -1       509 2.03573E+01-6.09111E-02-2.12963E-04-1.83757E-01-3.11622E-14 3.84575E-14
 -1       510 2.02839E+01-1.34882E-02-8.75075E-05-2.00164E-01 3.92071E-15 1.37958E-13
 -1       511 2.02218E+01 1.63700E-02-2.44070E-06-1.93601E-01-2.34795E-14 2.65581E-13
 -1       512 2.01707E+01 3.25338E-02 4.84447E-05-1.73739E-01 4.42303E-15 1.56766E-13
 -1       513 2.01293E+01 3.90166E-02 7.35472E-05-1.47672E-01 8.07940E-14 4.71057E-15
 -1       514 2.00963E+01 3.92693E-02 8.10681E-05-1.20167E-01 1.24896E-13-7.41541E-14
 -1       515 2.00705E+01 3.59421E-02 7.78177E-05-9.41358E-02 4.03855E-14-1.14523E-13
 -1       516 2.00505E+01 3.09022E-02 6.88254E-05-7.11273E-02 1.26294E-13 5.46764E-15
 -1       517 2.00354E+01 2.53636E-02 5.74940E-05-5.17652E-02 1.53097E-13 2.02613E-13
 -1       518 2.00241E+01 2.00445E-02 4.59286E-05-3.60921E-02 7.80650E-14 5.63958E-13
 -1       519 2.00158E+01 1.53119E-02 3.52761E-05-2.38239E-02-2.44555E-13 4.23566E-13
 -1       520 2.00100E+01 1.12985E-02 2.60254E-05-1.45252E-02 1.77610E-13 3.28406E-13
 -1       521 2.00060E+01 7.98804E-03 1.80716E-05-7.72598E-03-6.95229E-15 3.41439E-13
 -1       522 2.00033E+01 5.27962E-03 1.54011E-05-2.98689E-03 6.45419E-14 2.08993E-13
 -1       523 2.00016E+01 2.95325E-03 4.60115E-06 3.51356E-05-9.92835E-14 9.34186E-14
 -1       524 2.03691E+01 8.78504E-01 2.71095E-03 6.73134E-01 2.20176E-13 2.33279E-13
 -1       525 2.01000E+01 3.12813E-01 7.78487E-04-2.80716E-01 1.16298E-13 1.10006E-13
 -1       526 2.00846E+01 2.79355E-01 7.17695E-04-4.94528E-01 7.50057E-14 6.51913E-14
 -1       527 2.01053E+01 3.02276E-01 8.22251E-04-6.92067E-01 1.15741E-13 7.13440E-14
 -1       528 2.01436E+01 3.71189E-01 1.04247E-03-8.92917E-01 8.68428E-14 4.21559E-14
 -1       529 2.01857E+01 4.92022E-01 1.43535E-03-1.14344E+00-1.18583E-14 4.51568E-14
 -1       530 2.02053E+01 6.61661E-01 1.88636E-03-1.45858E+00-5.44018E-14 2.15654E-14
 -1       531 2.01736E+01 8.66729E-01 2.33787E-03-1.85892E+00-8.56715E-14 4.29725E-14
 -1       532 2.00628E+01 1.06138E+00 2.79834E-03-2.35878E+00-1.14543E-14-8.16315E-14
 -1       533 1.98703E+01 1.12512E+00 3.97867E-03-2.96194E+00 9.39880E-14-1.36395E-13
 -1       534 1.96924E+01 8.39562E-01 7.81438E-03-3.62108E+00-3.19914E-14-1.01098E-13
 -1       535 1.98154E+01-2.54461E-01 2.86538E-02-4.35308E+00-1.68288E-13-1.58696E-13
 -1       536 2.10457E+01-2.64897E+00 9.31829E-02-4.96221E+00-3.82746E-13-2.42608E-13
 -1       537 2.03292E+01 3.29708E-01 9.26581E-03 3.91587E+00-2.47969E-13 7.55719E-14
 -1       538 2.02677E+01 9.73005E-01 3.55777E-03 3.24073E+00-5.61416E-14 2.47480E-13
 -1       539 2.03724E+01 1.08578E+00 2.80509E-03 2.56535E+00-4.55126E-15 2.19428E-13
 -1       540 2.04594E+01 9.51563E-01 2.89042E-03 1.97783E+00-6.57109E-14 1.59940E-13
 -1       541 2.04835E+01 7.53485E-01 2.57579E-03 1.49515E+00-5.11301E-14 5.39024E-13
 -1       542 2.04569E+01 5.66635E-01 2.08366E-03 1.11452E+00 3.64940E-13 5.46625E-13
 -1       543 2.04040E+01 4.21530E-01 1.55482E-03 8.34568E-01 3.63289E-13 4.09280E-13
 -1       544 2.03370E+01 3.04335E-01 1.12079E-03 6.10822E-01 4.26576E-13 2.05075E-13
 -1       545 2.02705E+01 2.18302E-01 7.91728E-04 4.44234E-01 2.79203E-13-3.43238E-14
 -1       546 2.02105E+01 1.56245E-01 5.51825E-04 3.21039E-01 2.23549E-13-3.14849E-14
 -1       547 2.01595E+01 1.11827E-01 3.83603E-04 2.30340E-01 3.29320E-14 9.36563E-14
 -1       548 2.01181E+01 8.00655E-02 2.72488E-04 1.63789E-01-5.45060E-14-5.81560E-14
 -1       549 2.00868E+01 5.83130E-02 1.86386E-04 1.17096E-01-3.54190E-13-6.06628E-14
 -1       550 2.00613E+01 4.16989E-02 1.34791E-04 8.09231E-02-3.65865E-13-1.73409E-13
 -1       551 2.00422E+01 2.97182E-02 9.38057E-05 5.46277E-02-4.28696E-13-1.99125E-13
 -1       552 2.00281E+01 2.10481E-02 6.52833E-05 3.56306E-02-2.45655E-13-1.02784E-15
 -1       553 2.00181E+01 1.47514E-02 4.57866E-05 2.20310E-02 1.33636E-13 1.44033E-13
 -1       554 2.00115E+01 1.03627E-02 2.97151E-05 1.28202E-02 1.08936E-14 1.64815E-13
 -1       555 2.00067E+01 6.92764E-03 2.04632E-05 6.05304E-03-3.40666E-13 4.60300E-13
 -1       556 2.00036E+01 4.32525E-03 1.25228E-05 1.56519E-03-3.41885E-13 4.34075E-13
 -1       557 2.00017E+01 2.22379E-03 1.21221E-05-1.16047E-03 2.16117E-13 1.07787E-13
 -1       558 2.00011E+01 7.96045E-04 4.06636E-06-2.14415E-03 4.76326E-14-1.97259E-13
 -1       559 9.06820E+00-2.19704E+00 1.68071E-01 4.93994E+00-1.88516E-13 9.90458E-14
 -1       560 2.00004E+01 6.30531E-03 2.29545E-06 1.15058E-03 3.89849E-13-3.25957E-13
 -1       561 1.69267E+01-5.11604E+00 8.63546E-02 6.20784E+00-1.46300E-13-3.95774E-13
 -1       562 1.99998E+01 7.33461E-03 1.44137E-06 9.98504E-04 8.99941E-14-1.39015E-13
 -1       563 1.99994E+01 7.76995E-03 8.51979E-07 4.98606E-04-4.72816E-14-2.98255E-13
 -1       564 1.99995E+01 7.54394E-03 1.03714E-06-8.74920E-05-1.55502E-13-4.99687E-14
 -1       565 1.99999E+01 6.72223E-03 1.49219E-06-4.83177E-04-3.07329E-14-4.13684E-13
 -1       566 2.00005E+01 5.41993E-03 1.76192E-06-4.96966E-04 4.13821E-13 2.76414E-13
 -1       567 2.00010E+01 3.88246E-03 5.02503E-06-7.82560E-05 2.86680E-13 4.45290E-13
 -1       568 2.00011E+01 2.35372E-03 1.35460E-06 7.28980E-04 1.50722E-13 5.77552E-13
 -1       569 2.63531E+01-6.10611E+00 3.03952E-02 3.50720E+00 4.24036E-14-3.62099E-13
 -1       570 5.07888E+00-1.46818E+00 1.82934E-01-3.90588E+00 2.18353E-13 5.83339E-13
 -1       571 2.01642E+01 4.23098E-01 1.35530E-03-1.17861E-02 1.60488E-13 1.79893E-13
 -1       572 9.71197E+00-2.96536E+00 1.57092E-01-7.04832E+00 2.98817E-13 4.40786E-13
 -1       573 2.00017E+01 3.24023E-03 5.87465E-07-8.01497E-05 5.64407E-13-8.86617E-13
 -1       574 3.04092E+01 5.42480E+00-1.80781E-01 1.71266E+00-2.38018E-13-2.59508E-13
 -1       575 2.00615E+01-5.42047E+00 6.67165E-02 7.19514E+00 4.33958E-14 5.96793E-14
 -1       576 6.11542E+00-1.78635E+00 1.67581E-01 4.82509E+00 5.79189E-14-2.24390E-13
 -1       577 2.00016E+01 1.88061E-03 1.35739E-06-1.11762E-03 2.46835E-13 6.56070E-14
 -1       578 2.00011E+01 4.86355E-03 2.36588E-06 7.91613E-04 7.29141E-13-6.84113E-13
 -1       579 2.10806E+01-1.33904E+00 7.90124E-02 4.51731E+00-2.30232E-13 2.03865E-14
 -1       580 4.29915E+00-1.50742E+00 1.77772E-01 1.30125E+00 6.24986E-14 7.87412E-13
 -1       581 1.96155E+01 3.30246E+00-4.91760E-03-2.78064E-01 1.54934E-13-2.84509E-13
 -1       582 2.02554E+01 5.91032E-01 1.89624E-03 2.82582E-01 1.72583E-13 1.88653E-13
 -1       583 2.65228E+01-4.70111E+00-8.98136E-03 4.22986E+00-9.97397E-14 5.75789E-14
 -1       584 2.31519E+01-6.35751E+00 2.54595E-03-5.08447E+00-6.40002E-13-3.54353E-13
 -1       585 1.39628E+01-4.42876E+00 1.20200E-01-6.38301E+00-4.92398E-13-3.95232E-13
 -1       586 6.68603E+00-2.46014E+00 1.43810E-01-4.17938E+00-2.39662E-13-5.19570E-13
 -1       587 4.22282E+00-1.06064E+00 1.87714E-01 9.58037E-01-2.20483E-15-4.90025E-13
 -1       588 1.27511E+01-3.80999E+00 1.37559E-01 7.62969E+00-9.36057E-15 1.25802E-14
 -1       589 3.02099E+01 7.06824E+00-1.95858E-01-1.25236E+00-5.35391E-13 2.37692E-13
 -1       590 3.03352E+01-1.61278E+00-7.04017E-02 1.29123E+00-3.45574E-13 1.35725E-13
 -1       591 2.42687E+01-5.19707E+00 3.45352E-02-5.49744E+00 3.70981E-13 3.26267E-13
 -1       592 3.15104E+01 2.70969E+00-1.32734E-01-1.10238E+00-3.94872E-13 1.79030E-13
 -1       593 2.95338E+01 7.86042E+00-2.09138E-01 1.88770E-01-5.68628E-13 1.41048E-13
 -1       594 3.08767E+01 1.09274E+00-1.27242E-01 7.57743E-01-1.36679E-13-3.67442E-13
 -1       595 2.89193E+01-3.13234E+00-5.53248E-02-2.14090E+00 1.53258E-13-1.10384E-13
 -1       596 1.63278E+01-4.82287E+00 8.74483E-02-7.83775E+00 2.30108E-13 1.24002E-13
 -1       597 2.04349E+01 1.77350E+00-5.20636E-03-1.44372E+00-1.55860E-13-2.79959E-13
 -1       598 3.19679E+01-4.58493E+00-3.99030E-02-5.45651E-01 2.25028E-13-2.71588E-13
 -1       599 1.99855E+01 2.70046E+00-6.68782E-03-1.15971E+00-2.23477E-14-3.25898E-13
 -1       600 2.00009E+01 1.52497E-03 4.62904E-06 1.29379E-03 9.95560E-14 3.53149E-13
 -1       601 2.01913E+01 2.31321E+00-6.07138E-03-1.35019E+00-9.71502E-14-3.01199E-13
 -1       602 7.11005E+00-7.30380E-02 1.97116E-01-1.75990E+00-2.09711E-14-4.98698E-13
 -1       603 2.94980E+01-5.48471E+00 5.09245E-02-1.47073E+00-5.06904E-13 1.13798E-15
 -1       604 1.98651E+01 2.60853E+00-1.64987E-03 3.48158E-01 2.32755E-13-1.77425E-13
 -1       605 1.98226E+01 2.68372E+00-1.48221E-03 1.29868E-01 1.94491E-13-1.99514E-13
 -1       606 2.00928E+01 2.17265E+00-1.33024E-03 7.42830E-01 2.73662E-13-4.49900E-14
 -1       607 2.02520E+01 1.78520E+00 7.64633E-05 8.78659E-01 2.72718E-13 7.51512E-15
 -1       608 2.03581E+01 1.32974E+00 9.84096E-04 8.16047E-01 2.42096E-13 8.47457E-14
 -1       609 2.00019E+01 4.47506E-03 3.13729E-06-6.32625E-04 2.07849E-13 6.27041E-13
 -1       610 2.03338E+01 1.16428E+00-4.16364E-04-6.45856E-01-8.83485E-14-1.88393E-13
 -1       611 2.02952E+01 7.31990E-01 4.23998E-04-2.47557E-01-7.97120E-14-1.64667E-13
 -1       612 2.02429E+01 4.54542E-01 2.07615E-04 3.82759E-02-3.18610E-14-1.44590E-13
 -1       613 2.02068E+01 2.69415E-01 7.84358E-05 2.33952E-01-8.15464E-15-1.46661E-13
 -1       614 2.01984E+01 1.34425E-01 1.21935E-05 3.59994E-01-3.00621E-14-1.90054E-13
 -1       615 2.02225E+01 2.08930E-02-3.56793E-05 4.30193E-01-5.51933E-14-1.79816E-13
 -1       616 2.02820E+01-9.17040E-02-8.80189E-05 4.50379E-01-5.87984E-15-1.20575E-13
 -1       617 2.03800E+01-2.17314E-01-1.52680E-04 4.18790E-01-2.30559E-14 6.98618E-15
 -1       618 2.05179E+01-3.61715E-01-2.30362E-04 3.27434E-01-3.61301E-14 8.20652E-14
 -1       619 2.06930E+01-5.18365E-01-3.11222E-04 1.64917E-01-5.91046E-14 7.38554E-14
 -1       620 2.08930E+01-6.62707E-01-3.67860E-04-7.80262E-02 2.23062E-14 9.49304E-14
 -1       621 2.10905E+01-7.47800E-01-3.83752E-04-3.98765E-01-1.30192E-14 1.09637E-13
 -1       622 2.12409E+01-7.07244E-01-3.42591E-04-7.68277E-01-6.94314E-14 3.17542E-15
 -1       623 2.12904E+01-4.74120E-01 1.86358E-05-1.11580E+00-9.97058E-14-8.60689E-15
 -1       624 2.12014E+01-2.35388E-02 4.54189E-04-1.32618E+00-1.37371E-13 3.04039E-14
 -1       625 2.09897E+01 5.77824E-01 6.86179E-04-1.26992E+00-3.04307E-14 9.56496E-14
 -1       626 2.07449E+01 1.15147E+00 2.74168E-04-8.73340E-01-5.96485E-14 1.31029E-13
 -1       627 2.06014E+01 1.46582E+00 2.04470E-04-1.98733E-01-1.08129E-13 9.95163E-14
 -1       628 2.06425E+01 1.38540E+00-5.43505E-04 5.48562E-01-1.14692E-13 3.21727E-14
 -1       629 2.08503E+01 9.39560E-01 3.38291E-04 1.12730E+00 5.22779E-14-4.51420E-14
 -1       630 2.10977E+01 3.36289E-01 3.18761E-04 1.38555E+00 3.09655E-14 4.18739E-14
 -1       631 2.12669E+01-2.07097E-01 3.60312E-04 1.32701E+00 8.72618E-14 6.32258E-14
 -1       632 2.12984E+01-5.58519E-01-1.27740E-05 1.05848E+00-5.45206E-14 2.70878E-14
 -1       633 2.12034E+01-6.95620E-01-1.71470E-04 7.09170E-01 5.67684E-14 1.02882E-13
 -1       634 2.10300E+01-6.68348E-01-2.50851E-04 3.75867E-01 2.98237E-14 1.15887E-13
 -1       635 2.08294E+01-5.48081E-01-2.67472E-04 1.08620E-01 4.83050E-14 1.96171E-13
 -1       636 2.06380E+01-3.95151E-01-2.18498E-04-7.87148E-02-6.29715E-14 2.23469E-13
 -1       637 2.04747E+01-2.49016E-01-1.49921E-04-1.92669E-01 4.84195E-14 1.82522E-13
 -1       638 2.03453E+01-1.29535E-01-9.07771E-05-2.48678E-01-7.68421E-14 2.62527E-13
 -1       639 2.02478E+01-4.23442E-02-4.22079E-05-2.63569E-01 5.26867E-14 3.88680E-13
 -1       640 2.01767E+01 1.48559E-02-8.76804E-06-2.52007E-01-4.99034E-14 3.29935E-13
 -1       641 2.01259E+01 4.78246E-02 1.18050E-05-2.25430E-01-1.58288E-13 3.57044E-13
 -1       642 2.00900E+01 6.30781E-02 2.24163E-05-1.92054E-01-2.71314E-13 2.08250E-13
 -1       643 2.00647E+01 6.64932E-02 2.61766E-05-1.57333E-01-1.08349E-13-1.72035E-13
 -1       644 2.00468E+01 6.27466E-02 2.57932E-05-1.24580E-01 1.36592E-13-2.62239E-13
 -1       645 2.00340E+01 5.52431E-02 2.31800E-05-9.55591E-02 2.20827E-13-3.42364E-14
 -1       646 2.00247E+01 4.62781E-02 1.95671E-05-7.09855E-02 7.25253E-14-9.29799E-14
 -1       647 2.00179E+01 3.72760E-02 1.57689E-05-5.09134E-02 2.03384E-13-2.50163E-13
 -1       648 2.00129E+01 2.90259E-02 1.22204E-05-3.50162E-02 7.57804E-14-1.16088E-13
 -1       649 2.00092E+01 2.18794E-02 9.17741E-06-2.27847E-02-3.27659E-14 1.85501E-13
 -1       650 2.00064E+01 1.59065E-02 6.73059E-06-1.36609E-02 1.49740E-13 2.30032E-14
 -1       651 2.00043E+01 1.09910E-02-1.35877E-06-7.12369E-03 1.25871E-13 1.48702E-13
 -1       652 2.00029E+01 7.52685E-03-5.35100E-06-3.19633E-03-1.19841E-13 5.03478E-13
 -1       653 7.68202E+00 8.40816E-01 1.70592E-01-8.65007E-01 4.65276E-14 5.39541E-13
 -1       654 2.00666E+01 4.59393E-01 2.28902E-04-5.64959E-01 1.01382E-13 2.74229E-14
 -1       655 2.01434E+01 4.82700E-01 2.17160E-04-3.50722E-01 1.30364E-13 5.49927E-14
 -1       656 1.98528E+01 6.29630E-01 3.43853E-04-9.58699E-01 6.23447E-14 3.42489E-14
 -1       657 1.96547E+01 8.18479E-01 4.45743E-04-1.18775E+00 5.40004E-15-3.24590E-15
 -1       658 1.93395E+01 1.06722E+00 5.60436E-04-1.45597E+00-5.91284E-14-8.54600E-14
 -1       659 1.88477E+01 1.34882E+00 8.74129E-04-1.77733E+00-1.38403E-14-1.49736E-13
 -1       660 1.81115E+01 1.59041E+00 2.70481E-03-2.17307E+00 8.14089E-14-1.79091E-13
 -1       661 1.71363E+01 1.63999E+00 7.86496E-03-2.67182E+00 3.88307E-14-1.35034E-13
 -1       662 1.58563E+01 1.22750E+00 2.96769E-02-3.43384E+00-4.84191E-14-1.63061E-13
 -1       663 1.45420E+01-3.18979E-01 1.35222E-01-4.63263E+00-1.15727E-13-2.19935E-13
 -1       664 2.78453E+01-3.37579E+00-2.99622E-02 1.14047E+00-4.31270E-14 4.11109E-13
 -1       665 1.87231E+01 1.49630E+00 1.24364E-03 1.91970E+00 4.87992E-14 1.49136E-13
 -1       666 2.82543E+01-1.68260E+00-6.67336E-02 4.52138E-01 1.70253E-13-4.22919E-13
 -1       667 1.79143E+01 1.64218E+00 4.05200E-03 2.43194E+00-1.01437E-13 8.27447E-14
 -1       668 1.60082E+01-1.79460E+00 1.48710E-01 5.46560E+00-3.59702E-13-2.60285E-13
 -1       669 1.69062E+01 1.44995E+00 1.66487E-02 3.08567E+00-2.34488E-13 6.29444E-14
 -1       670 1.92781E+01 1.22956E+00 8.28303E-04 1.51224E+00-1.48924E-13 1.47804E-13
 -1       671 1.96333E+01 9.56475E-01 7.01398E-04 1.18041E+00 1.77407E-13-4.96856E-15
 -1       672 1.98387E+01 7.31764E-01 5.83974E-04 9.22300E-01 1.92590E-13 1.52049E-13
 -1       673 1.99616E+01 5.42128E-01 3.94646E-04 7.03363E-01 2.42061E-13 5.72868E-13
 -1       674 2.00245E+01 3.97676E-01 2.85363E-04 5.31002E-01 5.00573E-13 7.56683E-13
 -1       675 2.00518E+01 2.90222E-01 1.99139E-04 3.96907E-01 2.50422E-13 6.02302E-13
 -1       676 2.00591E+01 2.11306E-01 1.36674E-04 2.93724E-01 1.95744E-13 3.89834E-13
 -1       677 2.00561E+01 1.53678E-01 9.94176E-05 2.15084E-01 1.22384E-13 2.52061E-13
 -1       678 2.00490E+01 1.13455E-01 6.81449E-05 1.58061E-01-1.26560E-13 9.61063E-14
 -1       679 2.00401E+01 8.22435E-02 4.93248E-05 1.12577E-01-1.57761E-13-5.95231E-14
 -1       680 2.00315E+01 5.94231E-02 3.44324E-05 7.86494E-02-3.21879E-13-3.96112E-14
 -1       681 2.00239E+01 4.26921E-02 2.38873E-05 5.35310E-02-4.30368E-13-2.33419E-13
 -1       682 2.00176E+01 3.04034E-02 1.72788E-05 3.51298E-02-1.79736E-13 6.89861E-15
 -1       683 2.00128E+01 2.17547E-02 1.05498E-05 2.23676E-02-1.03763E-13 1.77877E-13
 -1       684 2.00088E+01 1.49615E-02 7.88979E-06 1.27246E-02-2.51915E-13 3.94449E-13
 -1       685 2.00059E+01 9.85286E-03 4.19498E-06 6.06533E-03-1.25857E-13 3.96429E-13
 -1       686 2.00037E+01 5.91252E-03 3.69524E-06 1.72652E-03 2.44953E-13 1.47772E-16
 -1       687 2.00025E+01 3.92046E-03-8.79014E-06-2.16793E-05 8.96376E-14 1.81720E-13
 -1       688 1.99988E+01 1.46458E-02-2.89089E-07 1.23983E-03 2.00044E-13-1.05721E-13
 -1       689 9.47095E+00 5.76501E-01 1.60915E-01 2.54545E+00-3.21144E-13 2.33674E-13
 -1       690 1.24623E+01-1.48640E+00 1.42721E-01-5.22169E+00-2.65298E-13-1.93894E-13
 -1       691 1.99997E+01 1.35025E-02 3.94468E-07 2.30099E-03 2.84019E-13-3.60715E-13
 -1       692 1.99990E+01 1.37311E-02-1.61103E-07-1.33445E-03 7.46689E-14-8.08258E-14
 -1       693 2.00000E+01 1.18315E-02 1.77661E-06-2.12457E-03 4.22798E-13 2.54344E-13
 -1       694 2.00011E+01 9.24748E-03-3.94595E-06-2.22633E-03 2.68152E-13 2.48261E-13
 -1       695 2.38432E+01-5.05077E+00 1.80484E-02 4.77913E+00 1.66794E-13 1.12516E-13
 -1       696 2.68036E+01-4.15333E+00-8.20402E-03-2.29899E+00 2.51716E-13-2.19481E-13
 -1       697 1.84836E+01-3.95884E+00 7.60873E-02 6.56873E+00 8.25312E-14 1.76373E-13
 -1       698 7.73725E+00 3.91779E-01 1.62768E-01 2.49125E+00 1.53952E-13-2.74641E-13
 -1       699 2.10219E+01-4.56634E+00 4.43644E-02-5.95785E+00 3.40741E-13 3.11231E-13
 -1       700 1.57117E+01 4.80827E-01 6.34869E-02 4.09850E+00-4.41079E-13-1.01346E-13
 -1       701 2.02192E+01 5.98403E-01 7.56426E-05-9.32301E-02 1.68727E-13 3.56039E-14
 -1       702 1.47138E+01-2.98986E+00 1.09540E-01-7.03068E+00 3.02664E-13 1.66644E-13
 -1       703 9.88326E+00-5.13168E-01 1.47602E-01-4.99158E+00 1.93172E-13 3.04937E-13
 -1       704 1.99986E+01 1.47173E-02-5.23314E-07-1.02241E-04 6.16429E-14-6.61951E-13
 -1       705 1.99775E+01 5.10958E-01 2.61120E-04-7.58720E-01 1.28443E-13 3.15865E-15
 -1       706 2.83300E+01 3.95211E+00-1.34306E-01-2.11604E+00-4.13204E-13 2.79467E-13
 -1       707 1.11995E+01-1.35881E+00 1.51678E-01 5.82753E+00 1.00028E-13-2.02519E-13
 -1       708 1.99544E+01 2.44325E+00-1.63045E-03 5.55809E-01 2.64322E-13-9.46427E-14
 -1       709 2.86714E+01-4.37444E-01-9.70587E-02-1.17936E+00-2.23814E-13 3.30458E-13
 -1       710 1.99693E+01 2.40939E+00-1.59909E-03-5.41287E-01 6.25648E-14-2.67778E-13
 -1       711 2.82098E+01 2.21132E+00-1.11638E-01 2.07024E+00-4.76182E-14-2.82097E-13
 -1       712 2.67260E+01 6.38834E+00-1.30736E-01-7.73619E-01-4.88290E-13 1.96715E-13
 -1       713 2.03030E+01 1.66729E+00 6.48375E-04-9.88483E-01-1.02012E-13-2.25545E-13
 -1       714 2.67356E+01 5.69099E+00-1.36471E-01 1.43020E+00-1.77081E-13-7.09034E-14
 -1       715 1.98277E+01 2.67440E+00-1.45698E-03-9.39058E-02 1.57763E-13-2.23373E-13
 -1       716 2.03126E+01 9.34805E-01 6.39072E-04 4.16890E-01 2.09204E-13 1.02479E-13
 -1       717 2.01027E+01 2.13600E+00-6.26114E-04-7.42209E-01 6.93537E-16-2.61912E-13
 -1       718 2.00009E+01 1.14558E-02 1.65909E-06 2.72839E-03 4.04381E-13-8.17370E-13
 -1       719 2.00022E+01 8.80641E-03 2.95990E-06 2.34705E-03 3.69043E-13-8.06580E-13
 -1       720 2.00027E+01 6.22158E-03 3.78457E-06 1.29162E-03 2.49787E-13-1.55474E-13
 -1       721 1.98776E+01 2.58402E+00-1.54001E-03-3.19580E-01 1.14950E-13-2.48659E-13
 -1       722 2.02678E+01 7.26157E-01-2.66645E-04 1.38789E-01 1.68341E-13 7.26503E-14
 -1       723 2.02963E+01 1.28743E+00 4.45935E-04 5.13679E-01 2.16690E-13-2.85783E-14
 -1       724 2.02884E+01 1.24387E+00-4.42991E-04-4.29963E-01-5.05401E-14-1.88823E-13
 -1       725 2.67485E+01-2.05719E+00-3.36294E-02-5.71193E-01-5.92217E-14 3.37052E-13
 -1       726 2.02994E+01 8.23554E-01 1.49031E-04-1.18000E-01-3.25251E-14-1.37313E-13
 -1       727 2.02833E+01 5.27898E-01 8.92514E-06 1.20687E-01-8.34151E-15-1.37002E-13
 -1       728 2.02654E+01 3.16138E-01 2.70759E-06 2.95088E-01-2.95125E-14-1.14782E-13
 -1       729 2.02641E+01 1.49511E-01-5.97156E-06 4.16699E-01-2.83174E-14-5.83623E-14
 -1       730 2.02938E+01-1.93398E-03-1.47295E-05 4.93756E-01 2.28540E-14-1.31063E-14
 -1       731 2.03682E+01-1.61946E-01-3.08155E-05 5.28015E-01 8.07472E-14 7.13966E-15
 -1       732 2.05008E+01-3.46999E-01-5.97406E-05 5.13465E-01 3.27125E-14 1.08345E-13
 -1       733 2.07030E+01-5.62163E-01-1.03903E-04 4.36036E-01-1.69561E-14 1.62622E-13
 -1       734 2.09787E+01-7.93559E-01-1.53856E-04 2.75136E-01-3.56463E-15 2.47097E-13
 -1       735 2.13151E+01-9.98300E-01-1.82223E-04 9.46174E-03 5.35735E-15 1.55687E-13
 -1       736 2.16711E+01-1.09632E+00-2.76682E-04-3.69102E-01-1.13204E-13 1.26325E-13
 -1       737 2.19707E+01-9.75190E-01-7.26459E-04-8.30347E-01-1.31729E-13 1.64647E-13
 -1       738 2.21179E+01-5.27155E-01-3.75879E-04-1.27094E+00-1.23164E-13 1.45119E-13
 -1       739 2.20475E+01 2.64833E-01 1.34823E-04-1.51037E+00-8.98934E-14 1.08558E-13
 -1       740 2.17904E+01 1.23631E+00-8.85082E-04-1.34973E+00-6.12316E-14 2.76668E-14
 -1       741 2.15219E+01 2.01475E+00-1.37829E-03-7.04653E-01-6.83707E-14 1.47897E-14
 -1       742 2.14263E+01 2.22759E+00 5.69113E-04 2.23330E-01-1.21542E-13 4.91319E-14
 -1       743 2.16250E+01 1.71780E+00 2.84107E-03 1.07156E+00 3.33856E-14 1.40287E-13
 -1       744 2.19040E+01 8.49095E-01-1.23499E-03 1.52374E+00 9.38478E-14 1.32377E-13
 -1       745 2.20940E+01-6.98061E-02-3.26859E-05 1.50442E+00 1.09810E-13 5.99883E-14
 -1       746 2.20628E+01-7.09879E-01-2.81648E-04 1.16822E+00 1.46106E-14 5.06159E-14
 -1       747 2.18346E+01-9.99386E-01 1.60254E-04 7.17900E-01-7.37217E-15 1.39664E-13
 -1       748 2.14920E+01-1.00416E+00 2.13379E-04 3.03654E-01 7.22657E-14 1.87536E-13
 -1       749 2.11270E+01-8.44042E-01 5.14172E-05-7.38185E-03 1.71314E-13 3.27146E-13
 -1       750 2.08000E+01-6.21120E-01-2.82461E-05-2.07408E-01 4.00332E-15 3.63100E-13
 -1       751 2.05373E+01-4.00614E-01-2.22781E-05-3.14356E-01-6.04974E-14 4.61014E-13
 -1       752 2.03432E+01-2.17139E-01-2.32218E-05-3.54069E-01-7.00288E-14 4.43565E-13
 -1       753 2.02087E+01-8.09963E-02-1.03385E-05-3.50443E-01 2.24899E-15 2.48371E-13
 -1       754 2.01207E+01 1.02196E-02-1.56927E-06-3.21599E-01-3.43136E-14 1.58058E-13
 -1       755 2.00661E+01 6.45187E-02 4.36509E-06-2.80319E-01 1.85773E-14 3.60227E-13
 -1       756 2.00343E+01 9.13419E-02 6.89121E-06-2.35038E-01-1.59993E-13 2.76676E-13
 -1       757 2.00170E+01 9.94194E-02 7.20189E-06-1.90922E-01-2.84173E-13 6.51426E-13
 -1       758 2.00084E+01 9.58281E-02 6.61677E-06-1.50820E-01-1.66482E-13 5.54114E-13
 -1       759 2.00047E+01 8.58102E-02 5.75257E-06-1.16049E-01 1.79234E-13 3.90217E-14
 -1       760 2.00034E+01 7.29777E-02 4.73540E-06-8.69582E-02 6.32700E-14-1.56813E-14
 -1       761 2.00033E+01 5.96389E-02 3.72487E-06-6.33202E-02 1.41797E-13 9.95718E-14
 -1       762 2.00034E+01 4.71331E-02 2.86698E-06-4.45980E-02 8.76931E-14 5.24643E-14
 -1       763 2.00034E+01 3.61204E-02 2.22697E-06-3.01200E-02 7.19530E-14-1.83294E-13
 -1       764 2.00033E+01 2.68044E-02 2.24067E-06-1.91965E-02 1.03408E-13-1.40894E-13
 -1       765 2.00029E+01 1.91433E-02 7.30876E-06-1.12202E-02 2.35671E-13 4.52945E-14
 -1       766 1.89983E+01 1.10579E+00-1.17401E-05-9.46970E-01 3.58859E-14-1.57446E-13
 -1       767 1.94292E+01 8.73255E-01 2.99802E-05-8.24558E-01 5.76116E-14-1.14275E-13
 -1       768 1.74495E+01 1.69851E+00 1.04876E-03-1.14727E+00 3.23164E-14-1.24635E-13
 -1       769 1.61930E+01 1.92958E+00 4.39730E-03-1.23656E+00 4.16264E-14-7.39933E-14
 -1       770 1.43462E+01 1.98733E+00 1.53123E-02-1.38437E+00 4.00560E-14-1.37489E-13
 -1       771 1.81530E+01-2.70441E+00 3.63724E-02-5.63033E+00 3.35690E-13 1.76827E-13
 -1       772 1.68948E+01 1.90221E+00 1.79341E-03 1.22576E+00-1.48477E-13-1.85956E-14
 -1       773 1.87004E+01 1.30344E+00 1.80305E-04 9.18196E-01 1.76065E-13-2.14619E-13
 -1       774 1.39861E+01-2.10935E+00 1.03389E-01 6.29467E+00 6.49585E-14 4.23481E-14
 -1       775 1.79708E+01 1.61727E+00 6.62706E-05 1.06890E+00-8.12764E-14 1.83843E-15
 -1       776 1.91663E+01 1.02857E+00 1.29611E-04 7.77448E-01 5.78922E-14-1.97444E-13
 -1       777 1.94898E+01 7.85519E-01 2.50923E-05 6.37515E-01 2.06837E-14-5.73535E-14
 -1       778 1.96969E+01 5.92021E-01 3.89431E-05 5.11704E-01 1.97170E-13-1.28405E-13
 -1       779 1.98267E+01 4.42509E-01 3.72342E-05 4.02737E-01 3.68712E-13 2.79299E-13
 -1       780 1.99062E+01 3.29055E-01 2.51721E-05 3.11481E-01 3.62671E-13 3.98826E-13
 -1       781 1.99537E+01 2.43896E-01 2.21935E-05 2.37092E-01 1.58263E-13 3.19575E-13
 -1       782 1.99801E+01 1.82994E-01 1.87732E-05 1.80117E-01 4.87000E-14 2.93895E-13
 -1       783 1.99956E+01 1.34765E-01 1.14081E-05 1.32582E-01 9.18570E-15 2.68887E-13
 -1       784 2.00036E+01 9.88454E-02 8.94685E-06 9.57458E-02-8.77063E-14 1.45627E-13
 -1       785 2.00071E+01 7.20733E-02 5.97515E-06 6.75523E-02-2.71765E-13 2.38493E-13
 -1       786 2.00082E+01 5.21237E-02 4.95318E-06 4.62884E-02-3.29298E-13-9.77367E-14
 -1       787 2.00078E+01 3.79032E-02 2.33709E-06 3.11407E-02-1.31337E-13-1.74720E-13
 -1       788 2.00068E+01 2.66365E-02 2.52034E-06 1.93868E-02-1.52211E-13 3.10813E-14
 -1       789 2.00055E+01 1.81974E-02 5.26920E-06 1.10256E-02-1.25475E-13-1.55853E-13
 -1       790 2.00042E+01 1.17046E-02 6.37400E-06 5.23836E-03-5.78334E-14-2.45875E-13
 -1       791 2.18417E+01-3.92395E+00 2.35570E-02 4.58155E+00 1.90860E-13 2.12291E-13
 -1       792 1.10154E+01 1.69436E+00 8.58576E-02 6.61734E-01-1.66435E-13 1.69170E-14
 -1       793 9.87900E+00 1.01044E+00 1.39317E-01-2.04749E+00-1.78564E-14-3.48048E-13
 -1       794 2.00003E+01 1.65342E-02-8.41122E-06-5.09858E-03 3.62962E-13 5.76522E-14
 -1       795 1.99984E+01 1.99773E-02-4.04650E-06-3.95334E-03 3.01204E-13 3.07138E-13
 -1       796 2.02004E+01 1.92914E+00 1.85677E-05-8.81216E-01-4.66102E-14-2.46233E-13
 -1       797 2.60731E+01-2.85640E+00-1.61818E-02-2.78330E-01 1.37412E-13-2.91200E-13
 -1       798 2.43407E+01 4.96297E+00-6.03144E-02 2.93892E-01-1.43109E-13-9.50299E-14
 -1       799 2.64801E+01 1.21698E+00-5.69504E-02-2.07683E+00-1.76957E-13 3.38857E-13
 -1       800 2.01817E+01 7.43336E-01 1.03001E-04-1.58447E-01 1.30701E-13-3.03825E-14
 -1       801 1.32569E+01 1.80230E+00 4.37376E-02 1.79172E+00-3.19074E-13-1.89433E-13
 -1       802 1.42197E+01-6.17207E-01 7.18530E-02-5.01981E+00 2.13662E-13 1.14875E-13
 -1       803 2.36930E+01-4.05509E+00 1.94220E-02-3.41314E+00 3.38885E-13-6.76494E-14
 -1       804 1.53861E+01 2.04194E+00 8.65384E-03 1.42550E+00-3.11445E-13-1.41833E-13
 -1       805 1.18442E+01 5.71255E-01 7.84649E-02 3.54673E+00 1.30239E-13-1.78874E-13
 -1       806 1.99978E+01 2.22119E-02-5.29089E-06 3.05435E-03 5.88011E-14-3.49500E-13
 -1       807 2.52482E+01-3.97229E+00-5.59393E-03 2.09656E+00 1.44176E-13 3.12138E-13
 -1       808 2.00749E+01 6.37553E-01-1.47912E-06-3.71191E-01 1.37998E-13-6.06215E-14
 -1       809 2.52318E+01 4.05189E+00-6.73771E-02-1.74084E+00-3.46055E-13 2.11082E-13
 -1       810 1.10155E+01 1.07252E+00 8.10544E-02-2.77709E+00 1.81266E-13 3.44100E-13
 -1       811 2.00021E+01 1.18601E-02 1.12744E-05-4.63415E-03 3.26057E-13 3.68092E-14
 -1       812 1.99958E+01 2.09659E+00-3.41369E-04 1.76357E-01 1.86267E-13-1.62516E-13
 -1       813 2.56065E+01 3.10110E+00-5.74214E-02 2.06547E+00 2.02130E-14-2.12430E-13
 -1       814 1.83689E+01 1.39285E+00-1.99393E-04-1.05410E+00-4.00040E-14-1.59906E-13
 -1       815 2.64946E+01-1.50928E-01-4.34113E-02 1.70438E+00 2.06824E-13-1.78224E-13
 -1       816 1.77232E+01-2.28868E+00 4.97814E-02 5.37845E+00 1.43696E-13 1.85477E-13
 -1       817 2.01482E+01 1.75211E+00-1.38011E-03 4.13088E-01 2.23102E-13-4.89223E-14
 -1       818 2.01706E+01 1.70534E+00-7.54217E-04-4.04592E-01-1.71636E-15-1.72628E-13
 -1       819 1.97193E+01 7.15910E-01 7.84136E-05-6.92511E-01 7.84002E-14-4.53996E-14
 -1       820 1.14673E+01 1.75075E+00 7.25508E-02 1.95259E-01 7.13873E-14-2.60406E-13
 -1       821 1.99995E+01 1.98829E-02-6.24368E-06 4.86471E-03 7.77243E-14-5.19296E-13
 -1       822 2.00539E+01 1.97514E+00 1.96258E-04 3.02736E-01 2.04517E-13-1.11289E-13
 -1       823 1.99972E+01 2.22270E-02-6.51301E-06-1.92037E-03 7.42681E-14-2.73012E-13
 -1       824 1.99285E+01 6.33038E-01-1.85198E-05-5.41891E-01 1.36360E-13-6.84172E-14
 -1       825 2.00017E+01 1.63694E-02-7.68677E-06 5.59950E-03 2.21594E-13-8.50852E-13
 -1       826 2.36334E+01 3.51210E+00-2.20747E-02 1.28683E+00-1.59551E-15-1.40999E-13
 -1       827 2.02519E+01 9.66883E-01-3.01505E-04 1.12194E-01 1.60357E-13-5.25551E-14
 -1       828 2.00807E+01 1.92800E+00-4.06618E-04-2.71061E-01 8.36866E-14-2.22735E-13
 -1       829 1.99845E+01 2.12497E+00-4.16225E-04 3.03923E-02 1.77149E-13-1.99254E-13
 -1       830 1.99969E+01 2.30266E-02-5.36736E-06 6.04916E-04 3.71392E-14-4.65703E-13
 -1       831 1.44839E+01-9.04945E-01 5.19715E-02 4.99775E+00 1.91456E-13-2.04697E-16
 -1       832 2.02843E+01 8.61066E-01-1.99795E-05 7.01189E-03 1.09425E-14-1.25932E-13
 -1       833 2.02800E+01 5.65811E-01-2.31187E-05 2.02210E-01 1.76474E-14-6.65993E-14
 -1       834 2.02675E+01 3.41956E-01 8.54000E-06 3.57197E-01 1.27052E-14-7.36909E-14
 -1       835 2.02683E+01 1.54206E-01 2.60960E-06 4.80070E-01 4.08296E-15-1.88992E-14
 -1       836 2.03045E+01-2.93202E-02-2.57697E-06 5.75996E-01 3.15838E-14-2.24081E-14
 -1       837 2.03994E+01-2.35854E-01-1.35947E-05 6.43685E-01 1.18456E-13-3.36478E-14
 -1       838 2.05782E+01-4.85213E-01-3.68299E-05 6.72381E-01 8.21041E-14-1.93461E-14
 -1       839 2.08648E+01-7.82882E-01-7.70877E-05 6.38989E-01-3.64334E-15 4.85976E-14
 -1       840 2.12736E+01-1.10737E+00-9.45971E-05 5.06758E-01-9.82626E-15 7.12466E-14
 -1       841 2.17936E+01-1.39250E+00-5.37242E-05 2.30349E-01-3.06897E-14 9.81983E-14
 -1       842 2.23675E+01-1.51010E+00-5.24203E-04-2.22471E-01-7.66319E-14 1.87013E-13
 -1       843 2.28735E+01-1.26213E+00-9.23972E-04-8.36662E-01-1.43140E-13 2.55063E-13
 -1       844 2.31460E+01-4.94639E-01 2.47953E-04-1.44364E+00-1.02745E-13 2.32430E-13
 -1       845 2.30280E+01 8.31578E-01-1.02209E-02-1.72230E+00-1.31928E-13 2.27176E-13
 -1       846 2.27131E+01 2.24204E+00-2.77273E-03-1.36168E+00-1.40783E-13 8.71686E-14
 -1       847 2.23604E+01 3.15903E+00-2.20819E-02-3.64295E-01-5.75954E-14 5.99824E-15
 -1       848 2.30878E+01 2.66091E-01-7.40784E-03 1.71232E+00 8.65979E-14-1.22586E-14
 -1       849 2.30318E+01-8.33239E-01 3.48925E-04 1.26142E+00-3.63052E-15-8.85652E-14
 -1       850 2.26290E+01-1.35776E+00 2.76831E-06 6.31805E-01 8.69562E-14-5.54580E-14
 -1       851 2.20617E+01-1.41001E+00 9.67023E-04 9.68205E-02 4.13945E-14-9.85236E-15
 -1       852 2.14790E+01-1.19193E+00 5.79493E-04-2.63673E-01 2.68956E-13-8.97089E-14
 -1       853 2.09814E+01-8.80981E-01 5.66205E-05-4.56114E-01 1.00360E-13-1.23564E-13
 -1       854 2.05956E+01-5.66898E-01 2.14613E-05-5.27503E-01 1.28973E-13-5.05854E-14
 -1       855 2.03262E+01-3.08426E-01 1.36000E-05-5.21775E-01 5.99691E-14-2.62390E-14
 -1       856 2.01500E+01-1.17054E-01 6.93128E-06-4.75563E-01-4.94381E-14 1.60791E-13
 -1       857 2.00438E+01 1.13808E-02 3.07412E-06-4.11424E-01-1.70295E-13 7.47441E-14
 -1       858 1.99863E+01 8.83951E-02 4.54697E-06-3.43164E-01 1.61471E-13 2.90752E-14
 -1       859 1.99602E+01 1.27132E-01 3.40897E-06-2.78350E-01-6.20723E-14 1.06344E-13
 -1       860 1.99530E+01 1.39638E-01 1.49731E-06-2.20694E-01-1.11839E-13 1.67572E-13
 -1       861 1.99560E+01 1.35693E-01 2.34879E-07-1.71461E-01-3.09992E-13 2.30265E-13
 -1       862 1.99636E+01 1.22509E-01-2.74001E-08-1.30625E-01-3.50364E-13 2.25628E-13
 -1       863 1.99724E+01 1.05093E-01-1.49000E-07-9.75243E-02 2.81518E-14-1.75822E-13
 -1       864 1.99807E+01 8.66889E-02-1.35227E-07-7.12134E-02 1.97801E-13-4.86766E-13
 -1       865 1.99877E+01 6.92206E-02-3.73384E-08-5.06687E-02-3.52321E-14-5.07577E-13
 -1       866 1.99929E+01 5.36867E-02-2.17940E-07-3.49088E-02 1.46718E-13-3.92420E-13
 -1       867 1.99966E+01 4.04384E-02-6.21717E-07-2.30378E-02 1.60663E-13 1.46628E-13
 -1       868 1.99990E+01 2.94625E-02-1.47285E-05-1.42849E-02 3.16790E-13 2.97336E-13
 -1       869 1.48131E+01 1.87019E+00 5.08639E-03 3.00610E-01 1.07880E-13-1.85071E-13
 -1       870 1.63955E+01 1.74148E+00 1.98465E-03-7.16249E-02 6.84754E-14-1.48770E-13
 -1       871 2.41400E+01-3.10359E+00-1.10181E-03-1.30290E+00 1.15548E-13-1.54819E-13
 -1       872 1.85553E+01 1.20935E+00-2.57426E-04 3.78964E-01 7.65108E-14-2.75315E-14
 -1       873 1.99998E+01 2.26506E-02 1.47948E-05-8.95387E-03 1.15750E-13 3.08395E-13
 -1       874 2.49639E+01-1.33832E+00-5.56826E-03 1.11640E+00 1.59280E-13-1.10509E-13
 -1       875 1.95754E+01 5.81682E-01-8.92445E-06 3.17626E-01 3.86809E-14-9.18886E-14
 -1       876 1.97256E+01 4.44277E-01-1.65843E-05 2.66366E-01 1.09279E-13-1.48648E-13
 -1       877 1.98256E+01 3.37221E-01 6.44312E-06 2.15962E-01 2.62636E-13 3.21363E-13
 -1       878 1.98888E+01 2.58086E-01 6.33991E-06 1.72304E-01 5.68218E-14 4.55816E-13
 -1       879 1.99328E+01 1.93697E-01-2.63859E-06 1.32560E-01 8.98213E-14 3.34453E-13
 -1       880 1.99611E+01 1.44550E-01-2.60322E-07 9.95831E-02-3.69572E-14 4.71850E-13
 -1       881 1.99791E+01 1.07125E-01-6.16188E-07 7.29524E-02-2.48240E-13 2.98857E-13
 -1       882 1.99902E+01 7.87218E-02 2.31532E-07 5.19813E-02-1.88313E-13 2.02196E-13
 -1       883 1.99965E+01 5.81341E-02-2.80893E-07 3.64940E-02-2.81649E-13 1.45752E-13
 -1       884 2.00003E+01 4.16363E-02-1.44183E-08 2.40883E-02-2.09910E-13-1.17594E-13
 -1       885 2.00020E+01 2.92032E-02 3.87663E-06 1.50071E-02 1.72234E-15-3.95742E-13
 -1       886 2.00020E+01 2.23118E-02 2.64576E-06 9.58170E-03-7.74881E-14-5.17829E-13
 -1       887 2.51055E+01-5.90243E-01-1.44867E-02-1.55289E+00-1.10038E-13 3.18842E-13
 -1       888 2.01874E+01 1.05328E+00 2.51617E-03 1.83700E-02 1.55387E-13-4.99532E-14
 -1       889 2.49852E+01-2.72579E+00-8.93492E-03 2.40483E-01-2.33301E-14 2.69824E-13
 -1       890 2.43248E+01 1.85410E+00-2.05330E-02-1.93551E+00-1.60932E-13 3.01282E-13
 -1       891 1.99969E+01 2.73670E-02-7.85383E-06-7.01512E-03 1.36287E-13 4.09770E-13
 -1       892 2.31494E+01-3.35115E+00 4.22313E-03 2.57668E+00 8.59657E-14 1.49238E-13
 -1       893 2.00146E+01 2.06705E+00-6.15589E-04-1.22412E-01 1.38977E-13-2.01778E-13
 -1       894 1.40331E+01 8.62351E-01 3.19945E-02-3.10722E+00 1.01302E-13-4.00955E-14
 -1       895 1.73009E+01-1.05942E+00 1.92287E-02-4.36956E+00 2.99471E-13 1.25151E-13
 -1       896 1.90319E+01 9.61237E-01-7.42143E-05 3.88467E-01 5.44164E-14-5.50723E-14
 -1       897 1.75803E+01 1.50739E+00-7.70593E-04-3.29406E-01 1.35231E-14-1.33846E-13
 -1       898 1.93551E+01 7.52473E-01 8.50961E-06 3.62066E-01 1.64290E-13-1.55705E-13
 -1       899 2.00986E+01 8.39544E-01-2.22262E-04-1.69026E-01 1.50315E-13-1.04480E-13
 -1       900 1.90036E+01 1.02488E+00-8.63996E-05-4.76853E-01 5.35775E-14-3.62865E-14
 -1       901 2.45617E+01 1.01425E+00-2.38033E-02 2.00430E+00 1.35050E-13-2.65607E-13
 -1       902 2.09231E+01-2.73227E+00 6.37370E-03-3.82559E+00 2.57546E-13 2.95987E-16
 -1       903 2.02902E+01-2.57386E+00 1.27193E-02 4.07701E+00 1.39142E-13 1.50144E-13
 -1       904 2.02529E+01 1.23081E+00 2.27292E-04-1.90630E-01 5.61960E-15-1.44334E-13
 -1       905 1.84056E+01 1.24682E+00-4.33759E-04-4.16518E-01 2.32162E-14-6.01913E-14
 -1       906 1.28703E+01 1.99458E+00 4.38083E-02-1.33312E-01-2.92221E-13-2.66939E-14
 -1       907 1.94228E+01 8.60888E-01 2.82030E-05-4.70687E-01 8.35649E-14-8.53289E-14
 -1       908 2.28315E+01 1.72503E+00-3.03732E-03 1.63025E+00 5.98809E-14 8.89588E-15
 -1       909 1.78649E+01 1.48334E+00-4.72396E-05 3.07240E-01 1.69700E-13-1.19662E-13
 -1       910 1.32328E+01 1.42051E+00 2.10336E-02 1.91211E+00 1.59825E-13-9.62268E-14
 -1       911 1.68701E+01 1.74967E+00 1.14257E-03 1.39219E-01 4.47660E-14-1.26434E-13
 -1       912 1.99985E+01 2.72679E-02-8.90543E-06 8.15180E-03 2.01770E-13-7.20410E-13
 -1       913 1.76326E+01-9.97246E-01 2.40296E-02 4.05370E+00 2.27385E-13 1.34329E-13
 -1       914 1.99949E+01 3.06691E-02-4.96268E-06-3.81499E-03 2.54939E-13-1.11773E-13
 -1       915 2.01865E+01 1.44621E+00 1.45717E-03-1.25683E-01 5.67713E-14-1.41465E-13
 -1       916 2.00825E+01 1.65648E+00-1.03553E-04 8.27891E-02 1.80197E-13-1.48580E-13
 -1       917 1.99516E+01 7.53837E-01-6.59923E-06-3.09746E-01 1.18646E-13-1.00575E-13
 -1       918 2.01401E+01 1.21527E+00-1.56842E-04 5.58487E-02 1.81583E-13-8.16564E-14
 -1       919 1.55020E+01 1.92476E+00 1.98086E-03-1.49465E-01-2.02129E-13-6.66908E-14
 -1       920 2.01104E+01 1.44610E+00-6.70132E-04 9.97570E-02 1.78800E-13-1.56609E-13
 -1       921 1.44279E+01 4.67335E-01 2.72843E-02 3.27745E+00 2.24130E-13-2.59953E-14
 -1       922 1.99944E+01 3.26376E-02 3.01609E-06 2.70211E-03 3.64091E-13-2.32377E-13
 -1       923 1.99961E+01 3.06237E-02-2.03802E-06 5.84292E-03 1.92300E-13-8.21698E-14
 -1       924 2.02504E+01 8.58534E-01-4.48346E-04 1.05111E-01 5.14872E-14-3.93070E-14
 -1       925 2.02381E+01 5.80137E-01 2.56000E-05 2.69801E-01 2.21352E-14 1.42126E-14
 -1       926 2.02152E+01 3.59832E-01 3.75488E-05 4.14055E-01 1.09294E-14-1.95451E-14
 -1       927 2.02060E+01 1.63853E-01 1.08736E-06 5.50751E-01 2.73380E-14-4.70454E-15
 -1       928 2.02386E+01-4.17363E-02 1.14071E-07 6.84244E-01 8.26887E-14 1.43366E-14
 -1       929 2.03463E+01-2.89912E-01-1.21533E-05 8.12253E-01 9.07254E-14-1.64720E-14
 -1       930 2.05681E+01-6.06441E-01-1.51716E-05 9.20075E-01 1.09445E-13 2.00692E-14
 -1       931 2.09469E+01-1.00205E+00-8.03905E-05 9.72780E-01 6.53326E-14 1.00686E-13
 -1       932 2.15183E+01-1.45132E+00 1.50672E-04 9.10128E-01 6.46876E-15 1.69362E-13
 -1       933 2.22882E+01-1.85996E+00 1.54466E-03 6.40757E-01-5.97150E-15 1.59709E-13
 -1       934 2.31750E+01-2.00847E+00 1.49479E-03 8.57438E-02-6.02121E-14 1.96412E-13
 -1       935 2.00985E+01 1.63677E+00 1.92474E-04 8.33039E-03 1.29766E-13-1.68188E-13
 -1       936 2.35554E+01-1.77763E+00-8.96656E-03 4.10867E-01 9.30198E-14-1.08945E-13
 -1       937 2.27255E+01-1.91368E+00-1.05712E-03-2.75735E-01 1.73057E-13-7.01402E-14
 -1       938 2.18659E+01-1.62019E+00-3.43902E-03-6.88824E-01 1.01584E-13 1.67184E-16
 -1       939 2.11205E+01-1.15926E+00-4.85339E-03-8.52353E-01 6.99863E-14-1.41961E-13
 -1       940 2.05938E+01-7.23460E-01 7.77806E-05-8.56850E-01-4.91158E-14-3.34500E-13
 -1       941 2.02516E+01-3.80345E-01 2.71419E-05-7.68168E-01 1.88969E-13-3.22876E-13
 -1       942 2.00417E+01-1.30927E-01 3.45772E-05-6.48388E-01 8.43946E-14-2.87978E-13
 -1       943 1.99269E+01 3.32280E-02 2.77691E-06-5.26203E-01-2.90081E-14-1.20341E-13
 -1       944 1.98752E+01 1.29598E-01 1.60343E-06-4.15654E-01-1.21041E-13-1.07580E-13
 -1       945 1.98621E+01 1.76928E-01 7.94450E-06-3.21769E-01 2.46718E-13-8.82285E-14
 -1       946 1.98707E+01 1.90734E-01 3.79508E-07-2.45314E-01-4.32826E-14 2.53422E-14
 -1       947 1.98895E+01 1.84005E-01-2.84448E-06-1.84609E-01-2.31110E-13 3.73097E-14
 -1       948 1.99115E+01 1.65811E-01-3.07456E-06-1.37155E-01-2.95652E-13 2.74499E-14
 -1       949 1.99329E+01 1.42421E-01-2.66100E-06-1.00541E-01-3.45034E-13 3.53287E-14
 -1       950 1.99515E+01 1.17905E-01-2.10859E-06-7.25807E-02-8.36851E-14-5.53555E-14
 -1       951 1.99667E+01 9.46752E-02-1.28815E-06-5.14221E-02-7.79990E-14-3.70969E-13
 -1       952 1.99784E+01 7.39764E-02-1.35510E-06-3.55617E-02 1.71803E-13-2.58093E-13
 -1       953 1.99870E+01 5.63034E-02-2.14809E-06-2.38592E-02 5.10544E-13-9.19304E-14
 -1       954 1.99929E+01 4.16714E-02 1.05764E-05-1.52780E-02 4.66872E-13 2.33120E-13
 -1       955 1.60795E+01 1.31144E+00 3.52501E-03 1.35076E+00 1.06420E-13 1.30596E-14
 -1       956 1.80318E+01 1.15963E+00-3.28935E-04 3.30290E-01 2.76233E-14 4.08897E-14
 -1       957 2.14932E+01-2.35507E+00 5.38608E-03 2.65670E+00-2.40293E-14-7.27338E-14
 -1       958 1.97929E+01 3.23971E-01-1.81235E-05 1.27659E-01-1.29253E-13 6.95368E-13
 -1       959 1.95535E+01 5.30873E-01-1.86964E-05 1.52579E-01 9.37637E-14-4.26356E-14
 -1       960 1.98628E+01 2.48895E-01-7.01332E-06 1.06185E-01 6.86669E-14 9.67427E-13
 -1       961 1.99111E+01 1.89567E-01-2.46963E-06 8.47624E-02-4.50998E-15 7.34756E-13
 -1       962 1.99441E+01 1.43087E-01-2.35402E-06 6.52944E-02-5.41177E-14 6.04694E-13
 -1       963 1.99663E+01 1.06957E-01-7.22882E-07 4.86720E-02-1.79658E-13 4.67883E-13
 -1       964 1.99803E+01 8.02516E-02 1.62393E-06 3.56017E-02-7.16524E-14 1.99079E-13
 -1       965 1.99899E+01 5.84343E-02-2.80356E-06 2.46916E-02 3.69685E-16-2.65912E-13
 -1       966 1.99956E+01 4.18161E-02 1.39817E-07 1.62910E-02-1.71686E-14-2.43062E-13
 -1       967 1.99973E+01 3.41225E-02 5.11279E-06 1.16854E-02 2.40004E-13-6.19967E-13
 -1       968 1.96063E+01-1.39299E+00 2.20298E-03 3.11437E+00 7.13354E-14-1.10766E-13
 -1       969 2.21854E+01-2.44509E+00 9.20292E-03-2.06859E+00 2.16726E-13-1.48126E-13
 -1       970 1.96939E+01 4.16769E-01 3.61232E-06 1.45195E-01-1.01994E-13 1.51137E-13
 -1       971 1.86825E+01 1.02453E+00-4.72855E-04 3.96370E-02 4.48614E-14 2.43848E-14
 -1       972 2.39111E+01-1.84497E+00 1.62627E-03-5.16175E-01-8.83252E-14 2.28459E-13
 -1       973 1.97319E+01 7.64149E-01 2.26032E-05-4.11455E-01 1.06536E-13-8.30588E-14
 -1       974 2.01398E+01 1.55995E+00 1.12984E-03-6.22031E-02 1.16570E-13-1.67749E-13
 -1       975 1.48599E+01 1.72242E+00 5.07107E-03-1.12179E+00-2.55004E-13-2.91742E-13
 -1       976 1.99941E+01 3.23464E-02-1.15460E-06-6.41837E-04 2.87917E-13-5.87082E-13
 -1       977 2.33900E+01-2.70924E+00 6.55914E-03 1.18433E+00-6.00602E-14 1.39542E-13
 -1       978 1.86924E+01 1.01034E+00 1.59593E-06-1.85787E-02 8.54879E-14-4.80203E-13
 -1       979 1.71825E+01 1.27984E+00-2.23550E-04 7.34858E-01 5.04383E-14 5.82143E-14
 -1       980 1.93598E+01-1.30800E+00 7.00465E-03-3.29268E+00 3.74056E-13 1.57919E-13
 -1       981 1.64306E+01 3.12776E-01 6.10573E-03-3.07092E+00 3.62731E-13-1.45561E-13
 -1       982 2.02273E+01 1.12479E+00-7.60624E-04-4.01473E-03 6.36397E-14-7.34656E-14
 -1       983 1.77630E+01-1.00924E-01 9.03192E-03 2.86787E+00 1.79945E-13 7.73668E-14
 -1       984 1.91634E+01 9.00949E-01-4.96129E-05-1.15409E-01 5.72013E-14 7.02716E-14
 -1       985 1.99886E+01 4.74044E-02-1.14667E-05-9.51813E-03 5.89542E-13 2.32429E-13
 -1       986 1.90759E+01 8.31446E-01-2.12991E-05 9.04528E-02-1.23841E-14-3.24273E-13
 -1       987 1.81592E+01 1.19429E+00 1.45918E-05-2.24571E-01 2.59960E-13-5.21535E-13
 -1       988 1.74314E+01 1.35225E+00 1.02861E-03-5.75160E-01 5.40190E-14-5.12685E-13
 -1       989 2.00491E+01 9.63897E-01 1.32319E-04-5.12125E-02 1.67029E-13-7.43713E-14
 -1       990 1.99894E+01 4.46338E-02 5.14181E-06 7.94395E-04 2.15612E-13-4.70579E-13
 -1       991 1.93558E+01 6.68631E-01-3.66902E-05 1.39992E-01-4.22078E-14-8.90606E-14
 -1       992 2.01234E+01 1.28727E+00-6.60032E-05 7.31978E-02 1.08144E-13-1.21326E-13
 -1       993 1.99909E+01 4.32300E-02 3.29118E-06 6.01890E-03 2.50926E-13-1.77426E-13
 -1       994 2.00990E+01 1.17307E+00 4.32450E-04 6.78480E-02 1.09306E-13-1.02389E-13
 -1       995 2.01532E+01 5.85937E-01-3.14579E-04 3.11808E-01-8.98384E-15-1.51950E-13
 -1       996 2.01013E+01 3.87694E-01 1.29667E-04 4.58147E-01 1.74260E-14-1.33717E-13
 -1       997 2.00614E+01 2.00136E-01-1.28569E-05 6.22619E-01 7.54832E-14-5.37341E-14
 -1       998 2.00669E+01-1.31365E-02-1.29990E-04 8.16558E-01 1.20148E-13-3.85536E-14
 -1       999 2.01602E+01-2.91373E-01-2.53741E-06 1.03745E+00 7.24875E-14-2.87362E-14
 -1      1000 2.03978E+01-6.73976E-01-2.24927E-04 1.27206E+00 1.13225E-13-1.71664E-14
 -1      1001 2.08550E+01-1.18689E+00-3.61816E-04 1.46902E+00 1.19887E-13 1.50482E-14
 -1      1002 2.16110E+01-1.80784E+00 2.43139E-04 1.53421E+00 5.03220E-14 9.51816E-14
 -1      1003 2.04755E+01-8.44542E-01 3.18761E-03-1.33606E+00 6.57640E-14-8.89356E-14
 -1      1004 2.00534E+01-3.98108E-01-1.32238E-04-1.10292E+00 1.68722E-13 1.34022E-13
 -1      1005 1.98402E+01-9.60604E-02 9.80922E-05-8.68409E-01 9.92345E-14-8.06299E-15
 -1      1006 1.97422E+01 9.55385E-02-3.21856E-05-6.62258E-01 1.18721E-13-1.82456E-15
 -1      1007 1.97167E+01 2.02057E-01-3.56892E-05-4.92674E-01-8.87812E-14 4.90759E-14
 -1      1008 1.97317E+01 2.49786E-01 7.50970E-05-3.61005E-01-3.78884E-14 1.60245E-13
 -1      1009 1.97668E+01 2.57704E-01-1.19264E-05-2.60632E-01 9.19194E-14-1.02529E-13
 -1      1010 1.98084E+01 2.43141E-01-1.82452E-05-1.86825E-01-4.64879E-14-8.26050E-14
 -1      1011 1.98495E+01 2.16507E-01-1.94348E-05-1.32714E-01-3.88073E-13 6.77241E-14
 -1      1012 1.98864E+01 1.84798E-01-1.57072E-05-9.35391E-02-2.67751E-13 1.98034E-13
 -1      1013 1.99174E+01 1.52625E-01-1.28479E-05-6.53492E-02-1.84122E-13 9.68135E-14
 -1      1014 1.99422E+01 1.22637E-01-1.02434E-05-4.51340E-02-1.26847E-13 8.23056E-14
 -1      1015 1.99613E+01 9.61573E-02-6.47440E-06-3.06722E-02 2.75300E-14 2.61186E-13
 -1      1016 1.99753E+01 7.35674E-02-1.29632E-05-2.04576E-02 3.46155E-13 3.66535E-13
 -1      1017 1.99827E+01 5.97281E-02 1.89443E-06-1.43104E-02 5.71526E-13 3.59291E-13
 -1      1018 1.65460E+01 1.15288E+00-3.41983E-03-1.62965E+00-4.25905E-14-6.48994E-13
 -1      1019 1.81040E+01 3.26648E-01 2.59572E-03 1.93007E+00 8.07573E-14-4.49942E-14
 -1      1020 1.86621E+01 7.91021E-01 2.97025E-05 6.60863E-01 1.64908E-14 7.49254E-14
 -1      1021 1.97969E+01 2.93426E-01-1.90375E-05 5.37024E-02-3.48676E-13 1.90303E-13
 -1      1022 1.99396E+01 1.34774E-01-5.95258E-06 3.51008E-02-1.89166E-14 6.17207E-13
 -1      1023 1.99613E+01 1.02884E-01-3.47751E-06 2.73822E-02 9.94089E-14 3.34728E-13
 -1      1024 1.99769E+01 7.61369E-02-2.95336E-05 1.99089E-02 1.54384E-13 2.73942E-13
 -1      1025 1.99873E+01 5.56021E-02 2.73237E-05 1.39516E-02 2.91628E-14-7.54437E-14
 -1      1026 2.06668E+01-1.49009E+00 5.06981E-05 2.21627E+00 1.00746E-13-6.54750E-15
 -1      1027 1.81898E+01-6.24674E-02 6.84188E-04-2.49294E+00 3.95369E-13 7.94467E-14
 -1      1028 2.06828E+01-1.47337E+00-9.42774E-06-2.14877E+00 1.15038E-13-1.42494E-13
 -1      1029 1.99071E+01 1.76826E-01-1.27935E-05 4.34599E-02 1.36449E-13 7.83991E-13
 -1      1030 1.98611E+01 2.29184E-01-1.74990E-05 5.05597E-02-2.97598E-14 5.32550E-13
 -1      1031 1.64625E+01 1.41427E+00 3.37241E-03-1.13726E+00-5.35665E-14-6.43438E-13
 -1      1032 1.99884E+01 4.67748E-02 1.14120E-06-4.08910E-03 2.71412E-13-3.56748E-13
 -1      1033 1.98739E+01 8.22115E-01-1.29005E-04-1.17371E-01 1.26162E-13-3.54539E-14
 -1      1034 2.01540E+01 1.23864E+00-4.30165E-04 6.17199E-02 8.72086E-14-1.51455E-13
 -1      1035 1.92769E+01-6.23763E-01-1.22081E-03 2.35343E+00 9.25661E-14-1.04728E-13
 -1      1036 1.99939E+01 3.91456E-02 8.35232E-06 9.41440E-03 4.07027E-13-2.56052E-13
 -1      1037 2.01910E+01 8.38131E-01 4.67947E-05 1.76623E-01 6.88663E-14-1.47151E-13
 -1      1038 1.95332E+01 8.16863E-01-3.92932E-04-1.83467E-01 8.14506E-14 4.72955E-15
 -1      1039 1.99832E+01 5.86019E-02-4.88259E-05 4.98371E-03 2.16182E-13-1.85459E-13
 -1      1040 2.26701E+01-2.43767E+00-1.32093E-02 1.34596E+00-3.67345E-14 2.03082E-13
 -1      1041 1.90901E+01 7.74157E-01 2.42364E-04 3.41114E-01 3.72857E-14 5.33484E-14
 -1      1042 1.89452E+01 7.82785E-01-4.33796E-05-2.62356E-01-1.35230E-13-7.47712E-14
 -1      1043 1.85891E+01 8.73668E-01 1.14500E-04-5.15936E-01 8.79531E-14-3.61346E-13
 -1      1044 1.81435E+01 9.13928E-01 8.92581E-04-9.14667E-01 1.30003E-13-7.01690E-13
 -1      1045 1.97098E+01 3.69781E-01-2.21218E-05 4.84872E-02-4.04879E-13 2.19074E-13
 -1      1046 1.95606E+01-5.58851E-01 1.44050E-03-1.98893E+00 3.02486E-13 2.94845E-13
 -1      1047 1.95916E+01 4.59495E-01-2.38670E-05 2.82527E-02-1.61286E-13 1.60683E-13
 -1      1048 1.94331E+01 5.62100E-01-9.53032E-06-1.84807E-02-1.89136E-13-4.68628E-14
 -1      1049 1.99809E+01 6.26956E-02 1.29011E-04-1.78028E-03 4.69840E-13-2.91782E-13
 -1      1050 1.83274E+01 6.53682E-01 5.81577E-04 1.19957E+00 1.13443E-13-6.86060E-14
 -1      1051 2.01368E+01 9.24921E-01 1.22738E-04 1.51527E-01 5.49318E-14-1.31820E-13
 -1      1052 2.00092E+01 8.99880E-01-1.50922E-04 7.11834E-02 8.14780E-14-2.26594E-14
 -1      1053 1.76312E+01 8.42166E-01 9.22542E-03-1.51136E+00 2.75541E-14-5.96973E-13
 -1      1054 2.00751E+01 9.17952E-01 8.20518E-05 1.28229E-01 4.49912E-14-9.08472E-14
 -1      1055 1.99125E+01 4.45230E-01-1.29999E-04 4.73458E-01 7.77276E-14-8.93658E-14
 -1      1056 1.98159E+01 2.86392E-01 2.29613E-05 6.81279E-01 9.83873E-14-1.28547E-13
 -1      1057 1.97546E+01 8.88268E-02 2.71626E-04 9.54948E-01 7.88753E-14-1.46402E-13
 -1      1058 1.97799E+01-1.98648E-01 4.71924E-04 1.30532E+00 1.13862E-13-7.20484E-14
 -1      1059 1.99627E+01-6.31052E-01 1.05060E-03 1.71983E+00 1.30977E-13-4.26284E-14
 -1      1060 1.96253E+01-3.11086E-01 7.29730E-04-1.51953E+00 1.24691E-13 2.85697E-13
 -1      1061 1.94890E+01 1.78734E-02 1.03526E-04-1.11902E+00 5.31755E-14 3.37947E-13
 -1      1062 1.94583E+01 2.20721E-01-3.34079E-04-8.04887E-01 5.61583E-15 4.02199E-13
 -1      1063 1.94956E+01 3.20220E-01 2.37128E-04-5.62057E-01-4.09965E-14 2.18722E-13
 -1      1064 1.95563E+01 3.56310E-01-4.21220E-04-3.85326E-01-6.52009E-14 7.12564E-14
 -1      1065 1.96409E+01 3.45982E-01 7.87403E-04-2.58106E-01-1.41917E-13-4.78699E-14
 -1      1066 1.97126E+01 3.15531E-01-9.19432E-05-1.73761E-01 7.15625E-14-1.67116E-13
 -1      1067 1.97794E+01 2.75476E-01 7.10673E-05-1.14007E-01-2.22116E-13-2.69029E-13
 -1      1068 1.98355E+01 2.32072E-01 5.14828E-05-7.42639E-02-3.14695E-13-2.06125E-13
 -1      1069 1.98808E+01 1.90184E-01 3.69725E-05-4.79264E-02-2.56444E-13-1.05387E-13
 -1      1070 1.99162E+01 1.52215E-01 2.52735E-05-3.06288E-02-1.40806E-13-7.98003E-14
 -1      1071 1.99431E+01 1.19264E-01 1.61086E-05-1.93468E-02 1.35745E-13-5.20001E-14
 -1      1072 1.99629E+01 9.12843E-02-5.69699E-05-1.14748E-02 1.80691E-13-1.34194E-13
 -1      1073 1.99642E+01 9.27673E-02 1.06325E-04 9.30634E-03 1.56136E-13 1.38221E-13
 -1      1074 1.99441E+01 1.21044E-01-1.81313E-05 1.01640E-02 9.04563E-14 7.73742E-14
 -1      1075 1.85836E+01 3.64930E-01-2.64564E-03-1.49787E+00 1.11076E-13 6.46094E-14
 -1      1076 1.92217E+01 6.72764E-01-6.70738E-05-1.07151E-01-6.62844E-15-1.49625E-13
 -1      1077 1.99810E+01 6.19988E-02 4.64118E-05-8.16572E-03 6.27479E-13 2.07806E-13
 -1      1078 1.90614E+01 7.27963E-03 3.76194E-04 1.64584E+00 8.80680E-14-4.30613E-14
 -1      1079 1.99153E+01 1.57728E-01-5.55785E-06 9.93707E-03 3.30842E-14 3.94018E-14
 -1      1080 2.00210E+01 6.02867E-01 2.61531E-04 3.15390E-01 3.97152E-14-1.26921E-13
 -1      1081 1.97703E+01 7.51788E-01 1.08251E-04 9.48399E-02 6.63010E-14 7.04875E-14
 -1      1082 1.92215E+01 5.71844E-01-3.84989E-04-3.83119E-01-4.75782E-14-6.65505E-14
 -1      1083 1.94841E+01 7.33936E-01 1.12673E-03 1.78549E-01 7.68699E-16 5.98936E-14
 -1      1084 1.98754E+01 2.02255E-01-1.08883E-05 6.46636E-03-3.22548E-13-2.68338E-13
 -1      1085 1.90200E+01 5.87920E-01-2.38969E-04-6.27294E-01-1.80259E-13-7.31597E-14
 -1      1086 1.92491E+01 4.79655E-01-4.51046E-04 7.75935E-01 7.27393E-14-2.80226E-14
 -1      1087 1.99731E+01 7.53486E-02-6.48753E-05-1.00421E-02 3.87109E-13-6.73395E-14
 -1      1088 1.87862E+01 5.45157E-01 2.65685E-04-9.91899E-01 1.04527E-13-5.22259E-14
 -1      1089 1.97507E+01 3.15817E-01-3.37622E-05-2.25283E-02-1.82353E-13-2.16091E-13
 -1      1090 1.98218E+01 2.54972E-01-2.11521E-05-2.92389E-03-3.59537E-13-3.77107E-13
 -1      1091 1.96594E+01 3.82840E-01 1.41624E-05-5.85827E-02-3.45224E-13-1.65058E-14
 -1      1092 1.95377E+01 4.56334E-01-3.21154E-04-1.19941E-01-1.74143E-13 1.35303E-13
 -1      1093 1.91057E+01 3.04931E-01 4.85898E-05 1.16382E+00 1.31456E-13-5.39250E-14
 -1      1094 1.96493E+01 5.49249E-01 2.18764E-05 4.36495E-01 6.69297E-14-2.05833E-14
 -1      1095 1.93984E+01 5.21319E-01 4.34143E-04-2.19431E-01-1.53164E-13 1.57116E-13
 -1      1096 1.98961E+01 7.04702E-01-3.74949E-04 2.05773E-01 6.14617E-14 3.69445E-14
 -1      1097 2.78938E+01 9.06209E+00 2.31296E+00-6.66136E+00-4.60187E-14 6.01019E-13
 -1      1098 2.05538E+01 6.22996E+00 2.12679E-01-3.86216E+00-1.84852E-14-2.39753E-13
 -1      1099 1.94593E+01 5.86114E+00 7.78525E-02-2.83714E+00-9.68670E-15-5.19897E-13
 -1      1100 1.90529E+01 5.73437E+00 6.16661E-02-2.17944E+00-4.39232E-15-6.02963E-13
 -1      1101 1.88602E+01 5.67541E+00 5.77611E-02-1.64649E+00-2.77556E-16-6.15827E-13
 -1      1102 1.87558E+01 5.64304E+00 5.42914E-02-1.18623E+00 2.43902E-15-5.87627E-13
 -1      1103 1.86968E+01 5.62450E+00 5.15266E-02-7.69138E-01 1.84922E-15-5.50946E-13
 -1      1104 1.86656E+01 5.61456E+00 4.95785E-02-3.75075E-01 4.75965E-15-5.05887E-13
 -1      1105 1.86565E+01 5.61160E+00 4.88535E-02 5.80709E-03 5.59904E-15-4.55490E-13
 -1      1106 1.86678E+01 5.61517E+00 4.94642E-02 3.86174E-01 6.03727E-15-4.04913E-13
 -1      1107 1.87014E+01 5.62583E+00 5.13714E-02 7.78975E-01 8.98240E-15-3.34750E-13
 -1      1108 1.87636E+01 5.64541E+00 5.44581E-02 1.19478E+00 9.48200E-15-2.41015E-13
 -1      1109 1.88703E+01 5.67846E+00 5.79107E-02 1.65451E+00 1.14006E-14-1.14750E-13
 -1      1110 1.90649E+01 5.73807E+00 6.19268E-02 2.18852E+00 1.31527E-14 7.57415E-14
 -1      1111 1.94734E+01 5.86546E+00 7.80646E-02 2.84922E+00 1.47660E-14 3.73351E-13
 -1      1112 2.05748E+01 6.23654E+00 2.13600E-01 3.87742E+00 1.24067E-14 8.81316E-13
 -1      1113 2.79601E+01 9.09392E+00 2.35284E+00 6.70302E+00-4.21885E-15 1.71715E-12
 -1      1114 2.87150E+01 3.59370E+00 1.25423E+00-4.19237E+00-1.69753E-13 1.10073E-12
 -1      1115 2.02114E+01-1.78206E-01-6.16248E-01-1.06369E-01-5.98757E-14 7.33552E-13
 -1      1116 1.88674E+01-9.68329E-02-2.35969E-01 6.31184E-02-1.85199E-14 2.57438E-13
 -1      1117 1.85796E+01-4.89932E-02-6.04267E-02 4.09547E-02-1.94987E-14-3.19605E-14
 -1      1118 1.85777E+01-2.59529E-02-1.68459E-02 2.74727E-02-1.01633E-14-2.99111E-13
 -1      1119 1.87247E+01-1.46086E-02-7.07155E-03 2.01809E-02-5.20829E-15-4.13360E-13
 -1      1120 1.89513E+01-8.10254E-03-3.61642E-03 1.58137E-02-1.71250E-15-5.31658E-13
 -1      1121 1.92183E+01-3.88290E-03-1.10511E-03 1.30391E-02-5.97395E-16-4.99809E-13
 -1      1122 1.94996E+01-6.49376E-04 1.42470E-03 1.11293E-02-6.08347E-15-5.73755E-13
 -1      1123 1.97737E+01 2.36854E-03 4.39387E-03 9.59104E-03-1.19802E-15-6.90725E-13
 -1      1124 2.00180E+01 5.64693E-03 8.18324E-03 7.96545E-03 1.13617E-14-8.47871E-13
 -1      1125 2.02054E+01 9.40040E-03 1.30058E-02 5.74279E-03 1.87023E-14-7.72564E-13
 -1      1126 2.03017E+01 1.35062E-02 1.86710E-02 2.36793E-03-5.19138E-15-8.55264E-13
 -1      1127 2.02677E+01 1.73810E-02 2.43267E-02-2.64727E-03-1.41491E-14-9.72354E-13
 -1      1128 2.00641E+01 1.98988E-02 2.82836E-02-9.48522E-03-1.55260E-14-1.00460E-12
 -1      1129 1.96640E+01 1.94940E-02 2.81384E-02-1.76823E-02-1.38101E-14-1.17979E-12
 -1      1130 1.90687E+01 1.46081E-02 2.14554E-02-2.58248E-02-2.24434E-14-1.25031E-12
 -1      1131 1.83247E+01 4.54016E-03 7.07832E-03-3.15522E-02 2.89396E-14-1.30174E-12
 -1      1132 1.75318E+01-9.59075E-03-1.33865E-02-3.21613E-02 3.06657E-14-1.27422E-12
 -1      1133 1.68323E+01-2.44172E-02-3.49728E-02-2.58298E-02 2.44212E-14-1.18885E-12
 -1      1134 1.63763E+01-3.52051E-02-5.06972E-02-1.29297E-02-4.28347E-15-1.12232E-12
 -1      1135 1.62732E+01-3.79817E-02-5.47277E-02 3.54898E-03-9.71315E-15-1.08041E-12
 -1      1136 1.65510E+01-3.17056E-02-4.55374E-02 1.90465E-02-1.74426E-14-1.18069E-12
 -1      1137 1.71457E+01-1.88600E-02-2.67722E-02 2.94525E-02-6.47095E-15-1.33490E-12
 -1      1138 1.79270E+01-4.04600E-03-5.20096E-03 3.28604E-02 1.86884E-14-1.13485E-12
 -1      1139 1.87448E+01 8.37704E-03 1.27396E-02 2.99763E-02 3.56610E-14-1.07072E-12
 -1      1140 1.94747E+01 1.60058E-02 2.34943E-02 2.31835E-02 3.55013E-14-9.12589E-13
 -1      1141 2.00419E+01 1.86071E-02 2.68025E-02 1.51704E-02-2.35981E-14-1.03935E-12
 -1      1142 2.04232E+01 1.73890E-02 2.45658E-02 7.94285E-03-1.06902E-15-7.89554E-13
 -1      1143 2.06336E+01 1.40179E-02 1.93480E-02 2.50935E-03 2.21416E-14-7.01754E-13
 -1      1144 2.07090E+01 9.94508E-03 1.33246E-02-9.49843E-04-1.32830E-14-6.45321E-13
 -1      1145 2.06908E+01 6.13328E-03 7.87915E-03-2.73752E-03-2.72828E-14-8.24973E-13
 -1      1146 2.06168E+01 3.06260E-03 3.64331E-03-3.33338E-03-4.61670E-14-1.37953E-12
 -1      1147 2.05165E+01 8.60502E-04 7.24786E-04-3.20115E-03-3.01948E-14-1.46638E-12
 -1      1148 2.04103E+01-5.49099E-04-1.05037E-03-2.70204E-03-1.90288E-14-1.53187E-12
 -1      1149 2.03109E+01-1.32984E-03-1.95877E-03-2.07865E-03 4.59981E-14-1.32293E-12
 -1      1150 2.02249E+01-1.66062E-03-2.27603E-03-1.47310E-03-5.36165E-16-1.27172E-12
 -1      1151 2.01546E+01-1.69888E-03-2.23012E-03-9.55034E-04-4.06860E-14-8.35157E-13
 -1      1152 2.01000E+01-1.56709E-03-1.98919E-03-5.47834E-04-3.80669E-15-6.63787E-13
 -1      1153 2.00594E+01-1.35226E-03-1.66657E-03-2.48670E-04 7.12557E-14-4.05529E-13
 -1      1154 2.00306E+01-1.11126E-03-1.33212E-03-4.21316E-05-1.05802E-13-5.56097E-13
 -1      1155 2.00113E+01-8.77892E-04-1.02434E-03 9.14224E-05 3.29533E-14-7.39888E-13
 -1      1156 1.99993E+01-6.69591E-04-7.60670E-04 1.71273E-04-2.18812E-14-1.23128E-12
 -1      1157 1.99929E+01-4.92826E-04-5.45202E-04 2.14154E-04-2.64353E-14-1.11275E-12
 -1      1158 1.99904E+01-3.47048E-04-3.73722E-04 2.33491E-04 3.82523E-14-9.07013E-13
 -1      1159 1.99906E+01-2.26970E-04-2.35999E-04 2.39115E-04 3.30058E-14-5.03653E-13
 -1      1160 1.99926E+01-1.24732E-04-1.14799E-04 2.36645E-04-6.25190E-14-3.76262E-13
 -1      1161 1.99955E+01-2.81232E-05 1.37454E-05 2.20587E-04 7.85072E-14 6.58498E-14
 -1      1162 1.99983E+01 6.24547E-05 1.68212E-04 1.73909E-04 2.05887E-14 3.19381E-13
 -1      1163 1.99997E+01 3.71301E-05 1.30500E-04 1.63724E-05 4.65436E-14 1.84414E-13
 -1      1164 2.90025E+01 3.69462E+00 1.34643E+00 4.31414E+00 4.03011E-14 2.30371E-12
 -1      1165 2.03407E+01-1.76038E-01-6.28611E-01 1.35706E-01 9.83241E-15 2.22472E-12
 -1      1166 1.88826E+01-9.89755E-02-2.49167E-01-6.30355E-02 1.17267E-14 1.95494E-12
 -1      1167 1.85733E+01-5.16714E-02-6.56931E-02-4.09557E-02 4.14599E-16 1.70871E-12
 -1      1168 1.85686E+01-2.78089E-02-1.94405E-02-2.69956E-02-5.70681E-15 1.61249E-12
 -1      1169 1.87239E+01-1.88857E-02-1.04953E-02-1.97800E-02 9.04181E-15 1.53344E-12
 -1      1170 1.89801E+01-1.35733E-02-9.29934E-03-1.49247E-02 2.39760E-15 1.46096E-12
 -1      1171 1.93247E+01-1.22905E-02-1.06457E-02-1.22094E-02 2.01870E-14 1.44294E-12
 -1      1172 1.97537E+01-1.37243E-02-1.44160E-02-1.12229E-02 1.01249E-14 1.36746E-12
 -1      1173 2.02901E+01-1.71134E-02-2.10610E-02-1.22464E-02-9.37033E-15 1.35302E-12
 -1      1174 2.09590E+01-2.39901E-02-3.14906E-02-1.60933E-02 6.44233E-16 1.39146E-12
 -1      1175 2.18410E+01-3.21204E-02-4.65916E-02-2.31412E-02-1.11673E-14 1.40935E-12
 -1      1176 2.30627E+01-4.20845E-02-6.59673E-02-3.73751E-02 5.07103E-15 1.35943E-12
 -1      1177 2.47311E+01-5.03539E-02-8.44953E-02-6.13285E-02 1.99406E-15 1.36444E-12
 -1      1178 2.69664E+01-4.88643E-02-8.45874E-02-9.66643E-02 2.32991E-14 1.34974E-12
 -1      1179 2.97792E+01-1.97328E-02-2.60275E-02-1.34748E-01-8.22758E-15 1.27741E-12
 -1      1180 3.27580E+01 5.21767E-02 1.42279E-01-1.39409E-01 1.13260E-14 1.45052E-12
 -1      1181 3.49178E+01 1.87722E-01 4.24129E-01-3.86326E-02 4.30211E-16 1.95594E-12
 -1      1182 3.42579E+01 3.22357E-01 6.05181E-01 2.81520E-01-1.31457E-14 2.29683E-12
 -1      1183 2.88221E+01 1.99060E-01 1.71524E-01 7.05835E-01 5.38666E-14 2.65243E-12
 -1      1184 2.08558E+01-1.89235E-01-8.56375E-01 7.00197E-01 6.76612E-14 2.33874E-12
 -1      1185 1.63627E+01-5.67268E-01-1.55638E+00 9.54651E-02-3.65055E-14 1.92513E-12
 -1      1186 1.83556E+01-4.41433E-01-1.24280E+00-5.77465E-01 2.90878E-14 1.66428E-12
 -1      1187 2.52767E+01-1.56070E-02-2.47481E-01-7.98893E-01 3.10914E-14 1.23657E-12
 -1      1188 3.20490E+01 3.12748E-01 4.78077E-01-5.17522E-01 2.51535E-16 9.49907E-13
 -1      1189 3.51705E+01 2.74153E-01 5.64982E-01-1.16151E-01 5.46577E-14 8.83349E-13
 -1      1190 3.42949E+01 1.25374E-01 2.95241E-01 1.04830E-01 1.98435E-14 5.16892E-13
 -1      1191 3.15282E+01 7.51386E-03 4.57394E-02 1.47110E-01-9.24000E-15 4.22148E-13
 -1      1192 2.85558E+01-4.09985E-02-6.87077E-02 1.16703E-01-2.56266E-14 6.94750E-13
 -1      1193 2.61255E+01-5.54169E-02-9.34471E-02 7.44660E-02 2.61154E-14 5.25732E-13
 -1      1194 2.42926E+01-4.86670E-02-7.97299E-02 4.77210E-02 4.70774E-14 1.21174E-13
 -1      1195 2.29386E+01-3.90598E-02-5.98756E-02 2.72104E-02-1.72739E-14 3.06127E-13
 -1      1196 2.19952E+01-2.93111E-02-4.21204E-02 1.50403E-02 1.47981E-14-8.34541E-14
 -1      1197 2.13452E+01-2.10014E-02-2.87762E-02 7.99892E-03-3.24413E-14 6.33261E-15
 -1      1198 2.09079E+01-1.62088E-02-2.02121E-02 3.46026E-03-1.68793E-14 4.71236E-13
 -1      1199 2.06071E+01-1.09692E-02-1.36465E-02 2.04747E-03-3.54621E-15 4.96898E-13
 -1      1200 2.03946E+01-7.76453E-03-9.31406E-03 8.17193E-04-1.42015E-14 4.03027E-13
 -1      1201 2.02498E+01-5.50016E-03-6.39725E-03 1.57810E-04 5.56179E-14 1.23391E-13
 -1      1202 2.01517E+01-3.89953E-03-4.41560E-03-1.84946E-04-1.22797E-13 3.83142E-13
 -1      1203 2.00862E+01-2.72270E-03-3.04400E-03-3.55826E-04 7.90881E-14 6.90390E-13
 -1      1204 2.00439E+01-2.07798E-03-2.17216E-03-4.89206E-04 7.01381E-14 2.84619E-13
 -1      1205 2.00169E+01-1.41612E-03-1.49785E-03-4.29893E-04 1.80257E-15 2.21881E-13
 -1      1206 2.00001E+01-9.95223E-04-1.02785E-03-4.13340E-04-7.48858E-15 3.80791E-14
 -1      1207 1.99908E+01-6.93112E-04-6.98568E-04-3.85576E-04 5.74601E-15 9.28052E-13
 -1      1208 1.99868E+01-4.64910E-04-4.63486E-04-3.54336E-04 1.09073E-13 6.43611E-13
 -1      1209 1.99863E+01-3.32260E-04-3.05636E-04-3.31132E-04 9.99640E-14-1.38916E-13
 -1      1210 1.99880E+01-1.99477E-04-1.82385E-04-2.99187E-04-1.24108E-14 4.07647E-13
 -1      1211 1.99911E+01-9.78691E-05-7.00565E-05-2.75977E-04 7.28762E-14 5.25307E-13
 -1      1212 1.99948E+01-3.44109E-06 5.55577E-05-2.48196E-04 6.85639E-14 4.86301E-13
 -1      1213 1.99981E+01 9.90733E-05 2.14285E-04-1.84906E-04-1.90153E-14 3.71739E-13
 -1      1214 1.99997E+01 4.81718E-05 1.30648E-04-9.76408E-06-1.17823E-13-2.86670E-13
 -1      1215 1.99998E+01-1.25287E-04 8.43811E-05-6.82485E-05 1.19429E-13-5.94513E-14
 -1      1216 1.99999E+01-1.66499E-03 1.65450E-04-1.85679E-04 1.57312E-12 7.76078E-14
 -1      1217 1.99998E+01-4.67081E-03-1.98182E-05-1.91970E-04 2.07060E-12-2.40735E-13
 -1      1218 1.99997E+01-7.46151E-03-1.19402E-04-1.44118E-04 4.43528E-13 8.60190E-15
 -1      1219 1.99997E+01-9.42912E-03-1.38324E-04-8.66663E-05 3.92507E-13 7.94239E-14
 -1      1220 1.99997E+01-1.04703E-02-1.12151E-04-3.81929E-05-1.07451E-12-1.84630E-13
 -1      1221 1.99998E+01-1.07881E-02-6.78428E-05-8.22405E-06-1.50844E-12 8.74613E-14
 -1      1222 1.99998E+01-1.06712E-02-2.83801E-05 7.86831E-06-4.22910E-13 9.83941E-14
 -1      1223 1.99998E+01-1.03738E-02-7.08552E-06 1.36564E-05-4.23444E-14-3.10077E-14
 -1      1224 1.99998E+01-1.00371E-02-9.49367E-06 1.65787E-05-1.25850E-12 1.56826E-14
 -1      1225 1.99998E+01-9.64538E-03-3.33605E-05 2.45129E-05-1.49535E-12 1.70248E-14
 -1      1226 1.99998E+01-9.04861E-03-6.85999E-05 4.34603E-05-2.56764E-12 4.74931E-15
 -1      1227 1.99997E+01-8.01284E-03-9.79731E-05 7.68372E-05-2.29738E-12 1.39587E-13
 -1      1228 1.99997E+01-6.32150E-03-9.16661E-05 1.23604E-04-1.34370E-12 1.21495E-13
 -1      1229 1.99998E+01-3.96254E-03-1.00517E-06 1.91996E-04-5.03324E-13 2.95207E-14
 -1      1230 1.99999E+01-1.49067E-03 1.46550E-04 1.92376E-04-1.86757E-13-1.79561E-14
 -1      1231 1.99998E+01-1.06949E-04 9.52998E-05 5.57692E-05-2.37810E-13 2.56865E-14
 -1      1232-1.17379E+00-2.72181E+01-3.97711E+00-2.59773E+00 1.59565E-12 1.63682E-13
 -1      1233-2.44385E+00-2.07725E+01-3.73447E+00-5.80594E+00 2.96585E-12 1.06160E-12
 -1      1234-1.86986E+00-8.33940E+00-2.90318E+00-3.33951E+00 3.31490E-12 1.85107E-12
 -1      1235 5.58638E+00 3.63572E+00-1.50067E+00 4.89475E+00 2.34057E-12 2.11253E-12
 -1      1236 2.33979E+01 9.96378E+00 6.60930E-01 1.47838E+01 1.57563E-12 1.99862E-12
 -1      1237 4.96838E+01 8.79060E+00 3.31940E+00 1.89885E+01 6.14842E-13 1.23812E-12
 -1      1238 7.26535E+01 4.22424E+00 5.47010E+00 1.22343E+01 1.30368E-13 1.62981E-13
 -1      1239 8.04143E+01 2.06301E+00 6.17892E+00-1.87747E+00 1.50331E-13-1.24606E-12
 -1      1240 6.82806E+01 5.13529E+00 5.02060E+00-1.50783E+01 7.00690E-13-2.32436E-12
 -1      1241 4.22449E+01 9.78270E+00 2.61945E+00-1.85554E+01 1.61693E-12-3.14615E-12
 -1      1242 1.71723E+01 9.04414E+00 7.03099E-02-1.20745E+01 2.05369E-12-2.56950E-12
 -1      1243 2.18185E+00 3.13680E-01-1.99498E+00-1.74254E+00 1.70730E-12-1.46683E-12
 -1      1244-2.61434E+00-1.28965E+01-3.25508E+00 4.92115E+00 7.81597E-13-4.44089E-13
 -1      1245-1.96063E+00-2.39435E+01-3.87002E+00 5.09815E+00-4.37983E-13 9.32587E-15
 -1      1246-9.65185E-01-2.76227E+01-3.96007E+00 8.30781E-01-1.72876E-12-7.41907E-14
 -1      1247-1.33595E+00-2.23568E+01-3.50482E+00-3.24687E+00-2.52842E-12-5.29368E-13
 -1      1248-1.45355E+00-1.09412E+01-2.61587E+00-3.20674E+00-2.67675E-12-1.04916E-12
 -1      1249 2.29891E+00 1.81900E+00-1.28883E+00 2.49871E+00-2.42073E-12-1.56530E-12
 -1      1250 1.28501E+01 1.04047E+01 2.31260E-01 1.13037E+01-1.90048E-12-1.92002E-12
 -1      1251 2.97376E+01 1.21381E+01 1.78843E+00 1.80779E+01-1.34592E-12-1.95133E-12
 -1      1252 4.98211E+01 8.27552E+00 3.11805E+00 1.82401E+01-5.87808E-13-1.28964E-12
 -1      1253 6.53634E+01 3.31597E+00 4.02331E+00 1.02861E+01-9.96425E-14-1.81632E-13
 -1      1254 6.93041E+01 1.78333E+00 4.21392E+00-2.50042E+00-1.27613E-13 1.03276E-12
 -1      1255 6.03739E+01 5.07486E+00 3.73126E+00-1.41571E+01-5.77233E-13 2.04103E-12
 -1      1256 4.28355E+01 1.00728E+01 2.69045E+00-1.93511E+01-1.18494E-12 2.43516E-12
 -1      1257 2.29055E+01 1.22414E+01 1.20599E+00-1.60533E+01-1.57652E-12 2.02371E-12
 -1      1258 7.39790E+00 7.53850E+00-4.17167E-01-7.41066E+00-1.62625E-12 1.39710E-12
 -1      1259-7.69588E-02-3.33271E+00-1.88119E+00 5.89522E-01-1.60894E-12 9.61675E-13
 -1      1260-1.58097E+00-1.59592E+01-2.99716E+00 3.86431E+00-8.80629E-13 3.02980E-13
 -1      1261-1.04806E+00-2.52450E+01-3.73033E+00 1.99379E+00 5.87974E-13 2.02720E-14
 -1      1262 2.22398E+01 1.83750E+00-7.22918E-01-2.76718E+00-6.75571E-14 3.63209E-13
 -1      1263 2.03780E+01 4.68680E+00-4.74641E-02-3.26001E+00-1.21556E-13-3.79613E-13
 -1      1264 2.08744E+01 4.80244E+00-1.11261E-01-4.11653E+00-1.70003E-13-2.30781E-13
 -1      1265 1.95604E+01 4.99610E+00-1.91489E-02-2.59942E+00-9.17669E-14-5.61651E-13
 -1      1266 1.98559E+01 5.09141E+00 1.62070E-03-2.99326E+00-1.11931E-13-4.92204E-13
 -1      1267 2.05517E+01 3.94854E+00-2.52177E-02-3.02149E+00-1.98966E-13-3.26281E-13
 -1      1268 1.92108E+01 5.09069E+00-3.45994E-03-2.01284E+00-4.34618E-14-6.14991E-13
 -1      1269 1.93621E+01 5.14669E+00 1.16047E-02-2.30678E+00-6.30190E-14-5.95770E-13
 -1      1270 1.97854E+01 4.37121E+00-2.32669E-02-2.43174E+00-1.31065E-13-4.67841E-13
 -1      1271 1.90242E+01 5.14073E+00 2.96365E-03-1.50956E+00-8.53657E-15-6.11051E-13
 -1      1272 1.91084E+01 5.17222E+00 1.34532E-02-1.75726E+00-2.11081E-14-6.17593E-13
 -1      1273 1.94155E+01 4.56759E+00-1.90673E-02-1.87213E+00-5.87846E-14-5.11410E-13
 -1      1274 1.89175E+01 5.17282E+00 5.75358E-03-1.07075E+00 2.46071E-14-5.81913E-13
 -1      1275 1.89666E+01 5.19124E+00 1.30180E-02-1.28717E+00 1.52586E-14-5.99331E-13
 -1      1276 1.92142E+01 4.68168E+00-1.56727E-02-1.39041E+00 3.40526E-15-5.07223E-13
 -1      1277 1.88542E+01 5.19472E+00 7.18852E-03-6.61726E-01 5.36767E-14-5.46185E-13
 -1      1278 1.88829E+01 5.20535E+00 1.18749E-02-8.64316E-01 4.74742E-14-5.68594E-13
 -1      1279 1.90961E+01 4.75388E+00-1.36018E-02-9.60423E-01 5.44376E-14-4.90233E-13
 -1      1280 1.88226E+01 5.20861E+00 8.23969E-03-2.75558E-01 7.63933E-14-4.98030E-13
 -1      1281 1.88358E+01 5.21348E+00 1.05926E-02-4.68150E-01 6.76013E-14-5.23056E-13
 -1      1282 1.90274E+01 4.79854E+00-1.24857E-02-5.60493E-01 9.96432E-14-4.44755E-13
 -1      1283 1.88173E+01 5.21534E+00 9.27656E-03 1.00757E-01 1.02133E-13-4.51727E-13
 -1      1284 1.88170E+01 5.21526E+00 9.38949E-03-8.83918E-02 9.46604E-14-4.79153E-13
 -1      1285 1.89958E+01 4.82066E+00-1.19860E-02-1.80207E-01 1.41225E-13-4.02258E-13
 -1      1286 1.88378E+01 5.21527E+00 1.04627E-02 4.79657E-01 1.24523E-13-3.93938E-13
 -1      1287 1.88238E+01 5.21019E+00 8.28336E-03 2.87577E-01 1.17327E-13-4.27708E-13
 -1      1288 1.89963E+01 4.82211E+00-1.19585E-02 1.93186E-01 1.74571E-13-3.61180E-13
 -1      1289 1.88872E+01 5.20833E+00 1.17564E-02 8.74183E-01 1.45826E-13-3.24091E-13
 -1      1290 1.88573E+01 5.19750E+00 7.15607E-03 6.72334E-01 1.36462E-13-3.63412E-13
 -1      1291 1.90294E+01 4.80243E+00-1.24144E-02 5.72151E-01 2.13874E-13-3.03337E-13
 -1      1292 1.89729E+01 5.19519E+00 1.29967E-02 1.29161E+00 1.68747E-13-2.22846E-13
 -1      1293 1.89224E+01 5.17627E+00 5.62569E-03 1.07599E+00 1.57308E-13-2.81900E-13
 -1      1294 1.90999E+01 4.75948E+00-1.34113E-02 9.66446E-01 2.46797E-13-2.35964E-13
 -1      1295 1.91190E+01 5.17561E+00 1.36110E-02 1.76494E+00 1.93342E-13-8.95187E-14
 -1      1296 1.90330E+01 5.14332E+00 2.74709E-03 1.51720E+00 1.80404E-13-1.67991E-13
 -1      1297 1.92210E+01 4.68689E+00-1.54910E-02 1.39453E+00 2.83977E-13-1.33317E-13
 -1      1298 1.93756E+01 5.14883E+00 1.17838E-02 2.31567E+00 2.08326E-13 1.10731E-13
 -1      1299 1.92227E+01 5.09208E+00-3.64377E-03 2.02075E+00 1.91840E-13-8.70137E-15
 -1      1300 1.94276E+01 4.56972E+00-1.88873E-02 1.87936E+00 3.10230E-13 3.55618E-15
 -1      1301 1.98734E+01 5.09296E+00 2.21003E-03 3.00561E+00 1.93297E-13 4.36845E-13
 -1      1302 1.95754E+01 4.99543E+00-1.93387E-02 2.60967E+00 1.84991E-13 2.46008E-13
 -1      1303 1.98021E+01 4.36908E+00-2.29366E-02 2.44106E+00 3.07277E-13 2.30232E-13
 -1      1304 2.08998E+01 4.82923E+00-9.71289E-02 4.13989E+00 1.41664E-13 9.15573E-13
 -1      1305 2.03978E+01 4.68403E+00-4.72697E-02 3.27621E+00 1.39028E-13 6.49931E-13
 -1      1306 2.05758E+01 3.93804E+00-2.43124E-02 3.03506E+00 2.63654E-13 5.68753E-13
 -1      1307 2.23322E+01 1.87229E+00-7.14576E-01 2.82495E+00 9.27036E-15 1.63880E-12
 -1      1308 2.19887E+01 1.30109E-01-3.99882E-01-1.26350E+00-1.55292E-13 4.53859E-13
 -1      1309 2.06902E+01 3.05180E-01-1.63665E-01-7.87081E-01-1.31548E-13 2.72046E-13
 -1      1310 2.01084E+01 1.53536E-01-7.30318E-02-3.83562E-01-1.06158E-13 2.14789E-13
 -1      1311 1.96616E+01 9.16393E-02-1.44704E-02-3.11531E-01-9.36716E-14 5.59483E-14
 -1      1312 2.09996E+01 3.67741E-01-1.03978E-01-1.23735E+00-2.29920E-13 4.84404E-14
 -1      1313 1.93239E+01 6.54684E-02 3.21317E-03-1.15329E-01-8.86669E-14 1.21084E-14
 -1      1314 1.91944E+01 4.25135E-02 1.34071E-02-9.69229E-02-8.24792E-14-1.10849E-13
 -1      1315 1.99843E+01 1.34581E-01-3.54026E-02-4.65873E-01-1.70933E-13-3.36571E-14
 -1      1316 1.90571E+01 3.31745E-02 1.32297E-02-4.21200E-03-6.38834E-14-1.61409E-13
 -1      1317 1.90670E+01 2.11654E-02 1.11130E-02 6.10947E-03-6.15567E-14-2.59903E-13
 -1      1318 1.95489E+01 5.76768E-02-8.96342E-03-1.26112E-01-1.42674E-13-1.16697E-13
 -1      1319 1.90386E+01 1.81005E-02 8.65821E-03 5.40166E-02-4.05223E-14-2.73967E-13
 -1      1320 1.91167E+01 1.10918E-02 6.40428E-03 5.97927E-02-3.96783E-14-3.28128E-13
 -1      1321 1.93897E+01 2.75054E-02-4.12342E-03 4.18005E-02-1.01930E-13-1.92610E-13
 -1      1322 1.91495E+01 1.00598E-02 4.47189E-03 8.55704E-02-2.20326E-14-3.43378E-13
 -1      1323 1.92624E+01 5.35920E-03 3.52643E-03 8.86316E-02-8.14106E-15-3.55757E-13
 -1      1324 1.93923E+01 1.36366E-02-2.89198E-03 1.31267E-01-6.66073E-14-2.05192E-13
 -1      1325 1.93295E+01 5.04283E-03 2.16007E-03 1.01419E-01 5.55307E-15-3.55787E-13
 -1      1326 1.94585E+01 1.46611E-03 1.98337E-03 1.02622E-01-3.85033E-15-3.63886E-13
 -1      1327 1.94879E+01 5.80476E-03-1.93992E-03 1.78585E-01-2.56804E-15-2.12074E-13
 -1      1328 1.95429E+01 1.27431E-03 9.71021E-04 1.06289E-01-1.45791E-14-3.58006E-13
 -1      1329 1.96750E+01-1.83042E-03 1.07938E-03 1.05927E-01-2.61774E-14-3.88885E-13
 -1      1330 1.96345E+01 2.64353E-04-9.57336E-04 1.99245E-01-2.67288E-14-2.26680E-13
 -1      1331 1.97641E+01-2.27051E-03 3.46260E-04 1.01604E-01-3.55699E-14-3.89633E-13
 -1      1332 1.98878E+01-5.29294E-03 4.87842E-04 9.95806E-02-3.86746E-14-4.50603E-13
 -1      1333 1.98037E+01-4.85626E-03 5.21520E-05 1.99272E-01-6.05861E-14-2.24354E-13
 -1      1334 1.99704E+01-6.26574E-03 6.37726E-05 8.67243E-02-4.42279E-14-4.58182E-13
 -1      1335 2.00730E+01-9.39524E-03 1.11615E-04 8.26609E-02-3.01419E-15-4.90804E-13
 -1      1336 1.99723E+01-1.07078E-02 1.16346E-03 1.79414E-01-6.42851E-14-2.13540E-13
 -1      1337 2.01376E+01-1.10982E-02 7.50919E-05 5.97599E-02 2.11690E-14-5.56011E-13
 -1      1338 2.02041E+01-1.42873E-02-4.71365E-05 5.31193E-02-1.36011E-14-5.57412E-13
 -1      1339 2.01183E+01-1.79612E-02 2.47716E-03 1.37224E-01-3.22839E-14-2.71153E-13
 -1      1340 2.02379E+01-1.67604E-02 3.88220E-04 1.85262E-02-3.93817E-14-5.88713E-13
 -1      1341 2.02506E+01-1.96407E-02 3.89340E-05 8.83114E-03-3.92989E-14-6.36144E-13
 -1      1342 2.02179E+01-2.66797E-02 4.03464E-03 6.88657E-02-4.78545E-14-3.83645E-13
 -1      1343 2.02402E+01-2.26506E-02 9.88014E-04-3.80415E-02-4.52286E-15-6.56600E-13
 -1      1344 2.01806E+01-2.44573E-02 3.63590E-04-5.08614E-02-1.62474E-14-6.70730E-13
 -1      1345 2.02452E+01-3.60066E-02 5.73996E-03-2.84800E-02-3.75680E-14-4.19765E-13
 -1      1346 2.01135E+01-2.73813E-02 1.76682E-03-1.07959E-01-1.24050E-14-6.63453E-13
 -1      1347 1.99664E+01-2.69799E-02 8.29299E-04-1.23107E-01-5.34486E-14-7.16672E-13
 -1      1348 2.01744E+01-4.38454E-02 7.28613E-03-1.53289E-01-3.05363E-14-4.06129E-13
 -1      1349 1.98349E+01-2.87892E-02 2.47734E-03-1.84110E-01-3.09583E-14-6.97035E-13
 -1      1350 1.95951E+01-2.49250E-02 1.21019E-03-1.99485E-01-1.33938E-14-7.50535E-13
 -1      1351 1.99849E+01-4.68267E-02 8.11814E-03-2.95785E-01-5.29425E-14-3.43073E-13
 -1      1352 1.94009E+01-2.44096E-02 2.74938E-03-2.52992E-01-2.37056E-14-7.55822E-13
 -1      1353 1.90805E+01-1.62634E-02 1.18780E-03-2.65082E-01-5.15963E-14-7.96644E-13
 -1      1354 1.96696E+01-4.09710E-02 7.50314E-03-4.34847E-01-3.62987E-14-3.59144E-13
 -1      1355 1.88396E+01-1.25812E-02 2.23065E-03-2.95856E-01 7.39968E-16-7.77276E-13
 -1      1356 1.84740E+01-5.27383E-04 4.96918E-04-3.00340E-01 4.20113E-14-7.81736E-13
 -1      1357 1.92445E+01-2.33407E-02 4.78644E-03-5.38280E-01-1.76048E-14-3.19563E-13
 -1      1358 1.82189E+01 6.05934E-03 8.20877E-04-2.93520E-01 4.61809E-14-8.49598E-13
 -1      1359 1.78653E+01 1.98949E-02-8.50352E-04-2.86789E-01 2.02189E-14-7.89495E-13
 -1      1360 1.87565E+01 5.65999E-03-1.52919E-04-5.69196E-01 3.29719E-14-3.54353E-13
 -1      1361 1.76414E+01 2.75828E-02-1.12347E-03-2.34460E-01 2.03080E-14-8.07609E-13
 -1      1362 1.73685E+01 3.95529E-02-2.42455E-03-2.15622E-01-1.66442E-14-8.09035E-13
 -1      1363 1.82826E+01 4.05496E-02-6.46308E-03-4.99141E-01-1.03194E-14-4.55582E-13
 -1      1364 1.72233E+01 4.54431E-02-2.86505E-03-1.22778E-01 6.75154E-15-8.46637E-13
 -1      1365 1.70916E+01 5.16996E-02-3.49372E-03-9.50014E-02-1.74357E-14-8.05472E-13
 -1      1366 1.79160E+01 7.14442E-02-1.22756E-02-3.23779E-01-2.61414E-14-4.70335E-13
 -1      1367 1.70598E+01 5.32552E-02-3.64407E-03 1.93486E-02-2.75899E-14-7.82442E-13
 -1      1368 1.71014E+01 5.16004E-02-3.44016E-03 4.94269E-02-5.33688E-14-8.40855E-13
 -1      1369 1.77397E+01 8.77750E-02-1.54279E-02-7.21418E-02-2.23805E-14-5.34502E-13
 -1      1370 1.71919E+01 4.81432E-02-3.17066E-03 1.58183E-01-3.43727E-14-9.11863E-13
 -1      1371 1.73983E+01 3.92005E-02-2.17388E-03 1.83003E-01-2.85900E-14-9.60185E-13
 -1      1372 1.77981E+01 8.35125E-02-1.46071E-02 1.99088E-01-9.19967E-14-6.36232E-13
 -1      1373 1.75911E+01 3.23411E-02-1.78797E-03 2.61382E-01 4.14009E-14-9.35382E-13
 -1      1374 1.79172E+01 1.92228E-02-2.29243E-04 2.75566E-01 5.96342E-14-8.57772E-13
 -1      1375 1.80798E+01 6.03864E-02-1.01854E-02 4.25980E-01 8.27116E-15-5.86681E-13
 -1      1376 1.81710E+01 1.18879E-02-2.27703E-04 3.10237E-01 1.05768E-13-8.17613E-13
 -1      1377 1.85512E+01-1.42904E-03 1.58219E-03 3.12425E-01 8.78353E-14-6.89070E-13
 -1      1378 1.85224E+01 2.69802E-02-3.96767E-03 5.61859E-01 1.31660E-13-5.11720E-13
 -1      1379 1.88185E+01-6.68338E-03 8.61424E-04 3.04431E-01 2.95539E-14-7.37597E-13
 -1      1380 1.91883E+01-1.71181E-02 2.63328E-03 2.96912E-01 3.11189E-14-6.95485E-13
 -1      1381 1.90366E+01-5.83659E-03 1.84426E-03 5.92280E-01 3.78096E-14-4.23325E-13
 -1      1382 1.94292E+01-1.91481E-02 1.22601E-03 2.57984E-01 2.69168E-14-7.45093E-13
 -1      1383 1.97411E+01-2.53703E-02 2.78395E-03 2.44903E-01 1.63474E-14-7.29160E-13
 -1      1384 1.95352E+01-2.97540E-02 5.78936E-03 5.33628E-01-1.90820E-17-4.96506E-13
 -1      1385 1.99309E+01-2.44677E-02 1.00064E-03 1.90730E-01 2.41573E-14-7.52266E-13
 -1      1386 2.01610E+01-2.67242E-02 2.26693E-03 1.76185E-01-1.81773E-14-7.64383E-13
 -1      1387 1.99546E+01-4.15918E-02 7.47143E-03 4.19821E-01 2.43347E-14-5.55947E-13
 -1      1388 2.02909E+01-2.39672E-02 4.92716E-04 1.20626E-01 6.46432E-14-6.42418E-13
 -1      1389 2.04363E+01-2.33729E-02 1.46284E-03 1.07538E-01 7.32392E-14-5.27488E-13
 -1      1390 2.02632E+01-4.26671E-02 7.30981E-03 2.86843E-01 9.65257E-14-5.08470E-13
 -1      1391 2.05098E+01-1.99378E-02-1.54536E-05 5.97088E-02-1.78284E-14-4.63473E-13
 -1      1392 2.05818E+01-1.77788E-02 6.86993E-04 4.95551E-02 1.54334E-14-4.41900E-13
 -1      1393 2.04570E+01-3.66476E-02 6.04571E-03 1.62298E-01 4.92119E-14-3.84486E-13
 -1      1394 2.06093E+01-1.45324E-02-3.65961E-04 1.35923E-02-1.91047E-14-4.98852E-13
 -1      1395 2.06259E+01-1.18507E-02 1.09738E-04 6.69715E-03-7.70482E-14-5.30830E-13
 -1      1396 2.05505E+01-2.74356E-02 4.36657E-03 6.18526E-02-4.65951E-14-3.89893E-13
 -1      1397 2.06203E+01-9.25291E-03-5.21453E-04-1.70119E-02-1.13631E-13-5.45299E-13
 -1      1398 2.06002E+01-6.71387E-03-2.29050E-04-2.10225E-02-1.13943E-13-6.52348E-13
 -1      1399 2.05675E+01-1.79695E-02 2.74235E-03-9.34958E-03-1.66824E-13-4.59800E-13
 -1      1400 2.05739E+01-4.89475E-03-5.18861E-04-3.42463E-02-1.81687E-13-7.39961E-13
 -1      1401 2.05331E+01-2.82454E-03-3.67675E-04-3.60441E-02-1.36901E-13-9.90905E-13
 -1      1402 2.05328E+01-9.92572E-03 1.41432E-03-5.31809E-02-2.57453E-13-4.66200E-13
 -1      1403 2.04961E+01-1.71328E-03-4.21466E-04-4.13884E-02-8.53985E-15-9.59700E-13
 -1      1404 2.04469E+01-2.01700E-04-3.72608E-04-4.16771E-02-1.85249E-14-1.03127E-12
 -1      1405 2.04683E+01-3.93636E-03 4.53523E-04-7.50144E-02-8.85613E-14-5.39930E-13
 -1      1406 2.04066E+01 3.59743E-04-2.87381E-04-4.17376E-02-5.70233E-14-8.99796E-13
 -1      1407 2.03570E+01 1.35621E-03-3.06592E-04-4.11164E-02 4.92786E-14-8.80918E-13
 -1      1408 2.03910E+01 3.13730E-05-1.67103E-04-8.11407E-02-8.64483E-15-4.35365E-13
 -1      1409 2.03182E+01 1.53878E-03-1.56465E-04-3.80589E-02 4.73764E-15-8.85995E-13
 -1      1410 2.02731E+01 2.12096E-03-2.15497E-04-3.69777E-02 4.20483E-14-8.66010E-13
 -1      1411 2.03126E+01 2.33295E-03-5.16544E-04-7.72782E-02 4.90227E-14-3.90745E-13
 -1      1412 2.02386E+01 2.07146E-03-4.96777E-05-3.24090E-02 6.99174E-14-8.41459E-13
 -1      1413 2.02003E+01 2.35132E-03-1.26950E-04-3.11729E-02 1.51531E-15-7.83985E-13
 -1      1414 2.02402E+01 3.41493E-03-6.71446E-04-6.79389E-02 9.03540E-14-5.42648E-13
 -1      1415 2.01713E+01 2.18003E-03 2.61688E-05-2.61733E-02 7.55246E-14-8.35955E-13
 -1      1416 2.01404E+01 2.25734E-03-5.42819E-05-2.49692E-02 1.08084E-13-6.39145E-13
 -1      1417 2.01775E+01 3.68998E-03-6.99311E-04-5.63274E-02 1.01470E-13-6.39962E-13
 -1      1418 2.01172E+01 2.03899E-03 7.27301E-05-2.01932E-02 6.09864E-18-4.99759E-13
 -1      1419 2.00935E+01 1.99253E-03-1.49623E-06-1.91209E-02 7.44714E-14-5.35287E-13
 -1      1420 2.01261E+01 3.48642E-03-6.52560E-04-4.45076E-02 3.46056E-14-5.46669E-13
 -1      1421 2.00755E+01 1.77288E-03 9.55879E-05-1.49118E-02 1.11600E-13-5.05357E-13
 -1      1422 2.00582E+01 1.65980E-03 3.25514E-05-1.40130E-02-3.39192E-14-4.34677E-13
 -1      1423 2.00855E+01 3.04005E-03-5.68397E-04-3.36631E-02 1.27288E-13-4.79108E-13
 -1      1424 2.00449E+01 1.46351E-03 1.01301E-04-1.05058E-02-1.02316E-13-3.82350E-13
 -1      1425 2.00328E+01 1.32221E-03 5.12555E-05-9.78597E-03-1.17887E-13-5.52967E-13
 -1      1426 2.00548E+01 2.50603E-03-4.71224E-04-2.43584E-02-7.56564E-15-3.44216E-13
 -1      1427 2.00234E+01 1.15983E-03 9.58183E-05-6.98761E-03-6.91900E-14-5.87968E-13
 -1      1428 2.00154E+01 1.01415E-03 5.85164E-05-6.43254E-03 4.14819E-14-5.80850E-13
 -1      1429 2.00325E+01 1.97739E-03-3.75714E-04-1.67578E-02-1.03898E-13-2.43055E-13
 -1      1430 2.00091E+01 8.87546E-04 8.38219E-05-4.28056E-03-3.67824E-15-7.18126E-13
 -1      1431 2.00043E+01 7.50637E-04 5.78259E-05-3.86689E-03 5.15286E-15-7.77229E-13
 -1      1432 2.00171E+01 1.50306E-03-2.89664E-04-1.07912E-02-1.02853E-13-3.56843E-13
 -1      1433 2.00004E+01 6.56782E-04 6.85986E-05-2.26870E-03 3.01161E-14-5.71080E-13
 -1      1434 1.99980E+01 5.34439E-04 5.19368E-05-1.97097E-03 2.10183E-14-5.73679E-13
 -1      1435 2.00070E+01 1.10274E-03-2.16305E-04-6.27036E-03 6.61397E-14-2.63197E-13
 -1      1436 1.99958E+01 4.67820E-04 5.23152E-05-8.29229E-04 9.93029E-14-6.11109E-13
 -1      1437 1.99951E+01 3.60734E-04 4.29468E-05-6.23956E-04 1.26837E-13-4.40451E-13
 -1      1438 2.00010E+01 7.77719E-04-1.55973E-04-2.96606E-03 1.02703E-13-5.74337E-14
 -1      1439 1.99942E+01 3.14273E-04 3.65626E-05 1.47128E-04 2.11610E-13-3.74934E-13
 -1      1440 1.99946E+01 2.19666E-04 3.30515E-05 2.78580E-04 1.61492E-13-1.55256E-13
 -1      1441 1.99979E+01 5.17235E-04-1.07156E-04-6.57277E-04 2.91707E-13-3.23897E-14
 -1      1442 1.99945E+01 1.85201E-04 2.36282E-05 7.42397E-04 3.56636E-14-1.48088E-13
 -1      1443 1.99956E+01 9.67508E-05 2.64612E-05 8.11566E-04 1.88904E-14-5.74577E-14
 -1      1444 1.99970E+01 3.03573E-04-6.62870E-05 8.36370E-04 2.08638E-13 3.06829E-14
 -1      1445 1.99960E+01 5.99595E-05 1.92164E-05 9.95719E-04 1.45252E-13-3.70093E-14
 -1      1446 1.99972E+01-3.27454E-05 2.80748E-05 1.00062E-03 1.93032E-13 1.54790E-13
 -1      1447 1.99973E+01 1.02666E-04-2.89673E-05 1.62639E-03 1.43935E-13 6.17109E-14
 -1      1448 1.99978E+01-7.72315E-05 3.38738E-05 8.81850E-04 3.68922E-14 1.82652E-13
 -1      1449 1.99989E+01-1.75967E-04 5.28634E-05 8.28611E-04-1.08569E-14 2.28433E-13
 -1      1450 1.99982E+01-1.48114E-04 8.44212E-06 1.73019E-03 1.43055E-13 7.09668E-14
 -1      1451 1.99996E+01-2.40808E-04 1.14019E-04 1.99077E-04-2.40667E-13 1.92151E-13
 -1      1452 1.99994E+01-5.89476E-04 4.71437E-05 9.21601E-04-1.82233E-13-1.22733E-14
 -1      1453 2.07494E+01 3.25781E-01-1.74969E-01 8.29621E-01 9.70821E-14 1.53356E-12
 -1      1454 2.21103E+01 1.86223E-01-3.99738E-01 1.33882E+00 8.90399E-14 1.62287E-12
 -1      1455 1.96919E+01 9.47929E-02-1.77406E-02 3.26721E-01 9.24538E-14 1.35192E-12
 -1      1456 2.01602E+01 1.60534E-01-7.97022E-02 3.99987E-01 8.45157E-14 1.46126E-12
 -1      1457 2.10556E+01 4.12299E-01-1.02597E-01 1.29674E+00 1.77303E-13 1.00199E-12
 -1      1458 1.92072E+01 4.55264E-02 1.31990E-02 1.01410E-01 5.84394E-14 1.20558E-12
 -1      1459 1.93430E+01 6.90474E-02 1.52398E-03 1.21057E-01 6.77340E-14 1.27699E-12
 -1      1460 2.00196E+01 1.42104E-01-3.74736E-02 4.88630E-01 1.59258E-13 8.97823E-13
 -1      1461 1.90827E+01 2.46169E-02 1.19685E-02-9.41887E-03 4.04156E-14 1.09994E-12
 -1      1462 1.90693E+01 3.52811E-02 1.31847E-02 2.01215E-03 3.88340E-14 1.13429E-12
 -1      1463 1.95737E+01 6.31004E-02-9.79689E-03 1.28296E-01 1.09237E-13 7.63348E-13
 -1      1464 1.91488E+01 1.62883E-02 7.62425E-03-6.99406E-02 4.54103E-14 1.00989E-12
 -1      1465 1.90622E+01 2.16345E-02 9.29086E-03-6.29898E-02 2.53521E-14 1.05281E-12
 -1      1466 1.94239E+01 3.18471E-02-5.16551E-03-5.39247E-02 7.64614E-14 6.53077E-13
 -1      1467 1.93434E+01 1.26241E-02 4.87553E-03-1.13978E-01 7.10868E-15 9.98960E-13
 -1      1468 1.92006E+01 1.55548E-02 5.31387E-03-1.07833E-01 2.58758E-14 1.00278E-12
 -1      1469 1.94508E+01 2.23419E-02-4.09063E-03-1.64194E-01 5.04761E-14 6.15522E-13
 -1      1470 1.96369E+01 1.30968E-02 3.64720E-03-1.51945E-01 2.89883E-14 9.62801E-13
 -1      1471 1.94490E+01 1.42418E-02 3.06155E-03-1.45778E-01 2.20115E-14 1.00373E-12
 -1      1472 1.96011E+01 1.93278E-02-3.99179E-03-2.48568E-01 1.32273E-14 5.84992E-13
 -1      1473 2.00275E+01 1.66798E-02 3.15215E-03-1.93709E-01 3.00348E-14 9.33098E-13
 -1      1474 1.97896E+01 1.61516E-02 1.81937E-03-1.85944E-01 5.03206E-14 9.73725E-13
 -1      1475 1.98496E+01 2.24851E-02-4.22902E-03-3.27834E-01 5.51295E-14 5.98341E-13
 -1      1476 2.05335E+01 2.36189E-02 2.68947E-03-2.48269E-01 4.71845E-16 9.06868E-13
 -1      1477 2.02300E+01 2.09767E-02 7.61564E-04-2.37193E-01 1.01451E-14 9.00218E-13
 -1      1478 2.01919E+01 3.11740E-02-5.02424E-03-4.20595E-01 3.37755E-14 5.40267E-13
 -1      1479 2.11581E+01 3.30187E-02 2.12159E-03-3.20488E-01-3.25872E-14 9.07399E-13
 -1      1480 2.07826E+01 2.96095E-02-4.41306E-04-3.05984E-01-3.99962E-14 8.84822E-13
 -1      1481 2.06282E+01 4.49757E-02-6.47471E-03-5.40761E-01-1.67787E-14 4.66352E-13
 -1      1482 2.20218E+01 4.60279E-02 3.59343E-04-4.27699E-01 2.17448E-15 9.14128E-13
 -1      1483 2.14969E+01 4.21520E-02-2.43656E-03-4.04391E-01 5.85643E-15 9.29305E-13
 -1      1484 2.11919E+01 6.59091E-02-9.12081E-03-7.07421E-01-1.53367E-14 4.67834E-13
 -1      1485 2.31729E+01 6.12278E-02-3.06069E-03-5.76666E-01-3.01408E-15 8.97334E-13
 -1      1486 2.24636E+01 5.89258E-02-6.16002E-03-5.43880E-01-6.93889E-17 9.21756E-13
 -1      1487 2.19410E+01 9.32192E-02-1.30035E-02-9.44584E-01-9.17929E-15 4.80010E-13
 -1      1488 2.46917E+01 7.25234E-02-8.21910E-03-7.69892E-01 1.71469E-14 9.02077E-13
 -1      1489 2.37440E+01 7.64453E-02-1.22312E-02-7.26855E-01 2.02373E-14 9.46347E-13
 -1      1490 2.29117E+01 1.23487E-01-1.77822E-02-1.26060E+00 9.45511E-15 5.58712E-13
 -1      1491 2.66199E+01 6.45972E-02-1.13764E-02-9.85465E-01 3.67545E-14 8.30599E-13
 -1      1492 2.54107E+01 8.49854E-02-1.90783E-02-9.37911E-01 5.90101E-14 8.93535E-13
 -1      1493 2.41499E+01 1.40436E-01-2.20451E-02-1.64109E+00 3.87277E-14 4.79566E-13
 -1      1494 2.88582E+01 4.72833E-03-1.84171E-03-1.13972E+00-5.33218E-14 8.83169E-13
 -1      1495 2.74769E+01 5.74196E-02-1.93027E-02-1.11152E+00 3.20035E-15 8.59673E-13
 -1      1496 2.56721E+01 1.03575E-01-2.06925E-02-2.00182E+00-3.15720E-15 5.41241E-13
 -1      1497 3.09057E+01-1.44318E-01 3.22140E-02-1.05245E+00-1.06722E-13 1.05899E-12
 -1      1498 2.97332E+01-4.53154E-02 5.08425E-03-1.08907E+00-1.10091E-13 9.07621E-13
 -1      1499 2.73786E+01-6.62418E-02-4.22799E-03-2.11857E+00-1.11006E-13 5.49498E-13
 -1      1500 3.21477E+01-4.04842E-01 9.19615E-02-3.99491E-01-1.65017E-13 1.39554E-12
 -1      1501 3.17492E+01-2.74931E-01 7.07617E-02-5.97588E-01-1.31135E-13 1.19050E-12
 -1      1502 2.91184E+01-4.51908E-01 3.36684E-02-1.59361E+00-2.66828E-13 6.78471E-13
 -1      1503 3.12666E+01-5.86482E-01 8.24114E-02 1.00867E+00-1.27329E-13 1.66384E-12
 -1      1504 3.26007E+01-5.77608E-01 1.44479E-01 6.23113E-01-1.41127E-13 1.51330E-12
 -1      1505 3.05406E+01-9.94968E-01 8.14367E-02 9.46455E-02-2.75044E-13 8.54193E-13
 -1      1506 2.78496E+01-2.46022E-01-1.42422E-01 2.47199E+00 9.37861E-14 1.75837E-12
 -1      1507 3.09805E+01-5.46939E-01 7.61984E-02 2.18916E+00-4.55400E-14 1.79742E-12
 -1      1508 3.09614E+01-1.11035E+00 5.43910E-02 2.76568E+00-1.84896E-13 1.12947E-12
 -1      1509 2.42762E+01 6.09749E-01-4.27714E-01 2.28951E+00 2.26485E-13 1.58779E-12
 -1      1510 2.70234E+01 1.60053E-01-2.29364E-01 2.56524E+00 2.30913E-13 1.82210E-12
 -1      1511 2.99896E+01-2.73255E-02-1.28952E-01 4.41473E+00 1.70086E-13 1.30864E-12
 -1      1512 2.30684E+01 1.09297E+00-5.68622E-01 4.54229E-01 1.76914E-13 1.32343E-12
 -1      1513 2.36882E+01 9.46702E-01-5.13515E-01 9.98671E-01 2.05114E-13 1.50926E-12
 -1      1514 2.86306E+01 1.44736E+00-3.36209E-01 3.03769E+00 4.26659E-13 1.23965E-12
 -1      1515 2.52488E+01 6.56661E-01-3.69038E-01-1.96221E+00 1.44301E-13 1.02679E-12
 -1      1516 2.32191E+01 9.20675E-01-5.67172E-01-1.50236E+00 9.81160E-14 1.24245E-12
 -1      1517 2.81745E+01 2.07288E+00-3.63331E-01-8.81979E-01 3.43392E-13 8.70561E-13
 -1      1518 2.90320E+01-2.21619E-01-7.60177E-02-2.62708E+00 1.02869E-13 6.92280E-13
 -1      1519 2.60635E+01 1.29270E-01-2.92960E-01-2.70108E+00 1.45273E-13 9.32365E-13
 -1      1520 2.92271E+01 7.94562E-01-2.38486E-01-4.03337E+00 2.45914E-13 6.11930E-13
 -1      1521 3.20986E+01-6.54372E-01 1.18786E-01-1.54074E+00 7.22807E-14 5.28577E-13
 -1      1522 2.97969E+01-5.08354E-01-9.85740E-03-1.93060E+00 2.20891E-14 6.57530E-13
 -1      1523 3.06140E+01-6.71732E-01-1.93912E-02-3.97965E+00 1.50449E-13 3.80695E-13
 -1      1524 3.25589E+01-4.54743E-01 1.15937E-01-1.10400E-02 5.34295E-14 4.64949E-13
 -1      1525 3.20890E+01-5.32417E-01 1.09822E-01-3.24890E-01 8.54317E-14 5.53474E-13
 -1      1526 3.10219E+01-1.15578E+00 8.92116E-02-1.54780E+00 1.36242E-13 2.23634E-13
 -1      1527 3.10550E+01-1.55801E-01 4.18668E-02 8.81971E-01 7.34655E-14 3.39000E-13
 -1      1528 3.19236E+01-2.81626E-01 7.30747E-02 7.64413E-01 9.12569E-14 4.50309E-13
 -1      1529 3.01068E+01-7.30510E-01 8.20838E-02 7.89328E-01 1.06408E-13 2.90129E-13
 -1      1530 2.88176E+01 2.19008E-02-9.43700E-03 1.12160E+00-1.34354E-13 4.38344E-13
 -1      1531 3.01625E+01-6.20993E-02 1.49917E-02 1.12511E+00-4.27037E-14 3.77837E-13
 -1      1532 2.84748E+01-2.46815E-01 1.64404E-02 1.91242E+00 6.78277E-15 3.27738E-13
 -1      1533 2.66417E+01 8.26797E-02-1.91416E-02 1.01577E+00-1.76100E-14 5.10189E-13
 -1      1534 2.79264E+01 4.39949E-02-1.11543E-02 1.06065E+00-5.55667E-14 4.05065E-13
 -1      1535 2.67045E+01 4.50397E-02-1.47682E-02 2.06788E+00-1.13659E-13 2.32207E-13
 -1      1536 2.49071E+01 8.66153E-02-1.50427E-02 8.14676E-01 1.19838E-13 3.15019E-13
 -1      1537 2.59065E+01 7.57559E-02-1.14805E-02 8.59697E-01 8.06187E-14 4.79838E-13
 -1      1538 2.51322E+01 1.37956E-01-2.38055E-02 1.78746E+00 1.65848E-14 2.74569E-13
 -1      1539 2.34892E+01 7.24363E-02-8.63937E-03 6.04298E-01-2.04012E-14 3.61402E-13
 -1      1540 2.42761E+01 7.00677E-02-7.57995E-03 6.43868E-01 1.18779E-13 3.21652E-13
 -1      1541 2.38289E+01 1.44049E-01-1.98195E-02 1.39882E+00 1.54510E-13 4.55426E-13
 -1      1542 2.24486E+01 5.42316E-02-3.88443E-03 4.32521E-01 1.10648E-13 2.25129E-13
 -1      1543 2.30114E+01 5.64491E-02-2.71689E-03 4.61663E-01 6.79370E-14 3.54140E-13
 -1      1544 2.27801E+01 1.18049E-01-1.49795E-02 1.02942E+00 6.53227E-14 4.28196E-13
 -1      1545 2.17018E+01 3.87609E-02-1.27368E-03 3.04055E-01 1.31997E-13 3.09995E-14
 -1      1546 2.20955E+01 4.19647E-02-2.47231E-05 3.24572E-01 1.41485E-13 1.69760E-13
 -1      1547 2.19915E+01 8.76354E-02-1.06104E-02 7.35644E-01 2.01355E-13 1.49370E-13
 -1      1548 2.11738E+01 2.73252E-02 1.50086E-04 2.11875E-01-1.04432E-13 2.65233E-13
 -1      1549 2.14456E+01 2.98556E-02 1.04180E-03 2.26093E-01-2.11103E-14 1.19097E-13
 -1      1550 2.14119E+01 6.22325E-02-7.34893E-03 5.17812E-01 5.91784E-14 3.60477E-13
 -1      1551 2.08175E+01 1.92931E-02 4.40535E-04 1.49767E-01-5.40878E-14 3.03549E-13
 -1      1552 2.09985E+01 2.17627E-02 1.51658E-03 1.58974E-01-6.83099E-14 1.66594E-13
 -1      1553 2.10000E+01 4.26785E-02-5.60843E-03 3.64319E-01-8.94662E-14 1.80192E-13
 -1      1554 2.05523E+01 1.32099E-02 5.29487E-04 1.03677E-01 5.24906E-14 1.32518E-13
 -1      1555 2.06839E+01 1.49676E-02 1.22388E-03 1.10556E-01 1.04257E-14 2.19794E-13
 -1      1556 2.07031E+01 3.04410E-02-3.64066E-03 2.56415E-01 3.69904E-14 9.16133E-14
 -1      1557 2.03677E+01 9.14321E-03 5.19501E-04 7.15674E-02 1.03001E-13-6.06932E-15
 -1      1558 2.04579E+01 1.05627E-02 1.06730E-03 7.62753E-02 4.58941E-14 6.49886E-14
 -1      1559 2.04841E+01 2.08150E-02-2.61016E-03 1.78024E-01 1.10551E-13-5.14903E-14
 -1      1560 2.02395E+01 6.35181E-03 4.51486E-04 4.91580E-02 2.39083E-14 3.47878E-14
 -1      1561 2.03010E+01 7.40548E-03 8.43988E-04 5.24198E-02 3.17462E-14 2.22038E-14
 -1      1562 2.03285E+01 1.43469E-02-1.86076E-03 1.23116E-01 7.69443E-14-7.94185E-14
 -1      1563 2.01511E+01 4.42997E-03 3.75362E-04 3.34770E-02-1.63257E-13 2.69823E-13
 -1      1564 2.01928E+01 5.20658E-03 6.45239E-04 3.57443E-02-7.24245E-14-3.73958E-14
 -1      1565 2.02186E+01 9.92571E-03-1.33058E-03 8.46209E-02-8.79769E-14-7.35253E-14
 -1      1566 2.00910E+01 3.12382E-03 3.19330E-04 2.24749E-02 8.65351E-14 1.87947E-13
 -1      1567 2.01187E+01 3.63223E-03 4.74147E-04 2.40576E-02-2.44894E-14 1.83386E-13
 -1      1568 2.01417E+01 6.91230E-03-9.45212E-04 5.75697E-02-2.97733E-14-3.13408E-13
 -1      1569 2.00522E+01 2.22412E-03 2.43911E-04 1.50730E-02 2.82552E-14 2.24775E-13
 -1      1570 2.00697E+01 2.63878E-03 3.69804E-04 1.61080E-02 1.56252E-13 2.90609E-13
 -1      1571 2.00894E+01 4.72081E-03-7.28483E-04 3.88403E-02 1.25478E-13-6.29521E-14
 -1      1572 2.00253E+01 1.51930E-03 1.84304E-04 9.55935E-03-3.34753E-14 2.96738E-13
 -1      1573 2.00370E+01 1.83735E-03 2.63839E-04 1.03498E-02-1.64989E-13 2.76870E-13
 -1      1574 2.00535E+01 3.41338E-03-4.90442E-04 2.56966E-02-1.04826E-13 2.13126E-13
 -1      1575 2.00085E+01 1.04537E-03 1.41917E-04 5.70928E-03-1.55433E-13 4.43528E-13
 -1      1576 2.00154E+01 1.30507E-03 1.99294E-04 6.25081E-03-1.89261E-14 3.36940E-13
 -1      1577 2.00288E+01 2.34234E-03-3.53775E-04 1.61281E-02-6.22933E-14 4.46531E-13
 -1      1578 1.99987E+01 7.10907E-04 1.09008E-04 3.04259E-03-1.75983E-14 4.81002E-13
 -1      1579 2.00023E+01 9.10109E-04 1.44994E-04 3.41271E-03-1.08796E-13 4.76089E-13
 -1      1580 2.00130E+01 1.60915E-03-2.49463E-04 9.44035E-03-2.21100E-13 2.99536E-13
 -1      1581 1.99938E+01 4.77958E-04 8.31030E-05 1.22014E-03 3.26961E-13 1.62567E-13
 -1      1582 1.99952E+01 6.18052E-04 1.00692E-04 1.46822E-03 1.48976E-13 4.89277E-13
 -1      1583 2.00034E+01 1.09657E-03-1.71740E-04 4.81555E-03 3.18024E-14 2.38906E-13
 -1      1584 1.99922E+01 3.11716E-04 5.96641E-05 5.36654E-05-1.43529E-13 1.56623E-13
 -1      1585 1.99922E+01 4.24698E-04 7.00401E-05 2.03799E-04 9.74705E-14 1.98475E-13
 -1      1586 1.99983E+01 7.09407E-04-1.23142E-04 1.72202E-03 2.33448E-13 4.54655E-13
 -1      1587 1.99927E+01 1.68507E-04 4.00889E-05-7.31076E-04-4.32395E-14 7.12253E-13
 -1      1588 1.99917E+01 2.71352E-04 4.58459E-05-6.30141E-04-9.38679E-14 4.67793E-13
 -1      1589 1.99960E+01 4.68474E-04-7.77150E-05-3.10670E-04-3.14413E-13 5.25049E-13
 -1      1590 1.99945E+01 5.22827E-05 2.90249E-05-1.15614E-03 2.02650E-14 5.17406E-13
 -1      1591 1.99930E+01 1.50544E-04 2.91601E-05-1.11168E-03-1.53489E-14 5.62653E-13
 -1      1592 1.99957E+01 2.48249E-04-4.59480E-05-1.59423E-03-6.46619E-14 7.99092E-13
 -1      1593 1.99967E+01-7.29679E-05 3.05408E-05-1.24625E-03-5.60590E-14 6.47058E-13
 -1      1594 1.99951E+01 2.96843E-05 2.38152E-05-1.26078E-03-5.56069E-14 6.16135E-13
 -1      1595 1.99965E+01 4.78050E-05-1.36791E-05-2.18861E-03-4.83981E-14 7.59429E-13
 -1      1596 1.99987E+01-2.23419E-04 5.43536E-05-9.57393E-04 1.09364E-13 5.14750E-13
 -1      1597 1.99975E+01-1.24529E-04 3.84287E-05-1.04188E-03 2.24608E-13 6.88395E-13
 -1      1598 1.99978E+01-2.07549E-04 2.09277E-05-2.11280E-03 1.17227E-15 8.68449E-13
 -1      1599 1.99995E+01-2.81550E-04 1.18023E-04-2.30682E-04 8.33928E-14 9.08753E-14
 -1      1600 1.99997E+01-2.31887E-03 1.47965E-05-9.98384E-04 1.28516E-12 4.33054E-13
 -1      1601 1.99996E+01-1.22443E-03 1.95225E-05-9.11086E-04 7.07408E-13 4.69225E-13
 -1      1602 1.99999E+01-4.36189E-03-1.51050E-05-1.06354E-03 8.58665E-13-5.49483E-13
 -1      1603 1.99998E+01-3.03060E-03 3.03809E-06-1.09118E-03 1.39472E-12-3.79703E-13
 -1      1604 1.99997E+01-2.08364E-03 2.69581E-06-1.95469E-03 5.50380E-13 6.30232E-14
 -1      1605 1.99999E+01-6.10911E-03-2.53817E-05-8.30572E-04 3.33661E-13-4.73183E-14
 -1      1606 1.99999E+01-4.99756E-03-1.15279E-05-9.01299E-04 7.43758E-13-3.09646E-13
 -1      1607 1.99999E+01-3.37178E-03-2.42576E-05-1.83542E-03 5.39373E-13-7.69442E-13
 -1      1608 1.99999E+01-7.23881E-03-2.21247E-05-4.92512E-04 7.49733E-14-3.23355E-13
 -1      1609 1.99999E+01-6.52380E-03-1.28440E-05-5.65580E-04 2.34434E-13 1.32327E-13
 -1      1610 2.00000E+01-4.35575E-03-3.47089E-05-1.29755E-03 3.47112E-13-5.45473E-14
 -1      1611 1.99999E+01-7.74662E-03-1.57257E-05-1.95052E-04-9.01019E-13-4.83457E-13
 -1      1612 1.99999E+01-7.41475E-03-9.14213E-06-2.49480E-04-1.55868E-13-7.28047E-13
 -1      1613 2.00000E+01-4.87425E-03-3.04593E-05-6.85347E-04-1.21642E-13-8.69729E-13
 -1      1614 1.99998E+01-7.80645E-03-8.90474E-06 8.30865E-06-5.03245E-13 4.01393E-13
 -1      1615 1.99999E+01-7.74557E-03-5.25997E-06-2.27333E-05-9.50641E-13 2.69124E-13
 -1      1616 2.00000E+01-4.98682E-03-1.69117E-05-1.92175E-04-2.44181E-13-3.48736E-13
 -1      1617 1.99998E+01-7.61644E-03-3.61953E-06 1.03671E-04-1.49404E-13 1.92287E-13
 -1      1618 1.99998E+01-7.70738E-03-2.20189E-06 9.40694E-05-5.59636E-13 3.80961E-13
 -1      1619 1.99999E+01-4.84007E-03-3.38167E-06 1.06939E-04-1.68375E-13 4.93064E-13
 -1      1620 1.99998E+01-7.35039E-03-6.39101E-07 1.24748E-04-3.51193E-13-1.30287E-14
 -1      1621 1.99998E+01-7.50037E-03-1.40658E-06 1.26458E-04-2.08904E-13-7.21353E-14
 -1      1622 1.99998E+01-4.60225E-03 5.99373E-06 2.23297E-04-2.79986E-13-1.58308E-14
 -1      1623 1.99998E+01-7.08140E-03-1.20754E-07 1.27766E-04-7.84755E-13-2.01931E-13
 -1      1624 1.99998E+01-7.26080E-03-2.94346E-06 1.27963E-04-4.38908E-13-4.67188E-14
 -1      1625 1.99998E+01-4.39835E-03 8.53763E-06 2.39481E-04-1.14718E-13-2.65199E-13
 -1      1626 1.99998E+01-6.76608E-03-2.19177E-06 1.71245E-04-1.22903E-12-2.32274E-13
 -1      1627 1.99998E+01-7.01312E-03-6.78758E-06 1.58154E-04-8.51541E-13-1.93324E-13
 -1      1628 1.99998E+01-4.26605E-03 3.87670E-06 2.65792E-04-2.38040E-13-3.46137E-13
 -1      1629 1.99999E+01-6.27659E-03-6.08937E-06 2.93170E-04-1.54133E-12 3.69579E-14
 -1      1630 1.99999E+01-6.67287E-03-1.26787E-05 2.61572E-04-1.30992E-12-2.41195E-13
 -1      1631 1.99999E+01-4.15037E-03-5.87235E-06 3.99085E-04-7.81712E-13-4.92946E-13
 -1      1632 1.99999E+01-5.43349E-03-1.00124E-05 5.02612E-04-1.03816E-12 4.76825E-13
 -1      1633 1.99999E+01-6.08585E-03-1.90447E-05 4.51501E-04-1.44890E-12 4.69125E-13
 -1      1634 1.99999E+01-3.93038E-03-1.80758E-05 6.90135E-04-4.39360E-13 3.62888E-13
 -1      1635 1.99999E+01-4.15757E-03-1.29022E-05 7.53435E-04-6.67723E-13 3.85703E-13
 -1      1636 1.99999E+01-5.09141E-03-2.29158E-05 6.94964E-04-1.08354E-12 4.70015E-13
 -1      1637 2.00000E+01-3.47054E-03-2.55225E-05 1.11048E-03-4.79607E-13 5.01132E-13
 -1      1638 1.99998E+01-2.56432E-03-3.85545E-06 8.94093E-04-2.85393E-13 1.90524E-13
 -1      1639 1.99999E+01-3.65608E-03-2.01985E-05 8.64045E-04-4.30835E-13 2.43818E-13
 -1      1640 1.99999E+01-2.68144E-03-2.34054E-05 1.51379E-03-3.55678E-13 4.20332E-13
 -1      1641 1.99996E+01-1.05423E-03 6.83960E-06 9.76278E-04-1.51142E-13-1.10191E-13
 -1      1642 1.99997E+01-1.98109E-03-1.90840E-05 1.10942E-03-1.29202E-13 1.33425E-14
 -1      1643 1.99998E+01-1.54074E-03 5.33077E-05 1.75941E-03-8.33183E-15 1.88648E-13
 -1      1644 1.99992E+01-6.03375E-04 4.44249E-05 1.74778E-03 5.78563E-14-1.92811E-13
 -1      1645-1.06614E+00-1.77081E+01-1.95950E+00-2.11525E+00 1.44718E-12 5.61273E-13
 -1      1646-8.40010E-01-1.86536E+01-1.97111E+00-4.86617E-01 9.30186E-13 1.99563E-13
 -1      1647-1.67296E-01-1.21585E+01-1.69595E+00-1.66112E+00 2.17326E-12 1.12396E-12
 -1      1648-3.39304E-01-1.66936E+01-2.04802E+00-1.53728E+00 1.67033E-12 7.64777E-13
 -1      1649 5.26590E+00-4.30547E+00-1.07098E+00 2.42841E+00 1.96687E-12 1.12432E-12
 -1      1650 2.69409E+00-1.01053E+01-1.72467E+00-4.93577E-02 2.16316E-12 1.02746E-12
 -1      1651 1.57211E+01 2.14889E+00-2.90615E-01 7.70176E+00 1.46594E-12 1.38645E-12
 -1      1652 9.37704E+00-2.35154E+00-1.23158E+00 3.69444E+00 1.83653E-12 1.25500E-12
 -1      1653 3.21592E+01 5.31928E+00 8.04908E-01 1.21041E+01 1.00508E-12 1.03739E-12
 -1      1654 2.13949E+01 3.74167E+00-4.00524E-01 8.82761E+00 1.31184E-12 1.31073E-12
 -1      1655 5.07497E+01 4.61782E+00 1.93783E+00 1.07180E+01 4.25909E-13 5.99298E-13
 -1      1656 3.88779E+01 5.76046E+00 8.04702E-01 1.14256E+01 8.35887E-13 9.12603E-13
 -1      1657 6.21378E+01 3.82883E+00 2.67060E+00 3.96914E+00 3.34954E-13-2.51021E-13
 -1      1658 5.50996E+01 5.11820E+00 1.99696E+00 8.71796E+00 3.76657E-13 2.78666E-13
 -1      1659 6.36012E+01 4.07072E+00 2.76918E+00-4.22035E+00 4.71845E-13-1.02274E-12
 -1      1660 6.44926E+01 3.81828E+00 2.82701E+00 2.07116E+00 3.41449E-13-4.46476E-13
 -1      1661 5.18126E+01 5.52406E+00 1.75080E+00-1.02037E+01 8.59937E-13-1.55520E-12
 -1      1662 6.09043E+01 3.98784E+00 2.66219E+00-6.15913E+00 5.53890E-13-1.10789E-12
 -1      1663 3.38252E+01 4.81410E+00 3.68076E-01-1.00560E+01 1.16129E-12-1.70663E-12
 -1      1664 4.60339E+01 4.40490E+00 1.54833E+00-1.06430E+01 9.53848E-13-1.59073E-12
 -1      1665 1.68759E+01 2.37305E+00-7.51578E-01-7.32989E+00 1.21059E-12-1.56541E-12
 -1      1666 2.64677E+01 4.71245E+00 3.52635E-01-1.11192E+01 1.21814E-12-1.99663E-12
 -1      1667 5.97972E+00-4.75273E+00-1.51929E+00-1.97738E+00 7.20979E-13-9.08051E-13
 -1      1668 1.11994E+01 7.79019E-01-6.26357E-01-5.97581E+00 1.08624E-12-1.39877E-12
 -1      1669 1.18757E+00-1.26554E+01-1.87022E+00 9.25906E-01 1.41220E-13-3.12278E-13
 -1      1670 2.64505E+00-6.97713E+00-1.33268E+00-6.45641E-01 5.63549E-13-6.24278E-13
 -1      1671-6.24476E-01-1.80377E+01-2.04201E+00 1.26580E+00-7.47180E-13-2.68757E-13
 -1      1672-7.39728E-01-1.45703E+01-1.81318E+00 2.12698E+00-1.18683E-13-3.50948E-13
 -1      1673-8.35765E-01-1.81370E+01-1.87994E+00-6.01112E-02-1.44940E-12-3.18967E-13
 -1      1674-9.90913E-01-1.85452E+01-1.97261E+00 1.67800E+00-9.62438E-13-2.10110E-13
 -1      1675-1.73768E-02-1.29835E+01-1.46932E+00-1.92933E-01-1.73761E-12-5.46299E-13
 -1      1676-2.46663E-01-1.69674E+01-1.84736E+00 5.32386E-01-1.52273E-12-3.27349E-13
 -1      1677 2.72532E+00-5.51580E+00-9.73004E-01 1.81986E+00-1.79723E-12-8.66252E-13
 -1      1678 1.44062E+00-1.12067E+01-1.59305E+00 4.75101E-01-1.83908E-12-6.05127E-13
 -1      1679 9.83996E+00 1.84141E+00-2.74682E-01 6.62359E+00-1.57430E-12-1.10012E-12
 -1      1680 5.87551E+00-3.38453E+00-1.06310E+00 3.29164E+00-1.72529E-12-9.45466E-13
 -1      1681 2.06808E+01 6.52811E+00 4.41876E-01 1.14061E+01-1.26799E-12-1.30052E-12
 -1      1682 1.38196E+01 3.87672E+00-3.88420E-01 7.93806E+00-1.48903E-12-1.24967E-12
 -1      1683 3.42894E+01 7.18521E+00 1.05769E+00 1.35987E+01-8.66196E-13-1.14042E-12
 -1      1684 2.56191E+01 7.33663E+00 3.20074E-01 1.20786E+01-1.13132E-12-1.26388E-12
 -1      1685 4.79435E+01 5.32868E+00 1.52677E+00 1.05165E+01-4.99552E-13-5.85088E-13
 -1      1686 3.92511E+01 7.08846E+00 9.52732E-01 1.24535E+01-7.83151E-13-9.81881E-13
 -1      1687 5.59285E+01 3.86200E+00 1.77366E+00 3.93815E+00-2.99788E-13 7.41074E-14
 -1      1688 5.15280E+01 5.14989E+00 1.49176E+00 8.69609E+00-4.12420E-13-3.97016E-13
 -1      1689 5.56574E+01 4.12447E+00 1.67741E+00-4.34611E+00-4.30378E-13 8.39495E-13
 -1      1690 5.68290E+01 3.79618E+00 1.77438E+00 1.36443E+00-3.03535E-13 3.40464E-13
 -1      1691 4.72331E+01 5.99000E+00 1.29150E+00-1.06134E+01-6.65398E-13 1.32183E-12
 -1      1692 5.34507E+01 4.34814E+00 1.67966E+00-6.74004E+00-4.69041E-13 9.82381E-13
 -1      1693 3.46708E+01 7.69161E+00 7.78311E-01-1.32649E+01-9.47242E-13 1.56697E-12
 -1      1694 4.35390E+01 6.25983E+00 1.42516E+00-1.26847E+01-7.31082E-13 1.49669E-12
 -1      1695 2.08235E+01 6.22890E+00 3.06279E-02-1.05365E+01-1.07836E-12 1.24301E-12
 -1      1696 2.95608E+01 7.15942E+00 8.64667E-01-1.31607E+01-9.62896E-13 1.42730E-12
 -1      1697 9.49794E+00 1.13902E+00-7.34491E-01-5.68805E+00-9.46132E-13 8.97504E-13
 -1      1698 1.54318E+01 5.21137E+00 1.34540E-01-9.57507E+00-9.99201E-13 1.15075E-12
 -1      1699 3.42920E+00-6.56893E+00-1.31177E+00-1.75574E+00-7.15872E-13 5.35794E-13
 -1      1700 5.94016E+00-9.99978E-01-5.99895E-01-4.27101E+00-9.81437E-13 7.60281E-13
 -1      1701 5.42580E-01-1.40392E+01-1.74444E+00-1.74738E-01-1.15463E-13 2.82292E-13
 -1      1702 1.19103E+00-8.81697E+00-1.23091E+00-6.00245E-01-6.31606E-13 4.67820E-13
 -1      1703-6.28159E-01-1.82349E+01-1.95202E+00-8.29777E-01 6.35159E-13 2.09166E-13
 -1      1704-5.34479E-01-1.56334E+01-1.69596E+00 4.58012E-01 1.56652E-13 2.27429E-13
 -1      1705 2.29187E+01 1.97977E+00-2.75910E-02 2.73760E+00 1.18176E-13 1.40468E-12
 -1      1706 1.31089E+01-6.17433E+00-7.32547E-01 5.18235E+00 1.08880E-12 5.10758E-13
 -1      1707 1.99993E+01-6.44880E-04 6.71879E-05-1.05836E-03 3.74135E-13 5.53192E-13
 -1      1708-7.03944E-01-1.24553E+01-1.44025E+00 6.43042E-01 9.72111E-13 9.02611E-13
 -1      1709 4.29728E+00-9.64357E+00-1.13451E+00 3.15495E+00 1.11544E-12 7.53564E-13
 -1      1710-1.68743E+00-1.28295E+01-1.42642E+00-1.17512E+00 5.32435E-13 5.33573E-13
 -1      1711 2.44973E+01-2.08062E+00-1.32668E-01 6.24388E+00 9.71889E-13 6.01186E-13
 -1      1712 3.77276E+01 1.98456E+00 8.20219E-01 5.69521E+00 8.10518E-13 3.83027E-13
 -1      1713 4.79992E+01 5.51124E+00 1.62947E+00 3.08129E+00 6.48093E-13 1.24789E-13
 -1      1714 5.35221E+01 7.75949E+00 2.16723E+00 6.18172E-01 6.67910E-13-1.06137E-13
 -1      1715 5.34232E+01 7.32402E+00 2.16495E+00-1.52627E+00 6.86950E-13-4.00291E-13
 -1      1716 4.53064E+01 4.28408E+00 1.28314E+00-2.90374E+00 7.62820E-13-5.71432E-13
 -1      1717 3.42236E+01 4.76131E-01 5.48327E-01-5.47997E+00 5.44120E-13-9.24594E-13
 -1      1718 2.03093E+01-2.98669E+00-3.18769E-01-6.14188E+00 3.68594E-13-1.13387E-12
 -1      1719 9.20059E+00-7.30266E+00-9.68082E-01-4.40581E+00 9.04832E-14-7.71827E-13
 -1      1720 2.02124E+00-1.08282E+01-1.27807E+00-2.23224E+00-2.60458E-13-5.60108E-13
 -1      1721-1.43753E+00-1.28847E+01-1.45432E+00-3.48276E-02-6.15369E-13-5.48228E-13
 -1      1722-1.16461E+00-1.22537E+01-1.33538E+00 1.88372E+00-9.28702E-13-4.50917E-13
 -1      1723 2.10979E+00-9.70988E+00-1.09171E+00 3.78949E+00-9.80660E-13-4.57051E-13
 -1      1724 8.47230E+00-5.86118E+00-6.65922E-01 5.87875E+00-1.07025E-12-5.64299E-13
 -1      1725 1.71018E+01-1.48401E+00-1.61589E-01 7.52800E+00-9.85989E-13-7.32747E-13
 -1      1726 2.69712E+01 2.57528E+00 4.23103E-01 8.48219E+00-8.31668E-13-7.03104E-13
 -1      1727 3.69081E+01 5.18533E+00 9.25591E-01 7.46468E+00-7.23963E-13-4.98490E-13
 -1      1728 4.44625E+01 7.02306E+00 1.28159E+00 4.61656E+00-6.74683E-13-2.67675E-13
 -1      1729 4.86233E+01 7.75346E+00 1.50479E+00 1.21449E+00-5.94413E-13 6.66134E-15
 -1      1730 4.72525E+01 7.76281E+00 1.43200E+00-2.51756E+00-5.73874E-13 3.09197E-13
 -1      1731 4.22610E+01 6.57198E+00 1.22521E+00-6.07512E+00-5.41539E-13 6.28053E-13
 -1      1732 3.36084E+01 4.31399E+00 7.64735E-01-8.07126E+00-4.87055E-13 9.16156E-13
 -1      1733 2.30071E+01 1.06352E+00 2.10163E-01-8.20949E+00-4.76508E-13 8.11906E-13
 -1      1734 1.28286E+01-3.11709E+00-3.98271E-01-6.84437E+00-3.58047E-13 5.53557E-13
 -1      1735 5.26083E+00-7.52641E+00-8.79240E-01-4.85812E+00-1.50879E-13 4.10522E-13
 -1      1736 3.87884E-01-1.10691E+01-1.23954E+00-2.92264E+00 2.22378E-13 5.63383E-13
 -1      1737 2.28458E+01 1.97797E+00-2.42256E-02-2.68928E+00-1.85907E-13 2.67064E-13
 -1      1738 1.98529E+01 3.72624E+00-3.50887E-02-2.09087E+00-1.21746E-13-3.90792E-13
 -1      1739 2.00855E+01 3.56471E+00-4.22982E-02-2.37844E+00-1.74954E-13-3.57128E-13
 -1      1740 2.03986E+01 3.18044E+00-4.51224E-02-2.52675E+00-1.95031E-13-2.96131E-13
 -1      1741 2.06144E+01 2.80417E+00-1.41387E-01-2.79816E+00-2.40002E-13-2.14960E-13
 -1      1742 2.04667E+01 2.69503E+00-2.76560E-03-2.15649E+00-1.93246E-13-2.99073E-13
 -1      1743 1.93549E+01 4.21937E+00-2.03349E-02-1.21306E+00 1.40233E-14-3.99587E-13
 -1      1744 1.94375E+01 4.17660E+00-1.66115E-02-1.43350E+00-1.52213E-14-4.13402E-13
 -1      1745 1.92404E+01 4.33571E+00-1.68332E-02-8.14665E-01 7.75070E-14-3.83530E-13
 -1      1746 1.92920E+01 4.30913E+00-1.37404E-02-1.01876E+00 4.34373E-14-3.93937E-13
 -1      1747 1.95174E+01 3.82844E+00-8.94826E-03-1.06020E+00 2.33414E-14-3.79606E-13
 -1      1748 1.91749E+01 4.40501E+00-1.46882E-02-4.39489E-01 1.29200E-13-3.46525E-13
 -1      1749 1.92033E+01 4.39013E+00-1.26991E-02-6.30855E-01 1.09336E-13-3.72881E-13
 -1      1750 1.94010E+01 3.96233E+00-8.71962E-03-6.88572E-01 9.85121E-14-3.63159E-13
 -1      1751 1.91483E+01 4.43679E+00-1.33947E-02-7.78889E-02 1.81300E-13-3.02421E-13
 -1      1752 1.91574E+01 4.43157E+00-1.26532E-02-2.62863E-01 1.52818E-13-3.29580E-13
 -1      1753 1.93366E+01 4.03759E+00-8.52946E-03-3.33726E-01 1.53081E-13-3.28373E-13
 -1      1754 1.91577E+01 4.43413E+00-1.27403E-02 2.80430E-01 2.23560E-13-2.68148E-13
 -1      1755 1.91484E+01 4.43818E+00-1.33086E-02 9.58614E-02 2.05825E-13-2.89080E-13
 -1      1756 1.93159E+01 4.06365E+00-8.41365E-03 1.13587E-02 2.06570E-13-2.84411E-13
 -1      1757 1.92049E+01 4.39564E+00-1.27578E-02 6.46256E-01 2.62026E-13-2.24262E-13
 -1      1758 1.91757E+01 4.40985E+00-1.46283E-02 4.55951E-01 2.44572E-13-2.57802E-13
 -1      1759 1.93369E+01 4.04248E+00-8.41777E-03 3.55203E-01 2.47814E-13-2.47901E-13
 -1      1760 1.92947E+01 4.31734E+00-1.36914E-02 1.02432E+00 2.96873E-13-1.52012E-13
 -1      1761 1.92425E+01 4.34304E+00-1.68411E-02 8.25133E-01 2.77458E-13-1.90714E-13
 -1      1762 1.94023E+01 3.97113E+00-8.45087E-03 7.03648E-01 2.86403E-13-1.92037E-13
 -1      1763 1.94456E+01 4.18279E+00-1.64235E-02 1.43955E+00 3.40556E-13-4.80744E-14
 -1      1764 1.93593E+01 4.22683E+00-2.04231E-02 1.21661E+00 3.17081E-13-1.05317E-13
 -1      1765 1.95211E+01 3.83862E+00-8.61470E-03 1.06781E+00 3.24644E-13-1.09471E-13
 -1      1766 1.96897E+01 3.95845E+00-2.39274E-02 1.89621E+00 3.56897E-13 8.49876E-14
 -1      1767 1.95504E+01 4.03701E+00-2.64385E-02 1.64315E+00 3.42987E-13-1.60982E-15
 -1      1768 1.97153E+01 3.62002E+00-8.29665E-03 1.45478E+00 3.54899E-13-8.49668E-15
 -1      1769 2.01052E+01 3.55494E+00-4.26589E-02 2.38392E+00 3.42249E-13 2.91989E-13
 -1      1770 1.98690E+01 3.72116E+00-3.53160E-02 2.09675E+00 3.46389E-13 1.67200E-13
 -1      1771 2.00228E+01 3.27061E+00-4.90872E-03 1.84855E+00 3.61613E-13 1.30482E-13
 -1      1772 2.06412E+01 2.78835E+00-1.36829E-01 2.80955E+00 2.64903E-13 6.26131E-13
 -1      1773 2.04203E+01 3.16185E+00-4.56682E-02 2.53552E+00 3.03461E-13 4.28768E-13
 -1      1774 2.05099E+01 2.67718E+00 4.80710E-03 2.16819E+00 3.32177E-13 3.47385E-13
 -1      1775 1.89218E+01-5.35902E+00-1.40775E-01 6.07131E+00 6.21170E-13 3.61933E-14
 -1      1776 1.36906E+01-6.96262E+00-4.32621E-01 5.33204E+00 6.25278E-13 8.52929E-14
 -1      1777 2.18103E+01 2.44968E+00 9.03147E-02-3.00256E+00-2.32788E-13-3.39728E-14
 -1      1778 2.18392E+01 2.46544E+00 8.88158E-02 3.04090E+00 1.83398E-13 9.02584E-13
 -1      1779 2.05759E+01 5.04136E-01 3.26536E-02-8.70410E-01-1.73729E-13-8.58409E-14
 -1      1780 2.01644E+01 3.57647E-01 8.40031E-03-5.76045E-01-1.52618E-13-1.35971E-13
 -1      1781 1.99849E+01 2.64480E-01 2.75549E-02-3.32199E-01-1.58228E-13-1.20638E-13
 -1      1782 1.98171E+01 1.86901E-01 1.11010E-02-1.89708E-01-1.35171E-13-1.59053E-13
 -1      1783 2.02762E+01 4.92679E-01-6.35858E-03-6.50393E-01-1.70545E-13-1.71621E-13
 -1      1784 1.97139E+01 1.42603E-01 1.68156E-02-4.88895E-02-1.12825E-13-1.49137E-13
 -1      1785 1.96633E+01 1.03901E-01 7.61368E-03 2.79438E-02-8.94146E-14-1.66525E-13
 -1      1786 1.99848E+01 2.57633E-01-6.24968E-03-2.09143E-01-1.31489E-13-1.59097E-13
 -1      1787 1.96214E+01 7.95131E-02 8.90294E-03 1.09781E-01-6.78305E-14-1.74353E-13
 -1      1788 1.96391E+01 5.77747E-02 4.66257E-03 1.52402E-01-3.35879E-14-1.68299E-13
 -1      1789 1.98443E+01 1.41319E-01-5.12451E-03 4.52612E-02-8.77224E-14-1.44986E-13
 -1      1790 1.96401E+01 4.26865E-02 4.47092E-03 1.99104E-01-2.60277E-14-1.60277E-13
 -1      1791 1.96963E+01 2.87515E-02 2.70900E-03 2.21381E-01-6.63749E-15-1.83856E-13
 -1      1792 1.98082E+01 7.64178E-02-3.94061E-03 1.93224E-01-2.94006E-14-1.60568E-13
 -1      1793 1.97256E+01 1.78721E-02 2.04121E-03 2.45003E-01-7.80330E-15-1.84196E-13
 -1      1794 1.98013E+01 7.11631E-03 1.20269E-03 2.53070E-01-3.48379E-15-1.55457E-13
 -1      1795 1.98424E+01 3.48477E-02-2.76788E-03 2.75156E-01-1.16747E-14-1.38493E-13
 -1      1796 1.98478E+01-2.37921E-03 6.18864E-04 2.59042E-01-3.20078E-14-1.74756E-13
 -1      1797 1.99294E+01-1.27333E-02-2.40302E-04 2.54969E-01-4.55219E-14-1.52820E-13
 -1      1798 1.99210E+01 2.81653E-03-1.73837E-03 3.10843E-01-3.03089E-14-1.58746E-13
 -1      1799 1.99842E+01-2.26418E-02-3.07304E-04 2.44679E-01-3.97688E-14-1.74771E-13
 -1      1800 2.00599E+01-3.43774E-02-1.80363E-03 2.28076E-01-4.37266E-14-1.55893E-13
 -1      1801 2.00242E+01-2.76274E-02-8.44641E-04 3.08172E-01-4.76718E-14-1.35533E-13
 -1      1802 2.01150E+01-4.57721E-02-9.90528E-04 2.00350E-01-7.92837E-14-1.57974E-13
 -1      1803 2.01730E+01-5.97642E-02-3.52016E-03 1.69408E-01-7.28831E-14-2.18479E-13
 -1      1804 2.01351E+01-6.13602E-02-4.48136E-06 2.67627E-01-7.90762E-14-1.65076E-13
 -1      1805 2.02203E+01-7.28404E-02-1.56405E-03 1.21832E-01-8.43895E-14-2.32724E-13
 -1      1806 2.02483E+01-8.87216E-02-5.26665E-03 7.44965E-02-5.23774E-14-2.95638E-13
 -1      1807 2.02377E+01-1.00550E-01 8.74856E-04 1.85370E-01-9.88520E-14-1.64214E-13
 -1      1808 2.02789E+01-1.02387E-01-2.09786E-03 5.12145E-03-6.39727E-14-2.67532E-13
 -1      1809 2.02642E+01-1.18011E-01-6.73467E-03-5.92721E-02-8.95074E-14-3.07962E-13
 -1      1810 2.03149E+01-1.43799E-01 1.85828E-03 5.65612E-02-7.09250E-14-1.84022E-13
 -1      1811 2.02681E+01-1.29427E-01-2.61239E-03-1.49549E-01-2.46717E-14-3.31371E-13
 -1      1812 2.02001E+01-1.40463E-01-7.43406E-03-2.28129E-01-2.21862E-14-2.77462E-13
 -1      1813 2.03479E+01-1.84779E-01 2.94289E-03-1.20156E-01-7.07613E-14-1.76924E-13
 -1      1814 2.01673E+01-1.44912E-01-3.06237E-03-3.32658E-01 1.78677E-16-2.44076E-13
 -1      1815 2.00403E+01-1.45134E-01-6.78911E-03-4.16800E-01 8.97850E-15-1.65540E-13
 -1      1816 2.03169E+01-2.11338E-01 3.99778E-03-3.36800E-01 6.97662E-15-1.47582E-13
 -1      1817 1.99628E+01-1.36796E-01-3.29042E-03-5.20634E-01-3.38653E-14-1.74173E-13
 -1      1818 1.97804E+01-1.19776E-01-4.38326E-03-5.94770E-01-2.16923E-14-1.78023E-13
 -1      1819 2.02048E+01-2.06648E-01 4.69958E-03-5.69878E-01-2.46916E-15-1.28488E-13
 -1      1820 1.96574E+01-9.39681E-02-3.00271E-03-6.74305E-01-2.42892E-14-2.23687E-13
 -1      1821 1.94359E+01-5.64485E-02-3.17866E-04-7.17483E-01-8.85891E-15-1.83620E-13
 -1      1822 2.00031E+01-1.54138E-01 4.51726E-03-7.76785E-01-4.05257E-14-1.04787E-13
 -1      1823 1.92783E+01-1.31128E-02-1.79588E-03-7.44620E-01-2.47316E-14-1.87848E-13
 -1      1824 1.90480E+01 4.09689E-02 4.52326E-03-7.36135E-01-2.07495E-15-2.28282E-13
 -1      1825 1.97220E+01-4.66657E-02 2.86495E-03-8.99497E-01-4.74119E-14-9.12658E-14
 -1      1826 1.88821E+01 9.41544E-02 6.27524E-04-6.88017E-01 2.42013E-14-2.64827E-13
 -1      1827 1.86831E+01 1.51741E-01 8.60942E-03-6.16506E-01-3.49143E-14-2.75387E-13
 -1      1828 1.93984E+01 1.03350E-01-4.48040E-04-8.79723E-01-4.30593E-14-1.05531E-13
 -1      1829 1.85473E+01 1.99618E-01 4.12987E-03-4.88188E-01-1.05251E-13-2.89741E-13
 -1      1830 1.84198E+01 2.41832E-01 1.04538E-02-3.60195E-01-7.10755E-14-3.30552E-13
 -1      1831 1.90966E+01 2.59939E-01-4.69517E-03-6.84386E-01-8.24759E-14-9.24107E-14
 -1      1832 1.83524E+01 2.67364E-01 7.76126E-03-1.72989E-01-2.45221E-14-3.92825E-13
 -1      1833 1.83251E+01 2.78259E-01 9.48801E-03-1.49196E-02-6.39835E-14-4.38538E-13
 -1      1834 1.88933E+01 3.73404E-01-8.17185E-03-3.30608E-01-9.89079E-14-2.18245E-13
 -1      1835 1.83478E+01 2.71567E-01 1.01010E-02 1.87488E-01-1.14078E-13-4.54212E-13
 -1      1836 1.84280E+01 2.46930E-01 6.44812E-03 3.37747E-01-1.56123E-13-4.85424E-13
 -1      1837 1.88486E+01 4.02534E-01-9.15428E-03 1.07916E-01-7.29803E-14-3.17609E-13
 -1      1838 1.85349E+01 2.10798E-01 9.93796E-03 5.05752E-01-2.68266E-14-3.88474E-13
 -1      1839 1.87063E+01 1.60628E-01 2.79154E-03 6.13560E-01 1.13460E-13-3.64368E-13
 -1      1840 1.89783E+01 3.36544E-01-7.08816E-03 5.24432E-01-2.60196E-14-2.79215E-13
 -1      1841 1.88674E+01 1.09120E-01 7.08512E-03 7.11594E-01 7.48247E-14-4.35326E-13
 -1      1842 1.90957E+01 5.19201E-02-1.71320E-04 7.58648E-01 9.70396E-14-4.56121E-13
 -1      1843 1.92464E+01 2.01260E-01-3.03350E-03 8.21600E-01 4.58869E-14-2.80641E-13
 -1      1844 1.92710E+01 2.25223E-03 2.54303E-03 7.77005E-01 8.90482E-14-4.15772E-13
 -1      1845 1.95155E+01-4.48114E-02-1.94959E-03 7.65174E-01 2.83085E-14-4.25684E-13
 -1      1846 1.95828E+01 4.44436E-02 9.45816E-04 9.48803E-01 7.21972E-14-4.16279E-13
 -1      1847 1.96713E+01-8.03427E-02-2.07429E-03 7.17909E-01-3.01686E-14-3.88858E-13
 -1      1848 1.98961E+01-1.08101E-01-2.60588E-03 6.63723E-01 1.63541E-15-4.06041E-13
 -1      1849 1.99143E+01-8.77675E-02 3.55467E-03 9.12662E-01 2.06475E-14-4.02951E-13
 -1      1850 2.00133E+01-1.25406E-01-5.46366E-03 5.77320E-01 4.43152E-14-4.00599E-13
 -1      1851 2.01946E+01-1.33467E-01-2.53774E-03 5.02470E-01 8.21196E-14-4.21542E-13
 -1      1852 2.01884E+01-1.69391E-01 4.50123E-03 7.60293E-01 4.60144E-14-1.93294E-13
 -1      1853 2.02681E+01-1.35074E-01-7.09171E-03 4.03816E-01 7.75126E-14-4.21801E-13
 -1      1854 2.03958E+01-1.28593E-01-2.11266E-03 3.27261E-01 1.03195E-13-3.55402E-13
 -1      1855 2.03811E+01-1.97492E-01 4.22491E-03 5.52194E-01 1.06273E-13-2.34497E-13
 -1      1856 2.04304E+01-1.20106E-01-7.12702E-03 2.36206E-01 1.47386E-13-4.35112E-13
 -1      1857 2.05058E+01-1.05820E-01-1.58080E-03 1.70330E-01 1.08665E-13-3.81195E-13
 -1      1858 2.04917E+01-1.84704E-01 3.33917E-03 3.40437E-01 1.07701E-13-3.77346E-13
 -1      1859 2.05104E+01-9.28583E-02-6.10359E-03 9.76605E-02-5.35962E-14-3.67780E-13
 -1      1860 2.05419E+01-7.64306E-02-1.06909E-03 4.80682E-02-1.70871E-13-3.85457E-13
 -1      1861 2.05333E+01-1.48829E-01 2.30664E-03 1.58611E-01 2.67330E-14-3.82954E-13
 -1      1862 2.05261E+01-6.31032E-02-4.59435E-03-3.01088E-03-2.74774E-13-3.79741E-13
 -1      1863 2.05252E+01-4.81540E-02-6.30549E-04-3.57864E-02-2.53534E-13-4.77355E-13
 -1      1864 2.05242E+01-1.05454E-01 1.38004E-03 2.17266E-02-1.77139E-13-3.37071E-13
 -1      1865 2.04974E+01-3.67769E-02-3.03884E-03-6.69467E-02-2.29607E-13-4.03105E-13
 -1      1866 2.04754E+01-2.50032E-02-2.81787E-04-8.52948E-02-2.13251E-13-3.49468E-13
 -1      1867 2.04821E+01-6.49133E-02 6.57150E-04-6.88934E-02-2.27586E-13-2.42270E-13
 -1      1868 2.04421E+01-1.64526E-02-1.69783E-03-1.00553E-01-1.07939E-13-2.21494E-13
 -1      1869 2.04086E+01-8.19703E-03-2.28078E-05-1.08010E-01 4.04032E-14-1.96808E-13
 -1      1870 2.04219E+01-3.23392E-02 1.45161E-04-1.19772E-01-9.46098E-14-1.10879E-13
 -1      1871 2.03744E+01-2.44544E-03-6.78207E-04-1.11936E-01 2.25243E-16-1.94512E-13
 -1      1872 2.03366E+01 2.69808E-03 1.54547E-04-1.12042E-01-6.55431E-15-1.46531E-13
 -1      1873 2.03547E+01-9.06419E-03-1.87425E-04-1.40515E-01 2.76057E-14-9.35607E-14
 -1      1874 2.03043E+01 6.11717E-03 1.52828E-05-1.08751E-01-7.49295E-14-1.91685E-13
 -1      1875 2.02672E+01 8.84912E-03 2.62642E-04-1.04480E-01 7.11529E-15-2.88529E-13
 -1      1876 2.02883E+01 5.76296E-03-3.81200E-04-1.40766E-01-7.83271E-14-1.25218E-13
 -1      1877 2.02385E+01 1.05337E-02 4.31180E-04-9.72166E-02 1.22201E-13-3.24788E-13
 -1      1878 2.02050E+01 1.15785E-02 3.16087E-04-9.07909E-02 1.83110E-13-2.53857E-13
 -1      1879 2.02271E+01 1.39189E-02-4.74131E-04-1.28676E-01 5.22460E-14-1.35638E-13
 -1      1880 2.01806E+01 1.20907E-02 6.36783E-04-8.18697E-02 7.52165E-17-3.31550E-13
 -1      1881 2.01520E+01 1.20661E-02 3.29542E-04-7.47980E-02-5.96274E-14-3.42244E-13
 -1      1882 2.01737E+01 1.73271E-02-4.98010E-04-1.10393E-01 8.10007E-14-7.48353E-14
 -1      1883 2.01320E+01 1.18613E-02 6.97913E-04-6.57217E-02 1.07852E-13-3.28588E-13
 -1      1884 2.01088E+01 1.12370E-02 3.16154E-04-5.89284E-02 1.91488E-13-1.90625E-13
 -1      1885 2.01290E+01 1.76686E-02-4.77802E-04-9.01382E-02 8.13114E-14-3.22787E-15
 -1      1886 2.00929E+01 1.06491E-02 6.69405E-04-5.05701E-02 1.50379E-13-1.81193E-13
 -1      1887 2.00749E+01 9.75111E-03 2.86696E-04-4.45490E-02 1.38774E-13-1.26214E-13
 -1      1888 2.00929E+01 1.62428E-02-4.32092E-04-7.05409E-02 1.58993E-13 5.45135E-14
 -1      1889 2.00627E+01 9.00553E-03 5.92353E-04-3.73347E-02 1.01623E-13-2.18157E-14
 -1      1890 2.00492E+01 8.04222E-03 2.49291E-04-3.22881E-02 4.17335E-14 3.99452E-14
 -1      1891 2.00646E+01 1.39668E-02-3.74096E-04-5.30390E-02 1.16534E-13-1.65715E-14
 -1      1892 2.00400E+01 7.27864E-03 4.94992E-04-2.63512E-02-6.66338E-14-4.07892E-14
 -1      1893 2.00304E+01 6.37006E-03 2.09547E-04-2.23000E-02-1.19113E-13 7.46026E-16
 -1      1894 2.00432E+01 1.14355E-02-3.12732E-04-3.82522E-02-4.80493E-14 8.47234E-14
 -1      1895 2.00238E+01 5.66587E-03 3.95100E-04-1.75997E-02-1.77601E-13 5.42474E-14
 -1      1896 2.00172E+01 4.87072E-03 1.70908E-04-1.44643E-02-2.52513E-14 2.46882E-14
 -1      1897 2.00275E+01 8.99953E-03-2.53591E-04-2.62826E-02-1.17994E-13 2.42525E-13
 -1      1898 2.00127E+01 4.26080E-03 3.02690E-04-1.08695E-02 1.43758E-13-7.96673E-14
 -1      1899 2.00085E+01 3.59755E-03 1.35017E-04-8.52547E-03 1.98368E-13 1.06426E-13
 -1      1900 2.00163E+01 6.83694E-03-1.99785E-04-1.69387E-02 2.24525E-14 3.15454E-13
 -1      1901 2.00055E+01 3.08918E-03 2.22328E-04-5.87099E-03 1.59756E-13 2.08941E-13
 -1      1902 2.00031E+01 2.55137E-03 1.02210E-04-4.18494E-03 2.27357E-13 3.63938E-13
 -1      1903 2.00088E+01 5.01126E-03-1.52739E-04-9.89058E-03 3.08849E-13 3.01008E-13
 -1      1904 2.00013E+01 2.13458E-03 1.55383E-04-2.30743E-03 1.71913E-13 1.15566E-13
 -1      1905 2.00002E+01 1.69874E-03 7.14532E-05-1.15927E-03 2.79931E-13 1.87931E-13
 -1      1906 2.00041E+01 3.51388E-03-1.12627E-04-4.77253E-03 7.88551E-14 2.82164E-13
 -1      1907 1.99992E+01 1.35015E-03 1.01489E-04 7.75386E-05 1.77710E-13 6.19980E-14
 -1      1908 1.99989E+01 9.86974E-04 4.45428E-05 7.75530E-04 1.24917E-13-9.96078E-15
 -1      1909 2.00013E+01 2.28285E-03-7.97550E-05-1.24747E-03 1.38593E-13 5.18313E-14
 -1      1910 1.99985E+01 6.64406E-04 5.67397E-05 1.48357E-03 2.00744E-13-6.56786E-14
 -1      1911 1.99987E+01 3.27944E-04 2.01149E-05 1.77482E-03 1.89438E-13 5.77527E-14
 -1      1912 2.00000E+01 1.25089E-03-4.94046E-05 9.49431E-04 1.01479E-13-2.22495E-13
 -1      1913 1.99986E+01 3.58530E-05 3.39440E-05 1.99251E-03 3.20680E-14-2.33492E-14
 -1      1914 1.99990E+01-3.30945E-04-4.59712E-07 1.88335E-03-8.82265E-15-4.70151E-14
 -1      1915 1.99994E+01-6.68227E-04-2.62181E-05 2.11345E-03-5.90434E-15-3.16539E-14
 -1      1916 1.99994E+01 2.43544E-04-4.28408E-05 2.00263E-03 6.26794E-14-1.10320E-13
 -1      1917 1.98512E+01 2.03158E-01 1.28694E-02 1.86567E-01 1.36335E-13 5.31973E-13
 -1      1918 2.00135E+01 2.78244E-01 2.65111E-02 3.37347E-01 1.66353E-13 5.88089E-13
 -1      1919 2.01964E+01 3.78781E-01 9.45374E-03 5.94601E-01 2.01719E-13 6.30048E-13
 -1      1920 2.06039E+01 5.29093E-01 2.96813E-02 9.04047E-01 1.99580E-13 6.94077E-13
 -1      1921 2.03076E+01 5.25408E-01-4.03477E-03 6.63676E-01 2.23124E-13 4.06474E-13
 -1      1922 1.97141E+01 1.27132E-01 9.82496E-03-4.56639E-02 8.88686E-14 4.93320E-13
 -1      1923 1.97531E+01 1.61520E-01 1.72852E-02 3.83591E-02 1.09147E-13 5.18042E-13
 -1      1924 2.00254E+01 2.88726E-01-5.20958E-03 2.05278E-01 1.49798E-13 3.73300E-13
 -1      1925 1.97170E+01 9.05968E-02 7.68901E-03-2.07847E-01 4.79590E-14 4.45138E-13
 -1      1926 1.96781E+01 1.05306E-01 9.82706E-03-1.47527E-01 5.85027E-14 4.58144E-13
 -1      1927 1.98959E+01 1.79921E-01-5.46319E-03-8.11678E-02 9.74518E-14 3.28581E-13
 -1      1928 1.98314E+01 7.98334E-02 7.22404E-03-3.32325E-01 4.67406E-14 3.94017E-13
 -1      1929 1.97333E+01 8.24359E-02 5.56923E-03-2.82758E-01 3.63897E-14 4.06936E-13
 -1      1930 1.98818E+01 1.32293E-01-4.83376E-03-2.82783E-01 7.77627E-14 2.74790E-13
 -1      1931 2.00369E+01 8.78656E-02 8.09792E-03-4.49981E-01 5.15827E-14 3.87594E-13
 -1      1932 1.98879E+01 8.05769E-02 3.31261E-03-3.99102E-01 4.01482E-14 3.87097E-13
 -1      1933 1.99599E+01 1.22300E-01-3.94907E-03-4.43893E-01 5.68504E-14 2.19029E-13
 -1      1934 2.03277E+01 1.12716E-01 9.78906E-03-5.85039E-01 5.14233E-14 3.22597E-13
 -1      1935 2.01267E+01 9.59311E-02 2.11146E-03-5.22522E-01 5.96123E-14 3.66167E-13
 -1      1936 2.01117E+01 1.40290E-01-3.21485E-03-6.00941E-01 6.27512E-14 1.97444E-13
 -1      1937 2.06907E+01 1.52479E-01 1.24354E-02-7.49720E-01-6.81486E-15 2.58815E-13
 -1      1938 2.04406E+01 1.27368E-01 1.45511E-03-6.71080E-01 1.61030E-14 2.86589E-13
 -1      1939 2.03226E+01 1.82932E-01-2.38057E-03-7.77561E-01 4.72083E-14 1.23685E-13
 -1      1940 2.11788E+01 2.12623E-01 1.60741E-02-9.82866E-01-2.02746E-15 2.64446E-13
 -1      1941 2.08395E+01 1.75829E-01 8.30030E-04-8.68811E-01-1.03307E-14 2.79675E-13
 -1      1942 2.05929E+01 2.50707E-01-2.17065E-03-1.00269E+00 2.34665E-15 6.88195E-14
 -1      1943 2.17969E+01 2.87664E-01 1.93523E-02-1.29746E+00-4.63830E-14 3.02574E-13
 -1      1944 2.13578E+01 2.43358E-01 6.72001E-06-1.14290E+00-2.10743E-14 2.79543E-13
 -1      1945 2.09335E+01 3.46372E-01-1.76209E-03-1.30806E+00-2.75838E-14 9.12463E-14
 -1      1946 2.25697E+01 3.62578E-01 2.09660E-02-1.70254E+00-3.52149E-16 3.50710E-13
 -1      1947 2.20087E+01 3.20981E-01-1.61332E-03-1.50637E+00-3.62661E-14 3.55141E-13
 -1      1948 2.13419E+01 4.59999E-01-1.45700E-03-1.70921E+00-8.11686E-14 1.22239E-13
 -1      1949 2.35168E+01 3.90881E-01 1.83522E-02-2.17266E+00 2.48751E-14 3.87813E-13
 -1      1950 2.28214E+01 3.82286E-01-3.55062E-03-1.95604E+00 4.71680E-14 3.92953E-13
 -1      1951 2.18254E+01 5.57392E-01-1.96595E-03-2.20980E+00-6.06720E-15 1.72233E-13
 -1      1952 2.46487E+01 2.65086E-01 9.40606E-03-2.59940E+00-2.84847E-14 3.80545E-13
 -1      1953 2.38352E+01 3.54091E-01-3.58445E-03-2.43610E+00 1.26713E-14 3.57333E-13
 -1      1954 2.24062E+01 5.47991E-01-4.78944E-03-2.77030E+00 2.79345E-14 1.93138E-13
 -1      1955 2.59050E+01-1.76577E-01-8.00050E-03-2.72845E+00-1.40540E-13 3.70762E-13
 -1      1956 2.50812E+01 1.03598E-01 6.45559E-03-2.76865E+00-6.31422E-14 3.30569E-13
 -1      1957 2.31404E+01 2.48761E-01-1.16961E-02-3.24781E+00-3.54079E-14 9.89766E-14
 -1      1958 2.74516E+01-1.16921E+00-3.07971E-02-2.12536E+00-3.26510E-13 4.13398E-13
 -1      1959 2.66737E+01-5.74669E-01 3.87225E-02-2.61649E+00-2.34601E-13 3.51507E-13
 -1      1960 2.42272E+01-6.14371E-01-2.64880E-02-3.37547E+00-2.06831E-13 1.29835E-13
 -1      1961 2.92431E+01-2.44526E+00-4.50573E-02-2.63239E-01-3.92297E-13 5.74752E-13
 -1      1962 2.87689E+01-1.79829E+00 7.86099E-02-1.38736E+00-4.15244E-13 4.20518E-13
 -1      1963 2.60655E+01-2.26905E+00-6.02921E-02-2.63389E+00-3.91305E-13 7.21576E-14
 -1      1964 3.10240E+01-2.48632E+00-9.70742E-02 2.68126E+00-1.50263E-13 8.36081E-13
 -1      1965 3.11068E+01-2.78837E+00 4.26986E-02 1.31100E+00-3.44010E-13 7.27800E-13
 -1      1966 2.91562E+01-3.87053E+00-8.79876E-02-4.45174E-01-4.91447E-13 2.64974E-13
 -1      1967 3.21086E+01 3.67861E+00-1.17446E-01 2.24747E+00 6.02185E-13 7.80577E-13
 -1      1968 3.25732E+01 2.21239E+00-2.12141E-01 3.73043E+00 4.85334E-13 9.27508E-13
 -1      1969 3.21612E+01 5.22478E-01-2.11832E-01-4.39536E+00 2.84550E-13 3.52801E-13
 -1      1970 3.13474E+01 2.30552E+00-1.84920E-01-3.56160E+00 3.39673E-13 4.12489E-13
 -1      1971 3.19637E+01-2.29752E+00-8.63779E-02-3.14186E+00 1.93005E-13 3.99125E-14
 -1      1972 3.15733E+01-1.03634E+00-1.03060E-01-4.02801E+00 2.04337E-13 1.58359E-13
 -1      1973 3.02539E+01-2.35219E+00 4.57155E-02-8.24190E-02 7.01939E-14 6.71824E-14
 -1      1974 3.04163E+01-2.59352E+00-7.59153E-02-1.51199E+00 1.67300E-13 1.26482E-13
 -1      1975 3.12300E+01-3.41074E+00-6.54281E-02-1.68808E+00 1.45961E-13-9.23567E-14
 -1      1976 2.81634E+01-1.12273E+00 7.41245E-02 1.95769E+00 1.03480E-13 1.49245E-13
 -1      1977 2.87539E+01-1.76968E+00-2.89060E-02 1.08319E+00 3.06977E-14 1.14277E-13
 -1      1978 2.81902E+01-2.78294E+00 1.22509E-02 1.13098E+00 1.94428E-14-5.46993E-14
 -1      1979 2.62887E+01-1.55030E-01 2.32117E-02 2.64690E+00-1.03690E-13 2.71165E-13
 -1      1980 2.70956E+01-6.30521E-01-2.91521E-02 2.39839E+00 2.58613E-14 2.46783E-13
 -1      1981 2.57788E+01-1.36705E+00-5.56241E-02 2.85494E+00-2.73254E-14 3.80876E-14
 -1      1982 2.48282E+01 2.65278E-01 1.50152E-03 2.50790E+00-1.28529E-13 3.19127E-13
 -1      1983 2.56582E+01 6.98325E-02-6.83045E-03 2.59839E+00-1.07861E-13 3.20886E-13
 -1      1984 2.43002E+01-1.09358E-01-2.26336E-02 3.16707E+00-1.13978E-13 2.59882E-13
 -1      1985 2.37214E+01 3.69157E-01-3.76361E-03 2.08964E+00-2.66315E-14 3.03473E-13
 -1      1986 2.44332E+01 3.29435E-01 1.01911E-02 2.28975E+00-1.28790E-13 3.19956E-13
 -1      1987 2.33332E+01 4.03459E-01-1.01139E-02 2.85457E+00-7.21325E-14 2.36314E-13
 -1      1988 2.27939E+01 3.44006E-01-2.73963E-03 1.60542E+00 7.45220E-14 4.48922E-13
 -1      1989 2.34056E+01 3.64784E-01 1.70022E-02 1.82429E+00 6.68476E-14 3.87613E-13
 -1      1990 2.26117E+01 5.24978E-01-3.07158E-03 2.32679E+00-7.62203E-14 3.71835E-13
 -1      1991 2.20736E+01 2.74031E-01-8.88716E-04 1.18404E+00 1.98874E-13 3.83414E-13
 -1      1992 2.25471E+01 3.13599E-01 1.83456E-02 1.36884E+00 1.77686E-13 5.91077E-13
 -1      1993 2.20211E+01 4.76484E-01-1.03985E-03 1.78006E+00 7.19945E-14 5.16052E-13
 -1      1994 2.15210E+01 2.03696E-01 3.03302E-04 8.53963E-01 2.25432E-13 2.24113E-13
 -1      1995 2.18751E+01 2.41990E-01 1.61627E-02 9.95989E-01 2.06647E-13 2.96241E-13
 -1      1996 2.15449E+01 3.76521E-01-7.54676E-04 1.31650E+00 2.41422E-13 5.91661E-13
 -1      1997 2.11045E+01 1.46573E-01 1.10599E-03 6.08456E-01 1.51519E-14 2.53386E-13
 -1      1998 2.13628E+01 1.77212E-01 1.28323E-02 7.12590E-01 2.09108E-13 2.61341E-13
 -1      1999 2.11642E+01 2.78914E-01-1.00156E-03 9.54775E-01 1.63386E-13 2.87965E-13
 -1      2000 2.08067E+01 1.05523E-01 1.15428E-03 4.38326E-01 8.41697E-14 3.38908E-14
 -1      2001 2.09870E+01 1.28443E-01 9.86779E-03 5.10220E-01-1.37433E-15 1.12190E-13
 -1      2002 2.08712E+01 2.00744E-01-1.70977E-03 6.89640E-01 1.63921E-13-1.56163E-14
 -1      2003 2.05727E+01 7.41661E-02 9.97593E-04 3.08885E-01 1.25187E-13-1.00617E-13
 -1      2004 2.07090E+01 9.08019E-02 7.09327E-03 3.62606E-01 1.15567E-13-3.49817E-14
 -1      2005 2.06449E+01 1.44021E-01-1.21820E-03 4.96098E-01 1.51661E-13-6.17565E-14
 -1      2006 2.04019E+01 5.20624E-02 8.57412E-04 2.16932E-01 2.32077E-13-2.32423E-13
 -1      2007 2.04991E+01 6.40501E-02 5.15664E-03 2.54940E-01 2.11114E-13-1.13357E-13
 -1      2008 2.04671E+01 1.01087E-01-1.18976E-03 3.51793E-01 2.06204E-13-1.95761E-13
 -1      2009 2.02779E+01 3.66236E-02 7.13268E-04 1.51649E-01 2.83300E-14-1.99569E-13
 -1      2010 2.03467E+01 4.50642E-02 3.66954E-03 1.78489E-01 1.40942E-13-2.29796E-13
 -1      2011 2.03336E+01 7.09212E-02-1.05747E-03 2.48384E-01 1.90668E-13-3.34705E-13
 -1      2012 2.01885E+01 2.58269E-02 5.78999E-04 1.05264E-01-2.66927E-14-5.27807E-13
 -1      2013 2.02370E+01 3.17613E-02 2.59866E-03 1.24248E-01-7.89523E-14-3.55019E-13
 -1      2014 2.02345E+01 4.98308E-02-8.92641E-04 1.74396E-01 3.59383E-14-5.32362E-13
 -1      2015 2.01249E+01 1.82674E-02 4.88861E-04 7.22794E-02-7.40865E-14-3.99493E-13
 -1      2016 2.01586E+01 2.23938E-02 1.82481E-03 8.57115E-02-1.09775E-13-3.93239E-13
 -1      2017 2.01618E+01 3.51052E-02-7.23132E-04 1.21464E-01 1.00086E-14-5.22648E-13
 -1      2018 2.00819E+01 1.31377E-02 3.81726E-04 4.98094E-02 7.56756E-14-7.39756E-14
 -1      2019 2.01043E+01 1.60601E-02 1.31114E-03 5.89759E-02-5.07365E-14-2.73418E-13
 -1      2020 2.01101E+01 2.47813E-02-6.45452E-04 8.42661E-02-2.38771E-13-2.55423E-13
 -1      2021 2.00502E+01 9.24212E-03 2.84154E-04 3.28141E-02-1.94304E-13 9.12060E-14
 -1      2022 2.00662E+01 1.13532E-02 9.15575E-04 3.96653E-02 6.46563E-14 2.59898E-13
 -1      2023 2.00730E+01 1.77692E-02-4.50856E-04 5.76585E-02-1.65129E-13-3.56669E-14
 -1      2024 2.00287E+01 6.47328E-03 2.15096E-04 2.07901E-02-1.50983E-13 4.47929E-13
 -1      2025 2.00393E+01 8.02492E-03 6.54175E-04 2.56307E-02-2.55676E-13 2.23462E-13
 -1      2026 2.00461E+01 1.24774E-02-3.51436E-04 3.80042E-02-2.29417E-13 1.60224E-13
 -1      2027 2.00147E+01 4.49941E-03 1.64340E-04 1.23333E-02-4.50963E-14 2.29385E-13
 -1      2028 2.00213E+01 5.61523E-03 4.56492E-04 1.57189E-02-1.98799E-14 4.25800E-13
 -1      2029 2.00275E+01 8.72320E-03-2.66799E-04 2.40413E-02-1.06410E-13 4.77912E-13
 -1      2030 2.00060E+01 3.08530E-03 1.27729E-04 6.45268E-03 1.57345E-13 2.20715E-13
 -1      2031 2.00099E+01 3.87545E-03 3.10871E-04 8.78569E-03-3.53138E-14 7.74240E-14
 -1      2032 2.00152E+01 6.04603E-03-1.97223E-04 1.41969E-02 7.12451E-14 2.68156E-13
 -1      2033 2.00012E+01 2.09737E-03 9.28873E-05 2.60456E-03-1.74763E-14 4.40391E-13
 -1      2034 2.00031E+01 2.66885E-03 2.11671E-04 4.12171E-03 1.90232E-13 2.99106E-13
 -1      2035 2.00074E+01 4.11574E-03-1.55634E-04 7.46519E-03 6.52860E-14 1.49555E-13
 -1      2036 1.99987E+01 1.30584E-03 6.00267E-05-9.37611E-05-2.36043E-13 4.75576E-13
 -1      2037 1.99994E+01 1.75034E-03 1.37715E-04 9.42836E-04-1.98282E-13 5.60433E-13
 -1      2038 2.00028E+01 2.76692E-03-1.03977E-04 2.88084E-03-1.40387E-13 3.76338E-13
 -1      2039 1.99979E+01 6.77839E-04 3.28860E-05-1.71218E-03-7.51344E-14 6.97116E-13
 -1      2040 1.99978E+01 1.05012E-03 8.65520E-05-1.12017E-03-2.26830E-13 6.08041E-13
 -1      2041 2.00002E+01 1.68255E-03-7.19976E-05-2.09057E-04-3.17604E-13 2.74435E-13
 -1      2042 1.99981E+01 8.57453E-05 8.27562E-06-2.43385E-03-2.14279E-13 7.52688E-13
 -1      2043 1.99976E+01 4.40505E-04 4.59446E-05-2.24075E-03-8.17018E-14 7.81771E-13
 -1      2044 1.99991E+01 8.06062E-04-4.42976E-05-2.00698E-03-1.95601E-13 5.19567E-13
 -1      2045 1.99988E+01-6.11049E-04-2.25713E-05-2.30560E-03-5.11133E-15 7.67600E-13
 -1      2046 1.99982E+01-1.54317E-04 3.33605E-05-2.48910E-03-1.04957E-14 7.27882E-13
 -1      2047 1.99990E+01-9.76944E-05-2.32847E-05-2.74062E-03-6.91191E-14 3.99804E-13
 -1      2048 2.06756E+00-7.78058E+00-4.08088E-01 2.55072E+00 7.19647E-13 8.01526E-13
 -1      2049 4.81823E-01-8.34948E+00-4.91618E-01 1.14648E+00 5.77066E-13 7.44627E-13
 -1      2050 2.00004E+01-2.71578E-03-3.98177E-06-1.20989E-03 3.13582E-13-1.89971E-13
 -1      2051 2.00004E+01-2.33499E-03 2.62039E-05-1.55454E-03 5.44979E-13-2.08276E-13
 -1      2052 2.00003E+01-2.44855E-03 1.30372E-06-1.96234E-03 3.99367E-13-4.85596E-13
 -1      2053 2.00001E+01-1.86396E-03-1.37814E-06-2.19150E-03 2.64158E-13-5.49702E-13
 -1      2054 2.00006E+01-9.70191E-04-7.83164E-06-1.91761E-03 3.63045E-13-3.26104E-13
 -1      2055 1.99991E+01-7.99406E-04 5.19231E-05-1.84330E-03 1.79224E-13 9.57576E-13
 -1      2056 2.00003E+01-2.63715E-03-8.63891E-06-4.78107E-04-1.88407E-13-1.16324E-12
 -1      2057 2.00004E+01-2.45384E-03 3.33127E-05-7.92652E-04 5.53174E-14-7.02277E-13
 -1      2058 2.00007E+01-6.20039E-04-8.47525E-06-1.01176E-03 1.17918E-13-7.18946E-13
 -1      2059 2.00001E+01-2.31753E-03-1.19277E-05 5.52545E-05 5.56877E-14-5.28951E-14
 -1      2060 2.00002E+01-2.29431E-03 2.93918E-05-1.59888E-04 4.28553E-14-5.17365E-13
 -1      2061 2.00005E+01-3.16786E-05 2.00997E-06-2.09845E-04 1.56409E-13-6.71930E-13
 -1      2062 1.99999E+01-1.91713E-03-1.15716E-05 3.10171E-04-1.65303E-13 1.91239E-13
 -1      2063 2.00000E+01-1.98754E-03 1.91159E-05 2.14990E-04 7.63399E-14 2.47887E-13
 -1      2064 2.00002E+01 6.28026E-04 1.31900E-05 2.95348E-04 1.45151E-13 4.98938E-14
 -1      2065 1.99998E+01-1.59032E-03-6.93200E-06 3.37868E-04-2.52206E-13-2.32620E-13
 -1      2066 1.99998E+01-1.68814E-03 6.15160E-06 3.29597E-04-2.05271E-13 5.68069E-14
 -1      2067 2.00000E+01 1.17706E-03 2.17780E-05 4.61213E-04-1.39730E-13-4.46771E-14
 -1      2068 1.99998E+01-1.42967E-03 1.67874E-06 2.64403E-04-1.70955E-13-2.42131E-13
 -1      2069 1.99998E+01-1.51746E-03-5.39019E-06 2.82518E-04-2.01684E-13-2.40148E-13
 -1      2070 1.99998E+01 1.47480E-03 2.55114E-05 3.84379E-04-1.86627E-13-2.18618E-13
 -1      2071 1.99999E+01-1.44433E-03 1.22620E-05 2.39844E-04-2.94687E-13-4.84480E-13
 -1      2072 1.99998E+01-1.52388E-03-1.29182E-05 2.19260E-04-1.08239E-13-4.21089E-13
 -1      2073 1.99998E+01 1.45570E-03 2.37671E-05 2.36242E-04-2.64206E-13-3.72116E-13
 -1      2074 2.00000E+01-1.55771E-03 2.18442E-05 3.83308E-04-3.73450E-13-3.02025E-13
 -1      2075 1.99999E+01-1.66862E-03-1.59900E-05 2.80327E-04-3.40102E-13-3.91379E-13
 -1      2076 2.00000E+01 1.14626E-03 1.79475E-05 1.98195E-04-8.67935E-14-5.03226E-13
 -1      2077 2.00002E+01-1.65516E-03 2.64744E-05 7.50156E-04-5.27225E-14 6.49850E-13
 -1      2078 2.00001E+01-1.85094E-03-1.50841E-05 5.50762E-04-1.60314E-13 3.53391E-13
 -1      2079 2.00002E+01 6.42559E-04 7.26295E-06 4.01539E-04 6.84747E-14 1.43574E-13
 -1      2080 2.00003E+01-1.60761E-03 2.16262E-05 1.27675E-03-1.06434E-13 4.54631E-13
 -1      2081 2.00002E+01-1.92568E-03-1.03750E-05 1.03029E-03-7.45563E-14 4.31469E-13
 -1      2082 2.00004E+01 8.85302E-05-5.58947E-06 8.84908E-04 8.55681E-14 5.39029E-13
 -1      2083 2.00000E+01-1.40263E-03-1.46982E-05 1.79820E-03 1.53270E-14 4.60829E-13
 -1      2084 2.00002E+01-1.78101E-03 3.91889E-06 1.57925E-03-1.07100E-13 5.28754E-13
 -1      2085 2.00004E+01-3.33056E-04-4.12912E-06 1.52356E-03 3.54385E-14 4.18441E-13
 -1      2086 8.68203E+00-6.65012E+00-2.81182E-01 5.30389E+00 6.69242E-13 4.16264E-13
 -1      2087 4.77968E+00-8.17405E+00-5.63751E-01 3.69951E+00 5.73819E-13 6.29025E-13
 -1      2088-6.03851E-02-7.80639E+00-4.02273E-01-6.13673E-01 4.90455E-13 6.65634E-13
 -1      2089 2.04850E-01-7.48040E+00-3.62538E-01-1.99211E+00 2.86410E-13 5.88307E-13
 -1      2090 1.95406E+01 4.03498E+00-2.58704E-02-1.63692E+00-5.06548E-14-4.17295E-13
 -1      2091 1.96767E+01 3.95794E+00-2.37994E-02-1.89069E+00-8.71057E-14-4.08153E-13
 -1      2092 2.00015E+01 3.26926E+00-7.82091E-03-1.83929E+00-1.18692E-13-3.67853E-13
 -1      2093 1.97048E+01 3.61371E+00-9.06755E-03-1.44969E+00-3.84506E-14-3.87926E-13
 -1      2094 3.87573E+01 3.77019E-01 2.67591E-01 1.96261E+00 4.96034E-13-6.17284E-14
 -1      2095 3.33182E+01-1.51351E+00-9.32605E-02 2.68690E+00 6.48204E-13-1.55431E-15
 -1      2096 4.40616E+01 4.65000E+00 5.29785E-01-1.99800E-01 6.11178E-13-8.11018E-14
 -1      2097 4.09156E+01 2.95869E+00 2.77076E-01 5.56854E-01 5.81674E-13 1.36557E-14
 -1      2098 4.59378E+01 6.80249E+00 7.00330E-01-2.17684E-01 6.27942E-13 5.97369E-14
 -1      2099 4.39561E+01 6.34097E+00 4.26357E-01-1.95626E-01 6.10290E-13 8.40439E-14
 -1      2100 4.44636E+01 5.83443E+00 5.07565E-01-1.85456E-01 7.42628E-13-2.98095E-14
 -1      2101 4.64118E+01 6.59383E+00 6.84853E-01 1.35800E-01 6.83342E-13 9.13158E-14
 -1      2102 3.84967E+01 1.73979E+00 1.18432E-01 2.43721E-01 5.34628E-13-3.73035E-14
 -1      2103 4.27697E+01 3.72886E+00 4.59280E-01 2.45773E-01 6.97220E-13-2.04281E-14
 -1      2104 3.04020E+01-2.83226E+00-1.24467E-01-3.35088E+00 1.45439E-13-5.85199E-13
 -1      2105 3.58471E+01-1.42976E+00 6.14931E-03-2.12738E+00 3.24851E-13-1.98508E-13
 -1      2106 1.97099E+01-5.58405E+00-4.50716E-01-5.13035E+00-6.99441E-14-7.46958E-13
 -1      2107 2.59373E+01-3.73395E+00-7.65126E-02-5.60278E+00 8.02691E-14-8.54761E-13
 -1      2108 1.00427E+01-7.49617E+00-5.28535E-01-4.94909E+00-2.14384E-13-5.04322E-13
 -1      2109 1.48503E+01-5.82527E+00-2.56926E-01-6.01888E+00-5.00711E-14-7.01744E-13
 -1      2110 2.74794E+00-8.46658E+00-5.53503E-01-2.91359E+00-4.13891E-13-5.07761E-13
 -1      2111 5.75300E+00-7.16683E+00-3.53188E-01-4.42673E+00-2.30482E-13-4.62047E-13
 -1      2112 7.87407E-02-7.93016E+00-4.09778E-01-1.39588E-01-5.27144E-13-6.01186E-13
 -1      2113 9.97627E-01-7.71054E+00-3.74076E-01-1.59474E+00-3.60989E-13-6.08347E-13
 -1      2114 8.74205E-01-7.20873E+00-3.18998E-01 3.09564E+00-5.91194E-13-3.74589E-13
 -1      2115-6.61682E-02-8.17506E+00-4.51087E-01 1.64265E+00-5.23637E-13-4.45921E-13
 -1      2116 6.16428E+00-5.91735E+00-1.58630E-01 6.11847E+00-5.33906E-13-2.95541E-13
 -1      2117 3.57432E+00-7.01331E+00-3.12274E-01 4.90792E+00-4.32765E-13-3.47056E-13
 -1      2118 1.28441E+01-4.56568E+00-6.65914E-02 7.57146E+00-5.29798E-13-3.36044E-13
 -1      2119 8.92270E+00-6.36793E+00-3.31791E-01 6.48319E+00-5.22249E-13-2.98955E-13
 -1      2120 9.77739E+00-5.33959E+00-6.17421E-02 7.40855E+00-1.33948E-13-1.84852E-13
 -1      2121 2.18398E+01-1.90143E+00 9.28196E-02 7.62586E+00-5.99409E-13-4.22495E-13
 -1      2122 1.71842E+01-4.07789E+00-2.36596E-01 6.97552E+00-5.84310E-13-3.80862E-13
 -1      2123 2.99693E+01 9.28025E-01 2.19760E-01 6.55116E+00-5.88640E-13-3.43392E-13
 -1      2124 2.51915E+01-8.88699E-01-1.16881E-01 6.45364E+00-6.55587E-13-3.98015E-13
 -1      2125 3.63817E+01 3.71417E+00 2.35584E-01 4.34695E+00-5.75998E-13-1.75415E-13
 -1      2126 3.24813E+01 2.41393E+00 8.33999E-02 5.31897E+00-6.07889E-13-3.01426E-13
 -1      2127 3.14966E+01 1.59720E-01 2.04163E-01 3.69833E+00-4.48502E-13-5.97855E-14
 -1      2128 4.07644E+01 6.62918E+00 3.64344E-01 1.86391E+00-6.19615E-13-9.44800E-14
 -1      2129 3.80100E+01 5.64089E+00 1.69724E-01 2.69131E+00-5.84616E-13-1.61204E-13
 -1      2130 4.22615E+01 7.71510E+00 3.05136E-01-9.06370E-02-5.74318E-13 5.48398E-14
 -1      2131 4.16957E+01 7.51998E+00 2.94373E-01 1.26358E+00-6.10789E-13-1.04250E-13
 -1      2132 3.94942E+01 7.11321E+00 1.49811E-01-1.49727E+00-4.87554E-13 7.77711E-14
 -1      2133 4.12870E+01 7.62317E+00 3.23084E-01-5.43957E-01-5.88807E-13 6.85563E-15
 -1      2134 3.62697E+01 4.37340E+00 1.19218E-01-3.75089E+00-3.58880E-13 2.99316E-13
 -1      2135 3.88281E+01 5.52369E+00 2.04491E-01-2.43957E+00-3.88994E-13 2.11164E-13
 -1      2136 3.03242E+01 1.28122E+00-2.43980E-02-5.28301E+00-2.84661E-13 4.55525E-13
 -1      2137 3.48596E+01 2.94441E+00 2.70370E-01-5.05609E+00-3.32311E-13 4.34208E-13
 -1      2138 3.42937E+01 2.94328E+00 2.53293E-01-1.60780E+00-2.45026E-13 2.68674E-14
 -1      2139 2.15595E+01-2.25450E+00-1.91682E-01-6.79462E+00-7.84928E-14 5.40290E-13
 -1      2140 2.68000E+01-3.40553E-01 1.39224E-01-7.05440E+00-2.01728E-13 5.69822E-13
 -1      2141 1.35154E+01-5.12919E+00-3.05817E-01-6.94826E+00 8.90399E-14 2.82246E-13
 -1      2142 1.79790E+01-3.10057E+00 1.64649E-02-7.78547E+00-2.90878E-14 4.26270E-13
 -1      2143 6.10656E+00-6.97195E+00-4.17298E-01-5.75700E+00 1.39666E-13 2.89269E-13
 -1      2144 9.43214E+00-5.17811E+00-1.53973E-01-6.93839E+00 7.77156E-14 2.09804E-13
 -1      2145 1.34626E+00-7.91506E+00-4.42679E-01-3.58271E+00 2.92322E-13 4.47420E-13
 -1      2146 3.24569E+00-6.77316E+00-2.86350E-01-4.85174E+00 1.43829E-13 5.20417E-13
 -1      2147 2.15637E+01 1.74965E+00 7.75070E-02 2.31222E+00 2.15546E-13 7.55215E-13
 -1      2148 2.96803E+01-2.82712E+00 6.53044E-02 4.89475E+00 5.89029E-13 2.13163E-14
 -1      2149 2.35484E+01-4.82909E+00-3.47591E-01 4.66909E+00 5.92748E-13 4.76841E-14
 -1      2150 2.15318E+01 1.73894E+00 7.92023E-02-2.28715E+00-2.35638E-13-9.36404E-14
 -1      2151 1.99992E+01-8.87943E-04 4.09446E-06-2.32739E-03 1.43597E-13 8.26550E-13
 -1      2152 1.99997E+01-1.51480E-03 1.51078E-05-2.41759E-03 1.50607E-13-3.98013E-14
 -1      2153 1.37067E+01-6.62898E+00-1.51403E-01 6.03780E+00 3.31568E-13 4.78367E-14
 -1      2154 2.40917E+01-6.19187E+00-5.01595E-02 4.74261E+00 1.77303E-13-3.46001E-13
 -1      2155 2.07768E+01 1.10848E+00-2.00604E-02-1.56575E+00-2.08559E-13-1.34608E-13
 -1      2156 3.28810E+01-3.64082E+00 1.54530E-01 1.46719E+00 3.78614E-13-3.23463E-13
 -1      2157 2.06733E+01 1.33215E+00-1.92043E-02-1.61390E+00-2.05927E-13-2.05112E-13
 -1      2158 2.06859E+01 1.33181E+00-2.27134E-02 1.61504E+00 2.62245E-13 4.65402E-13
 -1      2159 2.07986E+01 1.10623E+00-2.26244E-02 1.57409E+00 2.27453E-13 6.96101E-13
 -1      2160 3.23974E+01-1.50235E+00-1.27603E-01 3.97345E+00-8.02136E-15 8.82766E-13
 -1      2161 3.25249E+01-2.91036E+00-8.25945E-02 2.60919E+00-1.59955E-13 5.40068E-13
 -1      2162 3.18460E+01 1.43613E-01-1.22289E-01 4.14782E+00 1.37113E-13 9.95967E-13
 -1      2163 3.66955E+01 4.47062E+00-6.79785E-03-2.76562E+00 4.98157E-13 1.44801E-13
 -1      2164 3.33878E+01 4.10444E+00-1.49665E-01-2.04492E+00 4.15334E-13 4.19012E-13
 -1      2165 3.30277E+01 4.66782E+00-1.82129E-01 1.17477E-01 5.65437E-13 5.98889E-13
 -1      2166 3.39581E+01-4.04548E-01-1.06125E-01-4.07124E+00 3.31318E-13 3.59157E-14
 -1      2167 1.45975E+00-5.15449E+00-2.15418E-01 6.54087E-01 3.47840E-13 8.17624E-13
 -1      2168 1.99999E+01-7.45651E-04 4.69039E-06-2.64825E-03 3.70058E-14-1.26796E-13
 -1      2169 5.31586E+00-5.96565E+00-2.20307E-01 4.30333E+00 3.04423E-13 5.64715E-13
 -1      2170 2.00000E+01-9.44232E-04-5.50345E-06 1.91449E-03 1.48071E-13 2.94615E-13
 -1      2171 2.03263E+00-5.05750E+00-1.92551E-01-3.37630E+00 2.75308E-13 6.42764E-13
 -1      2172 6.45497E+00-5.56835E+00-1.66907E-01-6.51769E+00 2.89824E-13 4.04149E-13
 -1      2173 1.40351E+01-5.47561E+00-5.68420E-02-7.81185E+00 3.01759E-13 2.42969E-13
 -1      2174 2.96885E+01-1.13363E+00 1.45554E-01-4.35233E+00-1.92346E-14 2.63845E-13
 -1      2175 3.61201E+01 6.62476E+00 2.38412E-01-1.63899E-01-4.45921E-13-8.38218E-14
 -1      2176 3.73754E+01 8.82092E+00 3.18882E-01 1.30282E-01-5.82256E-13-3.38202E-14
 -1      2177 3.54993E+01 4.29880E+00 2.42064E-01 1.43823E+00-5.50809E-13 1.69864E-14
 -1      2178 1.72990E+01-5.29797E+00-3.16305E-02 7.56621E+00-2.37810E-13-1.96926E-13
 -1      2179 3.77058E+00-4.97045E+00-1.29492E-01 4.95618E+00-2.01839E-13-2.98928E-13
 -1      2180 1.17384E+00-5.03092E+00-2.04237E-01 6.44864E-01-3.13707E-13-6.03462E-13
 -1      2181 3.44757E+00-5.64782E+00-2.25832E-01-3.20134E+00-3.60739E-13-6.16507E-13
 -1      2182 1.02673E+01-6.65993E+00-2.23656E-01-5.71199E+00-4.02345E-13-5.26051E-13
 -1      2183 2.03383E+01-6.54348E+00-1.24140E-01-5.62153E+00-3.31180E-13-5.97827E-13
 -1      2184 2.99407E+01-4.74841E+00 1.11888E-01-2.77856E+00-1.74638E-13-3.06644E-13
 -1      2185 3.64588E+01-9.56116E-01 1.00488E-01 1.29570E+00 2.32148E-13 1.52545E-13
 -1      2186 3.94538E+01 4.78834E+00 3.99365E-01 2.35617E+00 6.67355E-13 2.50688E-13
 -1      2187 4.03673E+01 7.16422E+00 4.97997E-01 2.77203E-01 6.98996E-13 2.55324E-13
 -1      2188 3.81524E+01 8.75874E-01 2.71604E-01-1.67807E+00 4.10949E-13-2.42917E-13
 -1      2189 4.00781E+01 5.41648E+00 4.04934E-01-1.65830E+00 5.62606E-13 3.29736E-14
 -1      2190 2.55209E+01-3.21301E+00 7.21272E-02 5.90970E+00-3.52607E-13-1.42997E-13
 -1      2191 3.74906E+01 7.89584E+00 3.32348E-01 7.13877E-02-6.22946E-13-1.03084E-13
 -1      2192 2.22305E+01-4.31818E+00 3.75501E-02-6.78228E+00 2.64733E-13 3.61239E-13
 -1      2193 1.95173E+01 3.59214E+00-1.12723E-02-5.44648E-01 1.16093E-13-3.33408E-13
 -1      2194 1.95632E+01 3.54077E+00-9.99623E-03-7.20078E-01 8.26172E-14-3.41447E-13
 -1      2195 1.96211E+01 3.44203E+00-1.30179E-02-8.76299E-01 5.63443E-14-3.49450E-13
 -1      2196 1.96943E+01 3.35499E+00-1.23542E-02-1.05959E+00 1.69127E-14-3.59528E-13
 -1      2197 1.97536E+01 3.11163E+00 4.31148E-04-7.24911E-01 6.65790E-14-3.22049E-13
 -1      2198 1.94503E+01 3.69475E+00-9.53342E-03 9.62607E-02 2.26337E-13-2.52250E-13
 -1      2199 1.94508E+01 3.69377E+00-9.29509E-03-7.04799E-02 1.93136E-13-2.68956E-13
 -1      2200 1.94827E+01 3.65628E+00-9.48470E-03 4.14156E-01 2.63307E-13-2.28663E-13
 -1      2201 1.94607E+01 3.67940E+00-9.98814E-03 2.46196E-01 2.36689E-13-2.44573E-13
 -1      2202 1.96062E+01 3.33866E+00-2.62786E-04 1.59686E-01 2.24843E-13-2.33646E-13
 -1      2203 1.95610E+01 3.55407E+00-1.02008E-02 7.32439E-01 3.02105E-13-1.63661E-13
 -1      2204 1.95152E+01 3.60380E+00-1.12547E-02 5.62351E-01 2.79338E-13-2.08343E-13
 -1      2205 1.96525E+01 3.27402E+00 1.55959E-04 4.47527E-01 2.58262E-13-1.97661E-13
 -1      2206 1.96957E+01 3.36885E+00-1.23514E-02 1.06513E+00 3.42866E-13-7.06154E-14
 -1      2207 1.96202E+01 3.45646E+00-1.31422E-02 8.84595E-01 3.14930E-13-1.21720E-13
 -1      2208 1.97500E+01 3.13118E+00 8.66225E-04 7.35878E-01 2.98880E-13-1.26241E-13
 -1      2209 1.99012E+01 3.06828E+00-1.73773E-02 1.40074E+00 3.58119E-13 1.29879E-14
 -1      2210 1.97887E+01 3.21400E+00-1.55983E-02 1.21444E+00 3.47460E-13-4.28858E-14
 -1      2211 1.99077E+01 2.88996E+00 2.39727E-03 1.02167E+00 3.25994E-13-4.71554E-14
 -1      2212 2.02006E+01 2.58348E+00-2.68942E-02 1.70359E+00 3.44499E-13 1.46638E-13
 -1      2213 2.00420E+01 2.83673E+00-1.68871E-02 1.53188E+00 3.47613E-13 6.90576E-14
 -1      2214 2.01312E+01 2.51698E+00 4.79332E-03 1.27904E+00 3.21456E-13 4.08302E-14
 -1      2215 2.06235E+01 1.78001E+00-1.85508E-02 1.74900E+00 2.99552E-13 3.39079E-13
 -1      2216 2.03777E+01 2.21157E+00-9.67099E-03 1.69221E+00 3.22314E-13 2.09041E-13
 -1      2217 2.03914E+01 1.90785E+00 7.68298E-03 1.36346E+00 3.06668E-13 1.67479E-13
 -1      2218 2.04921E+01 1.12851E+00 1.81022E-03 1.14973E+00 2.63917E-13 3.40927E-13
 -1      2219 2.04647E+01 8.69705E-01 1.33850E-02-9.20939E-01-1.59000E-13-2.11599E-13
 -1      2220 2.02678E+01 6.46066E-01-3.84073E-03-6.05123E-01-1.44409E-13-1.99849E-13
 -1      2221 2.02136E+01 4.91465E-01 1.62216E-02-3.79278E-01-1.27334E-13-1.68724E-13
 -1      2222 2.00917E+01 3.69266E-01 6.05983E-04-1.98784E-01-1.05077E-13-1.74971E-13
 -1      2223 2.03143E+01 7.72823E-01-2.63761E-03-5.89801E-01-1.34462E-13-2.16085E-13
 -1      2224 2.00428E+01 2.85886E-01 1.09258E-02-4.97829E-02-9.93715E-14-1.38807E-13
 -1      2225 1.99874E+01 2.15366E-01 1.26041E-03 5.74470E-02-6.88909E-14-1.64626E-13
 -1      2226 2.01771E+01 4.49975E-01-4.20745E-03-1.84341E-01-9.78286E-14-1.83226E-13
 -1      2227 1.99615E+01 1.65509E-01 6.60909E-03 1.51673E-01-3.21230E-14-1.45448E-13
 -1      2228 1.99535E+01 1.21468E-01 1.09991E-03 2.14620E-01-1.16432E-15-1.32114E-13
 -1      2229 2.00897E+01 2.62678E-01-4.14304E-03 7.98604E-02-4.92747E-14-1.50310E-13
 -1      2230 1.99510E+01 8.82159E-02 3.96541E-03 2.71297E-01 1.23990E-14-1.36661E-13
 -1      2231 1.99739E+01 5.70226E-02 6.29992E-04 3.04835E-01-1.19420E-14-1.52319E-13
 -1      2232 2.00556E+01 1.45291E-01-3.49043E-03 2.45395E-01-9.45728E-15-1.44003E-13
 -1      2233 1.99912E+01 3.11546E-02 2.44729E-03 3.33947E-01-5.06181E-14-1.64993E-13
 -1      2234 2.00324E+01 4.75009E-03-1.04775E-04 3.45134E-01-4.43267E-14-1.62833E-13
 -1      2235 2.00673E+01 6.21403E-02-2.75514E-03 3.41072E-01-3.65003E-14-1.25059E-13
 -1      2236 2.00658E+01-1.94524E-02 1.63077E-03 3.51211E-01-3.07338E-14-1.62697E-13
 -1      2237 2.01152E+01-4.63269E-02-1.12225E-03 3.42251E-01-3.58197E-14-1.55051E-13
 -1      2238 2.01154E+01-7.75565E-03-2.13206E-03 3.82571E-01-4.84121E-14-1.47006E-13
 -1      2239 2.01613E+01-7.25906E-02 1.24655E-03 3.25793E-01-6.40819E-14-1.30745E-13
 -1      2240 2.02103E+01-1.03189E-01-2.41346E-03 2.95790E-01-9.68725E-14-1.40168E-13
 -1      2241 2.01915E+01-7.78300E-02-1.63388E-03 3.75638E-01-5.46494E-14-1.56044E-13
 -1      2242 2.02656E+01-1.33387E-01 1.08921E-03 2.54528E-01-8.97726E-14-1.34916E-13
 -1      2243 2.03055E+01-1.68633E-01-3.89296E-03 2.01016E-01-7.18397E-14-1.10397E-13
 -1      2244 2.02881E+01-1.56138E-01-1.18202E-03 3.18788E-01-8.92590E-14-1.16824E-13
 -1      2245 2.03654E+01-2.02112E-01 9.49245E-04 1.31504E-01-7.13776E-14-1.12962E-13
 -1      2246 2.03874E+01-2.39579E-01-5.33891E-03 5.23960E-02-5.42608E-14-1.17630E-13
 -1      2247 2.03972E+01-2.44646E-01-6.45086E-04 2.06196E-01-9.09538E-14-8.09070E-14
 -1      2248 2.04450E+01-2.72061E-01 5.83841E-04-4.75894E-02-3.45162E-14-9.32717E-14
 -1      2249 2.04403E+01-3.04746E-01-6.34099E-03-1.51324E-01-1.87005E-14-5.74717E-14
 -1      2250 2.05076E+01-3.36801E-01 1.40202E-04 3.17254E-02-2.67962E-14-3.94784E-14
 -1      2251 2.04845E+01-3.27395E-01-2.61988E-04-2.79264E-01-2.34159E-14-4.98417E-14
 -1      2252 2.04452E+01-3.43217E-01-6.30618E-03-4.00274E-01-2.09526E-14-3.02144E-14
 -1      2253 2.06031E+01-4.14695E-01 1.31366E-03-2.05031E-01-3.07610E-14-1.21965E-15
 -1      2254 2.04615E+01-3.43006E-01-1.74413E-03-5.44521E-01-2.68891E-14-9.17773E-15
 -1      2255 2.03833E+01-3.26532E-01-4.59163E-03-6.66009E-01-1.80661E-14-3.33959E-14
 -1      2256 2.06605E+01-4.48203E-01 2.85878E-03-4.90485E-01-1.63848E-14 6.75664E-14
 -1      2257 2.03559E+01-2.89411E-01-3.68038E-03-8.02018E-01-5.09223E-14-4.34732E-14
 -1      2258 2.02410E+01-2.27464E-01-8.84309E-04-8.96881E-01-7.03720E-14-3.64765E-14
 -1      2259 2.06522E+01-3.99831E-01 4.42104E-03-7.88093E-01-4.10212E-14 8.87725E-14
 -1      2260 2.01607E+01-1.45466E-01-5.40352E-03-9.87381E-01-5.22774E-14-7.43246E-14
 -1      2261 2.00216E+01-3.64572E-02 4.24185E-03-1.02248E+00-1.99681E-14-6.00943E-14
 -1      2262 2.05548E+01-2.38947E-01 5.15430E-03-1.03342E+00-8.60741E-14 3.55510E-14
 -1      2263 1.98960E+01 8.31223E-02-5.74619E-03-1.02586E+00-1.83310E-14-1.33778E-13
 -1      2264 1.97559E+01 2.20249E-01 9.05626E-03-9.73085E-01-3.69002E-14-1.01668E-13
 -1      2265 2.03655E+01 3.54547E-02 3.91377E-03-1.14172E+00-4.85799E-14-1.55102E-14
 -1      2266 1.96163E+01 3.49258E-01-3.62149E-03-8.61275E-01-1.00203E-13-8.65590E-14
 -1      2267 1.95055E+01 4.74579E-01 1.12601E-02-7.13065E-01-1.17591E-13-8.47333E-14
 -1      2268 2.01192E+01 3.74572E-01 2.49688E-04-1.03516E+00-4.90543E-14-6.23626E-14
 -1      2269 1.94014E+01 5.70080E-01 1.11703E-03-4.92523E-01-1.15134E-13-9.03361E-14
 -1      2270 1.93478E+01 6.37470E-01 9.45225E-03-2.73320E-01-1.18937E-13-1.34314E-13
 -1      2271 1.98912E+01 6.80423E-01-4.65664E-03-6.85951E-01-1.33436E-13-1.14735E-13
 -1      2272 1.93230E+01 6.62070E-01 6.60219E-03 6.64854E-03-8.85637E-14-1.25065E-13
 -1      2273 1.93420E+01 6.44486E-01 4.45367E-03 2.44200E-01-6.74998E-14-1.51597E-13
 -1      2274 1.97702E+01 8.44225E-01-7.72872E-03-1.52242E-01-1.05922E-13-2.42829E-14
 -1      2275 1.94081E+01 5.88460E-01 1.03816E-02 5.08533E-01-2.11853E-14-2.05993E-13
 -1      2276 1.94957E+01 4.93505E-01-1.10113E-03 7.04471E-01 5.04844E-14-1.92014E-13
 -1      2277 1.98092E+01 8.01048E-01-7.29183E-03 4.29614E-01-4.46897E-14-3.35225E-14
 -1      2278 1.96255E+01 3.80186E-01 1.05536E-02 8.85227E-01 7.15972E-14-1.82750E-13
 -1      2279 1.97605E+01 2.46298E-01-4.58268E-03 9.97178E-01 4.49651E-14-1.66473E-13
 -1      2280 1.99940E+01 5.71103E-01-2.78458E-03 9.02199E-01 8.34197E-14-6.41795E-14
 -1      2281 1.99040E+01 1.18640E-01 7.06508E-03 1.06290E+00 4.65043E-14-1.94015E-13
 -1      2282 2.00564E+01-7.97831E-03-5.46858E-03 1.08078E+00 5.79979E-14-2.21720E-13
 -1      2283 2.02500E+01 2.42393E-01 1.87740E-03 1.15749E+00 3.29403E-14-4.72615E-14
 -1      2284 2.01707E+01-1.11744E-01 1.91999E-03 1.04202E+00 2.82058E-14-2.40929E-13
 -1      2285 2.03129E+01-1.99431E-01-4.27080E-03 9.83981E-01 4.79783E-14-1.70725E-13
 -1      2286 2.04897E+01-7.27947E-02 4.62279E-03 1.17688E+00 3.80511E-14-6.55454E-14
 -1      2287 2.03770E+01-2.60284E-01-2.71055E-03 8.77010E-01 4.62118E-14-1.42134E-13
 -1      2288 2.04907E+01-2.99703E-01-2.28360E-03 7.74899E-01 4.63070E-14-1.55587E-13
 -1      2289 2.06544E+01-2.96157E-01 4.93732E-03 1.01468E+00 3.39118E-14-9.42820E-14
 -1      2290 2.05056E+01-3.17996E-01-5.57555E-03 6.40908E-01 9.96273E-14-1.96745E-13
 -1      2291 2.05833E+01-3.17062E-01-4.57887E-04 5.26025E-01 1.52243E-13-1.41935E-13
 -1      2292 2.07269E+01-4.01793E-01 3.74507E-03 7.55826E-01 1.55083E-14-1.85882E-13
 -1      2293 2.05619E+01-3.04607E-01-6.52866E-03 3.96940E-01 8.00100E-14-2.74576E-13
 -1      2294 2.06046E+01-2.78605E-01 7.42220E-04 2.91775E-01 7.21638E-14-3.21120E-13
 -1      2295 2.07211E+01-4.06730E-01 2.14720E-03 4.77828E-01-9.24559E-15-1.42261E-13
 -1      2296 2.05627E+01-2.49836E-01-6.08363E-03 1.85780E-01 9.08321E-14-2.88382E-13
 -1      2297 2.05763E+01-2.13468E-01 1.30168E-03 1.02267E-01 1.36747E-14-2.72010E-13
 -1      2298 2.06634E+01-3.47369E-01 8.11445E-04 2.32159E-01 3.82547E-14-1.98660E-13
 -1      2299 2.05263E+01-1.80144E-01-4.88867E-03 2.57605E-02-7.57307E-14-3.16871E-13
 -1      2300 2.05187E+01-1.43859E-01 1.40188E-03-3.27372E-02-1.63026E-13-2.57621E-13
 -1      2301 2.05792E+01-2.59952E-01-6.18228E-05 4.30769E-02-5.79292E-14-2.83855E-13
 -1      2302 2.04689E+01-1.13394E-01-3.46578E-03-8.10280E-02-2.11510E-13-1.87462E-13
 -1      2303 2.04476E+01-8.29150E-02 1.24829E-03-1.16579E-01-1.24168E-13-5.67249E-14
 -1      2304 2.04872E+01-1.70847E-01-5.22992E-04-8.51689E-02-9.23347E-14-1.33122E-13
 -1      2305 2.04024E+01-5.87734E-02-2.14504E-03-1.41768E-01-6.38176E-14-1.04898E-13
 -1      2306 2.03736E+01-3.61219E-02 9.98223E-04-1.59023E-01 4.52356E-16 1.94117E-14
 -1      2307 2.03988E+01-9.49001E-02-7.03665E-04-1.59897E-01-1.19384E-13 1.11273E-14
 -1      2308 2.03348E+01-1.90304E-02-1.08236E-03-1.67328E-01-4.36576E-15 1.12973E-14
 -1      2309 2.03034E+01-3.95470E-03 7.45160E-04-1.71522E-01-1.31947E-14-3.31576E-14
 -1      2310 2.03195E+01-3.77426E-02-7.29770E-04-1.93204E-01-2.97890E-14 8.78148E-14
 -1      2311 2.02712E+01 6.85583E-03-3.15206E-04-1.68720E-01-3.41978E-14 1.32140E-14
 -1      2312 2.02404E+01 1.56842E-02 5.30740E-04-1.64567E-01-2.09807E-14 5.75268E-14
 -1      2313 2.02515E+01 8.13144E-04-6.83738E-04-1.97646E-01 5.16208E-15 1.91820E-13
 -1      2314 2.02142E+01 2.15815E-02 1.82923E-04-1.55330E-01-2.55650E-14 9.65500E-15
 -1      2315 2.01861E+01 2.57921E-02 3.66611E-04-1.46561E-01 1.18405E-13-2.82111E-14
 -1      2316 2.01948E+01 2.38040E-02-6.10620E-04-1.84069E-01-4.03285E-14 2.15395E-13
 -1      2317 2.01652E+01 2.82084E-02 4.65698E-04-1.34314E-01 1.13690E-13-1.65923E-14
 -1      2318 2.01408E+01 2.93139E-02 2.49182E-04-1.23604E-01 3.30280E-14 5.43620E-14
 -1      2319 2.01486E+01 3.51486E-02-5.31962E-04-1.60851E-01 7.43045E-14 1.01255E-13
 -1      2320 2.01244E+01 2.94850E-02 5.91890E-04-1.10647E-01 8.77073E-14 4.05346E-14
 -1      2321 2.01040E+01 2.87046E-02 1.69096E-04-9.97455E-02 1.49651E-13 1.23409E-13
 -1      2322 2.01115E+01 3.85634E-02-4.56782E-04-1.33904E-01 1.11601E-13-7.57818E-14
 -1      2323 2.00914E+01 2.75812E-02 6.13947E-04-8.74788E-02 1.52474E-13 4.64968E-14
 -1      2324 2.00750E+01 2.58075E-02 1.16279E-04-7.74125E-02 8.82336E-14-3.25374E-14
 -1      2325 2.00822E+01 3.70880E-02-3.87908E-04-1.07044E-01 5.84513E-14-8.71930E-14
 -1      2326 2.00653E+01 2.40598E-02 5.73417E-04-6.65779E-02 1.12511E-13-9.46631E-14
 -1      2327 2.00525E+01 2.18943E-02 8.21105E-05-5.78566E-02 1.07667E-13-1.11740E-15
 -1      2328 2.00594E+01 3.29731E-02-3.25754E-04-8.24815E-02 5.49724E-14-6.47743E-14
 -1      2329 2.00452E+01 1.99584E-02 5.00503E-04-4.87510E-02 1.64724E-14 9.70483E-14
 -1      2330 2.00356E+01 1.77733E-02 6.00009E-05-4.15419E-02-5.13646E-14 1.55921E-13
 -1      2331 2.00420E+01 2.77536E-02-2.70113E-04-6.12848E-02 1.16116E-13 1.32494E-13
 -1      2332 2.00302E+01 1.59074E-02 4.15574E-04-3.41835E-02-3.09632E-14 3.59955E-13
 -1      2333 2.00232E+01 1.39076E-02 4.52119E-05-2.84477E-02-3.97157E-14 5.11500E-13
 -1      2334 2.00289E+01 2.23915E-02-2.20693E-04-4.37745E-02 1.60972E-13 4.58765E-13
 -1      2335 2.00193E+01 1.22441E-02 3.31294E-04-2.26990E-02-2.24780E-13 4.77219E-13
 -1      2336 2.00144E+01 1.05203E-02 3.44684E-05-1.82886E-02 1.67501E-15 3.67969E-13
 -1      2337 2.00193E+01 1.74268E-02-1.77214E-04-2.98207E-02-1.09519E-13 4.91812E-13
 -1      2338 2.00116E+01 9.10771E-03 2.54753E-04-1.39405E-02 2.44063E-13 2.99723E-13
 -1      2339 2.00083E+01 7.67635E-03 2.52093E-05-1.06654E-02 2.43859E-13 2.44865E-13
 -1      2340 2.00124E+01 1.31084E-02-1.39304E-04-1.90576E-02-2.94138E-14 3.63453E-13
 -1      2341 2.00065E+01 6.50913E-03 1.88797E-04-7.49380E-03 4.74468E-14 2.06739E-13
 -1      2342 2.00044E+01 5.34333E-03 1.69495E-05-5.16458E-03-1.65290E-14 2.04947E-13
 -1      2343 2.00076E+01 9.49357E-03-1.06787E-04-1.10282E-02 1.07083E-13 2.45385E-13
 -1      2344 2.00032E+01 4.38598E-03 1.34564E-04-2.95693E-03 1.11227E-13 1.27108E-13
 -1      2345 2.00020E+01 3.42158E-03 8.18579E-06-1.40486E-03 1.26829E-13 1.35856E-14
 -1      2346 2.00044E+01 6.53827E-03-7.56957E-05-5.28042E-03-2.39747E-14 4.13096E-13
 -1      2347 2.00013E+01 2.58602E-03 8.87478E-05-7.95086E-06-8.73457E-14-1.55718E-14
 -1      2348 2.00007E+01 1.80736E-03 1.46175E-05 8.70877E-04-2.33225E-14-1.14973E-13
 -1      2349 2.00023E+01 4.01839E-03-6.95685E-05-1.39368E-03 1.94634E-14 7.70538E-14
 -1      2350 2.02620E+01 6.21970E-01-7.94298E-05 5.22426E-01 2.00918E-13 3.14295E-13
 -1      2351 2.04476E+01 8.11873E-01 8.43239E-03 8.34141E-01 2.33841E-13 3.37197E-13
 -1      2352 2.04278E+01 1.19764E+00 5.27778E-03 9.89983E-01 2.46225E-13 2.29169E-13
 -1      2353 2.00179E+01 2.18772E-01 4.02392E-03-3.27954E-01 7.64699E-14 1.80932E-13
 -1      2354 2.00063E+01 2.43520E-01 6.18546E-03-2.31291E-01 9.82992E-14 2.19535E-13
 -1      2355 2.00673E+01 2.07872E-01 5.14274E-03-5.10770E-01 6.93669E-14 1.54369E-13
 -1      2356 2.00107E+01 2.07604E-01 3.06189E-03-4.26502E-01 6.55177E-14 1.55425E-13
 -1      2357 2.00790E+01 2.91061E-01-3.32504E-03-3.89055E-01 9.40307E-14 7.78813E-14
 -1      2358 2.01693E+01 2.37865E-01 6.42816E-03-6.91334E-01 9.81492E-14 9.86262E-14
 -1      2359 2.00754E+01 2.16551E-01 7.75562E-04-6.02986E-01 8.77076E-14 1.52961E-13
 -1      2360 2.00854E+01 2.87120E-01-2.12003E-03-5.93269E-01 9.62883E-14 7.65721E-14
 -1      2361 2.03059E+01 3.02081E-01 8.13138E-03-8.86815E-01 6.90396E-14 4.34381E-14
 -1      2362 2.01833E+01 2.62768E-01-1.10731E-03-7.86962E-01 7.98090E-14 8.52714E-14
 -1      2363 2.01189E+01 3.34747E-01-6.03179E-04-7.91355E-01 9.88980E-14 4.17066E-14
 -1      2364 2.04814E+01 4.07428E-01 1.04801E-02-1.14329E+00-2.53127E-14 5.86522E-14
 -1      2365 2.03198E+01 3.45866E-01-2.97011E-03-1.00811E+00 1.24091E-14 3.62523E-14
 -1      2366 2.01631E+01 4.30500E-01 9.57518E-04-1.01578E+00 2.86743E-14 2.91347E-14
 -1      2367 2.06772E+01 5.49137E-01 1.27936E-02-1.47511E+00-5.99460E-14 7.65352E-14
 -1      2368 2.04808E+01 4.69078E-01-4.99648E-03-1.29826E+00-3.67594E-14 4.87861E-14
 -1      2369 2.01996E+01 5.77870E-01 3.24151E-03-1.29772E+00-2.20628E-14 5.81414E-14
 -1      2370 2.08811E+01 7.11493E-01 1.49610E-02-1.90016E+00-1.01431E-13 8.78890E-14
 -1      2371 2.06483E+01 6.23385E-01-7.35081E-03-1.67509E+00-7.42661E-14 7.03636E-14
 -1      2372 2.02014E+01 7.68178E-01 6.15379E-03-1.65464E+00-5.88952E-14 3.92779E-14
 -1      2373 2.10864E+01 8.43243E-01 1.67847E-02-2.42039E+00 9.41218E-15 4.82190E-14
 -1      2374 2.08118E+01 7.79615E-01-9.35508E-03-2.15340E+00-6.39443E-14 3.49898E-14
 -1      2375 2.01395E+01 9.72178E-01 9.34958E-03-2.10432E+00-5.84667E-14-2.60508E-14
 -1      2376 2.13165E+01 8.17299E-01 1.91684E-02-3.00307E+00 8.09606E-14-2.37397E-15
 -1      2377 2.09811E+01 8.54691E-01-8.88102E-03-2.72804E+00 7.79279E-14 4.19153E-14
 -1      2378 1.99945E+01 1.10709E+00 1.15718E-02-2.65617E+00 2.85667E-14-1.06363E-13
 -1      2379 2.16775E+01 4.10182E-01 2.54725E-02-3.52363E+00-8.67847E-14-1.94463E-14
 -1      2380 2.12290E+01 6.73073E-01-8.74021E-04-3.33647E+00 3.43670E-14 9.05135E-15
 -1      2381 1.98035E+01 9.96840E-01 1.19631E-02-3.28563E+00 5.32139E-14-1.10522E-13
 -1      2382 2.25221E+01-8.01663E-01 4.31080E-02-3.82541E+00-2.04413E-13-2.68605E-14
 -1      2383 2.17833E+01-6.76526E-02 3.46897E-02-3.86150E+00-1.65250E-13-1.15880E-14
 -1      2384 1.97168E+01 2.99844E-01 2.46226E-03-3.98618E+00-1.20175E-13-1.25646E-13
 -1      2385 2.45395E+01-3.06750E+00 8.06697E-02-3.44729E+00-4.41078E-13-7.11714E-14
 -1      2386 2.32167E+01-1.79613E+00 1.09530E-01-3.98254E+00-3.12427E-13-5.54244E-14
 -1      2387 2.02259E+01-1.46405E+00 2.17395E-03-4.66189E+00-2.48551E-13-1.81091E-13
 -1      2388 3.52865E+01 1.46536E+00-3.92602E-02 3.68501E+00 3.40394E-13 4.89775E-13
 -1      2389 3.37321E+01 4.39348E+00-1.77033E-01 1.68622E+00 6.76348E-13 5.98341E-13
 -1      2390 2.20940E+01 3.47921E-01 1.49786E-02 3.48561E+00-2.00193E-13 1.78213E-13
 -1      2391 2.26915E+01-1.38470E-01 1.64009E-02 3.57050E+00-1.67640E-13 1.36768E-13
 -1      2392 2.16250E+01 7.55639E-01-3.32698E-03 2.93021E+00-6.90367E-14 2.00081E-13
 -1      2393 2.20381E+01 6.18506E-01 1.72272E-02 3.16308E+00-7.96108E-14 2.03951E-13
 -1      2394 2.02862E+01 6.59583E-01 8.75071E-04 3.57288E+00-1.51037E-13 1.38014E-13
 -1      2395 2.13366E+01 7.97515E-01-7.10453E-03 2.30913E+00-5.36806E-14 2.97782E-13
 -1      2396 2.16704E+01 8.13455E-01 1.61501E-02 2.59161E+00-9.57585E-14 2.17360E-13
 -1      2397 2.03376E+01 1.04338E+00 7.97223E-03 2.90007E+00-2.89363E-14 2.88030E-13
 -1      2398 2.11153E+01 6.79922E-01-6.11271E-03 1.75667E+00 3.82398E-14 3.84020E-13
 -1      2399 2.13860E+01 7.52671E-01 1.55378E-02 2.01242E+00-7.23345E-14 3.01784E-13
 -1      2400 2.04360E+01 1.02739E+00 8.89482E-03 2.26734E+00-3.49898E-14 1.22211E-13
 -1      2401 2.09158E+01 5.28749E-01-4.32649E-03 1.30722E+00 1.29985E-13 6.45812E-13
 -1      2402 2.11360E+01 6.08586E-01 1.39765E-02 1.51514E+00 9.40662E-14 6.20516E-13
 -1      2403 2.04845E+01 8.57144E-01 6.92226E-03 1.73198E+00-7.22510E-14 3.25650E-13
 -1      2404 2.07354E+01 3.92997E-01-2.44784E-03 9.59210E-01 2.69252E-13 3.70200E-13
 -1      2405 2.09106E+01 4.61226E-01 1.16879E-02 1.11881E+00 3.21812E-13 6.00034E-13
 -1      2406 2.04760E+01 6.61620E-01 4.32613E-03 1.30057E+00 2.03962E-13 5.90725E-13
 -1      2407 2.05837E+01 2.89734E-01-1.45525E-03 7.08783E-01 2.09572E-13 1.77783E-13
 -1      2408 2.07165E+01 3.41382E-01 9.41109E-03 8.22999E-01 2.83554E-13 2.01825E-13
 -1      2409 2.04306E+01 4.93401E-01 1.81462E-03 9.71247E-01 3.03919E-13 4.27928E-13
 -1      2410 2.04472E+01 2.07546E-01-9.27135E-04 5.12014E-01 2.37606E-13-8.91517E-14
 -1      2411 2.05546E+01 2.47501E-01 7.11391E-03 6.00188E-01 2.25131E-13 1.70768E-14
 -1      2412 2.03688E+01 3.62021E-01 9.70924E-04 7.19920E-01 4.16193E-13 4.08056E-13
 -1      2413 2.03363E+01 1.48083E-01-4.71031E-04 3.67995E-01 2.92258E-13-1.99534E-13
 -1      2414 2.04177E+01 1.76993E-01 5.34507E-03 4.31904E-01 1.94055E-13-2.13588E-13
 -1      2415 2.03010E+01 2.60057E-01 1.43763E-04 5.25447E-01 3.34447E-13 2.54639E-14
 -1      2416 2.02482E+01 1.05546E-01-2.00764E-04 2.63044E-01 1.49000E-13-1.99096E-13
 -1      2417 2.03091E+01 1.26206E-01 3.94547E-03 3.09172E-01 2.04503E-13-2.69411E-13
 -1      2418 2.02373E+01 1.85956E-01-2.94189E-04 3.81074E-01 2.32887E-13-4.25130E-14
 -1      2419 2.01797E+01 7.52828E-02-4.79784E-05 1.86748E-01 4.69823E-15-2.52037E-13
 -1      2420 2.02247E+01 8.99837E-02 2.88676E-03 2.19994E-01 5.38022E-14-2.37272E-13
 -1      2421 2.01820E+01 1.32818E-01-4.81740E-04 2.74528E-01 1.24710E-13 6.48606E-14
 -1      2422 2.01276E+01 5.38033E-02 7.61618E-05 1.31376E-01-1.29815E-13-2.20231E-13
 -1      2423 2.01604E+01 6.41919E-02 2.09601E-03 1.55304E-01-4.54005E-14-2.98495E-13
 -1      2424 2.01361E+01 9.49017E-02-5.27524E-04 1.96184E-01 1.15665E-14 6.56043E-14
 -1      2425 2.00902E+01 3.90844E-02 1.00738E-04 9.29379E-02-2.92596E-13-1.11942E-13
 -1      2426 2.01131E+01 4.63345E-02 1.54621E-03 1.09510E-01-2.18538E-13-1.51002E-13
 -1      2427 2.01001E+01 6.81701E-02-5.83538E-04 1.39822E-01-2.23089E-13-4.67379E-14
 -1      2428 2.00609E+01 2.78167E-02 8.04947E-05 6.33724E-02-2.83180E-13 4.93241E-15
 -1      2429 2.00781E+01 3.32403E-02 1.11093E-03 7.59650E-02-3.58609E-13-1.52926E-13
 -1      2430 2.00722E+01 4.93128E-02-4.33862E-04 9.85247E-02-3.67319E-13-1.03826E-13
 -1      2431 2.00398E+01 1.97489E-02 7.63542E-05 4.20798E-02-3.52282E-13 1.19446E-13
 -1      2432 2.00519E+01 2.36779E-02 8.09098E-04 5.10987E-02-3.00161E-13 2.91432E-14
 -1      2433 2.00503E+01 3.51465E-02-3.64468E-04 6.74225E-02-3.65590E-13-2.23594E-13
 -1      2434 2.00250E+01 1.39269E-02 6.89056E-05 2.68237E-02-6.75015E-14 3.14994E-13
 -1      2435 2.00332E+01 1.67634E-02 5.79830E-04 3.32411E-02-2.77941E-13 2.01644E-13
 -1      2436 2.00340E+01 2.49470E-02-2.94824E-04 4.48686E-02-3.38039E-13-1.51747E-13
 -1      2437 2.00149E+01 9.72047E-03 6.59463E-05 1.59987E-02 9.60050E-14 1.53311E-13
 -1      2438 2.00203E+01 1.17534E-02 4.08897E-04 2.05120E-02 1.95938E-13 2.67885E-13
 -1      2439 2.00223E+01 1.75738E-02-2.31109E-04 2.86339E-02-6.76819E-14 6.73459E-14
 -1      2440 2.00085E+01 6.77837E-03 5.19729E-05 8.74186E-03 7.96273E-14 1.36311E-13
 -1      2441 2.00118E+01 8.22234E-03 2.90033E-04 1.17506E-02-2.55993E-14-5.13240E-15
 -1      2442 2.00141E+01 1.22751E-02-1.94087E-04 1.72871E-02 9.59202E-14 7.42340E-14
 -1      2443 2.00042E+01 4.45273E-03 3.19506E-05 3.47231E-03-3.95822E-13 3.73604E-13
 -1      2444 2.00062E+01 5.57375E-03 1.99599E-04 5.61376E-03-1.09708E-13 2.18290E-13
 -1      2445 2.00086E+01 8.46817E-03-1.33344E-04 9.32470E-03-1.91108E-13 3.69401E-13
 -1      2446 2.00017E+01 2.68366E-03 1.80136E-05 6.41408E-05-3.23533E-13 4.06212E-13
 -1      2447 2.00028E+01 3.55637E-03 1.36159E-04 1.40889E-03-3.60524E-13 3.36245E-13
 -1      2448 2.00048E+01 5.49882E-03-9.62578E-05 3.72329E-03-3.51375E-13 4.27491E-13
 -1      2449 2.00004E+01 1.24244E-03 1.95978E-05-1.86595E-03-5.56279E-14 1.91439E-13
 -1      2450 2.00008E+01 1.93026E-03 8.15716E-05-1.18789E-03-7.63932E-14 3.56156E-13
 -1      2451 2.00024E+01 3.21145E-03-6.08506E-05 1.27890E-04-7.31767E-14 4.15710E-13
 -1      2452 2.00001E+01 2.48754E-05 1.06048E-06-2.50708E-03-2.42216E-14-8.85002E-14
 -1      2453 2.00001E+01 7.16050E-04 3.31660E-05-2.34577E-03-1.10797E-13-1.10705E-13
 -1      2454 2.00013E+01 1.46447E-03-4.00310E-05-1.68318E-03 1.85501E-13-1.37399E-13
 -1      2455 2.00008E+01-1.55759E-04-1.41534E-05-2.28801E-03 4.97028E-14-3.88334E-14
 -1      2456 8.79631E+00-4.08360E+00 4.02354E-02 5.44731E+00-1.99840E-15 2.38365E-13
 -1      2457 5.90479E+00-3.54172E+00 7.18642E-02 3.84320E+00 9.07330E-14 3.87412E-13
 -1      2458 2.00002E+01 3.55962E-03-3.22307E-05 7.71485E-04 1.93681E-13-1.33214E-13
 -1      2459 2.00005E+01 3.30248E-03 2.33723E-05 6.35619E-04 3.20186E-13-1.00215E-13
 -1      2460 1.77231E+01-6.07409E+00-9.02548E-02 6.30196E+00 7.88813E-14-3.56666E-13
 -1      2461 1.28162E+01-5.46048E+00 1.27627E-02 5.97559E+00 3.69149E-14-2.10942E-14
 -1      2462 1.99997E+01 4.29035E-03-2.59982E-05 7.00774E-04-2.73053E-14 1.42761E-14
 -1      2463 1.99999E+01 4.10841E-03 8.36361E-06 7.32374E-04 4.95810E-14-9.09379E-14
 -1      2464 2.00001E+01 6.91921E-03 4.01951E-05 1.09572E-03 1.72690E-13-3.46800E-13
 -1      2465 1.99996E+01 4.58800E-03-1.37181E-05 3.78533E-04-1.83105E-13-3.26961E-13
 -1      2466 1.99996E+01 4.52431E-03-8.48621E-06 4.97632E-04-1.45012E-13-1.53235E-13
 -1      2467 1.99997E+01 7.66822E-03 4.71000E-05 7.59065E-04 4.86944E-14-1.11800E-13
 -1      2468 1.99997E+01 4.40408E-03 1.41218E-06 2.92801E-05-1.49785E-13-3.55969E-13
 -1      2469 1.99996E+01 4.46996E-03-2.25515E-05 1.33519E-04-2.44714E-13-1.23315E-13
 -1      2470 1.99995E+01 7.77401E-03 4.72938E-05 2.03005E-04-6.13900E-14-1.86251E-13
 -1      2471 2.00000E+01 3.80525E-03 1.65762E-05-1.28434E-04 1.71532E-14-3.56218E-13
 -1      2472 1.99998E+01 3.96762E-03-3.11768E-05-1.28316E-04-3.27258E-14-5.86347E-13
 -1      2473 1.99997E+01 7.23423E-03 4.15596E-05-2.98989E-04-1.30430E-13-3.12790E-13
 -1      2474 2.00005E+01 2.89438E-03 2.50099E-05 4.70163E-05 2.73998E-13 4.12015E-13
 -1      2475 2.00002E+01 3.11754E-03-3.24602E-05-1.09494E-04 2.38782E-13-3.60003E-14
 -1      2476 2.00002E+01 6.14497E-03 2.90893E-05-5.12366E-04 1.74025E-13 3.85383E-14
 -1      2477 2.00008E+01 1.85132E-03 2.36648E-05 5.82414E-04 1.64254E-13 4.77846E-13
 -1      2478 2.00007E+01 2.08460E-03-2.21670E-05 2.70417E-04 1.68780E-13 5.90463E-13
 -1      2479 2.00008E+01 4.68736E-03 1.13970E-05-3.03851E-04 3.18549E-13 3.08298E-13
 -1      2480 2.00008E+01 9.12289E-04 1.49514E-05 1.29129E-03 1.64422E-13 5.44908E-13
 -1      2481 2.00008E+01 1.08248E-03-1.42429E-05 9.61886E-04 6.33290E-14 4.19584E-13
 -1      2482 2.00011E+01 3.08861E-03-1.69119E-05 3.30390E-04 2.82036E-13 4.50304E-13
 -1      2483 2.00000E+01-2.25506E-04 3.26009E-05 2.03934E-03 1.58335E-13 2.68867E-13
 -1      2484 2.74584E+01-5.92784E+00-5.57351E-02 3.47494E+00 1.24900E-13-3.72369E-13
 -1      2485 2.29640E+01-6.16687E+00 4.47638E-02 4.67154E+00 8.79297E-14-3.53759E-13
 -1      2486 3.12495E+00-2.75612E+00 1.08025E-01-2.60159E+00 2.28262E-13 6.94445E-13
 -1      2487 4.31450E+00-3.22008E+00 6.49323E-02-4.70998E+00 2.61513E-13 4.81060E-13
 -1      2488 2.00348E+01 2.81281E-01 3.23676E-03-1.08916E-01 1.18572E-13 2.47091E-13
 -1      2489 2.00781E+01 3.40348E-01 9.26398E-03 2.30366E-02 1.41871E-13 2.70696E-13
 -1      2490 2.01157E+01 3.59498E-01-4.14142E-03-1.50236E-01 1.37817E-13 1.42777E-13
 -1      2491 6.73599E+00-3.84534E+00 7.95673E-02-6.14754E+00 3.92408E-13 4.59188E-13
 -1      2492 9.67374E+00-4.21093E+00 5.26304E-02-7.43408E+00 3.02480E-13 4.59521E-13
 -1      2493 2.00011E+01 1.43102E-03-2.32378E-05-3.32130E-04 1.46152E-13-1.01995E-12
 -1      2494 2.00013E+01 1.22238E-03 3.13358E-05-7.82881E-04 3.69874E-13-7.09478E-13
 -1      2495 3.26365E+01 4.91781E+00-1.23396E-01 7.46901E-01-3.39201E-13-2.57155E-13
 -1      2496 3.27245E+01 6.67434E+00-2.01655E-01 9.00475E-01-4.25882E-13-1.85560E-13
 -1      2497 2.07983E+01-5.13453E+00-1.23304E-02 7.18222E+00-1.38056E-13-7.21645E-15
 -1      2498 1.65014E+01-5.32112E+00 4.87553E-02 7.55447E+00-5.50948E-14-7.55923E-14
 -1      2499 6.24302E+00-3.21817E+00 6.44046E-02 5.84246E+00-2.11497E-14-1.81299E-13
 -1      2500 3.88576E+00-3.16908E+00 9.43213E-02 3.76351E+00-1.16837E-13-3.15303E-13
 -1      2501 2.00012E+01 5.11950E-04-1.41414E-05-1.30485E-03 2.40001E-13-2.98910E-13
 -1      2502 2.00011E+01 4.07268E-04 1.96179E-05-1.74052E-03 1.23258E-13-6.38871E-15
 -1      2503 2.00014E+01 1.38593E-03 1.52627E-05-1.61163E-03 1.38811E-13 8.11906E-15
 -1      2504 2.00017E+01 2.58875E-03 7.38598E-06-5.89234E-04 4.59403E-13-4.22176E-13
 -1      2505 2.00007E+01 2.53802E-03-3.12804E-05 4.34605E-04 4.33101E-13-4.45468E-13
 -1      2506 2.00010E+01 2.27162E-03 3.19951E-05 1.07672E-04 4.07965E-13-9.01849E-13
 -1      2507 2.00014E+01 4.08833E-03 7.97637E-06 3.75537E-04 6.43812E-13-7.43420E-13
 -1      2508 2.00008E+01 5.65361E-03 2.73568E-05 9.96103E-04 5.78912E-13-4.84604E-13
 -1      2509 2.31389E+01-7.50149E-01 8.73206E-02 3.77438E+00-1.64892E-13 6.36670E-14
 -1      2510 2.39672E+01-1.91638E+00 2.48369E-02 3.57262E+00-7.37882E-14-4.44367E-14
 -1      2511 2.05830E+01-5.51101E-01-1.95073E-02 4.18761E+00-2.28751E-13 7.29295E-14
 -1      2512 3.45696E+00-3.35941E+00 5.73427E-02 2.15367E+00 2.68202E-13 8.10019E-13
 -1      2513 2.60348E+00-2.84117E+00 7.17384E-02-1.23525E-01 1.48688E-13 8.51208E-13
 -1      2514 1.94619E+01 3.67351E+00-1.01430E-02-2.21496E-01 1.67608E-13-2.98021E-13
 -1      2515 1.94844E+01 3.64892E+00-9.21268E-03-3.90912E-01 1.43408E-13-3.26541E-13
 -1      2516 1.96560E+01 3.26020E+00-1.96262E-04-4.26395E-01 1.29937E-13-2.94079E-13
 -1      2517 1.96076E+01 3.33381E+00-3.88979E-04-1.31556E-01 1.71684E-13-2.71325E-13
 -1      2518 2.01187E+01 4.01946E-01 3.00422E-03 1.56725E-01 1.47577E-13 2.71553E-13
 -1      2519 2.02213E+01 5.02781E-01 1.13509E-02 3.43571E-01 1.72208E-13 2.90213E-13
 -1      2520 2.03011E+01 7.35103E-01 3.87529E-04 4.75399E-01 2.00791E-13 2.08327E-13
 -1      2521 2.01935E+01 4.99950E-01-3.68186E-03 1.33001E-01 1.64573E-13 1.88091E-13
 -1      2522 2.74178E+01-3.43221E+00-4.61474E-02 4.55503E+00-2.51049E-13 1.11022E-14
 -1      2523 2.43604E+01-4.58402E+00 1.04281E-03 5.52669E+00-1.79357E-13-1.83742E-14
 -1      2524 1.91883E+01-6.33027E+00-1.94034E-02-5.62587E+00-4.63907E-13-3.91850E-13
 -1      2525 2.39494E+01-6.30693E+00-9.67466E-02-4.98968E+00-4.67348E-13-4.10311E-13
 -1      2526 9.97375E+00-5.05181E+00 2.64224E-02-5.63876E+00-4.29518E-13-4.60909E-13
 -1      2527 1.43903E+01-5.67029E+00-4.42294E-02-6.48036E+00-4.27935E-13-4.41369E-13
 -1      2528 4.20331E+00-3.37211E+00 6.61470E-02-2.87255E+00-2.67467E-13-6.01297E-13
 -1      2529 6.26187E+00-4.25732E+00 4.07765E-03-4.63570E+00-3.03813E-13-5.01710E-13
 -1      2530 2.77445E+00-2.86405E+00 6.81499E-02 1.97759E+00-1.36308E-13-4.44811E-13
 -1      2531 2.95827E+00-2.66053E+00 9.35212E-02-2.87372E-01-1.60483E-13-6.27498E-13
 -1      2532 5.19270E+00-1.53813E+00 1.71258E-01 2.89114E+00-1.03320E-14-3.53384E-13
 -1      2533 1.27008E+01-4.67461E+00 3.88372E-02 7.91754E+00-6.92779E-14-6.39211E-14
 -1      2534 9.95579E+00-4.09282E+00 1.41069E-01 7.13388E+00-6.13121E-14-6.20060E-14
 -1      2535 3.34860E+01 7.69523E+00-1.72368E-01-4.91805E-01-5.97300E-13 1.04174E-13
 -1      2536 3.28656E+01 6.73170E+00-1.50839E-01-7.76820E-01-5.62494E-13 8.66807E-14
 -1      2537 3.16154E+01-3.67728E-02-9.72344E-02 2.01314E+00-4.19785E-13 3.85803E-14
 -1      2538 2.95260E+01-1.73051E+00-5.09851E-02 2.93039E+00-3.53592E-13 3.80806E-14
 -1      2539 2.14837E+01-5.10755E+00 4.29232E-02-6.53526E+00 3.24574E-13 2.73531E-13
 -1      2540 2.48654E+01-4.40416E+00-4.50153E-02-5.73374E+00 3.19911E-13 3.15831E-13
 -1      2541 3.34038E+01 4.38814E+00-1.69895E-01-4.21815E-01-4.82392E-13 7.26086E-14
 -1      2542 3.26274E+01 2.22061E+00-4.64559E-02 5.46010E-01-4.46115E-13 1.08968E-13
 -1      2543 3.22789E+01 7.95513E+00-2.17920E-01 3.69235E-01-5.46785E-13 7.69662E-14
 -1      2544 3.32267E+01 8.12590E+00-1.55546E-01-6.34051E-02-5.79981E-13 6.61832E-14
 -1      2545 3.01478E+01 7.60934E+00-7.33473E-02-5.18818E-01-5.70183E-13 1.79575E-13
 -1      2546 3.16803E+01 9.20582E-01-7.25091E-02-7.24896E-01-1.23623E-13-1.05194E-13
 -1      2547 3.25365E+01 2.61215E+00-1.78103E-01 1.24088E-02-2.30399E-13-2.43999E-13
 -1      2548 2.75572E+01-3.18533E+00-3.13305E-02-3.87597E+00 1.70752E-13 1.21320E-13
 -1      2549 3.03831E+01-1.33823E+00-1.04400E-01-2.42847E+00-7.48707E-15 4.21885E-15
 -1      2550 2.68421E+01-4.17103E+00 6.52177E-02-3.75975E+00 3.25420E-13 1.34948E-13
 -1      2551 1.32088E+01-5.00964E+00 5.90570E-02-7.67379E+00 2.44083E-13 1.90514E-13
 -1      2552 1.70661E+01-5.09057E+00-1.79123E-02-7.85863E+00 2.57128E-13 1.34760E-13
 -1      2553 2.05890E+01 1.96312E+00-1.32547E-02-1.83211E+00-1.80338E-13-2.77438E-13
 -1      2554 2.04649E+01 1.22889E+00-5.88892E-03-1.21337E+00-1.68940E-13-2.41302E-13
 -1      2555 2.04249E+01 1.39521E+00 3.33153E-03-1.14523E+00-1.55720E-13-2.49366E-13
 -1      2556 2.03254E+01 2.37691E+00-8.26025E-03-1.75204E+00-1.50623E-13-3.06175E-13
 -1      2557 3.34696E+01-3.45495E+00-8.23677E-02-5.82924E-01 2.66370E-13-2.56850E-13
 -1      2558 3.05977E+01-5.00668E+00-5.24540E-02 1.19833E+00 2.38004E-13-2.99150E-13
 -1      2559 1.99050E+01 2.87112E+00 1.25201E-03-1.01881E+00 5.50981E-15-3.30885E-13
 -1      2560 1.97850E+01 3.20374E+00-1.49932E-02-1.21221E+00-8.08208E-15-3.60178E-13
 -1      2561 1.98931E+01 3.06104E+00-1.67187E-02-1.39916E+00-5.08836E-14-3.56994E-13
 -1      2562 1.30239E+01-3.96408E+00 1.32176E-01-7.49434E+00 1.82965E-13 3.54772E-13
 -1      2563 3.43458E+01-2.66563E+00-1.05229E-01-2.08266E+00 2.74935E-13-1.82965E-13
 -1      2564 3.57159E+01 3.76548E-01 2.68530E-02-2.66479E+00 3.54328E-13-8.97615E-14
 -1      2565 2.16586E+01-5.85108E+00 1.34624E-02 5.19318E+00 4.40759E-14-3.83183E-13
 -1      2566 2.86237E+01-3.15582E+00 2.98411E-02 2.72434E+00-2.36193E-13 5.34850E-14
 -1      2567 2.58296E+01-4.66618E+00 1.00520E-01-3.24311E+00-5.91208E-13-1.19876E-13
 -1      2568 2.16925E+01-4.55264E+00-2.60198E-02-5.05347E+00-4.99545E-13-2.66495E-13
 -1      2569 3.70743E+01 2.34903E+00-6.72388E-02-3.38733E+00 4.36429E-13-4.66294E-15
 -1      2570 3.06617E+01-4.38907E+00-9.51044E-02-2.19458E-01 1.42983E-13-1.96947E-13
 -1      2571 3.25245E+01-3.46356E+00 1.26327E-02-1.79779E+00 2.21052E-13-1.68476E-13
 -1      2572 1.29461E+01-3.72442E+00 1.53346E-01 5.62260E+00-1.96870E-13-8.94840E-14
 -1      2573 2.30774E+01-3.78613E+00-7.55322E-03 4.14919E+00-8.74578E-14-1.46466E-13
 -1      2574 2.66238E+01-3.96618E+00 8.02150E-02 2.73452E+00-2.69229E-15-1.68586E-13
 -1      2575 6.67679E+00-1.96133E+00 1.50790E-01 3.22318E+00-3.54022E-14 4.25271E-13
 -1      2576 2.00002E+01 6.29056E-04 1.11330E-05 1.75942E-03 6.41322E-14 2.20432E-14
 -1      2577 2.00006E+01 5.09543E-04-2.64115E-05 1.64005E-03 2.47514E-13 5.21246E-13
 -1      2578 2.00011E+01 2.01079E-03 3.12036E-05 9.94938E-04 1.22850E-13 6.02573E-13
 -1      2579 2.00004E+01 1.27320E-03 5.82511E-05 1.44718E-03 8.73939E-14-8.36170E-14
 -1      2580 4.43591E+00-1.56925E+00 1.50725E-01-1.35288E+00 1.22895E-13 7.49290E-13
 -1      2581 2.95817E+01-5.48504E+00 4.66414E-02 1.39436E+00 1.33255E-13-3.25517E-13
 -1      2582 7.39415E+00-2.34200E+00 1.50135E-01-5.53147E+00 3.19078E-13 4.03955E-13
 -1      2583 2.34928E+01-5.15289E+00 5.99200E-02 5.79667E+00-2.46192E-14 5.54001E-14
 -1      2584 2.00097E+01 2.86564E+00-1.53868E-02-1.50880E+00-8.33033E-14-3.41061E-13
 -1      2585 2.01641E+01 2.63369E+00-2.16468E-02-1.67605E+00-1.30207E-13-3.31204E-13
 -1      2586 2.03168E+01 2.07448E+00 1.71828E-03-1.40238E+00-1.35793E-13-2.89359E-13
 -1      2587 2.01001E+01 2.53223E+00 2.75595E-03-1.25659E+00-5.82114E-14-3.12412E-13
 -1      2588 3.03219E+01 6.84632E+00-9.51205E-02 9.68618E-01-4.00013E-13-3.25018E-14
 -1      2589 1.64076E+01-4.73295E+00 9.65689E-02 7.47320E+00 1.99563E-14-9.90180E-15
 -1      2590 3.12256E+01 5.10295E+00-7.83605E-02-1.21790E+00-4.59938E-13 1.97564E-13
 -1      2591 9.31462E+00-2.85200E+00 1.55680E-01 6.35775E+00 3.60545E-14-1.10689E-13
 -1      2592 2.04637E+01-5.12587E+00 7.90623E-02-6.83302E+00 3.06866E-13 2.14826E-13
 -1      2593 3.12745E+01 6.33054E-01 3.51900E-03 9.88400E-02-3.85331E-13 1.95288E-13
 -1      2594 3.09783E+01 3.37823E+00-5.53435E-02 1.25522E+00-2.03920E-13-3.43170E-13
 -1      2595 4.80146E+00-2.07633E+00 1.55305E-01-1.61974E+00-1.52517E-13-5.76816E-13
 -1      2596 6.74175E+00-1.30362E+00 1.01736E-01-2.97930E+00-1.22097E-13-5.15976E-13
 -1      2597 5.57118E+00-5.82112E-01 1.45958E-01-4.01727E-01-3.00107E-15-5.15255E-13
 -1      2598 2.81579E+01-4.90345E+00-4.14825E-02 1.60668E+00 1.36419E-14-1.96659E-13
 -1      2599 1.02890E+01-3.50490E+00 1.44708E-01-5.35276E+00-3.65263E-13-4.51222E-13
 -1      2600 1.85702E+01-5.46476E+00 1.05917E-01-5.84937E+00-5.41345E-13-3.87655E-13
 -1      2601 2.63268E+01-6.11856E+00-4.89177E-02-3.40080E+00-5.88890E-13-2.31495E-13
 -1      2602 2.75782E+01-5.82875E+00-3.28548E-02-2.96806E+00-3.94129E-13-2.54796E-13
 -1      2603 3.11558E+01-4.86057E+00-5.97872E-02-1.06091E+00-2.92100E-13 4.51861E-14
 -1      2604 3.01931E+01-9.65232E-01-3.95321E-03-7.15874E-01-4.59355E-15-2.48163E-13
 -1      2605 3.41302E+01-2.26444E+00 4.90265E-02 1.78530E+00-1.48423E-14 3.73923E-13
 -1      2606 3.22346E+01-4.45067E+00-8.26914E-02 2.06838E-01-2.23863E-13 2.72143E-13
 -1      2607 3.08245E+01-4.64746E+00 1.86266E-01-3.80393E-01-4.69125E-13 1.97564E-13
 -1      2608 2.00011E+01 2.14403E-03-6.25904E-05 6.92970E-04-5.24706E-14 2.01947E-13
 -1      2609 1.97698E+01 2.90048E+00-6.32967E-03 4.65452E-01 2.56875E-13-1.71896E-13
 -1      2610 1.97365E+01 2.95277E+00-5.93664E-03 3.29942E-01 2.39754E-13-2.01129E-13
 -1      2611 1.97145E+01 2.99036E+00-5.81833E-03 2.13788E-01 2.24588E-13-2.16155E-13
 -1      2612 1.97047E+01 3.00611E+00-5.39575E-03 7.53752E-02 2.05511E-13-2.17385E-13
 -1      2613 1.98498E+01 2.66192E+00 4.29024E-03 2.39343E-01 2.15519E-13-2.00251E-13
 -1      2614 2.00298E+01 2.42714E+00-1.06231E-02 9.42382E-01 3.11000E-13-3.78465E-14
 -1      2615 1.99456E+01 2.58433E+00-7.65776E-03 8.16855E-01 3.02859E-13-6.18481E-14
 -1      2616 2.02347E+01 1.99745E+00-1.05267E-02 1.12169E+00 2.96838E-13 5.74180E-14
 -1      2617 2.01314E+01 2.23487E+00-5.20030E-03 1.02776E+00 3.01612E-13-8.14279E-15
 -1      2618 2.01858E+01 2.00041E+00 7.71231E-03 8.15997E-01 2.65740E-13-2.75681E-14
 -1      2619 2.04069E+01 1.40266E+00-7.86307E-03 1.05275E+00 2.55602E-13 1.58576E-13
 -1      2620 2.03161E+01 1.78375E+00 1.92580E-03 1.10658E+00 2.77324E-13 8.84119E-14
 -1      2621 2.03074E+01 1.56760E+00 3.09545E-03 8.48484E-01 2.64920E-13 4.91812E-14
 -1      2622 2.03579E+01 1.11024E+00 6.74839E-04 7.45075E-01 2.27612E-13 1.56654E-13
 -1      2623 2.00019E+01 3.89966E-03 8.41974E-05-3.58794E-04 8.81141E-14 4.25403E-13
 -1      2624 2.00014E+01 2.97313E-03 8.73519E-06 3.14118E-04 1.50940E-13 6.06298E-13
 -1      2625 2.00014E+01 3.45098E-03-1.09895E-05 7.61547E-05 2.17763E-13 6.18745E-13
 -1      2626 2.03732E+01 1.09626E+00 5.93166E-03-7.51352E-01-1.10609E-13-2.13905E-13
 -1      2627 2.02910E+01 8.56104E-01-5.15832E-03-4.98495E-01-9.57956E-14-2.08277E-13
 -1      2628 2.02866E+01 6.72865E-01 8.50182E-03-3.07182E-01-8.79704E-14-1.93676E-13
 -1      2629 2.02172E+01 5.23718E-01-2.80260E-03-1.35951E-01-7.06076E-14-1.71055E-13
 -1      2630 2.03083E+01 9.46234E-01-2.83103E-04-4.40344E-01-8.66718E-14-1.82778E-13
 -1      2631 2.02009E+01 4.12268E-01 6.64725E-03-6.72149E-04-5.45822E-14-1.46926E-13
 -1      2632 2.01606E+01 3.17419E-01-1.26327E-03 1.10588E-01-2.40295E-14-1.58039E-13
 -1      2633 2.02597E+01 5.89051E-01-2.12010E-03-1.00163E-01-6.18386E-14-1.36050E-13
 -1      2634 2.01492E+01 2.44623E-01 4.79595E-03 2.02130E-01-3.60153E-15-1.46287E-13
 -1      2635 2.01364E+01 1.79687E-01-5.09343E-04 2.71180E-01-5.98610E-15-1.39350E-13
 -1      2636 2.02153E+01 3.58116E-01-2.67088E-03 1.39528E-01-1.36946E-14-1.58969E-13
 -1      2637 2.01370E+01 1.26962E-01 3.51436E-03 3.29244E-01-1.33781E-14-1.37759E-13
 -1      2638 2.01464E+01 7.66048E-02-3.03980E-04 3.67075E-01-3.30168E-14-1.44366E-13
 -1      2639 2.01939E+01 1.98553E-01-2.71262E-03 2.99584E-01-2.85472E-14-1.57185E-13
 -1      2640 2.01623E+01 3.21193E-02 2.84054E-03 3.98262E-01-5.94726E-14-1.35094E-13
 -1      2641 2.01886E+01-1.40960E-02-5.41038E-04 4.10289E-01-6.26781E-14-1.46914E-13
 -1      2642 2.02026E+01 7.46691E-02-2.64845E-03 3.97274E-01-4.07381E-14-1.93977E-13
 -1      2643 2.02223E+01-5.84799E-02 2.68585E-03 4.17183E-01-2.99035E-14-1.25324E-13
 -1      2644 2.02607E+01-1.07847E-01-1.16849E-03 4.04533E-01-4.52629E-14-1.24266E-13
 -1      2645 2.02450E+01-3.82139E-02-2.65946E-03 4.42391E-01-3.53499E-14-1.60133E-13
 -1      2646 2.03142E+01-1.57453E-01 2.92321E-03 3.86003E-01-5.18322E-14-7.55645E-14
 -1      2647 2.03602E+01-2.14162E-01-2.14500E-03 3.46740E-01-7.55944E-14-4.30509E-14
 -1      2648 2.03239E+01-1.57318E-01-2.76180E-03 4.36927E-01-1.04748E-14-3.51749E-14
 -1      2649 2.04348E+01-2.70915E-01 3.35829E-03 2.98701E-01-7.95463E-14 2.93521E-15
 -1      2650 2.04834E+01-3.34811E-01-3.38147E-03 2.29386E-01-4.65721E-14 2.03199E-14
 -1      2651 2.04419E+01-2.92411E-01-2.85034E-03 3.75929E-01-3.21823E-14 2.38497E-14
 -1      2652 2.05775E+01-3.95617E-01 3.68243E-03 1.46312E-01-5.18307E-14 4.90304E-14
 -1      2653 2.06223E+01-4.60069E-01-4.65574E-03 4.43611E-02-2.42481E-14 2.31154E-14
 -1      2654 2.05988E+01-4.42902E-01-2.69548E-03 2.49546E-01-5.47517E-14 8.59954E-14
 -1      2655 2.07290E+01-5.14682E-01 3.44302E-03-7.78361E-02 6.49491E-16 9.71681E-15
 -1      2656 2.07610E+01-5.64406E-01-5.51626E-03-2.10606E-01-5.31395E-15 8.01838E-14
 -1      2657 2.07879E+01-5.92893E-01-1.95005E-03 4.71394E-02-2.25063E-14 5.90524E-14
 -1      2658 2.08650E+01-5.94020E-01 2.08024E-03-3.69673E-01-2.03241E-14 8.08788E-14
 -1      2659 2.08735E+01-6.04743E-01-5.23958E-03-5.22373E-01 1.65567E-14 6.54696E-14
 -1      2660 2.09903E+01-7.06188E-01-2.52598E-04-2.35151E-01 1.65337E-14 1.44946E-13
 -1      2661 2.09498E+01-5.83673E-01-8.30112E-04-7.02758E-01-1.68413E-14 5.41637E-14
 -1      2662 2.09248E+01-5.26792E-01-2.92908E-03-8.50858E-01-7.76935E-14 7.02167E-14
 -1      2663 2.11701E+01-7.25794E-01 2.47976E-03-5.82271E-01-3.90375E-14 3.82722E-14
 -1      2664 2.09435E+01-4.30334E-01-4.94746E-03-1.01692E+00-1.02274E-13 3.25392E-14
 -1      2665 2.08811E+01-2.86012E-01 1.81936E-03-1.12093E+00-8.99585E-14 3.57894E-14
 -1      2666 2.12769E+01-5.85512E-01 5.68511E-03-9.45083E-01-1.03601E-13-1.66827E-14
 -1      2667 2.08218E+01-1.06718E-01-8.99980E-03-1.21694E+00-1.09234E-13 4.54607E-14
 -1      2668 2.07303E+01 1.16528E-01 7.82602E-03-1.23011E+00-9.96378E-14-3.19215E-14
 -1      2669 2.12615E+01-2.40888E-01 7.75999E-03-1.23025E+00-9.87825E-14 2.80045E-14
 -1      2670 2.06027E+01 3.50996E-01-1.06175E-02-1.19574E+00-3.02878E-14-3.90389E-15
 -1      2671 2.05057E+01 6.01121E-01 1.20882E-02-1.08327E+00-4.84711E-14-1.38025E-14
 -1      2672 2.11087E+01 2.84320E-01 6.30210E-03-1.31325E+00-7.24461E-14 5.90273E-14
 -1      2673 2.03615E+01 8.21837E-01-7.76216E-03-8.86581E-01-8.85220E-14-1.48210E-16
 -1      2674 2.02916E+01 1.01127E+00 1.11296E-02-6.51376E-01-9.33444E-14 2.69372E-14
 -1      2675 2.08704E+01 8.66373E-01 5.20788E-04-1.08824E+00-6.62969E-14 1.08339E-13
 -1      2676 2.02078E+01 1.13152E+00-2.74785E-04-3.24411E-01-8.24037E-14 3.29702E-14
 -1      2677 2.01919E+01 1.18043E+00 4.58993E-03-2.11266E-02-9.76658E-14 5.59672E-14
 -1      2678 2.06647E+01 1.30263E+00-6.25588E-03-5.45668E-01-7.92791E-14 1.20336E-13
 -1      2679 2.02162E+01 1.14936E+00 7.31497E-03 3.39661E-01-1.20910E-13 6.14407E-15
 -1      2680 2.02611E+01 1.03734E+00-4.34340E-03 6.25502E-01-5.31376E-14-1.13929E-14
 -1      2681 2.06113E+01 1.41693E+00-8.23672E-03 1.77179E-01-1.11625E-13 4.44168E-14
 -1      2682 2.03822E+01 8.67331E-01 1.18856E-02 9.08105E-01 3.97013E-14-2.94953E-14
 -1      2683 2.04725E+01 6.44056E-01-9.45753E-03 1.09753E+00 8.59698E-14-7.72477E-14
 -1      2684 2.07437E+01 1.16214E+00-2.92878E-03 8.52369E-01-3.84532E-14-1.22863E-14
 -1      2685 2.06186E+01 4.10821E-01 1.03155E-02 1.22850E+00 6.34628E-14-6.58570E-14
 -1      2686 2.07223E+01 1.67024E-01-1.02272E-02 1.29008E+00 3.16860E-14-8.34922E-15
 -1      2687 2.09820E+01 6.41751E-01 2.93258E-03 1.27299E+00 5.42394E-14-5.99995E-14
 -1      2688 2.08258E+01-4.64396E-02 5.06901E-03 1.26883E+00 2.98088E-14-2.71854E-14
 -1      2689 2.09131E+01-2.35935E-01-7.03711E-03 1.21838E+00 1.01674E-13-1.73574E-14
 -1      2690 2.11974E+01 7.28383E-02 7.38130E-03 1.36912E+00 4.10067E-14 7.57756E-14
 -1      2691 2.09396E+01-3.77654E-01-5.80477E-04 1.09292E+00 6.33662E-15-4.24983E-14
 -1      2692 2.09934E+01-4.80217E-01-2.67664E-03 9.73063E-01-7.31001E-14-1.19680E-13
 -1      2693 2.12970E+01-3.75875E-01 7.25056E-03 1.19909E+00 7.03766E-15 5.18271E-14
 -1      2694 2.09482E+01-5.39300E-01-4.30713E-03 8.04673E-01-1.43483E-14-5.04580E-14
 -1      2695 2.09663E+01-5.61142E-01 1.04079E-03 6.60498E-01 4.79088E-14-5.84802E-14
 -1      2696 2.12594E+01-6.23312E-01 4.56726E-03 8.84631E-01 1.07276E-14 4.78946E-14
 -1      2697 2.08760E+01-5.55073E-01-5.69488E-03 4.96766E-01 3.22575E-14-2.01470E-14
 -1      2698 2.08655E+01-5.22274E-01 3.19269E-03 3.61191E-01-7.60156E-15-2.14058E-14
 -1      2699 2.11186E+01-6.81465E-01 1.44322E-03 5.40108E-01 4.63127E-14 1.39242E-13
 -1      2700 2.07588E+01-4.78004E-01-5.43166E-03 2.27947E-01 3.44112E-14 3.60168E-14
 -1      2701 2.07300E+01-4.18771E-01 3.90384E-03 1.18539E-01 7.61964E-14-2.37693E-14
 -1      2702 2.09269E+01-6.09741E-01-8.63183E-04 2.38688E-01 4.75725E-14 1.41723E-13
 -1      2703 2.06273E+01-3.60006E-01-4.35743E-03 2.38489E-02-6.46775E-15-4.63651E-14
 -1      2704 2.05896E+01-2.95632E-01 3.68124E-03-5.39421E-02-1.07844E-13-4.16681E-14
 -1      2705 2.07286E+01-4.73974E-01-2.03901E-03 1.14383E-02 1.17369E-14 2.28606E-13
 -1      2706 2.05019E+01-2.38359E-01-3.06478E-03-1.12502E-01-1.32014E-14-2.65744E-14
 -1      2707 2.04619E+01-1.81463E-01 2.99740E-03-1.60765E-01-1.57111E-14 1.55113E-13
 -1      2708 2.05508E+01-3.24522E-01-2.35627E-03-1.38597E-01-4.16217E-14 1.74535E-13
 -1      2709 2.03925E+01-1.34028E-01-1.88856E-03-1.90385E-01-1.20470E-13 1.85861E-13
 -1      2710 2.03544E+01-8.99619E-02 2.19615E-03-2.14808E-01-5.21940E-14 1.82620E-13
 -1      2711 2.04051E+01-1.91379E-01-2.16255E-03-2.22802E-01-3.21118E-14 2.14182E-13
 -1      2712 2.03024E+01-5.50012E-02-9.62864E-04-2.23686E-01-1.23821E-14 2.46358E-13
 -1      2713 2.02681E+01-2.43774E-02 1.47168E-03-2.30818E-01 4.90269E-15 2.71904E-13
 -1      2714 2.02926E+01-8.76069E-02-1.76927E-03-2.57547E-01 8.13087E-15 3.20035E-13
 -1      2715 2.02305E+01-1.22647E-03-3.00575E-04-2.26238E-01 2.19150E-14 2.73210E-13
 -1      2716 2.02008E+01 1.77625E-02 8.97322E-04-2.22056E-01 3.25501E-15 3.44548E-13
 -1      2717 2.02092E+01-1.50059E-02-1.35157E-03-2.58645E-01-1.58848E-14 3.58229E-13
 -1      2718 2.01744E+01 3.12689E-02 1.31775E-04-2.09755E-01-1.08184E-13 3.53613E-13
 -1      2719 2.01493E+01 4.13067E-02 4.83254E-04-1.99065E-01-1.25575E-13 2.88123E-13
 -1      2720 2.01490E+01 3.04073E-02-9.89994E-04-2.39157E-01-5.92514E-14 3.35732E-13
 -1      2721 2.01310E+01 4.77112E-02 3.83302E-04-1.83188E-01-1.26478E-13 2.49852E-13
 -1      2722 2.01103E+01 5.14811E-02 2.08494E-04-1.69504E-01-6.47838E-14 7.65120E-14
 -1      2723 2.01063E+01 5.47647E-02-7.08510E-04-2.08893E-01-2.11677E-13 3.45562E-13
 -1      2724 2.00977E+01 5.31112E-02 5.03314E-04-1.52817E-01-6.94313E-15-1.48113E-13
 -1      2725 2.00809E+01 5.28820E-02 4.13691E-05-1.38502E-01 9.77588E-15-2.62804E-13
 -1      2726 2.00761E+01 6.42744E-02-5.03907E-04-1.74664E-01-2.04948E-13-9.74346E-15
 -1      2727 2.00723E+01 5.16048E-02 5.34641E-04-1.22689E-01 1.10685E-13-2.39693E-13
 -1      2728 2.00589E+01 4.91024E-02-4.94575E-05-1.09183E-01 4.47828E-14-2.46667E-13
 -1      2729 2.00548E+01 6.42311E-02-3.61323E-04-1.40824E-01 2.63282E-14-2.51724E-13
 -1      2730 2.00529E+01 4.62840E-02 5.10878E-04-9.51461E-02 4.74470E-14-7.65526E-14
 -1      2731 2.00424E+01 4.27179E-02-9.01357E-05-8.32176E-02 1.30201E-13-2.17515E-14
 -1      2732 2.00396E+01 5.86924E-02-2.63788E-04-1.09889E-01 1.59871E-13-6.51934E-14
 -1      2733 2.00382E+01 3.92821E-02 4.56606E-04-7.13274E-02 9.41503E-14 3.85637E-14
 -1      2734 2.00301E+01 3.54355E-02-1.00414E-04-6.12830E-02 1.29862E-13 5.77519E-14
 -1      2735 2.00287E+01 5.05206E-02-1.97069E-04-8.30779E-02 1.50959E-13-5.83877E-14
 -1      2736 2.00272E+01 3.19578E-02 3.88888E-04-5.15766E-02 2.67227E-13-4.32713E-14
 -1      2737 2.00211E+01 2.82919E-02-9.41580E-05-4.34339E-02 1.89482E-13 3.25260E-14
 -1      2738 2.00208E+01 4.15843E-02-1.50543E-04-6.07631E-02 1.25935E-13-1.36249E-13
 -1      2739 2.00189E+01 2.50924E-02 3.18867E-04-3.57557E-02 4.56970E-14 1.06587E-13
 -1      2740 2.00144E+01 2.18408E-02-8.06337E-05-2.93686E-02-1.16127E-13 1.01626E-13
 -1      2741 2.00150E+01 3.29956E-02-1.16917E-04-4.27977E-02 1.58955E-13-2.62940E-13
 -1      2742 2.00129E+01 1.90640E-02 2.53275E-04-2.34706E-02-1.72497E-13 2.30415E-13
 -1      2743 2.00096E+01 1.63090E-02-6.54359E-05-1.86177E-02 1.60867E-14 2.47839E-13
 -1      2744 2.00107E+01 2.53280E-02-9.15465E-05-2.87569E-02 1.97447E-14 7.36707E-14
 -1      2745 2.00085E+01 1.39867E-02 1.95848E-04-1.42244E-02 1.71185E-13 2.64404E-13
 -1      2746 2.00062E+01 1.17155E-02-5.23987E-05-1.06654E-02 1.86906E-13 2.24324E-13
 -1      2747 2.00075E+01 1.87950E-02-7.13536E-05-1.81019E-02 4.68406E-14 1.28327E-13
 -1      2748 2.00054E+01 9.77855E-03 1.40413E-04-7.51462E-03 8.54264E-14 3.71286E-13
 -1      2749 2.00038E+01 7.97316E-03-2.58283E-05-5.06327E-03 2.83719E-14 2.49230E-13
 -1      2750 2.00051E+01 1.33628E-02-5.94691E-05-1.02713E-02 1.81429E-13-2.80822E-14
 -1      2751 2.00033E+01 6.61574E-03 1.00773E-04-3.15847E-03-7.82177E-14 3.16735E-13
 -1      2752 2.00023E+01 5.09302E-03-1.17653E-05-1.55561E-03-9.38574E-14 2.52059E-13
 -1      2753 2.00023E+01 5.82151E-03-7.56160E-05-1.84253E-03 5.71854E-14 5.53259E-13
 -1      2754 2.00035E+01 9.32442E-03-1.86153E-05-5.13551E-03-2.34036E-14 3.42066E-13
 -1      2755 6.01167E+00-2.51401E-01 1.72827E-01 2.19480E-01 1.97446E-14 6.63608E-13
 -1      2756 6.22954E+00-2.68642E-01 1.44348E-01-2.36048E+00 1.38438E-13 6.52700E-13
 -1      2757 2.00884E+01 3.81975E-01 2.56573E-03-6.29779E-01 1.02679E-13 6.57334E-14
 -1      2758 2.00793E+01 3.71971E-01 5.68278E-04-5.27446E-01 7.78462E-14 5.10569E-14
 -1      2759 2.01173E+01 3.79129E-01 1.48329E-03-4.24479E-01 9.95656E-14 5.48919E-14
 -1      2760 2.01287E+01 4.05013E-01 2.94375E-03-3.11757E-01 1.30928E-13 8.34458E-14
 -1      2761 2.01008E+01 4.69236E-01-5.91384E-04-4.59131E-01 1.18105E-13 3.92682E-14
 -1      2762 2.00183E+01 5.66041E-01 4.20733E-03-1.05024E+00 2.30378E-14 4.19251E-14
 -1      2763 1.99944E+01 4.94679E-01-4.14097E-03-9.26760E-01 7.22794E-14 7.36970E-14
 -1      2764 1.99253E+01 7.46206E-01 4.66214E-03-1.32029E+00-2.80234E-14 1.21633E-14
 -1      2765 1.99109E+01 6.45681E-01-6.94115E-03-1.16899E+00 3.24976E-15 5.27863E-14
 -1      2766 1.97683E+01 7.28978E-01 5.82337E-03-1.07181E+00 2.89132E-14 1.81907E-15
 -1      2767 1.97467E+01 9.73515E-01 5.08834E-03-1.65142E+00-8.07557E-14 1.53561E-15
 -1      2768 1.97567E+01 8.50657E-01-1.02817E-02-1.46380E+00-6.22697E-14-2.77138E-14
 -1      2769 1.95236E+01 9.52346E-01 9.91887E-03-1.31997E+00-1.74200E-14-7.20851E-14
 -1      2770 1.94397E+01 1.21191E+00 6.19521E-03-2.05784E+00 2.40433E-15-1.16669E-13
 -1      2771 1.94873E+01 1.08916E+00-1.41824E-02-1.82878E+00-4.71588E-14-5.28346E-14
 -1      2772 1.91364E+01 1.22356E+00 1.53329E-02-1.61410E+00-4.08144E-14-1.03135E-13
 -1      2773 1.89703E+01 1.36843E+00 1.06350E-02-2.55411E+00 6.81978E-14-1.58800E-13
 -1      2774 1.90574E+01 1.30192E+00-1.77870E-02-2.28179E+00 4.05963E-14-1.38109E-13
 -1      2775 1.85439E+01 1.49316E+00 2.24376E-02-1.97180E+00 3.23359E-14-1.81180E-13
 -1      2776 1.84024E+01 1.25563E+00 2.32129E-02-3.13006E+00 5.32224E-15-1.23860E-13
 -1      2777 1.84660E+01 1.34620E+00-1.98573E-02-2.83687E+00 8.40929E-14-1.71725E-13
 -1      2778 1.77105E+01 1.65016E+00 3.41549E-02-2.41312E+00 7.78104E-14-1.89695E-13
 -1      2779 1.78256E+01 4.98385E-01 5.86428E-02-3.89645E+00-1.21968E-13-1.73445E-13
 -1      2780 1.77501E+01 9.88506E-01-4.19817E-03-3.54198E+00-6.17121E-14-1.45786E-13
 -1      2781 1.65924E+01 1.46442E+00 5.01543E-02-3.03640E+00-1.82460E-14-1.54546E-13
 -1      2782 1.76237E+01-1.51679E+00 1.01164E-01-4.87946E+00-2.38656E-13-2.77188E-13
 -1      2783 1.71537E+01-2.86419E-01 4.97817E-02-4.46639E+00-1.31388E-13-2.09957E-13
 -1      2784 1.51850E+01 4.44657E-01 4.80829E-02-4.05274E+00-8.00679E-14-1.73993E-13
 -1      2785 2.88390E+01-2.66232E+00-1.30074E-01 1.28061E+00-2.00024E-13 2.64566E-13
 -1      2786 2.73208E+01-3.86624E+00 3.02961E-02 2.55687E+00-7.67546E-14 2.14426E-13
 -1      2787 2.78689E+01-5.38525E+00 2.35637E-02-2.15053E+00-5.66658E-13-2.69368E-14
 -1      2788 1.95660E+01 1.20263E+00-1.55516E-02 1.96098E+00-1.27963E-14 1.44900E-13
 -1      2789 1.95330E+01 1.29961E+00 8.69195E-03 2.23125E+00 6.75202E-14 2.49805E-13
 -1      2790 3.82620E+01 4.73502E+00-8.21173E-02 2.23661E+00 7.51066E-13 2.58848E-13
 -1      2791 2.86669E+01-2.24573E+00-2.09066E-02-7.42582E-01 1.04517E-13-2.91503E-13
 -1      2792 2.93224E+01-4.74868E-01-1.76397E-01 5.26166E-01-1.14353E-14-3.88370E-13
 -1      2793 1.91154E+01 1.33798E+00-1.81240E-02 2.51493E+00-1.00549E-14 2.04043E-13
 -1      2794 1.90754E+01 1.32141E+00 1.64210E-02 2.82385E+00-7.39385E-14 2.01059E-13
 -1      2795 1.83893E+01 1.59695E+00 2.49781E-02 2.17053E+00 1.10217E-14 1.09569E-13
 -1      2796 1.64124E+01-3.34152E+00 1.25747E-01 5.71068E+00-2.83121E-13-2.94847E-13
 -1      2797 1.26474E+01-2.01993E+00 1.64847E-01 5.17362E+00-2.59140E-13-8.95395E-14
 -1      2798 1.85609E+01 1.17636E+00-1.35750E-02 3.18111E+00-1.63859E-13 1.38107E-13
 -1      2799 1.86259E+01 9.12834E-01 4.06714E-02 3.48841E+00-2.60654E-13 7.51656E-14
 -1      2800 1.74954E+01 1.57947E+00 3.63670E-02 2.74791E+00-1.65483E-13 1.00357E-13
 -1      2801 1.98621E+01 9.74439E-01-1.18272E-02 1.51182E+00-1.53239E-13 2.44222E-13
 -1      2802 1.98578E+01 1.09855E+00 6.54220E-03 1.73787E+00-1.21890E-13 1.67015E-13
 -1      2803 1.90512E+01 1.38163E+00 1.79339E-02 1.71253E+00-7.13954E-14 8.32296E-14
 -1      2804 2.00329E+01 7.48561E-01-8.25787E-03 1.15213E+00 2.82539E-13 2.02500E-13
 -1      2805 2.00525E+01 8.63269E-01 5.87259E-03 1.33386E+00 4.77921E-14 1.67318E-13
 -1      2806 1.94893E+01 1.10472E+00 1.22406E-02 1.34333E+00 3.98808E-15 6.15211E-14
 -1      2807 2.01138E+01 5.66397E-01-5.83953E-03 8.81393E-01 2.74203E-13 1.88263E-13
 -1      2808 2.01465E+01 6.56962E-01 5.25165E-03 1.01778E+00 2.98755E-13 2.32162E-13
 -1      2809 1.97556E+01 8.51335E-01 7.73559E-03 1.04909E+00 2.27986E-13 7.82649E-14
 -1      2810 2.01444E+01 4.15468E-01-4.17820E-03 6.58753E-01 4.21766E-13 4.47288E-13
 -1      2811 2.01826E+01 4.88844E-01 4.42971E-03 7.68683E-01 3.56626E-13 5.01560E-13
 -1      2812 1.99125E+01 6.41037E-01 5.00423E-03 8.10611E-01 1.69792E-13 4.20820E-13
 -1      2813 2.01447E+01 3.02260E-01-2.83291E-03 4.88438E-01 3.46564E-13 4.24581E-13
 -1      2814 2.01820E+01 3.56907E-01 3.64293E-03 5.71426E-01 4.72756E-13 4.68851E-13
 -1      2815 1.99998E+01 4.72163E-01 2.94184E-03 6.15396E-01 3.95506E-13 5.77707E-13
 -1      2816 2.01296E+01 2.19053E-01-1.90214E-03 3.59317E-01 2.71473E-13 2.06062E-13
 -1      2817 2.01629E+01 2.59100E-01 2.92973E-03 4.21366E-01 2.83431E-13 3.09786E-13
 -1      2818 2.00415E+01 3.45002E-01 1.60341E-03 4.62491E-01 3.81885E-13 7.82009E-13
 -1      2819 2.01085E+01 1.58533E-01-1.26854E-03 2.62114E-01 7.36709E-14 2.80146E-13
 -1      2820 2.01367E+01 1.87641E-01 2.30505E-03 3.08233E-01 1.91835E-13 2.56162E-13
 -1      2821 2.00567E+01 2.51127E-01 7.86364E-04 3.44151E-01 1.78795E-13 4.23540E-13
 -1      2822 2.00869E+01 1.14765E-01-7.87150E-04 1.89367E-01 1.48627E-14 8.33644E-14
 -1      2823 2.01096E+01 1.35787E-01 1.78822E-03 2.23478E-01 1.04720E-14 1.75019E-13
 -1      2824 2.00578E+01 1.82459E-01 3.02606E-04 2.53461E-01 1.65839E-13 3.33047E-13
 -1      2825 2.00679E+01 8.43313E-02-5.17882E-04 1.37500E-01-3.29398E-13 1.78330E-14
 -1      2826 2.00852E+01 9.91265E-02 1.38858E-03 1.61703E-01-6.46991E-14 1.02046E-13
 -1      2827 2.00521E+01 1.33275E-01-3.40365E-05 1.85891E-01 6.32560E-14 2.14894E-13
 -1      2828 2.00507E+01 6.08065E-02-3.65876E-04 9.66351E-02-2.67167E-13-7.73388E-14
 -1      2829 2.00647E+01 7.20848E-02 1.04140E-03 1.15408E-01-3.27923E-13-6.36386E-14
 -1      2830 2.00440E+01 9.75965E-02-7.14324E-05 1.34754E-01-1.98682E-13-4.94585E-14
 -1      2831 2.00369E+01 4.37195E-02-2.40391E-04 6.65269E-02-4.03628E-13-1.97610E-13
 -1      2832 2.00474E+01 5.19567E-02 7.88332E-04 8.02630E-02-3.33542E-13-1.90240E-13
 -1      2833 2.00351E+01 7.05725E-02-1.27601E-04 9.51913E-02-1.93853E-13-3.65593E-15
 -1      2834 2.00261E+01 3.12501E-02-1.55385E-04 4.44826E-02-3.47282E-13-1.11263E-13
 -1      2835 2.00338E+01 3.72646E-02 5.86905E-04 5.44590E-02-4.47577E-13-2.49496E-13
 -1      2836 2.00271E+01 5.08152E-02-1.43356E-04 6.57688E-02-3.73619E-13-1.90968E-13
 -1      2837 2.00180E+01 2.21455E-02-8.86160E-05 2.84993E-02-5.30065E-14 8.75238E-14
 -1      2838 2.00235E+01 2.65205E-02 4.30721E-04 3.56694E-02-1.84454E-13-1.63462E-14
 -1      2839 2.00202E+01 3.63396E-02-1.37278E-04 4.40797E-02-3.36970E-13-9.51369E-14
 -1      2840 2.00122E+01 1.57374E-02-5.58134E-05 1.75378E-02-3.59270E-14 2.46470E-13
 -1      2841 2.00160E+01 1.88507E-02 3.17329E-04 2.24372E-02-5.59415E-14 2.25153E-13
 -1      2842 2.00147E+01 2.58721E-02-1.40130E-04 2.85712E-02-1.40748E-13 8.46595E-14
 -1      2843 2.00078E+01 1.06896E-02-4.30887E-05 9.34304E-03-3.15467E-13 4.93959E-13
 -1      2844 2.00105E+01 1.31104E-02 2.27487E-04 1.29424E-02-1.00846E-13 3.70427E-13
 -1      2845 2.00104E+01 1.82248E-02-9.84331E-05 1.74000E-02-1.40043E-13 2.44365E-13
 -1      2846 2.00048E+01 6.89497E-03-3.05613E-05 3.78627E-03-2.52487E-13 3.67220E-13
 -1      2847 2.00065E+01 8.73614E-03 1.64224E-04 6.18673E-03-2.19500E-13 4.83234E-13
 -1      2848 2.00071E+01 1.22986E-02-8.01417E-05 9.28186E-03-2.23626E-13 4.13941E-13
 -1      2849 2.00027E+01 3.96169E-03 1.61362E-06 2.74392E-04 2.24982E-13-3.33435E-14
 -1      2850 2.00038E+01 5.35225E-03 1.07377E-04 1.72260E-03-6.26940E-14 1.59369E-13
 -1      2851 2.00045E+01 7.80944E-03-5.84767E-05 3.79074E-03 7.39067E-14 1.67203E-13
 -1      2852 2.00018E+01 2.32738E-03 1.85393E-05-1.06616E-03 3.55293E-14 3.34543E-14
 -1      2853 2.00022E+01 3.17492E-03 4.00708E-05-5.54975E-04 1.97193E-13-8.68564E-14
 -1      2854 2.00030E+01 4.92476E-03-3.02074E-05 8.39885E-04 2.13715E-13 1.26204E-14
 -1      2855 2.00020E+01 2.83509E-03-3.14514E-05-5.77286E-04 1.78920E-13 2.68998E-13
 -1      2856 1.99991E+01 1.11246E-02-3.64935E-05 8.25352E-04 8.48455E-14-1.49435E-13
 -1      2857 1.99993E+01 1.09347E-02-1.01516E-05 1.15193E-03 1.69113E-13-1.14046E-13
 -1      2858 9.03636E+00-8.11639E-01 1.06872E-01 3.75074E+00-2.17437E-13 1.83104E-13
 -1      2859 7.05951E+00-3.60176E-01 1.98400E-01 1.85116E+00-1.06967E-13 4.63074E-13
 -1      2860 8.65319E+00 6.40537E-01 1.81517E-01 8.52957E-01-1.41585E-13 4.42563E-13
 -1      2861 9.81924E+00-1.89030E+00 2.10939E-01-4.61418E+00-2.53728E-13-3.74978E-13
 -1      2862 1.30778E+01-3.00746E+00 6.45589E-02-5.82701E+00-3.70370E-13-2.75613E-13
 -1      2863 1.99996E+01 1.03256E-02-5.12379E-05 1.60277E-03 1.53913E-13-3.22584E-13
 -1      2864 2.00001E+01 9.87332E-03 1.12624E-05 1.74748E-03 2.97372E-13-3.96488E-13
 -1      2865 1.99993E+01 1.42573E-02 7.13425E-05 1.79267E-03 3.03911E-13-2.38942E-13
 -1      2866 1.99995E+01 1.01902E-02 5.09268E-06-9.32658E-04 6.11717E-16-3.01838E-13
 -1      2867 1.99992E+01 1.05511E-02-4.61300E-05-6.68916E-04-1.27631E-13-2.47303E-14
 -1      2868 2.00003E+01 8.61648E-03 2.54503E-05-1.32344E-03 3.97066E-13 3.35847E-13
 -1      2869 1.99998E+01 9.19273E-03-5.31713E-05-1.26278E-03 2.03784E-13 5.78427E-14
 -1      2870 1.99996E+01 1.29293E-02 5.74123E-05-1.75505E-03 2.86790E-13 3.57912E-14
 -1      2871 2.00011E+01 6.59837E-03 3.01533E-05-1.13894E-03 2.31408E-13 3.38443E-13
 -1      2872 2.00007E+01 7.27740E-03-5.03602E-05-1.31640E-03 3.31580E-13 2.75809E-13
 -1      2873 2.00006E+01 1.06490E-02 3.69195E-05-2.20971E-03 3.36089E-13 2.77057E-13
 -1      2874 2.00015E+01 4.24230E-03-1.08999E-05-4.03147E-04 2.42508E-13 3.94373E-13
 -1      2875 2.48904E+01-5.04522E+00-9.73058E-02 4.59924E+00 5.11674E-14 5.95357E-14
 -1      2876 2.21171E+01-5.08493E+00 9.17661E-02 5.87874E+00 1.03223E-13 1.05410E-13
 -1      2877 2.57651E+01-4.47749E+00 9.52121E-02-3.74646E+00 3.09024E-13 8.58480E-14
 -1      2878 2.75675E+01-3.78548E+00-1.35472E-01-2.31336E+00 2.02002E-13-1.42206E-13
 -1      2879 2.76696E+01-2.90930E+00-8.21896E-03-8.83545E-01 1.89950E-13-3.25254E-13
 -1      2880 1.90646E+01-4.77341E+00 1.07403E-02 6.95188E+00 7.27474E-14 1.19169E-13
 -1      2881 1.57614E+01-3.81457E+00 1.17141E-01 7.06346E+00 3.73729E-14 7.50650E-14
 -1      2882 6.87042E+00-7.22373E-01 1.23804E-01 3.67976E+00 9.15518E-14-2.42084E-13
 -1      2883 6.16336E+00-3.00002E-01 2.19738E-01 1.69065E+00 8.21600E-14-3.75727E-13
 -1      2884 1.89822E+01-4.49883E+00 1.61420E-01-6.78821E+00 2.88561E-13 2.60621E-13
 -1      2885 2.22513E+01-5.11151E+00-1.01454E-01-5.82380E+00 2.96846E-13 3.29053E-13
 -1      2886 1.80529E+01 3.91321E-01 2.45629E-02 4.01145E+00-3.20728E-13 2.01367E-14
 -1      2887 1.84263E+01-5.52411E-01 6.51837E-02 4.33120E+00-2.95410E-13-2.81095E-14
 -1      2888 1.63827E+01 1.00126E+00 5.46208E-02 3.56691E+00-3.40812E-13 1.08608E-13
 -1      2889 2.01621E+01 4.50491E-01 1.42508E-04-1.89615E-01 1.46800E-13 7.05672E-14
 -1      2890 2.01994E+01 5.21207E-01 4.39675E-03-4.73854E-02 1.69443E-13 1.11936E-13
 -1      2891 2.01736E+01 5.37365E-01-1.49114E-03-2.25134E-01 1.44955E-13 4.46136E-14
 -1      2892 1.23396E+01-2.90027E+00 1.71397E-01-6.94870E+00 2.70436E-13 3.25906E-13
 -1      2893 1.52673E+01-4.00505E+00 9.17725E-03-7.47143E+00 2.68757E-13 2.28512E-13
 -1      2894 7.62686E+00-9.23360E-01 1.86215E-01-4.39793E+00 2.10824E-13 4.39093E-13
 -1      2895 9.62545E+00-1.78504E+00 9.13926E-02-6.03827E+00 2.22961E-13 2.84578E-13
 -1      2896 1.99990E+01 1.10681E-02-1.62760E-05-1.30722E-04-1.52333E-14-2.71748E-13
 -1      2897 1.99990E+01 1.11682E-02-3.07532E-05 2.38317E-04 6.41921E-15-4.66404E-13
 -1      2898 1.99988E+01 1.48706E-02 7.46252E-05 5.73293E-04 6.72615E-14-3.72534E-13
 -1      2899 1.99989E+01 1.44003E-02 6.91074E-05-7.31483E-04 5.01865E-14-3.23968E-13
 -1      2900 2.00623E+01 4.44586E-01 3.46287E-03-8.26307E-01 9.74546E-14 5.01990E-14
 -1      2901 2.00413E+01 4.05102E-01-1.70965E-03-7.24878E-01 1.08266E-13 5.91791E-14
 -1      2902 2.00223E+01 4.85188E-01 9.23200E-04-6.62001E-01 1.15980E-13-1.78416E-15
 -1      2903 1.99210E+01 5.72309E-01 2.79568E-03-8.57929E-01 9.19008E-14 3.12468E-14
 -1      2904 3.70760E+01 3.81891E+00 2.08960E-01 3.11897E+00 6.57696E-13 2.63567E-13
 -1      2905 3.55545E+01-3.00807E-01-2.83598E-01 3.21999E+00 2.37060E-13 4.17943E-13
 -1      2906 2.91760E+01 5.44770E+00-2.10111E-01-1.64533E+00-4.65294E-13 2.58682E-13
 -1      2907 2.99795E+01 3.43221E+00-9.61792E-02-1.70599E+00-3.87718E-13 2.19755E-13
 -1      2908 1.17809E+01-2.61745E+00 1.09738E-01 6.71503E+00 3.81917E-14-9.30367E-14
 -1      2909 8.77450E+00-1.51046E+00 1.91046E-01 5.34502E+00 1.09926E-13-2.01672E-13
 -1      2910 1.98751E+01 2.71968E+00-7.50441E-03 7.13194E-01 2.99846E-13-9.39184E-14
 -1      2911 1.98161E+01 2.81741E+00-6.62808E-03 5.77321E-01 2.75396E-13-1.38951E-13
 -1      2912 1.99167E+01 2.54338E+00 4.88008E-03 4.52896E-01 2.42897E-13-1.32023E-13
 -1      2913 2.00323E+01 2.32984E+00 6.88620E-03 6.50287E-01 2.65534E-13-6.67329E-14
 -1      2914 2.97923E+01 9.19774E-01-2.09068E-01-1.05240E+00-3.17524E-13 2.50397E-13
 -1      2915 2.95674E+01-9.19585E-01-5.59043E-02-6.50231E-02-2.61104E-13 2.91156E-13
 -1      2916 2.84137E+01-1.89309E+00-2.11763E-02-3.54403E-02-1.17651E-13 3.88869E-13
 -1      2917 1.98260E+01 2.79236E+00-6.50381E-03-5.62120E-01 7.84204E-14-2.95679E-13
 -1      2918 1.98840E+01 2.69373E+00-7.25523E-03-7.03047E-01 5.33801E-14-2.96257E-13
 -1      2919 2.96061E+01 1.78477E+00-6.67344E-02 1.51268E+00-1.43205E-13-3.68400E-13
 -1      2920 2.91188E+01 3.67220E+00-2.11979E-01 1.81669E+00-1.22874E-13-2.71450E-13
 -1      2921 2.80706E+01 7.08412E+00-1.76053E-01-2.21996E-01-5.24747E-13 1.89909E-13
 -1      2922 2.84695E+01 6.68324E+00-1.46583E-01-1.07498E+00-5.10841E-13 2.35541E-13
 -1      2923 2.03554E+01 1.71729E+00-6.50495E-03-1.20519E+00-1.28339E-13-2.54505E-13
 -1      2924 2.03460E+01 1.33474E+00-2.63537E-03-9.23134E-01-1.28658E-13-2.37827E-13
 -1      2925 2.03170E+01 1.41773E+00 3.69850E-04-8.14999E-01-1.01662E-13-1.97602E-13
 -1      2926 2.02527E+01 1.98771E+00-9.02827E-04-1.17338E+00-9.34715E-14-2.55965E-13
 -1      2927 2.85812E+01 5.65071E+00-1.34433E-01 1.64853E+00-1.70836E-13-9.32726E-14
 -1      2928 2.80869E+01 6.74086E+00-1.94686E-01 7.61957E-01-3.79669E-13 5.51607E-14
 -1      2929 1.98307E+01 2.69366E+00 3.97115E-03 1.81598E-02 1.72879E-13-2.05385E-13
 -1      2930 1.97063E+01 3.00105E+00-5.82148E-03-4.30068E-02 1.83266E-13-2.36790E-13
 -1      2931 1.97197E+01 2.98175E+00-5.29038E-03-1.82875E-01 1.53508E-13-2.57695E-13
 -1      2932 2.03408E+01 9.09560E-01 1.80599E-03 5.45838E-01 2.21620E-13 1.66002E-13
 -1      2933 2.03353E+01 1.13855E+00 3.42914E-03 6.17587E-01 2.27310E-13 9.65968E-14
 -1      2934 2.02822E+01 7.61126E-01-5.02357E-04 3.47017E-01 1.97973E-13 1.46367E-13
 -1      2935 2.76193E+01 4.07558E+00-1.00041E-01 1.82180E+00-8.76799E-14-1.12160E-13
 -1      2936 8.68071E+00 1.99115E-01 1.85817E-01-2.98390E+00 1.27707E-13 4.43839E-13
 -1      2937 1.92994E+01-2.99257E+00 1.67782E-01 5.16316E+00-2.17909E-13-1.79842E-13
 -1      2938 2.12759E+01-4.53846E+00 9.51610E-02 5.74080E+00 1.06401E-13 1.47880E-13
 -1      2939 1.25654E+01-6.29989E-01 1.79446E-01 4.18059E+00-3.36550E-13-4.40481E-14
 -1      2940 1.79873E+01-3.78171E+00 1.01975E-01-6.62072E+00 3.04132E-13 2.54498E-13
 -1      2941 2.60689E+01-4.31621E+00 2.28578E-02 2.99899E+00 8.90121E-14 2.34819E-13
 -1      2942 1.69255E+01-2.19299E+00 1.07315E-01-5.26806E+00-3.11362E-13-2.69007E-13
 -1      2943 1.36621E+01-8.29826E-01 2.02378E-01-4.89665E+00-1.98272E-13-1.89085E-13
 -1      2944 2.00420E+01 2.29562E+00 6.10825E-03-6.44168E-01 3.22914E-14-2.60979E-13
 -1      2945 1.99540E+01 2.56000E+00-6.37633E-03-8.13783E-01 3.14895E-14-2.93664E-13
 -1      2946 2.00344E+01 2.40625E+00-8.56954E-03-9.42327E-01-1.07043E-14-2.95345E-13
 -1      2947 2.84090E+01 2.35823E-01-5.59417E-02 1.29133E+00 5.45120E-14-3.48332E-13
 -1      2948 2.00006E+01 8.79157E-03-5.67999E-05 1.89769E-03 3.93891E-13-6.46509E-13
 -1      2949 2.00011E+01 8.15637E-03 2.84212E-05 1.77035E-03 6.26659E-13-7.07888E-13
 -1      2950 2.00004E+01 1.26366E-02 6.05751E-05 2.55040E-03 2.37816E-13-5.69832E-13
 -1      2951 9.59519E+00-8.49592E-01 1.42871E-01-3.63436E+00-1.42525E-13-3.62876E-13
 -1      2952 2.87133E+01 1.76214E+00-7.07371E-02-1.71222E+00-3.32540E-13 2.50980E-13
 -1      2953 2.00016E+01 6.86062E-03 1.10549E-05-1.47899E-03 1.39916E-13 3.94914E-13
 -1      2954 2.41282E+01-4.54317E+00 4.37674E-02-4.21643E+00 3.04881E-13 5.94941E-14
 -1      2955 2.00016E+01 6.76813E-03-4.79137E-05 1.53984E-03 5.13223E-13-7.48475E-13
 -1      2956 2.00020E+01 6.00978E-03 2.67012E-05 1.11712E-03 4.74025E-13-7.69812E-13
 -1      2957 2.00016E+01 1.02437E-02 4.22043E-05 2.58363E-03 4.64826E-13-7.64649E-13
 -1      2958 7.10561E+00 1.08358E-01 1.18189E-01 4.66374E-01 7.46452E-14-3.89022E-13
 -1      2959 2.00021E+01 4.65469E-03-3.38460E-05 6.00102E-04 4.88177E-13-5.70712E-13
 -1      2960 2.00022E+01 3.98392E-03 1.36052E-05 8.39087E-05 3.51331E-13 2.06193E-14
 -1      2961 2.00026E+01 5.05521E-03-1.78715E-06 6.59484E-04 1.87117E-13 2.41004E-13
 -1      2962 2.00024E+01 7.52741E-03-1.10129E-05 1.81119E-03 2.88484E-13-5.94316E-13
 -1      2963 2.68243E+01 6.15224E+00-1.16678E-01 3.21156E-01-3.16816E-13 5.83943E-14
 -1      2964 1.22697E+01-1.77657E+00 1.51416E-01-6.06285E+00 2.73170E-13 1.89571E-13
 -1      2965 1.97438E+01 2.93593E+00-6.09955E-03-3.02283E-01 1.42645E-13-2.55472E-13
 -1      2966 1.97795E+01 2.88033E+00-5.79335E-03-4.43802E-01 1.02131E-13-2.78106E-13
 -1      2967 1.99298E+01 2.51292E+00 4.41144E-03-4.30805E-01 8.21695E-14-2.62872E-13
 -1      2968 1.98583E+01 2.64383E+00 3.97090E-03-2.06733E-01 1.39499E-13-2.43443E-13
 -1      2969 1.78498E+01-3.42073E+00 1.65892E-01-5.52511E+00-4.54012E-13-3.22298E-13
 -1      2970 9.48178E+00-5.05334E-01 1.87383E-01 4.26445E+00 1.13208E-13-2.29983E-13
 -1      2971 2.76065E+01 5.26058E+00-1.23842E-01-1.44126E+00-4.87679E-13 2.44790E-13
 -1      2972 2.02178E+01 5.76410E-01 6.93069E-04 6.13598E-02 1.65883E-13 1.26676E-13
 -1      2973 2.02669E+01 6.68463E-01 4.25199E-03 2.15006E-01 1.65969E-13 1.36066E-13
 -1      2974 2.02831E+01 8.18635E-01-4.31571E-03 2.76445E-01 1.82706E-13 8.59472E-14
 -1      2975 2.02346E+01 6.63168E-01-2.27836E-03 1.83799E-02 1.76986E-13 5.93675E-14
 -1      2976 2.03226E+01 1.30699E+00-1.41682E-03 6.60755E-01 2.35861E-13 3.32074E-14
 -1      2977 2.02671E+01 1.53209E+00-2.24479E-03 6.94832E-01 2.47572E-13-1.09764E-14
 -1      2978 2.03089E+01 1.11998E+00 4.39298E-03 4.65063E-01 2.07348E-13 3.96410E-14
 -1      2979 2.02021E+01 1.72707E+00-1.35749E-03 6.44439E-01 2.41937E-13-3.90847E-14
 -1      2980 2.03173E+01 1.21884E+00 5.44918E-03-5.39607E-01-7.17600E-14-1.93742E-13
 -1      2981 2.02880E+01 9.80055E-01-4.29302E-03-3.38879E-01-6.81488E-14-1.85116E-13
 -1      2982 2.74978E+01-1.40047E+00-1.44289E-01-7.72681E-01-1.37966E-13 3.53918E-13
 -1      2983 2.73620E+01-2.52516E+00 3.18673E-02 1.87693E-01-5.79328E-14 3.69239E-13
 -1      2984 2.03033E+01 7.89104E-01 4.41941E-03-1.86501E-01-6.51510E-14-1.44480E-13
 -1      2985 2.02705E+01 6.29494E-01-2.92395E-03-3.92918E-02-3.36128E-14-1.48795E-13
 -1      2986 2.02916E+01 1.03454E+00 5.63560E-04-2.70056E-01-3.86107E-14-1.54463E-13
 -1      2987 2.02700E+01 5.01791E-01 4.12869E-03 7.57862E-02-1.88724E-14-1.37262E-13
 -1      2988 2.02457E+01 3.91608E-01-1.69764E-03 1.78133E-01-1.39103E-14-1.51107E-13
 -1      2989 2.02872E+01 6.72924E-01-7.39290E-04 4.52972E-03-1.89932E-14-1.29403E-13
 -1      2990 2.02427E+01 3.01642E-01 3.50408E-03 2.61168E-01-3.28785E-14-1.29931E-13
 -1      2991 2.02334E+01 2.20022E-01-7.83407E-04 3.28518E-01-4.54129E-14-1.58452E-13
 -1      2992 2.02683E+01 4.19575E-01-1.60720E-03 2.10448E-01-1.59158E-14-1.42285E-13
 -1      2993 2.02374E+01 1.49545E-01 3.06854E-03 3.85288E-01-3.23084E-14-1.34695E-13
 -1      2994 2.02453E+01 8.09109E-02-2.97041E-04 4.24540E-01-3.17199E-14-1.39033E-13
 -1      2995 2.02577E+01 2.30123E-01-2.21352E-03 3.57927E-01-2.87246E-14-6.47531E-14
 -1      2996 2.02643E+01 1.66806E-02 3.04961E-03 4.58961E-01-1.77701E-14-1.12962E-13
 -1      2997 2.02902E+01-5.10303E-02-2.30782E-04 4.73273E-01 7.14468E-15-7.93427E-14
 -1      2998 2.02708E+01 7.06731E-02-2.81751E-03 4.57012E-01-8.33602E-15-5.77357E-14
 -1      2999 2.03318E+01-1.18982E-01 3.49814E-03 4.85930E-01 4.39205E-14-5.70345E-14
 -1      3000 2.03763E+01-1.94644E-01-5.96505E-04 4.74727E-01 3.31615E-14 1.97697E-16
 -1      3001 2.03214E+01-8.56761E-02-3.53090E-03 5.12747E-01 5.01635E-14 2.93627E-14
 -1      3002 2.04481E+01-2.72747E-01 4.35937E-03 4.62340E-01 4.76885E-15 3.97296E-14
 -1      3003 2.05113E+01-3.60960E-01-1.43155E-03 4.21858E-01-4.66672E-15 8.57187E-14
 -1      3004 2.04230E+01-2.59074E-01-4.35999E-03 5.23037E-01 5.92675E-14 3.76839E-14
 -1      3005 2.06194E+01-4.50406E-01 5.43967E-03 3.77318E-01-3.91081E-14 1.25206E-13
 -1      3006 2.06990E+01-5.48923E-01-2.74253E-03 3.01817E-01-5.56348E-14 8.83444E-14
 -1      3007 2.05883E+01-4.60178E-01-5.14366E-03 4.77842E-01 1.95156E-16 1.45303E-13
 -1      3008 2.08453E+01-6.42597E-01 6.32288E-03 2.15231E-01-5.07087E-14 1.49183E-13
 -1      3009 2.09353E+01-7.38493E-01-4.36876E-03 9.94972E-02 2.50462E-15 1.49912E-13
 -1      3010 2.08260E+01-6.84237E-01-5.49090E-03 3.59726E-01-1.10023E-14 2.15765E-13
 -1      3011 2.11123E+01-8.17227E-01 6.28686E-03-3.85865E-02 1.43258E-14 1.55990E-13
 -1      3012 2.11999E+01-8.83075E-01-5.78679E-03-1.94607E-01-1.52649E-14 1.53342E-13
 -1      3013 2.11331E+01-9.02235E-01-4.75935E-03 1.47390E-01 1.93078E-14 2.03601E-13
 -1      3014 2.13848E+01-9.13278E-01 4.26814E-03-3.86029E-01-6.13980E-14 1.16428E-13
 -1      3015 2.14511E+01-9.06726E-01-5.94307E-03-5.69952E-01-7.30402E-14 5.23760E-14
 -1      3016 2.14846E+01-1.05168E+00-2.21173E-03-1.74715E-01-7.04782E-14 1.14233E-13
 -1      3017 2.16019E+01-8.44003E-01-6.91566E-04-7.96672E-01-1.04100E-13 6.04280E-14
 -1      3018 2.16261E+01-7.16949E-01-3.17058E-03-9.75366E-01-1.15571E-13 7.11632E-14
 -1      3019 2.18231E+01-1.03565E+00 2.26571E-03-5.96958E-01-1.12796E-13 1.34791E-13
 -1      3020 2.16900E+01-5.22244E-01-7.70827E-03-1.18476E+00-9.78488E-14 6.84793E-14
 -1      3021 2.16598E+01-2.48616E-01 3.46704E-03-1.30058E+00-1.12071E-13 8.49839E-14
 -1      3022 2.20597E+01-7.45372E-01 7.39025E-03-1.05419E+00-1.26476E-13 1.52427E-13
 -1      3023 2.16007E+01 7.89618E-02-1.47174E-02-1.40493E+00-1.02880E-13 8.36274E-14
 -1      3024 2.15268E+01 4.65791E-01 1.15419E-02-1.38849E+00-6.05631E-14 1.22149E-13
 -1      3025 2.21071E+01-1.16663E-01 1.19663E-02-1.40447E+00-8.57376E-14 1.52652E-13
 -1      3026 2.13675E+01 8.54306E-01-1.72133E-02-1.29721E+00-7.04662E-14 5.93902E-14
 -1      3027 2.12832E+01 1.23859E+00 1.47333E-02-1.10536E+00-6.15731E-14 6.54682E-14
 -1      3028 2.19425E+01 7.61760E-01 8.33162E-03-1.45448E+00-9.17608E-14 4.85267E-14
 -1      3029 2.11201E+01 1.54541E+00-1.13500E-02-7.85338E-01-5.98600E-14 1.12995E-13
 -1      3030 2.10730E+01 1.75908E+00 8.72050E-03-4.44584E-01-1.08047E-13 8.84202E-14
 -1      3031 2.16660E+01 1.63269E+00-2.39827E-05-1.05013E+00-5.10958E-14 2.56462E-14
 -1      3032 2.10289E+01 1.83686E+00 1.26171E-03 5.66908E-03-1.35213E-13 8.53571E-14
 -1      3033 2.10298E+01 1.78119E+00-8.85028E-03 3.81343E-01-1.04268E-13 6.26161E-14
 -1      3034 2.14884E+01 2.11002E+00-6.28061E-03-2.46022E-01-1.18293E-13 1.30165E-14
 -1      3035 2.11516E+01 1.59962E+00 1.36352E-02 8.10835E-01-4.59819E-14 6.88836E-14
 -1      3036 2.12200E+01 1.29085E+00-1.52850E-02 1.09265E+00 3.77888E-14 8.05859E-14
 -1      3037 2.15273E+01 1.97901E+00 1.64217E-03 6.73527E-01-4.32354E-14 4.59814E-14
 -1      3038 2.13897E+01 9.40587E-01 1.34045E-02 1.32013E+00 6.13693E-14 7.82946E-14
 -1      3039 2.14768E+01 5.42656E-01-1.73209E-02 1.44036E+00 7.49189E-14 9.23263E-14
 -1      3040 2.17806E+01 1.29777E+00 2.37420E-03 1.32021E+00 6.20557E-14 1.66390E-13
 -1      3041 2.16001E+01 1.71296E-01 7.91588E-03 1.44535E+00 4.07015E-14 1.11504E-13
 -1      3042 2.16599E+01-1.71283E-01-1.17757E-02 1.40392E+00 8.62390E-14 1.32007E-13
 -1      3043 2.20247E+01 4.03993E-01 1.05817E-02 1.53538E+00 1.26819E-13 5.52002E-14
 -1      3044 2.16624E+01-4.40933E-01 1.75465E-04 1.25002E+00 5.54991E-14 1.14904E-13
 -1      3045 2.16709E+01-6.47048E-01-4.20547E-03 1.10731E+00-2.30751E-15 1.24965E-13
 -1      3046 2.21000E+01-3.78693E-01 1.06211E-02 1.34508E+00 5.35076E-14 5.01626E-14
 -1      3047 2.15611E+01-7.78027E-01-4.71183E-03 8.90339E-01-2.80421E-14 1.30595E-13
 -1      3048 2.15188E+01-8.44176E-01 2.33759E-03 7.13199E-01 2.27899E-14 1.19325E-13
 -1      3049 2.19593E+01-8.50585E-01 6.18382E-03 9.43562E-01-1.35281E-14 1.06834E-13
 -1      3050 2.13432E+01-8.58173E-01-6.13774E-03 5.07259E-01 5.35067E-14 1.43569E-13
 -1      3051 2.12671E+01-8.24860E-01 5.82909E-03 3.42927E-01 4.34639E-14 1.84011E-13
 -1      3052 2.16610E+01-1.00349E+00 9.61003E-04 5.06467E-01 3.67917E-14 1.42879E-13
 -1      3053 2.10762E+01-7.66954E-01-5.40293E-03 1.83917E-01 8.15869E-14 2.69139E-13
 -1      3054 2.09869E+01-6.82671E-01 6.64590E-03 5.50233E-02 8.96579E-14 2.64178E-13
 -1      3055 2.12991E+01-9.29322E-01-2.95326E-03 1.42839E-01 1.30454E-13 2.73722E-13
 -1      3056 2.08143E+01-5.94309E-01-3.87457E-03-5.03125E-02-3.76041E-14 2.99926E-13
 -1      3057 2.07276E+01-4.96000E-01 5.99088E-03-1.38777E-01-1.82041E-14 3.14007E-13
 -1      3058 2.09501E+01-7.38642E-01-4.72308E-03-1.11983E-01 9.06144E-14 3.36907E-13
 -1      3059 2.05885E+01-4.05351E-01-2.34602E-03-1.97674E-01-7.82442E-14 3.19596E-13
 -1      3060 2.05132E+01-3.15406E-01 4.70392E-03-2.49998E-01-1.01063E-14 3.22956E-13
 -1      3061 2.06557E+01-5.16448E-01-4.91360E-03-2.64407E-01-4.17647E-14 3.34238E-13
 -1      3062 2.04104E+01-2.38096E-01-1.14551E-03-2.74404E-01-3.91908E-14 2.70235E-13
 -1      3063 2.03497E+01-1.66738E-01 3.32435E-03-2.98791E-01-8.32659E-14 2.73154E-13
 -1      3064 2.04296E+01-3.13264E-01-4.19437E-03-3.36513E-01-4.70260E-14 5.10463E-13
 -1      3065 2.02785E+01-1.08287E-01-3.47659E-04-3.00415E-01-5.18201E-14 2.25125E-13
 -1      3066 2.02320E+01-5.74381E-02 2.14468E-03-3.05244E-01 2.84490E-14 2.74249E-13
 -1      3067 2.02680E+01-1.52278E-01-3.23325E-03-3.53653E-01-3.57205E-14 3.25434E-13
 -1      3068 2.01856E+01-1.76039E-02 1.42898E-04-2.93254E-01 2.83956E-14 2.78280E-13
 -1      3069 2.01511E+01 1.49686E-02 1.23977E-03-2.85680E-01-5.46937E-14 2.02500E-13
 -1      3070 2.01591E+01-3.75916E-02-2.31177E-03-3.36768E-01-3.28863E-14 1.97240E-13
 -1      3071 2.01226E+01 3.91664E-02 4.14193E-04-2.66682E-01-7.11719E-14 2.80076E-13
 -1      3072 2.00974E+01 5.73337E-02 6.02820E-04-2.52208E-01-8.45338E-14 3.07293E-13
 -1      3073 2.00897E+01 3.59377E-02-1.55563E-03-3.01269E-01 9.99935E-15 2.31579E-13
 -1      3074 2.00811E+01 6.97171E-02 5.39390E-04-2.30640E-01-1.67752E-13 3.14197E-13
 -1      3075 2.00629E+01 7.75429E-02 1.89075E-04-2.13182E-01-2.31415E-13 2.68949E-13
 -1      3076 2.00479E+01 7.70455E-02-9.90841E-04-2.57712E-01-3.56097E-14 3.13827E-13
 -1      3077 2.00543E+01 8.17631E-02 5.71871E-04-1.91814E-01-3.35412E-13 3.52562E-13
 -1      3078 2.00412E+01 8.27915E-02-5.58292E-05-1.73951E-01-1.96600E-13 3.00565E-13
 -1      3079 2.00243E+01 9.48583E-02-5.99012E-04-2.12854E-01-2.68816E-13 4.16397E-13
 -1      3080 2.00373E+01 8.18638E-02 5.49912E-04-1.54347E-01-1.39190E-13 2.96897E-13
 -1      3081 2.00277E+01 7.88574E-02-1.82726E-04-1.37631E-01-9.70920E-15 1.21929E-13
 -1      3082 2.00119E+01 9.73254E-02-3.44614E-04-1.70664E-01-2.15820E-13 7.15750E-13
 -1      3083 2.00263E+01 7.50431E-02 4.98735E-04-1.20545E-01 1.39677E-13-5.60544E-14
 -1      3084 2.00193E+01 6.99852E-02-2.32718E-04-1.05792E-01 2.02795E-13-2.07004E-14
 -1      3085 2.00061E+01 9.06528E-02-1.87954E-04-1.33197E-01 2.44832E-14 2.77307E-13
 -1      3086 2.00192E+01 6.48568E-02 4.34038E-04-9.14571E-02 1.87047E-13-9.40181E-14
 -1      3087 2.00140E+01 5.90705E-02-2.36421E-04-7.89857E-02 8.90282E-14-1.28272E-13
 -1      3088 2.00038E+01 7.93007E-02-9.70010E-05-1.01266E-01 1.20592E-13-3.60403E-14
 -1      3089 2.00144E+01 5.36407E-02 3.65784E-04-6.73243E-02 1.22492E-13-7.14493E-14
 -1      3090 2.00105E+01 4.79380E-02-2.15108E-04-5.71395E-02 1.34763E-13 2.94286E-14
 -1      3091 2.00032E+01 6.62528E-02-4.77426E-05-7.49195E-02 1.19922E-13 8.00963E-15
 -1      3092 2.00110E+01 4.28005E-02 3.00160E-04-4.79027E-02 1.00625E-13-2.98022E-14
 -1      3093 2.00080E+01 3.76240E-02-1.82758E-04-3.98300E-02 1.12889E-13-4.30086E-14
 -1      3094 2.00032E+01 5.33487E-02-2.31704E-05-5.37660E-02 1.03556E-13 1.15226E-13
 -1      3095 2.00084E+01 3.30767E-02 2.40828E-04-3.26928E-02 1.23340E-13-1.22765E-13
 -1      3096 2.00062E+01 2.86150E-02-1.48350E-04-2.64722E-02 5.85709E-14 2.01653E-14
 -1      3097 2.00033E+01 4.15976E-02-1.23275E-05-3.71954E-02 8.55763E-14-1.39898E-13
 -1      3098 2.00065E+01 2.47574E-02 1.89818E-04-2.10975E-02-3.81564E-15 4.11308E-14
 -1      3099 2.00048E+01 2.10343E-02-1.16372E-04-1.64456E-02 3.00288E-14-4.60841E-14
 -1      3100 2.00033E+01 3.14374E-02-8.02175E-06-2.45243E-02 6.57442E-14-2.08987E-13
 -1      3101 2.00048E+01 1.78877E-02 1.57430E-04-1.25252E-02 9.82285E-14-4.05865E-15
 -1      3102 2.00035E+01 1.48195E-02-9.10137E-05-9.12672E-03 1.98815E-13 2.77009E-14
 -1      3103 2.00030E+01 2.29469E-02-8.23227E-06-1.51150E-02 1.67196E-13 7.35206E-15
 -1      3104 1.91504E+01 1.08283E+00-2.83453E-03-1.19226E+00-8.17185E-15-1.07468E-13
 -1      3105 1.93092E+01 9.54007E-01-8.78089E-03-1.07481E+00 2.68913E-14-8.04457E-14
 -1      3106 1.95310E+01 8.43886E-01-1.22378E-03-1.00068E+00 1.82169E-14-2.67067E-14
 -1      3107 1.96309E+01 7.46563E-01-5.69933E-03-8.95627E-01 5.35129E-14-2.70020E-14
 -1      3108 1.92434E+01 9.99911E-01 1.06148E-02-8.86321E-01 5.39838E-14-1.68023E-13
 -1      3109 1.77332E+01 1.63899E+00-5.76628E-03-1.63975E+00 6.34319E-14-1.20345E-13
 -1      3110 1.81063E+01 1.50552E+00-1.78277E-02-1.48153E+00 1.33088E-14-1.32143E-13
 -1      3111 1.65976E+01 1.78832E+00-1.03691E-03-1.92387E+00 2.31930E-14-7.48134E-14
 -1      3112 1.70835E+01 1.72884E+00-2.46983E-02-1.73210E+00 6.65553E-14-1.11394E-13
 -1      3113 1.69207E+01 1.85144E+00 3.67167E-02-1.19130E+00 4.01899E-14-1.26565E-13
 -1      3114 1.50271E+01 1.62978E+00 2.58922E-02-2.36480E+00 2.64545E-15-1.35926E-13
 -1      3115 1.56158E+01 1.75740E+00-2.76062E-02-2.07529E+00 2.07386E-14-7.84164E-14
 -1      3116 1.53948E+01 1.99878E+00 5.78492E-02-1.30297E+00 3.37211E-14-7.32474E-14
 -1      3117 1.66661E+01-2.71116E+00 1.44716E-01-6.22556E+00 3.23200E-13 1.41033E-13
 -1      3118 1.91897E+01-3.77977E+00-9.56302E-02-5.87419E+00 3.50976E-13 2.52687E-13
 -1      3119 1.77590E+01 1.67344E+00-2.20639E-02 1.59615E+00-1.06184E-13 7.79830E-14
 -1      3120 1.73545E+01 1.77272E+00-2.42565E-03 1.80373E+00-1.62060E-13-5.99486E-14
 -1      3121 1.91442E+01 1.11727E+00-1.12312E-02 1.05912E+00 1.36430E-13-1.17742E-14
 -1      3122 1.89667E+01 1.26363E+00-2.86388E-03 1.20334E+00 2.49616E-14 4.05643E-14
 -1      3123 1.62738E+01-3.02204E+00 1.17833E-01 6.45205E+00 6.03684E-14 1.29924E-13
 -1      3124 1.33893E+01-2.96410E+00 1.07122E-01 6.90941E+00 2.21767E-14 3.00870E-14
 -1      3125 1.85907E+01 1.40603E+00-1.59082E-02 1.30577E+00-1.45456E-13 1.56327E-13
 -1      3126 1.83125E+01 1.55242E+00-4.50884E-03 1.47627E+00-9.20349E-14 6.75705E-14
 -1      3127 1.75225E+01 1.79134E+00 3.04382E-02 1.14796E+00-1.12071E-13 1.79934E-15
 -1      3128 1.83958E+01 1.48168E+00 2.05993E-02 9.93806E-01 4.98015E-14-1.10901E-13
 -1      3129 1.94875E+01 8.70658E-01-8.03484E-03 8.56492E-01 8.00188E-14 2.03774E-14
 -1      3130 1.93860E+01 9.91971E-01-1.21229E-03 9.72875E-01 1.27970E-13-6.37574E-14
 -1      3131 1.89716E+01 1.18080E+00 1.40164E-02 8.47741E-01 1.41134E-13-2.34683E-13
 -1      3132 1.97155E+01 6.56512E-01-5.86990E-03 6.74787E-01 1.03643E-13 2.43877E-13
 -1      3133 1.96557E+01 7.59966E-01-2.30144E-05 7.75563E-01 5.77661E-14 1.52241E-13
 -1      3134 1.93542E+01 9.15991E-01 9.23466E-03 7.06878E-01-4.33133E-15-6.86888E-14
 -1      3135 1.98541E+01 4.89177E-01-4.17584E-03 5.24016E-01 4.18135E-13 2.72914E-13
 -1      3136 1.98246E+01 5.69070E-01 5.97790E-04 6.05253E-01 2.39801E-13 2.24327E-13
 -1      3137 1.96100E+01 6.94667E-01 6.06070E-03 5.73927E-01 1.44563E-13-1.11020E-13
 -1      3138 1.99350E+01 3.61968E-01-2.96977E-03 4.01455E-01 3.28089E-13 5.73057E-13
 -1      3139 1.99234E+01 4.22453E-01 9.38864E-04 4.65757E-01 4.58113E-13 5.58770E-13
 -1      3140 1.97721E+01 5.20924E-01 3.86544E-03 4.56456E-01 2.64354E-13-6.25915E-15
 -1      3141 1.99799E+01 2.66804E-01-2.10459E-03 3.03586E-01 2.87608E-13 3.55960E-13
 -1      3142 1.99782E+01 3.12013E-01 1.03533E-03 3.53774E-01 2.66357E-13 5.27437E-13
 -1      3143 1.98727E+01 3.87995E-01 2.41116E-03 3.56361E-01 3.77188E-13 3.80412E-13
 -1      3144 2.00033E+01 1.96296E-01-1.43472E-03 2.26623E-01 1.65286E-13 3.35191E-13
 -1      3145 2.00064E+01 2.29795E-01 1.00660E-03 2.65331E-01 2.11864E-13 3.74248E-13
 -1      3146 1.99336E+01 2.87696E-01 1.44636E-03 2.73576E-01 2.75372E-13 4.06492E-13
 -1      3147 2.00136E+01 1.46300E-01-1.01263E-03 1.69432E-01-1.75115E-14 1.94622E-13
 -1      3148 2.00186E+01 1.70247E-01 9.02081E-04 1.97883E-01 1.53870E-13 2.83367E-13
 -1      3149 1.99687E+01 2.14137E-01 7.94861E-04 2.08047E-01 1.04705E-13 2.44709E-13
 -1      3150 2.00172E+01 1.07025E-01-7.39628E-04 1.22772E-01-1.11185E-13 3.94214E-14
 -1      3151 2.00228E+01 1.25700E-01 7.52774E-04 1.45520E-01-8.22365E-14 1.29283E-13
 -1      3152 1.99889E+01 1.59226E-01 4.93925E-04 1.55839E-01 3.37430E-14 3.10410E-13
 -1      3153 2.00172E+01 7.80199E-02-5.18514E-04 8.72973E-02-2.50850E-13 1.67317E-13
 -1      3154 2.00224E+01 9.18444E-02 6.15371E-04 1.04408E-01-1.62806E-13 4.83572E-14
 -1      3155 2.00001E+01 1.16978E-01 2.68441E-04 1.13761E-01-3.37057E-14 1.64656E-13
 -1      3156 2.00153E+01 5.65460E-02-3.62665E-04 6.05883E-02-3.28385E-13-3.58063E-15
 -1      3157 2.00198E+01 6.67903E-02 4.91639E-04 7.33346E-02-2.94143E-13 1.82109E-13
 -1      3158 2.00056E+01 8.55134E-02 1.29926E-04 8.13244E-02-1.77155E-13 2.35953E-13
 -1      3159 2.00128E+01 4.06611E-02-2.39796E-04 4.07228E-02-2.58895E-13-1.74168E-14
 -1      3160 2.00165E+01 4.82301E-02 3.85207E-04 5.01066E-02-3.85068E-13-5.69376E-14
 -1      3161 2.00076E+01 6.20831E-02 4.77352E-05 5.66539E-02-3.27615E-13 1.24070E-13
 -1      3162 2.00103E+01 2.93714E-02-1.67113E-04 2.67631E-02-1.02390E-13-2.06573E-14
 -1      3163 2.00131E+01 3.47956E-02 2.98637E-04 3.33319E-02-1.60351E-13-1.26311E-13
 -1      3164 2.00079E+01 4.49497E-02-1.44965E-05 3.85221E-02-1.93030E-13-2.78162E-13
 -1      3165 2.00078E+01 2.04433E-02-1.23677E-04 1.60543E-02-2.29814E-13 1.80727E-13
 -1      3166 2.00101E+01 2.46949E-02 2.24877E-04 2.10128E-02-1.00693E-13 1.13301E-14
 -1      3167 2.00072E+01 3.22207E-02-1.39293E-05 2.50982E-02-1.15396E-13-5.47900E-14
 -1      3168 2.00056E+01 1.37452E-02-9.16051E-05 8.51025E-03-1.31789E-13 1.66977E-13
 -1      3169 2.00074E+01 1.69778E-02 1.73731E-04 1.19730E-02-2.04812E-13 1.33637E-13
 -1      3170 2.00060E+01 2.23543E-02-2.84924E-05 1.50819E-02-1.88021E-13-1.33115E-14
 -1      3171 2.00039E+01 8.62561E-03-4.63305E-05 3.45857E-03 1.48467E-13 7.17577E-14
 -1      3172 2.00052E+01 1.10839E-02 1.31401E-04 5.74392E-03-2.09117E-14 1.24935E-13
 -1      3173 2.00047E+01 1.48080E-02-6.54172E-05 8.01697E-03-9.65713E-14-2.15895E-13
 -1      3174 2.25870E+01-4.59498E+00-6.63989E-02 4.74645E+00 1.78926E-13 1.74841E-13
 -1      3175 2.02709E+01-3.85812E+00 7.95769E-02 5.51146E+00 1.48208E-13 1.88519E-13
 -1      3176 1.02605E+01 1.14399E+00 1.13125E-01 1.49519E+00-2.71267E-13 2.15425E-13
 -1      3177 9.42234E+00 1.25057E+00 1.24670E-01-1.07019E-01-8.30100E-14 2.73614E-13
 -1      3178 8.65157E+00 6.10329E-01 2.77306E-01-1.90132E+00-2.54241E-14-4.29795E-13
 -1      3179 1.07593E+01-2.50353E-01 8.42755E-02-3.55429E+00-1.66506E-13-2.90407E-13
 -1      3180 1.20347E+01 2.77553E-01 1.04213E-01-3.41587E+00-8.94354E-14-2.63456E-13
 -1      3181 2.00008E+01 1.29283E-02 3.98204E-05-3.67730E-03 3.76895E-13 1.21410E-13
 -1      3182 2.00000E+01 1.41122E-02-7.48984E-05-3.52541E-03 4.40008E-13 1.69967E-13
 -1      3183 1.99993E+01 1.58605E-02 1.03288E-05-3.04979E-03 3.76043E-13 9.28468E-14
 -1      3184 1.99986E+01 1.67489E-02-7.14235E-05-2.55763E-03 2.53395E-13 1.25799E-13
 -1      3185 1.99995E+01 1.84820E-02 8.48490E-05-4.58098E-03 3.67996E-13 1.14514E-13
 -1      3186 2.00930E+01 2.30283E+00-6.38237E-03-1.02412E+00-2.53965E-14-2.81404E-13
 -1      3187 2.01834E+01 2.11194E+00-8.09332E-03-1.10600E+00-6.07446E-14-2.69138E-13
 -1      3188 2.02565E+01 1.81517E+00 5.84985E-03-9.36623E-01-6.95554E-14-2.31123E-13
 -1      3189 2.01648E+01 2.04821E+00 7.91581E-03-8.12560E-01-2.98366E-14-2.56362E-13
 -1      3190 2.65626E+01-3.27926E+00 7.44529E-02-1.15129E+00 1.95829E-13-3.50546E-13
 -1      3191 2.69088E+01-2.41765E+00-1.26692E-01-9.75324E-03 1.85650E-13-3.76199E-13
 -1      3192 2.54722E+01 5.35187E+00-9.75936E-02 8.27768E-01-1.61177E-13-1.51041E-13
 -1      3193 2.55367E+01 5.69097E+00-8.03893E-02-2.77018E-01-2.91878E-13 1.10190E-14
 -1      3194 2.72418E+01 2.42379E+00-1.51469E-01-2.03267E+00-3.06755E-13 3.21042E-13
 -1      3195 2.76493E+01 5.76128E-01-1.86683E-02-1.69002E+00-2.30593E-13 3.30472E-13
 -1      3196 2.01616E+01 6.07484E-01-1.46422E-03-2.54443E-01 1.24085E-13 1.24334E-14
 -1      3197 2.02056E+01 6.78817E-01 2.86300E-03-1.23951E-01 1.39025E-13-1.65346E-15
 -1      3198 1.87518E+01-1.60875E+00 1.01029E-01 4.98058E+00-3.01238E-13-9.97744E-14
 -1      3199 1.49597E+01 1.57949E+00-1.35506E-02 2.48881E+00-2.91329E-13-1.56694E-13
 -1      3200 1.43893E+01 1.20829E+00 6.94563E-02 2.91232E+00-4.26619E-13-1.28897E-13
 -1      3201 1.21856E+01-5.05942E-01 1.31966E-01-4.97954E+00 2.30677E-13 2.42223E-13
 -1      3202 1.42375E+01-1.81707E+00 2.66040E-02-6.01744E+00 2.22822E-13 1.00031E-13
 -1      3203 1.62472E+01-1.63279E+00 9.64685E-02-5.34162E+00 2.90552E-13 9.37375E-14
 -1      3204 2.26713E+01-4.11103E+00 1.52536E-01-4.57813E+00 3.92963E-13 1.41357E-13
 -1      3205 2.48903E+01-4.31981E+00-1.17929E-01-2.95553E+00 3.00444E-13-1.39850E-13
 -1      3206 2.50053E+01-3.57588E+00-4.46763E-03-1.85663E+00 2.17149E-13-1.95890E-13
 -1      3207 1.65667E+01 1.79771E+00-2.86214E-02 1.96703E+00-2.29581E-13-4.25528E-14
 -1      3208 1.60705E+01 1.75425E+00 1.03085E-02 2.23138E+00-2.38129E-13-1.48029E-13
 -1      3209 1.44586E+01 1.95266E+00 6.25033E-02 1.60578E+00-3.06068E-13-2.43059E-13
 -1      3210 1.62592E+01 2.02033E+00 4.68903E-02 1.31954E+00-2.15861E-13-3.23274E-14
 -1      3211 1.14162E+01-4.30577E-01 7.34545E-02 4.68911E+00 1.03237E-13-2.00104E-13
 -1      3212 9.86027E+00 4.89914E-01 1.08434E-01 3.05125E+00 1.25070E-13-2.37643E-13
 -1      3213 1.26321E+01-1.72858E+00 1.37852E-01 6.08554E+00 8.10879E-14-1.02168E-13
 -1      3214 1.99982E+01 1.83010E-02-6.51278E-05 2.07565E-03 1.49914E-13-3.04808E-13
 -1      3215 1.99988E+01 1.77814E-02-9.16639E-06 2.71309E-03 2.43571E-13-3.10503E-13
 -1      3216 2.62771E+01-3.85715E+00-1.13631E-01 1.70307E+00 5.67844E-14 3.77556E-13
 -1      3217 2.47277E+01-4.33972E+00 7.26324E-02 3.33017E+00 1.75766E-13 2.52583E-13
 -1      3218 2.00692E+01 5.45322E-01-6.06324E-04-4.67665E-01 1.33496E-13-1.05760E-14
 -1      3219 2.01113E+01 5.65125E-01 8.47072E-04-3.59505E-01 1.38370E-13 4.01098E-15
 -1      3220 2.01288E+01 6.89989E-01 9.38689E-04-2.66878E-01 1.35658E-13-4.14128E-14
 -1      3221 2.59153E+01 5.21823E+00-1.14457E-01-1.25004E+00-4.39399E-13 1.18249E-13
 -1      3222 2.67891E+01 4.05156E+00-7.84663E-02-1.95904E+00-3.88356E-13 2.33452E-13
 -1      3223 2.59688E+01 2.62769E+00-5.80157E-02-1.95078E+00-2.61291E-13 2.75162E-13
 -1      3224 8.62057E+00 6.94171E-01 1.50625E-01 1.14331E-01 8.78481E-14-3.04839E-13
 -1      3225 9.33525E+00 9.77420E-01 1.15395E-01-1.86134E+00 1.51608E-13 4.12878E-13
 -1      3226 1.03614E+01 2.19935E-01 6.18603E-02-3.88344E+00 1.72244E-13 3.71966E-13
 -1      3227 1.27043E+01 2.30533E-01 1.15707E-01-3.97098E+00 1.79540E-13 2.40169E-13
 -1      3228 2.00021E+01 8.01745E-03 1.08237E-05-2.60343E-03 1.79437E-13 4.06611E-13
 -1      3229 2.00015E+01 1.04583E-02-6.52210E-05-3.42343E-03 2.70512E-13 1.16131E-13
 -1      3230 2.00013E+01 1.43944E-02 8.77894E-05-4.93921E-03 3.64403E-13-1.42928E-14
 -1      3231 2.00026E+01 9.74016E-03 2.13454E-05-3.98353E-03 1.13132E-13 3.70000E-13
 -1      3232 1.99248E+01 2.34270E+00-5.39134E-03 2.56773E-01 2.14688E-13-1.73064E-13
 -1      3233 1.99075E+01 2.38455E+00-3.05509E-03 1.55613E-01 1.84011E-13-1.82620E-13
 -1      3234 2.69568E+01 2.79568E+00-3.90041E-02 2.11525E+00 3.46112E-14-1.97557E-13
 -1      3235 2.61054E+01 4.32808E+00-1.17370E-01 1.76666E+00-6.81538E-14-1.79093E-13
 -1      3236 1.85786E+01 1.36566E+00-4.75022E-03-1.40224E+00-3.91239E-14-1.37537E-13
 -1      3237 1.88260E+01 1.21833E+00-1.29034E-02-1.26807E+00-4.22703E-14-1.12790E-13
 -1      3238 1.87288E+01 1.26659E+00 1.58961E-02-1.00130E+00-5.23041E-15-1.39464E-13
 -1      3239 2.74453E+01-7.41949E-01 3.27552E-03 1.14126E+00 1.89425E-13-3.45265E-13
 -1      3240 2.71862E+01 8.50986E-01-1.45327E-01 1.80964E+00 8.55982E-14-2.73899E-13
 -1      3241 1.57819E+01-6.82671E-01 8.01807E-02 4.81549E+00-4.00915E-13-2.19033E-13
 -1      3242 1.79414E+01-3.16931E+00 8.52272E-03 5.97932E+00 1.08538E-13 1.87350E-13
 -1      3243 1.59227E+01-2.15937E+00 8.55928E-02 5.79405E+00 1.13201E-13 1.38695E-13
 -1      3244 1.25711E+01 5.19193E-01 8.68864E-02 3.43482E+00-4.47649E-13-1.09024E-13
 -1      3245 2.67428E+01-4.29645E-01-2.66106E-02-1.38050E+00-1.24088E-13 3.46161E-13
 -1      3246 2.61288E+01-3.08663E+00-1.49246E-03 7.69239E-01 2.80522E-14 2.95475E-13
 -1      3247 1.79788E+01 1.56833E+00 2.29640E-02-1.10126E+00-4.07075E-15-1.50662E-13
 -1      3248 2.61417E+01 1.44814E+00-5.21652E-02 1.93913E+00 1.34108E-13-1.56791E-13
 -1      3249 2.00033E+01 1.16943E-02 7.91290E-05-5.92788E-03 2.28250E-13 1.76618E-13
 -1      3250 2.01069E+01 1.95969E+00-6.46553E-03 5.72640E-01 2.53886E-13-3.84381E-14
 -1      3251 2.00458E+01 2.09474E+00-4.25466E-03 4.91224E-01 2.41113E-13-6.75013E-14
 -1      3252 2.00719E+01 2.04813E+00-3.03217E-03-4.78130E-01 3.70424E-14-2.19328E-13
 -1      3253 2.01291E+01 1.90675E+00-6.15718E-03-5.70843E-01-4.22351E-15-2.18101E-13
 -1      3254 1.95915E+01 8.01307E-01 6.73219E-03-7.59080E-01 6.19889E-14-7.66042E-14
 -1      3255 1.97803E+01 6.71563E-01-3.20392E-04-8.22993E-01 6.55079E-14 9.22588E-16
 -1      3256 1.98437E+01 6.11377E-01-3.25395E-03-7.27300E-01 1.07649E-13-1.86153E-14
 -1      3257 1.29565E+01 1.13520E+00 5.47111E-02-2.79857E+00-2.18246E-14-2.21156E-13
 -1      3258 1.15638E+01 1.21612E+00 1.05604E-01 2.13107E+00-3.67839E-13 3.69843E-14
 -1      3259 2.64009E+01-1.52977E+00-7.46688E-03 7.54668E-01 1.71231E-13-2.14849E-13
 -1      3260 1.15764E+01 1.17397E+00 9.53445E-02 1.85376E+00 9.58825E-14-2.36616E-13
 -1      3261 9.67624E+00 1.14105E+00 1.32836E-01 1.30334E+00 1.03679E-13-2.67175E-13
 -1      3262 1.06173E+01 1.37731E+00 8.06859E-02-8.40396E-01 3.81067E-14-2.97207E-13
 -1      3263 1.99987E+01 2.13164E-02 9.39999E-05 3.99782E-03 3.19223E-14-2.63178E-13
 -1      3264 1.99995E+01 1.65666E-02-7.96798E-05 3.49741E-03 1.46145E-13-3.49533E-13
 -1      3265 2.00003E+01 1.56240E-02 1.57834E-05 3.81714E-03 2.24471E-13-6.50992E-13
 -1      3266 2.00023E+01 1.54030E-02-4.94422E-05-7.75498E-03 3.30070E-13-5.01793E-14
 -1      3267 1.98365E+01-3.09660E+00 7.54084E-02 5.04064E+00 1.42910E-13 2.04239E-13
 -1      3268 2.37101E+01-3.99438E+00 4.31915E-02 3.37473E+00 1.91722E-13 2.83950E-13
 -1      3269 2.00032E+01 6.23839E-03 5.20198E-05 1.56570E-03 2.08111E-13 1.06550E-13
 -1      3270 1.24279E+01 1.54728E+00 8.97135E-02-1.67635E+00 1.71339E-14-2.42788E-13
 -1      3271 1.09535E+01 1.42514E+00 1.10980E-01-1.04724E+00 5.02012E-14 2.13982E-13
 -1      3272 1.99576E+01 2.28749E+00-2.97236E-03 3.29804E-01 2.18692E-13-1.42920E-13
 -1      3273 2.00316E+01 2.05881E+00 7.61994E-03 2.41109E-01 2.00181E-13-1.41999E-13
 -1      3274 1.99964E+01 2.19818E+00-6.25022E-03 4.24829E-01 2.37198E-13-9.79327E-14
 -1      3275 1.99979E+01 2.13501E-02 8.94335E-05-2.96845E-03 2.22397E-13 5.89703E-14
 -1      3276 1.99981E+01 1.78973E-02-1.49819E-05-1.64944E-03 1.61079E-13-2.12392E-13
 -1      3277 1.99978E+01 1.83688E-02-5.48765E-05-9.35243E-04 1.27360E-13-5.01317E-13
 -1      3278 1.99963E+01 5.47812E-01-1.14141E-03-5.53202E-01 1.23858E-13-2.35772E-14
 -1      3279 2.00053E+01 6.36798E-01 2.00883E-03-4.57794E-01 1.37583E-13-7.32042E-14
 -1      3280 1.99499E+01 5.70222E-01-2.08954E-04-6.48857E-01 1.47736E-13-4.52465E-14
 -1      3281 2.00012E+01 1.37933E-02-8.75552E-05 4.07669E-03 2.72943E-13-8.85347E-13
 -1      3282 2.00021E+01 1.25995E-02 3.24060E-05 4.00352E-03 3.31186E-13-7.95533E-13
 -1      3283 2.00008E+01 1.83699E-02 9.55829E-05 5.29139E-03 1.91069E-13-8.10463E-13
 -1      3284 2.51072E+01 4.41696E+00-8.51652E-02 1.32301E+00-9.56388E-14-2.16903E-13
 -1      3285 2.39812E+01 4.29018E+00-1.97107E-02 8.21901E-01-3.74145E-14-1.30826E-13
 -1      3286 2.46381E+01 3.41239E+00-5.47447E-03 1.66487E+00-4.15154E-14-2.74065E-13
 -1      3287 2.48436E+01 4.62911E+00-5.46936E-02-7.48350E-01-2.71408E-13 3.64522E-14
 -1      3288 2.00031E+01 1.02894E-02-2.96906E-05 3.72873E-03 1.39730E-13-6.63725E-13
 -1      3289 2.00033E+01 8.95663E-03-3.63036E-06 3.16509E-03 8.78971E-14-2.34873E-13
 -1      3290 2.00031E+01 1.42836E-02 8.13590E-05 5.53479E-03 7.81750E-14-5.60888E-13
 -1      3291 2.02106E+01 8.59060E-01 2.72766E-04-2.59470E-02 1.47783E-13-3.78390E-14
 -1      3292 2.02340E+01 7.80395E-01-1.83153E-03 1.24081E-02 1.64375E-13-1.34818E-14
 -1      3293 1.99781E+01 2.24798E+00-3.51912E-03-2.99684E-01 1.04455E-13-2.37983E-13
 -1      3294 2.00203E+01 2.15865E+00-4.73359E-03-4.03112E-01 7.13460E-14-2.47230E-13
 -1      3295 2.01307E+01 1.83127E+00 4.31818E-03-3.38367E-01 3.43286E-14-2.01747E-13
 -1      3296 2.02279E+01 1.56022E+00 8.25562E-03 4.76433E-01 2.19156E-13-3.86179E-14
 -1      3297 1.99953E+01 2.12963E+00 5.99773E-03 1.04076E-01 1.72905E-13-1.80966E-13
 -1      3298 1.98993E+01 2.39605E+00-4.39053E-03 7.61941E-02 1.79836E-13-1.91893E-13
 -1      3299 1.99037E+01 2.39237E+00-3.51606E-03-2.82696E-02 1.64734E-13-1.96903E-13
 -1      3300 1.99977E+01 1.87616E-02-4.16655E-05 2.05792E-04 1.70523E-14-5.86830E-13
 -1      3301 1.99978E+01 1.87394E-02-3.35386E-05 9.80868E-04 8.16018E-14-2.83392E-13
 -1      3302 1.99974E+01 2.28949E-02 9.69736E-05 1.84433E-03 3.91575E-14-4.86230E-13
 -1      3303 1.99971E+01 2.29013E-02 9.25694E-05-6.69248E-04 1.32701E-14-3.91069E-13
 -1      3304 2.10503E+01-3.45758E+00 4.85015E-02-4.66325E+00 3.42407E-13 8.90629E-14
 -1      3305 1.41315E+01-1.54623E+00 2.72364E-02 5.61384E+00 1.34372E-13 7.00134E-15
 -1      3306 1.29418E+01-1.10319E+00 1.04780E-01 5.34927E+00 1.38257E-13-8.78464E-14
 -1      3307 1.31581E+01-1.75272E-01 7.88745E-02 4.34312E+00 1.53953E-13-7.96238E-14
 -1      3308 1.62081E+01-1.58484E+00 8.82164E-02 5.20415E+00 1.78323E-13 7.74589E-14
 -1      3309 2.02645E+01 1.53714E+00-5.00535E-03-7.67444E-01-7.36227E-14-2.18918E-13
 -1      3310 2.02690E+01 8.64837E-01 6.28959E-03 1.28328E-01 1.66185E-13 1.53274E-15
 -1      3311 2.02413E+01 1.57321E+00-2.63086E-03-6.50131E-01-6.07210E-14-2.16946E-13
 -1      3312 2.02834E+01 9.90841E-01-1.76424E-03 3.22047E-01 1.90096E-13 2.01220E-14
 -1      3313 2.02660E+01 1.11286E+00-4.72521E-03 3.00334E-01 1.87435E-13-4.26025E-14
 -1      3314 2.02935E+01 8.47638E-01 1.38957E-03-5.75134E-02-5.92183E-15-1.39027E-13
 -1      3315 2.02827E+01 6.88362E-01-2.09262E-03 6.39657E-02 5.20828E-15-1.29821E-13
 -1      3316 2.02857E+01 5.53731E-01 2.37017E-03 1.59067E-01 6.82044E-15-1.11081E-13
 -1      3317 2.02731E+01 4.36150E-01-1.21649E-03 2.49066E-01 4.41448E-15-9.91322E-14
 -1      3318 2.02802E+01 7.10934E-01-3.12069E-04 1.06671E-01 1.08459E-14-8.98477E-14
 -1      3319 2.02713E+01 3.35297E-01 2.40918E-03 3.23714E-01-4.12870E-15-9.43365E-14
 -1      3320 2.02675E+01 2.42299E-01-2.64919E-04 3.87925E-01-9.26649E-15-6.12570E-14
 -1      3321 2.02696E+01 4.52344E-01-9.93675E-04 2.81328E-01 1.44085E-14-6.79729E-14
 -1      3322 2.02716E+01 1.57638E-01 2.48222E-03 4.45700E-01-1.49524E-14-4.28536E-14
 -1      3323 2.02840E+01 7.35411E-02 4.14830E-04 4.88413E-01 2.90216E-14-2.71275E-14
 -1      3324 2.02615E+01 2.45657E-01-2.06125E-03 4.19837E-01-1.56261E-17-3.60998E-14
 -1      3325 2.03057E+01-9.42260E-03 2.97058E-03 5.31680E-01 3.22636E-14-1.02694E-14
 -1      3326 2.03404E+01-9.82236E-02 7.32438E-04 5.54072E-01 4.94416E-14-4.19045E-15
 -1      3327 2.02773E+01 5.89809E-02-3.25296E-03 5.29117E-01 3.32659E-14-1.34767E-14
 -1      3328 2.03922E+01-1.91107E-01 3.98727E-03 5.81754E-01 9.60058E-14-1.56152E-14
 -1      3329 2.04551E+01-2.95087E-01 5.66406E-04 5.81252E-01 7.76006E-14 3.40548E-14
 -1      3330 2.03394E+01-1.37475E-01-4.70206E-03 6.11132E-01 6.93836E-14-2.21747E-14
 -1      3331 2.05504E+01-4.05404E-01 5.56397E-03 5.87531E-01 6.53201E-14 6.70062E-14
 -1      3332 2.06459E+01-5.29693E-01-2.79668E-04 5.57456E-01 4.54716E-14 8.17211E-14
 -1      3333 2.04719E+01-3.67247E-01-6.39271E-03 6.60012E-01 1.01660E-13-2.81240E-14
 -1      3334 2.07975E+01-6.57754E-01 7.54668E-03 5.30586E-01-2.03055E-15 1.16319E-13
 -1      3335 2.09264E+01-7.97772E-01-2.00525E-03 4.60583E-01 2.43756E-15 1.52852E-13
 -1      3336 2.06998E+01-6.42938E-01-8.13807E-03 6.58980E-01 3.07687E-14 2.00409E-15
 -1      3337 2.11417E+01-9.31428E-01 9.42506E-03 3.82771E-01-2.03836E-14 1.40562E-13
 -1      3338 2.12966E+01-1.06628E+00-4.58962E-03 2.61230E-01 1.35926E-15 1.22207E-13
 -1      3339 2.10436E+01-9.56021E-01-9.31896E-03 5.78131E-01-8.85725E-15 5.08727E-14
 -1      3340 2.15691E+01-1.17433E+00 1.00792E-02 1.11862E-01-1.16468E-14 1.24999E-13
 -1      3341 2.17306E+01-1.25937E+00-7.37935E-03-6.78343E-02-7.53780E-14 1.30843E-13
 -1      3342 2.15079E+01-1.26173E+00-8.82972E-03 3.76104E-01-2.55093E-14 9.29406E-14
 -1      3343 2.20275E+01-1.28628E+00 7.40187E-03-3.00896E-01-1.00718E-13 1.77731E-13
 -1      3344 2.21621E+01-1.25245E+00-9.36961E-03-5.27210E-01-1.19669E-13 2.08377E-13
 -1      3345 2.20614E+01-1.46005E+00-5.30928E-03 1.24284E-02-1.50868E-14 1.30149E-13
 -1      3346 2.24165E+01-1.11878E+00 3.74864E-04-8.28709E-01-1.27104E-13 2.10573E-13
 -1      3347 2.24805E+01-8.86783E-01-7.19340E-03-1.05230E+00-1.20565E-13 1.91163E-13
 -1      3348 2.26173E+01-1.39651E+00-1.96877E-04-5.23289E-01-1.28606E-13 2.09675E-13
 -1      3349 2.26081E+01-5.37785E-01-1.06500E-02-1.33994E+00-1.28435E-13 1.86350E-13
 -1      3350 2.25875E+01-6.68963E-02 5.15139E-03-1.47685E+00-1.04911E-13 1.78914E-13
 -1      3351 2.30206E+01-8.83859E-01 2.94643E-03-1.13732E+00-1.27386E-13 2.31897E-13
 -1      3352 2.25047E+01 4.74790E-01-2.78597E-02-1.58566E+00-1.30476E-13 1.38979E-13
 -1      3353 2.24297E+01 1.09229E+00 1.38261E-02-1.52668E+00-1.11763E-13 1.35605E-13
 -1      3354 2.31198E+01 2.10023E-01 1.66852E-02-1.61210E+00-8.82827E-14 2.37208E-13
 -1      3355 2.22190E+01 1.67320E+00-2.87841E-02-1.34097E+00-8.96501E-14 8.94181E-14
 -1      3356 2.21347E+01 2.20270E+00 1.61119E-02-1.03702E+00-7.92344E-14 2.40722E-14
 -1      3357 2.29298E+01 1.55053E+00 8.02096E-03-1.57611E+00-1.57243E-13 1.49090E-13
 -1      3358 2.19407E+01 2.52871E+00-2.63678E-02-5.03951E-01-6.86760E-14-3.19467E-14
 -1      3359 2.19310E+01 2.70407E+00 4.22190E-03-6.45733E-02-8.68880E-14-4.00461E-15
 -1      3360 2.25719E+01 2.75273E+00 3.57198E-03-8.92164E-01-9.97327E-14 2.53304E-14
 -1      3361 2.24658E+01 2.90225E+00-7.83605E-03 6.96839E-01-1.53072E-14 1.01620E-14
 -1      3362 2.25771E+01 2.52773E+00-1.38902E-02 1.15014E+00 3.51611E-14 8.39624E-14
 -1      3363 2.25130E+01 6.10975E-01 1.17149E-02 1.61218E+00 8.19540E-14 4.68462E-14
 -1      3364 2.25610E+01 3.79682E-02-2.26440E-02 1.58106E+00 1.29959E-13 2.73262E-15
 -1      3365 2.25530E+01-4.21127E-01 1.96268E-04 1.38222E+00 3.58702E-14-6.52968E-14
 -1      3366 2.25293E+01-7.86314E-01-6.40442E-03 1.20206E+00 2.47967E-14-9.87756E-14
 -1      3367 2.30900E+01-2.54536E-01 1.36833E-02 1.50812E+00 2.30527E-14-6.32168E-14
 -1      3368 2.23359E+01-1.03377E+00-7.96232E-03 9.02482E-01 3.84311E-14-7.01218E-14
 -1      3369 2.22321E+01-1.16900E+00 4.26563E-03 6.75618E-01 5.82418E-14 1.96345E-14
 -1      3370 2.28395E+01-1.09762E+00 5.11820E-03 9.45114E-01 5.87735E-14-8.00696E-14
 -1      3371 2.19424E+01-1.21784E+00-8.22492E-03 4.07603E-01 1.33446E-14 5.67303E-15
 -1      3372 2.17885E+01-1.18704E+00 1.00089E-02 2.06700E-01 5.87541E-14 3.57663E-14
 -1      3373 2.23344E+01-1.38756E+00-2.55195E-04 3.56056E-01 4.65602E-14-4.26785E-15
 -1      3374 2.14853E+01-1.11408E+00-6.16803E-03 1.81254E-02 1.60415E-13 5.50564E-14
 -1      3375 2.13187E+01-9.98244E-01 1.04808E-02-1.27270E-01 2.30105E-13 1.09166E-13
 -1      3376 2.17497E+01-1.31186E+00-5.85845E-03-9.32758E-02 1.50899E-13-6.23201E-14
 -1      3377 2.10566E+01-8.73544E-01-3.44750E-03-2.34947E-01 1.26921E-13 8.70877E-14
 -1      3378 2.09042E+01-7.33572E-01 8.66436E-03-3.24698E-01 8.58028E-14 1.21066E-13
 -1      3379 2.12049E+01-1.04930E+00-9.12479E-03-3.65204E-01 2.04554E-13-1.40004E-13
 -1      3380 2.07023E+01-6.01947E-01-1.33930E-03-3.70677E-01 5.92084E-14 1.38402E-13
 -1      3381 2.05779E+01-4.71931E-01 6.41667E-03-4.15273E-01 6.29555E-14 2.04439E-13
 -1      3382 2.07650E+01-7.33119E-01-8.50806E-03-4.96663E-01 7.15300E-14-3.50359E-14
 -1      3383 2.04363E+01-3.58699E-01 1.12663E-04-4.20685E-01-1.33895E-14 2.38256E-13
 -1      3384 2.03428E+01-2.55214E-01 4.27211E-03-4.33999E-01-1.12007E-14 2.74069E-13
 -1      3385 2.04433E+01-4.44783E-01-6.76157E-03-5.26867E-01 1.45124E-13-5.78179E-14
 -1      3386 2.02505E+01-1.68923E-01 7.75770E-04-4.16824E-01-7.20128E-14 2.93115E-13
 -1      3387 2.01847E+01-9.46487E-02 2.59376E-03-4.10459E-01-2.08888E-14 2.36235E-13
 -1      3388 2.02254E+01-2.17732E-01-4.99039E-03-4.99781E-01-5.02880E-15 4.16760E-14
 -1      3389 2.01294E+01-3.51784E-02 1.03116E-03-3.82373E-01-5.11082E-14 1.70835E-13
 -1      3390 2.00855E+01 1.29680E-02 1.38241E-03-3.64999E-01-1.09706E-13 8.53581E-14
 -1      3391 2.00885E+01-5.61143E-02-3.43022E-03-4.43864E-01-1.18339E-13 1.48882E-13
 -1      3392 2.00558E+01 4.97503E-02 1.04867E-03-3.33361E-01 6.28303E-14 1.27281E-13
 -1      3393 2.00279E+01 7.72008E-02 5.73963E-04-3.10932E-01 1.23886E-13 2.21462E-13
 -1      3394 2.00098E+01 4.79049E-02-2.18899E-03-3.77250E-01 1.12329E-14 4.55660E-14
 -1      3395 2.00148E+01 9.66764E-02 9.54110E-04-2.79980E-01-3.86471E-15 2.88416E-13
 -1      3396 1.99980E+01 1.09131E-01 7.23435E-05-2.56339E-01-9.38981E-14 2.05273E-13
 -1      3397 1.99702E+01 1.06651E-01-1.29864E-03-3.10498E-01 5.64485E-14 2.32755E-14
 -1      3398 1.99948E+01 1.16495E-01 8.16610E-04-2.28280E-01-1.60038E-13 2.32317E-13
 -1      3399 1.99852E+01 1.18970E-01-2.07820E-04-2.05719E-01-1.42863E-13 3.84978E-13
 -1      3400 1.99551E+01 1.32849E-01-6.90846E-04-2.49175E-01-1.27583E-13 1.71863E-13
 -1      3401 1.99873E+01 1.18569E-01 6.75296E-04-1.81461E-01-2.86282E-13 4.71550E-13
 -1      3402 1.99821E+01 1.15001E-01-3.40595E-04-1.61193E-01-2.71367E-13 4.10613E-13
 -1      3403 1.99539E+01 1.37462E-01-3.13055E-04-1.95717E-01-1.45498E-13 1.71509E-13
 -1      3404 1.99866E+01 1.10116E-01 5.48990E-04-1.40903E-01-2.73766E-13 3.06137E-13
 -1      3405 1.99839E+01 1.03352E-01-3.81018E-04-1.23452E-01-8.60506E-14 8.26797E-14
 -1      3406 1.99597E+01 1.29083E-01-9.08937E-05-1.50702E-01-3.59239E-13 2.96749E-13
 -1      3407 1.99890E+01 9.62983E-02 4.41131E-04-1.06915E-01 1.22191E-13-1.26796E-13
 -1      3408 1.99876E+01 8.82676E-02-3.67865E-04-9.23741E-02 7.61602E-14-1.14785E-13
 -1      3409 1.99681E+01 1.13871E-01 2.73865E-05-1.13770E-01-1.69075E-13 2.03607E-14
 -1      3410 1.99924E+01 8.05661E-02 3.51340E-04-7.91834E-02 8.82774E-14-1.50100E-13
 -1      3411 1.99917E+01 7.24803E-02-3.27189E-04-6.73926E-02 1.71619E-13-8.61496E-14
 -1      3412 1.99768E+01 9.59914E-02 8.00711E-05-8.41069E-02 1.42095E-13-3.90378E-13
 -1      3413 1.99957E+01 6.50489E-02 2.77727E-04-5.70739E-02 3.34591E-14-1.19736E-13
 -1      3414 1.99952E+01 5.75946E-02-2.75495E-04-4.77412E-02 5.77795E-14-1.52022E-13
 -1      3415 1.99844E+01 7.80542E-02 9.44313E-05-6.07214E-02 6.08816E-14-4.58250E-13
 -1      3416 1.99983E+01 5.09231E-02 2.18116E-04-3.98194E-02 1.02747E-13-1.31576E-13
 -1      3417 1.99980E+01 4.44238E-02-2.23042E-04-3.25998E-02 8.89834E-14-1.87405E-13
 -1      3418 1.99905E+01 6.15373E-02 8.87167E-05-4.26081E-02 7.00866E-14-5.03231E-13
 -1      3419 2.00002E+01 3.87052E-02 1.70759E-04-2.66312E-02 8.17310E-14-7.76479E-14
 -1      3420 1.99998E+01 3.32458E-02-1.72926E-04-2.11848E-02 1.90082E-13-5.73463E-14
 -1      3421 1.99949E+01 4.71229E-02 6.98716E-05-2.88196E-02 1.52429E-13-2.01468E-13
 -1      3422 2.00013E+01 2.84422E-02 1.24399E-04-1.67713E-02 2.93815E-13 6.25328E-15
 -1      3423 2.00008E+01 2.39987E-02-1.23870E-04-1.28737E-02 3.25837E-13 2.17466E-13
 -1      3424 1.99979E+01 3.49846E-02 4.83000E-05-1.85177E-02 2.73264E-13 2.16030E-13
 -1      3425 2.02095E+01 1.34348E+00-2.60394E-03 2.72832E-01 1.94372E-13-4.83604E-14
 -1      3426 1.45352E+01 1.90615E+00 7.44008E-03-4.82879E-01 6.15220E-14-2.02201E-13
 -1      3427 1.54154E+01 1.87246E+00-1.87155E-02-5.11850E-01 6.57321E-14-1.55435E-13
 -1      3428 1.62391E+01 1.81063E+00-1.47087E-02-6.23184E-01 6.42385E-14-1.60693E-13
 -1      3429 1.68778E+01 1.70821E+00-1.40655E-02-6.34039E-01 5.19840E-14-1.48532E-13
 -1      3430 1.57003E+01 1.85383E+00 4.46615E-02 1.07931E-01 7.97275E-14-1.67082E-13
 -1      3431 2.41322E+01-3.36010E+00 1.16744E-01-2.23900E+00 1.91035E-13-1.38145E-13
 -1      3432 2.48677E+01-3.15910E+00-1.10590E-01-8.92568E-01 1.03481E-13-1.60366E-13
 -1      3433 1.88403E+01 1.11450E+00-7.46180E-03 5.86547E-01 6.52923E-14-1.40939E-13
 -1      3434 1.86015E+01 1.24404E+00-8.70671E-03 6.36640E-01 1.44530E-13-1.57340E-13
 -1      3435 2.00015E+01 2.11776E-02 1.26203E-04-1.01367E-02 2.09534E-13 1.68751E-13
 -1      3436 2.00010E+01 1.69821E-02-4.53545E-05-6.79820E-03 2.76689E-13 1.06927E-13
 -1      3437 2.00000E+01 1.92838E-02-1.04004E-04-7.00774E-03 1.67116E-13 2.37640E-13
 -1      3438 1.99994E+01 2.62114E-02 3.54530E-05-1.15636E-02 2.03106E-13 3.06275E-13
 -1      3439 1.20871E+01 1.69888E+00 2.08022E-02 1.24222E+00-2.31041E-13-8.47586E-14
 -1      3440 2.56467E+01-1.91244E+00 6.58476E-02 4.92750E-01 1.52062E-13-1.96206E-13
 -1      3441 2.55623E+01-9.18330E-01-9.99534E-02 1.30469E+00 2.02418E-13-1.00467E-13
 -1      3442 1.96948E+01 5.09000E-01-3.10668E-03 3.62884E-01 1.91055E-13 1.96635E-14
 -1      3443 1.96294E+01 5.85033E-01-1.62825E-03 4.11498E-01 7.72315E-14-1.15366E-13
 -1      3444 1.98117E+01 3.84006E-01-2.33419E-03 2.90679E-01 2.61454E-13 1.11769E-13
 -1      3445 1.97722E+01 4.42995E-01-6.87811E-04 3.32650E-01 2.59817E-13-6.60495E-15
 -1      3446 1.96610E+01 5.16787E-01 3.84928E-03 2.92062E-01 9.62746E-14-1.85027E-13
 -1      3447 1.98868E+01 2.88321E-01-1.71295E-03 2.27660E-01 1.75330E-13 3.39205E-13
 -1      3448 1.98637E+01 3.33492E-01-1.42369E-04 2.62616E-01 2.80735E-13 3.57390E-13
 -1      3449 1.97824E+01 3.93209E-01 2.55881E-03 2.41000E-01 1.58478E-13 1.13870E-13
 -1      3450 1.99326E+01 2.18694E-01-1.26839E-03 1.76997E-01 4.50380E-14 3.35768E-13
 -1      3451 1.99202E+01 2.51762E-01 1.39517E-04 2.04311E-01 1.57583E-13 3.11176E-13
 -1      3452 1.98614E+01 2.99405E-01 1.69082E-03 1.93885E-01 1.79785E-13 4.50222E-13
 -1      3453 1.99629E+01 1.62741E-01-9.56601E-04 1.33103E-01 5.17778E-14 3.22485E-13
 -1      3454 1.99559E+01 1.89214E-01 2.58577E-04 1.56044E-01 8.07885E-14 3.15997E-13
 -1      3455 1.99137E+01 2.26883E-01 1.11746E-03 1.52131E-01 9.01178E-14 3.23696E-13
 -1      3456 1.99815E+01 1.20516E-01-6.99789E-04 9.80105E-02-3.70937E-15 2.59376E-13
 -1      3457 1.99782E+01 1.40500E-01 2.90323E-04 1.15997E-01-1.92313E-14 3.76789E-13
 -1      3458 1.99488E+01 1.69794E-01 7.32123E-04 1.15792E-01-5.11251E-14 3.93142E-13
 -1      3459 1.99925E+01 8.86699E-02-5.11454E-04 7.04768E-02-2.69152E-13 2.90239E-13
 -1      3460 1.99914E+01 1.03755E-01 2.86400E-04 8.43576E-02-1.24983E-13 3.07107E-13
 -1      3461 1.99712E+01 1.26253E-01 4.68913E-04 8.60135E-02-1.02257E-13 4.39218E-13
 -1      3462 1.99988E+01 6.47217E-02-3.59100E-04 4.92709E-02-2.76669E-13 5.76208E-14
 -1      3463 1.99988E+01 7.60681E-02 2.61096E-04 5.98111E-02-2.48287E-13 2.49539E-13
 -1      3464 1.99853E+01 9.31578E-02 2.91403E-04 6.22388E-02-2.04249E-13 2.58263E-13
 -1      3465 2.00020E+01 4.74712E-02-2.60278E-04 3.39152E-02-1.84952E-13-1.07127E-14
 -1      3466 2.00025E+01 5.56929E-02 2.23021E-04 4.14991E-02-2.44058E-13-5.73811E-14
 -1      3467 1.99937E+01 6.85666E-02 1.64534E-04 4.40640E-02-2.36260E-13 1.24494E-13
 -1      3468 2.00034E+01 3.37060E-02-1.92806E-04 2.17979E-02-1.78884E-13-1.95258E-14
 -1      3469 2.00042E+01 4.02291E-02 1.81077E-04 2.76809E-02-2.61540E-13-5.40464E-14
 -1      3470 1.99986E+01 4.99608E-02 1.11869E-04 3.01367E-02-2.85330E-13 4.15826E-14
 -1      3471 2.00037E+01 2.33992E-02-1.07812E-04 1.30353E-02-3.41012E-14-2.67321E-13
 -1      3472 2.00046E+01 2.82789E-02 1.50945E-04 1.72223E-02-2.38431E-14-6.13406E-14
 -1      3473 2.00012E+01 3.54255E-02 5.20749E-05 1.94113E-02-4.59503E-14-2.49346E-13
 -1      3474 2.00031E+01 1.67775E-02-4.42073E-05 7.47400E-03-1.52415E-13-3.42780E-13
 -1      3475 2.00039E+01 2.05983E-02 1.41523E-04 1.04043E-02-1.19818E-13-3.08774E-13
 -1      3476 2.00018E+01 2.56538E-02-6.93838E-05 1.21591E-02-8.57538E-14-5.15771E-13
 -1      3477 2.00017E+01 1.90954E-02-1.09427E-04 7.49554E-03 1.02964E-13-5.86650E-13
 -1      3478 2.01993E+01 1.67524E+00-2.71909E-03-5.91560E-01-3.01062E-14-2.21738E-13
 -1      3479 2.56589E+01 1.69941E-01-9.26426E-02-1.74625E+00-1.48825E-13 3.34361E-13
 -1      3480 2.60008E+01-1.14564E+00 3.44938E-02-1.12388E+00-1.04975E-13 3.50000E-13
 -1      3481 2.02345E+01 1.48902E+00 3.16834E-03-4.22554E-01-3.01081E-14-1.80166E-13
 -1      3482 2.01781E+01 8.90983E-01-3.24713E-03-7.17030E-02 1.46773E-13-4.07761E-14
 -1      3483 2.02201E+01 1.01848E+00 3.01951E-03 6.71114E-02 1.51006E-13-4.29680E-14
 -1      3484 2.56953E+01-2.53486E+00-9.34341E-02-9.14340E-02-3.24909E-14 3.24666E-13
 -1      3485 2.52265E+01-3.15891E+00 6.14994E-02 1.07873E+00 5.43506E-14 3.22350E-13
 -1      3486 2.47629E+01 2.87345E+00-5.33826E-02-1.84890E+00-2.39614E-13 2.84755E-13
 -1      3487 2.54412E+01 1.63856E+00-2.29345E-03-2.04186E+00-1.46688E-13 2.96707E-13
 -1      3488 1.99986E+01 2.18435E-02-4.05401E-05-6.14214E-03 2.06521E-13 2.59418E-13
 -1      3489 1.99976E+01 2.34651E-02-9.18469E-05-5.42456E-03 1.61012E-13 4.14354E-13
 -1      3490 1.99982E+01 2.52665E-02 2.58655E-05-8.06998E-03 1.04776E-13 3.15667E-13
 -1      3491 2.39711E+01-3.78354E+00-8.51527E-02 2.40322E+00 1.09326E-13 2.27499E-13
 -1      3492 2.26365E+01-3.51013E+00 6.99273E-02 3.49030E+00 1.37380E-13 1.96380E-13
 -1      3493 1.99187E+01 2.36323E+00-3.79956E-03-1.11907E-01 1.53692E-13-2.05354E-13
 -1      3494 1.99430E+01 2.31769E+00-3.88457E-03-2.17551E-01 1.24796E-13-2.23896E-13
 -1      3495 2.00534E+01 2.01309E+00 5.05598E-03-1.96672E-01 1.11569E-13-2.13536E-13
 -1      3496 1.26796E+01 1.00040E+00 9.14454E-02-2.93089E+00 1.06149E-13 1.46612E-13
 -1      3497 1.39449E+01 3.27122E-02-2.63959E-02-4.04630E+00 1.71980E-13 3.19259E-14
 -1      3498 1.58977E+01-7.83353E-01 8.54182E-02-4.64119E+00 2.84503E-13 7.05824E-14
 -1      3499 1.74822E+01-1.94843E+00-6.31353E-02-5.00015E+00 3.34042E-13 1.27842E-13
 -1      3500 1.92471E+01 8.69612E-01-5.50035E-03 5.18881E-01 2.73188E-14-7.54318E-14
 -1      3501 1.90818E+01 9.87443E-01-5.35726E-03 5.74380E-01 6.79377E-14-7.40386E-14
 -1      3502 1.88289E+01 1.09789E+00 1.21381E-02 3.85552E-01 4.82539E-14 2.96553E-14
 -1      3503 1.74776E+01 1.58038E+00-1.42285E-02-7.16447E-01 1.71165E-14-1.38546E-13
 -1      3504 1.79445E+01 1.44373E+00-1.13643E-02-7.05896E-01-5.45538E-15-1.57698E-13
 -1      3505 1.70722E+01 1.65145E+00 2.74113E-02-2.08087E-01 3.56809E-14-1.38689E-13
 -1      3506 1.95167E+01 6.68748E-01-4.12899E-03 4.40873E-01 9.62593E-14-1.11951E-13
 -1      3507 1.94114E+01 7.64682E-01-3.18565E-03 4.94512E-01 1.04250E-13-1.69387E-13
 -1      3508 1.92171E+01 8.65807E-01 8.53081E-03 3.76370E-01 1.26527E-13-1.96248E-13
 -1      3509 1.94810E+01 6.72982E-01 5.77725E-03 3.40278E-01 9.50858E-14-9.96051E-14
 -1      3510 2.00811E+01 7.34312E-01-2.84112E-03-2.70609E-01 1.45044E-13-7.73480E-14
 -1      3511 2.01415E+01 7.98807E-01 1.38748E-03-1.62785E-01 1.42383E-13-6.54955E-14
 -1      3512 2.01439E+01 9.37704E-01-8.51261E-04-7.86122E-02 1.59613E-13-7.88358E-14
 -1      3513 1.89808E+01 1.05380E+00-7.04354E-03-7.01788E-01 4.83038E-14-1.15726E-13
 -1      3514 1.92022E+01 9.47627E-01-5.23553E-03-6.56462E-01 7.65868E-14-1.12166E-13
 -1      3515 2.55799E+01 6.04975E-01 2.56247E-02 1.89240E+00 1.97665E-13-1.93161E-13
 -1      3516 2.49964E+01 1.90702E+00-9.61771E-02 1.99780E+00 6.37268E-14-2.00045E-13
 -1      3517 1.97802E+01-2.57115E+00 1.07105E-01-4.65830E+00 2.72161E-13 1.75791E-13
 -1      3518 2.19788E+01-3.55772E+00-1.09217E-01-3.70126E+00 2.78411E-13-4.02647E-14
 -1      3519 2.01094E+01 1.88833E+00 8.15197E-03 3.58121E-01 2.06270E-13-8.24361E-14
 -1      3520 2.08814E+01-3.32294E+00-4.67207E-02 4.36053E+00 1.40523E-13 1.68917E-13
 -1      3521 1.90527E+01-2.40212E+00 4.27643E-02 4.69145E+00 1.33074E-13 1.61215E-13
 -1      3522 2.32873E+01 3.97861E+00-6.66896E-02-2.33754E-02-1.08859E-13 1.77219E-14
 -1      3523 2.37135E+01 3.72623E+00-2.38832E-02-9.98561E-01-2.02404E-13 1.66720E-13
 -1      3524 2.02681E+01 1.24017E+00-1.02738E-03-3.09562E-01-1.51005E-14-1.65491E-13
 -1      3525 2.02744E+01 1.02367E+00-2.07268E-03-1.55332E-01-6.67501E-15-1.47070E-13
 -1      3526 2.02695E+01 1.04624E+00 1.27342E-03-9.09831E-02 9.49189E-15-1.44364E-13
 -1      3527 2.02135E+01 1.47013E+00 1.44973E-03-3.00177E-01 5.32078E-15-1.44565E-13
 -1      3528 1.83605E+01 1.30395E+00-9.67877E-03-7.18933E-01-8.55848E-15-1.21756E-13
 -1      3529 1.86810E+01 1.17330E+00-7.55567E-03-6.91600E-01 2.10749E-14-1.08469E-13
 -1      3530 1.87434E+01 1.14999E+00 1.34538E-02-4.50622E-01 2.43721E-14-3.25814E-14
 -1      3531 1.30756E+01 1.87481E+00 5.32928E-02 8.05446E-01-2.44915E-13-1.33647E-13
 -1      3532 1.20120E+01 1.83980E+00 8.35246E-02 2.91157E-01-1.63380E-13-7.21506E-14
 -1      3533 1.17632E+01 1.51781E+00 1.52635E-02-1.38929E+00-2.46118E-14 1.69406E-13
 -1      3534 1.40802E+01 1.97784E+00-1.37953E-02 7.09602E-01-3.34481E-13-1.24097E-13
 -1      3535 2.01737E+01 1.37225E+00-2.79922E-03 2.13788E-01 1.84905E-13-4.57248E-14
 -1      3536 1.80493E+01 1.39795E+00 1.91164E-02-3.76756E-01 3.33891E-14-9.08967E-14
 -1      3537 2.30175E+01 3.41419E+00-1.80317E-02 4.00867E-01 1.69968E-14-4.21694E-14
 -1      3538 1.94129E+01 8.59185E-01-4.54947E-03-6.41409E-01 6.87828E-14-1.24241E-13
 -1      3539 1.95625E+01 7.88468E-01-3.29616E-03-5.84972E-01 7.71658E-14-8.19522E-14
 -1      3540 1.92380E+01 9.53093E-01 9.44609E-03-4.76097E-01 6.75389E-14-7.06401E-14
 -1      3541 2.22224E+01 1.74554E+00 9.83436E-03 1.31520E+00 6.17184E-14 1.33688E-13
 -1      3542 2.23349E+01 1.20903E+00-2.78066E-02 1.56004E+00 9.82890E-14 9.38993E-14
 -1      3543 2.00055E+01 2.11149E+00 5.21041E-03-4.59235E-02 1.62158E-13-1.93773E-13
 -1      3544 1.98335E+01 6.77667E-01 3.94262E-03-6.17892E-01 1.18508E-13-5.89128E-14
 -1      3545 2.26327E+01-3.00400E+00 1.05772E-02-2.63474E+00 2.13407E-13-1.52707E-13
 -1      3546 1.82620E+01 1.36479E+00 1.75001E-02 3.46708E-01 1.38807E-13-4.22073E-14
 -1      3547 1.82538E+01 1.38711E+00-1.03215E-02 6.26548E-01 1.70900E-13-1.53796E-13
 -1      3548 1.78783E+01 1.53234E+00-1.29995E-02 6.69491E-01 8.41445E-14-9.63305E-14
 -1      3549 1.25613E+01 1.05017E+00 8.21041E-02 2.68753E+00 1.40980E-13-1.20154E-13
 -1      3550 1.23541E+01 1.56743E+00 6.21915E-02 1.04027E+00 7.34031E-14-1.74381E-13
 -1      3551 2.18157E+01-2.97501E+00 3.33319E-02 3.36602E+00 1.02130E-13 1.61960E-13
 -1      3552 1.73748E+01 1.67347E+00-1.49768E-02 6.25969E-01 3.01139E-14-1.24297E-13
 -1      3553 1.68236E+01 1.80360E+00-1.65409E-02 6.55380E-01-1.72020E-14-1.18855E-13
 -1      3554 1.74448E+01 1.64314E+00 2.60516E-02 2.29357E-01 1.20515E-13-1.48748E-13
 -1      3555 2.46744E+01-2.30660E+00 1.55588E-03-8.21099E-02 1.37976E-13-1.31683E-13
 -1      3556 2.51315E+01-1.72922E+00-1.46324E-02-6.73371E-01-7.92652E-14 2.52033E-13
 -1      3557 2.00002E+01 2.16808E-02-2.27547E-05 6.92065E-03 2.32482E-13-8.94254E-13
 -1      3558 2.00004E+01 2.51308E-02 1.35581E-04 8.96666E-03 1.70284E-13-7.36038E-13
 -1      3559 1.99989E+01 2.33490E-02-1.03997E-04 6.42485E-03 1.34497E-13-6.46300E-13
 -1      3560 2.30228E+01 1.00081E+00 1.40487E-02 1.71525E+00 7.43338E-14 8.87485E-15
 -1      3561 1.89735E+01-1.74632E+00 5.05527E-02 4.07280E+00 1.97874E-13 1.28889E-13
 -1      3562 1.75446E+01-1.68151E+00-1.65658E-02 4.69729E+00 1.96771E-13 1.42601E-13
 -1      3563 2.48426E+01-1.56740E-01 6.16663E-03 1.59814E+00 1.66074E-13-2.09980E-13
 -1      3564 1.99966E+01 2.52365E-02-4.69163E-05-4.03249E-03 2.61149E-13 1.35980E-13
 -1      3565 1.99960E+01 2.63194E-02-5.97298E-05-2.86469E-03 1.31501E-13-1.27411E-13
 -1      3566 1.99961E+01 2.94189E-02 1.77671E-04-5.51553E-03 1.94292E-13 6.85763E-14
 -1      3567 2.48086E+01 6.41491E-01-3.03065E-03-1.80630E+00-1.15165E-13 2.95189E-13
 -1      3568 2.41646E+01 2.30581E+00-2.72434E-02 1.72499E+00 3.71751E-15-2.02947E-13
 -1      3569 1.56841E+01-7.61817E-02 5.26251E-02-3.79834E+00 1.98428E-13 7.72646E-15
 -1      3570 2.41632E+01-3.09581E+00 7.96277E-03 1.42571E+00 4.09360E-14 2.23796E-13
 -1      3571 1.28870E+01 1.85353E+00 8.53067E-03-6.58001E-01 7.22955E-14-2.29292E-13
 -1      3572 1.33272E+01 1.82187E+00 5.74589E-02 2.42263E-01 9.43507E-14-1.98955E-13
 -1      3573 2.01353E+01 1.68008E+00-3.61260E-04-1.99824E-01 7.10199E-14-1.81677E-13
 -1      3574 2.01730E+01 1.56977E+00-2.83546E-03-2.58255E-01 2.54889E-14-1.62083E-13
 -1      3575 2.02180E+01 1.34570E+00 1.71552E-03-1.57292E-01 2.48177E-14-1.40285E-13
 -1      3576 1.33469E+01 1.49277E+00 6.12317E-02-1.66342E+00-1.08772E-13 6.52325E-14
 -1      3577 2.00314E+01 1.86197E+00-6.40220E-03 1.27475E-01 1.83950E-13-1.52391E-13
 -1      3578 2.00319E+01 1.88424E+00-2.50467E-03 6.05813E-02 1.78363E-13-1.89592E-13
 -1      3579 1.99338E+01 6.88835E-01-2.66689E-03-4.24680E-01 1.24117E-13-7.68424E-14
 -1      3580 2.00131E+01 7.00551E-01 2.47025E-04-3.40530E-01 1.23139E-13-8.59795E-14
 -1      3581 2.00288E+01 7.95969E-01 1.08752E-03-2.43629E-01 1.35090E-13-1.09697E-13
 -1      3582 1.92234E+01-1.88679E+00 5.15649E-02-4.12926E+00 2.90726E-13 1.67038E-13
 -1      3583 2.01677E+01 1.15044E+00 6.57315E-03 3.98401E-02 1.70952E-13-5.88027E-14
 -1      3584 2.01428E+01 1.46105E+00-4.98143E-03 2.11462E-01 1.91155E-13-6.35323E-14
 -1      3585 2.01059E+01 1.56937E+00-1.98140E-03 1.76120E-01 1.79982E-13-9.08852E-14
 -1      3586 1.62134E+01-9.01974E-01 7.42468E-02 4.50920E+00 2.04043E-13 7.03222E-14
 -1      3587 1.61102E+01 1.89509E+00-2.26590E-02 5.79998E-01-1.50944E-13-3.12834E-14
 -1      3588 1.53985E+01 1.98089E+00-5.47210E-04 5.94030E-01-2.84229E-13-2.66397E-14
 -1      3589 1.62749E+01 1.88541E+00 3.78315E-02 3.11394E-03-8.78847E-14-1.33389E-13
 -1      3590 2.00744E+01 1.69214E+00-6.58947E-03 1.95009E-01 1.94090E-13-1.34191E-13
 -1      3591 2.00590E+01 1.75914E+00-1.19529E-03 1.42594E-01 1.78720E-13-1.55879E-13
 -1      3592 2.01063E+01 1.56315E+00 5.53724E-03 9.59082E-02 1.74117E-13-1.35291E-13
 -1      3593 2.01263E+01 1.34205E+00 2.42310E-03 7.97243E-02 1.84403E-13-1.29759E-13
 -1      3594 1.42803E+01-2.65773E-01-1.28800E-02 4.13910E+00 2.07036E-13-1.27641E-14
 -1      3595 1.31395E+01 5.36029E-01 4.73470E-02 3.35174E+00 1.85118E-13-8.35720E-14
 -1      3596 1.37025E+01 9.31150E-01-7.16948E-03 2.63437E+00 2.09277E-13-6.86604E-14
 -1      3597 1.99955E+01 2.76752E-02-7.36003E-05 1.56189E-03 2.27608E-13-2.98094E-13
 -1      3598 1.99961E+01 2.73075E-02-3.75401E-05 2.93683E-03 1.82532E-13-3.62940E-13
 -1      3599 1.99968E+01 2.62218E-02-9.04580E-05 4.36664E-03 1.11043E-13-2.25532E-13
 -1      3600 1.99978E+01 2.51347E-02-3.07970E-05 5.40093E-03 9.11409E-14-3.60983E-13
 -1      3601 1.99974E+01 2.92632E-02 1.23816E-04 7.04353E-03 1.64154E-13-3.22415E-13
 -1      3602 1.99954E+01 3.19615E-02 1.37771E-04 4.30891E-03 3.06330E-13-2.26161E-13
 -1      3603 2.02690E+01 8.63922E-01 8.74519E-04 5.59911E-02 3.25063E-14-5.94999E-14
 -1      3604 2.02639E+01 7.12159E-01-5.79861E-04 1.55813E-01 3.49604E-14-5.25358E-14
 -1      3605 2.02616E+01 5.76554E-01 1.10422E-03 2.34788E-01 1.56055E-14-3.47822E-14
 -1      3606 2.02537E+01 4.58826E-01-3.05714E-04 3.14003E-01 1.29575E-14-4.45316E-14
 -1      3607 2.02430E+01 7.19989E-01 3.88279E-04 1.91492E-01 3.73459E-14-1.56675E-14
 -1      3608 2.02447E+01 3.54146E-01 1.27142E-03 3.83946E-01 1.51973E-14-4.03660E-14
 -1      3609 2.02444E+01 2.56177E-01 7.62991E-04 4.48359E-01-4.39303E-15-3.33979E-14
 -1      3610 2.02237E+01 4.69092E-01-5.77015E-04 3.42514E-01 9.21772E-15 8.23121E-15
 -1      3611 2.02419E+01 1.62355E-01 1.63759E-03 5.13114E-01 1.53683E-14-6.70836E-15
 -1      3612 2.02599E+01 6.73831E-02 1.69375E-03 5.65497E-01 3.36599E-14-7.06933E-15
 -1      3613 2.02044E+01 2.59659E-01-2.02457E-03 4.82625E-01 1.65538E-14-2.66034E-14
 -1      3614 2.02783E+01-3.12475E-02 2.48330E-03 6.26796E-01 5.61035E-14 9.30830E-15
 -1      3615 2.03257E+01-1.38671E-01 2.33318E-03 6.67132E-01 1.04643E-13-6.69720E-15
 -1      3616 2.02121E+01 5.72449E-02-3.75630E-03 6.17518E-01 5.33052E-14 1.75232E-14
 -1      3617 2.03828E+01-2.56023E-01 4.05967E-03 7.23089E-01 1.06231E-13-2.28028E-14
 -1      3618 2.04709E+01-3.88808E-01 2.44592E-03 7.46680E-01 8.14996E-14-2.49649E-14
 -1      3619 2.02767E+01-1.71784E-01-5.94017E-03 7.48594E-01 9.14069E-14-6.61716E-15
 -1      3620 2.05876E+01-5.34262E-01 6.54800E-03 7.89020E-01 8.13706E-14-6.43268E-15
 -1      3621 2.07265E+01-6.99472E-01 1.57851E-03 7.85154E-01 4.66203E-14 3.21872E-14
 -1      3622 2.04340E+01-4.57129E-01-8.73032E-03 8.67415E-01 9.53383E-14-2.04860E-14
 -1      3623 2.09257E+01-8.73759E-01 9.95678E-03 7.95781E-01 3.09144E-14 7.36625E-14
 -1      3624 2.11202E+01-1.06559E+00-7.60873E-04 7.46249E-01 4.02870E-14 9.55571E-14
 -1      3625 2.07255E+01-8.17249E-01-1.19885E-02 9.49785E-01 8.01612E-14 6.00104E-14
 -1      3626 2.14202E+01-1.25172E+00 1.37923E-02 6.95165E-01 5.06366E-15 1.19696E-13
 -1      3627 2.16627E+01-1.44099E+00-4.88262E-03 5.76385E-01-3.52776E-14 1.24698E-13
 -1      3628 2.11916E+01-1.24351E+00-1.47461E-02 9.48237E-01 4.02284E-14 1.34306E-13
 -1      3629 2.20644E+01-1.59206E+00 1.63460E-02 4.21274E-01-9.66631E-15 1.41165E-13
 -1      3630 2.23292E+01-1.70734E+00-8.55602E-03 2.12163E-01-2.17168E-14 1.55067E-13
 -1      3631 2.18578E+01-1.67549E+00-1.46557E-02 7.87394E-01 6.75675E-16 1.80227E-13
 -1      3632 2.27832E+01-1.73517E+00 1.27121E-02-7.34382E-02-7.09524E-14 1.86389E-13
 -1      3633 2.30200E+01-1.66968E+00-1.53592E-02-3.70069E-01-1.12269E-13 2.65599E-13
 -1      3634 2.26860E+01-1.95079E+00-9.85395E-03 3.74579E-01-3.24144E-14 1.32714E-13
 -1      3635 2.35996E+01 1.24164E+00-5.84437E-02-1.80237E+00-1.51518E-13 2.85726E-13
 -1      3636 2.34743E+01 2.09851E+00-5.02073E-03-1.59525E+00-1.70445E-13 2.08711E-13
 -1      3637 2.00381E+01 1.87274E+00-3.31142E-03 1.51872E-02 1.61814E-13-1.90367E-13
 -1      3638 2.00542E+01 1.84378E+00-2.95756E-03-5.35289E-02 1.41414E-13-1.84649E-13
 -1      3639 2.00939E+01 1.66387E+00 5.26450E-03 4.55980E-02 1.45062E-13-1.67168E-13
 -1      3640 2.33082E+01-1.34187E+00-1.34657E-02 8.22142E-01 6.38138E-14-4.18233E-14
 -1      3641 2.31173E+01-1.55845E+00 7.63659E-03 5.18730E-01 1.13918E-13-8.00258E-14
 -1      3642 2.26634E+01-1.65599E+00-1.15271E-02 1.71748E-01 9.30094E-14-7.90602E-14
 -1      3643 2.24131E+01-1.62481E+00 1.90377E-02-8.46271E-02 7.89714E-14-4.27512E-15
 -1      3644 2.31221E+01-1.82457E+00 9.58913E-04 8.14188E-02 1.45228E-13-1.22561E-13
 -1      3645 2.19426E+01-1.53355E+00-1.07127E-02-3.07312E-01 7.13839E-14 5.16924E-14
 -1      3646 2.16928E+01-1.36510E+00 1.97478E-02-4.68030E-01 1.81673E-13 1.77630E-14
 -1      3647 2.22227E+01-1.77831E+00-2.23064E-02-4.97826E-01 1.24353E-13-4.95164E-14
 -1      3648 2.13064E+01-1.18700E+00-1.88594E-03-5.78899E-01 1.91692E-13-4.06988E-14
 -1      3649 2.10644E+01-9.92161E-01 1.11451E-02-6.52743E-01 1.10443E-13-1.21620E-13
 -1      3650 2.14469E+01-1.42804E+00-2.52495E-02-7.85733E-01 8.55340E-14-1.90098E-14
 -1      3651 2.07983E+01-8.10153E-01 7.81122E-04-6.63245E-01 2.77684E-14-2.65015E-13
 -1      3652 2.06110E+01-6.31019E-01 8.09929E-03-6.84117E-01 4.96315E-14-1.60848E-13
 -1      3653 2.08021E+01-9.55538E-01-1.88388E-02-8.60342E-01 3.10033E-14-2.85483E-13
 -1      3654 2.04321E+01-4.76181E-01 1.94346E-03-6.52383E-01 1.56644E-13-2.34076E-13
 -1      3655 2.02997E+01-3.36440E-01 4.88876E-03-6.39634E-01 1.71449E-13-1.71226E-13
 -1      3656 2.03975E+01-5.63354E-01-1.00628E-02-8.14271E-01 4.95741E-14-2.87729E-13
 -1      3657 2.01910E+01-2.19330E-01 2.49635E-03-5.88472E-01 1.19850E-13-2.08350E-13
 -1      3658 2.01026E+01-1.20332E-01 2.64517E-03-5.58735E-01 9.11059E-14-8.06050E-14
 -1      3659 2.01290E+01-2.62269E-01-6.83317E-03-7.08707E-01 1.73227E-13-3.22424E-13
 -1      3660 2.00437E+01-4.02105E-02 2.38950E-03-5.03244E-01-2.20917E-14 1.97235E-14
 -1      3661 1.99891E+01 2.33625E-02 1.13898E-03-4.67046E-01-1.30306E-13-9.43427E-15
 -1      3662 1.99732E+01-5.30635E-02-4.47804E-03-5.86947E-01 3.82167E-14-1.99891E-13
 -1      3663 1.99632E+01 7.26581E-02 2.03255E-03-4.15056E-01-1.39889E-13 2.84114E-14
 -1      3664 1.99325E+01 1.08657E-01 2.39398E-04-3.78593E-01 2.90177E-14-6.14465E-14
 -1      3665 1.98946E+01 7.90505E-02-2.70052E-03-4.70216E-01-1.12948E-13-7.97427E-14
 -1      3666 1.99266E+01 1.34775E-01 1.61134E-03-3.33418E-01 1.78991E-13-2.77464E-14
 -1      3667 1.99117E+01 1.50962E-01-2.67069E-04-2.99825E-01 1.06635E-13-2.20561E-14
 -1      3668 1.98653E+01 1.52056E-01-1.48562E-03-3.67968E-01 8.16683E-14-1.48350E-13
 -1      3669 1.99170E+01 1.60818E-01 1.22289E-03-2.62359E-01-7.94097E-14 4.09804E-14
 -1      3670 1.99117E+01 1.63875E-01-5.08141E-04-2.33084E-01-1.27464E-13 9.01250E-14
 -1      3671 1.98651E+01 1.83421E-01-6.59767E-04-2.82813E-01 1.10819E-13-6.27349E-14
 -1      3672 1.99222E+01 1.63385E-01 8.94996E-04-2.02934E-01-1.68338E-13 8.74234E-14
 -1      3673 1.99223E+01 1.58532E-01-5.88691E-04-1.78262E-01-2.08760E-13 1.23307E-13
 -1      3674 1.98799E+01 1.87343E-01-1.95031E-04-2.14354E-01-1.34818E-13 5.46656E-14
 -1      3675 1.99343E+01 1.52022E-01 6.50121E-04-1.54443E-01-2.49026E-13 1.28137E-13
 -1      3676 1.99369E+01 1.42951E-01-5.78961E-04-1.34169E-01-2.80728E-13 1.77696E-13
 -1      3677 1.99008E+01 1.75097E-01 6.82454E-05-1.60380E-01-2.50310E-13 1.20726E-14
 -1      3678 1.99485E+01 1.33482E-01 4.69783E-04-1.15636E-01-3.28648E-13 1.36913E-13
 -1      3679 1.99520E+01 1.22708E-01-5.22412E-04-9.93083E-02-1.82170E-13-1.43658E-14
 -1      3680 1.99228E+01 1.54392E-01 1.96651E-04-1.18444E-01-3.85704E-13 6.04579E-14
 -1      3681 1.99622E+01 1.12304E-01 3.39519E-04-8.50672E-02-6.41003E-14-5.63796E-14
 -1      3682 1.99656E+01 1.01420E-01-4.45996E-04-7.21418E-02 7.23557E-14-3.50114E-13
 -1      3683 1.99429E+01 1.30450E-01 2.40445E-04-8.62424E-02-1.79161E-13 1.29750E-15
 -1      3684 1.99738E+01 9.13179E-02 2.47166E-04-6.13180E-02 5.82473E-14-4.98581E-13
 -1      3685 1.99767E+01 8.12328E-02-3.66302E-04-5.12479E-02-6.33877E-14-4.47816E-13
 -1      3686 1.99597E+01 1.06550E-01 2.36482E-04-6.17532E-02-6.47457E-14-2.74495E-13
 -1      3687 1.99831E+01 7.21023E-02 1.82538E-04-4.31145E-02 4.55947E-14-4.24719E-13
 -1      3688 1.99853E+01 6.32553E-02-2.94421E-04-3.53942E-02 1.94322E-13-3.45899E-13
 -1      3689 1.99731E+01 8.45394E-02 2.07096E-04-4.32995E-02 3.90441E-15-2.64973E-13
 -1      3690 1.99900E+01 5.54344E-02 1.48905E-04-2.93735E-02 3.28552E-13-2.18647E-13
 -1      3691 1.99915E+01 4.79350E-02-2.28556E-04-2.35163E-02 3.29349E-13 9.72113E-14
 -1      3692 1.99831E+01 6.52857E-02 1.59603E-04-2.95593E-02 3.79335E-13-1.83859E-13
 -1      3693 1.99948E+01 4.14504E-02 1.32578E-04-1.91629E-02 2.76065E-13 3.80526E-13
 -1      3694 1.99956E+01 3.52658E-02-1.73257E-04-1.47264E-02 3.27707E-13 3.39406E-13
 -1      3695 1.99901E+01 4.89531E-02 5.13528E-05-1.94747E-02 4.84586E-13 8.94121E-14
 -1      3696 1.54244E+01 1.56196E+00-9.72638E-03 8.76892E-01 1.16667E-13-5.64765E-14
 -1      3697 1.61915E+01 1.52887E+00-3.76910E-03 6.10463E-01 7.97058E-14-3.06057E-14
 -1      3698 1.77665E+01 1.30597E+00-1.76783E-02 1.90359E-02 1.87673E-14-5.93448E-14
 -1      3699 1.81981E+01 1.20922E+00-4.35088E-03-5.24402E-02 2.83296E-14-3.49974E-14
 -1      3700 2.21329E+01-2.91431E+00-5.58920E-02 2.66676E+00 1.64014E-14 3.03707E-14
 -1      3701 2.09614E+01-2.40487E+00 3.36231E-02 3.31907E+00 5.55094E-14 5.28536E-14
 -1      3702 1.98383E+01 2.89935E-01-1.20147E-03 1.50985E-01-2.98657E-14 5.62239E-13
 -1      3703 1.98065E+01 3.29643E-01-8.23991E-04 1.70609E-01 1.87943E-13 4.69019E-13
 -1      3704 2.01132E+01 1.02014E+00-3.82998E-03-4.48210E-02 1.67574E-13-8.22030E-14
 -1      3705 1.96347E+01 4.86704E-01-1.86055E-03 2.11715E-01 9.80098E-14-1.06015E-13
 -1      3706 1.95576E+01 5.52316E-01-2.59005E-03 2.31902E-01 1.04244E-13-3.13287E-14
 -1      3707 1.98960E+01 2.20273E-01-9.46867E-04 1.20110E-01 8.59616E-14 5.52971E-13
 -1      3708 1.98741E+01 2.53139E-01-4.19955E-04 1.38360E-01 5.38536E-14 6.70730E-13
 -1      3709 1.98321E+01 2.88008E-01 1.60905E-03 1.16959E-01-4.47910E-14 8.42038E-13
 -1      3710 1.99348E+01 1.66149E-01-7.33883E-04 9.26818E-02-7.50267E-14 5.46562E-13
 -1      3711 1.99209E+01 1.91643E-01-1.84845E-04 1.08148E-01 4.43944E-15 5.72820E-13
 -1      3712 1.98899E+01 2.20356E-01 1.13448E-03 9.54183E-02 5.75243E-14 8.44819E-13
 -1      3713 1.99607E+01 1.24324E-01-5.65949E-04 6.94742E-02-1.43012E-13 4.54795E-13
 -1      3714 1.99520E+01 1.44038E-01-3.78626E-05 8.21444E-02-6.07286E-15 6.48826E-13
 -1      3715 1.99296E+01 1.67093E-01 7.83670E-04 7.49192E-02-6.86673E-14 6.43035E-13
 -1      3716 1.99776E+01 9.22063E-02-4.20401E-04 5.05545E-02-1.43809E-13 3.29407E-13
 -1      3717 1.99724E+01 1.07355E-01 4.49954E-05 6.06427E-02-2.14626E-13 3.58274E-13
 -1      3718 1.99565E+01 1.25513E-01 5.32226E-04 5.68477E-02-1.29783E-13 5.33675E-13
 -1      3719 1.99880E+01 6.86616E-02-3.18756E-04 3.62129E-02-2.62802E-13 1.53461E-13
 -1      3720 1.99851E+01 7.98222E-02 7.68168E-05 4.37647E-02-1.32192E-13 1.66246E-13
 -1      3721 1.99741E+01 9.39678E-02 3.55384E-04 4.20244E-02-6.00746E-14 3.87779E-13
 -1      3722 1.99947E+01 4.96277E-02-2.38469E-04 2.44998E-02-6.58500E-14-1.89582E-13
 -1      3723 1.99931E+01 5.85967E-02 8.32177E-05 3.05461E-02-1.79120E-13-2.00588E-14
 -1      3724 1.99857E+01 6.95646E-02 2.52957E-04 3.00210E-02-7.15444E-14-3.17055E-14
 -1      3725 1.99987E+01 3.52490E-02-1.27394E-04 1.57633E-02 8.63191E-15-3.24581E-13
 -1      3726 1.99980E+01 4.19755E-02 8.05975E-05 2.01533E-02 1.30898E-14-1.80611E-13
 -1      3727 1.99931E+01 5.02472E-02 1.50882E-04 2.03790E-02-8.00619E-16-2.44128E-13
 -1      3728 1.99997E+01 2.80490E-02-4.39269E-05 1.07223E-02 1.03442E-13-6.99606E-13
 -1      3729 1.99998E+01 3.19760E-02 1.08970E-04 1.34662E-02 5.97013E-14-6.10712E-13
 -1      3730 1.99965E+01 3.80789E-02 4.40356E-05 1.39131E-02 9.57122E-14-4.32248E-13
 -1      3731 1.99978E+01 3.04599E-02-1.03726E-04 9.86484E-03 2.36651E-13-5.99702E-13
 -1      3732 2.38660E+01 3.02184E+00-4.88606E-02-1.49329E+00-2.22161E-13 2.15821E-13
 -1      3733 1.98378E+01-1.99887E+00-2.74768E-02 3.59538E+00 1.05821E-13 3.98709E-14
 -1      3734 1.86194E+01-1.19691E+00 7.85556E-03 3.54892E+00 1.65456E-13 3.76019E-14
 -1      3735 2.05915E+01-1.85020E+00 2.77022E-02 2.89304E+00 8.13802E-15-1.01403E-13
 -1      3736 2.17329E+01-2.48077E+00 7.89710E-02-2.90293E+00 2.52008E-13-1.80090E-13
 -1      3737 2.29745E+01-2.85898E+00-5.56298E-02-1.74777E+00 1.86948E-13-1.50042E-13
 -1      3738 2.36915E+01 1.47384E+00 5.10347E-03 1.82007E+00 6.46809E-14-1.78424E-13
 -1      3739 2.37407E+01 5.29684E-01-5.73869E-02 1.81055E+00 1.15826E-13-1.79835E-13
 -1      3740 2.32198E+01 2.54026E+00-3.47402E-02 1.49698E+00-6.45317E-16-6.37667E-14
 -1      3741 2.40580E+01 2.48898E-01-2.89102E-04-1.66278E+00-8.21183E-14 2.83479E-13
 -1      3742 2.40767E+01-5.52457E-01-1.09554E-02-1.48309E+00-9.39561E-14 2.75433E-13
 -1      3743 2.40210E+01-4.05976E-01 5.52879E-03 1.45960E+00 1.08315E-13-8.51233E-14
 -1      3744 1.97564E+01 3.75832E-01-1.50029E-03 1.82161E-01 1.36915E-13 1.70176E-13
 -1      3745 1.97054E+01 4.28442E-01-1.48719E-03 2.03757E-01-3.21811E-14 3.21913E-14
 -1      3746 1.96325E+01 4.77212E-01 3.27423E-03 1.49487E-01-5.42106E-14 6.64618E-14
 -1      3747 1.97495E+01 3.72659E-01 2.27799E-03 1.36679E-01-9.35240E-14 4.36727E-13
 -1      3748 1.85183E+01 1.11539E+00-1.25495E-02-1.77486E-01 3.27794E-14-1.83548E-14
 -1      3749 1.88310E+01 1.02921E+00-2.63860E-03-2.25530E-01 3.86153E-14-3.35884E-15
 -1      3750 1.83981E+01 1.10537E+00 1.27379E-02 1.77256E-01 3.60685E-14 2.25241E-14
 -1      3751 2.39281E+01-1.05483E+00-6.87327E-03 1.19854E+00 7.30864E-14-5.89986E-14
 -1      3752 2.35174E+01-1.18091E+00-1.33879E-02-9.77949E-01-9.54558E-14 2.46478E-13
 -1      3753 2.44519E+01-1.30840E+00-2.26623E-02-9.95714E-01-1.07695E-13 2.56701E-13
 -1      3754 2.45269E+01-2.17925E+00 4.83500E-02-1.76349E-01-8.19995E-14 1.96446E-13
 -1      3755 2.34062E+01-1.50111E+00 1.54915E-02-6.94160E-01-1.12184E-13 2.90765E-13
 -1      3756 1.97173E+01 7.33878E-01-3.19527E-03-5.48674E-01 9.68400E-14-6.37637E-14
 -1      3757 1.98263E+01 6.99991E-01-1.81505E-03-4.79140E-01 1.11132E-13-8.23210E-14
 -1      3758 1.98504E+01 7.62818E-01 3.72319E-03-3.63823E-01 1.11898E-13-9.53853E-14
 -1      3759 1.95942E+01 8.19908E-01 6.78845E-03-4.43390E-01 1.10169E-13-6.79875E-14
 -1      3760 2.00722E+01 1.80702E+00-2.86419E-03-9.29690E-02 1.29646E-13-1.85617E-13
 -1      3761 2.01027E+01 1.73601E+00-4.00696E-03-1.58205E-01 9.92033E-14-1.91229E-13
 -1      3762 2.01643E+01 1.50865E+00 2.74322E-03-9.39583E-02 8.47300E-14-1.53129E-13
 -1      3763 2.01257E+01 1.61437E+00 6.87963E-03-2.57960E-02 1.26584E-13-1.59986E-13
 -1      3764 1.39280E+01 1.88417E+00 4.12509E-02-6.63869E-01-3.73400E-13-7.35557E-14
 -1      3765 1.43033E+01 1.27775E+00-2.32622E-02-2.07942E+00-6.56519E-14-1.35225E-13
 -1      3766 1.99955E+01 2.71623E-02-6.59134E-05-1.40720E-03 1.05347E-13-3.60639E-13
 -1      3767 1.99955E+01 2.75712E-02-4.81855E-05-1.91388E-06 1.71899E-13-5.74672E-13
 -1      3768 1.99944E+01 3.28707E-02 1.56110E-04 1.03406E-03 3.39960E-13-4.50959E-13
 -1      3769 1.99947E+01 3.19273E-02 1.71738E-04-2.24604E-03 2.61685E-13-2.80340E-13
 -1      3770 2.40352E+01-2.80233E+00-5.36176E-02 7.80287E-01-5.42845E-14 1.98915E-13
 -1      3771 2.33689E+01-2.93945E+00 5.47797E-02 1.83263E+00 2.90176E-15 1.37882E-13
 -1      3772 2.24920E+01-2.59057E+00 9.97177E-03 1.96828E+00-6.45152E-14 3.26692E-14
 -1      3773 2.36865E+01-2.33073E+00-7.12246E-03 3.40678E-01-7.66074E-14 1.63804E-13
 -1      3774 1.88490E+01 9.87748E-01-3.08300E-03 1.91382E-01 2.84232E-14-2.85336E-13
 -1      3775 1.86009E+01 1.09317E+00-1.02352E-02 1.69375E-01 8.29440E-14-2.27616E-13
 -1      3776 1.67312E+01 1.46982E+00-2.67354E-02 3.53294E-01 5.50905E-14-2.75766E-14
 -1      3777 1.73540E+01 1.40257E+00-4.76188E-03 1.84440E-01 1.28810E-14-4.74576E-14
 -1      3778 1.76678E+01 1.23897E+00 1.86853E-02 5.22321E-01 2.34808E-14 4.76481E-14
 -1      3779 1.67128E+01 1.32289E+00 3.07827E-02 1.02240E+00 9.85668E-14 5.08274E-14
 -1      3780 1.85082E+01-1.11303E+00 7.29961E-02-3.77609E+00 3.47936E-13 1.85070E-13
 -1      3781 1.98841E+01-2.10349E+00-8.25660E-02-3.59191E+00 3.21566E-13 1.13002E-13
 -1      3782 1.99979E+01 2.87781E-02 6.91521E-05-1.05945E-02 1.77589E-13 3.97897E-13
 -1      3783 1.53572E+01 6.18544E-01 5.29616E-02-3.06321E+00 2.09144E-13-1.25781E-13
 -1      3784 1.66725E+01-4.55244E-01-6.19754E-02-3.72686E+00 3.22311E-13 8.11157E-15
 -1      3785 1.61457E+01-2.63705E-01 6.47461E-02 3.75507E+00 2.00666E-13 4.42337E-14
 -1      3786 2.02388E+01 1.17723E+00-1.12365E-03-9.37494E-02 2.91060E-14-1.10915E-13
 -1      3787 2.02542E+01 9.93037E-01-1.61059E-03 2.38161E-03 3.41305E-14-9.99758E-14
 -1      3788 2.02369E+01 9.84131E-01-2.76650E-03 4.86471E-02 5.53647E-14-4.76354E-14
 -1      3789 2.02072E+01 1.28863E+00 1.51503E-03-6.70482E-02 6.36648E-14-1.00165E-13
 -1      3790 2.41953E+01-1.64759E+00-3.30969E-02 7.26039E-01 1.08320E-13-7.96915E-14
 -1      3791 1.99949E+01 3.42449E-02-6.29969E-05-1.08717E-02 3.33857E-13 3.17703E-13
 -1      3792 1.86809E+01-7.24290E-01 2.36612E-02 2.97212E+00 1.27685E-13-6.41718E-15
 -1      3793 1.75616E+01-6.00784E-01-3.88803E-02 3.42459E+00 2.05672E-13 1.24158E-13
 -1      3794 1.90666E+01 9.48771E-01-8.16881E-03-2.89537E-01 4.56532E-14 1.96987E-14
 -1      3795 1.92854E+01 8.84075E-01-1.90778E-03-2.98477E-01 6.29848E-14-7.54353E-15
 -1      3796 1.89499E+01 9.74327E-01 9.79059E-03-4.24981E-02 4.45509E-14 5.69202E-14
 -1      3797 1.55973E+01 1.07774E+00 3.18966E-02-2.13397E+00 8.78906E-14-2.17682E-13
 -1      3798 1.99910E+01 4.49985E-02 1.93627E-04-1.25231E-02 5.46799E-13 1.37822E-13
 -1      3799 1.99929E+01 3.69655E-02-8.29332E-05-8.38800E-03 3.84180E-13 2.32646E-13
 -1      3800 1.99917E+01 3.86784E-02-1.09114E-04-6.47715E-03 4.03983E-13 3.74142E-15
 -1      3801 2.08195E+01-1.93389E+00 1.44307E-02-2.75648E+00 3.06712E-13-1.85871E-14
 -1      3802 1.39635E+01 1.64632E+00-1.26593E-02 9.91504E-01 1.23437E-13-1.29466E-13
 -1      3803 1.48329E+01 1.40101E+00 4.16890E-02 1.62653E+00 1.49620E-13-4.16524E-14
 -1      3804 2.39202E+01-2.34969E+00 1.89829E-02-3.63917E-01 8.06109E-14-1.22126E-13
 -1      3805 2.24921E+01-2.21301E+00-1.00536E-02-1.16008E+00 2.08549E-13-5.14406E-14
 -1      3806 2.34476E+01-2.43804E+00 2.06364E-02-7.35576E-01 1.65377E-13-7.95536E-14
 -1      3807 1.92061E+01 7.92562E-01-2.60434E-03 2.30830E-01 9.67550E-14-1.92049E-13
 -1      3808 1.90382E+01 8.85346E-01-6.73039E-03 2.32329E-01 3.85583E-14-2.21405E-13
 -1      3809 1.89095E+01 9.30561E-01 8.96812E-03 3.91003E-02 3.48859E-14-4.27987E-13
 -1      3810 1.83383E+01 1.20652E+00-3.47947E-03 8.63397E-02 1.62651E-13-2.82815E-13
 -1      3811 1.79780E+01 1.31337E+00-1.53983E-02 2.52043E-02 1.91789E-13-2.78326E-13
 -1      3812 1.84617E+01 1.11572E+00 1.23360E-02-1.16462E-01 2.03665E-13-4.96240E-13
 -1      3813 2.34893E+01-1.97578E+00-2.54290E-02-1.93216E-01-7.19318E-14 2.30456E-13
 -1      3814 1.76196E+01 1.42445E+00-3.97322E-03-1.20409E-01 1.29459E-13-3.14279E-13
 -1      3815 1.71031E+01 1.51609E+00-2.06078E-02-2.41399E-01 7.77340E-14-2.72972E-13
 -1      3816 1.78456E+01 1.29106E+00 1.71570E-02-3.91824E-01 1.50307E-13-4.86167E-13
 -1      3817 2.00767E+01 9.14019E-01 3.75348E-03-1.08508E-01 1.49159E-13-9.24753E-14
 -1      3818 2.00959E+01 1.09198E+00 9.58535E-04-6.55662E-04 1.80952E-13-7.79607E-14
 -1      3819 1.55765E+01 5.95833E-01 2.28777E-03 2.56883E+00 2.01623E-13-1.90629E-14
 -1      3820 1.67938E+01 6.31087E-01-3.91836E-03 2.14049E+00 1.26981E-13 2.27140E-15
 -1      3821 1.79329E+01-5.04453E-01 2.16471E-02-3.23229E+00 4.04621E-13 4.92408E-14
 -1      3822 1.99916E+01 3.81384E-02-1.31017E-04 4.96399E-05 2.77968E-13-5.23545E-13
 -1      3823 1.99919E+01 3.84493E-02-6.44505E-05 1.82809E-03 2.86827E-13-3.22413E-13
 -1      3824 1.99947E+01 8.47142E-01-4.06450E-03-1.72879E-01 1.39742E-13-8.49537E-14
 -1      3825 1.94672E+01 6.04528E-01 4.57182E-03 1.47355E-01 2.70862E-14-3.35895E-14
 -1      3826 1.94587E+01 6.24824E-01-2.22536E-03 2.31871E-01-6.61881E-15-1.08565E-14
 -1      3827 1.93450E+01 7.03670E-01-4.26835E-03 2.46168E-01 9.28623E-14-2.57832E-14
 -1      3828 2.00959E+01 1.46412E+00-4.41692E-03 7.47134E-02 1.50186E-13-1.41277E-13
 -1      3829 2.01095E+01 1.45728E+00-1.68697E-03 4.44381E-02 1.13161E-13-1.51755E-13
 -1      3830 1.99903E+01 4.43833E-02 1.80253E-04 3.44989E-03 2.17356E-13-2.53546E-13
 -1      3831 1.99925E+01 3.76866E-02-1.10553E-04 4.26730E-03 3.02401E-13-1.99051E-13
 -1      3832 1.99935E+01 3.68206E-02-2.59562E-05 5.98657E-03 2.48792E-13-1.45137E-13
 -1      3833 2.00990E+01 1.31484E+00-7.86821E-04 7.99718E-02 1.44520E-13-1.44302E-13
 -1      3834 2.00972E+01 1.41185E+00 2.25159E-03 7.69829E-02 1.42528E-13-1.18518E-13
 -1      3835 2.01146E+01 1.23490E+00 2.45730E-03 7.44727E-02 1.14009E-13-9.80790E-14
 -1      3836 1.43467E+01 1.96143E+00 3.56558E-02-1.59794E-01-3.16325E-13-6.26621E-14
 -1      3837 2.01972E+01 5.83982E-01-7.65795E-05 2.90913E-01 1.13291E-14-4.84057E-14
 -1      3838 2.01855E+01 4.74103E-01 5.78583E-04 3.63617E-01-1.16614E-15-5.93458E-14
 -1      3839 2.01600E+01 3.73860E-01 3.02367E-05 4.35197E-01 1.14393E-14-7.22519E-14
 -1      3840 2.01574E+01 2.78062E-01 2.09764E-03 5.06023E-01 1.15114E-14-8.36475E-14
 -1      3841 2.01254E+01 4.88389E-01 4.75281E-05 3.84651E-01-2.24049E-15-1.30706E-13
 -1      3842 2.01372E+01 1.81898E-01 3.20774E-04 5.85104E-01 4.87407E-14-3.42459E-14
 -1      3843 2.01564E+01 8.31084E-02 3.43228E-03 6.56369E-01 7.55599E-14-2.91939E-14
 -1      3844 2.00761E+01 2.92201E-01-1.70320E-03 5.39332E-01 4.80280E-14-1.04084E-13
 -1      3845 2.01591E+01-2.60651E-02 1.37334E-03 7.47370E-01 9.71687E-14-3.13120E-14
 -1      3846 2.02163E+01-1.47233E-01 4.58815E-03 8.18645E-01 1.06271E-13-1.46896E-14
 -1      3847 2.00533E+01 8.97332E-02-4.15967E-03 7.18318E-01 9.34885E-14-3.78920E-14
 -1      3848 2.02643E+01-2.86101E-01 3.43829E-03 9.19447E-01 9.22123E-14-1.06434E-14
 -1      3849 2.03775E+01-4.46052E-01 5.32184E-03 9.85005E-01 1.08719E-13 1.43473E-14
 -1      3850 2.00952E+01-1.59227E-01-7.12926E-03 9.25742E-01 1.01847E-13-4.99310E-14
 -1      3851 2.05016E+01-6.28819E-01 7.09940E-03 1.08698E+00 1.14802E-13 9.22220E-15
 -1      3852 2.06888E+01-8.41076E-01 4.26518E-03 1.13132E+00 8.95580E-14 3.18378E-14
 -1      3853 2.02498E+01-4.93665E-01-1.12269E-02 1.15433E+00 7.85508E-14-7.09534E-15
 -1      3854 2.09301E+01-1.07044E+00 1.32113E-02 1.20721E+00 1.02630E-13 2.97352E-14
 -1      3855 2.12040E+01-1.32987E+00 1.81958E-03 1.20117E+00 7.40027E-14 8.06272E-14
 -1      3856 2.05827E+01-9.51474E-01-1.75669E-02 1.37524E+00 1.23606E-13-8.41102E-15
 -1      3857 2.15995E+01-1.59304E+00 1.92831E-02 1.20902E+00 1.77623E-14 1.30092E-13
 -1      3858 2.19669E+01-1.85933E+00-1.52290E-03 1.10349E+00-1.31427E-15 1.24104E-13
 -1      3859 2.11675E+01-1.51523E+00-2.12725E-02 1.50860E+00 8.68225E-14 4.18203E-14
 -1      3860 2.21168E+01-1.95894E+00 3.64406E-02-1.30703E+00 1.53461E-13-8.64586E-14
 -1      3861 2.08412E+01-9.97111E-01 1.12840E-02-1.08016E+00 1.46313E-14-2.60265E-13
 -1      3862 2.05558E+01-7.71591E-01 1.07802E-02-1.08166E+00-5.08375E-14-2.60158E-13
 -1      3863 2.03399E+01-5.61546E-01 5.00459E-03-9.85659E-01 6.53310E-14-1.07642E-13
 -1      3864 2.01667E+01-3.83266E-01 4.75443E-03-9.28498E-01 1.88889E-13-9.90134E-14
 -1      3865 2.02287E+01-6.31765E-01-9.70780E-03-1.22316E+00 1.23773E-13 5.14569E-14
 -1      3866 2.00573E+01-2.33938E-01 5.22147E-03-8.22834E-01 1.63958E-13-2.04590E-13
 -1      3867 1.99484E+01-1.11992E-01 2.00575E-03-7.54765E-01 8.95990E-14-1.48744E-13
 -1      3868 1.99257E+01-2.53177E-01-7.76325E-03-9.83839E-01 1.35199E-13 3.11596E-14
 -1      3869 1.98997E+01-1.26840E-02 4.27150E-03-6.58569E-01 4.76001E-14-1.08407E-13
 -1      3870 1.98380E+01 6.32979E-02 2.83907E-04-5.92621E-01 5.76166E-14-6.68724E-14
 -1      3871 1.97783E+01-5.14011E-03-5.26075E-03-7.63762E-01 1.08918E-13 2.23207E-14
 -1      3872 1.98270E+01 1.22406E-01 3.33639E-03-5.11527E-01-1.94411E-14-3.64184E-14
 -1      3873 1.97972E+01 1.63386E-01-5.99482E-04-4.53764E-01-1.09281E-13 3.02644E-14
 -1      3874 1.97227E+01 1.46524E-01-2.91620E-03-5.75815E-01 2.51727E-14-4.39103E-14
 -1      3875 1.98067E+01 1.93550E-01 2.46930E-03-3.89516E-01-7.15255E-14 2.00680E-14
 -1      3876 1.97966E+01 2.10653E-01-9.49892E-04-3.41422E-01 1.27041E-13 2.38130E-15
 -1      3877 1.97216E+01 2.25012E-01-1.24694E-03-4.25354E-01-1.06055E-13 1.46627E-13
 -1      3878 1.98164E+01 2.20531E-01 1.76206E-03-2.91731E-01 1.69301E-13-9.06011E-14
 -1      3879 1.98179E+01 2.21704E-01-1.04250E-03-2.53397E-01 5.79471E-14-6.36070E-14
 -1      3880 1.97487E+01 2.53939E-01-3.03465E-04-3.09445E-01 3.46192E-14 1.91211E-14
 -1      3881 1.98406E+01 2.19322E-01 1.16738E-03-2.16321E-01-6.30314E-16 9.63359E-15
 -1      3882 1.98479E+01 2.11468E-01-9.84152E-04-1.86234E-01-1.45379E-13-7.02093E-15
 -1      3883 1.97882E+01 2.50636E-01 4.56899E-05-2.22766E-01 5.77585E-14-1.46453E-13
 -1      3884 1.98700E+01 2.02018E-01 7.75944E-04-1.58716E-01-3.76737E-13 2.52434E-14
 -1      3885 1.98794E+01 1.89412E-01-8.65371E-04-1.35456E-01-3.68162E-13-1.58534E-14
 -1      3886 1.98300E+01 2.30330E-01 3.03565E-04-1.59044E-01-2.66597E-13-2.09259E-14
 -1      3887 1.98991E+01 1.76584E-01 5.02605E-04-1.15300E-01-3.55462E-13 1.18649E-13
 -1      3888 1.99086E+01 1.62214E-01-7.24757E-04-9.75071E-02-3.83158E-13 1.00679E-13
 -1      3889 1.98692E+01 2.01194E-01 4.09371E-04-1.12588E-01-2.79578E-13 1.45788E-13
 -1      3890 1.99251E+01 1.48444E-01 3.19414E-04-8.28568E-02-2.17337E-13 5.40034E-14
 -1      3891 1.99336E+01 1.34174E-01-5.87064E-04-6.93574E-02-8.76599E-14 3.83066E-14
 -1      3892 1.99031E+01 1.69218E-01 4.22465E-04-7.90524E-02-2.96560E-13 1.22523E-13
 -1      3893 1.99468E+01 1.20934E-01 2.01319E-04-5.87617E-02-1.30486E-13-2.33660E-14
 -1      3894 1.99538E+01 1.07817E-01-4.63076E-04-4.85936E-02-1.13437E-13-8.94251E-14
 -1      3895 1.99309E+01 1.38069E-01 3.86915E-04-5.49579E-02-1.09009E-13 2.46668E-14
 -1      3896 1.99639E+01 9.59018E-02 1.29742E-04-4.09589E-02-2.99751E-14-6.80440E-14
 -1      3897 1.99693E+01 8.44235E-02-3.60267E-04-3.33538E-02 9.88323E-14 2.78684E-16
 -1      3898 1.99526E+01 1.09754E-01 3.29033E-04-3.76989E-02-8.95848E-14 1.90966E-13
 -1      3899 1.99768E+01 7.41858E-02 9.99751E-05-2.78829E-02 2.85215E-13-1.33530E-14
 -1      3900 1.99808E+01 6.45229E-02-2.44693E-04-2.23039E-02 4.64237E-13-6.15195E-16
 -1      3901 1.99689E+01 8.50837E-02 2.29784E-04-2.53835E-02 2.11461E-13 3.58980E-13
 -1      3902 1.99849E+01 5.83683E-02 1.09264E-04-1.91137E-02 5.18880E-13 2.51341E-14
 -1      3903 1.99877E+01 5.03571E-02-1.28953E-04-1.50363E-02 5.29274E-13 1.29436E-13
 -1      3904 1.99856E+01 5.33553E-02-8.69516E-05-1.18350E-02 5.99549E-13 2.75749E-13
 -1      3905 1.99792E+01 6.67630E-02 9.07258E-05-1.72866E-02 4.38419E-13 4.30312E-13
 -1      3906 1.57771E+01 1.43770E+00 1.94354E-02-1.40035E+00-1.39709E-13-5.74931E-13
 -1      3907 1.63907E+01 7.16502E-01-3.02335E-02-2.32829E+00 1.79445E-13-4.00289E-13
 -1      3908 1.79571E+01 1.33827E-01 2.34283E-02 2.37129E+00 1.18161E-13 2.28372E-14
 -1      3909 1.70020E+01 7.65866E-01-3.15508E-02 1.68647E+00 1.11599E-13 9.01536E-15
 -1      3910 1.75834E+01 8.31631E-01 2.36482E-03 1.35585E+00 9.22058E-14 2.27906E-14
 -1      3911 1.83221E+01 9.49837E-01-1.40401E-02 5.03487E-01 1.50034E-14 7.74209E-14
 -1      3912 1.86641E+01 9.21805E-01 2.43187E-03 3.43291E-01 1.92984E-14 6.12812E-14
 -1      3913 1.98280E+01 2.70867E-01-7.09041E-04 8.08636E-02-1.64763E-13 6.39834E-13
 -1      3914 1.97922E+01 3.07068E-01-1.10347E-03 8.94018E-02-3.00008E-13 4.87339E-13
 -1      3915 1.99522E+01 1.20370E-01-4.09056E-04 4.22419E-02-1.12475E-13 4.32126E-13
 -1      3916 1.99411E+01 1.38803E-01-2.03254E-04 4.98470E-02-5.26190E-15 5.45039E-13
 -1      3917 1.99702E+01 9.11614E-02-3.10642E-04 3.17518E-02 5.37630E-14 2.25575E-13
 -1      3918 1.99633E+01 1.04969E-01-9.43539E-05 3.78564E-02-3.32767E-14 3.64902E-13
 -1      3919 1.99516E+01 1.19336E-01 4.91308E-04 3.12105E-02 2.54761E-14 4.64075E-13
 -1      3920 1.99830E+01 6.69108E-02-2.55063E-04 2.25824E-02 7.04283E-14-2.75650E-15
 -1      3921 1.99783E+01 7.83049E-02-5.37147E-05 2.76580E-02 5.06885E-14 2.15842E-13
 -1      3922 1.99700E+01 8.99483E-02 3.73292E-04 2.36087E-02 1.32680E-13 2.63690E-13
 -1      3923 1.99913E+01 4.84997E-02-1.17266E-04 1.52757E-02-8.07963E-15-2.05469E-13
 -1      3924 1.99883E+01 5.71698E-02-1.30118E-05 1.93185E-02 5.55958E-14-1.13974E-13
 -1      3925 1.99826E+01 6.60325E-02 1.92586E-04 1.69583E-02 7.96930E-14 1.69775E-13
 -1      3926 2.09834E+01-1.93683E+00-2.73855E-02 2.42865E+00 4.06673E-14-3.82836E-14
 -1      3927 2.01716E+01-1.43061E+00 9.03019E-03 2.64619E+00 8.70306E-14-9.56978E-14
 -1      3928 1.74325E+01 1.59673E-01 3.73566E-02-2.77501E+00 3.57074E-13-3.56074E-14
 -1      3929 1.86539E+01-6.82876E-01-2.39900E-02-2.88352E+00 3.50742E-13 1.59680E-13
 -1      3930 2.00989E+01-1.36789E+00 2.64653E-02-2.70620E+00 2.52180E-13-2.25601E-15
 -1      3931 2.12941E+01-2.02501E+00-4.11962E-02-2.15141E+00 1.86238E-13-1.48342E-13
 -1      3932 1.99246E+01 1.59454E-01-5.08532E-04 5.48699E-02 2.81608E-14 6.24464E-13
 -1      3933 1.99079E+01 1.82784E-01-3.86631E-04 6.35674E-02 6.55420E-14 8.11646E-13
 -1      3934 1.99251E+01 1.56475E-01 6.88284E-04 3.92982E-02 5.66103E-14 6.80362E-13
 -1      3935 1.98847E+01 2.08926E-01-6.10011E-04 6.83344E-02 2.53671E-14 7.09096E-13
 -1      3936 1.98602E+01 2.38143E-01-6.73936E-04 7.75372E-02 6.08628E-14 7.81986E-13
 -1      3937 1.98325E+01 2.62640E-01 1.30724E-03 5.23858E-02-1.84201E-13 2.93585E-13
 -1      3938 1.98866E+01 2.03973E-01 9.53540E-04 4.71131E-02 5.73796E-14 7.36970E-13
 -1      3939 1.70006E+01 1.41912E+00 2.41663E-02-8.42322E-01 1.06010E-14-5.95096E-13
 -1      3940 1.66135E+01 1.58888E+00-6.10196E-03-4.72047E-01-1.29254E-14-3.59186E-13
 -1      3941 1.51601E+01 1.80007E+00-1.67208E-02-5.94341E-01-2.41779E-13-1.64283E-13
 -1      3942 1.99916E+01 3.83031E-02-1.39870E-04-3.95367E-03 2.84150E-13-2.50978E-13
 -1      3943 1.99912E+01 3.92861E-02-8.53650E-05-2.25327E-03 3.31826E-13-4.64019E-13
 -1      3944 1.99891E+01 4.61468E-02 1.93348E-04-1.62476E-03 2.62048E-13-3.71465E-13
 -1      3945 1.99888E+01 4.76429E-02 2.20256E-04-6.77857E-03 4.08636E-13-1.41723E-14
 -1      3946 1.99096E+01 7.96466E-01 9.32998E-04-2.13867E-01 1.13023E-13-6.72725E-14
 -1      3947 1.99711E+01 8.96066E-01 4.09940E-03-8.75465E-02 1.45159E-13-4.62388E-14
 -1      3948 1.59519E+01 1.65079E+00-5.31238E-03-6.80307E-01-9.78505E-14-3.74699E-13
 -1      3949 2.01118E+01 1.21277E+00 9.59358E-04 6.46440E-02 1.45792E-13-1.16324E-13
 -1      3950 2.01434E+01 1.27391E+00 4.05253E-03 6.81093E-02 9.55282E-14-1.35870E-13
 -1      3951 2.01234E+01 1.42798E+00-3.32284E-03 3.33878E-02 1.15101E-13-1.58899E-13
 -1      3952 2.01452E+01 1.38993E+00-2.74005E-03 2.51977E-03 1.03647E-13-1.62997E-13
 -1      3953 1.93933E+01-1.04013E+00-2.20023E-02 2.73193E+00 8.53278E-14-1.49560E-13
 -1      3954 1.85036E+01-3.83633E-01-7.05962E-03 2.57018E+00 1.25416E-13-3.54317E-14
 -1      3955 1.87257E+01-1.24960E-01 1.98646E-02 2.13259E+00 6.94191E-14-7.84029E-14
 -1      3956 1.63434E+01 2.11699E-01 6.99418E-02 3.11533E+00 2.11609E-13 4.15605E-14
 -1      3957 1.99948E+01 3.46204E-02-1.11010E-04 7.57925E-03 2.62966E-13-9.55670E-14
 -1      3958 1.99963E+01 3.30718E-02-2.89112E-05 8.81066E-03 3.20492E-13-5.07425E-13
 -1      3959 1.99955E+01 3.67466E-02 1.49166E-05 1.05547E-02 3.95012E-13-4.30930E-13
 -1      3960 1.99925E+01 4.14384E-02 9.26258E-05 7.80232E-03 2.50512E-13-1.93224E-13
 -1      3961 2.02196E+01 8.46744E-01-1.74604E-03 1.43410E-01 6.13498E-14-1.07785E-13
 -1      3962 2.02133E+01 7.08800E-01-4.68457E-04 2.24088E-01 5.55023E-14-5.88246E-14
 -1      3963 2.01723E+01 7.11035E-01 1.33682E-04 2.45964E-01 2.98103E-14-1.49659E-13
 -1      3964 2.33502E+01-2.27439E+00 3.83149E-02 5.94513E-01-4.17513E-14 1.59131E-13
 -1      3965 2.13615E+01-1.60604E+00-2.93735E-03-1.44144E+00 1.31757E-13-1.31517E-13
 -1      3966 1.93674E+01 8.67470E-01 7.15745E-03-1.53512E-01 6.58324E-14 3.82763E-14
 -1      3967 1.94656E+01 8.28648E-01-6.24839E-03-3.23654E-01 8.96814E-14-3.08855E-14
 -1      3968 1.96269E+01 7.93553E-01-1.62722E-03-3.01280E-01 9.74525E-14-4.40567E-14
 -1      3969 1.99860E+01 5.13588E-02-1.78490E-04 2.70718E-03 1.84440E-13-3.17985E-13
 -1      3970 1.99871E+01 5.09749E-02 4.41355E-06 5.50203E-03 1.76548E-13-1.10030E-13
 -1      3971 2.25370E+01-2.10670E+00 2.12386E-02 9.71593E-01-1.46908E-14 1.77808E-13
 -1      3972 2.29803E+01-2.24524E+00-1.22774E-03 6.98147E-01-3.86265E-14 1.71100E-13
 -1      3973 1.97960E+01 7.82013E-01-4.33357E-03-2.57266E-01 1.10601E-13-6.01523E-14
 -1      3974 1.92340E+01 7.56751E-01 6.40288E-03 1.17245E-01-2.26896E-14-2.25154E-13
 -1      3975 2.09964E+01-1.30466E+00 1.28622E-02-1.46399E+00 4.92180E-14-2.39083E-13
 -1      3976 1.73860E+01 5.39040E-01 1.19474E-02-2.11228E+00 2.05652E-13-2.61381E-13
 -1      3977 1.88644E+01 8.81388E-01-1.08019E-02 1.97774E-01 5.05444E-14 4.93161E-14
 -1      3978 1.91169E+01 8.47520E-01 8.33142E-04 1.10531E-01 5.96287E-14 7.44877E-14
 -1      3979 1.88938E+01 7.92908E-01 6.80621E-03 4.93041E-01 3.18098E-14 6.41132E-14
 -1      3980 1.90036E+01 8.13361E-01 2.64299E-04-8.23529E-02-1.19127E-13-1.54971E-13
 -1      3981 1.88016E+01 8.79788E-01-9.24419E-03-1.48490E-01-4.00415E-14-3.14444E-13
 -1      3982 1.86322E+01 9.51932E-01 1.41260E-03-2.62590E-01 1.25447E-13-3.57120E-13
 -1      3983 1.83508E+01 1.00934E+00-1.32203E-02-3.81492E-01 2.19481E-13-4.70914E-13
 -1      3984 1.87872E+01 8.35932E-01 6.68746E-03-3.84211E-01-2.50309E-14-2.27626E-13
 -1      3985 1.81403E+01 1.06850E+00 3.42412E-03-5.63316E-01 2.10973E-13-6.35275E-13
 -1      3986 1.77559E+01 1.09856E+00-1.76418E-02-7.59387E-01 8.54768E-14-5.80743E-13
 -1      3987 1.83922E+01 9.03392E-01 8.88351E-03-7.07933E-01 1.00449E-13-6.30702E-13
 -1      3988 2.05495E+01-1.14666E+00-5.86854E-03-1.72357E+00 6.44613E-14-1.32260E-13
 -1      3989 1.97582E+01 3.33487E-01 1.78468E-03 5.15754E-02-3.82453E-13 1.45819E-13
 -1      3990 1.97488E+01 3.46986E-01-7.71231E-04 8.92318E-02-3.02813E-13 4.99718E-13
 -1      3991 1.96978E+01 3.90380E-01-1.77321E-03 9.49236E-02-2.16979E-13 2.08599E-13
 -1      3992 2.00055E+01-1.05550E+00 1.39412E-02 2.30402E+00 9.87741E-14-7.84958E-14
 -1      3993 2.15909E+01-2.03580E+00 1.73308E-02 2.04628E+00 4.72851E-14 4.26011E-14
 -1      3994 2.11813E+01-1.66290E+00 6.25774E-03 1.88403E+00 8.07548E-14 3.89834E-14
 -1      3995 1.99946E+01 4.05728E-02-1.45449E-05 1.28219E-02 1.97812E-13-2.37988E-13
 -1      3996 2.02046E+01 1.06163E+00 2.67661E-03 8.02841E-02 6.50748E-14-1.20722E-13
 -1      3997 2.01719E+01 1.03866E+00-1.24539E-04 1.14141E-01 7.80402E-14-1.51103E-13
 -1      3998 1.88549E+01-3.38924E-01-1.88395E-02-2.24875E+00 3.64809E-13 2.08926E-13
 -1      3999 1.94899E+01-9.05890E-01 9.40291E-03-2.59385E+00 3.19932E-13 1.71948E-13
 -1      4000 2.01050E+01-9.77228E-01 1.39641E-02-2.05212E+00 2.11795E-13 1.53683E-13
 -1      4001 1.96395E+01 4.38808E-01-7.81671E-04 8.82124E-02-1.52384E-13 1.69833E-13
 -1      4002 1.95667E+01 4.90337E-01-2.78563E-03 8.75724E-02-7.22440E-14 6.75724E-14
 -1      4003 1.96574E+01 4.17184E-01 2.40833E-03 3.91675E-02-2.30468E-13 1.90374E-13
 -1      4004 2.00655E+01 1.06261E+00-4.51842E-03 1.25775E-02 1.35015E-13-9.91713E-14
 -1      4005 1.57736E+01 1.55176E+00 2.11060E-02-1.14498E+00-1.48116E-13-5.11737E-13
 -1      4006 1.94891E+01 5.48087E-01-7.01761E-04 6.90973E-02-7.02045E-14-1.02516E-14
 -1      4007 1.93858E+01 6.07832E-01-4.26659E-03 5.68561E-02-1.26016E-13-1.06827E-13
 -1      4008 1.95215E+01 5.14272E-01 3.30259E-03 6.23733E-03-1.74270E-13 6.04516E-14
 -1      4009 1.99844E+01 5.43795E-02-1.13901E-04-3.09298E-03 3.12938E-13-3.32203E-13
 -1      4010 1.99851E+01 5.33688E-02-2.03644E-05-5.09056E-04 2.58213E-13-4.83908E-13
 -1      4011 1.99820E+01 6.10689E-02 1.41615E-04 1.74231E-03 3.76489E-13-2.38166E-13
 -1      4012 2.01888E+01 1.34805E+00 3.41494E-03-4.08174E-02 9.18209E-14-1.23252E-13
 -1      4013 1.77190E+01 9.34392E-01-1.76875E-02 9.90037E-01 8.15620E-14 3.60996E-15
 -1      4014 1.81575E+01 9.28629E-01 3.93170E-03 7.63817E-01 6.69195E-14 3.34975E-14
 -1      4015 1.85014E+01 7.30318E-01 3.19165E-03 9.20956E-01 5.85576E-14 1.17966E-14
 -1      4016 1.82184E+01 4.99301E-01 4.02664E-03 1.55253E+00 9.89174E-14-8.28187E-14
 -1      4017 2.01247E+01 1.09940E+00-3.39569E-03 1.07907E-01 8.81717E-14-1.15513E-13
 -1      4018 2.01455E+01 1.07768E+00-9.18725E-04 1.08206E-01 7.12788E-14-1.23147E-13
 -1      4019 2.01654E+01 8.88158E-01 2.12678E-03 1.63833E-01 5.29855E-14-1.40377E-13
 -1      4020 1.99332E+01 8.53555E-01-4.91640E-03-1.82468E-02 1.07046E-13-4.73870E-14
 -1      4021 2.00230E+01 9.40111E-01-3.43924E-04 1.05308E-02 1.21095E-13-7.48040E-14
 -1      4022 2.00612E+01 1.04102E+00 4.10518E-03 6.77715E-02 9.71308E-14-5.30157E-14
 -1      4023 1.75116E+01 1.10655E+00 5.24991E-03-1.03353E+00 1.35248E-14-5.71670E-13
 -1      4024 1.70445E+01 1.09136E+00-6.32035E-03-1.34903E+00 1.92320E-14-6.39266E-13
 -1      4025 2.00826E+01 1.03792E+00-3.31367E-03 9.36473E-02 7.89381E-14-7.91857E-14
 -1      4026 2.01054E+01 1.10368E+00 2.71200E-03 1.01711E-01 7.89358E-14-1.08568E-13
 -1      4027 2.01065E+01 9.27174E-01 1.65277E-03 1.43232E-01 6.48113E-14-1.20713E-13
 -1      4028 2.00404E+01 9.12534E-01 1.93182E-04 1.01741E-01 6.17261E-14-3.62656E-14
 -1      4029 2.20775E+01-2.12678E+00-2.01251E-02 1.45235E+00 3.84241E-15 1.66226E-13
 -1      4030 1.99909E+01 4.72456E-02 8.02220E-05 1.16239E-02 1.86688E-13-1.35998E-13
 -1      4031 1.79117E+01 8.89283E-01 1.23055E-02-1.19666E+00 5.88048E-14-6.21607E-13
 -1      4032 2.29681E+01-2.61071E+00-3.17538E-02 1.27402E+00-4.10117E-14 1.64300E-13
 -1      4033 1.99889E+01 4.91097E-02-1.27561E-04 9.79732E-03 1.39138E-13-1.97809E-13
 -1      4034 2.00071E+01 4.11544E-01-1.93636E-03 4.66917E-01 6.09106E-14-1.06094E-13
 -1      4035 1.99925E+01 3.27432E-01 3.28072E-03 5.49890E-01 8.06550E-14-7.18483E-14
 -1      4036 1.99380E+01 2.41219E-01-1.19360E-03 6.51404E-01 9.41443E-14-8.24319E-14
 -1      4037 1.99493E+01 1.46893E-01 6.16856E-03 7.53954E-01 1.17104E-13-6.58202E-14
 -1      4038 1.98597E+01 3.66373E-01-9.88221E-04 5.74216E-01 9.04371E-14-1.21243E-13
 -1      4039 1.99125E+01 3.50732E-02-6.98717E-04 8.81779E-01 9.16504E-14-8.92834E-14
 -1      4040 1.99669E+01-8.97468E-02 7.62546E-03 1.00158E+00 6.59910E-14-1.10770E-13
 -1      4041 1.97704E+01 1.75399E-01-7.59876E-03 8.14598E-01 7.86180E-14-1.36862E-13
 -1      4042 1.99789E+01-2.43854E-01 2.12036E-03 1.16488E+00 7.79466E-14-5.99843E-14
 -1      4043 2.01034E+01-4.27019E-01 8.68036E-03 1.29634E+00 1.16642E-13-4.17686E-14
 -1      4044 1.97406E+01-6.61643E-02-1.05978E-02 1.12635E+00 1.01574E-13-1.28476E-13
 -1      4045 2.02040E+01-6.40751E-01 8.46316E-03 1.48482E+00 1.25718E-13-6.68102E-15
 -1      4046 2.04238E+01-9.13036E-01 5.60909E-03 1.61205E+00 1.06854E-13 8.25967E-15
 -1      4047 1.98359E+01-4.33613E-01-1.49775E-02 1.50892E+00 1.29089E-13-3.49255E-14
 -1      4048 2.07983E+01-1.30588E+00 1.63601E-02 1.81723E+00 1.03200E-13 3.84344E-14
 -1      4049 2.00661E+01-5.72976E-01 8.68677E-03-1.43242E+00 1.66218E-13 1.57439E-13
 -1      4050 1.98496E+01-3.62959E-01-2.64749E-03-1.30013E+00 1.27582E-13 2.14753E-13
 -1      4051 1.97233E+01 8.20096E-01 6.00862E-03-1.52256E-01 1.09439E-13-1.55957E-14
 -1      4052 1.97876E+01-1.74841E-01 9.78277E-03-1.11018E+00 6.51259E-14 2.28557E-13
 -1      4053 1.96704E+01-4.35502E-02-8.53084E-04-9.87667E-01 6.49701E-14 1.95488E-13
 -1      4054 1.95511E+01-1.26922E-01 4.37605E-03-1.31658E+00 7.77228E-14 2.56590E-13
 -1      4055 1.96582E+01 7.41624E-02 7.17756E-03-8.40026E-01 4.58330E-14 2.20988E-13
 -1      4056 1.95998E+01 1.54757E-01-1.55291E-03-7.30569E-01 7.19751E-14 2.13609E-13
 -1      4057 1.94582E+01 1.07179E-01-8.82707E-03-9.62901E-01 5.01606E-14 3.91277E-13
 -1      4058 1.96246E+01 2.17936E-01 5.46707E-03-6.14070E-01 2.34818E-14 1.12737E-13
 -1      4059 1.96035E+01 2.57056E-01-2.04132E-03-5.26245E-01-8.39818E-14 7.76942E-14
 -1      4060 1.94660E+01 2.64645E-01-5.20851E-03-6.79382E-01-2.09913E-14 3.49901E-13
 -1      4061 1.96432E+01 2.83710E-01 3.42073E-03-4.39978E-01-7.65230E-14 1.30259E-13
 -1      4062 1.96429E+01 2.96323E-01-2.70810E-03-3.74441E-01 2.61157E-16 1.77873E-13
 -1      4063 1.95253E+01 3.33412E-01-2.09978E-03-4.70161E-01-7.64519E-14 1.01832E-13
 -1      4064 1.96876E+01 3.03800E-01 2.76297E-03-3.09135E-01-1.09981E-13 7.72915E-14
 -1      4065 1.97009E+01 2.97561E-01-1.81455E-03-2.59728E-01-5.83011E-14-6.84286E-14
 -1      4066 1.96007E+01 3.56441E-01 1.94266E-03-3.18351E-01-7.49514E-14 4.47744E-14
 -1      4067 1.97410E+01 2.90154E-01 1.51729E-03-2.16994E-01 6.22060E-14-1.45835E-13
 -1      4068 1.97584E+01 2.76373E-01-1.60696E-03-1.80349E-01 3.81496E-14-1.45180E-13
 -1      4069 1.96780E+01 3.27914E-01-3.48813E-04-2.16038E-01-4.35262E-14-1.38951E-13
 -1      4070 1.97946E+01 2.61945E-01 1.08533E-03-1.50040E-01-1.95039E-13-7.94378E-14
 -1      4071 1.98125E+01 2.43632E-01-1.28214E-03-1.23547E-01-3.36084E-13-5.89879E-14
 -1      4072 1.97480E+01 2.95730E-01 4.19122E-04-1.42591E-01-3.36808E-14-2.01223E-13
 -1      4073 1.98428E+01 2.26007E-01 6.46071E-04-1.03062E-01-3.39604E-13 5.04052E-15
 -1      4074 1.98594E+01 2.06628E-01-1.00792E-03-8.40822E-02-2.42989E-13-2.22286E-14
 -1      4075 1.98096E+01 2.54022E-01 5.99515E-04-9.33243E-02-2.82517E-13-2.64371E-13
 -1      4076 1.98837E+01 1.88599E-01 3.79649E-04-7.03217E-02-2.78775E-13 1.62966E-14
 -1      4077 1.98979E+01 1.70037E-01-7.77641E-04-5.67931E-02-3.26488E-13 9.01704E-15
 -1      4078 1.98601E+01 2.11511E-01 6.41105E-04-6.05184E-02-2.93478E-13-2.48674E-13
 -1      4079 1.99168E+01 1.53125E-01 2.14357E-04-4.76262E-02-1.84446E-13-5.13611E-15
 -1      4080 1.99283E+01 1.36404E-01-5.91488E-04-3.80029E-02-8.22468E-14-5.25720E-14
 -1      4081 1.99003E+01 1.71602E-01 5.98951E-04-3.88706E-02-2.35240E-13-6.11479E-14
 -1      4082 1.99426E+01 1.21397E-01 1.17072E-04-3.19368E-02-9.46098E-15 7.01919E-16
 -1      4083 1.99515E+01 1.06960E-01-4.37700E-04-2.50959E-02 2.65975E-14 1.56043E-13
 -1      4084 1.99311E+01 1.36104E-01 5.15696E-04-2.46971E-02 6.12360E-14-8.06310E-14
 -1      4085 1.99620E+01 9.42455E-02 1.06564E-04-2.10532E-02 1.00200E-13 1.74733E-13
 -1      4086 1.99688E+01 8.21548E-02-1.95664E-04-1.62066E-02 2.50215E-13 1.21904E-13
 -1      4087 1.99541E+01 1.05709E-01 3.99739E-04-1.54821E-02 1.31556E-13 6.58728E-14
 -1      4088 1.99699E+01 8.43512E-02-2.00771E-04 1.46752E-02 1.94044E-13 1.96861E-13
 -1      4089 1.99620E+01 9.76707E-02-1.81331E-04 1.81993E-02 1.39436E-13 2.68111E-13
 -1      4090 2.01430E+01 7.53224E-01-8.93686E-04 2.28834E-01 2.05525E-14-1.63508E-13
 -1      4091 1.99522E+01 1.11789E-01-2.34113E-04 1.90817E-02 9.71831E-14 2.83098E-13
 -1      4092 1.99411E+01 1.27479E-01-3.44372E-04 2.24850E-02 2.22022E-14 3.74638E-13
 -1      4093 1.99551E+01 1.06949E-01 3.32705E-04 9.74945E-03 1.15238E-13 1.79431E-13
 -1      4094 1.83767E+01 6.63765E-01 1.21892E-02-1.19571E+00 9.35971E-14-3.56804E-13
 -1      4095 1.80725E+01 5.72347E-01-1.91424E-02-1.50507E+00 4.03319E-14-3.67719E-13
 -1      4096 2.01975E+01 1.20063E+00-4.14302E-04 1.31985E-02 8.55462E-14-1.12301E-13
 -1      4097 2.02401E+01-1.06421E+00-1.78636E-02 1.97110E+00 1.26401E-13-2.90232E-14
 -1      4098 1.96521E+01-6.13361E-01 9.54765E-03 2.01640E+00 1.18830E-13-6.90530E-14
 -1      4099 1.64743E+01 1.26346E+00-1.81297E-02-1.36568E+00-7.87606E-14-6.50410E-13
 -1      4100 1.92835E+01 6.74400E-01-3.23052E-04 1.93367E-02-5.10842E-14-1.64980E-13
 -1      4101 1.91367E+01 7.40711E-01-6.32428E-03-1.40881E-02-3.72850E-14-2.70402E-13
 -1      4102 1.90989E+01 7.33533E-01 5.21424E-03-1.81316E-01-6.16887E-14-8.91438E-14
 -1      4103 1.93394E+01 6.22241E-01 4.22354E-03-6.04083E-02-1.29896E-13-1.26339E-13
 -1      4104 1.99846E+01 5.43966E-02-1.45641E-04-8.88026E-03 6.44805E-13 2.46299E-13
 -1      4105 1.99847E+01 5.41464E-02-5.03163E-05-6.03287E-03 4.51364E-13-6.77586E-14
 -1      4106 1.99809E+01 6.26662E-02 1.64236E-04-5.00428E-03 5.79944E-13-1.89750E-14
 -1      4107 1.99819E+01 6.11545E-02 1.21563E-04-1.12840E-02 5.84078E-13 3.03325E-13
 -1      4108 1.91198E+01-3.09709E-01-1.42339E-02 1.99310E+00 9.99023E-14-2.41807E-14
 -1      4109 1.85963E+01 1.48887E-01-4.04028E-03 1.76537E+00 7.22417E-14-5.15848E-14
 -1      4110 1.87235E+01 3.48402E-01 1.60708E-02 1.42481E+00 9.72342E-14-6.39407E-14
 -1      4111 1.95413E+01-3.07412E-01 1.16384E-02 1.69297E+00 1.16462E-13-5.89453E-14
 -1      4112 1.99269E+01 1.46163E-01-2.41325E-04 2.30425E-02-9.55878E-16 3.70617E-13
 -1      4113 1.99100E+01 1.66557E-01-5.23091E-04 2.64511E-02 9.01281E-14 4.35595E-13
 -1      4114 1.99313E+01 1.39750E-01 5.41132E-04 1.02056E-02 5.63865E-14 3.34736E-14
 -1      4115 1.99849E+01 5.76800E-02 6.60076E-05 9.36051E-03 6.68410E-14-1.69723E-13
 -1      4116 2.00882E+01 5.93531E-01-4.55281E-04 3.15378E-01 1.71401E-14-1.48080E-13
 -1      4117 2.00621E+01 4.99926E-01 1.65444E-03 3.88097E-01 3.28388E-14-1.31473E-13
 -1      4118 1.99678E+01 5.30718E-01 2.13813E-03 3.93886E-01 5.79071E-14-1.09618E-13
 -1      4119 2.00855E+01 7.58776E-01 1.43207E-03 2.31559E-01 4.23964E-14-1.32213E-13
 -1      4120 1.99799E+01 6.72132E-02-9.43620E-05 1.18602E-02 1.84967E-13-4.04435E-14
 -1      4121 1.99745E+01 7.50901E-02 9.04793E-05 7.08441E-03 2.15693E-13-9.23307E-14
 -1      4122 2.00035E+01-7.36962E-01-1.37682E-02-1.66950E+00 2.11250E-13 1.34423E-13
 -1      4123 1.96125E+01-4.18952E-01 1.13983E-02-1.73953E+00 1.93791E-13 2.75936E-13
 -1      4124 1.96430E+01 7.72677E-01-5.36188E-03-3.42996E-02 7.50877E-14 3.45850E-14
 -1      4125 1.98143E+01 7.88524E-01-2.27928E-03-1.18237E-02 1.05829E-13-5.55954E-15
 -1      4126 1.99053E+01 8.25417E-01 4.80683E-03 8.04899E-02 7.89606E-14 1.87326E-14
 -1      4127 1.92192E+01 6.31456E-01 2.33274E-03-2.42510E-01 2.36721E-14-1.04098E-13
 -1      4128 1.90710E+01 6.64649E-01-7.24619E-03-3.25361E-01-1.47521E-14-4.39614E-14
 -1      4129 1.93071E+01 8.01593E-01-8.03105E-03 3.90034E-02 3.65610E-14 4.96017E-14
 -1      4130 1.94959E+01 7.83979E-01-6.53623E-04-1.61021E-03 3.41475E-14 4.00187E-14
 -1      4131 1.96393E+01 7.50704E-01 6.29383E-03 1.34412E-01 2.27180E-14 8.04172E-14
 -1      4132 1.93028E+01 7.47866E-01 2.61650E-03 2.56932E-01 2.25820E-14 5.44936E-14
 -1      4133 1.98975E+01 1.80499E-01 7.06664E-04 8.43931E-03-1.38156E-13-3.52362E-14
 -1      4134 1.98905E+01 1.89646E-01-2.56630E-04 2.56631E-02-9.07980E-14 3.12964E-13
 -1      4135 1.98666E+01 2.14535E-01-8.00984E-04 2.81324E-02-2.14518E-13 1.54077E-13
 -1      4136 1.89801E+01 6.99597E-01 4.43130E-03-4.41912E-01-1.18535E-13-7.01218E-14
 -1      4137 1.87877E+01 7.13811E-01-9.70162E-03-5.75583E-01-5.74394E-14-1.53595E-13
 -1      4138 1.91231E+01 5.79694E-01-5.52255E-04-4.99914E-01-1.05780E-13-1.41184E-13
 -1      4139 1.89445E+01 6.17606E-01-8.47368E-03 7.24011E-01 6.24819E-14 1.97526E-14
 -1      4140 1.91707E+01 6.45515E-01 6.76028E-03 5.54670E-01 4.62709E-14 3.23282E-15
 -1      4141 1.99740E+01 7.46281E-02-2.55079E-05-1.53671E-02 3.59354E-13 2.06576E-13
 -1      4142 1.99778E+01 6.73699E-02-1.27571E-04-1.23363E-02 4.89883E-13 3.14341E-13
 -1      4143 1.99771E+01 6.86861E-02 1.63699E-05-9.11612E-03 4.98773E-13 1.29393E-13
 -1      4144 1.99683E+01 8.30689E-02-6.21115E-05-1.06377E-02 2.45030E-13-2.18455E-13
 -1      4145 1.86953E+01 7.19594E-01 6.15814E-03-7.49003E-01 5.61263E-14-2.73010E-13
 -1      4146 1.84458E+01 6.98808E-01-1.54367E-02-9.61351E-01 1.28543E-13-4.20157E-13
 -1      4147 1.87045E+01 4.85612E-01 1.31487E-02-1.23064E+00 1.26368E-13 3.26962E-14
 -1      4148 1.89146E+01 5.60338E-01-7.94620E-04-7.97256E-01-7.97874E-14-7.85439E-14
 -1      4149 1.97725E+01 3.05715E-01-1.17614E-04 1.67535E-02-2.95812E-13-3.97119E-14
 -1      4150 1.97268E+01 3.39945E-01-1.77250E-03 1.21611E-02-3.34503E-13 2.00087E-14
 -1      4151 1.84270E+01 1.71722E-01 9.59098E-03-1.96569E+00 2.80631E-13 1.55753E-14
 -1      4152 1.90425E+01-8.04463E-02 2.28522E-03-1.76138E+00 2.28573E-13 2.27441E-13
 -1      4153 1.98404E+01 2.42557E-01-2.21577E-04 2.47343E-02-2.56030E-13-8.94023E-15
 -1      4154 1.98069E+01 2.72317E-01-1.20276E-03 2.48131E-02-3.51002E-13-1.18709E-13
 -1      4155 1.97897E+01 2.86158E-01 1.02588E-03-1.20887E-02-2.83785E-13-3.38789E-13
 -1      4156 1.98514E+01 2.29261E-01 8.71113E-04 2.16520E-03-3.35485E-13-3.91971E-13
 -1      4157 2.21614E+01-2.39099E+00 1.65314E-02 2.00940E+00-3.69459E-14 5.30743E-14
 -1      4158 2.00418E+01 7.53313E-01-3.11960E-03 2.16835E-01 4.35990E-14-1.07638E-13
 -1      4159 1.96830E+01 3.78349E-01 1.12771E-04-3.56120E-03-4.05271E-13 1.26982E-13
 -1      4160 1.96204E+01 4.16993E-01-2.56406E-03-1.64538E-02-2.56749E-13 5.23601E-14
 -1      4161 1.97092E+01 3.50198E-01 1.19412E-03-3.95022E-02-2.43251E-13-8.09655E-14
 -1      4162 1.95654E+01 4.58520E-01 1.92385E-04-4.42983E-02-1.71433E-13 7.84364E-14
 -1      4163 1.94799E+01 5.00349E-01-4.28983E-03-7.26799E-02-1.10891E-13 5.95155E-14
 -1      4164 1.96070E+01 4.19251E-01 1.72805E-03-8.72793E-02-2.81092E-13 7.04540E-15
 -1      4165 1.99732E+01 7.48191E-02-8.79279E-05-2.01662E-03 3.07181E-13-2.31449E-13
 -1      4166 1.99631E+01 9.25965E-02 6.51043E-05-1.21484E-03 1.68299E-13-9.53450E-14
 -1      4167 1.87194E+01 4.63640E-01-5.17379E-03 1.18056E+00 1.23893E-13-7.31910E-14
 -1      4168 1.88910E+01 5.68894E-01 1.07939E-02 9.17857E-01 8.56293E-14-2.35678E-14
 -1      4169 1.91624E+01 3.86546E-01-6.13633E-03 9.66035E-01 1.13660E-13-4.63447E-14
 -1      4170 1.90587E+01 1.40889E-01-1.17039E-02 1.39892E+00 9.94142E-14-4.54452E-14
 -1      4171 1.97755E+01 4.88110E-01-4.29151E-03 4.56292E-01 7.68261E-14-5.08571E-14
 -1      4172 1.97409E+01 4.28564E-01 5.93937E-03 5.58880E-01 7.93130E-14-6.67824E-14
 -1      4173 1.95437E+01 3.72118E-01-2.07098E-03 7.30770E-01 7.31825E-14-7.70711E-14
 -1      4174 1.95222E+01 2.94903E-01 9.55669E-03 8.75915E-01 8.36687E-14-8.82487E-14
 -1      4175 1.94494E+01 1.94467E-01 2.40711E-03 1.05864E+00 1.20917E-13-8.62966E-14
 -1      4176 1.94683E+01 6.23101E-02 1.10448E-02 1.24299E+00 1.15475E-13-6.37115E-14
 -1      4177 1.94447E+01-9.49199E-02 4.69539E-03 1.47038E+00 1.01826E-13-7.60568E-14
 -1      4178 1.91646E+01 1.29689E-01-8.09429E-05-1.28286E+00 1.33290E-13 1.99802E-13
 -1      4179 1.91243E+01 2.71978E-01-3.63213E-03-1.07434E+00 1.15711E-13 2.26741E-13
 -1      4180 1.71629E+01 1.02104E+00 2.97704E-02-1.58515E+00 1.41792E-14-5.81181E-13
 -1      4181 1.91446E+01 3.75175E-01 1.04039E-03-8.96097E-01 2.30686E-14 1.78431E-13
 -1      4182 1.92526E+01 4.12416E-01 7.02943E-03-7.22466E-01-1.01855E-13 1.56529E-13
 -1      4183 1.92658E+01 4.46480E-01-7.99338E-04-5.99912E-01-7.64417E-14 7.73126E-14
 -1      4184 1.93662E+01 4.52727E-01 5.00584E-03-4.76586E-01-6.48859E-14 7.56127E-14
 -1      4185 1.93942E+01 4.58584E-01-7.71855E-04-3.89003E-01-1.30504E-13-1.36778E-15
 -1      4186 1.95370E+01 4.14987E-01-1.99964E-04-2.49230E-01-1.62024E-13 1.18438E-13
 -1      4187 1.95816E+01 4.00307E-01-1.55925E-03-1.92532E-01-1.68889E-13 5.07282E-14
 -1      4188 1.96258E+01 3.82686E-01-8.88618E-04-1.50080E-01-9.72984E-14-1.08277E-14
 -1      4189 1.96854E+01 3.52033E-01 1.00476E-03-1.16926E-01-1.26396E-13-5.90022E-14
 -1      4190 1.97176E+01 3.25928E-01-1.27901E-03-8.91358E-02-2.28175E-13-2.05203E-13
 -1      4191 1.97641E+01 2.97668E-01 6.21692E-04-6.87443E-02-1.57234E-13-2.43850E-13
 -1      4192 1.97913E+01 2.71595E-01-1.06088E-03-5.07291E-02-2.11374E-13-2.08202E-13
 -1      4193 1.98275E+01 2.45007E-01 3.08997E-04-3.88328E-02-3.04220E-13-2.32192E-13
 -1      4194 1.98496E+01 2.20836E-01-8.67973E-04-2.72401E-02-2.27891E-13-1.84542E-13
 -1      4195 1.98769E+01 1.97310E-01 1.22374E-04-2.08421E-02-2.07911E-13-2.38004E-13
 -1      4196 1.98944E+01 1.75955E-01-6.91300E-04-1.34745E-02-2.46073E-13-1.47798E-13
 -1      4197 1.99147E+01 1.55779E-01 2.27833E-05-1.03899E-02-4.38532E-14-4.07013E-14
 -1      4198 1.99280E+01 1.37561E-01-5.37367E-04-5.76353E-03 9.92833E-14 1.17728E-14
 -1      4199 1.99428E+01 1.20771E-01-1.48312E-05-4.58864E-03 1.15813E-13-1.90359E-14
 -1      4200 1.99527E+01 1.05811E-01-3.45350E-04-1.81077E-03 1.22954E-13-6.92705E-15
 -1      4201 1.90649E+01-1.36694E-02-2.05933E-02-1.53625E+00 1.23349E-13 3.10138E-13
 -1      4202 1.78438E+01 3.96898E-01-5.21833E-03-1.99187E+00 2.28071E-13-2.66449E-13
 -1      4203 1.94129E+01 5.47853E-01 1.35723E-03-1.16460E-01-2.05577E-13 6.11371E-14
 -1      4204 1.93009E+01 5.87026E-01-5.17504E-03-1.66181E-01-5.66670E-14 6.06020E-15
 -1      4205 1.93152E+01 5.44405E-01 2.68319E-04-2.99991E-01-9.32766E-14 1.18587E-14
 -1      4206 1.94762E+01 4.96833E-01 4.33477E-03-1.66749E-01-1.37178E-13 2.39529E-13
 -1      4207 1.99494E+01 7.94315E-01-3.36108E-03 1.34538E-01 7.05158E-14 2.24697E-14
 -1      4208 1.99940E+01 8.08337E-01 1.82581E-03 1.65955E-01 4.87619E-14-2.19189E-14
 -1      4209 1.98289E+01 7.27267E-01-1.86021E-03 1.52793E-01 6.73056E-14 5.63300E-14
 -1      4210 1.94570E+01 5.12907E-01-5.94376E-05 5.99506E-01 6.89090E-14-1.62312E-14
 -1      4211 1.93698E+01 6.43101E-01-5.99815E-03 3.99608E-01 4.04887E-14 4.93914E-15
 -1      4212 1.99540E+01 6.55116E-01-1.24360E-03 2.63962E-01 6.06847E-14-4.24612E-14
 -1      4213 1.99005E+01 5.81467E-01 7.85732E-04 3.37008E-01 6.99897E-14-2.88256E-14
 -1      4214 1.95639E+01 6.46792E-01 1.56439E-03 3.12066E-01 3.41666E-14 9.15183E-15
 -1      4215 1.97801E+01 6.30907E-01 3.14444E-03 3.13374E-01 5.92560E-14 7.07745E-15
 -1      4216 1.94729E+01 4.38793E-01-6.11715E-04-3.07118E-01-1.34271E-13 5.92614E-14
 -1      4217 1.99771E+01 6.91127E-02 6.66082E-05-5.66651E-03 4.56063E-13-1.90135E-13
 -1      4218 1.97013E+01 6.56146E-01-5.32454E-04 2.56060E-01 5.94707E-14 3.59475E-14
 -1      4219 1.99725E+01 7.63383E-02-2.39182E-05-5.99756E-03 3.69141E-13-1.31223E-13
 -3
    1PSTEP                         3           1           1          
  100CL  101 1.000000000        4219                     0    1           1
 -4  TOSTRAIN    6    1
 -5  EXX         1    4    1    1
 -5  EYY         1    4    2    2
 -5  EZZ         1    4    3    3
 -5  EXY         1    4    1    2
 -5  EYZ         1    4    2    3
 -5  EZX         1    4    3    1
 -1         1 3.73777E-05-1.18284E-04 2.21590E-05 1.99662E-05-7.05144E-18 5.44973E-19
 -1         2 3.98001E-05-1.20705E-04 2.23814E-05-8.21862E-07 6.67356E-18-5.54092E-19
 -1         3 9.52376E-05-2.85707E-05-2.85712E-05 1.03209E-09-6.28196E-19-2.51237E-18
 -1         4 9.52375E-05-2.85708E-05-2.85711E-05-8.63530E-10 6.55050E-19 6.98966E-20
 -1         5 1.45710E-04 2.57623E-10-4.39920E-05 5.39467E-05 1.67713E-19 1.45884E-17
 -1         6 1.44839E-04 2.57004E-10-4.40754E-05-5.32714E-05-9.10137E-19 8.30632E-18
 -1         7 9.05902E-05-5.25920E-07-3.90335E-05-2.90263E-05-1.18161E-19-6.73312E-19
 -1         8 8.52105E-05 7.77781E-08-3.63620E-05-1.99817E-05-9.61912E-20-2.84167E-18
 -1         9 8.29343E-05 7.12767E-08-3.53946E-05-1.53045E-05-6.20584E-20-3.70979E-18
 -1        10 8.18825E-05 3.56177E-08-3.49250E-05-1.17282E-05-3.18961E-21-3.92301E-18
 -1        11 8.13210E-05 1.84572E-08-3.46840E-05-8.68762E-06 1.25103E-20-3.81266E-18
 -1        12 8.10061E-05 9.63563E-09-3.45544E-05-6.01983E-06 3.99479E-20-3.59032E-18
 -1        13 8.08257E-05 6.10052E-09-3.44832E-05-3.51642E-06 4.39216E-20-3.33896E-18
 -1        14 8.07453E-05 4.80857E-09-3.44524E-05-1.13429E-06 6.55561E-20-3.03996E-18
 -1        15 8.07498E-05 4.78697E-09-3.44546E-05 1.20590E-06 9.63450E-20-2.74001E-18
 -1        16 8.08399E-05 5.97492E-09-3.44899E-05 3.58184E-06 1.06034E-19-2.37194E-18
 -1        17 8.10321E-05 8.71048E-09-3.45658E-05 6.07674E-06 1.32392E-19-1.89412E-18
 -1        18 8.13587E-05 1.70720E-08-3.46999E-05 8.73663E-06 1.51559E-19-1.21669E-18
 -1        19 8.19302E-05 3.50188E-08-3.49448E-05 1.17788E-05 1.69857E-19-2.99628E-19
 -1        20 8.29893E-05 7.16379E-08-3.54177E-05 1.53670E-05 2.14418E-19 1.09418E-18
 -1        21 8.52735E-05 8.53586E-08-3.63926E-05 2.00655E-05 1.79703E-19 3.44546E-18
 -1        22 9.04638E-05-3.96851E-07-3.90419E-05 2.90648E-05 2.22346E-20 6.92656E-18
 -1        23 1.12753E-04-3.80549E-05-3.53337E-05-4.34430E-06-6.75773E-19 5.33101E-18
 -1        24 9.28600E-05-2.77158E-05-2.90111E-05 3.96599E-07-1.61347E-19 2.80483E-18
 -1        25 8.93953E-05-2.69364E-05-2.70112E-05 3.77791E-07-6.92416E-20 6.26249E-19
 -1        26 8.85291E-05-2.66439E-05-2.65476E-05 2.06947E-07-4.14335E-20-1.05018E-18
 -1        27 8.88384E-05-2.67070E-05-2.66261E-05 1.44940E-07-3.26803E-20-2.26532E-18
 -1        28 8.97182E-05-2.69470E-05-2.69003E-05 1.09209E-07-1.25022E-20-2.96744E-18
 -1        29 9.08891E-05-2.72839E-05-2.72577E-05 8.75478E-08 1.46930E-20-3.18190E-18
 -1        30 9.21916E-05-2.76658E-05-2.76502E-05 7.35872E-08 3.81735E-20-3.18977E-18
 -1        31 9.35122E-05-2.80558E-05-2.80452E-05 6.36767E-08-2.27344E-20-3.69232E-18
 -1        32 9.47463E-05-2.84209E-05-2.84118E-05 5.49448E-08-8.69666E-20-4.67720E-18
 -1        33 9.57755E-05-2.87252E-05-2.87141E-05 4.43776E-08 3.22444E-19-5.02250E-18
 -1        34 9.64541E-05-2.89249E-05-2.89083E-05 2.85121E-08-6.20776E-20-4.84753E-18
 -1        35 9.66072E-05-2.89680E-05-2.89427E-05 3.73328E-09-3.45166E-20-5.63460E-18
 -1        36 9.60473E-05-2.87988E-05-2.87636E-05-3.26573E-08-2.48762E-20-5.91728E-18
 -1        37 9.46150E-05-2.83704E-05-2.83274E-05-8.05107E-08-2.46781E-19-6.72008E-18
 -1        38 9.22460E-05-2.76639E-05-2.76206E-05-1.34438E-07-8.98525E-21-7.31246E-18
 -1        39 8.90508E-05-2.67122E-05-2.66813E-05-1.82299E-07-1.92488E-19-8.01200E-18
 -1        40 8.53765E-05-2.56184E-05-2.56145E-05-2.06695E-07 3.51926E-19-8.06652E-18
 -1        41 8.18016E-05-2.45543E-05-2.45871E-05-1.91060E-07 2.30980E-19-7.36743E-18
 -1        42 7.90293E-05-2.37292E-05-2.37967E-05-1.29002E-07-2.47757E-20-7.27225E-18
 -1        43 7.76863E-05-2.33295E-05-2.34159E-05-3.14204E-08-8.47984E-20-6.47527E-18
 -1        44 7.81054E-05-2.34545E-05-2.35357E-05 7.53076E-08-1.80471E-19-7.06125E-18
 -1        45 8.01995E-05-2.40783E-05-2.41325E-05 1.60612E-07-3.05875E-20-8.10003E-18
 -1        46 8.34981E-05-2.50606E-05-2.50778E-05 2.03777E-07 1.91481E-19-7.64487E-18
 -1        47 8.73248E-05-2.62002E-05-2.61841E-05 2.01802E-07 2.20980E-19-6.63225E-18
 -1        48 9.10210E-05-2.73013E-05-2.72647E-05 1.66656E-07 2.00213E-19-6.02279E-18
 -1        49 9.41118E-05-2.82229E-05-2.81803E-05 1.16365E-07 1.96664E-19-5.77274E-18
 -1        50 9.63665E-05-2.88965E-05-2.88587E-05 6.66251E-08-2.40413E-19-5.93027E-18
 -1        51 9.77692E-05-2.93171E-05-2.92894E-05 2.67751E-08 7.69336E-20-4.14865E-18
 -1        52 9.84436E-05-2.95211E-05-2.95043E-05-1.17681E-10 2.09871E-19-3.80972E-18
 -1        53 9.85750E-05-2.95633E-05-2.95554E-05-1.51326E-08-2.71379E-19-4.31227E-18
 -1        54 9.83523E-05-2.94994E-05-2.94978E-05-2.12101E-08-3.39212E-19-6.27715E-18
 -1        55 9.79354E-05-2.93771E-05-2.93789E-05-2.15527E-08-2.13014E-19-9.14721E-18
 -1        56 9.74429E-05-2.92315E-05-2.92348E-05-1.88090E-08-4.93576E-19-9.30231E-18
 -1        57 9.69534E-05-2.90861E-05-2.90897E-05-1.48328E-08 2.38505E-19-8.84892E-18
 -1        58 9.65121E-05-2.89547E-05-2.89579E-05-1.07540E-08 3.58252E-19-7.85156E-18
 -1        59 9.61403E-05-2.88437E-05-2.88462E-05-7.15895E-09-6.06189E-19-6.71304E-18
 -1        60 9.58433E-05-2.87548E-05-2.87565E-05-4.27606E-09-3.92277E-20-4.03573E-18
 -1        61 9.56168E-05-2.86868E-05-2.86879E-05-2.12456E-09 6.32295E-19-3.56323E-18
 -1        62 9.54517E-05-2.86371E-05-2.86378E-05-6.18118E-10-4.92661E-19-2.14612E-18
 -1        63 9.53375E-05-2.86026E-05-2.86029E-05 3.70055E-10-5.27308E-19-4.71054E-18
 -1        64 9.52632E-05-2.85801E-05-2.85801E-05 9.70501E-10 5.63832E-19-5.77162E-18
 -1        65 9.52196E-05-2.85667E-05-2.85667E-05 1.29945E-09-9.98084E-20-7.30104E-18
 -1        66 9.51983E-05-2.85602E-05-2.85600E-05 1.45192E-09 4.29102E-20-6.96045E-18
 -1        67 9.51930E-05-2.85584E-05-2.85582E-05 1.50081E-09 3.91504E-19-4.50802E-18
 -1        68 9.51982E-05-2.85598E-05-2.85596E-05 1.49629E-09 2.71835E-20-2.20999E-18
 -1        69 9.52097E-05-2.85631E-05-2.85629E-05 1.45616E-09-1.95734E-19-1.08213E-18
 -1        70 9.52234E-05-2.85671E-05-2.85667E-05 1.27202E-09 6.75059E-19 1.72912E-18
 -1        71 9.52346E-05-2.85707E-05-2.85697E-05 7.79442E-10-1.16018E-19 2.04783E-18
 -1        72 1.13657E-04-3.81674E-05-3.56419E-05 4.90871E-06 1.08156E-19 1.36940E-17
 -1        73 9.31148E-05-2.77956E-05-2.91532E-05-4.10937E-07 6.65384E-20 1.27517E-17
 -1        74 8.94250E-05-2.69432E-05-2.70426E-05-3.79862E-07 4.06427E-20 1.10947E-17
 -1        75 8.84974E-05-2.66385E-05-2.65434E-05-2.05484E-07-3.65713E-20 1.00599E-17
 -1        76 8.88281E-05-2.67081E-05-2.66247E-05-1.44239E-07-5.83245E-20 9.62973E-18
 -1        77 8.97774E-05-2.69737E-05-2.69209E-05-1.01625E-07 1.28278E-19 8.99924E-18
 -1        78 9.12123E-05-2.73923E-05-2.73623E-05-7.97090E-08 4.77420E-20 9.00343E-18
 -1        79 9.30496E-05-2.79392E-05-2.79232E-05-6.70510E-08 1.41685E-19 8.60170E-18
 -1        80 9.53431E-05-2.86276E-05-2.86236E-05-6.43326E-08-1.24325E-20 8.18500E-18
 -1        81 9.82507E-05-2.94989E-05-2.95154E-05-8.10979E-08-7.69770E-20 8.40090E-18
 -1        82 1.01846E-04-3.05833E-05-3.06204E-05-1.02027E-07-3.97460E-21 8.66505E-18
 -1        83 1.06877E-04-3.20911E-05-3.21726E-05-1.64906E-07 9.03447E-21 8.57452E-18
 -1        84 1.13728E-04-3.41383E-05-3.42838E-05-2.76706E-07 5.48040E-20 8.37610E-18
 -1        85 1.22979E-04-3.68937E-05-3.71091E-05-4.61417E-07 1.75733E-19 8.41292E-18
 -1        86 1.34965E-04-4.04639E-05-4.06764E-05-7.20377E-07 1.68507E-19 7.66287E-18
 -1        87 1.48933E-04-4.46632E-05-4.46062E-05-9.44031E-07-1.88407E-19 8.03331E-18
 -1        88 1.61200E-04-4.84014E-05-4.76635E-05-8.27922E-07 1.21169E-19 1.01358E-17
 -1        89 1.65820E-04-4.99828E-05-4.81867E-05 3.81830E-07-1.99205E-19 1.31338E-17
 -1        90 1.52090E-04-4.58904E-05-4.42227E-05 3.12596E-06-1.54504E-19 1.54989E-17
 -1        91 1.18492E-04-3.50895E-05-3.67856E-05 5.36744E-06 8.26777E-19 1.55287E-17
 -1        92 8.81722E-05-2.49709E-05-3.08411E-05 2.94719E-06 5.27146E-20 1.25666E-17
 -1        93 8.19041E-05-2.31426E-05-2.97307E-05-1.44744E-06-2.63348E-19 1.10189E-17
 -1        94 1.04154E-04-3.05656E-05-3.38257E-05-5.17948E-06 2.81645E-19 8.66218E-18
 -1        95 1.36779E-04-4.10034E-05-4.06768E-05-4.53749E-06-1.50100E-19 6.35105E-18
 -1        96 1.61349E-04-4.86675E-05-4.67142E-05-1.77615E-06 3.31005E-19 5.51387E-18
 -1        97 1.66075E-04-4.99758E-05-4.86118E-05 3.30416E-07 8.60466E-20 4.19082E-18
 -1        98 1.56766E-04-4.70431E-05-4.66460E-05 9.67613E-07 2.92395E-19 2.26385E-18
 -1        99 1.42912E-04-4.28422E-05-4.29755E-05 8.55960E-07-5.17872E-19 3.53049E-18
 -1       100 1.29969E-04-3.89711E-05-3.92147E-05 5.70044E-07 9.14796E-20 4.70379E-18
 -1       101 1.20091E-04-3.60435E-05-3.62301E-05 3.59609E-07 5.96961E-19 1.61108E-18
 -1       102 1.12397E-04-3.37430E-05-3.38653E-05 2.04392E-07-2.98133E-19 1.62489E-18
 -1       103 1.06953E-04-3.21134E-05-3.21818E-05 1.11249E-07 2.38310E-19 1.01582E-18
 -1       104 1.03173E-04-3.09777E-05-3.10129E-05 5.87980E-08 3.31307E-19-1.38196E-18
 -1       105 1.00578E-04-3.01930E-05-3.02113E-05 2.61727E-08-4.15250E-19 1.52322E-18
 -1       106 9.88654E-05-2.96773E-05-2.96846E-05 1.48562E-08-1.48902E-19 3.22020E-18
 -1       107 9.76203E-05-2.92987E-05-2.93020E-05 5.49735E-09 7.79442E-20 2.33288E-18
 -1       108 9.67709E-05-2.90407E-05-2.90415E-05 8.77433E-10 2.46426E-19 1.15916E-18
 -1       109 9.61935E-05-2.88650E-05-2.88647E-05-1.43166E-09-2.01324E-20 5.18494E-19
 -1       110 9.58044E-05-2.87465E-05-2.87457E-05-2.47207E-09-7.48544E-19 4.42638E-18
 -1       111 9.55463E-05-2.86675E-05-2.86667E-05-3.34026E-09 9.93024E-19 3.18841E-18
 -1       112 9.53856E-05-2.86186E-05-2.86176E-05-2.83104E-09-4.04283E-19 1.53410E-18
 -1       113 9.52787E-05-2.85856E-05-2.85848E-05-2.80440E-09 4.47345E-19 7.14612E-19
 -1       114 9.52166E-05-2.85664E-05-2.85658E-05-2.58552E-09-4.17077E-19 3.37369E-18
 -1       115 9.51851E-05-2.85566E-05-2.85560E-05-2.33725E-09 3.92442E-19 5.36514E-18
 -1       116 9.51744E-05-2.85530E-05-2.85526E-05-2.19146E-09 1.48050E-18 4.30218E-19
 -1       117 9.51772E-05-2.85536E-05-2.85533E-05-1.90221E-09-4.41593E-20 2.44196E-19
 -1       118 9.51885E-05-2.85568E-05-2.85566E-05-1.77323E-09 2.53502E-19 3.30272E-18
 -1       119 9.52045E-05-2.85615E-05-2.85613E-05-1.64204E-09 1.96337E-19 2.94985E-18
 -1       120 9.52214E-05-2.85665E-05-2.85660E-05-1.39930E-09 5.34558E-19 3.13342E-18
 -1       121 9.52344E-05-2.85706E-05-2.85696E-05-7.88679E-10-9.61587E-19 1.14864E-19
 -1       122 9.52382E-05-2.85747E-05-2.85697E-05-1.30573E-09 4.10154E-18 9.05016E-19
 -1       123 9.52417E-05-2.85863E-05-2.85665E-05-1.29141E-09 1.39542E-17-1.44747E-19
 -1       124 9.52459E-05-2.86002E-05-2.85626E-05-1.07349E-09 7.10333E-18-1.02163E-18
 -1       125 9.52493E-05-2.86115E-05-2.85594E-05-6.96798E-10 1.53344E-18 2.03062E-18
 -1       126 9.52514E-05-2.86186E-05-2.85572E-05-3.45853E-10-2.63524E-20-1.74500E-18
 -1       127 9.52523E-05-2.86218E-05-2.85561E-05-1.08331E-10-1.12773E-17 8.36600E-20
 -1       128 9.52525E-05-2.86223E-05-2.85559E-05 2.98629E-11-5.58828E-18 1.53278E-18
 -1       129 9.52522E-05-2.86213E-05-2.85561E-05 8.08526E-11-9.76417E-20 3.06931E-19
 -1       130 9.52517E-05-2.86197E-05-2.85566E-05 8.85402E-11-3.80778E-18 1.10523E-18
 -1       131 9.52512E-05-2.86180E-05-2.85571E-05 1.03610E-10-8.55742E-18-1.47553E-19
 -1       132 9.52505E-05-2.86157E-05-2.85579E-05 1.78211E-10-1.21431E-17-3.05213E-19
 -1       133 9.52494E-05-2.86119E-05-2.85591E-05 3.30293E-10-1.69211E-17 1.29175E-18
 -1       134 9.52474E-05-2.86054E-05-2.85611E-05 5.91034E-10-1.06038E-17 1.70230E-18
 -1       135 9.52446E-05-2.85959E-05-2.85639E-05 9.29879E-10-4.73029E-18 7.00232E-19
 -1       136 9.52412E-05-2.85845E-05-2.85671E-05 1.55039E-09-2.13184E-18 1.06812E-20
 -1       137 9.52381E-05-2.85745E-05-2.85698E-05 1.12813E-09-2.47163E-18-1.59741E-19
 -1       138 3.22115E-05-1.08703E-04 2.03755E-05-2.89706E-05 1.36686E-17 3.35974E-18
 -1       139 1.12309E-05-5.94737E-05 9.85746E-06-3.40658E-05 2.09459E-17 9.34743E-18
 -1       140 7.02833E-06-3.61841E-06-8.81754E-06 2.15551E-06 1.74713E-17 1.21003E-17
 -1       141 4.81347E-05 2.19618E-05-3.20243E-05 6.33940E-05 1.17488E-17 1.35081E-17
 -1       142 1.49779E-04-3.69899E-06-5.69915E-05 1.14371E-04 6.80379E-18 1.00407E-17
 -1       143 2.79420E-04-6.55192E-05-7.80073E-05 1.06569E-04 1.01792E-18 4.88399E-18
 -1       144 3.61074E-04-1.10999E-04-8.87145E-05 3.55811E-05 2.22611E-19-3.33138E-18
 -1       145 3.49688E-04-1.04466E-04-8.73564E-05-5.74759E-05 2.18385E-18-1.11042E-17
 -1       146 2.48567E-04-4.90700E-05-7.37140E-05-1.16080E-04 7.09941E-18-1.73087E-17
 -1       147 1.15119E-04 8.23464E-06-4.95758E-05-1.02192E-04 1.18635E-17-1.86839E-17
 -1       148 2.88440E-05 2.02261E-05-2.48528E-05-4.38371E-05 1.24209E-17-1.20668E-17
 -1       149 3.87397E-06-2.06972E-05-1.61118E-06 1.49954E-05 7.69021E-18-4.97314E-18
 -1       150 1.85984E-05-7.92280E-05 1.44474E-05 3.63815E-05 1.80503E-18-5.87100E-19
 -1       151 3.72588E-05-1.14911E-04 2.13643E-05-9.93311E-06-1.34973E-17-1.37346E-18
 -1       152 2.01328E-05-7.20472E-05 1.24641E-05-2.45650E-05-1.66450E-17-4.59304E-18
 -1       153 5.44317E-06-1.51349E-05-2.24352E-06-6.92411E-06-1.57260E-17-8.23020E-18
 -1       154 2.01048E-05 2.67727E-05-2.19886E-05 4.27502E-05-1.32116E-17-1.07726E-17
 -1       155 7.67271E-05 2.82430E-05-4.21834E-05 9.53991E-05-1.01292E-17-1.21105E-17
 -1       156 1.66122E-04-8.55032E-06-6.03342E-05 1.20301E-04-5.88053E-18-1.04693E-17
 -1       157 2.65409E-04-6.40916E-05-7.54642E-05 9.46435E-05-1.51709E-18-4.49499E-18
 -1       158 3.16790E-04-9.66101E-05-8.19948E-05 2.64080E-05 2.11758E-20 2.43564E-18
 -1       159 3.03865E-04-8.81710E-05-8.04389E-05-5.57640E-05-1.86949E-18 9.86942E-18
 -1       160 2.30675E-04-4.37070E-05-7.05246E-05-1.11238E-04-5.30465E-18 1.43233E-17
 -1       161 1.33473E-04 7.67568E-06-5.47328E-05-1.17177E-04-8.80406E-18 1.40082E-17
 -1       162 4.83518E-05 3.31634E-05-3.40150E-05-7.54887E-05-1.03690E-17 1.04977E-17
 -1       163 7.75918E-06 1.26768E-05-1.27605E-05-1.78194E-05-1.03003E-17 7.04562E-18
 -1       164 9.57115E-06-3.81437E-05 4.36368E-06 1.84348E-05-8.00150E-18 3.67506E-18
 -1       165 2.81828E-05-9.26241E-05 1.68314E-05 2.20736E-05-1.05816E-18 5.03720E-20
 -1       166 9.49752E-05-1.24250E-05-3.55791E-05-2.20334E-05-1.56270E-18-1.54051E-18
 -1       167 8.93975E-05-8.50360E-06-3.48295E-05-1.70320E-05-1.09223E-18-2.71261E-18
 -1       168 8.66800E-05-6.51456E-06-3.44663E-05-1.32212E-05-5.74894E-19-3.16017E-18
 -1       169 8.52449E-05-5.46080E-06-3.42752E-05-1.00081E-05-1.71620E-19-3.23082E-18
 -1       170 8.44161E-05-4.83297E-06-3.41748E-05-7.23544E-06 1.85044E-19-3.10584E-18
 -1       171 8.39081E-05-4.43529E-06-3.41198E-05-4.67399E-06 5.42189E-19-2.95000E-18
 -1       172 8.36309E-05-4.21131E-06-3.40932E-05-2.27591E-06 7.65969E-19-2.63980E-18
 -1       173 8.35420E-05-4.13443E-06-3.40868E-05 4.11292E-08 1.05312E-18-2.38207E-18
 -1       174 8.36318E-05-4.19943E-06-3.40986E-05 2.35372E-06 1.28480E-18-2.10906E-18
 -1       175 8.39154E-05-4.41736E-06-3.41305E-05 4.74028E-06 1.50342E-18-1.73351E-18
 -1       176 8.44262E-05-4.80965E-06-3.41889E-05 7.24328E-06 1.72842E-18-1.21493E-18
 -1       177 8.52860E-05-5.45829E-06-3.42940E-05 1.00527E-05 1.96997E-18-5.11178E-19
 -1       178 8.67477E-05-6.53609E-06-3.44863E-05 1.32689E-05 2.06854E-18 5.35298E-19
 -1       179 8.94928E-05-8.55375E-06-3.48486E-05 1.70985E-05 1.93510E-18 2.18548E-18
 -1       180 9.50917E-05-1.25318E-05-3.55721E-05 2.21520E-05 1.44141E-18 4.57295E-18
 -1       181 1.03458E-04-2.73371E-05-3.26206E-05-1.18972E-05-1.44927E-18 4.98585E-19
 -1       182 9.73224E-05-2.83531E-05-2.95926E-05-4.50419E-06-1.17170E-18 2.39684E-20
 -1       183 9.39060E-05-2.77471E-05-2.83051E-05-1.51935E-06-9.64350E-19-4.75351E-19
 -1       184 9.25867E-05-2.75748E-05-2.78263E-05-1.23768E-07-7.44560E-19-9.70624E-19
 -1       185 9.22702E-05-2.75742E-05-2.77081E-05 6.04079E-07-5.13482E-19-1.24913E-18
 -1       186 9.25362E-05-2.77053E-05-2.77757E-05 9.98664E-07-1.93010E-19-1.19055E-18
 -1       187 9.31330E-05-2.79184E-05-2.79452E-05 1.19684E-06-3.58926E-20-1.41959E-18
 -1       188 9.39003E-05-2.81766E-05-2.81662E-05 1.25722E-06-2.05610E-19-1.29328E-18
 -1       189 9.47196E-05-2.84515E-05-2.84017E-05 1.19742E-06-3.80900E-19-1.24929E-18
 -1       190 9.54858E-05-2.87162E-05-2.86185E-05 1.01001E-06-3.64001E-19-1.10436E-18
 -1       191 9.60909E-05-2.89409E-05-2.87831E-05 6.73025E-07-2.08593E-19-2.04128E-18
 -1       192 9.64162E-05-2.90886E-05-2.88607E-05 1.62293E-07-3.03929E-19-2.45300E-18
 -1       193 9.63358E-05-2.91144E-05-2.88159E-05-5.30931E-07-1.73247E-19-2.61551E-18
 -1       194 9.57325E-05-2.89687E-05-2.86197E-05-1.37656E-06-2.86067E-19-2.40977E-18
 -1       195 9.45307E-05-2.86079E-05-2.82578E-05-2.28150E-06-2.17751E-19-1.87508E-18
 -1       196 9.27416E-05-2.80137E-05-2.77431E-05-3.07719E-06-2.25115E-19-2.11373E-18
 -1       197 9.05097E-05-2.72183E-05-2.71239E-05-3.53744E-06 9.46001E-20-1.79893E-18
 -1       198 8.81356E-05-2.63248E-05-2.64856E-05-3.44043E-06 2.51213E-19-2.54887E-18
 -1       199 8.60442E-05-2.55045E-05-2.59376E-05-2.66670E-06-2.89235E-19-2.79947E-18
 -1       200 8.46852E-05-2.49555E-05-2.55885E-05-1.28909E-06 1.14565E-20-3.19734E-18
 -1       201 8.43875E-05-2.48299E-05-2.55143E-05 4.09422E-07-4.16226E-19-3.47037E-18
 -1       202 8.52361E-05-2.51672E-05-2.57345E-05 2.02443E-06-5.54934E-19-4.04700E-18
 -1       203 8.70396E-05-2.58766E-05-2.62058E-05 3.18624E-06 6.76970E-19-3.21125E-18
 -1       204 8.94072E-05-2.67789E-05-2.68371E-05 3.69714E-06 8.47420E-19-2.77829E-18
 -1       205 9.18914E-05-2.76823E-05-2.75183E-05 3.57440E-06-7.23522E-20-2.74063E-18
 -1       206 9.41201E-05-2.84445E-05-2.81499E-05 2.99389E-06 4.52799E-20-3.40299E-18
 -1       207 9.58661E-05-2.89962E-05-2.86638E-05 2.18911E-06 2.98817E-19-3.49355E-18
 -1       208 9.70527E-05-2.93319E-05-2.90293E-05 1.36538E-06 8.53538E-19-2.59784E-18
 -1       209 9.77157E-05-2.94849E-05-2.92476E-05 6.57187E-07 1.07150E-19-1.91001E-18
 -1       210 9.79548E-05-2.95039E-05-2.93409E-05 1.25190E-07-8.89418E-19-2.50721E-18
 -1       211 9.78907E-05-2.94371E-05-2.93408E-05-2.25249E-07-1.29263E-18-3.02428E-18
 -1       212 9.76374E-05-2.93240E-05-2.92795E-05-4.20482E-07-1.50895E-18-3.00699E-18
 -1       213 9.72879E-05-2.91934E-05-2.91845E-05-4.99122E-07 1.08380E-19-3.07664E-18
 -1       214 9.69095E-05-2.90640E-05-2.90770E-05-4.99573E-07 5.27868E-20-1.93183E-18
 -1       215 9.65463E-05-2.89468E-05-2.89710E-05-4.53866E-07 2.86015E-19-3.01546E-18
 -1       216 9.62232E-05-2.88469E-05-2.88751E-05-3.85778E-07 6.12902E-19-3.12315E-18
 -1       217 9.59516E-05-2.87656E-05-2.87933E-05-3.11302E-07 5.33543E-19-4.06249E-18
 -1       218 9.57334E-05-2.87021E-05-2.87270E-05-2.40141E-07 4.86604E-19-2.68864E-18
 -1       219 9.55650E-05-2.86544E-05-2.86753E-05-1.77392E-07 4.50949E-19-2.52535E-18
 -1       220 9.54402E-05-2.86199E-05-2.86367E-05-1.25067E-07-4.51790E-19-1.65876E-18
 -1       221 9.53516E-05-2.85961E-05-2.86090E-05-8.32802E-08-7.63854E-19-1.79203E-18
 -1       222 9.52919E-05-2.85805E-05-2.85902E-05-5.11133E-08 2.10724E-22-2.46034E-18
 -1       223 9.52546E-05-2.85713E-05-2.85783E-05-2.71978E-08 3.53105E-19-4.50318E-19
 -1       224 9.52338E-05-2.85666E-05-2.85714E-05-1.00917E-08 1.28263E-18-2.16380E-19
 -1       225 9.52248E-05-2.85652E-05-2.85683E-05 1.47995E-09 2.17633E-18 2.65874E-19
 -1       226 9.52237E-05-2.85659E-05-2.85675E-05 8.46204E-09 7.74134E-19 4.17672E-19
 -1       227 9.52271E-05-2.85681E-05-2.85681E-05 1.12918E-08 1.26982E-18 4.07578E-19
 -1       228 9.52324E-05-2.85711E-05-2.85691E-05 9.87406E-09 2.17071E-19 9.16222E-20
 -1       229 1.03664E-04-2.71353E-05-3.27966E-05 1.23712E-05 1.03158E-18 6.46805E-18
 -1       230 9.75064E-05-2.83301E-05-2.96861E-05 4.71560E-06 1.06239E-18 5.77559E-18
 -1       231 9.40309E-05-2.77558E-05-2.83559E-05 1.58175E-06 8.56089E-19 5.05910E-18
 -1       232 9.27149E-05-2.75895E-05-2.78725E-05 8.68551E-08 5.51945E-19 4.20684E-18
 -1       233 9.24774E-05-2.76018E-05-2.77820E-05-7.20354E-07 3.65695E-19 3.77164E-18
 -1       234 9.29182E-05-2.77658E-05-2.79092E-05-1.29552E-06 1.07527E-19 3.65183E-18
 -1       235 9.38712E-05-2.80514E-05-2.81985E-05-1.77673E-06 1.98694E-19 3.57387E-18
 -1       236 9.52679E-05-2.84431E-05-2.86294E-05-2.28636E-06 3.69240E-19 3.56812E-18
 -1       237 9.71282E-05-2.89453E-05-2.92102E-05-2.93523E-06 1.25693E-19 2.99463E-18
 -1       238 9.94145E-05-2.95491E-05-2.99291E-05-3.77894E-06-2.72902E-19 2.75430E-18
 -1       239 1.02517E-04-3.03566E-05-3.09111E-05-5.01343E-06 3.82554E-20 2.84300E-18
 -1       240 1.06548E-04-3.14106E-05-3.21879E-05-6.71964E-06-1.13982E-19 3.17160E-18
 -1       241 1.11745E-04-3.28179E-05-3.38192E-05-8.92101E-06 2.23289E-19 3.31683E-18
 -1       242 1.18301E-04-3.47535E-05-3.58139E-05-1.13861E-05 2.73244E-19 2.98112E-18
 -1       243 1.26213E-04-3.75111E-05-3.80369E-05-1.32497E-05-2.83941E-19 3.36774E-18
 -1       244 1.34604E-04-4.12151E-05-4.00427E-05-1.26236E-05-1.20474E-18 3.58276E-18
 -1       245 1.43276E-04-4.63412E-05-4.15172E-05-6.23887E-06-1.91729E-18 4.56246E-18
 -1       246 1.49026E-04-5.07326E-05-4.21035E-05 8.32915E-06-1.68063E-18 6.14854E-18
 -1       247 1.47553E-04-4.84224E-05-4.27660E-05 2.52607E-05-5.45542E-20 7.28414E-18
 -1       248 1.39054E-04-3.78339E-05-4.40493E-05 2.67619E-05 2.12875E-18 8.22587E-18
 -1       249 1.30739E-04-2.81111E-05-4.50454E-05 8.94470E-06 2.97467E-18 6.52890E-18
 -1       250 1.33929E-04-3.17530E-05-4.46258E-05-1.85205E-05 1.48326E-18 4.20005E-18
 -1       251 1.42931E-04-4.30779E-05-4.33337E-05-2.88148E-05 1.27071E-18 2.96378E-18
 -1       252 1.49519E-04-5.08469E-05-4.24271E-05-1.84634E-05 8.81004E-19 1.78233E-18
 -1       253 1.47471E-04-4.92287E-05-4.20391E-05-1.01883E-06 3.92242E-19 1.40334E-18
 -1       254 1.40166E-04-4.41651E-05-4.11076E-05 9.88308E-06 9.53852E-19 1.80674E-18
 -1       255 1.31322E-04-3.95150E-05-3.93684E-05 1.31682E-05-8.09706E-19 1.94908E-18
 -1       256 1.23034E-04-3.62587E-05-3.72068E-05 1.21897E-05-5.73342E-19 1.67669E-18
 -1       257 1.16321E-04-3.41160E-05-3.52319E-05 9.90151E-06 8.14462E-19 2.02774E-18
 -1       258 1.10654E-04-3.25204E-05-3.34754E-05 7.42244E-06 5.45969E-19 3.28515E-18
 -1       259 1.06348E-04-3.13905E-05-3.21102E-05 5.35308E-06 1.00077E-18 1.57068E-18
 -1       260 1.03155E-04-3.05772E-05-3.10908E-05 3.78516E-06 1.48707E-18 1.45706E-18
 -1       261 1.00831E-04-2.99911E-05-3.03480E-05 2.65024E-06-8.94154E-19 2.22750E-18
 -1       262 9.92218E-05-2.95843E-05-2.98358E-05 1.87959E-06-2.31388E-19 6.39966E-19
 -1       263 9.79962E-05-2.92727E-05-2.94461E-05 1.30738E-06 5.57073E-19-4.81682E-20
 -1       264 9.71244E-05-2.90500E-05-2.91698E-05 9.05804E-07 9.01601E-19-1.18499E-18
 -1       265 9.65067E-05-2.88913E-05-2.89745E-05 6.24703E-07-3.99136E-19-1.85853E-19
 -1       266 9.60718E-05-2.87792E-05-2.88371E-05 4.27384E-07-8.11890E-19-1.45128E-18
 -1       267 9.57690E-05-2.87012E-05-2.87415E-05 2.88497E-07 2.81272E-19-1.96920E-18
 -1       268 9.55691E-05-2.86497E-05-2.86784E-05 1.94778E-07 1.16754E-18 1.27116E-18
 -1       269 9.54256E-05-2.86130E-05-2.86330E-05 1.25000E-07-1.38499E-18 1.54380E-18
 -1       270 9.53317E-05-2.85893E-05-2.86032E-05 7.59364E-08-6.97460E-19 3.10171E-18
 -1       271 9.52730E-05-2.85749E-05-2.85844E-05 4.18511E-08-1.00565E-18 8.93156E-19
 -1       272 9.52391E-05-2.85670E-05-2.85734E-05 1.84421E-08 2.04516E-18 1.90467E-18
 -1       273 9.52229E-05-2.85637E-05-2.85680E-05 3.38520E-09-9.43459E-19 3.16485E-18
 -1       274 9.52171E-05-2.85633E-05-2.85658E-05-6.81613E-09-1.18399E-18 4.61658E-18
 -1       275 9.52188E-05-2.85648E-05-2.85659E-05-1.25493E-08 9.56604E-20 4.55746E-18
 -1       276 9.52244E-05-2.85676E-05-2.85672E-05-1.42035E-08-9.48600E-19 5.27866E-18
 -1       277 9.52315E-05-2.85713E-05-2.85686E-05-1.16251E-08 1.13926E-18 5.75803E-18
 -1       278 9.52377E-05-2.85774E-05-2.85687E-05-1.11719E-08 2.89947E-18 5.35842E-18
 -1       279 9.52415E-05-2.85843E-05-2.85674E-05-1.24174E-08 2.93549E-18-4.57658E-18
 -1       280 9.52439E-05-2.85901E-05-2.85659E-05-9.96471E-09 3.50315E-18-2.44641E-18
 -1       281 9.52451E-05-2.85936E-05-2.85649E-05-6.05850E-09 8.27317E-19-1.41210E-18
 -1       282 9.52452E-05-2.85950E-05-2.85644E-05-2.49879E-09-1.39170E-18-6.79640E-18
 -1       283 9.52448E-05-2.85948E-05-2.85643E-05-9.28159E-14-6.55098E-19 2.09252E-18
 -1       284 9.52441E-05-2.85937E-05-2.85645E-05 1.21214E-09-1.48919E-18 2.19174E-18
 -1       285 9.52436E-05-2.85926E-05-2.85647E-05 1.48950E-09-1.80418E-18-1.53591E-18
 -1       286 9.52434E-05-2.85918E-05-2.85650E-05 1.47817E-09-5.39745E-19-2.04291E-18
 -1       287 9.52434E-05-2.85913E-05-2.85652E-05 1.87459E-09-3.27495E-18-2.89002E-18
 -1       288 9.52435E-05-2.85906E-05-2.85655E-05 3.15704E-09-3.68638E-18-1.43087E-18
 -1       289 9.52434E-05-2.85891E-05-2.85661E-05 5.46216E-09-2.19995E-18 3.73328E-18
 -1       290 9.52425E-05-2.85862E-05-2.85670E-05 8.29083E-09-2.59737E-18 3.50568E-18
 -1       291 9.52405E-05-2.85816E-05-2.85681E-05 9.95921E-09-9.89363E-19 2.09462E-18
 -1       292 9.52376E-05-2.85761E-05-2.85692E-05 1.18888E-08 2.52174E-19-5.40989E-19
 -1       293 1.19680E-05-5.46448E-05 1.44999E-05-1.57242E-06 4.81358E-18 3.95607E-18
 -1       294 2.20720E-05-5.13221E-05 8.90774E-06 1.10059E-05 6.50098E-18 5.63510E-18
 -1       295 5.19436E-05-4.66786E-05-4.69372E-06 2.86843E-05 6.59796E-18 2.88367E-18
 -1       296 9.39400E-05-4.50162E-05-2.24329E-05 3.69760E-05 6.40759E-18 3.49698E-18
 -1       297 1.45927E-04-4.43629E-05-4.30633E-05 4.03222E-05 5.47946E-18 2.78547E-18
 -1       298 1.98872E-04-4.71874E-05-6.22279E-05 2.75653E-05 4.08094E-18 1.81562E-18
 -1       299 2.26881E-04-4.28472E-05-7.45213E-05 9.05569E-06 3.83748E-18-3.51307E-19
 -1       300 2.44191E-04-4.54199E-05-7.94271E-05-2.28493E-06 4.05115E-18-1.41539E-18
 -1       301 2.24904E-04-4.49513E-05-7.28522E-05-1.52741E-05 4.71120E-18-2.94958E-18
 -1       302 1.85605E-04-5.02492E-05-5.64671E-05-2.14735E-05 3.91962E-18-3.09718E-18
 -1       303 1.28820E-04-4.34126E-05-3.68131E-05-4.11899E-05 2.85958E-18-7.47020E-18
 -1       304 7.46153E-05-4.25157E-05-1.59187E-05-3.41905E-05 1.24493E-18-5.81467E-18
 -1       305 3.84306E-05-4.74042E-05 8.44632E-07-2.22484E-05-2.97097E-19-3.20602E-18
 -1       306 1.71329E-05-5.33603E-05 1.17906E-05-6.69627E-06-2.72565E-18-3.70789E-18
 -1       307 1.14300E-05-5.46877E-05 1.48507E-05 5.38804E-06-4.88023E-18-3.09199E-18
 -1       308 1.70595E-05-4.81954E-05 1.03594E-05 1.84375E-05-5.47977E-18-2.66339E-18
 -1       309 3.48843E-05-4.17493E-05 5.66786E-07 2.99270E-05-6.54672E-18-2.87348E-18
 -1       310 6.56530E-05-3.45847E-05-1.44906E-05 4.29164E-05-6.03109E-18-3.63155E-18
 -1       311 1.02106E-04-2.76129E-05-3.17931E-05 5.10418E-05-5.72552E-18-4.58922E-18
 -1       312 1.44473E-04-2.78563E-05-4.85076E-05 5.24139E-05-4.54963E-18-3.80148E-18
 -1       313 1.82832E-04-3.16038E-05-6.25294E-05 3.65045E-05-4.13156E-18-2.22431E-18
 -1       314 2.09894E-04-3.44987E-05-7.20470E-05 1.90796E-05-3.85421E-18-9.92299E-19
 -1       315 2.16109E-04-3.51225E-05-7.42602E-05-4.56840E-06-3.65844E-18 1.12409E-18
 -1       316 1.99123E-04-3.20831E-05-6.88938E-05-2.52669E-05-3.25197E-18 2.57551E-18
 -1       317 1.72095E-04-3.03092E-05-5.85009E-05-4.72064E-05-3.16819E-18 5.00258E-18
 -1       318 1.30131E-04-2.88729E-05-4.24602E-05-5.12556E-05-3.10766E-18 5.00999E-18
 -1       319 8.37520E-05-2.84713E-05-2.41817E-05-4.81987E-05-2.35877E-18 4.26862E-18
 -1       320 4.92406E-05-3.58633E-05-7.52313E-06-3.70671E-05-1.31777E-18 2.35179E-18
 -1       321 2.59680E-05-4.50593E-05 5.34814E-06-2.43910E-05 0.00000E+00 3.06239E-18
 -1       322 1.37146E-05-5.22146E-05 1.30177E-05-1.28466E-05 1.97782E-18 2.84465E-18
 -1       323 9.17864E-05-1.44533E-05-3.32203E-05-1.25556E-05-9.91311E-19-2.14715E-18
 -1       324 9.58890E-05-1.91721E-05-3.29404E-05-1.42597E-05-1.41699E-18-1.57898E-18
 -1       325 8.79546E-05-1.01961E-05-3.33795E-05-7.75180E-06-1.83452E-20-2.38322E-18
 -1       326 8.70202E-05-9.17626E-06-3.34090E-05-5.38856E-06 4.06983E-19-2.27792E-18
 -1       327 8.64587E-05-8.56204E-06-3.34277E-05-3.14685E-06 8.12820E-19-2.18499E-18
 -1       328 8.61900E-05-8.26456E-06-3.34383E-05-9.90588E-07 1.12779E-18-1.86035E-18
 -1       329 8.61859E-05-8.25228E-06-3.34418E-05 1.13058E-06 1.45732E-18-1.63103E-18
 -1       330 8.64519E-05-8.53142E-06-3.34378E-05 3.27151E-06 1.70886E-18-1.45817E-18
 -1       331 8.70120E-05-9.12977E-06-3.34252E-05 5.45000E-06 1.92553E-18-9.68916E-19
 -1       332 8.79690E-05-1.01623E-05-3.33996E-05 7.78505E-06 2.20532E-18-3.85658E-19
 -1       333 8.94932E-05-1.18266E-05-3.33505E-05 1.02454E-05 2.30826E-18 2.70998E-19
 -1       334 9.19359E-05-1.45652E-05-3.32346E-05 1.26234E-05 2.23947E-18 1.27271E-18
 -1       335 9.60480E-05-1.93743E-05-3.29233E-05 1.42101E-05 1.82422E-18 2.88657E-18
 -1       336 1.00384E-04-5.89591E-05-1.80581E-05 3.76501E-05 1.33312E-18-1.98531E-18
 -1       337 9.67258E-05-2.60835E-05-3.02303E-05-5.93349E-06-1.08973E-18-1.13378E-18
 -1       338 9.53484E-05-2.71037E-05-2.92219E-05-2.34826E-06-9.56310E-19-9.82327E-19
 -1       339 9.45479E-05-2.75369E-05-2.87040E-05-3.33997E-07-6.62225E-19-8.41249E-19
 -1       340 9.42476E-05-2.78102E-05-2.84660E-05 8.41610E-07-3.03577E-19-1.02107E-18
 -1       341 9.43181E-05-2.80519E-05-2.83967E-05 1.51772E-06-3.07014E-20-8.55835E-19
 -1       342 9.46405E-05-2.83045E-05-2.84288E-05 1.86547E-06-1.06495E-19-8.99718E-19
 -1       343 9.51200E-05-2.85828E-05-2.85166E-05 1.96305E-06-2.44538E-19-9.08855E-19
 -1       344 9.56784E-05-2.88907E-05-2.86254E-05 1.83208E-06-2.73851E-19-8.38390E-19
 -1       345 9.62437E-05-2.92228E-05-2.87268E-05 1.45840E-06-6.76072E-19-1.01037E-18
 -1       346 9.67386E-05-2.95595E-05-2.87962E-05 8.10334E-07-5.17199E-19-1.00213E-18
 -1       347 9.70734E-05-2.98586E-05-2.88129E-05-1.37915E-07-5.62628E-19-1.07201E-18
 -1       348 9.71428E-05-3.00484E-05-2.87621E-05-1.37390E-06-1.05729E-19-1.00718E-18
 -1       349 9.68348E-05-3.00284E-05-2.86385E-05-2.80733E-06 1.14797E-19-6.98435E-19
 -1       350 9.60572E-05-2.96880E-05-2.84494E-05-4.23480E-06-1.42115E-19-6.27216E-19
 -1       351 9.47864E-05-2.89536E-05-2.82161E-05-5.33354E-06-2.82381E-19-6.83514E-19
 -1       352 9.31294E-05-2.78559E-05-2.79719E-05-5.71658E-06-2.46666E-19-6.33139E-19
 -1       353 9.13642E-05-2.65857E-05-2.77551E-05-5.06549E-06-2.36648E-19-5.70179E-19
 -1       354 8.99075E-05-2.54808E-05-2.76006E-05-3.30678E-06-7.32320E-19-7.73445E-19
 -1       355 8.91800E-05-2.49057E-05-2.75336E-05-7.31950E-07-4.63760E-19-1.75829E-18
 -1       356 8.94184E-05-2.50703E-05-2.75659E-05 2.05373E-06-6.14675E-19-2.13354E-18
 -1       357 9.05589E-05-2.59160E-05-2.76948E-05 4.36221E-06 4.67781E-19-1.35908E-18
 -1       358 9.22695E-05-2.71466E-05-2.79044E-05 5.70206E-06 2.81520E-19-2.20100E-18
 -1       359 9.41140E-05-2.83895E-05-2.81669E-05 5.94385E-06 3.50245E-19-2.49675E-18
 -1       360 9.57299E-05-2.93636E-05-2.84459E-05 5.28610E-06 9.31645E-20-1.68257E-18
 -1       361 9.69176E-05-2.99519E-05-2.87053E-05 4.09546E-06 4.40647E-19-1.48252E-18
 -1       362 9.76360E-05-3.01784E-05-2.89171E-05 2.74088E-06 7.60409E-19-1.59129E-18
 -1       363 9.79462E-05-3.01409E-05-2.90657E-05 1.49284E-06 8.89566E-19-2.52713E-18
 -1       364 9.79520E-05-2.99506E-05-2.91486E-05 4.97559E-07-5.03995E-19-2.27264E-18
 -1       365 9.77596E-05-2.96977E-05-2.91731E-05-2.01902E-07-1.86662E-18-1.98329E-18
 -1       366 9.74577E-05-2.94415E-05-2.91522E-05-6.28642E-07-9.50224E-19-1.24162E-18
 -1       367 9.71117E-05-2.92138E-05-2.91003E-05-8.37547E-07 7.93775E-20-7.15985E-20
 -1       368 9.67654E-05-2.90271E-05-2.90311E-05-8.90993E-07-1.41493E-19-6.72471E-19
 -1       369 9.64452E-05-2.88823E-05-2.89553E-05-8.45226E-07-5.35589E-19-6.11730E-19
 -1       370 9.61648E-05-2.87747E-05-2.88810E-05-7.44683E-07 1.13870E-18-6.62273E-19
 -1       371 9.59295E-05-2.86975E-05-2.88131E-05-6.21145E-07-3.18074E-19-2.40747E-19
 -1       372 9.57387E-05-2.86440E-05-2.87542E-05-4.95312E-07 1.37155E-18 5.55101E-19
 -1       373 9.55888E-05-2.86081E-05-2.87054E-05-3.79261E-07 7.59485E-19-1.25543E-19
 -1       374 9.54745E-05-2.85852E-05-2.86664E-05-2.78930E-07 4.68422E-19 6.26358E-19
 -1       375 9.53901E-05-2.85713E-05-2.86362E-05-1.96220E-07-7.50217E-19 6.62037E-19
 -1       376 9.53299E-05-2.85636E-05-2.86138E-05-1.30617E-07-9.54288E-19 2.59904E-18
 -1       377 9.52888E-05-2.85603E-05-2.85977E-05-8.03453E-08 1.60100E-18 1.56421E-18
 -1       378 9.52622E-05-2.85597E-05-2.85866E-05-4.31510E-08 1.34236E-18 2.39604E-18
 -1       379 9.52464E-05-2.85611E-05-2.85793E-05-1.67916E-08 7.04292E-19 7.14640E-19
 -1       380 9.52384E-05-2.85637E-05-2.85748E-05 6.12540E-10 2.33281E-19-3.39802E-19
 -1       381 9.52354E-05-2.85672E-05-2.85720E-05 1.05471E-08 1.05162E-18-1.12830E-18
 -1       382 9.52354E-05-2.85713E-05-2.85704E-05 1.37659E-08-4.42469E-19-5.98746E-19
 -1       383 9.54470E-05-2.70053E-05-2.93023E-05 2.36305E-06 1.11867E-18 2.33947E-18
 -1       384 9.67726E-05-2.59451E-05-3.03081E-05 6.06342E-06 1.51415E-18 2.75250E-18
 -1       385 9.47200E-05-2.74300E-05-2.88198E-05 2.48687E-07 7.74328E-19 2.15857E-18
 -1       386 9.44788E-05-2.76830E-05-2.86169E-05-1.20639E-06 4.87834E-19 1.87345E-18
 -1       387 9.46724E-05-2.78566E-05-2.86286E-05-2.27480E-06 3.57815E-19 1.42180E-18
 -1       388 9.52154E-05-2.80013E-05-2.87995E-05-3.21959E-06 3.09074E-19 1.33927E-18
 -1       389 9.60498E-05-2.81193E-05-2.91053E-05-4.23489E-06 4.42220E-19 9.76271E-19
 -1       390 9.70886E-05-2.81988E-05-2.95141E-05-5.41657E-06 1.60879E-19 4.28876E-19
 -1       391 9.84388E-05-2.82440E-05-3.00701E-05-7.04104E-06-1.14010E-19 4.33602E-19
 -1       392 1.00061E-04-2.82590E-05-3.07557E-05-9.20834E-06-3.95844E-19 6.49875E-19
 -1       393 1.01998E-04-2.83275E-05-3.15552E-05-1.20134E-05-4.63557E-19 9.48745E-19
 -1       394 1.04380E-04-2.87158E-05-3.24126E-05-1.53887E-05 2.94047E-19 1.38340E-18
 -1       395 1.07593E-04-3.01148E-05-3.31995E-05-1.88810E-05 1.72795E-19 8.57565E-19
 -1       396 1.12333E-04-3.36330E-05-3.37262E-05-2.11839E-05-7.78632E-19 6.64156E-19
 -1       397 1.20960E-04-4.15668E-05-3.40060E-05-2.00990E-05-1.72705E-18 5.38926E-19
 -1       398 1.35907E-04-5.47406E-05-3.47826E-05-1.13523E-05-3.22766E-18 6.21583E-19
 -1       399 1.55237E-04-6.48866E-05-3.87420E-05 6.34935E-06-2.37496E-18 2.49584E-18
 -1       400 1.66673E-04-3.15746E-05-5.79400E-05 1.92888E-05 4.41484E-18 2.47942E-18
 -1       401 1.61686E-04-3.95243E-05-5.29327E-05-2.70788E-05 2.45512E-18 9.30995E-19
 -1       402 1.61216E-04-5.98866E-05-4.36988E-05-2.07443E-05 1.45797E-18-7.29137E-19
 -1       403 1.46333E-04-5.99336E-05-3.72475E-05-3.86221E-07 3.85774E-19-4.47233E-19
 -1       404 1.31072E-04-4.85266E-05-3.53043E-05 1.43546E-05 2.34019E-19-3.29155E-19
 -1       405 1.19468E-04-3.79466E-05-3.49642E-05 1.97905E-05-6.04145E-19 1.03396E-18
 -1       406 1.12707E-04-3.25458E-05-3.43627E-05 1.90774E-05-7.67418E-19 1.79997E-18
 -1       407 1.08547E-04-3.02635E-05-3.35427E-05 1.61736E-05-7.45979E-19 1.50577E-18
 -1       408 1.05426E-04-2.93400E-05-3.25918E-05 1.26316E-05-1.70106E-19 2.51924E-18
 -1       409 1.03053E-04-2.90361E-05-3.17028E-05 9.45092E-06 1.41285E-18 3.82776E-18
 -1       410 1.01180E-04-2.89332E-05-3.09466E-05 6.89966E-06 1.39755E-18 2.80958E-18
 -1       411 9.97043E-05-2.88810E-05-3.03399E-05 4.96734E-06 1.07522E-18 7.37335E-19
 -1       412 9.85980E-05-2.88326E-05-2.98899E-05 3.60681E-06 6.41654E-19-3.64321E-19
 -1       413 9.76946E-05-2.87819E-05-2.95271E-05 2.56215E-06 8.98266E-19-1.18702E-18
 -1       414 9.70091E-05-2.87322E-05-2.92566E-05 1.81273E-06 1.80026E-18-2.02399E-18
 -1       415 9.64948E-05-2.86875E-05-2.90568E-05 1.27637E-06 7.28014E-19-2.39905E-18
 -1       416 9.61137E-05-2.86500E-05-2.89106E-05 8.92763E-07 1.06839E-19-3.87678E-18
 -1       417 9.58352E-05-2.86205E-05-2.88046E-05 6.18282E-07-1.01216E-18-2.32003E-18
 -1       418 9.56422E-05-2.85990E-05-2.87316E-05 4.30205E-07-1.42768E-18-1.35648E-18
 -1       419 9.54968E-05-2.85829E-05-2.86765E-05 2.87462E-07-9.01845E-19 1.04106E-18
 -1       420 9.53957E-05-2.85722E-05-2.86381E-05 1.85811E-07-1.85765E-18 2.08855E-18
 -1       421 9.53275E-05-2.85658E-05-2.86117E-05 1.13847E-07 6.99857E-19 2.69129E-18
 -1       422 9.52832E-05-2.85626E-05-2.85942E-05 6.34015E-08 1.49895E-21 6.01672E-19
 -1       423 9.52571E-05-2.85618E-05-2.85835E-05 3.00926E-08 6.00337E-19 1.24942E-18
 -1       424 9.52415E-05-2.85626E-05-2.85766E-05 6.41919E-09-2.03819E-18 2.23820E-18
 -1       425 9.52344E-05-2.85648E-05-2.85726E-05-8.33671E-09-1.80081E-18 2.75178E-18
 -1       426 9.52328E-05-2.85681E-05-2.85706E-05-1.60055E-08-1.51226E-18 2.85564E-18
 -1       427 9.52347E-05-2.85726E-05-2.85695E-05-1.74031E-08-1.11093E-19 2.78829E-18
 -1       428 1.93994E-05-2.84091E-05 3.53832E-06 1.74428E-05 2.61532E-18 4.78722E-18
 -1       429 9.52430E-05-2.85765E-05-2.85713E-05-9.11259E-09 2.50809E-18-2.18100E-18
 -1       430 9.52419E-05-2.85771E-05-2.85706E-05-1.46908E-08 8.61007E-19-1.48294E-18
 -1       431 9.52419E-05-2.85741E-05-2.85719E-05-3.50129E-09-3.27068E-19-7.14231E-18
 -1       432 9.52395E-05-2.85706E-05-2.85724E-05 7.10562E-10 1.49160E-18-6.77272E-19
 -1       433 9.52370E-05-2.85671E-05-2.85728E-05 2.73532E-09 2.04786E-20 4.84051E-19
 -1       434 9.52353E-05-2.85647E-05-2.85731E-05 2.82576E-09-1.24931E-18-2.33163E-19
 -1       435 9.52347E-05-2.85640E-05-2.85732E-05 1.89001E-09-1.76319E-18-1.35686E-18
 -1       436 9.52355E-05-2.85649E-05-2.85731E-05 1.10307E-09-9.22714E-19-3.83930E-18
 -1       437 9.52372E-05-2.85673E-05-2.85728E-05 1.49924E-09-4.89557E-20-2.14126E-18
 -1       438 9.52393E-05-2.85702E-05-2.85724E-05 3.64864E-09 8.83164E-19 4.22498E-18
 -1       439 9.52407E-05-2.85729E-05-2.85719E-05 7.40234E-09 3.59934E-19 2.44587E-18
 -1       440 9.52406E-05-2.85745E-05-2.85712E-05 1.16369E-08 1.33732E-18 3.43898E-18
 -1       441 4.96233E-05-4.10692E-05-4.05401E-06 3.57093E-05 1.43032E-18 2.37169E-18
 -1       442 1.09571E-05-2.15766E-05 4.48331E-06-8.82340E-06 1.53419E-18 5.02291E-18
 -1       443 8.94311E-05-1.18182E-05-3.33284E-05-1.02121E-05-4.81059E-19-2.36982E-18
 -1       444 1.73513E-04-6.11491E-05-4.81527E-05-4.07598E-06 2.20990E-18-2.04813E-18
 -1       445 1.83589E-04-4.18203E-05-6.03168E-05-1.50306E-05 3.32958E-18-9.03149E-19
 -1       446 1.76185E-04-2.34439E-05-6.48937E-05-6.51688E-06 3.68353E-18 1.27706E-18
 -1       447 1.83056E-04-2.79722E-05-6.58499E-05 9.32182E-06 4.73131E-18 1.57940E-18
 -1       448 1.76072E-04-4.32173E-05-5.67237E-05 1.90136E-05 3.24340E-18 1.80609E-18
 -1       449 1.65689E-04-6.66466E-05-4.25722E-05-3.32017E-06-2.77668E-19 3.08214E-19
 -1       450 1.29875E-04-6.51598E-05-2.80556E-05-2.93951E-05-1.99794E-18-3.43430E-18
 -1       451 8.17978E-05-5.34595E-05-1.26360E-05-3.94816E-05-2.21732E-18-3.20440E-18
 -1       452 3.63793E-05-3.68062E-05-3.03249E-07-3.04391E-05-2.36322E-18-3.06689E-18
 -1       453 1.45436E-05-2.36564E-05 3.84499E-06-9.51799E-06-1.92994E-18-4.37429E-18
 -1       454 1.30849E-05-2.44593E-05 4.69467E-06 1.76294E-05-1.69629E-18-2.37572E-18
 -1       455 3.88871E-05-3.16169E-05-2.90838E-06 4.24935E-05-6.10605E-19-1.14349E-18
 -1       456 6.89816E-05-4.47640E-05-1.04159E-05 4.96211E-05-7.65506E-19-1.02229E-18
 -1       457 1.10669E-04-5.30376E-05-2.47042E-05 4.34288E-05-1.75601E-18-8.66568E-19
 -1       458 1.39581E-04-5.01397E-05-3.82504E-05 2.94804E-05-2.51225E-18-4.43528E-19
 -1       459 1.57009E-04-3.93896E-05-5.02600E-05 1.59413E-05-3.12867E-18-1.31502E-19
 -1       460 1.62618E-04-2.13410E-05-6.04274E-05 8.30215E-07-3.59671E-18-2.37169E-19
 -1       461 1.66919E-04-1.29431E-05-6.57650E-05 9.29184E-08-3.77819E-18-3.02470E-19
 -1       462 1.58633E-04-1.22622E-05-6.28318E-05 1.83211E-06-3.47622E-18-7.72123E-19
 -1       463 1.60059E-04-2.86817E-05-5.63626E-05-3.51465E-06-2.00074E-18-5.26537E-19
 -1       464 1.53996E-04-4.28591E-05-4.75025E-05-1.61256E-05-9.84669E-19 6.40886E-19
 -1       465 1.27940E-04-5.25419E-05-3.23326E-05-3.62721E-05 1.12560E-18 2.33643E-18
 -1       466 9.46597E-05-5.10044E-05-1.87229E-05-4.80023E-05 1.93113E-18 1.47733E-18
 -1       467 5.44264E-05-3.98845E-05-6.37250E-06-4.74267E-05 1.90529E-18 1.50962E-18
 -1       468 2.40398E-05-2.89645E-05 1.90312E-06-3.30115E-05 1.87501E-18 3.08955E-18
 -1       469 1.45507E-04-6.71775E-05-3.37099E-05 2.10761E-05 1.53779E-18-2.18429E-18
 -1       470 1.64120E-04-5.52538E-05-4.72400E-05 2.40280E-05-9.22207E-20 3.69878E-18
 -1       471 8.91941E-05-1.29163E-05-3.27090E-05-3.56115E-06 5.90658E-19-1.93921E-18
 -1       472 9.00515E-05-1.40101E-05-3.26099E-05-5.41710E-06 2.78186E-19-2.02288E-18
 -1       473 8.85222E-05-1.20673E-05-3.27834E-05 9.02237E-08 1.29368E-18-1.48845E-18
 -1       474 8.86691E-05-1.22417E-05-3.27719E-05 1.88661E-06 1.51188E-18-1.38241E-18
 -1       475 8.91443E-05-1.28261E-05-3.27263E-05 3.65576E-06 1.75683E-18-1.06203E-18
 -1       476 9.00087E-05-1.39116E-05-3.26337E-05 5.45668E-06 2.00337E-18-4.88360E-19
 -1       477 9.13365E-05-1.56283E-05-3.24695E-05 7.18775E-06 2.08649E-18-1.32067E-19
 -1       478 9.32014E-05-1.81978E-05-3.21682E-05 8.59854E-06 1.98431E-18 6.01020E-19
 -1       479 9.54431E-05-2.21625E-05-3.14170E-05 8.09977E-06 1.77728E-18 1.40260E-18
 -1       480 9.57362E-05-2.44066E-05-3.05602E-05-5.25125E-06-8.99915E-19-1.47226E-18
 -1       481 9.56284E-05-2.61979E-05-2.97490E-05-2.18911E-06-6.93871E-19-1.25860E-18
 -1       482 9.54040E-05-2.71491E-05-2.92482E-05-1.73212E-07-5.01226E-19-9.94021E-19
 -1       483 9.53065E-05-2.77374E-05-2.89564E-05 1.11081E-06-9.31958E-20-8.47130E-19
 -1       484 9.53837E-05-2.81729E-05-2.88040E-05 1.89177E-06-1.09744E-20-8.34199E-19
 -1       485 9.56281E-05-2.85647E-05-2.87415E-05 2.30334E-06-3.51780E-19-8.20608E-19
 -1       486 9.60194E-05-2.89772E-05-2.87330E-05 2.40820E-06-2.47286E-19-9.95013E-19
 -1       487 9.65353E-05-2.94504E-05-2.87520E-05 2.21621E-06-4.86781E-19-8.62118E-19
 -1       488 9.71478E-05-2.99998E-05-2.87797E-05 1.70058E-06-6.04404E-19-5.10653E-19
 -1       489 9.78108E-05-3.06058E-05-2.88048E-05 8.18019E-07-3.74226E-19-2.99018E-19
 -1       490 9.84441E-05-3.11948E-05-2.88244E-05-4.60942E-07-4.92902E-20-2.03840E-19
 -1       491 9.89195E-05-3.16238E-05-2.88445E-05-2.10715E-06-2.37708E-19 3.05538E-19
 -1       492 9.90609E-05-3.16836E-05-2.88790E-05-3.97586E-06 1.92264E-20 5.49292E-19
 -1       493 9.86811E-05-3.11467E-05-2.89450E-05-5.75511E-06-5.32026E-19 4.56380E-19
 -1       494 9.76716E-05-2.98789E-05-2.90534E-05-6.96177E-06-3.56778E-19 1.71011E-19
 -1       495 9.61271E-05-2.79902E-05-2.91986E-05-7.04503E-06-2.01385E-19-4.63308E-19
 -1       496 9.44278E-05-2.59308E-05-2.93512E-05-5.61996E-06-6.47419E-19-5.16575E-19
 -1       497 9.31647E-05-2.43998E-05-2.94652E-05-2.75497E-06-7.58957E-19-3.83211E-19
 -1       498 9.28584E-05-2.40103E-05-2.95017E-05 9.00360E-07-6.22686E-19-3.76417E-20
 -1       499 9.36469E-05-2.49229E-05-2.94493E-05 4.34844E-06 1.67304E-19-3.74974E-19
 -1       500 9.52063E-05-2.67558E-05-2.93322E-05 6.68345E-06 5.51408E-19-4.31820E-19
 -1       501 9.69415E-05-2.88045E-05-2.91997E-05 7.50243E-06 1.17018E-19-2.79560E-19
 -1       502 9.83345E-05-3.04528E-05-2.90923E-05 6.96147E-06 4.51401E-19-3.69107E-19
 -1       503 9.91311E-05-3.13999E-05-2.90296E-05 5.54809E-06-1.49826E-19-8.98237E-19
 -1       504 9.93388E-05-3.16590E-05-2.90085E-05 3.80249E-06 4.15407E-19-9.14164E-19
 -1       505 9.91135E-05-3.14235E-05-2.90131E-05 2.13468E-06-8.41869E-20-1.16736E-18
 -1       506 9.86429E-05-3.09244E-05-2.90249E-05 7.73060E-07 3.47393E-19-1.43952E-18
 -1       507 9.80797E-05-3.03480E-05-2.90299E-05-2.05202E-07-6.79848E-19-1.70081E-18
 -1       508 9.75237E-05-2.98118E-05-2.90207E-05-8.19663E-07-8.03100E-19 1.67119E-19
 -1       509 9.70270E-05-2.93717E-05-2.89959E-05-1.13755E-06-1.92909E-19 2.38070E-19
 -1       510 9.66092E-05-2.90411E-05-2.89581E-05-1.23911E-06 2.42711E-20 8.54025E-19
 -1       511 9.62711E-05-2.88104E-05-2.89117E-05-1.19848E-06-1.45350E-19 1.64408E-18
 -1       512 9.60044E-05-2.86604E-05-2.88615E-05-1.07553E-06 2.73807E-20 9.70459E-19
 -1       513 9.57980E-05-2.85705E-05-2.88115E-05-9.14158E-07 5.00153E-19 2.91607E-20
 -1       514 9.56407E-05-2.85222E-05-2.87648E-05-7.43892E-07 7.73165E-19-4.59049E-19
 -1       515 9.55223E-05-2.85011E-05-2.87231E-05-5.82746E-07 2.50005E-19-7.08955E-19
 -1       516 9.54344E-05-2.84965E-05-2.86874E-05-4.40312E-07 7.81818E-19 3.38473E-20
 -1       517 9.53701E-05-2.85012E-05-2.86579E-05-3.20451E-07 9.47741E-19 1.25427E-18
 -1       518 9.53240E-05-2.85104E-05-2.86342E-05-2.23428E-07 4.83260E-19 3.49117E-18
 -1       519 9.52916E-05-2.85212E-05-2.86158E-05-1.47481E-07-1.51391E-18 2.62207E-18
 -1       520 9.52695E-05-2.85320E-05-2.86017E-05-8.99182E-08 1.09949E-18 2.03299E-18
 -1       521 9.52552E-05-2.85420E-05-2.85913E-05-4.78275E-08-4.30380E-20 2.11367E-18
 -1       522 9.52464E-05-2.85511E-05-2.85837E-05-1.84903E-08 3.99545E-19 1.29377E-18
 -1       523 9.52417E-05-2.85597E-05-2.85780E-05 2.17506E-10-6.14612E-19 5.78306E-19
 -1       524 9.57370E-05-2.49193E-05-3.03409E-05 4.16702E-06 1.36300E-18 1.44411E-18
 -1       525 9.52665E-05-2.72259E-05-2.91575E-05-1.73776E-06 7.19937E-19 6.80987E-19
 -1       526 9.52407E-05-2.73630E-05-2.90879E-05-3.06136E-06 4.64320E-19 4.03566E-19
 -1       527 9.53064E-05-2.72836E-05-2.91497E-05-4.28422E-06 7.16493E-19 4.41653E-19
 -1       528 9.53902E-05-2.70105E-05-2.93019E-05-5.52758E-06 5.37598E-19 2.60965E-19
 -1       529 9.54176E-05-2.64958E-05-2.95328E-05-7.07843E-06-7.34086E-20 2.79542E-19
 -1       530 9.52680E-05-2.57167E-05-2.98010E-05-9.02932E-06-3.36775E-19 1.33500E-19
 -1       531 9.48234E-05-2.46955E-05-3.00465E-05-1.15076E-05-5.30349E-19 2.66021E-19
 -1       532 9.40170E-05-2.36110E-05-3.01641E-05-1.46020E-05-7.09072E-20-5.05338E-19
 -1       533 9.30072E-05-2.30340E-05-2.99744E-05-1.83358E-05 5.81831E-19-8.44352E-19
 -1       534 9.25626E-05-2.41452E-05-2.92941E-05-2.24162E-05-1.98044E-19-6.25840E-19
 -1       535 9.46816E-05-2.95604E-05-2.78077E-05-2.69476E-05-1.04178E-18-9.82439E-19
 -1       536 1.03869E-04-4.28125E-05-2.58373E-05-3.07184E-05-2.36939E-18-1.50188E-18
 -1       537 9.63216E-05-2.74849E-05-2.94686E-05 2.42411E-05-1.53504E-18 4.67832E-19
 -1       538 9.51178E-05-2.43256E-05-3.03269E-05 2.00617E-05-3.47542E-19 1.53202E-18
 -1       539 9.54565E-05-2.39371E-05-3.06413E-05 1.58807E-05-2.81775E-20 1.35836E-18
 -1       540 9.60621E-05-2.47006E-05-3.05733E-05 1.22437E-05-4.06783E-19 9.90107E-19
 -1       541 9.64603E-05-2.56778E-05-3.03263E-05 9.25568E-06-3.16521E-19 3.33681E-18
 -1       542 9.66014E-05-2.65289E-05-3.00237E-05 6.89940E-06 2.25915E-18 3.38387E-18
 -1       543 9.65576E-05-2.71435E-05-2.97434E-05 5.16637E-06 2.24893E-18 2.53364E-18
 -1       544 9.64063E-05-2.76052E-05-2.94822E-05 3.78128E-06 2.64071E-18 1.26951E-18
 -1       545 9.62131E-05-2.79194E-05-2.92659E-05 2.75002E-06 1.72840E-18-2.12481E-19
 -1       546 9.60164E-05-2.81289E-05-2.90927E-05 1.98739E-06 1.38388E-18-1.94907E-19
 -1       547 9.58374E-05-2.82674E-05-2.89572E-05 1.42591E-06 2.03865E-19 5.79777E-19
 -1       548 9.56858E-05-2.83593E-05-2.88532E-05 1.01393E-06-3.37418E-19-3.60013E-19
 -1       549 9.55679E-05-2.84180E-05-2.87779E-05 7.24880E-07-2.19260E-18-3.75532E-19
 -1       550 9.54702E-05-2.84606E-05-2.87179E-05 5.00953E-07-2.26488E-18-1.07348E-18
 -1       551 9.53963E-05-2.84903E-05-2.86737E-05 3.38172E-07-2.65383E-18-1.23268E-18
 -1       552 9.53420E-05-2.85115E-05-2.86414E-05 2.20571E-07-1.52072E-18-6.36284E-21
 -1       553 9.53034E-05-2.85272E-05-2.86182E-05 1.36382E-07 8.27270E-19 8.91631E-19
 -1       554 9.52778E-05-2.85385E-05-2.86025E-05 7.93631E-08 6.74365E-20 1.02028E-18
 -1       555 9.52599E-05-2.85480E-05-2.85908E-05 3.74712E-08-2.10889E-18 2.84948E-18
 -1       556 9.52489E-05-2.85560E-05-2.85827E-05 9.68928E-09-2.11643E-18 2.68713E-18
 -1       557 9.52430E-05-2.85633E-05-2.85770E-05-7.18388E-09 1.33787E-18 6.67256E-19
 -1       558 9.52420E-05-2.85691E-05-2.85740E-05-1.32733E-08 2.94868E-19-1.22113E-18
 -1       559 4.60804E-05-2.36568E-05-9.01560E-06 3.05806E-05-1.16689E-18 6.13569E-19
 -1       560 9.52311E-05-2.85420E-05-2.85810E-05 7.12261E-09 2.41335E-18-2.01783E-18
 -1       561 8.77888E-05-4.86665E-05-1.64612E-05 3.84295E-05-9.05478E-19-2.44999E-18
 -1       562 9.52266E-05-2.85362E-05-2.85816E-05 6.18122E-09 5.57107E-19-8.60570E-19
 -1       563 9.52243E-05-2.85336E-05-2.85817E-05 3.08661E-09-2.92695E-19-1.84634E-18
 -1       564 9.52249E-05-2.85348E-05-2.85815E-05-5.41617E-10-9.62630E-19-3.09330E-19
 -1       565 9.52280E-05-2.85393E-05-2.85809E-05-2.99109E-09-1.90252E-19-2.56090E-18
 -1       566 9.52326E-05-2.85463E-05-2.85799E-05-3.07646E-09 2.56175E-18 1.71113E-18
 -1       567 9.52375E-05-2.85544E-05-2.85784E-05-4.84442E-10 1.77468E-18 2.75656E-18
 -1       568 9.52402E-05-2.85619E-05-2.85764E-05 4.51273E-09 9.33042E-19 3.57532E-18
 -1       569 1.34170E-04-6.67674E-05-2.87795E-05 2.17113E-05 2.62421E-19-2.24159E-18
 -1       570 2.60212E-05-1.45082E-05-4.28703E-06-2.41793E-05 1.35163E-18 3.61101E-18
 -1       571 9.54135E-05-2.67931E-05-2.94039E-05-7.29618E-08 9.93497E-19 1.11362E-18
 -1       572 5.02593E-05-2.82194E-05-8.88996E-06-4.36324E-05 1.84981E-18 2.72850E-18
 -1       573 9.52414E-05-2.85584E-05-2.85784E-05-4.96165E-10 3.49395E-18-5.48858E-18
 -1       574 1.37314E-04-1.73511E-05-5.20523E-05 1.06022E-05-1.47347E-18-1.60664E-18
 -1       575 1.03179E-04-5.45664E-05-2.05981E-05 4.45413E-05 2.68933E-19 3.69508E-19
 -1       576 3.14336E-05-1.74821E-05-5.38638E-06 2.98696E-05 3.58533E-19-1.38945E-18
 -1       577 9.52432E-05-2.85648E-05-2.85765E-05-6.91862E-09 1.52803E-18 4.06139E-19
 -1       578 9.52366E-05-2.85499E-05-2.85800E-05 4.90046E-09 4.51373E-18-4.23498E-18
 -1       579 1.02184E-04-3.66044E-05-2.78260E-05 2.79643E-05-1.42525E-18 1.26234E-19
 -1       580 2.23716E-05-1.35738E-05-3.14164E-06 8.05535E-06 3.86948E-19 4.87446E-18
 -1       581 8.86962E-05-1.22890E-05-3.27633E-05-1.72135E-06 9.59114E-19-1.76125E-18
 -1       582 9.56072E-05-2.61246E-05-2.97716E-05 1.74932E-06 1.06837E-18 1.16785E-18
 -1       583 1.33028E-04-6.02631E-05-3.12166E-05 2.61848E-05-6.17381E-19 3.56707E-19
 -1       584 1.19326E-04-6.33516E-05-2.39799E-05-3.14753E-05-3.96200E-18-2.19360E-18
 -1       585 7.26448E-05-4.12080E-05-1.30477E-05-3.95139E-05-3.04837E-18-2.44665E-18
 -1       586 3.51473E-05-2.14719E-05-5.35217E-06-2.58724E-05-1.48363E-18-3.21650E-18
 -1       587 2.13557E-05-1.13514E-05-3.62352E-06 5.93071E-06-1.36419E-20-3.03344E-18
 -1       588 6.59658E-05-3.65552E-05-1.21180E-05 4.72314E-05-5.79688E-20 7.77682E-20
 -1       589 1.34039E-04-9.21891E-06-5.41871E-05-7.75270E-06-3.31412E-18 1.47135E-18
 -1       590 1.46858E-04-5.09154E-05-4.13673E-05 7.99332E-06-2.13929E-18 8.40098E-19
 -1       591 1.22940E-04-5.94669E-05-2.70807E-05-3.40318E-05 2.29641E-18 2.01968E-18
 -1       592 1.46368E-04-3.19220E-05-4.95180E-05-6.82426E-06-2.44438E-18 1.10845E-18
 -1       593 1.29707E-04-4.46176E-06-5.44162E-05 1.16858E-06-3.52011E-18 8.73139E-19
 -1       594 1.45653E-04-3.87243E-05-4.62765E-05 4.69079E-06-8.46186E-19-2.27465E-18
 -1       595 1.42265E-04-5.61502E-05-3.71020E-05-1.32532E-05 9.48690E-19-6.83450E-19
 -1       596 8.45163E-05-4.64164E-05-1.60192E-05-4.85194E-05 1.42439E-18 7.67597E-19
 -1       597 9.47829E-05-2.07401E-05-3.17511E-05-8.93733E-06-9.64848E-19-1.73308E-18
 -1       598 1.58835E-04-6.74445E-05-3.93086E-05-3.37784E-06 1.39295E-18-1.68120E-18
 -1       599 9.13210E-05-1.56819E-05-3.24404E-05-7.17917E-06-1.38342E-19-2.01746E-18
 -1       600 9.52402E-05-2.85654E-05-2.85749E-05 8.00916E-09 6.16299E-19 2.18616E-18
 -1       601 9.28529E-05-1.78207E-05-3.21781E-05-8.35832E-06-6.01406E-19-1.86456E-18
 -1       602 3.36801E-05-1.07866E-05-9.11422E-06-1.08946E-05-1.29808E-19-3.08738E-18
 -1       603 1.48229E-04-6.83304E-05-3.40622E-05-9.10453E-06-3.13802E-18 7.04096E-21
 -1       604 9.08715E-05-1.59547E-05-3.21130E-05 2.15526E-06 1.44086E-18-1.09834E-18
 -1       605 9.05618E-05-1.55363E-05-3.21590E-05 8.03945E-07 1.20399E-18-1.23509E-18
 -1       606 9.25781E-05-1.83562E-05-3.18141E-05 4.59847E-06 1.69409E-18-2.78510E-19
 -1       607 9.38875E-05-2.04305E-05-3.14813E-05 5.43932E-06 1.68825E-18 4.65225E-20
 -1       608 9.50425E-05-2.27524E-05-3.09780E-05 5.05172E-06 1.49869E-18 5.24617E-19
 -1       609 9.52408E-05-2.85529E-05-2.85805E-05-3.91625E-09 1.28668E-18 3.88168E-18
 -1       610 9.51649E-05-2.35035E-05-3.07135E-05-3.99815E-06-5.46919E-19-1.16624E-18
 -1       611 9.55977E-05-2.55081E-05-3.00369E-05-1.53250E-06-4.93455E-19-1.01937E-18
 -1       612 9.57451E-05-2.67542E-05-2.95668E-05 2.36946E-07-1.97235E-19-8.95084E-19
 -1       613 9.58379E-05-2.75840E-05-2.92514E-05 1.44827E-06-5.04812E-20-9.07903E-19
 -1       614 9.59909E-05-2.82148E-05-2.90469E-05 2.22853E-06-1.86099E-19-1.17652E-18
 -1       615 9.62677E-05-2.87897E-05-2.89193E-05 2.66310E-06-3.41673E-19-1.11315E-18
 -1       616 9.67122E-05-2.94109E-05-2.88437E-05 2.78806E-06-3.63990E-20-7.46418E-19
 -1       617 9.73581E-05-3.01488E-05-2.88045E-05 2.59251E-06-1.42727E-19 4.32478E-20
 -1       618 9.82213E-05-3.10334E-05-2.87956E-05 2.02697E-06-2.23663E-19 5.08022E-19
 -1       619 9.92791E-05-3.20294E-05-2.88224E-05 1.02092E-06-3.65885E-19 4.57200E-19
 -1       620 1.00438E-04-3.30024E-05-2.89022E-05-4.83019E-07 1.38086E-19 5.87665E-19
 -1       621 1.01500E-04-3.36898E-05-2.90629E-05-2.46854E-06-8.05948E-20 6.78705E-19
 -1       622 1.02158E-04-3.37115E-05-2.93355E-05-4.75600E-06-4.29814E-19 1.96579E-20
 -1       623 1.02060E-04-3.26726E-05-2.97374E-05-6.90735E-06-6.17227E-19-5.32808E-20
 -1       624 1.00992E-04-3.04005E-05-3.02520E-05-8.20968E-06-8.50391E-19 1.88215E-19
 -1       625 9.91247E-05-2.72348E-05-3.08075E-05-7.86138E-06-1.88380E-19 5.92118E-19
 -1       626 9.71397E-05-2.41527E-05-3.12792E-05-5.40639E-06-3.69252E-19 8.11132E-19
 -1       627 9.60078E-05-2.24508E-05-3.15237E-05-1.23025E-06-6.69373E-19 6.16054E-19
 -1       628 9.63193E-05-2.28914E-05-3.14710E-05 3.39586E-06-7.09996E-19 1.99165E-19
 -1       629 9.79444E-05-2.53125E-05-3.11268E-05 6.97855E-06 3.23626E-19-2.79452E-19
 -1       630 9.99845E-05-2.85387E-05-3.06185E-05 8.57723E-06 1.91691E-19 2.59219E-19
 -1       631 1.01566E-04-3.13680E-05-3.00837E-05 8.21484E-06 5.40193E-19 3.91397E-19
 -1       632 1.02219E-04-3.30859E-05-2.96285E-05 6.55250E-06-3.37509E-19 1.67686E-19
 -1       633 1.01963E-04-3.36029E-05-2.92977E-05 4.39010E-06 3.51424E-19 6.36888E-19
 -1       634 1.01098E-04-3.32251E-05-2.90892E-05 2.32680E-06 1.84623E-19 7.17397E-19
 -1       635 9.99709E-05-3.23658E-05-2.89746E-05 6.72412E-07 2.99031E-19 1.21439E-18
 -1       636 9.88408E-05-3.13642E-05-2.89193E-05-4.87282E-07-3.89824E-19 1.38338E-18
 -1       637 9.78544E-05-3.04351E-05-2.88945E-05-1.19271E-06 2.99739E-19 1.12990E-18
 -1       638 9.70678E-05-2.96815E-05-2.88802E-05-1.53944E-06-4.75689E-19 1.62517E-18
 -1       639 9.64788E-05-2.91270E-05-2.88652E-05-1.63161E-06 3.26156E-19 2.40612E-18
 -1       640 9.60583E-05-2.87531E-05-2.88451E-05-1.56004E-06-3.08926E-19 2.04246E-18
 -1       641 9.57693E-05-2.85236E-05-2.88195E-05-1.39552E-06-9.79878E-19 2.21027E-18
 -1       642 9.55765E-05-2.83997E-05-2.87900E-05-1.18890E-06-1.67956E-18 1.28916E-18
 -1       643 9.54511E-05-2.83473E-05-2.87587E-05-9.73968E-07-6.70732E-19-1.06498E-18
 -1       644 9.53711E-05-2.83395E-05-2.87278E-05-7.71212E-07 8.45571E-19-1.62339E-18
 -1       645 9.53208E-05-2.83569E-05-2.86987E-05-5.91556E-07 1.36702E-18-2.11940E-19
 -1       646 9.52895E-05-2.83863E-05-2.86727E-05-4.39434E-07 4.48966E-19-5.75590E-19
 -1       647 9.52701E-05-2.84195E-05-2.86502E-05-3.15178E-07 1.25904E-18-1.54863E-18
 -1       648 9.52580E-05-2.84516E-05-2.86312E-05-2.16767E-07 4.69117E-19-7.18642E-19
 -1       649 9.52504E-05-2.84803E-05-2.86157E-05-1.41048E-07-2.02837E-19 1.14834E-18
 -1       650 9.52457E-05-2.85048E-05-2.86032E-05-8.45672E-08 9.26964E-19 1.42400E-19
 -1       651 9.52428E-05-2.85252E-05-2.85933E-05-4.40990E-08 7.79204E-19 9.20536E-19
 -1       652 9.52411E-05-2.85397E-05-2.85863E-05-1.97868E-08-7.41873E-19 3.11677E-18
 -1       653 3.51362E-05-7.21413E-06-1.13631E-05-5.35481E-06 2.88038E-19 3.34006E-18
 -1       654 9.48985E-05-2.64793E-05-2.93217E-05-3.49737E-06 6.27603E-19 1.69760E-19
 -1       655 9.52310E-05-2.64780E-05-2.94648E-05-2.17114E-06 8.07015E-19 3.40431E-19
 -1       656 9.36373E-05-2.53634E-05-2.92590E-05-5.93480E-06 3.85943E-19 2.12017E-19
 -1       657 9.24237E-05-2.41812E-05-2.92452E-05-7.35274E-06 3.34292E-20-2.00939E-20
 -1       658 9.05676E-05-2.25467E-05-2.91498E-05-9.01314E-06-3.66033E-19-5.29039E-19
 -1       659 8.78230E-05-2.05036E-05-2.88481E-05-1.10025E-05-8.56799E-20-9.26939E-19
 -1       660 8.39693E-05-1.83040E-05-2.81327E-05-1.34523E-05 5.03958E-19-1.10866E-18
 -1       661 7.92476E-05-1.66823E-05-2.67859E-05-1.65398E-05 2.40374E-19-8.35932E-19
 -1       662 7.37102E-05-1.68490E-05-2.42641E-05-2.12571E-05-2.99733E-19-1.00943E-18
 -1       663 6.95103E-05-2.24865E-05-1.96747E-05-2.86782E-05-7.16458E-19-1.36143E-18
 -1       664 1.37462E-04-5.58113E-05-3.50991E-05 7.06008E-06-2.66992E-19 2.54491E-18
 -1       665 8.70184E-05-1.96239E-05-2.88790E-05 1.18838E-05 3.02087E-19 9.23224E-19
 -1       666 1.37043E-04-4.82803E-05-3.82773E-05 2.79895E-06 1.05401E-18-2.61809E-18
 -1       667 8.29546E-05-1.77778E-05-2.79186E-05 1.50549E-05-6.27940E-19 5.12227E-19
 -1       668 7.85808E-05-3.16270E-05-1.95970E-05 3.38346E-05-2.22670E-18-1.61127E-18
 -1       669 7.84105E-05-1.72710E-05-2.61437E-05 1.91018E-05-1.45159E-18 3.89645E-19
 -1       670 9.00428E-05-2.16863E-05-2.92927E-05 9.36146E-06-9.21910E-19 9.14978E-19
 -1       671 9.21246E-05-2.34939E-05-2.94106E-05 7.30732E-06 1.09824E-18-3.07586E-20
 -1       672 9.34238E-05-2.48573E-05-2.93836E-05 5.70948E-06 1.19222E-18 9.41258E-19
 -1       673 9.42801E-05-2.59355E-05-2.92891E-05 4.35415E-06 1.49847E-18 3.54633E-18
 -1       674 9.47865E-05-2.67132E-05-2.91732E-05 3.28715E-06 3.09879E-18 4.68423E-18
 -1       675 9.50698E-05-2.72637E-05-2.90591E-05 2.45704E-06 1.55023E-18 3.72854E-18
 -1       676 9.52173E-05-2.76498E-05-2.89570E-05 1.81829E-06 1.21175E-18 2.41326E-18
 -1       677 9.52858E-05-2.79200E-05-2.88707E-05 1.33147E-06 7.57614E-19 1.56038E-18
 -1       678 9.53093E-05-2.81013E-05-2.88032E-05 9.78473E-07-7.83466E-19 5.94944E-19
 -1       679 9.53115E-05-2.82372E-05-2.87460E-05 6.96903E-07-9.76613E-19-3.68476E-19
 -1       680 9.53030E-05-2.83335E-05-2.87011E-05 4.86877E-07-1.99258E-18-2.45212E-19
 -1       681 9.52907E-05-2.84023E-05-2.86664E-05 3.31383E-07-2.66418E-18-1.44498E-18
 -1       682 9.52784E-05-2.84518E-05-2.86399E-05 2.17470E-07-1.11265E-18 4.27057E-20
 -1       683 9.52679E-05-2.84861E-05-2.86207E-05 1.38466E-07-6.42340E-19 1.10114E-18
 -1       684 9.52588E-05-2.85128E-05-2.86054E-05 7.87712E-08-1.55947E-18 2.44183E-18
 -1       685 9.52519E-05-2.85329E-05-2.85939E-05 3.75473E-08-7.79112E-19 2.45408E-18
 -1       686 9.52470E-05-2.85485E-05-2.85851E-05 1.06880E-08 1.51638E-18 9.14785E-22
 -1       687 9.52445E-05-2.85563E-05-2.85807E-05-1.34205E-10 5.54899E-19 1.12493E-18
 -1       688 9.52115E-05-2.85000E-05-2.85906E-05 7.67512E-09 1.23837E-18-6.54466E-19
 -1       689 4.40463E-05-1.10146E-05-1.35872E-05 1.57576E-05-1.98803E-18 1.44663E-18
 -1       690 6.12638E-05-2.50853E-05-1.50002E-05-3.23248E-05-1.64221E-18-1.20025E-18
 -1       691 9.52173E-05-2.85067E-05-2.85903E-05 1.42442E-08 1.75821E-18-2.23299E-18
 -1       692 9.52139E-05-2.85047E-05-2.85897E-05-8.26088E-09 4.62236E-19-5.00350E-19
 -1       693 9.52211E-05-2.85151E-05-2.85883E-05-1.31521E-08 2.61732E-18 1.57451E-18
 -1       694 9.52303E-05-2.85290E-05-2.85863E-05-1.37821E-08 1.65999E-18 1.53685E-18
 -1       695 1.20728E-04-5.81388E-05-2.67603E-05 2.95851E-05 1.03261E-18 6.96546E-19
 -1       696 1.33581E-04-5.80569E-05-3.23966E-05-1.42318E-05 1.55821E-18-1.35876E-18
 -1       697 9.35642E-05-4.53655E-05-2.03874E-05 4.06636E-05 5.10893E-19 1.09179E-18
 -1       698 3.60518E-05-9.42013E-06-1.08378E-05 1.54220E-05 9.53031E-19-1.70015E-18
 -1       699 1.06564E-04-5.18391E-05-2.32966E-05-3.68819E-05 2.10930E-18 1.92663E-18
 -1       700 7.40403E-05-2.02464E-05-2.28299E-05 2.53717E-05-2.73048E-18-6.27373E-19
 -1       701 9.54271E-05-2.60352E-05-2.97391E-05-5.77139E-07 1.04450E-18 2.20406E-19
 -1       702 7.41804E-05-3.54136E-05-1.62269E-05-4.35233E-05 1.87358E-18 1.03161E-18
 -1       703 4.75854E-05-1.67735E-05-1.26830E-05-3.09002E-05 1.19584E-18 1.88772E-18
 -1       704 9.52103E-05-2.84993E-05-2.85904E-05-6.32919E-10 3.81599E-19-4.09779E-18
 -1       705 9.44005E-05-2.61065E-05-2.92679E-05-4.69683E-06 7.95121E-19 1.95535E-20
 -1       706 1.29451E-04-2.14601E-05-4.67569E-05-1.30993E-05-2.55793E-18 1.73006E-18
 -1       707 5.50553E-05-2.26864E-05-1.33358E-05 3.60752E-05 6.19260E-19-1.25366E-18
 -1       708 9.15331E-05-1.68695E-05-3.20045E-05 3.44072E-06 1.63628E-18-5.85883E-19
 -1       709 1.37294E-04-4.29035E-05-4.07964E-05-7.30082E-06-1.38553E-18 2.04572E-18
 -1       710 9.16524E-05-1.70521E-05-3.19772E-05-3.35082E-06 3.87306E-19-1.65767E-18
 -1       711 1.31333E-04-2.96102E-05-4.39904E-05 1.28158E-05-2.94794E-19-1.74624E-18
 -1       712 1.18327E-04-7.57256E-06-4.79288E-05-4.78907E-06-3.02288E-18 1.21777E-18
 -1       713 9.42981E-05-2.10657E-05-3.13830E-05-6.11918E-06-6.31504E-19-1.39623E-18
 -1       714 1.19377E-04-1.08988E-05-4.69736E-05 8.85365E-06-1.09633E-18-4.38935E-19
 -1       715 9.05990E-05-1.55879E-05-3.21527E-05-5.81321E-07 9.76627E-19-1.38278E-18
 -1       716 9.53905E-05-2.45675E-05-3.03504E-05 2.58075E-06 1.29507E-18 6.34393E-19
 -1       717 9.26764E-05-1.85458E-05-3.17725E-05-4.59462E-06 4.29317E-21-1.62136E-18
 -1       718 9.52262E-05-2.85182E-05-2.85891E-05 1.68901E-08 2.50331E-18-5.05991E-18
 -1       719 9.52360E-05-2.85327E-05-2.85872E-05 1.45294E-08 2.28455E-18-4.99311E-18
 -1       720 9.52419E-05-2.85456E-05-2.85841E-05 7.99576E-09 1.54630E-18-9.62456E-19
 -1       721 9.09658E-05-1.60895E-05-3.20953E-05-1.97835E-06 7.11594E-19-1.53932E-18
 -1       722 9.54762E-05-2.54957E-05-2.99926E-05 8.59170E-07 1.04211E-18 4.49740E-19
 -1       723 9.48093E-05-2.28647E-05-3.08318E-05 3.17992E-06 1.34141E-18-1.76913E-19
 -1       724 9.48353E-05-2.30597E-05-3.07625E-05-2.66168E-06-3.12867E-19-1.16891E-18
 -1       725 1.30361E-04-4.79603E-05-3.54335E-05-3.53596E-06-3.66593E-19 2.08651E-18
 -1       726 9.54871E-05-2.50777E-05-3.01750E-05-7.30479E-07-2.01346E-19-8.50030E-19
 -1       727 9.58328E-05-2.64623E-05-2.97302E-05 7.47110E-07-5.16379E-20-8.48106E-19
 -1       728 9.60503E-05-2.74452E-05-2.94022E-05 1.82674E-06-1.82697E-19-7.10556E-19
 -1       729 9.62821E-05-2.82367E-05-2.91623E-05 2.57957E-06-1.75298E-19-3.61291E-19
 -1       730 9.66400E-05-2.90003E-05-2.89885E-05 3.05659E-06 1.41477E-19-8.11341E-20
 -1       731 9.72228E-05-2.98685E-05-2.88662E-05 3.26866E-06 4.99864E-19 4.41978E-20
 -1       732 9.81185E-05-3.09391E-05-2.87914E-05 3.17860E-06 2.02506E-19 6.70708E-19
 -1       733 9.93889E-05-3.22525E-05-2.87731E-05 2.69927E-06-1.04966E-19 1.00671E-18
 -1       734 1.01032E-04-3.37482E-05-2.88367E-05 1.70322E-06-2.20670E-20 1.52965E-18
 -1       735 1.02927E-04-3.52036E-05-2.90248E-05 5.85727E-08 3.31651E-20 9.63775E-19
 -1       736 1.04762E-04-3.61789E-05-2.93938E-05-2.28491E-06-7.00785E-19 7.82012E-19
 -1       737 1.06016E-04-3.60294E-05-2.99970E-05-5.14024E-06-8.15465E-19 1.01925E-18
 -1       738 1.06077E-04-3.41067E-05-3.08457E-05-7.86775E-06-7.62443E-19 8.98356E-19
 -1       739 1.04609E-04-3.02355E-05-3.18741E-05-9.34992E-06-5.56483E-19 6.72029E-19
 -1       740 1.01999E-04-2.52408E-05-3.28996E-05-8.35547E-06-3.79052E-19 1.71271E-19
 -1       741 9.96090E-05-2.11496E-05-3.36304E-05-4.36214E-06-4.23247E-19 9.15540E-20
 -1       742 9.88467E-05-2.00022E-05-3.37885E-05 1.38252E-06-7.52399E-19 3.04154E-19
 -1       743 1.00518E-04-2.27169E-05-3.33333E-05 6.63344E-06 2.06674E-19 8.68441E-19
 -1       744 1.03093E-04-2.72463E-05-3.25103E-05 9.43269E-06 5.80962E-19 8.19481E-19
 -1       745 1.05309E-04-3.18952E-05-3.14633E-05 9.31306E-06 6.79777E-19 3.71356E-19
 -1       746 1.06076E-04-3.48983E-05-3.05055E-05 7.23181E-06 9.04466E-20 3.13336E-19
 -1       747 1.05402E-04-3.59516E-05-2.97639E-05 4.44414E-06-4.56377E-20 8.64584E-19
 -1       748 1.03777E-04-3.54849E-05-2.92673E-05 1.87977E-06 4.47358E-19 1.16094E-18
 -1       749 1.01811E-04-3.42008E-05-2.89754E-05-4.56972E-08 1.06051E-18 2.02519E-18
 -1       750 9.99349E-05-3.26719E-05-2.88271E-05-1.28395E-06 2.47825E-20 2.24776E-18
 -1       751 9.83689E-05-3.12466E-05-2.87668E-05-1.94601E-06-3.74508E-19 2.85389E-18
 -1       752 9.71828E-05-3.00957E-05-2.87517E-05-2.19185E-06-4.33512E-19 2.74588E-18
 -1       753 9.63478E-05-2.92553E-05-2.87540E-05-2.16941E-06 1.39223E-20 1.53753E-18
 -1       754 9.57981E-05-2.86951E-05-2.87584E-05-1.99085E-06-2.12417E-19 9.78452E-19
 -1       755 9.54607E-05-2.83587E-05-2.87580E-05-1.73531E-06 1.15002E-19 2.22998E-18
 -1       756 9.52709E-05-2.81855E-05-2.87509E-05-1.45500E-06-9.90432E-19 1.71276E-18
 -1       757 9.51770E-05-2.81223E-05-2.87377E-05-1.18190E-06-1.75917E-18 4.03264E-18
 -1       758 9.51412E-05-2.81271E-05-2.87203E-05-9.33649E-07-1.03060E-18 3.43023E-18
 -1       759 9.51378E-05-2.81695E-05-2.87007E-05-7.18398E-07 1.10955E-18 2.41563E-19
 -1       760 9.51502E-05-2.82288E-05-2.86806E-05-5.38313E-07 3.91671E-19-9.70749E-20
 -1       761 9.51684E-05-2.82921E-05-2.86613E-05-3.91982E-07 8.77792E-19 6.16397E-19
 -1       762 9.51868E-05-2.83518E-05-2.86436E-05-2.76083E-07 5.42862E-19 3.24779E-19
 -1       763 9.52028E-05-2.84043E-05-2.86279E-05-1.86457E-07 4.45423E-19-1.13468E-18
 -1       764 9.52154E-05-2.84485E-05-2.86144E-05-1.18835E-07 6.40145E-19-8.72200E-19
 -1       765 9.52245E-05-2.84844E-05-2.86029E-05-6.94581E-08 1.45891E-18 2.80395E-19
 -1       766 8.88885E-05-2.18748E-05-2.87202E-05-5.86220E-06 2.22152E-19-9.74665E-19
 -1       767 9.12722E-05-2.35976E-05-2.90033E-05-5.10441E-06 3.56643E-19-7.07416E-19
 -1       768 8.06647E-05-1.68411E-05-2.73492E-05-7.10212E-06 2.00052E-19-7.71547E-19
 -1       769 7.43468E-05-1.39507E-05-2.58685E-05-7.65492E-06 2.57690E-19-4.58056E-19
 -1       770 6.54545E-05-1.10530E-05-2.32607E-05-8.56992E-06 2.47956E-19-8.51117E-19
 -1       771 9.02541E-05-3.88629E-05-2.18961E-05-3.48544E-05 2.07806E-18 1.09464E-18
 -1       772 7.77314E-05-1.50799E-05-2.68443E-05 7.58803E-06-9.19141E-19-1.15113E-19
 -1       773 8.71873E-05-2.05083E-05-2.85761E-05 5.68407E-06 1.08993E-18-1.32859E-18
 -1       774 6.94663E-05-3.01724E-05-1.64745E-05 3.89670E-05 4.02076E-19 2.62157E-19
 -1       775 8.32649E-05-1.79714E-05-2.79827E-05 6.61699E-06-5.03139E-19 1.13820E-20
 -1       776 8.97987E-05-2.24827E-05-2.88493E-05 4.81278E-06 3.58381E-19-1.22227E-18
 -1       777 9.16865E-05-2.41021E-05-2.89647E-05 3.94652E-06 1.28042E-19-3.55046E-19
 -1       778 9.29492E-05-2.53194E-05-2.89840E-05 3.16769E-06 1.22058E-18-7.94889E-19
 -1       779 9.37808E-05-2.62168E-05-2.89559E-05 2.49314E-06 2.28250E-18 1.72899E-18
 -1       780 9.43214E-05-2.68706E-05-2.89074E-05 1.92821E-06 2.24511E-18 2.46892E-18
 -1       781 9.46691E-05-2.73439E-05-2.88536E-05 1.46772E-06 9.79721E-19 1.97832E-18
 -1       782 9.48818E-05-2.76716E-05-2.88043E-05 1.11501E-06 3.01476E-19 1.81935E-18
 -1       783 9.50248E-05-2.79235E-05-2.87577E-05 8.20746E-07 5.68639E-20 1.66454E-18
 -1       784 9.51141E-05-2.81059E-05-2.87178E-05 5.92712E-07-5.42944E-19 9.01499E-19
 -1       785 9.51692E-05-2.82384E-05-2.86846E-05 4.18181E-07-1.68236E-18 1.47638E-18
 -1       786 9.52025E-05-2.83349E-05-2.86575E-05 2.86547E-07-2.03851E-18-6.05037E-19
 -1       787 9.52213E-05-2.84022E-05-2.86368E-05 1.92776E-07-8.13041E-19-1.08160E-18
 -1       788 9.52326E-05-2.84544E-05-2.86192E-05 1.20013E-07-9.42258E-19 1.92408E-19
 -1       789 9.52384E-05-2.84927E-05-2.86053E-05 6.82534E-08-7.76748E-19-9.64807E-19
 -1       790 9.52411E-05-2.85216E-05-2.85940E-05 3.24279E-08-3.58017E-19-1.52209E-18
 -1       791 1.09580E-04-4.99216E-05-2.54847E-05 2.83620E-05 1.18152E-18 1.31417E-18
 -1       792 4.99113E-05-7.79059E-06-1.77480E-05 4.09645E-06-1.03031E-18 1.04688E-19
 -1       793 4.54003E-05-9.50024E-06-1.48929E-05-1.26750E-05-1.10531E-19-2.15467E-18
 -1       794 9.52158E-05-2.84931E-05-2.85955E-05-3.15626E-08 2.24691E-18 3.56895E-19
 -1       795 9.52020E-05-2.84740E-05-2.85977E-05-2.44731E-08 1.86460E-18 1.90133E-18
 -1       796 9.34366E-05-1.96714E-05-3.16136E-05-5.45514E-06-2.88539E-19-1.52430E-18
 -1       797 1.28261E-04-5.08260E-05-3.32437E-05-1.72299E-06 8.50660E-19-1.80269E-18
 -1       798 1.08904E-04-1.10531E-05-4.21496E-05 1.81933E-06-8.85877E-19-5.88268E-19
 -1       799 1.24439E-04-3.19523E-05-3.98385E-05-1.28566E-05-1.09543E-18 2.09771E-18
 -1       800 9.50411E-05-2.52914E-05-2.98924E-05-9.80865E-07 8.09102E-19-1.88082E-19
 -1       801 6.04911E-05-1.04186E-05-2.13049E-05 1.10916E-05-1.97523E-18-1.17271E-18
 -1       802 6.84919E-05-2.33556E-05-1.90900E-05-3.10750E-05 1.32268E-18 7.11190E-19
 -1       803 1.18589E-04-5.31849E-05-2.79617E-05-2.11289E-05 2.09785E-18-4.18802E-19
 -1       804 7.03378E-05-1.22690E-05-2.48560E-05 8.82451E-06-1.92800E-18-8.78011E-19
 -1       805 5.54728E-05-1.43121E-05-1.73627E-05 2.19560E-05 8.06238E-19-1.10734E-18
 -1       806 9.51957E-05-2.84624E-05-2.86000E-05 1.89079E-08 3.64007E-19-2.16357E-18
 -1       807 1.25912E-04-5.49766E-05-3.04208E-05 1.29787E-05 8.92521E-19 1.93229E-18
 -1       808 9.46839E-05-2.56424E-05-2.95892E-05-2.29785E-06 8.54272E-19-3.75276E-19
 -1       809 1.14459E-04-1.66544E-05-4.21547E-05-1.07766E-05-2.14227E-18 1.30670E-18
 -1       810 5.08069E-05-1.07450E-05-1.68826E-05-1.71915E-05 1.12212E-18 2.13018E-18
 -1       811 9.52313E-05-2.85180E-05-2.85914E-05-2.86876E-08 2.01845E-18 2.27867E-19
 -1       812 9.22234E-05-1.85811E-05-3.15622E-05 1.09173E-06 1.15308E-18-1.00605E-18
 -1       813 1.17588E-04-2.17315E-05-4.12843E-05 1.27862E-05 1.25215E-19-1.31505E-18
 -1       814 8.54815E-05-1.96084E-05-2.82320E-05-6.52537E-06-2.47644E-19-9.89899E-19
 -1       815 1.26442E-04-3.85061E-05-3.78405E-05 1.05510E-05 1.28032E-18-1.10331E-18
 -1       816 8.75948E-05-3.62885E-05-2.18123E-05 3.32952E-05 8.89537E-19 1.14819E-18
 -1       817 9.34426E-05-2.04377E-05-3.12927E-05 2.55721E-06 1.38111E-18-3.02852E-19
 -1       818 9.36155E-05-2.06934E-05-3.12550E-05-2.50462E-06-1.06249E-20-1.06865E-18
 -1       819 9.28787E-05-2.47615E-05-2.91928E-05-4.28697E-06 4.85335E-19-2.81046E-19
 -1       820 5.20017E-05-8.14868E-06-1.85375E-05 1.20875E-06 4.41916E-19-1.61200E-18
 -1       821 9.52075E-05-2.84761E-05-2.85992E-05 3.01149E-08 4.81151E-19-3.21469E-18
 -1       822 9.26727E-05-1.92432E-05-3.14691E-05 1.87408E-06 1.26606E-18-6.88935E-19
 -1       823 9.51929E-05-2.84615E-05-2.85992E-05-1.18880E-08 4.59755E-19-1.69007E-18
 -1       824 9.39931E-05-2.54547E-05-2.93736E-05-3.35456E-06 8.44134E-19-4.23535E-19
 -1       825 9.52230E-05-2.84959E-05-2.85973E-05 3.46636E-08 1.37177E-18-5.26718E-18
 -1       826 1.07554E-04-1.70061E-05-3.88843E-05 7.96612E-06-9.88646E-21-8.72845E-19
 -1       827 9.50569E-05-2.43267E-05-3.03140E-05 6.94536E-07 9.92688E-19-3.25342E-19
 -1       828 9.28687E-05-1.95052E-05-3.14429E-05-1.67800E-06 5.18059E-19-1.37884E-18
 -1       829 9.21292E-05-1.84298E-05-3.15869E-05 1.88143E-07 1.09664E-18-1.23348E-18
 -1       830 9.51905E-05-2.84574E-05-2.85999E-05 3.74472E-09 2.29909E-19-2.88293E-18
 -1       831 7.01896E-05-2.50748E-05-1.91511E-05 3.09385E-05 1.18520E-18-1.26393E-21
 -1       832 9.53617E-05-2.48772E-05-3.02077E-05 4.34070E-08 6.77392E-20-7.79580E-19
 -1       833 9.57630E-05-2.62770E-05-2.97798E-05 1.25177E-06 1.09246E-19-4.12282E-19
 -1       834 9.60236E-05-2.73253E-05-2.94421E-05 2.21122E-06 7.86515E-20-4.56182E-19
 -1       835 9.62954E-05-2.82204E-05-2.91750E-05 2.97186E-06 2.52756E-20-1.16995E-19
 -1       836 9.67299E-05-2.91460E-05-2.89645E-05 3.56569E-06 1.95519E-19-1.38717E-19
 -1       837 9.74771E-05-3.02651E-05-2.88052E-05 3.98472E-06 7.33298E-19-2.08296E-19
 -1       838 9.86848E-05-3.17080E-05-2.87045E-05 4.16236E-06 5.08263E-19-1.19762E-19
 -1       839 1.00475E-04-3.35348E-05-2.86889E-05 3.95565E-06-2.25540E-20 3.00843E-19
 -1       840 1.02885E-04-3.56639E-05-2.88093E-05 3.13707E-06-6.08296E-20 4.41050E-19
 -1       841 1.05769E-04-3.77646E-05-2.91447E-05 1.42597E-06-1.89985E-19 6.07894E-19
 -1       842 1.08670E-04-3.91438E-05-2.97988E-05-1.37720E-06-4.74388E-19 1.15770E-18
 -1       843 1.10726E-04-3.86853E-05-3.08778E-05-5.17934E-06-8.86105E-19 1.57896E-18
 -1       844 1.10925E-04-3.54215E-05-3.23579E-05-8.93683E-06-6.36045E-19 1.43886E-18
 -1       845 1.08484E-04-2.89226E-05-3.41337E-05-1.06618E-05-8.16700E-19 1.40633E-18
 -1       846 1.04959E-04-2.17669E-05-3.56634E-05-8.42943E-06-8.71508E-19 5.39617E-19
 -1       847 1.01997E-04-1.68688E-05-3.65614E-05-2.25516E-06-3.56548E-19 3.71404E-20
 -1       848 1.09572E-04-3.17049E-05-3.33980E-05 1.06001E-05 5.36078E-19-7.58864E-20
 -1       849 1.10865E-04-3.68709E-05-3.17106E-05 7.80878E-06-2.24726E-20-5.48258E-19
 -1       850 1.09697E-04-3.87926E-05-3.03874E-05 3.91117E-06 5.38301E-19-3.43314E-19
 -1       851 1.07069E-04-3.82324E-05-2.94978E-05 5.99365E-07 2.56251E-19-6.09907E-20
 -1       852 1.03983E-04-3.63609E-05-2.89787E-05-1.63226E-06 1.66496E-18-5.55341E-19
 -1       853 1.01170E-04-3.41686E-05-2.87146E-05-2.82356E-06 6.21279E-19-7.64920E-19
 -1       854 9.88839E-05-3.21218E-05-2.86123E-05-3.26549E-06 7.98403E-19-3.13147E-19
 -1       855 9.72318E-05-3.05061E-05-2.85967E-05-3.23003E-06 3.71238E-19-1.62431E-19
 -1       856 9.61195E-05-2.93431E-05-2.86184E-05-2.94396E-06-3.06045E-19 9.95372E-19
 -1       857 9.54304E-05-2.85798E-05-2.86502E-05-2.54691E-06-1.05421E-18 4.62702E-19
 -1       858 9.50464E-05-2.81309E-05-2.86780E-05-2.12435E-06 9.99580E-19 1.79989E-19
 -1       859 9.48670E-05-2.79092E-05-2.86962E-05-1.72312E-06-3.84257E-19 6.58322E-19
 -1       860 9.48150E-05-2.78394E-05-2.87038E-05-1.36620E-06-6.92338E-19 1.03735E-18
 -1       861 9.48348E-05-2.78624E-05-2.87024E-05-1.06143E-06-1.91900E-18 1.42545E-18
 -1       862 9.48897E-05-2.79360E-05-2.86944E-05-8.08628E-07-2.16892E-18 1.39674E-18
 -1       863 9.49567E-05-2.80316E-05-2.86822E-05-6.03722E-07 1.74273E-19-1.08842E-18
 -1       864 9.50225E-05-2.81311E-05-2.86677E-05-4.40845E-07 1.22448E-18-3.01331E-18
 -1       865 9.50804E-05-2.82242E-05-2.86527E-05-3.13663E-07-2.18103E-19-3.14215E-18
 -1       866 9.51278E-05-2.83057E-05-2.86380E-05-2.16102E-07 9.08252E-19-2.42926E-18
 -1       867 9.51644E-05-2.83741E-05-2.86244E-05-1.42615E-07 9.94580E-19 9.07694E-19
 -1       868 9.51911E-05-2.84296E-05-2.86121E-05-8.84306E-08 1.96108E-18 1.84065E-18
 -1       869 6.78597E-05-1.22632E-05-2.38091E-05 1.86092E-06 6.67828E-19-1.14568E-18
 -1       870 7.55830E-05-1.51322E-05-2.59005E-05-4.43392E-07 4.23894E-19-9.20954E-19
 -1       871 1.19388E-04-4.92632E-05-3.00573E-05-8.06559E-06 7.15313E-19-9.58408E-19
 -1       872 8.66313E-05-2.07484E-05-2.82365E-05 2.34597E-06 4.73637E-19-1.70433E-19
 -1       873 9.52049E-05-2.84633E-05-2.86035E-05-5.54287E-08 7.16547E-19 1.90911E-18
 -1       874 1.20795E-04-4.20276E-05-3.37773E-05 6.91104E-06 9.86024E-19-6.84097E-19
 -1       875 9.23852E-05-2.51949E-05-2.87959E-05 1.96625E-06 2.39454E-19-5.68835E-19
 -1       876 9.32970E-05-2.60639E-05-2.88142E-05 1.64894E-06 6.76492E-19-9.20202E-19
 -1       877 9.39257E-05-2.67164E-05-2.88039E-05 1.33691E-06 1.62584E-18 1.98939E-18
 -1       878 9.43400E-05-2.71836E-05-2.87813E-05 1.06664E-06 3.51754E-19 2.82172E-18
 -1       879 9.46413E-05-2.75530E-05-2.87521E-05 8.20607E-07 5.56037E-19 2.07042E-18
 -1       880 9.48465E-05-2.78276E-05-2.87224E-05 6.16467E-07-2.28782E-19 2.92098E-18
 -1       881 9.49855E-05-2.80314E-05-2.86946E-05 4.51610E-07-1.53672E-18 1.85007E-18
 -1       882 9.50789E-05-2.81826E-05-2.86699E-05 3.21789E-07-1.16574E-18 1.25169E-18
 -1       883 9.51385E-05-2.82896E-05-2.86495E-05 2.25916E-07-1.74354E-18 9.02273E-19
 -1       884 9.51798E-05-2.83735E-05-2.86313E-05 1.49118E-07-1.29944E-18-7.27965E-19
 -1       885 9.52059E-05-2.84352E-05-2.86160E-05 9.29009E-08 1.06621E-20-2.44983E-18
 -1       886 9.52156E-05-2.84680E-05-2.86061E-05 5.93153E-08-4.79688E-19-3.20561E-18
 -1       887 1.20414E-04-3.86550E-05-3.50908E-05-9.61315E-06-6.81193E-19 1.97378E-18
 -1       888 9.46223E-05-2.38271E-05-3.03319E-05 1.13719E-07 9.61920E-19-3.09234E-19
 -1       889 1.22884E-04-4.86603E-05-3.18417E-05 1.48871E-06-1.44417E-19 1.67033E-18
 -1       890 1.13213E-04-2.58913E-05-3.74962E-05-1.19817E-05-9.96217E-19 1.86507E-18
 -1       891 9.51843E-05-2.84367E-05-2.86061E-05-4.34270E-08 8.43682E-19 2.53667E-18
 -1       892 1.15016E-04-4.90344E-05-2.82630E-05 1.59509E-05 5.32155E-19 9.23847E-19
 -1       893 9.23555E-05-1.87483E-05-3.15481E-05-7.57786E-07 8.60335E-19-1.24910E-18
 -1       894 6.55468E-05-1.59866E-05-2.11269E-05-1.92351E-05 6.27102E-19-2.48194E-19
 -1       895 8.38712E-05-2.97879E-05-2.31105E-05-2.70497E-05 1.85388E-18 7.74737E-19
 -1       896 8.92549E-05-2.26110E-05-2.85620E-05 2.40479E-06 3.36863E-19-3.40924E-19
 -1       897 8.15636E-05-1.79356E-05-2.72719E-05-2.03918E-06 8.37138E-20-8.28574E-19
 -1       898 9.10922E-05-2.40670E-05-2.87251E-05 2.24136E-06 1.01703E-18-9.63890E-19
 -1       899 9.45085E-05-2.47141E-05-2.99127E-05-1.04635E-06 9.30519E-19-6.46781E-19
 -1       900 8.90292E-05-2.22675E-05-2.86125E-05-2.95195E-06 3.31670E-19-2.24630E-19
 -1       901 1.15546E-04-3.02244E-05-3.66505E-05 1.24076E-05 8.36022E-19-1.64423E-18
 -1       902 1.03528E-04-4.29100E-05-2.59565E-05-2.36823E-05 1.59430E-18 1.83469E-21
 -1       903 1.00279E-04-4.12606E-05-2.52484E-05 2.52387E-05 8.61363E-19 9.29470E-19
 -1       904 9.46837E-05-2.30720E-05-3.06899E-05-1.18009E-06 3.47880E-20-8.93496E-19
 -1       905 8.58653E-05-2.03559E-05-2.80770E-05-2.57845E-06 1.43721E-19-3.72612E-19
 -1       906 5.83754E-05-8.95078E-06-2.10270E-05-8.25263E-07-1.80899E-18-1.65251E-19
 -1       907 9.12597E-05-2.36474E-05-2.89766E-05-2.91378E-06 5.17307E-19-5.28227E-19
 -1       908 1.06262E-04-2.43977E-05-3.50952E-05 1.00920E-05 3.70713E-19 5.50737E-20
 -1       909 8.29521E-05-1.84578E-05-2.76406E-05 1.90196E-06 1.05052E-18-7.40762E-19
 -1       910 6.09538E-05-1.21697E-05-2.08331E-05 1.18369E-05 9.89397E-19-5.95702E-19
 -1       911 7.78328E-05-1.57701E-05-2.65943E-05 8.61829E-07 2.77127E-19-7.82687E-19
 -1       912 9.51922E-05-2.84395E-05-2.86084E-05 5.04636E-08 1.24905E-18-4.45968E-18
 -1       913 8.53549E-05-2.99725E-05-2.36503E-05 2.50943E-05 1.40762E-18 8.31562E-19
 -1       914 9.51699E-05-2.84181E-05-2.86080E-05-2.36166E-08 1.57819E-18-6.91928E-19
 -1       915 9.40579E-05-2.19532E-05-3.08969E-05-7.78038E-07 3.51441E-19-8.75737E-19
 -1       916 9.32648E-05-2.08012E-05-3.10562E-05 5.12504E-07 1.11550E-18-9.19781E-19
 -1       917 9.39309E-05-2.49126E-05-2.95793E-05-1.91748E-06 7.34476E-19-6.22608E-19
 -1       918 9.41695E-05-2.29844E-05-3.05085E-05 3.45730E-07 1.12408E-18-5.05492E-19
 -1       919 7.10665E-05-1.29830E-05-2.48859E-05-9.25260E-07-1.25127E-18-4.12846E-19
 -1       920 9.36990E-05-2.18420E-05-3.07982E-05 6.17543E-07 1.10686E-18-9.69486E-19
 -1       921 6.79979E-05-1.84249E-05-2.11490E-05 2.02890E-05 1.38748E-18-1.60910E-19
 -1       922 9.51647E-05-2.84080E-05-2.86100E-05 1.67274E-08 2.25390E-18-1.43852E-18
 -1       923 9.51756E-05-2.84200E-05-2.86096E-05 3.61705E-08 1.19043E-18-5.08670E-19
 -1       924 9.52045E-05-2.48402E-05-3.01577E-05 6.50688E-07 3.18730E-19-2.43329E-19
 -1       925 9.55433E-05-2.61491E-05-2.97403E-05 1.67019E-06 1.37028E-19 8.79824E-20
 -1       926 9.57489E-05-2.71655E-05-2.93928E-05 2.56320E-06 6.76582E-20-1.20993E-19
 -1       927 9.59852E-05-2.80855E-05-2.90999E-05 3.40941E-06 1.69235E-19-2.91233E-20
 -1       928 9.64338E-05-2.91110E-05-2.88526E-05 4.23579E-06 5.11882E-19 8.87501E-20
 -1       929 9.73011E-05-3.04466E-05-2.86520E-05 5.02823E-06 5.61633E-19-1.01970E-19
 -1       930 9.88097E-05-3.22708E-05-2.85167E-05 5.69571E-06 6.77516E-19 1.24238E-19
 -1       931 1.01179E-04-3.46957E-05-2.84930E-05 6.02197E-06 4.04440E-19 6.23292E-19
 -1       932 1.04541E-04-3.76517E-05-2.86664E-05 5.63413E-06 4.00448E-20 1.04843E-18
 -1       933 1.08789E-04-4.06994E-05-2.91758E-05 3.96659E-06-3.69679E-20 9.88676E-19
 -1       934 1.13224E-04-4.26734E-05-3.02308E-05 5.30795E-07-3.72741E-19 1.21588E-18
 -1       935 9.33685E-05-2.09182E-05-3.10494E-05 5.15691E-08 8.03311E-19-1.04116E-18
 -1       936 1.14721E-04-4.21027E-05-3.11538E-05 2.54347E-06 5.75840E-19-6.74410E-19
 -1       937 1.10952E-04-4.15762E-05-2.97361E-05-1.70693E-06 1.07131E-18-4.34202E-19
 -1       938 1.06443E-04-3.89472E-05-2.89388E-05-4.26415E-06 6.28856E-19 1.03398E-21
 -1       939 1.02237E-04-3.56855E-05-2.85392E-05-5.27647E-06 4.33247E-19-8.78809E-19
 -1       940 9.90993E-05-3.28649E-05-2.83859E-05-5.30431E-06-3.04050E-19-2.07071E-18
 -1       941 9.69795E-05-3.07421E-05-2.83874E-05-4.75533E-06 1.16981E-18-1.99875E-18
 -1       942 9.56234E-05-2.92544E-05-2.84437E-05-4.01383E-06 5.22443E-19-1.78272E-18
 -1       943 9.48424E-05-2.83087E-05-2.85144E-05-3.25745E-06-1.79574E-19-7.44966E-19
 -1       944 9.44587E-05-2.77760E-05-2.85783E-05-2.57309E-06-7.49304E-19-6.65974E-19
 -1       945 9.43287E-05-2.75319E-05-2.86272E-05-1.99190E-06 1.52730E-18-5.46176E-19
 -1       946 9.43500E-05-2.74785E-05-2.86592E-05-1.51861E-06-2.67940E-19 1.56880E-19
 -1       947 9.44489E-05-2.75373E-05-2.86764E-05-1.14282E-06-1.43068E-18 2.30965E-19
 -1       948 9.45798E-05-2.76554E-05-2.86819E-05-8.49056E-07-1.83023E-18 1.69928E-19
 -1       949 9.47149E-05-2.77973E-05-2.86790E-05-6.22395E-07-2.13592E-18 2.18701E-19
 -1       950 9.48389E-05-2.79407E-05-2.86706E-05-4.49309E-07-5.18050E-19-3.42677E-19
 -1       951 9.49445E-05-2.80731E-05-2.86592E-05-3.18327E-07-4.82851E-19-2.29648E-18
 -1       952 9.50298E-05-2.81884E-05-2.86463E-05-2.20144E-07 1.06354E-18-1.59772E-18
 -1       953 9.50958E-05-2.82847E-05-2.86333E-05-1.47700E-07 3.16051E-18-5.69093E-19
 -1       954 9.51447E-05-2.83629E-05-2.86208E-05-9.45781E-08 2.89016E-18 1.44313E-18
 -1       955 7.46907E-05-1.67308E-05-2.48275E-05 8.36183E-06 6.58790E-19 8.08404E-20
 -1       956 8.42094E-05-2.02372E-05-2.74179E-05 2.04465E-06 1.71000E-19 2.53129E-19
 -1       957 1.05705E-04-4.19269E-05-2.73146E-05 1.64463E-05-1.48753E-19-4.50256E-19
 -1       958 9.37891E-05-2.67328E-05-2.87385E-05 7.90272E-07-8.00137E-19 4.30466E-18
 -1       959 9.23535E-05-2.54056E-05-2.86920E-05 9.44535E-07 5.80442E-19-2.63935E-19
 -1       960 9.42294E-05-2.71903E-05-2.87311E-05 6.57335E-07 4.25081E-19 5.98884E-18
 -1       961 9.45441E-05-2.75418E-05-2.87153E-05 5.24720E-07-2.79189E-20 4.54849E-18
 -1       962 9.47675E-05-2.78102E-05-2.86960E-05 4.04204E-07-3.35014E-19 3.74335E-18
 -1       963 9.49247E-05-2.80139E-05-2.86760E-05 3.01303E-07-1.11217E-18 2.89642E-18
 -1       964 9.50296E-05-2.81611E-05-2.86579E-05 2.20391E-07-4.43563E-19 1.23239E-18
 -1       965 9.51063E-05-2.82787E-05-2.86404E-05 1.52853E-07 2.28852E-21-1.64612E-18
 -1       966 9.51576E-05-2.83661E-05-2.86249E-05 1.00849E-07-1.06282E-19-1.50467E-18
 -1       967 9.51765E-05-2.84051E-05-2.86163E-05 7.23382E-08 1.48574E-18-3.83789E-18
 -1       968 9.53503E-05-3.46455E-05-2.60086E-05 1.92795E-05 4.41600E-19-6.85695E-19
 -1       969 1.09125E-04-4.33499E-05-2.81567E-05-1.28056E-05 1.34164E-18-9.16970E-19
 -1       970 9.31852E-05-2.61496E-05-2.87295E-05 8.98826E-07-6.31392E-19 9.35607E-19
 -1       971 8.75013E-05-2.18099E-05-2.81551E-05 2.45372E-07 2.77715E-19 1.50953E-19
 -1       972 1.16496E-04-4.29466E-05-3.15154E-05-3.19537E-06-5.46778E-19 1.41427E-18
 -1       973 9.28699E-05-2.45497E-05-2.92800E-05-2.54710E-06 6.59508E-19-5.14173E-19
 -1       974 9.36739E-05-2.13445E-05-3.09943E-05-3.85067E-07 7.21624E-19-1.03845E-18
 -1       975 6.82935E-05-1.30336E-05-2.36648E-05-6.94443E-06-1.57860E-18-1.80603E-18
 -1       976 9.51637E-05-2.84089E-05-2.86092E-05-3.97327E-09 1.78235E-18-3.63432E-18
 -1       977 1.15242E-04-4.63248E-05-2.95127E-05 7.33154E-06-3.71812E-19 8.63835E-19
 -1       978 8.75682E-05-2.18923E-05-2.81468E-05-1.15011E-07 5.29211E-19-2.97268E-18
 -1       979 7.99936E-05-1.84517E-05-2.63759E-05 4.54912E-06 3.12237E-19 3.60372E-19
 -1       980 9.40480E-05-3.38954E-05-2.57549E-05-2.03833E-05 2.31558E-18 9.77589E-19
 -1       981 7.77852E-05-2.19915E-05-2.38900E-05-1.90105E-05 2.24548E-18-9.01093E-19
 -1       982 9.47149E-05-2.35390E-05-3.05067E-05-2.48531E-08 3.93960E-19-4.54787E-19
 -1       983 8.47170E-05-2.58692E-05-2.51885E-05 1.77535E-05 1.11394E-18 4.78934E-19
 -1       984 8.99675E-05-2.30860E-05-2.86637E-05-7.14438E-07 3.54103E-19 4.35015E-19
 -1       985 9.51163E-05-2.83294E-05-2.86230E-05-5.89218E-08 3.64955E-18 1.43885E-18
 -1       986 8.96496E-05-2.32919E-05-2.84391E-05 5.59946E-07-7.66634E-20-2.00740E-18
 -1       987 8.47660E-05-2.02546E-05-2.76477E-05-1.39020E-06 1.60928E-18-3.22855E-18
 -1       988 8.10732E-05-1.84641E-05-2.68288E-05-3.56051E-06 3.34402E-19-3.17377E-18
 -1       989 9.40949E-05-2.40518E-05-3.00180E-05-3.17030E-07 1.03399E-18-4.60393E-19
 -1       990 9.51240E-05-2.83438E-05-2.86201E-05 4.91768E-09 1.33474E-18-2.91311E-18
 -1       991 9.12151E-05-2.44671E-05-2.86064E-05 8.66618E-07-2.61286E-19-5.51328E-19
 -1       992 9.39868E-05-2.26177E-05-3.05870E-05 4.53129E-07 6.69462E-19-7.51068E-19
 -1       993 9.51331E-05-2.83526E-05-2.86202E-05 3.72599E-08 1.55335E-18-1.09835E-18
 -1       994 9.40330E-05-2.31274E-05-3.03866E-05 4.20012E-07 6.76654E-19-6.33838E-19
 -1       995 9.51309E-05-2.59996E-05-2.96288E-05 1.93024E-06-5.56143E-20-9.40640E-19
 -1       996 9.51665E-05-2.68702E-05-2.92694E-05 2.83615E-06 1.07875E-19-8.27769E-19
 -1       997 9.52445E-05-2.77061E-05-2.89451E-05 3.85431E-06 4.67277E-19-3.32640E-19
 -1       998 9.55754E-05-2.87293E-05-2.86488E-05 5.05488E-06 7.43776E-19-2.38666E-19
 -1       999 9.64173E-05-3.01878E-05-2.83841E-05 6.42229E-06 4.48732E-19-1.77891E-19
 -1      1000 9.80957E-05-3.23489E-05-2.81780E-05 7.87463E-06 7.00916E-19-1.06268E-19
 -1      1001 1.01006E-04-3.54442E-05-2.80991E-05 9.09391E-06 7.42154E-19 9.31543E-20
 -1      1002 1.05492E-04-3.94819E-05-2.82890E-05 9.49748E-06 3.11516E-19 5.89220E-19
 -1      1003 9.87044E-05-3.32769E-05-2.80291E-05-8.27087E-06 4.07120E-19-5.50552E-19
 -1      1004 9.60615E-05-3.05433E-05-2.80797E-05-6.82761E-06 1.04447E-18 8.29657E-19
 -1      1005 9.46143E-05-2.88007E-05-2.82055E-05-5.37587E-06 6.14309E-19-4.99136E-20
 -1      1006 9.38741E-05-2.77482E-05-2.83398E-05-4.09969E-06 7.34937E-19-1.12949E-20
 -1      1007 9.36005E-05-2.72045E-05-2.84555E-05-3.04989E-06-5.49598E-19 3.03803E-19
 -1      1008 9.36034E-05-2.69988E-05-2.85446E-05-2.23479E-06-2.34547E-19 9.91992E-19
 -1      1009 9.37594E-05-2.70111E-05-2.86065E-05-1.61343E-06 5.69025E-19-6.34700E-19
 -1      1010 9.39785E-05-2.71399E-05-2.86452E-05-1.15653E-06-2.87782E-19-5.11364E-19
 -1      1011 9.42123E-05-2.73255E-05-2.86659E-05-8.21564E-07-2.40235E-18 4.19244E-19
 -1      1012 9.44333E-05-2.75292E-05-2.86732E-05-5.79052E-07-1.65751E-18 1.22592E-18
 -1      1013 9.46269E-05-2.77267E-05-2.86716E-05-4.04543E-07-1.13980E-18 5.99322E-19
 -1      1014 9.47878E-05-2.79049E-05-2.86641E-05-2.79401E-07-7.85241E-19 5.09511E-19
 -1      1015 9.49162E-05-2.80582E-05-2.86535E-05-1.89875E-07 1.70424E-19 1.61687E-18
 -1      1016 9.50154E-05-2.81858E-05-2.86413E-05-1.26642E-07 2.14286E-18 2.26903E-18
 -1      1017 9.50706E-05-2.82624E-05-2.86321E-05-8.85883E-08 3.53802E-18 2.22418E-18
 -1      1018 7.71485E-05-1.81424E-05-2.53004E-05-1.00883E-05-2.63656E-19-4.01758E-18
 -1      1019 8.57394E-05-2.43112E-05-2.63172E-05 1.19481E-05 4.99926E-19-2.78530E-19
 -1      1020 8.77371E-05-2.28934E-05-2.77900E-05 4.09105E-06 1.02086E-19 4.63823E-19
 -1      1021 9.38518E-05-2.68840E-05-2.87006E-05 3.32443E-07-2.15847E-18 1.17807E-18
 -1      1022 9.47580E-05-2.78434E-05-2.86777E-05 2.17291E-07-1.17103E-19 3.82080E-18
 -1      1023 9.49066E-05-2.80261E-05-2.86631E-05 1.69509E-07 6.15389E-19 2.07213E-18
 -1      1024 9.50195E-05-2.81759E-05-2.86474E-05 1.23246E-07 9.55713E-19 1.69583E-18
 -1      1025 9.50980E-05-2.82885E-05-2.86325E-05 8.63671E-08 1.80532E-19-4.67032E-19
 -1      1026 1.00542E-04-3.66197E-05-2.73950E-05 1.37198E-05 6.23664E-19-4.05327E-20
 -1      1027 8.67064E-05-2.62839E-05-2.58929E-05-1.54325E-05 2.44751E-18 4.91815E-19
 -1      1028 1.00594E-04-3.65629E-05-2.74421E-05-1.33019E-05 7.12145E-19-8.82107E-19
 -1      1029 9.45430E-05-2.75966E-05-2.86913E-05 2.69038E-07 8.44684E-19 4.85328E-18
 -1      1030 9.42491E-05-2.72816E-05-2.87004E-05 3.12988E-07-1.84227E-19 3.29674E-18
 -1      1031 7.63678E-05-1.67881E-05-2.55222E-05-7.04016E-06-3.31602E-19-3.98319E-18
 -1      1032 9.51161E-05-2.83321E-05-2.86217E-05-2.53135E-08 1.68017E-18-2.20844E-18
 -1      1033 9.34632E-05-2.44762E-05-2.95663E-05-7.26585E-07 7.81004E-19-2.19476E-19
 -1      1034 9.42026E-05-2.28926E-05-3.05630E-05 3.82075E-07 5.39863E-19-9.37580E-19
 -1      1035 9.26875E-05-3.05070E-05-2.66531E-05 1.45689E-05 5.73029E-19-6.48320E-19
 -1      1036 9.51531E-05-2.83763E-05-2.86186E-05 5.82796E-08 2.51969E-18-1.58508E-18
 -1      1037 9.49505E-05-2.48533E-05-3.00415E-05 1.09338E-06 4.26315E-19-9.10933E-19
 -1      1038 9.18489E-05-2.40142E-05-2.90734E-05-1.13575E-06 5.04218E-19 2.92782E-20
 -1      1039 9.50745E-05-2.82683E-05-2.86314E-05 3.08515E-08 1.33827E-18-1.14808E-18
 -1      1040 1.11454E-04-4.39749E-05-2.89664E-05 8.33216E-06-2.27406E-19 1.25717E-18
 -1      1041 8.97992E-05-2.35855E-05-2.83764E-05 2.11166E-06 2.30816E-19 3.30252E-19
 -1      1042 8.90969E-05-2.33369E-05-2.81830E-05-1.62411E-06-8.37136E-19-4.62870E-19
 -1      1043 8.72715E-05-2.23958E-05-2.78035E-05-3.19389E-06 5.44471E-19-2.23690E-18
 -1      1044 8.50909E-05-2.15686E-05-2.72207E-05-5.66223E-06 8.04782E-19-4.34379E-18
 -1      1045 9.33280E-05-2.63960E-05-2.86852E-05 3.00159E-07-2.50639E-18 1.35617E-18
 -1      1046 9.39418E-05-3.06069E-05-2.71384E-05-1.23124E-05 1.87253E-18 1.82523E-18
 -1      1047 9.26370E-05-2.57999E-05-2.86445E-05 1.74898E-07-9.98440E-19 9.94706E-19
 -1      1048 9.17355E-05-2.50849E-05-2.85646E-05-1.14404E-07-1.17084E-18-2.90103E-19
 -1      1049 9.50575E-05-2.82458E-05-2.86331E-05-1.10208E-08 2.90853E-18-1.80627E-18
 -1      1050 8.63386E-05-2.30700E-05-2.71130E-05 7.42591E-06 7.02268E-19-4.24707E-19
 -1      1051 9.45680E-05-2.43626E-05-3.00876E-05 9.38023E-07 3.40054E-19-8.16031E-19
 -1      1052 9.39964E-05-2.42992E-05-2.98708E-05 4.40659E-07 5.04387E-19-1.40272E-19
 -1      1053 8.27418E-05-2.11903E-05-2.63466E-05-9.35602E-06 1.70569E-19-3.69555E-18
 -1      1054 9.42841E-05-2.43076E-05-2.99896E-05 7.93797E-07 2.78516E-19-5.62388E-19
 -1      1055 9.41857E-05-2.63261E-05-2.90831E-05 2.93093E-06 4.81171E-19-5.53217E-19
 -1      1056 9.39525E-05-2.69447E-05-2.87175E-05 4.21744E-06 6.09065E-19-7.95765E-19
 -1      1057 9.39420E-05-2.77982E-05-2.83464E-05 5.91158E-06 4.88276E-19-9.06297E-19
 -1      1058 9.44729E-05-2.92036E-05-2.79709E-05 8.08055E-06 7.04861E-19-4.46013E-19
 -1      1059 9.59606E-05-3.15247E-05-2.76117E-05 1.06465E-05 8.10808E-19-2.63889E-19
 -1      1060 9.38971E-05-2.95185E-05-2.75883E-05-9.40659E-06 7.71898E-19 1.76860E-18
 -1      1061 9.27791E-05-2.77565E-05-2.78665E-05-6.92730E-06 3.29181E-19 2.09205E-18
 -1      1062 9.23436E-05-2.67460E-05-2.81144E-05-4.98264E-06 3.47644E-20 2.48980E-18
 -1      1063 9.23782E-05-2.63263E-05-2.83071E-05-3.47940E-06-2.53788E-19 1.35399E-18
 -1      1064 9.26167E-05-2.62402E-05-2.84485E-05-2.38535E-06-4.03624E-19 4.41111E-19
 -1      1065 9.30327E-05-2.64120E-05-2.85489E-05-1.59780E-06-8.78531E-19-2.96338E-19
 -1      1066 9.34189E-05-2.66582E-05-2.86121E-05-1.07566E-06 4.43006E-19-1.03453E-18
 -1      1067 9.37942E-05-2.69447E-05-2.86496E-05-7.05757E-07-1.37500E-18-1.66542E-18
 -1      1068 9.41229E-05-2.72313E-05-2.86676E-05-4.59729E-07-1.94811E-18-1.27601E-18
 -1      1069 9.43985E-05-2.74955E-05-2.86726E-05-2.96687E-07-1.58751E-18-6.52395E-19
 -1      1070 9.46216E-05-2.77269E-05-2.86691E-05-1.89607E-07-8.71656E-19-4.94002E-19
 -1      1071 9.47968E-05-2.79223E-05-2.86605E-05-1.19766E-07 8.40324E-19-3.21905E-19
 -1      1072 9.49313E-05-2.80837E-05-2.86492E-05-7.10343E-08 1.11856E-18-8.30727E-19
 -1      1073 9.49347E-05-2.80786E-05-2.86522E-05 5.76107E-08 9.66555E-19 8.55654E-19
 -1      1074 9.47990E-05-2.79151E-05-2.86646E-05 6.29203E-08 5.59968E-19 4.78983E-19
 -1      1075 8.79757E-05-2.48064E-05-2.70819E-05-9.27252E-06 6.87612E-19 3.99962E-19
 -1      1076 9.05709E-05-2.42558E-05-2.84210E-05-6.63317E-07-4.10336E-20-9.26249E-19
 -1      1077 9.50590E-05-2.82491E-05-2.86326E-05-5.05497E-08 3.88439E-18 1.28642E-18
 -1      1078 9.07576E-05-2.71964E-05-2.72392E-05 1.01885E-05 5.45182E-19-2.66570E-19
 -1      1079 9.46092E-05-2.76993E-05-2.86757E-05 6.15152E-08 2.04807E-19 2.43916E-19
 -1      1080 9.44766E-05-2.57310E-05-2.94614E-05 1.95241E-06 2.45856E-19-7.85704E-19
 -1      1081 9.30703E-05-2.46636E-05-2.93168E-05 5.87104E-07 4.10435E-19 4.36351E-19
 -1      1082 9.07144E-05-2.47356E-05-2.82780E-05-2.37169E-06-2.94531E-19-4.11979E-19
 -1      1083 9.17312E-05-2.43411E-05-2.88775E-05 1.10530E-06 4.75877E-21 3.70771E-19
 -1      1084 9.43560E-05-2.74303E-05-2.86825E-05 4.00298E-08-1.99672E-18-1.66114E-18
 -1      1085 8.97317E-05-2.43714E-05-2.80124E-05-3.88325E-06-1.11589E-18-4.52893E-19
 -1      1086 9.09780E-05-2.52141E-05-2.81861E-05 4.80341E-06 4.50291E-19-1.73472E-19
 -1      1087 9.50024E-05-2.81741E-05-2.86409E-05-6.21653E-08 2.39639E-18-4.16864E-19
 -1      1088 8.86791E-05-2.42419E-05-2.76150E-05-6.14033E-06 6.47072E-19-3.23303E-19
 -1      1089 9.36000E-05-2.67114E-05-2.86667E-05-1.39461E-07-1.12885E-18-1.33771E-18
 -1      1090 9.40253E-05-2.71027E-05-2.86812E-05-1.81003E-08-2.22571E-18-2.33447E-18
 -1      1091 9.30692E-05-2.62618E-05-2.86317E-05-3.62655E-07-2.13710E-18-1.02179E-19
 -1      1092 9.23853E-05-2.57376E-05-2.85645E-05-7.42492E-07-1.07803E-18 8.37591E-19
 -1      1093 9.05438E-05-2.58418E-05-2.77292E-05 7.20462E-06 8.13776E-19-3.33822E-19
 -1      1094 9.27832E-05-2.54549E-05-2.88549E-05 2.70211E-06 4.14327E-19-1.27420E-19
 -1      1095 9.16282E-05-2.52302E-05-2.84547E-05-1.35838E-06-9.48158E-19 9.72625E-19
 -1      1096 9.37372E-05-2.50668E-05-2.94315E-05 1.27383E-06 3.80477E-19 2.28704E-19
 -1      1097 1.16578E-04 2.57004E-10-4.17801E-05-4.12370E-05-2.84603E-19 3.72102E-18
 -1      1098 8.86715E-05 7.23377E-11-3.72498E-05-2.39086E-05-1.14561E-19-1.48427E-18
 -1      1099 8.41788E-05 4.17583E-11-3.58013E-05-1.75633E-05-5.99805E-20-3.21842E-18
 -1      1100 8.24479E-05 3.20928E-11-3.51167E-05-1.34918E-05-2.71845E-20-3.73263E-18
 -1      1101 8.16205E-05 2.70863E-11-3.47759E-05-1.01925E-05-1.72054E-21-3.81226E-18
 -1      1102 8.11744E-05 2.40501E-11-3.45970E-05-7.34331E-06 1.51142E-20-3.63770E-18
 -1      1103 8.09238E-05 2.21240E-11-3.44994E-05-4.76133E-06 1.14383E-20-3.41062E-18
 -1      1104 8.07922E-05 2.10258E-11-3.44499E-05-2.32189E-06 2.94642E-20-3.13168E-18
 -1      1105 8.07540E-05 2.06480E-11-3.44360E-05 3.59486E-08 3.46597E-20-2.81968E-18
 -1      1106 8.08018E-05 2.09690E-11-3.44544E-05 2.39060E-06 3.73737E-20-2.50661E-18
 -1      1107 8.09439E-05 2.20394E-11-3.45085E-05 4.82223E-06 5.56064E-20-2.07225E-18
 -1      1108 8.12076E-05 2.39616E-11-3.46106E-05 7.39629E-06 5.86967E-20-1.49201E-18
 -1      1109 8.16636E-05 2.70827E-11-3.47938E-05 1.02422E-05 7.05817E-20-7.10356E-19
 -1      1110 8.24997E-05 3.21937E-11-3.51380E-05 1.35480E-05 8.14210E-20 4.68879E-19
 -1      1111 8.42399E-05 4.19949E-11-3.58267E-05 1.76380E-05 9.14266E-20 2.31122E-18
 -1      1112 8.87608E-05 7.26759E-11-3.72848E-05 2.40031E-05 7.69741E-20 5.45579E-18
 -1      1113 1.16791E-04 2.57623E-10-4.17303E-05 4.14949E-05-2.71051E-20 1.06303E-17
 -1      1114 1.29812E-04-2.57003E-05-4.01827E-05-2.59528E-05-1.05074E-18 6.81480E-18
 -1      1115 9.73796E-05-2.88416E-05-3.15533E-05-6.58476E-07-3.70709E-19 4.54084E-18
 -1      1116 9.03204E-05-2.70775E-05-2.79388E-05 3.90733E-07-1.14641E-19 1.59368E-18
 -1      1117 8.86305E-05-2.66892E-05-2.67600E-05 2.53529E-07-1.20702E-19-1.97809E-19
 -1      1118 8.85264E-05-2.66391E-05-2.65827E-05 1.70069E-07-6.29154E-20-1.85161E-18
 -1      1119 8.91960E-05-2.68090E-05-2.67623E-05 1.24930E-07-3.22418E-20-2.55891E-18
 -1      1120 9.02610E-05-2.71067E-05-2.70789E-05 9.78945E-08-1.06020E-20-3.29120E-18
 -1      1121 9.15228E-05-2.74716E-05-2.74544E-05 8.07179E-08-3.69750E-21-3.09405E-18
 -1      1122 9.28540E-05-2.78617E-05-2.78488E-05 6.88959E-08-3.76594E-20-3.55183E-18
 -1      1123 9.41506E-05-2.82431E-05-2.82305E-05 5.93731E-08-7.41650E-21-4.27591E-18
 -1      1124 9.53042E-05-2.85820E-05-2.85663E-05 4.93099E-08 7.03352E-20-5.24873E-18
 -1      1125 9.61842E-05-2.88387E-05-2.88163E-05 3.55506E-08 1.15775E-19-4.78253E-18
 -1      1126 9.66290E-05-2.89649E-05-2.89329E-05 1.46586E-08-3.21343E-20-5.29449E-18
 -1      1127 9.64532E-05-2.89058E-05-2.88628E-05-1.63879E-08-8.75885E-20-6.01934E-18
 -1      1128 9.54747E-05-2.86087E-05-2.85568E-05-5.87180E-08-9.61151E-20-6.21893E-18
 -1      1129 9.35701E-05-2.80388E-05-2.79853E-05-1.09462E-07-8.54908E-20-7.30346E-18
 -1      1130 9.07517E-05-2.72020E-05-2.71597E-05-1.59868E-07-1.38935E-19-7.73998E-18
 -1      1131 8.72437E-05-2.61666E-05-2.61509E-05-1.95323E-07 1.79150E-19-8.05838E-18
 -1      1132 8.35177E-05-2.50720E-05-2.50955E-05-1.99094E-07 1.89837E-19-7.88799E-18
 -1      1133 8.02388E-05-2.41125E-05-2.41779E-05-1.59899E-07 1.51176E-19-7.35955E-18
 -1      1134 7.81052E-05-2.34900E-05-2.35859E-05-8.00409E-08-2.65194E-20-6.94771E-18
 -1      1135 7.76237E-05-2.33501E-05-2.34537E-05 2.19699E-08-6.01228E-20-6.68823E-18
 -1      1136 7.89244E-05-2.37301E-05-2.38158E-05 1.17907E-07-1.07979E-19-7.30903E-18
 -1      1137 8.17116E-05-2.45455E-05-2.45945E-05 1.82325E-07-4.00570E-20-8.26371E-18
 -1      1138 8.53799E-05-2.56218E-05-2.56290E-05 2.03422E-07 1.15690E-19-7.02532E-18
 -1      1139 8.92310E-05-2.67567E-05-2.67297E-05 1.85567E-07 2.20758E-19-6.62824E-18
 -1      1140 9.26804E-05-2.77784E-05-2.77320E-05 1.43517E-07 2.19772E-19-5.64937E-18
 -1      1141 9.53728E-05-2.85810E-05-2.85303E-05 9.39120E-08-1.46083E-19-6.43409E-18
 -1      1142 9.71933E-05-2.91283E-05-2.90838E-05 4.91700E-08-6.61579E-21-4.88772E-18
 -1      1143 9.82077E-05-2.94375E-05-2.94045E-05 1.55341E-08 1.37066E-19-4.34419E-18
 -1      1144 9.85811E-05-2.95560E-05-2.95351E-05-5.87998E-09-8.22284E-20-3.99485E-18
 -1      1145 9.85078E-05-2.95404E-05-2.95296E-05-1.69465E-08-1.68895E-19-5.10698E-18
 -1      1146 9.81658E-05-2.94432E-05-2.94396E-05-2.06352E-08-2.85795E-19-8.53993E-18
 -1      1147 9.76953E-05-2.93062E-05-2.93071E-05-1.98167E-08-1.86920E-19-9.07757E-18
 -1      1148 9.71943E-05-2.91587E-05-2.91618E-05-1.67269E-08-1.17797E-19-9.48299E-18
 -1      1149 9.67234E-05-2.90191E-05-2.90230E-05-1.28679E-08 2.84751E-19-8.18955E-18
 -1      1150 9.63146E-05-2.88974E-05-2.89012E-05-9.11918E-09-3.31927E-21-7.87257E-18
 -1      1151 9.59800E-05-2.87972E-05-2.88005E-05-5.91211E-09-2.51866E-19-5.17002E-18
 -1      1152 9.57193E-05-2.87189E-05-2.87215E-05-3.39135E-09-2.35652E-20-4.10916E-18
 -1      1153 9.55251E-05-2.86603E-05-2.86622E-05-1.53938E-09 4.41106E-19-2.51042E-18
 -1      1154 9.53871E-05-2.86185E-05-2.86198E-05-2.60814E-10-6.54963E-19-3.44251E-18
 -1      1155 9.52945E-05-2.85902E-05-2.85912E-05 5.65948E-10 2.03997E-19-4.58026E-18
 -1      1156 9.52370E-05-2.85726E-05-2.85731E-05 1.06026E-09-1.35455E-19-7.62221E-18
 -1      1157 9.52057E-05-2.85628E-05-2.85632E-05 1.32572E-09-1.63647E-19-6.88844E-18
 -1      1158 9.51934E-05-2.85588E-05-2.85590E-05 1.44542E-09 2.36800E-19-5.61484E-18
 -1      1159 9.51942E-05-2.85588E-05-2.85588E-05 1.48023E-09 2.04322E-19-3.11785E-18
 -1      1160 9.52032E-05-2.85613E-05-2.85612E-05 1.46494E-09-3.87022E-19-2.32924E-18
 -1      1161 9.52165E-05-2.85651E-05-2.85648E-05 1.36554E-09 4.85997E-19 4.07641E-19
 -1      1162 9.52297E-05-2.85689E-05-2.85683E-05 1.07658E-09 1.27454E-19 1.97712E-18
 -1      1163 9.52366E-05-2.85711E-05-2.85705E-05 1.01353E-10 2.88127E-19 1.14161E-18
 -1      1164 1.30906E-04-2.57622E-05-4.02986E-05 2.67066E-05 2.49239E-19 1.42611E-17
 -1      1165 9.80101E-05-2.89984E-05-3.18001E-05 8.40084E-07 6.08540E-20 1.37722E-17
 -1      1166 9.04145E-05-2.70905E-05-2.80203E-05-3.90220E-07 7.26066E-20 1.21020E-17
 -1      1167 8.86120E-05-2.66855E-05-2.67723E-05-2.53535E-07 2.56095E-21 1.05777E-17
 -1      1168 8.84894E-05-2.66312E-05-2.65794E-05-1.67116E-07-3.53239E-20 9.98202E-18
 -1      1169 8.92035E-05-2.68234E-05-2.67715E-05-1.22448E-07 5.59753E-20 9.49275E-18
 -1      1170 9.04140E-05-2.71657E-05-2.71393E-05-9.23912E-08 1.48421E-20 9.04405E-18
 -1      1171 9.20552E-05-2.76501E-05-2.76399E-05-7.55820E-08 1.24967E-19 8.93247E-18
 -1      1172 9.41055E-05-2.82644E-05-2.82686E-05-6.94750E-08 6.26763E-20 8.46525E-18
 -1      1173 9.66743E-05-2.90373E-05-2.90618E-05-7.58108E-08-5.80052E-20 8.37581E-18
 -1      1174 9.98839E-05-3.00106E-05-3.00571E-05-9.96249E-08 3.98866E-21 8.61382E-18
 -1      1175 1.04117E-04-3.12878E-05-3.13774E-05-1.43255E-07-6.91291E-20 8.72455E-18
 -1      1176 1.09977E-04-3.30529E-05-3.32008E-05-2.31369E-07 3.13932E-20 8.41556E-18
 -1      1177 1.17960E-04-3.54493E-05-3.56606E-05-3.79653E-07 1.23349E-20 8.44661E-18
 -1      1178 1.28602E-04-3.86353E-05-3.88565E-05-5.98398E-07 1.44234E-19 8.35545E-18
 -1      1179 1.41871E-04-4.25985E-05-4.26374E-05-8.34155E-07-5.09328E-20 7.90779E-18
 -1      1180 1.55713E-04-4.67520E-05-4.61942E-05-8.63005E-07 7.01184E-20 8.97940E-18
 -1      1181 1.65401E-04-4.95946E-05-4.81311E-05-2.39154E-07 2.66021E-21 1.21082E-17
 -1      1182 1.61808E-04-4.82694E-05-4.65186E-05 1.74274E-06-8.13946E-20 1.42181E-17
 -1      1183 1.36719E-04-4.04716E-05-4.06420E-05 4.36946E-06 3.33499E-19 1.64197E-17
 -1      1184 1.00807E-04-2.94718E-05-3.36017E-05 4.33456E-06 4.18858E-19 1.44775E-17
 -1      1185 8.09513E-05-2.38531E-05-2.99762E-05 5.90974E-07-2.26052E-19 1.19179E-17
 -1      1186 8.98138E-05-2.65490E-05-3.15098E-05-3.57479E-06 1.80100E-19 1.03020E-17
 -1      1187 1.20741E-04-3.58303E-05-3.72657E-05-4.94553E-06 1.92409E-19 7.65464E-18
 -1      1188 1.51485E-04-4.49780E-05-4.39546E-05-3.20371E-06 1.52201E-21 5.88010E-18
 -1      1189 1.66280E-04-4.97451E-05-4.79448E-05-7.19027E-07 3.38390E-19 5.46844E-18
 -1      1190 1.62708E-04-4.88174E-05-4.77659E-05 6.48950E-07 1.22859E-19 3.19998E-18
 -1      1191 1.50058E-04-4.50698E-05-4.48332E-05 9.10683E-07-5.72012E-20 2.61320E-18
 -1      1192 1.36137E-04-4.08911E-05-4.10626E-05 7.22446E-07-1.58640E-19 4.30081E-18
 -1      1193 1.24620E-04-3.74525E-05-3.76879E-05 4.60980E-07 1.61661E-19 3.25441E-18
 -1      1194 1.15862E-04-3.48215E-05-3.50138E-05 2.95416E-07 2.91436E-19 7.50206E-19
 -1      1195 1.09373E-04-3.28699E-05-3.29988E-05 1.68445E-07-1.06931E-19 1.89510E-18
 -1      1196 1.04841E-04-3.15011E-05-3.15804E-05 9.31064E-08 9.16086E-20-5.16637E-19
 -1      1197 1.01715E-04-3.05520E-05-3.06002E-05 4.95171E-08-2.00826E-19 3.92084E-20
 -1      1198 9.96135E-05-2.99167E-05-2.99415E-05 2.14206E-08-1.04489E-19 2.91717E-18
 -1      1199 9.81641E-05-2.94714E-05-2.94880E-05 1.26748E-08-2.19550E-20 3.07604E-18
 -1      1200 9.71413E-05-2.91587E-05-2.91683E-05 5.05881E-09-8.79119E-20 2.49493E-18
 -1      1201 9.64444E-05-2.89453E-05-2.89508E-05 9.76919E-10 3.44302E-19 7.63849E-19
 -1      1202 9.59725E-05-2.88005E-05-2.88036E-05-1.14490E-09-7.60174E-19 2.37183E-18
 -1      1203 9.56567E-05-2.87031E-05-2.87051E-05-2.20273E-09 4.89593E-19 4.27384E-18
 -1      1204 9.54534E-05-2.86410E-05-2.86416E-05-3.02842E-09 4.34189E-19 1.76192E-18
 -1      1205 9.53228E-05-2.86002E-05-2.86007E-05-2.66124E-09 1.11587E-20 1.37355E-18
 -1      1206 9.52412E-05-2.85748E-05-2.85750E-05-2.55877E-09-4.63579E-20 2.35728E-19
 -1      1207 9.51964E-05-2.85606E-05-2.85607E-05-2.38690E-09 3.55706E-20 5.74508E-18
 -1      1208 9.51768E-05-2.85542E-05-2.85542E-05-2.19351E-09 6.75213E-19 3.98426E-18
 -1      1209 9.51739E-05-2.85531E-05-2.85529E-05-2.04987E-09 6.18825E-19-8.59954E-19
 -1      1210 9.51816E-05-2.85550E-05-2.85549E-05-1.85211E-09-7.68286E-20 2.52353E-18
 -1      1211 9.51960E-05-2.85591E-05-2.85589E-05-1.70843E-09 4.51138E-19 3.25190E-18
 -1      1212 9.52131E-05-2.85641E-05-2.85637E-05-1.53645E-09 4.24443E-19 3.01044E-18
 -1      1213 9.52288E-05-2.85686E-05-2.85679E-05-1.14466E-09-1.17714E-19 2.30124E-18
 -1      1214 9.52366E-05-2.85710E-05-2.85705E-05-6.04443E-11-7.29383E-19-1.77462E-18
 -1      1215 9.52371E-05-2.85718E-05-2.85705E-05-4.22491E-10 7.39322E-19-3.68032E-19
 -1      1216 9.52397E-05-2.85794E-05-2.85681E-05-1.14944E-09 9.73838E-18 4.80429E-19
 -1      1217 9.52437E-05-2.85933E-05-2.85645E-05-1.18838E-09 1.28180E-17-1.49026E-18
 -1      1218 9.52476E-05-2.86064E-05-2.85609E-05-8.92156E-10 2.74565E-18 5.32499E-20
 -1      1219 9.52504E-05-2.86157E-05-2.85582E-05-5.36506E-10 2.42980E-18 4.91672E-19
 -1      1220 9.52519E-05-2.86207E-05-2.85566E-05-2.36432E-10-6.65172E-18-1.14295E-18
 -1      1221 9.52525E-05-2.86224E-05-2.85560E-05-5.09108E-11-9.33799E-18 5.41427E-19
 -1      1222 9.52524E-05-2.86219E-05-2.85560E-05 4.87086E-11-2.61801E-18 6.09106E-19
 -1      1223 9.52520E-05-2.86205E-05-2.85564E-05 8.45397E-11-2.62132E-19-1.91953E-19
 -1      1224 9.52515E-05-2.86189E-05-2.85569E-05 1.02630E-10-7.79073E-18 9.70830E-20
 -1      1225 9.52509E-05-2.86170E-05-2.85575E-05 1.51747E-10-9.25693E-18 1.05392E-19
 -1      1226 9.52500E-05-2.86141E-05-2.85585E-05 2.69040E-10-1.58949E-17 2.94005E-20
 -1      1227 9.52485E-05-2.86091E-05-2.85601E-05 4.75659E-10-1.42219E-17 8.64110E-19
 -1      1228 9.52460E-05-2.86010E-05-2.85625E-05 7.65166E-10-8.31815E-18 7.52110E-19
 -1      1229 9.52429E-05-2.85900E-05-2.85655E-05 1.18855E-09-3.11582E-18 1.82747E-19
 -1      1230 9.52395E-05-2.85786E-05-2.85684E-05 1.19090E-09-1.15612E-18-1.11157E-19
 -1      1231 9.52371E-05-2.85718E-05-2.85705E-05 3.45238E-10-1.47216E-18 1.59011E-19
 -1      1232 3.89751E-05-1.22252E-04 2.16212E-05-1.60812E-05 9.87725E-18 1.01324E-18
 -1      1233 2.33726E-05-9.00904E-05 1.53830E-05-3.59415E-05 1.83594E-17 6.57171E-18
 -1      1234 7.15674E-06-3.28928E-05 7.59970E-07-2.06732E-05 2.05202E-17 1.14587E-17
 -1      1235 2.35517E-05 1.14762E-05-2.03205E-05 3.03008E-05 1.44893E-17 1.30782E-17
 -1      1236 9.62404E-05 1.30768E-05-4.45122E-05 9.15187E-05 9.75443E-18 1.23768E-17
 -1      1237 2.19289E-04-3.38588E-05-6.77281E-05 1.17548E-04 3.80657E-18 7.66565E-18
 -1      1238 3.32120E-04-9.14896E-05-8.37772E-05 7.57362E-05 8.07328E-19 1.00966E-18
 -1      1239 3.71151E-04-1.13881E-04-8.84014E-05-1.16224E-05 9.30730E-19-7.71414E-18
 -1      1240 3.10637E-04-8.02622E-05-8.09722E-05-9.33419E-05 4.33766E-18-1.43860E-17
 -1      1241 1.83449E-04-1.75077E-05-6.18516E-05-1.14867E-04 1.00111E-17-1.94801E-17
 -1      1242 6.87521E-05 1.84351E-05-3.71172E-05-7.47466E-05 1.27089E-17-1.59090E-17
 -1      1243 1.27916E-05 1.22675E-06-1.30649E-05-1.07872E-05 1.05659E-17-9.08189E-18
 -1      1244 1.06244E-05-5.30269E-05 6.65794E-06 3.04642E-05 4.83656E-18-2.74820E-18
 -1      1245 3.03974E-05-1.05687E-04 1.85773E-05 3.15600E-05-2.71051E-18 5.77041E-20
 -1      1246 4.05221E-05-1.24501E-04 2.19824E-05 5.14293E-06-1.07017E-17-4.59198E-19
 -1      1247 3.05835E-05-9.95455E-05 1.71571E-05-2.00997E-05-1.56532E-17-3.27717E-18
 -1      1248 1.24456E-05-4.62875E-05 5.25026E-06-1.98513E-05-1.65697E-17-6.49505E-18
 -1      1249 1.01898E-05 7.21895E-06-1.20200E-05 1.54682E-05-1.49840E-17-9.68836E-18
 -1      1250 4.59969E-05 3.08585E-05-3.21200E-05 6.99753E-05-1.17636E-17-1.18839E-17
 -1      1251 1.21712E-04 1.27635E-05-5.13061E-05 1.11911E-04-8.33311E-18-1.20804E-17
 -1      1252 2.20967E-04-3.62201E-05-6.81474E-05 1.12915E-04-3.63843E-18-7.98159E-18
 -1      1253 3.00770E-04-8.33336E-05-7.89547E-05 6.36756E-05-6.16693E-19-1.12401E-18
 -1      1254 3.21452E-04-9.65337E-05-8.14872E-05-1.54788E-05-7.89858E-19 6.39319E-18
 -1      1255 2.74915E-04-6.74128E-05-7.57303E-05-8.76390E-05-3.57321E-18 1.26343E-17
 -1      1256 1.85745E-04-1.70712E-05-6.27717E-05-1.19792E-04-7.33573E-18 1.50755E-17
 -1      1257 8.98633E-05 2.38475E-05-4.44671E-05-9.93773E-05-9.75951E-18 1.25259E-17
 -1      1258 2.50548E-05 2.59251E-05-2.33242E-05-4.58755E-05-1.00678E-17 8.64821E-18
 -1      1259 7.08196E-06-1.30727E-05-4.08709E-06 3.64942E-06-9.96280E-18 5.95379E-18
 -1      1260 1.95520E-05-6.94559E-05 1.07852E-05 2.39219E-05-5.45235E-18 1.87533E-18
 -1      1261 3.64025E-05-1.13388E-04 1.97980E-05 1.23425E-05 3.64097E-18 1.25493E-19
 -1      1262 1.04311E-04-2.19883E-05-3.78386E-05-1.71302E-05-4.18011E-19 2.24845E-18
 -1      1263 9.04105E-05-6.72552E-06-3.60329E-05-2.01810E-05-7.52589E-19-2.34999E-18
 -1      1264 9.27001E-05-6.79283E-06-3.72110E-05-2.54833E-05-1.05244E-18-1.42863E-18
 -1      1265 8.60349E-05-4.12515E-06-3.51719E-05-1.60916E-05-5.68041E-19-3.47691E-18
 -1      1266 8.72763E-05-4.12312E-06-3.56314E-05-1.85297E-05-6.92926E-19-3.04688E-18
 -1      1267 9.22603E-05-1.05209E-05-3.51204E-05-1.87044E-05-1.23172E-18-2.01975E-18
 -1      1268 8.42124E-05-3.19764E-06-3.47329E-05-1.24604E-05-2.69052E-19-3.80710E-18
 -1      1269 8.48316E-05-3.16872E-06-3.49573E-05-1.42800E-05-3.90112E-19-3.68811E-18
 -1      1270 8.80051E-05-7.41638E-06-3.46203E-05-1.50536E-05-8.11352E-19-2.89619E-18
 -1      1271 8.32431E-05-2.70195E-06-3.45072E-05-9.34490E-06-5.28535E-20-3.78269E-18
 -1      1272 8.35843E-05-2.68732E-06-3.46225E-05-1.08783E-05-1.30668E-19-3.82323E-18
 -1      1273 8.59570E-05-5.95880E-06-3.43524E-05-1.15894E-05-3.63907E-19-3.16584E-18
 -1      1274 8.26853E-05-2.40072E-06-3.43873E-05-6.62843E-06 1.52327E-19-3.60233E-18
 -1      1275 8.28826E-05-2.39358E-06-3.44493E-05-7.96822E-06 9.44706E-20-3.71012E-18
 -1      1276 8.48304E-05-5.13275E-06-3.42116E-05-8.60729E-06 2.10799E-20-3.13992E-18
 -1      1277 8.23506E-05-2.20809E-06-3.43214E-05-4.09640E-06 3.32285E-19-3.38114E-18
 -1      1278 8.24654E-05-2.20514E-06-3.43552E-05-5.35053E-06 2.93874E-19-3.51989E-18
 -1      1279 8.41619E-05-4.62317E-06-3.41361E-05-5.94548E-06 3.36993E-19-3.03479E-18
 -1      1280 8.21788E-05-2.09832E-06-3.42911E-05-1.70583E-06 4.72910E-19-3.08304E-18
 -1      1281 8.22312E-05-2.09728E-06-3.43056E-05-2.89807E-06 4.18484E-19-3.23796E-18
 -1      1282 8.37696E-05-4.31402E-06-3.40966E-05-3.46972E-06 6.16837E-19-2.75321E-18
 -1      1283 8.21427E-05-2.06021E-06-3.42882E-05 6.23732E-07 6.32252E-19-2.79639E-18
 -1      1284 8.21410E-05-2.06026E-06-3.42871E-05-5.47188E-07 5.85991E-19-2.96615E-18
 -1      1285 8.35865E-05-4.16416E-06-3.40806E-05-1.11557E-06 8.74248E-19-2.49014E-18
 -1      1286 8.22384E-05-2.09143E-06-3.43117E-05 2.96931E-06 7.70860E-19-2.43865E-18
 -1      1287 8.21821E-05-2.09251E-06-3.42948E-05 1.78024E-06 7.26313E-19-2.64771E-18
 -1      1288 8.35870E-05-4.15807E-06-3.40833E-05 1.19592E-06 1.08068E-18-2.23588E-18
 -1      1289 8.24819E-05-2.19696E-06-3.43662E-05 5.41161E-06 9.02739E-19-2.00629E-18
 -1      1290 8.23616E-05-2.19926E-06-3.43300E-05 4.16207E-06 8.44770E-19-2.24969E-18
 -1      1291 8.37734E-05-4.29842E-06-3.41046E-05 3.54189E-06 1.32398E-18-1.87783E-18
 -1      1292 8.29069E-05-2.38372E-06-3.44639E-05 7.99569E-06 1.04463E-18-1.37953E-18
 -1      1293 8.27040E-05-2.39113E-06-3.43999E-05 6.66088E-06 9.73817E-19-1.74510E-18
 -1      1294 8.41717E-05-4.60218E-06-3.41486E-05 5.98276E-06 1.52779E-18-1.46073E-18
 -1      1295 8.36296E-05-2.68651E-06-3.46417E-05 1.09258E-05 1.19690E-18-5.54198E-19
 -1      1296 8.32816E-05-2.70188E-06-3.45245E-05 9.39217E-06 1.11681E-18-1.03997E-18
 -1      1297 8.48553E-05-5.11794E-06-3.42279E-05 8.63283E-06 1.75796E-18-8.25301E-19
 -1      1298 8.48924E-05-3.17802E-06-3.49788E-05 1.43351E-05 1.28961E-18 6.85488E-19
 -1      1299 8.42677E-05-3.20786E-06-3.47528E-05 1.25094E-05 1.18757E-18-5.38925E-20
 -1      1300 8.60110E-05-5.96610E-06-3.43718E-05 1.16341E-05 1.92048E-18 2.20229E-20
 -1      1301 8.73564E-05-4.14152E-06-3.56557E-05 1.86062E-05 1.19670E-18 2.70426E-18
 -1      1302 8.61073E-05-4.14940E-06-3.51932E-05 1.61551E-05 1.14522E-18 1.52286E-18
 -1      1303 8.80870E-05-7.45082E-06-3.46395E-05 1.51113E-05 1.90221E-18 1.42524E-18
 -1      1304 9.27628E-05-6.72176E-06-3.72183E-05 2.56279E-05 8.76891E-19 5.66776E-18
 -1      1305 9.05086E-05-6.76736E-06-3.60563E-05 2.02813E-05 8.60533E-19 4.02341E-18
 -1      1306 9.23887E-05-1.06066E-05-3.51355E-05 1.87885E-05 1.63215E-18 3.52080E-18
 -1      1307 1.04690E-04-2.19667E-05-3.79806E-05 1.74878E-05 5.73865E-20 1.01449E-17
 -1      1308 1.05093E-04-3.02216E-05-3.35025E-05-7.82167E-06-9.61382E-19 2.80961E-18
 -1      1309 9.83226E-05-2.78704E-05-3.07728E-05-4.87241E-06-8.14316E-19 1.68411E-18
 -1      1310 9.56394E-05-2.78909E-05-2.92934E-05-2.37443E-06-6.57139E-19 1.32965E-18
 -1      1311 9.35164E-05-2.76309E-05-2.82878E-05-1.92852E-06-5.79847E-19 3.46384E-19
 -1      1312 9.96211E-05-2.80997E-05-3.10198E-05-7.65979E-06-1.42323E-18 2.99876E-19
 -1      1313 9.19204E-05-2.72984E-05-2.76838E-05-7.13942E-07-5.48884E-19 7.50154E-20
 -1      1314 9.13218E-05-2.72372E-05-2.74174E-05-5.99999E-07-5.10589E-19-6.86203E-19
 -1      1315 9.50219E-05-2.78576E-05-2.89099E-05-2.88397E-06-1.05816E-18-2.08330E-19
 -1      1316 9.06817E-05-2.70853E-05-2.72088E-05-2.60743E-08-3.95468E-19-9.99208E-19
 -1      1317 9.07493E-05-2.71537E-05-2.72160E-05 3.78205E-08-3.81069E-19-1.60890E-18
 -1      1318 9.30206E-05-2.76396E-05-2.80521E-05-7.80695E-07-8.83204E-19-7.22426E-19
 -1      1319 9.06218E-05-2.71242E-05-2.71826E-05 3.34388E-07-2.50851E-19-1.69600E-18
 -1      1320 9.10068E-05-2.72659E-05-2.72949E-05 3.70145E-07-2.45626E-19-2.03126E-18
 -1      1321 9.22987E-05-2.75628E-05-2.77586E-05 2.58765E-07-6.30990E-19-1.19235E-18
 -1      1322 9.11671E-05-2.73149E-05-2.73494E-05 5.29721E-07-1.36393E-19-2.12567E-18
 -1      1323 9.17130E-05-2.74972E-05-2.75086E-05 5.48672E-07-5.03976E-20-2.20231E-18
 -1      1324 9.23291E-05-2.76343E-05-2.77366E-05 8.12604E-07-4.12328E-19-1.27024E-18
 -1      1325 9.20347E-05-2.75926E-05-2.76104E-05 6.27834E-07 3.43760E-20-2.20248E-18
 -1      1326 9.26546E-05-2.77937E-05-2.77905E-05 6.35281E-07-2.38352E-20-2.25262E-18
 -1      1327 9.27938E-05-2.78094E-05-2.78573E-05 1.10553E-06-1.58984E-20-1.31284E-18
 -1      1328 9.30580E-05-2.79137E-05-2.79156E-05 6.57981E-07-9.02514E-20-2.21624E-18
 -1      1329 9.36916E-05-2.81174E-05-2.80994E-05 6.55736E-07-1.62051E-19-2.40739E-18
 -1      1330 9.34986E-05-2.80467E-05-2.80542E-05 1.23342E-06-1.65464E-19-1.40326E-18
 -1      1331 9.41174E-05-2.82457E-05-2.82295E-05 6.28976E-07-2.20195E-19-2.41201E-18
 -1      1332 9.47106E-05-2.84370E-05-2.84012E-05 6.16451E-07-2.39414E-19-2.78944E-18
 -1      1333 9.43101E-05-2.83142E-05-2.82838E-05 1.23359E-06-3.75057E-19-1.38886E-18
 -1      1334 9.51060E-05-2.85591E-05-2.85199E-05 5.36865E-07-2.73792E-19-2.83637E-18
 -1      1335 9.55991E-05-2.87207E-05-2.86618E-05 5.11710E-07-1.86587E-20-3.03831E-18
 -1      1336 9.51200E-05-2.85846E-05-2.85111E-05 1.11066E-06-3.97955E-19-1.32191E-18
 -1      1337 9.59092E-05-2.88210E-05-2.87518E-05 3.69942E-07 1.31047E-19-3.44197E-18
 -1      1338 9.62305E-05-2.89310E-05-2.88428E-05 3.28834E-07-8.41971E-20-3.45064E-18
 -1      1339 9.58236E-05-2.88295E-05-2.87030E-05 8.49479E-07-1.99853E-19-1.67857E-18
 -1      1340 9.63946E-05-2.89917E-05-2.88856E-05 1.14686E-07-2.43790E-19-3.64442E-18
 -1      1341 9.64596E-05-2.90230E-05-2.89012E-05 5.46690E-08-2.43277E-19-3.93803E-18
 -1      1342 9.63079E-05-2.90155E-05-2.88253E-05 4.26311E-07-2.96246E-19-2.37495E-18
 -1      1343 9.64129E-05-2.90239E-05-2.88775E-05-2.35495E-07-2.80017E-20-4.06467E-18
 -1      1344 9.61325E-05-2.89464E-05-2.87927E-05-3.14856E-07-1.00579E-19-4.15214E-18
 -1      1345 9.64487E-05-2.91013E-05-2.88429E-05-1.76305E-07-2.32563E-19-2.59854E-18
 -1      1346 9.58153E-05-2.88665E-05-2.86861E-05-6.68319E-07-7.67988E-20-4.10709E-18
 -1      1347 9.51155E-05-2.86531E-05-2.84810E-05-7.62092E-07-3.30876E-19-4.43653E-18
 -1      1348 9.61207E-05-2.90397E-05-2.87232E-05-9.48933E-07-1.89031E-19-2.51413E-18
 -1      1349 9.44897E-05-2.84763E-05-2.82827E-05-1.13973E-06-1.91643E-19-4.31498E-18
 -1      1350 9.33437E-05-2.81134E-05-2.79516E-05-1.23491E-06-8.29100E-20-4.64616E-18
 -1      1351 9.52216E-05-2.87845E-05-2.84443E-05-1.83105E-06-3.27742E-19-2.12379E-18
 -1      1352 9.24161E-05-2.78357E-05-2.76676E-05-1.56614E-06-1.46748E-19-4.67890E-18
 -1      1353 9.08810E-05-2.73370E-05-2.72289E-05-1.64098E-06-3.19408E-19-4.93161E-18
 -1      1354 9.37124E-05-2.83052E-05-2.80051E-05-2.69191E-06-2.24702E-19-2.22328E-18
 -1      1355 8.97272E-05-2.69768E-05-2.68851E-05-1.83149E-06 4.58093E-21-4.81170E-18
 -1      1356 8.79714E-05-2.63946E-05-2.63883E-05-1.85925E-06 2.60070E-19-4.83931E-18
 -1      1357 9.16668E-05-2.76101E-05-2.74360E-05-3.33221E-06-1.08983E-19-1.97825E-18
 -1      1358 8.67468E-05-2.59993E-05-2.60317E-05-1.81703E-06 2.85882E-19-5.25941E-18
 -1      1359 8.50458E-05-2.54260E-05-2.55544E-05-1.77536E-06 1.25166E-19-4.88734E-18
 -1      1360 8.93088E-05-2.67678E-05-2.68038E-05-3.52360E-06 2.04112E-19-2.19361E-18
 -1      1361 8.39689E-05-2.50691E-05-2.52468E-05-1.45142E-06 1.25718E-19-4.99949E-18
 -1      1362 8.26541E-05-2.46203E-05-2.48802E-05-1.33480E-06-1.03037E-19-5.00832E-18
 -1      1363 8.70114E-05-2.59157E-05-2.62067E-05-3.08992E-06-6.38848E-20-2.82026E-18
 -1      1364 8.19550E-05-2.43843E-05-2.46833E-05-7.60053E-07 4.17859E-20-5.24108E-18
 -1      1365 8.13198E-05-2.41654E-05-2.45071E-05-5.88104E-07-1.07944E-19-4.98626E-18
 -1      1366 8.52296E-05-2.52365E-05-2.57547E-05-2.00435E-06-1.61830E-19-2.91160E-18
 -1      1367 8.11665E-05-2.41124E-05-2.44646E-05 1.19777E-07-1.70796E-19-4.84369E-18
 -1      1368 8.13662E-05-2.41799E-05-2.45206E-05 3.05976E-07-3.30383E-19-5.20529E-18
 -1      1369 8.43714E-05-2.49024E-05-2.55413E-05-4.46592E-07-1.38556E-19-3.30882E-18
 -1      1370 8.18020E-05-2.43261E-05-2.46437E-05 9.79229E-07-2.12784E-19-5.64485E-18
 -1      1371 8.27963E-05-2.46650E-05-2.49211E-05 1.13288E-06-1.76990E-19-5.94397E-18
 -1      1372 8.46545E-05-2.50073E-05-2.56147E-05 1.23245E-06-5.69504E-19-3.93858E-18
 -1      1373 8.37235E-05-2.49736E-05-2.51849E-05 1.61808E-06 2.56290E-19-5.79048E-18
 -1      1374 8.52928E-05-2.55041E-05-2.56245E-05 1.70589E-06 3.69159E-19-5.31001E-18
 -1      1375 8.60225E-05-2.55262E-05-2.59630E-05 2.63702E-06 5.11926E-20-3.63184E-18
 -1      1376 8.65118E-05-2.59016E-05-2.59766E-05 1.92051E-06 6.54755E-19-5.06141E-18
 -1      1377 8.83388E-05-2.65108E-05-2.64921E-05 1.93406E-06 5.43742E-19-4.26566E-18
 -1      1378 8.81692E-05-2.63265E-05-2.65181E-05 3.47817E-06 8.15036E-19-3.16779E-18
 -1      1379 8.96202E-05-2.69166E-05-2.68699E-05 1.88457E-06 1.82953E-19-4.56606E-18
 -1      1380 9.13935E-05-2.74971E-05-2.73749E-05 1.83802E-06 1.92640E-19-4.30538E-18
 -1      1381 9.06563E-05-2.72256E-05-2.71781E-05 3.66650E-06 2.34059E-19-2.62059E-18
 -1      1382 9.25456E-05-2.78489E-05-2.77228E-05 1.59704E-06 1.66626E-19-4.61246E-18
 -1      1383 9.40377E-05-2.83264E-05-2.81521E-05 1.51607E-06 1.01199E-19-4.51385E-18
 -1      1384 9.30588E-05-2.80573E-05-2.78373E-05 3.30341E-06-1.20768E-22-3.07361E-18
 -1      1385 9.49427E-05-2.85907E-05-2.84330E-05 1.18071E-06 1.49549E-19-4.65689E-18
 -1      1386 9.60398E-05-2.89320E-05-2.87525E-05 1.09067E-06-1.12530E-19-4.73190E-18
 -1      1387 9.50709E-05-2.87154E-05-2.84116E-05 2.59889E-06 1.50640E-19-3.44157E-18
 -1      1388 9.66570E-05-2.91019E-05-2.89504E-05 7.46730E-07 4.00170E-19-3.97688E-18
 -1      1389 9.73472E-05-2.93081E-05-2.91544E-05 6.65709E-07 4.53388E-19-3.26540E-18
 -1      1390 9.65421E-05-2.91611E-05-2.88517E-05 1.77569E-06 5.97535E-19-3.14768E-18
 -1      1391 9.76941E-05-2.93946E-05-2.92713E-05 3.69626E-07-1.10366E-19-2.86912E-18
 -1      1392 9.80331E-05-2.94883E-05-2.93739E-05 3.06770E-07 9.55377E-20-2.73557E-18
 -1      1393 9.74578E-05-2.94074E-05-2.91431E-05 1.00470E-06 3.04647E-19-2.38015E-18
 -1      1394 9.81608E-05-2.95105E-05-2.94228E-05 8.41429E-08-1.18269E-19-3.08813E-18
 -1      1395 9.82353E-05-2.95222E-05-2.94481E-05 4.14585E-08-4.76967E-19-3.28609E-18
 -1      1396 9.78926E-05-2.94948E-05-2.92979E-05 3.82897E-07-2.88444E-19-2.41363E-18
 -1      1397 9.82060E-05-2.95009E-05-2.94469E-05-1.05312E-07-7.03431E-19-3.37566E-18
 -1      1398 9.81060E-05-2.94605E-05-2.94203E-05-1.30139E-07-7.05365E-19-4.03834E-18
 -1      1399 9.79622E-05-2.94716E-05-2.93434E-05-5.78784E-08-1.03272E-18-2.84638E-18
 -1      1400 9.79786E-05-2.94138E-05-2.93867E-05-2.12001E-07-1.12473E-18-4.58071E-18
 -1      1401 9.77812E-05-2.93459E-05-2.93307E-05-2.23130E-07-8.47481E-19-6.13417E-18
 -1      1402 9.77874E-05-2.93819E-05-2.93117E-05-3.29215E-07-1.59376E-18-2.88600E-18
 -1      1403 9.76037E-05-2.92878E-05-2.92798E-05-2.56214E-07-5.28658E-20-5.94100E-18
 -1      1404 9.73668E-05-2.92102E-05-2.92113E-05-2.58001E-07-1.14679E-19-6.38403E-18
 -1      1405 9.74733E-05-2.92599E-05-2.92327E-05-4.64375E-07-5.48237E-19-3.34243E-18
 -1      1406 9.71742E-05-2.91502E-05-2.91542E-05-2.58376E-07-3.53001E-19-5.57016E-18
 -1      1407 9.69365E-05-2.90745E-05-2.90848E-05-2.54530E-07 3.05058E-19-5.45330E-18
 -1      1408 9.71004E-05-2.91297E-05-2.91309E-05-5.02300E-07-5.35157E-20-2.69512E-18
 -1      1409 9.67515E-05-2.90185E-05-2.90290E-05-2.35602E-07 2.93285E-20-5.48473E-18
 -1      1410 9.65358E-05-2.89512E-05-2.89656E-05-2.28910E-07 2.60299E-19-5.36101E-18
 -1      1411 9.67239E-05-2.90061E-05-2.90238E-05-4.78389E-07 3.03474E-19-2.41890E-18
 -1      1412 9.63714E-05-2.89024E-05-2.89155E-05-2.00627E-07 4.32822E-19-5.20903E-18
 -1      1413 9.61886E-05-2.88462E-05-2.88615E-05-1.92975E-07 9.38064E-21-4.85324E-18
 -1      1414 9.63778E-05-2.88973E-05-2.89226E-05-4.20574E-07 5.59334E-19-3.35925E-18
 -1      1415 9.60505E-05-2.88058E-05-2.88191E-05-1.62025E-07 4.67533E-19-5.17496E-18
 -1      1416 9.59037E-05-2.87612E-05-2.87756E-05-1.54571E-07 6.69095E-19-3.95661E-18
 -1      1417 9.60793E-05-2.88065E-05-2.88337E-05-3.48693E-07 6.28149E-19-3.96167E-18
 -1      1418 9.57930E-05-2.87292E-05-2.87414E-05-1.25005E-07 3.80503E-23-3.09375E-18
 -1      1419 9.56804E-05-2.86955E-05-2.87078E-05-1.18367E-07 4.61013E-19-3.31368E-18
 -1      1420 9.58344E-05-2.87340E-05-2.87596E-05-2.75523E-07 2.14225E-19-3.38414E-18
 -1      1421 9.55951E-05-2.86710E-05-2.86814E-05-9.23114E-08 6.90856E-19-3.12840E-18
 -1      1422 9.55127E-05-2.86467E-05-2.86568E-05-8.67472E-08-2.09976E-19-2.69085E-18
 -1      1423 9.56418E-05-2.86783E-05-2.87006E-05-2.08390E-07 7.87974E-19-2.96591E-18
 -1      1424 9.54497E-05-2.86287E-05-2.86372E-05-6.50357E-08-6.33384E-19-2.36693E-18
 -1      1425 9.53922E-05-2.86120E-05-2.86199E-05-6.05798E-08-7.29779E-19-3.42313E-18
 -1      1426 9.54963E-05-2.86371E-05-2.86556E-05-1.50790E-07-4.68354E-20-2.13086E-18
 -1      1427 9.53476E-05-2.85994E-05-2.86060E-05-4.32566E-08-4.28319E-19-3.63980E-18
 -1      1428 9.53099E-05-2.85887E-05-2.85946E-05-3.98205E-08 2.56793E-19-3.59574E-18
 -1      1429 9.53907E-05-2.86079E-05-2.86225E-05-1.03739E-07-6.43181E-19-1.50463E-18
 -1      1430 9.52800E-05-2.85803E-05-2.85853E-05-2.64987E-08-2.27700E-20-4.44554E-18
 -1      1431 9.52575E-05-2.85741E-05-2.85784E-05-2.39379E-08 3.18987E-20-4.81142E-18
 -1      1432 9.53177E-05-2.85883E-05-2.85993E-05-6.68026E-08-6.36708E-19-2.20903E-18
 -1      1433 9.52389E-05-2.85690E-05-2.85726E-05-1.40443E-08 1.86433E-19-3.53526E-18
 -1      1434 9.52276E-05-2.85661E-05-2.85691E-05-1.22013E-08 1.30113E-19-3.55135E-18
 -1      1435 9.52701E-05-2.85759E-05-2.85840E-05-3.88165E-08 4.09436E-19-1.62932E-18
 -1      1436 9.52175E-05-2.85633E-05-2.85659E-05-5.13332E-09 6.14732E-19-3.78306E-18
 -1      1437 9.52141E-05-2.85627E-05-2.85647E-05-3.86259E-09 7.85179E-19-2.72660E-18
 -1      1438 9.52419E-05-2.85689E-05-2.85747E-05-1.83613E-08 6.35783E-19-3.55542E-19
 -1      1439 9.52099E-05-2.85617E-05-2.85634E-05 9.10795E-10 1.30997E-18-2.32102E-18
 -1      1440 9.52119E-05-2.85627E-05-2.85638E-05 1.72454E-09 9.99713E-19-9.61111E-19
 -1      1441 9.52277E-05-2.85659E-05-2.85697E-05-4.06886E-09 1.80581E-18-2.00508E-19
 -1      1442 9.52116E-05-2.85627E-05-2.85637E-05 4.59579E-09 2.20775E-19-9.16737E-19
 -1      1443 9.52168E-05-2.85647E-05-2.85651E-05 5.02398E-09 1.16941E-19-3.55690E-19
 -1      1444 9.52233E-05-2.85655E-05-2.85678E-05 5.17753E-09 1.29157E-18 1.89942E-19
 -1      1445 9.52187E-05-2.85654E-05-2.85657E-05 6.16397E-09 8.99179E-19-2.29105E-19
 -1      1446 9.52250E-05-2.85677E-05-2.85673E-05 6.19431E-09 1.19496E-18 9.58222E-19
 -1      1447 9.52249E-05-2.85670E-05-2.85678E-05 1.00681E-08 8.91027E-19 3.82020E-19
 -1      1448 9.52277E-05-2.85687E-05-2.85680E-05 5.45907E-09 2.28381E-19 1.13070E-18
 -1      1449 9.52330E-05-2.85708E-05-2.85694E-05 5.12950E-09-6.72097E-20 1.41411E-18
 -1      1450 9.52297E-05-2.85696E-05-2.85686E-05 1.07107E-08 8.85580E-19 4.39318E-19
 -1      1451 9.52362E-05-2.85721E-05-2.85699E-05 1.23238E-09-1.48984E-18 1.18951E-18
 -1      1452 9.52359E-05-2.85734E-05-2.85695E-05 5.70515E-09-1.12811E-18-7.59775E-20
 -1      1453 9.85912E-05-2.78407E-05-3.09406E-05 5.13575E-06 6.01076E-19 9.49344E-18
 -1      1454 1.05592E-04-3.01283E-05-3.37557E-05 8.28793E-06 5.51207E-19 1.00464E-17
 -1      1455 9.36608E-05-2.76545E-05-2.83511E-05 2.02256E-06 5.72303E-19 8.36900E-18
 -1      1456 9.58853E-05-2.79219E-05-2.94091E-05 2.47611E-06 5.23202E-19 9.04587E-18
 -1      1457 9.98222E-05-2.79695E-05-3.11570E-05 8.02745E-06 1.09760E-18 6.20280E-18
 -1      1458 9.13788E-05-2.72409E-05-2.74410E-05 6.27774E-07 3.61776E-19 7.46313E-18
 -1      1459 9.20089E-05-2.73063E-05-2.77243E-05 7.49400E-07 4.19308E-19 7.90515E-18
 -1      1460 9.51818E-05-2.78691E-05-2.89808E-05 3.02485E-06 9.85867E-19 5.55798E-18
 -1      1461 9.08177E-05-2.71609E-05-2.72392E-05-5.83073E-08 2.50192E-19 6.80907E-18
 -1      1462 9.07370E-05-2.70927E-05-2.72295E-05 1.24561E-08 2.40408E-19 7.02180E-18
 -1      1463 9.31317E-05-2.76479E-05-2.80992E-05 7.94211E-07 6.76237E-19 4.72546E-18
 -1      1464 9.11504E-05-2.72887E-05-2.73423E-05-4.32965E-07 2.81112E-19 6.25171E-18
 -1      1465 9.07282E-05-2.71420E-05-2.72184E-05-3.89937E-07 1.56941E-19 6.51739E-18
 -1      1466 9.24569E-05-2.75895E-05-2.78186E-05-3.33820E-07 4.73319E-19 4.04284E-18
 -1      1467 9.20864E-05-2.75803E-05-2.76282E-05-7.05576E-07 4.40060E-20 6.18403E-18
 -1      1468 9.14017E-05-2.73630E-05-2.74264E-05-6.67535E-07 1.60185E-19 6.20768E-18
 -1      1469 9.25970E-05-2.76747E-05-2.78383E-05-1.01644E-06 3.12472E-19 3.81036E-18
 -1      1470 9.34852E-05-2.79956E-05-2.80541E-05-9.40610E-07 1.79455E-19 5.96021E-18
 -1      1471 9.25894E-05-2.77208E-05-2.77900E-05-9.02435E-07 1.36261E-19 6.21359E-18
 -1      1472 9.33168E-05-2.79039E-05-2.80482E-05-1.53875E-06 8.18810E-20 3.62138E-18
 -1      1473 9.53407E-05-2.85358E-05-2.86195E-05-1.19915E-06 1.85929E-19 5.77631E-18
 -1      1474 9.42103E-05-2.81965E-05-2.82852E-05-1.15108E-06 3.11510E-19 6.02784E-18
 -1      1475 9.44956E-05-2.82434E-05-2.84088E-05-2.02945E-06 3.41278E-19 3.70401E-18
 -1      1476 9.77411E-05-2.92250E-05-2.93545E-05-1.53690E-06 2.91829E-21 5.61394E-18
 -1      1477 9.63024E-05-2.88012E-05-2.89264E-05-1.46834E-06 6.28045E-20 5.57278E-18
 -1      1478 9.61147E-05-2.86900E-05-2.89141E-05-2.60368E-06 2.09085E-19 3.34451E-18
 -1      1479 1.00703E-04-3.00717E-05-3.02629E-05-1.98397E-06-2.01733E-19 5.61724E-18
 -1      1480 9.89229E-05-2.95477E-05-2.97338E-05-1.89419E-06-2.47598E-19 5.47748E-18
 -1      1481 9.81744E-05-2.92454E-05-2.95639E-05-3.34757E-06-1.03861E-19 2.88694E-18
 -1      1482 1.04799E-04-3.12410E-05-3.15237E-05-2.64766E-06 1.34599E-20 5.65889E-18
 -1      1483 1.02309E-04-3.05057E-05-3.07817E-05-2.50338E-06 3.62570E-20 5.75284E-18
 -1      1484 1.00833E-04-2.99472E-05-3.04117E-05-4.37927E-06-9.49405E-20 2.89611E-18
 -1      1485 1.10264E-04-3.28082E-05-3.32062E-05-3.56984E-06-1.86612E-20 5.55492E-18
 -1      1486 1.06894E-04-3.18014E-05-3.22043E-05-3.36688E-06-4.30134E-22 5.70609E-18
 -1      1487 1.04366E-04-3.08818E-05-3.15393E-05-5.84743E-06-5.68240E-20 2.97149E-18
 -1      1488 1.17487E-04-3.49167E-05-3.54165E-05-4.76600E-06 1.06150E-19 5.58428E-18
 -1      1489 1.12975E-04-3.35386E-05-3.40875E-05-4.49958E-06 1.25268E-19 5.85832E-18
 -1      1490 1.08952E-04-3.21175E-05-3.29921E-05-7.80371E-06 5.85313E-20 3.45869E-18
 -1      1491 1.26685E-04-3.77045E-05-3.81748E-05-6.10050E-06 2.27521E-19 5.14186E-18
 -1      1492 1.20909E-04-3.58690E-05-3.65132E-05-5.80611E-06 3.65296E-19 5.53144E-18
 -1      1493 1.14830E-04-3.37996E-05-3.48054E-05-1.01591E-05 2.39743E-19 2.96876E-18
 -1      1494 1.37416E-04-4.12009E-05-4.12416E-05-7.05540E-06-3.30088E-19 5.46717E-18
 -1      1495 1.30788E-04-3.89518E-05-3.94267E-05-6.88084E-06 1.98097E-20 5.32175E-18
 -1      1496 1.22129E-04-3.61516E-05-3.69209E-05-1.23922E-05-1.95446E-20 3.35052E-18
 -1      1497 1.47330E-04-4.48843E-05-4.37914E-05-6.51514E-06-6.60659E-19 6.55566E-18
 -1      1498 1.41644E-04-4.26991E-05-4.23871E-05-6.74187E-06-6.81537E-19 5.61848E-18
 -1      1499 1.30475E-04-3.94216E-05-3.90377E-05-1.31150E-05-6.87175E-19 3.40160E-18
 -1      1500 1.53531E-04-4.79845E-05-4.49091E-05-2.47304E-06-1.02150E-18 8.63899E-18
 -1      1501 1.51478E-04-4.67663E-05-4.46263E-05-3.69935E-06-8.11828E-19 7.36977E-18
 -1      1502 1.39257E-04-4.37978E-05-4.07918E-05-9.86522E-06-1.65179E-18 4.20008E-18
 -1      1503 1.49609E-04-4.75771E-05-4.34364E-05 6.24415E-06-7.88297E-19 1.02997E-17
 -1      1504 1.55860E-04-4.95294E-05-4.50593E-05 3.85737E-06-8.73635E-19 9.36818E-18
 -1      1505 1.46737E-04-4.84838E-05-4.18203E-05 5.85901E-07-1.70264E-18 5.28790E-18
 -1      1506 1.33172E-04-4.07533E-05-4.01119E-05 1.53028E-05 5.80641E-19 1.08846E-17
 -1      1507 1.48199E-04-4.69712E-05-4.31137E-05 1.35519E-05-2.81890E-19 1.11268E-17
 -1      1508 1.48944E-04-4.95956E-05-4.23853E-05 1.71209E-05-1.14461E-18 6.99194E-18
 -1      1509 1.15341E-04-3.11657E-05-3.75881E-05 1.41732E-05 1.40184E-18 9.82876E-18
 -1      1510 1.28782E-04-3.75150E-05-3.99257E-05 1.58801E-05 1.42937E-18 1.12787E-17
 -1      1511 1.43031E-04-4.27882E-05-4.34173E-05 2.73293E-05 1.05286E-18 8.10106E-18
 -1      1512 1.09100E-04-2.69379E-05-3.72239E-05 2.81189E-06 1.09521E-18 8.19274E-18
 -1      1513 1.12182E-04-2.85985E-05-3.76380E-05 6.18225E-06 1.26970E-18 9.34320E-18
 -1      1514 1.34749E-04-3.35284E-05-4.45695E-05 1.88047E-05 2.64084E-18 7.67406E-18
 -1      1515 1.19822E-04-3.24156E-05-3.87652E-05-1.21470E-05 8.93408E-19 6.35550E-18
 -1      1516 1.10062E-04-2.79757E-05-3.71862E-05-9.30032E-06 6.07323E-19 7.69138E-18
 -1      1517 1.31722E-04-2.98594E-05-4.49407E-05-5.45987E-06 2.12563E-18 5.38925E-18
 -1      1518 1.38673E-04-4.24210E-05-4.15196E-05-1.62629E-05 6.36810E-19 4.28577E-18
 -1      1519 1.24346E-04-3.61995E-05-3.88133E-05-1.67209E-05 8.99337E-19 5.77105E-18
 -1      1520 1.38382E-04-3.76287E-05-4.40238E-05-2.49685E-05 1.52254E-18 3.78813E-18
 -1      1521 1.53615E-04-4.91408E-05-4.43546E-05-9.53789E-06 4.47425E-19 3.27230E-18
 -1      1522 1.42630E-04-4.49736E-05-4.18877E-05-1.19513E-05 1.36736E-19 4.07021E-18
 -1      1523 1.46768E-04-4.69053E-05-4.28670E-05-2.46359E-05 9.31419E-19 2.35666E-18
 -1      1524 1.55526E-04-4.88438E-05-4.53110E-05-6.83430E-08 3.30846E-19 2.87826E-18
 -1      1525 1.53409E-04-4.85337E-05-4.45579E-05-2.01122E-06 5.28919E-19 3.42635E-18
 -1      1526 1.49247E-04-4.99482E-05-4.22411E-05-9.58162E-06 8.43420E-19 1.38442E-18
 -1      1527 1.48044E-04-4.51660E-05-4.39423E-05 5.45982E-06 4.54777E-19 2.09868E-18
 -1      1528 1.52315E-04-4.70506E-05-4.48548E-05 4.73208E-06 5.64945E-19 2.78764E-18
 -1      1529 1.44292E-04-4.66056E-05-4.15753E-05 4.88631E-06 6.58780E-19 1.79604E-18
 -1      1530 1.37209E-04-4.10503E-05-4.12443E-05 6.94321E-06-8.31715E-19 2.71358E-18
 -1      1531 1.43698E-04-4.34064E-05-4.29292E-05 6.96500E-06-2.64344E-19 2.33898E-18
 -1      1532 1.35923E-04-4.18770E-05-4.02474E-05 1.18388E-05 4.20075E-20 2.02883E-18
 -1      1533 1.26774E-04-3.76385E-05-3.82688E-05 6.28808E-06-1.09012E-19 3.15832E-18
 -1      1534 1.32936E-04-3.96694E-05-4.00108E-05 6.56590E-06-3.43981E-19 2.50759E-18
 -1      1535 1.27121E-04-3.79137E-05-3.82840E-05 1.28012E-05-7.03604E-19 1.43744E-18
 -1      1536 1.18503E-04-3.51476E-05-3.57769E-05 5.04323E-06 7.41849E-19 1.95008E-18
 -1      1537 1.23272E-04-3.66321E-05-3.71721E-05 5.32194E-06 4.99068E-19 2.97044E-18
 -1      1538 1.19514E-04-3.52121E-05-3.62135E-05 1.10652E-05 1.02670E-19 1.69972E-18
 -1      1539 1.11762E-04-3.31987E-05-3.37006E-05 3.74089E-06-1.26294E-19 2.23725E-18
 -1      1540 1.15511E-04-3.43357E-05-3.48163E-05 3.98585E-06 7.35291E-19 1.99116E-18
 -1      1541 1.13294E-04-3.33270E-05-3.43415E-05 8.65935E-06 9.56485E-19 2.81930E-18
 -1      1542 1.06826E-04-3.18057E-05-3.21654E-05 2.67751E-06 6.84958E-19 1.39365E-18
 -1      1543 1.09502E-04-3.26008E-05-3.29671E-05 2.85792E-06 4.20552E-19 2.19229E-18
 -1      1544 1.08329E-04-3.19595E-05-3.27830E-05 6.37262E-06 4.04372E-19 2.65074E-18
 -1      1545 1.03288E-04-3.08162E-05-3.10640E-05 1.88224E-06 8.17122E-19 1.91913E-19
 -1      1546 1.05157E-04-3.13652E-05-3.16251E-05 2.00926E-06 8.75852E-19 1.05089E-18
 -1      1547 1.04611E-04-3.09839E-05-3.15921E-05 4.55399E-06 1.24649E-18 9.24668E-19
 -1      1548 1.00788E-04-3.01184E-05-3.02866E-05 1.31161E-06-6.46481E-19 1.64192E-18
 -1      1549 1.02078E-04-3.04959E-05-3.06743E-05 1.39962E-06-1.30685E-19 7.37273E-19
 -1      1550 1.01883E-04-3.02816E-05-3.07123E-05 3.20550E-06 3.66342E-19 2.23152E-18
 -1      1551 9.91029E-05-2.96481E-05-2.97648E-05 9.27132E-07-3.34831E-19 1.87912E-18
 -1      1552 9.99594E-05-2.98963E-05-3.00217E-05 9.84124E-07-4.22871E-19 1.03130E-18
 -1      1553 9.99472E-05-2.97888E-05-3.00877E-05 2.25531E-06-5.53837E-19 1.11547E-18
 -1      1554 9.78486E-05-2.92983E-05-2.93768E-05 6.41807E-07 3.24940E-19 8.20351E-19
 -1      1555 9.84714E-05-2.94788E-05-2.95639E-05 6.84395E-07 6.45399E-20 1.36063E-18
 -1      1556 9.85477E-05-2.94257E-05-2.96366E-05 1.58733E-06 2.28988E-19 5.67132E-19
 -1      1557 9.69752E-05-2.90539E-05-2.91073E-05 4.43036E-07 6.37627E-19-3.75715E-20
 -1      1558 9.74018E-05-2.91768E-05-2.92355E-05 4.72181E-07 2.84107E-19 4.02311E-19
 -1      1559 9.75172E-05-2.91601E-05-2.93051E-05 1.10205E-06 6.84360E-19-3.18749E-19
 -1      1560 9.63688E-05-2.88840E-05-2.89205E-05 3.04311E-07 1.48004E-19 2.15353E-19
 -1      1561 9.66598E-05-2.89674E-05-2.90080E-05 3.24503E-07 1.96523E-19 1.37452E-19
 -1      1562 9.67845E-05-2.89697E-05-2.90700E-05 7.62145E-07 4.76323E-19-4.91638E-19
 -1      1563 9.59509E-05-2.87668E-05-2.87919E-05 2.07239E-07-1.01064E-18 1.67034E-18
 -1      1564 9.61477E-05-2.88230E-05-2.88512E-05 2.21274E-07-4.48343E-19-2.31498E-19
 -1      1565 9.62669E-05-2.88346E-05-2.89043E-05 5.23844E-07-5.44619E-19-4.55157E-19
 -1      1566 9.56663E-05-2.86870E-05-2.87043E-05 1.39131E-07 5.35693E-19 1.16348E-18
 -1      1567 9.57974E-05-2.87244E-05-2.87439E-05 1.48928E-07-1.51601E-19 1.13525E-18
 -1      1568 9.59041E-05-2.87395E-05-2.87882E-05 3.56384E-07-1.84311E-19-1.94014E-18
 -1      1569 9.54833E-05-2.86358E-05-2.86481E-05 9.33092E-08 1.74914E-19 1.39147E-18
 -1      1570 9.55657E-05-2.86590E-05-2.86730E-05 9.97164E-08 9.67276E-19 1.79901E-18
 -1      1571 9.56579E-05-2.86756E-05-2.87093E-05 2.40440E-07 7.76769E-19-3.89703E-19
 -1      1572 9.53562E-05-2.86006E-05-2.86089E-05 5.91769E-08-2.07228E-19 1.83695E-18
 -1      1573 9.54112E-05-2.86159E-05-2.86256E-05 6.40701E-08-1.02136E-18 1.71396E-18
 -1      1574 9.54887E-05-2.86309E-05-2.86551E-05 1.59074E-07-6.48926E-19 1.31935E-18
 -1      1575 9.52768E-05-2.85788E-05-2.85844E-05 3.53431E-08-9.62205E-19 2.74565E-18
 -1      1576 9.53093E-05-2.85875E-05-2.85943E-05 3.86955E-08-1.17161E-19 2.08582E-18
 -1      1577 9.53726E-05-2.86010E-05-2.86177E-05 9.98408E-08-3.85625E-19 2.76424E-18
 -1      1578 9.52308E-05-2.85664E-05-2.85701E-05 1.88351E-08-1.08942E-19 2.97763E-18
 -1      1579 9.52477E-05-2.85706E-05-2.85754E-05 2.11263E-08-6.73500E-19 2.94721E-18
 -1      1580 9.52981E-05-2.85820E-05-2.85935E-05 5.84403E-08-1.36872E-18 1.85427E-18
 -1      1581 9.52078E-05-2.85604E-05-2.85629E-05 7.55325E-09 2.02404E-18 1.00636E-18
 -1      1582 9.52142E-05-2.85618E-05-2.85650E-05 9.08895E-09 9.22231E-19 3.02886E-18
 -1      1583 9.52530E-05-2.85708E-05-2.85787E-05 2.98106E-08 1.96872E-19 1.47894E-18
 -1      1584 9.52006E-05-2.85589E-05-2.85605E-05 3.32215E-10-8.88512E-19 9.69572E-19
 -1      1585 9.52001E-05-2.85583E-05-2.85605E-05 1.26162E-09 6.03389E-19 1.22866E-18
 -1      1586 9.52290E-05-2.85654E-05-2.85706E-05 1.06601E-08 1.44516E-18 2.81453E-18
 -1      1587 9.52030E-05-2.85603E-05-2.85611E-05-4.52571E-09-2.67673E-19 4.40918E-18
 -1      1588 9.51982E-05-2.85584E-05-2.85598E-05-3.90087E-09-5.81087E-19 2.89586E-18
 -1      1589 9.52186E-05-2.85634E-05-2.85668E-05-1.92320E-09-1.94637E-18 3.25030E-18
 -1      1590 9.52116E-05-2.85633E-05-2.85634E-05-7.15707E-09 1.25450E-19 3.20299E-18
 -1      1591 9.52043E-05-2.85607E-05-2.85614E-05-6.88183E-09-9.50169E-20 3.48309E-18
 -1      1592 9.52172E-05-2.85640E-05-2.85658E-05-9.86907E-09-4.00288E-19 4.94676E-18
 -1      1593 9.52225E-05-2.85671E-05-2.85665E-05-7.71487E-09-3.47032E-19 4.00560E-18
 -1      1594 9.52148E-05-2.85643E-05-2.85644E-05-7.80485E-09-3.44233E-19 3.81417E-18
 -1      1595 9.52213E-05-2.85662E-05-2.85665E-05-1.35485E-08-2.99607E-19 4.70123E-18
 -1      1596 9.52323E-05-2.85708E-05-2.85690E-05-5.92672E-09 6.77015E-19 3.18655E-18
 -1      1597 9.52262E-05-2.85685E-05-2.85675E-05-6.44975E-09 1.39043E-18 4.26149E-18
 -1      1598 9.52279E-05-2.85693E-05-2.85679E-05-1.30792E-08 7.25690E-21 5.37611E-18
 -1      1599 9.52361E-05-2.85723E-05-2.85698E-05-1.42803E-09 5.16241E-19 5.62562E-19
 -1      1600 9.52401E-05-2.85821E-05-2.85677E-05-6.18047E-09 7.95574E-18 2.68081E-18
 -1      1601 9.52381E-05-2.85768E-05-2.85691E-05-5.64005E-09 4.37919E-18 2.90473E-18
 -1      1602 9.52437E-05-2.85920E-05-2.85651E-05-6.58381E-09 5.31555E-18-3.40156E-18
 -1      1603 9.52414E-05-2.85856E-05-2.85668E-05-6.75493E-09 8.63395E-18-2.35054E-18
 -1      1604 9.52398E-05-2.85810E-05-2.85681E-05-1.21005E-08 3.40712E-18 3.90144E-19
 -1      1605 9.52465E-05-2.86004E-05-2.85627E-05-5.14164E-09 2.06552E-18-2.92923E-19
 -1      1606 9.52447E-05-2.85951E-05-2.85642E-05-5.57947E-09 4.60422E-18-1.91686E-18
 -1      1607 9.52426E-05-2.85874E-05-2.85666E-05-1.13621E-08 3.33898E-18-4.76321E-18
 -1      1608 9.52481E-05-2.86058E-05-2.85611E-05-3.04888E-09 4.64120E-19-2.00172E-18
 -1      1609 9.52471E-05-2.86024E-05-2.85621E-05-3.50121E-09 1.45126E-18 8.19168E-19
 -1      1610 9.52445E-05-2.85922E-05-2.85654E-05-8.03242E-09 2.14879E-18-3.37674E-19
 -1      1611 9.52487E-05-2.86081E-05-2.85603E-05-1.20747E-09-5.57774E-18-2.99283E-18
 -1      1612 9.52483E-05-2.86066E-05-2.85607E-05-1.54440E-09-9.64895E-19-4.50696E-18
 -1      1613 9.52451E-05-2.85946E-05-2.85646E-05-4.24262E-09-7.53025E-19-5.38404E-18
 -1      1614 9.52485E-05-2.86084E-05-2.85601E-05 5.14345E-11-3.11533E-18 2.48481E-18
 -1      1615 9.52485E-05-2.86081E-05-2.85602E-05-1.40730E-10-5.88492E-18 1.66600E-18
 -1      1616 9.52450E-05-2.85951E-05-2.85643E-05-1.18966E-09-1.51160E-18-2.15884E-18
 -1      1617 9.52481E-05-2.86074E-05-2.85603E-05 6.41773E-10-9.24882E-19 1.19035E-18
 -1      1618 9.52483E-05-2.86079E-05-2.85602E-05 5.82334E-10-3.46441E-18 2.35833E-18
 -1      1619 9.52445E-05-2.85943E-05-2.85644E-05 6.62006E-10-1.04232E-18 3.05230E-18
 -1      1620 9.52476E-05-2.86061E-05-2.85606E-05 7.72251E-10-2.17405E-18-8.06541E-20
 -1      1621 9.52479E-05-2.86069E-05-2.85604E-05 7.82838E-10-1.29322E-18-4.46552E-19
 -1      1622 9.52439E-05-2.85931E-05-2.85646E-05 1.38231E-09-1.73325E-18-9.80000E-20
 -1      1623 9.52473E-05-2.86049E-05-2.85610E-05 7.90934E-10-4.85801E-18-1.25005E-18
 -1      1624 9.52475E-05-2.86057E-05-2.85608E-05 7.92154E-10-2.71705E-18-2.89212E-19
 -1      1625 9.52435E-05-2.85921E-05-2.85648E-05 1.48250E-09-7.10159E-19-1.64171E-18
 -1      1626 9.52470E-05-2.86034E-05-2.85615E-05 1.06009E-09-7.60829E-18-1.43789E-18
 -1      1627 9.52473E-05-2.86046E-05-2.85612E-05 9.79049E-10-5.27144E-18-1.19677E-18
 -1      1628 9.52434E-05-2.85915E-05-2.85651E-05 1.64538E-09-1.47358E-18-2.14275E-18
 -1      1629 9.52464E-05-2.86011E-05-2.85623E-05 1.81486E-09-9.54159E-18 2.28787E-19
 -1      1630 9.52469E-05-2.86030E-05-2.85617E-05 1.61926E-09-8.10905E-18-1.49311E-18
 -1      1631 9.52435E-05-2.85910E-05-2.85654E-05 2.47052E-09-4.83917E-18-3.05157E-18
 -1      1632 9.52453E-05-2.85971E-05-2.85636E-05 3.11141E-09-6.42667E-18 2.95178E-18
 -1      1633 9.52463E-05-2.86002E-05-2.85627E-05 2.79501E-09-8.96940E-18 2.90411E-18
 -1      1634 9.52434E-05-2.85900E-05-2.85658E-05 4.27226E-09-2.71985E-18 2.24645E-18
 -1      1635 9.52434E-05-2.85910E-05-2.85654E-05 4.66412E-09-4.13352E-18 2.38768E-18
 -1      1636 9.52449E-05-2.85955E-05-2.85641E-05 4.30216E-09-6.70765E-18 2.90962E-18
 -1      1637 9.52429E-05-2.85879E-05-2.85665E-05 6.87439E-09-2.96899E-18 3.10225E-18
 -1      1638 9.52409E-05-2.85834E-05-2.85675E-05 5.53486E-09-1.76672E-18 1.17943E-18
 -1      1639 9.52426E-05-2.85886E-05-2.85661E-05 5.34885E-09-2.66707E-18 1.50935E-18
 -1      1640 9.52414E-05-2.85840E-05-2.85675E-05 9.37111E-09-2.20181E-18 2.60205E-18
 -1      1641 9.52378E-05-2.85759E-05-2.85693E-05 6.04363E-09-9.35644E-19-6.82132E-19
 -1      1642 9.52395E-05-2.85804E-05-2.85682E-05 6.86785E-09-7.99823E-19 8.25966E-20
 -1      1643 9.52393E-05-2.85786E-05-2.85687E-05 1.08916E-08-5.15780E-20 1.16782E-18
 -1      1644 9.52350E-05-2.85732E-05-2.85692E-05 1.08196E-08 3.58158E-19-1.19359E-18
 -1      1645 2.30198E-05-8.00021E-05 1.74894E-05-1.30944E-05 8.95822E-18 3.47474E-18
 -1      1646 2.54638E-05-8.48108E-05 1.84618E-05-3.01239E-06 5.75813E-18 1.23540E-18
 -1      1647 1.89955E-05-5.52360E-05 9.53237E-06-1.02831E-05 1.34543E-17 6.95806E-18
 -1      1648 2.51580E-05-7.60829E-05 1.45802E-05-9.51648E-06 1.03397E-17 4.73417E-18
 -1      1649 3.27564E-05-2.64950E-05-6.47193E-06 1.50330E-05 1.21778E-17 6.96092E-18
 -1      1650 2.97289E-05-4.95051E-05 2.37467E-06-3.05548E-07 1.33907E-17 6.36037E-18
 -1      1651 7.22077E-05-1.18107E-05-2.69124E-05 4.76776E-05 9.07596E-18 8.58468E-18
 -1      1652 4.97713E-05-2.28342E-05-1.59011E-05 2.28703E-05 1.13697E-17 7.77068E-18
 -1      1653 1.44390E-04-2.17617E-05-4.97078E-05 7.49299E-05 6.22061E-18 6.42220E-18
 -1      1654 9.71073E-05-1.21745E-05-3.78166E-05 5.46471E-05 8.12050E-18 8.11627E-18
 -1      1655 2.32300E-04-5.32783E-05-6.98687E-05 6.63496E-05 2.63703E-18 3.71170E-18
 -1      1656 1.75754E-04-2.92587E-05-5.99372E-05 7.07302E-05 5.17410E-18 5.64802E-18
 -1      1657 2.86609E-04-7.43509E-05-8.15209E-05 2.45709E-05 2.07375E-18-1.55473E-18
 -1      1658 2.52215E-04-5.71942E-05-7.65161E-05 5.39683E-05 2.33178E-18 1.72541E-18
 -1      1659 2.93092E-04-7.54305E-05-8.34876E-05-2.61260E-05 2.92120E-18-6.33115E-18
 -1      1660 2.97614E-04-7.79886E-05-8.41250E-05 1.28215E-05 2.11419E-18-2.76344E-18
 -1      1661 2.36334E-04-5.02141E-05-7.35724E-05-6.31655E-05 5.32350E-18-9.62568E-18
 -1      1662 2.80520E-04-7.18195E-05-8.00259E-05-3.81279E-05 3.42911E-18-6.85758E-18
 -1      1663 1.53669E-04-2.59233E-05-5.34463E-05-6.22512E-05 7.18877E-18-1.05642E-17
 -1      1664 2.10705E-04-4.69989E-05-6.46825E-05-6.58850E-05 5.90467E-18-9.84930E-18
 -1      1665 7.80449E-05-1.17345E-05-3.10774E-05-4.53755E-05 7.49031E-18-9.69260E-18
 -1      1666 1.18801E-04-1.58746E-05-4.28639E-05-6.88333E-05 7.54029E-18-1.23582E-17
 -1      1667 3.74349E-05-2.90041E-05-8.98756E-06-1.22409E-05 4.46302E-18-5.62006E-18
 -1      1668 5.31122E-05-1.13947E-05-2.00946E-05-3.69931E-05 6.72375E-18-8.66006E-18
 -1      1669 2.64060E-05-5.92887E-05 7.47684E-06 5.73180E-06 8.74985E-19-1.93304E-18
 -1      1670 2.44667E-05-3.50993E-05-1.57409E-07-3.99682E-06 3.48893E-18-3.86374E-18
 -1      1671 2.57116E-05-8.20846E-05 1.69364E-05 7.83593E-06-4.62565E-18-1.66357E-18
 -1      1672 1.98825E-05-6.57354E-05 1.32373E-05 1.31670E-05-7.34378E-19-2.17237E-18
 -1      1673 2.46158E-05-8.24870E-05 1.81518E-05-3.72117E-07-8.97262E-18-1.97507E-18
 -1      1674 2.45926E-05-8.40771E-05 1.85154E-05 1.03876E-05-5.95803E-18-1.30062E-18
 -1      1675 2.05642E-05-5.97026E-05 1.15760E-05-1.19435E-06-1.07573E-17-3.38194E-18
 -1      1676 2.57036E-05-7.78055E-05 1.57945E-05 3.29573E-06-9.42663E-18-2.02653E-18
 -1      1677 2.22474E-05-2.87690E-05-6.46950E-07 1.12658E-05-1.11249E-17-5.36172E-18
 -1      1678 2.51454E-05-5.31473E-05 6.36552E-06 2.94110E-06-1.13850E-17-3.74600E-18
 -1      1679 4.46188E-05-4.89607E-06-1.79957E-05 4.10032E-05-9.74681E-18-6.81014E-18
 -1      1680 3.43324E-05-2.29917E-05-8.62093E-06 2.03768E-05-1.06794E-17-5.85257E-18
 -1      1681 8.85227E-05 9.11018E-07-3.67656E-05 7.06090E-05-7.84861E-18-8.04935E-18
 -1      1682 6.08245E-05-7.26869E-07-2.71301E-05 4.91403E-05-9.21911E-18-7.73426E-18
 -1      1683 1.51507E-04-1.62806E-05-5.42129E-05 8.41826E-05-5.36172E-18-7.06087E-18
 -1      1684 1.11057E-04-2.11956E-06-4.55554E-05 7.47724E-05-7.00327E-18-7.82320E-18
 -1      1685 2.18509E-04-4.52972E-05-6.88328E-05 6.51020E-05-3.09268E-18-3.62276E-18
 -1      1686 1.75422E-04-2.36794E-05-6.16625E-05 7.70929E-05-4.84799E-18-6.08000E-18
 -1      1687 2.58275E-04-6.40411E-05-7.69690E-05 2.43790E-05-1.85564E-18 4.58245E-19
 -1      1688 2.35883E-04-5.12192E-05-7.38648E-05 5.38329E-05-2.55296E-18-2.45809E-18
 -1      1689 2.56747E-04-6.22666E-05-7.74150E-05-2.69045E-05-2.66477E-18 5.19697E-18
 -1      1690 2.62656E-04-6.56420E-05-7.81579E-05 8.44650E-06-1.87957E-18 2.10763E-18
 -1      1691 2.14518E-04-4.07971E-05-6.98830E-05-6.57018E-05-4.11886E-18 8.18234E-18
 -1      1692 2.45916E-04-5.80523E-05-7.45714E-05-4.17240E-05-2.90331E-18 6.08170E-18
 -1      1693 1.52999E-04-1.40149E-05-5.68115E-05-8.21160E-05-5.86443E-18 9.70192E-18
 -1      1694 1.96350E-04-3.44258E-05-6.43547E-05-7.85244E-05-4.52527E-18 9.26654E-18
 -1      1695 9.02173E-05-1.30169E-07-3.85004E-05-6.52260E-05-6.67716E-18 7.69445E-18
 -1      1696 1.29303E-04-9.37241E-06-4.83399E-05-8.14711E-05-5.95972E-18 8.83540E-18
 -1      1697 4.46504E-05-7.09531E-06-1.86932E-05-3.52117E-05-5.85723E-18 5.55654E-18
 -1      1698 6.58476E-05 2.57846E-06-2.88495E-05-5.92743E-05-6.18503E-18 7.12524E-18
 -1      1699 2.75877E-05-3.43055E-05-1.76121E-06-1.08689E-05-4.42998E-18 3.31740E-18
 -1      1700 3.05720E-05-1.23908E-05-9.91405E-06-2.64396E-05-6.07577E-18 4.70781E-18
 -1      1701 2.51317E-05-6.51362E-05 1.09740E-05-1.08171E-06-7.14896E-19 1.74743E-18
 -1      1702 2.00257E-05-4.19286E-05 5.03272E-06-3.71580E-06-3.91075E-18 2.89569E-18
 -1      1703 2.58473E-05-8.31470E-05 1.76519E-05-5.13671E-06 3.93193E-18 1.29448E-18
 -1      1704 2.22111E-05-7.12585E-05 1.50210E-05 2.83531E-06 9.69429E-19 1.40798E-18
 -1      1705 1.06348E-04-2.32742E-05-3.57007E-05 1.69471E-05 7.31598E-19 8.69564E-18
 -1      1706 7.22903E-05-4.70821E-05-1.33948E-05 3.20812E-05 6.73984E-18 3.16197E-18
 -1      1707 9.52356E-05-2.85736E-05-2.85692E-05-6.55172E-09 2.31608E-18 3.42452E-18
 -1      1708 1.64987E-05-5.62479E-05 1.19406E-05 3.98074E-06 6.01775E-18 5.58703E-18
 -1      1709 3.58605E-05-5.04400E-05 2.23514E-06 1.95306E-05 6.90417E-18 4.66493E-18
 -1      1710 1.23302E-05-5.66445E-05 1.39460E-05-7.27454E-06 3.29591E-18 3.30343E-18
 -1      1711 1.19815E-04-4.47143E-05-3.26555E-05 3.86526E-05 6.01563E-18 3.72271E-18
 -1      1712 1.75649E-04-4.56181E-05-5.28259E-05 3.52561E-05 5.01782E-18 2.37169E-18
 -1      1713 2.18367E-04-4.46541E-05-6.86841E-05 1.90746E-05 4.01218E-18 7.72494E-19
 -1      1714 2.40686E-04-4.26062E-05-7.72250E-05 3.82678E-06 4.13521E-18-6.56874E-19
 -1      1715 2.40841E-04-4.45354E-05-7.64724E-05-9.44831E-06 4.25253E-18-2.47757E-18
 -1      1716 2.07792E-04-4.61562E-05-6.47334E-05-1.79755E-05 4.72221E-18-3.53806E-18
 -1      1717 1.61506E-04-4.74068E-05-4.69599E-05-3.39236E-05 3.36823E-18-5.72340E-18
 -1      1718 1.01433E-04-4.27802E-05-2.62645E-05-3.80212E-05 2.28106E-18-7.01936E-18
 -1      1719 5.56277E-05-4.65353E-05-7.32123E-06-2.72741E-05 5.61583E-19-4.77811E-18
 -1      1720 2.69196E-05-5.26243E-05 6.49526E-06-1.38186E-05-1.61190E-18-3.46754E-18
 -1      1721 1.36390E-05-5.72247E-05 1.35351E-05-2.15600E-07-3.80953E-18-3.39406E-18
 -1      1722 1.38672E-05-5.47796E-05 1.28101E-05 1.16611E-05-5.74924E-18-2.79224E-18
 -1      1723 2.54774E-05-4.76919E-05 5.65866E-06 2.34588E-05-6.06984E-18-2.82951E-18
 -1      1724 4.96687E-05-3.90623E-05-6.90122E-06 3.63923E-05-6.62464E-18-3.49316E-18
 -1      1725 8.37880E-05-3.12670E-05-2.30806E-05 4.66019E-05-6.10372E-18-4.53628E-18
 -1      1726 1.24151E-04-2.68714E-05-4.01944E-05 5.25088E-05-5.14869E-18-4.35206E-18
 -1      1727 1.67023E-04-2.93560E-05-5.57258E-05 4.62099E-05-4.48144E-18-3.08744E-18
 -1      1728 1.99862E-04-3.19055E-05-6.74480E-05 2.85787E-05-4.17651E-18-1.65722E-18
 -1      1729 2.18313E-04-3.46903E-05-7.33725E-05 7.51829E-06-3.67993E-18 4.08693E-20
 -1      1730 2.11877E-04-3.25836E-05-7.17743E-05-1.55849E-05-3.55246E-18 1.91472E-18
 -1      1731 1.90104E-04-3.08280E-05-6.39271E-05-3.76079E-05-3.35213E-18 3.88788E-18
 -1      1732 1.52785E-04-2.85616E-05-5.05332E-05-4.99649E-05-3.01523E-18 5.67089E-18
 -1      1733 1.07738E-04-2.81032E-05-3.33859E-05-5.08206E-05-2.94895E-18 5.02545E-18
 -1      1734 6.61104E-05-3.26009E-05-1.57701E-05-4.23699E-05-2.21499E-18 3.42752E-18
 -1      1735 3.70596E-05-4.20995E-05-9.50303E-07-3.00741E-05-9.35124E-19 2.54120E-18
 -1      1736 1.94308E-05-5.14932E-05 9.35625E-06-1.80925E-05 1.37728E-18 3.48766E-18
 -1      1737 1.05998E-04-2.31833E-05-3.55779E-05-1.66479E-05-1.15097E-18 1.65341E-18
 -1      1738 8.92647E-05-1.05672E-05-3.38516E-05-1.29435E-05-7.53671E-19-2.41915E-18
 -1      1739 9.06131E-05-1.16583E-05-3.39874E-05-1.47237E-05-1.08305E-18-2.21073E-18
 -1      1740 9.26572E-05-1.39315E-05-3.38992E-05-1.56418E-05-1.20734E-18-1.83319E-18
 -1      1741 9.43596E-05-1.58939E-05-3.41283E-05-1.73219E-05-1.48575E-18-1.33069E-18
 -1      1742 9.36143E-05-1.64007E-05-3.31013E-05-1.33497E-05-1.19628E-18-1.85135E-18
 -1      1743 8.61677E-05-7.52860E-06-3.37744E-05-7.50945E-06 8.68143E-20-2.47363E-18
 -1      1744 8.66169E-05-7.85563E-06-3.38136E-05-8.87403E-06-9.42258E-20-2.55912E-18
 -1      1745 8.54512E-05-6.81603E-06-3.37604E-05-5.04316E-06 4.79806E-19-2.37423E-18
 -1      1746 8.57304E-05-7.02073E-06-3.37813E-05-6.30661E-06 2.68900E-19-2.43869E-18
 -1      1747 8.74835E-05-9.63851E-06-3.33938E-05-6.56317E-06 1.44495E-19-2.34995E-18
 -1      1748 8.50370E-05-6.39546E-06-3.37555E-05-2.72064E-06 7.99809E-19-2.14516E-18
 -1      1749 8.51908E-05-6.50976E-06-3.37654E-05-3.90529E-06 6.76842E-19-2.30827E-18
 -1      1750 8.67378E-05-8.83503E-06-3.34177E-05-4.26259E-06 6.09836E-19-2.24812E-18
 -1      1751 8.48632E-05-6.20801E-06-3.37567E-05-4.82169E-07 1.12233E-18-1.87213E-18
 -1      1752 8.49130E-05-6.24692E-06-3.37588E-05-1.62725E-06 9.46018E-19-2.04024E-18
 -1      1753 8.63233E-05-8.38494E-06-3.34323E-05-2.06592E-06 9.47644E-19-2.03279E-18
 -1      1754 8.49110E-05-6.23506E-06-3.37633E-05 1.73600E-06 1.38394E-18-1.65997E-18
 -1      1755 8.48614E-05-6.20160E-06-3.37584E-05 5.93428E-07 1.27416E-18-1.78954E-18
 -1      1756 8.61872E-05-8.23135E-06-3.34394E-05 7.03160E-08 1.27877E-18-1.76064E-18
 -1      1757 8.51909E-05-6.48581E-06-3.37759E-05 4.00063E-06 1.62207E-18-1.38829E-18
 -1      1758 8.50340E-05-6.37370E-06-3.37633E-05 2.82255E-06 1.51402E-18-1.59594E-18
 -1      1759 8.63176E-05-8.36224E-06-3.34392E-05 2.19888E-06 1.53409E-18-1.53461E-18
 -1      1760 8.57316E-05-6.98556E-06-3.37967E-05 6.34106E-06 1.83779E-18-9.41040E-19
 -1      1761 8.54505E-05-6.78405E-06-3.37738E-05 5.10796E-06 1.71760E-18-1.18063E-18
 -1      1762 8.67311E-05-8.79541E-06-3.34309E-05 4.35592E-06 1.77297E-18-1.18880E-18
 -1      1763 8.66459E-05-7.83787E-06-3.38330E-05 8.91150E-06 2.10820E-18-2.97613E-19
 -1      1764 8.61779E-05-7.49916E-06-3.37917E-05 7.53142E-06 1.96288E-18-6.51977E-19
 -1      1765 8.74863E-05-9.59587E-06-3.34121E-05 6.61028E-06 2.00970E-18-6.77699E-19
 -1      1766 8.81396E-05-9.24418E-06-3.38970E-05 1.17385E-05 2.20937E-18 5.26140E-19
 -1      1767 8.73678E-05-8.66749E-06-3.38222E-05 1.01719E-05 2.12325E-18-9.93940E-21
 -1      1768 8.87228E-05-1.09147E-05-3.33757E-05 9.00580E-06 2.19699E-18-5.26087E-20
 -1      1769 9.07213E-05-1.17324E-05-3.40033E-05 1.47576E-05 2.11869E-18 1.80754E-18
 -1      1770 8.93489E-05-1.06140E-05-3.38684E-05 1.29799E-05 2.14431E-18 1.03502E-18
 -1      1771 9.06814E-05-1.30226E-05-3.32997E-05 1.14434E-05 2.23855E-18 8.07765E-19
 -1      1772 9.45034E-05-1.60141E-05-3.41223E-05 1.73924E-05 1.63987E-18 3.87597E-18
 -1      1773 9.27879E-05-1.40502E-05-3.39063E-05 1.56960E-05 1.87857E-18 2.65434E-18
 -1      1774 9.38349E-05-1.65583E-05-3.31015E-05 1.34221E-05 2.05634E-18 2.15046E-18
 -1      1775 9.79606E-05-5.23491E-05-2.00457E-05 3.75843E-05 3.84468E-18 2.24252E-19
 -1      1776 7.57581E-05-5.20954E-05-1.16715E-05 3.30079E-05 3.86967E-18 5.27913E-19
 -1      1777 1.00230E-04-1.96214E-05-3.42270E-05-1.85873E-05-1.44107E-18-2.10276E-19
 -1      1778 1.00347E-04-1.95856E-05-3.42980E-05 1.88246E-05 1.13536E-18 5.58745E-18
 -1      1779 9.72135E-05-2.70401E-05-2.99588E-05-5.38825E-06-1.07541E-18-5.31397E-19
 -1      1780 9.54980E-05-2.71152E-05-2.92772E-05-3.56600E-06-9.44786E-19-8.41726E-19
 -1      1781 9.47489E-05-2.73297E-05-2.87964E-05-2.05647E-06-9.79501E-19-7.46805E-19
 -1      1782 9.40842E-05-2.74360E-05-2.85243E-05-1.17438E-06-8.36769E-19-9.84610E-19
 -1      1783 9.58588E-05-2.66109E-05-2.97002E-05-4.02624E-06-1.05576E-18-1.06241E-18
 -1      1784 9.36479E-05-2.75077E-05-2.82863E-05-3.02649E-07-6.98438E-19-9.23223E-19
 -1      1785 9.34754E-05-2.76065E-05-2.82026E-05 1.72985E-07-5.53516E-19-1.03087E-18
 -1      1786 9.48067E-05-2.73140E-05-2.89476E-05-1.29470E-06-8.13976E-19-9.84888E-19
 -1      1787 9.33087E-05-2.76646E-05-2.81017E-05 6.79595E-07-4.19905E-19-1.07933E-18
 -1      1788 9.34301E-05-2.77873E-05-2.81161E-05 9.43439E-07-2.07923E-19-1.04185E-18
 -1      1789 9.43022E-05-2.76688E-05-2.85753E-05 2.80188E-07-5.43039E-19-8.97531E-19
 -1      1790 9.34570E-05-2.78604E-05-2.80970E-05 1.23255E-06-1.61123E-19-9.92189E-19
 -1      1791 9.37468E-05-2.80045E-05-2.81657E-05 1.37045E-06-4.10894E-20-1.13816E-18
 -1      1792 9.42211E-05-2.79279E-05-2.84253E-05 1.19615E-06-1.82005E-19-9.93992E-19
 -1      1793 9.39029E-05-2.80972E-05-2.81952E-05 1.51669E-06-4.83067E-20-1.14026E-18
 -1      1794 9.42802E-05-2.82555E-05-2.82921E-05 1.56662E-06-2.15665E-20-9.62351E-19
 -1      1795 9.44416E-05-2.81763E-05-2.84092E-05 1.70335E-06-7.22722E-20-8.57335E-19
 -1      1796 9.45158E-05-2.83662E-05-2.83476E-05 1.60359E-06-1.98143E-19-1.08182E-18
 -1      1797 9.49207E-05-2.85309E-05-2.84536E-05 1.57838E-06-2.81802E-19-9.46032E-19
 -1      1798 9.48604E-05-2.84427E-05-2.84709E-05 1.92427E-06-1.87626E-19-9.82712E-19
 -1      1799 9.51956E-05-2.86562E-05-2.85179E-05 1.51468E-06-2.46187E-19-1.08191E-18
 -1      1800 9.55750E-05-2.88181E-05-2.86165E-05 1.41190E-06-2.70688E-19-9.65053E-19
 -1      1801 9.53941E-05-2.87364E-05-2.85706E-05 1.90773E-06-2.95111E-19-8.39014E-19
 -1      1802 9.58524E-05-2.89522E-05-2.86750E-05 1.24026E-06-4.90803E-19-9.77933E-19
 -1      1803 9.61523E-05-2.90981E-05-2.87499E-05 1.04872E-06-4.51179E-19-1.35249E-18
 -1      1804 9.59693E-05-2.90567E-05-2.86769E-05 1.65674E-06-4.89520E-19-1.02190E-18
 -1      1805 9.63935E-05-2.92308E-05-2.87896E-05 7.54198E-07-5.22411E-19-1.44067E-18
 -1      1806 9.65545E-05-2.93410E-05-2.88244E-05 4.61169E-07-3.24243E-19-1.83014E-18
 -1      1807 9.65125E-05-2.93911E-05-2.87632E-05 1.14753E-06-6.11942E-19-1.01657E-18
 -1      1808 9.67153E-05-2.94544E-05-2.88335E-05 3.17042E-08-3.96023E-19-1.65615E-18
 -1      1809 9.66745E-05-2.95012E-05-2.88124E-05-3.66922E-07-5.54094E-19-1.90643E-18
 -1      1810 9.69403E-05-2.97087E-05-2.88070E-05 3.50141E-07-4.39059E-19-1.13918E-18
 -1      1811 9.67035E-05-2.95671E-05-2.87820E-05-9.25776E-07-1.52729E-19-2.05134E-18
 -1      1812 9.64025E-05-2.95156E-05-2.86921E-05-1.41223E-06-1.37342E-19-1.71762E-18
 -1      1813 9.71543E-05-2.99525E-05-2.87904E-05-7.43820E-07-4.38043E-19-1.09525E-18
 -1      1814 9.62460E-05-2.94961E-05-2.86180E-05-2.05931E-06 1.11173E-21-1.51095E-18
 -1      1815 9.56469E-05-2.93104E-05-2.84539E-05-2.58019E-06 5.55832E-20-1.02477E-18
 -1      1816 9.70435E-05-3.00363E-05-2.87032E-05-2.08495E-06 4.31871E-20-9.13600E-19
 -1      1817 9.52613E-05-2.91651E-05-2.83386E-05-3.22297E-06-2.09637E-19-1.07821E-18
 -1      1818 9.43696E-05-2.88218E-05-2.81074E-05-3.68191E-06-1.34286E-19-1.10205E-18
 -1      1819 9.65017E-05-2.98547E-05-2.85464E-05-3.52781E-06-1.52830E-20-7.95400E-19
 -1      1820 9.37450E-05-2.85251E-05-2.79620E-05-4.17427E-06-1.50362E-19-1.38473E-18
 -1      1821 9.26330E-05-2.80339E-05-2.76864E-05-4.44156E-06-5.48421E-20-1.13670E-18
 -1      1822 9.54666E-05-2.93163E-05-2.83342E-05-4.80867E-06-2.50872E-19-6.48683E-19
 -1      1823 9.18226E-05-2.76003E-05-2.75302E-05-4.60955E-06-1.53100E-19-1.16287E-18
 -1      1824 9.06400E-05-2.70229E-05-2.72485E-05-4.55703E-06-1.28432E-20-1.41317E-18
 -1      1825 9.39768E-05-2.84006E-05-2.80940E-05-5.56832E-06-2.93502E-19-5.64980E-19
 -1      1826 8.97794E-05-2.65270E-05-2.71060E-05-4.25915E-06 1.49819E-19-1.63941E-18
 -1      1827 8.87380E-05-2.59798E-05-2.68659E-05-3.81647E-06-2.16137E-19-1.70477E-18
 -1      1828 9.22263E-05-2.72192E-05-2.78618E-05-5.44591E-06-2.66556E-19-6.53292E-19
 -1      1829 8.80292E-05-2.55514E-05-2.67616E-05-3.02212E-06-6.51550E-19-1.79364E-18
 -1      1830 8.73527E-05-2.51773E-05-2.66096E-05-2.22978E-06-4.39991E-19-2.04628E-18
 -1      1831 9.05717E-05-2.60364E-05-2.76746E-05-4.23667E-06-5.10562E-19-5.72066E-19
 -1      1832 8.69994E-05-2.49556E-05-2.65627E-05-1.07088E-06-1.51804E-19-2.43177E-18
 -1      1833 8.68514E-05-2.48672E-05-2.65311E-05-9.23595E-08-3.96090E-19-2.71476E-18
 -1      1834 8.94466E-05-2.52007E-05-2.75628E-05-2.04662E-06-6.12289E-19-1.35104E-18
 -1      1835 8.69679E-05-2.49323E-05-2.65509E-05 1.16064E-06-7.06194E-19-2.81179E-18
 -1      1836 8.73905E-05-2.51591E-05-2.66478E-05 2.09082E-06-9.66468E-19-3.00501E-18
 -1      1837 8.91934E-05-2.49967E-05-2.75453E-05 6.68048E-07-4.51780E-19-1.96615E-18
 -1      1838 8.79462E-05-2.54889E-05-2.67323E-05 3.13084E-06-1.66071E-19-2.40484E-18
 -1      1839 8.88443E-05-2.59624E-05-2.69395E-05 3.79823E-06 7.02366E-19-2.25562E-18
 -1      1840 8.99022E-05-2.54991E-05-2.76264E-05 3.24649E-06-1.61075E-19-1.72847E-18
 -1      1841 8.96785E-05-2.64439E-05-2.70755E-05 4.40510E-06 4.63198E-19-2.69488E-18
 -1      1842 9.08580E-05-2.70321E-05-2.73546E-05 4.69639E-06 6.00718E-19-2.82361E-18
 -1      1843 9.13663E-05-2.65321E-05-2.77968E-05 5.08609E-06 2.84062E-19-1.73730E-18
 -1      1844 9.17597E-05-2.75229E-05-2.75211E-05 4.81003E-06 5.51251E-19-2.57383E-18
 -1      1845 9.29976E-05-2.80898E-05-2.78245E-05 4.73679E-06 1.75243E-19-2.63519E-18
 -1      1846 9.31865E-05-2.77651E-05-2.80344E-05 5.87354E-06 4.46935E-19-2.57696E-18
 -1      1847 9.37908E-05-2.84815E-05-2.79970E-05 4.44420E-06-1.86759E-19-2.40722E-18
 -1      1848 9.49016E-05-2.89341E-05-2.82810E-05 4.10876E-06 1.01214E-20-2.51359E-18
 -1      1849 9.49503E-05-2.88720E-05-2.83067E-05 5.64981E-06 1.27818E-19-2.49446E-18
 -1      1850 9.54885E-05-2.91798E-05-2.84373E-05 3.57388E-06 2.74334E-19-2.47990E-18
 -1      1851 9.63589E-05-2.94813E-05-2.86708E-05 3.11053E-06 5.08359E-19-2.60954E-18
 -1      1852 9.63710E-05-2.96537E-05-2.85772E-05 4.70658E-06 2.84855E-19-1.19658E-18
 -1      1853 9.67181E-05-2.95876E-05-2.87953E-05 2.49982E-06 4.79839E-19-2.61115E-18
 -1      1854 9.73097E-05-2.97462E-05-2.89633E-05 2.02590E-06 6.38828E-19-2.20011E-18
 -1      1855 9.73290E-05-3.00624E-05-2.88136E-05 3.41834E-06 6.57883E-19-1.45165E-18
 -1      1856 9.74694E-05-2.97481E-05-2.90487E-05 1.46223E-06 9.12392E-19-2.69355E-18
 -1      1857 9.78002E-05-2.97957E-05-2.91504E-05 1.05442E-06 6.72690E-19-2.35978E-18
 -1      1858 9.78387E-05-3.01582E-05-2.89941E-05 2.10747E-06 6.66719E-19-2.33595E-18
 -1      1859 9.78099E-05-2.97340E-05-2.91970E-05 6.04565E-07-3.31787E-19-2.27674E-18
 -1      1860 9.79294E-05-2.97080E-05-2.92415E-05 2.97565E-07-1.05777E-18-2.38616E-18
 -1      1861 9.79871E-05-3.00453E-05-2.91097E-05 9.81875E-07 1.65490E-19-2.37067E-18
 -1      1862 9.78401E-05-2.96169E-05-2.92547E-05-1.86388E-08-1.70098E-18-2.35078E-18
 -1      1863 9.78087E-05-2.95501E-05-2.92559E-05-2.21535E-07-1.56950E-18-2.95505E-18
 -1      1864 9.78828E-05-2.98244E-05-2.91630E-05 1.34498E-07-1.09657E-18-2.08663E-18
 -1      1865 9.76635E-05-2.94528E-05-2.92439E-05-4.14432E-07-1.42138E-18-2.49541E-18
 -1      1866 9.75378E-05-2.93692E-05-2.92161E-05-5.28016E-07-1.32012E-18-2.16337E-18
 -1      1867 9.76254E-05-2.95701E-05-2.91642E-05-4.26483E-07-1.40887E-18-1.49976E-18
 -1      1868 9.73692E-05-2.92789E-05-2.91876E-05-6.22473E-07-6.68194E-19-1.37115E-18
 -1      1869 9.71954E-05-2.91941E-05-2.91435E-05-6.68634E-07 2.50115E-19-1.21833E-18
 -1      1870 9.72930E-05-2.93283E-05-2.91272E-05-7.41445E-07-5.85679E-19-6.86395E-19
 -1      1871 9.70252E-05-2.91169E-05-2.91060E-05-6.92938E-07 1.39421E-21-1.20412E-18
 -1      1872 9.68369E-05-2.90397E-05-2.90554E-05-6.93595E-07-4.05743E-20-9.07097E-19
 -1      1873 9.69406E-05-2.91211E-05-2.90662E-05-8.69854E-07 1.70892E-19-5.79185E-19
 -1      1874 9.66785E-05-2.89771E-05-2.90148E-05-6.73222E-07-4.63849E-19-1.18662E-18
 -1      1875 9.64976E-05-2.89114E-05-2.89646E-05-6.46781E-07 4.40471E-20-1.78613E-18
 -1      1876 9.66031E-05-2.89552E-05-2.89933E-05-8.71411E-07-4.84882E-19-7.75161E-19
 -1      1877 9.63583E-05-2.88626E-05-2.89252E-05-6.01817E-07 7.56485E-19-2.01059E-18
 -1      1878 9.61972E-05-2.88096E-05-2.88793E-05-5.62039E-07 1.13354E-18-1.57150E-18
 -1      1879 9.63003E-05-2.88289E-05-2.89180E-05-7.96565E-07 3.23428E-19-8.39665E-19
 -1      1880 9.60798E-05-2.87727E-05-2.88436E-05-5.06813E-07 4.65703E-22-2.05245E-18
 -1      1881 9.59443E-05-2.87316E-05-2.88043E-05-4.63035E-07-3.69122E-19-2.11865E-18
 -1      1882 9.60413E-05-2.87364E-05-2.88467E-05-6.83383E-07 5.01433E-19-4.63267E-19
 -1      1883 9.58487E-05-2.87045E-05-2.87736E-05-4.06849E-07 6.67658E-19-2.03411E-18
 -1      1884 9.57397E-05-2.86738E-05-2.87414E-05-3.64795E-07 1.18540E-18-1.18006E-18
 -1      1885 9.58279E-05-2.86709E-05-2.87833E-05-5.57998E-07 5.03356E-19-1.99820E-20
 -1      1886 9.56645E-05-2.86544E-05-2.87162E-05-3.13053E-07 9.30915E-19-1.12167E-18
 -1      1887 9.55803E-05-2.86324E-05-2.86910E-05-2.75780E-07 8.59077E-19-7.81322E-19
 -1      1888 9.56578E-05-2.86262E-05-2.87294E-05-4.36682E-07 9.84243E-19 3.37464E-19
 -1      1889 9.55228E-05-2.86189E-05-2.86710E-05-2.31120E-07 6.29093E-19-1.35050E-19
 -1      1890 9.54603E-05-2.86037E-05-2.86519E-05-1.99879E-07 2.58350E-19 2.47280E-19
 -1      1891 9.55264E-05-2.85967E-05-2.86855E-05-3.28337E-07 7.21398E-19-1.02585E-19
 -1      1892 9.54177E-05-2.85947E-05-2.86367E-05-1.63127E-07-4.12495E-19-2.52505E-19
 -1      1893 9.53733E-05-2.85848E-05-2.86229E-05-1.38047E-07-7.37365E-19 4.61830E-21
 -1      1894 9.54278E-05-2.85782E-05-2.86509E-05-2.36799E-07-2.97448E-19 5.24478E-19
 -1      1895 9.53428E-05-2.85790E-05-2.86117E-05-1.08951E-07-1.09943E-18 3.35817E-19
 -1      1896 9.53128E-05-2.85731E-05-2.86022E-05-8.95411E-08-1.56317E-19 1.52832E-19
 -1      1897 9.53563E-05-2.85674E-05-2.86247E-05-1.62702E-07-7.30437E-19 1.50135E-18
 -1      1898 9.52920E-05-2.85697E-05-2.85942E-05-6.72872E-08 8.89931E-19-4.93178E-19
 -1      1899 9.52731E-05-2.85666E-05-2.85880E-05-5.27767E-08 1.22799E-18 6.58826E-19
 -1      1900 9.53064E-05-2.85619E-05-2.86055E-05-1.04859E-07 1.38992E-19 1.95281E-18
 -1      1901 9.52596E-05-2.85649E-05-2.85827E-05-3.63442E-08 9.88964E-19 1.29344E-18
 -1      1902 9.52491E-05-2.85639E-05-2.85790E-05-2.59067E-08 1.40745E-18 2.25295E-18
 -1      1903 9.52732E-05-2.85600E-05-2.85919E-05-6.12274E-08 1.91192E-18 1.86338E-18
 -1      1904 9.52410E-05-2.85633E-05-2.85756E-05-1.42841E-08 1.06422E-18 7.15409E-19
 -1      1905 9.52364E-05-2.85637E-05-2.85738E-05-7.17644E-09 1.73291E-18 1.16338E-18
 -1      1906 9.52527E-05-2.85604E-05-2.85828E-05-2.95442E-08 4.88151E-19 1.74673E-18
 -1      1907 9.52322E-05-2.85640E-05-2.85717E-05 4.80001E-10 1.10011E-18 3.83797E-19
 -1      1908 9.52315E-05-2.85653E-05-2.85711E-05 4.80090E-09 7.73293E-19-6.16619E-20
 -1      1909 9.52413E-05-2.85623E-05-2.85770E-05-7.72245E-09 8.57959E-19 3.20860E-19
 -1      1910 9.52299E-05-2.85662E-05-2.85700E-05 9.18402E-09 1.24270E-18-4.06582E-19
 -1      1911 9.52316E-05-2.85681E-05-2.85700E-05 1.09870E-08 1.17271E-18 3.57516E-19
 -1      1912 9.52361E-05-2.85653E-05-2.85734E-05 5.87743E-09 6.28202E-19-1.37735E-18
 -1      1913 9.52314E-05-2.85693E-05-2.85693E-05 1.23346E-08 1.98516E-19-1.44543E-19
 -1      1914 9.52340E-05-2.85716E-05-2.85696E-05 1.16588E-08-5.46164E-20-2.91046E-19
 -1      1915 9.52363E-05-2.85737E-05-2.85698E-05 1.30833E-08-3.65506E-20-1.95953E-19
 -1      1916 9.52351E-05-2.85694E-05-2.85712E-05 1.23973E-08 3.88015E-19-6.82932E-19
 -1      1917 9.42211E-05-2.74099E-05-2.85878E-05 1.15494E-06 8.43982E-19 3.29317E-18
 -1      1918 9.48668E-05-2.73036E-05-2.88619E-05 2.08834E-06 1.02982E-18 3.64053E-18
 -1      1919 9.56187E-05-2.70618E-05-2.93481E-05 3.68086E-06 1.24874E-18 3.90030E-18
 -1      1920 9.73157E-05-2.69571E-05-3.00487E-05 5.59648E-06 1.23548E-18 4.29667E-18
 -1      1921 9.59580E-05-2.65031E-05-2.97806E-05 4.10847E-06 1.38126E-18 2.51627E-18
 -1      1922 9.36810E-05-2.75716E-05-2.82978E-05-2.82681E-07 5.50141E-19 3.05388E-18
 -1      1923 9.38070E-05-2.74743E-05-2.83672E-05 2.37461E-07 6.75671E-19 3.20693E-18
 -1      1924 9.49542E-05-2.72254E-05-2.90451E-05 1.27077E-06 9.27319E-19 2.31090E-18
 -1      1925 9.37499E-05-2.77467E-05-2.82599E-05-1.28667E-06 2.96885E-19 2.75562E-18
 -1      1926 9.35407E-05-2.76241E-05-2.82152E-05-9.13262E-07 3.62161E-19 2.83613E-18
 -1      1927 9.44931E-05-2.75581E-05-2.87058E-05-5.02467E-07 6.03276E-19 2.03407E-18
 -1      1928 9.43111E-05-2.79608E-05-2.84103E-05-2.05725E-06 2.89344E-19 2.43916E-18
 -1      1929 9.38423E-05-2.78058E-05-2.82816E-05-1.75041E-06 2.25266E-19 2.51912E-18
 -1      1930 9.44932E-05-2.77657E-05-2.86146E-05-1.75056E-06 4.81389E-19 1.70108E-18
 -1      1931 9.52769E-05-2.82174E-05-2.87112E-05-2.78560E-06 3.19321E-19 2.39939E-18
 -1      1932 9.45845E-05-2.80323E-05-2.85107E-05-2.47063E-06 2.48536E-19 2.39631E-18
 -1      1933 9.48779E-05-2.79261E-05-2.87076E-05-2.74791E-06 3.51932E-19 1.35590E-18
 -1      1934 9.66235E-05-2.85168E-05-2.91540E-05-3.62167E-06 3.18337E-19 1.99703E-18
 -1      1935 9.57015E-05-2.82987E-05-2.88795E-05-3.23466E-06 3.69028E-19 2.26675E-18
 -1      1936 9.55744E-05-2.80584E-05-2.89468E-05-3.72011E-06 3.88461E-19 1.22227E-18
 -1      1937 9.82915E-05-2.88498E-05-2.97167E-05-4.64113E-06-4.21796E-20 1.60219E-18
 -1      1938 9.71520E-05-2.85964E-05-2.93758E-05-4.15430E-06 9.96885E-20 1.77412E-18
 -1      1939 9.65163E-05-2.81578E-05-2.93049E-05-4.81348E-06 2.92245E-19 7.65671E-19
 -1      1940 1.00525E-04-2.92659E-05-3.04826E-05-6.08441E-06-1.25500E-20 1.63705E-18
 -1      1941 9.89832E-05-2.89346E-05-3.00179E-05-5.37835E-06-6.39576E-20 1.73132E-18
 -1      1942 9.77062E-05-2.82214E-05-2.97869E-05-6.20712E-06 1.45269E-20 4.26026E-19
 -1      1943 1.03356E-04-2.97963E-05-3.14573E-05-8.03187E-06-2.87131E-19 1.87308E-18
 -1      1944 1.01356E-04-2.93523E-05-3.08588E-05-7.07511E-06-1.30463E-19 1.73050E-18
 -1      1945 9.91911E-05-2.82531E-05-3.04082E-05-8.09749E-06-1.70750E-19 5.64858E-19
 -1      1946 1.06927E-04-3.05458E-05-3.26605E-05-1.05396E-05-2.17052E-21 2.17106E-18
 -1      1947 1.04347E-04-2.99101E-05-3.19072E-05-9.32512E-06-2.24503E-19 2.19849E-18
 -1      1948 1.00973E-04-2.82959E-05-3.11525E-05-1.05809E-05-5.02473E-19 7.56719E-19
 -1      1949 1.11400E-04-3.17603E-05-3.40664E-05-1.34498E-05 1.53988E-19 2.40076E-18
 -1      1950 1.08132E-04-3.07765E-05-3.31651E-05-1.21088E-05 2.91988E-19 2.43257E-18
 -1      1951 1.03137E-04-2.85220E-05-3.19847E-05-1.36797E-05-3.75573E-20 1.06621E-18
 -1      1952 1.16983E-04-3.39636E-05-3.55464E-05-1.60915E-05-1.76333E-19 2.35576E-18
 -1      1953 1.13000E-04-3.23590E-05-3.45732E-05-1.50806E-05 7.84415E-20 2.21205E-18
 -1      1954 1.05920E-04-2.93926E-05-3.28146E-05-1.71495E-05 1.72930E-19 1.19563E-18
 -1      1955 1.23621E-04-3.78365E-05-3.67930E-05-1.68904E-05-8.70035E-19 2.29518E-18
 -1      1956 1.19277E-04-3.53463E-05-3.59476E-05-1.71392E-05-3.90879E-19 2.04638E-18
 -1      1957 1.09854E-04-3.18565E-05-3.34688E-05-2.01055E-05-2.19193E-19 6.12713E-19
 -1      1958 1.32436E-04-4.47402E-05-3.76930E-05-1.31570E-05-2.02126E-18 2.55911E-18
 -1      1959 1.27783E-04-4.08972E-05-3.71000E-05-1.61973E-05-1.45230E-18 2.17600E-18
 -1      1960 1.16283E-04-3.74980E-05-3.38588E-05-2.08958E-05-1.28038E-18 8.03742E-19
 -1      1961 1.42810E-04-5.33556E-05-3.84972E-05-1.62957E-06-2.42844E-18 3.55800E-18
 -1      1962 1.39452E-04-4.97741E-05-3.81552E-05-8.58843E-06-2.57059E-18 2.60322E-18
 -1      1963 1.27449E-04-4.79553E-05-3.42820E-05-1.63051E-05-2.42228E-18 4.46691E-19
 -1      1964 1.51424E-04-5.60209E-05-4.12304E-05 1.65983E-05-9.30161E-19 5.17573E-18
 -1      1965 1.52050E-04-5.77772E-05-4.02515E-05 8.11572E-06-2.12963E-18 4.50542E-18
 -1      1966 1.44494E-04-5.99571E-05-3.65413E-05-2.75584E-06-3.04233E-18 1.64031E-18
 -1      1967 1.47811E-04-2.81844E-05-5.16838E-05 1.39129E-05 3.72779E-18 4.83211E-18
 -1      1968 1.52253E-04-3.56949E-05-5.07039E-05 2.30931E-05 3.00443E-18 5.74198E-18
 -1      1969 1.52705E-04-4.31539E-05-4.76997E-05-2.72094E-05 1.76162E-18 2.18407E-18
 -1      1970 1.46244E-04-3.35391E-05-4.89561E-05-2.20480E-05 2.10318E-18 2.55349E-18
 -1      1971 1.55613E-04-5.64795E-05-4.27915E-05-1.94496E-05 1.19477E-18 2.47016E-19
 -1      1972 1.51977E-04-4.98924E-05-4.41149E-05-2.49353E-05 1.26483E-18 9.80123E-19
 -1      1973 1.47361E-04-5.44860E-05-3.96419E-05-5.10213E-07 4.34554E-19 4.15893E-19
 -1      1974 1.48653E-04-5.56935E-05-4.01084E-05-9.35995E-06 1.03566E-18 7.83016E-19
 -1      1975 1.53680E-04-6.07625E-05-4.00534E-05-1.04500E-05 9.03533E-19-5.71747E-19
 -1      1976 1.35610E-04-4.56857E-05-3.82766E-05 1.21190E-05 6.40675E-19 9.23901E-19
 -1      1977 1.39493E-04-4.94627E-05-3.86865E-05 6.70549E-06 1.90000E-19 7.07458E-19
 -1      1978 1.38197E-04-5.35413E-05-3.62378E-05 7.00128E-06 1.20358E-19-3.38615E-19
 -1      1979 1.25373E-04-3.83267E-05-3.72233E-05 1.63855E-05-6.41899E-19 1.67861E-18
 -1      1980 1.29969E-04-4.16689E-05-3.79461E-05 1.48472E-05 1.60089E-19 1.52771E-18
 -1      1981 1.24789E-04-4.32572E-05-3.51388E-05 1.76735E-05-1.69195E-19 2.35780E-19
 -1      1982 1.17849E-04-3.42078E-05-3.58407E-05 1.55251E-05-7.95656E-19 1.97552E-18
 -1      1983 1.22092E-04-3.63123E-05-3.67869E-05 1.60853E-05-6.67707E-19 1.98644E-18
 -1      1984 1.15904E-04-3.52030E-05-3.46662E-05 1.96057E-05-7.05585E-19 1.60879E-18
 -1      1985 1.12437E-04-3.21244E-05-3.44330E-05 1.29359E-05-1.64867E-19 1.87865E-18
 -1      1986 1.15864E-04-3.33504E-05-3.53267E-05 1.41746E-05-7.97276E-19 1.98071E-18
 -1      1987 1.10549E-04-3.13975E-05-3.39577E-05 1.76712E-05-4.46534E-19 1.46289E-18
 -1      1988 1.08055E-04-3.09207E-05-3.30673E-05 9.93831E-06 4.61322E-19 2.77905E-18
 -1      1989 1.10910E-04-3.17238E-05-3.38767E-05 1.12932E-05 4.13815E-19 2.39950E-18
 -1      1990 1.06929E-04-2.97982E-05-3.30670E-05 1.44040E-05-4.71847E-19 2.30184E-18
 -1      1991 1.04722E-04-3.02275E-05-3.19294E-05 7.32978E-06 1.23112E-18 2.37351E-18
 -1      1992 1.06893E-04-3.07430E-05-3.25707E-05 8.47380E-06 1.09996E-18 3.65905E-18
 -1      1993 1.04183E-04-2.91882E-05-3.21443E-05 1.10194E-05 4.45685E-19 3.19461E-18
 -1      1994 1.02190E-04-2.97747E-05-3.10338E-05 5.28644E-06 1.39554E-18 1.38737E-18
 -1      1995 1.03798E-04-3.01208E-05-3.15188E-05 6.16565E-06 1.27924E-18 1.83387E-18
 -1      1996 1.02058E-04-2.89844E-05-3.13199E-05 8.14976E-06 1.49452E-18 3.66266E-18
 -1      1997 1.00287E-04-2.94529E-05-3.03534E-05 3.76664E-06 9.37990E-20 1.56858E-18
 -1      1998 1.01456E-04-2.96927E-05-3.07103E-05 4.41127E-06 1.29448E-18 1.61783E-18
 -1      1999 1.00385E-04-2.89050E-05-3.06378E-05 5.91051E-06 1.01144E-18 1.78264E-18
 -1      2000 9.89273E-05-2.92231E-05-2.98692E-05 2.71345E-06 5.21054E-19 2.09798E-19
 -1      2001 9.97405E-05-2.93839E-05-3.01179E-05 3.15850E-06-8.51003E-21 6.94510E-19
 -1      2002 9.91025E-05-2.88577E-05-3.01110E-05 4.26920E-06 1.01475E-18-9.66726E-20
 -1      2003 9.78578E-05-2.90378E-05-2.94908E-05 1.91214E-06 7.74969E-19-6.22869E-19
 -1      2004 9.84744E-05-2.91620E-05-2.96802E-05 2.24470E-06 7.15415E-19-2.16554E-19
 -1      2005 9.81050E-05-2.88051E-05-2.97042E-05 3.07108E-06 9.38853E-19-3.82302E-19
 -1      2006 9.70763E-05-2.88989E-05-2.92159E-05 1.34291E-06 1.43666E-18-1.43881E-18
 -1      2007 9.75157E-05-2.89867E-05-2.93513E-05 1.57820E-06 1.30690E-18-7.01736E-19
 -1      2008 9.73196E-05-2.87556E-05-2.93888E-05 2.17777E-06 1.27649E-18-1.21185E-18
 -1      2009 9.65080E-05-2.87950E-05-2.90173E-05 9.38779E-07 1.75378E-19-1.23543E-18
 -1      2010 9.68194E-05-2.88574E-05-2.91136E-05 1.10493E-06 8.72500E-19-1.42255E-18
 -1      2011 9.67268E-05-2.87088E-05-2.91543E-05 1.53761E-06 1.18033E-18-2.07198E-18
 -1      2012 9.60982E-05-2.87186E-05-2.88749E-05 6.51635E-07-1.65241E-19-3.26738E-18
 -1      2013 9.63174E-05-2.87624E-05-2.89429E-05 7.69154E-07-4.88752E-19-2.19773E-18
 -1      2014 9.62850E-05-2.86679E-05-2.89819E-05 1.07959E-06 2.22476E-19-3.29558E-18
 -1      2015 9.58061E-05-2.86636E-05-2.87736E-05 4.47444E-07-4.58631E-19-2.47305E-18
 -1      2016 9.59586E-05-2.86939E-05-2.88213E-05 5.30595E-07-6.79556E-19-2.43433E-18
 -1      2017 9.59595E-05-2.86344E-05-2.88562E-05 7.51921E-07 6.19579E-20-3.23544E-18
 -1      2018 9.56088E-05-2.86264E-05-2.87054E-05 3.08344E-07 4.68468E-19-4.57944E-19
 -1      2019 9.57098E-05-2.86458E-05-2.87371E-05 3.65089E-07-3.14083E-19-1.69259E-18
 -1      2020 9.57280E-05-2.86098E-05-2.87672E-05 5.21647E-07-1.47811E-18-1.58119E-18
 -1      2021 9.54634E-05-2.85995E-05-2.86550E-05 2.03135E-07-1.20284E-18 5.64609E-19
 -1      2022 9.55357E-05-2.86132E-05-2.86778E-05 2.45547E-07 4.00254E-19 1.60889E-18
 -1      2023 9.55610E-05-2.85905E-05-2.87033E-05 3.56934E-07-1.02223E-18-2.20795E-19
 -1      2024 9.53654E-05-2.85820E-05-2.86207E-05 1.28701E-07-9.34655E-19 2.77289E-18
 -1      2025 9.54127E-05-2.85903E-05-2.86359E-05 1.58666E-07-1.58275E-18 1.38334E-18
 -1      2026 9.54401E-05-2.85773E-05-2.86567E-05 2.35264E-07-1.42020E-18 9.91865E-19
 -1      2027 9.53015E-05-2.85713E-05-2.85981E-05 7.63489E-08-2.79167E-19 1.42000E-18
 -1      2028 9.53311E-05-2.85758E-05-2.86078E-05 9.73075E-08-1.23066E-19 2.63591E-18
 -1      2029 9.53571E-05-2.85688E-05-2.86245E-05 1.48827E-07-6.58728E-19 2.95850E-18
 -1      2030 9.52621E-05-2.85655E-05-2.85838E-05 3.99451E-08 9.74041E-19 1.36633E-18
 -1      2031 9.52791E-05-2.85675E-05-2.85896E-05 5.43876E-08-2.18609E-19 4.79291E-19
 -1      2032 9.53020E-05-2.85640E-05-2.86027E-05 8.78855E-08 4.41041E-19 1.66001E-18
 -1      2033 9.52406E-05-2.85633E-05-2.85757E-05 1.61235E-08-1.08187E-19 2.72623E-18
 -1      2034 9.52488E-05-2.85635E-05-2.85787E-05 2.55153E-08 1.17763E-18 1.85161E-18
 -1      2035 9.52679E-05-2.85622E-05-2.85887E-05 4.62131E-08 4.04151E-19 9.25816E-19
 -1      2036 9.52298E-05-2.85634E-05-2.85711E-05-5.80426E-10-1.46122E-18 2.94404E-18
 -1      2037 9.52327E-05-2.85625E-05-2.85725E-05 5.83660E-09-1.22746E-18 3.46935E-18
 -1      2038 9.52476E-05-2.85621E-05-2.85799E-05 1.78338E-08-8.69062E-19 2.32971E-18
 -1      2039 9.52269E-05-2.85652E-05-2.85692E-05-1.05992E-08-4.65118E-19 4.31548E-18
 -1      2040 9.52261E-05-2.85634E-05-2.85694E-05-6.93438E-09-1.40419E-18 3.76406E-18
 -1      2041 9.52369E-05-2.85636E-05-2.85745E-05-1.29416E-09-1.96612E-18 1.69888E-18
 -1      2042 9.52289E-05-2.85683E-05-2.85688E-05-1.50667E-08-1.32649E-18 4.65949E-18
 -1      2043 9.52259E-05-2.85660E-05-2.85684E-05-1.38713E-08-5.05773E-19 4.83953E-18
 -1      2044 9.52329E-05-2.85663E-05-2.85716E-05-1.24242E-08-1.21086E-18 3.21637E-18
 -1      2045 9.52331E-05-2.85725E-05-2.85689E-05-1.42728E-08-3.16415E-20 4.75181E-18
 -1      2046 9.52295E-05-2.85696E-05-2.85684E-05-1.54087E-08-6.49736E-20 4.50593E-18
 -1      2047 9.52335E-05-2.85704E-05-2.85700E-05-1.69657E-08-4.27880E-19 2.47498E-18
 -1      2048 2.15436E-05-3.94211E-05 6.21819E-06 1.57902E-05 4.45412E-18 4.96192E-18
 -1      2049 1.49245E-05-3.97454E-05 8.89847E-06 7.09724E-06 3.57204E-18 4.60955E-18
 -1      2050 9.52440E-05-2.85850E-05-2.85682E-05-7.48982E-09 1.94122E-18-1.17601E-18
 -1      2051 9.52434E-05-2.85832E-05-2.85686E-05-9.62336E-09 3.37368E-18-1.28933E-18
 -1      2052 9.52431E-05-2.85835E-05-2.85684E-05-1.21478E-08 2.47227E-18-3.00607E-18
 -1      2053 9.52414E-05-2.85805E-05-2.85690E-05-1.35664E-08 1.63526E-18-3.40292E-18
 -1      2054 9.52425E-05-2.85769E-05-2.85710E-05-1.18709E-08 2.24742E-18-2.01874E-18
 -1      2055 9.52347E-05-2.85740E-05-2.85687E-05-1.14109E-08 1.10948E-18 5.92785E-18
 -1      2056 9.52434E-05-2.85844E-05-2.85682E-05-2.95971E-09-1.16633E-18-7.20102E-18
 -1      2057 9.52435E-05-2.85838E-05-2.85684E-05-4.90690E-09 3.42441E-19-4.34743E-18
 -1      2058 9.52424E-05-2.85754E-05-2.85716E-05-6.26330E-09 7.29970E-19-4.45062E-18
 -1      2059 9.52420E-05-2.85826E-05-2.85684E-05 3.42051E-10 3.44733E-19-3.27446E-19
 -1      2060 9.52425E-05-2.85827E-05-2.85684E-05-9.89784E-10 2.65295E-19-3.20274E-18
 -1      2061 9.52407E-05-2.85723E-05-2.85721E-05-1.29904E-09 9.68247E-19-4.15956E-18
 -1      2062 9.52405E-05-2.85804E-05-2.85686E-05 1.92011E-09-1.02330E-18 1.18386E-18
 -1      2063 9.52410E-05-2.85810E-05-2.85685E-05 1.33089E-09 4.72580E-19 1.53454E-18
 -1      2064 9.52383E-05-2.85688E-05-2.85726E-05 1.82834E-09 8.98553E-19 3.08866E-19
 -1      2065 9.52394E-05-2.85787E-05-2.85689E-05 2.09156E-09-1.56128E-18-1.44003E-18
 -1      2066 9.52398E-05-2.85793E-05-2.85688E-05 2.04036E-09-1.27073E-18 3.51662E-19
 -1      2067 9.52362E-05-2.85658E-05-2.85729E-05 2.85513E-09-8.64998E-19-2.76572E-19
 -1      2068 9.52391E-05-2.85779E-05-2.85691E-05 1.63678E-09-1.05829E-18-1.49891E-18
 -1      2069 9.52392E-05-2.85783E-05-2.85690E-05 1.74892E-09-1.24852E-18-1.48663E-18
 -1      2070 9.52350E-05-2.85642E-05-2.85731E-05 2.37949E-09-1.15531E-18-1.35335E-18
 -1      2071 9.52395E-05-2.85781E-05-2.85691E-05 1.48475E-09-1.82425E-18-2.99916E-18
 -1      2072 9.52394E-05-2.85784E-05-2.85690E-05 1.35732E-09-6.70053E-19-2.60674E-18
 -1      2073 9.52351E-05-2.85643E-05-2.85731E-05 1.46245E-09-1.63556E-18-2.30358E-18
 -1      2074 9.52405E-05-2.85789E-05-2.85692E-05 2.37286E-09-2.31183E-18-1.86968E-18
 -1      2075 9.52402E-05-2.85793E-05-2.85690E-05 1.73536E-09-2.10540E-18-2.42282E-18
 -1      2076 9.52364E-05-2.85660E-05-2.85730E-05 1.22692E-09-5.37293E-19-3.11521E-18
 -1      2077 9.52414E-05-2.85796E-05-2.85692E-05 4.64382E-09-3.26378E-19 4.02288E-18
 -1      2078 9.52413E-05-2.85804E-05-2.85690E-05 3.40948E-09-9.92421E-19 2.18766E-18
 -1      2079 9.52382E-05-2.85687E-05-2.85726E-05 2.48572E-09 4.23891E-19 8.88792E-19
 -1      2080 9.52416E-05-2.85795E-05-2.85694E-05 7.90366E-09-6.58877E-19 2.81438E-18
 -1      2081 9.52420E-05-2.85809E-05-2.85691E-05 6.37801E-09-4.61539E-19 2.67100E-18
 -1      2082 9.52400E-05-2.85716E-05-2.85722E-05 5.47800E-09 5.29707E-19 3.33685E-18
 -1      2083 9.52402E-05-2.85781E-05-2.85695E-05 1.11317E-08 9.48812E-20 2.85275E-18
 -1      2084 9.52417E-05-2.85802E-05-2.85692E-05 9.77630E-09-6.63002E-19 3.27324E-18
 -1      2085 9.52406E-05-2.85736E-05-2.85716E-05 9.43155E-09 2.19381E-19 2.59035E-18
 -1      2086 5.12449E-05-4.36685E-05-4.24170E-06 3.28336E-05 4.14199E-18 2.57667E-18
 -1      2087 3.52430E-05-4.49468E-05 2.16456E-06 2.29018E-05 3.55161E-18 3.89381E-18
 -1      2088 1.14391E-05-3.65123E-05 9.32266E-06-3.79893E-06 3.03619E-18 4.12082E-18
 -1      2089 1.21797E-05-3.53957E-05 8.66727E-06-1.23321E-05 1.77284E-18 3.64182E-18
 -1      2090 8.73234E-05-8.66407E-06-3.38027E-05-1.01333E-05-3.13578E-19-2.58324E-18
 -1      2091 8.80785E-05-9.22827E-06-3.38771E-05-1.17043E-05-5.39236E-19-2.52662E-18
 -1      2092 9.05863E-05-1.29946E-05-3.32812E-05-1.13861E-05-7.34765E-19-2.27717E-18
 -1      2093 8.86829E-05-1.09286E-05-3.33553E-05-8.97424E-06-2.38026E-19-2.40146E-18
 -1      2094 1.83638E-04-5.39545E-05-5.46319E-05 1.21495E-05 3.07065E-18-3.82012E-19
 -1      2095 1.60954E-04-5.46715E-05-4.58794E-05 1.66332E-05 4.01240E-18-1.10114E-20
 -1      2096 2.02417E-04-4.15591E-05-6.70652E-05-1.23686E-06 3.78285E-18-5.01444E-19
 -1      2097 1.90214E-04-4.47577E-05-6.13582E-05 3.44719E-06 3.60116E-18 8.47033E-20
 -1      2098 2.08033E-04-3.42330E-05-7.20083E-05-1.34757E-06 3.88830E-18 3.69889E-19
 -1      2099 1.99647E-04-3.32084E-05-6.98226E-05-1.21102E-06 3.77777E-18 5.20078E-19
 -1      2100 2.02672E-04-3.64616E-05-6.94374E-05-1.14806E-06 4.59812E-18-1.84653E-19
 -1      2101 2.10611E-04-3.58817E-05-7.24611E-05 8.40667E-07 4.23008E-18 5.65394E-19
 -1      2102 1.80663E-04-4.68797E-05-5.69167E-05 1.50875E-06 3.30999E-18-2.32087E-19
 -1      2103 1.97682E-04-4.39991E-05-6.42394E-05 1.52145E-06 4.31606E-18-1.27055E-19
 -1      2104 1.48995E-04-5.67406E-05-3.99781E-05-2.07436E-05 9.00396E-19-3.62361E-18
 -1      2105 1.72734E-04-5.80273E-05-4.91383E-05-1.31695E-05 2.01096E-18-1.22904E-18
 -1      2106 1.02478E-04-5.41038E-05-2.23260E-05-3.17593E-05-4.32410E-19-4.62480E-18
 -1      2107 1.28954E-04-5.47246E-05-3.20834E-05-3.46839E-05 4.98055E-19-5.29141E-18
 -1      2108 5.92861E-05-4.92877E-05-6.15468E-06-3.06372E-05-1.32730E-18-3.12200E-18
 -1      2109 7.94047E-05-4.85871E-05-1.41164E-05-3.72597E-05-3.10014E-19-4.34464E-18
 -1      2110 2.59713E-05-4.34519E-05 5.53375E-06-1.80365E-05-2.56185E-18-3.14334E-18
 -1      2111 3.81381E-05-4.18418E-05 3.37905E-07-2.74036E-05-1.42725E-18-2.86064E-18
 -1      2112 1.22892E-05-3.72898E-05 9.26500E-06-8.64118E-07-3.26323E-18-3.72186E-18
 -1      2113 1.63001E-05-3.76077E-05 7.80857E-06-9.87221E-06-2.23447E-18-3.76506E-18
 -1      2114 1.49168E-05-3.51204E-05 7.53028E-06 1.91635E-05-3.65939E-18-2.31918E-18
 -1      2115 1.20080E-05-3.81899E-05 9.62515E-06 1.01688E-05-3.24160E-18-2.76133E-18
 -1      2116 3.80337E-05-3.67574E-05-1.10813E-06 3.78762E-05-3.30512E-18-1.82959E-18
 -1      2117 2.74857E-05-3.80568E-05 3.42582E-06 3.03823E-05-2.67917E-18-2.14892E-18
 -1      2118 6.77799E-05-3.99949E-05-1.21434E-05 4.68710E-05-3.27971E-18-2.08021E-18
 -1      2119 5.20601E-05-4.25962E-05-5.22964E-06 4.01340E-05-3.23355E-18-1.85071E-18
 -1      2120 5.42752E-05-3.93061E-05-6.63373E-06 4.58625E-05-8.29245E-19-1.14477E-18
 -1      2121 1.06583E-04-4.03867E-05-2.80414E-05 4.72077E-05-3.71043E-18-2.61606E-18
 -1      2122 8.79931E-05-4.36294E-05-1.98500E-05 4.31818E-05-3.61683E-18-2.35772E-18
 -1      2123 1.41071E-04-3.87080E-05-4.30925E-05 4.05548E-05-3.64415E-18-2.12563E-18
 -1      2124 1.21396E-04-4.00528E-05-3.52749E-05 3.99511E-05-4.05898E-18-2.46487E-18
 -1      2125 1.67604E-04-3.46239E-05-5.61580E-05 2.69097E-05-3.56564E-18-1.08590E-18
 -1      2126 1.51105E-04-3.50261E-05-4.94532E-05 3.29270E-05-3.76294E-18-1.86601E-18
 -1      2127 1.49464E-04-4.45262E-05-4.42511E-05 2.28944E-05-2.77647E-18-3.70153E-19
 -1      2128 1.84125E-04-2.71878E-05-6.59701E-05 1.15385E-05-3.83537E-18-5.84453E-19
 -1      2129 1.72699E-04-2.76811E-05-6.15502E-05 1.66605E-05-3.61916E-18-9.97805E-19
 -1      2130 1.89788E-04-2.40709E-05-6.99421E-05-5.61086E-07-3.55500E-18 3.39488E-19
 -1      2131 1.87388E-04-2.41764E-05-6.89064E-05 7.82217E-06-3.78116E-18-6.45863E-19
 -1      2132 1.77692E-04-2.27618E-05-6.58686E-05-9.26879E-06-3.01798E-18 4.81538E-19
 -1      2133 1.85253E-04-2.31421E-05-6.83331E-05-3.36735E-06-3.64478E-18 4.23516E-20
 -1      2134 1.66295E-04-3.11585E-05-5.74939E-05-2.32198E-05-2.22177E-18 1.85288E-18
 -1      2135 1.76713E-04-2.94576E-05-6.23859E-05-1.51021E-05-2.40833E-18 1.30782E-18
 -1      2136 1.42606E-04-3.71844E-05-4.52668E-05-3.27044E-05-1.76162E-18 2.81977E-18
 -1      2137 1.61405E-04-3.61646E-05-5.27182E-05-3.12996E-05-2.05707E-18 2.68721E-18
 -1      2138 1.58737E-04-3.53372E-05-5.19895E-05-9.95304E-06-1.51672E-18 1.66018E-19
 -1      2139 1.06159E-04-4.12612E-05-2.84914E-05-4.20620E-05-4.85773E-19 3.34451E-18
 -1      2140 1.27906E-04-4.01062E-05-3.71362E-05-4.36701E-05-1.24895E-18 3.52747E-18
 -1      2141 7.21232E-05-4.32955E-05-1.34365E-05-4.30131E-05 5.51418E-19 1.74743E-18
 -1      2142 9.00201E-05-4.04724E-05-2.11765E-05-4.81958E-05-1.79995E-19 2.63914E-18
 -1      2143 3.96349E-05-4.13273E-05-7.50864E-07-3.56386E-05 8.63974E-19 1.79031E-18
 -1      2144 5.25322E-05-3.79122E-05-6.81039E-06-4.29520E-05 4.80691E-19 1.29885E-18
 -1      2145 1.83504E-05-3.89816E-05 7.27601E-06-2.21787E-05 1.80969E-18 2.76980E-18
 -1      2146 2.55407E-05-3.64808E-05 3.67567E-06-3.00346E-05 8.90232E-19 3.22190E-18
 -1      2147 1.00074E-04-2.25844E-05-3.29357E-05 1.43137E-05 1.33434E-18 4.67509E-18
 -1      2148 1.45280E-04-5.59562E-05-3.80507E-05 3.03009E-05 3.64648E-18 1.32137E-19
 -1      2149 1.19530E-04-5.61397E-05-2.83970E-05 2.89039E-05 3.66977E-18 2.95614E-19
 -1      2150 9.99350E-05-2.25922E-05-3.28667E-05-1.41586E-05-1.45864E-18-5.79688E-19
 -1      2151 9.52356E-05-2.85746E-05-2.85690E-05-1.44077E-08 8.88933E-19 5.11674E-18
 -1      2152 9.52387E-05-2.85782E-05-2.85687E-05-1.49660E-08 9.32329E-19-2.46389E-19
 -1      2153 7.49563E-05-5.09313E-05-1.08320E-05 3.73768E-05 2.05278E-18 2.96197E-19
 -1      2154 1.23640E-04-6.38302E-05-2.58101E-05 2.93590E-05 1.09733E-18-2.14151E-18
 -1      2155 9.73821E-05-2.43740E-05-3.13602E-05-9.69275E-06-1.29109E-18-8.33269E-19
 -1      2156 1.61557E-04-6.45309E-05-4.10359E-05 9.08258E-06 2.34416E-18-2.00239E-18
 -1      2157 9.65689E-05-2.31623E-05-3.15279E-05-9.99082E-06-1.27480E-18-1.26973E-18
 -1      2158 9.66343E-05-2.31770E-05-3.15621E-05 9.99784E-06 1.62340E-18 2.88108E-18
 -1      2159 9.74930E-05-2.44122E-05-3.14004E-05 9.74437E-06 1.40809E-18 4.30920E-18
 -1      2160 1.56602E-04-5.32537E-05-4.47434E-05 2.45975E-05-4.96573E-20 5.46463E-18
 -1      2161 1.59156E-04-6.02050E-05-4.26998E-05 1.61521E-05-9.90182E-19 3.34303E-18
 -1      2162 1.51617E-04-4.46357E-05-4.62817E-05 2.56770E-05 8.48727E-19 6.16555E-18
 -1      2163 1.68363E-04-3.11237E-05-5.88411E-05-1.71205E-05 3.08447E-18 8.96584E-19
 -1      2164 1.53340E-04-2.79381E-05-5.42730E-05-1.26590E-05 2.57117E-18 2.59385E-18
 -1      2165 1.50867E-04-2.46945E-05-5.47180E-05 7.27240E-07 3.50036E-18 3.70741E-18
 -1      2166 1.62435E-04-5.02863E-05-4.84390E-05-2.52029E-05 2.05088E-18 2.22346E-19
 -1      2167 1.46225E-05-2.63228E-05 4.25240E-06 4.04911E-06 2.15326E-18 5.06145E-18
 -1      2168 9.52386E-05-2.85748E-05-2.85702E-05-1.63939E-08 2.29083E-19-7.84927E-19
 -1      2169 3.41507E-05-3.56872E-05-1.20822E-07 2.66397E-05 1.88380E-18 3.49655E-18
 -1      2170 9.52393E-05-2.85759E-05-2.85700E-05 1.18516E-08 9.16632E-19 1.82381E-18
 -1      2171 1.71793E-05-2.67120E-05 3.40434E-06-2.09009E-05 1.70423E-18 3.97851E-18
 -1      2172 3.89312E-05-3.54989E-05-2.06140E-06-4.03476E-05 1.79444E-18 2.50192E-18
 -1      2173 7.47373E-05-4.60432E-05-1.24985E-05-4.83591E-05 1.86771E-18 1.50412E-18
 -1      2174 1.42785E-04-4.80183E-05-4.00995E-05-2.69430E-05-1.19114E-19 1.63308E-18
 -1      2175 1.62196E-04-2.03942E-05-5.99288E-05-1.01461E-06-2.76090E-18-5.18808E-19
 -1      2176 1.64921E-04-1.18446E-05-6.44762E-05 8.06510E-07-3.60455E-18-2.09429E-19
 -1      2177 1.62557E-04-3.05886E-05-5.57018E-05 8.90332E-06-3.40973E-18 1.04609E-19
 -1      2178 8.99898E-05-4.98961E-05-1.72949E-05 4.68385E-05-1.47214E-18-1.21899E-18
 -1      2179 2.52408E-05-2.88704E-05 1.09747E-06 3.06811E-05-1.24937E-18-1.85077E-18
 -1      2180 1.30685E-05-2.53419E-05 4.53757E-06 3.99201E-06-1.94188E-18-3.73626E-18
 -1      2181 2.48079E-05-3.14968E-05 2.06782E-06-1.98178E-05-2.23299E-18-3.81631E-18
 -1      2182 5.87258E-05-4.60621E-05-6.21848E-06-3.53599E-05-2.49070E-18-3.25642E-18
 -1      2183 1.06374E-04-6.00368E-05-2.02980E-05-3.47999E-05-2.05067E-18-3.70100E-18
 -1      2184 1.49198E-04-6.55437E-05-3.54562E-05-1.72006E-05-1.08124E-18-1.89820E-18
 -1      2185 1.74836E-04-5.67805E-05-5.02396E-05 8.02097E-06 1.43720E-18 9.44865E-19
 -1      2186 1.80464E-04-3.41315E-05-6.13014E-05 1.45858E-05 4.13183E-18 1.55176E-18
 -1      2187 1.81279E-04-2.42636E-05-6.55307E-05 1.71602E-06 4.32664E-18 1.58067E-18
 -1      2188 1.80039E-04-5.07206E-05-5.44614E-05-1.03881E-05 2.54417E-18-1.50433E-18
 -1      2189 1.82532E-04-3.20402E-05-6.30640E-05-1.02657E-05 3.48300E-18 2.04558E-19
 -1      2190 1.26015E-04-5.18615E-05-3.15250E-05 3.65838E-05-2.18280E-18-8.85149E-19
 -1      2191 1.66772E-04-1.64336E-05-6.32552E-05 4.41924E-07-3.85654E-18-6.38028E-19
 -1      2192 1.11975E-04-5.23743E-05-2.54102E-05-4.19855E-05 1.63901E-18 2.23638E-18
 -1      2193 8.78242E-05-1.07604E-05-3.30672E-05-3.37163E-06 7.18673E-19-2.06395E-18
 -1      2194 8.81144E-05-1.10724E-05-3.30533E-05-4.45763E-06 5.11440E-19-2.11373E-18
 -1      2195 8.85352E-05-1.16209E-05-3.30093E-05-5.42471E-06 3.48798E-19-2.16327E-18
 -1      2196 8.90070E-05-1.21408E-05-3.29863E-05-6.55935E-06 1.04696E-19-2.22564E-18
 -1      2197 8.96189E-05-1.34027E-05-3.26626E-05-4.48754E-06 4.12155E-19-1.99364E-18
 -1      2198 8.73559E-05-1.01785E-05-3.31098E-05 5.95900E-07 1.40114E-18-1.56154E-18
 -1      2199 8.73594E-05-1.01842E-05-3.31080E-05-4.36304E-07 1.19560E-18-1.66496E-18
 -1      2200 8.75650E-05-1.04080E-05-3.31008E-05 2.56383E-06 1.62999E-18-1.41552E-18
 -1      2201 8.74280E-05-1.02658E-05-3.31049E-05 1.52407E-06 1.46522E-18-1.51402E-18
 -1      2202 8.85939E-05-1.21102E-05-3.27797E-05 9.88532E-07 1.39189E-18-1.44638E-18
 -1      2203 8.80849E-05-1.10055E-05-3.30701E-05 4.53415E-06 1.87018E-18-1.01314E-18
 -1      2204 8.77973E-05-1.07018E-05-3.30807E-05 3.48122E-06 1.72924E-18-1.28975E-18
 -1      2205 8.89057E-05-1.24846E-05-3.27514E-05 2.77040E-06 1.59876E-18-1.22362E-18
 -1      2206 8.89942E-05-1.20770E-05-3.30082E-05 6.59369E-06 2.12250E-18-4.37155E-19
 -1      2207 8.85103E-05-1.15507E-05-3.30292E-05 5.47606E-06 1.94957E-18-7.53509E-19
 -1      2208 8.95732E-05-1.33051E-05-3.26832E-05 4.55543E-06 1.85021E-18-7.81497E-19
 -1      2209 9.04093E-05-1.37946E-05-3.28963E-05 8.67127E-06 2.21693E-18 8.04020E-20
 -1      2210 8.96628E-05-1.29425E-05-3.29353E-05 7.51795E-06 2.15094E-18-2.65479E-19
 -1      2211 9.06665E-05-1.46813E-05-3.25566E-05 6.32464E-06 2.01806E-18-2.91915E-19
 -1      2212 9.25412E-05-1.65173E-05-3.26768E-05 1.05460E-05 2.13261E-18 9.07768E-19
 -1      2213 9.14098E-05-1.50991E-05-3.27643E-05 9.48306E-06 2.15189E-18 4.27507E-19
 -1      2214 9.22601E-05-1.67800E-05-3.23316E-05 7.91785E-06 1.98997E-18 2.52767E-19
 -1      2215 9.56910E-05-2.09595E-05-3.20934E-05 1.08271E-05 1.85438E-18 2.09907E-18
 -1      2216 9.38909E-05-1.85658E-05-3.23164E-05 1.04756E-05 1.99528E-18 1.29408E-18
 -1      2217 9.43655E-05-2.00566E-05-3.18195E-05 8.44049E-06 1.89842E-18 1.03677E-18
 -1      2218 9.59668E-05-2.39032E-05-3.08780E-05 7.11737E-06 1.63377E-18 2.11050E-18
 -1      2219 9.61892E-05-2.51129E-05-3.04139E-05-5.70105E-06-9.84282E-19-1.30990E-18
 -1      2220 9.55958E-05-2.58720E-05-2.98952E-05-3.74600E-06-8.93957E-19-1.23716E-18
 -1      2221 9.55300E-05-2.65595E-05-2.95014E-05-2.34791E-06-7.88263E-19-1.04448E-18
 -1      2222 9.51464E-05-2.69449E-05-2.92271E-05-1.23057E-06-6.50480E-19-1.08316E-18
 -1      2223 9.56347E-05-2.53366E-05-3.01371E-05-3.65115E-06-8.32377E-19-1.33767E-18
 -1      2224 9.50178E-05-2.72868E-05-2.89889E-05-3.08180E-07-6.15156E-19-8.59283E-19
 -1      2225 9.48685E-05-2.75296E-05-2.88551E-05 3.55625E-07-4.26466E-19-1.01911E-18
 -1      2226 9.54445E-05-2.66756E-05-2.94873E-05-1.14116E-06-6.05605E-19-1.13426E-18
 -1      2227 9.48088E-05-2.77377E-05-2.87214E-05 9.38931E-07-1.98857E-19-9.00393E-19
 -1      2228 9.48415E-05-2.79281E-05-2.86733E-05 1.32860E-06-7.20805E-21-8.17846E-19
 -1      2229 9.52957E-05-2.74428E-05-2.90945E-05 4.94374E-07-3.05034E-19-9.30491E-19
 -1      2230 9.48729E-05-2.80870E-05-2.86085E-05 1.67945E-06 7.67551E-20-8.45997E-19
 -1      2231 9.50312E-05-2.82634E-05-2.86125E-05 1.88708E-06-7.39264E-20-9.42930E-19
 -1      2232 9.53003E-05-2.79540E-05-2.88750E-05 1.51912E-06-5.85445E-20-8.91444E-19
 -1      2233 9.51481E-05-2.84140E-05-2.85917E-05 2.06729E-06-3.13350E-19-1.02138E-18
 -1      2234 9.53857E-05-2.85949E-05-2.86250E-05 2.13655E-06-2.74403E-19-1.00801E-18
 -1      2235 9.54738E-05-2.83678E-05-2.87695E-05 2.11140E-06-2.25954E-19-7.74178E-19
 -1      2236 9.55768E-05-2.87604E-05-2.86298E-05 2.17416E-06-1.90257E-19-1.00717E-18
 -1      2237 9.58547E-05-2.89551E-05-2.86752E-05 2.11870E-06-2.21741E-19-9.59842E-19
 -1      2238 9.58018E-05-2.87702E-05-2.87354E-05 2.36830E-06-2.99694E-19-9.10037E-19
 -1      2239 9.61082E-05-2.91493E-05-2.86923E-05 2.01681E-06-3.96698E-19-8.09372E-19
 -1      2240 9.63902E-05-2.93597E-05-2.87359E-05 1.83108E-06-5.99687E-19-8.67704E-19
 -1      2241 9.62636E-05-2.92133E-05-2.87416E-05 2.32538E-06-3.38306E-19-9.65984E-19
 -1      2242 9.66918E-05-2.95876E-05-2.87551E-05 1.57565E-06-5.55735E-19-8.35195E-19
 -1      2243 9.69391E-05-2.98053E-05-2.87854E-05 1.24439E-06-4.44723E-19-6.83408E-19
 -1      2244 9.68349E-05-2.97249E-05-2.87656E-05 1.97345E-06-5.52555E-19-7.23195E-19
 -1      2245 9.72656E-05-3.00573E-05-2.88002E-05 8.14073E-07-4.41862E-19-6.99289E-19
 -1      2246 9.74330E-05-3.02581E-05-2.88081E-05 3.24356E-07-3.35902E-19-7.28183E-19
 -1      2247 9.74798E-05-3.03029E-05-2.87924E-05 1.27645E-06-5.63047E-19-5.00853E-19
 -1      2248 9.77449E-05-3.05035E-05-2.88157E-05-2.94601E-07-2.13672E-19-5.77396E-19
 -1      2249 9.77790E-05-3.06425E-05-2.87952E-05-9.36765E-07-1.15764E-19-3.55777E-19
 -1      2250 9.81361E-05-3.09006E-05-2.88147E-05 1.96396E-07-1.65880E-19-2.44390E-19
 -1      2251 9.80133E-05-3.08222E-05-2.87971E-05-1.72877E-06-1.44955E-19-3.08544E-19
 -1      2252 9.78576E-05-3.08328E-05-2.87472E-05-2.47789E-06-1.29705E-19-1.87042E-19
 -1      2253 9.87003E-05-3.14095E-05-2.88343E-05-1.26924E-06-1.90425E-19-7.55027E-21
 -1      2254 9.79281E-05-3.08615E-05-2.87490E-05-3.37085E-06-1.66457E-19-5.68146E-20
 -1      2255 9.75362E-05-3.06673E-05-2.86743E-05-4.12292E-06-1.11836E-19-2.06735E-19
 -1      2256 9.90194E-05-3.16534E-05-2.88611E-05-3.03633E-06-1.01430E-19 4.18268E-19
 -1      2257 9.73513E-05-3.04527E-05-2.86839E-05-4.96487E-06-3.15233E-19-2.69120E-19
 -1      2258 9.67121E-05-2.99977E-05-2.85950E-05-5.55212E-06-4.35635E-19-2.25807E-19
 -1      2259 9.89087E-05-3.14134E-05-2.89109E-05-4.87867E-06-2.53940E-19 5.49544E-19
 -1      2260 9.62189E-05-2.94860E-05-2.86189E-05-6.11236E-06-3.23622E-19-4.60105E-19
 -1      2261 9.53872E-05-2.87820E-05-2.85301E-05-6.32963E-06-1.23612E-19-3.72012E-19
 -1      2262 9.82139E-05-3.05092E-05-2.89981E-05-6.39738E-06-5.32840E-19 2.20078E-19
 -1      2263 9.46322E-05-2.80188E-05-2.85689E-05-6.35059E-06-1.13478E-19-8.28147E-19
 -1      2264 9.37481E-05-2.71868E-05-2.84942E-05-6.02386E-06-2.28429E-19-6.29371E-19
 -1      2265 9.69222E-05-2.89303E-05-2.91255E-05-7.06782E-06-3.00733E-19-9.60154E-20
 -1      2266 9.29172E-05-2.63550E-05-2.85395E-05-5.33170E-06-6.20304E-19-5.35843E-19
 -1      2267 9.21892E-05-2.56212E-05-2.84893E-05-4.41421E-06-7.27945E-19-5.24539E-19
 -1      2268 9.52701E-05-2.69583E-05-2.92756E-05-6.40811E-06-3.03670E-19-3.86054E-19
 -1      2269 9.15716E-05-2.50032E-05-2.85254E-05-3.04895E-06-7.12739E-19-5.59221E-19
 -1      2270 9.12084E-05-2.46177E-05-2.85054E-05-1.69198E-06-7.36278E-19-8.31467E-19
 -1      2271 9.37544E-05-2.51692E-05-2.94101E-05-4.24636E-06-8.26031E-19-7.10264E-19
 -1      2272 9.10588E-05-2.44609E-05-2.85186E-05 4.11576E-08-5.48250E-19-7.74210E-19
 -1      2273 9.11779E-05-2.45689E-05-2.85310E-05 1.51171E-06-4.17859E-19-9.38455E-19
 -1      2274 9.29487E-05-2.42119E-05-2.94859E-05-9.42448E-07-6.55705E-19-1.50322E-19
 -1      2275 9.15642E-05-2.49385E-05-2.85171E-05 3.14806E-06-1.31153E-19-1.27520E-18
 -1      2276 9.21334E-05-2.54995E-05-2.85613E-05 4.36101E-06 3.12527E-19-1.18866E-18
 -1      2277 9.31957E-05-2.44740E-05-2.94780E-05 2.65952E-06-2.76651E-19-2.07520E-19
 -1      2278 9.28966E-05-2.62411E-05-2.85293E-05 5.47998E-06 4.43222E-19-1.13131E-18
 -1      2279 9.37523E-05-2.70499E-05-2.86030E-05 6.17300E-06 2.78355E-19-1.03054E-18
 -1      2280 9.43979E-05-2.58394E-05-2.93920E-05 5.58504E-06 5.16408E-19-3.97302E-19
 -1      2281 9.46015E-05-2.78795E-05-2.85702E-05 6.57983E-06 2.87884E-19-1.20104E-18
 -1      2282 9.55259E-05-2.86822E-05-2.86667E-05 6.69052E-06 3.59035E-19-1.37255E-18
 -1      2283 9.60798E-05-2.77771E-05-2.92660E-05 7.16544E-06 2.03916E-19-2.92571E-19
 -1      2284 9.62077E-05-2.93501E-05-2.86465E-05 6.45061E-06 1.74608E-19-1.49146E-18
 -1      2285 9.70191E-05-2.99620E-05-2.87539E-05 6.09131E-06 2.97009E-19-1.05687E-18
 -1      2286 9.76675E-05-2.96243E-05-2.91450E-05 7.28542E-06 2.35554E-19-4.05757E-19
 -1      2287 9.74090E-05-3.03456E-05-2.87511E-05 5.42911E-06 2.86075E-19-8.79879E-19
 -1      2288 9.80063E-05-3.06964E-05-2.88552E-05 4.79700E-06 2.86661E-19-9.63156E-19
 -1      2289 9.87703E-05-3.09236E-05-2.90597E-05 6.28137E-06 2.09930E-19-5.83650E-19
 -1      2290 9.81078E-05-3.08000E-05-2.88659E-05 3.96753E-06 6.16743E-19-1.21794E-18
 -1      2291 9.84692E-05-3.09138E-05-2.89539E-05 3.25634E-06 9.42457E-19-8.78647E-19
 -1      2292 9.92681E-05-3.15285E-05-2.90180E-05 4.67892E-06 9.60046E-20-1.15070E-18
 -1      2293 9.83585E-05-3.08154E-05-2.89701E-05 2.45725E-06 4.95299E-19-1.69975E-18
 -1      2294 9.85143E-05-3.07630E-05-2.90337E-05 1.80623E-06 4.46730E-19-1.98789E-18
 -1      2295 9.92498E-05-3.15414E-05-2.90103E-05 2.95798E-06-5.72343E-20-8.80661E-19
 -1      2296 9.82831E-05-3.05563E-05-2.90473E-05 1.15007E-06 5.62295E-19-1.78522E-18
 -1      2297 9.82856E-05-3.04131E-05-2.90836E-05 6.33081E-07 8.46553E-20-1.68387E-18
 -1      2298 9.88922E-05-3.11744E-05-2.90190E-05 1.43718E-06 2.36814E-19-1.22980E-18
 -1      2299 9.80088E-05-3.01742E-05-2.90893E-05 1.59470E-07-4.68807E-19-1.96158E-18
 -1      2300 9.79117E-05-2.99995E-05-2.91003E-05-2.02659E-07-1.00921E-18-1.59480E-18
 -1      2301 9.83677E-05-3.06367E-05-2.90278E-05 2.66667E-07-3.58609E-19-1.75720E-18
 -1      2302 9.76380E-05-2.97763E-05-2.90958E-05-5.01602E-07-1.30935E-18-1.16048E-18
 -1      2303 9.74861E-05-2.96074E-05-2.90864E-05-7.21682E-07-7.68661E-19-3.51155E-19
 -1      2304 9.78030E-05-3.00803E-05-2.90259E-05-5.27236E-07-5.71595E-19-8.24090E-19
 -1      2305 9.72413E-05-2.94231E-05-2.90725E-05-8.77612E-07-3.95062E-19-6.49370E-19
 -1      2306 9.70675E-05-2.92786E-05-2.90488E-05-9.84429E-07 2.80042E-21 1.20168E-19
 -1      2307 9.72736E-05-2.95920E-05-2.90089E-05-9.89838E-07-7.39042E-19 6.88834E-20
 -1      2308 9.68611E-05-2.91388E-05-2.90277E-05-1.03584E-06-2.70261E-20 6.99358E-20
 -1      2309 9.66874E-05-2.90247E-05-2.89956E-05-1.06180E-06-8.16816E-20-2.05262E-19
 -1      2310 9.68145E-05-2.92065E-05-2.89774E-05-1.19603E-06-1.84408E-19 5.43615E-19
 -1      2311 9.65199E-05-2.89257E-05-2.89701E-05-1.04445E-06-2.11701E-19 8.18010E-20
 -1      2312 9.63595E-05-2.88409E-05-2.89347E-05-1.01875E-06-1.29881E-19 3.56118E-19
 -1      2313 9.64355E-05-2.89259E-05-2.89351E-05-1.22352E-06 3.19557E-20 1.18746E-18
 -1      2314 9.62271E-05-2.87750E-05-2.89074E-05-9.61566E-07-1.58260E-19 5.97692E-20
 -1      2315 9.60868E-05-2.87149E-05-2.88723E-05-9.07279E-07 7.32986E-19-1.74640E-19
 -1      2316 9.61327E-05-2.87355E-05-2.88867E-05-1.13947E-06-2.49653E-19 1.33340E-18
 -1      2317 9.59840E-05-2.86738E-05-2.88456E-05-8.31469E-07 7.03794E-19-1.02715E-19
 -1      2318 9.58663E-05-2.86333E-05-2.88132E-05-7.65166E-07 2.04459E-19 3.36527E-19
 -1      2319 9.58962E-05-2.86155E-05-2.88364E-05-9.95743E-07 4.59980E-19 6.26814E-19
 -1      2320 9.57877E-05-2.86096E-05-2.87885E-05-6.84959E-07 5.42950E-19 2.50928E-19
 -1      2321 9.56923E-05-2.85836E-05-2.87603E-05-6.17472E-07 9.26414E-19 7.63959E-19
 -1      2322 9.57145E-05-2.85464E-05-2.87880E-05-8.28928E-07 6.90863E-19-4.69125E-19
 -1      2323 9.56330E-05-2.85715E-05-2.87384E-05-5.41535E-07 9.43886E-19 2.87837E-19
 -1      2324 9.55580E-05-2.85558E-05-2.87148E-05-4.79221E-07 5.46208E-19-2.01422E-19
 -1      2325 9.55771E-05-2.85117E-05-2.87437E-05-6.62655E-07 3.61841E-19-5.39766E-19
 -1      2326 9.55138E-05-2.85509E-05-2.86963E-05-4.12149E-07 6.96494E-19-5.86010E-19
 -1      2327 9.54566E-05-2.85423E-05-2.86773E-05-3.58160E-07 6.66508E-19-6.91722E-21
 -1      2328 9.54744E-05-2.84988E-05-2.87050E-05-5.10600E-07 3.40306E-19-4.00984E-19
 -1      2329 9.54242E-05-2.85417E-05-2.86622E-05-3.01792E-07 1.01972E-19 6.00775E-19
 -1      2330 9.53820E-05-2.85377E-05-2.86473E-05-2.57164E-07-3.17971E-19 9.65224E-19
 -1      2331 9.53989E-05-2.84989E-05-2.86724E-05-3.79382E-07 7.18813E-19 8.20200E-19
 -1      2332 9.53586E-05-2.85394E-05-2.86353E-05-2.11612E-07-1.91677E-19 2.22830E-18
 -1      2333 9.53285E-05-2.85384E-05-2.86242E-05-1.76105E-07-2.45859E-19 3.16643E-18
 -1      2334 9.53442E-05-2.85058E-05-2.86458E-05-2.70985E-07 9.96493E-19 2.83998E-18
 -1      2335 9.53120E-05-2.85412E-05-2.86149E-05-1.40517E-07-1.39150E-18 2.95421E-18
 -1      2336 9.52914E-05-2.85419E-05-2.86068E-05-1.13215E-07 1.03691E-20 2.27790E-18
 -1      2337 9.53055E-05-2.85158E-05-2.86248E-05-1.84605E-07-6.77975E-19 3.04455E-18
 -1      2338 9.52802E-05-2.85451E-05-2.85999E-05-8.62985E-08 1.51087E-18 1.85543E-18
 -1      2339 9.52668E-05-2.85468E-05-2.85942E-05-6.60238E-08 1.50960E-18 1.51583E-18
 -1      2340 9.52787E-05-2.85266E-05-2.86086E-05-1.17976E-07-1.82085E-19 2.24995E-18
 -1      2341 9.52595E-05-2.85500E-05-2.85891E-05-4.63902E-08 2.93718E-19 1.27981E-18
 -1      2342 9.52515E-05-2.85523E-05-2.85853E-05-3.19712E-08-1.02322E-19 1.26872E-18
 -1      2343 9.52610E-05-2.85369E-05-2.85964E-05-6.82696E-08 6.62895E-19 1.51905E-18
 -1      2344 9.52469E-05-2.85553E-05-2.85816E-05-1.83048E-08 6.88547E-19 7.86861E-19
 -1      2345 9.52429E-05-2.85581E-05-2.85792E-05-8.69677E-09 7.85130E-19 8.41015E-20
 -1      2346 9.52497E-05-2.85464E-05-2.85874E-05-3.26883E-08-1.48415E-19 2.55726E-18
 -1      2347 9.52404E-05-2.85611E-05-2.85765E-05-4.92196E-11-5.40711E-19-9.63966E-20
 -1      2348 9.52389E-05-2.85639E-05-2.85750E-05 5.39114E-09-1.44377E-19-7.11740E-19
 -1      2349 9.52433E-05-2.85554E-05-2.85807E-05-8.62757E-09 1.20488E-19 4.76999E-19
 -1      2350 9.55972E-05-2.59838E-05-2.98346E-05 3.23406E-06 1.24378E-18 1.94563E-18
 -1      2351 9.61975E-05-2.53568E-05-3.03305E-05 5.16373E-06 1.44760E-18 2.08741E-18
 -1      2352 9.55567E-05-2.34870E-05-3.08683E-05 6.12847E-06 1.52425E-18 1.41866E-18
 -1      2353 9.50049E-05-2.75609E-05-2.88903E-05-2.03019E-06 4.73385E-19 1.12006E-18
 -1      2354 9.49112E-05-2.74296E-05-2.88988E-05-1.43180E-06 6.08519E-19 1.35903E-18
 -1      2355 9.52542E-05-2.76850E-05-2.89400E-05-3.16191E-06 4.29413E-19 9.55616E-19
 -1      2356 9.49880E-05-2.76025E-05-2.88687E-05-2.64025E-06 4.05585E-19 9.62155E-19
 -1      2357 9.52031E-05-2.72935E-05-2.91159E-05-2.40843E-06 5.82095E-19 4.82123E-19
 -1      2358 9.56952E-05-2.76898E-05-2.91225E-05-4.27969E-06 6.07591E-19 6.10543E-19
 -1      2359 9.52869E-05-2.76491E-05-2.89849E-05-3.73277E-06 5.42951E-19 9.46900E-19
 -1      2360 9.52376E-05-2.73231E-05-2.91137E-05-3.67262E-06 5.96071E-19 4.74018E-19
 -1      2361 9.62514E-05-2.75815E-05-2.94012E-05-5.48981E-06 4.27391E-19 2.68902E-19
 -1      2362 9.57371E-05-2.75804E-05-2.92139E-05-4.87167E-06 4.94055E-19 5.27870E-19
 -1      2363 9.53271E-05-2.71464E-05-2.92224E-05-4.89886E-06 6.12226E-19 2.58184E-19
 -1      2364 9.69335E-05-2.73340E-05-2.97913E-05-7.07751E-06-1.56696E-19 3.63085E-19
 -1      2365 9.62713E-05-2.73771E-05-2.95366E-05-6.24068E-06 7.68186E-20 2.24419E-19
 -1      2366 9.53986E-05-2.67559E-05-2.94149E-05-6.28817E-06 1.77508E-19 1.80358E-19
 -1      2367 9.76599E-05-2.69421E-05-3.02623E-05-9.13160E-06-3.71100E-19 4.73791E-19
 -1      2368 9.68648E-05-2.70175E-05-2.99522E-05-8.03682E-06-2.27557E-19 3.02008E-19
 -1      2369 9.53586E-05-2.61095E-05-2.96667E-05-8.03351E-06-1.36580E-19 3.59923E-19
 -1      2370 9.83959E-05-2.64634E-05-3.07753E-05-1.17629E-05-6.27900E-19 5.44076E-19
 -1      2371 9.74454E-05-2.65186E-05-3.04232E-05-1.03696E-05-4.59747E-19 4.35586E-19
 -1      2372 9.50911E-05-2.52100E-05-2.99273E-05-1.02430E-05-3.64588E-19 2.43149E-19
 -1      2373 9.91828E-05-2.61320E-05-3.12481E-05-1.49834E-05 5.82699E-20 2.98501E-19
 -1      2374 9.80034E-05-2.60053E-05-3.08894E-05-1.33306E-05-3.95842E-19 2.16604E-19
 -1      2375 9.45000E-05-2.41546E-05-3.01150E-05-1.30268E-05-3.61936E-19-1.61266E-19
 -1      2376 1.00312E-04-2.65876E-05-3.15284E-05-1.85904E-05 5.01185E-19-1.46957E-20
 -1      2377 9.87015E-05-2.58903E-05-3.12362E-05-1.68879E-05 4.82412E-19 2.59477E-19
 -1      2378 9.36140E-05-2.33083E-05-3.00901E-05-1.64430E-05 1.76842E-19-6.58437E-19
 -1      2379 1.02604E-04-2.90510E-05-3.14326E-05-2.18130E-05-5.37237E-19-1.20379E-19
 -1      2380 1.00130E-04-2.71208E-05-3.12928E-05-2.06543E-05 2.12749E-19 5.60332E-20
 -1      2381 9.28611E-05-2.35609E-05-2.96578E-05-2.03396E-05 3.29418E-19-6.84184E-19
 -1      2382 1.08332E-04-3.60535E-05-3.08240E-05-2.36811E-05-1.26541E-18-1.66296E-19
 -1      2383 1.03777E-04-3.14907E-05-3.08571E-05-2.39045E-05-1.02298E-18-7.17199E-20
 -1      2384 9.34575E-05-2.67425E-05-2.85834E-05-2.46763E-05-7.43933E-19-7.77801E-19
 -1      2385 1.21122E-04-4.97788E-05-3.02901E-05-2.13404E-05-2.73052E-18-4.40550E-19
 -1      2386 1.12965E-04-4.18762E-05-3.00793E-05-2.46538E-05-1.93404E-18-3.43101E-19
 -1      2387 9.84022E-05-3.58689E-05-2.67923E-05-2.88593E-05-1.53858E-18-1.12110E-18
 -1      2388 1.65993E-04-4.33752E-05-5.26895E-05 2.28119E-05 2.10742E-18 3.03217E-18
 -1      2389 1.54606E-04-2.70145E-05-5.53082E-05 1.04385E-05 4.18646E-18 3.70429E-18
 -1      2390 1.04691E-04-2.99275E-05-3.19885E-05 2.15776E-05-1.23930E-18 1.10322E-18
 -1      2391 1.08229E-04-3.30992E-05-3.21405E-05 2.21031E-05-1.03776E-18 8.46656E-19
 -1      2392 1.01901E-04-2.72898E-05-3.19881E-05 1.81394E-05-4.27367E-19 1.23859E-18
 -1      2393 1.04035E-04-2.85623E-05-3.22845E-05 1.95809E-05-4.92831E-19 1.26256E-18
 -1      2394 9.56576E-05-2.58407E-05-2.99184E-05 2.21179E-05-9.34999E-19 8.54370E-19
 -1      2395 1.00473E-04-2.66730E-05-3.16539E-05 1.42946E-05-3.32312E-19 1.84342E-18
 -1      2396 1.02007E-04-2.71071E-05-3.20428E-05 1.60433E-05-5.92794E-19 1.34556E-18
 -1      2397 9.53438E-05-2.40966E-05-3.05063E-05 1.79528E-05-1.79127E-19 1.78304E-18
 -1      2398 9.95866E-05-2.69183E-05-3.11652E-05 1.08746E-05 2.36726E-19 2.37726E-18
 -1      2399 1.00741E-04-2.69895E-05-3.15527E-05 1.24578E-05-4.47783E-19 1.86819E-18
 -1      2400 9.58338E-05-2.43147E-05-3.06196E-05 1.40359E-05-2.16604E-19 7.56547E-19
 -1      2401 9.88500E-05-2.73557E-05-3.06557E-05 8.09230E-06 8.04665E-19 3.99789E-18
 -1      2402 9.97584E-05-2.73163E-05-3.09972E-05 9.37943E-06 5.82312E-19 3.84129E-18
 -1      2403 9.63111E-05-2.51919E-05-3.04552E-05 1.07218E-05-4.47270E-19 2.01593E-18
 -1      2404 9.81820E-05-2.77471E-05-3.01950E-05 5.93796E-06 1.66680E-18 2.29171E-18
 -1      2405 9.88985E-05-2.76926E-05-3.04755E-05 6.92597E-06 1.99216E-18 3.71450E-18
 -1      2406 9.65534E-05-2.61070E-05-3.01760E-05 8.05116E-06 1.26262E-18 3.65687E-18
 -1      2407 9.76056E-05-2.80235E-05-2.98261E-05 4.38771E-06 1.29735E-18 1.10056E-18
 -1      2408 9.81489E-05-2.79828E-05-3.00379E-05 5.09476E-06 1.75533E-18 1.24940E-18
 -1      2409 9.65813E-05-2.68397E-05-2.98829E-05 6.01248E-06 1.88141E-18 2.64908E-18
 -1      2410 9.70722E-05-2.82206E-05-2.95111E-05 3.16961E-06 1.47089E-18-5.51892E-19
 -1      2411 9.75151E-05-2.81952E-05-2.96834E-05 3.71545E-06 1.39367E-18 1.05713E-19
 -1      2412 9.64757E-05-2.73758E-05-2.96108E-05 4.45665E-06 2.57643E-18 2.52606E-18
 -1      2413 9.66287E-05-2.83460E-05-2.92657E-05 2.27807E-06 1.80921E-18-1.23521E-18
 -1      2414 9.69669E-05-2.83330E-05-2.93956E-05 2.67369E-06 1.20129E-18-1.32221E-18
 -1      2415 9.62995E-05-2.77632E-05-2.93722E-05 3.25277E-06 2.07039E-18 1.57633E-19
 -1      2416 9.62695E-05-2.84231E-05-2.90777E-05 1.62837E-06 9.22378E-19-1.23250E-18
 -1      2417 9.65242E-05-2.84177E-05-2.91745E-05 1.91392E-06 1.26597E-18-1.66778E-18
 -1      2418 9.61031E-05-2.80246E-05-2.91775E-05 2.35903E-06 1.44168E-18-2.63176E-19
 -1      2419 9.59863E-05-2.84696E-05-2.89359E-05 1.15606E-06 2.90837E-20-1.56023E-18
 -1      2420 9.61756E-05-2.84681E-05-2.90073E-05 1.36187E-06 3.33061E-19-1.46883E-18
 -1      2421 9.59156E-05-2.81982E-05-2.90234E-05 1.69946E-06 7.72012E-19 4.01518E-19
 -1      2422 9.57687E-05-2.84976E-05-2.88302E-05 8.13279E-07-8.03619E-19-1.36333E-18
 -1      2423 9.59072E-05-2.84979E-05-2.88823E-05 9.61408E-07-2.81051E-19-1.84783E-18
 -1      2424 9.57514E-05-2.83132E-05-2.89039E-05 1.21447E-06 7.16024E-20 4.06122E-19
 -1      2425 9.56115E-05-2.85143E-05-2.87556E-05 5.75330E-07-1.81131E-18-6.92971E-19
 -1      2426 9.57082E-05-2.85145E-05-2.87918E-05 6.77921E-07-1.35286E-18-9.34776E-19
 -1      2427 9.56184E-05-2.83890E-05-2.88147E-05 8.65565E-07-1.38103E-18-2.89330E-19
 -1      2428 9.54882E-05-2.85261E-05-2.86978E-05 3.92306E-07-1.75302E-18 3.05340E-20
 -1      2429 9.55609E-05-2.85263E-05-2.87252E-05 4.70259E-07-2.21996E-18-9.46685E-19
 -1      2430 9.55120E-05-2.84391E-05-2.87470E-05 6.09915E-07-2.27388E-18-6.42731E-19
 -1      2431 9.53995E-05-2.85344E-05-2.86562E-05 2.60494E-07-2.18079E-18 7.39425E-19
 -1      2432 9.54502E-05-2.85339E-05-2.86755E-05 3.16325E-07-1.85814E-18 1.80410E-19
 -1      2433 9.54278E-05-2.84753E-05-2.86952E-05 4.17377E-07-2.26318E-18-1.38415E-18
 -1      2434 9.53373E-05-2.85410E-05-2.86268E-05 1.66051E-07-4.17867E-19 1.94997E-18
 -1      2435 9.53716E-05-2.85399E-05-2.86401E-05 2.05778E-07-1.72058E-18 1.24827E-18
 -1      2436 9.53649E-05-2.85008E-05-2.86571E-05 2.77758E-07-2.09262E-18-9.39384E-19
 -1      2437 9.52951E-05-2.85465E-05-2.86063E-05 9.90394E-08 5.94317E-19 9.49071E-19
 -1      2438 9.53174E-05-2.85451E-05-2.86153E-05 1.26979E-07 1.21295E-18 1.65834E-18
 -1      2439 9.53193E-05-2.85192E-05-2.86294E-05 1.77258E-07-4.18983E-19 4.16903E-19
 -1      2440 9.52688E-05-2.85514E-05-2.85930E-05 5.41163E-08 4.92931E-19 8.43831E-19
 -1      2441 9.52821E-05-2.85495E-05-2.85986E-05 7.27420E-08-1.58472E-19-3.17720E-20
 -1      2442 9.52882E-05-2.85329E-05-2.86101E-05 1.07016E-07 5.93792E-19 4.59543E-19
 -1      2443 9.52516E-05-2.85563E-05-2.85836E-05 2.14952E-08-2.45033E-18 2.31278E-18
 -1      2444 9.52596E-05-2.85541E-05-2.85874E-05 3.47518E-08-6.79142E-19 1.35132E-18
 -1      2445 9.52670E-05-2.85432E-05-2.85964E-05 5.77243E-08-1.18305E-18 2.28677E-18
 -1      2446 9.52423E-05-2.85611E-05-2.85776E-05 3.97062E-10-2.00282E-18 2.51464E-18
 -1      2447 9.52460E-05-2.85586E-05-2.85798E-05 8.72172E-09-2.23182E-18 2.08152E-18
 -1      2448 9.52531E-05-2.85519E-05-2.85866E-05 2.30490E-08-2.17518E-18 2.64638E-18
 -1      2449 9.52383E-05-2.85661E-05-2.85737E-05-1.15511E-08-3.44363E-19 1.18510E-18
 -1      2450 9.52391E-05-2.85635E-05-2.85750E-05-7.35360E-09-4.72910E-19 2.20478E-18
 -1      2451 9.52450E-05-2.85595E-05-2.85797E-05 7.91697E-10-4.52999E-19 2.57344E-18
 -1      2452 9.52384E-05-2.85714E-05-2.85716E-05-1.55200E-08-1.49943E-19-5.47859E-19
 -1      2453 9.52376E-05-2.85682E-05-2.85725E-05-1.45214E-08-6.85885E-19-6.85315E-19
 -1      2454 9.52422E-05-2.85662E-05-2.85755E-05-1.04197E-08 1.14834E-18-8.50565E-19
 -1      2455 9.52419E-05-2.85732E-05-2.85724E-05-1.41638E-08 3.07684E-19-2.40398E-19
 -1      2456 4.76634E-05-3.20694E-05-6.54084E-06 3.37215E-05-1.22820E-20 1.47553E-18
 -1      2457 3.30750E-05-2.54034E-05-3.03360E-06 2.37912E-05 5.61795E-19 2.39837E-18
 -1      2458 9.52339E-05-2.85547E-05-2.85769E-05 4.77586E-09 1.19898E-18-8.24656E-19
 -1      2459 9.52355E-05-2.85564E-05-2.85767E-05 3.93479E-09 1.98210E-18-6.20380E-19
 -1      2460 9.32018E-05-5.41140E-05-1.70712E-05 3.90121E-05 4.87891E-19-2.20790E-18
 -1      2461 6.88118E-05-4.43293E-05-1.04474E-05 3.69918E-05 2.28487E-19-1.30443E-19
 -1      2462 9.52308E-05-2.85506E-05-2.85773E-05 4.33813E-09-1.69033E-19 8.83758E-20
 -1      2463 9.52319E-05-2.85518E-05-2.85772E-05 4.53375E-09 3.06930E-19-5.62949E-19
 -1      2464 9.52288E-05-2.85387E-05-2.85813E-05 6.78303E-09 1.06903E-18-2.14686E-18
 -1      2465 9.52295E-05-2.85489E-05-2.85774E-05 2.34330E-09-1.13351E-18-2.02405E-18
 -1      2466 9.52299E-05-2.85493E-05-2.85774E-05 3.08058E-09-8.97696E-19-9.48601E-19
 -1      2467 9.52255E-05-2.85345E-05-2.85817E-05 4.69897E-09 3.01442E-19-6.92097E-19
 -1      2468 9.52303E-05-2.85500E-05-2.85773E-05 1.81258E-10-9.27238E-19-2.20362E-18
 -1      2469 9.52298E-05-2.85495E-05-2.85773E-05 8.26547E-10-1.51490E-18-7.63378E-19
 -1      2470 9.52246E-05-2.85338E-05-2.85816E-05 1.25670E-09-3.80033E-19-1.15299E-18
 -1      2471 9.52327E-05-2.85534E-05-2.85768E-05-7.95069E-10 1.06186E-19-2.20516E-18
 -1      2472 9.52316E-05-2.85522E-05-2.85770E-05-7.94336E-10-2.02588E-19-3.62977E-18
 -1      2473 9.52265E-05-2.85367E-05-2.85812E-05-1.85088E-09-8.07423E-19-1.93632E-18
 -1      2474 9.52361E-05-2.85583E-05-2.85761E-05 2.91053E-10 1.69618E-18 2.55057E-18
 -1      2475 9.52348E-05-2.85569E-05-2.85764E-05-6.77823E-10 1.47817E-18-2.22859E-19
 -1      2476 9.52303E-05-2.85425E-05-2.85804E-05-3.17179E-09 1.07730E-18 2.38570E-19
 -1      2477 9.52392E-05-2.85638E-05-2.85751E-05 3.60542E-09 1.01681E-18 2.95809E-18
 -1      2478 9.52383E-05-2.85624E-05-2.85755E-05 1.67401E-09 1.04483E-18 3.65525E-18
 -1      2479 9.52350E-05-2.85502E-05-2.85792E-05-1.88098E-09 1.97197E-18 1.90851E-18
 -1      2480 9.52403E-05-2.85682E-05-2.85737E-05 7.99373E-09 1.01785E-18 3.37324E-18
 -1      2481 9.52405E-05-2.85674E-05-2.85742E-05 5.95453E-09 3.92037E-19 2.59743E-18
 -1      2482 9.52389E-05-2.85582E-05-2.85775E-05 2.04527E-09 1.74594E-18 2.78760E-18
 -1      2483 9.52383E-05-2.85725E-05-2.85709E-05 1.26245E-08 9.80168E-19 1.66441E-18
 -1      2484 1.39302E-04-6.73745E-05-3.10234E-05 2.15115E-05 7.73341E-19-2.30541E-18
 -1      2485 1.18098E-04-6.22357E-05-2.37827E-05 2.89190E-05 5.44642E-19-2.18969E-18
 -1      2486 1.86637E-05-1.77429E-05-1.24898E-08-1.61051E-05 1.41285E-18 4.29912E-18
 -1      2487 2.50526E-05-2.15900E-05-1.25426E-06-2.91570E-05 1.61868E-18 2.97817E-18
 -1      2488 9.49974E-05-2.72864E-05-2.90076E-05-6.74242E-07 7.34017E-19 1.52961E-18
 -1      2489 9.51106E-05-2.70755E-05-2.91251E-05 1.42607E-07 8.78250E-19 1.67573E-18
 -1      2490 9.52816E-05-2.70190E-05-2.92701E-05-9.30035E-07 8.53150E-19 8.83854E-19
 -1      2491 3.74558E-05-2.80476E-05-3.75061E-06-3.80562E-05 2.42929E-18 2.84285E-18
 -1      2492 5.20059E-05-3.39468E-05-7.55340E-06-4.60205E-05 1.87258E-18 2.84455E-18
 -1      2493 9.52415E-05-2.85662E-05-2.85752E-05-2.05604E-09 9.04750E-19-6.31396E-18
 -1      2494 9.52423E-05-2.85674E-05-2.85748E-05-4.84641E-09 2.28970E-18-4.39201E-18
 -1      2495 1.48563E-04-2.30292E-05-5.42367E-05 4.62367E-06-2.10001E-18-1.59200E-18
 -1      2496 1.46584E-04-1.46787E-05-5.72444E-05 5.57437E-06-2.63639E-18-1.14879E-18
 -1      2497 1.06392E-04-5.41444E-05-2.24355E-05 4.44613E-05-8.54868E-19-4.46280E-20
 -1      2498 8.61098E-05-4.89817E-05-1.57396E-05 4.67658E-05-3.40719E-19-4.67986E-19
 -1      2499 3.42340E-05-2.43352E-05-4.01451E-06 3.61676E-05-1.30655E-19-1.12295E-18
 -1      2500 2.28961E-05-2.07767E-05-5.74676E-07 2.32979E-05-7.23260E-19-1.95199E-18
 -1      2501 9.52431E-05-2.85707E-05-2.85739E-05-8.07766E-09 1.48572E-18-1.85040E-18
 -1      2502 9.52425E-05-2.85710E-05-2.85734E-05-1.07746E-08 7.63023E-19-3.95491E-20
 -1      2503 9.52425E-05-2.85668E-05-2.85753E-05-9.97675E-09 8.59306E-19 5.02608E-20
 -1      2504 9.52424E-05-2.85615E-05-2.85775E-05-3.64764E-09 2.84392E-18-2.61347E-18
 -1      2505 9.52379E-05-2.85603E-05-2.85762E-05 2.69041E-09 2.68110E-18-2.75766E-18
 -1      2506 9.52394E-05-2.85620E-05-2.85759E-05 6.66544E-10 2.52550E-18-5.58287E-18
 -1      2507 9.52390E-05-2.85540E-05-2.85793E-05 2.32475E-09 3.98550E-18-4.60213E-18
 -1      2508 9.52338E-05-2.85457E-05-2.85805E-05 6.16635E-09 3.58374E-18-2.99993E-18
 -1      2509 1.11132E-04-3.67524E-05-3.15681E-05 2.33652E-05-1.02077E-18 3.94122E-19
 -1      2510 1.16832E-04-4.33999E-05-3.13828E-05 2.21162E-05-4.56763E-19-2.75074E-19
 -1      2511 9.88296E-05-3.20008E-05-2.87099E-05 2.59233E-05-1.41608E-18 4.51469E-19
 -1      2512 2.11789E-05-2.10176E-05 1.33699E-07 1.33323E-05 1.66018E-18 5.01359E-18
 -1      2513 1.63539E-05-1.73511E-05 6.81178E-07-7.64681E-07 9.20473E-19 5.26897E-18
 -1      2514 8.74423E-05-1.02953E-05-3.30989E-05-1.37117E-06 1.03758E-18-1.84489E-18
 -1      2515 8.75833E-05-1.04459E-05-3.30915E-05-2.41993E-06 8.87765E-19-2.02143E-18
 -1      2516 8.89430E-05-1.25550E-05-3.27384E-05-2.63959E-06 8.04373E-19-1.82049E-18
 -1      2517 8.86076E-05-1.21350E-05-3.27753E-05-8.14397E-07 1.06280E-18-1.67963E-18
 -1      2518 9.52248E-05-2.68312E-05-2.93009E-05 9.70205E-07 9.13571E-19 1.68104E-18
 -1      2519 9.55573E-05-2.65096E-05-2.95517E-05 2.12687E-06 1.06605E-18 1.79656E-18
 -1      2520 9.56210E-05-2.55016E-05-3.00498E-05 2.94294E-06 1.24300E-18 1.28964E-18
 -1      2521 9.54505E-05-2.64619E-05-2.95796E-05 8.23340E-07 1.01879E-18 1.16437E-18
 -1      2522 1.35530E-04-5.54463E-05-3.44849E-05 2.81978E-05-1.55399E-18 6.90332E-20
 -1      2523 1.22549E-04-5.66308E-05-2.82471E-05 3.42128E-05-1.11025E-18-1.13714E-19
 -1      2524 1.00444E-04-5.75284E-05-1.84611E-05-3.48268E-05-2.87144E-18-2.42576E-18
 -1      2525 1.23193E-04-6.41082E-05-2.56642E-05-3.08885E-05-2.89304E-18-2.53993E-18
 -1      2526 5.46732E-05-3.83422E-05-6.90552E-06-3.49066E-05-2.65884E-18-2.85302E-18
 -1      2527 7.66888E-05-4.74958E-05-1.26678E-05-4.01165E-05-2.64867E-18-2.73210E-18
 -1      2528 2.47385E-05-2.21569E-05-8.72442E-07-1.77824E-05-1.65574E-18-3.72229E-18
 -1      2529 3.58945E-05-2.92243E-05-2.84423E-06-2.86972E-05-1.88062E-18-3.10586E-18
 -1      2530 1.72058E-05-1.76992E-05 4.52524E-07 1.22422E-05-8.43804E-19-2.75286E-18
 -1      2531 1.77542E-05-1.70289E-05 1.99938E-08-1.77897E-06-9.93517E-19-3.88407E-18
 -1      2532 2.66798E-05-1.49872E-05-4.40530E-06 1.78976E-05-6.39510E-20-2.18767E-18
 -1      2533 6.71027E-05-4.04596E-05-1.12811E-05 4.90133E-05-4.28810E-19-3.95670E-19
 -1      2534 5.30539E-05-3.39137E-05-7.70391E-06 4.41621E-05-3.79471E-19-3.83918E-19
 -1      2535 1.48710E-04-1.09469E-05-5.96511E-05-3.04451E-06-3.69793E-18 6.44910E-19
 -1      2536 1.47102E-04-1.46797E-05-5.72859E-05-4.80889E-06-3.48173E-18 5.36807E-19
 -1      2537 1.50741E-04-4.52011E-05-4.55754E-05 1.24623E-05-2.59864E-18 2.39075E-19
 -1      2538 1.43145E-04-5.03477E-05-3.99507E-05 1.81405E-05-2.18889E-18 2.35899E-19
 -1      2539 1.09538E-04-5.50740E-05-2.31901E-05-4.04564E-05 2.00916E-18 1.69332E-18
 -1      2540 1.24762E-04-5.64299E-05-2.94447E-05-3.54946E-05 1.98036E-18 1.95516E-18
 -1      2541 1.53039E-04-2.65810E-05-5.47975E-05-2.61123E-06-2.98621E-18 4.49139E-19
 -1      2542 1.52263E-04-3.59699E-05-5.00041E-05 3.38006E-06-2.76165E-18 6.74874E-19
 -1      2543 1.42656E-04-7.91984E-06-5.85149E-05 2.28574E-06-3.38559E-18 4.76456E-19
 -1      2544 1.46836E-04-8.54974E-06-5.98158E-05-3.92508E-07-3.58994E-18 4.09779E-19
 -1      2545 1.32795E-04-6.72863E-06-5.42881E-05-3.21173E-06-3.52959E-18 1.11168E-18
 -1      2546 1.49647E-04-4.07702E-05-4.69179E-05-4.48745E-06-7.65294E-19-6.51368E-19
 -1      2547 1.51459E-04-3.37875E-05-5.10605E-05 7.68161E-08-1.42630E-18-1.51090E-18
 -1      2548 1.35820E-04-5.44909E-05-3.49661E-05-2.39941E-05 1.05699E-18 7.50895E-19
 -1      2549 1.46742E-04-4.96278E-05-4.19898E-05-1.50334E-05-4.63751E-20 2.58345E-20
 -1      2550 1.33685E-04-5.83011E-05-3.20767E-05-2.32747E-05 2.01446E-18 8.34963E-19
 -1      2551 6.99714E-05-4.28095E-05-1.14319E-05-4.75044E-05 1.51111E-18 1.17928E-18
 -1      2552 8.85652E-05-4.85954E-05-1.71932E-05-4.86486E-05 1.59179E-18 8.34222E-19
 -1      2553 9.52571E-05-2.00457E-05-3.22804E-05-1.13417E-05-1.11639E-18-1.71749E-18
 -1      2554 9.57046E-05-2.33752E-05-3.10191E-05-7.51136E-06-1.04582E-18-1.49377E-18
 -1      2555 9.52637E-05-2.25394E-05-3.11558E-05-7.08950E-06-9.63983E-19-1.54369E-18
 -1      2556 9.34039E-05-1.77059E-05-3.24712E-05-1.08460E-05-9.32431E-19-1.89538E-18
 -1      2557 1.64433E-04-6.41483E-05-4.32703E-05-3.60858E-06 1.64886E-18-1.59009E-18
 -1      2558 1.52931E-04-6.74773E-05-3.68083E-05 7.41823E-06 1.47320E-18-1.85183E-18
 -1      2559 9.06825E-05-1.47655E-05-3.25314E-05-6.30691E-06 3.41088E-20-2.04834E-18
 -1      2560 8.96587E-05-1.29869E-05-3.29124E-05-7.50417E-06-5.00337E-20-2.22967E-18
 -1      2561 9.03799E-05-1.38184E-05-3.28712E-05-8.66149E-06-3.14991E-19-2.20997E-18
 -1      2562 6.74928E-05-3.76710E-05-1.23132E-05-4.63936E-05 1.13269E-18 2.19614E-18
 -1      2563 1.67510E-04-6.16086E-05-4.57585E-05-1.28926E-05 1.70201E-18-1.13269E-18
 -1      2564 1.69500E-04-4.92680E-05-5.14328E-05-1.64963E-05 2.19339E-18-5.55654E-19
 -1      2565 1.11476E-04-5.88225E-05-2.25181E-05 3.21482E-05 2.72321E-19-2.37202E-18
 -1      2566 1.40769E-04-5.59613E-05-3.62406E-05 1.68649E-05-1.46230E-18 3.31190E-19
 -1      2567 1.29521E-04-5.92630E-05-2.97548E-05-2.00764E-05-3.65982E-18-7.42027E-19
 -1      2568 1.09839E-04-5.26314E-05-2.46095E-05-3.12834E-05-3.09262E-18-1.64970E-18
 -1      2569 1.73285E-04-4.16814E-05-5.66393E-05-2.09692E-05 2.70225E-18-2.96462E-20
 -1      2570 1.52414E-04-6.45669E-05-3.79852E-05-1.35855E-06 8.85096E-19-1.21920E-18
 -1      2571 1.59808E-04-6.29747E-05-4.14555E-05-1.11292E-05 1.36830E-18-1.04259E-18
 -1      2572 6.67496E-05-3.64488E-05-1.24436E-05 3.48066E-05-1.21888E-18-5.53642E-19
 -1      2573 1.15312E-04-5.09862E-05-2.75950E-05 2.56855E-05-5.41360E-19-9.06802E-19
 -1      2574 1.32331E-04-5.70351E-05-3.19860E-05 1.69280E-05-1.67289E-20-1.04361E-18
 -1      2575 3.43807E-05-1.90933E-05-6.01834E-06 1.99530E-05-2.19276E-19 2.63258E-18
 -1      2576 9.52379E-05-2.85687E-05-2.85725E-05 1.08916E-08 3.97009E-19 1.36458E-19
 -1      2577 9.52402E-05-2.85698E-05-2.85731E-05 1.01527E-08 1.53223E-18 3.22676E-18
 -1      2578 9.52403E-05-2.85634E-05-2.85757E-05 6.15914E-09 7.60497E-19 3.73021E-18
 -1      2579 9.52380E-05-2.85660E-05-2.85735E-05 8.95874E-09 5.41010E-19-5.17629E-19
 -1      2580 2.31498E-05-1.40250E-05-3.37748E-06-8.37496E-06 7.60847E-19 4.63899E-18
 -1      2581 1.48635E-04-6.84455E-05-3.42017E-05 8.63173E-06 8.25010E-19-2.01509E-18
 -1      2582 3.83415E-05-2.19299E-05-6.50242E-06-3.42425E-05 1.97507E-18 2.50086E-18
 -1      2583 1.19146E-04-5.81843E-05-2.59145E-05 3.58842E-05-1.52254E-19 3.42890E-19
 -1      2584 9.12126E-05-1.49174E-05-3.27523E-05-9.34017E-06-5.15687E-19-2.11132E-18
 -1      2585 9.22881E-05-1.62336E-05-3.26714E-05-1.03756E-05-8.06045E-19-2.05034E-18
 -1      2586 9.37805E-05-1.91479E-05-3.19793E-05-8.68138E-06-8.40621E-19-1.79128E-18
 -1      2587 9.20936E-05-1.66602E-05-3.23188E-05-7.77890E-06-3.60356E-19-1.93398E-18
 -1      2588 1.34745E-04-1.05795E-05-5.35504E-05 5.99621E-06-2.47651E-18-2.01276E-19
 -1      2589 8.47550E-05-4.61153E-05-1.62183E-05 4.62626E-05 1.23667E-19-6.13040E-20
 -1      2590 1.41515E-04-2.01962E-05-5.22710E-05-7.53936E-06-2.84709E-18 1.22312E-18
 -1      2591 4.82072E-05-2.71100E-05-8.49098E-06 3.93575E-05 2.23193E-19-6.85250E-19
 -1      2592 1.04656E-04-5.37557E-05-2.15347E-05-4.22997E-05 1.89968E-18 1.32985E-18
 -1      2593 1.48017E-04-4.16683E-05-4.55654E-05 6.11867E-07-2.38535E-18 1.20872E-18
 -1      2594 1.42769E-04-2.80888E-05-4.93443E-05 7.77041E-06-1.26261E-18-2.12446E-18
 -1      2595 2.56084E-05-1.69684E-05-3.15350E-06-1.00269E-05-9.44124E-19-3.57067E-18
 -1      2596 3.38206E-05-1.59841E-05-7.28430E-06-1.84433E-05-7.55818E-19-3.19395E-18
 -1      2597 2.71525E-05-1.09393E-05-6.43219E-06-2.48688E-06-1.85288E-20-3.18971E-18
 -1      2598 1.41149E-04-6.35161E-05-3.34182E-05 9.94608E-06 8.43857E-20-1.21750E-18
 -1      2599 5.37954E-05-3.15952E-05-9.00245E-06-3.31361E-05-2.26115E-18-2.79309E-18
 -1      2600 9.60848E-05-5.27028E-05-1.82176E-05-3.62104E-05-3.35171E-18-2.39986E-18
 -1      2601 1.34176E-04-6.66758E-05-2.91018E-05-2.10526E-05-3.64563E-18-1.43318E-18
 -1      2602 1.39699E-04-6.71065E-05-3.12271E-05-1.83737E-05-2.43967E-18-1.57718E-18
 -1      2603 1.55390E-04-6.75685E-05-3.78494E-05-6.56751E-06-1.80831E-18 2.79944E-19
 -1      2604 1.45161E-04-4.77237E-05-4.17729E-05-4.43160E-06-2.84550E-20-1.53652E-18
 -1      2605 1.65690E-04-5.96105E-05-4.52891E-05 1.10518E-05-9.20090E-20 2.31536E-18
 -1      2606 1.59974E-04-6.71250E-05-4.00851E-05 1.28042E-06-1.38575E-18 1.68517E-18
 -1      2607 1.53156E-04-6.64318E-05-3.65087E-05-2.35481E-06-2.90405E-18 1.22301E-18
 -1      2608 9.52405E-05-2.85627E-05-2.85764E-05 4.28981E-09-3.24818E-19 1.25015E-18
 -1      2609 9.00074E-05-1.44217E-05-3.24163E-05 2.88137E-06 1.59018E-18-1.06412E-18
 -1      2610 8.97738E-05-1.41258E-05-3.24416E-05 2.04250E-06 1.48419E-18-1.24509E-18
 -1      2611 8.96151E-05-1.39155E-05-3.24633E-05 1.32345E-06 1.39030E-18-1.33811E-18
 -1      2612 8.95452E-05-1.38271E-05-3.24697E-05 4.66608E-07 1.27221E-18-1.34572E-18
 -1      2613 9.07140E-05-1.56872E-05-3.21392E-05 1.48165E-06 1.33416E-18-1.23965E-18
 -1      2614 9.19277E-05-1.70410E-05-3.21319E-05 5.83379E-06 1.92523E-18-2.34289E-19
 -1      2615 9.12983E-05-1.61765E-05-3.22221E-05 5.05672E-06 1.87484E-18-3.82875E-19
 -1      2616 9.35172E-05-1.93800E-05-3.18103E-05 6.94378E-06 1.83757E-18 3.55446E-19
 -1      2617 9.26785E-05-1.81095E-05-3.19766E-05 6.36234E-06 1.86713E-18-5.04018E-20
 -1      2618 9.32542E-05-1.93221E-05-3.16579E-05 5.05141E-06 1.64506E-18-1.70661E-19
 -1      2619 9.51834E-05-2.24622E-05-3.11940E-05 6.51705E-06 1.58230E-18 9.81662E-19
 -1      2620 9.41925E-05-2.05317E-05-3.15621E-05 6.85027E-06 1.71677E-18 5.47309E-19
 -1      2621 9.44583E-05-2.15503E-05-3.12353E-05 5.25252E-06 1.63998E-18 3.04456E-19
 -1      2622 9.53553E-05-2.37968E-05-3.06655E-05 4.61237E-06 1.40903E-18 9.69762E-19
 -1      2623 9.52415E-05-2.85557E-05-2.85793E-05-2.22111E-09 5.45468E-19 2.63345E-18
 -1      2624 9.52406E-05-2.85593E-05-2.85777E-05 1.94454E-09 9.34388E-19 3.75327E-18
 -1      2625 9.52401E-05-2.85570E-05-2.85785E-05 4.71434E-10 1.34806E-18 3.83033E-18
 -1      2626 9.54408E-05-2.38928E-05-3.06425E-05-4.65123E-06-6.84719E-19-1.32417E-18
 -1      2627 9.54080E-05-2.49030E-05-3.02347E-05-3.08592E-06-5.93017E-19-1.28933E-18
 -1      2628 9.56293E-05-2.57888E-05-2.99016E-05-1.90161E-06-5.44578E-19-1.19894E-18
 -1      2629 9.55281E-05-2.63838E-05-2.96432E-05-8.41602E-07-4.37094E-19-1.05891E-18
 -1      2630 9.53547E-05-2.45055E-05-3.03649E-05-2.72594E-06-5.36540E-19-1.13148E-18
 -1      2631 9.55964E-05-2.69048E-05-2.94157E-05-4.16092E-09-3.37889E-19-9.09542E-19
 -1      2632 9.55514E-05-2.72876E-05-2.92604E-05 6.84590E-07-1.48754E-19-9.78336E-19
 -1      2633 9.56361E-05-2.61343E-05-2.97940E-05-6.20056E-07-3.82810E-19-8.42214E-19
 -1      2634 9.55923E-05-2.76266E-05-2.91112E-05 1.25128E-06-2.22952E-20-9.05588E-19
 -1      2635 9.56317E-05-2.79099E-05-2.90254E-05 1.67874E-06-3.70562E-20-8.62645E-19
 -1      2636 9.57553E-05-2.71698E-05-2.94032E-05 8.63747E-07-8.47763E-20-9.84093E-19
 -1      2637 9.57039E-05-2.81675E-05-2.89317E-05 2.03818E-06-8.28165E-20-8.52797E-19
 -1      2638 9.58262E-05-2.84153E-05-2.88914E-05 2.27237E-06-2.04390E-19-8.93695E-19
 -1      2639 9.58815E-05-2.78990E-05-2.91450E-05 1.85457E-06-1.76721E-19-9.73049E-19
 -1      2640 9.59611E-05-2.86544E-05-2.88357E-05 2.46543E-06-3.68164E-19-8.36295E-19
 -1      2641 9.61570E-05-2.89072E-05-2.88233E-05 2.53989E-06-3.88008E-19-9.09466E-19
 -1      2642 9.61001E-05-2.85015E-05-2.89802E-05 2.45932E-06-2.52189E-19-1.20081E-18
 -1      2643 9.63762E-05-2.91713E-05-2.87926E-05 2.58256E-06-1.85117E-19-7.75817E-19
 -1      2644 9.66350E-05-2.94557E-05-2.87953E-05 2.50425E-06-2.80199E-19-7.69268E-19
 -1      2645 9.64631E-05-2.90996E-05-2.88795E-05 2.73861E-06-2.18833E-19-9.91302E-19
 -1      2646 9.69549E-05-2.97742E-05-2.87814E-05 2.38954E-06-3.20866E-19-4.67780E-19
 -1      2647 9.72624E-05-3.01028E-05-2.87903E-05 2.14649E-06-4.67965E-19-2.66506E-19
 -1      2648 9.70092E-05-2.97793E-05-2.88226E-05 2.70479E-06-6.48439E-20-2.17749E-19
 -1      2649 9.76906E-05-3.04874E-05-2.87895E-05 1.84910E-06-4.92430E-19 1.81703E-20
 -1      2650 9.80233E-05-3.08516E-05-2.87999E-05 1.42001E-06-2.88303E-19 1.25790E-19
 -1      2651 9.77640E-05-3.05910E-05-2.87985E-05 2.32718E-06-1.99223E-19 1.47641E-19
 -1      2652 9.85481E-05-3.12856E-05-2.88138E-05 9.05743E-07-3.20857E-19 3.03522E-19
 -1      2653 9.88652E-05-3.16446E-05-2.88253E-05 2.74616E-07-1.50107E-19 1.43096E-19
 -1      2654 9.87261E-05-3.15321E-05-2.88070E-05 1.54481E-06-3.38939E-19 5.32352E-19
 -1      2655 9.94399E-05-3.20687E-05-2.88612E-05-4.81842E-07 4.02092E-21 6.01515E-20
 -1      2656 9.96760E-05-3.23383E-05-2.88785E-05-1.30375E-06-3.28957E-20 4.96376E-19
 -1      2657 9.98400E-05-3.25176E-05-2.88594E-05 2.91815E-07-1.39324E-19 3.65562E-19
 -1      2658 1.00203E-04-3.26388E-05-2.89486E-05-2.28845E-06-1.25816E-19 5.00678E-19
 -1      2659 1.00269E-04-3.26915E-05-2.89803E-05-3.23374E-06 1.02494E-19 4.05288E-19
 -1      2660 1.00963E-04-3.33486E-05-2.89785E-05-1.45570E-06 1.02352E-19 8.97285E-19
 -1      2661 1.00596E-04-3.27065E-05-2.90984E-05-4.35041E-06-1.04256E-19 3.35299E-19
 -1      2662 1.00399E-04-3.23969E-05-2.91540E-05-5.26722E-06-4.80960E-19 4.34675E-19
 -1      2663 1.01843E-04-3.37028E-05-2.91944E-05-3.60453E-06-2.41660E-19 2.36923E-19
 -1      2664 1.00353E-04-3.19615E-05-2.93281E-05-6.29524E-06-6.33125E-19 2.01433E-19
 -1      2665 9.98398E-05-3.11947E-05-2.94129E-05-6.93909E-06-5.56887E-19 2.21553E-19
 -1      2666 1.02147E-04-3.31919E-05-2.95321E-05-5.85051E-06-6.41343E-19-1.03273E-19
 -1      2667 9.93167E-05-3.02407E-05-2.96358E-05-7.53344E-06-6.76210E-19 2.81423E-19
 -1      2668 9.85382E-05-2.90710E-05-2.97439E-05-7.61495E-06-6.16805E-19-1.97609E-19
 -1      2669 1.01578E-04-3.15317E-05-2.99925E-05-7.61584E-06-6.11511E-19 1.73362E-19
 -1      2670 9.76220E-05-2.77459E-05-2.99845E-05-7.40221E-06-1.87495E-19-2.41669E-20
 -1      2671 9.67703E-05-2.64487E-05-3.00951E-05-6.70596E-06-3.00060E-19-8.54444E-20
 -1      2672 1.00103E-04-2.88104E-05-3.05315E-05-8.12966E-06-4.48475E-19 3.65407E-19
 -1      2673 9.57967E-05-2.51633E-05-3.02989E-05-5.48836E-06-5.47994E-19-9.17343E-22
 -1      2674 9.51661E-05-2.41883E-05-3.03797E-05-4.03233E-06-5.77845E-19 1.66754E-19
 -1      2675 9.81444E-05-2.56900E-05-3.10500E-05-6.73670E-06-4.10410E-19 6.70669E-19
 -1      2676 9.46114E-05-2.34797E-05-3.04860E-05-2.00826E-06-5.10119E-19 2.04102E-19
 -1      2677 9.44590E-05-2.32311E-05-3.05100E-05-1.30784E-07-6.04598E-19 3.46463E-19
 -1      2678 9.65516E-05-2.33091E-05-3.14118E-05-3.37794E-06-4.90774E-19 7.44937E-19
 -1      2679 9.46153E-05-2.34176E-05-3.04874E-05 2.10266E-06-7.48489E-19 3.80344E-20
 -1      2680 9.50056E-05-2.39985E-05-3.04470E-05 3.87215E-06-3.28943E-19-7.05273E-20
 -1      2681 9.61367E-05-2.26857E-05-3.15081E-05 1.09682E-06-6.91008E-19 2.74960E-19
 -1      2682 9.58019E-05-2.50042E-05-3.02998E-05 5.62160E-06 2.45771E-19-1.82590E-19
 -1      2683 9.65813E-05-2.61659E-05-3.02115E-05 6.79421E-06 5.32194E-19-4.78200E-19
 -1      2684 9.71235E-05-2.40957E-05-3.13080E-05 5.27657E-06-2.38043E-19-7.60568E-20
 -1      2685 9.75824E-05-2.75136E-05-2.99930E-05 7.60497E-06 3.92865E-19-4.07687E-19
 -1      2686 9.84535E-05-2.87933E-05-2.98906E-05 7.98623E-06 1.96151E-19-5.16851E-20
 -1      2687 9.89931E-05-2.69225E-05-3.08771E-05 7.88039E-06 3.35768E-19-3.71426E-19
 -1      2688 9.92295E-05-2.99795E-05-2.96606E-05 7.85464E-06 1.84531E-19-1.68291E-19
 -1      2689 9.99333E-05-3.09893E-05-2.95723E-05 7.54238E-06 6.29410E-19-1.07451E-19
 -1      2690 1.00825E-04-2.99457E-05-3.03509E-05 8.47549E-06 2.53852E-19 4.69087E-19
 -1      2691 1.00252E-04-3.17112E-05-2.93769E-05 6.76571E-06 3.92270E-20-2.63084E-19
 -1      2692 1.00659E-04-3.22736E-05-2.93174E-05 6.02372E-06-4.52523E-19-7.40876E-19
 -1      2693 1.01941E-04-3.22245E-05-2.98527E-05 7.42296E-06 4.35655E-20 3.20835E-19
 -1      2694 1.00530E-04-3.24880E-05-2.91761E-05 4.98131E-06-8.88218E-20-3.12359E-19
 -1      2695 1.00640E-04-3.26255E-05-2.91453E-05 4.08880E-06 2.96579E-19-3.62020E-19
 -1      2696 1.02119E-04-3.33453E-05-2.94584E-05 5.47629E-06 6.64092E-20 2.96490E-19
 -1      2697 1.00211E-04-3.24580E-05-2.90570E-05 3.07522E-06 1.99689E-19-1.24719E-19
 -1      2698 1.00101E-04-3.22994E-05-2.90465E-05 2.23595E-06-4.70579E-20-1.32511E-19
 -1      2699 1.01536E-04-3.34166E-05-2.91891E-05 3.34352E-06 2.86698E-19 8.61973E-19
 -1      2700 9.95420E-05-3.19238E-05-2.89984E-05 1.41110E-06 2.13022E-19 2.22962E-19
 -1      2701 9.93068E-05-3.16139E-05-2.89974E-05 7.33815E-07 4.71692E-19-1.47143E-19
 -1      2702 1.00524E-04-3.27979E-05-2.90286E-05 1.47759E-06 2.94497E-19 8.77330E-19
 -1      2703 9.87458E-05-3.11757E-05-2.89741E-05 1.47636E-07-4.00384E-20-2.87022E-19
 -1      2704 9.84627E-05-3.08267E-05-2.89738E-05-3.33927E-07-6.67604E-19-2.57945E-19
 -1      2705 9.93877E-05-3.18664E-05-2.89449E-05 7.08086E-08 7.26569E-20 1.41518E-18
 -1      2706 9.79728E-05-3.04190E-05-2.89624E-05-6.96438E-07-8.17228E-20-1.64509E-19
 -1      2707 9.76925E-05-3.00997E-05-2.89578E-05-9.95213E-07-9.72596E-20 9.60225E-19
 -1      2708 9.83279E-05-3.09003E-05-2.89059E-05-8.57984E-07-2.57659E-19 1.08046E-18
 -1      2709 9.73015E-05-2.97677E-05-2.89497E-05-1.17858E-06-7.45767E-19 1.15057E-18
 -1      2710 9.70510E-05-2.95092E-05-2.89387E-05-1.32977E-06-3.23106E-19 1.13050E-18
 -1      2711 9.74434E-05-3.00583E-05-2.88870E-05-1.37925E-06-1.98788E-19 1.32589E-18
 -1      2712 9.67580E-05-2.92640E-05-2.89294E-05-1.38472E-06-7.66509E-20 1.52507E-18
 -1      2713 9.65474E-05-2.90726E-05-2.89126E-05-1.42887E-06 3.03501E-20 1.68321E-18
 -1      2714 9.67590E-05-2.94040E-05-2.88727E-05-1.59434E-06 5.03338E-20 1.98117E-18
 -1      2715 9.63381E-05-2.89062E-05-2.89004E-05-1.40052E-06 1.35664E-19 1.69130E-18
 -1      2716 9.61677E-05-2.87750E-05-2.88794E-05-1.37463E-06 2.01501E-20 2.13292E-18
 -1      2717 9.62576E-05-2.89398E-05-2.88553E-05-1.60114E-06-9.83345E-20 2.21761E-18
 -1      2718 9.60237E-05-2.86718E-05-2.88646E-05-1.29848E-06-6.69712E-19 2.18903E-18
 -1      2719 9.58895E-05-2.85887E-05-2.88415E-05-1.23230E-06-7.77371E-19 1.78362E-18
 -1      2720 9.59057E-05-2.86381E-05-2.88325E-05-1.48050E-06-3.66794E-19 2.07834E-18
 -1      2721 9.57933E-05-2.85320E-05-2.88249E-05-1.13402E-06-7.82959E-19 1.54671E-18
 -1      2722 9.56896E-05-2.84842E-05-2.88016E-05-1.04931E-06-4.01043E-19 4.73646E-19
 -1      2723 9.56669E-05-2.84614E-05-2.88049E-05-1.29315E-06-1.31038E-18 2.13920E-18
 -1      2724 9.56269E-05-2.84589E-05-2.87845E-05-9.46013E-07-4.29813E-20-9.16891E-19
 -1      2725 9.55479E-05-2.84353E-05-2.87624E-05-8.57393E-07 6.05173E-20-1.62688E-18
 -1      2726 9.55094E-05-2.83733E-05-2.87744E-05-1.08125E-06-1.26873E-18-6.03167E-20
 -1      2727 9.55078E-05-2.84297E-05-2.87459E-05-7.59503E-07 6.85195E-19-1.48381E-18
 -1      2728 9.54485E-05-2.84217E-05-2.87259E-05-6.75897E-07 2.77227E-19-1.52698E-18
 -1      2729 9.54077E-05-2.83433E-05-2.87432E-05-8.71771E-07 1.62984E-19-1.55829E-18
 -1      2730 9.54231E-05-2.84273E-05-2.87107E-05-5.88999E-07 2.93720E-19-4.73897E-19
 -1      2731 9.53791E-05-2.84285E-05-2.86935E-05-5.15156E-07 8.06006E-19-1.34652E-19
 -1      2732 9.53433E-05-2.83482E-05-2.87131E-05-6.80263E-07 9.89680E-19-4.03578E-19
 -1      2733 9.53633E-05-2.84396E-05-2.86800E-05-4.41551E-07 5.82835E-19 2.38727E-19
 -1      2734 9.53311E-05-2.84456E-05-2.86656E-05-3.79371E-07 8.03911E-19 3.57512E-19
 -1      2735 9.53030E-05-2.83716E-05-2.86856E-05-5.14292E-07 9.34507E-19-3.61448E-19
 -1      2736 9.53212E-05-2.84586E-05-2.86540E-05-3.19284E-07 1.65426E-18-2.67870E-19
 -1      2737 9.52981E-05-2.84667E-05-2.86424E-05-2.68877E-07 1.17298E-18 2.01351E-19
 -1      2738 9.52780E-05-2.84029E-05-2.86613E-05-3.76153E-07 7.79600E-19-8.43449E-19
 -1      2739 9.52919E-05-2.84794E-05-2.86328E-05-2.21345E-07 2.82886E-19 6.59822E-19
 -1      2740 9.52757E-05-2.84879E-05-2.86236E-05-1.81806E-07-7.18879E-19 6.29115E-19
 -1      2741 9.52626E-05-2.84356E-05-2.86406E-05-2.64938E-07 9.84006E-19-1.62772E-18
 -1      2742 9.52717E-05-2.84994E-05-2.86158E-05-1.45294E-07-1.06784E-18 1.42638E-18
 -1      2743 9.52607E-05-2.85074E-05-2.86088E-05-1.15252E-07 9.95844E-20 1.53424E-18
 -1      2744 9.52530E-05-2.84660E-05-2.86233E-05-1.78019E-07 1.22229E-19 4.56056E-19
 -1      2745 9.52582E-05-2.85172E-05-2.86026E-05-8.80556E-08 1.05972E-18 1.63679E-18
 -1      2746 9.52510E-05-2.85244E-05-2.85973E-05-6.60237E-08 1.15704E-18 1.38867E-18
 -1      2747 9.52471E-05-2.84926E-05-2.86094E-05-1.12059E-07 2.89965E-19 7.94404E-19
 -1      2748 9.52495E-05-2.85327E-05-2.85924E-05-4.65191E-08 5.28830E-19 2.29844E-18
 -1      2749 9.52451E-05-2.85389E-05-2.85884E-05-3.13440E-08 1.75636E-19 1.54285E-18
 -1      2750 9.52435E-05-2.85150E-05-2.85981E-05-6.35844E-08 1.12313E-18-1.73842E-19
 -1      2751 9.52442E-05-2.85448E-05-2.85851E-05-1.95524E-08-4.84205E-19 1.96074E-18
 -1      2752 9.52419E-05-2.85505E-05-2.85821E-05-9.62998E-09-5.81022E-19 1.56036E-18
 -1      2753 9.52407E-05-2.85469E-05-2.85834E-05-1.14061E-08 3.54005E-19 3.42493E-18
 -1      2754 9.52413E-05-2.85319E-05-2.85898E-05-3.17913E-08-1.44879E-19 2.11755E-18
 -1      2755 2.87392E-05-1.00321E-05-7.40596E-06 1.35869E-06 1.22264E-19 4.10769E-18
 -1      2756 2.98420E-05-1.03848E-05-7.82820E-06-1.46125E-05 8.57039E-19 4.04056E-18
 -1      2757 9.51097E-05-2.68824E-05-2.92312E-05-3.89863E-06 6.35634E-19 4.06921E-19
 -1      2758 9.50834E-05-2.69142E-05-2.92134E-05-3.26514E-06 4.81905E-19 3.16067E-19
 -1      2759 9.52528E-05-2.69357E-05-2.92735E-05-2.62773E-06 6.16358E-19 3.39807E-19
 -1      2760 9.52684E-05-2.68309E-05-2.93199E-05-1.92993E-06 8.10509E-19 5.16569E-19
 -1      2761 9.50487E-05-2.64802E-05-2.93886E-05-2.84224E-06 7.31127E-19 2.43089E-19
 -1      2762 9.45107E-05-2.59082E-05-2.93862E-05-6.50148E-06 1.42614E-19 2.59536E-19
 -1      2763 9.45106E-05-2.62019E-05-2.92898E-05-5.73709E-06 4.47445E-19 4.56220E-19
 -1      2764 9.38099E-05-2.49181E-05-2.95086E-05-8.17325E-06-1.73479E-19 7.52962E-20
 -1      2765 9.39015E-05-2.53596E-05-2.93997E-05-7.23662E-06 2.01177E-20 3.26771E-19
 -1      2766 9.30851E-05-2.47774E-05-2.92541E-05-6.63499E-06 1.78986E-19 1.12608E-20
 -1      2767 9.26341E-05-2.35811E-05-2.95761E-05-1.02231E-05-4.99917E-19 9.50596E-21
 -1      2768 9.28788E-05-2.41584E-05-2.94880E-05-9.06161E-06-3.85480E-19-1.71561E-19
 -1      2769 9.15948E-05-2.33700E-05-2.92041E-05-8.17126E-06-1.07838E-19-4.46242E-19
 -1      2770 9.08298E-05-2.20088E-05-2.94728E-05-1.27390E-05 1.48859E-20-7.22239E-19
 -1      2771 9.12610E-05-2.26323E-05-2.94625E-05-1.13210E-05-2.91936E-19-3.27071E-19
 -1      2772 8.93560E-05-2.15332E-05-2.90127E-05-9.99202E-06-2.52661E-19-6.38456E-19
 -1      2773 8.83648E-05-2.05994E-05-2.90047E-05-1.58112E-05 4.22178E-19-9.83046E-19
 -1      2774 8.89149E-05-2.09998E-05-2.91694E-05-1.41253E-05 2.51309E-19-8.54962E-19
 -1      2775 8.61391E-05-1.94131E-05-2.85175E-05-1.22064E-05 2.00171E-19-1.12159E-18
 -1      2776 8.58036E-05-2.03431E-05-2.79724E-05-1.93765E-05 3.29466E-20-7.66747E-19
 -1      2777 8.60388E-05-1.99412E-05-2.83978E-05-1.75616E-05 5.20575E-19-1.06306E-18
 -1      2778 8.19297E-05-1.74917E-05-2.74955E-05-1.49384E-05 4.81679E-19-1.17430E-18
 -1      2779 8.40879E-05-2.31756E-05-2.58978E-05-2.41209E-05-7.55024E-19-1.07372E-18
 -1      2780 8.31180E-05-2.06441E-05-2.67894E-05-2.19266E-05-3.82030E-19-9.02500E-19
 -1      2781 7.68478E-05-1.68017E-05-2.55567E-05-1.87968E-05-1.12965E-19-9.56724E-19
 -1      2782 8.59449E-05-3.25441E-05-2.25282E-05-3.02062E-05-1.47744E-18-1.71588E-18
 -1      2783 8.20225E-05-2.59404E-05-2.38591E-05-2.76491E-05-8.13337E-19-1.29972E-18
 -1      2784 7.16056E-05-1.96441E-05-2.20991E-05-2.50884E-05-4.95726E-19-1.07711E-18
 -1      2785 1.41318E-04-5.36905E-05-3.80146E-05 7.92759E-06-1.23827E-18 1.63795E-18
 -1      2786 1.35579E-04-5.74837E-05-3.33622E-05 1.58282E-05-4.75080E-19 1.32751E-18
 -1      2787 1.40369E-04-6.54905E-05-3.20074E-05-1.33128E-05-3.50778E-18-1.66760E-19
 -1      2788 9.14758E-05-2.22024E-05-2.97436E-05 1.21394E-05-7.92141E-20 8.97000E-19
 -1      2789 9.11453E-05-2.17281E-05-2.97195E-05 1.38125E-05 4.17979E-19 1.54641E-18
 -1      2790 1.75553E-04-3.19950E-05-6.18153E-05 1.38457E-05 4.64936E-18 1.60259E-18
 -1      2791 1.39747E-04-5.16169E-05-3.78441E-05-4.59694E-06 6.47027E-19-1.80460E-18
 -1      2792 1.40561E-04-4.38984E-05-4.20507E-05 3.25722E-06-7.07273E-20-2.40441E-18
 -1      2793 8.91401E-05-2.09105E-05-2.93054E-05 1.55686E-05-6.22437E-20 1.26312E-18
 -1      2794 8.89242E-05-2.09817E-05-2.90601E-05 1.74810E-05-4.57712E-19 1.24466E-18
 -1      2795 8.52509E-05-1.87015E-05-2.84328E-05 1.34366E-05 6.82267E-20 6.78285E-19
 -1      2796 8.27484E-05-3.95380E-05-1.80739E-05 3.53519E-05-1.75272E-18-1.82514E-18
 -1      2797 6.28761E-05-2.79220E-05-1.43972E-05 3.20272E-05-1.60407E-18-5.54383E-19
 -1      2798 8.67241E-05-2.08945E-05-2.82607E-05 1.96926E-05-1.01437E-18 8.54941E-19
 -1      2799 8.73324E-05-2.23196E-05-2.77188E-05 2.15949E-05-1.61357E-18 4.65306E-19
 -1      2800 8.10031E-05-1.75241E-05-2.70766E-05 1.70109E-05-1.02442E-18 6.21256E-19
 -1      2801 9.32061E-05-2.37173E-05-2.98228E-05 9.35888E-06-9.48619E-19 1.51185E-18
 -1      2802 9.29824E-05-2.31465E-05-2.99065E-05 1.07583E-05-7.54561E-19 1.03390E-18
 -1      2803 8.87206E-05-2.06624E-05-2.91043E-05 1.06014E-05-4.41973E-19 5.15231E-19
 -1      2804 9.43370E-05-2.50420E-05-2.97271E-05 7.13223E-06 1.74905E-18 1.25357E-18
 -1      2805 9.42465E-05-2.45440E-05-2.98517E-05 8.25724E-06 2.95856E-19 1.03578E-18
 -1      2806 9.12103E-05-2.25987E-05-2.93617E-05 8.31585E-06 2.46889E-20 3.80844E-19
 -1      2807 9.49792E-05-2.60285E-05-2.95709E-05 5.45624E-06 1.69745E-18 1.16544E-18
 -1      2808 9.49897E-05-2.56598E-05-2.96942E-05 6.30052E-06 1.84944E-18 1.43719E-18
 -1      2809 9.28470E-05-2.41793E-05-2.94016E-05 6.49439E-06 1.41134E-18 4.84497E-19
 -1      2810 9.53380E-05-2.67933E-05-2.93911E-05 4.07800E-06 2.61093E-18 2.76893E-18
 -1      2811 9.54032E-05-2.65109E-05-2.95096E-05 4.75851E-06 2.20769E-18 3.10489E-18
 -1      2812 9.38986E-05-2.54010E-05-2.93384E-05 5.01807E-06 1.05110E-18 2.60508E-18
 -1      2813 9.54994E-05-2.73348E-05-2.92234E-05 3.02366E-06 2.14540E-18 2.62836E-18
 -1      2814 9.55899E-05-2.71371E-05-2.93240E-05 3.53740E-06 2.92658E-18 2.90241E-18
 -1      2815 9.45587E-05-2.63270E-05-2.92317E-05 3.80960E-06 2.44837E-18 3.57628E-18
 -1      2816 9.55451E-05-2.77108E-05-2.90786E-05 2.22434E-06 1.68055E-18 1.27562E-18
 -1      2817 9.56397E-05-2.75746E-05-2.91604E-05 2.60846E-06 1.75457E-18 1.91773E-18
 -1      2818 9.49405E-05-2.69901E-05-2.91159E-05 2.86304E-06 2.36405E-18 4.84101E-18
 -1      2819 9.55303E-05-2.79698E-05-2.89590E-05 1.62261E-06 4.56058E-19 1.73424E-18
 -1      2820 9.56175E-05-2.78764E-05-2.90237E-05 1.90811E-06 1.18755E-18 1.58577E-18
 -1      2821 9.51484E-05-2.74578E-05-2.90075E-05 2.13046E-06 1.10683E-18 2.62192E-18
 -1      2822 9.54889E-05-2.81479E-05-2.88632E-05 1.17227E-06 9.20072E-20 5.16065E-19
 -1      2823 9.55633E-05-2.80839E-05-2.89134E-05 1.38344E-06 6.48266E-20 1.08345E-18
 -1      2824 9.52521E-05-2.77855E-05-2.89132E-05 1.56904E-06 1.02662E-18 2.06172E-18
 -1      2825 9.54418E-05-2.82661E-05-2.87914E-05 8.51188E-07-2.03913E-18 1.10395E-19
 -1      2826 9.55003E-05-2.82231E-05-2.88282E-05 1.00102E-06-4.00518E-19 6.31710E-19
 -1      2827 9.52957E-05-2.80111E-05-2.88364E-05 1.15075E-06 3.91585E-19 1.33030E-18
 -1      2828 9.53934E-05-2.83538E-05-2.87325E-05 5.98217E-07-1.65389E-18-4.78764E-19
 -1      2829 9.54417E-05-2.83221E-05-2.87619E-05 7.14428E-07-2.03000E-18-3.93953E-19
 -1      2830 9.53081E-05-2.81694E-05-2.87740E-05 8.34190E-07-1.22994E-18-3.06171E-19
 -1      2831 9.53518E-05-2.84156E-05-2.86878E-05 4.11833E-07-2.49865E-18-1.22330E-18
 -1      2832 9.53885E-05-2.83929E-05-2.87096E-05 4.96866E-07-2.06478E-18-1.17768E-18
 -1      2833 9.53048E-05-2.82854E-05-2.87231E-05 5.89279E-07-1.20004E-18-2.26319E-20
 -1      2834 9.53181E-05-2.84597E-05-2.86541E-05 2.75368E-07-2.14984E-18-6.88768E-19
 -1      2835 9.53451E-05-2.84432E-05-2.86702E-05 3.37127E-07-2.77071E-18-1.54450E-18
 -1      2836 9.52946E-05-2.83679E-05-2.86834E-05 4.07140E-07-2.31288E-18-1.18219E-18
 -1      2837 9.52922E-05-2.84915E-05-2.86292E-05 1.76424E-07-3.28136E-19 5.41814E-19
 -1      2838 9.53115E-05-2.84793E-05-2.86408E-05 2.20811E-07-1.14186E-18-1.01191E-19
 -1      2839 9.52825E-05-2.84270E-05-2.86528E-05 2.72874E-07-2.08601E-18-5.88942E-19
 -1      2840 9.52739E-05-2.85139E-05-2.86116E-05 1.08567E-07-2.22405E-19 1.52577E-18
 -1      2841 9.52867E-05-2.85049E-05-2.86197E-05 1.38897E-07-3.46305E-19 1.39381E-18
 -1      2842 9.52714E-05-2.84691E-05-2.86301E-05 1.76869E-07-8.71299E-19 5.24083E-19
 -1      2843 9.52601E-05-2.85316E-05-2.85981E-05 5.78379E-08-1.95289E-18 3.05784E-18
 -1      2844 9.52691E-05-2.85243E-05-2.86041E-05 8.01197E-08-6.24287E-19 2.29312E-18
 -1      2845 9.52619E-05-2.84994E-05-2.86129E-05 1.07714E-07-8.66934E-19 1.51273E-18
 -1      2846 9.52510E-05-2.85454E-05-2.85882E-05 2.34388E-08-1.56301E-18 2.27326E-18
 -1      2847 9.52565E-05-2.85394E-05-2.85925E-05 3.82988E-08-1.35881E-18 2.99145E-18
 -1      2848 9.52543E-05-2.85229E-05-2.85995E-05 5.74591E-08-1.38435E-18 2.56249E-18
 -1      2849 9.52453E-05-2.85564E-05-2.85810E-05 1.69862E-09 1.39275E-18-2.06412E-19
 -1      2850 9.52484E-05-2.85515E-05-2.85840E-05 1.06637E-08-3.88106E-19 9.86572E-19
 -1      2851 9.52487E-05-2.85407E-05-2.85894E-05 2.34665E-08 4.57518E-19 1.03507E-18
 -1      2852 9.52434E-05-2.85630E-05-2.85773E-05-6.60006E-09 2.19943E-19 2.07098E-19
 -1      2853 9.52439E-05-2.85595E-05-2.85789E-05-3.43556E-09 1.22072E-18-5.37682E-19
 -1      2854 9.52453E-05-2.85522E-05-2.85829E-05 5.19929E-09 1.32300E-18 7.81265E-20
 -1      2855 9.52438E-05-2.85608E-05-2.85785E-05-3.57368E-09 1.10760E-18 1.66523E-18
 -1      2856 9.52178E-05-2.85171E-05-2.85862E-05 5.10932E-09 5.25234E-19-9.25076E-19
 -1      2857 9.52192E-05-2.85184E-05-2.85861E-05 7.13101E-09 1.04689E-18-7.05997E-19
 -1      2858 4.40371E-05-1.69267E-05-1.12407E-05 2.32189E-05-1.34609E-18 1.13354E-18
 -1      2859 3.38478E-05-1.20836E-05-8.62572E-06 1.14596E-05-6.62221E-19 2.86636E-18
 -1      2860 4.00313E-05-9.57084E-06-1.24124E-05 5.28021E-06-8.76467E-19 2.73952E-18
 -1      2861 4.91574E-05-2.33303E-05-1.03226E-05-2.85640E-05-1.57061E-18-2.32087E-18
 -1      2862 6.64796E-05-3.30961E-05-1.40788E-05-3.60720E-05-2.29292E-18-1.70592E-18
 -1      2863 9.52217E-05-2.85217E-05-2.85859E-05 9.92190E-09 9.52793E-19-1.99695E-18
 -1      2864 9.52244E-05-2.85246E-05-2.85856E-05 1.08178E-08 1.84087E-18-2.45445E-18
 -1      2865 9.52144E-05-2.85027E-05-2.85905E-05 1.10975E-08 1.88135E-18-1.47916E-18
 -1      2866 9.52211E-05-2.85222E-05-2.85852E-05-5.77359E-09 3.78682E-21-1.86852E-18
 -1      2867 9.52193E-05-2.85200E-05-2.85856E-05-4.14091E-09-7.90094E-19-1.53092E-19
 -1      2868 9.52272E-05-2.85309E-05-2.85840E-05-8.19271E-09 2.45803E-18 2.07905E-18
 -1      2869 9.52243E-05-2.85274E-05-2.85846E-05-7.81723E-09 1.26152E-18 3.58074E-19
 -1      2870 9.52175E-05-2.85093E-05-2.85890E-05-1.08646E-08 1.77537E-18 2.21565E-19
 -1      2871 9.52340E-05-2.85417E-05-2.85823E-05-7.05060E-09 1.43253E-18 2.09512E-18
 -1      2872 9.52312E-05-2.85377E-05-2.85831E-05-8.14916E-09 2.05264E-18 1.70739E-18
 -1      2873 9.52257E-05-2.85216E-05-2.85873E-05-1.36792E-08 2.08055E-18 1.71512E-18
 -1      2874 9.52391E-05-2.85533E-05-2.85796E-05-2.49567E-09 1.50124E-18 2.44136E-18
 -1      2875 1.25872E-04-5.94436E-05-2.88137E-05 2.84715E-05 3.16684E-19 3.68565E-19
 -1      2876 1.12453E-04-5.59409E-05-2.38947E-05 3.63922E-05 6.38980E-19 6.52599E-19
 -1      2877 1.28952E-04-5.82647E-05-2.99575E-05-2.31924E-05 1.91297E-18 5.31354E-19
 -1      2878 1.36875E-04-5.72147E-05-3.46194E-05-1.43208E-05 1.25051E-18-8.80385E-19
 -1      2879 1.35928E-04-5.33701E-05-3.54110E-05-5.46956E-06 1.17586E-18-2.01356E-18
 -1      2880 9.75874E-05-4.99809E-05-2.03648E-05 4.30355E-05 4.50516E-19 7.37766E-19
 -1      2881 8.03363E-05-4.08482E-05-1.65091E-05 4.37262E-05 2.31558E-19 4.64492E-19
 -1      2882 3.35714E-05-1.34316E-05-8.19339E-06 2.27795E-05 5.66771E-19-1.49861E-18
 -1      2883 2.94640E-05-1.05473E-05-7.32985E-06 1.04659E-05 5.08643E-19-2.32638E-18
 -1      2884 9.65876E-05-4.87710E-05-1.99218E-05-4.20223E-05 1.78639E-18 1.61339E-18
 -1      2885 1.13405E-04-5.59831E-05-2.49685E-05-3.60521E-05 1.83764E-18 2.03696E-18
 -1      2886 8.53720E-05-2.39615E-05-2.62319E-05 2.48328E-05-1.98545E-18 1.24673E-19
 -1      2887 8.84404E-05-2.90470E-05-2.52238E-05 2.68122E-05-1.82872E-18-1.74012E-19
 -1      2888 7.65045E-05-1.87140E-05-2.45742E-05 2.20809E-05-2.10977E-18 6.72385E-19
 -1      2889 9.53664E-05-2.66581E-05-2.94459E-05-1.17381E-06 9.08761E-19 4.36845E-19
 -1      2890 9.54369E-05-2.63807E-05-2.95800E-05-2.93338E-07 1.04893E-18 6.92938E-19
 -1      2891 9.52991E-05-2.62584E-05-2.95942E-05-1.39369E-06 8.97339E-19 2.76180E-19
 -1      2892 6.26585E-05-3.16837E-05-1.26686E-05-4.30158E-05 1.67395E-18 2.01742E-18
 -1      2893 7.84097E-05-4.08952E-05-1.60452E-05-4.62517E-05 1.66378E-18 1.41465E-18
 -1      2894 3.73715E-05-1.55585E-05-8.68969E-06-2.72253E-05 1.30512E-18 2.71792E-18
 -1      2895 4.82550E-05-2.23814E-05-1.07654E-05-3.73798E-05 1.38003E-18 1.76162E-18
 -1      2896 9.52177E-05-2.85173E-05-2.85859E-05-8.09234E-10-9.43012E-20-1.68225E-18
 -1      2897 9.52173E-05-2.85168E-05-2.85861E-05 1.47530E-09 3.97380E-20-2.88726E-18
 -1      2898 9.52109E-05-2.84990E-05-2.85906E-05 3.54896E-09 4.16381E-19-2.30616E-18
 -1      2899 9.52121E-05-2.85014E-05-2.85901E-05-4.52823E-09 3.10678E-19-2.00551E-18
 -1      2900 9.48947E-05-2.65483E-05-2.92791E-05-5.11523E-06 6.03290E-19 3.10756E-19
 -1      2901 9.48586E-05-2.66990E-05-2.92173E-05-4.48734E-06 6.70221E-19 3.66346E-19
 -1      2902 9.46497E-05-2.62942E-05-2.92920E-05-4.09810E-06 7.17973E-19-1.10445E-20
 -1      2903 9.40402E-05-2.57372E-05-2.92628E-05-5.31099E-06 5.68910E-19 1.93432E-19
 -1      2904 1.70798E-04-3.50790E-05-5.74263E-05 1.93079E-05 4.07211E-18 1.63181E-18
 -1      2905 1.70142E-04-5.18194E-05-5.17129E-05 1.99332E-05 1.46748E-18 2.58684E-18
 -1      2906 1.31451E-04-1.54384E-05-5.04630E-05-1.01853E-05-2.87991E-18 1.60126E-18
 -1      2907 1.37994E-04-2.63466E-05-4.81890E-05-1.05609E-05-2.40007E-18 1.36065E-18
 -1      2908 5.96822E-05-2.94507E-05-1.25681E-05 4.15692E-05 2.36322E-19-5.75982E-19
 -1      2909 4.36682E-05-2.00006E-05-9.46746E-06 3.30882E-05 6.80538E-19-1.24831E-18
 -1      2910 9.07687E-05-1.54314E-05-3.23140E-05 4.41501E-06 1.85619E-18-5.81399E-19
 -1      2911 9.03470E-05-1.48830E-05-3.23652E-05 3.57389E-06 1.70483E-18-8.60179E-19
 -1      2912 9.12012E-05-1.63481E-05-3.20626E-05 2.80364E-06 1.50365E-18-8.17286E-19
 -1      2913 9.20537E-05-1.75329E-05-3.19131E-05 4.02559E-06 1.64378E-18-4.13106E-19
 -1      2914 1.40853E-04-3.78819E-05-4.48699E-05-6.51483E-06-1.96533E-18 1.55018E-18
 -1      2915 1.42191E-04-4.65383E-05-4.11917E-05-4.02524E-07-1.61640E-18 1.80249E-18
 -1      2916 1.38038E-04-4.95755E-05-3.79874E-05-2.19393E-07-7.28329E-19 2.40727E-18
 -1      2917 9.04299E-05-1.50167E-05-3.23430E-05-3.47979E-06 4.85459E-19-1.83039E-18
 -1      2918 9.08479E-05-1.55681E-05-3.22885E-05-4.35219E-06 3.30448E-19-1.83397E-18
 -1      2919 1.38527E-04-3.37001E-05-4.51618E-05 9.36420E-06-8.86526E-19-2.28074E-18
 -1      2920 1.33718E-04-2.38088E-05-4.78537E-05 1.12462E-05-7.60636E-19-1.68041E-18
 -1      2921 1.23801E-04-6.11540E-06-5.10593E-05-1.37426E-06-3.24858E-18 1.17563E-18
 -1      2922 1.26231E-04-8.63637E-06-5.09162E-05-6.65463E-06-3.16197E-18 1.45801E-18
 -1      2923 9.44864E-05-2.08922E-05-3.15634E-05-7.46069E-06-7.94481E-19-1.57551E-18
 -1      2924 9.49828E-05-2.27061E-05-3.09851E-05-5.71464E-06-7.96457E-19-1.47226E-18
 -1      2925 9.47219E-05-2.22738E-05-3.10479E-05-5.04523E-06-6.29337E-19-1.22325E-18
 -1      2926 9.36030E-05-1.94658E-05-3.17763E-05-7.26381E-06-5.78633E-19-1.58455E-18
 -1      2927 1.28220E-04-1.37300E-05-4.95428E-05 1.02052E-05-1.05752E-18-5.77412E-19
 -1      2928 1.24395E-04-7.74664E-06-5.06810E-05 4.71688E-06-2.35052E-18 3.41473E-19
 -1      2929 9.05779E-05-1.55082E-05-3.21587E-05 1.12418E-07 1.07020E-18-1.27143E-18
 -1      2930 8.95605E-05-1.38528E-05-3.24668E-05-2.66232E-07 1.13450E-18-1.46585E-18
 -1      2931 8.96510E-05-1.39646E-05-3.24558E-05-1.13208E-06 9.50289E-19-1.59525E-18
 -1      2932 9.55592E-05-2.47297E-05-3.03491E-05 3.37900E-06 1.37193E-18 1.02763E-18
 -1      2933 9.52034E-05-2.36337E-05-3.06606E-05 3.82316E-06 1.40716E-18 5.97980E-19
 -1      2934 9.54954E-05-2.53495E-05-3.00643E-05 2.14820E-06 1.22555E-18 9.06082E-19
 -1      2935 1.25841E-04-1.99057E-05-4.57547E-05 1.12778E-05-5.42948E-19-6.94302E-19
 -1      2936 4.07868E-05-1.17183E-05-1.18006E-05-1.84718E-05 7.90573E-19 2.74756E-18
 -1      2937 9.59375E-05-4.20606E-05-2.24966E-05 3.19624E-05-1.34911E-18-1.11327E-18
 -1      2938 1.07662E-04-5.21418E-05-2.34575E-05 3.55383E-05 6.58727E-19 9.15484E-19
 -1      2939 6.04789E-05-2.12069E-05-1.61961E-05 2.58798E-05-2.08333E-18-2.72533E-19
 -1      2940 9.09106E-05-4.38500E-05-1.98081E-05-4.09854E-05 1.88274E-18 1.57548E-18
 -1      2941 1.30271E-04-5.78273E-05-3.09664E-05 1.85652E-05 5.51101E-19 1.45356E-18
 -1      2942 8.35769E-05-3.47753E-05-2.05354E-05-3.26118E-05-1.92732E-18-1.66527E-18
 -1      2943 6.59541E-05-2.37580E-05-1.73682E-05-3.03126E-05-1.22735E-18-1.17060E-18
 -1      2944 9.21498E-05-1.77086E-05-3.18818E-05-3.98771E-06 1.99899E-19-1.61559E-18
 -1      2945 9.13709E-05-1.63061E-05-3.21932E-05-5.03770E-06 1.94934E-19-1.81792E-18
 -1      2946 9.19769E-05-1.71501E-05-3.20989E-05-5.83345E-06-6.62653E-20-1.82833E-18
 -1      2947 1.35024E-04-3.93815E-05-4.11876E-05 7.99395E-06 3.37437E-19-2.15633E-18
 -1      2948 9.52284E-05-2.85303E-05-2.85851E-05 1.17476E-08 2.43837E-18-4.00220E-18
 -1      2949 9.52317E-05-2.85342E-05-2.85845E-05 1.09593E-08 3.87932E-18-4.38217E-18
 -1      2950 9.52218E-05-2.85119E-05-2.85897E-05 1.57882E-08 1.47219E-18-3.52753E-18
 -1      2951 4.67010E-05-1.79572E-05-1.18134E-05-2.24984E-05-8.82291E-19-2.24654E-18
 -1      2952 1.34314E-04-3.25268E-05-4.38731E-05-1.05994E-05-2.05861E-18 1.55378E-18
 -1      2953 9.52360E-05-2.85411E-05-2.85835E-05-9.15568E-09 8.66147E-19 2.44471E-18
 -1      2954 1.21324E-04-5.61655E-05-2.77702E-05-2.61017E-05 1.88724E-18 3.68221E-19
 -1      2955 9.52361E-05-2.85414E-05-2.85836E-05 9.53234E-09 3.17710E-18-4.63342E-18
 -1      2956 9.52389E-05-2.85457E-05-2.85827E-05 6.91549E-09 2.93444E-18-4.76551E-18
 -1      2957 9.52312E-05-2.85250E-05-2.85882E-05 1.59939E-08 2.87749E-18-4.73354E-18
 -1      2958 3.35126E-05-9.80372E-06-9.74287E-06 2.88708E-06 4.62116E-19-2.40854E-18
 -1      2959 9.52415E-05-2.85522E-05-2.85812E-05 3.71492E-09 3.02205E-18-3.53298E-18
 -1      2960 9.52428E-05-2.85556E-05-2.85802E-05 5.19435E-10 2.17491E-18 1.27644E-19
 -1      2961 9.52434E-05-2.85511E-05-2.85824E-05 4.08252E-09 1.15835E-18 1.49193E-18
 -1      2962 9.52387E-05-2.85390E-05-2.85856E-05 1.12121E-08 1.78586E-18-3.67910E-18
 -1      2963 1.19112E-04-8.85731E-06-4.76649E-05 1.98811E-06-1.96130E-18 3.61498E-19
 -1      2964 6.07489E-05-2.62043E-05-1.42692E-05-3.75319E-05 1.69110E-18 1.17356E-18
 -1      2965 8.98325E-05-1.42160E-05-3.24286E-05-1.87127E-06 8.83040E-19-1.58149E-18
 -1      2966 9.00816E-05-1.45323E-05-3.23988E-05-2.74734E-06 6.32237E-19-1.72161E-18
 -1      2967 9.13075E-05-1.65111E-05-3.20400E-05-2.66689E-06 5.08668E-19-1.62730E-18
 -1      2968 9.07808E-05-1.57850E-05-3.21270E-05-1.27977E-06 8.63566E-19-1.50703E-18
 -1      2969 8.96487E-05-4.20259E-05-1.98230E-05-3.42030E-05-2.81056E-18-1.99508E-18
 -1      2970 4.56055E-05-1.62194E-05-1.19312E-05 2.63990E-05 7.00761E-19-1.42376E-18
 -1      2971 1.24121E-04-1.42106E-05-4.75427E-05-8.92208E-06-3.01904E-18 1.51537E-18
 -1      2972 9.54506E-05-2.61387E-05-2.97026E-05 3.79846E-07 1.02690E-18 7.84182E-19
 -1      2973 9.55482E-05-2.57757E-05-2.98875E-05 1.33099E-06 1.02743E-18 8.42311E-19
 -1      2974 9.54231E-05-2.50715E-05-3.01660E-05 1.71132E-06 1.13104E-18 5.32054E-19
 -1      2975 9.54109E-05-2.57453E-05-2.98648E-05 1.13780E-07 1.09563E-18 3.67513E-19
 -1      2976 9.49090E-05-2.28065E-05-3.09061E-05 4.09039E-06 1.46009E-18 2.05569E-19
 -1      2977 9.43246E-05-2.16542E-05-3.11524E-05 4.30134E-06 1.53259E-18-6.79483E-20
 -1      2978 9.51029E-05-2.36858E-05-3.05918E-05 2.87896E-06 1.28358E-18 2.45397E-19
 -1      2979 9.37354E-05-2.06341E-05-3.13339E-05 3.98938E-06 1.49770E-18-2.41954E-19
 -1      2980 9.50001E-05-2.32285E-05-3.07400E-05-3.34043E-06-4.44229E-19-1.19935E-18
 -1      2981 9.52154E-05-2.43097E-05-3.04033E-05-2.09782E-06-4.21873E-19-1.14596E-18
 -1      2982 1.33149E-04-4.57453E-05-3.79689E-05-4.78327E-06-8.54074E-19 2.19090E-18
 -1      2983 1.33857E-04-5.11586E-05-3.53294E-05 1.16191E-06-3.58639E-19 2.28577E-18
 -1      2984 9.55487E-05-2.52534E-05-3.01109E-05-1.15453E-06-4.03316E-19-8.94399E-19
 -1      2985 9.56309E-05-2.59560E-05-2.98710E-05-2.43235E-07-2.08079E-19-9.21113E-19
 -1      2986 9.51480E-05-2.40625E-05-3.04633E-05-1.67178E-06-2.39019E-19-9.56198E-19
 -1      2987 9.58009E-05-2.65735E-05-2.96543E-05 4.69152E-07-1.16830E-19-8.49720E-19
 -1      2988 9.58512E-05-2.70552E-05-2.94900E-05 1.10273E-06-8.61116E-20-9.35426E-19
 -1      2989 9.56455E-05-2.57763E-05-2.99466E-05 2.80411E-08-1.17577E-19-8.01064E-19
 -1      2990 9.59577E-05-2.74867E-05-2.93323E-05 1.61676E-06-2.03533E-19-8.04334E-19
 -1      2991 9.60364E-05-2.78560E-05-2.92229E-05 2.03369E-06-2.81127E-19-9.80894E-19
 -1      2992 9.59187E-05-2.69545E-05-2.95618E-05 1.30277E-06-9.85264E-20-8.80812E-19
 -1      2993 9.61506E-05-2.82029E-05-2.91096E-05 2.38512E-06-2.00004E-19-8.33827E-19
 -1      2994 9.62909E-05-2.85361E-05-2.90388E-05 2.62811E-06-1.96361E-19-8.60679E-19
 -1      2995 9.61397E-05-2.78406E-05-2.92789E-05 2.21574E-06-1.77819E-19-4.00853E-19
 -1      2996 9.64685E-05-2.88739E-05-2.89583E-05 2.84119E-06-1.10005E-19-6.99288E-19
 -1      2997 9.66930E-05-2.92286E-05-2.89141E-05 2.92978E-06 4.42288E-20-4.91169E-19
 -1      2998 9.64309E-05-2.86178E-05-2.90727E-05 2.82912E-06-5.16042E-20-3.57411E-19
 -1      2999 9.69832E-05-2.96171E-05-2.88588E-05 3.00814E-06 2.71889E-19-3.53071E-19
 -1      3000 9.73090E-05-3.00351E-05-2.88338E-05 2.93879E-06 2.05286E-19 1.22366E-21
 -1      3001 9.68961E-05-2.94335E-05-2.89250E-05 3.17415E-06 3.10536E-19 1.81769E-19
 -1      3002 9.77555E-05-3.05166E-05-2.88012E-05 2.86210E-06 2.95217E-20 2.45945E-19
 -1      3003 9.81903E-05-3.10186E-05-2.87929E-05 2.61150E-06-2.88895E-20 5.30640E-19
 -1      3004 9.76285E-05-3.04031E-05-2.88263E-05 3.23785E-06 3.66894E-19 2.33281E-19
 -1      3005 9.88231E-05-3.16088E-05-2.87869E-05 2.33578E-06-2.42098E-19 7.75087E-19
 -1      3006 9.93549E-05-3.21800E-05-2.87989E-05 1.86839E-06-3.44406E-19 5.46894E-19
 -1      3007 9.87043E-05-3.15958E-05-2.87790E-05 2.95807E-06 1.20799E-21 8.99495E-19
 -1      3008 1.00172E-04-3.28481E-05-2.88309E-05 1.33238E-06-3.13911E-19 9.23512E-19
 -1      3009 1.00753E-04-3.34179E-05-2.88733E-05 6.15935E-07 1.55047E-20 9.28024E-19
 -1      3010 1.00157E-04-3.30019E-05-2.88001E-05 2.22688E-06-6.81099E-20 1.33569E-18
 -1      3011 1.01693E-04-3.40610E-05-2.89631E-05-2.38869E-07 8.86841E-20 9.65654E-19
 -1      3012 1.02222E-04-3.44825E-05-2.90516E-05-1.20471E-06-9.44971E-20 9.49258E-19
 -1      3013 1.01930E-04-3.44797E-05-2.89239E-05 9.12412E-07 1.19525E-19 1.26038E-18
 -1      3014 1.03131E-04-3.49048E-05-2.92247E-05-2.38970E-06-3.80083E-19 7.20747E-19
 -1      3015 1.03452E-04-3.49537E-05-2.93775E-05-3.52828E-06-4.52154E-19 3.24232E-19
 -1      3016 1.03813E-04-3.56971E-05-2.92004E-05-1.08157E-06-4.36292E-19 7.07155E-19
 -1      3017 1.04073E-04-3.48779E-05-2.96574E-05-4.93178E-06-6.44427E-19 3.74078E-19
 -1      3018 1.04010E-04-3.43039E-05-2.98852E-05-6.03798E-06-7.15443E-19 4.40534E-19
 -1      3019 1.05396E-04-3.61107E-05-2.96855E-05-3.69545E-06-6.98262E-19 8.34421E-19
 -1      3020 1.04043E-04-3.34615E-05-3.02763E-05-7.33422E-06-6.05733E-19 4.23918E-19
 -1      3021 1.03492E-04-3.21314E-05-3.05709E-05-8.05121E-06-6.93772E-19 5.26092E-19
 -1      3022 1.06101E-04-3.50738E-05-3.04139E-05-6.52597E-06-7.82948E-19 9.43598E-19
 -1      3023 1.02769E-04-3.04611E-05-3.10410E-05-8.69715E-06-6.36874E-19 5.17693E-19
 -1      3024 1.01826E-04-2.85510E-05-3.13630E-05-8.59541E-06-3.74915E-19 7.56164E-19
 -1      3025 1.05421E-04-3.21542E-05-3.13579E-05-8.69437E-06-5.30754E-19 9.44991E-19
 -1      3026 1.00554E-04-2.64323E-05-3.18274E-05-8.03038E-06-4.36219E-19 3.67655E-19
 -1      3027 9.95579E-05-2.45275E-05-3.21038E-05-6.84272E-06-3.81165E-19 4.05280E-19
 -1      3028 1.03388E-04-2.77309E-05-3.23949E-05-9.00391E-06-5.68039E-19 3.00402E-19
 -1      3029 9.83802E-05-2.27962E-05-3.24333E-05-4.86162E-06-3.70563E-19 6.99492E-19
 -1      3030 9.78220E-05-2.17401E-05-3.25757E-05-2.75219E-06-6.68862E-19 5.47362E-19
 -1      3031 1.00839E-04-2.31766E-05-3.32839E-05-6.50079E-06-3.16309E-19 1.58761E-19
 -1      3032 9.75118E-05-2.12962E-05-3.26594E-05 3.50943E-08-8.37032E-19 5.28400E-19
 -1      3033 9.76101E-05-2.15481E-05-3.26293E-05 2.36069E-06-6.45464E-19 3.87628E-19
 -1      3034 9.93205E-05-2.06411E-05-3.37420E-05-1.52300E-06-7.32291E-19 8.05740E-20
 -1      3035 9.84170E-05-2.26188E-05-3.24367E-05 5.01946E-06-2.84649E-19 4.26422E-19
 -1      3036 9.92255E-05-2.41456E-05-3.22312E-05 6.76405E-06 2.33930E-19 4.98863E-19
 -1      3037 9.96815E-05-2.13318E-05-3.35727E-05 4.16945E-06-2.67639E-19 2.84649E-19
 -1      3038 1.00493E-04-2.60968E-05-3.18365E-05 8.17223E-06 3.79906E-19 4.84679E-19
 -1      3039 1.01520E-04-2.80724E-05-3.15389E-05 8.91651E-06 4.63784E-19 5.71544E-19
 -1      3040 1.01860E-04-2.49386E-05-3.29577E-05 8.17271E-06 3.84157E-19 1.03003E-18
 -1      3041 1.02602E-04-3.00530E-05-3.10643E-05 8.94742E-06 2.51961E-19 6.90260E-19
 -1      3042 1.03404E-04-3.17415E-05-3.07541E-05 8.69094E-06 5.33861E-19 8.17188E-19
 -1      3043 1.04287E-04-2.95552E-05-3.19906E-05 9.50475E-06 7.85069E-19 3.41715E-19
 -1      3044 1.03784E-04-3.30463E-05-3.03156E-05 7.73824E-06 3.43567E-19 7.11309E-19
 -1      3045 1.04125E-04-3.40337E-05-3.00542E-05 6.85477E-06-1.42850E-20 7.73592E-19
 -1      3046 1.05764E-04-3.33898E-05-3.09798E-05 8.32671E-06 3.31238E-19 3.10529E-19
 -1      3047 1.03790E-04-3.44997E-05-2.97126E-05 5.51162E-06-1.73594E-19 8.08443E-19
 -1      3048 1.03673E-04-3.47643E-05-2.95240E-05 4.41504E-06 1.41081E-19 7.38681E-19
 -1      3049 1.05774E-04-3.54296E-05-3.01258E-05 5.84110E-06-8.37452E-20 6.61352E-19
 -1      3050 1.02869E-04-3.45680E-05-2.92935E-05 3.14017E-06 3.31232E-19 8.88760E-19
 -1      3051 1.02442E-04-3.43178E-05-2.91754E-05 2.12288E-06 2.69062E-19 1.13912E-18
 -1      3052 1.04580E-04-3.57242E-05-2.95062E-05 3.13527E-06 2.27758E-19 8.84488E-19
 -1      3053 1.01466E-04-3.37533E-05-2.90389E-05 1.13854E-06 5.05062E-19 1.66610E-18
 -1      3054 1.00903E-04-3.32415E-05-2.89743E-05 3.40621E-07 5.55025E-19 1.63539E-18
 -1      3055 1.02756E-04-3.48485E-05-2.91138E-05 8.84240E-07 8.07570E-19 1.69447E-18
 -1      3056 9.99704E-05-3.25593E-05-2.89042E-05-3.11459E-07-2.32788E-19 1.85668E-18
 -1      3057 9.94027E-05-3.19813E-05-2.88737E-05-8.59096E-07-1.12692E-19 1.94385E-18
 -1      3058 1.00824E-04-3.34393E-05-2.88960E-05-6.93231E-07 5.60947E-19 2.08561E-18
 -1      3059 9.86228E-05-3.13390E-05-2.88442E-05-1.22370E-06-4.84369E-19 1.97845E-18
 -1      3060 9.81259E-05-3.08133E-05-2.88316E-05-1.54761E-06-6.25634E-20 1.99925E-18
 -1      3061 9.91051E-05-3.19604E-05-2.87937E-05-1.63680E-06-2.58543E-19 2.06909E-18
 -1      3062 9.75340E-05-3.02898E-05-2.88230E-05-1.69869E-06-2.42610E-19 1.67288E-18
 -1      3063 9.71369E-05-2.98698E-05-2.88170E-05-1.84966E-06-5.15456E-19 1.69095E-18
 -1      3064 9.77374E-05-3.06709E-05-2.87576E-05-2.08317E-06-2.91114E-19 3.16001E-18
 -1      3065 9.67196E-05-2.94845E-05-2.88163E-05-1.85971E-06-3.20791E-19 1.39363E-18
 -1      3066 9.64220E-05-2.91795E-05-2.88106E-05-1.88961E-06 1.76113E-19 1.69773E-18
 -1      3067 9.67366E-05-2.96748E-05-2.87522E-05-2.18928E-06-2.21127E-19 2.01459E-18
 -1      3068 9.61469E-05-2.89206E-05-2.88108E-05-1.81538E-06 1.75783E-19 1.72269E-18
 -1      3069 9.59344E-05-2.87177E-05-2.88027E-05-1.76850E-06-3.38580E-19 1.25357E-18
 -1      3070 9.60529E-05-2.89745E-05-2.87561E-05-2.08476E-06-2.03582E-19 1.22101E-18
 -1      3071 9.57653E-05-2.85607E-05-2.88005E-05-1.65089E-06-4.40588E-19 1.73380E-18
 -1      3072 9.56192E-05-2.84384E-05-2.87896E-05-1.56128E-06-5.23305E-19 1.90229E-18
 -1      3073 9.56162E-05-2.85262E-05-2.87583E-05-1.86500E-06 6.19007E-20 1.43359E-18
 -1      3074 9.55239E-05-2.83561E-05-2.87843E-05-1.42777E-06-1.03846E-18 1.94503E-18
 -1      3075 9.54266E-05-2.82923E-05-2.87712E-05-1.31970E-06-1.43257E-18 1.66492E-18
 -1      3076 9.53576E-05-2.82716E-05-2.87547E-05-1.59536E-06-2.20441E-19 1.94274E-18
 -1      3077 9.53793E-05-2.82605E-05-2.87631E-05-1.18742E-06-2.07636E-18 2.18253E-18
 -1      3078 9.53160E-05-2.82359E-05-2.87488E-05-1.07684E-06-1.21705E-18 1.86064E-18
 -1      3079 9.52190E-05-2.81535E-05-2.87445E-05-1.31766E-06-1.66410E-18 2.57770E-18
 -1      3080 9.52978E-05-2.82356E-05-2.87390E-05-9.55483E-07-8.61650E-19 1.83793E-18
 -1      3081 9.52575E-05-2.82352E-05-2.87245E-05-8.52003E-07-6.01046E-20 7.54801E-19
 -1      3082 9.51562E-05-2.81245E-05-2.87291E-05-1.05649E-06-1.33603E-18 4.43083E-18
 -1      3083 9.52555E-05-2.82524E-05-2.87139E-05-7.46230E-07 8.64667E-19-3.47003E-19
 -1      3084 9.52302E-05-2.82654E-05-2.87001E-05-6.54902E-07 1.25540E-18-1.28145E-19
 -1      3085 9.51379E-05-2.81482E-05-2.87105E-05-8.24550E-07 1.51562E-19 1.71666E-18
 -1      3086 9.52362E-05-2.82906E-05-2.86894E-05-5.66163E-07 1.15791E-18-5.82017E-19
 -1      3087 9.52205E-05-2.83098E-05-2.86769E-05-4.88959E-07 5.51127E-19-7.94067E-19
 -1      3088 9.51430E-05-2.81991E-05-2.86906E-05-6.26884E-07 7.46521E-19-2.23107E-19
 -1      3089 9.52295E-05-2.83371E-05-2.86669E-05-4.16770E-07 7.58286E-19-4.42305E-19
 -1      3090 9.52198E-05-2.83578E-05-2.86559E-05-3.53721E-07 8.34245E-19 1.82177E-19
 -1      3091 9.51587E-05-2.82604E-05-2.86709E-05-4.63787E-07 7.42376E-19 4.95835E-20
 -1      3092 9.52288E-05-2.83837E-05-2.86468E-05-2.96540E-07 6.22917E-19-1.84490E-19
 -1      3093 9.52229E-05-2.84035E-05-2.86375E-05-2.46567E-07 6.98839E-19-2.66244E-19
 -1      3094 9.51772E-05-2.83219E-05-2.86523E-05-3.32837E-07 6.41063E-19 7.13305E-19
 -1      3095 9.52307E-05-2.84263E-05-2.86296E-05-2.02384E-07 7.63531E-19-7.59973E-19
 -1      3096 9.52270E-05-2.84438E-05-2.86219E-05-1.63875E-07 3.62582E-19 1.24833E-19
 -1      3097 9.51945E-05-2.83781E-05-2.86356E-05-2.30257E-07 5.29758E-19-8.66035E-19
 -1      3098 9.52332E-05-2.84630E-05-2.86151E-05-1.30603E-07-2.36206E-20 2.54619E-19
 -1      3099 9.52309E-05-2.84779E-05-2.86088E-05-1.01806E-07 1.85893E-19-2.85283E-19
 -1      3100 9.52088E-05-2.84264E-05-2.86211E-05-1.51817E-07 4.06988E-19-1.29373E-18
 -1      3101 9.52353E-05-2.84934E-05-2.86031E-05-7.75371E-08 6.08081E-19-2.51250E-20
 -1      3102 9.52338E-05-2.85057E-05-2.85980E-05-5.64988E-08 1.23076E-18 1.71482E-19
 -1      3103 9.52196E-05-2.84664E-05-2.86085E-05-9.35692E-08 1.03503E-18 4.55128E-20
 -1      3104 8.96495E-05-2.21973E-05-2.89181E-05-7.38067E-06-5.05887E-20-6.65279E-19
 -1      3105 9.05980E-05-2.30291E-05-2.89892E-05-6.65359E-06 1.66471E-19-4.97997E-19
 -1      3106 9.18009E-05-2.38812E-05-2.91128E-05-6.19470E-06 1.12771E-19-1.65328E-19
 -1      3107 9.24221E-05-2.44809E-05-2.91378E-05-5.54436E-06 3.31270E-19-1.67155E-19
 -1      3108 9.01918E-05-2.27443E-05-2.88685E-05-5.48675E-06 3.34186E-19-1.04014E-18
 -1      3109 8.21104E-05-1.75201E-05-2.77019E-05-1.01508E-05 3.92671E-19-7.44989E-19
 -1      3110 8.40954E-05-1.86716E-05-2.81018E-05-9.17139E-06 8.23847E-20-8.18027E-19
 -1      3111 7.64827E-05-1.51935E-05-2.62705E-05-1.19097E-05 1.43576E-19-4.63138E-19
 -1      3112 7.89155E-05-1.61372E-05-2.69924E-05-1.07225E-05 4.12005E-19-6.89581E-19
 -1      3113 7.78775E-05-1.54085E-05-2.66425E-05-7.37470E-06 2.48794E-19-7.83494E-19
 -1      3114 6.91924E-05-1.37434E-05-2.36723E-05-1.46393E-05 1.63716E-20-8.41448E-19
 -1      3115 7.18896E-05-1.39002E-05-2.49503E-05-1.28470E-05 1.28378E-19-4.85436E-19
 -1      3116 7.03706E-05-1.25572E-05-2.45725E-05-8.06599E-06 2.08752E-19-4.53434E-19
 -1      3117 8.30289E-05-3.69258E-05-1.92466E-05-3.85392E-05 2.00064E-18 8.73079E-19
 -1      3118 9.69156E-05-4.52761E-05-2.24695E-05-3.63641E-05 2.17269E-18 1.56426E-18
 -1      3119 8.22075E-05-1.73697E-05-2.78657E-05 9.88091E-06-6.57331E-19 4.82750E-19
 -1      3120 8.01113E-05-1.63471E-05-2.73361E-05 1.11659E-05-1.00322E-18-3.71113E-19
 -1      3121 8.95828E-05-2.20125E-05-2.89984E-05 6.55643E-06 8.44568E-19-7.28887E-20
 -1      3122 8.85167E-05-2.10740E-05-2.89142E-05 7.44927E-06 1.54522E-19 2.51111E-19
 -1      3123 8.16433E-05-3.78073E-05-1.83700E-05 3.99413E-05 3.73647E-19 8.04258E-19
 -1      3124 6.78398E-05-3.33953E-05-1.43830E-05 4.27725E-05 1.37325E-19 1.85924E-19
 -1      3125 8.65410E-05-1.98400E-05-2.86424E-05 8.08331E-06-9.00446E-19 9.67741E-19
 -1      3126 8.49910E-05-1.87618E-05-2.83999E-05 9.13879E-06-5.69739E-19 4.18292E-19
 -1      3127 8.08378E-05-1.65454E-05-2.74462E-05 7.10643E-06-6.93775E-19 1.11372E-20
 -1      3128 8.54531E-05-1.92536E-05-2.82983E-05 6.15213E-06 3.08296E-19-6.86530E-19
 -1      3129 9.15651E-05-2.36818E-05-2.91213E-05 5.30209E-06 4.95354E-19 1.26147E-19
 -1      3130 9.08991E-05-2.29689E-05-2.91172E-05 6.02256E-06 7.92193E-19-3.94690E-19
 -1      3131 8.86342E-05-2.14995E-05-2.87224E-05 5.24792E-06 8.73688E-19-1.45280E-18
 -1      3132 9.29540E-05-2.50304E-05-2.91309E-05 4.17725E-06 6.41598E-19 1.50971E-18
 -1      3133 9.25128E-05-2.44606E-05-2.91653E-05 4.80110E-06 3.57599E-19 9.42445E-19
 -1      3134 9.08413E-05-2.33003E-05-2.89135E-05 4.37591E-06-2.68131E-20-4.25216E-19
 -1      3135 9.38506E-05-2.60276E-05-2.90817E-05 3.24391E-06 2.58845E-18 1.68947E-18
 -1      3136 9.35892E-05-2.56119E-05-2.91310E-05 3.74680E-06 1.48448E-18 1.38869E-18
 -1      3137 9.23799E-05-2.47150E-05-2.89778E-05 3.55288E-06 8.94915E-19-6.87269E-19
 -1      3138 9.44157E-05-2.67507E-05-2.90098E-05 2.48520E-06 2.03103E-18 3.54750E-18
 -1      3139 9.42686E-05-2.64517E-05-2.90611E-05 2.88326E-06 2.83594E-18 3.45905E-18
 -1      3140 9.34032E-05-2.57708E-05-2.89716E-05 2.82568E-06 1.63647E-18-3.87476E-20
 -1      3141 9.47645E-05-2.72693E-05-2.89340E-05 1.87934E-06 1.78043E-18 2.20356E-18
 -1      3142 9.46872E-05-2.70560E-05-2.89811E-05 2.19003E-06 1.64888E-18 3.26509E-18
 -1      3143 9.40740E-05-2.65454E-05-2.89323E-05 2.20605E-06 2.33497E-18 2.35493E-18
 -1      3144 9.49754E-05-2.76393E-05-2.88634E-05 1.40290E-06 1.02320E-18 2.07499E-18
 -1      3145 9.49388E-05-2.74877E-05-2.89040E-05 1.64253E-06 1.31154E-18 2.31677E-18
 -1      3146 9.45087E-05-2.71086E-05-2.88806E-05 1.69357E-06 1.70468E-18 2.51638E-18
 -1      3147 9.50952E-05-2.78927E-05-2.88047E-05 1.04886E-06-1.08404E-19 1.20480E-18
 -1      3148 9.50822E-05-2.77886E-05-2.88369E-05 1.22499E-06 9.52526E-19 1.75418E-18
 -1      3149 9.47821E-05-2.75082E-05-2.88289E-05 1.28791E-06 6.48172E-19 1.51487E-18
 -1      3150 9.51683E-05-2.80853E-05-2.87525E-05 7.60017E-07-6.88286E-19 2.44037E-19
 -1      3151 9.51662E-05-2.80066E-05-2.87800E-05 9.00839E-07-5.09083E-19 8.00321E-19
 -1      3152 9.49572E-05-2.77981E-05-2.87807E-05 9.64715E-07 2.08885E-19 1.92158E-18
 -1      3153 9.52091E-05-2.82237E-05-2.87099E-05 5.40412E-07-1.55288E-18 1.03577E-18
 -1      3154 9.52127E-05-2.81670E-05-2.87317E-05 6.46334E-07-1.00785E-18 2.99354E-19
 -1      3155 9.50712E-05-2.80150E-05-2.87374E-05 7.04235E-07-2.08655E-19 1.01930E-18
 -1      3156 9.52306E-05-2.83235E-05-2.86758E-05 3.75071E-07-2.03286E-18-2.21658E-20
 -1      3157 9.52364E-05-2.82824E-05-2.86928E-05 4.53976E-07-1.82088E-18 1.12734E-18
 -1      3158 9.51422E-05-2.81723E-05-2.87009E-05 5.03437E-07-1.09668E-18 1.46066E-18
 -1      3159 9.52411E-05-2.83957E-05-2.86489E-05 2.52093E-07-1.60268E-18-1.07818E-19
 -1      3160 9.52471E-05-2.83658E-05-2.86620E-05 3.10184E-07-2.38376E-18-3.52471E-19
 -1      3161 9.51857E-05-2.82868E-05-2.86708E-05 3.50715E-07-2.02809E-18 7.68051E-19
 -1      3162 9.52452E-05-2.84460E-05-2.86288E-05 1.65676E-07-6.33841E-19-1.27879E-19
 -1      3163 9.52504E-05-2.84249E-05-2.86385E-05 2.06340E-07-9.92651E-19-7.81927E-19
 -1      3164 9.52114E-05-2.83686E-05-2.86470E-05 2.38470E-07-1.19495E-18-1.72195E-18
 -1      3165 9.52462E-05-2.84850E-05-2.86124E-05 9.93836E-08-1.42266E-18 1.11879E-18
 -1      3166 9.52506E-05-2.84686E-05-2.86201E-05 1.30079E-07-6.23341E-19 7.01386E-20
 -1      3167 9.52264E-05-2.84283E-05-2.86278E-05 1.55370E-07-7.14356E-19-3.39176E-19
 -1      3168 9.52455E-05-2.85139E-05-2.85996E-05 5.26825E-08-8.15834E-19 1.03367E-18
 -1      3169 9.52489E-05-2.85014E-05-2.86054E-05 7.41185E-08-1.26788E-18 8.27279E-19
 -1      3170 9.52349E-05-2.84736E-05-2.86121E-05 9.33643E-08-1.16394E-18-8.24048E-20
 -1      3171 9.52443E-05-2.85358E-05-2.85895E-05 2.14102E-08 9.19079E-19 4.44215E-19
 -1      3172 9.52468E-05-2.85263E-05-2.85941E-05 3.55576E-08-1.29453E-19 7.73408E-19
 -1      3173 9.52392E-05-2.85075E-05-2.85995E-05 4.96288E-08-5.97822E-19-1.33649E-18
 -1      3174 1.14216E-04-5.40531E-05-2.60190E-05 2.93828E-05 1.10765E-18 1.08236E-18
 -1      3175 1.01926E-04-4.74441E-05-2.30679E-05 3.41186E-05 9.17496E-19 1.16703E-18
 -1      3176 4.70638E-05-9.37192E-06-1.57535E-05 9.25596E-06-1.67927E-18 1.33365E-18
 -1      3177 4.29036E-05-7.68349E-06-1.46533E-05-6.62496E-07-5.13864E-19 1.69396E-18
 -1      3178 3.99299E-05-9.84921E-06-1.19108E-05-1.17701E-05-1.57389E-19-2.66095E-18
 -1      3179 5.14722E-05-1.66830E-05-1.46115E-05-2.20027E-05-1.03079E-18-1.79772E-18
 -1      3180 5.67629E-05-1.60197E-05-1.70927E-05-2.11459E-05-5.53748E-19-1.63075E-18
 -1      3181 9.52234E-05-2.85111E-05-2.85908E-05-2.27642E-08 2.33316E-18 7.51584E-19
 -1      3182 9.52179E-05-2.85041E-05-2.85919E-05-2.18239E-08 2.72386E-18 1.05218E-18
 -1      3183 9.52119E-05-2.84949E-05-2.85930E-05-1.88796E-08 2.32788E-18 5.74766E-19
 -1      3184 9.52076E-05-2.84896E-05-2.85937E-05-1.58330E-08 1.56863E-18 7.78756E-19
 -1      3185 9.52090E-05-2.84828E-05-2.85966E-05-2.83584E-08 2.27807E-18 7.08897E-19
 -1      3186 9.24005E-05-1.77294E-05-3.20245E-05-6.33979E-06-1.57215E-19-1.74202E-18
 -1      3187 9.31057E-05-1.87650E-05-3.18890E-05-6.84664E-06-3.76035E-19-1.66609E-18
 -1      3188 9.38579E-05-2.03025E-05-3.15030E-05-5.79814E-06-4.30581E-19-1.43076E-18
 -1      3189 9.30855E-05-1.90648E-05-3.16952E-05-5.03014E-06-1.84703E-19-1.58700E-18
 -1      3190 1.31067E-04-5.36684E-05-3.29073E-05-7.12705E-06 1.21227E-18-2.17007E-18
 -1      3191 1.31772E-04-4.97727E-05-3.55906E-05-6.03772E-08 1.14929E-18-2.32889E-18
 -1      3192 1.13790E-04-1.07644E-05-4.44991E-05 5.12428E-06-9.97805E-19-9.35032E-19
 -1      3193 1.13588E-04-9.26633E-06-4.49938E-05-1.71487E-06-1.80683E-18 6.82126E-20
 -1      3194 1.26477E-04-2.71587E-05-4.31008E-05-1.25832E-05-1.89894E-18 1.98743E-18
 -1      3195 1.30867E-04-3.67289E-05-4.04110E-05-1.04620E-05-1.42757E-18 2.04585E-18
 -1      3196 9.51418E-05-2.59074E-05-2.96771E-05-1.57512E-06 7.68145E-19 7.69686E-20
 -1      3197 9.52433E-05-2.56368E-05-2.98212E-05-7.67316E-07 8.60631E-19-1.02360E-20
 -1      3198 9.14481E-05-3.45933E-05-2.40089E-05 3.08321E-05-1.86485E-18-6.17487E-19
 -1      3199 6.89995E-05-1.38302E-05-2.36919E-05 1.54069E-05-1.80347E-18-9.70038E-19
 -1      3200 6.66949E-05-1.49015E-05-2.19515E-05 1.80287E-05-2.64097E-18-7.97932E-19
 -1      3201 5.85610E-05-2.00058E-05-1.60568E-05-3.08257E-05 1.42799E-18 1.49957E-18
 -1      3202 7.03553E-05-2.90300E-05-1.76168E-05-3.72508E-05 1.37939E-18 6.19340E-19
 -1      3203 7.95624E-05-3.11233E-05-2.04184E-05-3.30672E-05 1.79867E-18 5.80323E-19
 -1      3204 1.13614E-04-5.21818E-05-2.57883E-05-2.83408E-05 2.43260E-18 8.75031E-19
 -1      3205 1.24865E-04-5.59597E-05-2.99480E-05-1.82962E-05 1.85985E-18-8.65774E-19
 -1      3206 1.24188E-04-5.27435E-05-3.06348E-05-1.14934E-05 1.34427E-18-1.21270E-18
 -1      3207 7.63617E-05-1.50653E-05-2.63711E-05 1.21769E-05-1.42121E-18-2.63431E-19
 -1      3208 7.40056E-05-1.46191E-05-2.54149E-05 1.38133E-05-1.47413E-18-9.16397E-19
 -1      3209 6.59716E-05-1.14460E-05-2.31470E-05 9.94057E-06-1.89471E-18-1.50466E-18
 -1      3210 7.44716E-05-1.36738E-05-2.58903E-05 8.16860E-06-1.33628E-18-2.00115E-19
 -1      3211 5.48732E-05-1.84642E-05-1.53440E-05 2.90278E-05 6.39113E-19-1.23889E-18
 -1      3212 4.60989E-05-1.19081E-05-1.42696E-05 1.88887E-05 7.74228E-19-1.47130E-18
 -1      3213 6.24253E-05-2.64741E-05-1.49200E-05 3.76724E-05 5.01973E-19-6.32310E-19
 -1      3214 9.52034E-05-2.84816E-05-2.85953E-05 1.28493E-08 9.28039E-19-1.88691E-18
 -1      3215 9.52068E-05-2.84850E-05-2.85951E-05 1.67953E-08 1.50782E-18-1.92216E-18
 -1      3216 1.30801E-04-5.57437E-05-3.25695E-05 1.05428E-05 3.51532E-19 2.33723E-18
 -1      3217 1.23847E-04-5.60944E-05-2.87798E-05 2.06153E-05 1.08807E-18 1.56357E-18
 -1      3218 9.47892E-05-2.60726E-05-2.94521E-05-2.89507E-06 8.26403E-19-6.54707E-20
 -1      3219 9.49595E-05-2.60406E-05-2.95337E-05-2.22551E-06 8.56578E-19 2.48302E-20
 -1      3220 9.48646E-05-2.54712E-05-2.97367E-05-1.65210E-06 8.39790E-19-2.56365E-19
 -1      3221 1.16115E-04-1.20097E-05-4.50216E-05-7.73835E-06-2.72014E-18 7.32022E-19
 -1      3222 1.21891E-04-1.88650E-05-4.44318E-05-1.21274E-05-2.40399E-18 1.44520E-18
 -1      3223 1.19990E-04-2.45026E-05-4.11284E-05-1.20763E-05-1.61752E-18 1.70341E-18
 -1      3224 3.98435E-05-9.22471E-06-1.25895E-05 7.07766E-07 5.43835E-19-1.88687E-18
 -1      3225 4.28924E-05-8.84654E-06-1.41829E-05-1.15226E-05 9.38552E-19 2.55592E-18
 -1      3226 4.89377E-05-1.38431E-05-1.48217E-05-2.40404E-05 1.06628E-18 2.30266E-18
 -1      3227 6.00020E-05-1.72165E-05-1.79274E-05-2.45822E-05 1.11144E-18 1.48675E-18
 -1      3228 9.52366E-05-2.85363E-05-2.85858E-05-1.61165E-08 1.11080E-18 2.51711E-18
 -1      3229 9.52305E-05-2.85237E-05-2.85888E-05-2.11926E-08 1.67460E-18 7.18905E-19
 -1      3230 9.52237E-05-2.85049E-05-2.85935E-05-3.05761E-08 2.25583E-18-8.84793E-20
 -1      3231 9.52364E-05-2.85287E-05-2.85889E-05-2.46599E-08 7.00338E-19 2.29047E-18
 -1      3232 9.15409E-05-1.73005E-05-3.18364E-05 1.58954E-06 1.32902E-18-1.07135E-18
 -1      3233 9.13955E-05-1.70800E-05-3.18603E-05 9.63318E-07 1.13911E-18-1.13051E-18
 -1      3234 1.24428E-04-2.51412E-05-4.26893E-05 1.30944E-05 2.14246E-19-1.22301E-18
 -1      3235 1.18296E-04-1.65159E-05-4.40353E-05 1.09365E-05-4.21928E-19-1.10866E-18
 -1      3236 8.65255E-05-2.00310E-05-2.85145E-05-8.68054E-06-2.42198E-19-8.51423E-19
 -1      3237 8.79254E-05-2.10742E-05-2.86961E-05-7.84995E-06-2.61673E-19-6.98227E-19
 -1      3238 8.73526E-05-2.07468E-05-2.84891E-05-6.19854E-06-3.23767E-20-8.63348E-19
 -1      3239 1.31747E-04-4.27454E-05-3.81321E-05 7.06497E-06 1.17264E-18-2.13736E-18
 -1      3240 1.28450E-04-3.45774E-05-4.07451E-05 1.12025E-05 5.29713E-19-1.69560E-18
 -1      3241 7.60127E-05-2.59110E-05-2.11885E-05 2.98102E-05-2.48181E-18-1.35589E-18
 -1      3242 8.99507E-05-4.07347E-05-2.10624E-05 3.70148E-05 6.71856E-19 1.15975E-18
 -1      3243 7.87849E-05-3.31517E-05-1.92543E-05 3.58679E-05 7.00761E-19 8.58521E-19
 -1      3244 5.89967E-05-1.56105E-05-1.82867E-05 2.12631E-05-2.77112E-18-6.74979E-19
 -1      3245 1.27999E-04-4.02120E-05-3.77170E-05-8.54593E-06-7.68179E-19 2.14291E-18
 -1      3246 1.28834E-04-5.20229E-05-3.29245E-05 4.76196E-06 1.73688E-19 1.82914E-18
 -1      3247 8.33403E-05-1.82486E-05-2.78152E-05-6.81735E-06-2.52017E-20-9.32676E-19
 -1      3248 1.22490E-04-3.03748E-05-3.96624E-05 1.20042E-05 8.30198E-19-9.70673E-19
 -1      3249 9.52369E-05-2.85205E-05-2.85924E-05-3.66964E-08 1.41297E-18 1.09335E-18
 -1      3250 9.29567E-05-1.93830E-05-3.15544E-05 3.54491E-06 1.57168E-18-2.37950E-19
 -1      3251 9.24698E-05-1.86558E-05-3.16496E-05 3.04091E-06 1.49261E-18-4.17866E-19
 -1      3252 9.26590E-05-1.89168E-05-3.16145E-05-2.95985E-06 2.29310E-19-1.35774E-18
 -1      3253 9.31377E-05-1.96673E-05-3.15091E-05-3.53379E-06-2.61459E-20-1.35015E-18
 -1      3254 9.21386E-05-2.41818E-05-2.91005E-05-4.69907E-06 3.83741E-19-4.74217E-19
 -1      3255 9.32332E-05-2.50593E-05-2.92185E-05-5.09472E-06 4.05525E-19 5.71117E-21
 -1      3256 9.36249E-05-2.54321E-05-2.92370E-05-4.50233E-06 6.66396E-19-1.15238E-19
 -1      3257 5.99977E-05-1.31817E-05-1.98705E-05-1.73245E-05-1.35102E-19-1.36902E-18
 -1      3258 5.31777E-05-1.08796E-05-1.77542E-05 1.31923E-05-2.27709E-18 2.28964E-19
 -1      3259 1.27914E-04-4.49895E-05-3.55657E-05 4.67175E-06 1.06000E-18-1.33003E-18
 -1      3260 5.33124E-05-1.10836E-05-1.77608E-05 1.14756E-05 5.93552E-19-1.46478E-18
 -1      3261 4.42575E-05-8.57937E-06-1.48207E-05 8.06829E-06 6.41839E-19-1.65394E-18
 -1      3262 4.84759E-05-8.72428E-06-1.67510E-05-5.20245E-06 2.35905E-19-1.83991E-18
 -1      3263 9.52015E-05-2.84683E-05-2.85996E-05 2.47484E-08 1.97614E-19-1.62920E-18
 -1      3264 9.52120E-05-2.84916E-05-2.85947E-05 2.16506E-08 9.04704E-19-2.16377E-18
 -1      3265 9.52173E-05-2.84975E-05-2.85941E-05 2.36299E-08 1.38958E-18-4.02995E-18
 -1      3266 9.52273E-05-2.85014E-05-2.85970E-05-4.80070E-08 2.04329E-18-3.10633E-19
 -1      3267 9.87756E-05-4.31913E-05-2.35551E-05 3.12040E-05 8.84726E-19 1.26433E-18
 -1      3268 1.18550E-04-5.29541E-05-2.79596E-05 2.08912E-05 1.18683E-18 1.75779E-18
 -1      3269 9.52445E-05-2.85464E-05-2.85847E-05 9.69240E-09 1.28831E-18 6.59594E-19
 -1      3270 5.68418E-05-1.05143E-05-1.95373E-05-1.03774E-05 1.06051E-19-1.50298E-18
 -1      3271 4.99649E-05-9.01997E-06-1.71552E-05-6.48291E-06 3.10762E-19 1.32460E-18
 -1      3272 9.17726E-05-1.76138E-05-3.17928E-05 2.04165E-06 1.35381E-18-8.84745E-19
 -1      3273 9.24364E-05-1.88236E-05-3.15214E-05 1.49258E-06 1.23922E-18-8.79044E-19
 -1      3274 9.20895E-05-1.80898E-05-3.17363E-05 2.62989E-06 1.46837E-18-6.06250E-19
 -1      3275 9.51974E-05-2.84669E-05-2.85985E-05-1.83761E-08 1.37674E-18 3.65054E-19
 -1      3276 9.52036E-05-2.84835E-05-2.85944E-05-1.02108E-08 9.97157E-19-1.31481E-18
 -1      3277 9.52015E-05-2.84807E-05-2.85948E-05-5.78960E-09 7.88420E-19-3.10339E-18
 -1      3278 9.44395E-05-2.59559E-05-2.93542E-05-3.42458E-06 7.66742E-19-1.45954E-19
 -1      3279 9.43505E-05-2.55494E-05-2.94791E-05-2.83396E-06 8.51706E-19-4.53169E-19
 -1      3280 9.41853E-05-2.57842E-05-2.93155E-05-4.01673E-06 9.14559E-19-2.80098E-19
 -1      3281 9.52240E-05-2.85073E-05-2.85932E-05 2.52366E-08 1.68965E-18-5.48072E-18
 -1      3282 9.52298E-05-2.85144E-05-2.85922E-05 2.47837E-08 2.05020E-18-4.92473E-18
 -1      3283 9.52154E-05-2.84852E-05-2.85983E-05 3.27562E-08 1.18281E-18-5.01715E-18
 -1      3284 1.13370E-04-1.47127E-05-4.25830E-05 8.19009E-06-5.92050E-19-1.34268E-18
 -1      3285 1.08095E-04-1.38012E-05-4.04815E-05 5.08796E-06-2.31611E-19-8.09856E-19
 -1      3286 1.12457E-04-1.89400E-05-4.00982E-05 1.03064E-05-2.57022E-19-1.69658E-18
 -1      3287 1.11768E-04-1.33694E-05-4.23644E-05-4.63264E-06-1.68009E-18 2.25668E-19
 -1      3288 9.52380E-05-2.85268E-05-2.85906E-05 2.30826E-08 8.64998E-19-4.10878E-18
 -1      3289 9.52411E-05-2.85335E-05-2.85890E-05 1.95934E-08 5.44125E-19-1.45397E-18
 -1      3290 9.52322E-05-2.85079E-05-2.85958E-05 3.42630E-08 4.83941E-19-3.47216E-18
 -1      3291 9.50133E-05-2.47819E-05-3.00982E-05-1.60624E-07 9.14849E-19-2.34241E-19
 -1      3292 9.52402E-05-2.51870E-05-3.00293E-05 7.68121E-08 1.01756E-18-8.34588E-20
 -1      3293 9.19273E-05-1.78304E-05-3.17683E-05-1.85519E-06 6.46626E-19-1.47323E-18
 -1      3294 9.22577E-05-1.83144E-05-3.17067E-05-2.49545E-06 4.41665E-19-1.53047E-18
 -1      3295 9.32381E-05-2.00440E-05-3.13537E-05-2.09465E-06 2.12510E-19-1.24891E-18
 -1      3296 9.40826E-05-2.14791E-05-3.10865E-05 2.94935E-06 1.35668E-18-2.39063E-19
 -1      3297 9.21648E-05-1.84322E-05-3.15785E-05 6.44278E-07 1.07036E-18-1.12027E-18
 -1      3298 9.13419E-05-1.70115E-05-3.18714E-05 4.71678E-07 1.11327E-18-1.18791E-18
 -1      3299 9.13667E-05-1.70365E-05-3.18682E-05-1.75003E-07 1.01978E-18-1.21892E-18
 -1      3300 9.52004E-05-2.84788E-05-2.85952E-05 1.27395E-09 1.05562E-19-3.63275E-18
 -1      3301 9.52011E-05-2.84791E-05-2.85953E-05 6.07204E-09 5.05154E-19-1.75433E-18
 -1      3302 9.51930E-05-2.84589E-05-2.86000E-05 1.14173E-08 2.42403E-19-3.00999E-18
 -1      3303 9.51915E-05-2.84584E-05-2.85996E-05-4.14296E-09 8.21484E-20-2.42090E-18
 -1      3304 1.05109E-04-4.66058E-05-2.49014E-05-2.88678E-05 2.11965E-18 5.51314E-19
 -1      3305 6.94630E-05-2.75898E-05-1.78493E-05 3.47524E-05 8.31866E-19 4.33575E-20
 -1      3306 6.30541E-05-2.38913E-05-1.64134E-05 3.31145E-05 8.55927E-19-5.43848E-19
 -1      3307 6.27953E-05-1.97446E-05-1.81713E-05 2.68860E-05 9.53071E-19-4.92973E-19
 -1      3308 7.93195E-05-3.08273E-05-2.04703E-05 3.22162E-05 1.10390E-18 4.79500E-19
 -1      3309 9.43089E-05-2.16225E-05-3.11690E-05-4.75085E-06-4.55762E-19-1.35521E-18
 -1      3310 9.52747E-05-2.48465E-05-3.01613E-05 7.94412E-07 1.02876E-18 9.48745E-21
 -1      3311 9.41436E-05-2.14209E-05-3.11762E-05-4.02462E-06-3.75892E-19-1.34300E-18
 -1      3312 9.51748E-05-2.42555E-05-3.04002E-05 1.99363E-06 1.17679E-18 1.24565E-19
 -1      3313 9.49218E-05-2.36454E-05-3.05638E-05 1.85921E-06 1.16031E-18-2.63731E-19
 -1      3314 9.54229E-05-2.49564E-05-3.01950E-05-3.56035E-07-3.66590E-20-8.60641E-19
 -1      3315 9.56037E-05-2.56943E-05-2.99686E-05 3.95978E-07 3.22415E-20-8.03656E-19
 -1      3316 9.58042E-05-2.63461E-05-2.97593E-05 9.84698E-07 4.22220E-20-6.87647E-19
 -1      3317 9.59171E-05-2.68829E-05-2.95904E-05 1.54183E-06 2.73280E-20-6.13675E-19
 -1      3318 9.55573E-05-2.55859E-05-2.99888E-05 6.60343E-07 6.71413E-20-5.56200E-19
 -1      3319 9.60474E-05-2.73658E-05-2.94265E-05 2.00395E-06-2.55584E-20-5.83988E-19
 -1      3320 9.61663E-05-2.77994E-05-2.93010E-05 2.40144E-06-5.73639E-20-3.79210E-19
 -1      3321 9.58771E-05-2.68011E-05-2.96075E-05 1.74155E-06 8.91957E-20-4.20785E-19
 -1      3322 9.63028E-05-2.82123E-05-2.91728E-05 2.75909E-06-9.25623E-20-2.65284E-19
 -1      3323 9.64849E-05-2.86276E-05-2.90803E-05 3.02351E-06 1.79657E-19-1.67932E-19
 -1      3324 9.61353E-05-2.77723E-05-2.93057E-05 2.59899E-06-9.64699E-23-2.23475E-19
 -1      3325 9.67029E-05-2.90572E-05-2.89805E-05 3.29135E-06 1.99727E-19-6.35728E-20
 -1      3326 9.69983E-05-2.95265E-05-2.89139E-05 3.42997E-06 3.06067E-19-2.59412E-20
 -1      3327 9.64789E-05-2.86820E-05-2.90673E-05 3.27548E-06 2.05932E-19-8.34268E-20
 -1      3328 9.73729E-05-3.00474E-05-2.88397E-05 3.60133E-06 5.94321E-19-9.66655E-20
 -1      3329 9.78258E-05-3.06275E-05-2.87973E-05 3.59823E-06 4.80385E-19 2.10815E-19
 -1      3330 9.70572E-05-2.97041E-05-2.88822E-05 3.78320E-06 4.29517E-19-1.37272E-19
 -1      3331 9.84301E-05-3.12961E-05-2.87520E-05 3.63710E-06 4.04362E-19 4.14800E-19
 -1      3332 9.90711E-05-3.20162E-05-2.87388E-05 3.45092E-06 2.81491E-19 5.05892E-19
 -1      3333 9.80190E-05-3.09852E-05-2.87514E-05 4.08579E-06 6.29326E-19-1.74101E-19
 -1      3334 9.99647E-05-3.28537E-05-2.87352E-05 3.28458E-06-1.25707E-20 7.20070E-19
 -1      3335 1.00792E-04-3.36910E-05-2.87648E-05 2.85123E-06 1.50890E-20 9.46226E-19
 -1      3336 9.95006E-05-3.26211E-05-2.86914E-05 4.07940E-06 1.90473E-19 1.24061E-20
 -1      3337 1.01992E-04-3.46512E-05-2.88269E-05 2.36953E-06-1.26184E-19 8.70145E-19
 -1      3338 1.02942E-04-3.54947E-05-2.89223E-05 1.61714E-06 8.41491E-21 7.56519E-19
 -1      3339 1.01587E-04-3.46015E-05-2.87410E-05 3.57891E-06-5.48309E-20 3.14926E-19
 -1      3340 1.04373E-04-3.64194E-05-2.90874E-05 6.92478E-07-7.20979E-20 7.73807E-19
 -1      3341 1.05289E-04-3.70301E-05-2.92797E-05-4.19927E-07-4.66626E-19 8.09982E-19
 -1      3342 1.04233E-04-3.67211E-05-2.89651E-05 2.32826E-06-1.57914E-19 5.75346E-19
 -1      3343 1.06720E-04-3.76036E-05-2.95951E-05-1.86269E-06-6.23495E-19 1.10024E-18
 -1      3344 1.07336E-04-3.76108E-05-2.99155E-05-3.26368E-06-7.40810E-19 1.28996E-18
 -1      3345 1.07148E-04-3.84614E-05-2.94558E-05 7.69377E-08-9.33956E-20 8.05684E-19
 -1      3346 1.08343E-04-3.73516E-05-3.04235E-05-5.13010E-06-7.86832E-19 1.30355E-18
 -1      3347 1.08327E-04-3.63275E-05-3.08825E-05-6.51423E-06-7.46352E-19 1.18339E-18
 -1      3348 1.09697E-04-3.89602E-05-3.03163E-05-3.23941E-06-7.96131E-19 1.29799E-18
 -1      3349 1.08441E-04-3.48430E-05-3.15798E-05-8.29485E-06-7.95076E-19 1.15360E-18
 -1      3350 1.07648E-04-3.25938E-05-3.21478E-05-9.14238E-06-6.49449E-19 1.10757E-18
 -1      3351 1.10880E-04-3.70996E-05-3.16098E-05-7.04056E-06-7.88581E-19 1.43555E-18
 -1      3352 1.06527E-04-2.98488E-05-3.29605E-05-9.81598E-06-8.07709E-19 8.60352E-19
 -1      3353 1.05228E-04-2.68609E-05-3.35371E-05-9.45088E-06-6.91870E-19 8.39463E-19
 -1      3354 1.09770E-04-3.20520E-05-3.32489E-05-9.97966E-06-5.46515E-19 1.46843E-18
 -1      3355 1.03456E-04-2.37327E-05-3.42688E-05-8.30123E-06-5.54977E-19 5.53543E-19
 -1      3356 1.02234E-04-2.11550E-05-3.46910E-05-6.41963E-06-4.90492E-19 1.49017E-19
 -1      3357 1.06963E-04-2.53848E-05-3.49336E-05-9.75688E-06-9.73420E-19 9.22942E-19
 -1      3358 1.00905E-04-1.92647E-05-3.50819E-05-3.11970E-06-4.25138E-19-1.97767E-19
 -1      3359 1.00564E-04-1.84594E-05-3.51728E-05-3.99739E-07-5.37873E-19-2.47923E-20
 -1      3360 1.03548E-04-1.91425E-05-3.61611E-05-5.52292E-06-6.17398E-19 1.56814E-19
 -1      3361 1.02845E-04-1.82626E-05-3.62775E-05 4.31377E-06-9.47651E-20 6.29021E-20
 -1      3362 1.03919E-04-2.01963E-05-3.59302E-05 7.11989E-06 2.17674E-19 5.19764E-19
 -1      3363 1.06315E-04-2.92688E-05-3.29785E-05 9.98019E-06 5.07333E-19 2.90003E-19
 -1      3364 1.07411E-04-3.20168E-05-3.23920E-05 9.78751E-06 8.04506E-19 1.69208E-20
 -1      3365 1.07997E-04-3.42242E-05-3.16160E-05 8.55662E-06 2.22055E-19-4.04217E-19
 -1      3366 1.08415E-04-3.59199E-05-3.10919E-05 7.44133E-06 1.53504E-19-6.11465E-19
 -1      3367 1.10297E-04-3.42174E-05-3.25570E-05 9.33596E-06 1.42709E-19-3.91341E-19
 -1      3368 1.07849E-04-3.68197E-05-3.04695E-05 5.58679E-06 2.37907E-19-4.34087E-19
 -1      3369 1.07531E-04-3.73329E-05-3.00699E-05 4.18240E-06 3.60545E-19 1.21548E-19
 -1      3370 1.10320E-04-3.78619E-05-3.10355E-05 5.85070E-06 3.63836E-19-4.95670E-19
 -1      3371 1.06239E-04-3.71337E-05-2.96456E-05 2.52325E-06 8.26105E-20 3.51180E-20
 -1      3372 1.05436E-04-3.67933E-05-2.93830E-05 1.27957E-06 3.63715E-19 2.21410E-19
 -1      3373 1.08337E-04-3.85133E-05-2.99252E-05 2.20416E-06 2.88232E-19-2.64218E-20
 -1      3374 1.03911E-04-3.59896E-05-2.91311E-05 1.12205E-07 9.93044E-19 3.40826E-19
 -1      3375 1.02929E-04-3.52238E-05-2.89793E-05-7.87865E-07 1.42446E-18 6.75789E-19
 -1      3376 1.05453E-04-3.73096E-05-2.92249E-05-5.77422E-07 9.34138E-19-3.85791E-19
 -1      3377 1.01522E-04-3.42357E-05-2.88494E-05-1.45443E-06 7.85700E-19 5.39114E-19
 -1      3378 1.00579E-04-3.33687E-05-2.87739E-05-2.01004E-06 5.31160E-19 7.49457E-19
 -1      3379 1.02488E-04-3.52763E-05-2.88371E-05-2.26079E-06 1.26629E-18-8.66693E-19
 -1      3380 9.94442E-05-3.24392E-05-2.87212E-05-2.29467E-06 3.66528E-19 8.56771E-19
 -1      3381 9.86548E-05-3.16534E-05-2.86922E-05-2.57074E-06 3.89725E-19 1.26557E-18
 -1      3382 9.99402E-05-3.31431E-05-2.86574E-05-3.07458E-06 4.42805E-19-2.16889E-19
 -1      3383 9.78280E-05-3.09030E-05-2.86817E-05-2.60424E-06-8.28868E-20 1.47492E-18
 -1      3384 9.72290E-05-3.02826E-05-2.86762E-05-2.68666E-06-6.93378E-20 1.69662E-18
 -1      3385 9.79941E-05-3.13131E-05-2.86015E-05-3.26156E-06 8.98387E-19-3.57920E-19
 -1      3386 9.66713E-05-2.97348E-05-2.86843E-05-2.58034E-06-4.45794E-19 1.81452E-18
 -1      3387 9.62492E-05-2.92897E-05-2.86877E-05-2.54093E-06-1.29311E-19 1.46241E-18
 -1      3388 9.66298E-05-2.99232E-05-2.86062E-05-3.09388E-06-3.11305E-20 2.57994E-19
 -1      3389 9.59029E-05-2.89252E-05-2.87011E-05-2.36707E-06-3.16384E-19 1.05755E-18
 -1      3390 9.56246E-05-2.86338E-05-2.87055E-05-2.25952E-06-6.79133E-19 5.28407E-19
 -1      3391 9.57444E-05-2.89601E-05-2.86340E-05-2.74773E-06-7.32575E-19 9.21651E-19
 -1      3392 9.54310E-05-2.84157E-05-2.87172E-05-2.06366E-06 3.88949E-19 7.87931E-19
 -1      3393 9.52600E-05-2.82445E-05-2.87189E-05-1.92482E-06 7.66914E-19 1.37095E-18
 -1      3394 9.52194E-05-2.83542E-05-2.86643E-05-2.33536E-06 6.95372E-20 2.82075E-19
 -1      3395 9.51691E-05-2.81336E-05-2.87261E-05-1.73321E-06-2.39244E-20 1.78544E-18
 -1      3396 9.50727E-05-2.80491E-05-2.87242E-05-1.58686E-06-5.81274E-19 1.27074E-18
 -1      3397 9.49459E-05-2.80192E-05-2.86875E-05-1.92213E-06 3.49443E-19 1.44086E-19
 -1      3398 9.50458E-05-2.80105E-05-2.87266E-05-1.41316E-06-9.90709E-19 1.43815E-18
 -1      3399 9.49980E-05-2.79835E-05-2.87212E-05-1.27350E-06-8.84391E-19 2.38320E-18
 -1      3400 9.48355E-05-2.78737E-05-2.87004E-05-1.54251E-06-7.89798E-19 1.06391E-18
 -1      3401 9.50073E-05-2.79896E-05-2.87195E-05-1.12333E-06-1.77222E-18 2.91912E-18
 -1      3402 9.49889E-05-2.79977E-05-2.87117E-05-9.97859E-07-1.67989E-18 2.54189E-18
 -1      3403 9.48226E-05-2.78505E-05-2.87034E-05-1.21158E-06-9.00701E-19 1.06172E-18
 -1      3404 9.50160E-05-2.80286E-05-2.87069E-05-8.72255E-07-1.69474E-18 1.89513E-18
 -1      3405 9.50141E-05-2.80557E-05-2.86978E-05-7.64227E-07-5.32694E-19 5.11827E-19
 -1      3406 9.48618E-05-2.78990E-05-2.86986E-05-9.32916E-07-2.22386E-18 1.83702E-18
 -1      3407 9.50473E-05-2.80977E-05-2.86911E-05-6.61852E-07 7.56419E-19-7.84929E-19
 -1      3408 9.50535E-05-2.81329E-05-2.86816E-05-5.71840E-07 4.71468E-19-7.10574E-19
 -1      3409 9.49236E-05-2.79837E-05-2.86884E-05-7.04289E-07-1.04665E-18 1.26043E-19
 -1      3410 9.50863E-05-2.81774E-05-2.86740E-05-4.90183E-07 5.46479E-19-9.29189E-19
 -1      3411 9.50954E-05-2.82139E-05-2.86646E-05-4.17192E-07 1.06240E-18-5.33307E-19
 -1      3412 9.49904E-05-2.80813E-05-2.86750E-05-5.20662E-07 8.79634E-19-2.41662E-18
 -1      3413 9.51243E-05-2.82559E-05-2.86569E-05-3.53315E-07 2.07128E-19-7.41223E-19
 -1      3414 9.51336E-05-2.82900E-05-2.86482E-05-2.95541E-07 3.57682E-19-9.41091E-19
 -1      3415 9.50523E-05-2.81776E-05-2.86602E-05-3.75895E-07 3.76886E-19-2.83678E-18
 -1      3416 9.51572E-05-2.83269E-05-2.86408E-05-2.46501E-07 6.36054E-19-8.14516E-19
 -1      3417 9.51652E-05-2.83566E-05-2.86330E-05-2.01808E-07 5.50850E-19-1.16013E-18
 -1      3418 9.51048E-05-2.82649E-05-2.86453E-05-2.63764E-07 4.33869E-19-3.11524E-18
 -1      3419 9.51834E-05-2.83876E-05-2.86262E-05-1.64860E-07 5.05954E-19-4.80677E-19
 -1      3420 9.51898E-05-2.84126E-05-2.86194E-05-1.31144E-07 1.17670E-18-3.55001E-19
 -1      3421 9.51466E-05-2.83399E-05-2.86312E-05-1.78407E-07 9.43605E-19-1.24718E-18
 -1      3422 9.52033E-05-2.84380E-05-2.86133E-05-1.03822E-07 1.81885E-18 3.87108E-20
 -1      3423 9.52080E-05-2.84582E-05-2.86075E-05-7.96943E-08 2.01709E-18 1.34622E-18
 -1      3424 9.51781E-05-2.84019E-05-2.86182E-05-1.14633E-07 1.69163E-18 1.33733E-18
 -1      3425 9.43204E-05-2.24695E-05-3.08024E-05 1.68896E-06 1.20325E-18-2.99373E-19
 -1      3426 6.64813E-05-1.16982E-05-2.34521E-05-2.98925E-06 3.80847E-19-1.25172E-18
 -1      3427 7.07586E-05-1.30788E-05-2.47861E-05-3.16859E-06 4.06907E-19-9.62216E-19
 -1      3428 7.47634E-05-1.45556E-05-2.58553E-05-3.85780E-06 3.97665E-19-9.94766E-19
 -1      3429 7.79505E-05-1.59568E-05-2.66185E-05-3.92500E-06 3.21806E-19-9.19479E-19
 -1      3430 7.20510E-05-1.36650E-05-2.48646E-05 6.68141E-07 4.93548E-19-1.03432E-18
 -1      3431 1.19548E-04-5.06418E-05-2.91184E-05-1.38605E-05 1.18262E-18-8.55172E-19
 -1      3432 1.23088E-04-5.04106E-05-3.15389E-05-5.52542E-06 6.40612E-19-9.92744E-19
 -1      3433 8.81342E-05-2.15969E-05-2.85424E-05 3.63100E-06 4.04191E-19-8.72480E-19
 -1      3434 8.68138E-05-2.06372E-05-2.83922E-05 3.94110E-06 8.94705E-19-9.74009E-19
 -1      3435 9.52148E-05-2.84729E-05-2.86032E-05-6.27509E-08 1.29711E-18 1.04465E-18
 -1      3436 9.52186E-05-2.84919E-05-2.85973E-05-4.20841E-08 1.71283E-18 6.61930E-19
 -1      3437 9.52105E-05-2.84794E-05-2.85994E-05-4.33812E-08 1.03453E-18 1.47110E-18
 -1      3438 9.51976E-05-2.84457E-05-2.86078E-05-7.15842E-08 1.25732E-18 1.89599E-18
 -1      3439 5.51011E-05-9.20716E-06-1.95953E-05 7.68994E-06-1.43025E-18-5.24790E-19
 -1      3440 1.24765E-04-4.58391E-05-3.35925E-05 3.05036E-06 9.41332E-19-1.21459E-18
 -1      3441 1.23180E-04-4.07477E-05-3.56816E-05 8.07662E-06 1.25306E-18-6.21941E-19
 -1      3442 9.30623E-05-2.57072E-05-2.88774E-05 2.24642E-06 1.18272E-18 1.21727E-19
 -1      3443 9.26400E-05-2.52538E-05-2.88856E-05 2.54737E-06 4.78100E-19-7.14174E-19
 -1      3444 9.37962E-05-2.64705E-05-2.88621E-05 1.79944E-06 1.61853E-18 6.91903E-19
 -1      3445 9.35217E-05-2.61356E-05-2.88822E-05 2.05926E-06 1.60839E-18-4.08881E-20
 -1      3446 9.28800E-05-2.56317E-05-2.88071E-05 1.80800E-06 5.95986E-19-1.14540E-18
 -1      3447 9.42897E-05-2.70343E-05-2.88298E-05 1.40933E-06 1.08538E-18 2.09984E-18
 -1      3448 9.41129E-05-2.67885E-05-2.88538E-05 1.62572E-06 1.73788E-18 2.21241E-18
 -1      3449 9.36366E-05-2.63918E-05-2.88101E-05 1.49191E-06 9.81052E-19 7.04910E-19
 -1      3450 9.46065E-05-2.74319E-05-2.87936E-05 1.09570E-06 2.78807E-19 2.07856E-18
 -1      3451 9.44982E-05-2.72587E-05-2.88164E-05 1.26478E-06 9.75512E-19 1.92633E-18
 -1      3452 9.41478E-05-2.69501E-05-2.87931E-05 1.20024E-06 1.11295E-18 2.78709E-18
 -1      3453 9.48304E-05-2.77421E-05-2.87555E-05 8.23972E-07 3.20529E-19 1.99634E-18
 -1      3454 9.47574E-05-2.76078E-05-2.87775E-05 9.65988E-07 5.00119E-19 1.95617E-18
 -1      3455 9.45013E-05-2.73693E-05-2.87669E-05 9.41761E-07 5.57872E-19 2.00383E-18
 -1      3456 9.49789E-05-2.79701E-05-2.87205E-05 6.06732E-07-2.29628E-20 1.60566E-18
 -1      3457 9.49333E-05-2.78717E-05-2.87396E-05 7.18079E-07-1.19051E-19 2.33250E-18
 -1      3458 9.47505E-05-2.76907E-05-2.87373E-05 7.16807E-07-3.16489E-19 2.43373E-18
 -1      3459 9.50767E-05-2.81378E-05-2.86899E-05 4.36285E-07-1.66618E-18 1.79672E-18
 -1      3460 9.50485E-05-2.80655E-05-2.87060E-05 5.22214E-07-7.73704E-19 1.90114E-18
 -1      3461 9.49200E-05-2.79298E-05-2.87084E-05 5.32464E-07-6.33022E-19 2.71897E-18
 -1      3462 9.51405E-05-2.82610E-05-2.86639E-05 3.05010E-07-1.71271E-18 3.56700E-19
 -1      3463 9.51234E-05-2.82079E-05-2.86772E-05 3.70259E-07-1.53701E-18 1.54477E-18
 -1      3464 9.50346E-05-2.81072E-05-2.86821E-05 3.85288E-07-1.26440E-18 1.59877E-18
 -1      3465 9.51800E-05-2.83478E-05-2.86433E-05 2.09951E-07-1.14494E-18-6.63164E-20
 -1      3466 9.51703E-05-2.83102E-05-2.86536E-05 2.56899E-07-1.51084E-18-3.55216E-19
 -1      3467 9.51099E-05-2.82361E-05-2.86596E-05 2.72777E-07-1.46256E-18 7.70680E-19
 -1      3468 9.52063E-05-2.84155E-05-2.86253E-05 1.34939E-07-1.10738E-18-1.20874E-19
 -1      3469 9.52005E-05-2.83861E-05-2.86341E-05 1.71358E-07-1.61906E-18-3.34573E-19
 -1      3470 9.51599E-05-2.83317E-05-2.86403E-05 1.86560E-07-1.76633E-18 2.57416E-19
 -1      3471 9.52225E-05-2.84651E-05-2.86107E-05 8.06948E-08-2.11102E-19-1.65485E-18
 -1      3472 9.52193E-05-2.84435E-05-2.86177E-05 1.06614E-07-1.47600E-19-3.79727E-19
 -1      3473 9.51931E-05-2.84045E-05-2.86235E-05 1.20165E-07-2.84454E-19-1.54357E-18
 -1      3474 9.52291E-05-2.84959E-05-2.86001E-05 4.62676E-08-9.43520E-19-2.12197E-18
 -1      3475 9.52272E-05-2.84792E-05-2.86058E-05 6.44074E-08-7.41729E-19-1.91146E-18
 -1      3476 9.52102E-05-2.84518E-05-2.86110E-05 7.52704E-08-5.30857E-19-3.19287E-18
 -1      3477 9.52191E-05-2.84828E-05-2.86017E-05 4.64009E-08 6.37398E-19-3.63164E-18
 -1      3478 9.37980E-05-2.08750E-05-3.12624E-05-3.66204E-06-1.86372E-19-1.37266E-18
 -1      3479 1.22075E-04-3.57139E-05-3.73394E-05-1.08101E-05-9.21334E-19 2.06985E-18
 -1      3480 1.25401E-04-4.26487E-05-3.53431E-05-6.95732E-06-6.49860E-19 2.16666E-18
 -1      3481 9.42231E-05-2.18204E-05-3.10185E-05-2.61581E-06-1.86383E-19-1.11531E-18
 -1      3482 9.48178E-05-2.45784E-05-3.01141E-05-4.43875E-07 9.08596E-19-2.52424E-19
 -1      3483 9.48268E-05-2.40402E-05-3.03264E-05 4.15452E-07 9.34796E-19-2.65992E-19
 -1      3484 1.26113E-04-4.86449E-05-3.35313E-05-5.66020E-07-2.01121E-19 2.00984E-18
 -1      3485 1.24551E-04-5.11681E-05-3.12323E-05 6.67788E-06 3.36464E-19 1.99548E-18
 -1      3486 1.13890E-04-2.16161E-05-3.97346E-05-1.14456E-05-1.48331E-18 1.76278E-18
 -1      3487 1.18811E-04-2.85386E-05-3.86963E-05-1.26401E-05-9.08072E-19 1.83679E-18
 -1      3488 9.52002E-05-2.84653E-05-2.86008E-05-3.80228E-08 1.27846E-18 1.60592E-18
 -1      3489 9.51931E-05-2.84561E-05-2.86019E-05-3.35806E-08 9.96740E-19 2.56505E-18
 -1      3490 9.51935E-05-2.84486E-05-2.86049E-05-4.99570E-08 6.48615E-19 1.95413E-18
 -1      3491 1.19675E-04-5.21396E-05-2.92448E-05 1.48771E-05 6.76753E-19 1.40833E-18
 -1      3492 1.12707E-04-4.91526E-05-2.69904E-05 2.16066E-05 8.50428E-19 1.21567E-18
 -1      3493 9.14804E-05-1.71964E-05-3.18495E-05-6.92760E-07 9.51428E-19-1.27124E-18
 -1      3494 9.16612E-05-1.74478E-05-3.18195E-05-1.34674E-06 7.72546E-19-1.38603E-18
 -1      3495 9.26092E-05-1.90688E-05-3.14994E-05-1.21749E-06 6.90664E-19-1.32189E-18
 -1      3496 5.88193E-05-1.34806E-05-1.91074E-05-1.81436E-05 6.57092E-19 9.07596E-19
 -1      3497 6.63950E-05-1.97277E-05-2.00936E-05-2.50485E-05 1.06464E-18 1.97703E-19
 -1      3498 7.67003E-05-2.65633E-05-2.11852E-05-2.87312E-05 1.76123E-18 4.36963E-19
 -1      3499 8.61223E-05-3.41626E-05-2.24918E-05-3.09533E-05 2.06789E-18 7.91420E-19
 -1      3500 9.04182E-05-2.33469E-05-2.87643E-05 3.21212E-06 1.69116E-19-4.66959E-19
 -1      3501 8.94627E-05-2.25500E-05-2.86959E-05 3.55569E-06 4.20567E-19-4.58334E-19
 -1      3502 8.80756E-05-2.16877E-05-2.84090E-05 2.38675E-06 2.98715E-19 1.83581E-19
 -1      3503 8.09893E-05-1.74221E-05-2.72934E-05-4.43515E-06 1.05959E-19-8.57666E-19
 -1      3504 8.34039E-05-1.87439E-05-2.77516E-05-4.36983E-06-3.37730E-20-9.76228E-19
 -1      3505 7.88977E-05-1.65639E-05-2.66175E-05-1.28816E-06 2.20879E-19-8.58552E-19
 -1      3506 9.19874E-05-2.46907E-05-2.88561E-05 2.72921E-06 5.95891E-19-6.93030E-19
 -1      3507 9.13475E-05-2.40847E-05-2.88382E-05 3.06126E-06 6.45358E-19-1.04859E-18
 -1      3508 9.02611E-05-2.33424E-05-2.86493E-05 2.32991E-06 7.83261E-19-1.21487E-18
 -1      3509 9.17970E-05-2.46336E-05-2.87639E-05 2.10648E-06 5.88627E-19-6.16604E-19
 -1      3510 9.45791E-05-2.51864E-05-2.97498E-05-1.67520E-06 8.97894E-19-4.78821E-19
 -1      3511 9.47688E-05-2.49717E-05-2.99081E-05-1.00771E-06 8.81419E-19-4.05448E-19
 -1      3512 9.45848E-05-2.43105E-05-3.01206E-05-4.86647E-07 9.88083E-19-4.88031E-19
 -1      3513 8.88895E-05-2.20873E-05-2.86544E-05-4.34440E-06 2.99025E-19-7.16401E-19
 -1      3514 9.00929E-05-2.29118E-05-2.88104E-05-4.06381E-06 4.74108E-19-6.94362E-19
 -1      3515 1.20908E-04-3.36985E-05-3.72850E-05 1.17149E-05 1.22362E-18-1.19579E-18
 -1      3516 1.16443E-04-2.64907E-05-3.88914E-05 1.23673E-05 3.94559E-19-1.23836E-18
 -1      3517 9.77114E-05-4.06540E-05-2.40743E-05-2.88371E-05 1.68478E-18 1.08823E-18
 -1      3518 1.09900E-04-4.81838E-05-2.68359E-05-2.29125E-05 1.72347E-18-2.49266E-19
 -1      3519 9.30500E-05-1.97474E-05-3.13866E-05 2.21694E-06 1.27691E-18-5.10318E-19
 -1      3520 1.04249E-04-4.55873E-05-2.53060E-05 2.69938E-05 8.69903E-19 1.04569E-18
 -1      3521 9.40977E-05-3.87179E-05-2.35829E-05 2.90423E-05 8.23792E-19 9.98003E-19
 -1      3522 1.05303E-04-1.42265E-05-3.92688E-05-1.44705E-07-6.73894E-19 1.09717E-19
 -1      3523 1.07633E-04-1.60984E-05-3.93134E-05-6.18157E-06-1.25300E-18 1.03209E-18
 -1      3524 9.47446E-05-2.30474E-05-3.07310E-05-1.91633E-06-9.34797E-20-1.02447E-18
 -1      3525 9.50853E-05-2.40858E-05-3.04357E-05-9.61582E-07-4.13213E-20-9.10435E-19
 -1      3526 9.50250E-05-2.39762E-05-3.04450E-05-5.63229E-07 5.87591E-20-8.93681E-19
 -1      3527 9.41526E-05-2.18779E-05-3.09697E-05-1.85824E-06 3.29380E-20-8.94927E-19
 -1      3528 8.55821E-05-2.00062E-05-2.81382E-05-4.45054E-06-5.29809E-20-7.53729E-19
 -1      3529 8.72916E-05-2.10891E-05-2.83992E-05-4.28133E-06 1.30465E-19-6.71477E-19
 -1      3530 8.75922E-05-2.13194E-05-2.83551E-05-2.78957E-06 1.50875E-19-2.01695E-19
 -1      3531 5.95105E-05-9.82792E-06-2.11040E-05 4.98609E-06-1.51614E-18-8.27366E-19
 -1      3532 5.44523E-05-8.51833E-06-1.93905E-05 1.80240E-06-1.01140E-18-4.46598E-19
 -1      3533 5.38250E-05-9.59865E-06-1.89002E-05-8.60034E-06-1.52367E-19 1.04868E-18
 -1      3534 6.42426E-05-1.06765E-05-2.30057E-05 4.39278E-06-2.07059E-18-7.68219E-19
 -1      3535 9.41088E-05-2.22810E-05-3.07932E-05 1.32345E-06 1.14465E-18-2.83057E-19
 -1      3536 8.39248E-05-1.91552E-05-2.76908E-05-2.33230E-06 2.06696E-19-5.62691E-19
 -1      3537 1.04756E-04-1.65984E-05-3.78455E-05 2.48155E-06 1.05211E-19-2.61058E-19
 -1      3538 9.12214E-05-2.36348E-05-2.89818E-05-3.97063E-06 4.25799E-19-7.69114E-19
 -1      3539 9.20330E-05-2.41871E-05-2.90885E-05-3.62125E-06 4.77693E-19-5.07324E-19
 -1      3540 9.02343E-05-2.29577E-05-2.87994E-05-2.94727E-06 4.18098E-19-4.37296E-19
 -1      3541 1.03313E-04-2.34482E-05-3.41931E-05 8.14173E-06 3.82078E-19 8.27598E-19
 -1      3542 1.04669E-04-2.61100E-05-3.37666E-05 9.65742E-06 6.08461E-19 5.81283E-19
 -1      3543 9.22406E-05-1.85321E-05-3.15710E-05-2.84288E-07 1.00383E-18-1.19955E-18
 -1      3544 9.34714E-05-2.51122E-05-2.92829E-05-3.82504E-06 7.33621E-19-3.64699E-19
 -1      3545 1.12051E-04-4.66524E-05-2.79907E-05-1.63103E-05 1.32108E-18-9.45322E-19
 -1      3546 8.49870E-05-1.96145E-05-2.79549E-05 2.14629E-06 8.59282E-19-2.61285E-19
 -1      3547 8.49561E-05-1.94568E-05-2.81076E-05 3.87863E-06 1.05795E-18-9.52071E-19
 -1      3548 8.29641E-05-1.82250E-05-2.77913E-05 4.14447E-06 5.20895E-19-5.96329E-19
 -1      3549 5.81980E-05-1.30611E-05-1.90540E-05 1.66371E-05 8.72748E-19-7.43748E-19
 -1      3550 5.65009E-05-1.02736E-05-1.95917E-05 6.43976E-06 4.54393E-19-1.07949E-18
 -1      3551 1.08087E-04-4.53796E-05-2.67565E-05 2.08373E-05 6.32244E-19 1.00261E-18
 -1      3552 8.03679E-05-1.68309E-05-2.72831E-05 3.87504E-06 1.86420E-19-7.69452E-19
 -1      3553 7.75595E-05-1.54215E-05-2.66891E-05 4.05712E-06-1.06488E-19-7.35765E-19
 -1      3554 8.06857E-05-1.71338E-05-2.71444E-05 1.41983E-06 7.46047E-19-9.20821E-19
 -1      3555 1.20790E-04-4.62351E-05-3.19465E-05-5.08299E-07 8.54140E-19-8.15177E-19
 -1      3556 1.22165E-04-4.41157E-05-3.35015E-05-4.16849E-06-4.90684E-19 1.56021E-18
 -1      3557 9.52082E-05-2.84685E-05-2.86028E-05 4.28421E-08 1.43918E-18-5.53586E-18
 -1      3558 9.52041E-05-2.84526E-05-2.86073E-05 5.55079E-08 1.05414E-18-4.55643E-18
 -1      3559 9.51997E-05-2.84585E-05-2.86037E-05 3.97729E-08 8.32599E-19-4.00091E-18
 -1      3560 1.08183E-04-2.81440E-05-3.42525E-05 1.06182E-05 4.60157E-19 5.49347E-20
 -1      3561 9.27726E-05-3.54930E-05-2.43695E-05 2.52126E-05 1.22493E-18 7.97885E-19
 -1      3562 8.59717E-05-3.30473E-05-2.27405E-05 2.90784E-05 1.21811E-18 8.82780E-19
 -1      3563 1.18513E-04-3.62446E-05-3.52361E-05 9.89326E-06 1.02807E-18-1.29986E-18
 -1      3564 9.51859E-05-2.84463E-05-2.86028E-05-2.49631E-08 1.61664E-18 8.41783E-19
 -1      3565 9.51814E-05-2.84403E-05-2.86036E-05-1.77338E-08 8.14053E-19-7.88735E-19
 -1      3566 9.51775E-05-2.84261E-05-2.86071E-05-3.41437E-08 1.20276E-18 4.24520E-19
 -1      3567 1.17224E-04-3.23818E-05-3.63717E-05-1.11819E-05-7.12924E-19 1.82735E-18
 -1      3568 1.11814E-04-2.35019E-05-3.79446E-05 1.06785E-05 2.30155E-20-1.25635E-18
 -1      3569 7.47200E-05-2.28439E-05-2.20465E-05-2.35136E-05 1.22838E-18 4.78706E-20
 -1      3570 1.19474E-04-4.92721E-05-3.00583E-05 8.82582E-06 2.53402E-19 1.38539E-18
 -1      3571 5.87064E-05-9.59580E-06-2.10172E-05-4.07334E-06 4.47531E-19-1.41944E-18
 -1      3572 6.07780E-05-1.04453E-05-2.13679E-05 1.49973E-06 5.84056E-19-1.23160E-18
 -1      3573 9.34829E-05-2.07638E-05-3.11666E-05-1.23700E-06 4.39647E-19-1.12467E-18
 -1      3574 9.38235E-05-2.13394E-05-3.10746E-05-1.59872E-06 1.57789E-19-1.00337E-18
 -1      3575 9.43515E-05-2.24773E-05-3.07972E-05-9.73715E-07 1.53633E-19-8.68431E-19
 -1      3576 6.13368E-05-1.20461E-05-2.09080E-05-1.02974E-05-6.73351E-19 4.03796E-19
 -1      3577 9.27370E-05-1.97407E-05-3.13068E-05 7.89132E-07 1.13874E-18-9.43376E-19
 -1      3578 9.27018E-05-1.96408E-05-3.13207E-05 3.75027E-07 1.10415E-18-1.17367E-18
 -1      3579 9.39428E-05-2.51929E-05-2.94737E-05-2.62897E-06 7.68341E-19-4.75691E-19
 -1      3580 9.42992E-05-2.52545E-05-2.95897E-05-2.10804E-06 7.62289E-19-5.32254E-19
 -1      3581 9.42364E-05-2.48237E-05-2.97444E-05-1.50818E-06 8.36271E-19-6.79079E-19
 -1      3582 9.41615E-05-3.65203E-05-2.45210E-05-2.55621E-05 1.79972E-18 1.03405E-18
 -1      3583 9.43839E-05-2.33421E-05-3.04232E-05 2.46629E-07 1.05828E-18-3.64016E-19
 -1      3584 9.38380E-05-2.18110E-05-3.08864E-05 1.30905E-06 1.18334E-18-3.93295E-19
 -1      3585 9.35035E-05-2.12468E-05-3.09742E-05 1.09026E-06 1.11417E-18-5.62624E-19
 -1      3586 7.83894E-05-2.75632E-05-2.15200E-05 2.79141E-05 1.26311E-18 4.35329E-19
 -1      3587 7.40403E-05-1.39580E-05-2.58297E-05 3.59047E-06-9.34413E-19-1.93656E-19
 -1      3588 7.04973E-05-1.25643E-05-2.48304E-05 3.67733E-06-1.75951E-18-1.64908E-19
 -1      3589 7.47520E-05-1.43257E-05-2.57631E-05 1.92768E-08-5.44043E-19-8.25736E-19
 -1      3590 9.31845E-05-2.06105E-05-3.11265E-05 1.20720E-06 1.20151E-18-8.30707E-19
 -1      3591 9.30077E-05-2.02772E-05-3.11745E-05 8.82727E-07 1.10636E-18-9.64966E-19
 -1      3592 9.35033E-05-2.12876E-05-3.09300E-05 5.93717E-07 1.07787E-18-8.37517E-19
 -1      3593 9.39190E-05-2.23647E-05-3.06576E-05 4.93531E-07 1.14155E-18-8.03269E-19
 -1      3594 6.83996E-05-2.16476E-05-2.00821E-05 2.56230E-05 1.28165E-18-7.89858E-20
 -1      3595 6.17356E-05-1.62858E-05-1.93110E-05 2.07489E-05 1.14597E-18-5.17325E-19
 -1      3596 6.39298E-05-1.51306E-05-2.09393E-05 1.63080E-05 1.29552E-18-4.25052E-19
 -1      3597 9.51774E-05-2.84332E-05-2.86049E-05 9.66886E-09 1.40900E-18-1.84534E-18
 -1      3598 9.51804E-05-2.84357E-05-2.86050E-05 1.81804E-08 1.12996E-18-2.24677E-18
 -1      3599 9.51855E-05-2.84418E-05-2.86047E-05 2.70316E-08 6.87408E-19-1.39615E-18
 -1      3600 9.51918E-05-2.84486E-05-2.86044E-05 3.34343E-08 5.64206E-19-2.23466E-18
 -1      3601 9.51839E-05-2.84286E-05-2.86090E-05 4.36028E-08 1.01619E-18-1.99590E-18
 -1      3602 9.51702E-05-2.84128E-05-2.86098E-05 2.66742E-08 1.89633E-18-1.40004E-18
 -1      3603 9.52835E-05-2.48430E-05-3.01857E-05 3.46612E-07 2.01229E-19-3.68333E-19
 -1      3604 9.54781E-05-2.55563E-05-2.99685E-05 9.64557E-07 2.16421E-19-3.25221E-19
 -1      3605 9.56585E-05-2.62012E-05-2.97635E-05 1.45345E-06 9.66056E-20-2.15319E-19
 -1      3606 9.57911E-05-2.67485E-05-2.95908E-05 1.94383E-06 8.02129E-20-2.75672E-19
 -1      3607 9.53660E-05-2.54906E-05-2.99452E-05 1.18543E-06 2.31189E-19-9.69894E-20
 -1      3608 9.58958E-05-2.72365E-05-2.94209E-05 2.37681E-06 9.40785E-20-2.49885E-19
 -1      3609 9.60348E-05-2.77018E-05-2.92829E-05 2.77555E-06-2.71949E-20-2.06749E-19
 -1      3610 9.56342E-05-2.66564E-05-2.95639E-05 2.12033E-06 5.70619E-20 5.09552E-20
 -1      3611 9.61555E-05-2.81462E-05-2.91411E-05 3.17642E-06 9.51373E-20-4.15278E-20
 -1      3612 9.63769E-05-2.86242E-05-2.90309E-05 3.50070E-06 2.08371E-19-4.37624E-20
 -1      3613 9.58436E-05-2.76241E-05-2.92441E-05 2.98768E-06 1.02476E-19-1.64688E-19
 -1      3614 9.66044E-05-2.91213E-05-2.89125E-05 3.88017E-06 3.47307E-19 5.76229E-20
 -1      3615 9.69836E-05-2.97003E-05-2.88275E-05 4.12987E-06 6.47788E-19-4.14587E-20
 -1      3616 9.61716E-05-2.85964E-05-2.89741E-05 3.82273E-06 3.29985E-19 1.08477E-19
 -1      3617 9.74210E-05-3.03433E-05-2.87332E-05 4.47627E-06 6.57624E-19-1.41161E-19
 -1      3618 9.80325E-05-3.10991E-05-2.86771E-05 4.62230E-06 5.04521E-19-1.54545E-19
 -1      3619 9.68095E-05-2.97762E-05-2.87496E-05 4.63415E-06 5.65852E-19-4.09632E-20
 -1      3620 9.87899E-05-3.19643E-05-2.86164E-05 4.88441E-06 5.03723E-19-3.98216E-20
 -1      3621 9.96948E-05-3.29424E-05-2.86026E-05 4.86048E-06 2.88602E-19 1.99255E-19
 -1      3622 9.79704E-05-3.13558E-05-2.85800E-05 5.36971E-06 5.90190E-19-1.26818E-19
 -1      3623 1.00880E-04-3.40688E-05-2.85981E-05 4.92626E-06 1.91375E-19 4.56007E-19
 -1      3624 1.02096E-04-3.52449E-05-2.86530E-05 4.61963E-06 2.49395E-19 5.91544E-19
 -1      3625 9.98775E-05-3.34824E-05-2.84974E-05 5.87962E-06 4.96236E-19 3.71493E-19
 -1      3626 1.03769E-04-3.65806E-05-2.87464E-05 4.30340E-06 3.13460E-20 7.40977E-19
 -1      3627 1.05221E-04-3.78016E-05-2.89114E-05 3.56810E-06-2.18384E-19 7.71939E-19
 -1      3628 1.02710E-04-3.61741E-05-2.85675E-05 5.87004E-06 2.49033E-19 8.31417E-19
 -1      3629 1.07320E-04-3.91252E-05-2.91684E-05 2.60789E-06-5.98407E-20 8.73882E-19
 -1      3630 1.08781E-04-4.00169E-05-2.95006E-05 1.31339E-06-1.34437E-19 9.59941E-19
 -1      3631 1.06499E-04-3.91830E-05-2.89016E-05 4.87434E-06 4.18388E-21 1.11569E-18
 -1      3632 1.10952E-04-4.08283E-05-3.00081E-05-4.54617E-07-4.39228E-19 1.15384E-18
 -1      3633 1.12026E-04-4.08146E-05-3.05736E-05-2.29090E-06-6.95002E-19 1.64419E-18
 -1      3634 1.10830E-04-4.16840E-05-2.96687E-05 2.31882E-06-2.00664E-19 8.21566E-19
 -1      3635 1.10689E-04-2.77176E-05-3.57658E-05-1.11576E-05-9.37957E-19 1.76877E-18
 -1      3636 1.08792E-04-2.35347E-05-3.65565E-05-9.87538E-06-1.05511E-18 1.29201E-18
 -1      3637 9.27488E-05-1.97033E-05-3.13169E-05 9.40162E-08 1.00170E-18-1.17846E-18
 -1      3638 9.28666E-05-1.98648E-05-3.12970E-05-3.31369E-07 8.75423E-19-1.14306E-18
 -1      3639 9.33006E-05-2.07899E-05-3.10574E-05 2.82273E-07 8.98004E-19-1.03485E-18
 -1      3640 1.12928E-04-3.96681E-05-3.14446E-05 5.08945E-06 3.95036E-19-2.58908E-19
 -1      3641 1.12298E-04-4.04569E-05-3.07620E-05 3.21119E-06 7.05206E-19-4.95402E-19
 -1      3642 1.10303E-04-4.02454E-05-3.00654E-05 1.06320E-06 5.75776E-19-4.89420E-19
 -1      3643 1.09023E-04-3.97831E-05-2.96069E-05-5.23882E-07 4.88873E-19-2.64652E-20
 -1      3644 1.12710E-04-4.17214E-05-3.04205E-05 5.04021E-07 8.99026E-19-7.58703E-19
 -1      3645 1.06695E-04-3.86340E-05-2.92068E-05-1.90241E-06 4.41900E-19 3.20001E-19
 -1      3646 1.05221E-04-3.75185E-05-2.89456E-05-2.89733E-06 1.12465E-18 1.09962E-19
 -1      3647 1.08395E-04-4.01830E-05-2.93125E-05-3.08178E-06 7.69804E-19-3.06533E-19
 -1      3648 1.03157E-04-3.60873E-05-2.87509E-05-3.58366E-06 1.18667E-18-2.51945E-19
 -1      3649 1.01708E-04-3.48325E-05-2.86215E-05-4.04079E-06 6.83694E-19-7.52887E-19
 -1      3650 1.04204E-04-3.74026E-05-2.87186E-05-4.86406E-06 5.29498E-19-1.17678E-19
 -1      3651 1.00196E-04-3.35708E-05-2.85507E-05-4.10580E-06 1.71900E-19-1.64057E-18
 -1      3652 9.90375E-05-3.24607E-05-2.85043E-05-4.23501E-06 3.07242E-19-9.95726E-19
 -1      3653 1.00450E-04-3.42406E-05-2.84420E-05-5.32593E-06 1.91925E-19-1.76728E-18
 -1      3654 9.79733E-05-3.14591E-05-2.84992E-05-4.03856E-06 9.69701E-19-1.44904E-18
 -1      3655 9.71386E-05-3.06086E-05-2.84956E-05-3.95964E-06 1.06135E-18-1.05997E-18
 -1      3656 9.79499E-05-3.18075E-05-2.83823E-05-5.04073E-06 3.06887E-19-1.78118E-18
 -1      3657 9.64573E-05-2.98923E-05-2.85190E-05-3.64292E-06 7.41926E-19-1.28979E-18
 -1      3658 9.58946E-05-2.92947E-05-2.85334E-05-3.45883E-06 5.63989E-19-4.98983E-19
 -1      3659 9.62370E-05-2.99949E-05-2.84136E-05-4.38723E-06 1.07236E-18-1.99596E-18
 -1      3660 9.55003E-05-2.88288E-05-2.85651E-05-3.11532E-06-1.36758E-19 1.22098E-19
 -1      3661 9.51512E-05-2.84462E-05-2.85838E-05-2.89124E-06-8.06658E-19-5.84028E-20
 -1      3662 9.51925E-05-2.87794E-05-2.84786E-05-3.63348E-06 2.36580E-19-1.23742E-18
 -1      3663 9.49562E-05-2.81758E-05-2.86130E-05-2.56940E-06-8.65979E-19 1.75880E-19
 -1      3664 9.47612E-05-2.79579E-05-2.86291E-05-2.34367E-06 1.79633E-19-3.80383E-19
 -1      3665 9.46271E-05-2.80405E-05-2.85466E-05-2.91086E-06-6.99202E-19-4.93645E-19
 -1      3666 9.46939E-05-2.78271E-05-2.86515E-05-2.06402E-06 1.10804E-18-1.71763E-19
 -1      3667 9.46024E-05-2.77261E-05-2.86622E-05-1.85606E-06 6.60122E-19-1.36538E-19
 -1      3668 9.43815E-05-2.76528E-05-2.86033E-05-2.27790E-06 5.05566E-19-9.18357E-19
 -1      3669 9.46115E-05-2.76888E-05-2.86768E-05-1.62413E-06-4.91584E-19 2.53688E-19
 -1      3670 9.45845E-05-2.76643E-05-2.86819E-05-1.44290E-06-7.89062E-19 5.57916E-19
 -1      3671 9.43344E-05-2.75043E-05-2.86438E-05-1.75075E-06 6.86025E-19-3.88359E-19
 -1      3672 9.46329E-05-2.76835E-05-2.86894E-05-1.25626E-06-1.04209E-18 5.41192E-19
 -1      3673 9.46423E-05-2.77046E-05-2.86897E-05-1.10353E-06-1.29232E-18 7.63327E-19
 -1      3674 9.43986E-05-2.75074E-05-2.86684E-05-1.32695E-06-8.34589E-19 3.38406E-19
 -1      3675 9.47072E-05-2.77546E-05-2.86917E-05-9.56073E-07-1.54159E-18 7.93226E-19
 -1      3676 9.47344E-05-2.77998E-05-2.86883E-05-8.30569E-07-1.73784E-18 1.10002E-18
 -1      3677 9.45157E-05-2.75961E-05-2.86796E-05-9.92828E-07-1.54954E-18 7.47351E-20
 -1      3678 9.48017E-05-2.78629E-05-2.86864E-05-7.15842E-07-2.03449E-18 8.47554E-19
 -1      3679 9.48352E-05-2.79178E-05-2.86807E-05-6.14766E-07-1.12772E-18-8.89310E-20
 -1      3680 9.46496E-05-2.77262E-05-2.86808E-05-7.33227E-07-2.38769E-18 3.74263E-19
 -1      3681 9.48969E-05-2.79831E-05-2.86762E-05-5.26606E-07-3.96812E-19-3.49016E-19
 -1      3682 9.49300E-05-2.80387E-05-2.86693E-05-4.46592E-07 4.47916E-19-2.16737E-18
 -1      3683 9.47793E-05-2.78689E-05-2.86750E-05-5.33882E-07-1.10909E-18 8.03212E-21
 -1      3684 9.49827E-05-2.80996E-05-2.86633E-05-3.79587E-07 3.60579E-19-3.08646E-18
 -1      3685 9.50118E-05-2.81508E-05-2.86560E-05-3.17249E-07-3.92400E-19-2.77220E-18
 -1      3686 9.48939E-05-2.80069E-05-2.86650E-05-3.82282E-07-4.00806E-19-1.69925E-18
 -1      3687 9.50544E-05-2.82042E-05-2.86494E-05-2.66899E-07 2.82253E-19-2.62921E-18
 -1      3688 9.50782E-05-2.82488E-05-2.86422E-05-2.19107E-07 1.20295E-18-2.14128E-18
 -1      3689 9.49890E-05-2.81307E-05-2.86528E-05-2.68045E-07 2.41701E-20-1.64031E-18
 -1      3690 9.51112E-05-2.82934E-05-2.86357E-05-1.81836E-07 2.03389E-18-1.35353E-18
 -1      3691 9.51296E-05-2.83307E-05-2.86289E-05-1.45577E-07 2.03883E-18 6.01784E-19
 -1      3692 9.50642E-05-2.82367E-05-2.86398E-05-1.82986E-07 2.34827E-18-1.13818E-18
 -1      3693 9.51540E-05-2.83668E-05-2.86226E-05-1.18628E-07 1.70898E-18 2.35564E-18
 -1      3694 9.51672E-05-2.83970E-05-2.86164E-05-9.11632E-08 2.02866E-18 2.10109E-18
 -1      3695 9.51211E-05-2.83243E-05-2.86270E-05-1.20558E-07 2.99982E-18 5.53503E-19
 -1      3696 7.12319E-05-1.45830E-05-2.43125E-05 5.42838E-06 7.22225E-19-3.49616E-19
 -1      3697 7.49236E-05-1.58450E-05-2.53327E-05 3.77906E-06 4.93417E-19-1.89464E-19
 -1      3698 8.27620E-05-1.91366E-05-2.73306E-05 1.17841E-07 1.16179E-19-3.67371E-19
 -1      3699 8.49364E-05-2.02329E-05-2.77455E-05-3.24630E-07 1.75374E-19-2.16649E-19
 -1      3700 1.09638E-04-4.54163E-05-2.77213E-05 1.65085E-05 1.01528E-19 1.88015E-19
 -1      3701 1.03203E-04-4.14446E-05-2.63492E-05 2.05466E-05 3.43636E-19 3.27195E-19
 -1      3702 9.40555E-05-2.69580E-05-2.87603E-05 9.34666E-07-1.84883E-19 3.48053E-18
 -1      3703 9.38467E-05-2.67240E-05-2.87698E-05 1.05615E-06 1.16345E-18 2.90345E-18
 -1      3704 9.43252E-05-2.38698E-05-3.02087E-05-2.77463E-07 1.03736E-18-5.08876E-19
 -1      3705 9.28060E-05-2.57293E-05-2.87537E-05 1.31062E-06 6.06728E-19-6.56286E-19
 -1      3706 9.23462E-05-2.53057E-05-2.87408E-05 1.43558E-06 6.45321E-19-1.93940E-19
 -1      3707 9.44294E-05-2.73726E-05-2.87420E-05 7.43539E-07 5.32143E-19 3.42316E-18
 -1      3708 9.42774E-05-2.71855E-05-2.87552E-05 8.56513E-07 3.33379E-19 4.15214E-18
 -1      3709 9.40250E-05-2.69625E-05-2.87354E-05 7.24030E-07-2.77278E-19 5.21262E-18
 -1      3710 9.46914E-05-2.76861E-05-2.87192E-05 5.73745E-07-4.64451E-19 3.38348E-18
 -1      3711 9.45879E-05-2.75456E-05-2.87331E-05 6.69485E-07 2.74822E-20 3.54603E-18
 -1      3712 9.43974E-05-2.73665E-05-2.87235E-05 5.90685E-07 3.56103E-19 5.22983E-18
 -1      3713 9.48740E-05-2.79224E-05-2.86955E-05 4.30078E-07-8.85315E-19 2.81540E-18
 -1      3714 9.48039E-05-2.78169E-05-2.87088E-05 5.08513E-07-3.75939E-20 4.01654E-18
 -1      3715 9.46629E-05-2.76763E-05-2.87058E-05 4.63785E-07-4.25083E-19 3.98070E-18
 -1      3716 9.50002E-05-2.80997E-05-2.86731E-05 3.12956E-07-8.90246E-19 2.03918E-18
 -1      3717 9.49531E-05-2.80208E-05-2.86851E-05 3.75407E-07-1.32863E-18 2.21789E-18
 -1      3718 9.48509E-05-2.79124E-05-2.86860E-05 3.51914E-07-8.03421E-19 3.30370E-18
 -1      3719 9.50831E-05-2.82268E-05-2.86538E-05 2.24175E-07-1.62687E-18 9.49996E-19
 -1      3720 9.50530E-05-2.81702E-05-2.86638E-05 2.70924E-07-8.18329E-19 1.02914E-18
 -1      3721 9.49799E-05-2.80874E-05-2.86670E-05 2.60151E-07-3.71891E-19 2.40054E-18
 -1      3722 9.51425E-05-2.83272E-05-2.86359E-05 1.51665E-07-4.07643E-19-1.17360E-18
 -1      3723 9.51216E-05-2.82827E-05-2.86449E-05 1.89095E-07-1.10884E-18-1.24173E-19
 -1      3724 9.50700E-05-2.82200E-05-2.86491E-05 1.85844E-07-4.42894E-19-1.96272E-19
 -1      3725 9.51817E-05-2.84015E-05-2.86205E-05 9.75825E-08 5.34356E-20-2.00931E-18
 -1      3726 9.51683E-05-2.83688E-05-2.86281E-05 1.24758E-07 8.10324E-20-1.11807E-18
 -1      3727 9.51332E-05-2.83225E-05-2.86326E-05 1.26156E-07-4.95621E-21-1.51127E-18
 -1      3728 9.51965E-05-2.84373E-05-2.86112E-05 6.63763E-08 6.40353E-19-4.33089E-18
 -1      3729 9.51911E-05-2.84190E-05-2.86162E-05 8.33625E-08 3.69580E-19-3.78060E-18
 -1      3730 9.51669E-05-2.83851E-05-2.86206E-05 8.61289E-08 5.92504E-19-2.67582E-18
 -1      3731 9.51842E-05-2.84231E-05-2.86123E-05 6.10681E-08 1.46498E-18-3.71244E-18
 -1      3732 1.09401E-04-1.96348E-05-3.86439E-05-9.24418E-06-1.37527E-18 1.33604E-18
 -1      3733 9.73607E-05-3.78190E-05-2.56151E-05 2.22571E-05 6.55077E-19 2.46831E-19
 -1      3734 9.03623E-05-3.23099E-05-2.48518E-05 2.19695E-05 1.02426E-18 2.32775E-19
 -1      3735 1.00659E-04-3.82665E-05-2.66414E-05 1.79093E-05 5.03778E-20-6.27732E-19
 -1      3736 1.06921E-04-4.29730E-05-2.71269E-05-1.79705E-05 1.56005E-18-1.11484E-18
 -1      3737 1.13566E-04-4.63555E-05-2.90014E-05-1.08195E-05 1.15730E-18-9.28830E-19
 -1      3738 1.10704E-04-2.68340E-05-3.59262E-05 1.12671E-05 4.00408E-19-1.10453E-18
 -1      3739 1.12376E-04-3.13110E-05-3.49452E-05 1.12082E-05 7.17010E-19-1.11327E-18
 -1      3740 1.06991E-04-2.10251E-05-3.69655E-05 9.26704E-06-3.98370E-21-3.94754E-19
 -1      3741 1.14207E-04-3.31830E-05-3.47255E-05-1.02934E-05-5.08352E-19 1.75485E-18
 -1      3742 1.15456E-04-3.70103E-05-3.36582E-05-9.18106E-06-5.81637E-19 1.70506E-18
 -1      3743 1.14958E-04-3.62568E-05-3.37094E-05 9.03564E-06 6.70526E-19-5.26947E-19
 -1      3744 9.35432E-05-2.64316E-05-2.87674E-05 1.12766E-06 8.47568E-19 1.05347E-18
 -1      3745 9.32255E-05-2.61083E-05-2.87698E-05 1.26135E-06-1.99216E-19 1.99280E-19
 -1      3746 9.28019E-05-2.57787E-05-2.87126E-05 9.25394E-07-3.35590E-19 4.11430E-19
 -1      3747 9.35097E-05-2.64423E-05-2.87351E-05 8.46111E-07-5.78958E-19 2.70355E-18
 -1      3748 8.66069E-05-2.11254E-05-2.81079E-05-1.09872E-06 2.02921E-19-1.13625E-19
 -1      3749 8.82048E-05-2.19966E-05-2.83843E-05-1.39614E-06 2.39047E-19-2.07921E-20
 -1      3750 8.60128E-05-2.10375E-05-2.78015E-05 1.09730E-06 2.23283E-19 1.39433E-19
 -1      3751 1.15460E-04-3.91961E-05-3.27088E-05 7.41952E-06 4.52443E-19-3.65228E-19
 -1      3752 1.13694E-04-3.92005E-05-3.19730E-05-6.05397E-06-5.90920E-19 1.52581E-18
 -1      3753 1.18339E-04-4.11294E-05-3.31701E-05-6.16394E-06-6.66684E-19 1.58910E-18
 -1      3754 1.19839E-04-4.54849E-05-3.16950E-05-1.09168E-06-5.07618E-19 1.21610E-18
 -1      3755 1.13581E-04-4.06077E-05-3.12193E-05-4.29718E-06-6.94474E-19 1.79997E-18
 -1      3756 9.28479E-05-2.46683E-05-2.92311E-05-3.39655E-06 5.99486E-19-3.94728E-19
 -1      3757 9.34133E-05-2.49873E-05-2.93318E-05-2.96611E-06 6.87962E-19-5.09606E-19
 -1      3758 9.34305E-05-2.47305E-05-2.94297E-05-2.25224E-06 6.92703E-19-5.90480E-19
 -1      3759 9.21245E-05-2.40970E-05-2.91306E-05-2.74479E-06 6.82001E-19-4.20874E-19
 -1      3760 9.30044E-05-2.00656E-05-3.12696E-05-5.75522E-07 8.02573E-19-1.14906E-18
 -1      3761 9.32528E-05-2.04457E-05-3.12172E-05-9.79364E-07 6.14116E-19-1.18380E-18
 -1      3762 9.38614E-05-2.16260E-05-3.09483E-05-5.81647E-07 5.24519E-19-9.47942E-19
 -1      3763 9.35208E-05-2.10734E-05-3.10245E-05-1.59689E-07 7.83615E-19-9.90387E-19
 -1      3764 6.35730E-05-1.09838E-05-2.23923E-05-4.10967E-06-2.31152E-18-4.55373E-19
 -1      3765 6.63190E-05-1.43156E-05-2.23695E-05-1.28726E-05-4.06410E-19-8.37107E-19
 -1      3766 9.51781E-05-2.84356E-05-2.86042E-05-8.71125E-09 6.52146E-19-2.23252E-18
 -1      3767 9.51772E-05-2.84336E-05-2.86046E-05-1.18478E-11 1.06413E-18-3.55749E-18
 -1      3768 9.51642E-05-2.84071E-05-2.86096E-05 6.40132E-09 2.10452E-18-2.79165E-18
 -1      3769 9.51669E-05-2.84120E-05-2.86086E-05-1.39041E-08 1.61995E-18-1.73544E-18
 -1      3770 1.18533E-04-4.76039E-05-3.05881E-05 4.83035E-06-3.36060E-19 1.23138E-18
 -1      3771 1.15402E-04-4.74598E-05-2.89241E-05 1.13449E-05 1.79531E-20 8.53554E-19
 -1      3772 1.10791E-04-4.44818E-05-2.83832E-05 1.21846E-05-3.99386E-19 2.02236E-19
 -1      3773 1.16133E-04-4.49264E-05-3.05422E-05 2.10896E-06-4.74242E-19 1.01403E-18
 -1      3774 8.83503E-05-2.22191E-05-2.83528E-05 1.18475E-06 1.75954E-19-1.76637E-18
 -1      3775 8.70289E-05-2.13526E-05-2.81832E-05 1.04851E-06 5.13461E-19-1.40905E-18
 -1      3776 7.76107E-05-1.68643E-05-2.61287E-05 2.18706E-06 3.41037E-19-1.70713E-19
 -1      3777 8.06413E-05-1.81058E-05-2.68178E-05 1.14177E-06 7.97410E-20-2.93788E-19
 -1      3778 8.23358E-05-1.93666E-05-2.69207E-05 3.23341E-06 1.45358E-19 2.94969E-19
 -1      3779 7.76512E-05-1.76200E-05-2.56188E-05 6.32913E-06 6.10175E-19 3.14633E-19
 -1      3780 8.96202E-05-3.18448E-05-2.45027E-05-2.33758E-05 2.15389E-18 1.14567E-18
 -1      3781 9.78092E-05-3.83045E-05-2.57941E-05-2.22356E-05 1.99064E-18 6.99517E-19
 -1      3782 9.51868E-05-2.84315E-05-2.86092E-05-6.55853E-08 1.09936E-18 2.46317E-18
 -1      3783 7.21701E-05-1.90690E-05-2.25703E-05-1.89627E-05 1.29469E-18-7.78655E-19
 -1      3784 8.01319E-05-2.58972E-05-2.34627E-05-2.30710E-05 1.99526E-18 5.02264E-20
 -1      3785 7.71686E-05-2.44136E-05-2.23803E-05 2.32457E-05 1.24220E-18 2.73833E-19
 -1      3786 9.46949E-05-2.33051E-05-3.05996E-05-5.80353E-07 1.80180E-19-6.86617E-19
 -1      3787 9.50321E-05-2.42035E-05-3.03608E-05 1.47433E-08 2.11284E-19-6.18898E-19
 -1      3788 9.49643E-05-2.42196E-05-3.03290E-05 3.01149E-07 3.42733E-19-2.94886E-19
 -1      3789 9.43817E-05-2.27333E-05-3.07011E-05-4.15060E-07 3.94115E-19-6.20072E-19
 -1      3790 1.17617E-04-4.23631E-05-3.23687E-05 4.49452E-06 6.70574E-19-4.93324E-19
 -1      3791 9.51649E-05-2.84010E-05-2.86134E-05-6.73013E-08 2.06674E-18 1.96673E-18
 -1      3792 8.99577E-05-3.01698E-05-2.55397E-05 1.83988E-05 7.90432E-19-3.97212E-20
 -1      3793 8.45406E-05-2.78934E-05-2.44149E-05 2.11999E-05 1.27321E-18 7.68603E-19
 -1      3794 8.94497E-05-2.27084E-05-2.86323E-05-1.79237E-06 2.82615E-19 1.21944E-19
 -1      3795 9.05748E-05-2.33379E-05-2.88226E-05-1.84771E-06 3.89905E-19-4.66979E-20
 -1      3796 8.88316E-05-2.24456E-05-2.84165E-05-2.63084E-07 2.75791E-19 3.52362E-19
 -1      3797 7.26878E-05-1.71954E-05-2.36696E-05-1.32103E-05 5.44086E-19-1.34757E-18
 -1      3798 9.51306E-05-2.83446E-05-2.86219E-05-7.75242E-08 3.38495E-18 8.53185E-19
 -1      3799 9.51515E-05-2.83851E-05-2.86145E-05-5.19257E-08 2.37826E-18 1.44019E-18
 -1      3800 9.51436E-05-2.83753E-05-2.86154E-05-4.00966E-08 2.50084E-18 2.31612E-20
 -1      3801 1.01882E-04-3.89717E-05-2.69107E-05-1.70639E-05 1.89869E-18-1.15064E-19
 -1      3802 6.41589E-05-1.20901E-05-2.23600E-05 6.13788E-06 7.64123E-19-8.01452E-19
 -1      3803 6.85721E-05-1.45780E-05-2.29928E-05 1.00690E-05 9.26211E-19-2.57862E-19
 -1      3804 1.17235E-04-4.53878E-05-3.07246E-05-2.25282E-06 4.99022E-19-7.56022E-19
 -1      3805 1.10281E-04-4.26553E-05-2.90180E-05-7.18144E-06 1.29102E-18-3.18438E-19
 -1      3806 1.15109E-04-4.51358E-05-2.99154E-05-4.55356E-06 1.02376E-18-4.92474E-19
 -1      3807 9.03291E-05-2.36594E-05-2.85819E-05 1.42895E-06 5.98960E-19-1.18887E-18
 -1      3808 8.94031E-05-2.29719E-05-2.84943E-05 1.43823E-06 2.38694E-19-1.37060E-18
 -1      3809 8.87033E-05-2.25952E-05-2.83003E-05 2.42050E-07 2.15961E-19-2.64944E-18
 -1      3810 8.56067E-05-2.04473E-05-2.79378E-05 5.34484E-07 1.00689E-18-1.75076E-18
 -1      3811 8.37551E-05-1.94067E-05-2.76324E-05 1.56027E-07 1.18727E-18-1.72297E-18
 -1      3812 8.63014E-05-2.10785E-05-2.79090E-05-7.20958E-07 1.26078E-18-3.07196E-18
 -1      3813 1.14713E-04-4.29283E-05-3.08547E-05-1.19610E-06-4.45294E-19 1.42663E-18
 -1      3814 8.18737E-05-1.83821E-05-2.72247E-05-7.45388E-07 8.01412E-19-1.94554E-18
 -1      3815 7.93069E-05-1.71841E-05-2.66970E-05-1.49438E-06 4.81211E-19-1.68983E-18
 -1      3816 8.31102E-05-1.93703E-05-2.72564E-05-2.42558E-06 9.30474E-19-3.00960E-18
 -1      3817 9.42922E-05-2.43339E-05-2.99688E-05-6.71716E-07 9.23365E-19-5.72465E-19
 -1      3818 9.41333E-05-2.35099E-05-3.02638E-05-4.05886E-09 1.12018E-18-4.82614E-19
 -1      3819 7.33196E-05-1.94182E-05-2.30925E-05 1.59023E-05 1.24813E-18-1.18002E-19
 -1      3820 7.90747E-05-2.09804E-05-2.49114E-05 1.32507E-05 7.86073E-19 1.40654E-20
 -1      3821 8.60844E-05-2.80515E-05-2.47947E-05-2.00094E-05 2.50481E-18 3.04818E-19
 -1      3822 9.51440E-05-2.83777E-05-2.86146E-05 3.07294E-10 1.72075E-18-3.24099E-18
 -1      3823 9.51445E-05-2.83766E-05-2.86150E-05 1.13168E-08 1.77559E-18-1.99589E-18
 -1      3824 9.40086E-05-2.45241E-05-2.97935E-05-1.07020E-06 8.65069E-19-5.25904E-19
 -1      3825 9.18310E-05-2.49382E-05-2.86522E-05 9.12198E-07 1.67677E-19-2.07935E-19
 -1      3826 9.17712E-05-2.48196E-05-2.87014E-05 1.43539E-06-4.09732E-20-6.72076E-20
 -1      3827 9.11200E-05-2.42788E-05-2.86613E-05 1.52389E-06 5.74862E-19-1.59611E-19
 -1      3828 9.36096E-05-2.17302E-05-3.08211E-05 4.62512E-07 9.29723E-19-8.74570E-19
 -1      3829 9.36799E-05-2.17859E-05-3.08177E-05 2.75093E-07 7.00519E-19-9.39434E-19
 -1      3830 9.51285E-05-2.83465E-05-2.86202E-05 2.13564E-08 1.34554E-18-1.56957E-18
 -1      3831 9.51487E-05-2.83811E-05-2.86151E-05 2.64166E-08 1.87201E-18-1.23222E-18
 -1      3832 9.51546E-05-2.83868E-05-2.86149E-05 3.70597E-08 1.54014E-18-8.98466E-19
 -1      3833 9.38325E-05-2.24506E-05-3.05950E-05 4.95063E-07 8.94645E-19-8.93296E-19
 -1      3834 9.36810E-05-2.19905E-05-3.07166E-05 4.76561E-07 8.82319E-19-7.33683E-19
 -1      3835 9.40163E-05-2.28582E-05-3.04876E-05 4.61021E-07 7.05767E-19-6.07156E-19
 -1      3836 6.54644E-05-1.12060E-05-2.31275E-05-9.89201E-07-1.95819E-18-3.87905E-19
 -1      3837 9.53430E-05-2.60722E-05-2.96878E-05 1.80089E-06 7.01325E-20-2.99655E-19
 -1      3838 9.54432E-05-2.65796E-05-2.95109E-05 2.25096E-06-7.21904E-21-3.67379E-19
 -1      3839 9.54659E-05-2.70198E-05-2.93339E-05 2.69408E-06 7.08145E-20-4.47274E-19
 -1      3840 9.55874E-05-2.74752E-05-2.91835E-05 3.13252E-06 7.12610E-20-5.17818E-19
 -1      3841 9.51373E-05-2.64249E-05-2.94480E-05 2.38118E-06-1.38696E-20-8.09132E-19
 -1      3842 9.56309E-05-2.79017E-05-2.90257E-05 3.62207E-06 3.01728E-19-2.11998E-19
 -1      3843 9.58594E-05-2.84041E-05-2.88973E-05 4.06324E-06 4.67752E-19-1.80724E-19
 -1      3844 9.51854E-05-2.72863E-05-2.91057E-05 3.33872E-06 2.97316E-19-6.44328E-19
 -1      3845 9.60309E-05-2.89248E-05-2.87549E-05 4.62658E-06 6.01521E-19-1.93836E-19
 -1      3846 9.64719E-05-2.95881E-05-2.86483E-05 5.06780E-06 6.57868E-19-9.09354E-20
 -1      3847 9.53696E-05-2.82143E-05-2.87956E-05 4.44673E-06 5.78738E-19-2.34570E-19
 -1      3848 9.69003E-05-3.03162E-05-2.85239E-05 5.69181E-06 5.70839E-19-6.58875E-20
 -1      3849 9.76654E-05-3.12424E-05-2.84482E-05 6.09765E-06 6.73022E-19 8.88167E-20
 -1      3850 9.59293E-05-2.94555E-05-2.85140E-05 5.73079E-06 6.30483E-19-3.09097E-19
 -1      3851 9.85150E-05-3.22926E-05-2.83559E-05 6.72891E-06 7.10680E-19 5.70899E-20
 -1      3852 9.97137E-05-3.35667E-05-2.83336E-05 7.00343E-06 5.54407E-19 1.97093E-19
 -1      3853 9.71488E-05-3.12630E-05-2.82765E-05 7.14584E-06 4.86267E-19-4.39237E-20
 -1      3854 1.01177E-04-3.50164E-05-2.83080E-05 7.47322E-06 6.35332E-19 1.84075E-19
 -1      3855 1.02869E-04-3.66268E-05-2.83830E-05 7.43583E-06 4.58112E-19 4.99120E-19
 -1      3856 9.93973E-05-3.39096E-05-2.81283E-05 8.51336E-06 7.65179E-19-5.20677E-20
 -1      3857 1.05103E-04-3.84699E-05-2.84888E-05 7.48441E-06 1.09959E-19 8.05333E-19
 -1      3858 1.07263E-04-4.02331E-05-2.87324E-05 6.83116E-06-8.13780E-21 7.68263E-19
 -1      3859 1.02993E-04-3.74243E-05-2.81760E-05 9.33895E-06 5.37468E-19 2.58888E-19
 -1      3860 1.08064E-04-4.09758E-05-2.86234E-05-8.09111E-06 9.50007E-19-5.35222E-19
 -1      3861 1.00652E-04-3.45374E-05-2.82949E-05-6.68669E-06 9.05763E-20-1.61116E-18
 -1      3862 9.89717E-05-3.30551E-05-2.82118E-05-6.69598E-06-3.14707E-19-1.61050E-18
 -1      3863 9.76518E-05-3.17382E-05-2.82310E-05-6.10170E-06 4.04430E-19-6.66355E-19
 -1      3864 9.65724E-05-3.06414E-05-2.82393E-05-5.74785E-06 1.16931E-18-6.12940E-19
 -1      3865 9.72436E-05-3.18927E-05-2.80419E-05-7.57195E-06 7.66214E-19 3.18542E-19
 -1      3866 9.58379E-05-2.97748E-05-2.82943E-05-5.09374E-06 1.01498E-18-1.26651E-18
 -1      3867 9.51494E-05-2.90339E-05-2.83282E-05-4.67235E-06 5.54660E-19-9.20795E-19
 -1      3868 9.52570E-05-2.96598E-05-2.81406E-05-6.09043E-06 8.36948E-19 1.92893E-19
 -1      3869 9.47723E-05-2.84946E-05-2.83896E-05-4.07685E-06 2.94667E-19-6.71093E-19
 -1      3870 9.43758E-05-2.80390E-05-2.84291E-05-3.66861E-06 3.56675E-19-4.13972E-19
 -1      3871 9.41974E-05-2.82717E-05-2.82725E-05-4.72805E-06 6.74252E-19 1.38175E-19
 -1      3872 9.42346E-05-2.77461E-05-2.84832E-05-3.16659E-06-1.20349E-19-2.25447E-19
 -1      3873 9.40396E-05-2.75028E-05-2.85179E-05-2.80902E-06-6.76504E-19 1.87351E-19
 -1      3874 9.37124E-05-2.74734E-05-2.83985E-05-3.56457E-06 1.55831E-19-2.71826E-19
 -1      3875 9.40375E-05-2.73771E-05-2.85600E-05-2.41129E-06-4.42777E-19 1.24230E-19
 -1      3876 9.39701E-05-2.72764E-05-2.85864E-05-2.11357E-06 7.86445E-19 1.47415E-20
 -1      3877 9.35926E-05-2.71004E-05-2.85011E-05-2.63315E-06-6.56530E-19 9.07693E-19
 -1      3878 9.40462E-05-2.72615E-05-2.86158E-05-1.80595E-06 1.04805E-18-5.60864E-19
 -1      3879 9.40559E-05-2.72541E-05-2.86330E-05-1.56865E-06 3.58720E-19-3.93758E-19
 -1      3880 9.36789E-05-2.70027E-05-2.85766E-05-1.91561E-06 2.14309E-19 1.18369E-19
 -1      3881 9.41639E-05-2.73009E-05-2.86514E-05-1.33913E-06-3.90191E-21 5.96366E-20
 -1      3882 9.42129E-05-2.73457E-05-2.86609E-05-1.15288E-06-8.99965E-19-4.34629E-20
 -1      3883 9.38714E-05-2.70754E-05-2.86267E-05-1.37903E-06 3.57553E-19-9.06611E-19
 -1      3884 9.43292E-05-2.74248E-05-2.86706E-05-9.82530E-07-2.33218E-18 1.56268E-19
 -1      3885 9.43946E-05-2.74960E-05-2.86739E-05-8.38534E-07-2.27910E-18-9.81399E-20
 -1      3886 9.40992E-05-2.72322E-05-2.86562E-05-9.84559E-07-1.65036E-18-1.29542E-19
 -1      3887 9.45048E-05-2.75872E-05-2.86772E-05-7.13762E-07-2.20048E-18 7.34495E-19
 -1      3888 9.45724E-05-2.76674E-05-2.86761E-05-6.03615E-07-2.37193E-18 6.23251E-19
 -1      3889 9.43273E-05-2.74271E-05-2.86701E-05-6.96971E-07-1.73072E-18 9.02497E-19
 -1      3890 9.46691E-05-2.77581E-05-2.86750E-05-5.12923E-07-1.34542E-18 3.34307E-19
 -1      3891 9.47312E-05-2.78368E-05-2.86711E-05-4.29355E-07-5.42657E-19 2.37136E-19
 -1      3892 9.45344E-05-2.76278E-05-2.86727E-05-4.89372E-07-1.83585E-18 7.58476E-19
 -1      3893 9.48117E-05-2.79198E-05-2.86672E-05-3.63763E-07-8.07770E-19-1.44647E-19
 -1      3894 9.48647E-05-2.79913E-05-2.86616E-05-3.00817E-07-7.02228E-19-5.53584E-19
 -1      3895 9.47111E-05-2.78157E-05-2.86681E-05-3.40215E-07-6.74818E-19 1.52699E-19
 -1      3896 9.49290E-05-2.80634E-05-2.86562E-05-2.53555E-07-1.85560E-19-4.21225E-19
 -1      3897 9.49718E-05-2.81250E-05-2.86499E-05-2.06476E-07 6.11819E-19 1.72523E-21
 -1      3898 9.48551E-05-2.79815E-05-2.86589E-05-2.33374E-07-5.54573E-19 1.18217E-18
 -1      3899 9.50215E-05-2.81852E-05-2.86438E-05-1.72609E-07 1.76562E-18-8.26617E-20
 -1      3900 9.50547E-05-2.82364E-05-2.86373E-05-1.38072E-07 2.87385E-18-3.80835E-21
 -1      3901 9.49681E-05-2.81222E-05-2.86474E-05-1.57136E-07 1.30905E-18 2.22225E-18
 -1      3902 9.50826E-05-2.82721E-05-2.86327E-05-1.18323E-07 3.21211E-18 1.55592E-19
 -1      3903 9.51079E-05-2.83139E-05-2.86265E-05-9.30818E-08 3.27646E-18 8.01270E-19
 -1      3904 9.50936E-05-2.82967E-05-2.86275E-05-7.32640E-08 3.71149E-18 1.70702E-18
 -1      3905 9.50437E-05-2.82240E-05-2.86367E-05-1.07012E-07 2.71402E-18 2.66383E-18
 -1      3906 7.30474E-05-1.57203E-05-2.45000E-05-8.66886E-06-8.64867E-19-3.55910E-18
 -1      3907 7.70707E-05-1.99602E-05-2.45829E-05-1.44132E-05 1.11084E-18-2.47799E-18
 -1      3908 8.52852E-05-2.50491E-05-2.57326E-05 1.46794E-05 7.31476E-19 1.41373E-19
 -1      3909 7.99129E-05-2.05965E-05-2.55329E-05 1.04400E-05 6.90850E-19 5.58148E-20
 -1      3910 8.25392E-05-2.11624E-05-2.62960E-05 8.39333E-06 5.70798E-19 1.41087E-19
 -1      3911 8.59111E-05-2.16313E-05-2.75982E-05 3.11683E-06 9.28783E-20 4.79273E-19
 -1      3912 8.75564E-05-2.22769E-05-2.79683E-05 2.12514E-06 1.19468E-19 3.79360E-19
 -1      3913 9.40332E-05-2.70349E-05-2.87161E-05 5.00584E-07-1.01996E-18 3.96088E-18
 -1      3914 9.38113E-05-2.68107E-05-2.87185E-05 5.53440E-07-1.85719E-18 3.01686E-18
 -1      3915 9.48390E-05-2.79293E-05-2.86770E-05 2.61498E-07-6.96277E-19 2.67506E-18
 -1      3916 9.47597E-05-2.78261E-05-2.86866E-05 3.08577E-07-3.25737E-20 3.37405E-18
 -1      3917 9.49665E-05-2.80944E-05-2.86606E-05 1.96559E-07 3.32819E-19 1.39641E-18
 -1      3918 9.49135E-05-2.80190E-05-2.86694E-05 2.34349E-07-2.05999E-19 2.25892E-18
 -1      3919 9.48365E-05-2.79347E-05-2.86705E-05 1.93208E-07 1.57710E-19 2.87284E-18
 -1      3920 9.50621E-05-2.82282E-05-2.86440E-05 1.39796E-07 4.35985E-19-1.70640E-20
 -1      3921 9.50231E-05-2.81675E-05-2.86526E-05 1.71216E-07 3.13786E-19 1.33617E-18
 -1      3922 9.49661E-05-2.81007E-05-2.86552E-05 1.46149E-07 8.21352E-19 1.63237E-18
 -1      3923 9.51274E-05-2.83278E-05-2.86288E-05 9.45641E-08-5.00168E-20-1.27195E-18
 -1      3924 9.51008E-05-2.82825E-05-2.86365E-05 1.19591E-07 3.44165E-19-7.05556E-19
 -1      3925 9.50605E-05-2.82324E-05-2.86399E-05 1.04980E-07 4.93338E-19 1.05099E-18
 -1      3926 1.02727E-04-3.91602E-05-2.73398E-05 1.50345E-05 2.51750E-19-2.36997E-19
 -1      3927 9.80860E-05-3.56419E-05-2.67298E-05 1.63812E-05 5.38759E-19-5.92414E-19
 -1      3928 8.27305E-05-2.41966E-05-2.49538E-05-1.71786E-05 2.21044E-18-2.20422E-19
 -1      3929 8.98381E-05-2.98660E-05-2.57872E-05-1.78503E-05 2.17125E-18 9.88497E-19
 -1      3930 9.76253E-05-3.52643E-05-2.66325E-05-1.67526E-05 1.56112E-18-1.39694E-20
 -1      3931 1.04352E-04-4.00043E-05-2.77235E-05-1.33183E-05 1.15290E-18-9.18303E-19
 -1      3932 9.46518E-05-2.77036E-05-2.86939E-05 3.39671E-07 1.74329E-19 3.86573E-18
 -1      3933 9.45392E-05-2.75690E-05-2.87029E-05 3.93513E-07 4.05736E-19 5.02447E-18
 -1      3934 9.46570E-05-2.77203E-05-2.86847E-05 2.43274E-07 3.50445E-19 4.21176E-18
 -1      3935 9.43915E-05-2.74110E-05-2.87081E-05 4.23023E-07 1.57035E-19 4.38964E-18
 -1      3936 9.42329E-05-2.72367E-05-2.87151E-05 4.79992E-07 3.76770E-19 4.84087E-18
 -1      3937 9.40634E-05-2.70833E-05-2.87011E-05 3.24293E-07-1.14029E-18 1.81743E-18
 -1      3938 9.44052E-05-2.74394E-05-2.86962E-05 2.91653E-07 3.55207E-19 4.56219E-18
 -1      3939 7.88934E-05-1.75634E-05-2.61988E-05-5.21438E-06 6.56231E-20-3.68393E-18
 -1      3940 7.68506E-05-1.61587E-05-2.60324E-05-2.92219E-06-8.00115E-20-2.22353E-18
 -1      3941 6.96431E-05-1.30616E-05-2.43084E-05-3.67925E-06-1.49672E-18-1.01700E-18
 -1      3942 9.51433E-05-2.83768E-05-2.86147E-05-2.44751E-08 1.75902E-18-1.55367E-18
 -1      3943 9.51402E-05-2.83717E-05-2.86154E-05-1.39488E-08 2.05416E-18-2.87250E-18
 -1      3944 9.51202E-05-2.83364E-05-2.86209E-05-1.00581E-08 1.62220E-18-2.29955E-18
 -1      3945 9.51162E-05-2.83288E-05-2.86224E-05-4.19625E-08 2.52965E-18-8.77332E-20
 -1      3946 9.36685E-05-2.46509E-05-2.95757E-05-1.32394E-06 6.99667E-19-4.16449E-19
 -1      3947 9.38145E-05-2.42690E-05-2.97907E-05-5.41954E-07 8.98602E-19-2.86240E-19
 -1      3948 7.36109E-05-1.49200E-05-2.51720E-05-4.21143E-06-6.05741E-19-2.31956E-18
 -1      3949 9.40366E-05-2.29574E-05-3.04591E-05 4.00177E-07 9.02522E-19-7.20098E-19
 -1      3950 9.40953E-05-2.27158E-05-3.05769E-05 4.21629E-07 5.91365E-19-8.41099E-19
 -1      3951 9.37905E-05-2.19431E-05-3.08035E-05 2.06686E-07 7.12530E-19-9.83664E-19
 -1      3952 9.39477E-05-2.21562E-05-3.07775E-05 1.55986E-08 6.41624E-19-1.00903E-18
 -1      3953 9.38666E-05-3.26264E-05-2.63236E-05 1.69120E-05 5.28219E-19-9.25850E-19
 -1      3954 8.86705E-05-2.82504E-05-2.59193E-05 1.59106E-05 7.76392E-19-2.19340E-19
 -1      3955 8.93200E-05-2.73744E-05-2.64778E-05 1.32017E-05 4.29737E-19-4.85353E-19
 -1      3956 7.74236E-05-2.24396E-05-2.33171E-05 1.92854E-05 1.30998E-18 2.57273E-19
 -1      3957 9.51642E-05-2.83990E-05-2.86140E-05 4.69192E-08 1.62788E-18-5.91605E-19
 -1      3958 9.51731E-05-2.84086E-05-2.86135E-05 5.45422E-08 1.98400E-18-3.14120E-18
 -1      3959 9.51643E-05-2.83901E-05-2.86175E-05 6.53387E-08 2.44531E-18-2.66766E-18
 -1      3960 9.51429E-05-2.83635E-05-2.86194E-05 4.83001E-08 1.55079E-18-1.19615E-18
 -1      3961 9.50766E-05-2.48505E-05-3.01031E-05 8.87774E-07 3.79784E-19-6.67238E-19
 -1      3962 9.52420E-05-2.55003E-05-2.98910E-05 1.38721E-06 3.43586E-19-3.64152E-19
 -1      3963 9.50427E-05-2.54319E-05-2.98327E-05 1.52264E-06 1.84540E-19-9.26459E-19
 -1      3964 1.14386E-04-4.42427E-05-2.99259E-05 3.68032E-06-2.58458E-19 9.85093E-19
 -1      3965 1.04020E-04-3.81600E-05-2.82360E-05-8.92320E-06 8.15640E-19-8.14152E-19
 -1      3966 9.09763E-05-2.35471E-05-2.88729E-05-9.50315E-07 4.07534E-19 2.36949E-19
 -1      3967 9.15185E-05-2.38531E-05-2.90216E-05-2.00357E-06 5.55170E-19-1.91196E-19
 -1      3968 9.23302E-05-2.42573E-05-2.91799E-05-1.86506E-06 6.03277E-19-2.72732E-19
 -1      3969 9.50984E-05-2.83066E-05-2.86257E-05 1.67588E-08 1.14177E-18-1.96848E-18
 -1      3970 9.51039E-05-2.83103E-05-2.86258E-05 3.40602E-08 1.09292E-18-6.81140E-19
 -1      3971 1.10299E-04-4.22580E-05-2.90851E-05 6.01463E-06-9.09449E-20 1.10071E-18
 -1      3972 1.12639E-04-4.35189E-05-2.96274E-05 4.32186E-06-2.39120E-19 1.05919E-18
 -1      3973 9.31556E-05-2.45499E-05-2.94178E-05-1.59260E-06 6.84673E-19-3.72371E-19
 -1      3974 9.05002E-05-2.38827E-05-2.85277E-05 7.25801E-07-1.40459E-19-1.39381E-18
 -1      3975 1.01828E-04-3.62259E-05-2.80699E-05-9.06277E-06 3.04680E-19-1.48004E-18
 -1      3976 8.20031E-05-2.22873E-05-2.55502E-05-1.30760E-05 1.27308E-18-1.61807E-18
 -1      3977 8.85868E-05-2.27366E-05-2.82597E-05 1.22431E-06 3.12894E-19 3.05290E-19
 -1      3978 8.98210E-05-2.32753E-05-2.85167E-05 6.84237E-07 3.69129E-19 4.61115E-19
 -1      3979 8.88280E-05-2.32251E-05-2.80915E-05 3.05216E-06 1.96918E-19 3.96891E-19
 -1      3980 8.93309E-05-2.32752E-05-2.83086E-05-5.09803E-07-7.37450E-19-9.59346E-19
 -1      3981 8.82877E-05-2.26567E-05-2.81603E-05-9.19225E-07-2.47876E-19-1.94656E-18
 -1      3982 8.73628E-05-2.20864E-05-2.79706E-05-1.62556E-06 7.76579E-19-2.21074E-18
 -1      3983 8.59618E-05-2.13901E-05-2.77203E-05-2.36162E-06 1.35869E-18-2.91519E-18
 -1      3984 8.82590E-05-2.28678E-05-2.80012E-05-2.37845E-06-1.54953E-19-1.40911E-18
 -1      3985 8.48511E-05-2.08315E-05-2.74249E-05-3.48720E-06 1.30602E-18-3.93266E-18
 -1      3986 8.30078E-05-2.01092E-05-2.70190E-05-4.70097E-06 5.29142E-19-3.59508E-18
 -1      3987 8.62784E-05-2.19853E-05-2.75228E-05-4.38244E-06 6.21825E-19-3.90434E-18
 -1      3988 9.95012E-05-3.48083E-05-2.77463E-05-1.06697E-05 3.99053E-19-8.18753E-19
 -1      3989 9.36076E-05-2.66405E-05-2.86939E-05 3.19276E-07-2.36757E-18 9.02688E-19
 -1      3990 9.35475E-05-2.65592E-05-2.87120E-05 5.52387E-07-1.87455E-18 3.09349E-18
 -1      3991 9.32439E-05-2.62782E-05-2.87058E-05 5.87622E-07-1.34321E-18 1.29133E-18
 -1      3992 9.67523E-05-3.36254E-05-2.70051E-05 1.42630E-05 6.11459E-19-4.85927E-19
 -1      3993 1.05698E-04-4.05633E-05-2.78534E-05 1.26675E-05 2.92719E-19 2.63728E-19
 -1      3994 1.03230E-04-3.81865E-05-2.78536E-05 1.16630E-05 4.99910E-19 2.41327E-19
 -1      3995 9.51545E-05-2.83705E-05-2.86218E-05 7.93737E-08 1.22455E-18-1.47326E-18
 -1      3996 9.46920E-05-2.38122E-05-3.03676E-05 4.96997E-07 4.02844E-19-7.47323E-19
 -1      3997 9.45733E-05-2.38709E-05-3.03015E-05 7.06590E-07 4.83106E-19-9.35397E-19
 -1      3998 9.02963E-05-2.85226E-05-2.65411E-05-1.39209E-05 2.25834E-18 1.29335E-18
 -1      3999 9.40896E-05-3.21699E-05-2.65038E-05-1.60571E-05 1.98053E-18 1.06444E-18
 -1      4000 9.71142E-05-3.33949E-05-2.72589E-05-1.27036E-05 1.31111E-18 9.51369E-19
 -1      4001 9.28958E-05-2.59658E-05-2.86871E-05 5.46077E-07-9.43330E-19 1.05135E-18
 -1      4002 9.24783E-05-2.56135E-05-2.86662E-05 5.42115E-07-4.47225E-19 4.18305E-19
 -1      4003 9.30071E-05-2.60988E-05-2.86665E-05 2.42465E-07-1.42671E-18 1.17851E-18
 -1      4004 9.40384E-05-2.35985E-05-3.02045E-05 7.78605E-08 8.35806E-19-6.13917E-19
 -1      4005 7.28656E-05-1.51746E-05-2.46501E-05-7.08796E-06-9.16912E-19-3.16789E-18
 -1      4006 9.20232E-05-2.52306E-05-2.86279E-05 4.27745E-07-4.34599E-19-6.34624E-20
 -1      4007 9.14512E-05-2.47935E-05-2.85827E-05 3.51966E-07-7.80101E-19-6.61309E-19
 -1      4008 9.22202E-05-2.54437E-05-2.86068E-05 3.86120E-08-1.07881E-18 3.74225E-19
 -1      4009 9.50863E-05-2.82900E-05-2.86274E-05-1.91470E-08 1.93724E-18-2.05649E-18
 -1      4010 9.50912E-05-2.82960E-05-2.86266E-05-3.15130E-09 1.59846E-18-2.99562E-18
 -1      4011 9.50651E-05-2.82552E-05-2.86323E-05 1.07858E-08 2.33065E-18-1.47436E-18
 -1      4012 9.42066E-05-2.24268E-05-3.07507E-05-2.52679E-07 5.68415E-19-7.62991E-19
 -1      4013 8.30667E-05-2.08381E-05-2.67320E-05 6.12880E-06 5.04909E-19 2.23446E-20
 -1      4014 8.51321E-05-2.15229E-05-2.72472E-05 4.72839E-06 4.14263E-19 2.07366E-19
 -1      4015 8.70538E-05-2.29574E-05-2.74586E-05 5.70116E-06 3.62499E-19 7.30285E-20
 -1      4016 8.60352E-05-2.36544E-05-2.67204E-05 9.61088E-06 6.12346E-19-5.12687E-19
 -1      4017 9.42660E-05-2.35094E-05-3.03363E-05 6.67995E-07 5.45825E-19-7.15082E-19
 -1      4018 9.43925E-05-2.36461E-05-3.03231E-05 6.69848E-07 4.41250E-19-7.62336E-19
 -1      4019 9.47538E-05-2.45814E-05-3.00664E-05 1.01420E-06 3.28006E-19-8.69000E-19
 -1      4020 9.37076E-05-2.44044E-05-2.97188E-05-1.12956E-07 6.62668E-19-2.93347E-19
 -1      4021 9.40050E-05-2.41270E-05-2.99489E-05 6.51909E-08 7.49636E-19-4.63072E-19
 -1      4022 9.40366E-05-2.37075E-05-3.01265E-05 4.19538E-07 6.01286E-19-3.28193E-19
 -1      4023 8.18005E-05-1.97549E-05-2.65724E-05-6.39801E-06 8.37239E-20-3.53891E-18
 -1      4024 7.96142E-05-1.91433E-05-2.59385E-05-8.35114E-06 1.19053E-19-3.95736E-18
 -1      4025 9.41533E-05-2.37422E-05-3.01879E-05 5.79721E-07 4.88664E-19-4.90197E-19
 -1      4026 9.41594E-05-2.34702E-05-3.02858E-05 6.29639E-07 4.88650E-19-6.72088E-19
 -1      4027 9.44184E-05-2.43108E-05-3.00403E-05 8.86674E-07 4.01213E-19-7.47271E-19
 -1      4028 9.41265E-05-2.42840E-05-2.99318E-05 6.29828E-07 3.82114E-19-2.24501E-19
 -1      4029 1.08198E-04-4.16380E-05-2.85968E-05 8.99075E-06 2.37864E-20 1.02902E-18
 -1      4030 9.51271E-05-2.83335E-05-2.86255E-05 7.19573E-08 1.15569E-18-8.41891E-19
 -1      4031 8.40057E-05-2.13710E-05-2.67999E-05-7.40788E-06 3.64029E-19-3.84804E-18
 -1      4032 1.13147E-04-4.51982E-05-2.92332E-05 7.88679E-06-2.53888E-19 1.01710E-18
 -1      4033 9.51151E-05-2.83215E-05-2.86263E-05 6.06501E-08 8.61332E-19-1.22453E-18
 -1      4034 9.46870E-05-2.66191E-05-2.91788E-05 2.89044E-06 3.77066E-19-6.56775E-19
 -1      4035 9.47299E-05-2.70062E-05-2.90129E-05 3.40408E-06 4.99293E-19-4.44775E-19
 -1      4036 9.46000E-05-2.73325E-05-2.88331E-05 4.03250E-06 5.82798E-19-5.10292E-19
 -1      4037 9.47781E-05-2.78084E-05-2.86795E-05 4.66733E-06 7.24931E-19-4.07458E-19
 -1      4038 9.40478E-05-2.66249E-05-2.88990E-05 3.55467E-06 5.59849E-19-7.50552E-19
 -1      4039 9.47721E-05-2.82783E-05-2.84998E-05 5.45863E-06 5.67359E-19-5.52708E-19
 -1      4040 9.51976E-05-2.89623E-05-2.83596E-05 6.20025E-06 4.08516E-19-6.85717E-19
 -1      4041 9.39049E-05-2.73973E-05-2.85301E-05 5.04275E-06 4.86683E-19-8.47239E-19
 -1      4042 9.54830E-05-2.97056E-05-2.81829E-05 7.21115E-06 4.82526E-19-3.71331E-19
 -1      4043 9.63279E-05-3.07649E-05-2.80677E-05 8.02495E-06 7.22067E-19-2.58568E-19
 -1      4044 9.41126E-05-2.85008E-05-2.81568E-05 6.97261E-06 6.28791E-19-7.95325E-19
 -1      4045 9.71129E-05-3.19262E-05-2.79072E-05 9.19173E-06 7.78254E-19-4.13594E-20
 -1      4046 9.85525E-05-3.35326E-05-2.78458E-05 9.97934E-06 6.61478E-19 5.11305E-20
 -1      4047 9.50976E-05-3.03805E-05-2.77889E-05 9.34094E-06 7.99122E-19-2.16205E-19
 -1      4048 1.00882E-04-3.59537E-05-2.77684E-05 1.12495E-05 6.38856E-19 2.37926E-19
 -1      4049 9.63592E-05-3.14068E-05-2.78060E-05-8.86734E-06 1.02897E-18 9.74624E-19
 -1      4050 9.50442E-05-3.00812E-05-2.78507E-05-8.04840E-06 7.89795E-19 1.32942E-18
 -1      4051 9.27405E-05-2.42795E-05-2.93191E-05-9.42539E-07 6.77483E-19-9.65448E-20
 -1      4052 9.44626E-05-2.91146E-05-2.79717E-05-6.87255E-06 4.03160E-19 1.41488E-18
 -1      4053 9.37319E-05-2.83067E-05-2.80424E-05-6.11413E-06 4.02197E-19 1.21017E-18
 -1      4054 9.32757E-05-2.85408E-05-2.77280E-05-8.15024E-06 4.81138E-19 1.58842E-18
 -1      4055 9.34945E-05-2.77403E-05-2.81550E-05-5.20016E-06 2.83729E-19 1.36802E-18
 -1      4056 9.31133E-05-2.72605E-05-2.82281E-05-4.52257E-06 4.45560E-19 1.32234E-18
 -1      4057 9.25176E-05-2.72745E-05-2.79926E-05-5.96082E-06 3.10518E-19 2.42219E-18
 -1      4058 9.31314E-05-2.70052E-05-2.83205E-05-3.80138E-06 1.45364E-19 6.97897E-19
 -1      4059 9.29856E-05-2.67780E-05-2.83819E-05-3.25770E-06-5.19888E-19 4.80964E-19
 -1      4060 9.23245E-05-2.65409E-05-2.82114E-05-4.20569E-06-1.29946E-19 2.16605E-18
 -1      4061 9.31286E-05-2.67155E-05-2.84507E-05-2.72367E-06-4.73714E-19 8.06364E-19
 -1      4062 9.31181E-05-2.66463E-05-2.84975E-05-2.31797E-06 1.61657E-21 1.10112E-18
 -1      4063 9.25045E-05-2.63027E-05-2.83797E-05-2.91052E-06-4.73273E-19 6.30386E-19
 -1      4064 9.33125E-05-2.66824E-05-2.85460E-05-1.91370E-06-6.80832E-19 4.78471E-19
 -1      4065 9.33913E-05-2.67246E-05-2.85779E-05-1.60784E-06-3.60911E-19-4.23605E-19
 -1      4066 9.28247E-05-2.63064E-05-2.85010E-05-1.97075E-06-4.63984E-19 2.77174E-19
 -1      4067 9.35879E-05-2.68218E-05-2.86086E-05-1.34330E-06 3.85085E-19-9.02786E-19
 -1      4068 9.36951E-05-2.69079E-05-2.86287E-05-1.11644E-06 2.36164E-19-8.98731E-19
 -1      4069 9.32367E-05-2.65494E-05-2.85815E-05-1.33738E-06-2.69448E-19-8.60176E-19
 -1      4070 9.38843E-05-2.70322E-05-2.86471E-05-9.28821E-07-1.20738E-18-4.91758E-19
 -1      4071 9.39992E-05-2.71416E-05-2.86578E-05-7.64814E-07-2.08052E-18-3.65163E-19
 -1      4072 9.36151E-05-2.68038E-05-2.86319E-05-8.82708E-07-2.08500E-19-1.24567E-18
 -1      4073 9.41656E-05-2.72715E-05-2.86666E-05-6.38005E-07-2.10231E-18 3.12033E-20
 -1      4074 9.42746E-05-2.73851E-05-2.86705E-05-5.20509E-07-1.50422E-18-1.37606E-19
 -1      4075 9.39675E-05-2.70906E-05-2.86594E-05-5.77722E-07-1.74891E-18-1.63658E-18
 -1      4076 9.44142E-05-2.75077E-05-2.86729E-05-4.35325E-07-1.72575E-18 1.00884E-19
 -1      4077 9.45099E-05-2.76147E-05-2.86721E-05-3.51577E-07-2.02112E-18 5.58198E-20
 -1      4078 9.42689E-05-2.73653E-05-2.86707E-05-3.74638E-07-1.81677E-18-1.53941E-18
 -1      4079 9.46228E-05-2.77237E-05-2.86703E-05-2.94829E-07-1.14181E-18-3.17950E-20
 -1      4080 9.47025E-05-2.78186E-05-2.86666E-05-2.35256E-07-5.09147E-19-3.25446E-19
 -1      4081 9.45171E-05-2.76126E-05-2.86712E-05-2.40628E-07-1.45625E-18-3.78534E-19
 -1      4082 9.47912E-05-2.79115E-05-2.86623E-05-1.97704E-07-5.85680E-20 4.34519E-21
 -1      4083 9.48548E-05-2.79921E-05-2.86570E-05-1.55356E-07 1.64651E-19 9.65980E-19
 -1      4084 9.47149E-05-2.78257E-05-2.86650E-05-1.52887E-07 3.79080E-19-4.99144E-19
 -1      4085 9.49225E-05-2.80685E-05-2.86513E-05-1.30329E-07 6.20284E-19 1.08168E-18
 -1      4086 9.49726E-05-2.81354E-05-2.86452E-05-1.00327E-07 1.54895E-18 7.54644E-19
 -1      4087 9.48678E-05-2.80030E-05-2.86549E-05-9.58416E-08 8.14395E-19 4.07784E-19
 -1      4088 9.49744E-05-2.81264E-05-2.86498E-05 9.08462E-08 1.20123E-18 1.21866E-18
 -1      4089 9.49179E-05-2.80518E-05-2.86575E-05 1.12662E-07 8.63176E-19 1.65973E-18
 -1      4090 9.48442E-05-2.51876E-05-2.98560E-05 1.41659E-06 1.27230E-19-1.01219E-18
 -1      4091 9.48510E-05-2.79704E-05-2.86639E-05 1.18125E-07 6.01610E-19 1.75251E-18
 -1      4092 9.47759E-05-2.78797E-05-2.86710E-05 1.39193E-07 1.37442E-19 2.31919E-18
 -1      4093 9.48711E-05-2.79985E-05-2.86585E-05 6.03537E-08 7.13379E-19 1.11077E-18
 -1      4094 8.65424E-05-2.31091E-05-2.71426E-05-7.40199E-06 5.79411E-19-2.20879E-18
 -1      4095 8.52692E-05-2.30650E-05-2.67266E-05-9.31709E-06 2.49673E-19-2.27636E-18
 -1      4096 9.44640E-05-2.31357E-05-3.05707E-05 8.17053E-08 5.29571E-19-6.95197E-19
 -1      4097 9.79274E-05-3.39566E-05-2.74793E-05 1.22021E-05 7.82482E-19-1.79670E-19
 -1      4098 9.44440E-05-3.10088E-05-2.71527E-05 1.24825E-05 7.35618E-19-4.27469E-19
 -1      4099 7.66702E-05-1.74924E-05-2.54261E-05-8.45419E-06-4.87564E-19-4.02634E-18
 -1      4100 9.08631E-05-2.43359E-05-2.85128E-05 1.19703E-07-3.16235E-19-1.02131E-18
 -1      4101 9.00779E-05-2.38019E-05-2.84264E-05-8.72122E-08-2.30813E-19-1.67392E-18
 -1      4102 8.98919E-05-2.37986E-05-2.83073E-05-1.12243E-06-3.81883E-19-5.51842E-19
 -1      4103 9.11973E-05-2.46706E-05-2.84965E-05-3.73956E-07-8.04117E-19-7.82098E-19
 -1      4104 9.50872E-05-2.82902E-05-2.86278E-05-5.49731E-08 3.99165E-18 1.52471E-18
 -1      4105 9.50880E-05-2.82917E-05-2.86272E-05-3.73463E-08 2.79416E-18-4.19458E-19
 -1      4106 9.50574E-05-2.82460E-05-2.86329E-05-3.09789E-08 3.59013E-18-1.17465E-19
 -1      4107 9.50644E-05-2.82545E-05-2.86324E-05-6.98532E-08 3.61572E-18 1.87772E-18
 -1      4108 9.15092E-05-2.87684E-05-2.69393E-05 1.23382E-05 6.18440E-19-1.49690E-19
 -1      4109 8.83468E-05-2.58513E-05-2.67980E-05 1.09285E-05 4.47209E-19-3.19332E-19
 -1      4110 8.86387E-05-2.51117E-05-2.71690E-05 8.82022E-06 6.01925E-19-3.95822E-19
 -1      4111 9.34766E-05-2.93967E-05-2.74216E-05 1.04803E-05 7.20952E-19-3.64900E-19
 -1      4112 9.46813E-05-2.77706E-05-2.86769E-05 1.42644E-07-5.91731E-21 2.29430E-18
 -1      4113 9.45724E-05-2.76490E-05-2.86833E-05 1.63745E-07 5.57936E-19 2.69654E-18
 -1      4114 9.47107E-05-2.78086E-05-2.86704E-05 6.31773E-08 3.49059E-19 2.07218E-19
 -1      4115 9.50839E-05-2.82753E-05-2.86320E-05 5.79460E-08 4.13778E-19-1.05067E-18
 -1      4116 9.48106E-05-2.58704E-05-2.95474E-05 1.95234E-06 1.06105E-19-9.16687E-19
 -1      4117 9.48172E-05-2.62819E-05-2.93664E-05 2.40250E-06 2.03288E-19-8.13883E-19
 -1      4118 9.43235E-05-2.60012E-05-2.92734E-05 2.43834E-06 3.58473E-19-6.78588E-19
 -1      4119 9.45590E-05-2.50823E-05-2.97707E-05 1.43346E-06 2.62454E-19-8.18461E-19
 -1      4120 9.50466E-05-2.82226E-05-2.86392E-05 7.34204E-08 1.14503E-18-2.50364E-19
 -1      4121 9.50091E-05-2.81775E-05-2.86418E-05 4.38558E-08 1.33524E-18-5.71571E-19
 -1      4122 9.63272E-05-3.20661E-05-2.75892E-05-1.03350E-05 1.30774E-18 8.32142E-19
 -1      4123 9.39753E-05-3.00292E-05-2.73651E-05-1.07685E-05 1.19965E-18 1.70818E-18
 -1      4124 9.24420E-05-2.43744E-05-2.91908E-05-2.12331E-07 4.64828E-19 2.14098E-19
 -1      4125 9.32304E-05-2.45479E-05-2.94434E-05-7.31944E-08 6.55135E-19-3.44163E-20
 -1      4126 9.36009E-05-2.45124E-05-2.95924E-05 4.98271E-07 4.88804E-19 1.15964E-19
 -1      4127 9.06148E-05-2.44525E-05-2.83470E-05-1.50125E-06 1.46542E-19-6.44419E-19
 -1      4128 8.98751E-05-2.40689E-05-2.82283E-05-2.01414E-06-9.13228E-20-2.72142E-19
 -1      4129 9.08049E-05-2.37530E-05-2.87649E-05 2.41449E-07 2.26330E-19 3.07058E-19
 -1      4130 9.17187E-05-2.41171E-05-2.89744E-05-9.96797E-09 2.11390E-19 2.47735E-19
 -1      4131 9.24391E-05-2.44904E-05-2.90986E-05 8.32072E-07 1.40635E-19 4.97821E-19
 -1      4132 9.08458E-05-2.40178E-05-2.86313E-05 1.59053E-06 1.39793E-19 3.37342E-19
 -1      4133 9.44912E-05-2.75665E-05-2.86795E-05 5.22434E-08-8.55252E-19-2.18129E-19
 -1      4134 9.44460E-05-2.75115E-05-2.86871E-05 1.58867E-07-5.62083E-19 1.93740E-18
 -1      4135 9.42973E-05-2.73581E-05-2.86911E-05 1.74153E-07-1.32797E-18 9.53810E-19
 -1      4136 8.93757E-05-2.37894E-05-2.80928E-05-2.73565E-06-7.33788E-19-4.34087E-19
 -1      4137 8.84592E-05-2.34266E-05-2.79055E-05-3.56313E-06-3.55578E-19-9.50823E-19
 -1      4138 9.02349E-05-2.45574E-05-2.81494E-05-3.09471E-06-6.54831E-19-8.73998E-19
 -1      4139 8.93417E-05-2.41105E-05-2.79862E-05 4.48198E-06 3.86793E-19 1.22278E-19
 -1      4140 9.03572E-05-2.43225E-05-2.82767E-05 3.43367E-06 2.86438E-19 2.00136E-20
 -1      4141 9.50079E-05-2.81789E-05-2.86411E-05-9.51295E-08 2.22457E-18 1.27881E-18
 -1      4142 9.50361E-05-2.82187E-05-2.86365E-05-7.63673E-08 3.03261E-18 1.94592E-18
 -1      4143 9.50311E-05-2.82117E-05-2.86368E-05-5.64331E-08 3.08764E-18 8.01007E-19
 -1      4144 9.49684E-05-2.81304E-05-2.86451E-05-6.58526E-08 1.51685E-18-1.35234E-18
 -1      4145 8.79885E-05-2.32898E-05-2.77063E-05-4.63669E-06 3.47448E-19-1.69006E-18
 -1      4146 8.68610E-05-2.30015E-05-2.74230E-05-5.95122E-06 7.95744E-19-2.60097E-18
 -1      4147 8.83564E-05-2.44270E-05-2.73518E-05-7.61822E-06 7.82277E-19 2.02404E-19
 -1      4148 8.92704E-05-2.43515E-05-2.78252E-05-4.93540E-06-4.93923E-19-4.86223E-19
 -1      4149 9.37184E-05-2.67905E-05-2.86838E-05 1.03712E-07-1.83122E-18-2.45835E-19
 -1      4150 9.34539E-05-2.65598E-05-2.86752E-05 7.52833E-08-2.07073E-18 1.23863E-19
 -1      4151 8.74885E-05-2.55202E-05-2.65239E-05-1.21685E-05 1.73724E-18 9.64191E-20
 -1      4152 9.07902E-05-2.75899E-05-2.70778E-05-1.09038E-05 1.41497E-18 1.40797E-18
 -1      4153 9.41321E-05-2.71881E-05-2.86910E-05 1.53117E-07-1.58495E-18-5.53443E-20
 -1      4154 9.39314E-05-2.69971E-05-2.86904E-05 1.53605E-07-2.17287E-18-7.34863E-19
 -1      4155 9.38265E-05-2.69098E-05-2.86749E-05-7.48345E-08-1.75677E-18-2.09727E-18
 -1      4156 9.42017E-05-2.72687E-05-2.86825E-05 1.34036E-08-2.07681E-18-2.42648E-18
 -1      4157 1.08923E-04-4.30685E-05-2.81648E-05 1.24392E-05-2.28712E-19 3.28555E-19
 -1      4158 9.43654E-05-2.50395E-05-2.97221E-05 1.34231E-06 2.69899E-19-6.66328E-19
 -1      4159 9.31877E-05-2.63170E-05-2.86585E-05-2.20455E-08-2.50882E-18 7.86077E-19
 -1      4160 9.28385E-05-2.60398E-05-2.86371E-05-1.01857E-07-1.58940E-18 3.24134E-19
 -1      4161 9.33513E-05-2.64901E-05-2.86506E-05-2.44538E-07-1.50584E-18-5.01215E-19
 -1      4162 9.25132E-05-2.57674E-05-2.86047E-05-2.74227E-07-1.06125E-18 4.85558E-19
 -1      4163 9.20529E-05-2.54397E-05-2.85637E-05-4.49923E-07-6.86467E-19 3.68429E-19
 -1      4164 9.27651E-05-2.60160E-05-2.86006E-05-5.40300E-07-1.74010E-18 4.36143E-20
 -1      4165 9.50039E-05-2.81768E-05-2.86405E-05-1.24838E-08 1.90160E-18-1.43278E-18
 -1      4166 9.49298E-05-2.80778E-05-2.86506E-05-7.52044E-09 1.04185E-18-5.90231E-19
 -1      4167 8.84853E-05-2.45269E-05-2.74290E-05 7.30825E-06 7.66959E-19-4.53085E-19
 -1      4168 8.91292E-05-2.42936E-05-2.77485E-05 5.68197E-06 5.30086E-19-1.45895E-19
 -1      4169 9.07062E-05-2.55254E-05-2.79563E-05 5.98022E-06 7.03612E-19-2.86896E-19
 -1      4170 9.05711E-05-2.65391E-05-2.74837E-05 8.65999E-06 6.15421E-19-2.81328E-19
 -1      4171 9.34780E-05-2.59203E-05-2.89685E-05 2.82467E-06 4.75590E-19-3.14829E-19
 -1      4172 9.33836E-05-2.61690E-05-2.87853E-05 3.45973E-06 4.90986E-19-4.13415E-19
 -1      4173 9.25368E-05-2.61447E-05-2.84611E-05 4.52381E-06 4.53035E-19-4.77106E-19
 -1      4174 9.25279E-05-2.64982E-05-2.82646E-05 5.42233E-06 5.17949E-19-5.46301E-19
 -1      4175 9.23351E-05-2.68623E-05-2.80513E-05 6.55350E-06 7.48535E-19-5.34217E-19
 -1      4176 9.26016E-05-2.75310E-05-2.78483E-05 7.69467E-06 7.14845E-19-3.94405E-19
 -1      4177 9.27229E-05-2.82369E-05-2.76202E-05 9.10235E-06 6.30349E-19-4.70827E-19
 -1      4178 9.10751E-05-2.67604E-05-2.75637E-05-7.94153E-06 8.25125E-19 1.23687E-18
 -1      4179 9.06850E-05-2.60202E-05-2.77263E-05-6.65068E-06 7.16308E-19 1.40363E-18
 -1      4180 8.02270E-05-1.96989E-05-2.58353E-05-9.81282E-06 8.77771E-20-3.59779E-18
 -1      4181 9.06271E-05-2.55643E-05-2.78804E-05-5.54727E-06 1.42805E-19 1.10457E-18
 -1      4182 9.10799E-05-2.55499E-05-2.80594E-05-4.47241E-06-6.30528E-19 9.68988E-19
 -1      4183 9.11050E-05-2.53953E-05-2.81641E-05-3.71374E-06-4.73210E-19 4.78602E-19
 -1      4184 9.15662E-05-2.55173E-05-2.82890E-05-2.95029E-06-4.01674E-19 4.68079E-19
 -1      4185 9.16995E-05-2.55212E-05-2.83649E-05-2.40811E-06-8.07884E-19-8.46764E-21
 -1      4186 9.24405E-05-2.59335E-05-2.85037E-05-1.54285E-06-1.00301E-18 7.33187E-19
 -1      4187 9.26760E-05-2.60652E-05-2.85530E-05-1.19186E-06-1.04550E-18 3.14031E-19
 -1      4188 9.29105E-05-2.62132E-05-2.85877E-05-9.29064E-07-6.02323E-19-6.70285E-20
 -1      4189 9.32354E-05-2.64470E-05-2.86201E-05-7.23827E-07-7.82453E-19-3.65252E-19
 -1      4190 9.34294E-05-2.66141E-05-2.86396E-05-5.51793E-07-1.41251E-18-1.27030E-18
 -1      4191 9.36888E-05-2.68179E-05-2.86568E-05-4.25560E-07-9.73354E-19-1.50955E-18
 -1      4192 9.38576E-05-2.69784E-05-2.86663E-05-3.14037E-07-1.30850E-18-1.28887E-18
 -1      4193 9.40661E-05-2.71587E-05-2.86735E-05-2.40394E-07-1.88327E-18-1.43738E-18
 -1      4194 9.42076E-05-2.73037E-05-2.86762E-05-1.68629E-07-1.41075E-18-1.14240E-18
 -1      4195 9.43700E-05-2.74562E-05-2.86769E-05-1.29023E-07-1.28707E-18-1.47336E-18
 -1      4196 9.44847E-05-2.75817E-05-2.86752E-05-8.34137E-08-1.52331E-18-9.14939E-19
 -1      4197 9.46093E-05-2.77078E-05-2.86720E-05-6.43182E-08-2.71472E-19-2.51961E-19
 -1      4198 9.46996E-05-2.78128E-05-2.86677E-05-3.56790E-08 6.14611E-19 7.28790E-20
 -1      4199 9.47932E-05-2.79146E-05-2.86623E-05-2.84059E-08 7.16935E-19-1.17841E-19
 -1      4200 9.48620E-05-2.79994E-05-2.86566E-05-1.12095E-08 7.61145E-19-4.28818E-20
 -1      4201 9.08344E-05-2.72713E-05-2.73142E-05-9.51010E-06 7.63590E-19 1.91990E-18
 -1      4202 8.44108E-05-2.35937E-05-2.60830E-05-1.23306E-05 1.41187E-18-1.64945E-18
 -1      4203 9.16577E-05-2.51258E-05-2.85089E-05-7.20943E-07-1.27262E-18 3.78468E-19
 -1      4204 9.10779E-05-2.47700E-05-2.84360E-05-1.02874E-06-3.50796E-19 3.75156E-20
 -1      4205 9.11989E-05-2.50011E-05-2.83695E-05-1.85709E-06-5.77427E-19 7.34112E-20
 -1      4206 9.20277E-05-2.54634E-05-2.85122E-05-1.03226E-06-8.49200E-19 1.48280E-18
 -1      4207 9.38673E-05-2.47119E-05-2.96499E-05 8.32856E-07 4.36527E-19 1.39098E-19
 -1      4208 9.40523E-05-2.47163E-05-2.97090E-05 1.02734E-06 3.01859E-19-1.35689E-19
 -1      4209 9.33869E-05-2.48611E-05-2.93748E-05 9.45859E-07 4.16653E-19 3.48709E-19
 -1      4210 9.19197E-05-2.53532E-05-2.85287E-05 3.71123E-06 4.26578E-19-1.00478E-19
 -1      4211 9.13270E-05-2.46002E-05-2.86184E-05 2.47377E-06 2.50644E-19 3.05759E-20
 -1      4212 9.40848E-05-2.53843E-05-2.94475E-05 1.63405E-06 3.75668E-19-2.62855E-19
 -1      4213 9.39326E-05-2.56616E-05-2.92562E-05 2.08624E-06 4.33270E-19-1.78444E-19
 -1      4214 9.22353E-05-2.48707E-05-2.88650E-05 1.93184E-06 2.11508E-19 5.66544E-20
 -1      4215 9.32850E-05-2.52574E-05-2.91436E-05 1.93993E-06 3.66823E-19 4.38124E-20
 -1      4216 9.21020E-05-2.57280E-05-2.84481E-05-1.90121E-06-8.31202E-19 3.66856E-19
 -1      4217 9.50300E-05-2.82096E-05-2.86371E-05-3.50784E-08 2.82324E-18-1.17703E-18
 -1      4218 9.28793E-05-2.50195E-05-2.90847E-05 1.58514E-06 3.68152E-19 2.22532E-19
 -1      4219 9.49980E-05-2.81686E-05-2.86413E-05-3.71278E-08 2.28516E-18-8.12335E-19
 -3
    1PSTEP                         4           1           1          
  100CL  101 1.000000000        4219                     0    1           1
 -4  ERROR       1    1
 -5  STR(%)      1    1    0    0
 -1         1 2.41265E+01
 -1         2 2.36640E+01
 -1         3 6.95268E-04
 -1         4 6.23376E-04
 -1         5 1.32228E+01
 -1         6 1.30962E+01
 -1         7 1.30962E+01
 -1         8 3.62482E+00
 -1         9 1.81034E+00
 -1        10 1.28807E+00
 -1        11 1.03863E+00
 -1        12 8.88404E-01
 -1        13 7.89105E-01
 -1        14 7.24059E-01
 -1        15 7.23347E-01
 -1        16 7.87465E-01
 -1        17 8.81167E-01
 -1        18 1.03858E+00
 -1        19 1.29108E+00
 -1        20 1.82049E+00
 -1        21 3.65722E+00
 -1        22 1.32228E+01
 -1        23 1.30962E+01
 -1        24 4.31989E+00
 -1        25 3.32314E+00
 -1        26 2.08548E+00
 -1        27 1.38404E+00
 -1        28 1.04254E+00
 -1        29 7.93243E-01
 -1        30 5.92510E-01
 -1        31 4.17799E-01
 -1        32 2.99816E-01
 -1        33 2.66687E-01
 -1        34 2.05830E-01
 -1        35 2.57479E-01
 -1        36 4.00420E-01
 -1        37 6.20707E-01
 -1        38 8.56769E-01
 -1        39 1.29425E+00
 -1        40 1.81586E+00
 -1        41 2.23026E+00
 -1        42 2.39556E+00
 -1        43 2.39556E+00
 -1        44 2.37352E+00
 -1        45 2.37352E+00
 -1        46 2.09071E+00
 -1        47 1.61104E+00
 -1        48 1.11250E+00
 -1        49 7.79404E-01
 -1        50 5.80986E-01
 -1        51 3.78476E-01
 -1        52 3.22463E-01
 -1        53 2.56619E-01
 -1        54 2.34171E-01
 -1        55 2.05376E-01
 -1        56 1.63820E-01
 -1        57 1.21096E-01
 -1        58 1.06536E-01
 -1        59 9.27452E-02
 -1        60 7.62490E-02
 -1        61 5.97430E-02
 -1        62 4.47604E-02
 -1        63 3.73489E-02
 -1        64 3.13789E-02
 -1        65 2.52343E-02
 -1        66 1.93639E-02
 -1        67 1.39848E-02
 -1        68 1.01811E-02
 -1        69 7.41293E-03
 -1        70 4.34061E-03
 -1        71 2.72936E-03
 -1        72 1.32228E+01
 -1        73 4.30334E+00
 -1        74 3.40009E+00
 -1        75 2.15731E+00
 -1        76 1.45657E+00
 -1        77 1.13760E+00
 -1        78 9.40021E-01
 -1        79 7.94546E-01
 -1        80 7.38214E-01
 -1        81 8.84992E-01
 -1        82 1.17544E+00
 -1        83 1.48973E+00
 -1        84 1.88551E+00
 -1        85 2.62294E+00
 -1        86 3.50255E+00
 -1        87 4.45744E+00
 -1        88 4.66884E+00
 -1        89 4.66884E+00
 -1        90 4.92658E+00
 -1        91 1.11481E+01
 -1        92 1.33566E+01
 -1        93 1.33566E+01
 -1        94 1.27604E+01
 -1        95 6.83860E+00
 -1        96 4.29217E+00
 -1        97 4.72547E+00
 -1        98 4.72547E+00
 -1        99 4.03140E+00
 -1       100 3.01963E+00
 -1       101 2.16980E+00
 -1       102 1.61147E+00
 -1       103 1.22159E+00
 -1       104 9.04783E-01
 -1       105 6.52868E-01
 -1       106 4.48055E-01
 -1       107 3.31975E-01
 -1       108 2.31672E-01
 -1       109 1.60476E-01
 -1       110 1.10394E-01
 -1       111 8.64763E-02
 -1       112 6.78606E-02
 -1       113 5.23895E-02
 -1       114 3.97911E-02
 -1       115 2.96477E-02
 -1       116 2.14419E-02
 -1       117 1.52287E-02
 -1       118 1.18038E-02
 -1       119 8.23936E-03
 -1       120 4.61063E-03
 -1       121 3.21376E-03
 -1       122 1.91034E-03
 -1       123 6.09444E-04
 -1       124 5.85557E-04
 -1       125 6.17704E-04
 -1       126 6.17704E-04
 -1       127 4.84396E-04
 -1       128 2.94604E-04
 -1       129 1.22668E-04
 -1       130 4.46160E-05
 -1       131 1.38563E-04
 -1       132 2.91117E-04
 -1       133 4.33930E-04
 -1       134 4.52324E-04
 -1       135 4.52324E-04
 -1       136 6.79542E-04
 -1       137 1.57863E-03
 -1       138 2.46467E+01
 -1       139 2.65750E+01
 -1       140 3.15351E+01
 -1       141 3.15351E+01
 -1       142 1.45067E+01
 -1       143 1.37486E+01
 -1       144 1.37486E+01
 -1       145 1.33577E+01
 -1       146 1.33577E+01
 -1       147 1.64191E+01
 -1       148 4.39595E+01
 -1       149 4.39595E+01
 -1       150 2.43031E+01
 -1       151 2.45193E+01
 -1       152 2.45193E+01
 -1       153 4.03172E+01
 -1       154 4.03172E+01
 -1       155 1.48649E+01
 -1       156 1.24946E+01
 -1       157 1.24946E+01
 -1       158 1.22634E+01
 -1       159 1.26197E+01
 -1       160 1.26197E+01
 -1       161 1.16268E+01
 -1       162 2.29109E+01
 -1       163 4.83356E+01
 -1       164 4.83356E+01
 -1       165 2.38565E+01
 -1       166 6.01831E+00
 -1       167 2.28072E+00
 -1       168 1.50708E+00
 -1       169 1.15712E+00
 -1       170 9.64332E-01
 -1       171 8.48182E-01
 -1       172 7.71031E-01
 -1       173 7.22174E-01
 -1       174 7.70250E-01
 -1       175 8.44400E-01
 -1       176 9.65024E-01
 -1       177 1.15886E+00
 -1       178 1.51309E+00
 -1       179 2.29593E+00
 -1       180 6.12054E+00
 -1       181 4.31989E+00
 -1       182 3.32314E+00
 -1       183 2.08548E+00
 -1       184 1.41239E+00
 -1       185 1.04254E+00
 -1       186 7.93243E-01
 -1       187 5.92510E-01
 -1       188 4.33805E-01
 -1       189 3.04985E-01
 -1       190 2.66687E-01
 -1       191 2.02381E-01
 -1       192 2.05830E-01
 -1       193 2.80659E-01
 -1       194 4.88248E-01
 -1       195 7.43088E-01
 -1       196 1.01547E+00
 -1       197 1.37238E+00
 -1       198 1.81586E+00
 -1       199 2.23026E+00
 -1       200 2.39556E+00
 -1       201 2.35748E+00
 -1       202 2.37352E+00
 -1       203 2.09071E+00
 -1       204 1.61104E+00
 -1       205 1.21105E+00
 -1       206 8.90805E-01
 -1       207 6.13394E-01
 -1       208 3.78476E-01
 -1       209 3.22463E-01
 -1       210 2.56619E-01
 -1       211 2.34171E-01
 -1       212 2.05376E-01
 -1       213 1.63820E-01
 -1       214 1.29480E-01
 -1       215 1.06536E-01
 -1       216 9.27452E-02
 -1       217 7.62490E-02
 -1       218 5.97430E-02
 -1       219 4.67358E-02
 -1       220 3.73489E-02
 -1       221 3.13789E-02
 -1       222 2.52343E-02
 -1       223 1.93639E-02
 -1       224 1.39848E-02
 -1       225 1.01811E-02
 -1       226 7.41293E-03
 -1       227 4.35954E-03
 -1       228 2.72936E-03
 -1       229 4.30334E+00
 -1       230 3.40009E+00
 -1       231 2.15731E+00
 -1       232 1.45657E+00
 -1       233 1.13760E+00
 -1       234 9.40021E-01
 -1       235 7.94546E-01
 -1       236 6.94999E-01
 -1       237 7.38214E-01
 -1       238 8.84992E-01
 -1       239 1.32868E+00
 -1       240 1.91579E+00
 -1       241 2.57788E+00
 -1       242 3.18561E+00
 -1       243 3.65366E+00
 -1       244 4.45744E+00
 -1       245 4.66884E+00
 -1       246 4.13408E+00
 -1       247 5.40252E+00
 -1       248 1.11481E+01
 -1       249 1.33566E+01
 -1       250 1.27604E+01
 -1       251 7.02615E+00
 -1       252 3.37567E+00
 -1       253 4.29217E+00
 -1       254 4.72547E+00
 -1       255 4.03140E+00
 -1       256 3.30658E+00
 -1       257 2.59581E+00
 -1       258 2.11020E+00
 -1       259 1.56157E+00
 -1       260 1.10512E+00
 -1       261 7.58614E-01
 -1       262 4.94135E-01
 -1       263 3.55111E-01
 -1       264 2.54528E-01
 -1       265 1.80880E-01
 -1       266 1.27653E-01
 -1       267 8.92758E-02
 -1       268 6.78606E-02
 -1       269 5.23895E-02
 -1       270 3.97911E-02
 -1       271 2.96477E-02
 -1       272 2.15259E-02
 -1       273 1.59073E-02
 -1       274 1.18038E-02
 -1       275 8.23936E-03
 -1       276 5.01660E-03
 -1       277 3.21376E-03
 -1       278 1.55226E-03
 -1       279 1.24311E-03
 -1       280 1.09907E-03
 -1       281 1.09907E-03
 -1       282 1.03841E-03
 -1       283 7.41317E-04
 -1       284 3.63759E-04
 -1       285 2.61179E-04
 -1       286 2.61179E-04
 -1       287 3.94323E-04
 -1       288 6.86425E-04
 -1       289 7.92087E-04
 -1       290 1.01634E-03
 -1       291 1.01634E-03
 -1       292 1.39132E-03
 -1       293 3.01608E+01
 -1       294 2.57033E+01
 -1       295 3.07785E+01
 -1       296 3.15351E+01
 -1       297 1.45067E+01
 -1       298 1.27849E+01
 -1       299 1.37486E+01
 -1       300 1.26242E+01
 -1       301 1.33577E+01
 -1       302 1.26559E+01
 -1       303 1.64191E+01
 -1       304 4.39595E+01
 -1       305 3.73060E+01
 -1       306 2.96256E+01
 -1       307 2.96256E+01
 -1       308 2.65855E+01
 -1       309 3.62786E+01
 -1       310 4.03172E+01
 -1       311 1.48649E+01
 -1       312 1.05986E+01
 -1       313 1.24946E+01
 -1       314 1.22634E+01
 -1       315 1.19274E+01
 -1       316 1.26197E+01
 -1       317 1.16268E+01
 -1       318 1.15839E+01
 -1       319 2.43057E+01
 -1       320 4.83356E+01
 -1       321 2.99546E+01
 -1       322 3.01608E+01
 -1       323 1.06486E+00
 -1       324 2.44617E+00
 -1       325 7.88090E-01
 -1       326 6.88681E-01
 -1       327 6.18826E-01
 -1       328 5.67674E-01
 -1       329 5.67771E-01
 -1       330 6.16597E-01
 -1       331 6.89283E-01
 -1       332 7.89394E-01
 -1       333 9.21575E-01
 -1       334 1.07404E+00
 -1       335 2.43847E+00
 -1       336 2.06852E+01
 -1       337 1.70197E+00
 -1       338 1.22630E+00
 -1       339 8.50356E-01
 -1       340 6.46590E-01
 -1       341 5.25373E-01
 -1       342 4.08553E-01
 -1       343 3.04985E-01
 -1       344 2.32726E-01
 -1       345 1.91296E-01
 -1       346 2.17696E-01
 -1       347 2.82709E-01
 -1       348 4.07310E-01
 -1       349 5.98933E-01
 -1       350 8.21573E-01
 -1       351 1.09057E+00
 -1       352 1.31281E+00
 -1       353 1.57706E+00
 -1       354 1.70582E+00
 -1       355 1.67124E+00
 -1       356 1.71433E+00
 -1       357 1.67809E+00
 -1       358 1.48464E+00
 -1       359 1.21817E+00
 -1       360 9.69589E-01
 -1       361 6.91977E-01
 -1       362 4.74595E-01
 -1       363 2.80849E-01
 -1       364 1.29877E-01
 -1       365 1.29978E-01
 -1       366 1.50538E-01
 -1       367 1.45162E-01
 -1       368 1.26063E-01
 -1       369 1.10797E-01
 -1       370 9.49868E-02
 -1       371 7.84292E-02
 -1       372 6.11287E-02
 -1       373 4.67358E-02
 -1       374 3.53993E-02
 -1       375 2.57087E-02
 -1       376 1.85280E-02
 -1       377 1.52188E-02
 -1       378 1.19331E-02
 -1       379 8.71386E-03
 -1       380 5.70539E-03
 -1       381 3.82124E-03
 -1       382 2.30096E-03
 -1       383 1.25263E+00
 -1       384 1.71718E+00
 -1       385 8.80134E-01
 -1       386 7.10280E-01
 -1       387 6.03377E-01
 -1       388 5.00716E-01
 -1       389 5.30087E-01
 -1       390 6.90518E-01
 -1       391 1.09624E+00
 -1       392 1.61754E+00
 -1       393 2.26126E+00
 -1       394 2.99262E+00
 -1       395 3.68971E+00
 -1       396 4.22047E+00
 -1       397 5.24582E+00
 -1       398 7.34715E+00
 -1       399 8.93513E+00
 -1       400 9.07436E+00
 -1       401 8.50928E+00
 -1       402 3.50200E+00
 -1       403 4.86670E+00
 -1       404 6.71571E+00
 -1       405 4.39377E+00
 -1       406 3.86943E+00
 -1       407 3.31909E+00
 -1       408 2.68753E+00
 -1       409 2.01599E+00
 -1       410 1.45508E+00
 -1       411 1.02264E+00
 -1       412 6.97216E-01
 -1       413 4.89732E-01
 -1       414 3.29515E-01
 -1       415 2.18810E-01
 -1       416 1.43040E-01
 -1       417 9.15310E-02
 -1       418 6.05394E-02
 -1       419 4.53458E-02
 -1       420 3.18109E-02
 -1       421 2.23472E-02
 -1       422 1.70345E-02
 -1       423 1.26143E-02
 -1       424 8.99025E-03
 -1       425 6.47053E-03
 -1       426 4.18549E-03
 -1       427 2.73342E-03
 -1       428 3.52443E+01
 -1       429 1.58872E-03
 -1       430 2.37652E-03
 -1       431 1.43576E-03
 -1       432 1.15113E-03
 -1       433 8.11235E-04
 -1       434 7.65976E-04
 -1       435 7.65976E-04
 -1       436 7.48274E-04
 -1       437 7.00712E-04
 -1       438 1.07284E-03
 -1       439 1.17199E-03
 -1       440 1.66882E-03
 -1       441 2.54217E+01
 -1       442 3.52443E+01
 -1       443 9.15755E-01
 -1       444 7.23835E+00
 -1       445 9.23588E+00
 -1       446 1.19865E+01
 -1       447 1.16490E+01
 -1       448 9.14928E+00
 -1       449 8.10142E+00
 -1       450 1.54048E+01
 -1       451 2.59590E+01
 -1       452 2.26769E+01
 -1       453 3.80397E+01
 -1       454 3.80397E+01
 -1       455 2.63332E+01
 -1       456 2.32151E+01
 -1       457 1.37471E+01
 -1       458 7.68219E+00
 -1       459 7.42039E+00
 -1       460 9.82380E+00
 -1       461 1.00634E+01
 -1       462 1.09795E+01
 -1       463 9.26282E+00
 -1       464 7.15382E+00
 -1       465 1.02828E+01
 -1       466 1.76637E+01
 -1       467 2.99546E+01
 -1       468 2.65700E+01
 -1       469 1.26036E+01
 -1       470 4.90791E+00
 -1       471 4.81773E-01
 -1       472 5.13148E-01
 -1       473 4.09089E-01
 -1       474 4.39053E-01
 -1       475 4.76479E-01
 -1       476 5.09480E-01
 -1       477 5.18036E-01
 -1       478 5.18036E-01
 -1       479 7.92640E-01
 -1       480 7.63352E-01
 -1       481 6.47862E-01
 -1       482 5.16779E-01
 -1       483 3.85559E-01
 -1       484 3.33905E-01
 -1       485 2.74237E-01
 -1       486 2.18094E-01
 -1       487 1.91296E-01
 -1       488 2.17696E-01
 -1       489 2.83986E-01
 -1       490 4.02529E-01
 -1       491 5.52833E-01
 -1       492 7.11323E-01
 -1       493 9.22982E-01
 -1       494 1.11378E+00
 -1       495 1.21615E+00
 -1       496 1.30702E+00
 -1       497 1.28686E+00
 -1       498 1.24437E+00
 -1       499 1.31143E+00
 -1       500 1.28302E+00
 -1       501 1.16943E+00
 -1       502 1.02503E+00
 -1       503 7.98011E-01
 -1       504 5.87078E-01
 -1       505 4.10305E-01
 -1       506 2.51942E-01
 -1       507 2.06155E-01
 -1       508 1.58692E-01
 -1       509 1.35192E-01
 -1       510 1.31680E-01
 -1       511 1.18101E-01
 -1       512 1.03454E-01
 -1       513 8.80764E-02
 -1       514 7.18323E-02
 -1       515 5.59305E-02
 -1       516 4.17209E-02
 -1       517 2.98146E-02
 -1       518 2.03432E-02
 -1       519 1.31557E-02
 -1       520 8.90261E-03
 -1       521 6.51455E-03
 -1       522 4.97351E-03
 -1       523 3.41767E-03
 -1       524 7.49035E-01
 -1       525 3.79381E-01
 -1       526 3.05525E-01
 -1       527 2.86419E-01
 -1       528 4.59574E-01
 -1       529 7.51397E-01
 -1       530 1.13979E+00
 -1       531 1.66618E+00
 -1       532 2.40062E+00
 -1       533 3.42029E+00
 -1       534 4.96672E+00
 -1       535 7.56790E+00
 -1       536 1.17499E+01
 -1       537 5.69131E+00
 -1       538 4.15452E+00
 -1       539 3.01005E+00
 -1       540 2.15475E+00
 -1       541 1.54091E+00
 -1       542 1.09798E+00
 -1       543 7.81767E-01
 -1       544 5.57890E-01
 -1       545 3.90430E-01
 -1       546 2.70979E-01
 -1       547 1.86268E-01
 -1       548 1.26466E-01
 -1       549 8.34321E-02
 -1       550 5.65241E-02
 -1       551 3.60636E-02
 -1       552 2.20844E-02
 -1       553 1.51217E-02
 -1       554 1.15767E-02
 -1       555 8.99025E-03
 -1       556 6.47053E-03
 -1       557 4.18549E-03
 -1       558 3.08844E-03
 -1       559 2.54217E+01
 -1       560 1.50522E-03
 -1       561 1.68122E+01
 -1       562 1.68158E-03
 -1       563 1.68158E-03
 -1       564 1.54432E-03
 -1       565 1.53702E-03
 -1       566 1.21395E-03
 -1       567 1.28122E-03
 -1       568 1.28122E-03
 -1       569 1.12644E+01
 -1       570 2.65700E+01
 -1       571 4.98244E-01
 -1       572 2.06347E+01
 -1       573 1.67304E-03
 -1       574 6.93153E+00
 -1       575 1.18935E+01
 -1       576 2.63332E+01
 -1       577 1.91328E-03
 -1       578 1.67304E-03
 -1       579 7.73708E+00
 -1       580 3.52443E+01
 -1       581 4.44839E-01
 -1       582 5.92067E-01
 -1       583 7.47742E+00
 -1       584 1.19337E+01
 -1       585 1.97951E+01
 -1       586 2.26769E+01
 -1       587 3.80397E+01
 -1       588 1.66408E+01
 -1       589 8.83769E+00
 -1       590 4.20825E+00
 -1       591 9.76371E+00
 -1       592 5.49335E+00
 -1       593 9.63591E+00
 -1       594 4.67964E+00
 -1       595 5.35497E+00
 -1       596 1.32778E+01
 -1       597 8.51580E-01
 -1       598 6.49692E+00
 -1       599 5.13148E-01
 -1       600 2.30096E-03
 -1       601 4.68075E-01
 -1       602 2.15272E+01
 -1       603 8.93513E+00
 -1       604 3.41950E-01
 -1       605 3.15114E-01
 -1       606 3.57495E-01
 -1       607 3.53131E-01
 -1       608 3.81841E-01
 -1       609 2.00623E-03
 -1       610 3.72950E-01
 -1       611 3.32235E-01
 -1       612 3.00792E-01
 -1       613 2.41873E-01
 -1       614 2.06446E-01
 -1       615 1.83678E-01
 -1       616 1.66725E-01
 -1       617 2.05250E-01
 -1       618 2.83986E-01
 -1       619 4.02529E-01
 -1       620 5.52833E-01
 -1       621 7.11323E-01
 -1       622 8.88577E-01
 -1       623 1.02223E+00
 -1       624 1.14121E+00
 -1       625 1.25705E+00
 -1       626 1.37710E+00
 -1       627 1.21665E+00
 -1       628 1.41340E+00
 -1       629 1.33415E+00
 -1       630 1.18647E+00
 -1       631 1.07442E+00
 -1       632 9.44447E-01
 -1       633 7.68838E-01
 -1       634 5.87078E-01
 -1       635 4.21646E-01
 -1       636 3.28843E-01
 -1       637 2.37649E-01
 -1       638 1.80363E-01
 -1       639 1.60491E-01
 -1       640 1.38827E-01
 -1       641 1.17516E-01
 -1       642 9.84703E-02
 -1       643 8.03068E-02
 -1       644 6.33738E-02
 -1       645 4.83510E-02
 -1       646 3.57158E-02
 -1       647 2.55347E-02
 -1       648 1.76368E-02
 -1       649 1.17306E-02
 -1       650 7.47546E-03
 -1       651 4.54040E-03
 -1       652 3.11341E-03
 -1       653 1.59315E+01
 -1       654 1.95825E-01
 -1       655 1.48631E-01
 -1       656 5.75131E-01
 -1       657 9.52430E-01
 -1       658 1.48490E+00
 -1       659 2.23643E+00
 -1       660 3.27674E+00
 -1       661 5.00921E+00
 -1       662 9.77962E+00
 -1       663 1.14705E+01
 -1       664 4.89623E+00
 -1       665 2.84858E+00
 -1       666 2.72616E+00
 -1       667 4.14755E+00
 -1       668 1.29086E+01
 -1       669 6.26167E+00
 -1       670 1.94382E+00
 -1       671 1.33342E+00
 -1       672 9.13209E-01
 -1       673 6.24002E-01
 -1       674 4.17144E-01
 -1       675 2.79441E-01
 -1       676 1.93047E-01
 -1       677 1.37779E-01
 -1       678 9.75155E-02
 -1       679 6.85629E-02
 -1       680 4.67476E-02
 -1       681 3.11326E-02
 -1       682 2.01499E-02
 -1       683 1.24329E-02
 -1       684 7.74424E-03
 -1       685 5.02507E-03
 -1       686 3.70465E-03
 -1       687 2.30893E-03
 -1       688 3.00923E-03
 -1       689 1.63698E+01
 -1       690 1.54225E+01
 -1       691 3.00923E-03
 -1       692 2.80007E-03
 -1       693 2.60364E-03
 -1       694 2.12402E-03
 -1       695 6.28709E+00
 -1       696 6.63290E+00
 -1       697 9.44543E+00
 -1       698 1.50041E+01
 -1       699 8.56991E+00
 -1       700 1.17110E+01
 -1       701 2.48833E-01
 -1       702 1.06657E+01
 -1       703 1.45585E+01
 -1       704 2.82021E-03
 -1       705 3.45995E-01
 -1       706 4.49332E+00
 -1       707 1.41475E+01
 -1       708 3.57495E-01
 -1       709 2.70322E+00
 -1       710 3.64003E-01
 -1       711 3.64541E+00
 -1       712 5.58183E+00
 -1       713 3.76755E-01
 -1       714 5.42208E+00
 -1       715 3.22922E-01
 -1       716 3.00344E-01
 -1       717 3.64003E-01
 -1       718 2.59334E-03
 -1       719 3.00039E-03
 -1       720 3.00039E-03
 -1       721 3.49837E-01
 -1       722 2.59544E-01
 -1       723 2.99985E-01
 -1       724 2.76934E-01
 -1       725 2.87719E+00
 -1       726 1.59419E-01
 -1       727 1.62085E-01
 -1       728 1.35767E-01
 -1       729 1.19150E-01
 -1       730 1.19384E-01
 -1       731 1.76555E-01
 -1       732 2.60014E-01
 -1       733 3.61023E-01
 -1       734 5.14958E-01
 -1       735 6.93872E-01
 -1       736 8.88577E-01
 -1       737 1.09027E+00
 -1       738 1.26194E+00
 -1       739 1.27244E+00
 -1       740 1.60316E+00
 -1       741 1.78686E+00
 -1       742 2.67122E+00
 -1       743 2.24549E+00
 -1       744 1.43059E+00
 -1       745 1.21391E+00
 -1       746 1.18549E+00
 -1       747 9.53069E-01
 -1       748 7.68838E-01
 -1       749 6.30828E-01
 -1       750 4.75708E-01
 -1       751 3.28843E-01
 -1       752 2.59894E-01
 -1       753 2.12227E-01
 -1       754 1.71854E-01
 -1       755 1.39637E-01
 -1       756 1.14647E-01
 -1       757 9.06096E-02
 -1       758 6.93681E-02
 -1       759 5.18389E-02
 -1       760 3.82974E-02
 -1       761 2.76746E-02
 -1       762 1.95425E-02
 -1       763 1.34702E-02
 -1       764 9.05678E-03
 -1       765 5.89550E-03
 -1       766 1.14277E+00
 -1       767 7.38837E-01
 -1       768 2.55020E+00
 -1       769 4.13484E+00
 -1       770 9.12143E+00
 -1       771 6.76830E+00
 -1       772 3.49921E+00
 -1       773 1.56290E+00
 -1       774 6.97956E+00
 -1       775 2.31352E+00
 -1       776 1.07915E+00
 -1       777 7.56341E-01
 -1       778 5.24314E-01
 -1       779 3.62503E-01
 -1       780 2.49162E-01
 -1       781 1.69844E-01
 -1       782 1.15240E-01
 -1       783 7.92219E-02
 -1       784 5.34291E-02
 -1       785 3.52887E-02
 -1       786 2.32560E-02
 -1       787 1.58389E-02
 -1       788 1.05640E-02
 -1       789 6.70833E-03
 -1       790 4.35704E-03
 -1       791 5.22395E+00
 -1       792 9.55430E+00
 -1       793 1.14705E+01
 -1       794 4.78905E-03
 -1       795 4.78905E-03
 -1       796 2.72470E-01
 -1       797 3.64644E+00
 -1       798 3.89293E+00
 -1       799 2.66486E+00
 -1       800 1.59618E-01
 -1       801 9.63800E+00
 -1       802 8.59908E+00
 -1       803 6.76830E+00
 -1       804 5.52506E+00
 -1       805 9.63666E+00
 -1       806 4.92513E-03
 -1       807 4.11485E+00
 -1       808 1.88742E-01
 -1       809 4.06359E+00
 -1       810 9.55430E+00
 -1       811 3.81323E-03
 -1       812 2.59991E-01
 -1       813 3.40095E+00
 -1       814 1.73064E+00
 -1       815 2.29741E+00
 -1       816 6.30758E+00
 -1       817 2.99985E-01
 -1       818 2.83373E-01
 -1       819 4.62286E-01
 -1       820 9.60178E+00
 -1       821 4.92513E-03
 -1       822 2.67256E-01
 -1       823 4.77634E-03
 -1       824 2.83342E-01
 -1       825 4.92199E-03
 -1       826 3.44742E+00
 -1       827 1.85012E-01
 -1       828 2.83373E-01
 -1       829 2.52130E-01
 -1       830 4.72252E-03
 -1       831 5.54493E+00
 -1       832 1.02614E-01
 -1       833 7.29679E-02
 -1       834 8.84302E-02
 -1       835 1.06233E-01
 -1       836 1.60715E-01
 -1       837 2.44920E-01
 -1       838 3.61023E-01
 -1       839 5.14958E-01
 -1       840 7.08950E-01
 -1       841 9.64760E-01
 -1       842 1.12143E+00
 -1       843 1.26194E+00
 -1       844 2.12433E+00
 -1       845 2.30745E+00
 -1       846 2.68831E+00
 -1       847 3.89293E+00
 -1       848 2.13378E+00
 -1       849 1.95424E+00
 -1       850 1.20337E+00
 -1       851 1.19530E+00
 -1       852 9.27544E-01
 -1       853 6.30828E-01
 -1       854 4.75708E-01
 -1       855 3.77067E-01
 -1       856 2.86493E-01
 -1       857 2.22034E-01
 -1       858 1.75765E-01
 -1       859 1.36470E-01
 -1       860 1.03588E-01
 -1       861 8.18093E-02
 -1       862 6.44661E-02
 -1       863 4.97561E-02
 -1       864 3.69938E-02
 -1       865 2.65067E-02
 -1       866 1.83730E-02
 -1       867 1.25058E-02
 -1       868 8.12918E-03
 -1       869 6.37377E+00
 -1       870 2.69792E+00
 -1       871 4.14504E+00
 -1       872 9.85656E-01
 -1       873 5.30699E-03
 -1       874 2.37886E+00
 -1       875 3.74490E-01
 -1       876 2.73793E-01
 -1       877 1.96365E-01
 -1       878 1.40078E-01
 -1       879 9.93013E-02
 -1       880 6.85107E-02
 -1       881 4.68333E-02
 -1       882 3.18772E-02
 -1       883 2.13314E-02
 -1       884 1.39007E-02
 -1       885 8.60132E-03
 -1       886 6.51911E-03
 -1       887 2.30745E+00
 -1       888 1.36213E-01
 -1       889 2.58203E+00
 -1       890 2.67396E+00
 -1       891 1.09233E-02
 -1       892 3.42709E+00
 -1       893 2.74883E-01
 -1       894 6.34946E+00
 -1       895 5.46335E+00
 -1       896 6.92670E-01
 -1       897 1.82618E+00
 -1       898 5.07585E-01
 -1       899 1.86895E-01
 -1       900 8.05931E-01
 -1       901 2.20231E+00
 -1       902 4.69759E+00
 -1       903 4.21041E+00
 -1       904 1.42290E-01
 -1       905 1.16227E+00
 -1       906 6.34946E+00
 -1       907 5.32151E-01
 -1       908 2.23413E+00
 -1       909 1.49818E+00
 -1       910 7.65088E+00
 -1       911 2.27127E+00
 -1       912 6.51911E-03
 -1       913 5.30090E+00
 -1       914 1.09233E-02
 -1       915 1.71865E-01
 -1       916 2.05971E-01
 -1       917 2.60953E-01
 -1       918 1.82275E-01
 -1       919 4.85056E+00
 -1       920 2.05971E-01
 -1       921 7.65088E+00
 -1       922 6.93170E-03
 -1       923 6.93170E-03
 -1       924 1.71133E-01
 -1       925 1.11237E-01
 -1       926 1.52197E-01
 -1       927 1.96679E-01
 -1       928 2.80523E-01
 -1       929 3.88928E-01
 -1       930 5.55914E-01
 -1       931 7.52143E-01
 -1       932 9.64760E-01
 -1       933 1.32119E+00
 -1       934 1.21377E+00
 -1       935 1.86425E-01
 -1       936 1.95424E+00
 -1       937 2.32937E+00
 -1       938 1.83756E+00
 -1       939 9.27544E-01
 -1       940 7.04547E-01
 -1       941 5.28500E-01
 -1       942 4.09019E-01
 -1       943 3.09107E-01
 -1       944 2.25826E-01
 -1       945 1.68929E-01
 -1       946 1.30526E-01
 -1       947 1.03588E-01
 -1       948 8.18093E-02
 -1       949 6.26348E-02
 -1       950 4.66097E-02
 -1       951 3.37243E-02
 -1       952 2.36919E-02
 -1       953 1.61062E-02
 -1       954 1.20502E-02
 -1       955 5.64366E+00
 -1       956 1.48977E+00
 -1       957 2.40768E+00
 -1       958 1.39770E-01
 -1       959 2.55446E-01
 -1       960 1.01104E-01
 -1       961 7.36830E-02
 -1       962 5.26443E-02
 -1       963 3.68013E-02
 -1       964 2.54943E-02
 -1       965 1.76555E-02
 -1       966 1.16259E-02
 -1       967 7.97487E-03
 -1       968 3.11685E+00
 -1       969 3.62384E+00
 -1       970 1.82359E-01
 -1       971 9.17236E-01
 -1       972 2.12433E+00
 -1       973 3.96785E-01
 -1       974 1.86425E-01
 -1       975 4.37098E+00
 -1       976 8.48185E-03
 -1       977 2.40768E+00
 -1       978 7.61087E-01
 -1       979 2.66163E+00
 -1       980 4.20877E+00
 -1       981 4.20877E+00
 -1       982 1.36545E-01
 -1       983 7.65088E+00
 -1       984 6.53184E-01
 -1       985 1.20502E-02
 -1       986 5.29353E-01
 -1       987 1.07134E+00
 -1       988 1.64970E+00
 -1       989 2.30027E-01
 -1       990 1.09282E-02
 -1       991 3.73211E-01
 -1       992 1.10101E-01
 -1       993 1.03635E-02
 -1       994 1.36384E-01
 -1       995 1.65269E-01
 -1       996 2.30060E-01
 -1       997 3.12292E-01
 -1       998 4.41848E-01
 -1       999 6.35853E-01
 -1      1000 8.49890E-01
 -1      1001 1.20967E+00
 -1      1002 1.32119E+00
 -1      1003 1.44780E+00
 -1      1004 8.63144E-01
 -1      1005 5.99806E-01
 -1      1006 4.19603E-01
 -1      1007 2.95113E-01
 -1      1008 2.25064E-01
 -1      1009 1.68929E-01
 -1      1010 1.30526E-01
 -1      1011 9.94942E-02
 -1      1012 7.40851E-02
 -1      1013 5.40822E-02
 -1      1014 3.87089E-02
 -1      1015 2.71067E-02
 -1      1016 1.86058E-02
 -1      1017 1.27758E-02
 -1      1018 3.00094E+00
 -1      1019 3.26180E+00
 -1      1020 1.05452E+00
 -1      1021 1.08826E-01
 -1      1022 3.82293E-02
 -1      1023 2.72017E-02
 -1      1024 2.34727E-02
 -1      1025 1.31207E-02
 -1      1026 1.83663E+00
 -1      1027 3.00094E+00
 -1      1028 2.19117E+00
 -1      1029 5.47741E-02
 -1      1030 7.82204E-02
 -1      1031 2.98238E+00
 -1      1032 1.09282E-02
 -1      1033 3.96785E-01
 -1      1034 1.71133E-01
 -1      1035 2.28766E+00
 -1      1036 8.70613E-03
 -1      1037 1.23864E-01
 -1      1038 4.74257E-01
 -1      1039 2.48778E-02
 -1      1040 1.66693E+00
 -1      1041 7.33193E-01
 -1      1042 5.43871E-01
 -1      1043 8.50957E-01
 -1      1044 1.27624E+00
 -1      1045 1.51378E-01
 -1      1046 1.76198E+00
 -1      1047 2.08880E-01
 -1      1048 2.86174E-01
 -1      1049 2.17868E-02
 -1      1050 1.68539E+00
 -1      1051 1.48853E-01
 -1      1052 2.84151E-01
 -1      1053 2.18409E+00
 -1      1054 2.26086E-01
 -1      1055 3.16187E-01
 -1      1056 7.09145E-01
 -1      1057 8.78483E-01
 -1      1058 9.60040E-01
 -1      1059 1.36912E+00
 -1      1060 1.45545E+00
 -1      1061 1.19270E+00
 -1      1062 8.65279E-01
 -1      1063 6.33905E-01
 -1      1064 4.36333E-01
 -1      1065 2.25064E-01
 -1      1066 2.15675E-01
 -1      1067 1.53368E-01
 -1      1068 1.10861E-01
 -1      1069 7.91074E-02
 -1      1070 5.59701E-02
 -1      1071 3.90116E-02
 -1      1072 2.64271E-02
 -1      1073 2.48778E-02
 -1      1074 3.43922E-02
 -1      1075 1.45545E+00
 -1      1076 3.84114E-01
 -1      1077 1.04874E-02
 -1      1078 1.38336E+00
 -1      1079 4.83353E-02
 -1      1080 2.30060E-01
 -1      1081 3.93252E-01
 -1      1082 6.33905E-01
 -1      1083 6.85851E-01
 -1      1084 6.63758E-02
 -1      1085 8.65279E-01
 -1      1086 8.78483E-01
 -1      1087 2.13910E-02
 -1      1088 1.19270E+00
 -1      1089 1.40474E-01
 -1      1090 9.54019E-02
 -1      1091 2.01250E-01
 -1      1092 2.15675E-01
 -1      1093 1.05452E+00
 -1      1094 7.09145E-01
 -1      1095 4.36333E-01
 -1      1096 2.95591E-01
 -1      1097 1.30962E+01
 -1      1098 8.36049E+00
 -1      1099 2.71758E+00
 -1      1100 1.54921E+00
 -1      1101 1.16335E+00
 -1      1102 9.63515E-01
 -1      1103 8.38754E-01
 -1      1104 7.56582E-01
 -1      1105 7.23703E-01
 -1      1106 7.55406E-01
 -1      1107 8.34316E-01
 -1      1108 9.59875E-01
 -1      1109 1.16483E+00
 -1      1110 1.55578E+00
 -1      1111 2.73886E+00
 -1      1112 8.44000E+00
 -1      1113 1.32228E+01
 -1      1114 1.30962E+01
 -1      1115 8.70803E+00
 -1      1116 3.82151E+00
 -1      1117 2.70431E+00
 -1      1118 1.73476E+00
 -1      1119 1.21329E+00
 -1      1120 9.17892E-01
 -1      1121 6.92877E-01
 -1      1122 5.05155E-01
 -1      1123 3.58808E-01
 -1      1124 2.83252E-01
 -1      1125 2.36258E-01
 -1      1126 2.31654E-01
 -1      1127 3.28949E-01
 -1      1128 5.10563E-01
 -1      1129 7.38738E-01
 -1      1130 1.07551E+00
 -1      1131 1.55506E+00
 -1      1132 2.02306E+00
 -1      1133 2.31291E+00
 -1      1134 2.39556E+00
 -1      1135 2.38454E+00
 -1      1136 2.37352E+00
 -1      1137 2.23211E+00
 -1      1138 1.85087E+00
 -1      1139 1.36177E+00
 -1      1140 9.45950E-01
 -1      1141 6.80195E-01
 -1      1142 4.79731E-01
 -1      1143 3.50469E-01
 -1      1144 2.89541E-01
 -1      1145 2.45395E-01
 -1      1146 2.19773E-01
 -1      1147 1.84598E-01
 -1      1148 1.42458E-01
 -1      1149 1.13816E-01
 -1      1150 9.96407E-02
 -1      1151 8.44971E-02
 -1      1152 6.79960E-02
 -1      1153 5.22517E-02
 -1      1154 4.10546E-02
 -1      1155 3.43639E-02
 -1      1156 2.83066E-02
 -1      1157 2.22991E-02
 -1      1158 1.66744E-02
 -1      1159 1.20830E-02
 -1      1160 8.79700E-03
 -1      1161 5.87677E-03
 -1      1162 3.53499E-03
 -1      1163 1.67637E-03
 -1      1164 1.32228E+01
 -1      1165 8.76306E+00
 -1      1166 3.85172E+00
 -1      1167 2.77870E+00
 -1      1168 1.80694E+00
 -1      1169 1.29708E+00
 -1      1170 1.03881E+00
 -1      1171 8.67283E-01
 -1      1172 7.66380E-01
 -1      1173 8.11603E-01
 -1      1174 1.03022E+00
 -1      1175 1.33259E+00
 -1      1176 1.68762E+00
 -1      1177 2.25423E+00
 -1      1178 3.06274E+00
 -1      1179 3.97999E+00
 -1      1180 4.56314E+00
 -1      1181 4.66884E+00
 -1      1182 4.79771E+00
 -1      1183 8.03732E+00
 -1      1184 1.22523E+01
 -1      1185 1.33566E+01
 -1      1186 1.30585E+01
 -1      1187 9.79952E+00
 -1      1188 5.56538E+00
 -1      1189 4.50882E+00
 -1      1190 4.72547E+00
 -1      1191 4.37843E+00
 -1      1192 3.52551E+00
 -1      1193 2.59472E+00
 -1      1194 1.89063E+00
 -1      1195 1.41653E+00
 -1      1196 1.06319E+00
 -1      1197 7.78825E-01
 -1      1198 5.50461E-01
 -1      1199 3.90015E-01
 -1      1200 2.81824E-01
 -1      1201 1.96074E-01
 -1      1202 1.35435E-01
 -1      1203 9.84350E-02
 -1      1204 7.71685E-02
 -1      1205 6.01251E-02
 -1      1206 4.60903E-02
 -1      1207 3.47194E-02
 -1      1208 2.55448E-02
 -1      1209 1.83353E-02
 -1      1210 1.35162E-02
 -1      1211 1.00216E-02
 -1      1212 6.42500E-03
 -1      1213 3.91220E-03
 -1      1214 1.95451E-03
 -1      1215 1.30281E-03
 -1      1216 1.25989E-03
 -1      1217 5.97500E-04
 -1      1218 6.01630E-04
 -1      1219 6.17704E-04
 -1      1220 5.51050E-04
 -1      1221 3.89500E-04
 -1      1222 2.08636E-04
 -1      1223 8.36421E-05
 -1      1224 9.15898E-05
 -1      1225 2.14840E-04
 -1      1226 3.62523E-04
 -1      1227 4.43127E-04
 -1      1228 4.52324E-04
 -1      1229 5.65933E-04
 -1      1230 1.12908E-03
 -1      1231 1.10100E-03
 -1      1232 2.41553E+01
 -1      1233 2.56108E+01
 -1      1234 2.90550E+01
 -1      1235 3.15351E+01
 -1      1236 2.30209E+01
 -1      1237 1.41277E+01
 -1      1238 1.37486E+01
 -1      1239 1.35532E+01
 -1      1240 1.33577E+01
 -1      1241 1.48884E+01
 -1      1242 3.01893E+01
 -1      1243 4.39595E+01
 -1      1244 3.41313E+01
 -1      1245 2.42148E+01
 -1      1246 2.43229E+01
 -1      1247 2.45193E+01
 -1      1248 3.24182E+01
 -1      1249 4.03172E+01
 -1      1250 2.75910E+01
 -1      1251 1.36797E+01
 -1      1252 1.24946E+01
 -1      1253 1.23790E+01
 -1      1254 1.24416E+01
 -1      1255 1.26197E+01
 -1      1256 1.21233E+01
 -1      1257 1.72688E+01
 -1      1258 3.56232E+01
 -1      1259 4.83356E+01
 -1      1260 3.60961E+01
 -1      1261 2.37603E+01
 -1      1262 1.30962E+01
 -1      1263 4.82157E+00
 -1      1264 9.55724E+00
 -1      1265 2.04553E+00
 -1      1266 2.95277E+00
 -1      1267 4.14952E+00
 -1      1268 1.39758E+00
 -1      1269 1.65871E+00
 -1      1270 1.89390E+00
 -1      1271 1.09787E+00
 -1      1272 1.22260E+00
 -1      1273 1.33210E+00
 -1      1274 9.26368E-01
 -1      1275 1.00148E+00
 -1      1276 1.06073E+00
 -1      1277 8.18643E-01
 -1      1278 8.68293E-01
 -1      1279 9.06257E-01
 -1      1280 7.47545E-01
 -1      1281 7.80068E-01
 -1      1282 8.09607E-01
 -1      1283 7.22760E-01
 -1      1284 7.23117E-01
 -1      1285 7.46603E-01
 -1      1286 7.78858E-01
 -1      1287 7.46799E-01
 -1      1288 7.46212E-01
 -1      1289 8.62783E-01
 -1      1290 8.15933E-01
 -1      1291 8.07325E-01
 -1      1292 1.00180E+00
 -1      1293 9.23095E-01
 -1      1294 9.04712E-01
 -1      1295 1.22497E+00
 -1      1296 1.09872E+00
 -1      1297 1.06194E+00
 -1      1298 1.66679E+00
 -1      1299 1.40208E+00
 -1      1300 1.33598E+00
 -1      1301 2.97658E+00
 -1      1302 2.05821E+00
 -1      1303 1.90451E+00
 -1      1304 9.67166E+00
 -1      1305 4.88888E+00
 -1      1306 4.20824E+00
 -1      1307 1.32228E+01
 -1      1308 8.70803E+00
 -1      1309 4.31989E+00
 -1      1310 3.82151E+00
 -1      1311 3.32314E+00
 -1      1312 3.82151E+00
 -1      1313 2.70431E+00
 -1      1314 2.08548E+00
 -1      1315 2.70431E+00
 -1      1316 1.74894E+00
 -1      1317 1.39822E+00
 -1      1318 1.74894E+00
 -1      1319 1.21329E+00
 -1      1320 1.04254E+00
 -1      1321 1.22747E+00
 -1      1322 9.17892E-01
 -1      1323 7.93243E-01
 -1      1324 9.17892E-01
 -1      1325 6.92877E-01
 -1      1326 5.92510E-01
 -1      1327 6.92877E-01
 -1      1328 5.13157E-01
 -1      1329 4.25802E-01
 -1      1330 5.13157E-01
 -1      1331 3.61392E-01
 -1      1332 3.02401E-01
 -1      1333 3.69395E-01
 -1      1334 2.83252E-01
 -1      1335 2.66687E-01
 -1      1336 2.85836E-01
 -1      1337 2.34534E-01
 -1      1338 2.04105E-01
 -1      1339 2.34534E-01
 -1      1340 2.05830E-01
 -1      1341 2.31654E-01
 -1      1342 2.04105E-01
 -1      1343 2.69069E-01
 -1      1344 3.40539E-01
 -1      1345 2.43244E-01
 -1      1346 4.44334E-01
 -1      1347 5.54477E-01
 -1      1348 3.84453E-01
 -1      1349 6.81898E-01
 -1      1350 7.99929E-01
 -1      1351 6.15668E-01
 -1      1352 9.36118E-01
 -1      1353 1.15486E+00
 -1      1354 8.79278E-01
 -1      1355 1.33332E+00
 -1      1356 1.59412E+00
 -1      1357 1.19392E+00
 -1      1358 1.81586E+00
 -1      1359 2.02306E+00
 -1      1360 1.59412E+00
 -1      1361 2.23026E+00
 -1      1362 2.31291E+00
 -1      1363 2.02306E+00
 -1      1364 2.39556E+00
 -1      1365 2.39556E+00
 -1      1366 2.31291E+00
 -1      1367 2.37652E+00
 -1      1368 2.36550E+00
 -1      1369 2.37652E+00
 -1      1370 2.37352E+00
 -1      1371 2.37352E+00
 -1      1372 2.36550E+00
 -1      1373 2.23211E+00
 -1      1374 2.09071E+00
 -1      1375 2.23211E+00
 -1      1376 1.85087E+00
 -1      1377 1.61104E+00
 -1      1378 1.85087E+00
 -1      1379 1.41105E+00
 -1      1380 1.16177E+00
 -1      1381 1.41105E+00
 -1      1382 1.00165E+00
 -1      1383 8.35104E-01
 -1      1384 1.05093E+00
 -1      1385 6.96399E-01
 -1      1386 5.97190E-01
 -1      1387 7.52099E-01
 -1      1388 4.79731E-01
 -1      1389 3.78476E-01
 -1      1390 4.95935E-01
 -1      1391 3.50469E-01
 -1      1392 3.22463E-01
 -1      1393 3.50469E-01
 -1      1394 2.89541E-01
 -1      1395 2.56619E-01
 -1      1396 2.89541E-01
 -1      1397 2.45395E-01
 -1      1398 2.34171E-01
 -1      1399 2.45395E-01
 -1      1400 2.19773E-01
 -1      1401 2.05376E-01
 -1      1402 2.19773E-01
 -1      1403 1.84598E-01
 -1      1404 1.63820E-01
 -1      1405 1.84598E-01
 -1      1406 1.46650E-01
 -1      1407 1.25288E-01
 -1      1408 1.46650E-01
 -1      1409 1.13816E-01
 -1      1410 1.06536E-01
 -1      1411 1.18008E-01
 -1      1412 9.96407E-02
 -1      1413 9.27452E-02
 -1      1414 9.96407E-02
 -1      1415 8.44971E-02
 -1      1416 7.62490E-02
 -1      1417 8.44971E-02
 -1      1418 6.79960E-02
 -1      1419 5.97430E-02
 -1      1420 6.79960E-02
 -1      1421 5.32394E-02
 -1      1422 4.57481E-02
 -1      1423 5.32394E-02
 -1      1424 4.10546E-02
 -1      1425 3.73489E-02
 -1      1426 4.20424E-02
 -1      1427 3.43639E-02
 -1      1428 3.13789E-02
 -1      1429 3.43639E-02
 -1      1430 2.83066E-02
 -1      1431 2.52343E-02
 -1      1432 2.83066E-02
 -1      1433 2.22991E-02
 -1      1434 1.93639E-02
 -1      1435 2.22991E-02
 -1      1436 1.66744E-02
 -1      1437 1.39848E-02
 -1      1438 1.66744E-02
 -1      1439 1.20830E-02
 -1      1440 1.01811E-02
 -1      1441 1.20830E-02
 -1      1442 8.79700E-03
 -1      1443 7.41293E-03
 -1      1444 8.79700E-03
 -1      1445 5.88623E-03
 -1      1446 4.35008E-03
 -1      1447 5.88623E-03
 -1      1448 3.53499E-03
 -1      1449 2.72936E-03
 -1      1450 3.54445E-03
 -1      1451 2.15399E-03
 -1      1452 2.15399E-03
 -1      1453 4.30334E+00
 -1      1454 8.76306E+00
 -1      1455 3.40009E+00
 -1      1456 3.85172E+00
 -1      1457 3.85172E+00
 -1      1458 2.15731E+00
 -1      1459 2.77870E+00
 -1      1460 2.77870E+00
 -1      1461 1.45657E+00
 -1      1462 1.80694E+00
 -1      1463 1.80694E+00
 -1      1464 1.13760E+00
 -1      1465 1.29708E+00
 -1      1466 1.29708E+00
 -1      1467 9.40021E-01
 -1      1468 1.03881E+00
 -1      1469 1.03881E+00
 -1      1470 7.94546E-01
 -1      1471 8.67283E-01
 -1      1472 8.67283E-01
 -1      1473 7.16607E-01
 -1      1474 7.44773E-01
 -1      1475 7.44773E-01
 -1      1476 8.11603E-01
 -1      1477 7.38214E-01
 -1      1478 7.16607E-01
 -1      1479 1.03022E+00
 -1      1480 8.84992E-01
 -1      1481 8.11603E-01
 -1      1482 1.40921E+00
 -1      1483 1.25206E+00
 -1      1484 1.10684E+00
 -1      1485 1.90065E+00
 -1      1486 1.70276E+00
 -1      1487 1.62224E+00
 -1      1488 2.60041E+00
 -1      1489 2.23170E+00
 -1      1490 2.24684E+00
 -1      1491 3.34408E+00
 -1      1492 2.90428E+00
 -1      1493 2.88175E+00
 -1      1494 4.05555E+00
 -1      1495 3.57810E+00
 -1      1496 3.41964E+00
 -1      1497 4.56314E+00
 -1      1498 4.45744E+00
 -1      1499 4.05555E+00
 -1      1500 4.66884E+00
 -1      1501 4.66884E+00
 -1      1502 4.56314E+00
 -1      1503 4.53033E+00
 -1      1504 4.40146E+00
 -1      1505 4.40146E+00
 -1      1506 8.27529E+00
 -1      1507 5.16455E+00
 -1      1508 4.76830E+00
 -1      1509 1.22523E+01
 -1      1510 1.11481E+01
 -1      1511 8.27529E+00
 -1      1512 1.33566E+01
 -1      1513 1.33566E+01
 -1      1514 1.22523E+01
 -1      1515 1.27604E+01
 -1      1516 1.30585E+01
 -1      1517 1.30585E+01
 -1      1518 6.93237E+00
 -1      1519 9.89330E+00
 -1      1520 9.89330E+00
 -1      1521 3.83392E+00
 -1      1522 5.10713E+00
 -1      1523 5.20091E+00
 -1      1524 4.50882E+00
 -1      1525 4.29217E+00
 -1      1526 3.83392E+00
 -1      1527 4.72547E+00
 -1      1528 4.72547E+00
 -1      1529 4.50882E+00
 -1      1530 4.03140E+00
 -1      1531 4.37843E+00
 -1      1532 4.37843E+00
 -1      1533 3.16311E+00
 -1      1534 3.66899E+00
 -1      1535 3.66899E+00
 -1      1536 2.38281E+00
 -1      1537 2.80772E+00
 -1      1538 2.95120E+00
 -1      1539 1.86084E+00
 -1      1540 2.14000E+00
 -1      1541 2.35301E+00
 -1      1542 1.39158E+00
 -1      1543 1.58652E+00
 -1      1544 1.83589E+00
 -1      1545 1.00495E+00
 -1      1546 1.16336E+00
 -1      1547 1.33335E+00
 -1      1548 7.05741E-01
 -1      1549 8.31698E-01
 -1      1550 9.31869E-01
 -1      1551 4.71095E-01
 -1      1552 5.73502E-01
 -1      1553 6.26375E-01
 -1      1554 3.43543E-01
 -1      1555 4.01583E-01
 -1      1556 4.24623E-01
 -1      1557 2.43100E-01
 -1      1558 2.93251E-01
 -1      1559 3.04819E-01
 -1      1560 1.70678E-01
 -1      1561 2.06276E-01
 -1      1562 2.17704E-01
 -1      1563 1.19023E-01
 -1      1564 1.44065E-01
 -1      1565 1.54266E-01
 -1      1566 8.78761E-02
 -1      1567 9.98347E-02
 -1      1568 1.08464E-01
 -1      1569 6.78606E-02
 -1      1570 7.71685E-02
 -1      1571 7.85682E-02
 -1      1572 5.23895E-02
 -1      1573 6.01251E-02
 -1      1574 6.01251E-02
 -1      1575 3.97911E-02
 -1      1576 4.60903E-02
 -1      1577 4.60903E-02
 -1      1578 2.96477E-02
 -1      1579 3.47194E-02
 -1      1580 3.47194E-02
 -1      1581 2.14839E-02
 -1      1582 2.55868E-02
 -1      1583 2.55868E-02
 -1      1584 1.55680E-02
 -1      1585 1.86746E-02
 -1      1586 1.87166E-02
 -1      1587 1.18038E-02
 -1      1588 1.35162E-02
 -1      1589 1.38555E-02
 -1      1590 8.23936E-03
 -1      1591 1.00216E-02
 -1      1592 1.00216E-02
 -1      1593 4.81361E-03
 -1      1594 6.62798E-03
 -1      1595 6.62798E-03
 -1      1596 3.21376E-03
 -1      1597 3.91220E-03
 -1      1598 4.11518E-03
 -1      1599 2.56205E-03
 -1      1600 1.08085E-03
 -1      1601 1.73130E-03
 -1      1602 9.14333E-04
 -1      1603 9.26276E-04
 -1      1604 1.39768E-03
 -1      1605 8.58389E-04
 -1      1606 8.42316E-04
 -1      1607 1.17109E-03
 -1      1608 8.58389E-04
 -1      1609 8.58389E-04
 -1      1610 1.09907E-03
 -1      1611 7.61404E-04
 -1      1612 8.28058E-04
 -1      1613 1.06874E-03
 -1      1614 5.17961E-04
 -1      1615 6.12857E-04
 -1      1616 8.89865E-04
 -1      1617 2.43214E-04
 -1      1618 3.29182E-04
 -1      1619 5.52538E-04
 -1      1620 1.52897E-04
 -1      1621 1.91923E-04
 -1      1622 3.12469E-04
 -1      1623 1.99871E-04
 -1      1624 1.52897E-04
 -1      1625 2.61179E-04
 -1      1626 3.42720E-04
 -1      1627 2.66443E-04
 -1      1628 3.27751E-04
 -1      1629 5.60177E-04
 -1      1630 4.88771E-04
 -1      1631 5.40374E-04
 -1      1632 6.22206E-04
 -1      1633 6.13008E-04
 -1      1634 7.39256E-04
 -1      1635 7.34334E-04
 -1      1636 7.34334E-04
 -1      1637 9.04215E-04
 -1      1638 8.47943E-04
 -1      1639 7.34334E-04
 -1      1640 1.01634E-03
 -1      1641 1.48497E-03
 -1      1642 1.03543E-03
 -1      1643 1.20383E-03
 -1      1644 2.06034E-03
 -1      1645 2.74037E+01
 -1      1646 2.69124E+01
 -1      1647 2.61391E+01
 -1      1648 2.51750E+01
 -1      1649 3.11568E+01
 -1      1650 2.86767E+01
 -1      1651 3.15351E+01
 -1      1652 3.15351E+01
 -1      1653 1.45067E+01
 -1      1654 2.30209E+01
 -1      1655 1.32668E+01
 -1      1656 1.36458E+01
 -1      1657 1.37486E+01
 -1      1658 1.37486E+01
 -1      1659 1.29910E+01
 -1      1660 1.31864E+01
 -1      1661 1.33577E+01
 -1      1662 1.33577E+01
 -1      1663 1.45375E+01
 -1      1664 1.30068E+01
 -1      1665 3.01893E+01
 -1      1666 1.64191E+01
 -1      1667 4.39595E+01
 -1      1668 4.39595E+01
 -1      1669 3.08045E+01
 -1      1670 4.06327E+01
 -1      1671 2.68761E+01
 -1      1672 2.69643E+01
 -1      1673 2.70724E+01
 -1      1674 2.68761E+01
 -1      1675 2.55524E+01
 -1      1676 2.55524E+01
 -1      1677 3.82979E+01
 -1      1678 3.03990E+01
 -1      1679 4.03172E+01
 -1      1680 4.03172E+01
 -1      1681 1.48649E+01
 -1      1682 2.75910E+01
 -1      1683 1.15466E+01
 -1      1684 1.27318E+01
 -1      1685 1.24946E+01
 -1      1686 1.24946E+01
 -1      1687 1.22634E+01
 -1      1688 1.23790E+01
 -1      1689 1.22736E+01
 -1      1690 1.20954E+01
 -1      1691 1.26197E+01
 -1      1692 1.26197E+01
 -1      1693 1.16268E+01
 -1      1694 1.21233E+01
 -1      1695 1.72474E+01
 -1      1696 1.16053E+01
 -1      1697 3.63207E+01
 -1      1698 2.36083E+01
 -1      1699 4.83356E+01
 -1      1700 4.83356E+01
 -1      1701 2.69055E+01
 -1      1702 3.91451E+01
 -1      1703 2.69124E+01
 -1      1704 2.70087E+01
 -1      1705 9.67166E+00
 -1      1706 3.11568E+01
 -1      1707 2.56205E-03
 -1      1708 2.79321E+01
 -1      1709 2.82409E+01
 -1      1710 3.01608E+01
 -1      1711 2.30209E+01
 -1      1712 1.36458E+01
 -1      1713 1.32668E+01
 -1      1714 1.31864E+01
 -1      1715 1.29910E+01
 -1      1716 1.30068E+01
 -1      1717 1.45375E+01
 -1      1718 3.01893E+01
 -1      1719 4.06327E+01
 -1      1720 3.34658E+01
 -1      1721 2.96256E+01
 -1      1722 2.81055E+01
 -1      1723 3.14321E+01
 -1      1724 3.82979E+01
 -1      1725 2.75910E+01
 -1      1726 1.27318E+01
 -1      1727 1.15466E+01
 -1      1728 1.23790E+01
 -1      1729 1.20954E+01
 -1      1730 1.22736E+01
 -1      1731 1.21233E+01
 -1      1732 1.16053E+01
 -1      1733 1.79448E+01
 -1      1734 3.63207E+01
 -1      1735 3.91451E+01
 -1      1736 3.00577E+01
 -1      1737 9.55724E+00
 -1      1738 1.28597E+00
 -1      1739 1.67279E+00
 -1      1740 2.36345E+00
 -1      1741 4.23224E+00
 -1      1742 1.75552E+00
 -1      1743 8.76211E-01
 -1      1744 9.72606E-01
 -1      1745 7.68432E-01
 -1      1746 8.26507E-01
 -1      1747 7.38386E-01
 -1      1748 6.94929E-01
 -1      1749 7.33504E-01
 -1      1750 6.53754E-01
 -1      1751 6.44924E-01
 -1      1752 6.69353E-01
 -1      1753 5.93250E-01
 -1      1754 6.69011E-01
 -1      1755 6.44972E-01
 -1      1756 5.67722E-01
 -1      1757 7.30499E-01
 -1      1758 6.93424E-01
 -1      1759 5.92184E-01
 -1      1760 8.27154E-01
 -1      1761 7.66842E-01
 -1      1762 6.52940E-01
 -1      1763 9.74127E-01
 -1      1764 8.77209E-01
 -1      1765 7.39339E-01
 -1      1766 1.21733E+00
 -1      1767 1.04022E+00
 -1      1768 8.55484E-01
 -1      1769 1.68499E+00
 -1      1770 1.29356E+00
 -1      1771 9.97806E-01
 -1      1772 4.27950E+00
 -1      1773 2.36720E+00
 -1      1774 1.75625E+00
 -1      1775 2.61101E+01
 -1      1776 2.57318E+01
 -1      1777 5.16910E+00
 -1      1778 5.21194E+00
 -1      1779 2.51255E+00
 -1      1780 1.89372E+00
 -1      1781 1.65589E+00
 -1      1782 1.31935E+00
 -1      1783 1.46413E+00
 -1      1784 1.13138E+00
 -1      1785 9.46448E-01
 -1      1786 1.03833E+00
 -1      1787 8.44565E-01
 -1      1788 7.19917E-01
 -1      1789 7.48473E-01
 -1      1790 6.59308E-01
 -1      1791 5.58941E-01
 -1      1792 5.85981E-01
 -1      1793 5.00531E-01
 -1      1794 4.21179E-01
 -1      1795 4.66963E-01
 -1      1796 3.69395E-01
 -1      1797 3.04985E-01
 -1      1798 3.56769E-01
 -1      1799 2.68855E-01
 -1      1800 2.49707E-01
 -1      1801 2.68855E-01
 -1      1802 2.28991E-01
 -1      1803 1.96838E-01
 -1      1804 2.12011E-01
 -1      1805 2.10039E-01
 -1      1806 2.11763E-01
 -1      1807 2.04496E-01
 -1      1808 2.44269E-01
 -1      1809 2.81684E-01
 -1      1810 2.50203E-01
 -1      1811 3.43985E-01
 -1      1812 4.47779E-01
 -1      1813 3.45010E-01
 -1      1814 5.43590E-01
 -1      1815 6.71011E-01
 -1      1816 5.03122E-01
 -1      1817 7.82331E-01
 -1      1818 9.18520E-01
 -1      1819 7.10253E-01
 -1      1820 1.05302E+00
 -1      1821 1.23147E+00
 -1      1822 9.56071E-01
 -1      1823 1.34259E+00
 -1      1824 1.56433E+00
 -1      1825 1.20169E+00
 -1      1826 1.69646E+00
 -1      1827 1.90366E+00
 -1      1828 1.44493E+00
 -1      1829 1.96804E+00
 -1      1830 2.05069E+00
 -1      1831 1.64144E+00
 -1      1832 2.03340E+00
 -1      1833 2.01436E+00
 -1      1834 1.68853E+00
 -1      1835 2.03591E+00
 -1      1836 2.04393E+00
 -1      1837 1.69279E+00
 -1      1838 2.02581E+00
 -1      1839 1.88440E+00
 -1      1840 1.69621E+00
 -1      1841 1.78768E+00
 -1      1842 1.54784E+00
 -1      1843 1.58137E+00
 -1      1844 1.41461E+00
 -1      1845 1.21461E+00
 -1      1846 1.35141E+00
 -1      1847 1.09032E+00
 -1      1848 9.30197E-01
 -1      1849 1.09388E+00
 -1      1850 7.91391E-01
 -1      1851 6.52685E-01
 -1      1852 8.30783E-01
 -1      1853 5.43995E-01
 -1      1854 4.26535E-01
 -1      1855 5.83286E-01
 -1      1856 3.29662E-01
 -1      1857 3.01656E-01
 -1      1858 3.77722E-01
 -1      1859 2.26170E-01
 -1      1860 1.93248E-01
 -1      1861 2.05363E-01
 -1      1862 1.93299E-01
 -1      1863 1.82074E-01
 -1      1864 1.29927E-01
 -1      1865 1.92355E-01
 -1      1866 1.77957E-01
 -1      1867 1.40258E-01
 -1      1868 1.75269E-01
 -1      1869 1.54491E-01
 -1      1870 1.47850E-01
 -1      1871 1.44941E-01
 -1      1872 1.27772E-01
 -1      1873 1.35613E-01
 -1      1874 1.20139E-01
 -1      1875 1.08667E-01
 -1      1876 1.18430E-01
 -1      1877 1.00762E-01
 -1      1878 9.38660E-02
 -1      1879 1.02892E-01
 -1      1880 8.55872E-02
 -1      1881 7.73391E-02
 -1      1882 8.67080E-02
 -1      1883 6.86888E-02
 -1      1884 6.04358E-02
 -1      1885 6.97790E-02
 -1      1886 5.32394E-02
 -1      1887 4.67358E-02
 -1      1888 5.39323E-02
 -1      1889 4.10675E-02
 -1      1890 3.63741E-02
 -1      1891 4.10675E-02
 -1      1892 3.15288E-02
 -1      1893 2.85438E-02
 -1      1894 3.05540E-02
 -1      1895 2.49535E-02
 -1      1896 2.18811E-02
 -1      1897 2.21183E-02
 -1      1898 2.02265E-02
 -1      1899 1.72914E-02
 -1      1900 1.68734E-02
 -1      1901 1.56485E-02
 -1      1902 1.29590E-02
 -1      1903 1.35759E-02
 -1      1904 1.13494E-02
 -1      1905 9.44747E-03
 -1      1906 1.03235E-02
 -1      1907 7.94323E-03
 -1      1908 6.55916E-03
 -1      1909 7.20962E-03
 -1      1910 5.61708E-03
 -1      1911 4.09039E-03
 -1      1912 4.76331E-03
 -1      1913 3.33025E-03
 -1      1914 2.51516E-03
 -1      1915 1.84614E-03
 -1      1916 3.06110E-03
 -1      1917 1.35460E+00
 -1      1918 1.70497E+00
 -1      1919 1.93724E+00
 -1      1920 2.55863E+00
 -1      1921 1.48491E+00
 -1      1922 1.00887E+00
 -1      1923 1.16835E+00
 -1      1924 1.06638E+00
 -1      1925 8.25150E-01
 -1      1926 9.23941E-01
 -1      1927 7.95207E-01
 -1      1928 6.98962E-01
 -1      1929 7.71699E-01
 -1      1930 6.56829E-01
 -1      1931 5.97858E-01
 -1      1932 6.47631E-01
 -1      1933 5.52047E-01
 -1      1934 6.34151E-01
 -1      1935 6.12543E-01
 -1      1936 5.15402E-01
 -1      1937 7.87755E-01
 -1      1938 7.14366E-01
 -1      1939 6.10303E-01
 -1      1940 1.21246E+00
 -1      1941 9.90614E-01
 -1      1942 8.93377E-01
 -1      1943 1.76667E+00
 -1      1944 1.47311E+00
 -1      1945 1.35689E+00
 -1      1946 2.41957E+00
 -1      1947 2.08853E+00
 -1      1948 1.93940E+00
 -1      1949 3.08912E+00
 -1      1950 2.78525E+00
 -1      1951 2.62694E+00
 -1      1952 3.67168E+00
 -1      1953 3.43766E+00
 -1      1954 3.34117E+00
 -1      1955 4.33896E+00
 -1      1956 3.93707E+00
 -1      1957 3.95509E+00
 -1      1958 4.95733E+00
 -1      1959 4.85163E+00
 -1      1960 4.73315E+00
 -1      1961 5.74062E+00
 -1      1962 6.00800E+00
 -1      1963 6.29649E+00
 -1      1964 7.16883E+00
 -1      1965 6.53461E+00
 -1      1966 8.14114E+00
 -1      1967 1.12155E+01
 -1      1968 1.01112E+01
 -1      1969 7.76771E+00
 -1      1970 1.06349E+01
 -1      1971 3.43883E+00
 -1      1972 5.26407E+00
 -1      1973 4.57943E+00
 -1      1974 4.12118E+00
 -1      1975 4.18435E+00
 -1      1976 5.72059E+00
 -1      1977 5.50394E+00
 -1      1978 5.79121E+00
 -1      1979 4.21258E+00
 -1      1980 4.55962E+00
 -1      1981 5.55474E+00
 -1      1982 3.58800E+00
 -1      1983 3.95041E+00
 -1      1984 4.13160E+00
 -1      1985 2.95745E+00
 -1      1986 3.31284E+00
 -1      1987 3.59426E+00
 -1      1988 2.39887E+00
 -1      1989 2.64167E+00
 -1      1990 3.00331E+00
 -1      1991 1.78878E+00
 -1      1992 2.06310E+00
 -1      1993 2.35176E+00
 -1      1994 1.28010E+00
 -1      1995 1.50832E+00
 -1      1996 1.73553E+00
 -1      1997 8.90626E-01
 -1      1998 1.06388E+00
 -1      1999 1.23886E+00
 -1      2000 5.95676E-01
 -1      2001 7.27915E-01
 -1      2002 8.59927E-01
 -1      2003 4.22422E-01
 -1      2004 4.91934E-01
 -1      2005 5.93474E-01
 -1      2006 2.92021E-01
 -1      2007 3.42313E-01
 -1      2008 4.09624E-01
 -1      2009 1.99845E-01
 -1      2010 2.36669E-01
 -1      2011 2.74162E-01
 -1      2012 1.35347E-01
 -1      2013 1.61960E-01
 -1      2014 1.80925E-01
 -1      2015 9.04034E-02
 -1      2016 1.09592E-01
 -1      2017 1.17285E-01
 -1      2018 6.42000E-02
 -1      2019 7.49076E-02
 -1      2020 7.60352E-02
 -1      2021 4.88677E-02
 -1      2022 5.66032E-02
 -1      2023 5.29426E-02
 -1      2024 3.58010E-02
 -1      2025 4.21002E-02
 -1      2026 3.85784E-02
 -1      2027 2.59974E-02
 -1      2028 3.10691E-02
 -1      2029 2.70790E-02
 -1      2030 1.92802E-02
 -1      2031 2.33411E-02
 -1      2032 1.96908E-02
 -1      2033 1.42608E-02
 -1      2034 1.70701E-02
 -1      2035 1.48244E-02
 -1      2036 1.03970E-02
 -1      2037 1.24488E-02
 -1      2038 1.08023E-02
 -1      2039 7.35494E-03
 -1      2040 9.13714E-03
 -1      2041 7.73039E-03
 -1      2042 4.60104E-03
 -1      2043 6.21242E-03
 -1      2044 5.32801E-03
 -1      2045 2.97359E-03
 -1      2046 3.87501E-03
 -1      2047 3.45945E-03
 -1      2048 3.04738E+01
 -1      2049 3.27026E+01
 -1      2050 1.34390E-03
 -1      2051 1.34390E-03
 -1      2052 1.73780E-03
 -1      2053 1.80981E-03
 -1      2054 1.98262E-03
 -1      2055 2.38301E-03
 -1      2056 1.23709E-03
 -1      2057 1.26742E-03
 -1      2058 1.51224E-03
 -1      2059 9.46222E-04
 -1      2060 1.09477E-03
 -1      2061 1.29344E-03
 -1      2062 5.87497E-04
 -1      2063 7.76276E-04
 -1      2064 9.81181E-04
 -1      2065 5.13577E-04
 -1      2066 5.64868E-04
 -1      2067 7.88606E-04
 -1      2068 5.13577E-04
 -1      2069 5.13577E-04
 -1      2070 7.65976E-04
 -1      2071 5.71299E-04
 -1      2072 5.04726E-04
 -1      2073 7.57125E-04
 -1      2074 6.93568E-04
 -1      2075 5.47518E-04
 -1      2076 7.24493E-04
 -1      2077 9.32462E-04
 -1      2078 8.79631E-04
 -1      2079 8.86775E-04
 -1      2080 1.09417E-03
 -1      2081 9.82037E-04
 -1      2082 1.12241E-03
 -1      2083 1.34258E-03
 -1      2084 1.34258E-03
 -1      2085 1.42041E-03
 -1      2086 2.81001E+01
 -1      2087 2.55625E+01
 -1      2088 3.27026E+01
 -1      2089 3.27026E+01
 -1      2090 1.03644E+00
 -1      2091 1.21142E+00
 -1      2092 9.90309E-01
 -1      2093 8.51922E-01
 -1      2094 1.00116E+01
 -1      2095 1.08725E+01
 -1      2096 1.14923E+01
 -1      2097 1.10104E+01
 -1      2098 1.23054E+01
 -1      2099 1.28676E+01
 -1      2100 1.25033E+01
 -1      2101 1.21366E+01
 -1      2102 1.09026E+01
 -1      2103 1.12535E+01
 -1      2104 1.22603E+01
 -1      2105 1.03787E+01
 -1      2106 2.96822E+01
 -1      2107 1.59120E+01
 -1      2108 3.16325E+01
 -1      2109 3.49593E+01
 -1      2110 2.61512E+01
 -1      2111 2.99914E+01
 -1      2112 3.38326E+01
 -1      2113 3.38326E+01
 -1      2114 3.23126E+01
 -1      2115 3.38326E+01
 -1      2116 3.13059E+01
 -1      2117 2.64594E+01
 -1      2118 3.17661E+01
 -1      2119 2.97468E+01
 -1      2120 2.47741E+01
 -1      2121 1.43060E+01
 -1      2122 2.70321E+01
 -1      2123 9.14040E+00
 -1      2124 1.12735E+01
 -1      2125 9.95748E+00
 -1      2126 9.00950E+00
 -1      2127 7.55129E+00
 -1      2128 1.10436E+01
 -1      2129 1.11592E+01
 -1      2130 1.09954E+01
 -1      2131 1.11634E+01
 -1      2132 1.17996E+01
 -1      2133 1.14535E+01
 -1      2134 1.04448E+01
 -1      2135 1.09413E+01
 -1      2136 9.36885E+00
 -1      2137 9.39031E+00
 -1      2138 8.20832E+00
 -1      2139 1.72943E+01
 -1      2140 1.09333E+01
 -1      2141 3.29997E+01
 -1      2142 2.09847E+01
 -1      2143 2.99546E+01
 -1      2144 3.91451E+01
 -1      2145 2.83654E+01
 -1      2146 2.82623E+01
 -1      2147 3.37091E+00
 -1      2148 1.35552E+01
 -1      2149 2.20693E+01
 -1      2150 3.38303E+00
 -1      2151 2.14284E-03
 -1      2152 1.98826E-03
 -1      2153 2.30534E+01
 -1      2154 1.66444E+01
 -1      2155 2.88465E+00
 -1      2156 9.92099E+00
 -1      2157 2.07407E+00
 -1      2158 2.07782E+00
 -1      2159 2.91928E+00
 -1      2160 5.15521E+00
 -1      2161 6.92152E+00
 -1      2162 8.02798E+00
 -1      2163 1.02479E+01
 -1      2164 1.23735E+01
 -1      2165 1.26715E+01
 -1      2166 6.00564E+00
 -1      2167 3.52443E+01
 -1      2168 2.55497E-03
 -1      2169 3.03330E+01
 -1      2170 1.53007E-03
 -1      2171 3.09072E+01
 -1      2172 2.82623E+01
 -1      2173 2.38092E+01
 -1      2174 8.71831E+00
 -1      2175 1.01212E+01
 -1      2176 1.05214E+01
 -1      2177 8.62210E+00
 -1      2178 1.84811E+01
 -1      2179 3.21864E+01
 -1      2180 3.80397E+01
 -1      2181 3.03583E+01
 -1      2182 2.43180E+01
 -1      2183 2.06819E+01
 -1      2184 1.17531E+01
 -1      2185 8.62535E+00
 -1      2186 1.03991E+01
 -1      2187 1.18177E+01
 -1      2188 8.23712E+00
 -1      2189 1.06112E+01
 -1      2190 1.07146E+01
 -1      2191 9.94359E+00
 -1      2192 1.39733E+01
 -1      2193 5.50300E-01
 -1      2194 5.85227E-01
 -1      2195 6.00915E-01
 -1      2196 6.50619E-01
 -1      2197 4.97461E-01
 -1      2198 4.88430E-01
 -1      2199 4.88382E-01
 -1      2200 5.27825E-01
 -1      2201 5.03412E-01
 -1      2202 4.24071E-01
 -1      2203 5.82881E-01
 -1      2204 5.46538E-01
 -1      2205 4.57766E-01
 -1      2206 6.49437E-01
 -1      2207 5.99382E-01
 -1      2208 4.92980E-01
 -1      2209 7.19805E-01
 -1      2210 6.53715E-01
 -1      2211 5.13758E-01
 -1      2212 7.96037E-01
 -1      2213 7.19805E-01
 -1      2214 5.18036E-01
 -1      2215 1.61555E+00
 -1      2216 9.33339E-01
 -1      2217 6.55338E-01
 -1      2218 1.25491E+00
 -1      2219 1.23266E+00
 -1      2220 9.94826E-01
 -1      2221 9.37081E-01
 -1      2222 7.49109E-01
 -1      2223 7.05607E-01
 -1      2224 6.83567E-01
 -1      2225 5.81684E-01
 -1      2226 5.82321E-01
 -1      2227 5.16075E-01
 -1      2228 4.55466E-01
 -1      2229 4.51169E-01
 -1      2230 4.29639E-01
 -1      2231 3.71229E-01
 -1      2232 3.59732E-01
 -1      2233 3.41395E-01
 -1      2234 2.89611E-01
 -1      2235 3.04071E-01
 -1      2236 2.61539E-01
 -1      2237 2.25410E-01
 -1      2238 2.46165E-01
 -1      2239 2.12011E-01
 -1      2240 1.91296E-01
 -1      2241 2.04695E-01
 -1      2242 2.04496E-01
 -1      2243 2.17696E-01
 -1      2244 2.04496E-01
 -1      2245 2.50841E-01
 -1      2246 2.83347E-01
 -1      2247 2.50841E-01
 -1      2248 3.42619E-01
 -1      2249 4.04919E-01
 -1      2250 3.43257E-01
 -1      2251 4.80072E-01
 -1      2252 5.75883E-01
 -1      2253 4.77681E-01
 -1      2254 6.55128E-01
 -1      2255 7.66448E-01
 -1      2256 6.32078E-01
 -1      2257 8.72278E-01
 -1      2258 1.00678E+00
 -1      2259 8.17153E-01
 -1      2260 1.10218E+00
 -1      2261 1.21329E+00
 -1      2262 1.01838E+00
 -1      2263 1.26448E+00
 -1      2264 1.39660E+00
 -1      2265 1.16497E+00
 -1      2266 1.44204E+00
 -1      2267 1.50642E+00
 -1      2268 1.26158E+00
 -1      2269 1.49634E+00
 -1      2270 1.47905E+00
 -1      2271 1.29694E+00
 -1      2272 1.45781E+00
 -1      2273 1.47935E+00
 -1      2274 1.26562E+00
 -1      2275 1.51288E+00
 -1      2276 1.49476E+00
 -1      2277 1.27790E+00
 -1      2278 1.48056E+00
 -1      2279 1.38383E+00
 -1      2280 1.29723E+00
 -1      2281 1.32704E+00
 -1      2282 1.19380E+00
 -1      2283 1.22623E+00
 -1      2284 1.12160E+00
 -1      2285 9.97311E-01
 -1      2286 1.09723E+00
 -1      2287 8.83800E-01
 -1      2288 7.44994E-01
 -1      2289 9.11522E-01
 -1      2290 6.39527E-01
 -1      2291 5.30836E-01
 -1      2292 6.92544E-01
 -1      2293 4.42450E-01
 -1      2294 3.45577E-01
 -1      2295 4.98691E-01
 -1      2296 2.66395E-01
 -1      2297 1.90909E-01
 -1      2298 3.31123E-01
 -1      2299 1.68016E-01
 -1      2300 1.68066E-01
 -1      2301 2.29048E-01
 -1      2302 1.44335E-01
 -1      2303 1.54615E-01
 -1      2304 1.82424E-01
 -1      2305 1.42865E-01
 -1      2306 1.40177E-01
 -1      2307 1.46942E-01
 -1      2308 1.38421E-01
 -1      2309 1.28871E-01
 -1      2310 1.33436E-01
 -1      2311 1.22082E-01
 -1      2312 1.14449E-01
 -1      2313 1.24890E-01
 -1      2314 1.07126E-01
 -1      2315 9.92205E-02
 -1      2316 1.10778E-01
 -1      2317 9.15316E-02
 -1      2318 8.32528E-02
 -1      2319 9.57653E-02
 -1      2320 7.51308E-02
 -1      2321 6.64805E-02
 -1      2322 7.99544E-02
 -1      2323 5.85296E-02
 -1      2324 5.13332E-02
 -1      2325 6.38814E-02
 -1      2326 4.42284E-02
 -1      2327 3.85601E-02
 -1      2328 4.88257E-02
 -1      2329 3.26069E-02
 -1      2330 2.77617E-02
 -1      2331 3.57678E-02
 -1      2332 2.30260E-02
 -1      2333 1.94356E-02
 -1      2334 2.50789E-02
 -1      2335 1.58419E-02
 -1      2336 1.41873E-02
 -1      2337 1.67495E-02
 -1      2338 1.20607E-02
 -1      2339 1.04178E-02
 -1      2340 1.10292E-02
 -1      2341 9.22381E-03
 -1      2342 7.61421E-03
 -1      2343 7.70858E-03
 -1      2344 6.84368E-03
 -1      2345 5.33945E-03
 -1      2346 5.74403E-03
 -1      2347 4.56153E-03
 -1      2348 3.61946E-03
 -1      2349 4.19559E-03
 -1      2350 1.00083E+00
 -1      2351 1.23311E+00
 -1      2352 7.70838E-01
 -1      2353 4.91379E-01
 -1      2354 5.44830E-01
 -1      2355 4.03121E-01
 -1      2356 4.54451E-01
 -1      2357 3.42453E-01
 -1      2358 4.08253E-01
 -1      2359 3.93568E-01
 -1      2360 2.95972E-01
 -1      2361 5.75046E-01
 -1      2362 4.94831E-01
 -1      2363 3.72997E-01
 -1      2364 9.23816E-01
 -1      2365 7.20958E-01
 -1      2366 6.05485E-01
 -1      2367 1.37867E+00
 -1      2368 1.11802E+00
 -1      2369 9.45596E-01
 -1      2370 1.96372E+00
 -1      2371 1.64186E+00
 -1      2372 1.40299E+00
 -1      2373 2.69662E+00
 -1      2374 2.33094E+00
 -1      2375 2.03340E+00
 -1      2376 3.55500E+00
 -1      2377 3.20646E+00
 -1      2378 2.91046E+00
 -1      2379 4.59360E+00
 -1      2380 4.32821E+00
 -1      2381 4.19351E+00
 -1      2382 6.40686E+00
 -1      2383 5.89419E+00
 -1      2384 6.26731E+00
 -1      2385 9.54852E+00
 -1      2386 8.49785E+00
 -1      2387 9.65889E+00
 -1      2388 6.99114E+00
 -1      2389 1.25028E+01
 -1      2390 4.78037E+00
 -1      2391 5.04254E+00
 -1      2392 3.73681E+00
 -1      2393 4.01197E+00
 -1      2394 4.92292E+00
 -1      2395 2.84879E+00
 -1      2396 3.16457E+00
 -1      2397 3.58229E+00
 -1      2398 2.08537E+00
 -1      2399 2.42114E+00
 -1      2400 2.58240E+00
 -1      2401 1.49799E+00
 -1      2402 1.77845E+00
 -1      2403 1.84783E+00
 -1      2404 1.06031E+00
 -1      2405 1.27653E+00
 -1      2406 1.31945E+00
 -1      2407 7.39492E-01
 -1      2408 9.02202E-01
 -1      2409 9.39876E-01
 -1      2410 5.23811E-01
 -1      2411 6.27553E-01
 -1      2412 6.69829E-01
 -1      2413 3.59972E-01
 -1      2414 4.40081E-01
 -1      2415 4.74160E-01
 -1      2416 2.44894E-01
 -1      2417 3.00247E-01
 -1      2418 3.30704E-01
 -1      2419 1.64654E-01
 -1      2420 2.02539E-01
 -1      2421 2.28623E-01
 -1      2422 1.08999E-01
 -1      2423 1.34753E-01
 -1      2424 1.56367E-01
 -1      2425 7.19858E-02
 -1      2426 8.74816E-02
 -1      2427 1.04949E-01
 -1      2428 5.09350E-02
 -1      2429 5.85318E-02
 -1      2430 6.99781E-02
 -1      2431 3.39372E-02
 -1      2432 4.07047E-02
 -1      2433 4.62939E-02
 -1      2434 2.22158E-02
 -1      2435 2.69477E-02
 -1      2436 2.90740E-02
 -1      2437 1.60781E-02
 -1      2438 1.87344E-02
 -1      2439 1.86030E-02
 -1      2440 1.20955E-02
 -1      2441 1.43056E-02
 -1      2442 1.33492E-02
 -1      2443 8.99025E-03
 -1      2444 1.08023E-02
 -1      2445 1.02835E-02
 -1      2446 6.47053E-03
 -1      2447 7.73039E-03
 -1      2448 7.73039E-03
 -1      2449 4.18549E-03
 -1      2450 5.32801E-03
 -1      2451 5.32801E-03
 -1      2452 2.91093E-03
 -1      2453 3.63696E-03
 -1      2454 3.63696E-03
 -1      2455 2.73248E-03
 -1      2456 2.54217E+01
 -1      2457 3.03330E+01
 -1      2458 1.15823E-03
 -1      2459 1.32817E-03
 -1      2460 1.87487E+01
 -1      2461 2.11169E+01
 -1      2462 1.22378E-03
 -1      2463 1.24641E-03
 -1      2464 1.59340E-03
 -1      2465 1.22378E-03
 -1      2466 1.22378E-03
 -1      2467 1.68158E-03
 -1      2468 1.14630E-03
 -1      2469 1.15515E-03
 -1      2470 1.61295E-03
 -1      2471 1.11887E-03
 -1      2472 1.14265E-03
 -1      2473 1.54067E-03
 -1      2474 1.14339E-03
 -1      2475 9.57331E-04
 -1      2476 1.37549E-03
 -1      2477 1.22660E-03
 -1      2478 1.17703E-03
 -1      2479 1.24758E-03
 -1      2480 1.47502E-03
 -1      2481 1.22660E-03
 -1      2482 1.28122E-03
 -1      2483 1.98489E-03
 -1      2484 1.19340E+01
 -1      2485 1.59748E+01
 -1      2486 3.09072E+01
 -1      2487 2.65700E+01
 -1      2488 6.04262E-01
 -1      2489 6.89189E-01
 -1      2490 4.38812E-01
 -1      2491 2.36024E+01
 -1      2492 2.52946E+01
 -1      2493 1.55440E-03
 -1      2494 1.63088E-03
 -1      2495 8.09717E+00
 -1      2496 8.95552E+00
 -1      2497 1.28203E+01
 -1      2498 1.75543E+01
 -1      2499 2.63332E+01
 -1      2500 3.21864E+01
 -1      2501 1.75100E-03
 -1      2502 2.14490E-03
 -1      2503 2.50086E-03
 -1      2504 1.79316E-03
 -1      2505 1.41208E-03
 -1      2506 1.55440E-03
 -1      2507 1.67304E-03
 -1      2508 1.58913E-03
 -1      2509 6.06543E+00
 -1      2510 7.22640E+00
 -1      2511 6.71420E+00
 -1      2512 3.52443E+01
 -1      2513 3.52443E+01
 -1      2514 5.06257E-01
 -1      2515 5.31832E-01
 -1      2516 4.63306E-01
 -1      2517 4.26964E-01
 -1      2518 7.36100E-01
 -1      2519 9.22350E-01
 -1      2520 6.70551E-01
 -1      2521 5.45155E-01
 -1      2522 7.57980E+00
 -1      2523 1.06123E+01
 -1      2524 1.89464E+01
 -1      2525 1.36692E+01
 -1      2526 2.12360E+01
 -1      2527 2.28771E+01
 -1      2528 3.03583E+01
 -1      2529 2.26769E+01
 -1      2530 3.80397E+01
 -1      2531 3.80397E+01
 -1      2532 3.21864E+01
 -1      2533 1.99279E+01
 -1      2534 2.14870E+01
 -1      2535 9.45053E+00
 -1      2536 9.33074E+00
 -1      2537 5.81432E+00
 -1      2538 5.94522E+00
 -1      2539 1.37137E+01
 -1      2540 1.00233E+01
 -1      2541 7.65857E+00
 -1      2542 6.45687E+00
 -1      2543 1.03077E+01
 -1      2544 9.84964E+00
 -1      2545 9.23680E+00
 -1      2546 5.91673E+00
 -1      2547 6.97123E+00
 -1      2548 7.81888E+00
 -1      2549 6.25440E+00
 -1      2550 7.55934E+00
 -1      2551 2.16162E+01
 -1      2552 1.54707E+01
 -1      2553 1.64887E+00
 -1      2554 1.27677E+00
 -1      2555 8.07466E-01
 -1      2556 9.58221E-01
 -1      2557 6.86764E+00
 -1      2558 9.55027E+00
 -1      2559 5.13148E-01
 -1      2560 6.50619E-01
 -1      2561 7.14451E-01
 -1      2562 1.69562E+01
 -1      2563 5.37017E+00
 -1      2564 7.87381E+00
 -1      2565 1.40383E+01
 -1      2566 5.84283E+00
 -1      2567 9.64040E+00
 -1      2568 1.18418E+01
 -1      2569 8.87258E+00
 -1      2570 5.68181E+00
 -1      2571 4.99946E+00
 -1      2572 2.11169E+01
 -1      2573 9.50073E+00
 -1      2574 8.99004E+00
 -1      2575 3.03330E+01
 -1      2576 2.30096E-03
 -1      2577 1.98489E-03
 -1      2578 1.79109E-03
 -1      2579 3.06110E-03
 -1      2580 3.09072E+01
 -1      2581 8.88064E+00
 -1      2582 2.36024E+01
 -1      2583 9.68547E+00
 -1      2584 6.91915E-01
 -1      2585 7.66469E-01
 -1      2586 6.59827E-01
 -1      2587 4.90611E-01
 -1      2588 8.28372E+00
 -1      2589 1.42671E+01
 -1      2590 7.16552E+00
 -1      2591 2.14870E+01
 -1      2592 1.15207E+01
 -1      2593 4.85080E+00
 -1      2594 5.80558E+00
 -1      2595 2.97834E+01
 -1      2596 2.21020E+01
 -1      2597 2.97834E+01
 -1      2598 8.06553E+00
 -1      2599 2.12360E+01
 -1      2600 1.58644E+01
 -1      2601 1.04344E+01
 -1      2602 1.21700E+01
 -1      2603 8.51828E+00
 -1      2604 5.01731E+00
 -1      2605 6.50466E+00
 -1      2606 8.51828E+00
 -1      2607 8.93513E+00
 -1      2608 2.85932E-03
 -1      2609 4.09215E-01
 -1      2610 3.90501E-01
 -1      2611 3.77083E-01
 -1      2612 3.62102E-01
 -1      2613 3.28532E-01
 -1      2614 4.37765E-01
 -1      2615 4.33488E-01
 -1      2616 4.35583E-01
 -1      2617 4.35583E-01
 -1      2618 3.55313E-01
 -1      2619 5.87240E-01
 -1      2620 4.49938E-01
 -1      2621 3.67486E-01
 -1      2622 5.65438E-01
 -1      2623 2.71195E-03
 -1      2624 2.15360E-03
 -1      2625 1.64373E-03
 -1      2626 5.68151E-01
 -1      2627 5.10406E-01
 -1      2628 4.90049E-01
 -1      2629 4.24507E-01
 -1      2630 3.52592E-01
 -1      2631 4.08785E-01
 -1      2632 3.43176E-01
 -1      2633 3.16513E-01
 -1      2634 3.13716E-01
 -1      2635 2.87889E-01
 -1      2636 2.71332E-01
 -1      2637 2.70176E-01
 -1      2638 2.40341E-01
 -1      2639 2.24160E-01
 -1      2640 2.28957E-01
 -1      2641 2.00886E-01
 -1      2642 1.95062E-01
 -1      2643 1.92409E-01
 -1      2644 1.79010E-01
 -1      2645 1.75201E-01
 -1      2646 1.98273E-01
 -1      2647 2.11473E-01
 -1      2648 1.85987E-01
 -1      2649 2.50841E-01
 -1      2650 2.83986E-01
 -1      2651 2.44618E-01
 -1      2652 3.43257E-01
 -1      2653 4.02529E-01
 -1      2654 3.43257E-01
 -1      2655 4.77681E-01
 -1      2656 5.52833E-01
 -1      2657 4.77681E-01
 -1      2658 6.32078E-01
 -1      2659 7.11323E-01
 -1      2660 6.32078E-01
 -1      2661 7.99950E-01
 -1      2662 9.05780E-01
 -1      2663 7.99950E-01
 -1      2664 9.72608E-01
 -1      2665 1.06801E+00
 -1      2666 9.55406E-01
 -1      2667 1.12750E+00
 -1      2668 1.17868E+00
 -1      2669 1.08172E+00
 -1      2670 1.23660E+00
 -1      2671 1.28204E+00
 -1      2672 1.19913E+00
 -1      2673 1.34206E+00
 -1      2674 1.33198E+00
 -1      2675 1.31708E+00
 -1      2676 1.25175E+00
 -1      2677 1.23051E+00
 -1      2678 1.29687E+00
 -1      2679 1.32889E+00
 -1      2680 1.36242E+00
 -1      2681 1.31503E+00
 -1      2682 1.32279E+00
 -1      2683 1.30859E+00
 -1      2684 1.37378E+00
 -1      2685 1.23475E+00
 -1      2686 1.17795E+00
 -1      2687 1.26031E+00
 -1      2688 1.12193E+00
 -1      2689 1.04973E+00
 -1      2690 1.13045E+00
 -1      2691 9.84740E-01
 -1      2692 8.71229E-01
 -1      2693 1.00943E+00
 -1      2694 7.83425E-01
 -1      2695 6.77958E-01
 -1      2696 8.56643E-01
 -1      2697 5.87078E-01
 -1      2698 4.98691E-01
 -1      2699 6.77958E-01
 -1      2700 4.15975E-01
 -1      2701 3.36794E-01
 -1      2702 5.04362E-01
 -1      2703 2.90392E-01
 -1      2704 2.67499E-01
 -1      2705 3.75244E-01
 -1      2706 2.21902E-01
 -1      2707 1.98171E-01
 -1      2708 2.83246E-01
 -1      2709 1.69528E-01
 -1      2710 1.57778E-01
 -1      2711 2.09006E-01
 -1      2712 1.47842E-01
 -1      2713 1.46085E-01
 -1      2714 1.70427E-01
 -1      2715 1.35254E-01
 -1      2716 1.28464E-01
 -1      2717 1.49659E-01
 -1      2718 1.17808E-01
 -1      2719 1.10485E-01
 -1      2720 1.28171E-01
 -1      2721 1.00962E-01
 -1      2722 9.32734E-02
 -1      2723 1.07993E-01
 -1      2724 8.41916E-02
 -1      2725 7.60695E-02
 -1      2726 8.93885E-02
 -1      2727 6.76031E-02
 -1      2728 5.96522E-02
 -1      2729 7.18403E-02
 -1      2730 5.21408E-02
 -1      2731 4.50360E-02
 -1      2732 5.58624E-02
 -1      2733 3.87184E-02
 -1      2734 3.27652E-02
 -1      2735 4.20334E-02
 -1      2736 2.76747E-02
 -1      2737 2.29390E-02
 -1      2738 3.06253E-02
 -1      2739 1.89900E-02
 -1      2740 1.53963E-02
 -1      2741 2.15858E-02
 -1      2742 1.24432E-02
 -1      2743 1.03166E-02
 -1      2744 1.46837E-02
 -1      2745 8.18904E-03
 -1      2746 6.99501E-03
 -1      2747 9.60304E-03
 -1      2748 5.52748E-03
 -1      2749 4.75695E-03
 -1      2750 6.00793E-03
 -1      2751 4.04346E-03
 -1      2752 3.26554E-03
 -1      2753 2.55982E-03
 -1      2754 3.82690E-03
 -1      2755 2.55879E+01
 -1      2756 2.12507E+01
 -1      2757 2.41122E-01
 -1      2758 2.50675E-01
 -1      2759 2.27078E-01
 -1      2760 2.64006E-01
 -1      2761 1.72228E-01
 -1      2762 6.63264E-01
 -1      2763 5.17353E-01
 -1      2764 1.04611E+00
 -1      2765 8.51913E-01
 -1      2766 7.63781E-01
 -1      2767 1.57554E+00
 -1      2768 1.31235E+00
 -1      2769 1.21867E+00
 -1      2770 2.31852E+00
 -1      2771 1.95130E+00
 -1      2772 1.86066E+00
 -1      2773 3.34852E+00
 -1      2774 2.83868E+00
 -1      2775 2.75658E+00
 -1      2776 4.98797E+00
 -1      2777 4.21475E+00
 -1      2778 4.14298E+00
 -1      2779 8.67376E+00
 -1      2780 7.37317E+00
 -1      2781 7.39441E+00
 -1      2782 1.16102E+01
 -1      2783 9.51919E+00
 -1      2784 1.06250E+01
 -1      2785 4.55224E+00
 -1      2786 6.18682E+00
 -1      2787 1.04344E+01
 -1      2788 2.50167E+00
 -1      2789 2.92932E+00
 -1      2790 1.03617E+01
 -1      2791 4.04057E+00
 -1      2792 3.70290E+00
 -1      2793 3.57880E+00
 -1      2794 4.15103E+00
 -1      2795 3.49806E+00
 -1      2796 1.48604E+01
 -1      2797 1.91652E+01
 -1      2798 5.20810E+00
 -1      2799 5.97649E+00
 -1      2800 5.20461E+00
 -1      2801 1.74237E+00
 -1      2802 2.04929E+00
 -1      2803 2.39620E+00
 -1      2804 1.21570E+00
 -1      2805 1.43716E+00
 -1      2806 1.63862E+00
 -1      2807 8.47488E-01
 -1      2808 1.00560E+00
 -1      2809 1.12331E+00
 -1      2810 5.90946E-01
 -1      2811 7.02884E-01
 -1      2812 7.68606E-01
 -1      2813 4.03787E-01
 -1      2814 4.87517E-01
 -1      2815 5.20573E-01
 -1      2816 2.75210E-01
 -1      2817 3.34936E-01
 -1      2818 3.48293E-01
 -1      2819 1.89657E-01
 -1      2820 2.32013E-01
 -1      2821 2.36244E-01
 -1      2822 1.32122E-01
 -1      2823 1.62023E-01
 -1      2824 1.65413E-01
 -1      2825 9.04738E-02
 -1      2826 1.11991E-01
 -1      2827 1.17647E-01
 -1      2828 6.25435E-02
 -1      2829 7.59975E-02
 -1      2830 8.30392E-02
 -1      2831 4.14056E-02
 -1      2832 5.16359E-02
 -1      2833 5.76552E-02
 -1      2834 2.66085E-02
 -1      2835 3.35981E-02
 -1      2836 3.89401E-02
 -1      2837 1.76358E-02
 -1      2838 2.11172E-02
 -1      2839 2.56412E-02
 -1      2840 1.20048E-02
 -1      2841 1.37773E-02
 -1      2842 1.62914E-02
 -1      2843 8.36725E-03
 -1      2844 9.66049E-03
 -1      2845 1.00886E-02
 -1      2846 5.74780E-03
 -1      2847 7.00766E-03
 -1      2848 6.38466E-03
 -1      2849 3.94507E-03
 -1      2850 5.08759E-03
 -1      2851 4.36486E-03
 -1      2852 2.69869E-03
 -1      2853 3.24721E-03
 -1      2854 3.00679E-03
 -1      2855 2.11111E-03
 -1      2856 2.34540E-03
 -1      2857 2.34540E-03
 -1      2858 2.08957E+01
 -1      2859 2.58070E+01
 -1      2860 1.61506E+01
 -1      2861 1.90497E+01
 -1      2862 1.76088E+01
 -1      2863 2.34540E-03
 -1      2864 2.25723E-03
 -1      2865 3.00923E-03
 -1      2866 2.16855E-03
 -1      2867 2.17220E-03
 -1      2868 1.90880E-03
 -1      2869 2.07033E-03
 -1      2870 2.70186E-03
 -1      2871 1.70262E-03
 -1      2872 1.66898E-03
 -1      2873 2.36383E-03
 -1      2874 1.64373E-03
 -1      2875 6.88225E+00
 -1      2876 9.09031E+00
 -1      2877 8.19831E+00
 -1      2878 5.99394E+00
 -1      2879 4.67953E+00
 -1      2880 1.06695E+01
 -1      2881 1.30431E+01
 -1      2882 2.06687E+01
 -1      2883 2.65219E+01
 -1      2884 1.09238E+01
 -1      2885 9.16681E+00
 -1      2886 8.70117E+00
 -1      2887 9.72406E+00
 -1      2888 8.98635E+00
 -1      2889 3.14107E-01
 -1      2890 3.73538E-01
 -1      2891 1.98732E-01
 -1      2892 1.56502E+01
 -1      2893 1.19717E+01
 -1      2894 2.05643E+01
 -1      2895 1.75966E+01
 -1      2896 2.18227E-03
 -1      2897 2.25090E-03
 -1      2898 2.91472E-03
 -1      2899 2.81014E-03
 -1      2900 4.02784E-01
 -1      2901 3.16207E-01
 -1      2902 2.70910E-01
 -1      2903 4.60563E-01
 -1      2904 9.11182E+00
 -1      2905 7.02859E+00
 -1      2906 6.66551E+00
 -1      2907 4.99334E+00
 -1      2908 1.53941E+01
 -1      2909 2.02404E+01
 -1      2910 4.33488E-01
 -1      2911 4.16987E-01
 -1      2912 3.49722E-01
 -1      2913 3.57495E-01
 -1      2914 4.09829E+00
 -1      2915 3.45574E+00
 -1      2916 3.79973E+00
 -1      2917 4.22888E-01
 -1      2918 4.38576E-01
 -1      2919 4.16253E+00
 -1      2920 5.28847E+00
 -1      2921 7.60887E+00
 -1      2922 7.20976E+00
 -1      2923 6.14167E-01
 -1      2924 5.70053E-01
 -1      2925 3.74852E-01
 -1      2926 4.22415E-01
 -1      2927 6.17680E+00
 -1      2928 7.52900E+00
 -1      2929 3.19018E-01
 -1      2930 3.66005E-01
 -1      2931 3.83880E-01
 -1      2932 5.24689E-01
 -1      2933 3.41092E-01
 -1      2934 4.46205E-01
 -1      2935 4.53375E+00
 -1      2936 1.52450E+01
 -1      2937 1.22746E+01
 -1      2938 7.86626E+00
 -1      2939 1.46392E+01
 -1      2940 9.61782E+00
 -1      2941 5.59166E+00
 -1      2942 1.35862E+01
 -1      2943 1.34465E+01
 -1      2944 3.64003E-01
 -1      2945 4.38576E-01
 -1      2946 4.38576E-01
 -1      2947 3.18579E+00
 -1      2948 2.04928E-03
 -1      2949 2.13319E-03
 -1      2950 2.80128E-03
 -1      2951 1.84748E+01
 -1      2952 3.59827E+00
 -1      2953 2.06513E-03
 -1      2954 7.60141E+00
 -1      2955 2.33671E-03
 -1      2956 2.33671E-03
 -1      2957 2.79686E-03
 -1      2958 1.82657E+01
 -1      2959 2.33671E-03
 -1      2960 2.45683E-03
 -1      2961 2.65466E-03
 -1      2962 3.00039E-03
 -1      2963 5.50196E+00
 -1      2964 1.26121E+01
 -1      2965 3.97338E-01
 -1      2966 4.15805E-01
 -1      2967 3.56920E-01
 -1      2968 3.36379E-01
 -1      2969 1.57725E+01
 -1      2970 1.45758E+01
 -1      2971 5.03758E+00
 -1      2972 3.78894E-01
 -1      2973 4.25806E-01
 -1      2974 2.79944E-01
 -1      2975 2.54188E-01
 -1      2976 3.40913E-01
 -1      2977 3.26558E-01
 -1      2978 3.00164E-01
 -1      2979 3.28740E-01
 -1      2980 3.24942E-01
 -1      2981 3.04584E-01
 -1      2982 2.79021E+00
 -1      2983 3.88671E+00
 -1      2984 2.45827E-01
 -1      2985 2.30105E-01
 -1      2986 2.18176E-01
 -1      2987 2.31439E-01
 -1      2988 2.01979E-01
 -1      2989 1.60752E-01
 -1      2990 1.88820E-01
 -1      2991 1.71107E-01
 -1      2992 1.48926E-01
 -1      2993 1.62798E-01
 -1      2994 1.51414E-01
 -1      2995 1.27459E-01
 -1      2996 1.51531E-01
 -1      2997 1.43054E-01
 -1      2998 1.19267E-01
 -1      2999 1.71640E-01
 -1      3000 1.90902E-01
 -1      3001 1.47969E-01
 -1      3002 2.32632E-01
 -1      3003 2.72000E-01
 -1      3004 2.18284E-01
 -1      3005 3.22504E-01
 -1      3006 3.81776E-01
 -1      3007 3.10518E-01
 -1      3008 4.58743E-01
 -1      3009 5.33896E-01
 -1      3010 4.37990E-01
 -1      3011 6.23353E-01
 -1      3012 7.02597E-01
 -1      3013 6.04415E-01
 -1      3014 7.99950E-01
 -1      3015 8.88577E-01
 -1      3016 7.91224E-01
 -1      3017 9.89425E-01
 -1      3018 1.05625E+00
 -1      3019 9.89425E-01
 -1      3020 1.14209E+00
 -1      3021 1.20157E+00
 -1      3022 1.17611E+00
 -1      3023 1.20682E+00
 -1      3024 1.26474E+00
 -1      3025 1.26719E+00
 -1      3026 1.43011E+00
 -1      3027 1.49013E+00
 -1      3028 1.43780E+00
 -1      3029 1.58198E+00
 -1      3030 1.50176E+00
 -1      3031 1.69501E+00
 -1      3032 1.94394E+00
 -1      3033 2.04231E+00
 -1      3034 2.22904E+00
 -1      3035 1.82945E+00
 -1      3036 1.78982E+00
 -1      3037 2.45835E+00
 -1      3038 1.38237E+00
 -1      3039 1.30853E+00
 -1      3040 1.83804E+00
 -1      3041 1.20019E+00
 -1      3042 1.14416E+00
 -1      3043 1.32225E+00
 -1      3044 1.12996E+00
 -1      3045 1.06497E+00
 -1      3046 1.19970E+00
 -1      3047 9.48758E-01
 -1      3048 8.60954E-01
 -1      3049 1.06928E+00
 -1      3050 7.68838E-01
 -1      3051 6.77958E-01
 -1      3052 8.60954E-01
 -1      3053 6.08953E-01
 -1      3054 5.26237E-01
 -1      3055 6.99833E-01
 -1      3056 4.48677E-01
 -1      3057 4.02276E-01
 -1      3058 5.53268E-01
 -1      3059 3.28843E-01
 -1      3060 2.83246E-01
 -1      3061 4.02276E-01
 -1      3062 2.48772E-01
 -1      3063 2.20129E-01
 -1      3064 2.94369E-01
 -1      3065 1.96295E-01
 -1      3066 1.86359E-01
 -1      3067 2.36061E-01
 -1      3068 1.66173E-01
 -1      3069 1.55341E-01
 -1      3070 1.92041E-01
 -1      3071 1.39232E-01
 -1      3072 1.28576E-01
 -1      3073 1.55746E-01
 -1      3074 1.16081E-01
 -1      3075 1.06558E-01
 -1      3076 1.27142E-01
 -1      3077 9.45400E-02
 -1      3078 8.54582E-02
 -1      3079 1.02628E-01
 -1      3080 7.48375E-02
 -1      3081 6.63710E-02
 -1      3082 7.99889E-02
 -1      3083 5.76063E-02
 -1      3084 5.00949E-02
 -1      3085 6.06035E-02
 -1      3086 4.33242E-02
 -1      3087 3.70066E-02
 -1      3088 4.50681E-02
 -1      3089 3.16952E-02
 -1      3090 2.66046E-02
 -1      3091 3.29860E-02
 -1      3092 2.25386E-02
 -1      3093 1.85897E-02
 -1      3094 2.36086E-02
 -1      3095 1.55535E-02
 -1      3096 1.26004E-02
 -1      3097 1.65063E-02
 -1      3098 1.03937E-02
 -1      3099 8.26612E-03
 -1      3100 1.12635E-02
 -1      3101 6.68548E-03
 -1      3102 5.21795E-03
 -1      3103 7.47614E-03
 -1      3104 1.31383E+00
 -1      3105 1.04760E+00
 -1      3106 8.45633E-01
 -1      3107 6.56984E-01
 -1      3108 9.40803E-01
 -1      3109 2.91347E+00
 -1      3110 2.39331E+00
 -1      3111 4.57203E+00
 -1      3112 3.70579E+00
 -1      3113 3.34252E+00
 -1      3114 9.45052E+00
 -1      3115 7.06532E+00
 -1      3116 6.62814E+00
 -1      3117 8.71701E+00
 -1      3118 7.66910E+00
 -1      3119 3.17390E+00
 -1      3120 3.82338E+00
 -1      3121 1.44816E+00
 -1      3122 1.75336E+00
 -1      3123 8.21249E+00
 -1      3124 1.18102E+01
 -1      3125 2.12867E+00
 -1      3126 2.58105E+00
 -1      3127 2.90636E+00
 -1      3128 1.93821E+00
 -1      3129 9.96180E-01
 -1      3130 1.20628E+00
 -1      3131 1.32102E+00
 -1      3132 6.90171E-01
 -1      3133 8.34775E-01
 -1      3134 9.17746E-01
 -1      3135 4.70729E-01
 -1      3136 5.74158E-01
 -1      3137 6.40328E-01
 -1      3138 3.20972E-01
 -1      3139 3.89824E-01
 -1      3140 4.43409E-01
 -1      3141 2.21105E-01
 -1      3142 2.64302E-01
 -1      3143 3.05833E-01
 -1      3144 1.53811E-01
 -1      3145 1.81446E-01
 -1      3146 2.09503E-01
 -1      3147 1.06378E-01
 -1      3148 1.26509E-01
 -1      3149 1.42542E-01
 -1      3150 7.38924E-02
 -1      3151 8.83687E-02
 -1      3152 9.72309E-02
 -1      3153 5.00884E-02
 -1      3154 6.09960E-02
 -1      3155 6.63255E-02
 -1      3156 3.32106E-02
 -1      3157 4.10181E-02
 -1      3158 4.43589E-02
 -1      3159 2.17029E-02
 -1      3160 2.71943E-02
 -1      3161 2.92723E-02
 -1      3162 1.41359E-02
 -1      3163 1.79944E-02
 -1      3164 1.95474E-02
 -1      3165 9.15412E-03
 -1      3166 1.14985E-02
 -1      3167 1.32014E-02
 -1      3168 5.86670E-03
 -1      3169 7.22629E-03
 -1      3170 8.63617E-03
 -1      3171 4.03084E-03
 -1      3172 4.69106E-03
 -1      3173 5.53269E-03
 -1      3174 5.75552E+00
 -1      3175 7.33469E+00
 -1      3176 1.29620E+01
 -1      3177 1.27429E+01
 -1      3178 1.64988E+01
 -1      3179 1.34465E+01
 -1      3180 1.14705E+01
 -1      3181 3.45654E-03
 -1      3182 3.69635E-03
 -1      3183 3.69635E-03
 -1      3184 3.79456E-03
 -1      3185 4.78905E-03
 -1      3186 3.92809E-01
 -1      3187 3.70272E-01
 -1      3188 3.24612E-01
 -1      3189 3.18236E-01
 -1      3190 5.13967E+00
 -1      3191 3.18630E+00
 -1      3192 4.65750E+00
 -1      3193 4.73738E+00
 -1      3194 3.57909E+00
 -1      3195 2.68404E+00
 -1      3196 1.54125E-01
 -1      3197 2.04226E-01
 -1      3198 1.03229E+01
 -1      3199 7.94983E+00
 -1      3200 1.06745E+01
 -1      3201 1.15788E+01
 -1      3202 9.63240E+00
 -1      3203 7.68369E+00
 -1      3204 7.66910E+00
 -1      3205 6.70060E+00
 -1      3206 5.20737E+00
 -1      3207 4.83630E+00
 -1      3208 5.89336E+00
 -1      3209 7.58153E+00
 -1      3210 4.51213E+00
 -1      3211 1.18921E+01
 -1      3212 1.23204E+01
 -1      3213 1.05635E+01
 -1      3214 3.96718E-03
 -1      3215 3.96718E-03
 -1      3216 4.50554E+00
 -1      3217 5.20097E+00
 -1      3218 1.92283E-01
 -1      3219 1.68687E-01
 -1      3220 1.74180E-01
 -1      3221 4.82271E+00
 -1      3222 4.27846E+00
 -1      3223 3.36423E+00
 -1      3224 1.32373E+01
 -1      3225 1.27429E+01
 -1      3226 1.20564E+01
 -1      3227 9.07669E+00
 -1      3228 2.90973E-03
 -1      3229 2.96862E-03
 -1      3230 4.30114E-03
 -1      3231 3.46332E-03
 -1      3232 3.00970E-01
 -1      3233 2.87553E-01
 -1      3234 3.52318E+00
 -1      3235 4.41152E+00
 -1      3236 1.98353E+00
 -1      3237 1.60777E+00
 -1      3238 1.43670E+00
 -1      3239 2.51179E+00
 -1      3240 2.97141E+00
 -1      3241 1.23098E+01
 -1      3242 7.87650E+00
 -1      3243 6.64357E+00
 -1      3244 1.40404E+01
 -1      3245 2.77103E+00
 -1      3246 3.49602E+00
 -1      3247 2.14042E+00
 -1      3248 2.84918E+00
 -1      3249 4.17682E-03
 -1      3250 3.28740E-01
 -1      3251 3.28740E-01
 -1      3252 3.23688E-01
 -1      3253 3.23688E-01
 -1      3254 6.00561E-01
 -1      3255 5.18709E-01
 -1      3256 4.04140E-01
 -1      3257 1.06250E+01
 -1      3258 1.30039E+01
 -1      3259 2.97192E+00
 -1      3260 9.61922E+00
 -1      3261 1.23030E+01
 -1      3262 1.05361E+01
 -1      3263 4.92513E-03
 -1      3264 3.96718E-03
 -1      3265 3.75923E-03
 -1      3266 4.85436E-03
 -1      3267 5.76577E+00
 -1      3268 4.66940E+00
 -1      3269 3.35252E-03
 -1      3270 1.02960E+01
 -1      3271 9.55430E+00
 -1      3272 3.04603E-01
 -1      3273 2.63623E-01
 -1      3274 3.12375E-01
 -1      3275 4.78270E-03
 -1      3276 3.78820E-03
 -1      3277 3.79828E-03
 -1      3278 2.39584E-01
 -1      3279 2.36042E-01
 -1      3280 3.14668E-01
 -1      3281 3.75766E-03
 -1      3282 3.96119E-03
 -1      3283 4.92356E-03
 -1      3284 4.43475E+00
 -1      3285 3.67018E+00
 -1      3286 3.42419E+00
 -1      3287 3.97826E+00
 -1      3288 3.67871E-03
 -1      3289 3.67871E-03
 -1      3290 4.63951E-03
 -1      3291 1.72315E-01
 -1      3292 2.16922E-01
 -1      3293 3.16605E-01
 -1      3294 3.23688E-01
 -1      3295 2.83373E-01
 -1      3296 2.99985E-01
 -1      3297 2.56060E-01
 -1      3298 2.83622E-01
 -1      3299 2.87526E-01
 -1      3300 3.77137E-03
 -1      3301 3.86587E-03
 -1      3302 4.82382E-03
 -1      3303 4.74943E-03
 -1      3304 6.76830E+00
 -1      3305 6.26225E+00
 -1      3306 9.84623E+00
 -1      3307 7.59080E+00
 -1      3308 5.92626E+00
 -1      3309 3.22710E-01
 -1      3310 2.22278E-01
 -1      3311 2.74702E-01
 -1      3312 2.79765E-01
 -1      3313 2.42499E-01
 -1      3314 1.31016E-01
 -1      3315 1.32350E-01
 -1      3316 1.17527E-01
 -1      3317 1.04367E-01
 -1      3318 8.77908E-02
 -1      3319 1.12099E-01
 -1      3320 1.03790E-01
 -1      3321 8.06990E-02
 -1      3322 1.12692E-01
 -1      3323 1.12809E-01
 -1      3324 9.73316E-02
 -1      3325 1.40049E-01
 -1      3326 1.68635E-01
 -1      3327 1.33474E-01
 -1      3328 2.10737E-01
 -1      3329 2.52467E-01
 -1      3330 2.02817E-01
 -1      3331 3.10518E-01
 -1      3332 3.61023E-01
 -1      3333 3.02971E-01
 -1      3334 4.37990E-01
 -1      3335 5.14958E-01
 -1      3336 4.37990E-01
 -1      3337 6.11954E-01
 -1      3338 7.01411E-01
 -1      3339 6.11954E-01
 -1      3340 8.29316E-01
 -1      3341 9.26669E-01
 -1      3342 8.36855E-01
 -1      3343 1.00500E+00
 -1      3344 1.10585E+00
 -1      3345 1.04309E+00
 -1      3346 1.17611E+00
 -1      3347 1.26194E+00
 -1      3348 1.19168E+00
 -1      3349 1.69313E+00
 -1      3350 1.69838E+00
 -1      3351 1.69313E+00
 -1      3352 1.78994E+00
 -1      3353 1.95531E+00
 -1      3354 2.21589E+00
 -1      3355 2.14574E+00
 -1      3356 2.23759E+00
 -1      3357 2.49788E+00
 -1      3358 2.83989E+00
 -1      3359 3.28207E+00
 -1      3360 3.29062E+00
 -1      3361 3.05932E+00
 -1      3362 2.84646E+00
 -1      3363 1.78218E+00
 -1      3364 1.67384E+00
 -1      3365 1.58407E+00
 -1      3366 1.56987E+00
 -1      3367 2.04401E+00
 -1      3368 1.19443E+00
 -1      3369 1.07822E+00
 -1      3370 1.57880E+00
 -1      3371 1.07419E+00
 -1      3372 9.82071E-01
 -1      3373 1.19934E+00
 -1      3374 8.48191E-01
 -1      3375 7.79186E-01
 -1      3376 1.06142E+00
 -1      3377 6.30828E-01
 -1      3378 5.53268E-01
 -1      3379 7.79186E-01
 -1      3380 4.75708E-01
 -1      3381 4.02276E-01
 -1      3382 5.53268E-01
 -1      3383 3.52955E-01
 -1      3384 3.18481E-01
 -1      3385 4.26388E-01
 -1      3386 2.73194E-01
 -1      3387 2.49360E-01
 -1      3388 3.31780E-01
 -1      3389 2.17130E-01
 -1      3390 1.96944E-01
 -1      3391 2.54263E-01
 -1      3392 1.73810E-01
 -1      3393 1.57701E-01
 -1      3394 1.98900E-01
 -1      3395 1.38054E-01
 -1      3396 1.25559E-01
 -1      3397 1.56118E-01
 -1      3398 1.09117E-01
 -1      3399 9.70986E-02
 -1      3400 1.20029E-01
 -1      3401 8.62094E-02
 -1      3402 7.55887E-02
 -1      3403 9.26984E-02
 -1      3404 6.69171E-02
 -1      3405 5.81525E-02
 -1      3406 7.31377E-02
 -1      3407 5.07975E-02
 -1      3408 4.40268E-02
 -1      3409 5.71111E-02
 -1      3410 3.76456E-02
 -1      3411 3.23342E-02
 -1      3412 4.33750E-02
 -1      3413 2.70906E-02
 -1      3414 2.30246E-02
 -1      3415 3.17503E-02
 -1      3416 1.89578E-02
 -1      3417 1.59216E-02
 -1      3418 2.24399E-02
 -1      3419 1.29880E-02
 -1      3420 1.07813E-02
 -1      3421 1.54394E-02
 -1      3422 8.59298E-03
 -1      3423 7.01234E-03
 -1      3424 1.03175E-02
 -1      3425 2.42499E-01
 -1      3426 7.74760E+00
 -1      3427 5.25431E+00
 -1      3428 3.41638E+00
 -1      3429 2.62406E+00
 -1      3430 4.53585E+00
 -1      3431 5.45667E+00
 -1      3432 3.89574E+00
 -1      3433 1.03240E+00
 -1      3434 1.27428E+00
 -1      3435 5.60125E-03
 -1      3436 4.56011E-03
 -1      3437 5.04802E-03
 -1      3438 6.71809E-03
 -1      3439 9.59615E+00
 -1      3440 3.01265E+00
 -1      3441 2.33813E+00
 -1      3442 3.68496E-01
 -1      3443 4.49402E-01
 -1      3444 2.61478E-01
 -1      3445 3.18148E-01
 -1      3446 3.24141E-01
 -1      3447 1.83105E-01
 -1      3448 2.22764E-01
 -1      3449 2.35079E-01
 -1      3450 1.27659E-01
 -1      3451 1.54961E-01
 -1      3452 1.68222E-01
 -1      3453 8.92616E-02
 -1      3454 1.07271E-01
 -1      3455 1.19690E-01
 -1      3456 6.09699E-02
 -1      3457 7.38663E-02
 -1      3458 8.39060E-02
 -1      3459 4.10610E-02
 -1      3460 5.01312E-02
 -1      3461 5.76720E-02
 -1      3462 2.75666E-02
 -1      3463 3.35829E-02
 -1      3464 3.93553E-02
 -1      3465 1.85851E-02
 -1      3466 2.22937E-02
 -1      3467 2.66043E-02
 -1      3468 1.22323E-02
 -1      3469 1.48698E-02
 -1      3470 1.76160E-02
 -1      3471 7.65483E-03
 -1      3472 9.58266E-03
 -1      3473 1.12510E-02
 -1      3474 5.43807E-03
 -1      3475 6.61372E-03
 -1      3476 7.56022E-03
 -1      3477 5.72055E-03
 -1      3478 3.20468E-01
 -1      3479 2.48616E+00
 -1      3480 2.59232E+00
 -1      3481 2.80153E-01
 -1      3482 1.47916E-01
 -1      3483 1.60612E-01
 -1      3484 2.72961E+00
 -1      3485 3.34844E+00
 -1      3486 3.36877E+00
 -1      3487 2.66941E+00
 -1      3488 7.85616E-03
 -1      3489 7.85616E-03
 -1      3490 8.11513E-03
 -1      3491 3.77097E+00
 -1      3492 4.32552E+00
 -1      3493 2.98903E-01
 -1      3494 3.12360E-01
 -1      3495 2.79128E-01
 -1      3496 7.95188E+00
 -1      3497 7.47427E+00
 -1      3498 7.03122E+00
 -1      3499 6.11582E+00
 -1      3500 7.24505E-01
 -1      3501 8.85911E-01
 -1      3502 8.39163E-01
 -1      3503 2.18819E+00
 -1      3504 1.77841E+00
 -1      3505 2.26205E+00
 -1      3506 5.15950E-01
 -1      3507 6.31963E-01
 -1      3508 6.00127E-01
 -1      3509 4.41037E-01
 -1      3510 1.87818E-01
 -1      3511 1.73257E-01
 -1      3512 1.61554E-01
 -1      3513 9.74350E-01
 -1      3514 7.72384E-01
 -1      3515 2.24986E+00
 -1      3516 2.80163E+00
 -1      3517 5.73295E+00
 -1      3518 5.73295E+00
 -1      3519 2.83621E-01
 -1      3520 4.71718E+00
 -1      3521 5.25899E+00
 -1      3522 3.89293E+00
 -1      3523 3.97826E+00
 -1      3524 2.09612E-01
 -1      3525 1.50854E-01
 -1      3526 1.22452E-01
 -1      3527 2.12831E-01
 -1      3528 1.44645E+00
 -1      3529 1.15252E+00
 -1      3530 9.84098E-01
 -1      3531 7.99373E+00
 -1      3532 7.95188E+00
 -1      3533 7.95188E+00
 -1      3534 5.93726E+00
 -1      3535 2.18099E-01
 -1      3536 1.49422E+00
 -1      3537 3.67018E+00
 -1      3538 6.35494E-01
 -1      3539 4.97219E-01
 -1      3540 6.69041E-01
 -1      3541 2.23981E+00
 -1      3542 1.83236E+00
 -1      3543 2.63506E-01
 -1      3544 3.72814E-01
 -1      3545 4.42132E+00
 -1      3546 1.24192E+00
 -1      3547 1.53054E+00
 -1      3548 1.90585E+00
 -1      3549 8.64377E+00
 -1      3550 8.62633E+00
 -1      3551 3.81875E+00
 -1      3552 2.29239E+00
 -1      3553 2.88524E+00
 -1      3554 1.88472E+00
 -1      3555 3.26195E+00
 -1      3556 2.44474E+00
 -1      3557 5.72055E-03
 -1      3558 6.51911E-03
 -1      3559 5.72212E-03
 -1      3560 2.18395E+00
 -1      3561 4.75565E+00
 -1      3562 5.80424E+00
 -1      3563 2.29058E+00
 -1      3564 7.85616E-03
 -1      3565 7.84980E-03
 -1      3566 1.09233E-02
 -1      3567 2.49070E+00
 -1      3568 2.82487E+00
 -1      3569 5.90640E+00
 -1      3570 3.00456E+00
 -1      3571 9.36160E+00
 -1      3572 7.98778E+00
 -1      3573 2.27619E-01
 -1      3574 2.27619E-01
 -1      3575 1.57077E-01
 -1      3576 6.34946E+00
 -1      3577 2.32981E-01
 -1      3578 2.29050E-01
 -1      3579 2.72148E-01
 -1      3580 2.24848E-01
 -1      3581 2.23924E-01
 -1      3582 5.08047E+00
 -1      3583 1.59244E-01
 -1      3584 2.41130E-01
 -1      3585 2.24765E-01
 -1      3586 5.42292E+00
 -1      3587 4.17489E+00
 -1      3588 5.18781E+00
 -1      3589 3.56092E+00
 -1      3590 2.36613E-01
 -1      3591 2.32981E-01
 -1      3592 2.05971E-01
 -1      3593 1.94123E-01
 -1      3594 6.59790E+00
 -1      3595 8.64377E+00
 -1      3596 7.65088E+00
 -1      3597 5.82711E-03
 -1      3598 5.92841E-03
 -1      3599 5.92841E-03
 -1      3600 5.92841E-03
 -1      3601 6.72541E-03
 -1      3602 6.93170E-03
 -1      3603 1.36873E-01
 -1      3604 1.22051E-01
 -1      3605 9.21026E-02
 -1      3606 9.98338E-02
 -1      3607 1.41185E-01
 -1      3608 1.20314E-01
 -1      3609 1.29215E-01
 -1      3610 1.31717E-01
 -1      3611 1.51456E-01
 -1      3612 1.78697E-01
 -1      3613 1.74438E-01
 -1      3614 2.20619E-01
 -1      3615 2.62721E-01
 -1      3616 2.38601E-01
 -1      3617 3.16924E-01
 -1      3618 3.74975E-01
 -1      3619 3.34725E-01
 -1      3620 4.58468E-01
 -1      3621 5.35436E-01
 -1      3622 4.72421E-01
 -1      3623 6.33551E-01
 -1      3624 7.30547E-01
 -1      3625 6.54029E-01
 -1      3626 8.36855E-01
 -1      3627 9.64760E-01
 -1      3628 8.58452E-01
 -1      3629 1.14298E+00
 -1      3630 1.22131E+00
 -1      3631 1.14298E+00
 -1      3632 1.16760E+00
 -1      3633 1.23786E+00
 -1      3634 1.26748E+00
 -1      3635 2.49070E+00
 -1      3636 2.68113E+00
 -1      3637 2.19277E-01
 -1      3638 2.30654E-01
 -1      3639 1.96198E-01
 -1      3640 1.95424E+00
 -1      3641 1.57880E+00
 -1      3642 1.76637E+00
 -1      3643 1.76234E+00
 -1      3644 2.14180E+00
 -1      3645 1.51643E+00
 -1      3646 1.38255E+00
 -1      3647 2.08346E+00
 -1      3648 9.27544E-01
 -1      3649 7.79186E-01
 -1      3650 1.38255E+00
 -1      3651 6.67687E-01
 -1      3652 5.90128E-01
 -1      3653 8.16046E-01
 -1      3654 5.02104E-01
 -1      3655 4.52784E-01
 -1      3656 6.16523E-01
 -1      3657 3.93043E-01
 -1      3658 3.47756E-01
 -1      3659 4.68759E-01
 -1      3660 2.97800E-01
 -1      3661 2.65570E-01
 -1      3662 3.59063E-01
 -1      3663 2.23930E-01
 -1      3664 2.00796E-01
 -1      3665 2.67466E-01
 -1      3666 1.72347E-01
 -1      3667 1.52700E-01
 -1      3668 1.97378E-01
 -1      3669 1.33498E-01
 -1      3670 1.17057E-01
 -1      3671 1.49728E-01
 -1      3672 1.03588E-01
 -1      3673 9.26984E-02
 -1      3674 1.17057E-01
 -1      3675 8.18093E-02
 -1      3676 7.31377E-02
 -1      3677 9.26984E-02
 -1      3678 6.35504E-02
 -1      3679 5.61954E-02
 -1      3680 7.22220E-02
 -1      3681 4.81829E-02
 -1      3682 4.18018E-02
 -1      3683 5.46223E-02
 -1      3684 3.53591E-02
 -1      3685 3.01155E-02
 -1      3686 4.01670E-02
 -1      3687 2.50993E-02
 -1      3688 2.10324E-02
 -1      3689 2.87081E-02
 -1      3690 1.72396E-02
 -1      3691 1.43060E-02
 -1      3692 1.98990E-02
 -1      3693 1.22780E-02
 -1      3694 1.00897E-02
 -1      3695 1.40782E-02
 -1      3696 6.00872E+00
 -1      3697 4.17079E+00
 -1      3698 1.65797E+00
 -1      3699 1.32602E+00
 -1      3700 2.91739E+00
 -1      3701 3.30905E+00
 -1      3702 1.39924E-01
 -1      3703 1.68067E-01
 -1      3704 1.84585E-01
 -1      3705 2.64619E-01
 -1      3706 3.14968E-01
 -1      3707 1.00202E-01
 -1      3708 1.20591E-01
 -1      3709 1.20437E-01
 -1      3710 7.10968E-02
 -1      3711 8.64921E-02
 -1      3712 8.73933E-02
 -1      3713 4.97388E-02
 -1      3714 6.05775E-02
 -1      3715 6.31636E-02
 -1      3716 3.43392E-02
 -1      3717 4.18173E-02
 -1      3718 4.47228E-02
 -1      3719 2.34129E-02
 -1      3720 2.86858E-02
 -1      3721 3.11478E-02
 -1      3722 1.57781E-02
 -1      3723 1.94935E-02
 -1      3724 2.15749E-02
 -1      3725 1.01136E-02
 -1      3726 1.27633E-02
 -1      3727 1.46407E-02
 -1      3728 7.24699E-03
 -1      3729 8.28810E-03
 -1      3730 9.80038E-03
 -1      3731 7.24699E-03
 -1      3732 3.37595E+00
 -1      3733 3.66363E+00
 -1      3734 4.20888E+00
 -1      3735 2.76227E+00
 -1      3736 4.16072E+00
 -1      3737 3.88444E+00
 -1      3738 2.21822E+00
 -1      3739 2.16804E+00
 -1      3740 2.84078E+00
 -1      3741 2.30745E+00
 -1      3742 2.21589E+00
 -1      3743 2.25632E+00
 -1      3744 1.89362E-01
 -1      3745 2.28076E-01
 -1      3746 2.18902E-01
 -1      3747 1.61064E-01
 -1      3748 1.03975E+00
 -1      3749 8.61584E-01
 -1      3750 1.20350E+00
 -1      3751 2.16655E+00
 -1      3752 2.12433E+00
 -1      3753 2.21589E+00
 -1      3754 2.35318E+00
 -1      3755 1.69313E+00
 -1      3756 4.29536E-01
 -1      3757 3.40064E-01
 -1      3758 3.28869E-01
 -1      3759 4.64468E-01
 -1      3760 2.30654E-01
 -1      3761 2.34899E-01
 -1      3762 1.79145E-01
 -1      3763 1.86425E-01
 -1      3764 5.36022E+00
 -1      3765 5.36022E+00
 -1      3766 6.62910E-03
 -1      3767 6.60219E-03
 -1      3768 7.70678E-03
 -1      3769 9.70256E-03
 -1      3770 2.49486E+00
 -1      3771 2.91739E+00
 -1      3772 2.40768E+00
 -1      3773 2.26601E+00
 -1      3774 7.26878E-01
 -1      3775 8.73372E-01
 -1      3776 2.67977E+00
 -1      3777 2.24390E+00
 -1      3778 2.07570E+00
 -1      3779 4.15264E+00
 -1      3780 4.83606E+00
 -1      3781 4.45318E+00
 -1      3782 9.52622E-03
 -1      3783 5.27912E+00
 -1      3784 4.83606E+00
 -1      3785 6.47589E+00
 -1      3786 1.39417E-01
 -1      3787 1.19579E-01
 -1      3788 1.53839E-01
 -1      3789 1.54205E-01
 -1      3790 2.16655E+00
 -1      3791 1.14867E-02
 -1      3792 5.38386E+00
 -1      3793 6.47589E+00
 -1      3794 7.29558E-01
 -1      3795 5.92668E-01
 -1      3796 7.85210E-01
 -1      3797 4.28988E+00
 -1      3798 1.20502E-02
 -1      3799 1.14867E-02
 -1      3800 1.14867E-02
 -1      3801 3.91631E+00
 -1      3802 7.01232E+00
 -1      3803 6.64727E+00
 -1      3804 3.04964E+00
 -1      3805 2.97661E+00
 -1      3806 3.23721E+00
 -1      3807 5.18469E-01
 -1      3808 6.11011E-01
 -1      3809 6.45220E-01
 -1      3810 1.02850E+00
 -1      3811 1.28476E+00
 -1      3812 9.16211E-01
 -1      3813 1.66905E+00
 -1      3814 1.57394E+00
 -1      3815 1.96048E+00
 -1      3816 1.36052E+00
 -1      3817 2.08461E-01
 -1      3818 2.06151E-01
 -1      3819 7.65088E+00
 -1      3820 6.64727E+00
 -1      3821 4.20877E+00
 -1      3822 9.70501E-03
 -1      3823 8.92994E-03
 -1      3824 2.45490E-01
 -1      3825 3.14328E-01
 -1      3826 3.73850E-01
 -1      3827 4.40398E-01
 -1      3828 1.58036E-01
 -1      3829 1.48263E-01
 -1      3830 1.06458E-02
 -1      3831 8.64759E-03
 -1      3832 8.64759E-03
 -1      3833 1.71178E-01
 -1      3834 1.71178E-01
 -1      3835 1.23243E-01
 -1      3836 5.60001E+00
 -1      3837 1.38253E-01
 -1      3838 1.58733E-01
 -1      3839 1.91129E-01
 -1      3840 2.13370E-01
 -1      3841 1.97665E-01
 -1      3842 2.54486E-01
 -1      3843 2.96408E-01
 -1      3844 2.71176E-01
 -1      3845 3.61185E-01
 -1      3846 4.15388E-01
 -1      3847 3.77070E-01
 -1      3848 5.12390E-01
 -1      3849 5.95883E-01
 -1      3850 5.38850E-01
 -1      3851 7.02902E-01
 -1      3852 8.01016E-01
 -1      3853 7.42871E-01
 -1      3854 9.80905E-01
 -1      3855 1.08721E+00
 -1      3856 1.02978E+00
 -1      3857 1.14298E+00
 -1      3858 1.32119E+00
 -1      3859 1.26543E+00
 -1      3860 2.73070E+00
 -1      3861 1.18767E+00
 -1      3862 1.07617E+00
 -1      3863 7.83845E-01
 -1      3864 6.95822E-01
 -1      3865 1.15547E+00
 -1      3866 5.64153E-01
 -1      3867 5.04412E-01
 -1      3868 7.31475E-01
 -1      3869 4.14311E-01
 -1      3870 3.64355E-01
 -1      3871 5.09704E-01
 -1      3872 3.02110E-01
 -1      3873 2.60470E-01
 -1      3874 3.57358E-01
 -1      3875 2.25445E-01
 -1      3876 1.96997E-01
 -1      3877 2.60089E-01
 -1      3878 1.68929E-01
 -1      3879 1.49728E-01
 -1      3880 1.96997E-01
 -1      3881 1.30526E-01
 -1      3882 1.17057E-01
 -1      3883 1.49728E-01
 -1      3884 1.01541E-01
 -1      3885 9.06517E-02
 -1      3886 1.15010E-01
 -1      3887 7.79472E-02
 -1      3888 6.83600E-02
 -1      3889 8.67897E-02
 -1      3890 5.83585E-02
 -1      3891 5.03460E-02
 -1      3892 6.40837E-02
 -1      3893 4.26593E-02
 -1      3894 3.62166E-02
 -1      3895 4.63956E-02
 -1      3896 3.04155E-02
 -1      3897 2.53993E-02
 -1      3898 3.29078E-02
 -1      3899 2.11488E-02
 -1      3900 1.73560E-02
 -1      3901 2.28562E-02
 -1      3902 1.44410E-02
 -1      3903 1.24130E-02
 -1      3904 1.24130E-02
 -1      3905 1.56908E-02
 -1      3906 3.68596E+00
 -1      3907 3.60485E+00
 -1      3908 5.45634E+00
 -1      3909 4.45273E+00
 -1      3910 2.96171E+00
 -1      3911 1.27214E+00
 -1      3912 9.85876E-01
 -1      3913 1.04965E-01
 -1      3914 1.24298E-01
 -1      3915 3.75153E-02
 -1      3916 4.54368E-02
 -1      3917 2.63480E-02
 -1      3918 3.20015E-02
 -1      3919 3.27155E-02
 -1      3920 2.05641E-02
 -1      3921 2.44835E-02
 -1      3922 2.53372E-02
 -1      3923 1.23733E-02
 -1      3924 1.53881E-02
 -1      3925 1.82967E-02
 -1      3926 2.12216E+00
 -1      3927 2.47674E+00
 -1      3928 3.60485E+00
 -1      3929 3.60485E+00
 -1      3930 3.19997E+00
 -1      3931 2.90750E+00
 -1      3932 5.37092E-02
 -1      3933 6.42285E-02
 -1      3934 4.65017E-02
 -1      3935 7.59517E-02
 -1      3936 8.96620E-02
 -1      3937 9.35232E-02
 -1      3938 6.64973E-02
 -1      3939 2.31604E+00
 -1      3940 2.62683E+00
 -1      3941 4.61077E+00
 -1      3942 1.09257E-02
 -1      3943 9.70501E-03
 -1      3944 1.09282E-02
 -1      3945 1.14892E-02
 -1      3946 3.28869E-01
 -1      3947 3.13406E-01
 -1      3948 3.91647E+00
 -1      3949 1.59330E-01
 -1      3950 1.40617E-01
 -1      3951 1.78779E-01
 -1      3952 1.78779E-01
 -1      3953 2.70226E+00
 -1      3954 4.96927E+00
 -1      3955 2.77473E+00
 -1      3956 7.65088E+00
 -1      3957 7.81892E-03
 -1      3958 7.61262E-03
 -1      3959 8.34050E-03
 -1      3960 9.53481E-03
 -1      3961 1.47499E-01
 -1      3962 1.17551E-01
 -1      3963 1.44567E-01
 -1      3964 1.81073E+00
 -1      3965 2.01436E+00
 -1      3966 5.63721E-01
 -1      3967 5.03204E-01
 -1      3968 4.35521E-01
 -1      3969 1.79030E-02
 -1      3970 1.76207E-02
 -1      3971 1.49406E+00
 -1      3972 1.44035E+00
 -1      3973 3.96785E-01
 -1      3974 4.51282E-01
 -1      3975 1.55935E+00
 -1      3976 3.00094E+00
 -1      3977 8.25215E-01
 -1      3978 6.93189E-01
 -1      3979 8.93855E-01
 -1      3980 5.36612E-01
 -1      3981 6.52479E-01
 -1      3982 8.06022E-01
 -1      3983 9.61147E-01
 -1      3984 6.97414E-01
 -1      3985 1.17379E+00
 -1      3986 1.46297E+00
 -1      3987 1.06360E+00
 -1      3988 1.81948E+00
 -1      3989 1.30102E-01
 -1      3990 1.45574E-01
 -1      3991 1.66868E-01
 -1      3992 2.06214E+00
 -1      3993 1.86444E+00
 -1      3994 1.57891E+00
 -1      3995 1.01660E-02
 -1      3996 1.71133E-01
 -1      3997 1.47499E-01
 -1      3998 2.38146E+00
 -1      3999 2.98538E+00
 -1      4000 1.97657E+00
 -1      4001 1.95620E-01
 -1      4002 2.32163E-01
 -1      4003 1.80129E-01
 -1      4004 1.83205E-01
 -1      4005 3.67668E+00
 -1      4006 2.70810E-01
 -1      4007 3.29693E-01
 -1      4008 2.47527E-01
 -1      4009 1.63575E-02
 -1      4010 1.63575E-02
 -1      4011 2.33323E-02
 -1      4012 1.61485E-01
 -1      4013 2.17351E+00
 -1      4014 1.58758E+00
 -1      4015 1.36995E+00
 -1      4016 2.47360E+00
 -1      4017 1.29477E-01
 -1      4018 1.59993E-01
 -1      4019 1.36358E-01
 -1      4020 3.40468E-01
 -1      4021 2.57089E-01
 -1      4022 2.10268E-01
 -1      4023 1.91689E+00
 -1      4024 2.58324E+00
 -1      4025 1.81235E-01
 -1      4026 1.68093E-01
 -1      4027 1.87469E-01
 -1      4028 2.55118E-01
 -1      4029 1.49406E+00
 -1      4030 1.09134E-02
 -1      4031 1.73016E+00
 -1      4032 2.03731E+00
 -1      4033 1.17421E-02
 -1      4034 2.73123E-01
 -1      4035 3.14239E-01
 -1      4036 5.10718E-01
 -1      4037 5.75496E-01
 -1      4038 5.12666E-01
 -1      4039 6.60165E-01
 -1      4040 7.57168E-01
 -1      4041 7.93814E-01
 -1      4042 7.97946E-01
 -1      4043 9.04965E-01
 -1      4044 9.19262E-01
 -1      4045 1.10950E+00
 -1      4046 1.28939E+00
 -1      4047 1.16458E+00
 -1      4048 1.52315E+00
 -1      4049 1.45162E+00
 -1      4050 1.15929E+00
 -1      4051 4.35521E-01
 -1      4052 1.02792E+00
 -1      4053 8.96254E-01
 -1      4054 1.32407E+00
 -1      4055 7.32543E-01
 -1      4056 6.42441E-01
 -1      4057 1.02899E+00
 -1      4058 5.26754E-01
 -1      4059 4.64509E-01
 -1      4060 7.49592E-01
 -1      4061 3.65723E-01
 -1      4062 3.30698E-01
 -1      4063 5.35119E-01
 -1      4064 2.25064E-01
 -1      4065 1.96997E-01
 -1      4066 3.30698E-01
 -1      4067 1.92302E-01
 -1      4068 1.73101E-01
 -1      4069 2.20370E-01
 -1      4070 1.41947E-01
 -1      4071 1.26431E-01
 -1      4072 1.84522E-01
 -1      4073 1.05178E-01
 -1      4074 9.24733E-02
 -1      4075 1.32115E-01
 -1      4076 7.65963E-02
 -1      4077 6.65948E-02
 -1      4078 9.49844E-02
 -1      4079 5.50262E-02
 -1      4080 4.73395E-02
 -1      4081 6.75387E-02
 -1      4082 3.88603E-02
 -1      4083 3.30592E-02
 -1      4084 4.74909E-02
 -1      4085 2.67669E-02
 -1      4086 2.25164E-02
 -1      4087 3.27194E-02
 -1      4088 2.41753E-02
 -1      4089 2.60398E-02
 -1      4090 1.57061E-01
 -1      4091 3.07969E-02
 -1      4092 3.63107E-02
 -1      4093 2.96350E-02
 -1      4094 1.36584E+00
 -1      4095 1.81977E+00
 -1      4096 1.78779E-01
 -1      4097 1.60287E+00
 -1      4098 1.82839E+00
 -1      4099 2.99166E+00
 -1      4100 3.78662E-01
 -1      4101 4.56733E-01
 -1      4102 4.63993E-01
 -1      4103 3.35144E-01
 -1      4104 1.12688E-02
 -1      4105 1.07078E-02
 -1      4106 1.61371E-02
 -1      4107 1.16316E-02
 -1      4108 1.83551E+00
 -1      4109 2.32258E+00
 -1      4110 1.53438E+00
 -1      4111 1.37624E+00
 -1      4112 4.32823E-02
 -1      4113 5.15547E-02
 -1      4114 4.13637E-02
 -1      4115 1.89993E-02
 -1      4116 1.97665E-01
 -1      4117 2.30060E-01
 -1      4118 2.73123E-01
 -1      4119 1.89456E-01
 -1      4120 2.41753E-02
 -1      4121 2.48778E-02
 -1      4122 1.60489E+00
 -1      4123 1.60871E+00
 -1      4124 4.33755E-01
 -1      4125 3.95019E-01
 -1      4126 3.38701E-01
 -1      4127 5.09010E-01
 -1      4128 5.88888E-01
 -1      4129 6.69518E-01
 -1      4130 5.80054E-01
 -1      4131 5.39552E-01
 -1      4132 7.09522E-01
 -1      4133 5.73555E-02
 -1      4134 6.05750E-02
 -1      4135 7.22981E-02
 -1      4136 7.04575E-01
 -1      4137 8.58118E-01
 -1      4138 7.49592E-01
 -1      4139 9.66500E-01
 -1      4140 8.05838E-01
 -1      4141 1.99984E-02
 -1      4142 1.70834E-02
 -1      4143 1.59392E-02
 -1      4144 2.39091E-02
 -1      4145 1.02183E+00
 -1      4146 1.23447E+00
 -1      4147 1.32407E+00
 -1      4148 1.02899E+00
 -1      4149 1.24650E-01
 -1      4150 1.45926E-01
 -1      4151 2.22819E+00
 -1      4152 1.60871E+00
 -1      4153 8.68112E-02
 -1      4154 1.02114E-01
 -1      4155 1.17938E-01
 -1      4156 8.08889E-02
 -1      4157 2.03731E+00
 -1      4158 2.28073E-01
 -1      4159 1.76314E-01
 -1      4160 2.05065E-01
 -1      4161 1.70862E-01
 -1      4162 2.12278E-01
 -1      4163 2.50925E-01
 -1      4164 2.08463E-01
 -1      4165 2.56525E-02
 -1      4166 2.56525E-02
 -1      4167 1.36995E+00
 -1      4168 1.05452E+00
 -1      4169 9.66500E-01
 -1      4170 1.21894E+00
 -1      4171 5.12666E-01
 -1      4172 7.09145E-01
 -1      4173 7.93814E-01
 -1      4174 8.78483E-01
 -1      4175 9.66500E-01
 -1      4176 1.00728E+00
 -1      4177 1.17170E+00
 -1      4178 1.32407E+00
 -1      4179 1.19270E+00
 -1      4180 2.59251E+00
 -1      4181 1.02899E+00
 -1      4182 8.65279E-01
 -1      4183 7.49592E-01
 -1      4184 6.33905E-01
 -1      4185 5.35119E-01
 -1      4186 3.26004E-01
 -1      4187 2.20370E-01
 -1      4188 2.15675E-01
 -1      4189 2.08463E-01
 -1      4190 1.77309E-01
 -1      4191 1.46921E-01
 -1      4192 1.25668E-01
 -1      4193 1.03132E-01
 -1      4194 8.72546E-02
 -1      4195 7.27416E-02
 -1      4196 6.11730E-02
 -1      4197 5.21527E-02
 -1      4198 4.36734E-02
 -1      4199 3.67019E-02
 -1      4200 3.04096E-02
 -1      4201 1.45545E+00
 -1      4202 2.59251E+00
 -1      4203 3.61253E-01
 -1      4204 4.10223E-01
 -1      4205 5.35119E-01
 -1      4206 3.26004E-01
 -1      4207 2.89871E-01
 -1      4208 2.60839E-01
 -1      4209 3.44422E-01
 -1      4210 7.93814E-01
 -1      4211 7.21169E-01
 -1      4212 2.62826E-01
 -1      4213 3.05889E-01
 -1      4214 6.97498E-01
 -1      4215 5.02368E-01
 -1      4216 4.36333E-01
 -1      4217 2.15889E-02
 -1      4218 5.51198E-01
 -1      4219 2.41069E-02
 -3
 9999
