    1C
    1UUSER                                                              
    1UDATE              26.october.2022                                 
    1UTIME              23:51:40                                        
    1UHOST                                                              
    1UPGM               CalculiX                                        
    1UVERSION           Version 2.17                             
    1UCOMPILETIME       Thu Jul 23 21:43:50 CEST 2020                    
    1UDIR                                                               
    1UDBN                                                               
    1UMAT    1SOLIDMATERIAL                                             
    2C                          4328                                     1
 -1         1 2.79391E+01 2.82748E+01 0.00000E+00
 -1         2 3.49167E+01 2.12749E+01 0.00000E+00
 -1         3 1.50000E+02 0.00000E+00 0.00000E+00
 -1         4 1.50000E+02 5.00000E+01 0.00000E+00
 -1         5 0.00000E+00 0.00000E+00 0.00000E+00
 -1         6 0.00000E+00 5.00000E+01 0.00000E+00
 -1         7 0.00000E+00 4.70500E+01 0.00000E+00
 -1         8 0.00000E+00 4.41000E+01 0.00000E+00
 -1         9 0.00000E+00 4.11500E+01 0.00000E+00
 -1        10 0.00000E+00 3.82000E+01 0.00000E+00
 -1        11 0.00000E+00 3.52500E+01 0.00000E+00
 -1        12 0.00000E+00 3.23500E+01 0.00000E+00
 -1        13 0.00000E+00 2.94000E+01 0.00000E+00
 -1        14 0.00000E+00 2.64500E+01 0.00000E+00
 -1        15 0.00000E+00 2.35000E+01 0.00000E+00
 -1        16 0.00000E+00 2.05500E+01 0.00000E+00
 -1        17 0.00000E+00 1.76000E+01 0.00000E+00
 -1        18 0.00000E+00 1.47000E+01 0.00000E+00
 -1        19 0.00000E+00 1.17500E+01 0.00000E+00
 -1        20 0.00000E+00 8.80000E+00 0.00000E+00
 -1        21 0.00000E+00 5.85000E+00 0.00000E+00
 -1        22 0.00000E+00 2.90000E+00 0.00000E+00
 -1        23 3.15000E+00 5.00000E+01 0.00000E+00
 -1        24 6.15000E+00 5.00000E+01 0.00000E+00
 -1        25 9.15000E+00 5.00000E+01 0.00000E+00
 -1        26 1.21500E+01 5.00000E+01 0.00000E+00
 -1        27 1.51500E+01 5.00000E+01 0.00000E+00
 -1        28 1.81500E+01 5.00000E+01 0.00000E+00
 -1        29 2.11500E+01 5.00000E+01 0.00000E+00
 -1        30 2.41500E+01 5.00000E+01 0.00000E+00
 -1        31 2.71500E+01 5.00000E+01 0.00000E+00
 -1        32 3.01500E+01 5.00000E+01 0.00000E+00
 -1        33 3.31500E+01 5.00000E+01 0.00000E+00
 -1        34 3.61500E+01 5.00000E+01 0.00000E+00
 -1        35 3.91500E+01 5.00000E+01 0.00000E+00
 -1        36 4.21500E+01 5.00000E+01 0.00000E+00
 -1        37 4.51500E+01 5.00000E+01 0.00000E+00
 -1        38 4.81500E+01 5.00000E+01 0.00000E+00
 -1        39 5.11500E+01 5.00000E+01 0.00000E+00
 -1        40 5.41500E+01 5.00000E+01 0.00000E+00
 -1        41 5.71500E+01 5.00000E+01 0.00000E+00
 -1        42 6.01500E+01 5.00000E+01 0.00000E+00
 -1        43 6.31500E+01 5.00000E+01 0.00000E+00
 -1        44 6.61500E+01 5.00000E+01 0.00000E+00
 -1        45 6.91500E+01 5.00000E+01 0.00000E+00
 -1        46 7.21500E+01 5.00000E+01 0.00000E+00
 -1        47 7.51500E+01 5.00000E+01 0.00000E+00
 -1        48 7.81500E+01 5.00000E+01 0.00000E+00
 -1        49 8.11500E+01 5.00000E+01 0.00000E+00
 -1        50 8.41500E+01 5.00000E+01 0.00000E+00
 -1        51 8.71500E+01 5.00000E+01 0.00000E+00
 -1        52 9.01500E+01 5.00000E+01 0.00000E+00
 -1        53 9.31500E+01 5.00000E+01 0.00000E+00
 -1        54 9.61500E+01 5.00000E+01 0.00000E+00
 -1        55 9.91500E+01 5.00000E+01 0.00000E+00
 -1        56 1.02150E+02 5.00000E+01 0.00000E+00
 -1        57 1.05150E+02 5.00000E+01 0.00000E+00
 -1        58 1.08150E+02 5.00000E+01 0.00000E+00
 -1        59 1.11150E+02 5.00000E+01 0.00000E+00
 -1        60 1.14150E+02 5.00000E+01 0.00000E+00
 -1        61 1.17150E+02 5.00000E+01 0.00000E+00
 -1        62 1.20150E+02 5.00000E+01 0.00000E+00
 -1        63 1.23150E+02 5.00000E+01 0.00000E+00
 -1        64 1.26150E+02 5.00000E+01 0.00000E+00
 -1        65 1.29150E+02 5.00000E+01 0.00000E+00
 -1        66 1.32150E+02 5.00000E+01 0.00000E+00
 -1        67 1.35150E+02 5.00000E+01 0.00000E+00
 -1        68 1.38150E+02 5.00000E+01 0.00000E+00
 -1        69 1.41150E+02 5.00000E+01 0.00000E+00
 -1        70 1.44150E+02 5.00000E+01 0.00000E+00
 -1        71 1.47150E+02 5.00000E+01 0.00000E+00
 -1        72 3.15000E+00 0.00000E+00 0.00000E+00
 -1        73 6.15000E+00 0.00000E+00 0.00000E+00
 -1        74 9.15000E+00 0.00000E+00 0.00000E+00
 -1        75 1.21500E+01 0.00000E+00 0.00000E+00
 -1        76 1.51500E+01 0.00000E+00 0.00000E+00
 -1        77 1.81500E+01 0.00000E+00 0.00000E+00
 -1        78 2.11500E+01 0.00000E+00 0.00000E+00
 -1        79 2.41500E+01 0.00000E+00 0.00000E+00
 -1        80 2.71500E+01 0.00000E+00 0.00000E+00
 -1        81 3.01500E+01 0.00000E+00 0.00000E+00
 -1        82 3.31500E+01 0.00000E+00 0.00000E+00
 -1        83 3.61500E+01 0.00000E+00 0.00000E+00
 -1        84 3.91500E+01 0.00000E+00 0.00000E+00
 -1        85 4.21500E+01 0.00000E+00 0.00000E+00
 -1        86 4.51500E+01 0.00000E+00 0.00000E+00
 -1        87 4.81500E+01 0.00000E+00 0.00000E+00
 -1        88 5.11500E+01 0.00000E+00 0.00000E+00
 -1        89 5.41500E+01 0.00000E+00 0.00000E+00
 -1        90 5.71500E+01 0.00000E+00 0.00000E+00
 -1        91 6.01500E+01 0.00000E+00 0.00000E+00
 -1        92 6.31500E+01 0.00000E+00 0.00000E+00
 -1        93 6.61500E+01 0.00000E+00 0.00000E+00
 -1        94 6.91500E+01 0.00000E+00 0.00000E+00
 -1        95 7.21500E+01 0.00000E+00 0.00000E+00
 -1        96 7.51500E+01 0.00000E+00 0.00000E+00
 -1        97 7.81500E+01 0.00000E+00 0.00000E+00
 -1        98 8.11500E+01 0.00000E+00 0.00000E+00
 -1        99 8.41500E+01 0.00000E+00 0.00000E+00
 -1       100 8.71500E+01 0.00000E+00 0.00000E+00
 -1       101 9.01500E+01 0.00000E+00 0.00000E+00
 -1       102 9.31500E+01 0.00000E+00 0.00000E+00
 -1       103 9.61500E+01 0.00000E+00 0.00000E+00
 -1       104 9.91500E+01 0.00000E+00 0.00000E+00
 -1       105 1.02150E+02 0.00000E+00 0.00000E+00
 -1       106 1.05150E+02 0.00000E+00 0.00000E+00
 -1       107 1.08150E+02 0.00000E+00 0.00000E+00
 -1       108 1.11150E+02 0.00000E+00 0.00000E+00
 -1       109 1.14150E+02 0.00000E+00 0.00000E+00
 -1       110 1.17150E+02 0.00000E+00 0.00000E+00
 -1       111 1.20150E+02 0.00000E+00 0.00000E+00
 -1       112 1.23150E+02 0.00000E+00 0.00000E+00
 -1       113 1.26150E+02 0.00000E+00 0.00000E+00
 -1       114 1.29150E+02 0.00000E+00 0.00000E+00
 -1       115 1.32150E+02 0.00000E+00 0.00000E+00
 -1       116 1.35150E+02 0.00000E+00 0.00000E+00
 -1       117 1.38150E+02 0.00000E+00 0.00000E+00
 -1       118 1.41150E+02 0.00000E+00 0.00000E+00
 -1       119 1.44150E+02 0.00000E+00 0.00000E+00
 -1       120 1.47150E+02 0.00000E+00 0.00000E+00
 -1       121 1.50000E+02 2.95000E+00 0.00000E+00
 -1       122 1.50000E+02 5.90000E+00 0.00000E+00
 -1       123 1.50000E+02 8.85000E+00 0.00000E+00
 -1       124 1.50000E+02 1.18000E+01 0.00000E+00
 -1       125 1.50000E+02 1.47500E+01 0.00000E+00
 -1       126 1.50000E+02 1.76500E+01 0.00000E+00
 -1       127 1.50000E+02 2.06000E+01 0.00000E+00
 -1       128 1.50000E+02 2.35500E+01 0.00000E+00
 -1       129 1.50000E+02 2.65000E+01 0.00000E+00
 -1       130 1.50000E+02 2.94500E+01 0.00000E+00
 -1       131 1.50000E+02 3.24000E+01 0.00000E+00
 -1       132 1.50000E+02 3.53000E+01 0.00000E+00
 -1       133 1.50000E+02 3.82500E+01 0.00000E+00
 -1       134 1.50000E+02 4.12000E+01 0.00000E+00
 -1       135 1.50000E+02 4.41500E+01 0.00000E+00
 -1       136 1.50000E+02 4.71000E+01 0.00000E+00
 -1       137 3.47661E+01 1.98307E+01 0.00000E+00
 -1       138 3.43437E+01 1.85012E+01 0.00000E+00
 -1       139 3.35792E+01 1.71595E+01 0.00000E+00
 -1       140 3.26121E+01 1.60832E+01 0.00000E+00
 -1       141 3.13191E+01 1.51574E+01 0.00000E+00
 -1       142 3.00222E+01 1.45990E+01 0.00000E+00
 -1       143 2.85248E+01 1.43013E+01 0.00000E+00
 -1       144 2.71285E+01 1.43194E+01 0.00000E+00
 -1       145 2.57183E+01 1.46291E+01 0.00000E+00
 -1       146 2.43724E+01 1.52385E+01 0.00000E+00
 -1       147 2.31831E+01 1.61181E+01 0.00000E+00
 -1       148 2.21897E+01 1.72499E+01 0.00000E+00
 -1       149 2.14373E+01 1.86258E+01 0.00000E+00
 -1       150 2.10112E+01 2.01289E+01 0.00000E+00
 -1       151 2.09245E+01 2.16043E+01 0.00000E+00
 -1       152 2.11665E+01 2.31280E+01 0.00000E+00
 -1       153 2.16881E+01 2.44692E+01 0.00000E+00
 -1       154 2.25990E+01 2.58270E+01 0.00000E+00
 -1       155 2.36799E+01 2.68470E+01 0.00000E+00
 -1       156 2.50260E+01 2.76501E+01 0.00000E+00
 -1       157 2.64385E+01 2.81170E+01 0.00000E+00
 -1       158 2.92801E+01 2.81408E+01 0.00000E+00
 -1       159 3.05645E+01 2.77548E+01 0.00000E+00
 -1       160 3.17397E+01 2.71387E+01 0.00000E+00
 -1       161 3.28529E+01 2.62382E+01 0.00000E+00
 -1       162 3.37094E+01 2.52049E+01 0.00000E+00
 -1       163 3.43615E+01 2.40070E+01 0.00000E+00
 -1       164 3.47839E+01 2.26320E+01 0.00000E+00
 -1       165 2.59800E+00 4.55750E+01 0.00000E+00
 -1       166 2.59800E+00 4.26250E+01 0.00000E+00
 -1       167 2.59800E+00 3.96750E+01 0.00000E+00
 -1       168 2.59800E+00 3.67250E+01 0.00000E+00
 -1       169 2.59800E+00 3.38250E+01 0.00000E+00
 -1       170 2.59800E+00 3.08750E+01 0.00000E+00
 -1       171 2.59800E+00 2.79250E+01 0.00000E+00
 -1       172 2.59800E+00 2.49750E+01 0.00000E+00
 -1       173 2.59800E+00 2.20250E+01 0.00000E+00
 -1       174 2.59800E+00 1.90750E+01 0.00000E+00
 -1       175 2.59800E+00 1.61750E+01 0.00000E+00
 -1       176 2.59800E+00 1.32250E+01 0.00000E+00
 -1       177 2.59800E+00 1.02750E+01 0.00000E+00
 -1       178 2.59800E+00 7.32500E+00 0.00000E+00
 -1       179 2.59800E+00 4.37500E+00 0.00000E+00
 -1       180 2.87400E+00 2.18750E+00 0.00000E+00
 -1       181 4.65000E+00 4.74020E+01 0.00000E+00
 -1       182 7.65000E+00 4.74020E+01 0.00000E+00
 -1       183 1.06500E+01 4.74020E+01 0.00000E+00
 -1       184 1.36500E+01 4.74020E+01 0.00000E+00
 -1       185 1.66500E+01 4.74020E+01 0.00000E+00
 -1       186 1.96500E+01 4.74020E+01 0.00000E+00
 -1       187 2.26500E+01 4.74020E+01 0.00000E+00
 -1       188 2.56500E+01 4.74020E+01 0.00000E+00
 -1       189 2.86500E+01 4.74020E+01 0.00000E+00
 -1       190 3.16500E+01 4.74020E+01 0.00000E+00
 -1       191 3.46500E+01 4.74020E+01 0.00000E+00
 -1       192 3.76500E+01 4.74020E+01 0.00000E+00
 -1       193 4.06500E+01 4.74020E+01 0.00000E+00
 -1       194 4.36500E+01 4.74020E+01 0.00000E+00
 -1       195 4.66500E+01 4.74020E+01 0.00000E+00
 -1       196 4.96500E+01 4.74020E+01 0.00000E+00
 -1       197 5.26500E+01 4.74020E+01 0.00000E+00
 -1       198 5.56500E+01 4.74020E+01 0.00000E+00
 -1       199 5.86500E+01 4.74020E+01 0.00000E+00
 -1       200 6.16500E+01 4.74020E+01 0.00000E+00
 -1       201 6.46500E+01 4.74020E+01 0.00000E+00
 -1       202 6.76500E+01 4.74020E+01 0.00000E+00
 -1       203 7.06500E+01 4.74020E+01 0.00000E+00
 -1       204 7.36500E+01 4.74020E+01 0.00000E+00
 -1       205 7.66500E+01 4.74020E+01 0.00000E+00
 -1       206 7.96500E+01 4.74020E+01 0.00000E+00
 -1       207 8.26500E+01 4.74020E+01 0.00000E+00
 -1       208 8.56500E+01 4.74020E+01 0.00000E+00
 -1       209 8.86500E+01 4.74020E+01 0.00000E+00
 -1       210 9.16500E+01 4.74020E+01 0.00000E+00
 -1       211 9.46500E+01 4.74020E+01 0.00000E+00
 -1       212 9.76500E+01 4.74020E+01 0.00000E+00
 -1       213 1.00650E+02 4.74020E+01 0.00000E+00
 -1       214 1.03650E+02 4.74020E+01 0.00000E+00
 -1       215 1.06650E+02 4.74020E+01 0.00000E+00
 -1       216 1.09650E+02 4.74020E+01 0.00000E+00
 -1       217 1.12650E+02 4.74020E+01 0.00000E+00
 -1       218 1.15650E+02 4.74020E+01 0.00000E+00
 -1       219 1.18650E+02 4.74020E+01 0.00000E+00
 -1       220 1.21650E+02 4.74020E+01 0.00000E+00
 -1       221 1.24650E+02 4.74020E+01 0.00000E+00
 -1       222 1.27650E+02 4.74020E+01 0.00000E+00
 -1       223 1.30650E+02 4.74020E+01 0.00000E+00
 -1       224 1.33650E+02 4.74020E+01 0.00000E+00
 -1       225 1.36650E+02 4.74020E+01 0.00000E+00
 -1       226 1.39650E+02 4.74020E+01 0.00000E+00
 -1       227 1.42650E+02 4.74020E+01 0.00000E+00
 -1       228 1.45650E+02 4.74020E+01 0.00000E+00
 -1       229 5.87400E+00 2.18750E+00 0.00000E+00
 -1       230 8.87400E+00 2.18750E+00 0.00000E+00
 -1       231 1.18740E+01 2.18750E+00 0.00000E+00
 -1       232 1.48740E+01 2.18750E+00 0.00000E+00
 -1       233 1.78740E+01 2.18750E+00 0.00000E+00
 -1       234 2.08740E+01 2.18750E+00 0.00000E+00
 -1       235 2.38740E+01 2.18750E+00 0.00000E+00
 -1       236 2.68740E+01 2.18750E+00 0.00000E+00
 -1       237 2.98740E+01 2.18750E+00 0.00000E+00
 -1       238 3.28740E+01 2.18750E+00 0.00000E+00
 -1       239 3.58740E+01 2.18750E+00 0.00000E+00
 -1       240 3.88740E+01 2.18750E+00 0.00000E+00
 -1       241 4.18740E+01 2.18750E+00 0.00000E+00
 -1       242 4.48740E+01 2.18750E+00 0.00000E+00
 -1       243 4.78740E+01 2.18750E+00 0.00000E+00
 -1       244 5.08740E+01 2.18750E+00 0.00000E+00
 -1       245 5.38740E+01 2.18750E+00 0.00000E+00
 -1       246 5.68740E+01 2.18750E+00 0.00000E+00
 -1       247 5.98740E+01 2.18750E+00 0.00000E+00
 -1       248 6.28740E+01 2.18750E+00 0.00000E+00
 -1       249 6.58740E+01 2.18750E+00 0.00000E+00
 -1       250 6.88740E+01 2.18750E+00 0.00000E+00
 -1       251 7.18740E+01 2.18750E+00 0.00000E+00
 -1       252 7.48740E+01 2.18750E+00 0.00000E+00
 -1       253 7.78740E+01 2.18750E+00 0.00000E+00
 -1       254 8.08740E+01 2.18750E+00 0.00000E+00
 -1       255 8.38740E+01 2.18750E+00 0.00000E+00
 -1       256 8.68740E+01 2.18750E+00 0.00000E+00
 -1       257 8.98740E+01 2.18750E+00 0.00000E+00
 -1       258 9.28740E+01 2.18750E+00 0.00000E+00
 -1       259 9.58740E+01 2.18750E+00 0.00000E+00
 -1       260 9.88740E+01 2.18750E+00 0.00000E+00
 -1       261 1.01874E+02 2.18750E+00 0.00000E+00
 -1       262 1.04874E+02 2.18750E+00 0.00000E+00
 -1       263 1.07874E+02 2.18750E+00 0.00000E+00
 -1       264 1.10874E+02 2.18750E+00 0.00000E+00
 -1       265 1.13874E+02 2.18750E+00 0.00000E+00
 -1       266 1.16874E+02 2.18750E+00 0.00000E+00
 -1       267 1.19874E+02 2.18750E+00 0.00000E+00
 -1       268 1.22874E+02 2.18750E+00 0.00000E+00
 -1       269 1.25874E+02 2.18750E+00 0.00000E+00
 -1       270 1.28874E+02 2.18750E+00 0.00000E+00
 -1       271 1.31874E+02 2.18750E+00 0.00000E+00
 -1       272 1.34874E+02 2.18750E+00 0.00000E+00
 -1       273 1.37874E+02 2.18750E+00 0.00000E+00
 -1       274 1.40874E+02 2.18750E+00 0.00000E+00
 -1       275 1.43874E+02 2.18750E+00 0.00000E+00
 -1       276 1.46874E+02 2.18750E+00 0.00000E+00
 -1       277 1.47402E+02 4.42500E+00 0.00000E+00
 -1       278 1.47402E+02 7.37500E+00 0.00000E+00
 -1       279 1.47402E+02 1.03250E+01 0.00000E+00
 -1       280 1.47402E+02 1.32750E+01 0.00000E+00
 -1       281 1.47402E+02 1.61750E+01 0.00000E+00
 -1       282 1.47402E+02 1.91250E+01 0.00000E+00
 -1       283 1.47402E+02 2.20750E+01 0.00000E+00
 -1       284 1.47402E+02 2.50250E+01 0.00000E+00
 -1       285 1.47402E+02 2.79750E+01 0.00000E+00
 -1       286 1.47402E+02 3.09250E+01 0.00000E+00
 -1       287 1.47402E+02 3.38250E+01 0.00000E+00
 -1       288 1.47402E+02 3.67750E+01 0.00000E+00
 -1       289 1.47402E+02 3.97250E+01 0.00000E+00
 -1       290 1.47402E+02 4.26750E+01 0.00000E+00
 -1       291 1.46526E+02 4.50385E+01 0.00000E+00
 -1       292 3.61306E+01 2.04183E+01 0.00000E+00
 -1       293 3.57104E+01 1.87988E+01 0.00000E+00
 -1       294 3.50877E+01 1.71886E+01 0.00000E+00
 -1       295 3.39975E+01 1.58110E+01 0.00000E+00
 -1       296 3.29153E+01 1.42939E+01 0.00000E+00
 -1       297 3.11501E+01 1.37646E+01 0.00000E+00
 -1       298 2.95426E+01 1.30967E+01 0.00000E+00
 -1       299 2.78110E+01 1.30981E+01 0.00000E+00
 -1       300 2.61454E+01 1.32082E+01 0.00000E+00
 -1       301 2.45106E+01 1.37530E+01 0.00000E+00
 -1       302 2.30568E+01 1.47035E+01 0.00000E+00
 -1       303 2.17752E+01 1.58842E+01 0.00000E+00
 -1       304 2.06027E+01 1.72758E+01 0.00000E+00
 -1       305 2.00578E+01 1.90466E+01 0.00000E+00
 -1       306 1.96739E+01 2.07906E+01 0.00000E+00
 -1       307 1.97654E+01 2.25695E+01 0.00000E+00
 -1       308 2.02973E+01 2.42381E+01 0.00000E+00
 -1       309 2.09280E+01 2.59636E+01 0.00000E+00
 -1       310 2.23073E+01 2.72187E+01 0.00000E+00
 -1       311 2.36030E+01 2.85056E+01 0.00000E+00
 -1       312 2.53517E+01 2.90347E+01 0.00000E+00
 -1       313 2.70444E+01 2.95683E+01 0.00000E+00
 -1       314 2.87302E+01 2.94142E+01 0.00000E+00
 -1       315 3.02713E+01 2.91089E+01 0.00000E+00
 -1       316 3.17150E+01 2.85206E+01 0.00000E+00
 -1       317 3.31642E+01 2.77613E+01 0.00000E+00
 -1       318 3.42145E+01 2.64953E+01 0.00000E+00
 -1       319 3.51003E+01 2.51857E+01 0.00000E+00
 -1       320 3.58118E+01 2.37001E+01 0.00000E+00
 -1       321 3.60570E+01 2.20715E+01 0.00000E+00
 -1       322 5.19600E+00 4.11500E+01 0.00000E+00
 -1       323 5.19600E+00 4.41000E+01 0.00000E+00
 -1       324 5.19600E+00 3.52750E+01 0.00000E+00
 -1       325 5.19600E+00 3.23250E+01 0.00000E+00
 -1       326 5.19600E+00 2.93750E+01 0.00000E+00
 -1       327 5.19600E+00 2.64250E+01 0.00000E+00
 -1       328 5.19600E+00 2.34750E+01 0.00000E+00
 -1       329 5.19600E+00 2.05250E+01 0.00000E+00
 -1       330 5.19600E+00 1.76250E+01 0.00000E+00
 -1       331 5.19600E+00 1.46750E+01 0.00000E+00
 -1       332 5.19600E+00 1.17250E+01 0.00000E+00
 -1       333 5.19600E+00 8.77500E+00 0.00000E+00
 -1       334 5.19600E+00 5.82500E+00 0.00000E+00
 -1       335 5.53500E+00 4.00625E+00 0.00000E+00
 -1       336 8.53500E+00 4.00625E+00 0.00000E+00
 -1       337 9.15000E+00 4.48040E+01 0.00000E+00
 -1       338 1.21500E+01 4.48040E+01 0.00000E+00
 -1       339 1.51500E+01 4.48040E+01 0.00000E+00
 -1       340 1.81500E+01 4.48040E+01 0.00000E+00
 -1       341 2.11500E+01 4.48040E+01 0.00000E+00
 -1       342 2.41500E+01 4.48040E+01 0.00000E+00
 -1       343 2.71500E+01 4.48040E+01 0.00000E+00
 -1       344 3.01500E+01 4.48040E+01 0.00000E+00
 -1       345 3.31500E+01 4.48040E+01 0.00000E+00
 -1       346 3.61500E+01 4.48040E+01 0.00000E+00
 -1       347 3.91500E+01 4.48040E+01 0.00000E+00
 -1       348 4.21500E+01 4.48040E+01 0.00000E+00
 -1       349 4.51500E+01 4.48040E+01 0.00000E+00
 -1       350 4.81500E+01 4.48040E+01 0.00000E+00
 -1       351 5.11500E+01 4.48040E+01 0.00000E+00
 -1       352 5.41500E+01 4.48040E+01 0.00000E+00
 -1       353 5.71500E+01 4.48040E+01 0.00000E+00
 -1       354 6.01500E+01 4.48040E+01 0.00000E+00
 -1       355 6.31500E+01 4.48040E+01 0.00000E+00
 -1       356 6.61500E+01 4.48040E+01 0.00000E+00
 -1       357 6.91500E+01 4.48040E+01 0.00000E+00
 -1       358 7.21500E+01 4.48040E+01 0.00000E+00
 -1       359 7.51500E+01 4.48040E+01 0.00000E+00
 -1       360 7.81500E+01 4.48040E+01 0.00000E+00
 -1       361 8.11500E+01 4.48040E+01 0.00000E+00
 -1       362 8.41500E+01 4.48040E+01 0.00000E+00
 -1       363 8.71500E+01 4.48040E+01 0.00000E+00
 -1       364 9.01500E+01 4.48040E+01 0.00000E+00
 -1       365 9.31500E+01 4.48040E+01 0.00000E+00
 -1       366 9.61500E+01 4.48040E+01 0.00000E+00
 -1       367 9.91500E+01 4.48040E+01 0.00000E+00
 -1       368 1.02150E+02 4.48040E+01 0.00000E+00
 -1       369 1.05150E+02 4.48040E+01 0.00000E+00
 -1       370 1.08150E+02 4.48040E+01 0.00000E+00
 -1       371 1.11150E+02 4.48040E+01 0.00000E+00
 -1       372 1.14150E+02 4.48040E+01 0.00000E+00
 -1       373 1.17150E+02 4.48040E+01 0.00000E+00
 -1       374 1.20150E+02 4.48040E+01 0.00000E+00
 -1       375 1.23150E+02 4.48040E+01 0.00000E+00
 -1       376 1.26150E+02 4.48040E+01 0.00000E+00
 -1       377 1.29150E+02 4.48040E+01 0.00000E+00
 -1       378 1.32150E+02 4.48040E+01 0.00000E+00
 -1       379 1.35150E+02 4.48040E+01 0.00000E+00
 -1       380 1.38150E+02 4.48040E+01 0.00000E+00
 -1       381 1.41150E+02 4.48040E+01 0.00000E+00
 -1       382 1.43838E+02 4.49212E+01 0.00000E+00
 -1       383 1.15350E+01 4.00625E+00 0.00000E+00
 -1       384 1.45350E+01 4.00625E+00 0.00000E+00
 -1       385 1.75350E+01 4.00625E+00 0.00000E+00
 -1       386 2.05350E+01 4.00625E+00 0.00000E+00
 -1       387 2.35350E+01 4.00625E+00 0.00000E+00
 -1       388 2.65350E+01 4.00625E+00 0.00000E+00
 -1       389 2.95350E+01 4.00625E+00 0.00000E+00
 -1       390 3.25350E+01 4.00625E+00 0.00000E+00
 -1       391 3.55350E+01 4.00625E+00 0.00000E+00
 -1       392 3.85350E+01 4.00625E+00 0.00000E+00
 -1       393 4.15350E+01 4.00625E+00 0.00000E+00
 -1       394 4.45350E+01 4.00625E+00 0.00000E+00
 -1       395 4.75350E+01 4.00625E+00 0.00000E+00
 -1       396 5.05350E+01 4.00625E+00 0.00000E+00
 -1       397 5.35350E+01 4.00625E+00 0.00000E+00
 -1       398 5.65350E+01 4.00625E+00 0.00000E+00
 -1       399 5.95350E+01 4.00625E+00 0.00000E+00
 -1       400 6.25350E+01 4.00625E+00 0.00000E+00
 -1       401 6.55350E+01 4.00625E+00 0.00000E+00
 -1       402 6.85350E+01 4.00625E+00 0.00000E+00
 -1       403 7.15350E+01 4.00625E+00 0.00000E+00
 -1       404 7.45350E+01 4.00625E+00 0.00000E+00
 -1       405 7.75350E+01 4.00625E+00 0.00000E+00
 -1       406 8.05350E+01 4.00625E+00 0.00000E+00
 -1       407 8.35350E+01 4.00625E+00 0.00000E+00
 -1       408 8.65350E+01 4.00625E+00 0.00000E+00
 -1       409 8.95350E+01 4.00625E+00 0.00000E+00
 -1       410 9.25350E+01 4.00625E+00 0.00000E+00
 -1       411 9.55350E+01 4.00625E+00 0.00000E+00
 -1       412 9.85350E+01 4.00625E+00 0.00000E+00
 -1       413 1.01535E+02 4.00625E+00 0.00000E+00
 -1       414 1.04535E+02 4.00625E+00 0.00000E+00
 -1       415 1.07535E+02 4.00625E+00 0.00000E+00
 -1       416 1.10535E+02 4.00625E+00 0.00000E+00
 -1       417 1.13535E+02 4.00625E+00 0.00000E+00
 -1       418 1.16535E+02 4.00625E+00 0.00000E+00
 -1       419 1.19535E+02 4.00625E+00 0.00000E+00
 -1       420 1.22535E+02 4.00625E+00 0.00000E+00
 -1       421 1.25535E+02 4.00625E+00 0.00000E+00
 -1       422 1.28535E+02 4.00625E+00 0.00000E+00
 -1       423 1.31535E+02 4.00625E+00 0.00000E+00
 -1       424 1.34535E+02 4.00625E+00 0.00000E+00
 -1       425 1.37535E+02 4.00625E+00 0.00000E+00
 -1       426 1.40535E+02 4.00625E+00 0.00000E+00
 -1       427 1.43535E+02 4.00625E+00 0.00000E+00
 -1       428 1.45469E+02 4.21562E+00 0.00000E+00
 -1       429 1.44804E+02 1.18000E+01 0.00000E+00
 -1       430 1.44804E+02 8.85000E+00 0.00000E+00
 -1       431 1.45136E+02 6.53281E+00 0.00000E+00
 -1       432 1.44804E+02 1.47000E+01 0.00000E+00
 -1       433 1.44804E+02 1.76500E+01 0.00000E+00
 -1       434 1.44804E+02 2.06000E+01 0.00000E+00
 -1       435 1.44804E+02 2.35500E+01 0.00000E+00
 -1       436 1.44804E+02 2.65000E+01 0.00000E+00
 -1       437 1.44804E+02 2.94500E+01 0.00000E+00
 -1       438 1.44804E+02 3.23500E+01 0.00000E+00
 -1       439 1.44804E+02 3.53000E+01 0.00000E+00
 -1       440 1.44804E+02 3.82500E+01 0.00000E+00
 -1       441 1.44804E+02 4.12000E+01 0.00000E+00
 -1       442 3.67642E+01 1.74657E+01 0.00000E+00
 -1       443 3.78072E+01 2.13213E+01 0.00000E+00
 -1       444 3.73374E+01 1.92410E+01 0.00000E+00
 -1       445 3.55590E+01 1.56954E+01 0.00000E+00
 -1       446 3.45799E+01 1.42511E+01 0.00000E+00
 -1       447 5.19600E+00 3.82125E+01 0.00000E+00
 -1       448 3.08758E+01 1.21563E+01 0.00000E+00
 -1       449 2.86757E+01 1.17174E+01 0.00000E+00
 -1       450 2.68871E+01 1.17762E+01 0.00000E+00
 -1       451 2.47857E+01 1.18535E+01 0.00000E+00
 -1       452 2.29827E+01 1.30031E+01 0.00000E+00
 -1       453 2.14242E+01 1.42173E+01 0.00000E+00
 -1       454 2.01336E+01 1.56909E+01 0.00000E+00
 -1       455 1.88512E+01 1.77061E+01 0.00000E+00
 -1       456 1.84672E+01 1.94501E+01 0.00000E+00
 -1       457 1.80904E+01 2.17638E+01 0.00000E+00
 -1       458 1.87964E+01 2.37975E+01 0.00000E+00
 -1       459 1.92379E+01 2.56033E+01 0.00000E+00
 -1       460 2.07453E+01 2.75498E+01 0.00000E+00
 -1       461 2.20409E+01 2.88367E+01 0.00000E+00
 -1       462 2.40292E+01 3.02514E+01 0.00000E+00
 -1       463 2.57219E+01 3.07850E+01 0.00000E+00
 -1       464 2.80282E+01 3.10324E+01 0.00000E+00
 -1       465 2.95693E+01 3.07271E+01 0.00000E+00
 -1       466 3.15139E+01 3.00927E+01 0.00000E+00
 -1       467 3.29631E+01 2.93334E+01 0.00000E+00
 -1       468 3.47514E+01 2.80094E+01 0.00000E+00
 -1       469 3.57311E+01 2.65666E+01 0.00000E+00
 -1       470 3.67762E+01 2.50752E+01 0.00000E+00
 -1       471 3.75620E+01 2.29499E+01 0.00000E+00
 -1       472 3.26410E+01 1.26856E+01 0.00000E+00
 -1       473 3.43056E+01 1.26428E+01 0.00000E+00
 -1       474 2.24672E+01 3.05825E+01 0.00000E+00
 -1       475 1.90551E+01 2.71895E+01 0.00000E+00
 -1       476 1.00350E+01 6.60425E+00 0.00000E+00
 -1       477 7.79400E+00 3.08500E+01 0.00000E+00
 -1       478 7.79400E+00 3.38000E+01 0.00000E+00
 -1       479 7.74896E+00 2.49500E+01 0.00000E+00
 -1       480 7.74896E+00 2.20000E+01 0.00000E+00
 -1       481 7.74896E+00 1.91000E+01 0.00000E+00
 -1       482 7.74896E+00 1.61500E+01 0.00000E+00
 -1       483 7.74896E+00 1.32000E+01 0.00000E+00
 -1       484 7.74896E+00 1.02500E+01 0.00000E+00
 -1       485 1.30350E+01 6.60425E+00 0.00000E+00
 -1       486 1.06500E+01 4.22060E+01 0.00000E+00
 -1       487 3.63504E+01 1.41049E+01 0.00000E+00
 -1       488 1.36500E+01 4.22060E+01 0.00000E+00
 -1       489 1.66500E+01 4.22060E+01 0.00000E+00
 -1       490 1.96500E+01 4.22060E+01 0.00000E+00
 -1       491 2.26500E+01 4.22060E+01 0.00000E+00
 -1       492 2.56500E+01 4.22060E+01 0.00000E+00
 -1       493 2.86500E+01 4.22060E+01 0.00000E+00
 -1       494 3.16500E+01 4.22060E+01 0.00000E+00
 -1       495 3.46500E+01 4.22060E+01 0.00000E+00
 -1       496 3.76500E+01 4.22060E+01 0.00000E+00
 -1       497 4.06500E+01 4.22060E+01 0.00000E+00
 -1       498 4.36500E+01 4.22060E+01 0.00000E+00
 -1       499 4.66500E+01 4.22060E+01 0.00000E+00
 -1       500 4.96500E+01 4.22060E+01 0.00000E+00
 -1       501 5.26500E+01 4.22060E+01 0.00000E+00
 -1       502 5.56500E+01 4.22060E+01 0.00000E+00
 -1       503 5.86500E+01 4.22060E+01 0.00000E+00
 -1       504 6.16500E+01 4.22060E+01 0.00000E+00
 -1       505 6.46500E+01 4.22060E+01 0.00000E+00
 -1       506 6.76500E+01 4.22060E+01 0.00000E+00
 -1       507 7.06500E+01 4.22060E+01 0.00000E+00
 -1       508 7.36500E+01 4.22060E+01 0.00000E+00
 -1       509 7.66500E+01 4.22060E+01 0.00000E+00
 -1       510 7.96500E+01 4.22060E+01 0.00000E+00
 -1       511 8.26500E+01 4.22060E+01 0.00000E+00
 -1       512 8.56500E+01 4.22060E+01 0.00000E+00
 -1       513 8.86500E+01 4.22060E+01 0.00000E+00
 -1       514 9.16500E+01 4.22060E+01 0.00000E+00
 -1       515 9.46500E+01 4.22060E+01 0.00000E+00
 -1       516 9.76500E+01 4.22060E+01 0.00000E+00
 -1       517 1.00650E+02 4.22060E+01 0.00000E+00
 -1       518 1.03650E+02 4.22060E+01 0.00000E+00
 -1       519 1.06650E+02 4.22060E+01 0.00000E+00
 -1       520 1.09650E+02 4.22060E+01 0.00000E+00
 -1       521 1.12650E+02 4.22060E+01 0.00000E+00
 -1       522 1.15650E+02 4.22060E+01 0.00000E+00
 -1       523 1.18650E+02 4.22060E+01 0.00000E+00
 -1       524 1.21650E+02 4.22060E+01 0.00000E+00
 -1       525 1.24650E+02 4.22060E+01 0.00000E+00
 -1       526 1.27650E+02 4.22060E+01 0.00000E+00
 -1       527 1.30650E+02 4.22060E+01 0.00000E+00
 -1       528 1.33650E+02 4.22060E+01 0.00000E+00
 -1       529 1.36650E+02 4.22060E+01 0.00000E+00
 -1       530 1.39650E+02 4.22060E+01 0.00000E+00
 -1       531 1.90350E+01 6.60425E+00 0.00000E+00
 -1       532 2.20350E+01 6.60425E+00 0.00000E+00
 -1       533 2.50350E+01 6.60425E+00 0.00000E+00
 -1       534 2.80350E+01 6.60425E+00 0.00000E+00
 -1       535 3.10350E+01 6.60425E+00 0.00000E+00
 -1       536 3.40350E+01 6.60425E+00 0.00000E+00
 -1       537 3.70350E+01 6.60425E+00 0.00000E+00
 -1       538 4.00350E+01 6.60425E+00 0.00000E+00
 -1       539 4.30350E+01 6.60425E+00 0.00000E+00
 -1       540 4.60350E+01 6.60425E+00 0.00000E+00
 -1       541 4.90350E+01 6.60425E+00 0.00000E+00
 -1       542 5.20350E+01 6.60425E+00 0.00000E+00
 -1       543 5.50350E+01 6.60425E+00 0.00000E+00
 -1       544 5.80350E+01 6.60425E+00 0.00000E+00
 -1       545 6.10350E+01 6.60425E+00 0.00000E+00
 -1       546 6.40350E+01 6.60425E+00 0.00000E+00
 -1       547 6.70350E+01 6.60425E+00 0.00000E+00
 -1       548 7.00350E+01 6.60425E+00 0.00000E+00
 -1       549 7.30350E+01 6.60425E+00 0.00000E+00
 -1       550 7.60350E+01 6.60425E+00 0.00000E+00
 -1       551 7.90350E+01 6.60425E+00 0.00000E+00
 -1       552 8.20350E+01 6.60425E+00 0.00000E+00
 -1       553 8.50350E+01 6.60425E+00 0.00000E+00
 -1       554 8.80350E+01 6.60425E+00 0.00000E+00
 -1       555 9.10350E+01 6.60425E+00 0.00000E+00
 -1       556 9.40350E+01 6.60425E+00 0.00000E+00
 -1       557 9.70350E+01 6.60425E+00 0.00000E+00
 -1       558 1.00035E+02 6.60425E+00 0.00000E+00
 -1       559 1.03035E+02 6.60425E+00 0.00000E+00
 -1       560 1.06035E+02 6.60425E+00 0.00000E+00
 -1       561 1.09035E+02 6.60425E+00 0.00000E+00
 -1       562 1.12035E+02 6.60425E+00 0.00000E+00
 -1       563 1.15035E+02 6.60425E+00 0.00000E+00
 -1       564 1.18035E+02 6.60425E+00 0.00000E+00
 -1       565 1.21035E+02 6.60425E+00 0.00000E+00
 -1       566 1.24035E+02 6.60425E+00 0.00000E+00
 -1       567 1.27035E+02 6.60425E+00 0.00000E+00
 -1       568 1.30035E+02 6.60425E+00 0.00000E+00
 -1       569 1.33035E+02 6.60425E+00 0.00000E+00
 -1       570 1.36035E+02 6.60425E+00 0.00000E+00
 -1       571 1.39035E+02 6.60425E+00 0.00000E+00
 -1       572 1.42035E+02 6.60425E+00 0.00000E+00
 -1       573 1.42206E+02 1.61750E+01 0.00000E+00
 -1       574 1.42206E+02 1.91250E+01 0.00000E+00
 -1       575 1.42206E+02 1.03250E+01 0.00000E+00
 -1       576 1.42206E+02 1.32500E+01 0.00000E+00
 -1       577 1.42206E+02 2.20750E+01 0.00000E+00
 -1       578 1.42206E+02 2.50250E+01 0.00000E+00
 -1       579 1.42206E+02 2.79750E+01 0.00000E+00
 -1       580 1.42206E+02 3.08750E+01 0.00000E+00
 -1       581 1.42206E+02 3.38250E+01 0.00000E+00
 -1       582 1.42206E+02 3.67750E+01 0.00000E+00
 -1       583 1.42206E+02 3.97250E+01 0.00000E+00
 -1       584 3.91635E+01 1.99217E+01 0.00000E+00
 -1       585 3.75556E+01 1.58752E+01 0.00000E+00
 -1       586 1.60350E+01 6.60425E+00 0.00000E+00
 -1       587 7.92300E+00 4.16780E+01 0.00000E+00
 -1       588 3.87778E+01 2.46073E+01 0.00000E+00
 -1       589 3.86830E+01 1.78264E+01 0.00000E+00
 -1       590 3.91321E+01 2.23535E+01 0.00000E+00
 -1       591 1.81868E+01 1.58677E+01 0.00000E+00
 -1       592 7.77148E+00 2.79000E+01 0.00000E+00
 -1       593 2.77361E+01 1.03676E+01 0.00000E+00
 -1       594 1.69815E+01 2.32881E+01 0.00000E+00
 -1       595 3.00785E+01 1.04192E+01 0.00000E+00
 -1       596 2.56347E+01 1.04449E+01 0.00000E+00
 -1       597 2.30072E+01 1.10528E+01 0.00000E+00
 -1       598 2.12009E+01 1.23233E+01 0.00000E+00
 -1       599 1.95517E+01 1.38793E+01 0.00000E+00
 -1       600 1.72297E+01 1.82634E+01 0.00000E+00
 -1       601 3.65216E+01 2.81574E+01 0.00000E+00
 -1       602 1.65860E+01 2.03313E+01 0.00000E+00
 -1       603 1.74229E+01 2.50939E+01 0.00000E+00
 -1       604 2.03026E+01 2.92913E+01 0.00000E+00
 -1       605 2.43599E+01 3.21539E+01 0.00000E+00
 -1       606 2.67100E+01 3.24474E+01 0.00000E+00
 -1       607 2.90995E+01 3.23978E+01 0.00000E+00
 -1       608 3.10441E+01 3.17634E+01 0.00000E+00
 -1       609 3.30162E+01 3.11974E+01 0.00000E+00
 -1       610 3.48544E+01 3.00182E+01 0.00000E+00
 -1       611 3.75667E+01 2.66659E+01 0.00000E+00
 -1       612 3.22029E+01 1.09386E+01 0.00000E+00
 -1       613 7.61550E+00 6.21462E+00 0.00000E+00
 -1       614 7.79400E+00 3.67375E+01 0.00000E+00
 -1       615 3.38674E+01 1.08958E+01 0.00000E+00
 -1       616 3.60761E+01 1.24966E+01 0.00000E+00
 -1       617 1.72402E+01 2.66802E+01 0.00000E+00
 -1       618 1.54770E+01 2.18556E+01 0.00000E+00
 -1       619 2.38562E+01 9.64421E+00 0.00000E+00
 -1       620 1.41678E+02 4.22645E+01 0.00000E+00
 -1       621 1.03470E+01 2.05500E+01 0.00000E+00
 -1       622 1.03470E+01 2.35000E+01 0.00000E+00
 -1       623 1.03470E+01 1.46750E+01 0.00000E+00
 -1       624 1.03470E+01 1.17250E+01 0.00000E+00
 -1       625 1.15350E+01 9.20225E+00 0.00000E+00
 -1       626 3.97495E+01 1.59089E+01 0.00000E+00
 -1       627 1.51500E+01 3.96080E+01 0.00000E+00
 -1       628 1.81500E+01 3.96080E+01 0.00000E+00
 -1       629 2.11500E+01 3.96080E+01 0.00000E+00
 -1       630 2.41500E+01 3.96080E+01 0.00000E+00
 -1       631 2.71500E+01 3.96080E+01 0.00000E+00
 -1       632 3.01500E+01 3.96080E+01 0.00000E+00
 -1       633 3.31500E+01 3.96080E+01 0.00000E+00
 -1       634 3.61500E+01 3.96080E+01 0.00000E+00
 -1       635 3.91500E+01 3.96080E+01 0.00000E+00
 -1       636 4.21500E+01 3.96080E+01 0.00000E+00
 -1       637 4.51500E+01 3.96080E+01 0.00000E+00
 -1       638 4.81500E+01 3.96080E+01 0.00000E+00
 -1       639 5.11500E+01 3.96080E+01 0.00000E+00
 -1       640 5.41500E+01 3.96080E+01 0.00000E+00
 -1       641 5.71500E+01 3.96080E+01 0.00000E+00
 -1       642 6.01500E+01 3.96080E+01 0.00000E+00
 -1       643 6.31500E+01 3.96080E+01 0.00000E+00
 -1       644 6.61500E+01 3.96080E+01 0.00000E+00
 -1       645 6.91500E+01 3.96080E+01 0.00000E+00
 -1       646 7.21500E+01 3.96080E+01 0.00000E+00
 -1       647 7.51500E+01 3.96080E+01 0.00000E+00
 -1       648 7.81500E+01 3.96080E+01 0.00000E+00
 -1       649 8.11500E+01 3.96080E+01 0.00000E+00
 -1       650 8.41500E+01 3.96080E+01 0.00000E+00
 -1       651 8.71500E+01 3.96080E+01 0.00000E+00
 -1       652 9.01500E+01 3.96080E+01 0.00000E+00
 -1       653 9.31500E+01 3.96080E+01 0.00000E+00
 -1       654 9.61500E+01 3.96080E+01 0.00000E+00
 -1       655 9.91500E+01 3.96080E+01 0.00000E+00
 -1       656 1.02150E+02 3.96080E+01 0.00000E+00
 -1       657 1.05150E+02 3.96080E+01 0.00000E+00
 -1       658 1.08150E+02 3.96080E+01 0.00000E+00
 -1       659 1.11150E+02 3.96080E+01 0.00000E+00
 -1       660 1.14150E+02 3.96080E+01 0.00000E+00
 -1       661 1.17150E+02 3.96080E+01 0.00000E+00
 -1       662 1.20150E+02 3.96080E+01 0.00000E+00
 -1       663 1.23150E+02 3.96080E+01 0.00000E+00
 -1       664 1.26150E+02 3.96080E+01 0.00000E+00
 -1       665 1.29150E+02 3.96080E+01 0.00000E+00
 -1       666 1.32150E+02 3.96080E+01 0.00000E+00
 -1       667 1.35150E+02 3.96080E+01 0.00000E+00
 -1       668 1.38150E+02 3.96080E+01 0.00000E+00
 -1       669 3.15878E+01 8.85012E+00 0.00000E+00
 -1       670 3.55350E+01 8.82207E+00 0.00000E+00
 -1       671 3.85350E+01 8.82207E+00 0.00000E+00
 -1       672 4.15350E+01 8.82207E+00 0.00000E+00
 -1       673 4.45350E+01 8.82207E+00 0.00000E+00
 -1       674 4.75350E+01 8.82207E+00 0.00000E+00
 -1       675 5.05350E+01 8.82207E+00 0.00000E+00
 -1       676 5.35350E+01 8.82207E+00 0.00000E+00
 -1       677 5.65350E+01 8.82207E+00 0.00000E+00
 -1       678 5.95350E+01 8.82207E+00 0.00000E+00
 -1       679 6.25350E+01 8.82207E+00 0.00000E+00
 -1       680 6.55350E+01 8.82207E+00 0.00000E+00
 -1       681 6.85350E+01 8.82207E+00 0.00000E+00
 -1       682 7.15350E+01 8.82207E+00 0.00000E+00
 -1       683 7.45350E+01 8.82207E+00 0.00000E+00
 -1       684 7.75350E+01 8.82207E+00 0.00000E+00
 -1       685 8.05350E+01 8.82207E+00 0.00000E+00
 -1       686 8.35350E+01 8.82207E+00 0.00000E+00
 -1       687 8.65350E+01 8.82207E+00 0.00000E+00
 -1       688 8.95350E+01 8.82207E+00 0.00000E+00
 -1       689 9.25350E+01 8.82207E+00 0.00000E+00
 -1       690 9.55350E+01 8.82207E+00 0.00000E+00
 -1       691 9.85350E+01 8.82207E+00 0.00000E+00
 -1       692 1.01535E+02 8.82207E+00 0.00000E+00
 -1       693 1.04535E+02 8.82207E+00 0.00000E+00
 -1       694 1.07535E+02 8.82207E+00 0.00000E+00
 -1       695 1.10535E+02 8.82207E+00 0.00000E+00
 -1       696 1.13535E+02 8.82207E+00 0.00000E+00
 -1       697 1.16535E+02 8.82207E+00 0.00000E+00
 -1       698 1.19535E+02 8.82207E+00 0.00000E+00
 -1       699 1.22535E+02 8.82207E+00 0.00000E+00
 -1       700 1.25535E+02 8.82207E+00 0.00000E+00
 -1       701 1.28535E+02 8.82207E+00 0.00000E+00
 -1       702 1.31535E+02 8.82207E+00 0.00000E+00
 -1       703 1.34535E+02 8.82207E+00 0.00000E+00
 -1       704 1.37535E+02 8.82207E+00 0.00000E+00
 -1       705 1.39870E+02 9.57354E+00 0.00000E+00
 -1       706 1.39608E+02 2.35500E+01 0.00000E+00
 -1       707 1.40178E+02 3.96665E+01 0.00000E+00
 -1       708 1.39608E+02 1.76500E+01 0.00000E+00
 -1       709 1.39608E+02 2.65000E+01 0.00000E+00
 -1       710 1.39608E+02 2.06000E+01 0.00000E+00
 -1       711 3.85442E+01 1.41387E+01 0.00000E+00
 -1       712 1.39608E+02 2.94000E+01 0.00000E+00
 -1       713 1.39608E+02 3.23500E+01 0.00000E+00
 -1       714 1.39608E+02 3.53000E+01 0.00000E+00
 -1       715 1.75350E+01 9.20225E+00 0.00000E+00
 -1       716 4.05950E+01 1.84907E+01 0.00000E+00
 -1       717 1.74553E+01 1.39028E+01 0.00000E+00
 -1       718 3.25033E+01 3.31289E+01 0.00000E+00
 -1       719 1.53502E+01 1.88125E+01 0.00000E+00
 -1       720 1.21500E+01 3.96080E+01 0.00000E+00
 -1       721 3.95783E+01 2.64638E+01 0.00000E+00
 -1       722 1.45350E+01 9.20225E+00 0.00000E+00
 -1       723 4.08148E+01 2.37727E+01 0.00000E+00
 -1       724 1.03470E+01 1.76125E+01 0.00000E+00
 -1       725 1.03920E+01 3.23250E+01 0.00000E+00
 -1       726 2.04204E+01 3.15537E+01 0.00000E+00
 -1       727 2.23131E+01 3.31252E+01 0.00000E+00
 -1       728 1.61933E+01 1.64603E+01 0.00000E+00
 -1       729 1.88544E+01 1.14881E+01 0.00000E+00
 -1       730 1.56175E+01 2.45784E+01 0.00000E+00
 -1       731 1.82760E+01 2.90730E+01 0.00000E+00
 -1       732 3.49518E+01 3.21924E+01 0.00000E+00
 -1       733 4.11979E+01 2.11641E+01 0.00000E+00
 -1       734 2.53017E+01 3.41689E+01 0.00000E+00
 -1       735 3.05587E+01 3.37633E+01 0.00000E+00
 -1       736 3.85332E+01 2.79553E+01 0.00000E+00
 -1       737 2.06606E+01 1.02176E+01 0.00000E+00
 -1       738 3.70902E+01 3.03441E+01 0.00000E+00
 -1       739 2.79473E+01 3.44724E+01 0.00000E+00
 -1       740 1.03920E+01 3.52625E+01 0.00000E+00
 -1       741 1.03695E+01 2.64500E+01 0.00000E+00
 -1       742 3.82699E+01 1.25304E+01 0.00000E+00
 -1       743 3.56379E+01 1.07496E+01 0.00000E+00
 -1       744 2.10211E+01 8.82853E+00 0.00000E+00
 -1       745 1.39608E+02 1.47250E+01 0.00000E+00
 -1       746 2.95350E+01 8.98964E+00 0.00000E+00
 -1       747 1.39739E+02 1.21493E+01 0.00000E+00
 -1       748 1.83938E+01 3.13355E+01 0.00000E+00
 -1       749 1.54348E+01 2.61647E+01 0.00000E+00
 -1       750 1.42413E+01 2.03368E+01 0.00000E+00
 -1       751 1.03807E+01 2.93875E+01 0.00000E+00
 -1       752 1.05210E+01 3.87342E+01 0.00000E+00
 -1       753 1.38879E+02 3.74540E+01 0.00000E+00
 -1       754 1.29450E+01 1.32000E+01 0.00000E+00
 -1       755 3.21149E+01 3.52360E+01 0.00000E+00
 -1       756 1.96500E+01 3.70100E+01 0.00000E+00
 -1       757 2.26500E+01 3.70100E+01 0.00000E+00
 -1       758 2.56500E+01 3.70100E+01 0.00000E+00
 -1       759 3.16500E+01 3.70100E+01 0.00000E+00
 -1       760 3.46500E+01 3.70100E+01 0.00000E+00
 -1       761 3.76500E+01 3.70100E+01 0.00000E+00
 -1       762 4.06500E+01 3.70100E+01 0.00000E+00
 -1       763 4.36500E+01 3.70100E+01 0.00000E+00
 -1       764 4.66500E+01 3.70100E+01 0.00000E+00
 -1       765 4.96500E+01 3.70100E+01 0.00000E+00
 -1       766 5.26500E+01 3.70100E+01 0.00000E+00
 -1       767 5.56500E+01 3.70100E+01 0.00000E+00
 -1       768 5.86500E+01 3.70100E+01 0.00000E+00
 -1       769 6.16500E+01 3.70100E+01 0.00000E+00
 -1       770 6.46500E+01 3.70100E+01 0.00000E+00
 -1       771 6.76500E+01 3.70100E+01 0.00000E+00
 -1       772 7.06500E+01 3.70100E+01 0.00000E+00
 -1       773 7.36500E+01 3.70100E+01 0.00000E+00
 -1       774 7.66500E+01 3.70100E+01 0.00000E+00
 -1       775 7.96500E+01 3.70100E+01 0.00000E+00
 -1       776 8.26500E+01 3.70100E+01 0.00000E+00
 -1       777 8.56500E+01 3.70100E+01 0.00000E+00
 -1       778 8.86500E+01 3.70100E+01 0.00000E+00
 -1       779 9.16500E+01 3.70100E+01 0.00000E+00
 -1       780 9.46500E+01 3.70100E+01 0.00000E+00
 -1       781 9.76500E+01 3.70100E+01 0.00000E+00
 -1       782 1.00650E+02 3.70100E+01 0.00000E+00
 -1       783 1.03650E+02 3.70100E+01 0.00000E+00
 -1       784 1.06650E+02 3.70100E+01 0.00000E+00
 -1       785 1.09650E+02 3.70100E+01 0.00000E+00
 -1       786 1.12650E+02 3.70100E+01 0.00000E+00
 -1       787 1.15650E+02 3.70100E+01 0.00000E+00
 -1       788 1.18650E+02 3.70100E+01 0.00000E+00
 -1       789 1.21650E+02 3.70100E+01 0.00000E+00
 -1       790 1.24650E+02 3.70100E+01 0.00000E+00
 -1       791 1.27650E+02 3.70100E+01 0.00000E+00
 -1       792 1.30650E+02 3.70100E+01 0.00000E+00
 -1       793 1.33650E+02 3.70100E+01 0.00000E+00
 -1       794 1.36264E+02 3.72320E+01 0.00000E+00
 -1       795 4.60350E+01 1.14201E+01 0.00000E+00
 -1       796 4.90350E+01 1.14201E+01 0.00000E+00
 -1       797 5.20350E+01 1.14201E+01 0.00000E+00
 -1       798 5.50350E+01 1.14201E+01 0.00000E+00
 -1       799 5.80350E+01 1.14201E+01 0.00000E+00
 -1       800 6.10350E+01 1.14201E+01 0.00000E+00
 -1       801 6.40350E+01 1.14201E+01 0.00000E+00
 -1       802 6.70350E+01 1.14201E+01 0.00000E+00
 -1       803 7.00350E+01 1.14201E+01 0.00000E+00
 -1       804 7.30350E+01 1.14201E+01 0.00000E+00
 -1       805 7.60350E+01 1.14201E+01 0.00000E+00
 -1       806 7.90350E+01 1.14201E+01 0.00000E+00
 -1       807 8.20350E+01 1.14201E+01 0.00000E+00
 -1       808 8.50350E+01 1.14201E+01 0.00000E+00
 -1       809 8.80350E+01 1.14201E+01 0.00000E+00
 -1       810 9.10350E+01 1.14201E+01 0.00000E+00
 -1       811 9.40350E+01 1.14201E+01 0.00000E+00
 -1       812 9.70350E+01 1.14201E+01 0.00000E+00
 -1       813 1.00035E+02 1.14201E+01 0.00000E+00
 -1       814 1.03035E+02 1.14201E+01 0.00000E+00
 -1       815 1.06035E+02 1.14201E+01 0.00000E+00
 -1       816 1.09035E+02 1.14201E+01 0.00000E+00
 -1       817 1.12035E+02 1.14201E+01 0.00000E+00
 -1       818 1.15035E+02 1.14201E+01 0.00000E+00
 -1       819 1.18035E+02 1.14201E+01 0.00000E+00
 -1       820 1.21035E+02 1.14201E+01 0.00000E+00
 -1       821 1.24035E+02 1.14201E+01 0.00000E+00
 -1       822 1.27035E+02 1.14201E+01 0.00000E+00
 -1       823 1.30035E+02 1.14201E+01 0.00000E+00
 -1       824 1.33035E+02 1.14201E+01 0.00000E+00
 -1       825 1.36035E+02 1.14201E+01 0.00000E+00
 -1       826 1.37887E+02 1.17847E+01 0.00000E+00
 -1       827 1.27710E+01 3.74352E+01 0.00000E+00
 -1       828 1.27324E+01 2.20250E+01 0.00000E+00
 -1       829 1.37010E+02 2.50250E+01 0.00000E+00
 -1       830 1.37010E+02 3.38250E+01 0.00000E+00
 -1       831 1.58766E+01 2.86911E+01 0.00000E+00
 -1       832 1.51360E+01 1.43485E+01 0.00000E+00
 -1       833 1.37010E+02 3.08750E+01 0.00000E+00
 -1       834 4.30350E+01 1.14201E+01 0.00000E+00
 -1       835 3.74713E+01 3.29461E+01 0.00000E+00
 -1       836 1.36840E+01 1.68881E+01 0.00000E+00
 -1       837 3.93365E+01 1.10848E+01 0.00000E+00
 -1       838 4.30348E+01 2.27664E+01 0.00000E+00
 -1       839 4.27330E+01 1.94132E+01 0.00000E+00
 -1       840 1.66500E+01 3.70100E+01 0.00000E+00
 -1       841 1.99500E+01 3.40458E+01 0.00000E+00
 -1       842 3.92797E+01 3.00365E+01 0.00000E+00
 -1       843 3.45634E+01 3.42995E+01 0.00000E+00
 -1       844 2.95035E+01 3.59450E+01 0.00000E+00
 -1       845 1.60909E+01 1.14996E+01 0.00000E+00
 -1       846 1.37010E+02 2.79500E+01 0.00000E+00
 -1       847 1.37400E+01 1.12011E+01 0.00000E+00
 -1       848 4.24391E+01 1.64574E+01 0.00000E+00
 -1       849 1.34998E+01 2.33227E+01 0.00000E+00
 -1       850 4.03248E+01 2.85450E+01 0.00000E+00
 -1       851 4.08416E+01 1.38700E+01 0.00000E+00
 -1       852 4.19072E+01 2.59043E+01 0.00000E+00
 -1       853 2.31314E+01 3.55827E+01 0.00000E+00
 -1       854 1.25760E+01 2.49581E+01 0.00000E+00
 -1       855 1.29900E+01 3.37938E+01 0.00000E+00
 -1       856 1.59944E+01 3.09536E+01 0.00000E+00
 -1       857 1.37010E+02 1.61875E+01 0.00000E+00
 -1       858 1.37010E+02 1.91375E+01 0.00000E+00
 -1       859 1.37010E+02 2.20812E+01 0.00000E+00
 -1       860 1.36637E+02 3.55285E+01 0.00000E+00
 -1       861 1.29787E+01 3.08563E+01 0.00000E+00
 -1       862 4.35275E+01 1.39985E+01 0.00000E+00
 -1       863 1.28404E+01 1.93020E+01 0.00000E+00
 -1       864 3.91500E+01 3.44120E+01 0.00000E+00
 -1       865 4.21500E+01 3.44120E+01 0.00000E+00
 -1       866 4.51500E+01 3.44120E+01 0.00000E+00
 -1       867 4.81500E+01 3.44120E+01 0.00000E+00
 -1       868 5.11500E+01 3.44120E+01 0.00000E+00
 -1       869 5.41500E+01 3.44120E+01 0.00000E+00
 -1       870 5.71500E+01 3.44120E+01 0.00000E+00
 -1       871 6.01500E+01 3.44120E+01 0.00000E+00
 -1       872 6.31500E+01 3.44120E+01 0.00000E+00
 -1       873 6.61500E+01 3.44120E+01 0.00000E+00
 -1       874 6.91500E+01 3.44120E+01 0.00000E+00
 -1       875 7.21500E+01 3.44120E+01 0.00000E+00
 -1       876 7.51500E+01 3.44120E+01 0.00000E+00
 -1       877 7.81500E+01 3.44120E+01 0.00000E+00
 -1       878 8.11500E+01 3.44120E+01 0.00000E+00
 -1       879 8.41500E+01 3.44120E+01 0.00000E+00
 -1       880 8.71500E+01 3.44120E+01 0.00000E+00
 -1       881 9.01500E+01 3.44120E+01 0.00000E+00
 -1       882 9.31500E+01 3.44120E+01 0.00000E+00
 -1       883 9.61500E+01 3.44120E+01 0.00000E+00
 -1       884 9.91500E+01 3.44120E+01 0.00000E+00
 -1       885 1.02150E+02 3.44120E+01 0.00000E+00
 -1       886 1.05150E+02 3.44120E+01 0.00000E+00
 -1       887 1.08150E+02 3.44120E+01 0.00000E+00
 -1       888 1.11150E+02 3.44120E+01 0.00000E+00
 -1       889 1.14150E+02 3.44120E+01 0.00000E+00
 -1       890 1.17150E+02 3.44120E+01 0.00000E+00
 -1       891 1.20150E+02 3.44120E+01 0.00000E+00
 -1       892 1.23150E+02 3.44120E+01 0.00000E+00
 -1       893 1.26150E+02 3.44120E+01 0.00000E+00
 -1       894 1.29150E+02 3.44120E+01 0.00000E+00
 -1       895 1.32150E+02 3.44120E+01 0.00000E+00
 -1       896 4.44005E+01 2.50287E+01 0.00000E+00
 -1       897 4.75350E+01 1.40181E+01 0.00000E+00
 -1       898 5.65350E+01 1.40181E+01 0.00000E+00
 -1       899 5.95350E+01 1.40181E+01 0.00000E+00
 -1       900 6.25350E+01 1.40181E+01 0.00000E+00
 -1       901 6.55350E+01 1.40181E+01 0.00000E+00
 -1       902 6.85350E+01 1.40181E+01 0.00000E+00
 -1       903 7.15350E+01 1.40181E+01 0.00000E+00
 -1       904 7.45350E+01 1.40181E+01 0.00000E+00
 -1       905 7.75350E+01 1.40181E+01 0.00000E+00
 -1       906 8.05350E+01 1.40181E+01 0.00000E+00
 -1       907 8.35350E+01 1.40181E+01 0.00000E+00
 -1       908 8.65350E+01 1.40181E+01 0.00000E+00
 -1       909 8.95350E+01 1.40181E+01 0.00000E+00
 -1       910 9.25350E+01 1.40181E+01 0.00000E+00
 -1       911 9.55350E+01 1.40181E+01 0.00000E+00
 -1       912 9.85350E+01 1.40181E+01 0.00000E+00
 -1       913 1.01535E+02 1.40181E+01 0.00000E+00
 -1       914 1.04535E+02 1.40181E+01 0.00000E+00
 -1       915 1.07535E+02 1.40181E+01 0.00000E+00
 -1       916 1.10535E+02 1.40181E+01 0.00000E+00
 -1       917 1.13535E+02 1.40181E+01 0.00000E+00
 -1       918 1.16535E+02 1.40181E+01 0.00000E+00
 -1       919 1.19535E+02 1.40181E+01 0.00000E+00
 -1       920 1.22535E+02 1.40181E+01 0.00000E+00
 -1       921 1.25535E+02 1.40181E+01 0.00000E+00
 -1       922 1.28535E+02 1.40181E+01 0.00000E+00
 -1       923 1.31535E+02 1.40181E+01 0.00000E+00
 -1       924 1.34535E+02 1.40181E+01 0.00000E+00
 -1       925 1.37449E+02 1.39861E+01 0.00000E+00
 -1       926 1.72486E+01 3.37950E+01 0.00000E+00
 -1       927 4.27310E+01 2.81924E+01 0.00000E+00
 -1       928 1.34412E+02 3.23500E+01 0.00000E+00
 -1       929 5.35350E+01 1.40181E+01 0.00000E+00
 -1       930 5.05350E+01 1.40181E+01 0.00000E+00
 -1       931 1.27774E+01 2.79072E+01 0.00000E+00
 -1       932 4.47930E+01 1.77159E+01 0.00000E+00
 -1       933 4.13441E+01 3.03711E+01 0.00000E+00
 -1       934 4.50948E+01 2.10691E+01 0.00000E+00
 -1       935 1.34394E+02 3.49702E+01 0.00000E+00
 -1       936 4.64605E+01 2.33314E+01 0.00000E+00
 -1       937 1.34412E+02 2.35531E+01 0.00000E+00
 -1       938 1.34412E+02 2.94250E+01 0.00000E+00
 -1       939 1.34412E+02 2.64781E+01 0.00000E+00
 -1       940 4.04015E+01 3.27505E+01 0.00000E+00
 -1       941 1.34412E+02 1.76625E+01 0.00000E+00
 -1       942 6.40350E+01 1.66161E+01 0.00000E+00
 -1       943 4.36500E+01 3.18140E+01 0.00000E+00
 -1       944 4.66500E+01 3.18140E+01 0.00000E+00
 -1       945 4.96500E+01 3.18140E+01 0.00000E+00
 -1       946 5.26500E+01 3.18140E+01 0.00000E+00
 -1       947 5.56500E+01 3.18140E+01 0.00000E+00
 -1       948 5.86500E+01 3.18140E+01 0.00000E+00
 -1       949 6.16500E+01 3.18140E+01 0.00000E+00
 -1       950 6.46500E+01 3.18140E+01 0.00000E+00
 -1       951 6.76500E+01 3.18140E+01 0.00000E+00
 -1       952 7.06500E+01 3.18140E+01 0.00000E+00
 -1       953 7.36500E+01 3.18140E+01 0.00000E+00
 -1       954 7.66500E+01 3.18140E+01 0.00000E+00
 -1       955 7.96500E+01 3.18140E+01 0.00000E+00
 -1       956 8.26500E+01 3.18140E+01 0.00000E+00
 -1       957 8.56500E+01 3.18140E+01 0.00000E+00
 -1       958 8.86500E+01 3.18140E+01 0.00000E+00
 -1       959 9.16500E+01 3.18140E+01 0.00000E+00
 -1       960 9.46500E+01 3.18140E+01 0.00000E+00
 -1       961 9.76500E+01 3.18140E+01 0.00000E+00
 -1       962 1.00650E+02 3.18140E+01 0.00000E+00
 -1       963 1.03650E+02 3.18140E+01 0.00000E+00
 -1       964 1.06650E+02 3.18140E+01 0.00000E+00
 -1       965 1.09650E+02 3.18140E+01 0.00000E+00
 -1       966 1.12650E+02 3.18140E+01 0.00000E+00
 -1       967 1.15650E+02 3.18140E+01 0.00000E+00
 -1       968 1.18650E+02 3.18140E+01 0.00000E+00
 -1       969 1.21650E+02 3.18140E+01 0.00000E+00
 -1       970 1.24650E+02 3.18140E+01 0.00000E+00
 -1       971 1.27650E+02 3.18140E+01 0.00000E+00
 -1       972 1.30650E+02 3.18140E+01 0.00000E+00
 -1       973 5.80350E+01 1.66161E+01 0.00000E+00
 -1       974 6.70350E+01 1.66161E+01 0.00000E+00
 -1       975 7.00350E+01 1.66161E+01 0.00000E+00
 -1       976 7.30350E+01 1.66161E+01 0.00000E+00
 -1       977 7.60350E+01 1.66161E+01 0.00000E+00
 -1       978 7.90350E+01 1.66161E+01 0.00000E+00
 -1       979 8.20350E+01 1.66161E+01 0.00000E+00
 -1       980 8.50350E+01 1.66161E+01 0.00000E+00
 -1       981 8.80350E+01 1.66161E+01 0.00000E+00
 -1       982 9.10350E+01 1.66161E+01 0.00000E+00
 -1       983 9.40350E+01 1.66161E+01 0.00000E+00
 -1       984 9.70350E+01 1.66161E+01 0.00000E+00
 -1       985 1.00035E+02 1.66161E+01 0.00000E+00
 -1       986 1.03035E+02 1.66161E+01 0.00000E+00
 -1       987 1.06035E+02 1.66161E+01 0.00000E+00
 -1       988 1.09035E+02 1.66161E+01 0.00000E+00
 -1       989 1.12035E+02 1.66161E+01 0.00000E+00
 -1       990 1.15035E+02 1.66161E+01 0.00000E+00
 -1       991 1.18035E+02 1.66161E+01 0.00000E+00
 -1       992 1.21035E+02 1.66161E+01 0.00000E+00
 -1       993 1.24035E+02 1.66161E+01 0.00000E+00
 -1       994 1.27035E+02 1.66161E+01 0.00000E+00
 -1       995 1.30035E+02 1.66161E+01 0.00000E+00
 -1       996 4.53790E+01 2.75674E+01 0.00000E+00
 -1       997 1.34412E+02 2.06094E+01 0.00000E+00
 -1       998 5.50350E+01 1.66161E+01 0.00000E+00
 -1       999 6.10350E+01 1.66161E+01 0.00000E+00
 -1      1000 4.71528E+01 1.91937E+01 0.00000E+00
 -1      1001 4.45145E+01 2.96907E+01 0.00000E+00
 -1      1002 4.88439E+01 1.66059E+01 0.00000E+00
 -1      1003 1.30035E+02 1.95629E+01 0.00000E+00
 -1      1004 4.74390E+01 2.58701E+01 0.00000E+00
 -1      1005 1.30035E+02 2.25067E+01 0.00000E+00
 -1      1006 4.85185E+01 2.14560E+01 0.00000E+00
 -1      1007 5.20350E+01 1.66161E+01 0.00000E+00
 -1      1008 1.30035E+02 2.54317E+01 0.00000E+00
 -1      1009 5.95350E+01 1.92141E+01 0.00000E+00
 -1      1010 4.81500E+01 2.92160E+01 0.00000E+00
 -1      1011 5.11500E+01 2.92160E+01 0.00000E+00
 -1      1012 5.41500E+01 2.92160E+01 0.00000E+00
 -1      1013 5.71500E+01 2.92160E+01 0.00000E+00
 -1      1014 6.01500E+01 2.92160E+01 0.00000E+00
 -1      1015 6.31500E+01 2.92160E+01 0.00000E+00
 -1      1016 6.61500E+01 2.92160E+01 0.00000E+00
 -1      1017 6.91500E+01 2.92160E+01 0.00000E+00
 -1      1018 7.21500E+01 2.92160E+01 0.00000E+00
 -1      1019 7.51500E+01 2.92160E+01 0.00000E+00
 -1      1020 7.81500E+01 2.92160E+01 0.00000E+00
 -1      1021 8.11500E+01 2.92160E+01 0.00000E+00
 -1      1022 8.41500E+01 2.92160E+01 0.00000E+00
 -1      1023 8.71500E+01 2.92160E+01 0.00000E+00
 -1      1024 9.01500E+01 2.92160E+01 0.00000E+00
 -1      1025 9.31500E+01 2.92160E+01 0.00000E+00
 -1      1026 9.61500E+01 2.92160E+01 0.00000E+00
 -1      1027 9.91500E+01 2.92160E+01 0.00000E+00
 -1      1028 1.02150E+02 2.92160E+01 0.00000E+00
 -1      1029 1.05150E+02 2.92160E+01 0.00000E+00
 -1      1030 1.08150E+02 2.92160E+01 0.00000E+00
 -1      1031 1.11150E+02 2.92160E+01 0.00000E+00
 -1      1032 1.14150E+02 2.92160E+01 0.00000E+00
 -1      1033 1.17150E+02 2.92160E+01 0.00000E+00
 -1      1034 1.20150E+02 2.92160E+01 0.00000E+00
 -1      1035 1.23150E+02 2.92160E+01 0.00000E+00
 -1      1036 1.26150E+02 2.92160E+01 0.00000E+00
 -1      1037 1.29150E+02 2.92160E+01 0.00000E+00
 -1      1038 7.15350E+01 1.92141E+01 0.00000E+00
 -1      1039 6.55350E+01 1.92141E+01 0.00000E+00
 -1      1040 7.45350E+01 1.92141E+01 0.00000E+00
 -1      1041 7.75350E+01 1.92141E+01 0.00000E+00
 -1      1042 8.05350E+01 1.92141E+01 0.00000E+00
 -1      1043 8.35350E+01 1.92141E+01 0.00000E+00
 -1      1044 8.65350E+01 1.92141E+01 0.00000E+00
 -1      1045 8.95350E+01 1.92141E+01 0.00000E+00
 -1      1046 9.25350E+01 1.92141E+01 0.00000E+00
 -1      1047 9.55350E+01 1.92141E+01 0.00000E+00
 -1      1048 9.85350E+01 1.92141E+01 0.00000E+00
 -1      1049 1.01535E+02 1.92141E+01 0.00000E+00
 -1      1050 1.04535E+02 1.92141E+01 0.00000E+00
 -1      1051 1.07535E+02 1.92141E+01 0.00000E+00
 -1      1052 1.10535E+02 1.92141E+01 0.00000E+00
 -1      1053 1.13535E+02 1.92141E+01 0.00000E+00
 -1      1054 1.16535E+02 1.92141E+01 0.00000E+00
 -1      1055 1.19535E+02 1.92141E+01 0.00000E+00
 -1      1056 1.22535E+02 1.92141E+01 0.00000E+00
 -1      1057 1.25535E+02 1.92141E+01 0.00000E+00
 -1      1058 1.27785E+02 1.93885E+01 0.00000E+00
 -1      1059 6.85350E+01 1.92141E+01 0.00000E+00
 -1      1060 1.31781E+02 2.78471E+01 0.00000E+00
 -1      1061 5.65350E+01 1.92141E+01 0.00000E+00
 -1      1062 6.25350E+01 1.92141E+01 0.00000E+00
 -1      1063 4.94970E+01 2.39947E+01 0.00000E+00
 -1      1064 5.35350E+01 1.92141E+01 0.00000E+00
 -1      1065 1.27785E+02 2.23323E+01 0.00000E+00
 -1      1066 1.27785E+02 2.52573E+01 0.00000E+00
 -1      1067 5.02767E+01 1.90360E+01 0.00000E+00
 -1      1068 5.26500E+01 2.66180E+01 0.00000E+00
 -1      1069 5.56500E+01 2.66180E+01 0.00000E+00
 -1      1070 5.86500E+01 2.66180E+01 0.00000E+00
 -1      1071 6.16500E+01 2.66180E+01 0.00000E+00
 -1      1072 6.46500E+01 2.66180E+01 0.00000E+00
 -1      1073 6.76500E+01 2.66180E+01 0.00000E+00
 -1      1074 7.06500E+01 2.66180E+01 0.00000E+00
 -1      1075 7.36500E+01 2.66180E+01 0.00000E+00
 -1      1076 7.66500E+01 2.66180E+01 0.00000E+00
 -1      1077 7.96500E+01 2.66180E+01 0.00000E+00
 -1      1078 8.26500E+01 2.66180E+01 0.00000E+00
 -1      1079 8.56500E+01 2.66180E+01 0.00000E+00
 -1      1080 8.86500E+01 2.66180E+01 0.00000E+00
 -1      1081 9.16500E+01 2.66180E+01 0.00000E+00
 -1      1082 9.46500E+01 2.66180E+01 0.00000E+00
 -1      1083 9.76500E+01 2.66180E+01 0.00000E+00
 -1      1084 1.00650E+02 2.66180E+01 0.00000E+00
 -1      1085 1.03650E+02 2.66180E+01 0.00000E+00
 -1      1086 1.06650E+02 2.66180E+01 0.00000E+00
 -1      1087 1.09650E+02 2.66180E+01 0.00000E+00
 -1      1088 1.12650E+02 2.66180E+01 0.00000E+00
 -1      1089 1.15650E+02 2.66180E+01 0.00000E+00
 -1      1090 1.18650E+02 2.66180E+01 0.00000E+00
 -1      1091 1.21650E+02 2.66180E+01 0.00000E+00
 -1      1092 1.24650E+02 2.66180E+01 0.00000E+00
 -1      1093 7.60350E+01 2.18121E+01 0.00000E+00
 -1      1094 7.90350E+01 2.18121E+01 0.00000E+00
 -1      1095 6.10350E+01 2.18121E+01 0.00000E+00
 -1      1096 7.30350E+01 2.18121E+01 0.00000E+00
 -1      1097 8.20350E+01 2.18121E+01 0.00000E+00
 -1      1098 8.50350E+01 2.18121E+01 0.00000E+00
 -1      1099 8.80350E+01 2.18121E+01 0.00000E+00
 -1      1100 9.10350E+01 2.18121E+01 0.00000E+00
 -1      1101 9.40350E+01 2.18121E+01 0.00000E+00
 -1      1102 9.70350E+01 2.18121E+01 0.00000E+00
 -1      1103 1.00035E+02 2.18121E+01 0.00000E+00
 -1      1104 1.03035E+02 2.18121E+01 0.00000E+00
 -1      1105 1.06035E+02 2.18121E+01 0.00000E+00
 -1      1106 1.09035E+02 2.18121E+01 0.00000E+00
 -1      1107 1.12035E+02 2.18121E+01 0.00000E+00
 -1      1108 1.15035E+02 2.18121E+01 0.00000E+00
 -1      1109 1.18035E+02 2.18121E+01 0.00000E+00
 -1      1110 1.21035E+02 2.18121E+01 0.00000E+00
 -1      1111 1.24035E+02 2.18121E+01 0.00000E+00
 -1      1112 7.00350E+01 2.18121E+01 0.00000E+00
 -1      1113 5.80350E+01 2.18121E+01 0.00000E+00
 -1      1114 5.03235E+01 2.66053E+01 0.00000E+00
 -1      1115 6.70350E+01 2.18121E+01 0.00000E+00
 -1      1116 6.40350E+01 2.18121E+01 0.00000E+00
 -1      1117 5.12552E+01 2.15748E+01 0.00000E+00
 -1      1118 5.50350E+01 2.18121E+01 0.00000E+00
 -1      1119 1.25910E+02 2.20722E+01 0.00000E+00
 -1      1120 1.25280E+02 2.43451E+01 0.00000E+00
 -1      1121 5.71500E+01 2.40200E+01 0.00000E+00
 -1      1122 5.19526E+01 2.40964E+01 0.00000E+00
 -1      1123 5.45513E+01 2.40582E+01 0.00000E+00
 -1      1124 0.00000E+00 4.85250E+01 0.00000E+00
 -1      1125 0.00000E+00 4.55750E+01 0.00000E+00
 -1      1126 0.00000E+00 4.26250E+01 0.00000E+00
 -1      1127 0.00000E+00 3.96750E+01 0.00000E+00
 -1      1128 0.00000E+00 3.67250E+01 0.00000E+00
 -1      1129 0.00000E+00 3.38000E+01 0.00000E+00
 -1      1130 0.00000E+00 3.08750E+01 0.00000E+00
 -1      1131 0.00000E+00 2.79250E+01 0.00000E+00
 -1      1132 0.00000E+00 2.49750E+01 0.00000E+00
 -1      1133 0.00000E+00 2.20250E+01 0.00000E+00
 -1      1134 0.00000E+00 1.90750E+01 0.00000E+00
 -1      1135 0.00000E+00 1.61500E+01 0.00000E+00
 -1      1136 0.00000E+00 1.32250E+01 0.00000E+00
 -1      1137 0.00000E+00 1.02750E+01 0.00000E+00
 -1      1138 0.00000E+00 7.32500E+00 0.00000E+00
 -1      1139 0.00000E+00 4.37500E+00 0.00000E+00
 -1      1140 0.00000E+00 1.45000E+00 0.00000E+00
 -1      1141 1.57500E+00 5.00000E+01 0.00000E+00
 -1      1142 4.65000E+00 5.00000E+01 0.00000E+00
 -1      1143 7.65000E+00 5.00000E+01 0.00000E+00
 -1      1144 1.06500E+01 5.00000E+01 0.00000E+00
 -1      1145 1.36500E+01 5.00000E+01 0.00000E+00
 -1      1146 1.66500E+01 5.00000E+01 0.00000E+00
 -1      1147 1.96500E+01 5.00000E+01 0.00000E+00
 -1      1148 2.26500E+01 5.00000E+01 0.00000E+00
 -1      1149 2.56500E+01 5.00000E+01 0.00000E+00
 -1      1150 2.86500E+01 5.00000E+01 0.00000E+00
 -1      1151 3.16500E+01 5.00000E+01 0.00000E+00
 -1      1152 3.46500E+01 5.00000E+01 0.00000E+00
 -1      1153 3.76500E+01 5.00000E+01 0.00000E+00
 -1      1154 4.06500E+01 5.00000E+01 0.00000E+00
 -1      1155 4.36500E+01 5.00000E+01 0.00000E+00
 -1      1156 4.66500E+01 5.00000E+01 0.00000E+00
 -1      1157 4.96500E+01 5.00000E+01 0.00000E+00
 -1      1158 5.26500E+01 5.00000E+01 0.00000E+00
 -1      1159 5.56500E+01 5.00000E+01 0.00000E+00
 -1      1160 5.86500E+01 5.00000E+01 0.00000E+00
 -1      1161 6.16500E+01 5.00000E+01 0.00000E+00
 -1      1162 6.46500E+01 5.00000E+01 0.00000E+00
 -1      1163 6.76500E+01 5.00000E+01 0.00000E+00
 -1      1164 7.06500E+01 5.00000E+01 0.00000E+00
 -1      1165 7.36500E+01 5.00000E+01 0.00000E+00
 -1      1166 7.66500E+01 5.00000E+01 0.00000E+00
 -1      1167 7.96500E+01 5.00000E+01 0.00000E+00
 -1      1168 8.26500E+01 5.00000E+01 0.00000E+00
 -1      1169 8.56500E+01 5.00000E+01 0.00000E+00
 -1      1170 8.86500E+01 5.00000E+01 0.00000E+00
 -1      1171 9.16500E+01 5.00000E+01 0.00000E+00
 -1      1172 9.46500E+01 5.00000E+01 0.00000E+00
 -1      1173 9.76500E+01 5.00000E+01 0.00000E+00
 -1      1174 1.00650E+02 5.00000E+01 0.00000E+00
 -1      1175 1.03650E+02 5.00000E+01 0.00000E+00
 -1      1176 1.06650E+02 5.00000E+01 0.00000E+00
 -1      1177 1.09650E+02 5.00000E+01 0.00000E+00
 -1      1178 1.12650E+02 5.00000E+01 0.00000E+00
 -1      1179 1.15650E+02 5.00000E+01 0.00000E+00
 -1      1180 1.18650E+02 5.00000E+01 0.00000E+00
 -1      1181 1.21650E+02 5.00000E+01 0.00000E+00
 -1      1182 1.24650E+02 5.00000E+01 0.00000E+00
 -1      1183 1.27650E+02 5.00000E+01 0.00000E+00
 -1      1184 1.30650E+02 5.00000E+01 0.00000E+00
 -1      1185 1.33650E+02 5.00000E+01 0.00000E+00
 -1      1186 1.36650E+02 5.00000E+01 0.00000E+00
 -1      1187 1.39650E+02 5.00000E+01 0.00000E+00
 -1      1188 1.42650E+02 5.00000E+01 0.00000E+00
 -1      1189 1.45650E+02 5.00000E+01 0.00000E+00
 -1      1190 1.48575E+02 5.00000E+01 0.00000E+00
 -1      1191 1.57500E+00 0.00000E+00 0.00000E+00
 -1      1192 4.65000E+00 0.00000E+00 0.00000E+00
 -1      1193 7.65000E+00 0.00000E+00 0.00000E+00
 -1      1194 1.06500E+01 0.00000E+00 0.00000E+00
 -1      1195 1.36500E+01 0.00000E+00 0.00000E+00
 -1      1196 1.66500E+01 0.00000E+00 0.00000E+00
 -1      1197 1.96500E+01 0.00000E+00 0.00000E+00
 -1      1198 2.26500E+01 0.00000E+00 0.00000E+00
 -1      1199 2.56500E+01 0.00000E+00 0.00000E+00
 -1      1200 2.86500E+01 0.00000E+00 0.00000E+00
 -1      1201 3.16500E+01 0.00000E+00 0.00000E+00
 -1      1202 3.46500E+01 0.00000E+00 0.00000E+00
 -1      1203 3.76500E+01 0.00000E+00 0.00000E+00
 -1      1204 4.06500E+01 0.00000E+00 0.00000E+00
 -1      1205 4.36500E+01 0.00000E+00 0.00000E+00
 -1      1206 4.66500E+01 0.00000E+00 0.00000E+00
 -1      1207 4.96500E+01 0.00000E+00 0.00000E+00
 -1      1208 5.26500E+01 0.00000E+00 0.00000E+00
 -1      1209 5.56500E+01 0.00000E+00 0.00000E+00
 -1      1210 5.86500E+01 0.00000E+00 0.00000E+00
 -1      1211 6.16500E+01 0.00000E+00 0.00000E+00
 -1      1212 6.46500E+01 0.00000E+00 0.00000E+00
 -1      1213 6.76500E+01 0.00000E+00 0.00000E+00
 -1      1214 7.06500E+01 0.00000E+00 0.00000E+00
 -1      1215 7.36500E+01 0.00000E+00 0.00000E+00
 -1      1216 7.66500E+01 0.00000E+00 0.00000E+00
 -1      1217 7.96500E+01 0.00000E+00 0.00000E+00
 -1      1218 8.26500E+01 0.00000E+00 0.00000E+00
 -1      1219 8.56500E+01 0.00000E+00 0.00000E+00
 -1      1220 8.86500E+01 0.00000E+00 0.00000E+00
 -1      1221 9.16500E+01 0.00000E+00 0.00000E+00
 -1      1222 9.46500E+01 0.00000E+00 0.00000E+00
 -1      1223 9.76500E+01 0.00000E+00 0.00000E+00
 -1      1224 1.00650E+02 0.00000E+00 0.00000E+00
 -1      1225 1.03650E+02 0.00000E+00 0.00000E+00
 -1      1226 1.06650E+02 0.00000E+00 0.00000E+00
 -1      1227 1.09650E+02 0.00000E+00 0.00000E+00
 -1      1228 1.12650E+02 0.00000E+00 0.00000E+00
 -1      1229 1.15650E+02 0.00000E+00 0.00000E+00
 -1      1230 1.18650E+02 0.00000E+00 0.00000E+00
 -1      1231 1.21650E+02 0.00000E+00 0.00000E+00
 -1      1232 1.24650E+02 0.00000E+00 0.00000E+00
 -1      1233 1.27650E+02 0.00000E+00 0.00000E+00
 -1      1234 1.30650E+02 0.00000E+00 0.00000E+00
 -1      1235 1.33650E+02 0.00000E+00 0.00000E+00
 -1      1236 1.36650E+02 0.00000E+00 0.00000E+00
 -1      1237 1.39650E+02 0.00000E+00 0.00000E+00
 -1      1238 1.42650E+02 0.00000E+00 0.00000E+00
 -1      1239 1.45650E+02 0.00000E+00 0.00000E+00
 -1      1240 1.48575E+02 0.00000E+00 0.00000E+00
 -1      1241 1.50000E+02 1.47500E+00 0.00000E+00
 -1      1242 1.50000E+02 4.42500E+00 0.00000E+00
 -1      1243 1.50000E+02 7.37500E+00 0.00000E+00
 -1      1244 1.50000E+02 1.03250E+01 0.00000E+00
 -1      1245 1.50000E+02 1.32750E+01 0.00000E+00
 -1      1246 1.50000E+02 1.62000E+01 0.00000E+00
 -1      1247 1.50000E+02 1.91250E+01 0.00000E+00
 -1      1248 1.50000E+02 2.20750E+01 0.00000E+00
 -1      1249 1.50000E+02 2.50250E+01 0.00000E+00
 -1      1250 1.50000E+02 2.79750E+01 0.00000E+00
 -1      1251 1.50000E+02 3.09250E+01 0.00000E+00
 -1      1252 1.50000E+02 3.38500E+01 0.00000E+00
 -1      1253 1.50000E+02 3.67750E+01 0.00000E+00
 -1      1254 1.50000E+02 3.97250E+01 0.00000E+00
 -1      1255 1.50000E+02 4.26750E+01 0.00000E+00
 -1      1256 1.50000E+02 4.56250E+01 0.00000E+00
 -1      1257 1.50000E+02 4.85500E+01 0.00000E+00
 -1      1258 3.48790E+01 2.05489E+01 0.00000E+00
 -1      1259 3.45881E+01 1.91554E+01 0.00000E+00
 -1      1260 3.39986E+01 1.78092E+01 0.00000E+00
 -1      1261 3.31235E+01 1.65963E+01 0.00000E+00
 -1      1262 3.19920E+01 1.55835E+01 0.00000E+00
 -1      1263 3.06848E+01 1.48454E+01 0.00000E+00
 -1      1264 2.92816E+01 1.44092E+01 0.00000E+00
 -1      1265 2.78262E+01 1.42755E+01 0.00000E+00
 -1      1266 2.64154E+01 1.44378E+01 0.00000E+00
 -1      1267 2.50292E+01 1.48982E+01 0.00000E+00
 -1      1268 2.37544E+01 1.56468E+01 0.00000E+00
 -1      1269 2.26558E+01 1.66572E+01 0.00000E+00
 -1      1270 2.17748E+01 1.79167E+01 0.00000E+00
 -1      1271 2.11822E+01 1.93654E+01 0.00000E+00
 -1      1272 2.09288E+01 2.08643E+01 0.00000E+00
 -1      1273 2.10034E+01 2.23729E+01 0.00000E+00
 -1      1274 2.13927E+01 2.38121E+01 0.00000E+00
 -1      1275 2.21037E+01 2.51748E+01 0.00000E+00
 -1      1276 2.31123E+01 2.63658E+01 0.00000E+00
 -1      1277 2.43304E+01 2.72864E+01 0.00000E+00
 -1      1278 2.57198E+01 2.79212E+01 0.00000E+00
 -1      1279 2.71845E+01 2.82365E+01 0.00000E+00
 -1      1280 2.86128E+01 2.82402E+01 0.00000E+00
 -1      1281 2.99316E+01 2.79786E+01 0.00000E+00
 -1      1282 3.11667E+01 2.74747E+01 0.00000E+00
 -1      1283 3.23194E+01 2.67170E+01 0.00000E+00
 -1      1284 3.33060E+01 2.57421E+01 0.00000E+00
 -1      1285 3.40647E+01 2.46219E+01 0.00000E+00
 -1      1286 3.46081E+01 2.33304E+01 0.00000E+00
 -1      1287 3.48835E+01 2.19567E+01 0.00000E+00
 -1      1288 1.57500E+00 4.85250E+01 0.00000E+00
 -1      1289 1.29900E+00 4.48375E+01 0.00000E+00
 -1      1290 1.29900E+00 4.63125E+01 0.00000E+00
 -1      1291 1.29900E+00 4.18875E+01 0.00000E+00
 -1      1292 1.29900E+00 4.33625E+01 0.00000E+00
 -1      1293 2.59800E+00 4.41000E+01 0.00000E+00
 -1      1294 1.29900E+00 3.89375E+01 0.00000E+00
 -1      1295 1.29900E+00 4.04125E+01 0.00000E+00
 -1      1296 2.59800E+00 4.11500E+01 0.00000E+00
 -1      1297 1.29900E+00 3.59875E+01 0.00000E+00
 -1      1298 1.29900E+00 3.74625E+01 0.00000E+00
 -1      1299 2.59800E+00 3.82000E+01 0.00000E+00
 -1      1300 1.29900E+00 3.30875E+01 0.00000E+00
 -1      1301 1.29900E+00 3.45375E+01 0.00000E+00
 -1      1302 2.59800E+00 3.52750E+01 0.00000E+00
 -1      1303 1.29900E+00 3.01375E+01 0.00000E+00
 -1      1304 1.29900E+00 3.16125E+01 0.00000E+00
 -1      1305 2.59800E+00 3.23500E+01 0.00000E+00
 -1      1306 1.29900E+00 2.71875E+01 0.00000E+00
 -1      1307 1.29900E+00 2.86625E+01 0.00000E+00
 -1      1308 2.59800E+00 2.94000E+01 0.00000E+00
 -1      1309 1.29900E+00 2.42375E+01 0.00000E+00
 -1      1310 1.29900E+00 2.57125E+01 0.00000E+00
 -1      1311 2.59800E+00 2.64500E+01 0.00000E+00
 -1      1312 1.29900E+00 2.12875E+01 0.00000E+00
 -1      1313 1.29900E+00 2.27625E+01 0.00000E+00
 -1      1314 2.59800E+00 2.35000E+01 0.00000E+00
 -1      1315 1.29900E+00 1.83375E+01 0.00000E+00
 -1      1316 1.29900E+00 1.98125E+01 0.00000E+00
 -1      1317 2.59800E+00 2.05500E+01 0.00000E+00
 -1      1318 1.29900E+00 1.54375E+01 0.00000E+00
 -1      1319 1.29900E+00 1.68875E+01 0.00000E+00
 -1      1320 2.59800E+00 1.76250E+01 0.00000E+00
 -1      1321 1.29900E+00 1.24875E+01 0.00000E+00
 -1      1322 1.29900E+00 1.39625E+01 0.00000E+00
 -1      1323 2.59800E+00 1.47000E+01 0.00000E+00
 -1      1324 1.29900E+00 9.53750E+00 0.00000E+00
 -1      1325 1.29900E+00 1.10125E+01 0.00000E+00
 -1      1326 2.59800E+00 1.17500E+01 0.00000E+00
 -1      1327 1.29900E+00 6.58750E+00 0.00000E+00
 -1      1328 1.29900E+00 8.06250E+00 0.00000E+00
 -1      1329 2.59800E+00 8.80000E+00 0.00000E+00
 -1      1330 1.29900E+00 3.63750E+00 0.00000E+00
 -1      1331 1.29900E+00 5.11250E+00 0.00000E+00
 -1      1332 2.59800E+00 5.85000E+00 0.00000E+00
 -1      1333 1.43700E+00 1.09375E+00 0.00000E+00
 -1      1334 1.43700E+00 2.54375E+00 0.00000E+00
 -1      1335 2.73600E+00 3.28125E+00 0.00000E+00
 -1      1336 3.01200E+00 1.09375E+00 0.00000E+00
 -1      1337 3.90000E+00 4.87010E+01 0.00000E+00
 -1      1338 5.40000E+00 4.87010E+01 0.00000E+00
 -1      1339 6.90000E+00 4.87010E+01 0.00000E+00
 -1      1340 8.40000E+00 4.87010E+01 0.00000E+00
 -1      1341 6.15000E+00 4.74020E+01 0.00000E+00
 -1      1342 9.90000E+00 4.87010E+01 0.00000E+00
 -1      1343 1.14000E+01 4.87010E+01 0.00000E+00
 -1      1344 9.15000E+00 4.74020E+01 0.00000E+00
 -1      1345 1.29000E+01 4.87010E+01 0.00000E+00
 -1      1346 1.44000E+01 4.87010E+01 0.00000E+00
 -1      1347 1.21500E+01 4.74020E+01 0.00000E+00
 -1      1348 1.59000E+01 4.87010E+01 0.00000E+00
 -1      1349 1.74000E+01 4.87010E+01 0.00000E+00
 -1      1350 1.51500E+01 4.74020E+01 0.00000E+00
 -1      1351 1.89000E+01 4.87010E+01 0.00000E+00
 -1      1352 2.04000E+01 4.87010E+01 0.00000E+00
 -1      1353 1.81500E+01 4.74020E+01 0.00000E+00
 -1      1354 2.19000E+01 4.87010E+01 0.00000E+00
 -1      1355 2.34000E+01 4.87010E+01 0.00000E+00
 -1      1356 2.11500E+01 4.74020E+01 0.00000E+00
 -1      1357 2.49000E+01 4.87010E+01 0.00000E+00
 -1      1358 2.64000E+01 4.87010E+01 0.00000E+00
 -1      1359 2.41500E+01 4.74020E+01 0.00000E+00
 -1      1360 2.79000E+01 4.87010E+01 0.00000E+00
 -1      1361 2.94000E+01 4.87010E+01 0.00000E+00
 -1      1362 2.71500E+01 4.74020E+01 0.00000E+00
 -1      1363 3.09000E+01 4.87010E+01 0.00000E+00
 -1      1364 3.24000E+01 4.87010E+01 0.00000E+00
 -1      1365 3.01500E+01 4.74020E+01 0.00000E+00
 -1      1366 3.39000E+01 4.87010E+01 0.00000E+00
 -1      1367 3.54000E+01 4.87010E+01 0.00000E+00
 -1      1368 3.31500E+01 4.74020E+01 0.00000E+00
 -1      1369 3.69000E+01 4.87010E+01 0.00000E+00
 -1      1370 3.84000E+01 4.87010E+01 0.00000E+00
 -1      1371 3.61500E+01 4.74020E+01 0.00000E+00
 -1      1372 3.99000E+01 4.87010E+01 0.00000E+00
 -1      1373 4.14000E+01 4.87010E+01 0.00000E+00
 -1      1374 3.91500E+01 4.74020E+01 0.00000E+00
 -1      1375 4.29000E+01 4.87010E+01 0.00000E+00
 -1      1376 4.44000E+01 4.87010E+01 0.00000E+00
 -1      1377 4.21500E+01 4.74020E+01 0.00000E+00
 -1      1378 4.59000E+01 4.87010E+01 0.00000E+00
 -1      1379 4.74000E+01 4.87010E+01 0.00000E+00
 -1      1380 4.51500E+01 4.74020E+01 0.00000E+00
 -1      1381 4.89000E+01 4.87010E+01 0.00000E+00
 -1      1382 5.04000E+01 4.87010E+01 0.00000E+00
 -1      1383 4.81500E+01 4.74020E+01 0.00000E+00
 -1      1384 5.19000E+01 4.87010E+01 0.00000E+00
 -1      1385 5.34000E+01 4.87010E+01 0.00000E+00
 -1      1386 5.11500E+01 4.74020E+01 0.00000E+00
 -1      1387 5.49000E+01 4.87010E+01 0.00000E+00
 -1      1388 5.64000E+01 4.87010E+01 0.00000E+00
 -1      1389 5.41500E+01 4.74020E+01 0.00000E+00
 -1      1390 5.79000E+01 4.87010E+01 0.00000E+00
 -1      1391 5.94000E+01 4.87010E+01 0.00000E+00
 -1      1392 5.71500E+01 4.74020E+01 0.00000E+00
 -1      1393 6.09000E+01 4.87010E+01 0.00000E+00
 -1      1394 6.24000E+01 4.87010E+01 0.00000E+00
 -1      1395 6.01500E+01 4.74020E+01 0.00000E+00
 -1      1396 6.39000E+01 4.87010E+01 0.00000E+00
 -1      1397 6.54000E+01 4.87010E+01 0.00000E+00
 -1      1398 6.31500E+01 4.74020E+01 0.00000E+00
 -1      1399 6.69000E+01 4.87010E+01 0.00000E+00
 -1      1400 6.84000E+01 4.87010E+01 0.00000E+00
 -1      1401 6.61500E+01 4.74020E+01 0.00000E+00
 -1      1402 6.99000E+01 4.87010E+01 0.00000E+00
 -1      1403 7.14000E+01 4.87010E+01 0.00000E+00
 -1      1404 6.91500E+01 4.74020E+01 0.00000E+00
 -1      1405 7.29000E+01 4.87010E+01 0.00000E+00
 -1      1406 7.44000E+01 4.87010E+01 0.00000E+00
 -1      1407 7.21500E+01 4.74020E+01 0.00000E+00
 -1      1408 7.59000E+01 4.87010E+01 0.00000E+00
 -1      1409 7.74000E+01 4.87010E+01 0.00000E+00
 -1      1410 7.51500E+01 4.74020E+01 0.00000E+00
 -1      1411 7.89000E+01 4.87010E+01 0.00000E+00
 -1      1412 8.04000E+01 4.87010E+01 0.00000E+00
 -1      1413 7.81500E+01 4.74020E+01 0.00000E+00
 -1      1414 8.19000E+01 4.87010E+01 0.00000E+00
 -1      1415 8.34000E+01 4.87010E+01 0.00000E+00
 -1      1416 8.11500E+01 4.74020E+01 0.00000E+00
 -1      1417 8.49000E+01 4.87010E+01 0.00000E+00
 -1      1418 8.64000E+01 4.87010E+01 0.00000E+00
 -1      1419 8.41500E+01 4.74020E+01 0.00000E+00
 -1      1420 8.79000E+01 4.87010E+01 0.00000E+00
 -1      1421 8.94000E+01 4.87010E+01 0.00000E+00
 -1      1422 8.71500E+01 4.74020E+01 0.00000E+00
 -1      1423 9.09000E+01 4.87010E+01 0.00000E+00
 -1      1424 9.24000E+01 4.87010E+01 0.00000E+00
 -1      1425 9.01500E+01 4.74020E+01 0.00000E+00
 -1      1426 9.39000E+01 4.87010E+01 0.00000E+00
 -1      1427 9.54000E+01 4.87010E+01 0.00000E+00
 -1      1428 9.31500E+01 4.74020E+01 0.00000E+00
 -1      1429 9.69000E+01 4.87010E+01 0.00000E+00
 -1      1430 9.84000E+01 4.87010E+01 0.00000E+00
 -1      1431 9.61500E+01 4.74020E+01 0.00000E+00
 -1      1432 9.99000E+01 4.87010E+01 0.00000E+00
 -1      1433 1.01400E+02 4.87010E+01 0.00000E+00
 -1      1434 9.91500E+01 4.74020E+01 0.00000E+00
 -1      1435 1.02900E+02 4.87010E+01 0.00000E+00
 -1      1436 1.04400E+02 4.87010E+01 0.00000E+00
 -1      1437 1.02150E+02 4.74020E+01 0.00000E+00
 -1      1438 1.05900E+02 4.87010E+01 0.00000E+00
 -1      1439 1.07400E+02 4.87010E+01 0.00000E+00
 -1      1440 1.05150E+02 4.74020E+01 0.00000E+00
 -1      1441 1.08900E+02 4.87010E+01 0.00000E+00
 -1      1442 1.10400E+02 4.87010E+01 0.00000E+00
 -1      1443 1.08150E+02 4.74020E+01 0.00000E+00
 -1      1444 1.11900E+02 4.87010E+01 0.00000E+00
 -1      1445 1.13400E+02 4.87010E+01 0.00000E+00
 -1      1446 1.11150E+02 4.74020E+01 0.00000E+00
 -1      1447 1.14900E+02 4.87010E+01 0.00000E+00
 -1      1448 1.16400E+02 4.87010E+01 0.00000E+00
 -1      1449 1.14150E+02 4.74020E+01 0.00000E+00
 -1      1450 1.17900E+02 4.87010E+01 0.00000E+00
 -1      1451 1.19400E+02 4.87010E+01 0.00000E+00
 -1      1452 1.17150E+02 4.74020E+01 0.00000E+00
 -1      1453 1.20900E+02 4.87010E+01 0.00000E+00
 -1      1454 1.22400E+02 4.87010E+01 0.00000E+00
 -1      1455 1.20150E+02 4.74020E+01 0.00000E+00
 -1      1456 1.23900E+02 4.87010E+01 0.00000E+00
 -1      1457 1.25400E+02 4.87010E+01 0.00000E+00
 -1      1458 1.23150E+02 4.74020E+01 0.00000E+00
 -1      1459 1.26900E+02 4.87010E+01 0.00000E+00
 -1      1460 1.28400E+02 4.87010E+01 0.00000E+00
 -1      1461 1.26150E+02 4.74020E+01 0.00000E+00
 -1      1462 1.29900E+02 4.87010E+01 0.00000E+00
 -1      1463 1.31400E+02 4.87010E+01 0.00000E+00
 -1      1464 1.29150E+02 4.74020E+01 0.00000E+00
 -1      1465 1.32900E+02 4.87010E+01 0.00000E+00
 -1      1466 1.34400E+02 4.87010E+01 0.00000E+00
 -1      1467 1.32150E+02 4.74020E+01 0.00000E+00
 -1      1468 1.35900E+02 4.87010E+01 0.00000E+00
 -1      1469 1.37400E+02 4.87010E+01 0.00000E+00
 -1      1470 1.35150E+02 4.74020E+01 0.00000E+00
 -1      1471 1.38900E+02 4.87010E+01 0.00000E+00
 -1      1472 1.40400E+02 4.87010E+01 0.00000E+00
 -1      1473 1.38150E+02 4.74020E+01 0.00000E+00
 -1      1474 1.41900E+02 4.87010E+01 0.00000E+00
 -1      1475 1.43400E+02 4.87010E+01 0.00000E+00
 -1      1476 1.41150E+02 4.74020E+01 0.00000E+00
 -1      1477 1.44900E+02 4.87010E+01 0.00000E+00
 -1      1478 1.46400E+02 4.87010E+01 0.00000E+00
 -1      1479 1.44150E+02 4.74020E+01 0.00000E+00
 -1      1480 1.48575E+02 4.85500E+01 0.00000E+00
 -1      1481 1.47825E+02 4.72510E+01 0.00000E+00
 -1      1482 6.01200E+00 1.09375E+00 0.00000E+00
 -1      1483 4.51200E+00 1.09375E+00 0.00000E+00
 -1      1484 4.37400E+00 2.18750E+00 0.00000E+00
 -1      1485 9.01200E+00 1.09375E+00 0.00000E+00
 -1      1486 7.51200E+00 1.09375E+00 0.00000E+00
 -1      1487 7.37400E+00 2.18750E+00 0.00000E+00
 -1      1488 1.20120E+01 1.09375E+00 0.00000E+00
 -1      1489 1.05120E+01 1.09375E+00 0.00000E+00
 -1      1490 1.03740E+01 2.18750E+00 0.00000E+00
 -1      1491 1.50120E+01 1.09375E+00 0.00000E+00
 -1      1492 1.35120E+01 1.09375E+00 0.00000E+00
 -1      1493 1.33740E+01 2.18750E+00 0.00000E+00
 -1      1494 1.80120E+01 1.09375E+00 0.00000E+00
 -1      1495 1.65120E+01 1.09375E+00 0.00000E+00
 -1      1496 1.63740E+01 2.18750E+00 0.00000E+00
 -1      1497 2.10120E+01 1.09375E+00 0.00000E+00
 -1      1498 1.95120E+01 1.09375E+00 0.00000E+00
 -1      1499 1.93740E+01 2.18750E+00 0.00000E+00
 -1      1500 2.40120E+01 1.09375E+00 0.00000E+00
 -1      1501 2.25120E+01 1.09375E+00 0.00000E+00
 -1      1502 2.23740E+01 2.18750E+00 0.00000E+00
 -1      1503 2.70120E+01 1.09375E+00 0.00000E+00
 -1      1504 2.55120E+01 1.09375E+00 0.00000E+00
 -1      1505 2.53740E+01 2.18750E+00 0.00000E+00
 -1      1506 3.00120E+01 1.09375E+00 0.00000E+00
 -1      1507 2.85120E+01 1.09375E+00 0.00000E+00
 -1      1508 2.83740E+01 2.18750E+00 0.00000E+00
 -1      1509 3.30120E+01 1.09375E+00 0.00000E+00
 -1      1510 3.15120E+01 1.09375E+00 0.00000E+00
 -1      1511 3.13740E+01 2.18750E+00 0.00000E+00
 -1      1512 3.60120E+01 1.09375E+00 0.00000E+00
 -1      1513 3.45120E+01 1.09375E+00 0.00000E+00
 -1      1514 3.43740E+01 2.18750E+00 0.00000E+00
 -1      1515 3.90120E+01 1.09375E+00 0.00000E+00
 -1      1516 3.75120E+01 1.09375E+00 0.00000E+00
 -1      1517 3.73740E+01 2.18750E+00 0.00000E+00
 -1      1518 4.20120E+01 1.09375E+00 0.00000E+00
 -1      1519 4.05120E+01 1.09375E+00 0.00000E+00
 -1      1520 4.03740E+01 2.18750E+00 0.00000E+00
 -1      1521 4.50120E+01 1.09375E+00 0.00000E+00
 -1      1522 4.35120E+01 1.09375E+00 0.00000E+00
 -1      1523 4.33740E+01 2.18750E+00 0.00000E+00
 -1      1524 4.80120E+01 1.09375E+00 0.00000E+00
 -1      1525 4.65120E+01 1.09375E+00 0.00000E+00
 -1      1526 4.63740E+01 2.18750E+00 0.00000E+00
 -1      1527 5.10120E+01 1.09375E+00 0.00000E+00
 -1      1528 4.95120E+01 1.09375E+00 0.00000E+00
 -1      1529 4.93740E+01 2.18750E+00 0.00000E+00
 -1      1530 5.40120E+01 1.09375E+00 0.00000E+00
 -1      1531 5.25120E+01 1.09375E+00 0.00000E+00
 -1      1532 5.23740E+01 2.18750E+00 0.00000E+00
 -1      1533 5.70120E+01 1.09375E+00 0.00000E+00
 -1      1534 5.55120E+01 1.09375E+00 0.00000E+00
 -1      1535 5.53740E+01 2.18750E+00 0.00000E+00
 -1      1536 6.00120E+01 1.09375E+00 0.00000E+00
 -1      1537 5.85120E+01 1.09375E+00 0.00000E+00
 -1      1538 5.83740E+01 2.18750E+00 0.00000E+00
 -1      1539 6.30120E+01 1.09375E+00 0.00000E+00
 -1      1540 6.15120E+01 1.09375E+00 0.00000E+00
 -1      1541 6.13740E+01 2.18750E+00 0.00000E+00
 -1      1542 6.60120E+01 1.09375E+00 0.00000E+00
 -1      1543 6.45120E+01 1.09375E+00 0.00000E+00
 -1      1544 6.43740E+01 2.18750E+00 0.00000E+00
 -1      1545 6.90120E+01 1.09375E+00 0.00000E+00
 -1      1546 6.75120E+01 1.09375E+00 0.00000E+00
 -1      1547 6.73740E+01 2.18750E+00 0.00000E+00
 -1      1548 7.20120E+01 1.09375E+00 0.00000E+00
 -1      1549 7.05120E+01 1.09375E+00 0.00000E+00
 -1      1550 7.03740E+01 2.18750E+00 0.00000E+00
 -1      1551 7.50120E+01 1.09375E+00 0.00000E+00
 -1      1552 7.35120E+01 1.09375E+00 0.00000E+00
 -1      1553 7.33740E+01 2.18750E+00 0.00000E+00
 -1      1554 7.80120E+01 1.09375E+00 0.00000E+00
 -1      1555 7.65120E+01 1.09375E+00 0.00000E+00
 -1      1556 7.63740E+01 2.18750E+00 0.00000E+00
 -1      1557 8.10120E+01 1.09375E+00 0.00000E+00
 -1      1558 7.95120E+01 1.09375E+00 0.00000E+00
 -1      1559 7.93740E+01 2.18750E+00 0.00000E+00
 -1      1560 8.40120E+01 1.09375E+00 0.00000E+00
 -1      1561 8.25120E+01 1.09375E+00 0.00000E+00
 -1      1562 8.23740E+01 2.18750E+00 0.00000E+00
 -1      1563 8.70120E+01 1.09375E+00 0.00000E+00
 -1      1564 8.55120E+01 1.09375E+00 0.00000E+00
 -1      1565 8.53740E+01 2.18750E+00 0.00000E+00
 -1      1566 9.00120E+01 1.09375E+00 0.00000E+00
 -1      1567 8.85120E+01 1.09375E+00 0.00000E+00
 -1      1568 8.83740E+01 2.18750E+00 0.00000E+00
 -1      1569 9.30120E+01 1.09375E+00 0.00000E+00
 -1      1570 9.15120E+01 1.09375E+00 0.00000E+00
 -1      1571 9.13740E+01 2.18750E+00 0.00000E+00
 -1      1572 9.60120E+01 1.09375E+00 0.00000E+00
 -1      1573 9.45120E+01 1.09375E+00 0.00000E+00
 -1      1574 9.43740E+01 2.18750E+00 0.00000E+00
 -1      1575 9.90120E+01 1.09375E+00 0.00000E+00
 -1      1576 9.75120E+01 1.09375E+00 0.00000E+00
 -1      1577 9.73740E+01 2.18750E+00 0.00000E+00
 -1      1578 1.02012E+02 1.09375E+00 0.00000E+00
 -1      1579 1.00512E+02 1.09375E+00 0.00000E+00
 -1      1580 1.00374E+02 2.18750E+00 0.00000E+00
 -1      1581 1.05012E+02 1.09375E+00 0.00000E+00
 -1      1582 1.03512E+02 1.09375E+00 0.00000E+00
 -1      1583 1.03374E+02 2.18750E+00 0.00000E+00
 -1      1584 1.08012E+02 1.09375E+00 0.00000E+00
 -1      1585 1.06512E+02 1.09375E+00 0.00000E+00
 -1      1586 1.06374E+02 2.18750E+00 0.00000E+00
 -1      1587 1.11012E+02 1.09375E+00 0.00000E+00
 -1      1588 1.09512E+02 1.09375E+00 0.00000E+00
 -1      1589 1.09374E+02 2.18750E+00 0.00000E+00
 -1      1590 1.14012E+02 1.09375E+00 0.00000E+00
 -1      1591 1.12512E+02 1.09375E+00 0.00000E+00
 -1      1592 1.12374E+02 2.18750E+00 0.00000E+00
 -1      1593 1.17012E+02 1.09375E+00 0.00000E+00
 -1      1594 1.15512E+02 1.09375E+00 0.00000E+00
 -1      1595 1.15374E+02 2.18750E+00 0.00000E+00
 -1      1596 1.20012E+02 1.09375E+00 0.00000E+00
 -1      1597 1.18512E+02 1.09375E+00 0.00000E+00
 -1      1598 1.18374E+02 2.18750E+00 0.00000E+00
 -1      1599 1.23012E+02 1.09375E+00 0.00000E+00
 -1      1600 1.21512E+02 1.09375E+00 0.00000E+00
 -1      1601 1.21374E+02 2.18750E+00 0.00000E+00
 -1      1602 1.26012E+02 1.09375E+00 0.00000E+00
 -1      1603 1.24512E+02 1.09375E+00 0.00000E+00
 -1      1604 1.24374E+02 2.18750E+00 0.00000E+00
 -1      1605 1.29012E+02 1.09375E+00 0.00000E+00
 -1      1606 1.27512E+02 1.09375E+00 0.00000E+00
 -1      1607 1.27374E+02 2.18750E+00 0.00000E+00
 -1      1608 1.32012E+02 1.09375E+00 0.00000E+00
 -1      1609 1.30512E+02 1.09375E+00 0.00000E+00
 -1      1610 1.30374E+02 2.18750E+00 0.00000E+00
 -1      1611 1.35012E+02 1.09375E+00 0.00000E+00
 -1      1612 1.33512E+02 1.09375E+00 0.00000E+00
 -1      1613 1.33374E+02 2.18750E+00 0.00000E+00
 -1      1614 1.38012E+02 1.09375E+00 0.00000E+00
 -1      1615 1.36512E+02 1.09375E+00 0.00000E+00
 -1      1616 1.36374E+02 2.18750E+00 0.00000E+00
 -1      1617 1.41012E+02 1.09375E+00 0.00000E+00
 -1      1618 1.39512E+02 1.09375E+00 0.00000E+00
 -1      1619 1.39374E+02 2.18750E+00 0.00000E+00
 -1      1620 1.44012E+02 1.09375E+00 0.00000E+00
 -1      1621 1.42512E+02 1.09375E+00 0.00000E+00
 -1      1622 1.42374E+02 2.18750E+00 0.00000E+00
 -1      1623 1.47012E+02 1.09375E+00 0.00000E+00
 -1      1624 1.45512E+02 1.09375E+00 0.00000E+00
 -1      1625 1.45374E+02 2.18750E+00 0.00000E+00
 -1      1626 1.48575E+02 1.47500E+00 0.00000E+00
 -1      1627 1.48701E+02 5.16250E+00 0.00000E+00
 -1      1628 1.48701E+02 3.68750E+00 0.00000E+00
 -1      1629 1.48701E+02 8.11250E+00 0.00000E+00
 -1      1630 1.48701E+02 6.63750E+00 0.00000E+00
 -1      1631 1.47402E+02 5.90000E+00 0.00000E+00
 -1      1632 1.48701E+02 1.10625E+01 0.00000E+00
 -1      1633 1.48701E+02 9.58750E+00 0.00000E+00
 -1      1634 1.47402E+02 8.85000E+00 0.00000E+00
 -1      1635 1.48701E+02 1.40125E+01 0.00000E+00
 -1      1636 1.48701E+02 1.25375E+01 0.00000E+00
 -1      1637 1.47402E+02 1.18000E+01 0.00000E+00
 -1      1638 1.48701E+02 1.69125E+01 0.00000E+00
 -1      1639 1.48701E+02 1.54625E+01 0.00000E+00
 -1      1640 1.47402E+02 1.47250E+01 0.00000E+00
 -1      1641 1.48701E+02 1.98625E+01 0.00000E+00
 -1      1642 1.48701E+02 1.83875E+01 0.00000E+00
 -1      1643 1.47402E+02 1.76500E+01 0.00000E+00
 -1      1644 1.48701E+02 2.28125E+01 0.00000E+00
 -1      1645 1.48701E+02 2.13375E+01 0.00000E+00
 -1      1646 1.47402E+02 2.06000E+01 0.00000E+00
 -1      1647 1.48701E+02 2.57625E+01 0.00000E+00
 -1      1648 1.48701E+02 2.42875E+01 0.00000E+00
 -1      1649 1.47402E+02 2.35500E+01 0.00000E+00
 -1      1650 1.48701E+02 2.87125E+01 0.00000E+00
 -1      1651 1.48701E+02 2.72375E+01 0.00000E+00
 -1      1652 1.47402E+02 2.65000E+01 0.00000E+00
 -1      1653 1.48701E+02 3.16625E+01 0.00000E+00
 -1      1654 1.48701E+02 3.01875E+01 0.00000E+00
 -1      1655 1.47402E+02 2.94500E+01 0.00000E+00
 -1      1656 1.48701E+02 3.45625E+01 0.00000E+00
 -1      1657 1.48701E+02 3.31125E+01 0.00000E+00
 -1      1658 1.47402E+02 3.23750E+01 0.00000E+00
 -1      1659 1.48701E+02 3.75125E+01 0.00000E+00
 -1      1660 1.48701E+02 3.60375E+01 0.00000E+00
 -1      1661 1.47402E+02 3.53000E+01 0.00000E+00
 -1      1662 1.48701E+02 4.04625E+01 0.00000E+00
 -1      1663 1.48701E+02 3.89875E+01 0.00000E+00
 -1      1664 1.47402E+02 3.82500E+01 0.00000E+00
 -1      1665 1.48701E+02 4.34125E+01 0.00000E+00
 -1      1666 1.48701E+02 4.19375E+01 0.00000E+00
 -1      1667 1.47402E+02 4.12000E+01 0.00000E+00
 -1      1668 1.48263E+02 4.60692E+01 0.00000E+00
 -1      1669 1.48263E+02 4.45942E+01 0.00000E+00
 -1      1670 1.46964E+02 4.38568E+01 0.00000E+00
 -1      1671 1.46088E+02 4.62202E+01 0.00000E+00
 -1      1672 3.54484E+01 2.01245E+01 0.00000E+00
 -1      1673 3.55237E+01 2.08466E+01 0.00000E+00
 -1      1674 3.50271E+01 1.86500E+01 0.00000E+00
 -1      1675 3.52383E+01 1.93147E+01 0.00000E+00
 -1      1676 3.43334E+01 1.71740E+01 0.00000E+00
 -1      1677 3.47157E+01 1.78449E+01 0.00000E+00
 -1      1678 3.33048E+01 1.59471E+01 0.00000E+00
 -1      1679 3.37883E+01 1.64852E+01 0.00000E+00
 -1      1680 3.21172E+01 1.47257E+01 0.00000E+00
 -1      1681 3.27637E+01 1.51885E+01 0.00000E+00
 -1      1682 3.05862E+01 1.41818E+01 0.00000E+00
 -1      1683 3.12346E+01 1.44610E+01 0.00000E+00
 -1      1684 2.90337E+01 1.36990E+01 0.00000E+00
 -1      1685 2.97824E+01 1.38479E+01 0.00000E+00
 -1      1686 2.74697E+01 1.37087E+01 0.00000E+00
 -1      1687 2.81679E+01 1.36997E+01 0.00000E+00
 -1      1688 2.59318E+01 1.39186E+01 0.00000E+00
 -1      1689 2.66369E+01 1.37638E+01 0.00000E+00
 -1      1690 2.44415E+01 1.44958E+01 0.00000E+00
 -1      1691 2.51145E+01 1.41911E+01 0.00000E+00
 -1      1692 2.31199E+01 1.54108E+01 0.00000E+00
 -1      1693 2.37146E+01 1.49710E+01 0.00000E+00
 -1      1694 2.19824E+01 1.65670E+01 0.00000E+00
 -1      1695 2.24791E+01 1.60012E+01 0.00000E+00
 -1      1696 2.10200E+01 1.79508E+01 0.00000E+00
 -1      1697 2.13962E+01 1.72629E+01 0.00000E+00
 -1      1698 2.05345E+01 1.95878E+01 0.00000E+00
 -1      1699 2.07476E+01 1.88362E+01 0.00000E+00
 -1      1700 2.02992E+01 2.11975E+01 0.00000E+00
 -1      1701 2.03425E+01 2.04597E+01 0.00000E+00
 -1      1702 2.04659E+01 2.28488E+01 0.00000E+00
 -1      1703 2.03449E+01 2.20869E+01 0.00000E+00
 -1      1704 2.09927E+01 2.43536E+01 0.00000E+00
 -1      1705 2.07319E+01 2.36830E+01 0.00000E+00
 -1      1706 2.17635E+01 2.58953E+01 0.00000E+00
 -1      1707 2.13080E+01 2.52164E+01 0.00000E+00
 -1      1708 2.29936E+01 2.70329E+01 0.00000E+00
 -1      1709 2.24531E+01 2.65228E+01 0.00000E+00
 -1      1710 2.43145E+01 2.80779E+01 0.00000E+00
 -1      1711 2.36414E+01 2.76763E+01 0.00000E+00
 -1      1712 2.58951E+01 2.85759E+01 0.00000E+00
 -1      1713 2.51888E+01 2.83424E+01 0.00000E+00
 -1      1714 2.74918E+01 2.89216E+01 0.00000E+00
 -1      1715 2.67415E+01 2.88427E+01 0.00000E+00
 -1      1716 2.90051E+01 2.87775E+01 0.00000E+00
 -1      1717 2.83346E+01 2.88445E+01 0.00000E+00
 -1      1718 3.04179E+01 2.84319E+01 0.00000E+00
 -1      1719 2.97757E+01 2.86249E+01 0.00000E+00
 -1      1720 3.17274E+01 2.78297E+01 0.00000E+00
 -1      1721 3.11398E+01 2.81377E+01 0.00000E+00
 -1      1722 3.30086E+01 2.69998E+01 0.00000E+00
 -1      1723 3.24520E+01 2.74500E+01 0.00000E+00
 -1      1724 3.39620E+01 2.58501E+01 0.00000E+00
 -1      1725 3.35337E+01 2.63667E+01 0.00000E+00
 -1      1726 3.47309E+01 2.45963E+01 0.00000E+00
 -1      1727 3.44048E+01 2.51953E+01 0.00000E+00
 -1      1728 3.52979E+01 2.31661E+01 0.00000E+00
 -1      1729 3.50867E+01 2.38536E+01 0.00000E+00
 -1      1730 3.54869E+01 2.16732E+01 0.00000E+00
 -1      1731 3.54204E+01 2.23518E+01 0.00000E+00
 -1      1732 3.34564E+01 1.50525E+01 0.00000E+00
 -1      1733 3.45426E+01 1.64998E+01 0.00000E+00
 -1      1734 1.48437E+02 2.56875E+00 0.00000E+00
 -1      1735 1.47138E+02 3.30625E+00 0.00000E+00
 -1      1736 3.59205E+01 1.96086E+01 0.00000E+00
 -1      1737 3.53990E+01 1.79937E+01 0.00000E+00
 -1      1738 3.60938E+01 2.12449E+01 0.00000E+00
 -1      1739 3.20327E+01 1.40293E+01 0.00000E+00
 -1      1740 3.03464E+01 1.34307E+01 0.00000E+00
 -1      1741 2.86768E+01 1.30974E+01 0.00000E+00
 -1      1742 2.69782E+01 1.31531E+01 0.00000E+00
 -1      1743 2.53280E+01 1.34806E+01 0.00000E+00
 -1      1744 2.37837E+01 1.42283E+01 0.00000E+00
 -1      1745 2.24160E+01 1.52939E+01 0.00000E+00
 -1      1746 2.11889E+01 1.65800E+01 0.00000E+00
 -1      1747 2.03303E+01 1.81612E+01 0.00000E+00
 -1      1748 1.98659E+01 1.99186E+01 0.00000E+00
 -1      1749 1.97196E+01 2.16800E+01 0.00000E+00
 -1      1750 2.00313E+01 2.34038E+01 0.00000E+00
 -1      1751 2.06127E+01 2.51008E+01 0.00000E+00
 -1      1752 2.16176E+01 2.65912E+01 0.00000E+00
 -1      1753 2.29551E+01 2.78622E+01 0.00000E+00
 -1      1754 2.44773E+01 2.87702E+01 0.00000E+00
 -1      1755 2.61981E+01 2.93015E+01 0.00000E+00
 -1      1756 2.78873E+01 2.94913E+01 0.00000E+00
 -1      1757 2.95007E+01 2.92616E+01 0.00000E+00
 -1      1758 3.09931E+01 2.88147E+01 0.00000E+00
 -1      1759 3.24396E+01 2.81409E+01 0.00000E+00
 -1      1760 3.36894E+01 2.71283E+01 0.00000E+00
 -1      1761 3.46574E+01 2.58405E+01 0.00000E+00
 -1      1762 3.54560E+01 2.44429E+01 0.00000E+00
 -1      1763 3.59344E+01 2.28858E+01 0.00000E+00
 -1      1764 2.87400E+00 4.77875E+01 0.00000E+00
 -1      1765 3.89700E+00 4.04125E+01 0.00000E+00
 -1      1766 3.89700E+00 4.18875E+01 0.00000E+00
 -1      1767 3.89700E+00 4.33625E+01 0.00000E+00
 -1      1768 3.89700E+00 4.48375E+01 0.00000E+00
 -1      1769 5.19600E+00 4.26250E+01 0.00000E+00
 -1      1770 3.89700E+00 3.45500E+01 0.00000E+00
 -1      1771 3.89700E+00 3.60000E+01 0.00000E+00
 -1      1772 3.89700E+00 3.16000E+01 0.00000E+00
 -1      1773 3.89700E+00 3.30750E+01 0.00000E+00
 -1      1774 5.19600E+00 3.38000E+01 0.00000E+00
 -1      1775 3.89700E+00 2.86500E+01 0.00000E+00
 -1      1776 3.89700E+00 3.01250E+01 0.00000E+00
 -1      1777 5.19600E+00 3.08500E+01 0.00000E+00
 -1      1778 3.89700E+00 2.57000E+01 0.00000E+00
 -1      1779 3.89700E+00 2.71750E+01 0.00000E+00
 -1      1780 5.19600E+00 2.79000E+01 0.00000E+00
 -1      1781 3.89700E+00 2.27500E+01 0.00000E+00
 -1      1782 3.89700E+00 2.42250E+01 0.00000E+00
 -1      1783 5.19600E+00 2.49500E+01 0.00000E+00
 -1      1784 3.89700E+00 1.98000E+01 0.00000E+00
 -1      1785 3.89700E+00 2.12750E+01 0.00000E+00
 -1      1786 5.19600E+00 2.20000E+01 0.00000E+00
 -1      1787 3.89700E+00 1.69000E+01 0.00000E+00
 -1      1788 3.89700E+00 1.83500E+01 0.00000E+00
 -1      1789 5.19600E+00 1.90750E+01 0.00000E+00
 -1      1790 3.89700E+00 1.39500E+01 0.00000E+00
 -1      1791 3.89700E+00 1.54250E+01 0.00000E+00
 -1      1792 5.19600E+00 1.61500E+01 0.00000E+00
 -1      1793 3.89700E+00 1.10000E+01 0.00000E+00
 -1      1794 3.89700E+00 1.24750E+01 0.00000E+00
 -1      1795 5.19600E+00 1.32000E+01 0.00000E+00
 -1      1796 3.89700E+00 8.05000E+00 0.00000E+00
 -1      1797 3.89700E+00 9.52500E+00 0.00000E+00
 -1      1798 5.19600E+00 1.02500E+01 0.00000E+00
 -1      1799 3.89700E+00 5.10000E+00 0.00000E+00
 -1      1800 3.89700E+00 6.57500E+00 0.00000E+00
 -1      1801 5.19600E+00 7.30000E+00 0.00000E+00
 -1      1802 4.20450E+00 3.09687E+00 0.00000E+00
 -1      1803 4.06650E+00 4.19063E+00 0.00000E+00
 -1      1804 5.36550E+00 4.91563E+00 0.00000E+00
 -1      1805 5.70450E+00 3.09687E+00 0.00000E+00
 -1      1806 3.62400E+00 4.64885E+01 0.00000E+00
 -1      1807 8.70450E+00 3.09687E+00 0.00000E+00
 -1      1808 7.20450E+00 3.09687E+00 0.00000E+00
 -1      1809 7.03500E+00 4.00625E+00 0.00000E+00
 -1      1810 4.92300E+00 4.57510E+01 0.00000E+00
 -1      1811 8.40000E+00 4.61030E+01 0.00000E+00
 -1      1812 9.90000E+00 4.61030E+01 0.00000E+00
 -1      1813 1.14000E+01 4.61030E+01 0.00000E+00
 -1      1814 1.29000E+01 4.61030E+01 0.00000E+00
 -1      1815 1.06500E+01 4.48040E+01 0.00000E+00
 -1      1816 1.44000E+01 4.61030E+01 0.00000E+00
 -1      1817 1.59000E+01 4.61030E+01 0.00000E+00
 -1      1818 1.36500E+01 4.48040E+01 0.00000E+00
 -1      1819 1.74000E+01 4.61030E+01 0.00000E+00
 -1      1820 1.89000E+01 4.61030E+01 0.00000E+00
 -1      1821 1.66500E+01 4.48040E+01 0.00000E+00
 -1      1822 2.04000E+01 4.61030E+01 0.00000E+00
 -1      1823 2.19000E+01 4.61030E+01 0.00000E+00
 -1      1824 1.96500E+01 4.48040E+01 0.00000E+00
 -1      1825 2.34000E+01 4.61030E+01 0.00000E+00
 -1      1826 2.49000E+01 4.61030E+01 0.00000E+00
 -1      1827 2.26500E+01 4.48040E+01 0.00000E+00
 -1      1828 2.64000E+01 4.61030E+01 0.00000E+00
 -1      1829 2.79000E+01 4.61030E+01 0.00000E+00
 -1      1830 2.56500E+01 4.48040E+01 0.00000E+00
 -1      1831 2.94000E+01 4.61030E+01 0.00000E+00
 -1      1832 3.09000E+01 4.61030E+01 0.00000E+00
 -1      1833 2.86500E+01 4.48040E+01 0.00000E+00
 -1      1834 3.24000E+01 4.61030E+01 0.00000E+00
 -1      1835 3.39000E+01 4.61030E+01 0.00000E+00
 -1      1836 3.16500E+01 4.48040E+01 0.00000E+00
 -1      1837 3.54000E+01 4.61030E+01 0.00000E+00
 -1      1838 3.69000E+01 4.61030E+01 0.00000E+00
 -1      1839 3.46500E+01 4.48040E+01 0.00000E+00
 -1      1840 3.84000E+01 4.61030E+01 0.00000E+00
 -1      1841 3.99000E+01 4.61030E+01 0.00000E+00
 -1      1842 3.76500E+01 4.48040E+01 0.00000E+00
 -1      1843 4.14000E+01 4.61030E+01 0.00000E+00
 -1      1844 4.29000E+01 4.61030E+01 0.00000E+00
 -1      1845 4.06500E+01 4.48040E+01 0.00000E+00
 -1      1846 4.44000E+01 4.61030E+01 0.00000E+00
 -1      1847 4.59000E+01 4.61030E+01 0.00000E+00
 -1      1848 4.36500E+01 4.48040E+01 0.00000E+00
 -1      1849 4.74000E+01 4.61030E+01 0.00000E+00
 -1      1850 4.89000E+01 4.61030E+01 0.00000E+00
 -1      1851 4.66500E+01 4.48040E+01 0.00000E+00
 -1      1852 5.04000E+01 4.61030E+01 0.00000E+00
 -1      1853 5.19000E+01 4.61030E+01 0.00000E+00
 -1      1854 4.96500E+01 4.48040E+01 0.00000E+00
 -1      1855 5.34000E+01 4.61030E+01 0.00000E+00
 -1      1856 5.49000E+01 4.61030E+01 0.00000E+00
 -1      1857 5.26500E+01 4.48040E+01 0.00000E+00
 -1      1858 5.64000E+01 4.61030E+01 0.00000E+00
 -1      1859 5.79000E+01 4.61030E+01 0.00000E+00
 -1      1860 5.56500E+01 4.48040E+01 0.00000E+00
 -1      1861 5.94000E+01 4.61030E+01 0.00000E+00
 -1      1862 6.09000E+01 4.61030E+01 0.00000E+00
 -1      1863 5.86500E+01 4.48040E+01 0.00000E+00
 -1      1864 6.24000E+01 4.61030E+01 0.00000E+00
 -1      1865 6.39000E+01 4.61030E+01 0.00000E+00
 -1      1866 6.16500E+01 4.48040E+01 0.00000E+00
 -1      1867 6.54000E+01 4.61030E+01 0.00000E+00
 -1      1868 6.69000E+01 4.61030E+01 0.00000E+00
 -1      1869 6.46500E+01 4.48040E+01 0.00000E+00
 -1      1870 6.84000E+01 4.61030E+01 0.00000E+00
 -1      1871 6.99000E+01 4.61030E+01 0.00000E+00
 -1      1872 6.76500E+01 4.48040E+01 0.00000E+00
 -1      1873 7.14000E+01 4.61030E+01 0.00000E+00
 -1      1874 7.29000E+01 4.61030E+01 0.00000E+00
 -1      1875 7.06500E+01 4.48040E+01 0.00000E+00
 -1      1876 7.44000E+01 4.61030E+01 0.00000E+00
 -1      1877 7.59000E+01 4.61030E+01 0.00000E+00
 -1      1878 7.36500E+01 4.48040E+01 0.00000E+00
 -1      1879 7.74000E+01 4.61030E+01 0.00000E+00
 -1      1880 7.89000E+01 4.61030E+01 0.00000E+00
 -1      1881 7.66500E+01 4.48040E+01 0.00000E+00
 -1      1882 8.04000E+01 4.61030E+01 0.00000E+00
 -1      1883 8.19000E+01 4.61030E+01 0.00000E+00
 -1      1884 7.96500E+01 4.48040E+01 0.00000E+00
 -1      1885 8.34000E+01 4.61030E+01 0.00000E+00
 -1      1886 8.49000E+01 4.61030E+01 0.00000E+00
 -1      1887 8.26500E+01 4.48040E+01 0.00000E+00
 -1      1888 8.64000E+01 4.61030E+01 0.00000E+00
 -1      1889 8.79000E+01 4.61030E+01 0.00000E+00
 -1      1890 8.56500E+01 4.48040E+01 0.00000E+00
 -1      1891 8.94000E+01 4.61030E+01 0.00000E+00
 -1      1892 9.09000E+01 4.61030E+01 0.00000E+00
 -1      1893 8.86500E+01 4.48040E+01 0.00000E+00
 -1      1894 9.24000E+01 4.61030E+01 0.00000E+00
 -1      1895 9.39000E+01 4.61030E+01 0.00000E+00
 -1      1896 9.16500E+01 4.48040E+01 0.00000E+00
 -1      1897 9.54000E+01 4.61030E+01 0.00000E+00
 -1      1898 9.69000E+01 4.61030E+01 0.00000E+00
 -1      1899 9.46500E+01 4.48040E+01 0.00000E+00
 -1      1900 9.84000E+01 4.61030E+01 0.00000E+00
 -1      1901 9.99000E+01 4.61030E+01 0.00000E+00
 -1      1902 9.76500E+01 4.48040E+01 0.00000E+00
 -1      1903 1.01400E+02 4.61030E+01 0.00000E+00
 -1      1904 1.02900E+02 4.61030E+01 0.00000E+00
 -1      1905 1.00650E+02 4.48040E+01 0.00000E+00
 -1      1906 1.04400E+02 4.61030E+01 0.00000E+00
 -1      1907 1.05900E+02 4.61030E+01 0.00000E+00
 -1      1908 1.03650E+02 4.48040E+01 0.00000E+00
 -1      1909 1.07400E+02 4.61030E+01 0.00000E+00
 -1      1910 1.08900E+02 4.61030E+01 0.00000E+00
 -1      1911 1.06650E+02 4.48040E+01 0.00000E+00
 -1      1912 1.10400E+02 4.61030E+01 0.00000E+00
 -1      1913 1.11900E+02 4.61030E+01 0.00000E+00
 -1      1914 1.09650E+02 4.48040E+01 0.00000E+00
 -1      1915 1.13400E+02 4.61030E+01 0.00000E+00
 -1      1916 1.14900E+02 4.61030E+01 0.00000E+00
 -1      1917 1.12650E+02 4.48040E+01 0.00000E+00
 -1      1918 1.16400E+02 4.61030E+01 0.00000E+00
 -1      1919 1.17900E+02 4.61030E+01 0.00000E+00
 -1      1920 1.15650E+02 4.48040E+01 0.00000E+00
 -1      1921 1.19400E+02 4.61030E+01 0.00000E+00
 -1      1922 1.20900E+02 4.61030E+01 0.00000E+00
 -1      1923 1.18650E+02 4.48040E+01 0.00000E+00
 -1      1924 1.22400E+02 4.61030E+01 0.00000E+00
 -1      1925 1.23900E+02 4.61030E+01 0.00000E+00
 -1      1926 1.21650E+02 4.48040E+01 0.00000E+00
 -1      1927 1.25400E+02 4.61030E+01 0.00000E+00
 -1      1928 1.26900E+02 4.61030E+01 0.00000E+00
 -1      1929 1.24650E+02 4.48040E+01 0.00000E+00
 -1      1930 1.28400E+02 4.61030E+01 0.00000E+00
 -1      1931 1.29900E+02 4.61030E+01 0.00000E+00
 -1      1932 1.27650E+02 4.48040E+01 0.00000E+00
 -1      1933 1.31400E+02 4.61030E+01 0.00000E+00
 -1      1934 1.32900E+02 4.61030E+01 0.00000E+00
 -1      1935 1.30650E+02 4.48040E+01 0.00000E+00
 -1      1936 1.34400E+02 4.61030E+01 0.00000E+00
 -1      1937 1.35900E+02 4.61030E+01 0.00000E+00
 -1      1938 1.33650E+02 4.48040E+01 0.00000E+00
 -1      1939 1.37400E+02 4.61030E+01 0.00000E+00
 -1      1940 1.38900E+02 4.61030E+01 0.00000E+00
 -1      1941 1.36650E+02 4.48040E+01 0.00000E+00
 -1      1942 1.40400E+02 4.61030E+01 0.00000E+00
 -1      1943 1.41900E+02 4.61030E+01 0.00000E+00
 -1      1944 1.39650E+02 4.48040E+01 0.00000E+00
 -1      1945 1.43244E+02 4.61616E+01 0.00000E+00
 -1      1946 1.44744E+02 4.61616E+01 0.00000E+00
 -1      1947 1.45182E+02 4.49799E+01 0.00000E+00
 -1      1948 1.42494E+02 4.48626E+01 0.00000E+00
 -1      1949 1.17045E+01 3.09687E+00 0.00000E+00
 -1      1950 1.02045E+01 3.09687E+00 0.00000E+00
 -1      1951 1.00350E+01 4.00625E+00 0.00000E+00
 -1      1952 1.47045E+01 3.09687E+00 0.00000E+00
 -1      1953 1.32045E+01 3.09687E+00 0.00000E+00
 -1      1954 1.30350E+01 4.00625E+00 0.00000E+00
 -1      1955 1.77045E+01 3.09687E+00 0.00000E+00
 -1      1956 1.62045E+01 3.09687E+00 0.00000E+00
 -1      1957 1.60350E+01 4.00625E+00 0.00000E+00
 -1      1958 2.07045E+01 3.09687E+00 0.00000E+00
 -1      1959 1.92045E+01 3.09687E+00 0.00000E+00
 -1      1960 1.90350E+01 4.00625E+00 0.00000E+00
 -1      1961 2.37045E+01 3.09687E+00 0.00000E+00
 -1      1962 2.22045E+01 3.09687E+00 0.00000E+00
 -1      1963 2.20350E+01 4.00625E+00 0.00000E+00
 -1      1964 2.67045E+01 3.09687E+00 0.00000E+00
 -1      1965 2.52045E+01 3.09687E+00 0.00000E+00
 -1      1966 2.50350E+01 4.00625E+00 0.00000E+00
 -1      1967 2.97045E+01 3.09687E+00 0.00000E+00
 -1      1968 2.82045E+01 3.09687E+00 0.00000E+00
 -1      1969 2.80350E+01 4.00625E+00 0.00000E+00
 -1      1970 3.27045E+01 3.09687E+00 0.00000E+00
 -1      1971 3.12045E+01 3.09687E+00 0.00000E+00
 -1      1972 3.10350E+01 4.00625E+00 0.00000E+00
 -1      1973 3.57045E+01 3.09687E+00 0.00000E+00
 -1      1974 3.42045E+01 3.09687E+00 0.00000E+00
 -1      1975 3.40350E+01 4.00625E+00 0.00000E+00
 -1      1976 3.87045E+01 3.09687E+00 0.00000E+00
 -1      1977 3.72045E+01 3.09687E+00 0.00000E+00
 -1      1978 3.70350E+01 4.00625E+00 0.00000E+00
 -1      1979 4.17045E+01 3.09687E+00 0.00000E+00
 -1      1980 4.02045E+01 3.09687E+00 0.00000E+00
 -1      1981 4.00350E+01 4.00625E+00 0.00000E+00
 -1      1982 4.47045E+01 3.09687E+00 0.00000E+00
 -1      1983 4.32045E+01 3.09687E+00 0.00000E+00
 -1      1984 4.30350E+01 4.00625E+00 0.00000E+00
 -1      1985 4.77045E+01 3.09687E+00 0.00000E+00
 -1      1986 4.62045E+01 3.09687E+00 0.00000E+00
 -1      1987 4.60350E+01 4.00625E+00 0.00000E+00
 -1      1988 5.07045E+01 3.09687E+00 0.00000E+00
 -1      1989 4.92045E+01 3.09687E+00 0.00000E+00
 -1      1990 4.90350E+01 4.00625E+00 0.00000E+00
 -1      1991 5.37045E+01 3.09687E+00 0.00000E+00
 -1      1992 5.22045E+01 3.09687E+00 0.00000E+00
 -1      1993 5.20350E+01 4.00625E+00 0.00000E+00
 -1      1994 5.67045E+01 3.09687E+00 0.00000E+00
 -1      1995 5.52045E+01 3.09687E+00 0.00000E+00
 -1      1996 5.50350E+01 4.00625E+00 0.00000E+00
 -1      1997 5.97045E+01 3.09687E+00 0.00000E+00
 -1      1998 5.82045E+01 3.09687E+00 0.00000E+00
 -1      1999 5.80350E+01 4.00625E+00 0.00000E+00
 -1      2000 6.27045E+01 3.09687E+00 0.00000E+00
 -1      2001 6.12045E+01 3.09687E+00 0.00000E+00
 -1      2002 6.10350E+01 4.00625E+00 0.00000E+00
 -1      2003 6.57045E+01 3.09687E+00 0.00000E+00
 -1      2004 6.42045E+01 3.09687E+00 0.00000E+00
 -1      2005 6.40350E+01 4.00625E+00 0.00000E+00
 -1      2006 6.87045E+01 3.09687E+00 0.00000E+00
 -1      2007 6.72045E+01 3.09687E+00 0.00000E+00
 -1      2008 6.70350E+01 4.00625E+00 0.00000E+00
 -1      2009 7.17045E+01 3.09687E+00 0.00000E+00
 -1      2010 7.02045E+01 3.09687E+00 0.00000E+00
 -1      2011 7.00350E+01 4.00625E+00 0.00000E+00
 -1      2012 7.47045E+01 3.09687E+00 0.00000E+00
 -1      2013 7.32045E+01 3.09687E+00 0.00000E+00
 -1      2014 7.30350E+01 4.00625E+00 0.00000E+00
 -1      2015 7.77045E+01 3.09687E+00 0.00000E+00
 -1      2016 7.62045E+01 3.09687E+00 0.00000E+00
 -1      2017 7.60350E+01 4.00625E+00 0.00000E+00
 -1      2018 8.07045E+01 3.09687E+00 0.00000E+00
 -1      2019 7.92045E+01 3.09687E+00 0.00000E+00
 -1      2020 7.90350E+01 4.00625E+00 0.00000E+00
 -1      2021 8.37045E+01 3.09687E+00 0.00000E+00
 -1      2022 8.22045E+01 3.09687E+00 0.00000E+00
 -1      2023 8.20350E+01 4.00625E+00 0.00000E+00
 -1      2024 8.67045E+01 3.09687E+00 0.00000E+00
 -1      2025 8.52045E+01 3.09687E+00 0.00000E+00
 -1      2026 8.50350E+01 4.00625E+00 0.00000E+00
 -1      2027 8.97045E+01 3.09687E+00 0.00000E+00
 -1      2028 8.82045E+01 3.09687E+00 0.00000E+00
 -1      2029 8.80350E+01 4.00625E+00 0.00000E+00
 -1      2030 9.27045E+01 3.09687E+00 0.00000E+00
 -1      2031 9.12045E+01 3.09687E+00 0.00000E+00
 -1      2032 9.10350E+01 4.00625E+00 0.00000E+00
 -1      2033 9.57045E+01 3.09687E+00 0.00000E+00
 -1      2034 9.42045E+01 3.09687E+00 0.00000E+00
 -1      2035 9.40350E+01 4.00625E+00 0.00000E+00
 -1      2036 9.87045E+01 3.09687E+00 0.00000E+00
 -1      2037 9.72045E+01 3.09687E+00 0.00000E+00
 -1      2038 9.70350E+01 4.00625E+00 0.00000E+00
 -1      2039 1.01704E+02 3.09687E+00 0.00000E+00
 -1      2040 1.00204E+02 3.09687E+00 0.00000E+00
 -1      2041 1.00035E+02 4.00625E+00 0.00000E+00
 -1      2042 1.04704E+02 3.09687E+00 0.00000E+00
 -1      2043 1.03204E+02 3.09687E+00 0.00000E+00
 -1      2044 1.03035E+02 4.00625E+00 0.00000E+00
 -1      2045 1.07704E+02 3.09687E+00 0.00000E+00
 -1      2046 1.06204E+02 3.09687E+00 0.00000E+00
 -1      2047 1.06035E+02 4.00625E+00 0.00000E+00
 -1      2048 1.10704E+02 3.09687E+00 0.00000E+00
 -1      2049 1.09204E+02 3.09687E+00 0.00000E+00
 -1      2050 1.09035E+02 4.00625E+00 0.00000E+00
 -1      2051 1.13704E+02 3.09687E+00 0.00000E+00
 -1      2052 1.12204E+02 3.09687E+00 0.00000E+00
 -1      2053 1.12035E+02 4.00625E+00 0.00000E+00
 -1      2054 1.16704E+02 3.09687E+00 0.00000E+00
 -1      2055 1.15204E+02 3.09687E+00 0.00000E+00
 -1      2056 1.15035E+02 4.00625E+00 0.00000E+00
 -1      2057 1.19704E+02 3.09687E+00 0.00000E+00
 -1      2058 1.18204E+02 3.09687E+00 0.00000E+00
 -1      2059 1.18035E+02 4.00625E+00 0.00000E+00
 -1      2060 1.22704E+02 3.09687E+00 0.00000E+00
 -1      2061 1.21204E+02 3.09687E+00 0.00000E+00
 -1      2062 1.21035E+02 4.00625E+00 0.00000E+00
 -1      2063 1.25704E+02 3.09687E+00 0.00000E+00
 -1      2064 1.24204E+02 3.09687E+00 0.00000E+00
 -1      2065 1.24035E+02 4.00625E+00 0.00000E+00
 -1      2066 1.28704E+02 3.09687E+00 0.00000E+00
 -1      2067 1.27204E+02 3.09687E+00 0.00000E+00
 -1      2068 1.27035E+02 4.00625E+00 0.00000E+00
 -1      2069 1.31704E+02 3.09687E+00 0.00000E+00
 -1      2070 1.30204E+02 3.09687E+00 0.00000E+00
 -1      2071 1.30035E+02 4.00625E+00 0.00000E+00
 -1      2072 1.34704E+02 3.09687E+00 0.00000E+00
 -1      2073 1.33204E+02 3.09687E+00 0.00000E+00
 -1      2074 1.33035E+02 4.00625E+00 0.00000E+00
 -1      2075 1.37704E+02 3.09687E+00 0.00000E+00
 -1      2076 1.36204E+02 3.09687E+00 0.00000E+00
 -1      2077 1.36035E+02 4.00625E+00 0.00000E+00
 -1      2078 1.40704E+02 3.09687E+00 0.00000E+00
 -1      2079 1.39204E+02 3.09687E+00 0.00000E+00
 -1      2080 1.39035E+02 4.00625E+00 0.00000E+00
 -1      2081 1.43704E+02 3.09687E+00 0.00000E+00
 -1      2082 1.42204E+02 3.09687E+00 0.00000E+00
 -1      2083 1.42035E+02 4.00625E+00 0.00000E+00
 -1      2084 1.46171E+02 3.20156E+00 0.00000E+00
 -1      2085 1.44671E+02 3.20156E+00 0.00000E+00
 -1      2086 1.44502E+02 4.11094E+00 0.00000E+00
 -1      2087 1.46435E+02 4.32031E+00 0.00000E+00
 -1      2088 1.46103E+02 1.25375E+01 0.00000E+00
 -1      2089 1.46103E+02 1.10625E+01 0.00000E+00
 -1      2090 1.46103E+02 9.58750E+00 0.00000E+00
 -1      2091 1.46103E+02 8.11250E+00 0.00000E+00
 -1      2092 1.44804E+02 1.03250E+01 0.00000E+00
 -1      2093 1.46269E+02 6.95391E+00 0.00000E+00
 -1      2094 1.46269E+02 5.47891E+00 0.00000E+00
 -1      2095 1.45302E+02 5.37422E+00 0.00000E+00
 -1      2096 1.44970E+02 7.69141E+00 0.00000E+00
 -1      2097 1.46103E+02 1.54375E+01 0.00000E+00
 -1      2098 1.46103E+02 1.39875E+01 0.00000E+00
 -1      2099 1.44804E+02 1.32500E+01 0.00000E+00
 -1      2100 1.46103E+02 1.83875E+01 0.00000E+00
 -1      2101 1.46103E+02 1.69125E+01 0.00000E+00
 -1      2102 1.44804E+02 1.61750E+01 0.00000E+00
 -1      2103 1.46103E+02 2.13375E+01 0.00000E+00
 -1      2104 1.46103E+02 1.98625E+01 0.00000E+00
 -1      2105 1.44804E+02 1.91250E+01 0.00000E+00
 -1      2106 1.46103E+02 2.42875E+01 0.00000E+00
 -1      2107 1.46103E+02 2.28125E+01 0.00000E+00
 -1      2108 1.44804E+02 2.20750E+01 0.00000E+00
 -1      2109 1.46103E+02 2.72375E+01 0.00000E+00
 -1      2110 1.46103E+02 2.57625E+01 0.00000E+00
 -1      2111 1.44804E+02 2.50250E+01 0.00000E+00
 -1      2112 1.46103E+02 3.01875E+01 0.00000E+00
 -1      2113 1.46103E+02 2.87125E+01 0.00000E+00
 -1      2114 1.44804E+02 2.79750E+01 0.00000E+00
 -1      2115 1.46103E+02 3.30875E+01 0.00000E+00
 -1      2116 1.46103E+02 3.16375E+01 0.00000E+00
 -1      2117 1.44804E+02 3.09000E+01 0.00000E+00
 -1      2118 1.46103E+02 3.60375E+01 0.00000E+00
 -1      2119 1.46103E+02 3.45625E+01 0.00000E+00
 -1      2120 1.44804E+02 3.38250E+01 0.00000E+00
 -1      2121 1.46103E+02 3.89875E+01 0.00000E+00
 -1      2122 1.46103E+02 3.75125E+01 0.00000E+00
 -1      2123 1.44804E+02 3.67750E+01 0.00000E+00
 -1      2124 1.46103E+02 4.19375E+01 0.00000E+00
 -1      2125 1.46103E+02 4.04625E+01 0.00000E+00
 -1      2126 1.44804E+02 3.97250E+01 0.00000E+00
 -1      2127 3.59259E+01 1.73271E+01 0.00000E+00
 -1      2128 3.62373E+01 1.81322E+01 0.00000E+00
 -1      2129 3.69689E+01 2.08698E+01 0.00000E+00
 -1      2130 3.69321E+01 2.16964E+01 0.00000E+00
 -1      2131 3.65239E+01 1.90199E+01 0.00000E+00
 -1      2132 3.67340E+01 1.98296E+01 0.00000E+00
 -1      2133 3.47782E+01 1.57532E+01 0.00000E+00
 -1      2134 3.53233E+01 1.64420E+01 0.00000E+00
 -1      2135 3.37476E+01 1.42725E+01 0.00000E+00
 -1      2136 3.42887E+01 1.50311E+01 0.00000E+00
 -1      2137 3.89700E+00 3.74688E+01 0.00000E+00
 -1      2138 3.89700E+00 3.89437E+01 0.00000E+00
 -1      2139 5.19600E+00 3.96813E+01 0.00000E+00
 -1      2140 5.19600E+00 3.67438E+01 0.00000E+00
 -1      2141 3.02092E+01 1.26265E+01 0.00000E+00
 -1      2142 3.10130E+01 1.29605E+01 0.00000E+00
 -1      2143 2.82433E+01 1.24077E+01 0.00000E+00
 -1      2144 2.91091E+01 1.24071E+01 0.00000E+00
 -1      2145 2.65162E+01 1.24922E+01 0.00000E+00
 -1      2146 2.73490E+01 1.24371E+01 0.00000E+00
 -1      2147 2.46482E+01 1.28033E+01 0.00000E+00
 -1      2148 2.54656E+01 1.25309E+01 0.00000E+00
 -1      2149 2.30198E+01 1.38533E+01 0.00000E+00
 -1      2150 2.37467E+01 1.33781E+01 0.00000E+00
 -1      2151 2.15997E+01 1.50508E+01 0.00000E+00
 -1      2152 2.22405E+01 1.44604E+01 0.00000E+00
 -1      2153 2.03682E+01 1.64834E+01 0.00000E+00
 -1      2154 2.09544E+01 1.57875E+01 0.00000E+00
 -1      2155 1.94545E+01 1.83764E+01 0.00000E+00
 -1      2156 1.97269E+01 1.74910E+01 0.00000E+00
 -1      2157 1.90706E+01 2.01203E+01 0.00000E+00
 -1      2158 1.92625E+01 1.92484E+01 0.00000E+00
 -1      2159 1.86592E+01 1.85781E+01 0.00000E+00
 -1      2160 1.89279E+01 2.21667E+01 0.00000E+00
 -1      2161 1.88822E+01 2.12772E+01 0.00000E+00
 -1      2162 1.95469E+01 2.40178E+01 0.00000E+00
 -1      2163 1.92809E+01 2.31835E+01 0.00000E+00
 -1      2164 2.00829E+01 2.57834E+01 0.00000E+00
 -1      2165 1.97676E+01 2.49207E+01 0.00000E+00
 -1      2166 2.15263E+01 2.73843E+01 0.00000E+00
 -1      2167 2.08366E+01 2.67567E+01 0.00000E+00
 -1      2168 2.28219E+01 2.86712E+01 0.00000E+00
 -1      2169 2.21741E+01 2.80277E+01 0.00000E+00
 -1      2170 2.13931E+01 2.81933E+01 0.00000E+00
 -1      2171 2.46904E+01 2.96430E+01 0.00000E+00
 -1      2172 2.38161E+01 2.93785E+01 0.00000E+00
 -1      2173 2.63832E+01 3.01767E+01 0.00000E+00
 -1      2174 2.55368E+01 2.99099E+01 0.00000E+00
 -1      2175 2.48755E+01 3.05182E+01 0.00000E+00
 -1      2176 2.83792E+01 3.02233E+01 0.00000E+00
 -1      2177 2.75363E+01 3.03004E+01 0.00000E+00
 -1      2178 2.99203E+01 2.99180E+01 0.00000E+00
 -1      2179 2.91497E+01 3.00706E+01 0.00000E+00
 -1      2180 2.87987E+01 3.08797E+01 0.00000E+00
 -1      2181 3.16145E+01 2.93066E+01 0.00000E+00
 -1      2182 3.08926E+01 2.96008E+01 0.00000E+00
 -1      2183 3.30637E+01 2.85474E+01 0.00000E+00
 -1      2184 3.23391E+01 2.89270E+01 0.00000E+00
 -1      2185 3.22385E+01 2.97130E+01 0.00000E+00
 -1      2186 3.44830E+01 2.72523E+01 0.00000E+00
 -1      2187 3.39578E+01 2.78854E+01 0.00000E+00
 -1      2188 3.54157E+01 2.58762E+01 0.00000E+00
 -1      2189 3.49728E+01 2.65310E+01 0.00000E+00
 -1      2190 3.62940E+01 2.43876E+01 0.00000E+00
 -1      2191 3.59382E+01 2.51304E+01 0.00000E+00
 -1      2192 3.68095E+01 2.25107E+01 0.00000E+00
 -1      2193 3.66869E+01 2.33250E+01 0.00000E+00
 -1      2194 3.76846E+01 2.21356E+01 0.00000E+00
 -1      2195 3.18956E+01 1.32251E+01 0.00000E+00
 -1      2196 3.27782E+01 1.34898E+01 0.00000E+00
 -1      2197 3.17584E+01 1.24210E+01 0.00000E+00
 -1      2198 3.50694E+01 1.49733E+01 0.00000E+00
 -1      2199 6.42300E+00 4.57510E+01 0.00000E+00
 -1      2200 3.36105E+01 1.34684E+01 0.00000E+00
 -1      2201 3.44427E+01 1.34469E+01 0.00000E+00
 -1      2202 3.34733E+01 1.26642E+01 0.00000E+00
 -1      2203 7.17300E+00 4.44520E+01 0.00000E+00
 -1      2204 3.70508E+01 1.83533E+01 0.00000E+00
 -1      2205 3.75723E+01 2.02811E+01 0.00000E+00
 -1      2206 1.45665E+02 4.31193E+01 0.00000E+00
 -1      2207 3.61616E+01 1.65805E+01 0.00000E+00
 -1      2208 3.71691E+01 2.40125E+01 0.00000E+00
 -1      2209 3.62536E+01 2.58209E+01 0.00000E+00
 -1      2210 3.38573E+01 2.86714E+01 0.00000E+00
 -1      2211 3.05416E+01 3.04099E+01 0.00000E+00
 -1      2212 2.68750E+01 3.09087E+01 0.00000E+00
 -1      2213 2.30351E+01 2.95440E+01 0.00000E+00
 -1      2214 2.22540E+01 2.97096E+01 0.00000E+00
 -1      2215 2.32482E+01 3.04169E+01 0.00000E+00
 -1      2216 1.99916E+01 2.65766E+01 0.00000E+00
 -1      2217 1.91465E+01 2.63964E+01 0.00000E+00
 -1      2218 1.99002E+01 2.73697E+01 0.00000E+00
 -1      2219 1.90171E+01 2.47004E+01 0.00000E+00
 -1      2220 1.82788E+01 2.06069E+01 0.00000E+00
 -1      2221 1.94924E+01 1.66985E+01 0.00000E+00
 -1      2222 2.07789E+01 1.49541E+01 0.00000E+00
 -1      2223 2.22035E+01 1.36102E+01 0.00000E+00
 -1      2224 2.38842E+01 1.24283E+01 0.00000E+00
 -1      2225 2.58364E+01 1.18148E+01 0.00000E+00
 -1      2226 2.97758E+01 1.19369E+01 0.00000E+00
 -1      2227 2.77814E+01 1.17468E+01 0.00000E+00
 -1      2228 1.84434E+01 2.27807E+01 0.00000E+00
 -1      2229 3.52413E+01 2.72880E+01 0.00000E+00
 -1      2230 1.07850E+01 5.30525E+00 0.00000E+00
 -1      2231 9.28500E+00 5.30525E+00 0.00000E+00
 -1      2232 6.49500E+00 3.01125E+01 0.00000E+00
 -1      2233 6.49500E+00 3.15875E+01 0.00000E+00
 -1      2234 6.49500E+00 3.30625E+01 0.00000E+00
 -1      2235 6.49500E+00 3.45375E+01 0.00000E+00
 -1      2236 7.79400E+00 3.23250E+01 0.00000E+00
 -1      2237 6.47248E+00 2.42125E+01 0.00000E+00
 -1      2238 6.47248E+00 2.56875E+01 0.00000E+00
 -1      2239 6.47248E+00 2.12625E+01 0.00000E+00
 -1      2240 6.47248E+00 2.27375E+01 0.00000E+00
 -1      2241 7.74896E+00 2.34750E+01 0.00000E+00
 -1      2242 6.47248E+00 1.83625E+01 0.00000E+00
 -1      2243 6.47248E+00 1.98125E+01 0.00000E+00
 -1      2244 7.74896E+00 2.05500E+01 0.00000E+00
 -1      2245 6.47248E+00 1.54125E+01 0.00000E+00
 -1      2246 6.47248E+00 1.68875E+01 0.00000E+00
 -1      2247 7.74896E+00 1.76250E+01 0.00000E+00
 -1      2248 6.47248E+00 1.24625E+01 0.00000E+00
 -1      2249 6.47248E+00 1.39375E+01 0.00000E+00
 -1      2250 7.74896E+00 1.46750E+01 0.00000E+00
 -1      2251 6.47248E+00 9.51250E+00 0.00000E+00
 -1      2252 6.47248E+00 1.09875E+01 0.00000E+00
 -1      2253 7.74896E+00 1.17250E+01 0.00000E+00
 -1      2254 1.37850E+01 5.30525E+00 0.00000E+00
 -1      2255 1.22850E+01 5.30525E+00 0.00000E+00
 -1      2256 1.15350E+01 6.60425E+00 0.00000E+00
 -1      2257 9.90000E+00 4.35050E+01 0.00000E+00
 -1      2258 1.14000E+01 4.35050E+01 0.00000E+00
 -1      2259 3.54651E+01 1.41780E+01 0.00000E+00
 -1      2260 3.59547E+01 1.49002E+01 0.00000E+00
 -1      2261 1.29000E+01 4.35050E+01 0.00000E+00
 -1      2262 1.44000E+01 4.35050E+01 0.00000E+00
 -1      2263 1.21500E+01 4.22060E+01 0.00000E+00
 -1      2264 1.59000E+01 4.35050E+01 0.00000E+00
 -1      2265 1.74000E+01 4.35050E+01 0.00000E+00
 -1      2266 1.51500E+01 4.22060E+01 0.00000E+00
 -1      2267 1.89000E+01 4.35050E+01 0.00000E+00
 -1      2268 2.04000E+01 4.35050E+01 0.00000E+00
 -1      2269 1.81500E+01 4.22060E+01 0.00000E+00
 -1      2270 2.19000E+01 4.35050E+01 0.00000E+00
 -1      2271 2.34000E+01 4.35050E+01 0.00000E+00
 -1      2272 2.11500E+01 4.22060E+01 0.00000E+00
 -1      2273 2.49000E+01 4.35050E+01 0.00000E+00
 -1      2274 2.64000E+01 4.35050E+01 0.00000E+00
 -1      2275 2.41500E+01 4.22060E+01 0.00000E+00
 -1      2276 2.79000E+01 4.35050E+01 0.00000E+00
 -1      2277 2.94000E+01 4.35050E+01 0.00000E+00
 -1      2278 2.71500E+01 4.22060E+01 0.00000E+00
 -1      2279 3.09000E+01 4.35050E+01 0.00000E+00
 -1      2280 3.24000E+01 4.35050E+01 0.00000E+00
 -1      2281 3.01500E+01 4.22060E+01 0.00000E+00
 -1      2282 3.39000E+01 4.35050E+01 0.00000E+00
 -1      2283 3.54000E+01 4.35050E+01 0.00000E+00
 -1      2284 3.31500E+01 4.22060E+01 0.00000E+00
 -1      2285 3.69000E+01 4.35050E+01 0.00000E+00
 -1      2286 3.84000E+01 4.35050E+01 0.00000E+00
 -1      2287 3.61500E+01 4.22060E+01 0.00000E+00
 -1      2288 3.99000E+01 4.35050E+01 0.00000E+00
 -1      2289 4.14000E+01 4.35050E+01 0.00000E+00
 -1      2290 3.91500E+01 4.22060E+01 0.00000E+00
 -1      2291 4.29000E+01 4.35050E+01 0.00000E+00
 -1      2292 4.44000E+01 4.35050E+01 0.00000E+00
 -1      2293 4.21500E+01 4.22060E+01 0.00000E+00
 -1      2294 4.59000E+01 4.35050E+01 0.00000E+00
 -1      2295 4.74000E+01 4.35050E+01 0.00000E+00
 -1      2296 4.51500E+01 4.22060E+01 0.00000E+00
 -1      2297 4.89000E+01 4.35050E+01 0.00000E+00
 -1      2298 5.04000E+01 4.35050E+01 0.00000E+00
 -1      2299 4.81500E+01 4.22060E+01 0.00000E+00
 -1      2300 5.19000E+01 4.35050E+01 0.00000E+00
 -1      2301 5.34000E+01 4.35050E+01 0.00000E+00
 -1      2302 5.11500E+01 4.22060E+01 0.00000E+00
 -1      2303 5.49000E+01 4.35050E+01 0.00000E+00
 -1      2304 5.64000E+01 4.35050E+01 0.00000E+00
 -1      2305 5.41500E+01 4.22060E+01 0.00000E+00
 -1      2306 5.79000E+01 4.35050E+01 0.00000E+00
 -1      2307 5.94000E+01 4.35050E+01 0.00000E+00
 -1      2308 5.71500E+01 4.22060E+01 0.00000E+00
 -1      2309 6.09000E+01 4.35050E+01 0.00000E+00
 -1      2310 6.24000E+01 4.35050E+01 0.00000E+00
 -1      2311 6.01500E+01 4.22060E+01 0.00000E+00
 -1      2312 6.39000E+01 4.35050E+01 0.00000E+00
 -1      2313 6.54000E+01 4.35050E+01 0.00000E+00
 -1      2314 6.31500E+01 4.22060E+01 0.00000E+00
 -1      2315 6.69000E+01 4.35050E+01 0.00000E+00
 -1      2316 6.84000E+01 4.35050E+01 0.00000E+00
 -1      2317 6.61500E+01 4.22060E+01 0.00000E+00
 -1      2318 6.99000E+01 4.35050E+01 0.00000E+00
 -1      2319 7.14000E+01 4.35050E+01 0.00000E+00
 -1      2320 6.91500E+01 4.22060E+01 0.00000E+00
 -1      2321 7.29000E+01 4.35050E+01 0.00000E+00
 -1      2322 7.44000E+01 4.35050E+01 0.00000E+00
 -1      2323 7.21500E+01 4.22060E+01 0.00000E+00
 -1      2324 7.59000E+01 4.35050E+01 0.00000E+00
 -1      2325 7.74000E+01 4.35050E+01 0.00000E+00
 -1      2326 7.51500E+01 4.22060E+01 0.00000E+00
 -1      2327 7.89000E+01 4.35050E+01 0.00000E+00
 -1      2328 8.04000E+01 4.35050E+01 0.00000E+00
 -1      2329 7.81500E+01 4.22060E+01 0.00000E+00
 -1      2330 8.19000E+01 4.35050E+01 0.00000E+00
 -1      2331 8.34000E+01 4.35050E+01 0.00000E+00
 -1      2332 8.11500E+01 4.22060E+01 0.00000E+00
 -1      2333 8.49000E+01 4.35050E+01 0.00000E+00
 -1      2334 8.64000E+01 4.35050E+01 0.00000E+00
 -1      2335 8.41500E+01 4.22060E+01 0.00000E+00
 -1      2336 8.79000E+01 4.35050E+01 0.00000E+00
 -1      2337 8.94000E+01 4.35050E+01 0.00000E+00
 -1      2338 8.71500E+01 4.22060E+01 0.00000E+00
 -1      2339 9.09000E+01 4.35050E+01 0.00000E+00
 -1      2340 9.24000E+01 4.35050E+01 0.00000E+00
 -1      2341 9.01500E+01 4.22060E+01 0.00000E+00
 -1      2342 9.39000E+01 4.35050E+01 0.00000E+00
 -1      2343 9.54000E+01 4.35050E+01 0.00000E+00
 -1      2344 9.31500E+01 4.22060E+01 0.00000E+00
 -1      2345 9.69000E+01 4.35050E+01 0.00000E+00
 -1      2346 9.84000E+01 4.35050E+01 0.00000E+00
 -1      2347 9.61500E+01 4.22060E+01 0.00000E+00
 -1      2348 9.99000E+01 4.35050E+01 0.00000E+00
 -1      2349 1.01400E+02 4.35050E+01 0.00000E+00
 -1      2350 9.91500E+01 4.22060E+01 0.00000E+00
 -1      2351 1.02900E+02 4.35050E+01 0.00000E+00
 -1      2352 1.04400E+02 4.35050E+01 0.00000E+00
 -1      2353 1.02150E+02 4.22060E+01 0.00000E+00
 -1      2354 1.05900E+02 4.35050E+01 0.00000E+00
 -1      2355 1.07400E+02 4.35050E+01 0.00000E+00
 -1      2356 1.05150E+02 4.22060E+01 0.00000E+00
 -1      2357 1.08900E+02 4.35050E+01 0.00000E+00
 -1      2358 1.10400E+02 4.35050E+01 0.00000E+00
 -1      2359 1.08150E+02 4.22060E+01 0.00000E+00
 -1      2360 1.11900E+02 4.35050E+01 0.00000E+00
 -1      2361 1.13400E+02 4.35050E+01 0.00000E+00
 -1      2362 1.11150E+02 4.22060E+01 0.00000E+00
 -1      2363 1.14900E+02 4.35050E+01 0.00000E+00
 -1      2364 1.16400E+02 4.35050E+01 0.00000E+00
 -1      2365 1.14150E+02 4.22060E+01 0.00000E+00
 -1      2366 1.17900E+02 4.35050E+01 0.00000E+00
 -1      2367 1.19400E+02 4.35050E+01 0.00000E+00
 -1      2368 1.17150E+02 4.22060E+01 0.00000E+00
 -1      2369 1.20900E+02 4.35050E+01 0.00000E+00
 -1      2370 1.22400E+02 4.35050E+01 0.00000E+00
 -1      2371 1.20150E+02 4.22060E+01 0.00000E+00
 -1      2372 1.23900E+02 4.35050E+01 0.00000E+00
 -1      2373 1.25400E+02 4.35050E+01 0.00000E+00
 -1      2374 1.23150E+02 4.22060E+01 0.00000E+00
 -1      2375 1.26900E+02 4.35050E+01 0.00000E+00
 -1      2376 1.28400E+02 4.35050E+01 0.00000E+00
 -1      2377 1.26150E+02 4.22060E+01 0.00000E+00
 -1      2378 1.29900E+02 4.35050E+01 0.00000E+00
 -1      2379 1.31400E+02 4.35050E+01 0.00000E+00
 -1      2380 1.29150E+02 4.22060E+01 0.00000E+00
 -1      2381 1.32900E+02 4.35050E+01 0.00000E+00
 -1      2382 1.34400E+02 4.35050E+01 0.00000E+00
 -1      2383 1.32150E+02 4.22060E+01 0.00000E+00
 -1      2384 1.35900E+02 4.35050E+01 0.00000E+00
 -1      2385 1.37400E+02 4.35050E+01 0.00000E+00
 -1      2386 1.35150E+02 4.22060E+01 0.00000E+00
 -1      2387 1.38900E+02 4.35050E+01 0.00000E+00
 -1      2388 1.40400E+02 4.35050E+01 0.00000E+00
 -1      2389 1.38150E+02 4.22060E+01 0.00000E+00
 -1      2390 1.97850E+01 5.30525E+00 0.00000E+00
 -1      2391 1.82850E+01 5.30525E+00 0.00000E+00
 -1      2392 2.27850E+01 5.30525E+00 0.00000E+00
 -1      2393 2.12850E+01 5.30525E+00 0.00000E+00
 -1      2394 2.05350E+01 6.60425E+00 0.00000E+00
 -1      2395 2.57850E+01 5.30525E+00 0.00000E+00
 -1      2396 2.42850E+01 5.30525E+00 0.00000E+00
 -1      2397 2.35350E+01 6.60425E+00 0.00000E+00
 -1      2398 2.87850E+01 5.30525E+00 0.00000E+00
 -1      2399 2.72850E+01 5.30525E+00 0.00000E+00
 -1      2400 2.65350E+01 6.60425E+00 0.00000E+00
 -1      2401 3.17850E+01 5.30525E+00 0.00000E+00
 -1      2402 3.02850E+01 5.30525E+00 0.00000E+00
 -1      2403 2.95350E+01 6.60425E+00 0.00000E+00
 -1      2404 3.47850E+01 5.30525E+00 0.00000E+00
 -1      2405 3.32850E+01 5.30525E+00 0.00000E+00
 -1      2406 3.25350E+01 6.60425E+00 0.00000E+00
 -1      2407 3.77850E+01 5.30525E+00 0.00000E+00
 -1      2408 3.62850E+01 5.30525E+00 0.00000E+00
 -1      2409 3.55350E+01 6.60425E+00 0.00000E+00
 -1      2410 4.07850E+01 5.30525E+00 0.00000E+00
 -1      2411 3.92850E+01 5.30525E+00 0.00000E+00
 -1      2412 3.85350E+01 6.60425E+00 0.00000E+00
 -1      2413 4.37850E+01 5.30525E+00 0.00000E+00
 -1      2414 4.22850E+01 5.30525E+00 0.00000E+00
 -1      2415 4.15350E+01 6.60425E+00 0.00000E+00
 -1      2416 4.67850E+01 5.30525E+00 0.00000E+00
 -1      2417 4.52850E+01 5.30525E+00 0.00000E+00
 -1      2418 4.45350E+01 6.60425E+00 0.00000E+00
 -1      2419 4.97850E+01 5.30525E+00 0.00000E+00
 -1      2420 4.82850E+01 5.30525E+00 0.00000E+00
 -1      2421 4.75350E+01 6.60425E+00 0.00000E+00
 -1      2422 5.27850E+01 5.30525E+00 0.00000E+00
 -1      2423 5.12850E+01 5.30525E+00 0.00000E+00
 -1      2424 5.05350E+01 6.60425E+00 0.00000E+00
 -1      2425 5.57850E+01 5.30525E+00 0.00000E+00
 -1      2426 5.42850E+01 5.30525E+00 0.00000E+00
 -1      2427 5.35350E+01 6.60425E+00 0.00000E+00
 -1      2428 5.87850E+01 5.30525E+00 0.00000E+00
 -1      2429 5.72850E+01 5.30525E+00 0.00000E+00
 -1      2430 5.65350E+01 6.60425E+00 0.00000E+00
 -1      2431 6.17850E+01 5.30525E+00 0.00000E+00
 -1      2432 6.02850E+01 5.30525E+00 0.00000E+00
 -1      2433 5.95350E+01 6.60425E+00 0.00000E+00
 -1      2434 6.47850E+01 5.30525E+00 0.00000E+00
 -1      2435 6.32850E+01 5.30525E+00 0.00000E+00
 -1      2436 6.25350E+01 6.60425E+00 0.00000E+00
 -1      2437 6.77850E+01 5.30525E+00 0.00000E+00
 -1      2438 6.62850E+01 5.30525E+00 0.00000E+00
 -1      2439 6.55350E+01 6.60425E+00 0.00000E+00
 -1      2440 7.07850E+01 5.30525E+00 0.00000E+00
 -1      2441 6.92850E+01 5.30525E+00 0.00000E+00
 -1      2442 6.85350E+01 6.60425E+00 0.00000E+00
 -1      2443 7.37850E+01 5.30525E+00 0.00000E+00
 -1      2444 7.22850E+01 5.30525E+00 0.00000E+00
 -1      2445 7.15350E+01 6.60425E+00 0.00000E+00
 -1      2446 7.67850E+01 5.30525E+00 0.00000E+00
 -1      2447 7.52850E+01 5.30525E+00 0.00000E+00
 -1      2448 7.45350E+01 6.60425E+00 0.00000E+00
 -1      2449 7.97850E+01 5.30525E+00 0.00000E+00
 -1      2450 7.82850E+01 5.30525E+00 0.00000E+00
 -1      2451 7.75350E+01 6.60425E+00 0.00000E+00
 -1      2452 8.27850E+01 5.30525E+00 0.00000E+00
 -1      2453 8.12850E+01 5.30525E+00 0.00000E+00
 -1      2454 8.05350E+01 6.60425E+00 0.00000E+00
 -1      2455 8.57850E+01 5.30525E+00 0.00000E+00
 -1      2456 8.42850E+01 5.30525E+00 0.00000E+00
 -1      2457 8.35350E+01 6.60425E+00 0.00000E+00
 -1      2458 8.87850E+01 5.30525E+00 0.00000E+00
 -1      2459 8.72850E+01 5.30525E+00 0.00000E+00
 -1      2460 8.65350E+01 6.60425E+00 0.00000E+00
 -1      2461 9.17850E+01 5.30525E+00 0.00000E+00
 -1      2462 9.02850E+01 5.30525E+00 0.00000E+00
 -1      2463 8.95350E+01 6.60425E+00 0.00000E+00
 -1      2464 9.47850E+01 5.30525E+00 0.00000E+00
 -1      2465 9.32850E+01 5.30525E+00 0.00000E+00
 -1      2466 9.25350E+01 6.60425E+00 0.00000E+00
 -1      2467 9.77850E+01 5.30525E+00 0.00000E+00
 -1      2468 9.62850E+01 5.30525E+00 0.00000E+00
 -1      2469 9.55350E+01 6.60425E+00 0.00000E+00
 -1      2470 1.00785E+02 5.30525E+00 0.00000E+00
 -1      2471 9.92850E+01 5.30525E+00 0.00000E+00
 -1      2472 9.85350E+01 6.60425E+00 0.00000E+00
 -1      2473 1.03785E+02 5.30525E+00 0.00000E+00
 -1      2474 1.02285E+02 5.30525E+00 0.00000E+00
 -1      2475 1.01535E+02 6.60425E+00 0.00000E+00
 -1      2476 1.06785E+02 5.30525E+00 0.00000E+00
 -1      2477 1.05285E+02 5.30525E+00 0.00000E+00
 -1      2478 1.04535E+02 6.60425E+00 0.00000E+00
 -1      2479 1.09785E+02 5.30525E+00 0.00000E+00
 -1      2480 1.08285E+02 5.30525E+00 0.00000E+00
 -1      2481 1.07535E+02 6.60425E+00 0.00000E+00
 -1      2482 1.12785E+02 5.30525E+00 0.00000E+00
 -1      2483 1.11285E+02 5.30525E+00 0.00000E+00
 -1      2484 1.10535E+02 6.60425E+00 0.00000E+00
 -1      2485 1.15785E+02 5.30525E+00 0.00000E+00
 -1      2486 1.14285E+02 5.30525E+00 0.00000E+00
 -1      2487 1.13535E+02 6.60425E+00 0.00000E+00
 -1      2488 1.18785E+02 5.30525E+00 0.00000E+00
 -1      2489 1.17285E+02 5.30525E+00 0.00000E+00
 -1      2490 1.16535E+02 6.60425E+00 0.00000E+00
 -1      2491 1.21785E+02 5.30525E+00 0.00000E+00
 -1      2492 1.20285E+02 5.30525E+00 0.00000E+00
 -1      2493 1.19535E+02 6.60425E+00 0.00000E+00
 -1      2494 1.24785E+02 5.30525E+00 0.00000E+00
 -1      2495 1.23285E+02 5.30525E+00 0.00000E+00
 -1      2496 1.22535E+02 6.60425E+00 0.00000E+00
 -1      2497 1.27785E+02 5.30525E+00 0.00000E+00
 -1      2498 1.26285E+02 5.30525E+00 0.00000E+00
 -1      2499 1.25535E+02 6.60425E+00 0.00000E+00
 -1      2500 1.30785E+02 5.30525E+00 0.00000E+00
 -1      2501 1.29285E+02 5.30525E+00 0.00000E+00
 -1      2502 1.28535E+02 6.60425E+00 0.00000E+00
 -1      2503 1.33785E+02 5.30525E+00 0.00000E+00
 -1      2504 1.32285E+02 5.30525E+00 0.00000E+00
 -1      2505 1.31535E+02 6.60425E+00 0.00000E+00
 -1      2506 1.36785E+02 5.30525E+00 0.00000E+00
 -1      2507 1.35285E+02 5.30525E+00 0.00000E+00
 -1      2508 1.34535E+02 6.60425E+00 0.00000E+00
 -1      2509 1.39785E+02 5.30525E+00 0.00000E+00
 -1      2510 1.38285E+02 5.30525E+00 0.00000E+00
 -1      2511 1.37535E+02 6.60425E+00 0.00000E+00
 -1      2512 1.42785E+02 5.30525E+00 0.00000E+00
 -1      2513 1.41285E+02 5.30525E+00 0.00000E+00
 -1      2514 1.40535E+02 6.60425E+00 0.00000E+00
 -1      2515 1.44336E+02 5.26953E+00 0.00000E+00
 -1      2516 1.43505E+02 1.69125E+01 0.00000E+00
 -1      2517 1.43505E+02 1.54375E+01 0.00000E+00
 -1      2518 1.43505E+02 1.98625E+01 0.00000E+00
 -1      2519 1.43505E+02 1.83875E+01 0.00000E+00
 -1      2520 1.42206E+02 1.76500E+01 0.00000E+00
 -1      2521 1.43505E+02 1.10625E+01 0.00000E+00
 -1      2522 1.43505E+02 9.58750E+00 0.00000E+00
 -1      2523 1.43505E+02 1.39750E+01 0.00000E+00
 -1      2524 1.43505E+02 1.25250E+01 0.00000E+00
 -1      2525 1.42206E+02 1.17875E+01 0.00000E+00
 -1      2526 1.42206E+02 1.47125E+01 0.00000E+00
 -1      2527 1.43505E+02 2.28125E+01 0.00000E+00
 -1      2528 1.43505E+02 2.13375E+01 0.00000E+00
 -1      2529 1.42206E+02 2.06000E+01 0.00000E+00
 -1      2530 1.43505E+02 2.57625E+01 0.00000E+00
 -1      2531 1.43505E+02 2.42875E+01 0.00000E+00
 -1      2532 1.42206E+02 2.35500E+01 0.00000E+00
 -1      2533 1.43505E+02 2.87125E+01 0.00000E+00
 -1      2534 1.43505E+02 2.72375E+01 0.00000E+00
 -1      2535 1.42206E+02 2.65000E+01 0.00000E+00
 -1      2536 1.43505E+02 3.16125E+01 0.00000E+00
 -1      2537 1.43505E+02 3.01625E+01 0.00000E+00
 -1      2538 1.42206E+02 2.94250E+01 0.00000E+00
 -1      2539 1.43505E+02 3.45625E+01 0.00000E+00
 -1      2540 1.43505E+02 3.30875E+01 0.00000E+00
 -1      2541 1.42206E+02 3.23500E+01 0.00000E+00
 -1      2542 1.43505E+02 3.75125E+01 0.00000E+00
 -1      2543 1.43505E+02 3.60375E+01 0.00000E+00
 -1      2544 1.42206E+02 3.53000E+01 0.00000E+00
 -1      2545 1.43505E+02 4.04625E+01 0.00000E+00
 -1      2546 1.43505E+02 3.89875E+01 0.00000E+00
 -1      2547 1.42206E+02 3.82500E+01 0.00000E+00
 -1      2548 3.82505E+01 1.95813E+01 0.00000E+00
 -1      2549 3.84854E+01 2.06215E+01 0.00000E+00
 -1      2550 3.65573E+01 1.57853E+01 0.00000E+00
 -1      2551 3.71599E+01 1.66704E+01 0.00000E+00
 -1      2552 3.69530E+01 1.49900E+01 0.00000E+00
 -1      2553 1.67850E+01 5.30525E+00 0.00000E+00
 -1      2554 1.52850E+01 5.30525E+00 0.00000E+00
 -1      2555 1.75350E+01 6.60425E+00 0.00000E+00
 -1      2556 6.55950E+00 4.28890E+01 0.00000E+00
 -1      2557 8.53650E+00 4.32410E+01 0.00000E+00
 -1      2558 9.28650E+00 4.19420E+01 0.00000E+00
 -1      2559 6.55950E+00 4.14140E+01 0.00000E+00
 -1      2560 1.44321E+02 4.30606E+01 0.00000E+00
 -1      2561 3.81699E+01 2.37786E+01 0.00000E+00
 -1      2562 3.77770E+01 2.48412E+01 0.00000E+00
 -1      2563 3.77236E+01 1.76460E+01 0.00000E+00
 -1      2564 3.80102E+01 1.85337E+01 0.00000E+00
 -1      2565 3.84696E+01 2.18374E+01 0.00000E+00
 -1      2566 3.83470E+01 2.26517E+01 0.00000E+00
 -1      2567 1.85190E+01 1.67869E+01 0.00000E+00
 -1      2568 1.91602E+01 1.57793E+01 0.00000E+00
 -1      2569 6.48374E+00 2.71625E+01 0.00000E+00
 -1      2570 6.48374E+00 2.86375E+01 0.00000E+00
 -1      2571 7.78274E+00 2.93750E+01 0.00000E+00
 -1      2572 7.76022E+00 2.64250E+01 0.00000E+00
 -1      2573 2.73116E+01 1.10719E+01 0.00000E+00
 -1      2574 2.82059E+01 1.10425E+01 0.00000E+00
 -1      2575 1.78889E+01 2.35428E+01 0.00000E+00
 -1      2576 1.75360E+01 2.25260E+01 0.00000E+00
 -1      2577 2.93771E+01 1.10683E+01 0.00000E+00
 -1      2578 3.04772E+01 1.12878E+01 0.00000E+00
 -1      2579 2.52102E+01 1.11492E+01 0.00000E+00
 -1      2580 2.62609E+01 1.11105E+01 0.00000E+00
 -1      2581 2.66854E+01 1.04062E+01 0.00000E+00
 -1      2582 2.29950E+01 1.20280E+01 0.00000E+00
 -1      2583 2.38965E+01 1.14532E+01 0.00000E+00
 -1      2584 2.13126E+01 1.32703E+01 0.00000E+00
 -1      2585 2.20918E+01 1.26632E+01 0.00000E+00
 -1      2586 1.98427E+01 1.47851E+01 0.00000E+00
 -1      2587 2.04880E+01 1.40483E+01 0.00000E+00
 -1      2588 1.78484E+01 1.88567E+01 0.00000E+00
 -1      2589 1.80404E+01 1.79848E+01 0.00000E+00
 -1      2590 3.61263E+01 2.73620E+01 0.00000E+00
 -1      2591 3.56365E+01 2.80834E+01 0.00000E+00
 -1      2592 1.73382E+01 2.10475E+01 0.00000E+00
 -1      2593 1.75266E+01 1.98907E+01 0.00000E+00
 -1      2594 1.83304E+01 2.53486E+01 0.00000E+00
 -1      2595 1.81097E+01 2.44457E+01 0.00000E+00
 -1      2596 1.72022E+01 2.41910E+01 0.00000E+00
 -1      2597 2.11717E+01 2.90640E+01 0.00000E+00
 -1      2598 2.05239E+01 2.84205E+01 0.00000E+00
 -1      2599 2.50409E+01 3.14695E+01 0.00000E+00
 -1      2600 2.41945E+01 3.12027E+01 0.00000E+00
 -1      2601 2.73691E+01 3.17399E+01 0.00000E+00
 -1      2602 2.62160E+01 3.16162E+01 0.00000E+00
 -1      2603 2.93344E+01 3.15624E+01 0.00000E+00
 -1      2604 2.85638E+01 3.17151E+01 0.00000E+00
 -1      2605 3.12790E+01 3.09280E+01 0.00000E+00
 -1      2606 3.03067E+01 3.12452E+01 0.00000E+00
 -1      2607 3.00718E+01 3.20806E+01 0.00000E+00
 -1      2608 3.29896E+01 3.02654E+01 0.00000E+00
 -1      2609 3.22650E+01 3.06450E+01 0.00000E+00
 -1      2610 3.48029E+01 2.90138E+01 0.00000E+00
 -1      2611 3.39088E+01 2.96758E+01 0.00000E+00
 -1      2612 3.71714E+01 2.58705E+01 0.00000E+00
 -1      2613 3.66489E+01 2.66163E+01 0.00000E+00
 -1      2614 3.70441E+01 2.74116E+01 0.00000E+00
 -1      2615 3.15394E+01 1.15475E+01 0.00000E+00
 -1      2616 3.24220E+01 1.18121E+01 0.00000E+00
 -1      2617 8.07525E+00 5.11044E+00 0.00000E+00
 -1      2618 6.57525E+00 5.11044E+00 0.00000E+00
 -1      2619 6.40575E+00 6.01981E+00 0.00000E+00
 -1      2620 8.82525E+00 6.40944E+00 0.00000E+00
 -1      2621 2.89073E+01 1.03934E+01 0.00000E+00
 -1      2622 7.79400E+00 3.52687E+01 0.00000E+00
 -1      2623 6.49500E+00 3.60062E+01 0.00000E+00
 -1      2624 6.49500E+00 3.74750E+01 0.00000E+00
 -1      2625 1.45350E+01 6.60425E+00 0.00000E+00
 -1      2626 6.40575E+00 7.49481E+00 0.00000E+00
 -1      2627 3.56880E+01 2.90878E+01 0.00000E+00
 -1      2628 3.32542E+01 1.17907E+01 0.00000E+00
 -1      2629 3.40865E+01 1.17693E+01 0.00000E+00
 -1      2630 3.30352E+01 1.09172E+01 0.00000E+00
 -1      2631 3.20301E+01 3.14804E+01 0.00000E+00
 -1      2632 3.81193E+01 1.68508E+01 0.00000E+00
 -1      2633 7.68223E+00 8.23231E+00 0.00000E+00
 -1      2634 3.51908E+01 1.25697E+01 0.00000E+00
 -1      2635 3.53280E+01 1.33738E+01 0.00000E+00
 -1      2636 3.62132E+01 1.33007E+01 0.00000E+00
 -1      2637 3.81722E+01 2.56366E+01 0.00000E+00
 -1      2638 2.79047E+01 3.24226E+01 0.00000E+00
 -1      2639 1.43586E+02 6.56853E+00 0.00000E+00
 -1      2640 1.43419E+02 7.72713E+00 0.00000E+00
 -1      2641 2.55349E+01 3.23007E+01 0.00000E+00
 -1      2642 3.91478E+01 2.11376E+01 0.00000E+00
 -1      2643 3.89233E+01 1.88741E+01 0.00000E+00
 -1      2644 1.82390E+01 2.61417E+01 0.00000E+00
 -1      2645 1.73316E+01 2.58871E+01 0.00000E+00
 -1      2646 1.81477E+01 2.69349E+01 0.00000E+00
 -1      2647 1.67837E+01 2.18097E+01 0.00000E+00
 -1      2648 1.60315E+01 2.10934E+01 0.00000E+00
 -1      2649 1.62293E+01 2.25719E+01 0.00000E+00
 -1      2650 6.55950E+00 3.99453E+01 0.00000E+00
 -1      2651 3.89549E+01 2.34804E+01 0.00000E+00
 -1      2652 1.88693E+01 1.48735E+01 0.00000E+00
 -1      2653 1.69078E+01 1.92973E+01 0.00000E+00
 -1      2654 2.03763E+01 1.31013E+01 0.00000E+00
 -1      2655 2.34135E+01 3.13682E+01 0.00000E+00
 -1      2656 1.96788E+01 2.82404E+01 0.00000E+00
 -1      2657 2.43209E+01 1.07489E+01 0.00000E+00
 -1      2658 2.47454E+01 1.00445E+01 0.00000E+00
 -1      2659 2.34317E+01 1.03485E+01 0.00000E+00
 -1      2660 1.77082E+01 1.70655E+01 0.00000E+00
 -1      2661 1.42758E+02 4.35929E+01 0.00000E+00
 -1      2662 1.43241E+02 4.17323E+01 0.00000E+00
 -1      2663 1.41942E+02 4.09948E+01 0.00000E+00
 -1      2664 1.41414E+02 4.35342E+01 0.00000E+00
 -1      2665 3.11407E+01 1.06789E+01 0.00000E+00
 -1      2666 2.21041E+01 1.16881E+01 0.00000E+00
 -1      2667 2.13849E+01 2.99369E+01 0.00000E+00
 -1      2668 3.39353E+01 3.06078E+01 0.00000E+00
 -1      2669 1.42120E+02 8.46463E+00 0.00000E+00
 -1      2670 1.40664E+02 4.22352E+01 0.00000E+00
 -1      2671 9.04796E+00 1.98250E+01 0.00000E+00
 -1      2672 9.04796E+00 2.12750E+01 0.00000E+00
 -1      2673 9.04796E+00 2.27500E+01 0.00000E+00
 -1      2674 9.04796E+00 2.42250E+01 0.00000E+00
 -1      2675 1.03470E+01 2.20250E+01 0.00000E+00
 -1      2676 9.04796E+00 1.39375E+01 0.00000E+00
 -1      2677 9.04796E+00 1.54125E+01 0.00000E+00
 -1      2678 9.04796E+00 1.09875E+01 0.00000E+00
 -1      2679 9.04796E+00 1.24625E+01 0.00000E+00
 -1      2680 1.03470E+01 1.32000E+01 0.00000E+00
 -1      2681 1.22850E+01 7.90325E+00 0.00000E+00
 -1      2682 1.07850E+01 7.90325E+00 0.00000E+00
 -1      2683 3.86526E+01 1.58920E+01 0.00000E+00
 -1      2684 3.92162E+01 1.68677E+01 0.00000E+00
 -1      2685 1.44000E+01 4.09070E+01 0.00000E+00
 -1      2686 1.59000E+01 4.09070E+01 0.00000E+00
 -1      2687 1.74000E+01 4.09070E+01 0.00000E+00
 -1      2688 1.89000E+01 4.09070E+01 0.00000E+00
 -1      2689 1.66500E+01 3.96080E+01 0.00000E+00
 -1      2690 2.04000E+01 4.09070E+01 0.00000E+00
 -1      2691 2.19000E+01 4.09070E+01 0.00000E+00
 -1      2692 1.96500E+01 3.96080E+01 0.00000E+00
 -1      2693 2.34000E+01 4.09070E+01 0.00000E+00
 -1      2694 2.49000E+01 4.09070E+01 0.00000E+00
 -1      2695 2.26500E+01 3.96080E+01 0.00000E+00
 -1      2696 2.64000E+01 4.09070E+01 0.00000E+00
 -1      2697 2.79000E+01 4.09070E+01 0.00000E+00
 -1      2698 2.56500E+01 3.96080E+01 0.00000E+00
 -1      2699 2.94000E+01 4.09070E+01 0.00000E+00
 -1      2700 3.09000E+01 4.09070E+01 0.00000E+00
 -1      2701 2.86500E+01 3.96080E+01 0.00000E+00
 -1      2702 3.24000E+01 4.09070E+01 0.00000E+00
 -1      2703 3.39000E+01 4.09070E+01 0.00000E+00
 -1      2704 3.16500E+01 3.96080E+01 0.00000E+00
 -1      2705 3.54000E+01 4.09070E+01 0.00000E+00
 -1      2706 3.69000E+01 4.09070E+01 0.00000E+00
 -1      2707 3.46500E+01 3.96080E+01 0.00000E+00
 -1      2708 3.84000E+01 4.09070E+01 0.00000E+00
 -1      2709 3.99000E+01 4.09070E+01 0.00000E+00
 -1      2710 3.76500E+01 3.96080E+01 0.00000E+00
 -1      2711 4.14000E+01 4.09070E+01 0.00000E+00
 -1      2712 4.29000E+01 4.09070E+01 0.00000E+00
 -1      2713 4.06500E+01 3.96080E+01 0.00000E+00
 -1      2714 4.44000E+01 4.09070E+01 0.00000E+00
 -1      2715 4.59000E+01 4.09070E+01 0.00000E+00
 -1      2716 4.36500E+01 3.96080E+01 0.00000E+00
 -1      2717 4.74000E+01 4.09070E+01 0.00000E+00
 -1      2718 4.89000E+01 4.09070E+01 0.00000E+00
 -1      2719 4.66500E+01 3.96080E+01 0.00000E+00
 -1      2720 5.04000E+01 4.09070E+01 0.00000E+00
 -1      2721 5.19000E+01 4.09070E+01 0.00000E+00
 -1      2722 4.96500E+01 3.96080E+01 0.00000E+00
 -1      2723 5.34000E+01 4.09070E+01 0.00000E+00
 -1      2724 5.49000E+01 4.09070E+01 0.00000E+00
 -1      2725 5.26500E+01 3.96080E+01 0.00000E+00
 -1      2726 5.64000E+01 4.09070E+01 0.00000E+00
 -1      2727 5.79000E+01 4.09070E+01 0.00000E+00
 -1      2728 5.56500E+01 3.96080E+01 0.00000E+00
 -1      2729 5.94000E+01 4.09070E+01 0.00000E+00
 -1      2730 6.09000E+01 4.09070E+01 0.00000E+00
 -1      2731 5.86500E+01 3.96080E+01 0.00000E+00
 -1      2732 6.24000E+01 4.09070E+01 0.00000E+00
 -1      2733 6.39000E+01 4.09070E+01 0.00000E+00
 -1      2734 6.16500E+01 3.96080E+01 0.00000E+00
 -1      2735 6.54000E+01 4.09070E+01 0.00000E+00
 -1      2736 6.69000E+01 4.09070E+01 0.00000E+00
 -1      2737 6.46500E+01 3.96080E+01 0.00000E+00
 -1      2738 6.84000E+01 4.09070E+01 0.00000E+00
 -1      2739 6.99000E+01 4.09070E+01 0.00000E+00
 -1      2740 6.76500E+01 3.96080E+01 0.00000E+00
 -1      2741 7.14000E+01 4.09070E+01 0.00000E+00
 -1      2742 7.29000E+01 4.09070E+01 0.00000E+00
 -1      2743 7.06500E+01 3.96080E+01 0.00000E+00
 -1      2744 7.44000E+01 4.09070E+01 0.00000E+00
 -1      2745 7.59000E+01 4.09070E+01 0.00000E+00
 -1      2746 7.36500E+01 3.96080E+01 0.00000E+00
 -1      2747 7.74000E+01 4.09070E+01 0.00000E+00
 -1      2748 7.89000E+01 4.09070E+01 0.00000E+00
 -1      2749 7.66500E+01 3.96080E+01 0.00000E+00
 -1      2750 8.04000E+01 4.09070E+01 0.00000E+00
 -1      2751 8.19000E+01 4.09070E+01 0.00000E+00
 -1      2752 7.96500E+01 3.96080E+01 0.00000E+00
 -1      2753 8.34000E+01 4.09070E+01 0.00000E+00
 -1      2754 8.49000E+01 4.09070E+01 0.00000E+00
 -1      2755 8.26500E+01 3.96080E+01 0.00000E+00
 -1      2756 8.64000E+01 4.09070E+01 0.00000E+00
 -1      2757 8.79000E+01 4.09070E+01 0.00000E+00
 -1      2758 8.56500E+01 3.96080E+01 0.00000E+00
 -1      2759 8.94000E+01 4.09070E+01 0.00000E+00
 -1      2760 9.09000E+01 4.09070E+01 0.00000E+00
 -1      2761 8.86500E+01 3.96080E+01 0.00000E+00
 -1      2762 9.24000E+01 4.09070E+01 0.00000E+00
 -1      2763 9.39000E+01 4.09070E+01 0.00000E+00
 -1      2764 9.16500E+01 3.96080E+01 0.00000E+00
 -1      2765 9.54000E+01 4.09070E+01 0.00000E+00
 -1      2766 9.69000E+01 4.09070E+01 0.00000E+00
 -1      2767 9.46500E+01 3.96080E+01 0.00000E+00
 -1      2768 9.84000E+01 4.09070E+01 0.00000E+00
 -1      2769 9.99000E+01 4.09070E+01 0.00000E+00
 -1      2770 9.76500E+01 3.96080E+01 0.00000E+00
 -1      2771 1.01400E+02 4.09070E+01 0.00000E+00
 -1      2772 1.02900E+02 4.09070E+01 0.00000E+00
 -1      2773 1.00650E+02 3.96080E+01 0.00000E+00
 -1      2774 1.04400E+02 4.09070E+01 0.00000E+00
 -1      2775 1.05900E+02 4.09070E+01 0.00000E+00
 -1      2776 1.03650E+02 3.96080E+01 0.00000E+00
 -1      2777 1.07400E+02 4.09070E+01 0.00000E+00
 -1      2778 1.08900E+02 4.09070E+01 0.00000E+00
 -1      2779 1.06650E+02 3.96080E+01 0.00000E+00
 -1      2780 1.10400E+02 4.09070E+01 0.00000E+00
 -1      2781 1.11900E+02 4.09070E+01 0.00000E+00
 -1      2782 1.09650E+02 3.96080E+01 0.00000E+00
 -1      2783 1.13400E+02 4.09070E+01 0.00000E+00
 -1      2784 1.14900E+02 4.09070E+01 0.00000E+00
 -1      2785 1.12650E+02 3.96080E+01 0.00000E+00
 -1      2786 1.16400E+02 4.09070E+01 0.00000E+00
 -1      2787 1.17900E+02 4.09070E+01 0.00000E+00
 -1      2788 1.15650E+02 3.96080E+01 0.00000E+00
 -1      2789 1.19400E+02 4.09070E+01 0.00000E+00
 -1      2790 1.20900E+02 4.09070E+01 0.00000E+00
 -1      2791 1.18650E+02 3.96080E+01 0.00000E+00
 -1      2792 1.22400E+02 4.09070E+01 0.00000E+00
 -1      2793 1.23900E+02 4.09070E+01 0.00000E+00
 -1      2794 1.21650E+02 3.96080E+01 0.00000E+00
 -1      2795 1.25400E+02 4.09070E+01 0.00000E+00
 -1      2796 1.26900E+02 4.09070E+01 0.00000E+00
 -1      2797 1.24650E+02 3.96080E+01 0.00000E+00
 -1      2798 1.28400E+02 4.09070E+01 0.00000E+00
 -1      2799 1.29900E+02 4.09070E+01 0.00000E+00
 -1      2800 1.27650E+02 3.96080E+01 0.00000E+00
 -1      2801 1.31400E+02 4.09070E+01 0.00000E+00
 -1      2802 1.32900E+02 4.09070E+01 0.00000E+00
 -1      2803 1.30650E+02 3.96080E+01 0.00000E+00
 -1      2804 1.34400E+02 4.09070E+01 0.00000E+00
 -1      2805 1.35900E+02 4.09070E+01 0.00000E+00
 -1      2806 1.33650E+02 3.96080E+01 0.00000E+00
 -1      2807 1.37400E+02 4.09070E+01 0.00000E+00
 -1      2808 1.38900E+02 4.09070E+01 0.00000E+00
 -1      2809 1.36650E+02 3.96080E+01 0.00000E+00
 -1      2810 2.44456E+01 8.12423E+00 0.00000E+00
 -1      2811 2.29456E+01 8.12423E+00 0.00000E+00
 -1      2812 3.08332E+01 9.63468E+00 0.00000E+00
 -1      2813 3.18954E+01 9.89438E+00 0.00000E+00
 -1      2814 3.28114E+01 7.72719E+00 0.00000E+00
 -1      2815 3.13114E+01 7.72719E+00 0.00000E+00
 -1      2816 3.62850E+01 7.71316E+00 0.00000E+00
 -1      2817 3.47850E+01 7.71316E+00 0.00000E+00
 -1      2818 3.92850E+01 7.71316E+00 0.00000E+00
 -1      2819 3.77850E+01 7.71316E+00 0.00000E+00
 -1      2820 3.70350E+01 8.82207E+00 0.00000E+00
 -1      2821 4.22850E+01 7.71316E+00 0.00000E+00
 -1      2822 4.07850E+01 7.71316E+00 0.00000E+00
 -1      2823 4.00350E+01 8.82207E+00 0.00000E+00
 -1      2824 4.52850E+01 7.71316E+00 0.00000E+00
 -1      2825 4.37850E+01 7.71316E+00 0.00000E+00
 -1      2826 4.30350E+01 8.82207E+00 0.00000E+00
 -1      2827 4.82850E+01 7.71316E+00 0.00000E+00
 -1      2828 4.67850E+01 7.71316E+00 0.00000E+00
 -1      2829 4.60350E+01 8.82207E+00 0.00000E+00
 -1      2830 5.12850E+01 7.71316E+00 0.00000E+00
 -1      2831 4.97850E+01 7.71316E+00 0.00000E+00
 -1      2832 4.90350E+01 8.82207E+00 0.00000E+00
 -1      2833 5.42850E+01 7.71316E+00 0.00000E+00
 -1      2834 5.27850E+01 7.71316E+00 0.00000E+00
 -1      2835 5.20350E+01 8.82207E+00 0.00000E+00
 -1      2836 5.72850E+01 7.71316E+00 0.00000E+00
 -1      2837 5.57850E+01 7.71316E+00 0.00000E+00
 -1      2838 5.50350E+01 8.82207E+00 0.00000E+00
 -1      2839 6.02850E+01 7.71316E+00 0.00000E+00
 -1      2840 5.87850E+01 7.71316E+00 0.00000E+00
 -1      2841 5.80350E+01 8.82207E+00 0.00000E+00
 -1      2842 6.32850E+01 7.71316E+00 0.00000E+00
 -1      2843 6.17850E+01 7.71316E+00 0.00000E+00
 -1      2844 6.10350E+01 8.82207E+00 0.00000E+00
 -1      2845 6.62850E+01 7.71316E+00 0.00000E+00
 -1      2846 6.47850E+01 7.71316E+00 0.00000E+00
 -1      2847 6.40350E+01 8.82207E+00 0.00000E+00
 -1      2848 6.92850E+01 7.71316E+00 0.00000E+00
 -1      2849 6.77850E+01 7.71316E+00 0.00000E+00
 -1      2850 6.70350E+01 8.82207E+00 0.00000E+00
 -1      2851 7.22850E+01 7.71316E+00 0.00000E+00
 -1      2852 7.07850E+01 7.71316E+00 0.00000E+00
 -1      2853 7.00350E+01 8.82207E+00 0.00000E+00
 -1      2854 7.52850E+01 7.71316E+00 0.00000E+00
 -1      2855 7.37850E+01 7.71316E+00 0.00000E+00
 -1      2856 7.30350E+01 8.82207E+00 0.00000E+00
 -1      2857 7.82850E+01 7.71316E+00 0.00000E+00
 -1      2858 7.67850E+01 7.71316E+00 0.00000E+00
 -1      2859 7.60350E+01 8.82207E+00 0.00000E+00
 -1      2860 8.12850E+01 7.71316E+00 0.00000E+00
 -1      2861 7.97850E+01 7.71316E+00 0.00000E+00
 -1      2862 7.90350E+01 8.82207E+00 0.00000E+00
 -1      2863 8.42850E+01 7.71316E+00 0.00000E+00
 -1      2864 8.27850E+01 7.71316E+00 0.00000E+00
 -1      2865 8.20350E+01 8.82207E+00 0.00000E+00
 -1      2866 8.72850E+01 7.71316E+00 0.00000E+00
 -1      2867 8.57850E+01 7.71316E+00 0.00000E+00
 -1      2868 8.50350E+01 8.82207E+00 0.00000E+00
 -1      2869 9.02850E+01 7.71316E+00 0.00000E+00
 -1      2870 8.87850E+01 7.71316E+00 0.00000E+00
 -1      2871 8.80350E+01 8.82207E+00 0.00000E+00
 -1      2872 9.32850E+01 7.71316E+00 0.00000E+00
 -1      2873 9.17850E+01 7.71316E+00 0.00000E+00
 -1      2874 9.10350E+01 8.82207E+00 0.00000E+00
 -1      2875 9.62850E+01 7.71316E+00 0.00000E+00
 -1      2876 9.47850E+01 7.71316E+00 0.00000E+00
 -1      2877 9.40350E+01 8.82207E+00 0.00000E+00
 -1      2878 9.92850E+01 7.71316E+00 0.00000E+00
 -1      2879 9.77850E+01 7.71316E+00 0.00000E+00
 -1      2880 9.70350E+01 8.82207E+00 0.00000E+00
 -1      2881 1.02285E+02 7.71316E+00 0.00000E+00
 -1      2882 1.00785E+02 7.71316E+00 0.00000E+00
 -1      2883 1.00035E+02 8.82207E+00 0.00000E+00
 -1      2884 1.05285E+02 7.71316E+00 0.00000E+00
 -1      2885 1.03785E+02 7.71316E+00 0.00000E+00
 -1      2886 1.03035E+02 8.82207E+00 0.00000E+00
 -1      2887 1.08285E+02 7.71316E+00 0.00000E+00
 -1      2888 1.06785E+02 7.71316E+00 0.00000E+00
 -1      2889 1.06035E+02 8.82207E+00 0.00000E+00
 -1      2890 1.11285E+02 7.71316E+00 0.00000E+00
 -1      2891 1.09785E+02 7.71316E+00 0.00000E+00
 -1      2892 1.09035E+02 8.82207E+00 0.00000E+00
 -1      2893 1.14285E+02 7.71316E+00 0.00000E+00
 -1      2894 1.12785E+02 7.71316E+00 0.00000E+00
 -1      2895 1.12035E+02 8.82207E+00 0.00000E+00
 -1      2896 1.17285E+02 7.71316E+00 0.00000E+00
 -1      2897 1.15785E+02 7.71316E+00 0.00000E+00
 -1      2898 1.15035E+02 8.82207E+00 0.00000E+00
 -1      2899 1.20285E+02 7.71316E+00 0.00000E+00
 -1      2900 1.18785E+02 7.71316E+00 0.00000E+00
 -1      2901 1.18035E+02 8.82207E+00 0.00000E+00
 -1      2902 1.23285E+02 7.71316E+00 0.00000E+00
 -1      2903 1.21785E+02 7.71316E+00 0.00000E+00
 -1      2904 1.21035E+02 8.82207E+00 0.00000E+00
 -1      2905 1.26285E+02 7.71316E+00 0.00000E+00
 -1      2906 1.24785E+02 7.71316E+00 0.00000E+00
 -1      2907 1.24035E+02 8.82207E+00 0.00000E+00
 -1      2908 1.29285E+02 7.71316E+00 0.00000E+00
 -1      2909 1.27785E+02 7.71316E+00 0.00000E+00
 -1      2910 1.27035E+02 8.82207E+00 0.00000E+00
 -1      2911 1.32285E+02 7.71316E+00 0.00000E+00
 -1      2912 1.30785E+02 7.71316E+00 0.00000E+00
 -1      2913 1.30035E+02 8.82207E+00 0.00000E+00
 -1      2914 1.35285E+02 7.71316E+00 0.00000E+00
 -1      2915 1.33785E+02 7.71316E+00 0.00000E+00
 -1      2916 1.33035E+02 8.82207E+00 0.00000E+00
 -1      2917 1.38285E+02 7.71316E+00 0.00000E+00
 -1      2918 1.36785E+02 7.71316E+00 0.00000E+00
 -1      2919 1.36035E+02 8.82207E+00 0.00000E+00
 -1      2920 1.40953E+02 8.08889E+00 0.00000E+00
 -1      2921 1.39453E+02 8.08889E+00 0.00000E+00
 -1      2922 1.38703E+02 9.19780E+00 0.00000E+00
 -1      2923 1.41038E+02 9.94927E+00 0.00000E+00
 -1      2924 1.40907E+02 2.42875E+01 0.00000E+00
 -1      2925 1.40907E+02 2.28125E+01 0.00000E+00
 -1      2926 1.39914E+02 4.09362E+01 0.00000E+00
 -1      2927 1.40928E+02 4.09655E+01 0.00000E+00
 -1      2928 1.39164E+02 3.96372E+01 0.00000E+00
 -1      2929 1.40907E+02 1.83875E+01 0.00000E+00
 -1      2930 1.40907E+02 1.69125E+01 0.00000E+00
 -1      2931 1.40907E+02 2.72375E+01 0.00000E+00
 -1      2932 1.40907E+02 2.57625E+01 0.00000E+00
 -1      2933 1.39608E+02 2.50250E+01 0.00000E+00
 -1      2934 1.40907E+02 2.13375E+01 0.00000E+00
 -1      2935 1.40907E+02 1.98625E+01 0.00000E+00
 -1      2936 1.39608E+02 1.91250E+01 0.00000E+00
 -1      2937 1.39608E+02 2.20750E+01 0.00000E+00
 -1      2938 3.74473E+01 1.41218E+01 0.00000E+00
 -1      2939 3.80499E+01 1.50069E+01 0.00000E+00
 -1      2940 3.91468E+01 1.50238E+01 0.00000E+00
 -1      2941 1.40907E+02 3.01375E+01 0.00000E+00
 -1      2942 1.40907E+02 2.86875E+01 0.00000E+00
 -1      2943 1.39608E+02 2.79500E+01 0.00000E+00
 -1      2944 1.40907E+02 3.30875E+01 0.00000E+00
 -1      2945 1.40907E+02 3.16125E+01 0.00000E+00
 -1      2946 1.39608E+02 3.08750E+01 0.00000E+00
 -1      2947 1.40907E+02 3.60375E+01 0.00000E+00
 -1      2948 1.40907E+02 3.45625E+01 0.00000E+00
 -1      2949 1.39608E+02 3.38250E+01 0.00000E+00
 -1      2950 8.89198E+00 8.42712E+00 0.00000E+00
 -1      2951 1.82850E+01 7.90325E+00 0.00000E+00
 -1      2952 1.67850E+01 7.90325E+00 0.00000E+00
 -1      2953 3.96390E+01 1.81585E+01 0.00000E+00
 -1      2954 3.98792E+01 1.92062E+01 0.00000E+00
 -1      2955 1.78210E+01 1.48852E+01 0.00000E+00
 -1      2956 1.85035E+01 1.38910E+01 0.00000E+00
 -1      2957 3.27597E+01 3.21632E+01 0.00000E+00
 -1      2958 3.17737E+01 3.24462E+01 0.00000E+00
 -1      2959 1.59681E+01 1.95719E+01 0.00000E+00
 -1      2960 1.62899E+01 1.85379E+01 0.00000E+00
 -1      2961 2.78855E+01 8.48591E+00 0.00000E+00
 -1      2962 2.63855E+01 8.48591E+00 0.00000E+00
 -1      2963 1.14000E+01 4.09070E+01 0.00000E+00
 -1      2964 1.29000E+01 4.09070E+01 0.00000E+00
 -1      2965 1.36500E+01 3.96080E+01 0.00000E+00
 -1      2966 3.91780E+01 2.55356E+01 0.00000E+00
 -1      2967 3.85725E+01 2.65648E+01 0.00000E+00
 -1      2968 1.52850E+01 7.90325E+00 0.00000E+00
 -1      2969 1.37850E+01 7.90325E+00 0.00000E+00
 -1      2970 1.30350E+01 9.20225E+00 0.00000E+00
 -1      2971 1.60350E+01 9.20225E+00 0.00000E+00
 -1      2972 3.99734E+01 2.30631E+01 0.00000E+00
 -1      2973 3.97963E+01 2.41900E+01 0.00000E+00
 -1      2974 9.04796E+00 1.68813E+01 0.00000E+00
 -1      2975 9.04796E+00 1.83563E+01 0.00000E+00
 -1      2976 1.03470E+01 1.90812E+01 0.00000E+00
 -1      2977 1.03470E+01 1.61437E+01 0.00000E+00
 -1      2978 9.09300E+00 3.15875E+01 0.00000E+00
 -1      2979 9.09300E+00 3.30625E+01 0.00000E+00
 -1      2980 7.85850E+00 3.92077E+01 0.00000E+00
 -1      2981 2.14438E+01 3.10681E+01 0.00000E+00
 -1      2982 2.03615E+01 3.04225E+01 0.00000E+00
 -1      2983 2.33365E+01 3.26396E+01 0.00000E+00
 -1      2984 2.23901E+01 3.18538E+01 0.00000E+00
 -1      2985 2.13667E+01 3.23395E+01 0.00000E+00
 -1      2986 1.41192E+02 3.96958E+01 0.00000E+00
 -1      2987 1.67115E+01 1.73618E+01 0.00000E+00
 -1      2988 1.71901E+01 1.61640E+01 0.00000E+00
 -1      2989 1.92031E+01 1.26837E+01 0.00000E+00
 -1      2990 2.00276E+01 1.19057E+01 0.00000E+00
 -1      2991 1.65202E+01 2.48362E+01 0.00000E+00
 -1      2992 1.62995E+01 2.39333E+01 0.00000E+00
 -1      2993 1.92893E+01 2.91821E+01 0.00000E+00
 -1      2994 1.86656E+01 2.81313E+01 0.00000E+00
 -1      2995 3.49031E+01 3.11053E+01 0.00000E+00
 -1      2996 3.39840E+01 3.16949E+01 0.00000E+00
 -1      2997 4.01807E+01 2.05429E+01 0.00000E+00
 -1      2998 4.01650E+01 2.17588E+01 0.00000E+00
 -1      2999 2.60058E+01 3.33081E+01 0.00000E+00
 -1      3000 2.48308E+01 3.31614E+01 0.00000E+00
 -1      3001 3.08014E+01 3.27633E+01 0.00000E+00
 -1      3002 2.98291E+01 3.30805E+01 0.00000E+00
 -1      3003 3.15310E+01 3.34461E+01 0.00000E+00
 -1      3004 3.80499E+01 2.73106E+01 0.00000E+00
 -1      3005 3.75274E+01 2.80563E+01 0.00000E+00
 -1      3006 3.90557E+01 2.72095E+01 0.00000E+00
 -1      3007 2.09308E+01 1.12705E+01 0.00000E+00
 -1      3008 2.18339E+01 1.06352E+01 0.00000E+00
 -1      3009 1.97575E+01 1.08529E+01 0.00000E+00
 -1      3010 3.68059E+01 2.92507E+01 0.00000E+00
 -1      3011 3.59723E+01 3.01811E+01 0.00000E+00
 -1      3012 2.85234E+01 3.34351E+01 0.00000E+00
 -1      3013 2.73287E+01 3.34599E+01 0.00000E+00
 -1      3014 9.09300E+00 3.45313E+01 0.00000E+00
 -1      3015 9.09300E+00 3.60000E+01 0.00000E+00
 -1      3016 1.03920E+01 3.37938E+01 0.00000E+00
 -1      3017 1.03582E+01 2.49750E+01 0.00000E+00
 -1      3018 9.05922E+00 2.57000E+01 0.00000E+00
 -1      3019 9.07048E+00 2.71750E+01 0.00000E+00
 -1      3020 4.10063E+01 2.24684E+01 0.00000E+00
 -1      3021 4.01722E+01 1.71998E+01 0.00000E+00
 -1      3022 3.71730E+01 1.25135E+01 0.00000E+00
 -1      3023 3.73101E+01 1.33176E+01 0.00000E+00
 -1      3024 3.84070E+01 1.33345E+01 0.00000E+00
 -1      3025 3.49717E+01 1.16962E+01 0.00000E+00
 -1      3026 3.58570E+01 1.16231E+01 0.00000E+00
 -1      3027 3.47527E+01 1.08227E+01 0.00000E+00
 -1      3028 2.92530E+01 3.41179E+01 0.00000E+00
 -1      3029 2.24386E+01 9.23637E+00 0.00000E+00
 -1      3030 2.15280E+01 7.71639E+00 0.00000E+00
 -1      3031 2.00280E+01 7.71639E+00 0.00000E+00
 -1      3032 2.20141E+01 9.94067E+00 0.00000E+00
 -1      3033 1.39608E+02 1.61875E+01 0.00000E+00
 -1      3034 1.40907E+02 1.54500E+01 0.00000E+00
 -1      3035 1.40907E+02 1.39875E+01 0.00000E+00
 -1      3036 3.35614E+01 8.83610E+00 0.00000E+00
 -1      3037 3.38690E+01 9.88035E+00 0.00000E+00
 -1      3038 2.66245E+01 3.43206E+01 0.00000E+00
 -1      3039 3.02850E+01 7.79694E+00 0.00000E+00
 -1      3040 2.87850E+01 7.79694E+00 0.00000E+00
 -1      3041 4.08964E+01 1.98274E+01 0.00000E+00
 -1      3042 1.68243E+01 1.51816E+01 0.00000E+00
 -1      3043 1.40973E+02 1.26996E+01 0.00000E+00
 -1      3044 1.40973E+02 1.12371E+01 0.00000E+00
 -1      3045 1.39805E+02 1.08614E+01 0.00000E+00
 -1      3046 1.39674E+02 1.34371E+01 0.00000E+00
 -1      3047 3.60210E+01 3.12682E+01 0.00000E+00
 -1      3048 1.93482E+01 3.03134E+01 0.00000E+00
 -1      3049 1.83349E+01 3.02043E+01 0.00000E+00
 -1      3050 1.94071E+01 3.14446E+01 0.00000E+00
 -1      3051 9.64198E+00 9.72612E+00 0.00000E+00
 -1      3052 1.41192E+02 3.82207E+01 0.00000E+00
 -1      3053 1.64289E+01 2.56293E+01 0.00000E+00
 -1      3054 1.55262E+01 2.53716E+01 0.00000E+00
 -1      3055 1.63375E+01 2.64224E+01 0.00000E+00
 -1      3056 2.98068E+01 9.70444E+00 0.00000E+00
 -1      3057 3.05614E+01 8.91988E+00 0.00000E+00
 -1      3058 1.77581E+01 2.78766E+01 0.00000E+00
 -1      3059 1.92780E+01 9.01539E+00 0.00000E+00
 -1      3060 1.55473E+01 2.32170E+01 0.00000E+00
 -1      3061 1.81548E+01 1.26955E+01 0.00000E+00
 -1      3062 3.78117E+01 2.91497E+01 0.00000E+00
 -1      3063 4.01965E+01 2.51183E+01 0.00000E+00
 -1      3064 1.54136E+01 2.03341E+01 0.00000E+00
 -1      3065 1.47957E+01 1.95747E+01 0.00000E+00
 -1      3066 1.48591E+01 2.10962E+01 0.00000E+00
 -1      3067 1.57718E+01 1.76364E+01 0.00000E+00
 -1      3068 3.37275E+01 3.26607E+01 0.00000E+00
 -1      3069 1.09410E+01 1.04636E+01 0.00000E+00
 -1      3070 9.07611E+00 2.86437E+01 0.00000E+00
 -1      3071 9.08737E+00 3.01187E+01 0.00000E+00
 -1      3072 1.03864E+01 3.08563E+01 0.00000E+00
 -1      3073 1.03751E+01 2.79188E+01 0.00000E+00
 -1      3074 9.15750E+00 3.77359E+01 0.00000E+00
 -1      3075 9.22200E+00 4.02061E+01 0.00000E+00
 -1      3076 1.05855E+01 4.04701E+01 0.00000E+00
 -1      3077 1.04565E+01 3.69984E+01 0.00000E+00
 -1      3078 2.53349E+01 8.52457E+00 0.00000E+00
 -1      3079 2.86355E+01 9.67860E+00 0.00000E+00
 -1      3080 1.39529E+02 3.85602E+01 0.00000E+00
 -1      3081 1.40542E+02 3.71145E+01 0.00000E+00
 -1      3082 1.39243E+02 3.63770E+01 0.00000E+00
 -1      3083 1.38514E+02 3.85310E+01 0.00000E+00
 -1      3084 1.13355E+01 3.91711E+01 0.00000E+00
 -1      3085 1.16460E+01 1.24625E+01 0.00000E+00
 -1      3086 1.16460E+01 1.39375E+01 0.00000E+00
 -1      3087 2.08409E+01 9.52307E+00 0.00000E+00
 -1      3088 3.23091E+01 3.41825E+01 0.00000E+00
 -1      3089 3.13368E+01 3.44997E+01 0.00000E+00
 -1      3090 1.89000E+01 3.83090E+01 0.00000E+00
 -1      3091 2.04000E+01 3.83090E+01 0.00000E+00
 -1      3092 2.19000E+01 3.83090E+01 0.00000E+00
 -1      3093 2.34000E+01 3.83090E+01 0.00000E+00
 -1      3094 2.11500E+01 3.70100E+01 0.00000E+00
 -1      3095 2.49000E+01 3.83090E+01 0.00000E+00
 -1      3096 2.64000E+01 3.83090E+01 0.00000E+00
 -1      3097 2.41500E+01 3.70100E+01 0.00000E+00
 -1      3098 3.09000E+01 3.83090E+01 0.00000E+00
 -1      3099 3.24000E+01 3.83090E+01 0.00000E+00
 -1      3100 3.39000E+01 3.83090E+01 0.00000E+00
 -1      3101 3.54000E+01 3.83090E+01 0.00000E+00
 -1      3102 3.31500E+01 3.70100E+01 0.00000E+00
 -1      3103 3.69000E+01 3.83090E+01 0.00000E+00
 -1      3104 3.84000E+01 3.83090E+01 0.00000E+00
 -1      3105 3.61500E+01 3.70100E+01 0.00000E+00
 -1      3106 3.99000E+01 3.83090E+01 0.00000E+00
 -1      3107 4.14000E+01 3.83090E+01 0.00000E+00
 -1      3108 3.91500E+01 3.70100E+01 0.00000E+00
 -1      3109 4.29000E+01 3.83090E+01 0.00000E+00
 -1      3110 4.44000E+01 3.83090E+01 0.00000E+00
 -1      3111 4.21500E+01 3.70100E+01 0.00000E+00
 -1      3112 4.59000E+01 3.83090E+01 0.00000E+00
 -1      3113 4.74000E+01 3.83090E+01 0.00000E+00
 -1      3114 4.51500E+01 3.70100E+01 0.00000E+00
 -1      3115 4.89000E+01 3.83090E+01 0.00000E+00
 -1      3116 5.04000E+01 3.83090E+01 0.00000E+00
 -1      3117 4.81500E+01 3.70100E+01 0.00000E+00
 -1      3118 5.19000E+01 3.83090E+01 0.00000E+00
 -1      3119 5.34000E+01 3.83090E+01 0.00000E+00
 -1      3120 5.11500E+01 3.70100E+01 0.00000E+00
 -1      3121 5.49000E+01 3.83090E+01 0.00000E+00
 -1      3122 5.64000E+01 3.83090E+01 0.00000E+00
 -1      3123 5.41500E+01 3.70100E+01 0.00000E+00
 -1      3124 5.79000E+01 3.83090E+01 0.00000E+00
 -1      3125 5.94000E+01 3.83090E+01 0.00000E+00
 -1      3126 5.71500E+01 3.70100E+01 0.00000E+00
 -1      3127 6.09000E+01 3.83090E+01 0.00000E+00
 -1      3128 6.24000E+01 3.83090E+01 0.00000E+00
 -1      3129 6.01500E+01 3.70100E+01 0.00000E+00
 -1      3130 6.39000E+01 3.83090E+01 0.00000E+00
 -1      3131 6.54000E+01 3.83090E+01 0.00000E+00
 -1      3132 6.31500E+01 3.70100E+01 0.00000E+00
 -1      3133 6.69000E+01 3.83090E+01 0.00000E+00
 -1      3134 6.84000E+01 3.83090E+01 0.00000E+00
 -1      3135 6.61500E+01 3.70100E+01 0.00000E+00
 -1      3136 6.99000E+01 3.83090E+01 0.00000E+00
 -1      3137 7.14000E+01 3.83090E+01 0.00000E+00
 -1      3138 6.91500E+01 3.70100E+01 0.00000E+00
 -1      3139 7.29000E+01 3.83090E+01 0.00000E+00
 -1      3140 7.44000E+01 3.83090E+01 0.00000E+00
 -1      3141 7.21500E+01 3.70100E+01 0.00000E+00
 -1      3142 7.59000E+01 3.83090E+01 0.00000E+00
 -1      3143 7.74000E+01 3.83090E+01 0.00000E+00
 -1      3144 7.51500E+01 3.70100E+01 0.00000E+00
 -1      3145 7.89000E+01 3.83090E+01 0.00000E+00
 -1      3146 8.04000E+01 3.83090E+01 0.00000E+00
 -1      3147 7.81500E+01 3.70100E+01 0.00000E+00
 -1      3148 8.19000E+01 3.83090E+01 0.00000E+00
 -1      3149 8.34000E+01 3.83090E+01 0.00000E+00
 -1      3150 8.11500E+01 3.70100E+01 0.00000E+00
 -1      3151 8.49000E+01 3.83090E+01 0.00000E+00
 -1      3152 8.64000E+01 3.83090E+01 0.00000E+00
 -1      3153 8.41500E+01 3.70100E+01 0.00000E+00
 -1      3154 8.79000E+01 3.83090E+01 0.00000E+00
 -1      3155 8.94000E+01 3.83090E+01 0.00000E+00
 -1      3156 8.71500E+01 3.70100E+01 0.00000E+00
 -1      3157 9.09000E+01 3.83090E+01 0.00000E+00
 -1      3158 9.24000E+01 3.83090E+01 0.00000E+00
 -1      3159 9.01500E+01 3.70100E+01 0.00000E+00
 -1      3160 9.39000E+01 3.83090E+01 0.00000E+00
 -1      3161 9.54000E+01 3.83090E+01 0.00000E+00
 -1      3162 9.31500E+01 3.70100E+01 0.00000E+00
 -1      3163 9.69000E+01 3.83090E+01 0.00000E+00
 -1      3164 9.84000E+01 3.83090E+01 0.00000E+00
 -1      3165 9.61500E+01 3.70100E+01 0.00000E+00
 -1      3166 9.99000E+01 3.83090E+01 0.00000E+00
 -1      3167 1.01400E+02 3.83090E+01 0.00000E+00
 -1      3168 9.91500E+01 3.70100E+01 0.00000E+00
 -1      3169 1.02900E+02 3.83090E+01 0.00000E+00
 -1      3170 1.04400E+02 3.83090E+01 0.00000E+00
 -1      3171 1.02150E+02 3.70100E+01 0.00000E+00
 -1      3172 1.05900E+02 3.83090E+01 0.00000E+00
 -1      3173 1.07400E+02 3.83090E+01 0.00000E+00
 -1      3174 1.05150E+02 3.70100E+01 0.00000E+00
 -1      3175 1.08900E+02 3.83090E+01 0.00000E+00
 -1      3176 1.10400E+02 3.83090E+01 0.00000E+00
 -1      3177 1.08150E+02 3.70100E+01 0.00000E+00
 -1      3178 1.11900E+02 3.83090E+01 0.00000E+00
 -1      3179 1.13400E+02 3.83090E+01 0.00000E+00
 -1      3180 1.11150E+02 3.70100E+01 0.00000E+00
 -1      3181 1.14900E+02 3.83090E+01 0.00000E+00
 -1      3182 1.16400E+02 3.83090E+01 0.00000E+00
 -1      3183 1.14150E+02 3.70100E+01 0.00000E+00
 -1      3184 1.17900E+02 3.83090E+01 0.00000E+00
 -1      3185 1.19400E+02 3.83090E+01 0.00000E+00
 -1      3186 1.17150E+02 3.70100E+01 0.00000E+00
 -1      3187 1.20900E+02 3.83090E+01 0.00000E+00
 -1      3188 1.22400E+02 3.83090E+01 0.00000E+00
 -1      3189 1.20150E+02 3.70100E+01 0.00000E+00
 -1      3190 1.23900E+02 3.83090E+01 0.00000E+00
 -1      3191 1.25400E+02 3.83090E+01 0.00000E+00
 -1      3192 1.23150E+02 3.70100E+01 0.00000E+00
 -1      3193 1.26900E+02 3.83090E+01 0.00000E+00
 -1      3194 1.28400E+02 3.83090E+01 0.00000E+00
 -1      3195 1.26150E+02 3.70100E+01 0.00000E+00
 -1      3196 1.29900E+02 3.83090E+01 0.00000E+00
 -1      3197 1.31400E+02 3.83090E+01 0.00000E+00
 -1      3198 1.29150E+02 3.70100E+01 0.00000E+00
 -1      3199 1.32900E+02 3.83090E+01 0.00000E+00
 -1      3200 1.34400E+02 3.83090E+01 0.00000E+00
 -1      3201 1.32150E+02 3.70100E+01 0.00000E+00
 -1      3202 1.35707E+02 3.84200E+01 0.00000E+00
 -1      3203 1.37207E+02 3.84200E+01 0.00000E+00
 -1      3204 1.37572E+02 3.73430E+01 0.00000E+00
 -1      3205 1.34957E+02 3.71210E+01 0.00000E+00
 -1      3206 2.67987E+01 3.57412E+01 0.00000E+00
 -1      3207 2.54758E+01 3.55894E+01 0.00000E+00
 -1      3208 3.70865E+01 9.78584E+00 0.00000E+00
 -1      3209 3.55865E+01 9.78584E+00 0.00000E+00
 -1      3210 4.67850E+01 1.01211E+01 0.00000E+00
 -1      3211 4.52850E+01 1.01211E+01 0.00000E+00
 -1      3212 4.97850E+01 1.01211E+01 0.00000E+00
 -1      3213 4.82850E+01 1.01211E+01 0.00000E+00
 -1      3214 4.75350E+01 1.14201E+01 0.00000E+00
 -1      3215 5.27850E+01 1.01211E+01 0.00000E+00
 -1      3216 5.12850E+01 1.01211E+01 0.00000E+00
 -1      3217 5.05350E+01 1.14201E+01 0.00000E+00
 -1      3218 5.57850E+01 1.01211E+01 0.00000E+00
 -1      3219 5.42850E+01 1.01211E+01 0.00000E+00
 -1      3220 5.35350E+01 1.14201E+01 0.00000E+00
 -1      3221 5.87850E+01 1.01211E+01 0.00000E+00
 -1      3222 5.72850E+01 1.01211E+01 0.00000E+00
 -1      3223 5.65350E+01 1.14201E+01 0.00000E+00
 -1      3224 6.17850E+01 1.01211E+01 0.00000E+00
 -1      3225 6.02850E+01 1.01211E+01 0.00000E+00
 -1      3226 5.95350E+01 1.14201E+01 0.00000E+00
 -1      3227 6.47850E+01 1.01211E+01 0.00000E+00
 -1      3228 6.32850E+01 1.01211E+01 0.00000E+00
 -1      3229 6.25350E+01 1.14201E+01 0.00000E+00
 -1      3230 6.77850E+01 1.01211E+01 0.00000E+00
 -1      3231 6.62850E+01 1.01211E+01 0.00000E+00
 -1      3232 6.55350E+01 1.14201E+01 0.00000E+00
 -1      3233 7.07850E+01 1.01211E+01 0.00000E+00
 -1      3234 6.92850E+01 1.01211E+01 0.00000E+00
 -1      3235 6.85350E+01 1.14201E+01 0.00000E+00
 -1      3236 7.37850E+01 1.01211E+01 0.00000E+00
 -1      3237 7.22850E+01 1.01211E+01 0.00000E+00
 -1      3238 7.15350E+01 1.14201E+01 0.00000E+00
 -1      3239 7.67850E+01 1.01211E+01 0.00000E+00
 -1      3240 7.52850E+01 1.01211E+01 0.00000E+00
 -1      3241 7.45350E+01 1.14201E+01 0.00000E+00
 -1      3242 7.97850E+01 1.01211E+01 0.00000E+00
 -1      3243 7.82850E+01 1.01211E+01 0.00000E+00
 -1      3244 7.75350E+01 1.14201E+01 0.00000E+00
 -1      3245 8.27850E+01 1.01211E+01 0.00000E+00
 -1      3246 8.12850E+01 1.01211E+01 0.00000E+00
 -1      3247 8.05350E+01 1.14201E+01 0.00000E+00
 -1      3248 8.57850E+01 1.01211E+01 0.00000E+00
 -1      3249 8.42850E+01 1.01211E+01 0.00000E+00
 -1      3250 8.35350E+01 1.14201E+01 0.00000E+00
 -1      3251 8.87850E+01 1.01211E+01 0.00000E+00
 -1      3252 8.72850E+01 1.01211E+01 0.00000E+00
 -1      3253 8.65350E+01 1.14201E+01 0.00000E+00
 -1      3254 9.17850E+01 1.01211E+01 0.00000E+00
 -1      3255 9.02850E+01 1.01211E+01 0.00000E+00
 -1      3256 8.95350E+01 1.14201E+01 0.00000E+00
 -1      3257 9.47850E+01 1.01211E+01 0.00000E+00
 -1      3258 9.32850E+01 1.01211E+01 0.00000E+00
 -1      3259 9.25350E+01 1.14201E+01 0.00000E+00
 -1      3260 9.77850E+01 1.01211E+01 0.00000E+00
 -1      3261 9.62850E+01 1.01211E+01 0.00000E+00
 -1      3262 9.55350E+01 1.14201E+01 0.00000E+00
 -1      3263 1.00785E+02 1.01211E+01 0.00000E+00
 -1      3264 9.92850E+01 1.01211E+01 0.00000E+00
 -1      3265 9.85350E+01 1.14201E+01 0.00000E+00
 -1      3266 1.03785E+02 1.01211E+01 0.00000E+00
 -1      3267 1.02285E+02 1.01211E+01 0.00000E+00
 -1      3268 1.01535E+02 1.14201E+01 0.00000E+00
 -1      3269 1.06785E+02 1.01211E+01 0.00000E+00
 -1      3270 1.05285E+02 1.01211E+01 0.00000E+00
 -1      3271 1.04535E+02 1.14201E+01 0.00000E+00
 -1      3272 1.09785E+02 1.01211E+01 0.00000E+00
 -1      3273 1.08285E+02 1.01211E+01 0.00000E+00
 -1      3274 1.07535E+02 1.14201E+01 0.00000E+00
 -1      3275 1.12785E+02 1.01211E+01 0.00000E+00
 -1      3276 1.11285E+02 1.01211E+01 0.00000E+00
 -1      3277 1.10535E+02 1.14201E+01 0.00000E+00
 -1      3278 1.15785E+02 1.01211E+01 0.00000E+00
 -1      3279 1.14285E+02 1.01211E+01 0.00000E+00
 -1      3280 1.13535E+02 1.14201E+01 0.00000E+00
 -1      3281 1.18785E+02 1.01211E+01 0.00000E+00
 -1      3282 1.17285E+02 1.01211E+01 0.00000E+00
 -1      3283 1.16535E+02 1.14201E+01 0.00000E+00
 -1      3284 1.21785E+02 1.01211E+01 0.00000E+00
 -1      3285 1.20285E+02 1.01211E+01 0.00000E+00
 -1      3286 1.19535E+02 1.14201E+01 0.00000E+00
 -1      3287 1.24785E+02 1.01211E+01 0.00000E+00
 -1      3288 1.23285E+02 1.01211E+01 0.00000E+00
 -1      3289 1.22535E+02 1.14201E+01 0.00000E+00
 -1      3290 1.27785E+02 1.01211E+01 0.00000E+00
 -1      3291 1.26285E+02 1.01211E+01 0.00000E+00
 -1      3292 1.25535E+02 1.14201E+01 0.00000E+00
 -1      3293 1.30785E+02 1.01211E+01 0.00000E+00
 -1      3294 1.29285E+02 1.01211E+01 0.00000E+00
 -1      3295 1.28535E+02 1.14201E+01 0.00000E+00
 -1      3296 1.33785E+02 1.01211E+01 0.00000E+00
 -1      3297 1.32285E+02 1.01211E+01 0.00000E+00
 -1      3298 1.31535E+02 1.14201E+01 0.00000E+00
 -1      3299 1.36785E+02 1.01211E+01 0.00000E+00
 -1      3300 1.35285E+02 1.01211E+01 0.00000E+00
 -1      3301 1.34535E+02 1.14201E+01 0.00000E+00
 -1      3302 1.38879E+02 1.06791E+01 0.00000E+00
 -1      3303 1.37711E+02 1.03034E+01 0.00000E+00
 -1      3304 1.36961E+02 1.16024E+01 0.00000E+00
 -1      3305 1.38813E+02 1.19670E+01 0.00000E+00
 -1      3306 1.16460E+01 3.80848E+01 0.00000E+00
 -1      3307 1.24605E+01 3.85216E+01 0.00000E+00
 -1      3308 1.39605E+01 3.85216E+01 0.00000E+00
 -1      3309 1.15815E+01 3.63489E+01 0.00000E+00
 -1      3310 1.15397E+01 2.12875E+01 0.00000E+00
 -1      3311 1.15397E+01 2.27625E+01 0.00000E+00
 -1      3312 1.38309E+02 2.57625E+01 0.00000E+00
 -1      3313 1.38309E+02 2.42875E+01 0.00000E+00
 -1      3314 1.38309E+02 3.45625E+01 0.00000E+00
 -1      3315 1.38309E+02 3.30875E+01 0.00000E+00
 -1      3316 1.70763E+01 2.88821E+01 0.00000E+00
 -1      3317 1.65584E+01 2.76856E+01 0.00000E+00
 -1      3318 1.56647E+01 1.54044E+01 0.00000E+00
 -1      3319 1.62956E+01 1.41257E+01 0.00000E+00
 -1      3320 1.38309E+02 3.16125E+01 0.00000E+00
 -1      3321 1.38309E+02 3.01375E+01 0.00000E+00
 -1      3322 1.37010E+02 3.23500E+01 0.00000E+00
 -1      3323 4.37850E+01 1.01211E+01 0.00000E+00
 -1      3324 4.22850E+01 1.01211E+01 0.00000E+00
 -1      3325 4.45350E+01 1.14201E+01 0.00000E+00
 -1      3326 3.72808E+01 3.16451E+01 0.00000E+00
 -1      3327 3.62116E+01 3.25693E+01 0.00000E+00
 -1      3328 1.45171E+01 1.78503E+01 0.00000E+00
 -1      3329 1.49387E+01 1.66742E+01 0.00000E+00
 -1      3330 4.04357E+01 9.95346E+00 0.00000E+00
 -1      3331 3.89357E+01 9.95346E+00 0.00000E+00
 -1      3332 3.74872E+01 1.09172E+01 0.00000E+00
 -1      3333 4.11857E+01 1.12525E+01 0.00000E+00
 -1      3334 4.21163E+01 2.19653E+01 0.00000E+00
 -1      3335 4.19248E+01 2.32696E+01 0.00000E+00
 -1      3336 4.16640E+01 1.89519E+01 0.00000E+00
 -1      3337 4.19654E+01 2.02887E+01 0.00000E+00
 -1      3338 2.38074E+01 3.36470E+01 0.00000E+00
 -1      3339 1.59000E+01 3.83090E+01 0.00000E+00
 -1      3340 1.74000E+01 3.83090E+01 0.00000E+00
 -1      3341 1.81500E+01 3.70100E+01 0.00000E+00
 -1      3342 2.11315E+01 3.35855E+01 0.00000E+00
 -1      3343 2.01852E+01 3.27998E+01 0.00000E+00
 -1      3344 3.89064E+01 2.89959E+01 0.00000E+00
 -1      3345 3.81850E+01 3.01903E+01 0.00000E+00
 -1      3346 3.47576E+01 3.32460E+01 0.00000E+00
 -1      3347 3.35333E+01 3.37142E+01 0.00000E+00
 -1      3348 3.33391E+01 3.47677E+01 0.00000E+00
 -1      3349 3.00311E+01 3.48542E+01 0.00000E+00
 -1      3350 2.87254E+01 3.52087E+01 0.00000E+00
 -1      3351 3.08092E+01 3.55905E+01 0.00000E+00
 -1      3352 1.67731E+01 1.27012E+01 0.00000E+00
 -1      3353 1.74726E+01 1.14939E+01 0.00000E+00
 -1      3354 1.38309E+02 2.86750E+01 0.00000E+00
 -1      3355 1.38309E+02 2.72250E+01 0.00000E+00
 -1      3356 1.37010E+02 2.64875E+01 0.00000E+00
 -1      3357 1.37010E+02 2.94125E+01 0.00000E+00
 -1      3358 1.26375E+01 1.02017E+01 0.00000E+00
 -1      3359 1.20435E+01 1.14631E+01 0.00000E+00
 -1      3360 1.33425E+01 1.22006E+01 0.00000E+00
 -1      3361 1.41375E+01 1.02017E+01 0.00000E+00
 -1      3362 4.10943E+01 1.61832E+01 0.00000E+00
 -1      3363 4.15170E+01 1.74740E+01 0.00000E+00
 -1      3364 1.45586E+01 2.39506E+01 0.00000E+00
 -1      3365 1.44884E+01 2.25891E+01 0.00000E+00
 -1      3366 3.99515E+01 2.75044E+01 0.00000E+00
 -1      3367 3.94290E+01 2.82501E+01 0.00000E+00
 -1      3368 3.98023E+01 2.92907E+01 0.00000E+00
 -1      3369 3.96929E+01 1.40043E+01 0.00000E+00
 -1      3370 4.02955E+01 1.48894E+01 0.00000E+00
 -1      3371 4.13610E+01 2.48385E+01 0.00000E+00
 -1      3372 4.07427E+01 2.61841E+01 0.00000E+00
 -1      3373 2.42165E+01 3.48758E+01 0.00000E+00
 -1      3374 2.27223E+01 3.43539E+01 0.00000E+00
 -1      3375 1.14615E+01 2.42290E+01 0.00000E+00
 -1      3376 1.14727E+01 2.57040E+01 0.00000E+00
 -1      3377 4.16404E+01 1.51637E+01 0.00000E+00
 -1      3378 1.16910E+01 3.30594E+01 0.00000E+00
 -1      3379 1.16910E+01 3.45281E+01 0.00000E+00
 -1      3380 2.75768E+01 3.64775E+01 0.00000E+00
 -1      3381 2.83268E+01 3.77765E+01 0.00000E+00
 -1      3382 2.98268E+01 3.77765E+01 0.00000E+00
 -1      3383 4.28839E+01 2.10898E+01 0.00000E+00
 -1      3384 1.33145E+01 1.50440E+01 0.00000E+00
 -1      3385 1.20155E+01 1.57815E+01 0.00000E+00
 -1      3386 1.71352E+01 3.00133E+01 0.00000E+00
 -1      3387 1.59355E+01 2.98223E+01 0.00000E+00
 -1      3388 1.71941E+01 3.11445E+01 0.00000E+00
 -1      3389 1.44100E+01 1.56183E+01 0.00000E+00
 -1      3390 1.38309E+02 1.69188E+01 0.00000E+00
 -1      3391 1.38309E+02 1.54563E+01 0.00000E+00
 -1      3392 3.60174E+01 3.36228E+01 0.00000E+00
 -1      3393 1.38309E+02 1.98687E+01 0.00000E+00
 -1      3394 1.38309E+02 1.83937E+01 0.00000E+00
 -1      3395 1.37010E+02 1.76625E+01 0.00000E+00
 -1      3396 4.24710E+01 2.43353E+01 0.00000E+00
 -1      3397 1.38309E+02 2.28156E+01 0.00000E+00
 -1      3398 1.38309E+02 2.13406E+01 0.00000E+00
 -1      3399 1.37010E+02 2.06094E+01 0.00000E+00
 -1      3400 1.37010E+02 2.35531E+01 0.00000E+00
 -1      3401 1.47105E+01 3.72226E+01 0.00000E+00
 -1      3402 1.56557E+01 2.74279E+01 0.00000E+00
 -1      3403 1.91719E+01 3.26907E+01 0.00000E+00
 -1      3404 3.95557E+01 1.32002E+01 0.00000E+00
 -1      3405 1.37758E+02 3.64912E+01 0.00000E+00
 -1      3406 1.38123E+02 3.54142E+01 0.00000E+00
 -1      3407 1.36824E+02 3.46768E+01 0.00000E+00
 -1      3408 1.36451E+02 3.63802E+01 0.00000E+00
 -1      3409 1.56134E+01 1.29240E+01 0.00000E+00
 -1      3410 1.68129E+01 1.03509E+01 0.00000E+00
 -1      3411 1.53129E+01 1.03509E+01 0.00000E+00
 -1      3412 1.41047E+01 2.19403E+01 0.00000E+00
 -1      3413 1.34868E+01 2.11809E+01 0.00000E+00
 -1      3414 3.83755E+01 3.14913E+01 0.00000E+00
 -1      3415 4.25861E+01 1.79353E+01 0.00000E+00
 -1      3416 1.20155E+01 1.72503E+01 0.00000E+00
 -1      3417 2.15407E+01 3.48142E+01 0.00000E+00
 -1      3418 1.81947E+01 1.03452E+01 0.00000E+00
 -1      3419 4.11160E+01 2.72247E+01 0.00000E+00
 -1      3420 1.40968E+01 2.47683E+01 0.00000E+00
 -1      3421 1.30379E+01 2.41404E+01 0.00000E+00
 -1      3422 1.31161E+01 2.26738E+01 0.00000E+00
 -1      3423 1.16797E+01 3.01219E+01 0.00000E+00
 -1      3424 1.16854E+01 3.15906E+01 0.00000E+00
 -1      3425 1.29844E+01 3.23250E+01 0.00000E+00
 -1      3426 1.90978E+01 9.70993E+00 0.00000E+00
 -1      3427 4.21845E+01 1.39342E+01 0.00000E+00
 -1      3428 4.29833E+01 1.52280E+01 0.00000E+00
 -1      3429 3.69539E+01 1.16400E+01 0.00000E+00
 -1      3430 3.47012E+01 9.85895E+00 0.00000E+00
 -1      3431 3.05768E+01 3.64775E+01 0.00000E+00
 -1      3432 1.40953E+01 1.90572E+01 0.00000E+00
 -1      3433 1.32622E+01 1.80950E+01 0.00000E+00
 -1      3434 2.43907E+01 3.62963E+01 0.00000E+00
 -1      3435 1.15937E+01 1.84572E+01 0.00000E+00
 -1      3436 3.84000E+01 3.57110E+01 0.00000E+00
 -1      3437 3.99000E+01 3.57110E+01 0.00000E+00
 -1      3438 4.14000E+01 3.57110E+01 0.00000E+00
 -1      3439 4.29000E+01 3.57110E+01 0.00000E+00
 -1      3440 4.06500E+01 3.44120E+01 0.00000E+00
 -1      3441 4.44000E+01 3.57110E+01 0.00000E+00
 -1      3442 4.59000E+01 3.57110E+01 0.00000E+00
 -1      3443 4.36500E+01 3.44120E+01 0.00000E+00
 -1      3444 4.74000E+01 3.57110E+01 0.00000E+00
 -1      3445 4.89000E+01 3.57110E+01 0.00000E+00
 -1      3446 4.66500E+01 3.44120E+01 0.00000E+00
 -1      3447 5.04000E+01 3.57110E+01 0.00000E+00
 -1      3448 5.19000E+01 3.57110E+01 0.00000E+00
 -1      3449 4.96500E+01 3.44120E+01 0.00000E+00
 -1      3450 5.34000E+01 3.57110E+01 0.00000E+00
 -1      3451 5.49000E+01 3.57110E+01 0.00000E+00
 -1      3452 5.26500E+01 3.44120E+01 0.00000E+00
 -1      3453 5.64000E+01 3.57110E+01 0.00000E+00
 -1      3454 5.79000E+01 3.57110E+01 0.00000E+00
 -1      3455 5.56500E+01 3.44120E+01 0.00000E+00
 -1      3456 5.94000E+01 3.57110E+01 0.00000E+00
 -1      3457 6.09000E+01 3.57110E+01 0.00000E+00
 -1      3458 5.86500E+01 3.44120E+01 0.00000E+00
 -1      3459 6.24000E+01 3.57110E+01 0.00000E+00
 -1      3460 6.39000E+01 3.57110E+01 0.00000E+00
 -1      3461 6.16500E+01 3.44120E+01 0.00000E+00
 -1      3462 6.54000E+01 3.57110E+01 0.00000E+00
 -1      3463 6.69000E+01 3.57110E+01 0.00000E+00
 -1      3464 6.46500E+01 3.44120E+01 0.00000E+00
 -1      3465 6.84000E+01 3.57110E+01 0.00000E+00
 -1      3466 6.99000E+01 3.57110E+01 0.00000E+00
 -1      3467 6.76500E+01 3.44120E+01 0.00000E+00
 -1      3468 7.14000E+01 3.57110E+01 0.00000E+00
 -1      3469 7.29000E+01 3.57110E+01 0.00000E+00
 -1      3470 7.06500E+01 3.44120E+01 0.00000E+00
 -1      3471 7.44000E+01 3.57110E+01 0.00000E+00
 -1      3472 7.59000E+01 3.57110E+01 0.00000E+00
 -1      3473 7.36500E+01 3.44120E+01 0.00000E+00
 -1      3474 7.74000E+01 3.57110E+01 0.00000E+00
 -1      3475 7.89000E+01 3.57110E+01 0.00000E+00
 -1      3476 7.66500E+01 3.44120E+01 0.00000E+00
 -1      3477 8.04000E+01 3.57110E+01 0.00000E+00
 -1      3478 8.19000E+01 3.57110E+01 0.00000E+00
 -1      3479 7.96500E+01 3.44120E+01 0.00000E+00
 -1      3480 8.34000E+01 3.57110E+01 0.00000E+00
 -1      3481 8.49000E+01 3.57110E+01 0.00000E+00
 -1      3482 8.26500E+01 3.44120E+01 0.00000E+00
 -1      3483 8.64000E+01 3.57110E+01 0.00000E+00
 -1      3484 8.79000E+01 3.57110E+01 0.00000E+00
 -1      3485 8.56500E+01 3.44120E+01 0.00000E+00
 -1      3486 8.94000E+01 3.57110E+01 0.00000E+00
 -1      3487 9.09000E+01 3.57110E+01 0.00000E+00
 -1      3488 8.86500E+01 3.44120E+01 0.00000E+00
 -1      3489 9.24000E+01 3.57110E+01 0.00000E+00
 -1      3490 9.39000E+01 3.57110E+01 0.00000E+00
 -1      3491 9.16500E+01 3.44120E+01 0.00000E+00
 -1      3492 9.54000E+01 3.57110E+01 0.00000E+00
 -1      3493 9.69000E+01 3.57110E+01 0.00000E+00
 -1      3494 9.46500E+01 3.44120E+01 0.00000E+00
 -1      3495 9.84000E+01 3.57110E+01 0.00000E+00
 -1      3496 9.99000E+01 3.57110E+01 0.00000E+00
 -1      3497 9.76500E+01 3.44120E+01 0.00000E+00
 -1      3498 1.01400E+02 3.57110E+01 0.00000E+00
 -1      3499 1.02900E+02 3.57110E+01 0.00000E+00
 -1      3500 1.00650E+02 3.44120E+01 0.00000E+00
 -1      3501 1.04400E+02 3.57110E+01 0.00000E+00
 -1      3502 1.05900E+02 3.57110E+01 0.00000E+00
 -1      3503 1.03650E+02 3.44120E+01 0.00000E+00
 -1      3504 1.07400E+02 3.57110E+01 0.00000E+00
 -1      3505 1.08900E+02 3.57110E+01 0.00000E+00
 -1      3506 1.06650E+02 3.44120E+01 0.00000E+00
 -1      3507 1.10400E+02 3.57110E+01 0.00000E+00
 -1      3508 1.11900E+02 3.57110E+01 0.00000E+00
 -1      3509 1.09650E+02 3.44120E+01 0.00000E+00
 -1      3510 1.13400E+02 3.57110E+01 0.00000E+00
 -1      3511 1.14900E+02 3.57110E+01 0.00000E+00
 -1      3512 1.12650E+02 3.44120E+01 0.00000E+00
 -1      3513 1.16400E+02 3.57110E+01 0.00000E+00
 -1      3514 1.17900E+02 3.57110E+01 0.00000E+00
 -1      3515 1.15650E+02 3.44120E+01 0.00000E+00
 -1      3516 1.19400E+02 3.57110E+01 0.00000E+00
 -1      3517 1.20900E+02 3.57110E+01 0.00000E+00
 -1      3518 1.18650E+02 3.44120E+01 0.00000E+00
 -1      3519 1.22400E+02 3.57110E+01 0.00000E+00
 -1      3520 1.23900E+02 3.57110E+01 0.00000E+00
 -1      3521 1.21650E+02 3.44120E+01 0.00000E+00
 -1      3522 1.25400E+02 3.57110E+01 0.00000E+00
 -1      3523 1.26900E+02 3.57110E+01 0.00000E+00
 -1      3524 1.24650E+02 3.44120E+01 0.00000E+00
 -1      3525 1.28400E+02 3.57110E+01 0.00000E+00
 -1      3526 1.29900E+02 3.57110E+01 0.00000E+00
 -1      3527 1.27650E+02 3.44120E+01 0.00000E+00
 -1      3528 1.31400E+02 3.57110E+01 0.00000E+00
 -1      3529 1.32900E+02 3.57110E+01 0.00000E+00
 -1      3530 1.30650E+02 3.44120E+01 0.00000E+00
 -1      3531 1.40405E+01 1.37742E+01 0.00000E+00
 -1      3532 4.37176E+01 2.38975E+01 0.00000E+00
 -1      3533 4.31539E+01 2.54665E+01 0.00000E+00
 -1      3534 4.82850E+01 1.27191E+01 0.00000E+00
 -1      3535 4.67850E+01 1.27191E+01 0.00000E+00
 -1      3536 5.72850E+01 1.27191E+01 0.00000E+00
 -1      3537 5.57850E+01 1.27191E+01 0.00000E+00
 -1      3538 6.02850E+01 1.27191E+01 0.00000E+00
 -1      3539 5.87850E+01 1.27191E+01 0.00000E+00
 -1      3540 5.80350E+01 1.40181E+01 0.00000E+00
 -1      3541 6.32850E+01 1.27191E+01 0.00000E+00
 -1      3542 6.17850E+01 1.27191E+01 0.00000E+00
 -1      3543 6.10350E+01 1.40181E+01 0.00000E+00
 -1      3544 6.62850E+01 1.27191E+01 0.00000E+00
 -1      3545 6.47850E+01 1.27191E+01 0.00000E+00
 -1      3546 6.40350E+01 1.40181E+01 0.00000E+00
 -1      3547 6.92850E+01 1.27191E+01 0.00000E+00
 -1      3548 6.77850E+01 1.27191E+01 0.00000E+00
 -1      3549 6.70350E+01 1.40181E+01 0.00000E+00
 -1      3550 7.22850E+01 1.27191E+01 0.00000E+00
 -1      3551 7.07850E+01 1.27191E+01 0.00000E+00
 -1      3552 7.00350E+01 1.40181E+01 0.00000E+00
 -1      3553 7.52850E+01 1.27191E+01 0.00000E+00
 -1      3554 7.37850E+01 1.27191E+01 0.00000E+00
 -1      3555 7.30350E+01 1.40181E+01 0.00000E+00
 -1      3556 7.82850E+01 1.27191E+01 0.00000E+00
 -1      3557 7.67850E+01 1.27191E+01 0.00000E+00
 -1      3558 7.60350E+01 1.40181E+01 0.00000E+00
 -1      3559 8.12850E+01 1.27191E+01 0.00000E+00
 -1      3560 7.97850E+01 1.27191E+01 0.00000E+00
 -1      3561 7.90350E+01 1.40181E+01 0.00000E+00
 -1      3562 8.42850E+01 1.27191E+01 0.00000E+00
 -1      3563 8.27850E+01 1.27191E+01 0.00000E+00
 -1      3564 8.20350E+01 1.40181E+01 0.00000E+00
 -1      3565 8.72850E+01 1.27191E+01 0.00000E+00
 -1      3566 8.57850E+01 1.27191E+01 0.00000E+00
 -1      3567 8.50350E+01 1.40181E+01 0.00000E+00
 -1      3568 9.02850E+01 1.27191E+01 0.00000E+00
 -1      3569 8.87850E+01 1.27191E+01 0.00000E+00
 -1      3570 8.80350E+01 1.40181E+01 0.00000E+00
 -1      3571 9.32850E+01 1.27191E+01 0.00000E+00
 -1      3572 9.17850E+01 1.27191E+01 0.00000E+00
 -1      3573 9.10350E+01 1.40181E+01 0.00000E+00
 -1      3574 9.62850E+01 1.27191E+01 0.00000E+00
 -1      3575 9.47850E+01 1.27191E+01 0.00000E+00
 -1      3576 9.40350E+01 1.40181E+01 0.00000E+00
 -1      3577 9.92850E+01 1.27191E+01 0.00000E+00
 -1      3578 9.77850E+01 1.27191E+01 0.00000E+00
 -1      3579 9.70350E+01 1.40181E+01 0.00000E+00
 -1      3580 1.02285E+02 1.27191E+01 0.00000E+00
 -1      3581 1.00785E+02 1.27191E+01 0.00000E+00
 -1      3582 1.00035E+02 1.40181E+01 0.00000E+00
 -1      3583 1.05285E+02 1.27191E+01 0.00000E+00
 -1      3584 1.03785E+02 1.27191E+01 0.00000E+00
 -1      3585 1.03035E+02 1.40181E+01 0.00000E+00
 -1      3586 1.08285E+02 1.27191E+01 0.00000E+00
 -1      3587 1.06785E+02 1.27191E+01 0.00000E+00
 -1      3588 1.06035E+02 1.40181E+01 0.00000E+00
 -1      3589 1.11285E+02 1.27191E+01 0.00000E+00
 -1      3590 1.09785E+02 1.27191E+01 0.00000E+00
 -1      3591 1.09035E+02 1.40181E+01 0.00000E+00
 -1      3592 1.14285E+02 1.27191E+01 0.00000E+00
 -1      3593 1.12785E+02 1.27191E+01 0.00000E+00
 -1      3594 1.12035E+02 1.40181E+01 0.00000E+00
 -1      3595 1.17285E+02 1.27191E+01 0.00000E+00
 -1      3596 1.15785E+02 1.27191E+01 0.00000E+00
 -1      3597 1.15035E+02 1.40181E+01 0.00000E+00
 -1      3598 1.20285E+02 1.27191E+01 0.00000E+00
 -1      3599 1.18785E+02 1.27191E+01 0.00000E+00
 -1      3600 1.18035E+02 1.40181E+01 0.00000E+00
 -1      3601 1.23285E+02 1.27191E+01 0.00000E+00
 -1      3602 1.21785E+02 1.27191E+01 0.00000E+00
 -1      3603 1.21035E+02 1.40181E+01 0.00000E+00
 -1      3604 1.26285E+02 1.27191E+01 0.00000E+00
 -1      3605 1.24785E+02 1.27191E+01 0.00000E+00
 -1      3606 1.24035E+02 1.40181E+01 0.00000E+00
 -1      3607 1.29285E+02 1.27191E+01 0.00000E+00
 -1      3608 1.27785E+02 1.27191E+01 0.00000E+00
 -1      3609 1.27035E+02 1.40181E+01 0.00000E+00
 -1      3610 1.32285E+02 1.27191E+01 0.00000E+00
 -1      3611 1.30785E+02 1.27191E+01 0.00000E+00
 -1      3612 1.30035E+02 1.40181E+01 0.00000E+00
 -1      3613 1.35285E+02 1.27191E+01 0.00000E+00
 -1      3614 1.33785E+02 1.27191E+01 0.00000E+00
 -1      3615 1.33035E+02 1.40181E+01 0.00000E+00
 -1      3616 1.28805E+01 3.56145E+01 0.00000E+00
 -1      3617 1.48200E+01 3.54019E+01 0.00000E+00
 -1      3618 1.38528E+02 1.43555E+01 0.00000E+00
 -1      3619 1.38594E+02 1.30677E+01 0.00000E+00
 -1      3620 1.37668E+02 1.28854E+01 0.00000E+00
 -1      3621 1.37229E+02 1.50868E+01 0.00000E+00
 -1      3622 3.18824E+01 3.61230E+01 0.00000E+00
 -1      3623 1.85993E+01 3.39204E+01 0.00000E+00
 -1      3624 1.78212E+01 3.25652E+01 0.00000E+00
 -1      3625 4.23191E+01 2.70484E+01 0.00000E+00
 -1      3626 4.15279E+01 2.83687E+01 0.00000E+00
 -1      3627 1.35711E+02 3.30875E+01 0.00000E+00
 -1      3628 1.35711E+02 3.16125E+01 0.00000E+00
 -1      3629 3.33824E+01 3.61230E+01 0.00000E+00
 -1      3630 5.42850E+01 1.27191E+01 0.00000E+00
 -1      3631 5.27850E+01 1.27191E+01 0.00000E+00
 -1      3632 5.50350E+01 1.40181E+01 0.00000E+00
 -1      3633 1.26542E+01 2.34915E+01 0.00000E+00
 -1      3634 5.12850E+01 1.27191E+01 0.00000E+00
 -1      3635 4.97850E+01 1.27191E+01 0.00000E+00
 -1      3636 4.90350E+01 1.40181E+01 0.00000E+00
 -1      3637 5.20350E+01 1.40181E+01 0.00000E+00
 -1      3638 4.47812E+01 1.27093E+01 0.00000E+00
 -1      3639 4.32812E+01 1.27093E+01 0.00000E+00
 -1      3640 1.15734E+01 2.71786E+01 0.00000E+00
 -1      3641 1.15790E+01 2.86473E+01 0.00000E+00
 -1      3642 1.28780E+01 2.93817E+01 0.00000E+00
 -1      3643 1.26767E+01 2.64326E+01 0.00000E+00
 -1      3644 1.15937E+01 1.99260E+01 0.00000E+00
 -1      3645 1.27864E+01 2.06635E+01 0.00000E+00
 -1      3646 1.35408E+01 1.98194E+01 0.00000E+00
 -1      3647 1.45179E+01 1.23498E+01 0.00000E+00
 -1      3648 1.51193E+01 3.37944E+01 0.00000E+00
 -1      3649 1.69493E+01 3.54025E+01 0.00000E+00
 -1      3650 1.43270E+01 2.82991E+01 0.00000E+00
 -1      3651 1.41061E+01 2.70359E+01 0.00000E+00
 -1      3652 1.40054E+01 2.55614E+01 0.00000E+00
 -1      3653 4.36161E+01 1.70867E+01 0.00000E+00
 -1      3654 4.37630E+01 1.85646E+01 0.00000E+00
 -1      3655 3.46067E+01 3.56547E+01 0.00000E+00
 -1      3656 1.84493E+01 3.54025E+01 0.00000E+00
 -1      3657 4.08345E+01 2.94580E+01 0.00000E+00
 -1      3658 4.03119E+01 3.02038E+01 0.00000E+00
 -1      3659 4.39139E+01 2.02411E+01 0.00000E+00
 -1      3660 4.40648E+01 2.19177E+01 0.00000E+00
 -1      3661 4.49439E+01 1.93925E+01 0.00000E+00
 -1      3662 3.61067E+01 3.56547E+01 0.00000E+00
 -1      3663 3.88032E+01 1.18076E+01 0.00000E+00
 -1      3664 1.49154E+01 1.13504E+01 0.00000E+00
 -1      3665 2.28907E+01 3.62963E+01 0.00000E+00
 -1      3666 1.66215E+01 3.23743E+01 0.00000E+00
 -1      3667 4.00890E+01 1.24774E+01 0.00000E+00
 -1      3668 4.55312E+01 1.40083E+01 0.00000E+00
 -1      3669 1.34022E+02 3.59901E+01 0.00000E+00
 -1      3670 1.35329E+02 3.61011E+01 0.00000E+00
 -1      3671 1.35515E+02 3.52494E+01 0.00000E+00
 -1      3672 1.33272E+02 3.46911E+01 0.00000E+00
 -1      3673 4.47477E+01 2.30489E+01 0.00000E+00
 -1      3674 4.54305E+01 2.41800E+01 0.00000E+00
 -1      3675 4.57777E+01 2.22002E+01 0.00000E+00
 -1      3676 1.44866E+01 3.09049E+01 0.00000E+00
 -1      3677 1.44277E+01 2.97737E+01 0.00000E+00
 -1      3678 3.75607E+01 3.49781E+01 0.00000E+00
 -1      3679 1.36742E+02 1.27031E+01 0.00000E+00
 -1      3680 4.35657E+01 2.66105E+01 0.00000E+00
 -1      3681 1.44922E+01 3.23737E+01 0.00000E+00
 -1      3682 1.35773E+02 1.51028E+01 0.00000E+00
 -1      3683 1.35992E+02 1.40021E+01 0.00000E+00
 -1      3684 1.98000E+01 3.55279E+01 0.00000E+00
 -1      3685 1.35711E+02 2.42891E+01 0.00000E+00
 -1      3686 1.35711E+02 2.28172E+01 0.00000E+00
 -1      3687 4.19383E+01 1.26450E+01 0.00000E+00
 -1      3688 4.20375E+01 2.92817E+01 0.00000E+00
 -1      3689 1.34412E+02 3.08875E+01 0.00000E+00
 -1      3690 1.35711E+02 3.01500E+01 0.00000E+00
 -1      3691 1.35711E+02 2.86875E+01 0.00000E+00
 -1      3692 3.83107E+01 3.36791E+01 0.00000E+00
 -1      3693 2.13907E+01 3.62963E+01 0.00000E+00
 -1      3694 1.35711E+02 2.57516E+01 0.00000E+00
 -1      3695 1.34412E+02 2.50156E+01 0.00000E+00
 -1      3696 1.35711E+02 2.72141E+01 0.00000E+00
 -1      3697 3.98406E+01 3.13935E+01 0.00000E+00
 -1      3698 3.89364E+01 3.28483E+01 0.00000E+00
 -1      3699 4.41602E+01 1.58572E+01 0.00000E+00
 -1      3700 1.35711E+02 1.84000E+01 0.00000E+00
 -1      3701 1.35711E+02 1.69250E+01 0.00000E+00
 -1      3702 1.34473E+02 1.58403E+01 0.00000E+00
 -1      3703 3.97758E+01 3.35812E+01 0.00000E+00
 -1      3704 1.35702E+02 3.43976E+01 0.00000E+00
 -1      3705 1.34403E+02 3.36601E+01 0.00000E+00
 -1      3706 4.08728E+01 3.15608E+01 0.00000E+00
 -1      3707 6.47850E+01 1.53171E+01 0.00000E+00
 -1      3708 6.32850E+01 1.53171E+01 0.00000E+00
 -1      3709 4.12758E+01 3.35812E+01 0.00000E+00
 -1      3710 4.61640E+01 1.58670E+01 0.00000E+00
 -1      3711 4.29000E+01 3.31130E+01 0.00000E+00
 -1      3712 4.44000E+01 3.31130E+01 0.00000E+00
 -1      3713 4.59000E+01 3.31130E+01 0.00000E+00
 -1      3714 4.74000E+01 3.31130E+01 0.00000E+00
 -1      3715 4.51500E+01 3.18140E+01 0.00000E+00
 -1      3716 4.89000E+01 3.31130E+01 0.00000E+00
 -1      3717 5.04000E+01 3.31130E+01 0.00000E+00
 -1      3718 4.81500E+01 3.18140E+01 0.00000E+00
 -1      3719 5.19000E+01 3.31130E+01 0.00000E+00
 -1      3720 5.34000E+01 3.31130E+01 0.00000E+00
 -1      3721 5.11500E+01 3.18140E+01 0.00000E+00
 -1      3722 5.49000E+01 3.31130E+01 0.00000E+00
 -1      3723 5.64000E+01 3.31130E+01 0.00000E+00
 -1      3724 5.41500E+01 3.18140E+01 0.00000E+00
 -1      3725 5.79000E+01 3.31130E+01 0.00000E+00
 -1      3726 5.94000E+01 3.31130E+01 0.00000E+00
 -1      3727 5.71500E+01 3.18140E+01 0.00000E+00
 -1      3728 6.09000E+01 3.31130E+01 0.00000E+00
 -1      3729 6.24000E+01 3.31130E+01 0.00000E+00
 -1      3730 6.01500E+01 3.18140E+01 0.00000E+00
 -1      3731 6.39000E+01 3.31130E+01 0.00000E+00
 -1      3732 6.54000E+01 3.31130E+01 0.00000E+00
 -1      3733 6.31500E+01 3.18140E+01 0.00000E+00
 -1      3734 6.69000E+01 3.31130E+01 0.00000E+00
 -1      3735 6.84000E+01 3.31130E+01 0.00000E+00
 -1      3736 6.61500E+01 3.18140E+01 0.00000E+00
 -1      3737 6.99000E+01 3.31130E+01 0.00000E+00
 -1      3738 7.14000E+01 3.31130E+01 0.00000E+00
 -1      3739 6.91500E+01 3.18140E+01 0.00000E+00
 -1      3740 7.29000E+01 3.31130E+01 0.00000E+00
 -1      3741 7.44000E+01 3.31130E+01 0.00000E+00
 -1      3742 7.21500E+01 3.18140E+01 0.00000E+00
 -1      3743 7.59000E+01 3.31130E+01 0.00000E+00
 -1      3744 7.74000E+01 3.31130E+01 0.00000E+00
 -1      3745 7.51500E+01 3.18140E+01 0.00000E+00
 -1      3746 7.89000E+01 3.31130E+01 0.00000E+00
 -1      3747 8.04000E+01 3.31130E+01 0.00000E+00
 -1      3748 7.81500E+01 3.18140E+01 0.00000E+00
 -1      3749 8.19000E+01 3.31130E+01 0.00000E+00
 -1      3750 8.34000E+01 3.31130E+01 0.00000E+00
 -1      3751 8.11500E+01 3.18140E+01 0.00000E+00
 -1      3752 8.49000E+01 3.31130E+01 0.00000E+00
 -1      3753 8.64000E+01 3.31130E+01 0.00000E+00
 -1      3754 8.41500E+01 3.18140E+01 0.00000E+00
 -1      3755 8.79000E+01 3.31130E+01 0.00000E+00
 -1      3756 8.94000E+01 3.31130E+01 0.00000E+00
 -1      3757 8.71500E+01 3.18140E+01 0.00000E+00
 -1      3758 9.09000E+01 3.31130E+01 0.00000E+00
 -1      3759 9.24000E+01 3.31130E+01 0.00000E+00
 -1      3760 9.01500E+01 3.18140E+01 0.00000E+00
 -1      3761 9.39000E+01 3.31130E+01 0.00000E+00
 -1      3762 9.54000E+01 3.31130E+01 0.00000E+00
 -1      3763 9.31500E+01 3.18140E+01 0.00000E+00
 -1      3764 9.69000E+01 3.31130E+01 0.00000E+00
 -1      3765 9.84000E+01 3.31130E+01 0.00000E+00
 -1      3766 9.61500E+01 3.18140E+01 0.00000E+00
 -1      3767 9.99000E+01 3.31130E+01 0.00000E+00
 -1      3768 1.01400E+02 3.31130E+01 0.00000E+00
 -1      3769 9.91500E+01 3.18140E+01 0.00000E+00
 -1      3770 1.02900E+02 3.31130E+01 0.00000E+00
 -1      3771 1.04400E+02 3.31130E+01 0.00000E+00
 -1      3772 1.02150E+02 3.18140E+01 0.00000E+00
 -1      3773 1.05900E+02 3.31130E+01 0.00000E+00
 -1      3774 1.07400E+02 3.31130E+01 0.00000E+00
 -1      3775 1.05150E+02 3.18140E+01 0.00000E+00
 -1      3776 1.08900E+02 3.31130E+01 0.00000E+00
 -1      3777 1.10400E+02 3.31130E+01 0.00000E+00
 -1      3778 1.08150E+02 3.18140E+01 0.00000E+00
 -1      3779 1.11900E+02 3.31130E+01 0.00000E+00
 -1      3780 1.13400E+02 3.31130E+01 0.00000E+00
 -1      3781 1.11150E+02 3.18140E+01 0.00000E+00
 -1      3782 1.14900E+02 3.31130E+01 0.00000E+00
 -1      3783 1.16400E+02 3.31130E+01 0.00000E+00
 -1      3784 1.14150E+02 3.18140E+01 0.00000E+00
 -1      3785 1.17900E+02 3.31130E+01 0.00000E+00
 -1      3786 1.19400E+02 3.31130E+01 0.00000E+00
 -1      3787 1.17150E+02 3.18140E+01 0.00000E+00
 -1      3788 1.20900E+02 3.31130E+01 0.00000E+00
 -1      3789 1.22400E+02 3.31130E+01 0.00000E+00
 -1      3790 1.20150E+02 3.18140E+01 0.00000E+00
 -1      3791 1.23900E+02 3.31130E+01 0.00000E+00
 -1      3792 1.25400E+02 3.31130E+01 0.00000E+00
 -1      3793 1.23150E+02 3.18140E+01 0.00000E+00
 -1      3794 1.26900E+02 3.31130E+01 0.00000E+00
 -1      3795 1.28400E+02 3.31130E+01 0.00000E+00
 -1      3796 1.26150E+02 3.18140E+01 0.00000E+00
 -1      3797 1.29900E+02 3.31130E+01 0.00000E+00
 -1      3798 1.31400E+02 3.31130E+01 0.00000E+00
 -1      3799 1.29150E+02 3.18140E+01 0.00000E+00
 -1      3800 1.33281E+02 3.33810E+01 0.00000E+00
 -1      3801 5.87850E+01 1.53171E+01 0.00000E+00
 -1      3802 5.72850E+01 1.53171E+01 0.00000E+00
 -1      3803 6.77850E+01 1.53171E+01 0.00000E+00
 -1      3804 6.62850E+01 1.53171E+01 0.00000E+00
 -1      3805 6.55350E+01 1.66161E+01 0.00000E+00
 -1      3806 7.07850E+01 1.53171E+01 0.00000E+00
 -1      3807 6.92850E+01 1.53171E+01 0.00000E+00
 -1      3808 6.85350E+01 1.66161E+01 0.00000E+00
 -1      3809 7.37850E+01 1.53171E+01 0.00000E+00
 -1      3810 7.22850E+01 1.53171E+01 0.00000E+00
 -1      3811 7.15350E+01 1.66161E+01 0.00000E+00
 -1      3812 7.67850E+01 1.53171E+01 0.00000E+00
 -1      3813 7.52850E+01 1.53171E+01 0.00000E+00
 -1      3814 7.45350E+01 1.66161E+01 0.00000E+00
 -1      3815 7.97850E+01 1.53171E+01 0.00000E+00
 -1      3816 7.82850E+01 1.53171E+01 0.00000E+00
 -1      3817 7.75350E+01 1.66161E+01 0.00000E+00
 -1      3818 8.27850E+01 1.53171E+01 0.00000E+00
 -1      3819 8.12850E+01 1.53171E+01 0.00000E+00
 -1      3820 8.05350E+01 1.66161E+01 0.00000E+00
 -1      3821 8.57850E+01 1.53171E+01 0.00000E+00
 -1      3822 8.42850E+01 1.53171E+01 0.00000E+00
 -1      3823 8.35350E+01 1.66161E+01 0.00000E+00
 -1      3824 8.87850E+01 1.53171E+01 0.00000E+00
 -1      3825 8.72850E+01 1.53171E+01 0.00000E+00
 -1      3826 8.65350E+01 1.66161E+01 0.00000E+00
 -1      3827 9.17850E+01 1.53171E+01 0.00000E+00
 -1      3828 9.02850E+01 1.53171E+01 0.00000E+00
 -1      3829 8.95350E+01 1.66161E+01 0.00000E+00
 -1      3830 9.47850E+01 1.53171E+01 0.00000E+00
 -1      3831 9.32850E+01 1.53171E+01 0.00000E+00
 -1      3832 9.25350E+01 1.66161E+01 0.00000E+00
 -1      3833 9.77850E+01 1.53171E+01 0.00000E+00
 -1      3834 9.62850E+01 1.53171E+01 0.00000E+00
 -1      3835 9.55350E+01 1.66161E+01 0.00000E+00
 -1      3836 1.00785E+02 1.53171E+01 0.00000E+00
 -1      3837 9.92850E+01 1.53171E+01 0.00000E+00
 -1      3838 9.85350E+01 1.66161E+01 0.00000E+00
 -1      3839 1.03785E+02 1.53171E+01 0.00000E+00
 -1      3840 1.02285E+02 1.53171E+01 0.00000E+00
 -1      3841 1.01535E+02 1.66161E+01 0.00000E+00
 -1      3842 1.06785E+02 1.53171E+01 0.00000E+00
 -1      3843 1.05285E+02 1.53171E+01 0.00000E+00
 -1      3844 1.04535E+02 1.66161E+01 0.00000E+00
 -1      3845 1.09785E+02 1.53171E+01 0.00000E+00
 -1      3846 1.08285E+02 1.53171E+01 0.00000E+00
 -1      3847 1.07535E+02 1.66161E+01 0.00000E+00
 -1      3848 1.12785E+02 1.53171E+01 0.00000E+00
 -1      3849 1.11285E+02 1.53171E+01 0.00000E+00
 -1      3850 1.10535E+02 1.66161E+01 0.00000E+00
 -1      3851 1.15785E+02 1.53171E+01 0.00000E+00
 -1      3852 1.14285E+02 1.53171E+01 0.00000E+00
 -1      3853 1.13535E+02 1.66161E+01 0.00000E+00
 -1      3854 1.18785E+02 1.53171E+01 0.00000E+00
 -1      3855 1.17285E+02 1.53171E+01 0.00000E+00
 -1      3856 1.16535E+02 1.66161E+01 0.00000E+00
 -1      3857 1.21785E+02 1.53171E+01 0.00000E+00
 -1      3858 1.20285E+02 1.53171E+01 0.00000E+00
 -1      3859 1.19535E+02 1.66161E+01 0.00000E+00
 -1      3860 1.24785E+02 1.53171E+01 0.00000E+00
 -1      3861 1.23285E+02 1.53171E+01 0.00000E+00
 -1      3862 1.22535E+02 1.66161E+01 0.00000E+00
 -1      3863 1.27785E+02 1.53171E+01 0.00000E+00
 -1      3864 1.26285E+02 1.53171E+01 0.00000E+00
 -1      3865 1.25535E+02 1.66161E+01 0.00000E+00
 -1      3866 1.30785E+02 1.53171E+01 0.00000E+00
 -1      3867 1.29285E+02 1.53171E+01 0.00000E+00
 -1      3868 1.28535E+02 1.66161E+01 0.00000E+00
 -1      3869 1.32973E+02 1.58403E+01 0.00000E+00
 -1      3870 4.48897E+01 2.62980E+01 0.00000E+00
 -1      3871 4.40550E+01 2.78799E+01 0.00000E+00
 -1      3872 4.24971E+01 3.10926E+01 0.00000E+00
 -1      3873 4.20258E+01 3.22822E+01 0.00000E+00
 -1      3874 1.34412E+02 2.20812E+01 0.00000E+00
 -1      3875 1.35711E+02 2.13453E+01 0.00000E+00
 -1      3876 1.35711E+02 1.98734E+01 0.00000E+00
 -1      3877 5.57850E+01 1.53171E+01 0.00000E+00
 -1      3878 5.42850E+01 1.53171E+01 0.00000E+00
 -1      3879 5.65350E+01 1.66161E+01 0.00000E+00
 -1      3880 6.17850E+01 1.53171E+01 0.00000E+00
 -1      3881 6.02850E+01 1.53171E+01 0.00000E+00
 -1      3882 6.25350E+01 1.66161E+01 0.00000E+00
 -1      3883 1.34412E+02 1.91359E+01 0.00000E+00
 -1      3884 4.59729E+01 1.84548E+01 0.00000E+00
 -1      3885 4.61238E+01 2.01314E+01 0.00000E+00
 -1      3886 4.36227E+01 2.89415E+01 0.00000E+00
 -1      3887 4.29293E+01 3.00309E+01 0.00000E+00
 -1      3888 4.40822E+01 3.07523E+01 0.00000E+00
 -1      3889 4.49467E+01 2.86291E+01 0.00000E+00
 -1      3890 4.81894E+01 1.53120E+01 0.00000E+00
 -1      3891 4.68184E+01 1.71609E+01 0.00000E+00
 -1      3892 4.79984E+01 1.78998E+01 0.00000E+00
 -1      3893 4.96894E+01 1.53120E+01 0.00000E+00
 -1      3894 1.32531E+02 3.20820E+01 0.00000E+00
 -1      3895 1.32223E+02 1.71393E+01 0.00000E+00
 -1      3896 1.32223E+02 2.00862E+01 0.00000E+00
 -1      3897 1.32223E+02 1.86127E+01 0.00000E+00
 -1      3898 1.30035E+02 1.80895E+01 0.00000E+00
 -1      3899 4.69498E+01 2.46007E+01 0.00000E+00
 -1      3900 4.59197E+01 2.54494E+01 0.00000E+00
 -1      3901 4.64090E+01 2.67188E+01 0.00000E+00
 -1      3902 1.32223E+02 2.30299E+01 0.00000E+00
 -1      3903 1.32223E+02 2.15580E+01 0.00000E+00
 -1      3904 1.30035E+02 2.10348E+01 0.00000E+00
 -1      3905 1.34412E+02 2.79516E+01 0.00000E+00
 -1      3906 4.78356E+01 2.03248E+01 0.00000E+00
 -1      3907 4.68067E+01 2.12625E+01 0.00000E+00
 -1      3908 4.74895E+01 2.23937E+01 0.00000E+00
 -1      3909 1.32531E+02 3.06195E+01 0.00000E+00
 -1      3910 5.27850E+01 1.53171E+01 0.00000E+00
 -1      3911 5.12850E+01 1.53171E+01 0.00000E+00
 -1      3912 5.35350E+01 1.66161E+01 0.00000E+00
 -1      3913 1.32223E+02 2.59549E+01 0.00000E+00
 -1      3914 1.32223E+02 2.44924E+01 0.00000E+00
 -1      3915 1.30035E+02 2.39692E+01 0.00000E+00
 -1      3916 5.95350E+01 1.66161E+01 0.00000E+00
 -1      3917 4.55822E+01 3.07523E+01 0.00000E+00
 -1      3918 6.02850E+01 1.79151E+01 0.00000E+00
 -1      3919 5.87850E+01 1.79151E+01 0.00000E+00
 -1      3920 4.74000E+01 3.05150E+01 0.00000E+00
 -1      3921 4.89000E+01 3.05150E+01 0.00000E+00
 -1      3922 5.04000E+01 3.05150E+01 0.00000E+00
 -1      3923 5.19000E+01 3.05150E+01 0.00000E+00
 -1      3924 4.96500E+01 2.92160E+01 0.00000E+00
 -1      3925 5.34000E+01 3.05150E+01 0.00000E+00
 -1      3926 5.49000E+01 3.05150E+01 0.00000E+00
 -1      3927 5.26500E+01 2.92160E+01 0.00000E+00
 -1      3928 5.64000E+01 3.05150E+01 0.00000E+00
 -1      3929 5.79000E+01 3.05150E+01 0.00000E+00
 -1      3930 5.56500E+01 2.92160E+01 0.00000E+00
 -1      3931 5.94000E+01 3.05150E+01 0.00000E+00
 -1      3932 6.09000E+01 3.05150E+01 0.00000E+00
 -1      3933 5.86500E+01 2.92160E+01 0.00000E+00
 -1      3934 6.24000E+01 3.05150E+01 0.00000E+00
 -1      3935 6.39000E+01 3.05150E+01 0.00000E+00
 -1      3936 6.16500E+01 2.92160E+01 0.00000E+00
 -1      3937 6.54000E+01 3.05150E+01 0.00000E+00
 -1      3938 6.69000E+01 3.05150E+01 0.00000E+00
 -1      3939 6.46500E+01 2.92160E+01 0.00000E+00
 -1      3940 6.84000E+01 3.05150E+01 0.00000E+00
 -1      3941 6.99000E+01 3.05150E+01 0.00000E+00
 -1      3942 6.76500E+01 2.92160E+01 0.00000E+00
 -1      3943 7.14000E+01 3.05150E+01 0.00000E+00
 -1      3944 7.29000E+01 3.05150E+01 0.00000E+00
 -1      3945 7.06500E+01 2.92160E+01 0.00000E+00
 -1      3946 7.44000E+01 3.05150E+01 0.00000E+00
 -1      3947 7.59000E+01 3.05150E+01 0.00000E+00
 -1      3948 7.36500E+01 2.92160E+01 0.00000E+00
 -1      3949 7.74000E+01 3.05150E+01 0.00000E+00
 -1      3950 7.89000E+01 3.05150E+01 0.00000E+00
 -1      3951 7.66500E+01 2.92160E+01 0.00000E+00
 -1      3952 8.04000E+01 3.05150E+01 0.00000E+00
 -1      3953 8.19000E+01 3.05150E+01 0.00000E+00
 -1      3954 7.96500E+01 2.92160E+01 0.00000E+00
 -1      3955 8.34000E+01 3.05150E+01 0.00000E+00
 -1      3956 8.49000E+01 3.05150E+01 0.00000E+00
 -1      3957 8.26500E+01 2.92160E+01 0.00000E+00
 -1      3958 8.64000E+01 3.05150E+01 0.00000E+00
 -1      3959 8.79000E+01 3.05150E+01 0.00000E+00
 -1      3960 8.56500E+01 2.92160E+01 0.00000E+00
 -1      3961 8.94000E+01 3.05150E+01 0.00000E+00
 -1      3962 9.09000E+01 3.05150E+01 0.00000E+00
 -1      3963 8.86500E+01 2.92160E+01 0.00000E+00
 -1      3964 9.24000E+01 3.05150E+01 0.00000E+00
 -1      3965 9.39000E+01 3.05150E+01 0.00000E+00
 -1      3966 9.16500E+01 2.92160E+01 0.00000E+00
 -1      3967 9.54000E+01 3.05150E+01 0.00000E+00
 -1      3968 9.69000E+01 3.05150E+01 0.00000E+00
 -1      3969 9.46500E+01 2.92160E+01 0.00000E+00
 -1      3970 9.84000E+01 3.05150E+01 0.00000E+00
 -1      3971 9.99000E+01 3.05150E+01 0.00000E+00
 -1      3972 9.76500E+01 2.92160E+01 0.00000E+00
 -1      3973 1.01400E+02 3.05150E+01 0.00000E+00
 -1      3974 1.02900E+02 3.05150E+01 0.00000E+00
 -1      3975 1.00650E+02 2.92160E+01 0.00000E+00
 -1      3976 1.04400E+02 3.05150E+01 0.00000E+00
 -1      3977 1.05900E+02 3.05150E+01 0.00000E+00
 -1      3978 1.03650E+02 2.92160E+01 0.00000E+00
 -1      3979 1.07400E+02 3.05150E+01 0.00000E+00
 -1      3980 1.08900E+02 3.05150E+01 0.00000E+00
 -1      3981 1.06650E+02 2.92160E+01 0.00000E+00
 -1      3982 1.10400E+02 3.05150E+01 0.00000E+00
 -1      3983 1.11900E+02 3.05150E+01 0.00000E+00
 -1      3984 1.09650E+02 2.92160E+01 0.00000E+00
 -1      3985 1.13400E+02 3.05150E+01 0.00000E+00
 -1      3986 1.14900E+02 3.05150E+01 0.00000E+00
 -1      3987 1.12650E+02 2.92160E+01 0.00000E+00
 -1      3988 1.16400E+02 3.05150E+01 0.00000E+00
 -1      3989 1.17900E+02 3.05150E+01 0.00000E+00
 -1      3990 1.15650E+02 2.92160E+01 0.00000E+00
 -1      3991 1.19400E+02 3.05150E+01 0.00000E+00
 -1      3992 1.20900E+02 3.05150E+01 0.00000E+00
 -1      3993 1.18650E+02 2.92160E+01 0.00000E+00
 -1      3994 1.22400E+02 3.05150E+01 0.00000E+00
 -1      3995 1.23900E+02 3.05150E+01 0.00000E+00
 -1      3996 1.21650E+02 2.92160E+01 0.00000E+00
 -1      3997 1.25400E+02 3.05150E+01 0.00000E+00
 -1      3998 1.26900E+02 3.05150E+01 0.00000E+00
 -1      3999 1.24650E+02 2.92160E+01 0.00000E+00
 -1      4000 1.28400E+02 3.05150E+01 0.00000E+00
 -1      4001 1.29900E+02 3.05150E+01 0.00000E+00
 -1      4002 1.27650E+02 2.92160E+01 0.00000E+00
 -1      4003 7.22850E+01 1.79151E+01 0.00000E+00
 -1      4004 7.07850E+01 1.79151E+01 0.00000E+00
 -1      4005 6.62850E+01 1.79151E+01 0.00000E+00
 -1      4006 6.47850E+01 1.79151E+01 0.00000E+00
 -1      4007 7.52850E+01 1.79151E+01 0.00000E+00
 -1      4008 7.37850E+01 1.79151E+01 0.00000E+00
 -1      4009 7.30350E+01 1.92141E+01 0.00000E+00
 -1      4010 7.82850E+01 1.79151E+01 0.00000E+00
 -1      4011 7.67850E+01 1.79151E+01 0.00000E+00
 -1      4012 7.60350E+01 1.92141E+01 0.00000E+00
 -1      4013 8.12850E+01 1.79151E+01 0.00000E+00
 -1      4014 7.97850E+01 1.79151E+01 0.00000E+00
 -1      4015 7.90350E+01 1.92141E+01 0.00000E+00
 -1      4016 8.42850E+01 1.79151E+01 0.00000E+00
 -1      4017 8.27850E+01 1.79151E+01 0.00000E+00
 -1      4018 8.20350E+01 1.92141E+01 0.00000E+00
 -1      4019 8.72850E+01 1.79151E+01 0.00000E+00
 -1      4020 8.57850E+01 1.79151E+01 0.00000E+00
 -1      4021 8.50350E+01 1.92141E+01 0.00000E+00
 -1      4022 9.02850E+01 1.79151E+01 0.00000E+00
 -1      4023 8.87850E+01 1.79151E+01 0.00000E+00
 -1      4024 8.80350E+01 1.92141E+01 0.00000E+00
 -1      4025 9.32850E+01 1.79151E+01 0.00000E+00
 -1      4026 9.17850E+01 1.79151E+01 0.00000E+00
 -1      4027 9.10350E+01 1.92141E+01 0.00000E+00
 -1      4028 9.62850E+01 1.79151E+01 0.00000E+00
 -1      4029 9.47850E+01 1.79151E+01 0.00000E+00
 -1      4030 9.40350E+01 1.92141E+01 0.00000E+00
 -1      4031 9.92850E+01 1.79151E+01 0.00000E+00
 -1      4032 9.77850E+01 1.79151E+01 0.00000E+00
 -1      4033 9.70350E+01 1.92141E+01 0.00000E+00
 -1      4034 1.02285E+02 1.79151E+01 0.00000E+00
 -1      4035 1.00785E+02 1.79151E+01 0.00000E+00
 -1      4036 1.00035E+02 1.92141E+01 0.00000E+00
 -1      4037 1.05285E+02 1.79151E+01 0.00000E+00
 -1      4038 1.03785E+02 1.79151E+01 0.00000E+00
 -1      4039 1.03035E+02 1.92141E+01 0.00000E+00
 -1      4040 1.08285E+02 1.79151E+01 0.00000E+00
 -1      4041 1.06785E+02 1.79151E+01 0.00000E+00
 -1      4042 1.06035E+02 1.92141E+01 0.00000E+00
 -1      4043 1.11285E+02 1.79151E+01 0.00000E+00
 -1      4044 1.09785E+02 1.79151E+01 0.00000E+00
 -1      4045 1.09035E+02 1.92141E+01 0.00000E+00
 -1      4046 1.14285E+02 1.79151E+01 0.00000E+00
 -1      4047 1.12785E+02 1.79151E+01 0.00000E+00
 -1      4048 1.12035E+02 1.92141E+01 0.00000E+00
 -1      4049 1.17285E+02 1.79151E+01 0.00000E+00
 -1      4050 1.15785E+02 1.79151E+01 0.00000E+00
 -1      4051 1.15035E+02 1.92141E+01 0.00000E+00
 -1      4052 1.20285E+02 1.79151E+01 0.00000E+00
 -1      4053 1.18785E+02 1.79151E+01 0.00000E+00
 -1      4054 1.18035E+02 1.92141E+01 0.00000E+00
 -1      4055 1.23285E+02 1.79151E+01 0.00000E+00
 -1      4056 1.21785E+02 1.79151E+01 0.00000E+00
 -1      4057 1.21035E+02 1.92141E+01 0.00000E+00
 -1      4058 1.26285E+02 1.79151E+01 0.00000E+00
 -1      4059 1.24785E+02 1.79151E+01 0.00000E+00
 -1      4060 1.24035E+02 1.92141E+01 0.00000E+00
 -1      4061 1.28910E+02 1.80023E+01 0.00000E+00
 -1      4062 1.27410E+02 1.80023E+01 0.00000E+00
 -1      4063 1.26660E+02 1.93013E+01 0.00000E+00
 -1      4064 1.28910E+02 1.94757E+01 0.00000E+00
 -1      4065 6.92850E+01 1.79151E+01 0.00000E+00
 -1      4066 6.77850E+01 1.79151E+01 0.00000E+00
 -1      4067 7.00350E+01 1.92141E+01 0.00000E+00
 -1      4068 1.31215E+02 2.98305E+01 0.00000E+00
 -1      4069 1.33096E+02 2.86360E+01 0.00000E+00
 -1      4070 1.33096E+02 2.71626E+01 0.00000E+00
 -1      4071 1.30465E+02 2.85315E+01 0.00000E+00
 -1      4072 5.72850E+01 1.79151E+01 0.00000E+00
 -1      4073 5.57850E+01 1.79151E+01 0.00000E+00
 -1      4074 5.80350E+01 1.92141E+01 0.00000E+00
 -1      4075 6.32850E+01 1.79151E+01 0.00000E+00
 -1      4076 6.17850E+01 1.79151E+01 0.00000E+00
 -1      4077 6.40350E+01 1.92141E+01 0.00000E+00
 -1      4078 6.10350E+01 1.92141E+01 0.00000E+00
 -1      4079 4.79787E+01 2.36630E+01 0.00000E+00
 -1      4080 4.84680E+01 2.49324E+01 0.00000E+00
 -1      4081 4.90077E+01 2.27253E+01 0.00000E+00
 -1      4082 1.30908E+02 2.66394E+01 0.00000E+00
 -1      4083 5.50350E+01 1.92141E+01 0.00000E+00
 -1      4084 5.42850E+01 1.79151E+01 0.00000E+00
 -1      4085 5.27850E+01 1.79151E+01 0.00000E+00
 -1      4086 6.70350E+01 1.92141E+01 0.00000E+00
 -1      4087 5.04394E+01 1.66110E+01 0.00000E+00
 -1      4088 1.28910E+02 2.24195E+01 0.00000E+00
 -1      4089 1.28910E+02 2.09476E+01 0.00000E+00
 -1      4090 1.27785E+02 2.08604E+01 0.00000E+00
 -1      4091 4.77945E+01 2.75430E+01 0.00000E+00
 -1      4092 4.67645E+01 2.83917E+01 0.00000E+00
 -1      4093 4.63322E+01 2.94534E+01 0.00000E+00
 -1      4094 1.28910E+02 2.53445E+01 0.00000E+00
 -1      4095 1.28910E+02 2.38820E+01 0.00000E+00
 -1      4096 1.27785E+02 2.37948E+01 0.00000E+00
 -1      4097 4.95603E+01 1.78209E+01 0.00000E+00
 -1      4098 4.87148E+01 1.91148E+01 0.00000E+00
 -1      4099 4.93976E+01 2.02460E+01 0.00000E+00
 -1      4100 5.11559E+01 1.78260E+01 0.00000E+00
 -1      4101 5.19000E+01 2.79170E+01 0.00000E+00
 -1      4102 5.34000E+01 2.79170E+01 0.00000E+00
 -1      4103 5.49000E+01 2.79170E+01 0.00000E+00
 -1      4104 5.64000E+01 2.79170E+01 0.00000E+00
 -1      4105 5.41500E+01 2.66180E+01 0.00000E+00
 -1      4106 5.79000E+01 2.79170E+01 0.00000E+00
 -1      4107 5.94000E+01 2.79170E+01 0.00000E+00
 -1      4108 5.71500E+01 2.66180E+01 0.00000E+00
 -1      4109 6.09000E+01 2.79170E+01 0.00000E+00
 -1      4110 6.24000E+01 2.79170E+01 0.00000E+00
 -1      4111 6.01500E+01 2.66180E+01 0.00000E+00
 -1      4112 6.39000E+01 2.79170E+01 0.00000E+00
 -1      4113 6.54000E+01 2.79170E+01 0.00000E+00
 -1      4114 6.31500E+01 2.66180E+01 0.00000E+00
 -1      4115 6.69000E+01 2.79170E+01 0.00000E+00
 -1      4116 6.84000E+01 2.79170E+01 0.00000E+00
 -1      4117 6.61500E+01 2.66180E+01 0.00000E+00
 -1      4118 6.99000E+01 2.79170E+01 0.00000E+00
 -1      4119 7.14000E+01 2.79170E+01 0.00000E+00
 -1      4120 6.91500E+01 2.66180E+01 0.00000E+00
 -1      4121 7.29000E+01 2.79170E+01 0.00000E+00
 -1      4122 7.44000E+01 2.79170E+01 0.00000E+00
 -1      4123 7.21500E+01 2.66180E+01 0.00000E+00
 -1      4124 7.59000E+01 2.79170E+01 0.00000E+00
 -1      4125 7.74000E+01 2.79170E+01 0.00000E+00
 -1      4126 7.51500E+01 2.66180E+01 0.00000E+00
 -1      4127 7.89000E+01 2.79170E+01 0.00000E+00
 -1      4128 8.04000E+01 2.79170E+01 0.00000E+00
 -1      4129 7.81500E+01 2.66180E+01 0.00000E+00
 -1      4130 8.19000E+01 2.79170E+01 0.00000E+00
 -1      4131 8.34000E+01 2.79170E+01 0.00000E+00
 -1      4132 8.11500E+01 2.66180E+01 0.00000E+00
 -1      4133 8.49000E+01 2.79170E+01 0.00000E+00
 -1      4134 8.64000E+01 2.79170E+01 0.00000E+00
 -1      4135 8.41500E+01 2.66180E+01 0.00000E+00
 -1      4136 8.79000E+01 2.79170E+01 0.00000E+00
 -1      4137 8.94000E+01 2.79170E+01 0.00000E+00
 -1      4138 8.71500E+01 2.66180E+01 0.00000E+00
 -1      4139 9.09000E+01 2.79170E+01 0.00000E+00
 -1      4140 9.24000E+01 2.79170E+01 0.00000E+00
 -1      4141 9.01500E+01 2.66180E+01 0.00000E+00
 -1      4142 9.39000E+01 2.79170E+01 0.00000E+00
 -1      4143 9.54000E+01 2.79170E+01 0.00000E+00
 -1      4144 9.31500E+01 2.66180E+01 0.00000E+00
 -1      4145 9.69000E+01 2.79170E+01 0.00000E+00
 -1      4146 9.84000E+01 2.79170E+01 0.00000E+00
 -1      4147 9.61500E+01 2.66180E+01 0.00000E+00
 -1      4148 9.99000E+01 2.79170E+01 0.00000E+00
 -1      4149 1.01400E+02 2.79170E+01 0.00000E+00
 -1      4150 9.91500E+01 2.66180E+01 0.00000E+00
 -1      4151 1.02900E+02 2.79170E+01 0.00000E+00
 -1      4152 1.04400E+02 2.79170E+01 0.00000E+00
 -1      4153 1.02150E+02 2.66180E+01 0.00000E+00
 -1      4154 1.05900E+02 2.79170E+01 0.00000E+00
 -1      4155 1.07400E+02 2.79170E+01 0.00000E+00
 -1      4156 1.05150E+02 2.66180E+01 0.00000E+00
 -1      4157 1.08900E+02 2.79170E+01 0.00000E+00
 -1      4158 1.10400E+02 2.79170E+01 0.00000E+00
 -1      4159 1.08150E+02 2.66180E+01 0.00000E+00
 -1      4160 1.11900E+02 2.79170E+01 0.00000E+00
 -1      4161 1.13400E+02 2.79170E+01 0.00000E+00
 -1      4162 1.11150E+02 2.66180E+01 0.00000E+00
 -1      4163 1.14900E+02 2.79170E+01 0.00000E+00
 -1      4164 1.16400E+02 2.79170E+01 0.00000E+00
 -1      4165 1.14150E+02 2.66180E+01 0.00000E+00
 -1      4166 1.17900E+02 2.79170E+01 0.00000E+00
 -1      4167 1.19400E+02 2.79170E+01 0.00000E+00
 -1      4168 1.17150E+02 2.66180E+01 0.00000E+00
 -1      4169 1.20900E+02 2.79170E+01 0.00000E+00
 -1      4170 1.22400E+02 2.79170E+01 0.00000E+00
 -1      4171 1.20150E+02 2.66180E+01 0.00000E+00
 -1      4172 1.23900E+02 2.79170E+01 0.00000E+00
 -1      4173 1.25400E+02 2.79170E+01 0.00000E+00
 -1      4174 1.23150E+02 2.66180E+01 0.00000E+00
 -1      4175 1.26967E+02 2.72366E+01 0.00000E+00
 -1      4176 1.28467E+02 2.72366E+01 0.00000E+00
 -1      4177 7.67850E+01 2.05131E+01 0.00000E+00
 -1      4178 7.52850E+01 2.05131E+01 0.00000E+00
 -1      4179 7.97850E+01 2.05131E+01 0.00000E+00
 -1      4180 7.82850E+01 2.05131E+01 0.00000E+00
 -1      4181 7.75350E+01 2.18121E+01 0.00000E+00
 -1      4182 6.17850E+01 2.05131E+01 0.00000E+00
 -1      4183 6.02850E+01 2.05131E+01 0.00000E+00
 -1      4184 7.37850E+01 2.05131E+01 0.00000E+00
 -1      4185 7.22850E+01 2.05131E+01 0.00000E+00
 -1      4186 7.45350E+01 2.18121E+01 0.00000E+00
 -1      4187 8.27850E+01 2.05131E+01 0.00000E+00
 -1      4188 8.12850E+01 2.05131E+01 0.00000E+00
 -1      4189 8.05350E+01 2.18121E+01 0.00000E+00
 -1      4190 8.57850E+01 2.05131E+01 0.00000E+00
 -1      4191 8.42850E+01 2.05131E+01 0.00000E+00
 -1      4192 8.35350E+01 2.18121E+01 0.00000E+00
 -1      4193 8.87850E+01 2.05131E+01 0.00000E+00
 -1      4194 8.72850E+01 2.05131E+01 0.00000E+00
 -1      4195 8.65350E+01 2.18121E+01 0.00000E+00
 -1      4196 9.17850E+01 2.05131E+01 0.00000E+00
 -1      4197 9.02850E+01 2.05131E+01 0.00000E+00
 -1      4198 8.95350E+01 2.18121E+01 0.00000E+00
 -1      4199 9.47850E+01 2.05131E+01 0.00000E+00
 -1      4200 9.32850E+01 2.05131E+01 0.00000E+00
 -1      4201 9.25350E+01 2.18121E+01 0.00000E+00
 -1      4202 9.77850E+01 2.05131E+01 0.00000E+00
 -1      4203 9.62850E+01 2.05131E+01 0.00000E+00
 -1      4204 9.55350E+01 2.18121E+01 0.00000E+00
 -1      4205 1.00785E+02 2.05131E+01 0.00000E+00
 -1      4206 9.92850E+01 2.05131E+01 0.00000E+00
 -1      4207 9.85350E+01 2.18121E+01 0.00000E+00
 -1      4208 1.03785E+02 2.05131E+01 0.00000E+00
 -1      4209 1.02285E+02 2.05131E+01 0.00000E+00
 -1      4210 1.01535E+02 2.18121E+01 0.00000E+00
 -1      4211 1.06785E+02 2.05131E+01 0.00000E+00
 -1      4212 1.05285E+02 2.05131E+01 0.00000E+00
 -1      4213 1.04535E+02 2.18121E+01 0.00000E+00
 -1      4214 1.09785E+02 2.05131E+01 0.00000E+00
 -1      4215 1.08285E+02 2.05131E+01 0.00000E+00
 -1      4216 1.07535E+02 2.18121E+01 0.00000E+00
 -1      4217 1.12785E+02 2.05131E+01 0.00000E+00
 -1      4218 1.11285E+02 2.05131E+01 0.00000E+00
 -1      4219 1.10535E+02 2.18121E+01 0.00000E+00
 -1      4220 1.15785E+02 2.05131E+01 0.00000E+00
 -1      4221 1.14285E+02 2.05131E+01 0.00000E+00
 -1      4222 1.13535E+02 2.18121E+01 0.00000E+00
 -1      4223 1.18785E+02 2.05131E+01 0.00000E+00
 -1      4224 1.17285E+02 2.05131E+01 0.00000E+00
 -1      4225 1.16535E+02 2.18121E+01 0.00000E+00
 -1      4226 1.21785E+02 2.05131E+01 0.00000E+00
 -1      4227 1.20285E+02 2.05131E+01 0.00000E+00
 -1      4228 1.19535E+02 2.18121E+01 0.00000E+00
 -1      4229 1.24785E+02 2.05131E+01 0.00000E+00
 -1      4230 1.23285E+02 2.05131E+01 0.00000E+00
 -1      4231 1.22535E+02 2.18121E+01 0.00000E+00
 -1      4232 7.07850E+01 2.05131E+01 0.00000E+00
 -1      4233 6.92850E+01 2.05131E+01 0.00000E+00
 -1      4234 7.15350E+01 2.18121E+01 0.00000E+00
 -1      4235 5.87850E+01 2.05131E+01 0.00000E+00
 -1      4236 5.72850E+01 2.05131E+01 0.00000E+00
 -1      4237 5.95350E+01 2.18121E+01 0.00000E+00
 -1      4238 4.88812E+01 2.62377E+01 0.00000E+00
 -1      4239 4.92367E+01 2.79107E+01 0.00000E+00
 -1      4240 5.07367E+01 2.79107E+01 0.00000E+00
 -1      4241 4.99102E+01 2.53000E+01 0.00000E+00
 -1      4242 1.29592E+02 2.73238E+01 0.00000E+00
 -1      4243 6.77850E+01 2.05131E+01 0.00000E+00
 -1      4244 6.62850E+01 2.05131E+01 0.00000E+00
 -1      4245 6.85350E+01 2.18121E+01 0.00000E+00
 -1      4246 6.47850E+01 2.05131E+01 0.00000E+00
 -1      4247 6.32850E+01 2.05131E+01 0.00000E+00
 -1      4248 6.55350E+01 2.18121E+01 0.00000E+00
 -1      4249 4.98869E+01 2.15154E+01 0.00000E+00
 -1      4250 5.03761E+01 2.27847E+01 0.00000E+00
 -1      4251 5.07660E+01 2.03054E+01 0.00000E+00
 -1      4252 5.57850E+01 2.05131E+01 0.00000E+00
 -1      4253 5.42850E+01 2.05131E+01 0.00000E+00
 -1      4254 5.65350E+01 2.18121E+01 0.00000E+00
 -1      4255 1.26217E+02 2.59376E+01 0.00000E+00
 -1      4256 6.25350E+01 2.18121E+01 0.00000E+00
 -1      4257 1.26848E+02 2.07303E+01 0.00000E+00
 -1      4258 1.25723E+02 2.06431E+01 0.00000E+00
 -1      4259 1.24973E+02 2.19421E+01 0.00000E+00
 -1      4260 1.26848E+02 2.22022E+01 0.00000E+00
 -1      4261 1.26533E+02 2.48012E+01 0.00000E+00
 -1      4262 1.26533E+02 2.33387E+01 0.00000E+00
 -1      4263 1.25595E+02 2.32086E+01 0.00000E+00
 -1      4264 1.24965E+02 2.54815E+01 0.00000E+00
 -1      4265 5.14867E+01 2.66117E+01 0.00000E+00
 -1      4266 5.19059E+01 1.91250E+01 0.00000E+00
 -1      4267 5.64000E+01 2.53190E+01 0.00000E+00
 -1      4268 5.79000E+01 2.53190E+01 0.00000E+00
 -1      4269 5.98425E+01 2.42150E+01 0.00000E+00
 -1      4270 6.13425E+01 2.42150E+01 0.00000E+00
 -1      4271 6.28425E+01 2.42150E+01 0.00000E+00
 -1      4272 6.43425E+01 2.42150E+01 0.00000E+00
 -1      4273 6.58425E+01 2.42150E+01 0.00000E+00
 -1      4274 6.73425E+01 2.42150E+01 0.00000E+00
 -1      4275 6.88425E+01 2.42150E+01 0.00000E+00
 -1      4276 7.03425E+01 2.42150E+01 0.00000E+00
 -1      4277 7.18425E+01 2.42150E+01 0.00000E+00
 -1      4278 7.33425E+01 2.42150E+01 0.00000E+00
 -1      4279 7.48425E+01 2.42150E+01 0.00000E+00
 -1      4280 7.63425E+01 2.42150E+01 0.00000E+00
 -1      4281 7.78425E+01 2.42150E+01 0.00000E+00
 -1      4282 7.93425E+01 2.42150E+01 0.00000E+00
 -1      4283 8.08425E+01 2.42150E+01 0.00000E+00
 -1      4284 8.23425E+01 2.42150E+01 0.00000E+00
 -1      4285 8.38425E+01 2.42150E+01 0.00000E+00
 -1      4286 8.53425E+01 2.42150E+01 0.00000E+00
 -1      4287 8.68425E+01 2.42150E+01 0.00000E+00
 -1      4288 8.83425E+01 2.42150E+01 0.00000E+00
 -1      4289 8.98425E+01 2.42150E+01 0.00000E+00
 -1      4290 9.13425E+01 2.42150E+01 0.00000E+00
 -1      4291 9.28425E+01 2.42150E+01 0.00000E+00
 -1      4292 9.43425E+01 2.42150E+01 0.00000E+00
 -1      4293 9.58425E+01 2.42150E+01 0.00000E+00
 -1      4294 9.73425E+01 2.42150E+01 0.00000E+00
 -1      4295 9.88425E+01 2.42150E+01 0.00000E+00
 -1      4296 1.00342E+02 2.42150E+01 0.00000E+00
 -1      4297 1.01842E+02 2.42150E+01 0.00000E+00
 -1      4298 1.03342E+02 2.42150E+01 0.00000E+00
 -1      4299 1.04842E+02 2.42150E+01 0.00000E+00
 -1      4300 1.06342E+02 2.42150E+01 0.00000E+00
 -1      4301 1.07842E+02 2.42150E+01 0.00000E+00
 -1      4302 1.09342E+02 2.42150E+01 0.00000E+00
 -1      4303 1.10842E+02 2.42150E+01 0.00000E+00
 -1      4304 1.12342E+02 2.42150E+01 0.00000E+00
 -1      4305 1.13842E+02 2.42150E+01 0.00000E+00
 -1      4306 1.15342E+02 2.42150E+01 0.00000E+00
 -1      4307 1.16842E+02 2.42150E+01 0.00000E+00
 -1      4308 1.18342E+02 2.42150E+01 0.00000E+00
 -1      4309 1.19842E+02 2.42150E+01 0.00000E+00
 -1      4310 1.21342E+02 2.42150E+01 0.00000E+00
 -1      4311 1.22842E+02 2.42150E+01 0.00000E+00
 -1      4312 1.24658E+02 2.30786E+01 0.00000E+00
 -1      4313 5.07248E+01 2.40455E+01 0.00000E+00
 -1      4314 5.11381E+01 2.53509E+01 0.00000E+00
 -1      4315 5.23013E+01 2.53572E+01 0.00000E+00
 -1      4316 5.16039E+01 2.28356E+01 0.00000E+00
 -1      4317 5.36007E+01 2.53381E+01 0.00000E+00
 -1      4318 5.51007E+01 2.53381E+01 0.00000E+00
 -1      4319 5.58507E+01 2.40391E+01 0.00000E+00
 -1      4320 5.32520E+01 2.40773E+01 0.00000E+00
 -1      4321 5.23951E+01 2.03944E+01 0.00000E+00
 -1      4322 5.75925E+01 2.29160E+01 0.00000E+00
 -1      4323 5.60925E+01 2.29160E+01 0.00000E+00
 -1      4324 1.23465E+02 2.54815E+01 0.00000E+00
 -1      4325 5.83425E+01 2.42150E+01 0.00000E+00
 -1      4326 5.31451E+01 2.16934E+01 0.00000E+00
 -1      4327 5.47932E+01 2.29351E+01 0.00000E+00
 -1      4328 5.34938E+01 2.29542E+01 0.00000E+00
 -3
    3C                          2082                                     1
 -1       165    8    0    1
 -2         6         7        23      1124      1288      1141
 -1       166    8    0    1
 -2         7         8       165      1125      1289      1290
 -1       167    8    0    1
 -2         8         9       166      1126      1291      1292
 -1       168    8    0    1
 -2         8       166       165      1292      1293      1289
 -1       169    8    0    1
 -2         9        10       167      1127      1294      1295
 -1       170    8    0    1
 -2         9       167       166      1295      1296      1291
 -1       171    8    0    1
 -2        10        11       168      1128      1297      1298
 -1       172    8    0    1
 -2        10       168       167      1298      1299      1294
 -1       173    8    0    1
 -2        11        12       169      1129      1300      1301
 -1       174    8    0    1
 -2        11       169       168      1301      1302      1297
 -1       175    8    0    1
 -2        12        13       170      1130      1303      1304
 -1       176    8    0    1
 -2        12       170       169      1304      1305      1300
 -1       177    8    0    1
 -2        13        14       171      1131      1306      1307
 -1       178    8    0    1
 -2        13       171       170      1307      1308      1303
 -1       179    8    0    1
 -2        14        15       172      1132      1309      1310
 -1       180    8    0    1
 -2        14       172       171      1310      1311      1306
 -1       181    8    0    1
 -2        15        16       173      1133      1312      1313
 -1       182    8    0    1
 -2        15       173       172      1313      1314      1309
 -1       183    8    0    1
 -2        16        17       174      1134      1315      1316
 -1       184    8    0    1
 -2        16       174       173      1316      1317      1312
 -1       185    8    0    1
 -2        17        18       175      1135      1318      1319
 -1       186    8    0    1
 -2        17       175       174      1319      1320      1315
 -1       187    8    0    1
 -2        18        19       176      1136      1321      1322
 -1       188    8    0    1
 -2        18       176       175      1322      1323      1318
 -1       189    8    0    1
 -2        19        20       177      1137      1324      1325
 -1       190    8    0    1
 -2        19       177       176      1325      1326      1321
 -1       191    8    0    1
 -2        20        21       178      1138      1327      1328
 -1       192    8    0    1
 -2        20       178       177      1328      1329      1324
 -1       193    8    0    1
 -2        21        22       179      1139      1330      1331
 -1       194    8    0    1
 -2        21       179       178      1331      1332      1327
 -1       195    8    0    1
 -2        22         5       180      1140      1333      1334
 -1       196    8    0    1
 -2       179        22       180      1330      1334      1335
 -1       197    8    0    1
 -2         5        72       180      1191      1336      1333
 -1       198    8    0    1
 -2        24        23       181      1142      1337      1338
 -1       199    8    0    1
 -2        25        24       182      1143      1339      1340
 -1       200    8    0    1
 -2        24       181       182      1338      1341      1339
 -1       201    8    0    1
 -2        26        25       183      1144      1342      1343
 -1       202    8    0    1
 -2        25       182       183      1340      1344      1342
 -1       203    8    0    1
 -2        27        26       184      1145      1345      1346
 -1       204    8    0    1
 -2        26       183       184      1343      1347      1345
 -1       205    8    0    1
 -2        28        27       185      1146      1348      1349
 -1       206    8    0    1
 -2        27       184       185      1346      1350      1348
 -1       207    8    0    1
 -2        29        28       186      1147      1351      1352
 -1       208    8    0    1
 -2        28       185       186      1349      1353      1351
 -1       209    8    0    1
 -2        30        29       187      1148      1354      1355
 -1       210    8    0    1
 -2        29       186       187      1352      1356      1354
 -1       211    8    0    1
 -2        31        30       188      1149      1357      1358
 -1       212    8    0    1
 -2        30       187       188      1355      1359      1357
 -1       213    8    0    1
 -2        32        31       189      1150      1360      1361
 -1       214    8    0    1
 -2        31       188       189      1358      1362      1360
 -1       215    8    0    1
 -2        33        32       190      1151      1363      1364
 -1       216    8    0    1
 -2        32       189       190      1361      1365      1363
 -1       217    8    0    1
 -2        34        33       191      1152      1366      1367
 -1       218    8    0    1
 -2        33       190       191      1364      1368      1366
 -1       219    8    0    1
 -2        35        34       192      1153      1369      1370
 -1       220    8    0    1
 -2        34       191       192      1367      1371      1369
 -1       221    8    0    1
 -2        36        35       193      1154      1372      1373
 -1       222    8    0    1
 -2        35       192       193      1370      1374      1372
 -1       223    8    0    1
 -2        37        36       194      1155      1375      1376
 -1       224    8    0    1
 -2        36       193       194      1373      1377      1375
 -1       225    8    0    1
 -2        38        37       195      1156      1378      1379
 -1       226    8    0    1
 -2        37       194       195      1376      1380      1378
 -1       227    8    0    1
 -2        39        38       196      1157      1381      1382
 -1       228    8    0    1
 -2        38       195       196      1379      1383      1381
 -1       229    8    0    1
 -2        40        39       197      1158      1384      1385
 -1       230    8    0    1
 -2        39       196       197      1382      1386      1384
 -1       231    8    0    1
 -2        41        40       198      1159      1387      1388
 -1       232    8    0    1
 -2        40       197       198      1385      1389      1387
 -1       233    8    0    1
 -2        42        41       199      1160      1390      1391
 -1       234    8    0    1
 -2        41       198       199      1388      1392      1390
 -1       235    8    0    1
 -2        43        42       200      1161      1393      1394
 -1       236    8    0    1
 -2        42       199       200      1391      1395      1393
 -1       237    8    0    1
 -2        44        43       201      1162      1396      1397
 -1       238    8    0    1
 -2        43       200       201      1394      1398      1396
 -1       239    8    0    1
 -2        45        44       202      1163      1399      1400
 -1       240    8    0    1
 -2        44       201       202      1397      1401      1399
 -1       241    8    0    1
 -2        46        45       203      1164      1402      1403
 -1       242    8    0    1
 -2        45       202       203      1400      1404      1402
 -1       243    8    0    1
 -2        47        46       204      1165      1405      1406
 -1       244    8    0    1
 -2        46       203       204      1403      1407      1405
 -1       245    8    0    1
 -2        48        47       205      1166      1408      1409
 -1       246    8    0    1
 -2        47       204       205      1406      1410      1408
 -1       247    8    0    1
 -2        49        48       206      1167      1411      1412
 -1       248    8    0    1
 -2        48       205       206      1409      1413      1411
 -1       249    8    0    1
 -2        50        49       207      1168      1414      1415
 -1       250    8    0    1
 -2        49       206       207      1412      1416      1414
 -1       251    8    0    1
 -2        51        50       208      1169      1417      1418
 -1       252    8    0    1
 -2        50       207       208      1415      1419      1417
 -1       253    8    0    1
 -2        52        51       209      1170      1420      1421
 -1       254    8    0    1
 -2        51       208       209      1418      1422      1420
 -1       255    8    0    1
 -2        53        52       210      1171      1423      1424
 -1       256    8    0    1
 -2        52       209       210      1421      1425      1423
 -1       257    8    0    1
 -2        54        53       211      1172      1426      1427
 -1       258    8    0    1
 -2        53       210       211      1424      1428      1426
 -1       259    8    0    1
 -2        55        54       212      1173      1429      1430
 -1       260    8    0    1
 -2        54       211       212      1427      1431      1429
 -1       261    8    0    1
 -2        56        55       213      1174      1432      1433
 -1       262    8    0    1
 -2        55       212       213      1430      1434      1432
 -1       263    8    0    1
 -2        57        56       214      1175      1435      1436
 -1       264    8    0    1
 -2        56       213       214      1433      1437      1435
 -1       265    8    0    1
 -2        58        57       215      1176      1438      1439
 -1       266    8    0    1
 -2        57       214       215      1436      1440      1438
 -1       267    8    0    1
 -2        59        58       216      1177      1441      1442
 -1       268    8    0    1
 -2        58       215       216      1439      1443      1441
 -1       269    8    0    1
 -2        60        59       217      1178      1444      1445
 -1       270    8    0    1
 -2        59       216       217      1442      1446      1444
 -1       271    8    0    1
 -2        61        60       218      1179      1447      1448
 -1       272    8    0    1
 -2        60       217       218      1445      1449      1447
 -1       273    8    0    1
 -2        62        61       219      1180      1450      1451
 -1       274    8    0    1
 -2        61       218       219      1448      1452      1450
 -1       275    8    0    1
 -2        63        62       220      1181      1453      1454
 -1       276    8    0    1
 -2        62       219       220      1451      1455      1453
 -1       277    8    0    1
 -2        64        63       221      1182      1456      1457
 -1       278    8    0    1
 -2        63       220       221      1454      1458      1456
 -1       279    8    0    1
 -2        65        64       222      1183      1459      1460
 -1       280    8    0    1
 -2        64       221       222      1457      1461      1459
 -1       281    8    0    1
 -2        66        65       223      1184      1462      1463
 -1       282    8    0    1
 -2        65       222       223      1460      1464      1462
 -1       283    8    0    1
 -2        67        66       224      1185      1465      1466
 -1       284    8    0    1
 -2        66       223       224      1463      1467      1465
 -1       285    8    0    1
 -2        68        67       225      1186      1468      1469
 -1       286    8    0    1
 -2        67       224       225      1466      1470      1468
 -1       287    8    0    1
 -2        69        68       226      1187      1471      1472
 -1       288    8    0    1
 -2        68       225       226      1469      1473      1471
 -1       289    8    0    1
 -2        70        69       227      1188      1474      1475
 -1       290    8    0    1
 -2        69       226       227      1472      1476      1474
 -1       291    8    0    1
 -2        71        70       228      1189      1477      1478
 -1       292    8    0    1
 -2        70       227       228      1475      1479      1477
 -1       293    8    0    1
 -2         4        71       136      1190      1480      1257
 -1       294    8    0    1
 -2       136        71       228      1480      1478      1481
 -1       295    8    0    1
 -2        72        73       229      1192      1482      1483
 -1       296    8    0    1
 -2        72       229       180      1483      1484      1336
 -1       297    8    0    1
 -2        73        74       230      1193      1485      1486
 -1       298    8    0    1
 -2        73       230       229      1486      1487      1482
 -1       299    8    0    1
 -2        74        75       231      1194      1488      1489
 -1       300    8    0    1
 -2        74       231       230      1489      1490      1485
 -1       301    8    0    1
 -2        75        76       232      1195      1491      1492
 -1       302    8    0    1
 -2        75       232       231      1492      1493      1488
 -1       303    8    0    1
 -2        76        77       233      1196      1494      1495
 -1       304    8    0    1
 -2        76       233       232      1495      1496      1491
 -1       305    8    0    1
 -2        77        78       234      1197      1497      1498
 -1       306    8    0    1
 -2        77       234       233      1498      1499      1494
 -1       307    8    0    1
 -2        78        79       235      1198      1500      1501
 -1       308    8    0    1
 -2        78       235       234      1501      1502      1497
 -1       309    8    0    1
 -2        79        80       236      1199      1503      1504
 -1       310    8    0    1
 -2        79       236       235      1504      1505      1500
 -1       311    8    0    1
 -2        80        81       237      1200      1506      1507
 -1       312    8    0    1
 -2        80       237       236      1507      1508      1503
 -1       313    8    0    1
 -2        81        82       238      1201      1509      1510
 -1       314    8    0    1
 -2        81       238       237      1510      1511      1506
 -1       315    8    0    1
 -2        82        83       239      1202      1512      1513
 -1       316    8    0    1
 -2        82       239       238      1513      1514      1509
 -1       317    8    0    1
 -2        83        84       240      1203      1515      1516
 -1       318    8    0    1
 -2        83       240       239      1516      1517      1512
 -1       319    8    0    1
 -2        84        85       241      1204      1518      1519
 -1       320    8    0    1
 -2        84       241       240      1519      1520      1515
 -1       321    8    0    1
 -2        85        86       242      1205      1521      1522
 -1       322    8    0    1
 -2        85       242       241      1522      1523      1518
 -1       323    8    0    1
 -2        86        87       243      1206      1524      1525
 -1       324    8    0    1
 -2        86       243       242      1525      1526      1521
 -1       325    8    0    1
 -2        87        88       244      1207      1527      1528
 -1       326    8    0    1
 -2        87       244       243      1528      1529      1524
 -1       327    8    0    1
 -2        88        89       245      1208      1530      1531
 -1       328    8    0    1
 -2        88       245       244      1531      1532      1527
 -1       329    8    0    1
 -2        89        90       246      1209      1533      1534
 -1       330    8    0    1
 -2        89       246       245      1534      1535      1530
 -1       331    8    0    1
 -2        90        91       247      1210      1536      1537
 -1       332    8    0    1
 -2        90       247       246      1537      1538      1533
 -1       333    8    0    1
 -2        91        92       248      1211      1539      1540
 -1       334    8    0    1
 -2        91       248       247      1540      1541      1536
 -1       335    8    0    1
 -2        92        93       249      1212      1542      1543
 -1       336    8    0    1
 -2        92       249       248      1543      1544      1539
 -1       337    8    0    1
 -2        93        94       250      1213      1545      1546
 -1       338    8    0    1
 -2        93       250       249      1546      1547      1542
 -1       339    8    0    1
 -2        94        95       251      1214      1548      1549
 -1       340    8    0    1
 -2        94       251       250      1549      1550      1545
 -1       341    8    0    1
 -2        95        96       252      1215      1551      1552
 -1       342    8    0    1
 -2        95       252       251      1552      1553      1548
 -1       343    8    0    1
 -2        96        97       253      1216      1554      1555
 -1       344    8    0    1
 -2        96       253       252      1555      1556      1551
 -1       345    8    0    1
 -2        97        98       254      1217      1557      1558
 -1       346    8    0    1
 -2        97       254       253      1558      1559      1554
 -1       347    8    0    1
 -2        98        99       255      1218      1560      1561
 -1       348    8    0    1
 -2        98       255       254      1561      1562      1557
 -1       349    8    0    1
 -2        99       100       256      1219      1563      1564
 -1       350    8    0    1
 -2        99       256       255      1564      1565      1560
 -1       351    8    0    1
 -2       100       101       257      1220      1566      1567
 -1       352    8    0    1
 -2       100       257       256      1567      1568      1563
 -1       353    8    0    1
 -2       101       102       258      1221      1569      1570
 -1       354    8    0    1
 -2       101       258       257      1570      1571      1566
 -1       355    8    0    1
 -2       102       103       259      1222      1572      1573
 -1       356    8    0    1
 -2       102       259       258      1573      1574      1569
 -1       357    8    0    1
 -2       103       104       260      1223      1575      1576
 -1       358    8    0    1
 -2       103       260       259      1576      1577      1572
 -1       359    8    0    1
 -2       104       105       261      1224      1578      1579
 -1       360    8    0    1
 -2       104       261       260      1579      1580      1575
 -1       361    8    0    1
 -2       105       106       262      1225      1581      1582
 -1       362    8    0    1
 -2       105       262       261      1582      1583      1578
 -1       363    8    0    1
 -2       106       107       263      1226      1584      1585
 -1       364    8    0    1
 -2       106       263       262      1585      1586      1581
 -1       365    8    0    1
 -2       107       108       264      1227      1587      1588
 -1       366    8    0    1
 -2       107       264       263      1588      1589      1584
 -1       367    8    0    1
 -2       108       109       265      1228      1590      1591
 -1       368    8    0    1
 -2       108       265       264      1591      1592      1587
 -1       369    8    0    1
 -2       109       110       266      1229      1593      1594
 -1       370    8    0    1
 -2       109       266       265      1594      1595      1590
 -1       371    8    0    1
 -2       110       111       267      1230      1596      1597
 -1       372    8    0    1
 -2       110       267       266      1597      1598      1593
 -1       373    8    0    1
 -2       111       112       268      1231      1599      1600
 -1       374    8    0    1
 -2       111       268       267      1600      1601      1596
 -1       375    8    0    1
 -2       112       113       269      1232      1602      1603
 -1       376    8    0    1
 -2       112       269       268      1603      1604      1599
 -1       377    8    0    1
 -2       113       114       270      1233      1605      1606
 -1       378    8    0    1
 -2       113       270       269      1606      1607      1602
 -1       379    8    0    1
 -2       114       115       271      1234      1608      1609
 -1       380    8    0    1
 -2       114       271       270      1609      1610      1605
 -1       381    8    0    1
 -2       115       116       272      1235      1611      1612
 -1       382    8    0    1
 -2       115       272       271      1612      1613      1608
 -1       383    8    0    1
 -2       116       117       273      1236      1614      1615
 -1       384    8    0    1
 -2       116       273       272      1615      1616      1611
 -1       385    8    0    1
 -2       117       118       274      1237      1617      1618
 -1       386    8    0    1
 -2       117       274       273      1618      1619      1614
 -1       387    8    0    1
 -2       118       119       275      1238      1620      1621
 -1       388    8    0    1
 -2       118       275       274      1621      1622      1617
 -1       389    8    0    1
 -2       119       120       276      1239      1623      1624
 -1       390    8    0    1
 -2       119       276       275      1624      1625      1620
 -1       391    8    0    1
 -2       120         3       121      1240      1241      1626
 -1       392    8    0    1
 -2       121       122       277      1242      1627      1628
 -1       393    8    0    1
 -2       122       123       278      1243      1629      1630
 -1       394    8    0    1
 -2       122       278       277      1630      1631      1627
 -1       395    8    0    1
 -2       123       124       279      1244      1632      1633
 -1       396    8    0    1
 -2       123       279       278      1633      1634      1629
 -1       397    8    0    1
 -2       124       125       280      1245      1635      1636
 -1       398    8    0    1
 -2       124       280       279      1636      1637      1632
 -1       399    8    0    1
 -2       125       126       281      1246      1638      1639
 -1       400    8    0    1
 -2       125       281       280      1639      1640      1635
 -1       401    8    0    1
 -2       126       127       282      1247      1641      1642
 -1       402    8    0    1
 -2       126       282       281      1642      1643      1638
 -1       403    8    0    1
 -2       127       128       283      1248      1644      1645
 -1       404    8    0    1
 -2       127       283       282      1645      1646      1641
 -1       405    8    0    1
 -2       128       129       284      1249      1647      1648
 -1       406    8    0    1
 -2       128       284       283      1648      1649      1644
 -1       407    8    0    1
 -2       129       130       285      1250      1650      1651
 -1       408    8    0    1
 -2       129       285       284      1651      1652      1647
 -1       409    8    0    1
 -2       130       131       286      1251      1653      1654
 -1       410    8    0    1
 -2       130       286       285      1654      1655      1650
 -1       411    8    0    1
 -2       131       132       287      1252      1656      1657
 -1       412    8    0    1
 -2       131       287       286      1657      1658      1653
 -1       413    8    0    1
 -2       132       133       288      1253      1659      1660
 -1       414    8    0    1
 -2       132       288       287      1660      1661      1656
 -1       415    8    0    1
 -2       133       134       289      1254      1662      1663
 -1       416    8    0    1
 -2       133       289       288      1663      1664      1659
 -1       417    8    0    1
 -2       134       135       290      1255      1665      1666
 -1       418    8    0    1
 -2       134       290       289      1666      1667      1662
 -1       419    8    0    1
 -2       135       136       291      1256      1668      1669
 -1       420    8    0    1
 -2       290       135       291      1665      1669      1670
 -1       421    8    0    1
 -2       136       228       291      1481      1671      1668
 -1       422    8    0    1
 -2         2       137       292      1258      1672      1673
 -1       423    8    0    1
 -2       137       138       293      1259      1674      1675
 -1       424    8    0    1
 -2       138       139       294      1260      1676      1677
 -1       425    8    0    1
 -2       139       140       295      1261      1678      1679
 -1       426    8    0    1
 -2       140       141       296      1262      1680      1681
 -1       427    8    0    1
 -2       141       142       297      1263      1682      1683
 -1       428    8    0    1
 -2       142       143       298      1264      1684      1685
 -1       429    8    0    1
 -2       143       144       299      1265      1686      1687
 -1       430    8    0    1
 -2       144       145       300      1266      1688      1689
 -1       431    8    0    1
 -2       145       146       301      1267      1690      1691
 -1       432    8    0    1
 -2       146       147       302      1268      1692      1693
 -1       433    8    0    1
 -2       147       148       303      1269      1694      1695
 -1       434    8    0    1
 -2       148       149       304      1270      1696      1697
 -1       435    8    0    1
 -2       149       150       305      1271      1698      1699
 -1       436    8    0    1
 -2       150       151       306      1272      1700      1701
 -1       437    8    0    1
 -2       151       152       307      1273      1702      1703
 -1       438    8    0    1
 -2       152       153       308      1274      1704      1705
 -1       439    8    0    1
 -2       153       154       309      1275      1706      1707
 -1       440    8    0    1
 -2       154       155       310      1276      1708      1709
 -1       441    8    0    1
 -2       155       156       311      1277      1710      1711
 -1       442    8    0    1
 -2       156       157       312      1278      1712      1713
 -1       443    8    0    1
 -2       157         1       313      1279      1714      1715
 -1       444    8    0    1
 -2         1       158       314      1280      1716      1717
 -1       445    8    0    1
 -2       158       159       315      1281      1718      1719
 -1       446    8    0    1
 -2       159       160       316      1282      1720      1721
 -1       447    8    0    1
 -2       160       161       317      1283      1722      1723
 -1       448    8    0    1
 -2       161       162       318      1284      1724      1725
 -1       449    8    0    1
 -2       162       163       319      1285      1726      1727
 -1       450    8    0    1
 -2       163       164       320      1286      1728      1729
 -1       451    8    0    1
 -2       164         2       321      1287      1730      1731
 -1       452    8    0    1
 -2       295       140       296      1678      1681      1732
 -1       453    8    0    1
 -2       294       139       295      1676      1679      1733
 -1       454    8    0    1
 -2       120       121       276      1626      1734      1623
 -1       455    8    0    1
 -2       121       277       276      1628      1735      1734
 -1       456    8    0    1
 -2       292       137       293      1672      1675      1736
 -1       457    8    0    1
 -2       293       138       294      1674      1677      1737
 -1       458    8    0    1
 -2         2       292       321      1673      1738      1730
 -1       459    8    0    1
 -2       141       297       296      1683      1739      1680
 -1       460    8    0    1
 -2       142       298       297      1685      1740      1682
 -1       461    8    0    1
 -2       143       299       298      1687      1741      1684
 -1       462    8    0    1
 -2       144       300       299      1689      1742      1686
 -1       463    8    0    1
 -2       145       301       300      1691      1743      1688
 -1       464    8    0    1
 -2       146       302       301      1693      1744      1690
 -1       465    8    0    1
 -2       147       303       302      1695      1745      1692
 -1       466    8    0    1
 -2       148       304       303      1697      1746      1694
 -1       467    8    0    1
 -2       149       305       304      1699      1747      1696
 -1       468    8    0    1
 -2       150       306       305      1701      1748      1698
 -1       469    8    0    1
 -2       151       307       306      1703      1749      1700
 -1       470    8    0    1
 -2       152       308       307      1705      1750      1702
 -1       471    8    0    1
 -2       153       309       308      1707      1751      1704
 -1       472    8    0    1
 -2       154       310       309      1709      1752      1706
 -1       473    8    0    1
 -2       155       311       310      1711      1753      1708
 -1       474    8    0    1
 -2       156       312       311      1713      1754      1710
 -1       475    8    0    1
 -2       157       313       312      1715      1755      1712
 -1       476    8    0    1
 -2         1       314       313      1717      1756      1714
 -1       477    8    0    1
 -2       158       315       314      1719      1757      1716
 -1       478    8    0    1
 -2       159       316       315      1721      1758      1718
 -1       479    8    0    1
 -2       160       317       316      1723      1759      1720
 -1       480    8    0    1
 -2       161       318       317      1725      1760      1722
 -1       481    8    0    1
 -2       162       319       318      1727      1761      1724
 -1       482    8    0    1
 -2       163       320       319      1729      1762      1726
 -1       483    8    0    1
 -2       164       321       320      1731      1763      1728
 -1       484    8    0    1
 -2        23         7       165      1288      1290      1764
 -1       485    8    0    1
 -2       166       167       322      1296      1765      1766
 -1       486    8    0    1
 -2       165       166       323      1293      1767      1768
 -1       487    8    0    1
 -2       166       322       323      1766      1769      1767
 -1       488    8    0    1
 -2       168       169       324      1302      1770      1771
 -1       489    8    0    1
 -2       169       170       325      1305      1772      1773
 -1       490    8    0    1
 -2       169       325       324      1773      1774      1770
 -1       491    8    0    1
 -2       170       171       326      1308      1775      1776
 -1       492    8    0    1
 -2       170       326       325      1776      1777      1772
 -1       493    8    0    1
 -2       171       172       327      1311      1778      1779
 -1       494    8    0    1
 -2       171       327       326      1779      1780      1775
 -1       495    8    0    1
 -2       172       173       328      1314      1781      1782
 -1       496    8    0    1
 -2       172       328       327      1782      1783      1778
 -1       497    8    0    1
 -2       173       174       329      1317      1784      1785
 -1       498    8    0    1
 -2       173       329       328      1785      1786      1781
 -1       499    8    0    1
 -2       174       175       330      1320      1787      1788
 -1       500    8    0    1
 -2       174       330       329      1788      1789      1784
 -1       501    8    0    1
 -2       175       176       331      1323      1790      1791
 -1       502    8    0    1
 -2       175       331       330      1791      1792      1787
 -1       503    8    0    1
 -2       176       177       332      1326      1793      1794
 -1       504    8    0    1
 -2       176       332       331      1794      1795      1790
 -1       505    8    0    1
 -2       177       178       333      1329      1796      1797
 -1       506    8    0    1
 -2       177       333       332      1797      1798      1793
 -1       507    8    0    1
 -2       178       179       334      1332      1799      1800
 -1       508    8    0    1
 -2       178       334       333      1800      1801      1796
 -1       509    8    0    1
 -2       179       180       335      1335      1802      1803
 -1       510    8    0    1
 -2       334       179       335      1799      1803      1804
 -1       511    8    0    1
 -2       180       229       335      1484      1805      1802
 -1       512    8    0    1
 -2       181        23       165      1337      1764      1806
 -1       513    8    0    1
 -2       229       230       336      1487      1807      1808
 -1       514    8    0    1
 -2       229       336       335      1808      1809      1805
 -1       515    8    0    1
 -2       181       165       323      1806      1768      1810
 -1       516    8    0    1
 -2       183       182       337      1344      1811      1812
 -1       517    8    0    1
 -2       184       183       338      1347      1813      1814
 -1       518    8    0    1
 -2       183       337       338      1812      1815      1813
 -1       519    8    0    1
 -2       185       184       339      1350      1816      1817
 -1       520    8    0    1
 -2       184       338       339      1814      1818      1816
 -1       521    8    0    1
 -2       186       185       340      1353      1819      1820
 -1       522    8    0    1
 -2       185       339       340      1817      1821      1819
 -1       523    8    0    1
 -2       187       186       341      1356      1822      1823
 -1       524    8    0    1
 -2       186       340       341      1820      1824      1822
 -1       525    8    0    1
 -2       188       187       342      1359      1825      1826
 -1       526    8    0    1
 -2       187       341       342      1823      1827      1825
 -1       527    8    0    1
 -2       189       188       343      1362      1828      1829
 -1       528    8    0    1
 -2       188       342       343      1826      1830      1828
 -1       529    8    0    1
 -2       190       189       344      1365      1831      1832
 -1       530    8    0    1
 -2       189       343       344      1829      1833      1831
 -1       531    8    0    1
 -2       191       190       345      1368      1834      1835
 -1       532    8    0    1
 -2       190       344       345      1832      1836      1834
 -1       533    8    0    1
 -2       192       191       346      1371      1837      1838
 -1       534    8    0    1
 -2       191       345       346      1835      1839      1837
 -1       535    8    0    1
 -2       193       192       347      1374      1840      1841
 -1       536    8    0    1
 -2       192       346       347      1838      1842      1840
 -1       537    8    0    1
 -2       194       193       348      1377      1843      1844
 -1       538    8    0    1
 -2       193       347       348      1841      1845      1843
 -1       539    8    0    1
 -2       195       194       349      1380      1846      1847
 -1       540    8    0    1
 -2       194       348       349      1844      1848      1846
 -1       541    8    0    1
 -2       196       195       350      1383      1849      1850
 -1       542    8    0    1
 -2       195       349       350      1847      1851      1849
 -1       543    8    0    1
 -2       197       196       351      1386      1852      1853
 -1       544    8    0    1
 -2       196       350       351      1850      1854      1852
 -1       545    8    0    1
 -2       198       197       352      1389      1855      1856
 -1       546    8    0    1
 -2       197       351       352      1853      1857      1855
 -1       547    8    0    1
 -2       199       198       353      1392      1858      1859
 -1       548    8    0    1
 -2       198       352       353      1856      1860      1858
 -1       549    8    0    1
 -2       200       199       354      1395      1861      1862
 -1       550    8    0    1
 -2       199       353       354      1859      1863      1861
 -1       551    8    0    1
 -2       201       200       355      1398      1864      1865
 -1       552    8    0    1
 -2       200       354       355      1862      1866      1864
 -1       553    8    0    1
 -2       202       201       356      1401      1867      1868
 -1       554    8    0    1
 -2       201       355       356      1865      1869      1867
 -1       555    8    0    1
 -2       203       202       357      1404      1870      1871
 -1       556    8    0    1
 -2       202       356       357      1868      1872      1870
 -1       557    8    0    1
 -2       204       203       358      1407      1873      1874
 -1       558    8    0    1
 -2       203       357       358      1871      1875      1873
 -1       559    8    0    1
 -2       205       204       359      1410      1876      1877
 -1       560    8    0    1
 -2       204       358       359      1874      1878      1876
 -1       561    8    0    1
 -2       206       205       360      1413      1879      1880
 -1       562    8    0    1
 -2       205       359       360      1877      1881      1879
 -1       563    8    0    1
 -2       207       206       361      1416      1882      1883
 -1       564    8    0    1
 -2       206       360       361      1880      1884      1882
 -1       565    8    0    1
 -2       208       207       362      1419      1885      1886
 -1       566    8    0    1
 -2       207       361       362      1883      1887      1885
 -1       567    8    0    1
 -2       209       208       363      1422      1888      1889
 -1       568    8    0    1
 -2       208       362       363      1886      1890      1888
 -1       569    8    0    1
 -2       210       209       364      1425      1891      1892
 -1       570    8    0    1
 -2       209       363       364      1889      1893      1891
 -1       571    8    0    1
 -2       211       210       365      1428      1894      1895
 -1       572    8    0    1
 -2       210       364       365      1892      1896      1894
 -1       573    8    0    1
 -2       212       211       366      1431      1897      1898
 -1       574    8    0    1
 -2       211       365       366      1895      1899      1897
 -1       575    8    0    1
 -2       213       212       367      1434      1900      1901
 -1       576    8    0    1
 -2       212       366       367      1898      1902      1900
 -1       577    8    0    1
 -2       214       213       368      1437      1903      1904
 -1       578    8    0    1
 -2       213       367       368      1901      1905      1903
 -1       579    8    0    1
 -2       215       214       369      1440      1906      1907
 -1       580    8    0    1
 -2       214       368       369      1904      1908      1906
 -1       581    8    0    1
 -2       216       215       370      1443      1909      1910
 -1       582    8    0    1
 -2       215       369       370      1907      1911      1909
 -1       583    8    0    1
 -2       217       216       371      1446      1912      1913
 -1       584    8    0    1
 -2       216       370       371      1910      1914      1912
 -1       585    8    0    1
 -2       218       217       372      1449      1915      1916
 -1       586    8    0    1
 -2       217       371       372      1913      1917      1915
 -1       587    8    0    1
 -2       219       218       373      1452      1918      1919
 -1       588    8    0    1
 -2       218       372       373      1916      1920      1918
 -1       589    8    0    1
 -2       220       219       374      1455      1921      1922
 -1       590    8    0    1
 -2       219       373       374      1919      1923      1921
 -1       591    8    0    1
 -2       221       220       375      1458      1924      1925
 -1       592    8    0    1
 -2       220       374       375      1922      1926      1924
 -1       593    8    0    1
 -2       222       221       376      1461      1927      1928
 -1       594    8    0    1
 -2       221       375       376      1925      1929      1927
 -1       595    8    0    1
 -2       223       222       377      1464      1930      1931
 -1       596    8    0    1
 -2       222       376       377      1928      1932      1930
 -1       597    8    0    1
 -2       224       223       378      1467      1933      1934
 -1       598    8    0    1
 -2       223       377       378      1931      1935      1933
 -1       599    8    0    1
 -2       225       224       379      1470      1936      1937
 -1       600    8    0    1
 -2       224       378       379      1934      1938      1936
 -1       601    8    0    1
 -2       226       225       380      1473      1939      1940
 -1       602    8    0    1
 -2       225       379       380      1937      1941      1939
 -1       603    8    0    1
 -2       227       226       381      1476      1942      1943
 -1       604    8    0    1
 -2       226       380       381      1940      1944      1942
 -1       605    8    0    1
 -2       228       227       382      1479      1945      1946
 -1       606    8    0    1
 -2       291       228       382      1671      1946      1947
 -1       607    8    0    1
 -2       227       381       382      1943      1948      1945
 -1       608    8    0    1
 -2       230       231       383      1490      1949      1950
 -1       609    8    0    1
 -2       230       383       336      1950      1951      1807
 -1       610    8    0    1
 -2       231       232       384      1493      1952      1953
 -1       611    8    0    1
 -2       231       384       383      1953      1954      1949
 -1       612    8    0    1
 -2       232       233       385      1496      1955      1956
 -1       613    8    0    1
 -2       232       385       384      1956      1957      1952
 -1       614    8    0    1
 -2       233       234       386      1499      1958      1959
 -1       615    8    0    1
 -2       233       386       385      1959      1960      1955
 -1       616    8    0    1
 -2       234       235       387      1502      1961      1962
 -1       617    8    0    1
 -2       234       387       386      1962      1963      1958
 -1       618    8    0    1
 -2       235       236       388      1505      1964      1965
 -1       619    8    0    1
 -2       235       388       387      1965      1966      1961
 -1       620    8    0    1
 -2       236       237       389      1508      1967      1968
 -1       621    8    0    1
 -2       236       389       388      1968      1969      1964
 -1       622    8    0    1
 -2       237       238       390      1511      1970      1971
 -1       623    8    0    1
 -2       237       390       389      1971      1972      1967
 -1       624    8    0    1
 -2       238       239       391      1514      1973      1974
 -1       625    8    0    1
 -2       238       391       390      1974      1975      1970
 -1       626    8    0    1
 -2       239       240       392      1517      1976      1977
 -1       627    8    0    1
 -2       239       392       391      1977      1978      1973
 -1       628    8    0    1
 -2       240       241       393      1520      1979      1980
 -1       629    8    0    1
 -2       240       393       392      1980      1981      1976
 -1       630    8    0    1
 -2       241       242       394      1523      1982      1983
 -1       631    8    0    1
 -2       241       394       393      1983      1984      1979
 -1       632    8    0    1
 -2       242       243       395      1526      1985      1986
 -1       633    8    0    1
 -2       242       395       394      1986      1987      1982
 -1       634    8    0    1
 -2       243       244       396      1529      1988      1989
 -1       635    8    0    1
 -2       243       396       395      1989      1990      1985
 -1       636    8    0    1
 -2       244       245       397      1532      1991      1992
 -1       637    8    0    1
 -2       244       397       396      1992      1993      1988
 -1       638    8    0    1
 -2       245       246       398      1535      1994      1995
 -1       639    8    0    1
 -2       245       398       397      1995      1996      1991
 -1       640    8    0    1
 -2       246       247       399      1538      1997      1998
 -1       641    8    0    1
 -2       246       399       398      1998      1999      1994
 -1       642    8    0    1
 -2       247       248       400      1541      2000      2001
 -1       643    8    0    1
 -2       247       400       399      2001      2002      1997
 -1       644    8    0    1
 -2       248       249       401      1544      2003      2004
 -1       645    8    0    1
 -2       248       401       400      2004      2005      2000
 -1       646    8    0    1
 -2       249       250       402      1547      2006      2007
 -1       647    8    0    1
 -2       249       402       401      2007      2008      2003
 -1       648    8    0    1
 -2       250       251       403      1550      2009      2010
 -1       649    8    0    1
 -2       250       403       402      2010      2011      2006
 -1       650    8    0    1
 -2       251       252       404      1553      2012      2013
 -1       651    8    0    1
 -2       251       404       403      2013      2014      2009
 -1       652    8    0    1
 -2       252       253       405      1556      2015      2016
 -1       653    8    0    1
 -2       252       405       404      2016      2017      2012
 -1       654    8    0    1
 -2       253       254       406      1559      2018      2019
 -1       655    8    0    1
 -2       253       406       405      2019      2020      2015
 -1       656    8    0    1
 -2       254       255       407      1562      2021      2022
 -1       657    8    0    1
 -2       254       407       406      2022      2023      2018
 -1       658    8    0    1
 -2       255       256       408      1565      2024      2025
 -1       659    8    0    1
 -2       255       408       407      2025      2026      2021
 -1       660    8    0    1
 -2       256       257       409      1568      2027      2028
 -1       661    8    0    1
 -2       256       409       408      2028      2029      2024
 -1       662    8    0    1
 -2       257       258       410      1571      2030      2031
 -1       663    8    0    1
 -2       257       410       409      2031      2032      2027
 -1       664    8    0    1
 -2       258       259       411      1574      2033      2034
 -1       665    8    0    1
 -2       258       411       410      2034      2035      2030
 -1       666    8    0    1
 -2       259       260       412      1577      2036      2037
 -1       667    8    0    1
 -2       259       412       411      2037      2038      2033
 -1       668    8    0    1
 -2       260       261       413      1580      2039      2040
 -1       669    8    0    1
 -2       260       413       412      2040      2041      2036
 -1       670    8    0    1
 -2       261       262       414      1583      2042      2043
 -1       671    8    0    1
 -2       261       414       413      2043      2044      2039
 -1       672    8    0    1
 -2       262       263       415      1586      2045      2046
 -1       673    8    0    1
 -2       262       415       414      2046      2047      2042
 -1       674    8    0    1
 -2       263       264       416      1589      2048      2049
 -1       675    8    0    1
 -2       263       416       415      2049      2050      2045
 -1       676    8    0    1
 -2       264       265       417      1592      2051      2052
 -1       677    8    0    1
 -2       264       417       416      2052      2053      2048
 -1       678    8    0    1
 -2       265       266       418      1595      2054      2055
 -1       679    8    0    1
 -2       265       418       417      2055      2056      2051
 -1       680    8    0    1
 -2       266       267       419      1598      2057      2058
 -1       681    8    0    1
 -2       266       419       418      2058      2059      2054
 -1       682    8    0    1
 -2       267       268       420      1601      2060      2061
 -1       683    8    0    1
 -2       267       420       419      2061      2062      2057
 -1       684    8    0    1
 -2       268       269       421      1604      2063      2064
 -1       685    8    0    1
 -2       268       421       420      2064      2065      2060
 -1       686    8    0    1
 -2       269       270       422      1607      2066      2067
 -1       687    8    0    1
 -2       269       422       421      2067      2068      2063
 -1       688    8    0    1
 -2       270       271       423      1610      2069      2070
 -1       689    8    0    1
 -2       270       423       422      2070      2071      2066
 -1       690    8    0    1
 -2       271       272       424      1613      2072      2073
 -1       691    8    0    1
 -2       271       424       423      2073      2074      2069
 -1       692    8    0    1
 -2       272       273       425      1616      2075      2076
 -1       693    8    0    1
 -2       272       425       424      2076      2077      2072
 -1       694    8    0    1
 -2       273       274       426      1619      2078      2079
 -1       695    8    0    1
 -2       273       426       425      2079      2080      2075
 -1       696    8    0    1
 -2       274       275       427      1622      2081      2082
 -1       697    8    0    1
 -2       274       427       426      2082      2083      2078
 -1       698    8    0    1
 -2       275       276       428      1625      2084      2085
 -1       699    8    0    1
 -2       427       275       428      2081      2085      2086
 -1       700    8    0    1
 -2       276       277       428      1735      2087      2084
 -1       701    8    0    1
 -2       279       280       429      1637      2088      2089
 -1       702    8    0    1
 -2       278       279       430      1634      2090      2091
 -1       703    8    0    1
 -2       279       429       430      2089      2092      2090
 -1       704    8    0    1
 -2       277       278       431      1631      2093      2094
 -1       705    8    0    1
 -2       428       277       431      2087      2094      2095
 -1       706    8    0    1
 -2       278       430       431      2091      2096      2093
 -1       707    8    0    1
 -2       280       281       432      1640      2097      2098
 -1       708    8    0    1
 -2       280       432       429      2098      2099      2088
 -1       709    8    0    1
 -2       281       282       433      1643      2100      2101
 -1       710    8    0    1
 -2       281       433       432      2101      2102      2097
 -1       711    8    0    1
 -2       282       283       434      1646      2103      2104
 -1       712    8    0    1
 -2       282       434       433      2104      2105      2100
 -1       713    8    0    1
 -2       283       284       435      1649      2106      2107
 -1       714    8    0    1
 -2       283       435       434      2107      2108      2103
 -1       715    8    0    1
 -2       284       285       436      1652      2109      2110
 -1       716    8    0    1
 -2       284       436       435      2110      2111      2106
 -1       717    8    0    1
 -2       285       286       437      1655      2112      2113
 -1       718    8    0    1
 -2       285       437       436      2113      2114      2109
 -1       719    8    0    1
 -2       286       287       438      1658      2115      2116
 -1       720    8    0    1
 -2       286       438       437      2116      2117      2112
 -1       721    8    0    1
 -2       287       288       439      1661      2118      2119
 -1       722    8    0    1
 -2       287       439       438      2119      2120      2115
 -1       723    8    0    1
 -2       288       289       440      1664      2121      2122
 -1       724    8    0    1
 -2       288       440       439      2122      2123      2118
 -1       725    8    0    1
 -2       289       290       441      1667      2124      2125
 -1       726    8    0    1
 -2       289       441       440      2125      2126      2121
 -1       727    8    0    1
 -2       293       294       442      1737      2127      2128
 -1       728    8    0    1
 -2       321       292       443      1738      2129      2130
 -1       729    8    0    1
 -2       292       293       444      1736      2131      2132
 -1       730    8    0    1
 -2       294       295       445      1733      2133      2134
 -1       731    8    0    1
 -2       295       296       446      1732      2135      2136
 -1       732    8    0    1
 -2       167       168       447      1299      2137      2138
 -1       733    8    0    1
 -2       322       167       447      1765      2138      2139
 -1       734    8    0    1
 -2       168       324       447      1771      2140      2137
 -1       735    8    0    1
 -2       297       298       448      1740      2141      2142
 -1       736    8    0    1
 -2       298       299       449      1741      2143      2144
 -1       737    8    0    1
 -2       299       300       450      1742      2145      2146
 -1       738    8    0    1
 -2       300       301       451      1743      2147      2148
 -1       739    8    0    1
 -2       301       302       452      1744      2149      2150
 -1       740    8    0    1
 -2       302       303       453      1745      2151      2152
 -1       741    8    0    1
 -2       303       304       454      1746      2153      2154
 -1       742    8    0    1
 -2       304       305       455      1747      2155      2156
 -1       743    8    0    1
 -2       305       306       456      1748      2157      2158
 -1       744    8    0    1
 -2       305       456       455      2158      2159      2155
 -1       745    8    0    1
 -2       306       307       457      1749      2160      2161
 -1       746    8    0    1
 -2       307       308       458      1750      2162      2163
 -1       747    8    0    1
 -2       308       309       459      1751      2164      2165
 -1       748    8    0    1
 -2       309       310       460      1752      2166      2167
 -1       749    8    0    1
 -2       310       311       461      1753      2168      2169
 -1       750    8    0    1
 -2       310       461       460      2169      2170      2166
 -1       751    8    0    1
 -2       311       312       462      1754      2171      2172
 -1       752    8    0    1
 -2       312       313       463      1755      2173      2174
 -1       753    8    0    1
 -2       312       463       462      2174      2175      2171
 -1       754    8    0    1
 -2       313       314       464      1756      2176      2177
 -1       755    8    0    1
 -2       314       315       465      1757      2178      2179
 -1       756    8    0    1
 -2       314       465       464      2179      2180      2176
 -1       757    8    0    1
 -2       315       316       466      1758      2181      2182
 -1       758    8    0    1
 -2       316       317       467      1759      2183      2184
 -1       759    8    0    1
 -2       316       467       466      2184      2185      2181
 -1       760    8    0    1
 -2       317       318       468      1760      2186      2187
 -1       761    8    0    1
 -2       318       319       469      1761      2188      2189
 -1       762    8    0    1
 -2       319       320       470      1762      2190      2191
 -1       763    8    0    1
 -2       320       321       471      1763      2192      2193
 -1       764    8    0    1
 -2       321       443       471      2130      2194      2192
 -1       765    8    0    1
 -2       296       297       472      1739      2195      2196
 -1       766    8    0    1
 -2       297       448       472      2142      2197      2195
 -1       767    8    0    1
 -2       445       295       446      2133      2136      2198
 -1       768    8    0    1
 -2       181       323       182      1810      2199      1341
 -1       769    8    0    1
 -2       446       296       473      2135      2200      2201
 -1       770    8    0    1
 -2       296       472       473      2196      2202      2200
 -1       771    8    0    1
 -2       337       182       323      1811      2199      2203
 -1       772    8    0    1
 -2       444       293       442      2131      2128      2204
 -1       773    8    0    1
 -2       443       292       444      2129      2132      2205
 -1       774    8    0    1
 -2       441       290       291      2124      1670      2206
 -1       775    8    0    1
 -2       442       294       445      2127      2134      2207
 -1       776    8    0    1
 -2       470       320       471      2190      2193      2208
 -1       777    8    0    1
 -2       469       319       470      2188      2191      2209
 -1       778    8    0    1
 -2       467       317       468      2183      2187      2210
 -1       779    8    0    1
 -2       465       315       466      2178      2182      2211
 -1       780    8    0    1
 -2       463       313       464      2173      2177      2212
 -1       781    8    0    1
 -2       461       311       474      2168      2213      2214
 -1       782    8    0    1
 -2       311       462       474      2172      2215      2213
 -1       783    8    0    1
 -2       459       309       475      2164      2216      2217
 -1       784    8    0    1
 -2       309       460       475      2167      2218      2216
 -1       785    8    0    1
 -2       458       308       459      2162      2165      2219
 -1       786    8    0    1
 -2       456       306       457      2157      2161      2220
 -1       787    8    0    1
 -2       454       304       455      2153      2156      2221
 -1       788    8    0    1
 -2       453       303       454      2151      2154      2222
 -1       789    8    0    1
 -2       452       302       453      2149      2152      2223
 -1       790    8    0    1
 -2       451       301       452      2147      2150      2224
 -1       791    8    0    1
 -2       450       300       451      2145      2148      2225
 -1       792    8    0    1
 -2       448       298       449      2141      2144      2226
 -1       793    8    0    1
 -2       449       299       450      2143      2146      2227
 -1       794    8    0    1
 -2       457       307       458      2160      2163      2228
 -1       795    8    0    1
 -2       468       318       469      2186      2189      2229
 -1       796    8    0    1
 -2       336       383       476      1951      2230      2231
 -1       797    8    0    1
 -2       325       326       477      1777      2232      2233
 -1       798    8    0    1
 -2       324       325       478      1774      2234      2235
 -1       799    8    0    1
 -2       325       477       478      2233      2236      2234
 -1       800    8    0    1
 -2       327       328       479      1783      2237      2238
 -1       801    8    0    1
 -2       328       329       480      1786      2239      2240
 -1       802    8    0    1
 -2       328       480       479      2240      2241      2237
 -1       803    8    0    1
 -2       329       330       481      1789      2242      2243
 -1       804    8    0    1
 -2       329       481       480      2243      2244      2239
 -1       805    8    0    1
 -2       330       331       482      1792      2245      2246
 -1       806    8    0    1
 -2       330       482       481      2246      2247      2242
 -1       807    8    0    1
 -2       331       332       483      1795      2248      2249
 -1       808    8    0    1
 -2       331       483       482      2249      2250      2245
 -1       809    8    0    1
 -2       332       333       484      1798      2251      2252
 -1       810    8    0    1
 -2       332       484       483      2252      2253      2248
 -1       811    8    0    1
 -2       383       384       485      1954      2254      2255
 -1       812    8    0    1
 -2       383       485       476      2255      2256      2230
 -1       813    8    0    1
 -2       338       337       486      1815      2257      2258
 -1       814    8    0    1
 -2       445       446       487      2198      2259      2260
 -1       815    8    0    1
 -2       339       338       488      1818      2261      2262
 -1       816    8    0    1
 -2       338       486       488      2258      2263      2261
 -1       817    8    0    1
 -2       340       339       489      1821      2264      2265
 -1       818    8    0    1
 -2       339       488       489      2262      2266      2264
 -1       819    8    0    1
 -2       341       340       490      1824      2267      2268
 -1       820    8    0    1
 -2       340       489       490      2265      2269      2267
 -1       821    8    0    1
 -2       342       341       491      1827      2270      2271
 -1       822    8    0    1
 -2       341       490       491      2268      2272      2270
 -1       823    8    0    1
 -2       343       342       492      1830      2273      2274
 -1       824    8    0    1
 -2       342       491       492      2271      2275      2273
 -1       825    8    0    1
 -2       344       343       493      1833      2276      2277
 -1       826    8    0    1
 -2       343       492       493      2274      2278      2276
 -1       827    8    0    1
 -2       345       344       494      1836      2279      2280
 -1       828    8    0    1
 -2       344       493       494      2277      2281      2279
 -1       829    8    0    1
 -2       346       345       495      1839      2282      2283
 -1       830    8    0    1
 -2       345       494       495      2280      2284      2282
 -1       831    8    0    1
 -2       347       346       496      1842      2285      2286
 -1       832    8    0    1
 -2       346       495       496      2283      2287      2285
 -1       833    8    0    1
 -2       348       347       497      1845      2288      2289
 -1       834    8    0    1
 -2       347       496       497      2286      2290      2288
 -1       835    8    0    1
 -2       349       348       498      1848      2291      2292
 -1       836    8    0    1
 -2       348       497       498      2289      2293      2291
 -1       837    8    0    1
 -2       350       349       499      1851      2294      2295
 -1       838    8    0    1
 -2       349       498       499      2292      2296      2294
 -1       839    8    0    1
 -2       351       350       500      1854      2297      2298
 -1       840    8    0    1
 -2       350       499       500      2295      2299      2297
 -1       841    8    0    1
 -2       352       351       501      1857      2300      2301
 -1       842    8    0    1
 -2       351       500       501      2298      2302      2300
 -1       843    8    0    1
 -2       353       352       502      1860      2303      2304
 -1       844    8    0    1
 -2       352       501       502      2301      2305      2303
 -1       845    8    0    1
 -2       354       353       503      1863      2306      2307
 -1       846    8    0    1
 -2       353       502       503      2304      2308      2306
 -1       847    8    0    1
 -2       355       354       504      1866      2309      2310
 -1       848    8    0    1
 -2       354       503       504      2307      2311      2309
 -1       849    8    0    1
 -2       356       355       505      1869      2312      2313
 -1       850    8    0    1
 -2       355       504       505      2310      2314      2312
 -1       851    8    0    1
 -2       357       356       506      1872      2315      2316
 -1       852    8    0    1
 -2       356       505       506      2313      2317      2315
 -1       853    8    0    1
 -2       358       357       507      1875      2318      2319
 -1       854    8    0    1
 -2       357       506       507      2316      2320      2318
 -1       855    8    0    1
 -2       359       358       508      1878      2321      2322
 -1       856    8    0    1
 -2       358       507       508      2319      2323      2321
 -1       857    8    0    1
 -2       360       359       509      1881      2324      2325
 -1       858    8    0    1
 -2       359       508       509      2322      2326      2324
 -1       859    8    0    1
 -2       361       360       510      1884      2327      2328
 -1       860    8    0    1
 -2       360       509       510      2325      2329      2327
 -1       861    8    0    1
 -2       362       361       511      1887      2330      2331
 -1       862    8    0    1
 -2       361       510       511      2328      2332      2330
 -1       863    8    0    1
 -2       363       362       512      1890      2333      2334
 -1       864    8    0    1
 -2       362       511       512      2331      2335      2333
 -1       865    8    0    1
 -2       364       363       513      1893      2336      2337
 -1       866    8    0    1
 -2       363       512       513      2334      2338      2336
 -1       867    8    0    1
 -2       365       364       514      1896      2339      2340
 -1       868    8    0    1
 -2       364       513       514      2337      2341      2339
 -1       869    8    0    1
 -2       366       365       515      1899      2342      2343
 -1       870    8    0    1
 -2       365       514       515      2340      2344      2342
 -1       871    8    0    1
 -2       367       366       516      1902      2345      2346
 -1       872    8    0    1
 -2       366       515       516      2343      2347      2345
 -1       873    8    0    1
 -2       368       367       517      1905      2348      2349
 -1       874    8    0    1
 -2       367       516       517      2346      2350      2348
 -1       875    8    0    1
 -2       369       368       518      1908      2351      2352
 -1       876    8    0    1
 -2       368       517       518      2349      2353      2351
 -1       877    8    0    1
 -2       370       369       519      1911      2354      2355
 -1       878    8    0    1
 -2       369       518       519      2352      2356      2354
 -1       879    8    0    1
 -2       371       370       520      1914      2357      2358
 -1       880    8    0    1
 -2       370       519       520      2355      2359      2357
 -1       881    8    0    1
 -2       372       371       521      1917      2360      2361
 -1       882    8    0    1
 -2       371       520       521      2358      2362      2360
 -1       883    8    0    1
 -2       373       372       522      1920      2363      2364
 -1       884    8    0    1
 -2       372       521       522      2361      2365      2363
 -1       885    8    0    1
 -2       374       373       523      1923      2366      2367
 -1       886    8    0    1
 -2       373       522       523      2364      2368      2366
 -1       887    8    0    1
 -2       375       374       524      1926      2369      2370
 -1       888    8    0    1
 -2       374       523       524      2367      2371      2369
 -1       889    8    0    1
 -2       376       375       525      1929      2372      2373
 -1       890    8    0    1
 -2       375       524       525      2370      2374      2372
 -1       891    8    0    1
 -2       377       376       526      1932      2375      2376
 -1       892    8    0    1
 -2       376       525       526      2373      2377      2375
 -1       893    8    0    1
 -2       378       377       527      1935      2378      2379
 -1       894    8    0    1
 -2       377       526       527      2376      2380      2378
 -1       895    8    0    1
 -2       379       378       528      1938      2381      2382
 -1       896    8    0    1
 -2       378       527       528      2379      2383      2381
 -1       897    8    0    1
 -2       380       379       529      1941      2384      2385
 -1       898    8    0    1
 -2       379       528       529      2382      2386      2384
 -1       899    8    0    1
 -2       381       380       530      1944      2387      2388
 -1       900    8    0    1
 -2       380       529       530      2385      2389      2387
 -1       901    8    0    1
 -2       385       386       531      1960      2390      2391
 -1       902    8    0    1
 -2       386       387       532      1963      2392      2393
 -1       903    8    0    1
 -2       386       532       531      2393      2394      2390
 -1       904    8    0    1
 -2       387       388       533      1966      2395      2396
 -1       905    8    0    1
 -2       387       533       532      2396      2397      2392
 -1       906    8    0    1
 -2       388       389       534      1969      2398      2399
 -1       907    8    0    1
 -2       388       534       533      2399      2400      2395
 -1       908    8    0    1
 -2       389       390       535      1972      2401      2402
 -1       909    8    0    1
 -2       389       535       534      2402      2403      2398
 -1       910    8    0    1
 -2       390       391       536      1975      2404      2405
 -1       911    8    0    1
 -2       390       536       535      2405      2406      2401
 -1       912    8    0    1
 -2       391       392       537      1978      2407      2408
 -1       913    8    0    1
 -2       391       537       536      2408      2409      2404
 -1       914    8    0    1
 -2       392       393       538      1981      2410      2411
 -1       915    8    0    1
 -2       392       538       537      2411      2412      2407
 -1       916    8    0    1
 -2       393       394       539      1984      2413      2414
 -1       917    8    0    1
 -2       393       539       538      2414      2415      2410
 -1       918    8    0    1
 -2       394       395       540      1987      2416      2417
 -1       919    8    0    1
 -2       394       540       539      2417      2418      2413
 -1       920    8    0    1
 -2       395       396       541      1990      2419      2420
 -1       921    8    0    1
 -2       395       541       540      2420      2421      2416
 -1       922    8    0    1
 -2       396       397       542      1993      2422      2423
 -1       923    8    0    1
 -2       396       542       541      2423      2424      2419
 -1       924    8    0    1
 -2       397       398       543      1996      2425      2426
 -1       925    8    0    1
 -2       397       543       542      2426      2427      2422
 -1       926    8    0    1
 -2       398       399       544      1999      2428      2429
 -1       927    8    0    1
 -2       398       544       543      2429      2430      2425
 -1       928    8    0    1
 -2       399       400       545      2002      2431      2432
 -1       929    8    0    1
 -2       399       545       544      2432      2433      2428
 -1       930    8    0    1
 -2       400       401       546      2005      2434      2435
 -1       931    8    0    1
 -2       400       546       545      2435      2436      2431
 -1       932    8    0    1
 -2       401       402       547      2008      2437      2438
 -1       933    8    0    1
 -2       401       547       546      2438      2439      2434
 -1       934    8    0    1
 -2       402       403       548      2011      2440      2441
 -1       935    8    0    1
 -2       402       548       547      2441      2442      2437
 -1       936    8    0    1
 -2       403       404       549      2014      2443      2444
 -1       937    8    0    1
 -2       403       549       548      2444      2445      2440
 -1       938    8    0    1
 -2       404       405       550      2017      2446      2447
 -1       939    8    0    1
 -2       404       550       549      2447      2448      2443
 -1       940    8    0    1
 -2       405       406       551      2020      2449      2450
 -1       941    8    0    1
 -2       405       551       550      2450      2451      2446
 -1       942    8    0    1
 -2       406       407       552      2023      2452      2453
 -1       943    8    0    1
 -2       406       552       551      2453      2454      2449
 -1       944    8    0    1
 -2       407       408       553      2026      2455      2456
 -1       945    8    0    1
 -2       407       553       552      2456      2457      2452
 -1       946    8    0    1
 -2       408       409       554      2029      2458      2459
 -1       947    8    0    1
 -2       408       554       553      2459      2460      2455
 -1       948    8    0    1
 -2       409       410       555      2032      2461      2462
 -1       949    8    0    1
 -2       409       555       554      2462      2463      2458
 -1       950    8    0    1
 -2       410       411       556      2035      2464      2465
 -1       951    8    0    1
 -2       410       556       555      2465      2466      2461
 -1       952    8    0    1
 -2       411       412       557      2038      2467      2468
 -1       953    8    0    1
 -2       411       557       556      2468      2469      2464
 -1       954    8    0    1
 -2       412       413       558      2041      2470      2471
 -1       955    8    0    1
 -2       412       558       557      2471      2472      2467
 -1       956    8    0    1
 -2       413       414       559      2044      2473      2474
 -1       957    8    0    1
 -2       413       559       558      2474      2475      2470
 -1       958    8    0    1
 -2       414       415       560      2047      2476      2477
 -1       959    8    0    1
 -2       414       560       559      2477      2478      2473
 -1       960    8    0    1
 -2       415       416       561      2050      2479      2480
 -1       961    8    0    1
 -2       415       561       560      2480      2481      2476
 -1       962    8    0    1
 -2       416       417       562      2053      2482      2483
 -1       963    8    0    1
 -2       416       562       561      2483      2484      2479
 -1       964    8    0    1
 -2       417       418       563      2056      2485      2486
 -1       965    8    0    1
 -2       417       563       562      2486      2487      2482
 -1       966    8    0    1
 -2       418       419       564      2059      2488      2489
 -1       967    8    0    1
 -2       418       564       563      2489      2490      2485
 -1       968    8    0    1
 -2       419       420       565      2062      2491      2492
 -1       969    8    0    1
 -2       419       565       564      2492      2493      2488
 -1       970    8    0    1
 -2       420       421       566      2065      2494      2495
 -1       971    8    0    1
 -2       420       566       565      2495      2496      2491
 -1       972    8    0    1
 -2       421       422       567      2068      2497      2498
 -1       973    8    0    1
 -2       421       567       566      2498      2499      2494
 -1       974    8    0    1
 -2       422       423       568      2071      2500      2501
 -1       975    8    0    1
 -2       422       568       567      2501      2502      2497
 -1       976    8    0    1
 -2       423       424       569      2074      2503      2504
 -1       977    8    0    1
 -2       423       569       568      2504      2505      2500
 -1       978    8    0    1
 -2       424       425       570      2077      2506      2507
 -1       979    8    0    1
 -2       424       570       569      2507      2508      2503
 -1       980    8    0    1
 -2       425       426       571      2080      2509      2510
 -1       981    8    0    1
 -2       425       571       570      2510      2511      2506
 -1       982    8    0    1
 -2       426       427       572      2083      2512      2513
 -1       983    8    0    1
 -2       426       572       571      2513      2514      2509
 -1       984    8    0    1
 -2       427       428       431      2086      2095      2515
 -1       985    8    0    1
 -2       432       433       573      2102      2516      2517
 -1       986    8    0    1
 -2       433       434       574      2105      2518      2519
 -1       987    8    0    1
 -2       433       574       573      2519      2520      2516
 -1       988    8    0    1
 -2       430       429       575      2092      2521      2522
 -1       989    8    0    1
 -2       429       432       576      2099      2523      2524
 -1       990    8    0    1
 -2       575       429       576      2521      2524      2525
 -1       991    8    0    1
 -2       432       573       576      2517      2526      2523
 -1       992    8    0    1
 -2       434       435       577      2108      2527      2528
 -1       993    8    0    1
 -2       434       577       574      2528      2529      2518
 -1       994    8    0    1
 -2       435       436       578      2111      2530      2531
 -1       995    8    0    1
 -2       435       578       577      2531      2532      2527
 -1       996    8    0    1
 -2       436       437       579      2114      2533      2534
 -1       997    8    0    1
 -2       436       579       578      2534      2535      2530
 -1       998    8    0    1
 -2       437       438       580      2117      2536      2537
 -1       999    8    0    1
 -2       437       580       579      2537      2538      2533
 -1      1000    8    0    1
 -2       438       439       581      2120      2539      2540
 -1      1001    8    0    1
 -2       438       581       580      2540      2541      2536
 -1      1002    8    0    1
 -2       439       440       582      2123      2542      2543
 -1      1003    8    0    1
 -2       439       582       581      2543      2544      2539
 -1      1004    8    0    1
 -2       440       441       583      2126      2545      2546
 -1      1005    8    0    1
 -2       440       583       582      2546      2547      2542
 -1      1006    8    0    1
 -2       443       444       584      2205      2548      2549
 -1      1007    8    0    1
 -2       442       445       585      2207      2550      2551
 -1      1008    8    0    1
 -2       445       487       585      2260      2552      2550
 -1      1009    8    0    1
 -2       384       385       586      1957      2553      2554
 -1      1010    8    0    1
 -2       385       531       586      2391      2555      2553
 -1      1011    8    0    1
 -2       337       323       587      2203      2556      2557
 -1      1012    8    0    1
 -2       486       337       587      2257      2557      2558
 -1      1013    8    0    1
 -2       323       322       587      1769      2559      2556
 -1      1014    8    0    1
 -2       441       291       382      2206      1947      2560
 -1      1015    8    0    1
 -2       470       471       588      2208      2561      2562
 -1      1016    8    0    1
 -2       444       442       589      2204      2563      2564
 -1      1017    8    0    1
 -2       471       443       590      2194      2565      2566
 -1      1018    8    0    1
 -2       454       455       591      2221      2567      2568
 -1      1019    8    0    1
 -2       326       327       592      1780      2569      2570
 -1      1020    8    0    1
 -2       477       326       592      2232      2570      2571
 -1      1021    8    0    1
 -2       327       479       592      2238      2572      2569
 -1      1022    8    0    1
 -2       449       450       593      2227      2573      2574
 -1      1023    8    0    1
 -2       457       458       594      2228      2575      2576
 -1      1024    8    0    1
 -2       448       449       595      2226      2577      2578
 -1      1025    8    0    1
 -2       450       451       596      2225      2579      2580
 -1      1026    8    0    1
 -2       450       596       593      2580      2581      2573
 -1      1027    8    0    1
 -2       451       452       597      2224      2582      2583
 -1      1028    8    0    1
 -2       452       453       598      2223      2584      2585
 -1      1029    8    0    1
 -2       453       454       599      2222      2586      2587
 -1      1030    8    0    1
 -2       455       456       600      2159      2588      2589
 -1      1031    8    0    1
 -2       468       469       601      2229      2590      2591
 -1      1032    8    0    1
 -2       456       457       602      2220      2592      2593
 -1      1033    8    0    1
 -2       458       459       603      2219      2594      2595
 -1      1034    8    0    1
 -2       458       603       594      2595      2596      2575
 -1      1035    8    0    1
 -2       460       461       604      2170      2597      2598
 -1      1036    8    0    1
 -2       462       463       605      2175      2599      2600
 -1      1037    8    0    1
 -2       463       464       606      2212      2601      2602
 -1      1038    8    0    1
 -2       464       465       607      2180      2603      2604
 -1      1039    8    0    1
 -2       465       466       608      2211      2605      2606
 -1      1040    8    0    1
 -2       465       608       607      2606      2607      2603
 -1      1041    8    0    1
 -2       466       467       609      2185      2608      2609
 -1      1042    8    0    1
 -2       467       468       610      2210      2610      2611
 -1      1043    8    0    1
 -2       469       470       611      2209      2612      2613
 -1      1044    8    0    1
 -2       469       611       601      2613      2614      2590
 -1      1045    8    0    1
 -2       472       448       612      2197      2615      2616
 -1      1046    8    0    1
 -2       335       336       613      1809      2617      2618
 -1      1047    8    0    1
 -2       334       335       613      1804      2618      2619
 -1      1048    8    0    1
 -2       336       476       613      2231      2620      2617
 -1      1049    8    0    1
 -2       449       593       595      2574      2621      2577
 -1      1050    8    0    1
 -2       324       478       614      2235      2622      2623
 -1      1051    8    0    1
 -2       324       614       447      2623      2624      2140
 -1      1052    8    0    1
 -2       485       384       586      2254      2554      2625
 -1      1053    8    0    1
 -2       333       334       613      1801      2619      2626
 -1      1054    8    0    1
 -2       610       468       601      2610      2591      2627
 -1      1055    8    0    1
 -2       473       472       615      2202      2628      2629
 -1      1056    8    0    1
 -2       472       612       615      2616      2630      2628
 -1      1057    8    0    1
 -2       608       466       609      2605      2609      2631
 -1      1058    8    0    1
 -2       589       442       585      2563      2551      2632
 -1      1059    8    0    1
 -2       333       613       484      2626      2633      2251
 -1      1060    8    0    1
 -2       446       473       616      2201      2634      2635
 -1      1061    8    0    1
 -2       446       616       487      2635      2636      2259
 -1      1062    8    0    1
 -2       470       588       611      2562      2637      2612
 -1      1063    8    0    1
 -2       606       464       607      2601      2604      2638
 -1      1064    8    0    1
 -2       427       431       572      2515      2639      2512
 -1      1065    8    0    1
 -2       431       430       572      2096      2640      2639
 -1      1066    8    0    1
 -2       605       463       606      2599      2602      2641
 -1      1067    8    0    1
 -2       443       584       590      2549      2642      2565
 -1      1068    8    0    1
 -2       584       444       589      2548      2564      2643
 -1      1069    8    0    1
 -2       603       459       617      2594      2644      2645
 -1      1070    8    0    1
 -2       459       475       617      2217      2646      2644
 -1      1071    8    0    1
 -2       602       457       618      2592      2647      2648
 -1      1072    8    0    1
 -2       457       594       618      2576      2649      2647
 -1      1073    8    0    1
 -2       587       322       447      2559      2139      2650
 -1      1074    8    0    1
 -2       588       471       590      2561      2566      2651
 -1      1075    8    0    1
 -2       454       591       599      2568      2652      2586
 -1      1076    8    0    1
 -2       600       456       602      2588      2593      2653
 -1      1077    8    0    1
 -2       598       453       599      2584      2587      2654
 -1      1078    8    0    1
 -2       474       462       605      2215      2600      2655
 -1      1079    8    0    1
 -2       475       460       604      2218      2598      2656
 -1      1080    8    0    1
 -2       596       451       619      2579      2657      2658
 -1      1081    8    0    1
 -2       451       597       619      2583      2659      2657
 -1      1082    8    0    1
 -2       591       455       600      2567      2589      2660
 -1      1083    8    0    1
 -2       441       382       620      2560      2661      2662
 -1      1084    8    0    1
 -2       583       441       620      2545      2662      2663
 -1      1085    8    0    1
 -2       382       381       620      1948      2664      2661
 -1      1086    8    0    1
 -2       448       595       612      2578      2665      2615
 -1      1087    8    0    1
 -2       597       452       598      2582      2585      2666
 -1      1088    8    0    1
 -2       604       461       474      2597      2214      2667
 -1      1089    8    0    1
 -2       609       467       610      2608      2611      2668
 -1      1090    8    0    1
 -2       572       430       575      2640      2522      2669
 -1      1091    8    0    1
 -2       620       381       530      2664      2388      2670
 -1      1092    8    0    1
 -2       480       481       621      2244      2671      2672
 -1      1093    8    0    1
 -2       479       480       622      2241      2673      2674
 -1      1094    8    0    1
 -2       480       621       622      2672      2675      2673
 -1      1095    8    0    1
 -2       482       483       623      2250      2676      2677
 -1      1096    8    0    1
 -2       483       484       624      2253      2678      2679
 -1      1097    8    0    1
 -2       483       624       623      2679      2680      2676
 -1      1098    8    0    1
 -2       476       485       625      2256      2681      2682
 -1      1099    8    0    1
 -2       589       585       626      2632      2683      2684
 -1      1100    8    0    1
 -2       489       488       627      2266      2685      2686
 -1      1101    8    0    1
 -2       490       489       628      2269      2687      2688
 -1      1102    8    0    1
 -2       489       627       628      2686      2689      2687
 -1      1103    8    0    1
 -2       491       490       629      2272      2690      2691
 -1      1104    8    0    1
 -2       490       628       629      2688      2692      2690
 -1      1105    8    0    1
 -2       492       491       630      2275      2693      2694
 -1      1106    8    0    1
 -2       491       629       630      2691      2695      2693
 -1      1107    8    0    1
 -2       493       492       631      2278      2696      2697
 -1      1108    8    0    1
 -2       492       630       631      2694      2698      2696
 -1      1109    8    0    1
 -2       494       493       632      2281      2699      2700
 -1      1110    8    0    1
 -2       493       631       632      2697      2701      2699
 -1      1111    8    0    1
 -2       495       494       633      2284      2702      2703
 -1      1112    8    0    1
 -2       494       632       633      2700      2704      2702
 -1      1113    8    0    1
 -2       496       495       634      2287      2705      2706
 -1      1114    8    0    1
 -2       495       633       634      2703      2707      2705
 -1      1115    8    0    1
 -2       497       496       635      2290      2708      2709
 -1      1116    8    0    1
 -2       496       634       635      2706      2710      2708
 -1      1117    8    0    1
 -2       498       497       636      2293      2711      2712
 -1      1118    8    0    1
 -2       497       635       636      2709      2713      2711
 -1      1119    8    0    1
 -2       499       498       637      2296      2714      2715
 -1      1120    8    0    1
 -2       498       636       637      2712      2716      2714
 -1      1121    8    0    1
 -2       500       499       638      2299      2717      2718
 -1      1122    8    0    1
 -2       499       637       638      2715      2719      2717
 -1      1123    8    0    1
 -2       501       500       639      2302      2720      2721
 -1      1124    8    0    1
 -2       500       638       639      2718      2722      2720
 -1      1125    8    0    1
 -2       502       501       640      2305      2723      2724
 -1      1126    8    0    1
 -2       501       639       640      2721      2725      2723
 -1      1127    8    0    1
 -2       503       502       641      2308      2726      2727
 -1      1128    8    0    1
 -2       502       640       641      2724      2728      2726
 -1      1129    8    0    1
 -2       504       503       642      2311      2729      2730
 -1      1130    8    0    1
 -2       503       641       642      2727      2731      2729
 -1      1131    8    0    1
 -2       505       504       643      2314      2732      2733
 -1      1132    8    0    1
 -2       504       642       643      2730      2734      2732
 -1      1133    8    0    1
 -2       506       505       644      2317      2735      2736
 -1      1134    8    0    1
 -2       505       643       644      2733      2737      2735
 -1      1135    8    0    1
 -2       507       506       645      2320      2738      2739
 -1      1136    8    0    1
 -2       506       644       645      2736      2740      2738
 -1      1137    8    0    1
 -2       508       507       646      2323      2741      2742
 -1      1138    8    0    1
 -2       507       645       646      2739      2743      2741
 -1      1139    8    0    1
 -2       509       508       647      2326      2744      2745
 -1      1140    8    0    1
 -2       508       646       647      2742      2746      2744
 -1      1141    8    0    1
 -2       510       509       648      2329      2747      2748
 -1      1142    8    0    1
 -2       509       647       648      2745      2749      2747
 -1      1143    8    0    1
 -2       511       510       649      2332      2750      2751
 -1      1144    8    0    1
 -2       510       648       649      2748      2752      2750
 -1      1145    8    0    1
 -2       512       511       650      2335      2753      2754
 -1      1146    8    0    1
 -2       511       649       650      2751      2755      2753
 -1      1147    8    0    1
 -2       513       512       651      2338      2756      2757
 -1      1148    8    0    1
 -2       512       650       651      2754      2758      2756
 -1      1149    8    0    1
 -2       514       513       652      2341      2759      2760
 -1      1150    8    0    1
 -2       513       651       652      2757      2761      2759
 -1      1151    8    0    1
 -2       515       514       653      2344      2762      2763
 -1      1152    8    0    1
 -2       514       652       653      2760      2764      2762
 -1      1153    8    0    1
 -2       516       515       654      2347      2765      2766
 -1      1154    8    0    1
 -2       515       653       654      2763      2767      2765
 -1      1155    8    0    1
 -2       517       516       655      2350      2768      2769
 -1      1156    8    0    1
 -2       516       654       655      2766      2770      2768
 -1      1157    8    0    1
 -2       518       517       656      2353      2771      2772
 -1      1158    8    0    1
 -2       517       655       656      2769      2773      2771
 -1      1159    8    0    1
 -2       519       518       657      2356      2774      2775
 -1      1160    8    0    1
 -2       518       656       657      2772      2776      2774
 -1      1161    8    0    1
 -2       520       519       658      2359      2777      2778
 -1      1162    8    0    1
 -2       519       657       658      2775      2779      2777
 -1      1163    8    0    1
 -2       521       520       659      2362      2780      2781
 -1      1164    8    0    1
 -2       520       658       659      2778      2782      2780
 -1      1165    8    0    1
 -2       522       521       660      2365      2783      2784
 -1      1166    8    0    1
 -2       521       659       660      2781      2785      2783
 -1      1167    8    0    1
 -2       523       522       661      2368      2786      2787
 -1      1168    8    0    1
 -2       522       660       661      2784      2788      2786
 -1      1169    8    0    1
 -2       524       523       662      2371      2789      2790
 -1      1170    8    0    1
 -2       523       661       662      2787      2791      2789
 -1      1171    8    0    1
 -2       525       524       663      2374      2792      2793
 -1      1172    8    0    1
 -2       524       662       663      2790      2794      2792
 -1      1173    8    0    1
 -2       526       525       664      2377      2795      2796
 -1      1174    8    0    1
 -2       525       663       664      2793      2797      2795
 -1      1175    8    0    1
 -2       527       526       665      2380      2798      2799
 -1      1176    8    0    1
 -2       526       664       665      2796      2800      2798
 -1      1177    8    0    1
 -2       528       527       666      2383      2801      2802
 -1      1178    8    0    1
 -2       527       665       666      2799      2803      2801
 -1      1179    8    0    1
 -2       529       528       667      2386      2804      2805
 -1      1180    8    0    1
 -2       528       666       667      2802      2806      2804
 -1      1181    8    0    1
 -2       530       529       668      2389      2807      2808
 -1      1182    8    0    1
 -2       529       667       668      2805      2809      2807
 -1      1183    8    0    1
 -2       532       533       619      2397      2810      2811
 -1      1184    8    0    1
 -2       612       595       669      2665      2812      2813
 -1      1185    8    0    1
 -2       535       536       669      2406      2814      2815
 -1      1186    8    0    1
 -2       536       537       670      2409      2816      2817
 -1      1187    8    0    1
 -2       537       538       671      2412      2818      2819
 -1      1188    8    0    1
 -2       537       671       670      2819      2820      2816
 -1      1189    8    0    1
 -2       538       539       672      2415      2821      2822
 -1      1190    8    0    1
 -2       538       672       671      2822      2823      2818
 -1      1191    8    0    1
 -2       539       540       673      2418      2824      2825
 -1      1192    8    0    1
 -2       539       673       672      2825      2826      2821
 -1      1193    8    0    1
 -2       540       541       674      2421      2827      2828
 -1      1194    8    0    1
 -2       540       674       673      2828      2829      2824
 -1      1195    8    0    1
 -2       541       542       675      2424      2830      2831
 -1      1196    8    0    1
 -2       541       675       674      2831      2832      2827
 -1      1197    8    0    1
 -2       542       543       676      2427      2833      2834
 -1      1198    8    0    1
 -2       542       676       675      2834      2835      2830
 -1      1199    8    0    1
 -2       543       544       677      2430      2836      2837
 -1      1200    8    0    1
 -2       543       677       676      2837      2838      2833
 -1      1201    8    0    1
 -2       544       545       678      2433      2839      2840
 -1      1202    8    0    1
 -2       544       678       677      2840      2841      2836
 -1      1203    8    0    1
 -2       545       546       679      2436      2842      2843
 -1      1204    8    0    1
 -2       545       679       678      2843      2844      2839
 -1      1205    8    0    1
 -2       546       547       680      2439      2845      2846
 -1      1206    8    0    1
 -2       546       680       679      2846      2847      2842
 -1      1207    8    0    1
 -2       547       548       681      2442      2848      2849
 -1      1208    8    0    1
 -2       547       681       680      2849      2850      2845
 -1      1209    8    0    1
 -2       548       549       682      2445      2851      2852
 -1      1210    8    0    1
 -2       548       682       681      2852      2853      2848
 -1      1211    8    0    1
 -2       549       550       683      2448      2854      2855
 -1      1212    8    0    1
 -2       549       683       682      2855      2856      2851
 -1      1213    8    0    1
 -2       550       551       684      2451      2857      2858
 -1      1214    8    0    1
 -2       550       684       683      2858      2859      2854
 -1      1215    8    0    1
 -2       551       552       685      2454      2860      2861
 -1      1216    8    0    1
 -2       551       685       684      2861      2862      2857
 -1      1217    8    0    1
 -2       552       553       686      2457      2863      2864
 -1      1218    8    0    1
 -2       552       686       685      2864      2865      2860
 -1      1219    8    0    1
 -2       553       554       687      2460      2866      2867
 -1      1220    8    0    1
 -2       553       687       686      2867      2868      2863
 -1      1221    8    0    1
 -2       554       555       688      2463      2869      2870
 -1      1222    8    0    1
 -2       554       688       687      2870      2871      2866
 -1      1223    8    0    1
 -2       555       556       689      2466      2872      2873
 -1      1224    8    0    1
 -2       555       689       688      2873      2874      2869
 -1      1225    8    0    1
 -2       556       557       690      2469      2875      2876
 -1      1226    8    0    1
 -2       556       690       689      2876      2877      2872
 -1      1227    8    0    1
 -2       557       558       691      2472      2878      2879
 -1      1228    8    0    1
 -2       557       691       690      2879      2880      2875
 -1      1229    8    0    1
 -2       558       559       692      2475      2881      2882
 -1      1230    8    0    1
 -2       558       692       691      2882      2883      2878
 -1      1231    8    0    1
 -2       559       560       693      2478      2884      2885
 -1      1232    8    0    1
 -2       559       693       692      2885      2886      2881
 -1      1233    8    0    1
 -2       560       561       694      2481      2887      2888
 -1      1234    8    0    1
 -2       560       694       693      2888      2889      2884
 -1      1235    8    0    1
 -2       561       562       695      2484      2890      2891
 -1      1236    8    0    1
 -2       561       695       694      2891      2892      2887
 -1      1237    8    0    1
 -2       562       563       696      2487      2893      2894
 -1      1238    8    0    1
 -2       562       696       695      2894      2895      2890
 -1      1239    8    0    1
 -2       563       564       697      2490      2896      2897
 -1      1240    8    0    1
 -2       563       697       696      2897      2898      2893
 -1      1241    8    0    1
 -2       564       565       698      2493      2899      2900
 -1      1242    8    0    1
 -2       564       698       697      2900      2901      2896
 -1      1243    8    0    1
 -2       565       566       699      2496      2902      2903
 -1      1244    8    0    1
 -2       565       699       698      2903      2904      2899
 -1      1245    8    0    1
 -2       566       567       700      2499      2905      2906
 -1      1246    8    0    1
 -2       566       700       699      2906      2907      2902
 -1      1247    8    0    1
 -2       567       568       701      2502      2908      2909
 -1      1248    8    0    1
 -2       567       701       700      2909      2910      2905
 -1      1249    8    0    1
 -2       568       569       702      2505      2911      2912
 -1      1250    8    0    1
 -2       568       702       701      2912      2913      2908
 -1      1251    8    0    1
 -2       569       570       703      2508      2914      2915
 -1      1252    8    0    1
 -2       569       703       702      2915      2916      2911
 -1      1253    8    0    1
 -2       570       571       704      2511      2917      2918
 -1      1254    8    0    1
 -2       570       704       703      2918      2919      2914
 -1      1255    8    0    1
 -2       571       572       705      2514      2920      2921
 -1      1256    8    0    1
 -2       704       571       705      2917      2921      2922
 -1      1257    8    0    1
 -2       572       575       705      2669      2923      2920
 -1      1258    8    0    1
 -2       577       578       706      2532      2924      2925
 -1      1259    8    0    1
 -2       620       530       707      2670      2926      2927
 -1      1260    8    0    1
 -2       530       668       707      2808      2928      2926
 -1      1261    8    0    1
 -2       573       574       708      2520      2929      2930
 -1      1262    8    0    1
 -2       578       579       709      2535      2931      2932
 -1      1263    8    0    1
 -2       578       709       706      2932      2933      2924
 -1      1264    8    0    1
 -2       574       577       710      2529      2934      2935
 -1      1265    8    0    1
 -2       708       574       710      2929      2935      2936
 -1      1266    8    0    1
 -2       577       706       710      2925      2937      2934
 -1      1267    8    0    1
 -2       585       487       711      2552      2938      2939
 -1      1268    8    0    1
 -2       585       711       626      2939      2940      2683
 -1      1269    8    0    1
 -2       579       580       712      2538      2941      2942
 -1      1270    8    0    1
 -2       579       712       709      2942      2943      2931
 -1      1271    8    0    1
 -2       580       581       713      2541      2944      2945
 -1      1272    8    0    1
 -2       580       713       712      2945      2946      2941
 -1      1273    8    0    1
 -2       581       582       714      2544      2947      2948
 -1      1274    8    0    1
 -2       581       714       713      2948      2949      2944
 -1      1275    8    0    1
 -2       484       613       476      2633      2620      2950
 -1      1276    8    0    1
 -2       586       531       715      2555      2951      2952
 -1      1277    8    0    1
 -2       584       589       716      2643      2953      2954
 -1      1278    8    0    1
 -2       599       591       717      2652      2955      2956
 -1      1279    8    0    1
 -2       608       609       718      2631      2957      2958
 -1      1280    8    0    1
 -2       600       602       719      2653      2959      2960
 -1      1281    8    0    1
 -2       533       534       593      2400      2961      2962
 -1      1282    8    0    1
 -2       488       486       720      2263      2963      2964
 -1      1283    8    0    1
 -2       488       720       627      2964      2965      2685
 -1      1284    8    0    1
 -2       611       588       721      2637      2966      2967
 -1      1285    8    0    1
 -2       485       586       722      2625      2968      2969
 -1      1286    8    0    1
 -2       625       485       722      2681      2969      2970
 -1      1287    8    0    1
 -2       586       715       722      2952      2971      2968
 -1      1288    8    0    1
 -2       588       590       723      2651      2972      2973
 -1      1289    8    0    1
 -2       481       482       724      2247      2974      2975
 -1      1290    8    0    1
 -2       621       481       724      2671      2975      2976
 -1      1291    8    0    1
 -2       482       623       724      2677      2977      2974
 -1      1292    8    0    1
 -2       478       477       725      2236      2978      2979
 -1      1293    8    0    1
 -2       587       447       614      2650      2624      2980
 -1      1294    8    0    1
 -2       604       474       726      2667      2981      2982
 -1      1295    8    0    1
 -2       474       605       727      2655      2983      2984
 -1      1296    8    0    1
 -2       474       727       726      2984      2985      2981
 -1      1297    8    0    1
 -2       583       620       707      2663      2927      2986
 -1      1298    8    0    1
 -2       591       600       728      2660      2987      2988
 -1      1299    8    0    1
 -2       598       599       729      2654      2989      2990
 -1      1300    8    0    1
 -2       594       603       730      2596      2991      2992
 -1      1301    8    0    1
 -2       475       604       731      2656      2993      2994
 -1      1302    8    0    1
 -2       609       610       732      2668      2995      2996
 -1      1303    8    0    1
 -2       590       584       733      2642      2997      2998
 -1      1304    8    0    1
 -2       605       606       734      2641      2999      3000
 -1      1305    8    0    1
 -2       607       608       735      2607      3001      3002
 -1      1306    8    0    1
 -2       608       718       735      2958      3003      3001
 -1      1307    8    0    1
 -2       601       611       736      2614      3004      3005
 -1      1308    8    0    1
 -2       611       721       736      2967      3006      3004
 -1      1309    8    0    1
 -2       597       598       737      2666      3007      3008
 -1      1310    8    0    1
 -2       598       729       737      2990      3009      3007
 -1      1311    8    0    1
 -2       610       601       738      2627      3010      3011
 -1      1312    8    0    1
 -2       606       607       739      2638      3012      3013
 -1      1313    8    0    1
 -2       614       478       740      2622      3014      3015
 -1      1314    8    0    1
 -2       478       725       740      2979      3016      3014
 -1      1315    8    0    1
 -2       479       622       741      2674      3017      3018
 -1      1316    8    0    1
 -2       479       741       592      3018      3019      2572
 -1      1317    8    0    1
 -2       723       590       733      2972      2998      3020
 -1      1318    8    0    1
 -2       589       626       716      2684      3021      2953
 -1      1319    8    0    1
 -2       487       616       742      2636      3022      3023
 -1      1320    8    0    1
 -2       487       742       711      3023      3024      2938
 -1      1321    8    0    1
 -2       616       473       743      2634      3025      3026
 -1      1322    8    0    1
 -2       473       615       743      2629      3027      3025
 -1      1323    8    0    1
 -2       739       607       735      3012      3002      3028
 -1      1324    8    0    1
 -2       532       619       744      2811      3029      3030
 -1      1325    8    0    1
 -2       531       532       744      2394      3030      3031
 -1      1326    8    0    1
 -2       619       597       744      2659      3032      3029
 -1      1327    8    0    1
 -2       573       708       745      2930      3033      3034
 -1      1328    8    0    1
 -2       573       745       576      3034      3035      2526
 -1      1329    8    0    1
 -2       612       669       670      2813      3036      3037
 -1      1330    8    0    1
 -2       734       606       739      2999      3013      3038
 -1      1331    8    0    1
 -2       534       535       746      2403      3039      3040
 -1      1332    8    0    1
 -2       536       670       669      2817      3036      2814
 -1      1333    8    0    1
 -2       733       584       716      2997      2954      3041
 -1      1334    8    0    1
 -2       591       728       717      2988      3042      2955
 -1      1335    8    0    1
 -2       575       576       747      2525      3043      3044
 -1      1336    8    0    1
 -2       705       575       747      2923      3044      3045
 -1      1337    8    0    1
 -2       576       745       747      3035      3046      3043
 -1      1338    8    0    1
 -2       732       610       738      2995      3011      3047
 -1      1339    8    0    1
 -2       731       604       748      2993      3048      3049
 -1      1340    8    0    1
 -2       604       726       748      2982      3050      3048
 -1      1341    8    0    1
 -2       484       476       625      2950      2682      3051
 -1      1342    8    0    1
 -2       582       583       707      2547      2986      3052
 -1      1343    8    0    1
 -2       730       603       749      2991      3053      3054
 -1      1344    8    0    1
 -2       603       617       749      2645      3055      3053
 -1      1345    8    0    1
 -2       669       595       746      2812      3056      3057
 -1      1346    8    0    1
 -2       617       475       731      2646      2994      3058
 -1      1347    8    0    1
 -2       715       531       744      2951      3031      3059
 -1      1348    8    0    1
 -2       618       594       730      2649      2992      3060
 -1      1349    8    0    1
 -2       599       717       729      2956      3061      2989
 -1      1350    8    0    1
 -2       601       736       738      3005      3062      3010
 -1      1351    8    0    1
 -2       588       723       721      2973      3063      2966
 -1      1352    8    0    1
 -2       719       602       750      2959      3064      3065
 -1      1353    8    0    1
 -2       602       618       750      2648      3066      3064
 -1      1354    8    0    1
 -2       600       719       728      2960      3067      2987
 -1      1355    8    0    1
 -2       718       609       732      2957      2996      3068
 -1      1356    8    0    1
 -2       484       625       624      3051      3069      2678
 -1      1357    8    0    1
 -2       477       592       751      2571      3070      3071
 -1      1358    8    0    1
 -2       725       477       751      2978      3071      3072
 -1      1359    8    0    1
 -2       592       741       751      3019      3073      3070
 -1      1360    8    0    1
 -2       587       614       752      2980      3074      3075
 -1      1361    8    0    1
 -2       486       587       752      2558      3075      3076
 -1      1362    8    0    1
 -2       614       740       752      3015      3077      3074
 -1      1363    8    0    1
 -2       593       596       533      2581      3078      2962
 -1      1364    8    0    1
 -2       595       593       746      2621      3079      3056
 -1      1365    8    0    1
 -2       582       707       753      3052      3080      3081
 -1      1366    8    0    1
 -2       714       582       753      2947      3081      3082
 -1      1367    8    0    1
 -2       707       668       753      2928      3083      3080
 -1      1368    8    0    1
 -2       486       752       720      3076      3084      2963
 -1      1369    8    0    1
 -2       746       535       669      3039      2815      3057
 -1      1370    8    0    1
 -2       746       593       534      3079      2961      3040
 -1      1371    8    0    1
 -2       533       596       619      3078      2658      2810
 -1      1372    8    0    1
 -2       623       624       754      2680      3085      3086
 -1      1373    8    0    1
 -2       744       597       737      3032      3008      3087
 -1      1374    8    0    1
 -2       735       718       755      3003      3088      3089
 -1      1375    8    0    1
 -2       629       628       756      2692      3090      3091
 -1      1376    8    0    1
 -2       630       629       757      2695      3092      3093
 -1      1377    8    0    1
 -2       629       756       757      3091      3094      3092
 -1      1378    8    0    1
 -2       631       630       758      2698      3095      3096
 -1      1379    8    0    1
 -2       630       757       758      3093      3097      3095
 -1      1380    8    0    1
 -2       633       632       759      2704      3098      3099
 -1      1381    8    0    1
 -2       634       633       760      2707      3100      3101
 -1      1382    8    0    1
 -2       633       759       760      3099      3102      3100
 -1      1383    8    0    1
 -2       635       634       761      2710      3103      3104
 -1      1384    8    0    1
 -2       634       760       761      3101      3105      3103
 -1      1385    8    0    1
 -2       636       635       762      2713      3106      3107
 -1      1386    8    0    1
 -2       635       761       762      3104      3108      3106
 -1      1387    8    0    1
 -2       637       636       763      2716      3109      3110
 -1      1388    8    0    1
 -2       636       762       763      3107      3111      3109
 -1      1389    8    0    1
 -2       638       637       764      2719      3112      3113
 -1      1390    8    0    1
 -2       637       763       764      3110      3114      3112
 -1      1391    8    0    1
 -2       639       638       765      2722      3115      3116
 -1      1392    8    0    1
 -2       638       764       765      3113      3117      3115
 -1      1393    8    0    1
 -2       640       639       766      2725      3118      3119
 -1      1394    8    0    1
 -2       639       765       766      3116      3120      3118
 -1      1395    8    0    1
 -2       641       640       767      2728      3121      3122
 -1      1396    8    0    1
 -2       640       766       767      3119      3123      3121
 -1      1397    8    0    1
 -2       642       641       768      2731      3124      3125
 -1      1398    8    0    1
 -2       641       767       768      3122      3126      3124
 -1      1399    8    0    1
 -2       643       642       769      2734      3127      3128
 -1      1400    8    0    1
 -2       642       768       769      3125      3129      3127
 -1      1401    8    0    1
 -2       644       643       770      2737      3130      3131
 -1      1402    8    0    1
 -2       643       769       770      3128      3132      3130
 -1      1403    8    0    1
 -2       645       644       771      2740      3133      3134
 -1      1404    8    0    1
 -2       644       770       771      3131      3135      3133
 -1      1405    8    0    1
 -2       646       645       772      2743      3136      3137
 -1      1406    8    0    1
 -2       645       771       772      3134      3138      3136
 -1      1407    8    0    1
 -2       647       646       773      2746      3139      3140
 -1      1408    8    0    1
 -2       646       772       773      3137      3141      3139
 -1      1409    8    0    1
 -2       648       647       774      2749      3142      3143
 -1      1410    8    0    1
 -2       647       773       774      3140      3144      3142
 -1      1411    8    0    1
 -2       649       648       775      2752      3145      3146
 -1      1412    8    0    1
 -2       648       774       775      3143      3147      3145
 -1      1413    8    0    1
 -2       650       649       776      2755      3148      3149
 -1      1414    8    0    1
 -2       649       775       776      3146      3150      3148
 -1      1415    8    0    1
 -2       651       650       777      2758      3151      3152
 -1      1416    8    0    1
 -2       650       776       777      3149      3153      3151
 -1      1417    8    0    1
 -2       652       651       778      2761      3154      3155
 -1      1418    8    0    1
 -2       651       777       778      3152      3156      3154
 -1      1419    8    0    1
 -2       653       652       779      2764      3157      3158
 -1      1420    8    0    1
 -2       652       778       779      3155      3159      3157
 -1      1421    8    0    1
 -2       654       653       780      2767      3160      3161
 -1      1422    8    0    1
 -2       653       779       780      3158      3162      3160
 -1      1423    8    0    1
 -2       655       654       781      2770      3163      3164
 -1      1424    8    0    1
 -2       654       780       781      3161      3165      3163
 -1      1425    8    0    1
 -2       656       655       782      2773      3166      3167
 -1      1426    8    0    1
 -2       655       781       782      3164      3168      3166
 -1      1427    8    0    1
 -2       657       656       783      2776      3169      3170
 -1      1428    8    0    1
 -2       656       782       783      3167      3171      3169
 -1      1429    8    0    1
 -2       658       657       784      2779      3172      3173
 -1      1430    8    0    1
 -2       657       783       784      3170      3174      3172
 -1      1431    8    0    1
 -2       659       658       785      2782      3175      3176
 -1      1432    8    0    1
 -2       658       784       785      3173      3177      3175
 -1      1433    8    0    1
 -2       660       659       786      2785      3178      3179
 -1      1434    8    0    1
 -2       659       785       786      3176      3180      3178
 -1      1435    8    0    1
 -2       661       660       787      2788      3181      3182
 -1      1436    8    0    1
 -2       660       786       787      3179      3183      3181
 -1      1437    8    0    1
 -2       662       661       788      2791      3184      3185
 -1      1438    8    0    1
 -2       661       787       788      3182      3186      3184
 -1      1439    8    0    1
 -2       663       662       789      2794      3187      3188
 -1      1440    8    0    1
 -2       662       788       789      3185      3189      3187
 -1      1441    8    0    1
 -2       664       663       790      2797      3190      3191
 -1      1442    8    0    1
 -2       663       789       790      3188      3192      3190
 -1      1443    8    0    1
 -2       665       664       791      2800      3193      3194
 -1      1444    8    0    1
 -2       664       790       791      3191      3195      3193
 -1      1445    8    0    1
 -2       666       665       792      2803      3196      3197
 -1      1446    8    0    1
 -2       665       791       792      3194      3198      3196
 -1      1447    8    0    1
 -2       667       666       793      2806      3199      3200
 -1      1448    8    0    1
 -2       666       792       793      3197      3201      3199
 -1      1449    8    0    1
 -2       668       667       794      2809      3202      3203
 -1      1450    8    0    1
 -2       753       668       794      3083      3203      3204
 -1      1451    8    0    1
 -2       667       793       794      3200      3205      3202
 -1      1452    8    0    1
 -2       734       739       758      3038      3206      3207
 -1      1453    8    0    1
 -2       670       671       743      2820      3208      3209
 -1      1454    8    0    1
 -2       673       674       795      2829      3210      3211
 -1      1455    8    0    1
 -2       674       675       796      2832      3212      3213
 -1      1456    8    0    1
 -2       674       796       795      3213      3214      3210
 -1      1457    8    0    1
 -2       675       676       797      2835      3215      3216
 -1      1458    8    0    1
 -2       675       797       796      3216      3217      3212
 -1      1459    8    0    1
 -2       676       677       798      2838      3218      3219
 -1      1460    8    0    1
 -2       676       798       797      3219      3220      3215
 -1      1461    8    0    1
 -2       677       678       799      2841      3221      3222
 -1      1462    8    0    1
 -2       677       799       798      3222      3223      3218
 -1      1463    8    0    1
 -2       678       679       800      2844      3224      3225
 -1      1464    8    0    1
 -2       678       800       799      3225      3226      3221
 -1      1465    8    0    1
 -2       679       680       801      2847      3227      3228
 -1      1466    8    0    1
 -2       679       801       800      3228      3229      3224
 -1      1467    8    0    1
 -2       680       681       802      2850      3230      3231
 -1      1468    8    0    1
 -2       680       802       801      3231      3232      3227
 -1      1469    8    0    1
 -2       681       682       803      2853      3233      3234
 -1      1470    8    0    1
 -2       681       803       802      3234      3235      3230
 -1      1471    8    0    1
 -2       682       683       804      2856      3236      3237
 -1      1472    8    0    1
 -2       682       804       803      3237      3238      3233
 -1      1473    8    0    1
 -2       683       684       805      2859      3239      3240
 -1      1474    8    0    1
 -2       683       805       804      3240      3241      3236
 -1      1475    8    0    1
 -2       684       685       806      2862      3242      3243
 -1      1476    8    0    1
 -2       684       806       805      3243      3244      3239
 -1      1477    8    0    1
 -2       685       686       807      2865      3245      3246
 -1      1478    8    0    1
 -2       685       807       806      3246      3247      3242
 -1      1479    8    0    1
 -2       686       687       808      2868      3248      3249
 -1      1480    8    0    1
 -2       686       808       807      3249      3250      3245
 -1      1481    8    0    1
 -2       687       688       809      2871      3251      3252
 -1      1482    8    0    1
 -2       687       809       808      3252      3253      3248
 -1      1483    8    0    1
 -2       688       689       810      2874      3254      3255
 -1      1484    8    0    1
 -2       688       810       809      3255      3256      3251
 -1      1485    8    0    1
 -2       689       690       811      2877      3257      3258
 -1      1486    8    0    1
 -2       689       811       810      3258      3259      3254
 -1      1487    8    0    1
 -2       690       691       812      2880      3260      3261
 -1      1488    8    0    1
 -2       690       812       811      3261      3262      3257
 -1      1489    8    0    1
 -2       691       692       813      2883      3263      3264
 -1      1490    8    0    1
 -2       691       813       812      3264      3265      3260
 -1      1491    8    0    1
 -2       692       693       814      2886      3266      3267
 -1      1492    8    0    1
 -2       692       814       813      3267      3268      3263
 -1      1493    8    0    1
 -2       693       694       815      2889      3269      3270
 -1      1494    8    0    1
 -2       693       815       814      3270      3271      3266
 -1      1495    8    0    1
 -2       694       695       816      2892      3272      3273
 -1      1496    8    0    1
 -2       694       816       815      3273      3274      3269
 -1      1497    8    0    1
 -2       695       696       817      2895      3275      3276
 -1      1498    8    0    1
 -2       695       817       816      3276      3277      3272
 -1      1499    8    0    1
 -2       696       697       818      2898      3278      3279
 -1      1500    8    0    1
 -2       696       818       817      3279      3280      3275
 -1      1501    8    0    1
 -2       697       698       819      2901      3281      3282
 -1      1502    8    0    1
 -2       697       819       818      3282      3283      3278
 -1      1503    8    0    1
 -2       698       699       820      2904      3284      3285
 -1      1504    8    0    1
 -2       698       820       819      3285      3286      3281
 -1      1505    8    0    1
 -2       699       700       821      2907      3287      3288
 -1      1506    8    0    1
 -2       699       821       820      3288      3289      3284
 -1      1507    8    0    1
 -2       700       701       822      2910      3290      3291
 -1      1508    8    0    1
 -2       700       822       821      3291      3292      3287
 -1      1509    8    0    1
 -2       701       702       823      2913      3293      3294
 -1      1510    8    0    1
 -2       701       823       822      3294      3295      3290
 -1      1511    8    0    1
 -2       702       703       824      2916      3296      3297
 -1      1512    8    0    1
 -2       702       824       823      3297      3298      3293
 -1      1513    8    0    1
 -2       703       704       825      2919      3299      3300
 -1      1514    8    0    1
 -2       703       825       824      3300      3301      3296
 -1      1515    8    0    1
 -2       704       705       826      2922      3302      3303
 -1      1516    8    0    1
 -2       825       704       826      3299      3303      3304
 -1      1517    8    0    1
 -2       705       747       826      3045      3305      3302
 -1      1518    8    0    1
 -2       720       752       827      3084      3306      3307
 -1      1519    8    0    1
 -2       627       720       827      2965      3307      3308
 -1      1520    8    0    1
 -2       752       740       827      3077      3309      3306
 -1      1521    8    0    1
 -2       622       621       828      2675      3310      3311
 -1      1522    8    0    1
 -2       706       709       829      2933      3312      3313
 -1      1523    8    0    1
 -2       713       714       830      2949      3314      3315
 -1      1524    8    0    1
 -2       617       731       831      3058      3316      3317
 -1      1525    8    0    1
 -2       717       728       832      3042      3318      3319
 -1      1526    8    0    1
 -2       712       713       833      2946      3320      3321
 -1      1527    8    0    1
 -2       713       830       833      3315      3322      3320
 -1      1528    8    0    1
 -2       672       673       834      2826      3323      3324
 -1      1529    8    0    1
 -2       673       795       834      3211      3325      3323
 -1      1530    8    0    1
 -2       732       738       835      3047      3326      3327
 -1      1531    8    0    1
 -2       728       719       836      3067      3328      3329
 -1      1532    8    0    1
 -2       671       672       837      2823      3330      3331
 -1      1533    8    0    1
 -2       743       671       837      3208      3331      3332
 -1      1534    8    0    1
 -2       672       834       837      3324      3333      3330
 -1      1535    8    0    1
 -2       723       733       838      3020      3334      3335
 -1      1536    8    0    1
 -2       733       716       839      3041      3336      3337
 -1      1537    8    0    1
 -2       727       605       734      2983      3000      3338
 -1      1538    8    0    1
 -2       628       627       840      2689      3339      3340
 -1      1539    8    0    1
 -2       628       840       756      3340      3341      3090
 -1      1540    8    0    1
 -2       726       727       841      2985      3342      3343
 -1      1541    8    0    1
 -2       738       736       842      3062      3344      3345
 -1      1542    8    0    1
 -2       718       732       843      3068      3346      3347
 -1      1543    8    0    1
 -2       718       843       755      3347      3348      3088
 -1      1544    8    0    1
 -2       739       735       844      3028      3349      3350
 -1      1545    8    0    1
 -2       735       755       844      3089      3351      3349
 -1      1546    8    0    1
 -2       729       717       845      3061      3352      3353
 -1      1547    8    0    1
 -2       709       712       846      2943      3354      3355
 -1      1548    8    0    1
 -2       829       709       846      3312      3355      3356
 -1      1549    8    0    1
 -2       712       833       846      3321      3357      3354
 -1      1550    8    0    1
 -2       624       625       847      3069      3358      3359
 -1      1551    8    0    1
 -2       754       624       847      3085      3359      3360
 -1      1552    8    0    1
 -2       625       722       847      2970      3361      3358
 -1      1553    8    0    1
 -2       716       626       848      3021      3362      3363
 -1      1554    8    0    1
 -2       618       730       849      3060      3364      3365
 -1      1555    8    0    1
 -2       736       721       850      3006      3366      3367
 -1      1556    8    0    1
 -2       736       850       842      3367      3368      3344
 -1      1557    8    0    1
 -2       626       711       851      2940      3369      3370
 -1      1558    8    0    1
 -2       721       723       852      3063      3371      3372
 -1      1559    8    0    1
 -2       727       734       853      3338      3373      3374
 -1      1560    8    0    1
 -2       741       622       854      3017      3375      3376
 -1      1561    8    0    1
 -2       626       851       848      3370      3377      3362
 -1      1562    8    0    1
 -2       740       725       855      3016      3378      3379
 -1      1563    8    0    1
 -2       739       844       758      3350      3380      3206
 -1      1564    8    0    1
 -2       631       758       844      3096      3380      3381
 -1      1565    8    0    1
 -2       632       631       844      2701      3381      3382
 -1      1566    8    0    1
 -2       838       733       839      3334      3337      3383
 -1      1567    8    0    1
 -2       623       754       836      3086      3384      3385
 -1      1568    8    0    1
 -2       831       731       856      3316      3386      3387
 -1      1569    8    0    1
 -2       731       748       856      3049      3388      3386
 -1      1570    8    0    1
 -2       832       728       836      3318      3329      3389
 -1      1571    8    0    1
 -2       745       708       857      3033      3390      3391
 -1      1572    8    0    1
 -2       732       835       843      3327      3392      3346
 -1      1573    8    0    1
 -2       708       710       858      2936      3393      3394
 -1      1574    8    0    1
 -2       708       858       857      3394      3395      3390
 -1      1575    8    0    1
 -2       723       838       852      3335      3396      3371
 -1      1576    8    0    1
 -2       710       706       859      2937      3397      3398
 -1      1577    8    0    1
 -2       858       710       859      3393      3398      3399
 -1      1578    8    0    1
 -2       706       829       859      3313      3400      3397
 -1      1579    8    0    1
 -2       627       827       840      3308      3401      3339
 -1      1580    8    0    1
 -2       617       831       749      3317      3402      3055
 -1      1581    8    0    1
 -2       748       726       841      3050      3343      3403
 -1      1582    8    0    1
 -2       711       742       851      3024      3404      3369
 -1      1583    8    0    1
 -2       714       753       860      3082      3405      3406
 -1      1584    8    0    1
 -2       830       714       860      3314      3406      3407
 -1      1585    8    0    1
 -2       753       794       860      3204      3408      3405
 -1      1586    8    0    1
 -2       717       832       845      3319      3409      3352
 -1      1587    8    0    1
 -2       722       715       845      2971      3410      3411
 -1      1588    8    0    1
 -2       750       618       828      3066      3412      3413
 -1      1589    8    0    1
 -2       835       738       842      3326      3345      3414
 -1      1590    8    0    1
 -2       839       716       848      3336      3363      3415
 -1      1591    8    0    1
 -2       623       836       724      3385      3416      2977
 -1      1592    8    0    1
 -2       841       727       853      3342      3374      3417
 -1      1593    8    0    1
 -2       729       845       715      3353      3410      3418
 -1      1594    8    0    1
 -2       850       721       852      3366      3372      3419
 -1      1595    8    0    1
 -2       849       730       854      3364      3420      3421
 -1      1596    8    0    1
 -2       618       849       828      3365      3422      3412
 -1      1597    8    0    1
 -2       725       751       861      3072      3423      3424
 -1      1598    8    0    1
 -2       725       861       855      3424      3425      3378
 -1      1599    8    0    1
 -2       737       729       715      3009      3418      3426
 -1      1600    8    0    1
 -2       848       851       862      3377      3427      3428
 -1      1601    8    0    1
 -2       737       715       744      3426      3059      3087
 -1      1602    8    0    1
 -2       742       616       743      3022      3026      3429
 -1      1603    8    0    1
 -2       743       615       670      3027      3430      3209
 -1      1604    8    0    1
 -2       615       612       670      2630      3037      3430
 -1      1605    8    0    1
 -2       632       844       759      3382      3431      3098
 -1      1606    8    0    1
 -2       836       719       863      3328      3432      3433
 -1      1607    8    0    1
 -2       734       758       853      3207      3434      3373
 -1      1608    8    0    1
 -2       836       863       724      3433      3435      3416
 -1      1609    8    0    1
 -2       762       761       864      3108      3436      3437
 -1      1610    8    0    1
 -2       763       762       865      3111      3438      3439
 -1      1611    8    0    1
 -2       762       864       865      3437      3440      3438
 -1      1612    8    0    1
 -2       764       763       866      3114      3441      3442
 -1      1613    8    0    1
 -2       763       865       866      3439      3443      3441
 -1      1614    8    0    1
 -2       765       764       867      3117      3444      3445
 -1      1615    8    0    1
 -2       764       866       867      3442      3446      3444
 -1      1616    8    0    1
 -2       766       765       868      3120      3447      3448
 -1      1617    8    0    1
 -2       765       867       868      3445      3449      3447
 -1      1618    8    0    1
 -2       767       766       869      3123      3450      3451
 -1      1619    8    0    1
 -2       766       868       869      3448      3452      3450
 -1      1620    8    0    1
 -2       768       767       870      3126      3453      3454
 -1      1621    8    0    1
 -2       767       869       870      3451      3455      3453
 -1      1622    8    0    1
 -2       769       768       871      3129      3456      3457
 -1      1623    8    0    1
 -2       768       870       871      3454      3458      3456
 -1      1624    8    0    1
 -2       770       769       872      3132      3459      3460
 -1      1625    8    0    1
 -2       769       871       872      3457      3461      3459
 -1      1626    8    0    1
 -2       771       770       873      3135      3462      3463
 -1      1627    8    0    1
 -2       770       872       873      3460      3464      3462
 -1      1628    8    0    1
 -2       772       771       874      3138      3465      3466
 -1      1629    8    0    1
 -2       771       873       874      3463      3467      3465
 -1      1630    8    0    1
 -2       773       772       875      3141      3468      3469
 -1      1631    8    0    1
 -2       772       874       875      3466      3470      3468
 -1      1632    8    0    1
 -2       774       773       876      3144      3471      3472
 -1      1633    8    0    1
 -2       773       875       876      3469      3473      3471
 -1      1634    8    0    1
 -2       775       774       877      3147      3474      3475
 -1      1635    8    0    1
 -2       774       876       877      3472      3476      3474
 -1      1636    8    0    1
 -2       776       775       878      3150      3477      3478
 -1      1637    8    0    1
 -2       775       877       878      3475      3479      3477
 -1      1638    8    0    1
 -2       777       776       879      3153      3480      3481
 -1      1639    8    0    1
 -2       776       878       879      3478      3482      3480
 -1      1640    8    0    1
 -2       778       777       880      3156      3483      3484
 -1      1641    8    0    1
 -2       777       879       880      3481      3485      3483
 -1      1642    8    0    1
 -2       779       778       881      3159      3486      3487
 -1      1643    8    0    1
 -2       778       880       881      3484      3488      3486
 -1      1644    8    0    1
 -2       780       779       882      3162      3489      3490
 -1      1645    8    0    1
 -2       779       881       882      3487      3491      3489
 -1      1646    8    0    1
 -2       781       780       883      3165      3492      3493
 -1      1647    8    0    1
 -2       780       882       883      3490      3494      3492
 -1      1648    8    0    1
 -2       782       781       884      3168      3495      3496
 -1      1649    8    0    1
 -2       781       883       884      3493      3497      3495
 -1      1650    8    0    1
 -2       783       782       885      3171      3498      3499
 -1      1651    8    0    1
 -2       782       884       885      3496      3500      3498
 -1      1652    8    0    1
 -2       784       783       886      3174      3501      3502
 -1      1653    8    0    1
 -2       783       885       886      3499      3503      3501
 -1      1654    8    0    1
 -2       785       784       887      3177      3504      3505
 -1      1655    8    0    1
 -2       784       886       887      3502      3506      3504
 -1      1656    8    0    1
 -2       786       785       888      3180      3507      3508
 -1      1657    8    0    1
 -2       785       887       888      3505      3509      3507
 -1      1658    8    0    1
 -2       787       786       889      3183      3510      3511
 -1      1659    8    0    1
 -2       786       888       889      3508      3512      3510
 -1      1660    8    0    1
 -2       788       787       890      3186      3513      3514
 -1      1661    8    0    1
 -2       787       889       890      3511      3515      3513
 -1      1662    8    0    1
 -2       789       788       891      3189      3516      3517
 -1      1663    8    0    1
 -2       788       890       891      3514      3518      3516
 -1      1664    8    0    1
 -2       790       789       892      3192      3519      3520
 -1      1665    8    0    1
 -2       789       891       892      3517      3521      3519
 -1      1666    8    0    1
 -2       791       790       893      3195      3522      3523
 -1      1667    8    0    1
 -2       790       892       893      3520      3524      3522
 -1      1668    8    0    1
 -2       792       791       894      3198      3525      3526
 -1      1669    8    0    1
 -2       791       893       894      3523      3527      3525
 -1      1670    8    0    1
 -2       793       792       895      3201      3528      3529
 -1      1671    8    0    1
 -2       792       894       895      3526      3530      3528
 -1      1672    8    0    1
 -2       836       754       832      3384      3531      3389
 -1      1673    8    0    1
 -2       852       838       896      3396      3532      3533
 -1      1674    8    0    1
 -2       795       796       897      3214      3534      3535
 -1      1675    8    0    1
 -2       798       799       898      3223      3536      3537
 -1      1676    8    0    1
 -2       799       800       899      3226      3538      3539
 -1      1677    8    0    1
 -2       799       899       898      3539      3540      3536
 -1      1678    8    0    1
 -2       800       801       900      3229      3541      3542
 -1      1679    8    0    1
 -2       800       900       899      3542      3543      3538
 -1      1680    8    0    1
 -2       801       802       901      3232      3544      3545
 -1      1681    8    0    1
 -2       801       901       900      3545      3546      3541
 -1      1682    8    0    1
 -2       802       803       902      3235      3547      3548
 -1      1683    8    0    1
 -2       802       902       901      3548      3549      3544
 -1      1684    8    0    1
 -2       803       804       903      3238      3550      3551
 -1      1685    8    0    1
 -2       803       903       902      3551      3552      3547
 -1      1686    8    0    1
 -2       804       805       904      3241      3553      3554
 -1      1687    8    0    1
 -2       804       904       903      3554      3555      3550
 -1      1688    8    0    1
 -2       805       806       905      3244      3556      3557
 -1      1689    8    0    1
 -2       805       905       904      3557      3558      3553
 -1      1690    8    0    1
 -2       806       807       906      3247      3559      3560
 -1      1691    8    0    1
 -2       806       906       905      3560      3561      3556
 -1      1692    8    0    1
 -2       807       808       907      3250      3562      3563
 -1      1693    8    0    1
 -2       807       907       906      3563      3564      3559
 -1      1694    8    0    1
 -2       808       809       908      3253      3565      3566
 -1      1695    8    0    1
 -2       808       908       907      3566      3567      3562
 -1      1696    8    0    1
 -2       809       810       909      3256      3568      3569
 -1      1697    8    0    1
 -2       809       909       908      3569      3570      3565
 -1      1698    8    0    1
 -2       810       811       910      3259      3571      3572
 -1      1699    8    0    1
 -2       810       910       909      3572      3573      3568
 -1      1700    8    0    1
 -2       811       812       911      3262      3574      3575
 -1      1701    8    0    1
 -2       811       911       910      3575      3576      3571
 -1      1702    8    0    1
 -2       812       813       912      3265      3577      3578
 -1      1703    8    0    1
 -2       812       912       911      3578      3579      3574
 -1      1704    8    0    1
 -2       813       814       913      3268      3580      3581
 -1      1705    8    0    1
 -2       813       913       912      3581      3582      3577
 -1      1706    8    0    1
 -2       814       815       914      3271      3583      3584
 -1      1707    8    0    1
 -2       814       914       913      3584      3585      3580
 -1      1708    8    0    1
 -2       815       816       915      3274      3586      3587
 -1      1709    8    0    1
 -2       815       915       914      3587      3588      3583
 -1      1710    8    0    1
 -2       816       817       916      3277      3589      3590
 -1      1711    8    0    1
 -2       816       916       915      3590      3591      3586
 -1      1712    8    0    1
 -2       817       818       917      3280      3592      3593
 -1      1713    8    0    1
 -2       817       917       916      3593      3594      3589
 -1      1714    8    0    1
 -2       818       819       918      3283      3595      3596
 -1      1715    8    0    1
 -2       818       918       917      3596      3597      3592
 -1      1716    8    0    1
 -2       819       820       919      3286      3598      3599
 -1      1717    8    0    1
 -2       819       919       918      3599      3600      3595
 -1      1718    8    0    1
 -2       820       821       920      3289      3601      3602
 -1      1719    8    0    1
 -2       820       920       919      3602      3603      3598
 -1      1720    8    0    1
 -2       821       822       921      3292      3604      3605
 -1      1721    8    0    1
 -2       821       921       920      3605      3606      3601
 -1      1722    8    0    1
 -2       822       823       922      3295      3607      3608
 -1      1723    8    0    1
 -2       822       922       921      3608      3609      3604
 -1      1724    8    0    1
 -2       823       824       923      3298      3610      3611
 -1      1725    8    0    1
 -2       823       923       922      3611      3612      3607
 -1      1726    8    0    1
 -2       824       825       924      3301      3613      3614
 -1      1727    8    0    1
 -2       824       924       923      3614      3615      3610
 -1      1728    8    0    1
 -2       827       740       855      3309      3379      3616
 -1      1729    8    0    1
 -2       840       827       855      3401      3616      3617
 -1      1730    8    0    1
 -2       747       745       925      3046      3618      3619
 -1      1731    8    0    1
 -2       826       747       925      3305      3619      3620
 -1      1732    8    0    1
 -2       745       857       925      3391      3621      3618
 -1      1733    8    0    1
 -2       759       844       755      3431      3351      3622
 -1      1734    8    0    1
 -2       748       841       926      3403      3623      3624
 -1      1735    8    0    1
 -2       850       852       927      3419      3625      3626
 -1      1736    8    0    1
 -2       833       830       928      3322      3627      3628
 -1      1737    8    0    1
 -2       760       759       755      3102      3622      3629
 -1      1738    8    0    1
 -2       797       798       929      3220      3630      3631
 -1      1739    8    0    1
 -2       798       898       929      3537      3632      3630
 -1      1740    8    0    1
 -2       854       622       828      3375      3311      3633
 -1      1741    8    0    1
 -2       796       797       930      3217      3634      3635
 -1      1742    8    0    1
 -2       897       796       930      3534      3635      3636
 -1      1743    8    0    1
 -2       797       929       930      3631      3637      3634
 -1      1744    8    0    1
 -2       834       795       862      3325      3638      3639
 -1      1745    8    0    1
 -2       751       741       931      3073      3640      3641
 -1      1746    8    0    1
 -2       861       751       931      3423      3641      3642
 -1      1747    8    0    1
 -2       741       854       931      3376      3643      3640
 -1      1748    8    0    1
 -2       724       863       621      3435      3644      2976
 -1      1749    8    0    1
 -2       828       621       863      3310      3644      3645
 -1      1750    8    0    1
 -2       719       750       863      3065      3646      3432
 -1      1751    8    0    1
 -2       832       754       845      3531      3647      3409
 -1      1752    8    0    1
 -2       840       855       926      3617      3648      3649
 -1      1753    8    0    1
 -2       863       750       828      3646      3413      3645
 -1      1754    8    0    1
 -2       749       831       931      3402      3650      3651
 -1      1755    8    0    1
 -2       730       749       854      3054      3652      3420
 -1      1756    8    0    1
 -2       839       848       932      3415      3653      3654
 -1      1757    8    0    1
 -2       755       843       760      3348      3655      3629
 -1      1758    8    0    1
 -2       756       840       926      3341      3649      3656
 -1      1759    8    0    1
 -2       842       850       933      3368      3657      3658
 -1      1760    8    0    1
 -2       838       839       934      3383      3659      3660
 -1      1761    8    0    1
 -2       839       932       934      3654      3661      3659
 -1      1762    8    0    1
 -2       854       749       931      3652      3651      3643
 -1      1763    8    0    1
 -2       760       843       761      3655      3662      3105
 -1      1764    8    0    1
 -2       742       743       837      3429      3332      3663
 -1      1765    8    0    1
 -2       845       754       847      3647      3360      3664
 -1      1766    8    0    1
 -2       853       758       757      3434      3097      3665
 -1      1767    8    0    1
 -2       856       748       926      3388      3624      3666
 -1      1768    8    0    1
 -2       742       837       851      3663      3667      3404
 -1      1769    8    0    1
 -2       862       795       897      3638      3535      3668
 -1      1770    8    0    1
 -2       794       793       935      3205      3669      3670
 -1      1771    8    0    1
 -2       860       794       935      3408      3670      3671
 -1      1772    8    0    1
 -2       793       895       935      3529      3672      3669
 -1      1773    8    0    1
 -2       896       838       936      3532      3673      3674
 -1      1774    8    0    1
 -2       838       934       936      3660      3675      3673
 -1      1775    8    0    1
 -2       831       856       861      3387      3676      3677
 -1      1776    8    0    1
 -2       843       835       761      3392      3678      3662
 -1      1777    8    0    1
 -2       825       826       925      3304      3620      3679
 -1      1778    8    0    1
 -2       927       852       896      3625      3533      3680
 -1      1779    8    0    1
 -2       855       861       856      3425      3676      3681
 -1      1780    8    0    1
 -2       847       722       845      3361      3411      3664
 -1      1781    8    0    1
 -2       925       857       924      3621      3682      3683
 -1      1782    8    0    1
 -2       926       841       756      3623      3684      3656
 -1      1783    8    0    1
 -2       859       829       937      3400      3685      3686
 -1      1784    8    0    1
 -2       837       834       851      3333      3687      3667
 -1      1785    8    0    1
 -2       850       927       933      3626      3688      3657
 -1      1786    8    0    1
 -2       833       928       938      3628      3689      3690
 -1      1787    8    0    1
 -2       833       938       846      3690      3691      3357
 -1      1788    8    0    1
 -2       931       831       861      3650      3677      3642
 -1      1789    8    0    1
 -2       851       834       862      3687      3639      3427
 -1      1790    8    0    1
 -2       761       835       864      3678      3692      3436
 -1      1791    8    0    1
 -2       756       841       853      3684      3417      3693
 -1      1792    8    0    1
 -2       937       829       939      3685      3694      3695
 -1      1793    8    0    1
 -2       829       846       939      3356      3696      3694
 -1      1794    8    0    1
 -2       835       842       940      3414      3697      3698
 -1      1795    8    0    1
 -2       825       925       924      3679      3683      3613
 -1      1796    8    0    1
 -2       926       855       856      3648      3681      3666
 -1      1797    8    0    1
 -2       932       848       862      3653      3428      3699
 -1      1798    8    0    1
 -2       857       858       941      3395      3700      3701
 -1      1799    8    0    1
 -2       924       857       941      3682      3701      3702
 -1      1800    8    0    1
 -2       835       940       864      3698      3703      3692
 -1      1801    8    0    1
 -2       830       860       935      3407      3671      3704
 -1      1802    8    0    1
 -2       830       935       928      3704      3705      3627
 -1      1803    8    0    1
 -2       940       842       933      3697      3658      3706
 -1      1804    8    0    1
 -2       900       901       942      3546      3707      3708
 -1      1805    8    0    1
 -2       865       864       940      3440      3703      3709
 -1      1806    8    0    1
 -2       932       862       897      3699      3668      3710
 -1      1807    8    0    1
 -2       756       853       757      3693      3665      3094
 -1      1808    8    0    1
 -2       866       865       943      3443      3711      3712
 -1      1809    8    0    1
 -2       867       866       944      3446      3713      3714
 -1      1810    8    0    1
 -2       866       943       944      3712      3715      3713
 -1      1811    8    0    1
 -2       868       867       945      3449      3716      3717
 -1      1812    8    0    1
 -2       867       944       945      3714      3718      3716
 -1      1813    8    0    1
 -2       869       868       946      3452      3719      3720
 -1      1814    8    0    1
 -2       868       945       946      3717      3721      3719
 -1      1815    8    0    1
 -2       870       869       947      3455      3722      3723
 -1      1816    8    0    1
 -2       869       946       947      3720      3724      3722
 -1      1817    8    0    1
 -2       871       870       948      3458      3725      3726
 -1      1818    8    0    1
 -2       870       947       948      3723      3727      3725
 -1      1819    8    0    1
 -2       872       871       949      3461      3728      3729
 -1      1820    8    0    1
 -2       871       948       949      3726      3730      3728
 -1      1821    8    0    1
 -2       873       872       950      3464      3731      3732
 -1      1822    8    0    1
 -2       872       949       950      3729      3733      3731
 -1      1823    8    0    1
 -2       874       873       951      3467      3734      3735
 -1      1824    8    0    1
 -2       873       950       951      3732      3736      3734
 -1      1825    8    0    1
 -2       875       874       952      3470      3737      3738
 -1      1826    8    0    1
 -2       874       951       952      3735      3739      3737
 -1      1827    8    0    1
 -2       876       875       953      3473      3740      3741
 -1      1828    8    0    1
 -2       875       952       953      3738      3742      3740
 -1      1829    8    0    1
 -2       877       876       954      3476      3743      3744
 -1      1830    8    0    1
 -2       876       953       954      3741      3745      3743
 -1      1831    8    0    1
 -2       878       877       955      3479      3746      3747
 -1      1832    8    0    1
 -2       877       954       955      3744      3748      3746
 -1      1833    8    0    1
 -2       879       878       956      3482      3749      3750
 -1      1834    8    0    1
 -2       878       955       956      3747      3751      3749
 -1      1835    8    0    1
 -2       880       879       957      3485      3752      3753
 -1      1836    8    0    1
 -2       879       956       957      3750      3754      3752
 -1      1837    8    0    1
 -2       881       880       958      3488      3755      3756
 -1      1838    8    0    1
 -2       880       957       958      3753      3757      3755
 -1      1839    8    0    1
 -2       882       881       959      3491      3758      3759
 -1      1840    8    0    1
 -2       881       958       959      3756      3760      3758
 -1      1841    8    0    1
 -2       883       882       960      3494      3761      3762
 -1      1842    8    0    1
 -2       882       959       960      3759      3763      3761
 -1      1843    8    0    1
 -2       884       883       961      3497      3764      3765
 -1      1844    8    0    1
 -2       883       960       961      3762      3766      3764
 -1      1845    8    0    1
 -2       885       884       962      3500      3767      3768
 -1      1846    8    0    1
 -2       884       961       962      3765      3769      3767
 -1      1847    8    0    1
 -2       886       885       963      3503      3770      3771
 -1      1848    8    0    1
 -2       885       962       963      3768      3772      3770
 -1      1849    8    0    1
 -2       887       886       964      3506      3773      3774
 -1      1850    8    0    1
 -2       886       963       964      3771      3775      3773
 -1      1851    8    0    1
 -2       888       887       965      3509      3776      3777
 -1      1852    8    0    1
 -2       887       964       965      3774      3778      3776
 -1      1853    8    0    1
 -2       889       888       966      3512      3779      3780
 -1      1854    8    0    1
 -2       888       965       966      3777      3781      3779
 -1      1855    8    0    1
 -2       890       889       967      3515      3782      3783
 -1      1856    8    0    1
 -2       889       966       967      3780      3784      3782
 -1      1857    8    0    1
 -2       891       890       968      3518      3785      3786
 -1      1858    8    0    1
 -2       890       967       968      3783      3787      3785
 -1      1859    8    0    1
 -2       892       891       969      3521      3788      3789
 -1      1860    8    0    1
 -2       891       968       969      3786      3790      3788
 -1      1861    8    0    1
 -2       893       892       970      3524      3791      3792
 -1      1862    8    0    1
 -2       892       969       970      3789      3793      3791
 -1      1863    8    0    1
 -2       894       893       971      3527      3794      3795
 -1      1864    8    0    1
 -2       893       970       971      3792      3796      3794
 -1      1865    8    0    1
 -2       895       894       972      3530      3797      3798
 -1      1866    8    0    1
 -2       894       971       972      3795      3799      3797
 -1      1867    8    0    1
 -2       935       895       928      3672      3800      3705
 -1      1868    8    0    1
 -2       854       828       849      3633      3422      3421
 -1      1869    8    0    1
 -2       898       899       973      3540      3801      3802
 -1      1870    8    0    1
 -2       901       902       974      3549      3803      3804
 -1      1871    8    0    1
 -2       901       974       942      3804      3805      3707
 -1      1872    8    0    1
 -2       902       903       975      3552      3806      3807
 -1      1873    8    0    1
 -2       902       975       974      3807      3808      3803
 -1      1874    8    0    1
 -2       903       904       976      3555      3809      3810
 -1      1875    8    0    1
 -2       903       976       975      3810      3811      3806
 -1      1876    8    0    1
 -2       904       905       977      3558      3812      3813
 -1      1877    8    0    1
 -2       904       977       976      3813      3814      3809
 -1      1878    8    0    1
 -2       905       906       978      3561      3815      3816
 -1      1879    8    0    1
 -2       905       978       977      3816      3817      3812
 -1      1880    8    0    1
 -2       906       907       979      3564      3818      3819
 -1      1881    8    0    1
 -2       906       979       978      3819      3820      3815
 -1      1882    8    0    1
 -2       907       908       980      3567      3821      3822
 -1      1883    8    0    1
 -2       907       980       979      3822      3823      3818
 -1      1884    8    0    1
 -2       908       909       981      3570      3824      3825
 -1      1885    8    0    1
 -2       908       981       980      3825      3826      3821
 -1      1886    8    0    1
 -2       909       910       982      3573      3827      3828
 -1      1887    8    0    1
 -2       909       982       981      3828      3829      3824
 -1      1888    8    0    1
 -2       910       911       983      3576      3830      3831
 -1      1889    8    0    1
 -2       910       983       982      3831      3832      3827
 -1      1890    8    0    1
 -2       911       912       984      3579      3833      3834
 -1      1891    8    0    1
 -2       911       984       983      3834      3835      3830
 -1      1892    8    0    1
 -2       912       913       985      3582      3836      3837
 -1      1893    8    0    1
 -2       912       985       984      3837      3838      3833
 -1      1894    8    0    1
 -2       913       914       986      3585      3839      3840
 -1      1895    8    0    1
 -2       913       986       985      3840      3841      3836
 -1      1896    8    0    1
 -2       914       915       987      3588      3842      3843
 -1      1897    8    0    1
 -2       914       987       986      3843      3844      3839
 -1      1898    8    0    1
 -2       915       916       988      3591      3845      3846
 -1      1899    8    0    1
 -2       915       988       987      3846      3847      3842
 -1      1900    8    0    1
 -2       916       917       989      3594      3848      3849
 -1      1901    8    0    1
 -2       916       989       988      3849      3850      3845
 -1      1902    8    0    1
 -2       917       918       990      3597      3851      3852
 -1      1903    8    0    1
 -2       917       990       989      3852      3853      3848
 -1      1904    8    0    1
 -2       918       919       991      3600      3854      3855
 -1      1905    8    0    1
 -2       918       991       990      3855      3856      3851
 -1      1906    8    0    1
 -2       919       920       992      3603      3857      3858
 -1      1907    8    0    1
 -2       919       992       991      3858      3859      3854
 -1      1908    8    0    1
 -2       920       921       993      3606      3860      3861
 -1      1909    8    0    1
 -2       920       993       992      3861      3862      3857
 -1      1910    8    0    1
 -2       921       922       994      3609      3863      3864
 -1      1911    8    0    1
 -2       921       994       993      3864      3865      3860
 -1      1912    8    0    1
 -2       922       923       995      3612      3866      3867
 -1      1913    8    0    1
 -2       922       995       994      3867      3868      3863
 -1      1914    8    0    1
 -2       923       924       941      3615      3702      3869
 -1      1915    8    0    1
 -2       927       896       996      3680      3870      3871
 -1      1916    8    0    1
 -2       940       933       943      3706      3872      3873
 -1      1917    8    0    1
 -2       859       937       997      3686      3874      3875
 -1      1918    8    0    1
 -2       859       997       858      3875      3876      3399
 -1      1919    8    0    1
 -2       929       898       998      3632      3877      3878
 -1      1920    8    0    1
 -2       898       973       998      3802      3879      3877
 -1      1921    8    0    1
 -2       899       900       999      3543      3880      3881
 -1      1922    8    0    1
 -2       900       942       999      3708      3882      3880
 -1      1923    8    0    1
 -2       941       858       997      3700      3876      3883
 -1      1924    8    0    1
 -2       934       932      1000      3661      3884      3885
 -1      1925    8    0    1
 -2       933       927      1001      3688      3886      3887
 -1      1926    8    0    1
 -2       943       933      1001      3872      3887      3888
 -1      1927    8    0    1
 -2       927       996      1001      3871      3889      3886
 -1      1928    8    0    1
 -2       932       897      1002      3710      3890      3891
 -1      1929    8    0    1
 -2      1000       932      1002      3884      3891      3892
 -1      1930    8    0    1
 -2       897       930      1002      3636      3893      3890
 -1      1931    8    0    1
 -2       928       895       972      3800      3798      3894
 -1      1932    8    0    1
 -2       865       940       943      3709      3873      3711
 -1      1933    8    0    1
 -2       923       941       995      3869      3895      3866
 -1      1934    8    0    1
 -2       941       997      1003      3883      3896      3897
 -1      1935    8    0    1
 -2       941      1003       995      3897      3898      3895
 -1      1936    8    0    1
 -2       896       936      1004      3674      3899      3900
 -1      1937    8    0    1
 -2       896      1004       996      3900      3901      3870
 -1      1938    8    0    1
 -2       997       937      1005      3874      3902      3903
 -1      1939    8    0    1
 -2       997      1005      1003      3903      3904      3896
 -1      1940    8    0    1
 -2       939       846       938      3696      3691      3905
 -1      1941    8    0    1
 -2       934      1000      1006      3885      3906      3907
 -1      1942    8    0    1
 -2       934      1006       936      3907      3908      3675
 -1      1943    8    0    1
 -2       938       928       972      3689      3894      3909
 -1      1944    8    0    1
 -2       930       929      1007      3637      3910      3911
 -1      1945    8    0    1
 -2       929       998      1007      3878      3912      3910
 -1      1946    8    0    1
 -2       937       939      1008      3695      3913      3914
 -1      1947    8    0    1
 -2       937      1008      1005      3914      3915      3902
 -1      1948    8    0    1
 -2       973       899       999      3801      3881      3916
 -1      1949    8    0    1
 -2       944       943      1001      3715      3888      3917
 -1      1950    8    0    1
 -2       973       999      1009      3916      3918      3919
 -1      1951    8    0    1
 -2       945       944      1010      3718      3920      3921
 -1      1952    8    0    1
 -2       946       945      1011      3721      3922      3923
 -1      1953    8    0    1
 -2       945      1010      1011      3921      3924      3922
 -1      1954    8    0    1
 -2       947       946      1012      3724      3925      3926
 -1      1955    8    0    1
 -2       946      1011      1012      3923      3927      3925
 -1      1956    8    0    1
 -2       948       947      1013      3727      3928      3929
 -1      1957    8    0    1
 -2       947      1012      1013      3926      3930      3928
 -1      1958    8    0    1
 -2       949       948      1014      3730      3931      3932
 -1      1959    8    0    1
 -2       948      1013      1014      3929      3933      3931
 -1      1960    8    0    1
 -2       950       949      1015      3733      3934      3935
 -1      1961    8    0    1
 -2       949      1014      1015      3932      3936      3934
 -1      1962    8    0    1
 -2       951       950      1016      3736      3937      3938
 -1      1963    8    0    1
 -2       950      1015      1016      3935      3939      3937
 -1      1964    8    0    1
 -2       952       951      1017      3739      3940      3941
 -1      1965    8    0    1
 -2       951      1016      1017      3938      3942      3940
 -1      1966    8    0    1
 -2       953       952      1018      3742      3943      3944
 -1      1967    8    0    1
 -2       952      1017      1018      3941      3945      3943
 -1      1968    8    0    1
 -2       954       953      1019      3745      3946      3947
 -1      1969    8    0    1
 -2       953      1018      1019      3944      3948      3946
 -1      1970    8    0    1
 -2       955       954      1020      3748      3949      3950
 -1      1971    8    0    1
 -2       954      1019      1020      3947      3951      3949
 -1      1972    8    0    1
 -2       956       955      1021      3751      3952      3953
 -1      1973    8    0    1
 -2       955      1020      1021      3950      3954      3952
 -1      1974    8    0    1
 -2       957       956      1022      3754      3955      3956
 -1      1975    8    0    1
 -2       956      1021      1022      3953      3957      3955
 -1      1976    8    0    1
 -2       958       957      1023      3757      3958      3959
 -1      1977    8    0    1
 -2       957      1022      1023      3956      3960      3958
 -1      1978    8    0    1
 -2       959       958      1024      3760      3961      3962
 -1      1979    8    0    1
 -2       958      1023      1024      3959      3963      3961
 -1      1980    8    0    1
 -2       960       959      1025      3763      3964      3965
 -1      1981    8    0    1
 -2       959      1024      1025      3962      3966      3964
 -1      1982    8    0    1
 -2       961       960      1026      3766      3967      3968
 -1      1983    8    0    1
 -2       960      1025      1026      3965      3969      3967
 -1      1984    8    0    1
 -2       962       961      1027      3769      3970      3971
 -1      1985    8    0    1
 -2       961      1026      1027      3968      3972      3970
 -1      1986    8    0    1
 -2       963       962      1028      3772      3973      3974
 -1      1987    8    0    1
 -2       962      1027      1028      3971      3975      3973
 -1      1988    8    0    1
 -2       964       963      1029      3775      3976      3977
 -1      1989    8    0    1
 -2       963      1028      1029      3974      3978      3976
 -1      1990    8    0    1
 -2       965       964      1030      3778      3979      3980
 -1      1991    8    0    1
 -2       964      1029      1030      3977      3981      3979
 -1      1992    8    0    1
 -2       966       965      1031      3781      3982      3983
 -1      1993    8    0    1
 -2       965      1030      1031      3980      3984      3982
 -1      1994    8    0    1
 -2       967       966      1032      3784      3985      3986
 -1      1995    8    0    1
 -2       966      1031      1032      3983      3987      3985
 -1      1996    8    0    1
 -2       968       967      1033      3787      3988      3989
 -1      1997    8    0    1
 -2       967      1032      1033      3986      3990      3988
 -1      1998    8    0    1
 -2       969       968      1034      3790      3991      3992
 -1      1999    8    0    1
 -2       968      1033      1034      3989      3993      3991
 -1      2000    8    0    1
 -2       970       969      1035      3793      3994      3995
 -1      2001    8    0    1
 -2       969      1034      1035      3992      3996      3994
 -1      2002    8    0    1
 -2       971       970      1036      3796      3997      3998
 -1      2003    8    0    1
 -2       970      1035      1036      3995      3999      3997
 -1      2004    8    0    1
 -2       972       971      1037      3799      4000      4001
 -1      2005    8    0    1
 -2       971      1036      1037      3998      4002      4000
 -1      2006    8    0    1
 -2       975       976      1038      3811      4003      4004
 -1      2007    8    0    1
 -2       942       974      1039      3805      4005      4006
 -1      2008    8    0    1
 -2       976       977      1040      3814      4007      4008
 -1      2009    8    0    1
 -2       976      1040      1038      4008      4009      4003
 -1      2010    8    0    1
 -2       977       978      1041      3817      4010      4011
 -1      2011    8    0    1
 -2       977      1041      1040      4011      4012      4007
 -1      2012    8    0    1
 -2       978       979      1042      3820      4013      4014
 -1      2013    8    0    1
 -2       978      1042      1041      4014      4015      4010
 -1      2014    8    0    1
 -2       979       980      1043      3823      4016      4017
 -1      2015    8    0    1
 -2       979      1043      1042      4017      4018      4013
 -1      2016    8    0    1
 -2       980       981      1044      3826      4019      4020
 -1      2017    8    0    1
 -2       980      1044      1043      4020      4021      4016
 -1      2018    8    0    1
 -2       981       982      1045      3829      4022      4023
 -1      2019    8    0    1
 -2       981      1045      1044      4023      4024      4019
 -1      2020    8    0    1
 -2       982       983      1046      3832      4025      4026
 -1      2021    8    0    1
 -2       982      1046      1045      4026      4027      4022
 -1      2022    8    0    1
 -2       983       984      1047      3835      4028      4029
 -1      2023    8    0    1
 -2       983      1047      1046      4029      4030      4025
 -1      2024    8    0    1
 -2       984       985      1048      3838      4031      4032
 -1      2025    8    0    1
 -2       984      1048      1047      4032      4033      4028
 -1      2026    8    0    1
 -2       985       986      1049      3841      4034      4035
 -1      2027    8    0    1
 -2       985      1049      1048      4035      4036      4031
 -1      2028    8    0    1
 -2       986       987      1050      3844      4037      4038
 -1      2029    8    0    1
 -2       986      1050      1049      4038      4039      4034
 -1      2030    8    0    1
 -2       987       988      1051      3847      4040      4041
 -1      2031    8    0    1
 -2       987      1051      1050      4041      4042      4037
 -1      2032    8    0    1
 -2       988       989      1052      3850      4043      4044
 -1      2033    8    0    1
 -2       988      1052      1051      4044      4045      4040
 -1      2034    8    0    1
 -2       989       990      1053      3853      4046      4047
 -1      2035    8    0    1
 -2       989      1053      1052      4047      4048      4043
 -1      2036    8    0    1
 -2       990       991      1054      3856      4049      4050
 -1      2037    8    0    1
 -2       990      1054      1053      4050      4051      4046
 -1      2038    8    0    1
 -2       991       992      1055      3859      4052      4053
 -1      2039    8    0    1
 -2       991      1055      1054      4053      4054      4049
 -1      2040    8    0    1
 -2       992       993      1056      3862      4055      4056
 -1      2041    8    0    1
 -2       992      1056      1055      4056      4057      4052
 -1      2042    8    0    1
 -2       993       994      1057      3865      4058      4059
 -1      2043    8    0    1
 -2       993      1057      1056      4059      4060      4055
 -1      2044    8    0    1
 -2       994       995      1058      3868      4061      4062
 -1      2045    8    0    1
 -2      1057       994      1058      4058      4062      4063
 -1      2046    8    0    1
 -2       995      1003      1058      3898      4064      4061
 -1      2047    8    0    1
 -2       974       975      1059      3808      4065      4066
 -1      2048    8    0    1
 -2       975      1038      1059      4004      4067      4065
 -1      2049    8    0    1
 -2       938       972      1060      3909      4068      4069
 -1      2050    8    0    1
 -2       939       938      1060      3905      4069      4070
 -1      2051    8    0    1
 -2       972      1037      1060      4001      4071      4068
 -1      2052    8    0    1
 -2       998       973      1061      3879      4072      4073
 -1      2053    8    0    1
 -2       973      1009      1061      3919      4074      4072
 -1      2054    8    0    1
 -2       999       942      1062      3882      4075      4076
 -1      2055    8    0    1
 -2       942      1039      1062      4006      4077      4075
 -1      2056    8    0    1
 -2      1009       999      1062      3918      4076      4078
 -1      2057    8    0    1
 -2      1004       936      1063      3899      4079      4080
 -1      2058    8    0    1
 -2       936      1006      1063      3908      4081      4079
 -1      2059    8    0    1
 -2       939      1060      1008      4070      4082      3913
 -1      2060    8    0    1
 -2       998      1061      1064      4073      4083      4084
 -1      2061    8    0    1
 -2       998      1064      1007      4084      4085      3912
 -1      2062    8    0    1
 -2       974      1059      1039      4066      4086      4005
 -1      2063    8    0    1
 -2      1002       930      1007      3893      3911      4087
 -1      2064    8    0    1
 -2      1003      1005      1065      3904      4088      4089
 -1      2065    8    0    1
 -2      1003      1065      1058      4089      4090      4064
 -1      2066    8    0    1
 -2       996      1004      1010      3901      4091      4092
 -1      2067    8    0    1
 -2      1001       996      1010      3889      4092      4093
 -1      2068    8    0    1
 -2      1005      1008      1066      3915      4094      4095
 -1      2069    8    0    1
 -2      1005      1066      1065      4095      4096      4088
 -1      2070    8    0    1
 -2      1000      1002      1067      3892      4097      4098
 -1      2071    8    0    1
 -2      1006      1000      1067      3906      4098      4099
 -1      2072    8    0    1
 -2      1002      1007      1067      4087      4100      4097
 -1      2073    8    0    1
 -2      1010       944      1001      3920      3917      4093
 -1      2074    8    0    1
 -2      1012      1011      1068      3927      4101      4102
 -1      2075    8    0    1
 -2      1013      1012      1069      3930      4103      4104
 -1      2076    8    0    1
 -2      1012      1068      1069      4102      4105      4103
 -1      2077    8    0    1
 -2      1014      1013      1070      3933      4106      4107
 -1      2078    8    0    1
 -2      1013      1069      1070      4104      4108      4106
 -1      2079    8    0    1
 -2      1015      1014      1071      3936      4109      4110
 -1      2080    8    0    1
 -2      1014      1070      1071      4107      4111      4109
 -1      2081    8    0    1
 -2      1016      1015      1072      3939      4112      4113
 -1      2082    8    0    1
 -2      1015      1071      1072      4110      4114      4112
 -1      2083    8    0    1
 -2      1017      1016      1073      3942      4115      4116
 -1      2084    8    0    1
 -2      1016      1072      1073      4113      4117      4115
 -1      2085    8    0    1
 -2      1018      1017      1074      3945      4118      4119
 -1      2086    8    0    1
 -2      1017      1073      1074      4116      4120      4118
 -1      2087    8    0    1
 -2      1019      1018      1075      3948      4121      4122
 -1      2088    8    0    1
 -2      1018      1074      1075      4119      4123      4121
 -1      2089    8    0    1
 -2      1020      1019      1076      3951      4124      4125
 -1      2090    8    0    1
 -2      1019      1075      1076      4122      4126      4124
 -1      2091    8    0    1
 -2      1021      1020      1077      3954      4127      4128
 -1      2092    8    0    1
 -2      1020      1076      1077      4125      4129      4127
 -1      2093    8    0    1
 -2      1022      1021      1078      3957      4130      4131
 -1      2094    8    0    1
 -2      1021      1077      1078      4128      4132      4130
 -1      2095    8    0    1
 -2      1023      1022      1079      3960      4133      4134
 -1      2096    8    0    1
 -2      1022      1078      1079      4131      4135      4133
 -1      2097    8    0    1
 -2      1024      1023      1080      3963      4136      4137
 -1      2098    8    0    1
 -2      1023      1079      1080      4134      4138      4136
 -1      2099    8    0    1
 -2      1025      1024      1081      3966      4139      4140
 -1      2100    8    0    1
 -2      1024      1080      1081      4137      4141      4139
 -1      2101    8    0    1
 -2      1026      1025      1082      3969      4142      4143
 -1      2102    8    0    1
 -2      1025      1081      1082      4140      4144      4142
 -1      2103    8    0    1
 -2      1027      1026      1083      3972      4145      4146
 -1      2104    8    0    1
 -2      1026      1082      1083      4143      4147      4145
 -1      2105    8    0    1
 -2      1028      1027      1084      3975      4148      4149
 -1      2106    8    0    1
 -2      1027      1083      1084      4146      4150      4148
 -1      2107    8    0    1
 -2      1029      1028      1085      3978      4151      4152
 -1      2108    8    0    1
 -2      1028      1084      1085      4149      4153      4151
 -1      2109    8    0    1
 -2      1030      1029      1086      3981      4154      4155
 -1      2110    8    0    1
 -2      1029      1085      1086      4152      4156      4154
 -1      2111    8    0    1
 -2      1031      1030      1087      3984      4157      4158
 -1      2112    8    0    1
 -2      1030      1086      1087      4155      4159      4157
 -1      2113    8    0    1
 -2      1032      1031      1088      3987      4160      4161
 -1      2114    8    0    1
 -2      1031      1087      1088      4158      4162      4160
 -1      2115    8    0    1
 -2      1033      1032      1089      3990      4163      4164
 -1      2116    8    0    1
 -2      1032      1088      1089      4161      4165      4163
 -1      2117    8    0    1
 -2      1034      1033      1090      3993      4166      4167
 -1      2118    8    0    1
 -2      1033      1089      1090      4164      4168      4166
 -1      2119    8    0    1
 -2      1035      1034      1091      3996      4169      4170
 -1      2120    8    0    1
 -2      1034      1090      1091      4167      4171      4169
 -1      2121    8    0    1
 -2      1036      1035      1092      3999      4172      4173
 -1      2122    8    0    1
 -2      1035      1091      1092      4170      4174      4172
 -1      2123    8    0    1
 -2      1037      1036      1066      4002      4175      4176
 -1      2124    8    0    1
 -2      1040      1041      1093      4012      4177      4178
 -1      2125    8    0    1
 -2      1041      1042      1094      4015      4179      4180
 -1      2126    8    0    1
 -2      1041      1094      1093      4180      4181      4177
 -1      2127    8    0    1
 -2      1009      1062      1095      4078      4182      4183
 -1      2128    8    0    1
 -2      1038      1040      1096      4009      4184      4185
 -1      2129    8    0    1
 -2      1040      1093      1096      4178      4186      4184
 -1      2130    8    0    1
 -2      1042      1043      1097      4018      4187      4188
 -1      2131    8    0    1
 -2      1042      1097      1094      4188      4189      4179
 -1      2132    8    0    1
 -2      1043      1044      1098      4021      4190      4191
 -1      2133    8    0    1
 -2      1043      1098      1097      4191      4192      4187
 -1      2134    8    0    1
 -2      1044      1045      1099      4024      4193      4194
 -1      2135    8    0    1
 -2      1044      1099      1098      4194      4195      4190
 -1      2136    8    0    1
 -2      1045      1046      1100      4027      4196      4197
 -1      2137    8    0    1
 -2      1045      1100      1099      4197      4198      4193
 -1      2138    8    0    1
 -2      1046      1047      1101      4030      4199      4200
 -1      2139    8    0    1
 -2      1046      1101      1100      4200      4201      4196
 -1      2140    8    0    1
 -2      1047      1048      1102      4033      4202      4203
 -1      2141    8    0    1
 -2      1047      1102      1101      4203      4204      4199
 -1      2142    8    0    1
 -2      1048      1049      1103      4036      4205      4206
 -1      2143    8    0    1
 -2      1048      1103      1102      4206      4207      4202
 -1      2144    8    0    1
 -2      1049      1050      1104      4039      4208      4209
 -1      2145    8    0    1
 -2      1049      1104      1103      4209      4210      4205
 -1      2146    8    0    1
 -2      1050      1051      1105      4042      4211      4212
 -1      2147    8    0    1
 -2      1050      1105      1104      4212      4213      4208
 -1      2148    8    0    1
 -2      1051      1052      1106      4045      4214      4215
 -1      2149    8    0    1
 -2      1051      1106      1105      4215      4216      4211
 -1      2150    8    0    1
 -2      1052      1053      1107      4048      4217      4218
 -1      2151    8    0    1
 -2      1052      1107      1106      4218      4219      4214
 -1      2152    8    0    1
 -2      1053      1054      1108      4051      4220      4221
 -1      2153    8    0    1
 -2      1053      1108      1107      4221      4222      4217
 -1      2154    8    0    1
 -2      1054      1055      1109      4054      4223      4224
 -1      2155    8    0    1
 -2      1054      1109      1108      4224      4225      4220
 -1      2156    8    0    1
 -2      1055      1056      1110      4057      4226      4227
 -1      2157    8    0    1
 -2      1055      1110      1109      4227      4228      4223
 -1      2158    8    0    1
 -2      1056      1057      1111      4060      4229      4230
 -1      2159    8    0    1
 -2      1056      1111      1110      4230      4231      4226
 -1      2160    8    0    1
 -2      1059      1038      1112      4067      4232      4233
 -1      2161    8    0    1
 -2      1038      1096      1112      4185      4234      4232
 -1      2162    8    0    1
 -2      1061      1009      1113      4074      4235      4236
 -1      2163    8    0    1
 -2      1009      1095      1113      4183      4237      4235
 -1      2164    8    0    1
 -2      1010      1004      1114      4091      4238      4239
 -1      2165    8    0    1
 -2      1011      1010      1114      3924      4239      4240
 -1      2166    8    0    1
 -2      1004      1063      1114      4080      4241      4238
 -1      2167    8    0    1
 -2      1060      1037      1008      4071      4242      4082
 -1      2168    8    0    1
 -2      1039      1059      1115      4086      4243      4244
 -1      2169    8    0    1
 -2      1059      1112      1115      4233      4245      4243
 -1      2170    8    0    1
 -2      1062      1039      1116      4077      4246      4247
 -1      2171    8    0    1
 -2      1039      1115      1116      4244      4248      4246
 -1      2172    8    0    1
 -2      1008      1037      1066      4242      4176      4094
 -1      2173    8    0    1
 -2      1063      1006      1117      4081      4249      4250
 -1      2174    8    0    1
 -2      1006      1067      1117      4099      4251      4249
 -1      2175    8    0    1
 -2      1064      1061      1118      4083      4252      4253
 -1      2176    8    0    1
 -2      1061      1113      1118      4236      4254      4252
 -1      2177    8    0    1
 -2      1066      1036      1092      4175      4173      4255
 -1      2178    8    0    1
 -2      1095      1062      1116      4182      4247      4256
 -1      2179    8    0    1
 -2      1057      1058      1119      4063      4257      4258
 -1      2180    8    0    1
 -2      1111      1057      1119      4229      4258      4259
 -1      2181    8    0    1
 -2      1058      1065      1119      4090      4260      4257
 -1      2182    8    0    1
 -2      1065      1066      1120      4096      4261      4262
 -1      2183    8    0    1
 -2      1119      1065      1120      4260      4262      4263
 -1      2184    8    0    1
 -2      1066      1092      1120      4255      4264      4261
 -1      2185    8    0    1
 -2      1011      1114      1068      4240      4265      4101
 -1      2186    8    0    1
 -2      1007      1064      1067      4085      4266      4100
 -1      2187    8    0    1
 -2      1070      1069      1121      4108      4267      4268
 -1      2188    8    0    1
 -2      1071      1070      1095      4111      4269      4270
 -1      2189    8    0    1
 -2      1072      1071      1116      4114      4271      4272
 -1      2190    8    0    1
 -2      1073      1072      1115      4117      4273      4274
 -1      2191    8    0    1
 -2      1074      1073      1112      4120      4275      4276
 -1      2192    8    0    1
 -2      1075      1074      1096      4123      4277      4278
 -1      2193    8    0    1
 -2      1076      1075      1093      4126      4279      4280
 -1      2194    8    0    1
 -2      1077      1076      1094      4129      4281      4282
 -1      2195    8    0    1
 -2      1078      1077      1097      4132      4283      4284
 -1      2196    8    0    1
 -2      1079      1078      1098      4135      4285      4286
 -1      2197    8    0    1
 -2      1080      1079      1099      4138      4287      4288
 -1      2198    8    0    1
 -2      1081      1080      1100      4141      4289      4290
 -1      2199    8    0    1
 -2      1082      1081      1101      4144      4291      4292
 -1      2200    8    0    1
 -2      1083      1082      1102      4147      4293      4294
 -1      2201    8    0    1
 -2      1084      1083      1103      4150      4295      4296
 -1      2202    8    0    1
 -2      1085      1084      1104      4153      4297      4298
 -1      2203    8    0    1
 -2      1086      1085      1105      4156      4299      4300
 -1      2204    8    0    1
 -2      1087      1086      1106      4159      4301      4302
 -1      2205    8    0    1
 -2      1088      1087      1107      4162      4303      4304
 -1      2206    8    0    1
 -2      1089      1088      1108      4165      4305      4306
 -1      2207    8    0    1
 -2      1090      1089      1109      4168      4307      4308
 -1      2208    8    0    1
 -2      1091      1090      1110      4171      4309      4310
 -1      2209    8    0    1
 -2      1096      1074      1112      4277      4276      4234
 -1      2210    8    0    1
 -2      1094      1097      1077      4189      4283      4282
 -1      2211    8    0    1
 -2      1093      1094      1076      4181      4281      4280
 -1      2212    8    0    1
 -2      1116      1071      1095      4271      4270      4256
 -1      2213    8    0    1
 -2      1098      1099      1079      4195      4287      4286
 -1      2214    8    0    1
 -2      1099      1100      1080      4198      4289      4288
 -1      2215    8    0    1
 -2      1100      1101      1081      4201      4291      4290
 -1      2216    8    0    1
 -2      1101      1102      1082      4204      4293      4292
 -1      2217    8    0    1
 -2      1102      1103      1083      4207      4295      4294
 -1      2218    8    0    1
 -2      1103      1104      1084      4210      4297      4296
 -1      2219    8    0    1
 -2      1104      1105      1085      4213      4299      4298
 -1      2220    8    0    1
 -2      1105      1106      1086      4216      4301      4300
 -1      2221    8    0    1
 -2      1106      1107      1087      4219      4303      4302
 -1      2222    8    0    1
 -2      1107      1108      1088      4222      4305      4304
 -1      2223    8    0    1
 -2      1108      1109      1089      4225      4307      4306
 -1      2224    8    0    1
 -2      1109      1110      1090      4228      4309      4308
 -1      2225    8    0    1
 -2      1110      1111      1091      4231      4311      4310
 -1      2226    8    0    1
 -2      1111      1119      1120      4259      4263      4312
 -1      2227    8    0    1
 -2      1112      1073      1115      4275      4274      4245
 -1      2228    8    0    1
 -2      1115      1072      1116      4273      4272      4248
 -1      2229    8    0    1
 -2      1114      1063      1122      4241      4313      4314
 -1      2230    8    0    1
 -2      1068      1114      1122      4265      4314      4315
 -1      2231    8    0    1
 -2      1063      1117      1122      4250      4316      4313
 -1      2232    8    0    1
 -2      1097      1098      1078      4192      4285      4284
 -1      2233    8    0    1
 -2      1096      1093      1075      4186      4279      4278
 -1      2234    8    0    1
 -2      1069      1068      1123      4105      4317      4318
 -1      2235    8    0    1
 -2      1121      1069      1123      4267      4318      4319
 -1      2236    8    0    1
 -2      1068      1122      1123      4315      4320      4317
 -1      2237    8    0    1
 -2      1067      1064      1117      4266      4321      4251
 -1      2238    8    0    1
 -2      1118      1113      1121      4254      4322      4323
 -1      2239    8    0    1
 -2      1091      1111      1120      4311      4312      4324
 -1      2240    8    0    1
 -2      1092      1091      1120      4174      4324      4264
 -1      2241    8    0    1
 -2      1113      1095      1070      4237      4269      4325
 -1      2242    8    0    1
 -2      1064      1118      1117      4253      4326      4321
 -1      2243    8    0    1
 -2      1118      1121      1123      4323      4319      4327
 -1      2244    8    0    1
 -2      1122      1117      1118      4316      4326      4328
 -1      2245    8    0    1
 -2      1122      1118      1123      4328      4327      4320
 -1      2246    8    0    1
 -2      1113      1070      1121      4325      4268      4322
 -3
    1PSTEP                         1           1           1          
  100CL  101 1.000000000        4328                     0    1           1
 -4  DISP        4    1
 -5  D1          1    2    1    0
 -5  D2          1    2    2    0
 -5  D3          1    2    3    0
 -5  ALL         1    2    0    0    1ALL
 -1         1 3.05654E-03-5.05342E-04-5.00529E-15
 -1         2 5.32493E-03 3.48411E-04-7.79390E-15
 -1         3 1.56537E-02 2.87886E-03-1.14095E-13
 -1         4 1.47675E-02 1.44992E-03-1.16226E-13
 -1         5 0.00000E+00 0.00000E+00 0.00000E+00
 -1         6 0.00000E+00 0.00000E+00 0.00000E+00
 -1         7 0.00000E+00 0.00000E+00 0.00000E+00
 -1         8 0.00000E+00 0.00000E+00 0.00000E+00
 -1         9 0.00000E+00 0.00000E+00 0.00000E+00
 -1        10 0.00000E+00 0.00000E+00 0.00000E+00
 -1        11 0.00000E+00 0.00000E+00 0.00000E+00
 -1        12 0.00000E+00 0.00000E+00 0.00000E+00
 -1        13 0.00000E+00 0.00000E+00 0.00000E+00
 -1        14 0.00000E+00 0.00000E+00 0.00000E+00
 -1        15 0.00000E+00 0.00000E+00 0.00000E+00
 -1        16 0.00000E+00 0.00000E+00 0.00000E+00
 -1        17 0.00000E+00 0.00000E+00 0.00000E+00
 -1        18 0.00000E+00 0.00000E+00 0.00000E+00
 -1        19 0.00000E+00 0.00000E+00 0.00000E+00
 -1        20 0.00000E+00 0.00000E+00 0.00000E+00
 -1        21 0.00000E+00 0.00000E+00 0.00000E+00
 -1        22 0.00000E+00 0.00000E+00 0.00000E+00
 -1        23 4.67020E-04-2.77166E-04 2.83519E-17
 -1        24 8.13552E-04-4.29231E-04-8.16201E-17
 -1        25 1.14057E-03-5.50497E-04-3.25084E-16
 -1        26 1.45874E-03-6.57696E-04-7.00276E-16
 -1        27 1.76640E-03-7.57602E-04-1.20713E-15
 -1        28 2.05977E-03-8.48717E-04-1.84727E-15
 -1        29 2.33604E-03-9.23883E-04-2.62017E-15
 -1        30 2.59584E-03-9.72841E-04-3.53020E-15
 -1        31 2.84459E-03-9.86062E-04-4.57806E-15
 -1        32 3.09153E-03-9.58900E-04-5.75980E-15
 -1        33 3.34681E-03-8.94048E-04-7.06760E-15
 -1        34 3.61794E-03-8.00861E-04-8.49386E-15
 -1        35 3.90765E-03-6.92033E-04-1.00389E-14
 -1        36 4.21399E-03-5.79682E-04-1.16969E-14
 -1        37 4.53210E-03-4.72697E-04-1.34622E-14
 -1        38 4.85630E-03-3.75959E-04-1.53280E-14
 -1        39 5.18164E-03-2.90956E-04-1.72866E-14
 -1        40 5.50458E-03-2.16935E-04-1.93403E-14
 -1        41 5.82306E-03-1.52016E-04-2.14867E-14
 -1        42 6.13621E-03-9.39846E-05-2.37274E-14
 -1        43 6.44398E-03-4.07584E-05-2.60544E-14
 -1        44 6.74681E-03 9.40167E-06-2.84684E-14
 -1        45 7.04538E-03 5.78345E-05-3.09684E-14
 -1        46 7.34044E-03 1.05505E-04-3.35535E-14
 -1        47 7.63270E-03 1.53064E-04-3.62041E-14
 -1        48 7.92281E-03 2.00922E-04-3.89099E-14
 -1        49 8.21133E-03 2.49308E-04-4.16689E-14
 -1        50 8.49868E-03 2.98327E-04-4.44895E-14
 -1        51 8.78521E-03 3.47999E-04-4.73815E-14
 -1        52 9.07120E-03 3.98294E-04-5.03366E-14
 -1        53 9.35684E-03 4.49152E-04-5.33343E-14
 -1        54 9.64227E-03 5.00501E-04-5.63620E-14
 -1        55 9.92760E-03 5.52263E-04-5.94293E-14
 -1        56 1.02129E-02 6.04367E-04-6.25314E-14
 -1        57 1.04982E-02 6.56745E-04-6.56768E-14
 -1        58 1.07835E-02 7.09341E-04-6.88506E-14
 -1        59 1.10688E-02 7.62104E-04-7.20497E-14
 -1        60 1.13543E-02 8.14994E-04-7.52864E-14
 -1        61 1.16397E-02 8.67979E-04-7.85500E-14
 -1        62 1.19252E-02 9.21033E-04-8.18516E-14
 -1        63 1.22108E-02 9.74136E-04-8.52081E-14
 -1        64 1.24964E-02 1.02727E-03-8.86007E-14
 -1        65 1.27820E-02 1.08043E-03-9.20208E-14
 -1        66 1.30676E-02 1.13360E-03-9.54541E-14
 -1        67 1.33533E-02 1.18677E-03-9.89045E-14
 -1        68 1.36390E-02 1.23994E-03-1.02369E-13
 -1        69 1.39247E-02 1.29311E-03-1.05855E-13
 -1        70 1.42104E-02 1.34627E-03-1.09350E-13
 -1        71 1.44961E-02 1.39943E-03-1.12861E-13
 -1        72 4.93610E-04 2.66304E-04 4.97107E-17
 -1        73 8.79625E-04 4.12520E-04-1.61749E-17
 -1        74 1.26316E-03 5.42136E-04-1.95062E-16
 -1        75 1.64952E-03 6.82170E-04-4.88365E-16
 -1        76 2.03327E-03 8.44381E-04-9.00260E-16
 -1        77 2.40153E-03 1.02898E-03-1.43336E-15
 -1        78 2.73834E-03 1.22047E-03-2.09408E-15
 -1        79 3.03393E-03 1.38689E-03-2.89067E-15
 -1        80 3.29537E-03 1.49062E-03-3.82473E-15
 -1        81 3.54823E-03 1.50901E-03-4.90295E-15
 -1        82 3.82351E-03 1.45009E-03-6.11726E-15
 -1        83 4.13917E-03 1.34754E-03-7.46374E-15
 -1        84 4.49321E-03 1.24035E-03-8.93581E-15
 -1        85 4.87066E-03 1.15587E-03-1.05279E-14
 -1        86 5.25450E-03 1.10532E-03-1.22436E-14
 -1        87 5.63225E-03 1.08812E-03-1.40778E-14
 -1        88 5.99737E-03 1.09815E-03-1.60218E-14
 -1        89 6.34785E-03 1.12806E-03-1.80633E-14
 -1        90 6.68436E-03 1.17139E-03-2.02037E-14
 -1        91 7.00874E-03 1.22319E-03-2.24369E-14
 -1        92 7.32319E-03 1.27993E-03-2.47579E-14
 -1        93 7.62981E-03 1.33926E-03-2.71587E-14
 -1        94 7.93040E-03 1.39964E-03-2.96451E-14
 -1        95 8.22645E-03 1.46014E-03-3.22055E-14
 -1        96 8.51914E-03 1.52021E-03-3.48353E-14
 -1        97 8.80938E-03 1.57958E-03-3.75266E-14
 -1        98 9.09788E-03 1.63811E-03-4.02755E-14
 -1        99 9.38517E-03 1.69580E-03-4.30785E-14
 -1       100 9.67163E-03 1.75270E-03-4.59357E-14
 -1       101 9.95755E-03 1.80888E-03-4.88501E-14
 -1       102 1.02431E-02 1.86444E-03-5.18071E-14
 -1       103 1.05285E-02 1.91948E-03-5.47995E-14
 -1       104 1.08138E-02 1.97408E-03-5.78407E-14
 -1       105 1.10991E-02 2.02833E-03-6.09410E-14
 -1       106 1.13843E-02 2.08229E-03-6.40892E-14
 -1       107 1.16696E-02 2.13604E-03-6.72790E-14
 -1       108 1.19550E-02 2.18961E-03-7.05043E-14
 -1       109 1.22404E-02 2.24306E-03-7.37802E-14
 -1       110 1.25259E-02 2.29641E-03-7.70953E-14
 -1       111 1.28114E-02 2.34969E-03-8.04314E-14
 -1       112 1.30969E-02 2.40293E-03-8.37916E-14
 -1       113 1.33825E-02 2.45613E-03-8.71531E-14
 -1       114 1.36681E-02 2.50931E-03-9.05146E-14
 -1       115 1.39538E-02 2.56248E-03-9.38659E-14
 -1       116 1.42394E-02 2.61564E-03-9.72344E-14
 -1       117 1.45251E-02 2.66881E-03-1.00607E-13
 -1       118 1.48108E-02 2.72198E-03-1.04007E-13
 -1       119 1.50965E-02 2.77515E-03-1.07422E-13
 -1       120 1.53823E-02 2.82833E-03-1.10847E-13
 -1       121 1.56014E-02 2.79458E-03-1.14251E-13
 -1       122 1.55491E-02 2.71029E-03-1.14418E-13
 -1       123 1.54968E-02 2.62600E-03-1.14592E-13
 -1       124 1.54444E-02 2.54170E-03-1.14749E-13
 -1       125 1.53921E-02 2.45739E-03-1.14896E-13
 -1       126 1.53407E-02 2.37450E-03-1.15045E-13
 -1       127 1.52884E-02 2.29018E-03-1.15195E-13
 -1       128 1.52361E-02 2.20584E-03-1.15323E-13
 -1       129 1.51838E-02 2.12151E-03-1.15429E-13
 -1       130 1.51315E-02 2.03718E-03-1.15514E-13
 -1       131 1.50793E-02 1.95285E-03-1.15604E-13
 -1       132 1.50279E-02 1.86996E-03-1.15712E-13
 -1       133 1.49757E-02 1.78565E-03-1.15823E-13
 -1       134 1.49234E-02 1.70135E-03-1.15932E-13
 -1       135 1.48712E-02 1.61706E-03-1.16049E-13
 -1       136 1.48189E-02 1.53277E-03-1.16145E-13
 -1       137 5.29916E-03 5.12689E-04-7.68899E-15
 -1       138 5.18663E-03 6.65818E-04-7.46365E-15
 -1       139 4.96520E-03 8.21954E-04-7.08615E-15
 -1       140 4.67225E-03 9.49103E-04-6.63663E-15
 -1       141 4.27235E-03 1.05918E-03-6.06463E-15
 -1       142 3.85868E-03 1.12149E-03-5.52252E-15
 -1       143 3.37747E-03 1.14481E-03-4.93129E-15
 -1       144 2.92240E-03 1.12203E-03-4.41394E-15
 -1       145 2.46381E-03 1.05580E-03-3.92494E-15
 -1       146 2.02785E-03 9.49814E-04-3.48753E-15
 -1       147 1.64558E-03 8.15006E-04-3.12523E-15
 -1       148 1.33053E-03 6.59194E-04-2.84082E-15
 -1       149 1.09460E-03 4.89615E-04-2.63825E-15
 -1       150 9.61320E-04 3.19124E-04-2.53430E-15
 -1       151 9.31393E-04 1.63494E-04-2.52905E-15
 -1       152 9.99575E-04 8.94233E-06-2.62117E-15
 -1       153 1.15169E-03-1.25903E-04-2.79658E-15
 -1       154 1.42157E-03-2.62236E-04-3.09800E-15
 -1       155 1.74692E-03-3.66584E-04-3.46140E-15
 -1       156 2.15527E-03-4.49716E-04-3.92899E-15
 -1       157 2.59162E-03-4.95469E-04-4.44077E-15
 -1       158 3.47759E-03-4.81190E-04-5.52774E-15
 -1       159 3.88325E-03-4.26984E-04-6.04225E-15
 -1       160 4.25743E-03-3.46360E-04-6.52299E-15
 -1       161 4.61475E-03-2.33384E-04-6.98504E-15
 -1       162 4.89483E-03-1.08114E-04-7.33888E-15
 -1       163 5.11361E-03 3.37581E-05-7.60335E-15
 -1       164 5.26413E-03 1.92627E-04-7.76565E-15
 -1       165 2.73187E-04-1.21381E-04-2.70983E-17
 -1       166 2.50382E-04-8.11280E-05-4.39102E-17
 -1       167 2.36241E-04-5.02411E-05-5.25533E-17
 -1       168 2.23032E-04-2.39373E-05-5.70561E-17
 -1       169 2.08867E-04-2.27847E-06-5.93330E-17
 -1       170 1.93101E-04 1.39723E-05-6.04714E-17
 -1       171 1.77729E-04 2.26628E-05-6.10338E-17
 -1       172 1.66003E-04 2.34342E-05-6.12235E-17
 -1       173 1.61501E-04 1.84186E-05-6.04070E-17
 -1       174 1.66437E-04 1.20970E-05-5.86316E-17
 -1       175 1.80221E-04 9.71526E-06-5.57517E-17
 -1       176 2.01021E-04 1.52480E-05-5.09507E-17
 -1       177 2.25884E-04 3.10031E-05-4.35612E-17
 -1       178 2.53623E-04 5.84755E-05-3.17603E-17
 -1       179 2.87486E-04 1.02162E-04-1.19533E-17
 -1       180 3.64939E-04 1.73018E-04 8.84980E-18
 -1       181 5.38777E-04-2.71174E-04-7.54740E-17
 -1       182 8.85529E-04-4.06551E-04-2.74666E-16
 -1       183 1.21680E-03-5.21303E-04-5.98808E-16
 -1       184 1.53763E-03-6.27197E-04-1.05006E-15
 -1       185 1.84821E-03-7.26619E-04-1.62988E-15
 -1       186 2.14760E-03-8.14862E-04-2.34069E-15
 -1       187 2.43566E-03-8.82098E-04-3.18464E-15
 -1       188 2.71451E-03-9.16796E-04-4.16414E-15
 -1       189 2.98887E-03-9.10459E-04-5.27734E-15
 -1       190 3.26496E-03-8.61764E-04-6.52070E-15
 -1       191 3.54835E-03-7.77693E-04-7.88693E-15
 -1       192 3.84209E-03-6.70949E-04-9.37127E-15
 -1       193 4.14620E-03-5.55458E-04-1.09728E-14
 -1       194 4.45835E-03-4.42543E-04-1.26826E-14
 -1       195 4.77519E-03-3.39192E-04-1.44967E-14
 -1       196 5.09342E-03-2.48253E-04-1.64075E-14
 -1       197 5.41043E-03-1.69611E-04-1.84114E-14
 -1       198 5.72451E-03-1.01509E-04-2.05082E-14
 -1       199 6.03475E-03-4.15709E-05-2.26973E-14
 -1       200 6.34088E-03 1.25627E-05-2.49749E-14
 -1       201 6.64303E-03 6.29176E-05-2.73396E-14
 -1       202 6.94160E-03 1.11082E-04-2.97894E-14
 -1       203 7.23709E-03 1.58216E-04-3.23264E-14
 -1       204 7.53004E-03 2.05111E-04-3.49366E-14
 -1       205 7.82095E-03 2.52274E-04-3.76081E-14
 -1       206 8.11028E-03 2.99994E-04-4.03385E-14
 -1       207 8.39839E-03 3.48408E-04-4.31229E-14
 -1       208 8.68562E-03 3.97555E-04-4.59757E-14
 -1       209 8.97221E-03 4.47407E-04-4.88904E-14
 -1       210 9.25835E-03 4.97903E-04-5.18593E-14
 -1       211 9.54419E-03 5.48960E-04-5.48644E-14
 -1       212 9.82985E-03 6.00494E-04-5.79028E-14
 -1       213 1.01154E-02 6.52421E-04-6.09808E-14
 -1       214 1.04009E-02 7.04667E-04-6.40977E-14
 -1       215 1.06864E-02 7.57164E-04-6.72551E-14
 -1       216 1.09718E-02 8.09856E-04-7.04437E-14
 -1       217 1.12573E-02 8.62697E-04-7.36627E-14
 -1       218 1.15428E-02 9.15649E-04-7.69101E-14
 -1       219 1.18284E-02 9.68681E-04-8.01895E-14
 -1       220 1.21140E-02 1.02177E-03-8.35113E-14
 -1       221 1.23996E-02 1.07490E-03-8.68747E-14
 -1       222 1.26852E-02 1.12805E-03-9.02680E-14
 -1       223 1.29708E-02 1.18122E-03-9.36818E-14
 -1       224 1.32565E-02 1.23440E-03-9.71179E-14
 -1       225 1.35422E-02 1.28758E-03-1.00570E-13
 -1       226 1.38279E-02 1.34075E-03-1.04042E-13
 -1       227 1.41136E-02 1.39392E-03-1.07530E-13
 -1       228 1.43993E-02 1.44708E-03-1.11032E-13
 -1       229 7.52932E-04 3.17266E-04-7.38477E-17
 -1       230 1.13201E-03 4.46589E-04-2.62689E-16
 -1       231 1.50753E-03 5.84730E-04-5.61535E-16
 -1       232 1.88009E-03 7.45780E-04-9.75487E-16
 -1       233 2.24463E-03 9.32521E-04-1.50856E-15
 -1       234 2.59313E-03 1.13136E-03-2.16874E-15
 -1       235 2.91954E-03 1.30969E-03-2.96105E-15
 -1       236 3.22633E-03 1.42557E-03-3.89222E-15
 -1       237 3.52661E-03 1.45077E-03-4.96460E-15
 -1       238 3.83755E-03 1.39121E-03-6.17621E-15
 -1       239 4.16934E-03 1.28303E-03-7.52152E-15
 -1       240 4.52095E-03 1.16919E-03-8.99286E-15
 -1       241 4.88402E-03 1.07971E-03-1.05824E-14
 -1       242 5.24889E-03 1.02652E-03-1.22904E-14
 -1       243 5.60833E-03 1.00869E-03-1.41145E-14
 -1       244 5.95834E-03 1.01936E-03-1.60466E-14
 -1       245 6.29753E-03 1.05059E-03-1.80799E-14
 -1       246 6.62619E-03 1.09549E-03-2.02063E-14
 -1       247 6.94546E-03 1.14884E-03-2.24253E-14
 -1       248 7.25680E-03 1.20699E-03-2.47352E-14
 -1       249 7.56170E-03 1.26753E-03-2.71266E-14
 -1       250 7.86150E-03 1.32893E-03-2.96035E-14
 -1       251 8.15735E-03 1.39024E-03-3.21515E-14
 -1       252 8.45019E-03 1.45096E-03-3.47699E-14
 -1       253 8.74079E-03 1.51083E-03-3.74528E-14
 -1       254 9.02973E-03 1.56975E-03-4.01963E-14
 -1       255 9.31748E-03 1.62774E-03-4.29922E-14
 -1       256 9.60439E-03 1.68486E-03-4.58441E-14
 -1       257 9.89071E-03 1.74120E-03-4.87536E-14
 -1       258 1.01767E-02 1.79688E-03-5.17045E-14
 -1       259 1.04623E-02 1.85199E-03-5.46936E-14
 -1       260 1.07479E-02 1.90665E-03-5.77269E-14
 -1       261 1.10334E-02 1.96093E-03-6.08156E-14
 -1       262 1.13188E-02 2.01491E-03-6.39538E-14
 -1       263 1.16042E-02 2.06867E-03-6.71331E-14
 -1       264 1.18897E-02 2.12225E-03-7.03497E-14
 -1       265 1.21752E-02 2.17570E-03-7.36073E-14
 -1       266 1.24607E-02 2.22905E-03-7.69027E-14
 -1       267 1.27462E-02 2.28233E-03-8.02252E-14
 -1       268 1.30318E-02 2.33556E-03-8.35735E-14
 -1       269 1.33174E-02 2.38876E-03-8.69330E-14
 -1       270 1.36031E-02 2.44193E-03-9.02985E-14
 -1       271 1.38887E-02 2.49510E-03-9.36655E-14
 -1       272 1.41744E-02 2.54826E-03-9.70363E-14
 -1       273 1.44601E-02 2.60142E-03-1.00407E-13
 -1       274 1.47458E-02 2.65459E-03-1.03805E-13
 -1       275 1.50315E-02 2.70776E-03-1.07220E-13
 -1       276 1.53172E-02 2.76094E-03-1.10643E-13
 -1       277 1.53278E-02 2.70637E-03-1.11366E-13
 -1       278 1.52755E-02 2.62208E-03-1.11525E-13
 -1       279 1.52232E-02 2.53779E-03-1.11679E-13
 -1       280 1.51708E-02 2.45348E-03-1.11829E-13
 -1       281 1.51194E-02 2.37060E-03-1.11971E-13
 -1       282 1.50671E-02 2.28628E-03-1.12110E-13
 -1       283 1.50148E-02 2.20196E-03-1.12235E-13
 -1       284 1.49625E-02 2.11763E-03-1.12346E-13
 -1       285 1.49102E-02 2.03331E-03-1.12447E-13
 -1       286 1.48580E-02 1.94898E-03-1.12542E-13
 -1       287 1.48066E-02 1.86609E-03-1.12636E-13
 -1       288 1.47544E-02 1.78178E-03-1.12735E-13
 -1       289 1.47021E-02 1.69748E-03-1.12839E-13
 -1       290 1.46499E-02 1.61318E-03-1.12939E-13
 -1       291 1.45246E-02 1.53013E-03-1.11990E-13
 -1       292 5.34830E-03 4.06023E-04-8.44616E-15
 -1       293 5.24441E-03 5.00792E-04-8.18898E-15
 -1       294 5.01905E-03 6.16872E-04-7.84242E-15
 -1       295 4.70408E-03 7.74306E-04-7.28569E-15
 -1       296 4.29947E-03 9.34848E-04-6.75829E-15
 -1       297 3.93455E-03 1.10063E-03-5.97333E-15
 -1       298 3.54580E-03 1.20497E-03-5.30279E-15
 -1       299 3.17158E-03 1.21571E-03-4.64317E-15
 -1       300 2.80353E-03 1.14577E-03-4.05877E-15
 -1       301 2.41300E-03 9.94080E-04-3.53678E-15
 -1       302 2.00214E-03 8.02211E-04-3.11183E-15
 -1       303 1.61364E-03 6.05973E-04-2.76747E-15
 -1       304 1.27759E-03 4.21704E-04-2.48210E-15
 -1       305 1.02394E-03 3.04971E-04-2.35645E-15
 -1       306 9.11588E-04 2.11087E-04-2.28652E-15
 -1       307 9.39040E-04 1.35469E-04-2.33172E-15
 -1       308 1.09430E-03 4.42002E-05-2.48694E-15
 -1       309 1.37331E-03-6.04179E-05-2.69256E-15
 -1       310 1.71207E-03-2.24345E-04-3.09265E-15
 -1       311 2.10926E-03-3.74070E-04-3.51630E-15
 -1       312 2.48009E-03-5.06522E-04-4.09414E-15
 -1       313 2.86077E-03-5.80769E-04-4.70865E-15
 -1       314 3.21788E-03-5.65924E-04-5.34718E-15
 -1       315 3.56218E-03-4.90968E-04-5.96603E-15
 -1       316 3.91278E-03-3.64610E-04-6.57074E-15
 -1       317 4.26474E-03-1.96908E-04-7.20865E-15
 -1       318 4.63290E-03-4.00680E-05-7.66368E-15
 -1       319 4.93904E-03 1.03703E-04-8.05637E-15
 -1       320 5.18233E-03 2.30178E-04-8.37406E-15
 -1       321 5.32511E-03 3.21478E-04-8.44962E-15
 -1       322 5.02647E-04-1.42384E-04-1.81214E-16
 -1       323 5.36563E-04-2.05994E-04-1.55054E-16
 -1       324 4.45603E-04-4.02633E-05-2.03579E-16
 -1       325 4.12044E-04-8.37703E-07-2.07194E-16
 -1       326 3.75692E-04 2.69748E-05-2.08587E-16
 -1       327 3.42593E-04 4.07520E-05-2.08377E-16
 -1       328 3.21755E-04 4.16531E-05-2.06385E-16
 -1       329 3.21170E-04 3.58348E-05-2.02339E-16
 -1       330 3.42825E-04 3.27717E-05-1.95658E-16
 -1       331 3.83553E-04 4.11016E-05-1.85453E-16
 -1       332 4.35846E-04 6.61810E-05-1.70257E-16
 -1       333 4.94178E-04 1.09814E-04-1.47743E-16
 -1       334 5.59295E-04 1.74047E-04-1.13956E-16
 -1       335 6.48250E-04 2.40097E-04-1.00058E-16
 -1       336 1.01462E-03 3.65456E-04-2.93297E-16
 -1       337 9.85879E-04-3.80911E-04-4.88220E-16
 -1       338 1.31585E-03-4.89779E-04-8.87602E-16
 -1       339 1.64030E-03-5.94170E-04-1.41050E-15
 -1       340 1.95795E-03-6.92457E-04-2.06000E-15
 -1       341 2.26720E-03-7.76485E-04-2.83981E-15
 -1       342 2.56763E-03-8.33558E-04-3.75240E-15
 -1       343 2.86143E-03-8.50998E-04-4.79800E-15
 -1       344 3.15347E-03-8.22196E-04-5.97566E-15
 -1       345 3.44926E-03-7.50540E-04-7.28069E-15
 -1       346 3.75223E-03-6.48275E-04-8.70659E-15
 -1       347 4.06256E-03-5.31245E-04-1.02510E-14
 -1       348 4.37796E-03-4.13446E-04-1.19068E-14
 -1       349 4.69535E-03-3.04110E-04-1.36695E-14
 -1       350 5.01203E-03-2.07506E-04-1.55328E-14
 -1       351 5.32623E-03-1.24217E-04-1.74877E-14
 -1       352 5.63701E-03-5.26993E-05-1.95356E-14
 -1       353 5.94404E-03 9.48955E-06-2.16748E-14
 -1       354 6.24741E-03 6.49011E-05-2.39033E-14
 -1       355 6.54740E-03 1.15793E-04-2.62200E-14
 -1       356 6.84441E-03 1.63974E-04-2.86225E-14
 -1       357 7.13888E-03 2.10788E-04-3.11100E-14
 -1       358 7.43124E-03 2.57175E-04-3.36780E-14
 -1       359 7.72189E-03 3.03742E-04-3.63136E-14
 -1       360 8.01118E-03 3.50852E-04-3.90099E-14
 -1       361 8.29942E-03 3.98688E-04-4.17618E-14
 -1       362 8.58685E-03 4.47314E-04-4.45772E-14
 -1       363 8.87368E-03 4.96713E-04-4.74567E-14
 -1       364 9.16008E-03 5.46827E-04-5.03933E-14
 -1       365 9.44618E-03 5.97571E-04-5.33720E-14
 -1       366 9.73206E-03 6.48852E-04-5.63868E-14
 -1       367 1.00178E-02 7.00582E-04-5.94384E-14
 -1       368 1.03035E-02 7.52674E-04-6.25293E-14
 -1       369 1.05891E-02 8.05055E-04-6.56645E-14
 -1       370 1.08747E-02 8.57662E-04-6.88325E-14
 -1       371 1.11602E-02 9.10440E-04-7.20363E-14
 -1       372 1.14458E-02 9.63348E-04-7.52729E-14
 -1       373 1.17314E-02 1.01635E-03-7.85325E-14
 -1       374 1.20171E-02 1.06942E-03-8.18295E-14
 -1       375 1.23027E-02 1.12254E-03-8.51620E-14
 -1       376 1.25883E-02 1.17569E-03-8.85329E-14
 -1       377 1.28740E-02 1.22885E-03-9.19274E-14
 -1       378 1.31597E-02 1.28203E-03-9.53431E-14
 -1       379 1.34453E-02 1.33521E-03-9.87816E-14
 -1       380 1.37310E-02 1.38839E-03-1.02237E-13
 -1       381 1.40167E-02 1.44156E-03-1.05709E-13
 -1       382 1.42707E-02 1.48585E-03-1.08843E-13
 -1       383 1.38087E-03 4.99368E-04-5.93299E-16
 -1       384 1.74835E-03 6.55916E-04-1.00508E-15
 -1       385 2.11562E-03 8.40744E-04-1.53344E-15
 -1       386 2.47702E-03 1.04411E-03-2.18608E-15
 -1       387 2.82501E-03 1.23498E-03-2.96984E-15
 -1       388 3.15726E-03 1.36689E-03-3.89169E-15
 -1       389 3.48220E-03 1.40271E-03-4.95595E-15
 -1       390 3.81438E-03 1.34428E-03-6.16148E-15
 -1       391 4.16135E-03 1.23125E-03-7.50130E-15
 -1       392 4.51979E-03 1.11165E-03-8.96784E-15
 -1       393 4.88114E-03 1.01818E-03-1.05520E-14
 -1       394 5.23808E-03 9.62900E-04-1.22513E-14
 -1       395 5.58671E-03 9.44264E-04-1.40648E-14
 -1       396 5.92571E-03 9.54908E-04-1.59850E-14
 -1       397 6.25528E-03 9.86540E-04-1.80060E-14
 -1       398 6.57627E-03 1.03207E-03-2.01192E-14
 -1       399 6.88982E-03 1.08615E-03-2.23248E-14
 -1       400 7.19712E-03 1.14504E-03-2.46217E-14
 -1       401 7.49929E-03 1.20628E-03-2.70024E-14
 -1       402 7.79733E-03 1.26831E-03-2.94672E-14
 -1       403 8.09213E-03 1.33017E-03-3.20060E-14
 -1       404 8.38440E-03 1.39135E-03-3.46129E-14
 -1       405 8.67474E-03 1.45160E-03-3.72867E-14
 -1       406 8.96364E-03 1.51083E-03-4.00224E-14
 -1       407 9.25147E-03 1.56907E-03-4.28126E-14
 -1       408 9.53852E-03 1.62638E-03-4.56572E-14
 -1       409 9.82502E-03 1.68287E-03-4.85597E-14
 -1       410 1.01111E-02 1.73865E-03-5.15046E-14
 -1       411 1.03970E-02 1.79385E-03-5.44887E-14
 -1       412 1.06827E-02 1.84857E-03-5.75154E-14
 -1       413 1.09683E-02 1.90289E-03-6.05927E-14
 -1       414 1.12539E-02 1.95691E-03-6.37232E-14
 -1       415 1.15394E-02 2.01069E-03-6.68907E-14
 -1       416 1.18249E-02 2.06428E-03-7.00995E-14
 -1       417 1.21105E-02 2.11773E-03-7.33433E-14
 -1       418 1.23961E-02 2.17109E-03-7.66215E-14
 -1       419 1.26816E-02 2.22437E-03-7.99347E-14
 -1       420 1.29672E-02 2.27760E-03-8.32748E-14
 -1       421 1.32529E-02 2.33080E-03-8.66296E-14
 -1       422 1.35385E-02 2.38397E-03-8.99967E-14
 -1       423 1.38242E-02 2.43713E-03-9.33660E-14
 -1       424 1.41099E-02 2.49029E-03-9.67374E-14
 -1       425 1.43955E-02 2.54345E-03-1.00114E-13
 -1       426 1.46812E-02 2.59661E-03-1.03509E-13
 -1       427 1.49669E-02 2.64979E-03-1.06924E-13
 -1       428 1.51474E-02 2.67808E-03-1.09143E-13
 -1       429 1.49496E-02 2.44958E-03-1.08766E-13
 -1       430 1.50019E-02 2.53388E-03-1.08619E-13
 -1       431 1.50746E-02 2.60598E-03-1.08882E-13
 -1       432 1.48981E-02 2.36670E-03-1.08903E-13
 -1       433 1.48458E-02 2.28239E-03-1.09035E-13
 -1       434 1.47935E-02 2.19807E-03-1.09154E-13
 -1       435 1.47412E-02 2.11375E-03-1.09266E-13
 -1       436 1.46889E-02 2.02943E-03-1.09374E-13
 -1       437 1.46367E-02 1.94511E-03-1.09473E-13
 -1       438 1.45853E-02 1.86222E-03-1.09566E-13
 -1       439 1.45330E-02 1.77791E-03-1.09658E-13
 -1       440 1.44808E-02 1.69360E-03-1.09752E-13
 -1       441 1.44286E-02 1.60930E-03-1.09852E-13
 -1       442 5.14436E-03 5.03734E-04-8.72423E-15
 -1       443 5.37310E-03 3.79722E-04-9.39291E-15
 -1       444 5.31953E-03 4.30484E-04-9.07765E-15
 -1       445 4.82603E-03 6.44713E-04-8.05697E-15
 -1       446 4.51261E-03 7.90924E-04-7.54005E-15
 -1       447 4.74591E-04-8.77836E-05-1.95709E-16
 -1       448 3.72388E-03 1.17219E-03-5.82461E-15
 -1       449 3.33949E-03 1.25805E-03-4.93932E-15
 -1       450 3.03727E-03 1.22478E-03-4.29217E-15
 -1       451 2.68704E-03 1.08464E-03-3.60522E-15
 -1       452 2.28081E-03 8.62406E-04-3.08995E-15
 -1       453 1.88392E-03 6.36464E-04-2.68723E-15
 -1       454 1.50615E-03 4.41841E-04-2.38492E-15
 -1       455 1.13436E-03 2.76197E-04-2.11487E-15
 -1       456 9.57886E-04 2.15451E-04-2.04596E-15
 -1       457 8.90500E-04 1.68416E-04-1.99532E-15
 -1       458 1.00450E-03 1.23058E-04-2.16685E-15
 -1       459 1.21423E-03 5.61356E-05-2.30117E-15
 -1       460 1.60652E-03-1.05963E-04-2.70425E-15
 -1       461 1.93923E-03-2.59489E-04-3.08098E-15
 -1       462 2.38057E-03-4.63284E-04-3.70684E-15
 -1       463 2.67631E-03-5.71764E-04-4.27691E-15
 -1       464 3.04796E-03-6.16260E-04-5.12199E-15
 -1       465 3.30382E-03-5.70533E-04-5.72488E-15
 -1       466 3.66394E-03-4.31416E-04-6.53434E-15
 -1       467 3.97359E-03-2.75858E-04-7.17064E-15
 -1       468 4.40946E-03-4.56544E-05-7.99208E-15
 -1       469 4.74538E-03 1.07055E-04-8.44082E-15
 -1       470 5.04251E-03 2.39387E-04-8.94410E-15
 -1       471 5.29639E-03 3.38010E-04-9.30566E-15
 -1       472 4.04844E-03 1.02741E-03-6.60034E-15
 -1       473 4.29219E-03 9.01544E-04-7.36595E-15
 -1       474 2.17546E-03-3.67941E-04-3.24955E-15
 -1       475 1.39250E-03-2.63336E-07-2.29908E-15
 -1       476 1.08884E-03 3.37481E-04-5.03077E-16
 -1       477 6.04820E-04 7.23120E-06-4.40200E-16
 -1       478 6.63172E-04-4.70251E-05-4.37177E-16
 -1       479 4.89745E-04 6.08871E-05-4.31607E-16
 -1       480 4.67899E-04 6.20589E-05-4.25183E-16
 -1       481 4.85102E-04 5.99150E-05-4.15161E-16
 -1       482 5.39920E-04 6.89158E-05-4.00023E-16
 -1       483 6.19410E-04 9.90063E-05-3.78485E-16
 -1       484 7.09496E-04 1.52564E-04-3.47375E-16
 -1       485 1.44115E-03 4.72051E-04-8.74971E-16
 -1       486 1.10116E-03-3.51482E-04-7.23407E-16
 -1       487 4.71110E-03 6.88154E-04-8.41445E-15
 -1       488 1.43181E-03-4.54374E-04-1.19174E-15
 -1       489 1.76255E-03-5.57685E-04-1.78165E-15
 -1       490 2.08964E-03-6.55846E-04-2.49803E-15
 -1       491 2.40924E-03-7.36386E-04-3.34341E-15
 -1       492 2.71997E-03-7.82053E-04-4.32155E-15
 -1       493 3.02516E-03-7.78335E-04-5.43242E-15
 -1       494 3.33155E-03-7.22152E-04-6.67428E-15
 -1       495 3.64463E-03-6.24771E-04-8.04204E-15
 -1       496 3.96515E-03-5.05327E-04-9.53064E-15
 -1       497 4.28971E-03-3.82023E-04-1.11333E-14
 -1       498 4.61380E-03-2.66910E-04-1.28449E-14
 -1       499 4.93404E-03-1.65455E-04-1.46588E-14
 -1       500 5.24890E-03-7.84886E-05-1.65678E-14
 -1       501 5.55822E-03-4.34714E-06-1.85689E-14
 -1       502 5.86259E-03 5.96002E-05-2.06604E-14
 -1       503 6.16282E-03 1.16083E-04-2.28401E-14
 -1       504 6.45973E-03 1.67515E-04-2.51082E-14
 -1       505 6.75401E-03 2.15840E-04-2.74650E-14
 -1       506 7.04624E-03 2.62519E-04-2.99063E-14
 -1       507 7.33686E-03 3.08591E-04-3.24299E-14
 -1       508 7.62623E-03 3.54742E-04-3.50262E-14
 -1       509 7.91462E-03 4.01394E-04-3.76871E-14
 -1       510 8.20228E-03 4.48772E-04-4.04082E-14
 -1       511 8.48937E-03 4.96965E-04-4.31885E-14
 -1       512 8.77603E-03 5.45976E-04-4.60329E-14
 -1       513 9.06237E-03 5.95751E-04-4.89354E-14
 -1       514 9.34849E-03 6.46208E-04-5.18864E-14
 -1       515 9.63444E-03 6.97253E-04-5.48764E-14
 -1       516 9.92028E-03 7.48790E-04-5.79029E-14
 -1       517 1.02060E-02 8.00731E-04-6.09694E-14
 -1       518 1.04917E-02 8.52994E-04-6.40769E-14
 -1       519 1.07774E-02 9.05510E-04-6.72244E-14
 -1       520 1.10631E-02 9.58221E-04-7.04076E-14
 -1       521 1.13488E-02 1.01108E-03-7.36291E-14
 -1       522 1.16344E-02 1.06405E-03-7.68786E-14
 -1       523 1.19201E-02 1.11709E-03-8.01566E-14
 -1       524 1.22058E-02 1.17019E-03-8.34640E-14
 -1       525 1.24914E-02 1.22333E-03-8.68074E-14
 -1       526 1.27771E-02 1.27649E-03-9.01819E-14
 -1       527 1.30628E-02 1.32967E-03-9.35796E-14
 -1       528 1.33485E-02 1.38285E-03-9.70021E-14
 -1       529 1.36342E-02 1.43603E-03-1.00440E-13
 -1       530 1.39199E-02 1.48921E-03-1.03895E-13
 -1       531 2.18267E-03 8.34268E-04-1.95590E-15
 -1       532 2.56260E-03 1.05110E-03-2.67935E-15
 -1       533 2.93252E-03 1.23956E-03-3.53739E-15
 -1       534 3.28778E-03 1.33674E-03-4.53949E-15
 -1       535 3.64367E-03 1.31115E-03-5.68877E-15
 -1       536 4.01254E-03 1.19772E-03-6.97820E-15
 -1       537 4.38924E-03 1.06202E-03-8.39877E-15
 -1       538 4.76081E-03 9.51693E-04-9.93815E-15
 -1       539 5.11778E-03 8.83121E-04-1.15918E-14
 -1       540 5.45879E-03 8.54814E-04-1.33545E-14
 -1       541 5.78643E-03 8.58532E-04-1.52246E-14
 -1       542 6.10406E-03 8.85398E-04-1.71963E-14
 -1       543 6.41437E-03 9.27883E-04-1.92613E-14
 -1       544 6.71924E-03 9.80251E-04-2.14170E-14
 -1       545 7.01993E-03 1.03841E-03-2.36666E-14
 -1       546 7.31730E-03 1.09957E-03-2.60028E-14
 -1       547 7.61203E-03 1.16192E-03-2.84230E-14
 -1       548 7.90461E-03 1.22434E-03-3.09234E-14
 -1       549 8.19549E-03 1.28619E-03-3.34931E-14
 -1       550 8.48502E-03 1.34712E-03-3.61330E-14
 -1       551 8.77349E-03 1.40699E-03-3.88353E-14
 -1       552 9.06115E-03 1.46580E-03-4.15980E-14
 -1       553 9.34820E-03 1.52362E-03-4.44156E-14
 -1       554 9.63479E-03 1.58054E-03-4.72877E-14
 -1       555 9.92105E-03 1.63668E-03-5.02135E-14
 -1       556 1.02071E-02 1.69217E-03-5.31760E-14
 -1       557 1.04929E-02 1.74711E-03-5.61791E-14
 -1       558 1.07787E-02 1.80161E-03-5.92274E-14
 -1       559 1.10644E-02 1.85577E-03-6.23253E-14
 -1       560 1.13501E-02 1.90965E-03-6.54674E-14
 -1       561 1.16357E-02 1.96332E-03-6.86496E-14
 -1       562 1.19213E-02 2.01683E-03-7.18664E-14
 -1       563 1.22070E-02 2.07022E-03-7.51171E-14
 -1       564 1.24926E-02 2.12353E-03-7.84015E-14
 -1       565 1.27782E-02 2.17678E-03-8.17199E-14
 -1       566 1.30639E-02 2.22999E-03-8.50615E-14
 -1       567 1.33496E-02 2.28317E-03-8.84200E-14
 -1       568 1.36352E-02 2.33633E-03-9.17899E-14
 -1       569 1.39209E-02 2.38949E-03-9.51618E-14
 -1       570 1.42066E-02 2.44265E-03-9.85423E-14
 -1       571 1.44923E-02 2.49580E-03-1.01929E-13
 -1       572 1.47780E-02 2.54897E-03-1.05342E-13
 -1       573 1.46245E-02 2.27850E-03-1.05970E-13
 -1       574 1.45722E-02 2.19418E-03-1.06086E-13
 -1       575 1.47283E-02 2.44568E-03-1.05714E-13
 -1       576 1.46764E-02 2.36209E-03-1.05846E-13
 -1       577 1.45199E-02 2.10986E-03-1.06195E-13
 -1       578 1.44676E-02 2.02554E-03-1.06304E-13
 -1       579 1.44153E-02 1.94122E-03-1.06404E-13
 -1       580 1.43640E-02 1.85833E-03-1.06497E-13
 -1       581 1.43117E-02 1.77402E-03-1.06590E-13
 -1       582 1.42595E-02 1.68971E-03-1.06682E-13
 -1       583 1.42073E-02 1.60541E-03-1.06775E-13
 -1       584 5.39637E-03 4.13362E-04-1.01041E-14
 -1       585 5.02600E-03 5.48513E-04-9.09845E-15
 -1       586 1.80612E-03 6.36354E-04-1.35697E-15
 -1       587 7.95970E-04-2.43495E-04-4.06501E-16
 -1       588 5.19988E-03 3.24128E-04-1.00231E-14
 -1       589 5.27682E-03 4.58486E-04-9.77159E-15
 -1       590 5.37092E-03 3.77557E-04-1.01585E-14
 -1       591 1.31463E-03 3.09992E-04-1.97162E-15
 -1       592 5.41587E-04 4.42022E-05-4.37448E-16
 -1       593 3.20171E-03 1.27296E-03-4.56185E-15
 -1       594 9.16806E-04 1.45245E-04-1.80449E-15
 -1       595 3.53930E-03 1.25176E-03-5.45327E-15
 -1       596 2.89829E-03 1.18422E-03-3.84779E-15
 -1       597 2.47688E-03 9.52689E-04-3.07112E-15
 -1       598 2.09941E-03 7.18884E-04-2.61563E-15
 -1       599 1.70119E-03 4.91212E-04-2.24513E-15
 -1       600 1.00887E-03 2.03687E-04-1.80160E-15
 -1       601 4.59148E-03 7.95877E-05-8.90009E-15
 -1       602 8.75271E-04 1.65362E-04-1.69912E-15
 -1       603 1.05778E-03 1.10946E-04-1.91612E-15
 -1       604 1.76609E-03-1.64006E-04-2.64095E-15
 -1       605 2.52801E-03-5.36917E-04-3.86150E-15
 -1       606 2.85541E-03-6.25463E-04-4.66853E-15
 -1       607 3.17984E-03-6.10889E-04-5.57841E-15
 -1       608 3.47327E-03-5.10008E-04-6.37427E-15
 -1       609 3.79099E-03-3.48181E-04-7.24688E-15
 -1       610 4.15799E-03-1.43196E-04-8.10124E-15
 -1       611 4.88794E-03 2.09749E-04-9.41496E-15
 -1       612 3.86478E-03 1.12993E-03-6.35724E-15
 -1       613 8.24493E-04 2.54523E-04-2.72738E-16
 -1       614 7.12366E-04-1.12629E-04-4.29019E-16
 -1       615 4.10498E-03 1.02393E-03-7.10206E-15
 -1       616 4.52375E-03 7.98189E-04-8.22047E-15
 -1       617 1.18669E-03 6.58685E-05-1.90400E-15
 -1       618 8.32171E-04 1.44581E-04-1.51404E-15
 -1       619 2.68100E-03 1.07868E-03-3.28254E-15
 -1       620 1.41120E-02 1.52348E-03-1.06242E-13
 -1       621 6.15219E-04 8.84361E-05-7.17400E-16
 -1       622 6.22830E-04 8.64696E-05-7.31081E-16
 -1       623 7.79364E-04 1.28941E-04-6.72781E-16
 -1       624 9.06098E-04 1.91137E-04-6.36396E-16
 -1       625 1.14395E-03 3.07639E-04-7.38907E-16
 -1       626 5.20706E-03 5.17241E-04-1.02872E-14
 -1       627 1.55685E-03-4.13442E-04-1.51057E-15
 -1       628 1.89733E-03-5.18482E-04-2.16339E-15
 -1       629 2.23602E-03-6.20474E-04-2.94136E-15
 -1       630 2.56596E-03-6.99632E-04-3.85033E-15
 -1       631 2.88598E-03-7.30363E-04-4.89244E-15
 -1       632 3.20258E-03-6.96519E-04-6.06889E-15
 -1       633 3.52578E-03-6.04880E-04-7.37683E-15
 -1       634 3.85860E-03-4.79631E-04-8.80980E-15
 -1       635 4.19645E-03-3.47297E-04-1.03609E-14
 -1       636 4.53192E-03-2.24865E-04-1.20220E-14
 -1       637 4.85971E-03-1.18970E-04-1.37869E-14
 -1       638 5.17800E-03-2.97607E-05-1.56497E-14
 -1       639 5.48739E-03 4.53913E-05-1.76061E-14
 -1       640 5.78959E-03 1.09777E-04-1.96507E-14
 -1       641 6.08647E-03 1.66454E-04-2.17854E-14
 -1       642 6.37961E-03 2.17957E-04-2.40052E-14
 -1       643 6.67024E-03 2.66265E-04-2.63135E-14
 -1       644 6.95920E-03 3.12851E-04-2.87111E-14
 -1       645 7.24707E-03 3.58760E-04-3.11897E-14
 -1       646 7.53423E-03 4.04696E-04-3.37462E-14
 -1       647 7.82092E-03 4.51098E-04-3.63695E-14
 -1       648 8.10731E-03 4.98210E-04-3.90555E-14
 -1       649 8.39349E-03 5.46139E-04-4.18059E-14
 -1       650 8.67952E-03 5.94898E-04-4.46156E-14
 -1       651 8.96547E-03 6.44443E-04-4.74868E-14
 -1       652 9.25134E-03 6.94696E-04-5.04076E-14
 -1       653 9.53716E-03 7.45564E-04-5.33741E-14
 -1       654 9.82295E-03 7.96953E-04-5.63765E-14
 -1       655 1.01087E-02 8.48770E-04-5.94169E-14
 -1       656 1.03945E-02 9.00934E-04-6.24973E-14
 -1       657 1.06802E-02 9.53371E-04-6.56229E-14
 -1       658 1.09659E-02 1.00602E-03-6.87851E-14
 -1       659 1.12516E-02 1.05883E-03-7.19863E-14
 -1       660 1.15373E-02 1.11176E-03-7.52188E-14
 -1       661 1.18231E-02 1.16478E-03-7.84818E-14
 -1       662 1.21088E-02 1.21786E-03-8.17741E-14
 -1       663 1.23945E-02 1.27099E-03-8.50958E-14
 -1       664 1.26802E-02 1.32414E-03-8.84440E-14
 -1       665 1.29659E-02 1.37731E-03-9.18209E-14
 -1       666 1.32516E-02 1.43049E-03-9.52273E-14
 -1       667 1.35373E-02 1.48368E-03-9.86516E-14
 -1       668 1.38230E-02 1.53686E-03-1.02091E-13
 -1       669 3.72487E-03 1.23140E-03-6.01832E-15
 -1       670 4.25257E-03 1.02836E-03-7.79553E-15
 -1       671 4.64294E-03 8.95810E-04-9.29288E-15
 -1       672 5.00721E-03 8.14221E-04-1.09035E-14
 -1       673 5.34581E-03 7.78586E-04-1.26189E-14
 -1       674 5.66480E-03 7.77406E-04-1.44397E-14
 -1       675 5.97139E-03 8.00402E-04-1.63616E-14
 -1       676 6.27066E-03 8.39791E-04-1.83804E-14
 -1       677 6.56576E-03 8.89833E-04-2.04903E-14
 -1       678 6.85842E-03 9.46413E-04-2.26928E-14
 -1       679 7.14953E-03 1.00665E-03-2.49819E-14
 -1       680 7.43952E-03 1.06859E-03-2.73583E-14
 -1       681 7.72866E-03 1.13096E-03-2.98185E-14
 -1       682 8.01709E-03 1.19299E-03-3.23533E-14
 -1       683 8.30492E-03 1.25423E-03-3.49564E-14
 -1       684 8.59226E-03 1.31449E-03-3.76261E-14
 -1       685 8.87919E-03 1.37370E-03-4.03573E-14
 -1       686 9.16580E-03 1.43189E-03-4.31481E-14
 -1       687 9.45214E-03 1.48915E-03-4.59936E-14
 -1       688 9.73829E-03 1.54559E-03-4.88942E-14
 -1       689 1.00243E-02 1.60133E-03-5.18405E-14
 -1       690 1.03102E-02 1.65648E-03-5.48209E-14
 -1       691 1.05960E-02 1.71116E-03-5.78447E-14
 -1       692 1.08818E-02 1.76545E-03-6.09129E-14
 -1       693 1.11675E-02 1.81943E-03-6.40282E-14
 -1       694 1.14532E-02 1.87318E-03-6.71836E-14
 -1       695 1.17389E-02 1.92675E-03-7.03758E-14
 -1       696 1.20246E-02 1.98019E-03-7.36048E-14
 -1       697 1.23103E-02 2.03353E-03-7.68637E-14
 -1       698 1.25959E-02 2.08680E-03-8.01596E-14
 -1       699 1.28816E-02 2.14002E-03-8.34838E-14
 -1       700 1.31673E-02 2.19321E-03-8.68320E-14
 -1       701 1.34530E-02 2.24638E-03-9.01953E-14
 -1       702 1.37387E-02 2.29954E-03-9.35656E-14
 -1       703 1.40244E-02 2.35270E-03-9.69433E-14
 -1       704 1.43101E-02 2.40585E-03-1.00331E-13
 -1       705 1.45192E-02 2.42577E-03-1.03011E-13
 -1       706 1.42463E-02 2.02166E-03-1.03251E-13
 -1       707 1.40151E-02 1.57113E-03-1.04427E-13
 -1       708 1.43509E-02 2.19030E-03-1.03041E-13
 -1       709 1.41940E-02 1.93734E-03-1.03352E-13
 -1       710 1.42986E-02 2.10598E-03-1.03148E-13
 -1       711 4.95737E-03 6.11476E-04-9.56050E-15
 -1       712 1.41427E-02 1.85445E-03-1.03444E-13
 -1       713 1.40904E-02 1.77013E-03-1.03540E-13
 -1       714 1.40382E-02 1.68582E-03-1.03632E-13
 -1       715 1.85247E-03 6.08326E-04-1.72424E-15
 -1       716 5.40860E-03 4.47061E-04-1.08581E-14
 -1       717 1.46367E-03 3.63140E-04-1.80377E-15
 -1       718 3.60876E-03-4.52658E-04-7.05092E-15
 -1       719 8.95534E-04 1.58443E-04-1.46472E-15
 -1       720 1.22136E-03-3.14654E-04-9.78330E-16
 -1       721 5.07147E-03 2.81256E-04-1.05110E-14
 -1       722 1.48467E-03 4.38653E-04-1.17729E-15
 -1       723 5.36250E-03 3.73640E-04-1.11444E-14
 -1       724 6.73229E-04 9.62988E-05-6.98778E-16
 -1       725 8.72560E-04-4.35114E-05-7.53568E-16
 -1       726 1.95963E-03-2.85351E-04-2.71396E-15
 -1       727 2.28347E-03-4.57196E-04-3.25623E-15
 -1       728 1.10581E-03 2.18135E-04-1.59297E-15
 -1       729 1.85960E-03 5.76286E-04-2.05511E-15
 -1       730 9.29703E-04 1.23132E-04-1.56611E-15
 -1       731 1.50529E-03-6.13505E-05-2.16048E-15
 -1       732 3.98762E-03-2.47229E-04-8.19274E-15
 -1       733 5.47131E-03 4.14203E-04-1.12904E-14
 -1       734 2.68642E-03-6.15148E-04-4.21101E-15
 -1       735 3.33690E-03-5.74648E-04-6.20846E-15
 -1       736 4.82614E-03 1.86317E-04-9.96727E-15
 -1       737 2.20164E-03 7.84979E-04-2.44357E-15
 -1       738 4.41709E-03-1.04981E-05-9.24461E-15
 -1       739 3.00655E-03-6.50110E-04-5.16876E-15
 -1       740 9.47247E-04-1.26365E-04-7.47856E-16
 -1       741 6.88659E-04 6.89448E-05-7.43776E-16
 -1       742 4.80327E-03 7.04595E-04-9.34532E-15
 -1       743 4.34637E-03 9.23341E-04-7.93442E-15
 -1       744 2.33390E-03 8.82300E-04-2.49563E-15
 -1       745 1.44028E-02 2.27390E-03-1.02929E-13
 -1       746 3.45583E-03 1.29160E-03-5.19365E-15
 -1       747 1.44610E-02 2.34983E-03-1.02973E-13
 -1       748 1.68672E-03-1.78546E-04-2.21657E-15
 -1       749 1.01642E-03 9.27578E-05-1.54852E-15
 -1       750 7.99687E-04 1.34342E-04-1.28968E-15
 -1       751 7.81144E-04 2.46970E-05-7.51023E-16
 -1       752 1.02832E-03-2.36531E-04-7.46300E-16
 -1       753 1.39306E-02 1.61134E-03-1.02863E-13
 -1       754 1.07610E-03 2.24375E-04-1.00783E-15
 -1       755 3.49133E-03-5.32473E-04-6.90488E-15
 -1       756 2.03675E-03-4.79904E-04-2.55148E-15
 -1       757 2.39044E-03-5.92736E-04-3.38775E-15
 -1       758 2.73283E-03-6.71057E-04-4.35771E-15
 -1       759 3.40065E-03-5.95480E-04-6.71203E-15
 -1       760 3.74859E-03-4.59593E-04-8.08882E-15
 -1       761 4.10427E-03-3.10723E-04-9.58859E-15
 -1       762 4.45491E-03-1.76604E-04-1.12020E-14
 -1       763 4.79309E-03-6.55820E-05-1.29196E-14
 -1       764 5.11610E-03 2.43465E-05-1.47363E-14
 -1       765 5.42579E-03 9.83232E-05-1.66461E-14
 -1       766 5.72543E-03 1.61155E-04-1.86455E-14
 -1       767 6.01823E-03 2.16553E-04-2.07351E-14
 -1       768 6.30673E-03 2.67206E-04-2.29117E-14
 -1       769 6.59275E-03 3.15028E-04-2.51727E-14
 -1       770 6.87749E-03 3.61373E-04-2.75221E-14
 -1       771 7.16171E-03 4.07182E-04-2.99596E-14
 -1       772 7.44584E-03 4.53081E-04-3.24736E-14
 -1       773 7.73010E-03 4.99465E-04-3.50595E-14
 -1       774 8.01459E-03 5.46554E-04-3.77101E-14
 -1       775 8.29933E-03 5.94446E-04-4.04271E-14
 -1       776 8.58432E-03 6.43154E-04-4.32060E-14
 -1       777 8.86951E-03 6.92637E-04-4.60449E-14
 -1       778 9.15487E-03 7.42823E-04-4.89379E-14
 -1       779 9.44036E-03 7.93623E-04-5.18788E-14
 -1       780 9.72594E-03 8.44945E-04-5.48583E-14
 -1       781 1.00116E-02 8.96702E-04-5.78763E-14
 -1       782 1.02973E-02 9.48810E-04-6.09310E-14
 -1       783 1.05830E-02 1.00120E-03-6.40288E-14
 -1       784 1.08688E-02 1.05381E-03-6.71674E-14
 -1       785 1.11545E-02 1.10659E-03-7.03467E-14
 -1       786 1.14403E-02 1.15949E-03-7.35614E-14
 -1       787 1.17260E-02 1.21249E-03-7.68046E-14
 -1       788 1.20118E-02 1.26555E-03-8.00855E-14
 -1       789 1.22975E-02 1.31866E-03-8.33883E-14
 -1       790 1.25833E-02 1.37181E-03-8.67196E-14
 -1       791 1.28690E-02 1.42497E-03-9.00728E-14
 -1       792 1.31547E-02 1.47815E-03-9.34557E-14
 -1       793 1.34404E-02 1.53133E-03-9.68683E-14
 -1       794 1.36855E-02 1.57133E-03-9.98601E-14
 -1       795 5.57454E-03 6.84258E-04-1.36855E-14
 -1       796 5.86336E-03 7.07645E-04-1.55605E-14
 -1       797 6.14579E-03 7.46051E-04-1.75326E-14
 -1       798 6.42621E-03 7.94322E-04-1.95974E-14
 -1       799 6.70667E-03 8.49000E-04-2.17534E-14
 -1       800 6.98800E-03 9.07584E-04-2.39985E-14
 -1       801 7.27036E-03 9.68266E-04-2.63280E-14
 -1       802 7.55367E-03 1.02978E-03-2.87444E-14
 -1       803 7.83773E-03 1.09129E-03-3.12403E-14
 -1       804 8.12237E-03 1.15228E-03-3.38111E-14
 -1       805 8.40740E-03 1.21245E-03-3.64451E-14
 -1       806 8.69270E-03 1.27170E-03-3.91440E-14
 -1       807 8.97819E-03 1.32999E-03-4.19041E-14
 -1       808 9.26378E-03 1.38739E-03-4.47235E-14
 -1       809 9.54945E-03 1.44397E-03-4.75982E-14
 -1       810 9.83516E-03 1.49985E-03-5.05242E-14
 -1       811 1.01209E-02 1.55513E-03-5.34882E-14
 -1       812 1.04066E-02 1.60992E-03-5.64889E-14
 -1       813 1.06924E-02 1.66430E-03-5.95299E-14
 -1       814 1.09781E-02 1.71837E-03-6.26182E-14
 -1       815 1.12639E-02 1.77218E-03-6.57457E-14
 -1       816 1.15496E-02 1.82580E-03-6.89140E-14
 -1       817 1.18354E-02 1.87928E-03-7.21182E-14
 -1       818 1.21211E-02 1.93265E-03-7.53558E-14
 -1       819 1.24068E-02 1.98595E-03-7.86294E-14
 -1       820 1.26926E-02 2.03918E-03-8.19307E-14
 -1       821 1.29783E-02 2.09238E-03-8.52604E-14
 -1       822 1.32640E-02 2.14556E-03-8.86105E-14
 -1       823 1.35497E-02 2.19872E-03-9.19762E-14
 -1       824 1.38354E-02 2.25188E-03-9.53512E-14
 -1       825 1.41212E-02 2.30504E-03-9.87374E-14
 -1       826 1.42911E-02 2.32743E-03-1.00849E-13
 -1       827 1.24890E-03-2.57769E-04-1.09777E-15
 -1       828 7.27644E-04 1.14063E-04-1.06211E-15
 -1       829 1.39727E-02 1.93346E-03-1.00320E-13
 -1       830 1.38168E-02 1.68192E-03-1.00608E-13
 -1       831 1.22900E-03 1.05979E-05-1.65615E-15
 -1       832 1.19727E-03 2.53423E-04-1.37888E-15
 -1       833 1.38691E-02 1.76624E-03-1.00514E-13
 -1       834 5.27158E-03 6.83579E-04-1.19113E-14
 -1       835 4.26749E-03-1.30835E-04-9.47996E-15
 -1       836 9.11696E-04 1.55059E-04-1.16817E-15
 -1       837 4.84225E-03 7.53223E-04-9.83965E-15
 -1       838 5.52016E-03 4.11459E-04-1.24008E-14
 -1       839 5.54056E-03 4.51681E-04-1.21171E-14
 -1       840 1.68221E-03-3.66829E-04-1.84194E-15
 -1       841 2.00736E-03-3.74945E-04-2.62083E-15
 -1       842 4.70421E-03 1.08220E-04-1.04115E-14
 -1       843 3.82630E-03-3.64853E-04-8.03180E-15
 -1       844 3.17212E-03-6.44021E-04-5.80019E-15
 -1       845 1.51902E-03 4.11646E-04-1.50138E-15
 -1       846 1.39209E-02 1.84985E-03-1.00415E-13
 -1       847 1.27690E-03 3.20523E-04-1.09491E-15
 -1       848 5.43846E-03 5.07363E-04-1.18279E-14
 -1       849 7.81305E-04 1.18261E-04-1.19160E-15
 -1       850 4.94308E-03 2.13635E-04-1.09672E-14
 -1       851 5.16918E-03 5.93479E-04-1.08013E-14
 -1       852 5.28786E-03 3.37879E-04-1.18208E-14
 -1       853 2.43501E-03-5.71212E-04-3.52809E-15
 -1       854 7.81215E-04 9.85837E-05-1.05559E-15
 -1       855 1.17921E-03-1.31740E-04-1.14779E-15
 -1       856 1.38452E-03-8.52461E-05-1.69645E-15
 -1       857 1.41294E-02 2.18606E-03-1.00020E-13
 -1       858 1.40771E-02 2.10174E-03-1.00124E-13
 -1       859 1.40249E-02 2.01760E-03-1.00221E-13
 -1       860 1.37512E-02 1.62663E-03-1.00235E-13
 -1       861 1.06862E-03-3.03336E-05-1.14388E-15
 -1       862 5.42486E-03 5.87444E-04-1.23402E-14
 -1       863 7.62952E-04 1.20337E-04-1.05884E-15
 -1       864 4.39341E-03-1.21365E-04-1.03816E-14
 -1       865 4.74270E-03-3.52010E-06-1.20560E-14
 -1       866 5.06923E-03 8.55009E-05-1.38278E-14
 -1       867 5.37704E-03 1.55641E-04-1.56922E-14
 -1       868 5.67189E-03 2.14443E-04-1.76469E-14
 -1       869 5.95868E-03 2.66695E-04-1.96895E-14
 -1       870 6.24097E-03 3.15273E-04-2.18225E-14
 -1       871 6.52112E-03 3.61924E-04-2.40408E-14
 -1       872 6.80062E-03 4.07741E-04-2.63433E-14
 -1       873 7.08033E-03 4.53431E-04-2.87362E-14
 -1       874 7.36069E-03 4.99441E-04-3.12078E-14
 -1       875 7.64190E-03 5.46043E-04-3.37551E-14
 -1       876 7.92396E-03 5.93379E-04-3.63701E-14
 -1       877 8.20682E-03 6.41506E-04-3.90504E-14
 -1       878 8.49038E-03 6.90415E-04-4.18006E-14
 -1       879 8.77452E-03 7.40058E-04-4.46086E-14
 -1       880 9.05912E-03 7.90363E-04-4.74731E-14
 -1       881 9.34408E-03 8.41248E-04-5.03903E-14
 -1       882 9.62930E-03 8.92626E-04-5.33482E-14
 -1       883 9.91473E-03 9.44415E-04-5.63424E-14
 -1       884 1.02003E-02 9.96540E-04-5.93777E-14
 -1       885 1.04859E-02 1.04893E-03-6.24501E-14
 -1       886 1.07717E-02 1.10154E-03-6.55625E-14
 -1       887 1.10574E-02 1.15431E-03-6.87165E-14
 -1       888 1.13432E-02 1.20721E-03-7.19083E-14
 -1       889 1.16290E-02 1.26019E-03-7.51314E-14
 -1       890 1.19147E-02 1.31325E-03-7.83921E-14
 -1       891 1.22005E-02 1.36635E-03-8.16848E-14
 -1       892 1.24863E-02 1.41949E-03-8.50013E-14
 -1       893 1.27721E-02 1.47264E-03-8.83375E-14
 -1       894 1.30578E-02 1.52581E-03-9.16990E-14
 -1       895 1.33436E-02 1.57899E-03-9.50923E-14
 -1       896 5.50993E-03 3.85423E-04-1.32706E-14
 -1       897 5.77666E-03 6.19815E-04-1.47638E-14
 -1       898 6.56498E-03 7.58232E-04-2.08187E-14
 -1       899 6.83478E-03 8.14412E-04-2.30185E-14
 -1       900 7.10806E-03 8.72937E-04-2.53040E-14
 -1       901 7.38430E-03 9.32698E-04-2.76752E-14
 -1       902 7.66292E-03 9.92871E-04-3.01301E-14
 -1       903 7.94342E-03 1.05289E-03-3.26635E-14
 -1       904 8.22536E-03 1.11239E-03-3.52638E-14
 -1       905 8.50839E-03 1.17119E-03-3.79322E-14
 -1       906 8.79222E-03 1.22920E-03-4.06598E-14
 -1       907 9.07665E-03 1.28644E-03-4.34511E-14
 -1       908 9.36151E-03 1.34294E-03-4.62999E-14
 -1       909 9.64667E-03 1.39879E-03-4.92029E-14
 -1       910 9.93205E-03 1.45407E-03-5.21502E-14
 -1       911 1.02176E-02 1.50887E-03-5.51312E-14
 -1       912 1.05032E-02 1.56328E-03-5.81489E-14
 -1       913 1.07889E-02 1.61738E-03-6.12093E-14
 -1       914 1.10746E-02 1.67122E-03-6.43145E-14
 -1       915 1.13604E-02 1.72487E-03-6.74546E-14
 -1       916 1.16462E-02 1.77837E-03-7.06387E-14
 -1       917 1.19319E-02 1.83177E-03-7.38563E-14
 -1       918 1.22177E-02 1.88508E-03-7.71045E-14
 -1       919 1.25035E-02 1.93833E-03-8.03887E-14
 -1       920 1.27892E-02 1.99154E-03-8.37011E-14
 -1       921 1.30750E-02 2.04473E-03-8.70350E-14
 -1       922 1.33607E-02 2.09789E-03-9.03876E-14
 -1       923 1.36465E-02 2.15106E-03-9.37561E-14
 -1       924 1.39322E-02 2.20421E-03-9.71350E-14
 -1       925 1.42103E-02 2.25675E-03-1.00436E-13
 -1       926 1.66390E-03-2.51378E-04-1.97479E-15
 -1       927 5.19191E-03 2.77504E-04-1.23410E-14
 -1       928 1.35955E-02 1.67803E-03-9.76040E-14
 -1       929 6.29901E-03 7.05814E-04-1.87078E-14
 -1       930 6.03668E-03 6.58911E-04-1.66886E-14
 -1       931 9.17243E-04 5.25420E-05-1.10154E-15
 -1       932 5.63938E-03 5.03496E-04-1.32676E-14
 -1       933 4.90089E-03 1.58063E-04-1.15695E-14
 -1       934 5.67195E-03 4.55231E-04-1.35775E-14
 -1       935 1.35474E-02 1.60281E-03-9.76611E-14
 -1       936 5.71111E-03 4.36509E-04-1.44838E-14
 -1       937 1.37513E-02 1.92949E-03-9.73181E-14
 -1       938 1.36473E-02 1.76163E-03-9.75101E-14
 -1       939 1.36995E-02 1.84587E-03-9.74140E-14
 -1       940 4.63536E-03 1.24019E-05-1.10598E-14
 -1       941 1.38558E-02 2.09787E-03-9.71255E-14
 -1       942 7.21861E-03 8.40394E-04-2.66125E-14
 -1       943 5.04734E-03 1.54124E-04-1.29215E-14
 -1       944 5.34692E-03 2.17207E-04-1.47433E-14
 -1       945 5.63185E-03 2.69328E-04-1.66525E-14
 -1       946 5.90883E-03 3.16511E-04-1.86498E-14
 -1       947 6.18229E-03 3.61783E-04-2.07371E-14
 -1       948 6.45480E-03 4.06574E-04-2.29113E-14
 -1       949 6.72784E-03 4.51563E-04-2.51729E-14
 -1       950 7.00217E-03 4.97104E-04-2.75197E-14
 -1       951 7.27812E-03 5.43371E-04-2.99490E-14
 -1       952 7.55577E-03 5.90437E-04-3.24567E-14
 -1       953 7.83500E-03 6.38316E-04-3.50357E-14
 -1       954 8.11566E-03 6.86982E-04-3.76807E-14
 -1       955 8.39752E-03 7.36381E-04-4.03969E-14
 -1       956 8.68038E-03 7.86446E-04-4.31757E-14
 -1       957 8.96403E-03 8.37099E-04-4.60127E-14
 -1       958 9.24830E-03 8.88259E-04-4.89038E-14
 -1       959 9.53305E-03 9.39848E-04-5.18411E-14
 -1       960 9.81814E-03 9.91796E-04-5.48148E-14
 -1       961 1.01035E-02 1.04403E-03-5.78266E-14
 -1       962 1.03890E-02 1.09651E-03-6.08791E-14
 -1       963 1.06747E-02 1.14917E-03-6.39691E-14
 -1       964 1.09604E-02 1.20197E-03-6.70968E-14
 -1       965 1.12462E-02 1.25488E-03-7.02654E-14
 -1       966 1.15319E-02 1.30788E-03-7.34678E-14
 -1       967 1.18177E-02 1.36094E-03-7.67041E-14
 -1       968 1.21035E-02 1.41404E-03-7.99803E-14
 -1       969 1.23893E-02 1.46717E-03-8.32862E-14
 -1       970 1.26751E-02 1.52032E-03-8.66107E-14
 -1       971 1.29609E-02 1.57349E-03-8.99557E-14
 -1       972 1.32467E-02 1.62666E-03-9.33263E-14
 -1       973 6.68638E-03 7.27826E-04-2.20430E-14
 -1       974 7.49129E-03 8.98387E-04-2.90246E-14
 -1       975 7.76717E-03 9.56680E-04-3.15156E-14
 -1       976 8.04555E-03 1.01486E-03-3.40834E-14
 -1       977 8.32588E-03 1.07266E-03-3.67167E-14
 -1       978 8.60770E-03 1.12995E-03-3.94142E-14
 -1       979 8.89064E-03 1.18665E-03-4.21758E-14
 -1       980 9.17442E-03 1.24278E-03-4.49980E-14
 -1       981 9.45883E-03 1.29837E-03-4.78768E-14
 -1       982 9.74369E-03 1.35347E-03-5.08015E-14
 -1       983 1.00289E-02 1.40815E-03-5.37650E-14
 -1       984 1.03143E-02 1.46249E-03-5.67667E-14
 -1       985 1.05998E-02 1.51654E-03-5.98043E-14
 -1       986 1.08855E-02 1.57036E-03-6.28837E-14
 -1       987 1.11712E-02 1.62400E-03-6.60016E-14
 -1       988 1.14570E-02 1.67749E-03-6.91631E-14
 -1       989 1.17428E-02 1.73089E-03-7.23605E-14
 -1       990 1.20286E-02 1.78421E-03-7.55878E-14
 -1       991 1.23144E-02 1.83747E-03-7.88516E-14
 -1       992 1.26002E-02 1.89069E-03-8.21490E-14
 -1       993 1.28859E-02 1.94388E-03-8.54646E-14
 -1       994 1.31717E-02 1.99705E-03-8.88057E-14
 -1       995 1.34575E-02 2.05022E-03-9.21608E-14
 -1       996 5.45334E-03 3.34246E-04-1.39133E-14
 -1       997 1.38035E-02 2.01363E-03-9.72224E-14
 -1       998 6.42897E-03 6.74882E-04-1.98878E-14
 -1       999 6.94998E-03 7.83288E-04-2.42846E-14
 -1      1000 5.81298E-03 5.08018E-04-1.47739E-14
 -1      1001 5.25741E-03 2.54018E-04-1.34197E-14
 -1      1002 5.92284E-03 5.77765E-04-1.57273E-14
 -1      1003 1.34052E-02 1.96598E-03-9.22585E-14
 -1      1004 5.69327E-03 3.98892E-04-1.51577E-14
 -1      1005 1.33530E-02 1.88183E-03-9.23533E-14
 -1      1006 5.89079E-03 4.89747E-04-1.57197E-14
 -1      1007 6.17908E-03 6.25400E-04-1.78234E-14
 -1      1008 1.33011E-02 1.79821E-03-9.24485E-14
 -1      1009 6.79231E-03 6.99437E-04-2.32692E-14
 -1      1010 5.60808E-03 3.23762E-04-1.56633E-14
 -1      1011 5.86927E-03 3.64557E-04-1.76160E-14
 -1      1012 6.13013E-03 4.05701E-04-1.96558E-14
 -1      1013 6.39272E-03 4.48251E-04-2.17858E-14
 -1      1014 6.65794E-03 4.92308E-04-2.40065E-14
 -1      1015 6.92606E-03 5.37775E-04-2.63103E-14
 -1      1016 7.19710E-03 5.84505E-04-2.86964E-14
 -1      1017 7.47086E-03 6.32320E-04-3.11606E-14
 -1      1018 7.74704E-03 6.81063E-04-3.37029E-14
 -1      1019 8.02531E-03 7.30598E-04-3.63162E-14
 -1      1020 8.30534E-03 7.80806E-04-3.89959E-14
 -1      1021 8.58680E-03 8.31583E-04-4.17434E-14
 -1      1022 8.86940E-03 8.82840E-04-4.45518E-14
 -1      1023 9.15291E-03 9.34495E-04-4.74169E-14
 -1      1024 9.43710E-03 9.86479E-04-5.03309E-14
 -1      1025 9.72180E-03 1.03873E-03-5.32876E-14
 -1      1026 1.00069E-02 1.09121E-03-5.62774E-14
 -1      1027 1.02922E-02 1.14385E-03-5.93088E-14
 -1      1028 1.05778E-02 1.19663E-03-6.23780E-14
 -1      1029 1.08634E-02 1.24952E-03-6.54830E-14
 -1      1030 1.11492E-02 1.30249E-03-6.86267E-14
 -1      1031 1.14350E-02 1.35553E-03-7.18100E-14
 -1      1032 1.17208E-02 1.40861E-03-7.50257E-14
 -1      1033 1.20066E-02 1.46172E-03-7.82798E-14
 -1      1034 1.22924E-02 1.51486E-03-8.15692E-14
 -1      1035 1.25782E-02 1.56801E-03-8.48833E-14
 -1      1036 1.28640E-02 1.62117E-03-8.82162E-14
 -1      1037 1.31498E-02 1.67434E-03-9.15699E-14
 -1      1038 7.86693E-03 9.20209E-04-3.29025E-14
 -1      1039 7.32076E-03 8.08120E-04-2.79233E-14
 -1      1040 8.14447E-03 9.76464E-04-3.55025E-14
 -1      1041 8.42413E-03 1.03254E-03-3.81687E-14
 -1      1042 8.70544E-03 1.08831E-03-4.08976E-14
 -1      1043 8.98801E-03 1.14373E-03-4.36914E-14
 -1      1044 9.27152E-03 1.19879E-03-4.65435E-14
 -1      1045 9.55574E-03 1.25350E-03-4.94470E-14
 -1      1046 9.84048E-03 1.30790E-03-5.23918E-14
 -1      1047 1.01256E-02 1.36203E-03-5.53737E-14
 -1      1048 1.04110E-02 1.41593E-03-5.83953E-14
 -1      1049 1.06965E-02 1.46965E-03-6.14539E-14
 -1      1050 1.09822E-02 1.52322E-03-6.45510E-14
 -1      1051 1.12679E-02 1.57668E-03-6.76881E-14
 -1      1052 1.15537E-02 1.63005E-03-7.08634E-14
 -1      1053 1.18395E-02 1.68335E-03-7.40745E-14
 -1      1054 1.21253E-02 1.73661E-03-7.73158E-14
 -1      1055 1.24111E-02 1.78983E-03-8.05960E-14
 -1      1056 1.26969E-02 1.84302E-03-8.39023E-14
 -1      1057 1.29827E-02 1.89620E-03-8.72275E-14
 -1      1058 1.31939E-02 1.93109E-03-8.97391E-14
 -1      1059 7.59211E-03 8.63985E-04-3.03740E-14
 -1      1060 1.34246E-02 1.76011E-03-9.44885E-14
 -1      1061 6.53777E-03 6.47901E-04-2.10712E-14
 -1      1062 7.05379E-03 7.53070E-04-2.55542E-14
 -1      1063 5.90849E-03 4.58731E-04-1.64278E-14
 -1      1064 6.29208E-03 5.99180E-04-1.89616E-14
 -1      1065 1.31417E-02 1.84694E-03-8.98308E-14
 -1      1066 1.30899E-02 1.76332E-03-8.99264E-14
 -1      1067 6.03910E-03 5.53363E-04-1.67651E-14
 -1      1068 6.08224E-03 4.45281E-04-1.85825E-14
 -1      1069 6.33267E-03 4.85903E-04-2.06664E-14
 -1      1070 6.58895E-03 5.29385E-04-2.28400E-14
 -1      1071 6.85023E-03 5.75052E-04-2.51040E-14
 -1      1072 7.11614E-03 6.22573E-04-2.74483E-14
 -1      1073 7.38596E-03 6.71476E-04-2.98698E-14
 -1      1074 7.65910E-03 7.21431E-04-3.23743E-14
 -1      1075 7.93503E-03 7.72180E-04-3.49511E-14
 -1      1076 8.21327E-03 8.23526E-04-3.76012E-14
 -1      1077 8.49336E-03 8.75319E-04-4.03138E-14
 -1      1078 8.77494E-03 9.27449E-04-4.30869E-14
 -1      1079 9.05768E-03 9.79834E-04-4.59254E-14
 -1      1080 9.34132E-03 1.03241E-03-4.88169E-14
 -1      1081 9.62562E-03 1.08514E-03-5.17514E-14
 -1      1082 9.91043E-03 1.13798E-03-5.47270E-14
 -1      1083 1.01956E-02 1.19090E-03-5.77376E-14
 -1      1084 1.04810E-02 1.24389E-03-6.07862E-14
 -1      1085 1.07666E-02 1.29693E-03-6.38706E-14
 -1      1086 1.10523E-02 1.35001E-03-6.69933E-14
 -1      1087 1.13380E-02 1.40311E-03-7.01536E-14
 -1      1088 1.16238E-02 1.45624E-03-7.33499E-14
 -1      1089 1.19097E-02 1.50938E-03-7.65870E-14
 -1      1090 1.21955E-02 1.56253E-03-7.98553E-14
 -1      1091 1.24813E-02 1.61569E-03-8.31529E-14
 -1      1092 1.27671E-02 1.66886E-03-8.64743E-14
 -1      1093 8.24080E-03 9.37126E-04-3.69237E-14
 -1      1094 8.52056E-03 9.91586E-04-3.96211E-14
 -1      1095 6.88622E-03 6.70222E-04-2.44992E-14
 -1      1096 7.96311E-03 8.82693E-04-3.42877E-14
 -1      1097 8.80193E-03 1.04597E-03-4.23829E-14
 -1      1098 9.08454E-03 1.10021E-03-4.52065E-14
 -1      1099 9.36809E-03 1.15430E-03-4.80841E-14
 -1      1100 9.65234E-03 1.20822E-03-5.10120E-14
 -1      1101 9.93711E-03 1.26199E-03-5.39779E-14
 -1      1102 1.02222E-02 1.31563E-03-5.69800E-14
 -1      1103 1.05076E-02 1.36916E-03-6.00174E-14
 -1      1104 1.07932E-02 1.42260E-03-6.30957E-14
 -1      1105 1.10789E-02 1.47597E-03-6.62124E-14
 -1      1106 1.13647E-02 1.52927E-03-6.93657E-14
 -1      1107 1.16505E-02 1.58254E-03-7.25566E-14
 -1      1108 1.19363E-02 1.63577E-03-7.57812E-14
 -1      1109 1.22221E-02 1.68898E-03-7.90447E-14
 -1      1110 1.25079E-02 1.74217E-03-8.23373E-14
 -1      1111 1.27937E-02 1.79535E-03-8.56502E-14
 -1      1112 7.68805E-03 8.28463E-04-3.17225E-14
 -1      1113 6.63031E-03 6.20648E-04-2.22567E-14
 -1      1114 5.89283E-03 4.16185E-04-1.70282E-14
 -1      1115 7.41630E-03 7.74704E-04-2.92361E-14
 -1      1116 7.14867E-03 7.21791E-04-2.68284E-14
 -1      1117 6.08899E-03 5.23489E-04-1.75091E-14
 -1      1118 6.38225E-03 5.73638E-04-2.01026E-14
 -1      1119 1.29677E-02 1.82115E-03-8.77374E-14
 -1      1120 1.28674E-02 1.74500E-03-8.71064E-14
 -1      1121 6.51715E-03 5.62042E-04-2.16801E-14
 -1      1122 6.09367E-03 4.87368E-04-1.80543E-14
 -1      1123 6.30195E-03 5.23284E-04-1.98327E-14
 -1      1124 0.00000E+00 0.00000E+00 0.00000E+00
 -1      1125 0.00000E+00 0.00000E+00 0.00000E+00
 -1      1126 0.00000E+00 0.00000E+00 0.00000E+00
 -1      1127 0.00000E+00 0.00000E+00 0.00000E+00
 -1      1128 0.00000E+00 0.00000E+00 0.00000E+00
 -1      1129 0.00000E+00 0.00000E+00 0.00000E+00
 -1      1130 0.00000E+00 0.00000E+00 0.00000E+00
 -1      1131 0.00000E+00 0.00000E+00 0.00000E+00
 -1      1132 0.00000E+00 0.00000E+00 0.00000E+00
 -1      1133 0.00000E+00 0.00000E+00 0.00000E+00
 -1      1134 0.00000E+00 0.00000E+00 0.00000E+00
 -1      1135 0.00000E+00 0.00000E+00 0.00000E+00
 -1      1136 0.00000E+00 0.00000E+00 0.00000E+00
 -1      1137 0.00000E+00 0.00000E+00 0.00000E+00
 -1      1138 0.00000E+00 0.00000E+00 0.00000E+00
 -1      1139 0.00000E+00 0.00000E+00 0.00000E+00
 -1      1140 0.00000E+00 0.00000E+00 0.00000E+00
 -1      1141 2.38402E-04-1.57726E-04 1.16958E-17
 -1      1142 6.33445E-04-3.56072E-04-4.51706E-17
 -1      1143 9.71426E-04-4.94617E-04-2.19483E-16
 -1      1144 1.29641E-03-6.07838E-04-5.29850E-16
 -1      1145 1.61073E-03-7.11430E-04-9.72177E-16
 -1      1146 1.91201E-03-8.08574E-04-1.54682E-15
 -1      1147 2.19731E-03-8.94575E-04-2.25351E-15
 -1      1148 2.46567E-03-9.59748E-04-3.09411E-15
 -1      1149 2.72012E-03-9.92993E-04-4.07241E-15
 -1      1150 2.96804E-03-9.86262E-04-5.18681E-15
 -1      1151 3.21921E-03-9.38317E-04-6.43138E-15
 -1      1152 3.48255E-03-8.55748E-04-7.79815E-15
 -1      1153 3.76313E-03-7.50635E-04-9.28299E-15
 -1      1154 4.06125E-03-6.36402E-04-1.08846E-14
 -1      1155 4.37345E-03-5.24155E-04-1.25952E-14
 -1      1156 4.69447E-03-4.20902E-04-1.44093E-14
 -1      1157 5.01903E-03-3.29621E-04-1.63217E-14
 -1      1158 5.34296E-03-2.50349E-04-1.83270E-14
 -1      1159 5.66352E-03-1.81459E-04-2.04254E-14
 -1      1160 5.97923E-03-1.20674E-04-2.26204E-14
 -1      1161 6.28965E-03-6.57067E-05-2.49041E-14
 -1      1162 6.59496E-03-1.45775E-05-2.72762E-14
 -1      1163 6.89569E-03 3.42749E-05-2.97322E-14
 -1      1164 7.19255E-03 8.19983E-05-3.22721E-14
 -1      1165 7.48627E-03 1.29385E-04-3.48884E-14
 -1      1166 7.77751E-03 1.76945E-04-3.75668E-14
 -1      1167 8.06688E-03 2.24979E-04-4.02977E-14
 -1      1168 8.35485E-03 2.73636E-04-4.30869E-14
 -1      1169 8.64183E-03 3.22965E-04-4.59457E-14
 -1      1170 8.92813E-03 3.72952E-04-4.88668E-14
 -1      1171 9.21397E-03 4.23543E-04-5.18402E-14
 -1      1172 9.49952E-03 4.74667E-04-5.48532E-14
 -1      1173 9.78491E-03 5.26246E-04-5.79005E-14
 -1      1174 1.00702E-02 5.78202E-04-6.09867E-14
 -1      1175 1.03555E-02 6.30464E-04-6.41107E-14
 -1      1176 1.06408E-02 6.82969E-04-6.72702E-14
 -1      1177 1.09262E-02 7.35664E-04-7.04528E-14
 -1      1178 1.12116E-02 7.88505E-04-7.36713E-14
 -1      1179 1.14970E-02 8.41453E-04-7.69233E-14
 -1      1180 1.17825E-02 8.94482E-04-8.02035E-14
 -1      1181 1.20680E-02 9.47567E-04-8.35350E-14
 -1      1182 1.23536E-02 1.00069E-03-8.69092E-14
 -1      1183 1.26392E-02 1.05384E-03-9.03170E-14
 -1      1184 1.29248E-02 1.10701E-03-9.37439E-14
 -1      1185 1.32105E-02 1.16018E-03-9.71881E-14
 -1      1186 1.34961E-02 1.21336E-03-1.00640E-13
 -1      1187 1.37818E-02 1.26653E-03-1.04114E-13
 -1      1188 1.40675E-02 1.31969E-03-1.07604E-13
 -1      1189 1.43533E-02 1.37285E-03-1.11107E-13
 -1      1190 1.46318E-02 1.42467E-03-1.14547E-13
 -1      1191 2.67492E-04 1.65225E-04 2.54245E-17
 -1      1192 6.81066E-04 3.39737E-04 3.46945E-18
 -1      1193 1.06707E-03 4.73966E-04-1.19709E-16
 -1      1194 1.45372E-03 6.05972E-04-3.57407E-16
 -1      1195 1.83987E-03 7.56491E-04-7.11792E-16
 -1      1196 2.21691E-03 9.33447E-04-1.18548E-15
 -1      1197 2.57062E-03 1.12984E-03-1.78271E-15
 -1      1198 2.88756E-03 1.32012E-03-2.51136E-15
 -1      1199 3.16565E-03 1.46465E-03-3.37753E-15
 -1      1200 3.42139E-03 1.52798E-03-4.38290E-15
 -1      1201 3.68435E-03 1.50101E-03-5.52915E-15
 -1      1202 3.97985E-03 1.40832E-03-6.80868E-15
 -1      1203 4.31544E-03 1.29214E-03-8.21833E-15
 -1      1204 4.68180E-03 1.18920E-03-9.74900E-15
 -1      1205 5.06256E-03 1.11913E-03-1.14032E-14
 -1      1206 5.44310E-03 1.08578E-03-1.31791E-14
 -1      1207 5.81419E-03 1.08417E-03-1.50668E-14
 -1      1208 6.17174E-03 1.10642E-03-1.70573E-14
 -1      1209 6.51512E-03 1.14508E-03-1.91472E-14
 -1      1210 6.84558E-03 1.19425E-03-2.13346E-14
 -1      1211 7.16509E-03 1.24969E-03-2.36102E-14
 -1      1212 7.47575E-03 1.30855E-03-2.59707E-14
 -1      1213 7.77948E-03 1.36895E-03-2.84100E-14
 -1      1214 8.07792E-03 1.42974E-03-3.09353E-14
 -1      1215 8.37240E-03 1.49023E-03-3.35314E-14
 -1      1216 8.66396E-03 1.55007E-03-3.61916E-14
 -1      1217 8.95341E-03 1.60908E-03-3.89094E-14
 -1      1218 9.24136E-03 1.66721E-03-4.16850E-14
 -1      1219 9.52828E-03 1.72450E-03-4.45160E-14
 -1      1220 9.81450E-03 1.78102E-03-4.74004E-14
 -1      1221 1.01003E-02 1.83686E-03-5.03330E-14
 -1      1222 1.03858E-02 1.89213E-03-5.33104E-14
 -1      1223 1.06711E-02 1.94692E-03-5.63296E-14
 -1      1224 1.09564E-02 2.00132E-03-5.93969E-14
 -1      1225 1.12417E-02 2.05540E-03-6.25196E-14
 -1      1226 1.15270E-02 2.10924E-03-6.56873E-14
 -1      1227 1.18123E-02 2.16288E-03-6.88944E-14
 -1      1228 1.20977E-02 2.21638E-03-7.21467E-14
 -1      1229 1.23831E-02 2.26977E-03-7.54421E-14
 -1      1230 1.26686E-02 2.32307E-03-7.87691E-14
 -1      1231 1.29542E-02 2.37633E-03-8.21179E-14
 -1      1232 1.32397E-02 2.42954E-03-8.54763E-14
 -1      1233 1.35253E-02 2.48273E-03-8.88343E-14
 -1      1234 1.38110E-02 2.53590E-03-9.21902E-14
 -1      1235 1.40966E-02 2.58906E-03-9.55449E-14
 -1      1236 1.43823E-02 2.64222E-03-9.89192E-14
 -1      1237 1.46680E-02 2.69539E-03-1.02309E-13
 -1      1238 1.49537E-02 2.74856E-03-1.05717E-13
 -1      1239 1.52394E-02 2.80174E-03-1.09136E-13
 -1      1240 1.55180E-02 2.85360E-03-1.12474E-13
 -1      1241 1.56275E-02 2.83672E-03-1.14172E-13
 -1      1242 1.55752E-02 2.75244E-03-1.14331E-13
 -1      1243 1.55229E-02 2.66815E-03-1.14500E-13
 -1      1244 1.54706E-02 2.58385E-03-1.14666E-13
 -1      1245 1.54183E-02 2.49955E-03-1.14826E-13
 -1      1246 1.53664E-02 2.41595E-03-1.14966E-13
 -1      1247 1.53145E-02 2.33234E-03-1.15122E-13
 -1      1248 1.52622E-02 2.24801E-03-1.15264E-13
 -1      1249 1.52099E-02 2.16368E-03-1.15384E-13
 -1      1250 1.51577E-02 2.07934E-03-1.15475E-13
 -1      1251 1.51054E-02 1.99501E-03-1.15552E-13
 -1      1252 1.50536E-02 1.91140E-03-1.15654E-13
 -1      1253 1.50018E-02 1.82780E-03-1.15769E-13
 -1      1254 1.49495E-02 1.74350E-03-1.15873E-13
 -1      1255 1.48973E-02 1.65921E-03-1.15985E-13
 -1      1256 1.48450E-02 1.57492E-03-1.16100E-13
 -1      1257 1.47932E-02 1.49135E-03-1.16195E-13
 -1      1258 5.36307E-03 4.18553E-04-7.76874E-15
 -1      1259 5.27922E-03 5.56785E-04-7.60694E-15
 -1      1260 5.08919E-03 7.03225E-04-7.31502E-15
 -1      1261 4.80401E-03 8.52896E-04-6.90582E-15
 -1      1262 4.44044E-03 9.94284E-04-6.40204E-15
 -1      1263 4.02989E-03 1.10906E-03-5.84881E-15
 -1      1264 3.59728E-03 1.17424E-03-5.28408E-15
 -1      1265 3.15187E-03 1.18206E-03-4.72915E-15
 -1      1266 2.71673E-03 1.12754E-03-4.22026E-15
 -1      1267 2.28059E-03 1.01771E-03-3.74695E-15
 -1      1268 1.86691E-03 8.69299E-04-3.33507E-15
 -1      1269 1.49872E-03 7.02450E-04-2.99999E-15
 -1      1270 1.19534E-03 5.33232E-04-2.74643E-15
 -1      1271 9.85713E-04 3.74448E-04-2.58683E-15
 -1      1272 8.94214E-04 2.34357E-04-2.53134E-15
 -1      1273 9.17247E-04 1.04134E-04-2.57618E-15
 -1      1274 1.04719E-03-2.29690E-05-2.71771E-15
 -1      1275 1.28253E-03-1.56226E-04-2.96262E-15
 -1      1276 1.60597E-03-2.90605E-04-3.30789E-15
 -1      1277 1.98415E-03-4.08870E-04-3.73364E-15
 -1      1278 2.40251E-03-4.99118E-04-4.23430E-15
 -1      1279 2.83485E-03-5.42618E-04-4.77946E-15
 -1      1280 3.25564E-03-5.36530E-04-5.32617E-15
 -1      1281 3.65085E-03-4.84459E-04-5.84228E-15
 -1      1282 4.03273E-03-3.94822E-04-6.33570E-15
 -1      1283 4.40506E-03-2.73686E-04-6.80161E-15
 -1      1284 4.74128E-03-1.36186E-04-7.20072E-15
 -1      1285 5.01508E-03 3.10614E-06-7.50136E-15
 -1      1286 5.22423E-03 1.45003E-04-7.71100E-15
 -1      1287 5.34394E-03 2.82773E-04-7.80413E-15
 -1      1288 1.90398E-04-1.13687E-04-6.64074E-18
 -1      1289 1.27026E-04-5.11401E-05-2.72677E-17
 -1      1290 1.34000E-04-6.46163E-05-2.15079E-17
 -1      1291 1.19036E-04-3.23834E-05-3.64427E-17
 -1      1292 1.22848E-04-4.09307E-05-3.36780E-17
 -1      1293 2.54793E-04-9.57785E-05-7.99599E-17
 -1      1294 1.13085E-04-1.73983E-05-4.10913E-17
 -1      1295 1.16241E-04-2.45161E-05-3.96818E-17
 -1      1296 2.39731E-04-6.09269E-05-9.58977E-17
 -1      1297 1.06955E-04-4.47080E-06-4.37882E-17
 -1      1298 1.10217E-04-1.06034E-05-4.30022E-17
 -1      1299 2.27273E-04-3.21903E-05-1.04531E-16
 -1      1300 1.00263E-04 5.89743E-06-4.50486E-17
 -1      1301 1.03778E-04 1.11150E-06-4.46827E-17
 -1      1302 2.14184E-04-7.81131E-06-1.09206E-16
 -1      1303 9.30129E-05 1.28692E-05-4.56720E-17
 -1      1304 9.66881E-05 9.82834E-06-4.54281E-17
 -1      1305 1.99416E-04 1.14564E-05-1.11415E-16
 -1      1306 8.63556E-05 1.52073E-05-4.58211E-17
 -1      1307 8.95381E-05 1.43747E-05-4.56585E-17
 -1      1308 1.83710E-04 2.35708E-05-1.12201E-16
 -1      1309 8.18331E-05 1.29319E-05-4.55771E-17
 -1      1310 8.37237E-05 1.41046E-05-4.56449E-17
 -1      1311 1.69818E-04 2.68867E-05-1.12147E-16
 -1      1312 8.09194E-05 7.64700E-06-4.48047E-17
 -1      1313 8.08425E-05 9.88444E-06-4.49808E-17
 -1      1314 1.61349E-04 2.22297E-05-1.10968E-16
 -1      1315 8.43227E-05 2.22739E-06-4.34901E-17
 -1      1316 8.20566E-05 4.10993E-06-4.39508E-17
 -1      1317 1.61386E-04 1.33459E-05-1.08745E-16
 -1      1318 9.15039E-05-2.71517E-07-4.13217E-17
 -1      1319 8.74490E-05-5.80371E-08-4.19993E-17
 -1      1320 1.70811E-04 5.91813E-06-1.05032E-16
 -1      1321 1.01571E-04 2.18284E-06-3.79200E-17
 -1      1322 9.61874E-05-1.11616E-07-3.91397E-17
 -1      1323 1.88148E-04 5.11811E-06-9.92181E-17
 -1      1324 1.13212E-04 1.06873E-05-3.29055E-17
 -1      1325 1.07087E-04 5.49860E-06-3.48707E-17
 -1      1326 2.10804E-04 1.43902E-05-9.06257E-17
 -1      1327 1.26010E-04 2.61342E-05-2.49366E-17
 -1      1328 1.19155E-04 1.74958E-05-2.83790E-17
 -1      1329 2.36274E-04 3.54113E-05-7.79677E-17
 -1      1330 1.41672E-04 5.23062E-05-1.20889E-17
 -1      1331 1.32819E-04 3.76288E-05-1.83908E-17
 -1      1332 2.64703E-04 7.05705E-05-5.88857E-17
 -1      1333 1.91022E-04 1.06585E-04 7.79270E-18
 -1      1334 1.66503E-04 7.48913E-05-4.78404E-18
 -1      1335 3.14068E-04 1.26716E-04-3.61446E-17
 -1      1336 4.10923E-04 2.11609E-04-3.32037E-18
 -1      1337 4.84521E-04-2.70911E-04-5.62430E-17
 -1      1338 6.63507E-04-3.51330E-04-1.14749E-16
 -1      1339 8.36692E-04-4.20305E-04-2.08926E-16
 -1      1340 1.00565E-03-4.81478E-04-3.36062E-16
 -1      1341 7.05914E-04-3.42328E-04-1.94208E-16
 -1      1342 1.17087E-03-5.38559E-04-4.94532E-16
 -1      1343 1.33283E-03-5.92540E-04-6.85406E-16
 -1      1344 1.04716E-03-4.67191E-04-4.55771E-16
 -1      1345 1.49182E-03-6.45146E-04-9.08467E-16
 -1      1346 1.64780E-03-6.96167E-04-1.16499E-15
 -1      1347 1.37485E-03-5.77197E-04-8.43618E-16
 -1      1348 1.80070E-03-7.45809E-04-1.45373E-15
 -1      1349 1.95031E-03-7.93210E-04-1.77538E-15
 -1      1350 1.69136E-03-6.80897E-04-1.35948E-15
 -1      1351 2.09654E-03-8.37464E-04-2.12979E-15
 -1      1352 2.23933E-03-8.77261E-04-2.51707E-15
 -1      1353 1.99681E-03-7.77241E-04-2.00502E-15
 -1      1354 2.37883E-03-9.11062E-04-2.93873E-15
 -1      1355 2.51536E-03-9.37448E-04-3.39412E-15
 -1      1356 2.29093E-03-8.58291E-04-2.78256E-15
 -1      1357 2.64945E-03-9.54903E-04-3.88322E-15
 -1      1358 2.78183E-03-9.62407E-04-4.40608E-15
 -1      1359 2.57474E-03-9.12221E-04-3.69394E-15
 -1      1360 2.91336E-03-9.59190E-04-4.96306E-15
 -1      1361 3.04501E-03-9.45089E-04-5.55277E-15
 -1      1362 2.85163E-03-9.27795E-04-4.73981E-15
 -1      1363 3.17770E-03-9.20508E-04-6.17373E-15
 -1      1364 3.31231E-03-8.86271E-04-6.82637E-15
 -1      1365 3.12710E-03-8.99388E-04-5.91720E-15
 -1      1366 3.44951E-03-8.43837E-04-7.50939E-15
 -1      1367 3.58981E-03-7.94712E-04-8.22233E-15
 -1      1368 3.40709E-03-8.30024E-04-7.22148E-15
 -1      1369 3.73346E-03-7.40833E-04-8.96426E-15
 -1      1370 3.88049E-03-6.83878E-04-9.73565E-15
 -1      1371 3.69588E-03-7.30509E-04-8.64596E-15
 -1      1372 4.03074E-03-6.25612E-04-1.05366E-14
 -1      1373 4.18386E-03-5.67432E-04-1.13647E-14
 -1      1374 3.99492E-03-6.15334E-04-1.01891E-14
 -1      1375 4.33943E-03-5.10521E-04-1.22193E-14
 -1      1376 4.49692E-03-4.55792E-04-1.31002E-14
 -1      1377 4.30300E-03-4.97979E-04-1.18442E-14
 -1      1378 4.65583E-03-4.03774E-04-1.40068E-14
 -1      1379 4.81563E-03-3.54904E-04-1.49381E-14
 -1      1380 4.61729E-03-3.87920E-04-1.36050E-14
 -1      1381 4.97586E-03-3.09202E-04-1.58931E-14
 -1      1382 5.13610E-03-2.66752E-04-1.68726E-14
 -1      1383 4.93453E-03-2.89965E-04-1.54665E-14
 -1      1384 5.29601E-03-2.27283E-04-1.78753E-14
 -1      1385 5.45531E-03-1.90666E-04-1.89000E-14
 -1      1386 5.25187E-03-2.05169E-04-1.74231E-14
 -1      1387 5.61378E-03-1.56517E-04-1.99492E-14
 -1      1388 5.77128E-03-1.24611E-04-2.10221E-14
 -1      1389 5.56718E-03-1.32257E-04-1.94740E-14
 -1      1390 5.92770E-03-9.45678E-05-2.21172E-14
 -1      1391 6.08299E-03-6.61398E-05-2.32356E-14
 -1      1392 5.87920E-03-6.88939E-05-2.16163E-14
 -1      1393 6.23714E-03-3.90078E-05-2.43754E-14
 -1      1394 6.39015E-03-1.29414E-05-2.55378E-14
 -1      1395 6.18731E-03-1.25380E-05-2.38494E-14
 -1      1396 6.54208E-03 1.23001E-05-2.67224E-14
 -1      1397 6.69296E-03 3.69108E-05-2.79283E-14
 -1      1398 6.49144E-03 3.90987E-05-2.61706E-14
 -1      1399 6.84287E-03 6.10577E-05-2.91560E-14
 -1      1400 6.99187E-03 8.48931E-05-3.04024E-14
 -1      1401 6.79184E-03 8.78627E-05-2.85798E-14
 -1      1402 7.14006E-03 1.08524E-04-3.16704E-14
 -1      1403 7.28748E-03 1.32063E-04-3.29580E-14
 -1      1404 7.08893E-03 1.35134E-04-3.10716E-14
 -1      1405 7.43424E-03 1.55572E-04-3.42634E-14
 -1      1406 7.58039E-03 1.79131E-04-3.55864E-14
 -1      1407 7.38321E-03 1.81876E-04-3.36431E-14
 -1      1408 7.72600E-03 2.02769E-04-3.69239E-14
 -1      1409 7.87115E-03 2.26539E-04-3.82742E-14
 -1      1410 7.67521E-03 2.28722E-04-3.62818E-14
 -1      1411 8.01589E-03 2.50449E-04-3.96389E-14
 -1      1412 8.16027E-03 2.74532E-04-4.10173E-14
 -1      1413 7.96539E-03 2.76047E-04-3.89815E-14
 -1      1414 8.30435E-03 2.98783E-04-4.24130E-14
 -1      1415 8.44817E-03 3.23220E-04-4.38260E-14
 -1      1416 8.25416E-03 3.24048E-04-4.17399E-14
 -1      1417 8.59176E-03 3.47830E-04-4.52522E-14
 -1      1418 8.73517E-03 3.72621E-04-4.66943E-14
 -1      1419 8.54188E-03 3.72799E-04-4.45594E-14
 -1      1420 8.87842E-03 3.97577E-04-4.81536E-14
 -1      1421 9.02155E-03 4.22700E-04-4.96255E-14
 -1      1422 8.82882E-03 4.22292E-04-4.74417E-14
 -1      1423 9.16457E-03 4.47972E-04-5.11098E-14
 -1      1424 9.30751E-03 4.73390E-04-5.26047E-14
 -1      1425 9.11521E-03 4.72474E-04-5.03819E-14
 -1      1426 9.45037E-03 4.98937E-04-5.41094E-14
 -1      1427 9.59319E-03 5.24609E-04-5.56226E-14
 -1      1428 9.40122E-03 5.23267E-04-5.33678E-14
 -1      1429 9.73596E-03 5.50391E-04-5.71445E-14
 -1      1430 9.87871E-03 5.76276E-04-5.86753E-14
 -1      1431 9.68699E-03 5.74584E-04-5.63900E-14
 -1      1432 1.00214E-02 6.02250E-04-6.02172E-14
 -1      1433 1.01641E-02 6.28309E-04-6.17687E-14
 -1      1434 9.97260E-03 6.26336E-04-5.94498E-14
 -1      1435 1.03068E-02 6.54440E-04-6.33275E-14
 -1      1436 1.04495E-02 6.80637E-04-6.48978E-14
 -1      1437 1.02581E-02 6.78444E-04-6.25471E-14
 -1      1438 1.05922E-02 7.06891E-04-6.64754E-14
 -1      1439 1.07349E-02 7.33197E-04-6.80601E-14
 -1      1440 1.05436E-02 7.30834E-04-6.56824E-14
 -1      1441 1.08776E-02 7.59547E-04-6.96550E-14
 -1      1442 1.10204E-02 7.85937E-04-7.12546E-14
 -1      1443 1.08291E-02 7.83446E-04-6.88539E-14
 -1      1444 1.11631E-02 8.12360E-04-7.28631E-14
 -1      1445 1.13058E-02 8.38813E-04-7.44832E-14
 -1      1446 1.11146E-02 8.36227E-04-7.20571E-14
 -1      1447 1.14486E-02 8.65290E-04-7.61073E-14
 -1      1448 1.15913E-02 8.91790E-04-7.77357E-14
 -1      1449 1.14001E-02 8.89135E-04-7.52903E-14
 -1      1450 1.17341E-02 9.18307E-04-7.93791E-14
 -1      1451 1.18768E-02 9.44839E-04-8.10336E-14
 -1      1452 1.16856E-02 9.42137E-04-7.85548E-14
 -1      1453 1.20196E-02 9.71385E-04-8.26947E-14
 -1      1454 1.21624E-02 9.97941E-04-8.43676E-14
 -1      1455 1.19712E-02 9.95205E-04-8.18567E-14
 -1      1456 1.23052E-02 1.02451E-03-8.60525E-14
 -1      1457 1.24480E-02 1.05108E-03-8.77457E-14
 -1      1458 1.22568E-02 1.04832E-03-8.51990E-14
 -1      1459 1.25908E-02 1.07765E-03-8.94437E-14
 -1      1460 1.27336E-02 1.10423E-03-9.11491E-14
 -1      1461 1.25424E-02 1.10147E-03-8.85771E-14
 -1      1462 1.28764E-02 1.13082E-03-9.28626E-14
 -1      1463 1.30192E-02 1.15741E-03-9.45776E-14
 -1      1464 1.28280E-02 1.15463E-03-9.19825E-14
 -1      1465 1.31621E-02 1.18399E-03-9.62946E-14
 -1      1466 1.33049E-02 1.21058E-03-9.80174E-14
 -1      1467 1.31137E-02 1.20781E-03-9.54069E-14
 -1      1468 1.34477E-02 1.23717E-03-9.97461E-14
 -1      1469 1.35906E-02 1.26376E-03-1.01474E-13
 -1      1470 1.33993E-02 1.26099E-03-9.88489E-14
 -1      1471 1.37334E-02 1.29035E-03-1.03209E-13
 -1      1472 1.38763E-02 1.31693E-03-1.04951E-13
 -1      1473 1.36850E-02 1.31416E-03-1.02310E-13
 -1      1474 1.40191E-02 1.34352E-03-1.06697E-13
 -1      1475 1.41620E-02 1.37010E-03-1.08445E-13
 -1      1476 1.39707E-02 1.36734E-03-1.05789E-13
 -1      1477 1.43048E-02 1.39668E-03-1.10196E-13
 -1      1478 1.44477E-02 1.42325E-03-1.11953E-13
 -1      1479 1.42564E-02 1.42050E-03-1.09285E-13
 -1      1480 1.46575E-02 1.46610E-03-1.14509E-13
 -1      1481 1.46091E-02 1.48993E-03-1.13588E-13
 -1      1482 8.08509E-04 3.61652E-04-7.56231E-17
 -1      1483 6.12063E-04 2.91129E-04-2.52348E-17
 -1      1484 5.52745E-04 2.43756E-04-4.97107E-17
 -1      1485 1.19412E-03 4.90472E-04-2.61510E-16
 -1      1486 1.00203E-03 4.26219E-04-1.54702E-16
 -1      1487 9.38466E-04 3.78462E-04-1.83908E-16
 -1      1488 1.57556E-03 6.28773E-04-5.59286E-16
 -1      1489 1.38512E-03 5.57491E-04-3.95788E-16
 -1      1490 1.31740E-03 5.09315E-04-4.28883E-16
 -1      1491 1.95198E-03 7.91670E-04-9.73736E-16
 -1      1492 1.76468E-03 7.07061E-04-7.51786E-16
 -1      1493 1.69213E-03 6.57934E-04-7.86345E-16
 -1      1494 2.31615E-03 9.81567E-04-1.50898E-15
 -1      1495 2.13626E-03 8.84128E-04-1.22568E-15
 -1      1496 2.06106E-03 8.34676E-04-1.26075E-15
 -1      1497 2.65802E-03 1.18345E-03-2.16987E-15
 -1      1498 2.49054E-03 1.08300E-03-1.82324E-15
 -1      1499 2.41822E-03 1.03523E-03-1.85754E-15
 -1      1500 2.97117E-03 1.36288E-03-2.96585E-15
 -1      1501 2.81825E-03 1.27860E-03-2.55072E-15
 -1      1502 2.75642E-03 1.23534E-03-2.58413E-15
 -1      1503 3.26018E-03 1.47672E-03-3.89962E-15
 -1      1504 3.11778E-03 1.42993E-03-3.41529E-15
 -1      1505 3.07325E-03 1.39305E-03-3.44627E-15
 -1      1506 3.54214E-03 1.49754E-03-4.97341E-15
 -1      1507 3.40049E-03 1.49870E-03-4.41884E-15
 -1      1508 3.37629E-03 1.46729E-03-4.44832E-15
 -1      1509 3.83847E-03 1.43225E-03-6.18532E-15
 -1      1510 3.68732E-03 1.47337E-03-5.56231E-15
 -1      1511 3.68159E-03 1.44408E-03-5.58981E-15
 -1      1512 4.16192E-03 1.31903E-03-7.52976E-15
 -1      1513 3.99652E-03 1.37868E-03-6.84090E-15
 -1      1514 4.00336E-03 1.34807E-03-6.86744E-15
 -1      1515 4.51182E-03 1.20192E-03-8.99950E-15
 -1      1516 4.33407E-03 1.25877E-03-8.24944E-15
 -1      1517 4.34566E-03 1.22522E-03-8.27534E-15
 -1      1518 4.87834E-03 1.11118E-03-1.05897E-14
 -1      1519 4.69381E-03 1.15234E-03-9.77980E-15
 -1      1520 4.70315E-03 1.11597E-03-9.80481E-15
 -1      1521 5.24959E-03 1.05820E-03-1.23023E-14
 -1      1522 5.06409E-03 1.08001E-03-1.14306E-14
 -1      1523 5.06673E-03 1.04176E-03-1.14537E-14
 -1      1524 5.61629E-03 1.04127E-03-1.41286E-14
 -1      1525 5.43398E-03 1.04570E-03-1.32017E-14
 -1      1526 5.42827E-03 1.00658E-03-1.32200E-14
 -1      1527 5.97310E-03 1.05296E-03-1.60647E-14
 -1      1528 5.79616E-03 1.04409E-03-1.50837E-14
 -1      1529 5.78246E-03 1.00487E-03-1.50969E-14
 -1      1530 6.31797E-03 1.08500E-03-1.80988E-14
 -1      1531 6.14708E-03 1.06691E-03-1.70696E-14
 -1      1532 6.12676E-03 1.02806E-03-1.70780E-14
 -1      1533 6.65103E-03 1.13041E-03-2.02320E-14
 -1      1534 6.48593E-03 1.10639E-03-1.91539E-14
 -1      1535 6.46061E-03 1.06817E-03-1.91571E-14
 -1      1536 6.97350E-03 1.18400E-03-2.24590E-14
 -1      1537 6.81349E-03 1.15643E-03-2.13345E-14
 -1      1538 6.78464E-03 1.11892E-03-2.13308E-14
 -1      1539 7.28707E-03 1.24220E-03-2.47698E-14
 -1      1540 7.13129E-03 1.21269E-03-2.36031E-14
 -1      1541 7.10009E-03 1.17588E-03-2.35940E-14
 -1      1542 7.59345E-03 1.30267E-03-2.71670E-14
 -1      1543 7.44105E-03 1.27226E-03-2.59583E-14
 -1      1544 7.40838E-03 1.23608E-03-2.59431E-14
 -1      1545 7.89417E-03 1.36391E-03-2.96425E-14
 -1      1546 7.74442E-03 1.33326E-03-2.83948E-14
 -1      1547 7.71090E-03 1.29762E-03-2.83753E-14
 -1      1548 8.19055E-03 1.42505E-03-3.21997E-14
 -1      1549 8.04282E-03 1.39454E-03-3.09124E-14
 -1      1550 8.00888E-03 1.35935E-03-3.08878E-14
 -1      1551 8.48366E-03 1.48560E-03-3.48229E-14
 -1      1552 8.33745E-03 1.45542E-03-3.35023E-14
 -1      1553 8.30335E-03 1.42060E-03-3.34708E-14
 -1      1554 8.77435E-03 1.54529E-03-3.75070E-14
 -1      1555 8.62926E-03 1.51556E-03-3.61577E-14
 -1      1556 8.59517E-03 1.48103E-03-3.61212E-14
 -1      1557 9.06328E-03 1.60406E-03-4.02505E-14
 -1      1558 8.91900E-03 1.57480E-03-3.88715E-14
 -1      1559 8.88502E-03 1.54050E-03-3.88321E-14
 -1      1560 9.35096E-03 1.66192E-03-4.30521E-14
 -1      1561 9.20725E-03 1.63310E-03-4.16449E-14
 -1      1562 9.17343E-03 1.59898E-03-4.16027E-14
 -1      1563 9.63776E-03 1.71893E-03-4.59077E-14
 -1      1564 9.49445E-03 1.69053E-03-4.44724E-14
 -1      1565 9.46081E-03 1.65653E-03-4.44274E-14
 -1      1566 9.92397E-03 1.77518E-03-4.88114E-14
 -1      1567 9.78092E-03 1.74714E-03-4.73538E-14
 -1      1568 9.74746E-03 1.71325E-03-4.73054E-14
 -1      1569 1.02098E-02 1.83079E-03-5.17652E-14
 -1      1570 1.00669E-02 1.80306E-03-5.02837E-14
 -1      1571 1.00336E-02 1.76923E-03-5.02329E-14
 -1      1572 1.04954E-02 1.88584E-03-5.47613E-14
 -1      1573 1.03526E-02 1.85838E-03-5.32582E-14
 -1      1574 1.03195E-02 1.82460E-03-5.32043E-14
 -1      1575 1.07808E-02 1.94045E-03-5.78016E-14
 -1      1576 1.06381E-02 1.91320E-03-5.62754E-14
 -1      1577 1.06051E-02 1.87946E-03-5.62186E-14
 -1      1578 1.10662E-02 1.99470E-03-6.08913E-14
 -1      1579 1.09235E-02 1.96762E-03-5.93389E-14
 -1      1580 1.08906E-02 1.93390E-03-5.92784E-14
 -1      1581 1.13516E-02 2.04866E-03-6.40311E-14
 -1      1582 1.12089E-02 2.02171E-03-6.24558E-14
 -1      1583 1.11761E-02 1.98802E-03-6.23903E-14
 -1      1584 1.16370E-02 2.10240E-03-6.72155E-14
 -1      1585 1.14943E-02 2.07556E-03-6.56194E-14
 -1      1586 1.14615E-02 2.04187E-03-6.55487E-14
 -1      1587 1.19224E-02 2.15597E-03-7.04384E-14
 -1      1588 1.17797E-02 2.12920E-03-6.88204E-14
 -1      1589 1.17470E-02 2.09552E-03-6.87460E-14
 -1      1590 1.22078E-02 2.20941E-03-7.37031E-14
 -1      1591 1.20651E-02 2.18270E-03-7.20671E-14
 -1      1592 1.20324E-02 2.14902E-03-7.19843E-14
 -1      1593 1.24933E-02 2.26275E-03-7.70080E-14
 -1      1594 1.23506E-02 2.23609E-03-7.53508E-14
 -1      1595 1.23179E-02 2.20241E-03-7.52599E-14
 -1      1596 1.27788E-02 2.31603E-03-8.03375E-14
 -1      1597 1.26361E-02 2.28940E-03-7.86695E-14
 -1      1598 1.26035E-02 2.25571E-03-7.85697E-14
 -1      1599 1.30644E-02 2.36925E-03-8.36888E-14
 -1      1600 1.29216E-02 2.34264E-03-8.20122E-14
 -1      1601 1.28890E-02 2.30896E-03-8.19064E-14
 -1      1602 1.33500E-02 2.42245E-03-8.70455E-14
 -1      1603 1.32072E-02 2.39586E-03-8.53669E-14
 -1      1604 1.31746E-02 2.36217E-03-8.52585E-14
 -1      1605 1.36356E-02 2.47563E-03-9.04052E-14
 -1      1606 1.34928E-02 2.44904E-03-8.87237E-14
 -1      1607 1.34603E-02 2.41535E-03-8.86161E-14
 -1      1608 1.39213E-02 2.52879E-03-9.37644E-14
 -1      1609 1.37784E-02 2.50221E-03-9.20847E-14
 -1      1610 1.37459E-02 2.46852E-03-9.19778E-14
 -1      1611 1.42069E-02 2.58195E-03-9.71314E-14
 -1      1612 1.40641E-02 2.55537E-03-9.54483E-14
 -1      1613 1.40316E-02 2.52168E-03-9.53461E-14
 -1      1614 1.44926E-02 2.63511E-03-1.00514E-13
 -1      1615 1.43498E-02 2.60853E-03-9.88207E-14
 -1      1616 1.43172E-02 2.57484E-03-9.87209E-14
 -1      1617 1.47783E-02 2.68828E-03-1.03911E-13
 -1      1618 1.46355E-02 2.66170E-03-1.02209E-13
 -1      1619 1.46029E-02 2.62800E-03-1.02108E-13
 -1      1620 1.50640E-02 2.74145E-03-1.07322E-13
 -1      1621 1.49212E-02 2.71487E-03-1.05616E-13
 -1      1622 1.48886E-02 2.68117E-03-1.05514E-13
 -1      1623 1.53497E-02 2.79464E-03-1.10745E-13
 -1      1624 1.52069E-02 2.76804E-03-1.09034E-13
 -1      1625 1.51743E-02 2.73435E-03-1.08932E-13
 -1      1626 1.54918E-02 2.81146E-03-1.12549E-13
 -1      1627 1.54384E-02 2.70833E-03-1.12886E-13
 -1      1628 1.54646E-02 2.75047E-03-1.12808E-13
 -1      1629 1.53861E-02 2.62404E-03-1.13051E-13
 -1      1630 1.54123E-02 2.66619E-03-1.12969E-13
 -1      1631 1.53016E-02 2.66423E-03-1.11441E-13
 -1      1632 1.53338E-02 2.53974E-03-1.13208E-13
 -1      1633 1.53600E-02 2.58189E-03-1.13130E-13
 -1      1634 1.52493E-02 2.57993E-03-1.11597E-13
 -1      1635 1.52815E-02 2.45543E-03-1.13364E-13
 -1      1636 1.53076E-02 2.49759E-03-1.13290E-13
 -1      1637 1.51970E-02 2.49563E-03-1.11752E-13
 -1      1638 1.52301E-02 2.37255E-03-1.13504E-13
 -1      1639 1.52558E-02 2.41399E-03-1.13434E-13
 -1      1640 1.51451E-02 2.41204E-03-1.11899E-13
 -1      1641 1.51777E-02 2.28823E-03-1.13649E-13
 -1      1642 1.52039E-02 2.33039E-03-1.13576E-13
 -1      1643 1.50933E-02 2.32844E-03-1.12039E-13
 -1      1644 1.51254E-02 2.20390E-03-1.13774E-13
 -1      1645 1.51516E-02 2.24606E-03-1.13712E-13
 -1      1646 1.50409E-02 2.24412E-03-1.12169E-13
 -1      1647 1.50732E-02 2.11957E-03-1.13891E-13
 -1      1648 1.50993E-02 2.16174E-03-1.13834E-13
 -1      1649 1.49886E-02 2.15979E-03-1.12288E-13
 -1      1650 1.50209E-02 2.03524E-03-1.13977E-13
 -1      1651 1.50470E-02 2.07741E-03-1.13938E-13
 -1      1652 1.49364E-02 2.07547E-03-1.12396E-13
 -1      1653 1.49686E-02 1.95092E-03-1.14070E-13
 -1      1654 1.49947E-02 1.99308E-03-1.14022E-13
 -1      1655 1.48841E-02 1.99115E-03-1.12491E-13
 -1      1656 1.49173E-02 1.86803E-03-1.14171E-13
 -1      1657 1.49429E-02 1.90947E-03-1.14119E-13
 -1      1658 1.48323E-02 1.90754E-03-1.12584E-13
 -1      1659 1.48650E-02 1.78372E-03-1.14278E-13
 -1      1660 1.48911E-02 1.82587E-03-1.14225E-13
 -1      1661 1.47805E-02 1.82394E-03-1.12684E-13
 -1      1662 1.48128E-02 1.69942E-03-1.14379E-13
 -1      1663 1.48389E-02 1.74157E-03-1.14331E-13
 -1      1664 1.47282E-02 1.73963E-03-1.12786E-13
 -1      1665 1.47605E-02 1.61512E-03-1.14491E-13
 -1      1666 1.47866E-02 1.65727E-03-1.14435E-13
 -1      1667 1.46760E-02 1.65533E-03-1.12889E-13
 -1      1668 1.46718E-02 1.53145E-03-1.14068E-13
 -1      1669 1.46979E-02 1.57360E-03-1.14019E-13
 -1      1670 1.45872E-02 1.57166E-03-1.12469E-13
 -1      1671 1.44619E-02 1.48861E-03-1.11517E-13
 -1      1672 5.36425E-03 4.23382E-04-8.07867E-15
 -1      1673 5.38426E-03 3.81570E-04-8.13224E-15
 -1      1674 5.23358E-03 5.26634E-04-7.84281E-15
 -1      1675 5.30795E-03 4.77907E-04-7.95682E-15
 -1      1676 4.97682E-03 6.58013E-04-7.48810E-15
 -1      1677 5.11107E-03 5.90572E-04-7.67997E-15
 -1      1678 4.64767E-03 8.21461E-04-6.99367E-15
 -1      1679 4.80652E-03 7.45956E-04-7.22165E-15
 -1      1680 4.22733E-03 9.89329E-04-6.45140E-15
 -1      1681 4.41622E-03 9.02922E-04-6.74143E-15
 -1      1682 3.85868E-03 1.14079E-03-5.79807E-15
 -1      1683 4.03331E-03 1.08177E-03-6.06988E-15
 -1      1684 3.45674E-03 1.22754E-03-5.17292E-15
 -1      1685 3.64023E-03 1.19678E-03-5.46831E-15
 -1      1686 3.07754E-03 1.22064E-03-4.58805E-15
 -1      1687 3.24908E-03 1.23322E-03-4.84487E-15
 -1      1688 2.69535E-03 1.13110E-03-4.04779E-15
 -1      1689 2.87438E-03 1.18398E-03-4.29095E-15
 -1      1690 2.29092E-03 9.68141E-04-3.56090E-15
 -1      1691 2.47868E-03 1.05064E-03-3.77720E-15
 -1      1692 1.87800E-03 7.73430E-04-3.15724E-15
 -1      1693 2.06451E-03 8.66054E-04-3.33612E-15
 -1      1694 1.49466E-03 5.80739E-04-2.83288E-15
 -1      1695 1.66696E-03 6.67779E-04-2.97258E-15
 -1      1696 1.17340E-03 4.07049E-04-2.58177E-15
 -1      1697 1.31543E-03 4.77888E-04-2.67952E-15
 -1      1698 9.51233E-04 2.91393E-04-2.46029E-15
 -1      1699 1.03557E-03 3.43858E-04-2.51060E-15
 -1      1700 8.74316E-04 2.00056E-04-2.42086E-15
 -1      1701 8.92487E-04 2.37509E-04-2.42279E-15
 -1      1702 9.34958E-04 1.15745E-04-2.49101E-15
 -1      1703 8.89427E-04 1.55236E-04-2.44574E-15
 -1      1704 1.11504E-03 1.64546E-05-2.66153E-15
 -1      1705 1.01940E-03 6.31232E-05-2.57523E-15
 -1      1706 1.42432E-03-1.05854E-04-2.92192E-15
 -1      1707 1.26846E-03-3.85264E-05-2.77527E-15
 -1      1708 1.77346E-03-2.69920E-04-3.31378E-15
 -1      1709 1.60605E-03-1.99099E-04-3.13465E-15
 -1      1710 2.18068E-03-4.20639E-04-3.76809E-15
 -1      1711 1.99674E-03-3.48256E-04-3.53774E-15
 -1      1712 2.55924E-03-5.39279E-04-4.32082E-15
 -1      1713 2.38152E-03-4.92500E-04-4.06700E-15
 -1      1714 2.94764E-03-5.94570E-04-4.91499E-15
 -1      1715 2.77261E-03-5.79269E-04-4.63374E-15
 -1      1716 3.30729E-03-5.66985E-04-5.49490E-15
 -1      1717 3.14631E-03-5.86639E-04-5.23437E-15
 -1      1718 3.66082E-03-4.79195E-04-6.05771E-15
 -1      1719 3.49703E-03-5.27000E-04-5.80037E-15
 -1      1720 4.01836E-03-3.46385E-04-6.59485E-15
 -1      1721 3.85324E-03-4.12417E-04-6.35275E-15
 -1      1722 4.38313E-03-1.74888E-04-7.13509E-15
 -1      1723 4.20822E-03-2.55554E-04-6.90204E-15
 -1      1724 4.73911E-03-2.15658E-05-7.53090E-15
 -1      1725 4.58656E-03-9.30038E-05-7.35115E-15
 -1      1726 5.03361E-03 1.18300E-04-7.84876E-15
 -1      1727 4.90453E-03 5.63287E-05-7.71602E-15
 -1      1728 5.25791E-03 2.40540E-04-8.08235E-15
 -1      1729 5.16399E-03 1.89161E-04-7.99926E-15
 -1      1730 5.37226E-03 3.32866E-04-8.13192E-15
 -1      1731 5.33481E-03 2.91581E-04-8.11735E-15
 -1      1732 4.46715E-03 8.25845E-04-7.05817E-15
 -1      1733 4.85690E-03 6.51130E-04-7.59084E-15
 -1      1734 1.54593E-02 2.77776E-03-1.12449E-13
 -1      1735 1.53225E-02 2.73366E-03-1.11002E-13
 -1      1736 5.34025E-03 4.26764E-04-8.33102E-15
 -1      1737 5.15530E-03 5.16417E-04-8.03617E-15
 -1      1738 5.38775E-03 3.64885E-04-8.45803E-15
 -1      1739 4.07989E-03 1.02042E-03-6.40438E-15
 -1      1740 3.70286E-03 1.18212E-03-5.68507E-15
 -1      1741 3.35074E-03 1.25739E-03-5.02311E-15
 -1      1742 3.00106E-03 1.22606E-03-4.40124E-15
 -1      1743 2.64359E-03 1.09589E-03-3.84285E-15
 -1      1744 2.24819E-03 8.94967E-04-3.36219E-15
 -1      1745 1.83413E-03 6.73835E-04-2.96846E-15
 -1      1746 1.44527E-03 4.67982E-04-2.64482E-15
 -1      1747 1.12070E-03 3.23723E-04-2.43494E-15
 -1      1748 9.18900E-04 2.36446E-04-2.33311E-15
 -1      1749 8.73542E-04 1.80392E-04-2.32121E-15
 -1      1750 9.77938E-04 1.21803E-04-2.42456E-15
 -1      1751 1.21961E-03 3.43047E-05-2.61223E-15
 -1      1752 1.55582E-03-1.04034E-04-2.92017E-15
 -1      1753 1.94801E-03-2.82024E-04-3.34297E-15
 -1      1754 2.32904E-03-4.53695E-04-3.84835E-15
 -1      1755 2.69815E-03-5.78290E-04-4.45163E-15
 -1      1756 3.03613E-03-6.17290E-04-5.07979E-15
 -1      1757 3.36672E-03-5.65109E-04-5.70729E-15
 -1      1758 3.69893E-03-4.45021E-04-6.31464E-15
 -1      1759 4.04983E-03-2.73433E-04-6.92733E-15
 -1      1760 4.41974E-03-8.69114E-05-7.46687E-15
 -1      1761 4.78093E-03 7.53724E-05-7.88130E-15
 -1      1762 5.08184E-03 2.09089E-04-8.22835E-15
 -1      1763 5.29627E-03 3.00107E-04-8.42164E-15
 -1      1764 3.27681E-04-1.78156E-04-4.97107E-17
 -1      1765 3.62252E-04-8.79140E-05-1.51897E-16
 -1      1766 3.72512E-04-1.10833E-04-1.43548E-16
 -1      1767 3.84098E-04-1.36357E-04-1.32991E-16
 -1      1768 3.99333E-04-1.64916E-04-1.17880E-16
 -1      1769 5.12853E-04-1.70061E-04-2.09170E-16
 -1      1770 3.21409E-04-1.21217E-05-1.68024E-16
 -1      1771 3.32321E-04-2.85145E-05-1.65815E-16
 -1      1772 2.96915E-04 1.51649E-05-1.70613E-16
 -1      1773 3.09420E-04 2.73850E-06-1.69610E-16
 -1      1774 4.26901E-04-1.43938E-05-2.49095E-16
 -1      1775 2.71451E-04 3.17314E-05-1.71209E-16
 -1      1776 2.83937E-04 2.49674E-05-1.71006E-16
 -1      1777 3.91386E-04 1.96882E-05-2.51481E-16
 -1      1778 2.49942E-04 3.61232E-05-1.70504E-16
 -1      1779 2.59676E-04 3.54145E-05-1.70924E-16
 -1      1780 3.55307E-04 3.98286E-05-2.51562E-16
 -1      1781 2.38659E-04 3.04161E-05-1.68200E-16
 -1      1782 2.42556E-04 3.41941E-05-1.69637E-16
 -1      1783 3.26728E-04 4.48855E-05-2.49732E-16
 -1      1784 2.42304E-04 2.07307E-05-1.64392E-16
 -1      1785 2.38450E-04 2.55171E-05-1.66574E-16
 -1      1786 3.14958E-04 3.87010E-05-2.45843E-16
 -1      1787 2.61043E-04 1.52406E-05-1.58185E-16
 -1      1788 2.49995E-04 1.69759E-05-1.61763E-16
 -1      1789 3.25612E-04 3.01504E-05-2.39595E-16
 -1      1790 2.92076E-04 2.06030E-05-1.48888E-16
 -1      1791 2.75471E-04 1.62474E-05-1.54174E-16
 -1      1792 3.57605E-04 2.94049E-05-2.30095E-16
 -1      1793 3.30172E-04 4.08060E-05-1.35159E-16
 -1      1794 3.10630E-04 2.87877E-05-1.42898E-16
 -1      1795 4.05067E-04 4.42072E-05-2.16068E-16
 -1      1796 3.72175E-04 7.76397E-05-1.14776E-16
 -1      1797 3.50797E-04 5.71478E-05-1.26242E-16
 -1      1798 4.60439E-04 7.80334E-05-1.95468E-16
 -1      1799 4.20397E-04 1.34687E-04-8.41612E-17
 -1      1800 3.95240E-04 1.03429E-04-1.01346E-16
 -1      1801 5.20778E-04 1.32265E-04-1.65490E-16
 -1      1802 5.02898E-04 2.04341E-04-6.31277E-17
 -1      1803 4.59168E-04 1.65190E-04-7.70055E-17
 -1      1804 5.96193E-04 1.99515E-04-1.38941E-16
 -1      1805 6.92356E-04 2.72940E-04-1.17622E-16
 -1      1806 3.89778E-04-1.88597E-04-8.63160E-17
 -1      1807 1.06895E-03 4.01125E-04-3.10095E-16
 -1      1808 8.80954E-04 3.37397E-04-2.00293E-16
 -1      1809 8.26592E-04 2.97601E-04-2.13805E-16
 -1      1810 5.24885E-04-2.34104E-04-1.53808E-16
 -1      1811 9.27642E-04-3.95035E-04-4.14301E-16
 -1      1812 1.09528E-03-4.52333E-04-5.80197E-16
 -1      1813 1.26029E-03-5.07551E-04-7.77075E-16
 -1      1814 1.42304E-03-5.61010E-04-1.00523E-15
 -1      1815 1.14796E-03-4.37007E-04-7.09150E-16
 -1      1816 1.58372E-03-6.13563E-04-1.26498E-15
 -1      1817 1.74192E-03-6.64655E-04-1.55683E-15
 -1      1818 1.47656E-03-5.44395E-04-1.17022E-15
 -1      1819 1.89801E-03-7.13905E-04-1.88089E-15
 -1      1820 2.05151E-03-7.60120E-04-2.23716E-15
 -1      1821 1.79867E-03-6.47811E-04-1.75630E-15
 -1      1822 2.20258E-03-8.01994E-04-2.62626E-15
 -1      1823 2.35127E-03-8.37879E-04-3.04902E-15
 -1      1824 2.11290E-03-7.42206E-04-2.47071E-15
 -1      1825 2.49749E-03-8.66102E-04-3.50529E-15
 -1      1826 2.64212E-03-8.85083E-04-3.99447E-15
 -1      1827 2.41807E-03-8.16323E-04-3.31629E-15
 -1      1828 2.78490E-03-8.93546E-04-4.51677E-15
 -1      1829 2.92743E-03-8.90655E-04-5.07272E-15
 -1      1830 2.71492E-03-8.56151E-04-4.29488E-15
 -1      1831 3.06938E-03-8.76212E-04-5.66136E-15
 -1      1832 3.21253E-03-8.50597E-04-6.28170E-15
 -1      1833 3.00718E-03-8.50847E-04-5.40562E-15
 -1      1834 3.35653E-03-8.14897E-04-6.93400E-15
 -1      1835 3.50266E-03-7.70525E-04-7.61636E-15
 -1      1836 3.30052E-03-7.98480E-04-6.64666E-15
 -1      1837 3.65066E-03-7.19417E-04-8.32879E-15
 -1      1838 3.80090E-03-6.63450E-04-9.07083E-15
 -1      1839 3.59978E-03-7.07629E-04-8.01150E-15
 -1      1840 3.95326E-03-6.04696E-04-9.84214E-15
 -1      1841 4.10734E-03-5.44804E-04-1.06428E-14
 -1      1842 3.90674E-03-5.93651E-04-9.49626E-15
 -1      1843 4.26317E-03-4.85404E-04-1.14699E-14
 -1      1844 4.41991E-03-4.27582E-04-1.23238E-14
 -1      1845 4.22006E-03-4.72599E-04-1.10957E-14
 -1      1846 4.57774E-03-3.72289E-04-1.32046E-14
 -1      1847 4.73573E-03-3.20028E-04-1.41103E-14
 -1      1848 4.53677E-03-3.56605E-04-1.28042E-14
 -1      1849 4.89410E-03-2.71124E-04-1.50406E-14
 -1      1850 5.05207E-03-2.25660E-04-1.59948E-14
 -1      1851 4.85391E-03-2.52411E-04-1.46158E-14
 -1      1852 5.20984E-03-1.83527E-04-1.69732E-14
 -1      1853 5.36687E-03-1.44572E-04-1.79747E-14
 -1      1854 5.16929E-03-1.62157E-04-1.65244E-14
 -1      1855 5.52331E-03-1.08462E-04-1.89992E-14
 -1      1856 5.67884E-03-7.49466E-05-2.00467E-14
 -1      1857 5.48163E-03-8.50210E-05-1.85257E-14
 -1      1858 5.83356E-03-4.36220E-05-2.11176E-14
 -1      1859 5.98732E-03-1.42269E-05-2.22102E-14
 -1      1860 5.79038E-03-1.87205E-05-2.06195E-14
 -1      1861 6.14017E-03 1.36195E-05-2.33253E-14
 -1      1862 6.29211E-03 4.01504E-05-2.44619E-14
 -1      1863 6.09547E-03 3.94392E-05-2.28033E-14
 -1      1864 6.44315E-03 6.56787E-05-2.56216E-14
 -1      1865 6.59336E-03 9.03950E-05-2.68034E-14
 -1      1866 6.39708E-03 9.19803E-05-2.50748E-14
 -1      1867 6.74275E-03 1.14533E-04-2.80067E-14
 -1      1868 6.89141E-03 1.38240E-04-2.92314E-14
 -1      1869 6.69556E-03 1.40994E-04-2.74362E-14
 -1      1870 7.03934E-03 1.61677E-04-3.04752E-14
 -1      1871 7.18666E-03 1.84951E-04-3.17389E-14
 -1      1872 6.99130E-03 1.88075E-04-2.98805E-14
 -1      1873 7.33337E-03 2.08165E-04-3.30230E-14
 -1      1874 7.47958E-03 2.31393E-04-3.43243E-14
 -1      1875 7.28475E-03 2.34363E-04-3.24064E-14
 -1      1876 7.62528E-03 2.54693E-04-3.56425E-14
 -1      1877 7.77059E-03 2.78115E-04-3.69769E-14
 -1      1878 7.57629E-03 2.80617E-04-3.50055E-14
 -1      1879 7.91550E-03 3.01685E-04-3.83252E-14
 -1      1880 8.06010E-03 3.25433E-04-3.96873E-14
 -1      1881 7.86631E-03 3.27307E-04-3.76701E-14
 -1      1882 8.20439E-03 3.49365E-04-4.10665E-14
 -1      1883 8.34844E-03 3.73497E-04-4.24612E-14
 -1      1884 8.15511E-03 3.74687E-04-4.03956E-14
 -1      1885 8.49226E-03 3.97823E-04-4.38703E-14
 -1      1886 8.63590E-03 4.22349E-04-4.52944E-14
 -1      1887 8.44298E-03 4.22866E-04-4.31806E-14
 -1      1888 8.77937E-03 4.47061E-04-4.67339E-14
 -1      1889 8.92272E-03 4.71959E-04-4.81890E-14
 -1      1890 8.73015E-03 4.71855E-04-4.60281E-14
 -1      1891 9.06594E-03 4.97027E-04-4.96559E-14
 -1      1892 9.20906E-03 5.22260E-04-5.11355E-14
 -1      1893 9.01680E-03 5.21608E-04-4.89326E-14
 -1      1894 9.35211E-03 5.47641E-04-5.26263E-14
 -1      1895 9.49509E-03 5.73165E-04-5.41267E-14
 -1      1896 9.30307E-03 5.72045E-04-5.18877E-14
 -1      1897 9.63802E-03 5.98814E-04-5.56378E-14
 -1      1898 9.78090E-03 6.24583E-04-5.71560E-14
 -1      1899 9.58907E-03 6.23073E-04-5.48855E-14
 -1      1900 9.92375E-03 6.50454E-04-5.86833E-14
 -1      1901 1.00666E-02 6.76422E-04-6.02213E-14
 -1      1902 9.87490E-03 6.74596E-04-5.79196E-14
 -1      1903 1.02094E-02 7.02474E-04-6.17687E-14
 -1      1904 1.03522E-02 7.28603E-04-6.33243E-14
 -1      1905 1.01606E-02 7.26525E-04-6.09914E-14
 -1      1906 1.04949E-02 7.54798E-04-6.48923E-14
 -1      1907 1.06377E-02 7.81054E-04-6.64673E-14
 -1      1908 1.04463E-02 7.78780E-04-6.41024E-14
 -1      1909 1.07805E-02 8.07361E-04-6.80537E-14
 -1      1910 1.09233E-02 8.33714E-04-6.96482E-14
 -1      1911 1.07319E-02 8.31290E-04-6.72546E-14
 -1      1912 1.10660E-02 8.60106E-04-7.12492E-14
 -1      1913 1.12088E-02 8.86533E-04-7.28581E-14
 -1      1914 1.10175E-02 8.83997E-04-7.04405E-14
 -1      1915 1.13516E-02 9.12989E-04-7.44742E-14
 -1      1916 1.14944E-02 9.39471E-04-7.60983E-14
 -1      1917 1.13030E-02 9.36853E-04-7.36580E-14
 -1      1918 1.16371E-02 9.65974E-04-7.77302E-14
 -1      1919 1.17799E-02 9.92495E-04-7.93723E-14
 -1      1920 1.15886E-02 9.89818E-04-7.69073E-14
 -1      1921 1.19227E-02 1.01903E-03-8.10217E-14
 -1      1922 1.20655E-02 1.04558E-03-8.26792E-14
 -1      1923 1.18742E-02 1.04286E-03-8.01868E-14
 -1      1924 1.22083E-02 1.07214E-03-8.43494E-14
 -1      1925 1.23511E-02 1.09871E-03-8.60282E-14
 -1      1926 1.21599E-02 1.09596E-03-8.35024E-14
 -1      1927 1.24939E-02 1.12528E-03-8.77132E-14
 -1      1928 1.26368E-02 1.15186E-03-8.94059E-14
 -1      1929 1.24455E-02 1.14910E-03-8.68534E-14
 -1      1930 1.27796E-02 1.17845E-03-9.11052E-14
 -1      1931 1.29224E-02 1.20503E-03-9.28119E-14
 -1      1932 1.27312E-02 1.20226E-03-9.02339E-14
 -1      1933 1.30653E-02 1.23162E-03-9.45229E-14
 -1      1934 1.32081E-02 1.25821E-03-9.62368E-14
 -1      1935 1.30168E-02 1.25544E-03-9.36389E-14
 -1      1936 1.33509E-02 1.28480E-03-9.79558E-14
 -1      1937 1.34938E-02 1.31139E-03-9.96815E-14
 -1      1938 1.33025E-02 1.30862E-03-9.70679E-14
 -1      1939 1.36366E-02 1.33798E-03-1.01412E-13
 -1      1940 1.37795E-02 1.36457E-03-1.03144E-13
 -1      1941 1.35882E-02 1.36180E-03-1.00513E-13
 -1      1942 1.39223E-02 1.39116E-03-1.04883E-13
 -1      1943 1.40652E-02 1.41774E-03-1.06626E-13
 -1      1944 1.38739E-02 1.41498E-03-1.03979E-13
 -1      1945 1.41921E-02 1.43989E-03-1.08192E-13
 -1      1946 1.43350E-02 1.46647E-03-1.09943E-13
 -1      1947 1.43976E-02 1.50799E-03-1.10419E-13
 -1      1948 1.41437E-02 1.46371E-03-1.07280E-13
 -1      1949 1.44149E-03 5.37122E-04-6.10528E-16
 -1      1950 1.25546E-03 4.67104E-04-4.46190E-16
 -1      1951 1.19467E-03 4.25201E-04-4.60542E-16
 -1      1952 1.81167E-03 6.97333E-04-1.02530E-15
 -1      1953 1.62708E-03 6.13793E-04-8.03611E-16
 -1      1954 1.56259E-03 5.69458E-04-8.17244E-16
 -1      1955 2.17742E-03 8.87062E-04-1.55807E-15
 -1      1956 1.99576E-03 7.89005E-04-1.27662E-15
 -1      1957 1.93115E-03 7.42514E-04-1.28876E-15
 -1      1958 2.53276E-03 1.09442E-03-2.21509E-15
 -1      1959 2.35718E-03 9.90276E-04-1.87032E-15
 -1      1960 2.29736E-03 9.43959E-04-1.87967E-15
 -1      1961 2.87105E-03 1.28569E-03-3.00432E-15
 -1      1962 2.70429E-03 1.19487E-03-2.59276E-15
 -1      1963 2.65389E-03 1.15301E-03-2.59768E-15
 -1      1964 3.19190E-03 1.41352E-03-3.93213E-15
 -1      1965 3.03277E-03 1.35991E-03-3.45050E-15
 -1      1966 2.99386E-03 1.32613E-03-3.45061E-15
 -1      1967 3.50563E-03 1.44355E-03-4.99992E-15
 -1      1968 3.34784E-03 1.44103E-03-4.44859E-15
 -1      1969 3.31957E-03 1.41491E-03-4.44410E-15
 -1      1970 3.82826E-03 1.37922E-03-6.20677E-15
 -1      1971 3.66455E-03 1.42079E-03-5.58613E-15
 -1      1972 3.64531E-03 1.39778E-03-5.57823E-15
 -1      1973 4.16794E-03 1.26158E-03-7.54736E-15
 -1      1974 3.99581E-03 1.32402E-03-6.86060E-15
 -1      1975 3.98472E-03 1.29952E-03-6.85007E-15
 -1      1976 4.52212E-03 1.13870E-03-9.01387E-15
 -1      1977 4.34385E-03 1.19861E-03-8.26546E-15
 -1      1978 4.33903E-03 1.17110E-03-8.25215E-15
 -1      1979 4.88269E-03 1.04345E-03-1.06004E-14
 -1      1980 4.70243E-03 1.08682E-03-9.79245E-15
 -1      1981 4.70041E-03 1.05689E-03-9.77643E-15
 -1      1982 5.24191E-03 9.87797E-04-1.23047E-14
 -1      1983 5.06312E-03 1.01080E-03-1.14379E-14
 -1      1984 5.06003E-03 9.79533E-04-1.14188E-14
 -1      1985 5.59471E-03 9.69772E-04-1.41217E-14
 -1      1986 5.41951E-03 9.74592E-04-1.31998E-14
 -1      1987 5.41255E-03 9.42746E-04-1.31764E-14
 -1      1988 5.93861E-03 9.81460E-04-1.60454E-14
 -1      1989 5.76795E-03 9.72452E-04-1.50697E-14
 -1      1990 5.75587E-03 9.40439E-04-1.50413E-14
 -1      1991 6.27290E-03 1.01416E-03-1.80700E-14
 -1      1992 6.10699E-03 9.95632E-04-1.70460E-14
 -1      1993 6.08977E-03 9.63683E-04-1.70110E-14
 -1      1994 6.59798E-03 1.06055E-03-2.01892E-14
 -1      1995 6.43655E-03 1.03597E-03-1.91178E-14
 -1      1996 6.41485E-03 1.00422E-03-1.90769E-14
 -1      1997 6.91482E-03 1.11525E-03-2.24029E-14
 -1      1998 6.75734E-03 1.08709E-03-2.12846E-14
 -1      1999 6.73208E-03 1.05563E-03-2.12365E-14
 -1      2000 7.22461E-03 1.17454E-03-2.47025E-14
 -1      2001 7.07049E-03 1.14446E-03-2.35422E-14
 -1      2002 7.04257E-03 1.11334E-03-2.34875E-14
 -1      2003 7.52860E-03 1.23598E-03-2.70888E-14
 -1      2004 7.37724E-03 1.20507E-03-2.58851E-14
 -1      2005 7.34742E-03 1.17428E-03-2.58259E-14
 -1      2006 7.82793E-03 1.29808E-03-2.95549E-14
 -1      2007 7.67876E-03 1.26700E-03-2.83121E-14
 -1      2008 7.64766E-03 1.23653E-03-2.82467E-14
 -1      2009 8.12359E-03 1.35993E-03-3.20993E-14
 -1      2010 7.97615E-03 1.32906E-03-3.08184E-14
 -1      2011 7.94420E-03 1.29887E-03-3.07478E-14
 -1      2012 8.41643E-03 1.42105E-03-3.47111E-14
 -1      2013 8.27031E-03 1.39060E-03-3.33958E-14
 -1      2014 8.23785E-03 1.36066E-03-3.33200E-14
 -1      2015 8.70712E-03 1.48122E-03-3.73864E-14
 -1      2016 8.56200E-03 1.45126E-03-3.60406E-14
 -1      2017 8.52925E-03 1.42153E-03-3.59596E-14
 -1      2018 8.99621E-03 1.54036E-03-4.01243E-14
 -1      2019 8.85183E-03 1.51092E-03-3.87486E-14
 -1      2020 8.81895E-03 1.48136E-03-3.86625E-14
 -1      2021 9.28413E-03 1.59850E-03-4.29189E-14
 -1      2022 9.14029E-03 1.56955E-03-4.15149E-14
 -1      2023 9.10737E-03 1.54014E-03-4.14267E-14
 -1      2024 9.57122E-03 1.65573E-03-4.57690E-14
 -1      2025 9.42776E-03 1.62722E-03-4.43371E-14
 -1      2026 9.39486E-03 1.59792E-03-4.42447E-14
 -1      2027 9.85770E-03 1.71215E-03-4.86670E-14
 -1      2028 9.71452E-03 1.68403E-03-4.72117E-14
 -1      2029 9.68167E-03 1.65482E-03-4.71166E-14
 -1      2030 1.01438E-02 1.76787E-03-5.16132E-14
 -1      2031 1.00008E-02 1.74009E-03-5.01349E-14
 -1      2032 9.96801E-03 1.71094E-03-5.00371E-14
 -1      2033 1.04296E-02 1.82302E-03-5.46043E-14
 -1      2034 1.02867E-02 1.79551E-03-5.31035E-14
 -1      2035 1.02540E-02 1.76641E-03-5.30020E-14
 -1      2036 1.07153E-02 1.87769E-03-5.76380E-14
 -1      2037 1.05725E-02 1.85041E-03-5.61147E-14
 -1      2038 1.05398E-02 1.82135E-03-5.60096E-14
 -1      2039 1.10008E-02 1.93198E-03-6.07179E-14
 -1      2040 1.08581E-02 1.90488E-03-5.91714E-14
 -1      2041 1.08255E-02 1.87584E-03-5.90623E-14
 -1      2042 1.12863E-02 1.98597E-03-6.38487E-14
 -1      2043 1.11436E-02 1.95901E-03-6.22781E-14
 -1      2044 1.11111E-02 1.92999E-03-6.21652E-14
 -1      2045 1.15718E-02 2.03972E-03-6.70226E-14
 -1      2046 1.14291E-02 2.01287E-03-6.54307E-14
 -1      2047 1.13966E-02 1.98387E-03-6.53126E-14
 -1      2048 1.18573E-02 2.09330E-03-7.02338E-14
 -1      2049 1.17146E-02 2.06653E-03-6.86229E-14
 -1      2050 1.16822E-02 2.03754E-03-6.84997E-14
 -1      2051 1.21428E-02 2.14674E-03-7.34854E-14
 -1      2052 1.20001E-02 2.12004E-03-7.18560E-14
 -1      2053 1.19677E-02 2.09105E-03-7.17270E-14
 -1      2054 1.24284E-02 2.20009E-03-7.67717E-14
 -1      2055 1.22856E-02 2.17343E-03-7.51239E-14
 -1      2056 1.22533E-02 2.14445E-03-7.49887E-14
 -1      2057 1.27140E-02 2.25337E-03-8.00900E-14
 -1      2058 1.25712E-02 2.22674E-03-7.84277E-14
 -1      2059 1.25388E-02 2.19776E-03-7.82861E-14
 -1      2060 1.29995E-02 2.30659E-03-8.34305E-14
 -1      2061 1.28567E-02 2.27998E-03-8.17575E-14
 -1      2062 1.28244E-02 2.25100E-03-8.16110E-14
 -1      2063 1.32852E-02 2.35979E-03-8.67853E-14
 -1      2064 1.31424E-02 2.33319E-03-8.51070E-14
 -1      2065 1.31101E-02 2.30421E-03-8.49559E-14
 -1      2066 1.35708E-02 2.41296E-03-9.01465E-14
 -1      2067 1.34280E-02 2.38637E-03-8.84650E-14
 -1      2068 1.33957E-02 2.35739E-03-8.83133E-14
 -1      2069 1.38565E-02 2.46612E-03-9.35109E-14
 -1      2070 1.37136E-02 2.43954E-03-9.18289E-14
 -1      2071 1.36814E-02 2.41056E-03-9.16792E-14
 -1      2072 1.41421E-02 2.51928E-03-9.68844E-14
 -1      2073 1.39993E-02 2.49270E-03-9.51980E-14
 -1      2074 1.39670E-02 2.46372E-03-9.50477E-14
 -1      2075 1.44278E-02 2.57244E-03-1.00265E-13
 -1      2076 1.42850E-02 2.54586E-03-9.85722E-14
 -1      2077 1.42527E-02 2.51687E-03-9.84246E-14
 -1      2078 1.47135E-02 2.62560E-03-1.03663E-13
 -1      2079 1.45707E-02 2.59902E-03-1.01962E-13
 -1      2080 1.45384E-02 2.57003E-03-1.01813E-13
 -1      2081 1.49992E-02 2.67877E-03-1.07075E-13
 -1      2082 1.48564E-02 2.65218E-03-1.05368E-13
 -1      2083 1.48241E-02 2.62320E-03-1.05220E-13
 -1      2084 1.52323E-02 2.71951E-03-1.09896E-13
 -1      2085 1.50894E-02 2.69292E-03-1.08182E-13
 -1      2086 1.50572E-02 2.66393E-03-1.08037E-13
 -1      2087 1.52376E-02 2.69222E-03-1.10253E-13
 -1      2088 1.50602E-02 2.45153E-03-1.10298E-13
 -1      2089 1.50864E-02 2.49368E-03-1.10222E-13
 -1      2090 1.51125E-02 2.53583E-03-1.10145E-13
 -1      2091 1.51387E-02 2.57798E-03-1.10071E-13
 -1      2092 1.49757E-02 2.49173E-03-1.08696E-13
 -1      2093 1.51751E-02 2.61403E-03-1.10201E-13
 -1      2094 1.52012E-02 2.65617E-03-1.10124E-13
 -1      2095 1.51110E-02 2.64203E-03-1.09015E-13
 -1      2096 1.50383E-02 2.56993E-03-1.08752E-13
 -1      2097 1.50088E-02 2.36865E-03-1.10435E-13
 -1      2098 1.50345E-02 2.41009E-03-1.10367E-13
 -1      2099 1.49239E-02 2.40814E-03-1.08837E-13
 -1      2100 1.49565E-02 2.28433E-03-1.10567E-13
 -1      2101 1.49826E-02 2.32649E-03-1.10501E-13
 -1      2102 1.48720E-02 2.32454E-03-1.08968E-13
 -1      2103 1.49041E-02 2.20001E-03-1.10691E-13
 -1      2104 1.49303E-02 2.24217E-03-1.10633E-13
 -1      2105 1.48197E-02 2.24023E-03-1.09093E-13
 -1      2106 1.48519E-02 2.11569E-03-1.10807E-13
 -1      2107 1.48780E-02 2.15785E-03-1.10749E-13
 -1      2108 1.47674E-02 2.15591E-03-1.09211E-13
 -1      2109 1.47996E-02 2.03137E-03-1.10911E-13
 -1      2110 1.48257E-02 2.07353E-03-1.10860E-13
 -1      2111 1.47151E-02 2.07159E-03-1.09322E-13
 -1      2112 1.47473E-02 1.94705E-03-1.11007E-13
 -1      2113 1.47734E-02 1.98921E-03-1.10961E-13
 -1      2114 1.46628E-02 1.98727E-03-1.09426E-13
 -1      2115 1.46959E-02 1.86416E-03-1.11102E-13
 -1      2116 1.47216E-02 1.90560E-03-1.11052E-13
 -1      2117 1.46110E-02 1.90366E-03-1.09522E-13
 -1      2118 1.46437E-02 1.77985E-03-1.11199E-13
 -1      2119 1.46698E-02 1.82200E-03-1.11150E-13
 -1      2120 1.45592E-02 1.82006E-03-1.09615E-13
 -1      2121 1.45915E-02 1.69554E-03-1.11298E-13
 -1      2122 1.46176E-02 1.73769E-03-1.11249E-13
 -1      2123 1.45069E-02 1.73575E-03-1.09711E-13
 -1      2124 1.45392E-02 1.61124E-03-1.11398E-13
 -1      2125 1.45653E-02 1.65339E-03-1.11347E-13
 -1      2126 1.44547E-02 1.65145E-03-1.09809E-13
 -1      2127 5.08487E-03 5.06240E-04-8.30407E-15
 -1      2128 5.20861E-03 4.62619E-04-8.47993E-15
 -1      2129 5.39752E-03 3.79020E-04-8.93156E-15
 -1      2130 5.38529E-03 3.65952E-04-8.93325E-15
 -1      2131 5.30750E-03 4.24808E-04-8.64872E-15
 -1      2132 5.36762E-03 4.02714E-04-8.77815E-15
 -1      2133 4.74057E-03 6.60735E-04-7.70098E-15
 -1      2134 4.90869E-03 5.83017E-04-7.98180E-15
 -1      2135 4.36977E-03 8.36241E-04-7.18326E-15
 -1      2136 4.56377E-03 7.41417E-04-7.45187E-15
 -1      2137 3.42563E-04-4.68881E-05-1.62468E-16
 -1      2138 3.52458E-04-6.65501E-05-1.57711E-16
 -1      2139 4.84884E-04-1.10615E-04-2.30650E-16
 -1      2140 4.57734E-04-5.88002E-05-2.42794E-16
 -1      2141 3.61107E-03 1.21909E-03-5.61069E-15
 -1      2142 3.77225E-03 1.15278E-03-5.94753E-15
 -1      2143 3.26210E-03 1.28083E-03-4.84546E-15
 -1      2144 3.41036E-03 1.26937E-03-5.17278E-15
 -1      2145 2.95697E-03 1.22156E-03-4.22814E-15
 -1      2146 3.10264E-03 1.26349E-03-4.51966E-15
 -1      2147 2.61039E-03 1.05287E-03-3.61945E-15
 -1      2148 2.77299E-03 1.14408E-03-3.87746E-15
 -1      2149 2.20118E-03 8.14973E-04-3.14274E-15
 -1      2150 2.38901E-03 9.28976E-04-3.35187E-15
 -1      2151 1.79000E-03 5.80429E-04-2.76108E-15
 -1      2152 1.98383E-03 6.89502E-04-2.93016E-15
 -1      2153 1.40132E-03 3.85263E-04-2.45963E-15
 -1      2154 1.58199E-03 4.73707E-04-2.59956E-15
 -1      2155 1.06031E-03 2.55195E-04-2.25626E-15
 -1      2156 1.19701E-03 2.96831E-04-2.31626E-15
 -1      2157 8.96597E-04 2.04912E-04-2.18311E-15
 -1      2158 9.62433E-04 2.24735E-04-2.21742E-15
 -1      2159 1.01375E-03 2.16010E-04-2.10061E-15
 -1      2160 8.78922E-04 1.74542E-04-2.18036E-15
 -1      2161 8.62984E-04 1.83463E-04-2.15798E-15
 -1      2162 1.02992E-03 1.27962E-04-2.34665E-15
 -1      2163 9.42169E-04 1.52282E-04-2.26989E-15
 -1      2164 1.29647E-03 4.78959E-05-2.52086E-15
 -1      2165 1.14964E-03 9.32993E-05-2.42118E-15
 -1      2166 1.69202E-03-1.26058E-04-2.93117E-15
 -1      2167 1.51276E-03-4.09258E-05-2.73224E-15
 -1      2168 2.06358E-03-3.03199E-04-3.33740E-15
 -1      2169 1.87613E-03-2.12144E-04-3.12899E-15
 -1      2170 1.80039E-03-1.55109E-04-2.92572E-15
 -1      2171 2.46606E-03-5.01482E-04-3.94820E-15
 -1      2172 2.30136E-03-4.19430E-04-3.66010E-15
 -1      2173 2.77905E-03-6.11404E-04-4.54359E-15
 -1      2174 2.62714E-03-5.64244E-04-4.23931E-15
 -1      2175 2.55860E-03-5.38838E-04-4.03456E-15
 -1      2176 3.11283E-03-6.31746E-04-5.28904E-15
 -1      2177 2.97416E-03-6.37475E-04-4.96952E-15
 -1      2178 3.38721E-03-5.60315E-04-5.89703E-15
 -1      2179 3.24944E-03-6.05895E-04-5.58852E-15
 -1      2180 3.16350E-03-6.29783E-04-5.46991E-15
 -1      2181 3.73015E-03-4.03808E-04-6.60095E-15
 -1      2182 3.57890E-03-4.81449E-04-6.29726E-15
 -1      2183 4.06483E-03-2.17904E-04-7.23015E-15
 -1      2184 3.89698E-03-3.16169E-04-6.91160E-15
 -1      2185 3.77921E-03-3.58238E-04-6.89151E-15
 -1      2186 4.48137E-03-8.25427E-07-7.86040E-15
 -1      2187 4.29949E-03-8.95412E-05-7.63026E-15
 -1      2188 4.82952E-03 1.52910E-04-8.27387E-15
 -1      2189 4.66769E-03 8.22379E-05-8.07632E-15
 -1      2190 5.12545E-03 2.73368E-04-8.67623E-15
 -1      2191 4.99208E-03 2.24885E-04-8.51636E-15
 -1      2192 5.34240E-03 3.45556E-04-8.88964E-15
 -1      2193 5.26698E-03 3.24326E-04-8.85004E-15
 -1      2194 5.37463E-03 3.70384E-04-9.36250E-15
 -1      2195 3.94691E-03 1.06922E-03-6.32854E-15
 -1      2196 4.11827E-03 9.70328E-04-6.72180E-15
 -1      2197 3.85076E-03 1.11375E-03-6.24858E-15
 -1      2198 4.64851E-03 6.81364E-04-7.83114E-15
 -1      2199 6.96023E-04-3.02180E-04-2.50302E-16
 -1      2200 4.24138E-03 8.94862E-04-7.10166E-15
 -1      2201 4.36278E-03 8.25006E-04-7.49173E-15
 -1      2202 4.13743E-03 9.54667E-04-7.01692E-15
 -1      2203 7.54844E-04-2.93856E-04-3.34734E-16
 -1      2204 5.26234E-03 4.33108E-04-8.92052E-15
 -1      2205 5.39401E-03 3.90644E-04-9.25000E-15
 -1      2206 1.44766E-02 1.56972E-03-1.10925E-13
 -1      2207 4.99526E-03 5.28748E-04-8.41451E-15
 -1      2208 5.20544E-03 3.22698E-04-9.13889E-15
 -1      2209 4.90060E-03 2.16091E-04-8.71213E-15
 -1      2210 4.15871E-03-1.41829E-04-7.61057E-15
 -1      2211 3.45297E-03-5.29810E-04-6.17014E-15
 -1      2212 2.87450E-03-6.35882E-04-4.73935E-15
 -1      2213 2.20151E-03-3.61185E-04-3.42956E-15
 -1      2214 2.10254E-03-3.03064E-04-3.20783E-15
 -1      2215 2.30885E-03-4.17176E-04-3.51836E-15
 -1      2216 1.40734E-03 2.09292E-05-2.52639E-15
 -1      2217 1.30876E-03 6.42087E-05-2.33124E-15
 -1      2218 1.51200E-03-1.35791E-05-2.52995E-15
 -1      2219 1.08741E-03 1.25204E-04-2.25787E-15
 -1      2220 8.71179E-04 1.82147E-04-2.03885E-15
 -1      2221 1.30240E-03 3.13050E-04-2.27059E-15
 -1      2222 1.71059E-03 5.01355E-04-2.56265E-15
 -1      2223 2.11654E-03 7.32199E-04-2.92038E-15
 -1      2224 2.52454E-03 9.85875E-04-3.38363E-15
 -1      2225 2.88196E-03 1.19116E-03-3.98618E-15
 -1      2226 3.50854E-03 1.25596E-03-5.41971E-15
 -1      2227 3.19050E-03 1.28530E-03-4.65941E-15
 -1      2228 9.02594E-04 1.67992E-04-2.09992E-15
 -1      2229 4.55918E-03 6.75293E-05-8.24307E-15
 -1      2230 1.22963E-03 4.10259E-04-5.81281E-16
 -1      2231 1.05015E-03 3.45598E-04-4.26403E-16
 -1      2232 4.83063E-04 2.57557E-05-3.56472E-16
 -1      2233 5.07439E-04 7.49677E-06-3.56011E-16
 -1      2234 5.31104E-04-1.47846E-05-3.54602E-16
 -1      2235 5.52869E-04-4.00242E-05-3.52095E-16
 -1      2236 6.32467E-04-1.27687E-05-4.80789E-16
 -1      2237 3.99052E-04 5.44192E-05-3.49804E-16
 -1      2238 4.13830E-04 5.37128E-05-3.51783E-16
 -1      2239 3.89519E-04 4.80369E-05-3.43597E-16
 -1      2240 3.90406E-04 5.19246E-05-3.47067E-16
 -1      2241 4.68347E-04 6.45073E-05-4.67982E-16
 -1      2242 4.10943E-04 4.19463E-05-3.34260E-16
 -1      2243 3.96497E-04 4.40297E-05-3.39450E-16
 -1      2244 4.65119E-04 5.86976E-05-4.58956E-16
 -1      2245 4.60183E-04 4.84224E-05-3.20355E-16
 -1      2246 4.32884E-04 4.29326E-05-3.27985E-16
 -1      2247 5.02504E-04 5.71850E-05-4.45729E-16
 -1      2248 5.26580E-04 7.52628E-05-3.00283E-16
 -1      2249 4.92167E-04 5.91223E-05-3.11437E-16
 -1      2250 5.72482E-04 7.39102E-05-4.26701E-16
 -1      2251 6.00489E-04 1.24364E-04-2.71444E-16
 -1      2252 5.63198E-04 9.71607E-05-2.87314E-16
 -1      2253 6.59530E-04 1.15191E-04-3.99623E-16
 -1      2254 1.59280E-03 5.57444E-04-9.73952E-16
 -1      2255 1.41072E-03 4.80370E-04-7.63305E-16
 -1      2256 1.26171E-03 3.95346E-04-7.07984E-16
 -1      2257 1.03909E-03-3.66938E-04-6.39977E-16
 -1      2258 1.20483E-03-4.20582E-04-8.42384E-16
 -1      2259 4.58953E-03 7.05005E-04-8.00743E-15
 -1      2260 4.74306E-03 6.29160E-04-8.27080E-15
 -1      2261 1.37024E-03-4.73774E-04-1.07489E-15
 -1      2262 1.53483E-03-5.26517E-04-1.33799E-15
 -1      2263 1.26444E-03-4.02980E-04-9.79902E-16
 -1      2264 1.69860E-03-5.78886E-04-1.63224E-15
 -1      2265 1.86083E-03-6.29910E-04-1.95819E-15
 -1      2266 1.59693E-03-5.07866E-04-1.50921E-15
 -1      2267 2.02153E-03-6.78796E-04-2.31571E-15
 -1      2268 2.18012E-03-7.23678E-04-2.70576E-15
 -1      2269 1.92747E-03-6.11723E-04-2.16191E-15
 -1      2270 2.33638E-03-7.63066E-04-3.12841E-15
 -1      2271 2.49048E-03-7.94482E-04-3.58475E-15
 -1      2272 2.25181E-03-7.05381E-04-2.94205E-15
 -1      2273 2.64205E-03-8.16337E-04-4.07355E-15
 -1      2274 2.79243E-03-8.26606E-04-4.59561E-15
 -1      2275 2.56667E-03-7.72733E-04-3.85293E-15
 -1      2276 2.94125E-03-8.24419E-04-5.15122E-15
 -1      2277 3.09054E-03-8.09338E-04-5.73920E-15
 -1      2278 2.87294E-03-7.95924E-04-4.89700E-15
 -1      2279 3.23992E-03-7.81889E-04-6.35933E-15
 -1      2280 3.39125E-03-7.43457E-04-7.01155E-15
 -1      2281 3.17660E-03-7.64921E-04-6.07274E-15
 -1      2282 3.54411E-03-6.95705E-04-7.69414E-15
 -1      2283 3.69918E-03-6.41224E-04-8.40739E-15
 -1      2284 3.48511E-03-6.84186E-04-7.37679E-15
 -1      2285 3.85609E-03-5.82096E-04-9.15044E-15
 -1      2286 4.01448E-03-5.20743E-04-9.92228E-15
 -1      2287 3.80206E-03-5.70682E-04-8.80435E-15
 -1      2288 4.17415E-03-4.58957E-04-1.07228E-14
 -1      2289 4.33417E-03-3.98343E-04-1.15505E-14
 -1      2290 4.12559E-03-4.44876E-04-1.03500E-14
 -1      2291 4.49460E-03-3.40051E-04-1.24046E-14
 -1      2292 4.65444E-03-2.84781E-04-1.32854E-14
 -1      2293 4.45099E-03-3.22697E-04-1.20060E-14
 -1      2294 4.81396E-03-2.33048E-04-1.41918E-14
 -1      2295 4.97238E-03-1.84923E-04-1.51219E-14
 -1      2296 4.77388E-03-2.12895E-04-1.37674E-14
 -1      2297 5.13004E-03-1.40461E-04-1.60757E-14
 -1      2298 5.28645E-03-9.94083E-05-1.70537E-14
 -1      2299 5.09176E-03-1.18226E-04-1.56284E-14
 -1      2300 5.44192E-03-6.15471E-05-1.80541E-14
 -1      2301 5.59618E-03-2.65208E-05-1.90772E-14
 -1      2302 5.40389E-03-3.78530E-05-1.75831E-14
 -1      2303 5.74947E-03 6.00864E-06-2.01227E-14
 -1      2304 5.90171E-03 3.63897E-05-2.11918E-14
 -1      2305 5.71062E-03 3.06907E-05-1.96283E-14
 -1      2306 6.05304E-03 6.49769E-05-2.22835E-14
 -1      2307 6.20348E-03 9.20645E-05-2.33955E-14
 -1      2308 6.01277E-03 9.02934E-05-2.17641E-14
 -1      2309 6.35312E-03 1.17967E-04-2.45311E-14
 -1      2310 6.50201E-03 1.42914E-04-2.56889E-14
 -1      2311 6.31121E-03 1.43647E-04-2.39891E-14
 -1      2312 6.65021E-03 1.67156E-04-2.68674E-14
 -1      2313 6.79781E-03 1.90862E-04-2.80684E-14
 -1      2314 6.60672E-03 1.92993E-04-2.63017E-14
 -1      2315 6.94482E-03 2.14217E-04-2.92899E-14
 -1      2316 7.09134E-03 2.37341E-04-3.05310E-14
 -1      2317 6.89992E-03 2.40058E-04-2.86997E-14
 -1      2318 7.23738E-03 2.60357E-04-3.17928E-14
 -1      2319 7.38303E-03 2.83348E-04-3.30723E-14
 -1      2320 7.19132E-03 2.86095E-04-3.11809E-14
 -1      2321 7.52828E-03 3.06390E-04-3.43704E-14
 -1      2322 7.67323E-03 3.29534E-04-3.56858E-14
 -1      2323 7.48131E-03 3.31955E-04-3.37377E-14
 -1      2324 7.81786E-03 3.52823E-04-3.70185E-14
 -1      2325 7.96224E-03 3.76286E-04-3.83638E-14
 -1      2326 7.77021E-03 3.78181E-04-3.63663E-14
 -1      2327 8.10638E-03 3.99940E-04-3.97249E-14
 -1      2328 8.25034E-03 4.23801E-04-4.11026E-14
 -1      2329 8.05826E-03 4.25079E-04-3.90572E-14
 -1      2330 8.39410E-03 4.47869E-04-4.24942E-14
 -1      2331 8.53772E-03 4.72149E-04-4.39014E-14
 -1      2332 8.34566E-03 4.72792E-04-4.18087E-14
 -1      2333 8.68120E-03 4.96631E-04-4.53228E-14
 -1      2334 8.82457E-03 5.21315E-04-4.67601E-14
 -1      2335 8.63257E-03 5.21355E-04-4.46199E-14
 -1      2336 8.96784E-03 5.46185E-04-4.82132E-14
 -1      2337 9.11103E-03 5.71237E-04-4.96763E-14
 -1      2338 8.91909E-03 5.70731E-04-4.74929E-14
 -1      2339 9.25414E-03 5.96453E-04-5.11517E-14
 -1      2340 9.39719E-03 6.21827E-04-5.26383E-14
 -1      2341 9.20535E-03 6.20845E-04-5.04185E-14
 -1      2342 9.54019E-03 6.47341E-04-5.41351E-14
 -1      2343 9.68316E-03 6.72988E-04-5.56424E-14
 -1      2344 9.49140E-03 6.71604E-04-5.33879E-14
 -1      2345 9.82608E-03 6.98751E-04-5.71574E-14
 -1      2346 9.96898E-03 7.24624E-04-5.86818E-14
 -1      2347 9.77731E-03 7.22907E-04-5.63964E-14
 -1      2348 1.01119E-02 7.50591E-04-6.02167E-14
 -1      2349 1.02547E-02 7.76645E-04-6.17610E-14
 -1      2350 1.00631E-02 7.74661E-04-5.94434E-14
 -1      2351 1.03976E-02 8.02775E-04-6.33168E-14
 -1      2352 1.05404E-02 8.28975E-04-6.48819E-14
 -1      2353 1.03489E-02 8.26778E-04-6.25306E-14
 -1      2354 1.06832E-02 8.55232E-04-6.64548E-14
 -1      2355 1.08260E-02 8.81543E-04-6.80383E-14
 -1      2356 1.06346E-02 8.79183E-04-6.56588E-14
 -1      2357 1.09689E-02 9.07899E-04-6.96323E-14
 -1      2358 1.11117E-02 9.34295E-04-7.12327E-14
 -1      2359 1.09203E-02 9.31809E-04-6.88232E-14
 -1      2360 1.12545E-02 9.60725E-04-7.28405E-14
 -1      2361 1.13973E-02 9.87185E-04-7.44576E-14
 -1      2362 1.12059E-02 9.84606E-04-7.20240E-14
 -1      2363 1.15401E-02 1.01367E-03-7.60806E-14
 -1      2364 1.16829E-02 1.04018E-03-7.77130E-14
 -1      2365 1.14916E-02 1.03753E-03-7.52551E-14
 -1      2366 1.18258E-02 1.06670E-03-7.93531E-14
 -1      2367 1.19686E-02 1.09324E-03-8.10009E-14
 -1      2368 1.17772E-02 1.09054E-03-7.85182E-14
 -1      2369 1.21114E-02 1.11979E-03-8.26583E-14
 -1      2370 1.22542E-02 1.14635E-03-8.43234E-14
 -1      2371 1.20629E-02 1.14362E-03-8.18153E-14
 -1      2372 1.23971E-02 1.17292E-03-8.59966E-14
 -1      2373 1.25399E-02 1.19950E-03-8.76770E-14
 -1      2374 1.23486E-02 1.19675E-03-8.51417E-14
 -1      2375 1.26827E-02 1.22608E-03-8.93649E-14
 -1      2376 1.28256E-02 1.25267E-03-9.10598E-14
 -1      2377 1.26343E-02 1.24990E-03-8.84987E-14
 -1      2378 1.29684E-02 1.27925E-03-9.27593E-14
 -1      2379 1.31112E-02 1.30584E-03-9.44672E-14
 -1      2380 1.29200E-02 1.30307E-03-9.18835E-14
 -1      2381 1.32541E-02 1.33244E-03-9.61798E-14
 -1      2382 1.33969E-02 1.35903E-03-9.78954E-14
 -1      2383 1.32056E-02 1.35625E-03-9.52924E-14
 -1      2384 1.35398E-02 1.38562E-03-9.96180E-14
 -1      2385 1.36826E-02 1.41221E-03-1.01343E-13
 -1      2386 1.34913E-02 1.40944E-03-9.87243E-14
 -1      2387 1.38255E-02 1.43880E-03-1.03074E-13
 -1      2388 1.39683E-02 1.46539E-03-1.04809E-13
 -1      2389 1.37770E-02 1.46262E-03-1.02172E-13
 -1      2390 2.33600E-03 9.44941E-04-2.10694E-15
 -1      2391 2.15002E-03 8.37843E-04-1.77853E-15
 -1      2392 2.70257E-03 1.15807E-03-2.86200E-15
 -1      2393 2.52117E-03 1.05392E-03-2.46812E-15
 -1      2394 2.37937E-03 9.46569E-04-2.33728E-15
 -1      2395 3.05242E-03 1.32410E-03-3.75410E-15
 -1      2396 2.87928E-03 1.25117E-03-3.29074E-15
 -1      2397 2.75651E-03 1.16520E-03-3.12878E-15
 -1      2398 3.38723E-03 1.39005E-03-4.78809E-15
 -1      2399 3.21869E-03 1.37238E-03-4.25318E-15
 -1      2400 3.11364E-03 1.32274E-03-4.05935E-15
 -1      2401 3.72776E-03 1.34075E-03-5.96428E-15
 -1      2402 3.55489E-03 1.37754E-03-5.35844E-15
 -1      2403 3.46077E-03 1.35728E-03-5.13516E-15
 -1      2404 4.08442E-03 1.21971E-03-7.27635E-15
 -1      2405 3.90392E-03 1.28494E-03-6.60327E-15
 -1      2406 3.81888E-03 1.27251E-03-6.35347E-15
 -1      2407 4.45216E-03 1.08601E-03-8.71674E-15
 -1      2408 4.26819E-03 1.15126E-03-7.98135E-15
 -1      2409 4.19364E-03 1.13212E-03-7.70673E-15
 -1      2410 4.81824E-03 9.80219E-04-1.02777E-14
 -1      2411 4.63664E-03 1.02840E-03-9.48230E-15
 -1      2412 4.57218E-03 9.98963E-04-9.18608E-15
 -1      2413 5.17446E-03 9.16408E-04-1.19536E-14
 -1      2414 4.99825E-03 9.43068E-04-1.11011E-14
 -1      2415 4.93920E-03 9.05759E-04-1.07825E-14
 -1      2416 5.51856E-03 8.92653E-04-1.37403E-14
 -1      2417 5.34825E-03 9.00064E-04-1.28330E-14
 -1      2418 5.28912E-03 8.57324E-04-1.24904E-14
 -1      2419 5.85153E-03 9.00496E-04-1.56329E-14
 -1      2420 5.68644E-03 8.93223E-04-1.46741E-14
 -1      2421 5.62330E-03 8.46749E-04-1.43064E-14
 -1      2422 6.17517E-03 9.30826E-04-1.76263E-14
 -1      2423 6.01443E-03 9.13352E-04-1.66169E-14
 -1      2424 5.94547E-03 8.64187E-04-1.62252E-14
 -1      2425 6.49118E-03 9.75988E-04-1.97146E-14
 -1      2426 6.33402E-03 9.51930E-04-1.86593E-14
 -1      2427 6.25903E-03 9.00881E-04-1.82421E-14
 -1      2428 6.80092E-03 1.03026E-03-2.18960E-14
 -1      2429 6.64672E-03 1.00225E-03-2.07934E-14
 -1      2430 6.56637E-03 9.49991E-04-2.03528E-14
 -1      2431 7.10549E-03 1.08965E-03-2.41685E-14
 -1      2432 6.95375E-03 1.05949E-03-2.30219E-14
 -1      2433 6.86903E-03 1.00657E-03-2.25563E-14
 -1      2434 7.40583E-03 1.15152E-03-2.65257E-14
 -1      2435 7.25610E-03 1.12039E-03-2.53361E-14
 -1      2436 7.16804E-03 1.06720E-03-2.48486E-14
 -1      2437 7.70272E-03 1.21420E-03-2.89655E-14
 -1      2438 7.55463E-03 1.18284E-03-2.77362E-14
 -1      2439 7.46413E-03 1.12965E-03-2.72255E-14
 -1      2440 7.99685E-03 1.27670E-03-3.14842E-14
 -1      2441 7.85007E-03 1.24552E-03-3.02147E-14
 -1      2442 7.75785E-03 1.19253E-03-2.96853E-14
 -1      2443 8.28879E-03 1.33846E-03-3.40720E-14
 -1      2444 8.14305E-03 1.30770E-03-3.27690E-14
 -1      2445 8.04965E-03 1.25498E-03-3.22193E-14
 -1      2446 8.57901E-03 1.39922E-03-3.67260E-14
 -1      2447 8.43407E-03 1.36898E-03-3.53918E-14
 -1      2448 8.33993E-03 1.31658E-03-3.48228E-14
 -1      2449 8.86792E-03 1.45888E-03-3.94441E-14
 -1      2450 8.72360E-03 1.42919E-03-3.80774E-14
 -1      2451 8.62899E-03 1.37711E-03-3.74935E-14
 -1      2452 9.15585E-03 1.51747E-03-4.22197E-14
 -1      2453 9.01199E-03 1.48831E-03-4.08243E-14
 -1      2454 8.91711E-03 1.43652E-03-4.02234E-14
 -1      2455 9.44303E-03 1.57506E-03-4.50534E-14
 -1      2456 9.29951E-03 1.54639E-03-4.36297E-14
 -1      2457 9.20452E-03 1.49487E-03-4.30142E-14
 -1      2458 9.72968E-03 1.63179E-03-4.79363E-14
 -1      2459 9.58641E-03 1.60353E-03-4.64890E-14
 -1      2460 9.49137E-03 1.55225E-03-4.58598E-14
 -1      2461 1.00159E-02 1.68776E-03-5.08668E-14
 -1      2462 9.87285E-03 1.65986E-03-4.93955E-14
 -1      2463 9.77783E-03 1.60877E-03-4.87563E-14
 -1      2464 1.03019E-02 1.74310E-03-5.38420E-14
 -1      2465 1.01590E-02 1.71550E-03-5.23484E-14
 -1      2466 1.00640E-02 1.66457E-03-5.16977E-14
 -1      2467 1.05878E-02 1.79792E-03-5.68600E-14
 -1      2468 1.04449E-02 1.77057E-03-5.53457E-14
 -1      2469 1.03500E-02 1.71977E-03-5.46821E-14
 -1      2470 1.08735E-02 1.85232E-03-5.99243E-14
 -1      2471 1.07306E-02 1.82517E-03-5.83877E-14
 -1      2472 1.06358E-02 1.77448E-03-5.77115E-14
 -1      2473 1.11591E-02 1.90640E-03-6.30332E-14
 -1      2474 1.10163E-02 1.87940E-03-6.14725E-14
 -1      2475 1.09215E-02 1.82879E-03-6.07841E-14
 -1      2476 1.14447E-02 1.96022E-03-6.61894E-14
 -1      2477 1.13019E-02 1.93334E-03-6.46071E-14
 -1      2478 1.12072E-02 1.88279E-03-6.39025E-14
 -1      2479 1.17303E-02 2.01384E-03-6.93821E-14
 -1      2480 1.15875E-02 1.98705E-03-6.77801E-14
 -1      2481 1.14929E-02 1.93655E-03-6.70635E-14
 -1      2482 1.20159E-02 2.06731E-03-7.26129E-14
 -1      2483 1.18731E-02 2.04059E-03-7.09931E-14
 -1      2484 1.17785E-02 1.99012E-03-7.02617E-14
 -1      2485 1.23015E-02 2.12068E-03-7.58782E-14
 -1      2486 1.21587E-02 2.09401E-03-7.42425E-14
 -1      2487 1.20641E-02 2.04356E-03-7.34977E-14
 -1      2488 1.25871E-02 2.17397E-03-7.91762E-14
 -1      2489 1.24443E-02 2.14733E-03-7.75221E-14
 -1      2490 1.23498E-02 2.09691E-03-7.67647E-14
 -1      2491 1.28728E-02 2.22720E-03-8.25041E-14
 -1      2492 1.27299E-02 2.20059E-03-8.08383E-14
 -1      2493 1.26354E-02 2.15018E-03-8.00670E-14
 -1      2494 1.31584E-02 2.28040E-03-8.58495E-14
 -1      2495 1.30156E-02 2.25381E-03-8.41750E-14
 -1      2496 1.29211E-02 2.20340E-03-8.33963E-14
 -1      2497 1.34440E-02 2.33358E-03-8.92089E-14
 -1      2498 1.33012E-02 2.30699E-03-8.75273E-14
 -1      2499 1.32067E-02 2.25659E-03-8.67418E-14
 -1      2500 1.37297E-02 2.38674E-03-9.25740E-14
 -1      2501 1.35869E-02 2.36016E-03-9.08907E-14
 -1      2502 1.34924E-02 2.30976E-03-9.01028E-14
 -1      2503 1.40154E-02 2.43989E-03-9.59487E-14
 -1      2504 1.38726E-02 2.41332E-03-9.42611E-14
 -1      2505 1.37781E-02 2.36292E-03-9.34721E-14
 -1      2506 1.43011E-02 2.49305E-03-9.93302E-14
 -1      2507 1.41582E-02 2.46647E-03-9.76379E-14
 -1      2508 1.40638E-02 2.41607E-03-9.68496E-14
 -1      2509 1.45868E-02 2.54621E-03-1.02727E-13
 -1      2510 1.44439E-02 2.51963E-03-1.01026E-13
 -1      2511 1.43495E-02 2.46922E-03-1.00237E-13
 -1      2512 1.48725E-02 2.59938E-03-1.06138E-13
 -1      2513 1.47296E-02 2.57279E-03-1.04430E-13
 -1      2514 1.46352E-02 2.52238E-03-1.03640E-13
 -1      2515 1.50208E-02 2.62788E-03-1.07905E-13
 -1      2516 1.47352E-02 2.28044E-03-1.07499E-13
 -1      2517 1.47613E-02 2.32260E-03-1.07438E-13
 -1      2518 1.46829E-02 2.19613E-03-1.07622E-13
 -1      2519 1.47090E-02 2.23828E-03-1.07562E-13
 -1      2520 1.45984E-02 2.23634E-03-1.06034E-13
 -1      2521 1.48389E-02 2.44763E-03-1.07241E-13
 -1      2522 1.48651E-02 2.48978E-03-1.07169E-13
 -1      2523 1.47873E-02 2.36439E-03-1.07372E-13
 -1      2524 1.48130E-02 2.40583E-03-1.07307E-13
 -1      2525 1.47024E-02 2.40389E-03-1.05782E-13
 -1      2526 1.46505E-02 2.32030E-03-1.05910E-13
 -1      2527 1.46306E-02 2.11181E-03-1.07731E-13
 -1      2528 1.46567E-02 2.15397E-03-1.07676E-13
 -1      2529 1.45461E-02 2.15202E-03-1.06147E-13
 -1      2530 1.45783E-02 2.02749E-03-1.07842E-13
 -1      2531 1.46044E-02 2.06965E-03-1.07787E-13
 -1      2532 1.44938E-02 2.06770E-03-1.06255E-13
 -1      2533 1.45260E-02 1.94317E-03-1.07941E-13
 -1      2534 1.45521E-02 1.98533E-03-1.07891E-13
 -1      2535 1.44415E-02 1.98338E-03-1.06361E-13
 -1      2536 1.44746E-02 1.86028E-03-1.08035E-13
 -1      2537 1.45003E-02 1.90172E-03-1.07989E-13
 -1      2538 1.43897E-02 1.89978E-03-1.06457E-13
 -1      2539 1.44224E-02 1.77596E-03-1.08130E-13
 -1      2540 1.44485E-02 1.81812E-03-1.08084E-13
 -1      2541 1.43378E-02 1.81618E-03-1.06553E-13
 -1      2542 1.43701E-02 1.69166E-03-1.08225E-13
 -1      2543 1.43963E-02 1.73381E-03-1.08178E-13
 -1      2544 1.42856E-02 1.73186E-03-1.06648E-13
 -1      2545 1.43179E-02 1.60735E-03-1.08318E-13
 -1      2546 1.43440E-02 1.64950E-03-1.08271E-13
 -1      2547 1.42334E-02 1.64756E-03-1.06741E-13
 -1      2548 5.38427E-03 4.00593E-04-9.60440E-15
 -1      2549 5.41574E-03 3.93611E-04-9.76299E-15
 -1      2550 4.92096E-03 5.51011E-04-8.60136E-15
 -1      2551 5.08469E-03 4.89380E-04-8.93868E-15
 -1      2552 4.86559E-03 5.82364E-04-8.78329E-15
 -1      2553 1.96269E-03 7.36339E-04-1.48078E-15
 -1      2554 1.77751E-03 6.42559E-04-1.21264E-15
 -1      2555 1.99648E-03 7.29294E-04-1.67593E-15
 -1      2556 6.61938E-04-2.26268E-04-3.06043E-16
 -1      2557 8.83836E-04-3.09164E-04-4.87281E-16
 -1      2558 9.44460E-04-2.95696E-04-5.91541E-16
 -1      2559 6.43225E-04-1.89025E-04-3.22157E-16
 -1      2560 1.43496E-02 1.54758E-03-1.09353E-13
 -1      2561 5.26806E-03 3.52965E-04-9.68071E-15
 -1      2562 5.13500E-03 3.19297E-04-9.49817E-15
 -1      2563 5.22450E-03 4.43107E-04-9.26598E-15
 -1      2564 5.31598E-03 4.19672E-04-9.44432E-15
 -1      2565 5.40065E-03 3.82049E-04-9.79014E-15
 -1      2566 5.35989E-03 3.74793E-04-9.74503E-15
 -1      2567 1.21999E-03 2.58333E-04-2.06959E-15
 -1      2568 1.41287E-03 3.32354E-04-2.20016E-15
 -1      2569 4.34667E-04 4.90771E-05-3.54399E-16
 -1      2570 4.57486E-04 3.97992E-05-3.55239E-16
 -1      2571 5.69363E-04 3.36422E-05-4.80315E-16
 -1      2572 5.08327E-04 5.92952E-05-4.75070E-16
 -1      2573 3.13416E-03 1.28295E-03-4.47496E-15
 -1      2574 3.26105E-03 1.30025E-03-4.79778E-15
 -1      2575 9.38121E-04 1.61894E-04-2.00710E-15
 -1      2576 8.73578E-04 1.66529E-04-1.92299E-15
 -1      2577 3.43123E-03 1.28759E-03-5.24130E-15
 -1      2578 3.59476E-03 1.23789E-03-5.68282E-15
 -1      2579 2.82398E-03 1.15890E-03-3.77045E-15
 -1      2580 2.97809E-03 1.23475E-03-4.11395E-15
 -1      2581 3.06043E-03 1.26542E-03-4.24002E-15
 -1      2582 2.42581E-03 9.07115E-04-3.12287E-15
 -1      2583 2.60874E-03 1.02958E-03-3.37377E-15
 -1      2584 2.03328E-03 6.55873E-04-2.68855E-15
 -1      2585 2.22291E-03 7.76709E-04-2.88514E-15
 -1      2586 1.62706E-03 4.30635E-04-2.34585E-15
 -1      2587 1.81543E-03 5.29621E-04-2.49268E-15
 -1      2588 9.61757E-04 1.88387E-04-1.94581E-15
 -1      2589 1.05260E-03 2.06358E-04-1.97911E-15
 -1      2590 4.64497E-03 1.30456E-04-8.70054E-15
 -1      2591 4.47853E-03 5.22274E-05-8.47216E-15
 -1      2592 8.50025E-04 1.69519E-04-1.86793E-15
 -1      2593 8.87581E-04 1.72212E-04-1.89229E-15
 -1      2594 1.12492E-03 1.21822E-04-2.13266E-15
 -1      2595 1.01905E-03 1.45826E-04-2.06782E-15
 -1      2596 9.61538E-04 1.51795E-04-1.88655E-15
 -1      2597 1.88212E-03-1.87530E-04-2.89542E-15
 -1      2598 1.71933E-03-1.05633E-04-2.71070E-15
 -1      2599 2.62338E-03-5.73574E-04-4.11468E-15
 -1      2600 2.49361E-03-5.12678E-04-3.83187E-15
 -1      2601 2.94899E-03-6.52956E-04-4.94258E-15
 -1      2602 2.79208E-03-6.27299E-04-4.52107E-15
 -1      2603 3.22077E-03-6.19368E-04-5.70052E-15
 -1      2604 3.11351E-03-6.44617E-04-5.39813E-15
 -1      2605 3.52750E-03-4.87065E-04-6.50077E-15
 -1      2606 3.37092E-03-5.65145E-04-6.09313E-15
 -1      2607 3.30654E-03-5.90543E-04-6.01426E-15
 -1      2608 3.83431E-03-3.09214E-04-7.25044E-15
 -1      2609 3.69369E-03-3.94828E-04-6.93056E-15
 -1      2610 4.24152E-03-7.10802E-05-8.08224E-15
 -1      2611 4.03159E-03-1.93454E-04-7.66788E-15
 -1      2612 4.96365E-03 2.60660E-04-9.20238E-15
 -1      2613 4.80926E-03 2.01442E-04-8.94974E-15
 -1      2614 4.73504E-03 1.77964E-04-9.18269E-15
 -1      2615 3.76457E-03 1.16475E-03-6.13141E-15
 -1      2616 3.91191E-03 1.08468E-03-6.51970E-15
 -1      2617 9.13215E-04 3.02514E-04-3.16262E-16
 -1      2618 7.34193E-04 2.42088E-04-2.09536E-16
 -1      2619 6.87413E-04 2.07904E-04-2.16393E-16
 -1      2620 9.53337E-04 2.88834E-04-4.11157E-16
 -1      2621 3.36301E-03 1.30359E-03-5.04018E-15
 -1      2622 6.86678E-04-7.42375E-05-4.75165E-16
 -1      2623 5.72920E-04-6.79598E-05-3.48300E-16
 -1      2624 5.90913E-04-9.78537E-05-3.42676E-16
 -1      2625 1.62222E-03 5.44539E-04-1.13520E-15
 -1      2626 6.46884E-04 1.68315E-04-2.40449E-16
 -1      2627 4.35251E-03-7.37992E-06-8.52812E-15
 -1      2628 4.03706E-03 1.02089E-03-6.89070E-15
 -1      2629 4.16194E-03 9.57600E-04-7.27203E-15
 -1      2630 3.95932E-03 1.08138E-03-6.76263E-15
 -1      2631 3.60352E-03-4.43886E-04-6.84477E-15
 -1      2632 5.17133E-03 4.68337E-04-9.45605E-15
 -1      2633 7.62470E-04 1.92420E-04-3.46999E-16
 -1      2634 4.38451E-03 8.29445E-04-7.82433E-15
 -1      2635 4.47970E-03 7.65716E-04-7.91725E-15
 -1      2636 4.59418E-03 7.19581E-04-8.35257E-15
 -1      2637 5.06390E-03 3.01224E-04-9.73837E-15
 -1      2638 3.01722E-03-6.56267E-04-5.15866E-15
 -1      2639 1.49263E-02 2.57747E-03-1.07113E-13
 -1      2640 1.48900E-02 2.54142E-03-1.06981E-13
 -1      2641 2.70899E-03-6.10645E-04-4.29992E-15
 -1      2642 5.42740E-03 3.94644E-04-1.01479E-14
 -1      2643 5.37003E-03 4.15270E-04-9.95576E-15
 -1      2644 1.20631E-03 9.75593E-05-2.13078E-15
 -1      2645 1.11468E-03 1.15306E-04-1.94057E-15
 -1      2646 1.28779E-03 6.71509E-05-2.12851E-15
 -1      2647 8.40727E-04 1.62407E-04-1.77429E-15
 -1      2648 8.24686E-04 1.52173E-04-1.63194E-15
 -1      2649 8.46115E-04 1.57028E-04-1.68318E-15
 -1      2650 6.26129E-04-1.54200E-04-3.34314E-16
 -1      2651 5.31993E-03 3.69777E-04-1.01085E-14
 -1      2652 1.50733E-03 3.63816E-04-2.13456E-15
 -1      2653 9.05717E-04 1.66112E-04-1.77425E-15
 -1      2654 1.92048E-03 5.81154E-04-2.45904E-15
 -1      2655 2.38784E-03-4.65386E-04-3.59179E-15
 -1      2656 1.59387E-03-5.10560E-05-2.50093E-15
 -1      2657 2.71528E-03 1.09484E-03-3.48720E-15
 -1      2658 2.80525E-03 1.15156E-03-3.60020E-15
 -1      2659 2.60764E-03 1.02690E-03-3.21591E-15
 -1      2660 1.13536E-03 2.21542E-04-1.91115E-15
 -1      2661 1.41913E-02 1.50467E-03-1.07547E-13
 -1      2662 1.42703E-02 1.56639E-03-1.08050E-13
 -1      2663 1.41596E-02 1.56445E-03-1.06517E-13
 -1      2664 1.40644E-02 1.48252E-03-1.05983E-13
 -1      2665 3.67710E-03 1.21653E-03-5.93685E-15
 -1      2666 2.31900E-03 8.33302E-04-2.87507E-15
 -1      2667 1.99719E-03-2.52601E-04-2.97512E-15
 -1      2668 3.94271E-03-2.41496E-04-7.70476E-15
 -1      2669 1.47532E-02 2.49733E-03-1.05533E-13
 -1      2670 1.40159E-02 1.50635E-03-1.05074E-13
 -1      2671 5.43536E-04 7.13627E-05-5.93045E-16
 -1      2672 5.32915E-04 7.35871E-05-5.99862E-16
 -1      2673 5.35842E-04 7.65270E-05-6.05737E-16
 -1      2674 5.51251E-04 7.63776E-05-6.10582E-16
 -1      2675 6.01056E-04 8.88658E-05-7.60344E-16
 -1      2676 6.97922E-04 1.06157E-04-5.50558E-16
 -1      2677 6.47778E-04 8.76313E-05-5.64205E-16
 -1      2678 8.07059E-04 1.64144E-04-5.15647E-16
 -1      2679 7.52100E-04 1.32027E-04-5.34810E-16
 -1      2680 8.36855E-04 1.47558E-04-6.90176E-16
 -1      2681 1.28912E-03 3.79226E-04-8.40108E-16
 -1      2682 1.11707E-03 3.15923E-04-6.50386E-16
 -1      2683 5.12076E-03 5.00743E-04-9.71216E-15
 -1      2684 5.24893E-03 4.63273E-04-1.00525E-14
 -1      2685 1.49368E-03-4.35180E-04-1.38729E-15
 -1      2686 1.66186E-03-4.87762E-04-1.68326E-15
 -1      2687 1.83038E-03-5.40892E-04-2.00983E-15
 -1      2688 1.99786E-03-5.93008E-04-2.36746E-15
 -1      2689 1.72879E-03-4.67008E-04-1.85994E-15
 -1      2690 2.16396E-03-6.42997E-04-2.75756E-15
 -1      2691 2.32772E-03-6.87738E-04-3.17948E-15
 -1      2692 2.07082E-03-5.75142E-04-2.57499E-15
 -1      2693 2.48851E-03-7.25490E-04-3.63488E-15
 -1      2694 2.64683E-03-7.52161E-04-4.12292E-15
 -1      2695 2.40601E-03-6.72120E-04-3.41797E-15
 -1      2696 2.80220E-03-7.66103E-04-4.64417E-15
 -1      2697 2.95691E-03-7.65081E-04-5.19901E-15
 -1      2698 2.72897E-03-7.32516E-04-4.39297E-15
 -1      2699 3.11029E-03-7.48895E-04-5.78669E-15
 -1      2700 3.26585E-03-7.18002E-04-6.40724E-15
 -1      2701 3.04286E-03-7.32541E-04-5.50150E-15
 -1      2702 3.42284E-03-6.73881E-04-7.05990E-15
 -1      2703 3.58280E-03-6.20358E-04-7.74400E-15
 -1      2704 3.35921E-03-6.65622E-04-6.74318E-15
 -1      2705 3.74509E-03-5.59588E-04-8.45834E-15
 -1      2706 3.90937E-03-4.95444E-04-9.20336E-15
 -1      2707 3.68640E-03-5.50212E-04-8.11258E-15
 -1      2708 4.07512E-03-4.29957E-04-9.97669E-15
 -1      2709 4.24096E-03-3.65667E-04-1.07785E-14
 -1      2710 4.02320E-03-4.15289E-04-9.60401E-15
 -1      2711 4.40675E-03-3.03858E-04-1.16076E-14
 -1      2712 4.57113E-03-2.45525E-04-1.24629E-14
 -1      2713 4.36197E-03-2.84022E-04-1.12090E-14
 -1      2714 4.73433E-03-1.91239E-04-1.33438E-14
 -1      2715 4.89542E-03-1.40977E-04-1.42503E-14
 -1      2716 4.69523E-03-1.68110E-04-1.29215E-14
 -1      2717 5.05483E-03-9.48619E-05-1.51809E-14
 -1      2718 5.21211E-03-5.24191E-05-1.61347E-14
 -1      2719 5.01917E-03-7.01814E-05-1.47340E-14
 -1      2720 5.36771E-03-1.35185E-05-1.71115E-14
 -1      2721 5.52150E-03 2.23971E-05-1.81123E-14
 -1      2722 5.33332E-03 1.16810E-05-1.66421E-14
 -1      2723 5.67385E-03 5.55794E-05-1.91353E-14
 -1      2724 5.82479E-03 8.65195E-05-2.01797E-14
 -1      2725 5.63909E-03 8.08570E-05-1.86420E-14
 -1      2726 5.97460E-03 1.15506E-04-2.12468E-14
 -1      2727 6.12337E-03 1.42921E-04-2.23367E-14
 -1      2728 5.93846E-03 1.40732E-04-2.07316E-14
 -1      2729 6.27128E-03 1.69040E-04-2.34478E-14
 -1      2730 6.41845E-03 1.94141E-04-2.45814E-14
 -1      2731 6.23329E-03 1.94202E-04-2.29096E-14
 -1      2732 6.56499E-03 2.18459E-04-2.57372E-14
 -1      2733 6.71100E-03 2.42190E-04-2.69139E-14
 -1      2734 6.52501E-03 2.43567E-04-2.51741E-14
 -1      2735 6.85653E-03 2.65514E-04-2.81123E-14
 -1      2736 7.00170E-03 2.88566E-04-2.93318E-14
 -1      2737 6.81468E-03 2.90569E-04-2.75266E-14
 -1      2738 7.14652E-03 3.11476E-04-3.05712E-14
 -1      2739 7.29108E-03 3.34329E-04-3.18295E-14
 -1      2740 7.10301E-03 3.36466E-04-2.99633E-14
 -1      2741 7.43537E-03 3.57214E-04-3.31085E-14
 -1      2742 7.57948E-03 3.80183E-04-3.44037E-14
 -1      2743 7.39048E-03 3.82123E-04-3.24800E-14
 -1      2744 7.72338E-03 4.03289E-04-3.57160E-14
 -1      2745 7.86715E-03 4.26559E-04-3.70454E-14
 -1      2746 7.67739E-03 4.28100E-04-3.50690E-14
 -1      2747 8.01077E-03 4.50021E-04-3.83898E-14
 -1      2748 8.15429E-03 4.73688E-04-3.97485E-14
 -1      2749 7.96394E-03 4.74724E-04-3.77229E-14
 -1      2750 8.29770E-03 4.97568E-04-4.11244E-14
 -1      2751 8.44103E-03 5.21664E-04-4.25157E-14
 -1      2752 8.25023E-03 5.22158E-04-4.04413E-14
 -1      2753 8.58428E-03 5.45972E-04-4.39197E-14
 -1      2754 8.72747E-03 5.70489E-04-4.53391E-14
 -1      2755 8.53636E-03 5.70449E-04-4.32209E-14
 -1      2756 8.87060E-03 5.95203E-04-4.67751E-14
 -1      2757 9.01369E-03 6.20108E-04-4.82251E-14
 -1      2758 8.82237E-03 6.19572E-04-4.60597E-14
 -1      2759 9.15673E-03 6.45188E-04-4.96870E-14
 -1      2760 9.29974E-03 6.70437E-04-5.11586E-14
 -1      2761 9.10830E-03 6.69460E-04-4.89559E-14
 -1      2762 9.44272E-03 6.95836E-04-5.26424E-14
 -1      2763 9.58567E-03 7.21378E-04-5.41360E-14
 -1      2764 9.39417E-03 7.20021E-04-5.18996E-14
 -1      2765 9.72861E-03 7.47047E-04-5.56387E-14
 -1      2766 9.87152E-03 7.72834E-04-5.71507E-14
 -1      2767 9.67999E-03 7.71156E-04-5.48833E-14
 -1      2768 1.00144E-02 7.98725E-04-5.86736E-14
 -1      2769 1.01573E-02 8.24711E-04-6.02062E-14
 -1      2770 9.96578E-03 8.22770E-04-5.79061E-14
 -1      2771 1.03002E-02 8.50780E-04-6.17483E-14
 -1      2772 1.04431E-02 8.76925E-04-6.33018E-14
 -1      2773 1.02515E-02 8.74773E-04-6.09681E-14
 -1      2774 1.05859E-02 9.03136E-04-6.48638E-14
 -1      2775 1.07288E-02 9.29405E-04-6.64349E-14
 -1      2776 1.05373E-02 9.27086E-04-6.40702E-14
 -1      2777 1.08716E-02 9.55725E-04-6.80148E-14
 -1      2778 1.10145E-02 9.82090E-04-6.96075E-14
 -1      2779 1.08230E-02 9.79641E-04-6.72110E-14
 -1      2780 1.11573E-02 1.00849E-03-7.12088E-14
 -1      2781 1.13002E-02 1.03493E-03-7.28155E-14
 -1      2782 1.11088E-02 1.03238E-03-7.03912E-14
 -1      2783 1.14430E-02 1.06139E-03-7.44314E-14
 -1      2784 1.15859E-02 1.08788E-03-7.60537E-14
 -1      2785 1.13945E-02 1.08526E-03-7.36073E-14
 -1      2786 1.17287E-02 1.11439E-03-7.76853E-14
 -1      2787 1.18716E-02 1.14092E-03-7.93265E-14
 -1      2788 1.16802E-02 1.13825E-03-7.68527E-14
 -1      2789 1.20144E-02 1.16746E-03-8.09721E-14
 -1      2790 1.21573E-02 1.19401E-03-8.26278E-14
 -1      2791 1.19659E-02 1.19130E-03-8.01315E-14
 -1      2792 1.23001E-02 1.22058E-03-8.42902E-14
 -1      2793 1.24430E-02 1.24715E-03-8.59584E-14
 -1      2794 1.22516E-02 1.24441E-03-8.34379E-14
 -1      2795 1.25858E-02 1.27373E-03-8.76350E-14
 -1      2796 1.27287E-02 1.30031E-03-8.93178E-14
 -1      2797 1.25373E-02 1.29756E-03-8.67740E-14
 -1      2798 1.28715E-02 1.32690E-03-9.10093E-14
 -1      2799 1.30144E-02 1.35349E-03-9.27067E-14
 -1      2800 1.28230E-02 1.35072E-03-9.01369E-14
 -1      2801 1.31572E-02 1.38008E-03-9.44099E-14
 -1      2802 1.33001E-02 1.40667E-03-9.61185E-14
 -1      2803 1.31088E-02 1.40390E-03-9.35293E-14
 -1      2804 1.34429E-02 1.43326E-03-9.78312E-14
 -1      2805 1.35858E-02 1.45985E-03-9.95501E-14
 -1      2806 1.33945E-02 1.45708E-03-9.69416E-14
 -1      2807 1.37286E-02 1.48644E-03-1.01271E-13
 -1      2808 1.38715E-02 1.51303E-03-1.02999E-13
 -1      2809 1.36802E-02 1.51027E-03-1.00374E-13
 -1      2810 2.83013E-03 1.17992E-03-3.45298E-15
 -1      2811 2.63566E-03 1.07134E-03-3.01801E-15
 -1      2812 3.61759E-03 1.26085E-03-5.77503E-15
 -1      2813 3.76470E-03 1.19607E-03-6.22781E-15
 -1      2814 3.85918E-03 1.22273E-03-6.53046E-15
 -1      2815 3.66942E-03 1.28837E-03-5.89409E-15
 -1      2816 4.31020E-03 1.04363E-03-8.13160E-15
 -1      2817 4.11447E-03 1.12046E-03-7.41859E-15
 -1      2818 4.69480E-03 9.18351E-04-9.64752E-15
 -1      2819 4.50541E-03 9.75597E-04-8.87486E-15
 -1      2820 4.43967E-03 9.52241E-04-8.56270E-15
 -1      2821 5.05816E-03 8.41602E-04-1.12775E-14
 -1      2822 4.87998E-03 8.74259E-04-1.04481E-14
 -1      2823 4.82359E-03 8.41244E-04-1.01148E-14
 -1      2824 5.39908E-03 8.09487E-04-1.30164E-14
 -1      2825 5.23140E-03 8.20820E-04-1.21342E-14
 -1      2826 5.17798E-03 7.83075E-04-1.17779E-14
 -1      2827 5.72279E-03 8.11457E-04-1.48607E-14
 -1      2828 5.56279E-03 8.07034E-04-1.39254E-14
 -1      2829 5.50708E-03 7.67059E-04-1.35466E-14
 -1      2830 6.03503E-03 8.37416E-04-1.68042E-14
 -1      2831 5.88006E-03 8.22035E-04-1.58206E-14
 -1      2832 5.81936E-03 7.80444E-04-1.54169E-14
 -1      2833 6.33995E-03 8.79443E-04-1.88447E-14
 -1      2834 6.18819E-03 8.56838E-04-1.78125E-14
 -1      2835 6.12165E-03 8.13783E-04-1.73859E-14
 -1      2836 6.64013E-03 9.31669E-04-2.09778E-14
 -1      2837 6.49049E-03 9.04569E-04-1.99000E-14
 -1      2838 6.41834E-03 8.60236E-04-1.94494E-14
 -1      2839 6.93706E-03 9.89915E-04-2.32036E-14
 -1      2840 6.78890E-03 9.60234E-04-2.20790E-14
 -1      2841 6.71191E-03 9.14909E-04-2.16055E-14
 -1      2842 7.23160E-03 1.05132E-03-2.55149E-14
 -1      2843 7.08456E-03 1.02035E-03-2.43495E-14
 -1      2844 7.00362E-03 9.74352E-04-2.38517E-14
 -1      2845 7.52425E-03 1.11402E-03-2.79136E-14
 -1      2846 7.37811E-03 1.08259E-03-2.67035E-14
 -1      2847 7.29411E-03 1.03620E-03-2.61842E-14
 -1      2848 7.81540E-03 1.17683E-03-3.03903E-14
 -1      2849 7.66997E-03 1.14546E-03-2.91418E-14
 -1      2850 7.58368E-03 1.09891E-03-2.86013E-14
 -1      2851 8.10530E-03 1.23907E-03-3.29410E-14
 -1      2852 7.96047E-03 1.20805E-03-3.16571E-14
 -1      2853 7.87249E-03 1.16149E-03-3.10966E-14
 -1      2854 8.39419E-03 1.30036E-03-3.55624E-14
 -1      2855 8.24985E-03 1.26985E-03-3.42442E-14
 -1      2856 8.16067E-03 1.22338E-03-3.36656E-14
 -1      2857 8.68228E-03 1.36058E-03-3.82456E-14
 -1      2858 8.53832E-03 1.33061E-03-3.68953E-14
 -1      2859 8.44831E-03 1.28430E-03-3.63004E-14
 -1      2860 8.96972E-03 1.41968E-03-4.09915E-14
 -1      2861 8.82606E-03 1.39027E-03-3.96121E-14
 -1      2862 8.73549E-03 1.34414E-03-3.89998E-14
 -1      2863 9.25666E-03 1.47775E-03-4.37963E-14
 -1      2864 9.11324E-03 1.44884E-03-4.23857E-14
 -1      2865 9.02231E-03 1.40290E-03-4.17606E-14
 -1      2866 9.54322E-03 1.53488E-03-4.66544E-14
 -1      2867 9.39998E-03 1.50642E-03-4.52189E-14
 -1      2868 9.30882E-03 1.46065E-03-4.45777E-14
 -1      2869 9.82950E-03 1.59119E-03-4.95632E-14
 -1      2870 9.68639E-03 1.56313E-03-4.81037E-14
 -1      2871 9.59510E-03 1.51751E-03-4.74497E-14
 -1      2872 1.01156E-02 1.64681E-03-5.25147E-14
 -1      2873 9.97255E-03 1.61908E-03-5.10336E-14
 -1      2874 9.88120E-03 1.57360E-03-5.03710E-14
 -1      2875 1.04015E-02 1.70186E-03-5.55112E-14
 -1      2876 1.02585E-02 1.67440E-03-5.40077E-14
 -1      2877 1.01672E-02 1.62903E-03-5.33344E-14
 -1      2878 1.06873E-02 1.75644E-03-5.85487E-14
 -1      2879 1.05444E-02 1.72920E-03-5.70226E-14
 -1      2880 1.04530E-02 1.68393E-03-5.63384E-14
 -1      2881 1.09730E-02 1.81066E-03-6.16295E-14
 -1      2882 1.08302E-02 1.78359E-03-6.00846E-14
 -1      2883 1.07388E-02 1.73840E-03-5.93835E-14
 -1      2884 1.12588E-02 1.86459E-03-6.47577E-14
 -1      2885 1.11159E-02 1.83765E-03-6.31876E-14
 -1      2886 1.10246E-02 1.79252E-03-6.24765E-14
 -1      2887 1.15444E-02 1.91829E-03-6.79245E-14
 -1      2888 1.14016E-02 1.89146E-03-6.63370E-14
 -1      2889 1.13103E-02 1.84637E-03-6.56106E-14
 -1      2890 1.18301E-02 1.97182E-03-7.11293E-14
 -1      2891 1.16873E-02 1.94507E-03-6.95222E-14
 -1      2892 1.15960E-02 1.90002E-03-6.87841E-14
 -1      2893 1.21158E-02 2.02523E-03-7.43700E-14
 -1      2894 1.19729E-02 1.99854E-03-7.27451E-14
 -1      2895 1.18817E-02 1.95351E-03-7.19953E-14
 -1      2896 1.24014E-02 2.07855E-03-7.76405E-14
 -1      2897 1.22586E-02 2.05190E-03-7.60008E-14
 -1      2898 1.21674E-02 2.00689E-03-7.52392E-14
 -1      2899 1.26871E-02 2.13181E-03-8.09475E-14
 -1      2900 1.25443E-02 2.10519E-03-7.92890E-14
 -1      2901 1.24531E-02 2.06019E-03-7.85162E-14
 -1      2902 1.29728E-02 2.18502E-03-8.42783E-14
 -1      2903 1.28299E-02 2.15842E-03-8.26115E-14
 -1      2904 1.27388E-02 2.11343E-03-8.18262E-14
 -1      2905 1.32584E-02 2.23820E-03-8.76287E-14
 -1      2906 1.31156E-02 2.21161E-03-8.59515E-14
 -1      2907 1.30245E-02 2.16663E-03-8.51607E-14
 -1      2908 1.35441E-02 2.29136E-03-9.09889E-14
 -1      2909 1.34013E-02 2.26478E-03-8.93081E-14
 -1      2910 1.33102E-02 2.21981E-03-8.85136E-14
 -1      2911 1.38298E-02 2.34452E-03-9.43625E-14
 -1      2912 1.36870E-02 2.31794E-03-9.26752E-14
 -1      2913 1.35959E-02 2.27297E-03-9.18783E-14
 -1      2914 1.41155E-02 2.39767E-03-9.77443E-14
 -1      2915 1.39727E-02 2.37110E-03-9.60516E-14
 -1      2916 1.38816E-02 2.32612E-03-9.52530E-14
 -1      2917 1.44012E-02 2.45083E-03-1.01137E-13
 -1      2918 1.42584E-02 2.42425E-03-9.94388E-14
 -1      2919 1.41673E-02 2.37928E-03-9.86394E-14
 -1      2920 1.46486E-02 2.48737E-03-1.04184E-13
 -1      2921 1.45058E-02 2.46079E-03-1.02477E-13
 -1      2922 1.44147E-02 2.41581E-03-1.01674E-13
 -1      2923 1.46238E-02 2.43572E-03-1.04365E-13
 -1      2924 1.43570E-02 2.02360E-03-1.04781E-13
 -1      2925 1.43831E-02 2.06576E-03-1.04728E-13
 -1      2926 1.39675E-02 1.53017E-03-1.04171E-13
 -1      2927 1.40636E-02 1.54731E-03-1.05341E-13
 -1      2928 1.39191E-02 1.55400E-03-1.03266E-13
 -1      2929 1.44616E-02 2.19224E-03-1.04567E-13
 -1      2930 1.44877E-02 2.23440E-03-1.04508E-13
 -1      2931 1.43047E-02 1.93928E-03-1.04883E-13
 -1      2932 1.43308E-02 1.98144E-03-1.04835E-13
 -1      2933 1.42202E-02 1.97950E-03-1.03310E-13
 -1      2934 1.44093E-02 2.10792E-03-1.04675E-13
 -1      2935 1.44354E-02 2.15008E-03-1.04623E-13
 -1      2936 1.43248E-02 2.14814E-03-1.03102E-13
 -1      2937 1.42725E-02 2.06382E-03-1.03206E-13
 -1      2938 4.82763E-03 6.16754E-04-9.01130E-15
 -1      2939 4.98176E-03 5.51366E-04-9.35844E-15
 -1      2940 5.08937E-03 5.36573E-04-9.94688E-15
 -1      2941 1.42533E-02 1.85639E-03-1.04977E-13
 -1      2942 1.42790E-02 1.89784E-03-1.04930E-13
 -1      2943 1.41683E-02 1.89589E-03-1.03409E-13
 -1      2944 1.42011E-02 1.77207E-03-1.05072E-13
 -1      2945 1.42272E-02 1.81423E-03-1.05025E-13
 -1      2946 1.41165E-02 1.81229E-03-1.03504E-13
 -1      2947 1.41488E-02 1.68776E-03-1.05167E-13
 -1      2948 1.41749E-02 1.72992E-03-1.05120E-13
 -1      2949 1.40643E-02 1.72797E-03-1.03599E-13
 -1      2950 8.86114E-04 2.28318E-04-4.58983E-16
 -1      2951 2.02850E-03 7.18704E-04-1.87469E-15
 -1      2952 1.83612E-03 6.17641E-04-1.57345E-15
 -1      2953 5.36126E-03 4.30710E-04-1.03309E-14
 -1      2954 5.42184E-03 4.17726E-04-1.04983E-14
 -1      2955 1.39714E-03 3.08592E-04-1.91808E-15
 -1      2956 1.58858E-03 3.96435E-04-2.04894E-15
 -1      2957 3.66618E-03-4.09295E-04-7.18974E-15
 -1      2958 3.51981E-03-4.93139E-04-6.75271E-15
 -1      2959 8.62919E-04 1.52438E-04-1.60704E-15
 -1      2960 9.32276E-04 1.61202E-04-1.65615E-15
 -1      2961 3.24844E-03 1.32619E-03-4.60289E-15
 -1      2962 3.06114E-03 1.28316E-03-4.08330E-15
 -1      2963 1.15970E-03-3.33167E-04-8.86186E-16
 -1      2964 1.32590E-03-3.83575E-04-1.12184E-15
 -1      2965 1.38820E-03-3.62305E-04-1.26781E-15
 -1      2966 5.14360E-03 3.26242E-04-1.02901E-14
 -1      2967 4.98393E-03 2.76527E-04-9.98358E-15
 -1      2968 1.64768E-03 5.28582E-04-1.30112E-15
 -1      2969 1.46606E-03 4.49077E-04-1.05664E-15
 -1      2970 1.31094E-03 3.61033E-04-9.78099E-16
 -1      2971 1.66871E-03 5.09742E-04-1.47073E-15
 -1      2972 5.38551E-03 3.86261E-04-1.06686E-14
 -1      2973 5.30041E-03 3.69326E-04-1.05998E-14
 -1      2974 6.03135E-04 7.63318E-05-5.75386E-16
 -1      2975 5.67839E-04 7.11660E-05-5.85035E-16
 -1      2976 6.27192E-04 8.61028E-05-7.43627E-16
 -1      2977 7.14767E-04 1.01117E-04-7.21306E-16
 -1      2978 7.31415E-04-7.87856E-06-6.27346E-16
 -1      2979 7.67231E-04-4.10206E-05-6.26018E-16
 -1      2980 7.51193E-04-1.72590E-04-4.62046E-16
 -1      2981 2.09257E-03-3.16842E-04-3.01704E-15
 -1      2982 1.89598E-03-2.12256E-04-2.71766E-15
 -1      2983 2.42484E-03-5.05706E-04-3.59502E-15
 -1      2984 2.26794E-03-4.15218E-04-3.29820E-15
 -1      2985 2.14695E-03-3.72927E-04-3.01800E-15
 -1      2986 1.41112E-02 1.58827E-03-1.05609E-13
 -1      2987 1.04583E-03 1.87703E-04-1.72385E-15
 -1      2988 1.19940E-03 2.32361E-04-1.80529E-15
 -1      2989 1.80726E-03 5.13322E-04-2.18463E-15
 -1      2990 1.99828E-03 6.27688E-04-2.36169E-15
 -1      2991 9.78127E-04 1.40722E-04-1.76659E-15
 -1      2992 9.07510E-04 1.49920E-04-1.71268E-15
 -1      2993 1.64801E-03-8.59769E-05-2.43010E-15
 -1      2994 1.46724E-03-2.84865E-06-2.26503E-15
 -1      2995 4.03749E-03-1.87826E-04-8.18452E-15
 -1      2996 3.86428E-03-2.93653E-04-7.75214E-15
 -1      2997 5.45784E-03 4.06907E-04-1.07105E-14
 -1      2998 5.44449E-03 4.00813E-04-1.07385E-14
 -1      2999 2.77850E-03-6.41652E-04-4.48334E-15
 -1      3000 2.63148E-03-5.95742E-04-4.08022E-15
 -1      3001 3.37964E-03-5.61902E-04-6.33518E-15
 -1      3002 3.24974E-03-6.15756E-04-5.93376E-15
 -1      3003 3.45344E-03-5.33070E-04-6.66254E-15
 -1      3004 4.84931E-03 2.26061E-04-9.71825E-15
 -1      3005 4.70253E-03 1.64475E-04-9.45747E-15
 -1      3006 4.95412E-03 2.59770E-04-1.02652E-14
 -1      3007 2.18210E-03 7.43560E-04-2.56738E-15
 -1      3008 2.35947E-03 8.64733E-04-2.78494E-15
 -1      3009 2.04683E-03 6.69447E-04-2.27872E-15
 -1      3010 4.47758E-03 5.70894E-05-9.10571E-15
 -1      3011 4.26815E-03-5.56910E-05-8.69920E-15
 -1      3012 3.08296E-03-6.56285E-04-5.41732E-15
 -1      3013 2.94119E-03-6.63438E-04-4.96288E-15
 -1      3014 7.99721E-04-7.77854E-05-6.23403E-16
 -1      3015 8.28498E-04-1.16661E-04-6.18415E-16
 -1      3016 9.10882E-04-7.84196E-05-7.91468E-16
 -1      3017 6.42427E-04 8.56545E-05-7.74629E-16
 -1      3018 5.78650E-04 7.20505E-05-6.16071E-16
 -1      3019 6.12975E-04 6.14886E-05-6.20679E-16
 -1      3020 5.45070E-03 4.01551E-04-1.12389E-14
 -1      3021 5.33289E-03 4.57960E-04-1.05942E-14
 -1      3022 4.65277E-03 7.27587E-04-8.80878E-15
 -1      3023 4.73701E-03 6.69811E-04-8.91100E-15
 -1      3024 4.87172E-03 6.36519E-04-9.48327E-15
 -1      3025 4.28665E-03 8.98911E-04-7.68808E-15
 -1      3026 4.41024E-03 8.48128E-04-8.11411E-15
 -1      3027 4.20561E-03 9.67040E-04-7.54946E-15
 -1      3028 3.16165E-03-6.44245E-04-5.71685E-15
 -1      3029 2.52162E-03 9.85821E-04-2.91175E-15
 -1      3030 2.46446E-03 9.74510E-04-2.62472E-15
 -1      3031 2.26741E-03 8.57213E-04-2.25644E-15
 -1      3032 2.42834E-03 9.15786E-04-2.81651E-15
 -1      3033 1.43769E-02 2.23210E-03-1.02993E-13
 -1      3034 1.45137E-02 2.27620E-03-1.04452E-13
 -1      3035 1.45396E-02 2.31799E-03-1.04391E-13
 -1      3036 3.97410E-03 1.14011E-03-6.91496E-15
 -1      3037 4.04032E-03 1.07543E-03-7.10037E-15
 -1      3038 2.85403E-03-6.63184E-04-4.71857E-15
 -1      3039 3.54452E-03 1.31987E-03-5.48190E-15
 -1      3040 3.36187E-03 1.34011E-03-4.90450E-15
 -1      3041 5.47532E-03 4.20723E-04-1.10943E-14
 -1      3042 1.27162E-03 2.58783E-04-1.72678E-15
 -1      3043 1.45687E-02 2.35596E-03-1.04411E-13
 -1      3044 1.45947E-02 2.39776E-03-1.04349E-13
 -1      3045 1.44901E-02 2.38780E-03-1.03000E-13
 -1      3046 1.44319E-02 2.31187E-03-1.02960E-13
 -1      3047 4.18024E-03-1.18064E-04-8.74504E-15
 -1      3048 1.75340E-03-1.52227E-04-2.46474E-15
 -1      3049 1.61522E-03-1.03614E-04-2.22579E-15
 -1      3050 1.83763E-03-2.19274E-04-2.49646E-15
 -1      3051 9.16347E-04 2.15789E-04-5.58730E-16
 -1      3052 1.41373E-02 1.63042E-03-1.05565E-13
 -1      3053 1.03326E-03 1.24725E-04-1.76022E-15
 -1      3054 9.60285E-04 1.25565E-04-1.58880E-15
 -1      3055 1.09237E-03 1.03717E-04-1.75379E-15
 -1      3056 3.48132E-03 1.29620E-03-5.36577E-15
 -1      3057 3.57867E-03 1.28653E-03-5.63754E-15
 -1      3058 1.34639E-03 3.20356E-05-2.06290E-15
 -1      3059 2.10063E-03 7.35373E-04-2.12452E-15
 -1      3060 8.46520E-04 1.46858E-04-1.56860E-15
 -1      3061 1.67075E-03 4.45826E-04-1.96021E-15
 -1      3062 4.61180E-03 1.12878E-04-9.63339E-15
 -1      3063 5.24528E-03 3.51824E-04-1.08512E-14
 -1      3064 8.20397E-04 1.44002E-04-1.51647E-15
 -1      3065 8.23241E-04 1.36622E-04-1.40502E-15
 -1      3066 7.92041E-04 1.39422E-04-1.42874E-15
 -1      3067 9.73689E-04 1.65449E-04-1.55669E-15
 -1      3068 3.77408E-03-3.56579E-04-7.64861E-15
 -1      3069 1.01910E-03 2.36595E-04-7.21808E-16
 -1      3070 6.51922E-04 4.43913E-05-6.23701E-16
 -1      3071 6.92213E-04 2.11400E-05-6.26330E-16
 -1      3072 8.25703E-04-1.80886E-07-7.92050E-16
 -1      3073 7.28491E-04 5.72219E-05-7.85925E-16
 -1      3074 8.65156E-04-1.66752E-04-6.17494E-16
 -1      3075 9.10570E-04-2.40732E-04-6.05107E-16
 -1      3076 1.06282E-03-2.92080E-04-7.76478E-16
 -1      3077 9.88804E-04-1.77184E-04-7.88866E-16
 -1      3078 2.93138E-03 1.22914E-03-3.74206E-15
 -1      3079 3.33106E-03 1.31467E-03-4.91645E-15
 -1      3080 1.39729E-02 1.59123E-03-1.03655E-13
 -1      3081 1.40950E-02 1.65052E-03-1.04779E-13
 -1      3082 1.39844E-02 1.64857E-03-1.03260E-13
 -1      3083 1.38768E-02 1.57410E-03-1.02486E-13
 -1      3084 1.12318E-03-2.72802E-04-8.97245E-16
 -1      3085 9.91017E-04 1.97912E-04-8.45352E-16
 -1      3086 9.14450E-04 1.60421E-04-8.65952E-16
 -1      3087 2.28626E-03 8.32678E-04-2.50592E-15
 -1      3088 3.52875E-03-5.04930E-04-7.01903E-15
 -1      3089 3.40235E-03-5.67460E-04-6.59358E-15
 -1      3090 1.97201E-03-5.01450E-04-2.39559E-15
 -1      3091 2.14611E-03-5.57730E-04-2.78342E-15
 -1      3092 2.31833E-03-6.12189E-04-3.20364E-15
 -1      3093 2.48740E-03-6.58934E-04-3.65692E-15
 -1      3094 2.22168E-03-5.43202E-04-2.99290E-15
 -1      3095 2.65208E-03-6.95530E-04-4.14345E-15
 -1      3096 2.81426E-03-7.15100E-04-4.66334E-15
 -1      3097 2.56910E-03-6.49865E-04-3.89601E-15
 -1      3098 3.29321E-03-6.60075E-04-6.42693E-15
 -1      3099 3.45782E-03-6.07432E-04-7.08117E-15
 -1      3100 3.62565E-03-5.42675E-04-7.76706E-15
 -1      3101 3.79686E-03-4.72810E-04-8.48442E-15
 -1      3102 3.56524E-03-5.39346E-04-7.42127E-15
 -1      3103 3.97060E-03-4.00350E-04-9.23145E-15
 -1      3104 4.14435E-03-3.29673E-04-1.00073E-14
 -1      3105 3.91815E-03-3.87085E-04-8.85911E-15
 -1      3106 4.31794E-03-2.62439E-04-1.08119E-14
 -1      3107 4.48900E-03-1.99975E-04-1.16428E-14
 -1      3108 4.27499E-03-2.40160E-04-1.04143E-14
 -1      3109 4.65793E-03-1.42837E-04-1.24993E-14
 -1      3110 4.82331E-03-9.07248E-05-1.33820E-14
 -1      3111 4.62255E-03-1.15634E-04-1.20789E-14
 -1      3112 4.98580E-03-4.37039E-05-1.42895E-14
 -1      3113 5.14491E-03-8.11179E-07-1.52205E-14
 -1      3114 4.95487E-03-1.52417E-05-1.38453E-14
 -1      3115 5.30133E-03 3.80628E-05-1.61731E-14
 -1      3116 5.45506E-03 7.38432E-05-1.71499E-14
 -1      3117 5.27189E-03 6.58881E-05-1.57065E-14
 -1      3118 5.60665E-03 1.06711E-04-1.81508E-14
 -1      3119 5.75632E-03 1.37381E-04-1.91733E-14
 -1      3120 5.57664E-03 1.33360E-04-1.76601E-14
 -1      3121 5.90448E-03 1.66061E-04-2.02176E-14
 -1      3122 6.05135E-03 1.93248E-04-2.12840E-14
 -1      3123 5.87268E-03 1.91638E-04-1.97048E-14
 -1      3124 6.19721E-03 2.19150E-04-2.23722E-14
 -1      3125 6.34228E-03 2.44100E-04-2.34823E-14
 -1      3126 6.16307E-03 2.43967E-04-2.18367E-14
 -1      3127 6.48671E-03 2.68283E-04-2.46148E-14
 -1      3128 6.63068E-03 2.91917E-04-2.57682E-14
 -1      3129 6.45008E-03 2.92640E-04-2.40563E-14
 -1      3130 6.77426E-03 3.15156E-04-2.69429E-14
 -1      3131 6.91760E-03 3.38137E-04-2.81401E-14
 -1      3132 6.73527E-03 3.39274E-04-2.63620E-14
 -1      3133 7.06071E-03 3.60982E-04-2.93584E-14
 -1      3134 7.20371E-03 3.83772E-04-3.05955E-14
 -1      3135 7.01961E-03 3.85002E-04-2.87542E-14
 -1      3136 7.34659E-03 4.06594E-04-3.18530E-14
 -1      3137 7.48943E-03 4.29494E-04-3.31295E-14
 -1      3138 7.30369E-03 4.30591E-04-3.12283E-14
 -1      3139 7.63221E-03 4.52530E-04-3.44221E-14
 -1      3140 7.77499E-03 4.75724E-04-3.57312E-14
 -1      3141 7.58783E-03 4.76538E-04-3.37768E-14
 -1      3142 7.91774E-03 4.99109E-04-3.70587E-14
 -1      3143 8.06051E-03 5.22693E-04-3.84009E-14
 -1      3144 7.87219E-03 5.23135E-04-3.63949E-14
 -1      3145 8.20326E-03 5.46491E-04-3.97585E-14
 -1      3146 8.34604E-03 5.70501E-04-4.11332E-14
 -1      3147 8.15680E-03 5.70531E-04-3.90787E-14
 -1      3148 8.48882E-03 5.94726E-04-4.25247E-14
 -1      3149 8.63162E-03 6.19158E-04-4.39285E-14
 -1      3150 8.44167E-03 6.18770E-04-4.18269E-14
 -1      3151 8.77443E-03 6.43791E-04-4.53462E-14
 -1      3152 8.91725E-03 6.68616E-04-4.67795E-14
 -1      3153 8.72678E-03 6.67830E-04-4.46353E-14
 -1      3154 9.06008E-03 6.93621E-04-4.82271E-14
 -1      3155 9.20292E-03 7.18795E-04-4.96870E-14
 -1      3156 9.01207E-03 7.17647E-04-4.75001E-14
 -1      3157 9.34576E-03 7.44127E-04-5.11563E-14
 -1      3158 9.48862E-03 7.69603E-04-5.26378E-14
 -1      3159 9.29751E-03 7.68134E-04-5.04159E-14
 -1      3160 9.63147E-03 7.95212E-04-5.41288E-14
 -1      3161 9.77434E-03 8.20942E-04-5.56297E-14
 -1      3162 9.58306E-03 8.19197E-04-5.33761E-14
 -1      3163 9.91720E-03 8.46780E-04-5.71388E-14
 -1      3164 1.00601E-02 8.72719E-04-5.86588E-14
 -1      3165 9.86870E-03 8.70743E-04-5.63750E-14
 -1      3166 1.02029E-02 8.98744E-04-6.01894E-14
 -1      3167 1.03458E-02 9.24850E-04-6.17288E-14
 -1      3168 1.01544E-02 9.22685E-04-5.94124E-14
 -1      3169 1.04887E-02 9.51024E-04-6.32785E-14
 -1      3170 1.06316E-02 9.77261E-04-6.48376E-14
 -1      3171 1.04401E-02 9.74944E-04-6.24889E-14
 -1      3172 1.07744E-02 1.00355E-03-6.64077E-14
 -1      3173 1.09173E-02 1.02989E-03-6.79868E-14
 -1      3174 1.07259E-02 1.02745E-03-6.56071E-14
 -1      3175 1.10602E-02 1.05627E-03-6.95778E-14
 -1      3176 1.12031E-02 1.08269E-03-7.11781E-14
 -1      3177 1.10116E-02 1.08015E-03-6.87655E-14
 -1      3178 1.13459E-02 1.10913E-03-7.27828E-14
 -1      3179 1.14888E-02 1.13561E-03-7.43961E-14
 -1      3180 1.12974E-02 1.13300E-03-7.19609E-14
 -1      3181 1.16317E-02 1.16210E-03-7.60198E-14
 -1      3182 1.17745E-02 1.18862E-03-7.76511E-14
 -1      3183 1.15831E-02 1.18596E-03-7.51864E-14
 -1      3184 1.19174E-02 1.21515E-03-7.92900E-14
 -1      3185 1.20603E-02 1.24169E-03-8.09360E-14
 -1      3186 1.18689E-02 1.23900E-03-7.84479E-14
 -1      3187 1.22031E-02 1.26825E-03-8.25896E-14
 -1      3188 1.23460E-02 1.29482E-03-8.42493E-14
 -1      3189 1.21546E-02 1.29209E-03-8.17410E-14
 -1      3190 1.24889E-02 1.32139E-03-8.59154E-14
 -1      3191 1.26317E-02 1.34797E-03-8.75874E-14
 -1      3192 1.24404E-02 1.34522E-03-8.50575E-14
 -1      3193 1.27746E-02 1.37455E-03-8.92684E-14
 -1      3194 1.29174E-02 1.40114E-03-9.09543E-14
 -1      3195 1.27261E-02 1.39838E-03-8.84009E-14
 -1      3196 1.30603E-02 1.42773E-03-9.26475E-14
 -1      3197 1.32032E-02 1.45432E-03-9.43484E-14
 -1      3198 1.30119E-02 1.45156E-03-9.17697E-14
 -1      3199 1.33460E-02 1.48091E-03-9.60523E-14
 -1      3200 1.34889E-02 1.50750E-03-9.77619E-14
 -1      3201 1.32976E-02 1.50474E-03-9.51648E-14
 -1      3202 1.36114E-02 1.52750E-03-9.92598E-14
 -1      3203 1.37543E-02 1.55409E-03-1.00979E-13
 -1      3204 1.38081E-02 1.59133E-03-1.01368E-13
 -1      3205 1.35630E-02 1.55133E-03-9.83659E-14
 -1      3206 2.86794E-03-6.81276E-04-4.79843E-15
 -1      3207 2.72060E-03-6.58533E-04-4.33017E-15
 -1      3208 4.48165E-03 8.96396E-04-8.63986E-15
 -1      3209 4.27804E-03 9.72809E-04-7.90255E-15
 -1      3210 5.61687E-03 7.23502E-04-1.40919E-14
 -1      3211 5.46279E-03 7.19761E-04-1.31811E-14
 -1      3212 5.91535E-03 7.47963E-04-1.59893E-14
 -1      3213 5.76735E-03 7.33510E-04-1.50284E-14
 -1      3214 5.72155E-03 6.86787E-04-1.46398E-14
 -1      3215 6.20648E-03 7.87964E-04-1.79819E-14
 -1      3216 6.06147E-03 7.66442E-04-1.69737E-14
 -1      3217 6.00624E-03 7.20287E-04-1.65625E-14
 -1      3218 6.49433E-03 8.38131E-04-2.00692E-14
 -1      3219 6.35060E-03 8.12045E-04-1.90144E-14
 -1      3220 6.28690E-03 7.65416E-04-1.85799E-14
 -1      3221 6.78097E-03 8.94647E-04-2.22477E-14
 -1      3222 6.63768E-03 8.65773E-04-2.11465E-14
 -1      3223 6.56680E-03 8.18230E-04-2.06898E-14
 -1      3224 7.06730E-03 9.54806E-04-2.45152E-14
 -1      3225 6.92411E-03 9.24391E-04-2.33712E-14
 -1      3226 6.84735E-03 8.75879E-04-2.28906E-14
 -1      3227 7.35363E-03 1.01672E-03-2.68674E-14
 -1      3228 7.21043E-03 9.85625E-04-2.56799E-14
 -1      3229 7.12899E-03 9.36280E-04-2.51776E-14
 -1      3230 7.64003E-03 1.07915E-03-2.93023E-14
 -1      3231 7.49680E-03 1.04792E-03-2.80752E-14
 -1      3232 7.41174E-03 9.97948E-04-2.75494E-14
 -1      3233 7.92645E-03 1.14129E-03-3.18165E-14
 -1      3234 7.78322E-03 1.11028E-03-3.05499E-14
 -1      3235 7.69539E-03 1.05987E-03-3.00043E-14
 -1      3236 8.21285E-03 1.20268E-03-3.44019E-14
 -1      3237 8.06964E-03 1.17209E-03-3.31000E-14
 -1      3238 7.97975E-03 1.12141E-03-3.25365E-14
 -1      3239 8.49919E-03 1.26309E-03-3.70506E-14
 -1      3240 8.35602E-03 1.23301E-03-3.57189E-14
 -1      3241 8.26460E-03 1.18219E-03-3.51365E-14
 -1      3242 8.78544E-03 1.32246E-03-3.97664E-14
 -1      3243 8.64232E-03 1.29291E-03-3.84001E-14
 -1      3244 8.54980E-03 1.24203E-03-3.78021E-14
 -1      3245 9.07160E-03 1.38081E-03-4.25419E-14
 -1      3246 8.92852E-03 1.35176E-03-4.11478E-14
 -1      3247 8.83524E-03 1.30088E-03-4.05331E-14
 -1      3248 9.35766E-03 1.43820E-03-4.53720E-14
 -1      3249 9.21464E-03 1.40962E-03-4.39494E-14
 -1      3250 9.12081E-03 1.35877E-03-4.33223E-14
 -1      3251 9.64365E-03 1.49476E-03-4.82586E-14
 -1      3252 9.50066E-03 1.46658E-03-4.68090E-14
 -1      3253 9.40648E-03 1.41578E-03-4.61673E-14
 -1      3254 9.92956E-03 1.55060E-03-5.11915E-14
 -1      3255 9.78661E-03 1.52276E-03-4.97203E-14
 -1      3256 9.69220E-03 1.47202E-03-4.90674E-14
 -1      3257 1.02154E-02 1.60583E-03-5.41644E-14
 -1      3258 1.00725E-02 1.57829E-03-5.26718E-14
 -1      3259 9.97794E-03 1.52760E-03-5.20114E-14
 -1      3260 1.05012E-02 1.66057E-03-5.71753E-14
 -1      3261 1.03583E-02 1.63326E-03-5.56654E-14
 -1      3262 1.02637E-02 1.58262E-03-5.49914E-14
 -1      3263 1.07870E-02 1.71491E-03-6.02334E-14
 -1      3264 1.06441E-02 1.68778E-03-5.86998E-14
 -1      3265 1.05495E-02 1.63720E-03-5.80146E-14
 -1      3266 1.10728E-02 1.76893E-03-6.33324E-14
 -1      3267 1.09299E-02 1.74196E-03-6.17770E-14
 -1      3268 1.08352E-02 1.69141E-03-6.10795E-14
 -1      3269 1.13585E-02 1.82271E-03-6.64733E-14
 -1      3270 1.12156E-02 1.79585E-03-6.48980E-14
 -1      3271 1.11210E-02 1.74534E-03-6.41870E-14
 -1      3272 1.16442E-02 1.87631E-03-6.96535E-14
 -1      3273 1.15014E-02 1.84953E-03-6.80588E-14
 -1      3274 1.14067E-02 1.79904E-03-6.73343E-14
 -1      3275 1.19300E-02 1.92976E-03-7.28706E-14
 -1      3276 1.17871E-02 1.90305E-03-7.12576E-14
 -1      3277 1.16925E-02 1.85258E-03-7.05220E-14
 -1      3278 1.22157E-02 1.98311E-03-7.61191E-14
 -1      3279 1.20728E-02 1.95645E-03-7.44904E-14
 -1      3280 1.19782E-02 1.90600E-03-7.37431E-14
 -1      3281 1.25014E-02 2.03639E-03-7.94010E-14
 -1      3282 1.23585E-02 2.00976E-03-7.77552E-14
 -1      3283 1.22640E-02 1.95932E-03-7.69958E-14
 -1      3284 1.27871E-02 2.08962E-03-8.27146E-14
 -1      3285 1.26442E-02 2.06301E-03-8.10541E-14
 -1      3286 1.25497E-02 2.01258E-03-8.02849E-14
 -1      3287 1.30728E-02 2.14281E-03-8.60511E-14
 -1      3288 1.29299E-02 2.11622E-03-8.43804E-14
 -1      3289 1.28354E-02 2.06580E-03-8.36011E-14
 -1      3290 1.33585E-02 2.19598E-03-8.94043E-14
 -1      3291 1.32157E-02 2.16940E-03-8.77266E-14
 -1      3292 1.31211E-02 2.11898E-03-8.69390E-14
 -1      3293 1.36442E-02 2.24914E-03-9.27717E-14
 -1      3294 1.35014E-02 2.22256E-03-9.10856E-14
 -1      3295 1.34069E-02 2.17215E-03-9.02942E-14
 -1      3296 1.39299E-02 2.30229E-03-9.61493E-14
 -1      3297 1.37871E-02 2.27572E-03-9.44593E-14
 -1      3298 1.36926E-02 2.22531E-03-9.36647E-14
 -1      3299 1.42156E-02 2.35545E-03-9.95419E-14
 -1      3300 1.40728E-02 2.32887E-03-9.78443E-14
 -1      3301 1.39783E-02 2.27846E-03-9.70465E-14
 -1      3302 1.44052E-02 2.37660E-03-1.01939E-13
 -1      3303 1.43006E-02 2.36665E-03-1.00599E-13
 -1      3304 1.42061E-02 2.31624E-03-9.98008E-14
 -1      3305 1.43761E-02 2.33863E-03-1.01919E-13
 -1      3306 1.13798E-03-2.45108E-04-9.53407E-16
 -1      3307 1.23595E-03-2.84743E-04-1.07720E-15
 -1      3308 1.40409E-03-3.32330E-04-1.33492E-15
 -1      3309 1.09608E-03-1.84327E-04-9.54450E-16
 -1      3310 6.58721E-04 1.01372E-04-9.15690E-16
 -1      3311 6.64972E-04 1.02498E-04-9.24418E-16
 -1      3312 1.40834E-02 1.93540E-03-1.01845E-13
 -1      3313 1.41095E-02 1.97756E-03-1.01793E-13
 -1      3314 1.39275E-02 1.68387E-03-1.02129E-13
 -1      3315 1.39536E-02 1.72602E-03-1.02082E-13
 -1      3316 1.36689E-03 7.64239E-08-1.93453E-15
 -1      3317 1.21513E-03 5.98080E-05-1.81331E-15
 -1      3318 1.15074E-03 2.15312E-04-1.51565E-15
 -1      3319 1.32506E-03 2.82943E-04-1.61521E-15
 -1      3320 1.39797E-02 1.76818E-03-1.02035E-13
 -1      3321 1.40059E-02 1.81034E-03-1.01986E-13
 -1      3322 1.38430E-02 1.72408E-03-1.00572E-13
 -1      3323 5.30384E-03 7.22558E-04-1.22949E-14
 -1      3324 5.13887E-03 7.35123E-04-1.14338E-14
 -1      3325 5.42630E-03 6.71085E-04-1.28149E-14
 -1      3326 4.31822E-03-6.13101E-05-9.39755E-15
 -1      3327 4.11272E-03-1.79310E-04-8.86152E-15
 -1      3328 8.92533E-04 1.43522E-04-1.34321E-15
 -1      3329 9.95789E-04 1.66463E-04-1.40298E-15
 -1      3330 4.91623E-03 7.73108E-04-1.03998E-14
 -1      3331 4.73172E-03 8.14277E-04-9.59814E-15
 -1      3332 4.59057E-03 8.13653E-04-8.89877E-15
 -1      3333 5.06184E-03 6.96078E-04-1.08861E-14
 -1      3334 5.51382E-03 4.14867E-04-1.18629E-14
 -1      3335 5.45862E-03 4.01183E-04-1.17903E-14
 -1      3336 5.49184E-03 4.38428E-04-1.15029E-14
 -1      3337 5.52523E-03 4.28844E-04-1.17226E-14
 -1      3338 2.50627E-03-5.58666E-04-3.75768E-15
 -1      3339 1.62265E-03-3.90448E-04-1.71328E-15
 -1      3340 1.79648E-03-4.44701E-04-2.03899E-15
 -1      3341 1.86416E-03-4.22257E-04-2.22020E-15
 -1      3342 2.15994E-03-4.15664E-04-2.97025E-15
 -1      3343 2.00834E-03-3.27614E-04-2.70926E-15
 -1      3344 4.75211E-03 1.66735E-04-1.02208E-14
 -1      3345 4.55308E-03 6.92718E-05-9.85270E-15
 -1      3346 3.88195E-03-3.08536E-04-8.14973E-15
 -1      3347 3.70081E-03-4.12583E-04-7.57375E-15
 -1      3348 3.64110E-03-4.60962E-04-7.49487E-15
 -1      3349 3.24088E-03-6.29183E-04-6.04386E-15
 -1      3350 3.08890E-03-6.67381E-04-5.52173E-15
 -1      3351 3.31995E-03-6.10947E-04-6.37880E-15
 -1      3352 1.50491E-03 3.69801E-04-1.68373E-15
 -1      3353 1.69245E-03 4.73066E-04-1.79942E-15
 -1      3354 1.40318E-02 1.85215E-03-1.01941E-13
 -1      3355 1.40575E-02 1.89359E-03-1.01893E-13
 -1      3356 1.39468E-02 1.89165E-03-1.00385E-13
 -1      3357 1.38950E-02 1.80804E-03-1.00479E-13
 -1      3358 1.21314E-03 3.05706E-04-9.42361E-16
 -1      3359 1.08328E-03 2.40694E-04-8.83449E-16
 -1      3360 1.17255E-03 2.57942E-04-1.08453E-15
 -1      3361 1.38118E-03 3.67890E-04-1.16987E-15
 -1      3362 5.33427E-03 4.90848E-04-1.10719E-14
 -1      3363 5.43172E-03 4.62489E-04-1.13635E-14
 -1      3364 8.35467E-04 1.34680E-04-1.40393E-15
 -1      3365 7.90146E-04 1.36332E-04-1.37947E-15
 -1      3366 5.00560E-03 2.67683E-04-1.07672E-14
 -1      3367 4.88128E-03 2.21522E-04-1.04928E-14
 -1      3368 4.82156E-03 1.79314E-04-1.07181E-14
 -1      3369 5.06296E-03 5.78788E-04-1.02022E-14
 -1      3370 5.18637E-03 5.35415E-04-1.05708E-14
 -1      3371 5.33759E-03 3.69895E-04-1.15057E-14
 -1      3372 5.19015E-03 3.29696E-04-1.11847E-14
 -1      3373 2.57053E-03-6.06426E-04-3.90412E-15
 -1      3374 2.38195E-03-5.25256E-04-3.43363E-15
 -1      3375 6.87795E-04 9.98854E-05-9.21545E-16
 -1      3376 7.30144E-04 9.05887E-05-9.30049E-16
 -1      3377 5.31992E-03 5.27833E-04-1.13372E-14
 -1      3378 1.02115E-03-7.67293E-05-9.79522E-16
 -1      3379 1.06363E-03-1.24873E-04-9.77340E-16
 -1      3380 2.94999E-03-6.90743E-04-5.09056E-15
 -1      3381 3.02150E-03-7.04752E-04-5.38130E-15
 -1      3382 3.18337E-03-6.80207E-04-5.97905E-15
 -1      3383 5.56320E-03 4.30543E-04-1.22843E-14
 -1      3384 9.87928E-04 1.72098E-04-1.12119E-15
 -1      3385 8.47819E-04 1.31869E-04-9.38079E-16
 -1      3386 1.45951E-03-5.54408E-05-1.96010E-15
 -1      3387 1.31307E-03-2.15898E-05-1.71250E-15
 -1      3388 1.54036E-03-1.15466E-04-1.98428E-15
 -1      3389 1.03598E-03 1.80895E-04-1.30334E-15
 -1      3390 1.42402E-02 2.18818E-03-1.01534E-13
 -1      3391 1.42661E-02 2.22998E-03-1.01480E-13
 -1      3392 4.03006E-03-2.45673E-04-8.77622E-15
 -1      3393 1.41879E-02 2.10386E-03-1.01642E-13
 -1      3394 1.42140E-02 2.14602E-03-1.01589E-13
 -1      3395 1.41033E-02 2.14391E-03-1.00081E-13
 -1      3396 5.43250E-03 3.88496E-04-1.21361E-14
 -1      3397 1.41356E-02 2.01963E-03-1.01743E-13
 -1      3398 1.41618E-02 2.06179E-03-1.01694E-13
 -1      3399 1.40510E-02 2.05967E-03-1.00185E-13
 -1      3400 1.39988E-02 1.97553E-03-1.00287E-13
 -1      3401 1.46450E-03-3.06870E-04-1.48454E-15
 -1      3402 1.11659E-03 7.36501E-05-1.63561E-15
 -1      3403 1.86946E-03-2.72428E-04-2.45301E-15
 -1      3404 4.99122E-03 6.22333E-04-1.00922E-14
 -1      3405 1.38409E-02 1.61898E-03-1.01556E-13
 -1      3406 1.38947E-02 1.65622E-03-1.01941E-13
 -1      3407 1.37840E-02 1.65427E-03-1.00430E-13
 -1      3408 1.37184E-02 1.59898E-03-1.00053E-13
 -1      3409 1.35726E-03 3.10500E-04-1.47302E-15
 -1      3410 1.69226E-03 4.96007E-04-1.64510E-15
 -1      3411 1.50929E-03 4.15114E-04-1.36967E-15
 -1      3412 7.66681E-04 1.31790E-04-1.31013E-15
 -1      3413 7.43357E-04 1.22638E-04-1.20494E-15
 -1      3414 4.47023E-03 2.81687E-06-9.97371E-15
 -1      3415 5.51269E-03 4.66064E-04-1.19976E-14
 -1      3416 7.79890E-04 1.13915E-04-9.52546E-16
 -1      3417 2.23997E-03-4.83612E-04-3.09458E-15
 -1      3418 1.87192E-03 5.82472E-04-1.92317E-15
 -1      3419 5.13082E-03 2.98504E-04-1.14186E-14
 -1      3420 8.47202E-04 1.23398E-04-1.33278E-15
 -1      3421 7.67996E-04 1.16425E-04-1.15623E-15
 -1      3422 7.37241E-04 1.20898E-04-1.15803E-15
 -1      3423 9.16290E-04 1.07426E-05-9.75430E-16
 -1      3424 9.71548E-04-3.03974E-05-9.78370E-16
 -1      3425 1.12849E-03-7.21433E-05-1.18513E-15
 -1      3426 2.03598E-03 6.84020E-04-2.10311E-15
 -1      3427 5.30225E-03 5.73277E-04-1.15885E-14
 -1      3428 5.43538E-03 5.34069E-04-1.21104E-14
 -1      3429 4.56361E-03 7.93040E-04-8.66050E-15
 -1      3430 4.15652E-03 1.02263E-03-7.48418E-15
 -1      3431 3.28124E-03-6.35682E-04-6.28684E-15
 -1      3432 8.13707E-04 1.29301E-04-1.28491E-15
 -1      3433 8.14585E-04 1.24692E-04-1.14490E-15
 -1      3434 2.59653E-03-6.40958E-04-3.97126E-15
 -1      3435 7.10291E-04 1.02160E-04-9.03696E-16
 -1      3436 4.23485E-03-2.15983E-04-1.00163E-14
 -1      3437 4.41505E-03-1.46714E-04-1.08242E-14
 -1      3438 4.59151E-03-8.57543E-05-1.16580E-14
 -1      3439 4.76216E-03-3.16473E-05-1.25172E-14
 -1      3440 4.56517E-03-5.36909E-05-1.12368E-14
 -1      3441 4.92823E-03 1.54957E-05-1.34009E-14
 -1      3442 5.08922E-03 5.77494E-05-1.43094E-14
 -1      3443 4.90623E-03 4.87839E-05-1.29584E-14
 -1      3444 5.24617E-03 9.52317E-05-1.52415E-14
 -1      3445 5.39941E-03 1.29540E-04-1.61945E-14
 -1      3446 5.22452E-03 1.26428E-04-1.47756E-14
 -1      3447 5.54967E-03 1.60788E-04-1.71712E-14
 -1      3448 5.69748E-03 1.90042E-04-1.81710E-14
 -1      3449 5.52601E-03 1.89254E-04-1.66847E-14
 -1      3450 5.84334E-03 2.17422E-04-1.91932E-14
 -1      3451 5.98771E-03 2.43566E-04-2.02371E-14
 -1      3452 5.81660E-03 2.43562E-04-1.86823E-14
 -1      3453 6.13091E-03 2.68598E-04-2.13035E-14
 -1      3454 6.27331E-03 2.92893E-04-2.23911E-14
 -1      3455 6.10080E-03 2.93118E-04-2.07704E-14
 -1      3456 6.41508E-03 3.16573E-04-2.34997E-14
 -1      3457 6.55648E-03 3.39856E-04-2.46311E-14
 -1      3458 6.38168E-03 3.40113E-04-2.29460E-14
 -1      3459 6.69761E-03 3.62853E-04-2.57837E-14
 -1      3460 6.83864E-03 3.85686E-04-2.69569E-14
 -1      3461 6.66124E-03 3.85891E-04-2.52055E-14
 -1      3462 6.97960E-03 4.08449E-04-2.81531E-14
 -1      3463 7.12062E-03 4.31209E-04-2.93699E-14
 -1      3464 6.94064E-03 4.31305E-04-2.75540E-14
 -1      3465 7.26169E-03 4.54038E-04-3.06060E-14
 -1      3466 7.40288E-03 4.76967E-04-3.18613E-14
 -1      3467 7.22053E-03 4.76904E-04-2.99857E-14
 -1      3468 7.54418E-03 5.00048E-04-3.31338E-14
 -1      3469 7.68564E-03 5.23292E-04-3.44241E-14
 -1      3470 7.50122E-03 5.23026E-04-3.24930E-14
 -1      3471 7.82721E-03 5.46732E-04-3.57338E-14
 -1      3472 7.96895E-03 5.70367E-04-3.70586E-14
 -1      3473 7.78280E-03 5.69864E-04-3.50737E-14
 -1      3474 8.11080E-03 5.94214E-04-3.84008E-14
 -1      3475 8.25279E-03 6.18265E-04-3.97584E-14
 -1      3476 8.06524E-03 6.17504E-04-3.77229E-14
 -1      3477 8.39488E-03 6.42527E-04-4.11302E-14
 -1      3478 8.53710E-03 6.66986E-04-4.25212E-14
 -1      3479 8.34845E-03 6.65961E-04-4.04368E-14
 -1      3480 8.67940E-03 6.91643E-04-4.39248E-14
 -1      3481 8.82180E-03 7.16482E-04-4.53413E-14
 -1      3482 8.63230E-03 7.15199E-04-4.32132E-14
 -1      3483 8.96427E-03 7.41499E-04-4.67740E-14
 -1      3484 9.10682E-03 7.66678E-04-4.82208E-14
 -1      3485 8.91669E-03 7.65152E-04-4.60491E-14
 -1      3486 9.24942E-03 7.92011E-04-4.96767E-14
 -1      3487 9.39207E-03 8.17485E-04-5.11447E-14
 -1      3488 9.20148E-03 8.15737E-04-4.89391E-14
 -1      3489 9.53477E-03 8.43088E-04-5.26243E-14
 -1      3490 9.67751E-03 8.68810E-04-5.41139E-14
 -1      3491 9.48659E-03 8.66867E-04-5.18748E-14
 -1      3492 9.82027E-03 8.94639E-04-5.56135E-14
 -1      3493 9.96307E-03 9.20566E-04-5.71206E-14
 -1      3494 9.77193E-03 9.18454E-04-5.48517E-14
 -1      3495 1.01059E-02 9.46579E-04-5.86382E-14
 -1      3496 1.02487E-02 9.72672E-04-6.01676E-14
 -1      3497 1.00574E-02 9.70417E-04-5.78673E-14
 -1      3498 1.03916E-02 9.98833E-04-6.17048E-14
 -1      3499 1.05344E-02 1.02506E-03-6.32514E-14
 -1      3500 1.03431E-02 1.02268E-03-6.09218E-14
 -1      3501 1.06773E-02 1.05133E-03-6.48101E-14
 -1      3502 1.08202E-02 1.07766E-03-6.63776E-14
 -1      3503 1.06288E-02 1.07519E-03-6.40151E-14
 -1      3504 1.09630E-02 1.10403E-03-6.79536E-14
 -1      3505 1.11059E-02 1.13043E-03-6.95425E-14
 -1      3506 1.09145E-02 1.12789E-03-6.71477E-14
 -1      3507 1.12488E-02 1.15687E-03-7.11405E-14
 -1      3508 1.13917E-02 1.18333E-03-7.27420E-14
 -1      3509 1.12003E-02 1.18073E-03-7.03193E-14
 -1      3510 1.15346E-02 1.20982E-03-7.43561E-14
 -1      3511 1.16775E-02 1.23633E-03-7.59792E-14
 -1      3512 1.14861E-02 1.23367E-03-7.35271E-14
 -1      3513 1.18204E-02 1.26285E-03-7.76080E-14
 -1      3514 1.19632E-02 1.28939E-03-7.92457E-14
 -1      3515 1.17718E-02 1.28670E-03-7.67685E-14
 -1      3516 1.21061E-02 1.31594E-03-8.08910E-14
 -1      3517 1.22490E-02 1.34250E-03-8.25448E-14
 -1      3518 1.20576E-02 1.33978E-03-8.00432E-14
 -1      3519 1.23919E-02 1.36906E-03-8.42009E-14
 -1      3520 1.25348E-02 1.39564E-03-8.58644E-14
 -1      3521 1.23434E-02 1.39291E-03-8.33461E-14
 -1      3522 1.26776E-02 1.42222E-03-8.75351E-14
 -1      3523 1.28205E-02 1.44880E-03-8.92128E-14
 -1      3524 1.26292E-02 1.44606E-03-8.66725E-14
 -1      3525 1.29634E-02 1.47539E-03-9.08969E-14
 -1      3526 1.31063E-02 1.50198E-03-9.25862E-14
 -1      3527 1.29149E-02 1.49922E-03-9.00241E-14
 -1      3528 1.32491E-02 1.52857E-03-9.42820E-14
 -1      3529 1.33920E-02 1.55516E-03-9.59843E-14
 -1      3530 1.32007E-02 1.55240E-03-9.34016E-14
 -1      3531 1.13637E-03 2.24284E-04-1.21893E-15
 -1      3532 5.52784E-03 4.05078E-04-1.28584E-14
 -1      3533 5.41048E-03 3.72417E-04-1.25630E-14
 -1      3534 5.81970E-03 6.56867E-04-1.51895E-14
 -1      3535 5.68232E-03 6.41180E-04-1.42518E-14
 -1      3536 6.63549E-03 8.00345E-04-2.13111E-14
 -1      3537 6.49865E-03 7.72517E-04-2.02334E-14
 -1      3538 6.91088E-03 8.58466E-04-2.35331E-14
 -1      3539 6.77284E-03 8.29029E-04-2.24107E-14
 -1      3540 6.70031E-03 7.83882E-04-2.19329E-14
 -1      3541 7.18860E-03 9.18672E-04-2.58405E-14
 -1      3542 7.04943E-03 8.88367E-04-2.46770E-14
 -1      3543 6.97152E-03 8.41944E-04-2.41753E-14
 -1      3544 7.46834E-03 9.79797E-04-2.82322E-14
 -1      3545 7.32822E-03 9.49161E-04-2.70258E-14
 -1      3546 7.24608E-03 9.01628E-04-2.65038E-14
 -1      3547 7.74971E-03 1.04102E-03-3.07064E-14
 -1      3548 7.60882E-03 1.01042E-03-2.94600E-14
 -1      3549 7.52341E-03 9.62000E-04-2.89160E-14
 -1      3550 8.03232E-03 1.10182E-03-3.32556E-14
 -1      3551 7.89086E-03 1.07149E-03-3.19713E-14
 -1      3552 7.80292E-03 1.02239E-03-3.14083E-14
 -1      3553 8.31588E-03 1.16189E-03-3.58713E-14
 -1      3554 8.17399E-03 1.13195E-03-3.45555E-14
 -1      3555 8.08413E-03 1.08236E-03-3.39738E-14
 -1      3556 8.60012E-03 1.22108E-03-3.85529E-14
 -1      3557 8.45792E-03 1.19159E-03-3.72034E-14
 -1      3558 8.36663E-03 1.14166E-03-3.66059E-14
 -1      3559 8.88485E-03 1.27936E-03-4.12997E-14
 -1      3560 8.74243E-03 1.25033E-03-3.99188E-14
 -1      3561 8.65008E-03 1.20016E-03-3.93039E-14
 -1      3562 9.16993E-03 1.33676E-03-4.41014E-14
 -1      3563 9.02735E-03 1.30816E-03-4.26934E-14
 -1      3564 8.93424E-03 1.25785E-03-4.20636E-14
 -1      3565 9.45525E-03 1.39337E-03-4.69637E-14
 -1      3566 9.31256E-03 1.36516E-03-4.55255E-14
 -1      3567 9.21892E-03 1.31475E-03-4.48826E-14
 -1      3568 9.74074E-03 1.44928E-03-4.98734E-14
 -1      3569 9.59798E-03 1.42140E-03-4.84120E-14
 -1      3570 9.50396E-03 1.37094E-03-4.77571E-14
 -1      3571 1.00263E-02 1.50459E-03-5.28264E-14
 -1      3572 9.88353E-03 1.47700E-03-5.13456E-14
 -1      3573 9.78925E-03 1.42651E-03-5.06772E-14
 -1      3574 1.03120E-02 1.55940E-03-5.58175E-14
 -1      3575 1.01692E-02 1.53205E-03-5.43172E-14
 -1      3576 1.00747E-02 1.48155E-03-5.36412E-14
 -1      3577 1.05977E-02 1.61381E-03-5.88527E-14
 -1      3578 1.04549E-02 1.58665E-03-5.73298E-14
 -1      3579 1.03603E-02 1.53615E-03-5.66437E-14
 -1      3580 1.08835E-02 1.66789E-03-6.19230E-14
 -1      3581 1.07406E-02 1.64088E-03-6.03824E-14
 -1      3582 1.06460E-02 1.59039E-03-5.96847E-14
 -1      3583 1.11692E-02 1.72172E-03-6.50388E-14
 -1      3584 1.10263E-02 1.69483E-03-6.34767E-14
 -1      3585 1.09317E-02 1.64435E-03-6.27671E-14
 -1      3586 1.14550E-02 1.77536E-03-6.81944E-14
 -1      3587 1.13121E-02 1.74856E-03-6.66113E-14
 -1      3588 1.12175E-02 1.69809E-03-6.58894E-14
 -1      3589 1.17408E-02 1.82885E-03-7.13879E-14
 -1      3590 1.15979E-02 1.80212E-03-6.97860E-14
 -1      3591 1.15033E-02 1.75166E-03-6.90523E-14
 -1      3592 1.20265E-02 1.88223E-03-7.46151E-14
 -1      3593 1.18836E-02 1.85555E-03-7.29980E-14
 -1      3594 1.17890E-02 1.80510E-03-7.22534E-14
 -1      3595 1.23123E-02 1.93552E-03-7.78742E-14
 -1      3596 1.21694E-02 1.90888E-03-7.62406E-14
 -1      3597 1.20748E-02 1.85844E-03-7.54861E-14
 -1      3598 1.25980E-02 1.98877E-03-8.11665E-14
 -1      3599 1.24551E-02 1.96215E-03-7.95153E-14
 -1      3600 1.23606E-02 1.91172E-03-7.87503E-14
 -1      3601 1.28838E-02 2.04197E-03-8.44865E-14
 -1      3602 1.27409E-02 2.01537E-03-8.28239E-14
 -1      3603 1.26463E-02 1.96495E-03-8.20479E-14
 -1      3604 1.31695E-02 2.09515E-03-8.78262E-14
 -1      3605 1.30266E-02 2.06856E-03-8.61545E-14
 -1      3606 1.29321E-02 2.01814E-03-8.53703E-14
 -1      3607 1.34552E-02 2.14832E-03-9.11835E-14
 -1      3608 1.33124E-02 2.12173E-03-8.95036E-14
 -1      3609 1.32179E-02 2.07132E-03-8.87137E-14
 -1      3610 1.37410E-02 2.20147E-03-9.45566E-14
 -1      3611 1.35981E-02 2.17489E-03-9.28688E-14
 -1      3612 1.35036E-02 2.12448E-03-9.20744E-14
 -1      3613 1.40267E-02 2.25463E-03-9.79448E-14
 -1      3614 1.38838E-02 2.22805E-03-9.62490E-14
 -1      3615 1.37893E-02 2.17764E-03-9.54507E-14
 -1      3616 1.22049E-03-1.91149E-04-1.16411E-15
 -1      3617 1.43312E-03-2.37444E-04-1.51262E-15
 -1      3618 1.43065E-02 2.26532E-03-1.01688E-13
 -1      3619 1.43356E-02 2.30329E-03-1.01712E-13
 -1      3620 1.42507E-02 2.29209E-03-1.00653E-13
 -1      3621 1.41698E-02 2.22141E-03-1.00236E-13
 -1      3622 3.43425E-03-5.75992E-04-6.84819E-15
 -1      3623 1.84435E-03-3.07263E-04-2.32419E-15
 -1      3624 1.69237E-03-2.07804E-04-2.13428E-15
 -1      3625 5.24380E-03 3.21306E-04-1.21073E-14
 -1      3626 5.07234E-03 2.62226E-04-1.16747E-14
 -1      3627 1.37062E-02 1.67997E-03-9.91111E-14
 -1      3628 1.37323E-02 1.72213E-03-9.90647E-14
 -1      3629 3.61062E-03-5.02201E-04-7.52547E-15
 -1      3630 6.36249E-03 7.45890E-04-1.91782E-14
 -1      3631 6.22665E-03 7.20653E-04-1.81456E-14
 -1      3632 6.43294E-03 7.28650E-04-1.97775E-14
 -1      3633 7.31868E-04 1.13827E-04-1.09252E-15
 -1      3634 6.09125E-03 6.97162E-04-1.71375E-14
 -1      3635 5.95561E-03 6.75799E-04-1.61529E-14
 -1      3636 5.90940E-03 6.32803E-04-1.57424E-14
 -1      3637 6.16955E-03 6.77719E-04-1.77144E-14
 -1      3638 5.49542E-03 6.26198E-04-1.30363E-14
 -1      3639 5.35076E-03 6.21943E-04-1.21547E-14
 -1      3640 7.90665E-04 7.33812E-05-9.50900E-16
 -1      3641 8.48772E-04 4.66045E-05-9.56632E-16
 -1      3642 9.91405E-04 2.50068E-05-1.16015E-15
 -1      3643 8.36602E-04 8.99932E-05-1.11402E-15
 -1      3644 6.75194E-04 9.95971E-05-9.14545E-16
 -1      3645 7.19415E-04 1.14244E-04-1.09300E-15
 -1      3646 7.65579E-04 1.22402E-04-1.20279E-15
 -1      3647 1.28493E-03 2.93325E-04-1.27468E-15
 -1      3648 1.41895E-03-1.78811E-04-1.57167E-15
 -1      3649 1.68487E-03-3.07908E-04-1.94941E-15
 -1      3650 1.06263E-03 5.18811E-05-1.40045E-15
 -1      3651 9.68376E-04 8.62975E-05-1.35252E-15
 -1      3652 8.81467E-04 1.13016E-04-1.32420E-15
 -1      3653 5.55255E-03 4.93393E-04-1.25648E-14
 -1      3654 5.59911E-03 4.69888E-04-1.27120E-14
 -1      3655 3.77042E-03-4.17962E-04-8.09993E-15
 -1      3656 1.86702E-03-3.66774E-04-2.29303E-15
 -1      3657 4.91635E-03 1.99620E-04-1.12969E-14
 -1      3658 4.79918E-03 1.48417E-04-1.10147E-14
 -1      3659 5.62118E-03 4.50032E-04-1.28635E-14
 -1      3660 5.61094E-03 4.34554E-04-1.30091E-14
 -1      3661 5.67795E-03 4.73261E-04-1.34501E-14
 -1      3662 3.95476E-03-3.33968E-04-8.83561E-15
 -1      3663 4.81233E-03 7.13457E-04-9.62452E-15
 -1      3664 1.39754E-03 3.51476E-04-1.32259E-15
 -1      3665 2.42233E-03-5.90248E-04-3.49871E-15
 -1      3666 1.53582E-03-1.57757E-04-1.87090E-15
 -1      3667 5.00528E-03 6.51518E-04-1.03473E-14
 -1      3668 5.60545E-03 5.91466E-04-1.35577E-14
 -1      3669 1.34939E-02 1.56707E-03-9.72654E-14
 -1      3670 1.36165E-02 1.58707E-03-9.87602E-14
 -1      3671 1.36493E-02 1.61472E-03-9.89500E-14
 -1      3672 1.34455E-02 1.59090E-03-9.63786E-14
 -1      3673 5.62078E-03 4.26661E-04-1.34526E-14
 -1      3674 5.62302E-03 4.15789E-04-1.38977E-14
 -1      3675 5.70434E-03 4.47422E-04-1.40540E-14
 -1      3676 1.22366E-03-4.29161E-05-1.44390E-15
 -1      3677 1.15698E-03 2.01505E-06-1.42737E-15
 -1      3678 4.16247E-03-2.22881E-04-9.57412E-15
 -1      3679 1.41657E-02 2.28089E-03-9.95923E-14
 -1      3680 5.36952E-03 3.47222E-04-1.28311E-14
 -1      3681 1.29212E-03-1.01740E-04-1.44997E-15
 -1      3682 1.40308E-02 2.19514E-03-9.85826E-14
 -1      3683 1.40712E-02 2.23048E-03-9.87918E-14
 -1      3684 2.03760E-03-4.30277E-04-2.62880E-15
 -1      3685 1.38620E-02 1.93147E-03-9.88308E-14
 -1      3686 1.38881E-02 1.97354E-03-9.87814E-14
 -1      3687 5.21289E-03 6.25306E-04-1.13821E-14
 -1      3688 5.05051E-03 2.33401E-04-1.19810E-14
 -1      3689 1.36214E-02 1.71983E-03-9.75629E-14
 -1      3690 1.37582E-02 1.76393E-03-9.90185E-14
 -1      3691 1.37841E-02 1.80574E-03-9.89730E-14
 -1      3692 4.31981E-03-1.19923E-04-9.96078E-15
 -1      3693 2.24331E-03-5.29422E-04-3.05974E-15
 -1      3694 1.38361E-02 1.88966E-03-9.88768E-14
 -1      3695 1.37254E-02 1.88768E-03-9.73771E-14
 -1      3696 1.38102E-02 1.84786E-03-9.89257E-14
 -1      3697 4.65429E-03 7.08635E-05-1.07684E-14
 -1      3698 4.44637E-03-4.60094E-05-1.02888E-14
 -1      3699 5.55203E-03 5.28617E-04-1.28310E-14
 -1      3700 1.39665E-02 2.09981E-03-9.86312E-14
 -1      3701 1.39926E-02 2.14197E-03-9.85775E-14
 -1      3702 1.38940E-02 2.15104E-03-9.71394E-14
 -1      3703 4.50605E-03-4.74149E-05-1.07503E-14
 -1      3704 1.36821E-02 1.64236E-03-9.91381E-14
 -1      3705 1.35714E-02 1.64041E-03-9.76344E-14
 -1      3706 4.76165E-03 9.70408E-05-1.13441E-14
 -1      3707 7.30147E-03 8.85033E-04-2.71670E-14
 -1      3708 7.16490E-03 8.55453E-04-2.59827E-14
 -1      3709 4.68281E-03 1.08917E-05-1.15854E-14
 -1      3710 5.70813E-03 5.52063E-04-1.40384E-14
 -1      3711 4.89218E-03 8.44369E-05-1.25156E-14
 -1      3712 5.05335E-03 1.24713E-04-1.34018E-14
 -1      3713 5.20879E-03 1.59072E-04-1.43111E-14
 -1      3714 5.35959E-03 1.90265E-04-1.52438E-14
 -1      3715 5.19950E-03 1.93646E-04-1.38476E-14
 -1      3716 5.50656E-03 2.18346E-04-1.61984E-14
 -1      3717 5.65082E-03 2.44828E-04-1.71741E-14
 -1      3718 5.49175E-03 2.48402E-04-1.57125E-14
 -1      3719 5.79282E-03 2.69763E-04-1.81741E-14
 -1      3720 5.93340E-03 2.93917E-04-1.91959E-14
 -1      3721 5.77222E-03 2.96153E-04-1.76664E-14
 -1      3722 6.07279E-03 3.17326E-04-2.02378E-14
 -1      3723 6.21156E-03 3.40376E-04-2.13040E-14
 -1      3724 6.04696E-03 3.41269E-04-1.97085E-14
 -1      3725 6.34983E-03 3.63119E-04-2.23918E-14
 -1      3726 6.48797E-03 3.85735E-04-2.35003E-14
 -1      3727 6.31950E-03 3.85595E-04-2.18379E-14
 -1      3728 6.62603E-03 4.08285E-04-2.46300E-14
 -1      3729 6.76423E-03 4.30848E-04-2.57818E-14
 -1      3730 6.59191E-03 4.30021E-04-2.40559E-14
 -1      3731 6.90257E-03 4.53486E-04-2.69560E-14
 -1      3732 7.04120E-03 4.76225E-04-2.81513E-14
 -1      3733 6.86532E-03 4.74967E-04-2.63595E-14
 -1      3734 7.18008E-03 4.99118E-04-2.93656E-14
 -1      3735 7.31931E-03 5.22164E-04-3.05998E-14
 -1      3736 7.14027E-03 5.20648E-04-2.87475E-14
 -1      3737 7.45883E-03 5.45407E-04-3.18543E-14
 -1      3738 7.59869E-03 5.68832E-04-3.31248E-14
 -1      3739 7.41694E-03 5.67157E-04-3.12146E-14
 -1      3740 7.73885E-03 5.92470E-04-3.44134E-14
 -1      3741 7.87932E-03 6.16302E-04-3.57208E-14
 -1      3742 7.69530E-03 6.14519E-04-3.37563E-14
 -1      3743 8.02005E-03 6.40348E-04-3.70453E-14
 -1      3744 8.16107E-03 6.64586E-04-3.83863E-14
 -1      3745 7.97519E-03 6.62714E-04-3.63689E-14
 -1      3746 8.30231E-03 6.89027E-04-3.97441E-14
 -1      3747 8.44378E-03 7.13650E-04-4.11164E-14
 -1      3748 8.25643E-03 7.11695E-04-3.90501E-14
 -1      3749 8.58544E-03 7.38459E-04-4.25037E-14
 -1      3750 8.72729E-03 7.63433E-04-4.39076E-14
 -1      3751 8.53879E-03 7.61394E-04-4.17966E-14
 -1      3752 8.86928E-03 7.88572E-04-4.53260E-14
 -1      3753 9.01143E-03 8.13857E-04-4.67587E-14
 -1      3754 8.82205E-03 8.11733E-04-4.46027E-14
 -1      3755 9.15369E-03 8.39284E-04-4.82028E-14
 -1      3756 9.29606E-03 8.64837E-04-4.96584E-14
 -1      3757 9.10603E-03 8.62630E-04-4.74656E-14
 -1      3758 9.43852E-03 8.90511E-04-5.11255E-14
 -1      3759 9.58107E-03 9.16290E-04-5.26035E-14
 -1      3760 9.39056E-03 9.14001E-04-5.03775E-14
 -1      3761 9.72367E-03 9.42169E-04-5.40912E-14
 -1      3762 9.86634E-03 9.68137E-04-5.55893E-14
 -1      3763 9.67550E-03 9.65771E-04-5.33327E-14
 -1      3764 1.00091E-02 9.94184E-04-5.70957E-14
 -1      3765 1.01518E-02 1.02030E-03-5.86123E-14
 -1      3766 9.96074E-03 1.01787E-03-5.63254E-14
 -1      3767 1.02946E-02 1.04649E-03-6.01388E-14
 -1      3768 1.04374E-02 1.07273E-03-6.16757E-14
 -1      3769 1.02462E-02 1.07023E-03-5.93570E-14
 -1      3770 1.05803E-02 1.09902E-03-6.32219E-14
 -1      3771 1.07231E-02 1.12535E-03-6.47767E-14
 -1      3772 1.05318E-02 1.12280E-03-6.24295E-14
 -1      3773 1.08660E-02 1.15173E-03-6.63419E-14
 -1      3774 1.10089E-02 1.17814E-03-6.79161E-14
 -1      3775 1.08175E-02 1.17554E-03-6.55382E-14
 -1      3776 1.11517E-02 1.20457E-03-6.95019E-14
 -1      3777 1.12946E-02 1.23104E-03-7.10962E-14
 -1      3778 1.11032E-02 1.22840E-03-6.86860E-14
 -1      3779 1.14375E-02 1.25752E-03-7.26981E-14
 -1      3780 1.15804E-02 1.28403E-03-7.43099E-14
 -1      3781 1.13890E-02 1.28136E-03-7.18728E-14
 -1      3782 1.17233E-02 1.31055E-03-7.59307E-14
 -1      3783 1.18662E-02 1.33708E-03-7.75577E-14
 -1      3784 1.16748E-02 1.33439E-03-7.50927E-14
 -1      3785 1.20091E-02 1.36363E-03-7.91947E-14
 -1      3786 1.21520E-02 1.39019E-03-8.08404E-14
 -1      3787 1.19606E-02 1.38748E-03-7.83484E-14
 -1      3788 1.22949E-02 1.41675E-03-8.24911E-14
 -1      3789 1.24378E-02 1.44332E-03-8.41470E-14
 -1      3790 1.22464E-02 1.44059E-03-8.16362E-14
 -1      3791 1.25807E-02 1.46990E-03-8.58111E-14
 -1      3792 1.27236E-02 1.49648E-03-8.74798E-14
 -1      3793 1.25322E-02 1.49374E-03-8.49503E-14
 -1      3794 1.28665E-02 1.52306E-03-8.91534E-14
 -1      3795 1.30094E-02 1.54965E-03-9.08361E-14
 -1      3796 1.28180E-02 1.54690E-03-8.82869E-14
 -1      3797 1.31522E-02 1.57623E-03-9.25224E-14
 -1      3798 1.32951E-02 1.60282E-03-9.42148E-14
 -1      3799 1.31038E-02 1.60007E-03-9.16450E-14
 -1      3800 1.34695E-02 1.62851E-03-9.63547E-14
 -1      3801 6.76127E-03 7.68605E-04-2.25551E-14
 -1      3802 6.62902E-03 7.40577E-04-2.14562E-14
 -1      3803 7.57695E-03 9.44477E-04-2.95996E-14
 -1      3804 7.43882E-03 9.14706E-04-2.83732E-14
 -1      3805 7.35488E-03 8.68575E-04-2.78317E-14
 -1      3806 7.85505E-03 1.00392E-03-3.21091E-14
 -1      3807 7.71570E-03 9.74212E-04-3.08452E-14
 -1      3808 7.62906E-03 9.26992E-04-3.02831E-14
 -1      3809 8.13518E-03 1.06299E-03-3.46917E-14
 -1      3810 7.99489E-03 1.03351E-03-3.33921E-14
 -1      3811 7.90615E-03 9.85432E-04-3.28108E-14
 -1      3812 8.41686E-03 1.12147E-03-3.73398E-14
 -1      3813 8.27584E-03 1.09231E-03-3.60077E-14
 -1      3814 8.18549E-03 1.04357E-03-3.54097E-14
 -1      3815 8.69970E-03 1.17925E-03-4.00543E-14
 -1      3816 8.55815E-03 1.15045E-03-3.86890E-14
 -1      3817 8.46657E-03 1.10122E-03-3.80750E-14
 -1      3818 8.98341E-03 1.23632E-03-4.28294E-14
 -1      3819 8.84146E-03 1.20787E-03-4.14349E-14
 -1      3820 8.74897E-03 1.15828E-03-4.08040E-14
 -1      3821 9.26777E-03 1.29271E-03-4.56634E-14
 -1      3822 9.12552E-03 1.26460E-03-4.42386E-14
 -1      3823 9.03235E-03 1.21474E-03-4.35954E-14
 -1      3824 9.55258E-03 1.34848E-03-4.85497E-14
 -1      3825 9.41012E-03 1.32067E-03-4.71009E-14
 -1      3826 9.31647E-03 1.27062E-03-4.64421E-14
 -1      3827 9.83773E-03 1.40371E-03-5.14812E-14
 -1      3828 9.69512E-03 1.37616E-03-5.00105E-14
 -1      3829 9.60113E-03 1.32597E-03-4.93416E-14
 -1      3830 1.01231E-02 1.45848E-03-5.44544E-14
 -1      3831 9.98040E-03 1.43115E-03-5.29632E-14
 -1      3832 9.88617E-03 1.38087E-03-5.22845E-14
 -1      3833 1.04087E-02 1.51287E-03-5.74689E-14
 -1      3834 1.02659E-02 1.48572E-03-5.59564E-14
 -1      3835 1.01715E-02 1.43538E-03-5.52685E-14
 -1      3836 1.06943E-02 1.56696E-03-6.05158E-14
 -1      3837 1.05515E-02 1.53995E-03-5.89872E-14
 -1      3838 1.04570E-02 1.48956E-03-5.82888E-14
 -1      3839 1.09800E-02 1.62080E-03-6.36079E-14
 -1      3840 1.08372E-02 1.59390E-03-6.20573E-14
 -1      3841 1.07426E-02 1.54349E-03-6.13460E-14
 -1      3842 1.12658E-02 1.67444E-03-6.67382E-14
 -1      3843 1.11229E-02 1.64764E-03-6.51676E-14
 -1      3844 1.10283E-02 1.59721E-03-6.44470E-14
 -1      3845 1.15516E-02 1.72795E-03-6.99116E-14
 -1      3846 1.14087E-02 1.70121E-03-6.83208E-14
 -1      3847 1.13141E-02 1.65078E-03-6.75877E-14
 -1      3848 1.18374E-02 1.78134E-03-7.31149E-14
 -1      3849 1.16945E-02 1.75465E-03-7.15071E-14
 -1      3850 1.15999E-02 1.70422E-03-7.07652E-14
 -1      3851 1.21231E-02 1.83465E-03-7.63556E-14
 -1      3852 1.19802E-02 1.80800E-03-7.47328E-14
 -1      3853 1.18857E-02 1.75757E-03-7.39769E-14
 -1      3854 1.24089E-02 1.88791E-03-7.96254E-14
 -1      3855 1.22660E-02 1.86129E-03-7.79858E-14
 -1      3856 1.21715E-02 1.81085E-03-7.72224E-14
 -1      3857 1.26947E-02 1.94112E-03-8.29291E-14
 -1      3858 1.25518E-02 1.91452E-03-8.12736E-14
 -1      3859 1.24573E-02 1.86409E-03-8.05013E-14
 -1      3860 1.29805E-02 1.99431E-03-8.62538E-14
 -1      3861 1.28376E-02 1.96772E-03-8.45892E-14
 -1      3862 1.27431E-02 1.91729E-03-8.38085E-14
 -1      3863 1.32662E-02 2.04748E-03-8.95998E-14
 -1      3864 1.31233E-02 2.02090E-03-8.79251E-14
 -1      3865 1.30288E-02 1.97047E-03-8.71372E-14
 -1      3866 1.35520E-02 2.10064E-03-9.29622E-14
 -1      3867 1.34091E-02 2.07406E-03-9.12796E-14
 -1      3868 1.33146E-02 2.02364E-03-9.04857E-14
 -1      3869 1.37511E-02 2.12446E-03-9.54435E-14
 -1      3870 5.48782E-03 3.68058E-04-1.36166E-14
 -1      3871 5.32938E-03 3.16355E-04-1.31443E-14
 -1      3872 4.97031E-03 1.65437E-04-1.22673E-14
 -1      3873 4.84363E-03 9.72566E-05-1.20055E-14
 -1      3874 1.37774E-02 1.97156E-03-9.72812E-14
 -1      3875 1.39142E-02 2.01562E-03-9.87312E-14
 -1      3876 1.39403E-02 2.05769E-03-9.86816E-14
 -1      3877 6.49823E-03 7.13343E-04-2.03784E-14
 -1      3878 6.36877E-03 6.86852E-04-1.93232E-14
 -1      3879 6.55855E-03 6.99133E-04-2.09799E-14
 -1      3880 7.02930E-03 8.26152E-04-2.48190E-14
 -1      3881 6.89468E-03 7.97121E-04-2.36758E-14
 -1      3882 7.08441E-03 8.10665E-04-2.54619E-14
 -1      3883 1.38297E-02 2.05575E-03-9.71843E-14
 -1      3884 5.73699E-03 4.99853E-04-1.40383E-14
 -1      3885 5.75143E-03 4.78503E-04-1.41966E-14
 -1      3886 5.22400E-03 2.74958E-04-1.29028E-14
 -1      3887 5.08473E-03 2.20486E-04-1.25080E-14
 -1      3888 5.15382E-03 2.13788E-04-1.31967E-14
 -1      3889 5.36106E-03 3.03661E-04-1.36910E-14
 -1      3890 5.85896E-03 5.91222E-04-1.52730E-14
 -1      3891 5.78150E-03 5.33811E-04-1.45038E-14
 -1      3892 5.87446E-03 5.37629E-04-1.52761E-14
 -1      3893 5.98225E-03 6.12825E-04-1.62350E-14
 -1      3894 1.34211E-02 1.65234E-03-9.54654E-14
 -1      3895 1.36566E-02 2.07405E-03-9.46432E-14
 -1      3896 1.36044E-02 1.98981E-03-9.47424E-14
 -1      3897 1.36305E-02 2.03193E-03-9.46936E-14
 -1      3898 1.34313E-02 2.00810E-03-9.22168E-14
 -1      3899 5.71121E-03 4.22171E-04-1.48460E-14
 -1      3900 5.60461E-03 3.96745E-04-1.42274E-14
 -1      3901 5.58242E-03 3.73277E-04-1.45554E-14
 -1      3902 1.35522E-02 1.90566E-03-9.48407E-14
 -1      3903 1.35783E-02 1.94773E-03-9.47915E-14
 -1      3904 1.33791E-02 1.92391E-03-9.23156E-14
 -1      3905 1.36734E-02 1.80375E-03-9.74709E-14
 -1      3906 5.86251E-03 4.97121E-04-1.52707E-14
 -1      3907 5.78553E-03 4.71419E-04-1.46588E-14
 -1      3908 5.81058E-03 4.63544E-04-1.51232E-14
 -1      3909 1.34470E-02 1.69415E-03-9.54250E-14
 -1      3910 6.24101E-03 6.61457E-04-1.82906E-14
 -1      3911 6.11461E-03 6.37077E-04-1.72824E-14
 -1      3912 6.30562E-03 6.47148E-04-1.88699E-14
 -1      3913 1.35003E-02 1.82204E-03-9.49335E-14
 -1      3914 1.35262E-02 1.86385E-03-9.48862E-14
 -1      3915 1.33270E-02 1.84002E-03-9.24090E-14
 -1      3916 6.81858E-03 7.53922E-04-2.31778E-14
 -1      3917 5.29982E-03 2.41407E-04-1.41025E-14
 -1      3918 6.87248E-03 7.39621E-04-2.38020E-14
 -1      3919 6.74245E-03 7.12337E-04-2.26814E-14
 -1      3920 5.48242E-03 2.78359E-04-1.52279E-14
 -1      3921 5.61971E-03 3.00585E-04-1.61825E-14
 -1      3922 5.75500E-03 3.22042E-04-1.71586E-14
 -1      3923 5.88952E-03 3.43375E-04-1.81579E-14
 -1      3924 5.74131E-03 3.47506E-04-1.66537E-14
 -1      3925 6.02323E-03 3.64532E-04-1.91802E-14
 -1      3926 6.15691E-03 3.85832E-04-2.02217E-14
 -1      3927 6.00160E-03 3.87097E-04-1.86510E-14
 -1      3928 6.29049E-03 4.07290E-04-2.12862E-14
 -1      3929 6.42443E-03 4.28990E-04-2.23737E-14
 -1      3930 6.26272E-03 4.28171E-04-2.07362E-14
 -1      3931 6.55867E-03 4.50946E-04-2.34824E-14
 -1      3932 6.69343E-03 4.73154E-04-2.46135E-14
 -1      3933 6.52616E-03 4.71026E-04-2.29104E-14
 -1      3934 6.82867E-03 4.95649E-04-2.57644E-14
 -1      3935 6.96451E-03 5.18395E-04-2.69377E-14
 -1      3936 6.79248E-03 5.15497E-04-2.51713E-14
 -1      3937 7.10088E-03 5.41426E-04-2.81317E-14
 -1      3938 7.23786E-03 5.64692E-04-2.93436E-14
 -1      3939 7.06181E-03 5.61418E-04-2.75157E-14
 -1      3940 7.37537E-03 5.88224E-04-3.05772E-14
 -1      3941 7.51344E-03 6.11973E-04-3.18292E-14
 -1      3942 7.33404E-03 6.08577E-04-2.99409E-14
 -1      3943 7.65201E-03 6.35965E-04-3.31004E-14
 -1      3944 7.79106E-03 6.60155E-04-3.43881E-14
 -1      3945 7.60890E-03 6.56780E-04-3.24442E-14
 -1      3946 7.93055E-03 6.84563E-04-3.56935E-14
 -1      3947 8.07046E-03 7.09151E-04-3.70180E-14
 -1      3948 7.88606E-03 7.05868E-04-3.50209E-14
 -1      3949 8.21074E-03 7.33930E-04-3.83583E-14
 -1      3950 8.35136E-03 7.58869E-04-3.97157E-14
 -1      3951 8.16517E-03 7.55707E-04-3.76667E-14
 -1      3952 8.49229E-03 7.83976E-04-4.10893E-14
 -1      3953 8.63350E-03 8.09222E-04-4.24757E-14
 -1      3954 8.44590E-03 8.06179E-04-4.03805E-14
 -1      3955 8.77495E-03 8.34611E-04-4.38789E-14
 -1      3956 8.91662E-03 8.60121E-04-4.52972E-14
 -1      3957 8.72794E-03 8.57184E-04-4.31557E-14
 -1      3958 9.05848E-03 8.85752E-04-4.67280E-14
 -1      3959 9.20051E-03 9.11486E-04-4.81723E-14
 -1      3960 9.01101E-03 9.08634E-04-4.59901E-14
 -1      3961 9.34268E-03 9.37320E-04-4.96283E-14
 -1      3962 9.48498E-03 9.63240E-04-5.10950E-14
 -1      3963 9.29487E-03 9.60452E-04-4.88783E-14
 -1      3964 9.62739E-03 9.89243E-04-5.25722E-14
 -1      3965 9.76989E-03 1.01532E-03-5.40591E-14
 -1      3966 9.57934E-03 1.01257E-03-5.18116E-14
 -1      3967 9.91247E-03 1.04146E-03-5.55559E-14
 -1      3968 1.00551E-02 1.06765E-03-5.70613E-14
 -1      3969 9.86425E-03 1.06494E-03-5.47856E-14
 -1      3970 1.01978E-02 1.09390E-03-5.85779E-14
 -1      3971 1.03406E-02 1.12020E-03-6.01030E-14
 -1      3972 1.01495E-02 1.11750E-03-5.77973E-14
 -1      3973 1.04834E-02 1.14654E-03-6.16372E-14
 -1      3974 1.06262E-02 1.17291E-03-6.31817E-14
 -1      3975 1.04349E-02 1.17022E-03-6.08470E-14
 -1      3976 1.07690E-02 1.19932E-03-6.47365E-14
 -1      3977 1.09119E-02 1.22575E-03-6.62989E-14
 -1      3978 1.07206E-02 1.22306E-03-6.39334E-14
 -1      3979 1.10547E-02 1.25221E-03-6.78723E-14
 -1      3980 1.11976E-02 1.27869E-03-6.94555E-14
 -1      3981 1.10063E-02 1.27599E-03-6.70601E-14
 -1      3982 1.13405E-02 1.30519E-03-7.10474E-14
 -1      3983 1.14834E-02 1.33170E-03-7.26473E-14
 -1      3984 1.12920E-02 1.32900E-03-7.02234E-14
 -1      3985 1.16263E-02 1.35823E-03-7.42591E-14
 -1      3986 1.17692E-02 1.38477E-03-7.58774E-14
 -1      3987 1.15778E-02 1.38206E-03-7.34248E-14
 -1      3988 1.19121E-02 1.41132E-03-7.75037E-14
 -1      3989 1.20550E-02 1.43787E-03-7.91396E-14
 -1      3990 1.18637E-02 1.43515E-03-7.66606E-14
 -1      3991 1.21980E-02 1.46444E-03-8.07829E-14
 -1      3992 1.23409E-02 1.49101E-03-8.24320E-14
 -1      3993 1.21495E-02 1.48828E-03-7.99296E-14
 -1      3994 1.24838E-02 1.51758E-03-8.40889E-14
 -1      3995 1.26267E-02 1.54416E-03-8.57519E-14
 -1      3996 1.24353E-02 1.54143E-03-8.32288E-14
 -1      3997 1.27695E-02 1.57074E-03-8.74192E-14
 -1      3998 1.29124E-02 1.59733E-03-8.90921E-14
 -1      3999 1.27211E-02 1.59459E-03-8.65511E-14
 -1      4000 1.30553E-02 1.62391E-03-9.07702E-14
 -1      4001 1.31982E-02 1.65050E-03-9.24537E-14
 -1      4002 1.30069E-02 1.64775E-03-8.98951E-14
 -1      4003 7.95626E-03 9.66877E-04-3.35112E-14
 -1      4004 7.81770E-03 9.38174E-04-3.22296E-14
 -1      4005 7.40645E-03 8.52155E-04-2.84968E-14
 -1      4006 7.27116E-03 8.23626E-04-2.72909E-14
 -1      4007 8.23511E-03 1.02407E-03-3.61268E-14
 -1      4008 8.09542E-03 9.95502E-04-3.48114E-14
 -1      4009 8.00551E-03 9.48117E-04-3.42124E-14
 -1      4010 8.51580E-03 1.08088E-03-3.88085E-14
 -1      4011 8.37525E-03 1.05252E-03-3.74594E-14
 -1      4012 8.28410E-03 1.00438E-03-3.68455E-14
 -1      4013 8.79790E-03 1.13722E-03-4.15544E-14
 -1      4014 8.65669E-03 1.10910E-03-4.01735E-14
 -1      4015 8.56459E-03 1.06037E-03-3.95424E-14
 -1      4016 9.08108E-03 1.19307E-03-4.43592E-14
 -1      4017 8.93937E-03 1.16520E-03-4.29483E-14
 -1      4018 8.84654E-03 1.11601E-03-4.23027E-14
 -1      4019 9.36504E-03 1.24845E-03-4.72211E-14
 -1      4020 9.22297E-03 1.22081E-03-4.57841E-14
 -1      4021 9.12960E-03 1.17127E-03-4.51230E-14
 -1      4022 9.64960E-03 1.30339E-03-5.01306E-14
 -1      4023 9.50726E-03 1.27597E-03-4.86701E-14
 -1      4024 9.41349E-03 1.22617E-03-4.79971E-14
 -1      4025 9.93457E-03 1.35797E-03-5.30850E-14
 -1      4026 9.79204E-03 1.33072E-03-5.16038E-14
 -1      4027 9.69799E-03 1.28073E-03-5.09210E-14
 -1      4028 1.02198E-02 1.41222E-03-5.60797E-14
 -1      4029 1.00772E-02 1.38513E-03-5.45759E-14
 -1      4030 9.98294E-03 1.33500E-03-5.38848E-14
 -1      4031 1.05053E-02 1.46622E-03-5.91085E-14
 -1      4032 1.03626E-02 1.43925E-03-5.75911E-14
 -1      4033 1.02682E-02 1.38901E-03-5.68882E-14
 -1      4034 1.07910E-02 1.52000E-03-6.21758E-14
 -1      4035 1.06481E-02 1.49313E-03-6.06366E-14
 -1      4036 1.05537E-02 1.44282E-03-5.99266E-14
 -1      4037 1.10767E-02 1.57361E-03-6.52852E-14
 -1      4038 1.09338E-02 1.54682E-03-6.37255E-14
 -1      4039 1.08393E-02 1.49646E-03-6.30043E-14
 -1      4040 1.13624E-02 1.62709E-03-6.84347E-14
 -1      4041 1.12195E-02 1.60036E-03-6.68542E-14
 -1      4042 1.11250E-02 1.54998E-03-6.61227E-14
 -1      4043 1.16482E-02 1.68048E-03-7.16179E-14
 -1      4044 1.15053E-02 1.65379E-03-7.00235E-14
 -1      4045 1.14108E-02 1.60339E-03-6.92782E-14
 -1      4046 1.19340E-02 1.73379E-03-7.48392E-14
 -1      4047 1.17911E-02 1.70714E-03-7.32230E-14
 -1      4048 1.16966E-02 1.65672E-03-7.24720E-14
 -1      4049 1.22198E-02 1.78704E-03-7.80915E-14
 -1      4050 1.20769E-02 1.76042E-03-7.64626E-14
 -1      4051 1.19824E-02 1.70999E-03-7.56988E-14
 -1      4052 1.25056E-02 1.84026E-03-8.13767E-14
 -1      4053 1.23627E-02 1.81366E-03-7.97299E-14
 -1      4054 1.22682E-02 1.76323E-03-7.89608E-14
 -1      4055 1.27914E-02 1.89346E-03-8.46875E-14
 -1      4056 1.26485E-02 1.86686E-03-8.30285E-14
 -1      4057 1.25540E-02 1.81643E-03-8.22508E-14
 -1      4058 1.30772E-02 1.94663E-03-8.80189E-14
 -1      4059 1.29343E-02 1.92005E-03-8.63505E-14
 -1      4060 1.28398E-02 1.86962E-03-8.55651E-14
 -1      4061 1.33257E-02 1.99066E-03-9.09532E-14
 -1      4062 1.31828E-02 1.96408E-03-8.92774E-14
 -1      4063 1.30883E-02 1.91365E-03-8.84845E-14
 -1      4064 1.32996E-02 1.94854E-03-9.10032E-14
 -1      4065 7.67982E-03 9.09476E-04-3.09659E-14
 -1      4066 7.54269E-03 8.80764E-04-2.97217E-14
 -1      4067 7.72938E-03 8.91747E-04-3.16491E-14
 -1      4068 1.33356E-02 1.69338E-03-9.39154E-14
 -1      4069 1.35360E-02 1.76087E-03-9.60024E-14
 -1      4070 1.35621E-02 1.80299E-03-9.59563E-14
 -1      4071 1.32872E-02 1.71722E-03-9.30327E-14
 -1      4072 6.61420E-03 6.85696E-04-2.15816E-14
 -1      4073 6.48784E-03 6.59559E-04-2.05045E-14
 -1      4074 6.66579E-03 6.72339E-04-2.21846E-14
 -1      4075 7.13699E-03 7.95343E-04-2.61073E-14
 -1      4076 7.00403E-03 7.67266E-04-2.49440E-14
 -1      4077 7.18738E-03 7.79852E-04-2.67526E-14
 -1      4078 6.92341E-03 7.25234E-04-2.44269E-14
 -1      4079 5.81334E-03 4.49021E-04-1.54690E-14
 -1      4080 5.80951E-03 4.31863E-04-1.58132E-14
 -1      4081 5.90858E-03 4.75549E-04-1.60993E-14
 -1      4082 1.33629E-02 1.77916E-03-9.34728E-14
 -1      4083 6.41624E-03 6.21823E-04-2.00303E-14
 -1      4084 6.36375E-03 6.34287E-04-1.94498E-14
 -1      4085 6.24202E-03 6.09646E-04-1.84175E-14
 -1      4086 7.45638E-03 8.35530E-04-2.91608E-14
 -1      4087 6.05363E-03 5.97392E-04-1.67883E-14
 -1      4088 1.32473E-02 1.86439E-03-9.11000E-14
 -1      4089 1.32734E-02 1.90646E-03-9.10520E-14
 -1      4090 1.31678E-02 1.88902E-03-8.97910E-14
 -1      4091 5.65588E-03 3.67896E-04-1.54382E-14
 -1      4092 5.53053E-03 3.33882E-04-1.48042E-14
 -1      4093 5.43835E-03 2.96755E-04-1.45502E-14
 -1      4094 1.31955E-02 1.78077E-03-9.11909E-14
 -1      4095 1.32214E-02 1.82258E-03-9.11462E-14
 -1      4096 1.31158E-02 1.80513E-03-8.98837E-14
 -1      4097 5.99022E-03 5.61527E-04-1.62725E-14
 -1      4098 5.92925E-03 5.27419E-04-1.57822E-14
 -1      4099 5.97257E-03 5.19291E-04-1.62665E-14
 -1      4100 6.11321E-03 5.85743E-04-1.73178E-14
 -1      4101 5.98156E-03 4.08341E-04-1.81243E-14
 -1      4102 6.10824E-03 4.27750E-04-1.91449E-14
 -1      4103 6.23570E-03 4.47897E-04-2.01878E-14
 -1      4104 6.36438E-03 4.68644E-04-2.12522E-14
 -1      4105 6.20915E-03 4.66380E-04-1.96392E-14
 -1      4106 6.49399E-03 4.90065E-04-2.23393E-14
 -1      4107 6.62474E-03 5.11983E-04-2.34480E-14
 -1      4108 6.46190E-03 5.07995E-04-2.17692E-14
 -1      4109 6.75640E-03 5.34407E-04-2.45770E-14
 -1      4110 6.88913E-03 5.57271E-04-2.57285E-14
 -1      4111 6.72021E-03 5.52304E-04-2.39845E-14
 -1      4112 7.02275E-03 5.80569E-04-2.69001E-14
 -1      4113 7.15732E-03 6.04205E-04-2.80919E-14
 -1      4114 6.98352E-03 5.98826E-04-2.62858E-14
 -1      4115 7.29269E-03 6.28182E-04-2.93072E-14
 -1      4116 7.42888E-03 6.52424E-04-3.05383E-14
 -1      4117 7.25117E-03 6.46999E-04-2.86715E-14
 -1      4118 7.56577E-03 6.76940E-04-3.17898E-14
 -1      4119 7.70337E-03 7.01666E-04-3.30599E-14
 -1      4120 7.52252E-03 6.96414E-04-3.11365E-14
 -1      4121 7.84156E-03 7.26611E-04-3.43476E-14
 -1      4122 7.98034E-03 7.51722E-04-3.56537E-14
 -1      4123 7.79697E-03 7.46764E-04-3.36759E-14
 -1      4124 8.11962E-03 7.77009E-04-3.69755E-14
 -1      4125 8.25937E-03 8.02429E-04-3.83163E-14
 -1      4126 8.07400E-03 7.97814E-04-3.62869E-14
 -1      4127 8.39954E-03 8.27990E-04-3.96734E-14
 -1      4128 8.54009E-03 8.53657E-04-4.10447E-14
 -1      4129 8.35315E-03 8.49388E-04-3.89663E-14
 -1      4130 8.68096E-03 8.79438E-04-4.24335E-14
 -1      4131 8.82214E-03 9.05304E-04-4.38360E-14
 -1      4132 8.63398E-03 9.01355E-04-4.17099E-14
 -1      4133 8.96358E-03 9.31260E-04-4.52529E-14
 -1      4134 9.10524E-03 9.57285E-04-4.66839E-14
 -1      4135 8.91615E-03 9.53617E-04-4.45146E-14
 -1      4136 9.24710E-03 9.83383E-04-4.81279E-14
 -1      4137 9.38914E-03 1.00954E-03-4.95834E-14
 -1      4138 9.19936E-03 1.00610E-03-4.73769E-14
 -1      4139 9.53133E-03 1.03575E-03-5.10502E-14
 -1      4140 9.67365E-03 1.06200E-03-5.25271E-14
 -1      4141 9.48334E-03 1.05876E-03-5.02885E-14
 -1      4142 9.81607E-03 1.08830E-03-5.40138E-14
 -1      4143 9.95859E-03 1.11464E-03-5.55114E-14
 -1      4144 9.76792E-03 1.11154E-03-5.32426E-14
 -1      4145 1.01012E-02 1.14101E-03-5.70164E-14
 -1      4146 1.02439E-02 1.16741E-03-5.85321E-14
 -1      4147 1.00529E-02 1.16443E-03-5.62348E-14
 -1      4148 1.03866E-02 1.19384E-03-6.00569E-14
 -1      4149 1.05293E-02 1.22028E-03-6.15896E-14
 -1      4150 1.03382E-02 1.21738E-03-5.92643E-14
 -1      4151 1.06721E-02 1.24675E-03-6.31320E-14
 -1      4152 1.08150E-02 1.27324E-03-6.46856E-14
 -1      4153 1.06237E-02 1.27040E-03-6.23316E-14
 -1      4154 1.09578E-02 1.29974E-03-6.62471E-14
 -1      4155 1.11007E-02 1.32626E-03-6.78185E-14
 -1      4156 1.09094E-02 1.32346E-03-6.54350E-14
 -1      4157 1.12436E-02 1.35279E-03-6.94011E-14
 -1      4158 1.13865E-02 1.37932E-03-7.09907E-14
 -1      4159 1.11951E-02 1.37655E-03-6.85782E-14
 -1      4160 1.15294E-02 1.40587E-03-7.25903E-14
 -1      4161 1.16723E-02 1.43242E-03-7.42011E-14
 -1      4162 1.14809E-02 1.42967E-03-7.17585E-14
 -1      4163 1.18152E-02 1.45898E-03-7.58170E-14
 -1      4164 1.19581E-02 1.48555E-03-7.74426E-14
 -1      4165 1.17667E-02 1.48281E-03-7.49742E-14
 -1      4166 1.21010E-02 1.51212E-03-7.90786E-14
 -1      4167 1.22439E-02 1.53869E-03-8.07197E-14
 -1      4168 1.20526E-02 1.53595E-03-7.82259E-14
 -1      4169 1.23868E-02 1.56527E-03-8.23687E-14
 -1      4170 1.25297E-02 1.59185E-03-8.40233E-14
 -1      4171 1.23384E-02 1.58911E-03-8.15104E-14
 -1      4172 1.26726E-02 1.61843E-03-8.56846E-14
 -1      4173 1.28155E-02 1.64501E-03-8.73517E-14
 -1      4174 1.26242E-02 1.64227E-03-8.48187E-14
 -1      4175 1.29769E-02 1.69224E-03-8.90777E-14
 -1      4176 1.31198E-02 1.71883E-03-9.07543E-14
 -1      4177 8.33253E-03 9.84471E-04-3.75622E-14
 -1      4178 8.19298E-03 9.56798E-04-3.62293E-14
 -1      4179 8.61299E-03 1.03967E-03-4.02764E-14
 -1      4180 8.47255E-03 1.01209E-03-3.89109E-14
 -1      4181 8.38049E-03 9.64285E-04-3.82806E-14
 -1      4182 6.97167E-03 7.10623E-04-2.50513E-14
 -1      4183 6.84184E-03 6.84420E-04-2.39092E-14
 -1      4184 8.05397E-03 9.29116E-04-3.49136E-14
 -1      4185 7.91557E-03 9.01413E-04-3.36138E-14
 -1      4186 8.10178E-03 9.09788E-04-3.56145E-14
 -1      4187 8.89491E-03 1.09464E-03-4.30525E-14
 -1      4188 8.75379E-03 1.06719E-03-4.16582E-14
 -1      4189 8.66105E-03 1.01874E-03-4.10098E-14
 -1      4190 9.17795E-03 1.14935E-03-4.58878E-14
 -1      4191 9.03631E-03 1.12203E-03-4.44624E-14
 -1      4192 8.94306E-03 1.07308E-03-4.38023E-14
 -1      4193 9.46183E-03 1.20379E-03-4.87749E-14
 -1      4194 9.31980E-03 1.17660E-03-4.73260E-14
 -1      4195 9.22616E-03 1.12726E-03-4.66512E-14
 -1      4196 9.74633E-03 1.25798E-03-5.17104E-14
 -1      4197 9.60401E-03 1.23091E-03-5.02360E-14
 -1      4198 9.51008E-03 1.18127E-03-4.95524E-14
 -1      4199 1.00313E-02 1.31196E-03-5.46832E-14
 -1      4200 9.88875E-03 1.28499E-03-5.31920E-14
 -1      4201 9.79461E-03 1.23512E-03-5.24966E-14
 -1      4202 1.03165E-02 1.36575E-03-5.76955E-14
 -1      4203 1.01739E-02 1.33887E-03-5.61841E-14
 -1      4204 1.00796E-02 1.28883E-03-5.54810E-14
 -1      4205 1.06020E-02 1.41938E-03-6.07423E-14
 -1      4206 1.04593E-02 1.39258E-03-5.92144E-14
 -1      4207 1.03649E-02 1.34242E-03-5.84993E-14
 -1      4208 1.08876E-02 1.47290E-03-6.38310E-14
 -1      4209 1.07448E-02 1.44616E-03-6.22812E-14
 -1      4210 1.06504E-02 1.39590E-03-6.15570E-14
 -1      4211 1.11734E-02 1.52632E-03-6.69561E-14
 -1      4212 1.10305E-02 1.49962E-03-6.53880E-14
 -1      4213 1.09360E-02 1.44930E-03-6.46535E-14
 -1      4214 1.14591E-02 1.57966E-03-7.01219E-14
 -1      4215 1.13163E-02 1.55300E-03-6.85350E-14
 -1      4216 1.12217E-02 1.50263E-03-6.77887E-14
 -1      4217 1.17450E-02 1.63295E-03-7.33207E-14
 -1      4218 1.16020E-02 1.60631E-03-7.17167E-14
 -1      4219 1.15075E-02 1.55592E-03-7.09616E-14
 -1      4220 1.20308E-02 1.68619E-03-7.65595E-14
 -1      4221 1.18879E-02 1.65957E-03-7.49364E-14
 -1      4222 1.17933E-02 1.60916E-03-7.41712E-14
 -1      4223 1.23166E-02 1.73941E-03-7.98268E-14
 -1      4224 1.21737E-02 1.71280E-03-7.81888E-14
 -1      4225 1.20792E-02 1.66238E-03-7.74166E-14
 -1      4226 1.26024E-02 1.79260E-03-8.31240E-14
 -1      4227 1.24595E-02 1.76600E-03-8.14718E-14
 -1      4228 1.23650E-02 1.71558E-03-8.06923E-14
 -1      4229 1.28882E-02 1.84578E-03-8.64407E-14
 -1      4230 1.27453E-02 1.81919E-03-8.47798E-14
 -1      4231 1.26508E-02 1.76876E-03-8.39939E-14
 -1      4232 7.77786E-03 8.73755E-04-3.23328E-14
 -1      4233 7.64092E-03 8.46129E-04-3.10694E-14
 -1      4234 7.82545E-03 8.55388E-04-3.30160E-14
 -1      4235 6.71378E-03 6.58837E-04-2.27884E-14
 -1      4236 6.58766E-03 6.33719E-04-2.16888E-14
 -1      4237 6.75890E-03 6.44789E-04-2.33921E-14
 -1      4238 5.79541E-03 4.10182E-04-1.61066E-14
 -1      4239 5.75920E-03 3.75706E-04-1.63663E-14
 -1      4240 5.88443E-03 3.93885E-04-1.73474E-14
 -1      4241 5.90683E-03 4.40554E-04-1.67535E-14
 -1      4242 1.32254E-02 1.73628E-03-9.20177E-14
 -1      4243 7.50486E-03 8.18630E-04-2.98259E-14
 -1      4244 7.36976E-03 7.91239E-04-2.86025E-14
 -1      4245 7.55213E-03 8.01307E-04-3.04907E-14
 -1      4246 7.23579E-03 7.64093E-04-2.73978E-14
 -1      4247 7.10302E-03 7.37156E-04-2.62142E-14
 -1      4248 7.28258E-03 7.47864E-04-2.80443E-14
 -1      4249 5.99341E-03 5.05739E-04-1.66298E-14
 -1      4250 6.00675E-03 4.91410E-04-1.69911E-14
 -1      4251 6.07218E-03 5.37139E-04-1.71631E-14
 -1      4252 6.46373E-03 6.09385E-04-2.06110E-14
 -1      4253 6.34237E-03 5.85677E-04-1.95570E-14
 -1      4254 6.50734E-03 5.96286E-04-2.11939E-14
 -1      4255 1.29285E-02 1.71609E-03-8.82044E-14
 -1      4256 7.01776E-03 6.95503E-04-2.56767E-14
 -1      4257 1.30808E-02 1.87612E-03-8.87419E-14
 -1      4258 1.29752E-02 1.85868E-03-8.74869E-14
 -1      4259 1.28807E-02 1.80825E-03-8.66961E-14
 -1      4260 1.30547E-02 1.83404E-03-8.87891E-14
 -1      4261 1.29786E-02 1.75416E-03-8.85186E-14
 -1      4262 1.30046E-02 1.79597E-03-8.84746E-14
 -1      4263 1.29176E-02 1.78307E-03-8.74273E-14
 -1      4264 1.28172E-02 1.70693E-03-8.67973E-14
 -1      4265 5.99030E-03 4.32409E-04-1.78236E-14
 -1      4266 6.16772E-03 5.73962E-04-1.78756E-14
 -1      4267 6.42904E-03 5.24722E-04-2.11997E-14
 -1      4268 6.55545E-03 5.46561E-04-2.22855E-14
 -1      4269 6.74328E-03 5.99602E-04-2.36972E-14
 -1      4270 6.87271E-03 6.23457E-04-2.48324E-14
 -1      4271 7.00356E-03 6.47937E-04-2.59894E-14
 -1      4272 7.13574E-03 6.72741E-04-2.71666E-14
 -1      4273 7.26910E-03 6.97994E-04-2.83639E-14
 -1      4274 7.40356E-03 7.23476E-04-2.95835E-14
 -1      4275 7.53900E-03 7.49273E-04-3.08195E-14
 -1      4276 7.67532E-03 7.75220E-04-3.20765E-14
 -1      4277 7.81245E-03 8.01381E-04-3.33528E-14
 -1      4278 7.95030E-03 8.27634E-04-3.46470E-14
 -1      4279 8.08880E-03 8.54028E-04-3.59584E-14
 -1      4280 8.22787E-03 8.80473E-04-3.72864E-14
 -1      4281 8.36746E-03 9.07006E-04-3.86317E-14
 -1      4282 8.50751E-03 9.33564E-04-3.99909E-14
 -1      4283 8.64797E-03 9.60175E-04-4.13672E-14
 -1      4284 8.78878E-03 9.86794E-04-4.27593E-14
 -1      4285 8.92991E-03 1.01344E-03-4.41641E-14
 -1      4286 9.07131E-03 1.04009E-03-4.55849E-14
 -1      4287 9.21295E-03 1.06675E-03-4.70206E-14
 -1      4288 9.35480E-03 1.09341E-03-4.84678E-14
 -1      4289 9.49683E-03 1.12007E-03-4.99261E-14
 -1      4290 9.63901E-03 1.14672E-03-5.13959E-14
 -1      4291 9.78133E-03 1.17337E-03-5.28765E-14
 -1      4292 9.92376E-03 1.20002E-03-5.43662E-14
 -1      4293 1.00663E-02 1.22666E-03-5.58640E-14
 -1      4294 1.02089E-02 1.25329E-03-5.73719E-14
 -1      4295 1.03515E-02 1.27992E-03-5.88894E-14
 -1      4296 1.04943E-02 1.30655E-03-6.04163E-14
 -1      4297 1.06370E-02 1.33317E-03-6.19515E-14
 -1      4298 1.07798E-02 1.35978E-03-6.34972E-14
 -1      4299 1.09227E-02 1.38639E-03-6.50511E-14
 -1      4300 1.10655E-02 1.41300E-03-6.66155E-14
 -1      4301 1.12084E-02 1.43960E-03-6.81898E-14
 -1      4302 1.13513E-02 1.46620E-03-6.97745E-14
 -1      4303 1.14942E-02 1.49280E-03-7.13652E-14
 -1      4304 1.16371E-02 1.51939E-03-7.29660E-14
 -1      4305 1.17800E-02 1.54599E-03-7.45795E-14
 -1      4306 1.19229E-02 1.57258E-03-7.61980E-14
 -1      4307 1.20658E-02 1.59917E-03-7.78245E-14
 -1      4308 1.22088E-02 1.62576E-03-7.94614E-14
 -1      4309 1.23517E-02 1.65235E-03-8.11040E-14
 -1      4310 1.24946E-02 1.67893E-03-8.27536E-14
 -1      4311 1.26375E-02 1.70552E-03-8.44064E-14
 -1      4312 1.28305E-02 1.77018E-03-8.63812E-14
 -1      4313 6.00433E-03 4.73727E-04-1.72573E-14
 -1      4314 6.00073E-03 4.54089E-04-1.75638E-14
 -1      4315 6.09278E-03 4.68269E-04-1.83449E-14
 -1      4316 6.09798E-03 5.06082E-04-1.78069E-14
 -1      4317 6.19784E-03 4.85601E-04-1.92317E-14
 -1      4318 6.32068E-03 5.05894E-04-2.02768E-14
 -1      4319 6.41115E-03 5.42651E-04-2.07738E-14
 -1      4320 6.20010E-03 5.05490E-04-1.89596E-14
 -1      4321 6.19510E-03 5.59369E-04-1.82558E-14
 -1      4322 6.57665E-03 5.91090E-04-2.19950E-14
 -1      4323 6.45251E-03 5.68074E-04-2.09128E-14
 -1      4324 1.26743E-02 1.68035E-03-8.51335E-14
 -1      4325 6.61547E-03 5.76130E-04-2.25821E-14
 -1      4326 6.23668E-03 5.47459E-04-1.88132E-14
 -1      4327 6.34651E-03 5.48622E-04-1.99947E-14
 -1      4328 6.24244E-03 5.29771E-04-1.90927E-14
 -3
    1PSTEP                         2           1           1          
  100CL  101 1.000000000        4328                     0    1           1
 -4  STRESS      6    1
 -5  SXX         1    4    1    1
 -5  SYY         1    4    2    2
 -5  SZZ         1    4    3    3
 -5  SXY         1    4    1    2
 -5  SYZ         1    4    2    3
 -5  SZX         1    4    3    1
 -1         1 6.55522E+01 8.48965E-01 3.45405E+00 1.41890E-02-9.71064E-14-5.95423E-13
 -1         2-6.87393E-01-2.39905E+01-3.35828E+00-1.10136E-01 3.48211E-13 1.38011E-13
 -1         3 1.99998E+01 1.98382E-05-5.90986E-05 1.98844E-05-3.19196E-13-4.51772E-13
 -1         4 1.99998E+01 1.81411E-05-6.06515E-05-1.85554E-05 4.05592E-14 1.36715E-13
 -1         5 3.79843E+01 7.20352E+00 2.86224E+00 6.59018E+00-3.01703E-14 2.49038E-12
 -1         6 3.97626E+01 1.35767E+01 5.49301E+00-9.30824E+00-1.65257E-13 2.38626E-12
 -1         7 2.37976E+01 6.94167E+00-5.96793E-02-4.70021E+00-2.57572E-14 3.93244E-13
 -1         8 2.20002E+01 6.62760E+00 1.00675E-01-2.82104E+00-2.70339E-14-1.98265E-13
 -1         9 2.07787E+01 6.26364E+00 9.81532E-02-1.74544E+00-2.44596E-14-5.06979E-13
 -1        10 1.97227E+01 5.94168E+00 1.00948E-01-8.54793E-01-1.40513E-14-6.52155E-13
 -1        11 1.86198E+01 5.60852E+00 8.99273E-02-8.69717E-02-6.79318E-15-7.31047E-13
 -1        12 1.74400E+01 5.25504E+00 5.97638E-02 5.04936E-01-4.28130E-15-7.68147E-13
 -1        13 1.62211E+01 4.89252E+00 1.06911E-02 8.62808E-01 8.18789E-16-7.93460E-13
 -1        14 1.51792E+01 4.58403E+00-4.52478E-02 9.23628E-01 5.13825E-15-8.16776E-13
 -1        15 1.45714E+01 4.40515E+00-8.84093E-02 7.14534E-01 6.23286E-15-8.16805E-13
 -1        16 1.46120E+01 4.41917E+00-1.00505E-01 3.61222E-01 8.12891E-15-8.05119E-13
 -1        17 1.53730E+01 4.64682E+00-7.62443E-02 5.33668E-02 1.11230E-14-7.59355E-13
 -1        18 1.67228E+01 5.05093E+00-2.75778E-02-3.32963E-02 1.43982E-14-6.89293E-13
 -1        19 1.85140E+01 5.58662E+00 2.91040E-02 2.10667E-01 2.24265E-14-5.61473E-13
 -1        20 2.05453E+01 6.19482E+00 8.07600E-02 8.38377E-01 2.59098E-14-3.45716E-13
 -1        21 2.27761E+01 6.86036E+00 1.37715E-01 1.92694E+00 3.52079E-14 4.37879E-14
 -1        22 2.56514E+01 7.61994E+00 2.83759E-01 3.85666E+00 7.48013E-15 8.07679E-13
 -1        23 2.67841E+01-1.58034E+00-1.04330E+00-6.51430E-01-1.04673E-13 1.82122E-12
 -1        24 2.33217E+01-9.03879E-02-2.94941E-01 9.05497E-02-3.69917E-14 1.35616E-12
 -1        25 2.26071E+01-3.70559E-02-2.92852E-02 5.97783E-02-1.88944E-15 9.16222E-13
 -1        26 2.19576E+01-8.08479E-04 3.62782E-02 8.44091E-03-1.91413E-15 6.16770E-13
 -1        27 2.10856E+01 5.08359E-03 3.67969E-02-2.47728E-02-1.53474E-14 4.21629E-13
 -1        28 1.99602E+01-5.33312E-04 1.64870E-02-4.84383E-02-6.49029E-15 3.37614E-13
 -1        29 1.87408E+01-1.35536E-02-1.56352E-02-5.55572E-02 1.19901E-14 2.70424E-13
 -1        30 1.77298E+01-2.75936E-02-4.87450E-02-4.03589E-02-1.86431E-14 6.64226E-14
 -1        31 1.72519E+01-3.52147E-02-6.74187E-02-5.98014E-03 2.37599E-14-1.75164E-13
 -1        32 1.74895E+01-3.18425E-02-6.13395E-02 3.36067E-02-4.24723E-14-3.72535E-13
 -1        33 1.83767E+01-1.87378E-02-3.40042E-02 6.13177E-02 3.79796E-14-4.24799E-13
 -1        34 1.96310E+01-1.96198E-03 3.69592E-05 6.80528E-02-2.54898E-14-4.68882E-13
 -1        35 2.08997E+01 1.18457E-02 2.58687E-02 5.64650E-02 6.51042E-15-5.80772E-13
 -1        36 2.19082E+01 1.91071E-02 3.70328E-02 3.60576E-02-5.01801E-15-4.65933E-13
 -1        37 2.25298E+01 1.98950E-02 3.54281E-02 1.59414E-02-4.12448E-14-5.18219E-13
 -1        38 2.27701E+01 1.64443E-02 2.68365E-02 1.08730E-03-1.08092E-14-6.11220E-13
 -1        39 2.27117E+01 1.12953E-02 1.66024E-02-7.52386E-03-8.45840E-15-6.28815E-13
 -1        40 2.24598E+01 6.26381E-03 7.85618E-03-1.10994E-02-6.21286E-14-7.08024E-13
 -1        41 2.21089E+01 2.25337E-03 1.68170E-03-1.14354E-02 2.26897E-14-9.12509E-13
 -1        42 2.17291E+01-5.06749E-04-2.03936E-03-1.00758E-02 2.63150E-14-8.69343E-13
 -1        43 2.13654E+01-2.15072E-03-3.89336E-03-8.06936E-03-9.14460E-14-7.88216E-13
 -1        44 2.10425E+01-2.94545E-03-4.51259E-03-6.01920E-03 8.62529E-14-6.59700E-13
 -1        45 2.07705E+01-3.16298E-03-4.40614E-03-4.21608E-03-2.53053E-16-4.72429E-13
 -1        46 2.05505E+01-3.02725E-03-3.92868E-03-2.76252E-03 2.89926E-14-6.81095E-13
 -1        47 2.03785E+01-2.70216E-03-3.30453E-03-1.66083E-03 8.48953E-15-5.00223E-13
 -1        48 2.02481E+01-2.29789E-03-2.66395E-03-8.67647E-04 4.22894E-14-2.45266E-13
 -1        49 2.01522E+01-1.88304E-03-2.07527E-03-3.24472E-04-4.95864E-15-3.39446E-13
 -1        50 2.00837E+01-1.49654E-03-1.56852E-03 2.67665E-05 2.03648E-14-4.17413E-13
 -1        51 2.00366E+01-1.15753E-03-1.15152E-03 2.36916E-04-5.84817E-14-3.29516E-13
 -1        52 2.00057E+01-8.72613E-04-8.20050E-04 3.47436E-04-8.63407E-14-4.18044E-13
 -1        53 1.99865E+01-6.41007E-04-5.64172E-04 3.90541E-04-7.83739E-16-4.79529E-13
 -1        54 1.99757E+01-4.57940E-04-3.71885E-04 3.90332E-04-7.31197E-14-3.01641E-13
 -1        55 1.99708E+01-3.16848E-04-2.31191E-04 3.64243E-04-3.02933E-14-4.38935E-13
 -1        56 1.99696E+01-2.10713E-04-1.31146E-04 3.24467E-04-3.92586E-15-3.53722E-13
 -1        57 1.99709E+01-1.32828E-04-6.23139E-05 2.79213E-04 1.88247E-14-2.66206E-13
 -1        58 1.99736E+01-7.71893E-05-1.68719E-05 2.33749E-04 5.03565E-14 1.06194E-13
 -1        59 1.99769E+01-3.86610E-05 1.14681E-05 1.91237E-04-2.64722E-14-1.55514E-13
 -1        60 1.99804E+01-1.29895E-05 2.76346E-05 1.53377E-04-5.83655E-14-4.74829E-13
 -1        61 1.99838E+01 3.25561E-06 3.54050E-05 1.20886E-04-3.40326E-14-1.76980E-13
 -1        62 1.99869E+01 1.27821E-05 3.76180E-05 9.38503E-05-2.65888E-14-4.59764E-13
 -1        63 1.99897E+01 1.76915E-05 3.63734E-05 7.19791E-05-6.41198E-14-6.99484E-13
 -1        64 1.99921E+01 1.95966E-05 3.32165E-05 5.47666E-05 6.87458E-14-7.32076E-13
 -1        65 1.99941E+01 1.97307E-05 2.93150E-05 4.15903E-05 5.18210E-14-2.87178E-13
 -1        66 1.99959E+01 1.90429E-05 2.56444E-05 3.17368E-05 6.29383E-14-2.35011E-13
 -1        67 1.99972E+01 1.82660E-05 2.31951E-05 2.43448E-05 6.28263E-14 3.63553E-13
 -1        68 1.99983E+01 1.79163E-05 2.30915E-05 1.81842E-05 5.00378E-14 5.45309E-13
 -1        69 1.99992E+01 1.79982E-05 2.59134E-05 1.11032E-05-8.72328E-14 3.52896E-13
 -1        70 1.99997E+01 1.55205E-05 2.68978E-05-2.36157E-06 1.20871E-13 7.26863E-13
 -1        71 1.99999E+01-2.87583E-06 1.54597E-06-2.08315E-05-4.22780E-14 6.70914E-13
 -1        72 2.70459E+01-4.65878E-01-1.09275E+00-5.11984E-01 3.30604E-14 2.27830E-12
 -1        73 2.67715E+01-5.15256E-02-2.58126E-01-1.14953E-01 1.82120E-14 1.75165E-12
 -1        74 2.69947E+01 6.21018E-03-3.66039E-03-6.86638E-02 1.63208E-14 1.40690E-12
 -1        75 2.70790E+01 2.61486E-02 8.33098E-02-5.24019E-02 1.58784E-14 1.17940E-12
 -1        76 2.64808E+01 2.98126E-02 1.23381E-01-9.20999E-03 7.53824E-15 1.07685E-12
 -1        77 2.47892E+01 1.06166E-02 1.09402E-01 7.30625E-02-1.86073E-14 1.00456E-12
 -1        78 2.20718E+01-2.60843E-02 1.18523E-02 1.66981E-01 1.11396E-15 9.98882E-13
 -1        79 1.92001E+01-5.66758E-02-1.39638E-01 1.98461E-01 1.48705E-14 7.27210E-13
 -1        80 1.75913E+01-5.49840E-02-2.38675E-01 1.12153E-01-4.90667E-15 5.81320E-13
 -1        81 1.82184E+01-2.59367E-02-1.92700E-01-4.97315E-02 8.34792E-15 3.84047E-13
 -1        82 2.07018E+01 7.44780E-03-5.14786E-02-1.65578E-01 2.97330E-14 2.84654E-13
 -1        83 2.36696E+01 2.86923E-02 7.69779E-02-1.77869E-01 1.57424E-14 5.08343E-14
 -1        84 2.58769E+01 3.28509E-02 1.25736E-01-1.19349E-01-8.02960E-16 1.20431E-13
 -1        85 2.68475E+01 2.57100E-02 1.06778E-01-4.94136E-02 2.25846E-14-1.28030E-13
 -1        86 2.67575E+01 1.48034E-02 6.25615E-02-8.70487E-04-1.05403E-14-2.27375E-13
 -1        87 2.60254E+01 5.36271E-03 2.36830E-02 2.27001E-02-7.95615E-15-2.17071E-13
 -1        88 2.50278E+01-8.69160E-04-2.86215E-04 2.93922E-02-5.42982E-16-1.94126E-13
 -1        89 2.40085E+01-4.14019E-03-1.14471E-02 2.76466E-02 4.00558E-14-2.77186E-13
 -1        90 2.30918E+01-5.36919E-03-1.47490E-02 2.28113E-02-3.31826E-14-5.20231E-13
 -1        91 2.23237E+01-5.42005E-03-1.41734E-02 1.75601E-02 6.46640E-15-3.28853E-13
 -1        92 2.17080E+01-4.89740E-03-1.21081E-02 1.29635E-02-5.17588E-14-3.49322E-13
 -1        93 2.12290E+01-4.16160E-03-9.74314E-03 9.30021E-03-4.38227E-14-1.67458E-13
 -1        94 2.08646E+01-3.40326E-03-7.57658E-03 6.52071E-03 7.69292E-14-4.55496E-13
 -1        95 2.05925E+01-2.71080E-03-5.76480E-03 4.47151E-03-4.62424E-14-6.39982E-13
 -1        96 2.03929E+01-2.11681E-03-4.31680E-03 2.98927E-03-9.50185E-15-2.76504E-13
 -1        97 2.02490E+01-1.62593E-03-3.18827E-03 1.93330E-03 1.86541E-14-1.98981E-13
 -1        98 2.01474E+01-1.23014E-03-2.32244E-03 1.19210E-03-7.18981E-15-3.46697E-13
 -1        99 2.00774E+01-9.16762E-04-1.66578E-03 6.80703E-04-1.38985E-14-4.58533E-13
 -1       100 2.00306E+01-6.72292E-04-1.17284E-03 3.35591E-04 4.99109E-15-1.11593E-13
 -1       101 2.00007E+01-4.84140E-04-8.06718E-04 1.09675E-04-8.57126E-14-1.38565E-13
 -1       102 1.99827E+01-3.41256E-04-5.38094E-04-3.17693E-05 5.88188E-14-3.73658E-13
 -1       103 1.99730E+01-2.34270E-04-3.43881E-04-1.14260E-04-1.37604E-15-2.59311E-13
 -1       104 1.99689E+01-1.55405E-04-2.05999E-04-1.56458E-04 1.05073E-13-1.08316E-13
 -1       105 1.99684E+01-9.83034E-05-1.10342E-04-1.71911E-04-2.09197E-15-3.16746E-13
 -1       106 1.99701E+01-5.78306E-05-4.59627E-05-1.70350E-04-9.45327E-14-1.65339E-13
 -1       107 1.99731E+01-2.98886E-05-4.41168E-06-1.58664E-04 7.14354E-14-1.04935E-13
 -1       108 1.99766E+01-1.12418E-05 2.07761E-05-1.41632E-04-1.52267E-14-3.78447E-13
 -1       109 1.99802E+01 6.36493E-07 3.44997E-05-1.22484E-04 3.62321E-14-2.64004E-13
 -1       110 1.99837E+01 7.69806E-06 4.04288E-05-1.03322E-04-7.97824E-16-6.29431E-13
 -1       111 1.99869E+01 1.14357E-05 4.12796E-05-8.54477E-05 8.10700E-14-1.18933E-13
 -1       112 1.99897E+01 1.29828E-05 3.90400E-05-6.96036E-05-7.59534E-14 3.35318E-13
 -1       113 1.99921E+01 1.31998E-05 3.51637E-05-5.61557E-05 5.15048E-14 5.79667E-13
 -1       114 1.99942E+01 1.27482E-05 3.07511E-05-4.52247E-05-8.55668E-14 6.93633E-13
 -1       115 1.99959E+01 1.21441E-05 2.67411E-05-3.67531E-05 5.15936E-14 6.56204E-13
 -1       116 1.99973E+01 1.17595E-05 2.41128E-05-3.04644E-05 8.09444E-14 4.40693E-14
 -1       117 1.99984E+01 1.18400E-05 2.40276E-05-2.57235E-05 3.55537E-14-5.92955E-13
 -1       118 1.99992E+01 1.22072E-05 2.70611E-05-2.10814E-05-1.20971E-13-3.93626E-13
 -1       119 1.99997E+01 1.03856E-05 2.79418E-05-1.10634E-05 6.04180E-14-6.73789E-13
 -1       120 1.99999E+01-1.07803E-05-1.34540E-06 1.41121E-05 1.59407E-13-7.00642E-13
 -1       121 1.99998E+01 4.31649E-05 1.04274E-06 2.25344E-05-4.99304E-13 2.10056E-13
 -1       122 1.99998E+01-1.27634E-04 2.69486E-05-4.08361E-06-3.82999E-13-9.71937E-14
 -1       123 1.99998E+01-6.26124E-04 1.90307E-05-1.95289E-05-3.94543E-13 7.88940E-14
 -1       124 1.99998E+01-1.31094E-03 5.77988E-06-2.54327E-05-6.29286E-13 8.25620E-14
 -1       125 1.99998E+01-2.04477E-03-5.95160E-06-2.48546E-05 1.21102E-13-2.96434E-13
 -1       126 1.99998E+01-2.69771E-03-1.47704E-05-2.05284E-05-9.91291E-13-3.34200E-14
 -1       127 1.99998E+01-3.19552E-03-2.06009E-05-1.33108E-05-7.67972E-13 3.74582E-13
 -1       128 1.99998E+01-3.46010E-03-2.35356E-05-4.54744E-06-4.13590E-13 1.87543E-14
 -1       129 1.99998E+01-3.45763E-03-2.35036E-05 4.70610E-06 3.76751E-13 2.36781E-13
 -1       130 1.99998E+01-3.18846E-03-2.05137E-05 1.34244E-05 6.67119E-13-1.06756E-13
 -1       131 1.99998E+01-2.68727E-03-1.45124E-05 2.07895E-05-9.56758E-14-9.91480E-14
 -1       132 1.99998E+01-2.03274E-03-5.81771E-06 2.49077E-05-7.12448E-13 3.64948E-13
 -1       133 1.99998E+01-1.29898E-03 5.85302E-06 2.52809E-05-9.33203E-14 2.05801E-14
 -1       134 1.99998E+01-6.14164E-04 2.03139E-05 2.12737E-05-6.37042E-13-1.43119E-13
 -1       135 1.99998E+01-1.29789E-04 2.36919E-05 5.75026E-06-9.28003E-13 7.34800E-14
 -1       136 1.99998E+01 3.67762E-05 8.45390E-08-3.91137E-05-6.56710E-13-8.48627E-14
 -1       137-1.36014E+00-2.01658E+01-3.16957E+00-3.74862E+00 1.95474E-12 4.50938E-13
 -1       138-1.83946E+00-9.89956E+00-2.50279E+00-3.54911E+00 2.80631E-12 1.18192E-12
 -1       139 2.41331E+00 2.57664E+00-1.32173E+00 2.84249E+00 2.88530E-12 2.08866E-12
 -1       140 1.46666E+01 9.76522E+00 1.62805E-01 1.18699E+01 2.20524E-12 2.41879E-12
 -1       141 3.47735E+01 1.01671E+01 1.77029E+00 1.82610E+01 1.26960E-12 2.23471E-12
 -1       142 5.44869E+01 5.58555E+00 3.06795E+00 1.61510E+01 3.95059E-13 1.06487E-12
 -1       143 6.70803E+01 1.42705E+00 3.79054E+00 5.81190E+00-9.32934E-15-3.95919E-13
 -1       144 6.60179E+01 1.65604E+00 3.70306E+00-7.23494E+00 2.50484E-13-1.82615E-12
 -1       145 5.23723E+01 5.94445E+00 2.87596E+00-1.64475E+01 9.89694E-13-2.87936E-12
 -1       146 3.18460E+01 1.02080E+01 1.49155E+00-1.75908E+01 2.01933E-12-3.41205E-12
 -1       147 1.29506E+01 9.46477E+00-9.55133E-02-1.10892E+01 2.78771E-12-3.05000E-12
 -1       148 1.66707E+00 1.44374E+00-1.54499E+00-2.05447E+00 3.01231E-12-2.13074E-12
 -1       149-1.85793E+00-1.05341E+01-2.58092E+00 3.66960E+00 2.50922E-12-1.03344E-12
 -1       150-1.11470E+00-2.00391E+01-3.10244E+00 3.01884E+00 1.19854E-12-2.38443E-13
 -1       151-7.06782E-01-2.14661E+01-3.10582E+00-8.80875E-01-4.33889E-13-6.79595E-14
 -1       152-1.33903E+00-1.46379E+01-2.66168E+00-3.41562E+00-1.95943E-12-5.59108E-13
 -1       153-6.00794E-01-3.48495E+00-1.84431E+00-1.00054E+00-2.77972E-12-1.46649E-12
 -1       154 6.72188E+00 7.21172E+00-6.06289E-01 7.15090E+00-2.87531E-12-2.42573E-12
 -1       155 2.15625E+01 1.10793E+01 7.80381E-01 1.52092E+01-2.29877E-12-3.04268E-12
 -1       156 4.16759E+01 8.45853E+00 2.11922E+00 1.81092E+01-1.38400E-12-2.96674E-12
 -1       157 5.88123E+01 3.24381E+00 3.10178E+00 1.19866E+01-4.53106E-13-2.10432E-12
 -1       158 6.01814E+01 2.92508E+00 3.20282E+00-1.14992E+01-2.83055E-13 9.22956E-13
 -1       159 4.59318E+01 7.63588E+00 2.47272E+00-1.79433E+01-8.81767E-13 2.05130E-12
 -1       160 2.81547E+01 1.11841E+01 1.38166E+00-1.73582E+01-1.77808E-12 2.66903E-12
 -1       161 1.17477E+01 9.71692E+00 5.60737E-02-1.06466E+01-2.62734E-12 2.68402E-12
 -1       162 2.03122E+00 2.38134E+00-1.21321E+00-2.51298E+00-3.10429E-12 2.11797E-12
 -1       163-1.42518E+00-8.93518E+00-2.30204E+00 2.93601E+00-2.30999E-12 1.11627E-12
 -1       164-1.25672E+00-1.95812E+01-3.06254E+00 3.47125E+00-9.90097E-13 1.60032E-13
 -1       165 2.39273E+01 3.85246E+00-6.31606E-02-3.40271E+00-3.32408E-13 9.78870E-14
 -1       166 2.22484E+01 4.22347E+00-5.28962E-02-2.36595E+00-2.89775E-13-2.69337E-13
 -1       167 2.10348E+01 4.27261E+00-3.72887E-02-1.46461E+00-2.14043E-13-4.58083E-13
 -1       168 1.98714E+01 4.21021E+00-2.77334E-02-6.40502E-01-1.20814E-13-5.68845E-13
 -1       169 1.86021E+01 4.18099E+00-2.13194E-02 7.46386E-02-5.07754E-14-6.20703E-13
 -1       170 1.71677E+01 4.25262E+00-1.75327E-02 6.21581E-01 1.09400E-14-6.57762E-13
 -1       171 1.57502E+01 4.43032E+00-1.50980E-02 8.98535E-01 6.80844E-14-6.86862E-13
 -1       172 1.46553E+01 4.64965E+00-1.37734E-02 8.68364E-01 8.89414E-14-7.17395E-13
 -1       173 1.42239E+01 4.81020E+00-1.36264E-02 6.00930E-01 1.12915E-13-7.06299E-13
 -1       174 1.46684E+01 4.84282E+00-1.49605E-02 2.74568E-01 1.36627E-13-6.81416E-13
 -1       175 1.59303E+01 4.76166E+00-1.82281E-02 1.01902E-01 1.73905E-13-6.24481E-13
 -1       176 1.78272E+01 4.63454E+00-2.41886E-02 2.23398E-01 2.22060E-13-5.20009E-13
 -1       177 2.00763E+01 4.50691E+00-3.46799E-02 6.91362E-01 2.81074E-13-3.68948E-13
 -1       178 2.25552E+01 4.30093E+00-4.73219E-02 1.48346E+00 3.25250E-13-9.63500E-14
 -1       179 2.54765E+01 3.59234E+00-5.34966E-02 2.50535E+00 3.11555E-13 3.71717E-13
 -1       180 2.79243E+01 1.01544E+00-3.57494E-01 2.27681E+00 2.45458E-13 9.78231E-13
 -1       181 2.53611E+01 8.09933E-01-3.34421E-03-1.85153E+00-2.94074E-13 5.63154E-13
 -1       182 2.37906E+01 7.66922E-02-1.28029E-02-8.17040E-01-2.36375E-13 4.30369E-13
 -1       183 2.28323E+01-2.61095E-02 1.13865E-02-6.16912E-01-1.77306E-13 3.27948E-13
 -1       184 2.20963E+01-7.62138E-02 8.45665E-03-7.05353E-01-1.39088E-13 2.14756E-13
 -1       185 2.13477E+01-5.92067E-02 4.99164E-03-8.50769E-01-5.24214E-14 1.77200E-13
 -1       186 2.05681E+01 1.19330E-02 3.95995E-03-8.97478E-01-8.71524E-14 1.21428E-13
 -1       187 1.98577E+01 1.13012E-01 3.86301E-03-7.37318E-01-1.35754E-13 1.23144E-14
 -1       188 1.93834E+01 1.97221E-01 3.73179E-03-3.50722E-01-1.20938E-13-5.64080E-14
 -1       189 1.92879E+01 2.16926E-01 3.45657E-03 1.63215E-01-1.46959E-13-1.43022E-13
 -1       190 1.96003E+01 1.58670E-01 3.05185E-03 6.27976E-01-7.90986E-14-2.05437E-13
 -1       191 2.02103E+01 5.45443E-02 2.25039E-03 8.90304E-01-7.08448E-14-3.99375E-13
 -1       192 2.09249E+01-4.47583E-02 7.23394E-04 9.00598E-01-4.60431E-14-4.04837E-13
 -1       193 2.15597E+01-1.04572E-01-9.94471E-04 7.14844E-01 4.58520E-14-4.39294E-13
 -1       194 2.20000E+01-1.19288E-01-2.34733E-03 4.37539E-01-5.58303E-14-4.19663E-13
 -1       195 2.22121E+01-1.02600E-01-2.95879E-03 1.62553E-01-7.12362E-14-4.23624E-13
 -1       196 2.22209E+01-7.24095E-02-2.82693E-03-5.50289E-02-1.09314E-14-4.29736E-13
 -1       197 2.20797E+01-4.18135E-02-2.20460E-03-1.97833E-01-9.37886E-14-5.06173E-13
 -1       198 2.18465E+01-1.72983E-02-1.40112E-03-2.72382E-01-1.78196E-14-4.54864E-13
 -1       199 2.15711E+01-4.99730E-04-6.45366E-04-2.95295E-01-2.46170E-14-4.24793E-13
 -1       200 2.12900E+01 9.45988E-03-5.53443E-05-2.84371E-01 3.04022E-14-5.97688E-13
 -1       201 2.10267E+01 1.43093E-02 3.39673E-04-2.54410E-01 5.53914E-14-4.97286E-13
 -1       202 2.07941E+01 1.57598E-02 5.61344E-04-2.16098E-01 1.20879E-13-4.78768E-13
 -1       203 2.05975E+01 1.51771E-02 6.51436E-04-1.76360E-01 6.47038E-14-2.33556E-13
 -1       204 2.04369E+01 1.35299E-02 6.53045E-04-1.39223E-01 4.39453E-14-1.48031E-13
 -1       205 2.03097E+01 1.14503E-02 6.02012E-04-1.06691E-01 4.10608E-14-1.90287E-13
 -1       206 2.02116E+01 9.31930E-03 5.24667E-04-7.94676E-02-5.35596E-14-2.74694E-13
 -1       207 2.01379E+01 7.34630E-03 4.38627E-04-5.74833E-02-4.70487E-14-1.74718E-13
 -1       208 2.00841E+01 5.62940E-03 3.54672E-04-4.02540E-02-3.77343E-15-3.10656E-13
 -1       209 2.00459E+01 4.19901E-03 2.78696E-04-2.71129E-02-9.72758E-15-3.08699E-13
 -1       210 2.00198E+01 3.04689E-03 2.13335E-04-1.73508E-02-1.28253E-14-1.63668E-13
 -1       211 2.00026E+01 2.14495E-03 1.59192E-04-1.02946E-02 3.90374E-14-1.41011E-13
 -1       212 1.99920E+01 1.45688E-03 1.15691E-04-5.34758E-03-1.02781E-13-3.42310E-14
 -1       213 1.99861E+01 9.45008E-04 8.16588E-05-2.00347E-03 3.26372E-14-8.51180E-15
 -1       214 1.99834E+01 5.74046E-04 5.56821E-05 1.52248E-04 1.23455E-14 7.01125E-14
 -1       215 1.99829E+01 3.12914E-04 3.63301E-05 1.44967E-03 1.11964E-15-2.62359E-13
 -1       216 1.99836E+01 1.35373E-04 2.22746E-05 2.14521E-03-1.81954E-13-3.94732E-13
 -1       217 1.99852E+01 1.99642E-05 1.23489E-05 2.43337E-03-1.54492E-13-3.29359E-13
 -1       218 1.99870E+01-5.04081E-05 5.56673E-06 2.45831E-03 1.48932E-13-2.39109E-13
 -1       219 1.99890E+01-8.90715E-05 1.11780E-06 2.32409E-03-1.85155E-14-3.43216E-13
 -1       220 1.99910E+01-1.06227E-04-1.64905E-06 2.10362E-03-1.77760E-13-2.12751E-13
 -1       221 1.99928E+01-1.09583E-04-3.24855E-06 1.84591E-03 3.18090E-14-1.72687E-13
 -1       222 1.99944E+01-1.04946E-04-4.08177E-06 1.58182E-03 3.11509E-13-2.36992E-13
 -1       223 1.99957E+01-9.67686E-05-4.44939E-06 1.32845E-03 9.70804E-14 1.09260E-13
 -1       224 1.99969E+01-8.86291E-05-4.54154E-06 1.09220E-03 2.98597E-13 3.20015E-13
 -1       225 1.99979E+01-8.36621E-05-4.40077E-06 8.70815E-04 3.09680E-13 3.03905E-13
 -1       226 1.99986E+01-8.47701E-05-3.88552E-06 6.54842E-04 8.55011E-14 2.77626E-13
 -1       227 1.99992E+01-9.38203E-05-3.32588E-06 4.30819E-04 1.34250E-13 3.05223E-13
 -1       228 1.99996E+01-1.05314E-04-2.36967E-06 1.93166E-04-6.57307E-14 2.19732E-13
 -1       229 2.69688E+01 2.01044E-01-4.64538E-02 4.90246E-01 2.31915E-13 8.75886E-13
 -1       230 2.64052E+01 2.42908E-02 1.12319E-02 3.02292E-04 1.90525E-13 7.18670E-13
 -1       231 2.61802E+01-1.13300E-01 1.68745E-02 9.90850E-02 1.14152E-13 5.88880E-13
 -1       232 2.57893E+01-2.21494E-01 1.66634E-02 5.64490E-01 7.11245E-14 5.40702E-13
 -1       233 2.49338E+01-2.44740E-01 1.43130E-02 1.22332E+00 2.91503E-14 5.01427E-13
 -1       234 2.35744E+01-9.63858E-02 1.36977E-03 1.71136E+00 4.19675E-14 4.60574E-13
 -1       235 2.20823E+01 2.06710E-01-2.33503E-02 1.54108E+00 1.81249E-13 3.49235E-13
 -1       236 2.11603E+01 4.71071E-01-4.04631E-02 5.41484E-01 1.10752E-13 1.65847E-13
 -1       237 2.13703E+01 4.42614E-01-3.01217E-02-7.97581E-01 1.02588E-13 5.08673E-14
 -1       238 2.25616E+01 1.54203E-01-7.52175E-03-1.64093E+00 6.15705E-14-7.02789E-14
 -1       239 2.40255E+01-1.34838E-01 1.00704E-02-1.62854E+00 1.12292E-13-6.58744E-14
 -1       240 2.51029E+01-2.61350E-01 1.25921E-02-1.02410E+00 3.41506E-14-1.50550E-13
 -1       241 2.55247E+01-2.35921E-01 6.03906E-03-2.96110E-01 1.35713E-13-2.58266E-13
 -1       242 2.53625E+01-1.49193E-01-6.90050E-04 2.56367E-01-6.82635E-14-2.08846E-13
 -1       243 2.48219E+01-6.63690E-02-3.64704E-03 5.60538E-01-1.59625E-14-9.40047E-15
 -1       244 2.41050E+01-1.08188E-02-3.54922E-03 6.65512E-01 2.27201E-14-1.10644E-13
 -1       245 2.33565E+01 1.87020E-02-2.23652E-03 6.48567E-01 8.48096E-14-1.71501E-13
 -1       246 2.26608E+01 3.05776E-02-8.95412E-04 5.72216E-01 4.40396E-14-2.14658E-13
 -1       247 2.20575E+01 3.25476E-02 5.08250E-05 4.76001E-01-4.35562E-14-2.47784E-13
 -1       248 2.15575E+01 2.98102E-02 5.77741E-04 3.81080E-01-1.16565E-13-2.37145E-13
 -1       249 2.11559E+01 2.53323E-02 7.97270E-04 2.96926E-01-2.63342E-14-2.43843E-13
 -1       250 2.08412E+01 2.06108E-02 8.30878E-04 2.26540E-01 2.14447E-13-4.34451E-13
 -1       251 2.05994E+01 1.63052E-02 7.68479E-04 1.69747E-01 3.81319E-15-5.58330E-13
 -1       252 2.04168E+01 1.26422E-02 6.65955E-04 1.25028E-01-1.40316E-13-5.52782E-13
 -1       253 2.02812E+01 9.64514E-03 5.54213E-04 9.04584E-02-5.08831E-14-3.42893E-13
 -1       254 2.01823E+01 7.25234E-03 4.48589E-04 6.41481E-02 5.27149E-14-2.31548E-13
 -1       255 2.01116E+01 5.37455E-03 3.55584E-04 4.44133E-02-7.02609E-15-1.58534E-13
 -1       256 2.00622E+01 3.92096E-03 2.77040E-04 2.98302E-02-2.84197E-13-1.12374E-13
 -1       257 2.00286E+01 2.80959E-03 2.12515E-04 1.92292E-02 5.18991E-15-1.22670E-13
 -1       258 2.00067E+01 1.97033E-03 1.60570E-04 1.16677E-02 1.09682E-13-1.93943E-13
 -1       259 1.99931E+01 1.34497E-03 1.19434E-04 6.39647E-03-8.36232E-14-1.08490E-13
 -1       260 1.99854E+01 8.85981E-04 8.73285E-05 2.82687E-03 1.01626E-13-2.04535E-13
 -1       261 1.99817E+01 5.55006E-04 6.26206E-05 5.01515E-04 5.70701E-15-1.62249E-14
 -1       262 1.99806E+01 3.21397E-04 4.38751E-05-9.30955E-04-1.75057E-13-2.97877E-14
 -1       263 1.99812E+01 1.60875E-04 2.98675E-05-1.73711E-03 1.49974E-13-9.81327E-15
 -1       264 1.99828E+01 5.43980E-05 1.95737E-05-2.11643E-03-4.08328E-14 1.04075E-13
 -1       265 1.99849E+01-1.28198E-05 1.21504E-05-2.21577E-03 6.36251E-14 2.33371E-13
 -1       266 1.99871E+01-5.21337E-05 6.91177E-06-2.14126E-03 1.71584E-14 1.28211E-13
 -1       267 1.99893E+01-7.21695E-05 3.30651E-06-1.96774E-03-2.13801E-13 3.58043E-13
 -1       268 1.99914E+01-7.94138E-05 8.95504E-07-1.74638E-03-1.50688E-13 5.20250E-13
 -1       269 1.99932E+01-7.87147E-05-6.67557E-07-1.51046E-03-4.86792E-14 4.50589E-13
 -1       270 1.99948E+01-7.37227E-05-1.64604E-06-1.27992E-03-1.92102E-13 4.94338E-13
 -1       271 1.99962E+01-6.73046E-05-2.21437E-06-1.06444E-03 3.56952E-13 3.44743E-13
 -1       272 1.99973E+01-6.19008E-05-2.42617E-06-8.65526E-04 3.51765E-13 8.18491E-14
 -1       273 1.99982E+01-5.96189E-05-2.09505E-06-6.77873E-04 1.98670E-13 1.54800E-13
 -1       274 1.99989E+01-6.24603E-05-9.27270E-07-4.90995E-04-4.98410E-14 1.09308E-13
 -1       275 1.99994E+01-7.31180E-05-8.83697E-07-2.91221E-04 2.28885E-13-5.21469E-14
 -1       276 1.99997E+01-6.82662E-05-3.73840E-06-8.50000E-05-8.55840E-15-7.35286E-14
 -1       277 1.99997E+01-2.36971E-04-2.27721E-06-2.03511E-04-8.23155E-14 1.92679E-13
 -1       278 1.99997E+01-5.84826E-04-7.77587E-07-4.07095E-04 1.35080E-13-1.13918E-14
 -1       279 1.99998E+01-1.04829E-03-3.15176E-07-5.37151E-04-2.50697E-13-6.65156E-14
 -1       280 1.99998E+01-1.56494E-03 2.95468E-07-5.69886E-04-3.53521E-13 2.99142E-13
 -1       281 1.99998E+01-2.05427E-03 1.34748E-06-5.14339E-04-4.02710E-13-6.38119E-13
 -1       282 1.99999E+01-2.46559E-03 2.28979E-06-3.85202E-04-2.88376E-13-6.98494E-14
 -1       283 1.99999E+01-2.73462E-03 2.95093E-06-2.04704E-04-2.18284E-13 4.33154E-13
 -1       284 1.99999E+01-2.82700E-03 3.17923E-06 1.94645E-06 3.73851E-14 3.76450E-13
 -1       285 1.99999E+01-2.73105E-03 2.94867E-06 2.08288E-04 8.09493E-14 1.55993E-13
 -1       286 1.99999E+01-2.45894E-03 2.28877E-06 3.87987E-04 1.66817E-13-2.06597E-13
 -1       287 1.99998E+01-2.05383E-03 1.29248E-06 5.14397E-04 1.20113E-13-3.53317E-13
 -1       288 1.99998E+01-1.55548E-03 3.03869E-07 5.69882E-04-8.25252E-14 3.95125E-13
 -1       289 1.99998E+01-1.03920E-03-3.87299E-07 5.35160E-04-1.17484E-13-1.01102E-13
 -1       290 1.99997E+01-5.82496E-04-2.16184E-06 4.02378E-04-1.55643E-13-2.62130E-13
 -1       291 1.99996E+01-3.24237E-04-2.49037E-06 3.35372E-04-2.16254E-13-1.35911E-14
 -1       292-8.35010E-01-9.98473E+00-9.13925E-01 9.14956E-01 3.82652E-13 9.27924E-13
 -1       293 2.15547E+00-8.67776E+00-8.66563E-01 2.95668E+00 8.03607E-13 6.88442E-13
 -1       294 8.88812E+00-5.40712E+00-5.61204E-01 5.38379E+00 8.49321E-13 8.22585E-13
 -1       295 1.79843E+01-1.39946E+00-1.80012E-01 7.06310E+00 1.08510E-12 7.61030E-13
 -1       296 2.98523E+01 2.35574E-01 1.59256E-01 5.66158E+00 7.08128E-13 2.63317E-13
 -1       297 3.90106E+01 4.69879E+00 7.01313E-01 6.18915E+00 8.08771E-13 1.49936E-13
 -1       298 4.46153E+01 6.48692E+00 8.85446E-01 2.84804E+00 6.77125E-13-2.39142E-13
 -1       299 4.81685E+01 6.69264E+00 1.13806E+00-9.89012E-02 6.66439E-13-6.40172E-13
 -1       300 4.46513E+01 6.10760E+00 9.17588E-01-3.13457E+00 8.29239E-13-1.04688E-12
 -1       301 3.79040E+01 4.08191E+00 6.06250E-01-5.68266E+00 1.06020E-12-1.30007E-12
 -1       302 2.78403E+01 1.71511E+00 2.02345E-01-7.38969E+00 1.22299E-12-1.54027E-12
 -1       303 1.68780E+01-1.49473E+00-2.72492E-01-6.73271E+00 1.30426E-12-1.40848E-12
 -1       304 8.27446E+00-5.04639E+00-5.45629E-01-5.20641E+00 1.02748E-12-1.10460E-12
 -1       305 1.32231E+00-7.97550E+00-8.74684E-01-2.33421E+00 7.69801E-13-9.37861E-13
 -1       306-1.03542E+00-8.71762E+00-8.66729E-01-1.69997E-01 2.10811E-13-8.28448E-13
 -1       307 1.64414E-02-8.06399E+00-8.10066E-01 2.15897E+00-3.36842E-13-8.49390E-13
 -1       308 4.11003E+00-5.86089E+00-6.82189E-01 4.18317E+00-8.83960E-13-9.38067E-13
 -1       309 1.29229E+01-2.95441E+00-2.86079E-01 6.71291E+00-9.26426E-13-1.03863E-12
 -1       310 2.16475E+01 1.22084E+00 1.56627E-02 7.80434E+00-1.24120E-12-1.38692E-12
 -1       311 3.23341E+01 2.94816E+00 3.25235E-01 6.15861E+00-9.92172E-13-1.13112E-12
 -1       312 4.10883E+01 5.64222E+00 7.79351E-01 5.40257E+00-9.23990E-13-1.13687E-12
 -1       313 4.45114E+01 6.89285E+00 8.31083E-01 1.49827E+00-8.56065E-13-6.60416E-13
 -1       314 4.61298E+01 6.55900E+00 9.83495E-01-2.00438E+00-7.79668E-13-2.05072E-13
 -1       315 4.21839E+01 5.95565E+00 8.67243E-01-5.21795E+00-7.66012E-13 2.05946E-13
 -1       316 3.49895E+01 4.42448E+00 5.70536E-01-7.29650E+00-9.07059E-13 5.94025E-13
 -1       317 2.61949E+01 1.29312E+00 1.76386E-01-7.36021E+00-1.01943E-12 6.72989E-13
 -1       318 1.62845E+01-1.27699E+00-1.73831E-01-7.18685E+00-1.18988E-12 9.83408E-13
 -1       319 8.27251E+00-4.95228E+00-5.36907E-01-5.46483E+00-8.90066E-13 1.11720E-12
 -1       320 2.51640E+00-8.04272E+00-7.56051E-01-3.69149E+00-5.18363E-13 9.72153E-13
 -1       321-7.64088E-01-1.02877E+01-9.48851E-01-1.32689E+00-1.15269E-13 7.45848E-13
 -1       322 2.22987E+01 2.51123E+00-2.50570E-02-1.74865E+00-2.85207E-13-2.31627E-13
 -1       323 2.35083E+01 1.94892E+00-2.58574E-02-2.20276E+00-3.36417E-13-1.44849E-14
 -1       324 1.99493E+01 2.82235E+00-1.87702E-02-1.99297E-01-9.53252E-14-4.32650E-13
 -1       325 1.84315E+01 3.08695E+00-1.41790E-02 5.70125E-01-6.23178E-15-4.84360E-13
 -1       326 1.67134E+01 3.53657E+00-9.11233E-03 1.11173E+00 9.04155E-14-5.31840E-13
 -1       327 1.50857E+01 4.09693E+00-4.08690E-03 1.25893E+00 1.26733E-13-5.98804E-13
 -1       328 1.40194E+01 4.56057E+00-5.92203E-04 9.70400E-01 1.40027E-13-6.20859E-13
 -1       329 1.39516E+01 4.70708E+00 1.95190E-05 4.21726E-01 1.55006E-13-5.93176E-13
 -1       330 1.49894E+01 4.47143E+00-3.02985E-03-4.93771E-02 1.75593E-13-5.37837E-13
 -1       331 1.69327E+01 3.96713E+00-9.23307E-03-1.83486E-01 2.22558E-13-4.58805E-13
 -1       332 1.93562E+01 3.37586E+00-1.75146E-02 9.89492E-02 2.64926E-13-3.32046E-13
 -1       333 2.19462E+01 2.75245E+00-2.45968E-02 6.47015E-01 3.26303E-13-1.46776E-13
 -1       334 2.45077E+01 1.92074E+00-3.66043E-02 1.13031E+00 3.48184E-13 1.59440E-13
 -1       335 2.60077E+01 1.01301E+00-2.68071E-02 9.43528E-01 3.00870E-13 4.45475E-13
 -1       336 2.57046E+01 1.86130E-01 2.66559E-03 1.93421E-01 2.45615E-13 3.59545E-13
 -1       337 2.33981E+01 2.53486E-01 8.04919E-03-1.30195E+00-2.51017E-13 4.56158E-14
 -1       338 2.29054E+01-1.29886E-01 3.10990E-03-1.17258E+00-1.91734E-13 4.96169E-14
 -1       339 2.24488E+01-2.19570E-01 1.72658E-03-1.31517E+00-1.29171E-13 7.27087E-14
 -1       340 2.19514E+01-7.75589E-02 1.87777E-03-1.45861E+00-1.08486E-13 9.99922E-15
 -1       341 2.14164E+01 2.40742E-01 3.40257E-03-1.37911E+00-1.74710E-13 1.27482E-14
 -1       342 2.09408E+01 6.00260E-01 4.52959E-03-9.39484E-01-1.90766E-13-5.47667E-14
 -1       343 2.06804E+01 8.05397E-01 4.73148E-03-1.87036E-01-1.75220E-13-1.12971E-13
 -1       344 2.07353E+01 7.24942E-01 4.31015E-03 6.34793E-01-1.90390E-13-2.25321E-13
 -1       345 2.10595E+01 3.98425E-01 3.48309E-03 1.22348E+00-2.13419E-13-2.87767E-13
 -1       346 2.14867E+01-4.67014E-05 1.16087E-03 1.40935E+00-9.03074E-14-3.25399E-13
 -1       347 2.18476E+01-3.00582E-01-1.23710E-03 1.22343E+00-5.00860E-14-3.82880E-13
 -1       348 2.20502E+01-4.33016E-01-3.00961E-03 8.21972E-01 8.35811E-15-4.24838E-13
 -1       349 2.20854E+01-4.21169E-01-3.70617E-03 3.72869E-01-6.77980E-14-3.38598E-13
 -1       350 2.19896E+01-3.28544E-01-3.42812E-03-1.15253E-02-5.65518E-14-3.86368E-13
 -1       351 2.18097E+01-2.12876E-01-2.58607E-03-2.83943E-01-4.90564E-14-3.81815E-13
 -1       352 2.15864E+01-1.09152E-01-1.60578E-03-4.42836E-01-7.35463E-15-3.25651E-13
 -1       353 2.13493E+01-3.14137E-02-7.44626E-04-5.09287E-01 1.80945E-14-2.29064E-13
 -1       354 2.11182E+01 1.92693E-02-1.06706E-04-5.10638E-01-8.52031E-14-2.28682E-13
 -1       355 2.09051E+01 4.76776E-02 3.02732E-04-4.71851E-01 1.51358E-14-3.37317E-13
 -1       356 2.07165E+01 6.00533E-02 5.23718E-04-4.12287E-01 1.44313E-13-3.05038E-13
 -1       357 2.05551E+01 6.20263E-02 6.08848E-04-3.45400E-01 2.83688E-13-2.01276E-13
 -1       358 2.04207E+01 5.79326E-02 6.06405E-04-2.79680E-01 1.26945E-13-8.90148E-14
 -1       359 2.03116E+01 5.08021E-02 5.54007E-04-2.19905E-01 4.84338E-14-1.03066E-13
 -1       360 2.02250E+01 4.25954E-02 4.78043E-04-1.68296E-01 3.88226E-16-1.33502E-13
 -1       361 2.01578E+01 3.44864E-02 3.95487E-04-1.25440E-01-2.42099E-14-1.98000E-13
 -1       362 2.01068E+01 2.71092E-02 3.16313E-04-9.09580E-02-7.63588E-14-1.04418E-13
 -1       363 2.00689E+01 2.07486E-02 2.45702E-04-6.39631E-02 4.84462E-15 1.35002E-13
 -1       364 2.00415E+01 1.54755E-02 1.85748E-04-4.33587E-02-6.99596E-15-2.53076E-15
 -1       365 2.00222E+01 1.12387E-02 1.36693E-04-2.80193E-02-6.27180E-14-1.66294E-13
 -1       366 2.00090E+01 7.92505E-03 9.77545E-05-1.68934E-02-6.71233E-15-1.03660E-13
 -1       367 2.00005E+01 5.39709E-03 6.76618E-05-9.05449E-03 5.06232E-14 1.43084E-13
 -1       368 1.99953E+01 3.51505E-03 4.49860E-05-3.71890E-03-4.28308E-14-1.97938E-14
 -1       369 1.99924E+01 2.14922E-03 2.83293E-05-2.44912E-04 1.23614E-15-8.74977E-15
 -1       370 1.99912E+01 1.18585E-03 1.64255E-05 1.87910E-03-1.97910E-13 1.38287E-13
 -1       371 1.99910E+01 5.28997E-04 8.18277E-06 3.05139E-03-2.40395E-13 1.34591E-13
 -1       372 1.99915E+01 1.00222E-04 2.69332E-06 3.57493E-03 2.99087E-14 1.35487E-13
 -1       373 1.99923E+01-1.63068E-04-7.77328E-07 3.67491E-03 7.19759E-14 1.20156E-14
 -1       374 1.99933E+01-3.09791E-04-2.81035E-06 3.51449E-03 8.05112E-14 2.38880E-13
 -1       375 1.99944E+01-3.77551E-04-3.85831E-06 3.20831E-03-7.88661E-14 4.33981E-13
 -1       376 1.99954E+01-3.94940E-04-4.26962E-06 2.83361E-03-2.46968E-14 3.30512E-13
 -1       377 1.99964E+01-3.83699E-04-4.31271E-06 2.43908E-03 3.23301E-13 2.80377E-13
 -1       378 1.99972E+01-3.60603E-04-4.18602E-06 2.05166E-03 4.42053E-13 2.78418E-13
 -1       379 1.99979E+01-3.38905E-04-4.01152E-06 1.68171E-03 2.50975E-13 3.27202E-13
 -1       380 1.99985E+01-3.29021E-04-3.84753E-06 1.32750E-03-1.33794E-13 1.47507E-13
 -1       381 1.99990E+01-3.38214E-04-4.37239E-06 9.79692E-04-5.21023E-15 4.31379E-14
 -1       382 1.99993E+01-3.36075E-04-3.37413E-06 6.53677E-04 5.80728E-15-3.76639E-14
 -1       383 2.56097E+01-2.87947E-01 3.20322E-03 1.62870E-01 1.81855E-13 3.39292E-13
 -1       384 2.55824E+01-6.37361E-01-1.82224E-03 7.05408E-01 8.27658E-14 2.67624E-13
 -1       385 2.53936E+01-7.42212E-01-3.61158E-03 1.60161E+00 5.93627E-14 3.06990E-13
 -1       386 2.48253E+01-3.49155E-01-8.85134E-03 2.37546E+00 7.39249E-14 2.71197E-13
 -1       387 2.39178E+01 5.61798E-01-1.94241E-02 2.28597E+00 2.31553E-13 1.82496E-13
 -1       388 2.31633E+01 1.41875E+00-2.98312E-02 9.64797E-01 2.29232E-13 8.29840E-14
 -1       389 2.31824E+01 1.40432E+00-1.83588E-02-9.90438E-01 2.20546E-13-1.40306E-13
 -1       390 2.39115E+01 5.32901E-01-1.31424E-02-2.27989E+00 4.87058E-14-2.13884E-13
 -1       391 2.47193E+01-3.86289E-01-6.29309E-03-2.29123E+00 1.26101E-13-2.53880E-13
 -1       392 2.51094E+01-8.15557E-01-6.45526E-03-1.40970E+00 9.91898E-14-2.79024E-13
 -1       393 2.50066E+01-7.56661E-01-8.76402E-03-3.44892E-01 1.32280E-13-2.72021E-13
 -1       394 2.45779E+01-4.90555E-01-9.21990E-03 4.65673E-01-1.16008E-13-1.07052E-13
 -1       395 2.39937E+01-2.25772E-01-6.75733E-03 9.16969E-01-7.82527E-14-1.15285E-13
 -1       396 2.33684E+01-4.29208E-02-3.42105E-03 1.07731E+00 1.15686E-13-6.41078E-14
 -1       397 2.27658E+01 5.75471E-02-7.54137E-04 1.05528E+00 9.09515E-14-9.92257E-14
 -1       398 2.22202E+01 1.00192E-01 8.52161E-04 9.40475E-01 1.31202E-13-9.17629E-14
 -1       399 2.17468E+01 1.09266E-01 1.60448E-03 7.91569E-01 4.02076E-15-2.25662E-13
 -1       400 2.13493E+01 1.01709E-01 1.80794E-03 6.41435E-01-4.76289E-14-2.36259E-13
 -1       401 2.10239E+01 8.75254E-02 1.71509E-03 5.05813E-01-9.07303E-14-3.52733E-13
 -1       402 2.07634E+01 7.19593E-02 1.49255E-03 3.90489E-01 3.16264E-13-3.18281E-13
 -1       403 2.05586E+01 5.74404E-02 1.23487E-03 2.96049E-01 8.58921E-14-3.64111E-13
 -1       404 2.04005E+01 4.48935E-02 9.88825E-04 2.20685E-01-2.08039E-13-3.36853E-13
 -1       405 2.02803E+01 3.45034E-02 7.73659E-04 1.61707E-01-2.04554E-13-3.74792E-13
 -1       406 2.01905E+01 2.61266E-02 5.94413E-04 1.16294E-01-1.08321E-14-4.62109E-13
 -1       407 2.01246E+01 1.94978E-02 4.49516E-04 8.18436E-02-1.61985E-15-3.23748E-13
 -1       408 2.00771E+01 1.43288E-02 3.34787E-04 5.60928E-02-3.10517E-13-3.19273E-13
 -1       409 2.00438E+01 1.03499E-02 2.45382E-04 3.71463E-02 1.45462E-14-1.03325E-13
 -1       410 2.00209E+01 7.32565E-03 1.76670E-04 2.34505E-02 6.78410E-14-1.40219E-13
 -1       411 2.00059E+01 5.05739E-03 1.24558E-04 1.37538E-02 2.26838E-14-8.50252E-14
 -1       412 1.99965E+01 3.38108E-03 8.55770E-05 7.06054E-03 1.52527E-13-1.77183E-13
 -1       413 1.99910E+01 2.16307E-03 5.68591E-05 2.58886E-03-1.56573E-13 1.86911E-14
 -1       414 1.99883E+01 1.29574E-03 3.60682E-05-2.68098E-04-1.52998E-13 1.95111E-13
 -1       415 1.99875E+01 6.93245E-04 2.13254E-05-1.97542E-03 1.16572E-13 1.74750E-13
 -1       416 1.99877E+01 2.87855E-04 1.11354E-05-2.88465E-03-9.56745E-14 1.80990E-13
 -1       417 1.99887E+01 2.66623E-05 4.32048E-06-3.25750E-03-4.69115E-14 3.12997E-13
 -1       418 1.99900E+01-1.31197E-04-3.81172E-08-3.28531E-03 3.54721E-14 3.78172E-13
 -1       419 1.99915E+01-2.16941E-04-2.65008E-06-3.10501E-03-3.33884E-13 2.69908E-13
 -1       420 1.99929E+01-2.54177E-04-4.05960E-06-2.81183E-03-1.34619E-13 2.63164E-13
 -1       421 1.99943E+01-2.60633E-04-4.68111E-06-2.46938E-03-8.23343E-14 2.50552E-13
 -1       422 1.99955E+01-2.49651E-04-4.83043E-06-2.11744E-03-1.97006E-14 4.48667E-13
 -1       423 1.99966E+01-2.31537E-04-4.73352E-06-1.77767E-03 2.11342E-13 1.16048E-13
 -1       424 1.99975E+01-2.14646E-04-4.54305E-06-1.45774E-03 5.48162E-13 1.88833E-13
 -1       425 1.99983E+01-2.05832E-04-4.27665E-06-1.15436E-03 1.55231E-13 3.95064E-13
 -1       426 1.99988E+01-2.09096E-04-3.68995E-06-8.57158E-04 2.33297E-13 9.01621E-14
 -1       427 1.99993E+01-2.23570E-04-2.98723E-06-5.55709E-04 4.29109E-14 1.30691E-13
 -1       428 1.99995E+01-2.43958E-04-2.18168E-06-3.80124E-04 1.67880E-14 3.52783E-13
 -1       429 1.99998E+01-1.26335E-03-6.45477E-07-9.79752E-04-1.64384E-13 2.63798E-13
 -1       430 1.99996E+01-8.34130E-04-2.32693E-06-8.69745E-04-1.23649E-13-1.45035E-13
 -1       431 1.99995E+01-5.17692E-04-3.11942E-06-6.47449E-04-9.25095E-15-5.06899E-14
 -1       432 1.99999E+01-1.67521E-03 7.60619E-07-9.44429E-04-3.40615E-13-6.92842E-13
 -1       433 2.00000E+01-2.03889E-03 1.86810E-06-7.77507E-04-5.57980E-14-4.26416E-14
 -1       434 2.00001E+01-2.30591E-03 2.69273E-06-5.08034E-04 1.16910E-13 2.54848E-13
 -1       435 2.00001E+01-2.44647E-03 3.12853E-06-1.74284E-04-1.32260E-13 6.28197E-13
 -1       436 2.00001E+01-2.44488E-03 3.13281E-06 1.80982E-04-5.46742E-14 3.21670E-13
 -1       437 2.00001E+01-2.30133E-03 2.69459E-06 5.13742E-04-1.70619E-14-3.64428E-14
 -1       438 2.00000E+01-2.03758E-03 1.86064E-06 7.77680E-04 8.59680E-14-3.37357E-13
 -1       439 1.99999E+01-1.67390E-03 7.84426E-07 9.44422E-04 2.65634E-13 2.05802E-13
 -1       440 1.99998E+01-1.25482E-03-5.27156E-07 9.79118E-04-3.81749E-14-8.39231E-14
 -1       441 1.99996E+01-8.24576E-04-2.29168E-06 8.70300E-04-1.39779E-13-4.41200E-13
 -1       442 9.63827E+00-5.33478E+00-5.57715E-02 6.53248E+00 6.28525E-14 4.64004E-13
 -1       443 1.87281E+00-3.17773E+00 4.05811E-02-4.65762E-01-2.04376E-14 1.09099E-12
 -1       444 3.75006E+00-4.38083E+00-3.38725E-02 4.03842E+00 4.42979E-14 7.68788E-13
 -1       445 1.83028E+01-5.36901E+00-4.65479E-02 6.64977E+00 2.24487E-13 2.03455E-13
 -1       446 2.58656E+01-4.15322E+00-1.45716E-02 4.64492E+00 3.41879E-13-9.09411E-14
 -1       447 2.11968E+01 2.68367E+00-2.77205E-02-1.01977E+00-1.84457E-13-3.53365E-13
 -1       448 3.57477E+01 4.53145E+00 6.41414E-02-7.97734E-02 6.90933E-13-3.86968E-13
 -1       449 3.70115E+01 7.70935E+00 1.13411E-01-1.07865E-01 7.88231E-13-4.51122E-13
 -1       450 3.70129E+01 7.43088E+00 1.14855E-01 5.08164E-01 8.20816E-13-4.80047E-13
 -1       451 3.45236E+01 3.86610E+00-3.95514E-02 1.02805E+00 7.50247E-13-3.41879E-13
 -1       452 3.21309E+01-4.19955E-01 1.74982E-03-1.56530E+00 6.09405E-13-4.12531E-13
 -1       453 2.60627E+01-3.63390E+00-1.86030E-02-4.45125E+00 4.36637E-13-6.48023E-13
 -1       454 1.78413E+01-4.82139E+00-3.87615E-02-6.41035E+00 3.43128E-13-7.13020E-13
 -1       455 8.39415E+00-3.94952E+00-4.11231E-02-5.90347E+00 1.71765E-13-8.72385E-13
 -1       456 3.05524E+00-3.03576E+00-3.45615E-02-3.19851E+00 1.51795E-13-9.89250E-13
 -1       457 1.91178E+00-1.96828E+00 3.73207E-02 1.68505E+00 1.19502E-13-1.01279E-12
 -1       458 4.96695E+00-3.50223E+00-7.59052E-02 5.36341E+00-2.30232E-14-9.01237E-13
 -1       459 1.19396E+01-3.77674E+00-6.44642E-03 7.12922E+00-8.64031E-14-7.33941E-13
 -1       460 2.14696E+01-3.20507E+00-1.37504E-02 6.12381E+00-3.83679E-13-6.40293E-13
 -1       461 2.79318E+01-1.23039E+00-2.49542E-02 3.99672E+00-5.18294E-13-5.06470E-13
 -1       462 3.28747E+01 3.20204E+00-1.93915E-02 5.51303E-01-6.96686E-13-3.58796E-13
 -1       463 3.46354E+01 6.39711E+00 3.92264E-03-3.30419E-01-8.50944E-13-3.51483E-13
 -1       464 3.51493E+01 8.19938E+00 1.97272E-02-1.59170E-01-9.24510E-13-2.69312E-13
 -1       465 3.56439E+01 7.12973E+00 6.46442E-02-6.08563E-02-8.88123E-13-3.16996E-13
 -1       466 3.40802E+01 3.70559E+00 5.66146E-02-1.14342E+00-7.66491E-13-1.68546E-13
 -1       467 3.10496E+01 2.53711E-01 6.53732E-02-2.90199E+00-5.69494E-13-7.48845E-14
 -1       468 2.41938E+01-3.69015E+00-1.79357E-02-5.58454E+00-3.52759E-13-2.44388E-14
 -1       469 1.68885E+01-4.97346E+00-4.11131E-02-7.12936E+00-1.77885E-13 4.87381E-13
 -1       470 9.90202E+00-5.05184E+00-2.25771E-02-7.00173E+00 1.19238E-13 8.09214E-13
 -1       471 3.49140E+00-3.87925E+00 2.98805E-03-4.08945E+00 3.21687E-14 8.00096E-13
 -1       472 3.25396E+01 2.75271E-01-1.42805E-02 8.96677E-01 5.90033E-13-5.01224E-13
 -1       473 2.94528E+01-3.30228E+00-4.25379E-02 1.32651E+00 2.42473E-13-6.33341E-13
 -1       474 3.02540E+01-2.22605E-01-5.48618E-02 1.67255E-01-3.91806E-13-1.42261E-13
 -1       475 1.85343E+01-4.11683E+00 3.46033E-02 6.59809E+00 6.58085E-14-5.26142E-13
 -1       476 2.43626E+01 1.25914E-02 1.77067E-03 3.09373E-03 2.00554E-13 5.22526E-14
 -1       477 1.81560E+01 2.12567E+00-3.97196E-03 1.37543E+00 8.58647E-14-4.27667E-13
 -1       478 1.99912E+01 1.62661E+00-6.76945E-03 4.81053E-01-6.94811E-15-3.86776E-13
 -1       479 1.40957E+01 3.77195E+00 4.57348E-03 1.68408E+00 1.73395E-13-6.23187E-13
 -1       480 1.31740E+01 4.27280E+00 6.26413E-03 8.59394E-01 1.63137E-13-6.21003E-13
 -1       481 1.37411E+01 4.14051E+00 5.63434E-03-1.37311E-01 1.44990E-13-5.72533E-13
 -1       482 1.56869E+01 3.44454E+00 2.60487E-03-7.63761E-01 1.50568E-13-4.80251E-13
 -1       483 1.83700E+01 2.53577E+00-2.33768E-03-7.43042E-01 1.80772E-13-3.76609E-13
 -1       484 2.11501E+01 1.69901E+00-3.79902E-03-2.59986E-01 2.32639E-13-2.09944E-13
 -1       485 2.48512E+01-9.28481E-01-1.52650E-03 1.21086E-01 1.19453E-13 7.38040E-14
 -1       486 2.31156E+01 1.04017E-01-1.88373E-03-1.38618E+00-1.90887E-13-1.01470E-13
 -1       487 2.33928E+01-5.57733E+00 2.78637E-02 4.85325E+00-1.49110E-13-2.34774E-13
 -1       488 2.31155E+01-3.59153E-01-7.80091E-04-1.45701E+00-1.44874E-13-8.68744E-14
 -1       489 2.30017E+01-3.42335E-01 6.71616E-04-1.70464E+00-1.18411E-13-3.20040E-16
 -1       490 2.27239E+01 1.07581E-01 6.33796E-04-1.85155E+00-1.60023E-13-9.92484E-15
 -1       491 2.23012E+01 8.46302E-01 4.32137E-04-1.60575E+00-2.22848E-13-8.46033E-14
 -1       492 2.19074E+01 1.49999E+00-1.46424E-03-8.29080E-01-2.62443E-13-1.29758E-13
 -1       493 2.17735E+01 1.65165E+00-2.65608E-03 2.75490E-01-2.65361E-13-2.32419E-13
 -1       494 2.19681E+01 1.16670E+00-3.85569E-04 1.24179E+00-2.69280E-13-2.79130E-13
 -1       495 2.23000E+01 3.42411E-01-5.82673E-04 1.68752E+00-1.81378E-13-3.01625E-13
 -1       496 2.25262E+01-3.99327E-01-4.78408E-04 1.56269E+00-6.82771E-14-2.76521E-13
 -1       497 2.25252E+01-8.11299E-01-1.10365E-03 1.07877E+00-9.93758E-15-2.60930E-13
 -1       498 2.23252E+01-8.85710E-01-1.73243E-03 4.94843E-01-2.03235E-14-2.54056E-13
 -1       499 2.20187E+01-7.44251E-01-1.85533E-03-1.53112E-02-7.82644E-14-2.08866E-13
 -1       500 2.16878E+01-5.18198E-01-1.49732E-03-3.80747E-01-6.81511E-14-1.22914E-13
 -1       501 2.13800E+01-2.95661E-01-9.82816E-04-5.97921E-01-3.93017E-14-1.19351E-13
 -1       502 2.11138E+01-1.17941E-01-5.10338E-04-6.93972E-01 3.63665E-14-1.78925E-13
 -1       503 2.08912E+01 5.18335E-03-1.57639E-04-7.03711E-01-3.19926E-14-2.07483E-13
 -1       504 2.07077E+01 7.98044E-02 7.33466E-05-6.58774E-01-1.49390E-14-6.82998E-14
 -1       505 2.05573E+01 1.17476E-01 2.04309E-04-5.83932E-01 4.13863E-14-8.97024E-14
 -1       506 2.04345E+01 1.29829E-01 2.62611E-04-4.96812E-01 1.96184E-13-6.48775E-14
 -1       507 2.03348E+01 1.26425E-01 2.73298E-04-4.08963E-01 2.03829E-13-1.87808E-13
 -1       508 2.02544E+01 1.14303E-01 2.55934E-04-3.27273E-01 7.26777E-14-3.16385E-13
 -1       509 2.01903E+01 9.82522E-02 2.24418E-04-2.55294E-01-1.79492E-15-2.63889E-13
 -1       510 2.01397E+01 8.13031E-02 1.87818E-04-1.94349E-01-8.59490E-14-2.37189E-13
 -1       511 2.01004E+01 6.52244E-02 1.51578E-04-1.44364E-01 3.14724E-14-2.09122E-13
 -1       512 2.00703E+01 5.09280E-02 1.18637E-04-1.04466E-01 3.79772E-14-2.06714E-13
 -1       513 2.00476E+01 3.87758E-02 9.03059E-05-7.33932E-02-6.08292E-14-1.90523E-13
 -1       514 2.00308E+01 2.87962E-02 6.69024E-05-4.97529E-02-8.70851E-14-2.44851E-14
 -1       515 2.00187E+01 2.08315E-02 4.81817E-05-3.21865E-02-1.11753E-14 1.86887E-13
 -1       516 2.00102E+01 1.46337E-02 3.36171E-05-1.94563E-02 7.84809E-14 1.77578E-13
 -1       517 2.00044E+01 9.92439E-03 2.25738E-05-1.04870E-02 5.49119E-15 1.05058E-13
 -1       518 2.00006E+01 6.43054E-03 1.44113E-05-4.37668E-03-1.58364E-14 3.05807E-13
 -1       519 1.99982E+01 3.90329E-03 8.53897E-06-3.90787E-04-5.86130E-14 1.94859E-13
 -1       520 1.99969E+01 2.12668E-03 4.44153E-06 2.05471E-03-1.48519E-13 2.38361E-13
 -1       521 1.99963E+01 9.19928E-04 1.68684E-06 3.41360E-03-6.49038E-14 3.41422E-13
 -1       522 1.99962E+01 1.35809E-04-7.66220E-08 4.03075E-03-1.22881E-13 2.18749E-13
 -1       523 1.99964E+01-3.42802E-04-1.12825E-06 4.16235E-03 2.51387E-13 4.94832E-14
 -1       524 1.99967E+01-6.07325E-04-1.68576E-06 3.99386E-03 2.34640E-13 2.31123E-13
 -1       525 1.99971E+01-7.28053E-04-1.91749E-06 3.65544E-03-7.42232E-14 6.58599E-13
 -1       526 1.99976E+01-7.58547E-04-1.95055E-06 3.23459E-03-2.32927E-15 5.23618E-13
 -1       527 1.99980E+01-7.39621E-04-1.89128E-06 2.78632E-03 3.37149E-13 2.66455E-13
 -1       528 1.99984E+01-7.02660E-04-1.81940E-06 2.34108E-03 1.05042E-13-1.19400E-13
 -1       529 1.99988E+01-6.70992E-04-1.71107E-06 1.91113E-03 2.38804E-14-2.10077E-13
 -1       530 1.99991E+01-6.61716E-04-1.83698E-06 1.49637E-03-5.65120E-14 1.89420E-14
 -1       531 2.62677E+01-1.49493E+00-1.92799E-02 2.11162E+00 9.31385E-14 1.46658E-13
 -1       532 2.64075E+01-1.33119E-02-3.09756E-02 2.99440E+00 2.18257E-13 1.27770E-13
 -1       533 2.56538E+01 2.34914E+00-1.11158E-01 2.39792E+00 3.32071E-13 4.52420E-14
 -1       534 2.54994E+01 3.45484E+00-8.88800E-02-1.05621E-02 4.46480E-13-1.75473E-13
 -1       535 2.58155E+01 2.19902E+00-7.13532E-02-2.31434E+00 2.40724E-13-3.64596E-13
 -1       536 2.61915E+01-1.79780E-01-4.18390E-02-2.80943E+00 2.03204E-13-5.65585E-13
 -1       537 2.59333E+01-1.68266E+00-1.65307E-02-1.80611E+00 7.85084E-14-6.84932E-13
 -1       538 2.50449E+01-1.86651E+00-5.58192E-03-3.79484E-01 6.11750E-15-4.84725E-13
 -1       539 2.40250E+01-1.35835E+00-6.04640E-03 7.10610E-01-1.21048E-13-2.89117E-13
 -1       540 2.31450E+01-7.20356E-01-5.11582E-03 1.32136E+00-1.23290E-13-3.61907E-13
 -1       541 2.24721E+01-2.31216E-01-2.81620E-03 1.54806E+00-1.15281E-14-3.20608E-13
 -1       542 2.19660E+01 6.58646E-02-7.37795E-04 1.53406E+00 7.97991E-14-2.22546E-13
 -1       543 2.15746E+01 2.12040E-01 4.69119E-04 1.39143E+00 1.57244E-13-1.42593E-13
 -1       544 2.12609E+01 2.62286E-01 1.04043E-03 1.19496E+00 2.69557E-14-1.63576E-13
 -1       545 2.10031E+01 2.59940E-01 1.21323E-03 9.88836E-01-6.66597E-15-1.19845E-14
 -1       546 2.07893E+01 2.32972E-01 1.16848E-03 7.96272E-01 5.36271E-14-1.30769E-13
 -1       547 2.06126E+01 1.97364E-01 1.02512E-03 6.27578E-01 9.04914E-14-3.78532E-13
 -1       548 2.04681E+01 1.61357E-01 8.52092E-04 4.85685E-01 1.65276E-13-1.68149E-13
 -1       549 2.03516E+01 1.28696E-01 6.84190E-04 3.69667E-01-6.05539E-14-9.96551E-14
 -1       550 2.02592E+01 1.00724E-01 5.36211E-04 2.76816E-01-1.02425E-13-2.58594E-13
 -1       551 2.01871E+01 7.75860E-02 4.12435E-04 2.03800E-01-4.41555E-14-3.79259E-13
 -1       552 2.01318E+01 5.88890E-02 3.12163E-04 1.47269E-01 9.90939E-14-4.93508E-13
 -1       553 2.00901E+01 4.40423E-02 2.32676E-04 1.04147E-01-1.58233E-13-4.89866E-13
 -1       554 2.00592E+01 3.24230E-02 1.70692E-04 7.17466E-02-2.36100E-13-6.18061E-13
 -1       555 2.00369E+01 2.34498E-02 1.23030E-04 4.77906E-02-7.11873E-14-5.26557E-13
 -1       556 2.00210E+01 1.66112E-02 8.68633E-05 3.03938E-02-1.15680E-14-3.78172E-13
 -1       557 2.00102E+01 1.14717E-02 5.97932E-05 1.80207E-02 1.17366E-14-2.41815E-13
 -1       558 2.00030E+01 7.66813E-03 3.98331E-05 9.43972E-03-4.71537E-14-3.79612E-14
 -1       559 1.99984E+01 4.90216E-03 2.53659E-05 3.67586E-03-2.54383E-13 6.63937E-14
 -1       560 1.99958E+01 2.93195E-03 1.50914E-05-3.22030E-05-5.23880E-14-1.00156E-13
 -1       561 1.99945E+01 1.56363E-03 7.97522E-06-2.27092E-03-7.91564E-14 9.82465E-14
 -1       562 1.99941E+01 6.43573E-04 3.20301E-06-3.48548E-03-1.08796E-13 1.58998E-13
 -1       563 1.99942E+01 5.14297E-05 1.40095E-07-4.00842E-03-3.85196E-14 2.24602E-13
 -1       564 1.99946E+01-3.05991E-04-1.70336E-06-4.08354E-03-1.15922E-13 3.00402E-13
 -1       565 1.99953E+01-5.00070E-04-2.70162E-06-3.88564E-03-2.12786E-13 1.95394E-13
 -1       566 1.99960E+01-5.84960E-04-3.13947E-06-3.53640E-03 5.82724E-14 3.48875E-13
 -1       567 1.99967E+01-6.01490E-04-3.22822E-06-3.11702E-03-1.28921E-13-1.40219E-13
 -1       568 1.99973E+01-5.80539E-04-3.12781E-06-2.67819E-03 1.30264E-13-2.74959E-13
 -1       569 1.99979E+01-5.46117E-04-2.93785E-06-2.24750E-03 3.40783E-13-3.70429E-13
 -1       570 1.99984E+01-5.16527E-04-2.90839E-06-1.83532E-03 1.79744E-13-1.06315E-13
 -1       571 1.99988E+01-5.06588E-04-3.51469E-06-1.44309E-03 3.01366E-13-2.81620E-13
 -1       572 1.99992E+01-5.16129E-04-3.26409E-06-1.05811E-03-3.68026E-15 1.69308E-13
 -1       573 2.00001E+01-1.77759E-03 6.40504E-07-1.17691E-03 3.93652E-13 4.72454E-14
 -1       574 2.00003E+01-2.05870E-03 1.00587E-06-8.72132E-04 3.56991E-13 5.93502E-14
 -1       575 1.99996E+01-1.02329E-03-3.89250E-07-1.31497E-03-8.42276E-14-3.55225E-13
 -1       576 1.99999E+01-1.42231E-03 2.19149E-07-1.33265E-03-2.13785E-13-1.87692E-14
 -1       577 2.00005E+01-2.23732E-03 1.29276E-06-4.61022E-04 7.86396E-14 1.56265E-13
 -1       578 2.00005E+01-2.29753E-03 1.40426E-06 4.80423E-06-1.40833E-13 4.43640E-13
 -1       579 2.00005E+01-2.23400E-03 1.31947E-06 4.69943E-04 4.28842E-14 1.69365E-13
 -1       580 2.00003E+01-2.05671E-03 1.02383E-06 8.72924E-04 9.62325E-14-2.77862E-13
 -1       581 2.00001E+01-1.77496E-03 7.03546E-07 1.17702E-03 2.03862E-13-7.77597E-15
 -1       582 1.99999E+01-1.41585E-03 4.18412E-07 1.33305E-03 9.03528E-14-1.65194E-13
 -1       583 1.99996E+01-1.01586E-03-9.47054E-07 1.30898E-03-1.32771E-13-3.78648E-13
 -1       584 5.65375E+00-1.21703E+00 1.77614E-01 2.37022E+00-1.72480E-13 8.88289E-13
 -1       585 1.64167E+01-5.01248E+00 9.09715E-02 6.64875E+00-2.79901E-13 1.29896E-13
 -1       586 2.56042E+01-1.60419E+00-5.84892E-03 9.08233E-01 5.35928E-14 1.16565E-13
 -1       587 2.29154E+01 9.94451E-01-9.99180E-03-1.53847E+00-2.60559E-13-1.45174E-13
 -1       588 9.69351E+00-2.71700E+00 1.45599E-01-6.11080E+00 3.44891E-13 6.30551E-13
 -1       589 9.83096E+00-2.84250E+00 1.44984E-01 5.66992E+00-3.25739E-13 2.70409E-13
 -1       590 5.39947E+00-1.21399E+00 1.73189E-01-2.56397E+00 2.23443E-13 6.93806E-13
 -1       591 1.60052E+01-3.89121E+00 9.33412E-02-6.18047E+00-6.04100E-14-5.73309E-13
 -1       592 1.60074E+01 2.91966E+00 2.98754E-04 1.87013E+00 1.59281E-13-5.48139E-13
 -1       593 3.15889E+01 7.07852E+00-1.44596E-01 3.68543E-01 7.68066E-13-3.32710E-13
 -1       594 6.21215E+00-3.57516E-01 1.51717E-01 4.31193E+00 2.18811E-13-9.02514E-13
 -1       595 3.15905E+01 5.43181E+00-1.56200E-01-1.65439E+00 7.09863E-13-4.59105E-13
 -1       596 3.15650E+01 5.11203E+00-1.42141E-01 1.92453E+00 6.95929E-13-1.78225E-13
 -1       597 3.09544E+01 9.50284E-02-1.18254E-01 1.83986E+00 3.50726E-13-1.28994E-14
 -1       598 2.90708E+01-3.40335E+00-4.49632E-02-8.70676E-01 2.08122E-13-5.29368E-14
 -1       599 2.39089E+01-4.96354E+00 2.47851E-02-4.22252E+00 1.10884E-14-3.28262E-13
 -1       600 8.12812E+00-1.35637E+00 1.29698E-01-4.69615E+00-3.36328E-14-8.50028E-13
 -1       601 2.21421E+01-5.26674E+00 1.50191E-02-5.67760E+00 1.60663E-13-2.74836E-13
 -1       602 5.15258E+00 5.01623E-01 1.83089E-01-1.17491E+00 7.54258E-14-9.25190E-13
 -1       603 1.07267E+01-1.83366E+00 1.37684E-01 6.39010E+00 2.34361E-13-7.38458E-13
 -1       604 2.58518E+01-3.63441E+00-1.03732E-02 3.50091E+00-7.66817E-14-2.43895E-13
 -1       605 3.00631E+01 3.90264E+00-1.45156E-01-1.81222E+00-6.08930E-13 2.56739E-16
 -1       606 3.01659E+01 7.07049E+00-1.64484E-01-1.01697E+00-8.87554E-13-1.34857E-13
 -1       607 3.02502E+01 7.06327E+00-1.70102E-01 6.84198E-01-8.39995E-13-2.54644E-13
 -1       608 3.09886E+01 4.61096E+00-1.39020E-01 1.28076E+00-7.24698E-13-4.33625E-13
 -1       609 3.01548E+01 5.05515E-01-1.05470E-01 5.44756E-01-4.05859E-13-5.42337E-13
 -1       610 2.79631E+01-3.28000E+00-3.06148E-02-2.11314E+00-8.46719E-14-4.18221E-13
 -1       611 1.64174E+01-4.81766E+00 9.56391E-02-7.05508E+00 4.21274E-13 3.54473E-13
 -1       612 3.12037E+01 1.53776E+00-1.24184E-01-1.89289E+00 4.61790E-13-6.58480E-13
 -1       613 2.43877E+01 8.45387E-01-8.90964E-03 3.98447E-01 2.83181E-13 8.58636E-14
 -1       614 2.13724E+01 1.38370E+00-8.53728E-03-4.77872E-01-1.08200E-13-3.35527E-13
 -1       615 2.97963E+01-1.69167E+00-1.21293E-01-1.30880E+00 2.44892E-13-8.31023E-13
 -1       616 2.66706E+01-4.80523E+00-2.02131E-02 2.24428E+00-6.61467E-14-6.60090E-13
 -1       617 1.56903E+01-2.67154E+00 8.30733E-02 6.39831E+00 2.67217E-13-5.68164E-13
 -1       618 6.84511E+00 1.59197E+00 1.62829E-01 1.63529E+00 1.74057E-13-8.84237E-13
 -1       619 2.94686E+01 1.89861E+00-1.38556E-01 2.90711E+00 4.50168E-13 7.55299E-14
 -1       620 1.99993E+01-6.63804E-04-2.12717E-06 1.21404E-03-2.10097E-13-8.83429E-14
 -1       621 1.20429E+01 3.68175E+00 2.26745E-02 1.81282E-01 1.41012E-13-6.40725E-13
 -1       622 1.24861E+01 3.39552E+00 2.15556E-02 1.90221E+00 1.89401E-13-6.52685E-13
 -1       623 1.70511E+01 1.74043E+00 8.11117E-03-1.77737E+00 5.99535E-14-4.20369E-13
 -1       624 2.03066E+01 6.87901E-01 4.57997E-03-1.28428E+00 1.05117E-13-2.50996E-13
 -1       625 2.29750E+01-4.37035E-01 6.08756E-03-6.97343E-01 1.06241E-13-8.45927E-14
 -1       626 1.56448E+01-3.04962E+00 1.14115E-01 5.68507E+00-4.26683E-13 1.08715E-13
 -1       627 2.35720E+01-7.21202E-01-3.01010E-03-1.48161E+00-7.11698E-14-5.73402E-14
 -1       628 2.37926E+01-4.10975E-01-2.79629E-03-1.91518E+00-1.41708E-13-4.43263E-14
 -1       629 2.36579E+01 5.98905E-01-7.30845E-03-2.11634E+00-2.38306E-13-5.00678E-14
 -1       630 2.32375E+01 1.94353E+00-9.84794E-03-1.64395E+00-3.18377E-13-1.36880E-13
 -1       631 2.28734E+01 2.78970E+00-1.70165E-02-4.23973E-01-3.43367E-13-2.13432E-13
 -1       632 2.29538E+01 2.40247E+00-1.28204E-02 9.90278E-01-2.86466E-13-3.16478E-13
 -1       633 2.32859E+01 1.13703E+00-1.17868E-02 1.83342E+00-2.55978E-13-3.08936E-13
 -1       634 2.34968E+01-2.80926E-01-5.51748E-03 1.80759E+00-1.03227E-13-3.14717E-13
 -1       635 2.33340E+01-1.18461E+00-1.52756E-03 1.20493E+00-4.48966E-14-3.59517E-13
 -1       636 2.28528E+01-1.45169E+00-8.22242E-04 4.56373E-01 1.58458E-14-3.24379E-13
 -1       637 2.22524E+01-1.28825E+00-9.21350E-04-1.69832E-01 2.58764E-14-1.73898E-13
 -1       638 2.16830E+01-9.36319E-01-8.01288E-04-5.89001E-01-2.78301E-14-1.10508E-13
 -1       639 2.12183E+01-5.65495E-01-5.14371E-04-8.17393E-01-7.04553E-14-1.17048E-13
 -1       640 2.08705E+01-2.57725E-01-2.49478E-04-9.03234E-01-1.94749E-14-3.88504E-14
 -1       641 2.06225E+01-3.67223E-02-8.26629E-05-8.94276E-01 1.40939E-14-1.69715E-14
 -1       642 2.04499E+01 1.03503E-01 1.45826E-05-8.28246E-01 3.24721E-14-7.53677E-14
 -1       643 2.03302E+01 1.80006E-01 6.64466E-05-7.32266E-01-4.52224E-14-6.56893E-14
 -1       644 2.02462E+01 2.11258E-01 8.89760E-05-6.24798E-01 7.24083E-14-1.25459E-13
 -1       645 2.01861E+01 2.13112E-01 9.37004E-05-5.17770E-01 1.89831E-13-2.89454E-13
 -1       646 2.01420E+01 1.97684E-01 8.82082E-05-4.18339E-01 1.41189E-13-2.70036E-13
 -1       647 2.01087E+01 1.73520E-01 7.76256E-05-3.30279E-01-3.91439E-14-2.35618E-13
 -1       648 2.00832E+01 1.46261E-01 6.51771E-05-2.55067E-01-9.67255E-15-3.07548E-13
 -1       649 2.00634E+01 1.19369E-01 5.27722E-05-1.92700E-01 2.97080E-14-2.45632E-13
 -1       650 2.00479E+01 9.47791E-02 4.14441E-05-1.42281E-01 4.25873E-14-3.06088E-13
 -1       651 2.00357E+01 7.34033E-02 3.16623E-05-1.02451E-01-4.22375E-14-4.00544E-13
 -1       652 2.00262E+01 5.55058E-02 2.35515E-05-7.16646E-02 4.29344E-14-2.70310E-13
 -1       653 2.00189E+01 4.09661E-02 1.70398E-05-4.83763E-02 1.75109E-13-7.70085E-14
 -1       654 2.00133E+01 2.94571E-02 1.19547E-05-3.11494E-02 4.37114E-15-1.03383E-13
 -1       655 2.00091E+01 2.05608E-02 8.08405E-06-1.87115E-02 7.05967E-14 7.32393E-14
 -1       656 2.00059E+01 1.38400E-02 5.21097E-06-9.97677E-03 2.19141E-14 1.54313E-13
 -1       657 2.00036E+01 8.88069E-03 3.13412E-06-4.04523E-03-1.51162E-13 2.99613E-13
 -1       658 2.00020E+01 5.31278E-03 1.67681E-06-1.89394E-04-2.00814E-13 2.00227E-13
 -1       659 2.00009E+01 2.81940E-03 6.90181E-07 2.16567E-03-7.51033E-14 1.63443E-13
 -1       660 2.00002E+01 1.13754E-03 5.26404E-08 3.46479E-03-1.19444E-13 2.21118E-13
 -1       661 1.99997E+01 5.44063E-05-3.31803E-07 4.04487E-03-1.41999E-13 4.90750E-14
 -1       662 1.99994E+01-5.98593E-04-5.38888E-07 4.15534E-03 1.49465E-13-2.02215E-13
 -1       663 1.99993E+01-9.52636E-04-6.27250E-07 3.97621E-03 3.11224E-13-3.59898E-13
 -1       664 1.99992E+01-1.10841E-03-6.44337E-07 3.63333E-03 5.12720E-14-1.43643E-13
 -1       665 1.99992E+01-1.14259E-03-6.18243E-07 3.21092E-03-6.26934E-14-4.32137E-15
 -1       666 1.99993E+01-1.11351E-03-5.74888E-07 2.76169E-03-7.36186E-15-4.08139E-13
 -1       667 1.99994E+01-1.06505E-03-5.59660E-07 2.31460E-03-1.00847E-14-2.90752E-13
 -1       668 1.99994E+01-1.02905E-03-6.76865E-07 1.88094E-03 7.19239E-14-2.05705E-13
 -1       669 2.84234E+01 2.40443E+00-1.39792E-01-2.76469E+00 3.80404E-13-6.64937E-13
 -1       670 2.73756E+01-2.25275E+00-5.11291E-02-1.86915E+00 1.61675E-13-6.59237E-13
 -1       671 2.56738E+01-3.10241E+00-1.39151E-02-1.59279E-02-6.58163E-14-4.74970E-13
 -1       672 2.38977E+01-2.42192E+00-1.68847E-03 1.21640E+00-1.47934E-13-5.06472E-13
 -1       673 2.25266E+01-1.38990E+00-3.41365E-03 1.82154E+00-1.62730E-13-4.48494E-13
 -1       674 2.16587E+01-5.43655E-01-2.29916E-03 1.97417E+00-1.86689E-14-3.96434E-13
 -1       675 2.11505E+01-6.18375E-04-6.34082E-04 1.89512E+00-1.08529E-14-3.63109E-13
 -1       676 2.08559E+01 2.89321E-01 8.72328E-05 1.70236E+00 3.99117E-14-3.09793E-13
 -1       677 2.06752E+01 4.08981E-01 4.10224E-04 1.46654E+00 4.41594E-14-2.73106E-13
 -1       678 2.05506E+01 4.29405E-01 5.23357E-04 1.22609E+00-9.54972E-15-3.36072E-13
 -1       679 2.04536E+01 3.99014E-01 5.24886E-04 1.00128E+00 5.10517E-14-3.43181E-13
 -1       680 2.03720E+01 3.47113E-01 4.71603E-04 8.01798E-01 1.26406E-13-3.12430E-13
 -1       681 2.03012E+01 2.89872E-01 3.98394E-04 6.31023E-01 1.04149E-13-2.45388E-13
 -1       682 2.02398E+01 2.35398E-01 3.23790E-04 4.88684E-01 4.80320E-14-3.54285E-13
 -1       683 2.01874E+01 1.87205E-01 2.56257E-04 3.72552E-01-7.61777E-14-2.42967E-13
 -1       684 2.01436E+01 1.46356E-01 1.98809E-04 2.79498E-01 1.61599E-13-3.88024E-13
 -1       685 2.01078E+01 1.12692E-01 1.51711E-04 2.06129E-01 7.47376E-14-6.34369E-13
 -1       686 2.00791E+01 8.55078E-02 1.14028E-04 1.49152E-01-3.89267E-14-6.01611E-13
 -1       687 2.00566E+01 6.39105E-02 8.44095E-05 1.05567E-01-5.62628E-14-7.18221E-13
 -1       688 2.00394E+01 4.69951E-02 6.14670E-05 7.27385E-02-1.44591E-13-7.82569E-13
 -1       689 2.00264E+01 3.39253E-02 4.39303E-05 4.84215E-02-1.91868E-13-7.09682E-13
 -1       690 2.00169E+01 2.39647E-02 3.07021E-05 3.07404E-02-2.04051E-13-4.58377E-13
 -1       691 2.00100E+01 1.64838E-02 2.08639E-05 1.81571E-02-6.86165E-14-2.05919E-13
 -1       692 2.00053E+01 1.09551E-02 1.36616E-05 9.43010E-03-9.51775E-14-3.55209E-13
 -1       693 2.00020E+01 6.94341E-03 8.48513E-06 3.57209E-03-8.30919E-14-4.29246E-13
 -1       694 1.99999E+01 4.09489E-03 4.84625E-06-1.90735E-04-8.59616E-14-3.20652E-13
 -1       695 1.99987E+01 2.12517E-03 2.35840E-06-2.45589E-03-1.64307E-13-9.45112E-14
 -1       696 1.99980E+01 8.08667E-04 7.18679E-07-3.67761E-03 3.55810E-14-9.46061E-14
 -1       697 1.99977E+01-3.14502E-05-3.07968E-07-4.19540E-03-1.36641E-13-6.93359E-14
 -1       698 1.99977E+01-5.32157E-04-9.03168E-07-4.25803E-03-1.66016E-13-5.74854E-14
 -1       699 1.99978E+01-7.98415E-04-1.20528E-06-4.04358E-03-2.80669E-13-9.92915E-14
 -1       700 1.99981E+01-9.09916E-04-1.32184E-06-3.67554E-03 1.91001E-13 1.20943E-13
 -1       701 1.99983E+01-9.26781E-04-1.31274E-06-3.23586E-03 1.85868E-13 2.73536E-14
 -1       702 1.99986E+01-8.94404E-04-1.21278E-06-2.77558E-03 2.53335E-13-2.73210E-13
 -1       703 1.99988E+01-8.48772E-04-1.19810E-06-2.32197E-03 2.98962E-13-4.11029E-13
 -1       704 1.99991E+01-8.16462E-04-1.56174E-06-1.88579E-03 3.33640E-13-5.28937E-13
 -1       705 1.99994E+01-9.11905E-04-1.10758E-06-1.60588E-03-8.18578E-14-1.61911E-13
 -1       706 2.00009E+01-2.24464E-03 3.73947E-07-2.82769E-04 7.51353E-14 4.91246E-13
 -1       707 1.99995E+01-1.01494E-03-8.18143E-07 1.59417E-03-1.48467E-13-3.30013E-13
 -1       708 2.00005E+01-1.90863E-03 1.48878E-07-1.28298E-03 2.02674E-13-1.08283E-13
 -1       709 2.00009E+01-2.24260E-03 4.30658E-07 2.95308E-04 7.10927E-14 4.01907E-13
 -1       710 2.00008E+01-2.13077E-03 2.80637E-07-8.29761E-04 5.19496E-14-1.29209E-13
 -1       711 2.06342E+01-4.67414E+00 6.14512E-02 5.10753E+00-2.96842E-13-2.11704E-13
 -1       712 2.00008E+01-2.12796E-03 3.77139E-07 8.31735E-04-1.64975E-13-5.45126E-14
 -1       713 2.00005E+01-1.90472E-03 2.88858E-07 1.28366E-03-4.81224E-14-8.71766E-14
 -1       714 2.00002E+01-1.58939E-03 4.08026E-07 1.58414E-03 8.48571E-14-1.86207E-13
 -1       715 2.60826E+01-2.90914E+00-1.23503E-02 3.24993E-01-1.90614E-14 1.03073E-13
 -1       716 1.00943E+01-7.81085E-01 1.37544E-01 3.83860E+00-2.15928E-13 3.19772E-13
 -1       717 2.12288E+01-3.94361E+00 6.46186E-02-4.36902E+00-1.49131E-13-3.26748E-13
 -1       718 2.82453E+01 2.00246E+00-1.16391E-01 1.94985E+00-3.58796E-13-4.93220E-13
 -1       719 9.04292E+00 9.35668E-01 1.39899E-01-2.90702E+00-1.12393E-14-7.82735E-13
 -1       720 2.31237E+01-2.82716E-01 3.80672E-03-1.16273E+00-1.12296E-13-1.07251E-13
 -1       721 1.51532E+01-3.20191E+00 1.08693E-01-6.27337E+00 4.67282E-13 2.61655E-13
 -1       722 2.42426E+01-1.88016E+00 1.76040E-03-5.85408E-01 6.28751E-15-2.52987E-14
 -1       723 9.87497E+00-6.06143E-01 1.33759E-01-4.01956E+00 3.30472E-13 6.07930E-13
 -1       724 1.38592E+01 2.98296E+00 2.26406E-02-1.32239E+00 8.97526E-14-5.45330E-13
 -1       725 2.00807E+01 4.56053E-01 4.03163E-04 1.39117E+00 1.07173E-13-3.26311E-13
 -1       726 2.73435E+01-2.16365E+00-5.50796E-02 2.42445E-01-4.97033E-14 3.00870E-14
 -1       727 2.79559E+01 7.91637E-01-1.01219E-01-2.00318E+00-3.34621E-13 1.53669E-13
 -1       728 1.38260E+01-1.49869E+00 1.05550E-01-5.09863E+00-1.29664E-13-6.01560E-13
 -1       729 2.64678E+01-4.06050E+00 3.37167E-03-1.13695E+00-4.58054E-14-1.33435E-14
 -1       730 1.04252E+01 2.54820E-01 1.41981E-01 4.97535E+00 3.04118E-13-7.70321E-13
 -1       731 2.24896E+01-3.77110E+00 4.45416E-02 4.44731E+00 2.05624E-13-2.46370E-13
 -1       732 2.78147E+01-2.01077E+00-6.13418E-02 4.16773E-01-7.16146E-14-6.23699E-13
 -1       733 8.28845E+00 4.11134E-01 1.46253E-01-1.42528E-01 1.36637E-13 5.41497E-13
 -1       734 2.71471E+01 4.71091E+00-1.39951E-01-1.96497E+00-6.26200E-13 6.59160E-14
 -1       735 2.75831E+01 4.80980E+00-1.50445E-01 1.69313E+00-6.30558E-13-3.14648E-13
 -1       736 1.95432E+01-4.63312E+00 6.83655E-02-5.90513E+00 4.55514E-13-1.68077E-14
 -1       737 2.83409E+01-2.50634E+00-5.31371E-02 1.28445E+00 1.47129E-13 1.33935E-13
 -1       738 2.51985E+01-4.64934E+00-4.37805E-03-2.94642E+00 1.39366E-13-4.32035E-13
 -1       739 2.65451E+01 6.10103E+00-1.40005E-01-1.10967E-01-7.61932E-13-9.69311E-14
 -1       740 2.16741E+01 2.01514E-01-1.64191E-03 1.64708E-01-7.46603E-15-2.63262E-13
 -1       741 1.47959E+01 2.32678E+00 1.77631E-02 2.78698E+00 2.16327E-13-6.00014E-13
 -1       742 2.38960E+01-4.84268E+00 2.54164E-02 3.26581E+00-2.51854E-13-4.95156E-13
 -1       743 2.80732E+01-3.55868E+00-2.97188E-02-2.26694E-01 4.13986E-14-7.63979E-13
 -1       744 2.78893E+01-1.52956E+00-4.85150E-02 2.37323E+00 1.69365E-13 1.73741E-13
 -1       745 2.00002E+01-1.59649E-03 6.22430E-07-1.58522E-03 1.44178E-13 3.77781E-13
 -1       746 2.85629E+01 5.02389E+00-1.83695E-01-1.51920E+00 6.39225E-13-4.29688E-13
 -1       747 1.99998E+01-1.26859E-03 7.36859E-08-1.67838E-03-4.45681E-14-1.84071E-14
 -1       748 2.52369E+01-3.15013E+00-7.60945E-03 1.59047E+00 1.43679E-13-2.60998E-14
 -1       749 1.40198E+01-6.92550E-01 8.34826E-02 5.41763E+00 3.24015E-13-6.12305E-13
 -1       750 8.71743E+00 2.24502E+00 1.17466E-01-5.41631E-01 8.99026E-14-7.92158E-13
 -1       751 1.76827E+01 1.18052E+00 8.16342E-03 2.47355E+00 1.77947E-13-4.31004E-13
 -1       752 2.27031E+01 1.57388E-01-1.52027E-04-9.43351E-01-1.34364E-13-1.70605E-13
 -1       753 1.99999E+01-1.32159E-03 4.49375E-08 1.78385E-03-2.46493E-13-7.36384E-13
 -1       754 1.94228E+01-5.19188E-01 2.58602E-02-2.59496E+00-4.29448E-14-3.04974E-13
 -1       755 2.60330E+01 2.52645E+00-7.80024E-02 2.11537E+00-3.13985E-13-5.68748E-13
 -1       756 2.49177E+01-3.74631E-01-1.70370E-02-2.03699E+00-1.66585E-13 7.64081E-14
 -1       757 2.49041E+01 1.57723E+00-2.92096E-02-2.31217E+00-3.32238E-13 3.97312E-14
 -1       758 2.44368E+01 3.68045E+00-6.04860E-02-1.48689E+00-4.70624E-13-1.10155E-14
 -1       759 2.45886E+01 2.58518E+00-3.78077E-02 1.83818E+00-3.01710E-13-4.72101E-13
 -1       760 2.47776E+01 1.91379E-01-2.60225E-02 2.02947E+00-1.48608E-13-4.57588E-13
 -1       761 2.44734E+01-1.52020E+00-4.75833E-03 1.24004E+00-3.98661E-14-4.23114E-13
 -1       762 2.36179E+01-2.12190E+00 6.37603E-04 2.04637E-01 7.52363E-14-2.64954E-13
 -1       763 2.25996E+01-1.94696E+00-2.65507E-04-5.67428E-01 1.31791E-13-2.01734E-13
 -1       764 2.17050E+01-1.43584E+00-4.64449E-04-9.98638E-01 2.34552E-14-1.93620E-13
 -1       765 2.10333E+01-8.84674E-01-3.44395E-04-1.17254E+00-9.13535E-15-8.18646E-14
 -1       766 2.05779E+01-4.23912E-01-9.43211E-05-1.18657E+00-2.52264E-14-1.24138E-13
 -1       767 2.02927E+01-8.97628E-02 2.94842E-06-1.11252E+00 3.22864E-14-1.27887E-13
 -1       768 2.01268E+01 1.26516E-01 3.45353E-05-9.95448E-01 5.76353E-14-7.91633E-14
 -1       769 2.00381E+01 2.49193E-01 4.28114E-05-8.61831E-01 6.56861E-14-2.47025E-15
 -1       770 1.99964E+01 3.04351E-01 4.04395E-05-7.26980E-01 4.33532E-14-8.89934E-14
 -1       771 1.99812E+01 3.14510E-01 3.51292E-05-5.99701E-01 2.58724E-14-1.20106E-14
 -1       772 1.99798E+01 2.97189E-01 2.92034E-05-4.84791E-01 1.46576E-13-1.28793E-13
 -1       773 1.99845E+01 2.65055E-01 2.36771E-05-3.84451E-01 6.44039E-14-1.92343E-13
 -1       774 1.99910E+01 2.26710E-01 1.87956E-05-2.99190E-01-7.84597E-14-1.49758E-13
 -1       775 1.99971E+01 1.87636E-01 1.46108E-05-2.28437E-01 5.02334E-15-2.67706E-13
 -1       776 2.00020E+01 1.51061E-01 1.11181E-05-1.70970E-01 3.14698E-15-3.17560E-13
 -1       777 2.00055E+01 1.18658E-01 8.27575E-06-1.25223E-01-1.20711E-14-2.72525E-13
 -1       778 2.00075E+01 9.10729E-02 6.01591E-06-8.95048E-02 8.82386E-14-1.66708E-13
 -1       779 2.00085E+01 6.83184E-02 4.25797E-06-6.21524E-02 1.61655E-13-4.31288E-14
 -1       780 2.00086E+01 5.00404E-02 2.91912E-06-4.16199E-02 3.54248E-14 4.45202E-14
 -1       781 2.00082E+01 3.57028E-02 1.92121E-06-2.65319E-02 1.13471E-14-3.42965E-14
 -1       782 2.00075E+01 2.47054E-02 1.19445E-06-1.57049E-02 1.20376E-13-7.30266E-14
 -1       783 2.00065E+01 1.64558E-02 6.78786E-07-8.14791E-03 1.67797E-13 8.80192E-14
 -1       784 2.00055E+01 1.04100E-02 3.24121E-07-3.05063E-03-1.72690E-13-4.36999E-14
 -1       785 2.00046E+01 6.09161E-03 8.96296E-08 2.35376E-04-1.25740E-13 1.68533E-13
 -1       786 2.00037E+01 3.09821E-03-5.72399E-08 2.21862E-03-1.54542E-13 1.04045E-14
 -1       787 2.00029E+01 1.09892E-03-1.41838E-07 3.29009E-03-7.81082E-14-1.06577E-13
 -1       788 2.00022E+01-1.72062E-04-1.78979E-07 3.74431E-03-4.44292E-14 2.23784E-13
 -1       789 2.00016E+01-9.24128E-04-1.84858E-07 3.79817E-03 3.47580E-14 6.74267E-14
 -1       790 2.00011E+01-1.31946E-03-1.75824E-07 3.60732E-03 1.38353E-13-9.34717E-14
 -1       791 2.00008E+01-1.48220E-03-1.69798E-07 3.28005E-03 1.03980E-13-3.53443E-13
 -1       792 2.00004E+01-1.50661E-03-1.08218E-07 2.88809E-03-1.37092E-13-2.35864E-13
 -1       793 2.00002E+01-1.46349E-03 2.20001E-08 2.47681E-03 5.75449E-14-1.91928E-13
 -1       794 2.00000E+01-1.38438E-03-3.97042E-07 2.12866E-03-3.95090E-14-3.81420E-13
 -1       795 2.03494E+01-8.69236E-01-6.38335E-04 2.62669E+00-1.81932E-13-1.85721E-13
 -1       796 1.99016E+01-5.25875E-02 1.30902E-04 2.30102E+00 4.93132E-14-1.30900E-13
 -1       797 1.97727E+01 3.97287E-01 3.24619E-04 1.95990E+00 5.37799E-14-2.03263E-13
 -1       798 1.97842E+01 5.96714E-01 2.41523E-04 1.64925E+00 6.88521E-14-2.00213E-13
 -1       799 1.98439E+01 6.47054E-01 2.07801E-04 1.37224E+00-7.08520E-14-3.11532E-13
 -1       800 1.99088E+01 6.16632E-01 1.85186E-04 1.12769E+00 3.10315E-14-4.17856E-14
 -1       801 1.99618E+01 5.48279E-01 1.57575E-04 9.14398E-01 7.36838E-14-5.60859E-14
 -1       802 1.99990E+01 4.66917E-01 1.28808E-04 7.31094E-01 1.16027E-13-1.20388E-13
 -1       803 2.00218E+01 3.85977E-01 1.02516E-04 5.76137E-01 1.80455E-13-3.06717E-14
 -1       804 2.00336E+01 3.12033E-01 8.01491E-05 4.47344E-01 8.83549E-14-1.22441E-13
 -1       805 2.00377E+01 2.47733E-01 6.18457E-05 3.42054E-01 9.99315E-14-3.30911E-13
 -1       806 2.00371E+01 1.93595E-01 4.71622E-05 2.57341E-01 1.36936E-13-1.09830E-13
 -1       807 2.00338E+01 1.49056E-01 3.55328E-05 1.90235E-01 1.66757E-13-9.72217E-14
 -1       808 2.00293E+01 1.13077E-01 2.64216E-05 1.37892E-01-8.61607E-15-1.90626E-13
 -1       809 2.00244E+01 8.44605E-02 1.93581E-05 9.76964E-02-1.20551E-13-1.76087E-13
 -1       810 2.00198E+01 6.20249E-02 1.39415E-05 6.73284E-02-7.79078E-14-1.58682E-13
 -1       811 2.00156E+01 4.46799E-02 9.83627E-06 4.47825E-02-2.70424E-13-1.85467E-13
 -1       812 2.00120E+01 3.14621E-02 6.76522E-06 2.83648E-02-1.99845E-13-3.18101E-13
 -1       813 2.00091E+01 2.15427E-02 4.50155E-06 1.66722E-02-9.33859E-14-3.46667E-13
 -1       814 2.00067E+01 1.42236E-02 2.86147E-06 8.56332E-03-1.83246E-13 4.84257E-14
 -1       815 2.00048E+01 8.92597E-03 1.69739E-06 3.12519E-03-2.43249E-14 6.69529E-14
 -1       816 2.00033E+01 5.17765E-03 8.91873E-07-3.60885E-04-3.04286E-13-1.37261E-13
 -1       817 2.00022E+01 2.59831E-03 3.52421E-07-2.45144E-03-5.39077E-14-2.41143E-13
 -1       818 2.00014E+01 8.85863E-04 7.15385E-09-3.57027E-03-2.22753E-13 2.28746E-13
 -1       819 2.00008E+01-1.96593E-04-1.99941E-07-4.03433E-03-3.42287E-14 4.41583E-15
 -1       820 2.00004E+01-8.32639E-04-3.16686E-07-4.07581E-03-2.94259E-13-8.31236E-14
 -1       821 2.00001E+01-1.16298E-03-3.80204E-07-3.86058E-03-2.17615E-13-9.26103E-14
 -1       822 1.99999E+01-1.29446E-03-4.35848E-07-3.50334E-03 2.82661E-13-8.12680E-15
 -1       823 1.99998E+01-1.30757E-03-3.61571E-07-3.07935E-03 4.05440E-13-2.57365E-14
 -1       824 1.99997E+01-1.26353E-03-3.89675E-07-2.63782E-03 4.58645E-13-9.48322E-14
 -1       825 1.99997E+01-1.20759E-03-1.61234E-07-2.20078E-03 5.35359E-13-1.20163E-13
 -1       826 1.99997E+01-1.23112E-03 4.14687E-07-1.93555E-03 2.60764E-13-1.25857E-14
 -1       827 2.30916E+01-6.14638E-01 5.48957E-04-6.93646E-01-4.88815E-14-1.17270E-13
 -1       828 1.02127E+01 2.92454E+00 7.22588E-02 1.40564E+00 1.85250E-13-7.32522E-13
 -1       829 2.00015E+01-2.29319E-03 2.36212E-07 8.18204E-06-2.89577E-14 4.67254E-13
 -1       830 2.00007E+01-1.78858E-03 4.90088E-07 1.73164E-03-4.05152E-13 5.70396E-14
 -1       831 1.93769E+01-2.23791E+00 5.74939E-02 4.62690E+00 3.10826E-13-3.36778E-13
 -1       832 1.85516E+01-1.79759E+00 6.31507E-02-3.95285E+00-1.20719E-13-4.04959E-13
 -1       833 2.00011E+01-2.06387E-03 3.24045E-08 1.27003E-03-3.74982E-13 1.15701E-14
 -1       834 2.13752E+01-2.13969E+00 1.11129E-02 2.85173E+00-2.59021E-13-2.50258E-13
 -1       835 2.57448E+01-3.34790E+00-1.52717E-02-5.18530E-01 8.83195E-14-6.21786E-13
 -1       836 1.35913E+01 8.86700E-01 6.93103E-02-3.28700E+00-5.05516E-14-5.74801E-13
 -1       837 2.42073E+01-3.91371E+00 2.45563E-02 2.19397E+00-1.44094E-13-4.80406E-13
 -1       838 1.12291E+01 6.43269E-01 8.22261E-02-1.94691E+00 1.73600E-13 4.54125E-13
 -1       839 1.11555E+01 5.52095E-01 7.92810E-02 1.88456E+00-1.60054E-14 3.18100E-13
 -1       840 2.43453E+01-1.19984E+00 1.31955E-03-1.25175E+00-5.06585E-14-1.94896E-14
 -1       841 2.64026E+01-1.18654E+00-3.49646E-02-1.38462E+00-7.31238E-14 1.04968E-13
 -1       842 2.24342E+01-4.34811E+00 1.21315E-02-3.91998E+00 2.80935E-13-2.70723E-13
 -1       843 2.66496E+01-4.83212E-01-4.90874E-02 1.70172E+00-1.35050E-13-6.29463E-13
 -1       844 2.51005E+01 4.56132E+00-8.27033E-02 9.63095E-01-5.15536E-13-3.81935E-13
 -1       845 2.35951E+01-3.02143E+00 2.27100E-02-2.01499E+00-1.08794E-13-9.26763E-14
 -1       846 2.00014E+01-2.23325E-03 2.56556E-07 6.73864E-04-3.17985E-13-2.39322E-13
 -1       847 2.21632E+01-1.53270E+00-5.07168E-04-1.77584E+00-1.38283E-14-1.32633E-13
 -1       848 1.47804E+01-9.33002E-01 5.68079E-02 4.14167E+00-2.55177E-13 6.47052E-16
 -1       849 1.02287E+01 2.26142E+00 6.81979E-02 2.72935E+00 2.49584E-13-7.34090E-13
 -1       850 1.93438E+01-3.62010E+00 5.17936E-02-5.11775E+00 4.31535E-13 1.69864E-14
 -1       851 1.95349E+01-3.18457E+00 4.18986E-02 4.47783E+00-3.36134E-13-8.34905E-14
 -1       852 1.42238E+01-1.35833E+00 6.98461E-02-4.83265E+00 3.67997E-13 3.08156E-13
 -1       853 2.59053E+01 2.07154E+00-6.04855E-02-2.40940E+00-3.83461E-13 1.28474E-13
 -1       854 1.26968E+01 2.00400E+00 7.48234E-02 3.47794E+00 2.75694E-13-6.82445E-13
 -1       855 2.22727E+01-1.04914E+00-1.38107E-04 8.49983E-01 9.51907E-14-1.90822E-13
 -1       856 2.25063E+01-2.60974E+00 9.72711E-04 2.65694E+00 2.32922E-13-1.80308E-13
 -1       857 2.00007E+01-1.79876E-03-5.43721E-07-1.72868E-03 1.55599E-13 3.17103E-13
 -1       858 2.00011E+01-2.07068E-03-2.52924E-08-1.26534E-03 1.38799E-13-1.04017E-13
 -1       859 2.00014E+01-2.23776E-03 1.42200E-07-6.62544E-04 1.15857E-13 3.22623E-14
 -1       860 2.00004E+01-1.59711E-03-1.06512E-06 1.96072E-03-4.94881E-13-2.54897E-13
 -1       861 2.01851E+01-7.76602E-01 9.01686E-03 2.54700E+00 1.90497E-13-2.99758E-13
 -1       862 1.83960E+01-1.42011E+00 2.98257E-02 3.71696E+00-2.98298E-13-1.45058E-14
 -1       863 1.08885E+01 2.61581E+00 7.80303E-02-1.24644E+00 5.43506E-14-6.93617E-13
 -1       864 2.44882E+01-2.95169E+00-1.44457E-02-4.44799E-01 4.84413E-14-5.04730E-13
 -1       865 2.28895E+01-2.71684E+00 3.63109E-03-1.34019E+00 1.54406E-13-4.64730E-13
 -1       866 2.15844E+01-1.97431E+00 3.86681E-04-1.70102E+00 1.51913E-13-3.18406E-13
 -1       867 2.06894E+01-1.19758E+00-2.92171E-04-1.71820E+00 1.19289E-13-1.60801E-13
 -1       868 2.01444E+01-5.67083E-01 6.48397E-05-1.57495E+00-2.16378E-14-8.50443E-14
 -1       869 1.98478E+01-1.18320E-01 9.40038E-05-1.37405E+00 5.04383E-14-7.57491E-14
 -1       870 1.97116E+01 1.70707E-01 6.80432E-05-1.16646E+00 7.25228E-14 7.91572E-14
 -1       871 1.96718E+01 3.36129E-01 5.10601E-05-9.72673E-01 7.34342E-14 6.83852E-15
 -1       872 1.96853E+01 4.13016E-01 3.37960E-05-7.99536E-01 3.11001E-14-4.76711E-14
 -1       873 1.97251E+01 4.30255E-01 2.12206E-05-6.48564E-01 1.76648E-13-9.84584E-15
 -1       874 1.97745E+01 4.10279E-01 1.29482E-05-5.19220E-01 5.62491E-14 4.99836E-14
 -1       875 1.98238E+01 3.69505E-01 8.12502E-06-4.10041E-01 4.33996E-14-9.08108E-14
 -1       876 1.98682E+01 3.19286E-01 5.21176E-06-3.19184E-01-3.81409E-14-1.39050E-13
 -1       877 1.99056E+01 2.67058E-01 3.32874E-06-2.44665E-01-7.25906E-14-9.94671E-14
 -1       878 1.99356E+01 2.17365E-01 2.06373E-06-1.84449E-01-6.56821E-14-9.47062E-14
 -1       879 1.99587E+01 1.72704E-01 1.20946E-06-1.36531E-01 7.15925E-14-1.86307E-13
 -1       880 1.99758E+01 1.34181E-01 6.41037E-07-9.89940E-02 1.13313E-13-1.84921E-15
 -1       881 1.99880E+01 1.02002E-01 2.72854E-07-7.00662E-02 2.40461E-13-4.40287E-14
 -1       882 1.99963E+01 7.58346E-02 4.35354E-08-4.81534E-02 1.60181E-13-1.52362E-13
 -1       883 2.00016E+01 5.50528E-02-9.10721E-08-3.18591E-02 3.18784E-14-1.18572E-13
 -1       884 2.00048E+01 3.89069E-02-1.62432E-07-1.99891E-02-9.94400E-15-7.61682E-14
 -1       885 2.00064E+01 2.66282E-02-1.92705E-07-1.15433E-02 3.29102E-13-1.13764E-13
 -1       886 2.00069E+01 1.74922E-02-1.97338E-07-5.70112E-03-5.45474E-14-2.16915E-14
 -1       887 2.00068E+01 1.08518E-02-1.87081E-07-1.80142E-03-2.76333E-14 3.96854E-14
 -1       888 2.00063E+01 6.15101E-03-1.69596E-07 6.78609E-04-1.55831E-13-7.17567E-14
 -1       889 2.00055E+01 2.92624E-03-1.50587E-07 2.14519E-03-1.49468E-13 1.20708E-13
 -1       890 2.00047E+01 8.00275E-04-1.33489E-07 2.90816E-03 5.76973E-15 1.01848E-13
 -1       891 2.00039E+01-5.27575E-04-9.84634E-08 3.19929E-03-2.82476E-14 1.07481E-14
 -1       892 2.00031E+01-1.29288E-03-5.78401E-08 3.18788E-03 2.10828E-14 1.32411E-13
 -1       893 2.00024E+01-1.67648E-03-1.93345E-08 2.99460E-03 4.96819E-14-1.34630E-14
 -1       894 2.00018E+01-1.81715E-03-1.24093E-07 2.70318E-03 1.87474E-13 2.92050E-13
 -1       895 2.00012E+01-1.82174E-03-5.46554E-07 2.36638E-03 5.14173E-14 4.59153E-13
 -1       896 1.41903E+01 2.63649E-02 3.01884E-02-3.13999E+00 2.64760E-13 3.35261E-13
 -1       897 1.81939E+01 4.23853E-02 1.87788E-03 2.63618E+00-1.53328E-13-1.40582E-13
 -1       898 1.90017E+01 8.75705E-01 1.27943E-04 1.36017E+00 4.12792E-14 1.73174E-13
 -1       899 1.92555E+01 8.42699E-01 7.35852E-05 1.11702E+00 1.59558E-15-6.92377E-14
 -1       900 1.94606E+01 7.60147E-01 4.57128E-05 9.14522E-01 7.56897E-14 3.11161E-14
 -1       901 1.96190E+01 6.57803E-01 2.83978E-05 7.42362E-01 5.71885E-14 1.05732E-13
 -1       902 1.97377E+01 5.52621E-01 1.68039E-05 5.95507E-01 1.61327E-13 1.65293E-13
 -1       903 1.98244E+01 4.53802E-01 9.88763E-06 4.71196E-01 1.64305E-13 1.78406E-13
 -1       904 1.98863E+01 3.65745E-01 6.07222E-06 3.67312E-01 1.00162E-13 2.47341E-13
 -1       905 1.99296E+01 2.89985E-01 3.93375E-06 2.81806E-01 6.60987E-14 1.93906E-13
 -1       906 1.99593E+01 2.26446E-01 2.65333E-06 2.12549E-01 2.37717E-13-5.06883E-14
 -1       907 1.99791E+01 1.74217E-01 1.83188E-06 1.57366E-01 8.42071E-14 1.37891E-14
 -1       908 1.99919E+01 1.32012E-01 1.27665E-06 1.14117E-01-1.30527E-13 9.81300E-14
 -1       909 1.99998E+01 9.84277E-02 8.88083E-07 8.07902E-02-2.20122E-13 2.93535E-13
 -1       910 2.00044E+01 7.20930E-02 6.10467E-07 5.55532E-02 7.33336E-14 3.21247E-13
 -1       911 2.00068E+01 5.17428E-02 4.10291E-07 3.67954E-02-8.08585E-14 1.48601E-14
 -1       912 2.00078E+01 3.62534E-02 2.66062E-07 2.31360E-02-1.94010E-13 1.65736E-13
 -1       913 2.00078E+01 2.46528E-02 1.63128E-07 1.34189E-02-3.17806E-13 3.30028E-13
 -1       914 2.00073E+01 1.61184E-02 9.09526E-08 6.69658E-03-6.53943E-14 7.58140E-14
 -1       915 2.00065E+01 9.96594E-03 4.16336E-08 2.20682E-03-3.26048E-14 2.01294E-13
 -1       916 2.00055E+01 5.63597E-03 9.04569E-09-6.52342E-04-5.59271E-14 2.82574E-14
 -1       917 2.00046E+01 2.67751E-03-1.15305E-08-2.34788E-03-3.41110E-13 6.33369E-14
 -1       918 2.00037E+01 7.32343E-04-2.33345E-08-3.23554E-03-1.55310E-13 2.21289E-13
 -1       919 2.00030E+01-4.80247E-04-3.13528E-08-3.58120E-03-9.11757E-15 1.80010E-13
 -1       920 2.00023E+01-1.17773E-03-6.53439E-08-3.57929E-03-1.07378E-13-1.83514E-13
 -1       921 2.00017E+01-1.52669E-03-1.25340E-07-3.36820E-03-1.15972E-13-3.73575E-13
 -1       922 2.00012E+01-1.65228E-03-4.06616E-07-3.04340E-03 2.58215E-13-2.44800E-13
 -1       923 2.00008E+01-1.65341E-03-1.15151E-07-2.66506E-03 5.59101E-13-3.20445E-13
 -1       924 2.00005E+01-1.59124E-03-4.15980E-07-2.27766E-03 5.23533E-13-2.48082E-14
 -1       925 2.00002E+01-1.52873E-03-4.79002E-08-1.90366E-03 1.69901E-13 5.73497E-14
 -1       926 2.49045E+01-2.13537E+00 2.81017E-03-2.25884E-02 6.73622E-14-2.51656E-14
 -1       927 1.77628E+01-2.09617E+00 3.01839E-02-4.41028E+00 4.40173E-13 6.19062E-14
 -1       928 2.00014E+01-1.99164E-03 9.14332E-07 1.76410E-03-3.47583E-13-7.51300E-14
 -1       929 1.87078E+01 8.10526E-01 3.73116E-04 1.66409E+00 1.78500E-14 7.50807E-14
 -1       930 1.84046E+01 5.73276E-01 1.30052E-03 2.06751E+00 7.64949E-14 8.12349E-15
 -1       931 1.66492E+01 3.18946E-01 3.28418E-02 3.80031E+00 2.77464E-13-4.68704E-13
 -1       932 1.43297E+01 4.45935E-01 2.81180E-02 2.53956E+00-1.08043E-13-7.72290E-14
 -1       933 2.10641E+01-3.36407E+00 1.00398E-02-3.72761E+00 3.86476E-13-1.52532E-13
 -1       934 1.27913E+01 1.12059E+00 3.00998E-02-7.24272E-03 8.45388E-14 2.61471E-13
 -1       935 2.00007E+01-1.71088E-03-5.24018E-07 2.17552E-03-9.58695E-14-7.84873E-14
 -1       936 1.42849E+01 9.13796E-01 1.24586E-02-1.47614E+00 1.56306E-13 3.32458E-13
 -1       937 2.00021E+01-2.34678E-03 5.75469E-07-3.82388E-04-9.91685E-14 1.65689E-13
 -1       938 2.00019E+01-2.22333E-03-2.16877E-08 1.13938E-03-2.75332E-13 1.93100E-14
 -1       939 2.00021E+01-2.33816E-03 1.05684E-06 3.96845E-04-2.68052E-13-5.30519E-14
 -1       940 2.34405E+01-3.45227E+00 1.67494E-03-1.91164E+00 1.84375E-13-5.12626E-13
 -1       941 2.00014E+01-2.01277E-03 6.33064E-07-1.76588E-03-2.58384E-15-1.52747E-13
 -1       942 1.92004E+01 8.39640E-01-6.06535E-05 6.47048E-01 2.29993E-14 1.86736E-14
 -1       943 2.10039E+01-2.48958E+00 5.30047E-03-2.78025E+00 2.91092E-13-2.55506E-13
 -1       944 1.99550E+01-1.41439E+00 5.98436E-04-2.46973E+00 1.85436E-13-1.14927E-13
 -1       945 1.94187E+01-6.11490E-01 4.05719E-04-2.06132E+00 9.51475E-14-8.92943E-14
 -1       946 1.92033E+01-7.16893E-02 3.35249E-04-1.66234E+00 2.56041E-14 7.55394E-14
 -1       947 1.91607E+01 2.68142E-01 6.36489E-05-1.32538E+00 4.12668E-14-2.03698E-14
 -1       948 1.92131E+01 4.58253E-01-2.24856E-06-1.05131E+00 7.70578E-14-5.21611E-14
 -1       949 1.93095E+01 5.45188E-01-1.36570E-05-8.31414E-01 1.41618E-13 5.89373E-14
 -1       950 1.94218E+01 5.62296E-01-2.17939E-05-6.54852E-01 1.95202E-13 8.63093E-14
 -1       951 1.95332E+01 5.35428E-01-2.10963E-05-5.13179E-01 1.15787E-13 1.38908E-13
 -1       952 1.96347E+01 4.83630E-01-1.77526E-05-3.99418E-01-4.94732E-14 1.07352E-13
 -1       953 1.97225E+01 4.20156E-01-1.41763E-05-3.08146E-01-8.21680E-14 5.13516E-14
 -1       954 1.97953E+01 3.53859E-01-1.11404E-05-2.35201E-01-4.35508E-14 2.43325E-14
 -1       955 1.98537E+01 2.90315E-01-8.71178E-06-1.77283E-01 3.85815E-16 6.81645E-14
 -1       956 1.98992E+01 2.32712E-01-6.77482E-06-1.31695E-01-7.28921E-14 1.31961E-13
 -1       957 1.99337E+01 1.82569E-01-5.22107E-06-9.61878E-02 1.14952E-13 4.94574E-14
 -1       958 1.99592E+01 1.40285E-01-3.97382E-06-6.88624E-02 8.69969E-14 6.90056E-14
 -1       959 1.99773E+01 1.05564E-01-2.97822E-06-4.81171E-02 2.36519E-13 9.72692E-15
 -1       960 1.99899E+01 7.77088E-02-2.19168E-06-3.26057E-02 5.67426E-14 4.88138E-15
 -1       961 1.99981E+01 5.58368E-02-1.57871E-06-2.12063E-02 1.38860E-13 1.36788E-13
 -1       962 2.00033E+01 3.90131E-02-1.10853E-06-1.29941E-02 6.91540E-14 1.63990E-13
 -1       963 2.00062E+01 2.63378E-02-7.54353E-07-7.21666E-03 1.62862E-13-5.69227E-14
 -1       964 2.00075E+01 1.69932E-02-4.93171E-07-3.26941E-03-2.51499E-14-9.60648E-14
 -1       965 2.00078E+01 1.02666E-02-3.06078E-07-6.73700E-04-1.03198E-15 1.14815E-13
 -1       966 2.00075E+01 5.55621E-03-1.79076E-07 9.43926E-04-3.86159E-14 2.31472E-13
 -1       967 2.00068E+01 2.36660E-03-1.04174E-07 1.87030E-03-3.00038E-14 1.76243E-13
 -1       968 2.00059E+01 2.98927E-04-7.84404E-08 2.32211E-03 1.42015E-14 8.35318E-14
 -1       969 2.00049E+01-9.62273E-04-1.66755E-08 2.46025E-03 1.23604E-13 1.74520E-13
 -1       970 2.00040E+01-1.66365E-03 4.17772E-08 2.40006E-03 3.25740E-15 2.53610E-13
 -1       971 2.00031E+01-1.98925E-03-3.67303E-08 2.22520E-03 3.14558E-13 1.88634E-13
 -1       972 2.00023E+01-2.09031E-03-7.78788E-08 1.98928E-03 1.12507E-13 3.63443E-15
 -1       973 1.85484E+01 1.05282E+00-2.15049E-05 9.39499E-01 1.12437E-13-2.19849E-15
 -1       974 1.94178E+01 7.16167E-01-5.77014E-05 5.31352E-01 4.60253E-14-1.69975E-14
 -1       975 1.95823E+01 5.97251E-01-5.01435E-05 4.30555E-01 3.76224E-14 9.67617E-14
 -1       976 1.97053E+01 4.88688E-01-4.06822E-05 3.43502E-01 2.00300E-13 3.09735E-13
 -1       977 1.97964E+01 3.93151E-01-3.16467E-05 2.69477E-01 1.65475E-13 1.28289E-13
 -1       978 1.98628E+01 3.11357E-01-2.39973E-05 2.07680E-01 2.39046E-13 1.85843E-13
 -1       979 1.99107E+01 2.42856E-01-1.78457E-05 1.57076E-01 1.56093E-13 2.16377E-13
 -1       980 1.99447E+01 1.86555E-01-1.30228E-05 1.16424E-01-1.62302E-13 4.12065E-13
 -1       981 1.99683E+01 1.41053E-01-9.30814E-06 8.43807E-02-1.38460E-13 3.44413E-13
 -1       982 1.99843E+01 1.04853E-01-6.49333E-06 5.95967E-02-2.94749E-14 1.35250E-13
 -1       983 1.99947E+01 7.64901E-02-4.39612E-06 4.07936E-02 5.93062E-14 1.74459E-13
 -1       984 2.00013E+01 5.46070E-02-2.86183E-06 2.68141E-02-1.88617E-13 4.64624E-14
 -1       985 2.00051E+01 3.79909E-02-1.76207E-06 1.66472E-02-1.03781E-13-4.45247E-14
 -1       986 2.00070E+01 2.55881E-02-9.92295E-07 9.43560E-03-1.01695E-13-1.61634E-13
 -1       987 2.00077E+01 1.65034E-02-4.68983E-07 4.47045E-03-1.11871E-13-1.90814E-13
 -1       988 2.00076E+01 9.99139E-03-1.26502E-07 1.17865E-03-1.09439E-14-1.40382E-13
 -1       989 2.00070E+01 5.44186E-03 8.59295E-08-8.93706E-04-4.91932E-14-2.36291E-13
 -1       990 2.00062E+01 2.36327E-03 2.07653E-07-2.09900E-03-3.13382E-13-3.81484E-13
 -1       991 2.00053E+01 3.65728E-04 2.70195E-07-2.70541E-03 5.55534E-14-4.98686E-13
 -1       992 2.00043E+01-8.55605E-04 2.73002E-07-2.91316E-03 3.09922E-14-8.23686E-13
 -1       993 2.00035E+01-1.53722E-03 2.54415E-07-2.86803E-03-1.82329E-13-6.39164E-13
 -1       994 2.00027E+01-1.85640E-03 7.68958E-07-2.67427E-03-1.15543E-13-3.88840E-13
 -1       995 2.00020E+01-1.96098E-03 1.00588E-06-2.40626E-03 4.18098E-13-3.08782E-13
 -1       996 1.69275E+01-7.56978E-01 9.63381E-03-3.35416E+00 2.27395E-13 9.82521E-14
 -1       997 2.00019E+01-2.23464E-03 4.52673E-07-1.12854E-03-2.20573E-14-1.64512E-13
 -1       998 1.80775E+01 1.09739E+00-6.86563E-05 1.14194E+00 7.86632E-15-6.50569E-14
 -1       999 1.89164E+01 9.57336E-01-5.71225E-05 7.80397E-01-2.39538E-14-2.28004E-14
 -1      1000 1.47145E+01 1.09936E+00 4.33244E-03 1.11448E+00-1.10369E-13 2.27283E-14
 -1      1001 1.89916E+01-1.75386E+00 1.31898E-02-3.42429E+00 3.23197E-13-9.57502E-14
 -1      1002 1.67290E+01 8.22336E-01 3.90696E-03 1.90194E+00-1.61029E-13-8.88374E-14
 -1      1003 2.00028E+01-2.20179E-03-1.00574E-06-1.67117E-03 1.36228E-13-5.49413E-13
 -1      1004 1.60394E+01 3.32321E-01 7.06783E-03-2.33731E+00 1.53425E-13 1.58969E-13
 -1      1005 2.00033E+01-2.33828E-03-1.18670E-06-7.93695E-04-2.41918E-13-4.45898E-13
 -1      1006 1.50715E+01 1.25585E+00 5.96505E-03-1.60715E-01-1.00371E-14 6.15310E-14
 -1      1007 1.74815E+01 1.04946E+00-7.02035E-04 1.42338E+00-4.33260E-14 5.89529E-14
 -1      1008 2.00034E+01-2.36742E-03-3.31057E-06 1.45825E-04-4.38112E-13 6.00939E-14
 -1      1009 1.83961E+01 1.10709E+00-1.33146E-04 4.95285E-01 7.59199E-14-7.30343E-14
 -1      1010 1.82031E+01-4.58035E-01 5.25298E-03-2.55703E+00 1.81906E-13-9.45820E-14
 -1      1011 1.82513E+01 1.04622E-01-5.60067E-04-1.90696E+00 1.41509E-13-1.12374E-13
 -1      1012 1.84284E+01 4.51090E-01 1.65752E-05-1.41914E+00 6.88485E-15-2.31126E-14
 -1      1013 1.86454E+01 6.33771E-01-6.41200E-05-1.06154E+00 1.42872E-13 1.21985E-13
 -1      1014 1.88682E+01 7.08395E-01-1.91171E-04-7.99582E-01 1.02298E-13 1.29252E-14
 -1      1015 1.90780E+01 7.12661E-01-1.88466E-04-6.02707E-01 2.42600E-13-9.68625E-14
 -1      1016 1.92663E+01 6.70949E-01-1.27216E-04-4.55517E-01 1.58751E-13-9.64831E-14
 -1      1017 1.94283E+01 6.03844E-01-1.02649E-04-3.44314E-01-2.84117E-14-1.98987E-13
 -1      1018 1.95641E+01 5.24948E-01-8.43609E-05-2.59553E-01-7.73374E-14-1.45561E-13
 -1      1019 1.96750E+01 4.43564E-01-6.96736E-05-1.94670E-01 3.91123E-14-1.16089E-13
 -1      1020 1.97637E+01 3.65729E-01-5.72808E-05-1.44936E-01-8.61667E-15 4.25995E-14
 -1      1021 1.98329E+01 2.95005E-01-4.65897E-05-1.06864E-01-4.99157E-14 1.00728E-13
 -1      1022 1.98858E+01 2.33145E-01-3.73673E-05-7.78251E-02 1.89537E-14 1.84112E-13
 -1      1023 1.99254E+01 1.80661E-01-2.95031E-05-5.58090E-02 1.11765E-14 1.17621E-13
 -1      1024 1.99542E+01 1.37260E-01-2.29056E-05-3.92538E-02 1.49483E-13 3.10488E-14
 -1      1025 1.99746E+01 1.02171E-01-1.74695E-05-2.69346E-02 1.85705E-13-8.58154E-17
 -1      1026 1.99886E+01 7.43852E-02-1.30723E-05-1.78852E-02 1.98637E-13 1.53914E-13
 -1      1027 1.99978E+01 5.28151E-02-9.58045E-06-1.13415E-02 8.33538E-14 6.21330E-14
 -1      1028 2.00035E+01 3.63969E-02-6.85840E-06-6.69998E-03 3.21291E-14-4.49290E-14
 -1      1029 2.00067E+01 2.41524E-02-4.77633E-06-3.48600E-03 4.43102E-14 1.03930E-14
 -1      1030 2.00082E+01 1.52192E-02-3.21564E-06-1.32868E-03 5.43366E-14-7.96867E-14
 -1      1031 2.00085E+01 8.86154E-03-2.07324E-06 5.92585E-05-6.89865E-14-9.15468E-14
 -1      1032 2.00082E+01 4.46770E-03-1.26573E-06 8.97903E-04-6.80377E-14 3.15075E-14
 -1      1033 2.00074E+01 1.54062E-03-7.26310E-07 1.35358E-03 1.10735E-13 1.60884E-13
 -1      1034 2.00064E+01-3.15371E-04-4.53343E-07 1.55004E-03 1.21597E-13 2.49129E-13
 -1      1035 2.00053E+01-1.41143E-03-1.45006E-07 1.57971E-03 1.14989E-13 3.16571E-13
 -1      1036 2.00043E+01-1.98634E-03-1.63904E-07 1.50284E-03 9.55479E-14 3.68924E-13
 -1      1037 2.00034E+01-2.22645E-03 1.62204E-06 1.37919E-03 5.72824E-14 2.79046E-13
 -1      1038 1.95170E+01 6.02363E-01-1.59243E-04 2.63303E-01 6.48440E-14-1.48947E-13
 -1      1039 1.91014E+01 8.54442E-01-2.38649E-04 3.74954E-01-3.72180E-16-3.38461E-14
 -1      1040 1.96535E+01 4.92086E-01-1.26088E-04 2.13587E-01 1.57672E-13-1.28264E-13
 -1      1041 1.97562E+01 3.95404E-01-9.87376E-05 1.69531E-01 8.16394E-14 6.74239E-14
 -1      1042 1.98325E+01 3.12707E-01-7.65727E-05 1.31679E-01 3.96648E-14 4.26283E-13
 -1      1043 1.98884E+01 2.43451E-01-5.87393E-05 1.00055E-01-7.98420E-14 6.16926E-13
 -1      1044 1.99288E+01 1.86532E-01-4.44923E-05 7.43007E-02-1.08323E-14 5.28096E-13
 -1      1045 1.99575E+01 1.40553E-01-3.32159E-05 5.38147E-02 7.67945E-14 4.79069E-13
 -1      1046 1.99772E+01 1.04018E-01-2.43907E-05 3.78820E-02 2.42471E-14 1.92926E-13
 -1      1047 1.99905E+01 7.54499E-02-1.75716E-05 2.57617E-02 3.01676E-14 1.05646E-13
 -1      1048 1.99990E+01 5.34719E-02-1.23761E-05 1.67482E-02-5.13161E-14 2.20131E-13
 -1      1049 2.00042E+01 3.68472E-02-8.47775E-06 1.02058E-02 4.57092E-15 7.42179E-14
 -1      1050 2.00070E+01 2.44978E-02-5.60190E-06 5.58470E-03-1.00693E-13-1.28032E-13
 -1      1051 2.00082E+01 1.55072E-02-3.52047E-06 2.42506E-03-1.00771E-13-3.05536E-13
 -1      1052 2.00084E+01 9.11161E-03-2.04635E-06 3.52450E-04 8.12569E-14-1.30322E-13
 -1      1053 2.00079E+01 4.68675E-03-1.02662E-06-9.30651E-04 2.29989E-14-2.94353E-13
 -1      1054 2.00071E+01 1.73065E-03-3.31370E-07-1.65536E-03-2.63049E-14-4.53151E-13
 -1      1055 2.00061E+01-1.53677E-04 2.10402E-07-1.99678E-03 4.79788E-14-4.81848E-13
 -1      1056 2.00051E+01-1.27354E-03 5.15378E-07-2.08570E-03-1.79293E-13-4.08608E-13
 -1      1057 2.00041E+01-1.86690E-03 1.70444E-06-2.01940E-03-2.17342E-13-5.36393E-13
 -1      1058 2.00034E+01-2.09647E-03 1.72301E-07-1.85793E-03-3.79873E-14-7.81551E-13
 -1      1059 1.93371E+01 7.24428E-01-1.97403E-04 3.17571E-01 6.00792E-14-3.17581E-14
 -1      1060 2.00028E+01-2.33502E-03-6.78964E-07 8.55422E-04-2.45399E-13 2.51513E-14
 -1      1061 1.78735E+01 1.20663E+00 6.44861E-05 5.64412E-01 7.52598E-14-8.71355E-14
 -1      1062 1.87942E+01 9.85577E-01-2.93207E-04 4.34456E-01-2.66518E-14-2.64561E-14
 -1      1063 1.58968E+01 9.92438E-01 1.91340E-03-1.19103E+00 7.95612E-14 2.93396E-13
 -1      1064 1.71814E+01 1.26622E+00 5.92461E-06 6.55056E-01 3.48090E-14-5.51484E-14
 -1      1065 2.00040E+01-2.21461E-03-4.57709E-07-9.12094E-04-8.63115E-14-7.94429E-13
 -1      1066 2.00042E+01-2.25796E-03-5.47423E-07 1.03532E-04-2.72161E-13 3.13837E-13
 -1      1067 1.61915E+01 1.23870E+00 1.84894E-03 8.87145E-01-1.39329E-13-9.51302E-14
 -1      1068 1.74997E+01 7.28476E-01 2.70191E-04-1.34170E+00 1.95352E-13 5.28034E-14
 -1      1069 1.79821E+01 8.57674E-01-3.78575E-04-9.42421E-01 1.83108E-13 8.87173E-14
 -1      1070 1.83576E+01 9.13627E-01 1.12941E-03-6.68626E-01 5.04442E-14 1.22175E-13
 -1      1071 1.86994E+01 8.81441E-01-1.05473E-05-4.69078E-01 2.56322E-14 7.58456E-14
 -1      1072 1.89815E+01 8.14494E-01-1.48778E-04-3.33119E-01 1.17506E-13-2.55741E-13
 -1      1073 1.92130E+01 7.27074E-01-1.12672E-04-2.36155E-01 2.70949E-14-3.03737E-13
 -1      1074 1.94013E+01 6.30223E-01-8.45788E-05-1.67286E-01 2.38953E-14-7.65221E-14
 -1      1075 1.95526E+01 5.32672E-01-6.34248E-05-1.18392E-01-3.91713E-14 6.74418E-14
 -1      1076 1.96722E+01 4.40286E-01-4.59647E-05-8.36453E-02 6.15867E-14-1.53691E-13
 -1      1077 1.97653E+01 3.56587E-01-3.15270E-05-5.89109E-02 4.10494E-14-1.75098E-13
 -1      1078 1.98366E+01 2.83322E-01-2.00351E-05-4.12749E-02 4.00858E-15-4.49392E-16
 -1      1079 1.98901E+01 2.20974E-01-1.13070E-05-2.86864E-02-3.50326E-14 6.61172E-14
 -1      1080 1.99295E+01 1.69181E-01-4.99702E-06-1.97016E-02 4.55105E-14 4.46749E-14
 -1      1081 1.99578E+01 1.27072E-01-6.78064E-07-1.33007E-02 8.18786E-14 1.11306E-13
 -1      1082 1.99776E+01 9.35096E-02 2.08247E-06-8.76032E-03 1.54404E-13 2.17714E-16
 -1      1083 1.99910E+01 6.72607E-02 3.67711E-06-5.56355E-03 6.34163E-14-1.04125E-13
 -1      1084 1.99996E+01 4.71131E-02 4.43751E-06-3.33833E-03 2.53808E-14-4.55623E-14
 -1      1085 2.00048E+01 3.19429E-02 4.62966E-06-1.81482E-03 2.32649E-15-9.04639E-14
 -1      1086 2.00077E+01 2.07518E-02 4.45798E-06-7.96004E-04 1.06295E-13-1.89053E-13
 -1      1087 2.00088E+01 1.26812E-02 4.07392E-06-1.37355E-04 9.64550E-14-1.07019E-13
 -1      1088 2.00090E+01 7.01173E-03 3.58719E-06 2.67384E-04 6.15989E-14 7.47441E-14
 -1      1089 2.00084E+01 3.15432E-03 3.07856E-06 4.96377E-04 4.82096E-14 1.12772E-13
 -1      1090 2.00075E+01 6.35445E-04 2.56265E-06 6.07332E-04 5.29878E-14 2.30149E-13
 -1      1091 2.00064E+01-9.32761E-04-4.41389E-07 6.39322E-04 2.07551E-13 2.86199E-13
 -1      1092 2.00053E+01-1.78065E-03 2.51637E-06 6.19192E-04 2.36049E-13 4.10150E-13
 -1      1093 1.96507E+01 4.71298E-01 4.75914E-05 9.72379E-02-5.95775E-14 1.02738E-13
 -1      1094 1.97527E+01 3.78224E-01 4.25850E-05 7.98568E-02-1.56755E-13 2.41862E-13
 -1      1095 1.84504E+01 1.06789E+00-5.96730E-04 1.03434E-01-4.36379E-14-1.05031E-13
 -1      1096 1.95166E+01 5.77314E-01 4.91693E-05 1.14058E-01 7.32556E-14-6.50880E-14
 -1      1097 1.98292E+01 2.98531E-01 3.61774E-05 6.34973E-02-4.88800E-15 1.98540E-13
 -1      1098 1.98858E+01 2.31771E-01 2.95410E-05 4.90163E-02-3.18408E-15 2.23843E-14
 -1      1099 1.99270E+01 1.76933E-01 2.33381E-05 3.67660E-02-1.19420E-14 6.31527E-14
 -1      1100 1.99564E+01 1.32699E-01 1.79003E-05 2.67723E-02 2.09367E-13 1.19254E-13
 -1      1101 1.99767E+01 9.76326E-02 1.33473E-05 1.88691E-02 8.00429E-14 1.98505E-13
 -1      1102 1.99904E+01 7.03013E-02 9.67002E-06 1.27933E-02 2.35883E-14 2.14898E-13
 -1      1103 1.99993E+01 4.93617E-02 6.78902E-06 8.24824E-03-4.81166E-14 1.33700E-13
 -1      1104 2.00046E+01 3.36036E-02 4.59267E-06 4.94210E-03 6.28520E-15 2.01196E-13
 -1      1105 2.00075E+01 2.19712E-02 2.96154E-06 2.60971E-03-6.37245E-14 1.51677E-13
 -1      1106 2.00087E+01 1.35675E-02 1.78324E-06 1.02234E-03-1.62739E-14 5.49816E-14
 -1      1107 2.00089E+01 7.64632E-03 9.62429E-07-9.68474E-06 8.85093E-14-4.18204E-14
 -1      1108 2.00084E+01 3.59956E-03 4.29033E-07-6.38869E-04 1.15274E-14-8.55012E-14
 -1      1109 2.00075E+01 9.39722E-04 1.25400E-07-9.84793E-04 1.17589E-13 3.14604E-14
 -1      1110 2.00064E+01-7.18599E-04-9.68647E-08-1.13934E-03 1.27065E-13-1.07196E-13
 -1      1111 2.00053E+01-1.67671E-03-4.98896E-06-1.16832E-03 8.06226E-14-4.69220E-13
 -1      1112 1.93419E+01 6.94546E-01 4.34604E-05 1.27750E-01 1.95045E-13 7.82250E-15
 -1      1113 1.79912E+01 1.16138E+00 8.31595E-04 5.28482E-02 1.01375E-13-1.09533E-13
 -1      1114 1.70669E+01 5.34293E-01 1.48874E-03-1.77309E+00 1.84988E-13 2.45471E-14
 -1      1115 1.91163E+01 8.19570E-01 2.07960E-05 1.34471E-01 5.79622E-14 3.52380E-14
 -1      1116 1.88257E+01 9.46911E-01-5.58674E-05 1.28736E-01-7.85535E-14-1.44457E-14
 -1      1117 1.62409E+01 1.28108E+00 6.73684E-04-8.65617E-02-5.59125E-14-1.96873E-14
 -1      1118 1.73574E+01 1.24111E+00-2.26977E-03-1.85833E-02 9.91580E-14-7.29282E-14
 -1      1119 2.00046E+01-1.99168E-03-2.79437E-06-1.05154E-03 1.13278E-13-6.93601E-13
 -1      1120 2.00051E+01-1.93183E-03 6.28680E-06-2.08802E-04 2.58005E-13-2.43238E-13
 -1      1121 1.78682E+01 1.09286E+00-5.60937E-03-3.79762E-01 1.58842E-13-8.23573E-14
 -1      1122 1.67160E+01 1.07480E+00 1.32927E-03-8.57813E-01 6.55523E-14 9.72988E-14
 -1      1123 1.73842E+01 1.10400E+00 2.37894E-03-5.73979E-01 5.03857E-14-2.59068E-14
 -1      1124 3.14712E+01 1.02089E+01 2.55818E+00-7.04979E+00-4.81282E-14 1.36308E-12
 -1      1125 2.32314E+01 7.05939E+00 2.99792E-01-3.64142E+00-2.44804E-14 1.61891E-13
 -1      1126 2.14337E+01 6.47136E+00 1.37478E-01-2.26853E+00-1.69031E-14-3.37466E-13
 -1      1127 2.02646E+01 6.11440E+00 1.16762E-01-1.29527E+00-9.21485E-15-5.63372E-13
 -1      1128 1.91742E+01 5.78374E+00 1.04907E-01-4.64299E-01-4.96825E-15-6.76074E-13
 -1      1129 1.80239E+01 5.43040E+00 7.74319E-02 2.20258E-01-3.16414E-15-7.37427E-13
 -1      1130 1.68196E+01 5.05526E+00 3.12263E-02 7.00206E-01-1.38778E-15-7.67398E-13
 -1      1131 1.56873E+01 4.69797E+00-2.74420E-02 9.10935E-01 8.46545E-16-7.91433E-13
 -1      1132 1.48640E+01 4.43487E+00-8.11045E-02 8.32367E-01 1.82493E-15-8.03846E-13
 -1      1133 1.45822E+01 4.34147E+00-1.10575E-01 5.41380E-01 2.93689E-15-8.00665E-13
 -1      1134 1.49814E+01 4.46312E+00-1.04358E-01 1.99102E-01 4.49640E-15-7.71749E-13
 -1      1135 1.60378E+01 4.79203E+00-6.43862E-02-5.65446E-03 6.71685E-15-7.11074E-13
 -1      1136 1.76097E+01 5.28144E+00-4.91470E-03 6.82173E-02 1.05194E-14-6.12625E-13
 -1      1137 1.95342E+01 5.87907E+00 6.27027E-02 5.02456E-01 1.25455E-14-4.39959E-13
 -1      1138 2.17014E+01 6.55408E+00 1.45504E-01 1.35302E+00 1.81521E-14-1.34070E-13
 -1      1139 2.42973E+01 7.38586E+00 3.22130E-01 2.82083E+00 1.99840E-14 4.30284E-13
 -1      1140 3.01319E+01 9.54815E+00 1.69509E+00 5.66605E+00 4.30211E-14 1.58112E-12
 -1      1141 3.26105E+01 3.90277E+00 1.29869E+00-4.46561E+00-1.82826E-13 2.11486E-12
 -1      1142 2.40375E+01-1.80953E-01-6.42074E-01-5.72113E-02-6.35603E-14 1.69058E-12
 -1      1143 2.28390E+01-6.58871E-02-1.89839E-01 7.40433E-02-2.19026E-14 1.12757E-12
 -1      1144 2.22818E+01-8.27819E-03 4.75389E-03 2.69583E-02-9.16498E-15 7.73832E-13
 -1      1145 2.15576E+01 1.42783E-02 4.63057E-02-9.72044E-03-8.41016E-15 5.11262E-13
 -1      1146 2.05514E+01 1.24063E-02 3.47694E-02-3.73728E-02-1.47247E-14 3.73552E-13
 -1      1147 1.93380E+01-7.91669E-03-3.53104E-03-5.23183E-02-3.57310E-15 3.28751E-13
 -1      1148 1.81651E+01-3.82386E-02-5.39821E-02-4.80599E-02-1.18698E-15 1.70607E-13
 -1      1149 1.73734E+01-6.35987E-02-9.47777E-02-2.31776E-02-7.48013E-15-4.76424E-14
 -1      1150 1.72426E+01-6.91575E-02-1.04409E-01 1.38560E-02 3.73833E-15-2.87529E-13
 -1      1151 1.78382E+01-5.06891E-02-7.70272E-02 4.75502E-02-1.81018E-15-4.35832E-13
 -1      1152 1.89689E+01-1.78737E-02-2.72990E-02 6.48460E-02 2.30675E-15-4.32022E-13
 -1      1153 2.02891E+01 1.36329E-02 2.09049E-02 6.25687E-02-1.09481E-14-5.58165E-13
 -1      1154 2.14649E+01 3.31583E-02 5.06473E-02 4.67645E-02 5.54895E-15-5.37750E-13
 -1      1155 2.22909E+01 3.86215E-02 5.84805E-02 2.66524E-02-1.93539E-14-5.01918E-13
 -1      1156 2.27135E+01 3.39552E-02 5.05838E-02 9.19463E-03-2.61930E-14-5.76017E-13
 -1      1157 2.27870E+01 2.45870E-02 3.57121E-02-2.63734E-03-1.79811E-14-6.09635E-13
 -1      1158 2.26132E+01 1.46782E-02 2.05170E-02-8.90492E-03-1.46150E-14-6.33207E-13
 -1      1159 2.22964E+01 6.44500E-03 8.36373E-03-1.10469E-02-2.44155E-14-8.31496E-13
 -1      1160 2.19202E+01 5.88267E-04 1.10862E-04-1.06907E-02 7.21921E-15-9.22559E-13
 -1      1161 2.15418E+01-3.04139E-03-4.70184E-03-9.11606E-03-1.87082E-14-7.96077E-13
 -1      1162 2.11951E+01-4.93009E-03-6.97544E-03-7.15051E-03-2.05868E-15-7.57529E-13
 -1      1163 2.08965E+01-5.60942E-03-7.59029E-03-5.25091E-03 4.35350E-14-4.61607E-13
 -1      1164 2.06507E+01-5.52983E-03-7.23622E-03-3.62556E-03-2.71133E-14-6.30042E-13
 -1      1165 2.04557E+01-5.02678E-03-6.39233E-03-2.33685E-03 3.35052E-14-6.67362E-13
 -1      1166 2.03058E+01-4.32925E-03-5.36379E-03-1.37154E-03 1.08090E-14-3.12258E-13
 -1      1167 2.01940E+01-3.58210E-03-4.32979E-03-6.83487E-04 1.87703E-14-2.04258E-13
 -1      1168 2.01131E+01-2.86967E-03-3.38534E-03-2.17212E-04-5.39461E-15-4.60279E-13
 -1      1169 2.00564E+01-2.23539E-03-2.57244E-03 8.03191E-05 1.44622E-15-3.41957E-13
 -1      1170 2.00183E+01-1.69660E-03-1.90161E-03 2.54710E-04-3.13025E-14-3.61037E-13
 -1      1171 1.99940E+01-1.25492E-03-1.36597E-03 3.42770E-04-5.26355E-14-5.02263E-13
 -1      1172 1.99796E+01-9.03317E-04-9.50165E-04 3.72904E-04-3.17569E-14-3.37548E-13
 -1      1173 1.99722E+01-6.30564E-04-6.35635E-04 3.66250E-04-2.90359E-14-4.38880E-13
 -1      1174 1.99695E+01-4.24085E-04-4.03737E-04 3.38019E-04 2.76126E-15-3.64848E-13
 -1      1175 1.99699E+01-2.71563E-04-2.37347E-04 2.98791E-04 2.80178E-15-4.19591E-13
 -1      1176 1.99720E+01-1.61810E-04-1.21592E-04 2.55636E-04 4.81944E-14 2.70452E-14
 -1      1177 1.99751E+01-8.51517E-05-4.40540E-05 2.13049E-04-2.74484E-14 4.52663E-14
 -1      1178 1.99786E+01-3.35161E-05 5.32222E-06 1.73683E-04-3.74312E-14-4.66262E-13
 -1      1179 1.99821E+01-3.55114E-07 3.44798E-05 1.38923E-04 1.75860E-14-2.05408E-13
 -1      1180 1.99854E+01 1.95224E-05 4.95594E-05 1.09302E-04-4.00125E-14-2.88574E-13
 -1      1181 1.99884E+01 3.01546E-05 5.52237E-05 8.48163E-05-2.83373E-14-5.74414E-13
 -1      1182 1.99910E+01 3.46385E-05 5.49702E-05 6.51348E-05-3.03120E-14-8.04061E-13
 -1      1183 1.99932E+01 3.53323E-05 5.14271E-05 4.97391E-05 7.75020E-14-5.84532E-13
 -1      1184 1.99951E+01 3.40393E-05 4.66377E-05 3.79886E-05 1.17250E-14-1.51458E-13
 -1      1185 1.99966E+01 3.21587E-05 4.23430E-05 2.91102E-05 1.01426E-13 8.93841E-14
 -1      1186 1.99979E+01 3.07783E-05 4.02088E-05 2.20716E-05 1.21494E-14 5.63784E-13
 -1      1187 1.99988E+01 3.06274E-05 4.15402E-05 1.52451E-05-2.58482E-14 3.61213E-13
 -1      1188 1.99995E+01 3.11338E-05 4.46786E-05 5.54765E-06 3.51241E-14 5.47579E-13
 -1      1189 1.99998E+01 3.36732E-05 3.50142E-05-1.30553E-05 1.32353E-14 7.79346E-13
 -1      1190 1.99998E+01-1.52602E-05-3.24687E-05-1.53518E-05 1.28927E-14 3.72504E-13
 -1      1191 3.30733E+01 5.82765E-01 1.75499E-01 2.03362E+00-2.89421E-14 2.53109E-12
 -1      1192 2.68519E+01-5.91252E-02-5.89184E-01 5.96447E-02 1.88842E-14 2.04478E-12
 -1      1193 2.68252E+01-4.16583E-03-1.30968E-01-3.49782E-02 1.03520E-14 1.57829E-12
 -1      1194 2.70815E+01 4.69207E-02 6.00746E-02-5.16620E-02 1.90529E-14 1.29793E-12
 -1      1195 2.69274E+01 8.16379E-02 1.50680E-01-4.53105E-02 1.58987E-15 1.14263E-12
 -1      1196 2.58494E+01 7.96743E-02 1.78353E-01-2.10931E-03-4.31079E-16 1.04201E-12
 -1      1197 2.36133E+01 2.00853E-02 1.05632E-01 7.77340E-02-1.99155E-14 1.03653E-12
 -1      1198 2.06557E+01-7.44157E-02-7.14598E-02 1.55549E-01 1.11768E-14 8.49265E-13
 -1      1199 1.81984E+01-1.36459E-01-2.56455E-01 1.64914E-01-6.81920E-15 6.78568E-13
 -1      1200 1.75916E+01-1.11037E-01-3.03220E-01 7.84077E-02 9.65027E-15 4.56669E-13
 -1      1201 1.92152E+01-3.46133E-02-1.79800E-01-5.05785E-02 9.75175E-15 3.39645E-13
 -1      1202 2.21056E+01 2.99003E-02 1.51601E-03-1.33935E-01 3.66954E-14 1.51879E-13
 -1      1203 2.48272E+01 5.42913E-02 1.21272E-01-1.40579E-01 1.09721E-15 1.10134E-13
 -1      1204 2.64680E+01 4.85725E-02 1.44672E-01-9.70112E-02 9.71445E-17 6.99024E-14
 -1      1205 2.68995E+01 3.19393E-02 1.08222E-01-4.44448E-02 2.31846E-14-2.09987E-13
 -1      1206 2.64571E+01 1.59725E-02 5.81596E-02-5.82080E-03-2.26902E-15-2.43448E-13
 -1      1207 2.55618E+01 4.67019E-03 1.93764E-02 1.49598E-02-7.07333E-15-2.46463E-13
 -1      1208 2.45317E+01-1.99394E-03-3.19596E-03 2.26338E-02 2.44274E-14-1.44298E-13
 -1      1209 2.35509E+01-5.25965E-03-1.33712E-02 2.29740E-02 1.47435E-14-3.98185E-13
 -1      1210 2.27020E+01-6.40579E-03-1.62336E-02 2.00768E-02-1.47044E-14-4.61294E-13
 -1      1211 2.20074E+01-6.38194E-03-1.55179E-02 1.62433E-02-2.20798E-15-3.32703E-13
 -1      1212 2.14595E+01-5.79192E-03-1.34028E-02 1.25561E-02-4.17295E-14-2.30435E-13
 -1      1213 2.10384E+01-4.98452E-03-1.09781E-02 9.41932E-03 1.12906E-14-2.80031E-13
 -1      1214 2.07212E+01-4.14553E-03-8.71586E-03 6.91117E-03 3.17674E-14-6.01875E-13
 -1      1215 2.04865E+01-3.36514E-03-6.77881E-03 4.97567E-03-3.47456E-14-5.35929E-13
 -1      1216 2.03158E+01-2.68055E-03-5.19118E-03 3.51554E-03 7.75714E-15-1.52566E-13
 -1      1217 2.01941E+01-2.10121E-03-3.92228E-03 2.43199E-03-5.20889E-15-3.25486E-13
 -1      1218 2.01091E+01-1.62286E-03-2.92463E-03 1.63904E-03 1.72295E-14-4.22041E-13
 -1      1219 2.00514E+01-1.23523E-03-2.14997E-03 1.06678E-03-2.79707E-14-2.49230E-13
 -1      1220 2.00137E+01-9.26004E-04-1.55505E-03 6.60200E-04-1.69129E-14-1.13659E-13
 -1      1221 1.99902E+01-6.82814E-04-1.10321E-03 3.76795E-04-5.83810E-15-3.19862E-13
 -1      1222 1.99767E+01-4.94198E-04-7.64177E-04 1.84037E-04 5.56326E-14-4.04049E-13
 -1      1223 1.99701E+01-3.49975E-04-5.13263E-04 5.72073E-05-9.02118E-15-2.72347E-13
 -1      1224 1.99681E+01-2.41359E-04-3.30551E-04-2.23620E-05 3.72385E-14-2.72896E-13
 -1      1225 1.99689E+01-1.60915E-04-2.00070E-04-6.86726E-05-2.39809E-15-1.94108E-13
 -1      1226 1.99713E+01-1.02462E-04-1.09112E-04-9.21335E-05-3.62815E-14-1.81881E-13
 -1      1227 1.99747E+01-6.09304E-05-4.76520E-05-1.00398E-04 3.35048E-14-2.31767E-13
 -1      1228 1.99783E+01-3.22201E-05-7.85023E-06-9.90150E-05-2.06095E-14-3.02193E-13
 -1      1229 1.99819E+01-1.30550E-05 1.63585E-05-9.19434E-05 6.50483E-14-5.65135E-13
 -1      1230 1.99853E+01-8.44132E-07 2.96198E-05-8.19488E-05-9.34206E-15-3.60050E-13
 -1      1231 1.99883E+01 6.44683E-06 3.54594E-05-7.09180E-05-1.42656E-15 2.02926E-14
 -1      1232 1.99909E+01 1.04157E-05 3.65454E-05-6.01029E-05-2.36785E-14 5.11010E-13
 -1      1233 1.99932E+01 1.23409E-05 3.49300E-05-5.03103E-05 5.25761E-15 5.62819E-13
 -1      1234 1.99950E+01 1.32925E-05 3.22974E-05-4.20384E-05-7.02449E-14 8.22798E-13
 -1      1235 1.99966E+01 1.42083E-05 3.02144E-05-3.55361E-05 1.00447E-13 2.49398E-13
 -1      1236 1.99978E+01 1.58748E-05 3.03099E-05-3.07557E-05 2.13330E-14-2.84992E-13
 -1      1237 1.99988E+01 1.89486E-05 3.40477E-05-2.71162E-05 2.15703E-14-6.14372E-13
 -1      1238 1.99995E+01 2.23941E-05 3.95846E-05-2.20141E-05-2.08242E-14-3.94920E-13
 -1      1239 1.99998E+01 1.69784E-05 2.99828E-05-7.78164E-06 8.77811E-14-7.96896E-13
 -1      1240 1.99998E+01-1.33823E-05-3.32752E-05 1.37845E-05-2.91343E-14-4.97787E-13
 -1      1241 1.99998E+01 3.99728E-05-3.07967E-05 1.33420E-05-5.00593E-13-1.24755E-13
 -1      1242 1.99998E+01 1.97836E-05 3.29433E-05 1.08322E-05-3.18010E-13-5.38776E-14
 -1      1243 1.99998E+01-3.32627E-04 3.63022E-05-1.20556E-05-6.31348E-13 5.84797E-14
 -1      1244 1.99998E+01-9.47261E-04 1.86731E-05-2.24253E-05-3.82981E-13 4.51633E-14
 -1      1245 1.99998E+01-1.68114E-03-1.39094E-06-2.50136E-05-1.55987E-13-4.05793E-15
 -1      1246 1.99998E+01-2.39524E-03-1.82134E-05-2.23883E-05-4.69668E-13-1.33314E-13
 -1      1247 1.99998E+01-2.98641E-03-3.03744E-05-1.68665E-05-9.52751E-13 7.43181E-14
 -1      1248 1.99998E+01-3.37760E-03-3.79337E-05-8.89635E-06-5.61589E-13 3.55969E-14
 -1      1249 1.99998E+01-3.51196E-03-4.04283E-05 7.79696E-08-9.95677E-14 1.31520E-13
 -1      1250 1.99998E+01-3.37269E-03-3.78188E-05 9.04496E-06 6.47275E-13 4.57696E-14
 -1      1251 1.99998E+01-2.97738E-03-3.01211E-05 1.69617E-05 3.56137E-13-3.80471E-14
 -1      1252 1.99998E+01-2.38326E-03-1.78367E-05 2.27573E-05-5.73229E-13 8.52584E-15
 -1      1253 1.99998E+01-1.66866E-03-1.14167E-06 2.50049E-05-3.54440E-13 2.07837E-13
 -1      1254 1.99998E+01-9.35554E-04 1.91248E-05 2.26621E-05-2.76474E-13-8.82737E-14
 -1      1255 1.99998E+01-3.15120E-04 3.89991E-05 1.44837E-05-9.50849E-13 1.10806E-13
 -1      1256 1.99998E+01 7.71197E-06 2.95415E-05-2.12180E-05-6.33983E-13-6.91660E-14
 -1      1257 1.99998E+01 4.49636E-05-3.10399E-05-1.52937E-05-3.40836E-13 2.52934E-14
 -1      1258-1.12621E+00-2.37299E+01-3.73511E+00-2.16965E+00 1.20687E-12 2.61687E-13
 -1      1259-1.86291E+00-1.62897E+01-3.25212E+00-4.29857E+00 2.50111E-12 8.79019E-13
 -1      1260-2.87849E-01-3.98408E+00-2.14142E+00-9.71952E-01 2.91434E-12 1.70830E-12
 -1      1261 8.09119E+00 6.78179E+00-5.12299E-01 7.30547E+00 2.65699E-12 2.41007E-12
 -1      1262 2.48030E+01 1.08476E+01 1.23311E+00 1.55140E+01 1.75815E-12 2.40274E-12
 -1      1263 4.60180E+01 8.49151E+00 2.97956E+00 1.82522E+01 8.58535E-13 1.78435E-12
 -1      1264 6.29408E+01 3.87869E+00 4.12068E+00 1.15774E+01 1.60941E-13 3.41949E-13
 -1      1265 6.93106E+01 1.63137E+00 4.54816E+00-7.74534E-01 8.17887E-14-1.14206E-12
 -1      1266 6.12915E+01 4.17105E+00 3.97347E+00-1.25007E+01 5.97578E-13-2.42317E-12
 -1      1267 4.32255E+01 8.77056E+00 2.68983E+00-1.78609E+01 1.54032E-12-3.26184E-12
 -1      1268 2.24170E+01 1.06004E+01 9.22639E-01-1.48267E+01 2.45937E-12-3.34777E-12
 -1      1269 6.69113E+00 5.78148E+00-8.97952E-01-6.33564E+00 2.98028E-12-2.69051E-12
 -1      1270-6.70963E-01-4.97390E+00-2.32527E+00 1.43594E+00 2.82574E-12-1.63769E-12
 -1      1271-1.60325E+00-1.66759E+01-3.23433E+00 4.00902E+00 1.93556E-12-6.61304E-13
 -1      1272-9.40560E-01-2.23897E+01-3.55715E+00 1.17939E+00 3.90105E-13-1.59830E-13
 -1      1273-1.09656E+00-1.95231E+01-3.29264E+00-2.54264E+00-1.25311E-12-3.18107E-13
 -1      1274-1.28494E+00-9.89763E+00-2.56159E+00-2.88524E+00-2.47002E-12-1.05999E-12
 -1      1275 2.48518E+00 1.91691E+00-1.35079E+00 2.64790E+00-2.92166E-12-2.03659E-12
 -1      1276 1.38465E+01 9.85741E+00 2.08712E-01 1.14027E+01-2.67342E-12-2.85327E-12
 -1      1277 3.20924E+01 1.05724E+01 1.80210E+00 1.72796E+01-1.88172E-12-3.11284E-12
 -1      1278 5.19998E+01 6.20928E+00 3.19816E+00 1.59795E+01-9.18043E-13-2.64766E-12
 -1      1279 6.43851E+01 2.32035E+00 3.95926E+00 6.28407E+00-2.70135E-13-1.38056E-12
 -1      1280 6.51798E+01 2.07500E+00 4.03644E+00-6.05739E+00-1.32075E-13 1.67033E-13
 -1      1281 5.46612E+01 5.72929E+00 3.41573E+00-1.53905E+01-5.81812E-13 1.55809E-12
 -1      1282 3.78651E+01 1.00838E+01 2.34645E+00-1.84007E+01-1.36502E-12 2.46247E-12
 -1      1283 1.99569E+01 1.12101E+01 9.35893E-01-1.43608E+01-2.22733E-12 2.75557E-12
 -1      1284 6.47714E+00 6.47532E+00-5.61049E-01-6.44449E+00-2.96674E-12 2.47535E-12
 -1      1285-2.15205E-01-3.59449E+00-1.98822E+00 7.51443E-01-2.88636E-12 1.71574E-12
 -1      1286-1.65370E+00-1.53398E+01-3.05692E+00 3.78189E+00-1.60727E-12 6.38989E-13
 -1      1287-1.02947E+00-2.35036E+01-3.70127E+00 1.94738E+00-3.94740E-13 1.73177E-13
 -1      1288 2.56264E+01 2.05136E+00-7.79463E-01-2.76404E+00-6.77236E-14 1.08769E-12
 -1      1289 2.29720E+01 5.08262E+00-4.02301E-02-2.98037E+00-1.66381E-13-7.49678E-14
 -1      1290 2.37993E+01 5.26777E+00-9.92370E-02-4.01897E+00-2.26291E-13 1.91569E-13
 -1      1291 2.14773E+01 5.23593E+00-5.12973E-03-2.04370E+00-1.59511E-13-4.42910E-13
 -1      1292 2.21159E+01 5.43038E+00 1.36209E-02-2.58753E+00-1.83881E-13-2.89310E-13
 -1      1293 2.31234E+01 4.06312E+00-2.22854E-02-2.74888E+00-2.88353E-13-5.68295E-14
 -1      1294 2.03541E+01 5.09621E+00 1.15441E-02-1.15689E+00-1.13798E-13-6.10845E-13
 -1      1295 2.09106E+01 5.27182E+00 2.55811E-02-1.60111E+00-1.37154E-13-5.35582E-13
 -1      1296 2.16523E+01 4.28722E+00-2.49281E-02-1.90613E+00-2.43489E-13-3.56645E-13
 -1      1297 1.92206E+01 4.89563E+00 1.20815E-02-3.61365E-01-6.25194E-14-7.03167E-13
 -1      1298 1.98040E+01 5.07572E+00 3.27117E-02-7.44277E-01-7.85483E-14-6.62019E-13
 -1      1299 2.04602E+01 4.25629E+00-2.29693E-02-1.04896E+00-1.59178E-13-5.07920E-13
 -1      1300 1.79903E+01 4.70549E+00 2.50590E-04 2.91802E-01-2.41612E-14-7.49064E-13
 -1      1301 1.86286E+01 4.89871E+00 3.59235E-02-7.54812E-03-3.60684E-14-7.25572E-13
 -1      1302 1.92370E+01 4.19404E+00-2.26868E-02-2.77122E-01-8.43804E-14-5.85525E-13
 -1      1303 1.66597E+01 4.56720E+00-2.01723E-02 7.45274E-01 1.05194E-14-7.78353E-13
 -1      1304 1.73361E+01 4.76870E+00 3.13086E-02 5.55738E-01-1.85962E-15-7.66678E-13
 -1      1305 1.78802E+01 4.20158E+00-2.27513E-02 3.58381E-01-1.89258E-14-6.38791E-13
 -1      1306 1.54352E+01 4.51556E+00-4.01462E-02 9.16253E-01 4.24660E-14-8.03700E-13
 -1      1307 1.60282E+01 4.69058E+00 1.61760E-02 8.66843E-01 3.12250E-14-7.90539E-13
 -1      1308 1.64490E+01 4.31561E+00-2.27176E-02 7.73964E-01 3.71335E-14-6.64890E-13
 -1      1309 1.46011E+01 4.55283E+00-4.99595E-02 8.00051E-01 5.07511E-14-8.16965E-13
 -1      1310 1.49588E+01 4.65702E+00-7.68208E-03 8.78742E-01 4.72955E-14-8.18725E-13
 -1      1311 1.51905E+01 4.50841E+00-2.10287E-02 8.97163E-01 8.09647E-14-6.98566E-13
 -1      1312 1.44311E+01 4.65458E+00-4.36297E-02 4.94082E-01 6.70852E-14-8.06774E-13
 -1      1313 1.44234E+01 4.64994E+00-3.32093E-02 6.41070E-01 6.13086E-14-8.15611E-13
 -1      1314 1.44271E+01 4.69686E+00-1.89362E-02 7.42181E-01 9.36994E-14-7.10000E-13
 -1      1315 1.50561E+01 4.79022E+00-2.38974E-02 1.79906E-01 8.34333E-14-7.70885E-13
 -1      1316 1.46408E+01 4.66516E+00-5.02799E-02 3.04246E-01 7.40172E-14-7.93866E-13
 -1      1317 1.44325E+01 4.79297E+00-1.91676E-02 4.34951E-01 1.16238E-13-6.89483E-13
 -1      1318 1.63745E+01 4.94840E+00 9.24639E-04 5.00338E-02 1.07886E-13-7.04718E-13
 -1      1319 1.56297E+01 4.72331E+00-5.24456E-02 6.77490E-02 9.67143E-14-7.43216E-13
 -1      1320 1.52873E+01 4.76864E+00-2.21651E-02 1.77217E-01 1.47483E-13-6.51725E-13
 -1      1321 1.82189E+01 5.14342E+00 2.24361E-02 2.28380E-01 1.40721E-13-5.84052E-13
 -1      1322 1.72354E+01 4.84666E+00-4.24872E-02 8.72788E-02 1.21736E-13-6.51555E-13
 -1      1323 1.68653E+01 4.66943E+00-2.65441E-02 1.46501E-01 1.84141E-13-5.66991E-13
 -1      1324 2.03529E+01 5.37465E+00 3.67995E-02 7.68458E-01 1.77081E-13-3.97987E-13
 -1      1325 1.92443E+01 5.03837E+00-2.92763E-02 4.45140E-01 1.58040E-13-5.09356E-13
 -1      1326 1.89447E+01 4.55872E+00-2.91603E-02 4.41555E-01 2.39048E-13-4.39919E-13
 -1      1327 2.27001E+01 5.59498E+00 5.14883E-02 1.70000E+00 2.08611E-13-6.82093E-14
 -1      1328 2.14808E+01 5.22758E+00-2.38851E-02 1.15615E+00 1.82049E-13-2.64185E-13
 -1      1329 2.13188E+01 4.43200E+00-2.59343E-02 1.07095E+00 2.89484E-13-2.24494E-13
 -1      1330 2.55164E+01 5.50905E+00 6.34585E-02 3.18611E+00 1.79468E-13 5.37972E-13
 -1      1331 2.40219E+01 5.18924E+00-3.07932E-02 2.22938E+00 1.74416E-13 1.70940E-13
 -1      1332 2.40204E+01 4.08820E+00-5.51927E-03 1.97569E+00 3.06456E-13 1.46161E-13
 -1      1333 3.26318E+01 3.56154E+00 9.64718E-01 4.39299E+00 8.93174E-14 1.66389E-12
 -1      1334 2.69436E+01 3.91416E+00-1.81122E-01 3.24300E+00 9.29257E-14 8.82738E-13
 -1      1335 2.70851E+01 2.67504E+00 6.01167E-03 2.56207E+00 2.98577E-13 6.96526E-13
 -1      1336 2.71978E+01 2.93909E-01-8.11940E-01 6.51894E-01 1.60594E-13 1.60405E-12
 -1      1337 2.55662E+01 8.12492E-02-4.34873E-01-1.20318E+00-1.82881E-13 1.16770E-12
 -1      1338 2.43289E+01 2.74227E-01-1.66475E-01-7.33537E-01-1.73556E-13 9.49338E-13
 -1      1339 2.37147E+01 1.08672E-01-7.09752E-02-4.08437E-01-1.35683E-13 8.62244E-13
 -1      1340 2.32105E+01 3.85023E-02-9.31042E-03-3.66734E-01-1.20126E-13 6.67841E-13
 -1      1341 2.43477E+01 2.84740E-01-1.04819E-01-1.23082E+00-2.91100E-13 5.05367E-13
 -1      1342 2.27623E+01 6.26801E-03 1.09521E-02-2.90142E-01-9.08076E-14 6.11924E-13
 -1      1343 2.23866E+01-1.71372E-02 1.91393E-02-3.06531E-01-9.56271E-14 4.76605E-13
 -1      1344 2.32111E+01 3.63414E-02-2.11108E-02-6.93360E-01-2.02702E-13 3.94854E-13
 -1      1345 2.20183E+01-2.93326E-02 2.18681E-02-3.45525E-01-6.75267E-14 4.05139E-13
 -1      1346 2.15783E+01-3.18591E-02 1.64021E-02-3.69368E-01-7.95395E-14 3.16537E-13
 -1      1347 2.24530E+01-4.80424E-02 8.20568E-03-6.55294E-01-1.68069E-13 2.82212E-13
 -1      1348 2.11952E+01-3.11280E-02 1.63099E-02-4.31091E-01-3.09637E-14 2.89439E-13
 -1      1349 2.06576E+01-1.70517E-02 9.88134E-03-4.49350E-01-2.90514E-14 2.53238E-13
 -1      1350 2.17285E+01-5.86240E-02 1.14723E-02-7.80693E-01-1.00481E-13 1.89553E-13
 -1      1351 2.02512E+01-5.13625E-03 8.51217E-03-4.68860E-01-4.26507E-14 2.30191E-13
 -1      1352 1.96843E+01 2.02402E-02 2.92753E-03-4.67615E-01-4.14350E-14 1.98244E-13
 -1      1353 2.09551E+01-2.00909E-02 5.16776E-03-8.83407E-01-6.53057E-14 1.64787E-13
 -1      1354 1.93105E+01 3.93639E-02 5.62345E-05-4.00365E-01-5.26142E-14 1.40575E-13
 -1      1355 1.88478E+01 6.58074E-02-4.21714E-03-3.71120E-01-8.34740E-14 5.35336E-14
 -1      1356 2.01819E+01 5.12373E-02-7.15711E-03-8.30452E-01-1.08419E-13 6.62023E-14
 -1      1357 1.85974E+01 8.27249E-02-7.28309E-03-2.09660E-01-6.72006E-14-2.07126E-15
 -1      1358 1.83807E+01 9.70811E-02-9.39418E-03-1.56747E-01-4.59424E-14-1.05393E-13
 -1      1359 1.95572E+01 1.26051E-01-2.10643E-02-5.54878E-01-1.37725E-13-2.13371E-14
 -1      1360 1.83313E+01 1.01522E-01-1.05748E-02 5.74934E-02-6.25160E-14-1.67875E-13
 -1      1361 1.84393E+01 9.53883E-02-9.87996E-03 1.16065E-01-9.96390E-14-2.42572E-13
 -1      1362 1.92543E+01 1.67593E-01-2.90977E-02-9.62389E-02-1.29143E-13-1.09339E-13
 -1      1363 1.86074E+01 8.43822E-02-8.55283E-03 3.10039E-01-6.95919E-14-2.90747E-13
 -1      1364 1.90105E+01 6.02476E-02-5.43321E-03 3.52337E-01-1.15481E-14-3.23769E-13
 -1      1365 1.93712E+01 1.52595E-01-2.60187E-02 4.03256E-01-1.25776E-13-1.68493E-13
 -1      1366 1.93370E+01 4.09241E-02-3.25266E-03 4.62483E-01-8.93643E-15-4.02244E-13
 -1      1367 1.99112E+01 1.01078E-02 1.08468E-03 4.75985E-01-4.06116E-14-4.34854E-13
 -1      1368 1.98640E+01 8.83430E-02-1.33904E-02 7.72752E-01-6.29436E-14-3.12233E-13
 -1      1369 2.02927E+01-6.77858E-03 1.77540E-03 4.81252E-01-5.43662E-14-4.15411E-13
 -1      1370 2.08803E+01-3.23544E-02 5.92706E-03 4.67916E-01-3.30562E-14-4.87523E-13
 -1      1371 2.05654E+01 6.34444E-03 1.41939E-03 9.08470E-01-6.18649E-14-4.03835E-13
 -1      1372 2.12185E+01-4.01431E-02 4.24765E-03 3.91030E-01 3.68065E-14-4.95746E-13
 -1      1373 2.16932E+01-5.43775E-02 7.46686E-03 3.62274E-01 2.72486E-14-4.39884E-13
 -1      1374 2.12710E+01-5.90458E-02 1.19621E-02 8.15770E-01 1.17068E-14-4.44571E-13
 -1      1375 2.19276E+01-5.30020E-02 4.11821E-03 2.46575E-01-3.26735E-14-4.25285E-13
 -1      1376 2.22271E+01-5.62792E-02 6.23660E-03 2.14802E-01-4.25146E-14-4.81417E-13
 -1      1377 2.18238E+01-9.06870E-02 1.59646E-02 5.78583E-01-1.64313E-14-4.08009E-13
 -1      1378 2.23404E+01-4.94780E-02 2.58564E-03 9.96206E-02-6.21924E-14-4.62684E-13
 -1      1379 2.24627E+01-4.56046E-02 3.80777E-03 7.30172E-02-5.09419E-14-5.25813E-13
 -1      1380 2.21508E+01-9.08696E-02 1.47651E-02 2.98474E-01-5.27651E-14-4.36203E-13
 -1      1381 2.24688E+01-3.74210E-02 9.06239E-04-1.83550E-02-2.05669E-14-5.28354E-13
 -1      1382 2.24488E+01-3.04872E-02 1.51081E-03-3.66119E-02-2.48391E-14-5.49903E-13
 -1      1383 2.22530E+01-7.21470E-02 1.09609E-02 5.04060E-02-5.37218E-14-4.20902E-13
 -1      1384 2.23764E+01-2.34755E-02-2.41287E-04-9.67093E-02-3.64979E-14-5.63498E-13
 -1      1385 2.22617E+01-1.63191E-02-3.99036E-05-1.06873E-01-7.55216E-14-6.04478E-13
 -1      1386 2.21751E+01-4.73374E-02 6.67804E-03-1.29982E-01-5.21362E-14-4.59213E-13
 -1      1387 2.21415E+01-1.14416E-02-7.39100E-04-1.38338E-01-3.74559E-14-5.98501E-13
 -1      1388 2.19764E+01-5.48141E-03-8.04486E-04-1.42219E-01 1.15704E-14-6.45125E-13
 -1      1389 2.19767E+01-2.46994E-02 3.06543E-03-2.38048E-01-6.31305E-14-5.06587E-13
 -1      1390 2.18347E+01-2.68618E-03-7.61136E-04-1.52001E-01 4.07294E-16-6.76405E-13
 -1      1391 2.16531E+01 1.66033E-03-1.00194E-03-1.51697E-01-1.36853E-15-6.64049E-13
 -1      1392 2.17135E+01-7.70949E-03 4.91600E-04-2.85935E-01-2.81348E-14-4.34064E-13
 -1      1393 2.15087E+01 2.85347E-03-5.39625E-04-1.47266E-01 4.39408E-14-7.36962E-13
 -1      1394 2.13329E+01 5.69870E-03-8.86097E-04-1.44558E-01-3.33646E-14-7.19954E-13
 -1      1395 2.14291E+01 3.27452E-03-1.10359E-03-2.91155E-01 4.62133E-15-5.00770E-13
 -1      1396 2.11981E+01 5.83657E-03-2.52277E-04-1.32134E-01-2.89480E-14-6.34300E-13
 -1      1397 2.10405E+01 7.49444E-03-6.47272E-04-1.28312E-01 8.93805E-14-5.88598E-13
 -1      1398 2.11532E+01 9.32971E-03-1.94136E-03-2.70113E-01 9.04073E-15-5.65183E-13
 -1      1399 2.09218E+01 7.03073E-03 1.55419E-06-1.12382E-01 1.09375E-13-5.58744E-13
 -1      1400 2.07881E+01 7.83983E-03-3.97213E-04-1.08283E-01 5.71884E-14-4.71461E-13
 -1      1401 2.09034E+01 1.18892E-02-2.25916E-03-2.35562E-01 1.17319E-13-4.84541E-13
 -1      1402 2.06880E+01 7.09614E-03 1.83649E-04-9.17525E-02 2.25980E-14-3.83237E-13
 -1      1403 2.05792E+01 7.34521E-03-1.87596E-04-8.78635E-02 3.92596E-14-4.06012E-13
 -1      1404 2.06883E+01 1.22319E-02-2.25307E-03-1.96276E-01 8.31913E-14-3.79852E-13
 -1      1405 2.04977E+01 6.52535E-03 2.91573E-04-7.24195E-02 5.76559E-14-4.05675E-13
 -1      1406 2.04121E+01 6.43374E-03-3.37321E-05-6.89871E-02 4.34450E-14-3.27662E-13
 -1      1407 2.05099E+01 1.13226E-02-2.06582E-03-1.57688E-01 4.35079E-14-1.75914E-13
 -1      1408 2.03477E+01 5.65361E-03 3.38840E-04-5.54663E-02 1.47842E-14-3.42596E-13
 -1      1409 2.02825E+01 5.37596E-03 6.73036E-05-5.25829E-02 3.29931E-14-2.52858E-13
 -1      1410 2.03668E+01 9.81735E-03-1.79331E-03-1.22780E-01 4.13329E-14-1.70591E-13
 -1      1411 2.02330E+01 4.69233E-03 3.43072E-04-4.12773E-02 2.68454E-14-3.06736E-13
 -1      1412 2.01847E+01 4.33139E-03 1.25576E-04-3.89443E-02-3.49151E-14-3.31467E-13
 -1      1413 2.02551E+01 8.12765E-03-1.49584E-03-9.28762E-02 1.58378E-14-2.34664E-13
 -1      1414 2.01477E+01 3.76443E-03 3.20326E-04-2.98226E-02-2.65503E-14-3.69787E-13
 -1      1415 2.01130E+01 3.38462E-03 1.52466E-04-2.79926E-02-2.73149E-14-3.93836E-13
 -1      1416 2.01702E+01 6.49021E-03-1.20868E-03-6.82752E-02-8.65240E-14-2.11251E-13
 -1      1417 2.00861E+01 2.93358E-03 2.83095E-04-2.08511E-02 4.82196E-14-3.22196E-13
 -1      1418 2.00620E+01 2.57247E-03 1.58085E-04-1.94551E-02-5.49902E-15-3.37195E-13
 -1      1419 2.01074E+01 5.02607E-03-9.50400E-04-4.86863E-02-4.21484E-16-2.24998E-13
 -1      1420 2.00430E+01 2.22590E-03 2.40155E-04-1.40142E-02-8.40293E-14-3.12359E-13
 -1      1421 2.00270E+01 1.90309E-03 1.50438E-04-1.29775E-02-6.19124E-14-3.85037E-13
 -1      1422 2.00622E+01 3.78397E-03-7.28888E-04-3.35258E-02-3.81668E-14-3.35489E-13
 -1      1423 2.00140E+01 1.64517E-03 1.97160E-04-8.94081E-03-6.61813E-14-3.07393E-13
 -1      1424 2.00039E+01 1.36870E-03 1.35405E-04-8.19187E-03-2.71262E-15-3.28434E-13
 -1      1425 2.00307E+01 2.77029E-03-5.45575E-04-2.21007E-02-9.67135E-15-2.96567E-13
 -1      1426 1.99955E+01 1.18280E-03 1.57405E-04-5.27859E-03 4.47200E-14-2.96393E-13
 -1      1427 1.99897E+01 9.53645E-04 1.17056E-04-4.75396E-03-6.34428E-15-2.00802E-13
 -1      1428 2.00096E+01 1.96850E-03-3.98220E-04-1.37168E-02 1.71833E-14-1.33560E-13
 -1      1429 1.99846E+01 8.24280E-04 1.22539E-04-2.71523E-03-9.66128E-14-1.45118E-13
 -1      1430 1.99817E+01 6.39396E-04 9.80458E-05-2.36103E-03-7.70345E-14-2.63247E-13
 -1      1431 1.99961E+01 1.35149E-03-2.82740E-04-7.73784E-03-4.76278E-14-6.81748E-14
 -1      1432 1.99789E+01 5.53099E-04 9.31306E-05-9.86183E-04 5.91576E-15-2.42571E-13
 -1      1433 1.99781E+01 4.07421E-04 7.99891E-05-7.58260E-04 2.03578E-14-2.14876E-13
 -1      1434 1.99883E+01 8.88794E-04-1.94350E-04-3.61157E-03-3.45649E-14-8.41590E-14
 -1      1435 1.99769E+01 3.53014E-04 6.90843E-05 1.25052E-04-1.80485E-14-1.01147E-13
 -1      1436 1.99773E+01 2.40720E-04 6.37647E-05 2.61845E-04 3.45147E-14-1.40274E-13
 -1      1437 1.99842E+01 5.50794E-04-1.28252E-04-8.77606E-04-3.16063E-15 6.96832E-14
 -1      1438 1.99771E+01 2.09251E-04 4.99356E-05 7.90700E-04 1.92768E-14-1.74584E-13
 -1      1439 1.99782E+01 1.24527E-04 4.97565E-05 8.63645E-04 4.17399E-14-1.00641E-13
 -1      1440 1.99828E+01 3.10808E-04-8.00106E-05 8.36146E-04 2.57239E-14-8.53503E-14
 -1      1441 1.99787E+01 1.09033E-04 3.50451E-05 1.14439E-03-5.18498E-14-1.84268E-13
 -1      1442 1.99802E+01 4.65008E-05 3.80303E-05 1.17417E-03-1.10498E-13-2.16108E-13
 -1      1443 1.99830E+01 1.45971E-04-4.57356E-05 1.82257E-03-7.27092E-14-4.07066E-13
 -1      1444 1.99811E+01 4.17091E-05 2.37221E-05 1.28739E-03-6.97113E-14-2.89153E-13
 -1      1445 1.99827E+01-3.36906E-06 2.84612E-05 1.28934E-03-1.04299E-13-4.48865E-13
 -1      1446 1.99843E+01 3.73907E-05-2.21424E-05 2.30671E-03-1.79486E-13-3.20784E-13
 -1      1447 1.99837E+01-1.34961E-06 1.52987E-05 1.29466E-03 6.95241E-14-3.06010E-13
 -1      1448 1.99854E+01-3.30034E-05 2.08201E-05 1.27983E-03 5.65509E-14-2.58781E-13
 -1      1449 1.99860E+01-3.01082E-05-6.53748E-06 2.45747E-03 2.47414E-14-2.81632E-13
 -1      1450 1.99864E+01-2.69718E-05 9.16931E-06 1.22025E-03-4.32531E-14-3.35979E-13
 -1      1451 1.99879E+01-4.85398E-05 1.48321E-05 1.19640E-03-6.18247E-14-4.21549E-13
 -1      1452 1.99880E+01-6.84264E-05 3.23536E-06 2.39860E-03 6.57514E-14-3.51005E-13
 -1      1453 1.99889E+01-4.04571E-05 4.80888E-06 1.10198E-03-7.65682E-14-3.27499E-13
 -1      1454 1.99903E+01-5.46522E-05 1.02134E-05 1.07435E-03-1.07400E-13-4.59702E-13
 -1      1455 1.99900E+01-8.67122E-05 8.86713E-06 2.21825E-03-9.76218E-14-2.19896E-13
 -1      1456 1.99912E+01-4.58591E-05 1.77823E-06 9.65242E-04-5.64321E-14-5.44638E-13
 -1      1457 1.99924E+01-5.48576E-05 6.69585E-06 9.37160E-04 6.88791E-14-4.66499E-13
 -1      1458 1.99919E+01-9.18883E-05 1.16614E-05 1.97710E-03-1.23564E-13-2.93775E-13
 -1      1459 1.99932E+01-4.62593E-05-2.73997E-07 8.26025E-04 1.69727E-13-4.25160E-13
 -1      1460 1.99942E+01-5.17993E-05 4.04837E-06 7.99407E-04 1.89127E-13-3.18594E-13
 -1      1461 1.99936E+01-8.91539E-05 1.26117E-05 1.71488E-03 1.79510E-13-1.11110E-13
 -1      1462 1.99949E+01-4.40246E-05-1.60138E-06 6.93190E-04 3.21257E-14-9.08986E-14
 -1      1463 1.99958E+01-4.74994E-05 2.11190E-06 6.68861E-04 2.78334E-14-5.72921E-14
 -1      1464 1.99951E+01-8.24502E-05 1.24760E-05 1.45541E-03 2.39058E-13-1.22171E-13
 -1      1465 1.99964E+01-4.10384E-05-2.32375E-06 5.70069E-04 1.96009E-13 6.61720E-15
 -1      1466 1.99970E+01-4.35730E-05 8.63712E-07 5.47969E-04 1.83093E-13 2.48908E-13
 -1      1467 1.99964E+01-7.48827E-05 1.18547E-05 1.21033E-03 1.84957E-13 2.79488E-13
 -1      1468 1.99975E+01-3.89035E-05-2.35093E-06 4.55508E-04 1.75270E-13 2.80441E-13
 -1      1469 1.99981E+01-4.13987E-05 4.79634E-07 4.34781E-04 1.50395E-13 4.40269E-13
 -1      1470 1.99974E+01-6.91076E-05 1.12607E-05 9.81642E-04 2.98613E-13 2.10917E-13
 -1      1471 1.99985E+01-3.90509E-05-1.32481E-06 3.44512E-04 3.63236E-14 3.78094E-13
 -1      1472 1.99989E+01-4.19892E-05 1.20434E-06 3.23470E-04-4.48714E-14 3.20223E-13
 -1      1473 1.99983E+01-6.76795E-05 1.11209E-05 7.63465E-04 1.68641E-13 3.15949E-13
 -1      1474 1.99992E+01-4.21957E-05 9.84252E-07 2.29785E-04 7.00083E-14 3.37095E-13
 -1      1475 1.99994E+01-4.48924E-05 1.98514E-06 2.05947E-04 1.73626E-13 5.10726E-13
 -1      1476 1.99989E+01-7.26092E-05 1.13142E-05 5.43998E-04 8.13100E-14 3.12700E-13
 -1      1477 1.99996E+01-5.11389E-05 1.64624E-06 1.04862E-04 1.13965E-14 4.66588E-13
 -1      1478 1.99997E+01-4.28492E-05-2.89121E-06 7.77878E-05-9.63084E-14 4.93272E-13
 -1      1479 1.99994E+01-8.33881E-05 1.06621E-05 3.14226E-04 7.98350E-14 2.88909E-13
 -1      1480 1.99998E+01-5.04968E-06-8.85740E-06-1.54270E-05-3.39298E-13 2.61993E-13
 -1      1481 1.99997E+01-5.57037E-05 2.42583E-06 6.82461E-05-3.80953E-13 7.08849E-14
 -1      1482 2.69833E+01 4.33554E-02-1.30026E-01 1.17409E-01 1.39389E-13 1.30147E-12
 -1      1483 2.76821E+01 2.10451E-01-2.30394E-01 3.19806E-01 1.16990E-13 1.52905E-12
 -1      1484 2.73801E+01 7.99669E-01-1.11535E-01 1.36348E+00 2.39045E-13 9.94815E-13
 -1      1485 2.67229E+01-9.41546E-03 3.68782E-03-3.98714E-02 1.08861E-13 1.05218E-12
 -1      1486 2.67489E+01 6.89488E-02-4.99406E-02-2.25335E-02 9.42701E-14 1.19617E-12
 -1      1487 2.65733E+01 1.01479E-01-5.06571E-02 2.24017E-01 2.03275E-13 8.08870E-13
 -1      1488 2.66001E+01-5.18043E-02 3.93583E-02 4.72643E-02 6.88984E-14 8.74460E-13
 -1      1489 2.66178E+01-3.54094E-02 1.45350E-02 1.25039E-02 6.75588E-14 9.85510E-13
 -1      1490 2.62839E+01-4.27710E-02 9.84168E-03 3.95001E-02 1.63662E-13 6.75487E-13
 -1      1491 2.60748E+01-8.34179E-02 5.25833E-02 3.21463E-01 4.67855E-14 8.09568E-13
 -1      1492 2.63894E+01-1.11441E-01 2.88805E-02 2.32837E-01 3.30951E-14 8.54420E-13
 -1      1493 2.60452E+01-1.41714E-01 3.77363E-02 3.14498E-01 7.51049E-14 5.66298E-13
 -1      1494 2.48007E+01-7.89643E-02 4.57094E-02 6.91868E-01 1.70090E-14 7.39492E-13
 -1      1495 2.55997E+01-1.47172E-01 2.96279E-02 5.69750E-01 2.49401E-14 7.67664E-13
 -1      1496 2.54686E+01-1.97849E-01 5.07625E-02 8.77284E-01 5.52718E-14 5.29798E-13
 -1      1497 2.28045E+01-1.22199E-02 1.61286E-03 9.53535E-01 2.80094E-14 7.29236E-13
 -1      1498 2.40471E+01-9.95812E-02 1.50165E-02 8.59543E-01-7.12971E-16 7.12611E-13
 -1      1499 2.43598E+01-1.50856E-01 3.84892E-02 1.46617E+00 1.23009E-14 4.87020E-13
 -1      1500 2.06937E+01 9.70138E-02-7.13864E-02 8.38922E-01 1.04946E-13 5.43926E-13
 -1      1501 2.19834E+01 4.36983E-02-2.08607E-02 8.55095E-01 1.03433E-13 6.57641E-13
 -1      1502 2.28669E+01 4.52901E-02-5.10005E-03 1.64834E+00 1.28408E-13 4.29795E-13
 -1      1503 1.94799E+01 1.70086E-01-1.22700E-01 2.66700E-01 4.89955E-14 3.69114E-13
 -1      1504 2.01940E+01 2.04210E-01-6.14140E-02 4.18300E-01 5.16601E-14 4.42778E-13
 -1      1505 2.15606E+01 3.05370E-01-5.77550E-02 1.07227E+00 1.31090E-13 2.47028E-13
 -1      1506 1.98912E+01 1.35790E-01-9.70575E-02-4.78199E-01 5.55007E-14 2.09228E-13
 -1      1507 1.96054E+01 2.53834E-01-7.02164E-02-2.73758E-01 5.22186E-14 3.22936E-13
 -1      1508 2.11402E+01 4.34383E-01-7.42099E-02-1.16845E-01 9.73943E-14 1.38927E-13
 -1      1509 2.16742E+01 2.76930E-02-2.02473E-02-9.30064E-01 6.06650E-14 1.03473E-13
 -1      1510 2.05586E+01 1.53028E-01-3.60573E-02-8.00125E-01 3.55323E-14 1.62079E-13
 -1      1511 2.18462E+01 2.86295E-01-5.25465E-02-1.23139E+00 8.03663E-14-2.96291E-14
 -1      1512 2.38329E+01-6.23174E-02 4.82075E-02-9.01650E-01 7.26307E-14-3.38618E-14
 -1      1513 2.24910E+01 1.27968E-04 1.01057E-02-8.92129E-01 8.79088E-14 9.73943E-14
 -1      1514 2.32226E+01-4.06749E-04-1.82676E-02-1.64924E+00 1.16071E-13-7.32261E-14
 -1      1515 2.54448E+01-9.20334E-02 7.04231E-02-5.54216E-01 1.40781E-14-2.43902E-14
 -1      1516 2.44345E+01-1.00196E-01 3.77741E-02-6.25161E-01 3.94997E-15-4.16611E-14
 -1      1517 2.45475E+01-2.07066E-01 6.47850E-03-1.33189E+00 5.52544E-14-1.00548E-13
 -1      1518 2.61387E+01-7.51124E-02 5.52119E-02-1.51861E-01 7.10491E-14-1.85602E-13
 -1      1519 2.56847E+01-1.20387E-01 3.79419E-02-2.39531E-01 6.32931E-14-7.48984E-14
 -1      1520 2.53329E+01-2.51643E-01 1.50546E-02-6.57674E-01 8.97650E-14-1.85952E-13
 -1      1521 2.60252E+01-4.36260E-02 2.84540E-02 1.44579E-01-2.90705E-14-2.21295E-13
 -1      1522 2.60601E+01-9.20350E-02 2.32477E-02 7.77727E-02-1.48666E-15-2.18240E-13
 -1      1523 2.54774E+01-1.88798E-01 1.34443E-02-1.57177E-02 3.81847E-14-2.45023E-13
 -1      1524 2.54043E+01-1.68135E-02 7.29726E-03 3.02163E-01-1.89332E-14-1.41012E-13
 -1      1525 2.57438E+01-5.21015E-02 7.87580E-03 2.64494E-01-2.64953E-14-1.51278E-13
 -1      1526 2.51250E+01-1.00978E-01 8.56415E-03 4.11217E-01-5.03035E-14-1.08738E-13
 -1      1527 2.45593E+01-7.99588E-05-4.22056E-03 3.52443E-01 6.01971E-15-1.76820E-13
 -1      1528 2.50306E+01-1.98879E-02-1.62273E-03 3.37659E-01 1.80728E-14-1.68504E-13
 -1      1529 2.44879E+01-3.21613E-02 4.38097E-03 6.14032E-01 3.48827E-14-4.20636E-14
 -1      1530 2.36832E+01 8.17520E-03-8.48428E-03 3.39243E-01 5.23937E-14-2.15081E-13
 -1      1531 2.41707E+01 1.78881E-04-5.37124E-03 3.38342E-01 3.61156E-14-1.76172E-13
 -1      1532 2.37454E+01 8.38428E-03 1.73947E-03 6.57033E-01 3.63780E-14-1.69097E-13
 -1      1533 2.28811E+01 1.10559E-02-8.83017E-03 2.96396E-01-1.55674E-14-3.77944E-13
 -1      1534 2.33237E+01 1.03356E-02-5.68994E-03 3.02381E-01 5.42153E-14-2.89081E-13
 -1      1535 2.30152E+01 2.69683E-02 3.16573E-04 6.10047E-01 1.00599E-13-1.73495E-13
 -1      1536 2.21970E+01 1.10877E-02-7.57283E-03 2.44570E-01-4.86228E-14-3.11091E-13
 -1      1537 2.25706E+01 1.41275E-02-4.59837E-03 2.53112E-01-4.69728E-14-3.98138E-13
 -1      1538 2.23602E+01 3.22645E-02-3.75696E-04 5.23795E-01-6.04031E-15-2.52373E-13
 -1      1539 2.16392E+01 9.85899E-03-5.93407E-03 1.94445E-01-9.89319E-14-2.91163E-13
 -1      1540 2.19406E+01 1.44246E-02-3.23317E-03 2.03238E-01-5.07888E-14-2.51004E-13
 -1      1541 2.18053E+01 3.08366E-02-6.78782E-04 4.28385E-01-7.68448E-14-2.32637E-13
 -1      1542 2.11984E+01 8.23244E-03-4.42800E-03 1.50573E-01 1.44524E-15-2.35795E-13
 -1      1543 2.14341E+01 1.30780E-02-2.06552E-03 1.58561E-01-2.75062E-14-2.81128E-13
 -1      1544 2.13529E+01 2.66588E-02-7.84816E-04 3.39010E-01-8.48566E-14-2.31718E-13
 -1      1545 2.08580E+01 6.62173E-03-3.20838E-03 1.14227E-01 1.22404E-13-4.29028E-13
 -1      1546 2.10382E+01 1.11341E-02-1.20923E-03 1.21031E-01 6.02890E-14-3.01023E-13
 -1      1547 2.09942E+01 2.18147E-02-7.90616E-04 2.61859E-01 1.01225E-13-3.16477E-13
 -1      1548 2.06002E+01 5.19604E-03-2.27757E-03 8.51205E-02 8.19473E-15-5.43259E-13
 -1      1549 2.07353E+01 9.12480E-03-6.32986E-04 9.06996E-02 8.75285E-14-4.77846E-13
 -1      1550 2.07160E+01 1.72570E-02-7.44302E-04 1.98340E-01 1.51383E-13-5.13821E-13
 -1      1551 2.04082E+01 4.00356E-03-1.58870E-03 6.23459E-02-1.09861E-13-4.31105E-13
 -1      1552 2.05078E+01 7.28924E-03-2.67482E-04 6.68076E-02-1.24328E-13-5.78856E-13
 -1      1553 2.05041E+01 1.33403E-02-6.71502E-04 1.47614E-01-6.90650E-14-5.57566E-13
 -1      1554 2.02678E+01 3.03825E-03-1.08773E-03 4.48386E-02-3.14104E-15-2.61400E-13
 -1      1555 2.03398E+01 5.71322E-03-4.75020E-05 4.83416E-02-4.45130E-15-3.09167E-13
 -1      1556 2.03455E+01 1.01325E-02-5.87260E-04 1.07972E-01-1.05659E-13-4.61263E-13
 -1      1557 2.01670E+01 2.27317E-03-7.27735E-04 3.15827E-02 1.88565E-14-2.69448E-13
 -1      1558 2.02181E+01 4.40809E-03 7.67794E-05 3.42915E-02 2.17283E-14-2.25197E-13
 -1      1559 2.02288E+01 7.57966E-03-5.00935E-04 7.75182E-02-2.36200E-14-2.57269E-13
 -1      1560 2.00961E+01 1.67604E-03-4.71765E-04 2.16899E-02 2.31729E-14-2.94619E-13
 -1      1561 2.01316E+01 3.35251E-03 1.40168E-04 2.37556E-02 2.89798E-14-2.74868E-13
 -1      1562 2.01446E+01 5.58672E-03-4.18332E-04 5.44725E-02 4.38377E-14-2.09847E-13
 -1      1563 2.00476E+01 1.21592E-03-2.91922E-04 1.44175E-02-1.40785E-13-1.01537E-13
 -1      1564 2.00715E+01 2.51336E-03 1.65911E-04 1.59710E-02-1.54924E-13-2.99478E-13
 -1      1565 2.00849E+01 4.05315E-03-3.42830E-04 3.72868E-02-1.63956E-13-8.38262E-14
 -1      1566 2.00156E+01 8.65612E-04-1.67499E-04 9.16047E-03-5.92966E-14-2.03835E-14
 -1      1567 2.00310E+01 1.85561E-03 1.69162E-04 1.03116E-02-1.84608E-14-1.03994E-13
 -1      1568 2.00439E+01 2.88771E-03-2.76122E-04 2.46679E-02-1.64128E-13-1.85727E-13
 -1      1569 1.99954E+01 6.02210E-04-8.32130E-05 5.43464E-03 7.56716E-14-2.34750E-13
 -1      1570 2.00048E+01 1.34668E-03 1.59660E-04 6.27351E-03 3.10657E-14-1.95082E-13
 -1      1571 2.00164E+01 2.01277E-03-2.18753E-04 1.55615E-02 9.92714E-14-1.43804E-13
 -1      1572 1.99835E+01 4.06856E-04-2.77924E-05 2.85716E-03-6.58706E-14-1.37880E-13
 -1      1573 1.99887E+01 9.57910E-04 1.43581E-04 3.45675E-03-2.12461E-14-2.97483E-13
 -1      1574 1.99989E+01 1.36445E-03-1.70523E-04 9.12281E-03 2.67003E-14-2.43815E-13
 -1      1575 1.99775E+01 2.64239E-04 7.08128E-06 1.12873E-03 6.78096E-14-1.21219E-13
 -1      1576 1.99798E+01 6.64949E-04 1.24788E-04 1.54738E-03 7.47647E-15-1.97331E-13
 -1      1577 1.99885E+01 8.91155E-04-1.30777E-04 4.68318E-03-6.72883E-15-1.09661E-13
 -1      1578 1.99753E+01 1.62052E-04 2.75421E-05 1.78229E-05-2.53934E-14-1.84980E-13
 -1      1579 1.99758E+01 4.47477E-04 1.05633E-04 3.01642E-04 7.64663E-14-2.12158E-14
 -1      1580 1.99830E+01 5.51661E-04-9.86170E-05 1.71959E-03 7.92323E-14-1.22679E-13
 -1      1581 1.99755E+01 9.04926E-05 3.80987E-05-6.52641E-04-9.95014E-14-7.12200E-14
 -1      1582 1.99749E+01 2.88787E-04 8.74898E-05-4.67623E-04-5.77192E-14-1.29750E-13
 -1      1583 1.99807E+01 3.13334E-04-7.30449E-05-1.72515E-04-1.19356E-13-6.59317E-14
 -1      1584 1.99773E+01 4.18204E-05 4.20424E-05-1.01643E-03 9.75247E-14-6.18871E-14
 -1      1585 1.99759E+01 1.75310E-04 7.10924E-05-9.02401E-04 2.81171E-15-6.53346E-14
 -1      1586 1.99806E+01 1.50544E-04-5.30578E-05-1.30242E-03 6.88754E-15-1.69030E-14
 -1      1587 1.99798E+01 9.98309E-06 4.17505E-05-1.17319E-03 3.09000E-14-1.10382E-13
 -1      1588 1.99781E+01 9.61423E-05 5.67653E-05-1.10895E-03 6.53008E-14 1.88893E-14
 -1      1589 1.99818E+01 4.33304E-05-3.77083E-05-1.90351E-03 6.62966E-14 2.58768E-14
 -1      1590 1.99826E+01-9.70292E-06 3.89140E-05-1.19590E-03 3.68161E-14 3.62780E-14
 -1      1591 1.99809E+01 4.26216E-05 4.45733E-05-1.16555E-03-2.59398E-14 4.33273E-15
 -1      1592 1.99837E+01-2.37029E-05-2.61382E-05-2.14930E-03 3.00449E-15 2.12382E-13
 -1      1593 1.99854E+01-2.08226E-05 3.47115E-05-1.13700E-03 1.71160E-14-2.37157E-13
 -1      1594 1.99838E+01 7.93931E-06 3.44227E-05-1.12879E-03 6.72279E-14-9.62838E-14
 -1      1595 1.99859E+01-6.23092E-05-1.75938E-05-2.16663E-03 1.10703E-13 5.70608E-14
 -1      1596 1.99881E+01-2.60905E-05 2.99433E-05-1.03321E-03-4.78662E-14 1.05437E-13
 -1      1597 1.99866E+01-1.31981E-05 2.61302E-05-1.03865E-03-1.08050E-13-9.37963E-14
 -1      1598 1.99881E+01-8.13580E-05-1.14281E-05-2.04629E-03-1.44335E-13 2.49888E-13
 -1      1599 1.99905E+01-2.75431E-05 2.51342E-05-9.09387E-04-1.49374E-13 4.47462E-13
 -1      1600 1.99892E+01-2.48684E-05 1.94679E-05-9.22506E-04-6.18078E-14 2.52828E-13
 -1      1601 1.99903E+01-8.74652E-05-7.09437E-06-1.85154E-03-1.63870E-13 4.01026E-13
 -1      1602 1.99927E+01-2.67021E-05 2.06174E-05-7.81504E-04-1.98120E-14 5.33354E-13
 -1      1603 1.99915E+01-3.01952E-05 1.41935E-05-7.98262E-04-7.34978E-14 4.66039E-13
 -1      1604 1.99923E+01-8.55152E-05-4.13316E-06-1.62486E-03-1.04133E-13 4.51489E-13
 -1      1605 1.99945E+01-2.47209E-05 1.66102E-05-6.58865E-04-1.03456E-13 5.56361E-13
 -1      1606 1.99935E+01-3.15852E-05 1.00744E-05-6.76730E-04 8.97972E-15 5.61358E-13
 -1      1607 1.99940E+01-7.91022E-05-2.15106E-06-1.39307E-03-5.15559E-14 4.77601E-13
 -1      1608 1.99960E+01-2.25180E-05 1.33009E-05-5.45677E-04 1.81479E-13 5.08785E-13
 -1      1609 1.99952E+01-3.09550E-05 6.91773E-06-5.63335E-04 8.64328E-14 5.18395E-13
 -1      1610 1.99955E+01-7.09173E-05-7.81812E-07-1.17115E-03-1.73678E-14 3.92528E-13
 -1      1611 1.99973E+01-2.08861E-05 1.09571E-05-4.42014E-04 1.50927E-13 1.17007E-13
 -1      1612 1.99966E+01-2.99415E-05 4.61865E-06-4.59242E-04 1.88454E-13 2.92936E-13
 -1      1613 1.99967E+01-6.31051E-05 3.64939E-07-9.64926E-04 4.02623E-13 1.74506E-13
 -1      1614 1.99983E+01-2.04764E-05 1.00232E-05-3.44436E-04 1.36934E-13-1.62077E-13
 -1      1615 1.99977E+01-3.00086E-05 3.25456E-06-3.62046E-04 1.90673E-13 7.27557E-14
 -1      1616 1.99978E+01-5.75182E-05 1.77277E-06-7.72681E-04 2.65825E-13 1.06207E-13
 -1      1617 1.99990E+01-2.18674E-05 1.06863E-05-2.46668E-04-1.23455E-13-1.29345E-13
 -1      1618 1.99986E+01-3.24737E-05 3.06327E-06-2.66530E-04-4.20676E-14-2.21019E-13
 -1      1619 1.99986E+01-5.58154E-05 3.97099E-06-5.86662E-04 3.29191E-14 1.51892E-13
 -1      1620 1.99995E+01-2.52486E-05 1.03356E-05-1.40125E-04 1.42394E-13-2.94960E-13
 -1      1621 1.99993E+01-3.82667E-05 3.55617E-06-1.65953E-04 3.70163E-14-1.75719E-13
 -1      1622 1.99992E+01-6.01039E-05 6.48948E-06-3.95375E-04 9.29680E-14 2.19995E-14
 -1      1623 1.99998E+01-2.63219E-05-3.40342E-06-3.14303E-05 4.60647E-14-4.97455E-13
 -1      1624 1.99997E+01-4.04569E-05 1.41542E-06-5.94975E-05 5.47900E-14-4.55269E-13
 -1      1625 1.99996E+01-6.38538E-05 6.84086E-06-1.90292E-04 1.48859E-13-5.94650E-14
 -1      1626 1.99998E+01-6.04911E-06-9.65704E-06 1.02146E-05-2.12452E-13-1.88418E-13
 -1      1627 1.99998E+01-2.04657E-04 5.96489E-06-1.11304E-04-2.12015E-13-5.10447E-14
 -1      1628 1.99998E+01-1.02806E-04-3.12506E-06-8.29649E-05-2.20529E-13 1.71580E-13
 -1      1629 1.99998E+01-6.19509E-04 4.26940E-06-2.17858E-04-1.90884E-13 2.33786E-14
 -1      1630 1.99998E+01-3.81509E-04 4.05486E-06-1.98792E-04-1.03037E-13-1.00830E-13
 -1      1631 1.99997E+01-3.85676E-04 7.66851E-06-3.06591E-04-2.22663E-14-8.39908E-14
 -1      1632 1.99998E+01-1.17994E-03 1.62209E-06-2.81212E-04-4.58929E-13-9.79388E-14
 -1      1633 1.99998E+01-8.56959E-04 2.96421E-06-2.72528E-04-1.84472E-13-8.81012E-15
 -1      1634 1.99998E+01-7.98690E-04 6.76263E-06-4.76952E-04-2.27037E-14 5.87544E-14
 -1      1635 1.99998E+01-1.79371E-03-1.02794E-07-2.93821E-04-1.59854E-13 3.16231E-15
 -1      1636 1.99998E+01-1.44697E-03 1.17719E-06-2.95451E-04-4.91603E-13 2.58965E-13
 -1      1637 1.99998E+01-1.30254E-03 1.52376E-06-5.58474E-04-3.32380E-13 1.20678E-13
 -1      1638 1.99998E+01-2.35608E-03-7.58351E-07-2.61094E-04-5.75518E-13-2.97930E-13
 -1      1639 1.99998E+01-2.04682E-03 1.89936E-07-2.70863E-04-1.69386E-13-4.70762E-13
 -1      1640 1.99998E+01-1.82104E-03-3.64059E-06-5.46148E-04-4.28122E-13-2.35653E-13
 -1      1641 1.99998E+01-2.80558E-03-9.31206E-07-1.91107E-04-4.49670E-13 2.72969E-13
 -1      1642 1.99998E+01-2.56934E-03-3.43629E-07-2.07399E-04-6.10417E-13-2.42799E-14
 -1      1643 1.99998E+01-2.28467E-03-7.69305E-06-4.53065E-04-3.45843E-13-4.30666E-13
 -1      1644 1.99998E+01-3.07065E-03-8.53677E-07-9.57925E-05-2.71245E-13 1.54503E-13
 -1      1645 1.99998E+01-2.94495E-03-5.54667E-07-1.15951E-04-5.47058E-13 3.98708E-13
 -1      1646 1.99999E+01-2.63437E-03-1.05565E-05-2.96972E-04-2.52416E-13 2.32957E-13
 -1      1647 1.99998E+01-3.11734E-03-7.11155E-07 1.17254E-05 1.94747E-13 2.82998E-13
 -1      1648 1.99998E+01-3.11851E-03-7.11627E-07-9.72032E-06-2.20507E-13 2.12061E-13
 -1      1649 1.99999E+01-2.82006E-03-1.20009E-05-1.02052E-04-4.51884E-14 3.70671E-13
 -1      1650 1.99998E+01-2.93976E-03-5.32210E-07 1.17761E-04 3.07399E-13 5.74546E-14
 -1      1651 1.99998E+01-3.06765E-03-8.54422E-07 9.76734E-05 2.17686E-13 2.73355E-13
 -1      1652 1.99999E+01-2.81822E-03-1.19799E-05 1.05829E-04 8.63416E-14 2.95988E-13
 -1      1653 1.99998E+01-2.56093E-03-2.64511E-07 2.08713E-04 7.61141E-14-1.77404E-13
 -1      1654 1.99998E+01-2.79887E-03-9.76784E-07 1.92595E-04 3.39531E-13-1.53420E-13
 -1      1655 1.99999E+01-2.62917E-03-1.04759E-05 3.00192E-04 1.51852E-13-4.92615E-15
 -1      1656 1.99998E+01-2.04122E-03 1.47811E-07 2.70971E-04-2.99036E-13 1.86262E-14
 -1      1657 1.99998E+01-2.35109E-03-7.93002E-07 2.61371E-04 9.21498E-15-3.36506E-13
 -1      1658 1.99998E+01-2.28056E-03-7.68888E-06 4.54359E-04 9.98557E-14-3.99926E-13
 -1      1659 1.99998E+01-1.43638E-03 1.14917E-06 2.95293E-04-1.74996E-13 1.41420E-13
 -1      1660 1.99998E+01-1.78315E-03-9.88595E-08 2.93856E-04-3.60953E-13 4.67355E-13
 -1      1661 1.99998E+01-1.81590E-03-3.53199E-06 5.46407E-04 1.77996E-14 2.52085E-13
 -1      1662 1.99998E+01-8.47442E-04 3.15459E-06 2.72027E-04-3.81824E-13-2.13000E-13
 -1      1663 1.99998E+01-1.16982E-03 1.56285E-06 2.80346E-04-1.50016E-13-1.64068E-14
 -1      1664 1.99998E+01-1.29308E-03 1.59061E-06 5.57551E-04-1.53142E-13 6.17147E-14
 -1      1665 1.99998E+01-3.81629E-04 1.21720E-06 1.98394E-04-5.73146E-13-3.82683E-14
 -1      1666 1.99998E+01-6.13479E-04 4.28957E-06 2.17948E-04-3.66546E-13-2.24375E-13
 -1      1667 1.99998E+01-7.91906E-04 6.61733E-06 4.74376E-04-1.58435E-13-3.11852E-13
 -1      1668 1.99997E+01-1.51948E-04-5.50209E-06 1.31409E-04-4.15987E-13-4.41960E-14
 -1      1669 1.99997E+01-2.58315E-04 3.71529E-06 1.72049E-04-4.97805E-13 4.87748E-14
 -1      1670 1.99997E+01-4.38239E-04 5.17413E-06 3.69418E-04-2.16836E-13-6.45823E-15
 -1      1671 1.99996E+01-2.12845E-04-2.65154E-06 2.66467E-04-1.08609E-13 4.41213E-15
 -1      1672-6.04210E-01-1.45387E+01-1.71346E+00-1.09220E+00 1.12821E-12 6.26998E-13
 -1      1673-5.69486E-01-1.61894E+01-1.83839E+00 1.15094E-01 3.92630E-13 5.33934E-13
 -1      1674 8.00621E-01-9.01610E+00-1.37854E+00-1.53434E-01 1.78679E-12 8.69943E-13
 -1      1675 3.14306E-01-1.35803E+01-1.81011E+00-4.50589E-01 1.37490E-12 6.26416E-13
 -1      1676 6.21000E+00-1.42683E+00-7.24510E-01 3.94628E+00 1.84208E-12 1.38067E-12
 -1      1677 3.35980E+00-7.04604E+00-1.44033E+00 1.21724E+00 1.75304E-12 1.00753E-12
 -1      1678 1.60911E+01 4.22664E+00-1.46983E-02 9.03478E+00 1.67044E-12 1.53133E-12
 -1      1679 9.88863E+00 7.14787E-01-8.47662E-01 5.29892E+00 1.92557E-12 1.44196E-12
 -1      1680 3.16734E+01 5.12516E+00 8.16559E-01 1.13043E+01 1.00675E-12 1.16263E-12
 -1      1681 2.26183E+01 4.34610E+00-1.59320E-02 9.10786E+00 1.35680E-12 1.27343E-12
 -1      1682 4.56079E+01 5.33098E+00 1.62443E+00 1.11555E+01 6.49591E-13 6.21281E-13
 -1      1683 3.65463E+01 6.73164E+00 8.78599E-01 1.22331E+01 9.86378E-13 1.16596E-12
 -1      1684 5.45056E+01 3.84699E+00 1.91737E+00 4.58160E+00 3.60795E-13-2.78555E-13
 -1      1685 4.89941E+01 5.21948E+00 1.52950E+00 8.99518E+00 5.21361E-13 3.42837E-13
 -1      1686 5.61077E+01 3.68424E+00 1.96792E+00-3.20457E+00 4.48031E-13-1.18838E-12
 -1      1687 5.65578E+01 3.59940E+00 2.00059E+00 2.38457E+00 3.41449E-13-5.54667E-13
 -1      1688 4.79781E+01 5.16971E+00 1.44296E+00-9.33813E+00 8.54664E-13-1.91658E-12
 -1      1689 5.41109E+01 3.80113E+00 1.93384E+00-5.38476E+00 5.64104E-13-1.45700E-12
 -1      1690 3.47431E+01 6.29576E+00 7.04764E-01-1.16106E+01 1.46483E-12-2.31504E-12
 -1      1691 4.39872E+01 5.12697E+00 1.47066E+00-1.09592E+01 1.06221E-12-2.07190E-12
 -1      1692 2.02784E+01 5.18232E+00-1.55005E-01-9.55482E+00 1.94145E-12-2.28528E-12
 -1      1693 2.92478E+01 6.12513E+00 7.66080E-01-1.21350E+01 1.65579E-12-2.43605E-12
 -1      1694 9.08733E+00 2.21987E-01-9.37180E-01-4.79386E+00 2.10787E-12-1.78391E-12
 -1      1695 1.50188E+01 4.13798E+00-5.69945E-02-8.55439E+00 2.05880E-12-2.17037E-12
 -1      1696 3.06887E+00-7.12102E+00-1.45084E+00-1.08504E+00 1.72296E-12-1.09526E-12
 -1      1697 5.64897E+00-1.82035E+00-7.94943E-01-3.53344E+00 1.99352E-12-1.54909E-12
 -1      1698-3.52283E-04-1.32622E+01-1.80468E+00 4.94028E-01 9.88765E-13-5.92471E-13
 -1      1699 3.22772E-01-8.98705E+00-1.43561E+00 5.07652E-01 1.62559E-12-9.20125E-13
 -1      1700-5.86811E-01-1.43777E+01-1.68659E+00-2.10981E-01-7.72299E-14-4.43673E-13
 -1      1701-6.46735E-01-1.37822E+01-1.67004E+00 1.08435E+00 6.67466E-13-5.12146E-13
 -1      1702-1.33415E-01-1.09815E+01-1.44187E+00-3.73918E-01-1.10634E-12-6.55032E-13
 -1      1703-2.72601E-01-1.39494E+01-1.70151E+00 4.06993E-01-3.95461E-13-4.56690E-13
 -1      1704 2.26745E+00-4.50179E+00-1.02255E+00 1.58755E+00-1.81966E-12-1.13379E-12
 -1      1705 1.17458E+00-9.53636E+00-1.54582E+00 4.14519E-01-1.40621E-12-7.63695E-13
 -1      1706 1.01849E+01 2.01900E+00-3.01005E-01 6.59636E+00-1.90470E-12-1.65490E-12
 -1      1707 6.03652E+00-2.75058E+00-1.01271E+00 3.31245E+00-1.79390E-12-1.27198E-12
 -1      1708 2.12306E+01 6.29710E+00 3.75106E-01 1.11159E+01-1.79945E-12-2.16260E-12
 -1      1709 1.39470E+01 4.17875E+00-4.22681E-01 7.82045E+00-1.99130E-12-1.89226E-12
 -1      1710 3.61084E+01 5.84115E+00 1.04519E+00 1.17754E+01-1.24439E-12-2.00440E-12
 -1      1711 2.70346E+01 6.31649E+00 3.03483E-01 1.08758E+01-1.57541E-12-2.05369E-12
 -1      1712 4.88145E+01 4.52324E+00 1.64191E+00 8.84830E+00-7.12116E-13-1.64735E-12
 -1      1713 4.09724E+01 6.30756E+00 1.06735E+00 1.16186E+01-1.08658E-12-2.02505E-12
 -1      1714 5.38991E+01 3.59395E+00 1.72324E+00 1.13184E+00-5.01293E-13-6.63691E-13
 -1      1715 5.09576E+01 4.40319E+00 1.53191E+00 6.21068E+00-6.18477E-13-1.31561E-12
 -1      1716 5.24079E+01 4.20644E+00 1.69213E+00-6.36191E+00-5.08343E-13 3.07698E-13
 -1      1717 5.47397E+01 3.41913E+00 1.80410E+00-1.38410E+00-4.27380E-13-3.48110E-13
 -1      1718 4.36489E+01 6.00716E+00 1.28310E+00-1.13252E+01-7.81181E-13 1.07481E-12
 -1      1719 5.00775E+01 4.42037E+00 1.71984E+00-8.46367E+00-5.58747E-13 5.92415E-13
 -1      1720 3.13676E+01 7.13023E+00 6.72791E-01-1.23448E+01-1.27998E-12 1.59228E-12
 -1      1721 3.96092E+01 6.19360E+00 1.34740E+00-1.24121E+01-9.16711E-13 1.30185E-12
 -1      1722 1.90799E+01 4.97711E+00-6.61656E-02-9.29069E+00-1.75049E-12 1.65146E-12
 -1      1723 2.68047E+01 6.16602E+00 7.00266E-01-1.18463E+01-1.42597E-12 1.59162E-12
 -1      1724 8.97139E+00 6.32050E-01-7.65853E-01-5.19840E+00-2.05302E-12 1.53522E-12
 -1      1725 1.40261E+01 4.22732E+00-6.64887E-03-8.55198E+00-1.91969E-12 1.76592E-12
 -1      1726 3.24174E+00-6.35606E+00-1.33465E+00-1.49173E+00-1.58906E-12 1.14808E-12
 -1      1727 5.62276E+00-1.21363E+00-6.72453E-01-3.84750E+00-1.98153E-12 1.57607E-12
 -1      1728 5.70678E-01-1.29639E+01-1.69782E+00-1.02808E-01-7.68052E-13 5.45293E-13
 -1      1729 1.20584E+00-8.28092E+00-1.23363E+00-5.27444E-01-1.34581E-12 9.97286E-13
 -1      1730-5.66725E-01-1.63694E+01-1.87627E+00-4.28521E-01 9.72000E-14 4.50695E-13
 -1      1731-5.52790E-01-1.44248E+01-1.69656E+00 7.93970E-01-5.62494E-13 4.12892E-13
 -1      1732 2.45492E+01-1.65537E-01 2.35335E-01 6.84522E+00 9.41469E-13 5.21805E-13
 -1      1733 1.32359E+01-3.60144E+00-4.54380E-01 6.12157E+00 1.02240E-12 8.74245E-13
 -1      1734 1.99998E+01-2.86235E-05 5.25831E-07-2.72136E-05-2.70384E-13 6.93252E-14
 -1      1735 1.99997E+01-1.48425E-04 6.95547E-07-1.41235E-04-5.16765E-14 2.07672E-13
 -1      1736 1.91010E-01-1.02501E+01-1.26112E+00 1.83556E+00 6.40155E-13 8.50875E-13
 -1      1737 5.12246E+00-7.54043E+00-9.58319E-01 4.11603E+00 8.58535E-13 7.41053E-13
 -1      1738-1.33289E+00-1.10977E+01-1.33769E+00-2.06825E-01 1.65166E-13 8.96672E-13
 -1      1739 3.45487E+01 2.82923E+00 5.96270E-01 5.85256E+00 7.86260E-13 2.74114E-13
 -1      1740 4.31561E+01 6.17526E+00 1.30874E+00 4.70861E+00 7.55646E-13-4.88498E-14
 -1      1741 4.77187E+01 7.33234E+00 1.58823E+00 1.46550E+00 6.74683E-13-4.21163E-13
 -1      1742 4.78233E+01 7.10555E+00 1.61787E+00-1.72738E+00 7.41851E-13-8.80684E-13
 -1      1743 4.23788E+01 5.77184E+00 1.25798E+00-4.52086E+00 9.62536E-13-1.22302E-12
 -1      1744 3.36868E+01 3.34202E+00 7.51145E-01-6.76976E+00 1.17939E-12-1.49381E-12
 -1      1745 2.25200E+01 2.46746E-01 5.27105E-02-7.14927E+00 1.29852E-12-1.52789E-12
 -1      1746 1.23220E+01-3.65736E+00-5.61097E-01-5.81072E+00 1.18994E-12-1.30440E-12
 -1      1747 4.39021E+00-6.95507E+00-9.40134E-01-3.77159E+00 9.52571E-13-1.05374E-12
 -1      1748-3.49881E-01-9.24317E+00-1.23580E+00-1.12821E+00 4.88609E-13-9.07385E-13
 -1      1749-9.61762E-01-9.22168E+00-1.18378E+00 9.84342E-01-6.81399E-14-8.77964E-13
 -1      1750 1.67134E+00-7.70871E+00-1.04057E+00 3.04829E+00-6.39155E-13-9.11188E-13
 -1      1751 8.25123E+00-4.44094E+00-5.68845E-01 5.56889E+00-9.62119E-13-1.04734E-12
 -1      1752 1.70247E+01-1.07802E+00-2.27090E-01 7.05319E+00-1.13887E-12-1.24650E-12
 -1      1753 2.76531E+01 2.50154E+00 4.42876E-01 7.39721E+00-1.15880E-12-1.33604E-12
 -1      1754 3.71852E+01 4.76249E+00 8.24428E-01 5.87343E+00-9.82124E-13-1.19205E-12
 -1      1755 4.41998E+01 6.88333E+00 1.35181E+00 3.57356E+00-8.79630E-13-9.14491E-13
 -1      1756 4.66628E+01 7.42910E+00 1.47860E+00-2.12456E-01-8.31613E-13-4.53054E-13
 -1      1757 4.54342E+01 6.89061E+00 1.46232E+00-3.70662E+00-7.76934E-13 2.60347E-14
 -1      1758 3.95078E+01 5.73533E+00 1.13267E+00-6.45800E+00-8.43312E-13 4.52305E-13
 -1      1759 3.09527E+01 3.22623E+00 5.93771E-01-7.36379E+00-9.77607E-13 6.58362E-13
 -1      1760 2.15413E+01 2.31191E-01 1.39017E-01-7.46973E+00-1.15130E-12 9.26592E-13
 -1      1761 1.21086E+01-3.26496E+00-4.36768E-01-6.28354E+00-1.09668E-12 1.08991E-12
 -1      1762 5.05574E+00-7.10827E+00-9.00039E-01-4.44688E+00-6.83564E-13 1.13429E-12
 -1      1763 3.96393E-01-9.98223E+00-1.20722E+00-2.47092E+00-4.04954E-13 8.12239E-13
 -1      1764 2.62773E+01 2.08500E+00-2.20939E-02-2.62571E+00-2.25962E-13 8.95450E-13
 -1      1765 2.16783E+01 3.35709E+00-3.71497E-02-1.61398E+00-2.43666E-13-2.95056E-13
 -1      1766 2.22497E+01 3.30547E+00-5.25068E-02-2.03933E+00-2.93307E-13-2.10408E-13
 -1      1767 2.28742E+01 3.05205E+00-5.23249E-02-2.28675E+00-3.02969E-13-8.00193E-14
 -1      1768 2.33954E+01 2.74815E+00-1.56786E-01-2.65582E+00-3.34521E-13 8.45643E-14
 -1      1769 2.28683E+01 2.32209E+00-1.17614E-02-1.96254E+00-3.08242E-13-1.25198E-13
 -1      1770 1.92600E+01 3.50105E+00-2.39408E-02-6.50184E-02-7.53096E-14-4.76778E-13
 -1      1771 1.99199E+01 3.52013E+00-1.43487E-02-4.26474E-01-1.13000E-13-4.50175E-13
 -1      1772 1.77696E+01 3.66752E+00-2.54086E-02 5.94732E-01 7.77156E-16-5.19708E-13
 -1      1773 1.85454E+01 3.65434E+00-6.65156E-05 3.08685E-01-3.05103E-14-5.04831E-13
 -1      1774 1.91822E+01 2.93823E+00-2.43134E-02 1.90969E-01-4.97918E-14-4.60380E-13
 -1      1775 1.61912E+01 3.97742E+00-2.74641E-02 1.00336E+00 7.69610E-14-5.58231E-13
 -1      1776 1.69859E+01 3.92635E+00 1.03360E-02 8.47002E-01 5.03278E-14-5.40731E-13
 -1      1777 1.75578E+01 3.28283E+00-2.30416E-02 8.55291E-01 4.00036E-14-5.10191E-13
 -1      1778 1.48339E+01 4.36665E+00-2.50149E-02 1.06106E+00 1.13463E-13-6.03028E-13
 -1      1779 1.54687E+01 4.29720E+00 1.34505E-02 1.05941E+00 9.84265E-14-5.90507E-13
 -1      1780 1.58873E+01 3.79072E+00-1.36390E-02 1.20656E+00 1.03844E-13-5.71872E-13
 -1      1781 1.41088E+01 4.68648E+00-1.51346E-02 7.86012E-01 1.28439E-13-6.06554E-13
 -1      1782 1.43730E+01 4.62944E+00 6.39982E-03 9.07392E-01 1.13421E-13-6.16012E-13
 -1      1783 1.45496E+01 4.31757E+00 5.08003E-04 1.13335E+00 1.32081E-13-6.15151E-13
 -1      1784 1.43303E+01 4.79028E+00-1.32746E-03 3.56856E-01 1.45765E-13-5.83403E-13
 -1      1785 1.40915E+01 4.76806E+00-7.96655E-03 5.09142E-01 1.35090E-13-5.97392E-13
 -1      1786 1.39893E+01 4.63500E+00 9.89210E-03 7.00982E-01 1.46999E-13-6.11060E-13
 -1      1787 1.55050E+01 4.64542E+00 8.51709E-03 4.39215E-02 1.77627E-13-5.31389E-13
 -1      1788 1.48032E+01 4.65394E+00-2.26134E-02 1.16413E-01 1.56440E-13-5.59315E-13
 -1      1789 1.44754E+01 4.58679E+00 7.14360E-03 1.75011E-01 1.59755E-13-5.66421E-13
 -1      1790 1.74307E+01 4.33107E+00 7.58120E-03 4.15024E-02 2.25873E-13-4.41883E-13
 -1      1791 1.63877E+01 4.35609E+00-3.26979E-02-3.59879E-02 1.96974E-13-4.92932E-13
 -1      1792 1.59533E+01 4.20599E+00-5.77653E-03-1.37379E-01 1.94851E-13-5.05009E-13
 -1      1793 1.97514E+01 3.95271E+00-7.87630E-03 4.10847E-01 2.77715E-13-3.08732E-13
 -1      1794 1.85499E+01 3.99268E+00-3.92933E-02 1.66422E-01 2.42384E-13-3.82649E-13
 -1      1795 1.81334E+01 3.65657E+00-1.75173E-02-6.05435E-02 2.38160E-13-3.95900E-13
 -1      1796 2.22438E+01 3.48670E+00-3.81305E-02 1.05870E+00 3.31665E-13-8.61256E-14
 -1      1797 2.09709E+01 3.60283E+00-4.97605E-02 6.79178E-01 2.98778E-13-2.16258E-13
 -1      1798 2.06398E+01 3.07965E+00-1.84503E-02 3.66584E-01 2.92396E-13-2.34535E-13
 -1      1799 2.49699E+01 2.64430E+00-5.58728E-02 1.74267E+00 3.28188E-13 2.90074E-13
 -1      1800 2.35541E+01 3.03801E+00-5.78763E-02 1.35133E+00 3.26315E-13 7.03118E-14
 -1      1801 2.32897E+01 2.40638E+00 1.55624E-03 9.09782E-01 3.31837E-13 8.50708E-15
 -1      1802 2.69136E+01 1.11485E+00-1.30025E-01 1.47143E+00 2.80449E-13 7.44849E-13
 -1      1803 2.58756E+01 2.22349E+00-2.84322E-03 1.74874E+00 2.99524E-13 4.53887E-13
 -1      1804 2.52837E+01 1.49807E+00-2.17755E-02 1.05166E+00 3.31252E-13 3.00693E-13
 -1      1805 2.64114E+01 6.51541E-01-5.91029E-02 6.83371E-01 2.67661E-13 6.67366E-13
 -1      1806 2.49577E+01 2.52111E+00 9.17080E-02-2.91263E+00-2.95495E-13 3.89619E-13
 -1      1807 2.60113E+01 7.96356E-02-1.59784E-02 7.25051E-02 2.26956E-13 5.38566E-13
 -1      1808 2.63121E+01 2.63287E-01-1.47415E-02 3.33201E-01 2.26642E-13 6.11417E-13
 -1      1809 2.58450E+01 6.11115E-01-3.55239E-03 5.53573E-01 2.66738E-13 4.12792E-13
 -1      1810 2.45840E+01 1.62075E+00 8.19050E-02-2.21263E+00-3.11563E-13 2.74204E-13
 -1      1811 2.36590E+01 2.40820E-01 3.07662E-02-1.07965E+00-2.28602E-13 2.40387E-13
 -1      1812 2.31215E+01 6.16968E-02-6.35115E-03-9.40257E-01-2.01741E-13 1.69814E-13
 -1      1813 2.28973E+01-4.27873E-02 2.34555E-02-9.05896E-01-1.80965E-13 1.81036E-13
 -1      1814 2.25053E+01-1.21029E-01-1.06374E-03-9.39567E-01-1.66137E-13 1.28154E-13
 -1      1815 2.31236E+01 5.01421E-02-1.02651E-03-1.21496E+00-2.21205E-13 4.58704E-14
 -1      1816 2.22818E+01-1.42762E-01 1.13585E-02-1.01125E+00-1.28422E-13 1.48403E-13
 -1      1817 2.19020E+01-1.33115E-01 1.47683E-03-1.08399E+00-8.75193E-14 1.16603E-13
 -1      1818 2.26657E+01-1.75440E-01 1.73807E-03-1.23863E+00-1.75001E-13 7.12503E-14
 -1      1819 2.16496E+01-8.61372E-02 2.88012E-03-1.15149E+00-7.92607E-14 1.02461E-13
 -1      1820 2.12728E+01-4.34481E-03 8.39674E-03-1.17385E+00-9.43581E-14 6.06780E-14
 -1      1821 2.21976E+01-1.45329E-01 3.92995E-03-1.39321E+00-1.17665E-13 4.05616E-14
 -1      1822 2.09937E+01 9.59306E-02 3.19060E-04-1.13740E+00-1.35285E-13 5.55476E-14
 -1      1823 2.06629E+01 2.18374E-01 1.62473E-02-1.04525E+00-1.57372E-13-2.80852E-15
 -1      1824 2.16763E+01 8.18819E-02 1.77162E-03-1.43503E+00-1.41805E-13 4.04798E-15
 -1      1825 2.04108E+01 3.30698E-01 3.38310E-03-8.45613E-01-1.57662E-13-4.31911E-14
 -1      1826 2.01955E+01 4.34082E-01 1.90418E-02-6.25152E-01-1.49698E-13-4.98998E-14
 -1      1827 2.11531E+01 4.10316E-01-5.74165E-03-1.17883E+00-1.91150E-13-1.83221E-14
 -1      1828 2.00567E+01 4.98173E-01 1.03933E-02-2.85477E-01-1.55057E-13-7.98367E-14
 -1      1829 2.00135E+01 5.21677E-01 1.44027E-02 7.71119E-03-1.43625E-13-1.23792E-13
 -1      1830 2.07666E+01 6.80849E-01-1.44368E-02-5.74791E-01-1.88802E-13-7.72954E-14
 -1      1831 2.00442E+01 4.96667E-01 1.66043E-02 3.78324E-01-1.64066E-13-1.68276E-13
 -1      1832 2.01832E+01 4.22848E-01 5.62500E-03 6.42446E-01-1.36181E-13-1.89985E-13
 -1      1833 2.06603E+01 7.40043E-01-1.67692E-02 2.28454E-01-1.74619E-13-1.69897E-13
 -1      1834 2.03584E+01 3.21285E-01 1.67728E-02 9.09719E-01-1.49164E-13-2.46365E-13
 -1      1835 2.06342E+01 1.90725E-01-1.71182E-03 1.05690E+00-1.43966E-13-3.17638E-13
 -1      1836 2.08668E+01 5.47008E-01-9.26080E-03 9.47307E-01-2.11542E-13-2.73233E-13
 -1      1837 2.08630E+01 6.66033E-02 9.47621E-03 1.14385E+00-8.95682E-14-3.55271E-13
 -1      1838 2.11938E+01-5.69547E-02-5.39076E-03 1.14710E+00-4.81217E-14-3.74894E-13
 -1      1839 2.12686E+01 1.98582E-01 1.04275E-03 1.33759E+00-1.45664E-13-2.93527E-13
 -1      1840 2.13842E+01-1.50873E-01-1.07753E-03 1.06562E+00-3.54061E-14-4.17353E-13
 -1      1841 2.16872E+01-2.24455E-01-5.60991E-03 9.58467E-01-8.27984E-15-4.22617E-13
 -1      1842 2.16836E+01-1.40615E-01 7.83763E-03 1.33131E+00-6.35108E-14-3.74268E-13
 -1      1843 2.17910E+01-2.66532E-01-9.63371E-03 7.77740E-01-1.01655E-15-4.72202E-13
 -1      1844 2.20095E+01-2.83593E-01-4.34279E-03 6.19968E-01-2.44145E-14-4.38599E-13
 -1      1845 2.19747E+01-3.53771E-01 9.25564E-03 1.02849E+00-3.98583E-14-3.97998E-13
 -1      1846 2.20237E+01-2.81220E-01-1.36014E-02 4.16107E-01-6.97107E-14-3.88437E-13
 -1      1847 2.21365E+01-2.59084E-01-2.92961E-03 2.60386E-01-4.63058E-14-3.75205E-13
 -1      1848 2.20933E+01-4.15301E-01 7.27012E-03 5.96145E-01-1.99411E-14-4.00725E-13
 -1      1849 2.20826E+01-2.31785E-01-1.32897E-02 8.51765E-02-4.71021E-14-3.98099E-13
 -1      1850 2.20970E+01-1.92790E-01-1.81378E-03-3.79356E-02-4.61436E-15-3.75367E-13
 -1      1851 2.20577E+01-3.66087E-01 4.41549E-03 1.75849E-01-6.18971E-14-3.78684E-13
 -1      1852 2.20010E+01-1.58224E-01-1.04292E-02-1.62371E-01-2.28402E-14-4.10485E-13
 -1      1853 2.19402E+01-1.18715E-01-9.82408E-04-2.43277E-01-8.00245E-14-4.26953E-13
 -1      1854 2.19132E+01-2.65164E-01 2.03113E-03-1.53342E-01-4.81741E-14-3.88563E-13
 -1      1855 2.18237E+01-8.75515E-02-6.74723E-03-3.15977E-01-6.47351E-14-4.07605E-13
 -1      1856 2.17149E+01-5.57249E-02-3.47203E-04-3.58292E-01-4.00461E-15-3.95067E-13
 -1      1857 2.17055E+01-1.58240E-01 4.12580E-04-3.68268E-01-6.19723E-14-3.33845E-13
 -1      1858 2.15932E+01-3.22471E-02-3.36102E-03-3.88846E-01-1.04941E-14-3.29219E-13
 -1      1859 2.14608E+01-1.02783E-02 1.45863E-04-4.01810E-01-1.71911E-15-3.05686E-13
 -1      1860 2.14703E+01-6.96342E-02-5.79149E-04-4.79672E-01 2.84137E-14-2.67768E-13
 -1      1861 2.13435E+01 5.15523E-03-7.64970E-04-4.02738E-01-6.86841E-14-2.98294E-13
 -1      1862 2.12060E+01 1.82736E-02 5.11144E-04-3.96313E-01-3.31601E-14-3.80348E-13
 -1      1863 2.12326E+01-6.90550E-03-1.14468E-03-5.12313E-01-4.20339E-14-2.33760E-13
 -1      1864 2.10988E+01 2.70671E-02 9.59677E-04-3.79031E-01 1.47995E-14-4.62862E-13
 -1      1865 2.09686E+01 3.34780E-02 7.53219E-04-3.61577E-01 3.86289E-14-4.31339E-13
 -1      1866 2.10081E+01 3.17172E-02-1.43342E-03-4.92573E-01-4.17651E-14-2.98235E-13
 -1      1867 2.08743E+01 3.74762E-02 1.93769E-03-3.34910E-01 1.17246E-13-3.85446E-13
 -1      1868 2.07583E+01 3.93591E-02 8.83117E-04-3.12524E-01 1.33104E-13-3.36917E-13
 -1      1869 2.08060E+01 5.16298E-02-1.54022E-03-4.42663E-01 9.88333E-14-3.27713E-13
 -1      1870 2.06780E+01 4.02275E-02 2.36073E-03-2.82580E-01 1.62401E-13-3.36740E-13
 -1      1871 2.05792E+01 3.93596E-02 9.20895E-04-2.59260E-01 1.96293E-13-2.30742E-13
 -1      1872 2.06304E+01 5.86501E-02-1.52580E-03-3.78957E-01 1.69578E-13-2.56806E-13
 -1      1873 2.05126E+01 3.83823E-02 2.41417E-03-2.29871E-01 8.93822E-14-1.89255E-13
 -1      1874 2.04315E+01 3.60497E-02 8.91019E-04-2.07976E-01 6.32228E-14-1.25197E-13
 -1      1875 2.04825E+01 5.76546E-02-1.43231E-03-3.12369E-01 2.33409E-13-1.29872E-13
 -1      1876 2.03776E+01 3.41262E-02 2.24757E-03-1.81285E-01 2.95762E-14-1.60439E-13
 -1      1877 2.03130E+01 3.11838E-02 8.17241E-04-1.62014E-01 5.01436E-14-1.04974E-13
 -1      1878 2.03611E+01 5.22399E-02-1.29121E-03-2.49475E-01 7.31950E-14-1.27237E-13
 -1      1879 2.02703E+01 2.88992E-02 1.96914E-03-1.39008E-01 2.96497E-14-1.53938E-13
 -1      1880 2.02203E+01 2.58726E-02 7.19515E-04-1.22804E-01-2.41363E-14-1.67008E-13
 -1      1881 2.02638E+01 4.48365E-02-1.12640E-03-1.93727E-01 3.71224E-14-1.09250E-13
 -1      1882 2.01873E+01 2.35801E-02 1.65076E-03-1.03733E-01-7.08981E-14-1.88607E-13
 -1      1883 2.01495E+01 2.07642E-02 6.12904E-04-9.05825E-02-5.98641E-14-1.18254E-13
 -1      1884 2.01876E+01 3.69665E-02-9.55485E-04-1.46493E-01-1.62456E-14-1.62110E-13
 -1      1885 2.01245E+01 1.86579E-02 1.33639E-03-7.52664E-02-4.81652E-14-6.19770E-14
 -1      1886 2.00968E+01 1.61949E-02 5.07760E-04-6.49072E-02-7.30886E-14-1.61232E-13
 -1      1887 2.01291E+01 2.95045E-02-7.90688E-04-1.07854E-01-2.53041E-14-1.92386E-13
 -1      1888 2.00782E+01 1.43653E-02 1.05021E-03-5.29399E-02-6.64293E-14-9.77288E-14
 -1      1889 2.00585E+01 1.23028E-02 4.10499E-04-4.49957E-02 2.64503E-14-7.45799E-14
 -1      1890 2.00853E+01 2.28931E-02-6.39721E-04-7.71600E-02-8.14952E-14-2.71084E-15
 -1      1891 2.00450E+01 1.07763E-02 8.03270E-04-3.58803E-02 4.42936E-14-1.46745E-13
 -1      1892 2.00314E+01 9.10680E-03 3.24543E-04-2.99434E-02 1.51262E-14-6.50218E-14
 -1      1893 2.00532E+01 1.73014E-02-5.06737E-04-5.34093E-02 1.19740E-14 6.91604E-14
 -1      1894 2.00220E+01 7.87310E-03 5.98423E-04-2.31728E-02-4.75842E-14-1.25033E-13
 -1      1895 2.00130E+01 6.55954E-03 2.51203E-04-1.88522E-02-3.14633E-14-1.16840E-13
 -1      1896 2.00303E+01 1.27365E-02-3.93258E-04-3.54848E-02-3.71633E-14-3.86490E-14
 -1      1897 2.00066E+01 5.58913E-03 4.33790E-04-1.39543E-02-7.51611E-15-1.39153E-13
 -1      1898 2.00010E+01 4.58190E-03 1.90404E-04-1.09002E-02-3.70470E-14-2.60296E-14
 -1      1899 2.00144E+01 9.11731E-03-2.98997E-04-2.22951E-02-5.10110E-14-1.54082E-13
 -1      1900 1.99968E+01 3.83718E-03 3.05047E-04-7.46020E-03-3.57996E-14 6.71013E-14
 -1      1901 1.99936E+01 3.08383E-03 1.41240E-04-5.37429E-03 4.80720E-14 1.27804E-13
 -1      1902 2.00039E+01 6.32140E-03-2.22541E-04-1.28497E-02 7.58369E-15 1.27342E-14
 -1      1903 1.99911E+01 2.52582E-03 2.06881E-04-3.04216E-03 1.52692E-14 9.89921E-14
 -1      1904 1.99896E+01 1.97661E-03 1.02370E-04-1.67834E-03-2.62312E-15 4.98593E-14
 -1      1905 1.99973E+01 4.21411E-03-1.61867E-04-6.29315E-03 1.86874E-14 8.42930E-14
 -1      1906 1.99882E+01 1.56870E-03 1.33865E-04-1.68201E-04 5.75141E-15-4.67835E-14
 -1      1907 1.99878E+01 1.17945E-03 7.22906E-05 6.70537E-04 1.11126E-14-8.92136E-14
 -1      1908 1.99934E+01 2.66497E-03-1.14708E-04-1.91316E-03-3.38594E-14-1.50165E-13
 -1      1909 1.99872E+01 8.89223E-04 8.09496E-05 1.58617E-03-1.11795E-13-7.95021E-14
 -1      1910 1.99875E+01 6.22346E-04 4.95010E-05 2.05368E-03-1.94752E-13-1.05474E-13
 -1      1911 1.99915E+01 1.55639E-03-7.87988E-05 8.66312E-04-7.32324E-14 1.18077E-13
 -1      1912 1.99874E+01 4.22280E-04 4.36937E-05 2.55150E-03-2.10133E-13-1.23411E-13
 -1      1913 1.99881E+01 2.46856E-04 3.26083E-05 2.76518E-03-1.76577E-13-8.29233E-14
 -1      1914 1.99909E+01 7.87271E-04-5.20289E-05 2.49943E-03-2.47729E-13 1.70317E-13
 -1      1915 1.99884E+01 1.14296E-04 1.83507E-05 2.97932E-03-3.57743E-14-6.18150E-14
 -1      1916 1.99893E+01 5.54579E-06 2.03750E-05 3.02668E-03 7.93738E-14 5.28291E-14
 -1      1917 1.99911E+01 2.73711E-04-3.25191E-05 3.33604E-03-2.93626E-14 7.57673E-14
 -1      1918 1.99897E+01-7.76902E-05 1.85524E-06 3.05662E-03 6.78781E-14-6.30214E-14
 -1      1919 1.99907E+01-1.39185E-04 1.17370E-05 3.00126E-03 4.67583E-14-1.09777E-13
 -1      1920 1.99918E+01-5.20602E-05-1.86551E-05 3.63949E-03-3.21472E-14 1.10314E-13
 -1      1921 1.99912E+01-1.87391E-04-8.23604E-06 2.91888E-03 8.49414E-14 6.78891E-14
 -1      1922 1.99921E+01-2.16566E-04 5.79852E-06 2.80570E-03-4.26587E-14 8.52035E-14
 -1      1923 1.99928E+01-2.43532E-04-9.08853E-06 3.60334E-03 1.35611E-13 1.33117E-13
 -1      1924 1.99927E+01-2.40792E-04-1.38271E-05 2.66135E-03-1.70939E-13 1.16718E-13
 -1      1925 1.99936E+01-2.48975E-04 1.81456E-06 2.52084E-03 8.50581E-15 2.12272E-13
 -1      1926 1.99939E+01-3.42145E-04-2.71961E-06 3.36595E-03-7.45192E-14 2.86220E-13
 -1      1927 1.99941E+01-2.57680E-04-1.63693E-05 2.34831E-03 1.94885E-14 2.06171E-13
 -1      1928 1.99949E+01-2.53409E-04-8.32537E-07 2.19999E-03 1.25872E-13 1.17192E-13
 -1      1929 1.99949E+01-3.79561E-04 1.32840E-06 3.02282E-03 1.99777E-14 3.84430E-13
 -1      1930 1.99953E+01-2.53066E-04-1.69426E-05 2.02043E-03 3.03672E-13-5.33211E-14
 -1      1931 1.99960E+01-2.42832E-04-2.65316E-06 1.87545E-03 2.77110E-13 1.24604E-13
 -1      1932 1.99959E+01-3.79833E-04 3.73838E-06 2.63659E-03 9.26475E-14 3.15324E-13
 -1      1933 1.99965E+01-2.38479E-04-1.63168E-05 1.70039E-03 2.78719E-13 2.53320E-13
 -1      1934 1.99970E+01-2.27341E-04-4.04425E-06 1.56344E-03 3.65659E-13 5.27473E-13
 -1      1935 1.99968E+01-3.61373E-04 5.02711E-06 2.24484E-03 4.38728E-13 2.82632E-13
 -1      1936 1.99974E+01-2.23007E-04-1.49806E-05 1.39705E-03 2.93972E-13 4.49760E-13
 -1      1937 1.99979E+01-2.15032E-04-5.24471E-06 1.26774E-03 3.16058E-13 4.39458E-13
 -1      1938 1.99976E+01-3.38564E-04 5.58013E-06 1.86602E-03 3.26684E-13 2.97636E-13
 -1      1939 1.99982E+01-2.13978E-04-1.31434E-05 1.10869E-03 1.23480E-13 2.52378E-13
 -1      1940 1.99986E+01-2.12351E-04-6.25536E-06 9.82724E-04 4.32337E-14 2.14378E-13
 -1      1941 1.99982E+01-3.22881E-04 5.63129E-06 1.50424E-03 6.52782E-14 1.96388E-13
 -1      1942 1.99988E+01-2.16539E-04-1.07177E-05 8.26286E-04 1.02053E-13 3.15938E-14
 -1      1943 1.99991E+01-2.21495E-04-6.81415E-06 6.97206E-04 3.51648E-14 1.52062E-13
 -1      1944 1.99988E+01-3.22810E-04 5.01841E-06 1.15381E-03-6.83553E-14 9.10432E-14
 -1      1945 1.99993E+01-2.22804E-04-8.43082E-06 5.47558E-04 7.27430E-14 6.35221E-14
 -1      1946 1.99994E+01-2.27262E-04-7.63790E-06 4.17335E-04 2.43372E-14 1.11624E-13
 -1      1947 1.99995E+01-3.13171E-04 4.39328E-06 4.94079E-04-1.29191E-13-1.09240E-14
 -1      1948 1.99992E+01-3.26511E-04 6.73115E-06 8.14697E-04 4.79514E-14-5.41297E-15
 -1      1949 2.58489E+01-2.18145E-01-7.10998E-03 1.35849E-01 1.64866E-13 4.58755E-13
 -1      1950 2.60032E+01-9.38345E-02 1.11765E-02 8.43704E-02 1.95242E-13 5.23782E-13
 -1      1951 2.56282E+01-5.86931E-02-6.78163E-03 1.53372E-01 2.18569E-13 3.60913E-13
 -1      1952 2.56361E+01-4.36802E-01-7.92028E-03 6.59688E-01 8.07566E-14 3.91168E-13
 -1      1953 2.58553E+01-3.61696E-01 5.70102E-03 3.84721E-01 8.33084E-14 4.14887E-13
 -1      1954 2.55917E+01-4.56477E-01 5.33670E-04 4.08767E-01 1.28688E-13 3.16318E-13
 -1      1955 2.51302E+01-4.73368E-01-3.73944E-04 1.44726E+00 5.22239E-14 4.21253E-13
 -1      1956 2.55442E+01-5.03264E-01-1.63966E-03 1.04559E+00 6.41293E-14 4.29424E-13
 -1      1957 2.55160E+01-6.69054E-01 1.00235E-02 1.13598E+00 7.07854E-14 2.94771E-13
 -1      1958 2.42071E+01-1.71960E-01 6.52615E-03 2.06650E+00 6.26968E-14 3.65829E-13
 -1      1959 2.48293E+01-3.62519E-01-8.52256E-03 1.75607E+00 3.39659E-14 4.03226E-13
 -1      1960 2.51545E+01-5.14234E-01 1.46279E-02 2.00179E+00 6.00015E-14 3.10795E-13
 -1      1961 2.30395E+01 4.30585E-01-6.38531E-03 1.90491E+00 2.12802E-13 2.80834E-13
 -1      1962 2.37226E+01 1.51965E-01-1.32506E-02 1.98447E+00 1.48844E-13 3.39777E-13
 -1      1963 2.44006E+01 1.23692E-01-2.29384E-03 2.38702E+00 1.54600E-13 2.44740E-13
 -1      1964 2.21864E+01 9.37651E-01-3.79305E-02 7.15771E-01 1.64369E-13 1.21765E-13
 -1      1965 2.26477E+01 7.76606E-01-1.34711E-02 1.28350E+00 1.80522E-13 2.06906E-13
 -1      1966 2.35328E+01 9.65691E-01-3.47849E-02 1.68485E+00 2.21705E-13 1.36299E-13
 -1      1967 2.22638E+01 8.65624E-01-4.78879E-02-9.31348E-01 1.38157E-13-5.83839E-14
 -1      1968 2.22280E+01 1.00012E+00-1.37136E-03-1.81228E-01 1.63862E-13 2.14759E-14
 -1      1969 2.31386E+01 1.38378E+00-4.18515E-02-1.66356E-02 2.23585E-13-1.54395E-14
 -1      1970 2.32157E+01 2.87890E-01-2.91613E-02-1.97850E+00 1.68615E-14-1.29181E-13
 -1      1971 2.27000E+01 5.92835E-01 2.08573E-03-1.51801E+00 8.39606E-14-1.23027E-13
 -1      1972 2.35267E+01 9.51943E-01-2.54806E-02-1.69277E+00 1.42792E-13-2.10979E-13
 -1      1973 2.43758E+01-2.79754E-01 4.97432E-03-1.96306E+00 1.12063E-13-1.45887E-13
 -1      1974 2.36742E+01-5.03473E-02-5.72182E-03-1.96322E+00 1.16432E-13-1.63418E-13
 -1      1975 2.43172E+01 8.82606E-02-3.31612E-03-2.33476E+00 1.10400E-13-2.33095E-13
 -1      1976 2.51355E+01-5.26045E-01 2.35758E-02-1.21242E+00 7.58525E-14-2.19987E-13
 -1      1977 2.45753E+01-4.69296E-01-1.41476E-02-1.52105E+00 8.16916E-14-1.49551E-13
 -1      1978 2.49216E+01-5.78752E-01 3.52746E-03-1.86384E+00 9.14963E-14-2.76220E-13
 -1      1979 2.53002E+01-4.73398E-01 2.17281E-02-3.11603E-01 1.41064E-13-2.74095E-13
 -1      1980 2.50470E+01-5.36828E-01-1.75753E-02-6.82385E-01 9.84178E-14-2.33614E-13
 -1      1981 2.50588E+01-7.78852E-01-4.81983E-03-8.64559E-01 1.24496E-13-3.04368E-13
 -1      1982 2.49944E+01-3.00787E-01 1.10663E-02 3.70479E-01-9.59163E-14-1.53289E-13
 -1      1983 2.50390E+01-3.95730E-01-1.56699E-02 8.64205E-02 1.21361E-14-1.56432E-13
 -1      1984 2.47920E+01-6.24891E-01-1.00042E-02 7.80629E-02-1.71911E-15-1.57430E-13
 -1      1985 2.44184E+01-1.34630E-01 2.06940E-03 7.46271E-01-7.64853E-14-3.84831E-14
 -1      1986 2.46664E+01-2.11770E-01-1.09559E-02 5.86147E-01-1.18298E-13-1.35394E-13
 -1      1987 2.42876E+01-3.62271E-01-9.51433E-03 7.04685E-01-8.69209E-14-1.62958E-13
 -1      1988 2.37371E+01-2.15962E-02-2.55273E-03 8.75984E-01 6.35327E-14-7.27135E-14
 -1      1989 2.40862E+01-6.85446E-02-5.55821E-03 8.16647E-01 5.14051E-14-3.98986E-15
 -1      1990 2.36840E+01-1.37912E-01-6.00099E-03 1.00453E+00 1.49273E-14-9.75166E-14
 -1      1991 2.30562E+01 3.97532E-02-3.90845E-03 8.53796E-01 7.87811E-14-1.35463E-13
 -1      1992 2.34294E+01 1.75116E-02-1.12316E-03 8.57784E-01 3.10982E-14-1.12950E-13
 -1      1993 2.30688E+01 4.54292E-03-2.82932E-03 1.06938E+00 1.14140E-13-1.03362E-13
 -1      1994 2.24337E+01 6.52725E-02-3.63816E-03 7.56282E-01 8.85114E-14-1.27353E-13
 -1      1995 2.27848E+01 5.87034E-02 1.80064E-03 7.92479E-01 1.28385E-13-1.17023E-13
 -1      1996 2.24923E+01 7.65822E-02-9.64984E-04 9.98467E-01 1.24798E-13-1.01960E-13
 -1      1997 2.18955E+01 7.01664E-02-2.80739E-03 6.32565E-01-4.61814E-14-2.15965E-13
 -1      1998 2.22021E+01 7.19394E-02 3.33550E-03 6.80716E-01-7.38559E-16-2.19088E-13
 -1      1999 2.19804E+01 1.02642E-01-1.79550E-04 8.65413E-01 7.24885E-14-1.66695E-13
 -1      2000 2.14476E+01 6.49312E-02-1.94410E-03 5.09483E-01-8.53430E-14-2.36241E-13
 -1      2001 2.17029E+01 7.03581E-02 3.87099E-03 5.58331E-01-2.95371E-14-2.11727E-13
 -1      2002 2.15434E+01 1.03475E-01-5.05643E-06 7.15454E-01-2.70721E-14-2.44454E-13
 -1      2003 2.10854E+01 5.57257E-02-1.24056E-03 3.99435E-01-7.56120E-14-3.06532E-13
 -1      2004 2.12910E+01 6.22041E-02 3.79696E-03 4.43638E-01-8.72475E-14-3.37244E-13
 -1      2005 2.11811E+01 9.26749E-02-8.80409E-05 5.72524E-01-7.48583E-14-3.17227E-13
 -1      2006 2.07989E+01 4.57596E-02-7.28392E-04 3.06650E-01 2.73049E-13-3.86719E-13
 -1      2007 2.09604E+01 5.20132E-02 3.41033E-03 3.44256E-01 1.19788E-13-2.99717E-13
 -1      2008 2.08881E+01 7.79153E-02-2.30666E-04 4.47166E-01 1.05949E-13-3.07841E-13
 -1      2009 2.05765E+01 3.65108E-02-3.79912E-04 2.31220E-01-7.96455E-15-5.21072E-13
 -1      2010 2.07008E+01 4.20094E-02 2.90314E-03 2.62024E-01 1.95729E-13-4.73760E-13
 -1      2011 2.06557E+01 6.30361E-02-3.46752E-04 3.42452E-01 2.57598E-13-3.65683E-13
 -1      2012 2.04069E+01 2.85346E-02-1.54635E-04 1.71410E-01-1.19173E-13-4.30266E-13
 -1      2013 2.05009E+01 3.31304E-02 2.38461E-03 1.96003E-01-1.60166E-13-5.13904E-13
 -1      2014 2.04748E+01 4.96985E-02-4.12203E-04 2.57719E-01-1.20127E-13-3.60287E-13
 -1      2015 2.02796E+01 2.19343E-02-1.62369E-05 1.24873E-01-1.22909E-13-3.49769E-13
 -1      2016 2.03494E+01 2.56578E-02 1.90894E-03 1.44134E-01-1.51807E-13-4.43387E-13
 -1      2017 2.03363E+01 3.84377E-02-4.30780E-04 1.90696E-01-2.05030E-13-2.94400E-13
 -1      2018 2.01856E+01 1.66133E-02 6.33130E-05 8.92330E-02 4.20475E-15-3.40710E-13
 -1      2019 2.02367E+01 1.95666E-02 1.49783E-03 1.04078E-01-7.39196E-14-3.52173E-13
 -1      2020 2.02320E+01 2.92583E-02-4.15210E-04 1.38622E-01-9.92586E-14-4.47568E-13
 -1      2021 2.01176E+01 1.24016E-02 1.04222E-04 6.23362E-02-8.83197E-15-1.96911E-13
 -1      2022 2.01542E+01 1.47064E-02 1.15545E-03 7.36120E-02 5.35611E-14-2.72605E-13
 -1      2023 2.01547E+01 2.19451E-02-3.78628E-04 9.87865E-02 1.15797E-14-4.09184E-13
 -1      2024 2.00694E+01 9.11617E-03 1.20541E-04 4.23369E-02-2.86187E-13-1.63963E-13
 -1      2025 2.00950E+01 1.08901E-02 8.77475E-04 5.07775E-02-1.93364E-13-2.32961E-13
 -1      2026 2.00986E+01 1.62152E-02-3.31555E-04 6.87605E-02-1.70219E-13-3.50357E-13
 -1      2027 2.00360E+01 6.58615E-03 1.21814E-04 2.77029E-02-7.38583E-15-1.47735E-13
 -1      2028 2.00535E+01 7.93371E-03 6.56083E-04 3.39238E-02-1.85214E-13-1.18037E-13
 -1      2029 2.00587E+01 1.17871E-02-2.81377E-04 4.64690E-02-1.89756E-13-2.08915E-13
 -1      2030 2.00137E+01 4.66242E-03 1.14414E-04 1.71886E-02 9.98090E-14-1.79212E-13
 -1      2031 2.00252E+01 5.67232E-03 4.82532E-04 2.16942E-02 7.41429E-14-2.08786E-13
 -1      2032 2.00310E+01 8.40824E-03-2.32786E-04 3.01910E-02 8.52469E-14-1.05382E-13
 -1      2033 1.99995E+01 3.21912E-03 1.02517E-04 9.79651E-03-2.77668E-14-1.12463E-13
 -1      2034 2.00066E+01 3.96487E-03 3.48432E-04 1.29938E-02 3.50221E-14-1.81050E-13
 -1      2035 2.00124E+01 5.86302E-03-1.88448E-04 1.85270E-02 6.33741E-14-1.33476E-13
 -1      2036 1.99909E+01 2.15223E-03 8.87978E-05 4.73774E-03 1.41057E-13-1.95838E-13
 -1      2037 1.99950E+01 2.69369E-03 2.46264E-04 6.95072E-03 9.34101E-15-1.51539E-13
 -1      2038 2.00004E+01 3.97232E-03-1.49627E-04 1.03558E-02 3.98335E-14-1.69620E-13
 -1      2039 1.99864E+01 1.37689E-03 7.49154E-05 1.39581E-03-7.64564E-14-1.77512E-14
 -1      2040 1.99884E+01 1.76226E-03 1.69557E-04 2.87948E-03 1.73792E-14-1.43758E-13
 -1      2041 1.99932E+01 2.58988E-03-1.16678E-04 4.79075E-03 5.25113E-14 1.46672E-15
 -1      2042 1.99845E+01 8.24737E-04 6.18432E-05-7.05510E-04-2.55016E-13 9.06403E-14
 -1      2043 1.99851E+01 1.09238E-03 1.12878E-04 2.47043E-04-1.22914E-13 1.15273E-13
 -1      2044 1.99893E+01 1.59769E-03-8.94043E-05 1.13897E-03-1.66396E-13 7.90764E-14
 -1      2045 1.99844E+01 4.41185E-04 5.00998E-05-1.92950E-03 1.50201E-13 1.04279E-13
 -1      2046 1.99841E+01 6.21314E-04 7.17459E-05-1.35589E-03-3.51645E-14 7.30014E-14
 -1      2047 1.99876E+01 9.01482E-04-6.73066E-05-1.13431E-03-4.52371E-14 1.29585E-13
 -1      2048 1.99853E+01 1.83138E-04 3.99059E-05-2.54949E-03-1.51775E-13 1.33365E-13
 -1      2049 1.99846E+01 2.99308E-04 4.25220E-05-2.23958E-03 2.54221E-14 1.10234E-13
 -1      2050 1.99874E+01 4.26702E-04-4.97429E-05-2.43647E-03 2.22616E-14 1.66802E-13
 -1      2051 1.99868E+01 1.69180E-05 3.12924E-05-2.76794E-03-1.32115E-14 2.52446E-13
 -1      2052 1.99858E+01 8.72708E-05 2.22863E-05-2.63575E-03-9.30398E-14 1.33018E-13
 -1      2053 1.99881E+01 1.14970E-04-3.60327E-05-3.07340E-03-6.09881E-14 1.92998E-13
 -1      2054 1.99886E+01-8.35019E-05 2.41734E-05-2.73205E-03 3.41387E-14 2.81881E-13
 -1      2055 1.99875E+01-4.51591E-05 8.72511E-06-2.71460E-03 6.67631E-14 3.11491E-13
 -1      2056 1.99893E+01-7.89440E-05-2.55181E-05-3.27110E-03-2.96634E-14 3.83290E-13
 -1      2057 1.99904E+01-1.38017E-04 1.83943E-05-2.54647E-03-3.20289E-13 3.69220E-13
 -1      2058 1.99893E+01-1.21309E-04 2.57488E-08-2.59857E-03-2.03903E-13 2.79005E-13
 -1      2059 1.99907E+01-1.89706E-04-1.75973E-05-3.19327E-03-1.53322E-13 2.74577E-13
 -1      2060 1.99922E+01-1.61690E-04 1.37631E-05-2.28340E-03-1.79891E-13 4.41071E-13
 -1      2061 1.99911E+01-1.58915E-04-5.21655E-06-2.37355E-03-2.15527E-13 3.43669E-13
 -1      2062 1.99922E+01-2.43601E-04-1.17401E-05-2.95569E-03-2.20402E-13 2.03883E-13
 -1      2063 1.99938E+01-1.65849E-04 1.00681E-05-1.99048E-03-9.41456E-14 4.03988E-13
 -1      2064 1.99928E+01-1.71349E-04-8.07947E-06-2.09762E-03-6.71787E-14 3.43911E-13
 -1      2065 1.99936E+01-2.60384E-04-7.49231E-06-2.63756E-03-8.92268E-14 1.99544E-13
 -1      2066 1.99952E+01-1.59064E-04 7.08786E-06-1.69691E-03-1.22551E-13 4.87470E-13
 -1      2067 1.99944E+01-1.68676E-04-9.38202E-06-1.80791E-03-1.70532E-14 4.53203E-13
 -1      2068 1.99949E+01-2.54852E-04-4.47279E-06-2.29044E-03-1.04231E-13 3.61711E-13
 -1      2069 1.99964E+01-1.48010E-04 4.61324E-06-1.41782E-03 2.86597E-13 1.91970E-13
 -1      2070 1.99957E+01-1.58605E-04-9.73002E-06-1.52573E-03-7.30735E-14 2.52925E-13
 -1      2071 1.99961E+01-2.38252E-04-2.36703E-06-1.94497E-03 1.23820E-13 2.89158E-13
 -1      2072 1.99974E+01-1.38155E-04 2.47961E-06-1.15738E-03 5.46952E-13 5.01759E-14
 -1      2073 1.99968E+01-1.47288E-04-9.54997E-06-1.26020E-03 5.77140E-13 2.86578E-13
 -1      2074 1.99971E+01-2.19406E-04-8.93812E-07-1.61578E-03 4.15232E-13 1.86311E-13
 -1      2075 1.99982E+01-1.33952E-04 7.41462E-07-9.10837E-04 1.42744E-13 2.53866E-13
 -1      2076 1.99978E+01-1.39853E-04-9.06916E-06-1.01084E-03 2.45302E-13 2.44556E-13
 -1      2077 1.99979E+01-2.05600E-04 1.87800E-07-1.30507E-03 3.10202E-13 3.02384E-13
 -1      2078 1.99989E+01-1.38270E-04-3.32159E-07-6.67801E-04 9.28890E-14 1.16956E-13
 -1      2079 1.99985E+01-1.39807E-04-8.16550E-06-7.70095E-04 1.15228E-13 2.15991E-13
 -1      2080 1.99986E+01-2.01580E-04 1.35741E-06-1.00576E-03 1.90591E-13 2.43819E-13
 -1      2081 1.99993E+01-1.51748E-04-2.68340E-06-4.17620E-04 1.32723E-13 4.40568E-14
 -1      2082 1.99991E+01-1.47679E-04-6.31950E-06-5.27588E-04 5.39688E-14 5.74147E-14
 -1      2083 1.99991E+01-2.10746E-04 2.09944E-06-7.07525E-04 1.44358E-13-1.72641E-14
 -1      2084 1.99996E+01-1.59170E-04-5.25277E-06-2.25966E-04 9.66605E-15 2.43095E-13
 -1      2085 1.99995E+01-1.63534E-04-4.55673E-06-3.37576E-04 1.39757E-13 1.34105E-13
 -1      2086 1.99994E+01-2.29298E-04 2.39544E-06-4.67493E-04 4.67376E-14 3.57958E-13
 -1      2087 1.99996E+01-2.36579E-04 1.16728E-07-2.89971E-04-2.36976E-14 3.60149E-13
 -1      2088 1.99998E+01-1.40890E-03 3.00468E-06-7.72513E-04-1.88315E-13 3.06907E-13
 -1      2089 1.99997E+01-1.16198E-03-4.07355E-06-7.55320E-04-2.56641E-13 1.40052E-13
 -1      2090 1.99997E+01-9.40130E-04 7.39120E-07-7.05297E-04-2.01428E-13-1.37806E-13
 -1      2091 1.99997E+01-7.16745E-04-5.46749E-06-6.31295E-04-2.70538E-15 6.94044E-14
 -1      2092 1.99997E+01-1.04541E-03 8.24964E-08-9.33521E-04-1.87055E-13-8.48570E-14
 -1      2093 1.99996E+01-5.54874E-04-1.02652E-06-5.27835E-04 3.82765E-14-1.96144E-14
 -1      2094 1.99996E+01-3.77345E-04-4.94508E-06-4.16149E-04-1.61099E-14 1.25061E-13
 -1      2095 1.99995E+01-3.78827E-04-3.38522E-06-5.11617E-04 8.74584E-15 1.02872E-13
 -1      2096 1.99996E+01-6.71575E-04 1.97970E-06-7.58216E-04-8.62222E-14-6.49237E-15
 -1      2097 1.99999E+01-1.85453E-03 5.38604E-06-7.24029E-04-4.50550E-13-5.98830E-13
 -1      2098 1.99998E+01-1.61993E-03-5.12864E-07-7.57321E-04-3.18748E-13-1.29912E-13
 -1      2099 1.99998E+01-1.47521E-03-2.15180E-06-9.68649E-04-2.18406E-13-2.05140E-13
 -1      2100 1.99999E+01-2.23789E-03 7.42503E-06-5.73658E-04-1.90926E-13-2.28440E-13
 -1      2101 1.99999E+01-2.04062E-03 2.97872E-06-6.49716E-04-2.85153E-13-2.89517E-13
 -1      2102 1.99999E+01-1.87214E-03-4.52137E-06-8.66614E-04-2.44554E-13-3.15297E-13
 -1      2103 2.00000E+01-2.50357E-03 8.64628E-06-3.47305E-04-8.68310E-14 3.88760E-13
 -1      2104 2.00000E+01-2.37426E-03 5.96346E-06-4.53200E-04-9.03658E-14 1.18032E-13
 -1      2105 2.00000E+01-2.19508E-03-6.52976E-06-6.46719E-04 1.11218E-13 2.14657E-14
 -1      2106 2.00000E+01-2.61975E-03 8.85547E-06-7.68349E-05-1.94981E-14 4.26341E-13
 -1      2107 2.00000E+01-2.57530E-03 7.98114E-06-1.98000E-04-1.19675E-13 5.86757E-13
 -1      2108 2.00001E+01-2.40384E-03-7.80154E-06-3.43179E-04-1.75096E-14 4.32916E-13
 -1      2109 2.00000E+01-2.57278E-03 7.95916E-06 2.03110E-04 2.10916E-14 2.46402E-13
 -1      2110 2.00000E+01-2.61895E-03 8.87163E-06 8.21269E-05-3.42609E-14 4.67544E-13
 -1      2111 2.00001E+01-2.47501E-03-8.22165E-06 3.38175E-06-1.30610E-13 4.41286E-13
 -1      2112 2.00000E+01-2.36870E-03 6.00635E-06 4.57330E-04 1.34000E-13-1.10524E-13
 -1      2113 2.00000E+01-2.49963E-03 8.58545E-06 3.52000E-04 3.90160E-14 6.19752E-14
 -1      2114 2.00001E+01-2.40074E-03-7.73980E-06 3.49451E-04-2.04251E-14 1.70790E-13
 -1      2115 1.99999E+01-2.03954E-03 3.01179E-06 6.49633E-04 8.98885E-14-3.64264E-13
 -1      2116 1.99999E+01-2.23405E-03 7.36904E-06 5.75297E-04 7.80462E-14-1.85597E-13
 -1      2117 2.00000E+01-2.19177E-03-6.54766E-06 6.49570E-04 6.39150E-14-2.22880E-13
 -1      2118 1.99998E+01-1.61483E-03-5.86926E-07 7.57344E-04 1.06087E-13 3.54518E-13
 -1      2119 1.99999E+01-1.85358E-03 5.39047E-06 7.23989E-04 2.25401E-13-2.02436E-14
 -1      2120 1.99999E+01-1.87073E-03-4.45359E-06 8.66621E-04 2.34745E-13-1.43367E-13
 -1      2121 1.99997E+01-1.15276E-03-4.07379E-06 7.53942E-04-4.11039E-14-6.84582E-14
 -1      2122 1.99998E+01-1.39998E-03 3.03913E-06 7.72073E-04 2.35561E-14 9.27815E-14
 -1      2123 1.99998E+01-1.47001E-03-1.91280E-06 9.68387E-04 1.25221E-13 1.25481E-13
 -1      2124 1.99996E+01-6.99090E-04-2.22291E-06 6.31054E-04-1.59628E-13-3.33627E-13
 -1      2125 1.99997E+01-9.31592E-04 1.02001E-06 7.02649E-04-1.05697E-13-2.19255E-13
 -1      2126 1.99997E+01-1.03828E-03 4.20323E-08 9.29948E-04-1.59699E-13-2.70021E-13
 -1      2127 9.48484E+00-5.28171E+00-1.83888E-01 6.10045E+00 4.60521E-13 5.94261E-13
 -1      2128 5.89029E+00-6.74036E+00-4.42078E-01 4.73614E+00 3.92519E-13 5.12285E-13
 -1      2129 6.40926E-01-6.13509E+00-2.87509E-01 4.28692E-01 1.73223E-13 9.92872E-13
 -1      2130 7.04724E-01-6.30244E+00-3.10611E-01-1.11841E+00-4.07729E-14 9.01335E-13
 -1      2131 3.20901E+00-6.32828E+00-3.13245E-01 3.74361E+00 4.07063E-13 7.01716E-13
 -1      2132 1.45456E+00-6.78496E+00-3.86977E-01 2.37155E+00 2.04836E-13 8.68083E-13
 -1      2133 1.81834E+01-3.45585E+00-7.74236E-02 6.84338E+00 6.53921E-13 4.60632E-13
 -1      2134 1.34863E+01-5.29241E+00-3.61934E-01 5.99274E+00 5.33129E-13 5.39541E-13
 -1      2135 2.72682E+01-2.01170E+00-5.77892E-02 5.09488E+00 5.57221E-13 7.63833E-14
 -1      2136 2.21673E+01-3.02866E+00-1.59526E-01 5.79245E+00 6.81621E-13 3.33178E-13
 -1      2137 2.05205E+01 3.44301E+00-2.96695E-02-8.34383E-01-1.49115E-13-4.09877E-13
 -1      2138 2.11018E+01 3.46011E+00-3.31959E-02-1.23276E+00-2.08895E-13-3.48818E-13
 -1      2139 2.17829E+01 2.62142E+00-1.33038E-02-1.38929E+00-2.29701E-13-2.89019E-13
 -1      2140 2.05679E+01 2.76172E+00-2.11522E-02-6.15509E-01-1.33828E-13-3.92580E-13
 -1      2141 3.96651E+01 5.47005E+00 3.50471E-01 1.59596E+00 6.69464E-13-3.07310E-13
 -1      2142 3.73245E+01 4.22984E+00 2.36263E-01 2.73206E+00 7.05325E-13-1.72973E-13
 -1      2143 4.21361E+01 7.06750E+00 4.88149E-01 2.18788E-01 7.11264E-13-5.21364E-13
 -1      2144 4.04055E+01 6.86076E+00 3.08474E-01 1.05464E+00 7.02272E-13-3.43114E-13
 -1      2145 4.03201E+01 6.52961E+00 2.90366E-01-1.04393E+00 8.09963E-13-7.25142E-13
 -1      2146 4.20760E+01 6.94481E+00 4.70454E-01-8.00179E-02 7.32581E-13-5.57554E-13
 -1      2147 3.60532E+01 3.63499E+00 9.40040E-02-1.90103E+00 8.73690E-13-7.76490E-13
 -1      2148 3.89650E+01 4.96649E+00 3.05093E-01-1.17358E+00 8.30142E-13-6.61693E-13
 -1      2149 2.99510E+01 2.90922E-01-5.75961E-02-4.26310E+00 8.84237E-13-9.56457E-13
 -1      2150 3.44884E+01 1.76005E+00 1.86320E-01-3.60312E+00 8.70130E-13-8.34000E-13
 -1      2151 2.15158E+01-2.74647E+00-2.51651E-01-5.59210E+00 8.35443E-13-1.00114E-12
 -1      2152 2.68091E+01-1.02351E+00 9.48101E-02-5.85171E+00 8.34666E-13-1.03201E-12
 -1      2153 1.29702E+01-4.78416E+00-3.27148E-01-5.78932E+00 6.57974E-13-9.02056E-13
 -1      2154 1.75536E+01-3.20064E+00-7.47519E-02-6.60888E+00 8.34666E-13-1.01325E-12
 -1      2155 4.88568E+00-5.66645E+00-4.26947E-01-4.13022E+00 4.36540E-13-9.13020E-13
 -1      2156 8.47242E+00-4.38896E+00-1.84943E-01-5.69824E+00 6.09124E-13-9.44106E-13
 -1      2157 9.37280E-01-5.51005E+00-3.80642E-01-1.56328E+00 1.80356E-13-8.86624E-13
 -1      2158 2.49112E+00-5.27486E+00-3.12714E-01-3.01570E+00 4.58633E-13-9.50573E-13
 -1      2159 5.61228E+00-3.72279E+00-1.39930E-01-4.56613E+00 1.73056E-13-9.58789E-13
 -1      2160 1.10579E+00-4.72495E+00-2.61772E-01 2.17172E+00-1.05832E-13-9.27813E-13
 -1      2161 5.28031E-01-4.98707E+00-3.00574E-01 5.41864E-01 1.67009E-13-9.03111E-13
 -1      2162 4.74081E+00-4.61698E+00-2.86057E-01 4.93081E+00-4.59466E-13-8.88067E-13
 -1      2163 2.43280E+00-5.50088E+00-4.06600E-01 3.65275E+00-1.73306E-13-8.62033E-13
 -1      2164 1.23058E+01-3.49343E+00-1.71526E-01 6.85864E+00-4.91551E-13-8.56759E-13
 -1      2165 8.00472E+00-4.81487E+00-4.00320E-01 5.62102E+00-4.46920E-13-8.46039E-13
 -1      2166 2.16363E+01-1.05959E+00 6.17931E-02 7.00766E+00-8.29337E-13-1.00325E-12
 -1      2167 1.72112E+01-2.91066E+00-1.49654E-01 6.52933E+00-6.62248E-13-8.22314E-13
 -1      2168 2.96732E+01 8.56490E-01 7.00686E-02 4.99507E+00-7.59809E-13-8.20621E-13
 -1      2169 2.50139E+01-3.12543E-01-8.79413E-02 5.77445E+00-8.30669E-13-9.51350E-13
 -1      2170 2.50340E+01-2.22965E+00 7.19016E-02 5.07835E+00-4.65877E-13-6.22835E-13
 -1      2171 3.67273E+01 4.46911E+00 3.79600E-01 3.04776E+00-8.42923E-13-7.15761E-13
 -1      2172 3.26489E+01 2.89001E+00 6.72654E-02 3.26873E+00-8.05200E-13-7.05547E-13
 -1      2173 3.89477E+01 6.56901E+00 2.42404E-01 7.91555E-01-8.48266E-13-5.12534E-13
 -1      2174 3.76365E+01 5.66022E+00 2.17372E-01 2.12292E+00-8.46989E-13-6.99885E-13
 -1      2175 3.42950E+01 5.07260E+00 2.27244E-01 7.76330E-02-7.68219E-13-3.78531E-13
 -1      2176 4.01442E+01 7.21267E+00 3.35769E-01-7.50714E-01-8.59979E-13-2.50008E-13
 -1      2177 3.92670E+01 7.37035E+00 2.16473E-01 3.58629E-01-8.87068E-13-4.39870E-13
 -1      2178 3.86114E+01 6.26392E+00 2.68838E-01-2.28353E+00-8.20233E-13-7.53841E-14
 -1      2179 4.02508E+01 6.70944E+00 3.38519E-01-1.18665E+00-8.44158E-13-2.54186E-13
 -1      2180 3.59484E+01 8.05398E+00 3.25042E-01-9.43503E-02-9.08551E-13-3.05991E-13
 -1      2181 3.43677E+01 3.66234E+00 1.20842E-01-3.99004E+00-8.13190E-13 2.12386E-13
 -1      2182 3.76678E+01 4.84659E+00 3.70629E-01-3.24669E+00-7.72715E-13 3.21965E-15
 -1      2183 2.84923E+01 6.14026E-01-1.30928E-02-5.05615E+00-7.43267E-13 2.77556E-13
 -1      2184 3.28453E+01 2.37932E+00 3.20674E-01-5.11802E+00-7.82624E-13 2.33813E-13
 -1      2185 3.29483E+01 2.21832E+00 2.34011E-01-2.03634E+00-7.01245E-13-7.01106E-14
 -1      2186 2.03019E+01-2.70499E+00-1.89147E-01-6.36226E+00-7.29083E-13 5.10036E-13
 -1      2187 2.49902E+01-1.15875E+00 8.47813E-02-6.49844E+00-6.98441E-13 3.33789E-13
 -1      2188 1.25101E+01-4.90077E+00-3.40206E-01-6.31392E+00-5.12035E-13 7.62723E-13
 -1      2189 1.66651E+01-3.09877E+00-3.64140E-02-7.15975E+00-6.97109E-13 6.81122E-13
 -1      2190 6.20879E+00-6.26362E+00-3.55685E-01-5.32366E+00-1.69864E-13 9.28368E-13
 -1      2191 9.38226E+00-4.94102E+00-1.54743E-01-6.38863E+00-3.72702E-13 9.12583E-13
 -1      2192 1.46587E+00-6.66127E+00-3.67696E-01-2.60684E+00-4.42979E-14 7.89147E-13
 -1      2193 3.12905E+00-5.71658E+00-2.40025E-01-4.11134E+00-2.78333E-13 8.57425E-13
 -1      2194 2.54272E+00-3.88662E+00-1.24773E-01-2.26309E+00 3.28348E-14 9.65339E-13
 -1      2195 3.56560E+01 2.53464E+00 3.90997E-01 3.56941E+00 7.15306E-13-1.91180E-13
 -1      2196 3.11125E+01 2.57030E-01 2.66442E-03 3.28795E+00 6.11691E-13-1.03029E-13
 -1      2197 3.45166E+01 2.59227E+00 1.84747E-01 3.96068E-01 6.55254E-13-4.32987E-13
 -1      2198 2.23932E+01-4.64408E+00 7.37879E-02 5.72064E+00 2.97984E-13 7.96863E-14
 -1      2199 2.37877E+01 8.94750E-01-3.23066E-02-1.57850E+00-2.84890E-13 2.04843E-13
 -1      2200 2.97524E+01-1.65959E+00 8.93155E-02 3.31901E+00 4.78007E-13-1.85574E-13
 -1      2201 2.80412E+01-3.49755E+00 1.17114E-01 3.08239E+00 3.19911E-13-3.66762E-13
 -1      2202 3.07691E+01-1.77018E+00-1.39628E-01 1.05805E+00 4.05353E-13-5.68545E-13
 -1      2203 2.34969E+01 9.80959E-01-1.81365E-02-1.72724E+00-3.00046E-13 3.61794E-14
 -1      2204 6.52246E+00-5.13768E+00-1.59109E-01 5.30890E+00 7.18869E-14 5.72709E-13
 -1      2205 2.50151E+00-4.17082E+00-1.42846E-01 1.75795E+00 3.01148E-14 1.00697E-12
 -1      2206 1.99996E+01-5.68926E-04-3.47317E-06 6.04368E-04-1.61892E-13-2.69062E-13
 -1      2207 1.38657E+01-5.61600E+00-1.10326E-01 6.62930E+00 1.73972E-13 3.88977E-13
 -1      2208 6.44231E+00-4.80272E+00-1.17162E-01-5.60143E+00 3.39728E-14 8.35360E-13
 -1      2209 1.33169E+01-5.25740E+00-1.02442E-01-7.03730E+00-2.08722E-14 6.71987E-13
 -1      2210 2.79339E+01-1.70237E+00 1.12696E-01-4.27926E+00-4.50751E-13-4.11893E-14
 -1      2211 3.55327E+01 5.72064E+00 2.89103E-01-6.46057E-01-8.30336E-13-2.22933E-13
 -1      2212 3.56432E+01 7.62848E+00 2.54818E-01-2.33113E-01-9.04832E-13-3.23366E-13
 -1      2213 3.12191E+01 1.13083E+00 8.63678E-02 2.79081E+00-6.50077E-13-5.69100E-13
 -1      2214 2.94762E+01-5.04228E-01 1.11908E-01 2.05421E+00-4.60326E-13-2.94209E-13
 -1      2215 3.12269E+01 1.22630E+00-1.94613E-01 3.39969E-01-5.37070E-13-2.48135E-13
 -1      2216 1.61342E+01-3.61318E+00-5.50437E-02 6.70115E+00-3.59490E-13-7.64486E-13
 -1      2217 1.55055E+01-3.70692E+00 1.38799E-01 6.98043E+00-3.63598E-14-6.31030E-13
 -1      2218 1.96413E+01-4.04465E+00-1.74613E-01 6.36457E+00-1.44440E-13-5.61329E-13
 -1      2219 8.38305E+00-3.76608E+00-8.54809E-02 6.32314E+00-8.97615E-14-8.45268E-13
 -1      2220 2.08148E+00-2.84752E+00-1.37848E-01-7.47501E-01 1.14415E-13-1.01941E-12
 -1      2221 1.30062E+01-4.65026E+00-8.64692E-02-6.22351E+00 2.73503E-13-8.25041E-13
 -1      2222 2.21161E+01-4.28910E+00-5.45782E-04-5.47144E+00 4.12337E-13-7.27474E-13
 -1      2223 2.94919E+01-1.89667E+00 1.40090E-01-3.04843E+00 5.39596E-13-5.69989E-13
 -1      2224 3.40469E+01 2.00945E+00 2.13656E-01-3.10834E-01 6.85410E-13-4.02234E-13
 -1      2225 3.62546E+01 6.00033E+00 2.48245E-01 7.51386E-01 8.11129E-13-4.41924E-13
 -1      2226 3.70739E+01 6.44171E+00 3.15083E-01-8.51161E-02 7.50400E-13-3.90243E-13
 -1      2227 3.76154E+01 7.96612E+00 3.86842E-01 2.08179E-01 8.08520E-13-4.61964E-13
 -1      2228 3.11135E+00-3.12169E+00-1.60340E-01 3.52590E+00 6.74460E-14-9.81271E-13
 -1      2229 2.07106E+01-4.30454E+00 2.58537E-02-6.44760E+00-3.01204E-13 2.71783E-13
 -1      2230 2.49857E+01-1.96379E-01-1.54268E-02 8.44484E-02 1.87241E-13 1.99052E-13
 -1      2231 2.50692E+01 1.80779E-01 2.83160E-02 1.38308E-01 2.21428E-13 2.14492E-13
 -1      2232 1.73872E+01 2.82587E+00-2.06735E-02 1.24661E+00 9.23135E-14-4.81315E-13
 -1      2233 1.83350E+01 2.63648E+00 1.16054E-02 9.55030E-01 3.75518E-14-4.58528E-13
 -1      2234 1.91951E+01 2.36164E+00-1.26093E-02 5.31289E-01 6.31223E-16-4.33357E-13
 -1      2235 1.99772E+01 2.23448E+00-5.49184E-03 1.34988E-01-5.47125E-14-4.09598E-13
 -1      2236 1.90564E+01 1.84407E+00-2.12724E-02 9.37334E-01 3.77966E-14-4.07103E-13
 -1      2237 1.40041E+01 4.14166E+00-2.27918E-02 1.31541E+00 1.58982E-13-6.24814E-13
 -1      2238 1.46599E+01 3.96493E+00 2.39109E-02 1.45632E+00 1.48931E-13-6.13041E-13
 -1      2239 1.35578E+01 4.47947E+00-5.63962E-03 6.31648E-01 1.60241E-13-6.10880E-13
 -1      2240 1.36272E+01 4.42311E+00 7.87877E-03 9.15987E-01 1.52781E-13-6.25248E-13
 -1      2241 1.36472E+01 4.04107E+00 2.40484E-02 1.29664E+00 1.68428E-13-6.26751E-13
 -1      2242 1.44126E+01 4.32066E+00 1.43979E-02-8.88338E-02 1.59765E-13-5.57996E-13
 -1      2243 1.38230E+01 4.40558E+00-1.38565E-02 1.52931E-01 1.50902E-13-5.88057E-13
 -1      2244 1.34809E+01 4.23481E+00 3.08941E-02 3.55591E-01 1.52674E-13-6.05460E-13
 -1      2245 1.63774E+01 3.73545E+00 2.14654E-02-4.56271E-01 1.92113E-13-4.73430E-13
 -1      2246 1.52774E+01 3.93119E+00-2.76873E-02-3.97555E-01 1.62113E-13-5.13608E-13
 -1      2247 1.47197E+01 3.80018E+00 1.65963E-02-4.81568E-01 1.42076E-13-5.30143E-13
 -1      2248 1.89093E+01 2.97798E+00 9.76095E-03-3.06524E-01 2.26217E-13-3.61705E-13
 -1      2249 1.75952E+01 3.23151E+00-2.83725E-02-4.61314E-01 1.99474E-13-4.19628E-13
 -1      2250 1.70151E+01 2.97080E+00-4.96014E-03-7.84962E-01 1.66951E-13-4.30442E-13
 -1      2251 2.15233E+01 2.21566E+00-2.22921E-02 1.95333E-01 2.86911E-13-1.82493E-13
 -1      2252 2.02176E+01 2.53000E+00-2.26502E-02-7.66971E-02 2.41728E-13-2.69959E-13
 -1      2253 1.97372E+01 2.10468E+00-1.30437E-02-5.11187E-01 2.01594E-13-2.93880E-13
 -1      2254 2.52150E+01-8.43553E-01-2.55583E-02 4.23524E-01 1.13866E-13 1.76284E-13
 -1      2255 2.52694E+01-5.35920E-01 3.08476E-02 1.69029E-01 1.34475E-13 2.11762E-13
 -1      2256 2.45219E+01-4.80910E-01-2.45331E-02 2.42570E-02 1.58435E-13 6.68033E-14
 -1      2257 2.32572E+01 2.17444E-01 1.25469E-02-1.35616E+00-2.08799E-13-2.82318E-14
 -1      2258 2.30045E+01-5.36906E-02-1.65582E-02-1.26532E+00-1.83169E-13-3.45161E-14
 -1      2259 2.43009E+01-4.97988E+00-8.59020E-02 4.73248E+00 7.92144E-14-1.52933E-13
 -1      2260 2.10399E+01-5.45907E+00 7.14238E-04 5.63722E+00 5.68989E-15-3.43892E-14
 -1      2261 2.30267E+01-2.17526E-01 1.44411E-02-1.32366E+00-1.69428E-13-1.31623E-14
 -1      2262 2.27817E+01-2.99913E-01-8.12674E-03-1.38551E+00-1.41345E-13-8.63502E-15
 -1      2263 2.31128E+01-1.42858E-01-6.79378E-04-1.40318E+00-1.77806E-13-9.73448E-14
 -1      2264 2.27279E+01-2.85133E-01 3.99472E-03-1.50938E+00-1.29873E-13 3.54344E-14
 -1      2265 2.24820E+01-1.89844E-01 2.06762E-03-1.58033E+00-1.23608E-13 8.51814E-15
 -1      2266 2.30562E+01-3.50572E-01 3.05914E-03-1.57838E+00-1.30469E-13-3.81429E-14
 -1      2267 2.23279E+01-2.01469E-02-6.73786E-03-1.64695E+00-1.27343E-13 1.21821E-14
 -1      2268 2.20870E+01 2.22559E-01 1.39526E-02-1.60908E+00-1.57048E-13 7.59375E-15
 -1      2269 2.28719E+01-1.10079E-01 7.86059E-03-1.79022E+00-1.40561E-13 7.34948E-15
 -1      2270 2.18469E+01 4.92248E-01-1.09330E-02-1.48449E+00-1.97603E-13-2.76459E-14
 -1      2271 2.16468E+01 7.78367E-01 2.06104E-02-1.25909E+00-2.18379E-13-6.63857E-14
 -1      2272 2.25197E+01 4.83431E-01 4.81666E-03-1.75455E+00-1.97166E-13-4.91974E-14
 -1      2273 2.14238E+01 1.01379E+00-5.16985E-03-8.85991E-01-2.27125E-13-7.90154E-14
 -1      2274 2.13171E+01 1.17981E+00 1.47120E-02-4.92814E-01-2.18264E-13-1.22614E-13
 -1      2275 2.20946E+01 1.16858E+00-6.56585E-03-1.24362E+00-2.28903E-13-9.88567E-14
 -1      2276 2.12445E+01 1.23445E+00 8.15111E-03 3.08805E-02-2.26357E-13-1.91757E-13
 -1      2277 2.12602E+01 1.16697E+00-4.21015E-04 4.62116E-01-2.17514E-13-2.45382E-13
 -1      2278 2.18176E+01 1.55937E+00-1.70614E-02-2.83377E-01-2.76747E-13-2.00939E-13
 -1      2279 2.13775E+01 9.94290E-01 1.93085E-02 9.23315E-01-2.37655E-13-2.75174E-13
 -1      2280 2.15009E+01 7.27898E-01-1.20104E-02 1.22661E+00-2.46277E-13-2.89369E-13
 -1      2281 2.18560E+01 1.40263E+00-1.07903E-02 7.79253E-01-2.59351E-13-2.60871E-13
 -1      2282 2.16999E+01 4.31223E-01 1.80418E-02 1.44668E+00-1.95635E-13-3.15066E-13
 -1      2283 2.18713E+01 1.14231E-01-1.56837E-02 1.53470E+00-1.18947E-13-2.98335E-13
 -1      2284 2.21407E+01 7.57995E-01 8.63491E-04 1.49566E+00-2.39954E-13-3.03702E-13
 -1      2285 2.20126E+01-1.56313E-01 7.34499E-03 1.48532E+00-8.67865E-14-3.03769E-13
 -1      2286 2.21677E+01-3.86252E-01-1.09097E-02 1.38061E+00-3.76322E-14-3.21359E-13
 -1      2287 2.24358E+01-1.55304E-02 1.01908E-02 1.64911E+00-1.24048E-13-2.85694E-13
 -1      2288 2.21806E+01-5.40363E-01-4.30165E-03 1.15507E+00-3.17964E-14-3.15121E-13
 -1      2289 2.22772E+01-6.33283E-01-3.90960E-03 9.43303E-01 4.91165E-15-2.75382E-13
 -1      2290 2.25482E+01-5.94119E-01 1.04793E-02 1.33070E+00-3.57405E-14-2.93482E-13
 -1      2291 2.21764E+01-6.65463E-01-1.12358E-02 6.63585E-01 7.61500E-15-3.13588E-13
 -1      2292 2.22030E+01-6.46916E-01 1.24200E-03 4.31739E-01-3.27919E-14-2.76424E-13
 -1      2293 2.24379E+01-8.43288E-01 5.36568E-03 7.85758E-01-7.73188E-15-2.59748E-13
 -1      2294 2.20406E+01-5.99268E-01-1.27328E-02 1.83457E-01-6.89557E-14-2.96784E-13
 -1      2295 2.20066E+01-5.21899E-01 3.64597E-03-1.26519E-02-4.79226E-14-3.11585E-13
 -1      2296 2.21749E+01-8.14391E-01 3.08488E-04 2.33587E-01-7.46855E-14-2.61583E-13
 -1      2297 2.18295E+01-4.41695E-01-1.07675E-02-1.92553E-01-8.90269E-14-2.72358E-13
 -1      2298 2.17531E+01-3.49981E-01 4.06451E-03-3.30425E-01-3.94131E-14-2.69548E-13
 -1      2299 2.18504E+01-6.32924E-01-2.52229E-03-2.05238E-01-6.82655E-14-1.50948E-13
 -1      2300 2.15888E+01-2.69726E-01-7.48667E-03-4.38525E-01-3.51010E-14-2.50236E-13
 -1      2301 2.14878E+01-1.89266E-01 3.47725E-03-5.18243E-01-2.56520E-14-2.14753E-13
 -1      2302 2.15287E+01-4.09310E-01-3.36171E-03-4.95558E-01-5.35716E-14-1.59481E-13
 -1      2303 2.13468E+01-1.24593E-01-4.25582E-03-5.67086E-01 3.66441E-14-2.74125E-13
 -1      2304 2.12355E+01-6.50070E-02 2.59929E-03-5.99642E-01 6.43249E-14-2.40630E-13
 -1      2305 2.12414E+01-2.09173E-01-3.16313E-03-6.50567E-01-1.69223E-14-1.20190E-13
 -1      2306 2.11193E+01-1.98951E-02-1.66551E-03-6.06099E-01-2.31623E-14-2.44644E-13
 -1      2307 2.10080E+01 1.86264E-02 1.79203E-03-6.05420E-01-5.94288E-14-2.39465E-13
 -1      2308 2.09973E+01-5.85618E-02-2.63345E-03-7.01905E-01 1.35682E-14-2.12405E-13
 -1      2309 2.09136E+01 4.61845E-02 1.52739E-04-5.85014E-01-1.77222E-14-1.73406E-13
 -1      2310 2.08091E+01 6.75453E-02 1.17799E-03-5.63781E-01 5.38217E-15-1.82071E-13
 -1      2311 2.07947E+01 4.04943E-02-2.11315E-03-6.83043E-01-2.95422E-14-1.67023E-13
 -1      2312 2.07329E+01 8.16723E-02 1.28054E-03-5.28687E-01 2.86400E-14-1.82837E-13
 -1      2313 2.06392E+01 9.07118E-02 7.56908E-04-4.96773E-01 1.08055E-13-2.11292E-13
 -1      2314 2.06282E+01 9.67889E-02-1.70597E-03-6.22228E-01-3.74683E-15-7.60888E-14
 -1      2315 2.05779E+01 9.56134E-02 1.87121E-03-4.55634E-01 1.51689E-13-2.19553E-13
 -1      2316 2.04967E+01 9.66491E-02 4.86197E-04-4.19944E-01 2.71372E-13-1.43814E-13
 -1      2317 2.04919E+01 1.21934E-01-1.41001E-03-5.40621E-01 1.11183E-13-7.30489E-14
 -1      2318 2.04476E+01 9.57953E-02 2.08257E-03-3.78392E-01 2.81024E-13-1.50899E-13
 -1      2319 2.03794E+01 9.21539E-02 3.19201E-04-3.43321E-01 1.93452E-13-1.13823E-13
 -1      2320 2.03809E+01 1.26547E-01-1.19261E-03-4.52747E-01 2.32555E-13-8.93877E-14
 -1      2321 2.03402E+01 8.81000E-02 2.04897E-03-3.04694E-01 1.03547E-13-1.89036E-13
 -1      2322 2.02844E+01 8.21183E-02 2.18381E-04-2.72738E-01 6.83082E-14-1.75663E-13
 -1      2323 2.02912E+01 1.18935E-01-1.02279E-03-3.67762E-01 1.24228E-13-3.06727E-13
 -1      2324 2.02534E+01 7.66007E-02 1.87332E-03-2.38743E-01 1.30733E-14-1.85659E-13
 -1      2325 2.02088E+01 6.98017E-02 1.57499E-04-2.11082E-01 6.73159E-15-1.53127E-13
 -1      2326 2.02193E+01 1.05013E-01-8.79788E-04-2.90829E-01 1.72299E-14-3.15633E-13
 -1      2327 2.01846E+01 6.39194E-02 1.62852E-03-1.82347E-01-4.11719E-14-1.97142E-13
 -1      2328 2.01497E+01 5.72226E-02 1.19727E-04-1.59308E-01-2.77926E-14-1.81552E-13
 -1      2329 2.01623E+01 8.86824E-02-7.52499E-04-2.24345E-01-2.07041E-14-2.66785E-13
 -1      2330 2.01310E+01 5.16170E-02 1.36273E-03-1.35785E-01 3.03136E-14-2.11327E-13
 -1      2331 2.01044E+01 4.55237E-02 9.49461E-05-1.17187E-01 1.17354E-14-1.42361E-13
 -1      2332 2.01178E+01 7.23359E-02-6.36391E-04-1.68904E-01-1.59336E-14-2.09344E-13
 -1      2333 2.00901E+01 4.05270E-02 1.10541E-03-9.84513E-02 6.61526E-16-1.71360E-13
 -1      2334 2.00702E+01 3.52650E-02 7.73888E-05-8.38388E-02 6.76620E-14-3.45678E-14
 -1      2335 2.00834E+01 5.73066E-02-5.30468E-04-1.24011E-01 1.45951E-14-2.25114E-13
 -1      2336 2.00595E+01 3.10112E-02 8.72794E-04-6.92805E-02 3.33978E-15-6.88126E-14
 -1      2337 2.00450E+01 2.66383E-02 6.39288E-05-5.80830E-02-4.18073E-14-8.27054E-14
 -1      2338 2.00574E+01 4.42263E-02-4.35137E-04-8.85838E-02 5.34964E-15-2.38714E-13
 -1      2339 2.00372E+01 2.31414E-02 6.72194E-04-4.70353E-02-8.61950E-14-4.97618E-14
 -1      2340 2.00269E+01 1.96179E-02 5.29528E-05-3.86621E-02-6.77576E-14-1.01731E-13
 -1      2341 2.00379E+01 3.32872E-02-3.51002E-04-6.12866E-02-9.59750E-14-7.03231E-14
 -1      2342 2.00212E+01 1.68248E-02 5.05297E-04-3.04762E-02-4.13881E-14-8.55943E-14
 -1      2343 2.00142E+01 1.40603E-02 4.36682E-05-2.43721E-02-1.59832E-15 2.42459E-14
 -1      2344 2.00238E+01 2.44238E-02-2.78322E-04-4.07390E-02-4.40998E-14 6.53445E-14
 -1      2345 2.00102E+01 1.18853E-02 3.70458E-04-1.84594E-02 4.07773E-14-6.15581E-15
 -1      2346 2.00056E+01 9.76876E-03 3.56989E-05-1.41322E-02 8.11389E-14 1.31284E-13
 -1      2347 2.00137E+01 1.74332E-02-2.16860E-04-2.56401E-02 2.61353E-14 2.43322E-13
 -1      2348 2.00029E+01 8.11508E-03 2.64275E-04-9.98283E-03 4.87831E-14 1.18528E-13
 -1      2349 2.00000E+01 6.53312E-03 2.88614E-05-7.01470E-03-3.40581E-14 3.94745E-14
 -1      2350 2.00067E+01 1.20538E-02-1.65942E-04-1.48323E-02 4.87117E-14 8.23067E-14
 -1      2351 1.99983E+01 5.30542E-03 1.82618E-04-4.20225E-03-3.86284E-14 5.30138E-14
 -1      2352 1.99966E+01 4.15215E-03 2.30492E-05-2.24937E-03-2.06450E-14 1.27249E-13
 -1      2353 2.00021E+01 8.01156E-03-1.24580E-04-7.32714E-03-3.55843E-15 1.66926E-13
 -1      2354 1.99956E+01 3.26342E-03 1.21262E-04-4.27414E-04-4.67009E-14 1.13739E-13
 -1      2355 1.99948E+01 2.44558E-03 1.81763E-05 7.85449E-04-9.26410E-14 6.19425E-14
 -1      2356 1.99991E+01 5.04754E-03-9.16119E-05-2.30693E-03-7.64529E-14 3.20538E-13
 -1      2357 1.99942E+01 1.82022E-03 7.62509E-05 1.89159E-03-2.10278E-13 1.75922E-13
 -1      2358 1.99940E+01 1.25881E-03 1.41544E-05 2.57953E-03-2.52211E-13 2.15591E-13
 -1      2359 1.99974E+01 2.93141E-03-6.58173E-05 8.86883E-04-7.95744E-14 1.63449E-13
 -1      2360 1.99938E+01 8.33514E-04 4.40845E-05 3.18273E-03-1.72652E-13 2.73615E-13
 -1      2361 1.99939E+01 4.63686E-04 1.08860E-05 3.51010E-03-3.89245E-14 1.84679E-13
 -1      2362 1.99965E+01 1.46672E-03-4.60071E-05 2.77227E-03-1.33541E-13 3.08400E-13
 -1      2363 1.99939E+01 1.86845E-04 2.17856E-05 3.77172E-03-8.10281E-14 1.10835E-13
 -1      2364 1.99943E+01-4.33428E-05 8.26415E-06 3.86122E-03-1.95633E-14 5.21560E-14
 -1      2365 1.99962E+01 4.91231E-04-3.10801E-05 3.74767E-03-7.82111E-14 2.67019E-13
 -1      2366 1.99944E+01-2.12800E-04 6.90068E-06 3.90076E-03 2.15222E-13 2.04399E-14
 -1      2367 1.99949E+01-3.44088E-04 6.17509E-06 3.84176E-03 1.90792E-13 1.01252E-13
 -1      2368 1.99962E+01-1.25726E-04-2.00554E-05 4.11279E-03 4.45590E-14 1.33181E-13
 -1      2369 1.99950E+01-4.38241E-04-2.53887E-06 3.74546E-03 9.64273E-14 1.44415E-13
 -1      2370 1.99956E+01-5.02041E-04 4.50048E-06 3.60110E-03 9.10154E-14 2.96448E-13
 -1      2371 1.99965E+01-4.87142E-04-1.20872E-05 4.08775E-03 1.96745E-13 1.36938E-13
 -1      2372 1.99958E+01-5.45585E-04-8.07483E-06 3.42925E-03-6.29984E-14 4.74622E-13
 -1      2373 1.99963E+01-5.65826E-04 3.11847E-06 3.24245E-03-4.21945E-14 4.39354E-13
 -1      2374 1.99969E+01-6.72818E-04-6.46849E-06 3.82976E-03 1.41642E-13 4.32339E-13
 -1      2375 1.99965E+01-5.77612E-04-1.08827E-05 3.03533E-03 8.50717E-15 4.21860E-13
 -1      2376 1.99970E+01-5.72456E-04 1.90574E-06 2.83348E-03 1.93679E-13 4.23497E-13
 -1      2377 1.99973E+01-7.43833E-04-2.62690E-06 3.44717E-03-8.65276E-14 6.50843E-13
 -1      2378 1.99972E+01-5.66914E-04-1.18380E-05 2.61619E-03 3.42400E-13 3.35411E-13
 -1      2379 1.99976E+01-5.50238E-04 7.44892E-07 2.41490E-03 4.11618E-13 1.90156E-13
 -1      2380 1.99978E+01-7.46713E-04-1.17239E-07 3.01085E-03 1.92773E-13 3.57960E-13
 -1      2381 1.99978E+01-5.38563E-04-1.15690E-05 2.20097E-03 2.96877E-13-8.55109E-14
 -1      2382 1.99982E+01-5.21056E-04-4.29378E-07 2.00691E-03 2.16439E-13 9.08893E-15
 -1      2383 1.99982E+01-7.17056E-04 1.37944E-06 2.56324E-03 1.88785E-13 9.25101E-14
 -1      2384 1.99983E+01-5.11765E-04-1.04760E-05 1.80129E-03 1.39020E-13 1.29411E-14
 -1      2385 1.99986E+01-5.01413E-04-1.61776E-06 1.61478E-03-5.79774E-14 9.33557E-15
 -1      2386 1.99986E+01-6.81976E-04 2.11998E-06 2.12538E-03 7.54813E-14-2.08306E-13
 -1      2387 1.99988E+01-5.00427E-04-8.79360E-06 1.41660E-03-1.04965E-13 1.33469E-13
 -1      2388 1.99990E+01-5.02242E-04-3.74323E-06 1.23402E-03-5.85859E-14 1.51746E-13
 -1      2389 1.99989E+01-6.61300E-04 2.19183E-06 1.70329E-03-3.41015E-14-7.71263E-14
 -1      2390 2.55702E+01-8.24806E-01-8.74977E-03 2.26719E+00 9.32568E-14 1.75906E-13
 -1      2391 2.58186E+01-1.13057E+00-1.06196E-02 1.85859E+00 6.94249E-14 1.99088E-13
 -1      2392 2.52017E+01 4.76721E-01 5.92427E-03 2.63248E+00 2.39333E-13 1.17172E-13
 -1      2393 2.55761E+01-2.83797E-01-5.10205E-02 2.66116E+00 1.47734E-13 1.60828E-13
 -1      2394 2.63811E+01-7.60596E-01-1.06037E-02 2.60762E+00 1.48753E-13 1.47545E-13
 -1      2395 2.45245E+01 1.99095E+00-4.41887E-02 1.64299E+00 2.99968E-13 5.73800E-14
 -1      2396 2.48912E+01 1.27279E+00-8.53296E-02 2.28811E+00 2.69798E-13 8.54160E-14
 -1      2397 2.62304E+01 1.17742E+00-3.40991E-02 2.78112E+00 2.75946E-13 1.01832E-13
 -1      2398 2.43742E+01 2.37325E+00-5.69282E-02-5.35065E-01 3.37758E-13-1.58448E-13
 -1      2399 2.43843E+01 2.43623E+00-4.97363E-02 4.34551E-01 3.58290E-13-4.64346E-14
 -1      2400 2.57041E+01 3.02257E+00-5.36442E-02 1.18946E+00 3.97786E-13-4.45928E-14
 -1      2401 2.48266E+01 1.18070E+00-7.81533E-02-2.28340E+00 1.17947E-13-2.65992E-13
 -1      2402 2.45421E+01 1.94034E+00-8.88997E-03-1.64587E+00 2.40738E-13-2.44978E-13
 -1      2403 2.57278E+01 2.91710E+00-7.15108E-02-1.21602E+00 3.52933E-13-2.92710E-13
 -1      2404 2.53880E+01-3.98012E-01-5.34793E-02-2.51828E+00 1.53348E-13-4.13408E-13
 -1      2405 2.50819E+01 3.42648E-01 2.53878E-03-2.53997E+00 1.49165E-13-3.70254E-13
 -1      2406 2.60709E+01 9.27507E-01-5.92496E-02-2.65187E+00 2.06155E-13-4.43930E-13
 -1      2407 2.54752E+01-1.26758E+00-1.30173E-02-1.59907E+00 7.88172E-14-4.56488E-13
 -1      2408 2.53086E+01-9.54051E-01-1.22976E-02-2.06398E+00 9.86993E-14-4.31900E-13
 -1      2409 2.61225E+01-8.81187E-01 2.28865E-03-2.37479E+00 1.61759E-13-6.48339E-13
 -1      2410 2.50106E+01-1.26764E+00 8.75935E-03-3.76751E-01 7.50094E-14-3.82792E-13
 -1      2411 2.50412E+01-1.34562E+00-2.67276E-02-9.03164E-01 8.55652E-14-3.86574E-13
 -1      2412 2.54979E+01-1.77154E+00 1.13944E-03-1.08360E+00 4.05717E-14-5.98610E-13
 -1      2413 2.43048E+01-8.69162E-01 1.08949E-02 5.71258E-01-1.42593E-13-1.95940E-13
 -1      2414 2.44886E+01-1.09189E+00-2.65620E-02 1.77133E-01 2.06259E-15-2.43109E-13
 -1      2415 2.45098E+01-1.62049E+00-1.04210E-02 1.87695E-01-5.56803E-14-3.91692E-13
 -1      2416 2.35792E+01-4.30615E-01 7.33142E-03 1.10768E+00-6.85086E-14-2.43484E-13
 -1      2417 2.38465E+01-6.41419E-01-1.93106E-02 8.91070E-01-1.07575E-13-2.25223E-13
 -1      2418 2.35544E+01-1.05064E+00-1.59619E-02 1.03653E+00-1.20631E-13-3.02853E-13
 -1      2419 2.29315E+01-1.11230E-01 4.03216E-03 1.30699E+00 2.34461E-14-1.60885E-13
 -1      2420 2.32285E+01-2.54291E-01-9.93144E-03 1.23167E+00-3.29827E-14-1.88225E-13
 -1      2421 2.27857E+01-4.82819E-01-1.25724E-02 1.44761E+00-6.16440E-14-3.71948E-13
 -1      2422 2.23770E+01 7.47244E-02 2.12609E-03 1.29245E+00 7.38206E-14-1.26525E-13
 -1      2423 2.26696E+01-3.88567E-03-2.60296E-03 1.30648E+00 1.05988E-13-1.04418E-13
 -1      2424 2.22042E+01-8.73320E-02-7.87723E-03 1.54839E+00 3.64636E-14-2.66126E-13
 -1      2425 2.19079E+01 1.61035E-01 1.20521E-03 1.16529E+00 1.25937E-13-1.19653E-13
 -1      2426 2.21768E+01 1.27481E-01 2.02231E-03 1.22541E+00 1.29528E-13-9.74147E-14
 -1      2427 2.17601E+01 1.35320E-01-4.52833E-03 1.46628E+00 1.10349E-13-1.88136E-13
 -1      2428 2.15135E+01 1.86257E-01 8.64029E-04 9.93055E-01 7.70363E-14-1.59811E-13
 -1      2429 2.17492E+01 1.79172E-01 4.40929E-03 1.07052E+00 1.10559E-13-9.97221E-14
 -1      2430 2.14098E+01 2.33892E-01-2.68556E-03 1.29443E+00 8.45560E-14-1.31760E-13
 -1      2431 2.11848E+01 1.79206E-01 7.73786E-04 8.14893E-01-5.88813E-14-1.30021E-13
 -1      2432 2.13843E+01 1.85543E-01 5.28810E-03 8.93267E-01-3.11817E-16-1.22932E-13
 -1      2433 2.11248E+01 2.57961E-01-1.81920E-03 1.09187E+00 2.09649E-14-1.29157E-13
 -1      2434 2.09141E+01 1.57858E-01 7.54990E-04 6.50637E-01-4.44725E-14-2.37341E-13
 -1      2435 2.10783E+01 1.69766E-01 5.26951E-03 7.21845E-01 1.06423E-14-2.02592E-13
 -1      2436 2.08894E+01 2.43431E-01-1.45098E-03 8.91901E-01 2.06323E-14-8.93659E-14
 -1      2437 2.06943E+01 1.32181E-01 7.33235E-04 5.08482E-01 2.02736E-13-3.30648E-13
 -1      2438 2.08265E+01 1.45420E-01 4.78690E-03 5.69415E-01 1.20513E-14-3.55024E-13
 -1      2439 2.06946E+01 2.12351E-01-1.28781E-03 7.11030E-01 7.35991E-14-2.55401E-13
 -1      2440 2.05186E+01 1.07136E-01 6.88544E-04 3.90235E-01 1.55917E-13-2.20950E-13
 -1      2441 2.06229E+01 1.19659E-01 4.11485E-03 4.40443E-01 2.46986E-13-2.43843E-13
 -1      2442 2.05345E+01 1.76825E-01-1.18302E-03 5.55698E-01 1.26349E-13-2.90895E-13
 -1      2443 2.03803E+01 8.48608E-02 6.23073E-04 2.94528E-01-1.06604E-13-2.45802E-13
 -1      2444 2.04612E+01 9.58288E-02 3.41026E-03 3.34830E-01 1.87550E-14-1.70353E-13
 -1      2445 2.04047E+01 1.42814E-01-1.07856E-03 4.26805E-01 6.14403E-14-7.01995E-14
 -1      2446 2.02732E+01 6.60222E-02 5.45338E-04 2.18642E-01-1.67497E-13-3.19035E-13
 -1      2447 2.03348E+01 7.52175E-02 2.75324E-03 2.50360E-01-1.40561E-13-2.79784E-13
 -1      2448 2.03010E+01 1.12832E-01-9.60698E-04 3.22477E-01-8.37919E-14-2.11877E-13
 -1      2449 2.01915E+01 5.05782E-02 4.63784E-04 1.59486E-01-2.13892E-14-4.11435E-13
 -1      2450 2.02377E+01 5.80752E-02 2.17813E-03 1.84039E-01-1.34922E-13-4.14651E-13
 -1      2451 2.02195E+01 8.75973E-02-8.33299E-04 2.39660E-01-6.47181E-14-3.36647E-13
 -1      2452 2.01303E+01 3.81848E-02 3.84751E-04 1.14067E-01 3.93813E-14-4.03927E-13
 -1      2453 2.01643E+01 4.41777E-02 1.69405E-03 1.32791E-01 5.91207E-14-4.56236E-13
 -1      2454 2.01564E+01 6.69714E-02-7.04666E-04 1.74999E-01 2.12386E-14-4.05441E-13
 -1      2455 2.00852E+01 2.84007E-02 3.12267E-04 7.97065E-02-2.47135E-13-4.35391E-13
 -1      2456 2.01098E+01 3.31172E-02 1.29733E-03 9.37748E-02-7.52263E-14-4.69520E-13
 -1      2457 2.01085E+01 5.04554E-02-5.82254E-04 1.25274E-01 2.35228E-14-5.08108E-13
 -1      2458 2.00527E+01 2.07834E-02 2.48443E-04 5.41055E-02-1.02419E-13-3.87302E-13
 -1      2459 2.00701E+01 2.44450E-02 9.78606E-04 6.45123E-02-2.67903E-13-4.02103E-13
 -1      2460 2.00727E+01 3.74402E-02-4.71099E-04 8.76008E-02-2.51382E-13-5.08466E-13
 -1      2461 2.00298E+01 1.49300E-02 1.94004E-04 3.53455E-02-1.11991E-14-2.42869E-13
 -1      2462 2.00417E+01 1.77357E-02 7.26686E-04 4.29119E-02 2.41900E-14-3.22210E-13
 -1      2463 2.00465E+01 2.73252E-02-3.73837E-04 5.94964E-02-1.38426E-13-6.23976E-13
 -1      2464 2.00141E+01 1.04914E-02 1.48766E-04 2.18561E-02 4.29453E-14-1.94659E-13
 -1      2465 2.00220E+01 1.26125E-02 5.30430E-04 2.72484E-02 4.28074E-15-1.83967E-13
 -1      2466 2.00278E+01 1.95669E-02-2.91239E-04 3.88811E-02-4.06793E-14-3.89420E-13
 -1      2467 2.00038E+01 7.17330E-03 1.12007E-04 1.23715E-02 1.05618E-13-2.02037E-13
 -1      2468 2.00088E+01 8.75349E-03 3.79650E-04 1.61227E-02 3.52746E-14-1.10090E-13
 -1      2469 2.00147E+01 1.36960E-02-2.22827E-04 2.40458E-02-1.06589E-14-3.14736E-13
 -1      2470 1.99973E+01 4.73192E-03 8.27336E-05 5.88515E-03-1.18815E-13 5.63523E-14
 -1      2471 2.00003E+01 5.88997E-03 2.65438E-04 8.41627E-03 5.99678E-14-8.14239E-14
 -1      2472 2.00059E+01 9.31734E-03-1.67378E-04 1.36086E-02-4.30782E-15-1.90744E-13
 -1      2473 1.99936E+01 2.96833E-03 5.98579E-05 1.60704E-03-1.53444E-13 1.44614E-13
 -1      2474 1.99951E+01 3.80092E-03 1.80225E-04 3.24643E-03-2.22142E-13 9.12035E-14
 -1      2475 2.00002E+01 6.10444E-03-1.23304E-04 6.46763E-03-1.63064E-13 6.85120E-14
 -1      2476 1.99918E+01 1.72201E-03 4.23089E-05-1.07508E-03-1.41860E-14 1.10273E-13
 -1      2477 1.99923E+01 2.30698E-03 1.17707E-04-7.45722E-05-6.77881E-14 8.94493E-14
 -1      2478 1.99968E+01 3.79104E-03-8.89086E-05 1.75623E-03-1.29876E-13-4.04695E-14
 -1      2479 1.99912E+01 8.64930E-04 2.90963E-05-2.62917E-03-8.09102E-14 1.21233E-13
 -1      2480 1.99912E+01 1.26422E-03 7.27144E-05-2.07551E-03 2.92813E-15 1.39953E-13
 -1      2481 1.99949E+01 2.16267E-03-6.25409E-05-1.19827E-03-6.95133E-14-6.81998E-14
 -1      2482 1.99914E+01 2.96060E-04 1.93412E-05-3.40770E-03-8.46038E-14 2.61355E-13
 -1      2483 1.99910E+01 5.58414E-04 4.10695E-05-3.15722E-03-5.21773E-14 1.95326E-13
 -1      2484 1.99941E+01 1.04847E-03-4.26903E-05-2.91060E-03-6.08228E-14 1.67541E-13
 -1      2485 1.99921E+01-6.33795E-05 1.22859E-05-3.67169E-03-3.36999E-14 2.82742E-13
 -1      2486 1.99915E+01 9.99673E-05 1.94368E-05-3.61880E-03-4.12407E-14 3.45489E-13
 -1      2487 1.99940E+01 3.13910E-04-2.80275E-05-3.76868E-03-6.97379E-14 1.20347E-13
 -1      2488 1.99931E+01-2.74146E-04 7.28922E-06-3.61072E-03-2.09320E-13 2.67084E-13
 -1      2489 1.99924E+01-1.80633E-04 5.18798E-06-3.67942E-03-2.44921E-14 3.05872E-13
 -1      2490 1.99944E+01-1.45784E-04-1.74188E-05-4.05992E-03-8.81915E-14 2.70787E-13
 -1      2491 1.99941E+01-3.82597E-04 3.81497E-06-3.35912E-03-1.60689E-13 2.09289E-13
 -1      2492 1.99934E+01-3.36706E-04-3.72127E-06-3.49617E-03-2.72790E-13 2.15321E-13
 -1      2493 1.99949E+01-4.11275E-04-9.92013E-06-3.99299E-03-1.81940E-13 2.19663E-13
 -1      2494 1.99951E+01-4.23803E-04 1.41757E-06-3.00893E-03-5.46948E-15 2.31639E-13
 -1      2495 1.99944E+01-4.08752E-04-8.86036E-06-3.17845E-03-3.51919E-15 2.90440E-13
 -1      2496 1.99956E+01-5.44035E-04-4.76207E-06-3.71559E-03-8.50797E-14 2.74553E-13
 -1      2497 1.99961E+01-4.24195E-04-2.71284E-07-2.62017E-03-8.74554E-14 8.63986E-14
 -1      2498 1.99955E+01-4.27325E-04-1.14132E-05-2.79940E-03-9.70168E-14 5.10572E-14
 -1      2499 1.99963E+01-5.90542E-04-1.33010E-06-3.32877E-03-2.13747E-14 1.14849E-13
 -1      2500 1.99969E+01-4.03925E-04-1.55975E-06-2.22862E-03 2.02535E-13 1.43702E-14
 -1      2501 1.99964E+01-4.15511E-04-1.22539E-05-2.40477E-03 1.01828E-13 1.28929E-13
 -1      2502 1.99970E+01-5.85855E-04 8.55092E-07-2.89815E-03-8.41701E-15-2.57375E-13
 -1      2503 1.99977E+01-3.78774E-04-2.65432E-06-1.85153E-03 4.08252E-13-1.04036E-13
 -1      2504 1.99972E+01-3.91181E-04-1.19925E-05-2.01954E-03 3.31256E-13-7.50307E-14
 -1      2505 1.99976E+01-5.56882E-04 2.13171E-06-2.46268E-03 2.57838E-13-2.84421E-13
 -1      2506 1.99983E+01-3.61157E-04-3.77665E-06-1.49228E-03 1.78385E-13 1.46507E-13
 -1      2507 1.99979E+01-3.68440E-04-1.11023E-05-1.65296E-03 2.58567E-13 6.55679E-14
 -1      2508 1.99982E+01-5.24302E-04 2.76601E-06-2.04097E-03 2.23632E-13-2.95269E-13
 -1      2509 1.99988E+01-3.59066E-04-4.26690E-06-1.14362E-03 3.19688E-13-5.36368E-14
 -1      2510 1.99985E+01-3.58759E-04-9.93054E-06-1.30236E-03 2.89530E-13 1.18887E-13
 -1      2511 1.99986E+01-5.03353E-04 3.30700E-06-1.63874E-03 2.84648E-13-1.02201E-13
 -1      2512 1.99993E+01-3.72682E-04-4.81072E-06-7.99488E-04-4.09354E-14 1.05889E-13
 -1      2513 1.99990E+01-3.63909E-04-8.31510E-06-9.58818E-04 1.76646E-13 8.94623E-14
 -1      2514 1.99991E+01-5.00531E-04 5.22028E-06-1.24850E-03 1.66150E-13-1.42606E-13
 -1      2515 1.99994E+01-3.70884E-04-5.73598E-06-6.04709E-04 2.14598E-14 5.81915E-14
 -1      2516 2.00001E+01-1.89572E-03 8.05195E-06-9.70723E-04 1.26869E-13 5.60150E-14
 -1      2517 2.00000E+01-1.72631E-03-1.60409E-06-1.06092E-03 3.42048E-14-4.40375E-13
 -1      2518 2.00002E+01-2.16887E-03 8.26273E-06-6.82979E-04 3.08143E-13 1.80239E-13
 -1      2519 2.00002E+01-2.04436E-03 1.40542E-06-8.27393E-04 2.05550E-13 3.06993E-14
 -1      2520 2.00002E+01-1.93333E-03-5.32067E-06-1.03048E-03 3.41716E-13 1.07117E-13
 -1      2521 1.99997E+01-1.13653E-03 5.60241E-06-1.14188E-03-1.50526E-13-3.58985E-14
 -1      2522 1.99996E+01-9.35747E-04-7.27993E-06-1.09213E-03-1.25565E-13-3.62569E-13
 -1      2523 1.99999E+01-1.53864E-03 7.01679E-06-1.13309E-03-2.94797E-13-4.53068E-13
 -1      2524 1.99998E+01-1.34640E-03-4.62601E-06-1.15450E-03-2.12758E-13 1.76289E-13
 -1      2525 1.99997E+01-1.22944E-03-3.05969E-06-1.32995E-03-1.32767E-13-2.80568E-14
 -1      2526 2.00000E+01-1.61045E-03-3.62587E-06-1.26189E-03 1.06165E-13-1.13513E-13
 -1      2527 2.00003E+01-2.32890E-03 7.67562E-06-3.10680E-04-6.20436E-14 4.74275E-13
 -1      2528 2.00003E+01-2.26327E-03 4.18556E-06-4.89172E-04 1.14081E-13 1.73487E-13
 -1      2529 2.00004E+01-2.16704E-03-6.58503E-06-6.70289E-04 2.40627E-13 4.08988E-14
 -1      2530 2.00003E+01-2.35995E-03 6.30297E-06 9.90146E-05-1.32092E-13 2.91647E-13
 -1      2531 2.00003E+01-2.36070E-03 6.33932E-06-9.08842E-05-2.19048E-13 5.74725E-13
 -1      2532 2.00005E+01-2.28851E-03-7.19572E-06-2.29335E-04-7.58049E-14 3.54109E-13
 -1      2533 2.00003E+01-2.25933E-03 4.24515E-06 4.96389E-04-2.73174E-14 4.85939E-14
 -1      2534 2.00003E+01-2.32651E-03 7.66692E-06 3.18506E-04 2.88989E-14 1.80687E-13
 -1      2535 2.00005E+01-2.28688E-03-7.14167E-06 2.38703E-04-1.90092E-14 3.26203E-13
 -1      2536 2.00002E+01-2.04268E-03 1.45470E-06 8.27792E-04 7.23564E-14-3.62291E-13
 -1      2537 2.00002E+01-2.16564E-03 8.22664E-06 6.86344E-04 2.64024E-14-2.03510E-13
 -1      2538 2.00004E+01-2.16407E-03-6.57607E-06 6.75047E-04 6.30588E-14-7.87941E-14
 -1      2539 2.00000E+01-1.72439E-03-1.57409E-06 1.06075E-03 2.75271E-13 9.70534E-14
 -1      2540 2.00001E+01-1.89392E-03 8.00535E-06 9.70837E-04 1.43200E-13-1.25317E-13
 -1      2541 2.00002E+01-1.93099E-03-5.21779E-06 1.03098E-03 1.10244E-13-1.89643E-13
 -1      2542 1.99998E+01-1.33845E-03-4.21695E-06 1.15281E-03 4.99450E-14-1.72468E-14
 -1      2543 1.99999E+01-1.53551E-03 6.68035E-06 1.13326E-03 1.68621E-13 1.44387E-13
 -1      2544 2.00000E+01-1.60567E-03-2.88480E-06 1.26241E-03 1.64338E-13-1.34057E-13
 -1      2545 1.99996E+01-9.24481E-04-5.94725E-06 1.08331E-03-1.77627E-13-3.61803E-13
 -1      2546 1.99997E+01-1.12963E-03 4.17512E-06 1.14184E-03-1.38300E-13-2.62457E-13
 -1      2547 1.99997E+01-1.21887E-03 4.41902E-07 1.32744E-03 9.39189E-15-3.12954E-13
 -1      2548 4.75130E+00-2.77098E+00 8.01941E-02 3.27110E+00-3.46390E-14 8.08853E-13
 -1      2549 3.72533E+00-2.17530E+00 9.75135E-02 9.37176E-01-1.07025E-13 1.02274E-12
 -1      2550 1.71938E+01-5.32779E+00-1.85667E-02 6.71502E+00-1.86517E-14 1.70686E-13
 -1      2551 1.31087E+01-5.05871E+00 3.52890E-02 6.52223E+00-1.60871E-13 3.49165E-13
 -1      2552 2.00555E+01-5.35942E+00 9.65745E-02 5.83734E+00-1.76248E-13-5.69024E-14
 -1      2553 2.54925E+01-1.18016E+00-2.42760E-02 1.27652E+00 5.68573E-14 1.90412E-13
 -1      2554 2.56082E+01-1.07024E+00 1.84413E-02 8.26703E-01 6.52503E-14 1.86621E-13
 -1      2555 2.59199E+01-1.53590E+00-6.67508E-03 1.50426E+00 6.91578E-14 1.35027E-13
 -1      2556 2.31676E+01 1.44329E+00-1.99583E-02-1.80170E+00-2.87778E-13-9.29604E-14
 -1      2557 2.31275E+01 6.08864E-01-1.80176E-02-1.42275E+00-2.63336E-13-5.72129E-14
 -1      2558 2.30443E+01 5.78607E-01 1.63498E-02-1.44889E+00-2.24075E-13-1.08183E-13
 -1      2559 2.26159E+01 1.73758E+00-1.42786E-02-1.64725E+00-2.71558E-13-1.80089E-13
 -1      2560 1.99995E+01-5.78970E-04-4.97031E-06 7.72131E-04-8.60894E-14-2.53914E-13
 -1      2561 6.65645E+00-3.18021E+00 8.84740E-02-5.07477E+00 2.04725E-13 7.00551E-13
 -1      2562 9.72002E+00-3.90288E+00 4.86371E-02-6.64151E+00 2.16605E-13 7.05380E-13
 -1      2563 9.68334E+00-4.05511E+00 4.21711E-02 6.18178E+00-1.08830E-13 3.82000E-13
 -1      2564 6.88358E+00-3.48731E+00 6.94812E-02 4.81298E+00-1.50657E-13 4.57551E-13
 -1      2565 3.71238E+00-2.17418E+00 1.10883E-01-1.44310E+00 9.38485E-14 8.84681E-13
 -1      2566 4.48468E+00-2.53229E+00 7.74444E-02-3.38410E+00 1.22680E-13 6.92002E-13
 -1      2567 1.23103E+01-3.79483E+00 5.74914E-02-6.00068E+00 5.13756E-14-7.10820E-13
 -1      2568 1.67376E+01-4.49198E+00-3.36927E-02-6.36635E+00 1.47216E-13-6.20802E-13
 -1      2569 1.54795E+01 3.48863E+00-2.70667E-02 1.55962E+00 1.42280E-13-5.78293E-13
 -1      2570 1.64302E+01 3.26773E+00 2.43080E-02 1.46831E+00 1.24037E-13-5.42809E-13
 -1      2571 1.70602E+01 2.48494E+00-1.73322E-02 1.65000E+00 1.21981E-13-4.89671E-13
 -1      2572 1.50427E+01 3.33056E+00 1.49085E-03 1.81341E+00 1.59902E-13-5.92517E-13
 -1      2573 3.41973E+01 7.10885E+00-9.88852E-02 6.36883E-01 7.76379E-13-3.84887E-13
 -1      2574 3.41961E+01 7.27106E+00-9.07275E-02-1.98692E-02 7.55784E-13-4.11129E-13
 -1      2575 5.61101E+00-1.93523E+00 4.48172E-02 4.90662E+00 1.01252E-13-9.07441E-13
 -1      2576 4.03505E+00-1.07809E+00 8.79690E-02 3.05595E+00 1.52781E-13-9.41192E-13
 -1      2577 3.40745E+01 6.49044E+00-9.05130E-02-7.57253E-01 7.52509E-13-4.50556E-13
 -1      2578 3.36283E+01 5.00518E+00-7.20586E-02-1.03589E+00 6.99940E-13-4.21357E-13
 -1      2579 3.30194E+01 4.55145E+00-1.08707E-01 1.44848E+00 7.22034E-13-2.54796E-13
 -1      2580 3.42715E+01 6.27057E+00-3.47969E-03 1.00271E+00 7.68052E-13-3.49359E-13
 -1      2581 3.18650E+01 6.32547E+00-1.82773E-02 1.16590E+00 7.38520E-13-2.59279E-13
 -1      2582 3.16849E+01-7.67336E-02-4.18318E-02 3.26729E-01 4.49682E-13-1.92513E-13
 -1      2583 3.24338E+01 1.89793E+00-1.60555E-01 1.37264E+00 5.45897E-13-1.98314E-13
 -1      2584 2.76865E+01-3.44680E+00-2.38848E-02-2.50849E+00 2.94889E-13-3.42032E-13
 -1      2585 3.02717E+01-2.07028E+00-1.12086E-01-1.31234E+00 4.13378E-13-2.26541E-13
 -1      2586 2.10500E+01-4.78840E+00 1.88372E-02-5.21311E+00 1.65146E-13-5.16670E-13
 -1      2587 2.47080E+01-4.43336E+00-7.29423E-02-4.41433E+00 2.36977E-13-4.90219E-13
 -1      2588 5.67559E+00-2.12486E+00 4.73006E-02-3.85430E+00 4.55469E-14-9.02833E-13
 -1      2589 8.18036E+00-2.63811E+00 2.17340E-02-5.36384E+00 7.96030E-14-8.37219E-13
 -1      2590 1.96473E+01-5.03733E+00 7.55296E-03-6.33400E+00 1.80966E-14 1.34434E-13
 -1      2591 2.29201E+01-4.59175E+00-7.05356E-02-5.69802E+00-1.15408E-13-1.61329E-13
 -1      2592 3.45056E+00-6.69234E-01 9.70047E-02 2.25222E-01 1.11864E-13-9.54348E-13
 -1      2593 4.11356E+00-1.21826E+00 9.64595E-02-2.24547E+00 1.16601E-13-9.49352E-13
 -1      2594 1.11714E+01-2.87625E+00 2.94886E-02 6.76084E+00 8.75966E-14-7.20535E-13
 -1      2595 7.96731E+00-2.60010E+00 4.05260E-02 5.84700E+00 1.20293E-13-8.11795E-13
 -1      2596 8.50497E+00-1.19454E+00 1.50093E-01 5.39273E+00 2.20574E-13-8.51208E-13
 -1      2597 2.66724E+01-2.54222E+00-7.43321E-02 3.88523E+00-3.25628E-13-3.64431E-13
 -1      2598 2.38978E+01-3.37019E+00 3.62625E-02 4.70511E+00-2.09693E-13-4.51916E-13
 -1      2599 3.20648E+01 4.97478E+00-1.46153E-01-9.39465E-01-7.36328E-13-1.83908E-13
 -1      2600 3.16075E+01 3.50933E+00-6.53058E-02-8.17701E-01-6.32078E-13-1.96926E-13
 -1      2601 3.25308E+01 7.54809E+00-1.26826E-01-4.50270E-01-9.25482E-13-2.46289E-13
 -1      2602 3.23459E+01 6.71812E+00-1.10634E-01-7.96767E-01-8.80351E-13-2.42251E-13
 -1      2603 3.28289E+01 7.00915E+00-8.33382E-02 4.32402E-01-8.53262E-13-3.09031E-13
 -1      2604 3.24569E+01 7.51891E+00-1.49364E-01 1.40848E-01-8.72136E-13-2.80557E-13
 -1      2605 3.24924E+01 4.13896E+00-7.48709E-02 2.04029E-01-7.35190E-13-3.31513E-13
 -1      2606 3.30693E+01 5.78973E+00-1.12353E-01 4.86232E-01-8.08631E-13-3.57520E-13
 -1      2607 3.08942E+01 5.98539E+00-6.09868E-02 9.68777E-01-7.81153E-13-3.13735E-13
 -1      2608 3.05704E+01 3.54588E-01-5.49046E-02-9.93690E-01-4.68868E-13-2.89657E-13
 -1      2609 3.18252E+01 1.96651E+00-9.92432E-02-3.59957E-01-5.97258E-13-3.59934E-13
 -1      2610 2.62572E+01-3.40410E+00-1.35768E-04-3.74186E+00-1.99077E-13-2.81219E-13
 -1      2611 2.91917E+01-1.69887E+00-7.32305E-02-2.53697E+00-3.14415E-13-2.82246E-13
 -1      2612 1.32499E+01-4.81730E+00 4.85963E-02-6.97122E+00 2.75863E-13 5.70807E-13
 -1      2613 1.66129E+01-4.98166E+00 1.05490E-02-7.15910E+00 1.07414E-13 4.48471E-13
 -1      2614 1.93133E+01-5.09011E+00 6.06787E-02-6.42549E+00 3.04062E-13 7.62177E-14
 -1      2615 3.33274E+01 2.95400E+00-6.58743E-02-8.78759E-01 5.86142E-13-5.13700E-13
 -1      2616 3.19237E+01 9.66792E-01-9.13679E-02-5.60111E-01 5.40332E-13-5.76927E-13
 -1      2617 2.50528E+01 4.72748E-01-1.63381E-02 2.89448E-01 2.69401E-13 2.18271E-13
 -1      2618 2.51962E+01 9.69026E-01-7.50535E-03 6.73579E-01 2.91045E-13 2.62502E-13
 -1      2619 2.44065E+01 1.40104E+00-2.32980E-02 7.48611E-01 3.16911E-13 1.28609E-13
 -1      2620 2.43291E+01 3.95051E-01-2.48859E-02 1.79891E-01 2.50510E-13 6.79389E-14
 -1      2621 3.20020E+01 6.44613E+00-5.60578E-02-6.45166E-01 7.31859E-13-4.13933E-13
 -1      2622 2.06687E+01 1.49882E+00-1.40684E-02 7.74173E-03-6.10295E-14-3.55735E-13
 -1      2623 2.06751E+01 2.10618E+00-5.10569E-03-3.26915E-01-9.54857E-14-3.86705E-13
 -1      2624 2.12607E+01 2.01230E+00-2.74651E-02-7.50124E-01-1.50643E-13-3.56442E-13
 -1      2625 2.51702E+01-1.29507E+00-2.10140E-02 4.81033E-01 9.90518E-14 9.79937E-14
 -1      2626 2.32195E+01 1.78979E+00-9.74327E-03 5.54355E-01 2.95853E-13-2.86299E-14
 -1      2627 2.53565E+01-4.34755E+00 4.71081E-02-3.96407E+00 4.57967E-15-3.36564E-13
 -1      2628 3.12474E+01-8.09435E-01-5.00997E-02-2.35893E-01 4.07546E-13-6.66051E-13
 -1      2629 2.97302E+01-2.30503E+00-4.03207E-02 8.01810E-02 2.26646E-13-7.33774E-13
 -1      2630 3.04916E+01-1.91881E-01-1.30393E-01-1.56084E+00 3.60323E-13-7.35523E-13
 -1      2631 3.08235E+01 2.67434E+00-2.91323E-02 9.58863E-01-5.77510E-13-5.05651E-13
 -1      2632 1.31227E+01-4.01255E+00 1.26115E-01 6.19364E+00-3.22020E-13 2.44985E-13
 -1      2633 2.28434E+01 1.31176E+00 1.47937E-02 1.09988E-01 2.55212E-13-6.71425E-14
 -1      2634 2.77648E+01-4.19143E+00-1.34573E-01 1.69096E+00 7.22825E-14-6.58140E-13
 -1      2635 2.64984E+01-4.54104E+00 2.67850E-02 3.38394E+00 1.17989E-13-3.86940E-13
 -1      2636 2.52547E+01-5.10660E+00 6.63349E-02 3.61560E+00-8.69305E-14-4.34749E-13
 -1      2637 1.30393E+01-3.87342E+00 1.25377E-01-6.63855E+00 3.70204E-13 4.98532E-13
 -1      2638 3.04739E+01 7.25383E+00-7.83524E-02-1.47651E-01-8.86735E-13-2.11244E-13
 -1      2639 1.99994E+01-5.16483E-04-1.87081E-06-8.50734E-04-5.78328E-14 5.10077E-14
 -1      2640 1.99994E+01-6.70944E-04 4.38063E-07-9.65389E-04-6.09421E-14 4.45990E-14
 -1      2641 3.03350E+01 5.61049E+00-7.58236E-02-1.49437E+00-7.38520E-13-5.61357E-14
 -1      2642 5.38087E+00-1.24647E+00 1.74008E-01-9.60548E-02 2.51413E-14 8.83349E-13
 -1      2643 7.75095E+00-2.09281E+00 1.67918E-01 4.05349E+00-2.33383E-13 5.37653E-13
 -1      2644 1.40915E+01-3.18427E+00 9.80290E-02 6.75754E+00 1.04194E-13-6.51243E-13
 -1      2645 1.33073E+01-2.16624E+00 1.55710E-01 6.46086E+00 2.24570E-13-6.56558E-13
 -1      2646 1.66933E+01-3.53954E+00-7.92498E-02 6.45883E+00 1.70530E-13-5.40533E-13
 -1      2647 4.73814E+00-2.92276E-02 1.63524E-01 1.62329E+00 1.53426E-13-9.53487E-13
 -1      2648 5.96139E+00 1.04521E+00 1.55399E-01 3.20870E-01 1.05726E-13-9.04721E-13
 -1      2649 6.31100E+00 5.80616E-01 9.69913E-02 2.90326E+00 2.07459E-13-8.89400E-13
 -1      2650 2.21339E+01 1.85226E+00-6.91889E-03-1.32191E+00-2.16533E-13-2.47181E-13
 -1      2651 7.53148E+00-2.01161E+00 1.64771E-01-4.38393E+00 2.87395E-13 6.69326E-13
 -1      2652 2.01240E+01-4.51232E+00 9.63334E-02-5.28922E+00-1.41276E-14-4.77914E-13
 -1      2653 6.54063E+00-4.95352E-01 1.48804E-01-2.92235E+00 1.87073E-14-9.10994E-13
 -1      2654 2.67515E+01-4.21058E+00 5.33479E-02-2.54363E+00 9.72417E-14-2.14412E-13
 -1      2655 3.04403E+01 1.97203E+00-4.02242E-02-7.55423E-01-5.06761E-13-9.07607E-14
 -1      2656 2.23899E+01-3.81696E+00 7.88821E-02 5.20961E+00-2.92821E-14-4.10075E-13
 -1      2657 3.18858E+01 2.73553E+00-1.11156E-01 2.00539E+00 5.67907E-13-1.26649E-13
 -1      2658 3.04289E+01 3.47667E+00-1.71033E-01 2.55572E+00 5.75595E-13-5.15976E-14
 -1      2659 3.03507E+01 1.16179E+00-6.00966E-02 2.31151E+00 4.09880E-13 3.00454E-14
 -1      2660 1.20074E+01-2.66017E+00 1.24481E-01-5.57067E+00-4.09117E-14-7.36189E-13
 -1      2661 1.99993E+01-5.04772E-04-6.72881E-06 9.30655E-04-1.27414E-13-1.02630E-13
 -1      2662 1.99995E+01-7.38382E-04 3.64925E-06 1.04152E-03-1.84156E-13-3.18526E-13
 -1      2663 1.99994E+01-8.40794E-04-2.85850E-06 1.26620E-03-1.46490E-13-2.40337E-13
 -1      2664 1.99991E+01-5.06418E-04-9.27428E-06 1.09899E-03-1.63988E-13 5.58191E-14
 -1      2665 3.17183E+01 3.62602E+00-5.27271E-02-1.89997E+00 5.73097E-13-5.38847E-13
 -1      2666 3.03585E+01-1.57040E+00 2.21325E-03 5.00984E-01 2.99682E-13-4.65461E-14
 -1      2667 2.81509E+01-2.05098E+00-3.28517E-02 1.83550E+00-2.49606E-13-2.08306E-13
 -1      2668 2.93051E+01-1.36451E+00-7.31835E-04-7.61033E-01-2.25008E-13-4.46920E-13
 -1      2669 1.99994E+01-7.72108E-04-3.83989E-06-1.19965E-03-5.91377E-14-1.51762E-13
 -1      2670 1.99992E+01-6.53854E-04 4.45579E-06 1.35198E-03-1.12802E-13 8.58661E-14
 -1      2671 1.29280E+01 3.90588E+00 1.41258E-02 1.46495E-02 1.43818E-13-6.02599E-13
 -1      2672 1.26121E+01 3.96600E+00 4.25433E-03 5.38687E-01 1.53719E-13-6.28097E-13
 -1      2673 1.27674E+01 3.80203E+00-1.76875E-02 1.35243E+00 1.78009E-13-6.30839E-13
 -1      2674 1.33852E+01 3.60972E+00 3.62377E-02 1.78390E+00 1.85499E-13-6.35164E-13
 -1      2675 1.22808E+01 3.59843E+00 6.00235E-02 1.05913E+00 1.63658E-13-6.52806E-13
 -1      2676 1.77877E+01 2.18780E+00 3.80856E-02-1.23056E+00 1.22927E-13-3.96542E-13
 -1      2677 1.62552E+01 2.55689E+00-3.15588E-02-1.25619E+00 1.03243E-13-4.44701E-13
 -1      2678 2.07725E+01 1.25207E+00 3.15079E-02-7.60082E-01 1.63238E-13-2.38790E-13
 -1      2679 1.92902E+01 1.60433E+00-1.34573E-02-1.00963E+00 1.38033E-13-3.12465E-13
 -1      2680 1.86464E+01 1.16147E+00-1.52703E-02-1.56141E+00 8.65150E-14-3.37708E-13
 -1      2681 2.39442E+01-7.60557E-01-1.57134E-02-2.99817E-01 1.12410E-13-1.23482E-14
 -1      2682 2.37479E+01-1.48002E-01 4.07963E-02-3.28167E-01 1.41430E-13-1.77199E-14
 -1      2683 1.58933E+01-4.08879E+00 4.92646E-02 6.18918E+00-3.31013E-13 1.29466E-13
 -1      2684 1.28474E+01-2.90852E+00 1.41264E-01 5.66527E+00-3.92478E-13 2.19255E-13
 -1      2685 2.33533E+01-5.10711E-01 1.07573E-02-1.47710E+00-9.76847E-14-6.66108E-14
 -1      2686 2.32761E+01-5.21118E-01-9.66820E-03-1.59459E+00-8.86820E-14-4.53919E-14
 -1      2687 2.33864E+01-3.89539E-01-3.55560E-03-1.80118E+00-1.10112E-13-2.42990E-14
 -1      2688 2.32579E+01-1.08886E-01 2.35860E-03-1.88618E+00-1.51178E-13-4.63774E-14
 -1      2689 2.36811E+01-5.54379E-01 3.72026E-03-1.69408E+00-1.09566E-13-5.03824E-14
 -1      2690 2.31620E+01 2.92540E-01-2.19824E-02-1.96457E+00-2.02655E-13-4.20493E-14
 -1      2691 2.29959E+01 7.99159E-01 1.55089E-02-1.85786E+00-2.35527E-13-6.77019E-14
 -1      2692 2.37505E+01 1.09533E-01 8.88633E-03-2.03935E+00-1.92542E-13-3.60051E-14
 -1      2693 2.27416E+01 1.31494E+00-2.75191E-02-1.60959E+00-2.43806E-13-9.66757E-14
 -1      2694 2.25934E+01 1.78291E+00 1.45333E-02-1.22347E+00-2.72278E-13-1.25149E-13
 -1      2695 2.34781E+01 1.28818E+00 2.23623E-03-1.92581E+00-2.77422E-13-8.68264E-14
 -1      2696 2.23984E+01 2.09529E+00-1.61221E-02-6.30449E-01-3.19540E-13-1.74807E-13
 -1      2697 2.23243E+01 2.20537E+00-1.25519E-02-7.24110E-02-2.95122E-13-2.02749E-13
 -1      2698 2.30851E+01 2.35536E+00-1.54784E-02-1.06257E+00-3.43432E-13-1.84370E-13
 -1      2699 2.23865E+01 2.08046E+00 8.97103E-03 6.31674E-01-2.84012E-13-2.57968E-13
 -1      2700 2.24394E+01 1.72007E+00-2.72227E-02 1.10941E+00-2.74600E-13-2.93755E-13
 -1      2701 2.29195E+01 2.62128E+00-1.44886E-02 3.15181E-01-2.99268E-13-2.57058E-13
 -1      2702 2.26487E+01 1.23613E+00 1.83815E-02 1.52816E+00-2.61038E-13-2.97035E-13
 -1      2703 2.27550E+01 6.52194E-01-3.31432E-02 1.73635E+00-2.25981E-13-2.97758E-13
 -1      2704 2.31453E+01 1.79066E+00-8.16538E-03 1.45354E+00-2.71927E-13-3.14491E-13
 -1      2705 2.29082E+01 1.01371E-01 1.12632E-02 1.74747E+00-1.61479E-13-3.03796E-13
 -1      2706 2.29801E+01-3.96443E-01-2.13040E-02 1.66420E+00-8.60355E-14-2.96835E-13
 -1      2707 2.34324E+01 4.45709E-01 7.27801E-03 1.85993E+00-1.81929E-13-3.10319E-13
 -1      2708 2.29252E+01-7.61219E-01-1.64805E-03 1.38783E+00-6.86759E-14-2.89107E-13
 -1      2709 2.29162E+01-1.01148E+00-4.89515E-03 1.13385E+00-2.80125E-14-2.99140E-13
 -1      2710 2.34459E+01-7.17330E-01 1.24958E-02 1.52307E+00-8.13869E-14-3.27298E-13
 -1      2711 2.26804E+01-1.13511E+00-1.01430E-02 7.70258E-01-3.80728E-15-2.78336E-13
 -1      2712 2.25936E+01-1.15570E+00 5.90265E-03 4.78010E-01 1.70409E-15-2.79661E-13
 -1      2713 2.30980E+01-1.31656E+00 4.47308E-03 8.26944E-01-1.91364E-15-3.61674E-13
 -1      2714 2.22823E+01-1.10515E+00-1.16564E-02 1.63058E-01-1.72199E-14-2.21470E-13
 -1      2715 2.21484E+01-9.92648E-01 9.90543E-03-8.56257E-02-5.55444E-14-1.75011E-13
 -1      2716 2.25383E+01-1.37843E+00-4.31692E-03 1.33608E-01 1.86136E-14-2.56006E-13
 -1      2717 2.18479E+01-8.60452E-01-9.32140E-03-3.02898E-01-7.36494E-14-1.13569E-13
 -1      2718 2.16997E+01-7.03971E-01 9.68850E-03-4.77509E-01-3.89391E-14-7.07230E-14
 -1      2719 2.19448E+01-1.12311E+00-8.65273E-03-3.89210E-01-6.14388E-15-1.37099E-13
 -1      2720 2.14527E+01-5.58378E-01-5.97205E-03-6.00102E-01-6.62792E-14-8.90721E-14
 -1      2721 2.13113E+01-4.12045E-01 7.64397E-03-7.01649E-01-5.82722E-14-9.95215E-14
 -1      2722 2.14285E+01-7.60361E-01-8.87124E-03-7.10702E-01-5.15607E-14-1.21045E-13
 -1      2723 2.11262E+01-2.88319E-01-3.10019E-03-7.51510E-01-3.09161E-14-6.20868E-14
 -1      2724 2.10011E+01-1.74808E-01 5.26471E-03-7.94280E-01-2.15824E-14-7.96193E-14
 -1      2725 2.10269E+01-4.18664E-01-7.22078E-03-8.65423E-01-3.25659E-14-5.51038E-14
 -1      2726 2.08697E+01-8.45412E-02-1.03956E-03-7.94909E-01 1.69590E-14-8.86534E-14
 -1      2727 2.07629E+01-7.49139E-03 3.22120E-03-7.96083E-01 2.37914E-14-9.75723E-14
 -1      2728 2.07341E+01-1.52060E-01-5.22249E-03-9.01944E-01-1.83449E-14-1.91791E-14
 -1      2729 2.06724E+01 5.05654E-02 3.05091E-04-7.66698E-01 1.05254E-14-1.14479E-13
 -1      2730 2.05826E+01 9.63454E-02 1.71584E-03-7.41610E-01-1.73087E-15-5.60955E-14
 -1      2731 2.05279E+01 3.02041E-02-3.53946E-03-8.63061E-01 2.21208E-14-4.60507E-14
 -1      2732 2.05209E+01 1.28583E-01 1.11583E-03-6.96251E-01-4.82723E-14-6.22941E-14
 -1      2733 2.04461E+01 1.50935E-01 7.14050E-04-6.56863E-01-1.95353E-14-1.04188E-13
 -1      2734 2.03846E+01 1.39658E-01-2.32393E-03-7.81097E-01-5.14156E-15-7.48022E-14
 -1      2735 2.04038E+01 1.64681E-01 1.54684E-03-6.05138E-01 6.40067E-14-1.09541E-13
 -1      2736 2.03418E+01 1.71114E-01 1.04214E-04-5.59985E-01 1.40909E-13-1.32161E-13
 -1      2737 2.02845E+01 1.94206E-01-1.52138E-03-6.78738E-01 1.73371E-14-9.41338E-14
 -1      2738 2.03124E+01 1.72782E-01 1.71496E-03-5.08099E-01 1.72513E-13-1.51383E-13
 -1      2739 2.02613E+01 1.69364E-01-2.29341E-04-4.62802E-01 1.88320E-13-2.62162E-13
 -1      2740 2.02136E+01 2.11158E-01-1.02004E-03-5.71093E-01 1.09398E-13-1.97691E-13
 -1      2741 2.02404E+01 1.63891E-01 1.70817E-03-4.14467E-01 1.52798E-13-2.65662E-13
 -1      2742 2.01987E+01 1.55067E-01-3.82190E-04-3.72398E-01 1.19584E-13-2.70208E-13
 -1      2743 2.01621E+01 2.04605E-01-7.17063E-04-4.67638E-01 1.89434E-13-3.60815E-13
 -1      2744 2.01835E+01 1.45944E-01 1.59280E-03-3.29567E-01-2.69478E-16-2.78862E-13
 -1      2745 2.01498E+01 1.34737E-01-4.24895E-04-2.92477E-01-2.58827E-14-2.65824E-13
 -1      2746 2.01238E+01 1.84953E-01-5.35135E-04-3.73787E-01 4.39158E-14-2.12448E-13
 -1      2747 2.01385E+01 1.24269E-01 1.41770E-03-2.55919E-01-1.77597E-14-2.75692E-13
 -1      2748 2.01117E+01 1.12598E-01-4.05916E-04-2.24465E-01-7.92079E-14-2.76969E-13
 -1      2749 2.00946E+01 1.59340E-01-4.22483E-04-2.92124E-01-3.06410E-14-2.68167E-13
 -1      2750 2.01031E+01 1.02199E-01 1.21735E-03-1.94190E-01-2.53031E-14-2.59149E-13
 -1      2751 2.00821E+01 9.11865E-02-3.56637E-04-1.68336E-01 5.66711E-14-2.32249E-13
 -1      2752 2.00721E+01 1.32340E-01-3.47506E-04-2.23356E-01-1.12520E-16-2.97438E-13
 -1      2753 2.00754E+01 8.16469E-02 1.01489E-03-1.43905E-01 2.00474E-14-2.48578E-13
 -1      2754 2.00592E+01 7.18719E-02-2.96283E-04-1.23215E-01 9.61749E-15-2.82883E-13
 -1      2755 2.00546E+01 1.06664E-01-2.92388E-04-1.67013E-01 5.42291E-14-2.30011E-13
 -1      2756 2.00541E+01 6.35672E-02 8.24742E-04-1.03955E-01-1.32778E-15-2.99416E-13
 -1      2757 2.00418E+01 5.52574E-02-2.35875E-04-8.77931E-02-7.71303E-15-3.26643E-13
 -1      2758 2.00409E+01 8.37404E-02-2.47848E-04-1.21952E-01-1.67561E-14-3.99139E-13
 -1      2759 2.00378E+01 4.83005E-02 6.54876E-04-7.29419E-02-3.94586E-14-2.22008E-13
 -1      2760 2.00286E+01 4.14684E-02-1.81141E-04-6.06043E-02-3.38364E-14-1.43992E-13
 -1      2761 2.00302E+01 6.41582E-02-2.09477E-04-8.67096E-02 4.96356E-15-3.50333E-13
 -1      2762 2.00256E+01 3.58170E-02 5.08747E-04-4.94006E-02 5.82679E-14-3.43941E-14
 -1      2763 2.00189E+01 3.03542E-02-1.34530E-04-4.01976E-02 7.75302E-14 9.96057E-14
 -1      2764 2.00219E+01 4.79894E-02-1.75428E-04-5.97356E-02 1.15889E-13-1.91144E-13
 -1      2765 2.00166E+01 2.58824E-02 3.86801E-04-3.19357E-02 4.19547E-15 8.38950E-14
 -1      2766 2.00118E+01 2.16214E-02-9.65680E-05-2.52365E-02 4.29504E-14 1.07131E-13
 -1      2767 2.00156E+01 3.50098E-02-1.45065E-04-3.95355E-02 6.60926E-14-6.99685E-14
 -1      2768 2.00101E+01 1.81669E-02 2.87637E-04-1.92932E-02 6.61281E-14 1.06379E-13
 -1      2769 2.00068E+01 1.49202E-02-6.67348E-05-1.45474E-02 2.42632E-14 1.05926E-13
 -1      2770 2.00107E+01 2.48465E-02-1.18229E-04-2.47528E-02 4.14661E-14-4.78933E-14
 -1      2771 2.00055E+01 1.23126E-02 2.08843E-04-1.03922E-02 2.33512E-15 1.62974E-13
 -1      2772 2.00033E+01 9.89589E-03-4.40115E-05-7.13686E-03 3.23176E-14 1.86904E-13
 -1      2773 2.00072E+01 1.70719E-02-9.48719E-05-1.42084E-02 3.84768E-14 1.53164E-13
 -1      2774 2.00024E+01 7.97363E-03 1.47575E-04-4.33135E-03-8.25191E-14 3.00417E-13
 -1      2775 2.00010E+01 6.21861E-03-2.72117E-05-2.18788E-03-1.23085E-13 2.71259E-13
 -1      2776 2.00045E+01 1.12604E-02-7.49050E-05-6.90942E-03-2.88588E-14 1.80399E-13
 -1      2777 2.00003E+01 4.83737E-03 1.00930E-04-3.78574E-04-1.25479E-13 2.64570E-13
 -1      2778 1.99995E+01 3.59766E-03-1.51683E-05 9.54997E-04-1.35398E-13 2.37192E-13
 -1      2779 2.00026E+01 7.02037E-03-5.81493E-05-2.04302E-03-1.67170E-13 2.70043E-13
 -1      2780 1.99990E+01 2.63388E-03 6.61772E-05 2.04672E-03-1.01630E-13 2.07716E-13
 -1      2781 1.99986E+01 1.78658E-03-6.83058E-06 2.80584E-03-5.75938E-14 2.78433E-13
 -1      2782 2.00013E+01 4.00886E-03-4.43430E-05 1.04111E-03-1.60507E-13 8.52284E-14
 -1      2783 1.99983E+01 1.13778E-03 4.08774E-05 3.39493E-03-7.87341E-14 3.01148E-13
 -1      2784 1.99982E+01 5.82523E-04-1.30473E-06 3.75922E-03-1.30228E-13 2.59362E-13
 -1      2785 2.00004E+01 1.93648E-03-3.31678E-05 2.85189E-03-9.21753E-14 2.60142E-13
 -1      2786 1.99980E+01 1.65843E-04 2.29375E-05 4.00800E-03-1.29814E-13 1.97256E-13
 -1      2787 1.99980E+01-1.77437E-04 2.13730E-06 4.11141E-03 7.10502E-14 4.63641E-14
 -1      2788 1.99998E+01 5.65911E-04-2.42777E-05 3.77928E-03-1.34646E-13 1.08466E-13
 -1      2789 1.99979E+01-4.27586E-04 1.06151E-05 4.13970E-03 1.81535E-13-7.99473E-14
 -1      2790 1.99981E+01-6.21559E-04 4.06858E-06 4.07965E-03 1.58657E-13-8.71251E-15
 -1      2791 1.99995E+01-2.92991E-04-1.73254E-05 4.11563E-03 2.74311E-14-8.30770E-14
 -1      2792 1.99980E+01-7.56190E-04 2.49793E-06 3.97357E-03 3.26554E-13-3.86760E-14
 -1      2793 1.99982E+01-8.49133E-04 4.92527E-06 3.81881E-03 1.94062E-13 1.46892E-13
 -1      2794 1.99993E+01-7.89585E-04-1.19820E-05 4.07497E-03 2.14663E-13-2.55332E-13
 -1      2795 1.99982E+01-9.07404E-04-2.52891E-06 3.63829E-03-2.98365E-14 3.14080E-13
 -1      2796 1.99984E+01-9.36125E-04 5.02899E-06 3.43541E-03-4.57896E-14 2.13999E-13
 -1      2797 1.99992E+01-1.03935E-03-7.95920E-06 3.80963E-03 2.01075E-13-2.45888E-13
 -1      2798 1.99984E+01-9.47902E-04-5.31581E-06 3.22028E-03-8.10050E-14 2.72835E-13
 -1      2799 1.99986E+01-9.40373E-04 4.60593E-06 2.99893E-03 1.82550E-13 7.31017E-14
 -1      2800 1.99992E+01-1.13062E-03-5.01252E-06 3.42416E-03-6.59049E-14-2.22289E-14
 -1      2801 1.99986E+01-9.28453E-04-6.51879E-06 2.77379E-03 1.91444E-13-9.90319E-14
 -1      2802 1.99989E+01-9.05965E-04 3.83213E-06 2.55089E-03 2.20304E-14-1.45249E-13
 -1      2803 1.99993E+01-1.13055E-03-2.94462E-06 2.98669E-03 3.23221E-14-3.26907E-13
 -1      2804 1.99989E+01-8.88111E-04-6.76801E-06 2.32892E-03-1.74390E-14-1.72453E-13
 -1      2805 1.99991E+01-8.66157E-04 2.66997E-06 2.11154E-03 1.08322E-14-3.09081E-13
 -1      2806 1.99993E+01-1.09019E-03-1.65773E-06 2.53768E-03-4.56065E-14-3.04899E-13
 -1      2807 1.99991E+01-8.54242E-04-5.85628E-06 1.89857E-03 3.79078E-14-1.97256E-13
 -1      2808 1.99993E+01-8.45702E-04 4.72227E-07 1.68819E-03-3.91380E-14-1.86269E-13
 -1      2809 1.99994E+01-1.04556E-03 6.30831E-08 2.09675E-03 9.93128E-14-2.11100E-13
 -1      2810 2.76235E+01 2.41064E+00-6.45822E-02 2.60679E+00 4.07563E-13 4.63553E-14
 -1      2811 2.78174E+01 7.49117E-01-1.20006E-01 2.90617E+00 3.24317E-13 1.16032E-13
 -1      2812 2.98596E+01 3.76807E+00-2.05951E-01-2.09808E+00 5.42288E-13-5.27633E-13
 -1      2813 2.98820E+01 2.12075E+00-9.38789E-02-2.45661E+00 3.99847E-13-6.60388E-13
 -1      2814 2.72115E+01 8.25526E-01-1.41752E-01-2.76490E+00 2.74135E-13-5.85559E-13
 -1      2815 2.70988E+01 2.51133E+00-5.22245E-02-2.52149E+00 3.41616E-13-5.32498E-13
 -1      2816 2.66524E+01-2.03288E+00-6.75268E-02-1.78578E+00 1.19705E-13-6.60666E-13
 -1      2817 2.68852E+01-9.81125E-01-5.91379E-03-2.37071E+00 2.11275E-13-6.20146E-13
 -1      2818 2.53990E+01-2.41799E+00 1.39800E-02-2.08025E-01-7.25062E-14-4.87708E-13
 -1      2819 2.58439E+01-2.36848E+00-1.99551E-02-9.04616E-01-1.04777E-15-6.21495E-13
 -1      2820 2.65627E+01-2.67691E+00-1.72398E-02-9.13487E-01 5.56955E-14-5.43593E-13
 -1      2821 2.40134E+01-1.81397E+00 3.15062E-02 9.37627E-01-1.57951E-13-4.28936E-13
 -1      2822 2.44695E+01-2.18452E+00-2.24149E-02 4.31653E-01-1.01434E-13-4.88603E-13
 -1      2823 2.47086E+01-2.72604E+00-1.87672E-02 6.11394E-01-1.09092E-13-4.91118E-13
 -1      2824 2.28752E+01-9.93737E-01 2.29559E-02 1.55109E+00-1.40852E-13-3.89792E-13
 -1      2825 2.32729E+01-1.42214E+00-1.88213E-02 1.28343E+00-1.16999E-13-3.44638E-13
 -1      2826 2.31197E+01-1.95182E+00-3.76530E-02 1.55020E+00-1.57774E-13-4.91536E-13
 -1      2827 2.20890E+01-3.50312E-01 1.25311E-02 1.74834E+00 3.95072E-15-4.22779E-13
 -1      2828 2.24054E+01-6.61794E-01-8.78611E-03 1.65574E+00-9.38104E-14-4.10789E-13
 -1      2829 2.20281E+01-9.91105E-01-2.70472E-02 1.91073E+00-1.11461E-13-4.13698E-13
 -1      2830 2.15700E+01 5.24857E-02 5.82373E-03 1.70662E+00 3.70196E-14-3.59464E-13
 -1      2831 2.18159E+01-1.32725E-01-2.21523E-03 1.72380E+00 1.90571E-14-3.79115E-13
 -1      2832 2.13704E+01-2.83724E-01-1.48307E-02 1.94106E+00 2.24255E-14-3.54523E-13
 -1      2833 2.12200E+01 2.59609E-01 1.80697E-03 1.54188E+00 9.02024E-14-2.49615E-13
 -1      2834 2.14155E+01 1.69832E-01 1.63583E-03 1.61789E+00 7.32425E-14-2.74223E-13
 -1      2835 2.09873E+01 1.39625E-01-6.94522E-03 1.80157E+00-5.85767E-16-3.39994E-13
 -1      2836 2.09691E+01 3.38363E-01-2.33585E-04 1.32728E+00 9.34132E-15-1.87005E-13
 -1      2837 2.11293E+01 3.08461E-01 3.53777E-03 1.42804E+00 1.45970E-13-1.72020E-13
 -1      2838 2.07591E+01 3.47471E-01-2.75094E-03 1.58536E+00 5.22180E-14-2.62435E-13
 -1      2839 2.07763E+01 3.44174E-01-1.09096E-03 1.10480E+00-1.14406E-14-1.81818E-13
 -1      2840 2.09100E+01 3.47164E-01 4.30830E-03 1.20983E+00-4.15612E-14-2.63578E-13
 -1      2841 2.06103E+01 4.18583E-01-8.49145E-04 1.34617E+00 2.31166E-14-2.96277E-13
 -1      2842 2.06204E+01 3.14012E-01-1.32138E-03 8.96598E-01 4.99043E-14-2.08746E-13
 -1      2843 2.07325E+01 3.32606E-01 4.41620E-03 9.94838E-01 5.67655E-14-1.70165E-13
 -1      2844 2.05007E+01 4.13823E-01-1.59030E-04 1.11297E+00 1.91375E-14-3.55830E-13
 -1      2845 2.04913E+01 2.69744E-01-1.25682E-03 7.12857E-01 1.19956E-13-3.29572E-13
 -1      2846 2.05846E+01 2.93960E-01 4.14539E-03 7.99255E-01 1.33035E-13-2.21037E-13
 -1      2847 2.04115E+01 3.72593E-01-2.93887E-05 9.00560E-01 6.98524E-14-3.53664E-13
 -1      2848 2.03838E+01 2.23108E-01-1.07705E-03 5.56813E-01 1.15991E-13-2.68736E-13
 -1      2849 2.04605E+01 2.47691E-01 3.68428E-03 6.29827E-01 8.11223E-14-3.07042E-13
 -1      2850 2.03350E+01 3.17885E-01-1.06721E-04 7.15357E-01 1.25360E-13-2.35887E-13
 -1      2851 2.02951E+01 1.79762E-01-8.71720E-04 4.27893E-01-3.56320E-14-2.54259E-13
 -1      2852 2.03572E+01 2.02240E-01 3.15332E-03 4.87880E-01 1.02105E-13-2.49355E-13
 -1      2853 2.02687E+01 2.61933E-01-2.22248E-04 5.58834E-01 8.79183E-14-3.12032E-13
 -1      2854 2.02229E+01 1.41989E-01-6.80973E-04 3.23634E-01-8.47894E-14-2.32492E-13
 -1      2855 2.02723E+01 1.61416E-01 2.62439E-03 3.71867E-01-8.04718E-14-2.15364E-13
 -1      2856 2.02117E+01 2.10567E-01-3.10897E-04 4.29691E-01-2.59144E-14-3.49856E-13
 -1      2857 2.01651E+01 1.10320E-01-5.19415E-04 2.40805E-01 4.48900E-14-3.90452E-13
 -1      2858 2.02038E+01 1.26534E-01 2.13662E-03 2.78902E-01 3.29526E-14-3.14412E-13
 -1      2859 2.01636E+01 1.66068E-01-3.57075E-04 3.25216E-01 4.56553E-14-2.58821E-13
 -1      2860 2.01196E+01 8.44404E-02-3.89331E-04 1.76032E-01 6.43127E-14-5.44063E-13
 -1      2861 2.01494E+01 9.76558E-02 1.70788E-03 2.05652E-01-6.81871E-15-5.13533E-13
 -1      2862 2.01239E+01 1.28869E-01-3.65493E-04 2.42127E-01 9.40210E-14-5.52431E-13
 -1      2863 2.00845E+01 6.36900E-02-2.87734E-04 1.26132E-01-9.36831E-14-5.11591E-13
 -1      2864 2.01070E+01 7.42683E-02 1.34322E-03 1.48818E-01 4.30610E-14-6.11331E-13
 -1      2865 2.00919E+01 9.85227E-02-3.47003E-04 1.77072E-01 3.33518E-14-6.19185E-13
 -1      2866 2.00579E+01 4.73071E-02-2.09918E-04 8.82621E-02-1.87277E-13-7.08214E-13
 -1      2867 2.00746E+01 5.56480E-02 1.04052E-03 1.05377E-01-1.33588E-13-6.06112E-13
 -1      2868 2.00665E+01 7.42170E-02-3.12412E-04 1.26896E-01-6.03375E-14-5.97566E-13
 -1      2869 2.00381E+01 3.45502E-02-1.51116E-04 5.99694E-02-1.08565E-13-6.99677E-13
 -1      2870 2.00503E+01 4.10371E-02 7.94059E-04 7.26759E-02-1.74749E-13-7.64179E-13
 -1      2871 2.00469E+01 5.50445E-02-2.70286E-04 8.87815E-02-1.03423E-13-7.94483E-13
 -1      2872 2.00237E+01 2.47492E-02-1.07142E-04 3.91912E-02-1.31942E-13-5.45035E-13
 -1      2873 2.00324E+01 2.97265E-02 5.96675E-04 4.84594E-02-1.36728E-13-6.60320E-13
 -1      2874 2.00320E+01 4.01294E-02-2.26593E-04 6.02872E-02-1.36234E-13-7.30098E-13
 -1      2875 2.00135E+01 1.73227E-02-7.45610E-05 2.42253E-02-1.15924E-13-4.08178E-13
 -1      2876 2.00195E+01 2.10885E-02 4.40950E-04 3.08496E-02-8.66283E-14-5.40975E-13
 -1      2877 2.00209E+01 2.86825E-02-1.85070E-04 3.93533E-02-1.90150E-13-5.62408E-13
 -1      2878 2.00065E+01 1.17789E-02-5.06516E-05 1.36899E-02-2.17082E-14-1.75322E-13
 -1      2879 2.00105E+01 1.45850E-02 3.19847E-04 1.83108E-02-5.66594E-14-2.39390E-13
 -1      2880 2.00129E+01 2.00200E-02-1.47770E-04 2.42744E-02-1.74417E-13-2.30460E-13
 -1      2881 2.00019E+01 7.70908E-03-3.32970E-05 6.47951E-03-2.18854E-13-1.46795E-13
 -1      2882 2.00044E+01 9.76460E-03 2.27025E-04 9.60622E-03-5.12042E-14-1.61725E-13
 -1      2883 2.00072E+01 1.35635E-02-1.15584E-04 1.36622E-02-2.55499E-14-2.75552E-13
 -1      2884 1.99989E+01 4.77838E-03-2.08669E-05 1.72226E-03-4.32141E-14-2.89528E-13
 -1      2885 2.00005E+01 6.25457E-03 1.56949E-04 3.75395E-03-1.63610E-13-2.02962E-13
 -1      2886 2.00033E+01 8.83242E-03-8.86556E-05 6.40373E-03-1.33262E-13-3.32799E-13
 -1      2887 1.99972E+01 2.71616E-03-1.21126E-05-1.25995E-03-1.21416E-13-1.18648E-13
 -1      2888 1.99980E+01 3.75138E-03 1.04905E-04-1.46148E-05-3.93852E-14-2.96838E-13
 -1      2889 2.00007E+01 5.43340E-03-6.66875E-05 1.61992E-03-1.09621E-14-3.95241E-13
 -1      2890 1.99964E+01 1.30618E-03-6.08179E-06-2.98677E-03-1.17025E-13 5.35992E-14
 -1      2891 1.99967E+01 2.01086E-03 6.69555E-05-2.29263E-03-8.67501E-14 1.51586E-16
 -1      2892 1.99991E+01 3.04849E-03-4.91511E-05-1.37359E-03-2.14378E-13-2.16239E-13
 -1      2893 1.99961E+01 3.77797E-04-2.05303E-06-3.85021E-03-1.87148E-14 5.39671E-14
 -1      2894 1.99961E+01 8.39002E-04 3.98659E-05-3.53095E-03-5.13002E-14-7.09801E-15
 -1      2895 1.99982E+01 1.42389E-03-3.54238E-05-3.10152E-03-2.44553E-14-8.99687E-14
 -1      2896 1.99962E+01-2.02093E-04 5.14648E-07-4.14081E-03-9.27659E-14 4.97729E-14
 -1      2897 1.99960E+01 8.34830E-05 2.10202E-05-4.06665E-03-5.26495E-14 8.44100E-14
 -1      2898 1.99978E+01 3.59495E-04-2.48746E-05-3.95974E-03-7.08360E-14-3.68092E-14
 -1      2899 1.99965E+01-5.36113E-04 2.01947E-06-4.06952E-03-1.70088E-13 6.73206E-14
 -1      2900 1.99962E+01-3.73901E-04 8.33501E-06-4.14699E-03-1.29238E-13 9.16894E-14
 -1      2901 1.99977E+01-3.00664E-04-1.69147E-05-4.24155E-03-1.65895E-13-8.43462E-14
 -1      2902 1.99969E+01-7.02570E-04 2.74738E-06-3.78552E-03-1.08654E-13 2.60725E-13
 -1      2903 1.99966E+01-6.23864E-04 1.76990E-07-3.94921E-03-2.15041E-13 6.56136E-14
 -1      2904 1.99977E+01-6.76740E-04-1.10224E-05-4.15967E-03-2.21989E-13-1.31152E-13
 -1      2905 1.99974E+01-7.60738E-04 2.90146E-06-3.39070E-03 7.27607E-15 1.22796E-13
 -1      2906 1.99970E+01-7.35370E-04-4.71603E-06-3.59659E-03 1.10397E-13 2.40848E-13
 -1      2907 1.99979E+01-8.60387E-04-6.75269E-06-3.86435E-03-2.47338E-14-1.57141E-14
 -1      2908 1.99978E+01-7.55306E-04 2.64225E-06-2.95098E-03 8.53254E-14-1.47987E-13
 -1      2909 1.99975E+01-7.60516E-04-7.29030E-06-3.17128E-03-3.78460E-14-1.09964E-13
 -1      2910 1.99982E+01-9.20983E-04-3.73650E-06-3.45784E-03 1.69110E-13 1.54482E-13
 -1      2911 1.99982E+01-7.20518E-04 2.05855E-06-2.50551E-03 2.59575E-13-3.11142E-13
 -1      2912 1.99979E+01-7.38696E-04-8.23462E-06-2.72454E-03 1.79320E-13-3.69594E-13
 -1      2913 1.99984E+01-9.10796E-04-1.65211E-06-3.00622E-03 2.48984E-13-1.38338E-13
 -1      2914 1.99986E+01-6.83134E-04 8.76125E-07-2.07280E-03 2.16507E-13-3.22516E-13
 -1      2915 1.99984E+01-7.00789E-04-8.06892E-06-2.28412E-03 2.27881E-13-4.08866E-13
 -1      2916 1.99987E+01-8.70196E-04-3.18643E-07-2.54847E-03 2.51647E-13-2.88924E-13
 -1      2917 1.99990E+01-6.61952E-04-3.01609E-06-1.65745E-03 2.94647E-13-3.49959E-13
 -1      2918 1.99987E+01-6.69186E-04-7.66416E-06-1.85850E-03 2.61555E-13-4.30609E-13
 -1      2919 1.99990E+01-8.29230E-04 1.11199E-06-2.10301E-03 3.42083E-13-5.45886E-13
 -1      2920 1.99993E+01-7.17592E-04-4.93510E-06-1.33047E-03-7.25248E-15-2.94647E-14
 -1      2921 1.99991E+01-7.13892E-04-7.75965E-06-1.53156E-03 1.27095E-13-3.33156E-13
 -1      2922 1.99993E+01-8.53524E-04 7.49355E-06-1.74245E-03 1.59015E-13-1.62958E-13
 -1      2923 1.99995E+01-9.54336E-04 8.41025E-06-1.45779E-03-1.21885E-13-3.03763E-13
 -1      2924 2.00007E+01-2.26157E-03 5.10130E-06-1.34022E-04-2.84459E-15 4.17005E-13
 -1      2925 2.00007E+01-2.23423E-03 2.86068E-06-3.75512E-04 7.05207E-14 3.07988E-13
 -1      2926 1.99993E+01-8.44874E-04-5.85096E-06 1.54823E-03-6.84195E-14-1.45558E-13
 -1      2927 1.99994E+01-8.41329E-04-1.16209E-06 1.40555E-03-1.14381E-13-1.14797E-13
 -1      2928 1.99995E+01-1.01941E-03 1.53700E-06 1.73561E-03-8.68590E-14-2.24984E-13
 -1      2929 2.00005E+01-1.97089E-03 8.16444E-06-1.07118E-03 2.42489E-13-7.31840E-14
 -1      2930 2.00003E+01-1.84330E-03-2.38194E-06-1.22984E-03 3.58352E-13 6.57052E-14
 -1      2931 2.00007E+01-2.23160E-03 2.90749E-06 3.86176E-04 1.08024E-13 3.42120E-13
 -1      2932 2.00007E+01-2.26054E-03 5.14634E-06 1.45078E-04 9.47252E-15 5.07211E-13
 -1      2933 2.00009E+01-2.25954E-03-6.65019E-06 6.35035E-06 2.59275E-14 4.39730E-13
 -1      2934 2.00006E+01-2.17244E-03 6.93147E-06-6.39468E-04 5.81064E-14 3.31583E-14
 -1      2935 2.00006E+01-2.09147E-03 1.66891E-07-8.52920E-04 1.39382E-13-4.15189E-14
 -1      2936 2.00007E+01-2.03323E-03-5.85909E-06-1.06204E-03 5.46184E-14-1.59023E-13
 -1      2937 2.00009E+01-2.20302E-03-6.48231E-06-5.59041E-04 6.19365E-14 1.93278E-13
 -1      2938 2.18184E+01-5.20447E+00-2.50940E-04 4.99398E+00-2.26374E-13-2.13258E-13
 -1      2939 1.86783E+01-4.78776E+00 9.34056E-02 5.78467E+00-2.79873E-13-8.35582E-14
 -1      2940 1.82970E+01-3.91162E+00 1.26969E-01 5.37835E+00-3.53009E-13-4.96894E-14
 -1      2941 2.00006E+01-2.08910E-03 2.30158E-07 8.54226E-04-1.43030E-14-1.44667E-13
 -1      2942 2.00006E+01-2.16937E-03 6.95280E-06 6.45071E-04-6.82776E-15 3.70239E-14
 -1      2943 2.00009E+01-2.20023E-03-6.35394E-06 5.66293E-04 1.09360E-14 1.35422E-13
 -1      2944 2.00003E+01-1.84031E-03-2.32613E-06 1.23035E-03 8.32087E-14-7.57483E-14
 -1      2945 2.00005E+01-1.96825E-03 8.15274E-06 1.07203E-03 7.64003E-14-1.58955E-13
 -1      2946 2.00007E+01-2.02985E-03-5.63102E-06 1.06344E-03-1.79220E-13-1.16213E-13
 -1      2947 2.00000E+01-1.50389E-03-1.85176E-06 1.45431E-03 8.96174E-14-2.12670E-13
 -1      2948 2.00002E+01-1.67144E-03 7.64632E-06 1.37631E-03 1.85130E-13-9.81829E-14
 -1      2949 2.00004E+01-1.75895E-03-3.78008E-06 1.44373E-03 4.13659E-14-4.08297E-14
 -1      2950 2.28150E+01 7.93408E-01-5.37155E-03-1.33562E-01 2.18645E-13-8.37060E-14
 -1      2951 2.62394E+01-2.15784E+00-1.57690E-02 1.23970E+00 5.01140E-14 1.42146E-13
 -1      2952 2.59067E+01-2.16356E+00 2.51364E-02 6.60470E-01 1.70350E-14 1.22539E-13
 -1      2953 9.84194E+00-1.86992E+00 8.62114E-02 4.76446E+00-2.77195E-13 2.76279E-13
 -1      2954 7.92352E+00-9.85876E-01 1.49055E-01 3.06468E+00-2.14044E-13 5.54362E-13
 -1      2955 1.88637E+01-3.78027E+00 1.53258E-01-5.16299E+00-1.13687E-13-4.47177E-13
 -1      2956 2.22359E+01-4.61360E+00-7.23522E-02-4.36551E+00-5.13617E-14-3.20872E-13
 -1      2957 2.92182E+01 1.41966E+00-7.69063E-02 1.32391E+00-4.19886E-13-5.28300E-13
 -1      2958 2.94365E+01 3.15918E+00-1.87528E-01 1.53851E+00-5.59192E-13-4.45241E-13
 -1      2959 7.06821E+00 7.03049E-01 1.39433E-01-2.06743E+00 3.52218E-14-8.49792E-13
 -1      2960 8.52563E+00-2.09381E-01 1.14318E-01-3.81312E+00-9.02056E-15-8.13682E-13
 -1      2961 2.81450E+01 5.13940E+00-1.61552E-01 2.35819E-01 6.10484E-13-2.33747E-13
 -1      2962 2.81597E+01 4.62882E+00-1.68428E-01 1.42053E+00 5.64271E-13-1.37054E-13
 -1      2963 2.31011E+01-7.39278E-02-3.57196E-04-1.28558E+00-1.54419E-13-1.10354E-13
 -1      2964 2.31024E+01-3.55224E-01-1.84526E-02-1.29828E+00-1.31676E-13-1.03587E-13
 -1      2965 2.33290E+01-5.49202E-01-1.22733E-02-1.29756E+00-9.81591E-14-7.42147E-14
 -1      2966 1.25102E+01-2.93457E+00 1.34805E-01-6.17593E+00 4.02844E-13 4.12143E-13
 -1      2967 1.56338E+01-4.05414E+00 5.57934E-02-6.68369E+00 4.49196E-13 2.84273E-13
 -1      2968 2.49561E+01-1.82965E+00-2.67709E-02 1.37293E-01 4.53387E-14 4.80683E-14
 -1      2969 2.46268E+01-1.31685E+00 4.40511E-02-1.98595E-01 5.37608E-14 2.09841E-14
 -1      2970 2.35145E+01-1.17090E+00-1.87780E-02-6.60778E-01 6.14417E-14-5.75148E-14
 -1      2971 2.50448E+01-2.42773E+00-3.98528E-02-1.76148E-01 4.57035E-15 3.78491E-14
 -1      2972 7.71811E+00-8.86881E-01 1.45246E-01-3.26687E+00 2.90726E-13 6.23057E-13
 -1      2973 9.64049E+00-1.68492E+00 8.71563E-02-5.06480E+00 3.17066E-13 5.98604E-13
 -1      2974 1.48751E+01 3.24244E+00 4.32283E-02-1.02693E+00 1.18499E-13-5.09091E-13
 -1      2975 1.37090E+01 3.52545E+00-2.20888E-02-7.05579E-01 1.18910E-13-5.52836E-13
 -1      2976 1.29571E+01 3.37356E+00 5.25881E-02-6.02672E-01 1.16043E-13-6.01420E-13
 -1      2977 1.55084E+01 2.34557E+00 2.97409E-02-1.60351E+00 7.55090E-14-4.87121E-13
 -1      2978 1.90835E+01 1.29784E+00-5.78750E-03 1.39311E+00 9.85059E-14-3.75464E-13
 -1      2979 2.00453E+01 1.06124E+00 5.71395E-03 9.24499E-01 4.80042E-14-3.62635E-13
 -1      2980 2.21739E+01 1.22850E+00-5.47036E-03-1.06095E+00-1.82818E-13-2.40337E-13
 -1      2981 2.84839E+01-1.32782E+00-1.30714E-01 3.33922E-01-2.33208E-13-5.95496E-14
 -1      2982 2.66595E+01-2.77266E+00-1.74533E-02 1.79620E+00-7.88501E-14-9.68947E-14
 -1      2983 2.87699E+01 2.15615E+00-2.19122E-01-1.86684E+00-4.88512E-13 8.80546E-14
 -1      2984 2.91238E+01 4.95608E-01-2.34521E-02-1.00440E+00-3.54577E-13 2.37865E-14
 -1      2985 2.78815E+01-7.62373E-01-4.38521E-02-8.65757E-01-1.80012E-13 8.45435E-14
 -1      2986 1.99995E+01-1.01529E-03-1.13743E-06 1.45156E-03-1.11493E-13-3.58850E-13
 -1      2987 1.10829E+01-1.37372E+00 1.36889E-01-4.87659E+00-8.93036E-14-7.27085E-13
 -1      2988 1.46381E+01-2.80116E+00 5.13694E-03-5.68963E+00-8.01303E-14-5.85976E-13
 -1      2989 2.54359E+01-4.34405E+00 8.45802E-02-2.51885E+00-3.44377E-14-1.45772E-13
 -1      2990 2.74603E+01-3.89063E+00-1.08861E-01-1.08119E+00 8.59521E-14-2.96568E-14
 -1      2991 1.04397E+01-8.53086E-01 8.56157E-02 5.67833E+00 2.66509E-13-7.50761E-13
 -1      2992 8.45028E+00-1.38849E-02 1.84043E-01 4.62666E+00 2.72365E-13-8.31640E-13
 -1      2993 2.38428E+01-3.82127E+00-7.50882E-02 4.00466E+00 7.30249E-14-2.34798E-13
 -1      2994 2.07440E+01-3.77526E+00 1.21914E-01 5.43396E+00 1.28286E-13-3.86441E-13
 -1      2995 2.80133E+01-2.45418E+00 2.12240E-02-7.06066E-01-6.52187E-14-5.02459E-13
 -1      2996 2.87467E+01-9.33823E-01-1.71117E-01 3.89317E-01-2.42827E-13-5.78815E-13
 -1      2997 6.93136E+00-3.74550E-01 1.39350E-01 1.08971E+00-2.79603E-14 7.19230E-13
 -1      2998 6.80078E+00-3.82655E-01 1.30888E-01-1.33579E+00 2.10915E-13 6.24112E-13
 -1      2999 2.84970E+01 5.74820E+00-2.02919E-01-1.39484E+00-7.53592E-13-1.45509E-14
 -1      3000 2.86047E+01 4.46874E+00-1.03273E-01-1.98323E+00-6.37962E-13 3.70953E-14
 -1      3001 2.92501E+01 4.72308E+00-1.41840E-01 1.55536E+00-6.62304E-13-3.55521E-13
 -1      3002 2.87638E+01 5.89147E+00-1.97376E-01 1.15870E+00-7.32914E-13-2.44749E-13
 -1      3003 2.80357E+01 3.43431E+00-1.01367E-01 1.83217E+00-4.88110E-13-3.94254E-13
 -1      3004 1.80632E+01-4.60948E+00 1.20771E-01-6.33790E+00 4.58050E-13 1.32495E-13
 -1      3005 2.05488E+01-5.07574E+00-4.53828E-02-5.88337E+00 3.13000E-13-1.85047E-13
 -1      3006 1.74114E+01-3.89441E+00 1.20652E-01-6.04027E+00 4.51569E-13 1.50963E-13
 -1      3007 2.87721E+01-2.82846E+00-1.78310E-02 3.51594E-01 1.76227E-13 5.13201E-14
 -1      3008 2.94702E+01-1.35108E+00-1.36813E-01 1.57242E+00 2.48135E-13 6.66411E-14
 -1      3009 2.75292E+01-3.36526E+00-1.62422E-02 6.28807E-02 5.16809E-14 4.08076E-14
 -1      3010 2.39406E+01-4.78109E+00 9.74475E-02-4.21133E+00 1.40415E-13-3.74159E-13
 -1      3011 2.62286E+01-4.17591E+00-1.38320E-01-2.62960E+00 2.59376E-14-3.86718E-13
 -1      3012 2.83066E+01 6.58155E+00-1.66340E-01 3.48876E-01-8.07771E-13-1.51740E-13
 -1      3013 2.82289E+01 6.58667E+00-1.67885E-01-6.17296E-01-8.22925E-13-8.80893E-14
 -1      3014 2.08409E+01 9.29241E-01 6.84755E-03 3.32383E-01-3.44635E-15-3.20336E-13
 -1      3015 2.14644E+01 7.70124E-01-2.34433E-02-1.41590E-01-6.12097E-14-3.03375E-13
 -1      3016 2.08528E+01 3.15808E-01-1.46226E-02 7.71356E-01 4.46301E-14-2.86726E-13
 -1      3017 1.36482E+01 2.86845E+00 3.40706E-02 2.40165E+00 2.01112E-13-6.34401E-13
 -1      3018 1.43341E+01 3.01330E+00-3.03375E-02 2.21553E+00 1.94072E-13-6.11747E-13
 -1      3019 1.55169E+01 2.67369E+00 4.74601E-02 2.29644E+00 1.85066E-13-5.72319E-13
 -1      3020 9.15607E+00-6.51396E-02 1.90902E-01-2.07819E+00 2.76151E-13 5.80785E-13
 -1      3021 1.29031E+01-1.91318E+00 1.63606E-01 4.86595E+00-3.36536E-13 2.15716E-13
 -1      3022 2.50901E+01-5.01655E+00-9.30708E-02 2.80186E+00-1.63036E-13-5.51073E-13
 -1      3023 2.37908E+01-5.14033E+00 7.30406E-02 3.95208E+00-2.15800E-13-3.70322E-13
 -1      3024 2.22340E+01-4.64680E+00 5.69194E-02 4.20379E+00-2.63928E-13-3.55020E-13
 -1      3025 2.87685E+01-3.42360E+00-4.47123E-02 4.76905E-01 1.12368E-13-7.17482E-13
 -1      3026 2.75948E+01-3.98517E+00 6.45581E-02 9.96304E-01-2.20917E-14-7.34787E-13
 -1      3027 2.87693E+01-2.61681E+00-1.29676E-01-8.64631E-01 1.41297E-13-8.19247E-13
 -1      3028 2.71911E+01 5.54047E+00-1.22437E-01 8.02205E-01-6.93556E-13-1.92037E-13
 -1      3029 2.86207E+01 7.09201E-02-1.13910E-01 2.71082E+00 2.90087E-13 1.20348E-13
 -1      3030 2.71574E+01-5.99981E-01-1.75203E-02 2.63749E+00 2.08000E-13 1.55544E-13
 -1      3031 2.70603E+01-1.60351E+00-5.57494E-02 2.19476E+00 1.33829E-13 1.82736E-13
 -1      3032 2.93136E+01-8.94221E-01-1.06004E-01 2.10586E+00 2.36637E-13 7.71189E-14
 -1      3033 2.00004E+01-1.76414E-03-4.11749E-06-1.44230E-03 2.51497E-13 2.36617E-13
 -1      3034 2.00002E+01-1.67540E-03 8.40441E-06-1.37523E-03 2.99083E-13 2.06557E-13
 -1      3035 2.00000E+01-1.51161E-03-3.58811E-06-1.45648E-03-2.28044E-14 8.56143E-14
 -1      3036 2.80701E+01-7.01582E-02-7.26474E-02-2.48217E+00 2.66301E-13-6.70103E-13
 -1      3037 2.90679E+01-8.07639E-01-1.49071E-01-1.88055E+00 2.82108E-13-6.95222E-13
 -1      3038 2.69442E+01 5.46018E+00-1.13645E-01-1.01968E+00-7.02008E-13-1.01065E-14
 -1      3039 2.70958E+01 3.48519E+00-1.57101E-01-1.84386E+00 4.39274E-13-4.11955E-13
 -1      3040 2.68816E+01 4.33989E+00-1.36984E-01-7.01844E-01 5.35239E-13-2.94966E-13
 -1      3041 9.14762E+00-1.11480E-01 1.88886E-01 1.84883E+00-7.54535E-14 5.02071E-13
 -1      3042 1.75866E+01-2.74427E+00 1.22003E-01-4.86389E+00-1.35336E-13-4.70103E-13
 -1      3043 1.99998E+01-1.33443E-03 8.02641E-06-1.50027E-03-1.39287E-13-3.23974E-14
 -1      3044 1.99997E+01-1.14904E-03-4.80961E-06-1.49242E-03-4.79465E-14-1.75419E-13
 -1      3045 1.99996E+01-1.10017E-03-7.31539E-06-1.64849E-03-9.12340E-14-7.70301E-14
 -1      3046 2.00000E+01-1.44259E-03-4.66332E-06-1.63849E-03 2.28775E-14 1.28466E-13
 -1      3047 2.67111E+01-3.41497E+00-6.54663E-03-1.25930E+00 6.07674E-14-5.10370E-13
 -1      3048 2.56088E+01-3.38180E+00 2.31041E-02 2.47664E+00 4.38677E-14-1.22541E-13
 -1      3049 2.38731E+01-3.40459E+00 1.63523E-02 3.05224E+00 1.65826E-13-1.43227E-13
 -1      3050 2.61851E+01-2.74090E+00-7.17470E-02 9.16729E-01 4.89010E-14 1.10398E-14
 -1      3051 2.19891E+01 5.97052E-01-2.09887E-02-5.14890E-01 1.71384E-13-1.39044E-13
 -1      3052 1.99997E+01-1.21257E-03-8.64583E-08 1.46547E-03-3.09916E-14-3.79890E-13
 -1      3053 1.25797E+01-1.20769E+00 1.55257E-01 5.84447E+00 2.86660E-13-6.84008E-13
 -1      3054 1.22255E+01-2.19388E-01 1.07465E-01 5.23901E+00 3.01537E-13-6.94250E-13
 -1      3055 1.45995E+01-1.77137E+00-6.83681E-03 5.88690E+00 2.91864E-13-5.84255E-13
 -1      3056 3.00777E+01 5.22358E+00-1.71963E-01-1.61767E+00 6.86812E-13-4.51333E-13
 -1      3057 2.85978E+01 3.73605E+00-1.46611E-01-2.12022E+00 5.22055E-13-5.72445E-13
 -1      3058 1.92600E+01-3.27405E+00 1.05678E-01 5.55479E+00 2.24737E-13-4.27217E-13
 -1      3059 2.70480E+01-2.34371E+00-2.85005E-02 1.33677E+00 6.65804E-14 1.43476E-13
 -1      3060 8.42834E+00 9.24578E-01 1.56506E-01 3.41007E+00 2.32939E-13-8.42437E-13
 -1      3061 2.40698E+01-4.07895E+00 5.01057E-02-2.79728E+00-9.70751E-14-1.70735E-13
 -1      3062 2.24970E+01-4.71268E+00 4.49038E-02-4.56756E+00 2.86424E-13-2.60764E-13
 -1      3063 1.24721E+01-1.87838E+00 1.64480E-01-5.24613E+00 3.87634E-13 4.52013E-13
 -1      3064 7.17804E+00 1.40383E+00 1.86135E-01-8.40481E-01 8.26977E-14-8.61838E-13
 -1      3065 8.90870E+00 1.59428E+00 1.44871E-01-1.62800E+00 3.16327E-14-7.97057E-13
 -1      3066 7.69040E+00 1.89546E+00 1.07982E-01 4.14845E-01 1.41576E-13-8.29892E-13
 -1      3067 1.14375E+01-2.41867E-01 1.66152E-01-4.03196E+00-7.40796E-14-7.16177E-13
 -1      3068 2.81584E+01-1.66881E-03-6.52258E-02 1.25086E+00-2.31010E-13-5.56069E-13
 -1      3069 2.16091E+01 6.72102E-02-1.98421E-02-1.01754E+00 1.09329E-13-1.65231E-13
 -1      3070 1.67535E+01 2.03341E+00-2.25736E-02 2.17246E+00 1.73471E-13-4.87102E-13
 -1      3071 1.79903E+01 1.70031E+00 3.22474E-02 1.89517E+00 1.31076E-13-4.30546E-13
 -1      3072 1.88562E+01 7.72377E-01-1.93063E-02 1.95386E+00 1.35518E-13-3.80682E-13
 -1      3073 1.62204E+01 1.70538E+00-4.51116E-03 2.68475E+00 1.95047E-13-5.21215E-13
 -1      3074 2.21121E+01 7.88311E-01 2.05773E-02-7.30694E-01-1.10785E-13-2.50442E-13
 -1      3075 2.27392E+01 5.67823E-01-2.13848E-02-1.22302E+00-1.99947E-13-1.68198E-13
 -1      3076 2.28775E+01 1.40673E-01-1.34227E-02-1.18177E+00-1.76083E-13-1.27981E-13
 -1      3077 2.22448E+01 1.92541E-01 1.00453E-02-4.23884E-01-7.00597E-14-2.22069E-13
 -1      3078 2.82353E+01 3.51353E+00-2.22221E-01 2.34562E+00 4.97671E-13-6.19921E-14
 -1      3079 3.01490E+01 6.13583E+00-1.40336E-01-6.36508E-01 7.22367E-13-3.70433E-13
 -1      3080 1.99997E+01-1.16801E-03 1.62774E-06 1.68632E-03-2.44214E-13-5.48095E-13
 -1      3081 1.99999E+01-1.36529E-03 1.68253E-06 1.55612E-03-5.07270E-14-4.14447E-13
 -1      3082 2.00000E+01-1.45755E-03-3.20068E-06 1.68592E-03-5.20743E-14-4.01974E-13
 -1      3083 1.99996E+01-1.18011E-03-4.21523E-06 1.83153E-03-1.13520E-13-5.50732E-13
 -1      3084 2.29409E+01-4.28056E-02 1.67154E-02-1.05449E+00-1.22217E-13-1.26192E-13
 -1      3085 1.99714E+01 1.72305E-01 6.43758E-02-1.87422E+00 3.22765E-14-2.76449E-13
 -1      3086 1.81359E+01 6.05332E-01-1.20159E-02-2.19393E+00-2.06215E-16-3.68134E-13
 -1      3087 2.81659E+01-1.89081E+00-2.06774E-03 1.80742E+00 1.69295E-13 1.55320E-13
 -1      3088 2.71522E+01 2.39444E+00-5.56604E-02 2.07430E+00-3.15747E-13-5.70412E-13
 -1      3089 2.67174E+01 3.58570E+00-1.43751E-01 1.85212E+00-4.67196E-13-4.90094E-13
 -1      3090 2.43417E+01-3.99895E-01-7.00623E-03-1.96764E+00-1.59561E-13 1.62148E-14
 -1      3091 2.42652E+01 2.06495E-01-4.11705E-03-2.06508E+00-2.09525E-13 1.05211E-15
 -1      3092 2.42281E+01 9.82106E-01-4.87767E-02-2.19099E+00-2.86366E-13-1.74331E-14
 -1      3093 2.40589E+01 1.88086E+00 1.17758E-03-1.98015E+00-3.53533E-13-6.48119E-14
 -1      3094 2.49145E+01 5.37831E-01-2.39195E-02-2.15983E+00-2.47967E-13 5.68955E-14
 -1      3095 2.38104E+01 2.69605E+00-5.43625E-02-1.51517E+00-4.13131E-13-8.87442E-14
 -1      3096 2.36305E+01 3.29103E+00-2.76553E-02-9.34746E-01-4.20664E-13-1.40751E-13
 -1      3097 2.47327E+01 2.66236E+00-3.52777E-02-1.94227E+00-4.13791E-13 2.74399E-14
 -1      3098 2.37340E+01 2.58437E+00-8.49547E-03 1.37415E+00-2.94514E-13-3.90642E-13
 -1      3099 2.38766E+01 1.74863E+00-5.90759E-02 1.81571E+00-2.72211E-13-3.69416E-13
 -1      3100 2.40466E+01 7.82110E-01 1.77146E-03 1.92406E+00-2.12136E-13-4.01842E-13
 -1      3101 2.40973E+01-1.30777E-01-4.47270E-02 1.89202E+00-1.04934E-13-3.95884E-13
 -1      3102 2.47429E+01 1.35951E+00-2.79652E-02 1.97877E+00-2.25882E-13-4.57051E-13
 -1      3103 2.39954E+01-8.48885E-01 5.87462E-04 1.50607E+00-9.53976E-14-3.66463E-13
 -1      3104 2.38744E+01-1.36986E+00-1.23738E-02 1.19361E+00-5.51840E-14-4.00290E-13
 -1      3105 2.46909E+01-7.29588E-01 1.78139E-03 1.64638E+00-1.04886E-13-4.40311E-13
 -1      3106 2.34659E+01-1.65666E+00-1.22848E-02 7.04666E-01 9.36458E-15-3.34681E-13
 -1      3107 2.32448E+01-1.75848E+00 1.21544E-02 3.38511E-01 7.26460E-14-2.97943E-13
 -1      3108 2.40110E+01-1.83147E+00-9.79998E-03 7.19788E-01 1.37061E-14-3.66875E-13
 -1      3109 2.27240E+01-1.72603E+00-1.33858E-02-5.93748E-02 7.48310E-14-2.56303E-13
 -1      3110 2.24524E+01-1.57843E+00 1.77942E-02-3.52764E-01 8.77944E-14-1.91679E-13
 -1      3111 2.30667E+01-2.05721E+00-1.20501E-02-2.00059E-01 1.31280E-13-2.06691E-13
 -1      3112 2.19839E+01-1.38689E+00-8.21537E-03-5.90658E-01 4.30847E-14-2.06994E-13
 -1      3113 2.17209E+01-1.15248E+00 1.58052E-02-7.79257E-01 1.00625E-14-1.74351E-13
 -1      3114 2.21008E+01-1.71479E+00-1.79712E-02-7.97532E-01 6.65732E-14-2.38633E-13
 -1      3115 2.13663E+01-9.27516E-01-3.41546E-03-8.86603E-01-3.81208E-14-1.28192E-13
 -1      3116 2.11471E+01-7.01281E-01 1.15057E-02-9.84164E-01-4.98952E-14-1.70621E-13
 -1      3117 2.13245E+01-1.17867E+00-1.66013E-02-1.09459E+00-2.28604E-15-8.32338E-14
 -1      3118 2.09059E+01-5.04775E-01-4.06783E-04-1.00636E+00-5.34652E-14-1.45175E-13
 -1      3119 2.07389E+01-3.25724E-01 7.40801E-03-1.03779E+00-1.52398E-14-1.12954E-13
 -1      3120 2.07730E+01-6.66998E-01-1.25490E-02-1.18457E+00-1.43894E-14-1.16624E-13
 -1      3121 2.05878E+01-1.78986E-01 1.08034E-03-1.01079E+00 2.41932E-14-9.34016E-14
 -1      3122 2.04668E+01-5.45318E-02 4.20767E-03-9.99099E-01 1.87901E-14-8.05697E-14
 -1      3123 2.04139E+01-2.64838E-01-8.44971E-03-1.15208E+00 1.31733E-14-1.32506E-13
 -1      3124 2.03792E+01 4.27038E-02 1.66375E-03-9.46693E-01 7.01666E-15-7.14455E-14
 -1      3125 2.02935E+01 1.19425E-01 1.99436E-03-9.09447E-01 2.29847E-14-1.26875E-13
 -1      3126 2.01969E+01 1.36784E-02-5.27524E-03-1.05510E+00 3.32971E-14-1.01877E-13
 -1      3127 2.02472E+01 1.76042E-01 1.82509E-03-8.46182E-01 4.28820E-14-4.17302E-14
 -1      3128 2.01867E+01 2.16256E-01 5.83960E-04-7.95830E-01 2.47724E-14-3.47335E-14
 -1      3129 2.00753E+01 1.85298E-01-3.07270E-03-9.28950E-01 5.28897E-14-9.35619E-15
 -1      3130 2.01656E+01 2.43033E-01 1.80441E-03-7.30383E-01-1.86985E-14-5.78253E-15
 -1      3131 2.01223E+01 2.57764E-01-2.48140E-04-6.75364E-01 1.73433E-14-6.05881E-14
 -1      3132 2.00136E+01 2.75496E-01-1.66235E-03-7.94245E-01 6.98580E-14-5.14749E-14
 -1      3133 2.01155E+01 2.64425E-01 1.70383E-03-6.12814E-01 3.71440E-14-5.36833E-14
 -1      3134 2.00838E+01 2.62797E-01-6.86367E-04-5.58590E-01 1.18520E-13-1.09183E-13
 -1      3135 1.99872E+01 3.08880E-01-8.11293E-04-6.62909E-01 1.32799E-14-1.15571E-13
 -1      3136 2.00845E+01 2.57048E-01 1.56310E-03-5.01756E-01 1.76966E-13-2.23384E-13
 -1      3137 2.00606E+01 2.45933E-01-8.69742E-04-4.51606E-01 1.52802E-13-2.24863E-13
 -1      3138 1.99800E+01 3.05672E-01-3.31889E-04-5.41674E-01 7.86055E-14-4.03217E-14
 -1      3139 2.00645E+01 2.33390E-01 1.40106E-03-4.01829E-01 7.04138E-14-2.21560E-13
 -1      3140 2.00461E+01 2.17609E-01-8.97533E-04-3.57482E-01 9.05004E-15-1.81341E-13
 -1      3141 1.99821E+01 2.81112E-01-8.53035E-05-4.33995E-01 1.13926E-13-1.83358E-13
 -1      3142 2.00510E+01 2.02101E-01 1.22932E-03-3.15145E-01-5.69133E-14-1.84447E-13
 -1      3143 2.00366E+01 1.84826E-01-8.37626E-04-2.77263E-01-2.43254E-14-1.62345E-13
 -1      3144 1.99878E+01 2.45926E-01 2.46801E-05-3.41197E-01-1.90597E-14-1.73991E-13
 -1      3145 2.00412E+01 1.68797E-01 1.05662E-03-2.42140E-01 3.81699E-14-2.72619E-13
 -1      3146 2.00298E+01 1.51973E-01-7.34516E-04-2.10690E-01 1.45098E-14-2.58881E-13
 -1      3147 1.99942E+01 2.07217E-01 5.99960E-05-2.63229E-01-3.68630E-14-1.67475E-13
 -1      3148 2.00336E+01 1.36868E-01 8.90139E-04-1.82194E-01-5.25613E-15-3.01534E-13
 -1      3149 2.00246E+01 1.21577E-01-6.16152E-04-1.56724E-01 2.47211E-14-2.73427E-13
 -1      3150 1.99996E+01 1.69371E-01 5.83272E-05-1.99178E-01 2.36873E-14-3.74926E-13
 -1      3151 2.00275E+01 1.08149E-01 7.35430E-04-1.34077E-01 2.13998E-14-3.21161E-13
 -1      3152 2.00203E+01 9.48931E-02-4.99139E-04-1.13909E-01-4.21906E-14-3.13623E-13
 -1      3153 2.00037E+01 1.34856E-01 4.13937E-05-1.47640E-01-1.32430E-15-2.98487E-13
 -1      3154 2.00223E+01 8.34435E-02 5.96238E-04-9.62647E-02-6.68592E-15-2.54678E-13
 -1      3155 2.00167E+01 7.23540E-02-3.92506E-04-8.06339E-02 1.09690E-13-1.93815E-13
 -1      3156 2.00064E+01 1.04839E-01 2.08888E-05-1.06978E-01 1.42687E-14-2.67400E-13
 -1      3157 2.00179E+01 6.29035E-02 4.74539E-04-6.71556E-02 7.69135E-14-1.56019E-13
 -1      3158 2.00135E+01 5.38923E-02-3.00386E-04-5.52945E-02 1.45249E-13-1.03779E-13
 -1      3159 2.00079E+01 7.96524E-02 2.47302E-06-7.55112E-02 1.34707E-13-9.81475E-14
 -1      3160 2.00142E+01 4.63012E-02 3.70811E-04-4.52064E-02 8.23558E-14-2.60253E-14
 -1      3161 2.00109E+01 3.91611E-02-2.23876E-04-3.64003E-02-2.64836E-14-4.78707E-14
 -1      3162 2.00084E+01 5.91264E-02-1.16472E-05-5.16302E-02 1.26616E-13 1.01324E-14
 -1      3163 2.00111E+01 3.32093E-02 2.84409E-04-2.90126E-02 3.44365E-14-6.36022E-14
 -1      3164 2.00086E+01 2.76813E-02-1.62314E-04-2.26270E-02 6.49870E-14-1.05187E-14
 -1      3165 2.00083E+01 4.28146E-02-2.11137E-05-3.38737E-02 8.91750E-15 8.49547E-15
 -1      3166 2.00086E+01 2.31197E-02 2.13944E-04-1.73475E-02 6.96794E-14-2.10518E-16
 -1      3167 2.00067E+01 1.89349E-02-1.14120E-04-1.28392E-02 4.42118E-14 8.49572E-15
 -1      3168 2.00077E+01 3.01475E-02-2.64544E-05-2.09618E-02 6.33944E-14-7.87626E-14
 -1      3169 2.00065E+01 1.55168E-02 1.57603E-04-9.17298E-03 6.90138E-14 1.50612E-13
 -1      3170 2.00051E+01 1.24207E-02-7.73360E-05-6.09070E-03-3.63049E-15 2.39050E-13
 -1      3171 2.00068E+01 2.05274E-02-2.85324E-05-1.18075E-02 1.48520E-13 1.00490E-14
 -1      3172 2.00048E+01 9.91920E-03 1.13406E-04-3.63422E-03-1.80634E-13 2.57690E-13
 -1      3173 2.00038E+01 7.68457E-03-4.99529E-05-1.61188E-03-2.14452E-13 1.05213E-13
 -1      3174 2.00059E+01 1.33849E-02-2.82510E-05-5.51082E-03 3.91324E-14 5.37423E-14
 -1      3175 2.00034E+01 5.90096E-03 7.93857E-05-4.30572E-05-2.07717E-13 1.43972E-13
 -1      3176 2.00027E+01 4.33294E-03-3.00947E-05 1.20953E-03-1.20854E-13 1.43465E-13
 -1      3177 2.00049E+01 8.20895E-03-2.64125E-05-1.34329E-03-1.84542E-13-1.86055E-14
 -1      3178 2.00024E+01 3.09936E-03 5.37007E-05 2.14258E-03-7.19986E-14 1.44763E-13
 -1      3179 2.00019E+01 2.03600E-03-1.61106E-05 2.85065E-03-1.01622E-13 7.74289E-14
 -1      3180 2.00040E+01 4.55944E-03-2.36640E-05 1.27263E-03-1.26672E-13 1.85267E-13
 -1      3181 2.00016E+01 1.21458E-03 3.47068E-05 3.34104E-03-1.35873E-13 3.95505E-14
 -1      3182 2.00013E+01 5.24593E-04-6.60757E-06 3.67577E-03-1.75844E-13-1.08716E-13
 -1      3183 2.00032E+01 2.06923E-03-2.04925E-05 2.78576E-03-1.34798E-13-4.00322E-14
 -1      3184 2.00010E+01 4.66422E-06 2.09876E-05 3.86849E-03-7.80402E-14 1.07476E-13
 -1      3185 2.00008E+01-4.16145E-04-4.48977E-07 3.95715E-03 8.61821E-14 5.55080E-14
 -1      3186 2.00025E+01 4.39721E-04-1.72418E-05 3.53800E-03-1.83646E-14-1.96339E-14
 -1      3187 2.00005E+01-7.21703E-04 1.13524E-05 3.95858E-03 1.02555E-13-5.32496E-14
 -1      3188 2.00005E+01-9.54550E-04 3.27163E-06 3.89338E-03 1.16349E-13-1.33386E-13
 -1      3189 2.00018E+01-5.66832E-04-1.41382E-05 3.78435E-03-4.22550E-14 1.44952E-13
 -1      3190 2.00002E+01-1.11318E-03 4.82427E-06 3.77956E-03 1.91848E-13-2.79595E-13
 -1      3191 2.00002E+01-1.22045E-03 5.25377E-06 3.62536E-03 1.65313E-13-2.13703E-13
 -1      3192 2.00013E+01-1.13625E-03-1.13154E-05 3.71041E-03 5.06442E-14 4.59899E-15
 -1      3193 2.00000E+01-1.28379E-03 6.27906E-07 3.44886E-03 9.41009E-14-3.09292E-13
 -1      3194 2.00000E+01-1.31302E-03 6.02354E-06 3.24941E-03-3.04537E-15-2.19160E-13
 -1      3195 2.00009E+01-1.41172E-03-8.88163E-06 3.44765E-03 1.47601E-13-2.10078E-13
 -1      3196 1.99999E+01-1.32029E-03-1.79759E-06 3.04484E-03-1.46622E-13-1.32230E-13
 -1      3197 1.99999E+01-1.30743E-03 6.04574E-06 2.82789E-03-1.21179E-13-3.64210E-13
 -1      3198 2.00006E+01-1.50256E-03-6.87979E-06 3.08571E-03-2.17299E-14-3.16259E-13
 -1      3199 1.99998E+01-1.28900E-03-3.04195E-06 2.61674E-03-4.26962E-14-3.31419E-13
 -1      3200 1.99998E+01-1.26098E-03 4.77533E-06 2.39749E-03-1.21802E-14-2.88371E-13
 -1      3201 2.00003E+01-1.49158E-03-5.46714E-06 2.68268E-03-3.53190E-14-2.35160E-13
 -1      3202 1.99997E+01-1.22736E-03-3.72081E-06 2.22068E-03-6.85508E-15-2.90630E-13
 -1      3203 1.99997E+01-1.20416E-03 2.79568E-06 2.00391E-03 4.87278E-14-3.82959E-13
 -1      3204 1.99999E+01-1.35087E-03 5.67638E-07 1.95454E-03-1.91271E-13-6.87630E-13
 -1      3205 2.00001E+01-1.42632E-03-3.11402E-06 2.30263E-03 1.16138E-14-2.21659E-13
 -1      3206 2.54135E+01 4.86165E+00-1.07353E-01-7.91874E-01-6.07542E-13-6.33226E-14
 -1      3207 2.57160E+01 4.18797E+00-9.22180E-02-1.75781E+00-5.15976E-13 4.16334E-14
 -1      3208 2.67959E+01-3.39236E+00-1.36511E-02-8.03119E-02 9.09689E-15-5.77996E-13
 -1      3209 2.76923E+01-2.60347E+00-1.29764E-04-9.96619E-01 1.19797E-13-6.86631E-13
 -1      3210 2.10509E+01-6.69348E-01 1.93495E-02 2.28151E+00-7.08886E-14-2.94865E-13
 -1      3211 2.14789E+01-1.14891E+00 8.71905E-03 2.25178E+00-1.55055E-13-3.13159E-13
 -1      3212 2.05490E+01-1.39834E-02 6.38818E-03 2.08973E+00 2.25570E-14-2.23942E-13
 -1      3213 2.08074E+01-3.05842E-01 8.50969E-03 2.14828E+00 1.51591E-14-2.38497E-13
 -1      3214 2.00644E+01-4.85270E-01-2.31932E-02 2.46693E+00-6.96375E-14-1.84860E-13
 -1      3215 2.03228E+01 3.46022E-01 7.42809E-04 1.82959E+00 4.17539E-14-2.87551E-13
 -1      3216 2.04751E+01 1.97762E-01 7.49995E-03 1.93200E+00 1.82903E-14-2.77043E-13
 -1      3217 1.98150E+01 1.67408E-01-8.80454E-03 2.12875E+00 7.01042E-14-1.68598E-13
 -1      3218 2.02314E+01 5.01312E-01-1.76153E-03 1.55896E+00 1.90571E-14-2.80742E-13
 -1      3219 2.03256E+01 4.44552E-01 5.53305E-03 1.67755E+00 6.22573E-14-2.60335E-13
 -1      3220 1.97744E+01 4.97326E-01-2.14091E-03 1.80314E+00 4.85679E-14-1.80750E-13
 -1      3221 2.01962E+01 5.34850E-01-2.64505E-03 1.30099E+00 1.36263E-14-3.32161E-13
 -1      3222 2.02616E+01 5.30516E-01 4.24939E-03 1.42017E+00-1.29496E-14-3.45814E-13
 -1      3223 1.98172E+01 6.23969E-01 6.68660E-04 1.50946E+00 8.61559E-15-2.78369E-13
 -1      3224 2.01794E+01 5.03782E-01-2.74422E-03 1.06628E+00 2.38479E-14-1.83517E-13
 -1      3225 2.02306E+01 5.26136E-01 3.50515E-03 1.17747E+00 3.61278E-15-2.23321E-13
 -1      3226 1.98814E+01 6.34172E-01 1.60690E-03 1.24873E+00-4.24443E-14-1.92613E-13
 -1      3227 2.01652E+01 4.43611E-01-2.49530E-03 8.59578E-01 4.92496E-14-1.86964E-13
 -1      3228 2.02086E+01 4.77111E-01 3.03121E-03 9.58506E-01 6.21329E-14-2.18093E-13
 -1      3229 1.99400E+01 5.84401E-01 1.65356E-03 1.01984E+00 8.10219E-14-1.64748E-14
 -1      3230 2.01488E+01 3.74581E-01-2.12131E-03 6.82168E-01 1.22954E-13-1.53172E-13
 -1      3231 2.01866E+01 4.10579E-01 2.66806E-03 7.67247E-01 1.18376E-13-1.89920E-13
 -1      3232 1.99840E+01 5.08988E-01 1.34488E-03 8.21580E-01 8.82395E-14-1.04201E-13
 -1      3233 2.01299E+01 3.07296E-01-1.73122E-03 5.33192E-01 1.37294E-13-1.65397E-13
 -1      3234 2.01629E+01 3.41385E-01 2.34147E-03 6.04465E-01 1.62880E-13-1.25559E-13
 -1      3235 2.00127E+01 4.27326E-01 9.59137E-04 6.52510E-01 1.28832E-13-9.86840E-14
 -1      3236 2.01099E+01 2.46702E-01-1.37441E-03 4.10472E-01-6.76335E-14-2.12654E-13
 -1      3237 2.01382E+01 2.76922E-01 2.02645E-03 4.68916E-01 2.25929E-14-2.17271E-13
 -1      3238 2.00290E+01 3.49482E-01 6.13130E-04 5.10726E-01 1.62310E-13-6.10423E-14
 -1      3239 2.00904E+01 1.94598E-01-1.06942E-03 3.11109E-01 1.35045E-13-3.52316E-13
 -1      3240 2.01141E+01 2.20334E-01 1.72277E-03 3.58165E-01 3.11060E-15-2.95386E-13
 -1      3241 2.00362E+01 2.80075E-01 3.44635E-04 3.93794E-01 7.58546E-14-2.54362E-13
 -1      3242 2.00723E+01 1.51130E-01-8.19092E-04 2.31935E-01 1.34351E-13-4.00973E-13
 -1      3243 2.00918E+01 1.72460E-01 1.43769E-03 2.69205E-01 1.76069E-13-2.33475E-13
 -1      3244 2.00375E+01 2.20671E-01 1.55074E-04 2.98912E-01 1.12911E-13-1.76238E-13
 -1      3245 2.00564E+01 1.15653E-01-6.18932E-04 1.69804E-01 5.98455E-14-4.00121E-13
 -1      3246 2.00722E+01 1.32977E-01 1.17833E-03 1.98871E-01 1.40520E-13-3.76544E-13
 -1      3247 2.00353E+01 1.71223E-01 3.15262E-05 2.23121E-01 1.63590E-13-1.25980E-13
 -1      3248 2.00430E+01 8.71942E-02-4.61752E-04 1.21781E-01-2.98689E-14-4.80203E-13
 -1      3249 2.00554E+01 1.01035E-01 9.49211E-04 1.44109E-01-1.78287E-14-3.83000E-13
 -1      3250 2.00312E+01 1.30909E-01-4.22928E-05 1.63509E-01 4.66352E-14-1.49797E-13
 -1      3251 2.00320E+01 6.47059E-02-3.39982E-04 8.52333E-02-1.73836E-13-5.59507E-13
 -1      3252 2.00415E+01 7.56025E-02 7.52014E-04 1.02118E-01-4.02050E-14-5.08850E-13
 -1      3253 2.00264E+01 9.85906E-02-8.12450E-05 1.17341E-01-3.21974E-14-2.37985E-13
 -1      3254 2.00232E+01 4.71824E-02-2.46704E-04 5.78694E-02-1.13036E-13-4.86739E-13
 -1      3255 2.00304E+01 5.56429E-02 5.86122E-04 7.04283E-02-1.21062E-13-4.65394E-13
 -1      3256 2.00217E+01 7.30664E-02-9.71894E-05 8.21485E-02-1.69375E-13-1.95356E-13
 -1      3257 2.00163E+01 3.37160E-02-1.75998E-04 3.77443E-02-2.26594E-13-4.01491E-13
 -1      3258 2.00217E+01 4.01938E-02 4.49368E-04 4.69163E-02-1.97642E-13-4.67925E-13
 -1      3259 2.00173E+01 5.31900E-02-9.88764E-05 5.57679E-02-1.48757E-13-9.26754E-14
 -1      3260 2.00111E+01 2.35162E-02-1.22977E-04 2.32385E-02-1.49514E-13-2.88059E-13
 -1      3261 2.00150E+01 2.84032E-02 3.38690E-04 2.97981E-02-2.30964E-13-2.87136E-13
 -1      3262 2.00134E+01 3.79284E-02-9.24136E-05 3.63500E-02-2.57256E-13-2.50062E-13
 -1      3263 2.00072E+01 1.59104E-02-8.36860E-05 1.30273E-02-7.73824E-14-4.00208E-13
 -1      3264 2.00100E+01 1.95385E-02 2.50643E-04 1.76030E-02-5.04561E-14-3.36826E-13
 -1      3265 2.00102E+01 2.63815E-02-8.18684E-05 2.23472E-02-1.18625E-13-3.94422E-13
 -1      3266 2.00044E+01 1.03373E-02-5.49660E-05 6.04469E-03-1.39000E-13-2.38367E-13
 -1      3267 2.00063E+01 1.29823E-02 1.81752E-04 9.13865E-03-1.24640E-13-2.62356E-13
 -1      3268 2.00076E+01 1.77835E-02-6.98248E-05 1.24889E-02-1.55215E-13-1.35655E-13
 -1      3269 2.00024E+01 6.33520E-03-3.43125E-05 1.44629E-03-2.85232E-14-1.94891E-13
 -1      3270 2.00036E+01 8.22330E-03 1.28730E-04 3.45354E-03-8.21695E-14-2.87412E-13
 -1      3271 2.00055E+01 1.14944E-02-5.78349E-05 5.74903E-03-1.00124E-13 1.07211E-13
 -1      3272 2.00010E+01 3.52994E-03-1.97552E-05-1.42669E-03-3.22703E-13-2.30666E-13
 -1      3273 2.00018E+01 4.84371E-03 8.86078E-05-1.99906E-04-1.94519E-13-2.45589E-13
 -1      3274 2.00039E+01 6.98842E-03-4.67575E-05 1.31323E-03-1.13382E-13-2.36273E-14
 -1      3275 2.00002E+01 1.62206E-03-9.75493E-06-3.08006E-03 3.64730E-14-1.39512E-13
 -1      3276 2.00006E+01 2.50712E-03 5.87891E-05-2.40008E-03-1.03854E-13-1.23720E-13
 -1      3277 2.00026E+01 3.83890E-03-3.70030E-05-1.45487E-03-2.45636E-13-2.66563E-13
 -1      3278 1.99996E+01 3.75017E-04-3.11858E-06-3.89568E-03-1.72057E-13 1.32721E-13
 -1      3279 1.99998E+01 9.46032E-04 3.70661E-05-3.58724E-03-3.87673E-14 7.54053E-14
 -1      3280 2.00017E+01 1.70482E-03-2.87023E-05-3.04430E-03-1.15050E-13 2.06445E-14
 -1      3281 1.99993E+01-3.95720E-04 1.06601E-06-4.15657E-03-1.52297E-13-3.32535E-14
 -1      3282 1.99993E+01-4.95914E-05 2.16033E-05-4.09069E-03-1.51530E-13 1.30275E-14
 -1      3283 2.00010E+01 3.16914E-04-2.18238E-05-3.82443E-03-1.22536E-13 1.32001E-13
 -1      3284 1.99991E+01-8.32476E-04 3.48578E-06-4.06789E-03-2.56254E-13-1.48492E-13
 -1      3285 1.99991E+01-6.42676E-04 1.09059E-05-4.15186E-03-1.66616E-13-9.33126E-14
 -1      3286 2.00005E+01-5.34771E-04-1.62552E-05-4.06900E-03-1.47899E-13-2.50241E-14
 -1      3287 1.99991E+01-1.04389E-03 4.65169E-06-3.77435E-03 6.39149E-15-7.50434E-14
 -1      3288 1.99990E+01-9.58234E-04 3.78054E-06-3.94347E-03-2.48306E-13-1.03194E-13
 -1      3289 2.00002E+01-1.01208E-03-1.18465E-05-3.97635E-03-2.54911E-13-8.08374E-14
 -1      3290 1.99991E+01-1.11224E-03 4.93980E-06-3.37427E-03 3.19168E-13 4.26260E-14
 -1      3291 1.99990E+01-1.09128E-03-7.15614E-07-3.58526E-03 2.61633E-13 4.67796E-14
 -1      3292 2.00000E+01-1.23845E-03-8.44147E-06-3.68619E-03 1.26674E-14-3.16756E-14
 -1      3293 1.99992E+01-1.09903E-03 4.79826E-06-2.93081E-03 3.56649E-13-1.48165E-13
 -1      3294 1.99991E+01-1.11346E-03-3.23539E-06-3.15649E-03 4.11251E-13 1.76874E-15
 -1      3295 1.99998E+01-1.30747E-03-5.90335E-06-3.29325E-03 3.94464E-13-3.20988E-15
 -1      3296 1.99993E+01-1.05345E-03 4.00153E-06-2.48185E-03 4.21893E-13-2.58225E-13
 -1      3297 1.99991E+01-1.07927E-03-4.36679E-06-2.70717E-03 3.39660E-13-1.34305E-13
 -1      3298 1.99997E+01-1.28912E-03-4.00897E-06-2.85862E-03 3.59650E-13-3.95040E-14
 -1      3299 1.99994E+01-1.01232E-03 1.58744E-07-2.04586E-03 4.01610E-13-3.70223E-13
 -1      3300 1.99993E+01-1.02997E-03-4.75111E-06-2.26141E-03 4.63087E-13-3.35905E-13
 -1      3301 1.99997E+01-1.23833E-03-2.47530E-06-2.41862E-03 5.81480E-13-1.48353E-13
 -1      3302 1.99995E+01-1.07342E-03-3.04595E-06-1.76995E-03 2.93826E-14-3.35555E-14
 -1      3303 1.99994E+01-1.03073E-03-5.73311E-06-1.92002E-03 2.75084E-13-1.68844E-13
 -1      3304 1.99997E+01-1.21812E-03 1.38590E-06-2.06622E-03 3.62654E-13 2.73731E-14
 -1      3305 1.99998E+01-1.23933E-03 7.89947E-06-1.80281E-03 1.27537E-13-3.36958E-14
 -1      3306 2.28198E+01-2.57345E-01-2.70012E-02-8.04542E-01-9.34695E-14-1.52622E-13
 -1      3307 2.31237E+01-3.97374E-01 2.10382E-02-9.37624E-01-7.68118E-14-1.08275E-13
 -1      3308 2.33328E+01-7.43042E-01-2.19162E-02-1.04978E+00-5.75976E-14-8.72571E-14
 -1      3309 2.24817E+01-1.83200E-01 2.85837E-02-2.99639E-01-2.47390E-14-1.90503E-13
 -1      3310 1.10631E+01 3.28421E+00 1.68272E-02 7.57012E-01 1.57378E-13-6.83953E-13
 -1      3311 1.14161E+01 3.16757E+00 5.58587E-02 1.65279E+00 1.88313E-13-6.86513E-13
 -1      3312 2.00012E+01-2.26208E-03 2.72600E-06 1.54854E-04-6.47840E-15 3.83394E-13
 -1      3313 2.00012E+01-2.26280E-03 2.81072E-06-1.40330E-04 1.93108E-14 5.58638E-13
 -1      3314 2.00004E+01-1.69075E-03-1.61851E-06 1.65675E-03-1.94541E-13-3.69232E-14
 -1      3315 2.00006E+01-1.83493E-03 7.96428E-06 1.50361E-03-2.23192E-13 6.77349E-14
 -1      3316 2.06768E+01-3.12252E+00-2.28605E-02 4.55525E+00 2.64525E-13-2.81417E-13
 -1      3317 1.77665E+01-2.32997E+00 1.45524E-01 5.47090E+00 3.02314E-13-4.45487E-13
 -1      3318 1.63144E+01-1.60177E+00 1.08056E-01-4.46030E+00-1.35739E-13-4.79956E-13
 -1      3319 1.96153E+01-2.95871E+00-2.10850E-02-4.21761E+00-1.27801E-13-3.48076E-13
 -1      3320 2.00008E+01-1.98544E-03-2.81992E-06 1.27685E-03-2.56291E-13-1.02839E-13
 -1      3321 2.00010E+01-2.08456E-03 7.38920E-06 1.04537E-03-2.59518E-13 1.03759E-13
 -1      3322 2.00009E+01-1.93599E-03-4.06387E-06 1.51135E-03-3.87171E-13 8.22742E-15
 -1      3323 2.20372E+01-1.69014E+00 4.15764E-02 2.28855E+00-2.35890E-13-3.76751E-13
 -1      3324 2.26489E+01-2.35896E+00-1.00062E-02 2.09052E+00-1.79917E-13-3.51269E-13
 -1      3325 2.07355E+01-1.55437E+00-4.64246E-02 2.73576E+00-2.38081E-13-2.10472E-13
 -1      3326 2.57059E+01-3.77459E+00 9.57650E-02-1.61088E+00 1.20647E-13-5.47742E-13
 -1      3327 2.64979E+01-2.90205E+00-1.51237E-01-1.79286E-01 1.24102E-14-6.21579E-13
 -1      3328 1.13348E+01 9.26338E-01 9.92410E-02-3.10191E+00-3.59365E-14-6.72046E-13
 -1      3329 1.35621E+01-2.98350E-01 5.05327E-02-4.19406E+00-8.43561E-14-5.84269E-13
 -1      3330 2.41351E+01-3.07146E+00 4.97809E-02 1.62751E+00-1.28553E-13-4.38045E-13
 -1      3331 2.49326E+01-3.51596E+00-1.50579E-02 1.07897E+00-1.03226E-13-4.41211E-13
 -1      3332 2.59989E+01-3.94045E+00-3.76275E-02 1.05942E+00-7.43954E-14-6.18911E-13
 -1      3333 2.25922E+01-3.08573E+00-3.64395E-02 2.57996E+00-1.61189E-13-3.49359E-13
 -1      3334 9.75548E+00 5.09204E-01 9.71221E-02-1.06404E+00 1.81049E-13 4.29115E-13
 -1      3335 1.04882E+01-7.71061E-04 7.51427E-02-2.96140E+00 2.43076E-13 5.73111E-13
 -1      3336 1.05612E+01-1.70430E-01 6.20774E-02 2.85294E+00-1.03698E-13 3.40922E-13
 -1      3337 9.66030E+00 4.33744E-01 7.67600E-02 8.87099E-01 1.25984E-14 4.14446E-13
 -1      3338 2.77236E+01 2.84848E+00-8.60272E-02-2.06938E+00-4.87860E-13 9.37583E-14
 -1      3339 2.39676E+01-8.78002E-01 3.07665E-02-1.39251E+00-5.55543E-14-3.75056E-14
 -1      3340 2.40184E+01-7.74066E-01-1.71435E-02-1.57492E+00-1.06537E-13-4.02337E-14
 -1      3341 2.45784E+01-8.32126E-01-3.64314E-02-1.62801E+00-1.08867E-13 3.57023E-14
 -1      3342 2.69667E+01-3.79940E-01-1.45825E-01-1.59046E+00-2.05662E-13 1.13826E-13
 -1      3343 2.70334E+01-1.53830E+00 3.08923E-02-6.58235E-01-5.62952E-14 6.04655E-14
 -1      3344 2.11776E+01-4.36110E+00 1.06686E-01-4.85482E+00 3.65888E-13-1.61870E-13
 -1      3345 2.35369E+01-4.66294E+00-1.00024E-01-3.52974E+00 1.92575E-13-3.66453E-13
 -1      3346 2.73291E+01-1.01696E+00 2.14327E-02 1.14940E+00-1.16157E-13-6.38656E-13
 -1      3347 2.73105E+01 6.07579E-01-1.46934E-01 1.76380E+00-2.07043E-13-5.85532E-13
 -1      3348 2.63961E+01 1.01078E+00-6.92182E-02 1.93880E+00-2.14717E-13-5.84595E-13
 -1      3349 2.63548E+01 4.71718E+00-1.07982E-01 1.36294E+00-5.78620E-13-3.83901E-13
 -1      3350 2.57939E+01 5.34725E+00-1.16501E-01 4.03867E-01-6.32217E-13-2.44978E-13
 -1      3351 2.56397E+01 3.58585E+00-7.86697E-02 1.59260E+00-4.15189E-13-4.84807E-13
 -1      3352 2.26825E+01-3.34673E+00 1.23404E-01-3.04375E+00-1.38247E-13-1.99115E-13
 -1      3353 2.47717E+01-3.64428E+00-6.67540E-02-1.61544E+00-7.53980E-14-4.61280E-14
 -1      3354 2.00011E+01-2.17805E-03 4.91870E-08 7.54073E-04-2.96423E-13-1.63045E-13
 -1      3355 2.00012E+01-2.22895E-03 5.35845E-06 4.80312E-04-1.00765E-13 7.40315E-15
 -1      3356 2.00015E+01-2.27394E-03-5.34155E-06 3.42903E-04-1.05249E-13 1.51068E-13
 -1      3357 2.00013E+01-2.15876E-03-5.31025E-06 9.76568E-04-3.50246E-13-3.96988E-14
 -1      3358 2.26448E+01-8.87895E-01 4.74732E-02-1.19152E+00 4.52984E-14-1.17748E-13
 -1      3359 2.11499E+01-4.06391E-01-9.23997E-03-1.54660E+00 4.56896E-14-1.89685E-13
 -1      3360 2.07341E+01-1.09451E+00-1.77364E-02-2.19019E+00-1.84297E-14-2.02394E-13
 -1      3361 2.32508E+01-1.75691E+00-8.65326E-03-1.18339E+00-3.12250E-17-8.55570E-14
 -1      3362 1.50064E+01-2.03715E+00 1.60036E-02 4.91123E+00-3.27467E-13 6.58917E-14
 -1      3363 1.25814E+01-8.23079E-01 1.11320E-01 3.99031E+00-2.23290E-13 1.06054E-13
 -1      3364 1.02485E+01 1.26995E+00 9.80305E-02 3.79905E+00 2.83506E-13-7.53883E-13
 -1      3365 8.62186E+00 1.96003E+00 1.34422E-01 2.25765E+00 2.12694E-13-8.00651E-13
 -1      3366 1.73583E+01-3.38491E+00 8.87298E-02-5.65880E+00 4.63553E-13 1.21674E-13
 -1      3367 1.93280E+01-4.16715E+00 2.87530E-03-5.51857E+00 4.26187E-13 4.47906E-14
 -1      3368 2.09614E+01-3.93959E+00 6.81841E-02-4.47617E+00 3.37140E-13-1.18700E-13
 -1      3369 2.00221E+01-3.96501E+00 3.16641E-02 4.81818E+00-3.11633E-13-1.46584E-13
 -1      3370 1.76998E+01-3.03862E+00 1.02739E-01 5.00239E+00-3.92929E-13-3.01703E-14
 -1      3371 1.20670E+01-1.00070E+00 8.46843E-02-4.43904E+00 3.52135E-13 4.49724E-13
 -1      3372 1.45601E+01-2.33079E+00 4.20331E-02-5.56316E+00 4.15223E-13 2.85660E-13
 -1      3373 2.63989E+01 3.30833E+00-1.41122E-01-2.14624E+00-4.95576E-13 9.41573E-14
 -1      3374 2.70137E+01 1.63680E+00-1.55310E-02-2.27514E+00-3.68330E-13 1.45065E-13
 -1      3375 1.24121E+01 2.63120E+00-1.97490E-02 2.65970E+00 2.29517E-13-6.64222E-13
 -1      3376 1.39074E+01 2.21241E+00 9.24882E-02 3.10184E+00 2.53092E-13-6.35268E-13
 -1      3377 1.71959E+01-2.00738E+00 9.85344E-02 4.35774E+00-3.16663E-13 6.56072E-15
 -1      3378 2.11547E+01-2.60634E-01 8.55448E-03 1.12655E+00 1.08267E-13-2.51516E-13
 -1      3379 2.18716E+01-4.31051E-01-3.23875E-02 5.26813E-01 4.12170E-14-2.38544E-13
 -1      3380 2.47708E+01 4.26943E+00-6.81930E-02-3.01213E-01-4.98900E-13-1.89368E-13
 -1      3381 2.39116E+01 3.70027E+00-4.68861E-02 2.15996E-01-4.18568E-13-2.77265E-13
 -1      3382 2.39573E+01 3.35598E+00-5.57852E-02 9.36986E-01-3.80466E-13-3.49693E-13
 -1      3383 1.10635E+01 7.01875E-01 1.14308E-01-3.93417E-02 9.77647E-14 3.50366E-13
 -1      3384 1.66131E+01 9.55463E-02 3.43860E-02-3.06927E+00-4.62443E-14-4.47569E-13
 -1      3385 1.55419E+01 1.34674E+00 6.79672E-02-2.48007E+00 5.78357E-15-4.95954E-13
 -1      3386 2.26127E+01-3.11958E+00 7.04339E-02 3.50085E+00 2.35541E-13-2.05325E-13
 -1      3387 2.09745E+01-2.45023E+00 1.97995E-02 3.68769E+00 2.61992E-13-2.59808E-13
 -1      3388 2.36887E+01-2.93098E+00-4.85509E-02 2.14767E+00 1.94681E-13-1.02184E-13
 -1      3389 1.60293E+01-4.49559E-01 8.50696E-02-3.66295E+00-9.77343E-14-5.00829E-13
 -1      3390 2.00006E+01-1.83999E-03 8.21404E-06-1.50104E-03 1.65760E-13 2.48917E-14
 -1      3391 2.00004E+01-1.70020E-03-3.34273E-06-1.65469E-03 1.82977E-13 4.80516E-13
 -1      3392 2.63089E+01-1.98479E+00-2.03916E-02 6.52585E-01-3.05528E-14-6.04246E-13
 -1      3393 2.00010E+01-2.08903E-03 7.33719E-06-1.04207E-03 1.16001E-13-1.60103E-13
 -1      3394 2.00008E+01-1.99082E-03-3.04350E-06-1.27442E-03 1.17600E-13-1.63696E-13
 -1      3395 2.00009E+01-1.94210E-03-4.82098E-06-1.50800E-03 1.44038E-13-1.11971E-13
 -1      3396 1.26606E+01-2.92173E-01 1.10754E-01-3.44088E+00 2.59202E-13 4.56045E-13
 -1      3397 2.00012E+01-2.23227E-03 5.16373E-06-4.68305E-04 7.54562E-14 3.73908E-13
 -1      3398 2.00011E+01-2.18147E-03 7.50731E-08-7.47686E-04 1.57093E-13-4.03194E-14
 -1      3399 2.00013E+01-2.16396E-03-5.16832E-06-9.68289E-04 1.42784E-13-1.27214E-14
 -1      3400 2.00015E+01-2.27597E-03-5.36810E-06-3.28602E-04 3.89863E-15 3.43397E-13
 -1      3401 2.36344E+01-1.04580E+00-4.19630E-02-9.23050E-01-4.77754E-14-7.55407E-14
 -1      3402 1.67982E+01-1.53837E+00 8.02940E-02 5.15701E+00 3.00482E-13-4.82718E-13
 -1      3403 2.59285E+01-2.18825E+00-3.05240E-02 1.05316E-01 2.42905E-14 2.95111E-14
 -1      3404 2.15149E+01-4.06605E+00-7.65150E-03 3.95242E+00-2.80040E-13-3.06750E-13
 -1      3405 2.00001E+01-1.45689E-03 2.58020E-06 1.87193E-03-4.05894E-13-5.06324E-13
 -1      3406 2.00003E+01-1.58759E-03 3.38783E-06 1.77090E-03-2.57773E-13-2.05468E-13
 -1      3407 2.00005E+01-1.69479E-03-2.77479E-06 1.84830E-03-4.30965E-13-6.68441E-14
 -1      3408 2.00002E+01-1.49332E-03-2.31947E-06 2.04369E-03-2.80222E-13-3.39714E-13
 -1      3409 2.11587E+01-2.51162E+00 2.64374E-02-3.08302E+00-9.24330E-14-2.45776E-13
 -1      3410 2.48846E+01-3.01699E+00-1.55224E-02-8.74612E-01-6.28594E-14-8.73997E-15
 -1      3411 2.39996E+01-2.32659E+00 5.79916E-02-1.22035E+00-6.39033E-14-6.21419E-14
 -1      3412 8.76266E+00 2.26136E+00 1.36354E-01 1.52984E+00 1.78954E-13-7.88675E-13
 -1      3413 9.38355E+00 2.58135E+00 7.35270E-02 4.65462E-01 1.38582E-13-7.55757E-13
 -1      3414 2.42989E+01-3.93721E+00 1.38426E-02-2.28355E+00 1.82892E-13-4.78985E-13
 -1      3415 1.30707E+01-1.55918E-01 1.17692E-01 3.08936E+00-1.27266E-13 1.30423E-13
 -1      3416 1.36235E+01 1.93985E+00 7.15949E-03-2.23443E+00 2.04663E-14-5.54168E-13
 -1      3417 2.62672E+01 4.05557E-01-4.37612E-02-1.98242E+00-2.34961E-13 1.27717E-13
 -1      3418 2.63469E+01-3.29862E+00 6.71748E-02-3.10598E-01-3.44703E-14 3.94372E-14
 -1      3419 1.68194E+01-2.49585E+00 9.72032E-02-5.06758E+00 4.32647E-13 1.51906E-13
 -1      3420 1.17726E+01 1.15511E+00 1.37153E-01 4.12501E+00 2.95507E-13-7.22006E-13
 -1      3421 1.15327E+01 2.16083E+00 1.01009E-01 3.17503E+00 2.53459E-13-7.09037E-13
 -1      3422 1.02020E+01 2.52278E+00 4.48137E-02 2.04967E+00 2.17126E-13-7.38618E-13
 -1      3423 1.88448E+01 1.75545E-01-1.22886E-02 2.52269E+00 1.90376E-13-3.59846E-13
 -1      3424 2.01677E+01-1.20650E-01 2.64937E-02 1.96346E+00 1.47612E-13-3.24383E-13
 -1      3425 2.12274E+01-8.91006E-01-1.43225E-03 1.70568E+00 1.20695E-13-2.50148E-13
 -1      3426 2.70723E+01-2.89436E+00-8.05024E-02 6.98762E-01 5.69128E-14 1.14353E-13
 -1      3427 1.87982E+01-2.32034E+00-1.67857E-02 4.08557E+00-3.04923E-13-3.63216E-14
 -1      3428 1.66849E+01-1.17974E+00 6.62824E-02 3.92181E+00-2.88755E-13 1.11439E-14
 -1      3429 2.60995E+01-4.40577E+00-2.75412E-02 1.61535E+00-9.63118E-14-6.20351E-13
 -1      3430 2.84779E+01-1.99427E+00-7.93247E-02-1.61101E+00 2.08351E-13-7.71730E-13
 -1      3431 2.48531E+01 3.55018E+00-6.30791E-02 1.44528E+00-4.07514E-13-4.47364E-13
 -1      3432 1.00136E+01 1.76238E+00 9.50282E-02-2.06007E+00 2.12365E-14-7.35093E-13
 -1      3433 1.22348E+01 1.80670E+00 1.09039E-01-2.24715E+00-4.61436E-15-6.44131E-13
 -1      3434 2.52110E+01 2.94808E+00-4.82705E-02-1.91872E+00-4.21052E-13 6.23338E-14
 -1      3435 1.24182E+01 2.78446E+00 4.26152E-02-1.27589E+00 6.54327E-14-6.13107E-13
 -1      3436 2.46039E+01-2.19888E+00 5.08997E-03 4.61913E-01 2.79980E-14-4.67184E-13
 -1      3437 2.41262E+01-2.49623E+00 2.34311E-02-9.68389E-02 5.86037E-14-4.06580E-13
 -1      3438 2.32815E+01-2.46174E+00-1.05709E-02-5.69082E-01 1.10883E-13-3.89661E-13
 -1      3439 2.28025E+01-2.27244E+00 3.00758E-02-9.18486E-01 1.67721E-13-3.57972E-13
 -1      3440 2.36187E+01-2.85410E+00-1.66914E-02-9.12594E-01 9.10981E-14-5.03636E-13
 -1      3441 2.21126E+01-1.99456E+00-5.58331E-03-1.14835E+00 1.28747E-13-3.08433E-13
 -1      3442 2.16908E+01-1.65763E+00 2.38089E-02-1.32436E+00 8.87927E-14-2.73164E-13
 -1      3443 2.21509E+01-2.38333E+00-2.83081E-02-1.54349E+00 1.58838E-13-3.88848E-13
 -1      3444 2.12185E+01-1.33345E+00 1.10203E-03-1.37075E+00 5.80269E-14-1.64223E-13
 -1      3445 2.08940E+01-1.01263E+00 1.49927E-02-1.42899E+00 5.18277E-14-8.66267E-14
 -1      3446 2.10619E+01-1.61553E+00-2.68225E-02-1.71986E+00 1.58426E-13-2.51875E-13
 -1      3447 2.06062E+01-7.31967E-01 4.12333E-03-1.38252E+00 6.93000E-15-6.78476E-14
 -1      3448 2.03815E+01-4.80571E-01 8.44761E-03-1.37097E+00 6.45328E-15-8.40649E-14
 -1      3449 2.03672E+01-9.01124E-01-1.86156E-02-1.65050E+00 1.75808E-14-9.47170E-14
 -1      3450 2.02254E+01-2.71696E-01 4.72089E-03-1.28580E+00 6.92708E-15-7.49213E-14
 -1      3451 2.00818E+01-9.73226E-02 4.07482E-03-1.23796E+00 1.88590E-14-7.51399E-14
 -1      3452 1.99663E+01-3.53099E-01-1.13755E-02-1.47523E+00 2.91608E-14-8.94661E-14
 -1      3453 2.00103E+01 4.20824E-02 4.12803E-03-1.14272E+00 4.55459E-14-1.40381E-14
 -1      3454 1.99249E+01 1.50786E-01 1.41958E-03-1.07840E+00 9.46871E-14 3.30461E-14
 -1      3455 1.97634E+01 2.05812E-02-6.55754E-03-1.26983E+00 5.40399E-14 3.04856E-15
 -1      3456 1.99043E+01 2.33646E-01 3.30512E-03-9.85802E-01 9.51794E-14-9.32373E-16
 -1      3457 1.98572E+01 2.92400E-01-8.78676E-05-9.16292E-01 9.10030E-14 2.82853E-14
 -1      3458 1.96838E+01 2.50857E-01-3.40872E-03-1.06873E+00 6.32228E-14 3.36442E-14
 -1      3459 1.98647E+01 3.33562E-01 2.57430E-03-8.31558E-01 1.77428E-14-2.38748E-14
 -1      3460 1.98411E+01 3.57145E-01-8.94242E-04-7.63180E-01 5.37217E-14-9.03476E-14
 -1      3461 1.96756E+01 3.73715E-01-1.50576E-03-8.85186E-01 6.50597E-14-2.23995E-14
 -1      3462 1.98625E+01 3.69715E-01 2.01599E-03-6.88169E-01 1.44193E-13-1.05628E-13
 -1      3463 1.98524E+01 3.70237E-01-1.26907E-03-6.24500E-01 1.07677E-13-6.78336E-15
 -1      3464 1.97050E+01 4.21726E-01-3.94822E-04-7.23133E-01 9.56074E-14-5.93365E-14
 -1      3465 1.98789E+01 3.64688E-01 1.60364E-03-5.59625E-01 2.52150E-14 3.19148E-14
 -1      3466 1.98759E+01 3.51382E-01-1.38125E-03-5.02556E-01 8.99352E-14-1.88510E-14
 -1      3467 1.97509E+01 4.20812E-01 2.01880E-04-5.83024E-01 1.17533E-13 1.66479E-14
 -1      3468 1.99025E+01 3.35486E-01 1.29885E-03-4.47489E-01 7.89688E-14-1.26761E-13
 -1      3469 1.99028E+01 3.14957E-01-1.34039E-03-3.97831E-01 7.76415E-14-1.94532E-13
 -1      3470 1.98007E+01 3.90594E-01 4.76946E-04-4.63834E-01 4.48385E-14 8.31324E-15
 -1      3471 1.99269E+01 2.94132E-01 1.06733E-03-3.51871E-01 2.14937E-14-1.92002E-13
 -1      3472 1.99283E+01 2.70839E-01-1.21714E-03-3.09731E-01-4.35821E-14-1.82997E-13
 -1      3473 1.98477E+01 3.45096E-01 5.63897E-04-3.63894E-01 7.37399E-15-1.32981E-13
 -1      3474 1.99487E+01 2.48648E-01 8.83476E-04-2.71992E-01-6.56235E-14-1.42439E-13
 -1      3475 1.99502E+01 2.25423E-01-1.05608E-03-2.37019E-01-8.13771E-14-1.53309E-13
 -1      3476 1.98884E+01 2.93793E-01 5.47737E-04-2.81288E-01-3.77350E-14-9.68511E-14
 -1      3477 1.99668E+01 2.04056E-01 7.31446E-04-2.06527E-01-3.84530E-14-2.24322E-13
 -1      3478 1.99679E+01 1.82554E-01-8.85009E-04-1.78091E-01 1.67592E-14-2.13614E-13
 -1      3479 1.99219E+01 2.42722E-01 4.81080E-04-2.14004E-01-8.97809E-14-1.10598E-13
 -1      3480 1.99807E+01 1.63228E-01 6.02423E-04-1.53851E-01 1.49519E-14-2.48180E-13
 -1      3481 1.99813E+01 1.44289E-01-7.20587E-04-1.31176E-01 2.02097E-14-2.08415E-13
 -1      3482 1.99481E+01 1.95431E-01 3.95509E-04-1.60018E-01-1.31234E-14-1.51327E-13
 -1      3483 1.99910E+01 1.27559E-01 4.91732E-04-1.12219E-01-8.76814E-15-1.50984E-13
 -1      3484 1.99911E+01 1.11487E-01-5.72013E-04-9.44752E-02 6.99252E-14-8.30435E-14
 -1      3485 1.99680E+01 1.53735E-01 3.08985E-04-1.17367E-01 1.08571E-13-1.42702E-13
 -1      3486 1.99981E+01 9.74849E-02 3.96822E-04-7.98992E-02 1.53878E-13-7.58732E-14
 -1      3487 1.99978E+01 8.42463E-02-4.43499E-04-6.62740E-02 2.40775E-13-1.10468E-14
 -1      3488 1.99824E+01 1.18297E-01 2.30797E-04-8.42052E-02 1.67444E-13 3.42332E-14
 -1      3489 2.00027E+01 7.28495E-02 3.16078E-04-5.52632E-02 1.85958E-13-1.13071E-13
 -1      3490 2.00021E+01 6.22194E-02-3.36043E-04-4.50023E-02 1.25286E-13-7.17547E-14
 -1      3491 1.99924E+01 8.90540E-02 1.64898E-04-5.88473E-02 1.98894E-13-1.38234E-13
 -1      3492 2.00054E+01 5.31662E-02 2.48201E-04-3.68421E-02 3.14601E-14-6.76806E-14
 -1      3493 2.00047E+01 4.48247E-02-2.48692E-04-2.92733E-02-2.40747E-14-2.11487E-14
 -1      3494 1.99991E+01 6.55263E-02 1.12115E-04-3.97978E-02 1.07318E-13-1.43158E-13
 -1      3495 2.00067E+01 3.77929E-02 1.91936E-04-2.33525E-02 1.36777E-14-1.29427E-14
 -1      3496 2.00060E+01 3.13886E-02-1.79421E-04-1.78964E-02 9.93229E-14-3.25200E-14
 -1      3497 2.00033E+01 4.70238E-02 7.15857E-05-2.57614E-02-8.36207E-15-1.32755E-13
 -1      3498 2.00071E+01 2.60444E-02 1.45996E-04-1.37043E-02 2.65563E-13-4.80606E-14
 -1      3499 2.00063E+01 2.12334E-02-1.25737E-04-9.87442E-03 2.60664E-13 1.85502E-16
 -1      3500 2.00056E+01 3.27846E-02 4.16572E-05-1.56415E-02 1.86879E-13-8.30823E-14
 -1      3501 2.00069E+01 1.72609E-02 1.09067E-04-6.99256E-03 4.40333E-14 1.56178E-14
 -1      3502 2.00062E+01 1.37282E-02-8.50517E-05-4.39026E-03-9.26191E-14-7.56179E-14
 -1      3503 2.00066E+01 2.20594E-02 2.04250E-05-8.52829E-03 1.13930E-13-4.38632E-14
 -1      3504 2.00063E+01 1.08447E-02 7.98491E-05-2.48248E-03-9.07504E-14-5.81566E-14
 -1      3505 2.00057E+01 8.31500E-03-5.49165E-05-7.87746E-04-2.18328E-14 3.87331E-14
 -1      3506 2.00068E+01 1.41603E-02 6.03601E-06-3.68193E-03-4.56546E-14 5.00660E-14
 -1      3507 2.00055E+01 6.27727E-03 5.71072E-05 4.11125E-04-1.37116E-13 6.91957E-14
 -1      3508 2.00050E+01 4.51793E-03-3.31417E-05 1.45003E-03-2.25741E-13 2.02823E-14
 -1      3509 2.00065E+01 8.48381E-03-3.15920E-06-5.11339E-04-7.06759E-14-8.17646E-14
 -1      3510 2.00047E+01 3.12327E-03 3.97045E-05 2.14538E-03-1.68673E-13 3.67764E-14
 -1      3511 2.00042E+01 1.94292E-03-1.78475E-05 2.72264E-03-8.40869E-14 4.51183E-14
 -1      3512 2.00059E+01 4.51858E-03-8.54643E-06 1.44713E-03-1.58681E-13 3.61664E-14
 -1      3513 2.00038E+01 1.02642E-03 2.66300E-05 3.07062E-03 1.35822E-14-4.61890E-14
 -1      3514 2.00035E+01 2.71212E-04-7.46760E-06 3.33303E-03 8.67233E-15 7.49547E-14
 -1      3515 2.00051E+01 1.84306E-03-1.12416E-05 2.55071E-03-8.76500E-14 1.42867E-13
 -1      3516 2.00031E+01-2.98540E-04 1.70235E-05 3.44999E-03-9.95290E-14 1.15355E-13
 -1      3517 2.00028E+01-7.49982E-04-7.42287E-07 3.50611E-03 6.04459E-15 1.15308E-13
 -1      3518 2.00042E+01 1.17422E-04-1.21124E-05 3.06947E-03 1.69821E-14 1.64096E-15
 -1      3519 2.00024E+01-1.07583E-03 1.01388E-05 3.47668E-03 5.61395E-14 1.28150E-13
 -1      3520 2.00021E+01-1.31755E-03 3.34577E-06 3.40476E-03 5.97666E-14 1.17631E-13
 -1      3521 2.00034E+01-9.27140E-04-1.18188E-05 3.20340E-03-7.90389E-15 7.93193E-14
 -1      3522 2.00018E+01-1.47855E-03 5.34683E-06 3.28899E-03 7.11393E-14 2.69963E-14
 -1      3523 2.00016E+01-1.58254E-03 5.56151E-06 3.14384E-03 5.87432E-14-1.49841E-13
 -1      3524 2.00027E+01-1.49915E-03-1.08020E-05 3.09681E-03 3.79995E-14 1.03388E-13
 -1      3525 2.00013E+01-1.63918E-03 2.17772E-06 2.98303E-03 7.84685E-14-1.37276E-14
 -1      3526 2.00011E+01-1.66053E-03 6.35604E-06 2.80144E-03 2.47569E-14 2.39867E-15
 -1      3527 2.00020E+01-1.75882E-03-9.54144E-06 2.85155E-03 1.04889E-13 2.97485E-14
 -1      3528 2.00008E+01-1.65739E-03 8.96622E-07 2.62163E-03 2.27513E-14 1.47120E-13
 -1      3529 2.00007E+01-1.63794E-03 5.02056E-06 2.42740E-03 1.36134E-13 2.16082E-13
 -1      3530 2.00015E+01-1.83015E-03-8.82482E-06 2.53621E-03 1.47464E-13 4.22381E-13
 -1      3531 1.90937E+01-1.06410E+00 9.52462E-02-3.27358E+00-8.34680E-14-3.73373E-13
 -1      3532 1.27175E+01 2.96956E-01 3.75944E-02-2.59152E+00 2.06529E-13 4.16760E-13
 -1      3533 1.41091E+01-6.47077E-01 3.02090E-02-3.97049E+00 3.04805E-13 3.46889E-13
 -1      3534 1.90616E+01-9.39238E-03 3.08768E-03 2.45988E+00-4.30489E-14-1.12025E-13
 -1      3535 1.93189E+01-4.04071E-01 2.65575E-02 2.64738E+00-1.78689E-13-1.28338E-13
 -1      3536 1.94158E+01 7.53374E-01-5.58113E-03 1.36979E+00-3.49953E-14-6.12371E-14
 -1      3537 1.93927E+01 7.42044E-01 4.82386E-03 1.50274E+00 7.30545E-14-1.11874E-14
 -1      3538 1.95755E+01 7.23061E-01-4.84688E-03 1.12554E+00 2.13072E-14-6.04530E-14
 -1      3539 1.95477E+01 7.48667E-01 2.91751E-03 1.24248E+00-6.84718E-14-1.35391E-13
 -1      3540 1.91433E+01 8.65211E-01 4.74571E-03 1.23667E+00 2.19387E-14 6.74687E-14
 -1      3541 1.97055E+01 6.48659E-01-4.07779E-03 9.17039E-01 7.24733E-14 1.23086E-14
 -1      3542 1.96825E+01 6.91334E-01 2.03104E-03 1.01931E+00 9.59201E-14 1.18975E-14
 -1      3543 1.93705E+01 8.06362E-01 4.17632E-03 1.01442E+00 3.65932E-14-4.79247E-14
 -1      3544 1.98044E+01 5.57613E-01-3.36860E-03 7.38717E-01 8.42378E-14-5.74389E-15
 -1      3545 1.97888E+01 6.05703E-01 1.62977E-03 8.27112E-01 9.11261E-14 4.77630E-14
 -1      3546 1.95496E+01 7.12784E-01 3.38350E-03 8.27362E-01 6.74114E-14 5.24041E-14
 -1      3547 1.98762E+01 4.65229E-01-2.74278E-03 5.87309E-01 1.27232E-13 2.12450E-14
 -1      3548 1.98674E+01 5.12350E-01 1.43394E-03 6.62518E-01 1.26068E-13-5.38092E-15
 -1      3549 1.96857E+01 6.08045E-01 2.60947E-03 6.67972E-01 1.16186E-13 1.36026E-13
 -1      3550 1.99263E+01 3.79452E-01-2.20309E-03 4.60356E-01 1.65251E-13 1.31095E-14
 -1      3551 1.99227E+01 4.22392E-01 1.30094E-03 5.23269E-01 1.36652E-13 1.02015E-14
 -1      3552 1.97864E+01 5.05244E-01 1.93786E-03 5.32469E-01 1.34424E-13 1.21648E-13
 -1      3553 1.99600E+01 3.03822E-01-1.74727E-03 3.55461E-01 9.80539E-14-7.62566E-14
 -1      3554 1.99600E+01 3.41252E-01 1.17614E-03 4.07205E-01 1.72196E-13 3.33451E-14
 -1      3555 1.98591E+01 4.11186E-01 1.39539E-03 4.18449E-01 1.79666E-13 2.51196E-13
 -1      3556 1.99819E+01 2.39367E-01-1.36926E-03 2.70121E-01 4.88299E-14 7.26562E-14
 -1      3557 1.99840E+01 2.71021E-01 1.04421E-03 3.11984E-01 4.95062E-14-2.20816E-14
 -1      3558 1.99105E+01 3.28817E-01 9.78094E-04 3.23837E-01 4.16859E-14 2.24403E-13
 -1      3559 1.99955E+01 1.85766E-01-1.06055E-03 2.01772E-01 2.35091E-13 1.75377E-14
 -1      3560 1.99987E+01 2.11940E-01 9.06127E-04 2.35103E-01 2.03724E-13-3.50737E-14
 -1      3561 1.99461E+01 2.58836E-01 6.68045E-04 2.46544E-01 1.74583E-13 4.17035E-14
 -1      3562 2.00034E+01 1.42043E-01-8.11726E-04 1.47887E-01 2.88098E-14-4.08371E-14
 -1      3563 2.00070E+01 1.63295E-01 7.68215E-04 1.74009E-01 1.20628E-13 3.90281E-14
 -1      3564 1.99702E+01 2.00719E-01 4.43734E-04 1.84414E-01 1.46026E-13 2.45205E-14
 -1      3565 2.00076E+01 1.06959E-01-6.13521E-04 1.06079E-01-1.29506E-13 1.31949E-14
 -1      3566 2.00111E+01 1.23943E-01 6.37044E-04 1.26228E-01-4.25093E-14-3.16931E-14
 -1      3567 1.99861E+01 1.53342E-01 2.85037E-04 1.35285E-01-7.08073E-15-2.32796E-14
 -1      3568 2.00094E+01 7.92236E-02-4.57401E-04 7.41703E-02-1.42483E-13 7.51341E-14
 -1      3569 2.00126E+01 9.25989E-02 5.17452E-04 8.94592E-02-1.49605E-13 1.55108E-13
 -1      3570 1.99962E+01 1.15341E-01 1.75054E-04 9.70779E-02-1.96755E-13 2.04465E-13
 -1      3571 2.00098E+01 5.76108E-02-3.35798E-04 5.02365E-02-1.20933E-13 1.60854E-13
 -1      3572 2.00126E+01 6.79936E-02 4.12194E-04 6.16375E-02 1.68768E-14 1.69913E-13
 -1      3573 2.00023E+01 8.53119E-02 1.00428E-04 6.78680E-02-9.37320E-14 3.00317E-13
 -1      3574 2.00093E+01 4.10116E-02-2.42173E-04 3.26198E-02-1.34012E-13-1.41534E-13
 -1      3575 2.00116E+01 4.89542E-02 3.22246E-04 4.09607E-02-1.89967E-13-5.46835E-14
 -1      3576 2.00057E+01 6.19264E-02 5.10060E-05 4.59334E-02 2.33557E-14 1.38105E-13
 -1      3577 2.00083E+01 2.84554E-02-1.70977E-04 1.99242E-02-1.14193E-13-1.01568E-13
 -1      3578 2.00102E+01 3.44376E-02 2.47293E-04 2.58955E-02-1.49273E-13-8.94953E-14
 -1      3579 2.00072E+01 4.39814E-02 1.92641E-05 2.97779E-02-1.37739E-13 9.15916E-14
 -1      3580 2.00072E+01 1.91126E-02-1.17569E-04 1.09986E-02-2.65489E-13 2.24023E-13
 -1      3581 2.00087E+01 2.35425E-02 1.86203E-04 1.51651E-02-1.65157E-13 8.91529E-14
 -1      3582 2.00077E+01 3.04231E-02-2.66499E-07 1.81336E-02-2.14567E-13 3.06650E-13
 -1      3583 2.00060E+01 1.22875E-02-7.81132E-05 4.91039E-03-4.97072E-14 1.79764E-13
 -1      3584 2.00072E+01 1.55059E-02 1.37403E-04 7.72634E-03-1.43180E-13 1.03067E-13
 -1      3585 2.00074E+01 2.03499E-02-1.15065E-05 9.94953E-03-2.16197E-13 8.32947E-14
 -1      3586 2.00049E+01 7.40680E-03-4.94765E-05 9.17808E-04-1.05757E-13 1.51208E-13
 -1      3587 2.00058E+01 9.69338E-03 9.91486E-05 2.74213E-03 1.46517E-14 2.18062E-13
 -1      3588 2.00068E+01 1.30056E-02-1.72340E-05 4.37189E-03-5.19736E-14 1.94897E-13
 -1      3589 2.00039E+01 4.00454E-03-2.91257E-05-1.55947E-03-7.14657E-14-1.68700E-13
 -1      3590 2.00046E+01 5.58566E-03 6.97067E-05-4.47610E-04-1.27125E-13 1.66161E-14
 -1      3591 2.00059E+01 7.76638E-03-1.93964E-05 7.19639E-04-2.47016E-14 1.08440E-13
 -1      3592 2.00030E+01 1.70779E-03-1.50355E-05-2.96758E-03-3.14940E-13 1.52983E-13
 -1      3593 2.00035E+01 2.76400E-03 4.74656E-05-2.35479E-03-1.92841E-13-4.58977E-14
 -1      3594 2.00050E+01 4.12567E-03-1.93423E-05-1.54064E-03-2.23565E-13 4.83478E-14
 -1      3595 2.00023E+01 2.21951E-04-5.60281E-06-3.64340E-03-7.00450E-14 8.67945E-14
 -1      3596 2.00026E+01 8.95348E-04 3.09921E-05-3.36945E-03-2.00777E-13 2.08312E-13
 -1      3597 2.00041E+01 1.67804E-03-1.79914E-05-2.81937E-03-2.44494E-13 1.34911E-13
 -1      3598 2.00017E+01-6.82693E-04 4.12406E-07-3.83635E-03-1.70735E-13 5.76370E-14
 -1      3599 2.00019E+01-2.81673E-04 1.90571E-05-3.78336E-03 6.22068E-14 1.53232E-13
 -1      3600 2.00033E+01 1.03486E-04-1.59627E-05-3.42651E-03-1.06635E-13 2.69061E-13
 -1      3601 2.00012E+01-1.18325E-03 3.95386E-06-3.72684E-03-1.52982E-13-1.14663E-13
 -1      3602 2.00014E+01-9.69752E-04 1.06293E-05-3.81017E-03-2.50171E-13-1.22511E-13
 -1      3603 2.00026E+01-8.47448E-04-1.36951E-05-3.59152E-03-6.13917E-14-5.03075E-14
 -1      3604 2.00008E+01-1.41481E-03 5.75198E-06-3.44155E-03 8.76718E-15-2.18191E-13
 -1      3605 2.00009E+01-1.32431E-03 4.86207E-06-3.60233E-03-1.51705E-13-2.08479E-13
 -1      3606 2.00019E+01-1.36690E-03-1.14604E-05-3.48023E-03-9.57642E-14-2.53083E-13
 -1      3607 2.00005E+01-1.47958E-03 6.35366E-06-3.06624E-03 3.34992E-13-1.25151E-13
 -1      3608 2.00006E+01-1.46322E-03 1.04702E-06-3.26511E-03 3.01078E-13-1.17412E-13
 -1      3609 2.00014E+01-1.60104E-03-9.41632E-06-3.20866E-03 6.12934E-14-3.00686E-13
 -1      3610 2.00002E+01-1.45187E-03 8.32497E-06-2.65838E-03 4.73321E-13-2.34708E-13
 -1      3611 2.00003E+01-1.47355E-03-4.80907E-07-2.86780E-03 4.43328E-13-1.50548E-13
 -1      3612 2.00010E+01-1.66057E-03-8.20427E-06-2.85545E-03 3.85873E-13-2.33618E-13
 -1      3613 2.00001E+01-1.39689E-03 4.11159E-06-2.24144E-03 6.08665E-13-7.54972E-14
 -1      3614 2.00001E+01-1.42865E-03-2.54908E-06-2.45018E-03 5.07970E-13-1.27539E-13
 -1      3615 2.00006E+01-1.63600E-03-9.04933E-06-2.47024E-03 4.91164E-13-2.39165E-13
 -1      3616 2.28049E+01-7.55806E-01 3.94080E-02 1.46662E-02 2.04767E-14-1.48442E-13
 -1      3617 2.34461E+01-1.26688E+00-1.58965E-03-1.82404E-01 3.13777E-14-1.07938E-13
 -1      3618 2.00002E+01-1.55170E-03 7.97419E-06-1.74007E-03 1.52432E-13 2.29059E-13
 -1      3619 2.00000E+01-1.39837E-03-1.05865E-06-1.78863E-03 6.47564E-14 4.85616E-14
 -1      3620 2.00000E+01-1.38483E-03-1.96356E-06-1.91974E-03 2.31342E-13-8.74443E-14
 -1      3621 2.00004E+01-1.67123E-03-8.19254E-07-1.82213E-03 1.95948E-13 3.94313E-13
 -1      3622 2.53448E+01 2.60176E+00-3.81909E-02 1.98722E+00-3.20029E-13-5.26884E-13
 -1      3623 2.55435E+01-1.74386E+00-5.96045E-02-6.68182E-01-7.91034E-15 4.24591E-14
 -1      3624 2.52009E+01-2.49854E+00 6.99236E-02 7.31269E-01 1.15644E-13-3.66027E-14
 -1      3625 1.60734E+01-1.73721E+00 5.31373E-02-4.61068E+00 4.01835E-13 1.42455E-13
 -1      3626 1.84141E+01-2.93653E+00-1.05990E-02-4.78547E+00 4.33365E-13 3.88266E-14
 -1      3627 2.00010E+01-1.89721E-03-4.20473E-06 1.74768E-03-3.57412E-13-3.33297E-14
 -1      3628 2.00013E+01-2.01651E-03 8.52172E-06 1.51469E-03-3.61286E-13-1.58956E-13
 -1      3629 2.53354E+01 1.23746E+00-8.10129E-02 2.04180E+00-2.35281E-13-4.81113E-13
 -1      3630 1.92406E+01 6.93849E-01-5.95967E-03 1.66000E+00 6.23705E-14-4.88095E-14
 -1      3631 1.92456E+01 6.13941E-01 8.76297E-03 1.81144E+00 3.60664E-14-3.17526E-14
 -1      3632 1.88700E+01 8.49840E-01 4.72053E-03 1.50904E+00 3.03665E-14 1.12647E-13
 -1      3633 1.13569E+01 2.47850E+00 7.99233E-02 2.50404E+00 2.27093E-13-7.12076E-13
 -1      3634 1.90902E+01 4.73683E-01-4.69891E-03 2.01461E+00 5.44043E-14-5.27792E-14
 -1      3635 1.91713E+01 2.75025E-01 1.56341E-02 2.18792E+00 7.25712E-14-8.85186E-15
 -1      3636 1.82876E+01 3.06669E-01-8.96278E-04 2.34237E+00-4.15661E-14-6.70523E-14
 -1      3637 1.85678E+01 6.97226E-01 3.38974E-03 1.85963E+00 3.05347E-14 3.08438E-14
 -1      3638 1.94435E+01-1.10608E+00 2.37019E-02 3.09371E+00-2.83536E-13-1.07009E-13
 -1      3639 2.00011E+01-1.81657E+00 3.42844E-02 3.29167E+00-2.80232E-13-1.44490E-13
 -1      3640 1.55440E+01 1.26404E+00-3.15584E-02 3.28769E+00 2.48001E-13-5.34323E-13
 -1      3641 1.73082E+01 8.27772E-01 7.54634E-02 3.09749E+00 2.25187E-13-4.48277E-13
 -1      3642 1.84416E+01-3.01359E-01 3.40334E-03 3.23130E+00 2.28987E-13-3.80314E-13
 -1      3643 1.46741E+01 1.09156E+00 4.03953E-02 3.71965E+00 2.74419E-13-5.89178E-13
 -1      3644 1.14152E+01 3.10401E+00 1.48473E-02-5.24468E-01 1.04759E-13-6.59379E-13
 -1      3645 1.04483E+01 2.83762E+00 9.82586E-02 5.99997E-02 1.26505E-13-7.23865E-13
 -1      3646 9.77590E+00 2.41391E+00 8.64377E-02-8.88530E-01 7.38225E-14-7.41102E-13
 -1      3647 2.13689E+01-1.85321E+00-4.33431E-03-2.38373E+00-7.17152E-14-1.98869E-13
 -1      3648 2.33990E+01-1.72721E+00-5.23608E-02 5.15172E-01 8.18837E-14-1.09026E-13
 -1      3649 2.47483E+01-1.55813E+00 5.74036E-02-7.01522E-01 1.63081E-14-7.65013E-15
 -1      3650 1.77863E+01-9.98031E-01-1.03623E-02 4.21022E+00 2.97512E-13-3.95177E-13
 -1      3651 1.55462E+01-7.62166E-02 1.25823E-01 4.56665E+00 3.12285E-13-5.33681E-13
 -1      3652 1.31254E+01 6.44130E-01 2.10965E-02 4.37629E+00 3.08913E-13-6.42035E-13
 -1      3653 1.43429E+01-3.18788E-01-3.10972E-02 3.33826E+00-1.84550E-13-4.22024E-14
 -1      3654 1.28404E+01 5.15241E-01 7.06049E-02 2.19763E+00-5.38497E-14 1.22298E-13
 -1      3655 2.56780E+01-2.72722E-02-1.28007E-02 1.87679E+00-1.62276E-13-5.43645E-13
 -1      3656 2.50353E+01-1.28992E+00-2.18124E-02-1.12473E+00-4.12803E-14 4.05093E-14
 -1      3657 2.02962E+01-3.42099E+00 6.25698E-02-4.32644E+00 3.97272E-13-7.03188E-14
 -1      3658 2.15771E+01-3.89335E+00-4.44681E-02-3.84123E+00 3.25823E-13-1.85747E-13
 -1      3659 1.18900E+01 8.46566E-01 3.27013E-02 8.87279E-01 4.89730E-14 2.86257E-13
 -1      3660 1.19568E+01 8.49527E-01 2.67830E-02-9.19857E-01 1.34482E-13 3.35315E-13
 -1      3661 1.35026E+01 8.63657E-01 6.57879E-02 1.28053E+00-2.22478E-15 1.23363E-13
 -1      3662 2.54037E+01-1.16511E+00-7.19071E-02 1.40241E+00-9.78497E-14-5.01672E-13
 -1      3663 2.41879E+01-4.25257E+00 9.85459E-02 2.73182E+00-2.05690E-13-5.14349E-13
 -1      3664 2.28116E+01-2.21108E+00 2.42419E-02-1.90440E+00-6.76612E-14-1.13135E-13
 -1      3665 2.54008E+01 1.80443E+00-4.18568E-02-2.33938E+00-3.28699E-13 7.44751E-14
 -1      3666 2.37318E+01-2.44673E+00-2.01633E-02 1.38785E+00 1.36793E-13-1.26598E-13
 -1      3667 2.19598E+01-3.67383E+00 1.40537E-02 3.42675E+00-2.03504E-13-3.08197E-13
 -1      3668 1.81898E+01-6.84008E-01-1.65175E-02 3.15977E+00-2.23046E-13-6.86343E-14
 -1      3669 2.00005E+01-1.58602E-03 5.84786E-07 2.32201E-03 1.89162E-14-3.94109E-14
 -1      3670 2.00004E+01-1.54528E-03 3.36072E-06 2.15474E-03-6.22751E-14-1.76183E-13
 -1      3671 2.00005E+01-1.65330E-03-1.79394E-06 2.06393E-03-2.96466E-13-2.44055E-13
 -1      3672 2.00010E+01-1.77386E-03-7.71039E-06 2.27071E-03-1.99036E-14 2.53480E-13
 -1      3673 1.29768E+01 7.71188E-01 6.54394E-02-1.68082E+00 1.66209E-13 3.68235E-13
 -1      3674 1.41723E+01 4.77857E-01 1.76368E-03-2.23190E+00 1.99371E-13 3.39073E-13
 -1      3675 1.35448E+01 1.00750E+00 1.70543E-02-8.23649E-01 1.03831E-13 2.94466E-13
 -1      3676 2.12024E+01-1.65770E+00-1.26332E-02 2.57182E+00 2.14120E-13-2.27509E-13
 -1      3677 1.99139E+01-1.43665E+00 7.34543E-02 3.50060E+00 2.61671E-13-3.15395E-13
 -1      3678 2.51421E+01-2.25428E+00 2.01969E-02 4.69585E-01 3.59365E-14-5.07822E-13
 -1      3679 1.99999E+01-1.36817E-03-9.37938E-07-2.05147E-03 3.41653E-13-9.59042E-14
 -1      3680 1.59326E+01-9.92326E-01 5.97020E-02-3.86327E+00 3.57780E-13 1.68563E-13
 -1      3681 2.24513E+01-1.72113E+00 4.59845E-02 1.67480E+00 1.62260E-13-1.88338E-13
 -1      3682 2.00006E+01-1.68519E-03 7.44351E-06-1.99985E-03 3.28872E-13 2.16251E-13
 -1      3683 2.00003E+01-1.56322E-03-4.72378E-06-2.08803E-03 3.88562E-13 6.99677E-14
 -1      3684 2.57609E+01-6.57136E-01 3.43224E-02-1.76429E+00-1.10596E-13 1.05398E-13
 -1      3685 2.00018E+01-2.31319E-03 2.36065E-06-1.85422E-04-5.51691E-14 3.40600E-13
 -1      3686 2.00018E+01-2.28593E-03 7.49542E-07-5.20932E-04-2.45008E-14 7.22965E-14
 -1      3687 2.06184E+01-2.54035E+00 7.97015E-02 3.56320E+00-2.79963E-13-1.74883E-13
 -1      3688 1.94468E+01-2.78933E+00 1.86018E-02-4.10437E+00 4.10932E-13-8.85229E-15
 -1      3689 2.00016E+01-2.11216E-03-1.28903E-06 1.46326E-03-3.12837E-13-7.37327E-14
 -1      3690 2.00015E+01-2.14690E-03-3.72242E-06 1.20271E-03-3.40633E-13-1.62707E-14
 -1      3691 2.00017E+01-2.21743E-03 6.35427E-06 9.02361E-04-2.84596E-13-1.05753E-13
 -1      3692 2.50517E+01-3.10390E+00-1.12838E-02-4.68881E-01 7.60826E-14-5.20517E-13
 -1      3693 2.53187E+01 6.94251E-01-6.94833E-02-2.20122E+00-2.79575E-13 9.62858E-14
 -1      3694 2.00018E+01-2.30864E-03 4.17707E-06 2.01629E-04-1.58474E-13 1.25805E-13
 -1      3695 2.00021E+01-2.34553E-03-1.91464E-06 8.60763E-06-1.59176E-13 1.39743E-13
 -1      3696 2.00018E+01-2.28386E-03 2.22550E-07 5.36050E-04-2.75231E-13-1.88965E-13
 -1      3697 2.31102E+01-3.80460E+00 5.64567E-02-2.84050E+00 2.56844E-13-4.18315E-13
 -1      3698 2.44860E+01-3.51632E+00-4.43935E-02-1.28309E+00 1.39630E-13-5.69799E-13
 -1      3699 1.63194E+01-4.51084E-01 5.83127E-02 3.24739E+00-2.14436E-13-3.39295E-14
 -1      3700 2.00013E+01-2.02687E-03 8.89843E-06-1.50857E-03 5.43681E-14-1.58552E-13
 -1      3701 2.00010E+01-1.91423E-03-8.58097E-06-1.74573E-03 2.51080E-14 7.27583E-14
 -1      3702 2.00009E+01-1.80304E-03 3.74859E-06-2.03824E-03 1.70406E-13-2.37569E-14
 -1      3703 2.38815E+01-3.25171E+00-3.79566E-02-1.22417E+00 9.90466E-14-4.95434E-13
 -1      3704 2.00007E+01-1.74262E-03 5.52802E-06 1.94853E-03-2.64975E-13-1.23654E-13
 -1      3705 2.00011E+01-1.85462E-03-3.59354E-07 1.97798E-03-2.03043E-13-2.58958E-14
 -1      3706 2.23547E+01-3.47056E+00 1.97031E-03-2.83201E+00 2.78753E-13-3.50792E-13
 -1      3707 1.94024E+01 7.43509E-01-4.14888E-03 6.98050E-01 8.75442E-15 6.44115E-14
 -1      3708 1.93253E+01 8.00783E-01 6.41672E-05 7.77789E-01 5.72908E-14 4.58365E-14
 -1      3709 2.32022E+01-3.00204E+00 4.15035E-02-1.62533E+00 1.50805E-13-4.47279E-13
 -1      3710 1.63650E+01 2.09080E-01 9.34660E-03 2.65110E+00-1.39386E-13-1.56058E-13
 -1      3711 2.19630E+01-2.66633E+00-1.04155E-02-2.08826E+00 2.05258E-13-3.10675E-13
 -1      3712 2.13703E+01-2.16916E+00 3.26750E-02-2.19487E+00 2.05963E-13-2.56943E-13
 -1      3713 2.08039E+01-1.70812E+00 7.80909E-03-2.10839E+00 1.68760E-13-1.80167E-13
 -1      3714 2.03718E+01-1.27485E+00 1.88903E-02-2.07210E+00 1.68895E-13-1.34851E-13
 -1      3715 2.03801E+01-1.97487E+00-3.21275E-02-2.63063E+00 2.45490E-13-2.00551E-13
 -1      3716 2.00837E+01-9.05349E-01 1.05862E-02-1.90413E+00 9.63494E-14-1.10435E-13
 -1      3717 1.98072E+01-5.80092E-01 7.43071E-03-1.80651E+00 1.02258E-14-1.00154E-13
 -1      3718 1.96275E+01-1.04363E+00-2.38063E-02-2.27027E+00 1.25320E-13-1.01667E-13
 -1      3719 1.96934E+01-3.11754E-01 1.01400E-02-1.62617E+00 1.34452E-15-3.02763E-14
 -1      3720 1.95369E+01-9.41595E-02 1.96305E-03-1.51314E+00 6.54337E-14-1.68134E-14
 -1      3721 1.92795E+01-3.51329E-01-1.16595E-02-1.85754E+00 5.13359E-14-6.90366E-15
 -1      3722 1.95158E+01 8.25003E-02 7.39672E-03-1.35393E+00 8.10123E-14-6.48941E-14
 -1      3723 1.94404E+01 2.16545E-01-6.47841E-04-1.24418E+00 7.42337E-14 1.02960E-14
 -1      3724 1.91671E+01 9.37628E-02-6.03134E-03-1.49099E+00 4.28160E-14 5.38421E-14
 -1      3725 1.94688E+01 3.20943E-01 5.21001E-03-1.11090E+00 3.50195E-14-7.22794E-15
 -1      3726 1.94428E+01 3.93209E-01-1.75257E-03-1.01198E+00 1.99018E-14-8.19963E-15
 -1      3727 1.91818E+01 3.61961E-01-2.54308E-03-1.18567E+00 7.13178E-14-5.59606E-14
 -1      3728 1.94939E+01 4.45618E-01 3.55884E-03-9.02846E-01 8.97799E-14 4.81663E-14
 -1      3729 1.94959E+01 4.74936E-01-2.14652E-03-8.16260E-01 1.30354E-13-2.29364E-14
 -1      3730 1.92613E+01 5.02077E-01-5.97454E-04-9.39347E-01 8.83970E-14 2.89597E-14
 -1      3731 1.95550E+01 4.91492E-01 2.44532E-03-7.27310E-01 1.15083E-13-8.70346E-15
 -1      3732 1.95711E+01 4.92314E-01-2.19564E-03-6.52842E-01 1.60342E-13 2.06410E-14
 -1      3733 1.93682E+01 5.54971E-01 4.81881E-04-7.41510E-01 1.68424E-13 4.07922E-14
 -1      3734 1.96296E+01 4.85842E-01 1.69514E-03-5.80651E-01 1.16514E-13 7.91898E-14
 -1      3735 1.96512E+01 4.69277E-01-2.06449E-03-5.17407E-01 7.99216E-14 5.66631E-14
 -1      3736 1.94811E+01 5.50427E-01 1.01299E-03-5.82723E-01 1.57915E-13 1.52912E-13
 -1      3737 1.97046E+01 4.49347E-01 1.20079E-03-4.58979E-01 4.30043E-14 9.86549E-14
 -1      3738 1.97268E+01 4.23423E-01-1.84995E-03-4.05866E-01 1.75706E-14 7.06374E-14
 -1      3739 1.95878E+01 5.11111E-01 1.19931E-03-4.55270E-01 4.12774E-14 7.69131E-14
 -1      3740 1.97729E+01 3.96788E-01 8.79138E-04-3.58746E-01-2.29703E-14-8.31266E-15
 -1      3741 1.97931E+01 3.67007E-01-1.60454E-03-3.14667E-01-4.21079E-14-1.37215E-14
 -1      3742 1.96822E+01 4.53349E-01 1.19689E-03-3.52948E-01-7.88023E-14 8.68076E-14
 -1      3743 1.98315E+01 3.38205E-01 6.65196E-04-2.76893E-01-5.46126E-14-8.57659E-14
 -1      3744 1.98486E+01 3.08154E-01-1.35605E-03-2.40775E-01-5.21437E-14-4.90876E-14
 -1      3745 1.97620E+01 3.88268E-01 1.09413E-03-2.70990E-01-5.02472E-14 1.94514E-14
 -1      3746 1.98794E+01 2.80059E-01 5.17439E-04-2.10741E-01-1.30334E-14-7.82504E-14
 -1      3747 1.98931E+01 2.51914E-01-1.12034E-03-1.81550E-01-2.63778E-14 4.43632E-14
 -1      3748 1.98271E+01 3.23131E-01 9.44631E-04-2.05680E-01-2.28760E-14 5.06615E-14
 -1      3749 1.99173E+01 2.26194E-01 4.10674E-04-1.57908E-01-7.96550E-14 5.33086E-14
 -1      3750 1.99277E+01 2.01126E-01-9.06465E-04-1.34653E-01 3.24517E-14 2.75310E-14
 -1      3751 1.98785E+01 2.62346E-01 7.81497E-04-1.54028E-01-4.31150E-14 1.20376E-13
 -1      3752 1.99461E+01 1.78604E-01 3.29905E-04-1.16255E-01 1.15603E-13-7.64337E-14
 -1      3753 1.99538E+01 1.57095E-01-7.18993E-04-9.80047E-02 1.66152E-13-4.12879E-15
 -1      3754 1.99181E+01 2.08284E-01 6.24266E-04-1.13565E-01 9.41641E-15 7.52955E-14
 -1      3755 1.99675E+01 1.38036E-01 2.66337E-04-8.38726E-02 1.07458E-13 3.82984E-14
 -1      3756 1.99728E+01 1.20126E-01-5.59310E-04-6.97732E-02 1.67465E-13 1.91141E-14
 -1      3757 1.99476E+01 1.61909E-01 4.83383E-04-8.22206E-02 1.15759E-13 5.75900E-14
 -1      3758 1.99827E+01 1.04442E-01 2.14849E-04-5.90723E-02 2.13172E-13-4.69174E-14
 -1      3759 1.99863E+01 8.99023E-02-4.26649E-04-4.83595E-02 2.07442E-13-3.28121E-14
 -1      3760 1.99691E+01 1.23274E-01 3.63355E-04-5.82460E-02 1.55211E-13 4.87236E-14
 -1      3761 1.99931E+01 7.73054E-02 1.72432E-04-4.03853E-02 1.29601E-13-6.38608E-14
 -1      3762 1.99953E+01 6.57676E-02-3.18883E-04-3.23903E-02 6.60864E-14-6.93493E-14
 -1      3763 1.99842E+01 9.18805E-02 2.64991E-04-4.01686E-02 1.59652E-13 2.08768E-14
 -1      3764 1.99999E+01 5.58712E-02 1.37249E-04-2.65545E-02 8.72705E-14-4.59890E-14
 -1      3765 2.00012E+01 4.69083E-02-2.33147E-04-2.07048E-02 1.64227E-14-1.86185E-15
 -1      3766 1.99944E+01 6.69365E-02 1.86961E-04-2.67555E-02 9.63809E-14 5.76890E-14
 -1      3767 2.00041E+01 3.92958E-02 1.08086E-04-1.65224E-02 2.84256E-14 7.74148E-14
 -1      3768 2.00046E+01 3.24768E-02-1.66288E-04-1.23380E-02 1.94722E-13 3.69776E-14
 -1      3769 2.00010E+01 4.75286E-02 1.26847E-04-1.69844E-02 1.14175E-13 1.76564E-13
 -1      3770 2.00063E+01 2.67434E-02 8.40533E-05-9.41463E-03 2.58140E-13-1.18592E-13
 -1      3771 2.00064E+01 2.16653E-02-1.15171E-04-6.50077E-03 1.15349E-13-3.18913E-14
 -1      3772 2.00049E+01 3.27357E-02 8.18197E-05-1.00176E-02 8.81591E-14 6.44046E-14
 -1      3773 2.00073E+01 1.74414E-02 6.44312E-05-4.52022E-03-2.24805E-14-7.40340E-14
 -1      3774 2.00071E+01 1.37454E-02-7.68805E-05-2.55799E-03-3.78457E-14-3.55088E-15
 -1      3775 2.00069E+01 2.16954E-02 4.90556E-05-5.17763E-03 9.16629E-14-6.55589E-14
 -1      3776 2.00074E+01 1.07081E-02 4.85920E-05-1.27058E-03-2.75894E-14 3.10550E-14
 -1      3777 2.00070E+01 8.08688E-03-4.88182E-05-7.02211E-06-5.72471E-14 3.98641E-14
 -1      3778 2.00077E+01 1.36394E-02 2.59621E-05-1.92375E-03 2.02038E-14-6.61313E-14
 -1      3779 2.00069E+01 5.96309E-03 3.59693E-05 7.81517E-04-4.36120E-14 5.57472E-14
 -1      3780 2.00065E+01 4.16029E-03-2.87538E-05 1.54357E-03-5.41055E-14 1.37341E-13
 -1      3781 2.00076E+01 7.90792E-03 1.02884E-05 1.69293E-04-8.13694E-14 2.19149E-13
 -1      3782 2.00062E+01 2.72514E-03 2.60467E-05 1.98189E-03-7.83122E-14 1.47541E-13
 -1      3783 2.00057E+01 1.53238E-03-1.48192E-05 2.39337E-03-2.22994E-14 1.98257E-13
 -1      3784 2.00071E+01 3.95033E-03 1.57374E-07 1.43092E-03-2.74693E-14 2.33266E-13
 -1      3785 2.00053E+01 6.04721E-04 1.83592E-05 2.59333E-03-5.20123E-15 1.00951E-13
 -1      3786 2.00049E+01-1.44153E-04-5.46459E-06 2.76758E-03 1.81674E-14 7.48299E-15
 -1      3787 2.00063E+01 1.31791E-03-5.94008E-06 2.11224E-03 1.34347E-15 7.94889E-14
 -1      3788 2.00044E+01-7.07529E-04 1.25596E-05 2.81182E-03 4.82721E-14 2.17590E-14
 -1      3789 2.00040E+01-1.14297E-03 4.84827E-07 2.83216E-03 7.84869E-14 2.13190E-13
 -1      3790 2.00053E+01-3.47722E-04-9.18109E-06 2.40147E-03 7.65513E-14 4.68901E-14
 -1      3791 2.00035E+01-1.45358E-03 8.25449E-06 2.77970E-03 4.51418E-15 1.23949E-13
 -1      3792 2.00032E+01-1.67530E-03 4.10458E-06 2.70549E-03 5.48891E-14 1.30015E-13
 -1      3793 2.00044E+01-1.32857E-03-1.05389E-05 2.43675E-03 7.24828E-14 2.89105E-13
 -1      3794 2.00028E+01-1.81801E-03 5.10131E-06 2.59846E-03 1.94514E-13 5.59893E-14
 -1      3795 2.00024E+01-1.90314E-03 5.83621E-06 2.47143E-03 3.06093E-13 2.02845E-13
 -1      3796 2.00035E+01-1.84113E-03-1.07318E-05 2.31552E-03 1.58232E-13 2.60164E-13
 -1      3797 2.00020E+01-1.94026E-03 3.51315E-06 2.33803E-03 2.24884E-13 2.73738E-13
 -1      3798 2.00018E+01-1.95324E-03 4.61885E-06 2.18846E-03 3.12813E-14 2.01140E-13
 -1      3799 2.00027E+01-2.04961E-03-9.86738E-06 2.10927E-03 2.92720E-13 1.00134E-13
 -1      3800 2.00013E+01-1.90068E-03 5.82090E-06 2.05431E-03-2.36797E-13 1.55196E-13
 -1      3801 1.88899E+01 9.38318E-01-6.89840E-03 1.03398E+00 6.43840E-14-5.19131E-14
 -1      3802 1.87673E+01 9.67635E-01 1.24332E-03 1.14504E+00 9.67105E-14 4.47074E-14
 -1      3803 1.95721E+01 6.30143E-01-3.31028E-03 5.65965E-01 1.06309E-13 1.24877E-13
 -1      3804 1.95146E+01 6.87880E-01 1.02617E-04 6.34661E-01 3.50246E-14 3.98566E-14
 -1      3805 1.93216E+01 7.82690E-01 4.29086E-03 5.88581E-01 2.36598E-14-3.00785E-14
 -1      3806 1.96990E+01 5.21972E-01-2.65417E-03 4.52782E-01 1.26704E-13 1.63593E-13
 -1      3807 1.96573E+01 5.75996E-01 2.16232E-04 5.11496E-01 1.40431E-13 1.57610E-13
 -1      3808 1.95093E+01 6.60286E-01 3.25892E-03 4.80384E-01 7.45690E-14 4.90165E-14
 -1      3809 1.97926E+01 4.24218E-01-2.12453E-03 3.56830E-01 1.19522E-13 3.29439E-13
 -1      3810 1.97631E+01 4.72456E-01 3.23852E-04 4.06328E-01 2.14406E-13 2.98314E-13
 -1      3811 1.96507E+01 5.45608E-01 2.44668E-03 3.86480E-01 1.01147E-13 1.83528E-13
 -1      3812 1.98605E+01 3.39046E-01-1.69085E-03 2.76696E-01 1.43079E-13 1.50170E-13
 -1      3813 1.98403E+01 3.80734E-01 3.94051E-04 3.17751E-01 9.20098E-14 2.48779E-13
 -1      3814 1.97558E+01 4.42843E-01 1.81742E-03 3.05963E-01 1.63961E-13 2.46144E-13
 -1      3815 1.99092E+01 2.66799E-01-1.33429E-03 2.10889E-01 2.16770E-13 4.36728E-15
 -1      3816 1.98956E+01 3.01948E-01 4.21917E-04 2.44367E-01 2.19883E-13 1.67169E-13
 -1      3817 1.98332E+01 3.53638E-01 1.33543E-03 2.38087E-01 2.17520E-13 1.17186E-13
 -1      3818 1.99435E+01 2.06808E-01-1.04193E-03 1.57783E-01 1.09548E-13 1.21478E-13
 -1      3819 1.99347E+01 2.35854E-01 4.15024E-04 1.84618E-01 1.59517E-13 7.33434E-14
 -1      3820 1.98893E+01 2.78088E-01 9.69906E-04 1.81933E-01 1.81120E-13 1.60035E-13
 -1      3821 1.99673E+01 1.57883E-01-8.03909E-04 1.15674E-01-1.38243E-13 2.19132E-13
 -1      3822 1.99618E+01 1.81472E-01 3.84423E-04 1.36819E-01-1.16162E-14 1.54816E-13
 -1      3823 1.99294E+01 2.15390E-01 6.95332E-04 1.36359E-01 2.26449E-14 2.94723E-13
 -1      3824 1.99833E+01 1.18623E-01-6.12011E-04 8.28707E-02-2.28745E-13 3.21672E-13
 -1      3825 1.99801E+01 1.37479E-01 3.40376E-04 9.92469E-02-1.26152E-13 2.67000E-13
 -1      3826 1.99577E+01 1.64272E-01 4.91012E-04 1.00069E-01-1.59041E-13 3.71563E-13
 -1      3827 1.99938E+01 8.75956E-02-4.59045E-04 5.77726E-02-5.67529E-15 1.96312E-13
 -1      3828 1.99922E+01 1.02441E-01 2.90852E-04 7.02334E-02-1.22057E-13 2.42027E-13
 -1      3829 1.99770E+01 1.23265E-01 3.40428E-04 7.17110E-02-1.04881E-13 2.50452E-13
 -1      3830 2.00004E+01 6.34388E-02-3.38616E-04 3.89278E-02-5.01857E-15 8.23000E-14
 -1      3831 1.99998E+01 7.49528E-02 2.41355E-04 4.82349E-02 1.23686E-13 2.31837E-13
 -1      3832 1.99900E+01 9.08715E-02 2.30599E-04 4.99690E-02 4.71027E-14 1.68874E-13
 -1      3833 2.00043E+01 4.49157E-02-2.45056E-04 2.50618E-02-2.57930E-13 1.15204E-13
 -1      3834 2.00042E+01 5.37088E-02 1.95293E-04 3.18742E-02-1.67489E-13 7.13214E-14
 -1      3835 1.99983E+01 6.56702E-02 1.51442E-04 3.36235E-02-5.90323E-14 9.34209E-14
 -1      3836 2.00063E+01 3.09383E-02-1.73395E-04 1.50866E-02-2.07331E-13 1.53229E-13
 -1      3837 2.00066E+01 3.75445E-02 1.54478E-04 1.99607E-02-1.51602E-13 1.41020E-13
 -1      3838 2.00034E+01 4.63667E-02 9.51967E-05 2.15896E-02-1.62633E-13 8.44664E-15
 -1      3839 2.00070E+01 2.05730E-02-1.19346E-04 8.09652E-03-6.11339E-14-8.43999E-14
 -1      3840 2.00075E+01 2.54481E-02 1.19618E-04 1.14914E-02-1.93961E-13 1.40446E-14
 -1      3841 2.00061E+01 3.18211E-02 5.59304E-05 1.29332E-02-1.00566E-13-1.58954E-13
 -1      3842 2.00070E+01 1.30346E-02-7.92650E-05 3.35330E-03-1.05405E-13-1.18635E-13
 -1      3843 2.00076E+01 1.65602E-02 9.07049E-05 5.64037E-03-6.41616E-14-4.86767E-14
 -1      3844 2.00074E+01 2.10539E-02 2.91330E-05 6.87170E-03-9.90080E-14-1.24584E-13
 -1      3845 2.00065E+01 7.67475E-03-5.01086E-05 2.67472E-04-5.31397E-14-4.20402E-14
 -1      3846 2.00071E+01 1.01646E-02 6.73105E-05 1.74139E-03-7.04025E-14-6.41111E-14
 -1      3847 2.00076E+01 1.32412E-02 1.13929E-05 2.76469E-03-8.33954E-14-2.33946E-13
 -1      3848 2.00058E+01 3.96643E-03-2.93727E-05-1.62292E-03-1.74593E-13-1.04299E-13
 -1      3849 2.00064E+01 5.67465E-03 4.87938E-05-7.32519E-04-7.32093E-14-2.16882E-14
 -1      3850 2.00073E+01 7.70235E-03 1.43672E-07 9.94127E-05-2.71476E-14-1.08448E-13
 -1      3851 2.00050E+01 1.48800E-03-1.50270E-05-2.67309E-03-2.24398E-13-6.37201E-14
 -1      3852 2.00055E+01 2.61709E-03 3.44358E-05-2.19050E-03-2.97368E-13-1.77761E-13
 -1      3853 2.00066E+01 3.88443E-03-6.53185E-06-1.52651E-03-1.58866E-13-3.42372E-13
 -1      3854 2.00041E+01-9.31052E-05-5.43158E-06-3.15090E-03-1.28285E-15-2.19357E-13
 -1      3855 2.00046E+01 6.15981E-04 2.35220E-05-2.94427E-03-5.98890E-14-1.23125E-13
 -1      3856 2.00057E+01 1.34528E-03-1.00466E-05-2.42266E-03-1.67799E-13-3.76798E-13
 -1      3857 2.00033E+01-1.03595E-03 6.35950E-07-3.25437E-03-7.08318E-14-4.57255E-13
 -1      3858 2.00037E+01-6.23230E-04 1.53909E-05-3.22675E-03-3.45636E-14-4.52988E-13
 -1      3859 2.00048E+01-2.63410E-04-1.14213E-05-2.82253E-03 6.79595E-14-7.37747E-13
 -1      3860 2.00026E+01-1.53981E-03 4.30122E-06-3.12593E-03-1.09705E-13-5.17988E-13
 -1      3861 2.00029E+01-1.32887E-03 9.43380E-06-3.20809E-03-8.70542E-14-3.81557E-13
 -1      3862 2.00039E+01-1.21317E-03-1.15329E-05-2.89887E-03-5.34225E-14-6.17375E-13
 -1      3863 2.00019E+01-1.75708E-03 5.65119E-06-2.86493E-03 4.15625E-14-3.59427E-13
 -1      3864 2.00022E+01-1.67645E-03 4.77342E-06-3.00952E-03-8.04245E-14-4.85378E-13
 -1      3865 2.00030E+01-1.71179E-03-1.08306E-05-2.77515E-03-1.84388E-13-5.71971E-13
 -1      3866 2.00014E+01-1.80598E-03 6.99084E-06-2.53464E-03 5.12177E-13-2.81890E-13
 -1      3867 2.00016E+01-1.79756E-03 1.33579E-06-2.71210E-03 3.08783E-13-3.26893E-13
 -1      3868 2.00023E+01-1.92123E-03-8.51361E-06-2.54330E-03 1.32807E-13-2.74279E-13
 -1      3869 2.00011E+01-1.82730E-03 2.79299E-06-2.21228E-03 2.71923E-13-2.51982E-13
 -1      3870 1.55859E+01-3.96140E-01 1.55197E-02-3.29747E+00 2.52708E-13 1.68792E-13
 -1      3871 1.72533E+01-1.40588E+00 5.06738E-03-3.87735E+00 3.35959E-13 8.62019E-14
 -1      3872 2.11136E+01-2.84255E+00 5.33243E-02-3.22547E+00 3.48676E-13-2.27126E-13
 -1      3873 2.21355E+01-3.01033E+00-1.38867E-02-2.37886E+00 2.35095E-13-3.62938E-13
 -1      3874 2.00020E+01-2.29109E-03-2.81402E-06-7.56954E-04-8.18550E-14 2.92355E-14
 -1      3875 2.00017E+01-2.22543E-03 5.38834E-06-8.91647E-04 4.50064E-14-1.18876E-13
 -1      3876 2.00015E+01-2.15071E-03-2.66579E-06-1.19342E-03 4.34684E-14-3.69829E-14
 -1      3877 1.85242E+01 9.72731E-01-9.29979E-03 1.25855E+00 1.01480E-14 2.47027E-14
 -1      3878 1.83849E+01 9.61963E-01 3.59779E-03 1.39771E+00 1.07664E-14 1.06552E-14
 -1      3879 1.83416E+01 1.08609E+00 9.38688E-03 1.03851E+00 5.53234E-14-7.25333E-14
 -1      3880 1.91790E+01 8.52002E-01-5.28359E-03 8.51870E-01 1.18231E-14 2.47205E-14
 -1      3881 1.90793E+01 9.01573E-01 3.30819E-04 9.44778E-01 1.47312E-14-5.05030E-14
 -1      3882 1.90749E+01 9.04765E-01 5.58350E-03 7.12981E-01-6.45003E-15-2.18224E-14
 -1      3883 2.00016E+01-2.12182E-03-2.48703E-06-1.45342E-03-7.81868E-15-2.32987E-13
 -1      3884 1.44634E+01 7.87552E-01 7.35125E-03 1.76489E+00-1.23360E-13-2.91780E-14
 -1      3885 1.37532E+01 1.10284E+00 1.51498E-02 6.06089E-01 1.68984E-15 1.42813E-13
 -1      3886 1.84715E+01-1.85540E+00 5.65072E-02-3.86442E+00 3.59783E-13 2.43174E-14
 -1      3887 1.98994E+01-2.56818E+00-8.01652E-03-3.59312E+00 3.55889E-13-1.23809E-13
 -1      3888 1.99970E+01-2.16428E+00-2.81466E-03-3.14050E+00 3.36115E-13-2.10520E-13
 -1      3889 1.79954E+01-1.29462E+00 1.20413E-02-3.42478E+00 2.63962E-13 4.94474E-14
 -1      3890 1.74629E+01 4.59899E-01 1.63354E-02 2.25423E+00-1.74452E-13-1.64648E-13
 -1      3891 1.56687E+01 6.13906E-01 1.45184E-02 2.18871E+00-1.24330E-13-8.85438E-14
 -1      3892 1.57031E+01 9.37887E-01-1.26618E-02 1.56313E+00-1.26742E-13-2.82821E-14
 -1      3893 1.75311E+01 6.68614E-01-1.47697E-02 1.98590E+00-4.55490E-14-1.05302E-13
 -1      3894 2.00018E+01-2.05037E-03-6.46939E-06 1.87091E-03-2.07016E-13-3.96142E-14
 -1      3895 2.00017E+01-1.99506E-03-2.59346E-06-2.08208E-03 2.87083E-13-2.16243E-13
 -1      3896 2.00023E+01-2.22594E-03 2.40379E-06-1.39828E-03 8.44863E-14-3.62317E-13
 -1      3897 2.00021E+01-2.11651E-03 3.94753E-08-1.71582E-03 1.71637E-13-3.07984E-13
 -1      3898 2.00024E+01-2.07058E-03-1.07797E-06-2.04187E-03 2.76349E-13-4.52842E-13
 -1      3899 1.51183E+01 5.88453E-01-7.30100E-03-1.94720E+00 1.50779E-13 2.39809E-13
 -1      3900 1.52636E+01 2.08539E-01 4.89958E-02-2.70648E+00 2.15542E-13 2.32720E-13
 -1      3901 1.64250E+01-1.96513E-01-1.25890E-03-2.82744E+00 1.95827E-13 1.06260E-13
 -1      3902 2.00027E+01-2.35287E-03 2.34281E-07-5.89826E-04-1.51437E-13-1.40053E-13
 -1      3903 2.00026E+01-2.29463E-03 2.14998E-06-9.61408E-04-8.71233E-14-2.46309E-13
 -1      3904 2.00031E+01-2.26243E-03-4.10994E-07-1.23153E-03-4.81471E-14-4.73628E-13
 -1      3905 2.00020E+01-2.28435E-03-4.48562E-06 7.71842E-04-2.27377E-13-5.57457E-14
 -1      3906 1.48891E+01 1.18248E+00 8.72559E-03 4.30757E-01-6.05210E-14 8.42338E-14
 -1      3907 1.40754E+01 1.20734E+00 4.22310E-02-8.43296E-02 3.15895E-14 1.70076E-13
 -1      3908 1.45995E+01 1.05606E+00-1.76476E-02-7.84826E-01 7.57176E-14 2.00847E-13
 -1      3909 2.00021E+01-2.15790E-03 3.80747E-06 1.55324E-03-1.61973E-13-4.04327E-14
 -1      3910 1.80747E+01 9.09037E-01-1.27801E-02 1.55419E+00-3.41542E-14 6.62409E-14
 -1      3911 1.79361E+01 8.27557E-01 7.92023E-03 1.74050E+00 1.48629E-14 1.43504E-14
 -1      3912 1.78146E+01 1.08767E+00 1.14314E-02 1.27829E+00 8.02852E-16 2.47218E-14
 -1      3913 2.00028E+01-2.36025E-03-8.29683E-07 2.70083E-04-3.64970E-13 3.98032E-14
 -1      3914 2.00028E+01-2.36511E-03 2.66038E-06-1.21280E-04-2.89378E-13-4.58541E-14
 -1      3915 2.00034E+01-2.34475E-03 4.30974E-07-3.16011E-04-3.27565E-13-2.96362E-13
 -1      3916 1.87543E+01 1.01338E+00 7.27482E-03 8.58642E-01 5.21337E-14 2.26429E-14
 -1      3917 1.95371E+01-1.53215E+00 3.00286E-02-2.90218E+00 2.81797E-13-1.63382E-13
 -1      3918 1.86428E+01 1.02530E+00-6.08467E-03 6.44094E-01 1.46367E-15-3.00029E-14
 -1      3919 1.84592E+01 1.07856E+00-2.49849E-03 7.10970E-01 7.65499E-14-2.78513E-14
 -1      3920 1.90894E+01-9.45107E-01 9.31647E-03-2.53644E+00 1.56146E-13-1.21941E-13
 -1      3921 1.88380E+01-5.35347E-01 5.79736E-03-2.29671E+00 1.28850E-13-8.84885E-14
 -1      3922 1.88625E+01-2.34474E-01 1.62376E-02-1.98672E+00 1.36135E-13-1.04840E-13
 -1      3923 1.87362E+01 3.74654E-03-4.09814E-03-1.78148E+00 7.85678E-14-5.05986E-14
 -1      3924 1.82312E+01-1.70135E-01 4.48515E-03-2.21860E+00 1.53998E-13-5.76561E-14
 -1      3925 1.88282E+01 2.05169E-01 1.08708E-02-1.54434E+00 1.00511E-14 8.89084E-15
 -1      3926 1.87935E+01 3.48242E-01-4.83634E-03-1.37344E+00-1.10014E-14-2.33485E-14
 -1      3927 1.83405E+01 2.80718E-01-1.15160E-03-1.65617E+00 7.25440E-14-8.72021E-14
 -1      3928 1.89090E+01 4.61871E-01 6.77083E-03-1.19486E+00 2.72575E-14 3.13550E-14
 -1      3929 1.89255E+01 5.35680E-01-4.79988E-03-1.05854E+00 1.18263E-13 8.57685E-16
 -1      3930 1.85423E+01 5.45236E-01 9.78193E-04-1.23599E+00 6.96325E-14 5.37907E-14
 -1      3931 1.90430E+01 5.90718E-01 4.15230E-03-9.25564E-01 1.38991E-13-3.26672E-14
 -1      3932 1.90840E+01 6.18692E-01-4.29835E-03-8.17654E-01 1.41940E-13 4.06363E-14
 -1      3933 1.87649E+01 6.73820E-01 1.97760E-03-9.27003E-01 1.31446E-13 1.85027E-14
 -1      3934 1.91943E+01 6.34050E-01 2.60865E-03-7.16516E-01 1.82922E-13-1.74475E-14
 -1      3935 1.92452E+01 6.30745E-01-3.66037E-03-6.31007E-01 2.36544E-13-1.27971E-14
 -1      3936 1.89813E+01 7.14357E-01 2.40764E-03-6.98628E-01 1.34167E-13-4.41665E-14
 -1      3937 1.93435E+01 6.20204E-01 1.58981E-03-5.54338E-01 1.83394E-13 4.76025E-14
 -1      3938 1.93954E+01 5.97851E-01-3.04214E-03-4.86371E-01 1.46620E-13 5.20126E-14
 -1      3939 1.91802E+01 6.95181E-01 2.49771E-03-5.27219E-01 2.03138E-13-8.45863E-14
 -1      3940 1.94798E+01 5.72143E-01 9.46713E-04-4.27855E-01 5.55950E-14-4.96408E-14
 -1      3941 1.95277E+01 5.39491E-01-2.50722E-03-3.73623E-01-4.96347E-14-1.15246E-13
 -1      3942 1.93545E+01 6.40325E-01 2.31097E-03-3.98573E-01 4.94179E-14-1.27537E-13
 -1      3943 1.95983E+01 5.06109E-01 5.65950E-04-3.28653E-01-7.56251E-14-8.91389E-14
 -1      3944 1.96401E+01 4.69160E-01-2.05386E-03-2.85334E-01-7.75498E-14-4.59334E-14
 -1      3945 1.95023E+01 5.66888E-01 2.04271E-03-3.00943E-01-4.12804E-14-1.97811E-13
 -1      3946 1.96977E+01 4.33229E-01 3.40231E-04-2.50686E-01-3.04258E-14-7.29890E-14
 -1      3947 1.97325E+01 3.96000E-01-1.66886E-03-2.16157E-01 1.13082E-14-2.39518E-14
 -1      3948 1.96246E+01 4.86320E-01 1.74814E-03-2.26370E-01-3.01040E-14-1.31888E-13
 -1      3949 1.97785E+01 3.60856E-01 2.08796E-04-1.89476E-01-3.25308E-14 7.74956E-14
 -1      3950 1.98065E+01 3.25863E-01-1.34202E-03-1.62092E-01-2.43754E-14 6.87153E-14
 -1      3951 1.97235E+01 4.06316E-01 1.45483E-03-1.69242E-01 1.65684E-14-3.12280E-14
 -1      3952 1.98426E+01 2.93504E-01 1.34171E-04-1.41608E-01-3.46338E-14 4.29115E-14
 -1      3953 1.98644E+01 2.62149E-01-1.06619E-03-1.20053E-01-5.08246E-14 9.05672E-14
 -1      3954 1.98016E+01 3.31687E-01 1.18050E-03-1.25472E-01-4.79370E-14 6.36881E-14
 -1      3955 1.98919E+01 2.33611E-01 9.28024E-05-1.04410E-01-3.21998E-14 1.04669E-13
 -1      3956 1.99085E+01 2.06514E-01-8.35729E-04-8.76016E-02 8.45492E-14 1.37555E-13
 -1      3957 1.98619E+01 2.65094E-01 9.35461E-04-9.20160E-02-8.00975E-15 1.40948E-13
 -1      3958 1.99291E+01 1.82172E-01 7.01186E-05-7.57456E-02 7.33673E-14 1.14356E-13
 -1      3959 1.99413E+01 1.59429E-01-6.45577E-04-6.27840E-02 8.18170E-14 7.72859E-14
 -1      3960 1.99075E+01 2.07673E-01 7.24438E-04-6.65643E-02 2.28503E-14 1.66716E-13
 -1      3961 1.99564E+01 1.39229E-01 5.73768E-05-5.38839E-02 1.14246E-13 8.54094E-14
 -1      3962 1.99650E+01 1.20609E-01-4.90871E-04-4.40155E-02 2.06791E-13 1.27269E-14
 -1      3963 1.99412E+01 1.59528E-01 5.48203E-04-4.73369E-02 7.32651E-14 1.09751E-13
 -1      3964 1.99758E+01 1.04240E-01 4.95500E-05-3.74128E-02 2.18261E-13-4.20182E-14
 -1      3965 1.99817E+01 8.93313E-02-3.66859E-04-3.00070E-02 1.22677E-13 2.58488E-14
 -1      3966 1.99654E+01 1.20122E-01 4.04934E-04-3.29449E-02 1.57591E-13-6.19767E-14
 -1      3967 1.99891E+01 7.63502E-02 4.39118E-05-2.51780E-02 1.12242E-13 1.05884E-13
 -1      3968 1.99930E+01 6.46562E-02-2.68976E-04-1.97109E-02 1.45544E-13 1.44519E-13
 -1      3969 1.99823E+01 8.85611E-02 2.91299E-04-2.22960E-02 2.15859E-13 1.49600E-13
 -1      3970 1.99979E+01 5.45702E-02 3.91081E-05-1.62393E-02 1.25943E-13 1.19436E-13
 -1      3971 2.00003E+01 4.55799E-02-1.92939E-04-1.22788E-02 7.93315E-14 1.03185E-13
 -1      3972 1.99937E+01 6.37896E-02 2.03252E-04-1.45271E-02 1.42261E-13 7.41614E-14
 -1      3973 2.00034E+01 3.78997E-02 3.45628E-05-9.83503E-03 5.45639E-14 5.57218E-14
 -1      3974 2.00047E+01 3.11265E-02-1.34851E-04-7.02946E-03 5.14026E-14 9.81649E-15
 -1      3975 2.00010E+01 4.47263E-02 1.36596E-04-8.95609E-03 3.49022E-14 9.61996E-15
 -1      3976 2.00064E+01 2.53984E-02 3.01095E-05-5.35403E-03 6.27110E-14-1.04271E-14
 -1      3977 2.00070E+01 2.04032E-02-9.12579E-05-3.42019E-03 3.98109E-15-3.81657E-14
 -1      3978 2.00053E+01 3.03453E-02 8.73285E-05-5.04513E-03 5.50943E-14-3.65672E-15
 -1      3979 2.00079E+01 1.62253E-02 2.57727E-05-2.31062E-03 1.13519E-14-8.68093E-14
 -1      3980 2.00079E+01 1.26268E-02-5.91726E-05-1.02367E-03 7.98494E-14-1.90830E-14
 -1      3981 2.00076E+01 1.97218E-02 5.18523E-05-2.37244E-03 2.10052E-14-4.96876E-14
 -1      3982 2.00082E+01 9.65516E-03 2.16450E-05-3.23493E-04-3.78326E-14 2.70529E-14
 -1      3983 2.00080E+01 7.13229E-03-3.60756E-05 4.92588E-04-6.56154E-14 6.81051E-14
 -1      3984 2.00084E+01 1.20532E-02 2.70609E-05-6.09741E-04 3.46249E-15-1.45103E-13
 -1      3985 2.00079E+01 5.08048E-03 1.78205E-05 9.02839E-04-7.74110E-14 7.98863E-14
 -1      3986 2.00075E+01 3.36915E-03-1.98916E-05 1.38375E-03-6.07654E-14 1.01984E-13
 -1      3987 2.00084E+01 6.66261E-03 1.03572E-05 4.96039E-04-6.71758E-14-5.24249E-14
 -1      3988 2.00071E+01 2.00423E-03 1.43589E-05 1.59396E-03 4.70545E-14 1.83469E-13
 -1      3989 2.00066E+01 8.91992E-04-8.93413E-06 1.84264E-03 5.41960E-14 1.58695E-13
 -1      3990 2.00077E+01 2.99341E-03-3.70281E-07 1.13761E-03 4.82710E-14 8.84245E-14
 -1      3991 2.00062E+01 2.81934E-05 1.12556E-05 1.91940E-03 3.03772E-14 2.50885E-13
 -1      3992 2.00057E+01-6.52665E-04-1.74365E-06 2.01255E-03 1.24305E-13 2.10721E-13
 -1      3993 2.00068E+01 5.97348E-04-6.75053E-06 1.45952E-03 7.01858E-14 1.50609E-13
 -1      3994 2.00051E+01-1.16125E-03 8.63493E-06 2.00507E-03 1.19186E-13 2.38876E-13
 -1      3995 2.00047E+01-1.54250E-03 2.92125E-06 1.99866E-03 5.26585E-14 2.93917E-13
 -1      3996 2.00058E+01-8.79686E-04-9.94384E-06 1.56941E-03 1.52611E-13 2.60689E-13
 -1      3997 2.00041E+01-1.80774E-03 6.17438E-06 1.94102E-03 4.68716E-14 3.52162E-13
 -1      3998 2.00037E+01-1.98680E-03 6.18004E-06 1.87701E-03 1.75975E-13 3.61192E-13
 -1      3999 2.00048E+01-1.71593E-03-1.26588E-05 1.54309E-03 7.39390E-14 3.33333E-13
 -1      4000 2.00032E+01-2.09852E-03 4.46283E-06 1.78536E-03 1.75441E-13 1.91378E-13
 -1      4001 2.00028E+01-2.15631E-03 5.70365E-06 1.68785E-03 1.35514E-13 1.11421E-13
 -1      4002 2.00038E+01-2.12563E-03-1.23970E-05 1.44287E-03 7.89657E-14 3.09095E-13
 -1      4003 1.96069E+01 5.42782E-01-2.29365E-03 3.05334E-01 1.21385E-13 3.52008E-14
 -1      4004 1.95460E+01 5.99343E-01-7.72645E-04 3.44990E-01 1.72782E-14-4.89556E-14
 -1      4005 1.92523E+01 7.81289E-01-3.58292E-03 4.56519E-01 2.75556E-14-3.74216E-14
 -1      4006 1.91439E+01 8.45358E-01-1.67115E-03 5.07346E-01 1.81686E-14-3.51630E-14
 -1      4007 1.97217E+01 4.40285E-01-1.84912E-03 2.42998E-01 1.51315E-13 5.02429E-14
 -1      4008 1.96769E+01 4.90376E-01-4.53224E-04 2.77173E-01 1.89481E-13 5.77808E-14
 -1      4009 1.95927E+01 5.50075E-01 2.55682E-03 2.38186E-01 1.05631E-13-1.66616E-13
 -1      4010 1.98070E+01 3.51404E-01-1.48388E-03 1.89713E-01 1.53501E-13 1.34366E-13
 -1      4011 1.97745E+01 3.94573E-01-2.25548E-04 2.18554E-01 1.53566E-13 4.80634E-14
 -1      4012 1.97103E+01 4.45871E-01 1.92607E-03 1.91266E-01 1.57002E-13-2.96612E-14
 -1      4013 1.98697E+01 2.76127E-01-1.18005E-03 1.45207E-01 1.03206E-13 3.44605E-13
 -1      4014 1.98465E+01 3.12505E-01-7.41647E-05 1.69038E-01 1.45745E-13 2.81884E-13
 -1      4015 1.97983E+01 3.55628E-01 1.44088E-03 1.50306E-01 4.40765E-14 2.29001E-13
 -1      4016 1.99151E+01 2.13640E-01-9.27345E-04 1.08856E-01-1.08267E-13 5.23637E-13
 -1      4017 1.98988E+01 2.43705E-01 1.91804E-05 1.28146E-01 5.08661E-14 4.90479E-13
 -1      4018 1.98634E+01 2.79228E-01 1.06780E-03 1.15581E-01-2.86594E-14 5.88569E-13
 -1      4019 1.99475E+01 1.62689E-01-7.18779E-04 7.97916E-02-5.67413E-14 3.94907E-13
 -1      4020 1.99363E+01 1.87106E-01 7.10867E-05 9.50988E-02-1.00562E-13 5.02627E-13
 -1      4021 1.99107E+01 2.15820E-01 7.82111E-04 8.69191E-02-5.81845E-14 5.35922E-13
 -1      4022 1.99701E+01 1.21825E-01-5.48660E-04 5.70305E-02-4.51364E-15 2.59062E-13
 -1      4023 1.99626E+01 1.41333E-01 9.50127E-05 6.89422E-02 1.75167E-14 3.57173E-13
 -1      4024 1.99446E+01 1.64129E-01 5.64780E-04 6.38322E-02 4.76698E-14 5.02973E-13
 -1      4025 1.99854E+01 8.95686E-02-4.11815E-04 3.95670E-02 3.26247E-14 1.62595E-13
 -1      4026 1.99806E+01 1.04909E-01 1.01122E-04 4.86567E-02 3.56437E-14 1.42931E-13
 -1      4027 1.99683E+01 1.22693E-01 4.00845E-04 4.56584E-02 3.93050E-14 3.09217E-13
 -1      4028 1.99955E+01 6.45031E-02-3.03379E-04 2.64456E-02 2.48184E-16 7.13454E-14
 -1      4029 1.99926E+01 7.63763E-02 9.66899E-05 3.32428E-02 4.13629E-14 1.25040E-13
 -1      4030 1.99845E+01 9.00087E-02 2.78443E-04 3.16662E-02 1.59470E-14 1.44588E-13
 -1      4031 2.00018E+01 4.53366E-02-2.18796E-04 1.68027E-02-9.93134E-14 6.63742E-14
 -1      4032 2.00002E+01 5.43777E-02 8.66801E-05 2.17764E-02-7.94629E-14 1.23210E-13
 -1      4033 1.99952E+01 6.46395E-02 1.88157E-04 2.11306E-02 6.47774E-15 1.24332E-13
 -1      4034 2.00054E+01 3.09270E-02-1.53901E-04 9.88736E-03-1.19196E-13-5.32640E-14
 -1      4035 2.00047E+01 3.76934E-02 7.43239E-05 1.34396E-02-7.59661E-14-2.38824E-14
 -1      4036 2.00019E+01 4.52695E-02 1.22517E-04 1.33799E-02-1.81174E-14 1.68150E-13
 -1      4037 2.00072E+01 2.02917E-02-1.04975E-04 5.06704E-03-1.07667E-13-9.72884E-14
 -1      4038 2.00071E+01 2.52603E-02 6.16103E-05 7.53276E-03-1.11140E-13-1.85881E-13
 -1      4039 2.00057E+01 3.07346E-02 7.56213E-05 7.82107E-03-6.54040E-14-6.44997E-14
 -1      4040 2.00078E+01 1.26032E-02-6.87833E-05 1.82249E-03-6.65515E-14-1.96371E-13
 -1      4041 2.00080E+01 1.61739E-02 4.96749E-05 3.47444E-03-1.65855E-13-1.90910E-13
 -1      4042 2.00077E+01 2.00320E-02 4.28336E-05 3.94946E-03-1.08560E-13-1.72162E-13
 -1      4043 2.00077E+01 7.17789E-03-4.25763E-05-2.62607E-04 1.29938E-14-2.05407E-13
 -1      4044 2.00080E+01 9.67956E-03 3.90903E-05 7.92832E-04 9.16616E-14-1.62315E-13
 -1      4045 2.00083E+01 1.23176E-02 2.05333E-05 1.34831E-03 1.47010E-14-2.52328E-13
 -1      4046 2.00070E+01 3.46101E-03-2.40682E-05-1.51487E-03-1.56711E-13-3.71964E-13
 -1      4047 2.00075E+01 5.15952E-03 3.00754E-05-8.86380E-04-4.21352E-14-3.64954E-13
 -1      4048 2.00081E+01 6.89411E-03 5.91635E-06-3.17860E-04 1.95419E-14-1.80349E-13
 -1      4049 2.00062E+01 1.00923E-03-1.14068E-05-2.18522E-03-5.09702E-15-5.28667E-13
 -1      4050 2.00067E+01 2.11617E-03 2.26383E-05-1.85399E-03-1.77171E-13-4.01910E-13
 -1      4051 2.00075E+01 3.19609E-03-3.16661E-06-1.31284E-03-7.52467E-15-3.10294E-13
 -1      4052 2.00052E+01-5.25905E-04-3.00741E-06-2.46221E-03 8.53507E-14-6.26759E-13
 -1      4053 2.00057E+01 1.55052E-04 1.66612E-05-2.33104E-03 6.54853E-14-5.18205E-13
 -1      4054 2.00066E+01 7.72173E-04-8.30941E-06-1.83932E-03 2.11548E-14-5.43113E-13
 -1      4055 2.00043E+01-1.41503E-03 2.40915E-06-2.48519E-03-1.82545E-13-5.10753E-13
 -1      4056 2.00047E+01-1.03158E-03 1.18975E-05-2.48268E-03-5.17446E-14-5.49747E-13
 -1      4057 2.00056E+01-7.31068E-04-1.04792E-05-2.04923E-03-7.94944E-14-4.03148E-13
 -1      4058 2.00034E+01-1.86418E-03 6.13454E-06-2.35267E-03-1.93834E-13-4.92030E-13
 -1      4059 2.00038E+01-1.68465E-03 7.47596E-06-2.43053E-03-2.58125E-13-5.91584E-13
 -1      4060 2.00045E+01-1.58813E-03-1.12786E-05-2.05804E-03-1.86532E-13-4.27311E-13
 -1      4061 2.00027E+01-2.03192E-03 5.03967E-06-2.14034E-03 1.83046E-13-6.05937E-13
 -1      4062 2.00031E+01-1.96342E-03 4.39771E-06-2.25716E-03-6.78685E-14-6.18870E-13
 -1      4063 2.00037E+01-1.99756E-03-1.21583E-05-1.94367E-03-1.36186E-13-7.46237E-13
 -1      4064 2.00031E+01-2.15645E-03-7.67825E-06-1.77114E-03 2.65176E-14-6.70300E-13
 -1      4065 1.94541E+01 6.57576E-01-2.85093E-03 3.76608E-01 3.53971E-14 3.02807E-14
 -1      4066 1.93723E+01 7.19252E-01-1.18607E-03 4.21771E-01 6.63614E-14-2.80086E-14
 -1      4067 1.94369E+01 6.67192E-01 3.38139E-03 2.90238E-01 6.14489E-14-6.38719E-14
 -1      4068 2.00026E+01-2.21308E-03-1.72227E-06 1.42459E-03-6.66659E-14-4.77792E-14
 -1      4069 2.00023E+01-2.27971E-03-7.17357E-07 9.94901E-04-2.52928E-13-2.55855E-14
 -1      4070 2.00025E+01-2.33471E-03 6.32541E-06 6.23039E-04-2.45172E-13 2.67687E-15
 -1      4071 2.00030E+01-2.28852E-03-6.48795E-06 1.11853E-03-8.39136E-14 1.87016E-13
 -1      4072 1.81924E+01 1.11890E+00-8.53814E-03 7.60736E-01 8.18503E-14-2.58569E-14
 -1      4073 1.79591E+01 1.15216E+00-2.19823E-03 8.44299E-01 4.04197E-14-7.66053E-14
 -1      4074 1.81669E+01 1.16930E+00 1.09016E-02 5.29301E-01 7.03022E-14-9.36838E-14
 -1      4075 1.89878E+01 9.07432E-01-4.60076E-03 5.45211E-01-2.19708E-14-2.09174E-14
 -1      4076 1.88459E+01 9.69155E-01-2.23762E-03 6.02612E-01-2.93364E-14-7.76884E-14
 -1      4077 1.89656E+01 9.26742E-01 5.91922E-03 4.04610E-01-3.84981E-14-6.32571E-14
 -1      4078 1.86185E+01 1.05510E+00 7.80472E-03 4.65228E-01 4.86080E-14-6.09293E-14
 -1      4079 1.51954E+01 9.88977E-01 4.19952E-02-1.32194E+00 1.36032E-13 3.28179E-13
 -1      4080 1.59021E+01 6.57705E-01-1.20309E-02-1.73884E+00 1.06812E-13 2.29771E-13
 -1      4081 1.54400E+01 1.10592E+00-9.24366E-03-7.10119E-01 4.75041E-14 1.60916E-13
 -1      4082 2.00031E+01-2.35005E-03 1.42608E-06 5.04179E-04-3.17789E-13 1.95602E-13
 -1      4083 1.75711E+01 1.25251E+00 1.51790E-02 6.08086E-01 6.08759E-14-5.18585E-14
 -1      4084 1.76013E+01 1.16199E+00-1.31767E-02 9.11432E-01 3.02175E-14-1.26854E-14
 -1      4085 1.73136E+01 1.16297E+00 1.82261E-04 1.02668E+00 3.16984E-14 8.67793E-15
 -1      4086 1.92325E+01 7.94479E-01 4.47203E-03 3.46133E-01 3.78136E-14-3.11290E-14
 -1      4087 1.71377E+01 9.49825E-01 1.44652E-02 1.65215E+00-1.16229E-13-1.33613E-14
 -1      4088 2.00037E+01-2.28637E-03-9.87739E-06-8.59874E-04-2.36269E-13-7.19204E-13
 -1      4089 2.00035E+01-2.20780E-03 4.88540E-06-1.29666E-03-5.94690E-16-7.83126E-13
 -1      4090 2.00038E+01-2.13856E-03 6.19857E-06-1.37905E-03-4.83570E-15-7.32165E-13
 -1      4091 1.71112E+01-1.18973E-01-1.22186E-02-2.49357E+00 1.97722E-13 3.13031E-14
 -1      4092 1.76717E+01-5.55072E-01 4.26538E-02-2.92037E+00 2.26981E-13 8.44116E-15
 -1      4093 1.85054E+01-1.10614E+00-1.62405E-02-2.96942E+00 2.52383E-13-1.09056E-13
 -1      4094 2.00038E+01-2.32514E-03-1.41308E-05 1.21192E-04-3.73678E-13 1.72983E-13
 -1      4095 2.00038E+01-2.29006E-03 5.62884E-06-3.53745E-04-3.18848E-13-3.02100E-13
 -1      4096 2.00042E+01-2.21304E-03 6.58113E-06-3.98645E-04-2.03073E-13-3.40034E-13
 -1      4097 1.64202E+01 1.04291E+00 4.08539E-03 1.38126E+00-1.49510E-13-4.00554E-14
 -1      4098 1.55418E+01 1.20814E+00 3.19322E-02 9.96610E-01-1.15741E-13-2.84816E-14
 -1      4099 1.55754E+01 1.21751E+00-1.71481E-02 3.96061E-01-7.40632E-14-1.19397E-14
 -1      4100 1.67982E+01 1.11601E+00-1.97040E-02 1.16721E+00-1.01137E-13-1.87225E-14
 -1      4101 1.78693E+01 4.34302E-01 7.01399E-03-1.62652E+00 1.31832E-13-4.69098E-14
 -1      4102 1.79518E+01 5.67248E-01-1.17855E-02-1.38687E+00 8.52261E-14 2.49319E-14
 -1      4103 1.82042E+01 6.69922E-01 6.37214E-03-1.17882E+00 9.70204E-14 1.10054E-13
 -1      4104 1.83014E+01 7.30931E-01-8.69758E-03-1.00843E+00 1.99898E-13 1.95690E-13
 -1      4105 1.77678E+01 8.04755E-01 8.16927E-03-1.13307E+00 1.97985E-13 5.87932E-14
 -1      4106 1.85104E+01 7.72701E-01 2.78268E-03-8.61557E-01 1.03286E-13 2.08821E-13
 -1      4107 1.86078E+01 7.87939E-01-9.82778E-03-7.40618E-01 3.44308E-14 1.26072E-13
 -1      4108 1.82045E+01 8.87766E-01 7.52065E-03-8.00080E-01 1.15286E-13 1.22687E-13
 -1      4109 1.87897E+01 7.98323E-01 2.27750E-03-6.29797E-01 4.52538E-14 1.15417E-13
 -1      4110 1.88853E+01 7.82655E-01-6.80190E-03-5.40558E-01 1.44873E-13 6.68110E-14
 -1      4111 1.85645E+01 9.14170E-01 1.34783E-02-5.60587E-01 3.94718E-14 7.76480E-14
 -1      4112 1.90332E+01 7.64624E-01 8.11228E-04-4.63955E-01 1.87292E-13-1.06114E-13
 -1      4113 1.91215E+01 7.31927E-01-5.09741E-03-3.97857E-01 1.41917E-13-1.73589E-13
 -1      4114 1.88734E+01 8.62784E-01 1.20658E-02-3.96856E-01 6.74037E-14-4.41796E-14
 -1      4115 1.92416E+01 6.99201E-01 2.48873E-04-3.42911E-01 8.08388E-14-2.03753E-13
 -1      4116 1.93187E+01 6.57331E-01-3.82728E-03-2.93230E-01-2.07607E-14-1.92011E-13
 -1      4117 1.91230E+01 7.82553E-01 9.50281E-03-2.81620E-01 6.71696E-14-3.03028E-13
 -1      4118 1.94157E+01 6.16796E-01-8.70001E-05-2.53665E-01 2.27399E-14-1.33168E-13
 -1      4119 1.94811E+01 5.71451E-01-2.89223E-03-2.15925E-01-6.21301E-15-9.79279E-14
 -1      4120 1.93271E+01 6.87585E-01 7.38633E-03-1.99691E-01 1.48383E-14-2.13351E-13
 -1      4121 1.95586E+01 5.28373E-01-2.64193E-04-1.87433E-01-8.74435E-14-3.62674E-14
 -1      4122 1.96125E+01 4.83481E-01-2.18929E-03-1.58582E-01-4.48248E-14-1.94669E-14
 -1      4123 1.94923E+01 5.88167E-01 5.71427E-03-1.41511E-01 1.29568E-14 6.53604E-14
 -1      4124 1.96735E+01 4.41426E-01-3.35174E-04-1.38062E-01 7.27792E-14-9.63674E-14
 -1      4125 1.97168E+01 3.99504E-01-1.65366E-03-1.15931E-01 7.48617E-14-7.97408E-14
 -1      4126 1.96242E+01 4.91486E-01 4.39604E-03-1.00177E-01-1.81698E-14-2.94340E-14
 -1      4127 1.97642E+01 3.60679E-01-3.40810E-04-1.01159E-01 2.98808E-14-3.14223E-14
 -1      4128 1.97983E+01 3.23156E-01-1.24271E-03-8.41706E-02-1.97066E-14 2.94151E-14
 -1      4129 1.97277E+01 4.02126E-01 3.35490E-03-7.07654E-02 7.85535E-14-1.92143E-13
 -1      4130 1.98344E+01 2.88746E-01-3.10242E-04-7.35484E-02-7.61333E-14 1.38784E-13
 -1      4131 1.98605E+01 2.56254E-01-9.26746E-04-6.05314E-02-5.73459E-14 1.69091E-13
 -1      4132 1.98077E+01 3.22635E-01 2.53337E-03-4.97983E-02 1.53797E-14-7.12848E-14
 -1      4133 1.98876E+01 2.26720E-01-2.62931E-04-5.29126E-02-2.17243E-14 1.63893E-13
 -1      4134 1.99072E+01 1.99342E-01-6.84160E-04-4.29810E-02-1.61647E-15 1.02594E-13
 -1      4135 1.98683E+01 2.54062E-01 1.88812E-03-3.48266E-02-3.93550E-14 5.40815E-14
 -1      4136 1.99271E+01 1.74661E-01-2.11089E-04-3.75398E-02 3.35419E-15 1.37218E-13
 -1      4137 1.99414E+01 1.52131E-01-4.98714E-04-3.00120E-02 1.10215E-13 9.03594E-14
 -1      4138 1.99134E+01 1.96414E-01 1.38531E-03-2.41276E-02 7.47949E-15 6.26265E-14
 -1      4139 1.99557E+01 1.31978E-01-1.61791E-04-2.61517E-02 9.66945E-14 5.38687E-14
 -1      4140 1.99659E+01 1.13827E-01-3.57901E-04-2.04962E-02 1.10949E-13-7.05650E-16
 -1      4141 1.99462E+01 1.49036E-01 9.97577E-04-1.64868E-02 8.15377E-14 1.54530E-13
 -1      4142 1.99759E+01 9.77125E-02-1.18637E-04-1.77837E-02 1.82978E-13 1.25986E-14
 -1      4143 1.99829E+01 8.33751E-02-2.51929E-04-1.35821E-02 1.87460E-13 2.67464E-14
 -1      4144 1.99695E+01 1.10887E-01 7.02311E-04-1.10451E-02 1.47442E-13 3.25972E-14
 -1      4145 1.99896E+01 7.07433E-02-8.29955E-05-1.17017E-02 1.65637E-13-6.50787E-14
 -1      4146 1.99942E+01 5.96330E-02-1.73056E-04-8.62264E-03 8.36839E-14-1.17895E-13
 -1      4147 1.99855E+01 8.07564E-02 4.80712E-04-7.19081E-03 9.08322E-14-9.82565E-14
 -1      4148 1.99986E+01 4.99206E-02-5.48957E-05-7.34338E-03 5.45903E-14-7.58159E-14
 -1      4149 2.00015E+01 4.14748E-02-1.15134E-04-5.12424E-03 3.61705E-14-9.02976E-14
 -1      4150 1.99961E+01 5.74002E-02 3.17151E-04-4.48505E-03 6.67121E-14-1.41566E-13
 -1      4151 2.00041E+01 3.41524E-02-3.36381E-05-4.27630E-03 4.68697E-15-1.09662E-13
 -1      4152 2.00057E+01 2.78592E-02-7.32779E-05-2.70936E-03 3.18973E-14-6.58164E-14
 -1      4153 2.00027E+01 3.96333E-02 1.98739E-04-2.61071E-03-2.50509E-15-7.28949E-14
 -1      4154 2.00071E+01 2.24522E-02-1.81960E-05-2.16794E-03 1.95639E-14-6.84915E-14
 -1      4155 2.00079E+01 1.78635E-02-4.36213E-05-1.08963E-03 3.47933E-14-1.14213E-13
 -1      4156 2.00065E+01 2.63814E-02 1.14959E-04-1.33676E-03 6.05296E-14-2.00706E-13
 -1      4157 2.00085E+01 1.39613E-02-7.46290E-06-7.63044E-04 5.31106E-14-4.63875E-14
 -1      4158 2.00087E+01 1.06967E-02-2.31181E-05-4.55145E-05-1.68723E-14-7.92248E-14
 -1      4159 2.00083E+01 1.67058E-02 5.73419E-05-4.93963E-04 1.00093E-13-2.20681E-13
 -1      4160 2.00087E+01 7.95392E-03-3.93734E-07 1.33384E-04-9.51262E-14 9.34634E-14
 -1      4161 2.00085E+01 5.69804E-03-9.38607E-06 5.89058E-04-7.11365E-14 1.64470E-13
 -1      4162 2.00089E+01 9.80983E-03 1.91642E-05 4.21692E-05 1.17061E-13 1.51930E-14
 -1      4163 2.00083E+01 3.83089E-03 3.92117E-06 6.69133E-04 3.94474E-14 2.48583E-13
 -1      4164 2.00079E+01 2.32802E-03-5.79044E-07 9.38543E-04 1.26013E-13 2.21219E-13
 -1      4165 2.00086E+01 5.03351E-03-4.80315E-06 3.63331E-04 4.46190E-14 1.17997E-13
 -1      4166 2.00074E+01 1.10783E-03 6.18887E-06 9.54926E-04 3.18714E-14 2.42383E-13
 -1      4167 2.00069E+01 1.54387E-04 4.42928E-06 1.09487E-03 8.33992E-14 2.52178E-13
 -1      4168 2.00079E+01 1.84152E-03-1.84199E-05 5.37160E-04 5.30008E-14 7.65273E-14
 -1      4169 2.00064E+01-5.98737E-04 7.10842E-06 1.07090E-03 1.13619E-13 2.37224E-13
 -1      4170 2.00059E+01-1.15997E-03 8.38377E-06 1.12297E-03 1.22499E-13 2.41283E-13
 -1      4171 2.00069E+01-1.91672E-04-2.33868E-05 6.13493E-04 1.12618E-13 3.45773E-13
 -1      4172 2.00053E+01-1.59446E-03 4.36119E-06 1.08035E-03 1.69327E-13 3.97675E-13
 -1      4173 2.00048E+01-1.88580E-03 7.14895E-06 1.06658E-03 1.21433E-13 3.35816E-13
 -1      4174 2.00058E+01-1.39740E-03-1.14883E-05 6.18986E-04 2.64752E-13 3.30464E-13
 -1      4175 2.00043E+01-2.10772E-03 7.85751E-06 7.98000E-04-4.07721E-14 4.97811E-13
 -1      4176 2.00038E+01-2.23386E-03 7.27632E-06 7.62116E-04-9.55128E-14 4.43635E-13
 -1      4177 1.97021E+01 4.30101E-01-1.73497E-03 1.34137E-01-2.99225E-15 1.21657E-13
 -1      4178 1.96513E+01 4.79412E-01-1.01938E-03 1.52827E-01 7.19783E-14-3.05278E-14
 -1      4179 1.97914E+01 3.42797E-01-1.40472E-03 1.06223E-01-7.28834E-14 3.29867E-13
 -1      4180 1.97540E+01 3.85336E-01-6.40778E-04 1.22748E-01-7.68657E-14 1.95856E-13
 -1      4181 1.97124E+01 4.29129E-01 4.12730E-03 8.88784E-02-1.31416E-13 2.09727E-13
 -1      4182 1.86192E+01 1.01905E+00-4.95489E-03 2.76843E-01-2.43592E-14-3.32617E-14
 -1      4183 1.84155E+01 1.07619E+00-6.38010E-03 2.92672E-01 5.41035E-14-8.61142E-14
 -1      4184 1.95836E+01 5.30779E-01-2.12104E-03 1.65015E-01 9.86115E-14-5.86916E-14
 -1      4185 1.95155E+01 5.86446E-01-1.56083E-03 1.85286E-01 9.80544E-14-9.17819E-14
 -1      4186 1.95979E+01 5.30219E-01 5.46782E-03 1.06359E-01 1.19012E-14-2.08398E-14
 -1      4187 1.98578E+01 2.68830E-01-1.12185E-03 8.20327E-02-7.50999E-14 4.34822E-13
 -1      4188 1.98306E+01 3.04704E-01-3.81992E-04 9.61433E-02-4.30267E-15 3.30250E-13
 -1      4189 1.97988E+01 3.41571E-01 3.08862E-03 7.17641E-02-6.83639E-14 1.82463E-13
 -1      4190 1.99065E+01 2.07429E-01-8.81914E-04 6.17846E-02-4.97851E-14 2.59186E-13
 -1      4191 1.98871E+01 2.37081E-01-2.09800E-04 7.34806E-02-5.83481E-14 2.82187E-13
 -1      4192 1.98633E+01 2.67457E-01 2.28536E-03 5.61972E-02 2.34017E-14 2.04500E-13
 -1      4193 1.99416E+01 1.57393E-01-6.81476E-04 4.53341E-02 7.44318E-15 3.38876E-13
 -1      4194 1.99280E+01 1.81457E-01-9.88671E-05 5.47771E-02 1.71765E-14 3.27136E-13
 -1      4195 1.99106E+01 2.05989E-01 1.66750E-03 4.27523E-02-1.26466E-14 4.03210E-14
 -1      4196 1.99663E+01 1.17320E-01-5.16961E-04 3.23210E-02 1.03774E-13 2.14995E-13
 -1      4197 1.99570E+01 1.36514E-01-3.02873E-05 3.97639E-02 1.34788E-13 3.53892E-13
 -1      4198 1.99446E+01 1.55955E-01 1.19611E-03 3.15956E-02 8.47474E-14 1.09345E-13
 -1      4199 1.99832E+01 8.57572E-02-3.84402E-04 2.22813E-02-1.90134E-14 1.99592E-13
 -1      4200 1.99771E+01 1.00813E-01 9.72104E-06 2.80151E-02 4.69648E-14 2.45395E-13
 -1      4201 1.99686E+01 1.15937E-01 8.40225E-04 2.26405E-02 1.81641E-13 1.63653E-13
 -1      4202 1.99944E+01 6.13069E-02-2.79572E-04 1.47231E-02-3.81115E-14 1.63959E-13
 -1      4203 1.99906E+01 7.29191E-02 3.09740E-05 1.90414E-02-3.19707E-14 1.03090E-13
 -1      4204 1.99849E+01 8.44703E-02 5.74914E-04 1.56609E-02 2.41865E-14 1.38490E-13
 -1      4205 2.00015E+01 4.26856E-02-1.98223E-04 9.17477E-03 1.88086E-14 6.71322E-14
 -1      4206 1.99992E+01 5.14885E-02 4.03086E-05 1.23515E-02-2.85554E-14 1.58055E-13
 -1      4207 1.99957E+01 6.01436E-02 3.80049E-04 1.03690E-02-1.26250E-14 1.87304E-13
 -1      4208 2.00056E+01 2.87560E-02-1.36310E-04 5.21213E-03-1.65251E-14 5.40473E-14
 -1      4209 2.00045E+01 3.53074E-02 4.23825E-05 7.49019E-03 4.72102E-14 1.23010E-13
 -1      4210 2.00025E+01 4.16609E-02 2.39423E-04 6.46530E-03-2.09123E-14 7.86236E-14
 -1      4211 2.00077E+01 1.85385E-02-9.01417E-05 2.47021E-03-2.33276E-14-1.15789E-13
 -1      4212 2.00073E+01 2.33163E-02 4.02966E-05 4.05650E-03-6.81936E-14 1.46633E-15
 -1      4213 2.00063E+01 2.78744E-02 1.40071E-04 3.66827E-03-3.48886E-14 1.66757E-13
 -1      4214 2.00085E+01 1.12085E-02-5.64684E-05 6.45856E-04 4.77886E-15-1.00515E-13
 -1      4215 2.00085E+01 1.46129E-02 3.60632E-05 1.71137E-03-1.82918E-14-1.88909E-13
 -1      4216 2.00082E+01 1.77964E-02 7.17076E-05 1.72914E-03-1.83155E-14 8.56345E-14
 -1      4217 2.00084E+01 6.08596E-03-3.25090E-05-5.05536E-04 1.09392E-13-9.20851E-14
 -1      4218 2.00087E+01 8.44539E-03 3.09499E-05 1.76816E-04 6.05429E-14-5.36755E-15
 -1      4219 2.00088E+01 1.05965E-02 2.62678E-05 4.37807E-04-7.75182E-15 4.66286E-14
 -1      4220 2.00077E+01 2.62010E-03-1.59275E-05-1.17636E-03-9.98818E-15-2.04154E-13
 -1      4221 2.00082E+01 4.19944E-03 2.57290E-05-7.69066E-04 7.08346E-14-1.28832E-13
 -1      4222 2.00086E+01 5.59096E-03-2.48670E-06-3.77147E-04 9.49931E-14-6.90507E-14
 -1      4223 2.00068E+01 3.72107E-04-4.80264E-06-1.51421E-03 2.66496E-14-1.57663E-13
 -1      4224 2.00073E+01 1.38139E-03 2.08534E-05-1.29915E-03-2.39311E-15-1.39708E-13
 -1      4225 2.00078E+01 2.22724E-03-1.92576E-05-8.51702E-04 2.67241E-14-3.41987E-14
 -1      4226 2.00057E+01-1.00226E-03 1.72484E-06-1.62873E-03-6.37808E-14-1.95964E-13
 -1      4227 2.00063E+01-3.99643E-04 1.65286E-05-1.54426E-03 3.81886E-14-2.45405E-13
 -1      4228 2.00069E+01 6.59579E-05-2.71956E-05-1.09127E-03 1.49407E-13-5.00603E-15
 -1      4229 2.00047E+01-1.75865E-03 5.87606E-06-1.59135E-03-8.96319E-14-4.81444E-13
 -1      4230 2.00052E+01-1.44472E-03 1.35022E-05-1.59699E-03-9.96258E-14-4.07652E-13
 -1      4231 2.00058E+01-1.23314E-03-2.42795E-05-1.17520E-03 9.27872E-14-2.28064E-13
 -1      4232 1.94279E+01 6.43742E-01-2.58186E-03 1.97364E-01 1.44777E-13-1.97298E-14
 -1      4233 1.93374E+01 7.04594E-01-2.32129E-03 2.18249E-01 1.40679E-13 2.62998E-14
 -1      4234 1.94483E+01 6.43875E-01 7.20089E-03 1.22179E-01 1.66976E-13-3.92159E-14
 -1      4235 1.81761E+01 1.13205E+00-5.81430E-03 2.88988E-01 9.77297E-14-6.85001E-14
 -1      4236 1.79185E+01 1.17861E+00-4.40653E-03 3.06891E-01 7.54634E-14-8.46347E-14
 -1      4237 1.82540E+01 1.13575E+00 1.41288E-02 8.05591E-02 5.61631E-14-1.09399E-13
 -1      4238 1.66318E+01 4.71740E-01 3.31934E-02-2.03858E+00 1.56519E-13 1.14400E-13
 -1      4239 1.75916E+01 4.28567E-02 1.20825E-04-2.17462E+00 1.68630E-13-5.72489E-14
 -1      4240 1.76202E+01 2.89351E-01-1.90610E-02-1.84826E+00 1.47068E-13-4.60946E-14
 -1      4241 1.64411E+01 7.28391E-01-1.94983E-02-1.51261E+00 1.45375E-13 1.96140E-13
 -1      4242 2.00034E+01-2.28979E-03 2.97595E-06 7.59701E-04-1.77417E-13 3.49357E-13
 -1      4243 1.92249E+01 7.66312E-01-3.15842E-03 2.28834E-01 3.36875E-14 8.08905E-14
 -1      4244 1.91056E+01 8.30166E-01-3.37549E-03 2.49047E-01-4.08966E-15 1.05793E-13
 -1      4245 1.92544E+01 7.67672E-01 9.44751E-03 1.33193E-01 1.35934E-13 5.51772E-14
 -1      4246 1.89614E+01 8.93786E-01-3.92423E-03 2.56298E-01-4.86856E-14 5.38240E-14
 -1      4247 1.88048E+01 9.57116E-01-4.78325E-03 2.74576E-01-4.23832E-14 4.83349E-14
 -1      4248 1.90044E+01 8.97289E-01 1.23169E-02 1.34811E-01-2.28585E-14 2.60207E-14
 -1      4249 1.57272E+01 1.30584E+00 3.34047E-02-1.20756E-01-3.13991E-14 3.86323E-15
 -1      4250 1.60120E+01 1.12124E+00-1.44260E-02-6.21176E-01 2.18332E-14 1.04957E-13
 -1      4251 1.61830E+01 1.25607E+00-4.23337E-03 3.80746E-01-1.01183E-13-4.29001E-14
 -1      4252 1.75927E+01 1.21061E+00-9.49705E-03 2.80967E-01 1.03416E-13-1.10321E-13
 -1      4253 1.72516E+01 1.24655E+00-6.07828E-03 3.00094E-01 7.24851E-14-6.64286E-14
 -1      4254 1.77247E+01 1.20770E+00 1.32389E-02 1.34241E-02 7.76132E-14-8.55420E-14
 -1      4255 2.00047E+01-2.03531E-03-6.66764E-06 3.72150E-04-4.07676E-14 3.99733E-13
 -1      4256 1.86812E+01 1.02570E+00 1.54416E-02 1.20562E-01-7.58710E-14-5.78633E-14
 -1      4257 2.00041E+01-2.04593E-03 5.53525E-06-1.45237E-03 1.71438E-14-7.43742E-13
 -1      4258 2.00044E+01-1.91317E-03 6.66023E-06-1.52122E-03-2.14234E-14-6.63336E-13
 -1      4259 2.00049E+01-1.83928E-03-1.92330E-05-1.11413E-03 1.17182E-13-5.97196E-13
 -1      4260 2.00043E+01-2.11774E-03-8.77189E-06-9.88590E-04 1.30657E-14-6.93103E-13
 -1      4261 2.00047E+01-2.11651E-03-7.89349E-06-6.64673E-05-2.24652E-14-6.67336E-14
 -1      4262 2.00046E+01-2.08594E-03 1.41999E-06-5.65256E-04 6.29586E-14-4.71554E-13
 -1      4263 2.00049E+01-1.94756E-03 8.18522E-06-6.36267E-04 1.88045E-13-4.29676E-13
 -1      4264 2.00052E+01-1.82701E-03 8.27279E-06 2.13083E-04 2.37107E-13 1.21241E-13
 -1      4265 1.73268E+01 6.52144E-01 1.81028E-02-1.54531E+00 1.82071E-13 2.83380E-14
 -1      4266 1.67448E+01 1.27083E+00 1.86345E-02 7.69310E-01-5.24684E-14-1.18656E-13
 -1      4267 1.79215E+01 9.79432E-01-9.85511E-04-6.53589E-01 1.50195E-13-7.34156E-14
 -1      4268 1.81240E+01 1.00769E+00 3.12583E-03-5.31313E-01 1.24746E-13-2.28145E-14
 -1      4269 1.83541E+01 9.97208E-01-6.94730E-03-2.75454E-01 1.91116E-14-4.86558E-14
 -1      4270 1.85283E+01 9.64165E-01-1.20840E-02-1.94687E-01-2.61533E-14-6.99905E-14
 -1      4271 1.87189E+01 9.13657E-01-8.86842E-03-1.69073E-01-4.70015E-14-8.29676E-14
 -1      4272 1.88650E+01 8.73452E-01-9.68305E-03-1.10107E-01 3.63286E-14-2.00753E-13
 -1      4273 1.90147E+01 8.16238E-01-7.37855E-03-9.74614E-02 9.86581E-14-2.31872E-13
 -1      4274 1.91349E+01 7.68711E-01-7.25765E-03-5.61029E-02 1.06920E-13-2.38456E-13
 -1      4275 1.92516E+01 7.09796E-01-5.86023E-03-5.18645E-02 1.02558E-13-1.89982E-13
 -1      4276 1.93491E+01 6.59651E-01-5.36090E-03-2.32439E-02 8.28577E-14-1.25813E-13
 -1      4277 1.94395E+01 6.02669E-01-4.61510E-03-2.41124E-02 3.87181E-14-8.12778E-14
 -1      4278 1.95176E+01 5.53549E-01-3.93836E-03-4.42379E-03 4.18886E-14-1.63437E-14
 -1      4279 1.95871E+01 5.00893E-01-3.61673E-03-8.13526E-03-1.72516E-14 2.18355E-14
 -1      4280 1.96487E+01 4.55203E-01-2.87685E-03 5.37099E-03-3.56319E-14 1.52913E-14
 -1      4281 1.97017E+01 4.08237E-01-2.81395E-03 3.48587E-04-6.70246E-14 1.23279E-14
 -1      4282 1.97496E+01 3.67353E-01-2.08501E-03 9.60743E-03-2.78769E-14-6.02422E-15
 -1      4283 1.97894E+01 3.26655E-01-2.16736E-03 4.26223E-03 8.06717E-15-9.74829E-14
 -1      4284 1.98260E+01 2.91186E-01-1.49531E-03 1.06160E-02 1.01045E-13-7.39832E-15
 -1      4285 1.98555E+01 2.56776E-01-1.64832E-03 5.53832E-03 7.79712E-14-3.62351E-14
 -1      4286 1.98830E+01 2.26792E-01-1.05788E-03 9.90898E-03-9.89310E-15 3.82933E-15
 -1      4287 1.99045E+01 1.98319E-01-1.23490E-03 5.41003E-03-3.80049E-14 1.96247E-14
 -1      4288 1.99247E+01 1.73536E-01-7.35441E-04 8.42607E-03 9.32126E-15-3.73481E-14
 -1      4289 1.99401E+01 1.50434E-01-9.09202E-04 4.63163E-03 1.02634E-13-7.80714E-15
 -1      4290 1.99546E+01 1.30363E-01-4.99822E-04 6.71945E-03 1.55939E-13 9.86415E-14
 -1      4291 1.99653E+01 1.11961E-01-6.55953E-04 3.63995E-03 9.56811E-14 1.68281E-13
 -1      4292 1.99755E+01 9.60114E-02-3.29548E-04 5.08839E-03 1.24936E-13 1.52550E-13
 -1      4293 1.99828E+01 8.16109E-02-4.61947E-04 2.66893E-03 1.12488E-13 2.03088E-13
 -1      4294 1.99897E+01 6.91673E-02-2.08209E-04 3.67397E-03 4.54349E-14 2.27106E-13
 -1      4295 1.99943E+01 5.80965E-02-3.15755E-04 1.82806E-03-2.29592E-14 2.02904E-13
 -1      4296 1.99988E+01 4.85640E-02-1.23257E-04 2.52341E-03-3.87023E-14 1.86754E-13
 -1      4297 2.00017E+01 4.02071E-02-2.07598E-04 1.15448E-03-5.94816E-14 1.96908E-13
 -1      4298 2.00044E+01 3.30413E-02-6.51192E-05 1.63215E-03-2.13334E-14 1.54419E-13
 -1      4299 2.00060E+01 2.68548E-02-1.29231E-04 6.46286E-04-3.31754E-14 8.47839E-14
 -1      4300 2.00074E+01 2.15762E-02-2.65182E-05 9.70269E-04 5.57644E-14 4.42788E-14
 -1      4301 2.00081E+01 1.70940E-02-7.38238E-05 2.83000E-04 7.53245E-14-1.40506E-15
 -1      4302 2.00088E+01 1.32924E-02-1.95968E-06 4.98328E-04 2.48258E-14 3.44218E-14
 -1      4303 2.00089E+01 1.01247E-02-3.58146E-05 3.75196E-05 7.80523E-14-1.09330E-13
 -1      4304 2.00090E+01 7.45778E-03 1.26660E-05 1.76257E-04 1.57536E-13-1.12867E-13
 -1      4305 2.00088E+01 5.28533E-03-1.07774E-05-1.17398E-04 7.58080E-14-7.46944E-14
 -1      4306 2.00085E+01 3.47346E-03 2.03599E-05-3.21314E-05-3.23456E-14-7.71026E-14
 -1      4307 2.00081E+01 2.03927E-03 4.62787E-06-2.06094E-04 6.80084E-14-1.18783E-13
 -1      4308 2.00076E+01 8.58234E-04 2.30234E-05-1.57213E-04 1.88531E-13-5.69666E-14
 -1      4309 2.00071E+01-4.15534E-05 1.21592E-05-2.49134E-04 1.25191E-13-3.46980E-14
 -1      4310 2.00065E+01-7.70816E-04 1.93994E-05-2.22173E-04 2.46711E-13 7.10541E-14
 -1      4311 2.00060E+01-1.29953E-03 8.84877E-06-2.65966E-04 2.27647E-13-3.75460E-14
 -1      4312 2.00053E+01-1.80005E-03 6.19057E-06-6.86612E-04 2.27726E-13-3.57434E-13
 -1      4313 1.63717E+01 1.06937E+00 2.96668E-02-1.01592E+00 5.47972E-14 1.78874E-13
 -1      4314 1.68596E+01 8.02372E-01-3.73303E-03-1.31404E+00 1.61915E-13 1.04948E-13
 -1      4315 1.70648E+01 8.68679E-01-1.93953E-02-1.11848E+00 1.75729E-13 1.54657E-13
 -1      4316 1.64446E+01 1.16145E+00-1.13792E-02-4.93148E-01-1.52779E-14 4.31372E-15
 -1      4317 1.74138E+01 9.30753E-01 2.19709E-04-9.51698E-01 1.58737E-13 4.40762E-14
 -1      4318 1.76531E+01 9.65765E-01-1.12833E-02-7.66760E-01 1.28885E-13-1.79586E-14
 -1      4319 1.76523E+01 1.10315E+00 5.17274E-03-4.77900E-01 8.70091E-14-4.83708E-14
 -1      4320 1.70897E+01 1.10340E+00 1.42448E-02-7.01231E-01 7.33523E-14 5.12849E-14
 -1      4321 1.66827E+01 1.26052E+00-1.32781E-02 3.01707E-01-4.43152E-14-5.55013E-14
 -1      4322 1.79109E+01 1.11530E+00-9.88467E-03-1.68601E-01 1.41677E-13-1.02012E-13
 -1      4323 1.76066E+01 1.16273E+00-7.01682E-03-2.14425E-01 1.21776E-13-1.32653E-14
 -1      4324 2.00057E+01-1.46855E-03-9.85778E-06 2.17811E-04 2.63404E-13 8.05616E-14
 -1      4325 1.81203E+01 1.03491E+00-8.87970E-03-3.25268E-01 1.08691E-13-4.65384E-14
 -1      4326 1.68686E+01 1.27885E+00 1.68669E-02-4.07326E-02 2.77410E-14-2.35970E-14
 -1      4327 1.73485E+01 1.16233E+00-7.33135E-03-2.99756E-01 4.97507E-14-5.44011E-14
 -1      4328 1.70203E+01 1.16525E+00-5.19360E-03-4.12225E-01 5.74573E-14-2.12268E-14
 -3
    1PSTEP                         3           1           1          
  100CL  101 1.000000000        4328                     0    1           1
 -4  TOSTRAIN    6    1
 -5  EXX         1    4    1    1
 -5  EYY         1    4    2    2
 -5  EZZ         1    4    3    3
 -5  EXY         1    4    1    2
 -5  EYZ         1    4    2    3
 -5  EZX         1    4    3    1
 -1         1 3.06006E-04-9.45377E-05-7.84110E-05 8.78365E-08-6.01049E-19-3.68594E-18
 -1         2 3.57965E-05-1.08461E-04 1.92624E-05-6.81797E-07 2.15573E-18 8.54180E-19
 -1         3 9.52373E-05-2.85710E-05-2.85715E-05 1.23094E-10-1.97597E-18-2.79668E-18
 -1         4 9.52373E-05-2.85710E-05-2.85715E-05-1.14867E-10 2.51081E-19 8.46328E-19
 -1         5 1.66498E-04-2.40497E-05-5.09243E-05 4.07963E-05-1.86188E-19 1.54165E-17
 -1         6 1.62103E-04 2.98572E-10-5.00418E-05-5.76224E-05-1.02195E-18 1.47714E-17
 -1         7 1.03491E-04-8.55805E-07-4.41975E-05-2.90965E-05-1.59560E-19 2.43437E-18
 -1         8 9.51512E-05-1.27122E-08-4.04175E-05-1.74636E-05-1.67395E-19-1.22736E-18
 -1         9 8.98579E-05 2.79237E-09-3.81645E-05-1.08051E-05-1.51460E-19-3.13843E-18
 -1        10 8.52851E-05-2.57210E-08-3.61826E-05-5.29157E-06-8.69268E-20-4.03718E-18
 -1        11 8.05250E-05-2.09302E-08-3.41836E-05-5.38396E-07-4.21399E-20-4.52553E-18
 -1        12 7.54549E-05 2.43940E-08-3.21368E-05 3.12579E-06-2.63639E-20-4.75519E-18
 -1        13 7.02386E-05 1.09478E-07-3.01113E-05 5.34119E-06 5.18808E-21-4.91190E-18
 -1        14 6.57981E-05 2.08720E-07-2.84487E-05 5.71770E-06 3.17108E-20-5.05623E-18
 -1        15 6.32207E-05 2.86952E-07-2.75303E-05 4.42330E-06 3.85532E-20-5.05642E-18
 -1        16 6.34114E-05 3.12952E-07-2.76660E-05 2.23614E-06 5.03191E-20-4.98407E-18
 -1        17 6.66755E-05 2.75185E-07-2.89629E-05 3.30366E-07 6.88744E-20-4.70077E-18
 -1        18 7.24560E-05 2.01793E-07-3.12366E-05-2.06120E-07 8.90973E-20-4.26706E-18
 -1        19 8.01393E-05 1.12860E-07-3.42908E-05 1.30413E-06 1.38860E-19-3.47577E-18
 -1        20 8.88696E-05 3.33620E-08-3.78156E-05 5.18996E-06 1.60619E-19-2.14018E-18
 -1        21 9.84605E-05-6.56659E-08-4.16821E-05 1.19287E-05 2.18323E-19 2.71084E-19
 -1        22 1.10858E-04-7.64777E-07-4.61792E-05 2.38746E-05 4.66927E-20 4.99988E-18
 -1        23 1.31292E-04-4.42981E-05-4.09735E-05-4.03266E-06-6.47927E-19 1.12742E-17
 -1        24 1.11606E-04-3.33258E-05-3.45920E-05 5.60546E-07-2.29017E-19 8.39530E-18
 -1        25 1.07748E-04-3.24305E-05-3.23824E-05 3.70056E-07-1.17030E-20 5.67185E-18
 -1        26 1.04509E-04-3.14237E-05-3.11941E-05 5.22533E-08-1.18489E-20 3.81810E-18
 -1        27 1.00348E-04-3.01507E-05-2.99544E-05-1.53356E-07-9.50087E-20 2.61009E-18
 -1        28 9.50259E-05-2.85407E-05-2.84353E-05-2.99856E-07-4.01785E-20 2.09003E-18
 -1        29 8.92838E-05-2.68148E-05-2.68277E-05-3.43926E-07 7.42258E-20 1.67404E-18
 -1        30 8.45368E-05-2.53901E-05-2.55210E-05-2.49841E-07-1.15403E-19 4.11208E-19
 -1        31 8.22983E-05-2.47169E-05-2.49162E-05-3.70199E-08 1.47081E-19-1.08433E-18
 -1        32 8.34166E-05-2.50491E-05-2.52317E-05 2.08042E-07-2.62934E-19-2.30619E-18
 -1        33 8.75832E-05-2.62930E-05-2.63875E-05 3.79586E-07 2.35115E-19-2.62968E-18
 -1        34 9.34838E-05-2.80537E-05-2.80413E-05 4.21279E-07-1.57793E-19-2.90276E-18
 -1        35 9.94685E-05-2.98373E-05-2.97504E-05 3.49545E-07 4.03019E-20-3.59532E-18
 -1        36 1.04245E-04-3.12594E-05-3.11484E-05 2.23214E-07-3.10631E-20-2.88436E-18
 -1        37 1.07206E-04-3.21413E-05-3.20451E-05 9.86847E-08-2.55327E-19-3.20805E-18
 -1        38 1.08367E-04-3.24888E-05-3.24244E-05 6.73087E-09-6.69156E-20-3.78374E-18
 -1        39 1.08111E-04-3.24152E-05-3.23824E-05-4.65763E-08-5.23618E-20-3.89266E-18
 -1        40 1.06931E-04-3.20668E-05-3.20570E-05-6.87109E-08-3.84604E-19-4.38301E-18
 -1        41 1.05275E-04-3.15758E-05-3.15793E-05-7.07907E-08 1.40460E-19-5.64886E-18
 -1        42 1.03475E-04-3.10410E-05-3.10505E-05-6.23737E-08 1.62903E-19-5.38163E-18
 -1        43 1.01749E-04-3.05267E-05-3.05375E-05-4.99532E-08-5.66095E-19-4.87944E-18
 -1        44 1.00213E-04-3.00682E-05-3.00779E-05-3.72617E-08 5.33946E-19-4.08385E-18
 -1        45 9.89177E-05-2.96808E-05-2.96885E-05-2.60995E-08-1.56585E-21-2.92456E-18
 -1        46 9.78693E-05-2.93666E-05-2.93722E-05-1.71013E-08 1.79479E-19-4.21630E-18
 -1        47 9.70490E-05-2.91203E-05-2.91240E-05-1.02814E-08 5.25545E-20-3.09662E-18
 -1        48 9.64266E-05-2.89330E-05-2.89353E-05-5.37115E-09 2.61792E-19-1.51832E-18
 -1        49 9.59683E-05-2.87948E-05-2.87960E-05-2.00864E-09-3.06966E-20-2.10133E-18
 -1        50 9.56412E-05-2.86959E-05-2.86964E-05 1.65697E-10 1.26068E-19-2.58399E-18
 -1        51 9.54159E-05-2.86277E-05-2.86276E-05 1.46662E-09-3.62030E-19-2.03986E-18
 -1        52 9.52675E-05-2.85825E-05-2.85822E-05 2.15080E-09-5.34490E-19-2.58789E-18
 -1        53 9.51754E-05-2.85544E-05-2.85539E-05 2.41763E-09-4.85165E-21-2.96851E-18
 -1        54 9.51237E-05-2.85384E-05-2.85379E-05 2.41634E-09-4.52646E-19-1.86730E-18
 -1        55 9.50997E-05-2.85308E-05-2.85303E-05 2.25484E-09-1.87530E-19-2.71722E-18
 -1        56 9.50940E-05-2.85289E-05-2.85284E-05 2.00861E-09-2.43029E-20-2.18971E-18
 -1        57 9.50999E-05-2.85304E-05-2.85300E-05 1.72846E-09 1.16534E-19-1.64794E-18
 -1        58 9.51123E-05-2.85340E-05-2.85336E-05 1.44701E-09 3.11731E-19 6.57391E-19
 -1        59 9.51279E-05-2.85386E-05-2.85383E-05 1.18385E-09-1.63876E-19-9.62706E-19
 -1        60 9.51446E-05-2.85435E-05-2.85432E-05 9.49478E-10-3.61310E-19-2.93942E-18
 -1        61 9.51607E-05-2.85483E-05-2.85481E-05 7.48340E-10-2.10678E-19-1.09559E-18
 -1        62 9.51757E-05-2.85527E-05-2.85526E-05 5.80978E-10-1.64598E-19-2.84616E-18
 -1        63 9.51889E-05-2.85567E-05-2.85566E-05 4.45585E-10-3.96932E-19-4.33014E-18
 -1        64 9.52004E-05-2.85601E-05-2.85600E-05 3.39031E-10 4.25569E-19-4.53190E-18
 -1        65 9.52102E-05-2.85630E-05-2.85630E-05 2.57463E-10 3.20797E-19-1.77777E-18
 -1        66 9.52183E-05-2.85654E-05-2.85654E-05 1.96466E-10 3.89618E-19-1.45483E-18
 -1        67 9.52249E-05-2.85674E-05-2.85674E-05 1.50706E-10 3.88925E-19 2.25057E-18
 -1        68 9.52302E-05-2.85690E-05-2.85690E-05 1.12569E-10 3.09758E-19 3.37572E-18
 -1        69 9.52341E-05-2.85702E-05-2.85701E-05 6.87340E-11-5.40013E-19 2.18459E-18
 -1        70 9.52365E-05-2.85709E-05-2.85709E-05-1.46193E-11 7.48247E-19 4.49963E-18
 -1        71 9.52374E-05-2.85712E-05-2.85712E-05-1.28957E-10-2.61721E-19 4.15328E-18
 -1        72 1.31016E-04-3.92944E-05-4.31750E-05-3.16942E-06 2.04611E-19 1.41037E-17
 -1        73 1.27926E-04-3.81216E-05-3.94005E-05-7.11615E-07 1.12728E-19 1.08435E-17
 -1        74 1.28542E-04-3.85290E-05-3.85901E-05-4.25062E-07 1.01027E-19 8.70938E-18
 -1        75 1.28791E-04-3.86787E-05-3.83249E-05-3.24392E-07 9.82873E-20 7.30103E-18
 -1        76 1.25880E-04-3.78641E-05-3.72848E-05-5.70142E-08 4.66745E-20 6.66626E-18
 -1        77 1.17872E-04-3.55189E-05-3.49074E-05 4.52292E-07-1.15192E-19 6.21876E-18
 -1        78 1.05124E-04-3.16723E-05-3.14375E-05 1.03369E-06 6.89941E-21 6.18361E-18
 -1        79 9.17094E-05-2.74991E-05-2.80127E-05 1.22857E-06 9.20619E-20 4.50182E-18
 -1        80 8.41874E-05-2.50512E-05-2.61884E-05 6.94281E-07-3.03741E-20 3.59863E-18
 -1        81 8.70669E-05-2.58746E-05-2.69069E-05-3.07862E-07 5.16740E-20 2.37754E-18
 -1        82 9.86428E-05-2.94650E-05-2.98297E-05-1.02501E-06 1.84059E-19 1.76193E-18
 -1        83 1.12562E-04-3.37871E-05-3.34882E-05-1.10109E-06 9.74485E-20 3.14779E-19
 -1        84 1.22997E-04-3.69902E-05-3.64152E-05-7.38829E-07-4.97136E-21 7.45521E-19
 -1        85 1.27656E-04-3.83837E-05-3.78818E-05-3.05894E-07 1.39815E-19-7.92518E-19
 -1        86 1.27306E-04-3.82439E-05-3.79483E-05-5.38873E-09-6.52513E-20-1.40755E-18
 -1        87 1.23889E-04-3.71874E-05-3.70740E-05 1.40524E-07-4.92516E-20-1.34377E-18
 -1        88 1.19181E-04-3.57577E-05-3.57541E-05 1.81952E-07-3.36120E-21-1.20171E-18
 -1        89 1.14348E-04-3.43012E-05-3.43464E-05 1.71146E-07 2.47965E-19-1.71591E-18
 -1        90 1.09990E-04-3.29927E-05-3.30508E-05 1.41213E-07-2.05417E-19-3.22045E-18
 -1        91 1.06331E-04-3.18966E-05-3.19508E-05 1.08706E-07 4.00306E-20-2.03576E-18
 -1        92 1.03396E-04-3.10174E-05-3.10621E-05 8.02502E-08-3.20411E-19-2.16246E-18
 -1        93 1.01110E-04-3.03330E-05-3.03675E-05 5.75727E-08-2.71283E-19-1.03666E-18
 -1        94 9.93707E-05-2.98119E-05-2.98377E-05 4.03663E-08 4.76228E-19-2.81974E-18
 -1        95 9.80715E-05-2.94225E-05-2.94414E-05 2.76808E-08-2.86263E-19-3.96180E-18
 -1        96 9.71180E-05-2.91366E-05-2.91502E-05 1.85050E-08-5.88206E-20-1.71169E-18
 -1        97 9.64307E-05-2.89303E-05-2.89400E-05 1.19680E-08 1.15478E-19-1.23179E-18
 -1        98 9.59451E-05-2.87846E-05-2.87913E-05 7.37964E-09-4.45084E-20-2.14622E-18
 -1        99 9.56103E-05-2.86840E-05-2.86886E-05 4.21388E-09-8.60383E-20-2.83854E-18
 -1       100 9.53865E-05-2.86167E-05-2.86198E-05 2.07747E-09 3.08971E-20-6.90811E-19
 -1       101 9.52431E-05-2.85735E-05-2.85755E-05 6.78942E-10-5.30602E-19-8.57781E-19
 -1       102 9.51569E-05-2.85475E-05-2.85488E-05-1.96667E-10 3.64116E-19-2.31312E-18
 -1       103 9.51103E-05-2.85335E-05-2.85341E-05-7.07325E-10-8.51833E-21-1.60526E-18
 -1       104 9.50905E-05-2.85274E-05-2.85277E-05-9.68550E-10 6.50451E-19-6.70526E-19
 -1       105 9.50880E-05-2.85266E-05-2.85267E-05-1.06421E-09-1.29502E-20-1.96081E-18
 -1       106 9.50961E-05-2.85290E-05-2.85289E-05-1.05455E-09-5.85203E-19-1.02353E-18
 -1       107 9.51101E-05-2.85331E-05-2.85330E-05-9.82204E-10 4.42219E-19-6.49595E-19
 -1       108 9.51267E-05-2.85381E-05-2.85379E-05-8.76771E-10-9.42602E-20-2.34277E-18
 -1       109 9.51440E-05-2.85433E-05-2.85430E-05-7.58233E-10 2.24294E-19-1.63431E-18
 -1       110 9.51605E-05-2.85482E-05-2.85480E-05-6.39612E-10-4.93891E-21-3.89648E-18
 -1       111 9.51757E-05-2.85527E-05-2.85525E-05-5.28962E-10 5.01862E-19-7.36249E-19
 -1       112 9.51890E-05-2.85567E-05-2.85566E-05-4.30879E-10-4.70188E-19 2.07578E-18
 -1       113 9.52006E-05-2.85602E-05-2.85600E-05-3.47631E-10 3.18839E-19 3.58841E-18
 -1       114 9.52103E-05-2.85631E-05-2.85630E-05-2.79962E-10-5.29699E-19 4.29392E-18
 -1       115 9.52184E-05-2.85655E-05-2.85654E-05-2.27519E-10 3.19389E-19 4.06222E-18
 -1       116 9.52251E-05-2.85675E-05-2.85674E-05-1.88589E-10 5.01084E-19 2.72810E-19
 -1       117 9.52303E-05-2.85691E-05-2.85690E-05-1.59241E-10 2.20094E-19-3.67067E-18
 -1       118 9.52342E-05-2.85702E-05-2.85702E-05-1.30504E-10-7.48870E-19-2.43673E-18
 -1       119 9.52366E-05-2.85710E-05-2.85709E-05-6.84875E-11 3.74016E-19-4.17108E-18
 -1       120 9.52374E-05-2.85713E-05-2.85712E-05 8.73603E-11 9.86806E-19-4.33731E-18
 -1       121 9.52371E-05-2.85709E-05-2.85712E-05 1.39499E-10-3.09093E-18 1.30034E-18
 -1       122 9.52373E-05-2.85718E-05-2.85709E-05-2.52795E-11-2.37095E-18-6.01676E-19
 -1       123 9.52381E-05-2.85742E-05-2.85702E-05-1.20893E-10-2.44241E-18 4.88391E-19
 -1       124 9.52390E-05-2.85774E-05-2.85692E-05-1.57441E-10-3.89558E-18 5.11098E-19
 -1       125 9.52401E-05-2.85809E-05-2.85682E-05-1.53862E-10 7.49681E-19-1.83506E-18
 -1       126 9.52410E-05-2.85840E-05-2.85673E-05-1.27080E-10-6.13656E-18-2.06886E-19
 -1       127 9.52417E-05-2.85863E-05-2.85667E-05-8.24003E-11-4.75411E-18 2.31884E-18
 -1       128 9.52420E-05-2.85876E-05-2.85663E-05-2.81508E-11-2.56032E-18 1.16098E-19
 -1       129 9.52420E-05-2.85876E-05-2.85663E-05 2.91330E-11 2.33227E-18 1.46579E-18
 -1       130 9.52417E-05-2.85863E-05-2.85667E-05 8.31034E-11 4.12978E-18-6.60868E-19
 -1       131 9.52410E-05-2.85839E-05-2.85674E-05 1.28697E-10-5.92279E-19-6.13773E-19
 -1       132 9.52400E-05-2.85808E-05-2.85683E-05 1.54191E-10-4.41039E-18 2.25920E-18
 -1       133 9.52390E-05-2.85773E-05-2.85693E-05 1.56501E-10-5.77697E-19 1.27401E-19
 -1       134 9.52380E-05-2.85741E-05-2.85702E-05 1.31694E-10-3.94359E-18-8.85973E-19
 -1       135 9.52373E-05-2.85718E-05-2.85709E-05 3.55969E-11-5.74478E-18 4.54876E-19
 -1       136 9.52371E-05-2.85710E-05-2.85712E-05-2.42133E-10-4.06535E-18-5.25340E-19
 -1       137 2.68594E-05-8.95566E-05 1.56582E-05-2.32057E-05 1.21009E-17 2.79142E-18
 -1       138 8.95830E-06-4.09375E-05 4.85196E-06-2.19707E-05 1.73718E-17 7.31678E-18
 -1       139 9.69920E-06 1.07103E-05-1.34224E-05 1.75964E-05 1.78610E-17 1.29300E-17
 -1       140 5.56581E-05 2.53162E-05-3.41273E-05 7.34805E-05 1.36521E-17 1.49755E-17
 -1       141 1.48535E-04-3.79062E-06-5.57710E-05 1.13044E-04 7.86025E-18 1.38333E-17
 -1       142 2.47099E-04-5.56234E-05-7.12085E-05 9.99827E-05 2.44591E-18 6.59034E-18
 -1       143 3.11976E-04-9.44486E-05-7.98175E-05 3.59785E-05-5.78100E-20-2.45068E-18
 -1       144 3.06715E-04-9.17155E-05-7.90435E-05-4.47877E-05 1.55052E-18-1.13039E-17
 -1       145 2.36791E-04-5.06192E-05-6.96146E-05-1.01818E-04 6.12627E-18-1.78250E-17
 -1       146 1.34934E-04 9.84623E-07-5.29746E-05-1.08896E-04 1.24997E-17-2.11246E-17
 -1       147 4.82851E-05 2.67059E-05-3.24768E-05-6.86477E-05 1.72566E-17-1.88787E-17
 -1       148 8.08309E-06 6.70057E-06-1.18011E-05-1.27182E-05 1.86470E-17-1.31911E-17
 -1       149 9.88847E-06-4.38212E-05 5.41280E-06 2.27166E-05 1.55312E-17-6.39679E-18
 -1       150 2.77513E-05-8.94000E-05 1.54463E-05 1.86880E-05 7.41948E-18-1.47599E-18
 -1       151 3.17371E-05-9.67730E-05 1.68859E-05-5.45304E-06-2.68605E-18-4.20790E-19
 -1       152 1.83373E-05-6.39888E-05 1.01494E-05-2.11443E-05-1.21295E-17-3.46103E-18
 -1       153 4.75232E-06-1.31020E-05-2.94567E-06-6.19381E-06-1.72083E-17-9.07765E-18
 -1       154 2.25726E-05 2.56050E-05-2.27922E-05 4.42675E-05-1.78004E-17-1.50170E-17
 -1       155 8.57361E-05 2.08400E-05-4.29149E-05 9.41519E-05-1.42306E-17-1.88346E-17
 -1       156 1.83345E-04-2.22857E-05-6.15290E-05 1.12105E-04-8.56710E-18-1.83637E-17
 -1       157 2.70993E-04-7.30019E-05-7.38811E-05 7.42027E-05-2.80492E-18-1.30267E-17
 -1       158 2.77824E-04-7.66200E-05-7.49007E-05-7.11854E-05-1.75230E-18 5.71345E-18
 -1       159 2.04282E-04-3.27881E-05-6.47505E-05-1.11078E-04-5.45902E-18 1.26974E-17
 -1       160 1.16119E-04 1.10627E-05-4.96189E-05-1.07455E-04-1.10083E-17 1.65226E-17
 -1       161 4.19800E-05 2.94085E-05-3.03967E-05-6.59073E-05-1.62639E-17 1.66146E-17
 -1       162 8.00373E-06 1.01711E-05-1.20809E-05-1.55565E-05-1.92175E-17 1.31110E-17
 -1       163 9.26658E-06-3.72239E-05 3.83845E-06 1.81753E-05-1.43005E-17 6.91062E-18
 -1       164 2.63638E-05-8.70734E-05 1.51849E-05 2.14887E-05-6.12828E-18 9.90605E-19
 -1       165 1.08526E-04-1.57465E-05-3.99861E-05-2.10644E-05-2.05775E-18 6.06026E-19
 -1       166 9.99869E-05-1.15961E-05-3.80689E-05-1.46463E-05-1.79387E-18-1.66738E-18
 -1       167 9.41151E-05-9.65064E-06-3.63310E-05-9.06664E-06-1.32503E-18-2.83579E-18
 -1       168 8.86507E-05-8.29944E-06-3.45344E-05-3.96501E-06-7.47904E-19-3.52139E-18
 -1       169 8.26391E-05-6.63452E-06-3.26488E-05 4.62048E-07-3.14348E-19-3.84244E-18
 -1       170 7.57009E-05-4.24967E-06-3.06840E-05 3.84788E-06 6.77229E-20-4.07189E-18
 -1       171 6.86935E-05-1.38194E-06-2.89012E-05 5.56236E-06 4.21485E-19-4.25202E-18
 -1       172 6.31645E-05 1.22473E-06-2.76441E-05 5.37559E-06 5.50588E-19-4.44102E-18
 -1       173 6.08804E-05 2.60537E-06-2.72564E-05 3.72005E-06 6.98995E-19-4.37233E-18
 -1       174 6.29525E-05 2.12760E-06-2.79444E-05 1.69971E-06 8.45779E-19-4.21829E-18
 -1       175 6.90824E-05-5.70114E-08-2.96468E-05 6.30821E-07 1.07658E-18-3.86583E-18
 -1       176 7.83051E-05-3.36363E-06-3.22034E-05 1.38294E-06 1.37473E-18-3.21911E-18
 -1       177 8.92123E-05-7.16936E-06-3.52840E-05 4.27986E-06 1.73999E-18-2.28398E-18
 -1       178 1.01329E-04-1.16735E-05-3.85912E-05 9.18331E-06 2.01346E-18-5.96430E-19
 -1       179 1.16261E-04-1.92122E-05-4.17816E-05 1.55093E-05 1.92867E-18 2.30112E-18
 -1       180 1.32033E-04-3.45458E-05-4.30449E-05 1.40946E-05 1.51952E-18 6.05576E-18
 -1       181 1.19615E-04-3.23686E-05-3.74032E-05-1.14619E-05-1.82049E-18 3.48620E-18
 -1       182 1.13197E-04-3.36030E-05-3.41571E-05-5.05787E-06-1.46329E-18 2.66418E-18
 -1       183 1.08746E-04-3.27582E-05-3.25261E-05-3.81898E-06-1.09761E-18 2.03017E-18
 -1       184 1.05317E-04-3.19412E-05-3.14170E-05-4.36647E-06-8.61021E-19 1.32944E-18
 -1       185 1.01733E-04-3.07858E-05-3.03884E-05-5.26666E-06-3.24516E-19 1.09695E-18
 -1       186 9.79204E-05-2.93318E-05-2.93811E-05-5.55582E-06-5.39516E-19 7.51695E-19
 -1       187 9.43934E-05-2.78355E-05-2.85112E-05-4.56435E-06-8.40376E-19 7.62297E-20
 -1       188 9.20147E-05-2.67567E-05-2.79545E-05-2.17113E-06-7.48668E-19-3.49193E-19
 -1       189 9.15322E-05-2.65261E-05-2.78475E-05 1.01038E-06-9.09753E-19-8.85376E-19
 -1       190 9.31039E-05-2.72493E-05-2.82126E-05 3.88747E-06-4.89664E-19-1.27176E-18
 -1       191 9.61585E-05-2.86154E-05-2.89391E-05 5.51140E-06-4.38561E-19-2.47232E-18
 -1       192 9.97053E-05-3.01069E-05-2.98253E-05 5.57513E-06-2.85030E-19-2.50613E-18
 -1       193 1.02816E-04-3.12961E-05-3.06549E-05 4.42523E-06 2.83849E-19-2.71944E-18
 -1       194 1.04936E-04-3.19933E-05-3.12694E-05 2.70857E-06-3.45611E-19-2.59792E-18
 -1       195 1.05923E-04-3.22160E-05-3.15991E-05 1.00628E-06-4.40990E-19-2.62244E-18
 -1       196 1.05921E-04-3.20849E-05-3.16542E-05-3.40655E-07-6.76750E-20-2.66027E-18
 -1       197 1.05204E-04-3.17384E-05-3.14932E-05-1.22468E-06-5.80599E-19-3.13345E-18
 -1       198 1.04058E-04-3.12897E-05-3.11913E-05-1.68617E-06-1.10311E-19-2.81582E-18
 -1       199 1.02721E-04-3.08174E-05-3.08183E-05-1.82802E-06-1.52391E-19-2.62967E-18
 -1       200 1.01368E-04-3.03692E-05-3.04281E-05-1.76039E-06 1.88204E-19-3.69997E-18
 -1       201 1.00106E-04-2.99705E-05-3.00570E-05-1.57492E-06 3.42899E-19-3.07844E-18
 -1       202 9.89964E-05-2.96317E-05-2.97258E-05-1.33775E-06 7.48295E-19-2.96380E-18
 -1       203 9.80605E-05-2.93536E-05-2.94435E-05-1.09175E-06 4.00547E-19-1.44582E-18
 -1       204 9.72982E-05-2.91320E-05-2.92118E-05-8.61854E-07 2.72043E-19-9.16384E-19
 -1       205 9.66954E-05-2.89601E-05-2.90273E-05-6.60466E-07 2.54185E-19-1.17797E-18
 -1       206 9.62316E-05-2.88301E-05-2.88845E-05-4.91942E-07-3.31560E-19-1.70049E-18
 -1       207 9.58839E-05-2.87341E-05-2.87769E-05-3.55849E-07-2.91254E-19-1.08159E-18
 -1       208 9.56302E-05-2.86653E-05-2.86980E-05-2.49192E-07-2.33594E-20-1.92311E-18
 -1       209 9.54505E-05-2.86175E-05-2.86417E-05-1.67842E-07-6.02182E-20-1.91099E-18
 -1       210 9.53276E-05-2.85855E-05-2.86030E-05-1.07409E-07-7.93947E-20-1.01318E-18
 -1       211 9.52472E-05-2.85652E-05-2.85774E-05-6.37287E-08 2.41660E-19-8.72923E-19
 -1       212 9.51978E-05-2.85532E-05-2.85616E-05-3.31041E-08-6.36261E-19-2.11906E-19
 -1       213 9.51705E-05-2.85472E-05-2.85525E-05-1.24024E-08 2.02040E-19-5.26921E-20
 -1       214 9.51583E-05-2.85451E-05-2.85483E-05 9.42487E-10 7.64247E-20 4.34029E-19
 -1       215 9.51560E-05-2.85455E-05-2.85472E-05 8.97418E-09 6.93115E-21-1.62413E-18
 -1       216 9.51599E-05-2.85474E-05-2.85481E-05 1.32799E-08-1.12638E-18-2.44358E-18
 -1       217 9.51673E-05-2.85501E-05-2.85502E-05 1.50637E-08-9.56376E-19-2.03889E-18
 -1       218 9.51764E-05-2.85532E-05-2.85528E-05 1.52181E-08 9.21961E-19-1.48020E-18
 -1       219 9.51860E-05-2.85562E-05-2.85556E-05 1.43872E-08-1.14620E-19-2.12467E-18
 -1       220 9.51953E-05-2.85590E-05-2.85584E-05 1.30224E-08-1.10042E-18-1.31703E-18
 -1       221 9.52038E-05-2.85616E-05-2.85610E-05 1.14270E-08 1.96913E-19-1.06902E-18
 -1       222 9.52114E-05-2.85639E-05-2.85632E-05 9.79220E-09 1.92839E-18-1.46709E-18
 -1       223 9.52180E-05-2.85658E-05-2.85652E-05 8.22374E-09 6.00974E-19 6.76372E-19
 -1       224 9.52235E-05-2.85674E-05-2.85669E-05 6.76122E-09 1.84846E-18 1.98105E-18
 -1       225 9.52281E-05-2.85688E-05-2.85683E-05 5.39076E-09 1.91707E-18 1.88132E-18
 -1       226 9.52317E-05-2.85699E-05-2.85694E-05 4.05378E-09 5.29293E-19 1.71864E-18
 -1       227 9.52344E-05-2.85707E-05-2.85701E-05 2.66697E-09 8.31071E-19 1.88947E-18
 -1       228 9.52362E-05-2.85713E-05-2.85707E-05 1.19579E-09-4.06904E-19 1.36025E-18
 -1       229 1.28202E-04-3.75032E-05-3.90353E-05 3.03485E-06 1.43569E-18 5.42214E-18
 -1       230 1.25688E-04-3.76220E-05-3.77029E-05 1.87133E-09 1.17943E-18 4.44888E-18
 -1       231 1.24805E-04-3.79639E-05-3.71581E-05 6.13383E-07 7.06647E-19 3.64544E-18
 -1       232 1.23099E-04-3.79205E-05-3.64461E-05 3.49446E-06 4.40295E-19 3.34720E-18
 -1       233 1.19062E-04-3.68056E-05-3.52019E-05 7.57295E-06 1.80448E-19 3.10406E-18
 -1       234 1.12395E-04-3.41386E-05-3.35335E-05 1.05942E-05 2.59796E-19 2.85119E-18
 -1       235 1.04892E-04-3.05285E-05-3.19526E-05 9.54002E-06 1.12201E-18 2.16195E-18
 -1       236 1.00148E-04-2.79280E-05-3.10946E-05 3.35205E-06 6.85567E-19 1.02667E-18
 -1       237 1.01174E-04-2.83783E-05-3.13048E-05-4.93741E-06 6.35083E-19 3.14871E-19
 -1       238 1.07227E-04-3.14858E-05-3.24870E-05-1.01581E-05 3.81155E-19-4.35110E-19
 -1       239 1.14585E-04-3.49786E-05-3.40815E-05-1.00815E-05 6.95136E-19-4.07754E-19
 -1       240 1.19893E-04-3.71237E-05-3.54279E-05-6.33969E-06 2.11394E-19-9.32001E-19
 -1       241 1.21875E-04-3.75959E-05-3.60980E-05-1.83306E-06 8.40138E-19-1.59878E-18
 -1       242 1.20988E-04-3.69416E-05-3.60223E-05 1.58703E-06-4.22580E-19-1.29286E-18
 -1       243 1.18300E-04-3.57707E-05-3.53824E-05 3.47000E-06-9.88167E-20-5.81905E-20
 -1       244 1.14806E-04-3.44822E-05-3.44372E-05 4.11984E-06 1.40649E-19-6.84939E-19
 -1       245 1.11198E-04-3.32741E-05-3.34037E-05 4.01494E-06 5.25014E-19-1.06167E-18
 -1       246 1.07866E-04-3.22257E-05-3.24206E-05 3.54229E-06 2.72624E-19-1.32884E-18
 -1       247 1.04989E-04-3.13558E-05-3.15570E-05 2.94667E-06-2.69629E-19-1.53390E-18
 -1       248 1.02611E-04-3.06552E-05-3.08362E-05 2.35907E-06-7.21593E-19-1.46804E-18
 -1       249 1.00705E-04-3.01033E-05-3.02552E-05 1.83811E-06-1.63022E-19-1.50950E-18
 -1       250 9.92133E-05-2.96762E-05-2.97987E-05 1.40239E-06 1.32753E-18-2.68945E-18
 -1       251 9.80679E-05-2.93512E-05-2.94473E-05 1.05082E-06 2.36065E-20-3.45633E-18
 -1       252 9.72038E-05-2.91076E-05-2.91817E-05 7.73980E-07-8.68624E-19-3.42198E-18
 -1       253 9.65627E-05-2.89280E-05-2.89843E-05 5.59981E-07-3.14991E-19-2.12267E-18
 -1       254 9.60954E-05-2.87980E-05-2.88401E-05 3.97107E-07 3.26331E-19-1.43339E-18
 -1       255 9.57615E-05-2.87058E-05-2.87369E-05 2.74940E-07-4.34948E-20-9.81400E-19
 -1       256 9.55283E-05-2.86420E-05-2.86646E-05 1.84663E-07-1.75932E-18-6.95650E-19
 -1       257 9.53702E-05-2.85993E-05-2.86154E-05 1.19038E-07 3.21279E-20-7.59386E-19
 -1       258 9.52670E-05-2.85718E-05-2.85830E-05 7.22285E-08 6.78981E-19-1.20060E-18
 -1       259 9.52031E-05-2.85553E-05-2.85629E-05 3.95972E-08-5.17667E-19-6.71607E-19
 -1       260 9.51671E-05-2.85464E-05-2.85514E-05 1.74997E-08 6.29114E-19-1.26617E-18
 -1       261 9.51499E-05-2.85427E-05-2.85457E-05 3.10462E-09 3.53292E-20-1.00440E-19
 -1       262 9.51452E-05-2.85423E-05-2.85440E-05-5.76306E-09-1.08369E-18-1.84400E-19
 -1       263 9.51484E-05-2.85439E-05-2.85447E-05-1.07536E-08 9.28413E-19-6.07488E-20
 -1       264 9.51561E-05-2.85466E-05-2.85468E-05-1.31017E-08-2.52774E-19 6.44275E-19
 -1       265 9.51660E-05-2.85499E-05-2.85497E-05-1.37167E-08 3.93869E-19 1.44468E-18
 -1       266 9.51767E-05-2.85533E-05-2.85529E-05-1.32554E-08 1.06219E-19 7.93685E-19
 -1       267 9.51872E-05-2.85565E-05-2.85560E-05-1.21813E-08-1.32353E-18 2.21646E-18
 -1       268 9.51970E-05-2.85595E-05-2.85590E-05-1.08109E-08-9.32830E-19 3.22060E-18
 -1       269 9.52058E-05-2.85621E-05-2.85616E-05-9.35050E-09-3.01348E-19 2.78936E-18
 -1       270 9.52134E-05-2.85643E-05-2.85639E-05-7.92333E-09-1.18920E-18 3.06019E-18
 -1       271 9.52199E-05-2.85663E-05-2.85659E-05-6.58936E-09 2.20970E-18 2.13412E-18
 -1       272 9.52253E-05-2.85679E-05-2.85675E-05-5.35802E-09 2.17759E-18 5.06685E-19
 -1       273 9.52297E-05-2.85692E-05-2.85688E-05-4.19636E-09 1.22986E-18 9.58287E-19
 -1       274 9.52330E-05-2.85702E-05-2.85698E-05-3.03949E-09-3.08539E-19 6.76668E-19
 -1       275 9.52353E-05-2.85709E-05-2.85705E-05-1.80279E-09 1.41691E-18-3.22814E-19
 -1       276 9.52367E-05-2.85713E-05-2.85709E-05-5.26191E-10-5.29806E-20-4.55177E-19
 -1       277 9.52370E-05-2.85721E-05-2.85707E-05-1.25983E-09-5.09572E-19 1.19277E-18
 -1       278 9.52376E-05-2.85738E-05-2.85702E-05-2.52011E-09 8.36209E-19-7.05207E-20
 -1       279 9.52385E-05-2.85761E-05-2.85696E-05-3.32522E-09-1.55193E-18-4.11763E-19
 -1       280 9.52394E-05-2.85786E-05-2.85689E-05-3.52787E-09-2.18846E-18 1.85183E-18
 -1       281 9.52403E-05-2.85810E-05-2.85683E-05-3.18401E-09-2.49297E-18-3.95026E-18
 -1       282 9.52410E-05-2.85830E-05-2.85677E-05-2.38458E-09-1.78518E-18-4.32401E-19
 -1       283 9.52414E-05-2.85843E-05-2.85673E-05-1.26722E-09-1.35128E-18 2.68143E-18
 -1       284 9.52416E-05-2.85847E-05-2.85672E-05 1.20495E-11 2.31431E-19 2.33041E-18
 -1       285 9.52414E-05-2.85843E-05-2.85673E-05 1.28940E-09 5.01114E-19 9.65669E-19
 -1       286 9.52410E-05-2.85829E-05-2.85677E-05 2.40182E-09 1.03268E-18-1.27893E-18
 -1       287 9.52403E-05-2.85810E-05-2.85683E-05 3.18436E-09 7.43555E-19-2.18720E-18
 -1       288 9.52394E-05-2.85786E-05-2.85689E-05 3.52784E-09-5.10870E-19 2.44601E-18
 -1       289 9.52385E-05-2.85760E-05-2.85696E-05 3.31290E-09-7.27282E-19-6.25872E-19
 -1       290 9.52376E-05-2.85738E-05-2.85702E-05 2.49091E-09-9.63505E-19-1.62271E-18
 -1       291 9.52368E-05-2.85725E-05-2.85705E-05 2.07611E-09-1.33872E-18-8.41353E-20
 -1       292 1.15933E-05-4.50479E-05 1.11048E-05 5.66401E-06 2.36894E-18 5.74468E-18
 -1       293 2.38989E-05-4.31639E-05 5.19106E-06 1.83033E-05 4.97505E-18 4.26153E-18
 -1       294 5.08505E-05-3.76438E-05-7.64525E-06 3.33282E-05 5.25775E-18 5.09204E-18
 -1       295 8.78958E-05-3.20987E-05-2.45498E-05 4.37240E-05 6.71845E-18 4.71035E-18
 -1       296 1.41590E-04-4.17518E-05-4.22243E-05 3.50479E-05 4.38392E-18 1.62948E-18
 -1       297 1.78050E-04-3.43561E-05-5.91024E-05 3.83138E-05 5.00664E-18 9.28136E-19
 -1       298 2.01922E-04-3.41110E-05-6.87868E-05 1.76307E-05 4.19165E-18-1.48040E-18
 -1       299 2.18187E-04-3.85683E-05-7.29538E-05-6.12245E-07 4.12558E-18-3.96300E-18
 -1       300 2.02589E-04-3.60145E-05-6.81432E-05-1.94045E-05 5.13323E-18-6.48044E-18
 -1       301 1.73798E-04-3.55769E-05-5.70930E-05-3.51784E-05 6.56323E-18-8.04808E-18
 -1       302 1.29833E-04-3.18937E-05-4.12584E-05-4.57457E-05 7.57078E-18-9.53399E-18
 -1       303 8.28962E-05-3.08399E-05-2.32737E-05-4.16787E-05 8.07307E-18-8.71957E-18
 -1       304 4.73908E-05-3.50716E-05-7.20977E-06-3.22301E-05 6.36143E-18-6.83796E-18
 -1       305 1.89398E-05-3.86180E-05 5.33939E-06-1.44499E-05 4.76520E-18-5.80578E-18
 -1       306 8.76133E-06-3.87951E-05 9.80563E-06-1.05236E-06 1.30496E-18-5.12815E-18
 -1       307 1.27555E-05-3.72662E-05 7.63904E-06 1.33651E-05-2.08497E-18-5.25806E-18
 -1       308 2.89188E-05-3.28059E-05-7.47288E-07 2.58958E-05-5.47141E-18-5.80710E-18
 -1       309 6.61671E-05-3.21213E-05-1.56030E-05 4.15561E-05-5.73505E-18-6.42951E-18
 -1       310 1.01317E-04-2.51338E-05-3.25944E-05 4.83126E-05-7.68301E-18-8.58510E-18
 -1       311 1.49296E-04-3.26174E-05-4.88545E-05 3.81247E-05-6.14194E-18-7.00200E-18
 -1       312 1.86485E-04-3.29433E-05-6.30468E-05 3.34445E-05-5.71980E-18-7.03800E-18
 -1       313 2.00925E-04-3.19519E-05-6.94772E-05 9.27500E-06-5.29925E-18-4.08852E-18
 -1       314 2.08891E-04-3.60714E-05-7.05864E-05-1.24081E-05-4.82682E-18-1.26965E-18
 -1       315 1.91129E-04-3.31414E-05-6.46410E-05-3.23016E-05-4.74211E-18 1.27521E-18
 -1       316 1.59481E-04-2.97311E-05-5.35888E-05-4.51688E-05-5.61535E-18 3.67612E-18
 -1       317 1.22638E-04-3.15156E-05-3.84287E-05-4.55632E-05-6.31071E-18 4.16677E-18
 -1       318 7.96179E-05-2.90962E-05-2.22671E-05-4.44900E-05-7.36665E-18 6.08784E-18
 -1       319 4.72346E-05-3.46331E-05-7.29988E-06-3.38299E-05-5.50953E-18 6.91613E-18
 -1       320 2.45525E-05-4.08135E-05 4.29451E-06-2.28521E-05-3.20898E-18 6.01796E-18
 -1       321 1.24137E-05-4.65418E-05 1.12699E-05-8.21407E-06-7.13572E-19 4.61686E-18
 -1       322 1.02633E-04-1.98612E-05-3.55621E-05-1.08250E-05-1.76556E-18-1.43386E-18
 -1       323 1.09197E-04-2.42658E-05-3.64906E-05-1.36361E-05-2.08258E-18-8.96531E-20
 -1       324 9.09915E-05-1.50324E-05-3.26203E-05-1.23374E-06-5.90107E-19-2.67831E-18
 -1       325 8.33794E-05-1.16107E-05-3.08082E-05 3.52935E-06-3.85764E-20-2.99841E-18
 -1       326 7.45484E-05-7.02245E-06-2.89719E-05 6.88217E-06 5.59721E-19-3.29234E-18
 -1       327 6.59898E-05-2.03599E-06-2.74232E-05 7.79340E-06 7.84543E-19-3.70688E-18
 -1       328 6.02447E-05 1.69016E-06-2.65456E-05 6.00724E-06 8.66837E-19-3.84341E-18
 -1       329 5.97119E-05 2.48374E-06-2.66552E-05 2.61069E-06 9.59558E-19-3.67204E-18
 -1       330 6.49948E-05-1.16634E-07-2.78157E-05-3.05668E-07 1.08701E-18-3.32947E-18
 -1       331 7.49776E-05-5.28524E-06-2.99008E-05-1.13587E-06 1.37775E-18-2.84022E-18
 -1       332 8.73750E-05-1.15512E-05-3.25578E-05 6.12543E-07 1.64003E-18-2.05552E-18
 -1       333 1.00609E-04-1.82097E-05-3.54009E-05 4.00533E-06 2.01997E-18-9.08608E-19
 -1       334 1.14012E-04-2.58123E-05-3.79292E-05 6.99718E-06 2.15542E-18 9.87032E-19
 -1       335 1.22437E-04-3.22917E-05-3.87286E-05 5.84089E-06 1.86253E-18 2.75771E-18
 -1       336 1.22133E-04-3.58383E-05-3.69741E-05 1.19737E-06 1.52047E-18 2.22575E-18
 -1       337 1.11046E-04-3.22303E-05-3.37496E-05-8.05966E-06-1.55391E-18 2.82379E-19
 -1       338 1.09254E-04-3.33449E-05-3.25216E-05-7.25886E-06-1.18692E-18 3.07150E-19
 -1       339 1.07210E-04-3.31177E-05-3.17478E-05-8.14154E-06-7.99630E-19 4.50102E-19
 -1       340 1.04638E-04-3.17311E-05-3.12393E-05-9.02952E-06-6.71583E-19 6.18988E-20
 -1       341 1.01634E-04-2.94533E-05-3.09225E-05-8.53734E-06-1.08154E-18 7.89180E-20
 -1       342 9.88542E-05-2.70636E-05-3.07514E-05-5.81585E-06-1.18093E-18-3.39032E-19
 -1       343 9.73208E-05-2.57150E-05-3.06715E-05-1.15784E-06-1.08469E-18-6.99347E-19
 -1       344 9.76977E-05-2.61759E-05-3.06370E-05 3.92967E-06-1.17861E-18-1.39485E-18
 -1       345 9.97091E-05-2.81927E-05-3.06376E-05 7.57390E-06-1.32116E-18-1.78142E-18
 -1       346 1.02316E-04-3.06971E-05-3.06897E-05 8.72454E-06-5.59045E-19-2.01438E-18
 -1       347 1.04467E-04-3.26404E-05-3.07873E-05 7.57359E-06-3.10058E-19-2.37021E-18
 -1       348 1.05624E-04-3.35580E-05-3.08961E-05 5.08840E-06 5.17393E-20-2.62995E-18
 -1       349 1.05776E-04-3.35509E-05-3.09666E-05 2.30824E-06-4.19702E-19-2.09609E-18
 -1       350 1.05186E-04-3.29732E-05-3.09606E-05-7.13473E-08-3.50084E-19-2.39180E-18
 -1       351 1.04163E-04-3.21667E-05-3.08649E-05-1.75774E-06-3.03683E-19-2.36362E-18
 -1       352 1.02951E-04-3.13552E-05-3.06894E-05-2.74137E-06-4.55301E-20-2.01594E-18
 -1       353 1.01709E-04-3.06476E-05-3.04577E-05-3.15273E-06 1.12013E-19-1.41802E-18
 -1       354 1.00536E-04-3.00770E-05-3.01969E-05-3.16109E-06-5.27448E-19-1.41565E-18
 -1       355 9.94796E-05-2.96378E-05-2.99311E-05-2.92099E-06 9.36976E-20-2.08815E-18
 -1       356 9.85637E-05-2.93098E-05-2.96784E-05-2.55225E-06 8.93367E-19-1.88833E-18
 -1       357 9.77920E-05-2.90700E-05-2.94502E-05-2.13819E-06 1.75616E-18-1.24599E-18
 -1       358 9.71580E-05-2.88975E-05-2.92524E-05-1.73135E-06 7.85853E-19-5.51044E-19
 -1       359 9.66487E-05-2.87755E-05-2.90865E-05-1.36132E-06 2.99828E-19-6.38029E-19
 -1       360 9.62482E-05-2.86908E-05-2.89515E-05-1.04183E-06 2.40368E-21-8.26439E-19
 -1       361 9.59399E-05-2.86333E-05-2.88443E-05-7.76534E-07-1.49871E-19-1.22571E-18
 -1       362 9.57075E-05-2.85954E-05-2.87612E-05-5.63073E-07-4.72698E-19-6.46396E-19
 -1       363 9.55363E-05-2.85714E-05-2.86984E-05-3.95962E-07 2.99904E-20 8.35727E-19
 -1       364 9.54133E-05-2.85573E-05-2.86519E-05-2.68411E-07-4.33084E-20-1.56666E-20
 -1       365 9.53275E-05-2.85498E-05-2.86185E-05-1.73453E-07-3.88254E-19-1.02944E-18
 -1       366 9.52697E-05-2.85468E-05-2.85952E-05-1.04578E-07-4.15525E-20-6.41702E-19
 -1       367 9.52327E-05-2.85465E-05-2.85795E-05-5.60516E-08 3.13381E-19 8.85759E-19
 -1       368 9.52106E-05-2.85480E-05-2.85695E-05-2.30217E-08-2.65143E-19-1.22533E-19
 -1       369 9.51989E-05-2.85504E-05-2.85636E-05-1.51612E-09 7.65232E-21-5.41652E-20
 -1       370 9.51944E-05-2.85532E-05-2.85605E-05 1.16325E-08-1.22516E-18 8.56061E-19
 -1       371 9.51945E-05-2.85561E-05-2.85593E-05 1.88896E-08-1.48816E-18 8.33184E-19
 -1       372 9.51973E-05-2.85588E-05-2.85594E-05 2.21305E-08 1.85149E-19 8.38731E-19
 -1       373 9.52017E-05-2.85612E-05-2.85602E-05 2.27494E-08 4.45565E-19 7.43822E-20
 -1       374 9.52068E-05-2.85634E-05-2.85615E-05 2.17564E-08 4.98403E-19 1.47878E-18
 -1       375 9.52119E-05-2.85652E-05-2.85629E-05 1.98610E-08-4.88219E-19 2.68655E-18
 -1       376 9.52168E-05-2.85668E-05-2.85643E-05 1.75414E-08-1.52885E-19 2.04603E-18
 -1       377 9.52213E-05-2.85680E-05-2.85657E-05 1.50991E-08 2.00139E-18 1.73566E-18
 -1       378 9.52253E-05-2.85691E-05-2.85669E-05 1.27008E-08 2.73652E-18 1.72354E-18
 -1       379 9.52287E-05-2.85701E-05-2.85680E-05 1.04106E-08 1.55366E-18 2.02554E-18
 -1       380 9.52315E-05-2.85709E-05-2.85689E-05 8.21788E-09-8.28246E-19 9.13139E-19
 -1       381 9.52338E-05-2.85716E-05-2.85695E-05 6.06476E-09-3.22538E-20 2.67044E-19
 -1       382 9.52355E-05-2.85721E-05-2.85700E-05 4.04657E-09 3.59498E-20-2.33157E-19
 -1       383 1.22358E-04-3.79610E-05-3.61586E-05 1.00824E-06 1.12577E-18 2.10039E-18
 -1       384 1.22734E-04-3.95788E-05-3.56445E-05 4.36681E-06 5.12364E-19 1.65672E-18
 -1       385 1.21987E-04-3.98058E-05-3.52335E-05 9.91474E-06 3.67490E-19 1.90041E-18
 -1       386 1.18727E-04-3.71147E-05-3.50080E-05 1.47053E-05 4.57634E-19 1.67883E-18
 -1       387 1.13119E-04-3.14653E-05-3.50633E-05 1.41513E-05 1.43340E-18 1.12974E-18
 -1       388 1.08317E-04-2.62919E-05-3.52593E-05 5.97255E-06 1.41914E-18 5.13711E-19
 -1       389 1.08412E-04-2.64042E-05-3.52113E-05-6.13128E-06 1.36528E-18-8.68569E-19
 -1       390 1.13122E-04-3.16029E-05-3.49832E-05-1.41136E-05 3.01524E-19-1.32403E-18
 -1       391 1.18272E-04-3.71438E-05-3.47914E-05-1.41838E-05 7.80627E-19-1.57165E-18
 -1       392 1.20743E-04-3.97450E-05-3.47363E-05-8.72669E-06 6.14039E-19-1.72730E-18
 -1       393 1.20172E-04-3.93143E-05-3.46845E-05-2.13505E-06 8.18892E-19-1.68394E-18
 -1       394 1.17752E-04-3.74341E-05-3.44544E-05 2.88274E-06-7.18132E-19-6.62707E-19
 -1       395 1.14588E-04-3.53422E-05-3.39864E-05 5.67647E-06-4.84417E-19-7.13665E-19
 -1       396 1.11344E-04-3.35829E-05-3.33384E-05 6.66908E-06 7.16149E-19-3.96856E-19
 -1       397 1.08328E-04-3.22475E-05-3.26084E-05 6.53268E-06 5.63034E-19-6.14258E-19
 -1       398 1.05666E-04-3.12673E-05-3.18822E-05 5.82199E-06 8.12208E-19-5.68057E-19
 -1       399 1.03398E-04-3.05489E-05-3.12153E-05 4.90019E-06 2.48915E-20-1.39696E-18
 -1       400 1.01515E-04-3.00172E-05-3.06356E-05 3.97079E-06-2.94845E-19-1.46256E-18
 -1       401 9.99864E-05-2.96198E-05-3.01510E-05 3.13123E-06-5.61666E-19-2.18359E-18
 -1       402 9.87683E-05-2.93214E-05-2.97576E-05 2.41731E-06 1.95782E-18-1.97031E-18
 -1       403 9.78144E-05-2.90977E-05-2.94456E-05 1.83268E-06 5.31713E-19-2.25402E-18
 -1       404 9.70795E-05-2.89311E-05-2.92029E-05 1.36615E-06-1.28786E-18-2.08528E-18
 -1       405 9.65224E-05-2.88086E-05-2.90174E-05 1.00104E-06-1.26628E-18-2.32014E-18
 -1       406 9.61070E-05-2.87200E-05-2.88781E-05 7.19918E-07-6.70558E-20-2.86068E-18
 -1       407 9.58028E-05-2.86572E-05-2.87751E-05 5.06651E-07-1.00275E-20-2.00416E-18
 -1       408 9.55844E-05-2.86139E-05-2.87005E-05 3.47241E-07-1.92225E-18-1.97645E-18
 -1       409 9.54313E-05-2.85850E-05-2.86475E-05 2.29953E-07 9.00477E-20-6.39630E-19
 -1       410 9.53271E-05-2.85667E-05-2.86110E-05 1.45170E-07 4.19968E-19-8.68022E-19
 -1       411 9.52587E-05-2.85559E-05-2.85865E-05 8.51425E-08 1.40423E-19-5.26346E-19
 -1       412 9.52164E-05-2.85504E-05-2.85708E-05 4.37081E-08 9.44214E-19-1.09685E-18
 -1       413 9.51923E-05-2.85484E-05-2.85614E-05 1.60263E-08-9.69261E-19 1.15707E-19
 -1       414 9.51807E-05-2.85487E-05-2.85565E-05-1.65965E-09-9.47128E-19 1.20783E-18
 -1       415 9.51774E-05-2.85503E-05-2.85544E-05-1.22288E-08 7.21637E-19 1.08178E-18
 -1       416 9.51793E-05-2.85526E-05-2.85543E-05-1.78574E-08-5.92271E-19 1.12042E-18
 -1       417 9.51843E-05-2.85552E-05-2.85553E-05-2.01655E-08-2.90405E-19 1.93760E-18
 -1       418 9.51908E-05-2.85578E-05-2.85570E-05-2.03376E-08 2.19589E-19 2.34106E-18
 -1       419 9.51979E-05-2.85603E-05-2.85590E-05-1.92215E-08-2.06690E-18 1.67086E-18
 -1       420 9.52048E-05-2.85625E-05-2.85610E-05-1.74065E-08-8.33359E-19 1.62911E-18
 -1       421 9.52113E-05-2.85645E-05-2.85629E-05-1.52866E-08-5.09688E-19 1.55104E-18
 -1       422 9.52171E-05-2.85662E-05-2.85647E-05-1.31080E-08-1.21956E-19 2.77747E-18
 -1       423 9.52222E-05-2.85677E-05-2.85663E-05-1.10046E-08 1.30831E-18 7.18391E-19
 -1       424 9.52265E-05-2.85689E-05-2.85676E-05-9.02412E-09 3.39338E-18 1.16897E-18
 -1       425 9.52301E-05-2.85699E-05-2.85687E-05-7.14602E-09 9.60957E-19 2.44563E-18
 -1       426 9.52329E-05-2.85708E-05-2.85695E-05-5.30622E-09 1.44422E-18 5.58146E-19
 -1       427 9.52351E-05-2.85715E-05-2.85701E-05-3.44010E-09 2.65639E-19 8.09039E-19
 -1       428 9.52362E-05-2.85719E-05-2.85704E-05-2.35315E-09 1.03926E-19 2.18389E-18
 -1       429 9.52387E-05-2.85771E-05-2.85693E-05-6.06513E-09-1.01762E-18 1.63304E-18
 -1       430 9.52374E-05-2.85748E-05-2.85697E-05-5.38414E-09-7.65444E-19-8.97839E-19
 -1       431 9.52366E-05-2.85732E-05-2.85700E-05-4.00802E-09-5.72678E-20-3.13794E-19
 -1       432 9.52400E-05-2.85793E-05-2.85689E-05-5.84647E-09-2.10857E-18-4.28902E-18
 -1       433 9.52410E-05-2.85812E-05-2.85685E-05-4.81314E-09-3.45416E-19-2.63972E-19
 -1       434 9.52418E-05-2.85825E-05-2.85682E-05-3.14497E-09 7.23727E-19 1.57763E-18
 -1       435 9.52422E-05-2.85833E-05-2.85681E-05-1.07890E-09-8.18751E-19 3.88884E-18
 -1       436 9.52422E-05-2.85833E-05-2.85681E-05 1.12037E-09-3.38460E-19 1.99129E-18
 -1       437 9.52418E-05-2.85825E-05-2.85683E-05 3.18031E-09-1.05621E-19-2.25598E-19
 -1       438 9.52410E-05-2.85811E-05-2.85685E-05 4.81421E-09 5.32183E-19-2.08840E-18
 -1       439 9.52400E-05-2.85792E-05-2.85689E-05 5.84642E-09 1.64440E-18 1.27401E-18
 -1       440 9.52387E-05-2.85770E-05-2.85693E-05 6.06121E-09-2.36321E-19-5.19524E-19
 -1       441 9.52374E-05-2.85748E-05-2.85697E-05 5.38757E-09-8.65297E-19-2.73124E-18
 -1       442 5.35973E-05-3.90930E-05-6.41341E-06 4.04392E-05 3.89318E-19 2.87255E-18
 -1       443 1.33998E-05-1.78655E-05 2.05741E-06-2.88329E-06-1.26526E-19 6.75361E-18
 -1       444 2.41641E-05-2.61699E-05 7.39808E-07 2.49997E-05 2.74280E-19 4.75916E-18
 -1       445 9.48928E-05-5.16471E-05-1.86985E-05 4.11652E-05 1.38966E-18 1.25943E-18
 -1       446 1.29123E-04-5.67073E-05-3.10870E-05 2.87543E-05 2.11663E-18-5.62959E-19
 -1       447 9.71429E-05-1.74621E-05-3.42470E-05-6.31286E-06-1.14187E-18-2.18749E-18
 -1       448 1.63662E-04-2.95814E-05-5.72362E-05-4.93835E-07 4.27741E-18-2.39541E-18
 -1       449 1.65070E-04-1.63243E-05-6.33468E-05-6.67735E-07 4.87944E-18-2.79267E-18
 -1       450 1.65472E-04-1.76546E-05-6.29442E-05 3.14578E-06 5.08167E-18-2.97171E-18
 -1       451 1.58931E-04-3.08529E-05-5.50307E-05 6.36412E-06 4.64433E-18-2.11652E-18
 -1       452 1.53602E-04-4.79036E-05-4.52930E-05-9.68997E-06 3.77257E-18-2.55402E-18
 -1       453 1.29326E-04-5.45101E-05-3.21297E-05-2.75553E-05 2.70309E-18-4.01176E-18
 -1       454 9.19016E-05-4.83912E-05-1.87844E-05-3.96831E-05 2.12478E-18-4.41394E-18
 -1       455 4.56730E-05-3.07401E-05-6.54529E-06-3.65453E-05 1.06356E-18-5.40047E-18
 -1       456 1.89349E-05-1.87713E-05-1.92410E-07-1.98003E-05 9.39836E-19-6.12373E-18
 -1       457 1.18622E-05-1.21572E-05 2.58432E-07 1.04312E-05 7.39777E-19-6.26995E-18
 -1       458 2.87638E-05-2.36645E-05-2.45391E-06 3.32021E-05-1.42407E-19-5.57877E-18
 -1       459 6.22598E-05-3.50318E-05-1.16919E-05 4.41332E-05-5.34584E-19-4.54346E-18
 -1       460 1.06835E-04-4.59135E-05-2.61577E-05 3.79093E-05-2.37487E-18-3.96374E-18
 -1       461 1.34802E-04-4.57259E-05-3.82637E-05 2.47416E-05-3.20851E-18-3.13519E-18
 -1       462 1.52000E-04-3.16884E-05-5.16306E-05 3.41283E-06-4.31288E-18-2.22166E-18
 -1       463 1.55786E-04-1.90223E-05-5.85992E-05-2.04545E-06-5.26791E-18-2.17571E-18
 -1       464 1.55636E-04-1.11968E-05-6.18327E-05-9.85340E-07-5.72330E-18-1.66713E-18
 -1       465 1.59455E-04-1.70612E-05-6.07974E-05-3.76730E-07-5.49851E-18-1.96258E-18
 -1       466 1.56912E-04-3.11211E-05-5.37100E-05-7.07831E-06-4.74497E-18-1.04333E-18
 -1       467 1.47400E-04-4.32419E-05-4.44078E-05-1.79647E-05-3.52536E-18-4.63539E-19
 -1       468 1.20506E-04-5.21091E-05-2.93764E-05-3.45709E-05-2.18376E-18-1.51195E-19
 -1       469 8.75849E-05-4.77508E-05-1.72172E-05-4.41342E-05-1.10157E-18 3.01713E-18
 -1       470 5.44017E-05-3.81699E-05-7.03634E-06-4.33440E-05 7.38083E-19 5.00941E-18
 -1       471 2.21632E-05-2.34646E-05 5.68299E-07-2.53157E-05 1.99212E-19 4.95292E-18
 -1       472 1.54578E-04-4.51540E-05-4.69464E-05 5.55086E-06 3.65258E-18-3.10268E-18
 -1       473 1.45030E-04-5.77398E-05-3.75604E-05 8.21173E-06 1.50104E-18-3.92060E-18
 -1       474 1.44463E-04-4.42016E-05-4.31632E-05 1.03539E-06-2.42553E-18-8.80650E-19
 -1       475 9.40903E-05-4.61310E-05-2.04316E-05 4.08453E-05 4.07264E-19-3.25707E-18
 -1       476 1.15992E-04-3.47463E-05-3.48133E-05 1.91517E-08 1.24152E-18 3.23462E-19
 -1       477 8.34259E-05-1.58092E-05-2.89927E-05 8.51455E-06 5.31543E-19-2.64746E-18
 -1       478 9.28822E-05-2.08034E-05-3.09149E-05 2.97795E-06-4.30130E-20-2.39433E-18
 -1       479 6.17274E-05-2.18160E-06-2.55034E-05 1.04252E-05 1.07340E-18-3.85783E-18
 -1       480 5.66203E-05 1.51775E-06-2.48941E-05 5.32006E-06 1.00989E-18-3.84431E-18
 -1       481 5.95106E-05 7.85766E-08-2.55183E-05-8.50022E-07 8.97563E-19-3.54425E-18
 -1       482 6.97751E-05-6.01105E-06-2.73182E-05-4.72804E-06 9.32082E-19-2.97298E-18
 -1       483 8.38568E-05-1.41644E-05-2.98765E-05-4.59979E-06 1.11907E-18-2.33139E-18
 -1       484 9.82929E-05-2.21185E-05-3.26596E-05-1.60944E-06 1.44015E-18-1.29966E-18
 -1       485 1.19668E-04-3.99209E-05-3.41826E-05 7.49581E-07 7.39478E-19 4.56877E-19
 -1       486 1.09928E-04-3.25243E-05-3.31798E-05-8.58114E-06-1.18168E-18-6.28149E-19
 -1       487 1.19322E-04-6.00168E-05-2.53180E-05 3.00439E-05-9.23054E-19-1.45343E-18
 -1       488 1.10588E-04-3.47313E-05-3.25128E-05-9.01961E-06-8.96838E-19-5.37794E-19
 -1       489 1.10020E-04-3.44907E-05-3.23673E-05-1.05525E-05-7.33022E-19-1.98151E-21
 -1       490 1.08055E-04-3.19513E-05-3.26134E-05-1.14620E-05-9.90618E-19-6.14401E-20
 -1       491 1.04986E-04-2.78294E-05-3.30657E-05-9.94036E-06-1.37953E-18-5.23734E-19
 -1       492 1.02180E-04-2.41514E-05-3.34461E-05-5.13240E-06-1.62464E-18-8.03264E-19
 -1       493 1.01328E-04-2.32362E-05-3.34771E-05 1.70541E-06-1.64271E-18-1.43878E-18
 -1       494 1.02944E-04-2.58267E-05-3.30515E-05 7.68728E-06-1.66697E-18-1.72795E-18
 -1       495 1.05702E-04-3.02257E-05-3.23490E-05 1.04465E-05-1.12281E-18-1.86720E-18
 -1       496 1.07839E-04-3.40812E-05-3.16122E-05 9.67381E-06-4.22667E-19-1.71179E-18
 -1       497 1.08423E-04-3.60406E-05-3.10251E-05 6.67811E-06-6.15174E-20-1.61528E-18
 -1       498 1.07578E-04-3.61083E-05-3.06361E-05 3.06331E-06-1.25811E-19-1.57273E-18
 -1       499 1.05917E-04-3.49967E-05-3.04009E-05-9.47839E-08-4.84494E-19-1.29298E-18
 -1       500 1.04018E-04-3.34481E-05-3.02495E-05-2.35701E-06-4.21888E-19-7.60899E-19
 -1       501 1.02234E-04-3.19494E-05-3.01252E-05-3.70141E-06-2.43296E-19-7.38841E-19
 -1       502 1.00711E-04-3.07235E-05-2.99965E-05-4.29602E-06 2.25126E-19-1.10763E-18
 -1       503 9.94748E-05-2.98197E-05-2.98527E-05-4.35631E-06-1.98049E-19-1.28442E-18
 -1       504 9.84940E-05-2.92025E-05-2.96961E-05-4.07813E-06-9.24800E-20-4.22808E-19
 -1       505 9.77239E-05-2.88085E-05-2.95344E-05-3.61482E-06 2.56201E-19-5.55301E-19
 -1       506 9.71215E-05-2.85743E-05-2.93764E-05-3.07550E-06 1.21447E-18-4.01622E-19
 -1       507 9.66515E-05-2.84481E-05-2.92290E-05-2.53168E-06 1.26180E-18-1.16262E-18
 -1       508 9.62861E-05-2.83910E-05-2.90970E-05-2.02597E-06 4.49909E-19-1.95857E-18
 -1       509 9.60036E-05-2.83757E-05-2.89826E-05-1.58039E-06-1.11115E-20-1.63360E-18
 -1       510 9.57870E-05-2.83841E-05-2.88863E-05-1.20311E-06-5.32065E-19-1.46831E-18
 -1       511 9.56227E-05-2.84045E-05-2.88073E-05-8.93679E-07 1.94829E-19-1.29456E-18
 -1       512 9.54997E-05-2.84295E-05-2.87440E-05-6.46696E-07 2.35097E-19-1.27966E-18
 -1       513 9.54092E-05-2.84549E-05-2.86944E-05-4.54339E-07-3.76562E-19-1.17943E-18
 -1       514 9.53437E-05-2.84785E-05-2.86563E-05-3.07994E-07-5.39098E-19-1.51575E-19
 -1       515 9.52975E-05-2.84991E-05-2.86277E-05-1.99250E-07-6.91803E-20 1.15692E-18
 -1       516 9.52658E-05-2.85164E-05-2.86068E-05-1.20444E-07 4.85834E-19 1.09929E-18
 -1       517 9.52448E-05-2.85305E-05-2.85918E-05-6.49193E-08 3.39931E-20 6.50357E-19
 -1       518 9.52317E-05-2.85417E-05-2.85814E-05-2.70937E-08-9.80347E-20 1.89309E-18
 -1       519 9.52241E-05-2.85503E-05-2.85745E-05-2.41916E-09-3.62843E-19 1.20627E-18
 -1       520 9.52204E-05-2.85569E-05-2.85701E-05 1.27197E-08-9.19403E-19 1.47557E-18
 -1       521 9.52193E-05-2.85618E-05-2.85675E-05 2.11318E-08-4.01785E-19 2.11357E-18
 -1       522 9.52198E-05-2.85654E-05-2.85662E-05 2.49523E-08-7.60689E-19 1.35416E-18
 -1       523 9.52213E-05-2.85679E-05-2.85658E-05 2.57669E-08 1.55620E-18 3.06324E-19
 -1       524 9.52233E-05-2.85696E-05-2.85659E-05 2.47239E-08 1.45253E-18 1.43076E-18
 -1       525 9.52254E-05-2.85708E-05-2.85663E-05 2.26289E-08-4.59477E-19 4.07704E-18
 -1       526 9.52276E-05-2.85716E-05-2.85669E-05 2.00237E-08-1.44193E-20 3.24145E-18
 -1       527 9.52297E-05-2.85721E-05-2.85675E-05 1.72487E-08 2.08711E-18 1.64948E-18
 -1       528 9.52315E-05-2.85725E-05-2.85682E-05 1.44924E-08 6.50258E-19-7.39146E-19
 -1       529 9.52332E-05-2.85729E-05-2.85687E-05 1.18308E-08 1.47831E-19-1.30048E-18
 -1       530 9.52347E-05-2.85733E-05-2.85692E-05 9.26322E-09-3.49836E-19 1.17260E-19
 -1       531 1.27248E-04-4.46165E-05-3.54815E-05 1.30719E-05 5.76571E-19 9.07875E-19
 -1       532 1.25813E-04-3.77441E-05-3.78535E-05 1.85367E-05 1.35114E-18 7.90967E-19
 -1       533 1.18964E-04-2.53032E-05-4.05336E-05 1.48443E-05 2.05564E-18 2.80060E-19
 -1       534 1.16617E-04-1.98492E-05-4.17865E-05-6.53846E-08 2.76395E-18-1.08626E-18
 -1       535 1.19892E-04-2.63059E-05-4.03606E-05-1.43269E-05 1.49028E-18-2.25703E-18
 -1       536 1.25038E-04-3.82128E-05-3.73589E-05-1.73917E-05 1.25794E-18-3.50122E-18
 -1       537 1.25919E-04-4.50366E-05-3.47224E-05-1.11807E-05 4.86003E-19-4.24005E-18
 -1       538 1.21936E-04-4.46586E-05-3.31386E-05-2.34919E-06 3.78650E-20-3.00068E-18
 -1       539 1.16354E-04-4.07810E-05-3.24097E-05 4.39902E-06-7.49345E-19-1.78977E-18
 -1       540 1.11251E-04-3.64873E-05-3.20596E-05 8.17988E-06-7.63224E-19-2.24038E-18
 -1       541 1.07345E-04-3.32001E-05-3.17862E-05 9.58323E-06-7.13644E-20-1.98472E-18
 -1       542 1.04507E-04-3.10652E-05-3.14775E-05 9.49658E-06 4.93995E-19-1.37767E-18
 -1       543 1.02433E-04-2.98118E-05-3.11216E-05 8.61361E-06 9.73419E-19-8.82719E-19
 -1       544 1.00866E-04-2.91253E-05-3.07425E-05 7.39740E-06 1.66868E-19-1.01261E-18
 -1       545 9.96417E-05-2.87684E-05-3.03700E-05 6.12136E-06-4.12658E-20-7.41896E-20
 -1       546 9.86621E-05-2.85913E-05-3.00262E-05 4.92930E-06 3.31977E-19-8.09522E-19
 -1       547 9.78717E-05-2.85082E-05-2.97236E-05 3.88500E-06 5.60185E-19-2.34330E-18
 -1       548 9.72354E-05-2.84730E-05-2.94666E-05 3.00662E-06 1.02314E-18-1.04093E-18
 -1       549 9.67278E-05-2.84619E-05-2.92544E-05 2.28842E-06-3.74857E-19-6.16913E-19
 -1       550 9.63279E-05-2.84629E-05-2.90831E-05 1.71363E-06-6.34058E-19-1.60082E-18
 -1       551 9.60178E-05-2.84699E-05-2.89476E-05 1.26162E-06-2.73344E-19-2.34780E-18
 -1       552 9.57811E-05-2.84797E-05-2.88424E-05 9.11665E-07 6.13438E-19-3.05505E-18
 -1       553 9.56038E-05-2.84907E-05-2.87619E-05 6.44721E-07-9.79538E-19-3.03250E-18
 -1       554 9.54736E-05-2.85019E-05-2.87015E-05 4.44145E-07-1.46157E-18-3.82609E-18
 -1       555 9.53800E-05-2.85126E-05-2.86570E-05 2.95847E-07-4.40683E-19-3.25964E-18
 -1       556 9.53145E-05-2.85225E-05-2.86248E-05 1.88152E-07-7.16117E-20-2.34107E-18
 -1       557 9.52701E-05-2.85314E-05-2.86021E-05 1.11557E-07 7.26550E-20-1.49695E-18
 -1       558 9.52413E-05-2.85392E-05-2.85864E-05 5.84363E-08-2.91904E-19-2.34998E-19
 -1       559 9.52237E-05-2.85459E-05-2.85761E-05 2.27553E-08-1.57475E-18 4.11009E-19
 -1       560 9.52140E-05-2.85515E-05-2.85696E-05-1.99352E-10-3.24307E-19-6.20011E-19
 -1       561 9.52097E-05-2.85561E-05-2.85658E-05-1.40581E-08-4.90016E-19 6.08192E-19
 -1       562 9.52089E-05-2.85599E-05-2.85639E-05-2.15768E-08-6.73498E-19 9.84273E-19
 -1       563 9.52103E-05-2.85629E-05-2.85632E-05-2.48140E-08-2.38454E-19 1.39039E-18
 -1       564 9.52130E-05-2.85652E-05-2.85633E-05-2.52791E-08-7.17613E-19 1.85963E-18
 -1       565 9.52163E-05-2.85670E-05-2.85640E-05-2.40540E-08-1.31725E-18 1.20958E-18
 -1       566 9.52197E-05-2.85684E-05-2.85648E-05-2.18920E-08 3.60734E-19 2.15970E-18
 -1       567 9.52230E-05-2.85695E-05-2.85658E-05-1.92958E-08-7.98084E-19-8.68020E-19
 -1       568 9.52261E-05-2.85703E-05-2.85668E-05-1.65793E-08 8.06393E-19-1.70213E-18
 -1       569 9.52289E-05-2.85710E-05-2.85677E-05-1.39131E-08 2.10961E-18-2.29313E-18
 -1       570 9.52313E-05-2.85716E-05-2.85684E-05-1.13615E-08 1.11270E-18-6.58139E-19
 -1       571 9.52333E-05-2.85722E-05-2.85691E-05-8.93342E-09 1.86560E-18-1.74336E-18
 -1       572 9.52351E-05-2.85728E-05-2.85696E-05-6.55023E-09-2.27826E-20 1.04810E-18
 -1       573 9.52413E-05-2.85801E-05-2.85691E-05-7.28566E-09 2.43689E-18 2.92471E-19
 -1       574 9.52426E-05-2.85817E-05-2.85690E-05-5.39891E-09 2.20995E-18 3.67406E-19
 -1       575 9.52376E-05-2.85757E-05-2.85694E-05-8.14027E-09-5.21409E-19-2.19901E-18
 -1       576 9.52395E-05-2.85780E-05-2.85692E-05-8.24976E-09-1.32343E-18-1.16191E-19
 -1       577 9.52435E-05-2.85827E-05-2.85689E-05-2.85395E-09 4.86816E-19 9.67352E-19
 -1       578 9.52438E-05-2.85831E-05-2.85689E-05 2.97404E-11-8.71820E-19 2.74634E-18
 -1       579 9.52435E-05-2.85827E-05-2.85689E-05 2.90917E-09 2.65474E-19 1.04845E-18
 -1       580 9.52426E-05-2.85817E-05-2.85690E-05 5.40382E-09 5.95725E-19-1.72010E-18
 -1       581 9.52413E-05-2.85801E-05-2.85691E-05 7.28634E-09 1.26201E-18-4.81370E-20
 -1       582 9.52395E-05-2.85780E-05-2.85692E-05 8.25221E-09 5.59327E-19-1.02263E-18
 -1       583 9.52375E-05-2.85757E-05-2.85694E-05 8.10320E-09-8.21913E-19-2.34401E-18
 -1       584 2.84075E-05-1.41259E-05-5.49239E-06 1.46728E-05-1.06792E-18 5.49873E-18
 -1       585 8.52053E-05-4.74513E-05-1.58585E-05 4.11589E-05-1.73266E-18 8.04125E-19
 -1       586 1.24225E-04-4.42081E-05-3.43136E-05 5.62239E-06 3.31764E-19 7.21588E-19
 -1       587 1.07714E-04-2.79865E-05-3.42045E-05-9.52389E-06-1.61298E-18-8.98690E-19
 -1       588 4.98330E-05-2.69939E-05-9.27311E-06-3.78288E-05 2.13500E-18 3.90339E-18
 -1       589 5.06677E-05-2.77871E-05-9.29311E-06 3.50995E-05-2.01647E-18 1.67400E-18
 -1       590 2.71986E-05-1.37419E-05-5.15455E-06-1.58722E-05 1.38320E-18 4.29509E-18
 -1       591 8.16410E-05-4.15275E-05-1.68613E-05-3.82601E-05-3.73912E-19-3.54899E-18
 -1       592 7.20544E-05-8.96501E-06-2.70372E-05 1.15770E-05 9.86028E-19-3.39325E-18
 -1       593 1.40518E-04-1.12132E-05-5.59277E-05 2.28146E-06 4.75450E-18-2.05961E-18
 -1       594 2.98757E-05-1.07937E-05-7.64130E-06 2.66929E-05 1.35449E-18-5.58714E-18
 -1       595 1.42894E-04-1.90403E-05-5.36328E-05-1.02414E-05 4.39420E-18-2.84206E-18
 -1       596 1.43210E-04-2.05468E-05-5.30726E-05 1.19137E-05 4.30838E-18-1.10337E-18
 -1       597 1.47435E-04-4.35991E-05-4.49194E-05 1.13896E-05 2.17129E-18-8.00446E-20
 -1       598 1.43359E-04-5.76720E-05-3.68820E-05-5.38990E-06 1.28840E-18-3.27590E-19
 -1       599 1.20907E-04-5.78268E-05-2.69468E-05-2.61394E-05 6.87155E-20-2.03214E-18
 -1       600 4.04577E-05-1.82558E-05-9.05632E-06-2.90714E-05-2.08105E-19-5.26203E-18
 -1       601 1.12941E-04-5.67328E-05-2.40362E-05-3.51470E-05 9.94364E-19-1.70136E-18
 -1       602 2.35579E-05-5.23370E-06-7.20558E-06-7.27324E-06 4.67006E-19-5.72785E-18
 -1       603 5.35024E-05-2.42523E-05-1.20487E-05 3.95578E-05 1.45086E-18-4.57138E-18
 -1       604 1.28311E-04-5.42230E-05-3.17885E-05 2.16723E-05-4.74656E-19-1.50978E-18
 -1       605 1.37790E-04-2.41560E-05-4.92138E-05-1.12185E-05-3.76940E-18 1.74701E-21
 -1       606 1.33781E-04-9.19019E-06-5.39781E-05-6.29553E-06-5.49439E-18-8.34830E-19
 -1       607 1.34201E-04-9.33687E-06-5.41149E-05 4.23551E-06-5.19983E-18-1.57638E-18
 -1       608 1.41176E-04-2.21139E-05-5.15186E-05 7.92852E-06-4.48620E-18-2.68425E-18
 -1       609 1.43023E-04-4.05204E-05-4.43027E-05 3.37230E-06-2.51241E-18-3.35743E-18
 -1       610 1.37887E-04-5.55226E-05-3.54073E-05-1.30813E-05-5.24168E-19-2.58906E-18
 -1       611 8.49240E-05-4.65314E-05-1.61157E-05-4.36743E-05 2.60801E-18 2.19436E-18
 -1       612 1.46570E-04-3.70767E-05-4.73649E-05-1.17179E-05 2.85868E-18-4.07650E-18
 -1       613 1.14937E-04-3.08011E-05-3.60896E-05 2.46658E-06 1.75303E-18 5.31530E-19
 -1       614 9.98086E-05-2.39307E-05-3.25493E-05-2.95825E-06-6.69809E-19-2.07708E-18
 -1       615 1.44477E-04-5.04484E-05-4.07270E-05-8.10209E-06 1.51600E-18-5.14440E-18
 -1       616 1.33897E-04-6.09541E-05-3.13325E-05 1.38932E-05-4.09501E-19-4.08640E-18
 -1       617 7.84136E-05-3.52550E-05-1.82027E-05 3.96086E-05 1.65415E-18-3.51720E-18
 -1       618 3.00889E-05-2.43054E-06-1.12776E-05 1.01232E-05 1.07745E-18-5.47395E-18
 -1       619 1.37812E-04-3.28590E-05-4.54701E-05 1.79964E-05 2.78663E-18 4.67509E-19
 -1       620 9.52356E-05-2.85736E-05-2.85695E-05 7.51550E-09-1.30060E-18-5.46885E-19
 -1       621 5.20550E-05 2.95635E-07-2.23558E-05 1.12222E-06 8.72937E-19-3.96641E-18
 -1       622 5.45761E-05-1.69894E-06-2.25854E-05 1.17756E-05 1.17248E-18-4.04041E-18
 -1       623 7.86978E-05-1.60825E-05-2.68064E-05-1.10027E-05 3.71135E-19-2.60230E-18
 -1       624 9.57089E-05-2.57403E-05-2.99704E-05-7.95030E-06 6.50724E-19-1.55378E-18
 -1       625 1.10020E-04-3.49112E-05-3.21680E-05-4.31688E-06 6.57686E-19-5.23663E-19
 -1       626 7.86925E-05-3.70347E-05-1.74497E-05 3.51933E-05-2.64139E-18 6.73021E-19
 -1       627 1.13282E-04-3.71043E-05-3.26583E-05-9.17185E-06-4.40577E-19-3.54963E-19
 -1       628 1.13889E-04-3.59424E-05-3.34156E-05-1.18559E-05-8.77239E-19-2.74399E-19
 -1       629 1.11811E-04-3.09346E-05-3.46873E-05-1.31011E-05-1.47523E-18-3.09943E-19
 -1       630 1.07892E-04-2.39274E-05-3.60198E-05-1.01769E-05-1.97090E-18-8.47342E-19
 -1       631 1.04960E-04-1.93678E-05-3.67427E-05-2.62459E-06-2.12562E-18-1.32124E-18
 -1       632 1.05890E-04-2.13325E-05-3.62843E-05 6.13029E-06-1.77336E-18-1.95916E-18
 -1       633 1.09278E-04-2.78343E-05-3.49460E-05 1.13498E-05-1.58463E-18-1.91246E-18
 -1       634 1.12299E-04-3.48967E-05-3.31918E-05 1.11898E-05-6.39028E-19-1.94825E-18
 -1       635 1.12809E-04-3.89731E-05-3.16493E-05 7.45909E-06-2.77930E-19-2.22558E-18
 -1       636 1.10898E-04-3.95585E-05-3.05770E-05 2.82517E-06 9.80934E-20-2.00806E-18
 -1       637 1.07805E-04-3.79223E-05-2.99532E-05-1.05134E-06 1.60188E-19-1.07651E-18
 -1       638 1.04591E-04-3.54332E-05-2.96419E-05-3.64620E-06-1.72281E-19-6.84100E-19
 -1       639 1.01848E-04-3.30040E-05-2.95065E-05-5.06005E-06-4.36152E-19-7.24582E-19
 -1       640 9.97517E-05-3.10419E-05-2.94480E-05-5.59145E-06-1.20559E-19-2.40503E-19
 -1       641 9.82552E-05-2.96355E-05-2.94087E-05-5.53599E-06 8.72481E-20-1.05062E-19
 -1       642 9.72327E-05-2.87213E-05-2.93620E-05-5.12724E-06 2.01018E-19-4.66562E-19
 -1       643 9.65532E-05-2.81861E-05-2.93000E-05-4.53307E-06-2.79948E-19-4.06648E-19
 -1       644 9.61087E-05-2.79173E-05-2.92246E-05-3.86780E-06 4.48242E-19-7.76650E-19
 -1       645 9.58198E-05-2.78226E-05-2.91413E-05-3.20525E-06 1.17514E-18-1.79186E-18
 -1       646 9.56316E-05-2.78330E-05-2.90562E-05-2.58972E-06 8.74029E-19-1.67165E-18
 -1       647 9.55079E-05-2.79006E-05-2.89743E-05-2.04458E-06-2.42319E-19-1.45859E-18
 -1       648 9.54254E-05-2.79939E-05-2.88990E-05-1.57899E-06-5.98777E-20-1.90387E-18
 -1       649 9.53693E-05-2.80936E-05-2.88322E-05-1.19290E-06 1.83907E-19-1.52058E-18
 -1       650 9.53305E-05-2.81885E-05-2.87750E-05-8.80789E-07 2.63635E-19-1.89483E-18
 -1       651 9.53032E-05-2.82729E-05-2.87271E-05-6.34222E-07-2.61470E-19-2.47955E-18
 -1       652 9.52836E-05-2.83446E-05-2.86881E-05-4.43638E-07 2.65784E-19-1.67335E-18
 -1       653 9.52695E-05-2.84034E-05-2.86569E-05-2.99473E-07 1.08401E-18-4.76719E-19
 -1       654 9.52593E-05-2.84502E-05-2.86324E-05-1.92829E-07 2.70594E-20-6.39989E-19
 -1       655 9.52519E-05-2.84865E-05-2.86137E-05-1.15833E-07 4.37027E-19 4.53386E-19
 -1       656 9.52465E-05-2.85140E-05-2.85996E-05-6.17610E-08 1.35659E-19 9.55269E-19
 -1       657 9.52428E-05-2.85344E-05-2.85893E-05-2.50419E-08-9.35764E-19 1.85475E-18
 -1       658 9.52401E-05-2.85490E-05-2.85819E-05-1.17244E-09-1.24313E-18 1.23950E-18
 -1       659 9.52384E-05-2.85593E-05-2.85767E-05 1.34065E-08-4.64925E-19 1.01179E-18
 -1       660 9.52372E-05-2.85662E-05-2.85733E-05 2.14487E-08-7.39415E-19 1.36883E-18
 -1       661 9.52365E-05-2.85707E-05-2.85711E-05 2.50397E-08-8.79039E-19 3.03797E-19
 -1       662 9.52362E-05-2.85734E-05-2.85697E-05 2.57235E-08 9.25261E-19-1.25181E-18
 -1       663 9.52360E-05-2.85749E-05-2.85690E-05 2.46147E-08 1.92663E-18-2.22794E-18
 -1       664 9.52360E-05-2.85756E-05-2.85687E-05 2.24920E-08 3.17398E-19-8.89219E-19
 -1       665 9.52361E-05-2.85758E-05-2.85687E-05 1.98771E-08-3.88102E-19-2.67514E-20
 -1       666 9.52363E-05-2.85757E-05-2.85688E-05 1.70961E-08-4.55734E-20-2.52658E-18
 -1       667 9.52366E-05-2.85756E-05-2.85690E-05 1.43285E-08-6.24289E-20-1.79990E-18
 -1       668 9.52369E-05-2.85755E-05-2.85692E-05 1.16439E-08 4.45243E-19-1.27341E-18
 -1       669 1.32115E-04-2.89555E-05-4.47055E-05-1.71147E-05 2.35496E-18-4.11626E-18
 -1       670 1.33651E-04-4.97624E-05-3.61333E-05-1.15709E-05 1.00084E-18-4.08098E-18
 -1       671 1.26708E-04-5.14304E-05-3.23111E-05-9.86013E-08-4.07443E-19-2.94029E-18
 -1       672 1.17261E-04-4.56701E-05-3.06877E-05 7.53013E-06-9.15783E-19-3.13530E-18
 -1       673 1.09260E-04-3.87946E-05-3.02115E-05 1.12762E-05-1.00738E-18-2.77639E-18
 -1       674 1.03917E-04-3.35266E-05-3.01753E-05 1.22211E-05-1.15566E-19-2.45411E-18
 -1       675 1.00719E-04-3.02171E-05-3.02172E-05 1.17317E-05-6.71849E-20-2.24782E-18
 -1       676 9.89006E-05-2.84166E-05-3.02071E-05 1.05384E-05 2.47072E-19-1.91777E-18
 -1       677 9.78685E-05-2.75891E-05-3.01183E-05 9.07856E-06 2.73368E-19-1.69066E-18
 -1       678 9.72457E-05-2.73139E-05-2.99689E-05 7.59006E-06-5.91173E-20-2.08045E-18
 -1       679 9.68274E-05-2.73201E-05-2.97870E-05 6.19838E-06 3.16035E-19-2.12445E-18
 -1       680 9.65130E-05-2.74506E-05-2.95965E-05 4.96351E-06 7.82511E-19-1.93409E-18
 -1       681 9.62576E-05-2.76219E-05-2.94139E-05 3.90633E-06 6.44733E-19-1.51907E-18
 -1       682 9.60433E-05-2.77935E-05-2.92487E-05 3.02518E-06 2.97341E-19-2.19319E-18
 -1       683 9.58627E-05-2.79481E-05-2.91054E-05 2.30628E-06-4.71576E-19-1.50408E-18
 -1       684 9.57125E-05-2.80799E-05-2.89847E-05 1.73023E-06 1.00037E-18-2.40205E-18
 -1       685 9.55901E-05-2.81890E-05-2.88857E-05 1.27604E-06 4.62662E-19-3.92704E-18
 -1       686 9.54925E-05-2.82774E-05-2.88060E-05 9.23324E-07-2.40975E-19-3.72426E-18
 -1       687 9.54164E-05-2.83481E-05-2.87432E-05 6.53508E-07-3.48294E-19-4.44613E-18
 -1       688 9.53584E-05-2.84040E-05-2.86945E-05 4.50286E-07-8.95085E-19-4.84448E-18
 -1       689 9.53154E-05-2.84477E-05-2.86574E-05 2.99752E-07-1.18775E-18-4.39327E-18
 -1       690 9.52842E-05-2.84815E-05-2.86296E-05 1.90298E-07-1.26317E-18-2.83757E-18
 -1       691 9.52623E-05-2.85073E-05-2.86092E-05 1.12401E-07-4.24769E-19-1.27473E-18
 -1       692 9.52475E-05-2.85268E-05-2.85945E-05 5.83768E-08-5.89194E-19-2.19891E-18
 -1       693 9.52378E-05-2.85413E-05-2.85842E-05 2.21129E-08-5.14378E-19-2.65723E-18
 -1       694 9.52320E-05-2.85519E-05-2.85772E-05-1.18074E-09-5.32144E-19-1.98499E-18
 -1       695 9.52288E-05-2.85594E-05-2.85726E-05-1.52031E-08-1.01714E-18-5.85069E-19
 -1       696 9.52275E-05-2.85647E-05-2.85697E-05-2.27662E-08 2.20263E-19-5.85657E-19
 -1       697 9.52274E-05-2.85683E-05-2.85681E-05-2.59715E-08-8.45874E-19-4.29222E-19
 -1       698 9.52279E-05-2.85707E-05-2.85674E-05-2.63593E-08-1.02772E-18-3.55862E-19
 -1       699 9.52290E-05-2.85721E-05-2.85672E-05-2.50317E-08-1.73748E-18-6.14661E-19
 -1       700 9.52302E-05-2.85730E-05-2.85674E-05-2.27534E-08 1.18239E-18 7.48692E-19
 -1       701 9.52314E-05-2.85734E-05-2.85677E-05-2.00315E-08 1.15061E-18 1.69332E-19
 -1       702 9.52326E-05-2.85737E-05-2.85681E-05-1.71822E-08 1.56826E-18-1.69130E-18
 -1       703 9.52338E-05-2.85738E-05-2.85686E-05-1.43741E-08 1.85072E-18-2.54447E-18
 -1       704 9.52349E-05-2.85740E-05-2.85690E-05-1.16739E-08 2.06539E-18-3.27437E-18
 -1       705 9.52364E-05-2.85749E-05-2.85692E-05-9.94118E-09-5.06739E-19-1.00230E-18
 -1       706 9.52458E-05-2.85835E-05-2.85696E-05-1.75047E-09 4.65124E-19 3.04105E-18
 -1       707 9.52372E-05-2.85756E-05-2.85693E-05 9.86867E-09-9.19080E-19-2.04294E-18
 -1       708 9.52434E-05-2.85813E-05-2.85695E-05-7.94223E-09 1.25465E-18-6.70320E-19
 -1       709 9.52458E-05-2.85835E-05-2.85696E-05 1.82810E-09 4.40098E-19 2.48800E-18
 -1       710 9.52450E-05-2.85827E-05-2.85695E-05-5.13661E-09 3.21593E-19-7.99864E-19
 -1       711 1.04848E-04-5.18230E-05-2.25074E-05 3.16180E-05-1.83756E-18-1.31056E-18
 -1       712 9.52450E-05-2.85827E-05-2.85695E-05 5.14883E-09-1.02128E-18-3.37459E-19
 -1       713 9.52434E-05-2.85813E-05-2.85695E-05 7.94648E-09-2.97901E-19-5.39665E-19
 -1       714 9.52412E-05-2.85792E-05-2.85694E-05 9.80658E-09 5.25306E-19-1.15271E-18
 -1       715 1.28376E-04-5.10962E-05-3.31638E-05 2.01186E-06-1.18002E-19 6.38061E-19
 -1       716 4.89873E-05-1.83363E-05-1.26496E-05 2.37628E-05-1.33668E-18 1.97946E-18
 -1       717 1.06631E-04-4.91983E-05-2.43855E-05-2.70463E-05-9.23054E-19-2.02275E-18
 -1       718 1.31807E-04-3.06486E-05-4.37654E-05 1.20705E-05-2.22113E-18-3.05332E-18
 -1       719 4.15250E-05-8.66274E-06-1.35889E-05-1.79958E-05-6.95493E-20-4.84550E-18
 -1       720 1.10511E-04-3.43856E-05-3.26119E-05-7.19783E-06-6.95168E-19-6.63934E-19
 -1       721 7.65771E-05-3.70499E-05-1.65557E-05-3.88352E-05 2.89280E-18 1.61979E-18
 -1       722 1.18125E-04-4.35880E-05-3.19380E-05-3.62395E-06 3.89325E-20-1.56612E-19
 -1       723 4.76985E-05-1.71846E-05-1.26042E-05-2.48830E-05 2.04576E-18 3.76331E-18
 -1       724 6.17027E-05-5.62670E-06-2.39525E-05-8.18625E-06 5.55601E-19-3.37584E-18
 -1       725 9.49702E-05-2.65156E-05-2.93363E-05 8.61203E-06 6.63449E-19-2.02002E-18
 -1       726 1.33377E-04-4.92866E-05-3.62335E-05 1.50085E-06-3.07708E-19 1.86255E-19
 -1       727 1.32137E-04-3.60228E-05-4.15500E-05-1.24006E-05-2.07145E-18 9.51218E-19
 -1       728 6.78281E-05-2.70388E-05-1.71078E-05-3.15630E-05-8.02696E-19-3.72395E-18
 -1       729 1.31833E-04-5.71517E-05-3.19944E-05-7.03824E-06-2.83558E-19-8.25989E-20
 -1       730 4.90768E-05-1.38825E-05-1.45810E-05 3.07998E-05 1.88261E-18-4.76858E-18
 -1       731 1.12417E-04-5.01492E-05-2.65285E-05 2.75310E-05 1.27296E-18-1.52516E-18
 -1       732 1.35411E-04-4.92227E-05-3.71548E-05 2.58002E-06-4.43316E-19-3.86099E-18
 -1       733 3.86725E-05-1.00918E-05-1.17315E-05-8.82314E-07 8.45850E-19 3.35203E-18
 -1       734 1.22742E-04-1.61487E-05-4.61779E-05-1.21641E-05-3.87645E-18 4.08045E-19
 -1       735 1.24692E-04-1.62857E-05-4.69920E-05 1.04813E-05-3.90345E-18-1.94778E-18
 -1       736 9.95838E-05-5.00789E-05-2.09745E-05-3.65556E-05 2.81996E-18-1.04039E-19
 -1       737 1.38613E-04-5.23460E-05-3.71595E-05 7.95136E-06 9.10779E-19 8.29073E-19
 -1       738 1.26641E-04-5.81313E-05-2.93768E-05-1.82397E-05 8.62756E-19-2.67440E-18
 -1       739 1.17889E-04-8.66905E-06-4.73040E-05-6.86940E-07-4.71681E-18-6.00053E-19
 -1       740 1.02925E-04-3.00011E-05-3.12587E-05 1.01962E-06-4.62179E-20-1.62972E-18
 -1       741 6.71074E-05-1.00825E-05-2.43764E-05 1.72527E-05 1.33917E-18-3.71439E-18
 -1       742 1.20673E-04-5.72339E-05-2.70981E-05 2.02169E-05-1.55910E-18-3.06528E-18
 -1       743 1.38808E-04-5.70081E-05-3.51622E-05-1.40334E-06 2.56298E-19-4.72936E-18
 -1       744 1.35061E-04-4.70562E-05-3.78878E-05 1.46914E-05 1.04842E-18 1.07553E-18
 -1       745 9.52412E-05-2.85793E-05-2.85694E-05-9.81324E-09 8.92530E-19 2.33864E-18
 -1       746 1.29099E-04-1.66185E-05-4.88559E-05-9.40459E-06 3.95697E-18-2.65997E-18
 -1       747 9.52388E-05-2.85771E-05-2.85693E-05-1.03900E-08-2.75898E-19-1.13948E-19
 -1       748 1.24687E-04-5.10425E-05-3.15888E-05 9.84576E-06 8.89457E-19-1.61591E-19
 -1       749 6.76312E-05-2.34455E-05-1.86414E-05 3.35377E-05 2.00579E-18-3.79045E-18
 -1       750 3.81366E-05-1.93070E-06-1.51013E-05-3.35295E-06 5.56554E-19-4.90374E-18
 -1       751 8.25051E-05-1.96511E-05-2.69085E-05 1.53124E-05 1.10157E-18-2.66812E-18
 -1       752 1.07885E-04-3.16833E-05-3.26586E-05-5.83979E-06-8.31781E-19-1.05613E-18
 -1       753 9.52393E-05-2.85775E-05-2.85693E-05 1.10429E-08-1.52591E-18-4.55857E-18
 -1       754 9.31941E-05-3.02561E-05-2.68820E-05-1.60641E-05-2.65853E-19-1.88794E-18
 -1       755 1.20469E-04-2.50478E-05-4.11706E-05 1.30952E-05-1.94374E-18-3.52081E-18
 -1       756 1.19215E-04-3.73564E-05-3.51427E-05-1.26100E-05-1.03124E-18 4.72998E-19
 -1       757 1.16379E-04-2.80249E-05-3.79695E-05-1.43134E-05-2.05673E-18 2.45984E-19
 -1       758 1.11194E-04-1.72973E-05-4.04555E-05-9.20455E-06-2.91341E-18-6.81994E-20
 -1       759 1.13450E-04-2.27622E-05-3.89998E-05 1.13792E-05-1.86773E-18-2.92250E-18
 -1       760 1.17752E-04-3.44480E-05-3.57939E-05 1.25634E-05-9.19951E-19-2.83269E-18
 -1       761 1.18718E-04-4.21942E-05-3.28129E-05 7.67644E-06-2.46794E-19-2.61928E-18
 -1       762 1.15496E-04-4.38450E-05-3.07055E-05 1.26680E-06 4.65745E-19-1.64019E-18
 -1       763 1.10399E-04-4.15561E-05-2.95051E-05-3.51265E-06 8.15854E-19-1.24883E-18
 -1       764 1.05409E-04-3.78438E-05-2.89582E-05-6.18204E-06 1.45199E-19-1.19860E-18
 -1       765 1.01423E-04-3.42599E-05-2.87854E-05-7.25860E-06-5.65500E-20-5.06782E-19
 -1       766 9.85959E-05-3.14156E-05-2.87919E-05-7.34546E-06-1.56165E-19-7.68472E-19
 -1       767 9.67603E-05-2.94171E-05-2.88614E-05-6.88703E-06 1.99868E-19-7.91681E-19
 -1       768 9.56610E-05-2.81501E-05-2.89331E-05-6.16230E-06 3.56790E-19-4.90059E-19
 -1       769 9.50635E-05-2.74393E-05-2.89817E-05-5.33514E-06 4.06628E-19-1.52920E-20
 -1       770 9.47860E-05-2.71170E-05-2.90009E-05-4.50035E-06 2.68377E-19-5.50911E-19
 -1       771 9.46994E-05-2.70470E-05-2.89938E-05-3.71243E-06 1.60162E-19-7.43512E-20
 -1       772 9.47175E-05-2.71275E-05-2.89670E-05-3.00109E-06 9.07374E-19-7.97290E-19
 -1       773 9.47856E-05-2.72872E-05-2.89278E-05-2.37993E-06 3.98691E-19-1.19069E-18
 -1       774 9.48713E-05-2.74790E-05-2.88823E-05-1.85213E-06-4.85703E-19-9.27071E-19
 -1       775 9.49564E-05-2.76739E-05-2.88353E-05-1.41413E-06 3.10968E-20-1.65722E-18
 -1       776 9.50320E-05-2.78550E-05-2.87901E-05-1.05839E-06 1.94813E-20-1.96585E-18
 -1       777 9.50947E-05-2.80142E-05-2.87487E-05-7.75187E-07-7.47262E-20-1.68706E-18
 -1       778 9.51439E-05-2.81485E-05-2.87123E-05-5.54077E-07 5.46239E-19-1.03200E-18
 -1       779 9.51810E-05-2.82583E-05-2.86812E-05-3.84753E-07 1.00072E-18-2.66988E-19
 -1       780 9.52077E-05-2.83455E-05-2.86552E-05-2.57647E-07 2.19297E-19 2.75602E-19
 -1       781 9.52262E-05-2.84132E-05-2.86342E-05-1.64245E-07 7.02440E-20-2.12312E-19
 -1       782 9.52383E-05-2.84644E-05-2.86174E-05-9.72209E-08 7.45186E-19-4.52070E-19
 -1       783 9.52456E-05-2.85024E-05-2.86042E-05-5.04395E-08 1.03874E-18 5.44881E-19
 -1       784 9.52495E-05-2.85297E-05-2.85942E-05-1.88848E-08-1.06904E-18-2.70523E-19
 -1       785 9.52511E-05-2.85489E-05-2.85866E-05 1.45709E-09-7.78389E-19 1.04330E-18
 -1       786 9.52511E-05-2.85619E-05-2.85811E-05 1.37343E-08-9.56688E-19 6.44089E-20
 -1       787 9.52502E-05-2.85703E-05-2.85771E-05 2.03672E-08-4.83527E-19-6.59765E-19
 -1       788 9.52487E-05-2.85754E-05-2.85743E-05 2.31791E-08-2.75038E-19 1.38533E-18
 -1       789 9.52471E-05-2.85781E-05-2.85724E-05 2.35125E-08 2.15169E-19 4.17404E-19
 -1       790 9.52454E-05-2.85793E-05-2.85712E-05 2.23310E-08 8.56468E-19-5.78634E-19
 -1       791 9.52438E-05-2.85796E-05-2.85704E-05 2.03051E-08 6.43686E-19-2.18798E-18
 -1       792 9.52424E-05-2.85792E-05-2.85699E-05 1.78787E-08-8.48667E-19-1.46011E-18
 -1       793 9.52412E-05-2.85787E-05-2.85696E-05 1.53326E-08 3.56230E-19-1.18812E-18
 -1       794 9.52400E-05-2.85780E-05-2.85694E-05 1.31774E-08-2.44579E-19-2.36117E-18
 -1       795 9.81448E-05-3.32089E-05-2.78319E-05 1.62604E-05-1.12624E-18-1.14970E-18
 -1       796 9.48445E-05-2.86815E-05-2.83551E-05 1.42444E-05 3.05274E-19-8.10333E-19
 -1       797 9.35877E-05-2.63553E-05-2.88127E-05 1.21327E-05 3.32923E-19-1.25830E-18
 -1       798 9.33577E-05-2.54220E-05-2.91144E-05 1.02097E-05 4.26228E-19-1.23942E-18
 -1       799 9.35701E-05-2.52675E-05-2.92718E-05 8.49479E-06-4.38608E-19-1.92853E-18
 -1       800 9.39225E-05-2.55050E-05-2.93211E-05 6.98092E-06 1.92100E-19-2.58673E-19
 -1       801 9.42729E-05-2.59063E-05-2.92994E-05 5.66056E-06 4.56138E-19-3.47199E-19
 -1       802 9.45661E-05-2.63467E-05-2.92364E-05 4.52582E-06 7.18261E-19-7.45256E-19
 -1       803 9.47903E-05-2.67647E-05-2.91535E-05 3.56656E-06 1.11711E-18-1.89873E-19
 -1       804 9.49521E-05-2.71336E-05-2.90648E-05 2.76927E-06 5.46959E-19-7.57968E-19
 -1       805 9.50638E-05-2.74457E-05-2.89789E-05 2.11747E-06 6.18624E-19-2.04850E-18
 -1       806 9.51383E-05-2.77027E-05-2.89008E-05 1.59306E-06 8.47698E-19-6.79898E-19
 -1       807 9.51863E-05-2.79100E-05-2.88325E-05 1.17765E-06 1.03230E-18-6.01849E-19
 -1       808 9.52161E-05-2.80749E-05-2.87747E-05 8.53617E-07-5.33376E-20-1.18007E-18
 -1       809 9.52338E-05-2.82042E-05-2.87269E-05 6.04787E-07-7.46271E-19-1.09006E-18
 -1       810 9.52437E-05-2.83043E-05-2.86882E-05 4.16795E-07-4.82286E-19-9.82319E-19
 -1       811 9.52485E-05-2.83810E-05-2.86575E-05 2.77225E-07-1.67405E-18-1.14813E-18
 -1       812 9.52504E-05-2.84388E-05-2.86335E-05 1.75592E-07-1.23713E-18-1.96919E-18
 -1       813 9.52504E-05-2.84818E-05-2.86151E-05 1.03209E-07-5.78103E-19-2.14604E-18
 -1       814 9.52495E-05-2.85132E-05-2.86013E-05 5.30111E-08-1.13438E-18 2.99778E-19
 -1       815 9.52481E-05-2.85358E-05-2.85910E-05 1.93464E-08-1.50583E-19 4.14470E-19
 -1       816 9.52465E-05-2.85515E-05-2.85836E-05-2.23405E-09-1.88368E-18-8.49709E-19
 -1       817 9.52450E-05-2.85622E-05-2.85783E-05-1.51756E-08-3.33714E-19-1.49279E-18
 -1       818 9.52435E-05-2.85692E-05-2.85747E-05-2.21017E-08-1.37895E-18 1.41605E-18
 -1       819 9.52422E-05-2.85735E-05-2.85723E-05-2.49745E-08-2.11892E-19 2.73361E-20
 -1       820 9.52411E-05-2.85759E-05-2.85708E-05-2.52312E-08-1.82160E-18-5.14574E-19
 -1       821 9.52402E-05-2.85771E-05-2.85699E-05-2.38988E-08-1.34714E-18-5.73302E-19
 -1       822 9.52395E-05-2.85774E-05-2.85694E-05-2.16873E-08 1.74980E-18-5.03088E-20
 -1       823 9.52389E-05-2.85773E-05-2.85692E-05-1.90627E-08 2.50987E-18-1.59321E-19
 -1       824 9.52385E-05-2.85770E-05-2.85692E-05-1.63293E-08 2.83923E-18-5.87056E-19
 -1       825 9.52382E-05-2.85767E-05-2.85692E-05-1.36239E-08 3.31412E-18-7.43867E-19
 -1       826 9.52386E-05-2.85769E-05-2.85693E-05-1.19820E-08 1.61425E-18-7.79116E-20
 -1       827 1.10837E-04-3.59156E-05-3.21073E-05-4.29400E-06-3.02594E-19-7.25953E-19
 -1       828 4.43508E-05-7.66419E-07-1.84234E-05 8.70160E-06 1.14678E-18-4.53463E-18
 -1       829 9.52486E-05-2.85845E-05-2.85703E-05 5.06507E-11-1.79262E-19 2.89252E-18
 -1       830 9.52438E-05-2.85809E-05-2.85698E-05 1.07196E-08-2.50808E-18 3.53102E-19
 -1       831 9.53858E-05-3.84201E-05-2.42105E-05 2.86427E-05 1.92419E-18-2.08479E-18
 -1       832 9.08188E-05-3.51525E-05-2.36336E-05-2.44700E-05-7.47308E-19-2.50685E-18
 -1       833 9.52464E-05-2.85829E-05-2.85701E-05 7.86208E-09-2.32132E-18 7.16244E-20
 -1       834 1.04827E-04-4.07409E-05-2.74264E-05 1.76536E-05-1.60345E-18-1.54922E-18
 -1       835 1.27399E-04-5.26989E-05-3.20684E-05-3.20995E-06 5.46704E-19-3.84914E-18
 -1       836 6.33547E-05-1.52928E-05-2.03528E-05-2.03481E-05-3.12965E-19-3.55827E-18
 -1       837 1.20829E-04-5.32536E-05-2.88739E-05 1.35817E-05-8.92017E-19-2.97393E-18
 -1       838 5.24354E-05-1.30958E-05-1.65689E-05-1.20523E-05 1.07467E-18 2.81122E-18
 -1       839 5.22193E-05-1.34206E-05-1.63476E-05 1.16663E-05-9.91029E-20 1.96925E-18
 -1       840 1.17642E-04-4.04944E-05-3.30586E-05-7.74894E-06-3.13587E-19-1.20644E-19
 -1       841 1.27471E-04-4.33182E-05-3.61894E-05-8.57147E-06-4.52676E-19 6.49846E-19
 -1       842 1.13024E-04-5.27715E-05-2.57795E-05-2.42665E-05 1.73910E-18-1.67589E-18
 -1       843 1.27663E-04-4.03018E-05-3.76143E-05 1.05345E-05-8.36015E-19-3.89671E-18
 -1       844 1.13128E-04-1.40191E-05-4.27678E-05 5.96202E-06-3.19143E-18-2.36435E-18
 -1       845 1.16641E-04-4.81274E-05-2.92828E-05-1.24737E-05-6.73481E-19-5.73706E-19
 -1       846 9.52481E-05-2.85841E-05-2.85703E-05 4.17154E-09-1.96848E-18-1.48151E-18
 -1       847 1.07729E-04-3.89596E-05-2.94745E-05-1.09933E-05-8.56033E-20-8.21066E-19
 -1       848 7.16345E-05-2.56389E-05-1.95115E-05 2.56389E-05-1.57966E-18 4.01017E-21
 -1       849 4.53800E-05-3.94114E-06-1.75183E-05 1.68960E-05 1.54505E-18-4.54433E-18
 -1       850 9.72111E-05-4.49466E-05-2.22159E-05-3.16813E-05 2.67142E-18 1.05148E-19
 -1       851 9.75127E-05-4.31314E-05-2.31580E-05 2.77199E-05-2.08087E-18-5.16862E-19
 -1       852 6.95732E-05-2.68877E-05-1.80467E-05-2.99164E-05 2.27808E-18 1.90761E-18
 -1       853 1.20486E-04-2.70567E-05-4.02550E-05-1.49154E-05-2.37380E-18 7.95301E-19
 -1       854 5.74912E-05-8.70231E-06-2.06449E-05 2.15301E-05 1.70665E-18-4.22466E-18
 -1       855 1.07559E-04-3.68139E-05-3.03200E-05 5.26180E-06 5.89278E-19-1.18127E-18
 -1       856 1.10900E-04-4.45806E-05-2.84190E-05 1.64477E-05 1.44193E-18-1.11620E-18
 -1       857 9.52439E-05-2.85810E-05-2.85698E-05-1.07013E-08 9.63235E-19 1.96302E-18
 -1       858 9.52465E-05-2.85829E-05-2.85701E-05-7.83306E-09 8.59234E-19-6.43914E-19
 -1       859 9.52481E-05-2.85841E-05-2.85703E-05-4.10146E-09 7.17207E-19 1.99719E-19
 -1       860 9.52421E-05-2.85795E-05-2.85697E-05 1.21378E-08-3.06355E-18-1.57793E-18
 -1       861 9.72161E-05-3.25468E-05-2.76835E-05 1.57671E-05 1.17928E-18-1.85565E-18
 -1       862 8.95864E-05-3.30851E-05-2.41093E-05 2.30097E-05-1.84661E-18-8.98053E-20
 -1       863 4.80017E-05-3.21025E-06-1.89203E-05-7.71606E-06 3.36451E-19-4.29380E-18
 -1       864 1.20848E-04-4.90182E-05-3.08353E-05-2.75352E-06 2.99866E-19-3.12452E-18
 -1       865 1.12874E-04-4.56418E-05-2.88008E-05-8.29639E-06 9.55843E-19-2.87690E-18
 -1       866 1.05603E-04-4.02368E-05-2.80125E-05-1.05301E-05 9.40409E-19-1.97109E-18
 -1       867 1.00232E-04-3.52587E-05-2.78469E-05-1.06365E-05 7.38461E-19-9.95435E-19
 -1       868 9.67356E-05-3.14782E-05-2.79672E-05-9.74967E-06-1.33948E-19-5.26465E-19
 -1       869 9.46822E-05-2.89176E-05-2.81845E-05-8.50604E-06 3.12237E-19-4.68923E-19
 -1       870 9.36208E-05-2.73466E-05-2.84030E-05-7.22094E-06 4.48951E-19 4.90021E-19
 -1       871 9.31948E-05-2.65020E-05-2.85825E-05-6.02131E-06 4.54592E-19 4.23336E-20
 -1       872 9.31496E-05-2.61552E-05-2.87118E-05-4.94951E-06 1.92524E-19-2.95107E-19
 -1       873 9.33145E-05-2.61299E-05-2.87933E-05-4.01492E-06 1.09354E-18-6.09505E-20
 -1       874 9.35780E-05-2.62955E-05-2.88353E-05-3.21422E-06 3.48208E-19 3.09422E-19
 -1       875 9.38712E-05-2.65602E-05-2.88475E-05-2.53835E-06 2.68664E-19-5.62162E-19
 -1       876 9.41544E-05-2.68628E-05-2.88393E-05-1.97590E-06-2.36110E-19-8.60786E-19
 -1       877 9.44072E-05-2.71649E-05-2.88181E-05-1.51459E-06-4.49370E-19-6.15749E-19
 -1       878 9.46210E-05-2.74444E-05-2.87900E-05-1.14183E-06-4.06604E-19-5.86276E-19
 -1       879 9.47947E-05-2.76900E-05-2.87591E-05-8.45189E-07 4.43192E-19-1.15333E-18
 -1       880 9.49312E-05-2.78979E-05-2.87285E-05-6.12820E-07 7.01458E-19-1.14475E-20
 -1       881 9.50351E-05-2.80685E-05-2.87000E-05-4.33743E-07 1.48857E-18-2.72559E-19
 -1       882 9.51120E-05-2.82050E-05-2.86744E-05-2.98092E-07 9.91599E-19-9.43191E-19
 -1       883 9.51671E-05-2.83116E-05-2.86524E-05-1.97223E-07 1.97342E-19-7.34020E-19
 -1       884 9.52052E-05-2.83930E-05-2.86338E-05-1.23742E-07-6.15581E-20-4.71518E-19
 -1       885 9.52304E-05-2.84537E-05-2.86186E-05-7.14588E-08 2.03730E-18-7.04253E-19
 -1       886 9.52461E-05-2.84980E-05-2.86063E-05-3.52926E-08-3.37674E-19-1.34281E-19
 -1       887 9.52551E-05-2.85295E-05-2.85967E-05-1.11517E-08-1.71063E-19 2.45671E-19
 -1       888 9.52593E-05-2.85511E-05-2.85892E-05 4.20091E-09-9.64671E-19-4.44208E-19
 -1       889 9.52603E-05-2.85654E-05-2.85835E-05 1.32797E-08-9.25276E-19 7.47238E-19
 -1       890 9.52594E-05-2.85743E-05-2.85793E-05 1.80029E-08 3.57174E-20 6.30488E-19
 -1       891 9.52573E-05-2.85795E-05-2.85762E-05 1.98051E-08-1.74866E-19 6.65360E-20
 -1       892 9.52547E-05-2.85820E-05-2.85740E-05 1.97345E-08 1.30512E-19 8.19688E-19
 -1       893 9.52518E-05-2.85828E-05-2.85724E-05 1.85380E-08 3.07555E-19-8.33425E-20
 -1       894 9.52491E-05-2.85826E-05-2.85713E-05 1.67339E-08 1.16055E-18 1.80793E-18
 -1       895 9.52465E-05-2.85819E-05-2.85706E-05 1.46490E-08 3.18298E-19 2.84237E-18
 -1       896 6.74922E-05-2.01895E-05-2.01658E-05-1.94380E-05 1.63899E-18 2.07543E-18
 -1       897 8.65742E-05-2.57921E-05-2.60429E-05 1.63192E-05-9.49172E-19-8.70270E-19
 -1       898 8.92330E-05-2.29754E-05-2.83957E-05 8.42010E-06 2.55537E-19 1.07203E-18
 -1       899 9.04890E-05-2.34952E-05-2.87114E-05 6.91488E-06 9.87791E-21-4.28614E-19
 -1       900 9.15834E-05-2.41811E-05-2.88865E-05 5.66133E-06 4.68556E-19 1.92623E-19
 -1       901 9.24842E-05-2.48948E-05-2.89668E-05 4.59558E-06 3.54025E-19 6.54534E-19
 -1       902 9.31997E-05-2.55653E-05-2.89861E-05 3.68647E-06 9.98689E-19 1.02324E-18
 -1       903 9.37537E-05-2.61596E-05-2.89688E-05 2.91693E-06 1.01713E-18 1.10442E-18
 -1       904 9.41743E-05-2.66674E-05-2.89315E-05 2.27384E-06 6.20052E-19 1.53116E-18
 -1       905 9.44887E-05-2.70900E-05-2.88851E-05 1.74452E-06 4.09183E-19 1.20037E-18
 -1       906 9.47206E-05-2.74349E-05-2.88367E-05 1.31578E-06 1.47158E-18-3.13785E-19
 -1       907 9.48895E-05-2.77119E-05-2.87904E-05 9.74168E-07 5.21282E-19 8.53612E-20
 -1       908 9.50108E-05-2.79312E-05-2.87484E-05 7.06442E-07-8.08027E-19 6.07471E-19
 -1       909 9.50967E-05-2.81025E-05-2.87118E-05 5.00130E-07-1.36266E-18 1.81712E-18
 -1       910 9.51563E-05-2.82345E-05-2.86808E-05 3.43901E-07 4.53970E-19 1.98867E-18
 -1       911 9.51967E-05-2.83348E-05-2.86551E-05 2.27781E-07-5.00553E-19 9.19913E-20
 -1       912 9.52233E-05-2.84099E-05-2.86343E-05 1.43223E-07-1.20101E-18 1.02599E-18
 -1       913 9.52399E-05-2.84651E-05-2.86178E-05 8.30694E-08-1.96737E-18 2.04303E-18
 -1       914 9.52496E-05-2.85050E-05-2.86048E-05 4.14550E-08-4.04822E-19 4.69325E-19
 -1       915 9.52546E-05-2.85332E-05-2.85949E-05 1.36613E-08-2.01839E-19 1.24611E-18
 -1       916 9.52565E-05-2.85525E-05-2.85874E-05-4.03831E-09-3.46215E-19 1.74927E-19
 -1       917 9.52563E-05-2.85653E-05-2.85819E-05-1.45345E-08-2.11164E-18 3.92086E-19
 -1       918 9.52549E-05-2.85733E-05-2.85778E-05-2.00296E-08-9.61441E-19 1.36989E-18
 -1       919 9.52529E-05-2.85779E-05-2.85750E-05-2.21693E-08-5.64421E-20 1.11435E-18
 -1       920 9.52506E-05-2.85803E-05-2.85730E-05-2.21575E-08-6.64720E-19-1.13604E-18
 -1       921 9.52483E-05-2.85811E-05-2.85716E-05-2.08508E-08-7.17925E-19-2.31261E-18
 -1       922 9.52461E-05-2.85810E-05-2.85708E-05-1.88401E-08 1.59847E-18-1.51543E-18
 -1       923 9.52442E-05-2.85804E-05-2.85702E-05-1.64980E-08 3.46110E-18-1.98370E-18
 -1       924 9.52425E-05-2.85797E-05-2.85698E-05-1.40998E-08 3.24092E-18-1.53574E-19
 -1       925 9.52412E-05-2.85790E-05-2.85695E-05-1.17846E-08 1.05177E-18 3.55022E-19
 -1       926 1.21639E-04-4.57503E-05-3.25139E-05-1.39833E-07 4.17006E-19-1.55795E-19
 -1       927 8.75361E-05-3.54003E-05-2.22371E-05-2.73017E-05 2.72488E-18 3.83229E-19
 -1       928 9.52475E-05-2.85829E-05-2.85705E-05 1.09206E-08-2.15170E-18-4.65090E-19
 -1       929 8.79266E-05-2.28664E-05-2.78816E-05 1.03015E-05 1.10501E-19 4.64785E-19
 -1       930 8.68200E-05-2.35642E-05-2.71050E-05 1.27989E-05 4.73540E-19 5.02860E-20
 -1       931 7.87794E-05-2.23127E-05-2.40838E-05 2.35257E-05 1.71764E-18-2.90148E-18
 -1       932 6.75595E-05-1.83877E-05-2.09742E-05 1.57211E-05-6.68835E-19-4.78097E-19
 -1       933 1.05097E-04-4.61253E-05-2.52380E-05-2.30757E-05 2.39248E-18-9.44247E-19
 -1       934 5.92672E-05-1.29802E-05-1.97308E-05-4.48359E-08 5.23341E-19 1.61861E-18
 -1       935 9.52440E-05-2.85806E-05-2.85700E-05 1.34675E-08-5.93478E-19-4.85874E-19
 -1       936 6.67002E-05-1.60734E-05-2.16531E-05-9.13800E-06 9.67612E-19 2.05807E-18
 -1       937 9.52516E-05-2.85857E-05-2.85711E-05-2.36716E-09-6.13900E-19 1.02569E-18
 -1       938 9.52502E-05-2.85847E-05-2.85709E-05 7.05329E-09-1.70444E-18 1.19538E-19
 -1       939 9.52516E-05-2.85856E-05-2.85711E-05 2.45666E-09-1.65937E-18-3.28416E-19
 -1       940 1.16551E-04-4.99282E-05-2.85466E-05-1.18339E-05 1.14137E-18-3.17340E-18
 -1       941 9.52476E-05-2.85830E-05-2.85705E-05-1.09317E-08-1.59952E-20-9.45576E-19
 -1       942 9.02311E-05-2.34308E-05-2.86289E-05 4.00554E-06 1.42377E-19 1.15598E-19
 -1       943 1.03568E-04-4.18683E-05-2.64238E-05-1.72111E-05 1.80200E-18-1.58171E-18
 -1       944 9.70437E-05-3.52433E-05-2.64838E-05-1.52888E-05 1.14793E-18-7.11453E-19
 -1       945 9.33429E-05-3.06534E-05-2.68655E-05-1.27606E-05 5.89008E-19-5.52774E-19
 -1       946 9.15463E-05-2.77752E-05-2.73293E-05-1.02907E-05 1.58501E-19 4.67625E-19
 -1       947 9.08581E-05-2.60956E-05-2.77551E-05-8.20472E-06 2.55461E-19-1.26099E-19
 -1       948 9.08361E-05-2.52651E-05-2.81019E-05-6.50808E-06 4.77025E-19-3.22902E-19
 -1       949 9.11712E-05-2.49889E-05-2.83639E-05-5.14685E-06 8.76685E-19 3.64850E-19
 -1       950 9.16813E-05-2.50677E-05-2.85487E-05-4.05385E-06 1.20840E-18 5.34296E-19
 -1       951 9.22502E-05-2.53548E-05-2.86695E-05-3.17682E-06 7.16774E-19 8.59905E-19
 -1       952 9.28079E-05-2.57466E-05-2.87406E-05-2.47259E-06-3.06262E-19 6.64561E-19
 -1       953 9.33163E-05-2.61742E-05-2.87753E-05-1.90757E-06-5.08659E-19 3.17891E-19
 -1       954 9.37576E-05-2.65939E-05-2.87845E-05-1.45600E-06-2.69600E-19 1.50630E-19
 -1       955 9.41266E-05-2.69799E-05-2.87772E-05-1.09747E-06 2.38840E-21 4.21971E-19
 -1       956 9.44258E-05-2.73193E-05-2.87599E-05-8.15258E-07-4.51237E-19 8.16901E-19
 -1       957 9.46617E-05-2.76074E-05-2.87376E-05-5.95448E-07 7.11610E-19 3.06165E-19
 -1       958 9.48432E-05-2.78450E-05-2.87135E-05-4.26291E-07 5.38552E-19 4.27178E-19
 -1       959 9.49793E-05-2.80364E-05-2.86899E-05-2.97868E-07 1.46417E-18 6.02143E-20
 -1       960 9.50788E-05-2.81869E-05-2.86680E-05-2.01845E-07 3.51264E-19 3.02180E-20
 -1       961 9.51495E-05-2.83029E-05-2.86485E-05-1.31277E-07 8.59607E-19 8.46780E-19
 -1       962 9.51980E-05-2.83903E-05-2.86318E-05-8.04399E-08 4.28096E-19 1.01517E-18
 -1       963 9.52298E-05-2.84548E-05-2.86179E-05-4.46746E-08 1.00819E-18-3.52379E-19
 -1       964 9.52496E-05-2.85012E-05-2.86064E-05-2.02392E-08-1.55690E-19-5.94687E-19
 -1       965 9.52606E-05-2.85337E-05-2.85973E-05-4.17052E-09-6.38843E-21 7.10758E-19
 -1       966 9.52657E-05-2.85556E-05-2.85900E-05 5.84335E-09-2.39051E-19 1.43292E-18
 -1       967 9.52669E-05-2.85698E-05-2.85845E-05 1.15781E-08-1.85738E-19 1.09103E-18
 -1       968 9.52655E-05-2.85784E-05-2.85802E-05 1.43749E-08 8.79138E-20 5.17102E-19
 -1       969 9.52628E-05-2.85830E-05-2.85770E-05 1.52301E-08 7.65168E-19 1.08036E-18
 -1       970 9.52593E-05-2.85850E-05-2.85747E-05 1.48575E-08 2.01649E-20 1.56997E-18
 -1       971 9.52556E-05-2.85853E-05-2.85730E-05 1.37751E-08 1.94727E-18 1.16773E-18
 -1       972 9.52521E-05-2.85847E-05-2.85718E-05 1.23146E-08 6.96469E-19 2.24988E-20
 -1       973 8.68219E-05-2.14843E-05-2.80019E-05 5.81594E-06 6.96036E-19-1.36097E-20
 -1       974 9.14426E-05-2.43293E-05-2.87631E-05 3.28932E-06 2.84919E-19-1.05223E-19
 -1       975 9.23958E-05-2.51306E-05-2.88281E-05 2.66534E-06 2.32900E-19 5.99001E-19
 -1       976 9.31369E-05-2.58234E-05-2.88488E-05 2.12644E-06 1.23995E-18 1.91740E-18
 -1       977 9.37068E-05-2.64083E-05-2.88423E-05 1.66819E-06 1.02437E-18 7.94173E-19
 -1       978 9.41402E-05-2.68928E-05-2.88204E-05 1.28564E-06 1.47981E-18 1.15046E-18
 -1       979 9.44660E-05-2.72874E-05-2.87909E-05 9.72373E-07 9.66289E-19 1.33948E-18
 -1       980 9.47081E-05-2.76040E-05-2.87590E-05 7.20719E-07-1.00473E-18 2.55088E-18
 -1       981 9.48855E-05-2.78544E-05-2.87276E-05 5.22357E-07-8.57135E-19 2.13208E-18
 -1       982 9.50133E-05-2.80496E-05-2.86988E-05 3.68932E-07-1.82464E-19 8.37264E-19
 -1       983 9.51038E-05-2.81997E-05-2.86732E-05 2.52532E-07 3.67133E-19 1.07998E-18
 -1       984 9.51663E-05-2.83132E-05-2.86513E-05 1.65992E-07-1.16763E-18 2.87624E-19
 -1       985 9.52081E-05-2.83978E-05-2.86330E-05 1.03054E-07-6.42456E-19-2.75629E-19
 -1       986 9.52350E-05-2.84596E-05-2.86180E-05 5.84108E-08-6.29538E-19-1.00059E-18
 -1       987 9.52512E-05-2.85038E-05-2.86060E-05 2.76742E-08-6.92532E-19-1.18123E-18
 -1       988 9.52600E-05-2.85347E-05-2.85966E-05 7.29640E-09-6.77481E-20-8.69034E-19
 -1       989 9.52637E-05-2.85555E-05-2.85892E-05-5.53247E-09-3.04529E-19-1.46276E-18
 -1       990 9.52642E-05-2.85690E-05-2.85837E-05-1.29938E-08-1.93999E-18-2.36157E-18
 -1       991 9.52627E-05-2.85772E-05-2.85795E-05-1.67478E-08 3.43902E-19-3.08710E-18
 -1       992 9.52600E-05-2.85817E-05-2.85764E-05-1.80339E-08 1.91856E-19-5.09901E-18
 -1       993 9.52568E-05-2.85837E-05-2.85742E-05-1.77545E-08-1.12871E-18-3.95673E-18
 -1       994 9.52535E-05-2.85841E-05-2.85726E-05-1.65550E-08-7.15266E-19-2.40710E-18
 -1       995 9.52503E-05-2.85836E-05-2.85715E-05-1.48959E-08 2.58823E-18-1.91151E-18
 -1       996 8.16749E-05-2.78006E-05-2.30549E-05-2.07638E-05 1.40769E-18 6.08229E-19
 -1       997 9.52502E-05-2.85847E-05-2.85709E-05-6.98620E-09-1.36545E-19-1.01841E-18
 -1       998 8.45158E-05-2.05993E-05-2.73931E-05 7.06913E-06 4.86964E-20-4.02734E-19
 -1       999 8.87103E-05-2.24645E-05-2.83913E-05 4.83103E-06-1.48285E-19-1.41146E-19
 -1      1000 6.84925E-05-1.57919E-05-2.25706E-05 6.89914E-06-6.83237E-19 1.40700E-19
 -1      1001 9.29229E-05-3.55014E-05-2.45625E-05-2.11980E-05 2.00074E-18-5.92751E-19
 -1      1002 7.84813E-05-1.99882E-05-2.50547E-05 1.17739E-05-9.96839E-19-5.49943E-19
 -1      1003 9.52547E-05-2.85859E-05-2.85723E-05-1.03454E-08 8.43318E-19-3.40113E-18
 -1      1004 7.58931E-05-2.13410E-05-2.33545E-05-1.44691E-05 9.49769E-19 9.84090E-19
 -1      1005 9.52573E-05-2.85873E-05-2.85728E-05-4.91335E-09-1.49759E-18-2.76032E-18
 -1      1006 6.99665E-05-1.55590E-05-2.32964E-05-9.94903E-07-6.21345E-20 3.80903E-19
 -1      1007 8.17472E-05-1.99752E-05-2.64762E-05 8.81140E-06-2.68210E-19 3.64948E-19
 -1      1008 9.52579E-05-2.85876E-05-2.85730E-05 9.02728E-10-2.71212E-18 3.72010E-19
 -1      1009 8.60189E-05-2.10080E-05-2.78623E-05 3.06605E-06 4.69980E-19-4.52117E-19
 -1      1010 8.73283E-05-2.81931E-05-2.53251E-05-1.58293E-05 1.12609E-18-5.85504E-19
 -1      1011 8.67622E-05-2.55743E-05-2.62254E-05-1.18050E-05 8.76009E-19-6.95648E-19
 -1      1012 8.71101E-05-2.41783E-05-2.69707E-05-8.78516E-06 4.26197E-20-1.43078E-19
 -1      1013 8.78823E-05-2.36182E-05-2.75420E-05-6.57142E-06 8.84448E-19 7.55146E-19
 -1      1014 8.88370E-05-2.35810E-05-2.79675E-05-4.94979E-06 6.33271E-19 8.00135E-20
 -1      1015 8.98296E-05-2.38603E-05-2.82732E-05-3.73105E-06 1.50181E-18-5.99626E-19
 -1      1016 9.07859E-05-2.43281E-05-2.84824E-05-2.81987E-06 9.82741E-19-5.97276E-19
 -1      1017 9.16534E-05-2.48792E-05-2.86179E-05-2.13147E-06-1.75882E-19-1.23182E-18
 -1      1018 9.24125E-05-2.54488E-05-2.86990E-05-1.60676E-06-4.78755E-19-9.01090E-19
 -1      1019 9.30571E-05-2.59949E-05-2.87412E-05-1.20510E-06 2.42124E-19-7.18647E-19
 -1      1020 9.35903E-05-2.64922E-05-2.87566E-05-8.97225E-07-5.33412E-20 2.63711E-19
 -1      1021 9.40211E-05-2.69279E-05-2.87544E-05-6.61538E-07-3.09002E-19 6.23557E-19
 -1      1022 9.43615E-05-2.72981E-05-2.87416E-05-4.81774E-07 1.17333E-19 1.13974E-18
 -1      1023 9.46247E-05-2.76045E-05-2.87230E-05-3.45484E-07 6.91881E-20 7.28133E-19
 -1      1024 9.48239E-05-2.78523E-05-2.87022E-05-2.42999E-07 9.25373E-19 1.92207E-19
 -1      1025 9.49713E-05-2.80486E-05-2.86812E-05-1.66738E-07 1.14960E-18-5.31226E-22
 -1      1026 9.50777E-05-2.82009E-05-2.86615E-05-1.10718E-07 1.22966E-18 9.52801E-19
 -1      1027 9.51523E-05-2.83168E-05-2.86438E-05-7.02093E-08 5.15999E-19 3.84633E-19
 -1      1028 9.52029E-05-2.84031E-05-2.86285E-05-4.14761E-08 1.98894E-19-2.78132E-19
 -1      1029 9.52356E-05-2.84660E-05-2.86156E-05-2.15800E-08 2.74301E-19 6.43374E-20
 -1      1030 9.52554E-05-2.85107E-05-2.86049E-05-8.22515E-09 3.36370E-19-4.93299E-19
 -1      1031 9.52661E-05-2.85414E-05-2.85963E-05 3.66839E-10-4.27059E-19-5.66718E-19
 -1      1032 9.52706E-05-2.85618E-05-2.85895E-05 5.55845E-09-4.21186E-19 1.95046E-19
 -1      1033 9.52711E-05-2.85746E-05-2.85842E-05 8.37931E-09 6.85502E-19 9.95946E-19
 -1      1034 9.52690E-05-2.85821E-05-2.85801E-05 9.59548E-09 7.52744E-19 1.54223E-18
 -1      1035 9.52655E-05-2.85858E-05-2.85770E-05 9.77916E-09 7.11839E-19 1.95972E-18
 -1      1036 9.52614E-05-2.85870E-05-2.85747E-05 9.30333E-09 5.91487E-19 2.28381E-18
 -1      1037 9.52573E-05-2.85868E-05-2.85730E-05 8.53783E-09 3.54606E-19 1.72743E-18
 -1      1038 9.20779E-05-2.50128E-05-2.87427E-05 1.62997E-06 4.01415E-19-9.22054E-19
 -1      1039 8.97387E-05-2.32186E-05-2.85095E-05 2.32114E-06-2.30396E-21-2.09523E-19
 -1      1040 9.28855E-05-2.57331E-05-2.87801E-05 1.32221E-06 9.76062E-19-7.94015E-19
 -1      1041 9.35123E-05-2.63401E-05-2.87884E-05 1.04948E-06 5.05387E-19 4.17386E-19
 -1      1042 9.39937E-05-2.68429E-05-2.87792E-05 8.15154E-07 2.45544E-19 2.63890E-18
 -1      1043 9.43591E-05-2.72527E-05-2.87601E-05 6.19391E-07-4.94260E-19 3.81907E-18
 -1      1044 9.46328E-05-2.75815E-05-2.87365E-05 4.59956E-07-6.70572E-20 3.26917E-18
 -1      1045 9.48348E-05-2.78413E-05-2.87116E-05 3.33139E-07 4.75395E-19 2.96567E-18
 -1      1046 9.49812E-05-2.80436E-05-2.86876E-05 2.34507E-07 1.50101E-19 1.19431E-18
 -1      1047 9.50851E-05-2.81986E-05-2.86657E-05 1.59477E-07 1.86752E-19 6.53999E-19
 -1      1048 9.51572E-05-2.83154E-05-2.86465E-05 1.03680E-07-3.17671E-19 1.36272E-18
 -1      1049 9.52055E-05-2.84020E-05-2.86301E-05 6.31787E-08 2.82961E-20 4.59444E-19
 -1      1050 9.52365E-05-2.84648E-05-2.86165E-05 3.45720E-08-6.23338E-19-7.92580E-19
 -1      1051 9.52551E-05-2.85093E-05-2.86053E-05 1.50122E-08-6.23818E-19-1.89142E-18
 -1      1052 9.52650E-05-2.85400E-05-2.85964E-05 2.18183E-09 5.03019E-19-8.06755E-19
 -1      1053 9.52692E-05-2.85604E-05-2.85895E-05-5.76117E-09 1.42374E-19-1.82218E-18
 -1      1054 9.52695E-05-2.85733E-05-2.85841E-05-1.02474E-08-1.62840E-19-2.80522E-18
 -1      1055 9.52675E-05-2.85809E-05-2.85800E-05-1.23610E-08 2.97012E-19-2.98287E-18
 -1      1056 9.52641E-05-2.85848E-05-2.85769E-05-1.29115E-08-1.10991E-18-2.52948E-18
 -1      1057 9.52602E-05-2.85862E-05-2.85746E-05-1.25011E-08-1.34545E-18-3.32053E-18
 -1      1058 9.52575E-05-2.85863E-05-2.85733E-05-1.15015E-08-2.35160E-19-4.83817E-18
 -1      1059 9.10466E-05-2.41744E-05-2.86602E-05 1.96591E-06 3.71919E-19-1.96598E-19
 -1      1060 9.52546E-05-2.85865E-05-2.85721E-05 5.29547E-09-1.51913E-18 1.55699E-19
 -1      1061 8.33880E-05-1.97878E-05-2.72570E-05 3.49398E-06 4.65894E-19-5.39410E-19
 -1      1062 8.80886E-05-2.21552E-05-2.82582E-05 2.68949E-06-1.64987E-19-1.63776E-19
 -1      1063 7.42784E-05-1.79865E-05-2.41183E-05-7.37305E-06 4.92523E-19 1.81626E-18
 -1      1064 8.00073E-05-1.85152E-05-2.63537E-05 4.05511E-06 2.15485E-19-3.41393E-19
 -1      1065 9.52605E-05-2.85877E-05-2.85740E-05-5.64630E-09-5.34310E-19-4.91790E-18
 -1      1066 9.52615E-05-2.85882E-05-2.85743E-05 6.40909E-10-1.68481E-18 1.94280E-18
 -1      1067 7.53300E-05-1.72347E-05-2.48914E-05 5.49185E-06-8.62514E-19-5.88900E-19
 -1      1068 8.22908E-05-2.15310E-05-2.60390E-05-8.30574E-06 1.20932E-18 3.26882E-19
 -1      1069 8.44041E-05-2.16039E-05-2.69157E-05-5.83404E-06 1.13353E-18 5.49203E-19
 -1      1070 8.61101E-05-2.18761E-05-2.75249E-05-4.13911E-06 3.12274E-19 7.56323E-19
 -1      1071 8.77857E-05-2.25161E-05-2.79727E-05-2.90382E-06 1.58676E-19 4.69522E-19
 -1      1072 8.92248E-05-2.32377E-05-2.82807E-05-2.06217E-06 7.27415E-19-1.58316E-18
 -1      1073 9.04520E-05-2.39847E-05-2.84864E-05-1.46191E-06 1.67730E-19-1.88027E-18
 -1      1074 9.14871E-05-2.47150E-05-2.86169E-05-1.03558E-06 1.47924E-19-4.73707E-19
 -1      1075 9.23466E-05-2.53956E-05-2.86935E-05-7.32905E-07-2.42488E-19 4.17497E-19
 -1      1076 9.30482E-05-2.60065E-05-2.87323E-05-5.17804E-07 3.81251E-19-9.51422E-19
 -1      1077 9.36113E-05-2.65381E-05-2.87458E-05-3.64687E-07 2.54115E-19-1.08394E-18
 -1      1078 9.40553E-05-2.69888E-05-2.87428E-05-2.55511E-07 2.48151E-20-2.78195E-21
 -1      1079 9.43992E-05-2.73622E-05-2.87302E-05-1.77583E-07-2.16869E-19 4.09297E-19
 -1      1080 9.46606E-05-2.76651E-05-2.87124E-05-1.21962E-07 2.81732E-19 2.76559E-19
 -1      1081 9.48556E-05-2.79060E-05-2.86927E-05-8.23377E-08 5.06867E-19 6.89034E-19
 -1      1082 9.49978E-05-2.80941E-05-2.86730E-05-5.42306E-08 9.55833E-19 1.34776E-21
 -1      1083 9.50990E-05-2.82382E-05-2.86546E-05-3.44410E-08 3.92577E-19-6.44583E-19
 -1      1084 9.51689E-05-2.83465E-05-2.86382E-05-2.06659E-08 1.57119E-19-2.82052E-19
 -1      1085 9.52155E-05-2.84262E-05-2.86239E-05-1.12346E-08 1.44021E-20-5.60014E-19
 -1      1086 9.52449E-05-2.84835E-05-2.86120E-05-4.92765E-09 6.58018E-19-1.17033E-18
 -1      1087 9.52620E-05-2.85237E-05-2.86021E-05-8.50295E-10 5.97102E-19-6.62497E-19
 -1      1088 9.52707E-05-2.85508E-05-2.85942E-05 1.65523E-09 3.81327E-19 4.62701E-19
 -1      1089 9.52736E-05-2.85684E-05-2.85879E-05 3.07281E-09 2.98441E-19 6.98112E-19
 -1      1090 9.52729E-05-2.85791E-05-2.85830E-05 3.75967E-09 3.28020E-19 1.42473E-18
 -1      1091 9.52700E-05-2.85850E-05-2.85793E-05 3.95771E-09 1.28484E-18 1.77171E-18
 -1      1092 9.52656E-05-2.85874E-05-2.85764E-05 3.83309E-09 1.46126E-18 2.53902E-18
 -1      1093 9.29013E-05-2.58282E-05-2.87455E-05 6.01949E-07-3.68813E-19 6.35996E-19
 -1      1094 9.35199E-05-2.64171E-05-2.87582E-05 4.94352E-07-9.70386E-19 1.49724E-18
 -1      1095 8.63345E-05-2.12717E-05-2.78862E-05 6.40304E-07-2.70140E-19-6.50192E-19
 -1      1096 9.21112E-05-2.51318E-05-2.87053E-05 7.06073E-07 4.53487E-19-4.02926E-19
 -1      1097 9.39983E-05-2.69059E-05-2.87537E-05 3.93079E-07-3.02589E-20 1.22906E-18
 -1      1098 9.43634E-05-2.73047E-05-2.87393E-05 3.03434E-07-1.97109E-20 1.38570E-19
 -1      1099 9.46378E-05-2.76247E-05-2.87198E-05 2.27599E-07-7.39264E-20 3.90945E-19
 -1      1100 9.48407E-05-2.78772E-05-2.86986E-05 1.65733E-07 1.29608E-18 7.38240E-19
 -1      1101 9.49878E-05-2.80733E-05-2.86776E-05 1.16809E-07 4.95504E-19 1.22884E-18
 -1      1102 9.50922E-05-2.82230E-05-2.86582E-05 7.91967E-08 1.46023E-19 1.33032E-18
 -1      1103 9.51641E-05-2.83354E-05-2.86409E-05 5.10605E-08-2.97865E-19 8.27669E-19
 -1      1104 9.52121E-05-2.84180E-05-2.86260E-05 3.05940E-08 3.89084E-20 1.24550E-18
 -1      1105 9.52425E-05-2.84775E-05-2.86135E-05 1.61553E-08-3.94485E-19 9.38953E-19
 -1      1106 9.52603E-05-2.85193E-05-2.86033E-05 6.32877E-09-1.00743E-19 3.40362E-19
 -1      1107 9.52695E-05-2.85477E-05-2.85950E-05-5.99531E-11 5.47914E-19-2.58888E-19
 -1      1108 9.52728E-05-2.85663E-05-2.85885E-05-3.95491E-09 7.13598E-20-5.29293E-19
 -1      1109 9.52724E-05-2.85777E-05-2.85835E-05-6.09634E-09 7.27934E-19 1.94755E-19
 -1      1110 9.52697E-05-2.85840E-05-2.85796E-05-7.05303E-09 7.86593E-19-6.63594E-19
 -1      1111 9.52657E-05-2.85870E-05-2.85766E-05-7.23243E-09 4.99092E-19-2.90470E-18
 -1      1112 9.11122E-05-2.43241E-05-2.86234E-05 7.90834E-07 1.20742E-18 4.84249E-20
 -1      1113 8.40120E-05-2.01725E-05-2.73568E-05 3.27155E-07 6.27558E-19-6.78062E-19
 -1      1114 8.05054E-05-2.18391E-05-2.51374E-05-1.09763E-05 1.14516E-18 1.51958E-19
 -1      1115 8.98592E-05-2.34063E-05-2.84797E-05 8.32438E-07 3.58813E-19 2.18139E-19
 -1      1116 8.82936E-05-2.23847E-05-2.82469E-05 7.96934E-07-4.86283E-19-8.94249E-20
 -1      1117 7.55067E-05-1.71019E-05-2.50283E-05-5.35858E-07-3.46126E-19-1.21872E-19
 -1      1118 8.08845E-05-1.88830E-05-2.65801E-05-1.15039E-07 6.13834E-19-4.51461E-19
 -1      1119 9.52630E-05-2.85875E-05-2.85752E-05-6.50955E-09 7.01246E-19-4.29372E-18
 -1      1120 9.52653E-05-2.85880E-05-2.85760E-05-1.29258E-09 1.59717E-18-1.50576E-18
 -1      1121 8.35334E-05-2.03139E-05-2.71139E-05-2.35091E-06 9.83310E-19-5.09831E-19
 -1      1122 7.80626E-05-1.87638E-05-2.54091E-05-5.31027E-06 4.05799E-19 6.02325E-19
 -1      1123 8.12012E-05-1.95808E-05-2.64004E-05-3.55320E-06 3.11912E-19-1.60377E-19
 -1      1124 1.31624E-04 2.98572E-10-4.73612E-05-4.36416E-05-2.98156E-19 8.43751E-18
 -1      1125 1.00113E-04 9.13643E-11-4.18450E-05-2.25422E-05-1.51831E-19 1.00225E-18
 -1      1126 9.26239E-05 5.79477E-11-3.92097E-05-1.40433E-05-1.04609E-19-2.08909E-18
 -1      1127 8.75962E-05 4.82565E-11-3.71282E-05-8.01832E-06-5.67512E-20-3.48753E-18
 -1      1128 8.28933E-05 4.15767E-11-3.51546E-05-2.87423E-06-3.09167E-20-4.18524E-18
 -1      1129 7.79597E-05 3.30064E-11-3.31374E-05 1.36350E-06-1.94818E-20-4.56504E-18
 -1      1130 7.28270E-05 2.06161E-11-3.11011E-05 4.33461E-06-8.57621E-21-4.75056E-18
 -1      1131 6.80294E-05 5.64503E-12-2.92525E-05 5.63912E-06 5.29396E-21-4.89935E-18
 -1      1132 6.45613E-05-7.95026E-12-2.79560E-05 5.15275E-06 1.12232E-20-4.97619E-18
 -1      1133 6.33947E-05-1.51691E-11-2.75603E-05 3.35140E-06 1.81318E-20-4.95650E-18
 -1      1134 6.51134E-05-1.27629E-11-2.82749E-05 1.23254E-06 2.78462E-20-4.77749E-18
 -1      1135 6.96168E-05-1.47228E-12-3.00635E-05-3.50038E-08 4.12929E-20-4.40189E-18
 -1      1136 7.63179E-05 1.55556E-11-3.27250E-05 4.22298E-07 6.52215E-20-3.79242E-18
 -1      1137 8.45316E-05 3.51774E-11-3.60060E-05 3.11044E-06 7.79270E-20-2.72356E-18
 -1      1138 9.37691E-05 5.85653E-11-3.96721E-05 8.37586E-06 1.12232E-19-8.29973E-19
 -1      1139 1.04690E-04 9.95077E-11-4.37277E-05 1.74623E-05 1.24514E-19 2.66363E-18
 -1      1140 1.27424E-04 2.18581E-10-4.86140E-05 3.50756E-05 2.67239E-19 9.78789E-18
 -1      1141 1.47857E-04-2.98571E-05-4.59775E-05-2.76443E-05-1.13132E-18 1.30913E-17
 -1      1142 1.15640E-04-3.42837E-05-3.71382E-05-3.54165E-07-3.93500E-19 1.04658E-17
 -1      1143 1.09123E-04-3.26698E-05-3.34371E-05 4.58363E-07-1.35578E-19 6.98024E-18
 -1      1144 1.06109E-04-3.18774E-05-3.17967E-05 1.66885E-07-5.67371E-20 4.79039E-18
 -1      1145 1.02569E-04-3.07948E-05-3.05965E-05-6.01741E-08-5.20627E-20 3.16496E-18
 -1      1146 9.77962E-05-2.93497E-05-2.92112E-05-2.31355E-07-9.11528E-20 2.31251E-18
 -1      1147 9.21021E-05-2.76584E-05-2.76312E-05-3.23875E-07-2.21196E-20 2.03516E-18
 -1      1148 8.66322E-05-2.60551E-05-2.61526E-05-2.97514E-07-7.34206E-21 1.05625E-18
 -1      1149 8.29565E-05-2.49865E-05-2.51795E-05-1.43481E-07-4.63023E-20-2.94926E-19
 -1      1150 8.23554E-05-2.48124E-05-2.50306E-05 8.57755E-08 2.31346E-20-1.77996E-18
 -1      1151 8.51262E-05-2.56145E-05-2.57775E-05 2.94358E-07-1.12133E-20-2.69801E-18
 -1      1152 9.03927E-05-2.71446E-05-2.72029E-05 4.01428E-07 1.42838E-20-2.67440E-18
 -1      1153 9.65657E-05-2.89494E-05-2.89044E-05 3.87330E-07-6.77734E-20-3.45542E-18
 -1      1154 1.02094E-04-3.05786E-05-3.04703E-05 2.89495E-07 3.43429E-20-3.32895E-18
 -1      1155 1.06008E-04-3.17438E-05-3.16208E-05 1.64991E-07-1.19806E-19-3.10716E-18
 -1      1156 1.08039E-04-3.23584E-05-3.22555E-05 5.69191E-08-1.62151E-19-3.56582E-18
 -1      1157 1.08423E-04-3.24867E-05-3.24179E-05-1.63264E-08-1.11312E-19-3.77393E-18
 -1      1158 1.07632E-04-3.22640E-05-3.22278E-05-5.51257E-08-9.04704E-20-3.91984E-18
 -1      1159 1.06152E-04-3.18332E-05-3.18214E-05-6.83855E-08-1.51143E-19-5.14735E-18
 -1      1160 1.04381E-04-3.13119E-05-3.13148E-05-6.61804E-08 4.46905E-20-5.71108E-18
 -1      1161 1.02591E-04-3.07818E-05-3.07921E-05-5.64327E-08-1.15812E-19-4.92810E-18
 -1      1162 1.00946E-04-3.02923E-05-3.03050E-05-4.42651E-08-1.27452E-20-4.68946E-18
 -1      1163 9.95261E-05-2.98680E-05-2.98803E-05-3.25057E-08 2.69502E-19-2.85756E-18
 -1      1164 9.83551E-05-2.95170E-05-2.95276E-05-2.24439E-08-1.67843E-19-3.90026E-18
 -1      1165 9.74245E-05-2.92372E-05-2.92457E-05-1.44662E-08 2.07413E-19-4.13129E-18
 -1      1166 9.67082E-05-2.90213E-05-2.90277E-05-8.49048E-09 6.69131E-20-1.93303E-18
 -1      1167 9.61732E-05-2.88594E-05-2.88641E-05-4.23111E-09 1.16197E-19-1.26446E-18
 -1      1168 9.57855E-05-2.87418E-05-2.87450E-05-1.34464E-09-3.33951E-20-2.84934E-18
 -1      1169 9.55137E-05-2.86590E-05-2.86611E-05 4.97213E-10 8.95258E-21-2.11688E-18
 -1      1170 9.53305E-05-2.86030E-05-2.86042E-05 1.57678E-09-1.93778E-19-2.23499E-18
 -1      1171 9.52133E-05-2.85669E-05-2.85676E-05 2.12191E-09-3.25839E-19-3.10924E-18
 -1      1172 9.51438E-05-2.85453E-05-2.85456E-05 2.30846E-09-1.96590E-19-2.08958E-18
 -1      1173 9.51077E-05-2.85339E-05-2.85339E-05 2.26726E-09-1.79746E-19-2.71688E-18
 -1      1174 9.50942E-05-2.85294E-05-2.85292E-05 2.09250E-09 1.70935E-20-2.25858E-18
 -1      1175 9.50953E-05-2.85293E-05-2.85291E-05 1.84966E-09 1.73444E-20-2.59747E-18
 -1      1176 9.51052E-05-2.85320E-05-2.85318E-05 1.58251E-09 2.98346E-19 1.67423E-19
 -1      1177 9.51197E-05-2.85362E-05-2.85359E-05 1.31887E-09-1.69919E-19 2.80220E-19
 -1      1178 9.51361E-05-2.85410E-05-2.85408E-05 1.07518E-09-2.31717E-19-2.88639E-18
 -1      1179 9.51527E-05-2.85459E-05-2.85457E-05 8.59999E-10 1.08866E-19-1.27158E-18
 -1      1180 9.51684E-05-2.85505E-05-2.85503E-05 6.76633E-10-2.47696E-19-1.78641E-18
 -1      1181 9.51825E-05-2.85547E-05-2.85546E-05 5.25053E-10-1.75421E-19-3.55590E-18
 -1      1182 9.51949E-05-2.85584E-05-2.85583E-05 4.03216E-10-1.87645E-19-4.97752E-18
 -1      1183 9.52056E-05-2.85616E-05-2.85615E-05 3.07909E-10 4.79774E-19-3.61853E-18
 -1      1184 9.52145E-05-2.85643E-05-2.85642E-05 2.35167E-10 7.25834E-20-9.37595E-19
 -1      1185 9.52218E-05-2.85665E-05-2.85664E-05 1.80206E-10 6.27876E-19 5.53330E-19
 -1      1186 9.52278E-05-2.85683E-05-2.85682E-05 1.36634E-10 7.52105E-20 3.49009E-18
 -1      1187 9.52323E-05-2.85696E-05-2.85696E-05 9.43744E-11-1.60012E-19 2.23608E-18
 -1      1188 9.52355E-05-2.85706E-05-2.85705E-05 3.43426E-11 2.17435E-19 3.38977E-18
 -1      1189 9.52372E-05-2.85711E-05-2.85711E-05-8.08185E-11 8.19329E-20 4.82452E-18
 -1      1190 9.52374E-05-2.85712E-05-2.85713E-05-9.50351E-11 7.98119E-20 2.30598E-18
 -1      1191 1.56409E-04-4.47232E-05-4.72444E-05 1.25891E-05-1.79042E-19 1.56684E-17
 -1      1192 1.28793E-04-3.77998E-05-4.10811E-05 3.69229E-07 1.16864E-19 1.26583E-17
 -1      1193 1.27932E-04-3.81545E-05-3.89395E-05-2.16532E-07 6.40635E-20 9.77042E-18
 -1      1194 1.28807E-04-3.85502E-05-3.84688E-05-3.19812E-07 1.17941E-19 8.03474E-18
 -1      1195 1.27894E-04-3.82942E-05-3.78668E-05-2.80494E-07 9.83352E-21 7.07348E-18
 -1      1196 1.22724E-04-3.68031E-05-3.61922E-05-1.30576E-08-2.67345E-21 6.45053E-18
 -1      1197 1.12265E-04-3.37885E-05-3.32589E-05 4.81211E-07-1.23293E-19 6.41670E-18
 -1      1198 9.85687E-05-2.97604E-05-2.97421E-05 9.62921E-07 6.91953E-20 5.25732E-18
 -1      1199 8.72204E-05-2.62812E-05-2.70240E-05 1.02090E-06-4.22325E-20 4.20075E-18
 -1      1200 8.43614E-05-2.52265E-05-2.64162E-05 4.85381E-07 5.97555E-20 2.82703E-18
 -1      1201 9.18073E-05-2.73583E-05-2.82570E-05-3.13105E-07 6.03577E-20 2.10234E-18
 -1      1202 1.05220E-04-3.14392E-05-3.16149E-05-8.29124E-07 2.27163E-19 9.40207E-19
 -1      1203 1.17974E-04-3.53822E-05-3.49675E-05-8.70250E-07 6.78288E-21 6.81967E-19
 -1      1204 1.25762E-04-3.77868E-05-3.71919E-05-6.00545E-07 6.08805E-22 4.32781E-19
 -1      1205 1.27892E-04-3.84303E-05-3.79581E-05-2.75135E-07 1.43546E-19-1.29992E-18
 -1      1206 1.25880E-04-3.78028E-05-3.75417E-05-3.60336E-08-1.40521E-20-1.50706E-18
 -1      1207 1.21688E-04-3.65222E-05-3.64312E-05 9.26086E-08-4.37852E-20-1.52574E-18
 -1      1208 1.16825E-04-3.50502E-05-3.50577E-05 1.40114E-07 1.51217E-19-8.93329E-19
 -1      1209 1.12174E-04-3.36501E-05-3.37003E-05 1.42220E-07 9.12711E-20-2.46495E-18
 -1      1210 1.08137E-04-3.24387E-05-3.24995E-05 1.24285E-07-9.10296E-20-2.85560E-18
 -1      1211 1.04829E-04-3.14474E-05-3.15040E-05 1.00554E-07-1.36700E-20-2.05959E-18
 -1      1212 1.02216E-04-3.06649E-05-3.07120E-05 7.77282E-08-2.58324E-19-1.42652E-18
 -1      1213 1.00206E-04-3.00629E-05-3.01000E-05 5.83101E-08 6.98943E-20-1.73354E-18
 -1      1214 9.86906E-05-2.96090E-05-2.96373E-05 4.27835E-08 1.96656E-19-3.72589E-18
 -1      1215 9.75691E-05-2.92727E-05-2.92938E-05 3.08018E-08-2.15091E-19-3.31765E-18
 -1      1216 9.67532E-05-2.90279E-05-2.90435E-05 2.17629E-08 4.80203E-20-9.44459E-19
 -1      1217 9.61709E-05-2.88531E-05-2.88644E-05 1.50551E-08-3.22458E-20-2.01491E-18
 -1      1218 9.57643E-05-2.87309E-05-2.87389E-05 1.01464E-08 1.06659E-19-2.61263E-18
 -1      1219 9.54879E-05-2.86477E-05-2.86534E-05 6.60386E-09-1.73152E-19-1.54285E-18
 -1      1220 9.53067E-05-2.85931E-05-2.85970E-05 4.08695E-09-1.04699E-19-7.03601E-19
 -1      1221 9.51939E-05-2.85591E-05-2.85617E-05 2.33254E-09-3.61407E-20-1.98010E-18
 -1      1222 9.51290E-05-2.85394E-05-2.85411E-05 1.13927E-09 3.44392E-19-2.50126E-18
 -1      1223 9.50970E-05-2.85297E-05-2.85307E-05 3.54140E-10-5.58455E-20-1.68596E-18
 -1      1224 9.50868E-05-2.85265E-05-2.85270E-05-1.38432E-10 2.30524E-19-1.68936E-18
 -1      1225 9.50903E-05-2.85274E-05-2.85277E-05-4.25116E-10-1.48452E-20-1.20162E-18
 -1      1226 9.51019E-05-2.85308E-05-2.85309E-05-5.70350E-10-2.24599E-19-1.12593E-18
 -1      1227 9.51176E-05-2.85355E-05-2.85354E-05-6.21509E-10 2.07410E-19-1.43475E-18
 -1      1228 9.51349E-05-2.85406E-05-2.85404E-05-6.12950E-10-1.27583E-19-1.87072E-18
 -1      1229 9.51520E-05-2.85457E-05-2.85455E-05-5.69174E-10 4.02680E-19-3.49845E-18
 -1      1230 9.51680E-05-2.85504E-05-2.85503E-05-5.07302E-10-5.78318E-20-2.22888E-18
 -1      1231 9.51823E-05-2.85547E-05-2.85545E-05-4.39016E-10-8.83110E-21 1.25621E-19
 -1      1232 9.51948E-05-2.85585E-05-2.85583E-05-3.72065E-10-1.46581E-19 3.16339E-18
 -1      1233 9.52055E-05-2.85617E-05-2.85615E-05-3.11445E-10 3.25471E-20 3.48412E-18
 -1      1234 9.52144E-05-2.85643E-05-2.85642E-05-2.60237E-10-4.34849E-19 5.09351E-18
 -1      1235 9.52218E-05-2.85665E-05-2.85664E-05-2.19986E-10 6.21813E-19 1.54389E-18
 -1      1236 9.52278E-05-2.85683E-05-2.85682E-05-1.90392E-10 1.32062E-19-1.76424E-18
 -1      1237 9.52323E-05-2.85697E-05-2.85696E-05-1.67862E-10 1.33531E-19-3.80326E-18
 -1      1238 9.52355E-05-2.85706E-05-2.85705E-05-1.36278E-10-1.28912E-19-2.44475E-18
 -1      1239 9.52372E-05-2.85711E-05-2.85711E-05-4.81721E-11 5.43407E-19-4.93317E-18
 -1      1240 9.52374E-05-2.85712E-05-2.85713E-05 8.53328E-11-1.80355E-19-3.08154E-18
 -1      1241 9.52371E-05-2.85709E-05-2.85713E-05 8.25935E-11-3.09891E-18-7.72296E-19
 -1      1242 9.52372E-05-2.85711E-05-2.85710E-05 6.70563E-11-1.96864E-18-3.33528E-19
 -1      1243 9.52377E-05-2.85728E-05-2.85705E-05-7.46302E-11-3.90834E-18 3.62017E-19
 -1      1244 9.52385E-05-2.85757E-05-2.85697E-05-1.38823E-10-2.37084E-18 2.79582E-19
 -1      1245 9.52395E-05-2.85791E-05-2.85687E-05-1.54846E-10-9.65634E-19-2.51205E-20
 -1      1246 9.52405E-05-2.85825E-05-2.85678E-05-1.38594E-10-2.90747E-18-8.25275E-19
 -1      1247 9.52413E-05-2.85853E-05-2.85670E-05-1.04412E-10-5.89798E-18 4.60064E-19
 -1      1248 9.52419E-05-2.85871E-05-2.85665E-05-5.50727E-11-3.47650E-18 2.20362E-19
 -1      1249 9.52421E-05-2.85878E-05-2.85663E-05 4.82669E-13-6.16372E-19 8.14174E-19
 -1      1250 9.52419E-05-2.85871E-05-2.85665E-05 5.59926E-11 4.00694E-18 2.83335E-19
 -1      1251 9.52413E-05-2.85852E-05-2.85670E-05 1.05001E-10 2.20466E-18-2.35530E-19
 -1      1252 9.52405E-05-2.85824E-05-2.85678E-05 1.40879E-10-3.54856E-18 5.27790E-20
 -1      1253 9.52395E-05-2.85791E-05-2.85688E-05 1.54792E-10-2.19415E-18 1.28661E-18
 -1      1254 9.52385E-05-2.85756E-05-2.85697E-05 1.40289E-10-1.71150E-18-5.46456E-19
 -1      1255 9.52376E-05-2.85727E-05-2.85705E-05 8.96607E-11-5.88621E-18 6.85940E-19
 -1      1256 9.52372E-05-2.85712E-05-2.85711E-05-1.31350E-10-3.92466E-18-4.28170E-19
 -1      1257 9.52371E-05-2.85709E-05-2.85713E-05-9.46751E-11-2.10994E-18 1.56578E-19
 -1      1258 3.38728E-05-1.06055E-04 1.77225E-05-1.34312E-05 7.47168E-18 1.61995E-18
 -1      1259 1.90459E-05-7.02630E-05 1.04461E-05-2.66102E-05 1.54855E-17 5.44134E-18
 -1      1260 7.38001E-06-1.55014E-05-4.09449E-06-6.01685E-06 1.80401E-17 1.05761E-17
 -1      1261 2.95730E-05 2.14673E-05-2.36866E-05 4.52243E-05 1.64494E-17 1.49222E-17
 -1      1262 1.00851E-04 1.44608E-05-4.50574E-05 9.60390E-05 1.08835E-17 1.48773E-17
 -1      1263 2.02746E-04-2.95607E-05-6.36823E-05 1.12990E-04 5.31513E-18 1.10453E-17
 -1      1264 2.88290E-04-7.73321E-05-7.58341E-05 7.16699E-05 9.96111E-19 2.11589E-18
 -1      1265 3.21222E-04-9.77440E-05-7.96877E-05-4.79474E-06 5.06208E-19-7.06944E-18
 -1      1266 2.80229E-04-7.33736E-05-7.45967E-05-7.73854E-05 3.69910E-18-1.50010E-17
 -1      1267 1.89464E-04-2.38288E-05-6.14714E-05-1.10568E-04 9.53420E-18-2.01933E-17
 -1      1268 9.02864E-05 1.71356E-05-4.27742E-05-9.17841E-05 1.52246E-17-2.07252E-17
 -1      1269 2.48861E-05 1.92549E-05-2.20940E-05-3.92206E-05 1.84484E-17-1.66544E-17
 -1      1270 7.23232E-06-1.94049E-05-3.00861E-06 8.88918E-06 1.74929E-17-1.01373E-17
 -1      1271 2.08087E-05-7.24983E-05 1.07115E-05 2.48178E-05 1.19804E-17-4.09392E-18
 -1      1272 3.25881E-05-1.00192E-04 1.63902E-05 7.30101E-06 2.41500E-18-9.89387E-19
 -1      1273 2.73722E-05-8.66970E-05 1.37775E-05-1.57402E-05-7.75882E-18-1.96930E-18
 -1      1274 1.16801E-05-4.16365E-05 3.77705E-06-1.78610E-05-1.52906E-17-6.56112E-18
 -1      1275 1.10254E-05 7.50757E-06-1.27210E-05 1.63918E-05-1.80875E-17-1.26081E-17
 -1      1276 5.15555E-05 2.68612E-05-3.28689E-05 7.05880E-05-1.65493E-17-1.76640E-17
 -1      1277 1.35143E-04 1.92395E-06-5.23683E-05 1.06969E-04-1.16484E-17-1.92683E-17
 -1      1278 2.34179E-04-4.92862E-05-6.79264E-05 9.89209E-05-5.68274E-18-1.63884E-17
 -1      1279 2.97625E-04-8.65855E-05-7.64399E-05 3.89014E-05-1.67220E-18-8.54614E-18
 -1      1280 3.01649E-04-8.89994E-05-7.68571E-05-3.74981E-05-8.17599E-19 1.03380E-18
 -1      1281 2.47227E-04-5.56847E-05-7.00068E-05-9.52743E-05-3.60180E-18 9.64601E-18
 -1      1282 1.62552E-04-9.42685E-06-5.73249E-05-1.13909E-04-8.45169E-18 1.52449E-17
 -1      1283 7.76813E-05 2.35344E-05-4.00675E-05-8.89004E-05-1.37872E-17 1.70592E-17
 -1      1284 2.23946E-05 2.23833E-05-2.11752E-05-3.98945E-05-1.83620E-17 1.53220E-17
 -1      1285 6.95051E-06-1.39688E-05-4.02531E-06 4.65179E-06-1.78724E-17 1.06209E-17
 -1      1286 1.84062E-05-6.63170E-05 9.71958E-06 2.34117E-05-9.94925E-18 3.95564E-18
 -1      1287 3.39618E-05-1.05164E-04 1.74221E-05 1.20552E-05-2.44284E-18 1.07205E-18
 -1      1288 1.20213E-04-2.57272E-05-4.32514E-05-1.71107E-05-4.19281E-19 6.73306E-18
 -1      1289 1.02187E-04-8.55678E-06-4.02697E-05-1.84499E-05-1.02999E-18-4.64174E-19
 -1      1290 1.05947E-04-8.77268E-06-4.19970E-05-2.48793E-05-1.40057E-18 1.18590E-18
 -1      1291 9.48004E-05-5.74155E-06-3.81862E-05-1.26515E-05-9.87535E-19-2.74185E-18
 -1      1292 9.75366E-05-5.75463E-06-3.92869E-05-1.60181E-05-1.13831E-18-1.79095E-18
 -1      1293 1.04339E-04-1.36533E-05-3.89439E-05-1.70169E-05-1.78504E-18-3.51836E-19
 -1      1294 8.96276E-05-4.82615E-06-3.63026E-05-7.16171E-06-7.04467E-19-3.78145E-18
 -1      1295 9.20067E-05-4.80496E-06-3.72817E-05-9.91163E-06-8.49045E-19-3.31550E-18
 -1      1296 9.70171E-05-1.04809E-05-3.71751E-05-1.17999E-05-1.50731E-18-2.20790E-18
 -1      1297 8.45159E-05-4.16278E-06-3.43943E-05-2.23702E-06-3.87094E-19-4.35290E-18
 -1      1298 8.70071E-05-4.16813E-06-3.53867E-05-4.60743E-06-4.86197E-19-4.09821E-18
 -1      1299 9.13819E-05-8.92799E-06-3.54186E-05-6.49354E-06-9.85404E-19-3.14432E-18
 -1      1300 7.89457E-05-3.29370E-06-3.24214E-05 1.80639E-06-1.49501E-19-4.63706E-18
 -1      1301 8.16583E-05-3.33647E-06-3.34394E-05-4.67264E-08-2.23193E-19-4.49166E-18
 -1      1302 8.56456E-05-7.47735E-06-3.35809E-05-1.71552E-06-5.22381E-19-3.62464E-18
 -1      1303 7.28360E-05-2.02213E-06-3.04201E-05 4.61360E-06 6.50627E-20-4.81837E-18
 -1      1304 7.56955E-05-2.10243E-06-3.14291E-05 3.44028E-06-1.15408E-20-4.74608E-18
 -1      1305 7.91741E-05-5.50314E-06-3.16537E-05 2.21855E-06-1.17195E-19-3.95443E-18
 -1      1306 6.71075E-05-4.90249E-07-2.86923E-05 5.67204E-06 2.62898E-19-4.97529E-18
 -1      1307 6.96010E-05-5.84499E-07-2.95213E-05 5.36617E-06 1.93335E-19-4.89381E-18
 -1      1308 7.21957E-05-2.91556E-06-2.97718E-05 4.79121E-06 2.29864E-19-4.11600E-18
 -1      1309 6.30966E-05 8.92762E-07-2.76007E-05 4.95269E-06 3.14170E-19-5.05740E-18
 -1      1310 6.45904E-05 8.17585E-07-2.80592E-05 5.43983E-06 2.92756E-19-5.06830E-18
 -1      1311 6.59250E-05-2.02004E-07-2.82414E-05 5.55386E-06 5.01192E-19-4.32446E-18
 -1      1312 6.21324E-05 1.61112E-06-2.74730E-05 3.05860E-06 4.15284E-19-4.99432E-18
 -1      1313 6.20878E-05 1.58508E-06-2.74058E-05 3.96853E-06 3.79510E-19-5.04902E-18
 -1      1314 6.20178E-05 1.78287E-06-2.74101E-05 4.59446E-06 5.80052E-19-4.39524E-18
 -1      1315 6.48865E-05 1.33602E-06-2.84656E-05 1.11370E-06 5.16531E-19-4.77215E-18
 -1      1316 6.31253E-05 1.37148E-06-2.78193E-05 1.88342E-06 4.58218E-19-4.91441E-18
 -1      1317 6.19066E-05 2.23312E-06-2.75563E-05 2.69255E-06 7.19554E-19-4.26823E-18
 -1      1318 7.09032E-05 1.70398E-07-3.04569E-05 3.09733E-07 6.67780E-19-4.36255E-18
 -1      1319 6.77544E-05 2.38774E-07-2.93255E-05 4.19399E-07 5.98799E-19-4.60086E-18
 -1      1320 6.60158E-05 9.00500E-07-2.87568E-05 1.09706E-06 9.12996E-19-4.03448E-18
 -1      1321 7.93769E-05-1.56658E-06-3.32679E-05 1.41378E-06 8.71068E-19-3.61553E-18
 -1      1322 7.52101E-05-1.48191E-06-3.17481E-05 5.40297E-07 7.53859E-19-4.03345E-18
 -1      1323 7.36785E-05-1.82006E-06-3.08904E-05 9.06912E-07 1.13995E-18-3.50993E-18
 -1      1324 8.91877E-05-3.53448E-06-3.65783E-05 4.75712E-06 1.09648E-18-2.46370E-18
 -1      1325 8.44837E-05-3.45782E-06-3.48290E-05 2.75563E-06 9.78535E-19-3.15313E-18
 -1      1326 8.37421E-05-5.31401E-06-3.37152E-05 2.73344E-06 1.47990E-18-2.72326E-18
 -1      1327 1.00030E-04-5.85957E-06-4.01764E-05 1.05238E-05 1.29130E-18-4.22193E-19
 -1      1328 9.48555E-05-5.75945E-06-3.82685E-05 7.15710E-06 1.12698E-18-1.63541E-18
 -1      1329 9.52237E-05-9.31359E-06-3.69104E-05 6.62966E-06 1.79208E-18-1.38972E-18
 -1      1330 1.13546E-04-1.03090E-05-4.40198E-05 1.97235E-05 1.11131E-18 3.33011E-18
 -1      1331 1.07021E-04-9.56230E-06-4.18768E-05 1.38009E-05 1.07997E-18 1.05821E-18
 -1      1332 1.08550E-04-1.48393E-05-4.01814E-05 1.22305E-05 1.89709E-18 9.04843E-19
 -1      1333 1.48923E-04-3.10353E-05-4.71109E-05 2.71947E-05 5.53113E-19 1.02999E-17
 -1      1334 1.22970E-04-1.95933E-05-4.49451E-05 2.00757E-05 5.75771E-19 5.46421E-18
 -1      1335 1.25147E-04-2.59633E-05-4.24858E-05 1.58604E-05 1.84832E-18 4.31182E-18
 -1      1336 1.30253E-04-3.62945E-05-4.31402E-05 4.03553E-06 9.94205E-19 9.92998E-18
 -1      1337 1.22249E-04-3.55150E-05-3.87100E-05-7.44823E-06-1.13217E-18 7.22890E-18
 -1      1338 1.15698E-04-3.32120E-05-3.59401E-05-4.54094E-06-1.07436E-18 5.87693E-18
 -1      1339 1.12873E-04-3.32592E-05-3.43714E-05-2.52842E-06-8.39913E-19 5.33770E-18
 -1      1340 1.10485E-04-3.29612E-05-3.32572E-05-2.27026E-06-7.43629E-19 4.13426E-18
 -1      1341 1.15684E-04-3.32768E-05-3.56883E-05-7.61938E-06-1.80206E-18 3.12846E-18
 -1      1342 1.08367E-04-3.25034E-05-3.24744E-05-1.79611E-06-5.62137E-19 3.78809E-18
 -1      1343 1.06600E-04-3.20898E-05-3.18653E-05-1.89757E-06-5.91977E-19 2.95040E-18
 -1      1344 1.10507E-04-3.29555E-05-3.33112E-05-4.29223E-06-1.25483E-18 2.44434E-18
 -1      1345 1.04860E-04-3.16257E-05-3.13087E-05-2.13896E-06-4.18024E-19 2.50800E-18
 -1      1346 1.02776E-04-3.10013E-05-3.07025E-05-2.28656E-06-4.92389E-19 1.95952E-18
 -1      1347 1.06976E-04-3.23162E-05-3.19680E-05-4.05658E-06-1.04043E-18 1.74705E-18
 -1      1348 1.00951E-04-3.04504E-05-3.01567E-05-2.66866E-06-1.91679E-19 1.79175E-18
 -1      1349 9.83797E-05-2.96062E-05-2.94394E-05-2.78169E-06-1.79843E-19 1.56767E-18
 -1      1350 1.03536E-04-3.13363E-05-3.09023E-05-4.83286E-06-6.22026E-19 1.17342E-18
 -1      1351 9.64297E-05-2.89670E-05-2.88825E-05-2.90247E-06-2.64029E-19 1.42503E-18
 -1      1352 9.37017E-05-2.80283E-05-2.81354E-05-2.89476E-06-2.56500E-19 1.22722E-18
 -1      1353 9.98077E-05-3.00390E-05-2.98826E-05-5.46871E-06-4.04275E-19 1.02011E-18
 -1      1354 9.18984E-05-2.73990E-05-2.76424E-05-2.47845E-06-3.25697E-19 8.70220E-19
 -1      1355 8.96635E-05-2.66060E-05-2.70395E-05-2.29741E-06-5.16740E-19 3.31402E-19
 -1      1356 9.60414E-05-2.85771E-05-2.89386E-05-5.14089E-06-6.71161E-19 4.09818E-19
 -1      1357 8.84511E-05-2.61633E-05-2.67205E-05-1.29790E-06-4.15999E-19-1.28378E-20
 -1      1358 8.74017E-05-2.57824E-05-2.64415E-05-9.70341E-07-2.84405E-19-6.52427E-19
 -1      1359 9.29795E-05-2.73085E-05-2.82192E-05-3.43496E-06-8.52592E-19-1.32091E-19
 -1      1360 8.71621E-05-2.56891E-05-2.63830E-05 3.55911E-07-3.87021E-19-1.03923E-18
 -1      1361 8.76840E-05-2.58735E-05-2.65252E-05 7.18499E-07-6.16805E-19-1.50162E-18
 -1      1362 9.14893E-05-2.66665E-05-2.78841E-05-5.95764E-07-7.99467E-19-6.76859E-19
 -1      1363 8.84984E-05-2.61680E-05-2.67433E-05 1.91929E-06-4.30816E-19-1.79987E-18
 -1      1364 9.04480E-05-2.68632E-05-2.72698E-05 2.18113E-06-7.14883E-20-2.00424E-18
 -1      1365 9.20630E-05-2.69093E-05-2.80150E-05 2.49635E-06-7.78628E-19-1.04305E-18
 -1      1366 9.20270E-05-2.74247E-05-2.76982E-05 2.86299E-06-5.53185E-20-2.49001E-18
 -1      1367 9.47991E-05-2.83979E-05-2.84538E-05 2.94657E-06-2.51403E-19-2.69203E-18
 -1      1368 9.44832E-05-2.79373E-05-2.85670E-05 4.78370E-06-3.89648E-19-1.93288E-18
 -1      1369 9.66390E-05-2.90244E-05-2.89714E-05 2.97918E-06-3.36553E-19-2.57164E-18
 -1      1370 9.94677E-05-2.99915E-05-2.97546E-05 2.89662E-06-2.04635E-19-3.01803E-18
 -1      1371 9.79192E-05-2.93509E-05-2.93814E-05 5.62386E-06-3.82972E-19-2.49992E-18
 -1      1372 1.01092E-04-3.05094E-05-3.02346E-05 2.42066E-06 2.27849E-19-3.06891E-18
 -1      1373 1.03368E-04-3.12600E-05-3.08771E-05 2.24265E-06 1.68682E-19-2.72311E-18
 -1      1374 1.01358E-04-3.06854E-05-3.02458E-05 5.05000E-06 7.24676E-20-2.75211E-18
 -1      1375 1.04487E-04-3.15834E-05-3.12298E-05 1.52642E-06-2.02269E-19-2.63275E-18
 -1      1376 1.05915E-04-3.20300E-05-3.16430E-05 1.32973E-06-2.63182E-19-2.98023E-18
 -1      1377 1.04030E-04-3.16315E-05-3.09713E-05 3.58170E-06-1.01717E-19-2.52577E-18
 -1      1378 1.06450E-04-3.21542E-05-3.18319E-05 6.16699E-07-3.85006E-19-2.86424E-18
 -1      1379 1.07025E-04-3.23122E-05-3.20063E-05 4.52011E-07-3.15358E-19-3.25503E-18
 -1      1380 1.05589E-04-3.20978E-05-3.14439E-05 1.84769E-06-3.26644E-19-2.70031E-18
 -1      1381 1.07047E-04-3.22778E-05-3.20406E-05-1.13626E-07-1.27313E-19-3.27076E-18
 -1      1382 1.06940E-04-3.22170E-05-3.20190E-05-2.26645E-07-1.53766E-19-3.40416E-18
 -1      1383 1.06054E-04-3.21492E-05-3.16348E-05 3.12037E-07-3.32560E-19-2.60558E-18
 -1      1384 1.06588E-04-3.20777E-05-3.19339E-05-5.98677E-07-2.25938E-19-3.48832E-18
 -1      1385 1.06031E-04-3.18800E-05-3.17792E-05-6.61593E-07-4.67513E-19-3.74201E-18
 -1      1386 1.05654E-04-3.19137E-05-3.15794E-05-8.04648E-07-3.22753E-19-2.84274E-18
 -1      1387 1.05453E-04-3.16842E-05-3.16179E-05-8.56379E-07-2.31870E-19-3.70501E-18
 -1      1388 1.04659E-04-3.14199E-05-3.13909E-05-8.80402E-07 7.16264E-20-3.99363E-18
 -1      1389 1.04682E-04-3.15173E-05-3.13455E-05-1.47363E-06-3.90810E-19-3.13602E-18
 -1      1390 1.03980E-04-3.12041E-05-3.11922E-05-9.40956E-07 2.52135E-21-4.18727E-18
 -1      1391 1.03109E-04-3.09236E-05-3.09401E-05-9.39075E-07-8.47178E-21-4.11077E-18
 -1      1392 1.03408E-04-3.10568E-05-3.10060E-05-1.77008E-06-1.74168E-19-2.68706E-18
 -1      1393 1.02419E-04-3.07124E-05-3.07334E-05-9.11646E-07 2.72014E-19-4.56215E-18
 -1      1394 1.01578E-04-3.04472E-05-3.04879E-05-8.94882E-07-2.06543E-19-4.45686E-18
 -1      1395 1.02040E-04-3.05959E-05-3.06230E-05-1.80239E-06 2.86078E-20-3.10000E-18
 -1      1396 1.00935E-04-3.02548E-05-3.02925E-05-8.17970E-07-1.79202E-19-3.92662E-18
 -1      1397 1.00183E-04-3.00213E-05-3.00717E-05-7.94311E-07 5.53308E-19-3.64370E-18
 -1      1398 1.00719E-04-3.01717E-05-3.02415E-05-1.67213E-06 5.59658E-20-3.49876E-18
 -1      1399 9.96174E-05-2.98548E-05-2.98983E-05-6.95696E-07 6.77084E-19-3.45889E-18
 -1      1400 9.89804E-05-2.96594E-05-2.97104E-05-6.70320E-07 3.54023E-19-2.91857E-18
 -1      1401 9.95265E-05-2.98022E-05-2.98898E-05-1.45824E-06 7.26264E-19-2.99954E-18
 -1      1402 9.85038E-05-2.95207E-05-2.95635E-05-5.67991E-07 1.39894E-19-2.37242E-18
 -1      1403 9.79859E-05-2.93636E-05-2.94102E-05-5.43917E-07 2.43036E-19-2.51341E-18
 -1      1404 9.85014E-05-2.94932E-05-2.95829E-05-1.21504E-06 5.14994E-19-2.35146E-18
 -1      1405 9.75982E-05-2.92517E-05-2.92903E-05-4.48311E-07 3.56919E-19-2.51132E-18
 -1      1406 9.71914E-05-2.91295E-05-2.91695E-05-4.27063E-07 2.68945E-19-2.02839E-18
 -1      1407 9.76532E-05-2.92430E-05-2.93259E-05-9.76165E-07 2.69335E-19-1.08899E-18
 -1      1408 9.68854E-05-2.90418E-05-2.90747E-05-3.43363E-07 9.15213E-20-2.12083E-18
 -1      1409 9.65756E-05-2.89495E-05-2.89824E-05-3.25513E-07 2.04244E-19-1.56531E-18
 -1      1410 9.69732E-05-2.90461E-05-2.91180E-05-7.60064E-07 2.55872E-19-1.05604E-18
 -1      1411 9.63405E-05-2.88825E-05-2.89094E-05-2.55526E-07 1.66185E-19-1.89884E-18
 -1      1412 9.61113E-05-2.88149E-05-2.88409E-05-2.41084E-07-2.16141E-19-2.05194E-18
 -1      1413 9.64433E-05-2.88950E-05-2.89546E-05-5.74948E-07 9.80424E-20-1.45268E-18
 -1      1414 9.59355E-05-2.87649E-05-2.87863E-05-1.84616E-07-1.64359E-19-2.28916E-18
 -1      1415 9.57712E-05-2.87170E-05-2.87370E-05-1.73288E-07-1.69092E-19-2.43803E-18
 -1      1416 9.60410E-05-2.87819E-05-2.88296E-05-4.22656E-07-5.35624E-19-1.30774E-18
 -1      1417 9.56433E-05-2.86808E-05-2.86972E-05-1.29078E-07 2.98502E-19-1.99455E-18
 -1      1418 9.55294E-05-2.86480E-05-2.86629E-05-1.20436E-07-3.40414E-20-2.08740E-18
 -1      1419 9.57436E-05-2.86995E-05-2.87365E-05-3.01391E-07-2.60893E-21-1.39285E-18
 -1      1420 9.54391E-05-2.86225E-05-2.86348E-05-8.67547E-08-5.20182E-19-1.93365E-18
 -1      1421 9.53635E-05-2.86011E-05-2.86119E-05-8.03366E-08-3.83267E-19-2.38356E-18
 -1      1422 9.55298E-05-2.86412E-05-2.86691E-05-2.07541E-07-2.36270E-19-2.07684E-18
 -1      1423 9.53020E-05-2.85838E-05-2.85928E-05-5.53479E-08-4.09694E-19-1.90291E-18
 -1      1424 9.52547E-05-2.85707E-05-2.85784E-05-5.07116E-08-1.67926E-20-2.03316E-18
 -1      1425 9.53810E-05-2.86013E-05-2.86218E-05-1.36814E-07-5.98703E-20-1.83589E-18
 -1      1426 9.52147E-05-2.85596E-05-2.85659E-05-3.26770E-08 2.76838E-19-1.83482E-18
 -1      1427 9.51875E-05-2.85523E-05-2.85575E-05-2.94293E-08-3.92742E-20-1.24306E-18
 -1      1428 9.52814E-05-2.85752E-05-2.85898E-05-8.49137E-08 1.06373E-19-8.26802E-19
 -1      1429 9.51632E-05-2.85456E-05-2.85500E-05-1.68086E-08-5.98079E-19-8.98350E-19
 -1      1430 9.51500E-05-2.85424E-05-2.85458E-05-1.46159E-08-4.76880E-19-1.62962E-18
 -1      1431 9.52182E-05-2.85591E-05-2.85692E-05-4.79009E-08-2.94839E-19-4.22035E-19
 -1      1432 9.51368E-05-2.85388E-05-2.85417E-05-6.10494E-09 3.66213E-20-1.50163E-18
 -1      1433 9.51330E-05-2.85383E-05-2.85403E-05-4.69399E-09 1.26024E-19-1.33019E-18
 -1      1434 9.51812E-05-2.85501E-05-2.85568E-05-2.23573E-08-2.13974E-19-5.20984E-19
 -1      1435 9.51273E-05-2.85368E-05-2.85385E-05 7.74134E-10-1.11729E-19-6.26147E-19
 -1      1436 9.51294E-05-2.85379E-05-2.85390E-05 1.62094E-09 2.13663E-19-8.68361E-19
 -1      1437 9.51623E-05-2.85461E-05-2.85503E-05-5.43280E-09-1.95658E-20 4.31372E-19
 -1      1438 9.51287E-05-2.85378E-05-2.85388E-05 4.89481E-09 1.19333E-19-1.08076E-18
 -1      1439 9.51343E-05-2.85398E-05-2.85403E-05 5.34637E-09 2.58390E-19-6.23016E-19
 -1      1440 9.51558E-05-2.85452E-05-2.85477E-05 5.17614E-09 1.59243E-19-5.28359E-19
 -1      1441 9.51366E-05-2.85406E-05-2.85410E-05 7.08431E-09-3.20975E-19-1.14071E-18
 -1      1442 9.51439E-05-2.85430E-05-2.85431E-05 7.26869E-09-6.84037E-19-1.33781E-18
 -1      1443 9.51572E-05-2.85464E-05-2.85476E-05 1.12826E-08-4.50105E-19-2.51993E-18
 -1      1444 9.51479E-05-2.85442E-05-2.85443E-05 7.96957E-09-4.31546E-19-1.79000E-18
 -1      1445 9.51558E-05-2.85468E-05-2.85466E-05 7.98162E-09-6.45659E-19-2.77869E-18
 -1      1446 9.51632E-05-2.85488E-05-2.85491E-05 1.42796E-08-1.11110E-18-1.98580E-18
 -1      1447 9.51606E-05-2.85482E-05-2.85481E-05 8.01456E-09 4.30387E-19-1.89435E-18
 -1      1448 9.51684E-05-2.85507E-05-2.85504E-05 7.92276E-09 3.50077E-19-1.60198E-18
 -1      1449 9.51717E-05-2.85516E-05-2.85515E-05 1.52129E-08 1.53161E-19-1.74344E-18
 -1      1450 9.51734E-05-2.85522E-05-2.85519E-05 7.55394E-09-2.67757E-19-2.07987E-18
 -1      1451 9.51806E-05-2.85544E-05-2.85540E-05 7.40630E-09-3.82724E-19-2.60959E-18
 -1      1452 9.51812E-05-2.85547E-05-2.85542E-05 1.48485E-08 4.07032E-19-2.17289E-18
 -1      1453 9.51854E-05-2.85558E-05-2.85555E-05 6.82179E-09-4.73993E-19-2.02737E-18
 -1      1454 9.51919E-05-2.85578E-05-2.85574E-05 6.65072E-09-6.64860E-19-2.84578E-18
 -1      1455 9.51907E-05-2.85576E-05-2.85570E-05 1.37320E-08-6.04326E-19-1.36126E-18
 -1      1456 9.51963E-05-2.85591E-05-2.85588E-05 5.97531E-09-3.49342E-19-3.37157E-18
 -1      1457 9.52019E-05-2.85608E-05-2.85604E-05 5.80146E-09 4.26395E-19-2.88785E-18
 -1      1458 9.51997E-05-2.85603E-05-2.85597E-05 1.22392E-08-7.64919E-19-1.81861E-18
 -1      1459 9.52058E-05-2.85620E-05-2.85617E-05 5.11349E-09 1.05069E-18-2.63195E-18
 -1      1460 9.52106E-05-2.85634E-05-2.85631E-05 4.94871E-09 1.17079E-18-1.97225E-18
 -1      1461 9.52078E-05-2.85627E-05-2.85621E-05 1.06159E-08 1.11125E-18-6.87824E-19
 -1      1462 9.52140E-05-2.85644E-05-2.85641E-05 4.29117E-09 1.98874E-19-5.62706E-19
 -1      1463 9.52180E-05-2.85656E-05-2.85653E-05 4.14057E-09 1.72302E-19-3.54665E-19
 -1      1464 9.52149E-05-2.85648E-05-2.85643E-05 9.00970E-09 1.47988E-18-7.56295E-19
 -1      1465 9.52208E-05-2.85664E-05-2.85662E-05 3.52900E-09 1.21339E-18 4.09637E-20
 -1      1466 9.52241E-05-2.85674E-05-2.85671E-05 3.39219E-09 1.13343E-18 1.54086E-18
 -1      1467 9.52209E-05-2.85666E-05-2.85661E-05 7.49255E-09 1.14497E-18 1.73016E-18
 -1      1468 9.52264E-05-2.85681E-05-2.85679E-05 2.81981E-09 1.08500E-18 1.73606E-18
 -1      1469 9.52290E-05-2.85689E-05-2.85686E-05 2.69150E-09 9.31018E-19 2.72548E-18
 -1      1470 9.52260E-05-2.85681E-05-2.85676E-05 6.07683E-09 1.84856E-18 1.30568E-18
 -1      1471 9.52308E-05-2.85694E-05-2.85692E-05 2.13270E-09 2.24860E-19 2.34058E-18
 -1      1472 9.52328E-05-2.85700E-05-2.85697E-05 2.00243E-09-2.77775E-19 1.98233E-18
 -1      1473 9.52300E-05-2.85693E-05-2.85688E-05 4.72621E-09 1.04397E-18 1.95587E-18
 -1      1474 9.52341E-05-2.85704E-05-2.85702E-05 1.42248E-09 4.33385E-19 2.08678E-18
 -1      1475 9.52353E-05-2.85708E-05-2.85705E-05 1.27491E-09 1.07482E-18 3.16164E-18
 -1      1476 9.52332E-05-2.85703E-05-2.85698E-05 3.36761E-09 5.03348E-19 1.93576E-18
 -1      1477 9.52363E-05-2.85711E-05-2.85708E-05 6.49144E-10 7.05495E-20 2.88840E-18
 -1      1478 9.52367E-05-2.85712E-05-2.85710E-05 4.81543E-10-5.96195E-19 3.05359E-18
 -1      1479 9.52354E-05-2.85710E-05-2.85704E-05 1.94521E-09 4.94217E-19 1.78849E-18
 -1      1480 9.52372E-05-2.85712E-05-2.85712E-05-9.55004E-11-2.10042E-18 1.62186E-18
 -1      1481 9.52368E-05-2.85713E-05-2.85709E-05 4.22476E-10-2.35828E-18 4.38811E-19
 -1      1482 1.28616E-04-3.81553E-05-3.92286E-05 7.26818E-07 8.62862E-19 8.05670E-18
 -1      1483 1.31848E-04-3.82146E-05-4.09436E-05 1.97975E-06 7.24213E-19 9.46559E-18
 -1      1484 1.29398E-04-3.51471E-05-4.07879E-05 8.44060E-06 1.47982E-18 6.15835E-18
 -1      1485 1.27260E-04-3.82257E-05-3.81446E-05-2.46823E-07 6.73901E-19 6.51347E-18
 -1      1486 1.27348E-04-3.78130E-05-3.85490E-05-1.39493E-07 5.83553E-19 7.40484E-18
 -1      1487 1.26467E-04-3.74063E-05-3.83481E-05 1.38677E-06 1.25837E-18 5.00730E-18
 -1      1488 1.26685E-04-3.83031E-05-3.77387E-05 2.92588E-07 4.26514E-19 5.41333E-18
 -1      1489 1.26781E-04-3.82148E-05-3.79056E-05 7.74049E-08 4.18216E-19 6.10073E-18
 -1      1490 1.25208E-04-3.77661E-05-3.74404E-05 2.44525E-07 1.01315E-18 4.18154E-18
 -1      1491 1.24210E-04-3.77220E-05-3.68801E-05 1.99001E-06 2.89626E-19 5.01168E-18
 -1      1492 1.25782E-04-3.82710E-05-3.74023E-05 1.44137E-06 2.04876E-19 5.28927E-18
 -1      1493 1.24173E-04-3.79362E-05-3.68253E-05 1.94689E-06 4.64942E-19 3.50564E-18
 -1      1494 1.18146E-04-3.58709E-05-3.50991E-05 4.28300E-06 1.05290E-19 4.57795E-18
 -1      1495 1.22071E-04-3.73142E-05-3.62197E-05 3.52702E-06 1.54372E-19 4.75223E-18
 -1      1496 1.21489E-04-3.73984E-05-3.58594E-05 5.43080E-06 3.42148E-19 3.27971E-18
 -1      1497 1.08608E-04-3.26384E-05-3.25527E-05 5.90283E-06 1.73392E-19 4.51426E-18
 -1      1498 1.14631E-04-3.48486E-05-3.41392E-05 5.32098E-06-4.41384E-21 4.41145E-18
 -1      1499 1.16159E-04-3.55730E-05-3.44009E-05 9.07626E-06 7.61469E-20 3.01491E-18
 -1      1500 9.85050E-05-2.89985E-05-3.00410E-05 5.19333E-06 6.49674E-19 3.36696E-18
 -1      1501 1.04650E-04-3.11670E-05-3.15667E-05 5.29345E-06 6.40304E-19 4.07116E-18
 -1      1502 1.08833E-04-3.24441E-05-3.27561E-05 1.02040E-05 7.94901E-19 2.66066E-18
 -1      1503 9.26937E-05-2.68432E-05-2.86557E-05 1.65100E-06 3.03277E-19 2.28498E-18
 -1      1504 9.59578E-05-2.77884E-05-2.94327E-05 2.58948E-06 3.19808E-19 2.74105E-18
 -1      1505 1.02316E-04-2.92642E-05-3.15121E-05 6.63785E-06 8.11458E-19 1.52916E-18
 -1      1506 9.46644E-05-2.76307E-05-2.90721E-05-2.96028E-06 3.43591E-19 1.29522E-18
 -1      1507 9.30966E-05-2.66986E-05-2.87046E-05-1.69469E-06 3.23249E-19 1.99912E-18
 -1      1508 1.00153E-04-2.80258E-05-3.11742E-05-7.23326E-07 6.02929E-19 8.60043E-19
 -1      1509 1.03200E-04-3.08023E-05-3.10991E-05-5.75754E-06 3.75553E-19 6.40569E-19
 -1      1510 9.77309E-05-2.85892E-05-2.97597E-05-4.95315E-06 2.19964E-19 1.00336E-18
 -1      1511 1.03696E-04-2.97705E-05-3.18681E-05-7.62288E-06 4.97526E-19-1.83489E-19
 -1      1512 1.13510E-04-3.44126E-05-3.37284E-05-5.58164E-06 4.49622E-19-2.09852E-19
 -1      1513 1.07086E-04-3.21439E-05-3.20821E-05-5.52270E-06 5.44202E-19 6.02982E-19
 -1      1514 1.10610E-04-3.31509E-05-3.32615E-05-1.02096E-05 7.18535E-19-4.53269E-19
 -1      1515 1.21196E-04-3.68885E-05-3.58828E-05-3.43086E-06 8.71451E-20-1.50984E-19
 -1      1516 1.16444E-04-3.54375E-05-3.45834E-05-3.87004E-06 2.44581E-20-2.57816E-19
 -1      1517 1.17179E-04-3.60631E-05-3.47411E-05-8.24503E-06 3.42056E-19-6.22437E-19
 -1      1518 1.24498E-04-3.77775E-05-3.69708E-05-9.40093E-07 4.39822E-19-1.14889E-18
 -1      1519 1.22426E-04-3.73200E-05-3.63398E-05-1.48281E-06 3.91832E-19-4.63592E-19
 -1      1520 1.20971E-04-3.74097E-05-3.57587E-05-4.07131E-06 5.55654E-19-1.15114E-18
 -1      1521 1.23951E-04-3.74273E-05-3.69811E-05 8.95012E-07-1.79955E-19-1.36991E-18
 -1      1522 1.24194E-04-3.77002E-05-3.69865E-05 4.81450E-07-9.21148E-21-1.35100E-18
 -1      1523 1.21571E-04-3.73145E-05-3.60625E-05-9.72999E-08 2.36375E-19-1.51680E-18
 -1      1524 1.20987E-04-3.63824E-05-3.62331E-05 1.87053E-06-1.17208E-19-8.72920E-19
 -1      1525 1.22653E-04-3.70362E-05-3.66649E-05 1.63735E-06-1.64023E-19-9.36461E-19
 -1      1526 1.19775E-04-3.63859E-05-3.57078E-05 2.54563E-06-3.11397E-19-6.73133E-19
 -1      1527 1.16955E-04-3.50791E-05-3.51047E-05 2.18179E-06 3.72661E-20-1.09455E-18
 -1      1528 1.19224E-04-3.58504E-05-3.57373E-05 2.09027E-06 1.11883E-19-1.04309E-18
 -1      1529 1.16649E-04-3.51421E-05-3.49158E-05 3.80115E-06 2.15940E-19-2.60396E-19
 -1      1530 1.12777E-04-3.37821E-05-3.38852E-05 2.10007E-06 3.24342E-19-1.33146E-18
 -1      1531 1.15106E-04-3.45210E-05-3.45554E-05 2.09450E-06 2.23573E-19-1.09057E-18
 -1      1532 1.13059E-04-3.38845E-05-3.39256E-05 4.06735E-06 2.25197E-19-1.04679E-18
 -1      1533 1.08954E-04-3.26220E-05-3.27451E-05 1.83483E-06-9.63682E-20-2.33965E-18
 -1      1534 1.11059E-04-3.32622E-05-3.33614E-05 1.87188E-06 3.35617E-19-1.78950E-18
 -1      1535 1.09557E-04-3.27509E-05-3.29159E-05 3.77648E-06 6.22761E-19-1.07401E-18
 -1      1536 1.05695E-04-3.16463E-05-3.17618E-05 1.51401E-06-3.00996E-19-1.92580E-18
 -1      1537 1.07466E-04-3.21699E-05-3.22858E-05 1.56689E-06-2.90785E-19-2.46465E-18
 -1      1538 1.06432E-04-3.17890E-05-3.19911E-05 3.24254E-06-3.73886E-20-1.56231E-18
 -1      1539 1.03038E-04-3.08577E-05-3.09555E-05 1.20370E-06-6.12435E-19-1.80243E-18
 -1      1540 1.04463E-04-3.12705E-05-3.13798E-05 1.25814E-06-3.14406E-19-1.55384E-18
 -1      1541 1.03792E-04-3.10026E-05-3.11977E-05 2.65191E-06-4.75705E-19-1.44013E-18
 -1      1542 1.00939E-04-3.02379E-05-3.03163E-05 9.32121E-07 8.94679E-21-1.45969E-18
 -1      1543 1.02052E-04-3.05549E-05-3.06487E-05 9.81566E-07-1.70278E-19-1.74032E-18
 -1      1544 1.01643E-04-3.03761E-05-3.05460E-05 2.09863E-06-5.25304E-19-1.43445E-18
 -1      1545 9.93190E-05-2.97610E-05-2.98219E-05 7.07122E-07 7.57743E-19-2.65589E-18
 -1      1546 1.00168E-04-2.99998E-05-3.00762E-05 7.49238E-07 3.73219E-19-1.86348E-18
 -1      1547 9.99424E-05-2.98867E-05-3.00267E-05 1.62103E-06 6.26632E-19-1.95914E-18
 -1      1548 9.80919E-05-2.94008E-05-2.94471E-05 5.26937E-07 5.07285E-20-3.36303E-18
 -1      1549 9.87272E-05-2.95774E-05-2.96378E-05 5.61474E-07 5.41845E-19-2.95809E-18
 -1      1550 9.86239E-05-2.95110E-05-2.96224E-05 1.22782E-06 9.37129E-19-3.18080E-18
 -1      1551 9.71786E-05-2.91333E-05-2.91679E-05 3.85951E-07-6.80092E-19-2.66874E-18
 -1      1552 9.76460E-05-2.92617E-05-2.93085E-05 4.13571E-07-7.69652E-19-3.58339E-18
 -1      1553 9.76205E-05-2.92271E-05-2.93138E-05 9.13800E-07-4.27546E-19-3.45160E-18
 -1      1554 9.65106E-05-2.89380E-05-2.89635E-05 2.77572E-07-1.94441E-20-1.61819E-18
 -1      1555 9.68483E-05-2.90297E-05-2.90653E-05 2.99257E-07-2.75559E-20-1.91389E-18
 -1      1556 9.68698E-05-2.90159E-05-2.90823E-05 6.68399E-07-6.54082E-19-2.85544E-18
 -1      1557 9.60311E-05-2.87981E-05-2.88167E-05 1.95512E-07 1.16731E-19-1.66801E-18
 -1      1558 9.62702E-05-2.88621E-05-2.88889E-05 2.12281E-07 1.34509E-19-1.39408E-18
 -1      1559 9.63177E-05-2.88615E-05-2.89116E-05 4.79875E-07-1.46221E-19-1.59262E-18
 -1      1560 9.56941E-05-2.87001E-05-2.87134E-05 1.34271E-07 1.43450E-19-1.82383E-18
 -1      1561 9.58596E-05-2.87436E-05-2.87635E-05 1.47059E-07 1.79399E-19-1.70156E-18
 -1      1562 9.59191E-05-2.87507E-05-2.87879E-05 3.37211E-07 2.71376E-19-1.29905E-18
 -1      1563 9.54636E-05-2.86333E-05-2.86426E-05 8.92510E-08-8.71523E-19-6.28561E-19
 -1      1564 9.55746E-05-2.86618E-05-2.86763E-05 9.88681E-08-9.59056E-19-1.85391E-18
 -1      1565 9.56373E-05-2.86730E-05-2.87002E-05 2.30823E-07-1.01497E-18-5.18924E-19
 -1      1566 9.53112E-05-2.85893E-05-2.85957E-05 5.67077E-08-3.67074E-19-1.26184E-19
 -1      1567 9.53827E-05-2.86071E-05-2.86175E-05 6.38336E-08-1.14281E-19-6.43772E-19
 -1      1568 9.54432E-05-2.86199E-05-2.86395E-05 1.52706E-07-1.01603E-18-1.14974E-18
 -1      1569 9.52152E-05-2.85618E-05-2.85660E-05 3.36430E-08 4.68443E-19-1.45321E-18
 -1      1570 9.52586E-05-2.85720E-05-2.85794E-05 3.88360E-08 1.92311E-19-1.20765E-18
 -1      1571 9.53138E-05-2.85850E-05-2.85988E-05 9.63332E-08 6.14538E-19-8.90217E-19
 -1      1572 9.51591E-05-2.85459E-05-2.85486E-05 1.76872E-08-4.07771E-19-8.53542E-19
 -1      1573 9.51828E-05-2.85510E-05-2.85560E-05 2.13989E-08-1.31523E-19-1.84156E-18
 -1      1574 9.52314E-05-2.85632E-05-2.85727E-05 5.64746E-08 1.65288E-19-1.50933E-18
 -1      1575 9.51304E-05-2.85380E-05-2.85396E-05 6.98736E-09 4.19774E-19-7.50406E-19
 -1      1576 9.51409E-05-2.85396E-05-2.85430E-05 9.57901E-09 4.62828E-20-1.22157E-18
 -1      1577 9.51823E-05-2.85506E-05-2.85569E-05 2.89911E-08-4.16545E-20-6.78854E-19
 -1      1578 9.51200E-05-2.85354E-05-2.85362E-05 1.10332E-10-1.57197E-19-1.14511E-18
 -1      1579 9.51219E-05-2.85348E-05-2.85369E-05 1.86731E-09 4.73363E-19-1.31336E-19
 -1      1580 9.51564E-05-2.85443E-05-2.85484E-05 1.06451E-08 4.90486E-19-7.59444E-19
 -1      1581 9.51214E-05-2.85361E-05-2.85364E-05-4.04016E-09-6.15961E-19-4.40886E-19
 -1      1582 9.51179E-05-2.85343E-05-2.85355E-05-2.89481E-09-3.57309E-19-8.03214E-19
 -1      1583 9.51460E-05-2.85423E-05-2.85447E-05-1.06795E-09-7.38870E-19-4.08148E-19
 -1      1584 9.51297E-05-2.85388E-05-2.85388E-05-6.29221E-09 6.03724E-19-3.83110E-19
 -1      1585 9.51232E-05-2.85363E-05-2.85370E-05-5.58629E-09 1.74058E-20-4.04452E-19
 -1      1586 9.51457E-05-2.85430E-05-2.85442E-05-8.06261E-09 4.26371E-20-1.04638E-19
 -1      1587 9.51416E-05-2.85425E-05-2.85423E-05-7.26260E-09 1.91286E-19-6.83314E-19
 -1      1588 9.51338E-05-2.85398E-05-2.85401E-05-6.86493E-09 4.04243E-19 1.16934E-19
 -1      1589 9.51514E-05-2.85452E-05-2.85457E-05-1.17836E-08 4.10408E-19 1.60190E-19
 -1      1590 9.51551E-05-2.85466E-05-2.85463E-05-7.40320E-09 2.27909E-19 2.24578E-19
 -1      1591 9.51469E-05-2.85440E-05-2.85439E-05-7.21529E-09-1.60580E-19 2.68217E-20
 -1      1592 9.51605E-05-2.85482E-05-2.85482E-05-1.33052E-08 1.85992E-20 1.31475E-18
 -1      1593 9.51686E-05-2.85507E-05-2.85504E-05-7.03857E-09 1.05956E-19-1.46812E-18
 -1      1594 9.51607E-05-2.85482E-05-2.85481E-05-6.98774E-09 4.16173E-19-5.96043E-19
 -1      1595 9.51710E-05-2.85515E-05-2.85513E-05-1.34125E-08 6.85304E-19 3.53234E-19
 -1      1596 9.51814E-05-2.85546E-05-2.85543E-05-6.39605E-09-2.96314E-19 6.52704E-19
 -1      1597 9.51741E-05-2.85523E-05-2.85521E-05-6.42973E-09-6.68879E-19-5.80644E-19
 -1      1598 9.51818E-05-2.85549E-05-2.85544E-05-1.26675E-08-8.93500E-19 1.54693E-18
 -1      1599 9.51930E-05-2.85581E-05-2.85577E-05-5.62954E-09-9.24695E-19 2.77000E-18
 -1      1600 9.51865E-05-2.85561E-05-2.85558E-05-5.71075E-09-3.82620E-19 1.56513E-18
 -1      1601 9.51920E-05-2.85580E-05-2.85575E-05-1.14619E-08-1.01443E-18 2.48255E-18
 -1      1602 9.52031E-05-2.85611E-05-2.85608E-05-4.83788E-09-1.22646E-19 3.30171E-18
 -1      1603 9.51975E-05-2.85594E-05-2.85591E-05-4.94162E-09-4.54986E-19 2.88500E-18
 -1      1604 9.52014E-05-2.85608E-05-2.85603E-05-1.00587E-08-6.44631E-19 2.79493E-18
 -1      1605 9.52118E-05-2.85637E-05-2.85634E-05-4.07869E-09-6.40443E-19 3.44414E-18
 -1      1606 9.52071E-05-2.85623E-05-2.85620E-05-4.18928E-09 5.55887E-20 3.47507E-18
 -1      1607 9.52096E-05-2.85632E-05-2.85627E-05-8.62375E-09-3.19156E-19 2.95658E-18
 -1      1608 9.52191E-05-2.85659E-05-2.85656E-05-3.37800E-09 1.12344E-18 3.14962E-18
 -1      1609 9.52152E-05-2.85647E-05-2.85645E-05-3.48731E-09 5.35060E-19 3.20911E-18
 -1      1610 9.52167E-05-2.85653E-05-2.85649E-05-7.25000E-09-1.07515E-19 2.42993E-18
 -1      1611 9.52251E-05-2.85676E-05-2.85674E-05-2.73628E-09 9.34312E-19 7.24330E-19
 -1      1612 9.52219E-05-2.85667E-05-2.85665E-05-2.84293E-09 1.16662E-18 1.81341E-18
 -1      1613 9.52226E-05-2.85671E-05-2.85667E-05-5.97335E-09 2.49243E-18 1.08027E-18
 -1      1614 9.52299E-05-2.85691E-05-2.85689E-05-2.13222E-09 8.47689E-19-1.00333E-18
 -1      1615 9.52274E-05-2.85683E-05-2.85681E-05-2.24124E-09 1.18035E-18 4.50393E-19
 -1      1616 9.52275E-05-2.85685E-05-2.85681E-05-4.78327E-09 1.64559E-18 6.57469E-19
 -1      1617 9.52335E-05-2.85702E-05-2.85700E-05-1.52699E-09-7.64243E-19-8.00706E-19
 -1      1618 9.52316E-05-2.85696E-05-2.85694E-05-1.64995E-09-2.60419E-19-1.36822E-18
 -1      1619 9.52314E-05-2.85697E-05-2.85693E-05-3.63172E-09 2.03785E-19 9.40286E-19
 -1      1620 9.52359E-05-2.85709E-05-2.85707E-05-8.67439E-10 8.81488E-19-1.82594E-18
 -1      1621 9.52347E-05-2.85706E-05-2.85703E-05-1.02733E-09 2.29148E-19-1.08779E-18
 -1      1622 9.52342E-05-2.85705E-05-2.85701E-05-2.44756E-09 5.75516E-19 1.36187E-19
 -1      1623 9.52370E-05-2.85712E-05-2.85711E-05-1.94568E-10 2.85162E-19-3.07948E-18
 -1      1624 9.52366E-05-2.85711E-05-2.85709E-05-3.68318E-10 3.39176E-19-2.81833E-18
 -1      1625 9.52361E-05-2.85711E-05-2.85707E-05-1.17800E-09 9.21510E-19-3.68117E-19
 -1      1626 9.52372E-05-2.85712E-05-2.85712E-05 6.32331E-11-1.31518E-18-1.16640E-18
 -1      1627 9.52372E-05-2.85721E-05-2.85708E-05-6.89027E-10-1.31247E-18-3.15991E-19
 -1      1628 9.52371E-05-2.85716E-05-2.85709E-05-5.13592E-10-1.36518E-18 1.06216E-18
 -1      1629 9.52379E-05-2.85741E-05-2.85702E-05-1.34865E-09-1.18166E-18 1.44725E-19
 -1      1630 9.52375E-05-2.85729E-05-2.85705E-05-1.23062E-09-6.37847E-19-6.24187E-19
 -1      1631 9.52373E-05-2.85729E-05-2.85704E-05-1.89794E-09-1.37839E-19-5.19943E-19
 -1      1632 9.52388E-05-2.85767E-05-2.85694E-05-1.74083E-09-2.84099E-18-6.06288E-19
 -1      1633 9.52383E-05-2.85752E-05-2.85699E-05-1.68708E-09-1.14197E-18-5.45388E-20
 -1      1634 9.52381E-05-2.85749E-05-2.85699E-05-2.95256E-09-1.40547E-19 3.63718E-19
 -1      1635 9.52397E-05-2.85797E-05-2.85686E-05-1.81889E-09-9.89572E-19 1.95762E-20
 -1      1636 9.52392E-05-2.85780E-05-2.85691E-05-1.82898E-09-3.04325E-18 1.60312E-18
 -1      1637 9.52389E-05-2.85773E-05-2.85693E-05-3.45722E-09-2.05759E-18 7.47055E-19
 -1      1638 9.52406E-05-2.85824E-05-2.85678E-05-1.61630E-09-3.56273E-18-1.84433E-18
 -1      1639 9.52401E-05-2.85809E-05-2.85682E-05-1.67677E-09-1.04858E-18-2.91424E-18
 -1      1640 9.52398E-05-2.85798E-05-2.85686E-05-3.38092E-09-2.65028E-18-1.45880E-18
 -1      1641 9.52413E-05-2.85845E-05-2.85672E-05-1.18304E-09-2.78367E-18 1.68981E-18
 -1      1642 9.52409E-05-2.85834E-05-2.85675E-05-1.28390E-09-3.77877E-18-1.50304E-19
 -1      1643 9.52406E-05-2.85821E-05-2.85680E-05-2.80469E-09-2.14093E-18-2.66603E-18
 -1      1644 9.52417E-05-2.85858E-05-2.85668E-05-5.93001E-10-1.67914E-18 9.56447E-19
 -1      1645 9.52415E-05-2.85852E-05-2.85670E-05-7.17794E-10-3.38655E-18 2.46819E-18
 -1      1646 9.52412E-05-2.85838E-05-2.85675E-05-1.83840E-09-1.56257E-18 1.44212E-18
 -1      1647 9.52418E-05-2.85860E-05-2.85668E-05 7.25861E-11 1.20558E-18 1.75190E-18
 -1      1648 9.52418E-05-2.85860E-05-2.85667E-05-6.01734E-11-1.36505E-18 1.31276E-18
 -1      1649 9.52415E-05-2.85846E-05-2.85673E-05-6.31749E-10-2.79738E-19 2.29463E-18
 -1      1650 9.52415E-05-2.85852E-05-2.85670E-05 7.28995E-10 1.90295E-18 3.55672E-19
 -1      1651 9.52417E-05-2.85858E-05-2.85668E-05 6.04645E-10 1.34758E-18 1.69220E-18
 -1      1652 9.52415E-05-2.85846E-05-2.85673E-05 6.55131E-10 5.34496E-19 1.83231E-18
 -1      1653 9.52409E-05-2.85834E-05-2.85675E-05 1.29204E-09 4.71183E-19-1.09822E-18
 -1      1654 9.52413E-05-2.85845E-05-2.85672E-05 1.19226E-09 2.10186E-18-9.49746E-19
 -1      1655 9.52412E-05-2.85837E-05-2.85675E-05 1.85833E-09 9.40036E-19-3.04952E-20
 -1      1656 9.52401E-05-2.85809E-05-2.85682E-05 1.67744E-09-1.85118E-18 1.15305E-19
 -1      1657 9.52406E-05-2.85824E-05-2.85678E-05 1.61801E-09 5.70451E-20-2.08313E-18
 -1      1658 9.52406E-05-2.85820E-05-2.85680E-05 2.81270E-09 6.18154E-19-2.47573E-18
 -1      1659 9.52392E-05-2.85780E-05-2.85691E-05 1.82801E-09-1.08331E-18 8.75455E-19
 -1      1660 9.52397E-05-2.85796E-05-2.85686E-05 1.81911E-09-2.23447E-18 2.89315E-18
 -1      1661 9.52398E-05-2.85798E-05-2.85686E-05 3.38252E-09 1.10188E-19 1.56053E-18
 -1      1662 9.52382E-05-2.85752E-05-2.85699E-05 1.68398E-09-2.36367E-18-1.31857E-18
 -1      1663 9.52388E-05-2.85767E-05-2.85694E-05 1.73547E-09-9.28668E-19-1.01566E-19
 -1      1664 9.52389E-05-2.85773E-05-2.85693E-05 3.45151E-09-9.48022E-19 3.82043E-19
 -1      1665 9.52375E-05-2.85729E-05-2.85705E-05 1.22815E-09-3.54805E-18-2.36899E-19
 -1      1666 9.52379E-05-2.85740E-05-2.85702E-05 1.34920E-09-2.26909E-18-1.38899E-18
 -1      1667 9.52381E-05-2.85749E-05-2.85699E-05 2.93661E-09-9.80789E-19-1.93051E-18
 -1      1668 9.52370E-05-2.85718E-05-2.85709E-05 8.13485E-10-2.57516E-18-2.73594E-19
 -1      1669 9.52372E-05-2.85723E-05-2.85707E-05 1.06506E-09-3.08165E-18 3.01939E-19
 -1      1670 9.52372E-05-2.85731E-05-2.85703E-05 2.28687E-09-1.34232E-18-3.99795E-20
 -1      1671 9.52365E-05-2.85719E-05-2.85706E-05 1.64955E-09-6.72340E-19 2.73132E-20
 -1      1672 2.03401E-05-6.59208E-05 1.34733E-05-6.76122E-06 6.98336E-18 3.88195E-18
 -1      1673 2.30421E-05-7.36524E-05 1.51870E-05 7.12485E-07 2.43056E-18 3.30512E-18
 -1      1674 1.86620E-05-4.21082E-05 5.17191E-06-9.49829E-07 1.10623E-17 5.38544E-18
 -1      1675 2.34830E-05-6.25312E-05 1.03319E-05-2.78936E-06 8.51141E-18 3.87772E-18
 -1      1676 3.26448E-05-1.46308E-05-1.02832E-05 2.44293E-05 1.14036E-17 8.54614E-18
 -1      1677 2.81224E-05-3.62947E-05-1.59265E-06 7.53528E-06 1.08522E-17 6.23670E-18
 -1      1678 7.06072E-05-2.83946E-06-2.90953E-05 5.59296E-05 1.03440E-17 9.47999E-18
 -1      1679 4.72786E-05-9.51192E-06-1.91842E-05 3.28028E-05 1.19203E-17 8.92603E-18
 -1      1680 1.42337E-04-2.20086E-05-4.86809E-05 6.99787E-05 6.23247E-18 7.19809E-18
 -1      1681 1.01520E-04-1.15934E-05-3.85964E-05 5.63820E-05 8.39918E-18 7.88418E-18
 -1      1682 2.07244E-04-4.20892E-05-6.50344E-05 6.90580E-05 4.02150E-18 3.84553E-18
 -1      1683 1.63158E-04-2.14088E-05-5.76419E-05 7.57288E-05 6.10668E-18 7.21587E-18
 -1      1684 2.51316E-04-6.22852E-05-7.42305E-05 2.83623E-05 2.23363E-18-1.72456E-18
 -1      1685 2.23664E-04-4.73219E-05-7.01646E-05 5.56845E-05 3.22741E-18 2.12097E-18
 -1      1686 2.59105E-04-6.54211E-05-7.60460E-05-1.98378E-05 2.77340E-18-7.35648E-18
 -1      1687 2.61323E-04-6.65148E-05-7.64122E-05 1.47616E-05 2.11377E-18-3.43345E-18
 -1      1688 2.19021E-04-4.59839E-05-6.90543E-05-5.78075E-05 5.29067E-18-1.18635E-17
 -1      1689 2.49478E-04-6.19632E-05-7.35227E-05-3.33342E-05 3.49189E-18-9.01921E-18
 -1      1690 1.55443E-04-2.06600E-05-5.52710E-05-7.18750E-05 9.06749E-18-1.43326E-17
 -1      1691 2.00038E-04-4.05257E-05-6.31600E-05-6.78429E-05 6.57552E-18-1.28258E-17
 -1      1692 8.93819E-05-4.06997E-06-3.71106E-05-5.91489E-05 1.20177E-17-1.41446E-17
 -1      1693 1.29431E-04-1.37097E-05-4.68848E-05-7.51215E-05 1.02508E-17-1.50814E-17
 -1      1694 4.42947E-05-1.05860E-05-1.77618E-05-2.96762E-05 1.30485E-17-1.10436E-17
 -1      1695 6.56881E-05-1.66932E-06-2.76382E-05-5.29558E-05 1.27445E-17-1.34348E-17
 -1      1696 2.68592E-05-3.62211E-05-1.11995E-06-6.71690E-06 1.06650E-17-6.77986E-18
 -1      1697 3.06360E-05-1.56027E-05-9.25490E-06-2.18737E-05 1.23421E-17-9.59011E-18
 -1      1698 2.15224E-05-6.05746E-05 1.03528E-05 3.05827E-06 6.12151E-18-3.66755E-18
 -1      1699 1.64265E-05-4.12057E-05 5.54131E-06 3.14261E-06 1.00628E-17-5.69603E-18
 -1      1700 2.01547E-05-6.52175E-05 1.33465E-05-1.30607E-06-4.77885E-19-2.74650E-18
 -1      1701 1.89950E-05-6.23199E-05 1.26602E-05 6.71264E-06 4.13140E-18-3.17002E-18
 -1      1702 1.71124E-05-5.00426E-05 9.01247E-06-2.31473E-06-6.84784E-18-4.05496E-18
 -1      1703 2.10603E-05-6.36055E-05 1.22147E-05 2.51948E-06-2.44814E-18-2.82740E-18
 -1      1704 1.86893E-05-2.32155E-05-1.67735E-06 9.82769E-06-1.12655E-17-7.01852E-18
 -1      1705 2.14249E-05-4.48809E-05 4.58434E-06 2.56607E-06-8.70411E-18-4.72750E-18
 -1      1706 4.60451E-05-4.50550E-06-1.88674E-05 4.08346E-05-1.17907E-17-1.02440E-17
 -1      1707 3.41215E-05-2.02749E-05-9.51664E-06 2.05057E-05-1.11063E-17-7.87402E-18
 -1      1708 9.15663E-05-8.79076E-07-3.75391E-05 6.88129E-05-1.11402E-17-1.33865E-17
 -1      1709 6.10484E-05 5.78372E-07-2.79067E-05 4.84123E-05-1.23277E-17-1.17136E-17
 -1      1710 1.62107E-04-2.52616E-05-5.49508E-05 7.28955E-05-7.70376E-18-1.24082E-17
 -1      1711 1.19279E-04-8.97592E-06-4.61993E-05 6.73266E-05-9.75274E-18-1.27123E-17
 -1      1712 2.23643E-04-5.05413E-05-6.83782E-05 5.47752E-05-4.40825E-18-1.01983E-17
 -1      1713 1.84571E-04-3.00208E-05-6.24602E-05 7.19246E-05-6.72629E-18-1.25344E-17
 -1      1714 2.49067E-04-6.23465E-05-7.39271E-05 7.00665E-06-3.10311E-18-4.10875E-18
 -1      1715 2.34177E-04-5.40175E-05-7.17921E-05 3.84470E-05-3.82880E-18-8.14422E-18
 -1      1716 2.41135E-04-5.72551E-05-7.28199E-05-3.93833E-05-3.14673E-18 1.90371E-18
 -1      1717 2.53204E-04-6.44953E-05-7.44931E-05-8.56825E-06-2.64571E-18-2.15506E-18
 -1      1718 1.97437E-04-3.55831E-05-6.48273E-05-7.01086E-05-4.83592E-18 6.65429E-18
 -1      1719 2.29693E-04-5.29469E-05-6.96645E-05-5.23942E-05-3.45896E-18 3.66723E-18
 -1      1720 1.38222E-04-1.18186E-05-5.17931E-05-7.64200E-05-7.92442E-18 9.85608E-18
 -1      1721 1.77842E-04-2.90160E-05-5.90163E-05-7.68366E-05-5.67512E-18 8.05867E-18
 -1      1722 8.38412E-05-3.46201E-06-3.46823E-05-5.75138E-05-1.08369E-17 1.02237E-17
 -1      1723 1.17832E-04-9.93083E-06-4.37664E-05-7.33343E-05-8.82693E-18 9.85353E-18
 -1      1724 4.29121E-05-8.71244E-06-1.73661E-05-3.21806E-05-1.27089E-17 9.50371E-18
 -1      1725 6.07613E-05 1.02346E-07-2.61079E-05-5.29408E-05-1.18839E-17 1.09310E-17
 -1      1726 2.64236E-05-3.29914E-05-1.90642E-06-9.23449E-06-9.83575E-18 7.10661E-18
 -1      1727 2.94694E-05-1.28510E-05-9.50092E-06-2.38178E-05-1.22684E-17 9.75655E-18
 -1      1728 2.36629E-05-6.01229E-05 9.61981E-06-6.36433E-07-4.75355E-18 3.37553E-18
 -1      1729 1.93343E-05-3.93932E-05 4.23282E-06-3.26513E-06-8.33226E-18 6.17392E-18
 -1      1730 2.33666E-05-7.44596E-05 1.52599E-05-2.65275E-06 6.01605E-19 2.79013E-18
 -1      1731 2.03982E-05-6.54763E-05 1.33177E-05 4.91505E-06-3.48173E-18 2.55603E-18
 -1      1732 1.16801E-04-3.61947E-05-3.37131E-05 4.23752E-05 5.82843E-18 3.22889E-18
 -1      1733 6.88223E-05-3.54091E-05-1.59273E-05 3.78954E-05 6.32903E-18 5.41169E-18
 -1      1734 9.52370E-05-2.85712E-05-2.85710E-05-1.68465E-10-1.67381E-18 4.29156E-19
 -1      1735 9.52369E-05-2.85717E-05-2.85708E-05-8.74313E-10-3.19902E-19 1.28559E-18
 -1      1736 1.73541E-05-4.72810E-05 8.36470E-06 1.13630E-05 3.96242E-18 5.26791E-18
 -1      1737 3.65337E-05-4.18556E-05-1.10918E-06 2.54802E-05 5.31513E-18 4.58721E-18
 -1      1738 1.14177E-05-4.90309E-05 1.13880E-05-1.28035E-06 1.02232E-18 5.55061E-18
 -1      1739 1.59624E-04-3.67345E-05-5.05576E-05 3.62301E-05 4.86726E-18 1.69491E-18
 -1      1740 1.94814E-04-3.41152E-05-6.42413E-05 2.91485E-05 4.67774E-18-3.01544E-19
 -1      1741 2.14488E-04-3.55225E-05-7.10813E-05 9.07214E-06 4.17630E-18-2.60738E-18
 -1      1742 2.15268E-04-3.67942E-05-7.07656E-05-1.06933E-05 4.59219E-18-5.45172E-18
 -1      1743 1.91761E-04-3.48533E-05-6.27962E-05-2.79863E-05 5.95845E-18-7.57078E-18
 -1      1744 1.54566E-04-3.32827E-05-4.93214E-05-4.19081E-05 7.30121E-18-9.24706E-18
 -1      1745 1.06810E-04-3.10718E-05-3.22730E-05-4.42574E-05 8.03834E-18-9.45712E-18
 -1      1746 6.47028E-05-3.42174E-05-1.50500E-05-3.59711E-05 7.36580E-18-8.07477E-18
 -1      1747 3.21846E-05-3.80480E-05-8.12743E-07-2.33479E-05 5.89704E-18-6.52311E-18
 -1      1748 1.33039E-05-4.17498E-05 7.81958E-06-6.98414E-06 3.02433E-18-5.61668E-18
 -1      1749 1.02851E-05-4.08477E-05 8.91075E-06 6.09355E-06-4.21611E-19-5.43456E-18
 -1      1750 2.04577E-05-3.76093E-05 3.66975E-06 1.88703E-05-3.95649E-18-5.64060E-18
 -1      1751 4.64484E-05-3.21222E-05-8.15205E-06 3.44741E-05-5.95634E-18-6.48372E-18
 -1      1752 8.29344E-05-2.91300E-05-2.38623E-05 4.36626E-05-7.04901E-18-7.71605E-18
 -1      1753 1.27475E-04-2.82250E-05-4.09691E-05 4.57923E-05-7.17352E-18-8.27043E-18
 -1      1754 1.69091E-04-3.16209E-05-5.59994E-05 3.63593E-05-6.07984E-18-7.37935E-18
 -1      1755 1.98711E-04-3.22960E-05-6.65387E-05 2.21220E-05-5.44515E-18-5.66072E-18
 -1      1756 2.09479E-04-3.33968E-05-7.02333E-05-1.31520E-06-5.14827E-18-2.80463E-18
 -1      1757 2.04420E-04-3.41825E-05-6.77862E-05-2.29458E-05-4.80988E-18 1.61360E-19
 -1      1758 1.78321E-04-3.07467E-05-5.92394E-05-3.99781E-05-5.22056E-18 2.79860E-18
 -1      1759 1.41937E-04-2.97034E-05-4.59995E-05-4.55853E-05-6.05205E-18 4.07592E-18
 -1      1760 1.02049E-04-2.98710E-05-3.04416E-05-4.62412E-05-7.12778E-18 5.73526E-18
 -1      1761 6.29482E-05-3.22215E-05-1.47136E-05-3.88981E-05-6.78897E-18 6.74746E-18
 -1      1762 3.55154E-05-3.97856E-05-1.35371E-06-2.75283E-05-4.23178E-18 7.02188E-18
 -1      1763 1.78725E-05-4.63761E-05 7.94537E-06-1.52962E-05-2.50679E-18 5.02799E-18
 -1      1764 1.22183E-04-2.75788E-05-4.06227E-05-1.62544E-05-1.39874E-18 5.54362E-18
 -1      1765 9.84870E-05-1.49297E-05-3.59417E-05-9.99132E-06-1.50841E-18-1.82655E-18
 -1      1766 1.01304E-04-1.59699E-05-3.67573E-05-1.26244E-05-1.81569E-18-1.30252E-18
 -1      1767 1.04640E-04-1.80691E-05-3.72867E-05-1.41560E-05-1.87553E-18-4.95408E-19
 -1      1768 1.07705E-04-2.01116E-05-3.80945E-05-1.64408E-05-2.07080E-18 5.23519E-19
 -1      1769 1.05596E-04-2.15946E-05-3.60422E-05-1.21490E-05-1.90816E-18-7.75009E-19
 -1      1770 8.67468E-05-1.08083E-05-3.26297E-05-4.02495E-07-4.66186E-19-2.95146E-18
 -1      1771 8.98485E-05-1.16740E-05-3.35541E-05-2.64007E-06-6.99523E-19-2.78682E-18
 -1      1772 7.94142E-05-7.88450E-06-3.07455E-05 3.68167E-06 4.81750E-21-3.21724E-18
 -1      1773 8.30911E-05-9.09176E-06-3.17143E-05 1.91091E-06-1.88855E-19-3.12511E-18
 -1      1774 8.71813E-05-1.33769E-05-3.17165E-05 1.18219E-06-3.08221E-19-2.84996E-18
 -1      1775 7.14580E-05-4.15093E-06-2.89430E-05 6.21125E-06 4.76410E-19-3.45573E-18
 -1      1776 7.52614E-05-5.58344E-06-2.98254E-05 5.24335E-06 3.11549E-19-3.34741E-18
 -1      1777 7.89516E-05-9.41709E-06-2.98820E-05 5.29466E-06 2.47631E-19-3.15832E-18
 -1      1778 6.44354E-05-3.62013E-07-2.75485E-05 6.56845E-06 7.02376E-19-3.73303E-18
 -1      1779 6.75022E-05-1.65446E-06-2.81729E-05 6.55825E-06 6.09288E-19-3.65552E-18
 -1      1780 7.02579E-05-4.62558E-06-2.81764E-05 7.46921E-06 6.42838E-19-3.54016E-18
 -1      1781 6.05112E-05 2.18282E-06-2.69224E-05 4.86579E-06 7.95101E-19-3.75485E-18
 -1      1782 6.18205E-05 1.50288E-06-2.71159E-05 5.61719E-06 7.02137E-19-3.81341E-18
 -1      1783 6.31149E-05-2.25932E-07-2.69506E-05 7.01597E-06 8.17648E-19-3.80807E-18
 -1      1784 6.13983E-05 2.34087E-06-2.73215E-05 2.20911E-06 9.02355E-19-3.61154E-18
 -1      1785 6.03023E-05 2.58571E-06-2.69802E-05 3.15183E-06 8.36275E-19-3.69814E-18
 -1      1786 5.99799E-05 2.07265E-06-2.65590E-05 4.33941E-06 9.09992E-19-3.78275E-18
 -1      1787 6.71846E-05-4.10389E-08-2.87457E-05 2.71895E-07 1.09961E-18-3.28955E-18
 -1      1788 6.38751E-05 1.04656E-06-2.79036E-05 7.20651E-07 9.68437E-19-3.46242E-18
 -1      1789 6.23675E-05 1.15256E-06-2.71976E-05 1.08340E-06 9.88961E-19-3.50642E-18
 -1      1790 7.68054E-05-4.28774E-06-3.10522E-05 2.56920E-07 1.39828E-18-2.73547E-18
 -1      1791 7.18603E-05-2.62095E-06-2.97897E-05-2.22782E-07 1.21937E-18-3.05148E-18
 -1      1792 6.99680E-05-2.75373E-06-2.88265E-05-8.50444E-07 1.20623E-18-3.12625E-18
 -1      1793 8.84186E-05-9.38256E-06-3.39005E-05 2.54334E-06 1.71917E-18-1.91121E-18
 -1      1794 8.26854E-05-7.43101E-06-3.23909E-05 1.03023E-06 1.50048E-18-2.36881E-18
 -1      1795 8.11509E-05-8.46758E-06-3.12120E-05-3.74793E-07 1.47434E-18-2.45082E-18
 -1      1796 1.00996E-04-1.51190E-05-3.69394E-05 6.55389E-06 2.05315E-18-5.33128E-19
 -1      1797 9.47858E-05-1.27310E-05-3.53423E-05 4.20444E-06 1.84955E-18-1.33876E-18
 -1      1798 9.39115E-05-1.47940E-05-3.39728E-05 2.26933E-06 1.81007E-18-1.45188E-18
 -1      1799 1.15207E-04-2.29996E-05-3.97149E-05 1.07880E-05 2.03164E-18 1.79566E-18
 -1      1800 1.07905E-04-1.90993E-05-3.82643E-05 8.36536E-06 2.02003E-18 4.35375E-19
 -1      1801 1.07464E-04-2.18143E-05-3.67013E-05 5.63199E-06 2.05423E-18 5.27013E-20
 -1      1802 1.26753E-04-3.29535E-05-4.06599E-05 9.10888E-06 1.73610E-18 4.61114E-18
 -1      1803 1.20045E-04-2.63731E-05-4.01551E-05 1.08255E-05 1.85420E-18 2.80982E-18
 -1      1804 1.18290E-04-2.89548E-05-3.83634E-05 6.51030E-06 2.05064E-18 1.86141E-18
 -1      1805 1.24922E-04-3.45435E-05-3.89428E-05 4.23039E-06 1.65696E-18 4.13130E-18
 -1      1806 1.15114E-04-2.37796E-05-3.88188E-05-1.80306E-05-1.82921E-18 2.41203E-18
 -1      1807 1.23772E-04-3.67570E-05-3.73489E-05 4.48841E-07 1.40496E-18 3.33397E-18
 -1      1808 1.24941E-04-3.63139E-05-3.80350E-05 2.06267E-06 1.40303E-18 3.78495E-18
 -1      1809 1.22204E-04-3.40063E-05-3.78114E-05 3.42688E-06 1.65124E-18 2.55538E-18
 -1      1810 1.14634E-04-2.75191E-05-3.70453E-05-1.36973E-05-1.92877E-18 1.69745E-18
 -1      1811 1.12274E-04-3.26958E-05-3.39961E-05-6.68357E-06-1.41513E-18 1.48811E-18
 -1      1812 1.10023E-04-3.27278E-05-3.31491E-05-5.82064E-06-1.24887E-18 1.05122E-18
 -1      1813 1.09062E-04-3.29476E-05-3.25375E-05-5.60793E-06-1.12026E-18 1.12069E-18
 -1      1814 1.07342E-04-3.27252E-05-3.19825E-05-5.81637E-06-1.02846E-18 7.93332E-19
 -1      1815 1.10042E-04-3.27935E-05-3.31102E-05-7.52117E-06-1.36937E-18 2.83958E-19
 -1      1816 1.06291E-04-3.25271E-05-3.15730E-05-6.26013E-06-7.94997E-19 9.18680E-19
 -1      1817 1.04483E-04-3.19245E-05-3.10913E-05-6.71040E-06-5.41787E-19 7.21824E-19
 -1      1818 1.08180E-04-3.32175E-05-3.21206E-05-7.66774E-06-1.08334E-18 4.41073E-19
 -1      1819 1.03212E-04-3.13423E-05-3.07912E-05-7.12829E-06-4.90663E-19 6.34280E-19
 -1      1820 1.01293E-04-3.04224E-05-3.03435E-05-7.26669E-06-5.84121E-19 3.75629E-19
 -1      1821 1.05905E-04-3.24085E-05-3.14845E-05-8.62462E-06-7.28404E-19 2.51095E-19
 -1      1822 9.98323E-05-2.95346E-05-3.01265E-05-7.04104E-06-8.37484E-19 3.43876E-19
 -1      1823 9.80596E-05-2.85018E-05-2.97530E-05-6.47060E-06-9.74207E-19-1.73940E-20
 -1      1824 1.03101E-04-3.05787E-05-3.10746E-05-8.88349E-06-8.77840E-19 2.50603E-20
 -1      1825 9.67171E-05-2.75884E-05-2.96146E-05-5.23475E-06-9.75994E-19-2.67375E-19
 -1      1826 9.55218E-05-2.68109E-05-2.93802E-05-3.86999E-06-9.26694E-19-3.08901E-19
 -1      1827 1.00151E-04-2.82567E-05-3.08323E-05-7.29752E-06-1.18330E-18-1.13423E-19
 -1      1828 9.47816E-05-2.62950E-05-2.93146E-05-1.76724E-06-9.59887E-19-4.94224E-19
 -1      1829 9.45365E-05-2.61271E-05-2.92674E-05 4.77359E-08-8.89107E-19-7.66330E-19
 -1      1830 9.79365E-05-2.64038E-05-3.07080E-05-3.55823E-06-1.16877E-18-4.78495E-19
 -1      1831 9.47153E-05-2.62932E-05-2.92650E-05 2.34201E-06-1.01565E-18-1.04171E-18
 -1      1832 9.54985E-05-2.68277E-05-2.94105E-05 3.97705E-06-8.43029E-19-1.17610E-18
 -1      1833 9.73490E-05-2.59667E-05-3.06517E-05 1.41424E-06-1.08098E-18-1.05175E-18
 -1      1834 9.64616E-05-2.75774E-05-2.94625E-05 5.63160E-06-9.23388E-19-1.52512E-18
 -1      1835 9.79882E-05-2.85668E-05-2.97581E-05 6.54270E-06-8.91218E-19-1.96633E-18
 -1      1836 9.85976E-05-2.71917E-05-3.06353E-05 5.86428E-06-1.30955E-18-1.69144E-18
 -1      1837 9.92389E-05-2.95007E-05-2.98543E-05 7.08097E-06-5.54470E-19-2.19931E-18
 -1      1838 1.01012E-04-3.05404E-05-3.02212E-05 7.10107E-06-2.97898E-19-2.32076E-18
 -1      1839 1.00994E-04-2.94396E-05-3.06625E-05 8.28031E-06-9.01726E-19-1.81707E-18
 -1      1840 1.02047E-04-3.12658E-05-3.03385E-05 6.59667E-06-2.19181E-19-2.58361E-18
 -1      1841 1.03601E-04-3.20426E-05-3.06878E-05 5.93337E-06-5.12587E-20-2.61619E-18
 -1      1842 1.03445E-04-3.16574E-05-3.07384E-05 8.24143E-06-3.93162E-19-2.31690E-18
 -1      1843 1.04161E-04-3.23854E-05-3.07950E-05 4.81458E-06-6.29650E-21-2.92316E-18
 -1      1844 1.05219E-04-3.27864E-05-3.10577E-05 3.83790E-06-1.51129E-19-2.71514E-18
 -1      1845 1.05134E-04-3.30902E-05-3.08429E-05 6.36687E-06-2.46745E-19-2.46379E-18
 -1      1846 1.05296E-04-3.27821E-05-3.11254E-05 2.57590E-06-4.31537E-19-2.40461E-18
 -1      1847 1.05786E-04-3.28532E-05-3.12675E-05 1.61191E-06-2.86661E-19-2.32270E-18
 -1      1848 1.05789E-04-3.35498E-05-3.09339E-05 3.69042E-06-1.23445E-19-2.48068E-18
 -1      1849 1.05505E-04-3.26313E-05-3.12787E-05 5.27283E-07-2.91591E-19-2.46442E-18
 -1      1850 1.05502E-04-3.24826E-05-3.13004E-05-2.34839E-07-2.85642E-20-2.32370E-18
 -1      1851 1.05553E-04-3.32605E-05-3.09669E-05 1.08859E-06-3.83177E-19-2.34423E-18
 -1      1852 1.05008E-04-3.21685E-05-3.12536E-05-1.00515E-06-1.41398E-19-2.54110E-18
 -1      1853 1.04648E-04-3.19070E-05-3.11782E-05-1.50600E-06-4.95390E-19-2.64304E-18
 -1      1854 1.04724E-04-3.25701E-05-3.09160E-05-9.49258E-07-2.98222E-19-2.40539E-18
 -1      1855 1.04057E-04-3.15840E-05-3.10838E-05-1.95605E-06-4.00746E-19-2.52327E-18
 -1      1856 1.03484E-04-3.12862E-05-3.09433E-05-2.21800E-06-2.47923E-20-2.44566E-18
 -1      1857 1.03585E-04-3.17619E-05-3.07798E-05-2.27975E-06-3.83638E-19-2.06666E-18
 -1      1858 1.02876E-04-3.09962E-05-3.08173E-05-2.40714E-06-6.49635E-20-2.03802E-18
 -1      1859 1.02209E-04-3.07074E-05-3.06429E-05-2.48740E-06-1.06425E-20-1.89234E-18
 -1      1860 1.02340E-04-3.10027E-05-3.05752E-05-2.96939E-06 1.75893E-19-1.65761E-18
 -1      1861 1.01629E-04-3.04650E-05-3.05017E-05-2.49314E-06-4.25187E-19-1.84658E-18
 -1      1862 1.00954E-04-3.02080E-05-3.03180E-05-2.45337E-06-2.05277E-19-2.35454E-18
 -1      1863 1.01119E-04-3.03636E-05-3.03279E-05-3.17146E-06-2.60210E-19-1.44709E-18
 -1      1864 1.00430E-04-3.00136E-05-3.01752E-05-2.34638E-06 9.16152E-20-2.86534E-18
 -1      1865 9.98015E-05-2.97968E-05-2.99993E-05-2.23833E-06 2.39132E-19-2.67020E-18
 -1      1866 9.99955E-05-2.98586E-05-3.00638E-05-3.04926E-06-2.58546E-19-1.84622E-18
 -1      1867 9.93452E-05-2.96448E-05-2.98648E-05-2.07325E-06 7.25811E-19-2.38610E-18
 -1      1868 9.87914E-05-2.94685E-05-2.97067E-05-1.93467E-06 8.23978E-19-2.08568E-18
 -1      1869 9.90045E-05-2.94747E-05-2.98039E-05-2.74030E-06 6.11825E-19-2.02870E-18
 -1      1870 9.84057E-05-2.93518E-05-2.95862E-05-1.74930E-06 1.00534E-18-2.08458E-18
 -1      1871 9.79386E-05-2.92127E-05-2.94507E-05-1.60494E-06 1.21514E-18-1.42840E-18
 -1      1872 9.81584E-05-2.91905E-05-2.95631E-05-2.34592E-06 1.04976E-18-1.58975E-18
 -1      1873 9.76207E-05-2.91244E-05-2.93470E-05-1.42301E-06 5.53318E-19-1.17158E-18
 -1      1874 9.72400E-05-2.90174E-05-2.92351E-05-1.28747E-06 3.91379E-19-7.75029E-19
 -1      1875 9.74554E-05-2.89841E-05-2.93499E-05-1.93371E-06 1.44491E-18-8.03971E-19
 -1      1876 9.69841E-05-2.89515E-05-2.91489E-05-1.12224E-06 1.83091E-19-9.93194E-19
 -1      1877 9.66829E-05-2.88712E-05-2.90592E-05-1.00294E-06 3.10413E-19-6.49842E-19
 -1      1878 9.68850E-05-2.88367E-05-2.91681E-05-1.54437E-06 4.53111E-19-7.87658E-19
 -1      1879 9.64813E-05-2.88228E-05-2.89895E-05-8.60526E-07 1.83545E-19-9.52952E-19
 -1      1880 9.62492E-05-2.87640E-05-2.89197E-05-7.60213E-07-1.49416E-19-1.03386E-18
 -1      1881 9.64320E-05-2.87332E-05-2.90178E-05-1.19926E-06 2.29806E-19-6.76310E-19
 -1      1882 9.60938E-05-2.87290E-05-2.88648E-05-6.42157E-07-4.38893E-19-1.16757E-18
 -1      1883 9.59196E-05-2.86871E-05-2.88118E-05-5.60749E-07-3.70587E-19-7.32050E-19
 -1      1884 9.60800E-05-2.86620E-05-2.88968E-05-9.06863E-07-1.00568E-19-1.00354E-18
 -1      1885 9.58023E-05-2.86623E-05-2.87695E-05-4.65935E-07-2.98166E-19-3.83667E-19
 -1      1886 9.56751E-05-2.86333E-05-2.87304E-05-4.01807E-07-4.52453E-19-9.98105E-19
 -1      1887 9.58120E-05-2.86143E-05-2.88018E-05-6.67668E-07-1.56645E-19-1.19096E-18
 -1      1888 9.55885E-05-2.86163E-05-2.86987E-05-3.27723E-07-4.11229E-19-6.04988E-19
 -1      1889 9.54983E-05-2.85969E-05-2.86706E-05-2.78545E-07 1.63740E-19-4.61685E-19
 -1      1890 9.56124E-05-2.85833E-05-2.87290E-05-4.77657E-07-5.04494E-19-1.67814E-20
 -1      1891 9.54360E-05-2.85856E-05-2.86473E-05-2.22116E-07 2.74199E-19-9.08424E-19
 -1      1892 9.53742E-05-2.85734E-05-2.86278E-05-1.85364E-07 9.36389E-20-4.02516E-19
 -1      1893 9.54673E-05-2.85643E-05-2.86745E-05-3.30629E-07 7.41248E-20 4.28136E-19
 -1      1894 9.53307E-05-2.85662E-05-2.86112E-05-1.43450E-07-2.94569E-19-7.74016E-19
 -1      1895 9.52902E-05-2.85591E-05-2.85981E-05-1.16704E-07-1.94773E-19-7.23295E-19
 -1      1896 9.53646E-05-2.85535E-05-2.86347E-05-2.19668E-07-2.30058E-19-2.39256E-19
 -1      1897 9.52608E-05-2.85548E-05-2.85867E-05-8.63835E-08-4.65283E-20-8.61425E-19
 -1      1898 9.52358E-05-2.85512E-05-2.85784E-05-6.74777E-08-2.29339E-19-1.61135E-19
 -1      1899 9.52942E-05-2.85482E-05-2.86065E-05-1.38017E-07-3.15782E-19-9.53840E-19
 -1      1900 9.52170E-05-2.85490E-05-2.85709E-05-4.61822E-08-2.21616E-19 4.15389E-19
 -1      1901 9.52030E-05-2.85478E-05-2.85660E-05-3.32694E-08 2.97589E-19 7.91165E-19
 -1      1902 9.52479E-05-2.85466E-05-2.85871E-05-7.95457E-08 4.69466E-20 7.88306E-20
 -1      1903 9.51917E-05-2.85470E-05-2.85613E-05-1.88324E-08 9.45234E-20 6.12808E-19
 -1      1904 9.51854E-05-2.85473E-05-2.85589E-05-1.03897E-08-1.62383E-20 3.08653E-19
 -1      1905 9.52193E-05-2.85472E-05-2.85743E-05-3.89576E-08 1.15684E-19 5.21814E-19
 -1      1906 9.51794E-05-2.85473E-05-2.85562E-05-1.04124E-09 3.56040E-20-2.89612E-19
 -1      1907 9.51781E-05-2.85485E-05-2.85553E-05 4.15094E-09 6.87923E-20-5.52275E-19
 -1      1908 9.52031E-05-2.85492E-05-2.85664E-05-1.18434E-08-2.09606E-19-9.29590E-19
 -1      1909 9.51757E-05-2.85490E-05-2.85540E-05 9.81913E-09-6.92065E-19-4.92156E-19
 -1      1910 9.51776E-05-2.85507E-05-2.85542E-05 1.27133E-08-1.20561E-18-6.52933E-19
 -1      1911 9.51956E-05-2.85518E-05-2.85619E-05 5.36288E-09-4.53344E-19 7.30951E-19
 -1      1912 9.51775E-05-2.85515E-05-2.85539E-05 1.57950E-08-1.30082E-18-7.63975E-19
 -1      1913 9.51811E-05-2.85533E-05-2.85547E-05 1.71178E-08-1.09309E-18-5.13335E-19
 -1      1914 9.51937E-05-2.85546E-05-2.85598E-05 1.54727E-08-1.53356E-18 1.05434E-18
 -1      1915 9.51825E-05-2.85543E-05-2.85549E-05 1.84434E-08-2.21460E-19-3.82665E-19
 -1      1916 9.51870E-05-2.85561E-05-2.85560E-05 1.87366E-08 4.91361E-19 3.27037E-19
 -1      1917 9.51955E-05-2.85574E-05-2.85593E-05 2.06517E-08-1.81769E-19 4.69036E-19
 -1      1918 9.51892E-05-2.85571E-05-2.85566E-05 1.89219E-08 4.20198E-19-3.90133E-19
 -1      1919 9.51939E-05-2.85588E-05-2.85579E-05 1.85792E-08 2.89456E-19-6.79573E-19
 -1      1920 9.51993E-05-2.85600E-05-2.85598E-05 2.25302E-08-1.99007E-19 6.82895E-19
 -1      1921 9.51964E-05-2.85597E-05-2.85586E-05 1.80693E-08 5.25828E-19 4.20266E-19
 -1      1922 9.52010E-05-2.85613E-05-2.85599E-05 1.73686E-08-2.64078E-19 5.27450E-19
 -1      1923 9.52041E-05-2.85623E-05-2.85608E-05 2.23064E-08 8.39494E-19 8.24056E-19
 -1      1924 9.52036E-05-2.85621E-05-2.85607E-05 1.64750E-08-1.05819E-18 7.22538E-19
 -1      1925 9.52078E-05-2.85634E-05-2.85619E-05 1.56052E-08 5.26550E-20 1.31406E-18
 -1      1926 9.52093E-05-2.85643E-05-2.85622E-05 2.08368E-08-4.61309E-19 1.77184E-18
 -1      1927 9.52103E-05-2.85642E-05-2.85627E-05 1.45372E-08 1.20643E-19 1.27630E-18
 -1      1928 9.52141E-05-2.85653E-05-2.85638E-05 1.36190E-08 7.79210E-19 7.25472E-19
 -1      1929 9.52144E-05-2.85660E-05-2.85636E-05 1.87127E-08 1.23671E-19 2.37980E-18
 -1      1930 9.52163E-05-2.85660E-05-2.85645E-05 1.25074E-08 1.87987E-18-3.30083E-19
 -1      1931 9.52196E-05-2.85669E-05-2.85654E-05 1.16099E-08 1.71544E-18 7.71357E-19
 -1      1932 9.52191E-05-2.85674E-05-2.85650E-05 1.63218E-08 5.73532E-19 1.95201E-18
 -1      1933 9.52216E-05-2.85675E-05-2.85661E-05 1.05262E-08 1.72540E-18 1.56817E-18
 -1      1934 9.52243E-05-2.85683E-05-2.85669E-05 9.67846E-09 2.26361E-18 3.26531E-18
 -1      1935 9.52234E-05-2.85686E-05-2.85663E-05 1.38966E-08 2.71593E-18 1.74963E-18
 -1      1936 9.52260E-05-2.85687E-05-2.85675E-05 8.64840E-09 1.81982E-18 2.78423E-18
 -1      1937 9.52283E-05-2.85694E-05-2.85681E-05 7.84792E-09 1.95655E-18 2.72046E-18
 -1      1938 9.52271E-05-2.85696E-05-2.85675E-05 1.15515E-08 2.02233E-18 1.84251E-18
 -1      1939 9.52297E-05-2.85698E-05-2.85686E-05 6.86335E-09 7.64399E-19 1.56234E-18
 -1      1940 9.52315E-05-2.85704E-05-2.85691E-05 6.08353E-09 2.67637E-19 1.32710E-18
 -1      1941 9.52302E-05-2.85705E-05-2.85684E-05 9.31196E-09 4.04103E-19 1.21573E-18
 -1      1942 9.52327E-05-2.85707E-05-2.85695E-05 5.11510E-09 6.31759E-19 1.95581E-19
 -1      1943 9.52340E-05-2.85712E-05-2.85698E-05 4.31603E-09 2.17687E-19 9.41334E-19
 -1      1944 9.52328E-05-2.85712E-05-2.85692E-05 7.14265E-09-4.23152E-19 5.63601E-19
 -1      1945 9.52349E-05-2.85714E-05-2.85701E-05 3.38964E-09 4.50314E-19 3.93232E-19
 -1      1946 9.52358E-05-2.85717E-05-2.85704E-05 2.58350E-09 1.50659E-19 6.91004E-19
 -1      1947 9.52362E-05-2.85722E-05-2.85702E-05 3.05859E-09-7.99752E-19-6.76246E-20
 -1      1948 9.52347E-05-2.85719E-05-2.85698E-05 5.04336E-09 2.96842E-19-3.35089E-20
 -1      1949 1.23412E-04-3.79557E-05-3.66493E-05 8.40972E-07 1.02060E-18 2.83994E-18
 -1      1950 1.23943E-04-3.76102E-05-3.69601E-05 5.22293E-07 1.20864E-18 3.24244E-18
 -1      1951 1.22133E-04-3.68815E-05-3.65601E-05 9.49448E-07 1.35304E-18 2.23423E-18
 -1      1952 1.22712E-04-3.86916E-05-3.60367E-05 4.08378E-06 4.99921E-19 2.42153E-18
 -1      1953 1.23629E-04-3.86666E-05-3.63922E-05 2.38161E-06 5.15737E-19 2.56835E-18
 -1      1954 1.22517E-04-3.87340E-05-3.59049E-05 2.53046E-06 7.96641E-19 1.95817E-18
 -1      1955 1.20344E-04-3.81539E-05-3.52258E-05 8.95924E-06 3.23289E-19 2.60776E-18
 -1      1956 1.22360E-04-3.88858E-05-3.57805E-05 6.47269E-06 3.96967E-19 2.65835E-18
 -1      1957 1.22446E-04-3.96518E-05-3.54480E-05 7.03228E-06 4.38194E-19 1.82477E-18
 -1      1958 1.15508E-04-3.54098E-05-3.43049E-05 1.27926E-05 3.88125E-19 2.26467E-18
 -1      1959 1.18765E-04-3.71845E-05-3.49931E-05 1.08709E-05 2.10269E-19 2.49613E-18
 -1      1960 1.20497E-04-3.84047E-05-3.51308E-05 1.23920E-05 3.71440E-19 1.92396E-18
 -1      1961 1.09106E-04-3.08541E-05-3.35592E-05 1.17923E-05 1.31737E-18 1.73850E-18
 -1      1962 1.12767E-04-3.31469E-05-3.41697E-05 1.22848E-05 9.21426E-19 2.10339E-18
 -1      1963 1.16020E-04-3.42657E-05-3.50456E-05 1.47768E-05 9.57041E-19 1.51504E-18
 -1      1964 1.04364E-04-2.71757E-05-3.32150E-05 4.43096E-06 1.01750E-18 7.53795E-19
 -1      1965 1.06756E-04-2.86364E-05-3.35274E-05 7.94549E-06 1.11758E-18 1.28083E-18
 -1      1966 1.10731E-04-2.89700E-05-3.51634E-05 1.04300E-05 1.37251E-18 8.43764E-19
 -1      1967 1.04850E-04-2.76150E-05-3.32701E-05-5.76549E-06 8.55239E-19-3.61471E-19
 -1      1968 1.04421E-04-2.69899E-05-3.31896E-05-1.12189E-06 1.01432E-18 1.32958E-19
 -1      1969 1.08267E-04-2.64060E-05-3.52313E-05-1.02982E-07 1.38410E-18-9.55791E-20
 -1      1970 1.10182E-04-3.17528E-05-3.37155E-05-1.22478E-05 1.04370E-19-7.99731E-19
 -1      1971 1.07246E-04-2.96086E-05-3.32656E-05-9.39723E-06 5.19761E-19-7.61588E-19
 -1      1972 1.10708E-04-2.90401E-05-3.50908E-05-1.04791E-05 8.83985E-19-1.30605E-18
 -1      1973 1.16468E-04-3.61619E-05-3.43993E-05-1.21523E-05 6.93723E-19-9.03069E-19
 -1      1974 1.12815E-04-3.40519E-05-3.37757E-05-1.21532E-05 7.20772E-19-1.01167E-18
 -1      1975 1.15675E-04-3.43139E-05-3.48808E-05-1.44533E-05 6.83410E-19-1.44296E-18
 -1      1976 1.20411E-04-3.84465E-05-3.50441E-05-7.50543E-06 4.69574E-19-1.36184E-18
 -1      1977 1.17716E-04-3.73221E-05-3.45045E-05-9.41600E-06 5.05718E-19-9.25781E-19
 -1      1978 1.19496E-04-3.83632E-05-3.47587E-05-1.15380E-05 5.66407E-19-1.70994E-18
 -1      1979 1.21123E-04-3.84285E-05-3.53634E-05-1.92897E-06 8.73245E-19-1.69678E-18
 -1      1980 1.20064E-04-3.83127E-05-3.50982E-05-4.22429E-06 6.09255E-19-1.44620E-18
 -1      1981 1.20447E-04-3.95003E-05-3.47087E-05-5.35203E-06 7.70721E-19-1.88419E-18
 -1      1982 1.19435E-04-3.71544E-05-3.52239E-05 2.29344E-06-5.93757E-19-9.48935E-19
 -1      1983 1.19821E-04-3.76320E-05-3.52792E-05 5.34984E-07 7.51212E-20-9.68387E-19
 -1      1984 1.18964E-04-3.83786E-05-3.45721E-05 4.83246E-07-1.06276E-20-9.74566E-19
 -1      1985 1.16467E-04-3.55275E-05-3.46812E-05 4.61978E-06-4.73481E-19-2.38228E-19
 -1      1986 1.17777E-04-3.62306E-05-3.49874E-05 3.62853E-06-7.32306E-19-8.38166E-19
 -1      1987 1.16186E-04-3.64081E-05-3.42244E-05 4.36233E-06-5.38084E-19-1.00878E-18
 -1      1988 1.13068E-04-3.40094E-05-3.38915E-05 5.42276E-06 3.93301E-19-4.50138E-19
 -1      1989 1.14802E-04-3.47273E-05-3.43374E-05 5.05544E-06 3.18220E-19-2.47095E-20
 -1      1990 1.12986E-04-3.44824E-05-3.36658E-05 6.21850E-06 9.24093E-20-6.03663E-19
 -1      1991 1.09740E-04-3.27425E-05-3.30128E-05 5.28541E-06 4.87695E-19-8.38582E-19
 -1      1992 1.11545E-04-3.33856E-05-3.35009E-05 5.31009E-06 1.92513E-19-6.99212E-19
 -1      1993 1.09849E-04-3.29297E-05-3.29754E-05 6.61998E-06 7.06583E-19-6.39861E-19
 -1      1994 1.06739E-04-3.17321E-05-3.21587E-05 4.68174E-06 5.47931E-19-7.88379E-19
 -1      1995 1.08412E-04-3.22727E-05-3.26250E-05 4.90582E-06 7.94767E-19-7.24432E-19
 -1      1996 1.06998E-04-3.17658E-05-3.22458E-05 6.18099E-06 7.72565E-19-6.31183E-19
 -1      1997 1.04168E-04-3.09411E-05-3.13928E-05 3.91588E-06-2.85882E-19-1.33692E-18
 -1      1998 1.05617E-04-3.13795E-05-3.18042E-05 4.21395E-06-4.57265E-21-1.35626E-18
 -1      1999 1.04522E-04-3.09116E-05-3.15481E-05 5.35732E-06 4.48736E-19-1.03192E-18
 -1      2000 1.02041E-04-3.03275E-05-3.07415E-05 3.15394E-06-5.28312E-19-1.46244E-18
 -1      2001 1.03241E-04-3.06747E-05-3.10862E-05 3.45633E-06-1.82845E-19-1.31069E-18
 -1      2002 1.02440E-04-3.02835E-05-3.09241E-05 4.42900E-06-1.67585E-19-1.51329E-18
 -1      2003 1.00329E-04-2.98548E-05-3.02075E-05 2.47269E-06-4.68077E-19-1.89758E-18
 -1      2004 1.01291E-04-3.01249E-05-3.04864E-05 2.74633E-06-5.40106E-19-2.08770E-18
 -1      2005 1.00730E-04-2.98173E-05-3.03916E-05 3.54420E-06-4.63410E-19-1.96378E-18
 -1      2006 9.89780E-05-2.94937E-05-2.97815E-05 1.89831E-06 1.69030E-18-2.39397E-18
 -1      2007 9.97320E-05-2.97005E-05-3.00014E-05 2.13111E-06 7.41546E-19-1.85539E-18
 -1      2008 9.93560E-05-2.94687E-05-2.99525E-05 2.76817E-06 6.55873E-19-1.90568E-18
 -1      2009 9.79318E-05-2.92206E-05-2.94490E-05 1.43136E-06-4.93008E-20-3.22568E-18
 -1      2010 9.85111E-05-2.93767E-05-2.96188E-05 1.62206E-06 1.21165E-18-2.93280E-18
 -1      2011 9.82710E-05-2.92075E-05-2.95999E-05 2.11994E-06 1.59465E-18-2.26375E-18
 -1      2012 9.71351E-05-2.90166E-05-2.91942E-05 1.06111E-06-7.37737E-19-2.66355E-18
 -1      2013 9.75724E-05-2.91326E-05-2.93229E-05 1.21335E-06-9.91500E-19-3.18131E-18
 -1      2014 9.74287E-05-2.90125E-05-2.93227E-05 1.59540E-06-7.43643E-19-2.23035E-18
 -1      2015 9.65380E-05-2.88663E-05-2.90022E-05 7.73024E-07-7.60866E-19-2.16524E-18
 -1      2016 9.68626E-05-2.89511E-05-2.90982E-05 8.92256E-07-9.39755E-19-2.74478E-18
 -1      2017 9.67852E-05-2.88682E-05-2.91088E-05 1.18050E-06-1.26924E-18-1.82248E-18
 -1      2018 9.60982E-05-2.87576E-05-2.88600E-05 5.52395E-07 2.60289E-20-2.10916E-18
 -1      2019 9.63349E-05-2.88185E-05-2.89303E-05 6.44293E-07-4.57598E-19-2.18012E-18
 -1      2020 9.63015E-05-2.87629E-05-2.89466E-05 8.58135E-07-6.14457E-19-2.77066E-18
 -1      2021 9.57802E-05-2.86805E-05-2.87566E-05 3.85891E-07-5.46742E-20-1.21898E-18
 -1      2022 9.59495E-05-2.87233E-05-2.88072E-05 4.55693E-07 3.31569E-19-1.68755E-18
 -1      2023 9.59441E-05-2.86874E-05-2.88256E-05 6.11536E-07 7.16843E-20-2.53304E-18
 -1      2024 9.55552E-05-2.86273E-05-2.86830E-05 2.62086E-07-1.77163E-18-1.01501E-18
 -1      2025 9.56735E-05-2.86565E-05-2.87185E-05 3.14337E-07-1.19702E-18-1.44214E-18
 -1      2026 9.56849E-05-2.86346E-05-2.87370E-05 4.25660E-07-1.05374E-18-2.16887E-18
 -1      2027 9.54001E-05-2.85917E-05-2.86317E-05 1.71494E-07-4.57220E-20-9.14552E-19
 -1      2028 9.54804E-05-2.86110E-05-2.86560E-05 2.10005E-07-1.14656E-18-7.30706E-19
 -1      2029 9.55010E-05-2.85987E-05-2.86734E-05 2.87665E-07-1.17468E-18-1.29329E-18
 -1      2030 9.52967E-05-2.85690E-05-2.85972E-05 1.06406E-07 6.17865E-19-1.10941E-18
 -1      2031 9.53492E-05-2.85811E-05-2.86132E-05 1.34298E-07 4.58980E-19-1.29248E-18
 -1      2032 9.53739E-05-2.85753E-05-2.86288E-05 1.86896E-07 5.27719E-19-6.52363E-19
 -1      2033 9.52309E-05-2.85555E-05-2.85748E-05 6.06451E-08-1.71890E-19-6.96201E-19
 -1      2034 9.52634E-05-2.85625E-05-2.85849E-05 8.04376E-08 2.16804E-19-1.12079E-18
 -1      2035 9.52889E-05-2.85609E-05-2.85984E-05 1.14691E-07 3.92316E-19-8.26280E-19
 -1      2036 9.51918E-05-2.85484E-05-2.85611E-05 2.93288E-08 8.73212E-19-1.21233E-18
 -1      2037 9.52103E-05-2.85519E-05-2.85670E-05 4.30283E-08 5.78255E-20-9.38097E-19
 -1      2038 9.52345E-05-2.85529E-05-2.85784E-05 6.41074E-08 2.46588E-19-1.05003E-18
 -1      2039 9.51712E-05-2.85455E-05-2.85536E-05 8.64070E-09-4.73301E-19-1.09888E-19
 -1      2040 9.51801E-05-2.85467E-05-2.85566E-05 1.78253E-08 1.07585E-19-8.89932E-19
 -1      2041 9.52021E-05-2.85492E-05-2.85659E-05 2.96571E-08 3.25070E-19 9.07968E-21
 -1      2042 9.51631E-05-2.85455E-05-2.85502E-05-4.36745E-09-1.57867E-18 5.61106E-19
 -1      2043 9.51657E-05-2.85452E-05-2.85512E-05 1.52932E-09-7.60896E-19 7.13592E-19
 -1      2044 9.51848E-05-2.85484E-05-2.85588E-05 7.05076E-09-1.03007E-18 4.89520E-19
 -1      2045 9.51631E-05-2.85471E-05-2.85495E-05-1.19445E-08 9.29818E-19 6.45534E-19
 -1      2046 9.51616E-05-2.85459E-05-2.85493E-05-8.39361E-09-2.17685E-19 4.51913E-19
 -1      2047 9.51779E-05-2.85493E-05-2.85553E-05-7.02193E-09-2.80039E-19 8.02193E-19
 -1      2048 9.51679E-05-2.85496E-05-2.85505E-05-1.57826E-08-9.39558E-19 8.25595E-19
 -1      2049 9.51641E-05-2.85480E-05-2.85496E-05-1.38641E-08 1.57375E-19 6.82398E-19
 -1      2050 9.51776E-05-2.85513E-05-2.85543E-05-1.50829E-08 1.37810E-19 1.03259E-18
 -1      2051 9.51753E-05-2.85526E-05-2.85525E-05-1.71348E-08-8.17856E-20 1.56276E-18
 -1      2052 9.51704E-05-2.85508E-05-2.85512E-05-1.63166E-08-5.75961E-19 8.23442E-19
 -1      2053 9.51813E-05-2.85538E-05-2.85548E-05-1.90258E-08-3.77546E-19 1.19475E-18
 -1      2054 9.51839E-05-2.85556E-05-2.85549E-05-1.69127E-08 2.11335E-19 1.74498E-18
 -1      2055 9.51786E-05-2.85538E-05-2.85534E-05-1.68046E-08 4.13295E-19 1.92828E-18
 -1      2056 9.51872E-05-2.85565E-05-2.85561E-05-2.02496E-08-1.83631E-19 2.37275E-18
 -1      2057 9.51927E-05-2.85584E-05-2.85575E-05-1.57639E-08-1.98274E-18 2.28565E-18
 -1      2058 9.51874E-05-2.85567E-05-2.85560E-05-1.60864E-08-1.26226E-18 1.72718E-18
 -1      2059 9.51941E-05-2.85590E-05-2.85580E-05-1.97678E-08-9.49136E-19 1.69976E-18
 -1      2060 9.52010E-05-2.85610E-05-2.85600E-05-1.41353E-08-1.11361E-18 2.73044E-18
 -1      2061 9.51961E-05-2.85595E-05-2.85586E-05-1.46934E-08-1.33421E-18 2.12748E-18
 -1      2062 9.52012E-05-2.85614E-05-2.85600E-05-1.82971E-08-1.36439E-18 1.26213E-18
 -1      2063 9.52086E-05-2.85633E-05-2.85622E-05-1.23220E-08-5.82806E-19 2.50088E-18
 -1      2064 9.52042E-05-2.85620E-05-2.85610E-05-1.29853E-08-4.15868E-19 2.12897E-18
 -1      2065 9.52080E-05-2.85635E-05-2.85620E-05-1.63278E-08-5.52357E-19 1.23528E-18
 -1      2066 9.52154E-05-2.85653E-05-2.85643E-05-1.05047E-08-7.58650E-19 3.01767E-18
 -1      2067 9.52115E-05-2.85642E-05-2.85632E-05-1.11918E-08-1.05568E-19 2.80554E-18
 -1      2068 9.52142E-05-2.85654E-05-2.85638E-05-1.41789E-08-6.45237E-19 2.23916E-18
 -1      2069 9.52211E-05-2.85670E-05-2.85660E-05-8.77701E-09 1.77417E-18 1.18839E-18
 -1      2070 9.52179E-05-2.85660E-05-2.85651E-05-9.44501E-09-4.52360E-19 1.56573E-18
 -1      2071 9.52197E-05-2.85669E-05-2.85655E-05-1.20403E-08 7.66507E-19 1.79003E-18
 -1      2072 9.52260E-05-2.85684E-05-2.85675E-05-7.16475E-09 3.38589E-18 3.10612E-19
 -1      2073 9.52232E-05-2.85676E-05-2.85667E-05-7.80127E-09 3.57277E-18 1.77405E-18
 -1      2074 9.52244E-05-2.85683E-05-2.85669E-05-1.00024E-08 2.57049E-18 1.15336E-18
 -1      2075 9.52299E-05-2.85695E-05-2.85687E-05-5.63851E-09 8.83654E-19 1.57155E-18
 -1      2076 9.52277E-05-2.85689E-05-2.85681E-05-6.25757E-09 1.51854E-18 1.51392E-18
 -1      2077 9.52283E-05-2.85694E-05-2.85681E-05-8.07900E-09 1.92030E-18 1.87190E-18
 -1      2078 9.52330E-05-2.85705E-05-2.85696E-05-4.13401E-09 5.75027E-19 7.24014E-19
 -1      2079 9.52313E-05-2.85700E-05-2.85692E-05-4.76725E-09 7.13314E-19 1.33709E-18
 -1      2080 9.52316E-05-2.85703E-05-2.85691E-05-6.22611E-09 1.17985E-18 1.50935E-18
 -1      2081 9.52352E-05-2.85712E-05-2.85703E-05-2.58527E-09 8.21618E-19 2.72733E-19
 -1      2082 9.52340E-05-2.85708E-05-2.85700E-05-3.26602E-09 3.34093E-19 3.55424E-19
 -1      2083 9.52341E-05-2.85711E-05-2.85698E-05-4.37992E-09 8.93646E-19-1.06873E-19
 -1      2084 9.52364E-05-2.85716E-05-2.85707E-05-1.39884E-09 5.98375E-20 1.50487E-18
 -1      2085 9.52357E-05-2.85714E-05-2.85704E-05-2.08975E-09 8.65159E-19 8.30177E-19
 -1      2086 9.52357E-05-2.85717E-05-2.85703E-05-2.89400E-09 2.89328E-19 2.21593E-18
 -1      2087 9.52366E-05-2.85720E-05-2.85705E-05-1.79506E-09-1.46699E-19 2.22950E-18
 -1      2088 9.52391E-05-2.85778E-05-2.85691E-05-4.78222E-09-1.16576E-18 1.89990E-18
 -1      2089 9.52385E-05-2.85766E-05-2.85694E-05-4.67579E-09-1.58873E-18 8.66988E-19
 -1      2090 9.52380E-05-2.85755E-05-2.85696E-05-4.36612E-09-1.24694E-18-8.53083E-19
 -1      2091 9.52375E-05-2.85743E-05-2.85699E-05-3.90801E-09-1.67476E-20 4.29647E-19
 -1      2092 9.52381E-05-2.85760E-05-2.85695E-05-5.77894E-09-1.15796E-18-5.25305E-19
 -1      2093 9.52371E-05-2.85735E-05-2.85701E-05-3.26755E-09 2.36950E-19-1.21422E-19
 -1      2094 9.52368E-05-2.85727E-05-2.85704E-05-2.57616E-09-9.97282E-20 7.74185E-19
 -1      2095 9.52364E-05-2.85725E-05-2.85702E-05-3.16715E-09 5.41409E-20 6.36824E-19
 -1      2096 9.52371E-05-2.85740E-05-2.85699E-05-4.69372E-09-5.33757E-19-4.01909E-20
 -1      2097 9.52402E-05-2.85801E-05-2.85686E-05-4.48209E-09-2.78912E-18-3.70705E-18
 -1      2098 9.52396E-05-2.85789E-05-2.85689E-05-4.68818E-09-1.97320E-18-8.04217E-19
 -1      2099 9.52394E-05-2.85782E-05-2.85691E-05-5.99640E-09-1.35203E-18-1.26991E-18
 -1      2100 9.52410E-05-2.85820E-05-2.85681E-05-3.55122E-09-1.18192E-18-1.41415E-18
 -1      2101 9.52406E-05-2.85810E-05-2.85684E-05-4.02205E-09-1.76523E-18-1.79225E-18
 -1      2102 9.52405E-05-2.85803E-05-2.85687E-05-5.36476E-09-1.51391E-18-1.95184E-18
 -1      2103 9.52416E-05-2.85834E-05-2.85678E-05-2.14998E-09-5.37525E-19 2.40661E-18
 -1      2104 9.52414E-05-2.85827E-05-2.85680E-05-2.80552E-09-5.59407E-19 7.30672E-19
 -1      2105 9.52414E-05-2.85819E-05-2.85684E-05-4.00350E-09 6.88493E-19 1.32883E-19
 -1      2106 9.52419E-05-2.85839E-05-2.85677E-05-4.75645E-10-1.20702E-19 2.63925E-18
 -1      2107 9.52418E-05-2.85837E-05-2.85677E-05-1.22572E-09-7.40846E-19 3.63231E-18
 -1      2108 9.52420E-05-2.85830E-05-2.85682E-05-2.12444E-09-1.08393E-19 2.67995E-18
 -1      2109 9.52418E-05-2.85837E-05-2.85677E-05 1.25735E-09 1.30567E-19 1.52535E-18
 -1      2110 9.52419E-05-2.85839E-05-2.85677E-05 5.08405E-10-2.12091E-19 2.89432E-18
 -1      2111 9.52422E-05-2.85834E-05-2.85681E-05 2.09346E-11-8.08536E-19 2.73177E-18
 -1      2112 9.52413E-05-2.85827E-05-2.85680E-05 2.83109E-09 8.29522E-19-6.84199E-19
 -1      2113 9.52416E-05-2.85833E-05-2.85678E-05 2.17905E-09 2.41527E-19 3.83656E-19
 -1      2114 9.52420E-05-2.85830E-05-2.85682E-05 2.16327E-09-1.26441E-19 1.05727E-18
 -1      2115 9.52406E-05-2.85810E-05-2.85684E-05 4.02154E-09 5.56453E-19-2.25497E-18
 -1      2116 9.52410E-05-2.85820E-05-2.85681E-05 3.56136E-09 4.83143E-19-1.14893E-18
 -1      2117 9.52414E-05-2.85819E-05-2.85684E-05 4.02115E-09 3.95664E-19-1.37973E-18
 -1      2118 9.52396E-05-2.85789E-05-2.85689E-05 4.68832E-09 6.56732E-19 2.19464E-18
 -1      2119 9.52402E-05-2.85801E-05-2.85686E-05 4.48183E-09 1.39534E-18-1.25317E-19
 -1      2120 9.52405E-05-2.85802E-05-2.85687E-05 5.36480E-09 1.45318E-18-8.87513E-19
 -1      2121 9.52385E-05-2.85765E-05-2.85694E-05 4.66726E-09-2.54453E-19-4.23789E-19
 -1      2122 9.52391E-05-2.85778E-05-2.85691E-05 4.77950E-09 1.45823E-19 5.74362E-19
 -1      2123 9.52393E-05-2.85782E-05-2.85691E-05 5.99478E-09 7.75176E-19 7.76788E-19
 -1      2124 9.52374E-05-2.85743E-05-2.85699E-05 3.90653E-09-9.88174E-19-2.06531E-18
 -1      2125 9.52380E-05-2.85754E-05-2.85697E-05 4.34973E-09-6.54315E-19-1.35729E-18
 -1      2126 9.52381E-05-2.85759E-05-2.85695E-05 5.75682E-09-9.88611E-19-1.67156E-18
 -1      2127 5.29739E-05-3.84381E-05-6.88013E-06 3.77647E-05 2.85196E-18 3.67866E-18
 -1      2128 3.83096E-05-3.98801E-05-8.90754E-07 2.93190E-05 2.42971E-18 3.17097E-18
 -1      2129 1.22272E-05-2.97196E-05 6.47971E-06 2.65381E-06 1.07224E-18 6.14607E-18
 -1      2130 1.28030E-05-3.05746E-05 6.51764E-06-6.92347E-06-2.52522E-19 5.57941E-18
 -1      2131 2.47689E-05-3.42715E-05 2.96446E-06 2.31747E-05 2.51992E-18 4.34380E-18
 -1      2132 1.71721E-05-3.38344E-05 5.77210E-06 1.46810E-05 1.26801E-18 5.37358E-18
 -1      2133 9.16351E-05-4.23221E-05-2.14080E-05 4.23638E-05 4.04755E-18 2.85196E-18
 -1      2134 7.22982E-05-4.39511E-05-1.34291E-05 3.70979E-05 3.29962E-18 3.33996E-18
 -1      2135 1.32805E-04-4.84516E-05-3.63559E-05 3.15397E-05 3.44954E-18 4.72221E-19
 -1      2136 1.10113E-04-4.58618E-05-2.81005E-05 3.58580E-05 4.21992E-18 2.06210E-18
 -1      2137 9.28403E-05-1.28773E-05-3.43748E-05-5.16523E-06-9.23094E-19-2.53731E-18
 -1      2138 9.55893E-05-1.36213E-05-3.52465E-05-7.63137E-06-1.29315E-18-2.15935E-18
 -1      2139 1.00002E-04-1.86164E-05-3.49266E-05-8.60037E-06-1.42195E-18-1.78915E-18
 -1      2140 9.40274E-05-1.62015E-05-3.34288E-05-3.81029E-06-8.28464E-19-2.43024E-18
 -1      2141 1.80566E-04-3.11172E-05-6.28098E-05 9.87975E-06 4.14474E-18-1.90201E-18
 -1      2142 1.71355E-04-3.35161E-05-5.82382E-05 1.69128E-05 4.36635E-18-1.07107E-18
 -1      2143 1.89854E-04-2.72370E-05-6.79663E-05 1.35440E-06 4.40330E-18-3.22753E-18
 -1      2144 1.82166E-04-2.54926E-05-6.60544E-05 6.52874E-06 4.34782E-18-2.12415E-18
 -1      2145 1.82257E-04-2.69215E-05-6.55454E-05-6.46243E-06 5.01444E-18-4.48885E-18
 -1      2146 1.89769E-04-2.77101E-05-6.77894E-05-4.95349E-07 4.53417E-18-3.45166E-18
 -1      2147 1.66355E-04-3.43294E-05-5.62498E-05-1.17683E-05 5.40862E-18-4.80649E-18
 -1      2148 1.78017E-04-3.24502E-05-6.13064E-05-7.26503E-06 5.13853E-18-4.09583E-18
 -1      2149 1.42290E-04-4.13195E-05-4.34770E-05-2.63906E-05 5.47395E-18-5.92161E-18
 -1      2150 1.61450E-04-4.11541E-05-5.08963E-05-2.23050E-05 5.38665E-18-5.16267E-18
 -1      2151 1.06739E-04-4.34558E-05-2.80116E-05-3.46178E-05 5.17114E-18-6.19774E-18
 -1      2152 1.28989E-04-4.33080E-05-3.63851E-05-3.62249E-05 5.16690E-18-6.38917E-18
 -1      2153 6.90648E-05-4.08432E-05-1.32522E-05-3.58386E-05 4.07338E-18-5.58417E-18
 -1      2154 8.82677E-05-4.02109E-05-2.08602E-05-4.09121E-05 5.16690E-18-6.27249E-18
 -1      2155 3.19700E-05-3.33527E-05-9.17688E-07-2.55680E-05 2.70204E-18-5.65183E-18
 -1      2156 4.68790E-05-3.27391E-05-6.71420E-06-3.52748E-05 3.77057E-18-5.84442E-18
 -1      2157 1.28785E-05-2.70335E-05 4.71994E-06-9.67742E-06 1.11639E-18-5.48793E-18
 -1      2158 1.98447E-05-2.82304E-05 2.48766E-06-1.86686E-05 2.83925E-18-5.88455E-18
 -1      2159 3.22433E-05-2.55452E-05-3.36561E-06-2.82665E-05 1.07150E-18-5.93474E-18
 -1      2160 1.23896E-05-2.37055E-05 3.92369E-06 1.34440E-05-6.54968E-19-5.74373E-18
 -1      2161 1.00682E-05-2.40729E-05 4.93876E-06 3.35439E-06 1.03391E-18-5.59042E-18
 -1      2162 2.95796E-05-2.83496E-05-1.53907E-06 3.05240E-05-2.84434E-18-5.49767E-18
 -1      2163 2.00240E-05-2.90892E-05 2.44677E-06 2.26123E-05-1.07234E-18-5.33631E-18
 -1      2164 6.38348E-05-3.39701E-05-1.34059E-05 4.24582E-05-3.04254E-18-5.30364E-18
 -1      2165 4.55680E-05-3.37914E-05-6.46321E-06 3.47968E-05-2.76683E-18-5.23731E-18
 -1      2166 1.04455E-04-3.60429E-05-2.91011E-05 4.33808E-05-5.13387E-18-6.21087E-18
 -1      2167 8.63302E-05-3.82340E-05-2.11420E-05 4.04196E-05-4.09964E-18-5.09046E-18
 -1      2168 1.39977E-04-3.84119E-05-4.32802E-05 3.09218E-05-4.70357E-18-5.07966E-18
 -1      2169 1.19686E-04-3.70968E-05-3.57064E-05 3.57466E-05-5.14234E-18-5.88900E-18
 -1      2170 1.22292E-04-4.64829E-05-3.22352E-05 3.14374E-05-2.88351E-18-3.85591E-18
 -1      2171 1.67965E-04-3.17284E-05-5.70444E-05 1.88671E-05-5.21815E-18-4.43083E-18
 -1      2172 1.51246E-04-3.29754E-05-5.04495E-05 2.02350E-05-4.98466E-18-4.36730E-18
 -1      2173 1.75735E-04-2.47048E-05-6.38696E-05 4.90010E-06-5.25076E-18-3.17277E-18
 -1      2174 1.70825E-04-2.71235E-05-6.08174E-05 1.31419E-05-5.24356E-18-4.33342E-18
 -1      2175 1.55738E-04-2.51623E-05-5.51573E-05 4.80585E-07-4.75567E-18-2.34416E-18
 -1      2176 1.80380E-04-2.34825E-05-6.60538E-05-4.64728E-06-5.32445E-18-1.54774E-18
 -1      2177 1.76148E-04-2.13081E-05-6.55940E-05 2.22008E-06-5.49047E-18-2.72332E-18
 -1      2178 1.74532E-04-2.57151E-05-6.28275E-05-1.41361E-05-5.07754E-18-4.66715E-19
 -1      2179 1.81602E-04-2.60351E-05-6.54741E-05-7.34592E-06-5.22662E-18-1.57379E-18
 -1      2180 1.59213E-04-1.34669E-05-6.13127E-05-5.84074E-07-5.62472E-18-1.89418E-18
 -1      2181 1.58251E-04-3.18296E-05-5.37532E-05-2.47003E-05-5.03413E-18 1.31460E-18
 -1      2182 1.71917E-04-3.12616E-05-5.89699E-05-2.00985E-05-4.78341E-18 1.99053E-20
 -1      2183 1.34819E-04-3.77606E-05-4.16428E-05-3.12999E-05-4.60108E-18 1.71778E-18
 -1      2184 1.52549E-04-3.60499E-05-4.87939E-05-3.16830E-05-4.84492E-18 1.44758E-18
 -1      2185 1.53394E-04-3.68399E-05-4.91238E-05-1.26059E-05-4.34099E-18-4.34104E-19
 -1      2186 1.00810E-04-4.16134E-05-2.60392E-05-3.93854E-05-4.51469E-18 3.15732E-18
 -1      2187 1.20535E-04-4.13392E-05-3.36412E-05-4.02284E-05-4.32410E-18 2.06591E-18
 -1      2188 6.70590E-05-4.07225E-05-1.24905E-05-3.90862E-05-3.16960E-18 4.72157E-18
 -1      2189 8.38364E-05-3.85113E-05-1.95539E-05-4.43222E-05-4.31648E-18 4.21695E-18
 -1      2190 3.90218E-05-3.81883E-05-1.61542E-06-3.29560E-05-1.05159E-18 5.74691E-18
 -1      2191 5.19571E-05-3.67108E-05-7.08150E-06-3.95487E-05-2.30689E-18 5.64929E-18
 -1      2192 1.70217E-05-3.32892E-05 5.67107E-06-1.61376E-05-2.74015E-19 4.88526E-18
 -1      2193 2.34096E-05-3.13490E-05 2.55349E-06-2.54511E-05-1.72329E-18 5.30793E-18
 -1      2194 1.78387E-05-2.19619E-05 1.32570E-06-1.40096E-05 2.03394E-19 5.97582E-18
 -1      2195 1.65611E-04-3.94260E-05-5.26961E-05 2.20963E-05 4.42805E-18-1.18373E-18
 -1      2196 1.47784E-04-4.32263E-05-4.48009E-05 2.03540E-05 3.78677E-18-6.39510E-19
 -1      2197 1.60398E-04-3.72293E-05-5.21330E-05 2.45185E-06 4.05633E-18-2.68044E-18
 -1      2198 1.13163E-04-5.42104E-05-2.50045E-05 3.54135E-05 1.84399E-18 4.93397E-19
 -1      2199 1.12043E-04-2.96756E-05-3.54145E-05-9.77166E-06-1.76363E-18 1.26809E-18
 -1      2200 1.43921E-04-5.05338E-05-3.97073E-05 2.05463E-05 2.95911E-18-1.14900E-18
 -1      2201 1.38359E-04-5.68811E-05-3.45046E-05 1.90815E-05 1.98036E-18-2.27005E-18
 -1      2202 1.49248E-04-5.21857E-05-4.20919E-05 6.54981E-06 2.50936E-18-3.51985E-18
 -1      2203 1.10514E-04-2.88698E-05-3.50547E-05-1.06925E-05-1.85742E-18 2.23961E-19
 -1      2204 3.86262E-05-3.35557E-05-2.73592E-06 3.28646E-05 4.45539E-19 3.54526E-18
 -1      2205 1.80743E-05-2.32306E-05 1.70452E-06 1.08825E-05 1.86453E-19 6.23332E-18
 -1      2206 9.52370E-05-2.85736E-05-2.85701E-05 3.74132E-09-1.00219E-18-1.66562E-18
 -1      2207 7.42076E-05-4.63934E-05-1.23106E-05 4.10385E-05 1.07743E-18 2.40793E-18
 -1      2208 3.77061E-05-3.19060E-05-2.90020E-06-3.46755E-05 2.10276E-19 5.17156E-18
 -1      2209 7.10706E-05-4.39130E-05-1.20014E-05-4.35642E-05-1.30020E-19 4.15984E-18
 -1      2210 1.35290E-04-4.81731E-05-3.69370E-05-2.64907E-05-2.79034E-18-2.54957E-19
 -1      2211 1.60618E-04-2.39329E-05-5.75566E-05-3.99940E-06-5.14022E-18-1.38024E-18
 -1      2212 1.58468E-04-1.49568E-05-6.06033E-05-1.44308E-06-5.60058E-18-2.00154E-18
 -1      2213 1.46924E-04-3.93372E-05-4.58029E-05 1.72764E-05-4.02425E-18-3.52281E-18
 -1      2214 1.40923E-04-4.46698E-05-4.08556E-05 1.27166E-05-2.84963E-18-1.82112E-18
 -1      2215 1.47226E-04-3.84924E-05-4.72885E-05 2.10457E-06-3.32471E-18-1.53609E-18
 -1      2216 8.20697E-05-4.01758E-05-1.81493E-05 4.14833E-05-2.22600E-18-4.73237E-18
 -1      2217 7.89332E-05-4.00010E-05-1.61942E-05 4.32122E-05-2.24675E-19-3.90636E-18
 -1      2218 9.95573E-05-4.70697E-05-2.31124E-05 3.93997E-05-8.94467E-19-3.47485E-18
 -1      2219 4.54215E-05-2.97874E-05-7.00272E-06 3.91433E-05-5.56077E-19-5.23255E-18
 -1      2220 1.41766E-05-1.63362E-05 4.37931E-07-4.62739E-06 7.08384E-19-6.31082E-18
 -1      2221 6.87011E-05-4.06009E-05-1.23488E-05-3.85265E-05 1.69322E-18-5.10750E-18
 -1      2222 1.11443E-04-5.20179E-05-2.54697E-05-3.38708E-05 2.55296E-18-4.50325E-18
 -1      2223 1.42947E-04-5.13632E-05-3.87547E-05-1.88712E-05 3.33985E-18-3.52874E-18
 -1      2224 1.58952E-04-3.93748E-05-5.04916E-05-1.92421E-06 4.24311E-18-2.48901E-18
 -1      2225 1.63714E-04-2.35739E-05-5.91820E-05 4.65144E-06 5.02121E-18-2.73592E-18
 -1      2226 1.66890E-04-2.27380E-05-6.06648E-05-5.26909E-07 4.64513E-18-2.41616E-18
 -1      2227 1.67188E-04-1.63550E-05-6.32743E-05 1.28873E-06 5.00554E-18-2.85979E-18
 -1      2228 1.95046E-05-1.90809E-05-7.48756E-07 2.18270E-05 4.17799E-19-6.07407E-18
 -1      2229 1.04734E-04-5.01213E-05-2.33140E-05-3.99137E-05-1.86517E-18 1.68263E-18
 -1      2230 1.19282E-04-3.66069E-05-3.54867E-05 5.22776E-07 1.15911E-18 1.23221E-18
 -1      2231 1.19078E-04-3.49927E-05-3.59365E-05 8.56190E-07 1.37074E-18 1.32780E-18
 -1      2232 7.87888E-05-1.13528E-05-2.89743E-05 7.71712E-06 5.71469E-19-2.97956E-18
 -1      2233 8.35264E-05-1.36547E-05-2.99040E-05 5.91209E-06 2.32459E-19-2.83850E-18
 -1      2234 8.80493E-05-1.61576E-05-3.08553E-05 3.28893E-06 3.90926E-21-2.68269E-18
 -1      2235 9.19450E-05-1.78906E-05-3.17571E-05 8.35639E-07-3.38696E-19-2.53561E-18
 -1      2236 8.81410E-05-1.84118E-05-2.99592E-05 5.80254E-06 2.33976E-19-2.52016E-18
 -1      2237 6.08020E-05-2.51069E-07-2.60310E-05 8.14304E-06 9.84173E-19-3.86790E-18
 -1      2238 6.41107E-05-2.09626E-06-2.64930E-05 9.01533E-06 9.21959E-19-3.79501E-18
 -1      2239 5.81696E-05 1.97065E-06-2.57943E-05 3.91020E-06 9.91969E-19-3.78164E-18
 -1      2240 5.85614E-05 1.58375E-06-2.57486E-05 5.67040E-06 9.45793E-19-3.87058E-18
 -1      2241 5.91793E-05-2.87131E-07-2.51544E-05 8.02685E-06 1.04265E-18-3.87989E-18
 -1      2242 6.24384E-05-3.53980E-08-2.66932E-05-5.49923E-07 9.89020E-19-3.45426E-18
 -1      2243 5.95497E-05 1.25166E-06-2.61068E-05 9.46719E-07 9.34154E-19-3.64035E-18
 -1      2244 5.81007E-05 8.63245E-07-2.51610E-05 2.20128E-06 9.45123E-19-3.74808E-18
 -1      2245 7.26208E-05-5.63918E-06-2.86305E-05-2.82453E-06 1.18927E-18-2.93075E-18
 -1      2246 6.71732E-05-3.06540E-06-2.75727E-05-2.46106E-06 1.00356E-18-3.17948E-18
 -1      2247 6.46413E-05-2.95577E-06-2.63779E-05-2.98113E-06 8.79518E-19-3.28184E-18
 -1      2248 8.57759E-05-1.28463E-05-3.12210E-05-1.89753E-06 1.40039E-18-2.23912E-18
 -1      2249 7.92106E-05-9.70728E-06-2.98875E-05-2.85575E-06 1.23484E-18-2.59770E-18
 -1      2250 7.67873E-05-1.01535E-05-2.85749E-05-4.85929E-06 1.03350E-18-2.66464E-18
 -1      2251 9.93585E-05-2.01650E-05-3.40189E-05 1.20920E-06 1.77611E-18-1.12974E-18
 -1      2252 9.26924E-05-1.68023E-05-3.26045E-05-4.74792E-07 1.49641E-18-1.67117E-18
 -1      2253 9.09986E-05-1.81551E-05-3.12648E-05-3.16449E-06 1.24796E-18-1.81925E-18
 -1      2254 1.21313E-04-4.00019E-05-3.49381E-05 2.62182E-06 7.04884E-19 1.09128E-18
 -1      2255 1.21052E-04-3.86953E-05-3.51867E-05 1.04637E-06 8.32466E-19 1.31092E-18
 -1      2256 1.17493E-04-3.72864E-05-3.44612E-05 1.50163E-07 9.80783E-19 4.13537E-19
 -1      2257 1.10420E-04-3.22070E-05-3.34754E-05-8.39531E-06-1.29256E-18-1.74767E-19
 -1      2258 1.09645E-04-3.30955E-05-3.28657E-05-7.83294E-06-1.13390E-18-2.13672E-19
 -1      2259 1.22955E-04-5.83066E-05-2.80105E-05 2.92963E-05 4.90432E-19-9.47089E-19
 -1      2260 1.07988E-04-5.60536E-05-2.22549E-05 3.48971E-05 3.51519E-20-2.12923E-19
 -1      2261 1.09941E-04-3.39518E-05-3.25158E-05-8.19408E-06-1.04884E-18-8.14798E-20
 -1      2262 1.08925E-04-3.39619E-05-3.21556E-05-8.57696E-06-8.74992E-19-5.34551E-20
 -1      2263 1.10266E-04-3.36976E-05-3.28175E-05-8.68633E-06-1.10070E-18-6.02611E-19
 -1      2264 1.08630E-04-3.38319E-05-3.20421E-05-9.34380E-06-8.03973E-19 2.19355E-19
 -1      2265 1.07325E-04-3.30241E-05-3.18361E-05-9.78301E-06-7.65192E-19 5.27295E-20
 -1      2266 1.10288E-04-3.46112E-05-3.24220E-05-9.77089E-06-8.07665E-19-2.36124E-19
 -1      2267 1.06362E-04-3.19834E-05-3.19004E-05-1.01954E-05-7.88311E-19 7.54124E-20
 -1      2268 1.04838E-04-3.05130E-05-3.18043E-05-9.96099E-06-9.72197E-19 4.70087E-20
 -1      2269 1.09060E-04-3.32095E-05-3.24794E-05-1.10823E-05-8.70138E-19 4.54966E-20
 -1      2270 1.03345E-04-2.88502E-05-3.19651E-05-9.18970E-06-1.22326E-18-1.71142E-19
 -1      2271 1.01938E-04-2.72469E-05-3.19378E-05-7.79434E-06-1.35187E-18-4.10958E-19
 -1      2272 1.06539E-04-2.98759E-05-3.28387E-05-1.08615E-05-1.22055E-18-3.04555E-19
 -1      2273 1.00577E-04-2.57705E-05-3.20784E-05-5.48471E-06-1.40601E-18-4.89143E-19
 -1      2274 9.98035E-05-2.48559E-05-3.20684E-05-3.05075E-06-1.35115E-18-7.59041E-19
 -1      2275 1.03553E-04-2.59897E-05-3.32644E-05-7.69858E-06-1.41701E-18-6.11973E-19
 -1      2276 9.93891E-05-2.44826E-05-3.20740E-05 1.91165E-07-1.40126E-18-1.18707E-18
 -1      2277 9.95725E-05-2.48141E-05-3.20408E-05 2.86072E-06-1.34652E-18-1.51903E-18
 -1      2278 1.01690E-04-2.37180E-05-3.34769E-05-1.75424E-06-1.71319E-18-1.24391E-18
 -1      2279 1.00350E-04-2.58322E-05-3.18678E-05 5.71576E-06-1.47121E-18-1.70346E-18
 -1      2280 1.01362E-04-2.72322E-05-3.18126E-05 7.59332E-06-1.52457E-18-1.79133E-18
 -1      2281 1.02088E-04-2.45283E-05-3.32780E-05 4.82395E-06-1.60551E-18-1.61492E-18
 -1      2282 1.02691E-04-2.89722E-05-3.15300E-05 8.95562E-06-1.21107E-18-1.95041E-18
 -1      2283 1.04008E-04-3.06783E-05-3.14825E-05 9.50054E-06-7.36341E-19-1.84684E-18
 -1      2284 1.04348E-04-2.80213E-05-3.27083E-05 9.25885E-06-1.48543E-18-1.88006E-18
 -1      2285 1.05035E-04-3.22015E-05-3.11884E-05 9.19484E-06-5.37249E-19-1.88048E-18
 -1      2286 1.06128E-04-3.34919E-05-3.11683E-05 8.54663E-06-2.32962E-19-1.98936E-18
 -1      2287 1.06845E-04-3.21396E-05-3.19804E-05 1.02088E-05-7.67914E-19-1.76858E-18
 -1      2288 1.06400E-04-3.42535E-05-3.09351E-05 7.15045E-06-1.96831E-19-1.95075E-18
 -1      2289 1.06992E-04-3.48346E-05-3.09385E-05 5.83950E-06 3.04072E-20-1.70474E-18
 -1      2290 1.08206E-04-3.50558E-05-3.13130E-05 8.23766E-06-2.21249E-19-1.81679E-18
 -1      2291 1.06569E-04-3.48334E-05-3.07834E-05 4.10791E-06 4.71410E-20-1.94126E-18
 -1      2292 1.06651E-04-3.48008E-05-3.07884E-05 2.67267E-06-2.02997E-19-1.71119E-18
 -1      2293 1.08044E-04-3.60775E-05-3.08239E-05 4.86421E-06-4.78640E-20-1.60797E-18
 -1      2294 1.05829E-04-3.43220E-05-3.06910E-05 1.13569E-06-4.26873E-19-1.83723E-18
 -1      2295 1.05534E-04-3.39285E-05-3.06751E-05-7.83215E-08-2.96663E-19-1.92886E-18
 -1      2296 1.06758E-04-3.55570E-05-3.05136E-05 1.44601E-06-4.62336E-19-1.61933E-18
 -1      2297 1.04597E-04-3.32730E-05-3.06053E-05-1.19199E-06-5.51117E-19-1.68603E-18
 -1      2298 1.04081E-04-3.27483E-05-3.05566E-05-2.04549E-06-2.43986E-19-1.66863E-18
 -1      2299 1.04957E-04-3.42251E-05-3.03226E-05-1.27052E-06-4.22597E-19-9.34438E-19
 -1      2300 1.03200E-04-3.21148E-05-3.04915E-05-2.71468E-06-2.17295E-19-1.54908E-18
 -1      2301 1.02588E-04-3.16030E-05-3.04099E-05-3.20817E-06-1.58798E-19-1.32943E-18
 -1      2302 1.03107E-04-3.26996E-05-3.01866E-05-3.06774E-06-3.31632E-19-9.87261E-19
 -1      2303 1.01836E-04-3.10827E-05-3.03378E-05-3.51053E-06 2.26844E-19-1.69696E-18
 -1      2304 1.01211E-04-3.06498E-05-3.02313E-05-3.71207E-06 3.98202E-19-1.48961E-18
 -1      2305 1.01453E-04-3.13364E-05-3.00611E-05-4.02732E-06-1.04756E-19-7.44034E-19
 -1      2306 1.00599E-04-3.02627E-05-3.01499E-05-3.75204E-06-1.43386E-19-1.51446E-18
 -1      2307 1.00009E-04-2.99253E-05-3.00295E-05-3.74784E-06-3.67892E-19-1.48240E-18
 -1      2308 1.00075E-04-3.02713E-05-2.99251E-05-4.34513E-06 8.39938E-20-1.31489E-18
 -1      2309 9.95224E-05-2.96569E-05-2.99418E-05-3.62151E-06-1.09709E-19-1.07347E-18
 -1      2310 9.89928E-05-2.94073E-05-2.98182E-05-3.49007E-06 3.33182E-20-1.12710E-18
 -1      2311 9.89677E-05-2.95109E-05-2.97747E-05-4.22836E-06-1.82880E-19-1.03395E-18
 -1      2312 9.86098E-05-2.92314E-05-2.97291E-05-3.27283E-06 1.77295E-19-1.13185E-18
 -1      2313 9.81511E-05-2.90536E-05-2.96105E-05-3.07526E-06 6.68910E-19-1.30800E-18
 -1      2314 9.80935E-05-2.90055E-05-2.96152E-05-3.85189E-06-2.31948E-20-4.71026E-19
 -1      2315 9.78507E-05-2.89444E-05-2.95247E-05-2.82059E-06 9.39029E-19-1.35914E-18
 -1      2316 9.74646E-05-2.88215E-05-2.94168E-05-2.59965E-06 1.67992E-18-8.90275E-19
 -1      2317 9.74082E-05-2.86915E-05-2.94550E-05-3.34670E-06 6.88276E-19-4.52208E-19
 -1      2318 9.72296E-05-2.87576E-05-2.93378E-05-2.34243E-06 1.73967E-18-9.34138E-19
 -1      2319 9.69125E-05-2.86750E-05-2.92435E-05-2.12532E-06 1.19756E-18-7.04620E-19
 -1      2320 9.68730E-05-2.85113E-05-2.93021E-05-2.80272E-06 1.43963E-18-5.53353E-19
 -1      2321 9.67293E-05-2.86408E-05-2.91735E-05-1.88620E-06 6.41004E-19-1.17022E-18
 -1      2322 9.64747E-05-2.85870E-05-2.90940E-05-1.68838E-06 4.22860E-19-1.08744E-18
 -1      2323 9.64564E-05-2.84196E-05-2.91622E-05-2.27662E-06 7.69033E-19-1.89879E-18
 -1      2324 9.63327E-05-2.85713E-05-2.90339E-05-1.47793E-06 8.09305E-20-1.14932E-18
 -1      2325 9.61325E-05-2.85376E-05-2.89687E-05-1.30670E-06 4.16721E-20-9.47928E-19
 -1      2326 9.61337E-05-2.83834E-05-2.90390E-05-1.80037E-06 1.06661E-19-1.95392E-18
 -1      2327 9.60233E-05-2.85330E-05-2.89186E-05-1.12881E-06-2.54873E-19-1.22041E-18
 -1      2328 9.58692E-05-2.85130E-05-2.88665E-05-9.86194E-07-1.72049E-19-1.12389E-18
 -1      2329 9.58855E-05-2.83800E-05-2.89336E-05-1.38880E-06-1.28169E-19-1.65153E-18
 -1      2330 9.57862E-05-2.85147E-05-2.88258E-05-8.40576E-07 1.87655E-19-1.30822E-18
 -1      2331 9.56699E-05-2.85039E-05-2.87851E-05-7.25444E-07 7.26476E-20-8.81283E-19
 -1      2332 9.56965E-05-2.83943E-05-2.88460E-05-1.04560E-06-9.86365E-20-1.29594E-18
 -1      2333 9.56077E-05-2.85087E-05-2.87528E-05-6.09461E-07 4.09485E-21-1.06080E-18
 -1      2334 9.55220E-05-2.85039E-05-2.87218E-05-5.19002E-07 4.18860E-19-2.13991E-19
 -1      2335 9.55542E-05-2.84169E-05-2.87750E-05-7.67686E-07 9.03506E-20-1.39356E-18
 -1      2336 9.54760E-05-2.85101E-05-2.86966E-05-4.28880E-07 2.06748E-20-4.25983E-19
 -1      2337 9.54144E-05-2.85090E-05-2.86735E-05-3.59562E-07-2.58807E-19-5.11986E-19
 -1      2338 9.54486E-05-2.84421E-05-2.87186E-05-5.48376E-07 3.31168E-20-1.47775E-18
 -1      2339 9.53811E-05-2.85153E-05-2.86544E-05-2.91171E-07-5.33588E-19-3.08049E-19
 -1      2340 9.53381E-05-2.85165E-05-2.86376E-05-2.39337E-07-4.19452E-19-6.29762E-19
 -1      2341 9.53718E-05-2.84666E-05-2.86749E-05-3.79393E-07-5.94131E-19-4.35333E-19
 -1      2342 9.53145E-05-2.85224E-05-2.86234E-05-1.88662E-07-2.56212E-19-5.29869E-19
 -1      2343 9.52855E-05-2.85248E-05-2.86116E-05-1.50875E-07-9.89432E-21 1.50094E-19
 -1      2344 9.53169E-05-2.84887E-05-2.86416E-05-2.52194E-07-2.72999E-19 4.04514E-19
 -1      2345 9.52693E-05-2.85300E-05-2.86013E-05-1.14272E-07 2.52431E-19-3.81074E-20
 -1      2346 9.52507E-05-2.85329E-05-2.85932E-05-8.74853E-08 5.02288E-19 8.12710E-19
 -1      2347 9.52787E-05-2.85077E-05-2.86169E-05-1.58724E-07 1.61790E-19 1.50628E-18
 -1      2348 9.52399E-05-2.85373E-05-2.85859E-05-6.17985E-08 3.01990E-19 7.33746E-19
 -1      2349 9.52288E-05-2.85404E-05-2.85806E-05-4.34244E-08-2.10836E-19 2.44366E-19
 -1      2350 9.52531E-05-2.85234E-05-2.85990E-05-9.18190E-08 3.01548E-19 5.09518E-19
 -1      2351 9.52220E-05-2.85439E-05-2.85757E-05-2.60139E-08-2.39128E-19 3.28180E-19
 -1      2352 9.52161E-05-2.85469E-05-2.85724E-05-1.39247E-08-1.27802E-19 7.87730E-19
 -1      2353 9.52366E-05-2.85360E-05-2.85864E-05-4.53585E-08-2.20284E-20 1.03335E-18
 -1      2354 9.52121E-05-2.85497E-05-2.85692E-05-2.64590E-09-2.89101E-19 7.04098E-19
 -1      2355 9.52098E-05-2.85524E-05-2.85674E-05 4.86230E-09-5.73492E-19 3.83454E-19
 -1      2356 9.52267E-05-2.85460E-05-2.85778E-05-1.42810E-08-4.73280E-19 1.98428E-18
 -1      2357 9.52078E-05-2.85546E-05-2.85654E-05 1.17098E-08-1.30172E-18 1.08904E-18
 -1      2358 9.52078E-05-2.85569E-05-2.85646E-05 1.59685E-08-1.56131E-18 1.33461E-18
 -1      2359 9.52214E-05-2.85536E-05-2.85722E-05 5.49023E-09-4.92603E-19 1.01182E-18
 -1      2360 9.52072E-05-2.85586E-05-2.85635E-05 1.97026E-08-1.06880E-18 1.69380E-18
 -1      2361 9.52085E-05-2.85606E-05-2.85634E-05 2.17292E-08-2.40961E-19 1.14325E-18
 -1      2362 9.52193E-05-2.85593E-05-2.85687E-05 1.71617E-08-8.26681E-19 1.90914E-18
 -1      2363 9.52088E-05-2.85619E-05-2.85629E-05 2.33487E-08-5.01603E-19 6.86122E-19
 -1      2364 9.52109E-05-2.85635E-05-2.85632E-05 2.39028E-08-1.21106E-19 3.22871E-19
 -1      2365 9.52192E-05-2.85636E-05-2.85668E-05 2.31999E-08-4.84164E-19 1.65297E-18
 -1      2366 9.52116E-05-2.85644E-05-2.85631E-05 2.41476E-08 1.33232E-18 1.26533E-19
 -1      2367 9.52141E-05-2.85657E-05-2.85636E-05 2.37823E-08 1.18109E-18 6.26797E-19
 -1      2368 9.52203E-05-2.85666E-05-2.85659E-05 2.54601E-08 2.75841E-19 8.24453E-19
 -1      2369 9.52151E-05-2.85664E-05-2.85637E-05 2.31862E-08 5.96931E-19 8.93995E-19
 -1      2370 9.52176E-05-2.85675E-05-2.85643E-05 2.22926E-08 5.63429E-19 1.83515E-18
 -1      2371 9.52221E-05-2.85687E-05-2.85658E-05 2.53051E-08 1.21795E-18 8.47710E-19
 -1      2372 9.52187E-05-2.85680E-05-2.85646E-05 2.12287E-08-3.89990E-19 2.93813E-18
 -1      2373 9.52211E-05-2.85688E-05-2.85653E-05 2.00723E-08-2.61204E-19 2.71981E-18
 -1      2374 9.52243E-05-2.85702E-05-2.85661E-05 2.37080E-08 8.76830E-19 2.67638E-18
 -1      2375 9.52222E-05-2.85691E-05-2.85656E-05 1.87902E-08 5.26634E-20 2.61152E-18
 -1      2376 9.52245E-05-2.85698E-05-2.85663E-05 1.75406E-08 1.19897E-18 2.62165E-18
 -1      2377 9.52265E-05-2.85712E-05-2.85666E-05 2.13396E-08-5.35647E-19 4.02903E-18
 -1      2378 9.52255E-05-2.85701E-05-2.85666E-05 1.61954E-08 2.11962E-18 2.07636E-18
 -1      2379 9.52274E-05-2.85706E-05-2.85672E-05 1.49494E-08 2.54811E-18 1.17716E-18
 -1      2380 9.52287E-05-2.85718E-05-2.85672E-05 1.86386E-08 1.19336E-18 2.21594E-18
 -1      2381 9.52284E-05-2.85708E-05-2.85676E-05 1.36250E-08 1.83781E-18-5.29353E-19
 -1      2382 9.52301E-05-2.85713E-05-2.85681E-05 1.24237E-08 1.33986E-18 5.62648E-20
 -1      2383 9.52306E-05-2.85723E-05-2.85679E-05 1.58677E-08 1.16867E-18 5.72682E-19
 -1      2384 9.52309E-05-2.85715E-05-2.85684E-05 1.11508E-08 8.60601E-19 8.01118E-20
 -1      2385 9.52323E-05-2.85719E-05-2.85688E-05 9.99628E-09-3.58908E-19 5.77916E-20
 -1      2386 9.52324E-05-2.85727E-05-2.85685E-05 1.31571E-08 4.67265E-19-1.28951E-18
 -1      2387 9.52331E-05-2.85721E-05-2.85690E-05 8.76944E-09-6.49782E-19 8.26239E-19
 -1      2388 9.52342E-05-2.85724E-05-2.85694E-05 7.63918E-09-3.62675E-19 9.39377E-19
 -1      2389 9.52340E-05-2.85731E-05-2.85690E-05 1.05442E-08-2.11105E-19-4.77448E-19
 -1      2390 1.22954E-04-4.04441E-05-3.53923E-05 1.40350E-05 5.77306E-19 1.08892E-18
 -1      2391 1.24576E-04-4.22523E-05-3.53192E-05 1.15056E-05 4.29770E-19 1.23245E-18
 -1      2392 1.19319E-04-3.37408E-05-3.66553E-05 1.62963E-05 1.48157E-18 7.25332E-19
 -1      2393 1.22269E-04-3.78159E-05-3.63749E-05 1.64738E-05 9.14544E-19 9.95591E-19
 -1      2394 1.26726E-04-4.12940E-05-3.66512E-05 1.61424E-05 9.20870E-19 9.13366E-19
 -1      2395 1.14002E-04-2.54911E-05-3.80896E-05 1.01709E-05 1.85696E-18 3.55210E-19
 -1      2396 1.16833E-04-2.93760E-05-3.77834E-05 1.41645E-05 1.67014E-18 5.28734E-19
 -1      2397 1.23273E-04-3.18165E-05-3.93164E-05 1.72165E-05 1.70820E-18 6.30404E-19
 -1      2398 1.12759E-04-2.34378E-05-3.84818E-05-3.31231E-06 2.09090E-18-9.80891E-19
 -1      2399 1.12707E-04-2.31626E-05-3.85519E-05 2.69008E-06 2.21811E-18-2.87452E-19
 -1      2400 1.18159E-04-2.22503E-05-4.12935E-05 7.36332E-06 2.46254E-18-2.76067E-19
 -1      2401 1.16647E-04-2.97326E-05-3.75254E-05-1.41354E-05 7.30116E-19-1.64664E-18
 -1      2402 1.14108E-04-2.58078E-05-3.78745E-05-1.01887E-05 1.49035E-18-1.51655E-18
 -1      2403 1.18448E-04-2.27609E-05-4.12618E-05-7.52776E-06 2.18487E-18-1.81202E-18
 -1      2404 1.21540E-04-3.80874E-05-3.59546E-05-1.55894E-05 9.49299E-19-2.55920E-18
 -1      2405 1.18945E-04-3.42033E-05-3.63087E-05-1.57236E-05 9.23398E-19-2.29204E-18
 -1      2406 1.22907E-04-3.27428E-05-3.88512E-05-1.64163E-05 1.27629E-18-2.74815E-18
 -1      2407 1.23140E-04-4.24106E-05-3.46442E-05-9.89898E-06 4.87911E-19-2.82588E-18
 -1      2408 1.21897E-04-4.06806E-05-3.48507E-05-1.27770E-05 6.10995E-19-2.67368E-18
 -1      2409 1.25648E-04-4.15172E-05-3.60481E-05-1.47011E-05 1.00136E-18-4.01351E-18
 -1      2410 1.20897E-04-4.17784E-05-3.38768E-05-2.33227E-06 4.64346E-19-2.36966E-18
 -1      2411 1.21204E-04-4.21426E-05-3.39781E-05-5.59102E-06 5.29700E-19-2.39308E-18
 -1      2412 1.23948E-04-4.48631E-05-3.38894E-05-6.70803E-06 2.51155E-19-3.70568E-18
 -1      2413 1.16963E-04-3.88755E-05-3.34275E-05 3.53636E-06-8.82708E-19-1.21296E-18
 -1      2414 1.18210E-04-4.01452E-05-3.35503E-05 1.09654E-06 1.27651E-20-1.50496E-18
 -1      2415 1.19043E-04-4.27157E-05-3.27486E-05 1.16192E-06-3.44703E-19-2.42476E-18
 -1      2416 1.12887E-04-3.57456E-05-3.30345E-05 6.85707E-06-4.24102E-19-1.50728E-18
 -1      2417 1.14499E-04-3.70932E-05-3.32421E-05 5.51615E-06-6.65940E-19-1.39424E-18
 -1      2418 1.13687E-04-3.86294E-05-3.22242E-05 6.41660E-06-7.46762E-19-1.87480E-18
 -1      2419 1.09351E-04-3.32947E-05-3.25812E-05 8.09088E-06 1.45144E-19-9.95959E-19
 -1      2420 1.10990E-04-3.43803E-05-3.28676E-05 7.62461E-06-2.04178E-19-1.16520E-18
 -1      2421 1.09211E-04-3.48322E-05-3.19211E-05 8.96137E-06-3.81607E-19-2.30254E-18
 -1      2422 1.06447E-04-3.16143E-05-3.20638E-05 8.00085E-06 4.56985E-19-7.83247E-19
 -1      2423 1.07960E-04-3.23999E-05-3.23920E-05 8.08776E-06 6.56116E-19-6.46397E-19
 -1      2424 1.05870E-04-3.21249E-05-3.16330E-05 9.58528E-06 2.25726E-19-1.64744E-18
 -1      2425 1.04091E-04-3.05318E-05-3.15213E-05 7.21369E-06 7.79613E-19-7.40708E-19
 -1      2426 1.05419E-04-3.10769E-05-3.18536E-05 7.58588E-06 8.01837E-19-6.03044E-19
 -1      2427 1.03433E-04-3.04351E-05-3.13008E-05 9.07694E-06 6.83111E-19-1.16465E-18
 -1      2428 1.02178E-04-2.98479E-05-3.09955E-05 6.14748E-06 4.76892E-19-9.89304E-19
 -1      2429 1.03305E-04-3.02234E-05-3.13052E-05 6.62701E-06 6.84414E-19-6.17328E-19
 -1      2430 1.01621E-04-2.94678E-05-3.09323E-05 8.01313E-06 5.23442E-19-8.15658E-19
 -1      2431 1.00623E-04-2.94117E-05-3.05163E-05 5.04457E-06-3.64501E-19-8.04892E-19
 -1      2432 1.01557E-04-2.96729E-05-3.07888E-05 5.52975E-06-1.92899E-21-7.61010E-19
 -1      2433 1.00229E-04-2.89474E-05-3.05555E-05 6.75917E-06 1.29781E-19-7.99544E-19
 -1      2434 9.93643E-05-2.91266E-05-3.00992E-05 4.02775E-06-2.75307E-19-1.46926E-18
 -1      2435 1.00123E-04-2.93110E-05-3.03293E-05 4.46856E-06 6.58816E-20-1.25414E-18
 -1      2436 9.91278E-05-2.86808E-05-3.01967E-05 5.52129E-06 1.27723E-19-5.53217E-19
 -1      2437 9.83546E-05-2.89349E-05-2.97487E-05 3.14775E-06 1.25503E-18-2.04687E-18
 -1      2438 9.89590E-05-2.90664E-05-2.99370E-05 3.52495E-06 7.46034E-20-2.19777E-18
 -1      2439 9.82441E-05-2.85507E-05-2.98732E-05 4.40161E-06 4.55613E-19-1.58106E-18
 -1      2440 9.75537E-05-2.88031E-05-2.94621E-05 2.41574E-06 9.65202E-19-1.36779E-18
 -1      2441 9.80274E-05-2.88973E-05-2.96126E-05 2.72655E-06 1.52896E-18-1.50950E-18
 -1      2442 9.75326E-05-2.84913E-05-2.95933E-05 3.44003E-06 7.82158E-19-1.80078E-18
 -1      2443 9.69271E-05-2.87116E-05-2.92330E-05 1.82327E-06-6.59926E-19-1.52163E-18
 -1      2444 9.72923E-05-2.87788E-05-2.93509E-05 2.07276E-06 1.16102E-19-1.05456E-18
 -1      2445 9.69628E-05-2.84680E-05-2.93587E-05 2.64213E-06 3.80345E-19-4.34568E-19
 -1      2446 9.64439E-05-2.86481E-05-2.90534E-05 1.35350E-06-1.03689E-18-1.97498E-18
 -1      2447 9.67210E-05-2.86955E-05-2.91441E-05 1.54985E-06-8.70141E-19-1.73200E-18
 -1      2448 9.65116E-05-2.84628E-05-2.91672E-05 1.99628E-06-5.18711E-19-1.31162E-18
 -1      2449 9.60770E-05-2.86048E-05-2.89150E-05 9.87295E-07-1.32409E-19-2.54698E-18
 -1      2450 9.62839E-05-2.86376E-05-2.89836E-05 1.13929E-06-8.35232E-19-2.56688E-18
 -1      2451 9.61592E-05-2.84666E-05-2.90140E-05 1.48361E-06-4.00635E-19-2.08400E-18
 -1      2452 9.58033E-05-2.85762E-05-2.88102E-05 7.06130E-07 2.43789E-19-2.50050E-18
 -1      2453 9.59550E-05-2.85982E-05-2.88612E-05 8.22038E-07 3.65984E-19-2.82432E-18
 -1      2454 9.58882E-05-2.84749E-05-2.88939E-05 1.08333E-06 1.31477E-19-2.50987E-18
 -1      2455 9.56027E-05-2.85583E-05-2.87322E-05 4.93421E-07-1.52989E-18-2.69528E-18
 -1      2456 9.57117E-05-2.85724E-05-2.87694E-05 5.80510E-07-4.65686E-19-2.90655E-18
 -1      2457 9.56834E-05-2.84853E-05-2.88012E-05 7.75507E-07 1.45617E-19-3.14543E-18
 -1      2458 9.54588E-05-2.85480E-05-2.86752E-05 3.34939E-07-6.34021E-19-2.39758E-18
 -1      2459 9.55354E-05-2.85565E-05-2.87018E-05 3.99362E-07-1.65845E-18-2.48921E-18
 -1      2460 9.55314E-05-2.84963E-05-2.87310E-05 5.42291E-07-1.55618E-18-3.14765E-18
 -1      2461 9.53582E-05-2.85431E-05-2.86343E-05 2.18806E-07-6.93280E-20-1.50347E-18
 -1      2462 9.54104E-05-2.85476E-05-2.86529E-05 2.65645E-07 1.49748E-19-1.99463E-18
 -1      2463 9.54211E-05-2.85072E-05-2.86787E-05 3.68311E-07-8.56921E-19-3.86271E-18
 -1      2464 9.52900E-05-2.85418E-05-2.86058E-05 1.35300E-07 2.65852E-19-1.20503E-18
 -1      2465 9.53243E-05-2.85436E-05-2.86184E-05 1.68681E-07 2.64999E-20-1.13885E-18
 -1      2466 9.53429E-05-2.85175E-05-2.86405E-05 2.40693E-07-2.51824E-19-2.41069E-18
 -1      2467 9.52456E-05-2.85428E-05-2.85865E-05 7.65854E-08 6.53825E-19-1.25070E-18
 -1      2468 9.52670E-05-2.85429E-05-2.85947E-05 9.98072E-08 2.18367E-19-6.81512E-19
 -1      2469 9.52890E-05-2.85269E-05-2.86131E-05 1.48855E-07-6.59839E-20-1.94836E-18
 -1      2470 9.52184E-05-2.85452E-05-2.85739E-05 3.64319E-08-7.35519E-19 3.48848E-19
 -1      2471 9.52306E-05-2.85442E-05-2.85790E-05 5.21007E-08 3.71229E-19-5.04053E-19
 -1      2472 9.52533E-05-2.85353E-05-2.85940E-05 8.42437E-08-2.66674E-20-1.18080E-18
 -1      2473 9.52032E-05-2.85482E-05-2.85662E-05 9.94836E-09-9.49891E-19 8.95231E-19
 -1      2474 9.52092E-05-2.85466E-05-2.85690E-05 2.00969E-08-1.37516E-18 5.64593E-19
 -1      2475 9.52307E-05-2.85425E-05-2.85811E-05 4.00377E-08-1.00944E-18 4.24122E-19
 -1      2476 9.51964E-05-2.85515E-05-2.85619E-05-6.65523E-09-8.78181E-20 6.82644E-19
 -1      2477 9.51981E-05-2.85497E-05-2.85632E-05-4.61638E-10-4.19641E-19 5.53734E-19
 -1      2478 9.52176E-05-2.85487E-05-2.85727E-05 1.08719E-08-8.03997E-19-2.50525E-19
 -1      2479 9.51949E-05-2.85548E-05-2.85599E-05-1.62758E-08-5.00873E-19 7.50492E-19
 -1      2480 9.51941E-05-2.85529E-05-2.85602E-05-1.28484E-08 1.81265E-20 8.66373E-19
 -1      2481 9.52110E-05-2.85538E-05-2.85676E-05-7.41786E-09-4.30321E-19-4.22189E-19
 -1      2482 9.51968E-05-2.85578E-05-2.85595E-05-2.10953E-08-5.23738E-19 1.61791E-18
 -1      2483 9.51944E-05-2.85560E-05-2.85592E-05-1.95447E-08-3.23003E-19 1.20916E-18
 -1      2484 9.52087E-05-2.85580E-05-2.85647E-05-1.80180E-08-3.76522E-19 1.03716E-18
 -1      2485 9.52006E-05-2.85605E-05-2.85600E-05-2.27295E-08-2.08619E-19 1.75030E-18
 -1      2486 9.51975E-05-2.85588E-05-2.85593E-05-2.24021E-08-2.55299E-19 2.13874E-18
 -1      2487 9.52093E-05-2.85614E-05-2.85635E-05-2.33299E-08-4.31711E-19 7.45005E-19
 -1      2488 9.52054E-05-2.85628E-05-2.85611E-05-2.23521E-08-1.29579E-18 1.65338E-18
 -1      2489 9.52020E-05-2.85614E-05-2.85602E-05-2.27774E-08-1.51618E-19 1.89349E-18
 -1      2490 9.52114E-05-2.85640E-05-2.85632E-05-2.51329E-08-5.45947E-19 1.67630E-18
 -1      2491 9.52105E-05-2.85648E-05-2.85624E-05-2.07945E-08-9.94741E-19 1.29560E-18
 -1      2492 9.52071E-05-2.85636E-05-2.85615E-05-2.16430E-08-1.68870E-18 1.33294E-18
 -1      2493 9.52145E-05-2.85661E-05-2.85636E-05-2.47185E-08-1.12630E-18 1.35982E-18
 -1      2494 9.52154E-05-2.85665E-05-2.85638E-05-1.86267E-08-3.38587E-20 1.43396E-18
 -1      2495 9.52122E-05-2.85654E-05-2.85629E-05-1.96761E-08-2.17855E-20 1.79796E-18
 -1      2496 9.52179E-05-2.85677E-05-2.85644E-05-2.30013E-08-5.26684E-19 1.69962E-18
 -1      2497 9.52200E-05-2.85678E-05-2.85652E-05-1.62201E-08-5.41390E-19 5.34849E-19
 -1      2498 9.52171E-05-2.85670E-05-2.85644E-05-1.73296E-08-6.00580E-19 3.16068E-19
 -1      2499 9.52214E-05-2.85690E-05-2.85653E-05-2.06067E-08-1.32319E-19 7.10972E-19
 -1      2500 9.52241E-05-2.85690E-05-2.85665E-05-1.37962E-08 1.25379E-18 8.89585E-20
 -1      2501 9.52215E-05-2.85682E-05-2.85657E-05-1.48867E-08 6.30364E-19 7.98132E-19
 -1      2502 9.52246E-05-2.85699E-05-2.85663E-05-1.79409E-08-5.21053E-20-1.59327E-18
 -1      2503 9.52276E-05-2.85699E-05-2.85676E-05-1.14619E-08 2.52728E-18-6.44030E-19
 -1      2504 9.52255E-05-2.85693E-05-2.85670E-05-1.25019E-08 2.05063E-18-4.64476E-19
 -1      2505 9.52275E-05-2.85707E-05-2.85672E-05-1.52452E-08 1.59614E-18-1.76070E-18
 -1      2506 9.52306E-05-2.85707E-05-2.85685E-05-9.23790E-09 1.10429E-18 9.06951E-19
 -1      2507 9.52288E-05-2.85702E-05-2.85680E-05-1.02326E-08 1.60065E-18 4.05897E-19
 -1      2508 9.52301E-05-2.85713E-05-2.85681E-05-1.26346E-08 1.38439E-18-1.82786E-18
 -1      2509 9.52331E-05-2.85715E-05-2.85693E-05-7.07954E-09 1.97902E-18-3.32037E-19
 -1      2510 9.52316E-05-2.85710E-05-2.85689E-05-8.06221E-09 1.79233E-18 7.35969E-19
 -1      2511 9.52324E-05-2.85719E-05-2.85688E-05-1.01446E-08 1.76211E-18-6.32674E-19
 -1      2512 9.52351E-05-2.85721E-05-2.85698E-05-4.94921E-09-2.53410E-19 6.55505E-19
 -1      2513 9.52340E-05-2.85717E-05-2.85695E-05-5.93554E-09 1.09352E-18 5.53814E-19
 -1      2514 9.52343E-05-2.85725E-05-2.85693E-05-7.72882E-09 1.02855E-18-8.82797E-19
 -1      2515 9.52358E-05-2.85723E-05-2.85701E-05-3.74344E-09 1.32846E-19 3.60233E-19
 -1      2516 9.52412E-05-2.85806E-05-2.85688E-05-6.00924E-09 7.85381E-19 3.46760E-19
 -1      2517 9.52406E-05-2.85796E-05-2.85690E-05-6.56762E-09 2.11744E-19-2.72613E-18
 -1      2518 9.52423E-05-2.85821E-05-2.85686E-05-4.22796E-09 1.90755E-18 1.11576E-18
 -1      2519 9.52418E-05-2.85814E-05-2.85687E-05-5.12196E-09 1.27246E-18 1.90043E-19
 -1      2520 9.52419E-05-2.85810E-05-2.85690E-05-6.37913E-09 2.11539E-18 6.63107E-19
 -1      2521 9.52382E-05-2.85764E-05-2.85693E-05-7.06879E-09-9.31827E-19-2.22229E-19
 -1      2522 9.52374E-05-2.85753E-05-2.85695E-05-6.76080E-09-7.77310E-19-2.24447E-18
 -1      2523 9.52398E-05-2.85786E-05-2.85691E-05-7.01436E-09-1.82493E-18-2.80471E-18
 -1      2524 9.52390E-05-2.85775E-05-2.85692E-05-7.14688E-09-1.31707E-18 1.09131E-18
 -1      2525 9.52385E-05-2.85769E-05-2.85693E-05-8.23301E-09-8.21890E-19-1.73685E-19
 -1      2526 9.52404E-05-2.85791E-05-2.85691E-05-7.81167E-09 6.57214E-19-7.02700E-19
 -1      2527 9.52429E-05-2.85830E-05-2.85685E-05-1.92326E-09-3.84079E-19 2.93599E-18
 -1      2528 9.52426E-05-2.85826E-05-2.85686E-05-3.02821E-09 7.06219E-19 1.07397E-18
 -1      2529 9.52430E-05-2.85823E-05-2.85689E-05-4.14941E-09 1.48960E-18 2.53183E-19
 -1      2530 9.52430E-05-2.85831E-05-2.85685E-05 6.12947E-10-8.17710E-19 1.80543E-18
 -1      2531 9.52430E-05-2.85831E-05-2.85685E-05-5.62616E-10-1.35601E-18 3.55782E-18
 -1      2532 9.52436E-05-2.85830E-05-2.85689E-05-1.41969E-09-4.69268E-19 2.19210E-18
 -1      2533 9.52426E-05-2.85826E-05-2.85686E-05 3.07288E-09-1.69108E-19 3.00820E-19
 -1      2534 9.52428E-05-2.85830E-05-2.85685E-05 1.97171E-09 1.78898E-19 1.11854E-18
 -1      2535 9.52436E-05-2.85830E-05-2.85689E-05 1.47769E-09-1.17676E-19 2.01935E-18
 -1      2536 9.52418E-05-2.85814E-05-2.85687E-05 5.12442E-09 4.47920E-19-2.24276E-18
 -1      2537 9.52422E-05-2.85821E-05-2.85686E-05 4.24879E-09 1.63443E-19-1.25983E-18
 -1      2538 9.52430E-05-2.85823E-05-2.85689E-05 4.17886E-09 3.90364E-19-4.87773E-19
 -1      2539 9.52405E-05-2.85796E-05-2.85690E-05 6.56654E-09 1.70406E-18 6.00807E-19
 -1      2540 9.52412E-05-2.85806E-05-2.85688E-05 6.00994E-09 8.86474E-19-7.75769E-19
 -1      2541 9.52419E-05-2.85809E-05-2.85690E-05 6.38226E-09 6.82462E-19-1.17398E-18
 -1      2542 9.52390E-05-2.85775E-05-2.85692E-05 7.13647E-09 3.09183E-19-1.06766E-19
 -1      2543 9.52398E-05-2.85786E-05-2.85691E-05 7.01540E-09 1.04385E-18 8.93827E-19
 -1      2544 9.52404E-05-2.85791E-05-2.85691E-05 7.81490E-09 1.01733E-18-8.29876E-19
 -1      2545 9.52374E-05-2.85752E-05-2.85695E-05 6.70618E-09-1.09960E-18-2.23973E-18
 -1      2546 9.52382E-05-2.85764E-05-2.85693E-05 7.06854E-09-8.56143E-19-1.62473E-18
 -1      2547 9.52386E-05-2.85769E-05-2.85693E-05 8.21749E-09 5.81403E-20-1.93734E-18
 -1      2548 2.64692E-05-2.00973E-05-2.44716E-06 2.02497E-05-2.14617E-19 5.00702E-18
 -1      2549 2.07079E-05-1.58198E-05-1.74999E-06 5.80157E-06-6.62592E-19 6.33072E-18
 -1      2550 8.95130E-05-4.99065E-05-1.70399E-05 4.15692E-05-1.15196E-19 1.05665E-18
 -1      2551 6.95987E-05-4.28662E-05-1.13319E-05 4.03757E-05-9.95687E-19 2.16184E-18
 -1      2552 1.03021E-04-5.43097E-05-2.05345E-05 3.61359E-05-1.09098E-18-3.52233E-19
 -1      2553 1.23113E-04-4.20030E-05-3.48475E-05 7.90228E-06 3.51969E-19 1.17874E-18
 -1      2554 1.23446E-04-4.17058E-05-3.49664E-05 5.11768E-06 4.03929E-19 1.15528E-18
 -1      2555 1.25632E-04-4.43326E-05-3.48660E-05 9.31207E-06 4.28114E-19 8.35886E-19
 -1      2556 1.08289E-04-2.61953E-05-3.52535E-05-1.11534E-05-1.78149E-18-5.75466E-19
 -1      2557 1.09287E-04-3.01141E-05-3.39948E-05-8.80748E-06-1.63017E-18-3.54181E-19
 -1      2558 1.08885E-04-3.01886E-05-3.36692E-05-8.96934E-06-1.38713E-18-6.69702E-19
 -1      2559 1.05233E-04-2.40138E-05-3.48587E-05-1.01972E-05-1.68108E-18-1.11481E-18
 -1      2560 9.52364E-05-2.85734E-05-2.85699E-05 4.77986E-09-5.32935E-19-1.57185E-18
 -1      2561 3.61142E-05-2.47795E-05-4.54476E-06-3.14153E-05 1.26737E-18 4.33639E-18
 -1      2562 5.17919E-05-3.25404E-05-8.07859E-06-4.11141E-05 1.34085E-18 4.36645E-18
 -1      2563 5.18439E-05-3.32036E-05-7.83952E-06 3.82681E-05-6.73603E-19 2.36534E-18
 -1      2564 3.76615E-05-2.65392E-05-4.52094E-06 2.97946E-05-9.32583E-19 2.83248E-18
 -1      2565 2.06256E-05-1.58150E-05-1.66941E-06-8.93350E-06 5.80906E-19 5.47692E-18
 -1      2566 2.48625E-05-1.85758E-05-2.42034E-06-2.09492E-05 7.59365E-19 4.28387E-18
 -1      2567 6.39596E-05-3.57389E-05-1.18912E-05-3.71471E-05 3.18061E-19-4.40023E-18
 -1      2568 8.61680E-05-4.52531E-05-1.76541E-05-3.94108E-05 9.11407E-19-3.84304E-18
 -1      2569 6.87668E-05-5.46236E-06-2.72262E-05 9.65481E-06 8.80782E-19-3.57991E-18
 -1      2570 7.35363E-05-7.94587E-06-2.80242E-05 9.08954E-06 7.67849E-19-3.36025E-18
 -1      2571 7.77139E-05-1.25139E-05-2.80042E-05 1.02143E-05 7.55127E-19-3.03130E-18
 -1      2572 6.68717E-05-5.63188E-06-2.62404E-05 1.12259E-05 9.89870E-19-3.66798E-18
 -1      2573 1.52830E-04-1.48604E-05-5.94797E-05 3.94261E-06 4.80606E-18-2.38292E-18
 -1      2574 1.52581E-04-1.40978E-05-5.96708E-05-1.23000E-07 4.67816E-18-2.54507E-18
 -1      2575 2.94197E-05-1.72951E-05-5.03770E-06 3.03743E-05 6.26804E-19-5.61752E-18
 -1      2576 2.06290E-05-1.10238E-05-3.80533E-06 1.89178E-05 9.45606E-19-5.82716E-18
 -1      2577 1.53117E-04-1.76417E-05-5.83810E-05-4.68775E-06 4.65783E-18-2.78928E-18
 -1      2578 1.53088E-04-2.41033E-05-5.55339E-05-6.41268E-06 4.33300E-18-2.60844E-18
 -1      2579 1.50889E-04-2.53417E-05-5.41903E-05 8.96681E-06 4.46979E-18-1.57760E-18
 -1      2580 1.54244E-04-1.90944E-05-5.79338E-05 6.20725E-06 4.75524E-18-2.16290E-18
 -1      2581 1.42728E-04-1.53740E-05-5.46448E-05 7.21748E-06 4.57165E-18-1.60502E-18
 -1      2582 1.51050E-04-4.55698E-05-4.53538E-05 2.02261E-06 2.78377E-18-1.19178E-18
 -1      2583 1.51964E-04-3.70668E-05-4.98098E-05 8.49732E-06 3.37956E-18-1.22799E-18
 -1      2584 1.36799E-04-5.59314E-05-3.47418E-05-1.55288E-05 1.82525E-18-2.11716E-18
 -1      2585 1.47269E-04-5.29436E-05-4.08215E-05-8.12400E-06 2.55899E-18-1.40269E-18
 -1      2586 1.07052E-04-5.29002E-05-2.31412E-05-3.22716E-05 1.02237E-18-3.19861E-18
 -1      2587 1.24095E-04-5.63042E-05-2.93111E-05-2.73268E-05 1.46706E-18-3.03460E-18
 -1      2588 2.99945E-05-1.82939E-05-4.84722E-06-2.38600E-05 2.82062E-19-5.58872E-18
 -1      2589 4.26918E-05-2.42797E-05-7.81399E-06-3.32047E-05 4.93185E-19-5.18278E-18
 -1      2590 1.00744E-04-5.20656E-05-2.08354E-05-3.92105E-05 1.12232E-19 8.32104E-19
 -1      2591 1.15804E-04-5.45077E-05-2.65192E-05-3.52735E-05-7.14684E-19-9.98758E-19
 -1      2592 1.72487E-05-8.25478E-06-3.51140E-06 1.39423E-06 6.92496E-19-5.90763E-18
 -1      2593 2.11909E-05-1.18155E-05-3.67681E-06-1.39005E-05 7.21884E-19-5.87735E-18
 -1      2594 5.72639E-05-2.96977E-05-1.17098E-05 4.18528E-05 5.42736E-19-4.46058E-18
 -1      2595 4.15961E-05-2.38212E-05-7.47445E-06 3.61957E-05 7.44754E-19-5.02545E-18
 -1      2596 4.19919E-05-1.80526E-05-9.72874E-06 3.33836E-05 1.36542E-18-5.26939E-18
 -1      2597 1.30749E-04-5.01030E-05-3.48256E-05 2.40515E-05-2.01583E-18-2.25565E-18
 -1      2598 1.18562E-04-5.02401E-05-2.91525E-05 2.91269E-05-1.29744E-18-2.79733E-18
 -1      2599 1.45792E-04-2.19087E-05-5.36097E-05-5.81574E-06-4.55852E-18-1.13820E-18
 -1      2600 1.45592E-04-2.83492E-05-5.04779E-05-5.06196E-06-3.91245E-18-1.21930E-18
 -1      2601 1.44307E-04-1.03481E-05-5.78595E-05-2.78739E-06-5.72933E-18-1.52466E-18
 -1      2602 1.44589E-04-1.40593E-05-5.63326E-05-4.93237E-06-5.44981E-18-1.49935E-18
 -1      2603 1.46434E-04-1.34024E-05-5.73083E-05 2.67677E-06-5.28210E-18-1.91292E-18
 -1      2604 1.44029E-04-1.03492E-05-5.78195E-05 8.71915E-07-5.39941E-18-1.73674E-18
 -1      2605 1.48920E-04-2.66014E-05-5.26870E-05 1.26304E-06-4.55111E-18-2.05236E-18
 -1      2606 1.49362E-04-1.95112E-05-5.60479E-05 3.01001E-06-5.00575E-18-2.21309E-18
 -1      2607 1.38652E-04-1.55455E-05-5.29755E-05 5.99719E-06-4.83571E-18-1.94203E-18
 -1      2608 1.45145E-04-4.19051E-05-4.44400E-05-6.15141E-06-2.90257E-18-1.79338E-18
 -1      2609 1.48881E-04-3.59585E-05-4.87465E-05-2.22830E-06-3.69740E-18-2.22812E-18
 -1      2610 1.29897E-04-5.37200E-05-3.26479E-05-2.31639E-05-1.23222E-18-1.74129E-18
 -1      2611 1.41540E-04-4.96877E-05-3.96242E-05-1.57051E-05-1.94638E-18-1.74764E-18
 -1      2612 6.99072E-05-4.19374E-05-1.18152E-05-4.31552E-05 1.70741E-18 3.53372E-18
 -1      2613 8.62104E-05-4.74699E-05-1.65658E-05-4.43182E-05 6.64497E-19 2.77623E-18
 -1      2614 9.91532E-05-5.19158E-05-2.00300E-05-3.97769E-05 1.88253E-18 4.71811E-19
 -1      2615 1.54576E-04-3.34498E-05-5.21443E-05-5.43994E-06 3.62869E-18-3.17997E-18
 -1      2616 1.50767E-04-4.08710E-05-4.74215E-05-3.46735E-06 3.34504E-18-3.57151E-18
 -1      2617 1.18647E-04-3.35152E-05-3.65428E-05 1.79182E-06 1.66773E-18 1.35119E-18
 -1      2618 1.18609E-04-3.13695E-05-3.74147E-05 4.16977E-06 1.80174E-18 1.62501E-18
 -1      2619 1.14253E-04-2.81615E-05-3.69788E-05 4.63426E-06 1.96182E-18 7.96171E-19
 -1      2620 1.15324E-04-3.28392E-05-3.54388E-05 1.11361E-06 1.55077E-18 4.20572E-19
 -1      2621 1.43262E-04-1.49412E-05-5.51929E-05-3.99389E-06 4.53036E-18-2.56227E-18
 -1      2622 9.63012E-05-2.23693E-05-3.17349E-05 4.79250E-08-3.77800E-19-2.20217E-18
 -1      2623 9.54514E-05-1.94991E-05-3.25690E-05-2.02376E-06-5.91103E-19-2.39390E-18
 -1      2624 9.84058E-05-2.07508E-05-3.33779E-05-4.64363E-06-9.32550E-19-2.20655E-18
 -1      2625 1.21738E-04-4.20944E-05-3.42074E-05 2.97782E-06 6.13184E-19 6.06631E-19
 -1      2626 1.08026E-04-2.46339E-05-3.57739E-05 3.43172E-06 1.83148E-18-1.77242E-19
 -1      2627 1.26889E-04-5.69935E-05-2.97885E-05-2.45395E-05 2.83756E-20-2.08360E-18
 -1      2628 1.50025E-04-4.84220E-05-4.37214E-05-1.46029E-06 2.52289E-18-4.12314E-18
 -1      2629 1.44923E-04-5.33904E-05-3.93708E-05 4.96358E-07 1.40305E-18-4.54243E-18
 -1      2630 1.45659E-04-4.42869E-05-4.39063E-05-9.66236E-06 2.23071E-18-4.55323E-18
 -1      2631 1.42999E-04-3.12569E-05-4.79927E-05 5.93582E-06-3.57490E-18-3.13021E-18
 -1      2632 6.80409E-05-3.80342E-05-1.24139E-05 3.83416E-05-1.99349E-18 1.51640E-18
 -1      2633 1.06883E-04-2.64081E-05-3.44369E-05 6.80880E-07 1.57989E-18-4.15648E-19
 -1      2634 1.38393E-04-5.94309E-05-3.43170E-05 1.04679E-05 4.47498E-19-4.07423E-18
 -1      2635 1.32632E-04-5.95171E-05-3.12400E-05 2.09482E-05 7.30460E-19-2.39541E-18
 -1      2636 1.27461E-04-6.04901E-05-2.84672E-05 2.23823E-05-5.38289E-19-2.69134E-18
 -1      2637 6.74463E-05-3.72516E-05-1.24971E-05-4.10958E-05 2.29165E-18 3.08606E-18
 -1      2638 1.34863E-04-8.88013E-06-5.42698E-05-9.14028E-07-5.48899E-18-1.30767E-18
 -1      2639 9.52359E-05-2.85730E-05-2.85698E-05-5.26645E-09-3.58013E-19 3.15762E-19
 -1      2640 9.52363E-05-2.85738E-05-2.85697E-05-5.97622E-09-3.77261E-19 2.76089E-19
 -1      2641 1.36546E-04-1.65107E-05-5.17117E-05-9.25084E-06-4.57186E-18-3.47389E-19
 -1      2642 2.71553E-05-1.38711E-05-5.07767E-06-5.94625E-07 1.55536E-19 5.46844E-18
 -1      2643 3.96591E-05-2.12784E-05-7.28346E-06 2.50931E-05-1.44483E-18 3.32820E-18
 -1      2644 7.15111E-05-3.54339E-05-1.51149E-05 4.18324E-05 6.45016E-19-4.03145E-18
 -1      2645 6.62404E-05-2.95483E-05-1.51744E-05 3.99958E-05 1.39030E-18-4.06428E-18
 -1      2646 8.46616E-05-4.05893E-05-1.91685E-05 3.99833E-05 1.05551E-18-3.34620E-18
 -1      2647 2.23707E-05-7.14156E-06-5.94834E-06 1.00490E-05 9.49683E-19-5.90255E-18
 -1      2648 2.66724E-05-3.76109E-06-9.26942E-06 1.98634E-06 6.54505E-19-5.60058E-18
 -1      2649 2.90844E-05-6.38944E-06-9.38330E-06 1.79726E-05 1.28421E-18-5.50593E-18
 -1      2650 1.02763E-04-2.27896E-05-3.42988E-05-8.18323E-06-1.34044E-18-1.53017E-18
 -1      2651 3.85025E-05-2.05737E-05-7.10091E-06-2.71386E-05 1.77898E-18 4.14326E-18
 -1      2652 1.02137E-04-5.03735E-05-2.18437E-05-3.27428E-05-8.76679E-20-2.95855E-18
 -1      2653 3.16409E-05-1.19152E-05-7.92752E-06-1.80907E-05 1.15885E-19-5.63955E-18
 -1      2654 1.33327E-04-5.83430E-05-3.19473E-05-1.57463E-05 6.01923E-19-1.32730E-18
 -1      2655 1.42194E-04-3.40381E-05-4.64949E-05-4.67643E-06-3.13709E-18-5.61795E-19
 -1      2656 1.11959E-04-5.02743E-05-2.61572E-05 3.22500E-05-1.81477E-19-2.53845E-18
 -1      2657 1.48088E-04-3.23660E-05-4.99883E-05 1.24143E-05 3.51561E-18-7.84141E-19
 -1      2658 1.40177E-04-2.66700E-05-4.92510E-05 1.58211E-05 3.56326E-18-3.19437E-19
 -1      2659 1.42954E-04-3.77400E-05-4.53041E-05 1.43093E-05 2.53739E-18 1.86030E-19
 -1      2660 6.08003E-05-2.99987E-05-1.27604E-05-3.44851E-05-2.53263E-19-4.55725E-18
 -1      2661 9.52355E-05-2.85728E-05-2.85697E-05 5.76120E-09-7.88756E-19-6.35331E-19
 -1      2662 9.52366E-05-2.85742E-05-2.85696E-05 6.44751E-09-1.14001E-18-1.97183E-18
 -1      2663 9.52366E-05-2.85746E-05-2.85694E-05 7.83838E-09-9.06844E-19-1.48780E-18
 -1      2664 9.52347E-05-2.85726E-05-2.85695E-05 6.80328E-09-1.01516E-18 3.45547E-19
 -1      2665 1.45935E-04-2.79697E-05-5.07429E-05-1.17617E-05 3.54780E-18-3.33583E-18
 -1      2666 1.46805E-04-5.08505E-05-4.11153E-05 3.10133E-06 1.85517E-18-2.88203E-19
 -1      2667 1.37029E-04-4.99352E-05-3.74420E-05 1.13626E-05-1.54520E-18-1.28940E-18
 -1      2668 1.41499E-04-4.83611E-05-3.99186E-05-4.71115E-06-1.39293E-18-2.76683E-18
 -1      2669 9.52363E-05-2.85742E-05-2.85695E-05-7.42639E-09-3.66090E-19-9.39477E-19
 -1      2670 9.52352E-05-2.85734E-05-2.85693E-05 8.36939E-09-6.98301E-19 5.31552E-19
 -1      2671 5.59620E-05 1.10633E-07-2.39812E-05 9.06877E-08 8.90312E-19-3.73036E-18
 -1      2672 5.43859E-05 8.62318E-07-2.36628E-05 3.33473E-06 9.51592E-19-3.88823E-18
 -1      2673 5.53907E-05-1.08900E-07-2.37548E-05 8.37219E-06 1.10196E-18-3.90520E-18
 -1      2674 5.85305E-05-1.98431E-06-2.41059E-05 1.10432E-05 1.14833E-18-3.93197E-18
 -1      2675 5.32535E-05-4.94336E-07-2.23987E-05 6.55650E-06 1.01312E-18-4.04117E-18
 -1      2676 8.15236E-05-1.50473E-05-2.83551E-05-7.61775E-06 7.60983E-19-2.45478E-18
 -1      2677 7.37982E-05-1.10010E-05-2.70247E-05-7.77642E-06 6.39121E-19-2.75290E-18
 -1      2678 9.70832E-05-2.37578E-05-3.13137E-05-4.70527E-06 1.01052E-18-1.47822E-18
 -1      2679 8.95852E-05-1.98985E-05-2.99134E-05-6.25010E-06 8.54502E-19-1.93431E-18
 -1      2680 8.71552E-05-2.10851E-05-2.83697E-05-9.66586E-06 5.35563E-19-2.09058E-18
 -1      2681 1.15129E-04-3.78052E-05-3.31943E-05-1.85601E-06 6.95877E-19-7.64480E-20
 -1      2682 1.13238E-04-3.46886E-05-3.35198E-05-2.03151E-06 8.75511E-19-1.09697E-19
 -1      2683 8.14531E-05-4.22455E-05-1.66290E-05 3.83140E-05-2.04897E-18 8.01505E-19
 -1      2684 6.51312E-05-3.24053E-05-1.35257E-05 3.50707E-05-2.42940E-18 1.35716E-18
 -1      2685 1.11920E-04-3.58092E-05-3.25811E-05-9.14398E-06-6.04715E-19-4.12353E-19
 -1      2686 1.11597E-04-3.57192E-05-3.25531E-05-9.87125E-06-5.48983E-19-2.80997E-19
 -1      2687 1.11925E-04-3.52590E-05-3.28696E-05-1.11502E-05-6.81645E-19-1.50423E-19
 -1      2688 1.10904E-04-3.37475E-05-3.30588E-05-1.16763E-05-9.35866E-19-2.87100E-19
 -1      2689 1.13554E-04-3.64753E-05-3.30204E-05-1.04871E-05-6.78265E-19-3.11892E-19
 -1      2690 1.09909E-04-3.16641E-05-3.36112E-05-1.21617E-05-1.25452E-18-2.60309E-19
 -1      2691 1.08341E-04-2.90679E-05-3.39191E-05-1.15010E-05-1.45802E-18-4.19106E-19
 -1      2692 1.12928E-04-3.34204E-05-3.40434E-05-1.26245E-05-1.19193E-18-2.22885E-19
 -1      2693 1.06454E-04-2.61870E-05-3.44975E-05-9.96415E-06-1.50928E-18-5.98472E-19
 -1      2694 1.05020E-04-2.38071E-05-3.47541E-05-7.57387E-06-1.68554E-18-7.74734E-19
 -1      2695 1.09957E-04-2.74091E-05-3.53697E-05-1.19217E-05-1.71737E-18-5.37499E-19
 -1      2696 1.03689E-04-2.19971E-05-3.50677E-05-3.90278E-06-1.97811E-18-1.08214E-18
 -1      2697 1.03174E-04-2.13722E-05-3.51021E-05-4.48259E-07-1.82696E-18-1.25511E-18
 -1      2698 1.06586E-04-2.17406E-05-3.64172E-05-6.57781E-06-2.12601E-18-1.14134E-18
 -1      2699 1.03618E-04-2.20866E-05-3.49101E-05 3.91036E-06-1.75818E-18-1.59694E-18
 -1      2700 1.04436E-04-2.38265E-05-3.46431E-05 6.86780E-06-1.69991E-18-1.81848E-18
 -1      2701 1.05416E-04-2.02391E-05-3.65558E-05 1.95112E-06-1.85261E-18-1.59131E-18
 -1      2702 1.06059E-04-2.64953E-05-3.40337E-05 9.46005E-06-1.61595E-18-1.83878E-18
 -1      2703 1.07473E-04-2.93541E-05-3.35966E-05 1.07488E-05-1.39893E-18-1.84327E-18
 -1      2704 1.07669E-04-2.45261E-05-3.56616E-05 8.99813E-06-1.68335E-18-1.94685E-18
 -1      2705 1.08926E-04-3.22594E-05-3.28172E-05 1.08177E-05-9.99635E-19-1.88065E-18
 -1      2706 1.10026E-04-3.46861E-05-3.23638E-05 1.03022E-05-5.32598E-19-1.83755E-18
 -1      2707 1.10936E-04-3.13628E-05-3.40769E-05 1.15138E-05-1.12623E-18-1.92103E-18
 -1      2708 1.10257E-04-3.63727E-05-3.16706E-05 8.59132E-06-4.25135E-19-1.78971E-18
 -1      2709 1.10577E-04-3.75469E-05-3.13157E-05 7.01907E-06-1.73410E-19-1.85182E-18
 -1      2710 1.12654E-04-3.69278E-05-3.24099E-05 9.42850E-06-5.03823E-19-2.02613E-18
 -1      2711 1.09638E-04-3.77914E-05-3.08273E-05 4.76826E-06-2.35680E-20-1.72303E-18
 -1      2712 1.09231E-04-3.77883E-05-3.05974E-05 2.95911E-06 1.05490E-20-1.73123E-18
 -1      2713 1.11865E-04-3.92728E-05-3.10950E-05 5.11918E-06-1.18473E-20-2.23894E-18
 -1      2714 1.07702E-04-3.70778E-05-3.03086E-05 1.00940E-06-1.06599E-19-1.37101E-18
 -1      2715 1.06872E-04-3.63815E-05-3.01753E-05-5.30064E-07-3.43846E-19-1.08340E-18
 -1      2716 1.09301E-04-3.87554E-05-3.02490E-05 8.27094E-07 1.15228E-19-1.58480E-18
 -1      2717 1.05280E-04-3.52954E-05-3.00265E-05-1.87508E-06-4.55925E-19-7.03045E-19
 -1      2718 1.04324E-04-3.43657E-05-2.99478E-05-2.95601E-06-2.41052E-19-4.37809E-19
 -1      2719 1.06116E-04-3.66855E-05-2.97865E-05-2.40940E-06-3.80323E-20-8.48710E-19
 -1      2720 1.02962E-04-3.32971E-05-2.98775E-05-3.71492E-06-4.10300E-19-5.51399E-19
 -1      2721 1.02060E-04-3.24178E-05-2.98197E-05-4.34354E-06-3.60733E-19-6.16087E-19
 -1      2722 1.03139E-04-3.42202E-05-2.95681E-05-4.39958E-06-3.19185E-19-7.49325E-19
 -1      2723 1.01017E-04-3.15488E-05-2.97831E-05-4.65220E-06-1.91385E-19-3.84348E-19
 -1      2724 1.00247E-04-3.08415E-05-2.97268E-05-4.91697E-06-1.33605E-19-4.92881E-19
 -1      2725 1.00736E-04-3.20217E-05-2.94747E-05-5.35738E-06-2.01599E-19-3.41118E-19
 -1      2726 9.95018E-05-3.02149E-05-2.96980E-05-4.92087E-06 1.04985E-19-5.48807E-19
 -1      2727 9.88771E-05-2.97016E-05-2.96353E-05-4.92814E-06 1.47280E-19-6.04019E-19
 -1      2728 9.89583E-05-3.03367E-05-2.94277E-05-5.58346E-06-1.13563E-19-1.18727E-19
 -1      2729 9.83671E-05-2.92916E-05-2.96027E-05-4.74623E-06 6.51572E-20-7.08682E-19
 -1      2730 9.78725E-05-2.89474E-05-2.95333E-05-4.59092E-06-1.07150E-20-3.47258E-19
 -1      2731 9.77139E-05-2.91767E-05-2.93856E-05-5.34276E-06 1.36938E-19-2.85076E-19
 -1      2732 9.75332E-05-2.87048E-05-2.94939E-05-4.31012E-06-2.98829E-19-3.85630E-19
 -1      2733 9.71457E-05-2.84910E-05-2.94209E-05-4.06629E-06-1.20933E-19-6.44974E-19
 -1      2734 9.68733E-05-2.84525E-05-2.93314E-05-4.83536E-06-3.18288E-20-4.63061E-19
 -1      2735 9.69235E-05-2.83663E-05-2.93762E-05-3.74609E-06 3.96232E-19-6.78109E-19
 -1      2736 9.66210E-05-2.82450E-05-2.93036E-05-3.46657E-06 8.72293E-19-8.18140E-19
 -1      2737 9.63178E-05-2.80510E-05-2.92626E-05-4.20171E-06 1.07325E-19-5.82733E-19
 -1      2738 9.64763E-05-2.81973E-05-2.92563E-05-3.14538E-06 1.06794E-18-9.37135E-19
 -1      2739 9.62407E-05-2.81379E-05-2.91877E-05-2.86497E-06 1.16579E-18-1.62291E-18
 -1      2740 9.59550E-05-2.78696E-05-2.91831E-05-3.53534E-06 6.77224E-19-1.22380E-18
 -1      2741 9.61462E-05-2.81368E-05-2.91408E-05-2.56575E-06 9.45895E-19-1.64458E-18
 -1      2742 9.59634E-05-2.81163E-05-2.90786E-05-2.30532E-06 7.40279E-19-1.67272E-18
 -1      2743 9.57186E-05-2.78276E-05-2.90987E-05-2.89490E-06 1.17269E-18-2.23362E-18
 -1      2744 9.59010E-05-2.81408E-05-2.90344E-05-2.04018E-06-1.66822E-21-1.72629E-18
 -1      2745 9.57598E-05-2.81433E-05-2.89800E-05-1.81057E-06-1.60227E-19-1.64558E-18
 -1      2746 9.55640E-05-2.78667E-05-2.90150E-05-2.31392E-06 2.71860E-19-1.31516E-18
 -1      2747 9.57179E-05-2.81795E-05-2.89400E-05-1.58426E-06-1.09941E-19-1.70666E-18
 -1      2748 9.56098E-05-2.81942E-05-2.88938E-05-1.38955E-06-4.90335E-19-1.71457E-18
 -1      2749 9.54617E-05-2.79472E-05-2.89363E-05-1.80838E-06-1.89682E-19-1.66008E-18
 -1      2750 9.55811E-05-2.82337E-05-2.88589E-05-1.20213E-06-1.56638E-19-1.60426E-18
 -1      2751 9.54991E-05-2.82539E-05-2.88206E-05-1.04208E-06 3.50821E-19-1.43773E-18
 -1      2752 9.53930E-05-2.80438E-05-2.88652E-05-1.38268E-06-6.96564E-22-1.84128E-18
 -1      2753 9.54792E-05-2.82918E-05-2.87910E-05-8.90843E-07 1.24103E-19-1.53881E-18
 -1      2754 9.54178E-05-2.83133E-05-2.87601E-05-7.62761E-07 5.95368E-20-1.75118E-18
 -1      2755 9.53461E-05-2.81411E-05-2.88032E-05-1.03389E-06 3.35704E-19-1.42388E-18
 -1      2756 9.54036E-05-2.83472E-05-2.87356E-05-6.43533E-07-8.21951E-21-1.85353E-18
 -1      2757 9.53584E-05-2.83676E-05-2.87112E-05-5.43481E-07-4.77474E-20-2.02208E-18
 -1      2758 9.53135E-05-2.82307E-05-2.87507E-05-7.54939E-07-1.03728E-19-2.47086E-18
 -1      2759 9.53482E-05-2.83964E-05-2.86913E-05-4.51545E-07-2.44267E-19-1.37434E-18
 -1      2760 9.53155E-05-2.84146E-05-2.86724E-05-3.75169E-07-2.09463E-19-8.91376E-19
 -1      2761 9.52906E-05-2.83088E-05-2.87072E-05-5.36774E-07 3.07268E-20-2.16873E-18
 -1      2762 9.53081E-05-2.84382E-05-2.86567E-05-3.05813E-07 3.60706E-19-2.12916E-19
 -1      2763 9.52850E-05-2.84537E-05-2.86424E-05-2.48842E-07 4.79949E-19 6.16607E-19
 -1      2764 9.52742E-05-2.83740E-05-2.86721E-05-3.69792E-07 7.17407E-19-1.18327E-18
 -1      2765 9.52796E-05-2.84724E-05-2.86303E-05-1.97697E-07 2.59719E-20 5.19350E-19
 -1      2766 9.52637E-05-2.84852E-05-2.86197E-05-1.56226E-07 2.65883E-19 6.63191E-19
 -1      2767 9.52624E-05-2.84267E-05-2.86444E-05-2.44743E-07 4.09145E-19-4.33138E-19
 -1      2768 9.52598E-05-2.84997E-05-2.86104E-05-1.19434E-07 4.09364E-19 6.58535E-19
 -1      2769 9.52492E-05-2.85100E-05-2.86028E-05-9.00552E-08 1.50201E-19 6.55732E-19
 -1      2770 9.52540E-05-2.84683E-05-2.86228E-05-1.53232E-07 2.56695E-19-2.96482E-19
 -1      2771 9.52464E-05-2.85210E-05-2.85959E-05-6.43327E-08 1.44555E-20 1.00889E-18
 -1      2772 9.52398E-05-2.85290E-05-2.85905E-05-4.41806E-08 2.00061E-19 1.15702E-18
 -1      2773 9.52479E-05-2.85002E-05-2.86065E-05-8.79565E-08 2.38190E-19 9.48157E-19
 -1      2774 9.52378E-05-2.85371E-05-2.85855E-05-2.68131E-08-5.10832E-19 1.85972E-18
 -1      2775 9.52340E-05-2.85432E-05-2.85819E-05-1.35440E-08-7.61954E-19 1.67922E-18
 -1      2776 9.52436E-05-2.85242E-05-2.85943E-05-4.27726E-08-1.78650E-19 1.11675E-18
 -1      2777 9.52326E-05-2.85490E-05-2.85783E-05-2.34356E-09-7.76773E-19 1.63782E-18
 -1      2778 9.52307E-05-2.85536E-05-2.85759E-05 5.91188E-09-8.38177E-19 1.46833E-18
 -1      2779 9.52407E-05-2.85417E-05-2.85855E-05-1.26473E-08-1.03486E-18 1.67170E-18
 -1      2780 9.52297E-05-2.85576E-05-2.85735E-05 1.26701E-08-6.29141E-19 1.28586E-18
 -1      2781 9.52291E-05-2.85610E-05-2.85721E-05 1.73695E-08-3.56533E-19 1.72363E-18
 -1      2782 9.52387E-05-2.85541E-05-2.85792E-05 6.44495E-09-9.93613E-19 5.27604E-19
 -1      2783 9.52285E-05-2.85637E-05-2.85705E-05 2.10162E-08-4.87401E-19 1.86425E-18
 -1      2784 9.52287E-05-2.85661E-05-2.85697E-05 2.32713E-08-8.06171E-19 1.60557E-18
 -1      2785 9.52374E-05-2.85628E-05-2.85749E-05 1.76546E-08-5.70609E-19 1.61040E-18
 -1      2786 9.52283E-05-2.85678E-05-2.85687E-05 2.48114E-08-8.03611E-19 1.22111E-18
 -1      2787 9.52290E-05-2.85695E-05-2.85684E-05 2.54516E-08 4.39834E-19 2.87016E-19
 -1      2788 9.52366E-05-2.85685E-05-2.85721E-05 2.33955E-08-8.33524E-19 6.71453E-19
 -1      2789 9.52288E-05-2.85705E-05-2.85678E-05 2.56267E-08 1.12379E-18-4.94912E-19
 -1      2790 9.52298E-05-2.85716E-05-2.85678E-05 2.52550E-08 9.82160E-19-5.39346E-20
 -1      2791 9.52361E-05-2.85721E-05-2.85704E-05 2.54777E-08 1.69811E-19-5.14286E-19
 -1      2792 9.52297E-05-2.85722E-05-2.85675E-05 2.45983E-08 2.02152E-18-2.39423E-19
 -1      2793 9.52308E-05-2.85729E-05-2.85676E-05 2.36403E-08 1.20134E-18 9.09334E-19
 -1      2794 9.52359E-05-2.85742E-05-2.85694E-05 2.52260E-08 1.32887E-18-1.58063E-18
 -1      2795 9.52308E-05-2.85732E-05-2.85676E-05 2.25228E-08-1.84702E-19 1.94431E-18
 -1      2796 9.52318E-05-2.85736E-05-2.85678E-05 2.12668E-08-2.83459E-19 1.32476E-18
 -1      2797 9.52359E-05-2.85753E-05-2.85689E-05 2.35834E-08 1.24475E-18-1.52217E-18
 -1      2798 9.52319E-05-2.85737E-05-2.85678E-05 1.99351E-08-5.01460E-19 1.68898E-18
 -1      2799 9.52329E-05-2.85740E-05-2.85681E-05 1.85648E-08 1.13007E-18 4.52534E-19
 -1      2800 9.52360E-05-2.85757E-05-2.85687E-05 2.11972E-08-4.07983E-19-1.37607E-19
 -1      2801 9.52330E-05-2.85739E-05-2.85682E-05 1.71711E-08 1.18513E-18-6.13054E-19
 -1      2802 9.52339E-05-2.85741E-05-2.85685E-05 1.57912E-08 1.36378E-19-8.99161E-19
 -1      2803 9.52362E-05-2.85757E-05-2.85688E-05 1.84890E-08 2.00089E-19-2.02371E-18
 -1      2804 9.52341E-05-2.85741E-05-2.85686E-05 1.44171E-08-1.07956E-19-1.06756E-18
 -1      2805 9.52349E-05-2.85742E-05-2.85688E-05 1.30714E-08 6.70565E-20-1.91336E-18
 -1      2806 9.52364E-05-2.85757E-05-2.85689E-05 1.57094E-08-2.82326E-19-1.88747E-18
 -1      2807 9.52351E-05-2.85742E-05-2.85690E-05 1.17530E-08 2.34667E-19-1.22111E-18
 -1      2808 9.52358E-05-2.85744E-05-2.85692E-05 1.04507E-08-2.42283E-19-1.15309E-18
 -1      2809 9.52368E-05-2.85756E-05-2.85691E-05 1.29799E-08 6.14793E-19-1.30681E-18
 -1      2810 1.28189E-04-2.78906E-05-4.32134E-05 1.61373E-05 2.52289E-18 2.86932E-19
 -1      2811 1.31565E-04-3.60005E-05-4.13808E-05 1.79906E-05 2.00768E-18 7.18337E-19
 -1      2812 1.37100E-04-2.44192E-05-4.90203E-05-1.29881E-05 3.35679E-18-3.26626E-18
 -1      2813 1.39400E-04-3.24556E-05-4.61652E-05-1.52076E-05 2.47535E-18-4.08810E-18
 -1      2814 1.28602E-04-3.47400E-05-4.07280E-05-1.71161E-05 1.69698E-18-3.62493E-18
 -1      2815 1.25529E-04-2.66793E-05-4.25489E-05-1.56092E-05 2.11483E-18-3.29644E-18
 -1      2816 1.29917E-04-4.76587E-05-3.54923E-05-1.10548E-05 7.41008E-19-4.08985E-18
 -1      2817 1.29435E-04-4.30710E-05-3.70340E-05-1.46758E-05 1.30787E-18-3.83898E-18
 -1      2818 1.24382E-04-4.78184E-05-3.27634E-05-1.28777E-06-4.48848E-19-3.01914E-18
 -1      2819 1.26478E-04-4.81699E-05-3.36314E-05-5.60000E-06-6.48510E-21-3.84734E-18
 -1      2820 1.30338E-04-5.06693E-05-3.42047E-05-5.65492E-06 3.44789E-19-3.36510E-18
 -1      2821 1.16896E-04-4.29878E-05-3.15634E-05 5.80436E-06-9.77789E-19-2.65532E-18
 -1      2822 1.19674E-04-4.53269E-05-3.19425E-05 2.67214E-06-6.27943E-19-3.02469E-18
 -1      2823 1.21581E-04-4.82523E-05-3.14930E-05 3.78482E-06-6.75338E-19-3.04025E-18
 -1      2824 1.10316E-04-3.74437E-05-3.11499E-05 9.60198E-06-8.71940E-19-2.41300E-18
 -1      2825 1.12882E-04-3.99922E-05-3.13049E-05 7.94507E-06-7.24279E-19-2.13347E-18
 -1      2826 1.12936E-04-4.22687E-05-3.04191E-05 9.59650E-06-9.76698E-19-3.04285E-18
 -1      2827 1.05668E-04-3.32418E-05-3.09956E-05 1.08231E-05 2.44566E-20-2.61721E-18
 -1      2828 1.07651E-04-3.51466E-05-3.11042E-05 1.02498E-05-5.80730E-19-2.54298E-18
 -1      2829 1.06350E-04-3.61496E-05-3.01816E-05 1.18283E-05-6.89993E-19-2.56099E-18
 -1      2830 1.02631E-04-3.05727E-05-3.08615E-05 1.05648E-05 2.29169E-19-2.22525E-18
 -1      2831 1.04078E-04-3.17945E-05-3.09865E-05 1.06711E-05 1.17973E-19-2.34690E-18
 -1      2832 1.02191E-04-3.18591E-05-3.01945E-05 1.20161E-05 1.38826E-19-2.19467E-18
 -1      2833 1.00674E-04-2.90806E-05-3.06765E-05 9.54497E-06 5.58396E-19-1.54523E-18
 -1      2834 1.01734E-04-2.97872E-05-3.08284E-05 1.00155E-05 4.53406E-19-1.69757E-18
 -1      2835 9.97499E-05-2.93070E-05-3.02144E-05 1.11526E-05-3.62677E-21-2.10472E-18
 -1      2836 9.93698E-05-2.83443E-05-3.04403E-05 8.21650E-06 5.78274E-20-1.15765E-18
 -1      2837 1.00170E-04-2.87209E-05-3.06085E-05 8.84028E-06 9.03625E-19-1.06489E-18
 -1      2838 9.83603E-05-2.79973E-05-3.01653E-05 9.81415E-06 3.23254E-19-1.62460E-18
 -1      2839 9.84446E-05-2.80399E-05-3.01773E-05 6.83925E-06-7.08228E-20-1.12554E-18
 -1      2840 9.90695E-05-2.82245E-05-3.03469E-05 7.48941E-06-2.57285E-19-1.63167E-18
 -1      2841 9.75476E-05-2.74489E-05-3.00453E-05 8.33344E-06 1.43103E-19-1.83410E-18
 -1      2842 9.77457E-05-2.79606E-05-2.99126E-05 5.55037E-06 3.08931E-19-1.29224E-18
 -1      2843 9.82450E-05-2.80404E-05-3.00720E-05 6.15852E-06 3.51406E-19-1.05340E-18
 -1      2844 9.70315E-05-2.73159E-05-2.98787E-05 6.88980E-06 1.18470E-19-2.20276E-18
 -1      2845 9.71938E-05-2.79869E-05-2.96646E-05 4.41293E-06 7.42586E-19-2.04021E-18
 -1      2846 9.75962E-05-2.80127E-05-2.98068E-05 4.94777E-06 8.23551E-19-1.36832E-18
 -1      2847 9.66652E-05-2.73849E-05-2.96917E-05 5.57489E-06 4.32419E-19-2.18935E-18
 -1      2848 9.67485E-05-2.80557E-05-2.94435E-05 3.44694E-06 7.18042E-19-1.66360E-18
 -1      2849 9.70721E-05-2.80551E-05-2.95657E-05 3.89893E-06 5.02185E-19-1.90073E-18
 -1      2850 9.63793E-05-2.75361E-05-2.95046E-05 4.42840E-06 7.76035E-19-1.46025E-18
 -1      2851 9.63877E-05-2.81357E-05-2.92539E-05 2.64886E-06-2.20579E-19-1.57398E-18
 -1      2852 9.66457E-05-2.81232E-05-2.93556E-05 3.02021E-06 6.32081E-19-1.54363E-18
 -1      2853 9.61435E-05-2.77076E-05-2.93305E-05 3.45945E-06 5.44257E-19-1.93162E-18
 -1      2854 9.60975E-05-2.82127E-05-2.90959E-05 2.00345E-06-5.24886E-19-1.43923E-18
 -1      2855 9.63006E-05-2.81956E-05-2.91786E-05 2.30203E-06-4.98158E-19-1.33321E-18
 -1      2856 9.59457E-05-2.78707E-05-2.91761E-05 2.65999E-06-1.60423E-19-2.16578E-18
 -1      2857 9.58673E-05-2.82812E-05-2.89673E-05 1.49070E-06 2.77890E-19-2.41708E-18
 -1      2858 9.60248E-05-2.82631E-05-2.90332E-05 1.72653E-06 2.03993E-19-1.94636E-18
 -1      2859 9.57805E-05-2.80139E-05-2.90441E-05 2.01324E-06 2.82628E-19-1.60223E-18
 -1      2860 9.56875E-05-2.83396E-05-2.88648E-05 1.08972E-06 3.98127E-19-3.36801E-18
 -1      2861 9.58077E-05-2.83223E-05-2.89163E-05 1.27308E-06-4.22114E-20-3.17901E-18
 -1      2862 9.56447E-05-2.81343E-05-2.89343E-05 1.49888E-06 5.82035E-19-3.41981E-18
 -1      2863 9.55498E-05-2.83884E-05-2.87845E-05 7.80818E-07-5.79943E-19-3.16699E-18
 -1      2864 9.56398E-05-2.83726E-05-2.88240E-05 9.21257E-07 2.66568E-19-3.78443E-18
 -1      2865 9.55354E-05-2.82331E-05-2.88451E-05 1.09616E-06 2.06464E-19-3.83305E-18
 -1      2866 9.54463E-05-2.84285E-05-2.87227E-05 5.46384E-07-1.15933E-18-4.38418E-18
 -1      2867 9.55125E-05-2.84145E-05-2.87526E-05 6.52333E-07-8.26975E-19-3.75212E-18
 -1      2868 9.54494E-05-2.83126E-05-2.87740E-05 7.85548E-07-3.73518E-19-3.69922E-18
 -1      2869 9.53703E-05-2.84611E-05-2.86759E-05 3.71239E-07-6.72071E-19-4.33133E-18
 -1      2870 9.54178E-05-2.84490E-05-2.86981E-05 4.49898E-07-1.08178E-18-4.73063E-18
 -1      2871 9.53832E-05-2.83759E-05-2.87184E-05 5.49600E-07-6.40237E-19-4.91823E-18
 -1      2872 9.53158E-05-2.84873E-05-2.86412E-05 2.42612E-07-8.16786E-19-3.37403E-18
 -1      2873 9.53491E-05-2.84770E-05-2.86573E-05 2.99987E-07-8.46409E-19-4.08769E-18
 -1      2874 9.53335E-05-2.84257E-05-2.86756E-05 3.73207E-07-8.43354E-19-4.51965E-18
 -1      2875 9.52779E-05-2.85082E-05-2.86159E-05 1.49966E-07-7.17626E-19-2.52682E-18
 -1      2876 9.53004E-05-2.84996E-05-2.86274E-05 1.90974E-07-5.36270E-19-3.34889E-18
 -1      2877 9.52971E-05-2.84645E-05-2.86432E-05 2.43616E-07-1.17712E-18-3.48158E-18
 -1      2878 9.52523E-05-2.85246E-05-2.85978E-05 8.47470E-08-1.34384E-19-1.08533E-18
 -1      2879 9.52670E-05-2.85175E-05-2.86058E-05 1.13353E-07-3.50749E-19-1.48194E-18
 -1      2880 9.52711E-05-2.84943E-05-2.86192E-05 1.50270E-07-1.07972E-18-1.42666E-18
 -1      2881 9.52360E-05-2.85373E-05-2.85853E-05 4.01113E-08-1.35481E-18-9.08729E-19
 -1      2882 9.52449E-05-2.85316E-05-2.85906E-05 5.94671E-08-3.16978E-19-1.00115E-18
 -1      2883 9.52532E-05-2.85170E-05-2.86017E-05 8.45755E-08-1.58166E-19-1.70580E-18
 -1      2884 9.52262E-05-2.85471E-05-2.85768E-05 1.06616E-08-2.67516E-19-1.79231E-18
 -1      2885 9.52311E-05-2.85425E-05-2.85803E-05 2.32387E-08-1.01282E-18-1.25643E-18
 -1      2886 9.52414E-05-2.85340E-05-2.85892E-05 3.96422E-08-8.24955E-19-2.06018E-18
 -1      2887 9.52211E-05-2.85545E-05-2.85714E-05-7.79970E-09-7.51626E-19-7.34490E-19
 -1      2888 9.52233E-05-2.85509E-05-2.85735E-05-9.04727E-11-2.43813E-19-1.83757E-18
 -1      2889 9.52340E-05-2.85465E-05-2.85806E-05 1.00281E-08-6.78608E-20-2.44673E-18
 -1      2890 9.52190E-05-2.85600E-05-2.85682E-05-1.84895E-08-7.24442E-19 3.31805E-19
 -1      2891 9.52194E-05-2.85572E-05-2.85693E-05-1.41924E-08-5.37025E-19 9.38386E-22
 -1      2892 9.52298E-05-2.85556E-05-2.85748E-05-8.50318E-09-1.32710E-18-1.33862E-18
 -1      2893 9.52190E-05-2.85641E-05-2.85664E-05-2.38346E-08-1.15853E-19 3.34082E-19
 -1      2894 9.52183E-05-2.85619E-05-2.85669E-05-2.18582E-08-3.17573E-19-4.39401E-20
 -1      2895 9.52277E-05-2.85621E-05-2.85711E-05-1.91999E-08-1.51390E-19-5.56949E-19
 -1      2896 9.52203E-05-2.85670E-05-2.85657E-05-2.56336E-08-5.74265E-19 3.08118E-19
 -1      2897 9.52189E-05-2.85653E-05-2.85657E-05-2.51745E-08-3.25925E-19 5.22538E-19
 -1      2898 9.52271E-05-2.85665E-05-2.85689E-05-2.45127E-08-4.38509E-19-2.27867E-19
 -1      2899 9.52222E-05-2.85690E-05-2.85656E-05-2.51922E-08-1.05293E-18 4.16747E-19
 -1      2900 9.52205E-05-2.85678E-05-2.85654E-05-2.56718E-08-8.00047E-19 5.67601E-19
 -1      2901 9.52274E-05-2.85695E-05-2.85677E-05-2.62572E-08-1.02697E-18-5.22143E-19
 -1      2902 9.52244E-05-2.85704E-05-2.85660E-05-2.34342E-08-6.72621E-19 1.61401E-18
 -1      2903 9.52226E-05-2.85695E-05-2.85656E-05-2.44475E-08-1.33121E-18 4.06179E-19
 -1      2904 9.52283E-05-2.85714E-05-2.85673E-05-2.57504E-08-1.37421E-18-8.11893E-19
 -1      2905 9.52266E-05-2.85713E-05-2.85666E-05-2.09900E-08 4.50423E-20 7.60163E-19
 -1      2906 9.52249E-05-2.85707E-05-2.85661E-05-2.22646E-08 6.83408E-19 1.49096E-18
 -1      2907 9.52295E-05-2.85726E-05-2.85673E-05-2.39222E-08-1.53114E-19-9.72776E-20
 -1      2908 9.52288E-05-2.85719E-05-2.85672E-05-1.82680E-08 5.28205E-19-9.16108E-19
 -1      2909 9.52272E-05-2.85714E-05-2.85668E-05-1.96317E-08-2.34285E-19-6.80728E-19
 -1      2910 9.52307E-05-2.85732E-05-2.85675E-05-2.14057E-08 1.04687E-18 9.56317E-19
 -1      2911 9.52308E-05-2.85724E-05-2.85679E-05-1.55103E-08 1.60689E-18-1.92612E-18
 -1      2912 9.52294E-05-2.85720E-05-2.85675E-05-1.68662E-08 1.11008E-18-2.28796E-18
 -1      2913 9.52320E-05-2.85735E-05-2.85679E-05-1.86100E-08 1.54133E-18-8.56376E-19
 -1      2914 9.52325E-05-2.85727E-05-2.85685E-05-1.28316E-08 1.34028E-18-1.99653E-18
 -1      2915 9.52313E-05-2.85724E-05-2.85681E-05-1.41398E-08 1.41069E-18-2.53108E-18
 -1      2916 9.52332E-05-2.85737E-05-2.85684E-05-1.57762E-08 1.55782E-18-1.78858E-18
 -1      2917 9.52341E-05-2.85731E-05-2.85690E-05-1.02604E-08 1.82401E-18-2.16641E-18
 -1      2918 9.52331E-05-2.85728E-05-2.85687E-05-1.15050E-08 1.61915E-18-2.66567E-18
 -1      2919 9.52344E-05-2.85739E-05-2.85688E-05-1.30186E-08 2.11766E-18-3.37929E-18
 -1      2920 9.52357E-05-2.85738E-05-2.85694E-05-8.23627E-09-4.48963E-20-1.82400E-19
 -1      2921 9.52348E-05-2.85735E-05-2.85692E-05-9.48108E-09 7.86777E-19-2.06239E-18
 -1      2922 9.52358E-05-2.85744E-05-2.85691E-05-1.07866E-08 9.84380E-19-1.00878E-18
 -1      2923 9.52371E-05-2.85753E-05-2.85693E-05-9.02439E-09-7.54528E-19-1.88044E-18
 -1      2924 9.52448E-05-2.85832E-05-2.85692E-05-8.29661E-10-1.76094E-20 2.58146E-18
 -1      2925 9.52446E-05-2.85831E-05-2.85692E-05-2.32460E-09 4.36557E-19 1.90659E-18
 -1      2926 9.52359E-05-2.85744E-05-2.85692E-05 9.58429E-09-4.23549E-19-9.01075E-19
 -1      2927 9.52364E-05-2.85746E-05-2.85694E-05 8.70100E-09-7.08073E-19-7.10650E-19
 -1      2928 9.52371E-05-2.85755E-05-2.85692E-05 1.07442E-08-5.37699E-19-1.39276E-18
 -1      2929 9.52431E-05-2.85815E-05-2.85692E-05-6.63113E-09 1.50112E-18-4.53044E-19
 -1      2930 9.52423E-05-2.85807E-05-2.85693E-05-7.61331E-09 2.21837E-18 4.06747E-19
 -1      2931 9.52446E-05-2.85831E-05-2.85692E-05 2.39061E-09 6.68721E-19 2.11788E-18
 -1      2932 9.52448E-05-2.85832E-05-2.85692E-05 8.98100E-10 5.86394E-20 3.13988E-18
 -1      2933 9.52458E-05-2.85835E-05-2.85696E-05 3.93117E-11 1.60504E-19 2.72214E-18
 -1      2934 9.52443E-05-2.85827E-05-2.85692E-05-3.95861E-09 3.59706E-19 2.05266E-19
 -1      2935 9.52438E-05-2.85822E-05-2.85692E-05-5.27998E-09 8.62840E-19-2.57022E-19
 -1      2936 9.52442E-05-2.85821E-05-2.85695E-05-6.57455E-09 3.38114E-19-9.84428E-19
 -1      2937 9.52454E-05-2.85832E-05-2.85696E-05-3.46073E-09 3.83417E-19 1.19648E-18
 -1      2938 1.11332E-04-5.59520E-05-2.37354E-05 3.09151E-05-1.40131E-18-1.32022E-18
 -1      2939 9.56506E-05-4.96156E-05-1.93989E-05 3.58099E-05-1.73250E-18-5.17325E-19
 -1      2940 9.25351E-05-4.49467E-05-1.99459E-05 3.32945E-05-2.18524E-18-3.07632E-19
 -1      2941 9.52438E-05-2.85822E-05-2.85692E-05 5.28806E-09-8.85426E-20-8.95559E-19
 -1      2942 9.52443E-05-2.85827E-05-2.85692E-05 3.99330E-09-4.22671E-20 2.29196E-19
 -1      2943 9.52454E-05-2.85831E-05-2.85696E-05 3.50563E-09 6.76988E-20 8.38324E-19
 -1      2944 9.52423E-05-2.85806E-05-2.85693E-05 7.61644E-09 5.15101E-19-4.68918E-19
 -1      2945 9.52431E-05-2.85815E-05-2.85692E-05 6.63636E-09 4.72954E-19-9.84005E-19
 -1      2946 9.52442E-05-2.85820E-05-2.85695E-05 6.58318E-09-1.10946E-18-7.19414E-19
 -1      2947 9.52403E-05-2.85786E-05-2.85693E-05 9.00286E-09 5.54774E-19-1.31653E-18
 -1      2948 9.52413E-05-2.85796E-05-2.85692E-05 8.51999E-09 1.14604E-18-6.07799E-19
 -1      2949 9.52423E-05-2.85803E-05-2.85694E-05 8.93735E-09 2.56074E-19-2.52756E-19
 -1      2950 1.07517E-04-2.88071E-05-3.37519E-05-8.26811E-07 1.35352E-18-5.18191E-19
 -1      2951 1.28055E-04-4.77378E-05-3.44773E-05 7.67436E-06 3.10229E-19 8.79948E-19
 -1      2952 1.26420E-04-4.73482E-05-3.37991E-05 4.08862E-06 1.05451E-19 7.58564E-19
 -1      2953 4.94145E-05-2.30874E-05-1.09781E-05 2.94943E-05-1.71577E-18 1.71016E-18
 -1      2954 3.89265E-05-1.62269E-05-9.20113E-06 1.89718E-05-1.32513E-18 3.43175E-18
 -1      2955 9.50087E-05-4.51684E-05-2.08180E-05-3.19614E-05-7.03673E-19-2.76821E-18
 -1      2956 1.12579E-04-5.36317E-05-2.55192E-05-2.70246E-05-3.17955E-19-1.98635E-18
 -1      2957 1.37216E-04-3.48702E-05-4.41346E-05 8.19566E-06-2.59912E-18-3.27071E-18
 -1      2958 1.35929E-04-2.67406E-05-4.74583E-05 9.52411E-06-3.46161E-18-2.75625E-18
 -1      2959 3.24546E-05-6.94878E-06-1.04378E-05-1.27984E-05 2.18164E-19-5.26092E-18
 -1      2960 4.07340E-05-1.33398E-05-1.13360E-05-2.36050E-05-5.59042E-20-5.03709E-18
 -1      2961 1.26913E-04-1.55031E-05-4.83185E-05 1.45983E-06 3.77893E-18-1.44694E-18
 -1      2962 1.27722E-04-1.79455E-05-4.76428E-05 8.79376E-06 3.49316E-18-8.48462E-19
 -1      2963 1.10111E-04-3.33531E-05-3.28976E-05-7.95836E-06-9.55926E-19-6.83146E-19
 -1      2964 1.10545E-04-3.46686E-05-3.25838E-05-8.03699E-06-8.15134E-19-6.41253E-19
 -1      2965 1.11893E-04-3.59249E-05-3.26010E-05-8.03252E-06-6.07654E-19-4.59424E-19
 -1      2966 6.35720E-05-3.20384E-05-1.30375E-05-3.82320E-05 2.49388E-18 2.55158E-18
 -1      2967 8.01588E-05-4.17192E-05-1.62767E-05-4.13752E-05 2.78081E-18 1.75971E-18
 -1      2968 1.21490E-04-4.43259E-05-3.31652E-05 8.49911E-07 2.80672E-19 2.97547E-19
 -1      2969 1.19089E-04-4.15148E-05-3.30902E-05-1.22940E-06 3.32808E-19 1.29897E-19
 -1      2970 1.13673E-04-3.91410E-05-3.20088E-05-4.09053E-06 3.80356E-19-3.56032E-19
 -1      2971 1.22786E-04-4.72820E-05-3.24999E-05-1.09044E-06 2.83127E-20 2.34307E-19
 -1      2972 3.78124E-05-1.54566E-05-9.06725E-06-2.02235E-05 1.79968E-18 3.85696E-18
 -1      2973 4.81896E-05-2.19201E-05-1.09501E-05-3.13535E-05 1.96279E-18 3.70577E-18
 -1      2974 6.61398E-05-5.87165E-06-2.56763E-05-6.35716E-06 7.33557E-19-3.15152E-18
 -1      2975 6.02762E-05-2.76486E-06-2.47258E-05-4.36787E-06 7.36116E-19-3.42233E-18
 -1      2976 5.68062E-05-2.52075E-06-2.30792E-05-3.73083E-06 7.18350E-19-3.72308E-18
 -1      2977 7.04561E-05-1.10279E-05-2.53640E-05-9.92650E-06 4.67430E-19-3.01550E-18
 -1      2978 8.90282E-05-2.10738E-05-2.91438E-05 8.62403E-06 6.09797E-19-2.32430E-18
 -1      2979 9.39294E-05-2.35907E-05-3.01249E-05 5.72309E-06 2.97167E-19-2.24488E-18
 -1      2980 1.03843E-04-2.58191E-05-3.34580E-05-6.56780E-06-1.13173E-18-1.48780E-18
 -1      2981 1.37721E-04-4.68275E-05-3.94168E-05 2.06713E-06-1.44369E-18-3.68777E-19
 -1      2982 1.30936E-04-5.12632E-05-3.42071E-05 1.11193E-05-4.88129E-19-5.99911E-19
 -1      2983 1.34232E-04-3.05194E-05-4.52235E-05-1.15566E-05-3.02391E-18 5.45277E-19
 -1      2984 1.38010E-04-3.92119E-05-4.24252E-05-6.21769E-06-2.19498E-18 1.47172E-19
 -1      2985 1.33921E-04-4.33984E-05-3.89504E-05-5.35945E-06-1.11435E-18 5.23308E-19
 -1      2986 9.52374E-05-2.85756E-05-2.85693E-05 8.98586E-09-6.90193E-19-2.22145E-18
 -1      2987 5.45424E-05-2.25697E-05-1.32184E-05-3.01884E-05-5.53007E-19-4.50103E-18
 -1      2988 7.36998E-05-3.42578E-05-1.68855E-05-3.52215E-05-4.95938E-19-3.62742E-18
 -1      2989 1.27208E-04-5.71438E-05-2.97284E-05-1.55929E-05-2.13241E-19-9.02355E-19
 -1      2990 1.36477E-04-5.76003E-05-3.41893E-05-6.69309E-06 5.32043E-19-1.83700E-19
 -1      2991 5.08094E-05-1.90985E-05-1.32875E-05 3.51516E-05 1.64981E-18-4.64735E-18
 -1      2992 3.99963E-05-1.24009E-05-1.11756E-05 2.86412E-05 1.68602E-18-5.14827E-18
 -1      2993 1.19103E-04-5.21503E-05-2.89597E-05 2.47907E-05 4.51998E-19-1.45346E-18
 -1      2994 1.04000E-04-4.77858E-05-2.36605E-05 3.36388E-05 7.94093E-19-2.39226E-18
 -1      2995 1.36872E-04-5.17359E-05-3.64119E-05-4.37089E-06-4.03717E-19-3.11030E-18
 -1      2996 1.38467E-04-4.52690E-05-4.05475E-05 2.41006E-06-1.50317E-18-3.58316E-18
 -1      2997 3.33425E-05-1.18846E-05-8.70330E-06 6.74581E-06-1.73112E-19 4.45222E-18
 -1      2998 3.27443E-05-1.17245E-05-8.54547E-06-8.26916E-06 1.30565E-18 3.86374E-18
 -1      2999 1.27778E-04-1.30478E-05-4.98880E-05-8.63473E-06-4.66503E-18-9.01031E-20
 -1      3000 1.29977E-04-1.94367E-05-4.77396E-05-1.22771E-05-3.94919E-18 2.29652E-19
 -1      3001 1.32742E-04-1.90924E-05-4.92085E-05 9.62845E-06-4.10006E-18-2.20070E-18
 -1      3002 1.28836E-04-1.27546E-05-5.04474E-05 7.17289E-06-4.53713E-18-1.51502E-18
 -1      3003 1.28742E-04-2.35523E-05-4.54398E-05 1.13420E-05-3.02158E-18-2.44062E-18
 -1      3004 9.24277E-05-4.79270E-05-1.86445E-05-3.92346E-05 2.83544E-18 8.20246E-19
 -1      3005 1.05167E-04-5.34608E-05-2.23204E-05-3.64209E-05 1.93769E-18-1.14555E-18
 -1      3006 8.83025E-05-4.35906E-05-1.87355E-05-3.73921E-05 2.79542E-18 9.34489E-19
 -1      3007 1.41076E-04-5.45463E-05-3.71472E-05 2.17654E-06 1.09092E-18 3.17637E-19
 -1      3008 1.42460E-04-4.83385E-05-4.08216E-05 9.73401E-06 1.53609E-18 4.12399E-19
 -1      3009 1.35922E-04-5.53292E-05-3.45972E-05 3.89261E-07 3.19887E-19 2.52628E-19
 -1      3010 1.20694E-04-5.71072E-05-2.69067E-05-2.60701E-05 8.69373E-19-2.31605E-18
 -1      3011 1.31061E-04-5.71571E-05-3.21625E-05-1.62785E-05 1.60566E-19-2.39382E-18
 -1      3012 1.25629E-04-8.85965E-06-5.06323E-05 2.15971E-06-5.00025E-18-9.39307E-19
 -1      3013 1.25253E-04-8.72202E-06-5.05359E-05-3.82136E-06-5.09406E-18-5.45357E-19
 -1      3014 9.79050E-05-2.53575E-05-3.10676E-05 2.05761E-06-2.13363E-20-1.98304E-18
 -1      3015 1.01145E-04-2.69626E-05-3.18752E-05-8.76507E-07-3.78912E-19-1.87803E-18
 -1      3016 9.88687E-05-2.82650E-05-3.03105E-05 4.77506E-06 2.76280E-19-1.77497E-18
 -1      3017 6.08449E-05-5.88680E-06-2.34329E-05 1.48673E-05 1.24498E-18-3.92723E-18
 -1      3018 6.39962E-05-6.08491E-06-2.49265E-05 1.37152E-05 1.20140E-18-3.78701E-18
 -1      3019 7.00026E-05-9.50295E-06-2.57605E-05 1.42161E-05 1.14565E-18-3.54293E-18
 -1      3020 4.34207E-05-1.36630E-05-1.20780E-05-1.28650E-05 1.70950E-18 3.59523E-18
 -1      3021 6.39428E-05-2.77771E-05-1.49208E-05 3.01225E-05-2.08328E-18 1.33556E-18
 -1      3022 1.26776E-04-5.95984E-05-2.91197E-05 1.73448E-05-1.00940E-18-3.41148E-18
 -1      3023 1.20529E-04-5.85690E-05-2.62958E-05 2.44652E-05-1.33588E-18-2.29249E-18
 -1      3024 1.12433E-04-5.39718E-05-2.48535E-05 2.60234E-05-1.63382E-18-2.19780E-18
 -1      3025 1.41947E-04-5.73368E-05-3.64199E-05 2.95227E-06 6.95639E-19-4.44152E-18
 -1      3026 1.37005E-04-5.84904E-05-3.34206E-05 6.16759E-06-1.36809E-19-4.54888E-18
 -1      3027 1.40920E-04-5.33748E-05-3.79782E-05-5.35248E-06 8.74720E-19-5.07140E-18
 -1      3028 1.21741E-04-1.22863E-05-4.73424E-05 4.96603E-06-4.29340E-18-1.18873E-18
 -1      3029 1.36350E-04-4.03863E-05-4.15304E-05 1.67813E-05 1.79571E-18 7.45177E-19
 -1      3030 1.30203E-04-4.16283E-05-3.80226E-05 1.63273E-05 1.28757E-18 9.62891E-19
 -1      3031 1.31229E-04-4.62136E-05-3.66323E-05 1.35866E-05 8.28471E-19 1.13116E-18
 -1      3032 1.41017E-04-4.59833E-05-4.11038E-05 1.30362E-05 1.46494E-18 4.77303E-19
 -1      3033 9.52423E-05-2.85803E-05-2.85694E-05-8.92851E-09 1.55689E-18 1.46477E-18
 -1      3034 9.52413E-05-2.85797E-05-2.85692E-05-8.51333E-09 1.85146E-18 1.27869E-18
 -1      3035 9.52403E-05-2.85786E-05-2.85693E-05-9.01630E-09-1.41170E-19 5.29993E-19
 -1      3036 1.33871E-04-4.03304E-05-4.03458E-05-1.53658E-05 1.64848E-18-4.14824E-18
 -1      3037 1.39785E-04-4.51586E-05-4.10817E-05-1.16415E-05 1.74632E-18-4.30367E-18
 -1      3038 1.20668E-04-1.23285E-05-4.68331E-05-6.31229E-06-4.34570E-18-6.25746E-20
 -1      3039 1.24273E-04-2.18877E-05-4.44353E-05-1.14144E-05 2.71919E-18-2.55018E-18
 -1      3040 1.22004E-04-1.75405E-05-4.52545E-05-4.34475E-06 3.31328E-18-1.82598E-18
 -1      3041 4.34495E-05-1.38687E-05-1.20093E-05 1.14451E-05-4.67086E-19 3.10819E-18
 -1      3042 8.74919E-05-3.83660E-05-2.06224E-05-3.01098E-05-8.37716E-19-2.91019E-18
 -1      3043 9.52393E-05-2.85776E-05-2.85693E-05-9.28736E-09-8.62256E-19-2.00556E-19
 -1      3044 9.52381E-05-2.85764E-05-2.85693E-05-9.23881E-09-2.96811E-19-1.08593E-18
 -1      3045 9.52376E-05-2.85760E-05-2.85693E-05-1.02049E-08-5.64782E-19-4.76853E-19
 -1      3046 9.52400E-05-2.85782E-05-2.85693E-05-1.01430E-08 1.41623E-19 7.95267E-19
 -1      3047 1.32084E-04-5.44112E-05-3.33114E-05-7.79568E-06 3.76109E-19-3.15933E-18
 -1      3048 1.26745E-04-5.27208E-05-3.16429E-05 1.53316E-05 2.71580E-19-7.58624E-19
 -1      3049 1.18522E-04-5.03402E-05-2.91629E-05 1.88948E-05 1.02650E-18-8.86645E-19
 -1      3050 1.28709E-04-5.03568E-05-3.38334E-05 5.67499E-06 3.02741E-19 6.83450E-20
 -1      3051 1.03887E-04-2.85399E-05-3.23659E-05-3.18741E-06 1.06094E-18-8.60764E-19
 -1      3052 9.52384E-05-2.85768E-05-2.85693E-05 9.07196E-09-1.91853E-19-2.35170E-18
 -1      3053 6.14066E-05-2.39436E-05-1.55063E-05 3.61800E-05 1.77475E-18-4.23432E-18
 -1      3054 5.83766E-05-1.86632E-05-1.66399E-05 3.24320E-05 1.86670E-18-4.29763E-18
 -1      3055 7.20615E-05-2.92817E-05-1.83584E-05 3.64427E-05 1.80672E-18-3.61694E-18
 -1      3056 1.36011E-04-1.78483E-05-5.12493E-05-1.00142E-05 4.25168E-18-2.79383E-18
 -1      3057 1.31052E-04-2.28539E-05-4.68894E-05-1.31252E-05 3.23164E-18-3.54367E-18
 -1      3058 9.62406E-05-4.32560E-05-2.23339E-05 3.43868E-05 1.39136E-18-2.64471E-18
 -1      3059 1.32189E-04-4.97598E-05-3.54276E-05 8.27522E-06 4.12161E-19 8.88167E-19
 -1      3060 3.85905E-05-7.86131E-06-1.26160E-05 2.11100E-05 1.44191E-18-5.21539E-18
 -1      3061 1.20374E-04-5.38806E-05-2.83198E-05-1.73165E-05-6.00864E-19-1.05696E-18
 -1      3062 1.13797E-04-5.46441E-05-2.51924E-05-2.82753E-05 1.77326E-18-1.61421E-18
 -1      3063 6.18394E-05-2.69970E-05-1.43507E-05-3.24760E-05 2.39959E-18 2.79817E-18
 -1      3064 3.19098E-05-3.83534E-06-1.13735E-05-5.20298E-06 5.11965E-19-5.33546E-18
 -1      3065 3.99379E-05-5.34186E-06-1.43144E-05-1.00781E-05 1.95863E-19-4.93418E-18
 -1      3066 3.37589E-05-2.11454E-06-1.31799E-05 2.56809E-06 8.76426E-19-5.13747E-18
 -1      3067 5.45723E-05-1.77284E-05-1.52025E-05-2.49598E-05-4.58615E-19-4.43358E-18
 -1      3068 1.34183E-04-4.01411E-05-4.05345E-05 7.74341E-06-1.42990E-18-3.44234E-18
 -1      3069 1.02833E-04-3.05218E-05-3.10607E-05-6.29905E-06 6.76793E-19-1.02286E-18
 -1      3070 7.69059E-05-1.42184E-05-2.69459E-05 1.34485E-05 1.07387E-18-3.01539E-18
 -1      3071 8.31929E-05-1.76498E-05-2.79758E-05 1.17320E-05 8.11420E-19-2.66529E-18
 -1      3072 8.87157E-05-2.32319E-05-2.81328E-05 1.20953E-05 8.38923E-19-2.35660E-18
 -1      3073 7.48102E-05-1.50447E-05-2.56297E-05 1.66199E-05 1.20743E-18-3.22657E-18
 -1      3074 1.04140E-04-2.78643E-05-3.26169E-05-4.52334E-06-6.85810E-19-1.55035E-18
 -1      3075 1.07501E-04-2.97501E-05-3.33976E-05-7.57109E-06-1.23777E-18-1.04122E-18
 -1      3076 1.08759E-04-3.19931E-05-3.29471E-05-7.31571E-06-1.09004E-18-7.92262E-19
 -1      3077 1.05638E-04-3.08758E-05-3.20056E-05-2.62404E-06-4.33703E-19-1.37472E-18
 -1      3078 1.29752E-04-2.32876E-05-4.64137E-05 1.45205E-05 3.08087E-18-3.83600E-19
 -1      3079 1.35002E-04-1.36513E-05-5.25038E-05-3.94029E-06 4.47149E-18-2.29313E-18
 -1      3080 9.52383E-05-2.85765E-05-2.85693E-05 1.04391E-08-1.51180E-18-3.39297E-18
 -1      3081 9.52394E-05-2.85778E-05-2.85693E-05 9.63312E-09-3.14024E-19-2.56562E-18
 -1      3082 9.52402E-05-2.85784E-05-2.85694E-05 1.04366E-08-3.22365E-19-2.48841E-18
 -1      3083 9.52381E-05-2.85765E-05-2.85693E-05 1.13381E-08-7.02741E-19-3.40929E-18
 -1      3084 1.09280E-04-3.30005E-05-3.26320E-05-6.52781E-06-7.56582E-19-7.81187E-19
 -1      3085 9.47637E-05-2.78020E-05-2.84702E-05-1.16023E-05 1.99799E-19-1.71136E-18
 -1      3086 8.55137E-05-2.30087E-05-2.68304E-05-1.35815E-05-1.27386E-21-2.27896E-18
 -1      3087 1.36828E-04-4.92379E-05-3.75457E-05 1.11888E-05 1.04802E-18 9.61515E-19
 -1      3088 1.25955E-04-2.73073E-05-4.24746E-05 1.28409E-05-1.95474E-18-3.53123E-18
 -1      3089 1.22309E-04-2.08876E-05-4.39747E-05 1.14655E-05-2.89219E-18-3.03394E-18
 -1      3090 1.16494E-04-3.66681E-05-3.42359E-05-1.21806E-05-9.87753E-19 1.00377E-19
 -1      3091 1.15259E-04-3.36754E-05-3.49792E-05-1.27838E-05-1.29706E-18 6.51487E-21
 -1      3092 1.14039E-04-2.98653E-05-3.62469E-05-1.35633E-05-1.77275E-18-1.07914E-19
 -1      3093 1.11877E-04-2.54150E-05-3.70512E-05-1.22581E-05-2.18855E-18-4.01199E-19
 -1      3094 1.17906E-04-3.29968E-05-3.64743E-05-1.33704E-05-1.53504E-18 3.52247E-19
 -1      3095 1.09609E-04-2.10989E-05-3.81253E-05-9.37960E-06-2.55746E-18-5.49350E-19
 -1      3096 1.07864E-04-1.80467E-05-3.85910E-05-5.78652E-06-2.60412E-18-8.71319E-19
 -1      3097 1.14022E-04-2.26042E-05-3.93038E-05-1.20236E-05-2.56159E-18 1.69883E-19
 -1      3098 1.09339E-04-2.15871E-05-3.76381E-05 8.50664E-06-1.82319E-18-2.41827E-18
 -1      3099 1.11285E-04-2.56983E-05-3.68889E-05 1.12401E-05-1.68511E-18-2.28685E-18
 -1      3100 1.13388E-04-3.06304E-05-3.54611E-05 1.19109E-05-1.31322E-18-2.48760E-18
 -1      3101 1.15000E-04-3.49835E-05-3.44508E-05 1.17125E-05-6.49598E-19-2.45072E-18
 -1      3102 1.15921E-04-2.88332E-05-3.74223E-05 1.22495E-05-1.39835E-18-2.82930E-18
 -1      3103 1.15476E-04-3.83223E-05-3.30636E-05 9.32332E-06-5.90561E-19-2.26858E-18
 -1      3104 1.15662E-04-4.06118E-05-3.22083E-05 7.38899E-06-3.41613E-19-2.47798E-18
 -1      3105 1.18615E-04-3.87494E-05-3.42219E-05 1.01919E-05-6.49304E-19-2.72575E-18
 -1      3106 1.14127E-04-4.13940E-05-3.12146E-05 4.36222E-06 5.79721E-20-2.07184E-18
 -1      3107 1.13184E-04-4.15979E-05-3.06368E-05 2.09554E-06 4.49713E-19-1.84441E-18
 -1      3108 1.16968E-04-4.30087E-05-3.17317E-05 4.45583E-06 8.48522E-20-2.27113E-18
 -1      3109 1.10694E-04-4.06629E-05-3.00608E-05-3.67559E-07 4.63241E-19-1.58664E-18
 -1      3110 1.09145E-04-3.96165E-05-2.97351E-05-2.18378E-06 5.43489E-19-1.18658E-18
 -1      3111 1.12797E-04-4.27314E-05-3.00709E-05-1.23846E-06 8.12687E-19-1.27951E-18
 -1      3112 1.06678E-04-3.79981E-05-2.94634E-05-3.65645E-06 2.66714E-19-1.28139E-18
 -1      3113 1.05057E-04-3.65404E-05-2.93082E-05-4.82397E-06 6.22917E-20-1.07932E-18
 -1      3114 1.07717E-04-3.97126E-05-2.92084E-05-4.93710E-06 4.12120E-19-1.47725E-18
 -1      3115 1.03074E-04-3.49351E-05-2.92145E-05-5.48850E-06-2.35985E-19-7.93570E-19
 -1      3116 1.01686E-04-3.35660E-05-2.91535E-05-6.09244E-06-3.08875E-19-1.05622E-18
 -1      3117 1.03253E-04-3.60525E-05-2.88588E-05-6.77603E-06-1.41469E-20-5.15258E-19
 -1      3118 1.00274E-04-3.22687E-05-2.91464E-05-6.22984E-06-3.30975E-19-8.98705E-19
 -1      3119 9.92113E-05-3.11886E-05-2.91264E-05-6.42442E-06-9.43418E-20-6.99240E-19
 -1      3120 9.98898E-05-3.28340E-05-2.87826E-05-7.33307E-06-8.90791E-20-7.21957E-19
 -1      3121 9.82911E-05-3.02650E-05-2.91503E-05-6.25727E-06 1.49768E-19-5.78199E-19
 -1      3122 9.75327E-05-2.95039E-05-2.91403E-05-6.18490E-06 1.16320E-19-4.98765E-19
 -1      3123 9.75997E-05-3.04118E-05-2.88247E-05-7.13194E-06 8.15495E-20-8.20277E-19
 -1      3124 9.69802E-05-2.89121E-05-2.91662E-05-5.86048E-06 4.34362E-20-4.42282E-19
 -1      3125 9.64623E-05-2.84249E-05-2.91518E-05-5.62991E-06 1.42286E-19-7.85416E-19
 -1      3126 9.61635E-05-2.87800E-05-2.88973E-05-6.53160E-06 2.06124E-19-6.30665E-19
 -1      3127 9.61612E-05-2.80889E-05-2.91674E-05-5.23827E-06 2.65460E-19-2.58330E-19
 -1      3128 9.58175E-05-2.78092E-05-2.91443E-05-4.92656E-06 1.53353E-19-2.15017E-19
 -1      3129 9.53362E-05-2.77922E-05-2.89583E-05-5.75064E-06 3.27412E-19-5.79192E-20
 -1      3130 9.56770E-05-2.76533E-05-2.91466E-05-4.52142E-06-1.15753E-19-3.57966E-20
 -1      3131 9.54526E-05-2.75183E-05-2.91156E-05-4.18082E-06 1.07363E-19-3.75069E-19
 -1      3132 9.49116E-05-2.72766E-05-2.89923E-05-4.91675E-06 4.32454E-19-3.18654E-19
 -1      3133 9.54081E-05-2.74798E-05-2.91061E-05-3.79361E-06 2.29939E-19-3.32325E-19
 -1      3134 9.52627E-05-2.74387E-05-2.90698E-05-3.45794E-06 7.33697E-19-6.75897E-19
 -1      3135 9.47369E-05-2.70811E-05-2.89982E-05-4.10372E-06 8.22089E-20-7.15442E-19
 -1      3136 9.52709E-05-2.74703E-05-2.90519E-05-3.10611E-06 1.09550E-18-1.38285E-18
 -1      3137 9.51765E-05-2.74856E-05-2.90135E-05-2.79566E-06 9.45920E-19-1.39201E-18
 -1      3138 9.47065E-05-2.70867E-05-2.89811E-05-3.35322E-06 4.86606E-19-2.49610E-19
 -1      3139 9.52100E-05-2.75542E-05-2.89904E-05-2.48752E-06 4.35895E-19-1.37156E-18
 -1      3140 9.51482E-05-2.75998E-05-2.89525E-05-2.21298E-06 5.60241E-20-1.12259E-18
 -1      3141 9.47513E-05-2.72071E-05-2.89478E-05-2.68663E-06 7.05259E-19-1.13508E-18
 -1      3142 9.51906E-05-2.76837E-05-2.89272E-05-1.95090E-06-3.52320E-19-1.14182E-18
 -1      3143 9.51495E-05-2.77424E-05-2.88917E-05-1.71639E-06-1.50586E-19-1.00499E-18
 -1      3144 9.48288E-05-2.73830E-05-2.89052E-05-2.11217E-06-1.17989E-19-1.07709E-18
 -1      3145 9.51917E-05-2.78280E-05-2.88664E-05-1.49896E-06 2.36290E-19-1.68764E-18
 -1      3146 9.51639E-05-2.78893E-05-2.88346E-05-1.30427E-06 8.98228E-20-1.60260E-18
 -1      3147 9.49142E-05-2.75764E-05-2.88588E-05-1.62951E-06-2.28200E-19-1.03675E-18
 -1      3148 9.52014E-05-2.79690E-05-2.88108E-05-1.12787E-06-3.25380E-20-1.86664E-18
 -1      3149 9.51823E-05-2.80267E-05-2.87831E-05-9.70195E-07 1.53036E-19-1.69264E-18
 -1      3150 9.49943E-05-2.77645E-05-2.88126E-05-1.23301E-06 1.46636E-19-2.32097E-18
 -1      3151 9.52133E-05-2.80967E-05-2.87617E-05-8.29999E-07 1.32475E-19-1.98814E-18
 -1      3152 9.51999E-05-2.81478E-05-2.87384E-05-7.05153E-07-2.61180E-19-1.94148E-18
 -1      3153 9.50632E-05-2.79347E-05-2.87692E-05-9.13963E-07-8.19806E-21-1.84778E-18
 -1      3154 9.52242E-05-2.82068E-05-2.87196E-05-5.95924E-07-4.13890E-20-1.57658E-18
 -1      3155 9.52146E-05-2.82501E-05-2.87005E-05-4.99162E-07 6.79036E-19-1.19981E-18
 -1      3156 9.51189E-05-2.80814E-05-2.87303E-05-6.62248E-07 8.83298E-20-1.65533E-18
 -1      3157 9.52329E-05-2.82982E-05-2.86846E-05-4.15725E-07 4.76131E-19-9.65833E-19
 -1      3158 9.52260E-05-2.83337E-05-2.86692E-05-3.42299E-07 8.99163E-19-6.42445E-19
 -1      3159 9.51619E-05-2.82034E-05-2.86965E-05-4.67450E-07 8.33902E-19-6.07580E-19
 -1      3160 9.52392E-05-2.83718E-05-2.86561E-05-2.79849E-07 5.09822E-19-1.61109E-19
 -1      3161 9.52342E-05-2.84001E-05-2.86440E-05-2.25335E-07-1.63946E-19-2.96342E-19
 -1      3162 9.51938E-05-2.83019E-05-2.86680E-05-3.19616E-07 7.83811E-19 6.27242E-20
 -1      3163 9.52433E-05-2.84296E-05-2.86334E-05-1.79602E-07 2.13178E-19-3.93728E-19
 -1      3164 9.52396E-05-2.84516E-05-2.86240E-05-1.40072E-07 4.02300E-19-6.51157E-20
 -1      3165 9.52163E-05-2.83793E-05-2.86445E-05-2.09694E-07 5.52036E-20 5.25910E-20
 -1      3166 9.52455E-05-2.84739E-05-2.86157E-05-1.07389E-07 4.31349E-19-1.30320E-21
 -1      3167 9.52429E-05-2.84906E-05-2.86085E-05-7.94809E-08 2.73692E-19 5.25926E-20
 -1      3168 9.52316E-05-2.84388E-05-2.86256E-05-1.29764E-07 3.92441E-19-4.87578E-19
 -1      3169 9.52464E-05-2.85070E-05-2.86021E-05-5.67851E-08 4.27228E-19 9.32363E-19
 -1      3170 9.52446E-05-2.85194E-05-2.85968E-05-3.77044E-08-2.24745E-20 1.47984E-18
 -1      3171 9.52414E-05-2.84834E-05-2.86107E-05-7.30941E-08 9.19412E-19 6.22080E-20
 -1      3172 9.52464E-05-2.85312E-05-2.85919E-05-2.24976E-08-1.11821E-18 1.59523E-18
 -1      3173 9.52451E-05-2.85402E-05-2.85880E-05-9.97828E-09-1.32756E-18 6.51317E-19
 -1      3174 9.52470E-05-2.85161E-05-2.85991E-05-3.41146E-08 2.42248E-19 3.32691E-19
 -1      3175 9.52459E-05-2.85483E-05-2.85844E-05-2.66545E-10-1.28587E-18 8.91253E-19
 -1      3176 9.52450E-05-2.85547E-05-2.85817E-05 7.48756E-09-7.48143E-19 8.88114E-19
 -1      3177 9.52498E-05-2.85393E-05-2.85903E-05-8.31559E-09-1.14240E-18-1.15177E-19
 -1      3178 9.52449E-05-2.85602E-05-2.85790E-05 1.32636E-08-4.45705E-19 8.96150E-19
 -1      3179 9.52444E-05-2.85645E-05-2.85772E-05 1.76469E-08-6.29086E-19 4.79322E-19
 -1      3180 9.52507E-05-2.85554E-05-2.85838E-05 7.87817E-09-7.84159E-19 1.14689E-18
 -1      3181 9.52439E-05-2.85680E-05-2.85753E-05 2.06826E-08-8.41122E-19 2.44836E-19
 -1      3182 9.52435E-05-2.85708E-05-2.85741E-05 2.27548E-08-1.08856E-18-6.73001E-19
 -1      3183 9.52503E-05-2.85661E-05-2.85790E-05 1.72452E-08-8.34466E-19-2.47818E-19
 -1      3184 9.52428E-05-2.85728E-05-2.85727E-05 2.39478E-08-4.83106E-19 6.65328E-19
 -1      3185 9.52426E-05-2.85746E-05-2.85720E-05 2.44966E-08 5.33508E-19 3.43621E-19
 -1      3186 9.52492E-05-2.85728E-05-2.85757E-05 2.19019E-08-1.13686E-19-1.21543E-19
 -1      3187 9.52417E-05-2.85757E-05-2.85711E-05 2.45055E-08 6.34864E-19-3.29641E-19
 -1      3188 9.52416E-05-2.85766E-05-2.85707E-05 2.41019E-08 7.20255E-19-8.25725E-19
 -1      3189 9.52477E-05-2.85767E-05-2.85733E-05 2.34269E-08-2.61578E-19 8.97323E-19
 -1      3190 9.52408E-05-2.85771E-05-2.85701E-05 2.33973E-08 1.18763E-18-1.73083E-18
 -1      3191 9.52407E-05-2.85775E-05-2.85699E-05 2.24427E-08 1.02337E-18-1.32293E-18
 -1      3192 9.52461E-05-2.85787E-05-2.85718E-05 2.29692E-08 3.13512E-19 2.84699E-20
 -1      3193 9.52399E-05-2.85775E-05-2.85696E-05 2.13501E-08 5.82530E-19-1.91467E-18
 -1      3194 9.52400E-05-2.85777E-05-2.85695E-05 2.01154E-08-1.88523E-20-1.35670E-18
 -1      3195 9.52445E-05-2.85794E-05-2.85708E-05 2.13426E-08 9.13718E-19-1.30048E-18
 -1      3196 9.52393E-05-2.85775E-05-2.85693E-05 1.88490E-08-9.07662E-19-8.18566E-19
 -1      3197 9.52394E-05-2.85775E-05-2.85694E-05 1.75060E-08-7.50157E-19-2.25463E-18
 -1      3198 9.52430E-05-2.85794E-05-2.85701E-05 1.91020E-08-1.34519E-19-1.95780E-18
 -1      3199 9.52388E-05-2.85772E-05-2.85692E-05 1.61989E-08-2.64310E-19-2.05164E-18
 -1      3200 9.52389E-05-2.85771E-05-2.85693E-05 1.48416E-08-7.54010E-20-1.78515E-18
 -1      3201 9.52417E-05-2.85790E-05-2.85698E-05 1.66071E-08-2.18642E-19-1.45575E-18
 -1      3202 9.52383E-05-2.85768E-05-2.85692E-05 1.37471E-08-4.24362E-20-1.79914E-18
 -1      3203 9.52385E-05-2.85768E-05-2.85693E-05 1.24052E-08 3.01648E-19-2.37070E-18
 -1      3204 9.52397E-05-2.85778E-05-2.85694E-05 1.20995E-08-1.18406E-18-4.25676E-18
 -1      3205 9.52406E-05-2.85783E-05-2.85695E-05 1.42544E-08 7.18948E-20-1.37217E-18
 -1      3206 1.14225E-04-1.30009E-05-4.37614E-05-4.90208E-06-3.76104E-18-3.92017E-19
 -1      3207 1.16606E-04-1.66627E-05-4.31591E-05-1.08817E-05-3.19411E-18 2.57710E-19
 -1      3208 1.32465E-04-5.44145E-05-3.34987E-05-4.97169E-07 5.63145E-20-3.57811E-18
 -1      3209 1.35588E-04-5.19578E-05-3.58419E-05-6.16955E-06 7.41630E-19-4.25052E-18
 -1      3210 1.01171E-04-3.32877E-05-2.90244E-05 1.41236E-05-4.38829E-19-1.82535E-18
 -1      3211 1.03909E-04-3.61676E-05-2.90013E-05 1.39396E-05-9.59865E-19-1.93860E-18
 -1      3212 9.78631E-05-2.94314E-05-2.93053E-05 1.29364E-05 1.39639E-19-1.38631E-18
 -1      3213 9.95075E-05-3.11934E-05-2.92474E-05 1.32989E-05 9.38453E-20-1.47641E-18
 -1      3214 9.62714E-05-3.09412E-05-2.80807E-05 1.52715E-05-4.31085E-19-1.14437E-18
 -1      3215 9.62797E-05-2.73859E-05-2.95233E-05 1.13260E-05 2.58476E-19-1.78008E-18
 -1      3216 9.72072E-05-2.83191E-05-2.94969E-05 1.19600E-05 1.13225E-19-1.71502E-18
 -1      3217 9.41306E-05-2.74974E-05-2.85882E-05 1.31780E-05 4.33979E-19-1.04370E-18
 -1      3218 9.56262E-05-2.65122E-05-2.96265E-05 9.65068E-06 1.17973E-19-1.73793E-18
 -1      3219 9.61455E-05-2.69275E-05-2.96453E-05 1.03848E-05 3.85402E-19-1.61160E-18
 -1      3220 9.34566E-05-2.58779E-05-2.89699E-05 1.11623E-05 3.00659E-19-1.11893E-18
 -1      3221 9.54121E-05-2.63010E-05-2.96284E-05 8.05374E-06 8.43531E-20-2.05623E-18
 -1      3222 9.57197E-05-2.64249E-05-2.96827E-05 8.79151E-06-8.01639E-20-2.14075E-18
 -1      3223 9.34754E-05-2.53400E-05-2.91985E-05 9.34429E-06 5.33345E-20-1.72324E-18
 -1      3224 9.53767E-05-2.64248E-05-2.95605E-05 6.60079E-06 1.47630E-19-1.13606E-18
 -1      3225 9.55796E-05-2.64005E-05-2.96358E-05 7.28910E-06 2.23649E-20-1.38247E-18
 -1      3226 9.37652E-05-2.53845E-05-2.93003E-05 7.73024E-06-2.62750E-19-1.19236E-18
 -1      3227 9.53947E-05-2.66915E-05-2.94531E-05 5.32120E-06 3.04879E-19-1.15740E-18
 -1      3228 9.55454E-05-2.66018E-05-2.95366E-05 5.93361E-06 3.84632E-19-1.35010E-18
 -1      3229 9.41153E-05-2.57052E-05-2.93127E-05 6.31330E-06 5.01564E-19-1.01987E-19
 -1      3230 9.54145E-05-2.69972E-05-2.93292E-05 4.22294E-06 7.61141E-19-9.48206E-19
 -1      3231 9.55364E-05-2.68867E-05-2.94119E-05 4.74962E-06 7.32805E-19-1.17569E-18
 -1      3232 9.44327E-05-2.61267E-05-2.92693E-05 5.08597E-06 5.46245E-19-6.45053E-19
 -1      3233 9.54201E-05-2.72912E-05-2.92042E-05 3.30071E-06 8.49917E-19-1.02388E-18
 -1      3234 9.55226E-05-2.71818E-05-2.92806E-05 3.74193E-06 1.00831E-18-7.77273E-19
 -1      3235 9.46869E-05-2.65561E-05-2.91955E-05 4.03935E-06 7.97531E-19-6.10901E-19
 -1      3236 9.54111E-05-2.75517E-05-2.90874E-05 2.54102E-06-4.18684E-19-1.31643E-18
 -1      3237 9.54978E-05-2.74531E-05-2.91548E-05 2.90281E-06 1.39861E-19-1.34501E-18
 -1      3238 9.48760E-05-2.69495E-05-2.91092E-05 3.16164E-06 1.00478E-18-3.77881E-19
 -1      3239 9.53919E-05-2.77723E-05-2.89836E-05 1.92592E-06 8.35990E-19-2.18101E-18
 -1      3240 9.54643E-05-2.76877E-05-2.90410E-05 2.21721E-06 1.92560E-20-1.82858E-18
 -1      3241 9.50100E-05-2.72900E-05-2.90216E-05 2.43777E-06 4.69576E-19-1.57462E-18
 -1      3242 9.53677E-05-2.79539E-05-2.88945E-05 1.43579E-06 8.31697E-19-2.48222E-18
 -1      3243 9.54270E-05-2.78834E-05-2.89422E-05 1.66651E-06 1.08995E-18-1.44532E-18
 -1      3244 9.51012E-05-2.75744E-05-2.89395E-05 1.85041E-06 6.98974E-19-1.09100E-18
 -1      3245 9.53425E-05-2.81004E-05-2.88202E-05 1.05117E-06 3.70472E-19-2.47694E-18
 -1      3246 9.53900E-05-2.80430E-05-2.88589E-05 1.23111E-06 8.69883E-19-2.33099E-18
 -1      3247 9.51613E-05-2.78065E-05-2.88662E-05 1.38123E-06 1.01270E-18-7.79876E-19
 -1      3248 9.53190E-05-2.82170E-05-2.87596E-05 7.53885E-07-1.84903E-19-2.97269E-18
 -1      3249 9.53561E-05-2.81708E-05-2.87904E-05 8.92101E-07-1.10368E-19-2.37095E-18
 -1      3250 9.51996E-05-2.79925E-05-2.88032E-05 1.01220E-06 2.88694E-19-9.27315E-19
 -1      3251 9.52984E-05-2.83085E-05-2.87112E-05 5.27635E-07-1.07613E-18-3.46361E-18
 -1      3252 9.53268E-05-2.82718E-05-2.87352E-05 6.32159E-07-2.48888E-19-3.15002E-18
 -1      3253 9.52232E-05-2.81396E-05-2.87504E-05 7.26398E-07-1.99317E-19-1.47324E-18
 -1      3254 9.52814E-05-2.83795E-05-2.86731E-05 3.58239E-07-6.99747E-19-3.01314E-18
 -1      3255 9.53026E-05-2.83507E-05-2.86916E-05 4.35985E-07-7.49430E-19-2.88101E-18
 -1      3256 9.52370E-05-2.82543E-05-2.87072E-05 5.08539E-07-1.04851E-18-1.20935E-18
 -1      3257 9.52679E-05-2.84339E-05-2.86437E-05 2.33655E-07-1.40272E-18-2.48542E-18
 -1      3258 9.52833E-05-2.84116E-05-2.86577E-05 2.90434E-07-1.22350E-18-2.89668E-18
 -1      3259 9.52445E-05-2.83427E-05-2.86725E-05 3.45230E-07-9.20875E-19-5.73705E-19
 -1      3260 9.52575E-05-2.84751E-05-2.86215E-05 1.43858E-07-9.25564E-19-1.78322E-18
 -1      3261 9.52684E-05-2.84581E-05-2.86318E-05 1.84464E-07-1.42978E-18-1.77751E-18
 -1      3262 9.52480E-05-2.84099E-05-2.86452E-05 2.25024E-07-1.59254E-18-1.54800E-18
 -1      3263 9.52499E-05-2.85059E-05-2.86049E-05 8.06451E-08-4.79034E-19-2.47748E-18
 -1      3264 9.52573E-05-2.84930E-05-2.86124E-05 1.08971E-07-3.12347E-19-2.08511E-18
 -1      3265 9.52492E-05-2.84603E-05-2.86241E-05 1.38340E-07-7.34348E-19-2.44166E-18
 -1      3266 9.52444E-05-2.85284E-05-2.85927E-05 3.74195E-08-8.60478E-19-1.47560E-18
 -1      3267 9.52492E-05-2.85188E-05-2.85981E-05 5.65726E-08-7.71581E-19-1.62411E-18
 -1      3268 9.52490E-05-2.84975E-05-2.86080E-05 7.73121E-08-9.60854E-19-8.39769E-19
 -1      3269 9.52406E-05-2.85447E-05-2.85841E-05 8.95320E-09-1.76572E-19-1.20647E-18
 -1      3270 9.52435E-05-2.85377E-05-2.85878E-05 2.13791E-08-5.08668E-19-1.77922E-18
 -1      3271 9.52480E-05-2.85245E-05-2.85960E-05 3.55892E-08-6.19816E-19 6.63686E-19
 -1      3272 9.52381E-05-2.85561E-05-2.85781E-05-8.83192E-09-1.99768E-18-1.42794E-18
 -1      3273 9.52397E-05-2.85511E-05-2.85805E-05-1.23752E-09-1.20416E-18-1.52032E-18
 -1      3274 9.52467E-05-2.85436E-05-2.85872E-05 8.12949E-09-7.01891E-19-1.46264E-19
 -1      3275 9.52365E-05-2.85639E-05-2.85740E-05-1.90670E-08 2.25785E-19-8.63647E-19
 -1      3276 9.52372E-05-2.85604E-05-2.85756E-05-1.48576E-08-6.42904E-19-7.65888E-19
 -1      3277 9.52452E-05-2.85569E-05-2.85809E-05-9.00635E-09-1.52060E-18-1.65015E-18
 -1      3278 9.52356E-05-2.85691E-05-2.85714E-05-2.41161E-08-1.06511E-18 8.21606E-19
 -1      3279 9.52357E-05-2.85667E-05-2.85723E-05-2.22067E-08-2.39988E-19 4.66795E-19
 -1      3280 9.52439E-05-2.85657E-05-2.85764E-05-1.88457E-08-7.12213E-19 1.27799E-19
 -1      3281 9.52352E-05-2.85723E-05-2.85698E-05-2.57311E-08-9.42792E-19-2.05855E-19
 -1      3282 9.52350E-05-2.85707E-05-2.85703E-05-2.53233E-08-9.38045E-19 8.06462E-20
 -1      3283 9.52426E-05-2.85714E-05-2.85735E-05-2.36750E-08-7.58556E-19 8.17149E-19
 -1      3284 9.52351E-05-2.85741E-05-2.85690E-05-2.51822E-08-1.58633E-18-9.19239E-19
 -1      3285 9.52347E-05-2.85732E-05-2.85692E-05-2.57020E-08-1.03143E-18-5.77649E-19
 -1      3286 9.52415E-05-2.85747E-05-2.85715E-05-2.51890E-08-9.15565E-19-1.54911E-19
 -1      3287 9.52352E-05-2.85751E-05-2.85686E-05-2.33650E-08 3.95664E-20-4.64554E-19
 -1      3288 9.52347E-05-2.85746E-05-2.85686E-05-2.44119E-08-1.53713E-18-6.38820E-19
 -1      3289 9.52405E-05-2.85765E-05-2.85703E-05-2.46155E-08-1.57802E-18-5.00422E-19
 -1      3290 9.52355E-05-2.85755E-05-2.85685E-05-2.08884E-08 1.97580E-18 2.63876E-19
 -1      3291 9.52348E-05-2.85752E-05-2.85684E-05-2.21945E-08 1.61963E-18 2.89588E-19
 -1      3292 9.52397E-05-2.85773E-05-2.85697E-05-2.28193E-08 7.84170E-20-1.96087E-19
 -1      3293 9.52358E-05-2.85755E-05-2.85687E-05-1.81431E-08 2.20783E-18-9.17212E-19
 -1      3294 9.52352E-05-2.85754E-05-2.85685E-05-1.95402E-08 2.54584E-18 1.09494E-20
 -1      3295 9.52391E-05-2.85774E-05-2.85693E-05-2.03868E-08 2.44192E-18-1.98707E-20
 -1      3296 9.52361E-05-2.85754E-05-2.85689E-05-1.53638E-08 2.61172E-18-1.59853E-18
 -1      3297 9.52356E-05-2.85753E-05-2.85687E-05-1.67587E-08 2.10265E-18-8.31414E-19
 -1      3298 9.52386E-05-2.85772E-05-2.85692E-05-1.76962E-08 2.22641E-18-2.44548E-19
 -1      3299 9.52365E-05-2.85753E-05-2.85691E-05-1.26649E-08 2.48616E-18-2.29186E-18
 -1      3300 9.52360E-05-2.85753E-05-2.85689E-05-1.39992E-08 2.86673E-18-2.07941E-18
 -1      3301 9.52383E-05-2.85769E-05-2.85692E-05-1.49724E-08 3.59964E-18-9.18377E-19
 -1      3302 9.52374E-05-2.85759E-05-2.85692E-05-1.09568E-08 1.81892E-19-2.07725E-19
 -1      3303 9.52367E-05-2.85755E-05-2.85691E-05-1.18858E-08 1.70290E-18-1.04523E-18
 -1      3304 9.52384E-05-2.85768E-05-2.85693E-05-1.27909E-08 2.24500E-18 1.69453E-19
 -1      3305 9.52388E-05-2.85770E-05-2.85693E-05-1.11603E-08 7.89512E-19-2.08593E-19
 -1      3306 1.09072E-04-3.37866E-05-3.23607E-05-4.98050E-06-5.78622E-19-9.44807E-19
 -1      3307 1.10651E-04-3.49562E-05-3.23661E-05-5.80434E-06-4.75500E-19-6.70272E-19
 -1      3308 1.12201E-04-3.68395E-05-3.23754E-05-6.49866E-06-3.56555E-19-5.40161E-19
 -1      3309 1.07277E-04-3.30300E-05-3.17189E-05-1.85491E-06-1.53143E-19-1.17930E-18
 -1      3310 4.79655E-05-1.89341E-07-2.04160E-05 4.68627E-06 9.74250E-19-4.23405E-18
 -1      3311 4.97574E-05-1.30484E-06-2.05678E-05 1.02316E-05 1.16574E-18-4.24988E-18
 -1      3312 9.52472E-05-2.85840E-05-2.85699E-05 9.58621E-10-4.01044E-20 2.37339E-18
 -1      3313 9.52472E-05-2.85840E-05-2.85699E-05-8.68710E-10 1.19543E-19 3.45824E-18
 -1      3314 9.52424E-05-2.85801E-05-2.85696E-05 1.02561E-08-1.20430E-18-2.28572E-19
 -1      3315 9.52437E-05-2.85811E-05-2.85697E-05 9.30809E-09-1.38167E-18 4.19311E-19
 -1      3316 1.02954E-04-4.43747E-05-2.51864E-05 2.81992E-05 1.63763E-18-1.74211E-18
 -1      3317 8.77232E-05-3.66837E-05-2.13593E-05 3.38675E-05 1.87157E-18-2.75775E-18
 -1      3318 7.98215E-05-3.10881E-05-2.05035E-05-2.76114E-05-8.40310E-19-2.97123E-18
 -1      3319 9.76631E-05-4.20809E-05-2.38956E-05-2.61090E-05-7.91129E-19-2.15472E-18
 -1      3320 9.52449E-05-2.85821E-05-2.85698E-05 7.90433E-09-1.58656E-18-6.36624E-19
 -1      3321 9.52458E-05-2.85828E-05-2.85698E-05 6.47136E-09-1.60654E-18 6.42318E-19
 -1      3322 9.52452E-05-2.85819E-05-2.85700E-05 9.35599E-09-2.39677E-18 5.09316E-20
 -1      3323 1.07294E-04-3.95895E-05-2.88693E-05 1.41672E-05-1.46028E-18-2.33227E-18
 -1      3324 1.11236E-04-4.35744E-05-2.90333E-05 1.29413E-05-1.11377E-18-2.17452E-18
 -1      3325 1.01027E-04-3.69576E-05-2.76227E-05 1.69357E-05-1.47383E-18-1.30292E-18
 -1      3326 1.27665E-04-5.48338E-05-3.08745E-05-9.97209E-06 7.46855E-19-3.39078E-18
 -1      3327 1.30542E-04-5.14573E-05-3.44285E-05-1.10987E-06 7.67855E-20-3.84786E-18
 -1      3328 5.25099E-05-1.19232E-05-1.70433E-05-1.92023E-05-2.22452E-19-4.16010E-18
 -1      3329 6.49355E-05-2.08673E-05-1.87076E-05-2.59632E-05-5.22196E-19-3.61704E-18
 -1      3330 1.19246E-04-4.91759E-05-2.98539E-05 1.00751E-05-7.95806E-19-2.71170E-18
 -1      3331 1.23771E-04-5.23391E-05-3.06669E-05 6.67935E-06-6.39033E-19-2.73130E-18
 -1      3332 1.29487E-04-5.58515E-05-3.16912E-05 6.55832E-06-4.60521E-19-3.83134E-18
 -1      3333 1.12042E-04-4.69165E-05-2.80399E-05 1.59712E-05-9.97845E-19-2.16273E-18
 -1      3334 4.55885E-05-1.16504E-05-1.42013E-05-6.58692E-06 1.12079E-18 2.65640E-18
 -1      3335 4.98375E-05-1.50941E-05-1.46242E-05-1.83325E-05 1.50475E-18 3.54801E-18
 -1      3336 5.04462E-05-1.59877E-05-1.45484E-05 1.76611E-05-6.41945E-19 2.11049E-18
 -1      3337 4.52721E-05-1.18446E-05-1.40545E-05 5.49156E-06 7.79932E-20 2.56566E-18
 -1      3338 1.28071E-04-2.59181E-05-4.40841E-05-1.28105E-05-3.01988E-18 5.80429E-19
 -1      3339 1.15342E-04-3.84644E-05-3.28387E-05-8.62028E-06-3.43909E-19-2.32166E-19
 -1      3340 1.15504E-04-3.79736E-05-3.32879E-05-9.74950E-06-6.59514E-19-2.49064E-19
 -1      3341 1.18281E-04-3.90224E-05-3.40967E-05-1.00782E-05-6.73927E-19 2.21013E-19
 -1      3342 1.29164E-04-4.01248E-05-3.86756E-05-9.84571E-06-1.27314E-18 7.04626E-19
 -1      3343 1.30884E-04-4.59885E-05-3.62745E-05-4.07479E-06-3.48501E-19 3.74389E-19
 -1      3344 1.06923E-04-5.11732E-05-2.35155E-05-3.00537E-05 2.26512E-18-1.00204E-18
 -1      3345 1.18885E-04-5.56857E-05-2.74391E-05-2.18508E-05 1.19215E-18-2.26850E-18
 -1      3346 1.31561E-04-4.39149E-05-3.74867E-05 7.11532E-06-7.19025E-19-3.95353E-18
 -1      3347 1.29392E-04-3.59119E-05-4.05827E-05 1.09188E-05-1.28167E-18-3.62472E-18
 -1      3348 1.24351E-04-3.27966E-05-3.94823E-05 1.20021E-05-1.32926E-18-3.61895E-18
 -1      3349 1.18915E-04-1.50327E-05-4.49028E-05 8.43727E-06-3.58200E-18-2.37646E-18
 -1      3350 1.15355E-04-1.12188E-05-4.50421E-05 2.50013E-06-3.91372E-18-1.51653E-18
 -1      3351 1.17083E-04-1.94402E-05-4.21254E-05 9.85895E-06-2.57016E-18-3.00114E-18
 -1      3352 1.12617E-04-4.85167E-05-2.70349E-05-1.88423E-05-8.55689E-19-1.23260E-18
 -1      3353 1.23262E-04-5.26464E-05-3.04999E-05-1.00003E-05-4.66728E-19-2.85549E-19
 -1      3354 9.52465E-05-2.85834E-05-2.85699E-05 4.66807E-09-1.83500E-18-1.00932E-18
 -1      3355 9.52470E-05-2.85838E-05-2.85699E-05 2.97336E-09-6.23785E-19 4.58290E-20
 -1      3356 9.52483E-05-2.85843E-05-2.85703E-05 2.12273E-09-6.51539E-19 9.35184E-19
 -1      3357 9.52472E-05-2.85835E-05-2.85702E-05 6.04542E-09-2.16819E-18-2.45754E-19
 -1      3358 1.09033E-04-3.66456E-05-3.08553E-05-7.37611E-06 2.80414E-19-7.28925E-19
 -1      3359 1.01307E-04-3.21361E-05-2.96775E-05-9.57419E-06 2.82836E-19-1.17424E-18
 -1      3360 1.00323E-04-3.48068E-05-2.81411E-05-1.35583E-05-1.14085E-19-1.25291E-18
 -1      3361 1.13240E-04-4.15693E-05-3.07468E-05-7.32577E-06-2.05141E-22-5.29640E-19
 -1      3362 7.43466E-05-3.11614E-05-1.84514E-05 3.04028E-05-2.02721E-18 4.07899E-19
 -1      3363 6.09285E-05-2.20519E-05-1.62676E-05 2.47019E-05-1.38223E-18 6.56398E-19
 -1      3364 4.68480E-05-8.73334E-06-1.59881E-05 2.35179E-05 1.75505E-18-4.66683E-18
 -1      3365 3.80644E-05-3.17548E-06-1.44769E-05 1.39759E-05 1.31666E-18-4.95652E-18
 -1      3366 8.73674E-05-4.10430E-05-1.95395E-05-3.50307E-05 2.86975E-18 7.53224E-19
 -1      3367 9.79871E-05-4.74591E-05-2.16447E-05-3.41626E-05 2.63824E-18 2.77271E-19
 -1      3368 1.05347E-04-4.88023E-05-2.39922E-05-2.77096E-05 2.08704E-18-7.34809E-19
 -1      3369 1.00963E-04-4.75293E-05-2.27879E-05 2.98268E-05-1.92917E-18-9.07463E-19
 -1      3370 8.84790E-05-3.99018E-05-2.04554E-05 3.09672E-05-2.43241E-18-1.86718E-19
 -1      3371 5.87707E-05-2.21248E-05-1.54058E-05-2.74798E-05 2.17984E-18 2.78420E-18
 -1      3372 7.26033E-05-3.19591E-05-1.72702E-05-3.44386E-05 2.57048E-18 1.76818E-18
 -1      3373 1.21184E-04-2.17571E-05-4.31109E-05-1.32862E-05-3.06790E-18 5.82838E-19
 -1      3374 1.26320E-04-3.07745E-05-4.10032E-05-1.40842E-05-2.28011E-18 8.97961E-19
 -1      3375 5.53746E-05-5.17383E-06-2.15845E-05 1.64648E-05 1.42082E-18-4.11187E-18
 -1      3376 6.29330E-05-9.46457E-06-2.25879E-05 1.92018E-05 1.56676E-18-3.93262E-18
 -1      3377 8.46123E-05-3.42653E-05-2.12287E-05 2.69765E-05-1.96030E-18 4.06311E-20
 -1      3378 1.01097E-04-3.14744E-05-2.98080E-05 6.97390E-06 6.70226E-19-1.55700E-18
 -1      3379 1.04812E-04-3.32515E-05-3.07836E-05 3.26122E-06 2.55155E-19-1.47670E-18
 -1      3380 1.11954E-04-1.49588E-05-4.18108E-05-1.86465E-06-3.08849E-18-1.17229E-18
 -1      3381 1.08646E-04-1.64721E-05-3.96688E-05 1.33712E-06-2.59110E-18-1.71641E-18
 -1      3382 1.09368E-04-1.81642E-05-3.92846E-05 5.80039E-06-2.35525E-18-2.16478E-18
 -1      3383 5.15174E-05-1.26260E-05-1.62634E-05-2.43544E-07 6.05200E-19 2.16893E-18
 -1      3384 7.89243E-05-2.33271E-05-2.37057E-05-1.90002E-05-2.86297E-19-2.77070E-18
 -1      3385 7.19879E-05-1.58867E-05-2.38029E-05-1.53528E-05 3.57871E-20-3.07018E-18
 -1      3386 1.12035E-04-4.72596E-05-2.75119E-05 2.16719E-05 1.45817E-18-1.27108E-18
 -1      3387 1.03350E-04-4.16596E-05-2.63689E-05 2.28286E-05 1.62191E-18-1.60833E-18
 -1      3388 1.17060E-04-4.77287E-05-2.98851E-05 1.32951E-05 1.20522E-18-6.32571E-19
 -1      3389 7.68508E-05-2.51613E-05-2.18517E-05-2.26754E-05-6.05020E-19-3.10035E-18
 -1      3390 9.52437E-05-2.85811E-05-2.85697E-05-9.29215E-09 1.02613E-18 1.54092E-19
 -1      3391 9.52425E-05-2.85801E-05-2.85696E-05-1.02433E-08 1.13272E-18 2.97462E-18
 -1      3392 1.28145E-04-4.70063E-05-3.48458E-05 4.03981E-06-1.89166E-19-3.74058E-18
 -1      3393 9.52458E-05-2.85828E-05-2.85698E-05-6.45093E-09 7.18100E-19-9.91116E-19
 -1      3394 9.52449E-05-2.85821E-05-2.85698E-05-7.88926E-09 7.27999E-19-1.01336E-18
 -1      3395 9.52452E-05-2.85820E-05-2.85700E-05-9.33525E-09 8.91662E-19-6.93157E-19
 -1      3396 6.05478E-05-1.96361E-05-1.71418E-05-2.13007E-05 1.60461E-18 2.82305E-18
 -1      3397 9.52470E-05-2.85838E-05-2.85699E-05-2.89903E-09 4.67110E-19 2.31467E-18
 -1      3398 9.52465E-05-2.85834E-05-2.85699E-05-4.62854E-09 9.72478E-19-2.49597E-19
 -1      3399 9.52473E-05-2.85836E-05-2.85702E-05-5.99417E-09 8.83901E-19-7.87518E-20
 -1      3400 9.52484E-05-2.85844E-05-2.85703E-05-2.03420E-09 2.41344E-20 2.12579E-18
 -1      3401 1.14099E-04-3.86835E-05-3.24693E-05-5.71412E-06-2.95749E-19-4.67623E-19
 -1      3402 8.20745E-05-3.14378E-05-2.14174E-05 3.19243E-05 1.86008E-18-2.98828E-18
 -1      3403 1.26639E-04-4.74174E-05-3.40600E-05 6.51957E-07 1.50388E-19 1.82694E-19
 -1      3404 1.08271E-04-5.00868E-05-2.49634E-05 2.44674E-05-1.73366E-18-1.89896E-18
 -1      3405 9.52407E-05-2.85785E-05-2.85695E-05 1.15881E-08-2.51268E-18-3.13439E-18
 -1      3406 9.52416E-05-2.85794E-05-2.85695E-05 1.09627E-08-1.59574E-18-1.27195E-18
 -1      3407 9.52429E-05-2.85802E-05-2.85697E-05 1.14418E-08-2.66788E-18-4.13797E-19
 -1      3408 9.52411E-05-2.85788E-05-2.85696E-05 1.26514E-08-1.73471E-18-2.10299E-18
 -1      3409 1.04306E-04-4.22246E-05-2.65128E-05-1.90854E-05-5.72171E-19-1.52144E-18
 -1      3410 1.22830E-04-4.98938E-05-3.13133E-05-5.41427E-06-3.89145E-19-5.41108E-20
 -1      3411 1.17525E-04-4.54470E-05-3.06853E-05-7.55452E-06-3.95584E-19-3.84689E-19
 -1      3412 3.83016E-05-1.94450E-06-1.50993E-05 9.47043E-06 1.10781E-18-4.88209E-18
 -1      3413 4.08909E-05-1.21798E-06-1.67426E-05 2.88143E-06 8.57892E-19-4.67837E-18
 -1      3414 1.21314E-04-5.34811E-05-2.90222E-05-1.41363E-05 1.13222E-18-2.96514E-18
 -1      3415 6.22959E-05-1.95830E-05-1.78892E-05 1.91246E-05-7.87899E-19 8.07328E-19
 -1      3416 6.20923E-05-1.02350E-05-2.21992E-05-1.38322E-05 1.26684E-19-3.43054E-18
 -1      3417 1.24565E-04-3.55308E-05-3.83123E-05-1.22721E-05-1.45451E-18 7.90626E-19
 -1      3418 1.30078E-04-5.34421E-05-3.26062E-05-1.92275E-06-2.13386E-19 2.44131E-19
 -1      3419 8.35188E-05-3.60515E-05-1.99993E-05-3.13707E-05 2.67827E-18 9.40365E-19
 -1      3420 5.42139E-05-1.15134E-05-1.78150E-05 2.55358E-05 1.82933E-18-4.46958E-18
 -1      3421 5.16866E-05-6.32996E-06-1.90812E-05 1.96550E-05 1.56902E-18-4.38917E-18
 -1      3422 4.49127E-05-2.62498E-06-1.79648E-05 1.26884E-05 1.34411E-18-4.57228E-18
 -1      3423 8.95040E-05-2.60677E-05-2.72305E-05 1.56167E-05 1.17851E-18-2.22762E-18
 -1      3424 9.61711E-05-2.94233E-05-2.85125E-05 1.21548E-05 9.13790E-19-2.00808E-18
 -1      3425 1.02358E-04-3.45657E-05-2.90588E-05 1.05590E-05 7.47159E-19-1.54853E-18
 -1      3426 1.33165E-04-5.23423E-05-3.49232E-05 4.32567E-06 3.52300E-19 7.07868E-19
 -1      3427 9.28538E-05-3.78798E-05-2.36197E-05 2.52916E-05-1.88761E-18-2.24887E-19
 -1      3428 8.10426E-05-2.95481E-05-2.18346E-05 2.42779E-05-1.78752E-18 6.90067E-20
 -1      3429 1.30617E-04-5.82255E-05-3.11222E-05 9.99979E-06-5.96205E-19-3.84024E-18
 -1      3430 1.38571E-04-5.00659E-05-3.82115E-05-9.97290E-06 1.28977E-18-4.77727E-18
 -1      3431 1.13367E-04-1.85087E-05-4.08765E-05 8.94698E-06-2.52268E-18-2.76937E-18
 -1      3432 4.50303E-05-6.04861E-06-1.63703E-05-1.27528E-05 1.31449E-19-4.55026E-18
 -1      3433 5.55242E-05-9.03074E-06-1.95400E-05-1.39109E-05-2.85741E-20-3.98751E-18
 -1      3434 1.15910E-04-2.19082E-05-4.04571E-05-1.18778E-05-2.60656E-18 3.85863E-19
 -1      3435 5.50955E-05-4.54179E-06-2.15151E-05-7.89839E-06 4.05052E-19-3.79537E-18
 -1      3436 1.20295E-04-4.56266E-05-3.19829E-05 2.85946E-06 1.73304E-19-2.89209E-18
 -1      3437 1.18419E-04-4.63862E-05-3.07883E-05-5.99479E-07 3.62782E-19-2.51693E-18
 -1      3438 1.14396E-04-4.49667E-05-2.97928E-05-3.52289E-06 6.86418E-19-2.41218E-18
 -1      3439 1.11787E-04-4.34392E-05-2.91855E-05-5.68586E-06 1.03828E-18-2.21602E-18
 -1      3440 1.16571E-04-4.73082E-05-2.97433E-05-5.64939E-06 5.63935E-19-3.11774E-18
 -1      3441 1.08156E-04-4.10794E-05-2.87667E-05-7.10882E-06 7.97005E-19-1.90935E-18
 -1      3442 1.05623E-04-3.89143E-05-2.85054E-05-8.19844E-06 5.49673E-19-1.69101E-18
 -1      3443 1.08926E-04-4.29529E-05-2.83742E-05-9.55494E-06 9.83275E-19-2.40716E-18
 -1      3444 1.02944E-04-3.66635E-05-2.84020E-05-8.48558E-06 3.59216E-19-1.01662E-18
 -1      3445 1.00921E-04-3.46921E-05-2.83306E-05-8.84616E-06 3.20840E-19-5.36263E-19
 -1      3446 1.02641E-04-3.77432E-05-2.79083E-05-1.06467E-05 9.80733E-19-1.55923E-18
 -1      3447 9.91647E-05-3.29289E-05-2.83722E-05-8.55847E-06 4.29001E-20-4.20011E-19
 -1      3448 9.77291E-05-3.14169E-05-2.83896E-05-8.48695E-06 3.99470E-20-5.20401E-19
 -1      3449 9.83006E-05-3.33605E-05-2.78973E-05-1.02174E-05 1.08833E-19-5.86343E-19
 -1      3450 9.66927E-05-3.01939E-05-2.84828E-05-7.95971E-06 4.28819E-20-4.63799E-19
 -1      3451 9.57606E-05-2.91575E-05-2.85298E-05-7.66357E-06 1.16746E-19-4.65152E-19
 -1      3452 9.55984E-05-3.01885E-05-2.80730E-05-9.13240E-06 1.80519E-19-5.53837E-19
 -1      3453 9.52213E-05-2.83917E-05-2.86266E-05-7.07396E-06 2.81951E-19-8.69026E-20
 -1      3454 9.46631E-05-2.77481E-05-2.86728E-05-6.67578E-06 5.86158E-19 2.04571E-19
 -1      3455 9.40916E-05-2.81261E-05-2.82941E-05-7.86088E-06 3.34533E-19 1.88721E-20
 -1      3456 9.44439E-05-2.73268E-05-2.87528E-05-6.10258E-06 5.89205E-19-5.77176E-21
 -1      3457 9.41403E-05-2.69749E-05-2.87855E-05-5.67229E-06 5.63352E-19 1.75100E-19
 -1      3458 9.33791E-05-2.69203E-05-2.84944E-05-6.61597E-06 3.91380E-19 2.08274E-19
 -1      3459 9.41137E-05-2.67935E-05-2.88424E-05-5.14774E-06 1.09836E-19-1.47797E-19
 -1      3460 9.39724E-05-2.66424E-05-2.88589E-05-4.72445E-06 3.32563E-19-5.59295E-19
 -1      3461 9.31617E-05-2.63263E-05-2.86491E-05-5.47972E-06 4.02751E-19-1.38664E-19
 -1      3462 9.40524E-05-2.66174E-05-2.88936E-05-4.26009E-06 8.92625E-19-6.53887E-19
 -1      3463 9.40080E-05-2.65957E-05-2.88955E-05-3.86595E-06 6.66574E-19-4.19922E-20
 -1      3464 9.32314E-05-2.61412E-05-2.87543E-05-4.47653E-06 5.91855E-19-3.67321E-19
 -1      3465 9.41383E-05-2.66641E-05-2.89118E-05-3.46434E-06 1.56093E-19 1.97568E-19
 -1      3466 9.41470E-05-2.67189E-05-2.89027E-05-3.11106E-06 5.56742E-19-1.16697E-19
 -1      3467 9.34504E-05-2.62120E-05-2.88158E-05-3.60920E-06 7.27583E-19 1.03059E-19
 -1      3468 9.42928E-05-2.68365E-05-2.89053E-05-2.77017E-06 4.88855E-19-7.84709E-19
 -1      3469 9.43271E-05-2.69308E-05-2.88888E-05-2.46276E-06 4.80638E-19-1.20425E-18
 -1      3470 9.37306E-05-2.64275E-05-2.88425E-05-2.87135E-06 2.77572E-19 5.14628E-20
 -1      3471 9.44682E-05-2.70679E-05-2.88821E-05-2.17825E-06 1.33056E-19-1.18858E-18
 -1      3472 9.45115E-05-2.71775E-05-2.88617E-05-1.91738E-06-2.69794E-19-1.13284E-18
 -1      3473 9.40190E-05-2.67113E-05-2.88441E-05-2.25268E-06 4.56485E-20-8.23215E-19
 -1      3474 9.46376E-05-2.73154E-05-2.88492E-05-1.68376E-06-4.06240E-19-8.81766E-19
 -1      3475 9.46806E-05-2.74254E-05-2.88274E-05-1.46726E-06-5.03763E-19-9.49057E-19
 -1      3476 9.42863E-05-2.70138E-05-2.88291E-05-1.74131E-06-2.33598E-19-5.99554E-19
 -1      3477 9.47873E-05-2.75533E-05-2.88120E-05-1.27850E-06-2.38042E-19-1.38866E-18
 -1      3478 9.48256E-05-2.76550E-05-2.87905E-05-1.10247E-06 1.03747E-19-1.32237E-18
 -1      3479 9.45186E-05-2.73047E-05-2.88043E-05-1.32478E-06-5.55787E-19-6.84653E-19
 -1      3480 9.49124E-05-2.77675E-05-2.87742E-05-9.52412E-07 9.25595E-20-1.53635E-18
 -1      3481 9.49441E-05-2.78566E-05-2.87543E-05-8.12040E-07 1.25108E-19-1.29019E-18
 -1      3482 9.47114E-05-2.75673E-05-2.87746E-05-9.90587E-07-8.12404E-20-9.36786E-19
 -1      3483 9.50122E-05-2.79518E-05-2.87384E-05-6.94690E-07-5.42790E-20-9.34661E-19
 -1      3484 9.50372E-05-2.80270E-05-2.87207E-05-5.84847E-07 4.32870E-19-5.14079E-19
 -1      3485 9.48655E-05-2.77940E-05-2.87438E-05-7.26559E-07 6.72103E-19-8.83391E-19
 -1      3486 9.50891E-05-2.81050E-05-2.87061E-05-4.94614E-07 9.52581E-19-4.69691E-19
 -1      3487 9.51079E-05-2.81665E-05-2.86907E-05-4.10268E-07 1.49051E-18-6.83852E-20
 -1      3488 9.49849E-05-2.79833E-05-2.87142E-05-5.21270E-07 1.03656E-18 2.11920E-19
 -1      3489 9.51463E-05-2.82288E-05-2.86778E-05-3.42106E-07 1.15117E-18-6.99965E-19
 -1      3490 9.51598E-05-2.82777E-05-2.86650E-05-2.78585E-07 7.75578E-19-4.44196E-19
 -1      3491 9.50747E-05-2.81368E-05-2.86871E-05-3.64293E-07 1.23125E-18-8.55736E-19
 -1      3492 9.51873E-05-2.83263E-05-2.86539E-05-2.28070E-07 1.94753E-19-4.18975E-19
 -1      3493 9.51967E-05-2.83643E-05-2.86433E-05-1.81215E-07-1.49034E-19-1.30921E-19
 -1      3494 9.51402E-05-2.82583E-05-2.86633E-05-2.46367E-07 6.64350E-19-8.86216E-19
 -1      3495 9.52157E-05-2.84013E-05-2.86341E-05-1.44563E-07 8.46712E-20-8.01217E-20
 -1      3496 9.52219E-05-2.84302E-05-2.86256E-05-1.10787E-07 6.14856E-19-2.01314E-19
 -1      3497 9.51864E-05-2.83523E-05-2.86429E-05-1.59475E-07-5.17652E-20-8.21817E-19
 -1      3498 9.52344E-05-2.84577E-05-2.86181E-05-8.48360E-08 1.64396E-18-2.97518E-19
 -1      3499 9.52382E-05-2.84792E-05-2.86114E-05-6.11274E-08 1.61363E-18 1.14833E-21
 -1      3500 9.52179E-05-2.84234E-05-2.86261E-05-9.68280E-08 1.15687E-18-5.14319E-19
 -1      3501 9.52460E-05-2.84992E-05-2.86054E-05-4.32873E-08 2.72587E-19 9.66819E-20
 -1      3502 9.52480E-05-2.85148E-05-2.86003E-05-2.71778E-08-5.73356E-19-4.68111E-19
 -1      3503 9.52382E-05-2.84759E-05-2.86123E-05-5.27941E-08 7.05284E-19-2.71534E-19
 -1      3504 9.52524E-05-2.85289E-05-2.85955E-05-1.53678E-08-5.61788E-19-3.60017E-19
 -1      3505 9.52532E-05-2.85398E-05-2.85917E-05-4.87652E-09-1.35155E-19 2.39776E-19
 -1      3506 9.52504E-05-2.85138E-05-2.86014E-05-2.27929E-08-2.82624E-19 3.09932E-19
 -1      3507 9.52553E-05-2.85495E-05-2.85880E-05 2.54506E-09-8.48811E-19 4.28354E-19
 -1      3508 9.52553E-05-2.85570E-05-2.85851E-05 8.97640E-09-1.39744E-18 1.25557E-19
 -1      3509 9.52569E-05-2.85403E-05-2.85929E-05-3.16543E-09-4.37517E-19-5.06162E-19
 -1      3510 9.52558E-05-2.85633E-05-2.85824E-05 1.32809E-08-1.04417E-18 2.27664E-19
 -1      3511 9.52554E-05-2.85682E-05-2.85803E-05 1.68545E-08-5.20538E-19 2.79304E-19
 -1      3512 9.52596E-05-2.85583E-05-2.85863E-05 8.95845E-09-9.82313E-19 2.23887E-19
 -1      3513 9.52549E-05-2.85721E-05-2.85783E-05 1.90086E-08 8.40805E-20-2.85932E-19
 -1      3514 9.52542E-05-2.85751E-05-2.85768E-05 2.06330E-08 5.36859E-20 4.64005E-19
 -1      3515 9.52596E-05-2.85699E-05-2.85814E-05 1.57901E-08-5.42595E-19 8.84413E-19
 -1      3516 9.52531E-05-2.85773E-05-2.85753E-05 2.13571E-08-6.16132E-19 7.14103E-19
 -1      3517 9.52523E-05-2.85789E-05-2.85743E-05 2.17045E-08 3.74189E-20 7.13813E-19
 -1      3518 9.52581E-05-2.85769E-05-2.85777E-05 1.90015E-08 1.05127E-19 1.01583E-20
 -1      3519 9.52510E-05-2.85800E-05-2.85732E-05 2.15223E-08 3.47530E-19 7.93309E-19
 -1      3520 9.52501E-05-2.85807E-05-2.85726E-05 2.10771E-08 3.69984E-19 7.28195E-19
 -1      3521 9.52558E-05-2.85807E-05-2.85751E-05 1.98305E-08-4.89289E-20 4.91024E-19
 -1      3522 9.52487E-05-2.85810E-05-2.85718E-05 2.03604E-08 4.40386E-19 1.67120E-19
 -1      3523 9.52479E-05-2.85812E-05-2.85714E-05 1.94619E-08 3.63649E-19-9.27586E-19
 -1      3524 9.52531E-05-2.85824E-05-2.85732E-05 1.91707E-08 2.35235E-19 6.40021E-19
 -1      3525 9.52465E-05-2.85811E-05-2.85709E-05 1.84664E-08 4.85757E-19-8.49802E-20
 -1      3526 9.52458E-05-2.85809E-05-2.85706E-05 1.73422E-08 1.53257E-19 1.48489E-20
 -1      3527 9.52503E-05-2.85827E-05-2.85719E-05 1.76524E-08 6.49312E-19 1.84158E-19
 -1      3528 9.52445E-05-2.85805E-05-2.85703E-05 1.62292E-08 1.40841E-19 9.10740E-19
 -1      3529 9.52439E-05-2.85803E-05-2.85701E-05 1.50267E-08 8.42737E-19 1.33765E-18
 -1      3530 9.52477E-05-2.85822E-05-2.85710E-05 1.57004E-08 9.12871E-19 2.61474E-18
 -1      3531 9.23064E-05-3.24799E-05-2.53030E-05-2.02650E-05-5.16690E-19-2.31134E-18
 -1      3532 6.00818E-05-1.68075E-05-1.84131E-05-1.60427E-05 1.27853E-18 2.57990E-18
 -1      3533 6.80676E-05-2.32804E-05-1.90877E-05-2.45792E-05 1.88691E-18 2.14739E-18
 -1      3534 9.07787E-05-2.72800E-05-2.72028E-05 1.52278E-05-2.66493E-19-6.93488E-19
 -1      3535 9.25342E-05-2.95606E-05-2.68948E-05 1.63886E-05-1.10617E-18-7.94471E-19
 -1      3536 9.13880E-05-2.41414E-05-2.88397E-05 8.47964E-06-2.16638E-19-3.79088E-19
 -1      3537 9.12794E-05-2.41773E-05-2.87410E-05 9.30267E-06 4.52243E-19-6.92547E-20
 -1      3538 9.21905E-05-2.45149E-05-2.90210E-05 6.96761E-06 1.31902E-19-3.74233E-19
 -1      3539 9.20105E-05-2.43644E-05-2.89809E-05 7.69153E-06-4.23873E-19-8.38136E-19
 -1      3540 8.99158E-05-2.32343E-05-2.85610E-05 7.65557E-06 1.35812E-19 4.17664E-19
 -1      3541 9.29148E-05-2.50560E-05-2.90968E-05 5.67691E-06 4.48645E-19 7.61959E-20
 -1      3542 9.27358E-05-2.48287E-05-2.90958E-05 6.31003E-06 5.93791E-19 7.36511E-20
 -1      3543 9.10825E-05-2.38383E-05-2.88042E-05 6.27972E-06 2.26530E-19-2.96677E-19
 -1      3544 9.35149E-05-2.56319E-05-2.91046E-05 4.57301E-06 5.21472E-19-3.55574E-20
 -1      3545 9.33649E-05-2.53878E-05-2.91273E-05 5.12022E-06 5.64114E-19 2.95676E-19
 -1      3546 9.20702E-05-2.45386E-05-2.89301E-05 5.12177E-06 4.17309E-19 3.24406E-19
 -1      3547 9.39878E-05-2.61753E-05-2.90722E-05 3.63572E-06 7.87628E-19 1.31517E-19
 -1      3548 9.38728E-05-2.59443E-05-2.91071E-05 4.10130E-06 7.80423E-19-3.33106E-20
 -1      3549 9.28692E-05-2.52308E-05-2.89787E-05 4.13507E-06 7.19244E-19 8.42068E-19
 -1      3550 9.43482E-05-2.66561E-05-2.90187E-05 2.84982E-06 1.02298E-18 8.11542E-20
 -1      3551 9.42649E-05-2.64515E-05-2.90583E-05 3.23928E-06 8.45944E-19 6.31520E-20
 -1      3552 9.34963E-05-2.58631E-05-2.89788E-05 3.29624E-06 8.32148E-19 7.53060E-19
 -1      3553 9.46162E-05-2.70650E-05-2.89567E-05 2.20047E-06 6.07000E-19-4.72065E-19
 -1      3554 9.45585E-05-2.68910E-05-2.89962E-05 2.52079E-06 1.06597E-18 2.06422E-19
 -1      3555 9.39776E-05-2.64141E-05-2.89509E-05 2.59040E-06 1.11222E-18 1.55502E-18
 -1      3556 9.48119E-05-2.74038E-05-2.88941E-05 1.67218E-06 3.02280E-19 4.49776E-19
 -1      3557 9.47734E-05-2.72595E-05-2.89308E-05 1.93133E-06 3.06467E-19-1.36696E-19
 -1      3558 9.43406E-05-2.68791E-05-2.89086E-05 2.00471E-06 2.58056E-19 1.38916E-18
 -1      3559 9.49528E-05-2.76789E-05-2.88354E-05 1.24906E-06 1.45533E-18 1.08567E-19
 -1      3560 9.49278E-05-2.75616E-05-2.88680E-05 1.45540E-06 1.26115E-18-2.17123E-19
 -1      3561 9.46105E-05-2.72628E-05-2.88610E-05 1.52622E-06 1.08075E-18 2.58164E-19
 -1      3562 9.50527E-05-2.78988E-05-2.87831E-05 9.15491E-07 1.78346E-19-2.52801E-19
 -1      3563 9.50371E-05-2.78049E-05-2.88111E-05 1.07720E-06 7.46744E-19 2.41602E-19
 -1      3564 9.48087E-05-2.75736E-05-2.88134E-05 1.14161E-06 9.03971E-19 1.51794E-19
 -1      3565 9.51225E-05-2.80721E-05-2.87381E-05 6.56679E-07-8.01706E-19 8.16828E-20
 -1      3566 9.51132E-05-2.79980E-05-2.87614E-05 7.81409E-07-2.63153E-19-1.96196E-19
 -1      3567 9.49522E-05-2.78217E-05-2.87692E-05 8.37478E-07-4.38331E-20-1.44112E-19
 -1      3568 9.51706E-05-2.82070E-05-2.87003E-05 4.59149E-07-8.82040E-19 4.65115E-19
 -1      3569 9.51653E-05-2.81493E-05-2.87193E-05 5.53795E-07-9.26125E-19 9.60192E-19
 -1      3570 9.50548E-05-2.80170E-05-2.87299E-05 6.00959E-07-1.21801E-18 1.26573E-18
 -1      3571 9.52029E-05-2.83106E-05-2.86693E-05 3.10988E-07-7.48630E-19 9.95763E-19
 -1      3572 9.52002E-05-2.82662E-05-2.86845E-05 3.81565E-07 1.04476E-19 1.05184E-18
 -1      3573 9.51269E-05-2.81686E-05-2.86961E-05 4.20136E-07-5.80246E-19 1.85911E-18
 -1      3574 9.52240E-05-2.83890E-05-2.86444E-05 2.01932E-07-8.29596E-19-8.76162E-19
 -1      3575 9.52229E-05-2.83553E-05-2.86564E-05 2.53566E-07-1.17599E-18-3.38517E-19
 -1      3576 9.51765E-05-2.82847E-05-2.86677E-05 2.84350E-07 1.44583E-19 8.54933E-19
 -1      3577 9.52373E-05-2.84476E-05-2.86248E-05 1.23341E-07-7.06908E-19-6.28755E-19
 -1      3578 9.52372E-05-2.84224E-05-2.86340E-05 1.60306E-07-9.24070E-19-5.54018E-19
 -1      3579 9.52097E-05-2.83724E-05-2.86445E-05 1.84339E-07-8.52670E-19 5.66996E-19
 -1      3580 9.52451E-05-2.84905E-05-2.86095E-05 6.80864E-08-1.64350E-18 1.38681E-18
 -1      3581 9.52455E-05-2.84720E-05-2.86166E-05 9.38795E-08-1.02240E-18 5.51899E-19
 -1      3582 9.52312E-05-2.84375E-05-2.86259E-05 1.12255E-07-1.32827E-18 1.89831E-18
 -1      3583 9.52492E-05-2.85214E-05-2.85979E-05 3.03976E-08-3.07711E-19 1.11282E-18
 -1      3584 9.52499E-05-2.85080E-05-2.86032E-05 4.78297E-08-8.86355E-19 6.38034E-19
 -1      3585 9.52444E-05-2.84851E-05-2.86112E-05 6.15923E-08-1.33836E-18 5.15634E-19
 -1      3586 9.52509E-05-2.85431E-05-2.85892E-05 5.68167E-09-6.54686E-19 9.36048E-19
 -1      3587 9.52516E-05-2.85337E-05-2.85931E-05 1.69751E-08 9.07013E-20 1.34991E-18
 -1      3588 9.52517E-05-2.85191E-05-2.85997E-05 2.70641E-08-3.21741E-19 1.20650E-18
 -1      3589 9.52509E-05-2.85579E-05-2.85828E-05-9.65383E-09-4.42406E-19-1.04434E-18
 -1      3590 9.52517E-05-2.85514E-05-2.85856E-05-2.77092E-09-7.86964E-19 1.02862E-19
 -1      3591 9.52552E-05-2.85429E-05-2.85911E-05 4.45491E-09-1.52914E-19 6.71293E-19
 -1      3592 9.52501E-05-2.85676E-05-2.85783E-05-1.83707E-08-1.94963E-18 9.47037E-19
 -1      3593 9.52508E-05-2.85634E-05-2.85802E-05-1.45773E-08-1.19378E-18-2.84128E-19
 -1      3594 9.52560E-05-2.85589E-05-2.85846E-05-9.53731E-09-1.38397E-18 2.99296E-19
 -1      3595 9.52487E-05-2.85736E-05-2.85750E-05-2.25544E-08-4.33612E-19 5.37300E-19
 -1      3596 9.52494E-05-2.85710E-05-2.85763E-05-2.08585E-08-1.24291E-18 1.28955E-18
 -1      3597 9.52553E-05-2.85693E-05-2.85798E-05-1.74533E-08-1.51353E-18 8.35163E-19
 -1      3598 9.52471E-05-2.85771E-05-2.85729E-05-2.37489E-08-1.05693E-18 3.56800E-19
 -1      3599 9.52477E-05-2.85756E-05-2.85737E-05-2.34208E-08 3.85090E-19 9.48576E-19
 -1      3600 9.52536E-05-2.85756E-05-2.85764E-05-2.12117E-08-6.60123E-19 1.66562E-18
 -1      3601 9.52455E-05-2.85788E-05-2.85714E-05-2.30709E-08-9.47029E-19-7.09817E-19
 -1      3602 9.52459E-05-2.85780E-05-2.85719E-05-2.35868E-08-1.54868E-18-7.58401E-19
 -1      3603 9.52515E-05-2.85791E-05-2.85739E-05-2.22332E-08-3.80044E-19-3.11427E-19
 -1      3604 9.52439E-05-2.85793E-05-2.85705E-05-2.13049E-08 5.42730E-20-1.35071E-18
 -1      3605 9.52443E-05-2.85790E-05-2.85708E-05-2.23001E-08-9.39123E-19-1.29058E-18
 -1      3606 9.52493E-05-2.85807E-05-2.85723E-05-2.15443E-08-5.92826E-19-1.56670E-18
 -1      3607 9.52425E-05-2.85792E-05-2.85700E-05-1.89815E-08 2.07376E-18-7.74746E-19
 -1      3608 9.52428E-05-2.85792E-05-2.85701E-05-2.02126E-08 1.86382E-18-7.26838E-19
 -1      3609 9.52471E-05-2.85810E-05-2.85712E-05-1.98631E-08 3.79435E-19-1.86139E-18
 -1      3610 9.52413E-05-2.85787E-05-2.85697E-05-1.64566E-08 2.93008E-18-1.45295E-18
 -1      3611 9.52416E-05-2.85788E-05-2.85697E-05-1.77530E-08 2.74441E-18-9.31967E-19
 -1      3612 9.52450E-05-2.85807E-05-2.85705E-05-1.76766E-08 2.38874E-18-1.44620E-18
 -1      3613 9.52404E-05-2.85782E-05-2.85695E-05-1.38756E-08 3.76793E-18-4.67364E-19
 -1      3614 9.52405E-05-2.85783E-05-2.85695E-05-1.51678E-08 3.14457E-18-7.89525E-19
 -1      3615 9.52433E-05-2.85801E-05-2.85700E-05-1.52919E-08 3.04054E-18-1.48055E-18
 -1      3616 1.09618E-04-3.62339E-05-3.13111E-05 9.07906E-08 1.26770E-19-9.18923E-19
 -1      3617 1.13460E-04-3.95250E-05-3.16922E-05-1.12917E-06 1.94248E-19-6.68183E-19
 -1      3618 9.52413E-05-2.85791E-05-2.85695E-05-1.07719E-08 9.43628E-19 1.41798E-18
 -1      3619 9.52400E-05-2.85780E-05-2.85694E-05-1.10725E-08 4.00873E-19 3.00619E-19
 -1      3620 9.52399E-05-2.85780E-05-2.85694E-05-1.18841E-08 1.43211E-18-5.41322E-19
 -1      3621 9.52426E-05-2.85800E-05-2.85697E-05-1.12799E-08 1.21301E-18 2.44098E-18
 -1      3622 1.17027E-04-2.37630E-05-4.01055E-05 1.23018E-05-1.98110E-18-3.26161E-18
 -1      3623 1.24212E-04-4.47096E-05-3.42833E-05-4.13636E-06-4.89691E-20 2.62845E-19
 -1      3624 1.23474E-04-4.79989E-05-3.20989E-05 4.52690E-06 7.15892E-19-2.26634E-19
 -1      3625 7.89458E-05-3.13103E-05-2.02272E-05-2.85423E-05 2.48755E-18 8.81867E-19
 -1      3626 9.18964E-05-4.02742E-05-2.21613E-05-2.96244E-05 2.68274E-18 2.40346E-19
 -1      3627 9.52456E-05-2.85819E-05-2.85702E-05 1.08190E-08-2.21255E-18-2.06326E-19
 -1      3628 9.52470E-05-2.85829E-05-2.85703E-05 9.37663E-09-2.23653E-18-9.84012E-19
 -1      3629 1.18993E-04-3.01850E-05-3.83470E-05 1.26397E-05-1.45650E-18-2.97833E-18
 -1      3630 9.06393E-05-2.41740E-05-2.85062E-05 1.02762E-05 3.86104E-19-3.02155E-19
 -1      3631 9.07562E-05-2.45827E-05-2.83291E-05 1.12137E-05 2.23268E-19-1.96564E-19
 -1      3632 8.86362E-05-2.29170E-05-2.81487E-05 9.34169E-06 1.87982E-19 6.97336E-19
 -1      3633 5.04257E-05-4.53596E-06-1.93843E-05 1.55012E-05 1.40581E-18-4.40807E-18
 -1      3634 9.02357E-05-2.50094E-05-2.79708E-05 1.24714E-05 3.36788E-19-3.26728E-19
 -1      3635 9.08767E-05-2.61003E-05-2.77060E-05 1.35442E-05 4.49251E-19-5.47966E-20
 -1      3636 8.66469E-05-2.46635E-05-2.65675E-05 1.45004E-05-2.57314E-19-4.15083E-19
 -1      3637 8.74173E-05-2.32102E-05-2.75054E-05 1.15120E-05 1.89025E-19 1.90937E-19
 -1      3638 9.41344E-05-3.30773E-05-2.60835E-05 1.91516E-05-1.75522E-18-6.62436E-19
 -1      3639 9.77893E-05-3.72723E-05-2.58146E-05 2.03770E-05-1.73475E-18-8.94458E-19
 -1      3640 7.22582E-05-1.61413E-05-2.41617E-05 2.03524E-05 1.53525E-18-3.30766E-18
 -1      3641 8.11294E-05-2.08920E-05-2.55491E-05 1.91750E-05 1.39401E-18-2.77504E-18
 -1      3642 8.82428E-05-2.77850E-05-2.58984E-05 2.00033E-05 1.41752E-18-2.35434E-18
 -1      3643 6.82596E-05-1.58228E-05-2.23300E-05 2.30264E-05 1.69880E-18-3.64727E-18
 -1      3644 4.99027E-05-1.54770E-06-2.06711E-05-3.24671E-06 6.48510E-19-4.08188E-18
 -1      3645 4.55598E-05-1.55407E-06-1.85120E-05 3.71426E-07 7.83125E-19-4.48107E-18
 -1      3646 4.29800E-05-2.59424E-06-1.70024E-05-5.50042E-06 4.56997E-19-4.58764E-18
 -1      3647 1.04410E-04-3.93455E-05-2.79001E-05-1.47564E-05-4.43951E-19-1.23110E-18
 -1      3648 1.13966E-04-4.15772E-05-3.12090E-05 3.18916E-06 5.06906E-19-6.74913E-19
 -1      3649 1.19993E-04-4.28564E-05-3.28555E-05-4.34276E-06 1.00969E-19-4.73544E-20
 -1      3650 8.61370E-05-3.01467E-05-2.40325E-05 2.60633E-05 1.84173E-18-2.44634E-18
 -1      3651 7.39586E-05-2.27515E-05-2.15008E-05 2.82697E-05 1.93318E-18-3.30369E-18
 -1      3652 6.15514E-05-1.57134E-05-1.95702E-05 2.70913E-05 1.91234E-18-3.97438E-18
 -1      3653 6.87992E-05-2.19634E-05-2.01825E-05 2.06654E-05-1.14248E-18-2.61283E-19
 -1      3654 6.03077E-05-1.59907E-05-1.87432E-05 1.36044E-05-3.33374E-19 7.57142E-19
 -1      3655 1.22334E-04-3.67945E-05-3.67049E-05 1.16182E-05-1.00455E-18-3.36542E-18
 -1      3656 1.21089E-04-4.18760E-05-3.40258E-05-6.96260E-06-2.55539E-19 2.50761E-19
 -1      3657 1.01446E-04-4.53744E-05-2.38095E-05-2.67827E-05 2.45932E-18-4.35309E-19
 -1      3658 1.08373E-04-4.93006E-05-2.54742E-05-2.37791E-05 2.01701E-18-1.14990E-18
 -1      3659 5.53631E-05-1.30012E-05-1.80394E-05 5.49268E-06 3.03158E-19 1.77210E-18
 -1      3660 5.56854E-05-1.30741E-05-1.81673E-05-5.69435E-06 8.32505E-19 2.07579E-18
 -1      3661 6.29702E-05-1.52707E-05-2.02099E-05 7.92708E-06-1.37726E-20 7.63666E-19
 -1      3662 1.22737E-04-4.17364E-05-3.49690E-05 8.68158E-06-6.05744E-19-3.10557E-18
 -1      3663 1.21115E-04-5.49453E-05-2.80098E-05 1.69113E-05-1.27328E-18-3.18410E-18
 -1      3664 1.11751E-04-4.31516E-05-2.93139E-05-1.17891E-05-4.18845E-19-7.00364E-19
 -1      3665 1.18438E-04-2.76345E-05-3.90639E-05-1.44818E-05-2.03478E-18 4.61077E-19
 -1      3666 1.16533E-04-4.55248E-05-3.05032E-05 8.59145E-06 8.46848E-19-7.83704E-19
 -1      3667 1.09799E-04-4.88856E-05-2.60559E-05 2.12132E-05-1.25980E-18-1.90788E-18
 -1      3668 8.76191E-05-2.92191E-05-2.50870E-05 1.95605E-05-1.38076E-18-4.24893E-19
 -1      3669 9.52426E-05-2.85797E-05-2.85698E-05 1.43744E-08 1.17100E-19-2.43972E-19
 -1      3670 9.52420E-05-2.85793E-05-2.85697E-05 1.33389E-08-3.85512E-19-1.09066E-18
 -1      3671 9.52430E-05-2.85801E-05-2.85698E-05 1.27767E-08-1.83527E-18-1.51082E-18
 -1      3672 9.52452E-05-2.85812E-05-2.85703E-05 1.40568E-08-1.23213E-19 1.56916E-18
 -1      3673 6.05989E-05-1.49594E-05-1.93283E-05-1.04051E-05 1.02892E-18 2.27954E-18
 -1      3674 6.68021E-05-1.79732E-05-2.09204E-05-1.38165E-05 1.23420E-18 2.09900E-18
 -1      3675 6.30353E-05-1.45764E-05-2.07078E-05-5.09878E-06 6.42772E-19 1.82287E-18
 -1      3676 1.03350E-04-3.81650E-05-2.79812E-05 1.59208E-05 1.32551E-18-1.40840E-18
 -1      3677 9.67758E-05-3.53946E-05-2.60464E-05 2.16704E-05 1.61986E-18-1.95245E-18
 -1      3678 1.22916E-04-4.66808E-05-3.26006E-05 2.90695E-06 2.22426E-19-3.14364E-18
 -1      3679 9.52398E-05-2.85779E-05-2.85694E-05-1.26996E-08 2.11500E-18-5.93693E-19
 -1      3680 7.72019E-05-2.75715E-05-2.10590E-05-2.39155E-05 2.21483E-18 1.04349E-18
 -1      3681 1.09304E-04-4.03348E-05-2.93955E-05 1.03678E-05 1.00447E-18-1.16590E-18
 -1      3682 9.52433E-05-2.85803E-05-2.85698E-05-1.23801E-08 2.03588E-18 1.33869E-18
 -1      3683 9.52418E-05-2.85793E-05-2.85697E-05-1.29259E-08 2.40538E-18 4.33133E-19
 -1      3684 1.23561E-04-3.99795E-05-3.56990E-05-1.09218E-05-6.84628E-19 6.52493E-19
 -1      3685 9.52501E-05-2.85851E-05-2.85707E-05-1.14785E-09-3.41523E-19 2.10847E-18
 -1      3686 9.52498E-05-2.85849E-05-2.85707E-05-3.22482E-09-1.51672E-19 4.47550E-19
 -1      3687 1.01698E-04-4.16656E-05-2.54462E-05 2.20579E-05-1.73308E-18-1.08263E-18
 -1      3688 9.65618E-05-4.10902E-05-2.37078E-05-2.54080E-05 2.54388E-18-5.47924E-20
 -1      3689 9.52489E-05-2.85838E-05-2.85707E-05 9.05825E-09-1.93661E-18-4.56441E-19
 -1      3690 9.52483E-05-2.85838E-05-2.85705E-05 7.44538E-09-2.10868E-18-1.00723E-19
 -1      3691 9.52492E-05-2.85844E-05-2.85706E-05 5.58605E-09-1.76179E-18-6.54659E-19
 -1      3692 1.23744E-04-5.05525E-05-3.14077E-05-2.90260E-06 4.70967E-19-3.22225E-18
 -1      3693 1.19673E-04-3.27644E-05-3.74923E-05-1.36266E-05-1.73069E-18 5.96060E-19
 -1      3694 9.52501E-05-2.85850E-05-2.85707E-05 1.24818E-09-9.81029E-19 7.78791E-19
 -1      3695 9.52516E-05-2.85856E-05-2.85711E-05 5.32853E-11-9.85377E-19 8.65076E-19
 -1      3696 9.52498E-05-2.85848E-05-2.85707E-05 3.31841E-09-1.70381E-18-1.16978E-18
 -1      3697 1.15403E-04-5.12124E-05-2.73106E-05-1.75840E-05 1.58998E-18-2.58955E-18
 -1      3698 1.21687E-04-5.16610E-05-3.01681E-05-7.94292E-06 8.64374E-19-3.52732E-18
 -1      3699 7.82726E-05-2.55448E-05-2.23914E-05 2.01029E-05-1.32745E-18-2.10064E-19
 -1      3700 9.52471E-05-2.85829E-05-2.85703E-05-9.33877E-09 3.36565E-19-9.81514E-19
 -1      3701 9.52456E-05-2.85820E-05-2.85702E-05-1.08069E-08 1.55430E-19 4.50408E-19
 -1      3702 9.52452E-05-2.85814E-05-2.85702E-05-1.26177E-08 1.05490E-18-1.47066E-19
 -1      3703 1.18421E-04-4.95465E-05-2.96519E-05-7.57820E-06 6.13153E-19-3.06697E-18
 -1      3704 9.52440E-05-2.85808E-05-2.85699E-05 1.20623E-08-1.64032E-18-7.65474E-19
 -1      3705 9.52458E-05-2.85818E-05-2.85703E-05 1.22446E-08-1.25694E-18-1.60307E-19
 -1      3706 1.11406E-04-4.84646E-05-2.69680E-05-1.75315E-05 1.72562E-18-2.17157E-18
 -1      3707 9.13363E-05-2.41713E-05-2.87997E-05 4.32126E-06 5.41948E-20 3.98738E-19
 -1      3708 9.08810E-05-2.37944E-05-2.87512E-05 4.81488E-06 3.54657E-19 2.83749E-19
 -1      3709 1.14716E-04-4.75007E-05-2.86598E-05-1.00616E-05 9.33549E-19-2.76886E-18
 -1      3710 7.76165E-05-2.23963E-05-2.36328E-05 1.64116E-05-8.62867E-19-9.66074E-19
 -1      3711 1.08410E-04-4.40577E-05-2.76163E-05-1.29273E-05 1.27064E-18-1.92322E-18
 -1      3712 1.04815E-04-4.09050E-05-2.72746E-05-1.35873E-05 1.27501E-18-1.59060E-18
 -1      3713 1.01495E-04-3.78649E-05-2.72425E-05-1.30519E-05 1.04470E-18-1.11532E-18
 -1      3714 9.88030E-05-3.52003E-05-2.71914E-05-1.28273E-05 1.04555E-18-8.34792E-19
 -1      3715 9.99152E-05-3.84727E-05-2.64462E-05-1.62849E-05 1.51970E-18-1.24151E-18
 -1      3716 9.69151E-05-3.30174E-05-2.73473E-05-1.17875E-05 5.96450E-19-6.83647E-19
 -1      3717 9.51380E-05-3.10689E-05-2.74319E-05-1.11831E-05 6.33029E-20-6.20003E-19
 -1      3718 9.49892E-05-3.29750E-05-2.66618E-05-1.40540E-05 7.75792E-19-6.29370E-19
 -1      3719 9.42092E-05-2.96325E-05-2.76398E-05-1.00668E-05 8.32185E-21-1.87424E-19
 -1      3720 9.31645E-05-2.83610E-05-2.77660E-05-9.36708E-06 4.05066E-19-1.04083E-19
 -1      3721 9.23258E-05-2.91985E-05-2.70958E-05-1.14990E-05 3.17793E-19-4.27363E-20
 -1      3722 9.28040E-05-2.74974E-05-2.79624E-05-8.38147E-06 5.01505E-19-4.01725E-19
 -1      3723 9.22648E-05-2.67399E-05-2.80844E-05-7.70204E-06 4.59542E-19 6.37375E-20
 -1      3724 9.11466E-05-2.69265E-05-2.75443E-05-9.22997E-06 2.65051E-19 3.33308E-19
 -1      3725 9.22426E-05-2.62917E-05-2.82462E-05-6.87697E-06 2.16788E-19-4.47447E-20
 -1      3726 9.20255E-05-2.59005E-05-2.83455E-05-6.26465E-06 1.23201E-19-5.07602E-20
 -1      3727 9.08286E-05-2.56754E-05-2.79318E-05-7.33984E-06 4.41491E-19-3.46423E-19
 -1      3728 9.21866E-05-2.57316E-05-2.84681E-05-5.58904E-06 5.55780E-19 2.98172E-19
 -1      3729 9.21622E-05-2.55866E-05-2.85400E-05-5.05304E-06 8.06950E-19-1.41987E-19
 -1      3730 9.10042E-05-2.51245E-05-2.82363E-05-5.81501E-06 5.47219E-19 1.79274E-19
 -1      3731 9.24136E-05-2.55988E-05-2.86263E-05-4.50240E-06 7.12418E-19-5.38784E-20
 -1      3732 9.24955E-05-2.56112E-05-2.86725E-05-4.04140E-06 9.92594E-19 1.27778E-19
 -1      3733 9.14360E-05-2.50268E-05-2.84594E-05-4.59030E-06 1.04263E-18 2.52523E-19
 -1      3734 9.27780E-05-2.57312E-05-2.87283E-05-3.59450E-06 7.21276E-19 4.90223E-19
 -1      3735 9.29099E-05-2.58356E-05-2.87534E-05-3.20299E-06 4.94753E-19 3.50772E-19
 -1      3736 9.19793E-05-2.52105E-05-2.86116E-05-3.60733E-06 9.77572E-19 9.46599E-19
 -1      3737 9.31878E-05-2.60114E-05-2.87856E-05-2.84130E-06 2.66217E-19 6.10721E-19
 -1      3738 9.33349E-05-2.61622E-05-2.87948E-05-2.51250E-06 1.08771E-19 4.37279E-19
 -1      3739 9.25432E-05-2.55504E-05-2.87070E-05-2.81834E-06 2.55527E-19 4.76128E-19
 -1      3740 9.35887E-05-2.63588E-05-2.88097E-05-2.22081E-06-1.42197E-19-5.14593E-20
 -1      3741 9.37310E-05-2.65260E-05-2.88078E-05-1.94794E-06-2.60668E-19-8.49429E-20
 -1      3742 9.30753E-05-2.59603E-05-2.87593E-05-2.18492E-06-4.87824E-19 5.37381E-19
 -1      3743 9.39516E-05-2.67212E-05-2.88107E-05-1.71410E-06-3.38078E-19-5.30931E-19
 -1      3744 9.40787E-05-2.68857E-05-2.88018E-05-1.49051E-06-3.22794E-19-3.03876E-19
 -1      3745 9.35484E-05-2.63841E-05-2.87808E-05-1.67756E-06-3.11054E-19 1.20414E-19
 -1      3746 9.42632E-05-2.70663E-05-2.87968E-05-1.30459E-06-8.06831E-20-4.84407E-19
 -1      3747 9.43708E-05-2.72175E-05-2.87839E-05-1.12388E-06-1.63291E-19 2.74629E-19
 -1      3748 9.39516E-05-2.67870E-05-2.87815E-05-1.27326E-06-1.41613E-19 3.13619E-19
 -1      3749 9.45204E-05-2.73767E-05-2.87744E-05-9.77526E-07-4.93102E-19 3.30006E-19
 -1      3750 9.46079E-05-2.75091E-05-2.87598E-05-8.33564E-07 2.00891E-19 1.70430E-19
 -1      3751 9.42837E-05-2.71497E-05-2.87689E-05-9.53507E-07-2.66902E-19 7.45187E-19
 -1      3752 9.47260E-05-2.76445E-05-2.87481E-05-7.19676E-07 7.15635E-19-4.73161E-19
 -1      3753 9.47947E-05-2.77563E-05-2.87333E-05-6.06696E-07 1.02856E-18-2.55592E-20
 -1      3754 9.45495E-05-2.74634E-05-2.87490E-05-7.03023E-07 5.82921E-20 4.66115E-19
 -1      3755 9.48855E-05-2.78680E-05-2.87209E-05-5.19212E-07 6.65219E-19 2.37086E-19
 -1      3756 9.49379E-05-2.79598E-05-2.87069E-05-4.31929E-07 1.03669E-18 1.18325E-19
 -1      3757 9.47567E-05-2.77263E-05-2.87256E-05-5.08985E-07 7.16606E-19 3.56510E-19
 -1      3758 9.50061E-05-2.80496E-05-2.86949E-05-3.65686E-07 1.31964E-18-2.90441E-19
 -1      3759 9.50448E-05-2.81231E-05-2.86823E-05-2.99368E-07 1.28416E-18-2.03123E-19
 -1      3760 9.49143E-05-2.79408E-05-2.87017E-05-3.60571E-07 9.60830E-19 3.01622E-19
 -1      3761 9.50946E-05-2.81937E-05-2.86712E-05-2.50004E-07 8.02291E-19-3.95329E-19
 -1      3762 9.51224E-05-2.82511E-05-2.86602E-05-2.00511E-07 4.09106E-19-4.29305E-19
 -1      3763 9.50312E-05-2.81117E-05-2.86788E-05-2.48663E-07 9.88323E-19 1.29238E-19
 -1      3764 9.51578E-05-2.83055E-05-2.86505E-05-1.64385E-07 5.40246E-19-2.84694E-19
 -1      3765 9.51770E-05-2.83494E-05-2.86412E-05-1.28173E-07 1.01665E-19-1.15258E-20
 -1      3766 9.51155E-05-2.82450E-05-2.86582E-05-1.65629E-07 5.96644E-19 3.57123E-19
 -1      3767 9.52013E-05-2.83903E-05-2.86329E-05-1.02281E-07 1.75968E-19 4.79234E-19
 -1      3768 9.52140E-05-2.84232E-05-2.86252E-05-7.63783E-08 1.20542E-18 2.28909E-19
 -1      3769 9.51746E-05-2.83467E-05-2.86401E-05-1.05141E-07 7.06796E-19 1.09301E-18
 -1      3770 9.52300E-05-2.84533E-05-2.86183E-05-5.82810E-08 1.59801E-18-7.34140E-19
 -1      3771 9.52380E-05-2.84773E-05-2.86121E-05-4.02428E-08 7.14065E-19-1.97422E-19
 -1      3772 9.52144E-05-2.84226E-05-2.86248E-05-6.20138E-08 5.45747E-19 3.98695E-19
 -1      3773 9.52478E-05-2.84989E-05-2.86065E-05-2.79823E-08-1.39165E-19-4.58306E-19
 -1      3774 9.52523E-05-2.85160E-05-2.86016E-05-1.58352E-08-2.34283E-19-2.19816E-20
 -1      3775 9.52399E-05-2.84781E-05-2.86121E-05-3.20520E-08 5.67437E-19-4.05841E-19
 -1      3776 9.52579E-05-2.85311E-05-2.85970E-05-7.86548E-09-1.70792E-19 1.92245E-19
 -1      3777 9.52600E-05-2.85429E-05-2.85932E-05-4.34702E-11-3.54387E-19 2.46778E-19
 -1      3778 9.52551E-05-2.85175E-05-2.86018E-05-1.19089E-08 1.25071E-19-4.09385E-19
 -1      3779 9.52626E-05-2.85530E-05-2.85897E-05 4.83796E-09-2.69979E-19 3.45102E-19
 -1      3780 9.52631E-05-2.85609E-05-2.85868E-05 9.55541E-09-3.34939E-19 8.50204E-19
 -1      3781 9.52631E-05-2.85447E-05-2.85936E-05 1.04800E-09-5.03715E-19 1.35663E-18
 -1      3782 9.52637E-05-2.85673E-05-2.85841E-05 1.22688E-08-4.84790E-19 9.13349E-19
 -1      3783 9.52632E-05-2.85723E-05-2.85819E-05 1.48161E-08-1.38044E-19 1.22731E-18
 -1      3784 9.52662E-05-2.85627E-05-2.85872E-05 8.85809E-09-1.70048E-19 1.44403E-18
 -1      3785 9.52626E-05-2.85762E-05-2.85798E-05 1.60540E-08-3.21981E-20 6.24933E-19
 -1      3786 9.52615E-05-2.85791E-05-2.85782E-05 1.71327E-08 1.12465E-19 4.63232E-20
 -1      3787 9.52661E-05-2.85741E-05-2.85823E-05 1.30758E-08 8.31675E-21 4.92074E-19
 -1      3788 9.52601E-05-2.85811E-05-2.85767E-05 1.74065E-08 2.98827E-19 1.34699E-19
 -1      3789 9.52588E-05-2.85826E-05-2.85755E-05 1.75324E-08 4.85871E-19 1.31975E-18
 -1      3790 9.52640E-05-2.85807E-05-2.85786E-05 1.48662E-08 4.73889E-19 2.90272E-19
 -1      3791 9.52571E-05-2.85834E-05-2.85744E-05 1.72077E-08 2.79449E-20 7.67301E-19
 -1      3792 9.52556E-05-2.85840E-05-2.85736E-05 1.67483E-08 3.39790E-19 8.04852E-19
 -1      3793 9.52609E-05-2.85840E-05-2.85758E-05 1.50846E-08 4.48703E-19 1.78970E-18
 -1      3794 9.52538E-05-2.85840E-05-2.85727E-05 1.60857E-08 1.20414E-18 3.46600E-19
 -1      3795 9.52524E-05-2.85840E-05-2.85722E-05 1.52993E-08 1.89486E-18 1.25571E-18
 -1      3796 9.52573E-05-2.85852E-05-2.85738E-05 1.43342E-08 9.79533E-19 1.61054E-18
 -1      3797 9.52506E-05-2.85836E-05-2.85716E-05 1.44735E-08 1.39214E-18 1.69457E-18
 -1      3798 9.52493E-05-2.85833E-05-2.85712E-05 1.35476E-08 1.93646E-19 1.24515E-18
 -1      3799 9.52537E-05-2.85850E-05-2.85724E-05 1.30574E-08 1.81208E-18 6.19876E-19
 -1      3800 9.52471E-05-2.85824E-05-2.85706E-05 1.27171E-08-1.46588E-18 9.60740E-19
 -1      3801 8.86214E-05-2.25076E-05-2.83589E-05 6.40085E-06 3.98568E-19-3.21367E-19
 -1      3802 8.79840E-05-2.22044E-05-2.81869E-05 7.08835E-06 5.98684E-19 2.76760E-19
 -1      3803 9.23052E-05-2.49548E-05-2.88762E-05 3.50359E-06 6.58102E-19 7.73047E-19
 -1      3804 9.19437E-05-2.46025E-05-2.88601E-05 3.92886E-06 2.16819E-19 2.46732E-19
 -1      3805 9.08832E-05-2.38813E-05-2.86999E-05 3.64360E-06 1.46465E-19-1.86200E-19
 -1      3806 9.30631E-05-2.56521E-05-2.88998E-05 2.80294E-06 7.84360E-19 1.01272E-18
 -1      3807 9.27832E-05-2.53394E-05-2.89037E-05 3.16641E-06 8.69336E-19 9.75682E-19
 -1      3808 9.19537E-05-2.47309E-05-2.87982E-05 2.97380E-06 4.61617E-19 3.03436E-19
 -1      3809 9.36473E-05-2.62520E-05-2.88912E-05 2.20895E-06 7.39896E-19 2.03939E-18
 -1      3810 9.34347E-05-2.59837E-05-2.89064E-05 2.51536E-06 1.32727E-18 1.84670E-18
 -1      3811 9.27916E-05-2.54777E-05-2.88402E-05 2.39249E-06 6.26149E-19 1.13613E-18
 -1      3812 9.40919E-05-2.67552E-05-2.88646E-05 1.71288E-06 8.85724E-19 9.29625E-19
 -1      3813 9.39330E-05-2.65308E-05-2.88853E-05 1.96703E-06 5.69585E-19 1.54006E-18
 -1      3814 9.34401E-05-2.61164E-05-2.88466E-05 1.89406E-06 1.01500E-18 1.52375E-18
 -1      3815 9.44264E-05-2.71693E-05-2.88292E-05 1.30550E-06 1.34191E-18 2.70354E-20
 -1      3816 9.43092E-05-2.69851E-05-2.88517E-05 1.51275E-06 1.36118E-18 1.03486E-18
 -1      3817 9.39365E-05-2.66510E-05-2.88319E-05 1.47387E-06 1.34655E-18 7.25436E-19
 -1      3818 9.46752E-05-2.75044E-05-2.87911E-05 9.76753E-07 6.78156E-19 7.52006E-19
 -1      3819 9.45898E-05-2.73557E-05-2.88131E-05 1.14288E-06 9.87489E-19 4.54031E-19
 -1      3820 9.43123E-05-2.70904E-05-2.88059E-05 1.12625E-06 1.12122E-18 9.90691E-19
 -1      3821 9.48578E-05-2.77717E-05-2.87540E-05 7.16080E-07-8.55790E-19 1.35653E-18
 -1      3822 9.47964E-05-2.76533E-05-2.87743E-05 8.46975E-07-7.19098E-20 9.58383E-19
 -1      3823 9.45934E-05-2.74460E-05-2.87750E-05 8.44128E-07 1.40183E-19 1.82448E-18
 -1      3824 9.49901E-05-2.79819E-05-2.87200E-05 5.13009E-07-1.41604E-18 1.99130E-18
 -1      3825 9.49466E-05-2.78889E-05-2.87378E-05 6.14385E-07-7.80938E-19 1.65285E-18
 -1      3826 9.48011E-05-2.77294E-05-2.87433E-05 6.19473E-07-9.84541E-19 2.30015E-18
 -1      3827 9.50843E-05-2.81448E-05-2.86899E-05 3.57640E-07-3.51327E-20 1.21526E-18
 -1      3828 9.50541E-05-2.80728E-05-2.87052E-05 4.34779E-07-7.55592E-19 1.49826E-18
 -1      3829 9.49522E-05-2.79521E-05-2.87131E-05 4.43925E-07-6.49266E-19 1.55042E-18
 -1      3830 9.51500E-05-2.82695E-05-2.86643E-05 2.40982E-07-3.10673E-20 5.09476E-19
 -1      3831 9.51295E-05-2.82145E-05-2.86770E-05 2.98597E-07 7.65676E-19 1.43518E-18
 -1      3832 9.50603E-05-2.81247E-05-2.86859E-05 3.09332E-07 2.91588E-19 1.04541E-18
 -1      3833 9.51947E-05-2.83633E-05-2.86429E-05 1.55144E-07-1.59671E-18 7.13167E-19
 -1      3834 9.51812E-05-2.83220E-05-2.86533E-05 1.97316E-07-1.03684E-18 4.41513E-19
 -1      3835 9.51360E-05-2.82565E-05-2.86621E-05 2.08145E-07-3.65438E-19 5.78320E-19
 -1      3836 9.52241E-05-2.84328E-05-2.86254E-05 9.33935E-08-1.28348E-18 9.48558E-19
 -1      3837 9.52156E-05-2.84023E-05-2.86337E-05 1.23566E-07-9.38491E-19 8.72984E-19
 -1      3838 9.51877E-05-2.83556E-05-2.86420E-05 1.33650E-07-1.00677E-18 5.22887E-20
 -1      3839 9.52424E-05-2.84834E-05-2.86115E-05 5.01213E-08-3.78448E-19-5.22475E-19
 -1      3840 9.52375E-05-2.84612E-05-2.86180E-05 7.11375E-08-1.20071E-18 8.69426E-20
 -1      3841 9.52218E-05-2.84287E-05-2.86254E-05 8.00629E-08-6.22553E-19-9.84002E-19
 -1      3842 9.52531E-05-2.85193E-05-2.86005E-05 2.07585E-08-6.52508E-19-7.34405E-19
 -1      3843 9.52505E-05-2.85036E-05-2.86055E-05 3.49166E-08-3.97191E-19-3.01332E-19
 -1      3844 9.52431E-05-2.84818E-05-2.86119E-05 4.25391E-08-6.12907E-19-7.71236E-19
 -1      3845 9.52584E-05-2.85442E-05-2.85920E-05 1.65578E-09-3.28960E-19-2.60249E-19
 -1      3846 9.52574E-05-2.85333E-05-2.85958E-05 1.07800E-08-4.35825E-19-3.96878E-19
 -1      3847 9.52555E-05-2.85193E-05-2.86012E-05 1.71147E-08-5.16257E-19-1.44823E-18
 -1      3848 9.52601E-05-2.85608E-05-2.85855E-05-1.00467E-08-1.08081E-18-6.45664E-19
 -1      3849 9.52602E-05-2.85536E-05-2.85884E-05-4.53464E-09-4.53201E-19-1.34260E-19
 -1      3850 9.52617E-05-2.85451E-05-2.85928E-05 6.15412E-10-1.68057E-19-6.71346E-19
 -1      3851 9.52597E-05-2.85714E-05-2.85807E-05-1.65477E-08-1.38913E-18-3.94458E-19
 -1      3852 9.52604E-05-2.85668E-05-2.85828E-05-1.35603E-08-1.84085E-18-1.10043E-18
 -1      3853 9.52638E-05-2.85623E-05-2.85864E-05-9.44982E-09-9.83454E-19-2.11944E-18
 -1      3854 9.52579E-05-2.85778E-05-2.85772E-05-1.95056E-08-7.94148E-21-1.35792E-18
 -1      3855 9.52589E-05-2.85750E-05-2.85787E-05-1.82264E-08-3.70742E-19-7.62200E-19
 -1      3856 9.52632E-05-2.85731E-05-2.85815E-05-1.49974E-08-1.03876E-18-2.33256E-18
 -1      3857 9.52554E-05-2.85811E-05-2.85747E-05-2.01461E-08-4.38482E-19-2.83063E-18
 -1      3858 9.52565E-05-2.85797E-05-2.85757E-05-1.99751E-08-2.13965E-19-2.80421E-18
 -1      3859 9.52611E-05-2.85795E-05-2.85779E-05-1.74728E-08 4.20702E-19-4.56700E-18
 -1      3860 9.52526E-05-2.85825E-05-2.85729E-05-1.93510E-08-6.79129E-19-3.20659E-18
 -1      3861 9.52538E-05-2.85819E-05-2.85736E-05-1.98596E-08-5.38907E-19-2.36202E-18
 -1      3862 9.52582E-05-2.85827E-05-2.85753E-05-1.79454E-08-3.30711E-19-3.82184E-18
 -1      3863 9.52498E-05-2.85826E-05-2.85717E-05-1.77353E-08 2.57292E-19-2.22502E-18
 -1      3864 9.52509E-05-2.85826E-05-2.85721E-05-1.86304E-08-4.97866E-19-3.00472E-18
 -1      3865 9.52550E-05-2.85839E-05-2.85734E-05-1.71795E-08-1.14145E-18-3.54078E-18
 -1      3866 9.52474E-05-2.85820E-05-2.85708E-05-1.56906E-08 3.17062E-18-1.74504E-18
 -1      3867 9.52483E-05-2.85823E-05-2.85711E-05-1.67892E-08 1.91151E-18-2.02362E-18
 -1      3868 9.52518E-05-2.85838E-05-2.85720E-05-1.57442E-08 8.22136E-19-1.69792E-18
 -1      3869 9.52461E-05-2.85817E-05-2.85704E-05-1.36950E-08 1.68333E-18-1.55989E-18
 -1      3870 7.47622E-05-2.41741E-05-2.16257E-05-2.04129E-05 1.56437E-18 1.04492E-18
 -1      3871 8.41598E-05-3.13495E-05-2.26150E-05-2.40026E-05 2.07974E-18 5.33604E-19
 -1      3872 1.04526E-04-4.37744E-05-2.58476E-05-1.99672E-05 2.15848E-18-1.40603E-18
 -1      3873 1.09727E-04-4.59372E-05-2.73878E-05-1.47263E-05 1.45534E-18-2.24676E-18
 -1      3874 9.52509E-05-2.85852E-05-2.85710E-05-4.68591E-09-5.06721E-19 1.80982E-19
 -1      3875 9.52492E-05-2.85844E-05-2.85706E-05-5.51972E-09 2.78611E-19-7.35897E-19
 -1      3876 9.52483E-05-2.85838E-05-2.85705E-05-7.38787E-09 2.69090E-19-2.28942E-19
 -1      3877 8.68342E-05-2.18178E-05-2.78970E-05 7.79105E-06 6.28206E-20 1.52921E-19
 -1      3878 8.61677E-05-2.16885E-05-2.76212E-05 8.65248E-06 6.66488E-20 6.59598E-20
 -1      3879 8.57760E-05-2.10439E-05-2.77092E-05 6.42888E-06 3.42478E-19-4.49015E-19
 -1      3880 9.01191E-05-2.33339E-05-2.86409E-05 5.27348E-06 7.31906E-20 1.53031E-19
 -1      3881 8.95653E-05-2.29634E-05-2.85425E-05 5.84863E-06 9.11927E-20-3.12638E-19
 -1      3882 8.95325E-05-2.29495E-05-2.85158E-05 4.41370E-06-3.99280E-20-1.35092E-19
 -1      3883 9.52488E-05-2.85838E-05-2.85707E-05-8.99734E-09-4.84013E-20-1.44230E-18
 -1      3884 6.77375E-05-1.69222E-05-2.17520E-05 1.09255E-05-7.63653E-19-1.80630E-19
 -1      3885 6.38941E-05-1.44174E-05-2.11507E-05 3.75198E-06 1.04614E-20 8.84091E-19
 -1      3886 9.05292E-05-3.53038E-05-2.34682E-05-2.39226E-05 2.22723E-18 1.50520E-19
 -1      3887 9.84393E-05-4.06457E-05-2.47970E-05-2.22431E-05 2.20313E-18-7.66446E-19
 -1      3888 9.83195E-05-3.88692E-05-2.54887E-05-1.94412E-05 2.08072E-18-1.30322E-18
 -1      3889 8.75245E-05-3.18897E-05-2.38009E-05-2.12010E-05 1.63405E-18 3.06103E-19
 -1      3890 8.24763E-05-2.27803E-05-2.55262E-05 1.39547E-05-1.07994E-18-1.01925E-18
 -1      3891 7.37149E-05-1.94812E-05-2.31917E-05 1.35492E-05-7.69655E-19-5.48123E-19
 -1      3892 7.34549E-05-1.79488E-05-2.38331E-05 9.67653E-06-7.84591E-19-1.75071E-19
 -1      3893 8.25474E-05-2.18395E-05-2.60699E-05 1.22937E-05-2.81969E-19-6.51868E-19
 -1      3894 9.52496E-05-2.85838E-05-2.85711E-05 1.15818E-08-1.28153E-18-2.45231E-19
 -1      3895 9.52489E-05-2.85833E-05-2.85710E-05-1.28890E-08 1.77718E-18-1.33865E-18
 -1      3896 9.52525E-05-2.85854E-05-2.85716E-05-8.65603E-09 5.23010E-19-2.24292E-18
 -1      3897 9.52510E-05-2.85845E-05-2.85714E-05-1.06217E-08 1.06252E-18-1.90657E-18
 -1      3898 9.52525E-05-2.85847E-05-2.85719E-05-1.26401E-08 1.71073E-18-2.80331E-18
 -1      3899 7.11615E-05-1.87849E-05-2.24729E-05-1.20541E-05 9.33391E-19 1.48453E-18
 -1      3900 7.23159E-05-2.08821E-05-2.18697E-05-1.67544E-05 1.33430E-18 1.44064E-18
 -1      3901 7.84968E-05-2.43983E-05-2.31896E-05-1.75032E-05 1.21226E-18 6.57787E-19
 -1      3902 9.52544E-05-2.85865E-05-2.85720E-05-3.65130E-09-9.37467E-19-8.66997E-19
 -1      3903 9.52537E-05-2.85861E-05-2.85718E-05-5.95158E-09-5.39335E-19-1.52477E-18
 -1      3904 9.52560E-05-2.85866E-05-2.85726E-05-7.62373E-09-2.98054E-19-2.93198E-18
 -1      3905 9.52509E-05-2.85852E-05-2.85710E-05 4.77807E-09-1.40757E-18-3.45092E-19
 -1      3906 6.91990E-05-1.56518E-05-2.29179E-05 2.66659E-06-3.74653E-19 5.21448E-19
 -1      3907 6.52404E-05-1.44187E-05-2.16313E-05-5.22040E-07 1.95567E-19 1.05286E-18
 -1      3908 6.80380E-05-1.58024E-05-2.24491E-05-4.85844E-06 4.68730E-19 1.24334E-18
 -1      3909 9.52513E-05-2.85847E-05-2.85714E-05 9.61532E-09-1.00269E-18-2.50298E-19
 -1      3910 8.47896E-05-2.14740E-05-2.71805E-05 9.62118E-06-2.11430E-19 4.10062E-19
 -1      3911 8.42165E-05-2.16936E-05-2.67675E-05 1.07745E-05 9.20090E-20 8.88326E-20
 -1      3912 8.32611E-05-2.02863E-05-2.69488E-05 7.91324E-06 4.97053E-21 1.53038E-19
 -1      3913 9.52546E-05-2.85866E-05-2.85720E-05 1.67194E-09-2.25934E-18 2.46401E-19
 -1      3914 9.52547E-05-2.85867E-05-2.85720E-05-7.50779E-10-1.79139E-18-2.83859E-19
 -1      3915 9.52576E-05-2.85874E-05-2.85729E-05-1.95626E-09-2.02778E-18-1.83462E-18
 -1      3916 8.78479E-05-2.19766E-05-2.82048E-05 5.31540E-06 3.22733E-19 1.40170E-19
 -1      3917 9.51796E-05-3.52489E-05-2.55783E-05-1.79659E-05 1.74446E-18-1.01141E-18
 -1      3918 8.73193E-05-2.17415E-05-2.81263E-05 3.98725E-06 9.06135E-21-1.85732E-19
 -1      3919 8.63636E-05-2.12307E-05-2.79229E-05 4.40124E-06 4.73880E-19-1.72413E-19
 -1      3920 9.22388E-05-3.17844E-05-2.58761E-05-1.57018E-05 9.66625E-19-7.54870E-19
 -1      3921 9.04611E-05-2.94689E-05-2.61190E-05-1.42177E-05 7.97638E-19-5.47785E-19
 -1      3922 9.01333E-05-2.80862E-05-2.65342E-05-1.22987E-05 8.42742E-19-6.49009E-19
 -1      3923 8.92206E-05-2.67423E-05-2.67909E-05-1.10282E-05 4.86373E-19-3.13228E-19
 -1      3924 8.70517E-05-2.68611E-05-2.57801E-05-1.37342E-05 9.53319E-19-3.56919E-19
 -1      3925 8.93495E-05-2.59360E-05-2.71388E-05-9.56017E-06 6.22207E-20 5.50383E-20
 -1      3926 8.90021E-05-2.51826E-05-2.73683E-05-8.50223E-06-6.81035E-20-1.44538E-19
 -1      3927 8.69361E-05-2.48623E-05-2.66072E-05-1.02525E-05 4.49080E-19-5.39822E-19
 -1      3928 8.93731E-05-2.48231E-05-2.76404E-05-7.39677E-06 1.68737E-19 1.94102E-19
 -1      3929 8.93630E-05-2.44787E-05-2.78245E-05-6.55284E-06 7.32103E-19 5.30947E-21
 -1      3930 8.75162E-05-2.38940E-05-2.72632E-05-7.65135E-06 4.31058E-19 3.32990E-19
 -1      3931 8.98313E-05-2.43973E-05-2.80284E-05-5.72968E-06 8.60421E-19-2.02226E-19
 -1      3932 8.99983E-05-2.43105E-05-2.81671E-05-5.06167E-06 8.78677E-19 2.51559E-19
 -1      3933 8.83913E-05-2.36012E-05-2.77602E-05-5.73859E-06 8.13716E-19 1.14540E-19
 -1      3934 9.04920E-05-2.44049E-05-2.83138E-05-4.43557E-06 1.13238E-18-1.08008E-19
 -1      3935 9.07478E-05-2.44843E-05-2.84116E-05-3.90623E-06 1.46432E-18-7.92204E-20
 -1      3936 8.93632E-05-2.37179E-05-2.81252E-05-4.32484E-06 8.30559E-19-2.73412E-19
 -1      3937 9.12237E-05-2.46825E-05-2.85120E-05-3.43161E-06 1.13530E-18 2.94682E-19
 -1      3938 9.15091E-05-2.48564E-05-2.85762E-05-3.01087E-06 9.07648E-19 3.21982E-19
 -1      3939 9.03378E-05-2.40935E-05-2.83816E-05-3.26374E-06 1.25752E-18-5.23630E-19
 -1      3940 9.19421E-05-2.51051E-05-2.86411E-05-2.64862E-06 3.44159E-19-3.07300E-19
 -1      3941 9.22221E-05-2.53242E-05-2.86794E-05-2.31291E-06-3.07263E-19-7.13428E-19
 -1      3942 9.12461E-05-2.46034E-05-2.85530E-05-2.46736E-06 3.05921E-19-7.89517E-19
 -1      3943 9.26015E-05-2.55884E-05-2.87179E-05-2.03452E-06-4.68156E-19-5.51812E-19
 -1      3944 9.28568E-05-2.58202E-05-2.87372E-05-1.76635E-06-4.80070E-19-2.84350E-19
 -1      3945 9.20554E-05-2.51639E-05-2.86606E-05-1.86298E-06-2.55546E-19-1.22455E-18
 -1      3946 9.31792E-05-2.60771E-05-2.87569E-05-1.55187E-06-1.88350E-19-4.51837E-19
 -1      3947 9.34009E-05-2.63012E-05-2.87629E-05-1.33812E-06 7.00034E-20-1.48273E-19
 -1      3948 9.27534E-05-2.57219E-05-2.87216E-05-1.40134E-06-1.86358E-19-8.16447E-19
 -1      3949 9.36678E-05-2.65370E-05-2.87696E-05-1.17295E-06-2.01381E-19 4.79735E-19
 -1      3950 9.38532E-05-2.67414E-05-2.87669E-05-1.00343E-06-1.50896E-19 4.25380E-19
 -1      3951 9.33388E-05-2.62436E-05-2.87499E-05-1.04769E-06 1.02566E-19-1.93316E-19
 -1      3952 9.40689E-05-2.69491E-05-2.87652E-05-8.76623E-07-2.14399E-19 2.65643E-19
 -1      3953 9.42192E-05-2.71278E-05-2.87572E-05-7.43184E-07-3.14629E-19 5.60654E-19
 -1      3954 9.38176E-05-2.67102E-05-2.87562E-05-7.76732E-07-2.96753E-19 3.94260E-19
 -1      3955 9.43897E-05-2.73048E-05-2.87504E-05-6.46349E-07-1.99332E-19 6.47951E-19
 -1      3956 9.45084E-05-2.74561E-05-2.87397E-05-5.42296E-07 5.23400E-19 8.51533E-19
 -1      3957 9.42005E-05-2.71131E-05-2.87484E-05-5.69623E-07-4.95842E-20 8.72534E-19
 -1      3958 9.46402E-05-2.76028E-05-2.87301E-05-4.68901E-07 4.54179E-19 7.07920E-19
 -1      3959 9.47315E-05-2.77274E-05-2.87183E-05-3.88663E-07 5.06486E-19 4.78437E-19
 -1      3960 9.45000E-05-2.74514E-05-2.87325E-05-4.12065E-07 1.41455E-19 1.03205E-18
 -1      3961 9.48313E-05-2.78462E-05-2.87077E-05-3.33567E-07 7.07236E-19 5.28725E-19
 -1      3962 9.48999E-05-2.79464E-05-2.86961E-05-2.72477E-07 1.28014E-18 7.87855E-20
 -1      3963 9.47294E-05-2.77285E-05-2.87127E-05-2.93038E-07 4.53546E-19 6.79408E-19
 -1      3964 9.49737E-05-2.80405E-05-2.86855E-05-2.31603E-07 1.35114E-18-2.60112E-19
 -1      3965 9.50238E-05-2.81194E-05-2.86746E-05-1.85758E-07 7.59431E-19 1.60016E-19
 -1      3966 9.49012E-05-2.79506E-05-2.86917E-05-2.03945E-07 9.75565E-19-3.83665E-19
 -1      3967 9.50772E-05-2.81924E-05-2.86647E-05-1.55864E-07 6.94833E-19 6.55470E-19
 -1      3968 9.51128E-05-2.82531E-05-2.86551E-05-1.22020E-07 9.00988E-19 8.94643E-19
 -1      3969 9.50270E-05-2.81249E-05-2.86713E-05-1.38023E-07 1.33627E-18 9.26096E-19
 -1      3970 9.51502E-05-2.83087E-05-2.86462E-05-1.00529E-07 7.79650E-19 7.39363E-19
 -1      3971 9.51746E-05-2.83545E-05-2.86379E-05-7.60118E-08 4.91100E-19 6.38763E-19
 -1      3972 9.51167E-05-2.82590E-05-2.86526E-05-8.99298E-08 8.80666E-19 4.59094E-19
 -1      3973 9.52000E-05-2.83958E-05-2.86302E-05-6.08835E-08 3.37776E-19 3.44944E-19
 -1      3974 9.52161E-05-2.84297E-05-2.86232E-05-4.35157E-08 3.18207E-19 6.07688E-20
 -1      3975 9.51786E-05-2.83600E-05-2.86361E-05-5.54424E-08 2.16061E-19 5.95521E-20
 -1      3976 9.52325E-05-2.84597E-05-2.86168E-05-3.31440E-08 3.88211E-19-6.45486E-20
 -1      3977 9.52424E-05-2.84841E-05-2.86110E-05-2.11726E-08 2.46448E-20-2.36264E-19
 -1      3978 9.52199E-05-2.84346E-05-2.86219E-05-3.12317E-08 3.41060E-19-2.26369E-20
 -1      3979 9.52524E-05-2.85054E-05-2.86057E-05-1.43039E-08 7.02739E-20-5.37391E-19
 -1      3980 9.52580E-05-2.85226E-05-2.86011E-05-6.33701E-09 4.94306E-19-1.18133E-19
 -1      3981 9.52458E-05-2.84884E-05-2.86101E-05-1.46866E-08 1.30032E-19-3.07590E-19
 -1      3982 9.52633E-05-2.85372E-05-2.85968E-05-2.00257E-09-2.34202E-19 1.67471E-19
 -1      3983 9.52659E-05-2.85488E-05-2.85932E-05 3.04935E-09-4.06191E-19 4.21603E-19
 -1      3984 9.52609E-05-2.85261E-05-2.86005E-05-3.77459E-09 2.14344E-20-8.98256E-19
 -1      3985 9.52682E-05-2.85585E-05-2.85898E-05 5.58900E-09-4.79211E-19 4.94534E-19
 -1      3986 9.52688E-05-2.85660E-05-2.85870E-05 8.56610E-09-3.76167E-19 6.31331E-19
 -1      3987 9.52683E-05-2.85516E-05-2.85928E-05 3.07072E-09-4.15850E-19-3.24535E-19
 -1      3988 9.52690E-05-2.85720E-05-2.85844E-05 9.86736E-09 2.91290E-19 1.13576E-18
 -1      3989 9.52684E-05-2.85766E-05-2.85822E-05 1.14068E-08 3.35499E-19 9.82396E-19
 -1      3990 9.52707E-05-2.85682E-05-2.85868E-05 7.04237E-09 2.98820E-19 5.47390E-19
 -1      3991 9.52673E-05-2.85801E-05-2.85802E-05 1.18820E-08 1.88049E-19 1.55310E-18
 -1      3992 9.52660E-05-2.85826E-05-2.85786E-05 1.24586E-08 7.69506E-19 1.30446E-18
 -1      3993 9.52699E-05-2.85784E-05-2.85821E-05 9.03513E-09 4.34483E-19 9.32343E-19
 -1      3994 9.52642E-05-2.85843E-05-2.85771E-05 1.24124E-08 7.37820E-19 1.47876E-18
 -1      3995 9.52625E-05-2.85854E-05-2.85759E-05 1.23727E-08 3.25981E-19 1.81948E-18
 -1      3996 9.52671E-05-2.85839E-05-2.85785E-05 9.71540E-09 9.44734E-19 1.61379E-18
 -1      3997 9.52604E-05-2.85860E-05-2.85747E-05 1.20158E-08 2.90158E-19 2.18005E-18
 -1      3998 9.52586E-05-2.85862E-05-2.85739E-05 1.16196E-08 1.08937E-18 2.23595E-18
 -1      3999 9.52633E-05-2.85864E-05-2.85759E-05 9.55249E-09 4.57717E-19 2.06349E-18
 -1      4000 9.52565E-05-2.85860E-05-2.85730E-05 1.10522E-08 1.08606E-18 1.18472E-18
 -1      4001 9.52547E-05-2.85858E-05-2.85724E-05 1.04486E-08 8.38893E-19 6.89750E-19
 -1      4002 9.52592E-05-2.85869E-05-2.85739E-05 8.93205E-09 4.88835E-19 1.91344E-18
 -1      4003 9.25942E-05-2.54219E-05-2.87962E-05 1.89017E-06 7.51429E-19 2.17910E-19
 -1      4004 9.22211E-05-2.50677E-05-2.87827E-05 2.13565E-06 1.06961E-19-3.03058E-19
 -1      4005 9.05668E-05-2.37778E-05-2.86365E-05 2.82607E-06 1.70582E-19-2.31658E-19
 -1      4006 8.99564E-05-2.33206E-05-2.85641E-05 3.14072E-06 1.12472E-19-2.17675E-19
 -1      4007 9.32864E-05-2.60746E-05-2.88116E-05 1.50427E-06 9.36715E-19 3.11028E-19
 -1      4008 9.29996E-05-2.57741E-05-2.88125E-05 1.71583E-06 1.17298E-18 3.57690E-19
 -1      4009 9.25089E-05-2.53738E-05-2.87632E-05 1.47448E-06 6.53907E-19-1.03143E-18
 -1      4010 9.38191E-05-2.66202E-05-2.88048E-05 1.17441E-06 9.50242E-19 8.31790E-19
 -1      4011 9.36010E-05-2.63701E-05-2.88141E-05 1.35296E-06 9.50644E-19 2.97535E-19
 -1      4012 9.32189E-05-2.60371E-05-2.87854E-05 1.18403E-06 9.71915E-19-1.83617E-19
 -1      4013 9.42248E-05-2.70687E-05-2.87854E-05 8.98903E-07 6.38892E-19 2.13327E-18
 -1      4014 9.40608E-05-2.68639E-05-2.87989E-05 1.04643E-06 9.02233E-19 1.74499E-18
 -1      4015 9.37676E-05-2.65919E-05-2.87845E-05 9.30463E-07 2.72854E-19 1.41763E-18
 -1      4016 9.45300E-05-2.74315E-05-2.87598E-05 6.73868E-07-6.70223E-19 3.24156E-18
 -1      4017 9.44082E-05-2.72664E-05-2.87750E-05 7.93284E-07 3.14885E-19 3.03630E-18
 -1      4018 9.41870E-05-2.70481E-05-2.87700E-05 7.15504E-07-1.77415E-19 3.64352E-18
 -1      4019 9.47566E-05-2.77207E-05-2.87322E-05 4.93948E-07-3.51256E-19 2.44466E-18
 -1      4020 9.46674E-05-2.75895E-05-2.87474E-05 5.88707E-07-6.22529E-19 3.11150E-18
 -1      4021 9.45035E-05-2.74173E-05-2.87485E-05 5.38071E-07-3.60190E-19 3.31761E-18
 -1      4022 9.49223E-05-2.79478E-05-2.87053E-05 3.53046E-07-2.79415E-20 1.60372E-18
 -1      4023 9.48579E-05-2.78451E-05-2.87194E-05 4.26785E-07 1.08437E-19 2.21107E-18
 -1      4024 9.47390E-05-2.77115E-05-2.87241E-05 3.95152E-07 2.95099E-19 3.11364E-18
 -1      4025 9.50413E-05-2.81235E-05-2.86805E-05 2.44939E-07 2.01963E-19 1.00654E-18
 -1      4026 9.49958E-05-2.80443E-05-2.86931E-05 3.01208E-07 2.20651E-19 8.84812E-19
 -1      4027 9.49115E-05-2.79425E-05-2.86996E-05 2.82647E-07 2.43317E-19 1.91420E-18
 -1      4028 9.51250E-05-2.82574E-05-2.86586E-05 1.63711E-07 1.53637E-21 4.41662E-19
 -1      4029 9.50935E-05-2.81973E-05-2.86695E-05 2.05789E-07 2.56056E-19 7.74059E-19
 -1      4030 9.50355E-05-2.81211E-05-2.86766E-05 1.96029E-07 9.87194E-20 8.95069E-19
 -1      4031 9.51822E-05-2.83578E-05-2.86398E-05 1.04016E-07-6.14797E-19 4.10888E-19
 -1      4032 9.51611E-05-2.83129E-05-2.86490E-05 1.34806E-07-4.91913E-19 7.62730E-19
 -1      4033 9.51227E-05-2.82570E-05-2.86560E-05 1.30809E-07 4.01003E-20 7.69671E-19
 -1      4034 9.52200E-05-2.84317E-05-2.86241E-05 6.12075E-08-7.37883E-19-3.29729E-19
 -1      4035 9.52065E-05-2.83987E-05-2.86316E-05 8.31973E-08-4.70266E-19-1.47843E-19
 -1      4036 9.51822E-05-2.83587E-05-2.86382E-05 8.28281E-08-1.12155E-19 1.04093E-18
 -1      4037 9.52437E-05-2.84850E-05-2.86113E-05 3.13674E-08-6.66510E-19-6.02262E-19
 -1      4038 9.52356E-05-2.84613E-05-2.86173E-05 4.66314E-08-6.88009E-19-1.15069E-18
 -1      4039 9.52214E-05-2.84334E-05-2.86232E-05 4.84162E-08-4.04882E-19-3.99284E-19
 -1      4040 9.52575E-05-2.85225E-05-2.86010E-05 1.12820E-08-4.11986E-19-1.21563E-18
 -1      4041 9.52531E-05-2.85059E-05-2.86057E-05 2.15084E-08-1.02672E-18-1.18182E-18
 -1      4042 9.52460E-05-2.84871E-05-2.86108E-05 2.44490E-08-6.72041E-19-1.06577E-18
 -1      4043 9.52644E-05-2.85481E-05-2.85928E-05-1.62566E-09 8.04377E-20-1.27157E-18
 -1      4044 9.52625E-05-2.85369E-05-2.85966E-05 4.90801E-09 5.67429E-19-1.00481E-18
 -1      4045 9.52601E-05-2.85247E-05-2.86008E-05 8.34666E-09 9.10060E-20-1.56203E-18
 -1      4046 9.52668E-05-2.85650E-05-2.85866E-05-9.37776E-09-9.70118E-19-2.30263E-18
 -1      4047 9.52665E-05-2.85576E-05-2.85894E-05-5.48711E-09-2.60837E-19-2.25924E-18
 -1      4048 9.52670E-05-2.85502E-05-2.85929E-05-1.96770E-09 1.20974E-19-1.11645E-18
 -1      4049 9.52662E-05-2.85755E-05-2.85818E-05-1.35276E-08-3.15530E-20-3.27270E-18
 -1      4050 9.52669E-05-2.85709E-05-2.85839E-05-1.14771E-08-1.09677E-18-2.48801E-18
 -1      4051 9.52692E-05-2.85669E-05-2.85867E-05-8.12712E-09-4.65813E-20-1.92087E-18
 -1      4052 9.52638E-05-2.85814E-05-2.85782E-05-1.52422E-08 5.28362E-19-3.87994E-18
 -1      4053 9.52651E-05-2.85789E-05-2.85798E-05-1.44302E-08 4.05385E-19-3.20793E-18
 -1      4054 9.52683E-05-2.85771E-05-2.85820E-05-1.13863E-08 1.30958E-19-3.36213E-18
 -1      4055 9.52605E-05-2.85843E-05-2.85755E-05-1.53845E-08-1.13004E-18-3.16181E-18
 -1      4056 9.52621E-05-2.85831E-05-2.85767E-05-1.53690E-08-3.20324E-19-3.40320E-18
 -1      4057 9.52656E-05-2.85828E-05-2.85784E-05-1.26857E-08-4.92108E-19-2.49568E-18
 -1      4058 9.52569E-05-2.85852E-05-2.85736E-05-1.45642E-08-1.19993E-18-3.04590E-18
 -1      4059 9.52586E-05-2.85849E-05-2.85744E-05-1.50461E-08-1.59791E-18-3.66219E-18
 -1      4060 9.52620E-05-2.85855E-05-2.85757E-05-1.27403E-08-1.15472E-18-2.64526E-18
 -1      4061 9.52539E-05-2.85850E-05-2.85724E-05-1.32497E-08 1.13314E-18-3.75104E-18
 -1      4062 9.52555E-05-2.85852E-05-2.85730E-05-1.39729E-08-4.20138E-19-3.83110E-18
 -1      4063 9.52587E-05-2.85863E-05-2.85740E-05-1.20322E-08-8.43058E-19-4.61956E-18
 -1      4064 9.52560E-05-2.85861E-05-2.85728E-05-1.09642E-08 1.64156E-19-4.14947E-18
 -1      4065 9.17034E-05-2.46562E-05-2.87446E-05 2.33139E-06 2.19125E-19 1.87452E-19
 -1      4066 9.12233E-05-2.42480E-05-2.87079E-05 2.61096E-06 4.10808E-19-1.73387E-19
 -1      4067 9.15989E-05-2.45948E-05-2.87041E-05 1.79671E-06 3.80398E-19-3.95398E-19
 -1      4068 9.52535E-05-2.85856E-05-2.85719E-05 8.81890E-09-4.12694E-19-2.95776E-19
 -1      4069 9.52524E-05-2.85856E-05-2.85715E-05 6.15891E-09-1.56574E-18-1.58387E-19
 -1      4070 9.52531E-05-2.85861E-05-2.85716E-05 3.85691E-09-1.51773E-18 1.65711E-20
 -1      4071 9.52559E-05-2.85867E-05-2.85725E-05 6.92420E-09-5.19465E-19 1.15772E-18
 -1      4072 8.50440E-05-2.06488E-05-2.76282E-05 4.70932E-06 5.06692E-19-1.60068E-19
 -1      4073 8.38766E-05-2.01662E-05-2.73122E-05 5.22661E-06 2.50218E-19-4.74223E-19
 -1      4074 8.48232E-05-2.04002E-05-2.75713E-05 3.27662E-06 4.35203E-19-5.79948E-19
 -1      4075 8.91282E-05-2.27977E-05-2.84436E-05 3.37511E-06-1.36009E-19-1.29489E-19
 -1      4076 8.83609E-05-2.23044E-05-2.83178E-05 3.73046E-06-1.81606E-19-4.80928E-19
 -1      4077 8.89800E-05-2.26891E-05-2.83894E-05 2.50473E-06-2.38321E-19-3.91591E-19
 -1      4078 8.71413E-05-2.15848E-05-2.80680E-05 2.87998E-06 3.00907E-19-3.77181E-19
 -1      4079 7.08864E-05-1.70583E-05-2.29206E-05-8.18344E-06 8.42102E-19 2.03159E-18
 -1      4080 7.48018E-05-1.95682E-05-2.37141E-05-1.07642E-05 6.61217E-19 1.42239E-18
 -1      4081 7.19570E-05-1.67776E-05-2.36810E-05-4.39597E-06 2.94076E-19 9.96137E-19
 -1      4082 9.52563E-05-2.85871E-05-2.85725E-05 3.12111E-09-1.96726E-18 1.21087E-18
 -1      4083 8.18611E-05-1.91590E-05-2.68186E-05 3.76434E-06 3.76851E-19-3.21030E-19
 -1      4084 8.21747E-05-1.95926E-05-2.68675E-05 5.64220E-06 1.87061E-19-7.85296E-20
 -1      4085 8.07841E-05-1.91960E-05-2.63943E-05 6.35564E-06 1.96229E-19 5.37230E-20
 -1      4086 9.04421E-05-2.36982E-05-2.85887E-05 2.14273E-06 2.34084E-19-1.92703E-19
 -1      4087 8.02306E-05-1.99801E-05-2.57705E-05 1.02276E-05-7.19513E-19-8.27114E-20
 -1      4088 9.52588E-05-2.85875E-05-2.85734E-05-5.32303E-09-1.46262E-18-4.45221E-18
 -1      4089 9.52577E-05-2.85869E-05-2.85732E-05-8.02695E-09-3.68141E-21-4.84792E-18
 -1      4090 9.52590E-05-2.85870E-05-2.85737E-05-8.53700E-09-2.99353E-20-4.53245E-18
 -1      4091 8.16693E-05-2.49937E-05-2.43328E-05-1.54364E-05 1.22400E-18 1.93782E-19
 -1      4092 8.48830E-05-2.79494E-05-2.42492E-05-1.80785E-05 1.40512E-18 5.22513E-20
 -1      4093 8.97246E-05-3.16805E-05-2.49335E-05-1.83821E-05 1.56237E-18-6.75112E-19
 -1      4094 9.52596E-05-2.85879E-05-2.85736E-05 7.50239E-10-2.31324E-18 1.07085E-18
 -1      4095 9.52594E-05-2.85878E-05-2.85736E-05-2.18985E-09-1.97382E-18-1.87014E-18
 -1      4096 9.52610E-05-2.85879E-05-2.85742E-05-2.46780E-09-1.25712E-18-2.10497E-18
 -1      4097 7.66958E-05-1.84970E-05-2.49279E-05 8.55063E-06-9.25537E-19-2.47960E-19
 -1      4098 7.22372E-05-1.64952E-05-2.37765E-05 6.16949E-06-7.16494E-19-1.76315E-19
 -1      4099 7.24538E-05-1.64284E-05-2.40715E-05 2.45181E-06-4.58496E-19-7.39069E-20
 -1      4100 7.84251E-05-1.86549E-05-2.56855E-05 7.22560E-06-6.26086E-19-1.15898E-19
 -1      4101 8.44616E-05-2.34695E-05-2.61147E-05-1.00689E-05 8.16105E-19-2.90390E-19
 -1      4102 8.46913E-05-2.29274E-05-2.65119E-05-8.58541E-06 5.27589E-19 1.54341E-19
 -1      4103 8.57205E-05-2.28250E-05-2.69327E-05-7.29747E-06 6.00602E-19 6.81286E-19
 -1      4104 8.61180E-05-2.26519E-05-2.72305E-05-6.24269E-06 1.23746E-18 1.21141E-18
 -1      4105 8.34472E-05-2.15620E-05-2.64933E-05-7.01423E-06 1.22562E-18 3.63958E-19
 -1      4106 8.70368E-05-2.27679E-05-2.75340E-05-5.33345E-06 6.39392E-19 1.29270E-18
 -1      4107 8.74969E-05-2.28164E-05-2.77550E-05-4.58478E-06 2.13143E-19 7.80446E-19
 -1      4108 8.54090E-05-2.17897E-05-2.72388E-05-4.95288E-06 7.13676E-19 7.59487E-19
 -1      4109 8.83312E-05-2.30442E-05-2.79721E-05-3.89874E-06 2.80142E-19 7.14488E-19
 -1      4110 8.88218E-05-2.32424E-05-2.81295E-05-3.34631E-06 8.96830E-19 4.13591E-19
 -1      4111 8.70774E-05-2.21868E-05-2.77626E-05-3.47030E-06 2.44351E-19 4.80678E-19
 -1      4112 8.95408E-05-2.35504E-05-2.82787E-05-2.87210E-06 1.15942E-18-6.56898E-19
 -1      4113 9.00163E-05-2.38237E-05-2.83863E-05-2.46293E-06 8.78533E-19-1.07460E-18
 -1      4114 8.86234E-05-2.28707E-05-2.81371E-05-2.45673E-06 4.17261E-19-2.73492E-19
 -1      4115 9.06275E-05-2.41588E-05-2.84857E-05-2.12278E-06 5.00431E-19-1.26133E-18
 -1      4116 9.10603E-05-2.44625E-05-2.85554E-05-1.81523E-06-1.28519E-19-1.18864E-18
 -1      4117 8.99303E-05-2.36057E-05-2.83912E-05-1.74336E-06 4.15813E-19-1.87589E-18
 -1      4118 9.15749E-05-2.47995E-05-2.86183E-05-1.57031E-06 1.40771E-19-8.24370E-19
 -1      4119 9.19548E-05-2.51048E-05-2.86602E-05-1.33668E-06-3.84617E-20-6.06220E-19
 -1      4120 9.10411E-05-2.43465E-05-2.85573E-05-1.23618E-06 9.18561E-20-1.32075E-18
 -1      4121 9.23816E-05-2.54244E-05-2.86969E-05-1.16030E-06-5.41317E-19-2.24512E-19
 -1      4122 9.27051E-05-2.57124E-05-2.87189E-05-9.81695E-07-2.77487E-19-1.20509E-19
 -1      4123 9.19723E-05-2.50536E-05-2.86592E-05-8.76020E-07 8.02092E-20 4.04612E-19
 -1      4124 9.30532E-05-2.60025E-05-2.87372E-05-8.54672E-07 4.50538E-19-5.96560E-19
 -1      4125 9.33214E-05-2.62622E-05-2.87455E-05-7.17670E-07 4.63430E-19-4.93634E-19
 -1      4126 9.27401E-05-2.57004E-05-2.87157E-05-6.20142E-07-1.12480E-19-1.82210E-19
 -1      4127 9.36004E-05-2.65165E-05-2.87514E-05-6.26222E-07 1.84976E-19-1.94519E-19
 -1      4128 9.38175E-05-2.67426E-05-2.87508E-05-5.21056E-07-1.21993E-19 1.82093E-19
 -1      4129 9.33624E-05-2.62724E-05-2.87410E-05-4.38071E-07 4.86284E-19-1.18946E-18
 -1      4130 9.40374E-05-2.69594E-05-2.87488E-05-4.55300E-07-4.71301E-19 8.59141E-19
 -1      4131 9.42092E-05-2.71506E-05-2.87427E-05-3.74718E-07-3.54999E-19 1.04675E-18
 -1      4132 9.38579E-05-2.67640E-05-2.87456E-05-3.08275E-07 9.52081E-20-4.41287E-19
 -1      4133 9.43793E-05-2.73309E-05-2.87360E-05-3.27554E-07-1.34484E-19 1.01458E-18
 -1      4134 9.45125E-05-2.74887E-05-2.87269E-05-2.66073E-07-1.00068E-20 6.35108E-19
 -1      4135 9.42455E-05-2.71762E-05-2.87373E-05-2.15593E-07-2.43626E-19 3.34790E-19
 -1      4136 9.46417E-05-2.76352E-05-2.87178E-05-2.32389E-07 2.07640E-20 8.49448E-19
 -1      4137 9.47426E-05-2.77626E-05-2.87075E-05-1.85789E-07 6.82285E-19 5.59368E-19
 -1      4138 9.45433E-05-2.75144E-05-2.87217E-05-1.49361E-07 4.63015E-20 3.87688E-19
 -1      4139 9.48388E-05-2.78794E-05-2.86975E-05-1.61891E-07 5.98585E-19 3.33473E-19
 -1      4140 9.49136E-05-2.79802E-05-2.86870E-05-1.26881E-07 6.86826E-19-4.36831E-21
 -1      4141 9.47677E-05-2.77863E-05-2.87028E-05-1.02061E-07 5.04757E-19 9.56617E-19
 -1      4142 9.49837E-05-2.80715E-05-2.86771E-05-1.10090E-07 1.13272E-18 7.79911E-20
 -1      4143 9.50378E-05-2.81496E-05-2.86673E-05-8.40794E-08 1.16047E-18 1.65573E-19
 -1      4144 9.49333E-05-2.80008E-05-2.86829E-05-6.83747E-08 9.12736E-19 2.01792E-19
 -1      4145 9.50877E-05-2.82196E-05-2.86580E-05-7.24394E-08 1.02537E-18-4.02868E-19
 -1      4146 9.51257E-05-2.82790E-05-2.86492E-05-5.33782E-08 5.18043E-19-7.29825E-19
 -1      4147 9.50529E-05-2.81668E-05-2.86638E-05-4.45145E-08 5.62294E-19-6.08254E-19
 -1      4148 9.51601E-05-2.83316E-05-2.86410E-05-4.54590E-08 3.37940E-19-4.69337E-19
 -1      4149 9.51859E-05-2.83758E-05-2.86333E-05-3.17215E-08 2.23913E-19-5.58985E-19
 -1      4150 9.51368E-05-2.82929E-05-2.86463E-05-2.77646E-08 4.12980E-19-8.76364E-19
 -1      4151 9.52088E-05-2.84146E-05-2.86262E-05-2.64723E-08 2.90145E-20-6.78860E-19
 -1      4152 9.52255E-05-2.84468E-05-2.86197E-05-1.67722E-08 1.97459E-19-4.07435E-19
 -1      4153 9.51940E-05-2.83868E-05-2.86309E-05-1.61615E-08-1.55077E-20-4.51254E-19
 -1      4154 9.52399E-05-2.84747E-05-2.86138E-05-1.34206E-08 1.21110E-19-4.23995E-19
 -1      4155 9.52502E-05-2.84976E-05-2.86084E-05-6.74532E-09 2.15387E-19-7.07035E-19
 -1      4156 9.52311E-05-2.84552E-05-2.86178E-05-8.27519E-09 3.74707E-19-1.24246E-18
 -1      4157 9.52585E-05-2.85170E-05-2.86035E-05-4.72360E-09 3.28780E-19-2.87161E-19
 -1      4158 9.52641E-05-2.85328E-05-2.85992E-05-2.81756E-10-1.04448E-19-4.90439E-19
 -1      4159 9.52539E-05-2.85039E-05-2.86069E-05-3.05787E-09 6.19623E-19-1.36612E-18
 -1      4160 9.52683E-05-2.85460E-05-2.85953E-05 8.25707E-10-5.88877E-19 5.78583E-19
 -1      4161 9.52707E-05-2.85565E-05-2.85918E-05 3.64655E-09-4.40369E-19 1.01815E-18
 -1      4162 9.52664E-05-2.85375E-05-2.85981E-05 2.61047E-10 7.24663E-19 9.40519E-20
 -1      4163 9.52720E-05-2.85650E-05-2.85887E-05 4.14225E-09 2.44198E-19 1.53885E-18
 -1      4164 9.52723E-05-2.85716E-05-2.85860E-05 5.81003E-09 7.80079E-19 1.36945E-18
 -1      4165 9.52720E-05-2.85598E-05-2.85910E-05 2.24919E-09 2.76213E-19 7.30455E-19
 -1      4166 9.52719E-05-2.85768E-05-2.85836E-05 5.91145E-09 1.97299E-19 1.50047E-18
 -1      4167 9.52709E-05-2.85806E-05-2.85815E-05 6.77774E-09 5.16281E-19 1.56110E-18
 -1      4168 9.52730E-05-2.85739E-05-2.85854E-05 3.32527E-09 3.28100E-19 4.73741E-19
 -1      4169 9.52695E-05-2.85834E-05-2.85797E-05 6.62939E-09 7.03356E-19 1.46853E-18
 -1      4170 9.52678E-05-2.85854E-05-2.85781E-05 6.95169E-09 7.58324E-19 1.49366E-18
 -1      4171 9.52712E-05-2.85821E-05-2.85811E-05 3.79781E-09 6.97162E-19 2.14050E-18
 -1      4172 9.52657E-05-2.85866E-05-2.85767E-05 6.68789E-09 1.04821E-18 2.46180E-18
 -1      4173 9.52637E-05-2.85873E-05-2.85756E-05 6.60262E-09 7.51729E-19 2.07886E-18
 -1      4174 9.52676E-05-2.85863E-05-2.85777E-05 3.83182E-09 1.63894E-18 2.04573E-18
 -1      4175 9.52617E-05-2.85876E-05-2.85746E-05 4.94000E-09-2.52399E-19 3.08169E-18
 -1      4176 9.52596E-05-2.85876E-05-2.85737E-05 4.71786E-09-5.91270E-19 2.74631E-18
 -1      4177 9.32076E-05-2.60953E-05-2.87686E-05 8.30375E-07-1.85235E-20 7.53112E-19
 -1      4178 9.28944E-05-2.57890E-05-2.87631E-05 9.46073E-07 4.45580E-19-1.88982E-19
 -1      4179 9.37571E-05-2.66391E-05-2.87698E-05 6.57572E-07-4.51183E-19 2.04203E-18
 -1      4180 9.35171E-05-2.63841E-05-2.87735E-05 7.59867E-07-4.75835E-19 1.21244E-18
 -1      4181 9.32494E-05-2.61229E-05-2.87539E-05 5.50200E-07-8.13530E-19 1.29831E-18
 -1      4182 8.72143E-05-2.17392E-05-2.80783E-05 1.71379E-06-1.50795E-19-2.05905E-19
 -1      4183 8.61644E-05-2.11740E-05-2.78756E-05 1.81178E-06 3.34927E-19-5.33089E-19
 -1      4184 9.24999E-05-2.54460E-05-2.87449E-05 1.02152E-06 6.10452E-19-3.63329E-19
 -1      4185 9.20954E-05-2.50845E-05-2.87245E-05 1.14701E-06 6.07003E-19-5.68174E-19
 -1      4186 9.25582E-05-2.54800E-05-2.87285E-05 6.58411E-07 7.36749E-20-1.29009E-19
 -1      4187 9.41787E-05-2.70866E-05-2.87577E-05 5.07821E-07-4.64904E-19 2.69176E-18
 -1      4188 9.39969E-05-2.68780E-05-2.87666E-05 5.95173E-07-2.66354E-20 2.04441E-18
 -1      4189 9.37878E-05-2.66619E-05-2.87573E-05 4.44254E-07-4.23205E-19 1.12953E-18
 -1      4190 9.44979E-05-2.74489E-05-2.87384E-05 3.82476E-07-3.08194E-19 1.60448E-18
 -1      4191 9.43620E-05-2.72809E-05-2.87498E-05 4.54880E-07-3.61202E-19 1.74687E-18
 -1      4192 9.42019E-05-2.71058E-05-2.87474E-05 3.47888E-07 1.44868E-19 1.26595E-18
 -1      4193 9.47360E-05-2.77375E-05-2.87161E-05 2.80639E-07 4.60768E-20 2.09780E-18
 -1      4194 9.46359E-05-2.76043E-05-2.87282E-05 3.39097E-07 1.06331E-19 2.02513E-18
 -1      4195 9.45157E-05-2.74652E-05-2.87300E-05 2.64657E-07-7.82889E-20 2.49606E-19
 -1      4196 9.49106E-05-2.79638E-05-2.86933E-05 2.00082E-07 6.42414E-19 1.33092E-18
 -1      4197 9.48382E-05-2.78598E-05-2.87051E-05 2.46158E-07 8.34402E-19 2.19076E-18
 -1      4198 9.47500E-05-2.77514E-05-2.87094E-05 1.95592E-07 5.24627E-19 6.76897E-19
 -1      4199 9.50362E-05-2.81385E-05-2.86718E-05 1.37932E-07-1.17702E-19 1.23557E-18
 -1      4200 9.49849E-05-2.80586E-05-2.86826E-05 1.73427E-07 2.90734E-19 1.51911E-18
 -1      4201 9.49216E-05-2.79757E-05-2.86882E-05 1.40156E-07 1.12444E-18 1.01309E-18
 -1      4202 9.51244E-05-2.82711E-05-2.86524E-05 9.11428E-08-2.35928E-19 1.01499E-18
 -1      4203 9.50889E-05-2.82108E-05-2.86620E-05 1.17875E-07-1.97914E-19 6.38175E-19
 -1      4204 9.50449E-05-2.81485E-05-2.86679E-05 9.69485E-08 1.49726E-19 8.57319E-19
 -1      4205 9.51846E-05-2.83700E-05-2.86355E-05 5.67962E-08 1.16434E-19 4.15580E-19
 -1      4206 9.51609E-05-2.83252E-05-2.86437E-05 7.64619E-08-1.76772E-19 9.78439E-19
 -1      4207 9.51313E-05-2.82795E-05-2.86494E-05 6.41888E-08-7.81549E-20 1.15950E-18
 -1      4208 9.52241E-05-2.84424E-05-2.86212E-05 3.22656E-08-1.02298E-19 3.34579E-19
 -1      4209 9.52089E-05-2.84098E-05-2.86281E-05 4.63679E-08 2.92254E-19 7.61492E-19
 -1      4210 9.51900E-05-2.83769E-05-2.86333E-05 4.00233E-08-1.29457E-19 4.86718E-19
 -1      4211 9.52486E-05-2.84941E-05-2.86094E-05 1.52918E-08-1.44409E-19-7.16790E-19
 -1      4212 9.52395E-05-2.84709E-05-2.86150E-05 2.51117E-08-4.22151E-19 9.07727E-21
 -1      4213 9.52283E-05-2.84480E-05-2.86196E-05 2.27084E-08-2.15977E-19 1.03231E-18
 -1      4214 9.52625E-05-2.85301E-05-2.85998E-05 3.99816E-09 2.95834E-20-6.22237E-19
 -1      4215 9.52578E-05-2.85141E-05-2.86043E-05 1.05942E-08-1.13235E-19-1.16944E-18
 -1      4216 9.52518E-05-2.84986E-05-2.86083E-05 1.07042E-08-1.13382E-19 5.30119E-19
 -1      4217 9.52692E-05-2.85543E-05-2.85922E-05-3.12951E-09 6.77187E-19-5.70051E-19
 -1      4218 9.52673E-05-2.85437E-05-2.85957E-05 1.09458E-09 3.74789E-19-3.32277E-20
 -1      4219 9.52650E-05-2.85336E-05-2.85991E-05 2.71023E-09-4.79875E-20 2.88654E-19
 -1      4220 9.52711E-05-2.85699E-05-2.85863E-05-7.28225E-09-6.18316E-20-1.26381E-18
 -1      4221 9.52710E-05-2.85632E-05-2.85890E-05-4.76089E-09 4.38500E-19-7.97529E-19
 -1      4222 9.52710E-05-2.85571E-05-2.85917E-05-2.33472E-09 5.88052E-19-4.27457E-19
 -1      4223 9.52699E-05-2.85793E-05-2.85817E-05-9.37369E-09 1.64974E-19-9.76009E-19
 -1      4224 9.52709E-05-2.85753E-05-2.85838E-05-8.04236E-09-1.48145E-20-8.64858E-19
 -1      4225 9.52723E-05-2.85720E-05-2.85859E-05-5.27244E-09 1.65435E-19-2.11706E-19
 -1      4226 9.52669E-05-2.85844E-05-2.85782E-05-1.00826E-08-3.94834E-19-1.21311E-18
 -1      4227 9.52686E-05-2.85823E-05-2.85798E-05-9.55969E-09 2.36405E-19-1.51917E-18
 -1      4228 9.52707E-05-2.85809E-05-2.85815E-05-6.75548E-09 9.24899E-19-3.09897E-20
 -1      4229 9.52630E-05-2.85865E-05-2.85756E-05-9.85119E-09-5.54864E-19-2.98036E-18
 -1      4230 9.52650E-05-2.85858E-05-2.85768E-05-9.88610E-09-6.16731E-19-2.52356E-18
 -1      4231 9.52675E-05-2.85855E-05-2.85781E-05-7.27507E-09 5.74397E-19-1.41182E-18
 -1      4232 9.15978E-05-2.46850E-05-2.86860E-05 1.22178E-06 8.96236E-19-1.22138E-19
 -1      4233 9.10798E-05-2.42664E-05-2.86425E-05 1.35106E-06 8.70869E-19 1.62809E-19
 -1      4234 9.16808E-05-2.47275E-05-2.86688E-05 7.56343E-07 1.03366E-18-2.42765E-19
 -1      4235 8.49439E-05-2.05668E-05-2.76108E-05 1.78897E-06 6.04993E-19-4.24048E-19
 -1      4236 8.36490E-05-1.99792E-05-2.73026E-05 1.89980E-06 4.67154E-19-5.23929E-19
 -1      4237 8.52811E-05-2.06890E-05-2.76324E-05 4.98699E-07 3.47676E-19-6.77233E-19
 -1      4238 7.84778E-05-2.15608E-05-2.42756E-05-1.26198E-05 9.68926E-19 7.08189E-19
 -1      4239 8.37081E-05-2.49269E-05-2.51915E-05-1.34619E-05 1.04390E-18-3.54394E-19
 -1      4240 8.35198E-05-2.37667E-05-2.56759E-05-1.14416E-05 9.10420E-19-2.85347E-19
 -1      4241 7.72783E-05-1.99909E-05-2.46207E-05-9.36377E-06 8.99941E-19 1.21420E-18
 -1      4242 9.52578E-05-2.85873E-05-2.85731E-05 4.70291E-09-1.09830E-18 2.16269E-18
 -1      4243 9.04570E-05-2.38105E-05-2.85739E-05 1.41659E-06 2.08542E-19 5.00751E-19
 -1      4244 8.97979E-05-2.33357E-05-2.84957E-05 1.54172E-06-2.53171E-20 6.54906E-19
 -1      4245 9.05773E-05-2.38642E-05-2.85579E-05 8.24529E-07 8.41498E-19 3.41572E-19
 -1      4246 8.90211E-05-2.28260E-05-2.83832E-05 1.58661E-06-3.01386E-19 3.33196E-19
 -1      4247 8.81862E-05-2.22995E-05-2.82541E-05 1.69976E-06-2.62371E-19 2.99216E-19
 -1      4248 8.91977E-05-2.28939E-05-2.83723E-05 8.34546E-07-1.41504E-19 1.61079E-19
 -1      4249 7.29781E-05-1.62968E-05-2.41738E-05-7.47540E-07-1.94377E-19 2.39163E-20
 -1      4250 7.46665E-05-1.75144E-05-2.45448E-05-3.84537E-06 1.35158E-19 6.49739E-19
 -1      4251 7.52737E-05-1.71313E-05-2.49331E-05 2.35700E-06-6.26373E-19-2.65571E-19
 -1      4252 8.20591E-05-1.93541E-05-2.69071E-05 1.73932E-06 6.40196E-19-6.82937E-19
 -1      4253 8.03783E-05-1.87005E-05-2.64548E-05 1.85772E-06 4.48717E-19-4.11224E-19
 -1      4254 8.26591E-05-1.95890E-05-2.69832E-05 8.31015E-08 4.80463E-19-5.29547E-19
 -1      4255 9.52635E-05-2.85879E-05-2.85753E-05 2.30378E-09-2.52371E-19 2.47454E-18
 -1      4256 8.74705E-05-2.18251E-05-2.80791E-05 7.46338E-07-4.69676E-19-3.58201E-19
 -1      4257 9.52603E-05-2.85870E-05-2.85743E-05-8.99086E-09 1.06128E-19-4.60412E-18
 -1      4258 9.52617E-05-2.85868E-05-2.85749E-05-9.41707E-09-1.32621E-19-4.10637E-18
 -1      4259 9.52641E-05-2.85872E-05-2.85759E-05-6.89697E-09 7.25412E-19-3.69693E-18
 -1      4260 9.52617E-05-2.85877E-05-2.85746E-05-6.11984E-09 8.08830E-20-4.29064E-18
 -1      4261 9.52633E-05-2.85881E-05-2.85751E-05-4.11464E-10-1.39070E-19-4.13113E-19
 -1      4262 9.52629E-05-2.85879E-05-2.85750E-05-3.49921E-09 3.89744E-19-2.91914E-18
 -1      4263 9.52642E-05-2.85877E-05-2.85756E-05-3.93879E-09 1.16409E-18-2.65990E-18
 -1      4264 9.52653E-05-2.85875E-05-2.85762E-05 1.31908E-09 1.46781E-18 7.50539E-19
 -1      4265 8.15511E-05-2.16730E-05-2.55980E-05-9.56620E-06 1.12710E-18 1.75428E-19
 -1      4266 7.78951E-05-1.78962E-05-2.56479E-05 4.76240E-06-3.24802E-19-7.34539E-19
 -1      4267 8.39429E-05-2.09368E-05-2.70061E-05-4.04602E-06 9.29781E-19-4.54477E-19
 -1      4268 8.48608E-05-2.10974E-05-2.73161E-05-3.28908E-06 7.72238E-19-1.41234E-19
 -1      4269 8.59858E-05-2.14616E-05-2.76778E-05-1.70519E-06 1.18310E-19-3.01204E-19
 -1      4270 8.68701E-05-2.18605E-05-2.79040E-05-1.20521E-06-1.61901E-19-4.33273E-19
 -1      4271 8.78451E-05-2.23779E-05-2.80888E-05-1.04664E-06-2.90960E-19-5.13608E-19
 -1      4272 8.85995E-05-2.27769E-05-2.82439E-05-6.81614E-07 2.24891E-19-1.24276E-18
 -1      4273 8.93907E-05-2.32665E-05-2.83651E-05-6.03332E-07 6.10741E-19-1.43540E-18
 -1      4274 9.00308E-05-2.36647E-05-2.84683E-05-3.47304E-07 6.61883E-19-1.47615E-18
 -1      4275 9.06686E-05-2.41139E-05-2.85442E-05-3.21066E-07 6.34881E-19-1.17608E-18
 -1      4276 9.12038E-05-2.44927E-05-2.86094E-05-1.43891E-07 5.12928E-19-7.78842E-19
 -1      4277 9.17148E-05-2.48943E-05-2.86537E-05-1.49267E-07 2.39683E-19-5.03148E-19
 -1      4278 9.21557E-05-2.52407E-05-2.86918E-05-2.73854E-08 2.59311E-19-1.01175E-19
 -1      4279 9.25615E-05-2.55912E-05-2.87144E-05-5.03611E-08-1.06795E-19 1.35172E-19
 -1      4280 9.29192E-05-2.58979E-05-2.87336E-05 3.32490E-08-2.20579E-19 9.46603E-20
 -1      4281 9.32382E-05-2.61972E-05-2.87418E-05 2.15792E-09-4.14914E-19 7.63157E-20
 -1      4282 9.35238E-05-2.64614E-05-2.87484E-05 5.94746E-08-1.72571E-19-3.72929E-20
 -1      4283 9.37715E-05-2.67119E-05-2.87475E-05 2.63852E-08 4.99395E-20-6.03466E-19
 -1      4284 9.39957E-05-2.69341E-05-2.87460E-05 6.57182E-08 6.25517E-19-4.57991E-20
 -1      4285 9.41855E-05-2.71399E-05-2.87397E-05 3.42848E-08 4.82679E-19-2.24313E-19
 -1      4286 9.43585E-05-2.73228E-05-2.87333E-05 6.13413E-08-6.12430E-20 2.37053E-20
 -1      4287 9.45017E-05-2.74888E-05-2.87242E-05 3.34907E-08-2.35268E-19 1.21486E-19
 -1      4288 9.46329E-05-2.76365E-05-2.87153E-05 5.21614E-08 5.77031E-20-2.31203E-19
 -1      4289 9.47391E-05-2.77682E-05-2.87051E-05 2.86720E-08 6.35350E-19-4.83299E-20
 -1      4290 9.48366E-05-2.78851E-05-2.86953E-05 4.15966E-08 9.65339E-19 6.10638E-19
 -1      4291 9.49140E-05-2.79878E-05-2.86850E-05 2.25330E-08 5.92311E-19 1.04174E-18
 -1      4292 9.49849E-05-2.80788E-05-2.86752E-05 3.14995E-08 7.73414E-19 9.44356E-19
 -1      4293 9.50400E-05-2.81575E-05-2.86656E-05 1.65219E-08 6.96352E-19 1.25721E-18
 -1      4294 9.50904E-05-2.82270E-05-2.86565E-05 2.27436E-08 2.81264E-19 1.40589E-18
 -1      4295 9.51286E-05-2.82862E-05-2.86478E-05 1.13166E-08-1.42128E-19 1.25607E-18
 -1      4296 9.51633E-05-2.83383E-05-2.86397E-05 1.56211E-08-2.39586E-19 1.15610E-18
 -1      4297 9.51889E-05-2.83821E-05-2.86322E-05 7.14678E-09-3.68219E-19 1.21896E-18
 -1      4298 9.52119E-05-2.84203E-05-2.86252E-05 1.01038E-08-1.32064E-19 9.55930E-19
 -1      4299 9.52283E-05-2.84519E-05-2.86189E-05 4.00082E-09-2.05372E-19 5.24852E-19
 -1      4300 9.52427E-05-2.84793E-05-2.86130E-05 6.00643E-09 3.45208E-19 2.74107E-19
 -1      4301 9.52525E-05-2.85015E-05-2.86078E-05 1.75190E-09 4.66294E-19-8.69800E-21
 -1      4302 9.52609E-05-2.85207E-05-2.86030E-05 3.08488E-09 1.53684E-19 2.13087E-19
 -1      4303 9.52660E-05-2.85359E-05-2.85988E-05 2.32264E-10 4.83181E-19-6.76802E-19
 -1      4304 9.52702E-05-2.85488E-05-2.85948E-05 1.09111E-09 9.75225E-19-6.98702E-19
 -1      4305 9.52722E-05-2.85587E-05-2.85915E-05-7.26753E-10 4.69287E-19-4.62394E-19
 -1      4306 9.52735E-05-2.85670E-05-2.85884E-05-1.98909E-10-2.00235E-19-4.77302E-19
 -1      4307 9.52736E-05-2.85732E-05-2.85858E-05-1.27582E-09 4.21005E-19-7.35321E-19
 -1      4308 9.52731E-05-2.85782E-05-2.85834E-05-9.73224E-10 1.16710E-18-3.52651E-19
 -1      4309 9.52718E-05-2.85818E-05-2.85814E-05-1.54226E-09 7.74989E-19-2.14797E-19
 -1      4310 9.52703E-05-2.85845E-05-2.85796E-05-1.37536E-09 1.52726E-18 4.39859E-19
 -1      4311 9.52683E-05-2.85861E-05-2.85780E-05-1.64646E-09 1.40924E-18-2.32428E-19
 -1      4312 9.52657E-05-2.85875E-05-2.85763E-05-4.25045E-09 1.40973E-18-2.21269E-18
 -1      4313 7.63905E-05-1.83383E-05-2.47745E-05-6.28905E-06 3.39219E-19 1.10731E-18
 -1      4314 7.91430E-05-2.02590E-05-2.52492E-05-8.13453E-06 1.00233E-18 6.49682E-19
 -1      4315 8.00478E-05-2.02140E-05-2.57116E-05-6.92390E-06 1.08785E-18 9.57401E-19
 -1      4316 7.66649E-05-1.79454E-05-2.52057E-05-3.05282E-06-9.45782E-20 2.67035E-20
 -1      4317 8.15930E-05-2.04451E-05-2.62055E-05-5.89147E-06 9.82660E-19 2.72853E-19
 -1      4318 8.26987E-05-2.06037E-05-2.66521E-05-4.74661E-06 7.97857E-19-1.11172E-19
 -1      4319 8.24753E-05-1.99719E-05-2.67689E-05-2.95843E-06 5.38627E-19-2.99439E-19
 -1      4320 7.97830E-05-1.91799E-05-2.59223E-05-4.34095E-06 4.54087E-19 3.17477E-19
 -1      4321 7.76595E-05-1.78109E-05-2.56964E-05 1.86771E-06-2.74333E-19-3.43577E-19
 -1      4322 8.37109E-05-2.02619E-05-2.72274E-05-1.04372E-06 8.77051E-19-6.31501E-19
 -1      4323 8.21899E-05-1.96054E-05-2.68467E-05-1.32739E-06 7.53854E-19-8.21184E-20
 -1      4324 9.52675E-05-2.85866E-05-2.85776E-05 1.34836E-09 1.63060E-18 4.98714E-19
 -1      4325 8.48212E-05-2.09452E-05-2.74068E-05-2.01356E-06 6.72849E-19-2.88094E-19
 -1      4326 7.84756E-05-1.80323E-05-2.58446E-05-2.52154E-07 1.71729E-19-1.46078E-19
 -1      4327 8.09621E-05-1.92383E-05-2.64790E-05-1.85563E-06 3.07980E-19-3.36770E-19
 -1      4328 7.93919E-05-1.87585E-05-2.60041E-05-2.55187E-06 3.55685E-19-1.31405E-19
 -3
    1PSTEP                         4           1           1          
  100CL  101 1.000000000        4328                     0    1           1
 -4  ERROR       1    1
 -5  STR(%)      1    1    0    0
 -1         1 1.23682E+01
 -1         2 2.48116E+01
 -1         3 1.23181E-04
 -1         4 1.41365E-04
 -1         5 1.17363E+01
 -1         6 1.25518E+01
 -1         7 1.25518E+01
 -1         8 4.08326E+00
 -1         9 2.53775E+00
 -1        10 2.14593E+00
 -1        11 2.02682E+00
 -1        12 2.10869E+00
 -1        13 2.10869E+00
 -1        14 2.01273E+00
 -1        15 1.49960E+00
 -1        16 1.69866E+00
 -1        17 2.55046E+00
 -1        18 3.00912E+00
 -1        19 3.21090E+00
 -1        20 3.52051E+00
 -1        21 4.42435E+00
 -1        22 8.11575E+00
 -1        23 1.25518E+01
 -1        24 3.17638E+00
 -1        25 2.04738E+00
 -1        26 1.14445E+00
 -1        27 1.46186E+00
 -1        28 2.20956E+00
 -1        29 2.92927E+00
 -1        30 3.23811E+00
 -1        31 3.23811E+00
 -1        32 3.18136E+00
 -1        33 3.04683E+00
 -1        34 2.33173E+00
 -1        35 1.38182E+00
 -1        36 1.09559E+00
 -1        37 8.50943E-01
 -1        38 8.50943E-01
 -1        39 7.89153E-01
 -1        40 7.85694E-01
 -1        41 6.96012E-01
 -1        42 5.69253E-01
 -1        43 4.51048E-01
 -1        44 3.55949E-01
 -1        45 3.11338E-01
 -1        46 2.60069E-01
 -1        47 2.09181E-01
 -1        48 1.62765E-01
 -1        49 1.22789E-01
 -1        50 9.06004E-02
 -1        51 7.69997E-02
 -1        52 6.35975E-02
 -1        53 5.12530E-02
 -1        54 4.03978E-02
 -1        55 3.11797E-02
 -1        56 2.35690E-02
 -1        57 1.85099E-02
 -1        58 1.52768E-02
 -1        59 1.23384E-02
 -1        60 9.76887E-03
 -1        61 7.58733E-03
 -1        62 5.89707E-03
 -1        63 4.54045E-03
 -1        64 3.41621E-03
 -1        65 2.49773E-03
 -1        66 2.03517E-03
 -1        67 1.68907E-03
 -1        68 1.36846E-03
 -1        69 1.05493E-03
 -1        70 8.83142E-04
 -1        71 5.93055E-04
 -1        72 1.17363E+01
 -1        73 1.58361E+00
 -1        74 9.07447E-01
 -1        75 1.49057E+00
 -1        76 1.88258E+00
 -1        77 2.37364E+00
 -1        78 3.18672E+00
 -1        79 4.94999E+00
 -1        80 5.54480E+00
 -1        81 5.54480E+00
 -1        82 5.51532E+00
 -1        83 3.47744E+00
 -1        84 1.95566E+00
 -1        85 1.70263E+00
 -1        86 1.96297E+00
 -1        87 1.96297E+00
 -1        88 1.85693E+00
 -1        89 1.58380E+00
 -1        90 1.31983E+00
 -1        91 1.05710E+00
 -1        92 8.13431E-01
 -1        93 6.05205E-01
 -1        94 4.36615E-01
 -1        95 3.33951E-01
 -1        96 2.51884E-01
 -1        97 1.86115E-01
 -1        98 1.34661E-01
 -1        99 9.52117E-02
 -1       100 6.55153E-02
 -1       101 4.81741E-02
 -1       102 3.97177E-02
 -1       103 3.21206E-02
 -1       104 2.55183E-02
 -1       105 1.99292E-02
 -1       106 1.67957E-02
 -1       107 1.45127E-02
 -1       108 1.22188E-02
 -1       109 1.00634E-02
 -1       110 8.12737E-03
 -1       111 6.53204E-03
 -1       112 5.22732E-03
 -1       113 4.10206E-03
 -1       114 3.15047E-03
 -1       115 2.35510E-03
 -1       116 1.69175E-03
 -1       117 1.36322E-03
 -1       118 1.05048E-03
 -1       119 7.06246E-04
 -1       120 4.44514E-04
 -1       121 1.96756E-04
 -1       122 1.96756E-04
 -1       123 1.63114E-04
 -1       124 8.22309E-05
 -1       125 8.73174E-05
 -1       126 1.40516E-04
 -1       127 1.72139E-04
 -1       128 1.81205E-04
 -1       129 1.81205E-04
 -1       130 1.71638E-04
 -1       131 1.38477E-04
 -1       132 8.68203E-05
 -1       133 8.38671E-05
 -1       134 1.62974E-04
 -1       135 2.61102E-04
 -1       136 2.93159E-04
 -1       137 2.50151E+01
 -1       138 4.90064E+01
 -1       139 4.90064E+01
 -1       140 2.31011E+01
 -1       141 1.20321E+01
 -1       142 1.28629E+01
 -1       143 1.28629E+01
 -1       144 1.24631E+01
 -1       145 1.24631E+01
 -1       146 1.23176E+01
 -1       147 2.54305E+01
 -1       148 3.03848E+01
 -1       149 3.03848E+01
 -1       150 2.61086E+01
 -1       151 2.62978E+01
 -1       152 2.62978E+01
 -1       153 3.96494E+01
 -1       154 3.96494E+01
 -1       155 1.47917E+01
 -1       156 1.19364E+01
 -1       157 1.23682E+01
 -1       158 1.18096E+01
 -1       159 1.18096E+01
 -1       160 1.16822E+01
 -1       161 2.32425E+01
 -1       162 4.87670E+01
 -1       163 4.87670E+01
 -1       164 2.49033E+01
 -1       165 6.44139E+00
 -1       166 2.93170E+00
 -1       167 2.32590E+00
 -1       168 2.09881E+00
 -1       169 2.06964E+00
 -1       170 2.28466E+00
 -1       171 2.28466E+00
 -1       172 2.11631E+00
 -1       173 1.58565E+00
 -1       174 2.41515E+00
 -1       175 3.03947E+00
 -1       176 3.09588E+00
 -1       177 3.21090E+00
 -1       178 3.67547E+00
 -1       179 4.42435E+00
 -1       180 1.17363E+01
 -1       181 3.17638E+00
 -1       182 2.04738E+00
 -1       183 1.21565E+00
 -1       184 1.22385E+00
 -1       185 1.66165E+00
 -1       186 2.20956E+00
 -1       187 2.92927E+00
 -1       188 3.23811E+00
 -1       189 3.18136E+00
 -1       190 3.04683E+00
 -1       191 2.33173E+00
 -1       192 1.55924E+00
 -1       193 1.09559E+00
 -1       194 8.41954E-01
 -1       195 8.50943E-01
 -1       196 7.89153E-01
 -1       197 7.85694E-01
 -1       198 6.96012E-01
 -1       199 5.69253E-01
 -1       200 4.75688E-01
 -1       201 4.09653E-01
 -1       202 3.34340E-01
 -1       203 2.60296E-01
 -1       204 2.09181E-01
 -1       205 1.63385E-01
 -1       206 1.28034E-01
 -1       207 9.75425E-02
 -1       208 7.69997E-02
 -1       209 6.35975E-02
 -1       210 5.12530E-02
 -1       211 4.03978E-02
 -1       212 3.11797E-02
 -1       213 2.39022E-02
 -1       214 1.86590E-02
 -1       215 1.52768E-02
 -1       216 1.23384E-02
 -1       217 9.76887E-03
 -1       218 7.86851E-03
 -1       219 6.22493E-03
 -1       220 5.02351E-03
 -1       221 3.98147E-03
 -1       222 3.07827E-03
 -1       223 2.31238E-03
 -1       224 1.68907E-03
 -1       225 1.36846E-03
 -1       226 1.05493E-03
 -1       227 8.83142E-04
 -1       228 5.93055E-04
 -1       229 1.97910E+00
 -1       230 1.37863E+00
 -1       231 9.56943E-01
 -1       232 1.49057E+00
 -1       233 1.88258E+00
 -1       234 2.37364E+00
 -1       235 3.33003E+00
 -1       236 4.94999E+00
 -1       237 5.54480E+00
 -1       238 5.51532E+00
 -1       239 3.47744E+00
 -1       240 1.95566E+00
 -1       241 1.53816E+00
 -1       242 1.70263E+00
 -1       243 1.96297E+00
 -1       244 1.85693E+00
 -1       245 1.58380E+00
 -1       246 1.31983E+00
 -1       247 1.07956E+00
 -1       248 8.54466E-01
 -1       249 6.52973E-01
 -1       250 4.84080E-01
 -1       251 3.49573E-01
 -1       252 2.51884E-01
 -1       253 1.86115E-01
 -1       254 1.35615E-01
 -1       255 9.82296E-02
 -1       256 6.95793E-02
 -1       257 4.81741E-02
 -1       258 3.97177E-02
 -1       259 3.21206E-02
 -1       260 2.55183E-02
 -1       261 1.99292E-02
 -1       262 1.67957E-02
 -1       263 1.45127E-02
 -1       264 1.22188E-02
 -1       265 1.00634E-02
 -1       266 8.12737E-03
 -1       267 6.53204E-03
 -1       268 5.22732E-03
 -1       269 4.10206E-03
 -1       270 3.20405E-03
 -1       271 2.44130E-03
 -1       272 1.79932E-03
 -1       273 1.36322E-03
 -1       274 1.05048E-03
 -1       275 7.06246E-04
 -1       276 4.44514E-04
 -1       277 2.60247E-04
 -1       278 2.60247E-04
 -1       279 2.49164E-04
 -1       280 1.45913E-04
 -1       281 2.47568E-04
 -1       282 3.13794E-04
 -1       283 3.40611E-04
 -1       284 3.40611E-04
 -1       285 3.40426E-04
 -1       286 3.11615E-04
 -1       287 2.47758E-04
 -1       288 1.47619E-04
 -1       289 2.49505E-04
 -1       290 2.49505E-04
 -1       291 3.35263E-04
 -1       292 3.34709E+01
 -1       293 3.13799E+01
 -1       294 4.90064E+01
 -1       295 2.45254E+01
 -1       296 1.19455E+01
 -1       297 1.20321E+01
 -1       298 1.28629E+01
 -1       299 1.17774E+01
 -1       300 1.24631E+01
 -1       301 1.19166E+01
 -1       302 1.23176E+01
 -1       303 2.61747E+01
 -1       304 3.35345E+01
 -1       305 3.35345E+01
 -1       306 3.38309E+01
 -1       307 3.38309E+01
 -1       308 3.66168E+01
 -1       309 3.96494E+01
 -1       310 1.47917E+01
 -1       311 1.12034E+01
 -1       312 1.19364E+01
 -1       313 1.23682E+01
 -1       314 1.17345E+01
 -1       315 1.18096E+01
 -1       316 1.11631E+01
 -1       317 1.16822E+01
 -1       318 2.51868E+01
 -1       319 4.87670E+01
 -1       320 2.99187E+01
 -1       321 3.34709E+01
 -1       322 1.74712E+00
 -1       323 2.86334E+00
 -1       324 1.92663E+00
 -1       325 2.30060E+00
 -1       326 2.65594E+00
 -1       327 2.65594E+00
 -1       328 2.35811E+00
 -1       329 2.62231E+00
 -1       330 3.31356E+00
 -1       331 3.32429E+00
 -1       332 3.29991E+00
 -1       333 3.41029E+00
 -1       334 2.91845E+00
 -1       335 1.95659E+00
 -1       336 1.70655E+00
 -1       337 1.21565E+00
 -1       338 1.01001E+00
 -1       339 1.28344E+00
 -1       340 1.60784E+00
 -1       341 1.96115E+00
 -1       342 2.15538E+00
 -1       343 2.05500E+00
 -1       344 2.08553E+00
 -1       345 1.92935E+00
 -1       346 1.49860E+00
 -1       347 1.13528E+00
 -1       348 6.45559E-01
 -1       349 4.17326E-01
 -1       350 4.42782E-01
 -1       351 5.62834E-01
 -1       352 5.89259E-01
 -1       353 5.48628E-01
 -1       354 4.87901E-01
 -1       355 4.31784E-01
 -1       356 3.73649E-01
 -1       357 3.08117E-01
 -1       358 2.43852E-01
 -1       359 1.85889E-01
 -1       360 1.36577E-01
 -1       361 9.75425E-02
 -1       362 7.22715E-02
 -1       363 5.20004E-02
 -1       364 3.84689E-02
 -1       365 3.25137E-02
 -1       366 2.68012E-02
 -1       367 2.16075E-02
 -1       368 1.70661E-02
 -1       369 1.32141E-02
 -1       370 1.09587E-02
 -1       371 9.24776E-03
 -1       372 7.61576E-03
 -1       373 6.19170E-03
 -1       374 5.04462E-03
 -1       375 4.02227E-03
 -1       376 3.20610E-03
 -1       377 2.52318E-03
 -1       378 1.92719E-03
 -1       379 1.42203E-03
 -1       380 1.00728E-03
 -1       381 7.60496E-04
 -1       382 5.18364E-04
 -1       383 1.57795E+00
 -1       384 1.12752E+00
 -1       385 1.24926E+00
 -1       386 2.24446E+00
 -1       387 2.76785E+00
 -1       388 3.57177E+00
 -1       389 3.27088E+00
 -1       390 3.12674E+00
 -1       391 2.35345E+00
 -1       392 1.26028E+00
 -1       393 1.19592E+00
 -1       394 1.42660E+00
 -1       395 1.47752E+00
 -1       396 1.45261E+00
 -1       397 1.33313E+00
 -1       398 1.18156E+00
 -1       399 9.96750E-01
 -1       400 8.05723E-01
 -1       401 6.27860E-01
 -1       402 4.74766E-01
 -1       403 3.49573E-01
 -1       404 2.50859E-01
 -1       405 1.83520E-01
 -1       406 1.35615E-01
 -1       407 9.82296E-02
 -1       408 6.95793E-02
 -1       409 4.79956E-02
 -1       410 3.20147E-02
 -1       411 2.57315E-02
 -1       412 2.17563E-02
 -1       413 1.79743E-02
 -1       414 1.45485E-02
 -1       415 1.15534E-02
 -1       416 9.33629E-03
 -1       417 8.00841E-03
 -1       418 6.69090E-03
 -1       419 5.46221E-03
 -1       420 4.47444E-03
 -1       421 3.64746E-03
 -1       422 2.90642E-03
 -1       423 2.25969E-03
 -1       424 1.70583E-03
 -1       425 1.23841E-03
 -1       426 9.60159E-04
 -1       427 6.95776E-04
 -1       428 4.19811E-04
 -1       429 2.75603E-04
 -1       430 5.12329E-04
 -1       431 5.12329E-04
 -1       432 3.31190E-04
 -1       433 4.30077E-04
 -1       434 4.75385E-04
 -1       435 4.75385E-04
 -1       436 4.73731E-04
 -1       437 4.73731E-04
 -1       438 4.29624E-04
 -1       439 3.30305E-04
 -1       440 2.67664E-04
 -1       441 4.22254E-04
 -1       442 3.13799E+01
 -1       443 3.34709E+01
 -1       444 3.25756E+01
 -1       445 1.80386E+01
 -1       446 9.56037E+00
 -1       447 2.01846E+00
 -1       448 8.97253E+00
 -1       449 1.06523E+01
 -1       450 1.05854E+01
 -1       451 9.60705E+00
 -1       452 6.86529E+00
 -1       453 1.12731E+01
 -1       454 1.90098E+01
 -1       455 3.35345E+01
 -1       456 2.92673E+01
 -1       457 3.38309E+01
 -1       458 2.72780E+01
 -1       459 2.39142E+01
 -1       460 1.36466E+01
 -1       461 7.08124E+00
 -1       462 8.06272E+00
 -1       463 9.94091E+00
 -1       464 1.09184E+01
 -1       465 1.02685E+01
 -1       466 8.71032E+00
 -1       467 7.09929E+00
 -1       468 1.02741E+01
 -1       469 1.78012E+01
 -1       470 2.99187E+01
 -1       471 3.14108E+01
 -1       472 7.74478E+00
 -1       473 5.14011E+00
 -1       474 4.74759E+00
 -1       475 1.26457E+01
 -1       476 3.55879E+00
 -1       477 2.99748E+00
 -1       478 2.51857E+00
 -1       479 3.42064E+00
 -1       480 3.92105E+00
 -1       481 3.93478E+00
 -1       482 3.98099E+00
 -1       483 3.95308E+00
 -1       484 3.55879E+00
 -1       485 2.34795E+00
 -1       486 8.10333E-01
 -1       487 9.40858E+00
 -1       488 8.07846E-01
 -1       489 1.23958E+00
 -1       490 1.49542E+00
 -1       491 1.61433E+00
 -1       492 1.78957E+00
 -1       493 1.76221E+00
 -1       494 1.71234E+00
 -1       495 1.44237E+00
 -1       496 1.24581E+00
 -1       497 1.03034E+00
 -1       498 8.05837E-01
 -1       499 7.07504E-01
 -1       500 5.84179E-01
 -1       501 5.97834E-01
 -1       502 5.62931E-01
 -1       503 5.04955E-01
 -1       504 4.57350E-01
 -1       505 4.03319E-01
 -1       506 3.40774E-01
 -1       507 2.77393E-01
 -1       508 2.18527E-01
 -1       509 1.66992E-01
 -1       510 1.23825E-01
 -1       511 8.89397E-02
 -1       512 6.16102E-02
 -1       513 4.08069E-02
 -1       514 2.71603E-02
 -1       515 1.87960E-02
 -1       516 1.64912E-02
 -1       517 1.43108E-02
 -1       518 1.20720E-02
 -1       519 9.93816E-03
 -1       520 8.00249E-03
 -1       521 6.83508E-03
 -1       522 5.83996E-03
 -1       523 4.85357E-03
 -1       524 3.98044E-03
 -1       525 3.22888E-03
 -1       526 2.54790E-03
 -1       527 1.95951E-03
 -1       528 1.51036E-03
 -1       529 1.12393E-03
 -1       530 8.02927E-04
 -1       531 2.27949E+00
 -1       532 2.77896E+00
 -1       533 7.33954E+00
 -1       534 6.81089E+00
 -1       535 3.71549E+00
 -1       536 2.46605E+00
 -1       537 2.17604E+00
 -1       538 2.19400E+00
 -1       539 1.78999E+00
 -1       540 1.61971E+00
 -1       541 1.47752E+00
 -1       542 1.39139E+00
 -1       543 1.22156E+00
 -1       544 1.01817E+00
 -1       545 8.21562E-01
 -1       546 6.43580E-01
 -1       547 4.91510E-01
 -1       548 3.66748E-01
 -1       549 2.68057E-01
 -1       550 1.94452E-01
 -1       551 1.37907E-01
 -1       552 9.52840E-02
 -1       553 6.44333E-02
 -1       554 4.57711E-02
 -1       555 3.25722E-02
 -1       556 2.57315E-02
 -1       557 2.17563E-02
 -1       558 1.79743E-02
 -1       559 1.45485E-02
 -1       560 1.15534E-02
 -1       561 9.36360E-03
 -1       562 8.00841E-03
 -1       563 6.69090E-03
 -1       564 5.46221E-03
 -1       565 4.48830E-03
 -1       566 3.60447E-03
 -1       567 2.82150E-03
 -1       568 2.14943E-03
 -1       569 1.62102E-03
 -1       570 1.17822E-03
 -1       571 8.23311E-04
 -1       572 6.06282E-04
 -1       573 5.48146E-04
 -1       574 6.18436E-04
 -1       575 5.50709E-04
 -1       576 4.38137E-04
 -1       577 6.18436E-04
 -1       578 6.18314E-04
 -1       579 6.18038E-04
 -1       580 6.17911E-04
 -1       581 5.47643E-04
 -1       582 4.78453E-04
 -1       583 4.78453E-04
 -1       584 3.25756E+01
 -1       585 1.43532E+01
 -1       586 2.32047E+00
 -1       587 2.01846E+00
 -1       588 2.12966E+01
 -1       589 2.08684E+01
 -1       590 3.14108E+01
 -1       591 1.58243E+01
 -1       592 3.42017E+00
 -1       593 7.60783E+00
 -1       594 2.72780E+01
 -1       595 7.00613E+00
 -1       596 7.33954E+00
 -1       597 3.97784E+00
 -1       598 6.32684E+00
 -1       599 1.00802E+01
 -1       600 2.21952E+01
 -1       601 8.42307E+00
 -1       602 2.64190E+01
 -1       603 1.74378E+01
 -1       604 9.02753E+00
 -1       605 5.62180E+00
 -1       606 7.24122E+00
 -1       607 7.65095E+00
 -1       608 6.22068E+00
 -1       609 4.31358E+00
 -1       610 6.83977E+00
 -1       611 1.30945E+01
 -1       612 4.61049E+00
 -1       613 3.41029E+00
 -1       614 2.01846E+00
 -1       615 3.24333E+00
 -1       616 5.57435E+00
 -1       617 1.06187E+01
 -1       618 1.83990E+01
 -1       619 5.05845E+00
 -1       620 4.75518E-04
 -1       621 6.39584E+00
 -1       622 5.98069E+00
 -1       623 5.84371E+00
 -1       624 4.38436E+00
 -1       625 3.55879E+00
 -1       626 1.13876E+01
 -1       627 1.69754E+00
 -1       628 1.50898E+00
 -1       629 1.56532E+00
 -1       630 2.12580E+00
 -1       631 3.08528E+00
 -1       632 2.64038E+00
 -1       633 1.78481E+00
 -1       634 1.57503E+00
 -1       635 1.38003E+00
 -1       636 1.32988E+00
 -1       637 1.10376E+00
 -1       638 8.55344E-01
 -1       639 7.91703E-01
 -1       640 6.91415E-01
 -1       641 5.85177E-01
 -1       642 5.09040E-01
 -1       643 4.40553E-01
 -1       644 3.68624E-01
 -1       645 2.99819E-01
 -1       646 2.37798E-01
 -1       647 1.84226E-01
 -1       648 1.39461E-01
 -1       649 1.03078E-01
 -1       650 7.42234E-02
 -1       651 5.18586E-02
 -1       652 3.49105E-02
 -1       653 2.23629E-02
 -1       654 1.33057E-02
 -1       655 9.19903E-03
 -1       656 8.99756E-03
 -1       657 8.30084E-03
 -1       658 7.34370E-03
 -1       659 6.28678E-03
 -1       660 5.23440E-03
 -1       661 4.53682E-03
 -1       662 3.83240E-03
 -1       663 3.14489E-03
 -1       664 2.50890E-03
 -1       665 1.96968E-03
 -1       666 1.51036E-03
 -1       667 1.12393E-03
 -1       668 8.02927E-04
 -1       669 3.94700E+00
 -1       670 3.24333E+00
 -1       671 4.16904E+00
 -1       672 3.38796E+00
 -1       673 2.55373E+00
 -1       674 1.97988E+00
 -1       675 1.67295E+00
 -1       676 1.42387E+00
 -1       677 1.17223E+00
 -1       678 9.43309E-01
 -1       679 7.45207E-01
 -1       680 5.79077E-01
 -1       681 4.42969E-01
 -1       682 3.33568E-01
 -1       683 2.47110E-01
 -1       684 1.79842E-01
 -1       685 1.28286E-01
 -1       686 8.93632E-02
 -1       687 6.04382E-02
 -1       688 3.93087E-02
 -1       689 2.41716E-02
 -1       690 1.62455E-02
 -1       691 1.23042E-02
 -1       692 1.08410E-02
 -1       693 9.26174E-03
 -1       694 7.71303E-03
 -1       695 6.66296E-03
 -1       696 5.78215E-03
 -1       697 4.87065E-03
 -1       698 3.99655E-03
 -1       699 3.32195E-03
 -1       700 2.73348E-03
 -1       701 2.18383E-03
 -1       702 1.70410E-03
 -1       703 1.30835E-03
 -1       704 9.58442E-04
 -1       705 7.17156E-04
 -1       706 7.86472E-04
 -1       707 5.14678E-04
 -1       708 7.72719E-04
 -1       709 7.85063E-04
 -1       710 7.86472E-04
 -1       711 7.65442E+00
 -1       712 7.85063E-04
 -1       713 7.68078E-04
 -1       714 6.42213E-04
 -1       715 3.73271E+00
 -1       716 1.44886E+01
 -1       717 1.01241E+01
 -1       718 3.37572E+00
 -1       719 1.52261E+01
 -1       720 7.60157E-01
 -1       721 1.12234E+01
 -1       722 2.63650E+00
 -1       723 1.47456E+01
 -1       724 6.39584E+00
 -1       725 3.41829E+00
 -1       726 3.56369E+00
 -1       727 3.11290E+00
 -1       728 1.34318E+01
 -1       729 6.77573E+00
 -1       730 1.40439E+01
 -1       731 9.28897E+00
 -1       732 4.04641E+00
 -1       733 1.27871E+01
 -1       734 4.56954E+00
 -1       735 5.18900E+00
 -1       736 7.04048E+00
 -1       737 3.32734E+00
 -1       738 7.04048E+00
 -1       739 5.89975E+00
 -1       740 2.47652E+00
 -1       741 4.96850E+00
 -1       742 5.66799E+00
 -1       743 4.98695E+00
 -1       744 2.84844E+00
 -1       745 6.47582E-04
 -1       746 6.81089E+00
 -1       747 5.56024E-04
 -1       748 4.62009E+00
 -1       749 8.13120E+00
 -1       750 1.02846E+01
 -1       751 4.41257E+00
 -1       752 1.71854E+00
 -1       753 6.52903E-04
 -1       754 7.93248E+00
 -1       755 3.05481E+00
 -1       756 2.21408E+00
 -1       757 2.12580E+00
 -1       758 4.05381E+00
 -1       759 2.64038E+00
 -1       760 2.00850E+00
 -1       761 2.52410E+00
 -1       762 2.00830E+00
 -1       763 1.61794E+00
 -1       764 1.33027E+00
 -1       765 1.11452E+00
 -1       766 8.94406E-01
 -1       767 7.22476E-01
 -1       768 6.07158E-01
 -1       769 4.99516E-01
 -1       770 4.04390E-01
 -1       771 3.19742E-01
 -1       772 2.47737E-01
 -1       773 1.91059E-01
 -1       774 1.46386E-01
 -1       775 1.08727E-01
 -1       776 7.83539E-02
 -1       777 5.56039E-02
 -1       778 3.85917E-02
 -1       779 2.60616E-02
 -1       780 1.68473E-02
 -1       781 1.02143E-02
 -1       782 5.67367E-03
 -1       783 5.35322E-03
 -1       784 5.59422E-03
 -1       785 5.37792E-03
 -1       786 4.89542E-03
 -1       787 4.28010E-03
 -1       788 3.69890E-03
 -1       789 3.22828E-03
 -1       790 2.72229E-03
 -1       791 2.22455E-03
 -1       792 1.76108E-03
 -1       793 1.34416E-03
 -1       794 9.77281E-04
 -1       795 2.64076E+00
 -1       796 2.29456E+00
 -1       797 1.72358E+00
 -1       798 1.30444E+00
 -1       799 1.00847E+00
 -1       800 7.95578E-01
 -1       801 6.13759E-01
 -1       802 4.63376E-01
 -1       803 3.43086E-01
 -1       804 2.50294E-01
 -1       805 1.86634E-01
 -1       806 1.37121E-01
 -1       807 9.89789E-02
 -1       808 6.99435E-02
 -1       809 4.81443E-02
 -1       810 3.20344E-02
 -1       811 2.03432E-02
 -1       812 1.20378E-02
 -1       813 7.69186E-03
 -1       814 7.82946E-03
 -1       815 7.40225E-03
 -1       816 6.66296E-03
 -1       817 5.78215E-03
 -1       818 4.87065E-03
 -1       819 4.22583E-03
 -1       820 3.58996E-03
 -1       821 2.96095E-03
 -1       822 2.37348E-03
 -1       823 1.84632E-03
 -1       824 1.38695E-03
 -1       825 9.98754E-04
 -1       826 8.09612E-04
 -1       827 1.92894E+00
 -1       828 9.09144E+00
 -1       829 9.17251E-04
 -1       830 9.08375E-04
 -1       831 7.98187E+00
 -1       832 8.04037E+00
 -1       833 9.56989E-04
 -1       834 3.89801E+00
 -1       835 4.60434E+00
 -1       836 9.93839E+00
 -1       837 5.66799E+00
 -1       838 8.32659E+00
 -1       839 8.32659E+00
 -1       840 3.18022E+00
 -1       841 2.93167E+00
 -1       842 4.60434E+00
 -1       843 2.52410E+00
 -1       844 4.03623E+00
 -1       845 6.48155E+00
 -1       846 9.56989E-04
 -1       847 4.86110E+00
 -1       848 9.10812E+00
 -1       849 1.07237E+01
 -1       850 6.93387E+00
 -1       851 6.59238E+00
 -1       852 9.86787E+00
 -1       853 2.84622E+00
 -1       854 6.94191E+00
 -1       855 3.18022E+00
 -1       856 4.66791E+00
 -1       857 9.34288E-04
 -1       858 9.54252E-04
 -1       859 9.54252E-04
 -1       860 8.57119E-04
 -1       861 4.94839E+00
 -1       862 6.37655E+00
 -1       863 7.91526E+00
 -1       864 2.95731E+00
 -1       865 2.89494E+00
 -1       866 2.08024E+00
 -1       867 1.57772E+00
 -1       868 1.23096E+00
 -1       869 9.83392E-01
 -1       870 7.56605E-01
 -1       871 5.78268E-01
 -1       872 4.64495E-01
 -1       873 3.75533E-01
 -1       874 3.06730E-01
 -1       875 2.43908E-01
 -1       876 1.89321E-01
 -1       877 1.43543E-01
 -1       878 1.06230E-01
 -1       879 7.65665E-02
 -1       880 5.35265E-02
 -1       881 3.69025E-02
 -1       882 2.45767E-02
 -1       883 1.55123E-02
 -1       884 9.01455E-03
 -1       885 4.60280E-03
 -1       886 3.05449E-03
 -1       887 3.76816E-03
 -1       888 3.95430E-03
 -1       889 3.80686E-03
 -1       890 3.46489E-03
 -1       891 3.02510E-03
 -1       892 2.67037E-03
 -1       893 2.28882E-03
 -1       894 1.89507E-03
 -1       895 1.51646E-03
 -1       896 6.82924E+00
 -1       897 5.23196E+00
 -1       898 1.29548E+00
 -1       899 9.99493E-01
 -1       900 7.64538E-01
 -1       901 5.80180E-01
 -1       902 4.36366E-01
 -1       903 3.24625E-01
 -1       904 2.38397E-01
 -1       905 1.72414E-01
 -1       906 1.22418E-01
 -1       907 8.52231E-02
 -1       908 5.89629E-02
 -1       909 3.95502E-02
 -1       910 2.55143E-02
 -1       911 1.55981E-02
 -1       912 8.76198E-03
 -1       913 4.79396E-03
 -1       914 4.70175E-03
 -1       915 5.04000E-03
 -1       916 4.91255E-03
 -1       917 4.51220E-03
 -1       918 3.97164E-03
 -1       919 3.43058E-03
 -1       920 2.99858E-03
 -1       921 2.53146E-03
 -1       922 2.06980E-03
 -1       923 1.63494E-03
 -1       924 1.28304E-03
 -1       925 8.98456E-04
 -1       926 3.56118E+00
 -1       927 6.22766E+00
 -1       928 1.20071E-03
 -1       929 1.65868E+00
 -1       930 2.26477E+00
 -1       931 6.90397E+00
 -1       932 6.81090E+00
 -1       933 4.13001E+00
 -1       934 6.81090E+00
 -1       935 1.14712E-03
 -1       936 5.71778E+00
 -1       937 1.79029E-03
 -1       938 1.19849E-03
 -1       939 1.62386E-03
 -1       940 3.16179E+00
 -1       941 1.81379E-03
 -1       942 6.48976E-01
 -1       943 2.91831E+00
 -1       944 2.36461E+00
 -1       945 1.88242E+00
 -1       946 1.34838E+00
 -1       947 9.41672E-01
 -1       948 7.25856E-01
 -1       949 5.72252E-01
 -1       950 4.64495E-01
 -1       951 3.69956E-01
 -1       952 2.89970E-01
 -1       953 2.23885E-01
 -1       954 1.70151E-01
 -1       955 1.27098E-01
 -1       956 9.31165E-02
 -1       957 6.67088E-02
 -1       958 4.65229E-02
 -1       959 3.15922E-02
 -1       960 2.11893E-02
 -1       961 1.35565E-02
 -1       962 8.08041E-03
 -1       963 4.59940E-03
 -1       964 2.61050E-03
 -1       965 2.60521E-03
 -1       966 2.94845E-03
 -1       967 2.96140E-03
 -1       968 2.77210E-03
 -1       969 2.47094E-03
 -1       970 2.14907E-03
 -1       971 1.85427E-03
 -1       972 1.54128E-03
 -1       973 1.16195E+00
 -1       974 4.89934E-01
 -1       975 3.68995E-01
 -1       976 2.76152E-01
 -1       977 2.04651E-01
 -1       978 1.49684E-01
 -1       979 1.07680E-01
 -1       980 7.58792E-02
 -1       981 5.20912E-02
 -1       982 3.56421E-02
 -1       983 2.35192E-02
 -1       984 1.47489E-02
 -1       985 8.56784E-03
 -1       986 4.42434E-03
 -1       987 2.72039E-03
 -1       988 3.42479E-03
 -1       989 3.62243E-03
 -1       990 3.50160E-03
 -1       991 3.19539E-03
 -1       992 2.79519E-03
 -1       993 2.44640E-03
 -1       994 2.09387E-03
 -1       995 1.87751E-03
 -1       996 5.06771E+00
 -1       997 1.81379E-03
 -1       998 1.59620E+00
 -1       999 8.63615E-01
 -1      1000 4.23379E+00
 -1      1001 3.19047E+00
 -1      1002 4.83829E+00
 -1      1003 1.81379E-03
 -1      1004 3.60480E+00
 -1      1005 1.79029E-03
 -1      1006 4.23379E+00
 -1      1007 2.26477E+00
 -1      1008 1.62386E-03
 -1      1009 8.47239E-01
 -1      1010 3.38006E+00
 -1      1011 1.84459E+00
 -1      1012 1.22807E+00
 -1      1013 9.40623E-01
 -1      1014 7.25856E-01
 -1      1015 5.58385E-01
 -1      1016 4.26251E-01
 -1      1017 3.24184E-01
 -1      1018 2.45580E-01
 -1      1019 1.84638E-01
 -1      1020 1.37388E-01
 -1      1021 1.00895E-01
 -1      1022 7.29015E-02
 -1      1023 5.16286E-02
 -1      1024 3.56516E-02
 -1      1025 2.41854E-02
 -1      1026 1.70192E-02
 -1      1027 1.15777E-02
 -1      1028 7.53441E-03
 -1      1029 4.59940E-03
 -1      1030 2.52449E-03
 -1      1031 1.88021E-03
 -1      1032 2.22234E-03
 -1      1033 2.28288E-03
 -1      1034 2.16798E-03
 -1      1035 1.95248E-03
 -1      1036 1.69024E-03
 -1      1037 1.45107E-03
 -1      1038 2.79596E-01
 -1      1039 4.81295E-01
 -1      1040 2.11758E-01
 -1      1041 1.58701E-01
 -1      1042 1.17283E-01
 -1      1043 8.51862E-02
 -1      1044 6.05808E-02
 -1      1045 4.19711E-02
 -1      1046 2.85538E-02
 -1      1047 1.91177E-02
 -1      1048 1.22166E-02
 -1      1049 7.59793E-03
 -1      1050 4.60582E-03
 -1      1051 2.50448E-03
 -1      1052 2.37723E-03
 -1      1053 2.68916E-03
 -1      1054 2.69889E-03
 -1      1055 2.52500E-03
 -1      1056 2.24870E-03
 -1      1057 1.92911E-03
 -1      1058 1.87751E-03
 -1      1059 3.66910E-01
 -1      1060 1.54200E-03
 -1      1061 1.18112E+00
 -1      1062 6.33505E-01
 -1      1063 2.83354E+00
 -1      1064 1.82602E+00
 -1      1065 1.61023E-03
 -1      1066 1.39399E-03
 -1      1067 2.91852E+00
 -1      1068 1.53563E+00
 -1      1069 1.22807E+00
 -1      1070 8.58026E-01
 -1      1071 6.54311E-01
 -1      1072 4.58200E-01
 -1      1073 3.35036E-01
 -1      1074 2.50564E-01
 -1      1075 1.99459E-01
 -1      1076 1.55499E-01
 -1      1077 1.18732E-01
 -1      1078 8.87219E-02
 -1      1079 6.47695E-02
 -1      1080 4.64434E-02
 -1      1081 3.28938E-02
 -1      1082 2.25591E-02
 -1      1083 1.52207E-02
 -1      1084 1.01070E-02
 -1      1085 6.36745E-03
 -1      1086 3.69676E-03
 -1      1087 1.84214E-03
 -1      1088 1.42136E-03
 -1      1089 1.90102E-03
 -1      1090 2.05607E-03
 -1      1091 1.94728E-03
 -1      1092 1.66135E-03
 -1      1093 1.99459E-01
 -1      1094 1.55499E-01
 -1      1095 6.78808E-01
 -1      1096 2.50564E-01
 -1      1097 1.18732E-01
 -1      1098 8.87219E-02
 -1      1099 6.47695E-02
 -1      1100 4.64434E-02
 -1      1101 3.28938E-02
 -1      1102 2.25591E-02
 -1      1103 1.48487E-02
 -1      1104 9.22947E-03
 -1      1105 5.24002E-03
 -1      1106 2.50448E-03
 -1      1107 1.71411E-03
 -1      1108 2.00641E-03
 -1      1109 2.05607E-03
 -1      1110 2.05607E-03
 -1      1111 1.94728E-03
 -1      1112 3.07829E-01
 -1      1113 9.36951E-01
 -1      1114 2.57096E+00
 -1      1115 3.73575E-01
 -1      1116 4.95858E-01
 -1      1117 2.01574E+00
 -1      1118 1.67820E+00
 -1      1119 1.66821E-03
 -1      1120 1.68355E-03
 -1      1121 9.36951E-01
 -1      1122 1.64605E+00
 -1      1123 1.05452E+00
 -1      1124 1.25518E+01
 -1      1125 8.31752E+00
 -1      1126 3.31051E+00
 -1      1127 2.34184E+00
 -1      1128 2.08637E+00
 -1      1129 2.06776E+00
 -1      1130 2.10869E+00
 -1      1131 2.06071E+00
 -1      1132 1.75616E+00
 -1      1133 1.59913E+00
 -1      1134 2.12456E+00
 -1      1135 2.77979E+00
 -1      1136 3.11001E+00
 -1      1137 3.36571E+00
 -1      1138 3.97243E+00
 -1      1139 6.27005E+00
 -1      1140 9.92602E+00
 -1      1141 1.25518E+01
 -1      1142 7.86407E+00
 -1      1143 2.61188E+00
 -1      1144 1.59592E+00
 -1      1145 1.30316E+00
 -1      1146 1.83571E+00
 -1      1147 2.56941E+00
 -1      1148 3.08369E+00
 -1      1149 3.23811E+00
 -1      1150 3.20974E+00
 -1      1151 3.11409E+00
 -1      1152 2.68928E+00
 -1      1153 1.85678E+00
 -1      1154 1.23871E+00
 -1      1155 9.73269E-01
 -1      1156 8.50943E-01
 -1      1157 8.20048E-01
 -1      1158 7.87423E-01
 -1      1159 7.40853E-01
 -1      1160 6.32632E-01
 -1      1161 5.10150E-01
 -1      1162 4.03499E-01
 -1      1163 3.33644E-01
 -1      1164 2.85704E-01
 -1      1165 2.34625E-01
 -1      1166 1.85973E-01
 -1      1167 1.42777E-01
 -1      1168 1.06694E-01
 -1      1169 8.38001E-02
 -1      1170 7.02986E-02
 -1      1171 5.74252E-02
 -1      1172 4.58254E-02
 -1      1173 3.57887E-02
 -1      1174 2.73743E-02
 -1      1175 2.10395E-02
 -1      1176 1.68934E-02
 -1      1177 1.38076E-02
 -1      1178 1.10536E-02
 -1      1179 8.67810E-03
 -1      1180 6.74220E-03
 -1      1181 5.21876E-03
 -1      1182 3.97833E-03
 -1      1183 2.95697E-03
 -1      1184 2.26645E-03
 -1      1185 1.86212E-03
 -1      1186 1.52877E-03
 -1      1187 1.21169E-03
 -1      1188 9.69035E-04
 -1      1189 7.38098E-04
 -1      1190 3.67210E-04
 -1      1191 1.17363E+01
 -1      1192 6.65995E+00
 -1      1193 1.24553E+00
 -1      1194 1.19901E+00
 -1      1195 1.68658E+00
 -1      1196 2.12811E+00
 -1      1197 2.78018E+00
 -1      1198 4.06835E+00
 -1      1199 5.24739E+00
 -1      1200 5.54480E+00
 -1      1201 5.53006E+00
 -1      1202 4.49638E+00
 -1      1203 2.71655E+00
 -1      1204 1.82915E+00
 -1      1205 1.83280E+00
 -1      1206 1.96297E+00
 -1      1207 1.90995E+00
 -1      1208 1.72037E+00
 -1      1209 1.45182E+00
 -1      1210 1.18846E+00
 -1      1211 9.35264E-01
 -1      1212 7.09318E-01
 -1      1213 5.20910E-01
 -1      1214 3.85283E-01
 -1      1215 2.92917E-01
 -1      1216 2.19000E-01
 -1      1217 1.60388E-01
 -1      1218 1.14937E-01
 -1      1219 8.03635E-02
 -1      1220 5.68447E-02
 -1      1221 4.39459E-02
 -1      1222 3.59191E-02
 -1      1223 2.88194E-02
 -1      1224 2.27237E-02
 -1      1225 1.83624E-02
 -1      1226 1.56542E-02
 -1      1227 1.33658E-02
 -1      1228 1.11411E-02
 -1      1229 9.09537E-03
 -1      1230 7.32970E-03
 -1      1231 5.87968E-03
 -1      1232 4.66469E-03
 -1      1233 3.62626E-03
 -1      1234 2.75279E-03
 -1      1235 2.02343E-03
 -1      1236 1.52749E-03
 -1      1237 1.20685E-03
 -1      1238 8.78364E-04
 -1      1239 5.75380E-04
 -1      1240 2.83848E-04
 -1      1241 1.59969E-04
 -1      1242 1.96756E-04
 -1      1243 1.79935E-04
 -1      1244 1.22672E-04
 -1      1245 8.47742E-05
 -1      1246 1.13917E-04
 -1      1247 1.56327E-04
 -1      1248 1.76672E-04
 -1      1249 1.81205E-04
 -1      1250 1.76421E-04
 -1      1251 1.55058E-04
 -1      1252 1.12649E-04
 -1      1253 8.53437E-05
 -1      1254 1.23420E-04
 -1      1255 2.12038E-04
 -1      1256 2.77130E-04
 -1      1257 2.17262E-04
 -1      1258 2.49134E+01
 -1      1259 3.70108E+01
 -1      1260 4.90064E+01
 -1      1261 3.60538E+01
 -1      1262 1.75666E+01
 -1      1263 1.24475E+01
 -1      1264 1.28629E+01
 -1      1265 1.26630E+01
 -1      1266 1.24631E+01
 -1      1267 1.23904E+01
 -1      1268 1.88741E+01
 -1      1269 2.79077E+01
 -1      1270 3.03848E+01
 -1      1271 2.82467E+01
 -1      1272 2.62032E+01
 -1      1273 2.62978E+01
 -1      1274 3.29736E+01
 -1      1275 3.96494E+01
 -1      1276 2.72206E+01
 -1      1277 1.33641E+01
 -1      1278 1.21523E+01
 -1      1279 1.23682E+01
 -1      1280 1.20889E+01
 -1      1281 1.18096E+01
 -1      1282 1.17459E+01
 -1      1283 1.74623E+01
 -1      1284 3.60047E+01
 -1      1285 4.87670E+01
 -1      1286 3.68352E+01
 -1      1287 2.48575E+01
 -1      1288 1.25518E+01
 -1      1289 5.26233E+00
 -1      1290 9.49658E+00
 -1      1291 2.73473E+00
 -1      1292 3.50748E+00
 -1      1293 4.68655E+00
 -1      1294 2.23591E+00
 -1      1295 2.43183E+00
 -1      1296 2.62880E+00
 -1      1297 2.06281E+00
 -1      1298 2.12237E+00
 -1      1299 2.21236E+00
 -1      1300 2.08917E+00
 -1      1301 2.04823E+00
 -1      1302 2.08423E+00
 -1      1303 2.19668E+00
 -1      1304 2.19668E+00
 -1      1305 2.17715E+00
 -1      1306 2.14869E+00
 -1      1307 2.19668E+00
 -1      1308 2.28466E+00
 -1      1309 1.80796E+00
 -1      1310 2.06452E+00
 -1      1311 2.20049E+00
 -1      1312 1.64216E+00
 -1      1313 1.54263E+00
 -1      1314 1.85098E+00
 -1      1315 2.48281E+00
 -1      1316 2.05691E+00
 -1      1317 2.00040E+00
 -1      1318 3.02429E+00
 -1      1319 2.79496E+00
 -1      1320 2.72731E+00
 -1      1321 3.15339E+00
 -1      1322 3.05250E+00
 -1      1323 3.06767E+00
 -1      1324 3.36571E+00
 -1      1325 3.21090E+00
 -1      1326 3.15339E+00
 -1      1327 4.04991E+00
 -1      1328 3.59799E+00
 -1      1329 3.44318E+00
 -1      1330 6.27005E+00
 -1      1331 4.42435E+00
 -1      1332 4.04991E+00
 -1      1333 1.17363E+01
 -1      1334 9.92602E+00
 -1      1335 8.08032E+00
 -1      1336 1.17363E+01
 -1      1337 7.86407E+00
 -1      1338 3.17638E+00
 -1      1339 2.61188E+00
 -1      1340 2.04738E+00
 -1      1341 2.61188E+00
 -1      1342 1.63152E+00
 -1      1343 1.18005E+00
 -1      1344 1.63152E+00
 -1      1345 1.18415E+00
 -1      1346 1.34286E+00
 -1      1347 1.21975E+00
 -1      1348 1.56176E+00
 -1      1349 1.93561E+00
 -1      1350 1.44275E+00
 -1      1351 2.20956E+00
 -1      1352 2.56941E+00
 -1      1353 1.93561E+00
 -1      1354 2.92927E+00
 -1      1355 3.08369E+00
 -1      1356 2.56941E+00
 -1      1357 3.23811E+00
 -1      1358 3.23811E+00
 -1      1359 3.08369E+00
 -1      1360 3.20974E+00
 -1      1361 3.18136E+00
 -1      1362 3.20974E+00
 -1      1363 3.11409E+00
 -1      1364 3.04683E+00
 -1      1365 3.11409E+00
 -1      1366 2.68928E+00
 -1      1367 2.33173E+00
 -1      1368 2.68928E+00
 -1      1369 1.94548E+00
 -1      1370 1.47053E+00
 -1      1371 1.94548E+00
 -1      1372 1.23871E+00
 -1      1373 1.09559E+00
 -1      1374 1.32742E+00
 -1      1375 9.68774E-01
 -1      1376 8.46449E-01
 -1      1377 9.68774E-01
 -1      1378 8.50943E-01
 -1      1379 8.50943E-01
 -1      1380 8.46449E-01
 -1      1381 8.20048E-01
 -1      1382 7.89153E-01
 -1      1383 8.20048E-01
 -1      1384 7.87423E-01
 -1      1385 7.85694E-01
 -1      1386 7.87423E-01
 -1      1387 7.40853E-01
 -1      1388 6.96012E-01
 -1      1389 7.40853E-01
 -1      1390 6.32632E-01
 -1      1391 5.69253E-01
 -1      1392 6.32632E-01
 -1      1393 5.22470E-01
 -1      1394 4.63368E-01
 -1      1395 5.22470E-01
 -1      1396 4.30350E-01
 -1      1397 3.82801E-01
 -1      1398 4.42670E-01
 -1      1399 3.45145E-01
 -1      1400 3.22839E-01
 -1      1401 3.71996E-01
 -1      1402 2.85817E-01
 -1      1403 2.60183E-01
 -1      1404 2.97318E-01
 -1      1405 2.34625E-01
 -1      1406 2.09181E-01
 -1      1407 2.34739E-01
 -1      1408 1.86283E-01
 -1      1409 1.63075E-01
 -1      1410 1.86283E-01
 -1      1411 1.45400E-01
 -1      1412 1.25411E-01
 -1      1413 1.45709E-01
 -1      1414 1.10166E-01
 -1      1415 9.40715E-02
 -1      1416 1.12788E-01
 -1      1417 8.38001E-02
 -1      1418 7.69997E-02
 -1      1419 8.72711E-02
 -1      1420 7.02986E-02
 -1      1421 6.35975E-02
 -1      1422 7.02986E-02
 -1      1423 5.74252E-02
 -1      1424 5.12530E-02
 -1      1425 5.74252E-02
 -1      1426 4.58254E-02
 -1      1427 4.03978E-02
 -1      1428 4.58254E-02
 -1      1429 3.57887E-02
 -1      1430 3.11797E-02
 -1      1431 3.57887E-02
 -1      1432 2.75409E-02
 -1      1433 2.37356E-02
 -1      1434 2.75409E-02
 -1      1435 2.11140E-02
 -1      1436 1.85844E-02
 -1      1437 2.12806E-02
 -1      1438 1.68934E-02
 -1      1439 1.52768E-02
 -1      1440 1.69679E-02
 -1      1441 1.38076E-02
 -1      1442 1.23384E-02
 -1      1443 1.38076E-02
 -1      1444 1.10536E-02
 -1      1445 9.76887E-03
 -1      1446 1.10536E-02
 -1      1447 8.81869E-03
 -1      1448 7.72792E-03
 -1      1449 8.81869E-03
 -1      1450 6.90613E-03
 -1      1451 6.06100E-03
 -1      1452 7.04672E-03
 -1      1453 5.46029E-03
 -1      1454 4.78198E-03
 -1      1455 5.62422E-03
 -1      1456 4.26096E-03
 -1      1457 3.69884E-03
 -1      1458 4.50249E-03
 -1      1459 3.24724E-03
 -1      1460 2.78800E-03
 -1      1461 3.52987E-03
 -1      1462 2.40505E-03
 -1      1463 2.17377E-03
 -1      1464 2.69532E-03
 -1      1465 1.86212E-03
 -1      1466 1.68907E-03
 -1      1467 2.00073E-03
 -1      1468 1.52877E-03
 -1      1469 1.36846E-03
 -1      1470 1.52877E-03
 -1      1471 1.21169E-03
 -1      1472 1.05493E-03
 -1      1473 1.21169E-03
 -1      1474 9.69035E-04
 -1      1475 8.83142E-04
 -1      1476 9.69035E-04
 -1      1477 7.38098E-04
 -1      1478 5.93055E-04
 -1      1479 7.38098E-04
 -1      1480 4.43107E-04
 -1      1481 4.43107E-04
 -1      1482 1.78135E+00
 -1      1483 6.85770E+00
 -1      1484 6.85770E+00
 -1      1485 1.14304E+00
 -1      1486 1.48112E+00
 -1      1487 1.67887E+00
 -1      1488 1.22376E+00
 -1      1489 9.32195E-01
 -1      1490 1.16779E+00
 -1      1491 1.68658E+00
 -1      1492 1.49057E+00
 -1      1493 1.22376E+00
 -1      1494 2.12811E+00
 -1      1495 1.88258E+00
 -1      1496 1.68658E+00
 -1      1497 2.78018E+00
 -1      1498 2.37364E+00
 -1      1499 2.12811E+00
 -1      1500 4.14001E+00
 -1      1501 3.25837E+00
 -1      1502 2.85183E+00
 -1      1503 5.24739E+00
 -1      1504 4.94999E+00
 -1      1505 4.14001E+00
 -1      1506 5.54480E+00
 -1      1507 5.54480E+00
 -1      1508 5.24739E+00
 -1      1509 5.51532E+00
 -1      1510 5.53006E+00
 -1      1511 5.53006E+00
 -1      1512 3.47744E+00
 -1      1513 4.49638E+00
 -1      1514 4.49638E+00
 -1      1515 1.95566E+00
 -1      1516 2.71655E+00
 -1      1517 2.71655E+00
 -1      1518 1.62039E+00
 -1      1519 1.74691E+00
 -1      1520 1.74691E+00
 -1      1521 1.83280E+00
 -1      1522 1.70263E+00
 -1      1523 1.62039E+00
 -1      1524 1.96297E+00
 -1      1525 1.96297E+00
 -1      1526 1.83280E+00
 -1      1527 1.85693E+00
 -1      1528 1.90995E+00
 -1      1529 1.90995E+00
 -1      1530 1.58380E+00
 -1      1531 1.72037E+00
 -1      1532 1.72037E+00
 -1      1533 1.31983E+00
 -1      1534 1.45182E+00
 -1      1535 1.45182E+00
 -1      1536 1.06833E+00
 -1      1537 1.19969E+00
 -1      1538 1.19969E+00
 -1      1539 8.33949E-01
 -1      1540 9.55782E-01
 -1      1541 9.67012E-01
 -1      1542 6.29089E-01
 -1      1543 7.33202E-01
 -1      1544 7.53720E-01
 -1      1545 4.60347E-01
 -1      1546 5.44642E-01
 -1      1547 5.68527E-01
 -1      1548 3.41762E-01
 -1      1549 3.93094E-01
 -1      1550 4.16826E-01
 -1      1551 2.51884E-01
 -1      1552 2.92917E-01
 -1      1553 3.00729E-01
 -1      1554 1.86115E-01
 -1      1555 2.19000E-01
 -1      1556 2.19000E-01
 -1      1557 1.35138E-01
 -1      1558 1.60865E-01
 -1      1559 1.60865E-01
 -1      1560 9.67206E-02
 -1      1561 1.16445E-01
 -1      1562 1.16922E-01
 -1      1563 6.75473E-02
 -1      1564 8.23955E-02
 -1      1565 8.39044E-02
 -1      1566 4.81741E-02
 -1      1567 5.68447E-02
 -1      1568 5.88767E-02
 -1      1569 3.97177E-02
 -1      1570 4.39459E-02
 -1      1571 4.39459E-02
 -1      1572 3.21206E-02
 -1      1573 3.59191E-02
 -1      1574 3.59191E-02
 -1      1575 2.55183E-02
 -1      1576 2.88194E-02
 -1      1577 2.88194E-02
 -1      1578 1.99292E-02
 -1      1579 2.27237E-02
 -1      1580 2.27237E-02
 -1      1581 1.67957E-02
 -1      1582 1.83624E-02
 -1      1583 1.83624E-02
 -1      1584 1.45127E-02
 -1      1585 1.56542E-02
 -1      1586 1.56542E-02
 -1      1587 1.22188E-02
 -1      1588 1.33658E-02
 -1      1589 1.33658E-02
 -1      1590 1.00634E-02
 -1      1591 1.11411E-02
 -1      1592 1.11411E-02
 -1      1593 8.12737E-03
 -1      1594 9.09537E-03
 -1      1595 9.09537E-03
 -1      1596 6.53204E-03
 -1      1597 7.32970E-03
 -1      1598 7.32970E-03
 -1      1599 5.22732E-03
 -1      1600 5.87968E-03
 -1      1601 5.87968E-03
 -1      1602 4.10206E-03
 -1      1603 4.66469E-03
 -1      1604 4.66469E-03
 -1      1605 3.17726E-03
 -1      1606 3.65305E-03
 -1      1607 3.65305E-03
 -1      1608 2.39820E-03
 -1      1609 2.79588E-03
 -1      1610 2.82267E-03
 -1      1611 1.74553E-03
 -1      1612 2.07721E-03
 -1      1613 2.12031E-03
 -1      1614 1.36322E-03
 -1      1615 1.52749E-03
 -1      1616 1.58127E-03
 -1      1617 1.05048E-03
 -1      1618 1.20685E-03
 -1      1619 1.20685E-03
 -1      1620 7.06246E-04
 -1      1621 8.78364E-04
 -1      1622 8.78364E-04
 -1      1623 4.44514E-04
 -1      1624 5.75380E-04
 -1      1625 5.75380E-04
 -1      1626 3.20635E-04
 -1      1627 2.28502E-04
 -1      1628 2.28502E-04
 -1      1629 2.11681E-04
 -1      1630 2.28502E-04
 -1      1631 2.60247E-04
 -1      1632 1.65697E-04
 -1      1633 2.06139E-04
 -1      1634 2.54706E-04
 -1      1635 1.16615E-04
 -1      1636 1.14072E-04
 -1      1637 1.97538E-04
 -1      1638 1.94042E-04
 -1      1639 1.67443E-04
 -1      1640 1.96740E-04
 -1      1641 2.42966E-04
 -1      1642 2.27155E-04
 -1      1643 2.80681E-04
 -1      1644 2.60908E-04
 -1      1645 2.56375E-04
 -1      1646 3.27203E-04
 -1      1647 2.60908E-04
 -1      1648 2.60908E-04
 -1      1649 3.40611E-04
 -1      1650 2.56032E-04
 -1      1651 2.60815E-04
 -1      1652 3.40518E-04
 -1      1653 2.25046E-04
 -1      1654 2.41626E-04
 -1      1655 3.26020E-04
 -1      1656 1.67289E-04
 -1      1657 1.93118E-04
 -1      1658 2.79686E-04
 -1      1659 1.15743E-04
 -1      1660 1.17220E-04
 -1      1661 1.97688E-04
 -1      1662 2.06239E-04
 -1      1663 1.66686E-04
 -1      1664 1.98562E-04
 -1      1665 2.55303E-04
 -1      1666 2.06239E-04
 -1      1667 2.49505E-04
 -1      1668 3.14211E-04
 -1      1669 2.98183E-04
 -1      1670 2.92384E-04
 -1      1671 4.64159E-04
 -1      1672 2.92430E+01
 -1      1673 2.91412E+01
 -1      1674 4.01931E+01
 -1      1675 2.81975E+01
 -1      1676 4.90064E+01
 -1      1677 4.90064E+01
 -1      1678 2.38133E+01
 -1      1679 3.67659E+01
 -1      1680 1.19888E+01
 -1      1681 1.75233E+01
 -1      1682 1.24475E+01
 -1      1683 1.20321E+01
 -1      1684 1.28629E+01
 -1      1685 1.28629E+01
 -1      1686 1.21203E+01
 -1      1687 1.23202E+01
 -1      1688 1.24631E+01
 -1      1689 1.24631E+01
 -1      1690 1.21171E+01
 -1      1691 1.21899E+01
 -1      1692 1.88741E+01
 -1      1693 1.23176E+01
 -1      1694 2.82798E+01
 -1      1695 2.58026E+01
 -1      1696 3.19596E+01
 -1      1697 3.19596E+01
 -1      1698 2.98215E+01
 -1      1699 3.19596E+01
 -1      1700 3.00644E+01
 -1      1701 2.99698E+01
 -1      1702 3.00644E+01
 -1      1703 3.00644E+01
 -1      1704 3.81331E+01
 -1      1705 3.14573E+01
 -1      1706 3.96494E+01
 -1      1707 3.96494E+01
 -1      1708 1.47917E+01
 -1      1709 2.72206E+01
 -1      1710 1.15699E+01
 -1      1711 1.29976E+01
 -1      1712 1.21523E+01
 -1      1713 1.19364E+01
 -1      1714 1.23682E+01
 -1      1715 1.23682E+01
 -1      1716 1.17720E+01
 -1      1717 1.20513E+01
 -1      1718 1.18096E+01
 -1      1719 1.18096E+01
 -1      1720 1.14227E+01
 -1      1721 1.14864E+01
 -1      1722 1.74623E+01
 -1      1723 1.16822E+01
 -1      1724 3.69769E+01
 -1      1725 2.42146E+01
 -1      1726 4.87670E+01
 -1      1727 4.87670E+01
 -1      1728 2.74110E+01
 -1      1729 3.93429E+01
 -1      1730 2.91412E+01
 -1      1731 2.91871E+01
 -1      1732 1.82355E+01
 -1      1733 3.67659E+01
 -1      1734 3.20635E-04
 -1      1735 3.52381E-04
 -1      1736 3.24254E+01
 -1      1737 4.01931E+01
 -1      1738 3.34709E+01
 -1      1739 1.19888E+01
 -1      1740 1.24475E+01
 -1      1741 1.23202E+01
 -1      1742 1.21203E+01
 -1      1743 1.21899E+01
 -1      1744 1.21171E+01
 -1      1745 1.92462E+01
 -1      1746 2.98546E+01
 -1      1747 3.35345E+01
 -1      1748 3.36827E+01
 -1      1749 3.38309E+01
 -1      1750 3.52239E+01
 -1      1751 3.81331E+01
 -1      1752 2.72206E+01
 -1      1753 1.29976E+01
 -1      1754 1.15699E+01
 -1      1755 1.21523E+01
 -1      1756 1.20513E+01
 -1      1757 1.17720E+01
 -1      1758 1.14864E+01
 -1      1759 1.14227E+01
 -1      1760 1.84345E+01
 -1      1761 3.69769E+01
 -1      1762 3.93429E+01
 -1      1763 3.16948E+01
 -1      1764 9.49658E+00
 -1      1765 2.03651E+00
 -1      1766 2.33941E+00
 -1      1767 2.89752E+00
 -1      1768 4.65236E+00
 -1      1769 2.30523E+00
 -1      1770 1.99814E+00
 -1      1771 2.01272E+00
 -1      1772 2.29263E+00
 -1      1773 2.18512E+00
 -1      1774 2.11362E+00
 -1      1775 2.47030E+00
 -1      1776 2.47030E+00
 -1      1777 2.47827E+00
 -1      1778 2.38613E+00
 -1      1779 2.47030E+00
 -1      1780 2.65594E+00
 -1      1781 1.97188E+00
 -1      1782 2.23721E+00
 -1      1783 2.50702E+00
 -1      1784 2.51873E+00
 -1      1785 2.10398E+00
 -1      1786 2.49021E+00
 -1      1787 3.17651E+00
 -1      1788 2.86435E+00
 -1      1789 2.96793E+00
 -1      1790 3.21009E+00
 -1      1791 3.18188E+00
 -1      1792 3.31892E+00
 -1      1793 3.25541E+00
 -1      1794 3.19790E+00
 -1      1795 3.31210E+00
 -1      1796 3.54288E+00
 -1      1797 3.31060E+00
 -1      1798 3.35510E+00
 -1      1799 3.67140E+00
 -1      1800 3.29696E+00
 -1      1801 3.16437E+00
 -1      1802 6.84644E+00
 -1      1803 3.19047E+00
 -1      1804 2.43752E+00
 -1      1805 1.96785E+00
 -1      1806 4.80889E+00
 -1      1807 1.54259E+00
 -1      1808 1.84282E+00
 -1      1809 1.83157E+00
 -1      1810 3.01986E+00
 -1      1811 1.63152E+00
 -1      1812 1.21565E+00
 -1      1813 1.11283E+00
 -1      1814 1.11693E+00
 -1      1815 1.11283E+00
 -1      1816 1.25365E+00
 -1      1817 1.47255E+00
 -1      1818 1.14673E+00
 -1      1819 1.63475E+00
 -1      1820 1.90870E+00
 -1      1821 1.44564E+00
 -1      1822 2.08535E+00
 -1      1823 2.44521E+00
 -1      1824 1.78449E+00
 -1      1825 2.54232E+00
 -1      1826 2.69674E+00
 -1      1827 2.05826E+00
 -1      1828 2.64655E+00
 -1      1829 2.61818E+00
 -1      1830 2.10519E+00
 -1      1831 2.63344E+00
 -1      1832 2.56618E+00
 -1      1833 2.07026E+00
 -1      1834 2.48809E+00
 -1      1835 2.13054E+00
 -1      1836 2.00744E+00
 -1      1837 1.91517E+00
 -1      1838 1.52892E+00
 -1      1839 1.71398E+00
 -1      1840 1.34726E+00
 -1      1841 1.11544E+00
 -1      1842 1.31694E+00
 -1      1843 8.70577E-01
 -1      1844 7.43756E-01
 -1      1845 8.90420E-01
 -1      1846 6.29640E-01
 -1      1847 6.34135E-01
 -1      1848 5.31443E-01
 -1      1849 6.46862E-01
 -1      1850 6.15967E-01
 -1      1851 4.30054E-01
 -1      1852 6.75993E-01
 -1      1853 6.74264E-01
 -1      1854 5.02808E-01
 -1      1855 6.87476E-01
 -1      1856 6.42635E-01
 -1      1857 5.76047E-01
 -1      1858 6.22320E-01
 -1      1859 5.58940E-01
 -1      1860 5.68944E-01
 -1      1861 5.28577E-01
 -1      1862 4.81795E-01
 -1      1863 5.18265E-01
 -1      1864 4.53736E-01
 -1      1865 4.20718E-01
 -1      1866 4.59842E-01
 -1      1867 3.91651E-01
 -1      1868 3.53995E-01
 -1      1869 4.02716E-01
 -1      1870 3.21229E-01
 -1      1871 2.84206E-01
 -1      1872 3.40883E-01
 -1      1873 2.52074E-01
 -1      1874 2.26517E-01
 -1      1875 2.75985E-01
 -1      1876 1.97535E-01
 -1      1877 1.74637E-01
 -1      1878 2.14871E-01
 -1      1879 1.49981E-01
 -1      1880 1.32305E-01
 -1      1881 1.61233E-01
 -1      1882 1.12788E-01
 -1      1883 9.75425E-02
 -1      1884 1.17060E-01
 -1      1885 8.49070E-02
 -1      1886 7.46356E-02
 -1      1887 8.49070E-02
 -1      1888 6.45001E-02
 -1      1889 5.77990E-02
 -1      1890 6.21360E-02
 -1      1891 5.10332E-02
 -1      1892 4.48609E-02
 -1      1893 4.52347E-02
 -1      1894 4.18833E-02
 -1      1895 3.64558E-02
 -1      1896 3.54913E-02
 -1      1897 3.35995E-02
 -1      1898 2.89904E-02
 -1      1899 2.96574E-02
 -1      1900 2.63936E-02
 -1      1901 2.27549E-02
 -1      1902 2.42044E-02
 -1      1903 2.04842E-02
 -1      1904 1.78626E-02
 -1      1905 1.93368E-02
 -1      1906 1.59365E-02
 -1      1907 1.42455E-02
 -1      1908 1.51401E-02
 -1      1909 1.31177E-02
 -1      1910 1.16485E-02
 -1      1911 1.20864E-02
 -1      1912 1.07931E-02
 -1      1913 9.50832E-03
 -1      1914 1.01032E-02
 -1      1915 8.69231E-03
 -1      1916 7.74213E-03
 -1      1917 8.43176E-03
 -1      1918 7.03010E-03
 -1      1919 6.20831E-03
 -1      1920 6.90373E-03
 -1      1921 5.63477E-03
 -1      1922 5.03407E-03
 -1      1923 5.61816E-03
 -1      1924 4.52289E-03
 -1      1925 4.00187E-03
 -1      1926 4.53344E-03
 -1      1927 3.59378E-03
 -1      1928 3.14218E-03
 -1      1929 3.61418E-03
 -1      1930 2.80072E-03
 -1      1931 2.41778E-03
 -1      1932 2.86464E-03
 -1      1933 2.11979E-03
 -1      1934 1.80813E-03
 -1      1935 2.22519E-03
 -1      1936 1.55555E-03
 -1      1937 1.39524E-03
 -1      1938 1.67461E-03
 -1      1939 1.18787E-03
 -1      1940 1.03110E-03
 -1      1941 1.21465E-03
 -1      1942 9.07713E-04
 -1      1943 8.21819E-04
 -1      1944 8.83887E-04
 -1      1945 7.00753E-04
 -1      1946 5.55710E-04
 -1      1947 4.26814E-04
 -1      1948 6.39430E-04
 -1      1949 1.26745E+00
 -1      1950 1.47829E+00
 -1      1951 1.64225E+00
 -1      1952 1.30905E+00
 -1      1953 1.04223E+00
 -1      1954 1.35274E+00
 -1      1955 1.56592E+00
 -1      1956 1.36992E+00
 -1      1957 1.18839E+00
 -1      1958 2.30905E+00
 -1      1959 2.06352E+00
 -1      1960 1.74686E+00
 -1      1961 3.04894E+00
 -1      1962 2.57075E+00
 -1      1963 2.50616E+00
 -1      1964 4.26088E+00
 -1      1965 3.45090E+00
 -1      1966 3.16981E+00
 -1      1967 4.40784E+00
 -1      1968 4.11043E+00
 -1      1969 3.42132E+00
 -1      1970 4.32103E+00
 -1      1971 4.33577E+00
 -1      1972 3.19881E+00
 -1      1973 2.91544E+00
 -1      1974 3.93438E+00
 -1      1975 2.74009E+00
 -1      1976 1.60797E+00
 -1      1977 2.36886E+00
 -1      1978 1.80687E+00
 -1      1979 1.36704E+00
 -1      1980 1.57579E+00
 -1      1981 1.22810E+00
 -1      1982 1.56461E+00
 -1      1983 1.48238E+00
 -1      1984 1.31126E+00
 -1      1985 1.72024E+00
 -1      1986 1.59007E+00
 -1      1987 1.45206E+00
 -1      1988 1.65477E+00
 -1      1989 1.70779E+00
 -1      1990 1.46506E+00
 -1      1991 1.45847E+00
 -1      1992 1.59503E+00
 -1      1993 1.39287E+00
 -1      1994 1.25069E+00
 -1      1995 1.38268E+00
 -1      1996 1.25734E+00
 -1      1997 1.03815E+00
 -1      1998 1.15829E+00
 -1      1999 1.08916E+00
 -1      2000 8.30095E-01
 -1      2001 9.42641E-01
 -1      2002 9.01236E-01
 -1      2003 6.40416E-01
 -1      2004 7.41163E-01
 -1      2005 7.16791E-01
 -1      2006 4.79423E-01
 -1      2007 5.63870E-01
 -1      2008 5.51313E-01
 -1      2009 3.49573E-01
 -1      2010 4.16826E-01
 -1      2011 4.12169E-01
 -1      2012 2.51372E-01
 -1      2013 3.00216E-01
 -1      2014 3.00216E-01
 -1      2015 1.84817E-01
 -1      2016 2.17702E-01
 -1      2017 2.17190E-01
 -1      2018 1.35615E-01
 -1      2019 1.60865E-01
 -1      2020 1.59567E-01
 -1      2021 9.82296E-02
 -1      2022 1.16922E-01
 -1      2023 1.16922E-01
 -1      2024 6.95793E-02
 -1      2025 8.39044E-02
 -1      2026 8.39044E-02
 -1      2027 4.80848E-02
 -1      2028 5.87874E-02
 -1      2029 5.87874E-02
 -1      2030 3.58662E-02
 -1      2031 4.00944E-02
 -1      2032 4.00051E-02
 -1      2033 2.89260E-02
 -1      2034 3.27246E-02
 -1      2035 2.88731E-02
 -1      2036 2.36373E-02
 -1      2037 2.69384E-02
 -1      2038 2.37439E-02
 -1      2039 1.89518E-02
 -1      2040 2.17463E-02
 -1      2041 1.98653E-02
 -1      2042 1.56721E-02
 -1      2043 1.72388E-02
 -1      2044 1.62614E-02
 -1      2045 1.30331E-02
 -1      2046 1.41745E-02
 -1      2047 1.30510E-02
 -1      2048 1.07775E-02
 -1      2049 1.19245E-02
 -1      2050 1.04448E-02
 -1      2051 9.03590E-03
 -1      2052 1.01136E-02
 -1      2053 8.67235E-03
 -1      2054 7.40913E-03
 -1      2055 8.37714E-03
 -1      2056 7.34966E-03
 -1      2057 5.99713E-03
 -1      2058 6.79479E-03
 -1      2059 6.07656E-03
 -1      2060 4.85088E-03
 -1      2061 5.50324E-03
 -1      2062 4.96833E-03
 -1      2063 3.87476E-03
 -1      2064 4.43739E-03
 -1      2065 4.06095E-03
 -1      2066 3.05523E-03
 -1      2067 3.50424E-03
 -1      2068 3.27694E-03
 -1      2069 2.35050E-03
 -1      2070 2.73187E-03
 -1      2071 2.58306E-03
 -1      2072 1.75257E-03
 -1      2073 2.07357E-03
 -1      2074 1.98276E-03
 -1      2075 1.30082E-03
 -1      2076 1.51886E-03
 -1      2077 1.47212E-03
 -1      2078 1.00532E-03
 -1      2079 1.16169E-03
 -1      2080 1.09928E-03
 -1      2081 7.01011E-04
 -1      2082 8.73129E-04
 -1      2083 8.27968E-04
 -1      2084 4.32163E-04
 -1      2085 5.63029E-04
 -1      2086 5.57794E-04
 -1      2087 3.40029E-04
 -1      2088 2.10758E-04
 -1      2089 2.62383E-04
 -1      2090 3.80746E-04
 -1      2091 3.86288E-04
 -1      2092 3.93966E-04
 -1      2093 3.86288E-04
 -1      2094 3.86288E-04
 -1      2095 4.66070E-04
 -1      2096 5.12329E-04
 -1      2097 2.89379E-04
 -1      2098 2.38552E-04
 -1      2099 3.03397E-04
 -1      2100 3.71936E-04
 -1      2101 3.38823E-04
 -1      2102 3.80634E-04
 -1      2103 4.07998E-04
 -1      2104 3.94590E-04
 -1      2105 4.52731E-04
 -1      2106 4.07998E-04
 -1      2107 4.07998E-04
 -1      2108 4.75385E-04
 -1      2109 4.07078E-04
 -1      2110 4.07171E-04
 -1      2111 4.74558E-04
 -1      2112 3.92673E-04
 -1      2113 4.07078E-04
 -1      2114 4.73731E-04
 -1      2115 3.38691E-04
 -1      2116 3.70619E-04
 -1      2117 4.51678E-04
 -1      2118 2.38962E-04
 -1      2119 2.89031E-04
 -1      2120 3.79965E-04
 -1      2121 2.58584E-04
 -1      2122 2.07641E-04
 -1      2123 2.98984E-04
 -1      2124 3.35879E-04
 -1      2125 3.35879E-04
 -1      2126 3.44959E-04
 -1      2127 4.01931E+01
 -1      2128 3.13799E+01
 -1      2129 3.34709E+01
 -1      2130 3.34709E+01
 -1      2131 3.19777E+01
 -1      2132 3.30232E+01
 -1      2133 2.12820E+01
 -1      2134 3.35225E+01
 -1      2135 1.07529E+01
 -1      2136 1.70429E+01
 -1      2137 2.05863E+00
 -1      2138 2.17218E+00
 -1      2139 1.88279E+00
 -1      2140 1.97254E+00
 -1      2141 1.09177E+01
 -1      2142 1.05023E+01
 -1      2143 1.12148E+01
 -1      2144 1.17576E+01
 -1      2145 1.15242E+01
 -1      2146 1.11814E+01
 -1      2147 1.07618E+01
 -1      2148 1.10351E+01
 -1      2149 9.59145E+00
 -1      2150 9.39095E+00
 -1      2151 1.87239E+01
 -1      2152 1.17954E+01
 -1      2153 2.62721E+01
 -1      2154 2.25922E+01
 -1      2155 3.35345E+01
 -1      2156 3.35345E+01
 -1      2157 3.15491E+01
 -1      2158 3.14009E+01
 -1      2159 3.14009E+01
 -1      2160 3.38309E+01
 -1      2161 3.38309E+01
 -1      2162 3.19474E+01
 -1      2163 3.05545E+01
 -1      2164 3.17818E+01
 -1      2165 3.02655E+01
 -1      2166 1.42192E+01
 -1      2167 2.66480E+01
 -1      2168 9.14233E+00
 -1      2169 1.09365E+01
 -1      2170 1.03639E+01
 -1      2171 9.99958E+00
 -1      2172 9.63307E+00
 -1      2173 1.11546E+01
 -1      2174 1.09387E+01
 -1      2175 9.00182E+00
 -1      2176 1.13264E+01
 -1      2177 1.16433E+01
 -1      2178 1.10390E+01
 -1      2179 1.10015E+01
 -1      2180 1.05934E+01
 -1      2181 9.93673E+00
 -1      2182 1.02599E+01
 -1      2183 9.39072E+00
 -1      2184 9.13122E+00
 -1      2185 7.90480E+00
 -1      2186 1.77305E+01
 -1      2187 1.09781E+01
 -1      2188 3.32841E+01
 -1      2189 2.14940E+01
 -1      2190 2.99187E+01
 -1      2191 3.93429E+01
 -1      2192 3.24408E+01
 -1      2193 3.06647E+01
 -1      2194 3.24408E+01
 -1      2195 9.88843E+00
 -1      2196 9.84515E+00
 -1      2197 8.35866E+00
 -1      2198 1.37995E+01
 -1      2199 2.45536E+00
 -1      2200 8.54282E+00
 -1      2201 7.35024E+00
 -1      2202 6.44245E+00
 -1      2203 2.03949E+00
 -1      2204 3.19777E+01
 -1      2205 3.30232E+01
 -1      2206 3.78759E-04
 -1      2207 2.47092E+01
 -1      2208 3.06647E+01
 -1      2209 2.38600E+01
 -1      2210 8.68671E+00
 -1      2211 9.48941E+00
 -1      2212 1.04296E+01
 -1      2213 7.97550E+00
 -1      2214 5.91442E+00
 -1      2215 6.40516E+00
 -1      2216 2.61475E+01
 -1      2217 1.82799E+01
 -1      2218 1.31461E+01
 -1      2219 2.55961E+01
 -1      2220 3.15491E+01
 -1      2221 2.62721E+01
 -1      2222 1.51414E+01
 -1      2223 9.06921E+00
 -1      2224 8.23617E+00
 -1      2225 1.00962E+01
 -1      2226 9.81240E+00
 -1      2227 1.06188E+01
 -1      2228 3.05545E+01
 -1      2229 1.40377E+01
 -1      2230 2.56837E+00
 -1      2231 2.63267E+00
 -1      2232 2.82671E+00
 -1      2233 2.64904E+00
 -1      2234 2.40959E+00
 -1      2235 2.22260E+00
 -1      2236 2.75803E+00
 -1      2237 2.88937E+00
 -1      2238 3.03829E+00
 -1      2239 3.27168E+00
 -1      2240 3.13958E+00
 -1      2241 3.67084E+00
 -1      2242 3.62417E+00
 -1      2243 3.27854E+00
 -1      2244 3.92791E+00
 -1      2245 3.65264E+00
 -1      2246 3.64727E+00
 -1      2247 3.95788E+00
 -1      2248 3.62650E+00
 -1      2249 3.63869E+00
 -1      2250 3.96703E+00
 -1      2251 3.48454E+00
 -1      2252 3.42935E+00
 -1      2253 3.75594E+00
 -1      2254 1.73774E+00
 -1      2255 1.96295E+00
 -1      2256 2.95337E+00
 -1      2257 1.01299E+00
 -1      2258 9.10173E-01
 -1      2259 9.48447E+00
 -1      2260 1.37236E+01
 -1      2261 9.08929E-01
 -1      2262 1.04564E+00
 -1      2263 8.09089E-01
 -1      2264 1.26151E+00
 -1      2265 1.42371E+00
 -1      2266 1.02371E+00
 -1      2267 1.55163E+00
 -1      2268 1.72828E+00
 -1      2269 1.36750E+00
 -1      2270 1.78774E+00
 -1      2271 1.88485E+00
 -1      2272 1.55487E+00
 -1      2273 1.97247E+00
 -1      2274 1.92228E+00
 -1      2275 1.70195E+00
 -1      2276 1.90860E+00
 -1      2277 1.92387E+00
 -1      2278 1.77589E+00
 -1      2279 1.89893E+00
 -1      2280 1.82085E+00
 -1      2281 1.73727E+00
 -1      2282 1.68586E+00
 -1      2283 1.47049E+00
 -1      2284 1.57735E+00
 -1      2285 1.37221E+00
 -1      2286 1.19055E+00
 -1      2287 1.34409E+00
 -1      2288 1.08281E+00
 -1      2289 8.37949E-01
 -1      2290 1.13808E+00
 -1      2291 7.25698E-01
 -1      2292 6.11582E-01
 -1      2293 9.18088E-01
 -1      2294 5.62415E-01
 -1      2295 5.75143E-01
 -1      2296 7.56671E-01
 -1      2297 5.13480E-01
 -1      2298 5.73507E-01
 -1      2299 6.45842E-01
 -1      2300 5.80334E-01
 -1      2301 5.93546E-01
 -1      2302 5.91007E-01
 -1      2303 5.76095E-01
 -1      2304 5.55780E-01
 -1      2305 5.80382E-01
 -1      2306 5.26792E-01
 -1      2307 4.96428E-01
 -1      2308 5.33943E-01
 -1      2309 4.72626E-01
 -1      2310 4.44567E-01
 -1      2311 4.81153E-01
 -1      2312 4.17551E-01
 -1      2313 3.88484E-01
 -1      2314 4.30335E-01
 -1      2315 3.57211E-01
 -1      2316 3.24445E-01
 -1      2317 3.72047E-01
 -1      2318 2.92755E-01
 -1      2319 2.60623E-01
 -1      2320 3.09084E-01
 -1      2321 2.31190E-01
 -1      2322 2.02208E-01
 -1      2323 2.47960E-01
 -1      2324 1.76440E-01
 -1      2325 1.51784E-01
 -1      2326 1.92759E-01
 -1      2327 1.30201E-01
 -1      2328 1.10684E-01
 -1      2329 1.45408E-01
 -1      2330 9.32411E-02
 -1      2331 8.06056E-02
 -1      2332 1.06382E-01
 -1      2333 6.69409E-02
 -1      2334 5.68053E-02
 -1      2335 7.52750E-02
 -1      2336 4.64037E-02
 -1      2337 3.96379E-02
 -1      2338 5.12085E-02
 -1      2339 3.28146E-02
 -1      2340 2.98370E-02
 -1      2341 3.39836E-02
 -1      2342 2.56549E-02
 -1      2343 2.27986E-02
 -1      2344 2.29781E-02
 -1      2345 2.16462E-02
 -1      2346 1.90494E-02
 -1      2347 1.76436E-02
 -1      2348 1.79592E-02
 -1      2349 1.56885E-02
 -1      2350 1.54010E-02
 -1      2351 1.45691E-02
 -1      2352 1.26430E-02
 -1      2353 1.31914E-02
 -1      2354 1.15761E-02
 -1      2355 1.04484E-02
 -1      2356 1.10051E-02
 -1      2357 9.48058E-03
 -1      2358 8.62513E-03
 -1      2359 8.97032E-03
 -1      2360 8.04142E-03
 -1      2361 7.22542E-03
 -1      2362 7.41878E-03
 -1      2363 6.72786E-03
 -1      2364 6.01583E-03
 -1      2365 6.33752E-03
 -1      2366 5.52263E-03
 -1      2367 4.94909E-03
 -1      2368 5.34676E-03
 -1      2369 4.51253E-03
 -1      2370 4.00135E-03
 -1      2371 4.41700E-03
 -1      2372 3.62558E-03
 -1      2373 3.21749E-03
 -1      2374 3.60466E-03
 -1      2375 2.87700E-03
 -1      2376 2.53554E-03
 -1      2377 2.88839E-03
 -1      2378 2.24135E-03
 -1      2379 1.94335E-03
 -1      2380 2.25371E-03
 -1      2381 1.71878E-03
 -1      2382 1.46619E-03
 -1      2383 1.73494E-03
 -1      2384 1.27298E-03
 -1      2385 1.06560E-03
 -1      2386 1.31714E-03
 -1      2387 9.05102E-04
 -1      2388 7.81712E-04
 -1      2389 9.63426E-04
 -1      2390 2.26197E+00
 -1      2391 1.76437E+00
 -1      2392 2.77341E+00
 -1      2393 2.51171E+00
 -1      2394 2.52922E+00
 -1      2395 5.45566E+00
 -1      2396 5.05370E+00
 -1      2397 5.05925E+00
 -1      2398 5.04088E+00
 -1      2399 5.19133E+00
 -1      2400 7.07522E+00
 -1      2401 3.42112E+00
 -1      2402 3.49319E+00
 -1      2403 5.26319E+00
 -1      2404 2.40975E+00
 -1      2405 2.79639E+00
 -1      2406 3.09077E+00
 -1      2407 1.71816E+00
 -1      2408 2.26474E+00
 -1      2409 2.32104E+00
 -1      2410 1.69496E+00
 -1      2411 1.72714E+00
 -1      2412 2.18502E+00
 -1      2413 1.60829E+00
 -1      2414 1.49296E+00
 -1      2415 1.99200E+00
 -1      2416 1.54861E+00
 -1      2417 1.52315E+00
 -1      2418 1.70485E+00
 -1      2419 1.46506E+00
 -1      2420 1.47752E+00
 -1      2421 1.54861E+00
 -1      2422 1.36226E+00
 -1      2423 1.42200E+00
 -1      2424 1.43445E+00
 -1      2425 1.20156E+00
 -1      2426 1.27735E+00
 -1      2427 1.30647E+00
 -1      2428 1.00746E+00
 -1      2429 1.09987E+00
 -1      2430 1.11987E+00
 -1      2431 8.13642E-01
 -1      2432 9.09156E-01
 -1      2433 9.19868E-01
 -1      2434 6.35720E-01
 -1      2435 7.24651E-01
 -1      2436 7.32571E-01
 -1      2437 4.83138E-01
 -1      2438 5.59685E-01
 -1      2439 5.67545E-01
 -1      2440 3.58161E-01
 -1      2441 4.20757E-01
 -1      2442 4.29129E-01
 -1      2443 2.59458E-01
 -1      2444 3.08815E-01
 -1      2445 3.17402E-01
 -1      2446 1.88986E-01
 -1      2447 2.22656E-01
 -1      2448 2.31254E-01
 -1      2449 1.36761E-01
 -1      2450 1.60714E-01
 -1      2451 1.66180E-01
 -1      2452 9.67568E-02
 -1      2453 1.15449E-01
 -1      2454 1.16596E-01
 -1      2455 6.70063E-02
 -1      2456 8.13314E-02
 -1      2457 7.98586E-02
 -1      2458 4.68833E-02
 -1      2459 5.76752E-02
 -1      2460 5.51022E-02
 -1      2461 3.22934E-02
 -1      2462 4.02839E-02
 -1      2463 3.91716E-02
 -1      2464 2.57315E-02
 -1      2465 2.88731E-02
 -1      2466 2.91518E-02
 -1      2467 2.17563E-02
 -1      2468 2.37439E-02
 -1      2469 2.37439E-02
 -1      2470 1.79743E-02
 -1      2471 1.98653E-02
 -1      2472 1.98653E-02
 -1      2473 1.45485E-02
 -1      2474 1.62614E-02
 -1      2475 1.62614E-02
 -1      2476 1.15534E-02
 -1      2477 1.30510E-02
 -1      2478 1.30510E-02
 -1      2479 9.34994E-03
 -1      2480 1.04585E-02
 -1      2481 1.04585E-02
 -1      2482 8.00841E-03
 -1      2483 8.67235E-03
 -1      2484 8.68600E-03
 -1      2485 6.69090E-03
 -1      2486 7.34966E-03
 -1      2487 7.34966E-03
 -1      2488 5.46221E-03
 -1      2489 6.07656E-03
 -1      2490 6.07656E-03
 -1      2491 4.48137E-03
 -1      2492 4.97526E-03
 -1      2493 4.97526E-03
 -1      2494 3.62597E-03
 -1      2495 4.03946E-03
 -1      2496 4.04639E-03
 -1      2497 2.86396E-03
 -1      2498 3.23448E-03
 -1      2499 3.21298E-03
 -1      2500 2.20456E-03
 -1      2501 2.52792E-03
 -1      2502 2.48546E-03
 -1      2503 1.66342E-03
 -1      2504 1.94036E-03
 -1      2505 1.88522E-03
 -1      2506 1.20832E-03
 -1      2507 1.44203E-03
 -1      2508 1.39962E-03
 -1      2509 8.91735E-04
 -1      2510 1.03086E-03
 -1      2511 1.00077E-03
 -1      2512 6.51029E-04
 -1      2513 7.83220E-04
 -1      2514 7.14796E-04
 -1      2515 6.04053E-04
 -1      2516 4.89111E-04
 -1      2517 4.39668E-04
 -1      2518 5.46911E-04
 -1      2519 5.24257E-04
 -1      2520 5.83291E-04
 -1      2521 4.13156E-04
 -1      2522 5.31519E-04
 -1      2523 3.84664E-04
 -1      2524 3.56870E-04
 -1      2525 4.94423E-04
 -1      2526 4.93141E-04
 -1      2527 5.46911E-04
 -1      2528 5.46911E-04
 -1      2529 6.18436E-04
 -1      2530 5.46022E-04
 -1      2531 5.46850E-04
 -1      2532 6.18375E-04
 -1      2533 5.45884E-04
 -1      2534 5.45884E-04
 -1      2535 6.18176E-04
 -1      2536 5.23768E-04
 -1      2537 5.45821E-04
 -1      2538 6.17974E-04
 -1      2539 4.38974E-04
 -1      2540 4.88633E-04
 -1      2541 5.82777E-04
 -1      2542 3.73058E-04
 -1      2543 4.04379E-04
 -1      2544 5.13048E-04
 -1      2545 4.50353E-04
 -1      2546 3.73058E-04
 -1      2547 4.78453E-04
 -1      2548 3.25756E+01
 -1      2549 3.30232E+01
 -1      2550 1.61959E+01
 -1      2551 2.28666E+01
 -1      2552 1.18809E+01
 -1      2553 1.78486E+00
 -1      2554 1.72400E+00
 -1      2555 2.29998E+00
 -1      2556 2.44090E+00
 -1      2557 1.61705E+00
 -1      2558 1.41439E+00
 -1      2559 1.88279E+00
 -1      2560 4.70309E-04
 -1      2561 2.63537E+01
 -1      2562 2.56077E+01
 -1      2563 2.61242E+01
 -1      2564 2.67220E+01
 -1      2565 3.24408E+01
 -1      2566 3.14108E+01
 -1      2567 2.46794E+01
 -1      2568 1.74170E+01
 -1      2569 3.03805E+00
 -1      2570 3.03805E+00
 -1      2571 3.20882E+00
 -1      2572 3.42040E+00
 -1      2573 9.09660E+00
 -1      2574 9.13005E+00
 -1      2575 2.72780E+01
 -1      2576 3.05545E+01
 -1      2577 8.82920E+00
 -1      2578 7.98933E+00
 -1      2579 8.47330E+00
 -1      2580 8.96245E+00
 -1      2581 7.47369E+00
 -1      2582 5.42156E+00
 -1      2583 6.79244E+00
 -1      2584 8.79998E+00
 -1      2585 6.59606E+00
 -1      2586 1.45450E+01
 -1      2587 1.06767E+01
 -1      2588 2.57312E+01
 -1      2589 2.78648E+01
 -1      2590 1.31121E+01
 -1      2591 9.34860E+00
 -1      2592 3.01250E+01
 -1      2593 2.78432E+01
 -1      2594 2.06760E+01
 -1      2595 2.23579E+01
 -1      2596 2.23579E+01
 -1      2597 8.05438E+00
 -1      2598 1.13371E+01
 -1      2599 7.78135E+00
 -1      2600 6.84226E+00
 -1      2601 9.07980E+00
 -1      2602 8.59106E+00
 -1      2603 8.95973E+00
 -1      2604 9.28467E+00
 -1      2605 7.46550E+00
 -1      2606 8.24459E+00
 -1      2607 6.93581E+00
 -1      2608 5.70643E+00
 -1      2609 6.51195E+00
 -1      2610 8.55695E+00
 -1      2611 6.96953E+00
 -1      2612 2.15066E+01
 -1      2613 1.54479E+01
 -1      2614 1.07588E+01
 -1      2615 6.79151E+00
 -1      2616 6.17764E+00
 -1      2617 2.55842E+00
 -1      2618 2.68344E+00
 -1      2619 3.16437E+00
 -1      2620 3.48454E+00
 -1      2621 7.30698E+00
 -1      2622 2.26851E+00
 -1      2623 1.97254E+00
 -1      2624 2.01846E+00
 -1      2625 2.33421E+00
 -1      2626 3.41029E+00
 -1      2627 7.63142E+00
 -1      2628 5.49406E+00
 -1      2629 4.19172E+00
 -1      2630 3.92691E+00
 -1      2631 5.26713E+00
 -1      2632 1.76108E+01
 -1      2633 3.48454E+00
 -1      2634 5.35723E+00
 -1      2635 7.56736E+00
 -1      2636 7.49146E+00
 -1      2637 1.71956E+01
 -1      2638 7.44608E+00
 -1      2639 5.59305E-04
 -1      2640 5.59305E-04
 -1      2641 6.43151E+00
 -1      2642 3.19932E+01
 -1      2643 2.67220E+01
 -1      2644 1.72665E+01
 -1      2645 1.40283E+01
 -1      2646 1.16322E+01
 -1      2647 2.61150E+01
 -1      2648 2.24090E+01
 -1      2649 2.28385E+01
 -1      2650 2.01846E+00
 -1      2651 2.63537E+01
 -1      2652 1.29522E+01
 -1      2653 2.43071E+01
 -1      2654 8.20352E+00
 -1      2655 5.18469E+00
 -1      2656 1.08366E+01
 -1      2657 7.33275E+00
 -1      2658 6.19900E+00
 -1      2659 4.51815E+00
 -1      2660 1.90097E+01
 -1      2661 4.96941E-04
 -1      2662 4.48886E-04
 -1      2663 4.76985E-04
 -1      2664 6.18007E-04
 -1      2665 5.80831E+00
 -1      2666 5.15234E+00
 -1      2667 6.88756E+00
 -1      2668 5.57668E+00
 -1      2669 5.78495E-04
 -1      2670 6.39223E-04
 -1      2671 5.16531E+00
 -1      2672 5.15845E+00
 -1      2673 4.95087E+00
 -1      2674 4.70067E+00
 -1      2675 6.18827E+00
 -1      2676 4.89839E+00
 -1      2677 4.91235E+00
 -1      2678 3.97157E+00
 -1      2679 4.16872E+00
 -1      2680 5.11403E+00
 -1      2681 2.95337E+00
 -1      2682 3.55879E+00
 -1      2683 1.28704E+01
 -1      2684 1.61280E+01
 -1      2685 1.25269E+00
 -1      2686 1.46856E+00
 -1      2687 1.37428E+00
 -1      2688 1.50220E+00
 -1      2689 1.60326E+00
 -1      2690 1.53037E+00
 -1      2691 1.58982E+00
 -1      2692 1.53715E+00
 -1      2693 1.87006E+00
 -1      2694 1.95768E+00
 -1      2695 1.84556E+00
 -1      2696 2.43742E+00
 -1      2697 2.42374E+00
 -1      2698 2.60554E+00
 -1      2699 2.20129E+00
 -1      2700 2.17636E+00
 -1      2701 2.86283E+00
 -1      2702 1.74858E+00
 -1      2703 1.61359E+00
 -1      2704 2.21260E+00
 -1      2705 1.50870E+00
 -1      2706 1.41042E+00
 -1      2707 1.67992E+00
 -1      2708 1.31292E+00
 -1      2709 1.20518E+00
 -1      2710 1.47753E+00
 -1      2711 1.18011E+00
 -1      2712 1.06786E+00
 -1      2713 1.35495E+00
 -1      2714 9.54797E-01
 -1      2715 9.05630E-01
 -1      2716 1.21682E+00
 -1      2717 7.81424E-01
 -1      2718 7.19762E-01
 -1      2719 9.79550E-01
 -1      2720 6.87941E-01
 -1      2721 6.94768E-01
 -1      2722 8.23523E-01
 -1      2723 6.44624E-01
 -1      2724 6.27173E-01
 -1      2725 7.41559E-01
 -1      2726 5.74054E-01
 -1      2727 5.45066E-01
 -1      2728 6.38296E-01
 -1      2729 5.06997E-01
 -1      2730 4.83195E-01
 -1      2731 5.47108E-01
 -1      2732 4.48951E-01
 -1      2733 4.21936E-01
 -1      2734 4.74796E-01
 -1      2735 3.85972E-01
 -1      2736 3.54699E-01
 -1      2737 4.04588E-01
 -1      2738 3.20297E-01
 -1      2739 2.88606E-01
 -1      2740 3.34222E-01
 -1      2741 2.57596E-01
 -1      2742 2.28163E-01
 -1      2743 2.68809E-01
 -1      2744 2.01377E-01
 -1      2745 1.75609E-01
 -1      2746 2.11012E-01
 -1      2747 1.53226E-01
 -1      2748 1.31643E-01
 -1      2749 1.61844E-01
 -1      2750 1.13451E-01
 -1      2751 9.60089E-02
 -1      2752 1.21270E-01
 -1      2753 8.15816E-02
 -1      2754 6.79168E-02
 -1      2755 8.86507E-02
 -1      2756 5.67344E-02
 -1      2757 4.63328E-02
 -1      2758 6.30410E-02
 -1      2759 3.78587E-02
 -1      2760 3.10354E-02
 -1      2761 4.33845E-02
 -1      2762 2.47616E-02
 -1      2763 2.05794E-02
 -1      2764 2.86367E-02
 -1      2765 1.60508E-02
 -1      2766 1.48985E-02
 -1      2767 1.78343E-02
 -1      2768 1.28451E-02
 -1      2769 1.17549E-02
 -1      2770 1.12524E-02
 -1      2771 1.16542E-02
 -1      2772 1.05348E-02
 -1      2773 9.09829E-03
 -1      2774 1.01864E-02
 -1      2775 9.11950E-03
 -1      2776 8.64920E-03
 -1      2777 8.64093E-03
 -1      2778 7.67310E-03
 -1      2779 7.82227E-03
 -1      2780 7.14464E-03
 -1      2781 6.56093E-03
 -1      2782 6.81524E-03
 -1      2783 6.03474E-03
 -1      2784 5.53718E-03
 -1      2785 5.76059E-03
 -1      2786 5.18839E-03
 -1      2787 4.69519E-03
 -1      2788 4.88561E-03
 -1      2789 4.34298E-03
 -1      2790 3.90642E-03
 -1      2791 4.18461E-03
 -1      2792 3.56266E-03
 -1      2793 3.18689E-03
 -1      2794 3.48864E-03
 -1      2795 2.86889E-03
 -1      2796 2.52840E-03
 -1      2797 2.82690E-03
 -1      2798 2.25879E-03
 -1      2799 1.96460E-03
 -1      2800 2.23929E-03
 -1      2801 1.73494E-03
 -1      2802 1.51036E-03
 -1      2803 1.74002E-03
 -1      2804 1.31714E-03
 -1      2805 1.12393E-03
 -1      2806 1.31714E-03
 -1      2807 9.63426E-04
 -1      2808 8.02927E-04
 -1      2809 9.63426E-04
 -1      2810 6.19900E+00
 -1      2811 3.91871E+00
 -1      2812 5.47656E+00
 -1      2813 4.27875E+00
 -1      2814 3.20652E+00
 -1      2815 3.83125E+00
 -1      2816 2.70968E+00
 -1      2817 2.85469E+00
 -1      2818 3.18152E+00
 -1      2819 3.17254E+00
 -1      2820 3.70619E+00
 -1      2821 2.58898E+00
 -1      2822 2.79098E+00
 -1      2823 3.77850E+00
 -1      2824 2.08672E+00
 -1      2825 2.17186E+00
 -1      2826 2.97084E+00
 -1      2827 1.72870E+00
 -1      2828 1.79980E+00
 -1      2829 2.26680E+00
 -1      2830 1.53217E+00
 -1      2831 1.57524E+00
 -1      2832 1.82642E+00
 -1      2833 1.32272E+00
 -1      2834 1.40763E+00
 -1      2835 1.54841E+00
 -1      2836 1.09520E+00
 -1      2837 1.19690E+00
 -1      2838 1.29805E+00
 -1      2839 8.82435E-01
 -1      2840 9.80742E-01
 -1      2841 1.05777E+00
 -1      2842 6.94394E-01
 -1      2843 7.83384E-01
 -1      2844 8.44258E-01
 -1      2845 5.35294E-01
 -1      2846 6.11329E-01
 -1      2847 6.62142E-01
 -1      2848 4.04859E-01
 -1      2849 4.67239E-01
 -1      2850 5.11023E-01
 -1      2851 3.00812E-01
 -1      2852 3.50158E-01
 -1      2853 3.88269E-01
 -1      2854 2.20781E-01
 -1      2855 2.57583E-01
 -1      2856 2.90339E-01
 -1      2857 1.58874E-01
 -1      2858 1.87147E-01
 -1      2859 2.13476E-01
 -1      2860 1.11785E-01
 -1      2861 1.33096E-01
 -1      2862 1.54064E-01
 -1      2863 7.68982E-02
 -1      2864 9.23236E-02
 -1      2865 1.08824E-01
 -1      2866 5.31046E-02
 -1      2867 6.24357E-02
 -1      2868 7.49007E-02
 -1      2869 3.59404E-02
 -1      2870 4.25399E-02
 -1      2871 4.98735E-02
 -1      2872 2.49515E-02
 -1      2873 2.83719E-02
 -1      2874 3.17402E-02
 -1      2875 1.90009E-02
 -1      2876 2.09885E-02
 -1      2877 2.02086E-02
 -1      2878 1.51393E-02
 -1      2879 1.70302E-02
 -1      2880 1.42749E-02
 -1      2881 1.26947E-02
 -1      2882 1.44077E-02
 -1      2883 1.15726E-02
 -1      2884 1.04076E-02
 -1      2885 1.19051E-02
 -1      2886 1.00514E-02
 -1      2887 8.53832E-03
 -1      2888 9.63322E-03
 -1      2889 8.48739E-03
 -1      2890 7.33569E-03
 -1      2891 8.01328E-03
 -1      2892 7.18800E-03
 -1      2893 6.23653E-03
 -1      2894 6.89528E-03
 -1      2895 6.22256E-03
 -1      2896 5.16643E-03
 -1      2897 5.78078E-03
 -1      2898 5.32640E-03
 -1      2899 4.24243E-03
 -1      2900 4.72938E-03
 -1      2901 4.43360E-03
 -1      2902 3.46321E-03
 -1      2903 3.90513E-03
 -1      2904 3.65925E-03
 -1      2905 2.77749E-03
 -1      2906 3.16898E-03
 -1      2907 3.02772E-03
 -1      2908 2.16663E-03
 -1      2909 2.50266E-03
 -1      2910 2.45865E-03
 -1      2911 1.66256E-03
 -1      2912 1.92677E-03
 -1      2913 1.94397E-03
 -1      2914 1.24329E-03
 -1      2915 1.46469E-03
 -1      2916 1.50623E-03
 -1      2917 8.90877E-04
 -1      2918 1.06833E-03
 -1      2919 1.13340E-03
 -1      2920 6.61719E-04
 -1      2921 7.70234E-04
 -1      2922 8.37799E-04
 -1      2923 6.33932E-04
 -1      2924 7.02393E-04
 -1      2925 7.02454E-04
 -1      2926 6.58803E-04
 -1      2927 4.95098E-04
 -1      2928 6.58803E-04
 -1      2929 6.95578E-04
 -1      2930 6.60432E-04
 -1      2931 7.01550E-04
 -1      2932 7.01689E-04
 -1      2933 7.85768E-04
 -1      2934 7.02454E-04
 -1      2935 7.02454E-04
 -1      2936 7.79596E-04
 -1      2937 7.86472E-04
 -1      2938 8.53150E+00
 -1      2939 1.10038E+01
 -1      2940 9.52103E+00
 -1      2941 7.01487E-04
 -1      2942 7.01550E-04
 -1      2943 7.85063E-04
 -1      2944 6.57860E-04
 -1      2945 6.92995E-04
 -1      2946 7.76571E-04
 -1      2947 5.60333E-04
 -1      2948 5.94928E-04
 -1      2949 7.05146E-04
 -1      2950 3.55879E+00
 -1      2951 3.00610E+00
 -1      2952 3.02659E+00
 -1      2953 1.76785E+01
 -1      2954 2.35321E+01
 -1      2955 1.29742E+01
 -1      2956 1.01021E+01
 -1      2957 3.84465E+00
 -1      2958 4.79820E+00
 -1      2959 2.08225E+01
 -1      2960 1.87106E+01
 -1      2961 7.20936E+00
 -1      2962 7.47369E+00
 -1      2963 7.85245E-01
 -1      2964 7.84002E-01
 -1      2965 1.22885E+00
 -1      2966 1.62600E+01
 -1      2967 1.21590E+01
 -1      2968 2.47848E+00
 -1      2969 2.49222E+00
 -1      2970 3.09765E+00
 -1      2971 3.18460E+00
 -1      2972 2.30782E+01
 -1      2973 1.80211E+01
 -1      2974 5.18842E+00
 -1      2975 5.16531E+00
 -1      2976 6.39584E+00
 -1      2977 6.11978E+00
 -1      2978 3.20789E+00
 -1      2979 2.96843E+00
 -1      2980 2.01846E+00
 -1      2981 4.15564E+00
 -1      2982 6.29561E+00
 -1      2983 4.36735E+00
 -1      2984 3.93025E+00
 -1      2985 3.33829E+00
 -1      2986 4.96565E-04
 -1      2987 1.78135E+01
 -1      2988 1.46280E+01
 -1      2989 8.42796E+00
 -1      2990 6.55129E+00
 -1      2991 1.57409E+01
 -1      2992 2.06610E+01
 -1      2993 9.15825E+00
 -1      2994 1.09673E+01
 -1      2995 5.44309E+00
 -1      2996 4.18000E+00
 -1      2997 2.26814E+01
 -1      2998 2.20990E+01
 -1      2999 5.90538E+00
 -1      3000 5.09567E+00
 -1      3001 5.70484E+00
 -1      3002 6.41997E+00
 -1      3003 4.28236E+00
 -1      3004 1.00675E+01
 -1      3005 7.73177E+00
 -1      3006 9.13196E+00
 -1      3007 4.82709E+00
 -1      3008 3.65259E+00
 -1      3009 5.05154E+00
 -1      3010 7.73177E+00
 -1      3011 6.94013E+00
 -1      3012 6.77535E+00
 -1      3013 6.57048E+00
 -1      3014 2.49755E+00
 -1      3015 2.24749E+00
 -1      3016 2.94741E+00
 -1      3017 5.47460E+00
 -1      3018 4.19457E+00
 -1      3019 4.19433E+00
 -1      3020 1.37664E+01
 -1      3021 1.29381E+01
 -1      3022 5.62117E+00
 -1      3023 7.53828E+00
 -1      3024 6.66121E+00
 -1      3025 5.06353E+00
 -1      3026 5.28065E+00
 -1      3027 4.11514E+00
 -1      3028 5.54437E+00
 -1      3029 3.95345E+00
 -1      3030 2.81370E+00
 -1      3031 2.56397E+00
 -1      3032 3.41314E+00
 -1      3033 7.10151E-04
 -1      3034 5.97864E-04
 -1      3035 5.42859E-04
 -1      3036 3.59517E+00
 -1      3037 3.92691E+00
 -1      3038 5.23465E+00
 -1      3039 5.26319E+00
 -1      3040 6.81089E+00
 -1      3041 1.36379E+01
 -1      3042 1.17779E+01
 -1      3043 4.97080E-04
 -1      3044 5.53366E-04
 -1      3045 6.36590E-04
 -1      3046 6.01803E-04
 -1      3047 5.54345E+00
 -1      3048 6.82381E+00
 -1      3049 6.95453E+00
 -1      3050 4.09189E+00
 -1      3051 3.55879E+00
 -1      3052 4.96565E-04
 -1      3053 1.27845E+01
 -1      3054 1.10876E+01
 -1      3055 9.37497E+00
 -1      3056 6.90851E+00
 -1      3057 5.37894E+00
 -1      3058 9.95386E+00
 -1      3059 3.29058E+00
 -1      3060 1.62215E+01
 -1      3061 8.44991E+00
 -1      3062 7.04048E+00
 -1      3063 1.29845E+01
 -1      3064 1.83518E+01
 -1      3065 1.27553E+01
 -1      3066 1.43418E+01
 -1      3067 1.43289E+01
 -1      3068 3.71107E+00
 -1      3069 3.97157E+00
 -1      3070 3.91637E+00
 -1      3071 3.70503E+00
 -1      3072 3.91543E+00
 -1      3073 4.69054E+00
 -1      3074 1.86850E+00
 -1      3075 1.86850E+00
 -1      3076 1.26444E+00
 -1      3077 2.09753E+00
 -1      3078 7.33954E+00
 -1      3079 7.20936E+00
 -1      3080 5.83791E-04
 -1      3081 5.65678E-04
 -1      3082 6.47558E-04
 -1      3083 7.27915E-04
 -1      3084 1.23935E+00
 -1      3085 6.15842E+00
 -1      3086 6.88809E+00
 -1      3087 3.08789E+00
 -1      3088 3.21526E+00
 -1      3089 4.12190E+00
 -1      3090 1.86153E+00
 -1      3091 1.88970E+00
 -1      3092 1.84556E+00
 -1      3093 2.12580E+00
 -1      3094 2.16994E+00
 -1      3095 3.08981E+00
 -1      3096 3.56955E+00
 -1      3097 3.08981E+00
 -1      3098 2.64038E+00
 -1      3099 2.21260E+00
 -1      3100 1.89666E+00
 -1      3101 1.79176E+00
 -1      3102 2.32444E+00
 -1      3103 2.04956E+00
 -1      3104 1.95206E+00
 -1      3105 2.26630E+00
 -1      3106 1.69417E+00
 -1      3107 1.66909E+00
 -1      3108 2.26620E+00
 -1      3109 1.47391E+00
 -1      3110 1.36085E+00
 -1      3111 1.81312E+00
 -1      3112 1.21701E+00
 -1      3113 1.09281E+00
 -1      3114 1.47410E+00
 -1      3115 9.84934E-01
 -1      3116 9.53113E-01
 -1      3117 1.22239E+00
 -1      3118 8.43054E-01
 -1      3119 7.92910E-01
 -1      3120 1.00446E+00
 -1      3121 7.06945E-01
 -1      3122 6.53827E-01
 -1      3123 8.08441E-01
 -1      3124 5.96168E-01
 -1      3125 5.58099E-01
 -1      3126 6.64817E-01
 -1      3127 5.04278E-01
 -1      3128 4.70034E-01
 -1      3129 5.53337E-01
 -1      3130 4.22471E-01
 -1      3131 3.86507E-01
 -1      3132 4.51953E-01
 -1      3133 3.44183E-01
 -1      3134 3.09781E-01
 -1      3135 3.62066E-01
 -1      3136 2.73778E-01
 -1      3137 2.42768E-01
 -1      3138 2.83740E-01
 -1      3139 2.14429E-01
 -1      3140 1.87643E-01
 -1      3141 2.19398E-01
 -1      3142 1.65306E-01
 -1      3143 1.42924E-01
 -1      3144 1.68723E-01
 -1      3145 1.24094E-01
 -1      3146 1.05903E-01
 -1      3147 1.27557E-01
 -1      3148 9.07160E-02
 -1      3149 7.62887E-02
 -1      3150 9.35407E-02
 -1      3151 6.49136E-02
 -1      3152 5.37312E-02
 -1      3153 6.69789E-02
 -1      3154 4.52251E-02
 -1      3155 3.67511E-02
 -1      3156 4.70978E-02
 -1      3157 3.04860E-02
 -1      3158 2.42122E-02
 -1      3159 3.23266E-02
 -1      3160 1.96051E-02
 -1      3161 1.50765E-02
 -1      3162 2.14544E-02
 -1      3163 1.17600E-02
 -1      3164 9.70666E-03
 -1      3165 1.35308E-02
 -1      3166 7.43635E-03
 -1      3167 7.33561E-03
 -1      3168 7.94398E-03
 -1      3169 7.17539E-03
 -1      3170 6.82703E-03
 -1      3171 5.51345E-03
 -1      3172 6.94753E-03
 -1      3173 6.46896E-03
 -1      3174 5.47372E-03
 -1      3175 6.36081E-03
 -1      3176 5.83235E-03
 -1      3177 5.48607E-03
 -1      3178 5.59110E-03
 -1      3179 5.06491E-03
 -1      3180 5.13667E-03
 -1      3181 4.75725E-03
 -1      3182 4.40846E-03
 -1      3183 4.58776E-03
 -1      3184 4.11786E-03
 -1      3185 3.76565E-03
 -1      3186 3.98950E-03
 -1      3187 3.53034E-03
 -1      3188 3.18658E-03
 -1      3189 3.46359E-03
 -1      3190 2.93359E-03
 -1      3191 2.61560E-03
 -1      3192 2.97529E-03
 -1      3193 2.36673E-03
 -1      3194 2.09712E-03
 -1      3195 2.47342E-03
 -1      3196 1.86538E-03
 -1      3197 1.63572E-03
 -1      3198 1.99282E-03
 -1      3199 1.42726E-03
 -1      3200 1.23404E-03
 -1      3201 1.55262E-03
 -1      3202 1.05060E-03
 -1      3203 8.90104E-04
 -1      3204 8.15092E-04
 -1      3205 1.16072E-03
 -1      3206 4.97678E+00
 -1      3207 4.31168E+00
 -1      3208 4.57800E+00
 -1      3209 4.11514E+00
 -1      3210 2.31032E+00
 -1      3211 2.59724E+00
 -1      3212 1.98375E+00
 -1      3213 2.13722E+00
 -1      3214 2.46766E+00
 -1      3215 1.57373E+00
 -1      3216 1.69827E+00
 -1      3217 2.00907E+00
 -1      3218 1.23833E+00
 -1      3219 1.36415E+00
 -1      3220 1.51401E+00
 -1      3221 9.75889E-01
 -1      3222 1.09035E+00
 -1      3223 1.15645E+00
 -1      3224 7.70392E-01
 -1      3225 8.69443E-01
 -1      3226 9.02023E-01
 -1      3227 5.96418E-01
 -1      3228 6.79483E-01
 -1      3229 7.04668E-01
 -1      3230 4.53173E-01
 -1      3231 5.21227E-01
 -1      3232 5.38568E-01
 -1      3233 3.38327E-01
 -1      3234 3.93027E-01
 -1      3235 4.03231E-01
 -1      3236 2.48702E-01
 -1      3237 2.91931E-01
 -1      3238 2.96690E-01
 -1      3239 1.83238E-01
 -1      3240 2.16872E-01
 -1      3241 2.18464E-01
 -1      3242 1.32703E-01
 -1      3243 1.58481E-01
 -1      3244 1.61878E-01
 -1      3245 9.41710E-02
 -1      3246 1.13632E-01
 -1      3247 1.18050E-01
 -1      3248 6.51908E-02
 -1      3249 7.96533E-02
 -1      3250 8.44612E-02
 -1      3251 4.37265E-02
 -1      3252 5.42912E-02
 -1      3253 5.90439E-02
 -1      3254 2.81030E-02
 -1      3255 3.56716E-02
 -1      3256 4.00893E-02
 -1      3257 1.82943E-02
 -1      3258 2.22574E-02
 -1      3259 2.61888E-02
 -1      3260 1.21710E-02
 -1      3261 1.41417E-02
 -1      3262 1.61905E-02
 -1      3263 9.26642E-03
 -1      3264 9.99804E-03
 -1      3265 9.86482E-03
 -1      3266 8.54560E-03
 -1      3267 9.33522E-03
 -1      3268 7.76066E-03
 -1      3269 7.55764E-03
 -1      3270 8.33200E-03
 -1      3271 7.61586E-03
 -1      3272 6.66296E-03
 -1      3273 7.18800E-03
 -1      3274 7.03261E-03
 -1      3275 5.78215E-03
 -1      3276 6.22256E-03
 -1      3277 6.22256E-03
 -1      3278 4.87065E-03
 -1      3279 5.32640E-03
 -1      3280 5.32640E-03
 -1      3281 4.11119E-03
 -1      3282 4.54824E-03
 -1      3283 4.54824E-03
 -1      3284 3.45596E-03
 -1      3285 3.79326E-03
 -1      3286 3.90790E-03
 -1      3287 2.84722E-03
 -1      3288 3.14145E-03
 -1      3289 3.27546E-03
 -1      3290 2.27865E-03
 -1      3291 2.55348E-03
 -1      3292 2.66721E-03
 -1      3293 1.77521E-03
 -1      3294 2.01508E-03
 -1      3295 2.10990E-03
 -1      3296 1.34765E-03
 -1      3297 1.54553E-03
 -1      3298 1.61664E-03
 -1      3299 9.78598E-04
 -1      3300 1.15355E-03
 -1      3301 1.19285E-03
 -1      3302 7.63384E-04
 -1      3303 8.84027E-04
 -1      3304 9.04183E-04
 -1      3305 6.82818E-04
 -1      3306 1.82374E+00
 -1      3307 1.34455E+00
 -1      3308 1.81324E+00
 -1      3309 2.20273E+00
 -1      3310 7.74364E+00
 -1      3311 7.53607E+00
 -1      3312 8.51157E-04
 -1      3313 8.51862E-04
 -1      3314 7.75294E-04
 -1      3315 8.38227E-04
 -1      3316 8.63542E+00
 -1      3317 9.30031E+00
 -1      3318 1.07361E+01
 -1      3319 9.08223E+00
 -1      3320 8.62534E-04
 -1      3321 8.71026E-04
 -1      3322 9.32682E-04
 -1      3323 3.22587E+00
 -1      3324 3.64299E+00
 -1      3325 3.26939E+00
 -1      3326 5.82241E+00
 -1      3327 4.32538E+00
 -1      3328 1.25822E+01
 -1      3329 1.16851E+01
 -1      3330 4.52797E+00
 -1      3331 4.91851E+00
 -1      3332 5.32747E+00
 -1      3333 4.78300E+00
 -1      3334 1.05569E+01
 -1      3335 1.15361E+01
 -1      3336 1.14076E+01
 -1      3337 1.05569E+01
 -1      3338 3.84122E+00
 -1      3339 2.43888E+00
 -1      3340 2.34460E+00
 -1      3341 2.69715E+00
 -1      3342 3.02229E+00
 -1      3343 3.24768E+00
 -1      3344 5.82241E+00
 -1      3345 5.82241E+00
 -1      3346 3.28526E+00
 -1      3347 2.94991E+00
 -1      3348 2.78945E+00
 -1      3349 4.61261E+00
 -1      3350 4.96799E+00
 -1      3351 3.54552E+00
 -1      3352 8.30282E+00
 -1      3353 6.62864E+00
 -1      3354 8.71026E-04
 -1      3355 8.71026E-04
 -1      3356 9.37120E-04
 -1      3357 9.56989E-04
 -1      3358 4.20994E+00
 -1      3359 4.62273E+00
 -1      3360 6.39679E+00
 -1      3361 3.74880E+00
 -1      3362 1.02479E+01
 -1      3363 1.17983E+01
 -1      3364 1.23838E+01
 -1      3365 1.45614E+01
 -1      3366 9.07866E+00
 -1      3367 6.98718E+00
 -1      3368 5.76910E+00
 -1      3369 7.12340E+00
 -1      3370 8.99001E+00
 -1      3371 1.23067E+01
 -1      3372 1.05457E+01
 -1      3373 3.70788E+00
 -1      3374 2.97956E+00
 -1      3375 6.46130E+00
 -1      3376 5.95521E+00
 -1      3377 7.85025E+00
 -1      3378 3.29926E+00
 -1      3379 2.82837E+00
 -1      3380 4.04502E+00
 -1      3381 3.56075E+00
 -1      3382 3.33830E+00
 -1      3383 8.32659E+00
 -1      3384 8.93543E+00
 -1      3385 7.89105E+00
 -1      3386 6.97844E+00
 -1      3387 6.32489E+00
 -1      3388 4.64400E+00
 -1      3389 8.98938E+00
 -1      3390 8.53504E-04
 -1      3391 7.90935E-04
 -1      3392 3.56422E+00
 -1      3393 8.70362E-04
 -1      3394 8.63485E-04
 -1      3395 9.44270E-04
 -1      3396 9.09723E+00
 -1      3397 8.70362E-04
 -1      3398 8.70362E-04
 -1      3399 9.54252E-04
 -1      3400 9.35751E-04
 -1      3401 2.55458E+00
 -1      3402 8.05654E+00
 -1      3403 3.77588E+00
 -1      3404 6.13018E+00
 -1      3405 7.55011E-04
 -1      3406 7.49666E-04
 -1      3407 8.82747E-04
 -1      3408 9.17200E-04
 -1      3409 7.26096E+00
 -1      3410 5.10713E+00
 -1      3411 4.55902E+00
 -1      3412 1.37452E+01
 -1      3413 9.68804E+00
 -1      3414 4.60434E+00
 -1      3415 8.71736E+00
 -1      3416 8.16712E+00
 -1      3417 2.88895E+00
 -1      3418 5.25422E+00
 -1      3419 8.40087E+00
 -1      3420 1.04929E+01
 -1      3421 8.83282E+00
 -1      3422 9.90759E+00
 -1      3423 4.68048E+00
 -1      3424 4.18334E+00
 -1      3425 4.06430E+00
 -1      3426 3.53003E+00
 -1      3427 6.48446E+00
 -1      3428 7.74233E+00
 -1      3429 5.32747E+00
 -1      3430 3.24333E+00
 -1      3431 3.33830E+00
 -1      3432 1.15707E+01
 -1      3433 8.92682E+00
 -1      3434 3.45002E+00
 -1      3435 7.15555E+00
 -1      3436 2.74071E+00
 -1      3437 2.48281E+00
 -1      3438 2.45162E+00
 -1      3439 2.25644E+00
 -1      3440 2.92613E+00
 -1      3441 1.84909E+00
 -1      3442 1.70525E+00
 -1      3443 2.48759E+00
 -1      3444 1.45400E+00
 -1      3445 1.34612E+00
 -1      3446 1.82898E+00
 -1      3447 1.17274E+00
 -1      3448 1.06268E+00
 -1      3449 1.40434E+00
 -1      3450 9.38899E-01
 -1      3451 8.52934E-01
 -1      3452 1.10718E+00
 -1      3453 7.39541E-01
 -1      3454 6.81881E-01
 -1      3455 8.69998E-01
 -1      3456 5.92713E-01
 -1      3457 5.38892E-01
 -1      3458 6.67436E-01
 -1      3459 4.82006E-01
 -1      3460 4.34443E-01
 -1      3461 5.21382E-01
 -1      3462 3.89962E-01
 -1      3463 3.47638E-01
 -1      3464 4.20014E-01
 -1      3465 3.13236E-01
 -1      3466 2.77233E-01
 -1      3467 3.41132E-01
 -1      3468 2.45822E-01
 -1      3469 2.17483E-01
 -1      3470 2.75319E-01
 -1      3471 1.90190E-01
 -1      3472 1.67854E-01
 -1      3473 2.16614E-01
 -1      3474 1.44965E-01
 -1      3475 1.26135E-01
 -1      3476 1.66432E-01
 -1      3477 1.07479E-01
 -1      3478 9.22921E-02
 -1      3479 1.24887E-01
 -1      3480 7.74602E-02
 -1      3481 6.60852E-02
 -1      3482 9.13984E-02
 -1      3483 5.45652E-02
 -1      3484 4.60591E-02
 -1      3485 6.50465E-02
 -1      3486 3.77471E-02
 -1      3487 3.14821E-02
 -1      3488 4.52145E-02
 -1      3489 2.53191E-02
 -1      3490 2.07120E-02
 -1      3491 3.07396E-02
 -1      3492 1.61798E-02
 -1      3493 1.28633E-02
 -1      3494 2.00445E-02
 -1      3495 9.61442E-03
 -1      3496 7.34411E-03
 -1      3497 1.22634E-02
 -1      3498 5.13823E-03
 -1      3499 4.97801E-03
 -1      3500 6.80867E-03
 -1      3501 4.20386E-03
 -1      3502 4.32436E-03
 -1      3503 3.82864E-03
 -1      3504 4.68119E-03
 -1      3505 4.57304E-03
 -1      3506 3.41133E-03
 -1      3507 4.66611E-03
 -1      3508 4.42486E-03
 -1      3509 3.86123E-03
 -1      3510 4.35114E-03
 -1      3511 4.04348E-03
 -1      3512 3.88058E-03
 -1      3513 3.87249E-03
 -1      3514 3.58189E-03
 -1      3515 3.63587E-03
 -1      3516 3.36200E-03
 -1      3517 3.12669E-03
 -1      3518 3.24499E-03
 -1      3519 2.94932E-03
 -1      3520 2.69633E-03
 -1      3521 2.84773E-03
 -1      3522 2.50556E-03
 -1      3523 2.25669E-03
 -1      3524 2.47959E-03
 -1      3525 2.05981E-03
 -1      3526 1.82807E-03
 -1      3527 2.09195E-03
 -1      3528 1.63877E-03
 -1      3529 1.43031E-03
 -1      3530 1.70576E-03
 -1      3531 7.98642E+00
 -1      3532 7.57792E+00
 -1      3533 8.34855E+00
 -1      3534 3.76326E+00
 -1      3535 3.93636E+00
 -1      3536 1.15197E+00
 -1      3537 1.29996E+00
 -1      3538 8.97536E-01
 -1      3539 1.00398E+00
 -1      3540 1.14748E+00
 -1      3541 6.89149E-01
 -1      3542 7.80058E-01
 -1      3543 8.82016E-01
 -1      3544 5.21778E-01
 -1      3545 5.96969E-01
 -1      3546 6.72359E-01
 -1      3547 3.89726E-01
 -1      3548 4.49871E-01
 -1      3549 5.08273E-01
 -1      3550 2.87460E-01
 -1      3551 3.33856E-01
 -1      3552 3.80496E-01
 -1      3553 2.12515E-01
 -1      3554 2.44345E-01
 -1      3555 2.81511E-01
 -1      3556 1.54768E-01
 -1      3557 1.79524E-01
 -1      3558 2.05406E-01
 -1      3559 1.10698E-01
 -1      3560 1.29770E-01
 -1      3561 1.47416E-01
 -1      3562 7.75833E-02
 -1      3563 9.21010E-02
 -1      3564 1.03821E-01
 -1      3565 5.35536E-02
 -1      3566 6.44532E-02
 -1      3567 7.20930E-02
 -1      3568 3.57923E-02
 -1      3569 4.38472E-02
 -1      3570 4.92565E-02
 -1      3571 2.29287E-02
 -1      3572 2.87743E-02
 -1      3573 3.25322E-02
 -1      3574 1.38179E-02
 -1      3575 1.79706E-02
 -1      3576 2.05562E-02
 -1      3577 8.22692E-03
 -1      3578 1.03999E-02
 -1      3579 1.21800E-02
 -1      3580 6.31171E-03
 -1      3581 6.24291E-03
 -1      3582 6.77797E-03
 -1      3583 6.05200E-03
 -1      3584 6.26560E-03
 -1      3585 4.74785E-03
 -1      3586 5.85148E-03
 -1      3587 6.22113E-03
 -1      3588 4.87088E-03
 -1      3589 5.34735E-03
 -1      3590 5.78775E-03
 -1      3591 4.97627E-03
 -1      3592 4.69142E-03
 -1      3593 5.14718E-03
 -1      3594 4.71237E-03
 -1      3595 4.09874E-03
 -1      3596 4.42115E-03
 -1      3597 4.24192E-03
 -1      3598 3.51027E-03
 -1      3599 3.82821E-03
 -1      3600 3.70111E-03
 -1      3601 2.97976E-03
 -1      3602 3.29427E-03
 -1      3603 3.21458E-03
 -1      3604 2.45247E-03
 -1      3605 2.74621E-03
 -1      3606 2.76502E-03
 -1      3607 1.95806E-03
 -1      3608 2.22164E-03
 -1      3609 2.30063E-03
 -1      3610 1.51094E-03
 -1      3611 1.74063E-03
 -1      3612 1.85237E-03
 -1      3613 1.14090E-03
 -1      3614 1.33500E-03
 -1      3615 1.45899E-03
 -1      3616 2.55458E+00
 -1      3617 3.18022E+00
 -1      3618 7.73019E-04
 -1      3619 7.27240E-04
 -1      3620 8.54034E-04
 -1      3621 9.16372E-04
 -1      3622 2.84760E+00
 -1      3623 3.24643E+00
 -1      3624 4.09064E+00
 -1      3625 8.04776E+00
 -1      3626 6.58077E+00
 -1      3627 1.05454E-03
 -1      3628 1.07885E-03
 -1      3629 2.53165E+00
 -1      3630 1.48156E+00
 -1      3631 1.69113E+00
 -1      3632 1.47708E+00
 -1      3633 8.01668E+00
 -1      3634 1.99417E+00
 -1      3635 2.27966E+00
 -1      3636 3.74836E+00
 -1      3637 1.96172E+00
 -1      3638 4.50866E+00
 -1      3639 5.13728E+00
 -1      3640 5.93624E+00
 -1      3641 5.65827E+00
 -1      3642 5.92618E+00
 -1      3643 6.92294E+00
 -1      3644 7.15555E+00
 -1      3645 8.50335E+00
 -1      3646 9.09994E+00
 -1      3647 7.20701E+00
 -1      3648 3.37070E+00
 -1      3649 3.37070E+00
 -1      3650 7.44292E+00
 -1      3651 7.51759E+00
 -1      3652 7.53656E+00
 -1      3653 7.95951E+00
 -1      3654 7.56875E+00
 -1      3655 2.26630E+00
 -1      3656 2.88763E+00
 -1      3657 5.53194E+00
 -1      3658 4.36717E+00
 -1      3659 7.56875E+00
 -1      3660 7.56875E+00
 -1      3661 6.81090E+00
 -1      3662 2.52410E+00
 -1      3663 5.66799E+00
 -1      3664 5.67132E+00
 -1      3665 2.48601E+00
 -1      3666 4.11455E+00
 -1      3667 6.13018E+00
 -1      3668 5.80425E+00
 -1      3669 1.24564E-03
 -1      3670 1.06220E-03
 -1      3671 1.00212E-03
 -1      3672 1.33179E-03
 -1      3673 7.02219E+00
 -1      3674 6.27351E+00
 -1      3675 6.26434E+00
 -1      3676 4.80815E+00
 -1      3677 6.46513E+00
 -1      3678 3.56422E+00
 -1      3679 9.48605E-04
 -1      3680 6.52845E+00
 -1      3681 3.92406E+00
 -1      3682 1.10867E-03
 -1      3683 1.09075E-03
 -1      3684 2.57288E+00
 -1      3685 1.35377E-03
 -1      3686 1.37227E-03
 -1      3687 5.24520E+00
 -1      3688 5.17883E+00
 -1      3689 1.19960E-03
 -1      3690 1.07774E-03
 -1      3691 1.07774E-03
 -1      3692 3.78083E+00
 -1      3693 2.53015E+00
 -1      3694 1.27056E-03
 -1      3695 1.70708E-03
 -1      3696 1.29043E-03
 -1      3697 3.88306E+00
 -1      3698 3.88306E+00
 -1      3699 6.59372E+00
 -1      3700 1.38402E-03
 -1      3701 1.37404E-03
 -1      3702 1.54842E-03
 -1      3703 3.05955E+00
 -1      3704 1.02775E-03
 -1      3705 1.17391E-03
 -1      3706 3.64590E+00
 -1      3707 6.14578E-01
 -1      3708 7.06757E-01
 -1      3709 3.02836E+00
 -1      3710 6.02143E+00
 -1      3711 2.90663E+00
 -1      3712 2.49928E+00
 -1      3713 2.22242E+00
 -1      3714 1.97117E+00
 -1      3715 2.64146E+00
 -1      3716 1.73007E+00
 -1      3717 1.55669E+00
 -1      3718 2.12351E+00
 -1      3719 1.28967E+00
 -1      3720 1.16589E+00
 -1      3721 1.61540E+00
 -1      3722 9.62532E-01
 -1      3723 8.49138E-01
 -1      3724 1.14503E+00
 -1      3725 7.41230E-01
 -1      3726 6.52062E-01
 -1      3727 8.33764E-01
 -1      3728 5.75260E-01
 -1      3729 5.18374E-01
 -1      3730 6.49054E-01
 -1      3731 4.64495E-01
 -1      3732 4.20014E-01
 -1      3733 5.18374E-01
 -1      3734 3.72745E-01
 -1      3735 3.38343E-01
 -1      3736 4.17225E-01
 -1      3737 2.98350E-01
 -1      3738 2.66939E-01
 -1      3739 3.29963E-01
 -1      3740 2.33896E-01
 -1      3741 2.06603E-01
 -1      3742 2.56927E-01
 -1      3743 1.79736E-01
 -1      3744 1.56847E-01
 -1      3745 1.97018E-01
 -1      3746 1.35321E-01
 -1      3747 1.16664E-01
 -1      3748 1.48624E-01
 -1      3749 9.96734E-02
 -1      3750 8.48415E-02
 -1      3751 1.10107E-01
 -1      3752 7.16377E-02
 -1      3753 6.01177E-02
 -1      3754 7.99127E-02
 -1      3755 5.00247E-02
 -1      3756 4.17127E-02
 -1      3757 5.66159E-02
 -1      3758 3.42474E-02
 -1      3759 2.80845E-02
 -1      3760 3.90575E-02
 -1      3761 2.28830E-02
 -1      3762 1.83508E-02
 -1      3763 2.63907E-02
 -1      3764 1.45344E-02
 -1      3765 1.12855E-02
 -1      3766 1.73729E-02
 -1      3767 8.54748E-03
 -1      3768 6.34160E-03
 -1      3769 1.08184E-02
 -1      3770 4.60110E-03
 -1      3771 3.82695E-03
 -1      3772 6.33990E-03
 -1      3773 2.83249E-03
 -1      3774 3.18933E-03
 -1      3775 3.60495E-03
 -1      3776 3.18668E-03
 -1      3777 3.27976E-03
 -1      3778 2.60785E-03
 -1      3779 3.45138E-03
 -1      3780 3.37765E-03
 -1      3781 2.77683E-03
 -1      3782 3.38413E-03
 -1      3783 3.21314E-03
 -1      3784 2.95492E-03
 -1      3785 3.11849E-03
 -1      3786 2.89860E-03
 -1      3787 2.86675E-03
 -1      3788 2.74802E-03
 -1      3789 2.57065E-03
 -1      3790 2.62152E-03
 -1      3791 2.40972E-03
 -1      3792 2.21895E-03
 -1      3793 2.31001E-03
 -1      3794 2.07155E-03
 -1      3795 1.87467E-03
 -1      3796 2.00167E-03
 -1      3797 1.71818E-03
 -1      3798 1.52887E-03
 -1      3799 1.69778E-03
 -1      3800 1.35858E-03
 -1      3801 1.08072E+00
 -1      3802 1.22871E+00
 -1      3803 4.63150E-01
 -1      3804 5.35057E-01
 -1      3805 5.69455E-01
 -1      3806 3.46810E-01
 -1      3807 4.02681E-01
 -1      3808 4.29465E-01
 -1      3809 2.57274E-01
 -1      3810 3.00389E-01
 -1      3811 3.22574E-01
 -1      3812 1.88533E-01
 -1      3813 2.21524E-01
 -1      3814 2.40402E-01
 -1      3815 1.36051E-01
 -1      3816 1.61049E-01
 -1      3817 1.77168E-01
 -1      3818 9.64516E-02
 -1      3819 1.15049E-01
 -1      3820 1.28682E-01
 -1      3821 6.74210E-02
 -1      3822 8.05511E-02
 -1      3823 9.17796E-02
 -1      3824 4.58207E-02
 -1      3825 5.55271E-02
 -1      3826 6.39852E-02
 -1      3827 3.05782E-02
 -1      3828 3.75961E-02
 -1      3829 4.38667E-02
 -1      3830 1.95586E-02
 -1      3831 2.45167E-02
 -1      3832 2.95806E-02
 -1      3833 1.17554E-02
 -1      3834 1.51735E-02
 -1      3835 1.91340E-02
 -1      3836 6.68090E-03
 -1      3837 8.66491E-03
 -1      3838 1.16584E-02
 -1      3839 4.56304E-03
 -1      3840 4.60915E-03
 -1      3841 6.49609E-03
 -1      3842 3.88020E-03
 -1      3843 3.71107E-03
 -1      3844 3.57237E-03
 -1      3845 4.16867E-03
 -1      3846 4.23240E-03
 -1      3847 3.07259E-03
 -1      3848 4.06731E-03
 -1      3849 4.26749E-03
 -1      3850 3.52361E-03
 -1      3851 3.73662E-03
 -1      3852 4.00690E-03
 -1      3853 3.56201E-03
 -1      3854 3.31299E-03
 -1      3855 3.58351E-03
 -1      3856 3.34849E-03
 -1      3857 2.89688E-03
 -1      3858 3.11288E-03
 -1      3859 2.99529E-03
 -1      3860 2.48893E-03
 -1      3861 2.72249E-03
 -1      3862 2.62080E-03
 -1      3863 2.08183E-03
 -1      3864 2.31267E-03
 -1      3865 2.27014E-03
 -1      3866 1.75622E-03
 -1      3867 1.97365E-03
 -1      3868 1.98569E-03
 -1      3869 1.72436E-03
 -1      3870 5.94848E+00
 -1      3871 5.64769E+00
 -1      3872 3.52416E+00
 -1      3873 3.04005E+00
 -1      3874 1.80204E-03
 -1      3875 1.38402E-03
 -1      3876 1.38402E-03
 -1      3877 1.44584E+00
 -1      3878 1.62744E+00
 -1      3879 1.37907E+00
 -1      3880 8.14077E-01
 -1      3881 9.31554E-01
 -1      3882 7.56296E-01
 -1      3883 1.81379E-03
 -1      3884 5.52234E+00
 -1      3885 5.52234E+00
 -1      3886 4.70907E+00
 -1      3887 3.66024E+00
 -1      3888 3.05439E+00
 -1      3889 4.12909E+00
 -1      3890 5.03512E+00
 -1      3891 5.82459E+00
 -1      3892 4.53604E+00
 -1      3893 3.55153E+00
 -1      3894 1.37100E-03
 -1      3895 1.84565E-03
 -1      3896 1.81379E-03
 -1      3897 1.81379E-03
 -1      3898 1.84565E-03
 -1      3899 4.66129E+00
 -1      3900 5.21702E+00
 -1      3901 4.33625E+00
 -1      3902 1.79029E-03
 -1      3903 1.80204E-03
 -1      3904 1.80204E-03
 -1      3905 1.41117E-03
 -1      3906 4.23379E+00
 -1      3907 5.52234E+00
 -1      3908 4.97578E+00
 -1      3909 1.36988E-03
 -1      3910 1.96172E+00
 -1      3911 2.26477E+00
 -1      3912 1.93049E+00
 -1      3913 1.62386E-03
 -1      3914 1.70708E-03
 -1      3915 1.70708E-03
 -1      3916 1.01278E+00
 -1      3917 2.77754E+00
 -1      3918 8.55427E-01
 -1      3919 1.00459E+00
 -1      3920 2.87234E+00
 -1      3921 2.63124E+00
 -1      3922 1.86350E+00
 -1      3923 1.59648E+00
 -1      3924 2.61232E+00
 -1      3925 1.28823E+00
 -1      3926 1.08487E+00
 -1      3927 1.53633E+00
 -1      3928 9.41147E-01
 -1      3929 8.33240E-01
 -1      3930 1.08435E+00
 -1      3931 7.25856E-01
 -1      3932 6.49054E-01
 -1      3933 8.33240E-01
 -1      3934 5.65319E-01
 -1      3935 5.11440E-01
 -1      3936 6.42121E-01
 -1      3937 4.45373E-01
 -1      3938 3.98103E-01
 -1      3939 4.92318E-01
 -1      3940 3.47070E-01
 -1      3941 3.07077E-01
 -1      3942 3.75217E-01
 -1      3943 2.67775E-01
 -1      3944 2.34732E-01
 -1      3945 2.84882E-01
 -1      3946 2.04262E-01
 -1      3947 1.77394E-01
 -1      3948 2.15109E-01
 -1      3949 1.53769E-01
 -1      3950 1.32243E-01
 -1      3951 1.61013E-01
 -1      3952 1.13997E-01
 -1      3953 9.70057E-02
 -1      3954 1.19142E-01
 -1      3955 8.30090E-02
 -1      3956 6.98052E-02
 -1      3957 8.68982E-02
 -1      3958 5.91687E-02
 -1      3959 4.90757E-02
 -1      3960 6.22650E-02
 -1      3961 4.10873E-02
 -1      3962 3.36219E-02
 -1      3963 4.36401E-02
 -1      3964 2.78888E-02
 -1      3965 2.26873E-02
 -1      3966 2.99185E-02
 -1      3967 1.91042E-02
 -1      3968 1.52879E-02
 -1      3969 2.06023E-02
 -1      3970 1.25671E-02
 -1      3971 9.82908E-03
 -1      3972 1.42985E-02
 -1      3973 7.80741E-03
 -1      3974 6.06690E-03
 -1      3975 9.55607E-03
 -1      3976 4.59940E-03
 -1      3977 3.60495E-03
 -1      3978 6.06690E-03
 -1      3979 2.56749E-03
 -1      3980 2.56485E-03
 -1      3981 3.56194E-03
 -1      3982 2.24271E-03
 -1      3983 2.41433E-03
 -1      3984 2.20235E-03
 -1      3985 2.58540E-03
 -1      3986 2.59187E-03
 -1      3987 2.05128E-03
 -1      3988 2.62214E-03
 -1      3989 2.52749E-03
 -1      3990 2.25261E-03
 -1      3991 2.47004E-03
 -1      3992 2.31946E-03
 -1      3993 2.22543E-03
 -1      3994 2.21171E-03
 -1      3995 2.05078E-03
 -1      3996 2.06023E-03
 -1      3997 1.91966E-03
 -1      3998 1.77226E-03
 -1      3999 1.82136E-03
 -1      4000 1.65267E-03
 -1      4001 1.49617E-03
 -1      4002 1.57065E-03
 -1      4003 2.77874E-01
 -1      4004 3.24295E-01
 -1      4005 4.85615E-01
 -1      4006 5.65136E-01
 -1      4007 2.08205E-01
 -1      4008 2.43955E-01
 -1      4009 2.45677E-01
 -1      4010 1.54192E-01
 -1      4011 1.81676E-01
 -1      4012 1.85229E-01
 -1      4013 1.12481E-01
 -1      4014 1.33483E-01
 -1      4015 1.37992E-01
 -1      4016 8.05327E-02
 -1      4017 9.64331E-02
 -1      4018 1.01235E-01
 -1      4019 5.63360E-02
 -1      4020 6.82300E-02
 -1      4021 7.28835E-02
 -1      4022 3.88066E-02
 -1      4023 4.70311E-02
 -1      4024 5.12759E-02
 -1      4025 2.60365E-02
 -1      4026 3.20979E-02
 -1      4027 3.52624E-02
 -1      4028 1.69333E-02
 -1      4029 2.13184E-02
 -1      4030 2.38357E-02
 -1      4031 1.03922E-02
 -1      4032 1.34827E-02
 -1      4033 1.56671E-02
 -1      4034 6.01114E-03
 -1      4035 8.08288E-03
 -1      4036 9.90726E-03
 -1      4037 3.66311E-03
 -1      4038 4.51508E-03
 -1      4039 6.10188E-03
 -1      4040 2.96464E-03
 -1      4041 2.61244E-03
 -1      4042 3.55515E-03
 -1      4043 2.99983E-03
 -1      4044 2.90101E-03
 -1      4045 2.44086E-03
 -1      4046 3.09538E-03
 -1      4047 3.15579E-03
 -1      4048 2.53319E-03
 -1      4049 2.94714E-03
 -1      4050 3.10024E-03
 -1      4051 2.69402E-03
 -1      4052 2.66009E-03
 -1      4053 2.86019E-03
 -1      4054 2.61194E-03
 -1      4055 2.34755E-03
 -1      4056 2.52194E-03
 -1      4057 2.38685E-03
 -1      4058 2.01149E-03
 -1      4059 2.18776E-03
 -1      4060 2.08891E-03
 -1      4061 1.87751E-03
 -1      4062 1.98569E-03
 -1      4063 1.90331E-03
 -1      4064 1.84565E-03
 -1      4065 3.67953E-01
 -1      4066 4.28422E-01
 -1      4067 3.23253E-01
 -1      4068 1.54164E-03
 -1      4069 1.37024E-03
 -1      4070 1.58293E-03
 -1      4071 1.49653E-03
 -1      4072 1.17153E+00
 -1      4073 1.38866E+00
 -1      4074 1.01418E+00
 -1      4075 6.41241E-01
 -1      4076 7.48560E-01
 -1      4077 5.57400E-01
 -1      4078 7.40372E-01
 -1      4079 4.27566E+00
 -1      4080 3.21917E+00
 -1      4081 3.53366E+00
 -1      4082 1.58293E-03
 -1      4083 1.50357E+00
 -1      4084 1.71111E+00
 -1      4085 2.04539E+00
 -1      4086 4.24103E-01
 -1      4087 3.55153E+00
 -1      4088 1.70026E-03
 -1      4089 1.71201E-03
 -1      4090 1.74387E-03
 -1      4091 3.49243E+00
 -1      4092 4.22388E+00
 -1      4093 3.28527E+00
 -1      4094 1.50893E-03
 -1      4095 1.59214E-03
 -1      4096 1.50211E-03
 -1      4097 3.87840E+00
 -1      4098 3.57615E+00
 -1      4099 3.57615E+00
 -1      4100 2.59164E+00
 -1      4101 1.69011E+00
 -1      4102 1.38185E+00
 -1      4103 1.22807E+00
 -1      4104 1.08435E+00
 -1      4105 1.38185E+00
 -1      4106 8.99324E-01
 -1      4107 7.91941E-01
 -1      4108 1.04305E+00
 -1      4109 6.90084E-01
 -1      4110 6.06348E-01
 -1      4111 7.56168E-01
 -1      4112 5.08292E-01
 -1      4113 4.42225E-01
 -1      4114 5.56255E-01
 -1      4115 3.80643E-01
 -1      4116 3.29610E-01
 -1      4117 3.96618E-01
 -1      4118 2.87374E-01
 -1      4119 2.48072E-01
 -1      4120 2.92800E-01
 -1      4121 2.22520E-01
 -1      4122 1.92049E-01
 -1      4123 2.25012E-01
 -1      4124 1.70069E-01
 -1      4125 1.46444E-01
 -1      4126 1.77479E-01
 -1      4127 1.28060E-01
 -1      4128 1.09814E-01
 -1      4129 1.37116E-01
 -1      4130 9.48084E-02
 -1      4131 8.08117E-02
 -1      4132 1.03727E-01
 -1      4133 6.88355E-02
 -1      4134 5.81990E-02
 -1      4135 7.67457E-02
 -1      4136 4.90360E-02
 -1      4137 4.10475E-02
 -1      4138 5.56064E-02
 -1      4139 3.42727E-02
 -1      4140 2.85396E-02
 -1      4141 3.96686E-02
 -1      4142 2.33722E-02
 -1      4143 1.97892E-02
 -1      4144 2.77264E-02
 -1      4145 1.61200E-02
 -1      4146 1.33992E-02
 -1      4147 1.88899E-02
 -1      4148 1.08424E-02
 -1      4149 8.82072E-03
 -1      4150 1.26639E-02
 -1      4151 6.95093E-03
 -1      4152 5.48343E-03
 -1      4153 8.23724E-03
 -1      4154 4.14808E-03
 -1      4155 3.11062E-03
 -1      4156 5.03211E-03
 -1      4157 2.18331E-03
 -1      4158 1.86118E-03
 -1      4159 2.76945E-03
 -1      4160 1.65079E-03
 -1      4161 1.82185E-03
 -1      4162 1.63175E-03
 -1      4163 2.06168E-03
 -1      4164 2.09195E-03
 -1      4165 1.66119E-03
 -1      4166 2.16948E-03
 -1      4167 2.11202E-03
 -1      4168 1.97855E-03
 -1      4169 2.05763E-03
 -1      4170 1.94988E-03
 -1      4171 2.00167E-03
 -1      4172 1.80691E-03
 -1      4173 1.67579E-03
 -1      4174 1.80431E-03
 -1      4175 1.54211E-03
 -1      4176 1.42253E-03
 -1      4177 1.79080E-01
 -1      4178 2.05609E-01
 -1      4179 1.36391E-01
 -1      4180 1.57100E-01
 -1      4181 1.77479E-01
 -1      4182 6.56156E-01
 -1      4183 7.63023E-01
 -1      4184 2.31161E-01
 -1      4185 2.65080E-01
 -1      4186 2.25012E-01
 -1      4187 1.01959E-01
 -1      4188 1.18008E-01
 -1      4189 1.37116E-01
 -1      4190 7.46514E-02
 -1      4191 8.69540E-02
 -1      4192 1.03727E-01
 -1      4193 5.33703E-02
 -1      4194 6.26751E-02
 -1      4195 7.67457E-02
 -1      4196 3.74986E-02
 -1      4197 4.42072E-02
 -1      4198 5.56064E-02
 -1      4199 2.60057E-02
 -1      4200 3.07238E-02
 -1      4201 3.96686E-02
 -1      4202 1.73878E-02
 -1      4203 2.08384E-02
 -1      4204 2.77264E-02
 -1      4205 1.12233E-02
 -1      4206 1.35326E-02
 -1      4207 1.87039E-02
 -1      4208 6.91765E-03
 -1      4209 8.41370E-03
 -1      4210 1.20391E-02
 -1      4211 3.87225E-03
 -1      4212 4.92292E-03
 -1      4213 7.23474E-03
 -1      4214 2.44086E-03
 -1      4215 2.50448E-03
 -1      4216 3.87225E-03
 -1      4217 2.20163E-03
 -1      4218 2.04567E-03
 -1      4219 2.10930E-03
 -1      4220 2.35265E-03
 -1      4221 2.34778E-03
 -1      4222 1.86026E-03
 -1      4223 2.29054E-03
 -1      4224 2.37748E-03
 -1      4225 2.03124E-03
 -1      4226 2.15239E-03
 -1      4227 2.29054E-03
 -1      4228 2.05607E-03
 -1      4229 1.93820E-03
 -1      4230 2.09799E-03
 -1      4231 2.00167E-03
 -1      4232 2.93712E-01
 -1      4233 3.37369E-01
 -1      4234 2.79196E-01
 -1      4235 8.92095E-01
 -1      4236 1.05903E+00
 -1      4237 8.07879E-01
 -1      4238 3.08788E+00
 -1      4239 2.97551E+00
 -1      4240 2.20777E+00
 -1      4241 2.70225E+00
 -1      4242 1.53746E-03
 -1      4243 3.70243E-01
 -1      4244 4.27435E-01
 -1      4245 3.40702E-01
 -1      4246 4.88577E-01
 -1      4247 5.64682E-01
 -1      4248 4.34717E-01
 -1      4249 3.12476E+00
 -1      4250 2.42464E+00
 -1      4251 2.46713E+00
 -1      4252 1.42966E+00
 -1      4253 1.75211E+00
 -1      4254 1.30758E+00
 -1      4255 1.52767E-03
 -1      4256 5.87333E-01
 -1      4257 1.77286E-03
 -1      4258 1.79866E-03
 -1      4259 1.80775E-03
 -1      4260 1.63922E-03
 -1      4261 1.53877E-03
 -1      4262 1.64689E-03
 -1      4263 1.67588E-03
 -1      4264 1.67245E-03
 -1      4265 2.05329E+00
 -1      4266 2.37227E+00
 -1      4267 1.08251E+00
 -1      4268 8.97488E-01
 -1      4269 7.68417E-01
 -1      4270 6.66559E-01
 -1      4271 5.75085E-01
 -1      4272 4.77029E-01
 -1      4273 4.15888E-01
 -1      4274 3.54306E-01
 -1      4275 3.21432E-01
 -1      4276 2.79196E-01
 -1      4277 2.50564E-01
 -1      4278 2.25012E-01
 -1      4279 1.99459E-01
 -1      4280 1.77479E-01
 -1      4281 1.55499E-01
 -1      4282 1.37116E-01
 -1      4283 1.18732E-01
 -1      4284 1.03727E-01
 -1      4285 8.87219E-02
 -1      4286 7.67457E-02
 -1      4287 6.47695E-02
 -1      4288 5.56064E-02
 -1      4289 4.64434E-02
 -1      4290 3.96686E-02
 -1      4291 3.28938E-02
 -1      4292 2.77264E-02
 -1      4293 2.25591E-02
 -1      4294 1.88899E-02
 -1      4295 1.50347E-02
 -1      4296 1.24779E-02
 -1      4297 9.66825E-03
 -1      4298 7.79846E-03
 -1      4299 5.80374E-03
 -1      4300 4.46839E-03
 -1      4301 3.10062E-03
 -1      4302 2.17331E-03
 -1      4303 1.77812E-03
 -1      4304 1.56773E-03
 -1      4305 1.71389E-03
 -1      4306 1.95372E-03
 -1      4307 1.97855E-03
 -1      4308 2.05607E-03
 -1      4309 2.05607E-03
 -1      4310 2.00167E-03
 -1      4311 1.94728E-03
 -1      4312 1.81541E-03
 -1      4313 2.23979E+00
 -1      4314 2.10850E+00
 -1      4315 1.59084E+00
 -1      4316 1.83089E+00
 -1      4317 1.29508E+00
 -1      4318 1.14130E+00
 -1      4319 9.95737E-01
 -1      4320 1.35029E+00
 -1      4321 1.92088E+00
 -1      4322 9.36951E-01
 -1      4323 1.30758E+00
 -1      4324 1.81541E-03
 -1      4325 8.97488E-01
 -1      4326 1.84697E+00
 -1      4327 1.36636E+00
 -1      4328 1.66212E+00
 -3
 9999
