    1C
    1UUSER                                                              
    1UDATE              27.october.2022                                 
    1UTIME              01:17:31                                        
    1UHOST                                                              
    1UPGM               CalculiX                                        
    1UVERSION           Version 2.17                             
    1UCOMPILETIME       Thu Jul 23 21:43:50 CEST 2020                    
    1UDIR                                                               
    1UDBN                                                               
    1UMAT    1SOLIDMATERIAL                                             
    2C                          4297                                     1
 -1         1 9.78819E+01 2.50271E+01 0.00000E+00
 -1         2 1.06262E+02 1.81646E+01 0.00000E+00
 -1         3 1.50000E+02 0.00000E+00 0.00000E+00
 -1         4 1.50000E+02 5.00000E+01 0.00000E+00
 -1         5 0.00000E+00 0.00000E+00 0.00000E+00
 -1         6 0.00000E+00 5.00000E+01 0.00000E+00
 -1         7 0.00000E+00 4.70500E+01 0.00000E+00
 -1         8 0.00000E+00 4.41000E+01 0.00000E+00
 -1         9 0.00000E+00 4.11500E+01 0.00000E+00
 -1        10 0.00000E+00 3.82000E+01 0.00000E+00
 -1        11 0.00000E+00 3.52500E+01 0.00000E+00
 -1        12 0.00000E+00 3.23500E+01 0.00000E+00
 -1        13 0.00000E+00 2.94000E+01 0.00000E+00
 -1        14 0.00000E+00 2.64500E+01 0.00000E+00
 -1        15 0.00000E+00 2.35000E+01 0.00000E+00
 -1        16 0.00000E+00 2.05500E+01 0.00000E+00
 -1        17 0.00000E+00 1.76000E+01 0.00000E+00
 -1        18 0.00000E+00 1.47000E+01 0.00000E+00
 -1        19 0.00000E+00 1.17500E+01 0.00000E+00
 -1        20 0.00000E+00 8.80000E+00 0.00000E+00
 -1        21 0.00000E+00 5.85000E+00 0.00000E+00
 -1        22 0.00000E+00 2.90000E+00 0.00000E+00
 -1        23 3.15000E+00 5.00000E+01 0.00000E+00
 -1        24 6.15000E+00 5.00000E+01 0.00000E+00
 -1        25 9.15000E+00 5.00000E+01 0.00000E+00
 -1        26 1.21500E+01 5.00000E+01 0.00000E+00
 -1        27 1.51500E+01 5.00000E+01 0.00000E+00
 -1        28 1.81500E+01 5.00000E+01 0.00000E+00
 -1        29 2.11500E+01 5.00000E+01 0.00000E+00
 -1        30 2.41500E+01 5.00000E+01 0.00000E+00
 -1        31 2.71500E+01 5.00000E+01 0.00000E+00
 -1        32 3.01500E+01 5.00000E+01 0.00000E+00
 -1        33 3.31500E+01 5.00000E+01 0.00000E+00
 -1        34 3.61500E+01 5.00000E+01 0.00000E+00
 -1        35 3.91500E+01 5.00000E+01 0.00000E+00
 -1        36 4.21500E+01 5.00000E+01 0.00000E+00
 -1        37 4.51500E+01 5.00000E+01 0.00000E+00
 -1        38 4.81500E+01 5.00000E+01 0.00000E+00
 -1        39 5.11500E+01 5.00000E+01 0.00000E+00
 -1        40 5.41500E+01 5.00000E+01 0.00000E+00
 -1        41 5.71500E+01 5.00000E+01 0.00000E+00
 -1        42 6.01500E+01 5.00000E+01 0.00000E+00
 -1        43 6.31500E+01 5.00000E+01 0.00000E+00
 -1        44 6.61500E+01 5.00000E+01 0.00000E+00
 -1        45 6.91500E+01 5.00000E+01 0.00000E+00
 -1        46 7.21500E+01 5.00000E+01 0.00000E+00
 -1        47 7.51500E+01 5.00000E+01 0.00000E+00
 -1        48 7.81500E+01 5.00000E+01 0.00000E+00
 -1        49 8.11500E+01 5.00000E+01 0.00000E+00
 -1        50 8.41500E+01 5.00000E+01 0.00000E+00
 -1        51 8.71500E+01 5.00000E+01 0.00000E+00
 -1        52 9.01500E+01 5.00000E+01 0.00000E+00
 -1        53 9.31500E+01 5.00000E+01 0.00000E+00
 -1        54 9.61500E+01 5.00000E+01 0.00000E+00
 -1        55 9.91500E+01 5.00000E+01 0.00000E+00
 -1        56 1.02150E+02 5.00000E+01 0.00000E+00
 -1        57 1.05150E+02 5.00000E+01 0.00000E+00
 -1        58 1.08150E+02 5.00000E+01 0.00000E+00
 -1        59 1.11150E+02 5.00000E+01 0.00000E+00
 -1        60 1.14150E+02 5.00000E+01 0.00000E+00
 -1        61 1.17150E+02 5.00000E+01 0.00000E+00
 -1        62 1.20150E+02 5.00000E+01 0.00000E+00
 -1        63 1.23150E+02 5.00000E+01 0.00000E+00
 -1        64 1.26150E+02 5.00000E+01 0.00000E+00
 -1        65 1.29150E+02 5.00000E+01 0.00000E+00
 -1        66 1.32150E+02 5.00000E+01 0.00000E+00
 -1        67 1.35150E+02 5.00000E+01 0.00000E+00
 -1        68 1.38150E+02 5.00000E+01 0.00000E+00
 -1        69 1.41150E+02 5.00000E+01 0.00000E+00
 -1        70 1.44150E+02 5.00000E+01 0.00000E+00
 -1        71 1.47150E+02 5.00000E+01 0.00000E+00
 -1        72 3.15000E+00 0.00000E+00 0.00000E+00
 -1        73 6.15000E+00 0.00000E+00 0.00000E+00
 -1        74 9.15000E+00 0.00000E+00 0.00000E+00
 -1        75 1.21500E+01 0.00000E+00 0.00000E+00
 -1        76 1.51500E+01 0.00000E+00 0.00000E+00
 -1        77 1.81500E+01 0.00000E+00 0.00000E+00
 -1        78 2.11500E+01 0.00000E+00 0.00000E+00
 -1        79 2.41500E+01 0.00000E+00 0.00000E+00
 -1        80 2.71500E+01 0.00000E+00 0.00000E+00
 -1        81 3.01500E+01 0.00000E+00 0.00000E+00
 -1        82 3.31500E+01 0.00000E+00 0.00000E+00
 -1        83 3.61500E+01 0.00000E+00 0.00000E+00
 -1        84 3.91500E+01 0.00000E+00 0.00000E+00
 -1        85 4.21500E+01 0.00000E+00 0.00000E+00
 -1        86 4.51500E+01 0.00000E+00 0.00000E+00
 -1        87 4.81500E+01 0.00000E+00 0.00000E+00
 -1        88 5.11500E+01 0.00000E+00 0.00000E+00
 -1        89 5.41500E+01 0.00000E+00 0.00000E+00
 -1        90 5.71500E+01 0.00000E+00 0.00000E+00
 -1        91 6.01500E+01 0.00000E+00 0.00000E+00
 -1        92 6.31500E+01 0.00000E+00 0.00000E+00
 -1        93 6.61500E+01 0.00000E+00 0.00000E+00
 -1        94 6.91500E+01 0.00000E+00 0.00000E+00
 -1        95 7.21500E+01 0.00000E+00 0.00000E+00
 -1        96 7.51500E+01 0.00000E+00 0.00000E+00
 -1        97 7.81500E+01 0.00000E+00 0.00000E+00
 -1        98 8.11500E+01 0.00000E+00 0.00000E+00
 -1        99 8.41500E+01 0.00000E+00 0.00000E+00
 -1       100 8.71500E+01 0.00000E+00 0.00000E+00
 -1       101 9.01500E+01 0.00000E+00 0.00000E+00
 -1       102 9.31500E+01 0.00000E+00 0.00000E+00
 -1       103 9.61500E+01 0.00000E+00 0.00000E+00
 -1       104 9.91500E+01 0.00000E+00 0.00000E+00
 -1       105 1.02150E+02 0.00000E+00 0.00000E+00
 -1       106 1.05150E+02 0.00000E+00 0.00000E+00
 -1       107 1.08150E+02 0.00000E+00 0.00000E+00
 -1       108 1.11150E+02 0.00000E+00 0.00000E+00
 -1       109 1.14150E+02 0.00000E+00 0.00000E+00
 -1       110 1.17150E+02 0.00000E+00 0.00000E+00
 -1       111 1.20150E+02 0.00000E+00 0.00000E+00
 -1       112 1.23150E+02 0.00000E+00 0.00000E+00
 -1       113 1.26150E+02 0.00000E+00 0.00000E+00
 -1       114 1.29150E+02 0.00000E+00 0.00000E+00
 -1       115 1.32150E+02 0.00000E+00 0.00000E+00
 -1       116 1.35150E+02 0.00000E+00 0.00000E+00
 -1       117 1.38150E+02 0.00000E+00 0.00000E+00
 -1       118 1.41150E+02 0.00000E+00 0.00000E+00
 -1       119 1.44150E+02 0.00000E+00 0.00000E+00
 -1       120 1.47150E+02 0.00000E+00 0.00000E+00
 -1       121 1.50000E+02 2.95000E+00 0.00000E+00
 -1       122 1.50000E+02 5.90000E+00 0.00000E+00
 -1       123 1.50000E+02 8.85000E+00 0.00000E+00
 -1       124 1.50000E+02 1.18000E+01 0.00000E+00
 -1       125 1.50000E+02 1.47500E+01 0.00000E+00
 -1       126 1.50000E+02 1.76500E+01 0.00000E+00
 -1       127 1.50000E+02 2.06000E+01 0.00000E+00
 -1       128 1.50000E+02 2.35500E+01 0.00000E+00
 -1       129 1.50000E+02 2.65000E+01 0.00000E+00
 -1       130 1.50000E+02 2.94500E+01 0.00000E+00
 -1       131 1.50000E+02 3.24000E+01 0.00000E+00
 -1       132 1.50000E+02 3.53000E+01 0.00000E+00
 -1       133 1.50000E+02 3.82500E+01 0.00000E+00
 -1       134 1.50000E+02 4.12000E+01 0.00000E+00
 -1       135 1.50000E+02 4.41500E+01 0.00000E+00
 -1       136 1.50000E+02 4.71000E+01 0.00000E+00
 -1       137 1.06099E+02 1.66626E+01 0.00000E+00
 -1       138 1.05650E+02 1.53026E+01 0.00000E+00
 -1       139 1.04916E+02 1.40369E+01 0.00000E+00
 -1       140 1.03889E+02 1.29116E+01 0.00000E+00
 -1       141 1.02506E+02 1.19614E+01 0.00000E+00
 -1       142 1.01126E+02 1.14173E+01 0.00000E+00
 -1       143 9.96647E+01 1.11762E+01 0.00000E+00
 -1       144 9.82057E+01 1.12448E+01 0.00000E+00
 -1       145 9.66954E+01 1.16522E+01 0.00000E+00
 -1       146 9.52802E+01 1.24075E+01 0.00000E+00
 -1       147 9.42182E+01 1.33109E+01 0.00000E+00
 -1       148 9.33539E+01 1.44108E+01 0.00000E+00
 -1       149 9.26902E+01 1.57546E+01 0.00000E+00
 -1       150 9.23434E+01 1.71021E+01 0.00000E+00
 -1       151 9.22731E+01 1.85532E+01 0.00000E+00
 -1       152 9.25060E+01 1.99957E+01 0.00000E+00
 -1       153 9.30790E+01 2.14459E+01 0.00000E+00
 -1       154 9.38936E+01 2.26565E+01 0.00000E+00
 -1       155 9.50199E+01 2.37326E+01 0.00000E+00
 -1       156 9.64412E+01 2.45709E+01 0.00000E+00
 -1       157 9.94409E+01 2.51623E+01 0.00000E+00
 -1       158 1.00955E+02 2.49568E+01 0.00000E+00
 -1       159 1.02388E+02 2.44279E+01 0.00000E+00
 -1       160 1.03663E+02 2.36084E+01 0.00000E+00
 -1       161 1.04768E+02 2.24879E+01 0.00000E+00
 -1       162 1.05585E+02 2.11683E+01 0.00000E+00
 -1       163 1.06088E+02 1.97171E+01 0.00000E+00
 -1       164 2.59800E+00 4.55750E+01 0.00000E+00
 -1       165 2.59800E+00 4.26250E+01 0.00000E+00
 -1       166 2.59800E+00 3.96750E+01 0.00000E+00
 -1       167 2.59800E+00 3.67250E+01 0.00000E+00
 -1       168 2.59800E+00 3.38250E+01 0.00000E+00
 -1       169 2.59800E+00 3.08750E+01 0.00000E+00
 -1       170 2.59800E+00 2.79250E+01 0.00000E+00
 -1       171 2.59800E+00 2.49750E+01 0.00000E+00
 -1       172 2.59800E+00 2.20250E+01 0.00000E+00
 -1       173 2.59800E+00 1.90750E+01 0.00000E+00
 -1       174 2.59800E+00 1.61750E+01 0.00000E+00
 -1       175 2.59800E+00 1.32250E+01 0.00000E+00
 -1       176 2.59800E+00 1.02750E+01 0.00000E+00
 -1       177 2.59800E+00 7.32500E+00 0.00000E+00
 -1       178 2.59800E+00 4.37500E+00 0.00000E+00
 -1       179 2.87400E+00 2.18750E+00 0.00000E+00
 -1       180 4.65000E+00 4.74020E+01 0.00000E+00
 -1       181 7.65000E+00 4.74020E+01 0.00000E+00
 -1       182 1.06500E+01 4.74020E+01 0.00000E+00
 -1       183 1.36500E+01 4.74020E+01 0.00000E+00
 -1       184 1.66500E+01 4.74020E+01 0.00000E+00
 -1       185 1.96500E+01 4.74020E+01 0.00000E+00
 -1       186 2.26500E+01 4.74020E+01 0.00000E+00
 -1       187 2.56500E+01 4.74020E+01 0.00000E+00
 -1       188 2.86500E+01 4.74020E+01 0.00000E+00
 -1       189 3.16500E+01 4.74020E+01 0.00000E+00
 -1       190 3.46500E+01 4.74020E+01 0.00000E+00
 -1       191 3.76500E+01 4.74020E+01 0.00000E+00
 -1       192 4.06500E+01 4.74020E+01 0.00000E+00
 -1       193 4.36500E+01 4.74020E+01 0.00000E+00
 -1       194 4.66500E+01 4.74020E+01 0.00000E+00
 -1       195 4.96500E+01 4.74020E+01 0.00000E+00
 -1       196 5.26500E+01 4.74020E+01 0.00000E+00
 -1       197 5.56500E+01 4.74020E+01 0.00000E+00
 -1       198 5.86500E+01 4.74020E+01 0.00000E+00
 -1       199 6.16500E+01 4.74020E+01 0.00000E+00
 -1       200 6.46500E+01 4.74020E+01 0.00000E+00
 -1       201 6.76500E+01 4.74020E+01 0.00000E+00
 -1       202 7.06500E+01 4.74020E+01 0.00000E+00
 -1       203 7.36500E+01 4.74020E+01 0.00000E+00
 -1       204 7.66500E+01 4.74020E+01 0.00000E+00
 -1       205 7.96500E+01 4.74020E+01 0.00000E+00
 -1       206 8.26500E+01 4.74020E+01 0.00000E+00
 -1       207 8.56500E+01 4.74020E+01 0.00000E+00
 -1       208 8.86500E+01 4.74020E+01 0.00000E+00
 -1       209 9.16500E+01 4.74020E+01 0.00000E+00
 -1       210 9.46500E+01 4.74020E+01 0.00000E+00
 -1       211 9.76500E+01 4.74020E+01 0.00000E+00
 -1       212 1.00650E+02 4.74020E+01 0.00000E+00
 -1       213 1.03650E+02 4.74020E+01 0.00000E+00
 -1       214 1.06650E+02 4.74020E+01 0.00000E+00
 -1       215 1.09650E+02 4.74020E+01 0.00000E+00
 -1       216 1.12650E+02 4.74020E+01 0.00000E+00
 -1       217 1.15650E+02 4.74020E+01 0.00000E+00
 -1       218 1.18650E+02 4.74020E+01 0.00000E+00
 -1       219 1.21650E+02 4.74020E+01 0.00000E+00
 -1       220 1.24650E+02 4.74020E+01 0.00000E+00
 -1       221 1.27650E+02 4.74020E+01 0.00000E+00
 -1       222 1.30650E+02 4.74020E+01 0.00000E+00
 -1       223 1.33650E+02 4.74020E+01 0.00000E+00
 -1       224 1.36650E+02 4.74020E+01 0.00000E+00
 -1       225 1.39650E+02 4.74020E+01 0.00000E+00
 -1       226 1.42650E+02 4.74020E+01 0.00000E+00
 -1       227 1.45650E+02 4.74020E+01 0.00000E+00
 -1       228 5.87400E+00 2.18750E+00 0.00000E+00
 -1       229 8.87400E+00 2.18750E+00 0.00000E+00
 -1       230 1.18740E+01 2.18750E+00 0.00000E+00
 -1       231 1.48740E+01 2.18750E+00 0.00000E+00
 -1       232 1.78740E+01 2.18750E+00 0.00000E+00
 -1       233 2.08740E+01 2.18750E+00 0.00000E+00
 -1       234 2.38740E+01 2.18750E+00 0.00000E+00
 -1       235 2.68740E+01 2.18750E+00 0.00000E+00
 -1       236 2.98740E+01 2.18750E+00 0.00000E+00
 -1       237 3.28740E+01 2.18750E+00 0.00000E+00
 -1       238 3.58740E+01 2.18750E+00 0.00000E+00
 -1       239 3.88740E+01 2.18750E+00 0.00000E+00
 -1       240 4.18740E+01 2.18750E+00 0.00000E+00
 -1       241 4.48740E+01 2.18750E+00 0.00000E+00
 -1       242 4.78740E+01 2.18750E+00 0.00000E+00
 -1       243 5.08740E+01 2.18750E+00 0.00000E+00
 -1       244 5.38740E+01 2.18750E+00 0.00000E+00
 -1       245 5.68740E+01 2.18750E+00 0.00000E+00
 -1       246 5.98740E+01 2.18750E+00 0.00000E+00
 -1       247 6.28740E+01 2.18750E+00 0.00000E+00
 -1       248 6.58740E+01 2.18750E+00 0.00000E+00
 -1       249 6.88740E+01 2.18750E+00 0.00000E+00
 -1       250 7.18740E+01 2.18750E+00 0.00000E+00
 -1       251 7.48740E+01 2.18750E+00 0.00000E+00
 -1       252 7.78740E+01 2.18750E+00 0.00000E+00
 -1       253 8.08740E+01 2.18750E+00 0.00000E+00
 -1       254 8.38740E+01 2.18750E+00 0.00000E+00
 -1       255 8.68740E+01 2.18750E+00 0.00000E+00
 -1       256 8.98740E+01 2.18750E+00 0.00000E+00
 -1       257 9.28740E+01 2.18750E+00 0.00000E+00
 -1       258 9.58740E+01 2.18750E+00 0.00000E+00
 -1       259 9.88740E+01 2.18750E+00 0.00000E+00
 -1       260 1.01874E+02 2.18750E+00 0.00000E+00
 -1       261 1.04874E+02 2.18750E+00 0.00000E+00
 -1       262 1.07874E+02 2.18750E+00 0.00000E+00
 -1       263 1.10874E+02 2.18750E+00 0.00000E+00
 -1       264 1.13874E+02 2.18750E+00 0.00000E+00
 -1       265 1.16874E+02 2.18750E+00 0.00000E+00
 -1       266 1.19874E+02 2.18750E+00 0.00000E+00
 -1       267 1.22874E+02 2.18750E+00 0.00000E+00
 -1       268 1.25874E+02 2.18750E+00 0.00000E+00
 -1       269 1.28874E+02 2.18750E+00 0.00000E+00
 -1       270 1.31874E+02 2.18750E+00 0.00000E+00
 -1       271 1.34874E+02 2.18750E+00 0.00000E+00
 -1       272 1.37874E+02 2.18750E+00 0.00000E+00
 -1       273 1.40874E+02 2.18750E+00 0.00000E+00
 -1       274 1.43874E+02 2.18750E+00 0.00000E+00
 -1       275 1.46874E+02 2.18750E+00 0.00000E+00
 -1       276 1.47402E+02 4.42500E+00 0.00000E+00
 -1       277 1.47402E+02 7.37500E+00 0.00000E+00
 -1       278 1.47402E+02 1.03250E+01 0.00000E+00
 -1       279 1.47402E+02 1.32750E+01 0.00000E+00
 -1       280 1.47402E+02 1.61750E+01 0.00000E+00
 -1       281 1.47402E+02 1.91250E+01 0.00000E+00
 -1       282 1.47402E+02 2.20750E+01 0.00000E+00
 -1       283 1.47402E+02 2.50250E+01 0.00000E+00
 -1       284 1.47402E+02 2.79750E+01 0.00000E+00
 -1       285 1.47402E+02 3.09250E+01 0.00000E+00
 -1       286 1.47402E+02 3.38250E+01 0.00000E+00
 -1       287 1.47402E+02 3.67750E+01 0.00000E+00
 -1       288 1.47402E+02 3.97250E+01 0.00000E+00
 -1       289 1.47402E+02 4.26750E+01 0.00000E+00
 -1       290 1.46526E+02 4.50385E+01 0.00000E+00
 -1       291 1.07553E+02 1.72647E+01 0.00000E+00
 -1       292 1.07026E+02 1.56027E+01 0.00000E+00
 -1       293 1.06404E+02 1.40191E+01 0.00000E+00
 -1       294 1.05422E+02 1.25441E+01 0.00000E+00
 -1       295 1.04074E+02 1.11609E+01 0.00000E+00
 -1       296 1.02261E+02 1.05615E+01 0.00000E+00
 -1       297 1.00607E+02 1.00179E+01 0.00000E+00
 -1       298 9.88783E+01 9.99941E+00 0.00000E+00
 -1       299 9.70911E+01 1.01161E+01 0.00000E+00
 -1       300 9.52591E+01 1.06646E+01 0.00000E+00
 -1       301 9.39637E+01 1.19358E+01 0.00000E+00
 -1       302 9.28328E+01 1.31117E+01 0.00000E+00
 -1       303 9.17847E+01 1.44716E+01 0.00000E+00
 -1       304 9.13427E+01 1.61262E+01 0.00000E+00
 -1       305 9.10135E+01 1.77649E+01 0.00000E+00
 -1       306 9.11926E+01 1.94677E+01 0.00000E+00
 -1       307 9.15091E+01 2.12279E+01 0.00000E+00
 -1       308 9.24109E+01 2.27749E+01 0.00000E+00
 -1       309 9.35614E+01 2.41318E+01 0.00000E+00
 -1       310 9.49017E+01 2.55568E+01 0.00000E+00
 -1       311 9.67450E+01 2.61146E+01 0.00000E+00
 -1       312 9.85494E+01 2.63861E+01 0.00000E+00
 -1       313 1.00361E+02 2.62609E+01 0.00000E+00
 -1       314 1.02092E+02 2.58297E+01 0.00000E+00
 -1       315 1.03681E+02 2.50380E+01 0.00000E+00
 -1       316 1.05138E+02 2.39582E+01 0.00000E+00
 -1       317 1.06207E+02 2.24666E+01 0.00000E+00
 -1       318 1.07061E+02 2.08671E+01 0.00000E+00
 -1       319 1.07463E+02 1.90855E+01 0.00000E+00
 -1       320 5.19600E+00 4.11500E+01 0.00000E+00
 -1       321 5.19600E+00 4.41000E+01 0.00000E+00
 -1       322 5.19600E+00 3.52750E+01 0.00000E+00
 -1       323 5.19600E+00 3.23250E+01 0.00000E+00
 -1       324 5.19600E+00 2.93750E+01 0.00000E+00
 -1       325 5.19600E+00 2.64250E+01 0.00000E+00
 -1       326 5.19600E+00 2.34750E+01 0.00000E+00
 -1       327 5.19600E+00 2.05250E+01 0.00000E+00
 -1       328 5.19600E+00 1.76250E+01 0.00000E+00
 -1       329 5.19600E+00 1.46750E+01 0.00000E+00
 -1       330 5.19600E+00 1.17250E+01 0.00000E+00
 -1       331 5.19600E+00 8.77500E+00 0.00000E+00
 -1       332 5.19600E+00 5.82500E+00 0.00000E+00
 -1       333 5.53500E+00 4.00625E+00 0.00000E+00
 -1       334 8.53500E+00 4.00625E+00 0.00000E+00
 -1       335 9.15000E+00 4.48040E+01 0.00000E+00
 -1       336 1.21500E+01 4.48040E+01 0.00000E+00
 -1       337 1.51500E+01 4.48040E+01 0.00000E+00
 -1       338 1.81500E+01 4.48040E+01 0.00000E+00
 -1       339 2.11500E+01 4.48040E+01 0.00000E+00
 -1       340 2.41500E+01 4.48040E+01 0.00000E+00
 -1       341 2.71500E+01 4.48040E+01 0.00000E+00
 -1       342 3.01500E+01 4.48040E+01 0.00000E+00
 -1       343 3.31500E+01 4.48040E+01 0.00000E+00
 -1       344 3.61500E+01 4.48040E+01 0.00000E+00
 -1       345 3.91500E+01 4.48040E+01 0.00000E+00
 -1       346 4.21500E+01 4.48040E+01 0.00000E+00
 -1       347 4.51500E+01 4.48040E+01 0.00000E+00
 -1       348 4.81500E+01 4.48040E+01 0.00000E+00
 -1       349 5.11500E+01 4.48040E+01 0.00000E+00
 -1       350 5.41500E+01 4.48040E+01 0.00000E+00
 -1       351 5.71500E+01 4.48040E+01 0.00000E+00
 -1       352 6.01500E+01 4.48040E+01 0.00000E+00
 -1       353 6.31500E+01 4.48040E+01 0.00000E+00
 -1       354 6.61500E+01 4.48040E+01 0.00000E+00
 -1       355 6.91500E+01 4.48040E+01 0.00000E+00
 -1       356 7.21500E+01 4.48040E+01 0.00000E+00
 -1       357 7.51500E+01 4.48040E+01 0.00000E+00
 -1       358 7.81500E+01 4.48040E+01 0.00000E+00
 -1       359 8.11500E+01 4.48040E+01 0.00000E+00
 -1       360 8.41500E+01 4.48040E+01 0.00000E+00
 -1       361 8.71500E+01 4.48040E+01 0.00000E+00
 -1       362 9.01500E+01 4.48040E+01 0.00000E+00
 -1       363 9.31500E+01 4.48040E+01 0.00000E+00
 -1       364 9.61500E+01 4.48040E+01 0.00000E+00
 -1       365 9.91500E+01 4.48040E+01 0.00000E+00
 -1       366 1.02150E+02 4.48040E+01 0.00000E+00
 -1       367 1.05150E+02 4.48040E+01 0.00000E+00
 -1       368 1.08150E+02 4.48040E+01 0.00000E+00
 -1       369 1.11150E+02 4.48040E+01 0.00000E+00
 -1       370 1.14150E+02 4.48040E+01 0.00000E+00
 -1       371 1.17150E+02 4.48040E+01 0.00000E+00
 -1       372 1.20150E+02 4.48040E+01 0.00000E+00
 -1       373 1.23150E+02 4.48040E+01 0.00000E+00
 -1       374 1.26150E+02 4.48040E+01 0.00000E+00
 -1       375 1.29150E+02 4.48040E+01 0.00000E+00
 -1       376 1.32150E+02 4.48040E+01 0.00000E+00
 -1       377 1.35150E+02 4.48040E+01 0.00000E+00
 -1       378 1.38150E+02 4.48040E+01 0.00000E+00
 -1       379 1.41150E+02 4.48040E+01 0.00000E+00
 -1       380 1.43838E+02 4.49212E+01 0.00000E+00
 -1       381 1.15350E+01 4.00625E+00 0.00000E+00
 -1       382 1.45350E+01 4.00625E+00 0.00000E+00
 -1       383 1.75350E+01 4.00625E+00 0.00000E+00
 -1       384 2.05350E+01 4.00625E+00 0.00000E+00
 -1       385 2.35350E+01 4.00625E+00 0.00000E+00
 -1       386 2.65350E+01 4.00625E+00 0.00000E+00
 -1       387 2.95350E+01 4.00625E+00 0.00000E+00
 -1       388 3.25350E+01 4.00625E+00 0.00000E+00
 -1       389 3.55350E+01 4.00625E+00 0.00000E+00
 -1       390 3.85350E+01 4.00625E+00 0.00000E+00
 -1       391 4.15350E+01 4.00625E+00 0.00000E+00
 -1       392 4.45350E+01 4.00625E+00 0.00000E+00
 -1       393 4.75350E+01 4.00625E+00 0.00000E+00
 -1       394 5.05350E+01 4.00625E+00 0.00000E+00
 -1       395 5.35350E+01 4.00625E+00 0.00000E+00
 -1       396 5.65350E+01 4.00625E+00 0.00000E+00
 -1       397 5.95350E+01 4.00625E+00 0.00000E+00
 -1       398 6.25350E+01 4.00625E+00 0.00000E+00
 -1       399 6.55350E+01 4.00625E+00 0.00000E+00
 -1       400 6.85350E+01 4.00625E+00 0.00000E+00
 -1       401 7.15350E+01 4.00625E+00 0.00000E+00
 -1       402 7.45350E+01 4.00625E+00 0.00000E+00
 -1       403 7.75350E+01 4.00625E+00 0.00000E+00
 -1       404 8.05350E+01 4.00625E+00 0.00000E+00
 -1       405 8.35350E+01 4.00625E+00 0.00000E+00
 -1       406 8.65350E+01 4.00625E+00 0.00000E+00
 -1       407 8.95350E+01 4.00625E+00 0.00000E+00
 -1       408 9.25350E+01 4.00625E+00 0.00000E+00
 -1       409 9.55350E+01 4.00625E+00 0.00000E+00
 -1       410 9.85350E+01 4.00625E+00 0.00000E+00
 -1       411 1.01535E+02 4.00625E+00 0.00000E+00
 -1       412 1.04535E+02 4.00625E+00 0.00000E+00
 -1       413 1.07535E+02 4.00625E+00 0.00000E+00
 -1       414 1.10535E+02 4.00625E+00 0.00000E+00
 -1       415 1.13535E+02 4.00625E+00 0.00000E+00
 -1       416 1.16535E+02 4.00625E+00 0.00000E+00
 -1       417 1.19535E+02 4.00625E+00 0.00000E+00
 -1       418 1.22535E+02 4.00625E+00 0.00000E+00
 -1       419 1.25535E+02 4.00625E+00 0.00000E+00
 -1       420 1.28535E+02 4.00625E+00 0.00000E+00
 -1       421 1.31535E+02 4.00625E+00 0.00000E+00
 -1       422 1.34535E+02 4.00625E+00 0.00000E+00
 -1       423 1.37535E+02 4.00625E+00 0.00000E+00
 -1       424 1.40535E+02 4.00625E+00 0.00000E+00
 -1       425 1.43535E+02 4.00625E+00 0.00000E+00
 -1       426 1.45469E+02 4.21562E+00 0.00000E+00
 -1       427 1.44804E+02 1.18000E+01 0.00000E+00
 -1       428 1.44804E+02 8.85000E+00 0.00000E+00
 -1       429 1.45136E+02 6.53281E+00 0.00000E+00
 -1       430 1.44804E+02 1.47000E+01 0.00000E+00
 -1       431 1.44804E+02 1.76500E+01 0.00000E+00
 -1       432 1.44804E+02 2.06000E+01 0.00000E+00
 -1       433 1.44804E+02 2.35500E+01 0.00000E+00
 -1       434 1.44804E+02 2.65000E+01 0.00000E+00
 -1       435 1.44804E+02 2.94500E+01 0.00000E+00
 -1       436 1.44804E+02 3.23500E+01 0.00000E+00
 -1       437 1.44804E+02 3.53000E+01 0.00000E+00
 -1       438 1.44804E+02 3.82500E+01 0.00000E+00
 -1       439 1.44804E+02 4.12000E+01 0.00000E+00
 -1       440 1.08078E+02 1.42757E+01 0.00000E+00
 -1       441 1.08886E+02 1.82428E+01 0.00000E+00
 -1       442 1.08604E+02 1.59377E+01 0.00000E+00
 -1       443 1.07061E+02 1.25166E+01 0.00000E+00
 -1       444 1.05856E+02 1.07724E+01 0.00000E+00
 -1       445 5.19600E+00 3.82125E+01 0.00000E+00
 -1       446 1.01969E+02 8.66030E+00 0.00000E+00
 -1       447 9.97562E+01 8.71252E+00 0.00000E+00
 -1       448 9.78947E+01 8.68074E+00 0.00000E+00
 -1       449 9.57313E+01 8.90786E+00 0.00000E+00
 -1       450 9.34688E+01 1.01358E+01 0.00000E+00
 -1       451 9.23380E+01 1.13117E+01 0.00000E+00
 -1       452 9.12821E+01 1.30004E+01 0.00000E+00
 -1       453 9.02305E+01 1.49427E+01 0.00000E+00
 -1       454 8.99073E+01 1.66903E+01 0.00000E+00
 -1       455 8.96474E+01 1.87694E+01 0.00000E+00
 -1       456 8.99638E+01 2.05296E+01 0.00000E+00
 -1       457 9.06954E+01 2.27386E+01 0.00000E+00
 -1       458 9.19336E+01 2.43457E+01 0.00000E+00
 -1       459 9.31653E+01 2.58471E+01 0.00000E+00
 -1       460 9.53994E+01 2.72367E+01 0.00000E+00
 -1       461 9.74170E+01 2.77807E+01 0.00000E+00
 -1       462 9.95504E+01 2.77002E+01 0.00000E+00
 -1       463 1.01580E+02 2.74656E+01 0.00000E+00
 -1       464 1.03614E+02 2.68941E+01 0.00000E+00
 -1       465 1.05181E+02 2.55395E+01 0.00000E+00
 -1       466 1.06794E+02 2.40162E+01 0.00000E+00
 -1       467 1.08073E+02 2.24353E+01 0.00000E+00
 -1       468 1.08690E+02 2.02984E+01 0.00000E+00
 -1       469 1.03782E+02 9.25975E+00 0.00000E+00
 -1       470 9.36630E+01 2.75271E+01 0.00000E+00
 -1       471 1.00350E+01 6.60425E+00 0.00000E+00
 -1       472 7.79400E+00 3.08500E+01 0.00000E+00
 -1       473 7.79400E+00 3.38000E+01 0.00000E+00
 -1       474 7.79400E+00 2.49500E+01 0.00000E+00
 -1       475 7.79400E+00 2.20000E+01 0.00000E+00
 -1       476 7.79400E+00 1.91000E+01 0.00000E+00
 -1       477 7.79400E+00 1.61500E+01 0.00000E+00
 -1       478 7.79400E+00 1.32000E+01 0.00000E+00
 -1       479 7.79400E+00 1.02500E+01 0.00000E+00
 -1       480 1.30350E+01 6.60425E+00 0.00000E+00
 -1       481 1.06500E+01 4.22060E+01 0.00000E+00
 -1       482 7.92300E+00 4.16780E+01 0.00000E+00
 -1       483 1.06027E+02 8.35958E+00 0.00000E+00
 -1       484 1.36500E+01 4.22060E+01 0.00000E+00
 -1       485 1.66500E+01 4.22060E+01 0.00000E+00
 -1       486 1.96500E+01 4.22060E+01 0.00000E+00
 -1       487 2.26500E+01 4.22060E+01 0.00000E+00
 -1       488 2.56500E+01 4.22060E+01 0.00000E+00
 -1       489 2.86500E+01 4.22060E+01 0.00000E+00
 -1       490 3.16500E+01 4.22060E+01 0.00000E+00
 -1       491 3.46500E+01 4.22060E+01 0.00000E+00
 -1       492 3.76500E+01 4.22060E+01 0.00000E+00
 -1       493 4.06500E+01 4.22060E+01 0.00000E+00
 -1       494 4.36500E+01 4.22060E+01 0.00000E+00
 -1       495 4.66500E+01 4.22060E+01 0.00000E+00
 -1       496 4.96500E+01 4.22060E+01 0.00000E+00
 -1       497 5.26500E+01 4.22060E+01 0.00000E+00
 -1       498 5.56500E+01 4.22060E+01 0.00000E+00
 -1       499 5.86500E+01 4.22060E+01 0.00000E+00
 -1       500 6.16500E+01 4.22060E+01 0.00000E+00
 -1       501 6.46500E+01 4.22060E+01 0.00000E+00
 -1       502 6.76500E+01 4.22060E+01 0.00000E+00
 -1       503 7.06500E+01 4.22060E+01 0.00000E+00
 -1       504 7.36500E+01 4.22060E+01 0.00000E+00
 -1       505 7.66500E+01 4.22060E+01 0.00000E+00
 -1       506 7.96500E+01 4.22060E+01 0.00000E+00
 -1       507 8.26500E+01 4.22060E+01 0.00000E+00
 -1       508 8.56500E+01 4.22060E+01 0.00000E+00
 -1       509 8.86500E+01 4.22060E+01 0.00000E+00
 -1       510 9.16500E+01 4.22060E+01 0.00000E+00
 -1       511 9.46500E+01 4.22060E+01 0.00000E+00
 -1       512 9.76500E+01 4.22060E+01 0.00000E+00
 -1       513 1.00650E+02 4.22060E+01 0.00000E+00
 -1       514 1.03650E+02 4.22060E+01 0.00000E+00
 -1       515 1.06650E+02 4.22060E+01 0.00000E+00
 -1       516 1.09650E+02 4.22060E+01 0.00000E+00
 -1       517 1.12650E+02 4.22060E+01 0.00000E+00
 -1       518 1.15650E+02 4.22060E+01 0.00000E+00
 -1       519 1.18650E+02 4.22060E+01 0.00000E+00
 -1       520 1.21650E+02 4.22060E+01 0.00000E+00
 -1       521 1.24650E+02 4.22060E+01 0.00000E+00
 -1       522 1.27650E+02 4.22060E+01 0.00000E+00
 -1       523 1.30650E+02 4.22060E+01 0.00000E+00
 -1       524 1.33650E+02 4.22060E+01 0.00000E+00
 -1       525 1.36650E+02 4.22060E+01 0.00000E+00
 -1       526 1.39650E+02 4.22060E+01 0.00000E+00
 -1       527 1.09816E+02 1.46394E+01 0.00000E+00
 -1       528 1.90350E+01 6.60425E+00 0.00000E+00
 -1       529 2.20350E+01 6.60425E+00 0.00000E+00
 -1       530 2.50350E+01 6.60425E+00 0.00000E+00
 -1       531 2.80350E+01 6.60425E+00 0.00000E+00
 -1       532 3.10350E+01 6.60425E+00 0.00000E+00
 -1       533 3.40350E+01 6.60425E+00 0.00000E+00
 -1       534 3.70350E+01 6.60425E+00 0.00000E+00
 -1       535 4.00350E+01 6.60425E+00 0.00000E+00
 -1       536 4.30350E+01 6.60425E+00 0.00000E+00
 -1       537 4.60350E+01 6.60425E+00 0.00000E+00
 -1       538 4.90350E+01 6.60425E+00 0.00000E+00
 -1       539 5.20350E+01 6.60425E+00 0.00000E+00
 -1       540 5.50350E+01 6.60425E+00 0.00000E+00
 -1       541 5.80350E+01 6.60425E+00 0.00000E+00
 -1       542 6.10350E+01 6.60425E+00 0.00000E+00
 -1       543 6.40350E+01 6.60425E+00 0.00000E+00
 -1       544 6.70350E+01 6.60425E+00 0.00000E+00
 -1       545 7.00350E+01 6.60425E+00 0.00000E+00
 -1       546 7.30350E+01 6.60425E+00 0.00000E+00
 -1       547 7.60350E+01 6.60425E+00 0.00000E+00
 -1       548 7.90350E+01 6.60425E+00 0.00000E+00
 -1       549 8.20350E+01 6.60425E+00 0.00000E+00
 -1       550 8.50350E+01 6.60425E+00 0.00000E+00
 -1       551 8.80350E+01 6.60425E+00 0.00000E+00
 -1       552 9.10350E+01 6.60425E+00 0.00000E+00
 -1       553 9.70350E+01 6.22407E+00 0.00000E+00
 -1       554 1.00035E+02 6.22407E+00 0.00000E+00
 -1       555 1.03035E+02 6.22407E+00 0.00000E+00
 -1       556 1.09027E+02 8.35958E+00 0.00000E+00
 -1       557 1.12027E+02 8.35958E+00 0.00000E+00
 -1       558 1.15027E+02 8.35958E+00 0.00000E+00
 -1       559 1.18027E+02 8.35958E+00 0.00000E+00
 -1       560 1.21027E+02 8.35958E+00 0.00000E+00
 -1       561 1.24027E+02 8.35958E+00 0.00000E+00
 -1       562 1.27027E+02 8.35958E+00 0.00000E+00
 -1       563 1.30027E+02 8.35958E+00 0.00000E+00
 -1       564 1.33027E+02 8.35958E+00 0.00000E+00
 -1       565 1.36027E+02 8.35958E+00 0.00000E+00
 -1       566 1.39027E+02 8.35958E+00 0.00000E+00
 -1       567 1.42206E+02 1.61750E+01 0.00000E+00
 -1       568 1.42206E+02 1.91250E+01 0.00000E+00
 -1       569 1.42206E+02 1.03250E+01 0.00000E+00
 -1       570 1.42206E+02 1.32500E+01 0.00000E+00
 -1       571 1.42206E+02 2.20750E+01 0.00000E+00
 -1       572 1.42206E+02 2.50250E+01 0.00000E+00
 -1       573 1.42206E+02 2.79750E+01 0.00000E+00
 -1       574 1.42206E+02 3.08750E+01 0.00000E+00
 -1       575 1.42206E+02 3.38250E+01 0.00000E+00
 -1       576 1.42206E+02 3.67750E+01 0.00000E+00
 -1       577 1.42206E+02 3.97250E+01 0.00000E+00
 -1       578 1.10496E+02 1.94335E+01 0.00000E+00
 -1       579 1.60350E+01 6.60425E+00 0.00000E+00
 -1       580 1.09055E+02 1.25383E+01 0.00000E+00
 -1       581 1.09868E+02 2.17962E+01 0.00000E+00
 -1       582 1.03414E+02 7.33163E+00 0.00000E+00
 -1       583 1.07870E+02 1.06693E+01 0.00000E+00
 -1       584 8.81586E+01 1.75275E+01 0.00000E+00
 -1       585 9.37020E+01 7.86716E+00 0.00000E+00
 -1       586 7.79400E+00 2.79000E+01 0.00000E+00
 -1       587 9.88505E+01 7.23309E+00 0.00000E+00
 -1       588 8.94691E+01 1.32746E+01 0.00000E+00
 -1       589 1.01132E+02 7.28236E+00 0.00000E+00
 -1       590 9.66427E+01 7.17189E+00 0.00000E+00
 -1       591 9.16672E+01 9.53494E+00 0.00000E+00
 -1       592 8.99558E+01 2.45889E+01 0.00000E+00
 -1       593 9.06113E+01 1.12236E+01 0.00000E+00
 -1       594 8.86295E+01 1.55503E+01 0.00000E+00
 -1       595 8.81175E+01 1.99530E+01 0.00000E+00
 -1       596 8.88492E+01 2.21620E+01 0.00000E+00
 -1       597 9.11876E+01 2.60903E+01 0.00000E+00
 -1       598 9.59836E+01 2.90838E+01 0.00000E+00
 -1       599 9.85420E+01 2.92869E+01 0.00000E+00
 -1       600 1.00762E+02 2.92867E+01 0.00000E+00
 -1       601 1.03152E+02 2.91536E+01 0.00000E+00
 -1       602 1.05354E+02 2.73244E+01 0.00000E+00
 -1       603 1.06993E+02 2.58420E+01 0.00000E+00
 -1       604 1.08572E+02 2.41463E+01 0.00000E+00
 -1       605 1.10198E+02 1.69124E+01 0.00000E+00
 -1       606 7.61550E+00 6.21462E+00 0.00000E+00
 -1       607 7.79400E+00 3.67375E+01 0.00000E+00
 -1       608 1.10367E+02 2.35072E+01 0.00000E+00
 -1       609 1.42669E+02 6.42812E+00 0.00000E+00
 -1       610 1.41678E+02 4.22645E+01 0.00000E+00
 -1       611 9.42472E+01 2.93741E+01 0.00000E+00
 -1       612 9.16852E+01 2.77702E+01 0.00000E+00
 -1       613 1.03920E+01 2.05500E+01 0.00000E+00
 -1       614 1.03920E+01 2.35000E+01 0.00000E+00
 -1       615 1.03920E+01 1.46750E+01 0.00000E+00
 -1       616 1.03920E+01 1.17250E+01 0.00000E+00
 -1       617 1.15350E+01 9.20225E+00 0.00000E+00
 -1       618 1.10052E+02 1.05956E+01 0.00000E+00
 -1       619 1.45350E+01 9.20225E+00 0.00000E+00
 -1       620 9.78035E+00 3.93914E+01 0.00000E+00
 -1       621 1.27804E+01 3.93914E+01 0.00000E+00
 -1       622 1.57804E+01 3.93914E+01 0.00000E+00
 -1       623 1.87804E+01 3.93914E+01 0.00000E+00
 -1       624 2.17804E+01 3.93914E+01 0.00000E+00
 -1       625 2.47804E+01 3.93914E+01 0.00000E+00
 -1       626 2.77804E+01 3.93914E+01 0.00000E+00
 -1       627 3.07804E+01 3.93914E+01 0.00000E+00
 -1       628 3.37803E+01 3.93914E+01 0.00000E+00
 -1       629 3.67803E+01 3.93914E+01 0.00000E+00
 -1       630 3.97803E+01 3.93914E+01 0.00000E+00
 -1       631 4.27803E+01 3.93914E+01 0.00000E+00
 -1       632 4.57803E+01 3.93914E+01 0.00000E+00
 -1       633 4.87803E+01 3.93914E+01 0.00000E+00
 -1       634 5.17803E+01 3.93914E+01 0.00000E+00
 -1       635 5.47803E+01 3.93914E+01 0.00000E+00
 -1       636 5.77803E+01 3.93914E+01 0.00000E+00
 -1       637 6.07803E+01 3.93914E+01 0.00000E+00
 -1       638 6.37803E+01 3.93914E+01 0.00000E+00
 -1       639 6.67803E+01 3.93914E+01 0.00000E+00
 -1       640 6.97803E+01 3.93914E+01 0.00000E+00
 -1       641 7.27803E+01 3.93914E+01 0.00000E+00
 -1       642 7.57803E+01 3.93914E+01 0.00000E+00
 -1       643 7.87803E+01 3.93914E+01 0.00000E+00
 -1       644 8.17803E+01 3.93914E+01 0.00000E+00
 -1       645 8.47803E+01 3.93914E+01 0.00000E+00
 -1       646 8.77803E+01 3.93914E+01 0.00000E+00
 -1       647 9.07803E+01 3.93914E+01 0.00000E+00
 -1       648 9.37803E+01 3.93914E+01 0.00000E+00
 -1       649 9.67803E+01 3.93914E+01 0.00000E+00
 -1       650 9.97803E+01 3.93914E+01 0.00000E+00
 -1       651 1.02780E+02 3.93914E+01 0.00000E+00
 -1       652 1.05780E+02 3.93914E+01 0.00000E+00
 -1       653 1.08780E+02 3.93914E+01 0.00000E+00
 -1       654 1.11780E+02 3.93914E+01 0.00000E+00
 -1       655 1.14780E+02 3.93914E+01 0.00000E+00
 -1       656 1.17780E+02 3.93914E+01 0.00000E+00
 -1       657 1.20780E+02 3.93914E+01 0.00000E+00
 -1       658 1.23780E+02 3.93914E+01 0.00000E+00
 -1       659 1.26780E+02 3.93914E+01 0.00000E+00
 -1       660 1.29780E+02 3.93914E+01 0.00000E+00
 -1       661 1.32780E+02 3.93914E+01 0.00000E+00
 -1       662 1.35780E+02 3.93914E+01 0.00000E+00
 -1       663 1.38780E+02 3.93914E+01 0.00000E+00
 -1       664 1.02052E+02 3.09326E+01 0.00000E+00
 -1       665 2.05350E+01 9.20225E+00 0.00000E+00
 -1       666 2.95350E+01 9.20225E+00 0.00000E+00
 -1       667 3.25350E+01 9.20225E+00 0.00000E+00
 -1       668 3.55350E+01 9.20225E+00 0.00000E+00
 -1       669 3.85350E+01 9.20225E+00 0.00000E+00
 -1       670 4.15350E+01 9.20225E+00 0.00000E+00
 -1       671 4.45350E+01 9.20225E+00 0.00000E+00
 -1       672 4.75350E+01 9.20225E+00 0.00000E+00
 -1       673 5.05350E+01 9.20225E+00 0.00000E+00
 -1       674 5.35350E+01 9.20225E+00 0.00000E+00
 -1       675 5.65350E+01 9.20225E+00 0.00000E+00
 -1       676 5.95350E+01 9.20225E+00 0.00000E+00
 -1       677 6.25350E+01 9.20225E+00 0.00000E+00
 -1       678 6.55350E+01 9.20225E+00 0.00000E+00
 -1       679 6.85350E+01 9.20225E+00 0.00000E+00
 -1       680 7.15350E+01 9.20225E+00 0.00000E+00
 -1       681 7.45350E+01 9.20225E+00 0.00000E+00
 -1       682 7.75350E+01 9.20225E+00 0.00000E+00
 -1       683 8.05350E+01 9.20225E+00 0.00000E+00
 -1       684 8.35350E+01 9.20225E+00 0.00000E+00
 -1       685 8.65350E+01 9.20225E+00 0.00000E+00
 -1       686 8.91011E+01 9.36860E+00 0.00000E+00
 -1       687 1.40493E+02 3.95582E+01 0.00000E+00
 -1       688 1.05295E+02 2.94940E+01 0.00000E+00
 -1       689 1.16527E+02 1.09576E+01 0.00000E+00
 -1       690 1.19527E+02 1.09576E+01 0.00000E+00
 -1       691 1.22527E+02 1.09576E+01 0.00000E+00
 -1       692 1.25527E+02 1.09576E+01 0.00000E+00
 -1       693 1.28527E+02 1.09576E+01 0.00000E+00
 -1       694 1.31527E+02 1.09576E+01 0.00000E+00
 -1       695 1.34527E+02 1.09576E+01 0.00000E+00
 -1       696 1.37527E+02 1.09576E+01 0.00000E+00
 -1       697 1.39608E+02 2.35500E+01 0.00000E+00
 -1       698 1.39608E+02 1.76500E+01 0.00000E+00
 -1       699 1.39608E+02 2.65000E+01 0.00000E+00
 -1       700 1.39608E+02 2.06000E+01 0.00000E+00
 -1       701 1.11048E+02 1.30045E+01 0.00000E+00
 -1       702 1.39608E+02 2.94000E+01 0.00000E+00
 -1       703 1.39608E+02 3.23500E+01 0.00000E+00
 -1       704 1.39608E+02 3.53000E+01 0.00000E+00
 -1       705 1.75350E+01 9.20225E+00 0.00000E+00
 -1       706 1.08976E+02 2.61058E+01 0.00000E+00
 -1       707 8.92457E+01 2.64274E+01 0.00000E+00
 -1       708 1.07268E+02 2.77929E+01 0.00000E+00
 -1       709 8.76895E+01 2.41565E+01 0.00000E+00
 -1       710 1.13527E+02 1.09576E+01 0.00000E+00
 -1       711 2.65350E+01 9.20225E+00 0.00000E+00
 -1       712 2.35350E+01 9.20225E+00 0.00000E+00
 -1       713 8.75189E+01 1.38478E+01 0.00000E+00
 -1       714 1.03920E+01 1.76125E+01 0.00000E+00
 -1       715 1.03920E+01 3.23250E+01 0.00000E+00
 -1       716 1.11698E+02 1.54917E+01 0.00000E+00
 -1       717 8.62557E+01 1.87084E+01 0.00000E+00
 -1       718 8.68072E+01 1.61609E+01 0.00000E+00
 -1       719 8.79589E+01 1.14196E+01 0.00000E+00
 -1       720 8.68552E+01 2.15967E+01 0.00000E+00
 -1       721 9.71271E+01 3.08951E+01 0.00000E+00
 -1       722 1.11996E+02 1.80128E+01 0.00000E+00
 -1       723 9.96522E+01 3.09181E+01 0.00000E+00
 -1       724 1.12002E+02 2.10978E+01 0.00000E+00
 -1       725 1.39867E+02 1.21038E+01 0.00000E+00
 -1       726 1.03920E+01 3.52625E+01 0.00000E+00
 -1       727 1.03920E+01 2.64500E+01 0.00000E+00
 -1       728 1.12500E+02 2.28088E+01 0.00000E+00
 -1       729 1.04196E+02 3.12730E+01 0.00000E+00
 -1       730 8.97434E+01 2.81073E+01 0.00000E+00
 -1       731 1.13502E+02 1.96771E+01 0.00000E+00
 -1       732 9.53907E+01 3.11854E+01 0.00000E+00
 -1       733 1.39737E+02 1.48769E+01 0.00000E+00
 -1       734 1.03920E+01 2.93875E+01 0.00000E+00
 -1       735 1.10772E+02 2.54667E+01 0.00000E+00
 -1       736 9.22694E+01 2.96172E+01 0.00000E+00
 -1       737 1.29900E+01 1.32000E+01 0.00000E+00
 -1       738 1.42804E+01 3.67934E+01 0.00000E+00
 -1       739 1.72804E+01 3.67934E+01 0.00000E+00
 -1       740 2.02804E+01 3.67934E+01 0.00000E+00
 -1       741 2.32804E+01 3.67934E+01 0.00000E+00
 -1       742 2.62804E+01 3.67934E+01 0.00000E+00
 -1       743 2.92804E+01 3.67934E+01 0.00000E+00
 -1       744 3.22803E+01 3.67934E+01 0.00000E+00
 -1       745 3.52803E+01 3.67934E+01 0.00000E+00
 -1       746 3.82803E+01 3.67934E+01 0.00000E+00
 -1       747 4.12803E+01 3.67934E+01 0.00000E+00
 -1       748 4.42803E+01 3.67934E+01 0.00000E+00
 -1       749 4.72803E+01 3.67934E+01 0.00000E+00
 -1       750 5.02803E+01 3.67934E+01 0.00000E+00
 -1       751 5.32803E+01 3.67934E+01 0.00000E+00
 -1       752 5.62803E+01 3.67934E+01 0.00000E+00
 -1       753 5.92803E+01 3.67934E+01 0.00000E+00
 -1       754 6.22803E+01 3.67934E+01 0.00000E+00
 -1       755 6.52803E+01 3.67934E+01 0.00000E+00
 -1       756 6.82803E+01 3.67934E+01 0.00000E+00
 -1       757 7.12803E+01 3.67934E+01 0.00000E+00
 -1       758 7.42803E+01 3.67934E+01 0.00000E+00
 -1       759 7.72803E+01 3.67934E+01 0.00000E+00
 -1       760 8.02803E+01 3.67934E+01 0.00000E+00
 -1       761 8.32803E+01 3.67934E+01 0.00000E+00
 -1       762 8.62803E+01 3.67934E+01 0.00000E+00
 -1       763 8.92803E+01 3.67934E+01 0.00000E+00
 -1       764 9.22803E+01 3.67934E+01 0.00000E+00
 -1       765 9.52803E+01 3.67934E+01 0.00000E+00
 -1       766 9.82803E+01 3.67934E+01 0.00000E+00
 -1       767 1.01280E+02 3.67934E+01 0.00000E+00
 -1       768 1.04280E+02 3.67934E+01 0.00000E+00
 -1       769 1.07280E+02 3.67934E+01 0.00000E+00
 -1       770 1.10280E+02 3.67934E+01 0.00000E+00
 -1       771 1.13280E+02 3.67934E+01 0.00000E+00
 -1       772 1.16280E+02 3.67934E+01 0.00000E+00
 -1       773 1.19280E+02 3.67934E+01 0.00000E+00
 -1       774 1.22280E+02 3.67934E+01 0.00000E+00
 -1       775 1.25280E+02 3.67934E+01 0.00000E+00
 -1       776 1.28280E+02 3.67934E+01 0.00000E+00
 -1       777 1.31280E+02 3.67934E+01 0.00000E+00
 -1       778 1.34280E+02 3.67934E+01 0.00000E+00
 -1       779 3.40350E+01 1.18003E+01 0.00000E+00
 -1       780 1.07511E+02 3.00693E+01 0.00000E+00
 -1       781 3.10350E+01 1.18003E+01 0.00000E+00
 -1       782 4.00350E+01 1.18003E+01 0.00000E+00
 -1       783 4.30350E+01 1.18003E+01 0.00000E+00
 -1       784 4.60350E+01 1.18003E+01 0.00000E+00
 -1       785 4.90350E+01 1.18003E+01 0.00000E+00
 -1       786 5.20350E+01 1.18003E+01 0.00000E+00
 -1       787 5.50350E+01 1.18003E+01 0.00000E+00
 -1       788 5.80350E+01 1.18003E+01 0.00000E+00
 -1       789 6.10350E+01 1.18003E+01 0.00000E+00
 -1       790 6.40350E+01 1.18003E+01 0.00000E+00
 -1       791 6.70350E+01 1.18003E+01 0.00000E+00
 -1       792 7.00350E+01 1.18003E+01 0.00000E+00
 -1       793 7.30350E+01 1.18003E+01 0.00000E+00
 -1       794 7.60350E+01 1.18003E+01 0.00000E+00
 -1       795 7.90350E+01 1.18003E+01 0.00000E+00
 -1       796 8.20350E+01 1.18003E+01 0.00000E+00
 -1       797 1.24027E+02 1.35556E+01 0.00000E+00
 -1       798 1.29900E+01 2.20250E+01 0.00000E+00
 -1       799 2.20350E+01 1.18003E+01 0.00000E+00
 -1       800 1.14178E+02 1.34448E+01 0.00000E+00
 -1       801 1.21027E+02 1.35556E+01 0.00000E+00
 -1       802 1.18027E+02 1.35556E+01 0.00000E+00
 -1       803 1.27027E+02 1.35556E+01 0.00000E+00
 -1       804 1.30027E+02 1.35556E+01 0.00000E+00
 -1       805 1.33027E+02 1.35556E+01 0.00000E+00
 -1       806 1.36027E+02 1.35556E+01 0.00000E+00
 -1       807 1.37010E+02 2.50250E+01 0.00000E+00
 -1       808 1.37010E+02 3.38250E+01 0.00000E+00
 -1       809 1.37010E+02 2.79250E+01 0.00000E+00
 -1       810 1.09681E+02 2.85273E+01 0.00000E+00
 -1       811 1.13551E+02 1.65513E+01 0.00000E+00
 -1       812 1.37010E+02 3.08750E+01 0.00000E+00
 -1       813 3.70350E+01 1.18003E+01 0.00000E+00
 -1       814 2.80350E+01 1.18003E+01 0.00000E+00
 -1       815 2.50350E+01 1.18003E+01 0.00000E+00
 -1       816 1.00841E+02 3.28080E+01 0.00000E+00
 -1       817 8.69146E+01 2.63562E+01 0.00000E+00
 -1       818 1.37625E+01 1.12011E+01 0.00000E+00
 -1       819 8.53230E+01 2.35120E+01 0.00000E+00
 -1       820 8.47121E+01 2.05352E+01 0.00000E+00
 -1       821 8.55269E+01 1.15250E+01 0.00000E+00
 -1       822 9.83158E+01 3.27850E+01 0.00000E+00
 -1       823 8.48551E+01 1.70717E+01 0.00000E+00
 -1       824 1.29900E+01 2.49750E+01 0.00000E+00
 -1       825 1.14001E+02 2.13881E+01 0.00000E+00
 -1       826 1.06412E+02 3.18483E+01 0.00000E+00
 -1       827 8.50351E+01 1.49102E+01 0.00000E+00
 -1       828 1.11476E+02 2.78881E+01 0.00000E+00
 -1       829 1.37280E+02 3.67934E+01 0.00000E+00
 -1       830 1.67625E+01 1.12011E+01 0.00000E+00
 -1       831 1.29900E+01 1.90875E+01 0.00000E+00
 -1       832 1.12905E+02 2.47683E+01 0.00000E+00
 -1       833 1.02984E+02 3.31484E+01 0.00000E+00
 -1       834 1.29900E+01 3.37938E+01 0.00000E+00
 -1       835 1.37010E+02 2.20750E+01 0.00000E+00
 -1       836 1.37010E+02 1.91250E+01 0.00000E+00
 -1       837 1.29900E+01 3.08563E+01 0.00000E+00
 -1       838 1.15057E+02 1.82156E+01 0.00000E+00
 -1       839 9.03276E+01 2.99543E+01 0.00000E+00
 -1       840 1.93988E+01 1.15007E+01 0.00000E+00
 -1       841 9.65794E+01 3.30753E+01 0.00000E+00
 -1       842 1.29900E+01 1.61375E+01 0.00000E+00
 -1       843 8.74123E+01 2.80361E+01 0.00000E+00
 -1       844 1.37139E+02 1.63519E+01 0.00000E+00
 -1       845 9.34130E+01 3.14285E+01 0.00000E+00
 -1       846 8.33115E+01 1.88986E+01 0.00000E+00
 -1       847 8.27349E+01 1.58070E+01 0.00000E+00
 -1       848 1.87804E+01 3.41954E+01 0.00000E+00
 -1       849 2.17804E+01 3.41954E+01 0.00000E+00
 -1       850 2.47804E+01 3.41954E+01 0.00000E+00
 -1       851 2.77804E+01 3.41954E+01 0.00000E+00
 -1       852 3.07804E+01 3.41954E+01 0.00000E+00
 -1       853 3.37803E+01 3.41954E+01 0.00000E+00
 -1       854 3.67803E+01 3.41954E+01 0.00000E+00
 -1       855 3.97803E+01 3.41954E+01 0.00000E+00
 -1       856 4.27803E+01 3.41954E+01 0.00000E+00
 -1       857 4.57803E+01 3.41954E+01 0.00000E+00
 -1       858 4.87803E+01 3.41954E+01 0.00000E+00
 -1       859 5.17803E+01 3.41954E+01 0.00000E+00
 -1       860 5.47803E+01 3.41954E+01 0.00000E+00
 -1       861 5.77803E+01 3.41954E+01 0.00000E+00
 -1       862 6.07803E+01 3.41954E+01 0.00000E+00
 -1       863 6.37803E+01 3.41954E+01 0.00000E+00
 -1       864 6.67803E+01 3.41954E+01 0.00000E+00
 -1       865 6.97803E+01 3.41954E+01 0.00000E+00
 -1       866 7.27803E+01 3.41954E+01 0.00000E+00
 -1       867 7.57803E+01 3.41954E+01 0.00000E+00
 -1       868 7.87803E+01 3.41954E+01 0.00000E+00
 -1       869 8.17803E+01 3.41954E+01 0.00000E+00
 -1       870 8.47803E+01 3.41954E+01 0.00000E+00
 -1       871 8.77803E+01 3.41954E+01 0.00000E+00
 -1       872 9.07803E+01 3.41954E+01 0.00000E+00
 -1       873 9.37803E+01 3.41954E+01 0.00000E+00
 -1       874 1.05780E+02 3.41954E+01 0.00000E+00
 -1       875 1.08780E+02 3.41954E+01 0.00000E+00
 -1       876 1.11780E+02 3.41954E+01 0.00000E+00
 -1       877 1.14780E+02 3.41954E+01 0.00000E+00
 -1       878 1.17780E+02 3.41954E+01 0.00000E+00
 -1       879 1.20780E+02 3.41954E+01 0.00000E+00
 -1       880 1.23780E+02 3.41954E+01 0.00000E+00
 -1       881 1.26780E+02 3.41954E+01 0.00000E+00
 -1       882 1.29780E+02 3.41954E+01 0.00000E+00
 -1       883 1.32780E+02 3.41954E+01 0.00000E+00
 -1       884 2.95350E+01 1.43982E+01 0.00000E+00
 -1       885 4.45350E+01 1.43982E+01 0.00000E+00
 -1       886 4.15350E+01 1.43982E+01 0.00000E+00
 -1       887 5.05350E+01 1.43982E+01 0.00000E+00
 -1       888 5.35350E+01 1.43982E+01 0.00000E+00
 -1       889 5.65350E+01 1.43982E+01 0.00000E+00
 -1       890 5.95350E+01 1.43982E+01 0.00000E+00
 -1       891 6.25350E+01 1.43982E+01 0.00000E+00
 -1       892 6.55350E+01 1.43982E+01 0.00000E+00
 -1       893 6.85350E+01 1.43982E+01 0.00000E+00
 -1       894 7.15350E+01 1.43982E+01 0.00000E+00
 -1       895 7.45350E+01 1.43982E+01 0.00000E+00
 -1       896 7.75350E+01 1.43982E+01 0.00000E+00
 -1       897 8.05350E+01 1.43982E+01 0.00000E+00
 -1       898 1.28527E+02 1.61536E+01 0.00000E+00
 -1       899 8.41834E+01 2.60171E+01 0.00000E+00
 -1       900 1.16542E+02 1.58856E+01 0.00000E+00
 -1       901 1.22527E+02 1.61536E+01 0.00000E+00
 -1       902 1.19527E+02 1.61536E+01 0.00000E+00
 -1       903 1.31527E+02 1.61536E+01 0.00000E+00
 -1       904 1.34412E+02 2.64750E+01 0.00000E+00
 -1       905 1.29900E+01 2.79188E+01 0.00000E+00
 -1       906 4.75350E+01 1.43982E+01 0.00000E+00
 -1       907 1.59900E+01 1.32000E+01 0.00000E+00
 -1       908 3.25350E+01 1.43982E+01 0.00000E+00
 -1       909 1.58852E+01 3.39946E+01 0.00000E+00
 -1       910 1.09978E+02 3.12426E+01 0.00000E+00
 -1       911 1.25527E+02 1.61536E+01 0.00000E+00
 -1       912 8.26809E+01 2.25032E+01 0.00000E+00
 -1       913 1.15555E+02 1.99266E+01 0.00000E+00
 -1       914 1.13609E+02 2.71898E+01 0.00000E+00
 -1       915 1.11773E+02 3.06034E+01 0.00000E+00
 -1       916 2.65350E+01 1.43982E+01 0.00000E+00
 -1       917 1.35019E+02 1.63403E+01 0.00000E+00
 -1       918 3.85350E+01 1.43982E+01 0.00000E+00
 -1       919 8.12803E+01 2.08666E+01 0.00000E+00
 -1       920 1.55880E+01 2.35000E+01 0.00000E+00
 -1       921 1.14405E+02 2.33476E+01 0.00000E+00
 -1       922 1.33901E+02 1.92439E+01 0.00000E+00
 -1       923 1.55880E+01 2.05625E+01 0.00000E+00
 -1       924 1.34412E+02 2.35250E+01 0.00000E+00
 -1       925 8.46811E+01 2.76970E+01 0.00000E+00
 -1       926 3.55350E+01 1.43982E+01 0.00000E+00
 -1       927 1.34412E+02 2.94250E+01 0.00000E+00
 -1       928 9.14711E+01 3.17656E+01 0.00000E+00
 -1       929 2.04235E+01 1.42319E+01 0.00000E+00
 -1       930 8.79965E+01 2.98832E+01 0.00000E+00
 -1       931 1.58852E+01 3.10571E+01 0.00000E+00
 -1       932 1.33596E+02 3.18102E+01 0.00000E+00
 -1       933 2.35350E+01 1.43982E+01 0.00000E+00
 -1       934 2.32804E+01 3.15974E+01 0.00000E+00
 -1       935 2.62804E+01 3.15974E+01 0.00000E+00
 -1       936 2.92804E+01 3.15974E+01 0.00000E+00
 -1       937 3.22803E+01 3.15974E+01 0.00000E+00
 -1       938 3.52803E+01 3.15974E+01 0.00000E+00
 -1       939 3.82803E+01 3.15974E+01 0.00000E+00
 -1       940 4.12803E+01 3.15974E+01 0.00000E+00
 -1       941 4.42803E+01 3.15974E+01 0.00000E+00
 -1       942 4.72803E+01 3.15974E+01 0.00000E+00
 -1       943 5.02803E+01 3.15974E+01 0.00000E+00
 -1       944 5.32803E+01 3.15974E+01 0.00000E+00
 -1       945 5.62803E+01 3.15974E+01 0.00000E+00
 -1       946 5.92803E+01 3.15974E+01 0.00000E+00
 -1       947 6.22803E+01 3.15974E+01 0.00000E+00
 -1       948 6.52803E+01 3.15974E+01 0.00000E+00
 -1       949 6.82803E+01 3.15974E+01 0.00000E+00
 -1       950 7.12803E+01 3.15974E+01 0.00000E+00
 -1       951 7.42803E+01 3.15974E+01 0.00000E+00
 -1       952 7.72803E+01 3.15974E+01 0.00000E+00
 -1       953 8.02803E+01 3.15974E+01 0.00000E+00
 -1       954 8.32803E+01 3.15974E+01 0.00000E+00
 -1       955 1.16280E+02 3.15974E+01 0.00000E+00
 -1       956 1.19280E+02 3.15974E+01 0.00000E+00
 -1       957 1.22280E+02 3.15974E+01 0.00000E+00
 -1       958 1.25280E+02 3.15974E+01 0.00000E+00
 -1       959 1.28280E+02 3.15974E+01 0.00000E+00
 -1       960 1.30938E+02 3.17038E+01 0.00000E+00
 -1       961 5.80350E+01 1.69963E+01 0.00000E+00
 -1       962 4.30350E+01 1.69963E+01 0.00000E+00
 -1       963 5.50350E+01 1.69963E+01 0.00000E+00
 -1       964 5.20350E+01 1.69963E+01 0.00000E+00
 -1       965 6.10350E+01 1.69963E+01 0.00000E+00
 -1       966 6.40350E+01 1.69963E+01 0.00000E+00
 -1       967 6.70350E+01 1.69963E+01 0.00000E+00
 -1       968 7.00350E+01 1.69963E+01 0.00000E+00
 -1       969 7.30350E+01 1.69963E+01 0.00000E+00
 -1       970 7.60350E+01 1.69963E+01 0.00000E+00
 -1       971 7.90350E+01 1.69963E+01 0.00000E+00
 -1       972 1.55880E+01 2.64438E+01 0.00000E+00
 -1       973 1.18042E+02 1.84836E+01 0.00000E+00
 -1       974 1.21042E+02 1.84836E+01 0.00000E+00
 -1       975 1.57366E+01 2.87504E+01 0.00000E+00
 -1       976 1.24042E+02 1.84836E+01 0.00000E+00
 -1       977 8.10077E+01 1.77287E+01 0.00000E+00
 -1       978 1.63076E+01 1.65250E+01 0.00000E+00
 -1       979 1.30027E+02 1.87516E+01 0.00000E+00
 -1       980 1.78532E+01 1.40129E+01 0.00000E+00
 -1       981 1.87804E+01 3.12579E+01 0.00000E+00
 -1       982 8.12389E+01 2.51980E+01 0.00000E+00
 -1       983 2.10304E+01 3.14276E+01 0.00000E+00
 -1       984 1.27027E+02 1.87516E+01 0.00000E+00
 -1       985 3.40350E+01 1.69963E+01 0.00000E+00
 -1       986 2.18405E+01 1.69093E+01 0.00000E+00
 -1       987 3.10350E+01 1.69963E+01 0.00000E+00
 -1       988 1.15110E+02 2.57691E+01 0.00000E+00
 -1       989 2.80350E+01 1.69963E+01 0.00000E+00
 -1       990 8.62803E+01 3.15974E+01 0.00000E+00
 -1       991 1.81860E+01 2.20313E+01 0.00000E+00
 -1       992 4.90350E+01 1.69963E+01 0.00000E+00
 -1       993 1.13280E+02 3.15974E+01 0.00000E+00
 -1       994 4.60350E+01 1.69963E+01 0.00000E+00
 -1       995 4.00350E+01 1.69963E+01 0.00000E+00
 -1       996 7.98383E+01 2.35614E+01 0.00000E+00
 -1       997 1.81860E+01 2.49750E+01 0.00000E+00
 -1       998 1.31814E+02 2.50000E+01 0.00000E+00
 -1       999 8.52653E+01 2.95441E+01 0.00000E+00
 -1      1000 1.15960E+02 2.18861E+01 0.00000E+00
 -1      1001 3.70350E+01 1.69963E+01 0.00000E+00
 -1      1002 1.30921E+02 2.18758E+01 0.00000E+00
 -1      1003 2.50350E+01 1.69963E+01 0.00000E+00
 -1      1004 8.17365E+01 2.68779E+01 0.00000E+00
 -1      1005 1.90741E+01 1.67172E+01 0.00000E+00
 -1      1006 1.31814E+02 2.79500E+01 0.00000E+00
 -1      1007 1.14207E+02 2.89631E+01 0.00000E+00
 -1      1008 1.15708E+02 2.75424E+01 0.00000E+00
 -1      1009 2.77804E+01 2.89994E+01 0.00000E+00
 -1      1010 3.07804E+01 2.89994E+01 0.00000E+00
 -1      1011 3.37803E+01 2.89994E+01 0.00000E+00
 -1      1012 3.67803E+01 2.89994E+01 0.00000E+00
 -1      1013 3.97803E+01 2.89994E+01 0.00000E+00
 -1      1014 4.27803E+01 2.89994E+01 0.00000E+00
 -1      1015 4.57803E+01 2.89994E+01 0.00000E+00
 -1      1016 4.87803E+01 2.89994E+01 0.00000E+00
 -1      1017 5.17803E+01 2.89994E+01 0.00000E+00
 -1      1018 5.47803E+01 2.89994E+01 0.00000E+00
 -1      1019 5.77803E+01 2.89994E+01 0.00000E+00
 -1      1020 6.07803E+01 2.89994E+01 0.00000E+00
 -1      1021 6.37803E+01 2.89994E+01 0.00000E+00
 -1      1022 6.67803E+01 2.89994E+01 0.00000E+00
 -1      1023 6.97803E+01 2.89994E+01 0.00000E+00
 -1      1024 7.27803E+01 2.89994E+01 0.00000E+00
 -1      1025 7.57803E+01 2.89994E+01 0.00000E+00
 -1      1026 7.87803E+01 2.89994E+01 0.00000E+00
 -1      1027 1.18446E+02 2.04431E+01 0.00000E+00
 -1      1028 1.86318E+01 2.89512E+01 0.00000E+00
 -1      1029 1.20780E+02 2.89994E+01 0.00000E+00
 -1      1030 1.23780E+02 2.89994E+01 0.00000E+00
 -1      1031 1.26780E+02 2.89994E+01 0.00000E+00
 -1      1032 5.65350E+01 1.95942E+01 0.00000E+00
 -1      1033 5.95350E+01 1.95942E+01 0.00000E+00
 -1      1034 5.35350E+01 1.95942E+01 0.00000E+00
 -1      1035 6.55350E+01 1.95942E+01 0.00000E+00
 -1      1036 6.85350E+01 1.95942E+01 0.00000E+00
 -1      1037 7.15350E+01 1.95942E+01 0.00000E+00
 -1      1038 7.45350E+01 1.95942E+01 0.00000E+00
 -1      1039 7.75350E+01 1.95942E+01 0.00000E+00
 -1      1040 1.22542E+02 2.10816E+01 0.00000E+00
 -1      1041 2.33671E+01 1.95498E+01 0.00000E+00
 -1      1042 6.25350E+01 1.95942E+01 0.00000E+00
 -1      1043 1.25527E+02 2.13496E+01 0.00000E+00
 -1      1044 1.17494E+02 2.89812E+01 0.00000E+00
 -1      1045 3.25350E+01 1.95942E+01 0.00000E+00
 -1      1046 1.31376E+02 2.98269E+01 0.00000E+00
 -1      1047 2.47804E+01 2.89994E+01 0.00000E+00
 -1      1048 1.28224E+02 2.16127E+01 0.00000E+00
 -1      1049 7.94367E+01 2.02788E+01 0.00000E+00
 -1      1050 2.95350E+01 1.95942E+01 0.00000E+00
 -1      1051 3.55350E+01 1.95942E+01 0.00000E+00
 -1      1052 4.45350E+01 1.95942E+01 0.00000E+00
 -1      1053 5.05350E+01 1.95942E+01 0.00000E+00
 -1      1054 1.29078E+02 2.94131E+01 0.00000E+00
 -1      1055 1.16664E+02 2.43075E+01 0.00000E+00
 -1      1056 4.15350E+01 1.95942E+01 0.00000E+00
 -1      1057 2.07840E+01 2.35031E+01 0.00000E+00
 -1      1058 1.84089E+01 2.69631E+01 0.00000E+00
 -1      1059 2.08818E+01 2.91210E+01 0.00000E+00
 -1      1060 1.29117E+02 2.47369E+01 0.00000E+00
 -1      1061 2.65350E+01 1.95942E+01 0.00000E+00
 -1      1062 2.28311E+01 2.90602E+01 0.00000E+00
 -1      1063 7.93093E+01 2.62804E+01 0.00000E+00
 -1      1064 2.92804E+01 2.64014E+01 0.00000E+00
 -1      1065 2.13123E+01 2.02062E+01 0.00000E+00
 -1      1066 1.17262E+02 2.60809E+01 0.00000E+00
 -1      1067 3.22803E+01 2.64014E+01 0.00000E+00
 -1      1068 3.52803E+01 2.64014E+01 0.00000E+00
 -1      1069 3.82803E+01 2.64014E+01 0.00000E+00
 -1      1070 4.12803E+01 2.64014E+01 0.00000E+00
 -1      1071 4.42803E+01 2.64014E+01 0.00000E+00
 -1      1072 4.72803E+01 2.64014E+01 0.00000E+00
 -1      1073 5.02803E+01 2.64014E+01 0.00000E+00
 -1      1074 5.32803E+01 2.64014E+01 0.00000E+00
 -1      1075 5.62803E+01 2.64014E+01 0.00000E+00
 -1      1076 5.92803E+01 2.64014E+01 0.00000E+00
 -1      1077 6.22803E+01 2.64014E+01 0.00000E+00
 -1      1078 6.52803E+01 2.64014E+01 0.00000E+00
 -1      1079 6.82803E+01 2.64014E+01 0.00000E+00
 -1      1080 7.12803E+01 2.64014E+01 0.00000E+00
 -1      1081 7.42803E+01 2.64014E+01 0.00000E+00
 -1      1082 7.67948E+01 2.63409E+01 0.00000E+00
 -1      1083 4.75350E+01 1.95942E+01 0.00000E+00
 -1      1084 1.22280E+02 2.64014E+01 0.00000E+00
 -1      1085 6.40350E+01 2.21922E+01 0.00000E+00
 -1      1086 2.62804E+01 2.64014E+01 0.00000E+00
 -1      1087 1.25280E+02 2.64014E+01 0.00000E+00
 -1      1088 5.80350E+01 2.21922E+01 0.00000E+00
 -1      1089 2.28388E+01 2.28467E+01 0.00000E+00
 -1      1090 5.50350E+01 2.21922E+01 0.00000E+00
 -1      1091 7.00350E+01 2.21922E+01 0.00000E+00
 -1      1092 6.70350E+01 2.21922E+01 0.00000E+00
 -1      1093 7.60350E+01 2.21922E+01 0.00000E+00
 -1      1094 7.79367E+01 2.28768E+01 0.00000E+00
 -1      1095 3.85350E+01 1.95942E+01 0.00000E+00
 -1      1096 2.60067E+01 2.28911E+01 0.00000E+00
 -1      1097 2.10069E+01 2.54912E+01 0.00000E+00
 -1      1098 1.20094E+02 2.33293E+01 0.00000E+00
 -1      1099 6.10350E+01 2.21922E+01 0.00000E+00
 -1      1100 7.30350E+01 2.21922E+01 0.00000E+00
 -1      1101 1.23802E+02 2.38032E+01 0.00000E+00
 -1      1102 2.43311E+01 2.64622E+01 0.00000E+00
 -1      1103 1.28476E+02 2.80136E+01 0.00000E+00
 -1      1104 1.26460E+02 2.42700E+01 0.00000E+00
 -1      1105 5.20350E+01 2.21922E+01 0.00000E+00
 -1      1106 4.30350E+01 2.21922E+01 0.00000E+00
 -1      1107 4.60350E+01 2.21922E+01 0.00000E+00
 -1      1108 7.73658E+01 2.46088E+01 0.00000E+00
 -1      1109 2.90067E+01 2.28911E+01 0.00000E+00
 -1      1110 2.09443E+01 2.73061E+01 0.00000E+00
 -1      1111 3.40350E+01 2.21922E+01 0.00000E+00
 -1      1112 3.15209E+01 2.25417E+01 0.00000E+00
 -1      1113 3.97803E+01 2.38034E+01 0.00000E+00
 -1      1114 3.70350E+01 2.21922E+01 0.00000E+00
 -1      1115 4.90350E+01 2.21922E+01 0.00000E+00
 -1      1116 0.00000E+00 4.85250E+01 0.00000E+00
 -1      1117 0.00000E+00 4.55750E+01 0.00000E+00
 -1      1118 0.00000E+00 4.26250E+01 0.00000E+00
 -1      1119 0.00000E+00 3.96750E+01 0.00000E+00
 -1      1120 0.00000E+00 3.67250E+01 0.00000E+00
 -1      1121 0.00000E+00 3.38000E+01 0.00000E+00
 -1      1122 0.00000E+00 3.08750E+01 0.00000E+00
 -1      1123 0.00000E+00 2.79250E+01 0.00000E+00
 -1      1124 0.00000E+00 2.49750E+01 0.00000E+00
 -1      1125 0.00000E+00 2.20250E+01 0.00000E+00
 -1      1126 0.00000E+00 1.90750E+01 0.00000E+00
 -1      1127 0.00000E+00 1.61500E+01 0.00000E+00
 -1      1128 0.00000E+00 1.32250E+01 0.00000E+00
 -1      1129 0.00000E+00 1.02750E+01 0.00000E+00
 -1      1130 0.00000E+00 7.32500E+00 0.00000E+00
 -1      1131 0.00000E+00 4.37500E+00 0.00000E+00
 -1      1132 0.00000E+00 1.45000E+00 0.00000E+00
 -1      1133 1.57500E+00 5.00000E+01 0.00000E+00
 -1      1134 4.65000E+00 5.00000E+01 0.00000E+00
 -1      1135 7.65000E+00 5.00000E+01 0.00000E+00
 -1      1136 1.06500E+01 5.00000E+01 0.00000E+00
 -1      1137 1.36500E+01 5.00000E+01 0.00000E+00
 -1      1138 1.66500E+01 5.00000E+01 0.00000E+00
 -1      1139 1.96500E+01 5.00000E+01 0.00000E+00
 -1      1140 2.26500E+01 5.00000E+01 0.00000E+00
 -1      1141 2.56500E+01 5.00000E+01 0.00000E+00
 -1      1142 2.86500E+01 5.00000E+01 0.00000E+00
 -1      1143 3.16500E+01 5.00000E+01 0.00000E+00
 -1      1144 3.46500E+01 5.00000E+01 0.00000E+00
 -1      1145 3.76500E+01 5.00000E+01 0.00000E+00
 -1      1146 4.06500E+01 5.00000E+01 0.00000E+00
 -1      1147 4.36500E+01 5.00000E+01 0.00000E+00
 -1      1148 4.66500E+01 5.00000E+01 0.00000E+00
 -1      1149 4.96500E+01 5.00000E+01 0.00000E+00
 -1      1150 5.26500E+01 5.00000E+01 0.00000E+00
 -1      1151 5.56500E+01 5.00000E+01 0.00000E+00
 -1      1152 5.86500E+01 5.00000E+01 0.00000E+00
 -1      1153 6.16500E+01 5.00000E+01 0.00000E+00
 -1      1154 6.46500E+01 5.00000E+01 0.00000E+00
 -1      1155 6.76500E+01 5.00000E+01 0.00000E+00
 -1      1156 7.06500E+01 5.00000E+01 0.00000E+00
 -1      1157 7.36500E+01 5.00000E+01 0.00000E+00
 -1      1158 7.66500E+01 5.00000E+01 0.00000E+00
 -1      1159 7.96500E+01 5.00000E+01 0.00000E+00
 -1      1160 8.26500E+01 5.00000E+01 0.00000E+00
 -1      1161 8.56500E+01 5.00000E+01 0.00000E+00
 -1      1162 8.86500E+01 5.00000E+01 0.00000E+00
 -1      1163 9.16500E+01 5.00000E+01 0.00000E+00
 -1      1164 9.46500E+01 5.00000E+01 0.00000E+00
 -1      1165 9.76500E+01 5.00000E+01 0.00000E+00
 -1      1166 1.00650E+02 5.00000E+01 0.00000E+00
 -1      1167 1.03650E+02 5.00000E+01 0.00000E+00
 -1      1168 1.06650E+02 5.00000E+01 0.00000E+00
 -1      1169 1.09650E+02 5.00000E+01 0.00000E+00
 -1      1170 1.12650E+02 5.00000E+01 0.00000E+00
 -1      1171 1.15650E+02 5.00000E+01 0.00000E+00
 -1      1172 1.18650E+02 5.00000E+01 0.00000E+00
 -1      1173 1.21650E+02 5.00000E+01 0.00000E+00
 -1      1174 1.24650E+02 5.00000E+01 0.00000E+00
 -1      1175 1.27650E+02 5.00000E+01 0.00000E+00
 -1      1176 1.30650E+02 5.00000E+01 0.00000E+00
 -1      1177 1.33650E+02 5.00000E+01 0.00000E+00
 -1      1178 1.36650E+02 5.00000E+01 0.00000E+00
 -1      1179 1.39650E+02 5.00000E+01 0.00000E+00
 -1      1180 1.42650E+02 5.00000E+01 0.00000E+00
 -1      1181 1.45650E+02 5.00000E+01 0.00000E+00
 -1      1182 1.48575E+02 5.00000E+01 0.00000E+00
 -1      1183 1.57500E+00 0.00000E+00 0.00000E+00
 -1      1184 4.65000E+00 0.00000E+00 0.00000E+00
 -1      1185 7.65000E+00 0.00000E+00 0.00000E+00
 -1      1186 1.06500E+01 0.00000E+00 0.00000E+00
 -1      1187 1.36500E+01 0.00000E+00 0.00000E+00
 -1      1188 1.66500E+01 0.00000E+00 0.00000E+00
 -1      1189 1.96500E+01 0.00000E+00 0.00000E+00
 -1      1190 2.26500E+01 0.00000E+00 0.00000E+00
 -1      1191 2.56500E+01 0.00000E+00 0.00000E+00
 -1      1192 2.86500E+01 0.00000E+00 0.00000E+00
 -1      1193 3.16500E+01 0.00000E+00 0.00000E+00
 -1      1194 3.46500E+01 0.00000E+00 0.00000E+00
 -1      1195 3.76500E+01 0.00000E+00 0.00000E+00
 -1      1196 4.06500E+01 0.00000E+00 0.00000E+00
 -1      1197 4.36500E+01 0.00000E+00 0.00000E+00
 -1      1198 4.66500E+01 0.00000E+00 0.00000E+00
 -1      1199 4.96500E+01 0.00000E+00 0.00000E+00
 -1      1200 5.26500E+01 0.00000E+00 0.00000E+00
 -1      1201 5.56500E+01 0.00000E+00 0.00000E+00
 -1      1202 5.86500E+01 0.00000E+00 0.00000E+00
 -1      1203 6.16500E+01 0.00000E+00 0.00000E+00
 -1      1204 6.46500E+01 0.00000E+00 0.00000E+00
 -1      1205 6.76500E+01 0.00000E+00 0.00000E+00
 -1      1206 7.06500E+01 0.00000E+00 0.00000E+00
 -1      1207 7.36500E+01 0.00000E+00 0.00000E+00
 -1      1208 7.66500E+01 0.00000E+00 0.00000E+00
 -1      1209 7.96500E+01 0.00000E+00 0.00000E+00
 -1      1210 8.26500E+01 0.00000E+00 0.00000E+00
 -1      1211 8.56500E+01 0.00000E+00 0.00000E+00
 -1      1212 8.86500E+01 0.00000E+00 0.00000E+00
 -1      1213 9.16500E+01 0.00000E+00 0.00000E+00
 -1      1214 9.46500E+01 0.00000E+00 0.00000E+00
 -1      1215 9.76500E+01 0.00000E+00 0.00000E+00
 -1      1216 1.00650E+02 0.00000E+00 0.00000E+00
 -1      1217 1.03650E+02 0.00000E+00 0.00000E+00
 -1      1218 1.06650E+02 0.00000E+00 0.00000E+00
 -1      1219 1.09650E+02 0.00000E+00 0.00000E+00
 -1      1220 1.12650E+02 0.00000E+00 0.00000E+00
 -1      1221 1.15650E+02 0.00000E+00 0.00000E+00
 -1      1222 1.18650E+02 0.00000E+00 0.00000E+00
 -1      1223 1.21650E+02 0.00000E+00 0.00000E+00
 -1      1224 1.24650E+02 0.00000E+00 0.00000E+00
 -1      1225 1.27650E+02 0.00000E+00 0.00000E+00
 -1      1226 1.30650E+02 0.00000E+00 0.00000E+00
 -1      1227 1.33650E+02 0.00000E+00 0.00000E+00
 -1      1228 1.36650E+02 0.00000E+00 0.00000E+00
 -1      1229 1.39650E+02 0.00000E+00 0.00000E+00
 -1      1230 1.42650E+02 0.00000E+00 0.00000E+00
 -1      1231 1.45650E+02 0.00000E+00 0.00000E+00
 -1      1232 1.48575E+02 0.00000E+00 0.00000E+00
 -1      1233 1.50000E+02 1.47500E+00 0.00000E+00
 -1      1234 1.50000E+02 4.42500E+00 0.00000E+00
 -1      1235 1.50000E+02 7.37500E+00 0.00000E+00
 -1      1236 1.50000E+02 1.03250E+01 0.00000E+00
 -1      1237 1.50000E+02 1.32750E+01 0.00000E+00
 -1      1238 1.50000E+02 1.62000E+01 0.00000E+00
 -1      1239 1.50000E+02 1.91250E+01 0.00000E+00
 -1      1240 1.50000E+02 2.20750E+01 0.00000E+00
 -1      1241 1.50000E+02 2.50250E+01 0.00000E+00
 -1      1242 1.50000E+02 2.79750E+01 0.00000E+00
 -1      1243 1.50000E+02 3.09250E+01 0.00000E+00
 -1      1244 1.50000E+02 3.38500E+01 0.00000E+00
 -1      1245 1.50000E+02 3.67750E+01 0.00000E+00
 -1      1246 1.50000E+02 3.97250E+01 0.00000E+00
 -1      1247 1.50000E+02 4.26750E+01 0.00000E+00
 -1      1248 1.50000E+02 4.56250E+01 0.00000E+00
 -1      1249 1.50000E+02 4.85500E+01 0.00000E+00
 -1      1250 1.06221E+02 1.74092E+01 0.00000E+00
 -1      1251 1.05910E+02 1.59711E+01 0.00000E+00
 -1      1252 1.05316E+02 1.46505E+01 0.00000E+00
 -1      1253 1.04433E+02 1.34463E+01 0.00000E+00
 -1      1254 1.03226E+02 1.23949E+01 0.00000E+00
 -1      1255 1.01830E+02 1.16527E+01 0.00000E+00
 -1      1256 1.00402E+02 1.12580E+01 0.00000E+00
 -1      1257 9.89334E+01 1.11723E+01 0.00000E+00
 -1      1258 9.74391E+01 1.14062E+01 0.00000E+00
 -1      1259 9.59661E+01 1.19892E+01 0.00000E+00
 -1      1260 9.47267E+01 1.28327E+01 0.00000E+00
 -1      1261 9.37585E+01 1.38392E+01 0.00000E+00
 -1      1262 9.29860E+01 1.50649E+01 0.00000E+00
 -1      1263 9.24832E+01 1.64197E+01 0.00000E+00
 -1      1264 9.22705E+01 1.78258E+01 0.00000E+00
 -1      1265 9.23518E+01 1.92805E+01 0.00000E+00
 -1      1266 9.27520E+01 2.07368E+01 0.00000E+00
 -1      1267 9.34547E+01 2.20725E+01 0.00000E+00
 -1      1268 9.44268E+01 2.32260E+01 0.00000E+00
 -1      1269 9.57058E+01 2.41938E+01 0.00000E+00
 -1      1270 9.71492E+01 2.48380E+01 0.00000E+00
 -1      1271 9.86576E+01 2.51384E+01 0.00000E+00
 -1      1272 1.00204E+02 2.51010E+01 0.00000E+00
 -1      1273 1.01686E+02 2.47315E+01 0.00000E+00
 -1      1274 1.03048E+02 2.40527E+01 0.00000E+00
 -1      1275 1.04247E+02 2.30793E+01 0.00000E+00
 -1      1276 1.05213E+02 2.18508E+01 0.00000E+00
 -1      1277 1.05876E+02 2.04565E+01 0.00000E+00
 -1      1278 1.06219E+02 1.89457E+01 0.00000E+00
 -1      1279 1.57500E+00 4.85250E+01 0.00000E+00
 -1      1280 1.29900E+00 4.48375E+01 0.00000E+00
 -1      1281 1.29900E+00 4.63125E+01 0.00000E+00
 -1      1282 1.29900E+00 4.18875E+01 0.00000E+00
 -1      1283 1.29900E+00 4.33625E+01 0.00000E+00
 -1      1284 2.59800E+00 4.41000E+01 0.00000E+00
 -1      1285 1.29900E+00 3.89375E+01 0.00000E+00
 -1      1286 1.29900E+00 4.04125E+01 0.00000E+00
 -1      1287 2.59800E+00 4.11500E+01 0.00000E+00
 -1      1288 1.29900E+00 3.59875E+01 0.00000E+00
 -1      1289 1.29900E+00 3.74625E+01 0.00000E+00
 -1      1290 2.59800E+00 3.82000E+01 0.00000E+00
 -1      1291 1.29900E+00 3.30875E+01 0.00000E+00
 -1      1292 1.29900E+00 3.45375E+01 0.00000E+00
 -1      1293 2.59800E+00 3.52750E+01 0.00000E+00
 -1      1294 1.29900E+00 3.01375E+01 0.00000E+00
 -1      1295 1.29900E+00 3.16125E+01 0.00000E+00
 -1      1296 2.59800E+00 3.23500E+01 0.00000E+00
 -1      1297 1.29900E+00 2.71875E+01 0.00000E+00
 -1      1298 1.29900E+00 2.86625E+01 0.00000E+00
 -1      1299 2.59800E+00 2.94000E+01 0.00000E+00
 -1      1300 1.29900E+00 2.42375E+01 0.00000E+00
 -1      1301 1.29900E+00 2.57125E+01 0.00000E+00
 -1      1302 2.59800E+00 2.64500E+01 0.00000E+00
 -1      1303 1.29900E+00 2.12875E+01 0.00000E+00
 -1      1304 1.29900E+00 2.27625E+01 0.00000E+00
 -1      1305 2.59800E+00 2.35000E+01 0.00000E+00
 -1      1306 1.29900E+00 1.83375E+01 0.00000E+00
 -1      1307 1.29900E+00 1.98125E+01 0.00000E+00
 -1      1308 2.59800E+00 2.05500E+01 0.00000E+00
 -1      1309 1.29900E+00 1.54375E+01 0.00000E+00
 -1      1310 1.29900E+00 1.68875E+01 0.00000E+00
 -1      1311 2.59800E+00 1.76250E+01 0.00000E+00
 -1      1312 1.29900E+00 1.24875E+01 0.00000E+00
 -1      1313 1.29900E+00 1.39625E+01 0.00000E+00
 -1      1314 2.59800E+00 1.47000E+01 0.00000E+00
 -1      1315 1.29900E+00 9.53750E+00 0.00000E+00
 -1      1316 1.29900E+00 1.10125E+01 0.00000E+00
 -1      1317 2.59800E+00 1.17500E+01 0.00000E+00
 -1      1318 1.29900E+00 6.58750E+00 0.00000E+00
 -1      1319 1.29900E+00 8.06250E+00 0.00000E+00
 -1      1320 2.59800E+00 8.80000E+00 0.00000E+00
 -1      1321 1.29900E+00 3.63750E+00 0.00000E+00
 -1      1322 1.29900E+00 5.11250E+00 0.00000E+00
 -1      1323 2.59800E+00 5.85000E+00 0.00000E+00
 -1      1324 1.43700E+00 1.09375E+00 0.00000E+00
 -1      1325 1.43700E+00 2.54375E+00 0.00000E+00
 -1      1326 2.73600E+00 3.28125E+00 0.00000E+00
 -1      1327 3.01200E+00 1.09375E+00 0.00000E+00
 -1      1328 3.90000E+00 4.87010E+01 0.00000E+00
 -1      1329 5.40000E+00 4.87010E+01 0.00000E+00
 -1      1330 6.90000E+00 4.87010E+01 0.00000E+00
 -1      1331 8.40000E+00 4.87010E+01 0.00000E+00
 -1      1332 6.15000E+00 4.74020E+01 0.00000E+00
 -1      1333 9.90000E+00 4.87010E+01 0.00000E+00
 -1      1334 1.14000E+01 4.87010E+01 0.00000E+00
 -1      1335 9.15000E+00 4.74020E+01 0.00000E+00
 -1      1336 1.29000E+01 4.87010E+01 0.00000E+00
 -1      1337 1.44000E+01 4.87010E+01 0.00000E+00
 -1      1338 1.21500E+01 4.74020E+01 0.00000E+00
 -1      1339 1.59000E+01 4.87010E+01 0.00000E+00
 -1      1340 1.74000E+01 4.87010E+01 0.00000E+00
 -1      1341 1.51500E+01 4.74020E+01 0.00000E+00
 -1      1342 1.89000E+01 4.87010E+01 0.00000E+00
 -1      1343 2.04000E+01 4.87010E+01 0.00000E+00
 -1      1344 1.81500E+01 4.74020E+01 0.00000E+00
 -1      1345 2.19000E+01 4.87010E+01 0.00000E+00
 -1      1346 2.34000E+01 4.87010E+01 0.00000E+00
 -1      1347 2.11500E+01 4.74020E+01 0.00000E+00
 -1      1348 2.49000E+01 4.87010E+01 0.00000E+00
 -1      1349 2.64000E+01 4.87010E+01 0.00000E+00
 -1      1350 2.41500E+01 4.74020E+01 0.00000E+00
 -1      1351 2.79000E+01 4.87010E+01 0.00000E+00
 -1      1352 2.94000E+01 4.87010E+01 0.00000E+00
 -1      1353 2.71500E+01 4.74020E+01 0.00000E+00
 -1      1354 3.09000E+01 4.87010E+01 0.00000E+00
 -1      1355 3.24000E+01 4.87010E+01 0.00000E+00
 -1      1356 3.01500E+01 4.74020E+01 0.00000E+00
 -1      1357 3.39000E+01 4.87010E+01 0.00000E+00
 -1      1358 3.54000E+01 4.87010E+01 0.00000E+00
 -1      1359 3.31500E+01 4.74020E+01 0.00000E+00
 -1      1360 3.69000E+01 4.87010E+01 0.00000E+00
 -1      1361 3.84000E+01 4.87010E+01 0.00000E+00
 -1      1362 3.61500E+01 4.74020E+01 0.00000E+00
 -1      1363 3.99000E+01 4.87010E+01 0.00000E+00
 -1      1364 4.14000E+01 4.87010E+01 0.00000E+00
 -1      1365 3.91500E+01 4.74020E+01 0.00000E+00
 -1      1366 4.29000E+01 4.87010E+01 0.00000E+00
 -1      1367 4.44000E+01 4.87010E+01 0.00000E+00
 -1      1368 4.21500E+01 4.74020E+01 0.00000E+00
 -1      1369 4.59000E+01 4.87010E+01 0.00000E+00
 -1      1370 4.74000E+01 4.87010E+01 0.00000E+00
 -1      1371 4.51500E+01 4.74020E+01 0.00000E+00
 -1      1372 4.89000E+01 4.87010E+01 0.00000E+00
 -1      1373 5.04000E+01 4.87010E+01 0.00000E+00
 -1      1374 4.81500E+01 4.74020E+01 0.00000E+00
 -1      1375 5.19000E+01 4.87010E+01 0.00000E+00
 -1      1376 5.34000E+01 4.87010E+01 0.00000E+00
 -1      1377 5.11500E+01 4.74020E+01 0.00000E+00
 -1      1378 5.49000E+01 4.87010E+01 0.00000E+00
 -1      1379 5.64000E+01 4.87010E+01 0.00000E+00
 -1      1380 5.41500E+01 4.74020E+01 0.00000E+00
 -1      1381 5.79000E+01 4.87010E+01 0.00000E+00
 -1      1382 5.94000E+01 4.87010E+01 0.00000E+00
 -1      1383 5.71500E+01 4.74020E+01 0.00000E+00
 -1      1384 6.09000E+01 4.87010E+01 0.00000E+00
 -1      1385 6.24000E+01 4.87010E+01 0.00000E+00
 -1      1386 6.01500E+01 4.74020E+01 0.00000E+00
 -1      1387 6.39000E+01 4.87010E+01 0.00000E+00
 -1      1388 6.54000E+01 4.87010E+01 0.00000E+00
 -1      1389 6.31500E+01 4.74020E+01 0.00000E+00
 -1      1390 6.69000E+01 4.87010E+01 0.00000E+00
 -1      1391 6.84000E+01 4.87010E+01 0.00000E+00
 -1      1392 6.61500E+01 4.74020E+01 0.00000E+00
 -1      1393 6.99000E+01 4.87010E+01 0.00000E+00
 -1      1394 7.14000E+01 4.87010E+01 0.00000E+00
 -1      1395 6.91500E+01 4.74020E+01 0.00000E+00
 -1      1396 7.29000E+01 4.87010E+01 0.00000E+00
 -1      1397 7.44000E+01 4.87010E+01 0.00000E+00
 -1      1398 7.21500E+01 4.74020E+01 0.00000E+00
 -1      1399 7.59000E+01 4.87010E+01 0.00000E+00
 -1      1400 7.74000E+01 4.87010E+01 0.00000E+00
 -1      1401 7.51500E+01 4.74020E+01 0.00000E+00
 -1      1402 7.89000E+01 4.87010E+01 0.00000E+00
 -1      1403 8.04000E+01 4.87010E+01 0.00000E+00
 -1      1404 7.81500E+01 4.74020E+01 0.00000E+00
 -1      1405 8.19000E+01 4.87010E+01 0.00000E+00
 -1      1406 8.34000E+01 4.87010E+01 0.00000E+00
 -1      1407 8.11500E+01 4.74020E+01 0.00000E+00
 -1      1408 8.49000E+01 4.87010E+01 0.00000E+00
 -1      1409 8.64000E+01 4.87010E+01 0.00000E+00
 -1      1410 8.41500E+01 4.74020E+01 0.00000E+00
 -1      1411 8.79000E+01 4.87010E+01 0.00000E+00
 -1      1412 8.94000E+01 4.87010E+01 0.00000E+00
 -1      1413 8.71500E+01 4.74020E+01 0.00000E+00
 -1      1414 9.09000E+01 4.87010E+01 0.00000E+00
 -1      1415 9.24000E+01 4.87010E+01 0.00000E+00
 -1      1416 9.01500E+01 4.74020E+01 0.00000E+00
 -1      1417 9.39000E+01 4.87010E+01 0.00000E+00
 -1      1418 9.54000E+01 4.87010E+01 0.00000E+00
 -1      1419 9.31500E+01 4.74020E+01 0.00000E+00
 -1      1420 9.69000E+01 4.87010E+01 0.00000E+00
 -1      1421 9.84000E+01 4.87010E+01 0.00000E+00
 -1      1422 9.61500E+01 4.74020E+01 0.00000E+00
 -1      1423 9.99000E+01 4.87010E+01 0.00000E+00
 -1      1424 1.01400E+02 4.87010E+01 0.00000E+00
 -1      1425 9.91500E+01 4.74020E+01 0.00000E+00
 -1      1426 1.02900E+02 4.87010E+01 0.00000E+00
 -1      1427 1.04400E+02 4.87010E+01 0.00000E+00
 -1      1428 1.02150E+02 4.74020E+01 0.00000E+00
 -1      1429 1.05900E+02 4.87010E+01 0.00000E+00
 -1      1430 1.07400E+02 4.87010E+01 0.00000E+00
 -1      1431 1.05150E+02 4.74020E+01 0.00000E+00
 -1      1432 1.08900E+02 4.87010E+01 0.00000E+00
 -1      1433 1.10400E+02 4.87010E+01 0.00000E+00
 -1      1434 1.08150E+02 4.74020E+01 0.00000E+00
 -1      1435 1.11900E+02 4.87010E+01 0.00000E+00
 -1      1436 1.13400E+02 4.87010E+01 0.00000E+00
 -1      1437 1.11150E+02 4.74020E+01 0.00000E+00
 -1      1438 1.14900E+02 4.87010E+01 0.00000E+00
 -1      1439 1.16400E+02 4.87010E+01 0.00000E+00
 -1      1440 1.14150E+02 4.74020E+01 0.00000E+00
 -1      1441 1.17900E+02 4.87010E+01 0.00000E+00
 -1      1442 1.19400E+02 4.87010E+01 0.00000E+00
 -1      1443 1.17150E+02 4.74020E+01 0.00000E+00
 -1      1444 1.20900E+02 4.87010E+01 0.00000E+00
 -1      1445 1.22400E+02 4.87010E+01 0.00000E+00
 -1      1446 1.20150E+02 4.74020E+01 0.00000E+00
 -1      1447 1.23900E+02 4.87010E+01 0.00000E+00
 -1      1448 1.25400E+02 4.87010E+01 0.00000E+00
 -1      1449 1.23150E+02 4.74020E+01 0.00000E+00
 -1      1450 1.26900E+02 4.87010E+01 0.00000E+00
 -1      1451 1.28400E+02 4.87010E+01 0.00000E+00
 -1      1452 1.26150E+02 4.74020E+01 0.00000E+00
 -1      1453 1.29900E+02 4.87010E+01 0.00000E+00
 -1      1454 1.31400E+02 4.87010E+01 0.00000E+00
 -1      1455 1.29150E+02 4.74020E+01 0.00000E+00
 -1      1456 1.32900E+02 4.87010E+01 0.00000E+00
 -1      1457 1.34400E+02 4.87010E+01 0.00000E+00
 -1      1458 1.32150E+02 4.74020E+01 0.00000E+00
 -1      1459 1.35900E+02 4.87010E+01 0.00000E+00
 -1      1460 1.37400E+02 4.87010E+01 0.00000E+00
 -1      1461 1.35150E+02 4.74020E+01 0.00000E+00
 -1      1462 1.38900E+02 4.87010E+01 0.00000E+00
 -1      1463 1.40400E+02 4.87010E+01 0.00000E+00
 -1      1464 1.38150E+02 4.74020E+01 0.00000E+00
 -1      1465 1.41900E+02 4.87010E+01 0.00000E+00
 -1      1466 1.43400E+02 4.87010E+01 0.00000E+00
 -1      1467 1.41150E+02 4.74020E+01 0.00000E+00
 -1      1468 1.44900E+02 4.87010E+01 0.00000E+00
 -1      1469 1.46400E+02 4.87010E+01 0.00000E+00
 -1      1470 1.44150E+02 4.74020E+01 0.00000E+00
 -1      1471 1.48575E+02 4.85500E+01 0.00000E+00
 -1      1472 1.47825E+02 4.72510E+01 0.00000E+00
 -1      1473 6.01200E+00 1.09375E+00 0.00000E+00
 -1      1474 4.51200E+00 1.09375E+00 0.00000E+00
 -1      1475 4.37400E+00 2.18750E+00 0.00000E+00
 -1      1476 9.01200E+00 1.09375E+00 0.00000E+00
 -1      1477 7.51200E+00 1.09375E+00 0.00000E+00
 -1      1478 7.37400E+00 2.18750E+00 0.00000E+00
 -1      1479 1.20120E+01 1.09375E+00 0.00000E+00
 -1      1480 1.05120E+01 1.09375E+00 0.00000E+00
 -1      1481 1.03740E+01 2.18750E+00 0.00000E+00
 -1      1482 1.50120E+01 1.09375E+00 0.00000E+00
 -1      1483 1.35120E+01 1.09375E+00 0.00000E+00
 -1      1484 1.33740E+01 2.18750E+00 0.00000E+00
 -1      1485 1.80120E+01 1.09375E+00 0.00000E+00
 -1      1486 1.65120E+01 1.09375E+00 0.00000E+00
 -1      1487 1.63740E+01 2.18750E+00 0.00000E+00
 -1      1488 2.10120E+01 1.09375E+00 0.00000E+00
 -1      1489 1.95120E+01 1.09375E+00 0.00000E+00
 -1      1490 1.93740E+01 2.18750E+00 0.00000E+00
 -1      1491 2.40120E+01 1.09375E+00 0.00000E+00
 -1      1492 2.25120E+01 1.09375E+00 0.00000E+00
 -1      1493 2.23740E+01 2.18750E+00 0.00000E+00
 -1      1494 2.70120E+01 1.09375E+00 0.00000E+00
 -1      1495 2.55120E+01 1.09375E+00 0.00000E+00
 -1      1496 2.53740E+01 2.18750E+00 0.00000E+00
 -1      1497 3.00120E+01 1.09375E+00 0.00000E+00
 -1      1498 2.85120E+01 1.09375E+00 0.00000E+00
 -1      1499 2.83740E+01 2.18750E+00 0.00000E+00
 -1      1500 3.30120E+01 1.09375E+00 0.00000E+00
 -1      1501 3.15120E+01 1.09375E+00 0.00000E+00
 -1      1502 3.13740E+01 2.18750E+00 0.00000E+00
 -1      1503 3.60120E+01 1.09375E+00 0.00000E+00
 -1      1504 3.45120E+01 1.09375E+00 0.00000E+00
 -1      1505 3.43740E+01 2.18750E+00 0.00000E+00
 -1      1506 3.90120E+01 1.09375E+00 0.00000E+00
 -1      1507 3.75120E+01 1.09375E+00 0.00000E+00
 -1      1508 3.73740E+01 2.18750E+00 0.00000E+00
 -1      1509 4.20120E+01 1.09375E+00 0.00000E+00
 -1      1510 4.05120E+01 1.09375E+00 0.00000E+00
 -1      1511 4.03740E+01 2.18750E+00 0.00000E+00
 -1      1512 4.50120E+01 1.09375E+00 0.00000E+00
 -1      1513 4.35120E+01 1.09375E+00 0.00000E+00
 -1      1514 4.33740E+01 2.18750E+00 0.00000E+00
 -1      1515 4.80120E+01 1.09375E+00 0.00000E+00
 -1      1516 4.65120E+01 1.09375E+00 0.00000E+00
 -1      1517 4.63740E+01 2.18750E+00 0.00000E+00
 -1      1518 5.10120E+01 1.09375E+00 0.00000E+00
 -1      1519 4.95120E+01 1.09375E+00 0.00000E+00
 -1      1520 4.93740E+01 2.18750E+00 0.00000E+00
 -1      1521 5.40120E+01 1.09375E+00 0.00000E+00
 -1      1522 5.25120E+01 1.09375E+00 0.00000E+00
 -1      1523 5.23740E+01 2.18750E+00 0.00000E+00
 -1      1524 5.70120E+01 1.09375E+00 0.00000E+00
 -1      1525 5.55120E+01 1.09375E+00 0.00000E+00
 -1      1526 5.53740E+01 2.18750E+00 0.00000E+00
 -1      1527 6.00120E+01 1.09375E+00 0.00000E+00
 -1      1528 5.85120E+01 1.09375E+00 0.00000E+00
 -1      1529 5.83740E+01 2.18750E+00 0.00000E+00
 -1      1530 6.30120E+01 1.09375E+00 0.00000E+00
 -1      1531 6.15120E+01 1.09375E+00 0.00000E+00
 -1      1532 6.13740E+01 2.18750E+00 0.00000E+00
 -1      1533 6.60120E+01 1.09375E+00 0.00000E+00
 -1      1534 6.45120E+01 1.09375E+00 0.00000E+00
 -1      1535 6.43740E+01 2.18750E+00 0.00000E+00
 -1      1536 6.90120E+01 1.09375E+00 0.00000E+00
 -1      1537 6.75120E+01 1.09375E+00 0.00000E+00
 -1      1538 6.73740E+01 2.18750E+00 0.00000E+00
 -1      1539 7.20120E+01 1.09375E+00 0.00000E+00
 -1      1540 7.05120E+01 1.09375E+00 0.00000E+00
 -1      1541 7.03740E+01 2.18750E+00 0.00000E+00
 -1      1542 7.50120E+01 1.09375E+00 0.00000E+00
 -1      1543 7.35120E+01 1.09375E+00 0.00000E+00
 -1      1544 7.33740E+01 2.18750E+00 0.00000E+00
 -1      1545 7.80120E+01 1.09375E+00 0.00000E+00
 -1      1546 7.65120E+01 1.09375E+00 0.00000E+00
 -1      1547 7.63740E+01 2.18750E+00 0.00000E+00
 -1      1548 8.10120E+01 1.09375E+00 0.00000E+00
 -1      1549 7.95120E+01 1.09375E+00 0.00000E+00
 -1      1550 7.93740E+01 2.18750E+00 0.00000E+00
 -1      1551 8.40120E+01 1.09375E+00 0.00000E+00
 -1      1552 8.25120E+01 1.09375E+00 0.00000E+00
 -1      1553 8.23740E+01 2.18750E+00 0.00000E+00
 -1      1554 8.70120E+01 1.09375E+00 0.00000E+00
 -1      1555 8.55120E+01 1.09375E+00 0.00000E+00
 -1      1556 8.53740E+01 2.18750E+00 0.00000E+00
 -1      1557 9.00120E+01 1.09375E+00 0.00000E+00
 -1      1558 8.85120E+01 1.09375E+00 0.00000E+00
 -1      1559 8.83740E+01 2.18750E+00 0.00000E+00
 -1      1560 9.30120E+01 1.09375E+00 0.00000E+00
 -1      1561 9.15120E+01 1.09375E+00 0.00000E+00
 -1      1562 9.13740E+01 2.18750E+00 0.00000E+00
 -1      1563 9.60120E+01 1.09375E+00 0.00000E+00
 -1      1564 9.45120E+01 1.09375E+00 0.00000E+00
 -1      1565 9.43740E+01 2.18750E+00 0.00000E+00
 -1      1566 9.90120E+01 1.09375E+00 0.00000E+00
 -1      1567 9.75120E+01 1.09375E+00 0.00000E+00
 -1      1568 9.73740E+01 2.18750E+00 0.00000E+00
 -1      1569 1.02012E+02 1.09375E+00 0.00000E+00
 -1      1570 1.00512E+02 1.09375E+00 0.00000E+00
 -1      1571 1.00374E+02 2.18750E+00 0.00000E+00
 -1      1572 1.05012E+02 1.09375E+00 0.00000E+00
 -1      1573 1.03512E+02 1.09375E+00 0.00000E+00
 -1      1574 1.03374E+02 2.18750E+00 0.00000E+00
 -1      1575 1.08012E+02 1.09375E+00 0.00000E+00
 -1      1576 1.06512E+02 1.09375E+00 0.00000E+00
 -1      1577 1.06374E+02 2.18750E+00 0.00000E+00
 -1      1578 1.11012E+02 1.09375E+00 0.00000E+00
 -1      1579 1.09512E+02 1.09375E+00 0.00000E+00
 -1      1580 1.09374E+02 2.18750E+00 0.00000E+00
 -1      1581 1.14012E+02 1.09375E+00 0.00000E+00
 -1      1582 1.12512E+02 1.09375E+00 0.00000E+00
 -1      1583 1.12374E+02 2.18750E+00 0.00000E+00
 -1      1584 1.17012E+02 1.09375E+00 0.00000E+00
 -1      1585 1.15512E+02 1.09375E+00 0.00000E+00
 -1      1586 1.15374E+02 2.18750E+00 0.00000E+00
 -1      1587 1.20012E+02 1.09375E+00 0.00000E+00
 -1      1588 1.18512E+02 1.09375E+00 0.00000E+00
 -1      1589 1.18374E+02 2.18750E+00 0.00000E+00
 -1      1590 1.23012E+02 1.09375E+00 0.00000E+00
 -1      1591 1.21512E+02 1.09375E+00 0.00000E+00
 -1      1592 1.21374E+02 2.18750E+00 0.00000E+00
 -1      1593 1.26012E+02 1.09375E+00 0.00000E+00
 -1      1594 1.24512E+02 1.09375E+00 0.00000E+00
 -1      1595 1.24374E+02 2.18750E+00 0.00000E+00
 -1      1596 1.29012E+02 1.09375E+00 0.00000E+00
 -1      1597 1.27512E+02 1.09375E+00 0.00000E+00
 -1      1598 1.27374E+02 2.18750E+00 0.00000E+00
 -1      1599 1.32012E+02 1.09375E+00 0.00000E+00
 -1      1600 1.30512E+02 1.09375E+00 0.00000E+00
 -1      1601 1.30374E+02 2.18750E+00 0.00000E+00
 -1      1602 1.35012E+02 1.09375E+00 0.00000E+00
 -1      1603 1.33512E+02 1.09375E+00 0.00000E+00
 -1      1604 1.33374E+02 2.18750E+00 0.00000E+00
 -1      1605 1.38012E+02 1.09375E+00 0.00000E+00
 -1      1606 1.36512E+02 1.09375E+00 0.00000E+00
 -1      1607 1.36374E+02 2.18750E+00 0.00000E+00
 -1      1608 1.41012E+02 1.09375E+00 0.00000E+00
 -1      1609 1.39512E+02 1.09375E+00 0.00000E+00
 -1      1610 1.39374E+02 2.18750E+00 0.00000E+00
 -1      1611 1.44012E+02 1.09375E+00 0.00000E+00
 -1      1612 1.42512E+02 1.09375E+00 0.00000E+00
 -1      1613 1.42374E+02 2.18750E+00 0.00000E+00
 -1      1614 1.47012E+02 1.09375E+00 0.00000E+00
 -1      1615 1.45512E+02 1.09375E+00 0.00000E+00
 -1      1616 1.45374E+02 2.18750E+00 0.00000E+00
 -1      1617 1.48575E+02 1.47500E+00 0.00000E+00
 -1      1618 1.48701E+02 5.16250E+00 0.00000E+00
 -1      1619 1.48701E+02 3.68750E+00 0.00000E+00
 -1      1620 1.48701E+02 8.11250E+00 0.00000E+00
 -1      1621 1.48701E+02 6.63750E+00 0.00000E+00
 -1      1622 1.47402E+02 5.90000E+00 0.00000E+00
 -1      1623 1.48701E+02 1.10625E+01 0.00000E+00
 -1      1624 1.48701E+02 9.58750E+00 0.00000E+00
 -1      1625 1.47402E+02 8.85000E+00 0.00000E+00
 -1      1626 1.48701E+02 1.40125E+01 0.00000E+00
 -1      1627 1.48701E+02 1.25375E+01 0.00000E+00
 -1      1628 1.47402E+02 1.18000E+01 0.00000E+00
 -1      1629 1.48701E+02 1.69125E+01 0.00000E+00
 -1      1630 1.48701E+02 1.54625E+01 0.00000E+00
 -1      1631 1.47402E+02 1.47250E+01 0.00000E+00
 -1      1632 1.48701E+02 1.98625E+01 0.00000E+00
 -1      1633 1.48701E+02 1.83875E+01 0.00000E+00
 -1      1634 1.47402E+02 1.76500E+01 0.00000E+00
 -1      1635 1.48701E+02 2.28125E+01 0.00000E+00
 -1      1636 1.48701E+02 2.13375E+01 0.00000E+00
 -1      1637 1.47402E+02 2.06000E+01 0.00000E+00
 -1      1638 1.48701E+02 2.57625E+01 0.00000E+00
 -1      1639 1.48701E+02 2.42875E+01 0.00000E+00
 -1      1640 1.47402E+02 2.35500E+01 0.00000E+00
 -1      1641 1.48701E+02 2.87125E+01 0.00000E+00
 -1      1642 1.48701E+02 2.72375E+01 0.00000E+00
 -1      1643 1.47402E+02 2.65000E+01 0.00000E+00
 -1      1644 1.48701E+02 3.16625E+01 0.00000E+00
 -1      1645 1.48701E+02 3.01875E+01 0.00000E+00
 -1      1646 1.47402E+02 2.94500E+01 0.00000E+00
 -1      1647 1.48701E+02 3.45625E+01 0.00000E+00
 -1      1648 1.48701E+02 3.31125E+01 0.00000E+00
 -1      1649 1.47402E+02 3.23750E+01 0.00000E+00
 -1      1650 1.48701E+02 3.75125E+01 0.00000E+00
 -1      1651 1.48701E+02 3.60375E+01 0.00000E+00
 -1      1652 1.47402E+02 3.53000E+01 0.00000E+00
 -1      1653 1.48701E+02 4.04625E+01 0.00000E+00
 -1      1654 1.48701E+02 3.89875E+01 0.00000E+00
 -1      1655 1.47402E+02 3.82500E+01 0.00000E+00
 -1      1656 1.48701E+02 4.34125E+01 0.00000E+00
 -1      1657 1.48701E+02 4.19375E+01 0.00000E+00
 -1      1658 1.47402E+02 4.12000E+01 0.00000E+00
 -1      1659 1.48263E+02 4.60692E+01 0.00000E+00
 -1      1660 1.48263E+02 4.45942E+01 0.00000E+00
 -1      1661 1.46964E+02 4.38568E+01 0.00000E+00
 -1      1662 1.46088E+02 4.62202E+01 0.00000E+00
 -1      1663 1.06826E+02 1.69636E+01 0.00000E+00
 -1      1664 1.06907E+02 1.77146E+01 0.00000E+00
 -1      1665 1.06338E+02 1.54526E+01 0.00000E+00
 -1      1666 1.06563E+02 1.61326E+01 0.00000E+00
 -1      1667 1.05660E+02 1.40280E+01 0.00000E+00
 -1      1668 1.06027E+02 1.46608E+01 0.00000E+00
 -1      1669 1.04655E+02 1.27279E+01 0.00000E+00
 -1      1670 1.05169E+02 1.32905E+01 0.00000E+00
 -1      1671 1.03290E+02 1.15612E+01 0.00000E+00
 -1      1672 1.03981E+02 1.20363E+01 0.00000E+00
 -1      1673 1.01694E+02 1.09894E+01 0.00000E+00
 -1      1674 1.02383E+02 1.12614E+01 0.00000E+00
 -1      1675 1.00136E+02 1.05970E+01 0.00000E+00
 -1      1676 1.00866E+02 1.07176E+01 0.00000E+00
 -1      1677 9.85420E+01 1.06221E+01 0.00000E+00
 -1      1678 9.92715E+01 1.05878E+01 0.00000E+00
 -1      1679 9.68933E+01 1.08842E+01 0.00000E+00
 -1      1680 9.76484E+01 1.06805E+01 0.00000E+00
 -1      1681 9.52697E+01 1.15361E+01 0.00000E+00
 -1      1682 9.59773E+01 1.11584E+01 0.00000E+00
 -1      1683 9.40910E+01 1.26233E+01 0.00000E+00
 -1      1684 9.46220E+01 1.21717E+01 0.00000E+00
 -1      1685 9.30934E+01 1.37612E+01 0.00000E+00
 -1      1686 9.35255E+01 1.32113E+01 0.00000E+00
 -1      1687 9.22375E+01 1.51131E+01 0.00000E+00
 -1      1688 9.25693E+01 1.44412E+01 0.00000E+00
 -1      1689 9.18430E+01 1.66141E+01 0.00000E+00
 -1      1690 9.20164E+01 1.59404E+01 0.00000E+00
 -1      1691 9.16433E+01 1.81591E+01 0.00000E+00
 -1      1692 9.16785E+01 1.74335E+01 0.00000E+00
 -1      1693 9.18493E+01 1.97317E+01 0.00000E+00
 -1      1694 9.17328E+01 1.90105E+01 0.00000E+00
 -1      1695 9.22940E+01 2.13369E+01 0.00000E+00
 -1      1696 9.20075E+01 2.06118E+01 0.00000E+00
 -1      1697 9.31523E+01 2.27157E+01 0.00000E+00
 -1      1698 9.27450E+01 2.21104E+01 0.00000E+00
 -1      1699 9.42907E+01 2.39322E+01 0.00000E+00
 -1      1700 9.37275E+01 2.33942E+01 0.00000E+00
 -1      1701 9.56715E+01 2.50639E+01 0.00000E+00
 -1      1702 9.49608E+01 2.46447E+01 0.00000E+00
 -1      1703 9.73134E+01 2.55709E+01 0.00000E+00
 -1      1704 9.65931E+01 2.53428E+01 0.00000E+00
 -1      1705 9.89952E+01 2.57742E+01 0.00000E+00
 -1      1706 9.82157E+01 2.57066E+01 0.00000E+00
 -1      1707 1.00658E+02 2.56088E+01 0.00000E+00
 -1      1708 9.99010E+01 2.57116E+01 0.00000E+00
 -1      1709 1.02240E+02 2.51288E+01 0.00000E+00
 -1      1710 1.01523E+02 2.53932E+01 0.00000E+00
 -1      1711 1.03672E+02 2.43232E+01 0.00000E+00
 -1      1712 1.03035E+02 2.47329E+01 0.00000E+00
 -1      1713 1.04953E+02 2.32231E+01 0.00000E+00
 -1      1714 1.04400E+02 2.37833E+01 0.00000E+00
 -1      1715 1.05896E+02 2.18174E+01 0.00000E+00
 -1      1716 1.05487E+02 2.24773E+01 0.00000E+00
 -1      1717 1.06575E+02 2.02921E+01 0.00000E+00
 -1      1718 1.06323E+02 2.10177E+01 0.00000E+00
 -1      1719 1.06863E+02 1.86250E+01 0.00000E+00
 -1      1720 1.06776E+02 1.94013E+01 0.00000E+00
 -1      1721 1.04748E+02 1.18525E+01 0.00000E+00
 -1      1722 1.05913E+02 1.32816E+01 0.00000E+00
 -1      1723 1.48437E+02 2.56875E+00 0.00000E+00
 -1      1724 1.47138E+02 3.30625E+00 0.00000E+00
 -1      1725 1.07289E+02 1.64337E+01 0.00000E+00
 -1      1726 1.06715E+02 1.48109E+01 0.00000E+00
 -1      1727 1.07508E+02 1.81751E+01 0.00000E+00
 -1      1728 1.03167E+02 1.08612E+01 0.00000E+00
 -1      1729 1.01434E+02 1.02897E+01 0.00000E+00
 -1      1730 9.97424E+01 1.00086E+01 0.00000E+00
 -1      1731 9.79847E+01 1.00578E+01 0.00000E+00
 -1      1732 9.61751E+01 1.03904E+01 0.00000E+00
 -1      1733 9.46114E+01 1.13002E+01 0.00000E+00
 -1      1734 9.33983E+01 1.25237E+01 0.00000E+00
 -1      1735 9.23088E+01 1.37917E+01 0.00000E+00
 -1      1736 9.15637E+01 1.52989E+01 0.00000E+00
 -1      1737 9.11781E+01 1.69455E+01 0.00000E+00
 -1      1738 9.11031E+01 1.86163E+01 0.00000E+00
 -1      1739 9.13509E+01 2.03478E+01 0.00000E+00
 -1      1740 9.19600E+01 2.20014E+01 0.00000E+00
 -1      1741 9.29862E+01 2.34533E+01 0.00000E+00
 -1      1742 9.42316E+01 2.48443E+01 0.00000E+00
 -1      1743 9.58233E+01 2.58357E+01 0.00000E+00
 -1      1744 9.76472E+01 2.62503E+01 0.00000E+00
 -1      1745 9.94553E+01 2.63235E+01 0.00000E+00
 -1      1746 1.01226E+02 2.60453E+01 0.00000E+00
 -1      1747 1.02886E+02 2.54338E+01 0.00000E+00
 -1      1748 1.04410E+02 2.44981E+01 0.00000E+00
 -1      1749 1.05673E+02 2.32124E+01 0.00000E+00
 -1      1750 1.06634E+02 2.16668E+01 0.00000E+00
 -1      1751 1.07262E+02 1.99763E+01 0.00000E+00
 -1      1752 2.87400E+00 4.77875E+01 0.00000E+00
 -1      1753 3.89700E+00 4.04125E+01 0.00000E+00
 -1      1754 3.89700E+00 4.18875E+01 0.00000E+00
 -1      1755 3.89700E+00 4.33625E+01 0.00000E+00
 -1      1756 3.89700E+00 4.48375E+01 0.00000E+00
 -1      1757 5.19600E+00 4.26250E+01 0.00000E+00
 -1      1758 3.89700E+00 3.45500E+01 0.00000E+00
 -1      1759 3.89700E+00 3.60000E+01 0.00000E+00
 -1      1760 3.89700E+00 3.16000E+01 0.00000E+00
 -1      1761 3.89700E+00 3.30750E+01 0.00000E+00
 -1      1762 5.19600E+00 3.38000E+01 0.00000E+00
 -1      1763 3.89700E+00 2.86500E+01 0.00000E+00
 -1      1764 3.89700E+00 3.01250E+01 0.00000E+00
 -1      1765 5.19600E+00 3.08500E+01 0.00000E+00
 -1      1766 3.89700E+00 2.57000E+01 0.00000E+00
 -1      1767 3.89700E+00 2.71750E+01 0.00000E+00
 -1      1768 5.19600E+00 2.79000E+01 0.00000E+00
 -1      1769 3.89700E+00 2.27500E+01 0.00000E+00
 -1      1770 3.89700E+00 2.42250E+01 0.00000E+00
 -1      1771 5.19600E+00 2.49500E+01 0.00000E+00
 -1      1772 3.89700E+00 1.98000E+01 0.00000E+00
 -1      1773 3.89700E+00 2.12750E+01 0.00000E+00
 -1      1774 5.19600E+00 2.20000E+01 0.00000E+00
 -1      1775 3.89700E+00 1.69000E+01 0.00000E+00
 -1      1776 3.89700E+00 1.83500E+01 0.00000E+00
 -1      1777 5.19600E+00 1.90750E+01 0.00000E+00
 -1      1778 3.89700E+00 1.39500E+01 0.00000E+00
 -1      1779 3.89700E+00 1.54250E+01 0.00000E+00
 -1      1780 5.19600E+00 1.61500E+01 0.00000E+00
 -1      1781 3.89700E+00 1.10000E+01 0.00000E+00
 -1      1782 3.89700E+00 1.24750E+01 0.00000E+00
 -1      1783 5.19600E+00 1.32000E+01 0.00000E+00
 -1      1784 3.89700E+00 8.05000E+00 0.00000E+00
 -1      1785 3.89700E+00 9.52500E+00 0.00000E+00
 -1      1786 5.19600E+00 1.02500E+01 0.00000E+00
 -1      1787 3.89700E+00 5.10000E+00 0.00000E+00
 -1      1788 3.89700E+00 6.57500E+00 0.00000E+00
 -1      1789 5.19600E+00 7.30000E+00 0.00000E+00
 -1      1790 4.20450E+00 3.09687E+00 0.00000E+00
 -1      1791 4.06650E+00 4.19063E+00 0.00000E+00
 -1      1792 5.36550E+00 4.91563E+00 0.00000E+00
 -1      1793 5.70450E+00 3.09687E+00 0.00000E+00
 -1      1794 3.62400E+00 4.64885E+01 0.00000E+00
 -1      1795 8.70450E+00 3.09687E+00 0.00000E+00
 -1      1796 7.20450E+00 3.09687E+00 0.00000E+00
 -1      1797 7.03500E+00 4.00625E+00 0.00000E+00
 -1      1798 4.92300E+00 4.57510E+01 0.00000E+00
 -1      1799 8.40000E+00 4.61030E+01 0.00000E+00
 -1      1800 9.90000E+00 4.61030E+01 0.00000E+00
 -1      1801 1.14000E+01 4.61030E+01 0.00000E+00
 -1      1802 1.29000E+01 4.61030E+01 0.00000E+00
 -1      1803 1.06500E+01 4.48040E+01 0.00000E+00
 -1      1804 1.44000E+01 4.61030E+01 0.00000E+00
 -1      1805 1.59000E+01 4.61030E+01 0.00000E+00
 -1      1806 1.36500E+01 4.48040E+01 0.00000E+00
 -1      1807 1.74000E+01 4.61030E+01 0.00000E+00
 -1      1808 1.89000E+01 4.61030E+01 0.00000E+00
 -1      1809 1.66500E+01 4.48040E+01 0.00000E+00
 -1      1810 2.04000E+01 4.61030E+01 0.00000E+00
 -1      1811 2.19000E+01 4.61030E+01 0.00000E+00
 -1      1812 1.96500E+01 4.48040E+01 0.00000E+00
 -1      1813 2.34000E+01 4.61030E+01 0.00000E+00
 -1      1814 2.49000E+01 4.61030E+01 0.00000E+00
 -1      1815 2.26500E+01 4.48040E+01 0.00000E+00
 -1      1816 2.64000E+01 4.61030E+01 0.00000E+00
 -1      1817 2.79000E+01 4.61030E+01 0.00000E+00
 -1      1818 2.56500E+01 4.48040E+01 0.00000E+00
 -1      1819 2.94000E+01 4.61030E+01 0.00000E+00
 -1      1820 3.09000E+01 4.61030E+01 0.00000E+00
 -1      1821 2.86500E+01 4.48040E+01 0.00000E+00
 -1      1822 3.24000E+01 4.61030E+01 0.00000E+00
 -1      1823 3.39000E+01 4.61030E+01 0.00000E+00
 -1      1824 3.16500E+01 4.48040E+01 0.00000E+00
 -1      1825 3.54000E+01 4.61030E+01 0.00000E+00
 -1      1826 3.69000E+01 4.61030E+01 0.00000E+00
 -1      1827 3.46500E+01 4.48040E+01 0.00000E+00
 -1      1828 3.84000E+01 4.61030E+01 0.00000E+00
 -1      1829 3.99000E+01 4.61030E+01 0.00000E+00
 -1      1830 3.76500E+01 4.48040E+01 0.00000E+00
 -1      1831 4.14000E+01 4.61030E+01 0.00000E+00
 -1      1832 4.29000E+01 4.61030E+01 0.00000E+00
 -1      1833 4.06500E+01 4.48040E+01 0.00000E+00
 -1      1834 4.44000E+01 4.61030E+01 0.00000E+00
 -1      1835 4.59000E+01 4.61030E+01 0.00000E+00
 -1      1836 4.36500E+01 4.48040E+01 0.00000E+00
 -1      1837 4.74000E+01 4.61030E+01 0.00000E+00
 -1      1838 4.89000E+01 4.61030E+01 0.00000E+00
 -1      1839 4.66500E+01 4.48040E+01 0.00000E+00
 -1      1840 5.04000E+01 4.61030E+01 0.00000E+00
 -1      1841 5.19000E+01 4.61030E+01 0.00000E+00
 -1      1842 4.96500E+01 4.48040E+01 0.00000E+00
 -1      1843 5.34000E+01 4.61030E+01 0.00000E+00
 -1      1844 5.49000E+01 4.61030E+01 0.00000E+00
 -1      1845 5.26500E+01 4.48040E+01 0.00000E+00
 -1      1846 5.64000E+01 4.61030E+01 0.00000E+00
 -1      1847 5.79000E+01 4.61030E+01 0.00000E+00
 -1      1848 5.56500E+01 4.48040E+01 0.00000E+00
 -1      1849 5.94000E+01 4.61030E+01 0.00000E+00
 -1      1850 6.09000E+01 4.61030E+01 0.00000E+00
 -1      1851 5.86500E+01 4.48040E+01 0.00000E+00
 -1      1852 6.24000E+01 4.61030E+01 0.00000E+00
 -1      1853 6.39000E+01 4.61030E+01 0.00000E+00
 -1      1854 6.16500E+01 4.48040E+01 0.00000E+00
 -1      1855 6.54000E+01 4.61030E+01 0.00000E+00
 -1      1856 6.69000E+01 4.61030E+01 0.00000E+00
 -1      1857 6.46500E+01 4.48040E+01 0.00000E+00
 -1      1858 6.84000E+01 4.61030E+01 0.00000E+00
 -1      1859 6.99000E+01 4.61030E+01 0.00000E+00
 -1      1860 6.76500E+01 4.48040E+01 0.00000E+00
 -1      1861 7.14000E+01 4.61030E+01 0.00000E+00
 -1      1862 7.29000E+01 4.61030E+01 0.00000E+00
 -1      1863 7.06500E+01 4.48040E+01 0.00000E+00
 -1      1864 7.44000E+01 4.61030E+01 0.00000E+00
 -1      1865 7.59000E+01 4.61030E+01 0.00000E+00
 -1      1866 7.36500E+01 4.48040E+01 0.00000E+00
 -1      1867 7.74000E+01 4.61030E+01 0.00000E+00
 -1      1868 7.89000E+01 4.61030E+01 0.00000E+00
 -1      1869 7.66500E+01 4.48040E+01 0.00000E+00
 -1      1870 8.04000E+01 4.61030E+01 0.00000E+00
 -1      1871 8.19000E+01 4.61030E+01 0.00000E+00
 -1      1872 7.96500E+01 4.48040E+01 0.00000E+00
 -1      1873 8.34000E+01 4.61030E+01 0.00000E+00
 -1      1874 8.49000E+01 4.61030E+01 0.00000E+00
 -1      1875 8.26500E+01 4.48040E+01 0.00000E+00
 -1      1876 8.64000E+01 4.61030E+01 0.00000E+00
 -1      1877 8.79000E+01 4.61030E+01 0.00000E+00
 -1      1878 8.56500E+01 4.48040E+01 0.00000E+00
 -1      1879 8.94000E+01 4.61030E+01 0.00000E+00
 -1      1880 9.09000E+01 4.61030E+01 0.00000E+00
 -1      1881 8.86500E+01 4.48040E+01 0.00000E+00
 -1      1882 9.24000E+01 4.61030E+01 0.00000E+00
 -1      1883 9.39000E+01 4.61030E+01 0.00000E+00
 -1      1884 9.16500E+01 4.48040E+01 0.00000E+00
 -1      1885 9.54000E+01 4.61030E+01 0.00000E+00
 -1      1886 9.69000E+01 4.61030E+01 0.00000E+00
 -1      1887 9.46500E+01 4.48040E+01 0.00000E+00
 -1      1888 9.84000E+01 4.61030E+01 0.00000E+00
 -1      1889 9.99000E+01 4.61030E+01 0.00000E+00
 -1      1890 9.76500E+01 4.48040E+01 0.00000E+00
 -1      1891 1.01400E+02 4.61030E+01 0.00000E+00
 -1      1892 1.02900E+02 4.61030E+01 0.00000E+00
 -1      1893 1.00650E+02 4.48040E+01 0.00000E+00
 -1      1894 1.04400E+02 4.61030E+01 0.00000E+00
 -1      1895 1.05900E+02 4.61030E+01 0.00000E+00
 -1      1896 1.03650E+02 4.48040E+01 0.00000E+00
 -1      1897 1.07400E+02 4.61030E+01 0.00000E+00
 -1      1898 1.08900E+02 4.61030E+01 0.00000E+00
 -1      1899 1.06650E+02 4.48040E+01 0.00000E+00
 -1      1900 1.10400E+02 4.61030E+01 0.00000E+00
 -1      1901 1.11900E+02 4.61030E+01 0.00000E+00
 -1      1902 1.09650E+02 4.48040E+01 0.00000E+00
 -1      1903 1.13400E+02 4.61030E+01 0.00000E+00
 -1      1904 1.14900E+02 4.61030E+01 0.00000E+00
 -1      1905 1.12650E+02 4.48040E+01 0.00000E+00
 -1      1906 1.16400E+02 4.61030E+01 0.00000E+00
 -1      1907 1.17900E+02 4.61030E+01 0.00000E+00
 -1      1908 1.15650E+02 4.48040E+01 0.00000E+00
 -1      1909 1.19400E+02 4.61030E+01 0.00000E+00
 -1      1910 1.20900E+02 4.61030E+01 0.00000E+00
 -1      1911 1.18650E+02 4.48040E+01 0.00000E+00
 -1      1912 1.22400E+02 4.61030E+01 0.00000E+00
 -1      1913 1.23900E+02 4.61030E+01 0.00000E+00
 -1      1914 1.21650E+02 4.48040E+01 0.00000E+00
 -1      1915 1.25400E+02 4.61030E+01 0.00000E+00
 -1      1916 1.26900E+02 4.61030E+01 0.00000E+00
 -1      1917 1.24650E+02 4.48040E+01 0.00000E+00
 -1      1918 1.28400E+02 4.61030E+01 0.00000E+00
 -1      1919 1.29900E+02 4.61030E+01 0.00000E+00
 -1      1920 1.27650E+02 4.48040E+01 0.00000E+00
 -1      1921 1.31400E+02 4.61030E+01 0.00000E+00
 -1      1922 1.32900E+02 4.61030E+01 0.00000E+00
 -1      1923 1.30650E+02 4.48040E+01 0.00000E+00
 -1      1924 1.34400E+02 4.61030E+01 0.00000E+00
 -1      1925 1.35900E+02 4.61030E+01 0.00000E+00
 -1      1926 1.33650E+02 4.48040E+01 0.00000E+00
 -1      1927 1.37400E+02 4.61030E+01 0.00000E+00
 -1      1928 1.38900E+02 4.61030E+01 0.00000E+00
 -1      1929 1.36650E+02 4.48040E+01 0.00000E+00
 -1      1930 1.40400E+02 4.61030E+01 0.00000E+00
 -1      1931 1.41900E+02 4.61030E+01 0.00000E+00
 -1      1932 1.39650E+02 4.48040E+01 0.00000E+00
 -1      1933 1.43244E+02 4.61616E+01 0.00000E+00
 -1      1934 1.44744E+02 4.61616E+01 0.00000E+00
 -1      1935 1.45182E+02 4.49799E+01 0.00000E+00
 -1      1936 1.42494E+02 4.48626E+01 0.00000E+00
 -1      1937 1.17045E+01 3.09687E+00 0.00000E+00
 -1      1938 1.02045E+01 3.09687E+00 0.00000E+00
 -1      1939 1.00350E+01 4.00625E+00 0.00000E+00
 -1      1940 1.47045E+01 3.09687E+00 0.00000E+00
 -1      1941 1.32045E+01 3.09687E+00 0.00000E+00
 -1      1942 1.30350E+01 4.00625E+00 0.00000E+00
 -1      1943 1.77045E+01 3.09687E+00 0.00000E+00
 -1      1944 1.62045E+01 3.09687E+00 0.00000E+00
 -1      1945 1.60350E+01 4.00625E+00 0.00000E+00
 -1      1946 2.07045E+01 3.09687E+00 0.00000E+00
 -1      1947 1.92045E+01 3.09687E+00 0.00000E+00
 -1      1948 1.90350E+01 4.00625E+00 0.00000E+00
 -1      1949 2.37045E+01 3.09687E+00 0.00000E+00
 -1      1950 2.22045E+01 3.09687E+00 0.00000E+00
 -1      1951 2.20350E+01 4.00625E+00 0.00000E+00
 -1      1952 2.67045E+01 3.09687E+00 0.00000E+00
 -1      1953 2.52045E+01 3.09687E+00 0.00000E+00
 -1      1954 2.50350E+01 4.00625E+00 0.00000E+00
 -1      1955 2.97045E+01 3.09687E+00 0.00000E+00
 -1      1956 2.82045E+01 3.09687E+00 0.00000E+00
 -1      1957 2.80350E+01 4.00625E+00 0.00000E+00
 -1      1958 3.27045E+01 3.09687E+00 0.00000E+00
 -1      1959 3.12045E+01 3.09687E+00 0.00000E+00
 -1      1960 3.10350E+01 4.00625E+00 0.00000E+00
 -1      1961 3.57045E+01 3.09687E+00 0.00000E+00
 -1      1962 3.42045E+01 3.09687E+00 0.00000E+00
 -1      1963 3.40350E+01 4.00625E+00 0.00000E+00
 -1      1964 3.87045E+01 3.09687E+00 0.00000E+00
 -1      1965 3.72045E+01 3.09687E+00 0.00000E+00
 -1      1966 3.70350E+01 4.00625E+00 0.00000E+00
 -1      1967 4.17045E+01 3.09687E+00 0.00000E+00
 -1      1968 4.02045E+01 3.09687E+00 0.00000E+00
 -1      1969 4.00350E+01 4.00625E+00 0.00000E+00
 -1      1970 4.47045E+01 3.09687E+00 0.00000E+00
 -1      1971 4.32045E+01 3.09687E+00 0.00000E+00
 -1      1972 4.30350E+01 4.00625E+00 0.00000E+00
 -1      1973 4.77045E+01 3.09687E+00 0.00000E+00
 -1      1974 4.62045E+01 3.09687E+00 0.00000E+00
 -1      1975 4.60350E+01 4.00625E+00 0.00000E+00
 -1      1976 5.07045E+01 3.09687E+00 0.00000E+00
 -1      1977 4.92045E+01 3.09687E+00 0.00000E+00
 -1      1978 4.90350E+01 4.00625E+00 0.00000E+00
 -1      1979 5.37045E+01 3.09687E+00 0.00000E+00
 -1      1980 5.22045E+01 3.09687E+00 0.00000E+00
 -1      1981 5.20350E+01 4.00625E+00 0.00000E+00
 -1      1982 5.67045E+01 3.09687E+00 0.00000E+00
 -1      1983 5.52045E+01 3.09687E+00 0.00000E+00
 -1      1984 5.50350E+01 4.00625E+00 0.00000E+00
 -1      1985 5.97045E+01 3.09687E+00 0.00000E+00
 -1      1986 5.82045E+01 3.09687E+00 0.00000E+00
 -1      1987 5.80350E+01 4.00625E+00 0.00000E+00
 -1      1988 6.27045E+01 3.09687E+00 0.00000E+00
 -1      1989 6.12045E+01 3.09687E+00 0.00000E+00
 -1      1990 6.10350E+01 4.00625E+00 0.00000E+00
 -1      1991 6.57045E+01 3.09687E+00 0.00000E+00
 -1      1992 6.42045E+01 3.09687E+00 0.00000E+00
 -1      1993 6.40350E+01 4.00625E+00 0.00000E+00
 -1      1994 6.87045E+01 3.09687E+00 0.00000E+00
 -1      1995 6.72045E+01 3.09687E+00 0.00000E+00
 -1      1996 6.70350E+01 4.00625E+00 0.00000E+00
 -1      1997 7.17045E+01 3.09687E+00 0.00000E+00
 -1      1998 7.02045E+01 3.09687E+00 0.00000E+00
 -1      1999 7.00350E+01 4.00625E+00 0.00000E+00
 -1      2000 7.47045E+01 3.09687E+00 0.00000E+00
 -1      2001 7.32045E+01 3.09687E+00 0.00000E+00
 -1      2002 7.30350E+01 4.00625E+00 0.00000E+00
 -1      2003 7.77045E+01 3.09687E+00 0.00000E+00
 -1      2004 7.62045E+01 3.09687E+00 0.00000E+00
 -1      2005 7.60350E+01 4.00625E+00 0.00000E+00
 -1      2006 8.07045E+01 3.09687E+00 0.00000E+00
 -1      2007 7.92045E+01 3.09687E+00 0.00000E+00
 -1      2008 7.90350E+01 4.00625E+00 0.00000E+00
 -1      2009 8.37045E+01 3.09687E+00 0.00000E+00
 -1      2010 8.22045E+01 3.09687E+00 0.00000E+00
 -1      2011 8.20350E+01 4.00625E+00 0.00000E+00
 -1      2012 8.67045E+01 3.09687E+00 0.00000E+00
 -1      2013 8.52045E+01 3.09687E+00 0.00000E+00
 -1      2014 8.50350E+01 4.00625E+00 0.00000E+00
 -1      2015 8.97045E+01 3.09687E+00 0.00000E+00
 -1      2016 8.82045E+01 3.09687E+00 0.00000E+00
 -1      2017 8.80350E+01 4.00625E+00 0.00000E+00
 -1      2018 9.27045E+01 3.09687E+00 0.00000E+00
 -1      2019 9.12045E+01 3.09687E+00 0.00000E+00
 -1      2020 9.10350E+01 4.00625E+00 0.00000E+00
 -1      2021 9.57045E+01 3.09687E+00 0.00000E+00
 -1      2022 9.42045E+01 3.09687E+00 0.00000E+00
 -1      2023 9.40350E+01 4.00625E+00 0.00000E+00
 -1      2024 9.87045E+01 3.09687E+00 0.00000E+00
 -1      2025 9.72045E+01 3.09687E+00 0.00000E+00
 -1      2026 9.70350E+01 4.00625E+00 0.00000E+00
 -1      2027 1.01704E+02 3.09687E+00 0.00000E+00
 -1      2028 1.00204E+02 3.09687E+00 0.00000E+00
 -1      2029 1.00035E+02 4.00625E+00 0.00000E+00
 -1      2030 1.04704E+02 3.09687E+00 0.00000E+00
 -1      2031 1.03204E+02 3.09687E+00 0.00000E+00
 -1      2032 1.03035E+02 4.00625E+00 0.00000E+00
 -1      2033 1.07704E+02 3.09687E+00 0.00000E+00
 -1      2034 1.06204E+02 3.09687E+00 0.00000E+00
 -1      2035 1.06035E+02 4.00625E+00 0.00000E+00
 -1      2036 1.10704E+02 3.09687E+00 0.00000E+00
 -1      2037 1.09204E+02 3.09687E+00 0.00000E+00
 -1      2038 1.09035E+02 4.00625E+00 0.00000E+00
 -1      2039 1.13704E+02 3.09687E+00 0.00000E+00
 -1      2040 1.12204E+02 3.09687E+00 0.00000E+00
 -1      2041 1.12035E+02 4.00625E+00 0.00000E+00
 -1      2042 1.16704E+02 3.09687E+00 0.00000E+00
 -1      2043 1.15204E+02 3.09687E+00 0.00000E+00
 -1      2044 1.15035E+02 4.00625E+00 0.00000E+00
 -1      2045 1.19704E+02 3.09687E+00 0.00000E+00
 -1      2046 1.18204E+02 3.09687E+00 0.00000E+00
 -1      2047 1.18035E+02 4.00625E+00 0.00000E+00
 -1      2048 1.22704E+02 3.09687E+00 0.00000E+00
 -1      2049 1.21204E+02 3.09687E+00 0.00000E+00
 -1      2050 1.21035E+02 4.00625E+00 0.00000E+00
 -1      2051 1.25704E+02 3.09687E+00 0.00000E+00
 -1      2052 1.24204E+02 3.09687E+00 0.00000E+00
 -1      2053 1.24035E+02 4.00625E+00 0.00000E+00
 -1      2054 1.28704E+02 3.09687E+00 0.00000E+00
 -1      2055 1.27204E+02 3.09687E+00 0.00000E+00
 -1      2056 1.27035E+02 4.00625E+00 0.00000E+00
 -1      2057 1.31704E+02 3.09687E+00 0.00000E+00
 -1      2058 1.30204E+02 3.09687E+00 0.00000E+00
 -1      2059 1.30035E+02 4.00625E+00 0.00000E+00
 -1      2060 1.34704E+02 3.09687E+00 0.00000E+00
 -1      2061 1.33204E+02 3.09687E+00 0.00000E+00
 -1      2062 1.33035E+02 4.00625E+00 0.00000E+00
 -1      2063 1.37704E+02 3.09687E+00 0.00000E+00
 -1      2064 1.36204E+02 3.09687E+00 0.00000E+00
 -1      2065 1.36035E+02 4.00625E+00 0.00000E+00
 -1      2066 1.40704E+02 3.09687E+00 0.00000E+00
 -1      2067 1.39204E+02 3.09687E+00 0.00000E+00
 -1      2068 1.39035E+02 4.00625E+00 0.00000E+00
 -1      2069 1.43704E+02 3.09687E+00 0.00000E+00
 -1      2070 1.42204E+02 3.09687E+00 0.00000E+00
 -1      2071 1.42035E+02 4.00625E+00 0.00000E+00
 -1      2072 1.46171E+02 3.20156E+00 0.00000E+00
 -1      2073 1.44671E+02 3.20156E+00 0.00000E+00
 -1      2074 1.44502E+02 4.11094E+00 0.00000E+00
 -1      2075 1.46435E+02 4.32031E+00 0.00000E+00
 -1      2076 1.46103E+02 1.25375E+01 0.00000E+00
 -1      2077 1.46103E+02 1.10625E+01 0.00000E+00
 -1      2078 1.46103E+02 9.58750E+00 0.00000E+00
 -1      2079 1.46103E+02 8.11250E+00 0.00000E+00
 -1      2080 1.44804E+02 1.03250E+01 0.00000E+00
 -1      2081 1.46269E+02 6.95391E+00 0.00000E+00
 -1      2082 1.46269E+02 5.47891E+00 0.00000E+00
 -1      2083 1.45302E+02 5.37422E+00 0.00000E+00
 -1      2084 1.44970E+02 7.69141E+00 0.00000E+00
 -1      2085 1.46103E+02 1.54375E+01 0.00000E+00
 -1      2086 1.46103E+02 1.39875E+01 0.00000E+00
 -1      2087 1.44804E+02 1.32500E+01 0.00000E+00
 -1      2088 1.46103E+02 1.83875E+01 0.00000E+00
 -1      2089 1.46103E+02 1.69125E+01 0.00000E+00
 -1      2090 1.44804E+02 1.61750E+01 0.00000E+00
 -1      2091 1.46103E+02 2.13375E+01 0.00000E+00
 -1      2092 1.46103E+02 1.98625E+01 0.00000E+00
 -1      2093 1.44804E+02 1.91250E+01 0.00000E+00
 -1      2094 1.46103E+02 2.42875E+01 0.00000E+00
 -1      2095 1.46103E+02 2.28125E+01 0.00000E+00
 -1      2096 1.44804E+02 2.20750E+01 0.00000E+00
 -1      2097 1.46103E+02 2.72375E+01 0.00000E+00
 -1      2098 1.46103E+02 2.57625E+01 0.00000E+00
 -1      2099 1.44804E+02 2.50250E+01 0.00000E+00
 -1      2100 1.46103E+02 3.01875E+01 0.00000E+00
 -1      2101 1.46103E+02 2.87125E+01 0.00000E+00
 -1      2102 1.44804E+02 2.79750E+01 0.00000E+00
 -1      2103 1.46103E+02 3.30875E+01 0.00000E+00
 -1      2104 1.46103E+02 3.16375E+01 0.00000E+00
 -1      2105 1.44804E+02 3.09000E+01 0.00000E+00
 -1      2106 1.46103E+02 3.60375E+01 0.00000E+00
 -1      2107 1.46103E+02 3.45625E+01 0.00000E+00
 -1      2108 1.44804E+02 3.38250E+01 0.00000E+00
 -1      2109 1.46103E+02 3.89875E+01 0.00000E+00
 -1      2110 1.46103E+02 3.75125E+01 0.00000E+00
 -1      2111 1.44804E+02 3.67750E+01 0.00000E+00
 -1      2112 1.46103E+02 4.19375E+01 0.00000E+00
 -1      2113 1.46103E+02 4.04625E+01 0.00000E+00
 -1      2114 1.44804E+02 3.97250E+01 0.00000E+00
 -1      2115 1.07241E+02 1.41474E+01 0.00000E+00
 -1      2116 1.07552E+02 1.49392E+01 0.00000E+00
 -1      2117 1.08219E+02 1.77537E+01 0.00000E+00
 -1      2118 1.08175E+02 1.86641E+01 0.00000E+00
 -1      2119 1.07815E+02 1.57702E+01 0.00000E+00
 -1      2120 1.08078E+02 1.66012E+01 0.00000E+00
 -1      2121 1.08341E+02 1.51067E+01 0.00000E+00
 -1      2122 1.06242E+02 1.25304E+01 0.00000E+00
 -1      2123 1.06733E+02 1.32678E+01 0.00000E+00
 -1      2124 1.04965E+02 1.09667E+01 0.00000E+00
 -1      2125 1.05639E+02 1.16582E+01 0.00000E+00
 -1      2126 3.89700E+00 3.74688E+01 0.00000E+00
 -1      2127 3.89700E+00 3.89437E+01 0.00000E+00
 -1      2128 5.19600E+00 3.96813E+01 0.00000E+00
 -1      2129 5.19600E+00 3.67438E+01 0.00000E+00
 -1      2130 1.01288E+02 9.33908E+00 0.00000E+00
 -1      2131 1.02115E+02 9.61090E+00 0.00000E+00
 -1      2132 9.93172E+01 9.35596E+00 0.00000E+00
 -1      2133 1.00181E+02 9.36519E+00 0.00000E+00
 -1      2134 9.74929E+01 9.39844E+00 0.00000E+00
 -1      2135 9.83865E+01 9.34007E+00 0.00000E+00
 -1      2136 9.54952E+01 9.78625E+00 0.00000E+00
 -1      2137 9.64112E+01 9.51200E+00 0.00000E+00
 -1      2138 9.37163E+01 1.10358E+01 0.00000E+00
 -1      2139 9.43640E+01 1.04002E+01 0.00000E+00
 -1      2140 9.25854E+01 1.22117E+01 0.00000E+00
 -1      2141 9.31508E+01 1.16238E+01 0.00000E+00
 -1      2142 9.29034E+01 1.07238E+01 0.00000E+00
 -1      2143 9.15334E+01 1.37360E+01 0.00000E+00
 -1      2144 9.20575E+01 1.30561E+01 0.00000E+00
 -1      2145 9.07866E+01 1.55344E+01 0.00000E+00
 -1      2146 9.10076E+01 1.47072E+01 0.00000E+00
 -1      2147 9.04604E+01 1.72276E+01 0.00000E+00
 -1      2148 9.06250E+01 1.64082E+01 0.00000E+00
 -1      2149 9.04200E+01 1.91186E+01 0.00000E+00
 -1      2150 9.03305E+01 1.82672E+01 0.00000E+00
 -1      2151 9.07364E+01 2.08787E+01 0.00000E+00
 -1      2152 9.05782E+01 1.99986E+01 0.00000E+00
 -1      2153 8.98056E+01 1.96495E+01 0.00000E+00
 -1      2154 9.15532E+01 2.27567E+01 0.00000E+00
 -1      2155 9.11023E+01 2.19832E+01 0.00000E+00
 -1      2156 9.27475E+01 2.42388E+01 0.00000E+00
 -1      2157 9.21723E+01 2.35603E+01 0.00000E+00
 -1      2158 9.40335E+01 2.57020E+01 0.00000E+00
 -1      2159 9.33633E+01 2.49895E+01 0.00000E+00
 -1      2160 9.60722E+01 2.66757E+01 0.00000E+00
 -1      2161 9.51506E+01 2.63968E+01 0.00000E+00
 -1      2162 9.79832E+01 2.70834E+01 0.00000E+00
 -1      2163 9.70810E+01 2.69477E+01 0.00000E+00
 -1      2164 9.99557E+01 2.69806E+01 0.00000E+00
 -1      2165 9.90499E+01 2.70431E+01 0.00000E+00
 -1      2166 1.01836E+02 2.66477E+01 0.00000E+00
 -1      2167 1.00971E+02 2.68633E+01 0.00000E+00
 -1      2168 1.03647E+02 2.59660E+01 0.00000E+00
 -1      2169 1.02853E+02 2.63619E+01 0.00000E+00
 -1      2170 1.05160E+02 2.47489E+01 0.00000E+00
 -1      2171 1.04431E+02 2.52887E+01 0.00000E+00
 -1      2172 1.06501E+02 2.32414E+01 0.00000E+00
 -1      2173 1.05966E+02 2.39872E+01 0.00000E+00
 -1      2174 1.07567E+02 2.16512E+01 0.00000E+00
 -1      2175 1.07140E+02 2.24510E+01 0.00000E+00
 -1      2176 1.08077E+02 1.96919E+01 0.00000E+00
 -1      2177 1.07876E+02 2.05827E+01 0.00000E+00
 -1      2178 1.03021E+02 9.91062E+00 0.00000E+00
 -1      2179 1.03928E+02 1.02103E+01 0.00000E+00
 -1      2180 1.02876E+02 8.96002E+00 0.00000E+00
 -1      2181 1.04819E+02 1.00161E+01 0.00000E+00
 -1      2182 6.42300E+00 4.57510E+01 0.00000E+00
 -1      2183 7.17300E+00 4.44520E+01 0.00000E+00
 -1      2184 1.08745E+02 1.70902E+01 0.00000E+00
 -1      2185 1.07570E+02 1.33962E+01 0.00000E+00
 -1      2186 1.45665E+02 4.31193E+01 0.00000E+00
 -1      2187 1.08788E+02 1.92706E+01 0.00000E+00
 -1      2188 1.06459E+02 1.16445E+01 0.00000E+00
 -1      2189 1.08382E+02 2.13669E+01 0.00000E+00
 -1      2190 1.07434E+02 2.32258E+01 0.00000E+00
 -1      2191 1.05988E+02 2.47778E+01 0.00000E+00
 -1      2192 1.04397E+02 2.62168E+01 0.00000E+00
 -1      2193 1.02597E+02 2.71798E+01 0.00000E+00
 -1      2194 1.00565E+02 2.75829E+01 0.00000E+00
 -1      2195 9.84837E+01 2.77404E+01 0.00000E+00
 -1      2196 9.64082E+01 2.75087E+01 0.00000E+00
 -1      2197 9.42823E+01 2.65420E+01 0.00000E+00
 -1      2198 9.34141E+01 2.66871E+01 0.00000E+00
 -1      2199 9.45312E+01 2.73819E+01 0.00000E+00
 -1      2200 9.25495E+01 2.50964E+01 0.00000E+00
 -1      2201 9.03296E+01 2.16341E+01 0.00000E+00
 -1      2202 8.97773E+01 1.77299E+01 0.00000E+00
 -1      2203 9.00689E+01 1.58165E+01 0.00000E+00
 -1      2204 9.18101E+01 1.21561E+01 0.00000E+00
 -1      2205 9.46001E+01 9.52183E+00 0.00000E+00
 -1      2206 9.68130E+01 8.79430E+00 0.00000E+00
 -1      2207 1.00863E+02 8.68641E+00 0.00000E+00
 -1      2208 9.88255E+01 8.69663E+00 0.00000E+00
 -1      2209 9.07563E+01 1.39716E+01 0.00000E+00
 -1      2210 9.13145E+01 2.35422E+01 0.00000E+00
 -1      2211 1.07850E+01 5.30525E+00 0.00000E+00
 -1      2212 9.28500E+00 5.30525E+00 0.00000E+00
 -1      2213 6.49500E+00 3.01125E+01 0.00000E+00
 -1      2214 6.49500E+00 3.15875E+01 0.00000E+00
 -1      2215 6.49500E+00 3.30625E+01 0.00000E+00
 -1      2216 6.49500E+00 3.45375E+01 0.00000E+00
 -1      2217 7.79400E+00 3.23250E+01 0.00000E+00
 -1      2218 6.49500E+00 2.42125E+01 0.00000E+00
 -1      2219 6.49500E+00 2.56875E+01 0.00000E+00
 -1      2220 6.49500E+00 2.12625E+01 0.00000E+00
 -1      2221 6.49500E+00 2.27375E+01 0.00000E+00
 -1      2222 7.79400E+00 2.34750E+01 0.00000E+00
 -1      2223 6.49500E+00 1.83625E+01 0.00000E+00
 -1      2224 6.49500E+00 1.98125E+01 0.00000E+00
 -1      2225 7.79400E+00 2.05500E+01 0.00000E+00
 -1      2226 6.49500E+00 1.54125E+01 0.00000E+00
 -1      2227 6.49500E+00 1.68875E+01 0.00000E+00
 -1      2228 7.79400E+00 1.76250E+01 0.00000E+00
 -1      2229 6.49500E+00 1.24625E+01 0.00000E+00
 -1      2230 6.49500E+00 1.39375E+01 0.00000E+00
 -1      2231 7.79400E+00 1.46750E+01 0.00000E+00
 -1      2232 6.49500E+00 9.51250E+00 0.00000E+00
 -1      2233 6.49500E+00 1.09875E+01 0.00000E+00
 -1      2234 7.79400E+00 1.17250E+01 0.00000E+00
 -1      2235 1.37850E+01 5.30525E+00 0.00000E+00
 -1      2236 1.22850E+01 5.30525E+00 0.00000E+00
 -1      2237 1.15350E+01 6.60425E+00 0.00000E+00
 -1      2238 9.90000E+00 4.35050E+01 0.00000E+00
 -1      2239 1.14000E+01 4.35050E+01 0.00000E+00
 -1      2240 6.55950E+00 4.28890E+01 0.00000E+00
 -1      2241 8.53650E+00 4.32410E+01 0.00000E+00
 -1      2242 9.28650E+00 4.19420E+01 0.00000E+00
 -1      2243 6.55950E+00 4.14140E+01 0.00000E+00
 -1      2244 1.04905E+02 8.80966E+00 0.00000E+00
 -1      2245 1.05942E+02 9.56598E+00 0.00000E+00
 -1      2246 1.29000E+01 4.35050E+01 0.00000E+00
 -1      2247 1.44000E+01 4.35050E+01 0.00000E+00
 -1      2248 1.21500E+01 4.22060E+01 0.00000E+00
 -1      2249 1.59000E+01 4.35050E+01 0.00000E+00
 -1      2250 1.74000E+01 4.35050E+01 0.00000E+00
 -1      2251 1.51500E+01 4.22060E+01 0.00000E+00
 -1      2252 1.89000E+01 4.35050E+01 0.00000E+00
 -1      2253 2.04000E+01 4.35050E+01 0.00000E+00
 -1      2254 1.81500E+01 4.22060E+01 0.00000E+00
 -1      2255 2.19000E+01 4.35050E+01 0.00000E+00
 -1      2256 2.34000E+01 4.35050E+01 0.00000E+00
 -1      2257 2.11500E+01 4.22060E+01 0.00000E+00
 -1      2258 2.49000E+01 4.35050E+01 0.00000E+00
 -1      2259 2.64000E+01 4.35050E+01 0.00000E+00
 -1      2260 2.41500E+01 4.22060E+01 0.00000E+00
 -1      2261 2.79000E+01 4.35050E+01 0.00000E+00
 -1      2262 2.94000E+01 4.35050E+01 0.00000E+00
 -1      2263 2.71500E+01 4.22060E+01 0.00000E+00
 -1      2264 3.09000E+01 4.35050E+01 0.00000E+00
 -1      2265 3.24000E+01 4.35050E+01 0.00000E+00
 -1      2266 3.01500E+01 4.22060E+01 0.00000E+00
 -1      2267 3.39000E+01 4.35050E+01 0.00000E+00
 -1      2268 3.54000E+01 4.35050E+01 0.00000E+00
 -1      2269 3.31500E+01 4.22060E+01 0.00000E+00
 -1      2270 3.69000E+01 4.35050E+01 0.00000E+00
 -1      2271 3.84000E+01 4.35050E+01 0.00000E+00
 -1      2272 3.61500E+01 4.22060E+01 0.00000E+00
 -1      2273 3.99000E+01 4.35050E+01 0.00000E+00
 -1      2274 4.14000E+01 4.35050E+01 0.00000E+00
 -1      2275 3.91500E+01 4.22060E+01 0.00000E+00
 -1      2276 4.29000E+01 4.35050E+01 0.00000E+00
 -1      2277 4.44000E+01 4.35050E+01 0.00000E+00
 -1      2278 4.21500E+01 4.22060E+01 0.00000E+00
 -1      2279 4.59000E+01 4.35050E+01 0.00000E+00
 -1      2280 4.74000E+01 4.35050E+01 0.00000E+00
 -1      2281 4.51500E+01 4.22060E+01 0.00000E+00
 -1      2282 4.89000E+01 4.35050E+01 0.00000E+00
 -1      2283 5.04000E+01 4.35050E+01 0.00000E+00
 -1      2284 4.81500E+01 4.22060E+01 0.00000E+00
 -1      2285 5.19000E+01 4.35050E+01 0.00000E+00
 -1      2286 5.34000E+01 4.35050E+01 0.00000E+00
 -1      2287 5.11500E+01 4.22060E+01 0.00000E+00
 -1      2288 5.49000E+01 4.35050E+01 0.00000E+00
 -1      2289 5.64000E+01 4.35050E+01 0.00000E+00
 -1      2290 5.41500E+01 4.22060E+01 0.00000E+00
 -1      2291 5.79000E+01 4.35050E+01 0.00000E+00
 -1      2292 5.94000E+01 4.35050E+01 0.00000E+00
 -1      2293 5.71500E+01 4.22060E+01 0.00000E+00
 -1      2294 6.09000E+01 4.35050E+01 0.00000E+00
 -1      2295 6.24000E+01 4.35050E+01 0.00000E+00
 -1      2296 6.01500E+01 4.22060E+01 0.00000E+00
 -1      2297 6.39000E+01 4.35050E+01 0.00000E+00
 -1      2298 6.54000E+01 4.35050E+01 0.00000E+00
 -1      2299 6.31500E+01 4.22060E+01 0.00000E+00
 -1      2300 6.69000E+01 4.35050E+01 0.00000E+00
 -1      2301 6.84000E+01 4.35050E+01 0.00000E+00
 -1      2302 6.61500E+01 4.22060E+01 0.00000E+00
 -1      2303 6.99000E+01 4.35050E+01 0.00000E+00
 -1      2304 7.14000E+01 4.35050E+01 0.00000E+00
 -1      2305 6.91500E+01 4.22060E+01 0.00000E+00
 -1      2306 7.29000E+01 4.35050E+01 0.00000E+00
 -1      2307 7.44000E+01 4.35050E+01 0.00000E+00
 -1      2308 7.21500E+01 4.22060E+01 0.00000E+00
 -1      2309 7.59000E+01 4.35050E+01 0.00000E+00
 -1      2310 7.74000E+01 4.35050E+01 0.00000E+00
 -1      2311 7.51500E+01 4.22060E+01 0.00000E+00
 -1      2312 7.89000E+01 4.35050E+01 0.00000E+00
 -1      2313 8.04000E+01 4.35050E+01 0.00000E+00
 -1      2314 7.81500E+01 4.22060E+01 0.00000E+00
 -1      2315 8.19000E+01 4.35050E+01 0.00000E+00
 -1      2316 8.34000E+01 4.35050E+01 0.00000E+00
 -1      2317 8.11500E+01 4.22060E+01 0.00000E+00
 -1      2318 8.49000E+01 4.35050E+01 0.00000E+00
 -1      2319 8.64000E+01 4.35050E+01 0.00000E+00
 -1      2320 8.41500E+01 4.22060E+01 0.00000E+00
 -1      2321 8.79000E+01 4.35050E+01 0.00000E+00
 -1      2322 8.94000E+01 4.35050E+01 0.00000E+00
 -1      2323 8.71500E+01 4.22060E+01 0.00000E+00
 -1      2324 9.09000E+01 4.35050E+01 0.00000E+00
 -1      2325 9.24000E+01 4.35050E+01 0.00000E+00
 -1      2326 9.01500E+01 4.22060E+01 0.00000E+00
 -1      2327 9.39000E+01 4.35050E+01 0.00000E+00
 -1      2328 9.54000E+01 4.35050E+01 0.00000E+00
 -1      2329 9.31500E+01 4.22060E+01 0.00000E+00
 -1      2330 9.69000E+01 4.35050E+01 0.00000E+00
 -1      2331 9.84000E+01 4.35050E+01 0.00000E+00
 -1      2332 9.61500E+01 4.22060E+01 0.00000E+00
 -1      2333 9.99000E+01 4.35050E+01 0.00000E+00
 -1      2334 1.01400E+02 4.35050E+01 0.00000E+00
 -1      2335 9.91500E+01 4.22060E+01 0.00000E+00
 -1      2336 1.02900E+02 4.35050E+01 0.00000E+00
 -1      2337 1.04400E+02 4.35050E+01 0.00000E+00
 -1      2338 1.02150E+02 4.22060E+01 0.00000E+00
 -1      2339 1.05900E+02 4.35050E+01 0.00000E+00
 -1      2340 1.07400E+02 4.35050E+01 0.00000E+00
 -1      2341 1.05150E+02 4.22060E+01 0.00000E+00
 -1      2342 1.08900E+02 4.35050E+01 0.00000E+00
 -1      2343 1.10400E+02 4.35050E+01 0.00000E+00
 -1      2344 1.08150E+02 4.22060E+01 0.00000E+00
 -1      2345 1.11900E+02 4.35050E+01 0.00000E+00
 -1      2346 1.13400E+02 4.35050E+01 0.00000E+00
 -1      2347 1.11150E+02 4.22060E+01 0.00000E+00
 -1      2348 1.14900E+02 4.35050E+01 0.00000E+00
 -1      2349 1.16400E+02 4.35050E+01 0.00000E+00
 -1      2350 1.14150E+02 4.22060E+01 0.00000E+00
 -1      2351 1.17900E+02 4.35050E+01 0.00000E+00
 -1      2352 1.19400E+02 4.35050E+01 0.00000E+00
 -1      2353 1.17150E+02 4.22060E+01 0.00000E+00
 -1      2354 1.20900E+02 4.35050E+01 0.00000E+00
 -1      2355 1.22400E+02 4.35050E+01 0.00000E+00
 -1      2356 1.20150E+02 4.22060E+01 0.00000E+00
 -1      2357 1.23900E+02 4.35050E+01 0.00000E+00
 -1      2358 1.25400E+02 4.35050E+01 0.00000E+00
 -1      2359 1.23150E+02 4.22060E+01 0.00000E+00
 -1      2360 1.26900E+02 4.35050E+01 0.00000E+00
 -1      2361 1.28400E+02 4.35050E+01 0.00000E+00
 -1      2362 1.26150E+02 4.22060E+01 0.00000E+00
 -1      2363 1.29900E+02 4.35050E+01 0.00000E+00
 -1      2364 1.31400E+02 4.35050E+01 0.00000E+00
 -1      2365 1.29150E+02 4.22060E+01 0.00000E+00
 -1      2366 1.32900E+02 4.35050E+01 0.00000E+00
 -1      2367 1.34400E+02 4.35050E+01 0.00000E+00
 -1      2368 1.32150E+02 4.22060E+01 0.00000E+00
 -1      2369 1.35900E+02 4.35050E+01 0.00000E+00
 -1      2370 1.37400E+02 4.35050E+01 0.00000E+00
 -1      2371 1.35150E+02 4.22060E+01 0.00000E+00
 -1      2372 1.38900E+02 4.35050E+01 0.00000E+00
 -1      2373 1.40400E+02 4.35050E+01 0.00000E+00
 -1      2374 1.38150E+02 4.22060E+01 0.00000E+00
 -1      2375 1.08947E+02 1.44575E+01 0.00000E+00
 -1      2376 1.09210E+02 1.52885E+01 0.00000E+00
 -1      2377 1.97850E+01 5.30525E+00 0.00000E+00
 -1      2378 1.82850E+01 5.30525E+00 0.00000E+00
 -1      2379 2.27850E+01 5.30525E+00 0.00000E+00
 -1      2380 2.12850E+01 5.30525E+00 0.00000E+00
 -1      2381 2.05350E+01 6.60425E+00 0.00000E+00
 -1      2382 2.57850E+01 5.30525E+00 0.00000E+00
 -1      2383 2.42850E+01 5.30525E+00 0.00000E+00
 -1      2384 2.35350E+01 6.60425E+00 0.00000E+00
 -1      2385 2.87850E+01 5.30525E+00 0.00000E+00
 -1      2386 2.72850E+01 5.30525E+00 0.00000E+00
 -1      2387 2.65350E+01 6.60425E+00 0.00000E+00
 -1      2388 3.17850E+01 5.30525E+00 0.00000E+00
 -1      2389 3.02850E+01 5.30525E+00 0.00000E+00
 -1      2390 2.95350E+01 6.60425E+00 0.00000E+00
 -1      2391 3.47850E+01 5.30525E+00 0.00000E+00
 -1      2392 3.32850E+01 5.30525E+00 0.00000E+00
 -1      2393 3.25350E+01 6.60425E+00 0.00000E+00
 -1      2394 3.77850E+01 5.30525E+00 0.00000E+00
 -1      2395 3.62850E+01 5.30525E+00 0.00000E+00
 -1      2396 3.55350E+01 6.60425E+00 0.00000E+00
 -1      2397 4.07850E+01 5.30525E+00 0.00000E+00
 -1      2398 3.92850E+01 5.30525E+00 0.00000E+00
 -1      2399 3.85350E+01 6.60425E+00 0.00000E+00
 -1      2400 4.37850E+01 5.30525E+00 0.00000E+00
 -1      2401 4.22850E+01 5.30525E+00 0.00000E+00
 -1      2402 4.15350E+01 6.60425E+00 0.00000E+00
 -1      2403 4.67850E+01 5.30525E+00 0.00000E+00
 -1      2404 4.52850E+01 5.30525E+00 0.00000E+00
 -1      2405 4.45350E+01 6.60425E+00 0.00000E+00
 -1      2406 4.97850E+01 5.30525E+00 0.00000E+00
 -1      2407 4.82850E+01 5.30525E+00 0.00000E+00
 -1      2408 4.75350E+01 6.60425E+00 0.00000E+00
 -1      2409 5.27850E+01 5.30525E+00 0.00000E+00
 -1      2410 5.12850E+01 5.30525E+00 0.00000E+00
 -1      2411 5.05350E+01 6.60425E+00 0.00000E+00
 -1      2412 5.57850E+01 5.30525E+00 0.00000E+00
 -1      2413 5.42850E+01 5.30525E+00 0.00000E+00
 -1      2414 5.35350E+01 6.60425E+00 0.00000E+00
 -1      2415 5.87850E+01 5.30525E+00 0.00000E+00
 -1      2416 5.72850E+01 5.30525E+00 0.00000E+00
 -1      2417 5.65350E+01 6.60425E+00 0.00000E+00
 -1      2418 6.17850E+01 5.30525E+00 0.00000E+00
 -1      2419 6.02850E+01 5.30525E+00 0.00000E+00
 -1      2420 5.95350E+01 6.60425E+00 0.00000E+00
 -1      2421 6.47850E+01 5.30525E+00 0.00000E+00
 -1      2422 6.32850E+01 5.30525E+00 0.00000E+00
 -1      2423 6.25350E+01 6.60425E+00 0.00000E+00
 -1      2424 6.77850E+01 5.30525E+00 0.00000E+00
 -1      2425 6.62850E+01 5.30525E+00 0.00000E+00
 -1      2426 6.55350E+01 6.60425E+00 0.00000E+00
 -1      2427 7.07850E+01 5.30525E+00 0.00000E+00
 -1      2428 6.92850E+01 5.30525E+00 0.00000E+00
 -1      2429 6.85350E+01 6.60425E+00 0.00000E+00
 -1      2430 7.37850E+01 5.30525E+00 0.00000E+00
 -1      2431 7.22850E+01 5.30525E+00 0.00000E+00
 -1      2432 7.15350E+01 6.60425E+00 0.00000E+00
 -1      2433 7.67850E+01 5.30525E+00 0.00000E+00
 -1      2434 7.52850E+01 5.30525E+00 0.00000E+00
 -1      2435 7.45350E+01 6.60425E+00 0.00000E+00
 -1      2436 7.97850E+01 5.30525E+00 0.00000E+00
 -1      2437 7.82850E+01 5.30525E+00 0.00000E+00
 -1      2438 7.75350E+01 6.60425E+00 0.00000E+00
 -1      2439 8.27850E+01 5.30525E+00 0.00000E+00
 -1      2440 8.12850E+01 5.30525E+00 0.00000E+00
 -1      2441 8.05350E+01 6.60425E+00 0.00000E+00
 -1      2442 8.57850E+01 5.30525E+00 0.00000E+00
 -1      2443 8.42850E+01 5.30525E+00 0.00000E+00
 -1      2444 8.35350E+01 6.60425E+00 0.00000E+00
 -1      2445 8.87850E+01 5.30525E+00 0.00000E+00
 -1      2446 8.72850E+01 5.30525E+00 0.00000E+00
 -1      2447 8.65350E+01 6.60425E+00 0.00000E+00
 -1      2448 9.17850E+01 5.30525E+00 0.00000E+00
 -1      2449 9.02850E+01 5.30525E+00 0.00000E+00
 -1      2450 8.95350E+01 6.60425E+00 0.00000E+00
 -1      2451 9.77850E+01 5.11516E+00 0.00000E+00
 -1      2452 9.62850E+01 5.11516E+00 0.00000E+00
 -1      2453 1.00785E+02 5.11516E+00 0.00000E+00
 -1      2454 9.92850E+01 5.11516E+00 0.00000E+00
 -1      2455 1.03785E+02 5.11516E+00 0.00000E+00
 -1      2456 1.02285E+02 5.11516E+00 0.00000E+00
 -1      2457 1.01535E+02 6.22407E+00 0.00000E+00
 -1      2458 1.06781E+02 6.18292E+00 0.00000E+00
 -1      2459 1.05281E+02 6.18292E+00 0.00000E+00
 -1      2460 1.09781E+02 6.18292E+00 0.00000E+00
 -1      2461 1.08281E+02 6.18292E+00 0.00000E+00
 -1      2462 1.07527E+02 8.35958E+00 0.00000E+00
 -1      2463 1.12781E+02 6.18292E+00 0.00000E+00
 -1      2464 1.11281E+02 6.18292E+00 0.00000E+00
 -1      2465 1.10527E+02 8.35958E+00 0.00000E+00
 -1      2466 1.15781E+02 6.18292E+00 0.00000E+00
 -1      2467 1.14281E+02 6.18292E+00 0.00000E+00
 -1      2468 1.13527E+02 8.35958E+00 0.00000E+00
 -1      2469 1.18781E+02 6.18292E+00 0.00000E+00
 -1      2470 1.17281E+02 6.18292E+00 0.00000E+00
 -1      2471 1.16527E+02 8.35958E+00 0.00000E+00
 -1      2472 1.21781E+02 6.18292E+00 0.00000E+00
 -1      2473 1.20281E+02 6.18292E+00 0.00000E+00
 -1      2474 1.19527E+02 8.35958E+00 0.00000E+00
 -1      2475 1.24781E+02 6.18292E+00 0.00000E+00
 -1      2476 1.23281E+02 6.18292E+00 0.00000E+00
 -1      2477 1.22527E+02 8.35958E+00 0.00000E+00
 -1      2478 1.27781E+02 6.18292E+00 0.00000E+00
 -1      2479 1.26281E+02 6.18292E+00 0.00000E+00
 -1      2480 1.25527E+02 8.35958E+00 0.00000E+00
 -1      2481 1.30781E+02 6.18292E+00 0.00000E+00
 -1      2482 1.29281E+02 6.18292E+00 0.00000E+00
 -1      2483 1.28527E+02 8.35958E+00 0.00000E+00
 -1      2484 1.33781E+02 6.18292E+00 0.00000E+00
 -1      2485 1.32281E+02 6.18292E+00 0.00000E+00
 -1      2486 1.31527E+02 8.35958E+00 0.00000E+00
 -1      2487 1.36781E+02 6.18292E+00 0.00000E+00
 -1      2488 1.35281E+02 6.18292E+00 0.00000E+00
 -1      2489 1.34527E+02 8.35958E+00 0.00000E+00
 -1      2490 1.39781E+02 6.18292E+00 0.00000E+00
 -1      2491 1.38281E+02 6.18292E+00 0.00000E+00
 -1      2492 1.37527E+02 8.35958E+00 0.00000E+00
 -1      2493 1.44336E+02 5.26953E+00 0.00000E+00
 -1      2494 1.43505E+02 1.69125E+01 0.00000E+00
 -1      2495 1.43505E+02 1.54375E+01 0.00000E+00
 -1      2496 1.43505E+02 1.98625E+01 0.00000E+00
 -1      2497 1.43505E+02 1.83875E+01 0.00000E+00
 -1      2498 1.42206E+02 1.76500E+01 0.00000E+00
 -1      2499 1.43505E+02 1.10625E+01 0.00000E+00
 -1      2500 1.43505E+02 9.58750E+00 0.00000E+00
 -1      2501 1.43505E+02 1.39750E+01 0.00000E+00
 -1      2502 1.43505E+02 1.25250E+01 0.00000E+00
 -1      2503 1.42206E+02 1.17875E+01 0.00000E+00
 -1      2504 1.42206E+02 1.47125E+01 0.00000E+00
 -1      2505 1.43505E+02 2.28125E+01 0.00000E+00
 -1      2506 1.43505E+02 2.13375E+01 0.00000E+00
 -1      2507 1.42206E+02 2.06000E+01 0.00000E+00
 -1      2508 1.43505E+02 2.57625E+01 0.00000E+00
 -1      2509 1.43505E+02 2.42875E+01 0.00000E+00
 -1      2510 1.42206E+02 2.35500E+01 0.00000E+00
 -1      2511 1.43505E+02 2.87125E+01 0.00000E+00
 -1      2512 1.43505E+02 2.72375E+01 0.00000E+00
 -1      2513 1.42206E+02 2.65000E+01 0.00000E+00
 -1      2514 1.43505E+02 3.16125E+01 0.00000E+00
 -1      2515 1.43505E+02 3.01625E+01 0.00000E+00
 -1      2516 1.42206E+02 2.94250E+01 0.00000E+00
 -1      2517 1.43505E+02 3.45625E+01 0.00000E+00
 -1      2518 1.43505E+02 3.30875E+01 0.00000E+00
 -1      2519 1.42206E+02 3.23500E+01 0.00000E+00
 -1      2520 1.43505E+02 3.75125E+01 0.00000E+00
 -1      2521 1.43505E+02 3.60375E+01 0.00000E+00
 -1      2522 1.42206E+02 3.53000E+01 0.00000E+00
 -1      2523 1.43505E+02 4.04625E+01 0.00000E+00
 -1      2524 1.43505E+02 3.89875E+01 0.00000E+00
 -1      2525 1.42206E+02 3.82500E+01 0.00000E+00
 -1      2526 1.44321E+02 4.30606E+01 0.00000E+00
 -1      2527 1.09691E+02 1.88382E+01 0.00000E+00
 -1      2528 1.09593E+02 1.98660E+01 0.00000E+00
 -1      2529 1.67850E+01 5.30525E+00 0.00000E+00
 -1      2530 1.52850E+01 5.30525E+00 0.00000E+00
 -1      2531 1.75350E+01 6.60425E+00 0.00000E+00
 -1      2532 1.08058E+02 1.25275E+01 0.00000E+00
 -1      2533 1.08566E+02 1.34070E+01 0.00000E+00
 -1      2534 1.09279E+02 2.10473E+01 0.00000E+00
 -1      2535 1.08971E+02 2.21158E+01 0.00000E+00
 -1      2536 1.02692E+02 7.99596E+00 0.00000E+00
 -1      2537 1.03598E+02 8.29569E+00 0.00000E+00
 -1      2538 1.06863E+02 1.07208E+01 0.00000E+00
 -1      2539 1.07466E+02 1.15930E+01 0.00000E+00
 -1      2540 8.89030E+01 1.81485E+01 0.00000E+00
 -1      2541 8.90330E+01 1.71089E+01 0.00000E+00
 -1      2542 9.35854E+01 9.00148E+00 0.00000E+00
 -1      2543 9.47166E+01 8.38751E+00 0.00000E+00
 -1      2544 6.49500E+00 2.71625E+01 0.00000E+00
 -1      2545 6.49500E+00 2.86375E+01 0.00000E+00
 -1      2546 7.79400E+00 2.93750E+01 0.00000E+00
 -1      2547 7.79400E+00 2.64250E+01 0.00000E+00
 -1      2548 9.83726E+01 7.95691E+00 0.00000E+00
 -1      2549 9.93034E+01 7.97281E+00 0.00000E+00
 -1      2550 8.98498E+01 1.41086E+01 0.00000E+00
 -1      2551 9.03756E+01 1.31375E+01 0.00000E+00
 -1      2552 1.00444E+02 7.99744E+00 0.00000E+00
 -1      2553 1.01551E+02 7.97133E+00 0.00000E+00
 -1      2554 1.02273E+02 7.30699E+00 0.00000E+00
 -1      2555 9.99914E+01 7.25772E+00 0.00000E+00
 -1      2556 9.61870E+01 8.03988E+00 0.00000E+00
 -1      2557 9.72687E+01 7.92631E+00 0.00000E+00
 -1      2558 9.20026E+01 1.04233E+01 0.00000E+00
 -1      2559 9.25680E+01 9.83537E+00 0.00000E+00
 -1      2560 9.09447E+01 2.44673E+01 0.00000E+00
 -1      2561 9.03256E+01 2.36637E+01 0.00000E+00
 -1      2562 9.09467E+01 1.21120E+01 0.00000E+00
 -1      2563 9.14747E+01 1.12677E+01 0.00000E+00
 -1      2564 9.11393E+01 1.03793E+01 0.00000E+00
 -1      2565 8.92684E+01 1.61203E+01 0.00000E+00
 -1      2566 8.94300E+01 1.52465E+01 0.00000E+00
 -1      2567 8.90407E+01 2.02413E+01 0.00000E+00
 -1      2568 8.88825E+01 1.93612E+01 0.00000E+00
 -1      2569 8.97723E+01 2.24503E+01 0.00000E+00
 -1      2570 8.94065E+01 2.13458E+01 0.00000E+00
 -1      2571 8.84834E+01 2.10575E+01 0.00000E+00
 -1      2572 9.21764E+01 2.59687E+01 0.00000E+00
 -1      2573 9.15606E+01 2.52180E+01 0.00000E+00
 -1      2574 9.05717E+01 2.53396E+01 0.00000E+00
 -1      2575 9.67003E+01 2.84322E+01 0.00000E+00
 -1      2576 9.56915E+01 2.81603E+01 0.00000E+00
 -1      2577 9.90462E+01 2.84935E+01 0.00000E+00
 -1      2578 9.79795E+01 2.85338E+01 0.00000E+00
 -1      2579 1.01171E+02 2.83762E+01 0.00000E+00
 -1      2580 1.00156E+02 2.84934E+01 0.00000E+00
 -1      2581 1.03383E+02 2.80238E+01 0.00000E+00
 -1      2582 1.02366E+02 2.83096E+01 0.00000E+00
 -1      2583 1.05268E+02 2.64320E+01 0.00000E+00
 -1      2584 1.04484E+02 2.71092E+01 0.00000E+00
 -1      2585 1.06894E+02 2.49291E+01 0.00000E+00
 -1      2586 1.06087E+02 2.56908E+01 0.00000E+00
 -1      2587 1.08322E+02 2.32908E+01 0.00000E+00
 -1      2588 1.07683E+02 2.40813E+01 0.00000E+00
 -1      2589 1.09401E+02 1.64251E+01 0.00000E+00
 -1      2590 1.09542E+02 1.75776E+01 0.00000E+00
 -1      2591 8.07525E+00 5.11044E+00 0.00000E+00
 -1      2592 6.57525E+00 5.11044E+00 0.00000E+00
 -1      2593 6.40575E+00 6.01981E+00 0.00000E+00
 -1      2594 8.82525E+00 6.40944E+00 0.00000E+00
 -1      2595 9.77466E+01 7.20249E+00 0.00000E+00
 -1      2596 7.79400E+00 3.52687E+01 0.00000E+00
 -1      2597 6.49500E+00 3.60062E+01 0.00000E+00
 -1      2598 6.49500E+00 3.74750E+01 0.00000E+00
 -1      2599 1.45350E+01 6.60425E+00 0.00000E+00
 -1      2600 6.40575E+00 7.49481E+00 0.00000E+00
 -1      2601 1.09220E+02 2.29713E+01 0.00000E+00
 -1      2602 1.09469E+02 2.38267E+01 0.00000E+00
 -1      2603 1.10118E+02 2.26517E+01 0.00000E+00
 -1      2604 1.07782E+02 2.49942E+01 0.00000E+00
 -1      2605 1.04721E+02 7.84561E+00 0.00000E+00
 -1      2606 1.06174E+02 2.65832E+01 0.00000E+00
 -1      2607 1.10182E+02 2.06148E+01 0.00000E+00
 -1      2608 1.09435E+02 1.35888E+01 0.00000E+00
 -1      2609 9.31185E+01 5.93671E+00 0.00000E+00
 -1      2610 9.23685E+01 7.23571E+00 0.00000E+00
 -1      2611 9.46185E+01 5.93671E+00 0.00000E+00
 -1      2612 1.43903E+02 6.48047E+00 0.00000E+00
 -1      2613 1.43102E+02 5.21719E+00 0.00000E+00
 -1      2614 1.41602E+02 5.21719E+00 0.00000E+00
 -1      2615 1.43737E+02 7.63906E+00 0.00000E+00
 -1      2616 1.40848E+02 7.39385E+00 0.00000E+00
 -1      2617 1.42438E+02 8.37656E+00 0.00000E+00
 -1      2618 1.04253E+02 2.82390E+01 0.00000E+00
 -1      2619 1.42758E+02 4.35929E+01 0.00000E+00
 -1      2620 1.43241E+02 4.17323E+01 0.00000E+00
 -1      2621 1.41942E+02 4.09948E+01 0.00000E+00
 -1      2622 1.41414E+02 4.35342E+01 0.00000E+00
 -1      2623 1.01957E+02 2.92201E+01 0.00000E+00
 -1      2624 9.96521E+01 2.92868E+01 0.00000E+00
 -1      2625 1.10347E+02 1.81730E+01 0.00000E+00
 -1      2626 7.70475E+00 8.23231E+00 0.00000E+00
 -1      2627 1.08462E+02 1.16038E+01 0.00000E+00
 -1      2628 8.94025E+01 2.33754E+01 0.00000E+00
 -1      2629 8.83941E+01 1.65389E+01 0.00000E+00
 -1      2630 9.00402E+01 1.22491E+01 0.00000E+00
 -1      2631 9.51154E+01 2.92290E+01 0.00000E+00
 -1      2632 9.48233E+01 2.83054E+01 0.00000E+00
 -1      2633 9.39551E+01 2.84506E+01 0.00000E+00
 -1      2634 9.26846E+01 8.70105E+00 0.00000E+00
 -1      2635 8.81381E+01 1.87402E+01 0.00000E+00
 -1      2636 1.06948E+02 9.51445E+00 0.00000E+00
 -1      2637 6.55950E+00 3.99453E+01 0.00000E+00
 -1      2638 8.90493E+01 1.44125E+01 0.00000E+00
 -1      2639 1.10007E+02 1.57759E+01 0.00000E+00
 -1      2640 9.24253E+01 2.68087E+01 0.00000E+00
 -1      2641 9.14364E+01 2.69302E+01 0.00000E+00
 -1      2642 9.26741E+01 2.76486E+01 0.00000E+00
 -1      2643 9.72628E+01 2.91853E+01 0.00000E+00
 -1      2644 9.53685E+01 7.04562E+00 0.00000E+00
 -1      2645 1.40664E+02 4.22352E+01 0.00000E+00
 -1      2646 9.09300E+00 1.98250E+01 0.00000E+00
 -1      2647 9.09300E+00 2.12750E+01 0.00000E+00
 -1      2648 9.09300E+00 2.27500E+01 0.00000E+00
 -1      2649 9.09300E+00 2.42250E+01 0.00000E+00
 -1      2650 1.03920E+01 2.20250E+01 0.00000E+00
 -1      2651 9.09300E+00 1.39375E+01 0.00000E+00
 -1      2652 9.09300E+00 1.54125E+01 0.00000E+00
 -1      2653 9.09300E+00 1.09875E+01 0.00000E+00
 -1      2654 9.09300E+00 1.24625E+01 0.00000E+00
 -1      2655 1.03920E+01 1.32000E+01 0.00000E+00
 -1      2656 1.22850E+01 7.90325E+00 0.00000E+00
 -1      2657 1.07850E+01 7.90325E+00 0.00000E+00
 -1      2658 1.08961E+02 1.06325E+01 0.00000E+00
 -1      2659 1.09553E+02 1.15670E+01 0.00000E+00
 -1      2660 1.52850E+01 7.90325E+00 0.00000E+00
 -1      2661 1.37850E+01 7.90325E+00 0.00000E+00
 -1      2662 1.30350E+01 9.20225E+00 0.00000E+00
 -1      2663 8.85168E+00 4.05347E+01 0.00000E+00
 -1      2664 1.02152E+01 4.07987E+01 0.00000E+00
 -1      2665 1.17152E+01 4.07987E+01 0.00000E+00
 -1      2666 1.32152E+01 4.07987E+01 0.00000E+00
 -1      2667 1.12804E+01 3.93914E+01 0.00000E+00
 -1      2668 1.47152E+01 4.07987E+01 0.00000E+00
 -1      2669 1.62152E+01 4.07987E+01 0.00000E+00
 -1      2670 1.42804E+01 3.93914E+01 0.00000E+00
 -1      2671 1.77152E+01 4.07987E+01 0.00000E+00
 -1      2672 1.92152E+01 4.07987E+01 0.00000E+00
 -1      2673 1.72804E+01 3.93914E+01 0.00000E+00
 -1      2674 2.07152E+01 4.07987E+01 0.00000E+00
 -1      2675 2.22152E+01 4.07987E+01 0.00000E+00
 -1      2676 2.02804E+01 3.93914E+01 0.00000E+00
 -1      2677 2.37152E+01 4.07987E+01 0.00000E+00
 -1      2678 2.52152E+01 4.07987E+01 0.00000E+00
 -1      2679 2.32804E+01 3.93914E+01 0.00000E+00
 -1      2680 2.67152E+01 4.07987E+01 0.00000E+00
 -1      2681 2.82152E+01 4.07987E+01 0.00000E+00
 -1      2682 2.62804E+01 3.93914E+01 0.00000E+00
 -1      2683 2.97152E+01 4.07987E+01 0.00000E+00
 -1      2684 3.12152E+01 4.07987E+01 0.00000E+00
 -1      2685 2.92804E+01 3.93914E+01 0.00000E+00
 -1      2686 3.27152E+01 4.07987E+01 0.00000E+00
 -1      2687 3.42152E+01 4.07987E+01 0.00000E+00
 -1      2688 3.22803E+01 3.93914E+01 0.00000E+00
 -1      2689 3.57152E+01 4.07987E+01 0.00000E+00
 -1      2690 3.72152E+01 4.07987E+01 0.00000E+00
 -1      2691 3.52803E+01 3.93914E+01 0.00000E+00
 -1      2692 3.87152E+01 4.07987E+01 0.00000E+00
 -1      2693 4.02152E+01 4.07987E+01 0.00000E+00
 -1      2694 3.82803E+01 3.93914E+01 0.00000E+00
 -1      2695 4.17152E+01 4.07987E+01 0.00000E+00
 -1      2696 4.32152E+01 4.07987E+01 0.00000E+00
 -1      2697 4.12803E+01 3.93914E+01 0.00000E+00
 -1      2698 4.47152E+01 4.07987E+01 0.00000E+00
 -1      2699 4.62152E+01 4.07987E+01 0.00000E+00
 -1      2700 4.42803E+01 3.93914E+01 0.00000E+00
 -1      2701 4.77152E+01 4.07987E+01 0.00000E+00
 -1      2702 4.92152E+01 4.07987E+01 0.00000E+00
 -1      2703 4.72803E+01 3.93914E+01 0.00000E+00
 -1      2704 5.07152E+01 4.07987E+01 0.00000E+00
 -1      2705 5.22152E+01 4.07987E+01 0.00000E+00
 -1      2706 5.02803E+01 3.93914E+01 0.00000E+00
 -1      2707 5.37152E+01 4.07987E+01 0.00000E+00
 -1      2708 5.52152E+01 4.07987E+01 0.00000E+00
 -1      2709 5.32803E+01 3.93914E+01 0.00000E+00
 -1      2710 5.67152E+01 4.07987E+01 0.00000E+00
 -1      2711 5.82152E+01 4.07987E+01 0.00000E+00
 -1      2712 5.62803E+01 3.93914E+01 0.00000E+00
 -1      2713 5.97152E+01 4.07987E+01 0.00000E+00
 -1      2714 6.12152E+01 4.07987E+01 0.00000E+00
 -1      2715 5.92803E+01 3.93914E+01 0.00000E+00
 -1      2716 6.27152E+01 4.07987E+01 0.00000E+00
 -1      2717 6.42152E+01 4.07987E+01 0.00000E+00
 -1      2718 6.22803E+01 3.93914E+01 0.00000E+00
 -1      2719 6.57152E+01 4.07987E+01 0.00000E+00
 -1      2720 6.72152E+01 4.07987E+01 0.00000E+00
 -1      2721 6.52803E+01 3.93914E+01 0.00000E+00
 -1      2722 6.87152E+01 4.07987E+01 0.00000E+00
 -1      2723 7.02152E+01 4.07987E+01 0.00000E+00
 -1      2724 6.82803E+01 3.93914E+01 0.00000E+00
 -1      2725 7.17152E+01 4.07987E+01 0.00000E+00
 -1      2726 7.32152E+01 4.07987E+01 0.00000E+00
 -1      2727 7.12803E+01 3.93914E+01 0.00000E+00
 -1      2728 7.47152E+01 4.07987E+01 0.00000E+00
 -1      2729 7.62152E+01 4.07987E+01 0.00000E+00
 -1      2730 7.42803E+01 3.93914E+01 0.00000E+00
 -1      2731 7.77152E+01 4.07987E+01 0.00000E+00
 -1      2732 7.92152E+01 4.07987E+01 0.00000E+00
 -1      2733 7.72803E+01 3.93914E+01 0.00000E+00
 -1      2734 8.07152E+01 4.07987E+01 0.00000E+00
 -1      2735 8.22152E+01 4.07987E+01 0.00000E+00
 -1      2736 8.02803E+01 3.93914E+01 0.00000E+00
 -1      2737 8.37152E+01 4.07987E+01 0.00000E+00
 -1      2738 8.52152E+01 4.07987E+01 0.00000E+00
 -1      2739 8.32803E+01 3.93914E+01 0.00000E+00
 -1      2740 8.67152E+01 4.07987E+01 0.00000E+00
 -1      2741 8.82152E+01 4.07987E+01 0.00000E+00
 -1      2742 8.62803E+01 3.93914E+01 0.00000E+00
 -1      2743 8.97152E+01 4.07987E+01 0.00000E+00
 -1      2744 9.12152E+01 4.07987E+01 0.00000E+00
 -1      2745 8.92803E+01 3.93914E+01 0.00000E+00
 -1      2746 9.27152E+01 4.07987E+01 0.00000E+00
 -1      2747 9.42152E+01 4.07987E+01 0.00000E+00
 -1      2748 9.22803E+01 3.93914E+01 0.00000E+00
 -1      2749 9.57152E+01 4.07987E+01 0.00000E+00
 -1      2750 9.72152E+01 4.07987E+01 0.00000E+00
 -1      2751 9.52803E+01 3.93914E+01 0.00000E+00
 -1      2752 9.87152E+01 4.07987E+01 0.00000E+00
 -1      2753 1.00215E+02 4.07987E+01 0.00000E+00
 -1      2754 9.82803E+01 3.93914E+01 0.00000E+00
 -1      2755 1.01715E+02 4.07987E+01 0.00000E+00
 -1      2756 1.03215E+02 4.07987E+01 0.00000E+00
 -1      2757 1.01280E+02 3.93914E+01 0.00000E+00
 -1      2758 1.04715E+02 4.07987E+01 0.00000E+00
 -1      2759 1.06215E+02 4.07987E+01 0.00000E+00
 -1      2760 1.04280E+02 3.93914E+01 0.00000E+00
 -1      2761 1.07715E+02 4.07987E+01 0.00000E+00
 -1      2762 1.09215E+02 4.07987E+01 0.00000E+00
 -1      2763 1.07280E+02 3.93914E+01 0.00000E+00
 -1      2764 1.10715E+02 4.07987E+01 0.00000E+00
 -1      2765 1.12215E+02 4.07987E+01 0.00000E+00
 -1      2766 1.10280E+02 3.93914E+01 0.00000E+00
 -1      2767 1.13715E+02 4.07987E+01 0.00000E+00
 -1      2768 1.15215E+02 4.07987E+01 0.00000E+00
 -1      2769 1.13280E+02 3.93914E+01 0.00000E+00
 -1      2770 1.16715E+02 4.07987E+01 0.00000E+00
 -1      2771 1.18215E+02 4.07987E+01 0.00000E+00
 -1      2772 1.16280E+02 3.93914E+01 0.00000E+00
 -1      2773 1.19715E+02 4.07987E+01 0.00000E+00
 -1      2774 1.21215E+02 4.07987E+01 0.00000E+00
 -1      2775 1.19280E+02 3.93914E+01 0.00000E+00
 -1      2776 1.22715E+02 4.07987E+01 0.00000E+00
 -1      2777 1.24215E+02 4.07987E+01 0.00000E+00
 -1      2778 1.22280E+02 3.93914E+01 0.00000E+00
 -1      2779 1.25715E+02 4.07987E+01 0.00000E+00
 -1      2780 1.27215E+02 4.07987E+01 0.00000E+00
 -1      2781 1.25280E+02 3.93914E+01 0.00000E+00
 -1      2782 1.28715E+02 4.07987E+01 0.00000E+00
 -1      2783 1.30215E+02 4.07987E+01 0.00000E+00
 -1      2784 1.28280E+02 3.93914E+01 0.00000E+00
 -1      2785 1.31715E+02 4.07987E+01 0.00000E+00
 -1      2786 1.33215E+02 4.07987E+01 0.00000E+00
 -1      2787 1.31280E+02 3.93914E+01 0.00000E+00
 -1      2788 1.34715E+02 4.07987E+01 0.00000E+00
 -1      2789 1.36215E+02 4.07987E+01 0.00000E+00
 -1      2790 1.34280E+02 3.93914E+01 0.00000E+00
 -1      2791 1.37715E+02 4.07987E+01 0.00000E+00
 -1      2792 1.39215E+02 4.07987E+01 0.00000E+00
 -1      2793 1.37280E+02 3.93914E+01 0.00000E+00
 -1      2794 1.40617E+02 9.34229E+00 0.00000E+00
 -1      2795 1.02602E+02 3.00431E+01 0.00000E+00
 -1      2796 1.01407E+02 3.01096E+01 0.00000E+00
 -1      2797 9.13511E+01 8.06960E+00 0.00000E+00
 -1      2798 2.12850E+01 7.90325E+00 0.00000E+00
 -1      2799 1.97850E+01 7.90325E+00 0.00000E+00
 -1      2800 3.02850E+01 7.90325E+00 0.00000E+00
 -1      2801 2.87850E+01 7.90325E+00 0.00000E+00
 -1      2802 3.32850E+01 7.90325E+00 0.00000E+00
 -1      2803 3.17850E+01 7.90325E+00 0.00000E+00
 -1      2804 3.10350E+01 9.20225E+00 0.00000E+00
 -1      2805 3.62850E+01 7.90325E+00 0.00000E+00
 -1      2806 3.47850E+01 7.90325E+00 0.00000E+00
 -1      2807 3.40350E+01 9.20225E+00 0.00000E+00
 -1      2808 3.92850E+01 7.90325E+00 0.00000E+00
 -1      2809 3.77850E+01 7.90325E+00 0.00000E+00
 -1      2810 3.70350E+01 9.20225E+00 0.00000E+00
 -1      2811 4.22850E+01 7.90325E+00 0.00000E+00
 -1      2812 4.07850E+01 7.90325E+00 0.00000E+00
 -1      2813 4.00350E+01 9.20225E+00 0.00000E+00
 -1      2814 4.52850E+01 7.90325E+00 0.00000E+00
 -1      2815 4.37850E+01 7.90325E+00 0.00000E+00
 -1      2816 4.30350E+01 9.20225E+00 0.00000E+00
 -1      2817 4.82850E+01 7.90325E+00 0.00000E+00
 -1      2818 4.67850E+01 7.90325E+00 0.00000E+00
 -1      2819 4.60350E+01 9.20225E+00 0.00000E+00
 -1      2820 5.12850E+01 7.90325E+00 0.00000E+00
 -1      2821 4.97850E+01 7.90325E+00 0.00000E+00
 -1      2822 4.90350E+01 9.20225E+00 0.00000E+00
 -1      2823 5.42850E+01 7.90325E+00 0.00000E+00
 -1      2824 5.27850E+01 7.90325E+00 0.00000E+00
 -1      2825 5.20350E+01 9.20225E+00 0.00000E+00
 -1      2826 5.72850E+01 7.90325E+00 0.00000E+00
 -1      2827 5.57850E+01 7.90325E+00 0.00000E+00
 -1      2828 5.50350E+01 9.20225E+00 0.00000E+00
 -1      2829 6.02850E+01 7.90325E+00 0.00000E+00
 -1      2830 5.87850E+01 7.90325E+00 0.00000E+00
 -1      2831 5.80350E+01 9.20225E+00 0.00000E+00
 -1      2832 6.32850E+01 7.90325E+00 0.00000E+00
 -1      2833 6.17850E+01 7.90325E+00 0.00000E+00
 -1      2834 6.10350E+01 9.20225E+00 0.00000E+00
 -1      2835 6.62850E+01 7.90325E+00 0.00000E+00
 -1      2836 6.47850E+01 7.90325E+00 0.00000E+00
 -1      2837 6.40350E+01 9.20225E+00 0.00000E+00
 -1      2838 6.92850E+01 7.90325E+00 0.00000E+00
 -1      2839 6.77850E+01 7.90325E+00 0.00000E+00
 -1      2840 6.70350E+01 9.20225E+00 0.00000E+00
 -1      2841 7.22850E+01 7.90325E+00 0.00000E+00
 -1      2842 7.07850E+01 7.90325E+00 0.00000E+00
 -1      2843 7.00350E+01 9.20225E+00 0.00000E+00
 -1      2844 7.52850E+01 7.90325E+00 0.00000E+00
 -1      2845 7.37850E+01 7.90325E+00 0.00000E+00
 -1      2846 7.30350E+01 9.20225E+00 0.00000E+00
 -1      2847 7.82850E+01 7.90325E+00 0.00000E+00
 -1      2848 7.67850E+01 7.90325E+00 0.00000E+00
 -1      2849 7.60350E+01 9.20225E+00 0.00000E+00
 -1      2850 8.12850E+01 7.90325E+00 0.00000E+00
 -1      2851 7.97850E+01 7.90325E+00 0.00000E+00
 -1      2852 7.90350E+01 9.20225E+00 0.00000E+00
 -1      2853 8.42850E+01 7.90325E+00 0.00000E+00
 -1      2854 8.27850E+01 7.90325E+00 0.00000E+00
 -1      2855 8.20350E+01 9.20225E+00 0.00000E+00
 -1      2856 8.72850E+01 7.90325E+00 0.00000E+00
 -1      2857 8.57850E+01 7.90325E+00 0.00000E+00
 -1      2858 8.50350E+01 9.20225E+00 0.00000E+00
 -1      2859 9.00680E+01 7.98642E+00 0.00000E+00
 -1      2860 8.85680E+01 7.98642E+00 0.00000E+00
 -1      2861 8.78180E+01 9.28542E+00 0.00000E+00
 -1      2862 9.03841E+01 9.45177E+00 0.00000E+00
 -1      2863 1.40072E+02 4.08821E+01 0.00000E+00
 -1      2864 1.41086E+02 4.09113E+01 0.00000E+00
 -1      2865 1.41350E+02 3.96416E+01 0.00000E+00
 -1      2866 1.39637E+02 3.94748E+01 0.00000E+00
 -1      2867 9.85350E+01 6.22407E+00 0.00000E+00
 -1      2868 1.05325E+02 2.84092E+01 0.00000E+00
 -1      2869 1.04224E+02 2.93238E+01 0.00000E+00
 -1      2870 1.11040E+02 9.47760E+00 0.00000E+00
 -1      2871 1.09540E+02 9.47760E+00 0.00000E+00
 -1      2872 1.08448E+02 9.51445E+00 0.00000E+00
 -1      2873 1.17277E+02 9.65858E+00 0.00000E+00
 -1      2874 1.15777E+02 9.65858E+00 0.00000E+00
 -1      2875 1.20277E+02 9.65858E+00 0.00000E+00
 -1      2876 1.18777E+02 9.65858E+00 0.00000E+00
 -1      2877 1.18027E+02 1.09576E+01 0.00000E+00
 -1      2878 1.23277E+02 9.65858E+00 0.00000E+00
 -1      2879 1.21777E+02 9.65858E+00 0.00000E+00
 -1      2880 1.21027E+02 1.09576E+01 0.00000E+00
 -1      2881 1.26277E+02 9.65858E+00 0.00000E+00
 -1      2882 1.24777E+02 9.65858E+00 0.00000E+00
 -1      2883 1.24027E+02 1.09576E+01 0.00000E+00
 -1      2884 1.29277E+02 9.65858E+00 0.00000E+00
 -1      2885 1.27777E+02 9.65858E+00 0.00000E+00
 -1      2886 1.27027E+02 1.09576E+01 0.00000E+00
 -1      2887 1.32277E+02 9.65858E+00 0.00000E+00
 -1      2888 1.30777E+02 9.65858E+00 0.00000E+00
 -1      2889 1.30027E+02 1.09576E+01 0.00000E+00
 -1      2890 1.35277E+02 9.65858E+00 0.00000E+00
 -1      2891 1.33777E+02 9.65858E+00 0.00000E+00
 -1      2892 1.33027E+02 1.09576E+01 0.00000E+00
 -1      2893 1.38277E+02 9.65858E+00 0.00000E+00
 -1      2894 1.36777E+02 9.65858E+00 0.00000E+00
 -1      2895 1.36027E+02 1.09576E+01 0.00000E+00
 -1      2896 1.40907E+02 2.42875E+01 0.00000E+00
 -1      2897 1.40907E+02 2.28125E+01 0.00000E+00
 -1      2898 1.40907E+02 1.83875E+01 0.00000E+00
 -1      2899 1.40907E+02 1.69125E+01 0.00000E+00
 -1      2900 1.40907E+02 2.72375E+01 0.00000E+00
 -1      2901 1.40907E+02 2.57625E+01 0.00000E+00
 -1      2902 1.39608E+02 2.50250E+01 0.00000E+00
 -1      2903 1.40907E+02 2.13375E+01 0.00000E+00
 -1      2904 1.40907E+02 1.98625E+01 0.00000E+00
 -1      2905 1.39608E+02 1.91250E+01 0.00000E+00
 -1      2906 1.39608E+02 2.20750E+01 0.00000E+00
 -1      2907 1.10051E+02 1.27714E+01 0.00000E+00
 -1      2908 1.10432E+02 1.38219E+01 0.00000E+00
 -1      2909 1.40907E+02 3.01375E+01 0.00000E+00
 -1      2910 1.40907E+02 2.86875E+01 0.00000E+00
 -1      2911 1.39608E+02 2.79500E+01 0.00000E+00
 -1      2912 1.40907E+02 3.30875E+01 0.00000E+00
 -1      2913 1.40907E+02 3.16125E+01 0.00000E+00
 -1      2914 1.39608E+02 3.08750E+01 0.00000E+00
 -1      2915 1.40907E+02 3.60375E+01 0.00000E+00
 -1      2916 1.40907E+02 3.45625E+01 0.00000E+00
 -1      2917 1.39608E+02 3.38250E+01 0.00000E+00
 -1      2918 1.41350E+02 3.81666E+01 0.00000E+00
 -1      2919 1.82850E+01 7.90325E+00 0.00000E+00
 -1      2920 1.67850E+01 7.90325E+00 0.00000E+00
 -1      2921 1.60350E+01 9.20225E+00 0.00000E+00
 -1      2922 1.90350E+01 9.20225E+00 0.00000E+00
 -1      2923 1.08774E+02 2.51261E+01 0.00000E+00
 -1      2924 1.07985E+02 2.59739E+01 0.00000E+00
 -1      2925 9.02166E+01 2.62588E+01 0.00000E+00
 -1      2926 8.96008E+01 2.55081E+01 0.00000E+00
 -1      2927 1.07131E+02 2.68175E+01 0.00000E+00
 -1      2928 1.06311E+02 2.75586E+01 0.00000E+00
 -1      2929 8.91450E+00 8.42712E+00 0.00000E+00
 -1      2930 8.88227E+01 2.43727E+01 0.00000E+00
 -1      2931 8.82694E+01 2.31593E+01 0.00000E+00
 -1      2932 1.14277E+02 9.65858E+00 0.00000E+00
 -1      2933 1.12777E+02 9.65858E+00 0.00000E+00
 -1      2934 1.15027E+02 1.09576E+01 0.00000E+00
 -1      2935 2.72850E+01 7.90325E+00 0.00000E+00
 -1      2936 2.57850E+01 7.90325E+00 0.00000E+00
 -1      2937 2.80350E+01 9.20225E+00 0.00000E+00
 -1      2938 2.42850E+01 7.90325E+00 0.00000E+00
 -1      2939 2.27850E+01 7.90325E+00 0.00000E+00
 -1      2940 2.50350E+01 9.20225E+00 0.00000E+00
 -1      2941 7.48818E+00 3.88019E+01 0.00000E+00
 -1      2942 8.80742E+01 1.46991E+01 0.00000E+00
 -1      2943 8.84940E+01 1.35612E+01 0.00000E+00
 -1      2944 9.09300E+00 1.68813E+01 0.00000E+00
 -1      2945 9.09300E+00 1.83563E+01 0.00000E+00
 -1      2946 1.03920E+01 1.90812E+01 0.00000E+00
 -1      2947 1.03920E+01 1.61437E+01 0.00000E+00
 -1      2948 9.09300E+00 3.15875E+01 0.00000E+00
 -1      2949 9.09300E+00 3.30625E+01 0.00000E+00
 -1      2950 1.10757E+02 1.50655E+01 0.00000E+00
 -1      2951 1.10948E+02 1.62020E+01 0.00000E+00
 -1      2952 8.71866E+01 1.93307E+01 0.00000E+00
 -1      2953 8.72071E+01 1.81179E+01 0.00000E+00
 -1      2954 8.74829E+01 1.68442E+01 0.00000E+00
 -1      2955 8.77184E+01 1.58556E+01 0.00000E+00
 -1      2956 8.98562E+01 1.02961E+01 0.00000E+00
 -1      2957 8.87140E+01 1.23471E+01 0.00000E+00
 -1      2958 8.92851E+01 1.13216E+01 0.00000E+00
 -1      2959 8.85300E+01 1.03941E+01 0.00000E+00
 -1      2960 8.78522E+01 2.18793E+01 0.00000E+00
 -1      2961 8.74864E+01 2.07748E+01 0.00000E+00
 -1      2962 9.78346E+01 3.00910E+01 0.00000E+00
 -1      2963 9.65554E+01 2.99894E+01 0.00000E+00
 -1      2964 1.11097E+02 1.74626E+01 0.00000E+00
 -1      2965 1.11246E+02 1.87232E+01 0.00000E+00
 -1      2966 1.11847E+02 1.67522E+01 0.00000E+00
 -1      2967 1.00207E+02 3.01024E+01 0.00000E+00
 -1      2968 9.90971E+01 3.01025E+01 0.00000E+00
 -1      2969 1.11249E+02 2.02657E+01 0.00000E+00
 -1      2970 1.10935E+02 2.14470E+01 0.00000E+00
 -1      2971 1.41036E+02 1.12144E+01 0.00000E+00
 -1      2972 1.39447E+02 1.02317E+01 0.00000E+00
 -1      2973 1.38697E+02 1.15307E+01 0.00000E+00
 -1      2974 1.41036E+02 1.26769E+01 0.00000E+00
 -1      2975 9.09300E+00 3.45313E+01 0.00000E+00
 -1      2976 9.09300E+00 3.60000E+01 0.00000E+00
 -1      2977 1.03920E+01 3.37938E+01 0.00000E+00
 -1      2978 1.03920E+01 2.49750E+01 0.00000E+00
 -1      2979 9.09300E+00 2.57000E+01 0.00000E+00
 -1      2980 9.09300E+00 2.71750E+01 0.00000E+00
 -1      2981 1.10550E+02 1.18001E+01 0.00000E+00
 -1      2982 1.11184E+02 2.23025E+01 0.00000E+00
 -1      2983 1.11434E+02 2.31580E+01 0.00000E+00
 -1      2984 1.12251E+02 2.19533E+01 0.00000E+00
 -1      2985 8.77389E+01 1.26337E+01 0.00000E+00
 -1      2986 1.03674E+02 3.02133E+01 0.00000E+00
 -1      2987 1.03124E+02 3.11028E+01 0.00000E+00
 -1      2988 1.04746E+02 3.03835E+01 0.00000E+00
 -1      2989 2.20350E+01 9.20225E+00 0.00000E+00
 -1      2990 1.06282E+02 2.86434E+01 0.00000E+00
 -1      2991 1.02084E+02 6.75322E+00 0.00000E+00
 -1      2992 1.00584E+02 6.75322E+00 0.00000E+00
 -1      2993 1.11373E+02 1.42481E+01 0.00000E+00
 -1      2994 1.00852E+02 3.09254E+01 0.00000E+00
 -1      2995 1.40051E+02 3.74291E+01 0.00000E+00
 -1      2996 1.08122E+02 2.69494E+01 0.00000E+00
 -1      2997 9.04655E+01 2.70988E+01 0.00000E+00
 -1      2998 8.94945E+01 2.72673E+01 0.00000E+00
 -1      2999 9.07143E+01 2.79387E+01 0.00000E+00
 -1      3000 1.11999E+02 1.95553E+01 0.00000E+00
 -1      3001 1.12752E+02 2.03875E+01 0.00000E+00
 -1      3002 1.12749E+02 1.88450E+01 0.00000E+00
 -1      3003 9.83897E+01 3.09066E+01 0.00000E+00
 -1      3004 8.84676E+01 2.52920E+01 0.00000E+00
 -1      3005 9.94427E+01 6.72858E+00 0.00000E+00
 -1      3006 9.66450E+00 9.72612E+00 0.00000E+00
 -1      3007 1.11790E+02 1.07766E+01 0.00000E+00
 -1      3008 8.65314E+01 1.74346E+01 0.00000E+00
 -1      3009 9.56871E+01 3.01346E+01 0.00000E+00
 -1      3010 9.48189E+01 3.02797E+01 0.00000E+00
 -1      3011 9.62589E+01 3.10402E+01 0.00000E+00
 -1      3012 8.65554E+01 2.01525E+01 0.00000E+00
 -1      3013 1.09635E+01 1.04636E+01 0.00000E+00
 -1      3014 9.51723E+01 7.51953E+00 0.00000E+00
 -1      3015 1.40972E+02 1.55259E+01 0.00000E+00
 -1      3016 1.40972E+02 1.40634E+01 0.00000E+00
 -1      3017 1.39802E+02 1.34903E+01 0.00000E+00
 -1      3018 1.39673E+02 1.62634E+01 0.00000E+00
 -1      3019 9.09300E+00 2.86437E+01 0.00000E+00
 -1      3020 9.09300E+00 3.01187E+01 0.00000E+00
 -1      3021 1.03920E+01 3.08563E+01 0.00000E+00
 -1      3022 1.03920E+01 2.79188E+01 0.00000E+00
 -1      3023 1.09672E+02 2.48065E+01 0.00000E+00
 -1      3024 1.09874E+02 2.57862E+01 0.00000E+00
 -1      3025 1.10569E+02 2.44869E+01 0.00000E+00
 -1      3026 8.71630E+01 1.50044E+01 0.00000E+00
 -1      3027 9.32583E+01 2.94957E+01 0.00000E+00
 -1      3028 9.29662E+01 2.85722E+01 0.00000E+00
 -1      3029 9.19773E+01 2.86937E+01 0.00000E+00
 -1      3030 8.78718E+00 3.80644E+01 0.00000E+00
 -1      3031 8.72724E+01 2.28766E+01 0.00000E+00
 -1      3032 1.12287E+02 1.19810E+01 0.00000E+00
 -1      3033 1.16910E+01 1.24625E+01 0.00000E+00
 -1      3034 1.16910E+01 1.39375E+01 0.00000E+00
 -1      3035 9.79427E+01 6.72858E+00 0.00000E+00
 -1      3036 1.35304E+01 3.80924E+01 0.00000E+00
 -1      3037 1.50304E+01 3.80924E+01 0.00000E+00
 -1      3038 1.65304E+01 3.80924E+01 0.00000E+00
 -1      3039 1.80304E+01 3.80924E+01 0.00000E+00
 -1      3040 1.57804E+01 3.67934E+01 0.00000E+00
 -1      3041 1.95304E+01 3.80924E+01 0.00000E+00
 -1      3042 2.10304E+01 3.80924E+01 0.00000E+00
 -1      3043 1.87804E+01 3.67934E+01 0.00000E+00
 -1      3044 2.25304E+01 3.80924E+01 0.00000E+00
 -1      3045 2.40304E+01 3.80924E+01 0.00000E+00
 -1      3046 2.17804E+01 3.67934E+01 0.00000E+00
 -1      3047 2.55304E+01 3.80924E+01 0.00000E+00
 -1      3048 2.70304E+01 3.80924E+01 0.00000E+00
 -1      3049 2.47804E+01 3.67934E+01 0.00000E+00
 -1      3050 2.85304E+01 3.80924E+01 0.00000E+00
 -1      3051 3.00304E+01 3.80924E+01 0.00000E+00
 -1      3052 2.77804E+01 3.67934E+01 0.00000E+00
 -1      3053 3.15304E+01 3.80924E+01 0.00000E+00
 -1      3054 3.30303E+01 3.80924E+01 0.00000E+00
 -1      3055 3.07804E+01 3.67934E+01 0.00000E+00
 -1      3056 3.45303E+01 3.80924E+01 0.00000E+00
 -1      3057 3.60303E+01 3.80924E+01 0.00000E+00
 -1      3058 3.37803E+01 3.67934E+01 0.00000E+00
 -1      3059 3.75303E+01 3.80924E+01 0.00000E+00
 -1      3060 3.90303E+01 3.80924E+01 0.00000E+00
 -1      3061 3.67803E+01 3.67934E+01 0.00000E+00
 -1      3062 4.05303E+01 3.80924E+01 0.00000E+00
 -1      3063 4.20303E+01 3.80924E+01 0.00000E+00
 -1      3064 3.97803E+01 3.67934E+01 0.00000E+00
 -1      3065 4.35303E+01 3.80924E+01 0.00000E+00
 -1      3066 4.50303E+01 3.80924E+01 0.00000E+00
 -1      3067 4.27803E+01 3.67934E+01 0.00000E+00
 -1      3068 4.65303E+01 3.80924E+01 0.00000E+00
 -1      3069 4.80303E+01 3.80924E+01 0.00000E+00
 -1      3070 4.57803E+01 3.67934E+01 0.00000E+00
 -1      3071 4.95303E+01 3.80924E+01 0.00000E+00
 -1      3072 5.10303E+01 3.80924E+01 0.00000E+00
 -1      3073 4.87803E+01 3.67934E+01 0.00000E+00
 -1      3074 5.25303E+01 3.80924E+01 0.00000E+00
 -1      3075 5.40303E+01 3.80924E+01 0.00000E+00
 -1      3076 5.17803E+01 3.67934E+01 0.00000E+00
 -1      3077 5.55303E+01 3.80924E+01 0.00000E+00
 -1      3078 5.70303E+01 3.80924E+01 0.00000E+00
 -1      3079 5.47803E+01 3.67934E+01 0.00000E+00
 -1      3080 5.85303E+01 3.80924E+01 0.00000E+00
 -1      3081 6.00303E+01 3.80924E+01 0.00000E+00
 -1      3082 5.77803E+01 3.67934E+01 0.00000E+00
 -1      3083 6.15303E+01 3.80924E+01 0.00000E+00
 -1      3084 6.30303E+01 3.80924E+01 0.00000E+00
 -1      3085 6.07803E+01 3.67934E+01 0.00000E+00
 -1      3086 6.45303E+01 3.80924E+01 0.00000E+00
 -1      3087 6.60303E+01 3.80924E+01 0.00000E+00
 -1      3088 6.37803E+01 3.67934E+01 0.00000E+00
 -1      3089 6.75303E+01 3.80924E+01 0.00000E+00
 -1      3090 6.90303E+01 3.80924E+01 0.00000E+00
 -1      3091 6.67803E+01 3.67934E+01 0.00000E+00
 -1      3092 7.05303E+01 3.80924E+01 0.00000E+00
 -1      3093 7.20303E+01 3.80924E+01 0.00000E+00
 -1      3094 6.97803E+01 3.67934E+01 0.00000E+00
 -1      3095 7.35303E+01 3.80924E+01 0.00000E+00
 -1      3096 7.50303E+01 3.80924E+01 0.00000E+00
 -1      3097 7.27803E+01 3.67934E+01 0.00000E+00
 -1      3098 7.65303E+01 3.80924E+01 0.00000E+00
 -1      3099 7.80303E+01 3.80924E+01 0.00000E+00
 -1      3100 7.57803E+01 3.67934E+01 0.00000E+00
 -1      3101 7.95303E+01 3.80924E+01 0.00000E+00
 -1      3102 8.10303E+01 3.80924E+01 0.00000E+00
 -1      3103 7.87803E+01 3.67934E+01 0.00000E+00
 -1      3104 8.25303E+01 3.80924E+01 0.00000E+00
 -1      3105 8.40303E+01 3.80924E+01 0.00000E+00
 -1      3106 8.17803E+01 3.67934E+01 0.00000E+00
 -1      3107 8.55303E+01 3.80924E+01 0.00000E+00
 -1      3108 8.70303E+01 3.80924E+01 0.00000E+00
 -1      3109 8.47803E+01 3.67934E+01 0.00000E+00
 -1      3110 8.85303E+01 3.80924E+01 0.00000E+00
 -1      3111 9.00303E+01 3.80924E+01 0.00000E+00
 -1      3112 8.77803E+01 3.67934E+01 0.00000E+00
 -1      3113 9.15303E+01 3.80924E+01 0.00000E+00
 -1      3114 9.30303E+01 3.80924E+01 0.00000E+00
 -1      3115 9.07803E+01 3.67934E+01 0.00000E+00
 -1      3116 9.45303E+01 3.80924E+01 0.00000E+00
 -1      3117 9.60303E+01 3.80924E+01 0.00000E+00
 -1      3118 9.37803E+01 3.67934E+01 0.00000E+00
 -1      3119 9.75303E+01 3.80924E+01 0.00000E+00
 -1      3120 9.90303E+01 3.80924E+01 0.00000E+00
 -1      3121 9.67803E+01 3.67934E+01 0.00000E+00
 -1      3122 1.00530E+02 3.80924E+01 0.00000E+00
 -1      3123 1.02030E+02 3.80924E+01 0.00000E+00
 -1      3124 9.97803E+01 3.67934E+01 0.00000E+00
 -1      3125 1.03530E+02 3.80924E+01 0.00000E+00
 -1      3126 1.05030E+02 3.80924E+01 0.00000E+00
 -1      3127 1.02780E+02 3.67934E+01 0.00000E+00
 -1      3128 1.06530E+02 3.80924E+01 0.00000E+00
 -1      3129 1.08030E+02 3.80924E+01 0.00000E+00
 -1      3130 1.05780E+02 3.67934E+01 0.00000E+00
 -1      3131 1.09530E+02 3.80924E+01 0.00000E+00
 -1      3132 1.11030E+02 3.80924E+01 0.00000E+00
 -1      3133 1.08780E+02 3.67934E+01 0.00000E+00
 -1      3134 1.12530E+02 3.80924E+01 0.00000E+00
 -1      3135 1.14030E+02 3.80924E+01 0.00000E+00
 -1      3136 1.11780E+02 3.67934E+01 0.00000E+00
 -1      3137 1.15530E+02 3.80924E+01 0.00000E+00
 -1      3138 1.17030E+02 3.80924E+01 0.00000E+00
 -1      3139 1.14780E+02 3.67934E+01 0.00000E+00
 -1      3140 1.18530E+02 3.80924E+01 0.00000E+00
 -1      3141 1.20030E+02 3.80924E+01 0.00000E+00
 -1      3142 1.17780E+02 3.67934E+01 0.00000E+00
 -1      3143 1.21530E+02 3.80924E+01 0.00000E+00
 -1      3144 1.23030E+02 3.80924E+01 0.00000E+00
 -1      3145 1.20780E+02 3.67934E+01 0.00000E+00
 -1      3146 1.24530E+02 3.80924E+01 0.00000E+00
 -1      3147 1.26030E+02 3.80924E+01 0.00000E+00
 -1      3148 1.23780E+02 3.67934E+01 0.00000E+00
 -1      3149 1.27530E+02 3.80924E+01 0.00000E+00
 -1      3150 1.29030E+02 3.80924E+01 0.00000E+00
 -1      3151 1.26780E+02 3.67934E+01 0.00000E+00
 -1      3152 1.30530E+02 3.80924E+01 0.00000E+00
 -1      3153 1.32030E+02 3.80924E+01 0.00000E+00
 -1      3154 1.29780E+02 3.67934E+01 0.00000E+00
 -1      3155 1.33530E+02 3.80924E+01 0.00000E+00
 -1      3156 1.35030E+02 3.80924E+01 0.00000E+00
 -1      3157 1.32780E+02 3.67934E+01 0.00000E+00
 -1      3158 3.47850E+01 1.05013E+01 0.00000E+00
 -1      3159 3.32850E+01 1.05013E+01 0.00000E+00
 -1      3160 1.07390E+02 2.89311E+01 0.00000E+00
 -1      3161 1.06403E+02 2.97816E+01 0.00000E+00
 -1      3162 3.17850E+01 1.05013E+01 0.00000E+00
 -1      3163 3.02850E+01 1.05013E+01 0.00000E+00
 -1      3164 3.25350E+01 1.18003E+01 0.00000E+00
 -1      3165 4.07850E+01 1.05013E+01 0.00000E+00
 -1      3166 3.92850E+01 1.05013E+01 0.00000E+00
 -1      3167 4.37850E+01 1.05013E+01 0.00000E+00
 -1      3168 4.22850E+01 1.05013E+01 0.00000E+00
 -1      3169 4.15350E+01 1.18003E+01 0.00000E+00
 -1      3170 4.67850E+01 1.05013E+01 0.00000E+00
 -1      3171 4.52850E+01 1.05013E+01 0.00000E+00
 -1      3172 4.45350E+01 1.18003E+01 0.00000E+00
 -1      3173 4.97850E+01 1.05013E+01 0.00000E+00
 -1      3174 4.82850E+01 1.05013E+01 0.00000E+00
 -1      3175 4.75350E+01 1.18003E+01 0.00000E+00
 -1      3176 5.27850E+01 1.05013E+01 0.00000E+00
 -1      3177 5.12850E+01 1.05013E+01 0.00000E+00
 -1      3178 5.05350E+01 1.18003E+01 0.00000E+00
 -1      3179 5.57850E+01 1.05013E+01 0.00000E+00
 -1      3180 5.42850E+01 1.05013E+01 0.00000E+00
 -1      3181 5.35350E+01 1.18003E+01 0.00000E+00
 -1      3182 5.87850E+01 1.05013E+01 0.00000E+00
 -1      3183 5.72850E+01 1.05013E+01 0.00000E+00
 -1      3184 5.65350E+01 1.18003E+01 0.00000E+00
 -1      3185 6.17850E+01 1.05013E+01 0.00000E+00
 -1      3186 6.02850E+01 1.05013E+01 0.00000E+00
 -1      3187 5.95350E+01 1.18003E+01 0.00000E+00
 -1      3188 6.47850E+01 1.05013E+01 0.00000E+00
 -1      3189 6.32850E+01 1.05013E+01 0.00000E+00
 -1      3190 6.25350E+01 1.18003E+01 0.00000E+00
 -1      3191 6.77850E+01 1.05013E+01 0.00000E+00
 -1      3192 6.62850E+01 1.05013E+01 0.00000E+00
 -1      3193 6.55350E+01 1.18003E+01 0.00000E+00
 -1      3194 7.07850E+01 1.05013E+01 0.00000E+00
 -1      3195 6.92850E+01 1.05013E+01 0.00000E+00
 -1      3196 6.85350E+01 1.18003E+01 0.00000E+00
 -1      3197 7.37850E+01 1.05013E+01 0.00000E+00
 -1      3198 7.22850E+01 1.05013E+01 0.00000E+00
 -1      3199 7.15350E+01 1.18003E+01 0.00000E+00
 -1      3200 7.67850E+01 1.05013E+01 0.00000E+00
 -1      3201 7.52850E+01 1.05013E+01 0.00000E+00
 -1      3202 7.45350E+01 1.18003E+01 0.00000E+00
 -1      3203 7.97850E+01 1.05013E+01 0.00000E+00
 -1      3204 7.82850E+01 1.05013E+01 0.00000E+00
 -1      3205 7.75350E+01 1.18003E+01 0.00000E+00
 -1      3206 8.27850E+01 1.05013E+01 0.00000E+00
 -1      3207 8.12850E+01 1.05013E+01 0.00000E+00
 -1      3208 8.05350E+01 1.18003E+01 0.00000E+00
 -1      3209 8.72470E+01 1.03109E+01 0.00000E+00
 -1      3210 1.24777E+02 1.22566E+01 0.00000E+00
 -1      3211 1.23277E+02 1.22566E+01 0.00000E+00
 -1      3212 1.16910E+01 2.12875E+01 0.00000E+00
 -1      3213 1.16910E+01 2.27625E+01 0.00000E+00
 -1      3214 1.03225E+02 6.77785E+00 0.00000E+00
 -1      3215 2.27850E+01 1.05013E+01 0.00000E+00
 -1      3216 2.12850E+01 1.05013E+01 0.00000E+00
 -1      3217 1.12613E+02 1.32246E+01 0.00000E+00
 -1      3218 1.12938E+02 1.44682E+01 0.00000E+00
 -1      3219 1.13852E+02 1.22012E+01 0.00000E+00
 -1      3220 1.21777E+02 1.22566E+01 0.00000E+00
 -1      3221 1.20277E+02 1.22566E+01 0.00000E+00
 -1      3222 1.22527E+02 1.35556E+01 0.00000E+00
 -1      3223 1.18777E+02 1.22566E+01 0.00000E+00
 -1      3224 1.17277E+02 1.22566E+01 0.00000E+00
 -1      3225 1.19527E+02 1.35556E+01 0.00000E+00
 -1      3226 1.27777E+02 1.22566E+01 0.00000E+00
 -1      3227 1.26277E+02 1.22566E+01 0.00000E+00
 -1      3228 1.25527E+02 1.35556E+01 0.00000E+00
 -1      3229 1.30777E+02 1.22566E+01 0.00000E+00
 -1      3230 1.29277E+02 1.22566E+01 0.00000E+00
 -1      3231 1.28527E+02 1.35556E+01 0.00000E+00
 -1      3232 1.33777E+02 1.22566E+01 0.00000E+00
 -1      3233 1.32277E+02 1.22566E+01 0.00000E+00
 -1      3234 1.31527E+02 1.35556E+01 0.00000E+00
 -1      3235 1.36777E+02 1.22566E+01 0.00000E+00
 -1      3236 1.35277E+02 1.22566E+01 0.00000E+00
 -1      3237 1.34527E+02 1.35556E+01 0.00000E+00
 -1      3238 1.38309E+02 2.57625E+01 0.00000E+00
 -1      3239 1.38309E+02 2.42875E+01 0.00000E+00
 -1      3240 1.38309E+02 3.45625E+01 0.00000E+00
 -1      3241 1.38309E+02 3.30875E+01 0.00000E+00
 -1      3242 1.38309E+02 2.86625E+01 0.00000E+00
 -1      3243 1.38309E+02 2.72125E+01 0.00000E+00
 -1      3244 1.37010E+02 2.64750E+01 0.00000E+00
 -1      3245 1.09328E+02 2.73165E+01 0.00000E+00
 -1      3246 1.08474E+02 2.81601E+01 0.00000E+00
 -1      3247 1.12625E+02 1.60215E+01 0.00000E+00
 -1      3248 1.12773E+02 1.72820E+01 0.00000E+00
 -1      3249 1.15352E+02 1.22012E+01 0.00000E+00
 -1      3250 1.38309E+02 3.16125E+01 0.00000E+00
 -1      3251 1.38309E+02 3.01375E+01 0.00000E+00
 -1      3252 1.37010E+02 2.94000E+01 0.00000E+00
 -1      3253 1.37010E+02 3.23500E+01 0.00000E+00
 -1      3254 3.77850E+01 1.05013E+01 0.00000E+00
 -1      3255 3.62850E+01 1.05013E+01 0.00000E+00
 -1      3256 3.55350E+01 1.18003E+01 0.00000E+00
 -1      3257 3.85350E+01 1.18003E+01 0.00000E+00
 -1      3258 2.87850E+01 1.05013E+01 0.00000E+00
 -1      3259 2.72850E+01 1.05013E+01 0.00000E+00
 -1      3260 2.95350E+01 1.18003E+01 0.00000E+00
 -1      3261 1.04531E+02 7.29183E+00 0.00000E+00
 -1      3262 2.57850E+01 1.05013E+01 0.00000E+00
 -1      3263 2.42850E+01 1.05013E+01 0.00000E+00
 -1      3264 2.35350E+01 1.18003E+01 0.00000E+00
 -1      3265 2.65350E+01 1.18003E+01 0.00000E+00
 -1      3266 1.01447E+02 3.18703E+01 0.00000E+00
 -1      3267 1.00247E+02 3.18631E+01 0.00000E+00
 -1      3268 8.80802E+01 2.63918E+01 0.00000E+00
 -1      3269 8.73021E+01 2.52564E+01 0.00000E+00
 -1      3270 1.26488E+01 1.02017E+01 0.00000E+00
 -1      3271 1.20772E+01 1.14631E+01 0.00000E+00
 -1      3272 1.33763E+01 1.22006E+01 0.00000E+00
 -1      3273 1.41488E+01 1.02017E+01 0.00000E+00
 -1      3274 8.65063E+01 2.38342E+01 0.00000E+00
 -1      3275 8.60891E+01 2.25543E+01 0.00000E+00
 -1      3276 8.57836E+01 2.10660E+01 0.00000E+00
 -1      3277 8.54839E+01 1.96218E+01 0.00000E+00
 -1      3278 1.00862E+01 3.73269E+01 0.00000E+00
 -1      3279 9.68388E+01 6.69798E+00 0.00000E+00
 -1      3280 8.67429E+01 1.14723E+01 0.00000E+00
 -1      3281 8.60310E+01 1.03636E+01 0.00000E+00
 -1      3282 8.45310E+01 1.03636E+01 0.00000E+00
 -1      3283 8.65229E+01 1.26864E+01 0.00000E+00
 -1      3284 9.89840E+01 3.18515E+01 0.00000E+00
 -1      3285 9.77215E+01 3.18400E+01 0.00000E+00
 -1      3286 9.95783E+01 3.27965E+01 0.00000E+00
 -1      3287 8.55554E+01 1.78900E+01 0.00000E+00
 -1      3288 8.58311E+01 1.66163E+01 0.00000E+00
 -1      3289 1.16910E+01 2.42375E+01 0.00000E+00
 -1      3290 1.16910E+01 2.57125E+01 0.00000E+00
 -1      3291 1.29900E+01 2.35000E+01 0.00000E+00
 -1      3292 8.61188E+01 2.49341E+01 0.00000E+00
 -1      3293 8.37810E+01 1.16626E+01 0.00000E+00
 -1      3294 1.13001E+02 2.12430E+01 0.00000E+00
 -1      3295 1.13250E+02 2.20985E+01 0.00000E+00
 -1      3296 1.13751E+02 2.05326E+01 0.00000E+00
 -1      3297 8.50175E+01 2.20236E+01 0.00000E+00
 -1      3298 1.05854E+02 3.06711E+01 0.00000E+00
 -1      3299 1.05304E+02 3.15606E+01 0.00000E+00
 -1      3300 1.06961E+02 3.09588E+01 0.00000E+00
 -1      3301 8.49451E+01 1.59910E+01 0.00000E+00
 -1      3302 8.59211E+01 1.55356E+01 0.00000E+00
 -1      3303 1.11124E+02 2.66774E+01 0.00000E+00
 -1      3304 1.10226E+02 2.69970E+01 0.00000E+00
 -1      3305 1.10578E+02 2.82077E+01 0.00000E+00
 -1      3306 1.36530E+02 3.80924E+01 0.00000E+00
 -1      3307 1.38030E+02 3.80924E+01 0.00000E+00
 -1      3308 8.62770E+01 1.43790E+01 0.00000E+00
 -1      3309 1.71488E+01 1.02017E+01 0.00000E+00
 -1      3310 1.56488E+01 1.02017E+01 0.00000E+00
 -1      3311 1.52625E+01 1.12011E+01 0.00000E+00
 -1      3312 1.16910E+01 1.98188E+01 0.00000E+00
 -1      3313 1.29900E+01 2.05562E+01 0.00000E+00
 -1      3314 1.16910E+01 1.83500E+01 0.00000E+00
 -1      3315 1.16102E+02 1.35002E+01 0.00000E+00
 -1      3316 1.12703E+02 2.37886E+01 0.00000E+00
 -1      3317 1.11636E+02 2.41377E+01 0.00000E+00
 -1      3318 1.11838E+02 2.51175E+01 0.00000E+00
 -1      3319 1.02518E+02 3.20405E+01 0.00000E+00
 -1      3320 1.01913E+02 3.29782E+01 0.00000E+00
 -1      3321 1.03590E+02 3.22107E+01 0.00000E+00
 -1      3322 1.16910E+01 3.30594E+01 0.00000E+00
 -1      3323 1.16910E+01 3.45281E+01 0.00000E+00
 -1      3324 1.13864E+02 1.49980E+01 0.00000E+00
 -1      3325 1.37010E+02 2.35500E+01 0.00000E+00
 -1      3326 1.38309E+02 2.28125E+01 0.00000E+00
 -1      3327 1.38309E+02 2.13375E+01 0.00000E+00
 -1      3328 1.37947E+02 1.28297E+01 0.00000E+00
 -1      3329 1.08596E+02 2.92983E+01 0.00000E+00
 -1      3330 1.38309E+02 1.98625E+01 0.00000E+00
 -1      3331 1.38309E+02 1.83875E+01 0.00000E+00
 -1      3332 1.37010E+02 2.06000E+01 0.00000E+00
 -1      3333 1.16910E+01 3.01219E+01 0.00000E+00
 -1      3334 1.16910E+01 3.15906E+01 0.00000E+00
 -1      3335 1.29900E+01 3.23250E+01 0.00000E+00
 -1      3336 1.14304E+02 1.73834E+01 0.00000E+00
 -1      3337 1.13526E+02 1.81142E+01 0.00000E+00
 -1      3338 1.14279E+02 1.89464E+01 0.00000E+00
 -1      3339 9.10064E+01 2.88623E+01 0.00000E+00
 -1      3340 9.00355E+01 2.90308E+01 0.00000E+00
 -1      3341 9.12985E+01 2.97858E+01 0.00000E+00
 -1      3342 1.99669E+01 1.03515E+01 0.00000E+00
 -1      3343 1.84669E+01 1.03515E+01 0.00000E+00
 -1      3344 1.80806E+01 1.13509E+01 0.00000E+00
 -1      3345 2.07169E+01 1.16505E+01 0.00000E+00
 -1      3346 1.35780E+02 3.67934E+01 0.00000E+00
 -1      3347 9.68532E+01 3.19852E+01 0.00000E+00
 -1      3348 9.59850E+01 3.21303E+01 0.00000E+00
 -1      3349 9.74476E+01 3.29301E+01 0.00000E+00
 -1      3350 1.29900E+01 1.46687E+01 0.00000E+00
 -1      3351 1.16910E+01 1.54063E+01 0.00000E+00
 -1      3352 1.16910E+01 1.68750E+01 0.00000E+00
 -1      3353 8.85778E+01 2.80717E+01 0.00000E+00
 -1      3354 8.83290E+01 2.72318E+01 0.00000E+00
 -1      3355 8.71634E+01 2.71962E+01 0.00000E+00
 -1      3356 1.38374E+02 1.70009E+01 0.00000E+00
 -1      3357 1.38438E+02 1.56144E+01 0.00000E+00
 -1      3358 1.37075E+02 1.77384E+01 0.00000E+00
 -1      3359 1.38444E+02 3.60467E+01 0.00000E+00
 -1      3360 1.37145E+02 3.53092E+01 0.00000E+00
 -1      3361 1.15862E+01 3.73269E+01 0.00000E+00
 -1      3362 9.38301E+01 3.04013E+01 0.00000E+00
 -1      3363 9.28412E+01 3.05229E+01 0.00000E+00
 -1      3364 9.44018E+01 3.13069E+01 0.00000E+00
 -1      3365 8.40118E+01 1.97169E+01 0.00000E+00
 -1      3366 8.47836E+01 1.88035E+01 0.00000E+00
 -1      3367 8.40833E+01 1.79852E+01 0.00000E+00
 -1      3368 8.52810E+01 1.32176E+01 0.00000E+00
 -1      3369 1.38887E+02 3.81758E+01 0.00000E+00
 -1      3370 1.23362E+01 3.60279E+01 0.00000E+00
 -1      3371 8.37950E+01 1.64394E+01 0.00000E+00
 -1      3372 8.38850E+01 1.53586E+01 0.00000E+00
 -1      3373 1.80304E+01 3.54944E+01 0.00000E+00
 -1      3374 1.95304E+01 3.54944E+01 0.00000E+00
 -1      3375 2.10304E+01 3.54944E+01 0.00000E+00
 -1      3376 2.25304E+01 3.54944E+01 0.00000E+00
 -1      3377 2.02804E+01 3.41954E+01 0.00000E+00
 -1      3378 2.40304E+01 3.54944E+01 0.00000E+00
 -1      3379 2.55304E+01 3.54944E+01 0.00000E+00
 -1      3380 2.32804E+01 3.41954E+01 0.00000E+00
 -1      3381 2.70304E+01 3.54944E+01 0.00000E+00
 -1      3382 2.85304E+01 3.54944E+01 0.00000E+00
 -1      3383 2.62804E+01 3.41954E+01 0.00000E+00
 -1      3384 3.00304E+01 3.54944E+01 0.00000E+00
 -1      3385 3.15304E+01 3.54944E+01 0.00000E+00
 -1      3386 2.92804E+01 3.41954E+01 0.00000E+00
 -1      3387 3.30303E+01 3.54944E+01 0.00000E+00
 -1      3388 3.45303E+01 3.54944E+01 0.00000E+00
 -1      3389 3.22803E+01 3.41954E+01 0.00000E+00
 -1      3390 3.60303E+01 3.54944E+01 0.00000E+00
 -1      3391 3.75303E+01 3.54944E+01 0.00000E+00
 -1      3392 3.52803E+01 3.41954E+01 0.00000E+00
 -1      3393 3.90303E+01 3.54944E+01 0.00000E+00
 -1      3394 4.05303E+01 3.54944E+01 0.00000E+00
 -1      3395 3.82803E+01 3.41954E+01 0.00000E+00
 -1      3396 4.20303E+01 3.54944E+01 0.00000E+00
 -1      3397 4.35303E+01 3.54944E+01 0.00000E+00
 -1      3398 4.12803E+01 3.41954E+01 0.00000E+00
 -1      3399 4.50303E+01 3.54944E+01 0.00000E+00
 -1      3400 4.65303E+01 3.54944E+01 0.00000E+00
 -1      3401 4.42803E+01 3.41954E+01 0.00000E+00
 -1      3402 4.80303E+01 3.54944E+01 0.00000E+00
 -1      3403 4.95303E+01 3.54944E+01 0.00000E+00
 -1      3404 4.72803E+01 3.41954E+01 0.00000E+00
 -1      3405 5.10303E+01 3.54944E+01 0.00000E+00
 -1      3406 5.25303E+01 3.54944E+01 0.00000E+00
 -1      3407 5.02803E+01 3.41954E+01 0.00000E+00
 -1      3408 5.40303E+01 3.54944E+01 0.00000E+00
 -1      3409 5.55303E+01 3.54944E+01 0.00000E+00
 -1      3410 5.32803E+01 3.41954E+01 0.00000E+00
 -1      3411 5.70303E+01 3.54944E+01 0.00000E+00
 -1      3412 5.85303E+01 3.54944E+01 0.00000E+00
 -1      3413 5.62803E+01 3.41954E+01 0.00000E+00
 -1      3414 6.00303E+01 3.54944E+01 0.00000E+00
 -1      3415 6.15303E+01 3.54944E+01 0.00000E+00
 -1      3416 5.92803E+01 3.41954E+01 0.00000E+00
 -1      3417 6.30303E+01 3.54944E+01 0.00000E+00
 -1      3418 6.45303E+01 3.54944E+01 0.00000E+00
 -1      3419 6.22803E+01 3.41954E+01 0.00000E+00
 -1      3420 6.60303E+01 3.54944E+01 0.00000E+00
 -1      3421 6.75303E+01 3.54944E+01 0.00000E+00
 -1      3422 6.52803E+01 3.41954E+01 0.00000E+00
 -1      3423 6.90303E+01 3.54944E+01 0.00000E+00
 -1      3424 7.05303E+01 3.54944E+01 0.00000E+00
 -1      3425 6.82803E+01 3.41954E+01 0.00000E+00
 -1      3426 7.20303E+01 3.54944E+01 0.00000E+00
 -1      3427 7.35303E+01 3.54944E+01 0.00000E+00
 -1      3428 7.12803E+01 3.41954E+01 0.00000E+00
 -1      3429 7.50303E+01 3.54944E+01 0.00000E+00
 -1      3430 7.65303E+01 3.54944E+01 0.00000E+00
 -1      3431 7.42803E+01 3.41954E+01 0.00000E+00
 -1      3432 7.80303E+01 3.54944E+01 0.00000E+00
 -1      3433 7.95303E+01 3.54944E+01 0.00000E+00
 -1      3434 7.72803E+01 3.41954E+01 0.00000E+00
 -1      3435 8.10303E+01 3.54944E+01 0.00000E+00
 -1      3436 8.25303E+01 3.54944E+01 0.00000E+00
 -1      3437 8.02803E+01 3.41954E+01 0.00000E+00
 -1      3438 8.40303E+01 3.54944E+01 0.00000E+00
 -1      3439 8.55303E+01 3.54944E+01 0.00000E+00
 -1      3440 8.32803E+01 3.41954E+01 0.00000E+00
 -1      3441 8.70303E+01 3.54944E+01 0.00000E+00
 -1      3442 8.85303E+01 3.54944E+01 0.00000E+00
 -1      3443 8.62803E+01 3.41954E+01 0.00000E+00
 -1      3444 9.00303E+01 3.54944E+01 0.00000E+00
 -1      3445 9.15303E+01 3.54944E+01 0.00000E+00
 -1      3446 8.92803E+01 3.41954E+01 0.00000E+00
 -1      3447 9.30303E+01 3.54944E+01 0.00000E+00
 -1      3448 9.45303E+01 3.54944E+01 0.00000E+00
 -1      3449 9.22803E+01 3.41954E+01 0.00000E+00
 -1      3450 9.59299E+01 3.49343E+01 0.00000E+00
 -1      3451 9.74299E+01 3.49343E+01 0.00000E+00
 -1      3452 9.95606E+01 3.48007E+01 0.00000E+00
 -1      3453 1.01061E+02 3.48007E+01 0.00000E+00
 -1      3454 1.05030E+02 3.54944E+01 0.00000E+00
 -1      3455 1.06530E+02 3.54944E+01 0.00000E+00
 -1      3456 1.08030E+02 3.54944E+01 0.00000E+00
 -1      3457 1.09530E+02 3.54944E+01 0.00000E+00
 -1      3458 1.07280E+02 3.41954E+01 0.00000E+00
 -1      3459 1.11030E+02 3.54944E+01 0.00000E+00
 -1      3460 1.12530E+02 3.54944E+01 0.00000E+00
 -1      3461 1.10280E+02 3.41954E+01 0.00000E+00
 -1      3462 1.14030E+02 3.54944E+01 0.00000E+00
 -1      3463 1.15530E+02 3.54944E+01 0.00000E+00
 -1      3464 1.13280E+02 3.41954E+01 0.00000E+00
 -1      3465 1.17030E+02 3.54944E+01 0.00000E+00
 -1      3466 1.18530E+02 3.54944E+01 0.00000E+00
 -1      3467 1.16280E+02 3.41954E+01 0.00000E+00
 -1      3468 1.20030E+02 3.54944E+01 0.00000E+00
 -1      3469 1.21530E+02 3.54944E+01 0.00000E+00
 -1      3470 1.19280E+02 3.41954E+01 0.00000E+00
 -1      3471 1.23030E+02 3.54944E+01 0.00000E+00
 -1      3472 1.24530E+02 3.54944E+01 0.00000E+00
 -1      3473 1.22280E+02 3.41954E+01 0.00000E+00
 -1      3474 1.26030E+02 3.54944E+01 0.00000E+00
 -1      3475 1.27530E+02 3.54944E+01 0.00000E+00
 -1      3476 1.25280E+02 3.41954E+01 0.00000E+00
 -1      3477 1.29030E+02 3.54944E+01 0.00000E+00
 -1      3478 1.30530E+02 3.54944E+01 0.00000E+00
 -1      3479 1.28280E+02 3.41954E+01 0.00000E+00
 -1      3480 1.32030E+02 3.54944E+01 0.00000E+00
 -1      3481 1.33530E+02 3.54944E+01 0.00000E+00
 -1      3482 1.31280E+02 3.41954E+01 0.00000E+00
 -1      3483 3.02850E+01 1.30992E+01 0.00000E+00
 -1      3484 2.87850E+01 1.30992E+01 0.00000E+00
 -1      3485 4.52850E+01 1.30992E+01 0.00000E+00
 -1      3486 4.37850E+01 1.30992E+01 0.00000E+00
 -1      3487 4.22850E+01 1.30992E+01 0.00000E+00
 -1      3488 4.07850E+01 1.30992E+01 0.00000E+00
 -1      3489 4.30350E+01 1.43982E+01 0.00000E+00
 -1      3490 5.12850E+01 1.30992E+01 0.00000E+00
 -1      3491 4.97850E+01 1.30992E+01 0.00000E+00
 -1      3492 5.42850E+01 1.30992E+01 0.00000E+00
 -1      3493 5.27850E+01 1.30992E+01 0.00000E+00
 -1      3494 5.20350E+01 1.43982E+01 0.00000E+00
 -1      3495 5.72850E+01 1.30992E+01 0.00000E+00
 -1      3496 5.57850E+01 1.30992E+01 0.00000E+00
 -1      3497 5.50350E+01 1.43982E+01 0.00000E+00
 -1      3498 6.02850E+01 1.30992E+01 0.00000E+00
 -1      3499 5.87850E+01 1.30992E+01 0.00000E+00
 -1      3500 5.80350E+01 1.43982E+01 0.00000E+00
 -1      3501 6.32850E+01 1.30992E+01 0.00000E+00
 -1      3502 6.17850E+01 1.30992E+01 0.00000E+00
 -1      3503 6.10350E+01 1.43982E+01 0.00000E+00
 -1      3504 6.62850E+01 1.30992E+01 0.00000E+00
 -1      3505 6.47850E+01 1.30992E+01 0.00000E+00
 -1      3506 6.40350E+01 1.43982E+01 0.00000E+00
 -1      3507 6.92850E+01 1.30992E+01 0.00000E+00
 -1      3508 6.77850E+01 1.30992E+01 0.00000E+00
 -1      3509 6.70350E+01 1.43982E+01 0.00000E+00
 -1      3510 7.22850E+01 1.30992E+01 0.00000E+00
 -1      3511 7.07850E+01 1.30992E+01 0.00000E+00
 -1      3512 7.00350E+01 1.43982E+01 0.00000E+00
 -1      3513 7.52850E+01 1.30992E+01 0.00000E+00
 -1      3514 7.37850E+01 1.30992E+01 0.00000E+00
 -1      3515 7.30350E+01 1.43982E+01 0.00000E+00
 -1      3516 7.82850E+01 1.30992E+01 0.00000E+00
 -1      3517 7.67850E+01 1.30992E+01 0.00000E+00
 -1      3518 7.60350E+01 1.43982E+01 0.00000E+00
 -1      3519 8.12850E+01 1.30992E+01 0.00000E+00
 -1      3520 7.97850E+01 1.30992E+01 0.00000E+00
 -1      3521 7.90350E+01 1.43982E+01 0.00000E+00
 -1      3522 1.29277E+02 1.48546E+01 0.00000E+00
 -1      3523 1.27777E+02 1.48546E+01 0.00000E+00
 -1      3524 8.55490E+01 2.61867E+01 0.00000E+00
 -1      3525 8.47532E+01 2.47645E+01 0.00000E+00
 -1      3526 1.15360E+02 1.46652E+01 0.00000E+00
 -1      3527 1.15046E+02 1.62184E+01 0.00000E+00
 -1      3528 1.15799E+02 1.70506E+01 0.00000E+00
 -1      3529 1.17284E+02 1.47206E+01 0.00000E+00
 -1      3530 1.23277E+02 1.48546E+01 0.00000E+00
 -1      3531 1.21777E+02 1.48546E+01 0.00000E+00
 -1      3532 1.20277E+02 1.48546E+01 0.00000E+00
 -1      3533 1.18777E+02 1.48546E+01 0.00000E+00
 -1      3534 1.21027E+02 1.61536E+01 0.00000E+00
 -1      3535 1.32277E+02 1.48546E+01 0.00000E+00
 -1      3536 1.30777E+02 1.48546E+01 0.00000E+00
 -1      3537 1.30027E+02 1.61536E+01 0.00000E+00
 -1      3538 1.37882E+02 1.42162E+01 0.00000E+00
 -1      3539 1.35711E+02 2.72000E+01 0.00000E+00
 -1      3540 1.35711E+02 2.57500E+01 0.00000E+00
 -1      3541 1.16910E+01 2.71844E+01 0.00000E+00
 -1      3542 1.16910E+01 2.86531E+01 0.00000E+00
 -1      3543 1.29900E+01 2.93875E+01 0.00000E+00
 -1      3544 1.36352E+01 3.52936E+01 0.00000E+00
 -1      3545 4.82850E+01 1.30992E+01 0.00000E+00
 -1      3546 4.67850E+01 1.30992E+01 0.00000E+00
 -1      3547 4.60350E+01 1.43982E+01 0.00000E+00
 -1      3548 4.90350E+01 1.43982E+01 0.00000E+00
 -1      3549 8.35350E+01 1.33552E+01 0.00000E+00
 -1      3550 1.48763E+01 1.22006E+01 0.00000E+00
 -1      3551 1.44900E+01 1.32000E+01 0.00000E+00
 -1      3552 1.63762E+01 1.22006E+01 0.00000E+00
 -1      3553 3.32850E+01 1.30992E+01 0.00000E+00
 -1      3554 3.17850E+01 1.30992E+01 0.00000E+00
 -1      3555 3.10350E+01 1.43982E+01 0.00000E+00
 -1      3556 1.35645E+02 3.53092E+01 0.00000E+00
 -1      3557 1.50828E+01 3.53940E+01 0.00000E+00
 -1      3558 1.65828E+01 3.53940E+01 0.00000E+00
 -1      3559 1.73328E+01 3.40950E+01 0.00000E+00
 -1      3560 1.44376E+01 3.38942E+01 0.00000E+00
 -1      3561 1.09829E+02 2.98849E+01 0.00000E+00
 -1      3562 1.08745E+02 3.06559E+01 0.00000E+00
 -1      3563 1.26277E+02 1.48546E+01 0.00000E+00
 -1      3564 1.24777E+02 1.48546E+01 0.00000E+00
 -1      3565 1.27027E+02 1.61536E+01 0.00000E+00
 -1      3566 8.40020E+01 2.30076E+01 0.00000E+00
 -1      3567 8.36965E+01 2.15192E+01 0.00000E+00
 -1      3568 1.02132E+02 3.49709E+01 0.00000E+00
 -1      3569 1.34895E+02 3.40102E+01 0.00000E+00
 -1      3570 1.36583E+02 1.49537E+01 0.00000E+00
 -1      3571 1.14529E+02 1.98019E+01 0.00000E+00
 -1      3572 1.14778E+02 2.06574E+01 0.00000E+00
 -1      3573 1.15306E+02 1.90711E+01 0.00000E+00
 -1      3574 1.12190E+02 2.63282E+01 0.00000E+00
 -1      3575 1.12543E+02 2.75389E+01 0.00000E+00
 -1      3576 1.13257E+02 2.59791E+01 0.00000E+00
 -1      3577 1.08195E+02 3.15454E+01 0.00000E+00
 -1      3578 1.11625E+02 2.92458E+01 0.00000E+00
 -1      3579 1.10727E+02 2.95653E+01 0.00000E+00
 -1      3580 1.10876E+02 3.09230E+01 0.00000E+00
 -1      3581 9.51799E+01 3.36353E+01 0.00000E+00
 -1      3582 9.45855E+01 3.26904E+01 0.00000E+00
 -1      3583 2.80350E+01 1.43982E+01 0.00000E+00
 -1      3584 2.72850E+01 1.30992E+01 0.00000E+00
 -1      3585 2.57850E+01 1.30992E+01 0.00000E+00
 -1      3586 1.03632E+02 3.49709E+01 0.00000E+00
 -1      3587 1.36079E+02 1.63461E+01 0.00000E+00
 -1      3588 1.35523E+02 1.49479E+01 0.00000E+00
 -1      3589 1.34023E+02 1.49479E+01 0.00000E+00
 -1      3590 1.36014E+02 1.77326E+01 0.00000E+00
 -1      3591 1.04382E+02 3.36719E+01 0.00000E+00
 -1      3592 1.29900E+01 1.76125E+01 0.00000E+00
 -1      3593 4.00350E+01 1.43982E+01 0.00000E+00
 -1      3594 3.92850E+01 1.30992E+01 0.00000E+00
 -1      3595 3.77850E+01 1.30992E+01 0.00000E+00
 -1      3596 8.19806E+01 2.16849E+01 0.00000E+00
 -1      3597 8.29962E+01 2.07009E+01 0.00000E+00
 -1      3598 8.22959E+01 1.98826E+01 0.00000E+00
 -1      3599 8.23850E+01 1.38036E+01 0.00000E+00
 -1      3600 8.16350E+01 1.51026E+01 0.00000E+00
 -1      3601 1.42890E+01 2.27625E+01 0.00000E+00
 -1      3602 1.42890E+01 2.42375E+01 0.00000E+00
 -1      3603 1.14203E+02 2.23679E+01 0.00000E+00
 -1      3604 1.13453E+02 2.30782E+01 0.00000E+00
 -1      3605 1.13655E+02 2.40580E+01 0.00000E+00
 -1      3606 9.82981E+01 3.47892E+01 0.00000E+00
 -1      3607 8.34321E+01 2.42601E+01 0.00000E+00
 -1      3608 1.35456E+02 1.91844E+01 0.00000E+00
 -1      3609 1.34460E+02 1.77921E+01 0.00000E+00
 -1      3610 1.42890E+01 2.12938E+01 0.00000E+00
 -1      3611 1.55880E+01 2.20313E+01 0.00000E+00
 -1      3612 1.42890E+01 1.98250E+01 0.00000E+00
 -1      3613 1.04988E+02 3.27342E+01 0.00000E+00
 -1      3614 1.35711E+02 2.42750E+01 0.00000E+00
 -1      3615 1.35711E+02 2.28000E+01 0.00000E+00
 -1      3616 1.34412E+02 2.50000E+01 0.00000E+00
 -1      3617 1.18034E+02 1.60196E+01 0.00000E+00
 -1      3618 1.33273E+02 1.62469E+01 0.00000E+00
 -1      3619 1.29900E+01 2.64469E+01 0.00000E+00
 -1      3620 8.57978E+01 2.70266E+01 0.00000E+00
 -1      3621 8.44322E+01 2.68570E+01 0.00000E+00
 -1      3622 8.60467E+01 2.78666E+01 0.00000E+00
 -1      3623 1.35456E+02 2.06594E+01 0.00000E+00
 -1      3624 1.24027E+02 1.61536E+01 0.00000E+00
 -1      3625 3.62850E+01 1.30992E+01 0.00000E+00
 -1      3626 3.47850E+01 1.30992E+01 0.00000E+00
 -1      3627 3.70350E+01 1.43982E+01 0.00000E+00
 -1      3628 1.35711E+02 2.86750E+01 0.00000E+00
 -1      3629 1.34412E+02 2.79500E+01 0.00000E+00
 -1      3630 1.35711E+02 3.01500E+01 0.00000E+00
 -1      3631 9.18703E+01 3.06914E+01 0.00000E+00
 -1      3632 9.08993E+01 3.08600E+01 0.00000E+00
 -1      3633 9.24420E+01 3.15971E+01 0.00000E+00
 -1      3634 2.12293E+01 1.30161E+01 0.00000E+00
 -1      3635 1.99111E+01 1.28663E+01 0.00000E+00
 -1      3636 8.91620E+01 2.99188E+01 0.00000E+00
 -1      3637 8.88699E+01 2.89952E+01 0.00000E+00
 -1      3638 8.77044E+01 2.89597E+01 0.00000E+00
 -1      3639 1.44900E+01 1.46687E+01 0.00000E+00
 -1      3640 1.44376E+01 3.09567E+01 0.00000E+00
 -1      3641 1.44376E+01 3.24254E+01 0.00000E+00
 -1      3642 1.58852E+01 3.25258E+01 0.00000E+00
 -1      3643 1.35303E+02 3.28176E+01 0.00000E+00
 -1      3644 1.35303E+02 3.13426E+01 0.00000E+00
 -1      3645 1.34004E+02 3.06176E+01 0.00000E+00
 -1      3646 1.33188E+02 3.30028E+01 0.00000E+00
 -1      3647 8.30232E+01 1.73528E+01 0.00000E+00
 -1      3648 2.42850E+01 1.30992E+01 0.00000E+00
 -1      3649 2.27850E+01 1.30992E+01 0.00000E+00
 -1      3650 2.50350E+01 1.43982E+01 0.00000E+00
 -1      3651 9.35966E+01 3.28119E+01 0.00000E+00
 -1      3652 3.40350E+01 1.43982E+01 0.00000E+00
 -1      3653 2.19793E+01 1.43151E+01 0.00000E+00
 -1      3654 1.06096E+02 3.30218E+01 0.00000E+00
 -1      3655 2.25304E+01 3.28964E+01 0.00000E+00
 -1      3656 2.40304E+01 3.28964E+01 0.00000E+00
 -1      3657 2.55304E+01 3.28964E+01 0.00000E+00
 -1      3658 2.70304E+01 3.28964E+01 0.00000E+00
 -1      3659 2.47804E+01 3.15974E+01 0.00000E+00
 -1      3660 2.85304E+01 3.28964E+01 0.00000E+00
 -1      3661 3.00304E+01 3.28964E+01 0.00000E+00
 -1      3662 2.77804E+01 3.15974E+01 0.00000E+00
 -1      3663 3.15304E+01 3.28964E+01 0.00000E+00
 -1      3664 3.30303E+01 3.28964E+01 0.00000E+00
 -1      3665 3.07804E+01 3.15974E+01 0.00000E+00
 -1      3666 3.45303E+01 3.28964E+01 0.00000E+00
 -1      3667 3.60303E+01 3.28964E+01 0.00000E+00
 -1      3668 3.37803E+01 3.15974E+01 0.00000E+00
 -1      3669 3.75303E+01 3.28964E+01 0.00000E+00
 -1      3670 3.90303E+01 3.28964E+01 0.00000E+00
 -1      3671 3.67803E+01 3.15974E+01 0.00000E+00
 -1      3672 4.05303E+01 3.28964E+01 0.00000E+00
 -1      3673 4.20303E+01 3.28964E+01 0.00000E+00
 -1      3674 3.97803E+01 3.15974E+01 0.00000E+00
 -1      3675 4.35303E+01 3.28964E+01 0.00000E+00
 -1      3676 4.50303E+01 3.28964E+01 0.00000E+00
 -1      3677 4.27803E+01 3.15974E+01 0.00000E+00
 -1      3678 4.65303E+01 3.28964E+01 0.00000E+00
 -1      3679 4.80303E+01 3.28964E+01 0.00000E+00
 -1      3680 4.57803E+01 3.15974E+01 0.00000E+00
 -1      3681 4.95303E+01 3.28964E+01 0.00000E+00
 -1      3682 5.10303E+01 3.28964E+01 0.00000E+00
 -1      3683 4.87803E+01 3.15974E+01 0.00000E+00
 -1      3684 5.25303E+01 3.28964E+01 0.00000E+00
 -1      3685 5.40303E+01 3.28964E+01 0.00000E+00
 -1      3686 5.17803E+01 3.15974E+01 0.00000E+00
 -1      3687 5.55303E+01 3.28964E+01 0.00000E+00
 -1      3688 5.70303E+01 3.28964E+01 0.00000E+00
 -1      3689 5.47803E+01 3.15974E+01 0.00000E+00
 -1      3690 5.85303E+01 3.28964E+01 0.00000E+00
 -1      3691 6.00303E+01 3.28964E+01 0.00000E+00
 -1      3692 5.77803E+01 3.15974E+01 0.00000E+00
 -1      3693 6.15303E+01 3.28964E+01 0.00000E+00
 -1      3694 6.30303E+01 3.28964E+01 0.00000E+00
 -1      3695 6.07803E+01 3.15974E+01 0.00000E+00
 -1      3696 6.45303E+01 3.28964E+01 0.00000E+00
 -1      3697 6.60303E+01 3.28964E+01 0.00000E+00
 -1      3698 6.37803E+01 3.15974E+01 0.00000E+00
 -1      3699 6.75303E+01 3.28964E+01 0.00000E+00
 -1      3700 6.90303E+01 3.28964E+01 0.00000E+00
 -1      3701 6.67803E+01 3.15974E+01 0.00000E+00
 -1      3702 7.05303E+01 3.28964E+01 0.00000E+00
 -1      3703 7.20303E+01 3.28964E+01 0.00000E+00
 -1      3704 6.97803E+01 3.15974E+01 0.00000E+00
 -1      3705 7.35303E+01 3.28964E+01 0.00000E+00
 -1      3706 7.50303E+01 3.28964E+01 0.00000E+00
 -1      3707 7.27803E+01 3.15974E+01 0.00000E+00
 -1      3708 7.65303E+01 3.28964E+01 0.00000E+00
 -1      3709 7.80303E+01 3.28964E+01 0.00000E+00
 -1      3710 7.57803E+01 3.15974E+01 0.00000E+00
 -1      3711 7.95303E+01 3.28964E+01 0.00000E+00
 -1      3712 8.10303E+01 3.28964E+01 0.00000E+00
 -1      3713 7.87803E+01 3.15974E+01 0.00000E+00
 -1      3714 8.25303E+01 3.28964E+01 0.00000E+00
 -1      3715 8.40303E+01 3.28964E+01 0.00000E+00
 -1      3716 8.17803E+01 3.15974E+01 0.00000E+00
 -1      3717 8.78884E+01 3.20393E+01 0.00000E+00
 -1      3718 8.93884E+01 3.20393E+01 0.00000E+00
 -1      3719 9.20966E+01 3.28119E+01 0.00000E+00
 -1      3720 1.09379E+02 3.27190E+01 0.00000E+00
 -1      3721 1.10879E+02 3.27190E+01 0.00000E+00
 -1      3722 1.15530E+02 3.28964E+01 0.00000E+00
 -1      3723 1.17030E+02 3.28964E+01 0.00000E+00
 -1      3724 1.18530E+02 3.28964E+01 0.00000E+00
 -1      3725 1.20030E+02 3.28964E+01 0.00000E+00
 -1      3726 1.17780E+02 3.15974E+01 0.00000E+00
 -1      3727 1.21530E+02 3.28964E+01 0.00000E+00
 -1      3728 1.23030E+02 3.28964E+01 0.00000E+00
 -1      3729 1.20780E+02 3.15974E+01 0.00000E+00
 -1      3730 1.24530E+02 3.28964E+01 0.00000E+00
 -1      3731 1.26030E+02 3.28964E+01 0.00000E+00
 -1      3732 1.23780E+02 3.15974E+01 0.00000E+00
 -1      3733 1.27530E+02 3.28964E+01 0.00000E+00
 -1      3734 1.29030E+02 3.28964E+01 0.00000E+00
 -1      3735 1.26780E+02 3.15974E+01 0.00000E+00
 -1      3736 1.30359E+02 3.29496E+01 0.00000E+00
 -1      3737 1.31859E+02 3.29496E+01 0.00000E+00
 -1      3738 1.32267E+02 3.17570E+01 0.00000E+00
 -1      3739 1.29609E+02 3.16506E+01 0.00000E+00
 -1      3740 5.87850E+01 1.56973E+01 0.00000E+00
 -1      3741 5.72850E+01 1.56973E+01 0.00000E+00
 -1      3742 1.32714E+02 1.76987E+01 0.00000E+00
 -1      3743 4.37850E+01 1.56973E+01 0.00000E+00
 -1      3744 4.22850E+01 1.56973E+01 0.00000E+00
 -1      3745 5.57850E+01 1.56973E+01 0.00000E+00
 -1      3746 5.42850E+01 1.56973E+01 0.00000E+00
 -1      3747 5.65350E+01 1.69963E+01 0.00000E+00
 -1      3748 5.27850E+01 1.56973E+01 0.00000E+00
 -1      3749 5.12850E+01 1.56973E+01 0.00000E+00
 -1      3750 5.35350E+01 1.69963E+01 0.00000E+00
 -1      3751 6.17850E+01 1.56973E+01 0.00000E+00
 -1      3752 6.02850E+01 1.56973E+01 0.00000E+00
 -1      3753 5.95350E+01 1.69963E+01 0.00000E+00
 -1      3754 6.47850E+01 1.56973E+01 0.00000E+00
 -1      3755 6.32850E+01 1.56973E+01 0.00000E+00
 -1      3756 6.25350E+01 1.69963E+01 0.00000E+00
 -1      3757 6.77850E+01 1.56973E+01 0.00000E+00
 -1      3758 6.62850E+01 1.56973E+01 0.00000E+00
 -1      3759 6.55350E+01 1.69963E+01 0.00000E+00
 -1      3760 7.07850E+01 1.56973E+01 0.00000E+00
 -1      3761 6.92850E+01 1.56973E+01 0.00000E+00
 -1      3762 6.85350E+01 1.69963E+01 0.00000E+00
 -1      3763 7.37850E+01 1.56973E+01 0.00000E+00
 -1      3764 7.22850E+01 1.56973E+01 0.00000E+00
 -1      3765 7.15350E+01 1.69963E+01 0.00000E+00
 -1      3766 7.67850E+01 1.56973E+01 0.00000E+00
 -1      3767 7.52850E+01 1.56973E+01 0.00000E+00
 -1      3768 7.45350E+01 1.69963E+01 0.00000E+00
 -1      3769 7.97850E+01 1.56973E+01 0.00000E+00
 -1      3770 7.82850E+01 1.56973E+01 0.00000E+00
 -1      3771 7.75350E+01 1.69963E+01 0.00000E+00
 -1      3772 1.55880E+01 2.49719E+01 0.00000E+00
 -1      3773 1.42890E+01 2.57094E+01 0.00000E+00
 -1      3774 1.42890E+01 2.71812E+01 0.00000E+00
 -1      3775 1.17292E+02 1.71846E+01 0.00000E+00
 -1      3776 1.16549E+02 1.83496E+01 0.00000E+00
 -1      3777 1.18784E+02 1.73186E+01 0.00000E+00
 -1      3778 1.21784E+02 1.73186E+01 0.00000E+00
 -1      3779 1.20284E+02 1.73186E+01 0.00000E+00
 -1      3780 1.19542E+02 1.84836E+01 0.00000E+00
 -1      3781 1.43633E+01 2.83346E+01 0.00000E+00
 -1      3782 1.43633E+01 2.98033E+01 0.00000E+00
 -1      3783 1.58109E+01 2.99037E+01 0.00000E+00
 -1      3784 1.56623E+01 2.75971E+01 0.00000E+00
 -1      3785 1.24784E+02 1.73186E+01 0.00000E+00
 -1      3786 1.23284E+02 1.73186E+01 0.00000E+00
 -1      3787 1.22542E+02 1.84836E+01 0.00000E+00
 -1      3788 8.21596E+01 1.83136E+01 0.00000E+00
 -1      3789 8.18713E+01 1.67678E+01 0.00000E+00
 -1      3790 1.07596E+02 3.30218E+01 0.00000E+00
 -1      3791 1.61488E+01 1.48625E+01 0.00000E+00
 -1      3792 1.46488E+01 1.63313E+01 0.00000E+00
 -1      3793 1.46488E+01 1.78063E+01 0.00000E+00
 -1      3794 1.34157E+02 2.13844E+01 0.00000E+00
 -1      3795 8.07714E+01 1.60635E+01 0.00000E+00
 -1      3796 1.30777E+02 1.74526E+01 0.00000E+00
 -1      3797 1.29277E+02 1.74526E+01 0.00000E+00
 -1      3798 1.73078E+01 1.26070E+01 0.00000E+00
 -1      3799 1.69216E+01 1.36064E+01 0.00000E+00
 -1      3800 1.70804E+01 1.52690E+01 0.00000E+00
 -1      3801 1.86260E+01 1.27568E+01 0.00000E+00
 -1      3802 1.73328E+01 3.26262E+01 0.00000E+00
 -1      3803 1.87804E+01 3.27266E+01 0.00000E+00
 -1      3804 1.73328E+01 3.11575E+01 0.00000E+00
 -1      3805 8.27111E+01 2.56075E+01 0.00000E+00
 -1      3806 8.19599E+01 2.38506E+01 0.00000E+00
 -1      3807 1.91384E+01 1.41224E+01 0.00000E+00
 -1      3808 1.99054E+01 3.28115E+01 0.00000E+00
 -1      3809 2.14054E+01 3.28115E+01 0.00000E+00
 -1      3810 2.21554E+01 3.15125E+01 0.00000E+00
 -1      3811 1.99054E+01 3.13427E+01 0.00000E+00
 -1      3812 1.27777E+02 1.74526E+01 0.00000E+00
 -1      3813 1.26277E+02 1.74526E+01 0.00000E+00
 -1      3814 1.28527E+02 1.87516E+01 0.00000E+00
 -1      3815 3.47850E+01 1.56973E+01 0.00000E+00
 -1      3816 3.32850E+01 1.56973E+01 0.00000E+00
 -1      3817 2.26878E+01 1.56538E+01 0.00000E+00
 -1      3818 2.11320E+01 1.55706E+01 0.00000E+00
 -1      3819 3.17850E+01 1.56973E+01 0.00000E+00
 -1      3820 3.02850E+01 1.56973E+01 0.00000E+00
 -1      3821 3.25350E+01 1.69963E+01 0.00000E+00
 -1      3822 1.11777E+02 3.23994E+01 0.00000E+00
 -1      3823 1.31964E+02 1.89977E+01 0.00000E+00
 -1      3824 1.14007E+02 2.52687E+01 0.00000E+00
 -1      3825 1.14359E+02 2.64794E+01 0.00000E+00
 -1      3826 1.14757E+02 2.45583E+01 0.00000E+00
 -1      3827 2.87850E+01 1.56973E+01 0.00000E+00
 -1      3828 2.72850E+01 1.56973E+01 0.00000E+00
 -1      3829 2.95350E+01 1.69963E+01 0.00000E+00
 -1      3830 8.55303E+01 3.28964E+01 0.00000E+00
 -1      3831 8.70303E+01 3.28964E+01 0.00000E+00
 -1      3832 1.68870E+01 2.12969E+01 0.00000E+00
 -1      3833 1.68870E+01 2.27656E+01 0.00000E+00
 -1      3834 5.05350E+01 1.69963E+01 0.00000E+00
 -1      3835 4.97850E+01 1.56973E+01 0.00000E+00
 -1      3836 4.82850E+01 1.56973E+01 0.00000E+00
 -1      3837 1.12530E+02 3.28964E+01 0.00000E+00
 -1      3838 1.14030E+02 3.28964E+01 0.00000E+00
 -1      3839 4.52850E+01 1.56973E+01 0.00000E+00
 -1      3840 4.45350E+01 1.69963E+01 0.00000E+00
 -1      3841 4.67850E+01 1.56973E+01 0.00000E+00
 -1      3842 4.07850E+01 1.56973E+01 0.00000E+00
 -1      3843 3.92850E+01 1.56973E+01 0.00000E+00
 -1      3844 4.15350E+01 1.69963E+01 0.00000E+00
 -1      3845 8.12596E+01 2.30323E+01 0.00000E+00
 -1      3846 8.05593E+01 2.22140E+01 0.00000E+00
 -1      3847 8.05386E+01 2.43797E+01 0.00000E+00
 -1      3848 8.00214E+01 1.73625E+01 0.00000E+00
 -1      3849 1.68870E+01 2.42375E+01 0.00000E+00
 -1      3850 1.68870E+01 2.57094E+01 0.00000E+00
 -1      3851 1.81860E+01 2.35031E+01 0.00000E+00
 -1      3852 1.16799E+02 1.92051E+01 0.00000E+00
 -1      3853 1.59478E+01 1.85438E+01 0.00000E+00
 -1      3854 1.33113E+02 2.57375E+01 0.00000E+00
 -1      3855 1.33113E+02 2.42625E+01 0.00000E+00
 -1      3856 8.63388E+01 2.87901E+01 0.00000E+00
 -1      3857 8.49732E+01 2.86205E+01 0.00000E+00
 -1      3858 8.66309E+01 2.97136E+01 0.00000E+00
 -1      3859 1.14980E+02 2.16371E+01 0.00000E+00
 -1      3860 1.15182E+02 2.26169E+01 0.00000E+00
 -1      3861 1.15758E+02 2.09063E+01 0.00000E+00
 -1      3862 3.77850E+01 1.56973E+01 0.00000E+00
 -1      3863 3.62850E+01 1.56973E+01 0.00000E+00
 -1      3864 3.55350E+01 1.69963E+01 0.00000E+00
 -1      3865 3.85350E+01 1.69963E+01 0.00000E+00
 -1      3866 8.11440E+01 1.92976E+01 0.00000E+00
 -1      3867 1.32666E+02 2.27004E+01 0.00000E+00
 -1      3868 1.32411E+02 2.05598E+01 0.00000E+00
 -1      3869 1.30474E+02 2.03137E+01 0.00000E+00
 -1      3870 1.31367E+02 2.34379E+01 0.00000E+00
 -1      3871 1.25534E+02 1.86176E+01 0.00000E+00
 -1      3872 1.14780E+02 3.15974E+01 0.00000E+00
 -1      3873 2.57850E+01 1.56973E+01 0.00000E+00
 -1      3874 2.42850E+01 1.56973E+01 0.00000E+00
 -1      3875 2.65350E+01 1.69963E+01 0.00000E+00
 -1      3876 2.34378E+01 1.69528E+01 0.00000E+00
 -1      3877 8.29600E+01 2.64475E+01 0.00000E+00
 -1      3878 8.14877E+01 2.60379E+01 0.00000E+00
 -1      3879 8.32088E+01 2.72874E+01 0.00000E+00
 -1      3880 1.97488E+01 1.54745E+01 0.00000E+00
 -1      3881 1.84636E+01 1.53650E+01 0.00000E+00
 -1      3882 1.76909E+01 1.66211E+01 0.00000E+00
 -1      3883 2.04573E+01 1.68133E+01 0.00000E+00
 -1      3884 1.33113E+02 2.86875E+01 0.00000E+00
 -1      3885 1.33113E+02 2.72125E+01 0.00000E+00
 -1      3886 1.31814E+02 2.64750E+01 0.00000E+00
 -1      3887 8.47803E+01 3.15974E+01 0.00000E+00
 -1      3888 1.12842E+02 2.84256E+01 0.00000E+00
 -1      3889 1.12990E+02 2.97833E+01 0.00000E+00
 -1      3890 1.13908E+02 2.80764E+01 0.00000E+00
 -1      3891 1.14658E+02 2.73661E+01 0.00000E+00
 -1      3892 1.14957E+02 2.82528E+01 0.00000E+00
 -1      3893 1.15409E+02 2.66557E+01 0.00000E+00
 -1      3894 9.05540E+01 3.20749E+01 0.00000E+00
 -1      3895 2.70304E+01 3.02984E+01 0.00000E+00
 -1      3896 2.85304E+01 3.02984E+01 0.00000E+00
 -1      3897 3.00304E+01 3.02984E+01 0.00000E+00
 -1      3898 3.15304E+01 3.02984E+01 0.00000E+00
 -1      3899 2.92804E+01 2.89994E+01 0.00000E+00
 -1      3900 3.30303E+01 3.02984E+01 0.00000E+00
 -1      3901 3.45303E+01 3.02984E+01 0.00000E+00
 -1      3902 3.22803E+01 2.89994E+01 0.00000E+00
 -1      3903 3.60303E+01 3.02984E+01 0.00000E+00
 -1      3904 3.75303E+01 3.02984E+01 0.00000E+00
 -1      3905 3.52803E+01 2.89994E+01 0.00000E+00
 -1      3906 3.90303E+01 3.02984E+01 0.00000E+00
 -1      3907 4.05303E+01 3.02984E+01 0.00000E+00
 -1      3908 3.82803E+01 2.89994E+01 0.00000E+00
 -1      3909 4.20303E+01 3.02984E+01 0.00000E+00
 -1      3910 4.35303E+01 3.02984E+01 0.00000E+00
 -1      3911 4.12803E+01 2.89994E+01 0.00000E+00
 -1      3912 4.50303E+01 3.02984E+01 0.00000E+00
 -1      3913 4.65303E+01 3.02984E+01 0.00000E+00
 -1      3914 4.42803E+01 2.89994E+01 0.00000E+00
 -1      3915 4.80303E+01 3.02984E+01 0.00000E+00
 -1      3916 4.95303E+01 3.02984E+01 0.00000E+00
 -1      3917 4.72803E+01 2.89994E+01 0.00000E+00
 -1      3918 5.10303E+01 3.02984E+01 0.00000E+00
 -1      3919 5.25303E+01 3.02984E+01 0.00000E+00
 -1      3920 5.02803E+01 2.89994E+01 0.00000E+00
 -1      3921 5.40303E+01 3.02984E+01 0.00000E+00
 -1      3922 5.55303E+01 3.02984E+01 0.00000E+00
 -1      3923 5.32803E+01 2.89994E+01 0.00000E+00
 -1      3924 5.70303E+01 3.02984E+01 0.00000E+00
 -1      3925 5.85303E+01 3.02984E+01 0.00000E+00
 -1      3926 5.62803E+01 2.89994E+01 0.00000E+00
 -1      3927 6.00303E+01 3.02984E+01 0.00000E+00
 -1      3928 6.15303E+01 3.02984E+01 0.00000E+00
 -1      3929 5.92803E+01 2.89994E+01 0.00000E+00
 -1      3930 6.30303E+01 3.02984E+01 0.00000E+00
 -1      3931 6.45303E+01 3.02984E+01 0.00000E+00
 -1      3932 6.22803E+01 2.89994E+01 0.00000E+00
 -1      3933 6.60303E+01 3.02984E+01 0.00000E+00
 -1      3934 6.75303E+01 3.02984E+01 0.00000E+00
 -1      3935 6.52803E+01 2.89994E+01 0.00000E+00
 -1      3936 6.90303E+01 3.02984E+01 0.00000E+00
 -1      3937 7.05303E+01 3.02984E+01 0.00000E+00
 -1      3938 6.82803E+01 2.89994E+01 0.00000E+00
 -1      3939 7.20303E+01 3.02984E+01 0.00000E+00
 -1      3940 7.35303E+01 3.02984E+01 0.00000E+00
 -1      3941 7.12803E+01 2.89994E+01 0.00000E+00
 -1      3942 7.50303E+01 3.02984E+01 0.00000E+00
 -1      3943 7.65303E+01 3.02984E+01 0.00000E+00
 -1      3944 7.42803E+01 2.89994E+01 0.00000E+00
 -1      3945 7.80303E+01 3.02984E+01 0.00000E+00
 -1      3946 7.95303E+01 3.02984E+01 0.00000E+00
 -1      3947 7.72803E+01 2.89994E+01 0.00000E+00
 -1      3948 8.10084E+01 2.92376E+01 0.00000E+00
 -1      3949 8.25084E+01 2.92376E+01 0.00000E+00
 -1      3950 8.71384E+01 3.07403E+01 0.00000E+00
 -1      3951 1.18244E+02 1.94633E+01 0.00000E+00
 -1      3952 1.17001E+02 2.01848E+01 0.00000E+00
 -1      3953 1.17203E+02 2.11646E+01 0.00000E+00
 -1      3954 9.11257E+01 3.29805E+01 0.00000E+00
 -1      3955 1.72585E+01 3.00041E+01 0.00000E+00
 -1      3956 1.87061E+01 3.01045E+01 0.00000E+00
 -1      3957 1.71842E+01 2.88508E+01 0.00000E+00
 -1      3958 1.73310E+01 1.86398E+01 0.00000E+00
 -1      3959 1.86300E+01 1.93742E+01 0.00000E+00
 -1      3960 1.12527E+02 3.11004E+01 0.00000E+00
 -1      3961 1.20030E+02 3.02984E+01 0.00000E+00
 -1      3962 1.21530E+02 3.02984E+01 0.00000E+00
 -1      3963 1.23030E+02 3.02984E+01 0.00000E+00
 -1      3964 1.24530E+02 3.02984E+01 0.00000E+00
 -1      3965 1.22280E+02 2.89994E+01 0.00000E+00
 -1      3966 1.26030E+02 3.02984E+01 0.00000E+00
 -1      3967 1.27530E+02 3.02984E+01 0.00000E+00
 -1      3968 1.25280E+02 2.89994E+01 0.00000E+00
 -1      3969 5.72850E+01 1.82952E+01 0.00000E+00
 -1      3970 5.57850E+01 1.82952E+01 0.00000E+00
 -1      3971 6.02850E+01 1.82952E+01 0.00000E+00
 -1      3972 5.87850E+01 1.82952E+01 0.00000E+00
 -1      3973 5.80350E+01 1.95942E+01 0.00000E+00
 -1      3974 5.42850E+01 1.82952E+01 0.00000E+00
 -1      3975 5.27850E+01 1.82952E+01 0.00000E+00
 -1      3976 5.50350E+01 1.95942E+01 0.00000E+00
 -1      3977 6.62850E+01 1.82952E+01 0.00000E+00
 -1      3978 6.47850E+01 1.82952E+01 0.00000E+00
 -1      3979 6.92850E+01 1.82952E+01 0.00000E+00
 -1      3980 6.77850E+01 1.82952E+01 0.00000E+00
 -1      3981 6.70350E+01 1.95942E+01 0.00000E+00
 -1      3982 7.22850E+01 1.82952E+01 0.00000E+00
 -1      3983 7.07850E+01 1.82952E+01 0.00000E+00
 -1      3984 7.00350E+01 1.95942E+01 0.00000E+00
 -1      3985 7.52850E+01 1.82952E+01 0.00000E+00
 -1      3986 7.37850E+01 1.82952E+01 0.00000E+00
 -1      3987 7.30350E+01 1.95942E+01 0.00000E+00
 -1      3988 7.82850E+01 1.82952E+01 0.00000E+00
 -1      3989 7.67850E+01 1.82952E+01 0.00000E+00
 -1      3990 7.60350E+01 1.95942E+01 0.00000E+00
 -1      3991 1.23292E+02 1.97826E+01 0.00000E+00
 -1      3992 1.21792E+02 1.97826E+01 0.00000E+00
 -1      3993 2.42011E+01 1.82730E+01 0.00000E+00
 -1      3994 2.26038E+01 1.82296E+01 0.00000E+00
 -1      3995 8.42728E+01 3.05707E+01 0.00000E+00
 -1      3996 8.57728E+01 3.05707E+01 0.00000E+00
 -1      3997 1.13744E+02 3.02802E+01 0.00000E+00
 -1      3998 1.15244E+02 3.02802E+01 0.00000E+00
 -1      3999 6.32850E+01 1.82952E+01 0.00000E+00
 -1      4000 6.17850E+01 1.82952E+01 0.00000E+00
 -1      4001 6.10350E+01 1.95942E+01 0.00000E+00
 -1      4002 1.26277E+02 2.00506E+01 0.00000E+00
 -1      4003 1.24784E+02 1.99166E+01 0.00000E+00
 -1      4004 1.24034E+02 2.12156E+01 0.00000E+00
 -1      4005 1.19744E+02 1.94633E+01 0.00000E+00
 -1      4006 1.16887E+02 3.02893E+01 0.00000E+00
 -1      4007 1.18387E+02 3.02893E+01 0.00000E+00
 -1      4008 1.19137E+02 2.89903E+01 0.00000E+00
 -1      4009 1.15850E+02 2.89722E+01 0.00000E+00
 -1      4010 3.32850E+01 1.82952E+01 0.00000E+00
 -1      4011 3.17850E+01 1.82952E+01 0.00000E+00
 -1      4012 1.32486E+02 3.08185E+01 0.00000E+00
 -1      4013 1.32894E+02 2.96259E+01 0.00000E+00
 -1      4014 1.31595E+02 2.88884E+01 0.00000E+00
 -1      4015 1.31157E+02 3.07653E+01 0.00000E+00
 -1      4016 2.40304E+01 3.02984E+01 0.00000E+00
 -1      4017 2.55304E+01 3.02984E+01 0.00000E+00
 -1      4018 2.62804E+01 2.89994E+01 0.00000E+00
 -1      4019 1.29125E+02 2.01821E+01 0.00000E+00
 -1      4020 1.27625E+02 2.01821E+01 0.00000E+00
 -1      4021 1.26875E+02 2.14811E+01 0.00000E+00
 -1      4022 1.29572E+02 2.17442E+01 0.00000E+00
 -1      4023 8.03585E+01 2.05727E+01 0.00000E+00
 -1      4024 8.02222E+01 1.90038E+01 0.00000E+00
 -1      4025 7.92358E+01 1.86375E+01 0.00000E+00
 -1      4026 7.96375E+01 2.19201E+01 0.00000E+00
 -1      4027 3.02850E+01 1.82952E+01 0.00000E+00
 -1      4028 2.87850E+01 1.82952E+01 0.00000E+00
 -1      4029 3.10350E+01 1.95942E+01 0.00000E+00
 -1      4030 8.02584E+01 2.79386E+01 0.00000E+00
 -1      4031 4.75350E+01 1.69963E+01 0.00000E+00
 -1      4032 3.47850E+01 1.82952E+01 0.00000E+00
 -1      4033 3.40350E+01 1.95942E+01 0.00000E+00
 -1      4034 3.62850E+01 1.82952E+01 0.00000E+00
 -1      4035 4.52850E+01 1.82952E+01 0.00000E+00
 -1      4036 4.37850E+01 1.82952E+01 0.00000E+00
 -1      4037 6.40350E+01 1.95942E+01 0.00000E+00
 -1      4038 5.20350E+01 1.95942E+01 0.00000E+00
 -1      4039 5.12850E+01 1.82952E+01 0.00000E+00
 -1      4040 4.97850E+01 1.82952E+01 0.00000E+00
 -1      4041 1.28679E+02 3.05052E+01 0.00000E+00
 -1      4042 1.30008E+02 3.05585E+01 0.00000E+00
 -1      4043 1.30227E+02 2.96200E+01 0.00000E+00
 -1      4044 1.27929E+02 2.92062E+01 0.00000E+00
 -1      4045 1.15535E+02 2.38276E+01 0.00000E+00
 -1      4046 1.15887E+02 2.50383E+01 0.00000E+00
 -1      4047 1.16312E+02 2.30968E+01 0.00000E+00
 -1      4048 4.22850E+01 1.82952E+01 0.00000E+00
 -1      4049 4.07850E+01 1.82952E+01 0.00000E+00
 -1      4050 4.30350E+01 1.95942E+01 0.00000E+00
 -1      4051 1.20494E+02 2.07623E+01 0.00000E+00
 -1      4052 7.84858E+01 1.99365E+01 0.00000E+00
 -1      4053 1.94850E+01 2.27672E+01 0.00000E+00
 -1      4054 1.94850E+01 2.42391E+01 0.00000E+00
 -1      4055 1.16601E+02 2.82618E+01 0.00000E+00
 -1      4056 1.69984E+01 2.67034E+01 0.00000E+00
 -1      4057 1.70727E+01 2.78568E+01 0.00000E+00
 -1      4058 1.85203E+01 2.79572E+01 0.00000E+00
 -1      4059 1.82974E+01 2.59691E+01 0.00000E+00
 -1      4060 1.97568E+01 2.90361E+01 0.00000E+00
 -1      4061 1.98311E+01 3.01894E+01 0.00000E+00
 -1      4062 2.09561E+01 3.02743E+01 0.00000E+00
 -1      4063 1.30466E+02 2.48684E+01 0.00000E+00
 -1      4064 1.30019E+02 2.33063E+01 0.00000E+00
 -1      4065 1.28671E+02 2.31748E+01 0.00000E+00
 -1      4066 2.72850E+01 1.82952E+01 0.00000E+00
 -1      4067 2.57850E+01 1.82952E+01 0.00000E+00
 -1      4068 2.80350E+01 1.95942E+01 0.00000E+00
 -1      4069 2.49511E+01 1.95720E+01 0.00000E+00
 -1      4070 2.19307E+01 3.02439E+01 0.00000E+00
 -1      4071 2.30557E+01 3.03288E+01 0.00000E+00
 -1      4072 2.38057E+01 2.90298E+01 0.00000E+00
 -1      4073 2.18564E+01 2.90906E+01 0.00000E+00
 -1      4074 8.05229E+01 2.65791E+01 0.00000E+00
 -1      4075 8.02741E+01 2.57392E+01 0.00000E+00
 -1      4076 7.95738E+01 2.49209E+01 0.00000E+00
 -1      4077 7.90448E+01 2.76399E+01 0.00000E+00
 -1      4078 1.30466E+02 2.63434E+01 0.00000E+00
 -1      4079 2.85304E+01 2.77004E+01 0.00000E+00
 -1      4080 3.00304E+01 2.77004E+01 0.00000E+00
 -1      4081 2.01932E+01 1.84617E+01 0.00000E+00
 -1      4082 1.97491E+01 2.11187E+01 0.00000E+00
 -1      4083 2.10481E+01 2.18547E+01 0.00000E+00
 -1      4084 2.15764E+01 1.85578E+01 0.00000E+00
 -1      4085 1.16186E+02 2.59250E+01 0.00000E+00
 -1      4086 1.16485E+02 2.68116E+01 0.00000E+00
 -1      4087 1.16963E+02 2.51942E+01 0.00000E+00
 -1      4088 3.15304E+01 2.77004E+01 0.00000E+00
 -1      4089 3.30303E+01 2.77004E+01 0.00000E+00
 -1      4090 3.07804E+01 2.64014E+01 0.00000E+00
 -1      4091 3.45303E+01 2.77004E+01 0.00000E+00
 -1      4092 3.60303E+01 2.77004E+01 0.00000E+00
 -1      4093 3.37803E+01 2.64014E+01 0.00000E+00
 -1      4094 3.75303E+01 2.77004E+01 0.00000E+00
 -1      4095 3.90303E+01 2.77004E+01 0.00000E+00
 -1      4096 3.67803E+01 2.64014E+01 0.00000E+00
 -1      4097 4.05303E+01 2.77004E+01 0.00000E+00
 -1      4098 4.20303E+01 2.77004E+01 0.00000E+00
 -1      4099 3.97803E+01 2.64014E+01 0.00000E+00
 -1      4100 4.35303E+01 2.77004E+01 0.00000E+00
 -1      4101 4.50303E+01 2.77004E+01 0.00000E+00
 -1      4102 4.27803E+01 2.64014E+01 0.00000E+00
 -1      4103 4.65303E+01 2.77004E+01 0.00000E+00
 -1      4104 4.80303E+01 2.77004E+01 0.00000E+00
 -1      4105 4.57803E+01 2.64014E+01 0.00000E+00
 -1      4106 4.95303E+01 2.77004E+01 0.00000E+00
 -1      4107 5.10303E+01 2.77004E+01 0.00000E+00
 -1      4108 4.87803E+01 2.64014E+01 0.00000E+00
 -1      4109 5.25303E+01 2.77004E+01 0.00000E+00
 -1      4110 5.40303E+01 2.77004E+01 0.00000E+00
 -1      4111 5.17803E+01 2.64014E+01 0.00000E+00
 -1      4112 5.55303E+01 2.77004E+01 0.00000E+00
 -1      4113 5.70303E+01 2.77004E+01 0.00000E+00
 -1      4114 5.47803E+01 2.64014E+01 0.00000E+00
 -1      4115 5.85303E+01 2.77004E+01 0.00000E+00
 -1      4116 6.00303E+01 2.77004E+01 0.00000E+00
 -1      4117 5.77803E+01 2.64014E+01 0.00000E+00
 -1      4118 6.15303E+01 2.77004E+01 0.00000E+00
 -1      4119 6.30303E+01 2.77004E+01 0.00000E+00
 -1      4120 6.07803E+01 2.64014E+01 0.00000E+00
 -1      4121 6.45303E+01 2.77004E+01 0.00000E+00
 -1      4122 6.60303E+01 2.77004E+01 0.00000E+00
 -1      4123 6.37803E+01 2.64014E+01 0.00000E+00
 -1      4124 6.75303E+01 2.77004E+01 0.00000E+00
 -1      4125 6.90303E+01 2.77004E+01 0.00000E+00
 -1      4126 6.67803E+01 2.64014E+01 0.00000E+00
 -1      4127 7.05303E+01 2.77004E+01 0.00000E+00
 -1      4128 7.20303E+01 2.77004E+01 0.00000E+00
 -1      4129 6.97803E+01 2.64014E+01 0.00000E+00
 -1      4130 7.35303E+01 2.77004E+01 0.00000E+00
 -1      4131 7.50303E+01 2.77004E+01 0.00000E+00
 -1      4132 7.27803E+01 2.64014E+01 0.00000E+00
 -1      4133 7.62876E+01 2.76701E+01 0.00000E+00
 -1      4134 7.77876E+01 2.76701E+01 0.00000E+00
 -1      4135 7.80521E+01 2.63106E+01 0.00000E+00
 -1      4136 7.55376E+01 2.63711E+01 0.00000E+00
 -1      4137 4.82850E+01 1.82952E+01 0.00000E+00
 -1      4138 4.67850E+01 1.82952E+01 0.00000E+00
 -1      4139 4.60350E+01 1.95942E+01 0.00000E+00
 -1      4140 1.21530E+02 2.77004E+01 0.00000E+00
 -1      4141 1.23030E+02 2.77004E+01 0.00000E+00
 -1      4142 6.47850E+01 2.08932E+01 0.00000E+00
 -1      4143 6.32850E+01 2.08932E+01 0.00000E+00
 -1      4144 2.55304E+01 2.77004E+01 0.00000E+00
 -1      4145 2.70304E+01 2.77004E+01 0.00000E+00
 -1      4146 2.77804E+01 2.64014E+01 0.00000E+00
 -1      4147 1.24530E+02 2.77004E+01 0.00000E+00
 -1      4148 1.26030E+02 2.77004E+01 0.00000E+00
 -1      4149 1.23780E+02 2.64014E+01 0.00000E+00
 -1      4150 5.87850E+01 2.08932E+01 0.00000E+00
 -1      4151 5.72850E+01 2.08932E+01 0.00000E+00
 -1      4152 2.23397E+01 1.98780E+01 0.00000E+00
 -1      4153 2.20756E+01 2.15265E+01 0.00000E+00
 -1      4154 2.18114E+01 2.31749E+01 0.00000E+00
 -1      4155 2.31030E+01 2.11983E+01 0.00000E+00
 -1      4156 5.57850E+01 2.08932E+01 0.00000E+00
 -1      4157 5.42850E+01 2.08932E+01 0.00000E+00
 -1      4158 5.65350E+01 2.21922E+01 0.00000E+00
 -1      4159 7.07850E+01 2.08932E+01 0.00000E+00
 -1      4160 6.92850E+01 2.08932E+01 0.00000E+00
 -1      4161 6.77850E+01 2.08932E+01 0.00000E+00
 -1      4162 6.62850E+01 2.08932E+01 0.00000E+00
 -1      4163 6.55350E+01 2.21922E+01 0.00000E+00
 -1      4164 6.85350E+01 2.21922E+01 0.00000E+00
 -1      4165 7.67850E+01 2.08932E+01 0.00000E+00
 -1      4166 7.52850E+01 2.08932E+01 0.00000E+00
 -1      4167 7.86867E+01 2.15778E+01 0.00000E+00
 -1      4168 7.77358E+01 2.12355E+01 0.00000E+00
 -1      4169 7.69858E+01 2.25345E+01 0.00000E+00
 -1      4170 1.17378E+02 2.75311E+01 0.00000E+00
 -1      4171 3.92850E+01 1.82952E+01 0.00000E+00
 -1      4172 3.77850E+01 1.82952E+01 0.00000E+00
 -1      4173 3.70350E+01 1.95942E+01 0.00000E+00
 -1      4174 2.62709E+01 2.12427E+01 0.00000E+00
 -1      4175 2.46869E+01 2.12205E+01 0.00000E+00
 -1      4176 2.44228E+01 2.28689E+01 0.00000E+00
 -1      4177 7.88875E+01 2.32191E+01 0.00000E+00
 -1      4178 2.08954E+01 2.44972E+01 0.00000E+00
 -1      4179 1.95964E+01 2.52331E+01 0.00000E+00
 -1      4180 1.97079E+01 2.62272E+01 0.00000E+00
 -1      4181 1.21318E+02 2.22055E+01 0.00000E+00
 -1      4182 1.19270E+02 2.18862E+01 0.00000E+00
 -1      4183 6.17850E+01 2.08932E+01 0.00000E+00
 -1      4184 6.02850E+01 2.08932E+01 0.00000E+00
 -1      4185 5.95350E+01 2.21922E+01 0.00000E+00
 -1      4186 7.37850E+01 2.08932E+01 0.00000E+00
 -1      4187 7.22850E+01 2.08932E+01 0.00000E+00
 -1      4188 7.15350E+01 2.21922E+01 0.00000E+00
 -1      4189 7.45350E+01 2.21922E+01 0.00000E+00
 -1      4190 1.24665E+02 2.25764E+01 0.00000E+00
 -1      4191 1.23172E+02 2.24424E+01 0.00000E+00
 -1      4192 1.18027E+02 2.26077E+01 0.00000E+00
 -1      4193 2.45557E+01 2.77308E+01 0.00000E+00
 -1      4194 2.53057E+01 2.64318E+01 0.00000E+00
 -1      4195 2.35811E+01 2.77612E+01 0.00000E+00
 -1      4196 1.30145E+02 2.79818E+01 0.00000E+00
 -1      4197 1.28796E+02 2.63753E+01 0.00000E+00
 -1      4198 1.27342E+02 2.29414E+01 0.00000E+00
 -1      4199 1.25993E+02 2.28098E+01 0.00000E+00
 -1      4200 1.25131E+02 2.40366E+01 0.00000E+00
 -1      4201 1.27788E+02 2.45035E+01 0.00000E+00
 -1      4202 1.19021E+02 2.75401E+01 0.00000E+00
 -1      4203 1.19771E+02 2.62411E+01 0.00000E+00
 -1      4204 6.25350E+01 2.21922E+01 0.00000E+00
 -1      4205 1.27468E+02 2.61418E+01 0.00000E+00
 -1      4206 1.21948E+02 2.35663E+01 0.00000E+00
 -1      4207 5.27850E+01 2.08932E+01 0.00000E+00
 -1      4208 5.12850E+01 2.08932E+01 0.00000E+00
 -1      4209 5.35350E+01 2.21922E+01 0.00000E+00
 -1      4210 1.27628E+02 2.85065E+01 0.00000E+00
 -1      4211 1.28777E+02 2.87134E+01 0.00000E+00
 -1      4212 4.37850E+01 2.08932E+01 0.00000E+00
 -1      4213 4.22850E+01 2.08932E+01 0.00000E+00
 -1      4214 4.00350E+01 1.95942E+01 0.00000E+00
 -1      4215 4.90350E+01 1.95942E+01 0.00000E+00
 -1      4216 8.39807E+01 2.96472E+01 0.00000E+00
 -1      4217 4.67850E+01 2.08932E+01 0.00000E+00
 -1      4218 4.52850E+01 2.08932E+01 0.00000E+00
 -1      4219 4.45350E+01 2.21922E+01 0.00000E+00
 -1      4220 7.83375E+01 2.54446E+01 0.00000E+00
 -1      4221 7.86020E+01 2.40851E+01 0.00000E+00
 -1      4222 7.76512E+01 2.37428E+01 0.00000E+00
 -1      4223 7.70803E+01 2.54749E+01 0.00000E+00
 -1      4224 2.77709E+01 2.12427E+01 0.00000E+00
 -1      4225 2.75067E+01 2.28911E+01 0.00000E+00
 -1      4226 2.92709E+01 2.12427E+01 0.00000E+00
 -1      4227 1.96766E+01 2.71346E+01 0.00000E+00
 -1      4228 1.97880E+01 2.81287E+01 0.00000E+00
 -1      4229 2.09130E+01 2.82135E+01 0.00000E+00
 -1      4230 2.09756E+01 2.63987E+01 0.00000E+00
 -1      4231 3.47850E+01 2.08932E+01 0.00000E+00
 -1      4232 3.32850E+01 2.08932E+01 0.00000E+00
 -1      4233 1.18379E+02 2.38184E+01 0.00000E+00
 -1      4234 1.30446E+02 2.86816E+01 0.00000E+00
 -1      4235 1.26878E+02 2.72075E+01 0.00000E+00
 -1      4236 3.20279E+01 2.10680E+01 0.00000E+00
 -1      4237 3.05279E+01 2.10680E+01 0.00000E+00
 -1      4238 3.02638E+01 2.27164E+01 0.00000E+00
 -1      4239 3.27779E+01 2.23670E+01 0.00000E+00
 -1      4240 5.71577E+01 2.42968E+01 0.00000E+00
 -1      4241 5.56577E+01 2.42968E+01 0.00000E+00
 -1      4242 1.25870E+02 2.53357E+01 0.00000E+00
 -1      4243 1.24541E+02 2.51023E+01 0.00000E+00
 -1      4244 3.04006E+01 2.44715E+01 0.00000E+00
 -1      4245 3.19006E+01 2.44715E+01 0.00000E+00
 -1      4246 3.31577E+01 2.42968E+01 0.00000E+00
 -1      4247 3.46577E+01 2.42968E+01 0.00000E+00
 -1      4248 3.90303E+01 2.51024E+01 0.00000E+00
 -1      4249 4.05303E+01 2.51024E+01 0.00000E+00
 -1      4250 4.21577E+01 2.42968E+01 0.00000E+00
 -1      4251 4.36577E+01 2.42968E+01 0.00000E+00
 -1      4252 4.51577E+01 2.42968E+01 0.00000E+00
 -1      4253 4.66577E+01 2.42968E+01 0.00000E+00
 -1      4254 5.11577E+01 2.42968E+01 0.00000E+00
 -1      4255 5.26577E+01 2.42968E+01 0.00000E+00
 -1      4256 5.41577E+01 2.42968E+01 0.00000E+00
 -1      4257 5.86577E+01 2.42968E+01 0.00000E+00
 -1      4258 6.01577E+01 2.42968E+01 0.00000E+00
 -1      4259 6.16577E+01 2.42968E+01 0.00000E+00
 -1      4260 6.31577E+01 2.42968E+01 0.00000E+00
 -1      4261 6.46577E+01 2.42968E+01 0.00000E+00
 -1      4262 6.61577E+01 2.42968E+01 0.00000E+00
 -1      4263 6.76577E+01 2.42968E+01 0.00000E+00
 -1      4264 6.91577E+01 2.42968E+01 0.00000E+00
 -1      4265 7.06577E+01 2.42968E+01 0.00000E+00
 -1      4266 7.21577E+01 2.42968E+01 0.00000E+00
 -1      4267 7.36577E+01 2.42968E+01 0.00000E+00
 -1      4268 3.62850E+01 2.08932E+01 0.00000E+00
 -1      4269 3.55350E+01 2.21922E+01 0.00000E+00
 -1      4270 3.77850E+01 2.08932E+01 0.00000E+00
 -1      4271 2.51689E+01 2.46767E+01 0.00000E+00
 -1      4272 2.35850E+01 2.46544E+01 0.00000E+00
 -1      4273 2.76435E+01 2.46463E+01 0.00000E+00
 -1      4274 2.91435E+01 2.46463E+01 0.00000E+00
 -1      4275 1.23041E+02 2.51023E+01 0.00000E+00
 -1      4276 4.14077E+01 2.29978E+01 0.00000E+00
 -1      4277 4.06577E+01 2.16988E+01 0.00000E+00
 -1      4278 3.91577E+01 2.16988E+01 0.00000E+00
 -1      4279 7.67004E+01 2.34005E+01 0.00000E+00
 -1      4280 2.19229E+01 2.41690E+01 0.00000E+00
 -1      4281 4.97850E+01 2.08932E+01 0.00000E+00
 -1      4282 4.82850E+01 2.08932E+01 0.00000E+00
 -1      4283 4.75350E+01 2.21922E+01 0.00000E+00
 -1      4284 5.05350E+01 2.21922E+01 0.00000E+00
 -1      4285 2.18877E+01 2.81831E+01 0.00000E+00
 -1      4286 1.21187E+02 2.48653E+01 0.00000E+00
 -1      4287 3.61577E+01 2.42968E+01 0.00000E+00
 -1      4288 2.26690E+01 2.59767E+01 0.00000E+00
 -1      4289 3.76577E+01 2.42968E+01 0.00000E+00
 -1      4290 4.81577E+01 2.42968E+01 0.00000E+00
 -1      4291 4.96577E+01 2.42968E+01 0.00000E+00
 -1      4292 7.51577E+01 2.42968E+01 0.00000E+00
 -1      4293 1.18678E+02 2.47051E+01 0.00000E+00
 -1      4294 3.84077E+01 2.29978E+01 0.00000E+00
 -1      4295 2.26377E+01 2.68841E+01 0.00000E+00
 -1      4296 7.58231E+01 2.55051E+01 0.00000E+00
 -1      4297 2.61435E+01 2.46463E+01 0.00000E+00
 -3
    3C                          2067                                     1
 -1       164    8    0    1
 -2         6         7        23      1116      1279      1133
 -1       165    8    0    1
 -2         7         8       164      1117      1280      1281
 -1       166    8    0    1
 -2         8         9       165      1118      1282      1283
 -1       167    8    0    1
 -2         8       165       164      1283      1284      1280
 -1       168    8    0    1
 -2         9        10       166      1119      1285      1286
 -1       169    8    0    1
 -2         9       166       165      1286      1287      1282
 -1       170    8    0    1
 -2        10        11       167      1120      1288      1289
 -1       171    8    0    1
 -2        10       167       166      1289      1290      1285
 -1       172    8    0    1
 -2        11        12       168      1121      1291      1292
 -1       173    8    0    1
 -2        11       168       167      1292      1293      1288
 -1       174    8    0    1
 -2        12        13       169      1122      1294      1295
 -1       175    8    0    1
 -2        12       169       168      1295      1296      1291
 -1       176    8    0    1
 -2        13        14       170      1123      1297      1298
 -1       177    8    0    1
 -2        13       170       169      1298      1299      1294
 -1       178    8    0    1
 -2        14        15       171      1124      1300      1301
 -1       179    8    0    1
 -2        14       171       170      1301      1302      1297
 -1       180    8    0    1
 -2        15        16       172      1125      1303      1304
 -1       181    8    0    1
 -2        15       172       171      1304      1305      1300
 -1       182    8    0    1
 -2        16        17       173      1126      1306      1307
 -1       183    8    0    1
 -2        16       173       172      1307      1308      1303
 -1       184    8    0    1
 -2        17        18       174      1127      1309      1310
 -1       185    8    0    1
 -2        17       174       173      1310      1311      1306
 -1       186    8    0    1
 -2        18        19       175      1128      1312      1313
 -1       187    8    0    1
 -2        18       175       174      1313      1314      1309
 -1       188    8    0    1
 -2        19        20       176      1129      1315      1316
 -1       189    8    0    1
 -2        19       176       175      1316      1317      1312
 -1       190    8    0    1
 -2        20        21       177      1130      1318      1319
 -1       191    8    0    1
 -2        20       177       176      1319      1320      1315
 -1       192    8    0    1
 -2        21        22       178      1131      1321      1322
 -1       193    8    0    1
 -2        21       178       177      1322      1323      1318
 -1       194    8    0    1
 -2        22         5       179      1132      1324      1325
 -1       195    8    0    1
 -2       178        22       179      1321      1325      1326
 -1       196    8    0    1
 -2         5        72       179      1183      1327      1324
 -1       197    8    0    1
 -2        24        23       180      1134      1328      1329
 -1       198    8    0    1
 -2        25        24       181      1135      1330      1331
 -1       199    8    0    1
 -2        24       180       181      1329      1332      1330
 -1       200    8    0    1
 -2        26        25       182      1136      1333      1334
 -1       201    8    0    1
 -2        25       181       182      1331      1335      1333
 -1       202    8    0    1
 -2        27        26       183      1137      1336      1337
 -1       203    8    0    1
 -2        26       182       183      1334      1338      1336
 -1       204    8    0    1
 -2        28        27       184      1138      1339      1340
 -1       205    8    0    1
 -2        27       183       184      1337      1341      1339
 -1       206    8    0    1
 -2        29        28       185      1139      1342      1343
 -1       207    8    0    1
 -2        28       184       185      1340      1344      1342
 -1       208    8    0    1
 -2        30        29       186      1140      1345      1346
 -1       209    8    0    1
 -2        29       185       186      1343      1347      1345
 -1       210    8    0    1
 -2        31        30       187      1141      1348      1349
 -1       211    8    0    1
 -2        30       186       187      1346      1350      1348
 -1       212    8    0    1
 -2        32        31       188      1142      1351      1352
 -1       213    8    0    1
 -2        31       187       188      1349      1353      1351
 -1       214    8    0    1
 -2        33        32       189      1143      1354      1355
 -1       215    8    0    1
 -2        32       188       189      1352      1356      1354
 -1       216    8    0    1
 -2        34        33       190      1144      1357      1358
 -1       217    8    0    1
 -2        33       189       190      1355      1359      1357
 -1       218    8    0    1
 -2        35        34       191      1145      1360      1361
 -1       219    8    0    1
 -2        34       190       191      1358      1362      1360
 -1       220    8    0    1
 -2        36        35       192      1146      1363      1364
 -1       221    8    0    1
 -2        35       191       192      1361      1365      1363
 -1       222    8    0    1
 -2        37        36       193      1147      1366      1367
 -1       223    8    0    1
 -2        36       192       193      1364      1368      1366
 -1       224    8    0    1
 -2        38        37       194      1148      1369      1370
 -1       225    8    0    1
 -2        37       193       194      1367      1371      1369
 -1       226    8    0    1
 -2        39        38       195      1149      1372      1373
 -1       227    8    0    1
 -2        38       194       195      1370      1374      1372
 -1       228    8    0    1
 -2        40        39       196      1150      1375      1376
 -1       229    8    0    1
 -2        39       195       196      1373      1377      1375
 -1       230    8    0    1
 -2        41        40       197      1151      1378      1379
 -1       231    8    0    1
 -2        40       196       197      1376      1380      1378
 -1       232    8    0    1
 -2        42        41       198      1152      1381      1382
 -1       233    8    0    1
 -2        41       197       198      1379      1383      1381
 -1       234    8    0    1
 -2        43        42       199      1153      1384      1385
 -1       235    8    0    1
 -2        42       198       199      1382      1386      1384
 -1       236    8    0    1
 -2        44        43       200      1154      1387      1388
 -1       237    8    0    1
 -2        43       199       200      1385      1389      1387
 -1       238    8    0    1
 -2        45        44       201      1155      1390      1391
 -1       239    8    0    1
 -2        44       200       201      1388      1392      1390
 -1       240    8    0    1
 -2        46        45       202      1156      1393      1394
 -1       241    8    0    1
 -2        45       201       202      1391      1395      1393
 -1       242    8    0    1
 -2        47        46       203      1157      1396      1397
 -1       243    8    0    1
 -2        46       202       203      1394      1398      1396
 -1       244    8    0    1
 -2        48        47       204      1158      1399      1400
 -1       245    8    0    1
 -2        47       203       204      1397      1401      1399
 -1       246    8    0    1
 -2        49        48       205      1159      1402      1403
 -1       247    8    0    1
 -2        48       204       205      1400      1404      1402
 -1       248    8    0    1
 -2        50        49       206      1160      1405      1406
 -1       249    8    0    1
 -2        49       205       206      1403      1407      1405
 -1       250    8    0    1
 -2        51        50       207      1161      1408      1409
 -1       251    8    0    1
 -2        50       206       207      1406      1410      1408
 -1       252    8    0    1
 -2        52        51       208      1162      1411      1412
 -1       253    8    0    1
 -2        51       207       208      1409      1413      1411
 -1       254    8    0    1
 -2        53        52       209      1163      1414      1415
 -1       255    8    0    1
 -2        52       208       209      1412      1416      1414
 -1       256    8    0    1
 -2        54        53       210      1164      1417      1418
 -1       257    8    0    1
 -2        53       209       210      1415      1419      1417
 -1       258    8    0    1
 -2        55        54       211      1165      1420      1421
 -1       259    8    0    1
 -2        54       210       211      1418      1422      1420
 -1       260    8    0    1
 -2        56        55       212      1166      1423      1424
 -1       261    8    0    1
 -2        55       211       212      1421      1425      1423
 -1       262    8    0    1
 -2        57        56       213      1167      1426      1427
 -1       263    8    0    1
 -2        56       212       213      1424      1428      1426
 -1       264    8    0    1
 -2        58        57       214      1168      1429      1430
 -1       265    8    0    1
 -2        57       213       214      1427      1431      1429
 -1       266    8    0    1
 -2        59        58       215      1169      1432      1433
 -1       267    8    0    1
 -2        58       214       215      1430      1434      1432
 -1       268    8    0    1
 -2        60        59       216      1170      1435      1436
 -1       269    8    0    1
 -2        59       215       216      1433      1437      1435
 -1       270    8    0    1
 -2        61        60       217      1171      1438      1439
 -1       271    8    0    1
 -2        60       216       217      1436      1440      1438
 -1       272    8    0    1
 -2        62        61       218      1172      1441      1442
 -1       273    8    0    1
 -2        61       217       218      1439      1443      1441
 -1       274    8    0    1
 -2        63        62       219      1173      1444      1445
 -1       275    8    0    1
 -2        62       218       219      1442      1446      1444
 -1       276    8    0    1
 -2        64        63       220      1174      1447      1448
 -1       277    8    0    1
 -2        63       219       220      1445      1449      1447
 -1       278    8    0    1
 -2        65        64       221      1175      1450      1451
 -1       279    8    0    1
 -2        64       220       221      1448      1452      1450
 -1       280    8    0    1
 -2        66        65       222      1176      1453      1454
 -1       281    8    0    1
 -2        65       221       222      1451      1455      1453
 -1       282    8    0    1
 -2        67        66       223      1177      1456      1457
 -1       283    8    0    1
 -2        66       222       223      1454      1458      1456
 -1       284    8    0    1
 -2        68        67       224      1178      1459      1460
 -1       285    8    0    1
 -2        67       223       224      1457      1461      1459
 -1       286    8    0    1
 -2        69        68       225      1179      1462      1463
 -1       287    8    0    1
 -2        68       224       225      1460      1464      1462
 -1       288    8    0    1
 -2        70        69       226      1180      1465      1466
 -1       289    8    0    1
 -2        69       225       226      1463      1467      1465
 -1       290    8    0    1
 -2        71        70       227      1181      1468      1469
 -1       291    8    0    1
 -2        70       226       227      1466      1470      1468
 -1       292    8    0    1
 -2         4        71       136      1182      1471      1249
 -1       293    8    0    1
 -2       136        71       227      1471      1469      1472
 -1       294    8    0    1
 -2        72        73       228      1184      1473      1474
 -1       295    8    0    1
 -2        72       228       179      1474      1475      1327
 -1       296    8    0    1
 -2        73        74       229      1185      1476      1477
 -1       297    8    0    1
 -2        73       229       228      1477      1478      1473
 -1       298    8    0    1
 -2        74        75       230      1186      1479      1480
 -1       299    8    0    1
 -2        74       230       229      1480      1481      1476
 -1       300    8    0    1
 -2        75        76       231      1187      1482      1483
 -1       301    8    0    1
 -2        75       231       230      1483      1484      1479
 -1       302    8    0    1
 -2        76        77       232      1188      1485      1486
 -1       303    8    0    1
 -2        76       232       231      1486      1487      1482
 -1       304    8    0    1
 -2        77        78       233      1189      1488      1489
 -1       305    8    0    1
 -2        77       233       232      1489      1490      1485
 -1       306    8    0    1
 -2        78        79       234      1190      1491      1492
 -1       307    8    0    1
 -2        78       234       233      1492      1493      1488
 -1       308    8    0    1
 -2        79        80       235      1191      1494      1495
 -1       309    8    0    1
 -2        79       235       234      1495      1496      1491
 -1       310    8    0    1
 -2        80        81       236      1192      1497      1498
 -1       311    8    0    1
 -2        80       236       235      1498      1499      1494
 -1       312    8    0    1
 -2        81        82       237      1193      1500      1501
 -1       313    8    0    1
 -2        81       237       236      1501      1502      1497
 -1       314    8    0    1
 -2        82        83       238      1194      1503      1504
 -1       315    8    0    1
 -2        82       238       237      1504      1505      1500
 -1       316    8    0    1
 -2        83        84       239      1195      1506      1507
 -1       317    8    0    1
 -2        83       239       238      1507      1508      1503
 -1       318    8    0    1
 -2        84        85       240      1196      1509      1510
 -1       319    8    0    1
 -2        84       240       239      1510      1511      1506
 -1       320    8    0    1
 -2        85        86       241      1197      1512      1513
 -1       321    8    0    1
 -2        85       241       240      1513      1514      1509
 -1       322    8    0    1
 -2        86        87       242      1198      1515      1516
 -1       323    8    0    1
 -2        86       242       241      1516      1517      1512
 -1       324    8    0    1
 -2        87        88       243      1199      1518      1519
 -1       325    8    0    1
 -2        87       243       242      1519      1520      1515
 -1       326    8    0    1
 -2        88        89       244      1200      1521      1522
 -1       327    8    0    1
 -2        88       244       243      1522      1523      1518
 -1       328    8    0    1
 -2        89        90       245      1201      1524      1525
 -1       329    8    0    1
 -2        89       245       244      1525      1526      1521
 -1       330    8    0    1
 -2        90        91       246      1202      1527      1528
 -1       331    8    0    1
 -2        90       246       245      1528      1529      1524
 -1       332    8    0    1
 -2        91        92       247      1203      1530      1531
 -1       333    8    0    1
 -2        91       247       246      1531      1532      1527
 -1       334    8    0    1
 -2        92        93       248      1204      1533      1534
 -1       335    8    0    1
 -2        92       248       247      1534      1535      1530
 -1       336    8    0    1
 -2        93        94       249      1205      1536      1537
 -1       337    8    0    1
 -2        93       249       248      1537      1538      1533
 -1       338    8    0    1
 -2        94        95       250      1206      1539      1540
 -1       339    8    0    1
 -2        94       250       249      1540      1541      1536
 -1       340    8    0    1
 -2        95        96       251      1207      1542      1543
 -1       341    8    0    1
 -2        95       251       250      1543      1544      1539
 -1       342    8    0    1
 -2        96        97       252      1208      1545      1546
 -1       343    8    0    1
 -2        96       252       251      1546      1547      1542
 -1       344    8    0    1
 -2        97        98       253      1209      1548      1549
 -1       345    8    0    1
 -2        97       253       252      1549      1550      1545
 -1       346    8    0    1
 -2        98        99       254      1210      1551      1552
 -1       347    8    0    1
 -2        98       254       253      1552      1553      1548
 -1       348    8    0    1
 -2        99       100       255      1211      1554      1555
 -1       349    8    0    1
 -2        99       255       254      1555      1556      1551
 -1       350    8    0    1
 -2       100       101       256      1212      1557      1558
 -1       351    8    0    1
 -2       100       256       255      1558      1559      1554
 -1       352    8    0    1
 -2       101       102       257      1213      1560      1561
 -1       353    8    0    1
 -2       101       257       256      1561      1562      1557
 -1       354    8    0    1
 -2       102       103       258      1214      1563      1564
 -1       355    8    0    1
 -2       102       258       257      1564      1565      1560
 -1       356    8    0    1
 -2       103       104       259      1215      1566      1567
 -1       357    8    0    1
 -2       103       259       258      1567      1568      1563
 -1       358    8    0    1
 -2       104       105       260      1216      1569      1570
 -1       359    8    0    1
 -2       104       260       259      1570      1571      1566
 -1       360    8    0    1
 -2       105       106       261      1217      1572      1573
 -1       361    8    0    1
 -2       105       261       260      1573      1574      1569
 -1       362    8    0    1
 -2       106       107       262      1218      1575      1576
 -1       363    8    0    1
 -2       106       262       261      1576      1577      1572
 -1       364    8    0    1
 -2       107       108       263      1219      1578      1579
 -1       365    8    0    1
 -2       107       263       262      1579      1580      1575
 -1       366    8    0    1
 -2       108       109       264      1220      1581      1582
 -1       367    8    0    1
 -2       108       264       263      1582      1583      1578
 -1       368    8    0    1
 -2       109       110       265      1221      1584      1585
 -1       369    8    0    1
 -2       109       265       264      1585      1586      1581
 -1       370    8    0    1
 -2       110       111       266      1222      1587      1588
 -1       371    8    0    1
 -2       110       266       265      1588      1589      1584
 -1       372    8    0    1
 -2       111       112       267      1223      1590      1591
 -1       373    8    0    1
 -2       111       267       266      1591      1592      1587
 -1       374    8    0    1
 -2       112       113       268      1224      1593      1594
 -1       375    8    0    1
 -2       112       268       267      1594      1595      1590
 -1       376    8    0    1
 -2       113       114       269      1225      1596      1597
 -1       377    8    0    1
 -2       113       269       268      1597      1598      1593
 -1       378    8    0    1
 -2       114       115       270      1226      1599      1600
 -1       379    8    0    1
 -2       114       270       269      1600      1601      1596
 -1       380    8    0    1
 -2       115       116       271      1227      1602      1603
 -1       381    8    0    1
 -2       115       271       270      1603      1604      1599
 -1       382    8    0    1
 -2       116       117       272      1228      1605      1606
 -1       383    8    0    1
 -2       116       272       271      1606      1607      1602
 -1       384    8    0    1
 -2       117       118       273      1229      1608      1609
 -1       385    8    0    1
 -2       117       273       272      1609      1610      1605
 -1       386    8    0    1
 -2       118       119       274      1230      1611      1612
 -1       387    8    0    1
 -2       118       274       273      1612      1613      1608
 -1       388    8    0    1
 -2       119       120       275      1231      1614      1615
 -1       389    8    0    1
 -2       119       275       274      1615      1616      1611
 -1       390    8    0    1
 -2       120         3       121      1232      1233      1617
 -1       391    8    0    1
 -2       121       122       276      1234      1618      1619
 -1       392    8    0    1
 -2       122       123       277      1235      1620      1621
 -1       393    8    0    1
 -2       122       277       276      1621      1622      1618
 -1       394    8    0    1
 -2       123       124       278      1236      1623      1624
 -1       395    8    0    1
 -2       123       278       277      1624      1625      1620
 -1       396    8    0    1
 -2       124       125       279      1237      1626      1627
 -1       397    8    0    1
 -2       124       279       278      1627      1628      1623
 -1       398    8    0    1
 -2       125       126       280      1238      1629      1630
 -1       399    8    0    1
 -2       125       280       279      1630      1631      1626
 -1       400    8    0    1
 -2       126       127       281      1239      1632      1633
 -1       401    8    0    1
 -2       126       281       280      1633      1634      1629
 -1       402    8    0    1
 -2       127       128       282      1240      1635      1636
 -1       403    8    0    1
 -2       127       282       281      1636      1637      1632
 -1       404    8    0    1
 -2       128       129       283      1241      1638      1639
 -1       405    8    0    1
 -2       128       283       282      1639      1640      1635
 -1       406    8    0    1
 -2       129       130       284      1242      1641      1642
 -1       407    8    0    1
 -2       129       284       283      1642      1643      1638
 -1       408    8    0    1
 -2       130       131       285      1243      1644      1645
 -1       409    8    0    1
 -2       130       285       284      1645      1646      1641
 -1       410    8    0    1
 -2       131       132       286      1244      1647      1648
 -1       411    8    0    1
 -2       131       286       285      1648      1649      1644
 -1       412    8    0    1
 -2       132       133       287      1245      1650      1651
 -1       413    8    0    1
 -2       132       287       286      1651      1652      1647
 -1       414    8    0    1
 -2       133       134       288      1246      1653      1654
 -1       415    8    0    1
 -2       133       288       287      1654      1655      1650
 -1       416    8    0    1
 -2       134       135       289      1247      1656      1657
 -1       417    8    0    1
 -2       134       289       288      1657      1658      1653
 -1       418    8    0    1
 -2       135       136       290      1248      1659      1660
 -1       419    8    0    1
 -2       289       135       290      1656      1660      1661
 -1       420    8    0    1
 -2       136       227       290      1472      1662      1659
 -1       421    8    0    1
 -2         2       137       291      1250      1663      1664
 -1       422    8    0    1
 -2       137       138       292      1251      1665      1666
 -1       423    8    0    1
 -2       138       139       293      1252      1667      1668
 -1       424    8    0    1
 -2       139       140       294      1253      1669      1670
 -1       425    8    0    1
 -2       140       141       295      1254      1671      1672
 -1       426    8    0    1
 -2       141       142       296      1255      1673      1674
 -1       427    8    0    1
 -2       142       143       297      1256      1675      1676
 -1       428    8    0    1
 -2       143       144       298      1257      1677      1678
 -1       429    8    0    1
 -2       144       145       299      1258      1679      1680
 -1       430    8    0    1
 -2       145       146       300      1259      1681      1682
 -1       431    8    0    1
 -2       146       147       301      1260      1683      1684
 -1       432    8    0    1
 -2       147       148       302      1261      1685      1686
 -1       433    8    0    1
 -2       148       149       303      1262      1687      1688
 -1       434    8    0    1
 -2       149       150       304      1263      1689      1690
 -1       435    8    0    1
 -2       150       151       305      1264      1691      1692
 -1       436    8    0    1
 -2       151       152       306      1265      1693      1694
 -1       437    8    0    1
 -2       152       153       307      1266      1695      1696
 -1       438    8    0    1
 -2       153       154       308      1267      1697      1698
 -1       439    8    0    1
 -2       154       155       309      1268      1699      1700
 -1       440    8    0    1
 -2       155       156       310      1269      1701      1702
 -1       441    8    0    1
 -2       156         1       311      1270      1703      1704
 -1       442    8    0    1
 -2         1       157       312      1271      1705      1706
 -1       443    8    0    1
 -2       157       158       313      1272      1707      1708
 -1       444    8    0    1
 -2       158       159       314      1273      1709      1710
 -1       445    8    0    1
 -2       159       160       315      1274      1711      1712
 -1       446    8    0    1
 -2       160       161       316      1275      1713      1714
 -1       447    8    0    1
 -2       161       162       317      1276      1715      1716
 -1       448    8    0    1
 -2       162       163       318      1277      1717      1718
 -1       449    8    0    1
 -2       163         2       319      1278      1719      1720
 -1       450    8    0    1
 -2       294       140       295      1669      1672      1721
 -1       451    8    0    1
 -2       293       139       294      1667      1670      1722
 -1       452    8    0    1
 -2       120       121       275      1617      1723      1614
 -1       453    8    0    1
 -2       121       276       275      1619      1724      1723
 -1       454    8    0    1
 -2       291       137       292      1663      1666      1725
 -1       455    8    0    1
 -2       292       138       293      1665      1668      1726
 -1       456    8    0    1
 -2         2       291       319      1664      1727      1719
 -1       457    8    0    1
 -2       141       296       295      1674      1728      1671
 -1       458    8    0    1
 -2       142       297       296      1676      1729      1673
 -1       459    8    0    1
 -2       143       298       297      1678      1730      1675
 -1       460    8    0    1
 -2       144       299       298      1680      1731      1677
 -1       461    8    0    1
 -2       145       300       299      1682      1732      1679
 -1       462    8    0    1
 -2       146       301       300      1684      1733      1681
 -1       463    8    0    1
 -2       147       302       301      1686      1734      1683
 -1       464    8    0    1
 -2       148       303       302      1688      1735      1685
 -1       465    8    0    1
 -2       149       304       303      1690      1736      1687
 -1       466    8    0    1
 -2       150       305       304      1692      1737      1689
 -1       467    8    0    1
 -2       151       306       305      1694      1738      1691
 -1       468    8    0    1
 -2       152       307       306      1696      1739      1693
 -1       469    8    0    1
 -2       153       308       307      1698      1740      1695
 -1       470    8    0    1
 -2       154       309       308      1700      1741      1697
 -1       471    8    0    1
 -2       155       310       309      1702      1742      1699
 -1       472    8    0    1
 -2       156       311       310      1704      1743      1701
 -1       473    8    0    1
 -2         1       312       311      1706      1744      1703
 -1       474    8    0    1
 -2       157       313       312      1708      1745      1705
 -1       475    8    0    1
 -2       158       314       313      1710      1746      1707
 -1       476    8    0    1
 -2       159       315       314      1712      1747      1709
 -1       477    8    0    1
 -2       160       316       315      1714      1748      1711
 -1       478    8    0    1
 -2       161       317       316      1716      1749      1713
 -1       479    8    0    1
 -2       162       318       317      1718      1750      1715
 -1       480    8    0    1
 -2       163       319       318      1720      1751      1717
 -1       481    8    0    1
 -2        23         7       164      1279      1281      1752
 -1       482    8    0    1
 -2       165       166       320      1287      1753      1754
 -1       483    8    0    1
 -2       164       165       321      1284      1755      1756
 -1       484    8    0    1
 -2       165       320       321      1754      1757      1755
 -1       485    8    0    1
 -2       167       168       322      1293      1758      1759
 -1       486    8    0    1
 -2       168       169       323      1296      1760      1761
 -1       487    8    0    1
 -2       168       323       322      1761      1762      1758
 -1       488    8    0    1
 -2       169       170       324      1299      1763      1764
 -1       489    8    0    1
 -2       169       324       323      1764      1765      1760
 -1       490    8    0    1
 -2       170       171       325      1302      1766      1767
 -1       491    8    0    1
 -2       170       325       324      1767      1768      1763
 -1       492    8    0    1
 -2       171       172       326      1305      1769      1770
 -1       493    8    0    1
 -2       171       326       325      1770      1771      1766
 -1       494    8    0    1
 -2       172       173       327      1308      1772      1773
 -1       495    8    0    1
 -2       172       327       326      1773      1774      1769
 -1       496    8    0    1
 -2       173       174       328      1311      1775      1776
 -1       497    8    0    1
 -2       173       328       327      1776      1777      1772
 -1       498    8    0    1
 -2       174       175       329      1314      1778      1779
 -1       499    8    0    1
 -2       174       329       328      1779      1780      1775
 -1       500    8    0    1
 -2       175       176       330      1317      1781      1782
 -1       501    8    0    1
 -2       175       330       329      1782      1783      1778
 -1       502    8    0    1
 -2       176       177       331      1320      1784      1785
 -1       503    8    0    1
 -2       176       331       330      1785      1786      1781
 -1       504    8    0    1
 -2       177       178       332      1323      1787      1788
 -1       505    8    0    1
 -2       177       332       331      1788      1789      1784
 -1       506    8    0    1
 -2       178       179       333      1326      1790      1791
 -1       507    8    0    1
 -2       332       178       333      1787      1791      1792
 -1       508    8    0    1
 -2       179       228       333      1475      1793      1790
 -1       509    8    0    1
 -2       180        23       164      1328      1752      1794
 -1       510    8    0    1
 -2       228       229       334      1478      1795      1796
 -1       511    8    0    1
 -2       228       334       333      1796      1797      1793
 -1       512    8    0    1
 -2       180       164       321      1794      1756      1798
 -1       513    8    0    1
 -2       182       181       335      1335      1799      1800
 -1       514    8    0    1
 -2       183       182       336      1338      1801      1802
 -1       515    8    0    1
 -2       182       335       336      1800      1803      1801
 -1       516    8    0    1
 -2       184       183       337      1341      1804      1805
 -1       517    8    0    1
 -2       183       336       337      1802      1806      1804
 -1       518    8    0    1
 -2       185       184       338      1344      1807      1808
 -1       519    8    0    1
 -2       184       337       338      1805      1809      1807
 -1       520    8    0    1
 -2       186       185       339      1347      1810      1811
 -1       521    8    0    1
 -2       185       338       339      1808      1812      1810
 -1       522    8    0    1
 -2       187       186       340      1350      1813      1814
 -1       523    8    0    1
 -2       186       339       340      1811      1815      1813
 -1       524    8    0    1
 -2       188       187       341      1353      1816      1817
 -1       525    8    0    1
 -2       187       340       341      1814      1818      1816
 -1       526    8    0    1
 -2       189       188       342      1356      1819      1820
 -1       527    8    0    1
 -2       188       341       342      1817      1821      1819
 -1       528    8    0    1
 -2       190       189       343      1359      1822      1823
 -1       529    8    0    1
 -2       189       342       343      1820      1824      1822
 -1       530    8    0    1
 -2       191       190       344      1362      1825      1826
 -1       531    8    0    1
 -2       190       343       344      1823      1827      1825
 -1       532    8    0    1
 -2       192       191       345      1365      1828      1829
 -1       533    8    0    1
 -2       191       344       345      1826      1830      1828
 -1       534    8    0    1
 -2       193       192       346      1368      1831      1832
 -1       535    8    0    1
 -2       192       345       346      1829      1833      1831
 -1       536    8    0    1
 -2       194       193       347      1371      1834      1835
 -1       537    8    0    1
 -2       193       346       347      1832      1836      1834
 -1       538    8    0    1
 -2       195       194       348      1374      1837      1838
 -1       539    8    0    1
 -2       194       347       348      1835      1839      1837
 -1       540    8    0    1
 -2       196       195       349      1377      1840      1841
 -1       541    8    0    1
 -2       195       348       349      1838      1842      1840
 -1       542    8    0    1
 -2       197       196       350      1380      1843      1844
 -1       543    8    0    1
 -2       196       349       350      1841      1845      1843
 -1       544    8    0    1
 -2       198       197       351      1383      1846      1847
 -1       545    8    0    1
 -2       197       350       351      1844      1848      1846
 -1       546    8    0    1
 -2       199       198       352      1386      1849      1850
 -1       547    8    0    1
 -2       198       351       352      1847      1851      1849
 -1       548    8    0    1
 -2       200       199       353      1389      1852      1853
 -1       549    8    0    1
 -2       199       352       353      1850      1854      1852
 -1       550    8    0    1
 -2       201       200       354      1392      1855      1856
 -1       551    8    0    1
 -2       200       353       354      1853      1857      1855
 -1       552    8    0    1
 -2       202       201       355      1395      1858      1859
 -1       553    8    0    1
 -2       201       354       355      1856      1860      1858
 -1       554    8    0    1
 -2       203       202       356      1398      1861      1862
 -1       555    8    0    1
 -2       202       355       356      1859      1863      1861
 -1       556    8    0    1
 -2       204       203       357      1401      1864      1865
 -1       557    8    0    1
 -2       203       356       357      1862      1866      1864
 -1       558    8    0    1
 -2       205       204       358      1404      1867      1868
 -1       559    8    0    1
 -2       204       357       358      1865      1869      1867
 -1       560    8    0    1
 -2       206       205       359      1407      1870      1871
 -1       561    8    0    1
 -2       205       358       359      1868      1872      1870
 -1       562    8    0    1
 -2       207       206       360      1410      1873      1874
 -1       563    8    0    1
 -2       206       359       360      1871      1875      1873
 -1       564    8    0    1
 -2       208       207       361      1413      1876      1877
 -1       565    8    0    1
 -2       207       360       361      1874      1878      1876
 -1       566    8    0    1
 -2       209       208       362      1416      1879      1880
 -1       567    8    0    1
 -2       208       361       362      1877      1881      1879
 -1       568    8    0    1
 -2       210       209       363      1419      1882      1883
 -1       569    8    0    1
 -2       209       362       363      1880      1884      1882
 -1       570    8    0    1
 -2       211       210       364      1422      1885      1886
 -1       571    8    0    1
 -2       210       363       364      1883      1887      1885
 -1       572    8    0    1
 -2       212       211       365      1425      1888      1889
 -1       573    8    0    1
 -2       211       364       365      1886      1890      1888
 -1       574    8    0    1
 -2       213       212       366      1428      1891      1892
 -1       575    8    0    1
 -2       212       365       366      1889      1893      1891
 -1       576    8    0    1
 -2       214       213       367      1431      1894      1895
 -1       577    8    0    1
 -2       213       366       367      1892      1896      1894
 -1       578    8    0    1
 -2       215       214       368      1434      1897      1898
 -1       579    8    0    1
 -2       214       367       368      1895      1899      1897
 -1       580    8    0    1
 -2       216       215       369      1437      1900      1901
 -1       581    8    0    1
 -2       215       368       369      1898      1902      1900
 -1       582    8    0    1
 -2       217       216       370      1440      1903      1904
 -1       583    8    0    1
 -2       216       369       370      1901      1905      1903
 -1       584    8    0    1
 -2       218       217       371      1443      1906      1907
 -1       585    8    0    1
 -2       217       370       371      1904      1908      1906
 -1       586    8    0    1
 -2       219       218       372      1446      1909      1910
 -1       587    8    0    1
 -2       218       371       372      1907      1911      1909
 -1       588    8    0    1
 -2       220       219       373      1449      1912      1913
 -1       589    8    0    1
 -2       219       372       373      1910      1914      1912
 -1       590    8    0    1
 -2       221       220       374      1452      1915      1916
 -1       591    8    0    1
 -2       220       373       374      1913      1917      1915
 -1       592    8    0    1
 -2       222       221       375      1455      1918      1919
 -1       593    8    0    1
 -2       221       374       375      1916      1920      1918
 -1       594    8    0    1
 -2       223       222       376      1458      1921      1922
 -1       595    8    0    1
 -2       222       375       376      1919      1923      1921
 -1       596    8    0    1
 -2       224       223       377      1461      1924      1925
 -1       597    8    0    1
 -2       223       376       377      1922      1926      1924
 -1       598    8    0    1
 -2       225       224       378      1464      1927      1928
 -1       599    8    0    1
 -2       224       377       378      1925      1929      1927
 -1       600    8    0    1
 -2       226       225       379      1467      1930      1931
 -1       601    8    0    1
 -2       225       378       379      1928      1932      1930
 -1       602    8    0    1
 -2       227       226       380      1470      1933      1934
 -1       603    8    0    1
 -2       290       227       380      1662      1934      1935
 -1       604    8    0    1
 -2       226       379       380      1931      1936      1933
 -1       605    8    0    1
 -2       229       230       381      1481      1937      1938
 -1       606    8    0    1
 -2       229       381       334      1938      1939      1795
 -1       607    8    0    1
 -2       230       231       382      1484      1940      1941
 -1       608    8    0    1
 -2       230       382       381      1941      1942      1937
 -1       609    8    0    1
 -2       231       232       383      1487      1943      1944
 -1       610    8    0    1
 -2       231       383       382      1944      1945      1940
 -1       611    8    0    1
 -2       232       233       384      1490      1946      1947
 -1       612    8    0    1
 -2       232       384       383      1947      1948      1943
 -1       613    8    0    1
 -2       233       234       385      1493      1949      1950
 -1       614    8    0    1
 -2       233       385       384      1950      1951      1946
 -1       615    8    0    1
 -2       234       235       386      1496      1952      1953
 -1       616    8    0    1
 -2       234       386       385      1953      1954      1949
 -1       617    8    0    1
 -2       235       236       387      1499      1955      1956
 -1       618    8    0    1
 -2       235       387       386      1956      1957      1952
 -1       619    8    0    1
 -2       236       237       388      1502      1958      1959
 -1       620    8    0    1
 -2       236       388       387      1959      1960      1955
 -1       621    8    0    1
 -2       237       238       389      1505      1961      1962
 -1       622    8    0    1
 -2       237       389       388      1962      1963      1958
 -1       623    8    0    1
 -2       238       239       390      1508      1964      1965
 -1       624    8    0    1
 -2       238       390       389      1965      1966      1961
 -1       625    8    0    1
 -2       239       240       391      1511      1967      1968
 -1       626    8    0    1
 -2       239       391       390      1968      1969      1964
 -1       627    8    0    1
 -2       240       241       392      1514      1970      1971
 -1       628    8    0    1
 -2       240       392       391      1971      1972      1967
 -1       629    8    0    1
 -2       241       242       393      1517      1973      1974
 -1       630    8    0    1
 -2       241       393       392      1974      1975      1970
 -1       631    8    0    1
 -2       242       243       394      1520      1976      1977
 -1       632    8    0    1
 -2       242       394       393      1977      1978      1973
 -1       633    8    0    1
 -2       243       244       395      1523      1979      1980
 -1       634    8    0    1
 -2       243       395       394      1980      1981      1976
 -1       635    8    0    1
 -2       244       245       396      1526      1982      1983
 -1       636    8    0    1
 -2       244       396       395      1983      1984      1979
 -1       637    8    0    1
 -2       245       246       397      1529      1985      1986
 -1       638    8    0    1
 -2       245       397       396      1986      1987      1982
 -1       639    8    0    1
 -2       246       247       398      1532      1988      1989
 -1       640    8    0    1
 -2       246       398       397      1989      1990      1985
 -1       641    8    0    1
 -2       247       248       399      1535      1991      1992
 -1       642    8    0    1
 -2       247       399       398      1992      1993      1988
 -1       643    8    0    1
 -2       248       249       400      1538      1994      1995
 -1       644    8    0    1
 -2       248       400       399      1995      1996      1991
 -1       645    8    0    1
 -2       249       250       401      1541      1997      1998
 -1       646    8    0    1
 -2       249       401       400      1998      1999      1994
 -1       647    8    0    1
 -2       250       251       402      1544      2000      2001
 -1       648    8    0    1
 -2       250       402       401      2001      2002      1997
 -1       649    8    0    1
 -2       251       252       403      1547      2003      2004
 -1       650    8    0    1
 -2       251       403       402      2004      2005      2000
 -1       651    8    0    1
 -2       252       253       404      1550      2006      2007
 -1       652    8    0    1
 -2       252       404       403      2007      2008      2003
 -1       653    8    0    1
 -2       253       254       405      1553      2009      2010
 -1       654    8    0    1
 -2       253       405       404      2010      2011      2006
 -1       655    8    0    1
 -2       254       255       406      1556      2012      2013
 -1       656    8    0    1
 -2       254       406       405      2013      2014      2009
 -1       657    8    0    1
 -2       255       256       407      1559      2015      2016
 -1       658    8    0    1
 -2       255       407       406      2016      2017      2012
 -1       659    8    0    1
 -2       256       257       408      1562      2018      2019
 -1       660    8    0    1
 -2       256       408       407      2019      2020      2015
 -1       661    8    0    1
 -2       257       258       409      1565      2021      2022
 -1       662    8    0    1
 -2       257       409       408      2022      2023      2018
 -1       663    8    0    1
 -2       258       259       410      1568      2024      2025
 -1       664    8    0    1
 -2       258       410       409      2025      2026      2021
 -1       665    8    0    1
 -2       259       260       411      1571      2027      2028
 -1       666    8    0    1
 -2       259       411       410      2028      2029      2024
 -1       667    8    0    1
 -2       260       261       412      1574      2030      2031
 -1       668    8    0    1
 -2       260       412       411      2031      2032      2027
 -1       669    8    0    1
 -2       261       262       413      1577      2033      2034
 -1       670    8    0    1
 -2       261       413       412      2034      2035      2030
 -1       671    8    0    1
 -2       262       263       414      1580      2036      2037
 -1       672    8    0    1
 -2       262       414       413      2037      2038      2033
 -1       673    8    0    1
 -2       263       264       415      1583      2039      2040
 -1       674    8    0    1
 -2       263       415       414      2040      2041      2036
 -1       675    8    0    1
 -2       264       265       416      1586      2042      2043
 -1       676    8    0    1
 -2       264       416       415      2043      2044      2039
 -1       677    8    0    1
 -2       265       266       417      1589      2045      2046
 -1       678    8    0    1
 -2       265       417       416      2046      2047      2042
 -1       679    8    0    1
 -2       266       267       418      1592      2048      2049
 -1       680    8    0    1
 -2       266       418       417      2049      2050      2045
 -1       681    8    0    1
 -2       267       268       419      1595      2051      2052
 -1       682    8    0    1
 -2       267       419       418      2052      2053      2048
 -1       683    8    0    1
 -2       268       269       420      1598      2054      2055
 -1       684    8    0    1
 -2       268       420       419      2055      2056      2051
 -1       685    8    0    1
 -2       269       270       421      1601      2057      2058
 -1       686    8    0    1
 -2       269       421       420      2058      2059      2054
 -1       687    8    0    1
 -2       270       271       422      1604      2060      2061
 -1       688    8    0    1
 -2       270       422       421      2061      2062      2057
 -1       689    8    0    1
 -2       271       272       423      1607      2063      2064
 -1       690    8    0    1
 -2       271       423       422      2064      2065      2060
 -1       691    8    0    1
 -2       272       273       424      1610      2066      2067
 -1       692    8    0    1
 -2       272       424       423      2067      2068      2063
 -1       693    8    0    1
 -2       273       274       425      1613      2069      2070
 -1       694    8    0    1
 -2       273       425       424      2070      2071      2066
 -1       695    8    0    1
 -2       274       275       426      1616      2072      2073
 -1       696    8    0    1
 -2       425       274       426      2069      2073      2074
 -1       697    8    0    1
 -2       275       276       426      1724      2075      2072
 -1       698    8    0    1
 -2       278       279       427      1628      2076      2077
 -1       699    8    0    1
 -2       277       278       428      1625      2078      2079
 -1       700    8    0    1
 -2       278       427       428      2077      2080      2078
 -1       701    8    0    1
 -2       276       277       429      1622      2081      2082
 -1       702    8    0    1
 -2       426       276       429      2075      2082      2083
 -1       703    8    0    1
 -2       277       428       429      2079      2084      2081
 -1       704    8    0    1
 -2       279       280       430      1631      2085      2086
 -1       705    8    0    1
 -2       279       430       427      2086      2087      2076
 -1       706    8    0    1
 -2       280       281       431      1634      2088      2089
 -1       707    8    0    1
 -2       280       431       430      2089      2090      2085
 -1       708    8    0    1
 -2       281       282       432      1637      2091      2092
 -1       709    8    0    1
 -2       281       432       431      2092      2093      2088
 -1       710    8    0    1
 -2       282       283       433      1640      2094      2095
 -1       711    8    0    1
 -2       282       433       432      2095      2096      2091
 -1       712    8    0    1
 -2       283       284       434      1643      2097      2098
 -1       713    8    0    1
 -2       283       434       433      2098      2099      2094
 -1       714    8    0    1
 -2       284       285       435      1646      2100      2101
 -1       715    8    0    1
 -2       284       435       434      2101      2102      2097
 -1       716    8    0    1
 -2       285       286       436      1649      2103      2104
 -1       717    8    0    1
 -2       285       436       435      2104      2105      2100
 -1       718    8    0    1
 -2       286       287       437      1652      2106      2107
 -1       719    8    0    1
 -2       286       437       436      2107      2108      2103
 -1       720    8    0    1
 -2       287       288       438      1655      2109      2110
 -1       721    8    0    1
 -2       287       438       437      2110      2111      2106
 -1       722    8    0    1
 -2       288       289       439      1658      2112      2113
 -1       723    8    0    1
 -2       288       439       438      2113      2114      2109
 -1       724    8    0    1
 -2       292       293       440      1726      2115      2116
 -1       725    8    0    1
 -2       319       291       441      1727      2117      2118
 -1       726    8    0    1
 -2       291       292       442      1725      2119      2120
 -1       727    8    0    1
 -2       292       440       442      2116      2121      2119
 -1       728    8    0    1
 -2       293       294       443      1722      2122      2123
 -1       729    8    0    1
 -2       294       295       444      1721      2124      2125
 -1       730    8    0    1
 -2       166       167       445      1290      2126      2127
 -1       731    8    0    1
 -2       320       166       445      1753      2127      2128
 -1       732    8    0    1
 -2       167       322       445      1759      2129      2126
 -1       733    8    0    1
 -2       296       297       446      1729      2130      2131
 -1       734    8    0    1
 -2       297       298       447      1730      2132      2133
 -1       735    8    0    1
 -2       298       299       448      1731      2134      2135
 -1       736    8    0    1
 -2       299       300       449      1732      2136      2137
 -1       737    8    0    1
 -2       300       301       450      1733      2138      2139
 -1       738    8    0    1
 -2       301       302       451      1734      2140      2141
 -1       739    8    0    1
 -2       301       451       450      2141      2142      2138
 -1       740    8    0    1
 -2       302       303       452      1735      2143      2144
 -1       741    8    0    1
 -2       303       304       453      1736      2145      2146
 -1       742    8    0    1
 -2       304       305       454      1737      2147      2148
 -1       743    8    0    1
 -2       305       306       455      1738      2149      2150
 -1       744    8    0    1
 -2       306       307       456      1739      2151      2152
 -1       745    8    0    1
 -2       306       456       455      2152      2153      2149
 -1       746    8    0    1
 -2       307       308       457      1740      2154      2155
 -1       747    8    0    1
 -2       308       309       458      1741      2156      2157
 -1       748    8    0    1
 -2       309       310       459      1742      2158      2159
 -1       749    8    0    1
 -2       310       311       460      1743      2160      2161
 -1       750    8    0    1
 -2       311       312       461      1744      2162      2163
 -1       751    8    0    1
 -2       312       313       462      1745      2164      2165
 -1       752    8    0    1
 -2       313       314       463      1746      2166      2167
 -1       753    8    0    1
 -2       314       315       464      1747      2168      2169
 -1       754    8    0    1
 -2       315       316       465      1748      2170      2171
 -1       755    8    0    1
 -2       316       317       466      1749      2172      2173
 -1       756    8    0    1
 -2       317       318       467      1750      2174      2175
 -1       757    8    0    1
 -2       318       319       468      1751      2176      2177
 -1       758    8    0    1
 -2       295       296       469      1728      2178      2179
 -1       759    8    0    1
 -2       296       446       469      2131      2180      2178
 -1       760    8    0    1
 -2       444       295       469      2124      2179      2181
 -1       761    8    0    1
 -2       180       321       181      1798      2182      1332
 -1       762    8    0    1
 -2       335       181       321      1799      2182      2183
 -1       763    8    0    1
 -2       441       291       442      2117      2120      2184
 -1       764    8    0    1
 -2       293       443       440      2123      2185      2115
 -1       765    8    0    1
 -2       439       289       290      2112      1661      2186
 -1       766    8    0    1
 -2       319       441       468      2118      2187      2176
 -1       767    8    0    1
 -2       443       294       444      2122      2125      2188
 -1       768    8    0    1
 -2       467       318       468      2174      2177      2189
 -1       769    8    0    1
 -2       466       317       467      2172      2175      2190
 -1       770    8    0    1
 -2       465       316       466      2170      2173      2191
 -1       771    8    0    1
 -2       464       315       465      2168      2171      2192
 -1       772    8    0    1
 -2       463       314       464      2166      2169      2193
 -1       773    8    0    1
 -2       462       313       463      2164      2167      2194
 -1       774    8    0    1
 -2       461       312       462      2162      2165      2195
 -1       775    8    0    1
 -2       460       311       461      2160      2163      2196
 -1       776    8    0    1
 -2       459       310       470      2158      2197      2198
 -1       777    8    0    1
 -2       310       460       470      2161      2199      2197
 -1       778    8    0    1
 -2       458       309       459      2156      2159      2200
 -1       779    8    0    1
 -2       456       307       457      2151      2155      2201
 -1       780    8    0    1
 -2       454       305       455      2147      2150      2202
 -1       781    8    0    1
 -2       453       304       454      2145      2148      2203
 -1       782    8    0    1
 -2       451       302       452      2140      2144      2204
 -1       783    8    0    1
 -2       449       300       450      2136      2139      2205
 -1       784    8    0    1
 -2       448       299       449      2134      2137      2206
 -1       785    8    0    1
 -2       446       297       447      2130      2133      2207
 -1       786    8    0    1
 -2       447       298       448      2132      2135      2208
 -1       787    8    0    1
 -2       452       303       453      2143      2146      2209
 -1       788    8    0    1
 -2       457       308       458      2154      2157      2210
 -1       789    8    0    1
 -2       334       381       471      1939      2211      2212
 -1       790    8    0    1
 -2       323       324       472      1765      2213      2214
 -1       791    8    0    1
 -2       322       323       473      1762      2215      2216
 -1       792    8    0    1
 -2       323       472       473      2214      2217      2215
 -1       793    8    0    1
 -2       325       326       474      1771      2218      2219
 -1       794    8    0    1
 -2       326       327       475      1774      2220      2221
 -1       795    8    0    1
 -2       326       475       474      2221      2222      2218
 -1       796    8    0    1
 -2       327       328       476      1777      2223      2224
 -1       797    8    0    1
 -2       327       476       475      2224      2225      2220
 -1       798    8    0    1
 -2       328       329       477      1780      2226      2227
 -1       799    8    0    1
 -2       328       477       476      2227      2228      2223
 -1       800    8    0    1
 -2       329       330       478      1783      2229      2230
 -1       801    8    0    1
 -2       329       478       477      2230      2231      2226
 -1       802    8    0    1
 -2       330       331       479      1786      2232      2233
 -1       803    8    0    1
 -2       330       479       478      2233      2234      2229
 -1       804    8    0    1
 -2       381       382       480      1942      2235      2236
 -1       805    8    0    1
 -2       381       480       471      2236      2237      2211
 -1       806    8    0    1
 -2       336       335       481      1803      2238      2239
 -1       807    8    0    1
 -2       335       321       482      2183      2240      2241
 -1       808    8    0    1
 -2       481       335       482      2238      2241      2242
 -1       809    8    0    1
 -2       321       320       482      1757      2243      2240
 -1       810    8    0    1
 -2       444       469       483      2181      2244      2245
 -1       811    8    0    1
 -2       337       336       484      1806      2246      2247
 -1       812    8    0    1
 -2       336       481       484      2239      2248      2246
 -1       813    8    0    1
 -2       338       337       485      1809      2249      2250
 -1       814    8    0    1
 -2       337       484       485      2247      2251      2249
 -1       815    8    0    1
 -2       339       338       486      1812      2252      2253
 -1       816    8    0    1
 -2       338       485       486      2250      2254      2252
 -1       817    8    0    1
 -2       340       339       487      1815      2255      2256
 -1       818    8    0    1
 -2       339       486       487      2253      2257      2255
 -1       819    8    0    1
 -2       341       340       488      1818      2258      2259
 -1       820    8    0    1
 -2       340       487       488      2256      2260      2258
 -1       821    8    0    1
 -2       342       341       489      1821      2261      2262
 -1       822    8    0    1
 -2       341       488       489      2259      2263      2261
 -1       823    8    0    1
 -2       343       342       490      1824      2264      2265
 -1       824    8    0    1
 -2       342       489       490      2262      2266      2264
 -1       825    8    0    1
 -2       344       343       491      1827      2267      2268
 -1       826    8    0    1
 -2       343       490       491      2265      2269      2267
 -1       827    8    0    1
 -2       345       344       492      1830      2270      2271
 -1       828    8    0    1
 -2       344       491       492      2268      2272      2270
 -1       829    8    0    1
 -2       346       345       493      1833      2273      2274
 -1       830    8    0    1
 -2       345       492       493      2271      2275      2273
 -1       831    8    0    1
 -2       347       346       494      1836      2276      2277
 -1       832    8    0    1
 -2       346       493       494      2274      2278      2276
 -1       833    8    0    1
 -2       348       347       495      1839      2279      2280
 -1       834    8    0    1
 -2       347       494       495      2277      2281      2279
 -1       835    8    0    1
 -2       349       348       496      1842      2282      2283
 -1       836    8    0    1
 -2       348       495       496      2280      2284      2282
 -1       837    8    0    1
 -2       350       349       497      1845      2285      2286
 -1       838    8    0    1
 -2       349       496       497      2283      2287      2285
 -1       839    8    0    1
 -2       351       350       498      1848      2288      2289
 -1       840    8    0    1
 -2       350       497       498      2286      2290      2288
 -1       841    8    0    1
 -2       352       351       499      1851      2291      2292
 -1       842    8    0    1
 -2       351       498       499      2289      2293      2291
 -1       843    8    0    1
 -2       353       352       500      1854      2294      2295
 -1       844    8    0    1
 -2       352       499       500      2292      2296      2294
 -1       845    8    0    1
 -2       354       353       501      1857      2297      2298
 -1       846    8    0    1
 -2       353       500       501      2295      2299      2297
 -1       847    8    0    1
 -2       355       354       502      1860      2300      2301
 -1       848    8    0    1
 -2       354       501       502      2298      2302      2300
 -1       849    8    0    1
 -2       356       355       503      1863      2303      2304
 -1       850    8    0    1
 -2       355       502       503      2301      2305      2303
 -1       851    8    0    1
 -2       357       356       504      1866      2306      2307
 -1       852    8    0    1
 -2       356       503       504      2304      2308      2306
 -1       853    8    0    1
 -2       358       357       505      1869      2309      2310
 -1       854    8    0    1
 -2       357       504       505      2307      2311      2309
 -1       855    8    0    1
 -2       359       358       506      1872      2312      2313
 -1       856    8    0    1
 -2       358       505       506      2310      2314      2312
 -1       857    8    0    1
 -2       360       359       507      1875      2315      2316
 -1       858    8    0    1
 -2       359       506       507      2313      2317      2315
 -1       859    8    0    1
 -2       361       360       508      1878      2318      2319
 -1       860    8    0    1
 -2       360       507       508      2316      2320      2318
 -1       861    8    0    1
 -2       362       361       509      1881      2321      2322
 -1       862    8    0    1
 -2       361       508       509      2319      2323      2321
 -1       863    8    0    1
 -2       363       362       510      1884      2324      2325
 -1       864    8    0    1
 -2       362       509       510      2322      2326      2324
 -1       865    8    0    1
 -2       364       363       511      1887      2327      2328
 -1       866    8    0    1
 -2       363       510       511      2325      2329      2327
 -1       867    8    0    1
 -2       365       364       512      1890      2330      2331
 -1       868    8    0    1
 -2       364       511       512      2328      2332      2330
 -1       869    8    0    1
 -2       366       365       513      1893      2333      2334
 -1       870    8    0    1
 -2       365       512       513      2331      2335      2333
 -1       871    8    0    1
 -2       367       366       514      1896      2336      2337
 -1       872    8    0    1
 -2       366       513       514      2334      2338      2336
 -1       873    8    0    1
 -2       368       367       515      1899      2339      2340
 -1       874    8    0    1
 -2       367       514       515      2337      2341      2339
 -1       875    8    0    1
 -2       369       368       516      1902      2342      2343
 -1       876    8    0    1
 -2       368       515       516      2340      2344      2342
 -1       877    8    0    1
 -2       370       369       517      1905      2345      2346
 -1       878    8    0    1
 -2       369       516       517      2343      2347      2345
 -1       879    8    0    1
 -2       371       370       518      1908      2348      2349
 -1       880    8    0    1
 -2       370       517       518      2346      2350      2348
 -1       881    8    0    1
 -2       372       371       519      1911      2351      2352
 -1       882    8    0    1
 -2       371       518       519      2349      2353      2351
 -1       883    8    0    1
 -2       373       372       520      1914      2354      2355
 -1       884    8    0    1
 -2       372       519       520      2352      2356      2354
 -1       885    8    0    1
 -2       374       373       521      1917      2357      2358
 -1       886    8    0    1
 -2       373       520       521      2355      2359      2357
 -1       887    8    0    1
 -2       375       374       522      1920      2360      2361
 -1       888    8    0    1
 -2       374       521       522      2358      2362      2360
 -1       889    8    0    1
 -2       376       375       523      1923      2363      2364
 -1       890    8    0    1
 -2       375       522       523      2361      2365      2363
 -1       891    8    0    1
 -2       377       376       524      1926      2366      2367
 -1       892    8    0    1
 -2       376       523       524      2364      2368      2366
 -1       893    8    0    1
 -2       378       377       525      1929      2369      2370
 -1       894    8    0    1
 -2       377       524       525      2367      2371      2369
 -1       895    8    0    1
 -2       379       378       526      1932      2372      2373
 -1       896    8    0    1
 -2       378       525       526      2370      2374      2372
 -1       897    8    0    1
 -2       442       440       527      2121      2375      2376
 -1       898    8    0    1
 -2       383       384       528      1948      2377      2378
 -1       899    8    0    1
 -2       384       385       529      1951      2379      2380
 -1       900    8    0    1
 -2       384       529       528      2380      2381      2377
 -1       901    8    0    1
 -2       385       386       530      1954      2382      2383
 -1       902    8    0    1
 -2       385       530       529      2383      2384      2379
 -1       903    8    0    1
 -2       386       387       531      1957      2385      2386
 -1       904    8    0    1
 -2       386       531       530      2386      2387      2382
 -1       905    8    0    1
 -2       387       388       532      1960      2388      2389
 -1       906    8    0    1
 -2       387       532       531      2389      2390      2385
 -1       907    8    0    1
 -2       388       389       533      1963      2391      2392
 -1       908    8    0    1
 -2       388       533       532      2392      2393      2388
 -1       909    8    0    1
 -2       389       390       534      1966      2394      2395
 -1       910    8    0    1
 -2       389       534       533      2395      2396      2391
 -1       911    8    0    1
 -2       390       391       535      1969      2397      2398
 -1       912    8    0    1
 -2       390       535       534      2398      2399      2394
 -1       913    8    0    1
 -2       391       392       536      1972      2400      2401
 -1       914    8    0    1
 -2       391       536       535      2401      2402      2397
 -1       915    8    0    1
 -2       392       393       537      1975      2403      2404
 -1       916    8    0    1
 -2       392       537       536      2404      2405      2400
 -1       917    8    0    1
 -2       393       394       538      1978      2406      2407
 -1       918    8    0    1
 -2       393       538       537      2407      2408      2403
 -1       919    8    0    1
 -2       394       395       539      1981      2409      2410
 -1       920    8    0    1
 -2       394       539       538      2410      2411      2406
 -1       921    8    0    1
 -2       395       396       540      1984      2412      2413
 -1       922    8    0    1
 -2       395       540       539      2413      2414      2409
 -1       923    8    0    1
 -2       396       397       541      1987      2415      2416
 -1       924    8    0    1
 -2       396       541       540      2416      2417      2412
 -1       925    8    0    1
 -2       397       398       542      1990      2418      2419
 -1       926    8    0    1
 -2       397       542       541      2419      2420      2415
 -1       927    8    0    1
 -2       398       399       543      1993      2421      2422
 -1       928    8    0    1
 -2       398       543       542      2422      2423      2418
 -1       929    8    0    1
 -2       399       400       544      1996      2424      2425
 -1       930    8    0    1
 -2       399       544       543      2425      2426      2421
 -1       931    8    0    1
 -2       400       401       545      1999      2427      2428
 -1       932    8    0    1
 -2       400       545       544      2428      2429      2424
 -1       933    8    0    1
 -2       401       402       546      2002      2430      2431
 -1       934    8    0    1
 -2       401       546       545      2431      2432      2427
 -1       935    8    0    1
 -2       402       403       547      2005      2433      2434
 -1       936    8    0    1
 -2       402       547       546      2434      2435      2430
 -1       937    8    0    1
 -2       403       404       548      2008      2436      2437
 -1       938    8    0    1
 -2       403       548       547      2437      2438      2433
 -1       939    8    0    1
 -2       404       405       549      2011      2439      2440
 -1       940    8    0    1
 -2       404       549       548      2440      2441      2436
 -1       941    8    0    1
 -2       405       406       550      2014      2442      2443
 -1       942    8    0    1
 -2       405       550       549      2443      2444      2439
 -1       943    8    0    1
 -2       406       407       551      2017      2445      2446
 -1       944    8    0    1
 -2       406       551       550      2446      2447      2442
 -1       945    8    0    1
 -2       407       408       552      2020      2448      2449
 -1       946    8    0    1
 -2       407       552       551      2449      2450      2445
 -1       947    8    0    1
 -2       409       410       553      2026      2451      2452
 -1       948    8    0    1
 -2       410       411       554      2029      2453      2454
 -1       949    8    0    1
 -2       411       412       555      2032      2455      2456
 -1       950    8    0    1
 -2       411       555       554      2456      2457      2453
 -1       951    8    0    1
 -2       412       413       483      2035      2458      2459
 -1       952    8    0    1
 -2       413       414       556      2038      2460      2461
 -1       953    8    0    1
 -2       413       556       483      2461      2462      2458
 -1       954    8    0    1
 -2       414       415       557      2041      2463      2464
 -1       955    8    0    1
 -2       414       557       556      2464      2465      2460
 -1       956    8    0    1
 -2       415       416       558      2044      2466      2467
 -1       957    8    0    1
 -2       415       558       557      2467      2468      2463
 -1       958    8    0    1
 -2       416       417       559      2047      2469      2470
 -1       959    8    0    1
 -2       416       559       558      2470      2471      2466
 -1       960    8    0    1
 -2       417       418       560      2050      2472      2473
 -1       961    8    0    1
 -2       417       560       559      2473      2474      2469
 -1       962    8    0    1
 -2       418       419       561      2053      2475      2476
 -1       963    8    0    1
 -2       418       561       560      2476      2477      2472
 -1       964    8    0    1
 -2       419       420       562      2056      2478      2479
 -1       965    8    0    1
 -2       419       562       561      2479      2480      2475
 -1       966    8    0    1
 -2       420       421       563      2059      2481      2482
 -1       967    8    0    1
 -2       420       563       562      2482      2483      2478
 -1       968    8    0    1
 -2       421       422       564      2062      2484      2485
 -1       969    8    0    1
 -2       421       564       563      2485      2486      2481
 -1       970    8    0    1
 -2       422       423       565      2065      2487      2488
 -1       971    8    0    1
 -2       422       565       564      2488      2489      2484
 -1       972    8    0    1
 -2       423       424       566      2068      2490      2491
 -1       973    8    0    1
 -2       423       566       565      2491      2492      2487
 -1       974    8    0    1
 -2       425       426       429      2074      2083      2493
 -1       975    8    0    1
 -2       430       431       567      2090      2494      2495
 -1       976    8    0    1
 -2       431       432       568      2093      2496      2497
 -1       977    8    0    1
 -2       431       568       567      2497      2498      2494
 -1       978    8    0    1
 -2       428       427       569      2080      2499      2500
 -1       979    8    0    1
 -2       427       430       570      2087      2501      2502
 -1       980    8    0    1
 -2       569       427       570      2499      2502      2503
 -1       981    8    0    1
 -2       430       567       570      2495      2504      2501
 -1       982    8    0    1
 -2       432       433       571      2096      2505      2506
 -1       983    8    0    1
 -2       432       571       568      2506      2507      2496
 -1       984    8    0    1
 -2       433       434       572      2099      2508      2509
 -1       985    8    0    1
 -2       433       572       571      2509      2510      2505
 -1       986    8    0    1
 -2       434       435       573      2102      2511      2512
 -1       987    8    0    1
 -2       434       573       572      2512      2513      2508
 -1       988    8    0    1
 -2       435       436       574      2105      2514      2515
 -1       989    8    0    1
 -2       435       574       573      2515      2516      2511
 -1       990    8    0    1
 -2       436       437       575      2108      2517      2518
 -1       991    8    0    1
 -2       436       575       574      2518      2519      2514
 -1       992    8    0    1
 -2       437       438       576      2111      2520      2521
 -1       993    8    0    1
 -2       437       576       575      2521      2522      2517
 -1       994    8    0    1
 -2       438       439       577      2114      2523      2524
 -1       995    8    0    1
 -2       438       577       576      2524      2525      2520
 -1       996    8    0    1
 -2       439       290       380      2186      1935      2526
 -1       997    8    0    1
 -2       468       441       578      2187      2527      2528
 -1       998    8    0    1
 -2       382       383       579      1945      2529      2530
 -1       999    8    0    1
 -2       383       528       579      2378      2531      2529
 -1      1000    8    0    1
 -2       440       443       580      2185      2532      2533
 -1      1001    8    0    1
 -2       467       468       581      2189      2534      2535
 -1      1002    8    0    1
 -2       469       446       582      2180      2536      2537
 -1      1003    8    0    1
 -2       443       444       583      2188      2538      2539
 -1      1004    8    0    1
 -2       454       455       584      2202      2540      2541
 -1      1005    8    0    1
 -2       449       450       585      2205      2542      2543
 -1      1006    8    0    1
 -2       324       325       586      1768      2544      2545
 -1      1007    8    0    1
 -2       472       324       586      2213      2545      2546
 -1      1008    8    0    1
 -2       325       474       586      2219      2547      2544
 -1      1009    8    0    1
 -2       447       448       587      2208      2548      2549
 -1      1010    8    0    1
 -2       452       453       588      2209      2550      2551
 -1      1011    8    0    1
 -2       446       447       589      2207      2552      2553
 -1      1012    8    0    1
 -2       582       446       589      2536      2553      2554
 -1      1013    8    0    1
 -2       447       587       589      2549      2555      2552
 -1      1014    8    0    1
 -2       448       449       590      2206      2556      2557
 -1      1015    8    0    1
 -2       450       451       591      2142      2558      2559
 -1      1016    8    0    1
 -2       457       458       592      2210      2560      2561
 -1      1017    8    0    1
 -2       451       452       593      2204      2562      2563
 -1      1018    8    0    1
 -2       451       593       591      2563      2564      2558
 -1      1019    8    0    1
 -2       453       454       594      2203      2565      2566
 -1      1020    8    0    1
 -2       455       456       595      2153      2567      2568
 -1      1021    8    0    1
 -2       456       457       596      2201      2569      2570
 -1      1022    8    0    1
 -2       456       596       595      2570      2571      2567
 -1      1023    8    0    1
 -2       458       459       597      2200      2572      2573
 -1      1024    8    0    1
 -2       458       597       592      2573      2574      2560
 -1      1025    8    0    1
 -2       460       461       598      2196      2575      2576
 -1      1026    8    0    1
 -2       461       462       599      2195      2577      2578
 -1      1027    8    0    1
 -2       462       463       600      2194      2579      2580
 -1      1028    8    0    1
 -2       463       464       601      2193      2581      2582
 -1      1029    8    0    1
 -2       464       465       602      2192      2583      2584
 -1      1030    8    0    1
 -2       465       466       603      2191      2585      2586
 -1      1031    8    0    1
 -2       466       467       604      2190      2587      2588
 -1      1032    8    0    1
 -2       441       442       605      2184      2589      2590
 -1      1033    8    0    1
 -2       333       334       606      1797      2591      2592
 -1      1034    8    0    1
 -2       332       333       606      1792      2592      2593
 -1      1035    8    0    1
 -2       334       471       606      2212      2594      2591
 -1      1036    8    0    1
 -2       448       590       587      2557      2595      2548
 -1      1037    8    0    1
 -2       322       473       607      2216      2596      2597
 -1      1038    8    0    1
 -2       322       607       445      2597      2598      2129
 -1      1039    8    0    1
 -2       480       382       579      2235      2530      2599
 -1      1040    8    0    1
 -2       331       332       606      1789      2593      2600
 -1      1041    8    0    1
 -2       604       467       608      2587      2601      2602
 -1      1042    8    0    1
 -2       467       581       608      2535      2603      2601
 -1      1043    8    0    1
 -2       603       466       604      2585      2588      2604
 -1      1044    8    0    1
 -2       483       469       582      2244      2537      2605
 -1      1045    8    0    1
 -2       602       465       603      2583      2586      2606
 -1      1046    8    0    1
 -2       468       578       581      2528      2607      2534
 -1      1047    8    0    1
 -2       527       440       580      2375      2533      2608
 -1      1048    8    0    1
 -2       552       408       585      2448      2609      2610
 -1      1049    8    0    1
 -2       408       409       585      2023      2611      2609
 -1      1050    8    0    1
 -2       425       429       609      2493      2612      2613
 -1      1051    8    0    1
 -2       424       425       609      2071      2613      2614
 -1      1052    8    0    1
 -2       429       428       609      2084      2615      2612
 -1      1053    8    0    1
 -2       566       424       609      2490      2614      2616
 -1      1054    8    0    1
 -2       428       569       609      2500      2617      2615
 -1      1055    8    0    1
 -2       601       464       602      2581      2584      2618
 -1      1056    8    0    1
 -2       439       380       610      2526      2619      2620
 -1      1057    8    0    1
 -2       577       439       610      2523      2620      2621
 -1      1058    8    0    1
 -2       380       379       610      1936      2622      2619
 -1      1059    8    0    1
 -2       600       463       601      2579      2582      2623
 -1      1060    8    0    1
 -2       599       462       600      2577      2580      2624
 -1      1061    8    0    1
 -2       578       441       605      2527      2590      2625
 -1      1062    8    0    1
 -2       331       606       479      2600      2626      2232
 -1      1063    8    0    1
 -2       580       443       583      2532      2539      2627
 -1      1064    8    0    1
 -2       596       457       592      2569      2561      2628
 -1      1065    8    0    1
 -2       454       584       594      2541      2629      2565
 -1      1066    8    0    1
 -2       593       452       588      2562      2551      2630
 -1      1067    8    0    1
 -2       460       598       611      2576      2631      2632
 -1      1068    8    0    1
 -2       460       611       470      2632      2633      2199
 -1      1069    8    0    1
 -2       585       450       591      2542      2559      2634
 -1      1070    8    0    1
 -2       584       455       595      2540      2568      2635
 -1      1071    8    0    1
 -2       583       444       483      2538      2245      2636
 -1      1072    8    0    1
 -2       482       320       445      2243      2128      2637
 -1      1073    8    0    1
 -2       588       453       594      2550      2566      2638
 -1      1074    8    0    1
 -2       442       527       605      2376      2639      2589
 -1      1075    8    0    1
 -2       597       459       612      2572      2640      2641
 -1      1076    8    0    1
 -2       459       470       612      2198      2642      2640
 -1      1077    8    0    1
 -2       598       461       599      2575      2578      2643
 -1      1078    8    0    1
 -2       585       409       553      2611      2452      2644
 -1      1079    8    0    1
 -2       610       379       526      2622      2373      2645
 -1      1080    8    0    1
 -2       475       476       613      2225      2646      2647
 -1      1081    8    0    1
 -2       474       475       614      2222      2648      2649
 -1      1082    8    0    1
 -2       475       613       614      2647      2650      2648
 -1      1083    8    0    1
 -2       477       478       615      2231      2651      2652
 -1      1084    8    0    1
 -2       478       479       616      2234      2653      2654
 -1      1085    8    0    1
 -2       478       616       615      2654      2655      2651
 -1      1086    8    0    1
 -2       471       480       617      2237      2656      2657
 -1      1087    8    0    1
 -2       580       583       618      2627      2658      2659
 -1      1088    8    0    1
 -2       480       579       619      2599      2660      2661
 -1      1089    8    0    1
 -2       480       619       617      2661      2662      2656
 -1      1090    8    0    1
 -2       481       482       620      2242      2663      2664
 -1      1091    8    0    1
 -2       484       481       621      2248      2665      2666
 -1      1092    8    0    1
 -2       481       620       621      2664      2667      2665
 -1      1093    8    0    1
 -2       485       484       622      2251      2668      2669
 -1      1094    8    0    1
 -2       484       621       622      2666      2670      2668
 -1      1095    8    0    1
 -2       486       485       623      2254      2671      2672
 -1      1096    8    0    1
 -2       485       622       623      2669      2673      2671
 -1      1097    8    0    1
 -2       487       486       624      2257      2674      2675
 -1      1098    8    0    1
 -2       486       623       624      2672      2676      2674
 -1      1099    8    0    1
 -2       488       487       625      2260      2677      2678
 -1      1100    8    0    1
 -2       487       624       625      2675      2679      2677
 -1      1101    8    0    1
 -2       489       488       626      2263      2680      2681
 -1      1102    8    0    1
 -2       488       625       626      2678      2682      2680
 -1      1103    8    0    1
 -2       490       489       627      2266      2683      2684
 -1      1104    8    0    1
 -2       489       626       627      2681      2685      2683
 -1      1105    8    0    1
 -2       491       490       628      2269      2686      2687
 -1      1106    8    0    1
 -2       490       627       628      2684      2688      2686
 -1      1107    8    0    1
 -2       492       491       629      2272      2689      2690
 -1      1108    8    0    1
 -2       491       628       629      2687      2691      2689
 -1      1109    8    0    1
 -2       493       492       630      2275      2692      2693
 -1      1110    8    0    1
 -2       492       629       630      2690      2694      2692
 -1      1111    8    0    1
 -2       494       493       631      2278      2695      2696
 -1      1112    8    0    1
 -2       493       630       631      2693      2697      2695
 -1      1113    8    0    1
 -2       495       494       632      2281      2698      2699
 -1      1114    8    0    1
 -2       494       631       632      2696      2700      2698
 -1      1115    8    0    1
 -2       496       495       633      2284      2701      2702
 -1      1116    8    0    1
 -2       495       632       633      2699      2703      2701
 -1      1117    8    0    1
 -2       497       496       634      2287      2704      2705
 -1      1118    8    0    1
 -2       496       633       634      2702      2706      2704
 -1      1119    8    0    1
 -2       498       497       635      2290      2707      2708
 -1      1120    8    0    1
 -2       497       634       635      2705      2709      2707
 -1      1121    8    0    1
 -2       499       498       636      2293      2710      2711
 -1      1122    8    0    1
 -2       498       635       636      2708      2712      2710
 -1      1123    8    0    1
 -2       500       499       637      2296      2713      2714
 -1      1124    8    0    1
 -2       499       636       637      2711      2715      2713
 -1      1125    8    0    1
 -2       501       500       638      2299      2716      2717
 -1      1126    8    0    1
 -2       500       637       638      2714      2718      2716
 -1      1127    8    0    1
 -2       502       501       639      2302      2719      2720
 -1      1128    8    0    1
 -2       501       638       639      2717      2721      2719
 -1      1129    8    0    1
 -2       503       502       640      2305      2722      2723
 -1      1130    8    0    1
 -2       502       639       640      2720      2724      2722
 -1      1131    8    0    1
 -2       504       503       641      2308      2725      2726
 -1      1132    8    0    1
 -2       503       640       641      2723      2727      2725
 -1      1133    8    0    1
 -2       505       504       642      2311      2728      2729
 -1      1134    8    0    1
 -2       504       641       642      2726      2730      2728
 -1      1135    8    0    1
 -2       506       505       643      2314      2731      2732
 -1      1136    8    0    1
 -2       505       642       643      2729      2733      2731
 -1      1137    8    0    1
 -2       507       506       644      2317      2734      2735
 -1      1138    8    0    1
 -2       506       643       644      2732      2736      2734
 -1      1139    8    0    1
 -2       508       507       645      2320      2737      2738
 -1      1140    8    0    1
 -2       507       644       645      2735      2739      2737
 -1      1141    8    0    1
 -2       509       508       646      2323      2740      2741
 -1      1142    8    0    1
 -2       508       645       646      2738      2742      2740
 -1      1143    8    0    1
 -2       510       509       647      2326      2743      2744
 -1      1144    8    0    1
 -2       509       646       647      2741      2745      2743
 -1      1145    8    0    1
 -2       511       510       648      2329      2746      2747
 -1      1146    8    0    1
 -2       510       647       648      2744      2748      2746
 -1      1147    8    0    1
 -2       512       511       649      2332      2749      2750
 -1      1148    8    0    1
 -2       511       648       649      2747      2751      2749
 -1      1149    8    0    1
 -2       513       512       650      2335      2752      2753
 -1      1150    8    0    1
 -2       512       649       650      2750      2754      2752
 -1      1151    8    0    1
 -2       514       513       651      2338      2755      2756
 -1      1152    8    0    1
 -2       513       650       651      2753      2757      2755
 -1      1153    8    0    1
 -2       515       514       652      2341      2758      2759
 -1      1154    8    0    1
 -2       514       651       652      2756      2760      2758
 -1      1155    8    0    1
 -2       516       515       653      2344      2761      2762
 -1      1156    8    0    1
 -2       515       652       653      2759      2763      2761
 -1      1157    8    0    1
 -2       517       516       654      2347      2764      2765
 -1      1158    8    0    1
 -2       516       653       654      2762      2766      2764
 -1      1159    8    0    1
 -2       518       517       655      2350      2767      2768
 -1      1160    8    0    1
 -2       517       654       655      2765      2769      2767
 -1      1161    8    0    1
 -2       519       518       656      2353      2770      2771
 -1      1162    8    0    1
 -2       518       655       656      2768      2772      2770
 -1      1163    8    0    1
 -2       520       519       657      2356      2773      2774
 -1      1164    8    0    1
 -2       519       656       657      2771      2775      2773
 -1      1165    8    0    1
 -2       521       520       658      2359      2776      2777
 -1      1166    8    0    1
 -2       520       657       658      2774      2778      2776
 -1      1167    8    0    1
 -2       522       521       659      2362      2779      2780
 -1      1168    8    0    1
 -2       521       658       659      2777      2781      2779
 -1      1169    8    0    1
 -2       523       522       660      2365      2782      2783
 -1      1170    8    0    1
 -2       522       659       660      2780      2784      2782
 -1      1171    8    0    1
 -2       524       523       661      2368      2785      2786
 -1      1172    8    0    1
 -2       523       660       661      2783      2787      2785
 -1      1173    8    0    1
 -2       525       524       662      2371      2788      2789
 -1      1174    8    0    1
 -2       524       661       662      2786      2790      2788
 -1      1175    8    0    1
 -2       526       525       663      2374      2791      2792
 -1      1176    8    0    1
 -2       525       662       663      2789      2793      2791
 -1      1177    8    0    1
 -2       609       569       566      2617      2794      2616
 -1      1178    8    0    1
 -2       600       601       664      2623      2795      2796
 -1      1179    8    0    1
 -2       552       585       591      2610      2634      2797
 -1      1180    8    0    1
 -2       528       529       665      2381      2798      2799
 -1      1181    8    0    1
 -2       531       532       666      2390      2800      2801
 -1      1182    8    0    1
 -2       532       533       667      2393      2802      2803
 -1      1183    8    0    1
 -2       532       667       666      2803      2804      2800
 -1      1184    8    0    1
 -2       533       534       668      2396      2805      2806
 -1      1185    8    0    1
 -2       533       668       667      2806      2807      2802
 -1      1186    8    0    1
 -2       534       535       669      2399      2808      2809
 -1      1187    8    0    1
 -2       534       669       668      2809      2810      2805
 -1      1188    8    0    1
 -2       535       536       670      2402      2811      2812
 -1      1189    8    0    1
 -2       535       670       669      2812      2813      2808
 -1      1190    8    0    1
 -2       536       537       671      2405      2814      2815
 -1      1191    8    0    1
 -2       536       671       670      2815      2816      2811
 -1      1192    8    0    1
 -2       537       538       672      2408      2817      2818
 -1      1193    8    0    1
 -2       537       672       671      2818      2819      2814
 -1      1194    8    0    1
 -2       538       539       673      2411      2820      2821
 -1      1195    8    0    1
 -2       538       673       672      2821      2822      2817
 -1      1196    8    0    1
 -2       539       540       674      2414      2823      2824
 -1      1197    8    0    1
 -2       539       674       673      2824      2825      2820
 -1      1198    8    0    1
 -2       540       541       675      2417      2826      2827
 -1      1199    8    0    1
 -2       540       675       674      2827      2828      2823
 -1      1200    8    0    1
 -2       541       542       676      2420      2829      2830
 -1      1201    8    0    1
 -2       541       676       675      2830      2831      2826
 -1      1202    8    0    1
 -2       542       543       677      2423      2832      2833
 -1      1203    8    0    1
 -2       542       677       676      2833      2834      2829
 -1      1204    8    0    1
 -2       543       544       678      2426      2835      2836
 -1      1205    8    0    1
 -2       543       678       677      2836      2837      2832
 -1      1206    8    0    1
 -2       544       545       679      2429      2838      2839
 -1      1207    8    0    1
 -2       544       679       678      2839      2840      2835
 -1      1208    8    0    1
 -2       545       546       680      2432      2841      2842
 -1      1209    8    0    1
 -2       545       680       679      2842      2843      2838
 -1      1210    8    0    1
 -2       546       547       681      2435      2844      2845
 -1      1211    8    0    1
 -2       546       681       680      2845      2846      2841
 -1      1212    8    0    1
 -2       547       548       682      2438      2847      2848
 -1      1213    8    0    1
 -2       547       682       681      2848      2849      2844
 -1      1214    8    0    1
 -2       548       549       683      2441      2850      2851
 -1      1215    8    0    1
 -2       548       683       682      2851      2852      2847
 -1      1216    8    0    1
 -2       549       550       684      2444      2853      2854
 -1      1217    8    0    1
 -2       549       684       683      2854      2855      2850
 -1      1218    8    0    1
 -2       550       551       685      2447      2856      2857
 -1      1219    8    0    1
 -2       550       685       684      2857      2858      2853
 -1      1220    8    0    1
 -2       551       552       686      2450      2859      2860
 -1      1221    8    0    1
 -2       685       551       686      2856      2860      2861
 -1      1222    8    0    1
 -2       552       591       686      2797      2862      2859
 -1      1223    8    0    1
 -2       610       526       687      2645      2863      2864
 -1      1224    8    0    1
 -2       577       610       687      2621      2864      2865
 -1      1225    8    0    1
 -2       526       663       687      2792      2866      2863
 -1      1226    8    0    1
 -2       553       410       554      2451      2454      2867
 -1      1227    8    0    1
 -2       601       602       688      2618      2868      2869
 -1      1228    8    0    1
 -2       556       557       618      2465      2870      2871
 -1      1229    8    0    1
 -2       483       556       583      2462      2872      2636
 -1      1230    8    0    1
 -2       558       559       689      2471      2873      2874
 -1      1231    8    0    1
 -2       559       560       690      2474      2875      2876
 -1      1232    8    0    1
 -2       559       690       689      2876      2877      2873
 -1      1233    8    0    1
 -2       560       561       691      2477      2878      2879
 -1      1234    8    0    1
 -2       560       691       690      2879      2880      2875
 -1      1235    8    0    1
 -2       561       562       692      2480      2881      2882
 -1      1236    8    0    1
 -2       561       692       691      2882      2883      2878
 -1      1237    8    0    1
 -2       562       563       693      2483      2884      2885
 -1      1238    8    0    1
 -2       562       693       692      2885      2886      2881
 -1      1239    8    0    1
 -2       563       564       694      2486      2887      2888
 -1      1240    8    0    1
 -2       563       694       693      2888      2889      2884
 -1      1241    8    0    1
 -2       564       565       695      2489      2890      2891
 -1      1242    8    0    1
 -2       564       695       694      2891      2892      2887
 -1      1243    8    0    1
 -2       565       566       696      2492      2893      2894
 -1      1244    8    0    1
 -2       565       696       695      2894      2895      2890
 -1      1245    8    0    1
 -2       571       572       697      2510      2896      2897
 -1      1246    8    0    1
 -2       567       568       698      2498      2898      2899
 -1      1247    8    0    1
 -2       572       573       699      2513      2900      2901
 -1      1248    8    0    1
 -2       572       699       697      2901      2902      2896
 -1      1249    8    0    1
 -2       568       571       700      2507      2903      2904
 -1      1250    8    0    1
 -2       698       568       700      2898      2904      2905
 -1      1251    8    0    1
 -2       571       697       700      2897      2906      2903
 -1      1252    8    0    1
 -2       527       580       701      2608      2907      2908
 -1      1253    8    0    1
 -2       573       574       702      2516      2909      2910
 -1      1254    8    0    1
 -2       573       702       699      2910      2911      2900
 -1      1255    8    0    1
 -2       574       575       703      2519      2912      2913
 -1      1256    8    0    1
 -2       574       703       702      2913      2914      2909
 -1      1257    8    0    1
 -2       575       576       704      2522      2915      2916
 -1      1258    8    0    1
 -2       575       704       703      2916      2917      2912
 -1      1259    8    0    1
 -2       576       577       687      2525      2865      2918
 -1      1260    8    0    1
 -2       579       528       705      2531      2919      2920
 -1      1261    8    0    1
 -2       619       579       705      2660      2920      2921
 -1      1262    8    0    1
 -2       528       665       705      2799      2922      2919
 -1      1263    8    0    1
 -2       603       604       706      2604      2923      2924
 -1      1264    8    0    1
 -2       592       597       707      2574      2925      2926
 -1      1265    8    0    1
 -2       602       603       708      2606      2927      2928
 -1      1266    8    0    1
 -2       606       471       479      2594      2929      2626
 -1      1267    8    0    1
 -2       596       592       709      2628      2930      2931
 -1      1268    8    0    1
 -2       557       558       710      2468      2932      2933
 -1      1269    8    0    1
 -2       558       689       710      2874      2934      2932
 -1      1270    8    0    1
 -2       530       531       711      2387      2935      2936
 -1      1271    8    0    1
 -2       531       666       711      2801      2937      2935
 -1      1272    8    0    1
 -2       529       530       712      2384      2938      2939
 -1      1273    8    0    1
 -2       530       711       712      2936      2940      2938
 -1      1274    8    0    1
 -2       482       445       620      2637      2941      2663
 -1      1275    8    0    1
 -2       588       594       713      2638      2942      2943
 -1      1276    8    0    1
 -2       476       477       714      2228      2944      2945
 -1      1277    8    0    1
 -2       613       476       714      2646      2945      2946
 -1      1278    8    0    1
 -2       477       615       714      2652      2947      2944
 -1      1279    8    0    1
 -2       473       472       715      2217      2948      2949
 -1      1280    8    0    1
 -2       605       527       716      2639      2950      2951
 -1      1281    8    0    1
 -2       584       595       717      2635      2952      2953
 -1      1282    8    0    1
 -2       594       584       718      2629      2954      2955
 -1      1283    8    0    1
 -2       591       593       686      2564      2956      2862
 -1      1284    8    0    1
 -2       593       588       719      2630      2957      2958
 -1      1285    8    0    1
 -2       593       719       686      2958      2959      2956
 -1      1286    8    0    1
 -2       595       596       720      2571      2960      2961
 -1      1287    8    0    1
 -2       598       599       721      2643      2962      2963
 -1      1288    8    0    1
 -2       578       605       722      2625      2964      2965
 -1      1289    8    0    1
 -2       605       716       722      2951      2966      2964
 -1      1290    8    0    1
 -2       599       600       723      2624      2967      2968
 -1      1291    8    0    1
 -2       581       578       724      2607      2969      2970
 -1      1292    8    0    1
 -2       566       569       725      2794      2971      2972
 -1      1293    8    0    1
 -2       696       566       725      2893      2972      2973
 -1      1294    8    0    1
 -2       569       570       725      2503      2974      2971
 -1      1295    8    0    1
 -2       583       556       618      2872      2871      2658
 -1      1296    8    0    1
 -2       607       473       726      2596      2975      2976
 -1      1297    8    0    1
 -2       473       715       726      2949      2977      2975
 -1      1298    8    0    1
 -2       474       614       727      2649      2978      2979
 -1      1299    8    0    1
 -2       474       727       586      2979      2980      2547
 -1      1300    8    0    1
 -2       580       618       701      2659      2981      2907
 -1      1301    8    0    1
 -2       608       581       728      2603      2982      2983
 -1      1302    8    0    1
 -2       581       724       728      2970      2984      2982
 -1      1303    8    0    1
 -2       588       713       719      2943      2985      2957
 -1      1304    8    0    1
 -2       664       601       729      2795      2986      2987
 -1      1305    8    0    1
 -2       601       688       729      2869      2988      2986
 -1      1306    8    0    1
 -2       665       529       712      2798      2939      2989
 -1      1307    8    0    1
 -2       688       602       708      2868      2928      2990
 -1      1308    8    0    1
 -2       554       555       589      2457      2991      2992
 -1      1309    8    0    1
 -2       527       701       716      2908      2993      2950
 -1      1310    8    0    1
 -2       600       664       723      2796      2994      2967
 -1      1311    8    0    1
 -2       576       687       704      2918      2995      2915
 -1      1312    8    0    1
 -2       708       603       706      2927      2924      2996
 -1      1313    8    0    1
 -2       707       597       730      2925      2997      2998
 -1      1314    8    0    1
 -2       597       612       730      2641      2999      2997
 -1      1315    8    0    1
 -2       724       578       731      2969      3000      3001
 -1      1316    8    0    1
 -2       578       722       731      2965      3002      3000
 -1      1317    8    0    1
 -2       721       599       723      2962      2968      3003
 -1      1318    8    0    1
 -2       592       707       709      2926      3004      2930
 -1      1319    8    0    1
 -2       554       589       587      2992      2555      3005
 -1      1320    8    0    1
 -2       479       471       617      2929      2657      3006
 -1      1321    8    0    1
 -2       557       710       618      2933      3007      2870
 -1      1322    8    0    1
 -2       718       584       717      2954      2953      3008
 -1      1323    8    0    1
 -2       611       598       732      2631      3009      3010
 -1      1324    8    0    1
 -2       598       721       732      2963      3011      3009
 -1      1325    8    0    1
 -2       717       595       720      2952      2961      3012
 -1      1326    8    0    1
 -2       479       617       616      3006      3013      2653
 -1      1327    8    0    1
 -2       590       449       585      2556      2543      3014
 -1      1328    8    0    1
 -2       570       567       733      2504      3015      3016
 -1      1329    8    0    1
 -2       725       570       733      2974      3016      3017
 -1      1330    8    0    1
 -2       567       698       733      2899      3018      3015
 -1      1331    8    0    1
 -2       472       586       734      2546      3019      3020
 -1      1332    8    0    1
 -2       715       472       734      2948      3020      3021
 -1      1333    8    0    1
 -2       586       727       734      2980      3022      3019
 -1      1334    8    0    1
 -2       706       604       735      2923      3023      3024
 -1      1335    8    0    1
 -2       604       608       735      2602      3025      3023
 -1      1336    8    0    1
 -2       713       594       718      2942      2955      3026
 -1      1337    8    0    1
 -2       470       611       736      2633      3027      3028
 -1      1338    8    0    1
 -2       470       736       612      3028      3029      2642
 -1      1339    8    0    1
 -2       445       607       620      2598      3030      2941
 -1      1340    8    0    1
 -2       720       596       709      2960      2931      3031
 -1      1341    8    0    1
 -2       618       710       701      3007      3032      2981
 -1      1342    8    0    1
 -2       615       616       737      2655      3033      3034
 -1      1343    8    0    1
 -2       553       554       587      2867      3005      3035
 -1      1344    8    0    1
 -2       622       621       738      2670      3036      3037
 -1      1345    8    0    1
 -2       623       622       739      2673      3038      3039
 -1      1346    8    0    1
 -2       622       738       739      3037      3040      3038
 -1      1347    8    0    1
 -2       624       623       740      2676      3041      3042
 -1      1348    8    0    1
 -2       623       739       740      3039      3043      3041
 -1      1349    8    0    1
 -2       625       624       741      2679      3044      3045
 -1      1350    8    0    1
 -2       624       740       741      3042      3046      3044
 -1      1351    8    0    1
 -2       626       625       742      2682      3047      3048
 -1      1352    8    0    1
 -2       625       741       742      3045      3049      3047
 -1      1353    8    0    1
 -2       627       626       743      2685      3050      3051
 -1      1354    8    0    1
 -2       626       742       743      3048      3052      3050
 -1      1355    8    0    1
 -2       628       627       744      2688      3053      3054
 -1      1356    8    0    1
 -2       627       743       744      3051      3055      3053
 -1      1357    8    0    1
 -2       629       628       745      2691      3056      3057
 -1      1358    8    0    1
 -2       628       744       745      3054      3058      3056
 -1      1359    8    0    1
 -2       630       629       746      2694      3059      3060
 -1      1360    8    0    1
 -2       629       745       746      3057      3061      3059
 -1      1361    8    0    1
 -2       631       630       747      2697      3062      3063
 -1      1362    8    0    1
 -2       630       746       747      3060      3064      3062
 -1      1363    8    0    1
 -2       632       631       748      2700      3065      3066
 -1      1364    8    0    1
 -2       631       747       748      3063      3067      3065
 -1      1365    8    0    1
 -2       633       632       749      2703      3068      3069
 -1      1366    8    0    1
 -2       632       748       749      3066      3070      3068
 -1      1367    8    0    1
 -2       634       633       750      2706      3071      3072
 -1      1368    8    0    1
 -2       633       749       750      3069      3073      3071
 -1      1369    8    0    1
 -2       635       634       751      2709      3074      3075
 -1      1370    8    0    1
 -2       634       750       751      3072      3076      3074
 -1      1371    8    0    1
 -2       636       635       752      2712      3077      3078
 -1      1372    8    0    1
 -2       635       751       752      3075      3079      3077
 -1      1373    8    0    1
 -2       637       636       753      2715      3080      3081
 -1      1374    8    0    1
 -2       636       752       753      3078      3082      3080
 -1      1375    8    0    1
 -2       638       637       754      2718      3083      3084
 -1      1376    8    0    1
 -2       637       753       754      3081      3085      3083
 -1      1377    8    0    1
 -2       639       638       755      2721      3086      3087
 -1      1378    8    0    1
 -2       638       754       755      3084      3088      3086
 -1      1379    8    0    1
 -2       640       639       756      2724      3089      3090
 -1      1380    8    0    1
 -2       639       755       756      3087      3091      3089
 -1      1381    8    0    1
 -2       641       640       757      2727      3092      3093
 -1      1382    8    0    1
 -2       640       756       757      3090      3094      3092
 -1      1383    8    0    1
 -2       642       641       758      2730      3095      3096
 -1      1384    8    0    1
 -2       641       757       758      3093      3097      3095
 -1      1385    8    0    1
 -2       643       642       759      2733      3098      3099
 -1      1386    8    0    1
 -2       642       758       759      3096      3100      3098
 -1      1387    8    0    1
 -2       644       643       760      2736      3101      3102
 -1      1388    8    0    1
 -2       643       759       760      3099      3103      3101
 -1      1389    8    0    1
 -2       645       644       761      2739      3104      3105
 -1      1390    8    0    1
 -2       644       760       761      3102      3106      3104
 -1      1391    8    0    1
 -2       646       645       762      2742      3107      3108
 -1      1392    8    0    1
 -2       645       761       762      3105      3109      3107
 -1      1393    8    0    1
 -2       647       646       763      2745      3110      3111
 -1      1394    8    0    1
 -2       646       762       763      3108      3112      3110
 -1      1395    8    0    1
 -2       648       647       764      2748      3113      3114
 -1      1396    8    0    1
 -2       647       763       764      3111      3115      3113
 -1      1397    8    0    1
 -2       649       648       765      2751      3116      3117
 -1      1398    8    0    1
 -2       648       764       765      3114      3118      3116
 -1      1399    8    0    1
 -2       650       649       766      2754      3119      3120
 -1      1400    8    0    1
 -2       649       765       766      3117      3121      3119
 -1      1401    8    0    1
 -2       651       650       767      2757      3122      3123
 -1      1402    8    0    1
 -2       650       766       767      3120      3124      3122
 -1      1403    8    0    1
 -2       652       651       768      2760      3125      3126
 -1      1404    8    0    1
 -2       651       767       768      3123      3127      3125
 -1      1405    8    0    1
 -2       653       652       769      2763      3128      3129
 -1      1406    8    0    1
 -2       652       768       769      3126      3130      3128
 -1      1407    8    0    1
 -2       654       653       770      2766      3131      3132
 -1      1408    8    0    1
 -2       653       769       770      3129      3133      3131
 -1      1409    8    0    1
 -2       655       654       771      2769      3134      3135
 -1      1410    8    0    1
 -2       654       770       771      3132      3136      3134
 -1      1411    8    0    1
 -2       656       655       772      2772      3137      3138
 -1      1412    8    0    1
 -2       655       771       772      3135      3139      3137
 -1      1413    8    0    1
 -2       657       656       773      2775      3140      3141
 -1      1414    8    0    1
 -2       656       772       773      3138      3142      3140
 -1      1415    8    0    1
 -2       658       657       774      2778      3143      3144
 -1      1416    8    0    1
 -2       657       773       774      3141      3145      3143
 -1      1417    8    0    1
 -2       659       658       775      2781      3146      3147
 -1      1418    8    0    1
 -2       658       774       775      3144      3148      3146
 -1      1419    8    0    1
 -2       660       659       776      2784      3149      3150
 -1      1420    8    0    1
 -2       659       775       776      3147      3151      3149
 -1      1421    8    0    1
 -2       661       660       777      2787      3152      3153
 -1      1422    8    0    1
 -2       660       776       777      3150      3154      3152
 -1      1423    8    0    1
 -2       662       661       778      2790      3155      3156
 -1      1424    8    0    1
 -2       661       777       778      3153      3157      3155
 -1      1425    8    0    1
 -2       667       668       779      2807      3158      3159
 -1      1426    8    0    1
 -2       688       708       780      2990      3160      3161
 -1      1427    8    0    1
 -2       666       667       781      2804      3162      3163
 -1      1428    8    0    1
 -2       667       779       781      3159      3164      3162
 -1      1429    8    0    1
 -2       669       670       782      2813      3165      3166
 -1      1430    8    0    1
 -2       670       671       783      2816      3167      3168
 -1      1431    8    0    1
 -2       670       783       782      3168      3169      3165
 -1      1432    8    0    1
 -2       671       672       784      2819      3170      3171
 -1      1433    8    0    1
 -2       671       784       783      3171      3172      3167
 -1      1434    8    0    1
 -2       672       673       785      2822      3173      3174
 -1      1435    8    0    1
 -2       672       785       784      3174      3175      3170
 -1      1436    8    0    1
 -2       673       674       786      2825      3176      3177
 -1      1437    8    0    1
 -2       673       786       785      3177      3178      3173
 -1      1438    8    0    1
 -2       674       675       787      2828      3179      3180
 -1      1439    8    0    1
 -2       674       787       786      3180      3181      3176
 -1      1440    8    0    1
 -2       675       676       788      2831      3182      3183
 -1      1441    8    0    1
 -2       675       788       787      3183      3184      3179
 -1      1442    8    0    1
 -2       676       677       789      2834      3185      3186
 -1      1443    8    0    1
 -2       676       789       788      3186      3187      3182
 -1      1444    8    0    1
 -2       677       678       790      2837      3188      3189
 -1      1445    8    0    1
 -2       677       790       789      3189      3190      3185
 -1      1446    8    0    1
 -2       678       679       791      2840      3191      3192
 -1      1447    8    0    1
 -2       678       791       790      3192      3193      3188
 -1      1448    8    0    1
 -2       679       680       792      2843      3194      3195
 -1      1449    8    0    1
 -2       679       792       791      3195      3196      3191
 -1      1450    8    0    1
 -2       680       681       793      2846      3197      3198
 -1      1451    8    0    1
 -2       680       793       792      3198      3199      3194
 -1      1452    8    0    1
 -2       681       682       794      2849      3200      3201
 -1      1453    8    0    1
 -2       681       794       793      3201      3202      3197
 -1      1454    8    0    1
 -2       682       683       795      2852      3203      3204
 -1      1455    8    0    1
 -2       682       795       794      3204      3205      3200
 -1      1456    8    0    1
 -2       683       684       796      2855      3206      3207
 -1      1457    8    0    1
 -2       683       796       795      3207      3208      3203
 -1      1458    8    0    1
 -2       685       686       719      2861      2959      3209
 -1      1459    8    0    1
 -2       691       692       797      2883      3210      3211
 -1      1460    8    0    1
 -2       614       613       798      2650      3212      3213
 -1      1461    8    0    1
 -2       589       555       582      2991      3214      2554
 -1      1462    8    0    1
 -2       665       712       799      2989      3215      3216
 -1      1463    8    0    1
 -2       716       701       800      2993      3217      3218
 -1      1464    8    0    1
 -2       701       710       800      3032      3219      3217
 -1      1465    8    0    1
 -2       690       691       801      2880      3220      3221
 -1      1466    8    0    1
 -2       691       797       801      3211      3222      3220
 -1      1467    8    0    1
 -2       689       690       802      2877      3223      3224
 -1      1468    8    0    1
 -2       690       801       802      3221      3225      3223
 -1      1469    8    0    1
 -2       692       693       803      2886      3226      3227
 -1      1470    8    0    1
 -2       692       803       797      3227      3228      3210
 -1      1471    8    0    1
 -2       693       694       804      2889      3229      3230
 -1      1472    8    0    1
 -2       693       804       803      3230      3231      3226
 -1      1473    8    0    1
 -2       694       695       805      2892      3232      3233
 -1      1474    8    0    1
 -2       694       805       804      3233      3234      3229
 -1      1475    8    0    1
 -2       695       696       806      2895      3235      3236
 -1      1476    8    0    1
 -2       695       806       805      3236      3237      3232
 -1      1477    8    0    1
 -2       697       699       807      2902      3238      3239
 -1      1478    8    0    1
 -2       703       704       808      2917      3240      3241
 -1      1479    8    0    1
 -2       699       702       809      2911      3242      3243
 -1      1480    8    0    1
 -2       699       809       807      3243      3244      3238
 -1      1481    8    0    1
 -2       708       706       810      2996      3245      3246
 -1      1482    8    0    1
 -2       722       716       811      2966      3247      3248
 -1      1483    8    0    1
 -2       710       689       800      2934      3249      3219
 -1      1484    8    0    1
 -2       702       703       812      2914      3250      3251
 -1      1485    8    0    1
 -2       809       702       812      3242      3251      3252
 -1      1486    8    0    1
 -2       703       808       812      3241      3253      3250
 -1      1487    8    0    1
 -2       668       669       813      2810      3254      3255
 -1      1488    8    0    1
 -2       779       668       813      3158      3255      3256
 -1      1489    8    0    1
 -2       669       782       813      3166      3257      3254
 -1      1490    8    0    1
 -2       711       666       814      2937      3258      3259
 -1      1491    8    0    1
 -2       666       781       814      3163      3260      3258
 -1      1492    8    0    1
 -2       555       412       483      2455      2459      3261
 -1      1493    8    0    1
 -2       712       711       815      2940      3262      3263
 -1      1494    8    0    1
 -2       799       712       815      3215      3263      3264
 -1      1495    8    0    1
 -2       711       814       815      3259      3265      3262
 -1      1496    8    0    1
 -2       723       664       816      2994      3266      3267
 -1      1497    8    0    1
 -2       709       707       817      3004      3268      3269
 -1      1498    8    0    1
 -2       616       617       818      3013      3270      3271
 -1      1499    8    0    1
 -2       737       616       818      3033      3271      3272
 -1      1500    8    0    1
 -2       617       619       818      2662      3273      3270
 -1      1501    8    0    1
 -2       720       709       819      3031      3274      3275
 -1      1502    8    0    1
 -2       717       720       820      3012      3276      3277
 -1      1503    8    0    1
 -2       620       607       726      3030      2976      3278
 -1      1504    8    0    1
 -2       587       590       553      2595      3279      3035
 -1      1505    8    0    1
 -2       685       719       821      3209      3280      3281
 -1      1506    8    0    1
 -2       684       685       821      2858      3281      3282
 -1      1507    8    0    1
 -2       719       713       821      2985      3283      3280
 -1      1508    8    0    1
 -2       721       723       822      3003      3284      3285
 -1      1509    8    0    1
 -2       723       816       822      3267      3286      3284
 -1      1510    8    0    1
 -2       718       717       823      3008      3287      3288
 -1      1511    8    0    1
 -2       727       614       824      2978      3289      3290
 -1      1512    8    0    1
 -2       614       798       824      3213      3291      3289
 -1      1513    8    0    1
 -2       819       709       817      3274      3269      3292
 -1      1514    8    0    1
 -2       684       821       796      3282      3293      3206
 -1      1515    8    0    1
 -2       728       724       825      2984      3294      3295
 -1      1516    8    0    1
 -2       724       731       825      3001      3296      3294
 -1      1517    8    0    1
 -2       720       819       820      3275      3297      3276
 -1      1518    8    0    1
 -2       729       688       826      2988      3298      3299
 -1      1519    8    0    1
 -2       688       780       826      3161      3300      3298
 -1      1520    8    0    1
 -2       718       823       827      3288      3301      3302
 -1      1521    8    0    1
 -2       706       735       828      3024      3303      3304
 -1      1522    8    0    1
 -2       706       828       810      3304      3305      3245
 -1      1523    8    0    1
 -2       663       662       829      2793      3306      3307
 -1      1524    8    0    1
 -2       718       827       713      3302      3308      3026
 -1      1525    8    0    1
 -2       619       705       830      2921      3309      3310
 -1      1526    8    0    1
 -2       619       830       818      3310      3311      3273
 -1      1527    8    0    1
 -2       798       613       831      3212      3312      3313
 -1      1528    8    0    1
 -2       613       714       831      2946      3314      3312
 -1      1529    8    0    1
 -2       689       802       800      3224      3315      3249
 -1      1530    8    0    1
 -2       608       728       832      2983      3316      3317
 -1      1531    8    0    1
 -2       608       832       735      3317      3318      3025
 -1      1532    8    0    1
 -2       816       664       833      3266      3319      3320
 -1      1533    8    0    1
 -2       664       729       833      2987      3321      3319
 -1      1534    8    0    1
 -2       726       715       834      2977      3322      3323
 -1      1535    8    0    1
 -2       716       800       811      3218      3324      3247
 -1      1536    8    0    1
 -2       697       807       835      3239      3325      3326
 -1      1537    8    0    1
 -2       697       835       700      3326      3327      2906
 -1      1538    8    0    1
 -2       806       696       725      3235      2973      3328
 -1      1539    8    0    1
 -2       708       810       780      3246      3329      3160
 -1      1540    8    0    1
 -2       698       700       836      2905      3330      3331
 -1      1541    8    0    1
 -2       700       835       836      3327      3332      3330
 -1      1542    8    0    1
 -2       715       734       837      3021      3333      3334
 -1      1543    8    0    1
 -2       715       837       834      3334      3335      3322
 -1      1544    8    0    1
 -2       722       811       838      3248      3336      3337
 -1      1545    8    0    1
 -2       722       838       731      3337      3338      3002
 -1      1546    8    0    1
 -2       730       612       839      2999      3339      3340
 -1      1547    8    0    1
 -2       612       736       839      3029      3341      3339
 -1      1548    8    0    1
 -2       705       665       840      2922      3342      3343
 -1      1549    8    0    1
 -2       830       705       840      3309      3343      3344
 -1      1550    8    0    1
 -2       665       799       840      3216      3345      3342
 -1      1551    8    0    1
 -2       662       778       829      3156      3346      3306
 -1      1552    8    0    1
 -2       732       721       841      3011      3347      3348
 -1      1553    8    0    1
 -2       721       822       841      3285      3349      3347
 -1      1554    8    0    1
 -2       615       737       842      3034      3350      3351
 -1      1555    8    0    1
 -2       615       842       714      3351      3352      2947
 -1      1556    8    0    1
 -2       707       730       843      2998      3353      3354
 -1      1557    8    0    1
 -2       707       843       817      3354      3355      3268
 -1      1558    8    0    1
 -2       733       698       844      3018      3356      3357
 -1      1559    8    0    1
 -2       698       836       844      3331      3358      3356
 -1      1560    8    0    1
 -2       808       704       829      3240      3359      3360
 -1      1561    8    0    1
 -2       621       620       726      2667      3278      3361
 -1      1562    8    0    1
 -2       736       611       845      3027      3362      3363
 -1      1563    8    0    1
 -2       611       732       845      3010      3364      3362
 -1      1564    8    0    1
 -2       717       820       846      3277      3365      3366
 -1      1565    8    0    1
 -2       717       846       823      3366      3367      3287
 -1      1566    8    0    1
 -2       821       713       827      3283      3308      3368
 -1      1567    8    0    1
 -2       704       687       829      2995      3369      3359
 -1      1568    8    0    1
 -2       621       726       738      3361      3370      3036
 -1      1569    8    0    1
 -2       827       823       847      3301      3371      3372
 -1      1570    8    0    1
 -2       740       739       848      3043      3373      3374
 -1      1571    8    0    1
 -2       741       740       849      3046      3375      3376
 -1      1572    8    0    1
 -2       740       848       849      3374      3377      3375
 -1      1573    8    0    1
 -2       742       741       850      3049      3378      3379
 -1      1574    8    0    1
 -2       741       849       850      3376      3380      3378
 -1      1575    8    0    1
 -2       743       742       851      3052      3381      3382
 -1      1576    8    0    1
 -2       742       850       851      3379      3383      3381
 -1      1577    8    0    1
 -2       744       743       852      3055      3384      3385
 -1      1578    8    0    1
 -2       743       851       852      3382      3386      3384
 -1      1579    8    0    1
 -2       745       744       853      3058      3387      3388
 -1      1580    8    0    1
 -2       744       852       853      3385      3389      3387
 -1      1581    8    0    1
 -2       746       745       854      3061      3390      3391
 -1      1582    8    0    1
 -2       745       853       854      3388      3392      3390
 -1      1583    8    0    1
 -2       747       746       855      3064      3393      3394
 -1      1584    8    0    1
 -2       746       854       855      3391      3395      3393
 -1      1585    8    0    1
 -2       748       747       856      3067      3396      3397
 -1      1586    8    0    1
 -2       747       855       856      3394      3398      3396
 -1      1587    8    0    1
 -2       749       748       857      3070      3399      3400
 -1      1588    8    0    1
 -2       748       856       857      3397      3401      3399
 -1      1589    8    0    1
 -2       750       749       858      3073      3402      3403
 -1      1590    8    0    1
 -2       749       857       858      3400      3404      3402
 -1      1591    8    0    1
 -2       751       750       859      3076      3405      3406
 -1      1592    8    0    1
 -2       750       858       859      3403      3407      3405
 -1      1593    8    0    1
 -2       752       751       860      3079      3408      3409
 -1      1594    8    0    1
 -2       751       859       860      3406      3410      3408
 -1      1595    8    0    1
 -2       753       752       861      3082      3411      3412
 -1      1596    8    0    1
 -2       752       860       861      3409      3413      3411
 -1      1597    8    0    1
 -2       754       753       862      3085      3414      3415
 -1      1598    8    0    1
 -2       753       861       862      3412      3416      3414
 -1      1599    8    0    1
 -2       755       754       863      3088      3417      3418
 -1      1600    8    0    1
 -2       754       862       863      3415      3419      3417
 -1      1601    8    0    1
 -2       756       755       864      3091      3420      3421
 -1      1602    8    0    1
 -2       755       863       864      3418      3422      3420
 -1      1603    8    0    1
 -2       757       756       865      3094      3423      3424
 -1      1604    8    0    1
 -2       756       864       865      3421      3425      3423
 -1      1605    8    0    1
 -2       758       757       866      3097      3426      3427
 -1      1606    8    0    1
 -2       757       865       866      3424      3428      3426
 -1      1607    8    0    1
 -2       759       758       867      3100      3429      3430
 -1      1608    8    0    1
 -2       758       866       867      3427      3431      3429
 -1      1609    8    0    1
 -2       760       759       868      3103      3432      3433
 -1      1610    8    0    1
 -2       759       867       868      3430      3434      3432
 -1      1611    8    0    1
 -2       761       760       869      3106      3435      3436
 -1      1612    8    0    1
 -2       760       868       869      3433      3437      3435
 -1      1613    8    0    1
 -2       762       761       870      3109      3438      3439
 -1      1614    8    0    1
 -2       761       869       870      3436      3440      3438
 -1      1615    8    0    1
 -2       763       762       871      3112      3441      3442
 -1      1616    8    0    1
 -2       762       870       871      3439      3443      3441
 -1      1617    8    0    1
 -2       764       763       872      3115      3444      3445
 -1      1618    8    0    1
 -2       763       871       872      3442      3446      3444
 -1      1619    8    0    1
 -2       765       764       873      3118      3447      3448
 -1      1620    8    0    1
 -2       764       872       873      3445      3449      3447
 -1      1621    8    0    1
 -2       766       765       841      3121      3450      3451
 -1      1622    8    0    1
 -2       767       766       816      3124      3452      3453
 -1      1623    8    0    1
 -2       769       768       874      3130      3454      3455
 -1      1624    8    0    1
 -2       770       769       875      3133      3456      3457
 -1      1625    8    0    1
 -2       769       874       875      3455      3458      3456
 -1      1626    8    0    1
 -2       771       770       876      3136      3459      3460
 -1      1627    8    0    1
 -2       770       875       876      3457      3461      3459
 -1      1628    8    0    1
 -2       772       771       877      3139      3462      3463
 -1      1629    8    0    1
 -2       771       876       877      3460      3464      3462
 -1      1630    8    0    1
 -2       773       772       878      3142      3465      3466
 -1      1631    8    0    1
 -2       772       877       878      3463      3467      3465
 -1      1632    8    0    1
 -2       774       773       879      3145      3468      3469
 -1      1633    8    0    1
 -2       773       878       879      3466      3470      3468
 -1      1634    8    0    1
 -2       775       774       880      3148      3471      3472
 -1      1635    8    0    1
 -2       774       879       880      3469      3473      3471
 -1      1636    8    0    1
 -2       776       775       881      3151      3474      3475
 -1      1637    8    0    1
 -2       775       880       881      3472      3476      3474
 -1      1638    8    0    1
 -2       777       776       882      3154      3477      3478
 -1      1639    8    0    1
 -2       776       881       882      3475      3479      3477
 -1      1640    8    0    1
 -2       778       777       883      3157      3480      3481
 -1      1641    8    0    1
 -2       777       882       883      3478      3482      3480
 -1      1642    8    0    1
 -2       814       781       884      3260      3483      3484
 -1      1643    8    0    1
 -2       555       483       582      3261      2605      3214
 -1      1644    8    0    1
 -2       783       784       885      3172      3485      3486
 -1      1645    8    0    1
 -2       782       783       886      3169      3487      3488
 -1      1646    8    0    1
 -2       783       885       886      3486      3489      3487
 -1      1647    8    0    1
 -2       785       786       887      3178      3490      3491
 -1      1648    8    0    1
 -2       786       787       888      3181      3492      3493
 -1      1649    8    0    1
 -2       786       888       887      3493      3494      3490
 -1      1650    8    0    1
 -2       787       788       889      3184      3495      3496
 -1      1651    8    0    1
 -2       787       889       888      3496      3497      3492
 -1      1652    8    0    1
 -2       788       789       890      3187      3498      3499
 -1      1653    8    0    1
 -2       788       890       889      3499      3500      3495
 -1      1654    8    0    1
 -2       789       790       891      3190      3501      3502
 -1      1655    8    0    1
 -2       789       891       890      3502      3503      3498
 -1      1656    8    0    1
 -2       790       791       892      3193      3504      3505
 -1      1657    8    0    1
 -2       790       892       891      3505      3506      3501
 -1      1658    8    0    1
 -2       791       792       893      3196      3507      3508
 -1      1659    8    0    1
 -2       791       893       892      3508      3509      3504
 -1      1660    8    0    1
 -2       792       793       894      3199      3510      3511
 -1      1661    8    0    1
 -2       792       894       893      3511      3512      3507
 -1      1662    8    0    1
 -2       793       794       895      3202      3513      3514
 -1      1663    8    0    1
 -2       793       895       894      3514      3515      3510
 -1      1664    8    0    1
 -2       794       795       896      3205      3516      3517
 -1      1665    8    0    1
 -2       794       896       895      3517      3518      3513
 -1      1666    8    0    1
 -2       795       796       897      3208      3519      3520
 -1      1667    8    0    1
 -2       795       897       896      3520      3521      3516
 -1      1668    8    0    1
 -2       803       804       898      3231      3522      3523
 -1      1669    8    0    1
 -2       819       817       899      3292      3524      3525
 -1      1670    8    0    1
 -2       811       800       900      3324      3526      3527
 -1      1671    8    0    1
 -2       838       811       900      3336      3527      3528
 -1      1672    8    0    1
 -2       800       802       900      3315      3529      3526
 -1      1673    8    0    1
 -2       801       797       901      3222      3530      3531
 -1      1674    8    0    1
 -2       802       801       902      3225      3532      3533
 -1      1675    8    0    1
 -2       801       901       902      3531      3534      3532
 -1      1676    8    0    1
 -2       804       805       903      3234      3535      3536
 -1      1677    8    0    1
 -2       804       903       898      3536      3537      3522
 -1      1678    8    0    1
 -2       806       725       733      3328      3017      3538
 -1      1679    8    0    1
 -2       807       809       904      3244      3539      3540
 -1      1680    8    0    1
 -2       734       727       905      3022      3541      3542
 -1      1681    8    0    1
 -2       734       905       837      3542      3543      3333
 -1      1682    8    0    1
 -2       738       726       834      3370      3323      3544
 -1      1683    8    0    1
 -2       784       785       906      3175      3545      3546
 -1      1684    8    0    1
 -2       885       784       906      3485      3546      3547
 -1      1685    8    0    1
 -2       785       887       906      3491      3548      3545
 -1      1686    8    0    1
 -2       796       821       827      3293      3368      3549
 -1      1687    8    0    1
 -2       737       818       907      3272      3550      3551
 -1      1688    8    0    1
 -2       818       830       907      3311      3552      3550
 -1      1689    8    0    1
 -2       781       779       908      3164      3553      3554
 -1      1690    8    0    1
 -2       781       908       884      3554      3555      3483
 -1      1691    8    0    1
 -2       829       778       808      3346      3556      3360
 -1      1692    8    0    1
 -2       739       738       909      3040      3557      3558
 -1      1693    8    0    1
 -2       848       739       909      3373      3558      3559
 -1      1694    8    0    1
 -2       738       834       909      3544      3560      3557
 -1      1695    8    0    1
 -2       553       590       585      3279      3014      2644
 -1      1696    8    0    1
 -2       780       810       910      3329      3561      3562
 -1      1697    8    0    1
 -2       797       803       911      3228      3563      3564
 -1      1698    8    0    1
 -2       803       898       911      3523      3565      3563
 -1      1699    8    0    1
 -2       820       819       912      3297      3566      3567
 -1      1700    8    0    1
 -2       767       816       833      3453      3320      3568
 -1      1701    8    0    1
 -2       808       778       883      3556      3481      3569
 -1      1702    8    0    1
 -2       806       733       844      3538      3357      3570
 -1      1703    8    0    1
 -2       825       731       913      3296      3571      3572
 -1      1704    8    0    1
 -2       731       838       913      3338      3573      3571
 -1      1705    8    0    1
 -2       828       735       914      3303      3574      3575
 -1      1706    8    0    1
 -2       735       832       914      3318      3576      3574
 -1      1707    8    0    1
 -2       826       780       910      3300      3562      3577
 -1      1708    8    0    1
 -2       810       828       915      3305      3578      3579
 -1      1709    8    0    1
 -2       810       915       910      3579      3580      3561
 -1      1710    8    0    1
 -2       732       841       873      3348      3581      3582
 -1      1711    8    0    1
 -2       765       873       841      3448      3581      3450
 -1      1712    8    0    1
 -2       814       884       916      3484      3583      3584
 -1      1713    8    0    1
 -2       814       916       815      3584      3585      3265
 -1      1714    8    0    1
 -2       768       767       833      3127      3568      3586
 -1      1715    8    0    1
 -2       806       844       917      3570      3587      3588
 -1      1716    8    0    1
 -2       805       806       917      3237      3588      3589
 -1      1717    8    0    1
 -2       844       836       917      3358      3590      3587
 -1      1718    8    0    1
 -2       874       768       833      3454      3586      3591
 -1      1719    8    0    1
 -2       831       714       842      3314      3352      3592
 -1      1720    8    0    1
 -2       782       886       918      3488      3593      3594
 -1      1721    8    0    1
 -2       782       918       813      3594      3595      3257
 -1      1722    8    0    1
 -2       820       912       919      3567      3596      3597
 -1      1723    8    0    1
 -2       820       919       846      3597      3598      3365
 -1      1724    8    0    1
 -2       897       796       847      3519      3599      3600
 -1      1725    8    0    1
 -2       824       798       920      3291      3601      3602
 -1      1726    8    0    1
 -2       728       825       921      3295      3603      3604
 -1      1727    8    0    1
 -2       728       921       832      3604      3605      3316
 -1      1728    8    0    1
 -2       822       816       766      3286      3452      3606
 -1      1729    8    0    1
 -2       819       899       912      3525      3607      3566
 -1      1730    8    0    1
 -2       687       663       829      2866      3307      3369
 -1      1731    8    0    1
 -2       917       836       922      3590      3608      3609
 -1      1732    8    0    1
 -2       920       798       923      3601      3610      3611
 -1      1733    8    0    1
 -2       798       831       923      3313      3612      3610
 -1      1734    8    0    1
 -2       847       796       827      3599      3549      3372
 -1      1735    8    0    1
 -2       833       729       874      3321      3613      3591
 -1      1736    8    0    1
 -2       835       807       924      3325      3614      3615
 -1      1737    8    0    1
 -2       807       904       924      3540      3616      3614
 -1      1738    8    0    1
 -2       802       902       900      3533      3617      3529
 -1      1739    8    0    1
 -2       903       805       917      3535      3589      3618
 -1      1740    8    0    1
 -2       905       727       824      3541      3290      3619
 -1      1741    8    0    1
 -2       899       817       925      3524      3620      3621
 -1      1742    8    0    1
 -2       817       843       925      3355      3622      3620
 -1      1743    8    0    1
 -2       836       835       922      3332      3623      3608
 -1      1744    8    0    1
 -2       901       797       911      3530      3564      3624
 -1      1745    8    0    1
 -2       779       813       926      3256      3625      3626
 -1      1746    8    0    1
 -2       813       918       926      3595      3627      3625
 -1      1747    8    0    1
 -2       904       809       927      3539      3628      3629
 -1      1748    8    0    1
 -2       809       812       927      3252      3630      3628
 -1      1749    8    0    1
 -2       839       736       928      3341      3631      3632
 -1      1750    8    0    1
 -2       736       845       928      3363      3633      3631
 -1      1751    8    0    1
 -2       840       799       929      3345      3634      3635
 -1      1752    8    0    1
 -2       730       839       930      3340      3636      3637
 -1      1753    8    0    1
 -2       730       930       843      3637      3638      3353
 -1      1754    8    0    1
 -2       842       737       907      3350      3551      3639
 -1      1755    8    0    1
 -2       834       837       931      3335      3640      3641
 -1      1756    8    0    1
 -2       834       931       909      3641      3642      3560
 -1      1757    8    0    1
 -2       812       808       932      3253      3643      3644
 -1      1758    8    0    1
 -2       927       812       932      3630      3644      3645
 -1      1759    8    0    1
 -2       808       883       932      3569      3646      3643
 -1      1760    8    0    1
 -2       847       823       846      3371      3367      3647
 -1      1761    8    0    1
 -2       799       815       933      3264      3648      3649
 -1      1762    8    0    1
 -2       815       916       933      3585      3650      3648
 -1      1763    8    0    1
 -2       845       732       873      3364      3582      3651
 -1      1764    8    0    1
 -2       908       779       926      3553      3626      3652
 -1      1765    8    0    1
 -2       799       933       929      3649      3653      3634
 -1      1766    8    0    1
 -2       729       826       874      3299      3654      3613
 -1      1767    8    0    1
 -2       850       849       934      3380      3655      3656
 -1      1768    8    0    1
 -2       851       850       935      3383      3657      3658
 -1      1769    8    0    1
 -2       850       934       935      3656      3659      3657
 -1      1770    8    0    1
 -2       852       851       936      3386      3660      3661
 -1      1771    8    0    1
 -2       851       935       936      3658      3662      3660
 -1      1772    8    0    1
 -2       853       852       937      3389      3663      3664
 -1      1773    8    0    1
 -2       852       936       937      3661      3665      3663
 -1      1774    8    0    1
 -2       854       853       938      3392      3666      3667
 -1      1775    8    0    1
 -2       853       937       938      3664      3668      3666
 -1      1776    8    0    1
 -2       855       854       939      3395      3669      3670
 -1      1777    8    0    1
 -2       854       938       939      3667      3671      3669
 -1      1778    8    0    1
 -2       856       855       940      3398      3672      3673
 -1      1779    8    0    1
 -2       855       939       940      3670      3674      3672
 -1      1780    8    0    1
 -2       857       856       941      3401      3675      3676
 -1      1781    8    0    1
 -2       856       940       941      3673      3677      3675
 -1      1782    8    0    1
 -2       858       857       942      3404      3678      3679
 -1      1783    8    0    1
 -2       857       941       942      3676      3680      3678
 -1      1784    8    0    1
 -2       859       858       943      3407      3681      3682
 -1      1785    8    0    1
 -2       858       942       943      3679      3683      3681
 -1      1786    8    0    1
 -2       860       859       944      3410      3684      3685
 -1      1787    8    0    1
 -2       859       943       944      3682      3686      3684
 -1      1788    8    0    1
 -2       861       860       945      3413      3687      3688
 -1      1789    8    0    1
 -2       860       944       945      3685      3689      3687
 -1      1790    8    0    1
 -2       862       861       946      3416      3690      3691
 -1      1791    8    0    1
 -2       861       945       946      3688      3692      3690
 -1      1792    8    0    1
 -2       863       862       947      3419      3693      3694
 -1      1793    8    0    1
 -2       862       946       947      3691      3695      3693
 -1      1794    8    0    1
 -2       864       863       948      3422      3696      3697
 -1      1795    8    0    1
 -2       863       947       948      3694      3698      3696
 -1      1796    8    0    1
 -2       865       864       949      3425      3699      3700
 -1      1797    8    0    1
 -2       864       948       949      3697      3701      3699
 -1      1798    8    0    1
 -2       866       865       950      3428      3702      3703
 -1      1799    8    0    1
 -2       865       949       950      3700      3704      3702
 -1      1800    8    0    1
 -2       867       866       951      3431      3705      3706
 -1      1801    8    0    1
 -2       866       950       951      3703      3707      3705
 -1      1802    8    0    1
 -2       868       867       952      3434      3708      3709
 -1      1803    8    0    1
 -2       867       951       952      3706      3710      3708
 -1      1804    8    0    1
 -2       869       868       953      3437      3711      3712
 -1      1805    8    0    1
 -2       868       952       953      3709      3713      3711
 -1      1806    8    0    1
 -2       870       869       954      3440      3714      3715
 -1      1807    8    0    1
 -2       869       953       954      3712      3716      3714
 -1      1808    8    0    1
 -2       872       871       930      3446      3717      3718
 -1      1809    8    0    1
 -2       873       872       845      3449      3719      3651
 -1      1810    8    0    1
 -2       876       875       910      3461      3720      3721
 -1      1811    8    0    1
 -2       878       877       955      3467      3722      3723
 -1      1812    8    0    1
 -2       879       878       956      3470      3724      3725
 -1      1813    8    0    1
 -2       878       955       956      3723      3726      3724
 -1      1814    8    0    1
 -2       880       879       957      3473      3727      3728
 -1      1815    8    0    1
 -2       879       956       957      3725      3729      3727
 -1      1816    8    0    1
 -2       881       880       958      3476      3730      3731
 -1      1817    8    0    1
 -2       880       957       958      3728      3732      3730
 -1      1818    8    0    1
 -2       882       881       959      3479      3733      3734
 -1      1819    8    0    1
 -2       881       958       959      3731      3735      3733
 -1      1820    8    0    1
 -2       883       882       960      3482      3736      3737
 -1      1821    8    0    1
 -2       932       883       960      3646      3737      3738
 -1      1822    8    0    1
 -2       882       959       960      3734      3739      3736
 -1      1823    8    0    1
 -2       889       890       961      3500      3740      3741
 -1      1824    8    0    1
 -2       917       922       903      3609      3742      3618
 -1      1825    8    0    1
 -2       886       885       962      3489      3743      3744
 -1      1826    8    0    1
 -2       888       889       963      3497      3745      3746
 -1      1827    8    0    1
 -2       889       961       963      3741      3747      3745
 -1      1828    8    0    1
 -2       887       888       964      3494      3748      3749
 -1      1829    8    0    1
 -2       888       963       964      3746      3750      3748
 -1      1830    8    0    1
 -2       890       891       965      3503      3751      3752
 -1      1831    8    0    1
 -2       890       965       961      3752      3753      3740
 -1      1832    8    0    1
 -2       891       892       966      3506      3754      3755
 -1      1833    8    0    1
 -2       891       966       965      3755      3756      3751
 -1      1834    8    0    1
 -2       892       893       967      3509      3757      3758
 -1      1835    8    0    1
 -2       892       967       966      3758      3759      3754
 -1      1836    8    0    1
 -2       893       894       968      3512      3760      3761
 -1      1837    8    0    1
 -2       893       968       967      3761      3762      3757
 -1      1838    8    0    1
 -2       894       895       969      3515      3763      3764
 -1      1839    8    0    1
 -2       894       969       968      3764      3765      3760
 -1      1840    8    0    1
 -2       895       896       970      3518      3766      3767
 -1      1841    8    0    1
 -2       895       970       969      3767      3768      3763
 -1      1842    8    0    1
 -2       896       897       971      3521      3769      3770
 -1      1843    8    0    1
 -2       896       971       970      3770      3771      3766
 -1      1844    8    0    1
 -2       824       920       972      3602      3772      3773
 -1      1845    8    0    1
 -2       824       972       905      3773      3774      3619
 -1      1846    8    0    1
 -2       822       766       841      3606      3451      3349
 -1      1847    8    0    1
 -2       838       900       973      3528      3775      3776
 -1      1848    8    0    1
 -2       900       902       973      3617      3777      3775
 -1      1849    8    0    1
 -2       902       901       974      3534      3778      3779
 -1      1850    8    0    1
 -2       902       974       973      3779      3780      3777
 -1      1851    8    0    1
 -2       837       905       975      3543      3781      3782
 -1      1852    8    0    1
 -2       931       837       975      3640      3782      3783
 -1      1853    8    0    1
 -2       905       972       975      3774      3784      3781
 -1      1854    8    0    1
 -2       901       911       976      3624      3785      3786
 -1      1855    8    0    1
 -2       901       976       974      3786      3787      3778
 -1      1856    8    0    1
 -2       847       846       977      3647      3788      3789
 -1      1857    8    0    1
 -2       874       826       875      3654      3790      3458
 -1      1858    8    0    1
 -2       826       910       875      3577      3720      3790
 -1      1859    8    0    1
 -2       842       907       978      3639      3791      3792
 -1      1860    8    0    1
 -2       831       842       978      3592      3792      3793
 -1      1861    8    0    1
 -2       922       835       924      3623      3615      3794
 -1      1862    8    0    1
 -2       897       847       977      3600      3789      3795
 -1      1863    8    0    1
 -2       898       903       979      3537      3796      3797
 -1      1864    8    0    1
 -2       907       830       980      3552      3798      3799
 -1      1865    8    0    1
 -2       978       907       980      3791      3799      3800
 -1      1866    8    0    1
 -2       830       840       980      3344      3801      3798
 -1      1867    8    0    1
 -2       848       909       981      3559      3802      3803
 -1      1868    8    0    1
 -2       909       931       981      3642      3804      3802
 -1      1869    8    0    1
 -2       912       899       982      3607      3805      3806
 -1      1870    8    0    1
 -2       840       929       980      3635      3807      3801
 -1      1871    8    0    1
 -2       849       848       983      3377      3808      3809
 -1      1872    8    0    1
 -2       934       849       983      3655      3809      3810
 -1      1873    8    0    1
 -2       848       981       983      3803      3811      3808
 -1      1874    8    0    1
 -2       911       898       984      3565      3812      3813
 -1      1875    8    0    1
 -2       898       979       984      3797      3814      3812
 -1      1876    8    0    1
 -2       908       926       985      3652      3815      3816
 -1      1877    8    0    1
 -2       929       933       986      3653      3817      3818
 -1      1878    8    0    1
 -2       884       908       987      3555      3819      3820
 -1      1879    8    0    1
 -2       908       985       987      3816      3821      3819
 -1      1880    8    0    1
 -2       876       910       915      3721      3580      3822
 -1      1881    8    0    1
 -2       903       922       979      3742      3823      3796
 -1      1882    8    0    1
 -2       914       832       988      3576      3824      3825
 -1      1883    8    0    1
 -2       832       921       988      3605      3826      3824
 -1      1884    8    0    1
 -2       916       884       989      3583      3827      3828
 -1      1885    8    0    1
 -2       884       987       989      3820      3829      3827
 -1      1886    8    0    1
 -2       871       870       990      3443      3830      3831
 -1      1887    8    0    1
 -2       920       923       991      3611      3832      3833
 -1      1888    8    0    1
 -2       887       964       992      3749      3834      3835
 -1      1889    8    0    1
 -2       887       992       906      3835      3836      3548
 -1      1890    8    0    1
 -2       877       876       993      3464      3837      3838
 -1      1891    8    0    1
 -2       962       885       994      3743      3839      3840
 -1      1892    8    0    1
 -2       885       906       994      3547      3841      3839
 -1      1893    8    0    1
 -2       918       886       995      3593      3842      3843
 -1      1894    8    0    1
 -2       886       962       995      3744      3844      3842
 -1      1895    8    0    1
 -2       919       912       996      3596      3845      3846
 -1      1896    8    0    1
 -2       912       982       996      3806      3847      3845
 -1      1897    8    0    1
 -2       971       897       977      3769      3795      3848
 -1      1898    8    0    1
 -2       972       920       997      3772      3849      3850
 -1      1899    8    0    1
 -2       920       991       997      3833      3851      3849
 -1      1900    8    0    1
 -2       913       838       973      3573      3776      3852
 -1      1901    8    0    1
 -2       923       831       978      3612      3793      3853
 -1      1902    8    0    1
 -2       924       904       998      3616      3854      3855
 -1      1903    8    0    1
 -2       925       843       999      3622      3856      3857
 -1      1904    8    0    1
 -2       843       930       999      3638      3858      3856
 -1      1905    8    0    1
 -2       921       825      1000      3603      3859      3860
 -1      1906    8    0    1
 -2       825       913      1000      3572      3861      3859
 -1      1907    8    0    1
 -2       926       918      1001      3627      3862      3863
 -1      1908    8    0    1
 -2       985       926      1001      3815      3863      3864
 -1      1909    8    0    1
 -2       918       995      1001      3843      3865      3862
 -1      1910    8    0    1
 -2       977       846       919      3788      3598      3866
 -1      1911    8    0    1
 -2       922       924      1002      3794      3867      3868
 -1      1912    8    0    1
 -2       979       922      1002      3823      3868      3869
 -1      1913    8    0    1
 -2       924       998      1002      3855      3870      3867
 -1      1914    8    0    1
 -2       976       911       984      3785      3813      3871
 -1      1915    8    0    1
 -2       877       993       955      3838      3872      3722
 -1      1916    8    0    1
 -2       933       916      1003      3650      3873      3874
 -1      1917    8    0    1
 -2       916       989      1003      3828      3875      3873
 -1      1918    8    0    1
 -2       933      1003       986      3874      3876      3817
 -1      1919    8    0    1
 -2       982       899      1004      3805      3877      3878
 -1      1920    8    0    1
 -2       899       925      1004      3621      3879      3877
 -1      1921    8    0    1
 -2       980       929      1005      3807      3880      3881
 -1      1922    8    0    1
 -2       978       980      1005      3800      3881      3882
 -1      1923    8    0    1
 -2       929       986      1005      3818      3883      3880
 -1      1924    8    0    1
 -2       904       927      1006      3629      3884      3885
 -1      1925    8    0    1
 -2       904      1006       998      3885      3886      3854
 -1      1926    8    0    1
 -2       990       870       954      3830      3715      3887
 -1      1927    8    0    1
 -2       915       828      1007      3578      3888      3889
 -1      1928    8    0    1
 -2      1007       828       914      3888      3575      3890
 -1      1929    8    0    1
 -2      1007       914      1008      3890      3891      3892
 -1      1930    8    0    1
 -2       914       988      1008      3825      3893      3891
 -1      1931    8    0    1
 -2       872       930       839      3718      3636      3894
 -1      1932    8    0    1
 -2       936       935      1009      3662      3895      3896
 -1      1933    8    0    1
 -2       937       936      1010      3665      3897      3898
 -1      1934    8    0    1
 -2       936      1009      1010      3896      3899      3897
 -1      1935    8    0    1
 -2       938       937      1011      3668      3900      3901
 -1      1936    8    0    1
 -2       937      1010      1011      3898      3902      3900
 -1      1937    8    0    1
 -2       939       938      1012      3671      3903      3904
 -1      1938    8    0    1
 -2       938      1011      1012      3901      3905      3903
 -1      1939    8    0    1
 -2       940       939      1013      3674      3906      3907
 -1      1940    8    0    1
 -2       939      1012      1013      3904      3908      3906
 -1      1941    8    0    1
 -2       941       940      1014      3677      3909      3910
 -1      1942    8    0    1
 -2       940      1013      1014      3907      3911      3909
 -1      1943    8    0    1
 -2       942       941      1015      3680      3912      3913
 -1      1944    8    0    1
 -2       941      1014      1015      3910      3914      3912
 -1      1945    8    0    1
 -2       943       942      1016      3683      3915      3916
 -1      1946    8    0    1
 -2       942      1015      1016      3913      3917      3915
 -1      1947    8    0    1
 -2       944       943      1017      3686      3918      3919
 -1      1948    8    0    1
 -2       943      1016      1017      3916      3920      3918
 -1      1949    8    0    1
 -2       945       944      1018      3689      3921      3922
 -1      1950    8    0    1
 -2       944      1017      1018      3919      3923      3921
 -1      1951    8    0    1
 -2       946       945      1019      3692      3924      3925
 -1      1952    8    0    1
 -2       945      1018      1019      3922      3926      3924
 -1      1953    8    0    1
 -2       947       946      1020      3695      3927      3928
 -1      1954    8    0    1
 -2       946      1019      1020      3925      3929      3927
 -1      1955    8    0    1
 -2       948       947      1021      3698      3930      3931
 -1      1956    8    0    1
 -2       947      1020      1021      3928      3932      3930
 -1      1957    8    0    1
 -2       949       948      1022      3701      3933      3934
 -1      1958    8    0    1
 -2       948      1021      1022      3931      3935      3933
 -1      1959    8    0    1
 -2       950       949      1023      3704      3936      3937
 -1      1960    8    0    1
 -2       949      1022      1023      3934      3938      3936
 -1      1961    8    0    1
 -2       951       950      1024      3707      3939      3940
 -1      1962    8    0    1
 -2       950      1023      1024      3937      3941      3939
 -1      1963    8    0    1
 -2       952       951      1025      3710      3942      3943
 -1      1964    8    0    1
 -2       951      1024      1025      3940      3944      3942
 -1      1965    8    0    1
 -2       953       952      1026      3713      3945      3946
 -1      1966    8    0    1
 -2       952      1025      1026      3943      3947      3945
 -1      1967    8    0    1
 -2       954       953      1004      3716      3948      3949
 -1      1968    8    0    1
 -2       930       871       990      3717      3831      3950
 -1      1969    8    0    1
 -2       913       973      1027      3852      3951      3952
 -1      1970    8    0    1
 -2       913      1027      1000      3952      3953      3861
 -1      1971    8    0    1
 -2       845       872       928      3719      3954      3633
 -1      1972    8    0    1
 -2       981       931      1028      3804      3955      3956
 -1      1973    8    0    1
 -2       931       975      1028      3783      3957      3955
 -1      1974    8    0    1
 -2       991       923      1005      3832      3958      3959
 -1      1975    8    0    1
 -2       993       876       915      3837      3822      3960
 -1      1976    8    0    1
 -2       957       956      1029      3729      3961      3962
 -1      1977    8    0    1
 -2       958       957      1030      3732      3963      3964
 -1      1978    8    0    1
 -2       957      1029      1030      3962      3965      3963
 -1      1979    8    0    1
 -2       959       958      1031      3735      3966      3967
 -1      1980    8    0    1
 -2       958      1030      1031      3964      3968      3966
 -1      1981    8    0    1
 -2       963       961      1032      3747      3969      3970
 -1      1982    8    0    1
 -2       961       965      1033      3753      3971      3972
 -1      1983    8    0    1
 -2       961      1033      1032      3972      3973      3969
 -1      1984    8    0    1
 -2       964       963      1034      3750      3974      3975
 -1      1985    8    0    1
 -2       963      1032      1034      3970      3976      3974
 -1      1986    8    0    1
 -2       966       967      1035      3759      3977      3978
 -1      1987    8    0    1
 -2       967       968      1036      3762      3979      3980
 -1      1988    8    0    1
 -2       967      1036      1035      3980      3981      3977
 -1      1989    8    0    1
 -2       968       969      1037      3765      3982      3983
 -1      1990    8    0    1
 -2       968      1037      1036      3983      3984      3979
 -1      1991    8    0    1
 -2       969       970      1038      3768      3985      3986
 -1      1992    8    0    1
 -2       969      1038      1037      3986      3987      3982
 -1      1993    8    0    1
 -2       970       971      1039      3771      3988      3989
 -1      1994    8    0    1
 -2       970      1039      1038      3989      3990      3985
 -1      1995    8    0    1
 -2       974       976      1040      3787      3991      3992
 -1      1996    8    0    1
 -2       986      1003      1041      3876      3993      3994
 -1      1997    8    0    1
 -2       990       954       999      3887      3995      3996
 -1      1998    8    0    1
 -2       930       990       999      3950      3996      3858
 -1      1999    8    0    1
 -2       993       915      1007      3960      3889      3997
 -1      2000    8    0    1
 -2       993      1007       955      3997      3998      3872
 -1      2001    8    0    1
 -2       965       966      1042      3756      3999      4000
 -1      2002    8    0    1
 -2       965      1042      1033      4000      4001      3971
 -1      2003    8    0    1
 -2       976       984      1043      3871      4002      4003
 -1      2004    8    0    1
 -2       976      1043      1040      4003      4004      3991
 -1      2005    8    0    1
 -2       973       974      1027      3780      4005      3951
 -1      2006    8    0    1
 -2       956       955      1044      3726      4006      4007
 -1      2007    8    0    1
 -2      1029       956      1044      3961      4007      4008
 -1      2008    8    0    1
 -2       955      1007      1044      3998      4009      4006
 -1      2009    8    0    1
 -2       987       985      1045      3821      4010      4011
 -1      2010    8    0    1
 -2       927       932      1046      3645      4012      4013
 -1      2011    8    0    1
 -2      1006       927      1046      3884      4013      4014
 -1      2012    8    0    1
 -2       932       960      1046      3738      4015      4012
 -1      2013    8    0    1
 -2       935       934      1047      3659      4016      4017
 -1      2014    8    0    1
 -2       935      1047      1009      4017      4018      3895
 -1      2015    8    0    1
 -2       984       979      1048      3814      4019      4020
 -1      2016    8    0    1
 -2      1043       984      1048      4002      4020      4021
 -1      2017    8    0    1
 -2       979      1002      1048      3869      4022      4019
 -1      2018    8    0    1
 -2       977       919      1049      3866      4023      4024
 -1      2019    8    0    1
 -2       971       977      1049      3848      4024      4025
 -1      2020    8    0    1
 -2       919       996      1049      3846      4026      4023
 -1      2021    8    0    1
 -2       989       987      1050      3829      4027      4028
 -1      2022    8    0    1
 -2       987      1045      1050      4011      4029      4027
 -1      2023    8    0    1
 -2       953      1026      1004      3946      4030      3948
 -1      2024    8    0    1
 -2       906       992       994      3836      4031      3841
 -1      2025    8    0    1
 -2      1045       985      1051      4010      4032      4033
 -1      2026    8    0    1
 -2       985      1001      1051      3864      4034      4032
 -1      2027    8    0    1
 -2       962       994      1052      3840      4035      4036
 -1      2028    8    0    1
 -2       966      1035      1042      3978      4037      3999
 -1      2029    8    0    1
 -2       964      1034      1053      3975      4038      4039
 -1      2030    8    0    1
 -2       964      1053       992      4039      4040      3834
 -1      2031    8    0    1
 -2       960       959      1054      3739      4041      4042
 -1      2032    8    0    1
 -2      1046       960      1054      4015      4042      4043
 -1      2033    8    0    1
 -2       959      1031      1054      3967      4044      4041
 -1      2034    8    0    1
 -2       988       921      1055      3826      4045      4046
 -1      2035    8    0    1
 -2       921      1000      1055      3860      4047      4045
 -1      2036    8    0    1
 -2       995       962      1056      3844      4048      4049
 -1      2037    8    0    1
 -2       962      1052      1056      4036      4050      4048
 -1      2038    8    0    1
 -2       974      1040      1027      3992      4051      4005
 -1      2039    8    0    1
 -2      1039       971      1049      3988      4025      4052
 -1      2040    8    0    1
 -2       997       991      1057      3851      4053      4054
 -1      2041    8    0    1
 -2      1007      1008      1044      3892      4055      4009
 -1      2042    8    0    1
 -2       975       972      1058      3784      4056      4057
 -1      2043    8    0    1
 -2      1028       975      1058      3957      4057      4058
 -1      2044    8    0    1
 -2       972       997      1058      3850      4059      4056
 -1      2045    8    0    1
 -2       981      1028      1059      3956      4060      4061
 -1      2046    8    0    1
 -2       981      1059       983      4061      4062      3811
 -1      2047    8    0    1
 -2      1002       998      1060      3870      4063      4064
 -1      2048    8    0    1
 -2      1002      1060      1048      4064      4065      4022
 -1      2049    8    0    1
 -2       923       978      1005      3853      3882      3958
 -1      2050    8    0    1
 -2      1003       989      1061      3875      4066      4067
 -1      2051    8    0    1
 -2       989      1050      1061      4028      4068      4066
 -1      2052    8    0    1
 -2      1041      1003      1061      3993      4067      4069
 -1      2053    8    0    1
 -2       934       983      1062      3810      4070      4071
 -1      2054    8    0    1
 -2      1047       934      1062      4016      4071      4072
 -1      2055    8    0    1
 -2       983      1059      1062      4062      4073      4070
 -1      2056    8    0    1
 -2       872       839       928      3894      3632      3954
 -1      2057    8    0    1
 -2       982      1004      1063      3878      4074      4075
 -1      2058    8    0    1
 -2       996       982      1063      3847      4075      4076
 -1      2059    8    0    1
 -2      1004      1026      1063      4030      4077      4074
 -1      2060    8    0    1
 -2       998      1006      1060      3886      4078      4063
 -1      2061    8    0    1
 -2      1010      1009      1064      3899      4079      4080
 -1      2062    8    0    1
 -2       991      1005      1065      3959      4081      4082
 -1      2063    8    0    1
 -2      1057       991      1065      4053      4082      4083
 -1      2064    8    0    1
 -2      1005       986      1065      3883      4084      4081
 -1      2065    8    0    1
 -2      1008       988      1066      3893      4085      4086
 -1      2066    8    0    1
 -2       988      1055      1066      4046      4087      4085
 -1      2067    8    0    1
 -2      1011      1010      1067      3902      4088      4089
 -1      2068    8    0    1
 -2      1010      1064      1067      4080      4090      4088
 -1      2069    8    0    1
 -2      1012      1011      1068      3905      4091      4092
 -1      2070    8    0    1
 -2      1011      1067      1068      4089      4093      4091
 -1      2071    8    0    1
 -2      1013      1012      1069      3908      4094      4095
 -1      2072    8    0    1
 -2      1012      1068      1069      4092      4096      4094
 -1      2073    8    0    1
 -2      1014      1013      1070      3911      4097      4098
 -1      2074    8    0    1
 -2      1013      1069      1070      4095      4099      4097
 -1      2075    8    0    1
 -2      1015      1014      1071      3914      4100      4101
 -1      2076    8    0    1
 -2      1014      1070      1071      4098      4102      4100
 -1      2077    8    0    1
 -2      1016      1015      1072      3917      4103      4104
 -1      2078    8    0    1
 -2      1015      1071      1072      4101      4105      4103
 -1      2079    8    0    1
 -2      1017      1016      1073      3920      4106      4107
 -1      2080    8    0    1
 -2      1016      1072      1073      4104      4108      4106
 -1      2081    8    0    1
 -2      1018      1017      1074      3923      4109      4110
 -1      2082    8    0    1
 -2      1017      1073      1074      4107      4111      4109
 -1      2083    8    0    1
 -2      1019      1018      1075      3926      4112      4113
 -1      2084    8    0    1
 -2      1018      1074      1075      4110      4114      4112
 -1      2085    8    0    1
 -2      1020      1019      1076      3929      4115      4116
 -1      2086    8    0    1
 -2      1019      1075      1076      4113      4117      4115
 -1      2087    8    0    1
 -2      1021      1020      1077      3932      4118      4119
 -1      2088    8    0    1
 -2      1020      1076      1077      4116      4120      4118
 -1      2089    8    0    1
 -2      1022      1021      1078      3935      4121      4122
 -1      2090    8    0    1
 -2      1021      1077      1078      4119      4123      4121
 -1      2091    8    0    1
 -2      1023      1022      1079      3938      4124      4125
 -1      2092    8    0    1
 -2      1022      1078      1079      4122      4126      4124
 -1      2093    8    0    1
 -2      1024      1023      1080      3941      4127      4128
 -1      2094    8    0    1
 -2      1023      1079      1080      4125      4129      4127
 -1      2095    8    0    1
 -2      1025      1024      1081      3944      4130      4131
 -1      2096    8    0    1
 -2      1024      1080      1081      4128      4132      4130
 -1      2097    8    0    1
 -2      1026      1025      1082      3947      4133      4134
 -1      2098    8    0    1
 -2      1063      1026      1082      4077      4134      4135
 -1      2099    8    0    1
 -2      1025      1081      1082      4131      4136      4133
 -1      2100    8    0    1
 -2       994       992      1083      4031      4137      4138
 -1      2101    8    0    1
 -2       994      1083      1052      4138      4139      4035
 -1      2102    8    0    1
 -2      1030      1029      1084      3965      4140      4141
 -1      2103    8    0    1
 -2      1042      1035      1085      4037      4142      4143
 -1      2104    8    0    1
 -2      1009      1047      1086      4018      4144      4145
 -1      2105    8    0    1
 -2      1009      1086      1064      4145      4146      4079
 -1      2106    8    0    1
 -2      1031      1030      1087      3968      4147      4148
 -1      2107    8    0    1
 -2      1030      1084      1087      4141      4149      4147
 -1      2108    8    0    1
 -2      1032      1033      1088      3973      4150      4151
 -1      2109    8    0    1
 -2      1065       986      1041      4084      3994      4152
 -1      2110    8    0    1
 -2      1057      1065      1089      4083      4153      4154
 -1      2111    8    0    1
 -2      1065      1041      1089      4152      4155      4153
 -1      2112    8    0    1
 -2      1034      1032      1090      3976      4156      4157
 -1      2113    8    0    1
 -2      1032      1088      1090      4151      4158      4156
 -1      2114    8    0    1
 -2      1036      1037      1091      3984      4159      4160
 -1      2115    8    0    1
 -2      1035      1036      1092      3981      4161      4162
 -1      2116    8    0    1
 -2      1085      1035      1092      4142      4162      4163
 -1      2117    8    0    1
 -2      1036      1091      1092      4160      4164      4161
 -1      2118    8    0    1
 -2      1038      1039      1093      3990      4165      4166
 -1      2119    8    0    1
 -2      1039      1049      1094      4052      4167      4168
 -1      2120    8    0    1
 -2      1039      1094      1093      4168      4169      4165
 -1      2121    8    0    1
 -2      1044      1008      1066      4055      4086      4170
 -1      2122    8    0    1
 -2      1001       995      1095      3865      4171      4172
 -1      2123    8    0    1
 -2      1001      1095      1051      4172      4173      4034
 -1      2124    8    0    1
 -2      1041      1061      1096      4069      4174      4175
 -1      2125    8    0    1
 -2      1041      1096      1089      4175      4176      4155
 -1      2126    8    0    1
 -2      1049       996      1094      4026      4177      4167
 -1      2127    8    0    1
 -2       997      1057      1097      4054      4178      4179
 -1      2128    8    0    1
 -2       997      1097      1058      4179      4180      4059
 -1      2129    8    0    1
 -2      1027      1040      1098      4051      4181      4182
 -1      2130    8    0    1
 -2      1033      1042      1099      4001      4183      4184
 -1      2131    8    0    1
 -2      1033      1099      1088      4184      4185      4150
 -1      2132    8    0    1
 -2      1037      1038      1100      3987      4186      4187
 -1      2133    8    0    1
 -2      1091      1037      1100      4159      4187      4188
 -1      2134    8    0    1
 -2      1038      1093      1100      4166      4189      4186
 -1      2135    8    0    1
 -2      1040      1043      1101      4004      4190      4191
 -1      2136    8    0    1
 -2      1000      1027      1098      3953      4182      4192
 -1      2137    8    0    1
 -2      1086      1047      1102      4144      4193      4194
 -1      2138    8    0    1
 -2      1047      1062      1102      4072      4195      4193
 -1      2139    8    0    1
 -2      1060      1006      1103      4078      4196      4197
 -1      2140    8    0    1
 -2      1043      1048      1104      4021      4198      4199
 -1      2141    8    0    1
 -2      1101      1043      1104      4190      4199      4200
 -1      2142    8    0    1
 -2      1048      1060      1104      4065      4201      4198
 -1      2143    8    0    1
 -2      1044      1066      1029      4170      4202      4008
 -1      2144    8    0    1
 -2      1084      1029      1066      4140      4202      4203
 -1      2145    8    0    1
 -2      1042      1085      1099      4143      4204      4183
 -1      2146    8    0    1
 -2      1060      1103      1104      4197      4205      4201
 -1      2147    8    0    1
 -2      1040      1101      1098      4191      4206      4181
 -1      2148    8    0    1
 -2      1053      1034      1105      4038      4207      4208
 -1      2149    8    0    1
 -2      1034      1090      1105      4157      4209      4207
 -1      2150    8    0    1
 -2      1054      1031      1103      4044      4210      4211
 -1      2151    8    0    1
 -2      1056      1052      1106      4050      4212      4213
 -1      2152    8    0    1
 -2      1095       995      1056      4171      4049      4214
 -1      2153    8    0    1
 -2       992      1053      1083      4040      4215      4137
 -1      2154    8    0    1
 -2       925       999       954      3857      3995      4216
 -1      2155    8    0    1
 -2      1052      1083      1107      4139      4217      4218
 -1      2156    8    0    1
 -2      1052      1107      1106      4218      4219      4212
 -1      2157    8    0    1
 -2       996      1063      1108      4076      4220      4221
 -1      2158    8    0    1
 -2      1094       996      1108      4177      4221      4222
 -1      2159    8    0    1
 -2      1063      1082      1108      4135      4223      4220
 -1      2160    8    0    1
 -2      1096      1061      1109      4174      4224      4225
 -1      2161    8    0    1
 -2      1061      1050      1109      4068      4226      4224
 -1      2162    8    0    1
 -2       954      1004       925      3949      3879      4216
 -1      2163    8    0    1
 -2      1028      1058      1110      4058      4227      4228
 -1      2164    8    0    1
 -2      1059      1028      1110      4060      4228      4229
 -1      2165    8    0    1
 -2      1058      1097      1110      4180      4230      4227
 -1      2166    8    0    1
 -2      1045      1051      1111      4033      4231      4232
 -1      2167    8    0    1
 -2      1055      1000      1098      4047      4192      4233
 -1      2168    8    0    1
 -2      1006      1046      1054      4014      4043      4234
 -1      2169    8    0    1
 -2      1031      1087      1103      4148      4235      4210
 -1      2170    8    0    1
 -2      1050      1045      1112      4029      4236      4237
 -1      2171    8    0    1
 -2      1109      1050      1112      4226      4237      4238
 -1      2172    8    0    1
 -2      1045      1111      1112      4232      4239      4236
 -1      2173    8    0    1
 -2      1090      1088      1075      4158      4240      4241
 -1      2174    8    0    1
 -2      1103      1006      1054      4196      4234      4211
 -1      2175    8    0    1
 -2      1101      1104      1087      4200      4242      4243
 -1      2176    8    0    1
 -2      1067      1064      1112      4090      4244      4245
 -1      2177    8    0    1
 -2      1068      1067      1111      4093      4246      4247
 -1      2178    8    0    1
 -2      1070      1069      1113      4099      4248      4249
 -1      2179    8    0    1
 -2      1071      1070      1106      4102      4250      4251
 -1      2180    8    0    1
 -2      1072      1071      1107      4105      4252      4253
 -1      2181    8    0    1
 -2      1074      1073      1105      4111      4254      4255
 -1      2182    8    0    1
 -2      1075      1074      1090      4114      4256      4241
 -1      2183    8    0    1
 -2      1076      1075      1088      4117      4240      4257
 -1      2184    8    0    1
 -2      1077      1076      1099      4120      4258      4259
 -1      2185    8    0    1
 -2      1078      1077      1085      4123      4260      4261
 -1      2186    8    0    1
 -2      1079      1078      1092      4126      4262      4263
 -1      2187    8    0    1
 -2      1080      1079      1091      4129      4264      4265
 -1      2188    8    0    1
 -2      1081      1080      1100      4132      4266      4267
 -1      2189    8    0    1
 -2      1111      1051      1114      4231      4268      4269
 -1      2190    8    0    1
 -2      1051      1095      1114      4173      4270      4268
 -1      2191    8    0    1
 -2      1089      1096      1102      4176      4271      4272
 -1      2192    8    0    1
 -2      1064      1086      1109      4146      4273      4274
 -1      2193    8    0    1
 -2      1087      1084      1101      4149      4275      4243
 -1      2194    8    0    1
 -2      1056      1106      1113      4213      4276      4277
 -1      2195    8    0    1
 -2      1095      1056      1113      4214      4277      4278
 -1      2196    8    0    1
 -2      1077      1099      1085      4259      4204      4260
 -1      2197    8    0    1
 -2      1076      1088      1099      4257      4185      4258
 -1      2198    8    0    1
 -2      1093      1094      1108      4169      4222      4279
 -1      2199    8    0    1
 -2      1057      1089      1097      4154      4280      4178
 -1      2200    8    0    1
 -2      1104      1103      1087      4205      4235      4242
 -1      2201    8    0    1
 -2      1083      1053      1115      4215      4281      4282
 -1      2202    8    0    1
 -2      1107      1083      1115      4217      4282      4283
 -1      2203    8    0    1
 -2      1053      1105      1115      4208      4284      4281
 -1      2204    8    0    1
 -2      1062      1059      1110      4073      4229      4285
 -1      2205    8    0    1
 -2      1106      1070      1113      4250      4249      4276
 -1      2206    8    0    1
 -2      1098      1101      1084      4206      4275      4286
 -1      2207    8    0    1
 -2      1091      1079      1092      4264      4263      4164
 -1      2208    8    0    1
 -2      1111      1067      1112      4246      4245      4239
 -1      2209    8    0    1
 -2      1068      1111      1114      4247      4269      4287
 -1      2210    8    0    1
 -2      1071      1106      1107      4251      4219      4252
 -1      2211    8    0    1
 -2      1090      1074      1105      4256      4255      4209
 -1      2212    8    0    1
 -2      1078      1085      1092      4261      4163      4262
 -1      2213    8    0    1
 -2      1080      1091      1100      4265      4188      4266
 -1      2214    8    0    1
 -2      1097      1089      1102      4280      4272      4288
 -1      2215    8    0    1
 -2      1112      1064      1109      4244      4274      4238
 -1      2216    8    0    1
 -2      1069      1068      1114      4096      4287      4289
 -1      2217    8    0    1
 -2      1072      1107      1115      4253      4283      4290
 -1      2218    8    0    1
 -2      1073      1072      1115      4108      4290      4291
 -1      2219    8    0    1
 -2      1081      1100      1093      4267      4189      4292
 -1      2220    8    0    1
 -2      1084      1066      1098      4203      4293      4286
 -1      2221    8    0    1
 -2      1069      1114      1113      4289      4294      4248
 -1      2222    8    0    1
 -2      1095      1113      1114      4278      4294      4270
 -1      2223    8    0    1
 -2      1066      1055      1098      4087      4233      4293
 -1      2224    8    0    1
 -2      1097      1102      1110      4288      4295      4230
 -1      2225    8    0    1
 -2      1062      1110      1102      4285      4295      4195
 -1      2226    8    0    1
 -2      1105      1073      1115      4254      4291      4284
 -1      2227    8    0    1
 -2      1081      1093      1108      4292      4279      4296
 -1      2228    8    0    1
 -2      1102      1096      1086      4271      4297      4194
 -1      2229    8    0    1
 -2      1109      1086      1096      4273      4297      4225
 -1      2230    8    0    1
 -2      1082      1081      1108      4136      4296      4223
 -3
    1PSTEP                         1           1           1          
  100CL  101 1.000000000        4297                     0    1           1
 -4  DISP        4    1
 -5  D1          1    2    1    0
 -5  D2          1    2    2    0
 -5  D3          1    2    3    0
 -5  ALL         1    2    0    0    1ALL
 -1         1 9.45792E-03-3.03946E-04-1.41839E-14
 -1         2 1.22768E-02 6.48605E-04-1.60605E-14
 -1         3 1.60104E-02 2.33191E-03-2.37451E-14
 -1         4 1.43549E-02 1.03479E-03-2.68964E-14
 -1         5 0.00000E+00 0.00000E+00 0.00000E+00
 -1         6 0.00000E+00 0.00000E+00 0.00000E+00
 -1         7 0.00000E+00 0.00000E+00 0.00000E+00
 -1         8 0.00000E+00 0.00000E+00 0.00000E+00
 -1         9 0.00000E+00 0.00000E+00 0.00000E+00
 -1        10 0.00000E+00 0.00000E+00 0.00000E+00
 -1        11 0.00000E+00 0.00000E+00 0.00000E+00
 -1        12 0.00000E+00 0.00000E+00 0.00000E+00
 -1        13 0.00000E+00 0.00000E+00 0.00000E+00
 -1        14 0.00000E+00 0.00000E+00 0.00000E+00
 -1        15 0.00000E+00 0.00000E+00 0.00000E+00
 -1        16 0.00000E+00 0.00000E+00 0.00000E+00
 -1        17 0.00000E+00 0.00000E+00 0.00000E+00
 -1        18 0.00000E+00 0.00000E+00 0.00000E+00
 -1        19 0.00000E+00 0.00000E+00 0.00000E+00
 -1        20 0.00000E+00 0.00000E+00 0.00000E+00
 -1        21 0.00000E+00 0.00000E+00 0.00000E+00
 -1        22 0.00000E+00 0.00000E+00 0.00000E+00
 -1        23 4.11267E-04-2.60721E-04 1.52500E-17
 -1        24 7.03124E-04-4.00950E-04-5.55992E-18
 -1        25 9.73043E-04-4.98273E-04-6.22332E-17
 -1        26 1.23736E-03-5.66910E-04-1.54153E-16
 -1        27 1.50070E-03-6.15987E-04-2.81723E-16
 -1        28 1.76515E-03-6.50870E-04-4.45194E-16
 -1        29 2.03168E-03-6.75243E-04-6.45151E-16
 -1        30 2.30066E-03-6.91777E-04-8.77841E-16
 -1        31 2.57217E-03-7.02454E-04-1.14401E-15
 -1        32 2.84609E-03-7.08763E-04-1.44243E-15
 -1        33 3.12226E-03-7.11814E-04-1.77132E-15
 -1        34 3.40047E-03-7.12427E-04-2.12605E-15
 -1        35 3.68053E-03-7.11201E-04-2.50957E-15
 -1        36 3.96234E-03-7.08571E-04-2.91954E-15
 -1        37 4.24583E-03-7.04858E-04-3.35605E-15
 -1        38 4.53104E-03-7.00325E-04-3.81755E-15
 -1        39 4.81813E-03-6.95223E-04-4.29817E-15
 -1        40 5.10731E-03-6.89843E-04-4.79368E-15
 -1        41 5.39892E-03-6.84574E-04-5.30395E-15
 -1        42 5.69333E-03-6.79955E-04-5.83018E-15
 -1        43 5.99092E-03-6.76728E-04-6.37740E-15
 -1        44 6.29198E-03-6.75872E-04-6.94443E-15
 -1        45 6.59657E-03-6.78592E-04-7.54275E-15
 -1        46 6.90434E-03-6.86246E-04-8.17196E-15
 -1        47 7.21429E-03-7.00141E-04-8.82165E-15
 -1        48 7.52461E-03-7.21181E-04-9.48926E-15
 -1        49 7.83254E-03-7.49318E-04-1.01632E-14
 -1        50 8.13453E-03-7.82884E-04-1.08482E-14
 -1        51 8.42675E-03-8.17974E-04-1.15484E-14
 -1        52 8.70611E-03-8.48217E-04-1.22634E-14
 -1        53 8.97144E-03-8.65340E-04-1.29792E-14
 -1        54 9.22456E-03-8.60735E-04-1.36898E-14
 -1        55 9.47038E-03-8.27732E-04-1.43985E-14
 -1        56 9.71588E-03-7.63690E-04-1.51101E-14
 -1        57 9.96809E-03-6.70899E-04-1.58248E-14
 -1        58 1.02321E-02-5.55794E-04-1.65257E-14
 -1        59 1.05100E-02-4.26912E-04-1.72158E-14
 -1        60 1.08007E-02-2.92592E-04-1.78960E-14
 -1        61 1.11011E-02-1.59334E-04-1.85710E-14
 -1        62 1.14075E-02-3.11539E-05-1.92497E-14
 -1        63 1.17160E-02 9.02421E-05-1.99445E-14
 -1        64 1.20238E-02 2.04861E-04-2.06493E-14
 -1        65 1.23290E-02 3.13758E-04-2.13762E-14
 -1        66 1.26305E-02 4.18488E-04-2.21231E-14
 -1        67 1.29278E-02 5.20740E-04-2.28902E-14
 -1        68 1.32211E-02 6.22119E-04-2.36597E-14
 -1        69 1.35109E-02 7.24024E-04-2.44456E-14
 -1        70 1.37980E-02 8.27527E-04-2.52488E-14
 -1        71 1.40837E-02 9.33109E-04-2.60792E-14
 -1        72 4.13714E-04 2.61426E-04 1.35424E-17
 -1        73 7.02947E-04 4.03660E-04-1.14417E-17
 -1        74 9.73575E-04 5.00051E-04-7.21706E-17
 -1        75 1.23818E-03 5.68628E-04-1.69620E-16
 -1        76 1.50164E-03 6.17754E-04-3.05731E-16
 -1        77 1.76616E-03 6.52728E-04-4.79021E-16
 -1        78 2.03271E-03 6.77212E-04-6.89400E-16
 -1        79 2.30169E-03 6.93861E-04-9.34216E-16
 -1        80 2.57318E-03 7.04652E-04-1.21268E-15
 -1        81 2.84707E-03 7.11060E-04-1.52723E-15
 -1        82 3.12318E-03 7.14184E-04-1.86960E-15
 -1        83 3.40130E-03 7.14823E-04-2.23650E-15
 -1        84 3.68125E-03 7.13542E-04-2.62910E-15
 -1        85 3.96292E-03 7.10728E-04-3.05101E-15
 -1        86 4.24628E-03 7.06632E-04-3.50455E-15
 -1        87 4.53142E-03 7.01414E-04-3.99310E-15
 -1        88 4.81859E-03 6.95185E-04-4.51096E-15
 -1        89 5.10822E-03 6.88054E-04-5.04998E-15
 -1        90 5.40101E-03 6.80194E-04-5.60766E-15
 -1        91 5.69796E-03 6.71922E-04-6.18441E-15
 -1        92 6.00050E-03 6.63830E-04-6.78288E-15
 -1        93 6.31057E-03 6.56979E-04-7.40351E-15
 -1        94 6.63074E-03 6.53200E-04-8.04076E-15
 -1        95 6.96430E-03 6.55547E-04-8.68740E-15
 -1        96 7.31511E-03 6.68947E-04-9.33688E-15
 -1        97 7.68712E-03 7.00989E-04-9.98551E-15
 -1        98 8.08294E-03 7.62545E-04-1.06351E-14
 -1        99 8.50096E-03 8.67239E-04-1.12880E-14
 -1       100 8.93097E-03 1.02765E-03-1.19426E-14
 -1       101 9.35038E-03 1.24545E-03-1.26064E-14
 -1       102 9.72768E-03 1.49582E-03-1.32729E-14
 -1       103 1.00406E-02 1.71939E-03-1.39438E-14
 -1       104 1.03009E-02 1.84307E-03-1.46089E-14
 -1       105 1.05584E-02 1.83037E-03-1.52645E-14
 -1       106 1.08653E-02 1.71271E-03-1.59153E-14
 -1       107 1.12375E-02 1.56228E-03-1.65718E-14
 -1       108 1.16542E-02 1.44064E-03-1.72007E-14
 -1       109 1.20836E-02 1.37530E-03-1.78179E-14
 -1       110 1.25020E-02 1.36629E-03-1.84310E-14
 -1       111 1.28983E-02 1.40144E-03-1.90216E-14
 -1       112 1.32702E-02 1.46686E-03-1.95751E-14
 -1       113 1.36202E-02 1.55124E-03-2.01038E-14
 -1       114 1.39520E-02 1.64654E-03-2.06178E-14
 -1       115 1.42694E-02 1.74735E-03-2.11160E-14
 -1       116 1.45758E-02 1.85014E-03-2.15815E-14
 -1       117 1.48739E-02 1.95256E-03-2.20199E-14
 -1       118 1.51658E-02 2.05300E-03-2.24649E-14
 -1       119 1.54536E-02 2.15044E-03-2.29040E-14
 -1       120 1.57392E-02 2.24453E-03-2.33450E-14
 -1       121 1.59204E-02 2.24731E-03-2.39144E-14
 -1       122 1.58325E-02 2.16305E-03-2.41122E-14
 -1       123 1.57474E-02 2.08089E-03-2.42920E-14
 -1       124 1.56639E-02 2.00224E-03-2.44596E-14
 -1       125 1.55802E-02 1.92757E-03-2.46439E-14
 -1       126 1.54959E-02 1.85770E-03-2.48518E-14
 -1       127 1.54064E-02 1.78928E-03-2.50678E-14
 -1       128 1.53123E-02 1.72221E-03-2.52807E-14
 -1       129 1.52134E-02 1.65505E-03-2.54787E-14
 -1       130 1.51100E-02 1.58649E-03-2.56673E-14
 -1       131 1.50029E-02 1.51551E-03-2.58800E-14
 -1       132 1.48953E-02 1.44274E-03-2.61080E-14
 -1       133 1.47847E-02 1.36544E-03-2.63161E-14
 -1       134 1.46745E-02 1.28502E-03-2.64977E-14
 -1       135 1.45656E-02 1.20210E-03-2.66656E-14
 -1       136 1.44587E-02 1.11787E-03-2.67922E-14
 -1       137 1.22660E-02 8.29210E-04-1.60242E-14
 -1       138 1.21596E-02 9.97118E-04-1.59380E-14
 -1       139 1.19555E-02 1.15762E-03-1.57970E-14
 -1       140 1.16471E-02 1.30628E-03-1.55793E-14
 -1       141 1.12102E-02 1.43655E-03-1.52789E-14
 -1       142 1.07544E-02 1.50822E-03-1.49671E-14
 -1       143 1.02612E-02 1.52799E-03-1.46394E-14
 -1       144 9.75995E-03 1.49073E-03-1.43004E-14
 -1       145 9.24189E-03 1.39173E-03-1.39465E-14
 -1       146 8.76086E-03 1.24047E-03-1.36197E-14
 -1       147 8.40114E-03 1.08249E-03-1.33752E-14
 -1       148 8.11189E-03 9.09456E-04-1.31820E-14
 -1       149 7.89025E-03 7.19742E-04-1.30302E-14
 -1       150 7.77255E-03 5.43335E-04-1.29502E-14
 -1       151 7.74246E-03 3.66789E-04-1.29349E-14
 -1       152 7.80748E-03 1.99286E-04-1.29930E-14
 -1       153 7.97830E-03 3.97424E-05-1.31215E-14
 -1       154 8.22513E-03-8.87582E-05-1.33009E-14
 -1       155 8.57112E-03-1.96552E-04-1.35492E-14
 -1       156 9.00829E-03-2.73217E-04-1.38646E-14
 -1       157 9.94912E-03-2.94237E-04-1.45281E-14
 -1       158 1.04324E-02-2.44108E-04-1.48702E-14
 -1       159 1.08960E-02-1.56677E-04-1.52027E-14
 -1       160 1.13167E-02-3.78885E-05-1.54929E-14
 -1       161 1.16916E-02 1.12685E-04-1.57459E-14
 -1       162 1.19827E-02 2.81476E-04-1.59277E-14
 -1       163 1.21796E-02 4.60359E-04-1.60359E-14
 -1       164 2.40345E-04-1.25546E-04-3.68290E-18
 -1       165 2.25241E-04-9.46559E-05-9.63246E-18
 -1       166 2.19507E-04-7.28183E-05-1.32069E-17
 -1       167 2.16732E-04-5.51409E-05-1.54431E-17
 -1       168 2.15256E-04-3.99969E-05-1.66120E-17
 -1       169 2.14435E-04-2.59383E-05-1.74861E-17
 -1       170 2.14026E-04-1.26566E-05-1.80655E-17
 -1       171 2.13907E-04 2.71657E-07-1.84789E-17
 -1       172 2.14045E-04 1.32123E-05-1.86212E-17
 -1       173 2.14477E-04 2.65341E-05-1.86178E-17
 -1       174 2.15306E-04 4.04239E-05-1.81401E-17
 -1       175 2.16835E-04 5.59521E-05-1.71609E-17
 -1       176 2.19666E-04 7.38585E-05-1.55143E-17
 -1       177 2.25410E-04 9.60570E-05-1.22718E-17
 -1       178 2.39273E-04 1.27623E-04-6.29176E-18
 -1       179 2.97618E-04 1.85510E-04 9.48677E-20
 -1       180 4.68478E-04-2.63564E-04-1.12622E-17
 -1       181 7.66513E-04-3.82123E-04-5.82013E-17
 -1       182 1.05024E-03-4.64928E-04-1.39056E-16
 -1       183 1.32750E-03-5.23564E-04-2.54361E-16
 -1       184 1.60197E-03-5.65030E-04-4.03445E-16
 -1       185 1.87572E-03-5.93994E-04-5.88247E-16
 -1       186 2.14990E-03-6.13731E-04-8.07720E-16
 -1       187 2.42513E-03-6.26631E-04-1.06017E-15
 -1       188 2.70168E-03-6.34465E-04-1.34549E-15
 -1       189 2.97966E-03-6.38547E-04-1.66175E-15
 -1       190 3.25909E-03-6.39844E-04-2.00548E-15
 -1       191 3.53993E-03-6.39055E-04-2.37493E-15
 -1       192 3.82214E-03-6.36682E-04-2.77342E-15
 -1       193 4.10572E-03-6.33083E-04-3.19757E-15
 -1       194 4.39069E-03-6.28523E-04-3.64843E-15
 -1       195 4.67716E-03-6.23233E-04-4.11922E-15
 -1       196 4.96528E-03-6.17456E-04-4.60715E-15
 -1       197 5.25527E-03-6.11505E-04-5.11075E-15
 -1       198 5.54738E-03-6.05825E-04-5.62986E-15
 -1       199 5.84188E-03-6.01052E-04-6.16489E-15
 -1       200 6.13900E-03-5.98061E-04-6.72150E-15
 -1       201 6.43886E-03-5.97996E-04-7.30257E-15
 -1       202 6.74135E-03-6.02244E-04-7.91409E-15
 -1       203 7.04602E-03-6.12305E-04-8.54946E-15
 -1       204 7.35195E-03-6.29523E-04-9.20325E-15
 -1       205 7.65766E-03-6.54612E-04-9.86950E-15
 -1       206 7.96112E-03-6.86991E-04-1.05452E-14
 -1       207 8.25993E-03-7.24021E-04-1.12327E-14
 -1       208 8.55181E-03-7.60424E-04-1.19321E-14
 -1       209 8.83530E-03-7.88331E-04-1.26417E-14
 -1       210 9.11047E-03-7.98369E-04-1.33484E-14
 -1       211 9.37938E-03-7.81860E-04-1.40529E-14
 -1       212 9.64582E-03-7.33437E-04-1.47557E-14
 -1       213 9.91430E-03-6.52898E-04-1.54627E-14
 -1       214 1.01887E-02-5.45277E-04-1.61680E-14
 -1       215 1.04712E-02-4.19099E-04-1.68646E-14
 -1       216 1.07620E-02-2.83755E-04-1.75503E-14
 -1       217 1.10597E-02-1.47249E-04-1.82272E-14
 -1       218 1.13620E-02-1.50071E-05-1.89027E-14
 -1       219 1.16664E-02 1.10239E-04-1.95893E-14
 -1       220 1.19708E-02 2.27908E-04-2.02855E-14
 -1       221 1.22737E-02 3.38823E-04-2.09932E-14
 -1       222 1.25740E-02 4.44535E-04-2.17210E-14
 -1       223 1.28714E-02 5.46851E-04-2.24664E-14
 -1       224 1.31656E-02 6.47545E-04-2.32183E-14
 -1       225 1.34570E-02 7.48211E-04-2.39856E-14
 -1       226 1.37460E-02 8.50169E-04-2.47703E-14
 -1       227 1.40332E-02 9.54312E-04-2.55784E-14
 -1       228 6.04366E-04 3.31039E-04-2.99680E-17
 -1       229 8.93338E-04 4.32608E-04-9.37835E-17
 -1       230 1.17209E-03 5.04253E-04-1.93344E-16
 -1       231 1.44629E-03 5.55168E-04-3.28805E-16
 -1       232 1.71895E-03 5.91154E-04-5.00898E-16
 -1       233 1.99169E-03 6.16165E-04-7.08878E-16
 -1       234 2.26537E-03 6.33039E-04-9.52089E-16
 -1       235 2.54041E-03 6.43869E-04-1.22834E-15
 -1       236 2.81698E-03 6.50207E-04-1.53813E-15
 -1       237 3.09510E-03 6.53198E-04-1.87716E-15
 -1       238 3.37474E-03 6.53667E-04-2.24166E-15
 -1       239 3.65586E-03 6.52197E-04-2.63252E-15
 -1       240 3.93841E-03 6.49174E-04-3.05240E-15
 -1       241 4.22243E-03 6.44842E-04-3.50296E-15
 -1       242 4.50804E-03 6.39343E-04-3.98513E-15
 -1       243 4.79547E-03 6.32757E-04-4.49610E-15
 -1       244 5.08508E-03 6.25150E-04-5.02935E-15
 -1       245 5.37744E-03 6.16634E-04-5.58026E-15
 -1       246 5.67334E-03 6.07443E-04-6.15009E-15
 -1       247 5.97386E-03 5.98051E-04-6.74248E-15
 -1       248 6.28042E-03 5.89364E-04-7.35437E-15
 -1       249 6.59482E-03 5.83003E-04-7.98625E-15
 -1       250 6.91927E-03 5.81761E-04-8.62563E-15
 -1       251 7.25628E-03 5.90266E-04-9.27001E-15
 -1       252 7.60832E-03 6.15858E-04-9.91897E-15
 -1       253 7.97711E-03 6.69426E-04-1.05667E-14
 -1       254 8.36229E-03 7.65346E-04-1.12183E-14
 -1       255 8.75946E-03 9.18420E-04-1.18735E-14
 -1       256 9.15830E-03 1.13452E-03-1.25338E-14
 -1       257 9.54308E-03 1.39355E-03-1.32003E-14
 -1       258 9.90018E-03 1.63537E-03-1.38678E-14
 -1       259 1.02312E-02 1.77780E-03-1.45292E-14
 -1       260 1.05583E-02 1.77230E-03-1.51890E-14
 -1       261 1.09073E-02 1.64884E-03-1.58459E-14
 -1       262 1.12855E-02 1.48792E-03-1.64974E-14
 -1       263 1.16818E-02 1.35774E-03-1.71274E-14
 -1       264 1.20799E-02 1.28816E-03-1.77481E-14
 -1       265 1.24679E-02 1.27843E-03-1.83596E-14
 -1       266 1.28399E-02 1.31492E-03-1.89530E-14
 -1       267 1.31947E-02 1.38262E-03-1.95217E-14
 -1       268 1.35335E-02 1.46950E-03-2.00694E-14
 -1       269 1.38586E-02 1.56717E-03-2.06013E-14
 -1       270 1.41726E-02 1.67010E-03-2.11120E-14
 -1       271 1.44778E-02 1.77471E-03-2.15966E-14
 -1       272 1.47761E-02 1.87868E-03-2.20559E-14
 -1       273 1.50692E-02 1.98041E-03-2.25146E-14
 -1       274 1.53586E-02 2.07885E-03-2.29685E-14
 -1       275 1.56456E-02 2.17355E-03-2.34178E-14
 -1       276 1.56287E-02 2.12642E-03-2.36190E-14
 -1       277 1.55428E-02 2.04428E-03-2.37843E-14
 -1       278 1.54596E-02 1.96456E-03-2.39470E-14
 -1       279 1.53773E-02 1.88769E-03-2.41153E-14
 -1       280 1.52950E-02 1.81481E-03-2.42897E-14
 -1       281 1.52082E-02 1.74288E-03-2.44728E-14
 -1       282 1.51168E-02 1.67235E-03-2.46627E-14
 -1       283 1.50202E-02 1.60220E-03-2.48422E-14
 -1       284 1.49186E-02 1.53145E-03-2.50158E-14
 -1       285 1.48126E-02 1.45926E-03-2.51976E-14
 -1       286 1.47053E-02 1.38630E-03-2.53789E-14
 -1       287 1.45944E-02 1.30972E-03-2.55590E-14
 -1       288 1.44831E-02 1.23074E-03-2.57256E-14
 -1       289 1.43728E-02 1.14959E-03-2.58731E-14
 -1       290 1.42023E-02 1.05225E-03-2.57345E-14
 -1       291 1.23124E-02 7.24328E-04-1.63468E-14
 -1       292 1.22171E-02 8.27825E-04-1.62379E-14
 -1       293 1.20007E-02 9.49291E-04-1.61143E-14
 -1       294 1.16757E-02 1.10870E-03-1.59124E-14
 -1       295 1.12570E-02 1.30715E-03-1.56248E-14
 -1       296 1.08530E-02 1.49260E-03-1.52275E-14
 -1       297 1.04501E-02 1.59766E-03-1.48583E-14
 -1       298 1.00538E-02 1.59540E-03-1.44663E-14
 -1       299 9.64838E-03 1.48773E-03-1.40580E-14
 -1       300 9.21558E-03 1.27085E-03-1.36420E-14
 -1       301 8.75386E-03 1.04730E-03-1.33422E-14
 -1       302 8.37874E-03 8.41705E-04-1.30857E-14
 -1       303 8.05757E-03 6.49352E-04-1.28488E-14
 -1       304 7.82347E-03 5.27105E-04-1.27427E-14
 -1       305 7.71814E-03 4.21943E-04-1.26646E-14
 -1       306 7.74667E-03 3.30166E-04-1.27004E-14
 -1       307 7.91140E-03 2.31865E-04-1.27682E-14
 -1       308 8.18456E-03 1.00053E-04-1.29650E-14
 -1       309 8.52943E-03-5.01068E-05-1.32163E-14
 -1       310 8.95155E-03-2.06418E-04-1.35097E-14
 -1       311 9.33715E-03-3.33160E-04-1.39198E-14
 -1       312 9.71987E-03-3.80117E-04-1.43234E-14
 -1       313 1.01154E-02-3.37336E-04-1.47330E-14
 -1       314 1.05184E-02-2.16561E-04-1.51289E-14
 -1       315 1.09330E-02-3.96554E-05-1.54911E-14
 -1       316 1.13476E-02 1.67050E-04-1.58181E-14
 -1       317 1.17491E-02 3.50917E-04-1.60566E-14
 -1       318 1.20612E-02 5.10948E-04-1.62412E-14
 -1       319 1.22602E-02 6.27362E-04-1.63252E-14
 -1       320 4.55350E-04-1.64857E-04-4.57228E-17
 -1       321 4.74160E-04-2.13021E-04-3.54094E-17
 -1       322 4.40499E-04-9.40624E-05-5.67207E-17
 -1       323 4.37576E-04-6.49479E-05-5.96616E-17
 -1       324 4.35980E-04-3.79284E-05-6.17826E-17
 -1       325 4.35282E-04-1.20265E-05-6.33445E-17
 -1       326 4.35313E-04 1.35407E-05-6.41983E-17
 -1       327 4.36078E-04 3.94999E-05-6.41949E-17
 -1       328 4.37721E-04 6.61693E-05-6.32564E-17
 -1       329 4.40742E-04 9.54561E-05-6.12473E-17
 -1       330 4.46082E-04 1.28376E-04-5.78557E-17
 -1       331 4.55858E-04 1.67354E-04-5.18283E-17
 -1       332 4.75787E-04 2.17084E-04-4.17824E-17
 -1       333 5.31865E-04 2.69995E-04-3.78556E-17
 -1       334 8.24252E-04 3.73488E-04-1.03413E-16
 -1       335 8.63058E-04-3.57371E-04-1.18615E-16
 -1       336 1.14934E-03-4.26024E-04-2.22299E-16
 -1       337 1.43204E-03-4.75016E-04-3.59156E-16
 -1       338 1.71269E-03-5.09476E-04-5.29490E-16
 -1       339 1.99241E-03-5.33178E-04-7.34699E-16
 -1       340 2.27197E-03-5.48911E-04-9.74179E-16
 -1       341 2.55186E-03-5.58752E-04-1.24617E-15
 -1       342 2.83237E-03-5.64244E-04-1.54998E-15
 -1       343 3.11366E-03-5.66526E-04-1.88237E-15
 -1       344 3.39580E-03-5.66423E-04-2.24047E-15
 -1       345 3.67883E-03-5.64524E-04-2.62532E-15
 -1       346 3.96278E-03-5.61242E-04-3.03850E-15
 -1       347 4.24771E-03-5.56871E-04-3.47746E-15
 -1       348 4.53369E-03-5.51635E-04-3.94002E-15
 -1       349 4.82083E-03-5.45744E-04-4.41986E-15
 -1       350 5.10929E-03-5.39447E-04-4.91579E-15
 -1       351 5.39925E-03-5.33095E-04-5.42775E-15
 -1       352 5.69096E-03-5.27197E-04-5.95411E-15
 -1       353 5.98466E-03-5.22486E-04-6.49899E-15
 -1       354 6.28058E-03-5.19967E-04-7.06573E-15
 -1       355 6.57889E-03-5.20929E-04-7.66017E-15
 -1       356 6.87966E-03-5.26901E-04-8.28175E-15
 -1       357 7.18270E-03-5.39474E-04-8.92335E-15
 -1       358 7.48751E-03-5.59966E-04-9.57868E-15
 -1       359 7.79310E-03-5.88843E-04-1.02463E-14
 -1       360 8.09795E-03-6.24933E-04-1.09231E-14
 -1       361 8.40008E-03-6.64568E-04-1.16142E-14
 -1       362 8.69742E-03-7.01023E-04-1.23107E-14
 -1       363 8.98861E-03-7.24832E-04-1.30115E-14
 -1       364 9.27383E-03-7.25537E-04-1.37083E-14
 -1       365 9.55523E-03-6.94676E-04-1.44082E-14
 -1       366 9.83644E-03-6.28823E-04-1.51094E-14
 -1       367 1.01212E-02-5.30946E-04-1.58111E-14
 -1       368 1.04117E-02-4.09241E-04-1.65082E-14
 -1       369 1.07083E-02-2.74132E-04-1.71995E-14
 -1       370 1.10097E-02-1.35214E-04-1.78851E-14
 -1       371 1.13138E-02 5.96483E-07-1.85614E-14
 -1       372 1.16187E-02 1.29486E-04-1.92384E-14
 -1       373 1.19226E-02 2.50232E-04-1.99261E-14
 -1       374 1.22246E-02 3.63362E-04-2.06229E-14
 -1       375 1.25241E-02 4.70354E-04-2.13369E-14
 -1       376 1.28209E-02 5.73066E-04-2.20588E-14
 -1       377 1.31151E-02 6.73378E-04-2.27922E-14
 -1       378 1.34068E-02 7.73012E-04-2.35417E-14
 -1       379 1.36963E-02 8.73446E-04-2.43058E-14
 -1       380 1.39499E-02 9.61757E-04-2.50086E-14
 -1       381 1.10963E-03 4.47713E-04-2.03064E-16
 -1       382 1.39028E-03 5.00613E-04-3.37604E-16
 -1       383 1.66849E-03 5.37973E-04-5.07352E-16
 -1       384 1.94579E-03 5.63889E-04-7.12965E-16
 -1       385 2.22313E-03 5.81335E-04-9.53176E-16
 -1       386 2.50108E-03 5.92508E-04-1.22639E-15
 -1       387 2.77992E-03 5.99033E-04-1.53177E-15
 -1       388 3.05980E-03 6.02109E-04-1.86719E-15
 -1       389 3.34079E-03 6.02598E-04-2.22915E-15
 -1       390 3.62290E-03 6.01105E-04-2.61710E-15
 -1       391 3.90615E-03 5.98031E-04-3.03313E-15
 -1       392 4.19061E-03 5.93621E-04-3.47947E-15
 -1       393 4.47638E-03 5.88014E-04-3.95618E-15
 -1       394 4.76365E-03 5.81278E-04-4.46201E-15
 -1       395 5.05270E-03 5.73455E-04-4.98980E-15
 -1       396 5.34394E-03 5.64621E-04-5.53591E-15
 -1       397 5.63795E-03 5.54957E-04-6.10040E-15
 -1       398 5.93546E-03 5.44861E-04-6.68621E-15
 -1       399 6.23744E-03 5.35120E-04-7.29300E-15
 -1       400 6.54508E-03 5.27181E-04-7.91725E-15
 -1       401 6.85982E-03 5.23567E-04-8.55214E-15
 -1       402 7.18339E-03 5.28506E-04-9.19229E-15
 -1       403 7.51775E-03 5.48766E-04-9.83877E-15
 -1       404 7.86505E-03 5.94565E-04-1.04862E-14
 -1       405 8.22740E-03 6.79913E-04-1.11373E-14
 -1       406 8.60603E-03 8.20740E-04-1.17912E-14
 -1       407 8.99896E-03 1.02760E-03-1.24500E-14
 -1       408 9.39716E-03 1.28963E-03-1.31131E-14
 -1       409 9.78459E-03 1.55060E-03-1.37783E-14
 -1       410 1.01548E-02 1.71996E-03-1.44411E-14
 -1       411 1.05189E-02 1.72712E-03-1.51016E-14
 -1       412 1.08983E-02 1.59821E-03-1.57616E-14
 -1       413 1.12924E-02 1.42759E-03-1.64130E-14
 -1       414 1.16892E-02 1.29049E-03-1.70457E-14
 -1       415 1.20749E-02 1.21801E-03-1.76678E-14
 -1       416 1.24445E-02 1.20756E-03-1.82802E-14
 -1       417 1.27980E-02 1.24429E-03-1.88817E-14
 -1       418 1.31372E-02 1.31268E-03-1.94602E-14
 -1       419 1.34643E-02 1.40048E-03-2.00229E-14
 -1       420 1.37813E-02 1.49919E-03-2.05689E-14
 -1       421 1.40901E-02 1.60319E-03-2.10897E-14
 -1       422 1.43923E-02 1.70888E-03-2.15870E-14
 -1       423 1.46891E-02 1.81389E-03-2.20665E-14
 -1       424 1.49817E-02 1.91661E-03-2.25342E-14
 -1       425 1.52712E-02 2.01599E-03-2.30004E-14
 -1       426 1.54503E-02 2.07202E-03-2.33123E-14
 -1       427 1.51730E-02 1.84437E-03-2.35923E-14
 -1       428 1.52543E-02 1.92268E-03-2.34389E-14
 -1       429 1.53512E-02 1.99666E-03-2.33764E-14
 -1       430 1.50927E-02 1.76992E-03-2.37472E-14
 -1       431 1.50085E-02 1.69631E-03-2.39027E-14
 -1       432 1.49200E-02 1.62414E-03-2.40616E-14
 -1       433 1.48261E-02 1.55255E-03-2.42216E-14
 -1       434 1.47267E-02 1.48068E-03-2.43793E-14
 -1       435 1.46222E-02 1.40777E-03-2.45361E-14
 -1       436 1.45156E-02 1.33454E-03-2.46892E-14
 -1       437 1.44045E-02 1.25813E-03-2.48477E-14
 -1       438 1.42924E-02 1.17966E-03-2.49931E-14
 -1       439 1.41806E-02 1.09919E-03-2.51233E-14
 -1       440 1.21245E-02 8.36269E-04-1.64724E-14
 -1       441 1.23208E-02 7.00971E-04-1.66366E-14
 -1       442 1.22832E-02 7.64140E-04-1.65805E-14
 -1       443 1.18285E-02 9.70510E-04-1.62630E-14
 -1       444 1.14499E-02 1.15977E-03-1.60124E-14
 -1       445 4.45693E-04-1.26468E-04-5.23636E-17
 -1       446 1.06337E-02 1.58064E-03-1.51710E-14
 -1       447 1.02518E-02 1.64812E-03-1.46763E-14
 -1       448 9.92443E-03 1.59180E-03-1.42555E-14
 -1       449 9.53844E-03 1.39820E-03-1.37681E-14
 -1       450 9.02241E-03 1.07014E-03-1.32581E-14
 -1       451 8.67851E-03 8.68379E-04-1.30013E-14
 -1       452 8.27618E-03 6.66233E-04-1.27570E-14
 -1       453 7.92320E-03 5.00891E-04-1.25152E-14
 -1       454 7.74990E-03 4.27904E-04-1.24340E-14
 -1       455 7.69826E-03 3.65737E-04-1.23658E-14
 -1       456 7.78967E-03 3.14845E-04-1.24276E-14
 -1       457 8.06145E-03 2.11147E-04-1.25810E-14
 -1       458 8.39219E-03 7.03695E-05-1.28482E-14
 -1       459 8.74298E-03-8.82141E-05-1.31164E-14
 -1       460 9.20849E-03-2.96813E-04-1.36089E-14
 -1       461 9.55170E-03-3.98410E-04-1.40599E-14
 -1       462 9.89835E-03-4.00399E-04-1.45427E-14
 -1       463 1.02440E-02-3.00710E-04-1.50054E-14
 -1       464 1.06216E-02-1.10189E-04-1.54693E-14
 -1       465 1.10447E-02 1.10792E-04-1.58212E-14
 -1       466 1.15002E-02 3.50550E-04-1.61808E-14
 -1       467 1.18700E-02 5.27298E-04-1.64604E-14
 -1       468 1.21788E-02 6.38492E-04-1.65937E-14
 -1       469 1.09717E-02 1.42305E-03-1.55687E-14
 -1       470 8.97096E-03-2.01442E-04-1.32157E-14
 -1       471 9.31078E-04 3.45994E-04-1.72104E-16
 -1       472 6.66011E-04-7.51536E-05-1.29596E-16
 -1       473 6.69928E-04-1.15920E-04-1.24748E-16
 -1       474 6.63379E-04 1.10102E-06-1.35342E-16
 -1       475 6.64089E-04 3.87716E-05-1.36159E-16
 -1       476 6.66200E-04 7.68338E-05-1.35119E-16
 -1       477 6.70246E-04 1.17755E-04-1.32384E-16
 -1       478 6.77186E-04 1.62381E-04-1.27709E-16
 -1       479 6.89010E-04 2.12745E-04-1.19442E-16
 -1       480 1.21691E-03 4.06356E-04-2.94320E-16
 -1       481 9.76167E-04-3.28560E-04-1.86679E-16
 -1       482 7.12570E-04-2.51752E-04-1.04080E-16
 -1       483 1.12513E-02 1.29276E-03-1.60634E-14
 -1       484 1.26204E-03-3.83306E-04-3.11606E-16
 -1       485 1.54703E-03-4.22836E-04-4.69531E-16
 -1       486 1.83114E-03-4.50571E-04-6.61170E-16
 -1       487 2.11467E-03-4.69380E-04-8.86600E-16
 -1       488 2.39797E-03-4.81515E-04-1.14500E-15
 -1       489 2.68127E-03-4.88702E-04-1.43558E-15
 -1       490 2.96478E-03-4.92234E-04-1.75597E-15
 -1       491 3.24860E-03-4.93062E-04-2.10299E-15
 -1       492 3.53282E-03-4.91871E-04-2.47735E-15
 -1       493 3.81749E-03-4.89138E-04-2.87700E-15
 -1       494 4.10267E-03-4.85196E-04-3.30440E-15
 -1       495 4.38841E-03-4.80278E-04-3.75572E-15
 -1       496 4.67481E-03-4.74574E-04-4.22772E-15
 -1       497 4.96196E-03-4.68276E-04-4.71748E-15
 -1       498 5.25003E-03-4.61641E-04-5.22206E-15
 -1       499 5.53923E-03-4.55043E-04-5.74185E-15
 -1       500 5.82980E-03-4.49038E-04-6.27887E-15
 -1       501 6.12209E-03-4.44427E-04-6.83360E-15
 -1       502 6.41649E-03-4.42300E-04-7.41267E-15
 -1       503 6.71346E-03-4.44051E-04-8.01987E-15
 -1       504 7.01346E-03-4.51324E-04-8.65001E-15
 -1       505 7.31681E-03-4.65829E-04-9.29401E-15
 -1       506 7.62354E-03-4.88961E-04-9.95024E-15
 -1       507 7.93304E-03-5.21134E-04-1.06193E-14
 -1       508 8.24382E-03-5.60802E-04-1.12986E-14
 -1       509 8.55342E-03-6.03329E-04-1.19867E-14
 -1       510 8.85897E-03-6.40182E-04-1.26786E-14
 -1       511 9.15849E-03-6.59538E-04-1.33704E-14
 -1       512 9.45235E-03-6.49151E-04-1.40623E-14
 -1       513 9.74375E-03-6.00944E-04-1.47604E-14
 -1       514 1.00372E-02-5.14605E-04-1.54585E-14
 -1       515 1.03361E-02-3.97799E-04-1.61546E-14
 -1       516 1.06411E-02-2.62622E-04-1.68472E-14
 -1       517 1.09503E-02-1.20996E-04-1.75356E-14
 -1       518 1.12609E-02 1.83137E-05-1.82167E-14
 -1       519 1.15702E-02 1.50435E-04-1.88933E-14
 -1       520 1.18767E-02 2.73711E-04-1.95693E-14
 -1       521 1.21797E-02 3.88563E-04-2.02568E-14
 -1       522 1.24792E-02 4.96506E-04-2.09571E-14
 -1       523 1.27756E-02 5.99466E-04-2.16671E-14
 -1       524 1.30691E-02 6.99388E-04-2.23807E-14
 -1       525 1.33603E-02 7.98054E-04-2.31106E-14
 -1       526 1.36496E-02 8.97012E-04-2.38486E-14
 -1       527 1.22478E-02 7.96000E-04-1.68458E-14
 -1       528 1.78367E-03 4.80412E-04-6.39913E-16
 -1       529 2.06563E-03 5.01324E-04-8.64509E-16
 -1       530 2.34738E-03 5.15030E-04-1.12178E-15
 -1       531 2.62927E-03 5.23392E-04-1.41130E-15
 -1       532 2.91153E-03 5.27797E-04-1.73219E-15
 -1       533 3.19431E-03 5.29262E-04-2.08116E-15
 -1       534 3.47768E-03 5.28505E-04-2.45683E-15
 -1       535 3.76172E-03 5.26015E-04-2.85822E-15
 -1       536 4.04648E-03 5.22104E-04-3.28887E-15
 -1       537 4.33202E-03 5.16949E-04-3.75016E-15
 -1       538 4.61845E-03 5.10638E-04-4.23846E-15
 -1       539 4.90588E-03 5.03211E-04-4.75196E-15
 -1       540 5.19451E-03 4.94708E-04-5.28396E-15
 -1       541 5.48454E-03 4.85236E-04-5.83608E-15
 -1       542 5.77626E-03 4.75046E-04-6.40870E-15
 -1       543 6.06997E-03 4.64670E-04-7.00197E-15
 -1       544 6.36608E-03 4.55106E-04-7.61209E-15
 -1       545 6.66504E-03 4.48107E-04-8.23690E-15
 -1       546 6.96752E-03 4.46608E-04-8.86804E-15
 -1       547 7.27465E-03 4.55312E-04-9.50750E-15
 -1       548 7.58854E-03 4.81468E-04-1.01531E-14
 -1       549 7.91319E-03 5.35747E-04-1.08032E-14
 -1       550 8.25547E-03 6.32916E-04-1.14523E-14
 -1       551 8.62452E-03 7.91077E-04-1.21079E-14
 -1       552 9.02629E-03 1.02426E-03-1.27645E-14
 -1       553 9.89998E-03 1.59491E-03-1.40874E-14
 -1       554 1.03117E-02 1.69542E-03-1.47549E-14
 -1       555 1.07277E-02 1.60026E-03-1.54201E-14
 -1       556 1.16711E-02 1.12422E-03-1.67067E-14
 -1       557 1.20405E-02 1.04636E-03-1.73364E-14
 -1       558 1.23716E-02 1.03756E-03-1.79601E-14
 -1       559 1.26800E-02 1.07468E-03-1.85770E-14
 -1       560 1.29774E-02 1.14144E-03-1.91877E-14
 -1       561 1.32701E-02 1.22701E-03-1.97752E-14
 -1       562 1.35610E-02 1.32391E-03-2.03516E-14
 -1       563 1.38509E-02 1.42699E-03-2.09087E-14
 -1       564 1.41402E-02 1.53274E-03-2.14391E-14
 -1       565 1.44287E-02 1.63874E-03-2.19535E-14
 -1       566 1.47165E-02 1.74323E-03-2.24572E-14
 -1       567 1.48080E-02 1.64842E-03-2.33452E-14
 -1       568 1.47227E-02 1.57582E-03-2.34818E-14
 -1       569 1.49673E-02 1.79827E-03-2.30743E-14
 -1       570 1.48886E-02 1.72211E-03-2.32098E-14
 -1       571 1.46318E-02 1.50403E-03-2.36193E-14
 -1       572 1.45348E-02 1.43211E-03-2.37564E-14
 -1       573 1.44320E-02 1.35924E-03-2.38921E-14
 -1       574 1.43263E-02 1.28611E-03-2.40250E-14
 -1       575 1.42152E-02 1.20986E-03-2.41591E-14
 -1       576 1.41022E-02 1.13161E-03-2.42869E-14
 -1       577 1.39890E-02 1.05140E-03-2.44053E-14
 -1       578 1.22997E-02 7.10734E-04-1.69866E-14
 -1       579 1.50097E-03 4.49827E-04-4.49995E-16
 -1       580 1.20151E-02 8.88586E-04-1.66891E-14
 -1       581 1.20630E-02 6.37447E-04-1.68557E-14
 -1       582 1.08107E-02 1.53433E-03-1.54986E-14
 -1       583 1.17009E-02 1.03544E-03-1.64471E-14
 -1       584 7.67733E-03 3.66641E-04-1.20552E-14
 -1       585 9.31374E-03 1.22212E-03-1.33343E-14
 -1       586 6.63978E-04-3.65335E-05-1.33164E-16
 -1       587 1.01279E-02 1.66157E-03-1.44840E-14
 -1       588 8.09135E-03 5.26138E-04-1.23677E-14
 -1       589 1.04669E-02 1.65483E-03-1.49924E-14
 -1       590 9.80194E-03 1.53990E-03-1.39904E-14
 -1       591 8.84094E-03 9.09057E-04-1.28761E-14
 -1       592 8.21427E-03 1.44083E-04-1.24051E-14
 -1       593 8.48285E-03 7.09503E-04-1.26334E-14
 -1       594 7.79853E-03 4.15488E-04-1.21699E-14
 -1       595 7.69749E-03 3.27230E-04-1.20313E-14
 -1       596 7.87778E-03 2.70679E-04-1.21752E-14
 -1       597 8.51017E-03 1.40477E-05-1.26702E-14
 -1       598 9.37325E-03-3.75256E-04-1.37275E-14
 -1       599 9.72622E-03-4.29545E-04-1.43073E-14
 -1       600 1.00284E-02-3.75843E-04-1.48122E-14
 -1       601 1.03623E-02-2.22606E-04-1.53573E-14
 -1       602 1.08281E-02 4.12338E-05-1.58543E-14
 -1       603 1.12352E-02 2.69213E-04-1.62213E-14
 -1       604 1.16543E-02 4.77733E-04-1.65714E-14
 -1       605 1.23564E-02 7.45471E-04-1.69224E-14
 -1       606 7.03669E-04 2.90912E-04-9.55589E-17
 -1       607 6.76656E-04-1.60154E-04-1.18195E-16
 -1       608 1.18955E-02 5.92066E-04-1.69690E-14
 -1       609 1.51182E-02 1.91953E-03-2.29753E-14
 -1       610 1.38420E-02 9.63099E-04-2.43627E-14
 -1       611 9.14292E-03-3.06622E-04-1.33337E-14
 -1       612 8.71259E-03-1.04299E-04-1.27705E-14
 -1       613 9.00041E-04 7.40976E-05-2.32419E-16
 -1       614 8.97980E-04 2.51697E-05-2.32707E-16
 -1       615 9.11989E-04 1.78216E-04-2.24047E-16
 -1       616 9.24245E-04 2.36778E-04-2.14567E-16
 -1       617 1.04881E-03 3.13851E-04-2.48204E-16
 -1       618 1.19484E-02 9.66820E-04-1.69126E-14
 -1       619 1.33454E-03 3.61321E-04-3.90794E-16
 -1       620 8.72341E-04-2.47152E-04-1.72073E-16
 -1       621 1.15614E-03-2.99291E-04-2.92314E-16
 -1       622 1.44188E-03-3.38520E-04-4.45434E-16
 -1       623 1.72820E-03-3.66794E-04-6.31622E-16
 -1       624 2.01454E-03-3.86383E-04-8.50045E-16
 -1       625 2.30074E-03-3.99303E-04-1.10181E-15
 -1       626 2.58676E-03-4.07199E-04-1.38593E-15
 -1       627 2.87266E-03-4.11354E-04-1.69982E-15
 -1       628 3.15846E-03-4.12732E-04-2.04151E-15
 -1       629 3.44423E-03-4.12038E-04-2.40962E-15
 -1       630 3.72999E-03-4.09767E-04-2.80296E-15
 -1       631 4.01577E-03-4.06256E-04-3.22316E-15
 -1       632 4.30164E-03-4.01737E-04-3.66824E-15
 -1       633 4.58762E-03-3.96372E-04-4.13524E-15
 -1       634 4.87380E-03-3.90308E-04-4.62107E-15
 -1       635 5.16030E-03-3.83721E-04-5.12430E-15
 -1       636 5.44728E-03-3.76865E-04-5.64043E-15
 -1       637 5.73501E-03-3.70136E-04-6.17361E-15
 -1       638 6.02389E-03-3.64126E-04-6.72490E-15
 -1       639 6.31448E-03-3.59692E-04-7.29629E-15
 -1       640 6.60755E-03-3.58011E-04-7.89675E-15
 -1       641 6.90406E-03-3.60612E-04-8.51703E-15
 -1       642 7.20513E-03-3.69352E-04-9.15197E-15
 -1       643 7.51180E-03-3.86262E-04-9.80051E-15
 -1       644 7.82459E-03-4.13112E-04-1.04612E-14
 -1       645 8.14289E-03-4.50508E-04-1.11326E-14
 -1       646 8.46432E-03-4.96373E-04-1.18132E-14
 -1       647 8.78465E-03-5.43961E-04-1.24971E-14
 -1       648 9.09927E-03-5.80413E-04-1.31811E-14
 -1       649 9.40609E-03-5.88867E-04-1.38688E-14
 -1       650 9.70781E-03-5.54787E-04-1.45591E-14
 -1       651 1.00107E-02-4.73742E-04-1.52531E-14
 -1       652 1.03202E-02-3.54337E-04-1.59509E-14
 -1       653 1.06372E-02-2.12931E-04-1.66430E-14
 -1       654 1.09585E-02-6.55225E-05-1.73292E-14
 -1       655 1.12793E-02 7.71900E-05-1.80104E-14
 -1       656 1.15958E-02 2.10290E-04-1.86886E-14
 -1       657 1.19064E-02 3.32923E-04-1.93643E-14
 -1       658 1.22110E-02 4.46361E-04-2.00426E-14
 -1       659 1.25103E-02 5.52685E-04-2.07310E-14
 -1       660 1.28053E-02 6.54083E-04-2.14286E-14
 -1       661 1.30972E-02 7.52553E-04-2.21271E-14
 -1       662 1.33868E-02 8.49816E-04-2.28325E-14
 -1       663 1.36747E-02 9.47331E-04-2.35482E-14
 -1       664 1.01381E-02-3.32777E-04-1.51011E-14
 -1       665 1.90558E-03 4.19866E-04-7.76109E-16
 -1       666 2.76016E-03 4.52355E-04-1.59753E-15
 -1       667 3.04495E-03 4.54991E-04-1.93263E-15
 -1       668 3.32987E-03 4.55176E-04-2.29471E-15
 -1       669 3.61499E-03 4.53485E-04-2.68430E-15
 -1       670 3.90033E-03 4.50301E-04-3.10065E-15
 -1       671 4.18593E-03 4.45857E-04-3.54678E-15
 -1       672 4.47181E-03 4.40282E-04-4.01911E-15
 -1       673 4.75799E-03 4.33642E-04-4.51599E-15
 -1       674 5.04447E-03 4.25984E-04-5.03599E-15
 -1       675 5.33123E-03 4.17390E-04-5.57773E-15
 -1       676 5.61819E-03 4.08046E-04-6.13742E-15
 -1       677 5.90523E-03 3.98335E-04-6.71684E-15
 -1       678 6.19214E-03 3.88964E-04-7.31415E-15
 -1       679 6.47863E-03 3.81144E-04-7.92657E-15
 -1       680 6.76444E-03 3.76826E-04-8.54906E-15
 -1       681 7.04949E-03 3.79012E-04-9.18087E-15
 -1       682 7.33450E-03 3.92160E-04-9.82140E-15
 -1       683 7.62201E-03 4.22784E-04-1.04682E-14
 -1       684 7.91836E-03 4.80668E-04-1.11161E-14
 -1       685 8.23540E-03 5.80980E-04-1.17647E-14
 -1       686 8.52038E-03 7.10470E-04-1.23225E-14
 -1       687 1.38320E-02 9.98984E-04-2.39735E-14
 -1       688 1.06327E-02-6.23507E-05-1.58390E-14
 -1       689 1.25897E-02 9.72054E-04-1.82710E-14
 -1       690 1.28553E-02 1.03638E-03-1.88933E-14
 -1       691 1.31220E-02 1.11780E-03-1.94996E-14
 -1       692 1.33925E-02 1.21036E-03-2.00939E-14
 -1       693 1.36671E-02 1.30989E-03-2.06730E-14
 -1       694 1.39451E-02 1.41323E-03-2.12318E-14
 -1       695 1.42257E-02 1.51802E-03-2.17727E-14
 -1       696 1.45080E-02 1.62246E-03-2.22965E-14
 -1       697 1.43438E-02 1.38432E-03-2.31597E-14
 -1       698 1.45251E-02 1.52643E-03-2.29215E-14
 -1       699 1.42429E-02 1.31232E-03-2.32741E-14
 -1       700 1.44379E-02 1.45535E-03-2.30415E-14
 -1       701 1.22166E-02 8.49827E-04-1.71140E-14
 -1       702 1.41380E-02 1.23987E-03-2.33885E-14
 -1       703 1.40269E-02 1.16409E-03-2.35049E-14
 -1       704 1.39130E-02 1.08608E-03-2.36114E-14
 -1       705 1.62023E-03 3.95739E-04-5.66648E-16
 -1       706 1.14422E-02 3.95400E-04-1.66635E-14
 -1       707 8.30411E-03 6.12349E-05-1.22357E-14
 -1       708 1.10421E-02 1.80737E-04-1.62814E-14
 -1       709 7.96023E-03 1.96232E-04-1.19085E-14
 -1       710 1.23181E-02 9.33810E-04-1.76426E-14
 -1       711 2.47541E-03 4.46442E-04-1.29199E-15
 -1       712 2.19060E-03 4.36117E-04-1.01858E-15
 -1       713 7.89316E-03 4.28679E-04-1.19475E-14
 -1       714 9.04445E-04 1.24601E-04-2.29610E-16
 -1       715 9.04062E-04-1.22196E-04-2.19815E-16
 -1       716 1.23801E-02 7.88020E-04-1.72464E-14
 -1       717 7.60629E-03 3.19774E-04-1.16409E-14
 -1       718 7.68673E-03 3.60660E-04-1.17785E-14
 -1       719 8.17666E-03 5.39568E-04-1.20607E-14
 -1       720 7.72204E-03 2.78962E-04-1.17460E-14
 -1       721 9.53651E-03-4.36531E-04-1.39770E-14
 -1       722 1.24042E-02 7.57256E-04-1.73086E-14
 -1       723 9.84446E-03-4.27681E-04-1.45530E-14
 -1       724 1.22430E-02 7.11224E-04-1.73205E-14
 -1       725 1.46992E-02 1.67310E-03-2.27476E-14
 -1       726 9.11371E-04-1.75571E-04-2.11196E-16
 -1       727 8.97917E-04-2.31596E-05-2.30478E-16
 -1       728 1.21275E-02 6.78605E-04-1.74385E-14
 -1       729 1.03921E-02-2.06566E-04-1.55866E-14
 -1       730 8.48026E-03-4.68514E-05-1.23352E-14
 -1       731 1.24069E-02 7.63589E-04-1.76443E-14
 -1       732 9.32219E-03-4.02466E-04-1.35825E-14
 -1       733 1.46138E-02 1.59868E-03-2.28351E-14
 -1       734 8.99834E-04-7.18223E-05-2.26137E-16
 -1       735 1.17096E-02 5.18875E-04-1.70632E-14
 -1       736 8.88478E-03-2.23962E-04-1.28883E-14
 -1       737 1.16168E-03 2.43548E-04-3.35703E-16
 -1       738 1.28339E-03-2.57094E-04-3.81826E-16
 -1       739 1.56946E-03-2.86041E-04-5.55064E-16
 -1       740 1.85679E-03-3.06843E-04-7.60581E-16
 -1       741 2.14461E-03-3.21078E-04-9.98011E-16
 -1       742 2.43251E-03-3.30220E-04-1.26812E-15
 -1       743 2.72027E-03-3.35501E-04-1.56901E-15
 -1       744 3.00776E-03-3.37891E-04-1.89869E-15
 -1       745 3.29493E-03-3.38118E-04-2.25485E-15
 -1       746 3.58177E-03-3.36709E-04-2.63734E-15
 -1       747 3.86826E-03-3.34024E-04-3.04552E-15
 -1       748 4.15440E-03-3.30302E-04-3.47886E-15
 -1       749 4.44021E-03-3.25697E-04-3.93588E-15
 -1       750 4.72571E-03-3.20314E-04-4.41343E-15
 -1       751 5.01095E-03-3.14248E-04-4.91012E-15
 -1       752 5.29604E-03-3.07626E-04-5.42212E-15
 -1       753 5.58117E-03-3.00649E-04-5.94835E-15
 -1       754 5.86670E-03-2.93647E-04-6.49273E-15
 -1       755 6.15314E-03-2.87140E-04-7.05785E-15
 -1       756 6.44134E-03-2.81917E-04-7.64330E-15
 -1       757 6.73247E-03-2.79127E-04-8.25183E-15
 -1       758 7.02812E-03-2.80388E-04-8.87697E-15
 -1       759 7.33020E-03-2.87886E-04-9.51577E-15
 -1       760 7.64064E-03-3.04379E-04-1.01656E-14
 -1       761 7.96070E-03-3.32804E-04-1.08275E-14
 -1       762 8.28977E-03-3.75045E-04-1.14974E-14
 -1       763 8.62435E-03-4.29413E-04-1.21746E-14
 -1       764 8.95749E-03-4.86693E-04-1.28540E-14
 -1       765 9.28240E-03-5.27045E-04-1.35344E-14
 -1       766 9.59739E-03-5.25287E-04-1.42176E-14
 -1       767 9.90890E-03-4.65214E-04-1.49078E-14
 -1       768 1.02269E-02-3.50307E-04-1.56039E-14
 -1       769 1.05554E-02-2.01967E-04-1.62952E-14
 -1       770 1.08900E-02-4.47312E-05-1.69794E-14
 -1       771 1.12235E-02 1.05351E-04-1.76607E-14
 -1       772 1.15500E-02 2.42043E-04-1.83429E-14
 -1       773 1.18669E-02 3.65342E-04-1.90197E-14
 -1       774 1.21746E-02 4.77836E-04-1.96930E-14
 -1       775 1.24746E-02 5.82589E-04-2.03705E-14
 -1       776 1.27689E-02 6.82305E-04-2.10547E-14
 -1       777 1.30593E-02 7.79151E-04-2.17422E-14
 -1       778 1.33472E-02 8.74811E-04-2.24267E-14
 -1       779 3.18020E-03 3.81030E-04-2.13445E-15
 -1       780 1.08866E-02 7.93760E-05-1.63392E-14
 -1       781 2.89363E-03 3.79815E-04-1.78544E-15
 -1       782 3.75276E-03 3.77984E-04-2.91411E-15
 -1       783 4.03874E-03 3.74451E-04-3.34541E-15
 -1       784 4.32449E-03 3.69852E-04-3.80286E-15
 -1       785 4.60994E-03 3.64289E-04-4.28500E-15
 -1       786 4.89498E-03 3.57840E-04-4.79098E-15
 -1       787 5.17944E-03 3.50597E-04-5.31907E-15
 -1       788 5.46302E-03 3.42731E-04-5.86836E-15
 -1       789 5.74534E-03 3.34557E-04-6.43629E-15
 -1       790 6.02582E-03 3.26625E-04-7.02042E-15
 -1       791 6.30368E-03 3.19827E-04-7.62237E-15
 -1       792 6.57795E-03 3.15520E-04-8.23553E-15
 -1       793 6.84752E-03 3.15642E-04-8.85774E-15
 -1       794 7.11136E-03 3.22813E-04-9.49136E-15
 -1       795 7.36906E-03 3.40428E-04-1.01340E-14
 -1       796 7.62222E-03 3.73283E-04-1.07810E-14
 -1       797 1.32354E-02 1.10773E-03-1.98215E-14
 -1       798 1.13863E-03 5.90125E-05-3.53640E-16
 -1       799 2.03287E-03 3.56662E-04-9.16059E-16
 -1       800 1.24662E-02 8.67869E-04-1.77750E-14
 -1       801 1.29882E-02 1.02085E-03-1.92124E-14
 -1       802 1.27529E-02 9.43811E-04-1.85900E-14
 -1       803 1.34925E-02 1.20188E-03-2.04212E-14
 -1       804 1.37575E-02 1.30089E-03-2.10063E-14
 -1       805 1.40285E-02 1.40263E-03-2.15737E-14
 -1       806 1.43040E-02 1.50539E-03-2.21199E-14
 -1       807 1.40556E-02 1.26609E-03-2.26873E-14
 -1       808 1.37252E-02 1.04253E-03-2.29714E-14
 -1       809 1.39516E-02 1.19500E-03-2.27843E-14
 -1       810 1.12831E-02 3.01711E-04-1.68244E-14
 -1       811 1.24840E-02 8.01870E-04-1.76412E-14
 -1       812 1.38402E-02 1.12011E-03-2.28825E-14
 -1       813 3.46657E-03 3.80273E-04-2.51121E-15
 -1       814 2.60688E-03 3.75985E-04-1.46496E-15
 -1       815 2.31994E-03 3.68657E-04-1.17507E-15
 -1       816 9.94362E-03-4.13556E-04-1.48149E-14
 -1       817 8.04192E-03 9.86010E-05-1.17241E-14
 -1       818 1.24625E-03 3.00666E-04-3.64326E-16
 -1       819 7.72529E-03 2.09516E-04-1.14005E-14
 -1       820 7.56278E-03 2.71322E-04-1.12952E-14
 -1       821 7.94047E-03 4.50656E-04-1.15344E-14
 -1       822 9.65929E-03-4.63983E-04-1.42402E-14
 -1       823 7.56685E-03 3.16310E-04-1.13548E-14
 -1       824 1.13728E-03 1.18725E-06-3.52742E-16
 -1       825 1.23354E-02 7.44376E-04-1.77628E-14
 -1       826 1.06432E-02-7.55794E-05-1.60916E-14
 -1       827 7.66482E-03 3.50465E-04-1.14084E-14
 -1       828 1.15505E-02 4.27515E-04-1.72290E-14
 -1       829 1.36334E-02 9.70646E-04-2.31141E-14
 -1       830 1.53232E-03 3.35159E-04-5.33878E-16
 -1       831 1.14267E-03 1.17711E-04-3.51437E-16
 -1       832 1.19805E-02 6.22047E-04-1.75387E-14
 -1       833 1.01798E-02-3.25899E-04-1.53054E-14
 -1       834 1.14948E-03-1.76054E-04-3.31329E-16
 -1       835 1.41542E-02 1.33641E-03-2.25863E-14
 -1       836 1.42446E-02 1.40575E-03-2.24871E-14
 -1       837 1.14236E-03-1.15132E-04-3.41266E-16
 -1       838 1.25385E-02 8.10663E-04-1.79743E-14
 -1       839 8.64412E-03-1.64443E-04-1.24531E-14
 -1       840 1.78237E-03 3.49183E-04-7.12633E-16
 -1       841 9.45961E-03-4.63283E-04-1.38444E-14
 -1       842 1.15005E-03 1.79040E-04-3.45542E-16
 -1       843 8.19505E-03 9.27837E-06-1.18202E-14
 -1       844 1.43342E-02 1.47559E-03-2.24148E-14
 -1       845 9.07697E-03-3.42950E-04-1.31356E-14
 -1       846 7.46766E-03 2.73286E-04-1.10090E-14
 -1       847 7.48806E-03 3.04235E-04-1.09085E-14
 -1       848 1.70144E-03-2.29551E-04-6.72226E-16
 -1       849 1.98967E-03-2.43843E-04-8.95954E-16
 -1       850 2.27860E-03-2.53432E-04-1.15143E-15
 -1       851 2.56768E-03-2.59361E-04-1.43829E-15
 -1       852 2.85657E-03-2.62499E-04-1.75520E-15
 -1       853 3.14506E-03-2.63535E-04-2.09967E-15
 -1       854 3.43302E-03-2.62979E-04-2.47086E-15
 -1       855 3.72036E-03-2.61191E-04-2.86716E-15
 -1       856 4.00704E-03-2.58408E-04-3.28926E-15
 -1       857 4.29301E-03-2.54771E-04-3.73585E-15
 -1       858 4.57823E-03-2.50357E-04-4.20361E-15
 -1       859 4.86270E-03-2.45202E-04-4.69135E-15
 -1       860 5.14643E-03-2.39332E-04-5.19953E-15
 -1       861 5.42951E-03-2.32790E-04-5.72101E-15
 -1       862 5.71215E-03-2.25671E-04-6.25988E-15
 -1       863 5.99474E-03-2.18173E-04-6.81759E-15
 -1       864 6.27795E-03-2.10663E-04-7.39402E-15
 -1       865 6.56288E-03-2.03772E-04-7.99061E-15
 -1       866 6.85114E-03-1.98564E-04-8.60483E-15
 -1       867 7.14502E-03-1.96766E-04-9.23391E-15
 -1       868 7.44744E-03-2.01105E-04-9.87522E-15
 -1       869 7.76170E-03-2.15676E-04-1.05270E-14
 -1       870 8.09031E-03-2.45643E-04-1.11867E-14
 -1       871 8.43267E-03-2.95804E-04-1.18567E-14
 -1       872 8.78460E-03-3.65336E-04-1.25293E-14
 -1       873 9.13406E-03-4.39165E-04-1.32039E-14
 -1       874 1.04708E-02-1.98707E-04-1.59476E-14
 -1       875 1.08228E-02-2.37508E-05-1.66327E-14
 -1       876 1.11725E-02 1.38987E-04-1.73131E-14
 -1       877 1.15110E-02 2.81081E-04-1.79930E-14
 -1       878 1.18349E-02 4.04397E-04-1.86703E-14
 -1       879 1.21453E-02 5.14242E-04-1.93418E-14
 -1       880 1.24452E-02 6.15621E-04-2.00104E-14
 -1       881 1.27376E-02 7.12175E-04-2.06879E-14
 -1       882 1.30254E-02 8.06383E-04-2.13664E-14
 -1       883 1.33106E-02 8.99879E-04-2.20380E-14
 -1       884 2.74141E-03 3.03995E-04-1.63970E-15
 -1       885 4.17702E-03 2.98987E-04-3.58991E-15
 -1       886 3.89101E-03 3.02472E-04-3.14717E-15
 -1       887 4.74661E-03 2.89644E-04-4.54855E-15
 -1       888 5.02977E-03 2.84014E-04-5.06410E-15
 -1       889 5.31137E-03 2.77962E-04-5.60055E-15
 -1       890 5.59090E-03 2.71780E-04-6.15762E-15
 -1       891 5.86761E-03 2.65947E-04-6.73145E-15
 -1       892 6.14054E-03 2.61195E-04-7.32182E-15
 -1       893 6.40837E-03 2.58585E-04-7.92458E-15
 -1       894 6.66943E-03 2.59542E-04-8.53888E-15
 -1       895 6.92164E-03 2.65835E-04-9.16382E-15
 -1       896 7.16244E-03 2.79453E-04-9.80041E-15
 -1       897 7.38918E-03 3.02638E-04-1.04442E-14
 -1       898 1.35720E-02 1.19642E-03-2.07623E-14
 -1       899 7.75465E-03 1.13141E-04-1.11326E-14
 -1       900 1.26548E-02 8.71205E-04-1.82834E-14
 -1       901 1.30795E-02 1.01656E-03-1.95411E-14
 -1       902 1.28553E-02 9.37217E-04-1.89163E-14
 -1       903 1.38334E-02 1.29343E-03-2.13541E-14
 -1       904 1.37671E-02 1.15036E-03-2.22034E-14
 -1       905 1.13847E-03-5.64863E-05-3.48683E-16
 -1       906 4.46228E-03 2.94675E-04-4.05709E-15
 -1       907 1.44684E-03 2.76617E-04-4.99085E-16
 -1       908 3.02950E-03 3.06147E-04-1.97517E-15
 -1       909 1.42403E-03-2.05432E-04-4.87501E-16
 -1       910 1.11207E-02 1.78298E-04-1.68966E-14
 -1       911 1.33198E-02 1.10353E-03-2.01529E-14
 -1       912 7.48998E-03 2.04548E-04-1.08421E-14
 -1       913 1.25069E-02 7.97977E-04-1.80927E-14
 -1       914 1.18385E-02 5.43929E-04-1.77064E-14
 -1       915 1.13770E-02 3.05100E-04-1.73014E-14
 -1       916 2.45302E-03 2.99213E-04-1.33397E-15
 -1       917 1.41413E-02 1.40497E-03-2.20228E-14
 -1       918 3.60437E-03 3.04987E-04-2.72935E-15
 -1       919 7.35938E-03 2.17233E-04-1.05566E-14
 -1       920 1.38148E-03 3.40584E-05-4.98303E-16
 -1       921 1.22219E-02 7.05770E-04-1.78631E-14
 -1       922 1.39612E-02 1.30212E-03-2.18967E-14
 -1       923 1.38457E-03 9.97056E-05-4.97307E-16
 -1       924 1.38717E-02 1.22054E-03-2.21178E-14
 -1       925 7.88131E-03 4.54076E-05-1.12262E-14
 -1       926 3.31718E-03 3.06320E-04-2.33877E-15
 -1       927 1.36552E-02 1.07690E-03-2.22880E-14
 -1       928 8.83828E-03-2.87740E-04-1.26985E-14
 -1       929 1.86623E-03 2.81951E-04-8.06596E-16
 -1       930 8.35008E-03-9.65983E-05-1.19370E-14
 -1       931 1.41560E-03-1.36425E-04-5.00779E-16
 -1       932 1.34848E-02 9.89786E-04-2.21695E-14
 -1       933 2.16451E-03 2.90933E-04-1.05984E-15
 -1       934 2.12620E-03-1.77883E-04-1.03670E-15
 -1       935 2.41596E-03-1.83639E-04-1.30855E-15
 -1       936 2.70581E-03-1.86997E-04-1.61162E-15
 -1       937 2.99536E-03-1.88520E-04-1.94399E-15
 -1       938 3.28435E-03-1.88647E-04-2.30362E-15
 -1       939 3.57259E-03-1.87696E-04-2.68892E-15
 -1       940 3.85996E-03-1.85878E-04-3.09973E-15
 -1       941 4.14635E-03-1.83317E-04-3.53452E-15
 -1       942 4.43168E-03-1.80065E-04-3.99235E-15
 -1       943 4.71587E-03-1.76119E-04-4.47135E-15
 -1       944 4.99884E-03-1.71437E-04-4.97097E-15
 -1       945 5.28056E-03-1.65949E-04-5.49003E-15
 -1       946 5.56105E-03-1.59577E-04-6.02325E-15
 -1       947 5.84050E-03-1.52256E-04-6.57506E-15
 -1       948 6.11927E-03-1.43976E-04-7.14320E-15
 -1       949 6.39811E-03-1.34858E-04-7.73081E-15
 -1       950 6.67827E-03-1.25279E-04-8.33703E-15
 -1       951 6.96173E-03-1.16129E-04-8.95558E-15
 -1       952 7.25146E-03-1.09253E-04-9.58757E-15
 -1       953 7.55131E-03-1.08014E-04-1.02307E-14
 -1       954 7.86794E-03-1.18850E-04-1.08830E-14
 -1       955 1.18171E-02 4.51224E-04-1.83205E-14
 -1       956 1.21277E-02 5.56263E-04-1.89863E-14
 -1       957 1.24247E-02 6.52051E-04-1.96521E-14
 -1       958 1.27129E-02 7.43692E-04-2.03219E-14
 -1       959 1.29962E-02 8.34065E-04-2.09951E-14
 -1       960 1.32407E-02 9.11443E-04-2.15873E-14
 -1       961 5.44151E-03 2.08710E-04-5.88116E-15
 -1       962 4.02978E-03 2.27408E-04-3.37904E-15
 -1       963 5.16314E-03 2.12776E-04-5.33637E-15
 -1       964 4.88231E-03 2.16921E-04-4.81203E-15
 -1       965 5.71671E-03 2.05159E-04-6.44361E-15
 -1       966 5.98776E-03 2.02772E-04-7.02259E-15
 -1       967 6.25339E-03 2.02460E-04-7.61654E-15
 -1       968 6.51190E-03 2.05428E-04-8.22130E-15
 -1       969 6.76106E-03 2.13142E-04-8.83857E-15
 -1       970 6.99782E-03 2.27214E-04-9.46836E-15
 -1       971 7.21792E-03 2.49243E-04-1.01054E-14
 -1       972 1.38139E-03-3.12215E-05-4.95369E-16
 -1       973 1.27102E-02 8.68957E-04-1.86183E-14
 -1       974 1.29187E-02 9.39516E-04-1.92508E-14
 -1       975 1.39748E-03-8.31532E-05-4.99275E-16
 -1       976 1.31471E-02 1.01858E-03-1.98754E-14
 -1       977 7.33892E-03 2.58800E-04-1.05236E-14
 -1       978 1.46288E-03 1.97715E-04-5.32784E-16
 -1       979 1.36354E-02 1.19012E-03-2.11167E-14
 -1       980 1.62083E-03 2.71539E-04-6.21702E-16
 -1       981 1.69230E-03-1.54645E-04-6.88390E-16
 -1       982 7.46151E-03 1.18180E-04-1.05072E-14
 -1       983 1.90887E-03-1.67089E-04-8.53877E-16
 -1       984 1.33816E-02 1.09903E-03-2.05018E-14
 -1       985 3.16752E-03 2.31720E-04-2.16738E-15
 -1       986 1.99210E-03 2.16162E-04-9.30222E-16
 -1       987 2.87865E-03 2.30794E-04-1.81707E-15
 -1       988 1.20946E-02 6.45073E-04-1.80339E-14
 -1       989 2.58934E-03 2.28037E-04-1.49607E-15
 -1       990 8.20415E-03-1.50230E-04-1.15425E-14
 -1       991 1.62978E-03 7.30419E-05-6.65822E-16
 -1       992 4.59957E-03 2.20857E-04-4.31094E-15
 -1       993 1.14875E-02 3.28797E-04-1.76440E-14
 -1       994 4.31530E-03 2.24400E-04-3.83304E-15
 -1       995 3.74321E-03 2.29750E-04-2.94914E-15
 -1       996 7.30409E-03 1.46067E-04-1.02235E-14
 -1       997 1.62803E-03 1.48193E-06-6.64345E-16
 -1       998 1.35873E-02 1.10699E-03-2.16294E-14
 -1       999 8.02003E-03-4.14454E-05-1.13373E-14
 -1      1000 1.24312E-02 7.72098E-04-1.81944E-14
 -1      1001 3.45575E-03 2.31264E-04-2.54537E-15
 -1      1002 1.36176E-02 1.15091E-03-2.13717E-14
 -1      1003 2.29984E-03 2.22848E-04-1.20585E-15
 -1      1004 7.56094E-03 6.87452E-05-1.05963E-14
 -1      1005 1.72679E-03 2.09433E-04-7.18585E-16
 -1      1006 1.34748E-02 1.03556E-03-2.17012E-14
 -1      1007 1.17657E-02 4.87039E-04-1.78467E-14
 -1      1008 1.20211E-02 5.95995E-04-1.81728E-14
 -1      1009 2.55628E-03-1.11971E-04-1.46961E-15
 -1      1010 2.84655E-03-1.13446E-04-1.78810E-15
 -1      1011 3.13635E-03-1.13909E-04-2.13519E-15
 -1      1012 3.42541E-03-1.13586E-04-2.50980E-15
 -1      1013 3.71351E-03-1.12632E-04-2.90830E-15
 -1      1014 4.00051E-03-1.11132E-04-3.33306E-15
 -1      1015 4.28625E-03-1.09112E-04-3.78005E-15
 -1      1016 4.57060E-03-1.06544E-04-4.24917E-15
 -1      1017 4.85340E-03-1.03346E-04-4.74033E-15
 -1      1018 5.13451E-03-9.93853E-05-5.25272E-15
 -1      1019 5.41379E-03-9.44778E-05-5.78320E-15
 -1      1020 5.69117E-03-8.83873E-05-6.32865E-15
 -1      1021 5.96668E-03-8.08373E-05-6.89019E-15
 -1      1022 6.24058E-03-7.15417E-05-7.47035E-15
 -1      1023 6.51348E-03-6.02803E-05-8.06934E-15
 -1      1024 6.78654E-03-4.70581E-05-8.68164E-15
 -1      1025 7.06185E-03-3.24057E-05-9.30497E-15
 -1      1026 7.34314E-03-1.81919E-05-9.93988E-15
 -1      1027 1.26711E-02 8.48352E-04-1.87184E-14
 -1      1028 1.67352E-03-9.64958E-05-6.86957E-16
 -1      1029 1.24169E-02 6.91084E-04-1.92945E-14
 -1      1030 1.26967E-02 7.76105E-04-1.99584E-14
 -1      1031 1.29723E-02 8.61476E-04-2.06231E-14
 -1      1032 5.29629E-03 1.44425E-04-5.60670E-15
 -1      1033 5.57162E-03 1.43025E-04-6.15911E-15
 -1      1034 5.01782E-03 1.46479E-04-5.07390E-15
 -1      1035 6.10944E-03 1.44706E-04-7.30718E-15
 -1      1036 6.36954E-03 1.49638E-04-7.90492E-15
 -1      1037 6.62155E-03 1.58952E-04-8.51522E-15
 -1      1038 6.86314E-03 1.74147E-04-9.13861E-15
 -1      1039 7.09093E-03 1.96778E-04-9.76988E-15
 -1      1040 1.29488E-02 9.32637E-04-1.95893E-14
 -1      1041 2.13224E-03 1.48781E-04-1.06495E-15
 -1      1042 5.84302E-03 1.42853E-04-6.72569E-15
 -1      1043 1.31780E-02 1.00593E-03-2.02284E-14
 -1      1044 1.21011E-02 5.95623E-04-1.85743E-14
 -1      1045 3.01829E-03 1.56721E-04-1.99750E-15
 -1      1046 1.33591E-02 9.74569E-04-2.16477E-14
 -1      1047 2.26597E-03-1.09186E-04-1.18119E-15
 -1      1048 1.33942E-02 1.07662E-03-2.08038E-14
 -1      1049 7.22819E-03 2.04725E-04-1.01681E-14
 -1      1050 2.72849E-03 1.55423E-04-1.66078E-15
 -1      1051 3.30746E-03 1.56902E-04-2.36174E-15
 -1      1052 4.16917E-03 1.53194E-04-3.61043E-15
 -1      1053 4.73686E-03 1.48790E-04-4.56372E-15
 -1      1054 1.31649E-02 9.17227E-04-2.11399E-14
 -1      1055 1.23314E-02 7.28582E-04-1.83635E-14
 -1      1056 3.88308E-03 1.54959E-04-3.16972E-15
 -1      1057 1.87771E-03 3.96731E-05-8.55751E-16
 -1      1058 1.65000E-03-4.70965E-05-6.76508E-16
 -1      1059 1.88982E-03-1.06128E-04-8.52186E-16
 -1      1060 1.33587E-02 1.03387E-03-2.10566E-14
 -1      1061 2.43837E-03 1.52640E-04-1.35464E-15
 -1      1062 2.07768E-03-1.08113E-04-1.01027E-15
 -1      1063 7.32478E-03 6.97037E-05-1.00842E-14
 -1      1064 2.69924E-03-3.88026E-05-1.63367E-15
 -1      1065 1.93269E-03 1.26643E-04-8.96266E-16
 -1      1066 1.22661E-02 6.89975E-04-1.85052E-14
 -1      1067 2.98957E-03-3.90825E-05-1.96718E-15
 -1      1068 3.27926E-03-3.90310E-05-2.32993E-15
 -1      1069 3.56803E-03-3.87020E-05-2.71783E-15
 -1      1070 3.85567E-03-3.81191E-05-3.12995E-15
 -1      1071 4.14201E-03-3.72695E-05-3.56704E-15
 -1      1072 4.42686E-03-3.60975E-05-4.02565E-15
 -1      1073 4.71001E-03-3.45061E-05-4.50674E-15
 -1      1074 4.99123E-03-3.23396E-05-5.01168E-15
 -1      1075 5.27026E-03-2.93710E-05-5.53747E-15
 -1      1076 5.54682E-03-2.52858E-05-6.07748E-15
 -1      1077 5.82065E-03-1.96673E-05-6.63279E-15
 -1      1078 6.09153E-03-1.19910E-05-7.20557E-15
 -1      1079 6.35938E-03-1.64282E-06-7.79823E-15
 -1      1080 6.62439E-03 1.20112E-05-8.40596E-15
 -1      1081 6.88728E-03 2.93920E-05-9.02525E-15
 -1      1082 7.10586E-03 4.85141E-05-9.55118E-15
 -1      1083 4.45385E-03 1.51090E-04-4.07549E-15
 -1      1084 1.26903E-02 8.07552E-04-1.95963E-14
 -1      1085 5.97283E-03 8.40459E-05-7.00099E-15
 -1      1086 2.40865E-03-3.81020E-05-1.32972E-15
 -1      1087 1.29539E-02 8.87127E-04-2.02553E-14
 -1      1088 5.43073E-03 7.88328E-05-5.87499E-15
 -1      1089 2.07631E-03 5.87745E-05-1.02265E-15
 -1      1090 5.15418E-03 7.83737E-05-5.33500E-15
 -1      1091 6.49468E-03 1.00460E-04-8.19185E-15
 -1      1092 6.23679E-03 9.03354E-05-7.58821E-15
 -1      1093 6.98679E-03 1.37222E-04-9.43313E-15
 -1      1094 7.14325E-03 1.40951E-04-9.82771E-15
 -1      1095 3.59578E-03 1.56247E-04-2.75337E-15
 -1      1096 2.38271E-03 5.98533E-05-1.30725E-15
 -1      1097 1.89871E-03-1.18154E-05-8.70814E-16
 -1      1098 1.26613E-02 8.29368E-04-1.90931E-14
 -1      1099 5.70386E-03 8.05027E-05-6.43110E-15
 -1      1100 6.74523E-03 1.15686E-04-8.80737E-15
 -1      1101 1.29412E-02 9.09414E-04-1.98937E-14
 -1      1102 2.21998E-03-3.90227E-05-1.14826E-15
 -1      1103 1.31694E-02 9.35955E-04-2.09836E-14
 -1      1104 1.31466E-02 9.69682E-04-2.04780E-14
 -1      1105 4.87481E-03 7.86442E-05-4.81476E-15
 -1      1106 4.02400E-03 8.09355E-05-3.39046E-15
 -1      1107 4.30937E-03 8.01249E-05-3.84165E-15
 -1      1108 7.12397E-03 9.68880E-05-9.69061E-15
 -1      1109 2.67326E-03 6.11467E-05-1.60855E-15
 -1      1110 1.89362E-03-5.89640E-05-8.62391E-16
 -1      1111 3.16004E-03 8.21282E-05-2.18071E-15
 -1      1112 2.91685E-03 7.17784E-05-1.88421E-15
 -1      1113 3.71200E-03 3.56976E-05-2.92652E-15
 -1      1114 3.44913E-03 8.20522E-05-2.55899E-15
 -1      1115 4.59308E-03 7.93059E-05-4.31673E-15
 -1      1116 0.00000E+00 0.00000E+00 0.00000E+00
 -1      1117 0.00000E+00 0.00000E+00 0.00000E+00
 -1      1118 0.00000E+00 0.00000E+00 0.00000E+00
 -1      1119 0.00000E+00 0.00000E+00 0.00000E+00
 -1      1120 0.00000E+00 0.00000E+00 0.00000E+00
 -1      1121 0.00000E+00 0.00000E+00 0.00000E+00
 -1      1122 0.00000E+00 0.00000E+00 0.00000E+00
 -1      1123 0.00000E+00 0.00000E+00 0.00000E+00
 -1      1124 0.00000E+00 0.00000E+00 0.00000E+00
 -1      1125 0.00000E+00 0.00000E+00 0.00000E+00
 -1      1126 0.00000E+00 0.00000E+00 0.00000E+00
 -1      1127 0.00000E+00 0.00000E+00 0.00000E+00
 -1      1128 0.00000E+00 0.00000E+00 0.00000E+00
 -1      1129 0.00000E+00 0.00000E+00 0.00000E+00
 -1      1130 0.00000E+00 0.00000E+00 0.00000E+00
 -1      1131 0.00000E+00 0.00000E+00 0.00000E+00
 -1      1132 0.00000E+00 0.00000E+00 0.00000E+00
 -1      1133 2.11610E-04-1.48321E-04 6.97955E-18
 -1      1134 5.51449E-04-3.37495E-04 1.21973E-19
 -1      1135 8.33124E-04-4.58951E-04-3.81233E-17
 -1      1136 1.10254E-03-5.40549E-04-1.12608E-16
 -1      1137 1.36776E-03-5.97654E-04-2.22844E-16
 -1      1138 1.63238E-03-6.38139E-04-3.68710E-16
 -1      1139 1.89822E-03-6.66631E-04-5.50680E-16
 -1      1140 2.16616E-03-6.86226E-04-7.66734E-16
 -1      1141 2.43650E-03-6.99177E-04-1.01502E-15
 -1      1142 2.70927E-03-7.07170E-04-1.29717E-15
 -1      1143 2.98435E-03-7.11469E-04-1.61065E-15
 -1      1144 3.26155E-03-7.13013E-04-1.95205E-15
 -1      1145 3.54069E-03-7.12490E-04-2.32143E-15
 -1      1146 3.82164E-03-7.10394E-04-2.71915E-15
 -1      1147 4.10429E-03-7.07086E-04-3.14107E-15
 -1      1148 4.38866E-03-7.02840E-04-3.58929E-15
 -1      1149 4.67484E-03-6.97894E-04-4.06005E-15
 -1      1150 4.96299E-03-6.92499E-04-4.54746E-15
 -1      1151 5.25341E-03-6.86977E-04-5.05048E-15
 -1      1152 5.54644E-03-6.81777E-04-5.56990E-15
 -1      1153 5.84244E-03-6.77530E-04-6.10791E-15
 -1      1154 6.14175E-03-6.75101E-04-6.66558E-15
 -1      1155 6.44452E-03-6.75607E-04-7.24553E-15
 -1      1156 6.75060E-03-6.80390E-04-7.85874E-15
 -1      1157 7.05932E-03-6.90889E-04-8.49860E-15
 -1      1158 7.36930E-03-7.08369E-04-9.15943E-15
 -1      1159 7.67826E-03-7.33448E-04-9.82995E-15
 -1      1160 7.98310E-03-7.65454E-04-1.05071E-14
 -1      1161 8.28016E-03-8.01689E-04-1.12009E-14
 -1      1162 8.56599E-03-8.36908E-04-1.19076E-14
 -1      1163 8.83844E-03-8.63412E-04-1.26199E-14
 -1      1164 9.09781E-03-8.72155E-04-1.33328E-14
 -1      1165 9.34740E-03-8.54842E-04-1.40405E-14
 -1      1166 9.59318E-03-8.06378E-04-1.47525E-14
 -1      1167 9.84215E-03-7.26570E-04-1.54671E-14
 -1      1168 1.01004E-02-6.20194E-04-1.61748E-14
 -1      1169 1.03715E-02-4.95390E-04-1.68686E-14
 -1      1170 1.06558E-02-3.61216E-04-1.75554E-14
 -1      1171 1.09513E-02-2.25491E-04-1.82335E-14
 -1      1172 1.12546E-02-9.35996E-05-1.89112E-14
 -1      1173 1.15619E-02 3.16715E-05-1.95994E-14
 -1      1174 1.18699E-02 1.49650E-04-2.02978E-14
 -1      1175 1.21763E-02 2.61060E-04-2.10156E-14
 -1      1176 1.24795E-02 3.67368E-04-2.17534E-14
 -1      1177 1.27788E-02 4.70308E-04-2.25122E-14
 -1      1178 1.30741E-02 5.71606E-04-2.32813E-14
 -1      1179 1.33657E-02 6.72822E-04-2.40577E-14
 -1      1180 1.36542E-02 7.75253E-04-2.48507E-14
 -1      1181 1.39406E-02 8.79767E-04-2.56684E-14
 -1      1182 1.42190E-02 9.83585E-04-2.64922E-14
 -1      1183 2.28366E-04 1.60698E-04 7.15573E-18
 -1      1184 5.53622E-04 3.42129E-04-3.07642E-18
 -1      1185 8.34052E-04 4.61124E-04-4.59702E-17
 -1      1186 1.10343E-03 5.42243E-04-1.25537E-16
 -1      1187 1.36866E-03 5.99342E-04-2.42631E-16
 -1      1188 1.63331E-03 6.39917E-04-3.97631E-16
 -1      1189 1.89920E-03 6.68516E-04-5.89684E-16
 -1      1190 2.16716E-03 6.88228E-04-8.16608E-16
 -1      1191 2.43751E-03 7.01299E-04-1.07776E-15
 -1      1192 2.71025E-03 7.09406E-04-1.37358E-15
 -1      1193 2.98528E-03 7.13802E-04-1.70273E-15
 -1      1194 3.26241E-03 7.15408E-04-2.05717E-15
 -1      1195 3.54147E-03 7.14887E-04-2.43677E-15
 -1      1196 3.82230E-03 7.12696E-04-2.84454E-15
 -1      1197 4.10483E-03 7.09137E-04-3.28074E-15
 -1      1198 4.38912E-03 7.04396E-04-3.75278E-15
 -1      1199 4.67533E-03 6.98588E-04-4.25533E-15
 -1      1200 4.96380E-03 6.91801E-04-4.78270E-15
 -1      1201 5.25511E-03 6.84140E-04-5.33123E-15
 -1      1202 5.55011E-03 6.75804E-04-5.89948E-15
 -1      1203 5.85002E-03 6.67181E-04-6.48765E-15
 -1      1204 6.15651E-03 6.58996E-04-7.09803E-15
 -1      1205 6.47183E-03 6.52555E-04-7.72508E-15
 -1      1206 6.79886E-03 6.50118E-04-8.36606E-15
 -1      1207 7.14110E-03 6.55479E-04-9.01295E-15
 -1      1208 7.50234E-03 6.74793E-04-9.66172E-15
 -1      1209 7.88580E-03 7.17542E-04-1.03093E-14
 -1      1210 8.29214E-03 7.97045E-04-1.09626E-14
 -1      1211 8.71603E-03 9.28789E-04-1.16163E-14
 -1      1212 9.14190E-03 1.12349E-03-1.22752E-14
 -1      1213 9.54253E-03 1.37234E-03-1.29384E-14
 -1      1214 9.88882E-03 1.63051E-03-1.36078E-14
 -1      1215 1.01731E-02 1.82131E-03-1.42774E-14
 -1      1216 1.04276E-02 1.87759E-03-1.49369E-14
 -1      1217 1.07074E-02 1.79599E-03-1.55852E-14
 -1      1218 1.10479E-02 1.64005E-03-1.62376E-14
 -1      1219 1.14444E-02 1.48848E-03-1.68844E-14
 -1      1220 1.18686E-02 1.38905E-03-1.75093E-14
 -1      1221 1.22925E-02 1.35275E-03-1.81220E-14
 -1      1222 1.26993E-02 1.36961E-03-1.87253E-14
 -1      1223 1.30830E-02 1.42408E-03-1.92993E-14
 -1      1224 1.34438E-02 1.50251E-03-1.98395E-14
 -1      1225 1.37847E-02 1.59497E-03-2.03607E-14
 -1      1226 1.41095E-02 1.69487E-03-2.08641E-14
 -1      1227 1.44216E-02 1.79794E-03-2.13405E-14
 -1      1228 1.47240E-02 1.90140E-03-2.17939E-14
 -1      1229 1.50192E-02 2.00340E-03-2.22392E-14
 -1      1230 1.53092E-02 2.10264E-03-2.26816E-14
 -1      1231 1.55960E-02 2.19839E-03-2.31218E-14
 -1      1232 1.58743E-02 2.28877E-03-2.35461E-14
 -1      1233 1.59648E-02 2.29007E-03-2.38259E-14
 -1      1234 1.58756E-02 2.20551E-03-2.40151E-14
 -1      1235 1.57893E-02 2.12222E-03-2.42057E-14
 -1      1236 1.57055E-02 2.04180E-03-2.43776E-14
 -1      1237 1.56225E-02 1.96512E-03-2.45501E-14
 -1      1238 1.55390E-02 1.89284E-03-2.47428E-14
 -1      1239 1.54525E-02 1.82362E-03-2.49637E-14
 -1      1240 1.53610E-02 1.75579E-03-2.51764E-14
 -1      1241 1.52645E-02 1.68858E-03-2.53813E-14
 -1      1242 1.51631E-02 1.62064E-03-2.55666E-14
 -1      1243 1.50575E-02 1.55081E-03-2.57656E-14
 -1      1244 1.49497E-02 1.47888E-03-2.59935E-14
 -1      1245 1.48402E-02 1.40385E-03-2.62165E-14
 -1      1246 1.47294E-02 1.32500E-03-2.64030E-14
 -1      1247 1.46195E-02 1.24335E-03-2.65800E-14
 -1      1248 1.45116E-02 1.15974E-03-2.67339E-14
 -1      1249 1.44064E-02 1.07600E-03-2.68537E-14
 -1      1250 1.23256E-02 7.26466E-04-1.60504E-14
 -1      1251 1.22521E-02 8.78428E-04-1.59852E-14
 -1      1252 1.20717E-02 1.03351E-03-1.58721E-14
 -1      1253 1.17882E-02 1.19677E-03-1.56928E-14
 -1      1254 1.13974E-02 1.36303E-03-1.54334E-14
 -1      1255 1.09477E-02 1.49688E-03-1.51220E-14
 -1      1256 1.04894E-02 1.56623E-03-1.48041E-14
 -1      1257 1.00172E-02 1.56333E-03-1.44753E-14
 -1      1258 9.52982E-03 1.47946E-03-1.41272E-14
 -1      1259 9.03786E-03 1.32295E-03-1.37809E-14
 -1      1260 8.60921E-03 1.13830E-03-1.34944E-14
 -1      1261 8.26245E-03 9.54630E-04-1.32747E-14
 -1      1262 7.97815E-03 7.70875E-04-1.31031E-14
 -1      1263 7.78675E-03 6.01543E-04-1.29858E-14
 -1      1264 7.70250E-03 4.48772E-04-1.29350E-14
 -1      1265 7.72606E-03 3.02224E-04-1.29568E-14
 -1      1266 7.86418E-03 1.55927E-04-1.30524E-14
 -1      1267 8.10213E-03 1.41744E-05-1.32050E-14
 -1      1268 8.42134E-03-1.19222E-04-1.34170E-14
 -1      1269 8.82446E-03-2.37727E-04-1.37027E-14
 -1      1270 9.26314E-03-3.17823E-04-1.40259E-14
 -1      1271 9.71289E-03-3.44038E-04-1.43580E-14
 -1      1272 1.01754E-02-3.12149E-04-1.47011E-14
 -1      1273 1.06311E-02-2.24844E-04-1.50356E-14
 -1      1274 1.10703E-02-9.46052E-05-1.53448E-14
 -1      1275 1.14830E-02 6.49891E-05-1.56166E-14
 -1      1276 1.18427E-02 2.37289E-04-1.58430E-14
 -1      1277 1.21146E-02 4.06220E-04-1.59983E-14
 -1      1278 1.22810E-02 5.69218E-04-1.60643E-14
 -1      1279 1.66647E-04-1.10345E-04 1.57209E-18
 -1      1280 1.12514E-04-5.69977E-05-5.58364E-18
 -1      1281 1.17589E-04-6.76000E-05-3.68629E-18
 -1      1282 1.08409E-04-4.35203E-05-8.75493E-18
 -1      1283 1.10266E-04-4.96330E-05-7.75205E-18
 -1      1284 2.26283E-04-1.07667E-04-1.82146E-17
 -1      1285 1.06841E-04-3.36432E-05-1.06794E-17
 -1      1286 1.07680E-04-3.83650E-05-1.00831E-17
 -1      1287 2.19084E-04-8.25089E-05-2.40828E-17
 -1      1288 1.06074E-04-2.53792E-05-1.21431E-17
 -1      1289 1.06499E-04-2.94138E-05-1.17771E-17
 -1      1290 2.15875E-04-6.33293E-05-2.80673E-17
 -1      1291 1.05679E-04-1.81140E-05-1.27529E-17
 -1      1292 1.05906E-04-2.16840E-05-1.25496E-17
 -1      1293 2.14238E-04-4.72324E-05-3.05474E-17
 -1      1294 1.05466E-04-1.12549E-05-1.33763E-17
 -1      1295 1.05586E-04-1.46431E-05-1.32137E-17
 -1      1296 2.13339E-04-3.27889E-05-3.20517E-17
 -1      1297 1.05370E-04-4.69659E-06-1.38236E-17
 -1      1298 1.05421E-04-7.95350E-06-1.37287E-17
 -1      1299 2.12855E-04-1.92132E-05-3.33392E-17
 -1      1300 1.05359E-04 1.74425E-06-1.39862E-17
 -1      1301 1.05357E-04-1.47290E-06-1.39456E-17
 -1      1302 2.12647E-04-6.16898E-06-3.42608E-17
 -1      1303 1.05430E-04 8.23465E-06-1.40269E-17
 -1      1304 1.05374E-04 4.97120E-06-1.39727E-17
 -1      1305 2.12655E-04 6.71483E-06-3.44776E-17
 -1      1306 1.05602E-04 1.49501E-05-1.39456E-17
 -1      1307 1.05478E-04 1.15467E-05-1.39862E-17
 -1      1308 2.12881E-04 1.97851E-05-3.44099E-17
 -1      1309 1.05928E-04 2.19761E-05-1.34848E-17
 -1      1310 1.05697E-04 1.83820E-05-1.36474E-17
 -1      1311 2.13381E-04 3.33010E-05-3.38813E-17
 -1      1312 1.06542E-04 2.98484E-05-1.26987E-17
 -1      1313 1.06108E-04 2.57695E-05-1.29427E-17
 -1      1314 2.14305E-04 4.78405E-05-3.26345E-17
 -1      1315 1.07719E-04 3.89494E-05-1.14519E-17
 -1      1316 1.06875E-04 3.41555E-05-1.19669E-17
 -1      1317 2.15986E-04 6.42613E-05-3.06694E-17
 -1      1318 1.10245E-04 5.03734E-05-9.22927E-18
 -1      1319 1.08414E-04 4.41919E-05-1.01915E-17
 -1      1320 2.19185E-04 8.37605E-05-2.72677E-17
 -1      1321 1.16904E-04 6.76358E-05-5.17707E-18
 -1      1322 1.12160E-04 5.77973E-05-7.14218E-18
 -1      1323 2.26268E-04 1.09487E-04-2.15756E-17
 -1      1324 1.57531E-04 1.09858E-04 1.31460E-18
 -1      1325 1.35618E-04 8.61013E-05-2.91379E-18
 -1      1326 2.55960E-04 1.52117E-04-1.44877E-17
 -1      1327 3.34975E-04 2.20737E-04-3.83537E-18
 -1      1328 4.21397E-04-2.61739E-04-6.12574E-18
 -1      1329 5.74432E-04-3.36790E-04-1.83230E-17
 -1      1330 7.21556E-04-3.97374E-04-3.98309E-17
 -1      1331 8.64656E-04-4.46641E-04-7.00937E-17
 -1      1332 6.11863E-04-3.30892E-04-3.96682E-17
 -1      1333 1.00461E-03-4.87673E-04-1.09003E-16
 -1      1334 1.14238E-03-5.21607E-04-1.56559E-16
 -1      1335 9.04981E-04-4.31534E-04-1.03650E-16
 -1      1336 1.27879E-03-5.50309E-04-2.12748E-16
 -1      1337 1.41436E-03-5.74255E-04-2.78111E-16
 -1      1338 1.18728E-03-5.00847E-04-2.01865E-16
 -1      1339 1.54952E-03-5.94508E-04-3.52054E-16
 -1      1340 1.68453E-03-6.11399E-04-4.34752E-16
 -1      1341 1.46408E-03-5.49439E-04-3.34395E-16
 -1      1342 1.81962E-03-6.25552E-04-5.26190E-16
 -1      1343 1.95493E-03-6.37258E-04-6.26615E-16
 -1      1344 1.73864E-03-5.83470E-04-5.01349E-16
 -1      1345 2.09056E-03-6.46915E-04-7.35347E-16
 -1      1346 2.22656E-03-6.54767E-04-8.52237E-16
 -1      1347 2.01282E-03-6.06895E-04-7.03281E-16
 -1      1348 2.36300E-03-6.61086E-04-9.77462E-16
 -1      1349 2.49987E-03-6.66072E-04-1.11074E-15
 -1      1350 2.28763E-03-6.22497E-04-9.38811E-16
 -1      1351 2.63722E-03-6.69913E-04-1.25238E-15
 -1      1352 2.77502E-03-6.72770E-04-1.40247E-15
 -1      1353 2.56358E-03-6.32310E-04-1.20729E-15
 -1      1354 2.91328E-03-6.74775E-04-1.55935E-15
 -1      1355 3.05199E-03-6.76051E-04-1.72333E-15
 -1      1356 2.84087E-03-6.37843E-04-1.50737E-15
 -1      1357 3.19114E-03-6.76689E-04-1.89449E-15
 -1      1358 3.33071E-03-6.76787E-04-2.07264E-15
 -1      1359 3.11959E-03-6.40208E-04-1.83683E-15
 -1      1360 3.47070E-03-6.76402E-04-2.25795E-15
 -1      1361 3.61109E-03-6.75610E-04-2.45012E-15
 -1      1362 3.39973E-03-6.40216E-04-2.19367E-15
 -1      1363 3.75188E-03-6.74447E-04-2.64871E-15
 -1      1364 3.89305E-03-6.72972E-04-2.85397E-15
 -1      1365 3.68125E-03-6.38448E-04-2.57830E-15
 -1      1366 4.03461E-03-6.71206E-04-3.06597E-15
 -1      1367 4.17657E-03-6.69197E-04-3.28379E-15
 -1      1368 3.96415E-03-6.35313E-04-2.98970E-15
 -1      1369 4.31892E-03-6.66960E-04-3.50756E-15
 -1      1370 4.46168E-03-6.64537E-04-3.73775E-15
 -1      1371 4.24844E-03-6.31107E-04-3.42602E-15
 -1      1372 4.60487E-03-6.61940E-04-3.97253E-15
 -1      1373 4.74850E-03-6.59215E-04-4.21269E-15
 -1      1374 4.53418E-03-6.26059E-04-3.88552E-15
 -1      1375 4.89260E-03-6.56378E-04-4.45640E-15
 -1      1376 5.03721E-03-6.53485E-04-4.70355E-15
 -1      1377 4.82150E-03-6.20387E-04-4.36460E-15
 -1      1378 5.18236E-03-6.50564E-04-4.95528E-15
 -1      1379 5.32807E-03-6.47685E-04-5.21179E-15
 -1      1380 5.11058E-03-6.14351E-04-4.86065E-15
 -1      1381 5.47440E-03-6.44901E-04-5.47133E-15
 -1      1382 5.62138E-03-6.42300E-04-5.73462E-15
 -1      1383 5.40166E-03-6.08314E-04-5.37240E-15
 -1      1384 5.76904E-03-6.39969E-04-6.00327E-15
 -1      1385 5.91742E-03-6.38018E-04-6.27730E-15
 -1      1386 5.69498E-03-6.02803E-04-5.89963E-15
 -1      1387 6.06654E-03-6.36577E-04-6.55683E-15
 -1      1388 6.21641E-03-6.35779E-04-6.83999E-15
 -1      1389 5.99079E-03-5.98570E-04-6.44654E-15
 -1      1390 6.36704E-03-6.35802E-04-7.13209E-15
 -1      1391 6.51840E-03-6.36794E-04-7.42986E-15
 -1      1392 6.28925E-03-5.96637E-04-7.01690E-15
 -1      1393 6.67045E-03-6.38978E-04-7.73524E-15
 -1      1394 6.82312E-03-6.42500E-04-8.04792E-15
 -1      1395 6.59034E-03-5.98308E-04-7.61324E-15
 -1      1396 6.97629E-03-6.47606E-04-8.36572E-15
 -1      1397 7.12983E-03-6.54404E-04-8.68996E-15
 -1      1398 6.89379E-03-6.05106E-04-8.23540E-15
 -1      1399 7.28353E-03-6.63117E-04-9.01820E-15
 -1      1400 7.43718E-03-6.73763E-04-9.35002E-15
 -1      1401 7.19891E-03-6.18581E-04-8.87892E-15
 -1      1402 7.59049E-03-6.86456E-04-9.68384E-15
 -1      1403 7.74315E-03-7.01052E-04-1.00191E-14
 -1      1404 7.50451E-03-6.39939E-04-9.53891E-15
 -1      1405 7.89483E-03-7.17445E-04-1.03571E-14
 -1      1406 8.04515E-03-7.35251E-04-1.06999E-14
 -1      1407 7.80887E-03-6.69447E-04-1.02093E-14
 -1      1408 8.19376E-03-7.54021E-04-1.10455E-14
 -1      1409 8.34032E-03-7.73077E-04-1.13931E-14
 -1      1410 8.10984E-03-7.05654E-04-1.08904E-14
 -1      1411 8.48454E-03-7.91564E-04-1.17457E-14
 -1      1412 8.62623E-03-8.08520E-04-1.20989E-14
 -1      1413 8.40512E-03-7.44625E-04-1.15846E-14
 -1      1414 8.76526E-03-8.22746E-04-1.24538E-14
 -1      1415 8.90169E-03-8.33129E-04-1.28089E-14
 -1      1416 8.69288E-03-7.79565E-04-1.22886E-14
 -1      1417 9.03569E-03-8.38363E-04-1.31629E-14
 -1      1418 9.16758E-03-8.37431E-04-1.35159E-14
 -1      1419 8.97237E-03-8.01342E-04-1.29947E-14
 -1      1420 9.29782E-03-8.29295E-04-1.38695E-14
 -1      1421 9.42700E-03-8.13331E-04-1.42226E-14
 -1      1422 9.24465E-03-8.00239E-04-1.36986E-14
 -1      1423 9.55578E-03-7.89123E-04-1.45783E-14
 -1      1424 9.68483E-03-7.56645E-04-1.49344E-14
 -1      1425 9.51258E-03-7.68610E-04-1.44045E-14
 -1      1426 9.81483E-03-7.16261E-04-1.52886E-14
 -1      1427 9.94636E-03-6.68554E-04-1.56419E-14
 -1      1428 9.78030E-03-7.03409E-04-1.51114E-14
 -1      1429 1.00799E-02-6.14531E-04-1.59943E-14
 -1      1430 1.02158E-02-5.55186E-04-1.63442E-14
 -1      1431 1.00520E-02-6.07279E-04-1.58156E-14
 -1      1432 1.03543E-02-4.91821E-04-1.66922E-14
 -1      1433 1.04953E-02-4.25548E-04-1.70372E-14
 -1      1434 1.03306E-02-4.87606E-04-1.65148E-14
 -1      1435 1.06389E-02-3.57585E-04-1.73800E-14
 -1      1436 1.07848E-02-2.88905E-04-1.77220E-14
 -1      1437 1.06173E-02-3.54049E-04-1.72057E-14
 -1      1438 1.09328E-02-2.20388E-04-1.80618E-14
 -1      1439 1.10824E-02-1.52729E-04-1.83988E-14
 -1      1440 1.09115E-02-2.15837E-04-1.78879E-14
 -1      1441 1.12334E-02-8.63962E-05-1.87392E-14
 -1      1442 1.13853E-02-2.17831E-05-1.90811E-14
 -1      1443 1.12113E-02-7.99330E-05-1.85668E-14
 -1      1444 1.15379E-02 4.09936E-05-1.94234E-14
 -1      1445 1.16907E-02 1.01793E-04-1.97682E-14
 -1      1446 1.15144E-02 4.95902E-05-1.92476E-14
 -1      1447 1.18435E-02 1.60734E-04-2.01179E-14
 -1      1448 1.19961E-02 2.17848E-04-2.04708E-14
 -1      1449 1.18186E-02 1.71228E-04-1.99383E-14
 -1      1450 1.21483E-02 2.73378E-04-2.08270E-14
 -1      1451 1.22998E-02 3.27458E-04-2.11903E-14
 -1      1452 1.21221E-02 2.85300E-04-2.06424E-14
 -1      1453 1.24506E-02 3.80367E-04-2.15573E-14
 -1      1454 1.26006E-02 4.32286E-04-2.19252E-14
 -1      1455 1.24236E-02 3.93171E-04-2.13606E-14
 -1      1456 1.27497E-02 4.83486E-04-2.22994E-14
 -1      1457 1.28980E-02 5.34159E-04-2.26803E-14
 -1      1458 1.27223E-02 4.96651E-04-2.20975E-14
 -1      1459 1.30454E-02 5.84545E-04-2.30624E-14
 -1      1460 1.31920E-02 6.34825E-04-2.34428E-14
 -1      1461 1.30181E-02 5.97622E-04-2.28454E-14
 -1      1462 1.33378E-02 6.85200E-04-2.38283E-14
 -1      1463 1.34829E-02 7.35827E-04-2.42187E-14
 -1      1464 1.33110E-02 6.97827E-04-2.36051E-14
 -1      1465 1.36274E-02 7.86858E-04-2.46164E-14
 -1      1466 1.37714E-02 8.38413E-04-2.50166E-14
 -1      1467 1.36012E-02 7.98772E-04-2.43826E-14
 -1      1468 1.39149E-02 8.90560E-04-2.54223E-14
 -1      1469 1.40581E-02 9.43338E-04-2.58360E-14
 -1      1470 1.38894E-02 9.01625E-04-2.51794E-14
 -1      1471 1.42707E-02 1.02500E-03-2.64417E-14
 -1      1472 1.42457E-02 1.03528E-03-2.61842E-14
 -1      1473 6.42843E-04 3.71999E-04-3.03577E-17
 -1      1474 4.92781E-04 3.03687E-04-1.24277E-17
 -1      1475 4.44732E-04 2.65905E-04-2.03966E-17
 -1      1476 9.28286E-04 4.71910E-04-9.30517E-17
 -1      1477 7.87496E-04 4.26451E-04-5.72459E-17
 -1      1478 7.44473E-04 3.90698E-04-6.66107E-17
 -1      1479 1.20302E-03 5.41223E-04-1.92310E-16
 -1      1480 1.06643E-03 5.09605E-04-1.38005E-16
 -1      1481 1.03039E-03 4.76063E-04-1.48617E-16
 -1      1482 1.47339E-03 5.90242E-04-3.27903E-16
 -1      1483 1.33843E-03 5.67882E-04-2.55546E-16
 -1      1484 1.30816E-03 5.35752E-04-2.66524E-16
 -1      1485 1.74274E-03 6.24869E-04-5.00807E-16
 -1      1486 1.60802E-03 6.09115E-04-4.09544E-16
 -1      1487 1.58224E-03 5.77825E-04-4.20142E-16
 -1      1488 2.01275E-03 6.48946E-04-7.09353E-16
 -1      1489 1.87757E-03 6.38056E-04-6.00607E-16
 -1      1490 1.85525E-03 6.07235E-04-6.09945E-16
 -1      1491 2.28424E-03 6.65187E-04-9.52512E-16
 -1      1492 2.14827E-03 6.57917E-04-8.26853E-16
 -1      1493 2.12861E-03 6.27337E-04-8.35391E-16
 -1      1494 2.55755E-03 6.75592E-04-1.22995E-15
 -1      1495 2.42065E-03 6.71021E-04-1.08708E-15
 -1      1496 2.40305E-03 6.40541E-04-1.09492E-15
 -1      1497 2.83278E-03 6.81654E-04-1.54053E-15
 -1      1498 2.69493E-03 6.79092E-04-1.38121E-15
 -1      1499 2.67889E-03 6.48627E-04-1.38713E-15
 -1      1500 3.10986E-03 6.84473E-04-1.88102E-15
 -1      1501 2.97109E-03 6.83414E-04-1.70765E-15
 -1      1502 2.95625E-03 6.52914E-04-1.71149E-15
 -1      1503 3.38871E-03 6.84848E-04-2.24663E-15
 -1      1504 3.24907E-03 6.84926E-04-2.06066E-15
 -1      1505 3.23514E-03 6.54361E-04-2.06309E-15
 -1      1506 3.66923E-03 6.83337E-04-2.63986E-15
 -1      1507 3.52877E-03 6.84299E-04-2.43973E-15
 -1      1508 3.51552E-03 6.53653E-04-2.44120E-15
 -1      1509 3.95135E-03 6.80316E-04-3.06019E-15
 -1      1510 3.81009E-03 6.81995E-04-2.84621E-15
 -1      1511 3.79736E-03 6.51255E-04-2.84665E-15
 -1      1512 4.23509E-03 6.76019E-04-3.51192E-15
 -1      1513 4.09302E-03 6.78312E-04-3.28155E-15
 -1      1514 4.08067E-03 6.47465E-04-3.28078E-15
 -1      1515 4.52057E-03 6.70581E-04-3.99743E-15
 -1      1516 4.37761E-03 6.73429E-04-3.75107E-15
 -1      1517 4.36552E-03 6.42458E-04-3.74767E-15
 -1      1518 4.80804E-03 6.64083E-04-4.50920E-15
 -1      1519 4.66404E-03 6.67449E-04-4.25014E-15
 -1      1520 4.65209E-03 6.36326E-04-4.24389E-15
 -1      1521 5.09791E-03 6.56589E-04-5.04368E-15
 -1      1522 4.95265E-03 6.60438E-04-4.77401E-15
 -1      1523 4.94068E-03 6.29118E-04-4.76493E-15
 -1      1524 5.39085E-03 6.48212E-04-5.59942E-15
 -1      1525 5.24396E-03 6.52477E-04-5.31926E-15
 -1      1526 5.23178E-03 6.20892E-04-5.30672E-15
 -1      1527 5.68776E-03 6.39186E-04-6.17469E-15
 -1      1528 5.53875E-03 6.43724E-04-5.88441E-15
 -1      1529 5.52606E-03 6.11775E-04-5.86879E-15
 -1      1530 5.98993E-03 6.29986E-04-6.76937E-15
 -1      1531 5.83810E-03 6.34517E-04-6.46935E-15
 -1      1532 5.82446E-03 6.02060E-04-6.45077E-15
 -1      1533 6.29903E-03 6.21511E-04-7.38698E-15
 -1      1534 6.14350E-03 6.25514E-04-7.07554E-15
 -1      1535 6.12823E-03 5.92344E-04-7.05367E-15
 -1      1536 6.61725E-03 6.15380E-04-8.01576E-15
 -1      1537 6.45685E-03 6.17930E-04-7.69939E-15
 -1      1538 6.43898E-03 5.83764E-04-7.67374E-15
 -1      1539 6.94723E-03 6.14396E-04-8.65842E-15
 -1      1540 6.78059E-03 6.13909E-04-8.33616E-15
 -1      1541 6.75867E-03 5.78359E-04-8.30699E-15
 -1      1542 7.29193E-03 6.23253E-04-9.30480E-15
 -1      1543 7.11753E-03 6.17108E-04-8.98115E-15
 -1      1544 7.08957E-03 5.79652E-04-8.94845E-15
 -1      1545 7.65414E-03 6.49494E-04-9.95112E-15
 -1      1546 7.47066E-03 6.33536E-04-9.62826E-15
 -1      1547 7.43406E-03 5.93501E-04-9.59486E-15
 -1      1548 8.03541E-03 7.04481E-04-1.06028E-14
 -1      1549 7.84233E-03 6.72580E-04-1.02765E-14
 -1      1550 7.79407E-03 6.29155E-04-1.02432E-14
 -1      1551 8.43417E-03 8.03412E-04-1.12543E-14
 -1      1552 8.23284E-03 7.47675E-04-1.09282E-14
 -1      1553 8.17027E-03 7.00051E-04-1.08941E-14
 -1      1554 8.84323E-03 9.61987E-04-1.19102E-14
 -1      1555 8.63820E-03 8.75011E-04-1.15812E-14
 -1      1556 8.56062E-03 8.22817E-04-1.15470E-14
 -1      1557 9.24764E-03 1.18603E-03-1.25700E-14
 -1      1558 9.04741E-03 1.06706E-03-1.22400E-14
 -1      1559 8.95854E-03 1.01134E-03-1.22038E-14
 -1      1560 9.62657E-03 1.45305E-03-1.32364E-14
 -1      1561 9.44177E-03 1.31779E-03-1.29026E-14
 -1      1562 9.35158E-03 1.26224E-03-1.28662E-14
 -1      1563 9.96441E-03 1.69891E-03-1.39040E-14
 -1      1564 9.80088E-03 1.58383E-03-1.35698E-14
 -1      1565 9.72376E-03 1.53441E-03-1.35319E-14
 -1      1566 1.02671E-02 1.83852E-03-1.45697E-14
 -1      1567 1.01183E-02 1.78570E-03-1.42378E-14
 -1      1568 1.00671E-02 1.74675E-03-1.41982E-14
 -1      1569 1.05663E-02 1.82494E-03-1.52259E-14
 -1      1570 1.04143E-02 1.84958E-03-1.48980E-14
 -1      1571 1.03936E-02 1.81865E-03-1.48586E-14
 -1      1572 1.08964E-02 1.69192E-03-1.58765E-14
 -1      1573 1.07260E-02 1.76804E-03-1.55520E-14
 -1      1574 1.07304E-02 1.73810E-03-1.55151E-14
 -1      1575 1.12684E-02 1.52308E-03-1.65238E-14
 -1      1576 1.10777E-02 1.60675E-03-1.62013E-14
 -1      1577 1.10952E-02 1.57268E-03-1.61667E-14
 -1      1578 1.16693E-02 1.38889E-03-1.71634E-14
 -1      1579 1.14667E-02 1.44917E-03-1.68453E-14
 -1      1580 1.14838E-02 1.41037E-03-1.68095E-14
 -1      1581 1.20781E-02 1.31890E-03-1.77814E-14
 -1      1582 1.18740E-02 1.34584E-03-1.74732E-14
 -1      1583 1.18812E-02 1.30396E-03-1.74363E-14
 -1      1584 1.24783E-02 1.31067E-03-1.83893E-14
 -1      1585 1.22800E-02 1.30806E-03-1.80877E-14
 -1      1586 1.22735E-02 1.26495E-03-1.80516E-14
 -1      1587 1.28615E-02 1.34906E-03-1.89817E-14
 -1      1588 1.26724E-02 1.32513E-03-1.86884E-14
 -1      1589 1.26526E-02 1.28204E-03-1.86546E-14
 -1      1590 1.32252E-02 1.41830E-03-1.95465E-14
 -1      1591 1.30458E-02 1.38068E-03-1.92677E-14
 -1      1592 1.30155E-02 1.33831E-03-1.92373E-14
 -1      1593 1.35706E-02 1.50616E-03-2.00843E-14
 -1      1594 1.34001E-02 1.46049E-03-1.98180E-14
 -1      1595 1.33622E-02 1.41915E-03-1.97962E-14
 -1      1596 1.39002E-02 1.60431E-03-2.06032E-14
 -1      1597 1.37372E-02 1.55433E-03-2.03445E-14
 -1      1598 1.36943E-02 1.51410E-03-2.03330E-14
 -1      1599 1.42170E-02 1.70737E-03-2.11048E-14
 -1      1600 1.40600E-02 1.65548E-03-2.08592E-14
 -1      1601 1.40142E-02 1.61630E-03-2.08510E-14
 -1      1602 1.45237E-02 1.81191E-03-2.15780E-14
 -1      1603 1.43714E-02 1.75962E-03-2.13455E-14
 -1      1604 1.43240E-02 1.72139E-03-2.13487E-14
 -1      1605 1.48227E-02 1.91567E-03-2.20375E-14
 -1      1606 1.46740E-02 1.86400E-03-2.18088E-14
 -1      1607 1.46260E-02 1.82659E-03-2.18225E-14
 -1      1608 1.51159E-02 2.01711E-03-2.24873E-14
 -1      1609 1.49699E-02 1.96675E-03-2.22627E-14
 -1      1610 1.49220E-02 1.93005E-03-2.22838E-14
 -1      1611 1.54051E-02 2.11519E-03-2.29322E-14
 -1      1612 1.52609E-02 2.06661E-03-2.27097E-14
 -1      1613 1.52134E-02 2.03050E-03-2.27386E-14
 -1      1614 1.56918E-02 2.20953E-03-2.33755E-14
 -1      1615 1.55487E-02 2.16280E-03-2.31543E-14
 -1      1616 1.55018E-02 2.12715E-03-2.31885E-14
 -1      1617 1.58291E-02 2.24664E-03-2.36250E-14
 -1      1618 1.57301E-02 2.14574E-03-2.38599E-14
 -1      1619 1.57739E-02 2.18742E-03-2.37686E-14
 -1      1620 1.56448E-02 2.06386E-03-2.40345E-14
 -1      1621 1.56870E-02 2.10451E-03-2.39519E-14
 -1      1622 1.55849E-02 2.08562E-03-2.36987E-14
 -1      1623 1.55619E-02 1.98472E-03-2.42026E-14
 -1      1624 1.56032E-02 2.02391E-03-2.41174E-14
 -1      1625 1.55007E-02 2.00470E-03-2.38621E-14
 -1      1626 1.54793E-02 1.90874E-03-2.43758E-14
 -1      1627 1.55207E-02 1.94633E-03-2.42892E-14
 -1      1628 1.54185E-02 1.92641E-03-2.40266E-14
 -1      1629 1.53964E-02 1.83697E-03-2.45657E-14
 -1      1630 1.54381E-02 1.87252E-03-2.44675E-14
 -1      1631 1.53368E-02 1.85153E-03-2.41968E-14
 -1      1632 1.53085E-02 1.76630E-03-2.47684E-14
 -1      1633 1.53529E-02 1.80140E-03-2.46671E-14
 -1      1634 1.52528E-02 1.77905E-03-2.43786E-14
 -1      1635 1.52158E-02 1.69697E-03-2.49621E-14
 -1      1636 1.52628E-02 1.73153E-03-2.48656E-14
 -1      1637 1.51640E-02 1.70773E-03-2.45626E-14
 -1      1638 1.51180E-02 1.62786E-03-2.51559E-14
 -1      1639 1.51676E-02 1.66246E-03-2.50623E-14
 -1      1640 1.50702E-02 1.63728E-03-2.47475E-14
 -1      1641 1.50153E-02 1.55788E-03-2.53348E-14
 -1      1642 1.50672E-02 1.59304E-03-2.52466E-14
 -1      1643 1.49710E-02 1.56672E-03-2.49266E-14
 -1      1644 1.49085E-02 1.48611E-03-2.55330E-14
 -1      1645 1.49623E-02 1.52226E-03-2.54311E-14
 -1      1646 1.48669E-02 1.49516E-03-2.51020E-14
 -1      1647 1.48007E-02 1.41323E-03-2.57363E-14
 -1      1648 1.48548E-02 1.44998E-03-2.56351E-14
 -1      1649 1.47599E-02 1.42251E-03-2.52861E-14
 -1      1650 1.46896E-02 1.33641E-03-2.59334E-14
 -1      1651 1.47452E-02 1.37516E-03-2.58381E-14
 -1      1652 1.46503E-02 1.34772E-03-2.54727E-14
 -1      1653 1.45785E-02 1.25696E-03-2.61028E-14
 -1      1654 1.46339E-02 1.29700E-03-2.60222E-14
 -1      1655 1.45387E-02 1.26995E-03-2.56467E-14
 -1      1656 1.44688E-02 1.17525E-03-2.62645E-14
 -1      1657 1.45234E-02 1.21635E-03-2.61839E-14
 -1      1658 1.44275E-02 1.18992E-03-2.58028E-14
 -1      1659 1.43301E-02 1.08453E-03-2.62613E-14
 -1      1660 1.43837E-02 1.12626E-03-2.61997E-14
 -1      1661 1.42871E-02 1.10059E-03-2.58094E-14
 -1      1662 1.41172E-02 1.00300E-03-2.56652E-14
 -1      1663 1.23325E-02 7.37785E-04-1.61857E-14
 -1      1664 1.23451E-02 6.92782E-04-1.62044E-14
 -1      1665 1.22081E-02 8.52142E-04-1.60846E-14
 -1      1666 1.22808E-02 7.98670E-04-1.61300E-14
 -1      1667 1.19637E-02 9.87996E-04-1.59506E-14
 -1      1668 1.20897E-02 9.19466E-04-1.60237E-14
 -1      1669 1.16165E-02 1.16138E-03-1.57416E-14
 -1      1670 1.17855E-02 1.07518E-03-1.58493E-14
 -1      1671 1.11757E-02 1.36703E-03-1.54487E-14
 -1      1672 1.13818E-02 1.26757E-03-1.55986E-14
 -1      1673 1.07679E-02 1.53679E-03-1.50942E-14
 -1      1674 1.09584E-02 1.47041E-03-1.52482E-14
 -1      1675 1.03549E-02 1.62117E-03-1.47488E-14
 -1      1676 1.05424E-02 1.59394E-03-1.49100E-14
 -1      1677 9.94694E-03 1.59739E-03-1.43890E-14
 -1      1678 1.01353E-02 1.62111E-03-1.45548E-14
 -1      1679 9.51934E-03 1.46441E-03-1.40096E-14
 -1      1680 9.72266E-03 1.54155E-03-1.41854E-14
 -1      1681 9.06892E-03 1.23605E-03-1.36349E-14
 -1      1682 9.28069E-03 1.34825E-03-1.37982E-14
 -1      1683 8.62630E-03 1.01963E-03-1.33614E-14
 -1      1684 8.80867E-03 1.11987E-03-1.34828E-14
 -1      1685 8.26030E-03 8.18489E-04-1.31364E-14
 -1      1686 8.42348E-03 9.08162E-04-1.32332E-14
 -1      1687 7.95369E-03 6.35768E-04-1.29449E-14
 -1      1688 8.08945E-03 7.10823E-04-1.30209E-14
 -1      1689 7.75308E-03 5.15040E-04-1.28501E-14
 -1      1690 7.82778E-03 5.69246E-04-1.28916E-14
 -1      1691 7.68052E-03 4.09984E-04-1.28008E-14
 -1      1692 7.69796E-03 4.55033E-04-1.28104E-14
 -1      1693 7.74190E-03 3.10441E-04-1.28489E-14
 -1      1694 7.69689E-03 3.56667E-04-1.28213E-14
 -1      1695 7.94162E-03 2.00176E-04-1.29481E-14
 -1      1696 7.83270E-03 2.56271E-04-1.28839E-14
 -1      1697 8.23269E-03 6.07705E-05-1.31330E-14
 -1      1698 8.09020E-03 1.25062E-04-1.30467E-14
 -1      1699 8.59774E-03-9.71724E-05-1.33822E-14
 -1      1700 8.42079E-03-2.19363E-05-1.32578E-14
 -1      1701 9.03104E-03-2.51892E-04-1.36889E-14
 -1      1702 8.83865E-03-1.78470E-04-1.35290E-14
 -1      1703 9.42081E-03-3.61136E-04-1.40557E-14
 -1      1704 9.24302E-03-3.20465E-04-1.38953E-14
 -1      1705 9.81917E-03-3.90004E-04-1.44288E-14
 -1      1706 9.63374E-03-3.86540E-04-1.42566E-14
 -1      1707 1.02250E-02-3.30326E-04-1.48022E-14
 -1      1708 1.00381E-02-3.67649E-04-1.46317E-14
 -1      1709 1.06397E-02-1.96261E-04-1.51606E-14
 -1      1710 1.04466E-02-2.66589E-04-1.49986E-14
 -1      1711 1.10617E-02-1.46105E-05-1.54826E-14
 -1      1712 1.08665E-02-1.02652E-04-1.53395E-14
 -1      1713 1.14808E-02 1.90133E-04-1.57743E-14
 -1      1714 1.12856E-02 9.63074E-05-1.56482E-14
 -1      1715 1.18662E-02 3.68462E-04-1.59935E-14
 -1      1716 1.16992E-02 2.87729E-04-1.58984E-14
 -1      1717 1.21533E-02 5.20110E-04-1.61486E-14
 -1      1718 1.20331E-02 4.57696E-04-1.60909E-14
 -1      1719 1.23184E-02 6.36210E-04-1.61989E-14
 -1      1720 1.22600E-02 5.85815E-04-1.61871E-14
 -1      1721 1.14349E-02 1.17802E-03-1.57636E-14
 -1      1722 1.18344E-02 9.81451E-04-1.60080E-14
 -1      1723 1.57826E-02 2.21121E-03-2.36639E-14
 -1      1724 1.56364E-02 2.15040E-03-2.35111E-14
 -1      1725 1.23122E-02 7.46336E-04-1.62891E-14
 -1      1726 1.21345E-02 8.43234E-04-1.61718E-14
 -1      1727 1.23422E-02 6.78464E-04-1.63384E-14
 -1      1728 1.10171E-02 1.40553E-03-1.54236E-14
 -1      1729 1.06162E-02 1.58144E-03-1.50406E-14
 -1      1730 1.02456E-02 1.65056E-03-1.46641E-14
 -1      1731 9.86812E-03 1.59146E-03-1.42672E-14
 -1      1732 9.46920E-03 1.40199E-03-1.38543E-14
 -1      1733 9.02915E-03 1.14467E-03-1.34946E-14
 -1      1734 8.58886E-03 9.05289E-04-1.32153E-14
 -1      1735 8.21254E-03 6.94942E-04-1.29713E-14
 -1      1736 7.90673E-03 5.48257E-04-1.28012E-14
 -1      1737 7.71994E-03 4.54050E-04-1.27072E-14
 -1      1738 7.67914E-03 3.86075E-04-1.26855E-14
 -1      1739 7.78981E-03 3.12824E-04-1.27383E-14
 -1      1740 8.03662E-03 2.11778E-04-1.28701E-14
 -1      1741 8.37433E-03 6.34017E-05-1.30917E-14
 -1      1742 8.78199E-03-1.12155E-04-1.33635E-14
 -1      1743 9.18026E-03-2.86323E-04-1.37163E-14
 -1      1744 9.55007E-03-3.95745E-04-1.41244E-14
 -1      1745 9.91240E-03-4.05093E-04-1.45291E-14
 -1      1746 1.02886E-02-3.11457E-04-1.49291E-14
 -1      1747 1.06850E-02-1.36960E-04-1.53055E-14
 -1      1748 1.11063E-02 8.31618E-05-1.56478E-14
 -1      1749 1.15359E-02 2.99290E-04-1.59356E-14
 -1      1750 1.19232E-02 4.75950E-04-1.61551E-14
 -1      1751 1.22052E-02 5.98421E-04-1.62916E-14
 -1      1752 2.85147E-04-1.76244E-04-7.34547E-18
 -1      1753 3.32151E-04-1.16828E-04-3.91126E-17
 -1      1754 3.36280E-04-1.33072E-04-3.56703E-17
 -1      1755 3.42148E-04-1.52054E-04-3.15503E-17
 -1      1756 3.51676E-04-1.74047E-04-2.61699E-17
 -1      1757 4.58258E-04-1.88133E-04-5.15809E-17
 -1      1758 3.24609E-04-6.54259E-05-4.73390E-17
 -1      1759 3.25739E-04-7.67196E-05-4.60379E-17
 -1      1760 3.23150E-04-4.39218E-05-4.96836E-17
 -1      1761 3.23789E-04-5.44167E-05-4.85045E-17
 -1      1762 4.36583E-04-7.93342E-05-7.09475E-17
 -1      1763 3.22385E-04-2.37906E-05-5.12286E-17
 -1      1764 3.22709E-04-3.37105E-05-5.04290E-17
 -1      1765 4.34627E-04-5.13462E-05-7.37935E-17
 -1      1766 3.22100E-04-4.34235E-06-5.23805E-17
 -1      1767 3.22194E-04-1.40015E-05-5.19062E-17
 -1      1768 4.33628E-04-2.49391E-05-7.58942E-17
 -1      1769 3.22219E-04 1.49895E-05-5.26516E-17
 -1      1770 3.22108E-04 5.32018E-06-5.25974E-17
 -1      1771 4.33338E-04 7.55082E-07-7.72765E-17
 -1      1772 3.22772E-04 3.47517E-05-5.24347E-17
 -1      1773 3.22428E-04 2.47993E-05-5.26516E-17
 -1      1774 4.33687E-04 2.64779E-05-7.76560E-17
 -1      1775 3.23879E-04 5.52010E-05-5.14183E-17
 -1      1776 3.23228E-04 4.48326E-05-5.20553E-17
 -1      1777 4.34742E-04 5.27454E-05-7.69512E-17
 -1      1778 3.25904E-04 7.78622E-05-4.93719E-17
 -1      1779 3.24723E-04 6.62767E-05-5.05780E-17
 -1      1780 4.36764E-04 8.06361E-05-7.52165E-17
 -1      1781 3.29551E-04 1.03705E-04-4.60379E-17
 -1      1782 3.27425E-04 9.03533E-05-4.79488E-17
 -1      1783 4.40365E-04 1.11614E-04-7.21265E-17
 -1      1784 3.36537E-04 1.35160E-04-4.02239E-17
 -1      1785 3.32379E-04 1.18665E-04-4.35578E-17
 -1      1786 4.46776E-04 1.47386E-04-6.67326E-17
 -1      1787 3.52212E-04 1.77639E-04-3.08591E-17
 -1      1788 3.42742E-04 1.54802E-04-3.61717E-17
 -1      1789 4.59242E-04 1.91499E-04-5.78693E-17
 -1      1790 4.07567E-04 2.33703E-04-2.45436E-17
 -1      1791 3.77980E-04 2.02690E-04-2.88533E-17
 -1      1792 4.95723E-04 2.44022E-04-4.98462E-17
 -1      1793 5.58362E-04 3.02511E-04-4.35849E-17
 -1      1794 3.39917E-04-1.90933E-04-1.68187E-17
 -1      1795 8.53275E-04 4.07072E-04-1.08434E-16
 -1      1796 7.06926E-04 3.59363E-04-7.16658E-17
 -1      1797 6.73195E-04 3.28808E-04-7.57722E-17
 -1      1798 4.58823E-04-2.36741E-04-3.34070E-17
 -1      1799 8.06982E-04-3.74079E-04-9.69683E-17
 -1      1800 9.52200E-04-4.15221E-04-1.39130E-16
 -1      1801 1.09499E-03-4.49851E-04-1.89519E-16
 -1      1802 1.23661E-03-4.78673E-04-2.48404E-16
 -1      1803 1.00367E-03-3.97822E-04-1.76129E-16
 -1      1804 1.37696E-03-5.03063E-04-3.15557E-16
 -1      1805 1.51660E-03-5.23319E-04-3.91438E-16
 -1      1806 1.28928E-03-4.55638E-04-2.96190E-16
 -1      1807 1.65572E-03-5.40355E-04-4.76222E-16
 -1      1808 1.79451E-03-5.54409E-04-5.69165E-16
 -1      1809 1.57161E-03-4.96350E-04-4.49917E-16
 -1      1810 1.93319E-03-5.66084E-04-6.71067E-16
 -1      1811 2.07181E-03-5.75581E-04-7.81154E-16
 -1      1812 1.85217E-03-5.24552E-04-6.38243E-16
 -1      1813 2.21053E-03-5.83310E-04-8.99847E-16
 -1      1814 2.34935E-03-5.89441E-04-1.02652E-15
 -1      1815 2.13203E-03-5.43553E-04-8.60192E-16
 -1      1816 2.48839E-03-5.94261E-04-1.16134E-15
 -1      1817 2.62761E-03-5.97907E-04-1.30461E-15
 -1      1818 2.41189E-03-5.55767E-04-1.11531E-15
 -1      1819 2.76711E-03-6.00583E-04-1.45547E-15
 -1      1820 2.90685E-03-6.02396E-04-1.61350E-15
 -1      1821 2.69218E-03-5.62983E-04-1.40267E-15
 -1      1822 3.04688E-03-6.03490E-04-1.77897E-15
 -1      1823 3.18716E-03-6.03948E-04-1.95071E-15
 -1      1824 2.97312E-03-5.66518E-04-1.72041E-15
 -1      1825 3.32775E-03-6.03867E-04-2.12925E-15
 -1      1826 3.46861E-03-6.03312E-04-2.31531E-15
 -1      1827 3.25487E-03-5.67336E-04-2.06517E-15
 -1      1828 3.60976E-03-6.02347E-04-2.50772E-15
 -1      1829 3.75119E-03-6.01020E-04-2.70704E-15
 -1      1830 3.53747E-03-5.66126E-04-2.43711E-15
 -1      1831 3.89291E-03-5.99373E-04-2.91279E-15
 -1      1832 4.03493E-03-5.97445E-04-3.12546E-15
 -1      1833 3.82098E-03-5.63371E-04-2.83578E-15
 -1      1834 4.17725E-03-5.95261E-04-3.34437E-15
 -1      1835 4.31987E-03-5.92853E-04-3.56839E-15
 -1      1836 4.10544E-03-5.59408E-04-3.26109E-15
 -1      1837 4.46282E-03-5.90242E-04-3.79801E-15
 -1      1838 4.60611E-03-5.87460E-04-4.03315E-15
 -1      1839 4.39091E-03-5.54478E-04-3.71038E-15
 -1      1840 4.74975E-03-5.84526E-04-4.27315E-15
 -1      1841 4.89376E-03-5.81478E-04-4.51683E-15
 -1      1842 4.67749E-03-5.48784E-04-4.18051E-15
 -1      1843 5.03817E-03-5.78348E-04-4.76428E-15
 -1      1844 5.18301E-03-5.75180E-04-5.01614E-15
 -1      1845 4.96530E-03-5.42537E-04-4.66783E-15
 -1      1846 5.32830E-03-5.72029E-04-5.27277E-15
 -1      1847 5.47408E-03-5.68955E-04-5.53272E-15
 -1      1848 5.25453E-03-5.36022E-04-5.17220E-15
 -1      1849 5.62035E-03-5.66042E-04-5.79646E-15
 -1      1850 5.76718E-03-5.63373E-04-6.06451E-15
 -1      1851 5.54537E-03-5.29654E-04-5.69263E-15
 -1      1852 5.91457E-03-5.61073E-04-6.33765E-15
 -1      1853 6.06255E-03-5.59248E-04-6.61643E-15
 -1      1854 5.83806E-03-5.24047E-04-6.22908E-15
 -1      1855 6.21113E-03-5.58074E-04-6.90176E-15
 -1      1856 6.36033E-03-5.57682E-04-7.19319E-15
 -1      1857 6.13283E-03-5.20074E-04-6.78706E-15
 -1      1858 6.51015E-03-5.58294E-04-7.49078E-15
 -1      1859 6.66055E-03-5.60062E-04-7.79456E-15
 -1      1860 6.42988E-03-5.18905E-04-7.36844E-15
 -1      1861 6.81154E-03-5.63240E-04-8.10490E-15
 -1      1862 6.96299E-03-5.67981E-04-8.42066E-15
 -1      1863 6.72932E-03-5.22000E-04-7.97585E-15
 -1      1864 7.11494E-03-5.74534E-04-8.74036E-15
 -1      1865 7.26712E-03-5.83018E-04-9.06566E-15
 -1      1866 7.03111E-03-5.31014E-04-8.60507E-15
 -1      1867 7.41962E-03-5.93601E-04-9.39532E-15
 -1      1868 7.57200E-03-6.06310E-04-9.72665E-15
 -1      1869 7.33493E-03-5.47542E-04-9.25241E-15
 -1      1870 7.72438E-03-6.21128E-04-1.00627E-14
 -1      1871 7.87619E-03-6.37903E-04-1.03987E-14
 -1      1872 7.64008E-03-5.72658E-04-9.91442E-15
 -1      1873 8.02755E-03-6.56311E-04-1.07381E-14
 -1      1874 8.17784E-03-6.75921E-04-1.10815E-14
 -1      1875 7.94534E-03-6.06201E-04-1.05870E-14
 -1      1876 8.32713E-03-6.95999E-04-1.14264E-14
 -1      1877 8.47492E-03-7.15775E-04-1.17748E-14
 -1      1878 8.24900E-03-6.45878E-04-1.12702E-14
 -1      1879 8.62119E-03-7.34095E-04-1.21239E-14
 -1      1880 8.76573E-03-7.49879E-04-1.24748E-14
 -1      1881 8.54897E-03-6.86444E-04-1.19614E-14
 -1      1882 8.90845E-03-7.61713E-04-1.28269E-14
 -1      1883 9.04963E-03-7.68405E-04-1.31761E-14
 -1      1884 8.84343E-03-7.19470E-04-1.26589E-14
 -1      1885 9.18909E-03-7.68621E-04-1.35293E-14
 -1      1886 9.32765E-03-7.61393E-04-1.38804E-14
 -1      1887 9.13163E-03-7.34356E-04-1.33596E-14
 -1      1888 9.46510E-03-7.45893E-04-1.42302E-14
 -1      1889 9.60261E-03-7.21724E-04-1.45840E-14
 -1      1890 9.41470E-03-7.20891E-04-1.40594E-14
 -1      1891 9.73996E-03-6.88861E-04-1.49352E-14
 -1      1892 9.87833E-03-6.47636E-04-1.52857E-14
 -1      1893 9.69567E-03-6.72600E-04-1.47593E-14
 -1      1894 1.00175E-02-5.98837E-04-1.56384E-14
 -1      1895 1.01584E-02-5.43393E-04-1.59874E-14
 -1      1896 9.97838E-03-5.89232E-04-1.54599E-14
 -1      1897 1.03007E-02-4.82618E-04-1.63364E-14
 -1      1898 1.04448E-02-4.17704E-04-1.66849E-14
 -1      1899 1.02660E-02-4.76868E-04-1.61604E-14
 -1      1900 1.05907E-02-3.50067E-04-1.70290E-14
 -1      1901 1.07380E-02-2.80807E-04-1.73730E-14
 -1      1902 1.05597E-02-3.45569E-04-1.68533E-14
 -1      1903 1.08869E-02-2.11097E-04-1.77145E-14
 -1      1904 1.10367E-02-1.41732E-04-1.80548E-14
 -1      1905 1.08590E-02-2.06005E-04-1.75411E-14
 -1      1906 1.11876E-02-7.34688E-05-1.83943E-14
 -1      1907 1.13389E-02-6.75592E-06-1.87343E-14
 -1      1908 1.11619E-02-6.67917E-05-1.82224E-14
 -1      1909 1.14908E-02 5.80678E-05-1.90747E-14
 -1      1910 1.16426E-02 1.20843E-04-1.94155E-14
 -1      1911 1.14665E-02 6.66352E-05-1.89001E-14
 -1      1912 1.17946E-02 1.81554E-04-1.97600E-14
 -1      1913 1.19461E-02 2.40233E-04-2.01071E-14
 -1      1914 1.17708E-02 1.91875E-04-1.95836E-14
 -1      1915 1.20974E-02 2.97063E-04-2.04599E-14
 -1      1916 1.22481E-02 3.52182E-04-2.08146E-14
 -1      1917 1.20737E-02 3.08769E-04-2.02770E-14
 -1      1918 1.23983E-02 4.05869E-04-2.11690E-14
 -1      1919 1.25478E-02 4.58304E-04-2.15303E-14
 -1      1920 1.23743E-02 4.18503E-04-2.09821E-14
 -1      1921 1.26967E-02 5.09789E-04-2.18977E-14
 -1      1922 1.28448E-02 5.60510E-04-2.22654E-14
 -1      1923 1.26724E-02 5.22890E-04-2.16995E-14
 -1      1924 1.29923E-02 6.10752E-04-2.26341E-14
 -1      1925 1.31391E-02 6.60692E-04-2.30081E-14
 -1      1926 1.29678E-02 6.23897E-04-2.24289E-14
 -1      1927 1.32853E-02 7.10573E-04-2.33867E-14
 -1      1928 1.34309E-02 7.60557E-04-2.37665E-14
 -1      1929 1.32607E-02 7.23391E-04-2.31681E-14
 -1      1930 1.35759E-02 8.10834E-04-2.41520E-14
 -1      1931 1.37204E-02 8.61546E-04-2.45443E-14
 -1      1932 1.35514E-02 8.23014E-04-2.39281E-14
 -1      1933 1.38473E-02 9.05777E-04-2.48990E-14
 -1      1934 1.39910E-02 9.57640E-04-2.52985E-14
 -1      1935 1.40759E-02 1.00639E-03-2.53739E-14
 -1      1936 1.38229E-02 9.17144E-04-2.46614E-14
 -1      1937 1.13821E-03 4.79930E-04-2.08655E-16
 -1      1938 9.96499E-04 4.46740E-04-1.53997E-16
 -1      1939 9.64167E-04 4.17301E-04-1.58321E-16
 -1      1940 1.41720E-03 5.31237E-04-3.43421E-16
 -1      1941 1.27811E-03 5.07885E-04-2.71552E-16
 -1      1942 1.24854E-03 4.79769E-04-2.75631E-16
 -1      1943 1.69345E-03 5.67266E-04-5.14373E-16
 -1      1944 1.55549E-03 5.50917E-04-4.24533E-16
 -1      1945 1.52871E-03 5.23772E-04-4.27718E-16
 -1      1946 1.96890E-03 5.92169E-04-7.20900E-16
 -1      1947 1.83119E-03 5.80940E-04-6.13279E-16
 -1      1948 1.80685E-03 5.54439E-04-6.15447E-16
 -1      1949 2.24463E-03 6.08869E-04-9.61877E-16
 -1      1950 2.10669E-03 6.01421E-04-8.37085E-16
 -1      1951 2.08439E-03 5.75334E-04-8.37993E-16
 -1      1952 2.52123E-03 6.19499E-04-1.23646E-15
 -1      1953 2.38280E-03 6.14851E-04-1.09518E-15
 -1      1954 2.36215E-03 5.89020E-04-1.09450E-15
 -1      1955 2.79898E-03 6.25637E-04-1.54285E-15
 -1      1956 2.65995E-03 6.23062E-04-1.38553E-15
 -1      1957 2.64061E-03 5.97382E-04-1.38297E-15
 -1      1958 3.07799E-03 6.28439E-04-1.87955E-15
 -1      1959 2.93833E-03 6.27405E-04-1.70766E-15
 -1      1960 2.92001E-03 6.01807E-04-1.70317E-15
 -1      1961 3.35830E-03 6.28739E-04-2.24227E-15
 -1      1962 3.21799E-03 6.28867E-04-2.05750E-15
 -1      1963 3.20047E-03 6.03305E-04-2.05150E-15
 -1      1964 3.63991E-03 6.27118E-04-2.63335E-15
 -1      1965 3.49895E-03 6.28145E-04-2.43444E-15
 -1      1966 3.48203E-03 6.02589E-04-2.42676E-15
 -1      1967 3.92284E-03 6.23958E-04-3.05115E-15
 -1      1968 3.78121E-03 6.25714E-04-2.83856E-15
 -1      1969 3.76473E-03 6.00147E-04-2.82927E-15
 -1      1970 4.20712E-03 6.19491E-04-3.49914E-15
 -1      1971 4.06481E-03 6.21877E-04-3.27121E-15
 -1      1972 4.04862E-03 5.96284E-04-3.26052E-15
 -1      1973 4.49289E-03 6.13844E-04-3.97894E-15
 -1      1974 4.34982E-03 6.16807E-04-3.73535E-15
 -1      1975 4.33377E-03 5.91176E-04-3.72245E-15
 -1      1976 4.78037E-03 6.07075E-04-4.48518E-15
 -1      1977 4.63640E-03 6.10591E-04-4.22863E-15
 -1      1978 4.62033E-03 5.84906E-04-4.21268E-15
 -1      1979 5.06989E-03 5.99216E-04-5.01365E-15
 -1      1980 4.92485E-03 6.03269E-04-4.74722E-15
 -1      1981 4.90856E-03 5.77507E-04-4.72876E-15
 -1      1982 5.36195E-03 5.90334E-04-5.56320E-15
 -1      1983 5.21556E-03 5.94882E-04-5.28578E-15
 -1      1984 5.19881E-03 5.69009E-04-5.26479E-15
 -1      1985 5.65725E-03 5.80595E-04-6.13249E-15
 -1      1986 5.50914E-03 5.85536E-04-5.84508E-15
 -1      1987 5.49156E-03 5.59499E-04-5.82128E-15
 -1      1988 5.95670E-03 5.70384E-04-6.72167E-15
 -1      1989 5.80637E-03 5.75489E-04-6.42436E-15
 -1      1990 5.78748E-03 5.49206E-04-6.39770E-15
 -1      1991 6.26149E-03 5.60472E-04-7.33108E-15
 -1      1992 6.10832E-03 5.65292E-04-7.02361E-15
 -1      1993 6.08741E-03 5.38642E-04-6.99461E-15
 -1      1994 6.57309E-03 5.52302E-04-7.95498E-15
 -1      1995 6.41629E-03 5.56012E-04-7.64207E-15
 -1      1996 6.39242E-03 5.28805E-04-7.60884E-15
 -1      1997 6.89326E-03 5.48437E-04-8.59106E-15
 -1      1998 6.73192E-03 5.49584E-04-8.27254E-15
 -1      1999 6.70377E-03 5.21527E-04-8.23809E-15
 -1      2000 7.22396E-03 5.53241E-04-9.23365E-15
 -1      2001 7.05708E-03 5.49374E-04-8.91133E-15
 -1      2002 7.02298E-03 5.20002E-04-8.87506E-15
 -1      2003 7.56716E-03 5.73841E-04-9.87861E-15
 -1      2004 7.39380E-03 5.61000E-04-9.55574E-15
 -1      2005 7.35175E-03 5.29577E-04-9.51724E-15
 -1      2006 7.92455E-03 6.21187E-04-1.05291E-14
 -1      2007 7.74398E-03 5.93382E-04-1.02033E-14
 -1      2008 7.69204E-03 5.58773E-04-1.01639E-14
 -1      2009 8.29697E-03 7.10470E-04-1.11786E-14
 -1      2010 8.10904E-03 6.59641E-04-1.08531E-14
 -1      2011 8.04603E-03 6.20264E-04-1.08130E-14
 -1      2012 8.68331E-03 8.58788E-04-1.18336E-14
 -1      2013 8.48904E-03 7.76498E-04-1.15053E-14
 -1      2014 8.41588E-03 7.30690E-04-1.14638E-14
 -1      2015 9.07853E-03 1.07645E-03-1.24925E-14
 -1      2016 8.88116E-03 9.59376E-04-1.21628E-14
 -1      2017 8.80245E-03 9.06756E-04-1.21209E-14
 -1      2018 9.47060E-03 1.34831E-03-1.31557E-14
 -1      2019 9.27664E-03 1.20853E-03-1.28229E-14
 -1      2020 9.20116E-03 1.15278E-03-1.27806E-14
 -1      2021 9.84445E-03 1.61288E-03-1.38202E-14
 -1      2022 9.66058E-03 1.48710E-03-1.34876E-14
 -1      2023 9.59789E-03 1.43715E-03-1.34429E-14
 -1      2024 1.01943E-02 1.77550E-03-1.44848E-14
 -1      2025 1.00204E-02 1.71189E-03-1.41528E-14
 -1      2026 9.97560E-03 1.67603E-03-1.41074E-14
 -1      2027 1.05387E-02 1.77259E-03-1.51451E-14
 -1      2028 1.03638E-02 1.79381E-03-1.48161E-14
 -1      2029 1.03347E-02 1.76979E-03-1.47712E-14
 -1      2030 1.09025E-02 1.63502E-03-1.58014E-14
 -1      2031 1.07166E-02 1.71489E-03-1.54730E-14
 -1      2032 1.07004E-02 1.69211E-03-1.54314E-14
 -1      2033 1.12893E-02 1.45710E-03-1.64464E-14
 -1      2034 1.10943E-02 1.54569E-03-1.61262E-14
 -1      2035 1.10892E-02 1.51752E-03-1.60845E-14
 -1      2036 1.16849E-02 1.31540E-03-1.70812E-14
 -1      2037 1.14878E-02 1.37913E-03-1.67639E-14
 -1      2038 1.14896E-02 1.34632E-03-1.67243E-14
 -1      2039 1.20748E-02 1.24144E-03-1.77060E-14
 -1      2040 1.18817E-02 1.27000E-03-1.73970E-14
 -1      2041 1.18831E-02 1.23528E-03-1.73534E-14
 -1      2042 1.24519E-02 1.23188E-03-1.83168E-14
 -1      2043 1.22655E-02 1.22964E-03-1.80127E-14
 -1      2044 1.22605E-02 1.19452E-03-1.79738E-14
 -1      2045 1.28138E-02 1.27055E-03-1.89128E-14
 -1      2046 1.26349E-02 1.24626E-03-1.86174E-14
 -1      2047 1.26210E-02 1.21121E-03-1.85814E-14
 -1      2048 1.31607E-02 1.34096E-03-1.94886E-14
 -1      2049 1.29891E-02 1.30261E-03-1.92025E-14
 -1      2050 1.29666E-02 1.26775E-03-1.91716E-14
 -1      2051 1.34942E-02 1.43040E-03-2.00434E-14
 -1      2052 1.33290E-02 1.38385E-03-1.97672E-14
 -1      2053 1.32993E-02 1.34929E-03-1.97397E-14
 -1      2054 1.38160E-02 1.53024E-03-2.05745E-14
 -1      2055 1.36564E-02 1.47937E-03-2.03113E-14
 -1      2056 1.36214E-02 1.44520E-03-2.02895E-14
 -1      2057 1.41282E-02 1.63493E-03-2.10918E-14
 -1      2058 1.39732E-02 1.58219E-03-2.08366E-14
 -1      2059 1.39344E-02 1.54848E-03-2.08215E-14
 -1      2060 1.44325E-02 1.74096E-03-2.15838E-14
 -1      2061 1.42812E-02 1.68791E-03-2.13436E-14
 -1      2062 1.42401E-02 1.65469E-03-2.13338E-14
 -1      2063 1.47307E-02 1.84606E-03-2.20584E-14
 -1      2064 1.45823E-02 1.79371E-03-2.18206E-14
 -1      2065 1.45398E-02 1.76100E-03-2.18225E-14
 -1      2066 1.50241E-02 1.94869E-03-2.25237E-14
 -1      2067 1.48779E-02 1.89775E-03-2.22921E-14
 -1      2068 1.48347E-02 1.86555E-03-2.22973E-14
 -1      2069 1.53140E-02 2.04782E-03-2.29803E-14
 -1      2070 1.51694E-02 1.99874E-03-2.27535E-14
 -1      2071 1.51260E-02 1.96704E-03-2.27661E-14
 -1      2072 1.55473E-02 2.12331E-03-2.33600E-14
 -1      2073 1.54037E-02 2.07592E-03-2.31316E-14
 -1      2074 1.53603E-02 2.04464E-03-2.31501E-14
 -1      2075 1.55390E-02 2.09991E-03-2.34601E-14
 -1      2076 1.52754E-02 1.86693E-03-2.38516E-14
 -1      2077 1.53161E-02 1.90541E-03-2.37710E-14
 -1      2078 1.53569E-02 1.94457E-03-2.36895E-14
 -1      2079 1.53981E-02 1.98436E-03-2.36113E-14
 -1      2080 1.52134E-02 1.88357E-03-2.35140E-14
 -1      2081 1.54467E-02 2.02131E-03-2.35777E-14
 -1      2082 1.54892E-02 2.06218E-03-2.34982E-14
 -1      2083 1.53999E-02 2.03464E-03-2.33396E-14
 -1      2084 1.53021E-02 1.95989E-03-2.34049E-14
 -1      2085 1.51945E-02 1.79307E-03-2.40128E-14
 -1      2086 1.52352E-02 1.82972E-03-2.39296E-14
 -1      2087 1.51333E-02 1.80721E-03-2.36664E-14
 -1      2088 1.51092E-02 1.72000E-03-2.41831E-14
 -1      2089 1.51523E-02 1.75634E-03-2.40965E-14
 -1      2090 1.50516E-02 1.73317E-03-2.38198E-14
 -1      2091 1.50194E-02 1.64828E-03-2.43536E-14
 -1      2092 1.50649E-02 1.68405E-03-2.42705E-14
 -1      2093 1.49656E-02 1.66028E-03-2.39773E-14
 -1      2094 1.49242E-02 1.57705E-03-2.45280E-14
 -1      2095 1.49725E-02 1.61269E-03-2.44400E-14
 -1      2096 1.48746E-02 1.58837E-03-2.41383E-14
 -1      2097 1.48236E-02 1.50543E-03-2.46931E-14
 -1      2098 1.48745E-02 1.54136E-03-2.46116E-14
 -1      2099 1.47780E-02 1.51661E-03-2.42976E-14
 -1      2100 1.47181E-02 1.43266E-03-2.48627E-14
 -1      2101 1.47714E-02 1.46924E-03-2.47776E-14
 -1      2102 1.46758E-02 1.44417E-03-2.44562E-14
 -1      2103 1.46109E-02 1.35945E-03-2.50330E-14
 -1      2104 1.46649E-02 1.39630E-03-2.49460E-14
 -1      2105 1.45699E-02 1.37106E-03-2.46135E-14
 -1      2106 1.44996E-02 1.28296E-03-2.52007E-14
 -1      2107 1.45555E-02 1.32147E-03-2.51176E-14
 -1      2108 1.44607E-02 1.29622E-03-2.47705E-14
 -1      2109 1.43876E-02 1.20433E-03-2.53549E-14
 -1      2110 1.44436E-02 1.24390E-03-2.52797E-14
 -1      2111 1.43487E-02 1.21876E-03-2.49213E-14
 -1      2112 1.42764E-02 1.12367E-03-2.54950E-14
 -1      2113 1.43318E-02 1.16423E-03-2.54280E-14
 -1      2114 1.42363E-02 1.13930E-03-2.50604E-14
 -1      2115 1.20672E-02 8.35401E-04-1.62924E-14
 -1      2116 1.21868E-02 7.90096E-04-1.63557E-14
 -1      2117 1.23572E-02 6.99799E-04-1.64922E-14
 -1      2118 1.23298E-02 6.81689E-04-1.64847E-14
 -1      2119 1.22765E-02 7.52786E-04-1.64070E-14
 -1      2120 1.23351E-02 7.27944E-04-1.64625E-14
 -1      2121 1.22344E-02 7.64064E-04-1.65266E-14
 -1      2122 1.17298E-02 9.87890E-04-1.60848E-14
 -1      2123 1.19005E-02 9.08937E-04-1.61870E-14
 -1      2124 1.13130E-02 1.20529E-03-1.58150E-14
 -1      2125 1.15163E-02 1.09287E-03-1.59571E-14
 -1      2126 3.27191E-04-8.90164E-05-4.41541E-17
 -1      2127 3.29254E-04-1.02188E-04-4.18231E-17
 -1      2128 4.46279E-04-1.45153E-04-6.07018E-17
 -1      2129 4.40038E-04-1.09984E-04-6.67462E-17
 -1      2130 1.05202E-02 1.62669E-03-1.50128E-14
 -1      2131 1.06811E-02 1.55870E-03-1.51946E-14
 -1      2132 1.01650E-02 1.67047E-03-1.45728E-14
 -1      2133 1.03207E-02 1.66718E-03-1.47654E-14
 -1      2134 9.83024E-03 1.57651E-03-1.41624E-14
 -1      2135 9.99276E-03 1.64048E-03-1.43640E-14
 -1      2136 9.43861E-03 1.34106E-03-1.37108E-14
 -1      2137 9.62766E-03 1.46818E-03-1.39192E-14
 -1      2138 8.94981E-03 1.02883E-03-1.33035E-14
 -1      2139 9.16173E-03 1.15889E-03-1.34534E-14
 -1      2140 8.56669E-03 8.06712E-04-1.30447E-14
 -1      2141 8.75772E-03 9.17016E-04-1.31721E-14
 -1      2142 8.88294E-03 9.43291E-04-1.31313E-14
 -1      2143 8.16922E-03 6.09060E-04-1.28074E-14
 -1      2144 8.34396E-03 6.97745E-04-1.29241E-14
 -1      2145 7.84896E-03 4.79417E-04-1.26339E-14
 -1      2146 7.97608E-03 5.22297E-04-1.26879E-14
 -1      2147 7.69417E-03 4.17956E-04-1.25519E-14
 -1      2148 7.75285E-03 4.43385E-04-1.25931E-14
 -1      2149 7.68583E-03 3.73203E-04-1.25375E-14
 -1      2150 7.66800E-03 3.89639E-04-1.25202E-14
 -1      2151 7.82931E-03 3.19895E-04-1.26022E-14
 -1      2152 7.73907E-03 3.47946E-04-1.25699E-14
 -1      2153 7.70302E-03 3.60724E-04-1.24034E-14
 -1      2154 8.13296E-03 2.10272E-04-1.27749E-14
 -1      2155 7.98393E-03 2.66445E-04-1.26778E-14
 -1      2156 8.49392E-03 5.09821E-05-1.30328E-14
 -1      2157 8.31633E-03 1.31494E-04-1.29094E-14
 -1      2158 8.88708E-03-1.33983E-04-1.33133E-14
 -1      2159 8.69051E-03-3.79522E-05-1.31666E-14
 -1      2160 9.30765E-03-3.33696E-04-1.37657E-14
 -1      2161 9.13681E-03-2.54959E-04-1.35592E-14
 -1      2162 9.64417E-03-4.27918E-04-1.41941E-14
 -1      2163 9.49140E-03-3.94295E-04-1.39918E-14
 -1      2164 9.98128E-03-4.09543E-04-1.46391E-14
 -1      2165 9.82625E-03-4.32109E-04-1.44353E-14
 -1      2166 1.03281E-02-2.81838E-04-1.50655E-14
 -1      2167 1.01641E-02-3.55428E-04-1.48692E-14
 -1      2168 1.07128E-02-6.88102E-05-1.54723E-14
 -1      2169 1.05303E-02-1.75655E-04-1.52950E-14
 -1      2170 1.11476E-02 1.70906E-04-1.58162E-14
 -1      2171 1.09444E-02 5.29833E-05-1.56515E-14
 -1      2172 1.16016E-02 3.99012E-04-1.61199E-14
 -1      2173 1.13947E-02 3.02964E-04-1.59983E-14
 -1      2174 1.19736E-02 5.62543E-04-1.63597E-14
 -1      2175 1.18041E-02 4.96287E-04-1.62618E-14
 -1      2176 1.22529E-02 6.51951E-04-1.64652E-14
 -1      2177 1.21439E-02 6.19328E-04-1.64243E-14
 -1      2178 1.08661E-02 1.46711E-03-1.53931E-14
 -1      2179 1.10509E-02 1.35504E-03-1.55908E-14
 -1      2180 1.07675E-02 1.52134E-03-1.53649E-14
 -1      2181 1.11743E-02 1.27977E-03-1.57863E-14
 -1      2182 6.07701E-04-2.98133E-04-5.67986E-17
 -1      2183 6.63438E-04-2.92417E-04-8.06240E-17
 -1      2184 1.23571E-02 7.18040E-04-1.66086E-14
 -1      2185 1.19869E-02 8.56447E-04-1.63688E-14
 -1      2186 1.41907E-02 1.07551E-03-2.54303E-14
 -1      2187 1.22977E-02 6.84880E-04-1.66184E-14
 -1      2188 1.16201E-02 1.02666E-03-1.61370E-14
 -1      2189 1.20548E-02 6.19207E-04-1.65343E-14
 -1      2190 1.16866E-02 4.82564E-04-1.63266E-14
 -1      2191 1.12480E-02 2.61989E-04-1.60025E-14
 -1      2192 1.07906E-02 5.57278E-06-1.56419E-14
 -1      2193 1.03996E-02-2.26939E-04-1.52349E-14
 -1      2194 1.00550E-02-3.90740E-04-1.47751E-14
 -1      2195 9.73093E-03-4.42139E-04-1.43029E-14
 -1      2196 9.40996E-03-3.74870E-04-1.38345E-14
 -1      2197 9.01862E-03-1.94159E-04-1.33650E-14
 -1      2198 8.90168E-03-1.34970E-04-1.31682E-14
 -1      2199 9.12164E-03-2.51469E-04-1.34138E-14
 -1      2200 8.59770E-03 1.89382E-05-1.29837E-14
 -1      2201 7.89810E-03 3.02303E-04-1.25089E-14
 -1      2202 7.67174E-03 3.90388E-04-1.24046E-14
 -1      2203 7.79856E-03 4.35561E-04-1.24787E-14
 -1      2204 8.48879E-03 7.24350E-04-1.28799E-14
 -1      2205 9.31974E-03 1.23970E-03-1.35166E-14
 -1      2206 9.75665E-03 1.53220E-03-1.40158E-14
 -1      2207 1.04280E-02 1.66187E-03-1.49212E-14
 -1      2208 1.00927E-02 1.67016E-03-1.44669E-14
 -1      2209 8.07758E-03 5.36487E-04-1.26394E-14
 -1      2210 8.23104E-03 1.83115E-04-1.27169E-14
 -1      2211 1.01632E-03 3.99726E-04-1.97935E-16
 -1      2212 8.71899E-04 3.63393E-04-1.46408E-16
 -1      2213 5.47939E-04-5.53265E-05-1.05588E-16
 -1      2214 5.48959E-04-7.20503E-05-1.04002E-16
 -1      2215 5.50359E-04-8.93801E-05-1.02037E-16
 -1      2216 5.52196E-04-1.07372E-04-9.97330E-17
 -1      2217 6.65446E-04-9.55156E-05-1.39754E-16
 -1      2218 5.46580E-04 8.85706E-06-1.09708E-16
 -1      2219 5.46561E-04-6.98741E-06-1.09139E-16
 -1      2220 5.47323E-04 4.08819E-05-1.09884E-16
 -1      2221 5.46831E-04 2.48006E-05-1.09938E-16
 -1      2222 6.61554E-04 1.99314E-05-1.48563E-16
 -1      2223 5.49124E-04 7.35165E-05-1.08583E-16
 -1      2224 5.48075E-04 5.70179E-05-1.09477E-16
 -1      2225 6.62861E-04 5.77963E-05-1.48292E-16
 -1      2226 5.52475E-04 1.09001E-04-1.05859E-16
 -1      2227 5.50573E-04 9.09205E-05-1.07322E-16
 -1      2228 6.65687E-04 9.72740E-05-1.46096E-16
 -1      2229 5.58296E-04 1.48344E-04-1.01048E-16
 -1      2230 5.55009E-04 1.28116E-04-1.03867E-16
 -1      2231 6.70724E-04 1.40054E-04-1.42112E-16
 -1      2232 5.68550E-04 1.93942E-04-9.30788E-17
 -1      2233 5.62750E-04 1.70226E-04-9.75646E-17
 -1      2234 6.79297E-04 1.87602E-04-1.35214E-16
 -1      2235 1.30171E-03 4.56513E-04-3.25816E-16
 -1      2236 1.15942E-03 4.30658E-04-2.57457E-16
 -1      2237 1.07156E-03 3.81225E-04-2.38660E-16
 -1      2238 9.14998E-04-3.46315E-04-1.61912E-16
 -1      2239 1.05907E-03-3.79580E-04-2.14862E-16
 -1      2240 5.88376E-04-2.38009E-04-7.60161E-17
 -1      2241 7.81153E-04-3.04787E-04-1.22556E-16
 -1      2242 8.40619E-04-2.93581E-04-1.52900E-16
 -1      2243 5.78903E-04-2.10244E-04-8.26433E-17
 -1      2244 1.10822E-02 1.34953E-03-1.58107E-14
 -1      2245 1.13045E-02 1.20872E-03-1.60340E-14
 -1      2246 1.20229E-03-4.07898E-04-2.76092E-16
 -1      2247 1.34507E-03-4.31679E-04-3.45576E-16
 -1      2248 1.11681E-03-3.60384E-04-2.55343E-16
 -1      2249 1.48722E-03-4.51776E-04-4.23381E-16
 -1      2250 1.62898E-03-4.68471E-04-5.10185E-16
 -1      2251 1.40311E-03-4.06962E-04-3.96872E-16
 -1      2252 1.77038E-03-4.82427E-04-6.05147E-16
 -1      2253 1.91154E-03-4.93861E-04-7.08472E-16
 -1      2254 1.68821E-03-4.39908E-04-5.71497E-16
 -1      2255 2.05256E-03-5.03258E-04-8.20240E-16
 -1      2256 2.19347E-03-5.10792E-04-9.40329E-16
 -1      2257 1.97239E-03-4.62542E-04-7.80029E-16
 -1      2258 2.33437E-03-5.16816E-04-1.06839E-15
 -1      2259 2.47527E-03-5.21469E-04-1.20481E-15
 -1      2260 2.25603E-03-4.77469E-04-1.02136E-15
 -1      2261 2.61625E-03-5.25006E-04-1.34940E-15
 -1      2262 2.75729E-03-5.27539E-04-1.50124E-15
 -1      2263 2.53948E-03-4.86683E-04-1.29555E-15
 -1      2264 2.89846E-03-5.29246E-04-1.66036E-15
 -1      2265 3.03974E-03-5.30217E-04-1.82681E-15
 -1      2266 2.82299E-03-4.91683E-04-1.60039E-15
 -1      2267 3.18117E-03-5.30575E-04-1.99932E-15
 -1      2268 3.32273E-03-5.30388E-04-2.17912E-15
 -1      2269 3.10672E-03-4.93579E-04-1.93346E-15
 -1      2270 3.46446E-03-5.29740E-04-2.36596E-15
 -1      2271 3.60635E-03-5.28680E-04-2.55878E-15
 -1      2272 3.39079E-03-4.93174E-04-2.29397E-15
 -1      2273 3.74842E-03-5.27265E-04-2.75892E-15
 -1      2274 3.89065E-03-5.25531E-04-2.96520E-15
 -1      2275 3.67528E-03-4.91036E-04-2.68120E-15
 -1      2276 4.03308E-03-5.23514E-04-3.17758E-15
 -1      2277 4.17570E-03-5.21242E-04-3.39700E-15
 -1      2278 3.96023E-03-4.87555E-04-3.09442E-15
 -1      2279 4.31852E-03-5.18740E-04-3.62275E-15
 -1      2280 4.46155E-03-5.16033E-04-3.85237E-15
 -1      2281 4.24571E-03-4.82998E-04-3.53249E-15
 -1      2282 4.60481E-03-5.13141E-04-4.08713E-15
 -1      2283 4.74832E-03-5.10091E-04-4.32732E-15
 -1      2284 4.53180E-03-4.77563E-04-3.99394E-15
 -1      2285 4.89207E-03-5.06910E-04-4.57135E-15
 -1      2286 5.03612E-03-5.03630E-04-4.81897E-15
 -1      2287 4.81858E-03-4.71427E-04-4.47297E-15
 -1      2288 5.18046E-03-5.00293E-04-5.07148E-15
 -1      2289 5.32513E-03-4.96943E-04-5.32842E-15
 -1      2290 5.10620E-03-4.64799E-04-4.97055E-15
 -1      2291 5.47015E-03-4.93648E-04-5.58829E-15
 -1      2292 5.61556E-03-4.90470E-04-5.85209E-15
 -1      2293 5.39482E-03-4.57980E-04-5.48338E-15
 -1      2294 5.76139E-03-4.87511E-04-6.12052E-15
 -1      2295 5.90767E-03-4.84860E-04-6.39359E-15
 -1      2296 5.68467E-03-4.51428E-04-6.01179E-15
 -1      2297 6.05443E-03-4.82659E-04-6.67283E-15
 -1      2298 6.20172E-03-4.81032E-04-6.95742E-15
 -1      2299 5.97604E-03-4.45815E-04-6.55921E-15
 -1      2300 6.34958E-03-4.80163E-04-7.24888E-15
 -1      2301 6.49803E-03-4.80212E-04-7.54564E-15
 -1      2302 6.26931E-03-4.42097E-04-7.12849E-15
 -1      2303 6.64712E-03-4.81401E-04-7.84905E-15
 -1      2304 6.79684E-03-4.83923E-04-8.15786E-15
 -1      2305 6.56489E-03-4.41543E-04-7.72285E-15
 -1      2306 6.94728E-03-4.88012E-04-8.47162E-15
 -1      2307 7.09834E-03-4.93874E-04-8.78988E-15
 -1      2308 6.86327E-03-4.45729E-04-8.33947E-15
 -1      2309 7.25014E-03-5.01710E-04-9.11306E-15
 -1      2310 7.40246E-03-5.11695E-04-9.43923E-15
 -1      2311 7.16489E-03-4.56428E-04-8.97490E-15
 -1      2312 7.55546E-03-5.23918E-04-9.76858E-15
 -1      2313 7.70877E-03-5.38439E-04-1.01017E-14
 -1      2314 7.46998E-03-4.75340E-04-9.62449E-15
 -1      2315 7.86253E-03-5.55129E-04-1.04370E-14
 -1      2316 8.01621E-03-5.73806E-04-1.07745E-14
 -1      2317 7.77833E-03-5.03564E-04-1.02869E-14
 -1      2318 8.16990E-03-5.94011E-04-1.11147E-14
 -1      2319 8.32300E-03-6.15161E-04-1.14581E-14
 -1      2320 8.08892E-03-5.40751E-04-1.09608E-14
 -1      2321 8.47547E-03-6.36385E-04-1.18026E-14
 -1      2322 8.62678E-03-6.56599E-04-1.21467E-14
 -1      2323 8.39973E-03-5.83962E-04-1.16431E-14
 -1      2324 8.77680E-03-6.74548E-04-1.24956E-14
 -1      2325 8.92532E-03-6.88717E-04-1.28432E-14
 -1      2326 8.70784E-03-6.26555E-04-1.23322E-14
 -1      2327 9.07215E-03-6.97692E-04-1.31908E-14
 -1      2328 9.21767E-03-6.99907E-04-1.35398E-14
 -1      2329 9.01047E-03-6.57888E-04-1.30256E-14
 -1      2330 9.36169E-03-6.94201E-04-1.38888E-14
 -1      2331 9.50521E-03-6.79529E-04-1.42372E-14
 -1      2332 9.30656E-03-6.65047E-04-1.37176E-14
 -1      2333 9.64802E-03-6.55430E-04-1.45847E-14
 -1      2334 9.79145E-03-6.21840E-04-1.49340E-14
 -1      2335 9.59806E-03-6.36897E-04-1.44122E-14
 -1      2336 9.93525E-03-5.79209E-04-1.52840E-14
 -1      2337 1.00806E-02-5.28463E-04-1.56339E-14
 -1      2338 9.88934E-03-5.68762E-04-1.51086E-14
 -1      2339 1.02271E-02-4.70768E-04-1.59843E-14
 -1      2340 1.03753E-02-4.07655E-04-1.63318E-14
 -1      2341 1.01849E-02-4.64641E-04-1.58082E-14
 -1      2342 1.05250E-02-3.40546E-04-1.66781E-14
 -1      2343 1.06760E-02-2.70980E-04-1.70221E-14
 -1      2344 1.04870E-02-3.35369E-04-1.65027E-14
 -1      2345 1.08282E-02-2.00212E-04-1.73641E-14
 -1      2346 1.09810E-02-1.29387E-04-1.77075E-14
 -1      2347 1.07946E-02-1.93937E-04-1.71905E-14
 -1      2348 1.11345E-02-5.93723E-05-1.80490E-14
 -1      2349 1.12879E-02 9.18727E-06-1.83883E-14
 -1      2350 1.11051E-02-5.12404E-05-1.78739E-14
 -1      2351 1.14414E-02 7.58435E-05-1.87285E-14
 -1      2352 1.15945E-02 1.40372E-04-1.90683E-14
 -1      2353 1.14155E-02 8.57986E-05-1.85550E-14
 -1      2354 1.17473E-02 2.02660E-04-1.94089E-14
 -1      2355 1.18993E-02 2.62752E-04-1.97507E-14
 -1      2356 1.17236E-02 2.14068E-04-1.92346E-14
 -1      2357 1.20508E-02 3.20759E-04-2.00956E-14
 -1      2358 1.22015E-02 3.76859E-04-2.04461E-14
 -1      2359 1.20284E-02 3.33181E-04-1.99179E-14
 -1      2360 1.23515E-02 4.31283E-04-2.07958E-14
 -1      2361 1.25008E-02 4.84258E-04-2.11489E-14
 -1      2362 1.23297E-02 4.44316E-04-2.06103E-14
 -1      2363 1.26494E-02 5.36056E-04-2.15043E-14
 -1      2364 1.27973E-02 5.86906E-04-2.18642E-14
 -1      2365 1.26275E-02 5.49346E-04-2.13139E-14
 -1      2366 1.29445E-02 6.37076E-04-2.22268E-14
 -1      2367 1.30911E-02 6.86775E-04-2.25884E-14
 -1      2368 1.29224E-02 6.50310E-04-2.20242E-14
 -1      2369 1.32372E-02 7.36244E-04-2.29570E-14
 -1      2370 1.33827E-02 7.85667E-04-2.33286E-14
 -1      2371 1.32147E-02 7.49134E-04-2.27483E-14
 -1      2372 1.35277E-02 8.35241E-04-2.37006E-14
 -1      2373 1.36722E-02 8.85130E-04-2.40802E-14
 -1      2374 1.35049E-02 8.47518E-04-2.34803E-14
 -1      2375 1.22018E-02 7.76117E-04-1.66609E-14
 -1      2376 1.22853E-02 7.53036E-04-1.67134E-14
 -1      2377 1.86472E-03 5.24415E-04-6.86286E-16
 -1      2378 1.72453E-03 5.11864E-04-5.83057E-16
 -1      2379 2.14474E-03 5.43177E-04-9.17940E-16
 -1      2380 2.00478E-03 5.34794E-04-7.97891E-16
 -1      2381 1.92419E-03 4.93700E-04-7.57600E-16
 -1      2382 2.42478E-03 5.55249E-04-1.18304E-15
 -1      2383 2.28474E-03 5.49946E-04-1.04639E-15
 -1      2384 2.20627E-03 5.10400E-04-9.98523E-16
 -1      2385 2.70523E-03 5.62384E-04-1.47946E-15
 -1      2386 2.56494E-03 5.59355E-04-1.32748E-15
 -1      2387 2.48824E-03 5.20940E-04-1.27161E-15
 -1      2388 2.98632E-03 5.65872E-04-1.80666E-15
 -1      2389 2.84569E-03 5.64525E-04-1.63908E-15
 -1      2390 2.77041E-03 5.26931E-04-1.57583E-15
 -1      2391 3.26820E-03 5.66644E-04-2.16191E-15
 -1      2392 3.12717E-03 5.66554E-04-1.98128E-15
 -1      2393 3.05299E-03 5.29560E-04-1.91028E-15
 -1      2394 3.55094E-03 5.65351E-04-2.54428E-15
 -1      2395 3.40946E-03 5.66224E-04-2.34938E-15
 -1      2396 3.33611E-03 5.29679E-04-2.27250E-15
 -1      2397 3.83458E-03 5.62429E-04-2.95366E-15
 -1      2398 3.69264E-03 5.64072E-04-2.74577E-15
 -1      2399 3.61986E-03 5.27877E-04-2.66154E-15
 -1      2400 4.11919E-03 5.58143E-04-3.39252E-15
 -1      2401 3.97676E-03 5.60442E-04-3.16946E-15
 -1      2402 3.90429E-03 5.24537E-04-3.07838E-15
 -1      2403 4.40488E-03 5.52637E-04-3.86055E-15
 -1      2404 4.26189E-03 5.55533E-04-3.62240E-15
 -1      2405 4.18948E-03 5.19890E-04-3.52440E-15
 -1      2406 4.69178E-03 5.45970E-04-4.35524E-15
 -1      2407 4.54816E-03 5.49441E-04-4.10482E-15
 -1      2408 4.47551E-03 5.14050E-04-3.99739E-15
 -1      2409 4.98010E-03 5.38164E-04-4.87441E-15
 -1      2410 4.83574E-03 5.42201E-04-4.61248E-15
 -1      2411 4.76249E-03 5.07061E-04-4.49720E-15
 -1      2412 5.27015E-03 5.29245E-04-5.41502E-15
 -1      2413 5.12487E-03 5.33831E-04-5.14255E-15
 -1      2414 5.05059E-03 4.98939E-04-5.02070E-15
 -1      2415 5.56229E-03 5.19319E-04-5.97404E-15
 -1      2416 5.41590E-03 5.24388E-04-5.69126E-15
 -1      2417 5.34001E-03 4.89723E-04-5.56381E-15
 -1      2418 5.85703E-03 5.08656E-04-6.55351E-15
 -1      2419 5.70926E-03 5.14044E-04-6.26131E-15
 -1      2420 5.63098E-03 4.79546E-04-6.12634E-15
 -1      2421 6.15497E-03 4.97842E-04-7.15315E-15
 -1      2422 6.00551E-03 5.03208E-04-6.85097E-15
 -1      2423 5.92380E-03 4.68739E-04-6.70896E-15
 -1      2424 6.45685E-03 4.88007E-04-7.76778E-15
 -1      2425 6.30530E-03 4.92702E-04-7.45848E-15
 -1      2426 6.21880E-03 4.57980E-04-7.31038E-15
 -1      2427 6.76355E-03 4.81178E-04-8.39648E-15
 -1      2428 6.60945E-03 4.84051E-04-8.08072E-15
 -1      2429 6.51636E-03 4.48530E-04-7.92670E-15
 -1      2430 7.07618E-03 4.80830E-04-9.03289E-15
 -1      2431 6.91895E-03 4.79922E-04-8.71383E-15
 -1      2432 6.81699E-03 4.42593E-04-8.55412E-15
 -1      2433 7.39624E-03 4.92667E-04-9.67367E-15
 -1      2434 7.23509E-03 4.84783E-04-9.35329E-15
 -1      2435 7.12149E-03 4.43833E-04-9.18935E-15
 -1      2436 7.72602E-03 5.25610E-04-1.03221E-14
 -1      2437 7.55972E-03 5.05790E-04-9.99712E-15
 -1      2438 7.43135E-03 4.58100E-04-9.83213E-15
 -1      2439 8.06922E-03 5.92721E-04-1.09697E-14
 -1      2440 7.89580E-03 5.53796E-04-1.06458E-14
 -1      2441 7.74967E-03 4.94342E-04-1.04790E-14
 -1      2442 8.43134E-03 7.11144E-04-1.16229E-14
 -1      2443 8.24805E-03 6.44055E-04-1.12958E-14
 -1      2444 8.08238E-03 5.65703E-04-1.11282E-14
 -1      2445 8.81791E-03 8.98261E-04-1.22790E-14
 -1      2446 8.62245E-03 7.94723E-04-1.19497E-14
 -1      2447 8.43907E-03 6.90040E-04-1.17800E-14
 -1      2448 9.22804E-03 1.15878E-03-1.29362E-14
 -1      2449 9.02242E-03 1.01999E-03-1.26073E-14
 -1      2450 8.82985E-03 8.87622E-04-1.24345E-14
 -1      2451 1.00416E-02 1.69062E-03-1.42642E-14
 -1      2452 9.84879E-03 1.59501E-03-1.39320E-14
 -1      2453 1.04153E-02 1.74006E-03-1.49293E-14
 -1      2454 1.02259E-02 1.74083E-03-1.45963E-14
 -1      2455 1.08025E-02 1.61268E-03-1.55882E-14
 -1      2456 1.06047E-02 1.69177E-03-1.52594E-14
 -1      2457 1.05082E-02 1.69185E-03-1.50865E-14
 -1      2458 1.12437E-02 1.35973E-03-1.62311E-14
 -1      2459 1.10308E-02 1.46241E-03-1.59089E-14
 -1      2460 1.16591E-02 1.20043E-03-1.68687E-14
 -1      2461 1.14573E-02 1.27142E-03-1.65528E-14
 -1      2462 1.14501E-02 1.18481E-03-1.63799E-14
 -1      2463 1.20420E-02 1.12163E-03-1.74994E-14
 -1      2464 1.18563E-02 1.15282E-03-1.71839E-14
 -1      2465 1.18547E-02 1.05910E-03-1.70179E-14
 -1      2466 1.23952E-02 1.11054E-03-1.81190E-14
 -1      2467 1.22224E-02 1.10945E-03-1.78110E-14
 -1      2468 1.22088E-02 1.02072E-03-1.76465E-14
 -1      2469 1.27277E-02 1.14810E-03-1.87281E-14
 -1      2470 1.25636E-02 1.12464E-03-1.84243E-14
 -1      2471 1.25284E-02 1.04037E-03-1.82688E-14
 -1      2472 1.30472E-02 1.21742E-03-1.93213E-14
 -1      2473 1.28887E-02 1.17967E-03-1.90261E-14
 -1      2474 1.28303E-02 1.09677E-03-1.88818E-14
 -1      2475 1.33585E-02 1.30620E-03-1.98973E-14
 -1      2476 1.32036E-02 1.25993E-03-1.96121E-14
 -1      2477 1.31244E-02 1.17636E-03-1.94801E-14
 -1      2478 1.36638E-02 1.40600E-03-2.04533E-14
 -1      2479 1.35116E-02 1.35507E-03-2.01776E-14
 -1      2480 1.34155E-02 1.27017E-03-2.00596E-14
 -1      2481 1.39645E-02 1.51124E-03-2.09927E-14
 -1      2482 1.38145E-02 1.45817E-03-2.07257E-14
 -1      2483 1.37056E-02 1.37207E-03-2.06248E-14
 -1      2484 1.42614E-02 1.61832E-03-2.15097E-14
 -1      2485 1.41133E-02 1.56471E-03-2.12546E-14
 -1      2486 1.39951E-02 1.47790E-03-2.11695E-14
 -1      2487 1.45553E-02 1.72485E-03-2.20089E-14
 -1      2488 1.44086E-02 1.67176E-03-2.17618E-14
 -1      2489 1.42840E-02 1.58479E-03-2.16935E-14
 -1      2490 1.48464E-02 1.82925E-03-2.24984E-14
 -1      2491 1.47011E-02 1.77739E-03-2.22537E-14
 -1      2492 1.45723E-02 1.69080E-03-2.22054E-14
 -1      2493 1.53104E-02 2.00664E-03-2.31828E-14
 -1      2494 1.49089E-02 1.67272E-03-2.36176E-14
 -1      2495 1.49506E-02 1.70954E-03-2.35451E-14
 -1      2496 1.48221E-02 1.60014E-03-2.37677E-14
 -1      2497 1.48662E-02 1.63631E-03-2.36928E-14
 -1      2498 1.47666E-02 1.61200E-03-2.34116E-14
 -1      2499 1.50703E-02 1.82187E-03-2.33304E-14
 -1      2500 1.51103E-02 1.86101E-03-2.32577E-14
 -1      2501 1.49911E-02 1.74651E-03-2.34733E-14
 -1      2502 1.50307E-02 1.78372E-03-2.34019E-14
 -1      2503 1.49280E-02 1.75994E-03-2.31394E-14
 -1      2504 1.48490E-02 1.68507E-03-2.32738E-14
 -1      2505 1.47298E-02 1.52823E-03-2.39159E-14
 -1      2506 1.47767E-02 1.56418E-03-2.38421E-14
 -1      2507 1.46787E-02 1.53990E-03-2.35509E-14
 -1      2508 1.46315E-02 1.45611E-03-2.40652E-14
 -1      2509 1.46814E-02 1.49227E-03-2.39907E-14
 -1      2510 1.45849E-02 1.46810E-03-2.36900E-14
 -1      2511 1.45278E-02 1.38304E-03-2.42122E-14
 -1      2512 1.45803E-02 1.41975E-03-2.41377E-14
 -1      2513 1.44849E-02 1.39575E-03-2.38270E-14
 -1      2514 1.44214E-02 1.30974E-03-2.43561E-14
 -1      2515 1.44751E-02 1.34661E-03-2.42832E-14
 -1      2516 1.43803E-02 1.32276E-03-2.39605E-14
 -1      2517 1.43101E-02 1.23335E-03-2.45012E-14
 -1      2518 1.43660E-02 1.27179E-03-2.44298E-14
 -1      2519 1.42716E-02 1.24807E-03-2.40951E-14
 -1      2520 1.41973E-02 1.15499E-03-2.46381E-14
 -1      2521 1.42538E-02 1.19442E-03-2.45712E-14
 -1      2522 1.41591E-02 1.17080E-03-2.42277E-14
 -1      2523 1.40847E-02 1.07471E-03-2.47603E-14
 -1      2524 1.41409E-02 1.11508E-03-2.46974E-14
 -1      2525 1.40456E-02 1.09155E-03-2.43474E-14
 -1      2526 1.40646E-02 1.03050E-03-2.50755E-14
 -1      2527 1.23409E-02 7.10119E-04-1.68154E-14
 -1      2528 1.22681E-02 6.97841E-04-1.67971E-14
 -1      2529 1.58405E-03 4.96598E-04-4.88541E-16
 -1      2530 1.44315E-03 4.78407E-04-4.02740E-16
 -1      2531 1.64150E-03 4.68678E-04-5.50260E-16
 -1      2532 1.19172E-02 8.82698E-04-1.64770E-14
 -1      2533 1.20690E-02 8.23637E-04-1.65831E-14
 -1      2534 1.21376E-02 6.64373E-04-1.67286E-14
 -1      2535 1.19797E-02 6.21575E-04-1.66636E-14
 -1      2536 1.06969E-02 1.57590E-03-1.53305E-14
 -1      2537 1.08479E-02 1.48822E-03-1.55276E-14
 -1      2538 1.15546E-02 1.06216E-03-1.62275E-14
 -1      2539 1.17385E-02 9.65261E-04-1.63533E-14
 -1      2540 7.65355E-03 3.71345E-04-1.22139E-14
 -1      2541 7.68188E-03 3.81255E-04-1.22473E-14
 -1      2542 9.21704E-03 1.14069E-03-1.32988E-14
 -1      2543 9.45460E-03 1.31673E-03-1.35547E-14
 -1      2544 5.46770E-04-2.29142E-05-1.08217E-16
 -1      2545 5.47220E-04-3.89620E-05-1.06916E-16
 -1      2546 6.62712E-04-5.58323E-05-1.44009E-16
 -1      2547 6.61501E-04-1.77134E-05-1.47072E-16
 -1      2548 1.00453E-02 1.66549E-03-1.43718E-14
 -1      2549 1.01816E-02 1.69461E-03-1.45785E-14
 -1      2550 7.99767E-03 4.77270E-04-1.24441E-14
 -1      2551 8.18149E-03 5.48815E-04-1.25638E-14
 -1      2552 1.03554E-02 1.69040E-03-1.48333E-14
 -1      2553 1.05199E-02 1.64800E-03-1.50785E-14
 -1      2554 1.06195E-02 1.62637E-03-1.52427E-14
 -1      2555 1.02915E-02 1.70666E-03-1.47370E-14
 -1      2556 9.70914E-03 1.49314E-03-1.38836E-14
 -1      2557 9.87807E-03 1.59738E-03-1.41250E-14
 -1      2558 8.79651E-03 8.60091E-04-1.29368E-14
 -1      2559 8.96142E-03 9.65959E-04-1.30670E-14
 -1      2560 8.31995E-03 1.47996E-04-1.26295E-14
 -1      2561 8.15115E-03 2.14948E-04-1.24962E-14
 -1      2562 8.39866E-03 6.47433E-04-1.26953E-14
 -1      2563 8.59919E-03 7.49540E-04-1.28157E-14
 -1      2564 8.68051E-03 7.80693E-04-1.27513E-14
 -1      2565 7.74812E-03 4.02086E-04-1.23047E-14
 -1      2566 7.83768E-03 4.23428E-04-1.23463E-14
 -1      2567 7.71905E-03 3.47914E-04-1.22339E-14
 -1      2568 7.67021E-03 3.57022E-04-1.22040E-14
 -1      2569 7.96067E-03 2.82658E-04-1.23809E-14
 -1      2570 7.82004E-03 3.22290E-04-1.23081E-14
 -1      2571 7.75533E-03 3.25426E-04-1.21070E-14
 -1      2572 8.65382E-03-1.03689E-05-1.28943E-14
 -1      2573 8.48560E-03 7.39292E-05-1.27618E-14
 -1      2574 8.37598E-03 1.08324E-04-1.25411E-14
 -1      2575 9.48094E-03-4.09792E-04-1.38959E-14
 -1      2576 9.33164E-03-3.52578E-04-1.36694E-14
 -1      2577 9.80650E-03-4.48559E-04-1.44270E-14
 -1      2578 9.66152E-03-4.45758E-04-1.41846E-14
 -1      2579 1.01052E-02-3.67151E-04-1.49085E-14
 -1      2580 9.96177E-03-4.20844E-04-1.46782E-14
 -1      2581 1.04439E-02-1.77994E-04-1.54079E-14
 -1      2582 1.02787E-02-2.80421E-04-1.51799E-14
 -1      2583 1.08887E-02 9.07872E-05-1.58376E-14
 -1      2584 1.06916E-02-3.05570E-05-1.56595E-14
 -1      2585 1.13357E-02 3.42511E-04-1.62045E-14
 -1      2586 1.11093E-02 2.17829E-04-1.60224E-14
 -1      2587 1.17556E-02 5.38788E-04-1.65227E-14
 -1      2588 1.15635E-02 4.55618E-04-1.63790E-14
 -1      2589 1.23516E-02 7.30885E-04-1.67509E-14
 -1      2590 1.23730E-02 7.21283E-04-1.67807E-14
 -1      2591 7.57683E-04 3.34216E-04-1.09735E-16
 -1      2592 6.11309E-04 2.84880E-04-7.39019E-17
 -1      2593 5.84617E-04 2.58120E-04-7.57993E-17
 -1      2594 8.13542E-04 3.22881E-04-1.40946E-16
 -1      2595 9.97582E-03 1.64432E-03-1.42370E-14
 -1      2596 6.70302E-04-1.38008E-04-1.33723E-16
 -1      2597 5.54621E-04-1.26288E-04-9.69141E-17
 -1      2598 5.57781E-04-1.46290E-04-9.35666E-17
 -1      2599 1.35753E-03 4.32457E-04-3.77343E-16
 -1      2600 5.72161E-04 2.27933E-04-8.32396E-17
 -1      2601 1.18769E-02 5.98256E-04-1.67185E-14
 -1      2602 1.17781E-02 5.68202E-04-1.67732E-14
 -1      2603 1.19862E-02 6.41200E-04-1.69143E-14
 -1      2604 1.14335E-02 4.06587E-04-1.64021E-14
 -1      2605 1.10044E-02 1.42012E-03-1.57775E-14
 -1      2606 1.10012E-02 1.71207E-04-1.60414E-14
 -1      2607 1.22183E-02 6.97282E-04-1.69255E-14
 -1      2608 1.21514E-02 8.06184E-04-1.67682E-14
 -1      2609 9.37955E-03 1.25990E-03-1.32269E-14
 -1      2610 9.18633E-03 1.11388E-03-1.30499E-14
 -1      2611 9.59100E-03 1.41336E-03-1.35561E-14
 -1      2612 1.52343E-02 1.95879E-03-2.31734E-14
 -1      2613 1.51937E-02 1.96796E-03-2.29870E-14
 -1      2614 1.50492E-02 1.91821E-03-2.27510E-14
 -1      2615 1.51860E-02 1.92143E-03-2.32039E-14
 -1      2616 1.49163E-02 1.83189E-03-2.27204E-14
 -1      2617 1.50417E-02 1.85843E-03-2.30247E-14
 -1      2618 1.05545E-02-1.03181E-04-1.56066E-14
 -1      2619 1.38953E-02 9.62075E-04-2.46857E-14
 -1      2620 1.40113E-02 1.03059E-03-2.47434E-14
 -1      2621 1.39152E-02 1.00726E-03-2.43832E-14
 -1      2622 1.37686E-02 9.18278E-04-2.43380E-14
 -1      2623 1.01767E-02-3.27908E-04-1.50832E-14
 -1      2624 9.87455E-03-4.40113E-04-1.45602E-14
 -1      2625 1.23762E-02 7.27246E-04-1.69560E-14
 -1      2626 6.89450E-04 2.51269E-04-1.19073E-16
 -1      2627 1.18561E-02 9.25159E-04-1.65676E-14
 -1      2628 8.03497E-03 2.44225E-04-1.22943E-14
 -1      2629 7.69849E-03 3.74794E-04-1.21146E-14
 -1      2630 8.28238E-03 5.77494E-04-1.24990E-14
 -1      2631 9.28016E-03-3.53658E-04-1.35346E-14
 -1      2632 9.21284E-03-3.06975E-04-1.34728E-14
 -1      2633 9.09459E-03-2.58706E-04-1.32784E-14
 -1      2634 9.10575E-03 1.05614E-03-1.31027E-14
 -1      2635 7.64205E-03 3.52589E-04-1.20461E-14
 -1      2636 1.14519E-02 1.14214E-03-1.62519E-14
 -1      2637 5.71711E-04-1.85369E-04-8.80372E-17
 -1      2638 7.91399E-03 4.35430E-04-1.22697E-14
 -1      2639 1.23410E-02 7.47841E-04-1.68842E-14
 -1      2640 8.76992E-03-7.60729E-05-1.29447E-14
 -1      2641 8.63994E-03-2.91558E-05-1.27234E-14
 -1      2642 8.86766E-03-1.41686E-04-1.29957E-14
 -1      2643 9.56531E-03-4.37389E-04-1.40195E-14
 -1      2644 9.63948E-03 1.44510E-03-1.37106E-14
 -1      2645 1.37456E-02 9.29857E-04-2.41047E-14
 -1      2646 7.80424E-04 7.73348E-05-1.92825E-16
 -1      2647 7.79180E-04 5.54715E-05-1.93435E-16
 -1      2648 7.78345E-04 3.35577E-05-1.93557E-16
 -1      2649 7.77928E-04 1.18922E-05-1.93205E-16
 -1      2650 8.96789E-04 4.96675E-05-2.44610E-16
 -1      2651 7.91645E-04 1.73144E-04-1.83786E-16
 -1      2652 7.87680E-04 1.47727E-04-1.87025E-16
 -1      2653 8.03406E-04 2.28342E-04-1.74285E-16
 -1      2654 7.96838E-04 1.99953E-04-1.79679E-16
 -1      2655 9.14940E-04 2.07811E-04-2.30528E-16
 -1      2656 1.12965E-03 3.61837E-04-2.81039E-16
 -1      2657 9.86068E-04 3.32835E-04-2.19144E-16
 -1      2658 1.18187E-02 9.68240E-04-1.66791E-14
 -1      2659 1.19721E-02 8.98714E-04-1.68017E-14
 -1      2660 1.41586E-03 4.07544E-04-4.30333E-16
 -1      2661 1.27282E-03 3.86615E-04-3.51580E-16
 -1      2662 1.18957E-03 3.41348E-04-3.25464E-16
 -1      2663 7.88796E-04-2.52520E-04-1.46964E-16
 -1      2664 9.19963E-04-2.88265E-04-1.90630E-16
 -1      2665 1.06275E-03-3.17338E-04-2.47971E-16
 -1      2666 1.20602E-03-3.42445E-04-3.13253E-16
 -1      2667 1.01131E-03-2.76341E-04-2.39229E-16
 -1      2668 1.34922E-03-3.63944E-04-3.86857E-16
 -1      2669 1.49245E-03-3.82086E-04-4.68782E-16
 -1      2670 1.29701E-03-3.22007E-04-3.75852E-16
 -1      2671 1.63549E-03-3.97400E-04-5.58893E-16
 -1      2672 1.77844E-03-4.10094E-04-6.57569E-16
 -1      2673 1.58369E-03-3.55396E-04-5.45110E-16
 -1      2674 1.92123E-03-4.20630E-04-7.64417E-16
 -1      2675 2.06392E-03-4.29176E-04-8.79383E-16
 -1      2676 1.87048E-03-3.78885E-04-7.47490E-16
 -1      2677 2.20651E-03-4.36102E-04-1.00243E-15
 -1      2678 2.34904E-03-4.41539E-04-1.13351E-15
 -1      2679 2.15706E-03-3.94712E-04-9.82138E-16
 -1      2680 2.49151E-03-4.45773E-04-1.27311E-15
 -1      2681 2.63395E-03-4.48904E-04-1.42067E-15
 -1      2682 2.44339E-03-4.04741E-04-1.24965E-15
 -1      2683 2.77639E-03-4.51147E-04-1.57494E-15
 -1      2684 2.91882E-03-4.52578E-04-1.73643E-15
 -1      2685 2.72951E-03-4.10448E-04-1.54820E-15
 -1      2686 3.06127E-03-4.53351E-04-1.90500E-15
 -1      2687 3.20373E-03-4.53524E-04-2.08006E-15
 -1      2688 3.01547E-03-4.12954E-04-1.87525E-15
 -1      2689 3.34625E-03-4.53206E-04-2.26232E-15
 -1      2690 3.48879E-03-4.52437E-04-2.45126E-15
 -1      2691 3.30134E-03-4.13088E-04-2.22944E-15
 -1      2692 3.63140E-03-4.51293E-04-2.64647E-15
 -1      2693 3.77405E-03-4.49802E-04-2.84873E-15
 -1      2694 3.58716E-03-4.11437E-04-2.61042E-15
 -1      2695 3.91677E-03-4.48014E-04-3.05707E-15
 -1      2696 4.05956E-03-4.45948E-04-3.27093E-15
 -1      2697 3.87298E-03-4.08409E-04-3.01746E-15
 -1      2698 4.20243E-03-4.43639E-04-3.49129E-15
 -1      2699 4.34538E-03-4.41101E-04-3.71819E-15
 -1      2700 4.15884E-03-4.04274E-04-3.44904E-15
 -1      2701 4.48842E-03-4.38360E-04-3.95001E-15
 -1      2702 4.63158E-03-4.35430E-04-4.18610E-15
 -1      2703 4.44478E-03-3.99219E-04-3.90478E-15
 -1      2704 4.77484E-03-4.32336E-04-4.42716E-15
 -1      2705 4.91825E-03-4.29098E-04-4.67292E-15
 -1      2706 4.73087E-03-3.93386E-04-4.37997E-15
 -1      2707 5.06180E-03-4.25747E-04-4.92281E-15
 -1      2708 5.20553E-03-4.22314E-04-5.17700E-15
 -1      2709 5.01720E-03-3.86921E-04-4.87390E-15
 -1      2710 5.34945E-03-4.18846E-04-5.43406E-15
 -1      2711 5.49361E-03-4.15391E-04-5.69508E-15
 -1      2712 5.30391E-03-3.80029E-04-5.38375E-15
 -1      2713 5.63802E-03-4.12020E-04-5.96149E-15
 -1      2714 5.78275E-03-4.08806E-04-6.23121E-15
 -1      2715 5.59122E-03-3.73022E-04-5.90897E-15
 -1      2716 5.92782E-03-4.05852E-04-6.50672E-15
 -1      2717 6.07332E-03-4.03268E-04-6.78674E-15
 -1      2718 5.87945E-03-3.66385E-04-6.45306E-15
 -1      2719 6.21930E-03-4.01189E-04-7.07217E-15
 -1      2720 6.36583E-03-3.99773E-04-7.36486E-15
 -1      2721 6.16908E-03-3.60841E-04-7.01664E-15
 -1      2722 6.51301E-03-3.99190E-04-7.66244E-15
 -1      2723 6.66090E-03-3.99650E-04-7.96646E-15
 -1      2724 6.46077E-03-3.57415E-04-7.60225E-15
 -1      2725 6.80966E-03-4.01350E-04-8.27524E-15
 -1      2726 6.95929E-03-4.04553E-04-8.58749E-15
 -1      2727 6.75544E-03-3.57483E-04-8.21077E-15
 -1      2728 7.11003E-03-4.09459E-04-8.90576E-15
 -1      2729 7.26178E-03-4.16363E-04-9.22687E-15
 -1      2730 7.05417E-03-3.62797E-04-8.83732E-15
 -1      2731 7.41483E-03-4.25425E-04-9.55105E-15
 -1      2732 7.56893E-03-4.36907E-04-9.87871E-15
 -1      2733 7.35812E-03-3.75409E-04-9.47876E-15
 -1      2734 7.72438E-03-4.50867E-04-1.02106E-14
 -1      2735 7.88070E-03-4.67388E-04-1.05444E-14
 -1      2736 7.66820E-03-3.97415E-04-1.01339E-14
 -1      2737 8.03812E-03-4.86328E-04-1.08802E-14
 -1      2738 8.19594E-03-5.07374E-04-1.12183E-14
 -1      2739 7.98447E-03-4.30290E-04-1.08003E-14
 -1      2740 8.35420E-03-5.30084E-04-1.15573E-14
 -1      2741 8.51203E-03-5.53418E-04-1.18993E-14
 -1      2742 8.30543E-03-4.73680E-04-1.14734E-14
 -1      2743 8.66921E-03-5.76503E-04-1.22434E-14
 -1      2744 8.82509E-03-5.97485E-04-1.25873E-14
 -1      2745 8.62752E-03-5.23447E-04-1.21551E-14
 -1      2746 8.97923E-03-6.15042E-04-1.29316E-14
 -1      2747 9.13164E-03-6.26769E-04-1.32758E-14
 -1      2748 8.94563E-03-5.69556E-04-1.28388E-14
 -1      2749 9.28183E-03-6.31166E-04-1.36215E-14
 -1      2750 9.43087E-03-6.26269E-04-1.39689E-14
 -1      2751 9.25570E-03-5.96049E-04-1.35263E-14
 -1      2752 9.57839E-03-6.10957E-04-1.43156E-14
 -1      2753 9.72614E-03-5.84703E-04-1.46603E-14
 -1      2754 9.55787E-03-5.85479E-04-1.42171E-14
 -1      2755 9.87387E-03-5.47322E-04-1.50067E-14
 -1      2756 1.00233E-02-5.00029E-04-1.53565E-14
 -1      2757 9.85756E-03-5.27405E-04-1.49083E-14
 -1      2758 1.01740E-02-4.43660E-04-1.57038E-14
 -1      2759 1.03269E-02-3.80604E-04-1.60526E-14
 -1      2760 1.01620E-02-4.24048E-04-1.56022E-14
 -1      2761 1.04816E-02-3.12255E-04-1.64001E-14
 -1      2762 1.06379E-02-2.40946E-04-1.67448E-14
 -1      2763 1.04751E-02-2.89425E-04-1.62966E-14
 -1      2764 1.07953E-02-1.68065E-04-1.70879E-14
 -1      2765 1.09532E-02-9.51704E-05-1.74281E-14
 -1      2766 1.07952E-02-1.41307E-04-1.69848E-14
 -1      2767 1.11114E-02-2.32818E-05-1.77701E-14
 -1      2768 1.12690E-02 4.68975E-05-1.81113E-14
 -1      2769 1.11174E-02 6.25944E-06-1.76676E-14
 -1      2770 1.14261E-02 1.14780E-04-1.84503E-14
 -1      2771 1.15820E-02 1.80293E-04-1.87909E-14
 -1      2772 1.14370E-02 1.45483E-04-1.83477E-14
 -1      2773 1.17370E-02 2.43205E-04-1.91305E-14
 -1      2774 1.18907E-02 3.03760E-04-1.94693E-14
 -1      2775 1.17513E-02 2.73806E-04-1.90268E-14
 -1      2776 1.20433E-02 3.61963E-04-1.98103E-14
 -1      2777 1.21945E-02 4.18170E-04-2.01535E-14
 -1      2778 1.20591E-02 3.91788E-04-1.97049E-14
 -1      2779 1.23448E-02 4.72523E-04-2.04989E-14
 -1      2780 1.24940E-02 5.25372E-04-2.08461E-14
 -1      2781 1.23611E-02 5.01352E-04-2.03881E-14
 -1      2782 1.26423E-02 5.76924E-04-2.11966E-14
 -1      2783 1.27897E-02 6.27478E-04-2.15460E-14
 -1      2784 1.26582E-02 6.04783E-04-2.10800E-14
 -1      2785 1.29364E-02 6.77262E-04-2.19002E-14
 -1      2786 1.30825E-02 7.26515E-04-2.22565E-14
 -1      2787 1.29516E-02 7.04258E-04-2.17784E-14
 -1      2788 1.32280E-02 7.75454E-04-2.26142E-14
 -1      2789 1.33730E-02 8.24274E-04-2.29751E-14
 -1      2790 1.32422E-02 8.01679E-04-2.24823E-14
 -1      2791 1.35175E-02 8.73169E-04-2.33367E-14
 -1      2792 1.36616E-02 9.22296E-04-2.37022E-14
 -1      2793 1.35309E-02 8.98653E-04-2.31916E-14
 -1      2794 1.48422E-02 1.77101E-03-2.27615E-14
 -1      2795 1.02243E-02-2.97840E-04-1.52275E-14
 -1      2796 1.00729E-02-3.75082E-04-1.49559E-14
 -1      2797 8.96674E-03 9.55839E-04-1.28181E-14
 -1      2798 1.98520E-03 4.62252E-04-8.30241E-16
 -1      2799 1.84316E-03 4.52224E-04-7.17742E-16
 -1      2800 2.83616E-03 4.91021E-04-1.67246E-15
 -1      2801 2.69433E-03 4.89006E-04-1.51291E-15
 -1      2802 3.12002E-03 4.92881E-04-2.01386E-15
 -1      2803 2.97806E-03 4.92288E-04-1.83944E-15
 -1      2804 2.90249E-03 4.54754E-04-1.76954E-15
 -1      2805 3.40421E-03 4.92431E-04-2.38318E-15
 -1      2806 3.26207E-03 4.92911E-04-2.19539E-15
 -1      2807 3.18743E-03 4.55921E-04-2.11800E-15
 -1      2808 3.68880E-03 4.90198E-04-2.77939E-15
 -1      2809 3.54646E-03 4.91514E-04-2.57764E-15
 -1      2810 3.47251E-03 4.54977E-04-2.49434E-15
 -1      2811 3.97386E-03 4.86521E-04-3.20355E-15
 -1      2812 3.83127E-03 4.88525E-04-2.98772E-15
 -1      2813 3.75779E-03 4.52388E-04-2.89712E-15
 -1      2814 4.25945E-03 4.81594E-04-3.65562E-15
 -1      2815 4.11659E-03 4.84205E-04-3.42588E-15
 -1      2816 4.04331E-03 4.48449E-04-3.32827E-15
 -1      2817 4.54561E-03 4.75511E-04-4.13450E-15
 -1      2818 4.40245E-03 4.78692E-04-3.89208E-15
 -1      2819 4.32910E-03 4.43327E-04-3.78686E-15
 -1      2820 4.83243E-03 4.68309E-04-4.63885E-15
 -1      2821 4.68893E-03 4.72047E-04-4.38396E-15
 -1      2822 4.61518E-03 4.37101E-04-4.27140E-15
 -1      2823 5.11998E-03 4.60009E-04-5.16625E-15
 -1      2824 4.97610E-03 4.64292E-04-4.89931E-15
 -1      2825 4.90157E-03 4.29806E-04-4.77966E-15
 -1      2826 5.40836E-03 4.50675E-04-5.71150E-15
 -1      2827 5.26404E-03 4.55463E-04-5.43641E-15
 -1      2828 5.18825E-03 4.21483E-04-5.30961E-15
 -1      2829 5.69763E-03 4.40486E-04-6.27828E-15
 -1      2830 5.55285E-03 4.45671E-04-5.99226E-15
 -1      2831 5.47517E-03 4.12231E-04-5.85934E-15
 -1      2832 5.98786E-03 4.29844E-04-6.86384E-15
 -1      2833 5.84259E-03 4.35190E-04-6.56838E-15
 -1      2834 5.76222E-03 4.02289E-04-6.42903E-15
 -1      2835 6.27908E-03 4.19528E-04-7.46683E-15
 -1      2836 6.13329E-03 4.24590E-04-7.16330E-15
 -1      2837 6.04922E-03 3.92144E-04-7.01754E-15
 -1      2838 6.57132E-03 4.10925E-04-8.08255E-15
 -1      2839 6.42500E-03 4.14918E-04-7.77320E-15
 -1      2840 6.33588E-03 3.82677E-04-7.62172E-15
 -1      2841 6.86469E-03 4.06354E-04-8.71127E-15
 -1      2842 6.71776E-03 4.07977E-04-8.39641E-15
 -1      2843 6.62185E-03 3.75371E-04-8.23923E-15
 -1      2844 7.15969E-03 4.09529E-04-9.34622E-15
 -1      2845 7.01183E-03 4.06707E-04-9.02793E-15
 -1      2846 6.90687E-03 3.72585E-04-8.86709E-15
 -1      2847 7.45787E-03 4.26170E-04-9.98894E-15
 -1      2848 7.30811E-03 4.15712E-04-9.66597E-15
 -1      2849 7.19113E-03 3.77890E-04-9.50222E-15
 -1      2850 7.76307E-03 4.64842E-04-1.06349E-14
 -1      2851 7.60913E-03 4.41963E-04-1.03112E-14
 -1      2852 7.47620E-03 3.96539E-04-1.01441E-14
 -1      2853 8.08339E-03 5.38281E-04-1.12849E-14
 -1      2854 7.92063E-03 4.95797E-04-1.09601E-14
 -1      2855 7.76663E-03 4.36184E-04-1.07918E-14
 -1      2856 8.43290E-03 6.65513E-04-1.19362E-14
 -1      2857 8.25377E-03 5.92778E-04-1.16102E-14
 -1      2858 8.07280E-03 5.09151E-04-1.14404E-14
 -1      2859 8.78988E-03 8.48829E-04-1.25386E-14
 -1      2860 8.58917E-03 7.36238E-04-1.22122E-14
 -1      2861 8.37883E-03 6.20166E-04-1.20412E-14
 -1      2862 8.69117E-03 7.80183E-04-1.25951E-14
 -1      2863 1.37405E-02 9.48177E-04-2.39148E-14
 -1      2864 1.38365E-02 9.80982E-04-2.41678E-14
 -1      2865 1.39105E-02 1.02496E-03-2.41873E-14
 -1      2866 1.37533E-02 9.73087E-04-2.37625E-14
 -1      2867 1.01102E-02 1.69906E-03-1.44213E-14
 -1      2868 1.06922E-02-9.73123E-06-1.58480E-14
 -1      2869 1.04757E-02-1.49631E-04-1.55966E-14
 -1      2870 1.19823E-02 9.86975E-04-1.71228E-14
 -1      2871 1.18009E-02 1.02163E-03-1.68063E-14
 -1      2872 1.16605E-02 1.05759E-03-1.65732E-14
 -1      2873 1.26330E-02 1.01209E-03-1.84240E-14
 -1      2874 1.24887E-02 9.87711E-04-1.81144E-14
 -1      2875 1.29150E-02 1.08031E-03-1.90351E-14
 -1      2876 1.27744E-02 1.04360E-03-1.87307E-14
 -1      2877 1.27263E-02 9.92549E-04-1.85785E-14
 -1      2878 1.31946E-02 1.16584E-03-1.96361E-14
 -1      2879 1.30546E-02 1.12130E-03-1.93379E-14
 -1      2880 1.29907E-02 1.06911E-03-1.91930E-14
 -1      2881 1.34751E-02 1.26228E-03-2.02190E-14
 -1      2882 1.33345E-02 1.21294E-03-1.99308E-14
 -1      2883 1.32582E-02 1.15851E-03-1.97947E-14
 -1      2884 1.37574E-02 1.36498E-03-2.07856E-14
 -1      2885 1.36160E-02 1.31300E-03-2.05043E-14
 -1      2886 1.35300E-02 1.25635E-03-2.03810E-14
 -1      2887 1.40412E-02 1.47065E-03-2.13317E-14
 -1      2888 1.38991E-02 1.41755E-03-2.10608E-14
 -1      2889 1.38059E-02 1.35913E-03-2.09487E-14
 -1      2890 1.43260E-02 1.57693E-03-2.18596E-14
 -1      2891 1.41834E-02 1.52379E-03-2.15953E-14
 -1      2892 1.40851E-02 1.46422E-03-2.14976E-14
 -1      2893 1.46114E-02 1.68211E-03-2.23793E-14
 -1      2894 1.44686E-02 1.62972E-03-2.21232E-14
 -1      2895 1.43666E-02 1.56964E-03-2.20320E-14
 -1      2896 1.44400E-02 1.40813E-03-2.34576E-14
 -1      2897 1.44886E-02 1.44402E-03-2.33941E-14
 -1      2898 1.46246E-02 1.55124E-03-2.32004E-14
 -1      2899 1.46669E-02 1.58732E-03-2.31342E-14
 -1      2900 1.43381E-02 1.33558E-03-2.35838E-14
 -1      2901 1.43898E-02 1.37204E-03-2.35223E-14
 -1      2902 1.42950E-02 1.34847E-03-2.32219E-14
 -1      2903 1.45356E-02 1.47972E-03-2.33288E-14
 -1      2904 1.45809E-02 1.51545E-03-2.32643E-14
 -1      2905 1.44830E-02 1.49069E-03-2.29835E-14
 -1      2906 1.43925E-02 1.41983E-03-2.31029E-14
 -1      2907 1.21251E-02 8.35105E-04-1.69029E-14
 -1      2908 1.22404E-02 7.96577E-04-1.69804E-14
 -1      2909 1.42326E-02 1.26271E-03-2.37061E-14
 -1      2910 1.42859E-02 1.29938E-03-2.36441E-14
 -1      2911 1.41918E-02 1.27633E-03-2.33371E-14
 -1      2912 1.41213E-02 1.18663E-03-2.38312E-14
 -1      2913 1.41773E-02 1.22493E-03-2.37693E-14
 -1      2914 1.40835E-02 1.20226E-03-2.34511E-14
 -1      2915 1.40077E-02 1.10848E-03-2.39486E-14
 -1      2916 1.40647E-02 1.14781E-03-2.38916E-14
 -1      2917 1.39705E-02 1.12537E-03-2.35630E-14
 -1      2918 1.39674E-02 1.06541E-03-2.41352E-14
 -1      2919 1.70096E-03 4.39954E-04-6.13279E-16
 -1      2920 1.55851E-03 4.25235E-04-5.17449E-16
 -1      2921 1.47600E-03 3.81848E-04-4.84598E-16
 -1      2922 1.76201E-03 4.10562E-04-6.77504E-16
 -1      2923 1.15307E-02 4.63015E-04-1.66211E-14
 -1      2924 1.13220E-02 3.60205E-04-1.64457E-14
 -1      2925 8.42210E-03 6.33141E-05-1.24570E-14
 -1      2926 8.27694E-03 1.27500E-04-1.23254E-14
 -1      2927 1.11060E-02 2.42371E-04-1.62567E-14
 -1      2928 1.09099E-02 1.24775E-04-1.60714E-14
 -1      2929 8.02990E-04 2.78245E-04-1.56423E-16
 -1      2930 8.08574E-03 2.02813E-04-1.21598E-14
 -1      2931 7.91989E-03 2.59962E-04-1.20472E-14
 -1      2932 1.23406E-02 9.71114E-04-1.78023E-14
 -1      2933 1.21855E-02 9.66708E-04-1.74865E-14
 -1      2934 1.24597E-02 9.35367E-04-1.79573E-14
 -1      2935 2.55253E-03 4.86080E-04-1.36076E-15
 -1      2936 2.41075E-03 4.82147E-04-1.21624E-15
 -1      2937 2.61760E-03 4.50787E-04-1.45008E-15
 -1      2938 2.26895E-03 4.76980E-04-1.07934E-15
 -1      2939 2.12712E-03 4.70451E-04-9.50561E-16
 -1      2940 2.33267E-03 4.43048E-04-1.16098E-15
 -1      2941 6.52869E-04-1.88444E-04-1.14980E-16
 -1      2942 7.83047E-03 3.98508E-04-1.20600E-14
 -1      2943 7.97862E-03 4.43062E-04-1.21578E-14
 -1      2944 7.84567E-04 1.23467E-04-1.89397E-16
 -1      2945 7.82206E-04 1.00027E-04-1.91335E-16
 -1      2946 8.99861E-04 9.94306E-05-2.42861E-16
 -1      2947 9.05540E-04 1.51572E-04-2.38267E-16
 -1      2948 7.81936E-04-9.79768E-05-1.84341E-16
 -1      2949 7.84220E-04-1.21328E-04-1.81130E-16
 -1      2950 1.23363E-02 7.66639E-04-1.70475E-14
 -1      2951 1.23901E-02 7.53316E-04-1.70851E-14
 -1      2952 7.62518E-03 3.34047E-04-1.18371E-14
 -1      2953 7.61680E-03 3.40802E-04-1.18490E-14
 -1      2954 7.65667E-03 3.55231E-04-1.19163E-14
 -1      2955 7.71977E-03 3.68302E-04-1.19739E-14
 -1      2956 8.52222E-03 6.82461E-04-1.24749E-14
 -1      2957 8.14037E-03 5.01940E-04-1.22151E-14
 -1      2958 8.32891E-03 5.84750E-04-1.23456E-14
 -1      2959 8.34950E-03 5.96928E-04-1.21879E-14
 -1      2960 7.78469E-03 3.00858E-04-1.19632E-14
 -1      2961 7.69175E-03 3.19236E-04-1.18918E-14
 -1      2962 9.63650E-03-4.57284E-04-1.41446E-14
 -1      2963 9.47900E-03-4.28867E-04-1.38547E-14
 -1      2964 1.24064E-02 7.43692E-04-1.71181E-14
 -1      2965 1.23808E-02 7.40119E-04-1.71550E-14
 -1      2966 1.24289E-02 7.62325E-04-1.72804E-14
 -1      2967 9.92453E-03-4.28368E-04-1.46833E-14
 -1      2968 9.79162E-03-4.55337E-04-1.44320E-14
 -1      2969 1.22906E-02 7.23536E-04-1.71570E-14
 -1      2970 1.21705E-02 6.98120E-04-1.70909E-14
 -1      2971 1.48328E-02 1.73565E-03-2.29124E-14
 -1      2972 1.47078E-02 1.70735E-03-2.25995E-14
 -1      2973 1.46038E-02 1.64761E-03-2.25205E-14
 -1      2974 1.47942E-02 1.69777E-03-2.29741E-14
 -1      2975 7.87237E-04-1.45468E-04-1.77321E-16
 -1      2976 7.91059E-04-1.70622E-04-1.72862E-16
 -1      2977 9.05058E-04-1.49038E-04-2.27628E-16
 -1      2978 8.95777E-04 1.00458E-06-2.43729E-16
 -1      2979 7.77899E-04-9.72615E-06-1.92256E-16
 -1      2980 7.78257E-04-3.13750E-05-1.90860E-16
 -1      2981 1.20916E-02 8.77775E-04-1.70121E-14
 -1      2982 1.20978E-02 6.81316E-04-1.71471E-14
 -1      2983 1.20228E-02 6.59288E-04-1.72041E-14
 -1      2984 1.21980E-02 7.10908E-04-1.73796E-14
 -1      2985 8.02250E-03 4.54976E-04-1.20034E-14
 -1      2986 1.03548E-02-2.23704E-04-1.54706E-14
 -1      2987 1.02509E-02-2.85525E-04-1.53445E-14
 -1      2988 1.04871E-02-1.44188E-04-1.57149E-14
 -1      2989 2.04752E-03 4.30217E-04-9.03398E-16
 -1      2990 1.08093E-02 6.19565E-05-1.60645E-14
 -1      2991 1.05848E-02 1.65515E-03-1.52048E-14
 -1      2992 1.03758E-02 1.70906E-03-1.48725E-14
 -1      2993 1.23253E-02 7.93669E-04-1.71802E-14
 -1      2994 9.98321E-03-4.08970E-04-1.48270E-14
 -1      2995 1.38723E-02 1.04289E-03-2.37931E-14
 -1      2996 1.12248E-02 3.07548E-04-1.64772E-14
 -1      2997 8.52287E-03 2.75349E-06-1.25059E-14
 -1      2998 8.40847E-03 2.30156E-05-1.22898E-14
 -1      2999 8.61347E-03-6.00116E-05-1.25559E-14
 -1      3000 1.23663E-02 7.45363E-04-1.73173E-14
 -1      3001 1.23463E-02 7.48329E-04-1.74839E-14
 -1      3002 1.24273E-02 7.62596E-04-1.74789E-14
 -1      3003 9.69535E-03-4.63785E-04-1.42674E-14
 -1      3004 8.13126E-03 1.56793E-04-1.20766E-14
 -1      3005 1.02227E-02 1.71466E-03-1.46190E-14
 -1      3006 8.64804E-04 2.66549E-04-1.88556E-16
 -1      3007 1.21423E-02 9.18381E-04-1.72778E-14
 -1      3008 7.60852E-03 3.34209E-04-1.17082E-14
 -1      3009 9.36930E-03-4.02363E-04-1.36585E-14
 -1      3010 9.25897E-03-3.69372E-04-1.34624E-14
 -1      3011 9.44180E-03-4.38146E-04-1.37835E-14
 -1      3012 7.62631E-03 3.13646E-04-1.16940E-14
 -1      3013 9.82927E-04 2.75745E-04-2.41818E-16
 -1      3014 9.58376E-03 1.40672E-03-1.36629E-14
 -1      3015 1.47114E-02 1.62371E-03-2.30865E-14
 -1      3016 1.47511E-02 1.66033E-03-2.30236E-14
 -1      3017 1.46570E-02 1.63538E-03-2.27907E-14
 -1      3018 1.45705E-02 1.56219E-03-2.28788E-14
 -1      3019 7.79023E-04-5.31612E-05-1.89112E-16
 -1      3020 7.80223E-04-7.53510E-05-1.86849E-16
 -1      3021 8.99578E-04-9.70891E-05-2.35367E-16
 -1      3022 8.96660E-04-4.75261E-05-2.40544E-16
 -1      3023 1.16693E-02 5.27391E-04-1.68188E-14
 -1      3024 1.15721E-02 4.81251E-04-1.68649E-14
 -1      3025 1.17990E-02 5.78287E-04-1.70163E-14
 -1      3026 7.75948E-03 3.72587E-04-1.18613E-14
 -1      3027 9.03477E-03-2.66650E-04-1.31146E-14
 -1      3028 8.96092E-03-2.06891E-04-1.30554E-14
 -1      3029 8.82736E-03-1.60379E-04-1.28329E-14
 -1      3030 7.70017E-04-2.02423E-04-1.55664E-16
 -1      3031 7.82273E-03 2.63303E-04-1.18306E-14
 -1      3032 1.22629E-02 8.70619E-04-1.73794E-14
 -1      3033 1.04036E-03 2.43219E-04-2.82313E-16
 -1      3034 1.03380E-03 2.11500E-04-2.88045E-16
 -1      3035 1.00178E-02 1.66605E-03-1.42844E-14
 -1      3036 1.21724E-03-2.80263E-04-3.47134E-16
 -1      3037 1.36027E-03-2.98517E-04-4.24519E-16
 -1      3038 1.50360E-03-3.14155E-04-5.10144E-16
 -1      3039 1.64719E-03-3.27358E-04-6.04063E-16
 -1      3040 1.42461E-03-2.73847E-04-4.75450E-16
 -1      3041 1.79085E-03-3.38455E-04-7.06222E-16
 -1      3042 1.93459E-03-3.47605E-04-8.16255E-16
 -1      3043 1.71182E-03-2.98472E-04-6.64955E-16
 -1      3044 2.07832E-03-3.55120E-04-9.34067E-16
 -1      3045 2.22202E-03-3.61136E-04-1.06009E-15
 -1      3046 1.99979E-03-3.15677E-04-8.86159E-16
 -1      3047 2.36568E-03-3.65912E-04-1.19429E-15
 -1      3048 2.50929E-03-3.69559E-04-1.33656E-15
 -1      3049 2.28795E-03-3.27055E-04-1.13944E-15
 -1      3050 2.65284E-03-3.72281E-04-1.48609E-15
 -1      3051 2.79632E-03-3.74161E-04-1.64285E-15
 -1      3052 2.57599E-03-3.33987E-04-1.42399E-15
 -1      3053 2.93974E-03-3.75356E-04-1.80692E-15
 -1      3054 3.08311E-03-3.75926E-04-1.97769E-15
 -1      3055 2.86378E-03-3.37584E-04-1.73852E-15
 -1      3056 3.22642E-03-3.75986E-04-2.15539E-15
 -1      3057 3.36967E-03-3.75576E-04-2.33942E-15
 -1      3058 3.15123E-03-3.38696E-04-2.08102E-15
 -1      3059 3.51287E-03-3.74780E-04-2.53016E-15
 -1      3060 3.65601E-03-3.73624E-04-2.72769E-15
 -1      3061 3.43833E-03-3.37945E-04-2.45017E-15
 -1      3062 3.79912E-03-3.72164E-04-2.93172E-15
 -1      3063 3.94218E-03-3.70417E-04-3.14165E-15
 -1      3064 3.72506E-03-3.35767E-04-2.84534E-15
 -1      3065 4.08520E-03-3.68421E-04-3.35806E-15
 -1      3066 4.22818E-03-3.66184E-04-3.58004E-15
 -1      3067 4.01142E-03-3.32454E-04-3.26667E-15
 -1      3068 4.37113E-03-3.63735E-04-3.80737E-15
 -1      3069 4.51405E-03-3.61078E-04-4.04047E-15
 -1      3070 4.29743E-03-3.28191E-04-3.71102E-15
 -1      3071 4.65696E-03-3.58237E-04-4.27891E-15
 -1      3072 4.79985E-03-3.55217E-04-4.52206E-15
 -1      3073 4.58310E-03-3.23099E-04-4.17705E-15
 -1      3074 4.94275E-03-3.52043E-04-4.76865E-15
 -1      3075 5.08567E-03-3.48727E-04-5.02009E-15
 -1      3076 4.86846E-03-3.17266E-04-4.66318E-15
 -1      3077 5.22861E-03-3.45301E-04-5.27651E-15
 -1      3078 5.37163E-03-3.41790E-04-5.53482E-15
 -1      3079 5.15360E-03-3.10792E-04-5.16748E-15
 -1      3080 5.51473E-03-3.38242E-04-5.79833E-15
 -1      3081 5.65798E-03-3.34699E-04-6.06611E-15
 -1      3082 5.43865E-03-3.03830E-04-5.68749E-15
 -1      3083 5.80142E-03-3.31230E-04-6.33788E-15
 -1      3084 5.94511E-03-3.27912E-04-6.61602E-15
 -1      3085 5.72389E-03-2.96634E-04-6.22384E-15
 -1      3086 6.08913E-03-3.24834E-04-6.89695E-15
 -1      3087 6.23358E-03-3.22123E-04-7.18459E-15
 -1      3088 6.00975E-03-2.89619E-04-6.77858E-15
 -1      3089 6.37858E-03-3.19892E-04-7.47838E-15
 -1      3090 6.52424E-03-3.18337E-04-7.77656E-15
 -1      3091 6.29691E-03-2.83428E-04-7.35425E-15
 -1      3092 6.67076E-03-3.17590E-04-8.08120E-15
 -1      3093 6.81824E-03-3.17939E-04-8.38914E-15
 -1      3094 6.58641E-03-2.79026E-04-7.95200E-15
 -1      3095 6.96697E-03-3.19529E-04-8.70152E-15
 -1      3096 7.11702E-03-3.22757E-04-9.01831E-15
 -1      3097 6.87966E-03-2.77801E-04-8.56757E-15
 -1      3098 7.26876E-03-3.27769E-04-9.33781E-15
 -1      3099 7.42217E-03-3.35057E-04-9.66095E-15
 -1      3100 7.17850E-03-2.81688E-04-9.19806E-15
 -1      3101 7.57766E-03-3.44738E-04-9.98762E-15
 -1      3102 7.73500E-03-3.57331E-04-1.03172E-14
 -1      3103 7.48500E-03-2.93258E-04-9.84304E-15
 -1      3104 7.89458E-03-3.72862E-04-1.06487E-14
 -1      3105 8.05579E-03-3.91621E-04-1.09829E-14
 -1      3106 7.80097E-03-3.15613E-04-1.04985E-14
 -1      3107 8.21887E-03-4.13431E-04-1.13188E-14
 -1      3108 8.38278E-03-4.38011E-04-1.16552E-14
 -1      3109 8.12689E-03-3.51622E-04-1.11639E-14
 -1      3110 8.54749E-03-4.64835E-04-1.19956E-14
 -1      3111 8.71151E-03-4.92229E-04-1.23360E-14
 -1      3112 8.46068E-03-4.02140E-04-1.18377E-14
 -1      3113 8.87442E-03-5.18998E-04-1.26755E-14
 -1      3114 9.03527E-03-5.42117E-04-1.30169E-14
 -1      3115 8.79652E-03-4.62434E-04-1.25144E-14
 -1      3116 9.19345E-03-5.59844E-04-1.33593E-14
 -1      3117 9.34924E-03-5.68316E-04-1.37028E-14
 -1      3118 9.12600E-03-5.17259E-04-1.31941E-14
 -1      3119 9.50210E-03-5.65671E-04-1.40467E-14
 -1      3120 9.65440E-03-5.49879E-04-1.43917E-14
 -1      3121 9.44373E-03-5.42221E-04-1.38780E-14
 -1      3122 9.80542E-03-5.20409E-04-1.47376E-14
 -1      3123 9.95849E-03-4.77342E-04-1.50822E-14
 -1      3124 9.75217E-03-5.13246E-04-1.45660E-14
 -1      3125 1.01130E-02-4.21982E-04-1.54297E-14
 -1      3126 1.02705E-02-3.57509E-04-1.57766E-14
 -1      3127 1.00630E-02-4.22240E-04-1.52579E-14
 -1      3128 1.04306E-02-2.85720E-04-1.61210E-14
 -1      3129 1.05929E-02-2.10404E-04-1.64674E-14
 -1      3130 1.03850E-02-2.84327E-04-1.59490E-14
 -1      3131 1.07569E-02-1.33211E-04-1.68131E-14
 -1      3132 1.09213E-02-5.65763E-05-1.71529E-14
 -1      3133 1.07177E-02-1.25877E-04-1.66372E-14
 -1      3134 1.10858E-02 1.84494E-05-1.74937E-14
 -1      3135 1.12491E-02 9.08456E-05-1.78356E-14
 -1      3136 1.10538E-02 3.13424E-05-1.73213E-14
 -1      3137 1.14111E-02 1.60143E-04-1.81744E-14
 -1      3138 1.15712E-02 2.26366E-04-1.85141E-14
 -1      3139 1.13856E-02 1.76323E-04-1.80013E-14
 -1      3140 1.17294E-02 2.89405E-04-1.88530E-14
 -1      3141 1.18854E-02 3.49703E-04-1.91924E-14
 -1      3142 1.17085E-02 3.06629E-04-1.86798E-14
 -1      3143 1.20396E-02 4.07339E-04-1.95309E-14
 -1      3144 1.21919E-02 4.62847E-04-1.98679E-14
 -1      3145 1.20213E-02 4.24232E-04-1.93552E-14
 -1      3146 1.23426E-02 5.16385E-04-2.02093E-14
 -1      3147 1.24918E-02 5.68419E-04-2.05511E-14
 -1      3148 1.23253E-02 5.32346E-04-2.00300E-14
 -1      3149 1.26397E-02 6.19137E-04-2.08951E-14
 -1      3150 1.27866E-02 6.68902E-04-2.12390E-14
 -1      3151 1.26224E-02 6.34038E-04-2.07123E-14
 -1      3152 1.29326E-02 7.17904E-04-2.15846E-14
 -1      3153 1.30778E-02 7.66411E-04-2.19332E-14
 -1      3154 1.29147E-02 7.31811E-04-2.13969E-14
 -1      3155 1.32225E-02 8.14603E-04-2.22812E-14
 -1      3156 1.33666E-02 8.62676E-04-2.26291E-14
 -1      3157 1.32036E-02 8.27613E-04-2.20834E-14
 -1      3158 3.25522E-03 4.18702E-04-2.22272E-15
 -1      3159 3.11231E-03 4.18699E-04-2.04119E-15
 -1      3160 1.09370E-02 1.35930E-04-1.63116E-14
 -1      3161 1.07423E-02 1.32067E-05-1.60881E-14
 -1      3162 2.96938E-03 4.18140E-04-1.86640E-15
 -1      3163 2.82644E-03 4.16970E-04-1.69947E-15
 -1      3164 3.03681E-03 3.81264E-04-1.96470E-15
 -1      3165 3.82681E-03 4.14494E-04-3.01556E-15
 -1      3166 3.68392E-03 4.16093E-04-2.80650E-15
 -1      3167 4.11262E-03 4.10388E-04-3.45283E-15
 -1      3168 3.96971E-03 4.12587E-04-3.23099E-15
 -1      3169 3.89588E-03 3.76588E-04-3.13402E-15
 -1      3170 4.39843E-03 4.05175E-04-3.91718E-15
 -1      3171 4.25552E-03 4.07915E-04-3.68175E-15
 -1      3172 4.18180E-03 3.72409E-04-3.57731E-15
 -1      3173 4.68422E-03 3.98929E-04-4.40654E-15
 -1      3174 4.54133E-03 4.02179E-04-4.15919E-15
 -1      3175 4.46745E-03 3.67215E-04-4.04749E-15
 -1      3176 4.96993E-03 3.91696E-04-4.91924E-15
 -1      3177 4.82709E-03 3.95435E-04-4.66016E-15
 -1      3178 4.75275E-03 3.61079E-04-4.54126E-15
 -1      3179 5.25544E-03 3.83542E-04-5.45333E-15
 -1      3180 5.11271E-03 3.87731E-04-5.18407E-15
 -1      3181 5.03754E-03 3.54067E-04-5.05871E-15
 -1      3182 5.54055E-03 3.74617E-04-6.00792E-15
 -1      3183 5.39804E-03 3.79168E-04-5.72770E-15
 -1      3184 5.32160E-03 3.46285E-04-5.59691E-15
 -1      3185 5.82496E-03 3.65234E-04-6.58025E-15
 -1      3186 5.68284E-03 3.69967E-04-6.29152E-15
 -1      3187 5.60458E-03 3.37945E-04-6.15526E-15
 -1      3188 6.10822E-03 3.55969E-04-7.17170E-15
 -1      3189 5.96673E-03 3.60557E-04-6.87402E-15
 -1      3190 5.88597E-03 3.29441E-04-6.73108E-15
 -1      3191 6.38973E-03 3.47802E-04-7.77597E-15
 -1      3192 6.24919E-03 3.51699E-04-7.47213E-15
 -1      3193 6.16506E-03 3.21446E-04-7.32379E-15
 -1      3194 6.66875E-03 3.42285E-04-8.39412E-15
 -1      3195 6.52953E-03 3.44634E-04-8.08345E-15
 -1      3196 6.44092E-03 3.15028E-04-7.93013E-15
 -1      3197 6.94459E-03 3.41730E-04-9.02220E-15
 -1      3198 6.80701E-03 3.41266E-04-8.70719E-15
 -1      3199 6.71242E-03 3.11763E-04-8.54739E-15
 -1      3200 7.21703E-03 3.49427E-04-9.65833E-15
 -1      3201 7.08108E-03 3.44355E-04-9.33968E-15
 -1      3202 6.97837E-03 3.13829E-04-9.17658E-15
 -1      3203 7.48726E-03 3.69921E-04-1.03005E-14
 -1      3204 7.35204E-03 3.57727E-04-9.97905E-15
 -1      3205 7.23790E-03 3.24039E-04-9.81394E-15
 -1      3206 7.75978E-03 4.09602E-04-1.09473E-14
 -1      3207 7.62247E-03 3.86749E-04-1.06228E-14
 -1      3208 7.49147E-03 3.45872E-04-1.04561E-14
 -1      3209 8.21439E-03 5.39711E-04-1.19134E-14
 -1      3210 1.33149E-02 1.15403E-03-1.99573E-14
 -1      3211 1.31848E-02 1.10721E-03-1.96566E-14
 -1      3212 1.01689E-03 6.81726E-05-3.01490E-16
 -1      3213 1.01573E-03 4.12010E-05-3.01801E-16
 -1      3214 1.07474E-02 1.58358E-03-1.54554E-14
 -1      3215 2.11111E-03 3.97560E-04-9.76541E-16
 -1      3216 1.96787E-03 3.89891E-04-8.55666E-16
 -1      3217 1.23541E-02 8.34503E-04-1.74463E-14
 -1      3218 1.24296E-02 8.11965E-04-1.75132E-14
 -1      3219 1.24051E-02 8.81895E-04-1.77100E-14
 -1      3220 1.30570E-02 1.06266E-03-1.93529E-14
 -1      3221 1.29308E-02 1.02038E-03-1.90458E-14
 -1      3222 1.31138E-02 1.05909E-03-1.95154E-14
 -1      3223 1.28071E-02 9.81226E-04-1.87362E-14
 -1      3224 1.26843E-02 9.45222E-04-1.84260E-14
 -1      3225 1.28742E-02 9.75124E-04-1.88981E-14
 -1      3226 1.35800E-02 1.25216E-03-2.05441E-14
 -1      3227 1.34465E-02 1.20235E-03-2.02530E-14
 -1      3228 1.33649E-02 1.15109E-03-2.01197E-14
 -1      3229 1.38511E-02 1.35439E-03-2.11155E-14
 -1      3230 1.37149E-02 1.30285E-03-2.08316E-14
 -1      3231 1.36254E-02 1.24882E-03-2.07117E-14
 -1      3232 1.41268E-02 1.45851E-03-2.16676E-14
 -1      3233 1.39884E-02 1.40629E-03-2.13934E-14
 -1      3234 1.38930E-02 1.35011E-03-2.12858E-14
 -1      3235 1.44057E-02 1.56285E-03-2.22094E-14
 -1      3236 1.42659E-02 1.51072E-03-2.19398E-14
 -1      3237 1.41662E-02 1.45311E-03-2.18443E-14
 -1      3238 1.41498E-02 1.28917E-03-2.29838E-14
 -1      3239 1.42006E-02 1.32497E-03-2.29285E-14
 -1      3240 1.38192E-02 1.06419E-03-2.32906E-14
 -1      3241 1.38768E-02 1.10340E-03-2.32426E-14
 -1      3242 1.40453E-02 1.21737E-03-2.30860E-14
 -1      3243 1.40983E-02 1.25355E-03-2.30341E-14
 -1      3244 1.40052E-02 1.23091E-03-2.27400E-14
 -1      3245 1.13405E-02 3.63422E-04-1.67455E-14
 -1      3246 1.11479E-02 2.58008E-04-1.65557E-14
 -1      3247 1.24525E-02 7.82477E-04-1.74466E-14
 -1      3248 1.24641E-02 7.75338E-04-1.74818E-14
 -1      3249 1.25278E-02 9.06432E-04-1.80262E-14
 -1      3250 1.39338E-02 1.14200E-03-2.31922E-14
 -1      3251 1.39901E-02 1.18000E-03-2.31396E-14
 -1      3252 1.38972E-02 1.15804E-03-2.28357E-14
 -1      3253 1.37835E-02 1.08184E-03-2.29303E-14
 -1      3254 3.54102E-03 4.17350E-04-2.60538E-15
 -1      3255 3.39813E-03 4.18239E-04-2.41070E-15
 -1      3256 3.32338E-03 3.81303E-04-2.32785E-15
 -1      3257 3.60973E-03 3.79626E-04-2.71709E-15
 -1      3258 2.68346E-03 4.15056E-04-1.53965E-15
 -1      3259 2.54045E-03 4.12322E-04-1.38753E-15
 -1      3260 2.75003E-03 3.78977E-04-1.62988E-15
 -1      3261 1.09558E-02 1.46320E-03-1.57397E-14
 -1      3262 2.39739E-03 4.08587E-04-1.24286E-15
 -1      3263 2.25428E-03 4.03746E-04-1.10590E-15
 -1      3264 2.17577E-03 3.64360E-04-1.05116E-15
 -1      3265 2.46301E-03 3.73685E-04-1.32500E-15
 -1      3266 1.00279E-02-3.93075E-04-1.49599E-14
 -1      3267 9.89260E-03-4.39599E-04-1.46864E-14
 -1      3268 8.17631E-03 1.02208E-04-1.19833E-14
 -1      3269 8.00770E-03 1.66466E-04-1.18208E-14
 -1      3270 1.14497E-03 3.10453E-04-3.13958E-16
 -1      3271 1.08239E-03 2.71555E-04-2.94876E-16
 -1      3272 1.20151E-03 2.72907E-04-3.60538E-16
 -1      3273 1.28814E-03 3.32339E-04-3.87982E-16
 -1      3274 7.83348E-03 2.24384E-04-1.16576E-14
 -1      3275 7.71770E-03 2.60189E-04-1.15759E-14
 -1      3276 7.62431E-03 2.88543E-04-1.15212E-14
 -1      3277 7.56566E-03 3.00958E-04-1.14676E-14
 -1      3278 8.87965E-04-2.11815E-04-2.03125E-16
 -1      3279 9.86786E-03 1.59357E-03-1.40397E-14
 -1      3280 8.05232E-03 4.69176E-04-1.17963E-14
 -1      3281 8.08209E-03 4.93688E-04-1.16493E-14
 -1      3282 7.93325E-03 4.50031E-04-1.13252E-14
 -1      3283 7.91748E-03 4.18123E-04-1.17415E-14
 -1      3284 9.74968E-03-4.66551E-04-1.43990E-14
 -1      3285 9.60855E-03-4.71028E-04-1.41115E-14
 -1      3286 9.80072E-03-4.63314E-04-1.45307E-14
 -1      3287 7.56383E-03 3.16907E-04-1.14955E-14
 -1      3288 7.60722E-03 3.29131E-04-1.15637E-14
 -1      3289 1.01514E-03 1.44355E-05-3.01300E-16
 -1      3290 1.01510E-03-1.22304E-05-3.00121E-16
 -1      3291 1.13586E-03 3.01370E-05-3.64766E-16
 -1      3292 7.87262E-03 1.77259E-04-1.15648E-14
 -1      3293 7.77301E-03 3.92270E-04-1.11555E-14
 -1      3294 1.22997E-02 7.39042E-04-1.75404E-14
 -1      3295 1.22477E-02 7.25668E-04-1.75983E-14
 -1      3296 1.23881E-02 7.61662E-04-1.77014E-14
 -1      3297 7.62156E-03 2.56396E-04-1.13486E-14
 -1      3298 1.06163E-02-6.95975E-05-1.59636E-14
 -1      3299 1.05038E-02-1.46031E-04-1.58389E-14
 -1      3300 1.07455E-02 2.74559E-07-1.62135E-14
 -1      3301 7.59231E-03 3.23360E-04-1.13786E-14
 -1      3302 7.66181E-03 3.42738E-04-1.15913E-14
 -1      3303 1.16180E-02 4.88401E-04-1.71448E-14
 -1      3304 1.14815E-02 4.30462E-04-1.69456E-14
 -1      3305 1.14102E-02 3.78813E-04-1.70253E-14
 -1      3306 1.35104E-02 9.10798E-04-2.29812E-14
 -1      3307 1.36538E-02 9.59110E-04-2.33352E-14
 -1      3308 7.75952E-03 3.67073E-04-1.16765E-14
 -1      3309 1.57474E-03 3.66848E-04-5.60709E-16
 -1      3310 1.43138E-03 3.51040E-04-4.70110E-16
 -1      3311 1.38751E-03 3.20747E-04-4.55148E-16
 -1      3312 1.01866E-03 9.54216E-05-3.00554E-16
 -1      3313 1.13848E-03 8.84867E-05-3.64075E-16
 -1      3314 1.02111E-03 1.23181E-04-2.98698E-16
 -1      3315 1.26157E-02 8.92652E-04-1.81821E-14
 -1      3316 1.20591E-02 6.66662E-04-1.74858E-14
 -1      3317 1.19346E-02 6.28038E-04-1.72518E-14
 -1      3318 1.18500E-02 5.91054E-04-1.72993E-14
 -1      3319 1.01478E-02-3.41626E-04-1.52026E-14
 -1      3320 1.00548E-02-3.87290E-04-1.50625E-14
 -1      3321 1.02690E-02-2.80901E-04-1.54478E-14
 -1      3322 1.02390E-03-1.49062E-04-2.84698E-16
 -1      3323 1.02790E-03-1.78291E-04-2.79358E-16
 -1      3324 1.24971E-02 8.21285E-04-1.77114E-14
 -1      3325 1.41068E-02 1.30141E-03-2.26410E-14
 -1      3326 1.42497E-02 1.36035E-03-2.28730E-14
 -1      3327 1.42968E-02 1.39551E-03-2.28173E-14
 -1      3328 1.45007E-02 1.58875E-03-2.24341E-14
 -1      3329 1.10694E-02 2.00014E-04-1.65806E-14
 -1      3330 1.43420E-02 1.43051E-03-2.27629E-14
 -1      3331 1.43853E-02 1.46562E-03-2.27074E-14
 -1      3332 1.42013E-02 1.37092E-03-2.25392E-14
 -1      3333 1.01840E-03-9.29633E-05-2.92911E-16
 -1      3334 1.02074E-03-1.20670E-04-2.89143E-16
 -1      3335 1.14355E-03-1.45824E-04-3.48273E-16
 -1      3336 1.25305E-02 8.02225E-04-1.78095E-14
 -1      3337 1.24823E-02 7.82171E-04-1.76449E-14
 -1      3338 1.24909E-02 7.89064E-04-1.78096E-14
 -1      3339 8.70349E-03-1.25111E-04-1.26130E-14
 -1      3340 8.58131E-03-9.82713E-05-1.23963E-14
 -1      3341 8.78004E-03-1.88305E-04-1.26727E-14
 -1      3342 1.84293E-03 3.85806E-04-7.54645E-16
 -1      3343 1.69961E-03 3.74586E-04-6.48190E-16
 -1      3344 1.65606E-03 3.44449E-04-6.30152E-16
 -1      3345 1.90666E-03 3.54840E-04-8.21039E-16
 -1      3346 1.34906E-02 9.22941E-04-2.27735E-14
 -1      3347 9.50743E-03-4.64641E-04-1.39129E-14
 -1      3348 9.40621E-03-4.50079E-04-1.37170E-14
 -1      3349 9.56435E-03-4.81874E-04-1.40449E-14
 -1      3350 1.15328E-03 2.11733E-04-3.51824E-16
 -1      3351 1.02852E-03 1.81118E-04-2.92477E-16
 -1      3352 1.02439E-03 1.51793E-04-2.96055E-16
 -1      3353 8.34490E-03-2.23732E-06-1.20810E-14
 -1      3354 8.26309E-03 5.17973E-05-1.20324E-14
 -1      3355 8.12470E-03 6.82646E-05-1.17766E-14
 -1      3356 1.44303E-02 1.50091E-03-2.26669E-14
 -1      3357 1.44740E-02 1.53666E-03-2.26270E-14
 -1      3358 1.42909E-02 1.44017E-03-2.24521E-14
 -1      3359 1.37737E-02 1.02850E-03-2.33706E-14
 -1      3360 1.36796E-02 1.00703E-03-2.30482E-14
 -1      3361 1.02893E-03-2.35533E-04-2.62770E-16
 -1      3362 9.13257E-03-3.29917E-04-1.32396E-14
 -1      3363 9.00455E-03-2.89726E-04-1.30169E-14
 -1      3364 9.21457E-03-3.83398E-04-1.33649E-14
 -1      3365 7.49680E-03 2.76795E-04-1.11512E-14
 -1      3366 7.52591E-03 2.97720E-04-1.13241E-14
 -1      3367 7.49808E-03 2.93175E-04-1.11795E-14
 -1      3368 7.78045E-03 3.78155E-04-1.14699E-14
 -1      3369 1.37323E-02 9.84546E-04-2.35401E-14
 -1      3370 1.09393E-03-2.17539E-04-3.01977E-16
 -1      3371 7.51570E-03 3.03959E-04-1.11295E-14
 -1      3372 7.56217E-03 3.16884E-04-1.11568E-14
 -1      3373 1.63365E-03-2.59281E-04-6.23362E-16
 -1      3374 1.77759E-03-2.68737E-04-7.26863E-16
 -1      3375 1.92175E-03-2.76623E-04-8.38075E-16
 -1      3376 2.06606E-03-2.83086E-04-9.57323E-16
 -1      3377 1.84432E-03-2.38133E-04-7.90234E-16
 -1      3378 2.21043E-03-2.88326E-04-1.08438E-15
 -1      3379 2.35482E-03-2.92458E-04-1.21931E-15
 -1      3380 2.13325E-03-2.49858E-04-1.02963E-15
 -1      3381 2.49919E-03-2.95663E-04-1.36244E-15
 -1      3382 2.64350E-03-2.98025E-04-1.51250E-15
 -1      3383 2.42253E-03-2.57401E-04-1.30043E-15
 -1      3384 2.78774E-03-2.99691E-04-1.66966E-15
 -1      3385 2.93189E-03-3.00725E-04-1.83447E-15
 -1      3386 2.71173E-03-2.61737E-04-1.60146E-15
 -1      3387 3.07593E-03-3.01242E-04-2.00680E-15
 -1      3388 3.21985E-03-3.01282E-04-2.18537E-15
 -1      3389 3.00058E-03-2.63655E-04-1.93198E-15
 -1      3390 3.36366E-03-3.00933E-04-2.36974E-15
 -1      3391 3.50734E-03-3.00220E-04-2.56121E-15
 -1      3392 3.28893E-03-2.63755E-04-2.28962E-15
 -1      3393 3.65089E-03-2.99204E-04-2.75944E-15
 -1      3394 3.79431E-03-2.97900E-04-2.96392E-15
 -1      3395 3.57667E-03-2.62468E-04-2.67317E-15
 -1      3396 3.93759E-03-2.96350E-04-3.17402E-15
 -1      3397 4.08074E-03-2.94559E-04-3.39098E-15
 -1      3398 3.86375E-03-2.60086E-04-3.08217E-15
 -1      3399 4.22375E-03-2.92557E-04-3.61369E-15
 -1      3400 4.36662E-03-2.90341E-04-3.84117E-15
 -1      3401 4.15012E-03-2.56794E-04-3.51517E-15
 -1      3402 4.50934E-03-2.87935E-04-4.07523E-15
 -1      3403 4.65194E-03-2.85331E-04-4.31395E-15
 -1      3404 4.43574E-03-2.52691E-04-3.97271E-15
 -1      3405 4.79439E-03-2.82550E-04-4.55729E-15
 -1      3406 4.93672E-03-2.79586E-04-4.80471E-15
 -1      3407 4.72059E-03-2.47828E-04-4.45043E-15
 -1      3408 5.07893E-03-2.76461E-04-5.05642E-15
 -1      3409 5.22104E-03-2.73172E-04-5.31392E-15
 -1      3410 5.00466E-03-2.42225E-04-4.94647E-15
 -1      3411 5.36306E-03-2.69749E-04-5.57482E-15
 -1      3412 5.50504E-03-2.66201E-04-5.83955E-15
 -1      3413 5.28802E-03-2.35906E-04-5.46117E-15
 -1      3414 5.64699E-03-2.62565E-04-6.10834E-15
 -1      3415 5.78899E-03-2.58874E-04-6.38199E-15
 -1      3416 5.57079E-03-2.28929E-04-5.99184E-15
 -1      3417 5.93108E-03-2.55176E-04-6.66071E-15
 -1      3418 6.07338E-03-2.51541E-04-6.94291E-15
 -1      3419 5.85327E-03-2.21427E-04-6.54129E-15
 -1      3420 6.21598E-03-2.48031E-04-7.23126E-15
 -1      3421 6.35902E-03-2.44774E-04-7.52575E-15
 -1      3422 6.13600E-03-2.13663E-04-7.10876E-15
 -1      3423 6.50266E-03-2.41850E-04-7.82349E-15
 -1      3424 6.64710E-03-2.39476E-04-8.12597E-15
 -1      3425 6.41985E-03-2.06112E-04-7.69510E-15
 -1      3426 6.79257E-03-2.37750E-04-8.43428E-15
 -1      3427 6.93934E-03-2.37027E-04-8.74516E-15
 -1      3428 6.70622E-03-1.99590E-04-8.30065E-15
 -1      3429 7.08771E-03-2.37419E-04-9.05898E-15
 -1      3430 7.23798E-03-2.39480E-04-9.37722E-15
 -1      3431 6.99712E-03-1.95458E-04-8.92174E-15
 -1      3432 7.39059E-03-2.43347E-04-9.69929E-15
 -1      3433 7.54570E-03-2.49799E-04-1.00239E-14
 -1      3434 7.29527E-03-1.95921E-04-9.55684E-15
 -1      3435 7.70386E-03-2.58976E-04-1.03494E-14
 -1      3436 7.86492E-03-2.71857E-04-1.06787E-14
 -1      3437 7.60403E-03-2.04443E-04-1.02014E-14
 -1      3438 8.02944E-03-2.88551E-04-1.10108E-14
 -1      3439 8.19657E-03-3.09739E-04-1.13441E-14
 -1      3440 7.92666E-03-2.26066E-04-1.08581E-14
 -1      3441 8.36667E-03-3.35352E-04-1.16792E-14
 -1      3442 8.53810E-03-3.65252E-04-1.20158E-14
 -1      3443 8.26454E-03-2.66465E-04-1.15229E-14
 -1      3444 8.71129E-03-3.99209E-04-1.23534E-14
 -1      3445 8.88278E-03-4.33768E-04-1.26903E-14
 -1      3446 8.61482E-03-3.28921E-04-1.21927E-14
 -1      3447 9.05238E-03-4.67496E-04-1.30296E-14
 -1      3448 9.21876E-03-4.95224E-04-1.33707E-14
 -1      3449 8.96882E-03-4.08268E-04-1.28664E-14
 -1      3450 9.37633E-03-5.02613E-04-1.36916E-14
 -1      3451 9.53778E-03-5.09718E-04-1.40329E-14
 -1      3452 9.76265E-03-4.87266E-04-1.45206E-14
 -1      3453 9.92223E-03-4.48719E-04-1.48639E-14
 -1      3454 1.03376E-02-2.85239E-04-1.57761E-14
 -1      3455 1.05062E-02-2.03683E-04-1.61195E-14
 -1      3456 1.06777E-02-1.18853E-04-1.64612E-14
 -1      3457 1.08500E-02-3.53090E-05-1.68046E-14
 -1      3458 1.06381E-02-1.14248E-04-1.62893E-14
 -1      3459 1.10226E-02 4.56150E-05-1.71471E-14
 -1      3460 1.11931E-02 1.22405E-04-1.74870E-14
 -1      3461 1.09924E-02 6.01211E-05-1.69714E-14
 -1      3462 1.13617E-02 1.94539E-04-1.78264E-14
 -1      3463 1.15270E-02 2.62340E-04-1.81655E-14
 -1      3464 1.13397E-02 2.14533E-04-1.76525E-14
 -1      3465 1.16895E-02 3.25835E-04-1.85034E-14
 -1      3466 1.18487E-02 3.85890E-04-1.88415E-14
 -1      3467 1.16728E-02 3.47117E-04-1.83292E-14
 -1      3468 1.20050E-02 4.42670E-04-1.91788E-14
 -1      3469 1.21586E-02 4.97100E-04-1.95148E-14
 -1      3470 1.19909E-02 4.62864E-04-1.90008E-14
 -1      3471 1.23098E-02 5.49342E-04-1.98533E-14
 -1      3472 1.24590E-02 6.00103E-04-2.01915E-14
 -1      3473 1.22963E-02 5.67551E-04-1.96744E-14
 -1      3474 1.26066E-02 6.49529E-04-2.05292E-14
 -1      3475 1.27528E-02 6.98112E-04-2.08689E-14
 -1      3476 1.25924E-02 6.65729E-04-2.03481E-14
 -1      3477 1.28979E-02 7.45984E-04-2.12088E-14
 -1      3478 1.30421E-02 7.93468E-04-2.15487E-14
 -1      3479 1.28824E-02 7.60482E-04-2.10231E-14
 -1      3480 1.31857E-02 8.40687E-04-2.18887E-14
 -1      3481 1.33288E-02 8.87852E-04-2.22285E-14
 -1      3482 1.31686E-02 8.53842E-04-2.16984E-14
 -1      3483 2.81729E-03 3.42556E-04-1.72079E-15
 -1      3484 2.67344E-03 3.40835E-04-1.56106E-15
 -1      3485 4.25087E-03 3.34582E-04-3.70265E-15
 -1      3486 4.10799E-03 3.36777E-04-3.47514E-15
 -1      3487 3.96499E-03 3.38727E-04-3.25338E-15
 -1      3488 3.82187E-03 3.40428E-04-3.03823E-15
 -1      3489 4.03415E-03 3.00979E-04-3.37291E-15
 -1      3490 4.82082E-03 3.23654E-04-4.67608E-15
 -1      3491 4.67860E-03 3.26695E-04-4.42361E-15
 -1      3492 5.10450E-03 3.17046E-04-5.19754E-15
 -1      3493 4.96278E-03 3.20440E-04-4.93385E-15
 -1      3494 4.88847E-03 2.86728E-04-4.81021E-15
 -1      3495 5.38690E-03 3.09863E-04-5.73968E-15
 -1      3496 5.24587E-03 3.13523E-04-5.46615E-15
 -1      3497 5.17088E-03 2.80709E-04-5.33586E-15
 -1      3498 5.66752E-03 3.02387E-04-6.30144E-15
 -1      3499 5.52745E-03 3.06153E-04-6.01851E-15
 -1      3500 5.45145E-03 2.74352E-04-5.88193E-15
 -1      3501 5.94565E-03 2.95102E-04-6.88024E-15
 -1      3502 5.80692E-03 2.98704E-04-6.58795E-15
 -1      3503 5.72954E-03 2.68017E-04-6.44615E-15
 -1      3504 6.22034E-03 2.88777E-04-7.47364E-15
 -1      3505 6.08347E-03 2.91793E-04-7.17507E-15
 -1      3506 6.00427E-03 2.62284E-04-7.02732E-15
 -1      3507 6.49035E-03 2.84559E-04-8.08200E-15
 -1      3508 6.35598E-03 2.86369E-04-7.77750E-15
 -1      3509 6.27445E-03 2.58020E-04-7.62438E-15
 -1      3510 6.75411E-03 2.84027E-04-8.69995E-15
 -1      3511 6.62306E-03 2.83792E-04-8.38954E-15
 -1      3512 6.53853E-03 2.56439E-04-8.23294E-15
 -1      3513 7.00985E-03 2.89189E-04-9.33020E-15
 -1      3514 6.88300E-03 2.85861E-04-9.01362E-15
 -1      3515 6.79450E-03 2.59104E-04-8.85163E-15
 -1      3516 7.25578E-03 3.02370E-04-9.96779E-15
 -1      3517 7.13396E-03 2.94760E-04-9.64815E-15
 -1      3518 7.03988E-03 2.67816E-04-9.48220E-15
 -1      3519 7.49054E-03 3.25997E-04-1.06112E-14
 -1      3520 7.37428E-03 3.12925E-04-1.02891E-14
 -1      3521 7.27176E-03 2.84300E-04-1.01215E-14
 -1      3522 1.36662E-02 1.24609E-03-2.08816E-14
 -1      3523 1.35362E-02 1.19708E-03-2.05859E-14
 -1      3524 7.89450E-03 1.22633E-04-1.14301E-14
 -1      3525 7.74016E-03 1.74393E-04-1.12685E-14
 -1      3526 1.25831E-02 8.55917E-04-1.80265E-14
 -1      3527 1.25767E-02 8.28704E-04-1.79636E-14
 -1      3528 1.26131E-02 8.36318E-04-1.81269E-14
 -1      3529 1.27127E-02 8.99567E-04-1.84323E-14
 -1      3530 1.31616E-02 1.05774E-03-1.96798E-14
 -1      3531 1.30428E-02 1.01429E-03-1.93709E-14
 -1      3532 1.29282E-02 9.73265E-04-1.90615E-14
 -1      3533 1.28176E-02 9.33913E-04-1.87479E-14
 -1      3534 1.29706E-02 9.72834E-04-1.92271E-14
 -1      3535 1.39318E-02 1.34617E-03-2.14594E-14
 -1      3536 1.37981E-02 1.29576E-03-2.11741E-14
 -1      3537 1.37031E-02 1.24327E-03-2.10557E-14
 -1      3538 1.44593E-02 1.55204E-03-2.24734E-14
 -1      3539 1.38598E-02 1.17275E-03-2.24926E-14
 -1      3540 1.39125E-02 1.20810E-03-2.24486E-14
 -1      3541 1.01562E-03-3.89250E-05-2.98264E-16
 -1      3542 1.01670E-03-6.57559E-05-2.95825E-16
 -1      3543 1.13823E-03-8.59343E-05-3.56852E-16
 -1      3544 1.21364E-03-2.16271E-04-3.68100E-16
 -1      3545 4.53620E-03 3.29531E-04-4.17761E-15
 -1      3546 4.39361E-03 3.32168E-04-3.93689E-15
 -1      3547 4.31984E-03 2.96977E-04-3.82806E-15
 -1      3548 4.60469E-03 2.92194E-04-4.30683E-15
 -1      3549 7.64409E-03 3.47256E-04-1.10935E-14
 -1      3550 1.34442E-03 2.91189E-04-4.39752E-16
 -1      3551 1.30212E-03 2.62353E-04-4.23842E-16
 -1      3552 1.48777E-03 3.06879E-04-5.27126E-16
 -1      3553 3.10477E-03 3.44144E-04-2.06349E-15
 -1      3554 2.96108E-03 3.43641E-04-1.88831E-15
 -1      3555 2.88520E-03 3.05868E-04-1.81289E-15
 -1      3556 1.35373E-02 9.59558E-04-2.27052E-14
 -1      3557 1.35151E-03-2.33015E-04-4.44496E-16
 -1      3558 1.49463E-03-2.45980E-04-5.32167E-16
 -1      3559 1.56108E-03-2.18927E-04-5.86770E-16
 -1      3560 1.28456E-03-1.92142E-04-4.16930E-16
 -1      3561 1.11833E-02 2.45431E-04-1.68605E-14
 -1      3562 1.09925E-02 1.36603E-04-1.66168E-14
 -1      3563 1.34086E-02 1.14931E-03-2.02871E-14
 -1      3564 1.32835E-02 1.10262E-03-1.99857E-14
 -1      3565 1.34468E-02 1.14763E-03-2.04567E-14
 -1      3566 7.59547E-03 2.19160E-04-1.11219E-14
 -1      3567 7.51900E-03 2.45648E-04-1.10683E-14
 -1      3568 1.00327E-02-4.11459E-04-1.51090E-14
 -1      3569 1.35186E-02 9.71391E-04-2.25032E-14
 -1      3570 1.43205E-02 1.48989E-03-2.22650E-14
 -1      3571 1.24682E-02 7.84256E-04-1.78686E-14
 -1      3572 1.24373E-02 7.77562E-04-1.79260E-14
 -1      3573 1.25392E-02 8.05807E-04-1.80326E-14
 -1      3574 1.17661E-02 5.47054E-04-1.73809E-14
 -1      3575 1.16947E-02 4.99945E-04-1.74632E-14
 -1      3576 1.19062E-02 5.95925E-04-1.76169E-14
 -1      3577 1.08709E-02 5.60996E-05-1.64943E-14
 -1      3578 1.14510E-02 3.74208E-04-1.72639E-14
 -1      3579 1.13178E-02 3.12574E-04-1.70630E-14
 -1      3580 1.12418E-02 2.48522E-04-1.70992E-14
 -1      3581 9.30407E-03-4.63930E-04-1.35265E-14
 -1      3582 9.24045E-03-4.27528E-04-1.33969E-14
 -1      3583 2.59679E-03 3.02612E-04-1.49246E-15
 -1      3584 2.52951E-03 3.38337E-04-1.40831E-15
 -1      3585 2.38552E-03 3.34984E-04-1.26357E-15
 -1      3586 1.01965E-02-3.44382E-04-1.54542E-14
 -1      3587 1.42381E-02 1.43975E-03-2.22167E-14
 -1      3588 1.42235E-02 1.45401E-03-2.20682E-14
 -1      3589 1.40869E-02 1.40305E-03-2.17887E-14
 -1      3590 1.41947E-02 1.40517E-03-2.22496E-14
 -1      3591 1.03171E-02-2.71415E-04-1.56261E-14
 -1      3592 1.14405E-03 1.48619E-04-3.59833E-16
 -1      3593 3.74776E-03 3.04086E-04-2.94240E-15
 -1      3594 3.67865E-03 3.41848E-04-2.82948E-15
 -1      3595 3.53532E-03 3.42973E-04-2.62796E-15
 -1      3596 7.41242E-03 2.16689E-04-1.06995E-14
 -1      3597 7.45569E-03 2.48260E-04-1.09255E-14
 -1      3598 7.40238E-03 2.48096E-04-1.07819E-14
 -1      3599 7.53868E-03 3.24917E-04-1.08433E-14
 -1      3600 7.43232E-03 2.95604E-04-1.06751E-14
 -1      3601 1.25788E-03 4.77994E-05-4.34128E-16
 -1      3602 1.25715E-03 1.67607E-05-4.33613E-16
 -1      3603 1.22898E-02 7.35934E-04-1.78082E-14
 -1      3604 1.21805E-02 7.04900E-04-1.76480E-14
 -1      3605 1.21113E-02 6.78748E-04-1.76971E-14
 -1      3606 9.63106E-03-5.05050E-04-1.42315E-14
 -1      3607 7.60599E-03 1.75944E-04-1.09873E-14
 -1      3608 1.41031E-02 1.35335E-03-2.21899E-14
 -1      3609 1.40530E-02 1.35258E-03-2.19528E-14
 -1      3610 1.25931E-03 7.89252E-05-4.33789E-16
 -1      3611 1.38107E-03 6.69988E-05-5.09182E-16
 -1      3612 1.26148E-03 1.10384E-04-4.32448E-16
 -1      3613 1.04180E-02-2.07038E-04-1.57666E-14
 -1      3614 1.39643E-02 1.24335E-03-2.24012E-14
 -1      3615 1.40139E-02 1.27808E-03-2.23534E-14
 -1      3616 1.38215E-02 1.18592E-03-2.21570E-14
 -1      3617 1.27610E-02 8.98587E-04-1.85989E-14
 -1      3618 1.39874E-02 1.34818E-03-2.16852E-14
 -1      3619 1.13578E-03-2.76888E-05-3.62232E-16
 -1      3620 7.96639E-03 8.45509E-05-1.14776E-14
 -1      3621 7.81765E-03 9.02626E-05-1.11798E-14
 -1      3622 8.03762E-03 4.23313E-05-1.15255E-14
 -1      3623 1.40590E-02 1.31947E-03-2.22365E-14
 -1      3624 1.32014E-02 1.05690E-03-1.98464E-14
 -1      3625 3.39190E-03 3.43755E-04-2.43304E-15
 -1      3626 3.24838E-03 3.44170E-04-2.24484E-15
 -1      3627 3.46076E-03 3.06131E-04-2.53877E-15
 -1      3628 1.38046E-02 1.13607E-03-2.25353E-14
 -1      3629 1.37128E-02 1.11432E-03-2.22411E-14
 -1      3630 1.37480E-02 1.09859E-03-2.25798E-14
 -1      3631 8.88168E-03-2.55756E-04-1.27968E-14
 -1      3632 8.75855E-03-2.25950E-04-1.25771E-14
 -1      3633 8.97115E-03-3.18175E-04-1.29216E-14
 -1      3634 1.94844E-03 3.20166E-04-8.70289E-16
 -1      3635 1.82270E-03 3.16846E-04-7.69282E-16
 -1      3636 8.50697E-03-1.21644E-04-1.21957E-14
 -1      3637 8.43017E-03-6.13455E-05-1.21385E-14
 -1      3638 8.28339E-03-3.42557E-05-1.18816E-14
 -1      3639 1.29539E-03 2.27493E-04-4.30374E-16
 -1      3640 1.27675E-03-1.26637E-04-4.28463E-16
 -1      3641 1.28015E-03-1.59063E-04-4.22880E-16
 -1      3642 1.41776E-03-1.71294E-04-5.05252E-16
 -1      3643 1.36049E-02 1.01616E-03-2.25646E-14
 -1      3644 1.36634E-02 1.05510E-03-2.25263E-14
 -1      3645 1.35712E-02 1.03405E-03-2.22247E-14
 -1      3646 1.33986E-02 9.45685E-04-2.20999E-14
 -1      3647 7.45307E-03 2.85318E-04-1.09577E-14
 -1      3648 2.24148E-03 3.30595E-04-1.12647E-15
 -1      3649 2.09742E-03 3.25067E-04-9.96992E-16
 -1      3650 2.30811E-03 2.96325E-04-1.20243E-15
 -1      3651 9.12302E-03-4.00518E-04-1.31736E-14
 -1      3652 3.17322E-03 3.06856E-04-2.16206E-15
 -1      3653 2.01439E-03 2.88065E-04-9.38255E-16
 -1      3654 1.05412E-02-1.43929E-04-1.60186E-14
 -1      3655 2.05658E-03-2.11834E-04-9.75917E-16
 -1      3656 2.20134E-03-2.16007E-04-1.10353E-15
 -1      3657 2.34618E-03-2.19332E-04-1.23938E-15
 -1      3658 2.49105E-03-2.21890E-04-1.38285E-15
 -1      3659 2.27024E-03-1.81562E-04-1.17865E-15
 -1      3660 2.63589E-03-2.23807E-04-1.53362E-15
 -1      3661 2.78065E-03-2.25138E-04-1.69140E-15
 -1      3662 2.56031E-03-1.85978E-04-1.46545E-15
 -1      3663 2.92532E-03-2.25988E-04-1.85682E-15
 -1      3664 3.06985E-03-2.26393E-04-2.02988E-15
 -1      3665 2.85021E-03-1.88289E-04-1.78254E-15
 -1      3666 3.21423E-03-2.26436E-04-2.20906E-15
 -1      3667 3.35845E-03-2.26139E-04-2.39454E-15
 -1      3668 3.13964E-03-1.89003E-04-2.12806E-15
 -1      3669 3.50248E-03-2.25564E-04-2.58704E-15
 -1      3670 3.64632E-03-2.24720E-04-2.78574E-15
 -1      3671 3.42837E-03-1.88500E-04-2.50070E-15
 -1      3672 3.78996E-03-2.23654E-04-2.99035E-15
 -1      3673 3.93339E-03-2.22363E-04-3.20103E-15
 -1      3674 3.71627E-03-1.87041E-04-2.89824E-15
 -1      3675 4.07660E-03-2.20881E-04-3.41774E-15
 -1      3676 4.21958E-03-2.19198E-04-3.64055E-15
 -1      3677 4.00321E-03-1.84789E-04-3.32044E-15
 -1      3678 4.36232E-03-2.17338E-04-3.86925E-15
 -1      3679 4.50483E-03-2.15286E-04-4.10383E-15
 -1      3680 4.28912E-03-1.81828E-04-3.76623E-15
 -1      3681 4.64708E-03-2.13059E-04-4.34323E-15
 -1      3682 4.78909E-03-2.10637E-04-4.58665E-15
 -1      3683 4.57389E-03-1.78177E-04-4.23453E-15
 -1      3684 4.93084E-03-2.08036E-04-4.83499E-15
 -1      3685 5.07234E-03-2.05233E-04-5.08846E-15
 -1      3686 4.85746E-03-1.73809E-04-4.72306E-15
 -1      3687 5.21358E-03-2.02244E-04-5.34621E-15
 -1      3688 5.35460E-03-1.99049E-04-5.60893E-15
 -1      3689 5.13977E-03-1.68658E-04-5.23168E-15
 -1      3690 5.49538E-03-1.95663E-04-5.87579E-15
 -1      3691 5.63599E-03-1.92076E-04-6.14672E-15
 -1      3692 5.42080E-03-1.62641E-04-5.75809E-15
 -1      3693 5.77643E-03-1.88307E-04-6.42170E-15
 -1      3694 5.91680E-03-1.84363E-04-6.70106E-15
 -1      3695 5.70065E-03-1.55674E-04-6.30150E-15
 -1      3696 6.05714E-03-1.80266E-04-6.98507E-15
 -1      3697 6.19760E-03-1.76063E-04-7.27376E-15
 -1      3698 5.97958E-03-1.47699E-04-6.86083E-15
 -1      3699 6.33825E-03-1.71780E-04-7.56747E-15
 -1      3700 6.47933E-03-1.67531E-04-7.86560E-15
 -1      3701 6.25816E-03-1.38740E-04-7.43891E-15
 -1      3702 6.62098E-03-1.63347E-04-8.16789E-15
 -1      3703 6.76353E-03-1.59468E-04-8.47480E-15
 -1      3704 6.53737E-03-1.28995E-04-8.03627E-15
 -1      3705 6.90723E-03-1.55939E-04-8.78487E-15
 -1      3706 7.05250E-03-1.53202E-04-9.09754E-15
 -1      3707 6.81887E-03-1.19023E-04-8.64838E-15
 -1      3708 7.19973E-03-1.51323E-04-9.41460E-15
 -1      3709 7.34943E-03-1.51076E-04-9.73433E-15
 -1      3710 7.10523E-03-1.10086E-04-9.27402E-15
 -1      3711 7.50222E-03-1.52564E-04-1.00569E-14
 -1      3712 7.65855E-03-1.57166E-04-1.03806E-14
 -1      3713 7.40011E-03-1.04703E-04-9.91161E-15
 -1      3714 7.81927E-03-1.64975E-04-1.07074E-14
 -1      3715 7.98426E-03-1.77732E-04-1.10369E-14
 -1      3716 7.70884E-03-1.07450E-04-1.05594E-14
 -1      3717 8.41292E-03-1.97184E-04-1.18978E-14
 -1      3718 8.59529E-03-2.34874E-04-1.22320E-14
 -1      3719 8.94219E-03-3.53686E-04-1.28356E-14
 -1      3720 1.09555E-02 7.54079E-05-1.67630E-14
 -1      3721 1.11362E-02 1.60840E-04-1.71051E-14
 -1      3722 1.16602E-02 3.70747E-04-1.81546E-14
 -1      3723 1.18223E-02 4.29928E-04-1.84899E-14
 -1      3724 1.19803E-02 4.84820E-04-1.88272E-14
 -1      3725 1.21344E-02 5.37067E-04-1.91616E-14
 -1      3726 1.19735E-02 5.08844E-04-1.86519E-14
 -1      3727 1.22854E-02 5.86875E-04-1.94947E-14
 -1      3728 1.24339E-02 6.35326E-04-1.98307E-14
 -1      3729 1.22777E-02 6.07538E-04-1.93179E-14
 -1      3730 1.25802E-02 6.82520E-04-2.01682E-14
 -1      3731 1.27248E-02 7.29118E-04-2.05038E-14
 -1      3732 1.25702E-02 7.00029E-04-1.99852E-14
 -1      3733 1.28682E-02 7.75203E-04-2.08380E-14
 -1      3734 1.30108E-02 8.21133E-04-2.11740E-14
 -1      3735 1.28557E-02 7.90183E-04-2.06548E-14
 -1      3736 1.31342E-02 8.60275E-04-2.14723E-14
 -1      3737 1.32757E-02 9.06256E-04-2.18054E-14
 -1      3738 1.33634E-02 9.51050E-04-2.18718E-14
 -1      3739 1.31192E-02 8.73518E-04-2.12845E-14
 -1      3740 5.51553E-03 2.39833E-04-6.02353E-15
 -1      3741 5.37652E-03 2.42485E-04-5.74620E-15
 -1      3742 1.39000E-02 1.29750E-03-2.16167E-14
 -1      3743 4.10338E-03 2.63396E-04-3.49155E-15
 -1      3744 3.96033E-03 2.64997E-04-3.27051E-15
 -1      3745 5.23686E-03 2.45138E-04-5.47430E-15
 -1      3746 5.09659E-03 2.47797E-04-5.20656E-15
 -1      3747 5.30258E-03 2.10375E-04-5.61141E-15
 -1      3748 4.95583E-03 2.50378E-04-4.94377E-15
 -1      3749 4.81460E-03 2.52889E-04-4.68672E-15
 -1      3750 5.02298E-03 2.14655E-04-5.07744E-15
 -1      3751 5.79107E-03 2.34907E-04-6.59084E-15
 -1      3752 5.65373E-03 2.37309E-04-6.30507E-15
 -1      3753 5.57933E-03 2.06338E-04-6.16492E-15
 -1      3754 6.06244E-03 2.31035E-04-7.17453E-15
 -1      3755 5.92733E-03 2.32820E-04-6.88092E-15
 -1      3756 5.85236E-03 2.03071E-04-6.73422E-15
 -1      3757 6.32825E-03 2.29178E-04-7.77247E-15
 -1      3758 6.19612E-03 2.29832E-04-7.47178E-15
 -1      3759 6.12053E-03 2.01346E-04-7.32018E-15
 -1      3760 6.58669E-03 2.30617E-04-8.38206E-15
 -1      3761 6.45850E-03 2.29469E-04-8.07603E-15
 -1      3762 6.38228E-03 2.02217E-04-7.91920E-15
 -1      3763 6.83534E-03 2.36905E-04-9.00313E-15
 -1      3764 6.71238E-03 2.33166E-04-8.69107E-15
 -1      3765 6.63557E-03 2.07034E-04-8.53149E-15
 -1      3766 7.07100E-03 2.49684E-04-9.63463E-15
 -1      3767 6.95496E-03 2.42565E-04-9.31762E-15
 -1      3768 6.87763E-03 2.17354E-04-9.15376E-15
 -1      3769 7.28929E-03 2.70172E-04-1.02743E-14
 -1      3770 7.18254E-03 2.59255E-04-9.95368E-15
 -1      3771 7.10458E-03 2.34685E-04-9.78666E-15
 -1      3772 1.37949E-03 1.41743E-06-5.07854E-16
 -1      3773 1.25711E-03-1.41466E-05-4.32177E-16
 -1      3774 1.25774E-03-4.51105E-05-4.30008E-16
 -1      3775 1.26996E-02 8.66594E-04-1.84462E-14
 -1      3776 1.26315E-02 8.37825E-04-1.82955E-14
 -1      3777 1.27937E-02 8.99973E-04-1.87642E-14
 -1      3778 1.30060E-02 9.75340E-04-1.93934E-14
 -1      3779 1.28969E-02 9.36277E-04-1.90804E-14
 -1      3780 1.28187E-02 9.02143E-04-1.89320E-14
 -1      3781 1.26573E-03-6.97533E-05-4.31702E-16
 -1      3782 1.26765E-03-1.01204E-04-4.28097E-16
 -1      3783 1.40470E-03-1.09999E-04-5.10713E-16
 -1      3784 1.38761E-03-5.72528E-05-5.08166E-16
 -1      3785 1.32378E-02 1.05873E-03-2.00181E-14
 -1      3786 1.31199E-02 1.01596E-03-1.97077E-14
 -1      3787 1.30354E-02 9.77019E-04-1.95645E-14
 -1      3788 7.39269E-03 2.64455E-04-1.07656E-14
 -1      3789 7.39857E-03 2.76987E-04-1.07145E-14
 -1      3790 1.07229E-02-4.82206E-05-1.63589E-14
 -1      3791 1.45254E-03 2.37840E-04-5.27397E-16
 -1      3792 1.30423E-03 1.90429E-04-4.44753E-16
 -1      3793 1.29992E-03 1.57015E-04-4.48765E-16
 -1      3794 1.39201E-02 1.26167E-03-2.19997E-14
 -1      3795 7.34671E-03 2.74423E-04-1.04834E-14
 -1      3796 1.37365E-02 1.24025E-03-2.12311E-14
 -1      3797 1.36071E-02 1.19245E-03-2.09315E-14
 -1      3798 1.57458E-03 3.04801E-04-5.87922E-16
 -1      3799 1.53227E-03 2.75745E-04-5.69165E-16
 -1      3800 1.53988E-03 2.34895E-04-5.87326E-16
 -1      3801 1.70004E-03 3.11184E-04-6.76935E-16
 -1      3802 1.55612E-03-1.82426E-04-5.94617E-16
 -1      3803 1.69511E-03-1.92548E-04-6.91043E-16
 -1      3804 1.55218E-03-1.46436E-04-6.01095E-16
 -1      3805 7.60092E-03 1.26384E-04-1.08189E-14
 -1      3806 7.47276E-03 1.69142E-04-1.06750E-14
 -1      3807 1.74224E-03 2.78412E-04-7.20927E-16
 -1      3808 1.80344E-03-1.99896E-04-7.71369E-16
 -1      3809 1.94786E-03-2.05788E-04-8.85739E-16
 -1      3810 2.01648E-03-1.73179E-04-9.53258E-16
 -1      3811 1.79928E-03-1.61598E-04-7.79013E-16
 -1      3812 1.34800E-02 1.14579E-03-2.06298E-14
 -1      3813 1.33556E-02 1.10016E-03-2.03242E-14
 -1      3814 1.35094E-02 1.14320E-03-2.08053E-14
 -1      3815 3.24215E-03 2.69423E-04-2.26128E-15
 -1      3816 3.09802E-03 2.69389E-04-2.07976E-15
 -1      3817 2.07719E-03 2.54049E-04-1.00366E-15
 -1      3818 1.92767E-03 2.50203E-04-8.77214E-16
 -1      3819 2.95374E-03 2.68929E-04-1.90471E-15
 -1      3820 2.80934E-03 2.68005E-04-1.73676E-15
 -1      3821 3.02284E-03 2.31806E-04-1.99736E-15
 -1      3822 1.12611E-02 2.23205E-04-1.73075E-14
 -1      3823 1.37983E-02 1.24513E-03-2.15018E-14
 -1      3824 1.20379E-02 6.44857E-04-1.77802E-14
 -1      3825 1.19706E-02 6.06408E-04-1.78624E-14
 -1      3826 1.21617E-02 6.86440E-04-1.79414E-14
 -1      3827 2.66484E-03 2.66516E-04-1.57699E-15
 -1      3828 2.52026E-03 2.64406E-04-1.42428E-15
 -1      3829 2.73358E-03 2.30111E-04-1.66184E-15
 -1      3830 8.15457E-03-1.95833E-04-1.13691E-14
 -1      3831 8.32924E-03-2.21050E-04-1.17018E-14
 -1      3832 1.50533E-03 8.76472E-05-5.89535E-16
 -1      3833 1.50370E-03 5.30909E-05-5.89833E-16
 -1      3834 4.74117E-03 2.18829E-04-4.56450E-15
 -1      3835 4.67300E-03 2.55275E-04-4.43577E-15
 -1      3836 4.53103E-03 2.57544E-04-4.19081E-15
 -1      3837 1.13216E-02 2.36922E-04-1.74797E-14
 -1      3838 1.14931E-02 3.07068E-04-1.78178E-14
 -1      3839 4.24619E-03 2.61617E-04-3.71898E-15
 -1      3840 4.17268E-03 2.26042E-04-3.60976E-15
 -1      3841 4.38875E-03 2.59655E-04-3.95179E-15
 -1      3842 3.81707E-03 2.66383E-04-3.05513E-15
 -1      3843 3.67361E-03 2.67554E-04-2.84665E-15
 -1      3844 3.88658E-03 2.28805E-04-3.16831E-15
 -1      3845 7.39435E-03 1.79883E-04-1.05331E-14
 -1      3846 7.32412E-03 1.86890E-04-1.03907E-14
 -1      3847 7.37557E-03 1.38377E-04-1.03658E-14
 -1      3848 7.27153E-03 2.50712E-04-1.03136E-14
 -1      3849 1.50286E-03 1.86474E-05-5.89223E-16
 -1      3850 1.50281E-03-1.57384E-05-5.87692E-16
 -1      3851 1.62712E-03 3.73303E-05-6.76163E-16
 -1      3852 1.26198E-02 8.33511E-04-1.83537E-14
 -1      3853 1.42125E-03 1.48251E-04-5.26773E-16
 -1      3854 1.36778E-02 1.12879E-03-2.19095E-14
 -1      3855 1.37309E-02 1.16352E-03-2.18686E-14
 -1      3856 8.11452E-03-6.19683E-06-1.15828E-14
 -1      3857 7.95373E-03 1.12815E-05-1.12829E-14
 -1      3858 8.18796E-03-5.77913E-05-1.16376E-14
 -1      3859 1.23913E-02 7.64853E-04-1.79746E-14
 -1      3860 1.23391E-02 7.48318E-04-1.80250E-14
 -1      3861 1.24825E-02 7.90433E-04-1.81403E-14
 -1      3862 3.52996E-03 2.68465E-04-2.64492E-15
 -1      3863 3.38614E-03 2.69108E-04-2.44973E-15
 -1      3864 3.31152E-03 2.31916E-04-2.36120E-15
 -1      3865 3.59948E-03 2.30825E-04-2.75160E-15
 -1      3866 7.33015E-03 2.39794E-04-1.05404E-14
 -1      3867 1.37450E-02 1.18559E-03-2.17390E-14
 -1      3868 1.37913E-02 1.22529E-03-2.16302E-14
 -1      3869 1.36300E-02 1.17056E-03-2.12346E-14
 -1      3870 1.36051E-02 1.12959E-03-2.14905E-14
 -1      3871 1.32659E-02 1.05716E-03-2.01899E-14
 -1      3872 1.16520E-02 3.96836E-04-1.79815E-14
 -1      3873 2.37564E-03 2.61545E-04-1.27916E-15
 -1      3874 2.23099E-03 2.57860E-04-1.14185E-15
 -1      3875 2.44395E-03 2.26309E-04-1.35640E-15
 -1      3876 2.14503E-03 2.20646E-04-1.07302E-15
 -1      3877 7.65750E-03 9.90353E-05-1.08656E-14
 -1      3878 7.50775E-03 1.00828E-04-1.05531E-14
 -1      3879 7.71642E-03 6.80265E-05-1.09113E-14
 -1      3880 1.79500E-03 2.46136E-04-7.71654E-16
 -1      3881 1.67202E-03 2.41701E-04-6.79619E-16
 -1      3882 1.59320E-03 2.04946E-04-6.32252E-16
 -1      3883 1.85820E-03 2.14026E-04-8.30350E-16
 -1      3884 1.35653E-02 1.05645E-03-2.19828E-14
 -1      3885 1.36224E-02 1.09315E-03-2.19473E-14
 -1      3886 1.35332E-02 1.07216E-03-2.16543E-14
 -1      3887 8.03721E-03-1.27006E-04-1.12153E-14
 -1      3888 1.16545E-02 4.68287E-04-1.75343E-14
 -1      3889 1.15696E-02 4.07201E-04-1.75723E-14
 -1      3890 1.17983E-02 5.23741E-04-1.77702E-14
 -1      3891 1.19303E-02 5.78986E-04-1.79345E-14
 -1      3892 1.18946E-02 5.50571E-04-1.80052E-14
 -1      3893 1.20579E-02 6.28599E-04-1.80955E-14
 -1      3894 8.74138E-03-2.70388E-04-1.24909E-14
 -1      3895 2.48511E-03-1.48354E-04-1.39812E-15
 -1      3896 2.63028E-03-1.49686E-04-1.54939E-15
 -1      3897 2.77539E-03-1.50631E-04-1.70836E-15
 -1      3898 2.92039E-03-1.51213E-04-1.87414E-15
 -1      3899 2.70090E-03-1.13075E-04-1.63441E-15
 -1      3900 3.06525E-03-1.51502E-04-2.04708E-15
 -1      3901 3.20994E-03-1.51512E-04-2.22751E-15
 -1      3902 2.99113E-03-1.13972E-04-1.96632E-15
 -1      3903 3.35443E-03-1.51299E-04-2.41379E-15
 -1      3904 3.49870E-03-1.50865E-04-2.60671E-15
 -1      3905 3.28070E-03-1.13982E-04-2.32705E-15
 -1      3906 3.64274E-03-1.50254E-04-2.80571E-15
 -1      3907 3.78651E-03-1.49458E-04-3.01110E-15
 -1      3908 3.56940E-03-1.13295E-04-2.71289E-15
 -1      3909 3.93002E-03-1.48511E-04-3.22217E-15
 -1      3910 4.07324E-03-1.47397E-04-3.43955E-15
 -1      3911 3.85703E-03-1.12030E-04-3.12402E-15
 -1      3912 4.21616E-03-1.46140E-04-3.66322E-15
 -1      3913 4.35877E-03-1.44719E-04-3.89187E-15
 -1      3914 4.14346E-03-1.10239E-04-3.55937E-15
 -1      3915 4.50105E-03-1.43150E-04-4.12613E-15
 -1      3916 4.64299E-03-1.41404E-04-4.36601E-15
 -1      3917 4.42854E-03-1.07920E-04-4.01765E-15
 -1      3918 4.78456E-03-1.39495E-04-4.61141E-15
 -1      3919 4.92578E-03-1.37384E-04-4.86107E-15
 -1      3920 4.71212E-03-1.05014E-04-4.49791E-15
 -1      3921 5.06660E-03-1.35082E-04-5.11550E-15
 -1      3922 5.20704E-03-1.32546E-04-5.37547E-15
 -1      3923 4.99406E-03-1.01411E-04-4.99890E-15
 -1      3924 5.34708E-03-1.29781E-04-5.63865E-15
 -1      3925 5.48673E-03-1.26742E-04-5.90771E-15
 -1      3926 5.27420E-03-9.69443E-05-5.51942E-15
 -1      3927 5.62598E-03-1.23429E-04-6.17990E-15
 -1      3928 5.76488E-03-1.19798E-04-6.45580E-15
 -1      3929 5.55243E-03-9.13950E-05-6.05700E-15
 -1      3930 5.90342E-03-1.15845E-04-6.73608E-15
 -1      3931 6.04170E-03-1.11539E-04-7.02135E-15
 -1      3932 5.82871E-03-8.44901E-05-6.61052E-15
 -1      3933 6.17974E-03-1.06870E-04-7.31091E-15
 -1      3934 6.31772E-03-1.01838E-04-7.60470E-15
 -1      3935 6.10320E-03-7.59200E-05-7.18146E-15
 -1      3936 6.45568E-03-9.64288E-05-7.90373E-15
 -1      3937 6.59391E-03-9.07157E-05-8.20654E-15
 -1      3938 6.37629E-03-6.53823E-05-7.77050E-15
 -1      3939 6.73251E-03-8.46752E-05-8.51286E-15
 -1      3940 6.87195E-03-7.85441E-05-8.82199E-15
 -1      3941 6.64888E-03-5.26838E-05-8.37716E-15
 -1      3942 7.01241E-03-7.23115E-05-9.13454E-15
 -1      3943 7.15463E-03-6.65111E-05-9.44978E-15
 -1      3944 6.92260E-03-3.79770E-05-8.99526E-15
 -1      3945 7.29880E-03-6.11323E-05-9.76605E-15
 -1      3946 7.44613E-03-5.72412E-05-1.00871E-14
 -1      3947 7.20035E-03-2.22752E-05-9.62354E-15
 -1      3948 7.56509E-03-1.45750E-05-1.04186E-14
 -1      3949 7.71654E-03-1.24306E-05-1.07417E-14
 -1      3950 8.28544E-03-1.17889E-04-1.17433E-14
 -1      3951 1.27018E-02 8.59593E-04-1.86625E-14
 -1      3952 1.25948E-02 8.24626E-04-1.84032E-14
 -1      3953 1.25623E-02 8.13833E-04-1.84523E-14
 -1      3954 8.82534E-03-3.29032E-04-1.26151E-14
 -1      3955 1.54264E-03-1.18212E-04-6.00973E-16
 -1      3956 1.68133E-03-1.25841E-04-6.98091E-16
 -1      3957 1.53367E-03-9.03290E-05-5.99997E-16
 -1      3958 1.55285E-03 1.53094E-04-6.14295E-16
 -1      3959 1.67540E-03 1.40434E-04-7.04000E-16
 -1      3960 1.14271E-02 3.22263E-04-1.74729E-14
 -1      3961 1.22740E-02 6.29120E-04-1.91407E-14
 -1      3962 1.24197E-02 6.73978E-04-1.94718E-14
 -1      3963 1.25629E-02 7.17874E-04-1.98045E-14
 -1      3964 1.27046E-02 7.61585E-04-2.01395E-14
 -1      3965 1.25587E-02 7.36225E-04-1.96256E-14
 -1      3966 1.28449E-02 8.05171E-04-2.04730E-14
 -1      3967 1.29845E-02 8.48971E-04-2.08037E-14
 -1      3968 1.28360E-02 8.20141E-04-2.02887E-14
 -1      3969 5.36828E-03 1.76439E-04-5.74908E-15
 -1      3970 5.22953E-03 1.77988E-04-5.47755E-15
 -1      3971 5.64321E-03 1.73853E-04-6.30408E-15
 -1      3972 5.50619E-03 1.75062E-04-6.02432E-15
 -1      3973 5.43413E-03 1.43326E-04-5.88517E-15
 -1      3974 5.09008E-03 1.79591E-04-5.21133E-15
 -1      3975 4.94999E-03 1.81255E-04-4.94971E-15
 -1      3976 5.15726E-03 1.45205E-04-5.34402E-15
 -1      3977 6.17927E-03 1.73071E-04-7.46414E-15
 -1      3978 6.04737E-03 1.72481E-04-7.16834E-15
 -1      3979 6.43756E-03 1.76872E-04-8.06547E-15
 -1      3980 6.30942E-03 1.74555E-04-7.76319E-15
 -1      3981 6.23915E-03 1.46104E-04-7.60732E-15
 -1      3982 6.68666E-03 1.85255E-04-8.67940E-15
 -1      3983 6.56343E-03 1.80488E-04-8.37107E-15
 -1      3984 6.49476E-03 1.52983E-04-8.21087E-15
 -1      3985 6.92359E-03 1.99809E-04-9.30408E-15
 -1      3986 6.80690E-03 1.91820E-04-8.99096E-15
 -1      3987 6.74087E-03 1.65073E-04-8.82767E-15
 -1      3988 7.14404E-03 2.21934E-04-9.93810E-15
 -1      3989 7.03627E-03 2.10122E-04-9.62014E-15
 -1      3990 6.97451E-03 1.83981E-04-9.45389E-15
 -1      3991 1.30550E-02 9.75122E-04-1.97384E-14
 -1      3992 1.29410E-02 9.36749E-04-1.94199E-14
 -1      3993 2.21496E-03 1.86048E-04-1.14451E-15
 -1      3994 2.06081E-03 1.83366E-04-1.00674E-15
 -1      3995 7.94943E-03-7.49698E-05-1.11124E-14
 -1      3996 8.11862E-03-8.93808E-05-1.14425E-14
 -1      3997 1.16208E-02 4.14777E-04-1.77433E-14
 -1      3998 1.17855E-02 4.73327E-04-1.80777E-14
 -1      3999 5.91395E-03 1.72444E-04-6.87629E-15
 -1      4000 5.77916E-03 1.72983E-04-6.58870E-15
 -1      4001 5.70741E-03 1.42350E-04-6.44282E-15
 -1      4002 1.32846E-02 1.05179E-03-2.03641E-14
 -1      4003 1.31682E-02 1.01256E-03-2.00516E-14
 -1      4004 1.30653E-02 9.68720E-04-1.99098E-14
 -1      4005 1.28034E-02 8.93199E-04-1.89815E-14
 -1      4006 1.19583E-02 5.30149E-04-1.84453E-14
 -1      4007 1.21114E-02 5.79053E-04-1.87790E-14
 -1      4008 1.22615E-02 6.48162E-04-1.89331E-14
 -1      4009 1.19358E-02 5.49575E-04-1.82090E-14
 -1      4010 3.09250E-03 1.94523E-04-2.09099E-15
 -1      4011 2.94782E-03 1.94157E-04-1.91574E-15
 -1      4012 1.34222E-02 9.82612E-04-2.19002E-14
 -1      4013 1.35081E-02 1.02596E-03-2.19613E-14
 -1      4014 1.34183E-02 1.00586E-03-2.16636E-14
 -1      4015 1.33010E-02 9.43925E-04-2.16088E-14
 -1      4016 2.19484E-03-1.44233E-04-1.11850E-15
 -1      4017 2.33994E-03-1.46553E-04-1.25463E-15
 -1      4018 2.41037E-03-1.11022E-04-1.33132E-15
 -1      4019 1.35184E-02 1.13248E-03-2.09552E-14
 -1      4020 1.33921E-02 1.08798E-03-2.06465E-14
 -1      4021 1.32876E-02 1.04073E-03-2.05127E-14
 -1      4022 1.35069E-02 1.11324E-03-2.10816E-14
 -1      4023 7.28618E-03 2.12477E-04-1.03626E-14
 -1      4024 7.27129E-03 2.32165E-04-1.03447E-14
 -1      4025 7.20753E-03 2.26547E-04-1.01374E-14
 -1      4026 7.25282E-03 1.80660E-04-1.01969E-14
 -1      4027 2.80299E-03 1.93419E-04-1.74761E-15
 -1      4028 2.65806E-03 1.92271E-04-1.58738E-15
 -1      4029 2.87302E-03 1.56493E-04-1.83466E-15
 -1      4030 7.45423E-03 2.89570E-05-1.02705E-14
 -1      4031 4.45763E-03 2.22675E-04-4.07592E-15
 -1      4032 3.23701E-03 1.94585E-04-2.27256E-15
 -1      4033 3.16266E-03 1.57142E-04-2.18469E-15
 -1      4034 3.38133E-03 1.94362E-04-2.46117E-15
 -1      4035 4.24211E-03 1.88956E-04-3.72861E-15
 -1      4036 4.09936E-03 1.90241E-04-3.50184E-15
 -1      4037 5.97616E-03 1.42964E-04-7.01715E-15
 -1      4038 4.87755E-03 1.47506E-04-4.82170E-15
 -1      4039 4.80933E-03 1.82896E-04-4.69267E-15
 -1      4040 4.66817E-03 1.84523E-04-4.44337E-15
 -1      4041 1.30820E-02 8.77113E-04-2.10585E-14
 -1      4042 1.32031E-02 9.15084E-04-2.13529E-14
 -1      4043 1.32628E-02 9.46402E-04-2.13835E-14
 -1      4044 1.30695E-02 8.90132E-04-2.08747E-14
 -1      4045 1.22799E-02 7.24798E-04-1.81095E-14
 -1      4046 1.22207E-02 6.96382E-04-1.81921E-14
 -1      4047 1.23893E-02 7.57985E-04-1.82734E-14
 -1      4048 3.95629E-03 1.91389E-04-3.28134E-15
 -1      4049 3.81294E-03 1.92402E-04-3.06663E-15
 -1      4050 4.02622E-03 1.54188E-04-3.39460E-15
 -1      4051 1.28109E-02 8.89930E-04-1.91547E-14
 -1      4052 7.15369E-03 2.00482E-04-9.96923E-15
 -1      4053 1.75217E-03 5.72359E-05-7.68496E-16
 -1      4054 1.75127E-03 2.00852E-05-7.67588E-16
 -1      4055 1.20600E-02 6.01134E-04-1.83698E-14
 -1      4056 1.51383E-03-3.91290E-05-5.93153E-16
 -1      4057 1.52184E-03-6.64407E-05-5.95457E-16
 -1      4058 1.66023E-03-7.19160E-05-6.92344E-16
 -1      4059 1.63747E-03-2.27921E-05-6.81204E-16
 -1      4060 1.78030E-03-1.01744E-04-7.77454E-16
 -1      4061 1.78951E-03-1.31545E-04-7.78362E-16
 -1      4062 1.89797E-03-1.36912E-04-8.63567E-16
 -1      4063 1.34739E-02 1.07032E-03-2.13365E-14
 -1      4064 1.34917E-02 1.09259E-03-2.12087E-14
 -1      4065 1.33798E-02 1.05625E-03-2.09222E-14
 -1      4066 2.51305E-03 1.90630E-04-1.43493E-15
 -1      4067 2.36802E-03 1.88444E-04-1.28958E-15
 -1      4068 2.58285E-03 1.54555E-04-1.51359E-15
 -1      4069 2.28446E-03 1.51396E-04-1.21544E-15
 -1      4070 1.99189E-03-1.38516E-04-9.41291E-16
 -1      4071 2.10069E-03-1.43237E-04-1.03392E-15
 -1      4072 2.17088E-03-1.09047E-04-1.10435E-15
 -1      4073 1.98262E-03-1.07559E-04-9.39610E-16
 -1      4074 7.43879E-03 7.53179E-05-1.03406E-14
 -1      4075 7.39183E-03 9.85106E-05-1.02946E-14
 -1      4076 7.31018E-03 1.13636E-04-1.01545E-14
 -1      4077 7.33314E-03 3.06993E-05-1.00128E-14
 -1      4078 1.34174E-02 1.03556E-03-2.13685E-14
 -1      4079 2.62685E-03-7.57046E-05-1.56052E-15
 -1      4080 2.77215E-03-7.61781E-05-1.71956E-15
 -1      4081 1.82782E-03 1.69606E-04-8.15510E-16
 -1      4082 1.77952E-03 9.95898E-05-7.87239E-16
 -1      4083 1.90352E-03 8.30835E-05-8.86417E-16
 -1      4084 1.96082E-03 1.71586E-04-9.23185E-16
 -1      4085 1.21831E-02 6.74719E-04-1.82641E-14
 -1      4086 1.21479E-02 6.51298E-04-1.83362E-14
 -1      4087 1.23021E-02 7.15852E-04-1.84306E-14
 -1      4088 2.91735E-03-7.64737E-05-1.88577E-15
 -1      4089 3.06240E-03-7.65982E-05-2.05944E-15
 -1      4090 2.84397E-03-3.90502E-05-1.80544E-15
 -1      4091 3.20726E-03-7.65890E-05-2.23992E-15
 -1      4092 3.35191E-03-7.64412E-05-2.42700E-15
 -1      4093 3.13415E-03-3.91462E-05-2.15287E-15
 -1      4094 3.49632E-03-7.61873E-05-2.61978E-15
 -1      4095 3.64045E-03-7.58167E-05-2.81929E-15
 -1      4096 3.42352E-03-3.89428E-05-2.52707E-15
 -1      4097 3.78430E-03-7.53547E-05-3.02580E-15
 -1      4098 3.92783E-03-7.47812E-05-3.23708E-15
 -1      4099 3.71183E-03-3.84818E-05-2.92630E-15
 -1      4100 4.07104E-03-7.41188E-05-3.45508E-15
 -1      4101 4.21389E-03-7.33427E-05-3.67925E-15
 -1      4102 3.99890E-03-3.77591E-05-3.35139E-15
 -1      4103 4.35637E-03-7.24662E-05-3.90912E-15
 -1      4104 4.49846E-03-7.14590E-05-4.14373E-15
 -1      4105 4.28454E-03-3.67499E-05-3.79961E-15
 -1      4106 4.64013E-03-7.03282E-05-4.38385E-15
 -1      4107 4.78137E-03-6.90358E-05-4.63007E-15
 -1      4108 4.56856E-03-3.53760E-05-4.27004E-15
 -1      4109 4.92213E-03-6.75824E-05-4.88111E-15
 -1      4110 5.06240E-03-6.59210E-05-5.13692E-15
 -1      4111 4.85075E-03-3.35096E-05-4.76188E-15
 -1      4112 5.20214E-03-6.40440E-05-5.39790E-15
 -1      4113 5.34135E-03-6.18951E-05-5.66337E-15
 -1      4114 5.13085E-03-3.09573E-05-5.27601E-15
 -1      4115 5.47998E-03-5.94563E-05-5.93347E-15
 -1      4116 5.61804E-03-5.66624E-05-6.20727E-15
 -1      4117 5.40858E-03-2.74439E-05-5.80879E-15
 -1      4118 5.75547E-03-5.34820E-05-6.48446E-15
 -1      4119 5.89233E-03-4.98449E-05-6.76581E-15
 -1      4120 5.68366E-03-2.25937E-05-6.35725E-15
 -1      4121 6.02855E-03-4.57023E-05-7.05213E-15
 -1      4122 6.16424E-03-4.09899E-05-7.34284E-15
 -1      4123 5.95583E-03-1.59166E-05-6.92172E-15
 -1      4124 6.29932E-03-3.56367E-05-7.63662E-15
 -1      4125 6.43402E-03-2.96086E-05-7.93637E-15
 -1      4126 6.22492E-03-6.80604E-06-7.50284E-15
 -1      4127 6.56824E-03-2.28083E-05-8.23944E-15
 -1      4128 6.70237E-03-1.52810E-05-8.54578E-15
 -1      4129 6.49098E-03 5.43080E-06-8.10165E-15
 -1      4130 6.83631E-03-6.90434E-06-8.85526E-15
 -1      4131 6.97069E-03 2.12986E-06-9.16731E-15
 -1      4132 6.75439E-03 2.14780E-05-8.71467E-15
 -1      4133 7.08311E-03 1.10795E-05-9.43114E-15
 -1      4134 7.21897E-03 2.10970E-05-9.74614E-15
 -1      4135 7.21278E-03 6.22509E-05-9.81727E-15
 -1      4136 6.99447E-03 4.07475E-05-9.28840E-15
 -1      4137 4.52655E-03 1.86078E-04-4.19978E-15
 -1      4138 4.38451E-03 1.87571E-04-3.96097E-15
 -1      4139 4.31166E-03 1.52185E-04-3.84671E-15
 -1      4140 1.25579E-02 7.54256E-04-1.94477E-14
 -1      4141 1.26939E-02 7.94154E-04-1.97777E-14
 -1      4142 6.03955E-03 1.14398E-04-7.15739E-15
 -1      4143 5.90660E-03 1.12781E-04-6.86742E-15
 -1      4144 2.33617E-03-7.40893E-05-1.26502E-15
 -1      4145 2.48150E-03-7.50141E-05-1.40906E-15
 -1      4146 2.55329E-03-3.85801E-05-1.48724E-15
 -1      4147 1.28290E-02 8.34634E-04-2.01068E-14
 -1      4148 1.29640E-02 8.75864E-04-2.04361E-14
 -1      4149 1.28241E-02 8.48577E-04-1.99256E-14
 -1      4150 5.50042E-03 1.10968E-04-6.01957E-15
 -1      4151 5.36299E-03 1.11120E-04-5.74622E-15
 -1      4152 2.03139E-03 1.38113E-04-9.88562E-16
 -1      4153 2.00307E-03 9.34202E-05-9.68626E-16
 -1      4154 1.97582E-03 4.92572E-05-9.47633E-16
 -1      4155 2.10281E-03 1.03828E-04-1.05470E-15
 -1      4156 5.22472E-03 1.11467E-04-5.47587E-15
 -1      4157 5.08568E-03 1.12016E-04-5.21047E-15
 -1      4158 5.29259E-03 7.83597E-05-5.60706E-15
 -1      4159 6.55492E-03 1.29945E-04-8.35646E-15
 -1      4160 6.42896E-03 1.24467E-04-8.05137E-15
 -1      4161 6.30090E-03 1.20064E-04-7.75020E-15
 -1      4162 6.17105E-03 1.16840E-04-7.45171E-15
 -1      4163 6.10446E-03 8.66136E-05-7.29676E-15
 -1      4164 6.36501E-03 9.47539E-05-7.89195E-15
 -1      4165 7.03277E-03 1.68382E-04-9.60137E-15
 -1      4166 6.91801E-03 1.56115E-04-9.28687E-15
 -1      4167 7.17892E-03 1.75727E-04-9.99882E-15
 -1      4168 7.10598E-03 1.71623E-04-9.80094E-15
 -1      4169 7.06072E-03 1.40412E-04-9.63139E-15
 -1      4170 1.21839E-02 6.49562E-04-1.85381E-14
 -1      4171 3.66931E-03 1.93244E-04-2.85819E-15
 -1      4172 3.52544E-03 1.93913E-04-2.65640E-15
 -1      4173 3.45154E-03 1.56825E-04-2.56192E-15
 -1      4174 2.40934E-03 1.06350E-04-1.34198E-15
 -1      4175 2.25600E-03 1.05331E-04-1.19396E-15
 -1      4176 2.22852E-03 5.96103E-05-1.17080E-15
 -1      4177 7.21826E-03 1.46455E-04-1.00269E-14
 -1      4178 1.88686E-03 1.40217E-05-8.73474E-16
 -1      4179 1.76185E-03-4.97682E-06-7.74595E-16
 -1      4180 1.77280E-03-3.01842E-05-7.81113E-16
 -1      4181 1.28134E-02 8.82891E-04-1.93457E-14
 -1      4182 1.26733E-02 8.42826E-04-1.89023E-14
 -1      4183 5.77233E-03 1.11697E-04-6.58100E-15
 -1      4184 5.63690E-03 1.11163E-04-6.29846E-15
 -1      4185 5.56734E-03 7.93189E-05-6.15416E-15
 -1      4186 6.79969E-03 1.45518E-04-8.97404E-15
 -1      4187 6.67867E-03 1.37037E-04-8.66318E-15
 -1      4188 6.61869E-03 1.07483E-04-8.49983E-15
 -1      4189 6.86402E-03 1.26248E-04-9.11937E-15
 -1      4190 1.30653E-02 9.58558E-04-2.00641E-14
 -1      4191 1.29498E-02 9.22890E-04-1.97449E-14
 -1      4192 1.25457E-02 8.03365E-04-1.86423E-14
 -1      4193 2.24182E-03-7.41827E-05-1.17571E-15
 -1      4194 2.31347E-03-3.86935E-05-1.24773E-15
 -1      4195 2.14753E-03-7.41396E-05-1.08918E-15
 -1      4196 1.33230E-02 9.86023E-04-2.13332E-14
 -1      4197 1.32674E-02 9.86566E-04-2.10125E-14
 -1      4198 1.32748E-02 1.02364E-03-2.06385E-14
 -1      4199 1.31663E-02 9.89154E-04-2.03492E-14
 -1      4200 1.30455E-02 9.39854E-04-2.01860E-14
 -1      4201 1.32538E-02 1.00187E-03-2.07620E-14
 -1      4202 1.23373E-02 6.93485E-04-1.88960E-14
 -1      4203 1.24808E-02 7.51775E-04-1.90495E-14
 -1      4204 5.83824E-03 8.18085E-05-6.71776E-15
 -1      4205 1.31595E-02 9.54664E-04-2.07213E-14
 -1      4206 1.28028E-02 8.69871E-04-1.94935E-14
 -1      4207 4.94596E-03 1.12658E-04-4.95055E-15
 -1      4208 4.80562E-03 1.13402E-04-4.69457E-15
 -1      4209 5.01466E-03 7.83532E-05-5.07710E-15
 -1      4210 1.30726E-02 8.99890E-04-2.07973E-14
 -1      4211 1.31682E-02 9.27561E-04-2.10503E-14
 -1      4212 4.09638E-03 1.17229E-04-3.50723E-15
 -1      4213 3.95330E-03 1.17890E-04-3.28696E-15
 -1      4214 3.73945E-03 1.55779E-04-2.96558E-15
 -1      4215 4.59555E-03 1.49906E-04-4.32284E-15
 -1      4216 7.88549E-03-3.11469E-05-1.10571E-14
 -1      4217 4.38141E-03 1.15753E-04-3.96516E-15
 -1      4218 4.23909E-03 1.16519E-04-3.73378E-15
 -1      4219 4.16679E-03 8.05490E-05-3.62015E-15
 -1      4220 7.21846E-03 8.79305E-05-9.88688E-15
 -1      4221 7.21184E-03 1.24136E-04-9.95767E-15
 -1      4222 7.12950E-03 1.21901E-04-9.76136E-15
 -1      4223 7.11206E-03 7.57086E-05-9.62257E-15
 -1      4224 2.55464E-03 1.07546E-04-1.48988E-15
 -1      4225 2.52729E-03 6.07081E-05-1.46412E-15
 -1      4226 2.69991E-03 1.08420E-04-1.64492E-15
 -1      4227 1.77036E-03-5.31673E-05-7.77048E-16
 -1      4228 1.78206E-03-7.86352E-05-7.82672E-16
 -1      4229 1.89043E-03-8.27811E-05-8.67524E-16
 -1      4230 1.89487E-03-3.55001E-05-8.76794E-16
 -1      4231 3.23332E-03 1.19693E-04-2.27893E-15
 -1      4232 3.08857E-03 1.19637E-04-2.09713E-15
 -1      4233 1.25041E-02 7.83816E-04-1.87273E-14
 -1      4234 1.33217E-02 9.77118E-04-2.14108E-14
 -1      4235 1.30617E-02 9.12068E-04-2.06113E-14
 -1      4236 2.96690E-03 1.14397E-04-1.95011E-15
 -1      4237 2.82182E-03 1.13971E-04-1.78060E-15
 -1      4238 2.79457E-03 6.66023E-05-1.75280E-15
 -1      4239 3.03811E-03 7.70983E-05-2.03823E-15
 -1      4240 5.34946E-03 2.53233E-05-5.70937E-15
 -1      4241 5.21104E-03 2.43108E-05-5.44275E-15
 -1      4242 1.30538E-02 9.30005E-04-2.03644E-14
 -1      4243 1.29497E-02 9.00100E-04-2.00749E-14
 -1      4244 2.80699E-03 1.63079E-05-1.76680E-15
 -1      4245 2.95222E-03 1.64151E-05-1.93567E-15
 -1      4246 3.07384E-03 2.15058E-05-2.08260E-15
 -1      4247 3.21874E-03 2.15715E-05-2.26414E-15
 -1      4248 3.63966E-03-1.43579E-06-2.82794E-15
 -1      4249 3.78352E-03-1.31304E-06-3.03456E-15
 -1      4250 3.93929E-03 2.16365E-05-3.26732E-15
 -1      4251 4.08243E-03 2.16720E-05-3.48632E-15
 -1      4252 4.22518E-03 2.17134E-05-3.71174E-15
 -1      4253 4.36752E-03 2.18140E-05-3.94274E-15
 -1      4254 4.79177E-03 2.24772E-05-4.66710E-15
 -1      4255 4.93214E-03 2.29277E-05-4.92003E-15
 -1      4256 5.07191E-03 2.35048E-05-5.17915E-15
 -1      4257 5.48715E-03 2.66755E-05-5.98207E-15
 -1      4258 5.62399E-03 2.83459E-05-6.25780E-15
 -1      4259 5.75998E-03 3.05068E-05-6.53829E-15
 -1      4260 5.89499E-03 3.31361E-05-6.82217E-15
 -1      4261 6.02903E-03 3.64532E-05-7.11002E-15
 -1      4262 6.16192E-03 4.04317E-05-7.40247E-15
 -1      4263 6.29374E-03 4.53432E-05-7.69765E-15
 -1      4264 6.42424E-03 5.11492E-05-7.99851E-15
 -1      4265 6.55361E-03 5.81720E-05-8.30256E-15
 -1      4266 6.68148E-03 6.63490E-05-8.60833E-15
 -1      4267 6.80822E-03 7.60417E-05-8.91885E-15
 -1      4268 3.37785E-03 1.19591E-04-2.46793E-15
 -1      4269 3.30441E-03 8.22311E-05-2.37447E-15
 -1      4270 3.52214E-03 1.19332E-04-2.66323E-15
 -1      4271 2.29992E-03 9.98915E-06-1.23806E-15
 -1      4272 2.14656E-03 1.04031E-05-1.09576E-15
 -1      4273 2.53976E-03 1.10969E-05-1.47671E-15
 -1      4274 2.68516E-03 1.12234E-05-1.63143E-15
 -1      4275 1.28216E-02 8.61560E-04-1.97493E-14
 -1      4276 3.86800E-03 5.85015E-05-3.16172E-15
 -1      4277 3.79703E-03 9.55756E-05-3.05597E-15
 -1      4278 3.65325E-03 9.59519E-05-2.84863E-15
 -1      4279 7.04862E-03 1.20090E-04-9.56266E-15
 -1      4280 1.98604E-03 2.29911E-05-9.55860E-16
 -1      4281 4.66472E-03 1.14171E-04-4.44591E-15
 -1      4282 4.52330E-03 1.14973E-04-4.20287E-15
 -1      4283 4.45137E-03 7.96867E-05-4.08332E-15
 -1      4284 4.73411E-03 7.88898E-05-4.56856E-15
 -1      4285 1.98438E-03-8.34601E-05-9.45207E-16
 -1      4286 1.26770E-02 8.21677E-04-1.93430E-14
 -1      4287 3.36342E-03 2.15947E-05-2.45255E-15
 -1      4288 2.05811E-03-2.52355E-05-1.01527E-15
 -1      4289 3.50783E-03 2.16213E-05-2.64643E-15
 -1      4290 4.50943E-03 2.19476E-05-4.17797E-15
 -1      4291 4.65086E-03 2.21769E-05-4.41961E-15
 -1      4292 6.93335E-03 8.71802E-05-9.23061E-15
 -1      4293 1.24763E-02 7.67935E-04-1.88001E-14
 -1      4294 3.58039E-03 5.88659E-05-2.74809E-15
 -1      4295 2.05556E-03-4.95681E-05-1.01083E-15
 -1      4296 7.00545E-03 6.45791E-05-9.35837E-15
 -1      4297 2.39437E-03 1.09543E-05-1.32948E-15
 -3
    1PSTEP                         2           1           1          
  100CL  101 1.000000000        4297                     0    1           1
 -4  STRESS      6    1
 -5  SXX         1    4    1    1
 -5  SYY         1    4    2    2
 -5  SZZ         1    4    3    3
 -5  SXY         1    4    1    2
 -5  SYZ         1    4    2    3
 -5  SZX         1    4    3    1
 -1         1 6.06627E+01 3.09691E+00 3.20439E+00 1.17223E+01 1.54720E-13 5.10453E-13
 -1         2-7.85751E-01-2.53003E+01-3.42415E+00-1.03230E-01-6.70020E-13 1.48541E-13
 -1         3 1.99919E+01-8.54164E-03 2.42875E-02-8.53115E-03-3.42661E-13-3.97597E-13
 -1         4 1.99948E+01-5.23329E-03 1.65978E-02 5.35371E-03 1.71175E-13 2.99501E-14
 -1         5 3.27591E+01 6.14093E+00 2.74204E+00 6.22344E+00-9.31893E-15 7.59101E-13
 -1         6 3.57432E+01 1.22604E+01 5.12472E+00-8.64546E+00-4.15223E-14 8.10518E-13
 -1         7 2.08120E+01 6.09780E+00-1.28892E-01-4.72608E+00-6.21725E-15 2.20751E-13
 -1         8 1.96676E+01 5.93370E+00 5.08921E-02-3.27621E+00-6.89032E-15 2.09286E-14
 -1         9 1.91351E+01 5.77133E+00 4.90952E-02-2.52832E+00-1.03060E-14-9.27015E-14
 -1        10 1.88958E+01 5.69226E+00 5.11088E-02-1.95313E+00-6.36817E-15-1.58475E-13
 -1        11 1.87763E+01 5.65197E+00 5.03379E-02-1.45765E+00-6.89813E-15-1.94430E-13
 -1        12 1.87142E+01 5.63078E+00 4.88367E-02-1.01638E+00-4.68982E-15-2.08694E-13
 -1        13 1.86818E+01 5.61969E+00 4.75249E-02-5.96154E-01-2.52250E-15-2.23337E-13
 -1        14 1.86682E+01 5.61503E+00 4.68117E-02-1.91503E-01-2.16209E-15-2.32210E-13
 -1        15 1.86687E+01 5.61518E+00 4.68531E-02 2.08428E-01 6.46943E-16-2.37093E-13
 -1        16 1.86833E+01 5.62018E+00 4.76694E-02 6.13916E-01 2.73761E-15-2.44581E-13
 -1        17 1.87170E+01 5.63157E+00 4.91775E-02 1.03616E+00 1.75142E-15-2.43290E-13
 -1        18 1.87803E+01 5.65313E+00 5.09122E-02 1.48065E+00 3.43042E-15-2.24495E-13
 -1        19 1.89015E+01 5.69390E+00 5.15889E-02 1.98205E+00 7.82620E-15-2.05779E-13
 -1        20 1.91405E+01 5.77391E+00 4.87845E-02 2.56569E+00 9.57914E-15-1.54675E-13
 -1        21 1.96629E+01 5.94827E+00 4.58344E-02 3.31033E+00 1.00961E-14-4.85246E-14
 -1        22 2.11948E+01 6.37957E+00 1.39508E-01 4.52365E+00 2.76168E-15 1.91050E-13
 -1        23 2.30201E+01-1.37871E+00-9.38120E-01-7.11425E-01-2.52229E-14 6.57918E-13
 -1        24 1.93560E+01-9.94854E-02-3.09830E-01 6.31331E-02-1.60982E-15 5.31141E-13
 -1        25 1.86663E+01-5.63295E-02-6.87827E-02 6.06511E-02-1.95200E-15 4.13005E-13
 -1        26 1.84622E+01-2.21052E-02-6.48013E-03 3.28728E-02 6.00431E-15 3.00336E-13
 -1        27 1.84721E+01-1.18370E-02 1.56162E-03 2.24913E-02-1.85673E-14 2.15329E-13
 -1        28 1.85852E+01-6.29938E-03 1.75817E-03 1.61683E-02 7.56318E-15 1.76597E-13
 -1        29 1.87444E+01-3.18368E-03 1.67131E-03 1.19886E-02 1.76786E-14 1.77006E-13
 -1        30 1.89192E+01-1.38524E-03 1.80280E-03 9.00422E-03 2.83790E-15 1.95198E-13
 -1        31 1.90925E+01-3.67399E-04 1.88820E-03 6.76207E-03-1.15023E-14 7.01509E-14
 -1        32 1.92555E+01 1.56379E-04 1.81427E-03 5.03567E-03-6.36837E-15 8.13780E-15
 -1        33 1.94049E+01 3.51512E-04 1.58082E-03 3.70411E-03 5.32161E-15-2.14254E-14
 -1        34 1.95410E+01 3.20605E-04 1.21817E-03 2.69857E-03-2.88199E-14-7.94799E-14
 -1        35 1.96663E+01 1.32016E-04 7.55701E-04 1.97955E-03 2.45657E-14-1.40780E-13
 -1        36 1.97854E+01-1.64283E-04 2.16903E-04 1.52710E-03 6.78704E-15-3.14927E-14
 -1        37 1.99041E+01-5.26058E-04-3.76469E-04 1.33615E-03-7.02724E-14-6.21133E-14
 -1        38 2.00289E+01-9.09930E-04-9.96750E-04 1.41296E-03 9.74210E-15-1.99275E-13
 -1        39 2.01669E+01-1.26276E-03-1.59987E-03 1.77014E-03-2.81466E-16-2.30108E-13
 -1        40 2.03246E+01-1.51295E-03-2.11172E-03 2.41760E-03-7.21396E-15-2.29485E-13
 -1        41 2.05070E+01-1.56240E-03-2.41146E-03 3.34643E-03-2.36784E-15-2.58158E-13
 -1        42 2.07166E+01-1.28174E-03-2.31410E-03 4.50194E-03-5.30699E-14-2.07153E-13
 -1        43 2.09504E+01-5.13968E-04-1.55889E-03 5.74240E-03 4.45390E-15-5.29657E-14
 -1        44 2.11977E+01 9.04439E-04 1.80903E-04 6.78303E-03-1.43164E-15 1.21788E-13
 -1        45 2.14364E+01 3.09222E-03 3.23886E-03 7.13358E-03-7.19346E-14-6.41878E-14
 -1        46 2.16304E+01 6.02910E-03 7.80658E-03 6.05940E-03 9.48156E-15-3.58060E-13
 -1        47 2.17280E+01 9.41883E-03 1.36633E-02 2.63031E-03 1.04401E-14-4.39549E-13
 -1        48 2.16658E+01 1.25439E-02 1.98092E-02-4.04135E-03 6.35088E-14-2.28114E-13
 -1        49 2.13805E+01 1.42132E-02 2.41768E-02-1.42784E-02 9.06632E-15 1.55171E-14
 -1        50 2.08309E+01 1.29589E-02 2.37667E-02-2.70524E-02 1.38067E-14-1.38178E-13
 -1        51 2.00282E+01 7.64034E-03 1.57255E-02-3.92750E-02-3.34468E-14-1.79053E-13
 -1        52 1.90643E+01-1.63637E-03-6.12077E-04-4.59535E-02-5.36953E-14-2.36630E-13
 -1        53 1.81158E+01-1.28094E-02-2.17141E-02-4.20768E-02 2.86490E-15-9.06931E-14
 -1        54 1.74061E+01-2.21703E-02-4.00776E-02-2.58372E-02 6.95151E-14-1.28164E-13
 -1        55 1.71280E+01-2.59900E-02-4.76830E-02-9.84174E-04-9.94083E-14-3.46730E-13
 -1        56 1.73615E+01-2.26119E-02-4.09045E-02 2.42152E-02 3.00530E-14-5.87018E-13
 -1        57 1.80365E+01-1.34796E-02-2.29422E-02 4.12707E-02 1.64984E-14-9.61418E-14
 -1        58 1.89649E+01-2.24496E-03-1.68264E-03 4.59942E-02 8.92433E-14-2.51259E-13
 -1        59 1.99215E+01 7.30904E-03 1.51740E-02 3.98496E-02 2.65212E-14-1.72059E-13
 -1        60 2.07234E+01 1.29804E-02 2.38469E-02 2.77286E-02-5.09163E-15-9.99912E-14
 -1        61 2.12716E+01 1.45303E-02 2.47656E-02 1.46950E-02-4.29246E-15-2.62135E-13
 -1        62 2.15488E+01 1.30280E-02 2.06798E-02 4.00336E-03 2.16884E-15-3.16865E-13
 -1        63 2.15932E+01 9.92831E-03 1.46029E-02-3.18076E-03-6.21948E-14-3.48237E-13
 -1        64 2.14677E+01 6.43383E-03 8.65307E-03-7.11354E-03 8.30033E-15-6.78644E-13
 -1        65 2.12370E+01 3.26565E-03 3.84261E-03-8.65703E-03-1.32931E-14-6.19557E-13
 -1        66 2.09562E+01 7.03896E-04 3.35447E-04-8.71077E-03 6.92705E-14-7.30598E-13
 -1        67 2.06673E+01-1.26337E-03-2.20890E-03-7.92489E-03 3.60353E-14-5.68638E-13
 -1        68 2.04014E+01-2.78071E-03-4.36220E-03-6.57922E-03 6.71820E-14 1.14351E-13
 -1        69 2.01832E+01-3.92608E-03-6.55626E-03-4.46272E-03 6.73902E-15 2.78151E-13
 -1        70 2.00364E+01-3.91833E-03-7.61151E-03-2.39488E-04-1.00950E-13 2.74653E-13
 -1        71 1.99838E+01 9.43893E-04-7.81626E-04 5.43546E-03 1.12485E-14 4.06725E-13
 -1        72 2.10329E+01-4.04774E-01-9.80217E-01-3.11333E-01 9.06913E-15 6.66051E-13
 -1        73 1.93203E+01-6.58800E-02-2.91123E-01-5.37620E-02 1.42130E-14 4.44931E-13
 -1        74 1.86754E+01-2.05109E-02-6.42687E-02-2.02850E-02 1.32327E-15 2.97547E-13
 -1        75 1.84710E+01-9.89243E-03-9.30145E-03-1.53655E-02 5.04002E-15 2.15817E-13
 -1        76 1.84806E+01-5.19288E-03 6.84328E-04-1.22646E-02 1.73126E-14 1.27407E-13
 -1        77 1.85925E+01-2.66334E-03 1.73139E-03-9.95205E-03 2.14393E-15 5.54279E-14
 -1        78 1.87503E+01-1.22526E-03 1.83821E-03-8.15743E-03-1.46615E-14 1.28902E-13
 -1        79 1.89233E+01-4.06506E-04 1.98248E-03-6.65549E-03-4.51388E-15 1.23041E-13
 -1        80 1.90946E+01 2.93978E-05 2.05117E-03-5.33945E-03 5.99884E-15 1.75979E-14
 -1        81 1.92555E+01 2.12285E-04 1.95949E-03-4.16331E-03 1.86662E-14-5.79654E-14
 -1        82 1.94026E+01 2.16590E-04 1.70576E-03-3.10627E-03 1.22618E-14-1.09758E-14
 -1        83 1.95361E+01 8.49051E-05 1.31269E-03-2.15426E-03 2.73927E-15 3.11718E-14
 -1        84 1.96591E+01-1.61083E-04 7.95441E-04-1.29416E-03-1.18182E-14-1.89174E-14
 -1        85 1.97768E+01-5.15264E-04 1.51991E-04-5.13057E-04 2.12376E-15 6.53449E-15
 -1        86 1.98967E+01-9.84585E-04-6.39918E-04 2.00145E-04-3.16096E-15-2.41912E-13
 -1        87 2.00281E+01-1.58777E-03-1.62580E-03 8.51019E-04 5.94679E-15-3.99112E-13
 -1        88 2.01832E+01-2.35398E-03-2.87928E-03 1.43253E-03-3.53784E-14-3.72770E-13
 -1        89 2.03774E+01-3.31956E-03-4.50857E-03 1.91185E-03 6.49054E-14-5.51698E-13
 -1        90 2.06307E+01-4.51895E-03-6.66244E-03 2.20567E-03-8.50760E-14-6.46648E-13
 -1        91 2.09684E+01-5.96243E-03-9.52779E-03 2.13512E-03 3.92335E-14-5.94612E-13
 -1        92 2.14234E+01-7.58671E-03-1.32961E-02 1.34598E-03 3.68585E-15-5.65965E-13
 -1        93 2.20363E+01-9.15459E-03-1.80410E-02-8.21787E-04-2.98611E-14-2.94920E-13
 -1        94 2.28549E+01-1.00723E-02-2.33718E-02-5.51673E-03-5.38260E-14-2.90700E-13
 -1        95 2.39276E+01-9.10725E-03-2.76116E-02-1.45349E-02-1.77939E-14-1.49615E-13
 -1        96 2.52837E+01-4.09940E-03-2.61947E-02-3.01299E-02-4.36500E-15 8.34367E-14
 -1        97 2.68901E+01 7.88909E-03-9.52526E-03-5.35167E-02-2.40840E-14 2.27880E-13
 -1        98 2.85674E+01 2.86676E-02 3.68053E-02-8.01274E-02 5.52048E-14 1.18794E-14
 -1        99 2.98725E+01 5.35709E-02 1.21193E-01-9.01652E-02-2.24976E-14-7.51647E-14
 -1       100 3.00264E+01 6.28569E-02 2.13510E-01-4.03184E-02-6.33157E-14 2.91552E-13
 -1       101 2.81396E+01 2.59502E-02 2.12055E-01 1.13913E-01 1.39827E-14 2.48565E-13
 -1       102 2.40677E+01-4.54817E-02 1.07531E-02 3.13074E-01-5.08354E-15 5.99382E-14
 -1       103 1.94633E+01-9.51005E-02-3.28083E-01 3.76874E-01-2.77296E-15 1.24206E-14
 -1       104 1.73578E+01-7.24156E-02-5.03018E-01 1.36949E-01 2.34118E-14 5.01450E-13
 -1       105 1.94330E+01-9.26474E-03-3.17243E-01-2.07520E-01 5.34941E-14 6.82496E-13
 -1       106 2.40560E+01 3.23608E-02 2.95792E-02-3.52116E-01-1.75862E-14 1.41526E-13
 -1       107 2.81298E+01 5.10356E-02 2.24714E-01-2.60808E-01-5.15720E-14-3.39229E-13
 -1       108 3.00197E+01 4.23297E-02 2.17472E-01-1.03558E-01 3.40899E-14 2.84002E-13
 -1       109 2.98637E+01 2.33104E-02 1.23597E-01 4.96890E-03 8.57829E-14 5.92905E-13
 -1       110 2.85421E+01 6.53356E-03 3.83456E-02 5.00807E-02 8.99569E-14 2.39201E-13
 -1       111 2.68367E+01-3.63987E-03-9.18861E-03 5.69942E-02-8.24760E-14 4.84054E-13
 -1       112 2.51928E+01-8.05897E-03-2.65297E-02 4.86346E-02 2.41124E-14 1.11417E-12
 -1       113 2.37908E+01-9.01880E-03-2.80828E-02 3.70932E-02 5.92638E-14 1.09012E-12
 -1       114 2.26655E+01-8.37838E-03-2.37541E-02 2.70209E-02-1.80914E-13 1.13790E-12
 -1       115 2.17903E+01-7.26577E-03-1.84895E-02 1.95453E-02 3.88275E-14 1.24112E-12
 -1       116 2.11219E+01-6.31062E-03-1.43786E-02 1.45068E-02 7.15140E-15 8.79117E-13
 -1       117 2.06218E+01-5.66924E-03-1.21505E-02 1.11688E-02-2.03440E-15 5.97127E-14
 -1       118 2.02653E+01-5.44056E-03-1.18330E-02 8.73951E-03 3.01801E-14 1.12353E-13
 -1       119 2.00466E+01-4.50767E-03-1.15810E-02 4.59817E-03-1.98479E-14-8.25909E-13
 -1       120 1.99776E+01 4.41532E-03 4.37785E-04-5.64883E-03 3.00891E-13-8.01712E-13
 -1       121 1.99999E+01-1.67427E-02-6.58244E-04-8.91496E-03-1.24225E-12-3.51861E-13
 -1       122 1.99948E+01 5.84975E-02-1.10490E-02 2.53058E-03-1.23876E-12-7.92102E-14
 -1       123 1.99968E+01 2.67104E-01-6.98435E-03 8.90402E-03-3.70919E-13 1.91585E-13
 -1       124 1.99999E+01 5.42024E-01-7.98445E-04 1.08365E-02-1.03342E-13 1.58296E-13
 -1       125 2.00027E+01 8.19379E-01 4.32778E-03 9.66246E-03-7.65933E-13-2.96894E-13
 -1       126 2.00049E+01 1.04421E+00 7.58672E-03 6.96347E-03-1.88353E-12 2.02010E-14
 -1       127 2.00059E+01 1.18913E+00 8.96869E-03 3.32373E-03-1.28197E-12 1.45694E-13
 -1       128 2.00059E+01 1.23373E+00 8.77925E-03-3.58205E-04-1.30741E-12 1.57918E-13
 -1       129 2.00050E+01 1.17915E+00 7.38106E-03-3.52501E-03-5.83576E-13 1.94820E-13
 -1       130 2.00036E+01 1.04031E+00 5.21865E-03-5.84604E-03-1.06399E-12-1.57134E-13
 -1       131 2.00018E+01 8.41288E-01 2.65922E-03-7.23749E-03-2.31693E-12-8.04091E-14
 -1       132 2.00000E+01 6.14524E-01-2.49139E-05-7.55697E-03-2.63969E-12 5.23054E-13
 -1       133 1.99982E+01 3.82628E-01-2.91349E-03-6.93286E-03-1.65887E-12-6.02295E-15
 -1       134 1.99962E+01 1.79172E-01-6.27377E-03-5.51248E-03-1.82488E-12-5.47820E-15
 -1       135 1.99966E+01 3.96803E-02-6.71365E-03-1.55933E-03-1.50016E-12-1.15441E-14
 -1       136 1.99966E+01-9.11060E-03-1.46323E-04 1.06969E-02-7.17659E-13 1.03040E-13
 -1       137-1.53097E+00-2.16879E+01-3.28692E+00-4.19071E+00 2.95292E-13 1.22624E-13
 -1       138-2.15053E+00-1.10367E+01-2.65570E+00-4.18010E+00 1.14986E-12 5.45758E-13
 -1       139 1.85451E+00 1.25139E+00-1.54610E+00 2.04621E+00 4.66571E-13 3.14582E-13
 -1       140 1.49397E+01 9.33830E+00 5.01042E-02 1.18036E+01-8.53206E-14-1.02418E-13
 -1       141 3.77441E+01 9.83876E+00 1.95015E+00 1.86571E+01-3.02758E-13-6.58695E-13
 -1       142 5.94926E+01 4.88783E+00 3.48057E+00 1.55332E+01-1.78635E-13-2.12885E-13
 -1       143 7.13543E+01 1.18724E+00 4.24884E+00 4.01669E+00 4.35416E-15-4.23231E-13
 -1       144 6.76610E+01 2.44390E+00 4.01279E+00-1.00179E+01 2.91709E-13-1.19754E-12
 -1       145 4.91221E+01 7.61995E+00 2.76529E+00-1.81478E+01 3.54050E-13-1.15230E-12
 -1       146 2.55149E+01 1.05050E+01 9.88913E-01-1.60534E+01 4.15390E-13-5.07261E-13
 -1       147 8.42661E+00 7.26839E+00-6.41381E-01-7.97228E+00 2.10609E-13-3.06477E-13
 -1       148-1.64196E-01-2.50095E+00-1.95768E+00 4.72622E-01-2.91434E-13 2.81553E-13
 -1       149-2.25422E+00-1.50415E+01-2.91281E+00 4.89087E+00 2.79221E-14 5.80092E-14
 -1       150-1.14229E+00-2.37206E+01-3.37389E+00 3.29054E+00-4.10671E-13 1.05184E-13
 -1       151-7.32699E-01-2.46780E+01-3.35830E+00-1.13283E+00-9.52377E-13-7.74693E-14
 -1       152-1.59426E+00-1.68718E+01-2.83235E+00-4.04154E+00-9.52849E-13-2.60458E-13
 -1       153-4.72296E-01-3.77703E+00-1.81451E+00-9.80969E-01-3.52274E-13-1.85268E-13
 -1       154 6.39902E+00 7.08378E+00-5.36463E-01 6.89720E+00-1.31783E-13-6.77236E-14
 -1       155 2.24868E+01 1.13526E+01 9.68620E-01 1.56072E+01-1.09524E-13-8.43214E-14
 -1       156 4.38124E+01 8.48585E+00 2.32598E+00 1.82928E+01-5.02098E-14 2.25930E-14
 -1       157 6.64849E+01 8.22439E-01 3.47580E+00-1.54379E+00 8.93834E-14 3.14762E-13
 -1       158 5.79316E+01 4.03697E+00 3.07478E+00-1.39349E+01-3.41255E-14 1.35392E-13
 -1       159 3.94699E+01 9.57443E+00 2.11198E+00-1.88888E+01 4.04121E-14-1.84408E-13
 -1       160 1.94776E+01 1.16007E+01 7.74892E-01-1.48503E+01 1.17295E-13-1.59706E-13
 -1       161 4.78488E+00 5.90189E+00-7.15556E-01-5.48456E+00 7.45071E-13-4.38760E-13
 -1       162-1.18207E+00-6.47289E+00-2.05727E+00 2.21823E+00 6.32827E-13-1.67644E-13
 -1       163-1.41773E+00-1.91239E+01-2.99014E+00 3.78922E+00-2.24265E-13-1.31548E-13
 -1       164 2.10073E+01 3.69358E+00-5.73754E-02-3.61154E+00-1.03688E-13 1.15484E-13
 -1       165 1.99877E+01 4.20693E+00-4.57921E-02-2.81058E+00-1.04709E-13-2.06918E-14
 -1       166 1.95062E+01 4.47777E+00-3.17167E-02-2.19654E+00-9.18319E-14-1.04316E-13
 -1       167 1.92699E+01 4.61464E+00-2.38190E-02-1.67607E+00-7.74331E-14-1.38499E-13
 -1       168 1.91406E+01 4.69763E+00-1.95834E-02-1.22013E+00-6.24449E-14-1.61552E-13
 -1       169 1.90684E+01 4.74865E+00-1.74473E-02-7.92940E-01-4.38650E-14-1.85903E-13
 -1       170 1.90321E+01 4.77666E+00-1.64251E-02-3.87335E-01-1.84498E-14-1.86269E-13
 -1       171 1.90215E+01 4.78526E+00-1.61317E-02 8.23368E-03-7.93718E-15-2.00854E-13
 -1       172 1.90338E+01 4.77538E+00-1.64640E-02 4.04129E-01 1.44525E-14-2.03608E-13
 -1       173 1.90721E+01 4.74564E+00-1.75171E-02 8.10764E-01 2.88264E-14-2.09984E-13
 -1       174 1.91453E+01 4.69290E+00-1.96839E-02 1.23261E+00 4.44302E-14-1.97200E-13
 -1       175 1.92789E+01 4.60541E+00-2.40017E-02 1.69962E+00 8.21233E-14-1.79074E-13
 -1       176 1.95233E+01 4.45931E+00-3.28442E-02 2.22815E+00 1.04691E-13-1.56592E-13
 -1       177 2.00099E+01 4.18339E+00-4.72082E-02 2.84833E+00 1.29148E-13-7.70217E-14
 -1       178 2.11287E+01 3.46325E+00-5.97878E-02 3.53791E+00 1.32233E-13 5.19099E-14
 -1       179 2.24110E+01 1.14347E+00-3.36426E-01 3.01567E+00 9.99209E-14 2.46969E-13
 -1       180 2.19633E+01 8.58326E-01 6.05121E-04-1.95986E+00-7.84511E-14 2.59480E-13
 -1       181 2.04385E+01 1.90084E-01-9.98928E-03-7.65186E-01-7.15834E-14 2.01196E-13
 -1       182 1.96622E+01 1.01652E-01 1.35633E-02-2.86777E-01-7.45628E-14 1.51861E-13
 -1       183 1.93219E+01 4.72711E-02 1.00002E-02-6.88931E-02-6.49918E-14 1.03782E-13
 -1       184 1.91920E+01 2.27041E-02 5.17450E-03 3.87623E-02-2.22830E-14 9.74062E-14
 -1       185 1.91790E+01 9.78311E-03 2.45887E-03 9.19928E-02-8.46681E-15 7.96677E-14
 -1       186 1.92291E+01 2.58985E-03 1.16990E-03 1.15431E-01-3.20368E-15 3.39116E-14
 -1       187 1.93114E+01-1.35711E-03 5.54595E-04 1.22068E-01-5.04358E-14 4.04238E-14
 -1       188 1.94079E+01-3.27267E-03 2.43941E-04 1.19562E-01-3.49223E-14 5.87661E-14
 -1       189 1.95086E+01-3.83487E-03 8.81577E-05 1.12806E-01-4.42291E-14 5.16804E-14
 -1       190 1.96085E+01-3.45988E-03 2.42816E-05 1.05099E-01-6.32091E-14-6.66042E-14
 -1       191 1.97060E+01-2.41977E-03 2.03310E-05 9.87350E-02-3.71056E-14-6.26065E-14
 -1       192 1.98021E+01-9.04161E-04 5.59611E-05 9.53374E-02 2.03659E-14-7.72206E-14
 -1       193 1.98991E+01 9.38440E-04 1.15453E-04 9.60383E-02-2.13792E-14-1.28568E-13
 -1       194 2.00007E+01 2.96493E-03 1.84300E-04 1.01551E-01-8.37391E-14-5.30550E-14
 -1       195 2.01111E+01 5.00032E-03 2.46815E-04 1.12142E-01-2.31709E-14-1.61035E-13
 -1       196 2.02344E+01 6.79536E-03 2.84251E-04 1.27506E-01-1.17921E-14-1.92029E-13
 -1       197 2.03741E+01 7.97882E-03 2.73623E-04 1.46522E-01-4.00372E-14-1.76820E-13
 -1       198 2.05321E+01 8.00975E-03 1.87995E-04 1.66892E-01 4.70953E-14-8.85002E-14
 -1       199 2.07071E+01 6.14502E-03-5.05695E-07 1.84700E-01 4.83504E-14-6.73886E-14
 -1       200 2.08937E+01 1.45611E-03-3.13256E-04 1.93949E-01 8.75142E-14-9.86163E-14
 -1       201 2.10800E+01-7.04361E-03-7.52064E-04 1.86303E-01-9.60129E-14-2.23756E-14
 -1       202 2.12463E+01-2.00679E-02-1.28112E-03 1.51404E-01-9.27965E-14 3.93630E-14
 -1       203 2.13643E+01-3.74239E-02-1.81001E-03 7.83843E-02-2.97357E-14 3.14635E-16
 -1       204 2.13983E+01-5.70632E-02-2.18878E-03-4.07153E-02 1.29937E-14 2.13649E-14
 -1       205 2.13101E+01-7.40872E-02-2.23596E-03-2.05176E-01 3.74100E-14-1.32435E-13
 -1       206 2.10694E+01-8.04455E-02-1.79963E-03-3.98317E-01-5.35015E-14-2.69459E-13
 -1       207 2.06681E+01-6.66128E-02-8.71655E-04-5.81869E-01 4.43643E-14-3.25605E-13
 -1       208 2.01379E+01-2.63558E-02 3.73317E-04-6.98138E-01 5.50325E-15-8.10591E-14
 -1       209 1.95599E+01 3.62962E-02 1.61446E-03-6.86493E-01 4.95400E-14-9.94634E-14
 -1       210 1.90559E+01 1.03218E-01 2.57189E-03-5.13513E-01-9.77655E-14-1.46917E-13
 -1       211 1.87540E+01 1.47730E-01 3.09955E-03-2.01475E-01-1.66916E-13-3.19778E-13
 -1       212 1.87392E+01 1.49367E-01 3.16567E-03 1.68263E-01 3.99381E-14-2.51072E-13
 -1       213 1.90144E+01 1.07209E-01 2.73999E-03 4.87409E-01 2.19260E-13-5.41817E-14
 -1       214 1.94994E+01 4.06758E-02 1.81314E-03 6.70853E-01-1.12354E-13-1.78496E-13
 -1       215 2.00664E+01-2.33361E-02 5.08410E-04 6.91640E-01-6.61683E-14-2.09109E-13
 -1       216 2.05911E+01-6.57770E-02-8.21146E-04 5.80045E-01-6.17206E-14-5.33385E-13
 -1       217 2.09884E+01-8.16637E-02-1.82055E-03 3.95878E-01-1.52287E-15-3.62657E-13
 -1       218 2.12227E+01-7.66225E-02-2.30188E-03 1.97967E-01-4.60812E-14-3.11078E-13
 -1       219 2.12996E+01-6.00914E-02-2.27076E-03 2.65523E-02-8.56910E-14-3.40912E-13
 -1       220 2.12485E+01-4.02759E-02-1.87407E-03-9.98101E-02-1.40213E-13-3.96515E-13
 -1       221 2.11084E+01-2.21908E-02-1.29263E-03-1.78852E-01 1.20510E-13-2.85435E-13
 -1       222 2.09168E+01-7.84837E-03-6.76659E-04-2.17074E-01 1.39446E-13-6.82255E-14
 -1       223 2.07055E+01 2.76408E-03-1.25654E-04-2.23620E-01 2.35542E-13 8.99960E-14
 -1       224 2.04992E+01 1.07177E-02 2.90608E-04-2.06515E-01 2.94985E-13 2.39621E-13
 -1       225 2.03160E+01 1.74565E-02 5.01497E-04-1.70987E-01 2.50776E-13 8.64963E-14
 -1       226 2.01695E+01 2.42516E-02 5.92212E-04-1.19647E-01 1.73673E-13 3.72947E-13
 -1       227 2.00643E+01 2.98199E-02 5.12575E-04-5.60787E-02 5.09903E-15 6.08429E-13
 -1       228 2.09544E+01 2.77044E-01-5.13379E-02 1.16584E+00 1.12233E-13 2.07021E-13
 -1       229 1.98588E+01 1.26837E-01 8.30961E-03 4.44140E-01 6.96301E-14 1.26043E-13
 -1       230 1.93516E+01 5.80574E-02 1.27399E-02 1.51089E-01 6.55630E-14 4.86408E-14
 -1       231 1.91412E+01 2.77496E-02 7.63922E-03 1.17338E-02 5.99696E-14 1.17415E-14
 -1       232 1.90910E+01 1.31639E-02 3.84017E-03-5.76569E-02 4.30016E-15 2.73692E-14
 -1       233 1.91271E+01 5.31411E-03 1.93260E-03-9.06151E-02-2.35341E-14 1.79923E-14
 -1       234 1.92076E+01 9.23554E-04 1.04135E-03-1.03320E-01 4.47233E-14-2.59887E-14
 -1       235 1.93086E+01-1.44748E-03 5.96393E-04-1.04678E-01 3.69431E-14-4.87178E-14
 -1       236 1.94163E+01-2.52017E-03 3.54151E-04-1.00132E-01 2.46152E-14-1.02455E-13
 -1       237 1.95236E+01-2.70072E-03 2.21111E-04-9.32800E-02-1.23570E-14-4.90595E-14
 -1       238 1.96277E+01-2.22929E-03 1.58893E-04-8.66546E-02-8.13013E-15 2.11235E-14
 -1       239 1.97291E+01-1.24029E-03 1.48505E-04-8.21664E-02 3.76281E-14 4.29565E-14
 -1       240 1.98307E+01 2.09909E-04 1.79205E-04-8.14027E-02 4.88004E-14-8.39058E-14
 -1       241 1.99373E+01 2.13073E-03 2.44809E-04-8.58559E-02 8.05828E-14-1.49856E-13
 -1       242 2.00560E+01 4.59409E-03 3.41733E-04-9.71218E-02 5.35627E-14-6.16112E-14
 -1       243 2.01959E+01 7.73643E-03 4.66982E-04-1.17089E-01-1.63349E-14-1.38165E-13
 -1       244 2.03687E+01 1.17623E-02 6.14954E-04-1.48127E-01 1.38324E-13-1.83650E-13
 -1       245 2.05890E+01 1.69416E-02 7.71556E-04-1.93266E-01-1.74381E-14-2.61934E-13
 -1       246 2.08750E+01 2.35825E-02 9.03389E-04-2.56308E-01-6.01353E-15-3.08312E-13
 -1       247 2.12489E+01 3.19366E-02 9.39713E-04-3.41726E-01-1.75403E-13-2.75216E-13
 -1       248 2.17366E+01 4.19454E-02 7.49005E-04-4.54020E-01-1.48480E-13-1.11216E-13
 -1       249 2.23658E+01 5.26424E-02 1.29151E-04-5.95802E-01 1.65031E-14-2.66168E-14
 -1       250 2.31607E+01 6.08922E-02-1.12455E-03-7.63246E-01-3.05183E-14-1.30413E-13
 -1       251 2.41300E+01 5.90750E-02-2.93232E-03-9.36700E-01-1.34459E-13-1.30648E-13
 -1       252 2.52444E+01 3.17799E-02-4.29228E-03-1.06418E+00-4.99949E-14 2.02191E-14
 -1       253 2.64014E+01-4.56802E-02-2.47746E-03-1.03946E+00 2.92401E-14 1.64214E-13
 -1       254 2.73838E+01-1.96874E-01 5.87480E-03-6.93375E-01-4.42441E-15 3.76047E-13
 -1       255 2.78440E+01-4.01928E-01 1.87165E-02 1.45270E-01-2.15402E-13 2.50468E-13
 -1       256 2.73895E+01-5.19864E-01 1.64063E-02 1.42820E+00 4.55044E-14 2.32984E-13
 -1       257 2.58756E+01-2.45122E-01-1.67434E-02 2.51634E+00 3.23188E-14 2.39669E-13
 -1       258 2.39309E+01 3.99389E-01-8.55654E-02 2.33450E+00 2.55490E-14 3.74761E-13
 -1       259 2.28904E+01 9.06826E-01-1.24372E-01 4.13529E-01-1.14075E-13 3.02210E-13
 -1       260 2.36845E+01 6.53492E-01-8.70335E-02-1.84110E+00 1.18405E-13 3.56517E-13
 -1       261 2.56488E+01-5.96366E-02-1.29099E-02-2.64965E+00 1.04611E-13 2.32914E-13
 -1       262 2.72863E+01-4.47130E-01 2.84019E-02-1.86131E+00 1.63680E-13 2.77538E-13
 -1       263 2.78951E+01-4.49336E-01 2.26915E-02-5.39935E-01-2.47328E-13 1.59752E-13
 -1       264 2.75252E+01-2.68700E-01 4.64780E-03 4.76461E-01-1.09125E-13 2.69400E-13
 -1       265 2.65723E+01-9.82139E-02-5.57705E-03 9.79156E-01 1.58684E-13 4.07676E-13
 -1       266 2.53999E+01 3.04276E-03-7.08246E-03 1.09718E+00-2.96235E-13 6.46115E-13
 -1       267 2.42409E+01 4.66807E-02-4.64104E-03 1.01227E+00-3.15648E-14 7.10155E-13
 -1       268 2.32109E+01 5.73475E-02-1.84510E-03 8.51821E-01-4.87626E-14 7.70591E-13
 -1       269 2.23493E+01 5.33185E-02 7.54314E-05 6.82865E-01-2.67084E-13 8.18308E-13
 -1       270 2.16545E+01 4.47283E-02 1.08105E-03 5.32779E-01 1.88784E-13 6.98980E-13
 -1       271 2.11084E+01 3.64098E-02 1.42800E-03 4.07761E-01 4.21260E-13 4.55390E-13
 -1       272 2.06898E+01 3.10918E-02 1.36804E-03 3.03887E-01 3.07675E-13 2.30607E-13
 -1       273 2.03817E+01 2.86636E-02 8.98341E-04 2.13112E-01 1.42481E-13-1.71813E-13
 -1       274 2.01722E+01 3.11764E-02 6.51840E-04 1.24607E-01 5.02671E-13-3.78371E-13
 -1       275 2.00497E+01 2.87153E-02 1.59413E-03 3.71753E-02-1.16432E-13-9.60487E-13
 -1       276 2.00426E+01 9.95719E-02 8.73669E-04 8.70607E-02-8.63261E-14 3.31950E-13
 -1       277 2.00294E+01 2.43289E-01 1.36544E-04 1.68768E-01 1.60567E-14 1.25640E-13
 -1       278 2.00094E+01 4.28613E-01-5.43660E-05 2.13807E-01-3.42865E-13 3.06815E-13
 -1       279 1.99913E+01 6.25200E-01-2.76092E-04 2.13448E-01-2.25802E-13-2.25735E-13
 -1       280 1.99780E+01 7.97550E-01-6.60417E-04 1.75486E-01-4.08553E-13-8.15899E-13
 -1       281 1.99702E+01 9.25296E-01-9.64303E-04 1.10736E-01-4.99547E-13 2.03714E-13
 -1       282 1.99680E+01 9.88034E-01-1.12028E-03 3.34105E-02-3.98931E-13 1.50037E-13
 -1       283 1.99708E+01 9.80718E-01-1.09789E-03-4.32068E-02-2.44419E-13 3.75947E-13
 -1       284 1.99771E+01 9.08757E-01-9.19055E-04-1.08496E-01-4.09702E-13-3.63041E-13
 -1       285 1.99855E+01 7.85588E-01-6.24149E-04-1.55365E-01-5.18527E-13-5.08299E-13
 -1       286 1.99946E+01 6.32401E-01-2.57830E-04-1.79864E-01-6.51948E-13-1.65812E-13
 -1       287 2.00040E+01 4.63852E-01 7.01783E-05-1.81580E-01-7.64951E-13 5.71187E-13
 -1       288 2.00132E+01 3.02590E-01 2.79330E-04-1.60210E-01-5.89353E-13 1.23470E-13
 -1       289 2.00230E+01 1.67115E-01 6.59679E-04-1.16084E-01-5.82761E-13 1.58687E-13
 -1       290 2.00456E+01 9.21162E-02 7.85249E-04-9.59278E-02-2.06639E-13 5.19714E-13
 -1       291-9.64446E-01-1.03464E+01-8.51662E-01 6.63297E-01-2.79429E-14 5.12340E-13
 -1       292 2.01080E+00-9.53859E+00-9.08000E-01 2.60799E+00 2.61513E-13 5.15393E-13
 -1       293 8.93098E+00-6.25429E+00-6.05673E-01 5.09989E+00 3.83915E-13-3.58290E-13
 -1       294 1.93031E+01-2.95575E+00-2.08720E-01 6.60269E+00 3.19189E-14-4.25132E-13
 -1       295 3.12318E+01 1.58199E-01 1.78660E-01 5.52025E+00-4.32987E-14-2.12635E-13
 -1       296 4.16900E+01 4.59324E+00 8.10872E-01 5.40607E+00-2.98004E-13-1.45772E-13
 -1       297 4.77692E+01 6.56396E+00 1.10944E+00 2.36381E+00 4.33542E-14-4.83197E-13
 -1       298 5.01635E+01 6.82487E+00 1.28657E+00-7.80986E-01 3.15775E-13-4.68042E-13
 -1       299 4.46124E+01 5.69764E+00 8.57172E-01-3.16013E+00 1.50255E-13-5.39319E-13
 -1       300 3.61166E+01 2.09342E+00 3.69805E-01-4.59205E+00 7.25531E-14-6.97470E-13
 -1       301 2.51297E+01-1.96374E-01 2.80204E-02-7.11076E+00 8.26561E-14-3.78586E-13
 -1       302 1.45962E+01-3.67226E+00-4.14204E-01-6.10795E+00 1.88738E-15-3.88412E-13
 -1       303 6.72980E+00-7.26541E+00-6.37980E-01-4.61898E+00 2.02616E-14-2.24439E-14
 -1       304 6.46878E-01-1.03258E+01-9.55140E-01-1.88802E+00-1.71807E-13-1.47229E-13
 -1       305-1.32324E+00-1.09906E+01-9.46005E-01 1.12890E-01-2.47715E-13-1.66284E-13
 -1       306-1.66490E-01-1.05506E+01-9.40304E-01 2.17957E+00-3.18273E-13-2.84772E-14
 -1       307 4.97386E+00-7.13763E+00-5.91172E-01 4.92055E+00-5.29771E-13-7.81666E-15
 -1       308 1.25191E+01-3.49182E+00-3.28550E-01 6.61169E+00-2.89352E-13-5.94386E-14
 -1       309 2.23524E+01 4.37672E-01 5.81424E-02 7.77546E+00-1.10773E-13-6.70020E-14
 -1       310 3.29327E+01 2.59185E+00 2.79513E-01 5.52482E+00-6.58362E-14-2.04975E-13
 -1       311 4.10346E+01 5.89069E+00 6.61066E-01 4.56316E+00-2.24584E-13-2.55185E-13
 -1       312 4.61716E+01 6.89728E+00 9.33848E-01 1.59510E+00-1.34892E-14-2.14752E-13
 -1       313 4.64927E+01 6.58284E+00 1.01538E+00-2.70124E+00 6.06182E-14-9.91845E-14
 -1       314 4.06766E+01 5.67230E+00 8.08582E-01-6.24292E+00 2.45054E-13-4.39648E-14
 -1       315 3.13296E+01 3.62424E+00 4.46085E-01-8.01552E+00 1.09537E-13-2.03837E-13
 -1       316 2.07876E+01-3.95979E-02 2.28940E-03-7.66523E+00 3.90882E-13-9.35918E-14
 -1       317 1.04741E+01-4.05490E+00-4.30961E-01-6.11744E+00 4.50029E-13-2.22433E-13
 -1       318 3.47499E+00-8.03973E+00-7.06216E-01-4.18784E+00 6.35048E-14-3.84991E-13
 -1       319-6.71964E-01-1.05427E+01-8.96597E-01-1.81563E+00 3.82389E-13-2.39711E-13
 -1       320 2.01440E+01 3.01486E+00-1.77839E-02-2.11161E+00-1.11184E-13-4.36092E-14
 -1       321 2.07500E+01 2.20983E+00-1.78429E-02-2.36484E+00-1.06497E-13 4.76268E-14
 -1       322 1.95856E+01 3.69245E+00-1.56176E-02-1.31953E+00-8.57119E-14-9.80522E-14
 -1       323 1.94651E+01 3.84892E+00-1.37011E-02-9.24598E-01-5.76145E-14-1.28292E-13
 -1       324 1.93973E+01 3.94019E+00-1.27133E-02-5.44343E-01-2.66274E-14-1.30829E-13
 -1       325 1.93673E+01 3.98168E+00-1.23008E-02-1.73420E-01-3.99135E-15-1.40814E-13
 -1       326 1.93686E+01 3.98007E+00-1.23196E-02 1.94505E-01 1.38365E-14-1.61194E-13
 -1       327 1.94014E+01 3.93503E+00-1.27662E-02 5.65744E-01 2.80020E-14-1.72679E-13
 -1       328 1.94711E+01 3.84147E+00-1.37757E-02 9.39951E-01 4.91613E-14-1.64285E-13
 -1       329 1.95964E+01 3.67889E+00-1.56613E-02 1.33433E+00 8.67131E-14-1.32256E-13
 -1       330 1.98096E+01 3.40997E+00-1.88324E-02 1.73995E+00 1.14064E-13-1.26245E-13
 -1       331 2.01772E+01 2.95510E+00-2.29341E-02 2.12867E+00 1.38742E-13-8.39294E-14
 -1       332 2.07438E+01 2.12934E+00-3.04644E-02 2.32361E+00 1.47015E-13-7.97973E-16
 -1       333 2.10884E+01 1.18771E+00-2.49231E-02 1.92324E+00 1.42790E-13 7.54414E-14
 -1       334 2.03843E+01 4.89282E-01 8.33569E-03 9.28708E-01 1.03486E-13 3.17021E-14
 -1       335 2.04527E+01 6.75203E-01 1.25659E-02-1.02709E+00-9.86758E-14 5.71653E-14
 -1       336 2.00305E+01 3.37555E-01 7.16730E-03-4.59148E-01-1.11433E-13 5.49610E-14
 -1       337 1.97768E+01 1.77320E-01 4.18240E-03-1.49422E-01-7.15391E-14 1.71074E-14
 -1       338 1.96422E+01 9.16072E-02 1.94419E-03 2.27244E-02-3.64093E-14-2.49681E-14
 -1       339 1.95883E+01 4.31415E-02 8.31679E-04 1.15587E-01-2.64215E-14-1.58311E-14
 -1       340 1.95858E+01 1.51712E-02 3.15245E-04 1.61491E-01 1.73888E-14 2.45969E-14
 -1       341 1.96143E+01-4.25113E-04 6.79535E-05 1.79700E-01-2.19763E-14 5.89397E-14
 -1       342 1.96607E+01-8.02431E-03-4.86967E-05 1.82423E-01-5.34105E-14 1.04319E-14
 -1       343 1.97169E+01-1.02122E-02-9.04488E-05 1.77785E-01-1.14693E-13-2.54572E-15
 -1       344 1.97783E+01-8.62795E-03-8.36184E-05 1.71381E-01-3.00581E-14 1.39525E-14
 -1       345 1.98432E+01-4.37601E-03-4.37680E-05 1.67138E-01-2.25604E-16-3.36966E-15
 -1       346 1.99114E+01 1.73594E-03 1.79105E-05 1.67816E-01-5.10478E-14 1.49404E-14
 -1       347 1.99841E+01 9.02580E-03 9.18100E-05 1.75266E-01-4.45488E-14 4.36368E-16
 -1       348 2.00635E+01 1.67839E-02 1.67933E-04 1.90514E-01-9.37537E-14-9.75208E-16
 -1       349 2.01520E+01 2.41145E-02 2.34053E-04 2.13666E-01-4.47472E-14-1.70638E-14
 -1       350 2.02522E+01 2.97649E-02 2.73982E-04 2.43646E-01-3.15711E-14-8.65896E-14
 -1       351 2.03662E+01 3.19503E-02 2.66234E-04 2.77758E-01 4.04538E-14-5.06962E-14
 -1       352 2.04951E+01 2.82147E-02 1.83827E-04 3.11088E-01 2.21399E-14-1.12952E-13
 -1       353 2.06382E+01 1.54142E-02-3.46027E-06 3.35835E-01-1.96038E-14-1.19466E-13
 -1       354 2.07920E+01-1.00099E-02-3.22382E-04 3.40771E-01 4.49058E-14-2.16253E-13
 -1       355 2.09496E+01-5.12015E-02-7.83237E-04 3.11216E-01-3.52992E-14-1.48594E-13
 -1       356 2.10991E+01-1.09162E-01-1.35929E-03 2.30241E-01-4.30891E-14 1.10577E-14
 -1       357 2.12226E+01-1.79892E-01-1.96404E-03 8.20872E-02 8.82919E-14 5.35263E-14
 -1       358 2.12959E+01-2.50760E-01-2.43080E-03-1.41129E-01-4.82292E-14-9.92047E-14
 -1       359 2.12905E+01-2.97831E-01-2.53252E-03-4.29210E-01-1.77588E-13-6.79597E-14
 -1       360 2.11788E+01-2.87653E-01-2.01986E-03-7.42414E-01-4.64016E-14 4.03136E-14
 -1       361 2.09472E+01-1.88326E-01-8.53791E-04-1.00514E+00 1.19426E-13-1.03954E-13
 -1       362 2.06137E+01 8.15380E-03 7.97351E-04-1.11619E+00 1.35637E-14-1.77493E-13
 -1       363 2.02443E+01 2.61768E-01 2.47255E-03-9.86401E-01 1.26190E-15-1.74235E-13
 -1       364 1.99457E+01 4.83954E-01 3.79968E-03-5.95125E-01-2.23986E-13-7.31383E-14
 -1       365 1.98231E+01 5.77447E-01 4.43957E-03-2.81390E-02-1.14219E-13-5.68795E-14
 -1       366 1.99235E+01 4.96800E-01 4.23974E-03 5.45293E-01 2.00918E-13-1.46051E-13
 -1       367 2.02064E+01 2.80018E-01 3.11564E-03 9.51860E-01 4.63708E-14-2.12794E-13
 -1       368 2.05677E+01 2.33398E-02 1.19383E-03 1.09809E+00-1.14442E-13-1.05791E-13
 -1       369 2.08987E+01-1.81295E-01-7.74371E-04 9.98176E-01-2.74877E-13-4.72148E-14
 -1       370 2.11294E+01-2.89633E-01-2.17220E-03 7.38173E-01 1.61624E-13 1.64416E-13
 -1       371 2.12382E+01-3.06392E-01-2.78705E-03 4.19923E-01 5.92355E-14 3.49299E-14
 -1       372 2.12371E+01-2.62420E-01-2.70392E-03 1.22064E-01-4.22275E-15 1.96827E-13
 -1       373 2.11533E+01-1.91649E-01-2.19574E-03-1.12422E-01-1.71742E-13 3.26331E-14
 -1       374 2.10163E+01-1.18677E-01-1.51741E-03-2.70693E-01-4.16842E-14-2.52842E-14
 -1       375 2.08513E+01-5.63471E-02-8.47445E-04-3.58353E-01 3.43237E-13 7.46524E-14
 -1       376 2.06779E+01-8.30747E-03-2.73328E-04-3.88811E-01 2.95748E-13 1.29242E-13
 -1       377 2.05100E+01 2.72668E-02 1.79301E-04-3.76171E-01 3.56424E-13 2.23154E-13
 -1       378 2.03573E+01 5.44636E-02 5.11323E-04-3.31744E-01 1.26499E-13 4.00381E-13
 -1       379 2.02257E+01 7.74908E-02 8.47034E-04-2.63237E-01 2.86685E-13 1.62724E-13
 -1       380 2.01279E+01 8.92570E-02 8.87070E-04-1.82737E-01 2.51472E-13 3.69799E-13
 -1       381 1.98823E+01 2.28502E-01 1.07956E-02 4.00013E-01 1.01132E-13 2.43876E-14
 -1       382 1.95936E+01 1.15499E-01 6.17698E-03 1.21130E-01 6.00583E-14 9.59259E-15
 -1       383 1.94592E+01 5.80401E-02 2.81461E-03-2.82294E-02 7.66260E-15-1.55590E-14
 -1       384 1.94203E+01 2.65066E-02 1.19680E-03-1.06102E-01-4.80914E-15-7.03957E-14
 -1       385 1.94382E+01 8.60057E-03 4.82224E-04-1.43007E-01 3.83555E-14-9.69408E-14
 -1       386 1.94881E+01-1.33324E-03 1.52054E-04-1.56218E-01 6.89836E-14-6.33820E-14
 -1       387 1.95548E+01-6.17162E-03-4.49611E-06-1.56340E-01 4.98759E-14-5.94867E-14
 -1       388 1.96294E+01-7.53627E-03-6.58997E-05-1.50372E-01-4.88733E-14-5.04893E-14
 -1       389 1.97074E+01-6.38519E-03-6.31831E-05-1.43205E-01-3.06605E-14-8.44708E-14
 -1       390 1.97875E+01-3.26567E-03-1.11175E-05-1.38481E-01 6.51834E-14-1.09257E-13
 -1       391 1.98708E+01 1.56710E-03 8.33325E-05-1.39151E-01 1.13605E-13-1.02643E-13
 -1       392 1.99601E+01 8.09377E-03 2.18640E-04-1.47883E-01 4.88023E-14-6.55796E-14
 -1       393 2.00603E+01 1.65080E-02 3.97802E-04-1.67393E-01-1.23099E-14-9.73914E-15
 -1       394 2.01776E+01 2.72106E-02 6.27541E-04-2.00748E-01 1.01817E-13-1.27718E-14
 -1       395 2.03203E+01 4.08059E-02 9.16826E-04-2.51636E-01 1.55317E-13-1.46977E-13
 -1       396 2.04983E+01 5.80693E-02 1.27329E-03-3.24596E-01 1.03041E-13-1.81916E-13
 -1       397 2.07234E+01 7.98285E-02 1.69490E-03-4.25114E-01-7.13930E-14-2.33917E-13
 -1       398 2.10094E+01 1.06622E-01 2.15245E-03-5.59381E-01-1.22828E-13-1.51783E-13
 -1       399 2.13717E+01 1.37873E-01 2.55714E-03-7.33263E-01-2.09374E-13-1.62657E-13
 -1       400 2.18261E+01 1.70069E-01 2.71197E-03-9.49584E-01-4.75141E-15-1.29334E-13
 -1       401 2.23871E+01 1.93170E-01 2.26733E-03-1.20214E+00 8.50773E-15-3.11504E-14
 -1       402 2.30648E+01 1.84413E-01 7.55034E-04-1.46406E+00-1.98535E-13-8.29963E-14
 -1       403 2.38616E+01 1.00237E-01-2.14318E-03-1.66823E+00-9.06385E-14 8.79505E-16
 -1       404 2.47674E+01-1.26477E-01-6.01102E-03-1.68145E+00-1.15450E-13 8.76148E-14
 -1       405 2.57496E+01-5.57930E-01-8.81017E-03-1.29009E+00-4.27609E-14 4.54530E-13
 -1       406 2.67167E+01-1.14556E+00-1.02893E-02-2.56281E-01-8.69175E-14 3.33980E-13
 -1       407 2.74458E+01-1.52329E+00-1.59633E-02 1.44932E+00-7.19954E-14 3.28845E-13
 -1       408 2.75572E+01-9.06631E-01-3.51038E-02 3.21927E+00-1.62075E-14 4.94656E-13
 -1       409 2.66734E+01 1.01217E+00-1.24559E-01 3.33978E+00 1.36564E-13 3.86456E-13
 -1       410 2.59530E+01 2.62886E+00-1.21286E-01 8.80229E-01-8.45851E-15 9.09038E-14
 -1       411 2.62751E+01 2.04284E+00-1.08696E-01-2.31168E+00-4.79200E-14 2.13315E-13
 -1       412 2.72287E+01 3.34668E-02-9.09925E-02-3.61777E+00 1.09666E-13 2.72648E-13
 -1       413 2.77457E+01-1.35459E+00-2.72191E-02-2.52154E+00 1.87542E-13 3.39552E-13
 -1       414 2.72321E+01-1.44734E+00-2.67065E-02-5.98607E-01-1.41305E-13 2.70219E-13
 -1       415 2.62499E+01-9.00074E-01-2.34025E-02 8.55840E-01-2.22619E-13 1.11501E-13
 -1       416 2.51915E+01-3.52344E-01-1.50854E-02 1.58285E+00 4.01430E-14 2.28399E-13
 -1       417 2.42033E+01-1.12087E-02-6.49976E-03 1.76239E+00-3.31355E-13 2.61054E-13
 -1       418 2.33287E+01 1.44357E-01-2.67673E-04 1.64304E+00-2.82977E-13 2.11174E-13
 -1       419 2.25751E+01 1.88449E-01 2.89600E-03 1.40306E+00-2.36261E-13 4.82643E-13
 -1       420 2.19404E+01 1.80137E-01 3.96923E-03 1.14130E+00-4.54782E-14 5.77565E-13
 -1       421 2.14172E+01 1.53798E-01 3.93951E-03 9.01928E-01 1.73949E-13 1.54051E-13
 -1       422 2.09943E+01 1.26596E-01 3.45816E-03 6.97699E-01 5.99101E-13 1.60215E-13
 -1       423 2.06601E+01 1.06479E-01 2.95654E-03 5.25742E-01 4.92943E-13-1.38340E-13
 -1       424 2.03974E+01 9.67543E-02 1.47153E-03 3.73382E-01 2.69975E-13-1.54216E-13
 -1       425 2.02052E+01 9.72986E-02 1.56570E-03 2.36727E-01 2.91500E-13-1.08147E-14
 -1       426 2.01142E+01 1.03258E-01 1.04400E-03 1.60763E-01 3.12086E-13 3.74643E-13
 -1       427 1.99955E+01 5.19231E-01 1.16636E-04 3.76687E-01-1.69794E-13 8.73734E-14
 -1       428 2.00663E+01 3.49261E-01 7.84909E-04 3.52132E-01 3.44961E-14 6.58203E-14
 -1       429 2.01043E+01 2.17453E-01 1.15697E-03 2.69261E-01 2.00631E-13 1.95778E-13
 -1       430 1.99366E+01 6.69336E-01-4.91236E-04 3.35535E-01-1.79687E-13-7.22569E-13
 -1       431 1.98953E+01 7.86048E-01-8.98327E-04 2.42006E-01 1.93825E-13-2.38921E-13
 -1       432 1.98760E+01 8.52266E-01-1.11585E-03 1.17150E-01 1.55921E-13 2.69840E-13
 -1       433 1.98777E+01 8.62513E-01-1.14632E-03-1.62563E-02-1.27241E-13 2.56801E-13
 -1       434 1.98961E+01 8.19597E-01-1.01422E-03-1.38099E-01-2.24660E-13 8.36023E-15
 -1       435 1.99256E+01 7.32982E-01-7.56258E-04-2.33615E-01-1.93071E-13-4.62099E-13
 -1       436 1.99601E+01 6.18335E-01-4.09031E-04-2.93513E-01-3.23518E-13-5.55915E-13
 -1       437 1.99968E+01 4.85990E-01-5.39086E-05-3.16572E-01-1.84352E-13 5.25750E-13
 -1       438 2.00322E+01 3.51912E-01 2.99100E-04-3.01907E-01 9.78628E-17 4.52872E-13
 -1       439 2.00662E+01 2.26207E-01 7.80801E-04-2.53686E-01-6.15782E-14-1.84110E-14
 -1       440 9.75427E+00-5.84235E+00-6.19290E-02 6.35255E+00-1.39805E-13-3.68802E-13
 -1       441 1.07735E+00-4.42272E+00-5.51902E-02-9.35278E-01 4.62659E-13-1.41054E-13
 -1       442 3.77059E+00-5.03226E+00-6.17188E-02 4.02767E+00 5.93969E-15 5.12687E-13
 -1       443 1.87142E+01-6.18928E+00-5.62339E-02 6.39463E+00 1.44051E-14-8.11348E-13
 -1       444 2.78836E+01-4.87420E+00-4.57678E-02 3.53240E+00-1.00767E-13-8.55427E-14
 -1       445 1.98038E+01 3.43122E+00-1.76753E-02-1.73932E+00-1.03163E-13-8.71655E-14
 -1       446 3.61162E+01 4.41667E+00-3.07786E-02-1.55981E+00-6.80012E-16-3.85816E-13
 -1       447 3.89651E+01 7.67533E+00 1.79450E-01-2.53766E-01 9.44245E-14-4.44849E-13
 -1       448 3.81310E+01 6.86311E+00 1.26782E-01 8.23516E-01 1.45273E-13-1.09024E-13
 -1       449 3.55676E+01 2.51966E+00-2.52453E-03 1.26726E+00 5.33046E-14-1.74305E-14
 -1       450 3.09903E+01-3.28882E+00-6.04648E-02-1.68826E+00-1.05568E-13-6.57724E-13
 -1       451 2.54618E+01-5.38218E+00-2.99626E-03-4.72131E+00-1.98452E-15-3.34011E-13
 -1       452 1.59720E+01-6.18605E+00-7.13600E-02-6.63527E+00 2.70894E-14-3.31226E-13
 -1       453 6.88756E+00-5.60177E+00-8.86948E-02-5.57400E+00 8.63754E-14-2.30455E-13
 -1       454 1.94326E+00-5.11504E+00-1.03510E-01-2.46792E+00 2.60694E-14-3.05644E-13
 -1       455 1.44570E+00-4.34852E+00-4.26781E-02 2.16501E+00-6.88963E-14-1.26954E-13
 -1       456 4.84316E+00-4.97725E+00-5.78212E-02 5.62992E+00-2.07806E-13-1.93026E-13
 -1       457 1.34765E+01-5.41906E+00-5.68674E-03 7.59659E+00-3.17829E-13 1.65869E-13
 -1       458 2.16339E+01-4.57941E+00-3.28509E-03 6.54591E+00-2.64927E-13 1.14811E-13
 -1       459 2.83684E+01-2.28532E+00-9.75850E-03 3.74376E+00-6.71338E-14-1.80078E-13
 -1       460 3.31208E+01 3.23453E+00-3.82922E-02 4.87820E-01-4.77465E-14 4.72955E-14
 -1       461 3.49817E+01 7.12570E+00 2.67654E-03-2.22229E-01-5.85365E-14-2.46511E-13
 -1       462 3.65707E+01 8.33293E+00 7.67911E-02-7.25236E-03 4.11615E-14-1.88641E-13
 -1       463 3.55348E+01 6.36755E+00 4.84279E-02-1.58719E-01 8.98448E-14-1.57499E-13
 -1       464 3.28190E+01 2.00696E+00 1.91978E-03-1.23256E+00 1.27370E-13-9.00113E-14
 -1       465 2.81467E+01-1.78677E+00 3.04182E-02-4.52600E+00 4.39287E-13-1.18627E-13
 -1       466 1.99112E+01-4.89978E+00-3.25060E-02-6.88446E+00 3.98889E-13-3.25157E-13
 -1       467 1.22704E+01-5.41631E+00 2.00247E-02-7.59263E+00 1.18378E-13-2.30919E-13
 -1       468 4.27156E+00-4.71493E+00-2.64250E-02-5.27368E+00 3.54314E-13-2.41668E-13
 -1       469 3.41932E+01-5.54496E-02-6.56874E-03-5.41664E-01 6.31196E-14-1.82493E-13
 -1       470 3.00745E+01-6.86866E-01-7.94854E-02 3.53852E-01 9.40636E-14 1.17545E-14
 -1       471 2.03690E+01 8.32087E-01 4.02738E-03 9.73380E-01 8.25889E-14-1.59895E-14
 -1       472 1.97385E+01 3.10529E+00-5.33763E-03-6.34181E-01-3.60068E-14-1.12994E-13
 -1       473 1.98338E+01 2.93119E+00-5.73141E-03-9.50236E-01-6.40629E-14-9.21342E-14
 -1       474 1.96720E+01 3.22821E+00-5.02757E-03 8.77418E-03 1.11770E-14-1.33039E-13
 -1       475 1.96902E+01 3.19508E+00-5.10776E-03 3.30548E-01 1.50818E-14-1.57444E-13
 -1       476 1.97431E+01 3.09801E+00-5.43618E-03 6.46064E-01 2.58948E-14-1.61459E-13
 -1       477 1.98404E+01 2.91969E+00-5.98012E-03 9.61966E-01 8.43882E-14-1.18193E-13
 -1       478 1.99939E+01 2.63426E+00-6.53089E-03 1.25772E+00 8.94913E-14-1.23594E-13
 -1       479 2.02331E+01 2.18804E+00-5.69095E-03 1.50280E+00 9.97294E-14-9.46714E-14
 -1       480 2.01076E+01 4.53934E-01 5.06740E-03 4.65219E-01 9.30738E-14 5.93796E-15
 -1       481 2.03408E+01 9.73011E-01 2.76291E-03-9.40612E-01-9.84645E-14-6.73875E-15
 -1       482 2.03950E+01 1.75586E+00-5.86288E-03-1.53847E+00-1.07290E-13-3.02577E-14
 -1       483 3.04678E+01-3.61274E+00-6.93827E-02-1.10456E+00 4.09395E-15 1.07289E-13
 -1       484 2.01690E+01 5.47192E-01 2.34786E-03-4.68399E-01-1.18759E-13 3.36263E-15
 -1       485 2.00227E+01 3.07246E-01 1.26867E-03-1.66588E-01-5.96859E-14 3.30283E-15
 -1       486 1.99235E+01 1.66025E-01 5.67403E-04 1.69963E-02-2.95162E-14-8.84075E-15
 -1       487 1.98670E+01 8.12554E-02 2.37860E-04 1.22902E-01-2.66133E-15-3.52487E-14
 -1       488 1.98427E+01 3.08926E-02 8.63289E-05 1.79091E-01-2.15321E-14-1.18156E-13
 -1       489 1.98411E+01 2.71716E-03 1.34835E-05 2.04670E-01-1.56474E-14-1.19394E-13
 -1       490 1.98548E+01-1.05257E-02-1.84873E-05 2.12845E-01-6.22384E-14-1.83216E-14
 -1       491 1.98785E+01-1.34122E-02-2.50745E-05 2.12888E-01-8.18184E-14 3.34127E-14
 -1       492 1.99093E+01-8.98379E-03-1.41125E-05 2.11392E-01-2.58984E-14-1.63945E-14
 -1       493 1.99456E+01 6.16231E-04 9.19817E-06 2.13068E-01-2.29164E-14 1.91298E-14
 -1       494 1.99868E+01 1.37247E-02 4.06559E-05 2.21225E-01-9.00779E-14-3.71393E-14
 -1       495 2.00336E+01 2.88253E-02 7.61204E-05 2.38022E-01-7.72350E-14-5.26986E-14
 -1       496 2.00873E+01 4.42318E-02 1.10617E-04 2.64509E-01-7.96132E-14 1.59488E-14
 -1       497 2.01495E+01 5.77584E-02 1.37391E-04 3.00471E-01-1.89300E-14 4.73648E-15
 -1       498 2.02224E+01 6.63766E-02 1.46936E-04 3.44063E-01-6.26686E-14-3.69495E-14
 -1       499 2.03087E+01 6.58985E-02 1.26211E-04 3.91250E-01-5.27890E-14-1.29403E-13
 -1       500 2.04112E+01 5.07956E-02 5.85159E-05 4.35083E-01 2.30694E-14-2.46595E-13
 -1       501 2.05328E+01 1.43721E-02-7.51419E-05 4.64917E-01 3.31453E-14-3.05796E-13
 -1       502 2.06760E+01-5.03212E-02-2.91215E-04 4.65826E-01 9.98853E-15-2.18427E-13
 -1       503 2.08419E+01-1.48256E-01-5.94965E-04 4.18696E-01 5.64895E-14-1.38765E-13
 -1       504 2.10281E+01-2.78211E-01-9.62273E-04 3.01855E-01 4.68555E-14-6.72958E-14
 -1       505 2.12250E+01-4.26292E-01-1.32245E-03 9.56432E-02-1.99572E-14-1.04191E-13
 -1       506 2.14111E+01-5.58535E-01-1.50608E-03-2.08324E-01-2.42569E-14 5.41412E-14
 -1       507 2.15496E+01-6.17380E-01-1.30537E-03-5.92422E-01-7.55474E-14 1.55593E-13
 -1       508 2.15917E+01-5.30149E-01-3.85344E-04-9.95792E-01-2.57134E-14 2.87603E-13
 -1       509 2.14945E+01-2.40336E-01 9.30152E-04-1.30389E+00 5.18007E-14 2.87734E-13
 -1       510 2.12591E+01 2.35849E-01 2.06501E-03-1.36671E+00-8.28979E-14 1.67106E-13
 -1       511 2.09644E+01 7.64375E-01 2.08891E-03-1.07039E+00-8.33716E-14 3.55467E-14
 -1       512 2.07524E+01 1.12510E+00 1.12362E-03-4.33049E-01-1.43343E-13 1.29597E-13
 -1       513 2.07410E+01 1.14279E+00 4.61929E-04 3.54386E-01-1.51561E-13-1.38383E-14
 -1       514 2.09396E+01 8.03899E-01 7.10728E-04 1.01479E+00 1.21815E-13-2.43594E-13
 -1       515 2.12326E+01 2.77716E-01 6.38551E-04 1.34056E+00 3.19094E-14-2.23355E-13
 -1       516 2.14744E+01-2.11994E-01 1.93149E-04 1.29883E+00-1.06143E-13 7.82498E-14
 -1       517 2.15789E+01-5.22255E-01-3.63038E-04 9.97696E-01 1.47625E-15 1.54608E-13
 -1       518 2.15399E+01-6.27581E-01-8.54514E-04 5.88089E-01-6.19551E-14 6.47125E-14
 -1       519 2.13981E+01-5.79368E-01-1.03798E-03 1.90552E-01-7.73884E-14-1.02513E-14
 -1       520 2.12042E+01-4.50505E-01-9.76399E-04-1.28598E-01-1.03594E-13 1.90856E-13
 -1       521 2.09971E+01-3.00230E-01-7.60098E-04-3.48475E-01-4.36454E-14 2.63473E-13
 -1       522 2.07999E+01-1.63527E-01-4.95120E-04-4.75214E-01 1.86039E-13 4.43466E-13
 -1       523 2.06231E+01-5.43559E-02-2.44852E-04-5.26388E-01 1.94556E-13 3.29200E-13
 -1       524 2.04698E+01 2.69505E-02-3.16887E-05-5.21285E-01 3.54517E-13 3.61477E-13
 -1       525 2.03388E+01 8.67510E-02 1.54253E-04-4.75943E-01 3.46172E-13 4.67974E-13
 -1       526 2.02289E+01 1.32623E-01 3.86027E-04-4.01680E-01 1.59846E-13 6.90644E-13
 -1       527 9.69635E+00-3.25809E+00 1.38973E-01 5.63232E+00-1.46633E-13-6.78207E-14
 -1       528 1.98069E+01 1.30903E-01 1.02977E-03-2.06090E-02 3.65592E-14-6.49284E-14
 -1       529 1.97510E+01 6.26097E-02 3.80561E-04-1.21432E-01 5.08059E-14-9.09304E-14
 -1       530 1.97353E+01 2.26451E-02 1.07802E-04-1.73268E-01 3.32911E-14-9.31964E-14
 -1       531 1.97462E+01 4.15703E-04-1.52264E-05-1.95483E-01 2.37893E-14-3.81425E-14
 -1       532 1.97740E+01-9.97957E-03-6.64940E-05-2.01122E-01-8.56252E-15-3.58887E-14
 -1       533 1.98123E+01-1.20410E-02-7.41934E-05-1.99271E-01 1.68056E-14-7.82125E-14
 -1       534 1.98576E+01-7.87427E-03-5.01933E-05-1.96543E-01 9.64372E-14-1.21040E-13
 -1       535 1.99085E+01 1.33924E-03-3.29811E-07-1.98028E-01 4.85755E-14-1.46675E-13
 -1       536 1.99652E+01 1.51033E-02 7.31683E-05-2.07963E-01 1.88179E-14-7.79581E-14
 -1       537 2.00290E+01 3.34850E-02 1.71003E-04-2.30240E-01-2.20197E-14-1.74922E-14
 -1       538 2.01024E+01 5.70548E-02 2.96476E-04-2.68820E-01 5.56610E-14-3.17900E-14
 -1       539 2.01884E+01 8.68456E-02 4.55094E-04-3.28078E-01 1.59295E-13-1.11370E-13
 -1       540 2.02906E+01 1.24280E-01 6.53509E-04-4.13075E-01 1.24265E-13 1.62783E-14
 -1       541 2.04129E+01 1.70967E-01 8.96971E-04-5.29704E-01-4.21947E-14 1.27437E-13
 -1       542 2.05589E+01 2.28182E-01 1.18322E-03-6.84576E-01-1.14291E-13 1.21838E-13
 -1       543 2.07319E+01 2.95632E-01 1.48957E-03-8.84369E-01-1.56458E-13 7.84470E-14
 -1       544 2.09351E+01 3.68834E-01 1.74898E-03-1.13414E+00-1.41936E-13-7.31974E-14
 -1       545 2.11725E+01 4.33940E-01 1.81395E-03-1.43378E+00-1.84610E-14-4.24431E-14
 -1       546 2.14543E+01 4.58553E-01 1.43077E-03-1.77122E+00-5.70727E-14 7.07025E-14
 -1       547 2.18079E+01 3.77988E-01 3.00669E-04-2.11070E+00-7.24029E-14-3.92344E-14
 -1       548 2.23005E+01 8.18180E-02-1.58162E-03-2.37383E+00-1.48375E-13-6.43809E-14
 -1       549 2.30678E+01-5.76202E-01-3.50471E-03-2.41064E+00-2.55160E-13-5.03783E-14
 -1       550 2.43277E+01-1.68076E+00-1.37057E-03-1.96925E+00-1.18321E-13-1.34772E-13
 -1       551 2.62431E+01-2.91857E+00 2.18932E-03-7.06218E-01-1.60186E-13-5.81505E-14
 -1       552 2.85111E+01-3.15342E+00-3.22530E-02 1.42807E+00-8.33244E-14 5.79562E-14
 -1       553 3.01162E+01 3.85669E+00-1.89116E-01 2.57584E+00 1.56805E-13 9.79390E-14
 -1       554 3.00647E+01 5.13925E+00-1.65427E-01-9.90852E-01-1.25719E-13 2.48969E-13
 -1       555 3.00732E+01 1.67898E+00-1.63551E-01-3.42840E+00 2.34708E-13-8.68264E-14
 -1       556 2.65879E+01-4.44894E+00 2.19211E-02 1.33683E+00-3.99754E-14 6.12271E-14
 -1       557 2.36460E+01-2.92720E+00 2.14036E-02 2.68924E+00-5.89190E-14-3.78961E-13
 -1       558 2.19107E+01-1.22783E+00 5.44713E-03 3.03217E+00-2.10649E-13-3.67394E-13
 -1       559 2.10795E+01-1.18510E-01 2.57560E-05 2.87707E+00-1.22363E-13-2.89861E-13
 -1       560 2.07315E+01 4.34394E-01 8.92925E-05 2.54197E+00-1.29961E-13-3.29964E-13
 -1       561 2.05882E+01 6.32701E-01 4.73297E-04 2.15688E+00-5.74096E-14-3.98507E-13
 -1       562 2.05126E+01 6.44503E-01 7.94872E-04 1.78344E+00-8.48966E-14-5.83749E-13
 -1       563 2.04483E+01 5.77018E-01 8.83073E-04 1.44770E+00 9.23824E-14-6.50186E-13
 -1       564 2.03793E+01 4.89658E-01 8.43705E-04 1.15747E+00 1.91898E-13-6.78619E-13
 -1       565 2.03051E+01 4.12102E-01 8.72142E-04 9.10493E-01 1.52374E-13-2.06004E-13
 -1       566 2.02282E+01 3.58440E-01 1.09184E-03 6.98644E-01 1.86474E-13 1.41821E-13
 -1       567 1.98124E+01 7.23435E-01-4.24939E-04 3.88835E-01 3.74859E-13-2.36194E-13
 -1       568 1.97512E+01 7.96462E-01-4.67216E-04 2.31014E-01 3.37890E-13 1.08275E-13
 -1       569 2.00474E+01 4.46645E-01 5.95473E-04 5.23008E-01 1.00380E-13-1.99074E-13
 -1       570 1.99150E+01 6.02416E-01-2.23881E-04 4.93538E-01-1.50369E-14-1.23172E-13
 -1       571 1.97354E+01 8.14566E-01-5.07727E-04 5.09057E-02 2.62317E-13 1.15435E-13
 -1       572 1.97595E+01 7.81044E-01-4.83475E-04-1.22896E-01 8.48717E-14 2.57590E-13
 -1       573 1.98124E+01 7.05927E-01-4.08914E-04-2.67521E-01 8.77727E-14-2.31157E-13
 -1       574 1.98805E+01 6.04601E-01-2.63720E-04-3.67479E-01-1.49077E-13-8.33910E-13
 -1       575 1.99555E+01 4.87386E-01-8.65620E-05-4.20278E-01-1.51297E-13-1.68541E-13
 -1       576 2.00302E+01 3.66210E-01 7.85535E-05-4.24283E-01-9.39310E-14 7.75880E-13
 -1       577 2.00974E+01 2.52068E-01 2.37140E-04-3.84997E-01-1.44615E-14 6.06641E-14
 -1       578 5.58592E+00-1.41175E+00 1.88595E-01-3.33620E+00 2.96589E-13-5.50809E-14
 -1       579 1.99207E+01 2.47395E-01 2.47403E-03 1.59145E-01 5.80640E-14-1.72055E-14
 -1       580 1.72679E+01-5.18256E+00 9.76795E-02 6.37051E+00 1.09149E-13-3.33376E-13
 -1       581 1.05509E+01-3.32711E+00 1.51310E-01-6.74897E+00 1.26690E-13 3.32234E-14
 -1       582 3.19196E+01 1.22773E+00-6.01114E-02-3.36089E+00 3.45481E-13-2.69923E-14
 -1       583 2.46233E+01-6.02639E+00 2.80830E-03 4.15437E+00 1.63466E-13-1.63355E-13
 -1       584 4.42511E+00-1.32957E+00 1.82654E-01-5.72127E-01 8.26717E-14-3.76102E-13
 -1       585 3.14870E+01-1.52634E+00-1.10981E-01 2.57004E+00 2.06356E-13-1.72931E-13
 -1       586 1.96874E+01 3.19954E+00-5.10332E-03-3.13075E-01 1.97029E-15-1.29991E-13
 -1       587 3.26742E+01 6.47814E+00-1.45147E-01 5.00616E-01-1.36335E-13 1.33673E-13
 -1       588 1.44013E+01-4.91223E+00 9.86540E-02-6.55410E+00 1.11647E-13-2.28560E-13
 -1       589 3.25604E+01 5.25137E+00-1.37800E-01-2.02004E+00 6.65162E-14 4.30073E-14
 -1       590 3.22653E+01 4.04165E+00-9.14794E-02 2.93357E+00 5.33462E-14 1.17129E-13
 -1       591 2.83389E+01-5.20848E+00-3.46719E-02-1.62129E+00-8.59209E-14-5.56548E-13
 -1       592 2.02287E+01-5.33180E+00 8.11807E-02 6.56750E+00-2.90594E-13 9.59512E-14
 -1       593 2.29082E+01-6.06434E+00 3.74657E-02-5.01983E+00 3.12458E-14-4.82744E-13
 -1       594 6.99915E+00-2.67899E+00 1.41661E-01-4.45205E+00 1.41033E-13-2.28137E-13
 -1       595 6.23192E+00-1.70808E+00 1.79051E-01 4.31609E+00 3.34524E-14-2.41140E-13
 -1       596 1.16270E+01-3.82134E+00 1.20387E-01 7.14693E+00-9.79911E-14 1.44537E-14
 -1       597 2.53751E+01-4.80666E+00 7.54476E-03 4.10045E+00-2.22704E-13-4.57689E-14
 -1       598 3.01129E+01 4.49350E+00-1.74494E-01-1.62777E+00 3.13430E-14-7.59809E-15
 -1       599 3.04656E+01 7.66014E+00-1.65259E-01-5.10235E-01-9.23012E-14 9.17513E-14
 -1       600 3.02854E+01 7.03164E+00-1.79690E-01 1.02627E+00 1.27731E-13 6.77236E-15
 -1       601 2.98411E+01 3.30928E+00-1.50241E-01 1.76966E+00 1.88981E-13-8.47308E-14
 -1       602 2.95693E+01-1.69863E+00-7.24902E-02-9.83185E-01 9.11719E-14-1.13284E-13
 -1       603 2.55033E+01-4.73437E+00-4.80465E-04-4.37872E+00 2.50737E-13 3.32130E-13
 -1       604 1.88753E+01-5.35315E+00 5.73448E-02-6.90254E+00 2.09915E-13-2.61346E-13
 -1       605 4.65990E+00-1.73256E+00 1.60555E-01 1.91443E+00 4.71911E-13 2.42167E-14
 -1       606 2.05803E+01 1.30524E+00-9.96424E-04 1.54939E+00 1.32776E-13-1.89781E-14
 -1       607 1.99752E+01 2.64966E+00-9.85673E-03-1.23985E+00-8.34946E-14-8.53794E-14
 -1       608 1.59306E+01-3.91363E+00 1.03480E-01-6.76524E+00 7.60225E-14-3.29854E-13
 -1       609 2.02075E+01 2.16593E-01 1.68682E-03 4.01859E-01 1.21628E-13 1.05991E-13
 -1       610 2.01640E+01 1.57537E-01 4.93477E-04-3.37467E-01 1.91607E-13 6.62323E-13
 -1       611 2.88801E+01 1.29688E+00-1.16264E-01-1.62562E+00 5.28674E-14 2.26694E-14
 -1       612 2.75151E+01-3.42789E+00-4.45555E-02 1.34995E+00-1.22932E-13 1.39815E-13
 -1       613 1.99667E+01 2.45164E+00-1.59818E-03 3.94188E-01 3.21700E-14-1.47312E-13
 -1       614 1.99354E+01 2.52704E+00-1.50792E-03 1.35648E-01 1.70832E-14-1.54887E-13
 -1       615 2.01246E+01 2.04717E+00-1.60839E-03 8.50674E-01 8.01471E-14-1.17058E-13
 -1       616 2.02400E+01 1.67685E+00-2.22946E-03 9.93125E-01 7.17353E-14-1.15093E-13
 -1       617 2.03182E+01 1.03734E+00 2.93786E-03 8.32359E-01 6.48653E-14-7.46390E-14
 -1       618 2.19112E+01-4.58890E+00 6.43699E-02 4.53903E+00 2.70891E-13-2.78895E-13
 -1       619 2.02049E+01 6.15296E-01 1.07879E-03 4.20290E-01 8.07226E-14-6.98702E-14
 -1       620 2.02805E+01 1.67884E+00 6.17811E-07-1.14142E+00-8.73235E-14-5.74662E-14
 -1       621 2.02885E+01 1.03549E+00-1.96490E-04-6.80388E-01-7.84780E-14-5.23527E-14
 -1       622 2.02340E+01 6.27711E-01 2.74612E-04-3.35693E-01-6.16318E-14-6.70764E-15
 -1       623 2.01677E+01 3.66073E-01 1.01270E-05-1.01349E-01-2.34671E-14 1.89995E-14
 -1       624 2.01083E+01 2.00311E-01-6.69967E-05 4.87520E-02-2.06906E-14 3.66884E-14
 -1       625 2.00630E+01 9.67847E-02-6.91518E-05 1.38614E-01-1.81548E-14 4.53318E-14
 -1       626 2.00320E+01 3.49717E-02-5.66621E-05 1.87986E-01-5.20722E-15 4.61321E-14
 -1       627 2.00132E+01 1.86492E-03-4.31897E-05 2.12085E-01-2.28716E-15 3.24099E-14
 -1       628 2.00040E+01-1.10696E-02-3.09002E-05 2.22280E-01-3.73926E-14-4.47188E-16
 -1       629 2.00022E+01-9.62711E-03-1.90591E-05 2.26986E-01-1.13400E-13 3.67048E-15
 -1       630 2.00061E+01 2.09681E-03-7.20330E-06 2.32396E-01-1.12271E-14-1.81078E-14
 -1       631 2.00150E+01 2.10109E-02 4.62105E-06 2.43029E-01-9.99285E-14-3.30069E-14
 -1       632 2.00284E+01 4.44807E-02 1.59639E-05 2.62079E-01-1.13352E-13 1.88544E-14
 -1       633 2.00467E+01 6.98253E-02 2.59782E-05 2.91575E-01-6.80282E-14-3.20485E-14
 -1       634 2.00710E+01 9.38052E-02 3.33751E-05 3.32357E-01 3.90378E-14-7.02148E-14
 -1       635 2.01034E+01 1.12088E-01 3.62992E-05 3.83847E-01-9.40982E-14-4.25360E-14
 -1       636 2.01472E+01 1.18724E-01 3.22359E-05 4.43609E-01-8.84252E-14-5.06156E-14
 -1       637 2.02077E+01 1.05733E-01 1.80668E-05 5.06699E-01-1.48047E-13-1.59405E-13
 -1       638 2.02923E+01 6.30542E-02-9.73101E-06 5.64793E-01 4.40034E-14-1.44321E-13
 -1       639 2.04108E+01-2.07263E-02-5.45592E-05 6.05176E-01 2.42679E-13-1.13255E-13
 -1       640 2.05753E+01-1.56109E-01-1.16126E-04 6.09728E-01 1.03715E-13 5.71586E-14
 -1       641 2.07981E+01-3.47848E-01-1.93544E-04 5.54375E-01 6.04881E-14 1.20348E-13
 -1       642 2.10869E+01-5.86310E-01-2.79359E-04 4.10049E-01 1.09352E-14 1.19905E-13
 -1       643 2.14354E+01-8.34592E-01-3.95667E-04 1.47900E-01 1.04604E-13 5.86653E-14
 -1       644 2.18103E+01-1.01553E+00-4.21321E-04-2.46766E-01-3.17755E-14 6.20698E-14
 -1       645 2.21418E+01-1.01051E+00-3.89330E-04-7.48864E-01 1.70125E-13 2.52013E-13
 -1       646 2.23297E+01-6.85993E-01 4.22485E-04-1.26059E+00-4.19521E-15 2.44757E-13
 -1       647 2.22835E+01 2.49589E-02 3.29573E-04-1.58395E+00-2.04649E-13-3.04587E-14
 -1       648 2.20275E+01 9.74859E-01-9.29036E-04-1.47848E+00-1.39162E-13-9.17873E-14
 -1       649 2.17289E+01 1.79320E+00-3.39104E-03-8.30506E-01-1.07803E-13-1.69500E-13
 -1       650 2.16300E+01 2.04169E+00-4.00824E-03 1.63806E-01-1.83418E-13 7.17121E-15
 -1       651 2.18196E+01 1.56456E+00-1.21932E-03 1.08859E+00-1.42795E-14 1.48780E-13
 -1       652 2.21305E+01 6.45660E-01-1.64646E-04 1.55612E+00 3.24079E-14 2.20673E-13
 -1       653 2.23293E+01-2.62371E-01 1.45661E-04 1.48883E+00 7.63497E-14 2.24680E-13
 -1       654 2.22908E+01-8.50663E-01 9.81204E-05 1.06819E+00-1.42189E-13 2.83127E-13
 -1       655 2.20419E+01-1.06067E+00-3.56987E-04 5.33064E-01-8.93631E-14 1.20298E-14
 -1       656 2.16821E+01-9.89441E-01-5.00465E-04 5.04886E-02-6.06672E-14 5.69598E-14
 -1       657 2.13066E+01-7.73195E-01-4.85846E-04-3.07529E-01 1.73820E-13-3.66556E-15
 -1       658 2.09735E+01-5.18710E-01-3.37754E-04-5.33270E-01-4.47275E-15 3.53473E-13
 -1       659 2.07053E+01-2.87154E-01-1.77536E-04-6.48214E-01 2.19612E-13 2.53480E-13
 -1       660 2.05017E+01-1.02755E-01-5.54066E-05-6.80923E-01 1.79706E-13 1.66313E-13
 -1       661 2.03522E+01 3.30623E-02 4.04564E-06-6.57077E-01 5.15992E-13 5.73457E-13
 -1       662 2.02433E+01 1.30382E-01 1.24509E-04-5.96047E-01 3.60362E-13 6.04770E-13
 -1       663 2.01606E+01 2.02239E-01-2.84777E-04-5.10216E-01 1.83471E-13 5.85566E-13
 -1       664 2.72203E+01 4.75531E+00-1.37845E-01 1.79916E+00 1.32505E-13 2.35213E-13
 -1       665 2.00280E+01 1.95040E-01 2.40789E-04-2.43116E-02 5.49582E-14-7.72886E-14
 -1       666 1.99371E+01 3.66894E-03-1.47812E-05-2.09177E-01 1.28200E-14 9.90841E-15
 -1       667 1.99385E+01-1.02874E-02-2.28243E-05-2.19630E-01 8.37334E-14-8.48929E-14
 -1       668 1.99491E+01-1.06778E-02-1.98577E-05-2.23263E-01 4.82651E-14-1.12523E-13
 -1       669 1.99666E+01-5.75625E-04-7.56747E-06-2.27206E-01 7.78076E-14-1.03460E-14
 -1       670 1.99893E+01 1.83304E-02 1.31063E-05-2.37102E-01-4.38048E-15 7.22604E-14
 -1       671 2.00165E+01 4.54243E-02 4.20246E-05-2.57722E-01 1.15393E-14 6.47261E-14
 -1       672 2.00477E+01 8.09840E-02 7.99154E-05-2.93445E-01-2.49401E-14 4.76539E-14
 -1       673 2.00825E+01 1.26067E-01 1.28602E-04-3.48627E-01 1.20880E-13 8.98792E-14
 -1       674 2.01199E+01 1.82386E-01 1.90630E-04-4.27882E-01 5.84053E-14 2.24603E-13
 -1       675 2.01581E+01 2.52077E-01 2.69088E-04-5.36250E-01-2.27991E-15 2.59369E-13
 -1       676 2.01941E+01 3.37177E-01 3.66578E-04-6.79209E-01-3.34898E-14 1.20358E-13
 -1       677 2.02226E+01 4.38458E-01 4.82619E-04-8.62466E-01-1.33369E-13 9.62086E-14
 -1       678 2.02366E+01 5.52998E-01 6.07595E-04-1.09144E+00-1.16857E-13 1.17468E-13
 -1       679 2.02288E+01 6.69458E-01 7.11945E-04-1.37037E+00-2.48662E-14 8.34175E-14
 -1       680 2.01956E+01 7.59539E-01 7.34920E-04-1.70109E+00 4.06396E-15 6.26077E-14
 -1       681 2.01496E+01 7.63950E-01 6.40348E-04-2.08154E+00-8.14531E-14 2.07069E-14
 -1       682 2.01443E+01 5.72792E-01 8.40766E-04-2.50291E+00-7.76649E-14 8.35011E-14
 -1       683 2.03148E+01 1.00546E-02 2.40670E-03-2.94111E+00-1.82616E-13-7.72112E-14
 -1       684 2.09640E+01-1.15714E+00 9.48161E-03-3.30135E+00-9.49395E-14-2.25275E-13
 -1       685 2.25659E+01-3.02371E+00 2.56622E-02-3.35310E+00-1.78199E-13-1.65136E-13
 -1       686 2.48975E+01-4.86926E+00 2.07146E-02-2.89599E+00-1.41821E-13-2.79403E-13
 -1       687 2.01317E+01 2.29658E-01 2.87271E-04-4.50809E-01 1.59610E-14 3.75792E-13
 -1       688 2.83210E+01-3.22311E-01-8.35645E-02 1.26796E+00-3.93782E-14 7.40692E-14
 -1       689 1.86142E+01-1.50067E-01 1.18799E-02 3.38083E+00-4.79339E-14-7.05811E-13
 -1       690 1.87371E+01 6.33690E-01 4.27049E-03 2.74447E+00-1.20259E-13-7.73139E-13
 -1       691 1.90440E+01 9.39217E-01 1.51180E-03 2.24414E+00-2.73968E-14-8.43757E-13
 -1       692 1.93545E+01 9.79157E-01 7.44957E-04 1.84865E+00-2.92556E-13-4.14265E-13
 -1       693 1.96061E+01 8.96693E-01 4.98915E-04 1.52153E+00 6.51101E-14-2.94053E-13
 -1       694 1.97876E+01 7.73485E-01 3.64824E-04 1.24438E+00 3.39605E-14-5.06755E-14
 -1       695 1.99075E+01 6.54143E-01 4.40796E-04 1.00765E+00-2.12641E-13 1.62638E-13
 -1       696 1.99742E+01 5.60303E-01-6.40690E-04 7.99268E-01 1.55202E-13-1.96233E-15
 -1       697 1.95711E+01 7.92231E-01-9.98266E-05-7.83140E-02 2.91864E-13-2.50869E-14
 -1       698 1.96137E+01 7.95782E-01-3.80869E-04 3.72429E-01 2.30465E-13-2.45499E-13
 -1       699 1.96424E+01 7.13586E-01-1.78373E-04-2.74883E-01 6.87571E-14-1.76875E-13
 -1       700 1.95564E+01 8.23772E-01-1.27763E-04 1.48983E-01 2.02180E-13 1.93605E-13
 -1       701 1.52288E+01-2.90217E+00 1.13602E-01 5.60619E+00 1.24002E-13-9.32518E-14
 -1       702 1.97473E+01 6.07340E-01-1.20817E-04-4.18693E-01-1.14090E-13-6.92271E-13
 -1       703 1.98696E+01 4.86486E-01-2.90376E-05-5.05212E-01 6.56261E-14-5.67644E-13
 -1       704 1.99926E+01 3.67034E-01 4.99742E-05-5.32712E-01 2.72728E-13 4.99444E-13
 -1       705 2.01047E+01 3.56181E-01 6.18656E-04 1.47792E-01 5.76716E-14-8.65483E-14
 -1       706 2.31691E+01-5.11611E+00 1.67551E-02-4.70413E+00 2.61943E-13 3.58644E-13
 -1       707 2.32733E+01-4.92811E+00 3.58547E-02 4.46242E+00-1.91940E-13 1.76604E-14
 -1       708 2.70983E+01-3.81872E+00-3.27005E-02-1.67264E+00 9.99062E-14 1.32137E-13
 -1       709 1.73125E+01-3.87064E+00 8.58873E-02 6.40549E+00-3.45453E-14 6.32203E-14
 -1       710 1.90523E+01-1.73580E+00 4.56746E-02 4.18090E+00-7.05447E-14-1.79745E-13
 -1       711 1.99484E+01 3.62154E-02 8.52085E-06-1.82486E-01 3.47297E-15 2.56078E-14
 -1       712 1.99771E+01 9.53273E-02 4.94259E-05-1.26730E-01 9.28352E-15-3.51863E-14
 -1       713 1.28129E+01-2.38277E+00 1.27455E-01-5.40268E+00 1.09933E-13-1.65083E-13
 -1       714 2.00299E+01 2.29639E+00-1.67600E-03 6.37656E-01 5.99070E-14-9.80918E-14
 -1       715 2.00235E+01 2.30772E+00-1.55965E-03-6.29679E-01-3.91753E-14-6.99883E-14
 -1       716 9.48512E+00-7.82178E-01 1.45244E-01 3.64079E+00 2.31882E-13-1.58387E-13
 -1       717 7.90591E+00 2.61843E-01 1.63374E-01 1.57497E+00 1.47349E-13-3.54335E-13
 -1       718 8.36395E+00-4.14240E-01 1.63127E-01-2.65675E+00 1.81372E-13-2.74315E-13
 -1       719 1.96097E+01-4.02739E+00 9.87364E-02-5.18343E+00-4.77084E-14-3.40863E-13
 -1       720 1.11868E+01-1.59891E+00 1.32266E-01 5.56908E+00 9.19195E-14-6.82718E-14
 -1       721 2.72519E+01 5.50515E+00-1.55921E-01-1.48451E+00-6.89032E-14 3.79273E-13
 -1       722 7.41993E+00 1.49388E-01 1.68407E-01-3.57469E-01 1.33034E-13 1.24553E-13
 -1       723 2.71758E+01 6.62613E+00-1.52952E-01 2.94791E-01 9.36057E-14 1.48938E-13
 -1       724 1.05373E+01-1.01582E+00 1.37315E-01-4.80675E+00-4.21208E-14 1.47875E-13
 -1       725 1.99257E+01 5.73018E-01-4.48856E-04 6.42058E-01 4.61560E-13-1.29938E-13
 -1       726 2.01239E+01 2.06272E+00-1.06786E-03-8.54313E-01-6.42967E-14-7.44193E-14
 -1       727 1.99344E+01 2.52873E+00-1.51527E-03-1.26565E-01 1.14354E-14-1.15490E-13
 -1       728 1.42354E+01-1.88330E+00 8.84498E-02-5.49434E+00-1.11740E-13-2.94265E-13
 -1       729 2.68300E+01 1.80321E+00-8.62362E-02 2.11056E+00 6.46358E-14 3.30421E-13
 -1       730 2.54159E+01-4.27128E+00-2.07455E-02 2.23495E+00-2.63175E-13 1.02001E-13
 -1       731 1.03747E+01 4.34466E-01 1.06462E-01-2.49094E+00-1.14702E-13 2.13173E-13
 -1       732 2.69501E+01 3.25481E+00-1.08850E-01-2.09571E+00-2.63650E-13 1.40075E-13
 -1       733 1.97442E+01 7.10924E-01 1.50275E-04 5.41555E-01 3.23970E-13 2.07115E-14
 -1       734 1.99635E+01 2.45760E+00-1.56399E-03-3.84469E-01-1.81877E-14-8.78231E-14
 -1       735 2.02147E+01-4.30735E+00 5.62910E-02-5.44589E+00 2.39083E-13-5.67645E-14
 -1       736 2.75743E+01-1.50375E+00-5.85996E-02-8.05201E-01-5.21857E-14-1.39978E-13
 -1       737 2.02677E+01 1.31075E+00 5.02229E-04 6.31283E-01 7.83163E-14-1.27970E-13
 -1       738 2.02957E+01 1.08334E+00 4.76111E-04-5.02587E-01-5.21913E-14-5.30701E-14
 -1       739 2.02943E+01 6.78754E-01-3.08348E-05-2.42368E-01-1.48080E-14-2.71336E-14
 -1       740 2.02664E+01 4.03951E-01-1.18454E-06-5.90695E-02-2.05464E-14 1.99289E-14
 -1       741 2.02274E+01 2.22598E-01-3.55681E-07 6.19637E-02-1.44587E-15 4.61198E-14
 -1       742 2.01870E+01 1.07355E-01-7.35627E-06 1.36343E-01-3.83294E-14 4.40517E-14
 -1       743 2.01501E+01 3.90936E-02-1.07656E-05 1.78709E-01-1.11912E-14 2.72626E-14
 -1       744 2.01181E+01 4.47797E-03-1.19158E-05 2.01091E-01-7.33067E-14-1.01683E-14
 -1       745 2.00911E+01-5.83300E-03-1.22297E-05 2.13003E-01-5.10370E-14 2.55565E-14
 -1       746 2.00686E+01 1.48468E-03-1.18022E-05 2.21759E-01-7.63512E-14 4.98703E-14
 -1       747 2.00497E+01 2.15061E-02-1.05864E-05 2.32914E-01-8.89439E-14 3.51545E-14
 -1       748 2.00340E+01 5.03259E-02-8.62046E-06 2.50656E-01-1.02038E-13 8.47263E-14
 -1       749 2.00209E+01 8.44045E-02-5.96191E-06 2.78082E-01-8.06647E-14 1.17748E-13
 -1       750 2.00108E+01 1.19914E-01-2.51261E-06 3.17333E-01-1.16270E-13 1.03841E-13
 -1       751 2.00051E+01 1.52056E-01 1.91010E-06 3.69577E-01-1.12302E-13-1.50341E-13
 -1       752 2.00065E+01 1.74347E-01 7.42228E-06 4.34806E-01-8.65861E-14-1.93616E-13
 -1       753 2.00203E+01 1.77933E-01 1.40060E-05 5.11434E-01-6.76960E-14-8.99323E-14
 -1       754 2.00550E+01 1.51086E-01 2.10029E-05 5.95619E-01 3.38251E-14 1.44376E-13
 -1       755 2.01234E+01 7.92126E-02 2.61924E-05 6.80216E-01 1.72388E-13 2.17116E-13
 -1       756 2.02437E+01-5.40238E-02 2.49485E-05 7.53217E-01 2.62666E-13 1.33417E-14
 -1       757 2.04390E+01-2.63383E-01 2.08407E-05 7.95526E-01 1.05279E-13 6.43310E-14
 -1       758 2.07355E+01-5.54928E-01 2.10619E-06 7.78205E-01-1.47077E-14 4.33854E-14
 -1       759 2.11551E+01-9.12669E-01-2.78865E-05 6.59646E-01 5.96020E-16-5.04082E-14
 -1       760 2.16982E+01-1.27548E+00-3.23742E-04 3.88524E-01 2.39247E-14-7.59847E-14
 -1       761 2.23179E+01-1.51319E+00-6.13940E-04-7.65811E-02 6.60614E-14 2.32893E-14
 -1       762 2.28995E+01-1.42629E+00-1.85134E-03-7.22833E-01 1.87652E-14-9.65871E-14
 -1       763 2.32676E+01-7.84742E-01-9.22375E-04-1.41815E+00-2.61961E-13-1.19745E-13
 -1       764 2.32442E+01 4.99101E-01-4.88015E-03-1.80506E+00-2.85430E-13-1.83030E-13
 -1       765 2.29134E+01 2.01575E+00-5.12586E-03-1.50969E+00-9.95850E-14-2.90016E-13
 -1       766 2.25043E+01 3.01622E+00-2.91613E-02-4.55134E-01-2.41161E-14-4.43001E-14
 -1       767 2.26557E+01 2.76308E+00-1.84163E-02 8.59342E-01-2.58368E-14-3.57581E-14
 -1       768 2.30466E+01 1.49990E+00-4.36129E-03 1.68670E+00 7.04391E-14 5.90336E-14
 -1       769 2.32964E+01-1.39558E-02-5.25008E-03 1.70993E+00 1.00463E-13 1.22642E-13
 -1       770 2.31820E+01-1.09261E+00-1.23913E-03 1.15907E+00-1.75670E-13-2.20189E-14
 -1       771 2.27250E+01-1.53273E+00-5.57974E-04 4.50156E-01-2.46882E-13 4.34567E-14
 -1       772 2.21129E+01-1.48349E+00-1.95488E-04-1.50299E-01-9.12087E-14 1.02601E-13
 -1       773 2.15124E+01-1.18115E+00-3.31733E-04-5.52281E-01-6.49070E-14 3.21487E-13
 -1       774 2.10143E+01-8.07038E-01-2.69547E-04-7.70409E-01 2.93215E-13 3.12222E-13
 -1       775 2.06442E+01-4.62711E-01-1.31036E-04-8.53915E-01 5.06667E-14 4.32867E-13
 -1       776 2.03906E+01-1.87889E-01-1.00461E-05-8.49968E-01 2.43268E-13 4.57087E-13
 -1       777 2.02287E+01 1.30940E-02 5.74222E-05-7.93962E-01 5.12429E-13 6.25510E-13
 -1       778 2.01301E+01 1.53850E-01 9.14625E-05-7.09661E-01 4.92361E-13 4.21449E-13
 -1       779 2.00533E+01-6.30171E-03-7.91278E-06-2.19523E-01 4.27096E-14-1.29027E-13
 -1       780 2.65847E+01-2.46261E+00-4.17470E-02 2.35513E-01-1.50662E-13 2.83499E-13
 -1       781 2.00715E+01 7.16182E-03-8.64894E-06-2.06419E-01 8.06963E-14-1.69515E-13
 -1       782 2.00329E+01 1.77704E-02-9.78529E-07-2.37921E-01-8.07520E-14 2.39815E-14
 -1       783 2.00273E+01 4.96646E-02 5.71764E-06-2.55244E-01-3.22535E-14-3.11377E-14
 -1       784 2.00220E+01 9.35309E-02 1.39519E-05-2.84268E-01 4.31536E-14 2.44522E-14
 -1       785 2.00146E+01 1.49889E-01 2.45929E-05-3.28989E-01 2.16287E-14 1.57405E-14
 -1       786 2.00013E+01 2.20187E-01 3.82690E-05-3.93145E-01-4.14873E-14 1.42356E-13
 -1       787 1.99770E+01 3.06547E-01 5.60193E-05-4.80353E-01 2.52551E-14 1.81756E-13
 -1       788 1.99347E+01 4.11307E-01 7.90709E-05-5.94132E-01 1.97811E-14 2.67549E-13
 -1       789 1.98639E+01 5.36131E-01 1.08589E-04-7.37867E-01-7.29876E-14 1.96746E-13
 -1       790 1.97512E+01 6.80252E-01 1.43849E-04-9.14811E-01-1.11655E-13 1.78316E-13
 -1       791 1.95794E+01 8.37191E-01 1.77860E-04-1.12846E+00-9.81079E-14 2.41340E-13
 -1       792 1.93295E+01 9.88956E-01 1.94283E-04-1.38399E+00-5.44224E-15 1.98421E-13
 -1       793 1.89853E+01 1.09639E+00 1.93488E-04-1.69218E+00-6.78528E-15 2.51306E-13
 -1       794 1.85450E+01 1.08429E+00 5.86280E-04-2.07764E+00 3.29982E-15 2.03440E-13
 -1       795 1.80394E+01 8.19863E-01 2.45833E-03-2.59871E+00-3.17433E-14 1.35159E-13
 -1       796 1.76401E+01 8.19901E-02 1.76318E-02-3.37783E+00-1.60723E-13-6.65848E-14
 -1       797 1.80265E+01 1.28840E+00 3.76120E-04 1.59622E+00-1.79023E-13-2.36949E-13
 -1       798 2.01458E+01 1.89346E+00-2.48051E-04 1.99207E-01 2.99186E-14-1.19961E-13
 -1       799 2.01751E+01 2.33591E-01-1.08036E-04-3.86236E-02 1.84896E-14-7.26554E-14
 -1       800 1.49428E+01-2.74066E-01 6.66486E-02 3.86768E+00 2.65903E-13-2.56994E-13
 -1       801 1.72380E+01 1.25001E+00 2.44797E-03 1.95141E+00 4.30751E-14-4.09078E-13
 -1       802 1.62398E+01 9.41655E-01 8.24955E-03 2.51321E+00-7.63166E-14-1.37355E-13
 -1       803 1.86299E+01 1.19210E+00 1.17256E-04 1.33839E+00-1.44154E-13-5.69396E-13
 -1       804 1.90782E+01 1.04372E+00 1.41276E-04 1.12940E+00-2.24299E-13-4.02171E-13
 -1       805 1.94024E+01 8.91589E-01 1.42588E-04 9.47495E-01-2.16746E-13-2.23620E-13
 -1       806 1.96371E+01 7.58719E-01 1.50585E-04 7.85729E-01 2.51540E-14-1.98175E-13
 -1       807 1.94120E+01 7.58782E-01-9.88007E-05-2.65256E-01 7.68295E-14-3.16641E-13
 -1       808 1.99112E+01 3.59754E-01 4.53274E-05-6.33802E-01 3.62960E-13-5.68642E-15
 -1       809 1.95542E+01 6.33324E-01-7.27015E-05-4.60252E-01-1.23348E-13-3.86823E-13
 -1       810 2.47574E+01-4.17160E+00-8.53592E-03-2.23430E+00 2.04658E-13 4.37294E-13
 -1       811 1.03899E+01 6.21912E-01 8.79288E-02 1.59230E+00-2.86568E-14 3.34177E-14
 -1       812 1.97311E+01 4.93385E-01 6.81489E-05-5.83780E-01-5.46933E-15-3.81703E-13
 -1       813 2.00410E+01-1.54049E-03-5.59593E-06-2.27798E-01-1.05355E-14-4.31670E-14
 -1       814 2.00973E+01 4.47746E-02-8.92370E-06-1.79913E-01 2.51128E-14-1.41904E-13
 -1       815 2.01319E+01 1.15628E-01-1.44421E-07-1.28866E-01-1.27973E-14-9.16938E-14
 -1       816 2.50047E+01 4.86082E+00-8.62029E-02 1.00503E+00 1.20029E-13 1.83906E-13
 -1       817 2.08524E+01-3.92003E+00 4.20888E-02 4.71315E+00-1.86710E-13-1.56556E-13
 -1       818 2.02795E+01 9.42514E-01-1.15503E-04 5.51909E-01 7.46481E-14-1.16391E-13
 -1       819 1.55156E+01-1.87860E+00 5.77635E-02 5.29238E+00 5.20937E-15-5.53706E-14
 -1       820 1.14233E+01 1.81059E-01 8.12607E-02 3.32629E+00 1.82436E-13-2.32033E-13
 -1       821 1.82288E+01-1.89001E+00 5.98215E-02-4.49836E+00-1.01641E-13-1.78508E-13
 -1       822 2.50746E+01 5.09198E+00-8.95490E-02-6.39875E-01 1.05058E-13 1.36313E-13
 -1       823 1.01360E+01 8.09454E-01 9.74013E-02-8.65086E-01 1.22999E-13-3.76570E-13
 -1       824 2.01342E+01 1.93189E+00-3.44576E-04 3.05791E-03 7.76370E-15-1.30770E-13
 -1       825 1.26314E+01-2.47653E-01 7.46627E-02-3.87283E+00-1.85966E-13 2.62568E-14
 -1       826 2.60930E+01-6.26631E-01-3.43420E-02 1.61055E+00-1.26855E-13 2.30737E-13
 -1       827 1.22632E+01 3.78490E-02 8.80976E-02-3.32140E+00 1.74487E-14 3.60961E-14
 -1       828 2.27154E+01-3.97643E+00 1.64819E-02-3.38147E+00 1.75899E-13 6.18393E-13
 -1       829 2.00776E+01 2.50979E-01-2.44574E-05-6.08796E-01 2.73614E-13 5.38033E-13
 -1       830 2.02345E+01 5.77394E-01 2.27874E-04 2.57869E-01 6.04148E-14-1.17697E-13
 -1       831 2.01807E+01 1.77761E+00 4.08628E-05 3.81855E-01 5.27385E-14-1.03308E-13
 -1       832 1.77810E+01-2.72766E+00 4.70830E-02-5.16556E+00-3.87312E-14-4.29857E-13
 -1       833 2.50141E+01 3.06750E+00-5.86540E-02 1.91113E+00 7.94816E-14 1.50090E-13
 -1       834 2.02200E+01 1.59299E+00-1.08531E-03-5.26046E-01-5.75153E-14-5.06357E-14
 -1       835 1.93297E+01 8.48617E-01-4.58643E-04-9.29044E-03 1.52161E-13 1.40553E-13
 -1       836 1.93507E+01 8.77237E-01 1.69814E-04 2.76044E-01 1.83609E-13-5.01160E-14
 -1       837 2.01739E+01 1.78587E+00-4.46522E-04-3.73481E-01-1.17535E-14-4.95176E-14
 -1       838 1.15653E+01 1.12534E+00 5.83663E-02-4.49211E-01-3.34123E-13 1.43026E-13
 -1       839 2.61265E+01-2.85023E+00-2.04865E-02 1.57551E-01-1.17043E-13-1.92008E-13
 -1       840 2.02029E+01 3.76005E-01-5.03580E-05 8.18806E-02 3.52789E-14-8.49532E-14
 -1       841 2.49152E+01 3.95199E+00-7.52855E-02-1.58051E+00-1.65697E-13-9.91481E-15
 -1       842 2.02288E+01 1.58285E+00 2.84043E-04 5.36800E-01 6.79901E-14-1.07915E-13
 -1       843 2.30707E+01-4.04278E+00 1.11585E-02 3.18880E+00-2.36246E-13-7.16538E-14
 -1       844 1.94851E+01 8.30391E-01 8.42844E-04 5.30091E-01-2.77141E-14-1.16750E-13
 -1       845 2.65893E+01 6.67331E-01-6.87850E-02-1.93704E+00-1.38337E-13-1.37789E-13
 -1       846 1.17332E+01 1.10595E+00 5.41502E-02 1.16718E+00 1.76926E-13-3.12134E-13
 -1       847 1.30739E+01 1.11233E+00 3.72595E-02-1.79422E+00-6.08168E-14-2.06606E-14
 -1       848 2.03432E+01 6.77765E-01 1.82358E-04-1.49708E-01 7.57928E-15-3.36320E-14
 -1       849 2.03360E+01 4.04753E-01 6.79483E-05-1.79657E-02 1.37319E-14-1.58878E-14
 -1       850 2.03074E+01 2.21152E-01-2.90379E-05 7.07108E-02-2.36742E-14-3.25590E-14
 -1       851 2.02684E+01 1.05257E-01-5.07453E-06 1.26150E-01-4.48954E-14-3.99203E-14
 -1       852 2.02255E+01 3.85868E-02-2.46838E-06 1.58605E-01-6.04878E-14-6.35655E-14
 -1       853 2.01821E+01 8.22614E-03-7.22324E-07 1.77192E-01-6.45538E-14-4.90112E-14
 -1       854 2.01399E+01 4.62610E-03-1.99196E-08 1.89320E-01-7.83175E-14-7.16764E-14
 -1       855 2.00990E+01 2.07226E-02 3.29198E-07 2.00880E-01-7.54073E-14-4.77445E-14
 -1       856 2.00592E+01 5.11188E-02 6.06396E-07 2.16542E-01-7.87810E-14 2.36065E-15
 -1       857 2.00198E+01 9.13518E-02 9.43348E-07 2.40045E-01-8.28084E-14-9.67273E-15
 -1       858 1.99803E+01 1.37147E-01 1.53731E-06 2.74450E-01-8.39774E-14-1.73583E-14
 -1       859 1.99409E+01 1.83638E-01 2.66862E-06 3.22293E-01-1.77100E-13 7.82737E-14
 -1       860 1.99031E+01 2.24538E-01 4.24197E-06 3.85628E-01-1.43748E-13 6.63800E-14
 -1       861 1.98706E+01 2.51261E-01 6.34056E-06 4.65934E-01 3.24911E-14 1.13920E-13
 -1       862 1.98504E+01 2.52064E-01 8.81226E-06 5.63810E-01 1.16137E-13 1.41184E-13
 -1       863 1.98543E+01 2.11379E-01 1.05008E-05 6.78321E-01 1.11152E-13 2.86218E-14
 -1       864 1.99006E+01 1.09695E-01 7.80292E-06 8.05726E-01 5.84378E-14-6.23795E-14
 -1       865 2.00164E+01-7.53267E-02-2.23895E-06 9.37113E-01 1.52937E-13-7.56910E-14
 -1       866 2.02383E+01-3.65012E-01 3.44268E-05 1.05413E+00-3.18635E-15-9.81940E-14
 -1       867 2.06107E+01-7.70690E-01 4.54682E-05 1.12306E+00-1.77367E-14 4.78707E-14
 -1       868 2.11860E+01-1.27878E+00 5.30831E-04 1.08313E+00-2.57794E-14 4.08369E-14
 -1       869 2.19750E+01-1.79294E+00-1.95174E-04 8.38895E-01 7.06568E-14 2.20813E-14
 -1       870 2.29503E+01-2.13148E+00 9.56949E-05 2.92356E-01-3.15449E-14-9.59853E-14
 -1       871 2.39033E+01-1.86914E+00-3.09534E-03-6.14687E-01-1.20335E-13-2.33365E-13
 -1       872 2.45406E+01-7.69809E-01-2.31146E-02-1.63036E+00-1.51289E-13-3.54508E-14
 -1       873 2.44570E+01 1.39535E+00-3.28902E-02-2.05119E+00-2.51331E-13 1.60943E-13
 -1       874 2.45563E+01 5.59744E-01-2.19554E-02 1.96378E+00-2.48959E-14 3.71422E-14
 -1       875 2.43526E+01-1.31326E+00-1.31702E-02 1.21107E+00-5.40528E-14-1.00707E-13
 -1       876 2.36232E+01-2.09818E+00-1.06186E-03 2.29813E-01-1.64118E-13-7.32884E-14
 -1       877 2.26193E+01-2.08198E+00 1.28812E-03-5.60536E-01-7.60810E-14 2.93814E-13
 -1       878 2.17070E+01-1.65412E+00 1.30907E-04-9.95262E-01 3.63373E-14 3.24532E-13
 -1       879 2.09989E+01-1.12184E+00-1.48556E-04-1.15976E+00-1.42889E-13 2.43927E-13
 -1       880 2.05107E+01-6.42745E-01-1.06141E-04-1.15910E+00 9.89990E-14-1.07102E-13
 -1       881 2.02052E+01-2.67119E-01 6.77145E-05-1.07302E+00 3.35565E-13 5.89061E-14
 -1       882 2.00354E+01 2.11537E-03 1.89314E-04-9.49797E-01 5.72684E-13 1.29767E-13
 -1       883 1.99553E+01 1.85706E-01 1.87779E-04-8.16694E-01 5.37617E-13 1.84121E-13
 -1       884 2.01966E+01 4.73764E-02-3.21022E-06-1.67067E-01 3.80544E-14-1.70311E-13
 -1       885 2.00251E+01 9.42110E-02 1.31057E-06-2.49787E-01-4.29159E-14-5.94093E-14
 -1       886 2.00593E+01 4.71932E-02 8.37591E-07-2.28474E-01-1.38449E-14-9.76255E-14
 -1       887 1.99360E+01 2.34454E-01 2.66764E-06-3.27600E-01-6.43077E-14 9.18927E-14
 -1       888 1.98697E+01 3.29789E-01 4.23601E-06-3.88963E-01-4.40665E-14 5.39525E-14
 -1       889 1.97780E+01 4.44372E-01 6.59301E-06-4.67402E-01 6.71945E-15 1.15975E-13
 -1       890 1.96486E+01 5.79939E-01 9.63256E-06-5.63502E-01 1.72471E-14 1.27674E-13
 -1       891 1.94655E+01 7.36882E-01 1.17683E-05-6.77008E-01-1.08972E-13 1.69032E-13
 -1       892 1.92071E+01 9.12292E-01 6.19049E-06-8.07190E-01-1.09344E-13 1.30506E-13
 -1       893 1.88460E+01 1.09678E+00-2.51694E-05-9.54291E-01 4.06264E-14-4.77692E-14
 -1       894 1.83471E+01 1.26958E+00-1.02057E-04-1.12334E+00 1.27610E-14-7.38139E-14
 -1       895 1.76666E+01 1.39122E+00-1.38967E-04-1.33253E+00-3.62012E-14-1.08536E-13
 -1       896 1.67496E+01 1.38992E+00 5.30855E-04-1.63173E+00-6.01229E-14-3.56404E-15
 -1       897 1.55487E+01 1.14392E+00 1.86460E-02-2.12509E+00 1.66425E-16 9.50620E-14
 -1       898 1.83591E+01 1.24231E+00-4.36209E-05 7.70853E-01-1.35398E-13-5.60630E-14
 -1       899 1.88879E+01-2.35465E+00 2.27771E-02 4.28858E+00-7.85279E-14-2.39348E-13
 -1       900 1.36761E+01 1.23585E+00 3.81991E-02 1.56316E+00-1.65499E-13 2.48947E-13
 -1       901 1.67130E+01 1.49745E+00 7.00686E-04 9.15994E-01-1.67910E-14 6.05809E-14
 -1       902 1.53864E+01 1.48761E+00 6.09819E-03 1.06188E+00 9.79962E-14 9.07804E-14
 -1       903 1.88705E+01 1.07848E+00 5.46821E-05 6.98333E-01-2.76179E-13-3.20668E-14
 -1       904 1.92930E+01 6.85113E-01 5.57463E-05-5.03388E-01-1.33923E-13-5.30436E-13
 -1       905 2.01434E+01 1.89630E+00-5.84765E-04-1.92101E-01 5.12554E-15-9.80402E-14
 -1       906 1.99856E+01 1.56423E-01 1.91445E-06-2.81910E-01-4.55873E-14-6.68014E-15
 -1       907 2.03002E+01 8.26848E-01-6.34559E-04 3.44219E-01 4.49589E-14-1.10963E-13
 -1       908 2.01592E+01 1.09454E-02-1.81655E-06-1.90084E-01 2.87687E-14-1.30627E-13
 -1       909 2.03147E+01 1.06527E+00 1.73286E-04-3.21334E-01-1.07851E-14-3.22763E-14
 -1       910 2.48676E+01-2.96210E+00-1.48045E-02-3.16907E-01 3.56568E-14 3.20902E-13
 -1       911 1.76638E+01 1.39506E+00-2.90523E-04 8.35088E-01 8.13768E-14-5.21644E-14
 -1       912 1.48285E+01-1.57742E-01 2.72374E-02 3.58542E+00 2.17013E-14-2.37543E-13
 -1       913 1.25555E+01 8.35180E-01 4.69196E-02-2.00236E+00-1.15838E-13 2.96468E-13
 -1       914 2.05745E+01-3.02599E+00 1.77673E-02-3.85690E+00 7.09094E-14 4.57292E-13
 -1       915 2.37996E+01-3.25978E+00 7.93713E-03-1.43530E+00 1.26387E-13 3.92120E-13
 -1       916 2.02359E+01 1.21202E-01 4.58990E-06-1.25637E-01 1.17445E-14-1.67260E-13
 -1       917 1.92829E+01 9.12886E-01-8.99679E-05 5.87545E-01 5.24487E-14 1.56151E-14
 -1       918 2.00916E+01 1.59599E-02-1.32876E-06-2.14521E-01-3.77327E-14-1.26770E-13
 -1       919 1.42244E+01 8.46598E-01 1.93758E-02 2.18026E+00 4.69503E-14-3.39337E-13
 -1       920 2.02821E+01 1.41413E+00 4.14088E-05 6.87709E-02 4.02878E-14-1.02699E-13
 -1       921 1.55004E+01-1.18397E+00 4.50263E-02-4.50286E+00-9.72018E-14-5.20238E-13
 -1       922 1.89939E+01 9.88177E-01 7.73061E-05 2.52782E-01 1.69100E-13-3.18848E-14
 -1       923 2.02952E+01 1.34379E+00 1.01956E-04 1.99809E-01 3.62338E-14-1.14126E-13
 -1       924 1.91109E+01 8.43873E-01-1.62956E-04-2.40185E-01 1.15911E-13-1.71013E-13
 -1       925 2.08225E+01-2.93515E+00 6.00802E-03 3.51135E+00-1.57391E-13-1.11879E-13
 -1       926 2.01244E+01 2.56662E-03-2.34482E-06-2.03557E-01-5.33887E-15-1.00319E-13
 -1       927 1.95351E+01 5.08002E-01 3.55209E-05-6.70462E-01-2.25644E-14-3.44130E-13
 -1       928 2.60739E+01-1.15813E+00 4.12596E-04-1.30844E+00-8.26999E-14-1.27093E-13
 -1       929 2.03011E+01 4.42542E-01 7.62192E-05 6.21315E-02 2.72748E-14-1.29946E-13
 -1       930 2.45475E+01-3.59623E+00-6.07025E-03 1.39407E+00-3.16488E-13 5.45271E-14
 -1       931 2.03079E+01 1.23157E+00 2.12161E-04-2.38767E-01 2.14615E-15 6.72558E-15
 -1       932 1.97327E+01 3.41880E-01-8.68268E-05-7.77971E-01 4.93800E-13 1.42799E-13
 -1       933 2.02744E+01 2.45579E-01 2.31404E-05-5.49456E-02 1.95674E-14-1.60379E-13
 -1       934 2.03839E+01 3.73764E-01 1.93886E-05 1.13131E-02-3.04041E-14-6.68559E-14
 -1       935 2.03572E+01 2.00193E-01-3.31612E-05 6.91701E-02-4.86325E-14-6.48880E-14
 -1       936 2.03152E+01 9.30228E-02-5.05236E-06 1.05438E-01-3.12701E-14-4.07041E-14
 -1       937 2.02652E+01 3.50455E-02-1.11795E-06 1.27330E-01-5.71711E-14-1.54545E-14
 -1       938 2.02114E+01 1.39911E-02-3.03667E-07 1.41210E-01-4.10257E-14 8.10748E-15
 -1       939 2.01556E+01 2.05737E-02-4.20923E-07 1.52366E-01-4.62082E-14 7.86010E-14
 -1       940 2.00983E+01 4.77985E-02-2.51670E-07 1.65232E-01-4.05999E-16 1.66570E-13
 -1       941 2.00391E+01 9.01691E-02-1.78529E-06 1.83532E-01-6.06599E-14 1.99309E-13
 -1       942 1.99770E+01 1.43021E-01-4.26036E-06 2.10634E-01-9.39746E-14 2.00666E-13
 -1       943 1.99111E+01 2.01641E-01-6.01459E-06 2.49766E-01-9.66988E-14 2.08962E-13
 -1       944 1.98410E+01 2.60439E-01-7.90899E-06 3.04248E-01-1.24257E-13 1.25772E-13
 -1       945 1.97681E+01 3.11988E-01-9.78341E-06 3.77681E-01 1.31889E-14 1.21800E-13
 -1       946 1.96961E+01 3.45997E-01-1.14135E-05 4.74032E-01 9.37962E-14 1.24145E-13
 -1       947 1.96327E+01 3.48240E-01-1.32492E-05 5.97535E-01 2.84833E-14 4.06390E-14
 -1       948 1.95919E+01 2.99579E-01-1.89382E-05 7.52187E-01 8.97630E-14 4.56531E-14
 -1       949 1.95962E+01 1.75348E-01-4.09500E-05 9.40404E-01 4.58010E-14-4.68730E-14
 -1       950 1.96808E+01-5.44280E-02-9.47162E-05 1.16008E+00 1.08257E-13-4.18174E-14
 -1       951 1.98985E+01-4.22282E-01 1.60350E-04 1.39719E+00 8.97979E-14 4.26346E-14
 -1       952 2.03145E+01-9.46751E-01 7.49824E-04 1.61400E+00-7.44039E-15 3.78640E-14
 -1       953 2.10371E+01-1.65561E+00-7.51021E-03 1.74011E+00 9.52918E-14 6.27599E-14
 -1       954 2.21905E+01-2.43325E+00-3.19311E-03 1.61353E+00-1.11826E-13 9.08823E-14
 -1       955 2.17464E+01-2.17414E+00 1.14580E-03-1.71331E+00-4.75433E-14 6.91845E-13
 -1       956 2.07992E+01-1.42512E+00-7.03812E-04-1.74951E+00-2.42394E-13 4.98731E-13
 -1       957 2.02074E+01-7.82442E-01-4.00193E-04-1.58513E+00 5.49605E-14 6.16720E-13
 -1       958 1.98801E+01-3.01798E-01 1.44278E-04-1.35861E+00 1.88367E-13 6.13036E-13
 -1       959 1.97324E+01 2.90576E-02 2.01714E-04-1.12598E+00 3.38445E-13 4.00068E-13
 -1       960 1.97098E+01 2.17906E-01 1.86734E-04-9.38057E-01 5.38484E-13 1.55133E-13
 -1       961 1.95532E+01 5.74593E-01-1.81526E-05-3.77953E-01-6.30308E-14 1.00095E-14
 -1       962 2.00517E+01 8.54404E-02-3.87599E-07-1.97852E-01-1.82882E-14-1.41823E-13
 -1       963 1.97088E+01 4.39828E-01-1.33165E-05-3.26972E-01-2.28377E-14-5.44024E-14
 -1       964 1.98263E+01 3.24378E-01-9.36335E-06-2.82342E-01-7.18942E-14-7.49608E-14
 -1       965 1.93441E+01 7.28760E-01-2.55132E-05-4.31728E-01-5.67649E-14 1.46428E-13
 -1       966 1.90613E+01 9.00424E-01-3.99548E-05-4.82871E-01 4.40155E-14 2.96330E-14
 -1       967 1.86776E+01 1.08400E+00-7.09135E-05-5.24466E-01-1.62939E-14-8.12347E-14
 -1       968 1.81559E+01 1.26798E+00-1.21038E-04-5.49602E-01 1.49543E-14 7.17232E-14
 -1       969 1.74430E+01 1.43240E+00-1.17566E-04-5.54913E-01-1.07369E-13 3.75913E-14
 -1       970 1.64582E+01 1.54455E+00 3.34062E-04-5.49580E-01-5.14513E-14 2.46130E-14
 -1       971 1.50466E+01 1.56272E+00 9.45260E-03-5.58943E-01-8.64497E-14-1.44749E-13
 -1       972 2.02811E+01 1.41454E+00-1.21551E-04-6.43701E-02 1.77045E-15-1.14140E-13
 -1       973 1.40701E+01 1.41569E+00 1.83582E-02-3.82384E-01-6.60279E-16 1.85895E-14
 -1       974 1.57569E+01 1.48266E+00 4.73761E-03-1.04535E-01 1.82107E-14 1.39451E-13
 -1       975 2.02946E+01 1.34167E+00 1.37893E-04-1.59146E-01 1.75847E-14-9.14018E-14
 -1       976 1.69374E+01 1.41935E+00 2.09456E-04 9.83679E-02-2.52253E-15 1.96515E-13
 -1       977 1.35883E+01 1.48620E+00 1.56912E-02-6.15736E-02-8.80303E-14-1.91002E-13
 -1       978 2.03260E+01 1.03220E+00 1.61617E-04 2.89203E-01 5.15412E-14-9.36313E-14
 -1       979 1.84147E+01 1.16032E+00-7.69412E-04 2.71923E-01-7.05335E-14 4.61741E-13
 -1       980 2.03103E+01 6.70415E-01-3.73859E-04 2.06445E-01 3.60578E-14-1.05025E-13
 -1       981 2.03733E+01 8.11003E-01 1.51682E-05-1.22531E-01-7.50869E-15-1.10896E-14
 -1       982 1.75781E+01-8.14772E-01 8.94780E-03 3.34341E+00-4.49489E-15-1.85906E-13
 -1       983 2.03896E+01 5.63359E-01-6.64124E-05-4.87220E-02-1.16899E-15-3.80363E-14
 -1       984 1.77782E+01 1.29544E+00-6.73685E-04 1.74449E-01-1.18446E-13 4.53640E-13
 -1       985 2.02077E+01 1.55844E-02 1.64053E-06-1.60853E-01 1.42426E-14-1.02641E-13
 -1       986 2.03622E+01 4.38231E-01 1.51439E-04 2.13681E-02 2.38908E-14-1.11742E-13
 -1       987 2.02559E+01 4.50003E-02-4.13543E-06-1.43298E-01 1.82686E-14-1.45393E-13
 -1       988 1.84818E+01-1.93895E+00 1.74602E-02-4.05249E+00 1.16174E-13-1.97060E-13
 -1       989 2.03012E+01 1.13680E-01-1.67771E-05-1.13499E-01 2.32191E-14-1.59097E-13
 -1       990 2.35633E+01-2.89045E+00-6.45440E-03 1.02996E+00-1.38309E-13 4.95162E-14
 -1       991 2.03730E+01 9.82125E-01-6.35105E-04 7.90399E-02 7.86115E-14-9.61404E-14
 -1       992 1.99171E+01 2.27338E-01-5.53693E-06-2.45889E-01-1.28610E-13-2.92037E-15
 -1       993 2.30574E+01-2.80934E+00-4.63882E-03-1.30629E+00 1.39899E-13 4.88058E-13
 -1       994 1.99901E+01 1.47804E-01-6.71481E-07-2.17996E-01-1.97163E-14-6.57311E-14
 -1       995 2.01066E+01 4.08218E-02-8.42504E-06-1.83650E-01-6.12000E-14-1.66386E-13
 -1       996 1.65265E+01 1.29290E-01 1.04073E-02 2.70339E+00 9.10752E-15-2.20384E-13
 -1       997 2.03744E+01 1.00930E+00-1.10537E-05 1.51801E-03 4.57569E-14-6.17249E-14
 -1       998 1.89476E+01 7.64748E-01 3.31688E-04-5.51534E-01-1.47200E-13-7.82784E-13
 -1       999 2.24904E+01-3.16956E+00 1.77293E-02 2.42547E+00-3.48714E-14 8.43895E-14
 -1      1000 1.43595E+01 1.31659E-01 3.15151E-02-3.17959E+00-7.53100E-14-1.22862E-13
 -1      1001 2.01580E+01 1.62960E-02 2.15897E-07-1.72594E-01-1.09723E-15-6.88884E-14
 -1      1002 1.85927E+01 9.96310E-01 1.56602E-04-2.17817E-01 7.82791E-14-1.73888E-13
 -1      1003 2.03395E+01 2.34023E-01-2.71205E-05-6.34902E-02 2.53055E-14-1.58140E-13
 -1      1004 1.91277E+01-1.59109E+00 8.37967E-03 3.29334E+00 1.82808E-14-1.67234E-13
 -1      1005 2.03639E+01 6.87235E-01 7.84878E-05 1.37459E-01 5.24695E-14-1.11127E-13
 -1      1006 1.92634E+01 5.37163E-01 3.71228E-04-7.78929E-01 1.37799E-13-4.01713E-14
 -1      1007 2.16042E+01-2.90627E+00 5.80639E-03-2.85619E+00 2.44185E-13 5.27348E-13
 -1      1008 1.99271E+01-2.15172E+00 1.05927E-02-3.33136E+00 2.35160E-13 4.42262E-13
 -1      1009 2.03807E+01 1.65649E-01-4.69518E-05 5.33150E-02-2.62685E-15 1.39067E-15
 -1      1010 2.03327E+01 7.47645E-02-2.53044E-05 7.26618E-02-2.13921E-14-1.95645E-14
 -1      1011 2.02752E+01 3.09104E-02-1.63192E-05 8.49430E-02-1.15234E-14-2.98657E-15
 -1      1012 2.02118E+01 2.28559E-02-1.51538E-05 9.40085E-02-9.95415E-15 5.71497E-14
 -1      1013 2.01444E+01 4.20979E-02 1.73267E-06 1.03175E-01 1.14269E-14 1.33525E-13
 -1      1014 2.00729E+01 8.18158E-02-8.30938E-06 1.15524E-01-5.91416E-14 8.25609E-14
 -1      1015 1.99962E+01 1.37177E-01-1.72752E-05 1.33953E-01-5.44208E-14 6.94754E-14
 -1      1016 1.99127E+01 2.03558E-01-2.09080E-05 1.61588E-01-8.87470E-14 1.12990E-13
 -1      1017 1.98203E+01 2.76272E-01-2.54357E-05 2.02043E-01-1.50825E-13 1.27358E-13
 -1      1018 1.97177E+01 3.49516E-01-2.97696E-05 2.59793E-01-8.31934E-14 1.82858E-13
 -1      1019 1.96050E+01 4.15345E-01-3.28016E-05 3.40534E-01 4.85503E-14 1.53856E-13
 -1      1020 1.94844E+01 4.62519E-01-3.37607E-05 4.51548E-01-4.62696E-14 7.74614E-14
 -1      1021 1.93623E+01 4.75192E-01-3.56853E-05 6.01960E-01-3.93833E-15 6.07745E-14
 -1      1022 1.92517E+01 4.31451E-01-5.85966E-05 8.02666E-01 3.01535E-14-2.53537E-14
 -1      1023 1.91754E+01 3.01816E-01-1.56037E-04 1.06533E+00 1.00287E-13-1.34384E-13
 -1      1024 1.91711E+01 4.83031E-02-6.09994E-04 1.40027E+00 1.36850E-13-4.50428E-14
 -1      1025 1.93083E+01-3.84268E-01-1.03211E-03 1.81076E+00 1.26396E-14 1.03050E-13
 -1      1026 1.97297E+01-1.03514E+00 6.30134E-03 2.27007E+00 1.03546E-13 9.30957E-14
 -1      1027 1.47646E+01 1.06584E+00 9.43712E-03-1.52437E+00 3.45792E-14 1.62339E-13
 -1      1028 2.03809E+01 8.99722E-01-3.63305E-05-8.74370E-02-3.93980E-15-6.41292E-14
 -1      1029 1.95994E+01-8.08444E-01 1.65763E-04-2.11474E+00-1.57597E-13 8.12098E-13
 -1      1030 1.93213E+01-2.40506E-01 1.18868E-04-1.69052E+00 2.08823E-14 4.46732E-13
 -1      1031 1.92655E+01 1.30353E-01-1.48410E-04-1.30462E+00 2.58764E-13 6.14928E-13
 -1      1032 1.95472E+01 5.32014E-01-5.66284E-05-2.05393E-01-1.21250E-13 1.53238E-14
 -1      1033 1.93426E+01 6.72662E-01-7.42721E-05-2.11767E-01-6.76721E-14 1.47216E-14
 -1      1034 1.97061E+01 4.06287E-01-4.27706E-05-1.91025E-01-5.61463E-14-1.18227E-13
 -1      1035 1.87283E+01 9.84219E-01-1.26958E-04-1.63076E-01 7.44531E-14-1.99219E-14
 -1      1036 1.82701E+01 1.13946E+00-1.36230E-04-8.03721E-02-7.46233E-15-1.51395E-13
 -1      1037 1.76623E+01 1.27526E+00-6.18464E-06 6.60673E-02-5.32963E-14-1.37604E-13
 -1      1038 1.68482E+01 1.36786E+00 1.22298E-03 3.01942E-01-1.62066E-13-1.23876E-13
 -1      1039 1.57071E+01 1.38635E+00 3.19135E-03 6.68673E-01 6.76024E-14-9.44884E-14
 -1      1040 1.66557E+01 1.13337E+00-1.24627E-03-9.43565E-01 5.15531E-14-2.32832E-13
 -1      1041 2.04030E+01 3.90991E-01-1.27875E-04-9.37335E-03 5.17203E-14-1.50521E-13
 -1      1042 1.90765E+01 8.25311E-01-9.78374E-05-2.01635E-01 2.81592E-14-1.55048E-13
 -1      1043 1.75191E+01 1.12431E+00-6.21805E-04-5.94813E-01-3.25384E-13-1.57991E-13
 -1      1044 2.02572E+01-1.71854E+00 2.40787E-03-2.60220E+00-6.37498E-14 6.32391E-13
 -1      1045 2.02823E+01 4.00826E-02 4.68202E-05-1.07791E-01-1.71985E-14-1.17542E-13
 -1      1046 1.94792E+01 3.73413E-01 5.60064E-04-8.85624E-01 4.19597E-13 2.81463E-13
 -1      1047 2.04119E+01 3.20186E-01 7.16036E-05 2.31493E-02-2.98838E-14-4.99342E-14
 -1      1048 1.81189E+01 1.07074E+00 1.17883E-04-3.72390E-01-2.47175E-13-1.60666E-13
 -1      1049 1.49203E+01 1.19618E+00 9.37558E-03 1.36000E+00-8.61472E-14-1.90323E-13
 -1      1050 2.03350E+01 9.75927E-02 8.73335E-05-8.98260E-02 2.64975E-14-1.40312E-13
 -1      1051 2.02237E+01 2.16658E-02-1.45747E-05-1.18941E-01-2.25589E-14-7.07058E-14
 -1      1052 2.00189E+01 1.28218E-01-3.08606E-06-1.45636E-01-7.72052E-14 1.05479E-15
 -1      1053 1.98317E+01 2.96739E-01-3.13388E-05-1.74319E-01-6.15277E-14-5.09827E-14
 -1      1054 1.93658E+01 2.77015E-01-5.27781E-04-1.06758E+00 2.58587E-13 5.79058E-13
 -1      1055 1.68176E+01-7.23532E-01 4.15811E-03-3.56034E+00-7.72269E-14-7.76034E-13
 -1      1056 2.00934E+01 7.10567E-02-2.99659E-05-1.35620E-01-1.88296E-14-9.12054E-15
 -1      1057 2.04202E+01 6.85219E-01 1.50645E-04 1.70511E-02 8.22698E-14-5.47819E-15
 -1      1058 2.03796E+01 9.65894E-01 2.03209E-04-4.71636E-02 1.21990E-14-1.11554E-13
 -1      1059 2.04095E+01 6.38724E-01 3.56776E-04-4.05244E-02-3.05733E-14-6.56953E-14
 -1      1060 1.86218E+01 7.60200E-01 2.78892E-04-7.66918E-01 1.99207E-14-5.48762E-13
 -1      1061 2.03777E+01 2.05468E-01 6.73469E-05-6.01964E-02 8.13408E-15-1.38878E-13
 -1      1062 2.04181E+01 4.58230E-01-3.68678E-04-5.10574E-03-5.29430E-14-7.85768E-14
 -1      1063 1.82952E+01-5.92442E-01 3.35854E-03 2.70423E+00-3.95682E-14-1.02285E-13
 -1      1064 2.03801E+01 1.26087E-01 1.72671E-04 2.25619E-02-3.14913E-14 4.49405E-14
 -1      1065 2.04127E+01 5.79197E-01 3.11820E-04 3.66287E-02 7.38109E-14-1.29515E-13
 -1      1066 1.83806E+01-1.16003E+00 4.95245E-03-3.28009E+00 3.03342E-14-1.64570E-13
 -1      1067 2.03255E+01 5.61430E-02 1.12161E-04 2.82176E-02-1.34312E-14 2.54262E-14
 -1      1068 2.02612E+01 2.93131E-02 2.38754E-05 3.26030E-02 2.05081E-14 1.97756E-14
 -1      1069 2.01897E+01 3.60774E-02-5.15140E-05 3.71454E-02 3.54225E-14-3.31161E-14
 -1      1070 2.01136E+01 6.85114E-02 8.96272E-05 4.32952E-02-2.90989E-14-5.44742E-14
 -1      1071 2.00303E+01 1.21663E-01 3.29619E-05 5.29679E-02-3.50461E-14 3.30360E-14
 -1      1072 1.99384E+01 1.90295E-01 2.77395E-05 6.83608E-02-2.39476E-14-2.89968E-14
 -1      1073 1.98347E+01 2.70834E-01 3.64701E-05 9.25291E-02-9.70614E-14 3.58337E-14
 -1      1074 1.97157E+01 3.59103E-01 5.19896E-05 1.29631E-01-7.82562E-14 4.18501E-14
 -1      1075 1.95780E+01 4.49716E-01 7.86492E-05 1.85482E-01-9.90970E-15 3.87145E-14
 -1      1076 1.94189E+01 5.35031E-01 1.22587E-04 2.68139E-01-3.20397E-14-2.56697E-14
 -1      1077 1.92370E+01 6.03914E-01 1.90680E-04 3.88609E-01 7.68748E-14 7.71708E-14
 -1      1078 1.90339E+01 6.40238E-01 2.82301E-04 5.61640E-01 8.17354E-14 2.07699E-13
 -1      1079 1.88160E+01 6.20909E-01 3.53620E-04 8.06555E-01 1.08098E-14 1.96954E-13
 -1      1080 1.85992E+01 5.12524E-01 1.30871E-04 1.14821E+00 6.33035E-14 1.10152E-13
 -1      1081 1.84247E+01 2.69860E-01-4.47635E-04 1.60771E+00 1.57625E-13-1.07842E-13
 -1      1082 1.83011E+01-7.35654E-02-1.64834E-03 2.09827E+00 9.16523E-14 2.23458E-14
 -1      1083 1.99335E+01 2.03884E-01-2.14917E-05-1.58646E-01-5.45721E-14 3.41690E-14
 -1      1084 1.84273E+01-1.55917E-02 2.51419E-04-1.98578E+00-3.37074E-13 7.45487E-14
 -1      1085 1.89001E+01 8.39995E-01-2.62661E-04 1.08597E-01 2.35846E-14 1.04986E-13
 -1      1086 2.04195E+01 2.52280E-01-5.64357E-05 1.39776E-02-2.21281E-14 8.69963E-14
 -1      1087 1.85906E+01 3.40452E-01 5.21821E-04-1.42843E+00 1.06416E-13 1.80040E-14
 -1      1088 1.94144E+01 5.88703E-01-9.68386E-05-3.04988E-02-4.31482E-14 4.93399E-14
 -1      1089 2.04330E+01 4.82837E-01 1.27681E-05 3.94155E-03 5.94389E-14-1.49082E-14
 -1      1090 1.95978E+01 4.66737E-01-5.60317E-05-5.71654E-02-1.39969E-13 1.11238E-13
 -1      1091 1.80921E+01 1.02652E+00-4.84044E-04 4.80324E-01-7.59376E-14 4.38278E-14
 -1      1092 1.85418E+01 9.49605E-01-3.97010E-04 2.53378E-01 7.35136E-14 1.85713E-14
 -1      1093 1.68144E+01 9.63226E-01 2.49509E-03 1.32645E+00 2.72261E-14-2.25189E-13
 -1      1094 1.65367E+01 6.43349E-01-2.37619E-03 1.95726E+00 7.47096E-15-3.18251E-13
 -1      1095 2.01611E+01 3.44373E-02 2.31419E-05-1.27356E-01-3.35107E-14-2.73530E-14
 -1      1096 2.04199E+01 2.64660E-01 1.17066E-04-1.98958E-02 2.81402E-15 1.75738E-14
 -1      1097 2.04265E+01 6.63251E-01 4.14493E-04-4.79542E-03 2.36441E-14-4.78787E-14
 -1      1098 1.67467E+01 4.46981E-01 6.18466E-03-2.17317E+00 2.18595E-13-3.81022E-13
 -1      1099 1.91859E+01 7.15693E-01-1.62171E-04 2.02378E-02 9.42829E-14 1.08451E-13
 -1      1100 1.75251E+01 1.04607E+00 1.24156E-04 8.25547E-01-7.93975E-14 2.42446E-14
 -1      1101 1.76712E+01 6.83315E-01-1.52968E-03-1.39251E+00-7.87575E-14 7.02306E-14
 -1      1102 2.04331E+01 3.70191E-01-2.92739E-04 5.56880E-03 1.28114E-15 7.29177E-14
 -1      1103 1.91131E+01 3.75926E-01 2.52058E-04-1.09460E+00 2.12013E-13 1.90837E-13
 -1      1104 1.82014E+01 7.42525E-01-5.08898E-04-1.03027E+00-1.07275E-13-1.52590E-13
 -1      1105 1.97464E+01 3.54574E-01-3.11286E-05-6.92732E-02-2.95389E-14 7.03994E-14
 -1      1106 2.00610E+01 1.03050E-01-2.50614E-05-7.09870E-02-1.56693E-14 7.02027E-15
 -1      1107 1.99717E+01 1.70703E-01-9.54203E-06-7.31377E-02-1.07763E-13 1.81075E-14
 -1      1108 1.74947E+01 2.52543E-01 3.22327E-03 2.08405E+00 6.68441E-14-1.15379E-13
 -1      1109 2.03817E+01 1.32259E-01-1.44970E-04-3.30930E-02-3.11972E-15 6.03842E-14
 -1      1110 2.04211E+01 6.58159E-01 4.81230E-04-2.37368E-02-2.84759E-14-7.29561E-14
 -1      1111 2.02816E+01 3.44807E-02-6.15724E-05-6.04419E-02-5.64736E-14 6.40205E-14
 -1      1112 2.03350E+01 6.69714E-02-1.86380E-04-4.72317E-02-4.31651E-14 7.95933E-14
 -1      1113 2.01520E+01 5.25418E-02-1.38682E-05-2.77896E-02 3.63576E-14 1.64939E-15
 -1      1114 2.02147E+01 3.02206E-02 3.73821E-05-6.56025E-02-4.17171E-14 6.96996E-14
 -1      1115 1.98686E+01 2.55192E-01-1.67765E-05-7.32375E-02 2.58174E-14 7.83084E-14
 -1      1116 2.79553E+01 9.08408E+00 2.32480E+00-6.69796E+00-1.16018E-14 5.08094E-13
 -1      1117 2.05420E+01 6.22548E+00 2.09542E-01-3.90524E+00-6.16174E-15 1.41158E-13
 -1      1118 1.94312E+01 5.85195E+00 7.52357E-02-2.88972E+00-6.23113E-15-3.40544E-14
 -1      1119 1.90253E+01 5.72574E+00 6.04229E-02-2.23709E+00-4.19803E-15-1.19058E-13
 -1      1120 1.88412E+01 5.66965E+00 5.76217E-02-1.70336E+00-2.29504E-15-1.76082E-13
 -1      1121 1.87494E+01 5.64151E+00 5.56212E-02-1.23563E+00-1.29497E-15-1.98935E-13
 -1      1122 1.87017E+01 5.62666E+00 5.38718E-02-8.05433E-01-1.28283E-15-2.11546E-13
 -1      1123 1.86785E+01 5.61935E+00 5.26605E-02-3.93437E-01-9.81853E-16-2.24826E-13
 -1      1124 1.86719E+01 5.61726E+00 5.22729E-02 8.44224E-03-4.66966E-16-2.28710E-13
 -1      1125 1.86796E+01 5.61971E+00 5.27830E-02 4.10732E-01 2.45463E-16-2.37601E-13
 -1      1126 1.87039E+01 5.62742E+00 5.41635E-02 8.24104E-01 1.28977E-15-2.39791E-13
 -1      1127 1.87532E+01 5.64288E+00 5.63548E-02 1.25700E+00 1.72692E-15-2.28281E-13
 -1      1128 1.88466E+01 5.67155E+00 5.85332E-02 1.72917E+00 2.85535E-15-2.09721E-13
 -1      1129 1.90308E+01 5.72737E+00 6.04271E-02 2.27040E+00 3.02536E-15-1.73477E-13
 -1      1130 1.94279E+01 5.84913E+00 6.91477E-02 2.93041E+00 5.78704E-15-9.92192E-14
 -1      1131 2.04480E+01 6.18032E+00 1.53070E-01 3.87982E+00 5.93969E-15 7.35904E-14
 -1      1132 2.52097E+01 7.99192E+00 1.42996E+00 5.84641E+00 1.36557E-14 4.50445E-13
 -1      1133 2.88039E+01 3.61580E+00 1.27125E+00-4.21681E+00-4.79616E-14 7.42517E-13
 -1      1134 2.02178E+01-1.77713E-01-6.16251E-01-1.10067E-01-1.04222E-14 6.24389E-13
 -1      1135 1.88220E+01-9.63572E-02-2.36349E-01 6.24484E-02-1.38778E-17 4.69997E-13
 -1      1136 1.84865E+01-4.80739E-02-5.95976E-02 4.04215E-02-3.17281E-15 3.64007E-13
 -1      1137 1.84299E+01-2.46677E-02-1.52405E-02 2.66875E-02-2.33385E-15 2.48301E-13
 -1      1138 1.85103E+01-1.31309E-02-5.04460E-03 1.89451E-02-8.21435E-15 2.09742E-13
 -1      1139 1.86563E+01-6.73976E-03-1.58591E-03 1.39747E-02 1.47202E-14 1.50976E-13
 -1      1140 1.88288E+01-3.05051E-03 3.68157E-04 1.05181E-02 8.51245E-15 2.05993E-13
 -1      1141 1.90058E+01-9.29356E-04 1.56191E-03 7.96079E-03-7.64086E-15 1.32592E-13
 -1      1142 1.91755E+01 2.14653E-04 2.13476E-03 5.99945E-03-7.47582E-15 3.30291E-14
 -1      1143 1.93323E+01 7.15804E-04 2.21140E-03 4.47784E-03-1.44395E-16-2.11636E-16
 -1      1144 1.94749E+01 7.77409E-04 1.91453E-03 3.30989E-03-8.31657E-15-3.18443E-14
 -1      1145 1.96050E+01 5.31324E-04 1.34275E-03 2.44610E-03-4.48896E-15-1.38306E-13
 -1      1146 1.97263E+01 6.93900E-05 5.70033E-04 1.85918E-03 1.41770E-14-7.88755E-14
 -1      1147 1.98440E+01-5.36906E-04-3.43999E-04 1.53770E-03-1.05711E-14-1.23985E-14
 -1      1148 1.99645E+01-1.22109E-03-1.33995E-03 1.48222E-03-2.68554E-14-1.47177E-13
 -1      1149 2.00947E+01-1.90719E-03-2.34160E-03 1.70104E-03-5.91486E-15-2.30738E-13
 -1      1150 2.02414E+01-2.49465E-03-3.23540E-03 2.20298E-03 1.08611E-14-2.03435E-13
 -1      1151 2.04108E+01-2.84263E-03-3.84633E-03 2.98463E-03-9.46083E-15-2.53090E-13
 -1      1152 2.06069E+01-2.75613E-03-3.91261E-03 4.00872E-03-2.43143E-14-2.30189E-13
 -1      1153 2.08299E+01-1.97961E-03-3.06686E-03 5.17043E-03-9.85814E-15-1.44137E-13
 -1      1154 2.10736E+01-2.09708E-04-8.41352E-04 6.25002E-03-6.57292E-15 1.17378E-13
 -1      1155 2.13222E+01 2.85350E-03 3.26964E-03 6.85624E-03-2.93945E-14 2.90124E-14
 -1      1156 2.15469E+01 7.38981E-03 9.64024E-03 6.37985E-03-4.87188E-14-2.09211E-13
 -1      1157 2.17035E+01 1.32515E-02 1.81845E-02 4.00322E-03 2.54918E-14-3.76742E-13
 -1      1158 2.17331E+01 1.96732E-02 2.78678E-02-1.15381E-03 1.37986E-14-4.10446E-13
 -1      1159 2.15692E+01 2.49902E-02 3.62110E-02-9.65913E-03 3.14748E-14-7.00412E-14
 -1      1160 2.11545E+01 2.66105E-02 3.91857E-02-2.11303E-02-2.13351E-14-8.83044E-14
 -1      1161 2.04688E+01 2.15870E-02 3.21460E-02-3.35118E-02-4.72517E-15-1.21396E-13
 -1      1162 1.95604E+01 8.13365E-03 1.22711E-02-4.28060E-02 1.18618E-14-3.14845E-13
 -1      1163 1.85665E+01-1.22847E-02-1.81811E-02-4.40734E-02-6.42828E-14-1.88058E-13
 -1      1164 1.76981E+01-3.38249E-02-5.03220E-02-3.39475E-02 5.26905E-14-7.79793E-14
 -1      1165 1.71783E+01-4.80622E-02-7.15175E-02-1.34002E-02-1.86114E-14-2.63185E-13
 -1      1166 1.71551E+01-4.85682E-02-7.22240E-02 1.15979E-02-1.77354E-14-5.47191E-13
 -1      1167 1.76339E+01-3.50631E-02-5.20685E-02 3.27230E-02 3.90009E-14-3.82173E-13
 -1      1168 1.84747E+01-1.36433E-02-2.01195E-02 4.36722E-02 1.08333E-14-6.71199E-14
 -1      1169 1.94556E+01 7.18571E-03 1.09113E-02 4.30887E-02 7.21637E-14-2.84509E-13
 -1      1170 2.03612E+01 2.13234E-02 3.17576E-02 3.41107E-02 2.50451E-14-1.55379E-13
 -1      1171 2.10471E+01 2.70019E-02 3.97458E-02 2.16530E-02-1.99216E-14-1.52323E-13
 -1      1172 2.14578E+01 2.58092E-02 3.74130E-02 9.82916E-03 7.20084E-15-2.53407E-13
 -1      1173 2.16091E+01 2.06486E-02 2.93364E-02 8.44928E-04 4.24899E-15-3.13283E-13
 -1      1174 2.15565E+01 1.41483E-02 1.95996E-02-4.81636E-03-3.88335E-14-4.95764E-13
 -1      1175 2.13671E+01 8.00173E-03 1.07319E-02-7.67505E-03 1.87766E-14-7.53865E-13
 -1      1176 2.11021E+01 2.96478E-03 3.73989E-03-8.58027E-03 3.60526E-14-5.59307E-13
 -1      1177 2.08103E+01-8.65963E-04-1.42411E-03-8.28898E-03-3.47142E-14-7.34298E-13
 -1      1178 2.05277E+01-3.74335E-03-5.37593E-03-7.26208E-03 3.14090E-14-1.87978E-13
 -1      1179 2.02812E+01-6.00743E-03-8.83633E-03-5.55493E-03 5.21455E-14 1.44001E-13
 -1      1180 2.00947E+01-7.69106E-03-1.16705E-02-2.60936E-03-4.67261E-14 2.36425E-13
 -1      1181 1.99946E+01-9.22358E-03-9.96752E-03 3.03273E-03-2.31273E-14 3.43491E-13
 -1      1182 1.99879E+01 4.22923E-03 8.72286E-03 4.19115E-03 8.14267E-14 2.91784E-13
 -1      1183 2.77839E+01 5.25655E-01 3.77244E-01 1.96647E+00-1.02279E-14 7.65832E-13
 -1      1184 2.00752E+01-6.62187E-02-5.73549E-01 1.29535E-01 1.24518E-14 5.54390E-13
 -1      1185 1.88964E+01-4.05964E-02-1.93217E-01 1.94613E-02 4.18502E-15 3.74548E-13
 -1      1186 1.85151E+01-2.14197E-02-5.05489E-02 1.51229E-03 3.95734E-15 2.57922E-13
 -1      1187 1.84422E+01-1.24259E-02-1.34054E-02-4.00205E-03 3.85347E-15 1.81993E-13
 -1      1188 1.85161E+01-7.44746E-03-4.68232E-03-5.42354E-03 1.21664E-14 7.67719E-14
 -1      1189 1.86587E+01-4.41098E-03-1.99152E-03-5.56470E-03-2.14927E-15 8.54612E-14
 -1      1190 1.88289E+01-2.50158E-03-4.69723E-04-5.22073E-03-1.87415E-14 1.51211E-13
 -1      1191 1.90042E+01-1.31838E-03 5.49727E-04-4.64083E-03 9.99282E-16 8.22970E-14
 -1      1192 1.91724E+01-6.40289E-04 1.11632E-03-3.93489E-03 1.87232E-14-4.16238E-14
 -1      1193 1.93275E+01-3.33773E-04 1.27670E-03-3.16432E-03 5.30337E-15-5.30730E-14
 -1      1194 1.94684E+01-3.18363E-04 1.09547E-03-2.36517E-03-6.59220E-15-7.71128E-15
 -1      1195 1.95966E+01-5.50692E-04 6.21466E-04-1.55540E-03 5.84533E-15 4.28780E-15
 -1      1196 1.97166E+01-1.01687E-03-1.27301E-04-7.39463E-04-2.63003E-14 4.11563E-15
 -1      1197 1.98344E+01-1.72958E-03-1.16797E-03 8.80909E-05 2.07578E-14-6.75350E-14
 -1      1198 1.99586E+01-2.72813E-03-2.55627E-03 9.39150E-04 8.35622E-15-3.64859E-13
 -1      1199 2.00997E+01-4.08003E-03-4.39240E-03 1.82742E-03-1.24375E-14-4.05951E-13
 -1      1200 2.02714E+01-5.88206E-03-6.82943E-03 2.76046E-03 1.05765E-14-4.32752E-13
 -1      1201 2.04911E+01-8.25633E-03-1.00811E-02 3.72405E-03-1.49121E-15-6.49554E-13
 -1      1202 2.07810E+01-1.13307E-02-1.44193E-02 4.65109E-03-1.31237E-14-5.75069E-13
 -1      1203 2.11698E+01-1.51811E-02-2.01354E-02 5.36082E-03 2.15654E-14-6.07374E-13
 -1      1204 2.16939E+01-1.96910E-02-2.74005E-02 5.44589E-03-1.12354E-14-4.98084E-13
 -1      1205 2.23980E+01-2.42475E-02-3.58842E-02 4.08034E-03-2.54083E-14-2.56274E-13
 -1      1206 2.33315E+01-2.71619E-02-4.38630E-02-2.54734E-04-2.83883E-14-2.86361E-13
 -1      1207 2.45384E+01-2.47513E-02-4.64594E-02-1.00032E-02-1.00839E-14-5.97994E-14
 -1      1208 2.60279E+01-1.04216E-02-3.30265E-02-2.81893E-02-2.15166E-14 2.13121E-13
 -1      1209 2.77136E+01 2.46275E-02 1.41846E-02-5.60375E-02 2.52482E-14 1.62349E-13
 -1      1210 2.93082E+01 8.47125E-02 1.12529E-01-8.62442E-02 1.08065E-14-8.20108E-14
 -1      1211 3.02042E+01 1.52328E-01 2.49520E-01-9.19613E-02-5.12073E-14 1.48211E-13
 -1      1212 2.94948E+01 1.66266E-01 3.34248E-01-2.53473E-02-3.19102E-14 3.08031E-13
 -1      1213 2.64858E+01 5.33412E-02 2.08700E-01 1.31249E-01-2.15869E-14 1.00420E-13
 -1      1214 2.18208E+01-1.40099E-01-1.67319E-01 2.89165E-01 4.04364E-14-4.05231E-15
 -1      1215 1.80004E+01-2.39095E-01-5.49183E-01 2.81230E-01 4.59355E-15 2.10970E-13
 -1      1216 1.78296E+01-1.42131E-01-5.61223E-01 5.76410E-02-1.79266E-14 5.48422E-13
 -1      1217 2.14309E+01 1.80679E-02-2.07360E-01-1.86878E-01-1.13087E-14 5.82867E-13
 -1      1218 2.61186E+01 8.41025E-02 1.48186E-01-2.65409E-01 6.45864E-14-1.73361E-13
 -1      1219 2.92594E+01 7.97363E-02 2.70627E-01-1.95236E-01-2.15782E-14-9.60898E-14
 -1      1220 3.01206E+01 4.93717E-02 2.11823E-01-8.33183E-02 4.31235E-14 5.07240E-13
 -1      1221 2.93159E+01 2.13593E-02 1.05150E-01-2.85734E-03 4.93954E-14 4.20650E-13
 -1      1222 2.77421E+01 3.50058E-03 2.52555E-02 3.47189E-02 2.72213E-14 1.75353E-13
 -1      1223 2.60298E+01-5.53961E-03-1.51709E-02 4.40498E-02-3.90803E-14 8.74634E-13
 -1      1224 2.44881E+01-8.97907E-03-2.85771E-02 4.03087E-02 2.26481E-14 1.22802E-12
 -1      1225 2.32170E+01-9.49735E-03-2.87925E-02 3.26011E-02-4.01632E-15 1.13479E-12
 -1      1226 2.22150E+01-8.84341E-03-2.44280E-02 2.50519E-02-6.30026E-14 1.19981E-12
 -1      1227 2.14437E+01-8.04957E-03-1.97421E-02 1.90960E-02-7.81601E-15 1.09608E-12
 -1      1228 2.08597E+01-7.82918E-03-1.66979E-02 1.48897E-02 3.48112E-14 4.85098E-13
 -1      1229 2.04303E+01-8.35805E-03-1.59186E-02 1.20628E-02-8.23216E-14 9.37982E-14
 -1      1230 2.01387E+01-9.42941E-03-1.68047E-02 9.43268E-03 7.13375E-14-2.60168E-13
 -1      1231 1.99899E+01-7.22152E-03-1.25688E-02 3.46223E-03 1.37761E-13-8.96149E-13
 -1      1232 1.99843E+01 5.44940E-03 1.36049E-02-5.69040E-03 8.27291E-14-5.91954E-13
 -1      1233 2.00052E+01-1.63703E-02 1.25726E-02-5.41842E-03-8.66157E-13-2.18759E-13
 -1      1234 1.99901E+01-4.77089E-03-1.37090E-02-3.92820E-03-1.57192E-12-2.72051E-13
 -1      1235 1.99915E+01 1.45897E-01-1.40557E-02 5.79536E-03-6.86532E-13 1.01651E-13
 -1      1236 1.99971E+01 3.98659E-01-5.55025E-03 9.82674E-03-3.18304E-14 4.41872E-14
 -1      1237 2.00030E+01 6.85849E-01 3.53062E-03 1.02014E-02-4.66308E-13 2.08399E-14
 -1      1238 2.00076E+01 9.45159E-01 1.03350E-02 8.18998E-03-1.56008E-12-2.56562E-13
 -1      1239 2.00103E+01 1.13500E+00 1.41314E-02 5.15128E-03-1.51591E-12 1.83544E-13
 -1      1240 2.00111E+01 1.23126E+00 1.51996E-02 1.51633E-03-1.33093E-12-6.06687E-14
 -1      1241 2.00102E+01 1.22469E+00 1.38865E-02-1.89148E-03-9.56025E-13 1.95064E-13
 -1      1242 2.00080E+01 1.12412E+00 1.08703E-02-4.63534E-03-6.90357E-13 1.92581E-14
 -1      1243 2.00050E+01 9.49920E-01 6.83469E-03-6.47960E-03-1.71019E-12-2.02168E-13
 -1      1244 2.00018E+01 7.31180E-01 2.39424E-03-7.34680E-03-2.68936E-12 1.44454E-13
 -1      1245 1.99985E+01 4.96060E-01-2.22243E-03-7.22965E-03-2.16411E-12 2.29889E-13
 -1      1246 1.99953E+01 2.72680E-01-7.04866E-03-6.07492E-03-1.67244E-12-2.70371E-14
 -1      1247 1.99930E+01 9.23151E-02-1.16071E-02-3.84631E-03-1.88723E-12 2.46893E-14
 -1      1248 1.99910E+01-3.30860E-04-8.58117E-03 5.88549E-03-9.41424E-13 2.23875E-14
 -1      1249 2.00039E+01-1.23382E-02 8.42212E-03 4.19933E-03-3.39473E-13 5.92923E-14
 -1      1250-1.27712E+00-2.52676E+01-3.86524E+00-2.41866E+00-1.59817E-13 6.92189E-14
 -1      1251-2.13019E+00-1.77159E+01-3.42023E+00-4.91181E+00 7.71272E-13 3.36786E-13
 -1      1252-7.65828E-01-5.27417E+00-2.36009E+00-1.73805E+00 1.04317E-12 5.10036E-13
 -1      1253 7.76805E+00 5.81879E+00-7.50052E-01 6.72255E+00 3.90799E-14 3.73035E-14
 -1      1254 2.63593E+01 1.05254E+01 1.25791E+00 1.58141E+01-1.13021E-13-3.95683E-13
 -1      1255 5.01812E+01 7.89621E+00 3.28965E+00 1.81839E+01-3.20854E-13-4.50751E-13
 -1      1256 6.78620E+01 3.36123E+00 4.62630E+00 1.03498E+01-3.63182E-14-1.69642E-13
 -1      1257 7.25552E+01 1.84128E+00 4.98300E+00-3.20027E+00 1.01585E-13-8.62338E-13
 -1      1258 6.06629E+01 5.47104E+00 4.12486E+00-1.50479E+01 3.33233E-13-1.36269E-12
 -1      1259 3.80598E+01 1.00352E+01 2.36058E+00-1.79363E+01 3.96794E-13-8.62643E-13
 -1      1260 1.67503E+01 9.69941E+00 3.66079E-01-1.23110E+01 3.79696E-13-4.04343E-13
 -1      1261 3.45302E+00 2.48445E+00-1.46004E+00-3.33910E+00-1.53655E-13 6.63913E-14
 -1      1262-1.77381E+00-9.44377E+00-2.76094E+00 3.35827E+00-4.84057E-14 1.43885E-13
 -1      1263-1.88246E+00-2.09367E+01-3.62022E+00 4.69678E+00-1.76081E-13 5.57610E-14
 -1      1264-1.01507E+00-2.59182E+01-3.85070E+00 1.18362E+00-6.60527E-13 7.40380E-15
 -1      1265-1.19611E+00-2.24573E+01-3.55878E+00-3.04286E+00-1.12188E-12-1.60913E-13
 -1      1266-1.45153E+00-1.10951E+01-2.63278E+00-3.18799E+00-6.37934E-13-2.12663E-13
 -1      1267 2.37091E+00 1.72365E+00-1.31599E+00 2.51217E+00-2.22267E-13-1.20903E-13
 -1      1268 1.42233E+01 1.01245E+01 4.31199E-01 1.15569E+01-1.11688E-13-9.57012E-14
 -1      1269 3.38549E+01 1.08761E+01 2.10533E+00 1.77312E+01-1.01030E-13-1.19904E-13
 -1      1270 5.41575E+01 6.32163E+00 3.44594E+00 1.59337E+01 3.80251E-14 3.20632E-13
 -1      1271 6.60301E+01 2.03226E+00 4.03167E+00 5.42346E+00 1.67134E-13 6.15785E-13
 -1      1272 6.44782E+01 2.49437E+00 3.91765E+00-8.18680E+00-4.72782E-14 1.48936E-13
 -1      1273 5.00908E+01 7.26276E+00 3.10190E+00-1.72473E+01 9.15934E-14-9.70335E-14
 -1      1274 2.98845E+01 1.13608E+01 1.77086E+00-1.75621E+01 7.07212E-14-1.45661E-13
 -1      1275 1.17739E+01 9.42494E+00 1.22536E-01-1.02809E+01 4.60298E-13-3.41949E-13
 -1      1276 1.22991E+00-3.25185E-01-1.54233E+00-1.09532E+00 6.10401E-13-3.21076E-13
 -1      1277-1.63475E+00-1.38075E+01-2.88338E+00 3.69066E+00 4.32099E-13-2.22378E-13
 -1      1278-1.09137E+00-2.40980E+01-3.70700E+00 2.19788E+00-8.28781E-13 8.72497E-14
 -1      1279 2.22587E+01 1.83776E+00-7.25808E-01-2.79109E+00-1.83464E-14 4.35874E-13
 -1      1280 2.03543E+01 4.68943E+00-4.86397E-02-3.30845E+00-5.33740E-14 6.39211E-14
 -1      1281 2.08603E+01 4.80961E+00-1.13469E-01-4.16230E+00-6.79456E-14 1.53204E-13
 -1      1282 1.95289E+01 4.99271E+00-1.96724E-02-2.65618E+00-6.02504E-14-6.99579E-14
 -1      1283 1.98259E+01 5.08925E+00 2.00980E-04-3.04714E+00-6.41986E-14-1.20459E-14
 -1      1284 2.05214E+01 3.95223E+00-2.59183E-02-3.07643E+00-9.84698E-14 5.88141E-14
 -1      1285 1.91840E+01 5.08435E+00-3.51583E-03-2.07255E+00-5.15386E-14-1.45651E-13
 -1      1286 1.93313E+01 5.13918E+00 1.05413E-02-2.36537E+00-5.84602E-14-1.11178E-13
 -1      1287 1.97512E+01 4.36551E+00-2.45160E-02-2.49086E+00-9.35051E-14-6.09790E-14
 -1      1288 1.90114E+01 5.13121E+00 3.31510E-03-1.56619E+00-4.54541E-14-1.83790E-13
 -1      1289 1.90880E+01 5.16048E+00 1.25567E-02-1.81635E+00-4.61488E-14-1.65069E-13
 -1      1290 1.93922E+01 4.55481E+00-2.00381E-02-1.93349E+00-7.84832E-14-1.20001E-13
 -1      1291 1.89194E+01 5.16152E+00 6.55596E-03-1.11828E+00-3.38020E-14-2.00945E-13
 -1      1292 1.89610E+01 5.17760E+00 1.26972E-02-1.33987E+00-3.88491E-14-1.90091E-13
 -1      1293 1.92085E+01 4.66186E+00-1.61080E-02-1.44579E+00-7.02901E-14-1.46994E-13
 -1      1294 1.88693E+01 5.18156E+00 8.22516E-03-6.94707E-01-2.41213E-14-2.19604E-13
 -1      1295 1.88916E+01 5.19021E+00 1.19898E-02-9.05120E-01-2.55516E-14-2.11864E-13
 -1      1296 1.91071E+01 4.72753E+00-1.40185E-02-1.00531E+00-4.72834E-14-1.76543E-13
 -1      1297 1.88461E+01 5.19362E+00 9.32612E-03-2.89573E-01-1.06667E-14-2.29813E-13
 -1      1298 1.88556E+01 5.19736E+00 1.10953E-02-4.91907E-01-1.41298E-14-2.19554E-13
 -1      1299 1.90527E+01 4.76661E+00-1.29124E-02-5.89461E-01-3.20562E-14-1.80141E-13
 -1      1300 1.88425E+01 5.19860E+00 1.02577E-02 1.08292E-01-1.39212E-15-2.34736E-13
 -1      1301 1.88422E+01 5.19846E+00 1.01859E-02-9.16006E-02-8.54731E-15-2.31516E-13
 -1      1302 1.90291E+01 4.78474E+00-1.24548E-02-1.89347E-01-1.30830E-14-1.95191E-13
 -1      1303 1.88574E+01 5.19700E+00 1.11944E-02 5.09182E-01 1.18317E-14-2.38382E-13
 -1      1304 1.88471E+01 5.19298E+00 9.26346E-03 3.06427E-01 6.21204E-15-2.36360E-13
 -1      1305 1.90300E+01 4.78411E+00-1.24708E-02 2.05943E-01 3.10079E-15-2.01880E-13
 -1      1306 1.88950E+01 5.18906E+00 1.21261E-02 9.23887E-01 1.63879E-14-2.44353E-13
 -1      1307 1.88718E+01 5.18020E+00 8.17207E-03 7.12502E-01 1.67631E-14-2.43196E-13
 -1      1308 1.90553E+01 4.76453E+00-1.29572E-02 6.06727E-01 2.34699E-14-2.00791E-13
 -1      1309 1.89654E+01 5.17568E+00 1.29247E-02 1.35750E+00 2.71172E-14-2.27561E-13
 -1      1310 1.89229E+01 5.15919E+00 6.48720E-03 1.13443E+00 2.34361E-14-2.36571E-13
 -1      1311 1.91116E+01 4.72384E+00-1.39826E-02 1.02042E+00 3.36189E-14-2.04933E-13
 -1      1312 1.90960E+01 5.15675E+00 1.28373E-02 1.84247E+00 5.14519E-14-2.08208E-13
 -1      1313 1.90176E+01 5.12673E+00 3.18242E-03 1.58954E+00 4.11103E-14-2.16259E-13
 -1      1314 1.92154E+01 4.65513E+00-1.61320E-02 1.46388E+00 5.79831E-14-1.83117E-13
 -1      1315 1.93422E+01 5.13301E+00 1.01571E-02 2.39969E+00 6.58952E-14-1.70003E-13
 -1      1316 1.91934E+01 5.07627E+00-4.34344E-03 2.10239E+00 5.66526E-14-1.97505E-13
 -1      1317 1.94058E+01 4.54236E+00-1.99744E-02 1.95982E+00 9.02282E-14-1.68407E-13
 -1      1318 1.98511E+01 5.09851E+00 5.99926E-03 3.08561E+00 7.99777E-14-7.82638E-14
 -1      1319 1.95405E+01 4.98391E+00-2.05232E-02 2.69839E+00 7.06241E-14-1.31041E-13
 -1      1320 1.97725E+01 4.34606E+00-2.45613E-02 2.52975E+00 1.11761E-13-1.12743E-13
 -1      1321 2.10963E+01 4.90590E+00 8.23156E-03 4.05503E+00 7.29972E-14 1.04666E-13
 -1      1322 2.03286E+01 4.73303E+00-4.79766E-02 3.41780E+00 6.84036E-14-1.07137E-14
 -1      1323 2.05593E+01 3.91543E+00-2.24352E-02 3.17990E+00 1.25993E-13-1.14353E-14
 -1      1324 2.71938E+01 3.20471E+00 9.28903E-01 4.58237E+00 3.85803E-14 4.77896E-13
 -1      1325 2.20122E+01 3.52150E+00-1.81987E-01 3.88578E+00 3.87190E-14 2.15994E-13
 -1      1326 2.21046E+01 2.56146E+00-3.26118E-02 3.45774E+00 1.22990E-13 1.54265E-13
 -1      1327 2.14177E+01 3.59653E-01-7.63436E-01 1.18458E+00 6.28664E-14 4.50751E-13
 -1      1328 2.19919E+01 1.31483E-01-4.00860E-01-1.28633E+00-4.79061E-14 4.47420E-13
 -1      1329 2.06685E+01 3.06738E-01-1.64857E-01-8.06311E-01-4.54706E-14 3.90826E-13
 -1      1330 2.00705E+01 1.53477E-01-7.35254E-02-4.02726E-01-3.30361E-14 3.57068E-13
 -1      1331 1.95999E+01 9.11821E-02-1.49348E-02-3.30560E-01-3.44690E-14 3.02990E-13
 -1      1332 2.09635E+01 3.69079E-01-1.04288E-01-1.27494E+00-8.03801E-14 2.36366E-13
 -1      1333 1.92421E+01 6.44955E-02 3.03936E-03-1.35955E-01-4.21451E-14 2.77344E-13
 -1      1334 1.90870E+01 4.12853E-02 1.32198E-02-1.18160E-01-4.00287E-14 2.29379E-13
 -1      1335 1.99121E+01 1.33899E-01-3.51514E-02-5.05110E-01-7.28965E-14 1.79494E-13
 -1      1336 1.89263E+01 3.15581E-02 1.32438E-02-2.85764E-02-2.18367E-14 1.96225E-13
 -1      1337 1.89061E+01 1.94473E-02 1.10589E-02-1.91765E-02-3.78699E-14 1.54278E-13
 -1      1338 1.94340E+01 5.54611E-02-8.54730E-03-1.71108E-01-7.16163E-14 1.29400E-13
 -1      1339 1.88498E+01 1.60703E-02 8.78981E-03 2.46147E-02-2.11318E-14 1.49217E-13
 -1      1340 1.88917E+01 9.17141E-03 6.45582E-03 2.92760E-02-1.33817E-14 1.38410E-13
 -1      1341 1.92246E+01 2.44758E-02-3.53985E-03-1.20089E-02-4.20809E-14 9.81585E-14
 -1      1342 1.88918E+01 7.96358E-03 4.70162E-03 5.06829E-02 5.10377E-15 1.27211E-13
 -1      1343 1.89619E+01 3.66924E-03 3.67772E-03 5.26334E-02 1.62733E-14 1.18937E-13
 -1      1344 1.91677E+01 1.03264E-02-2.25983E-03 6.71399E-02-2.48499E-14 9.87149E-14
 -1      1345 1.89920E+01 3.38331E-03 2.48464E-03 6.18538E-02 6.28246E-15 1.13264E-13
 -1      1346 1.90729E+01 6.06459E-04 2.26153E-03 6.22313E-02-4.67443E-15 1.09543E-13
 -1      1347 1.91946E+01 3.02952E-03-1.38732E-03 1.04778E-01 8.85522E-15 6.13066E-14
 -1      1348 1.91179E+01 7.66728E-04 1.38576E-03 6.46096E-02-2.21075E-14 1.20379E-13
 -1      1349 1.92000E+01-1.03662E-03 1.50663E-03 6.41072E-02-3.48088E-14 6.62873E-14
 -1      1350 1.92656E+01-8.63093E-04-6.57800E-04 1.19403E-01-3.00058E-14 3.78848E-14
 -1      1351 1.92512E+01-6.41870E-04 8.12438E-04 6.27872E-02-2.75847E-14 5.99759E-14
 -1      1352 1.93297E+01-1.77744E-03 1.05796E-03 6.18624E-02-2.62102E-14 2.85566E-14
 -1      1353 1.93578E+01-2.80529E-03-1.47409E-04 1.21198E-01-4.69718E-14 4.32831E-14
 -1      1354 1.93822E+01-1.25522E-03 4.87254E-04 5.88508E-02-3.27505E-14 8.73477E-15
 -1      1355 1.94549E+01-1.91396E-03 7.69378E-04 5.78189E-02-2.35706E-14-1.29844E-14
 -1      1356 1.94580E+01-3.51414E-03 1.40251E-04 1.16380E-01-4.17337E-14 5.71878E-14
 -1      1357 1.95065E+01-1.32100E-03 2.92479E-04 5.44662E-02-1.79434E-14-5.78298E-14
 -1      1358 1.95733E+01-1.63319E-03 5.78621E-04 5.35497E-02-4.33613E-14-8.94610E-14
 -1      1359 1.95589E+01-3.39433E-03 2.46652E-04 1.09014E-01-4.14866E-14-1.60499E-14
 -1      1360 1.96233E+01-9.98009E-04 1.73059E-04 5.07952E-02-4.02019E-14-6.10443E-14
 -1      1361 1.96852E+01-1.05982E-03 4.53171E-04 5.01544E-02-1.94268E-14-1.14695E-13
 -1      1362 1.96577E+01-2.69648E-03 2.17348E-04 1.01881E-01-5.26287E-14-6.84540E-14
 -1      1363 1.97342E+01-3.94370E-04 9.74595E-05 4.86626E-02 3.62096E-14-1.07544E-13
 -1      1364 1.97934E+01-2.83339E-04 3.71280E-04 4.84137E-02 1.68405E-14-1.01059E-13
 -1      1365 1.97541E+01-1.58686E-03 8.91151E-05 9.69303E-02-2.88370E-15-6.47960E-14
 -1      1366 1.98427E+01 4.08861E-04 4.37533E-05 4.86479E-02-8.29954E-15-7.64588E-14
 -1      1367 1.99019E+01 6.22622E-04 3.15301E-04 4.88724E-02-5.56074E-14-1.13201E-13
 -1      1368 1.98500E+01-1.86753E-04-1.09787E-04 9.55347E-02-5.50555E-15-1.02623E-13
 -1      1369 1.99534E+01 1.33915E-03-5.45124E-06 5.11242E-02-8.02370E-14-7.01630E-14
 -1      1370 2.00158E+01 1.58305E-03 2.68933E-04 5.18704E-02-3.22120E-14-1.39818E-13
 -1      1371 1.99485E+01 1.39802E-03-3.55698E-04 9.86161E-02-5.65103E-14-9.65160E-14
 -1      1372 2.00717E+01 2.31429E-03-6.48218E-05 5.62480E-02-1.92392E-14-1.76654E-13
 -1      1373 2.01405E+01 2.50336E-03 2.16058E-04 5.75231E-02-3.46545E-14-2.08578E-13
 -1      1374 2.00537E+01 3.04847E-03-6.24795E-04 1.06668E-01-4.64837E-14-1.13176E-13
 -1      1375 2.02030E+01 3.22229E-03-1.46266E-04 6.38964E-02-4.75737E-15-2.02929E-13
 -1      1376 2.02813E+01 3.24935E-03 1.40876E-04 6.56480E-02-1.56599E-14-2.23184E-13
 -1      1377 2.01697E+01 4.60057E-03-8.87833E-04 1.19680E-01-1.35383E-14-1.76822E-13
 -1      1378 2.03522E+01 3.89861E-03-2.57016E-04 7.35472E-02-2.28178E-14-1.91070E-13
 -1      1379 2.04424E+01 3.62566E-03 2.98329E-05 7.56323E-02-2.75294E-14-2.15063E-13
 -1      1380 2.03007E+01 5.80846E-03-1.10423E-03 1.36951E-01-4.17097E-14-1.78956E-13
 -1      1381 2.05227E+01 4.10249E-03-3.95294E-04 8.40970E-02 4.53639E-14-1.73639E-13
 -1      1382 2.06255E+01 3.35689E-03-1.23798E-04 8.62384E-02 1.64354E-14-1.77591E-13
 -1      1383 2.04494E+01 6.30495E-03-1.21560E-03 1.56790E-01 2.04768E-15-1.50921E-13
 -1      1384 2.07149E+01 3.49808E-03-5.43032E-04 9.36283E-02-1.39966E-14-1.50204E-13
 -1      1385 2.08286E+01 2.08038E-03-3.11940E-04 9.53599E-02 9.81740E-15-1.00682E-13
 -1      1386 2.06165E+01 5.56766E-03-1.13969E-03 1.76111E-01 5.28289E-14-8.84759E-14
 -1      1387 2.09241E+01 1.65412E-03-6.56018E-04 9.91630E-02 5.35517E-14-4.72769E-14
 -1      1388 2.10433E+01-6.30591E-04-5.00758E-04 9.97760E-02 3.37617E-14 1.57387E-14
 -1      1389 2.07991E+01 2.91171E-03-7.67094E-04 1.89974E-01 7.60441E-14-6.74892E-14
 -1      1390 2.11389E+01-1.91232E-03-6.54625E-04 9.64989E-02-3.12554E-14 2.25627E-14
 -1      1391 2.12523E+01-5.18194E-03-6.20365E-04 9.50145E-02-7.22993E-14-5.49799E-14
 -1      1392 2.09887E+01-2.45079E-03 3.37941E-05 1.91213E-01-1.81629E-14-7.18635E-14
 -1      1393 2.13379E+01-7.60693E-03-4.23475E-04 8.03179E-02-7.71223E-14-2.84204E-14
 -1      1394 2.14280E+01-1.17699E-02-5.64887E-04 7.55391E-02-5.18211E-14-1.42014E-13
 -1      1395 2.11700E+01-1.12189E-02 1.39372E-03 1.70443E-01-8.36364E-14 2.19963E-14
 -1      1396 2.14888E+01-1.54953E-02 1.64271E-04 4.48759E-02-5.14389E-15-1.67804E-13
 -1      1397 2.15308E+01-2.00535E-02-2.18808E-04 3.55994E-02-5.49560E-15-2.07036E-13
 -1      1398 2.13188E+01-2.35972E-02 3.38675E-03 1.16938E-01-6.75282E-14 4.14920E-14
 -1      1399 2.15481E+01-2.48834E-02 1.18067E-03-1.43380E-02 1.69973E-14-2.62335E-13
 -1      1400 2.15126E+01-2.87153E-02 4.73203E-04-2.88521E-02 5.56725E-14-1.50020E-13
 -1      1401 2.14025E+01-3.86357E-02 5.92713E-03 2.10617E-02-2.94847E-14-2.14596E-14
 -1      1402 2.14661E+01-3.38270E-02 2.52908E-03-9.77073E-02 8.67596E-14-1.90951E-13
 -1      1403 2.13245E+01-3.50884E-02 1.39865E-03-1.16972E-01 4.32887E-14-8.63693E-14
 -1      1404 2.13826E+01-5.34298E-02 8.62287E-03-1.21143E-01 3.98796E-14-2.97963E-14
 -1      1405 2.11980E+01-3.88571E-02 3.82846E-03-1.97675E-01-6.91374E-15-1.22336E-13
 -1      1406 2.09331E+01-3.52485E-02 2.17503E-03-2.19069E-01-3.64084E-14-1.76768E-13
 -1      1407 2.12223E+01-6.26260E-02 1.06408E-02-3.01348E-01-3.13725E-15-2.04602E-13
 -1      1408 2.07219E+01-3.54797E-02 4.38726E-03-2.95526E-01 2.68579E-14-1.95823E-13
 -1      1409 2.03419E+01-2.51547E-02 2.18419E-03-3.13760E-01-2.52923E-15-2.25316E-13
 -1      1410 2.08989E+01-5.90537E-02 1.07220E-02-4.92251E-01-1.80554E-14-3.18977E-13
 -1      1411 2.00622E+01-2.00444E-02 3.47237E-03-3.61857E-01-5.16489E-14-1.08986E-13
 -1      1412 1.96117E+01-3.14320E-03 8.67600E-04-3.69709E-01-3.01463E-14-1.72057E-13
 -1      1413 2.04216E+01-3.65271E-02 7.53369E-03-6.45469E-01 1.03411E-14-1.93803E-13
 -1      1414 1.93061E+01 7.09019E-03 8.49382E-04-3.64296E-01-1.38253E-14-1.27221E-13
 -1      1415 1.88671E+01 2.71098E-02-1.73763E-03-3.55384E-01 2.44349E-14-4.50646E-14
 -1      1416 1.98465E+01 5.42020E-03 5.69016E-04-7.00562E-01 5.02081E-14-1.94981E-13
 -1      1417 1.86001E+01 3.91310E-02-2.70333E-03-2.82795E-01-2.21368E-14-2.21698E-14
 -1      1418 1.82738E+01 5.58529E-02-4.66143E-03-2.55614E-01-2.50789E-14-7.52592E-14
 -1      1419 1.92794E+01 5.74762E-02-8.82274E-03-6.08720E-01-1.16482E-14-6.59663E-14
 -1      1420 1.81138E+01 6.41968E-02-5.58927E-03-1.25312E-01-3.92976E-14-1.91572E-13
 -1      1421 1.79863E+01 7.10429E-02-6.34537E-03-8.58456E-02-1.39673E-13-2.94076E-13
 -1      1422 1.88542E+01 1.01793E-01-1.72232E-02-3.63264E-01-1.49918E-13-2.40906E-13
 -1      1423 1.79785E+01 7.13562E-02-6.35045E-03 6.83613E-02-5.91202E-14-3.24001E-13
 -1      1424 1.80852E+01 6.53693E-02-5.67236E-03 1.08287E-01 2.30241E-14-4.12262E-13
 -1      1425 1.86866E+01 1.20028E-01-2.07546E-02-1.68063E-02-9.43377E-14-3.62727E-13
 -1      1426 1.82314E+01 5.74393E-02-4.72504E-03 2.41530E-01 1.32063E-13-2.65038E-13
 -1      1427 1.85411E+01 4.11731E-02-2.84334E-03 2.69816E-01 1.41434E-13-8.16569E-14
 -1      1428 1.88249E+01 1.03990E-01-1.75931E-02 3.33318E-01 1.31069E-13-1.64243E-13
 -1      1429 1.87982E+01 2.91380E-02-1.80485E-03 3.46757E-01-5.31979E-14-9.62390E-14
 -1      1430 1.92272E+01 9.05591E-03 7.21730E-04 3.56862E-01-2.70946E-14-1.46924E-13
 -1      1431 1.92267E+01 6.08331E-02-9.32312E-03 5.87790E-01 6.03827E-14-1.56649E-13
 -1      1432 1.95273E+01-1.54891E-03 8.34346E-04 3.66096E-01 8.00540E-14-2.06141E-13
 -1      1433 1.99736E+01-1.88796E-02 3.38896E-03 3.59047E-01 3.34565E-14-1.61565E-13
 -1      1434 1.97790E+01 8.42598E-03 1.50444E-04 6.89637E-01-1.09540E-13-1.73978E-13
 -1      1435 2.02507E+01-2.45031E-02 2.19792E-03 3.12916E-01 1.42438E-14-3.23692E-13
 -1      1436 2.06296E+01-3.53695E-02 4.37294E-03 2.94884E-01-2.43716E-14-3.09038E-13
 -1      1437 2.03466E+01-3.49136E-02 7.34655E-03 6.41551E-01-4.15228E-14-4.14298E-13
 -1      1438 2.08390E+01-3.55948E-02 2.23892E-03 2.18187E-01-1.75164E-14-1.96137E-13
 -1      1439 2.11024E+01-3.96345E-02 3.87556E-03 1.96445E-01-4.86711E-14-2.94591E-13
 -1      1440 2.08201E+01-5.91445E-02 1.08036E-02 4.90352E-01-5.18023E-14-4.64707E-13
 -1      1441 2.12259E+01-3.61546E-02 1.49801E-03 1.13757E-01-2.85323E-14-3.11189E-13
 -1      1442 2.13631E+01-3.51047E-02 2.61077E-03 9.38055E-02-5.44053E-14-3.74536E-13
 -1      1443 2.11389E+01-6.41031E-02 1.09266E-02 2.96669E-01-2.32731E-14-2.85410E-13
 -1      1444 2.14039E+01-3.01234E-02 5.96300E-04 2.20381E-02-2.90662E-14-3.81421E-13
 -1      1445 2.14306E+01-2.62765E-02 1.27712E-03 6.72044E-03-8.71438E-14-4.21857E-13
 -1      1446 2.12907E+01-5.56798E-02 9.00412E-03 1.10504E-01-5.56586E-14-3.38181E-13
 -1      1447 2.14046E+01-2.14714E-02-6.99168E-05-4.62689E-02-1.21798E-13-4.21438E-13
 -1      1448 2.13490E+01-1.66986E-02 2.77901E-04-5.62990E-02-6.28844E-14-5.13533E-13
 -1      1449 2.12964E+01-4.10473E-02 6.31132E-03-3.88906E-02-1.44163E-13-3.84906E-13
 -1      1450 2.12767E+01-1.29235E-02-3.78367E-04-8.95017E-02 3.70212E-14-4.78735E-13
 -1      1451 2.11692E+01-8.35788E-03-2.78434E-04-9.48530E-02 3.66120E-14-5.25486E-13
 -1      1452 2.11929E+01-2.56707E-02 3.70150E-03-1.41479E-01-1.82554E-14-3.09658E-13
 -1      1453 2.10704E+01-5.79557E-03-3.89841E-04-1.10965E-01 2.92013E-14-2.97228E-13
 -1      1454 2.09371E+01-1.91792E-03-4.72043E-04-1.12701E-01 1.13960E-13-3.48337E-13
 -1      1455 2.10198E+01-1.24876E-02 1.57220E-03-1.99730E-01 1.61705E-13-2.05007E-13
 -1      1456 2.08283E+01-3.50069E-04-2.50638E-04-1.15541E-01 1.40313E-13-3.44515E-13
 -1      1457 2.06900E+01 2.78848E-03-4.73087E-04-1.14664E-01 1.26764E-13-2.01922E-13
 -1      1458 2.08126E+01-2.34125E-03-6.62156E-06-2.21706E-01 1.46702E-13-4.18823E-14
 -1      1459 2.05838E+01 3.75933E-03-1.44082E-04-1.07584E-01 2.13403E-13-1.70235E-13
 -1      1460 2.04560E+01 6.32210E-03-4.89806E-04-1.04779E-01 2.00364E-13 1.81758E-13
 -1      1461 2.05993E+01 5.22182E-03-1.15083E-03-2.16117E-01 2.60534E-13 1.48883E-13
 -1      1462 2.03620E+01 7.13312E-03-2.79967E-04-8.99420E-02 1.48949E-13 1.00995E-13
 -1      1463 2.02569E+01 9.29542E-03-7.00903E-04-8.54735E-02 6.01735E-14 1.03277E-13
 -1      1464 2.04013E+01 1.12914E-02-2.04058E-03-1.89641E-01 2.95614E-13 2.29157E-13
 -1      1465 2.01820E+01 1.02696E-02-7.80003E-04-6.39877E-02 1.00400E-13 3.41737E-13
 -1      1466 2.01105E+01 1.19105E-02-8.64000E-04-5.77057E-02 5.45179E-14 3.20307E-13
 -1      1467 2.02342E+01 1.70279E-02-2.71678E-03-1.46125E-01 1.60408E-13 1.22854E-13
 -1      1468 2.00582E+01 1.40669E-02-8.23628E-04-3.05737E-02-1.02693E-14 5.27725E-13
 -1      1469 2.00283E+01 1.22063E-02 5.74541E-04-2.29226E-02 3.09106E-15 5.11687E-13
 -1      1470 2.01084E+01 2.28914E-02-2.83808E-03-8.87348E-02 1.52470E-13 5.50093E-13
 -1      1471 1.99971E+01 1.79363E-03 2.19921E-03 3.97869E-03-3.54816E-13 2.98730E-13
 -1      1472 2.00220E+01 1.65183E-02-7.04948E-04-2.03365E-02-3.51191E-13 3.66183E-13
 -1      1473 2.02490E+01 7.54876E-02-1.52109E-01 4.84450E-01 6.49689E-14 3.21684E-13
 -1      1474 2.15201E+01 2.16095E-01-2.29283E-01 7.21456E-01 5.46646E-14 4.17569E-13
 -1      1475 2.17196E+01 8.81806E-01-8.54231E-02 2.06583E+00 1.07546E-13 2.49537E-13
 -1      1476 1.93193E+01 3.23805E-02-2.13416E-02 1.86598E-01 4.21833E-14 2.08243E-13
 -1      1477 1.97408E+01 1.13598E-01-6.27115E-02 2.38596E-01 4.22162E-14 2.79478E-13
 -1      1478 2.02934E+01 1.87707E-01-5.51737E-02 7.87245E-01 8.82072E-14 1.77964E-13
 -1      1479 1.89362E+01 1.51066E-02 5.66603E-03 5.40987E-02 3.44022E-14 1.30347E-13
 -1      1480 1.90756E+01 5.16078E-02 9.73264E-04 8.03892E-02 3.06422E-14 1.70860E-13
 -1      1481 1.95473E+01 7.18438E-02-1.21428E-02 3.00058E-01 6.53505E-14 8.85871E-14
 -1      1482 1.88244E+01 7.13830E-03 6.97727E-03-8.42797E-03 4.02456E-14 7.79446E-14
 -1      1483 1.88398E+01 2.58549E-02 1.10922E-02 5.95260E-03 3.06053E-14 1.21715E-13
 -1      1484 1.92110E+01 3.10498E-02-2.45087E-03 8.45285E-02 6.29202E-14 3.36502E-14
 -1      1485 1.88493E+01 3.25131E-03 4.78151E-03-3.87976E-02-4.96781E-16 3.62800E-14
 -1      1486 1.88063E+01 1.38329E-02 8.52961E-03-3.06830E-02 1.14589E-14 6.10501E-14
 -1      1487 1.90937E+01 1.33171E-02-1.60916E-03-2.06097E-02 3.85750E-14 1.09157E-14
 -1      1488 1.89429E+01 1.13321E-03 3.28914E-03-5.24764E-02-1.51923E-14 7.15886E-14
 -1      1489 1.88729E+01 7.35139E-03 5.38343E-03-4.79836E-02-1.20686E-14 4.55885E-14
 -1      1490 1.90947E+01 4.65437E-03-1.63034E-03-7.24683E-02-2.08577E-14 3.56620E-14
 -1      1491 1.90677E+01-5.47120E-05 2.49777E-03-5.68810E-02 2.92080E-14 4.75635E-14
 -1      1492 1.89876E+01 3.59413E-03 3.45521E-03-5.46029E-02 1.24102E-14 5.90934E-14
 -1      1493 1.91580E+01 9.68967E-05-1.38820E-03-9.58019E-02 7.75291E-15-7.46365E-16
 -1      1494 1.92027E+01-6.76375E-04 2.01983E-03-5.61443E-02 2.66006E-14-1.09669E-14
 -1      1495 1.91217E+01 1.37785E-03 2.36324E-03-5.52178E-02 1.61687E-14 3.79393E-14
 -1      1496 1.92520E+01-2.27544E-03-1.03483E-03-1.03182E-01 4.35868E-14-3.38995E-14
 -1      1497 1.93363E+01-9.18648E-04 1.65771E-03-5.28246E-02 1.59096E-14-5.99182E-14
 -1      1498 1.92592E+01 1.36891E-04 1.69968E-03-5.26758E-02 1.33217E-14-3.48961E-14
 -1      1499 1.93584E+01-3.34122E-03-7.26688E-04-1.01820E-01 3.59399E-14-8.94204E-14
 -1      1500 1.94632E+01-8.90808E-04 1.34255E-03-4.86312E-02 1.65058E-15-1.97221E-14
 -1      1501 1.93920E+01-4.34681E-04 1.25985E-03-4.88543E-02 1.18994E-15-5.58607E-14
 -1      1502 1.94673E+01-3.55839E-03-5.14020E-04-9.62651E-02 9.98127E-15-9.71040E-14
 -1      1503 1.95820E+01-6.58181E-04 1.05425E-03-4.47767E-02-1.48438E-15 1.96698E-14
 -1      1504 1.95168E+01-5.15966E-04 9.55673E-04-4.50674E-02 5.41829E-15 1.89462E-14
 -1      1505 1.95737E+01-3.19198E-03-4.00077E-04-8.96007E-02-1.10862E-14 4.79478E-15
 -1      1506 1.96944E+01-2.55624E-04 7.85256E-04-4.21850E-02 1.10901E-14 1.45050E-14
 -1      1507 1.96338E+01-2.09997E-04 7.47586E-04-4.22975E-02 2.64888E-14 3.24428E-14
 -1      1508 1.96768E+01-2.39659E-03-3.78509E-04-8.40569E-02 2.16894E-14 7.92991E-15
 -1      1509 1.98044E+01 3.06242E-04 5.29029E-04-4.16359E-02 1.37564E-14-3.98685E-14
 -1      1510 1.97460E+01 4.33970E-04 6.14816E-04-4.13500E-02 6.88838E-15-3.21223E-14
 -1      1511 1.97781E+01-1.25225E-03-4.46916E-04-8.13860E-02 3.52114E-14 2.04127E-15
 -1      1512 1.99182E+01 1.03843E-03 2.76613E-04-4.38776E-02 3.96931E-14-1.77115E-13
 -1      1513 1.98584E+01 1.41081E-03 5.44919E-04-4.29706E-02 5.51136E-14-9.22419E-14
 -1      1514 1.98816E+01 2.18643E-04-6.10736E-04-8.31251E-02 6.68611E-14-1.38328E-13
 -1      1515 2.00440E+01 1.97324E-03 1.47187E-05-4.97282E-02 1.92553E-14-2.31807E-13
 -1      1516 1.99782E+01 2.75673E-03 5.29736E-04-4.79472E-02 3.03748E-14-1.92302E-13
 -1      1517 1.99933E+01 2.04428E-03-8.85141E-04-9.08097E-02 7.92910E-14-1.13920E-13
 -1      1518 2.01926E+01 3.16525E-03-2.76680E-04-6.01755E-02-4.26605E-14-2.73606E-13
 -1      1519 2.01147E+01 4.55064E-03 5.62893E-04-5.72063E-02-1.20273E-14-2.54583E-13
 -1      1520 2.01211E+01 4.30214E-03-1.29737E-03-1.06167E-01 1.27949E-14-7.86338E-14
 -1      1521 2.03776E+01 4.69190E-03-6.28176E-04-7.64786E-02 1.04163E-13-3.54725E-13
 -1      1522 2.02801E+01 6.91758E-03 6.36803E-04-7.19104E-02 4.68903E-14-2.88805E-13
 -1      1523 2.02754E+01 7.12087E-03-1.89010E-03-1.31303E-01 4.12049E-14-2.05891E-13
 -1      1524 2.06162E+01 6.65034E-03-1.08686E-03-1.00268E-01-5.63267E-14-4.47436E-13
 -1      1525 2.04894E+01 1.00301E-02 7.37655E-04-9.35525E-02 5.24832E-14-3.92829E-13
 -1      1526 2.04691E+01 1.06808E-02-2.72565E-03-1.68890E-01 1.02622E-13-1.92258E-13
 -1      1527 2.09306E+01 9.14217E-03-1.72409E-03-1.33613E-01 3.62217E-14-4.48010E-13
 -1      1528 2.07620E+01 1.40977E-02 8.36482E-04-1.24025E-01-5.93724E-14-4.78426E-13
 -1      1529 2.07185E+01 1.52036E-02-3.88995E-03-2.22309E-01-4.76663E-14-3.27334E-13
 -1      1530 2.13481E+01 1.22281E-02-2.64059E-03-1.78980E-01-1.10018E-13-4.01384E-13
 -1      1531 2.11218E+01 1.93224E-02 8.74480E-04-1.65598E-01-5.74955E-14-4.50094E-13
 -1      1532 2.10435E+01 2.09084E-02-5.49153E-03-2.95670E-01-4.28763E-14-2.80118E-13
 -1      1533 2.19020E+01 1.58143E-02-3.95085E-03-2.38894E-01-8.18148E-14-1.76476E-13
 -1      1534 2.15986E+01 2.57694E-02 7.44118E-04-2.20659E-01-5.98432E-14-3.05746E-13
 -1      1535 2.14681E+01 2.78823E-02-7.64271E-03-3.93470E-01-1.68211E-13-1.99503E-13
 -1      1536 2.26296E+01 1.93994E-02-5.69246E-03-3.14898E-01-2.56158E-14-1.27003E-13
 -1      1537 2.22268E+01 3.30534E-02 2.81787E-04-2.90873E-01-1.11369E-14-1.20631E-13
 -1      1538 2.20194E+01 3.57567E-02-1.03882E-02-5.19371E-01-7.38611E-14-5.89557E-14
 -1      1539 2.35658E+01 2.15687E-02-7.53443E-03-4.05020E-01-7.35436E-15-1.29025E-13
 -1      1540 2.30422E+01 3.96608E-02-6.72891E-04-3.75127E-01-1.98062E-14-1.95422E-13
 -1      1541 2.27243E+01 4.29871E-02-1.35030E-02-6.73108E-01 1.11256E-14-7.78514E-14
 -1      1542 2.47266E+01 1.91304E-02-8.08372E-03-4.98448E-01-8.49663E-14-2.94903E-14
 -1      1543 2.40715E+01 4.16808E-02-2.02141E-03-4.65181E-01-8.85542E-14-1.15349E-13
 -1      1544 2.36023E+01 4.54344E-02-1.60235E-02-8.43746E-01-9.01978E-14-1.36970E-13
 -1      1545 2.60753E+01 6.06028E-03-3.73641E-03-5.66009E-01-5.28043E-14 1.32928E-13
 -1      1546 2.53105E+01 3.09267E-02-2.77617E-03-5.37766E-01-4.03449E-14 3.20369E-14
 -1      1547 2.46485E+01 3.40726E-02-1.53993E-02-9.97006E-01-9.27882E-14-7.92092E-14
 -1      1548 2.74642E+01-2.63690E-02 1.18884E-02-5.47343E-01 6.65358E-14 1.30347E-13
 -1      1549 2.66818E+01-6.26867E-03-1.16062E-04-5.43433E-01 1.34177E-14 1.50081E-13
 -1      1550 2.58066E+01-7.25847E-03-6.63558E-03-1.05604E+00-2.24911E-14 8.24757E-14
 -1      1551 2.85607E+01-8.40792E-02 4.40688E-02-3.45813E-01 1.58467E-14 1.31485E-13
 -1      1552 2.79720E+01-8.47291E-02 1.04357E-02-3.99680E-01 5.08187E-14 1.52954E-13
 -1      1553 2.69274E+01-9.88795E-02 1.66995E-02-8.84580E-01 3.07324E-14 3.04944E-13
 -1      1554 2.88180E+01-1.52774E-01 8.26389E-02 1.35384E-01-1.42528E-13 2.22711E-13
 -1      1555 2.87730E+01-2.00703E-01 3.00513E-02-1.35647E-02-1.54193E-13 7.44743E-14
 -1      1556 2.77305E+01-2.45754E-01 5.47569E-02-3.08783E-01-1.24872E-13 3.40871E-13
 -1      1557 2.76434E+01-1.70652E-01 8.36714E-02 8.61393E-01 7.13457E-14 2.69174E-13
 -1      1558 2.85129E+01-2.92227E-01 4.38671E-02 6.21601E-01-4.11476E-15 2.81247E-13
 -1      1559 2.78174E+01-3.86160E-01 8.60696E-02 7.49011E-01-9.88654E-14 2.65427E-13
 -1      1560 2.49271E+01-4.32665E-02-1.22485E-02 1.45134E+00-2.60122E-15 1.78524E-13
 -1      1561 2.67448E+01-2.20485E-01 1.64692E-02 1.24919E+00 3.87971E-14 2.17298E-13
 -1      1562 2.68446E+01-3.49757E-01 6.00228E-02 1.97072E+00 6.65058E-14 1.73854E-13
 -1      1563 2.17930E+01 1.84963E-01-1.86412E-01 1.30217E+00-2.17534E-15 2.29039E-13
 -1      1564 2.38156E+01 6.60876E-02-7.13482E-02 1.32074E+00 7.66054E-15 2.07223E-13
 -1      1565 2.50090E+01 5.24233E-02-3.06680E-02 2.47117E+00 1.51476E-14 2.59723E-13
 -1      1566 2.03016E+01 3.15948E-01-2.84597E-01 1.76566E-01-2.48412E-14 4.31027E-13
 -1      1567 2.12070E+01 3.96101E-01-1.71895E-01 4.93805E-01-7.65221E-14 2.21420E-13
 -1      1568 2.33192E+01 6.15795E-01-1.41496E-01 1.42875E+00-4.57551E-14 3.84838E-13
 -1      1569 2.16880E+01 1.79418E-01-1.82037E-01-1.09544E+00 7.09224E-14 4.66488E-13
 -1      1570 2.07660E+01 4.15164E-01-1.77483E-01-7.35445E-01 4.39995E-14 4.73920E-13
 -1      1571 2.30931E+01 7.72711E-01-1.62314E-01-7.19862E-01 9.28424E-15 3.49505E-13
 -1      1572 2.48647E+01-5.80174E-02 2.21292E-02-1.52097E+00 2.55750E-14 1.90070E-13
 -1      1573 2.28186E+01 1.34817E-01-6.86897E-02-1.38808E+00 1.04954E-13 4.39593E-13
 -1      1574 2.44996E+01 3.04058E-01-9.33344E-02-2.29584E+00 1.17663E-13 2.33175E-13
 -1      1575 2.76459E+01-1.56015E-01 1.35225E-01-1.04155E+00 2.87548E-14-2.87548E-14
 -1      1576 2.58211E+01-1.35000E-01 4.52400E-02-1.12962E+00 1.10734E-13 1.72695E-13
 -1      1577 2.63820E+01-2.83078E-01-1.98003E-02-2.26101E+00 1.83482E-13 3.13131E-13
 -1      1578 2.88792E+01-1.38199E-01 1.22316E-01-2.90218E-01-5.61547E-14 1.90563E-13
 -1      1579 2.80148E+01-2.21705E-01 8.07539E-02-4.53179E-01-1.56659E-13-1.01433E-13
 -1      1580 2.75886E+01-4.86979E-01 1.75347E-02-1.19074E+00-9.48269E-14 1.65402E-13
 -1      1581 2.86377E+01-7.50152E-02 6.16804E-02 2.67563E-01-7.52523E-15 4.23139E-13
 -1      1582 2.86987E+01-1.69711E-01 5.64724E-02 1.41621E-01-9.00183E-14 2.67113E-13
 -1      1583 2.77505E+01-3.71239E-01 2.29859E-02-1.85226E-02-2.13451E-13 2.28826E-13
 -1      1584 2.75287E+01-2.24829E-02 1.21321E-02 5.30958E-01 9.96755E-14 3.88189E-13
 -1      1585 2.81366E+01-8.60984E-02 2.03984E-02 4.66986E-01 1.13992E-13 5.06852E-13
 -1      1586 2.70980E+01-1.77627E-01 1.49910E-02 7.35115E-01 5.90361E-14 3.69539E-13
 -1      1587 2.61110E+01 6.27319E-03-1.21307E-02 5.84126E-01-1.71941E-13 5.11716E-13
 -1      1588 2.69124E+01-2.38653E-02-2.77268E-03 5.65095E-01-4.98629E-14 4.13926E-13
 -1      1589 2.60248E+01-3.69185E-02 6.69906E-03 1.03984E+00-3.01382E-14 4.83179E-13
 -1      1590 2.47214E+01 1.74510E-02-1.85241E-02 5.31528E-01-2.35918E-14 8.18512E-13
 -1      1591 2.55056E+01 9.49662E-03-1.11676E-02 5.35789E-01-8.82541E-14 6.20101E-13
 -1      1592 2.48435E+01 3.35169E-02 1.96062E-03 1.05374E+00-1.84076E-13 6.96403E-13
 -1      1593 2.35104E+01 1.92595E-02-1.68144E-02 4.42473E-01 7.73426E-15 8.69450E-13
 -1      1594 2.41868E+01 2.25966E-02-1.11591E-02 4.55617E-01-2.94842E-14 8.78006E-13
 -1      1595 2.37361E+01 5.71044E-02 3.51433E-05 9.30453E-01-8.56685E-14 6.50858E-13
 -1      1596 2.25180E+01 1.72329E-02-1.28475E-02 3.51747E-01-2.14139E-13 9.19145E-13
 -1      1597 2.30655E+01 2.48827E-02-8.27518E-03 3.66459E-01-5.32413E-14 8.86520E-13
 -1      1598 2.27820E+01 5.75189E-02-5.24531E-04 7.66055E-01-8.72132E-14 8.29639E-13
 -1      1599 2.17323E+01 1.42609E-02-9.12338E-03 2.72674E-01 9.35562E-14 9.46011E-13
 -1      1600 2.21607E+01 2.26269E-02-5.25957E-03 2.86017E-01-2.30306E-14 9.29529E-13
 -1      1601 2.19992E+01 4.93159E-02-6.15925E-04 6.07073E-01-7.50103E-14 7.40634E-13
 -1      1602 2.11240E+01 1.16552E-02-6.44264E-03 2.07647E-01 2.08567E-13 6.48233E-13
 -1      1603 2.14523E+01 1.92640E-02-3.02445E-03 2.18944E-01 2.03942E-13 8.09981E-13
 -1      1604 2.13765E+01 3.97195E-02-6.74327E-04 4.70056E-01 2.66262E-13 5.38698E-13
 -1      1605 2.06639E+01 1.01023E-02-4.99351E-03 1.53891E-01 2.05712E-13 1.75603E-13
 -1      1606 2.09100E+01 1.66579E-02-1.71129E-03 1.63747E-01 2.11942E-13 5.24798E-13
 -1      1607 2.08930E+01 3.19830E-02-9.25309E-04 3.56157E-01 4.05700E-13 2.89903E-13
 -1      1608 2.03316E+01 9.62178E-03-4.54658E-03 1.06686E-01 2.93849E-14-6.86634E-14
 -1      1609 2.05070E+01 1.55910E-02-1.18754E-03 1.16079E-01-2.83627E-16-4.44172E-14
 -1      1610 2.05285E+01 2.75293E-02-1.50813E-03 2.59170E-01 1.57770E-13 6.48483E-14
 -1      1611 2.01174E+01 1.06110E-02-4.15323E-03 5.98811E-02 2.14207E-13-6.09893E-13
 -1      1612 2.02258E+01 1.67407E-02-1.16308E-03 7.09736E-02 3.26009E-13-1.20252E-13
 -1      1613 2.02675E+01 2.68602E-02-2.40600E-03 1.70617E-01 3.33121E-13-2.26253E-13
 -1      1614 2.00198E+01 1.10866E-02 1.40998E-03 1.40397E-02 4.62767E-14-8.04053E-13
 -1      1615 2.00581E+01 1.70866E-02-3.97283E-04 2.57120E-02-2.87231E-14-8.51552E-13
 -1      1616 2.00995E+01 2.69550E-02-2.81819E-03 8.17702E-02 2.25323E-13-7.71384E-13
 -1      1617 1.99984E+01 2.98351E-03 3.86394E-03-3.83328E-03-3.98541E-13-4.74090E-13
 -1      1618 2.00173E+01 8.78430E-02-2.64727E-03 4.77120E-02-6.88174E-13 1.07448E-13
 -1      1619 2.00187E+01 4.40263E-02 1.16235E-03 3.57630E-02-6.70466E-13-1.02328E-13
 -1      1620 2.00106E+01 2.59833E-01-1.86534E-03 9.02653E-02-2.23079E-13 1.51851E-13
 -1      1621 2.00151E+01 1.61113E-01-1.78688E-03 8.28911E-02-5.15219E-13 3.03178E-14
 -1      1622 2.00328E+01 1.61839E-01-2.99288E-03 1.28788E-01-7.59056E-14 2.63787E-13
 -1      1623 2.00016E+01 4.83749E-01-6.44319E-04 1.11666E-01-1.74231E-13 6.66699E-14
 -1      1624 2.00068E+01 3.55074E-01-1.21126E-03 1.09269E-01-2.96102E-13 2.67800E-13
 -1      1625 2.00161E+01 3.30351E-01-2.32901E-03 1.93532E-01-1.20356E-13 3.03149E-13
 -1      1626 1.99935E+01 7.15966E-01 2.09061E-04 1.09479E-01-4.74040E-13-2.43031E-13
 -1      1627 1.99981E+01 5.85703E-01-3.32628E-04 1.11821E-01-2.27935E-13 2.47417E-14
 -1      1628 2.00010E+01 5.27890E-01 2.56194E-04 2.15890E-01-2.84947E-13-7.56484E-14
 -1      1629 1.99880E+01 9.11566E-01 5.35789E-04 8.81859E-02-1.13929E-12-4.52623E-13
 -1      1630 1.99911E+01 8.05389E-01 1.38731E-04 9.37610E-02-6.21125E-13-5.94416E-13
 -1      1631 1.99881E+01 7.18835E-01 2.48917E-03 1.96069E-01-3.93018E-13-6.00981E-13
 -1      1632 1.99850E+01 1.04697E+00 5.76427E-04 5.36369E-02-8.82846E-13 1.66922E-13
 -1      1633 1.99867E+01 9.78040E-01 3.37536E-04 6.12822E-02-1.06042E-12 1.83813E-13
 -1      1634 1.99796E+01 8.73648E-01 3.93510E-03 1.44152E-01-3.92681E-13-1.72782E-13
 -1      1635 1.99847E+01 1.10133E+00 4.43275E-04 1.33426E-02-7.89873E-13 8.79709E-14
 -1      1636 1.99849E+01 1.07960E+00 3.16135E-04 2.14605E-02-8.82565E-13 1.33588E-13
 -1      1637 1.99756E+01 9.71205E-01 4.58912E-03 7.23771E-02-5.80787E-13 1.82909E-13
 -1      1638 1.99867E+01 1.07235E+00 2.47712E-04-2.59229E-02-4.60965E-13 2.85109E-13
 -1      1639 1.99854E+01 1.09761E+00 2.29472E-04-1.85647E-02-7.57499E-13 3.60357E-13
 -1      1640 1.99758E+01 9.98870E-01 4.46831E-03-5.22042E-03-2.43050E-13 2.93846E-13
 -1      1641 1.99901E+01 9.69671E-01 5.17514E-05-5.88499E-02-7.96082E-13-2.61743E-13
 -1      1642 1.99879E+01 1.03514E+00 1.39211E-04-5.31320E-02-4.81940E-13-1.12757E-13
 -1      1643 1.99793E+01 9.57183E-01 3.74876E-03-7.66371E-02-2.47301E-13-1.65896E-14
 -1      1644 1.99943E+01 8.11602E-01-1.10056E-04-8.19750E-02-1.30346E-12-3.27088E-13
 -1      1645 1.99917E+01 9.06000E-01 8.94098E-05-7.84038E-02-8.35083E-13-2.81512E-13
 -1      1646 1.99851E+01 8.56199E-01 2.64392E-03-1.32999E-01-6.08653E-13-3.45735E-13
 -1      1647 1.99987E+01 6.24673E-01-2.25952E-04-9.34521E-02-1.55308E-12 1.92431E-13
 -1      1648 1.99959E+01 7.32469E-01 4.20616E-05-9.22104E-02-1.37592E-12-1.54936E-13
 -1      1649 1.99921E+01 7.13784E-01 1.39315E-03-1.68756E-01-5.79154E-13-4.99045E-13
 -1      1650 2.00032E+01 4.27219E-01-4.22370E-04-9.31113E-02-1.26069E-12 1.68211E-13
 -1      1651 2.00003E+01 5.37646E-01-7.15759E-05-9.41553E-02-1.63626E-12 5.45760E-13
 -1      1652 1.99994E+01 5.48666E-01 7.27684E-05-1.81928E-01-7.43471E-13 3.31017E-13
 -1      1653 2.00073E+01 2.47487E-01-8.34484E-04-8.08697E-02-1.20168E-12 3.02552E-14
 -1      1654 2.00047E+01 3.44208E-01-3.87566E-04-8.41128E-02-1.12772E-12 1.07968E-13
 -1      1655 2.00070E+01 3.79680E-01-1.20183E-03-1.72072E-01-7.27651E-13 2.75370E-13
 -1      1656 2.00122E+01 1.11157E-01-1.49186E-04-5.73645E-02-1.10573E-12 1.03543E-13
 -1      1657 2.00084E+01 1.78351E-01-1.06761E-03-6.28775E-02-1.22372E-12 7.24782E-14
 -1      1658 2.00145E+01 2.28052E-01-2.24055E-03-1.39489E-01-6.34680E-13 8.82722E-14
 -1      1659 2.00201E+01 4.41679E-02 1.61406E-03-3.79078E-02-4.91816E-13 2.28173E-13
 -1      1660 2.00190E+01 7.49198E-02-9.14170E-04-4.93316E-02-8.03053E-13 2.57864E-13
 -1      1661 2.00320E+01 1.24949E-01-1.47839E-03-1.05957E-01-3.83838E-13 4.82848E-13
 -1      1662 2.00558E+01 5.96862E-02 3.26206E-04-7.65341E-02-1.27901E-13 4.10529E-13
 -1      1663-7.32587E-01-1.53670E+01-1.70562E+00-1.37729E+00 7.82152E-14 3.07171E-13
 -1      1664-6.62147E-01-1.69020E+01-1.80109E+00-1.64484E-02-2.45803E-13 2.94098E-13
 -1      1665 5.78671E-01-9.98148E+00-1.46202E+00-6.35642E-01 6.53366E-13 4.68264E-13
 -1      1666 1.46470E-01-1.47177E+01-1.87441E+00-8.45941E-01 2.99538E-13 3.31207E-13
 -1      1667 5.95349E+00-2.45396E+00-8.40246E-01 3.41189E+00 5.14699E-13-1.06581E-14
 -1      1668 3.19085E+00-8.02858E+00-1.54454E+00 7.69000E-01 7.32525E-13 1.49269E-13
 -1      1669 1.70716E+01 3.17976E+00-2.54751E-02 8.72486E+00-5.32907E-15-2.28928E-13
 -1      1670 1.04451E+01-7.66941E-01-9.43781E-01 4.81433E+00 2.23599E-13-3.33067E-15
 -1      1671 3.38168E+01 5.05289E+00 9.54340E-01 1.14929E+01-1.35558E-13-4.18110E-13
 -1      1672 2.33476E+01 4.05817E+00-9.70268E-02 9.01285E+00-5.82867E-14-2.14495E-13
 -1      1673 4.94050E+01 4.95494E+00 1.88032E+00 1.05757E+01-2.61263E-13-2.26152E-13
 -1      1674 3.94106E+01 6.40164E+00 9.91889E-01 1.20506E+01-3.25739E-13-3.73479E-13
 -1      1675 5.82415E+01 3.68197E+00 2.23618E+00 3.52294E+00 5.89528E-14-4.03400E-13
 -1      1676 5.29833E+01 4.87977E+00 1.81238E+00 8.37677E+00-3.91215E-14-3.57270E-13
 -1      1677 5.79159E+01 4.01264E+00 2.14858E+00-4.85592E+00 2.91350E-13-7.44960E-13
 -1      1678 5.96080E+01 3.60653E+00 2.29777E+00 1.12369E+00 1.68032E-13-5.08760E-13
 -1      1679 4.63979E+01 5.67947E+00 1.32469E+00-1.02528E+01 2.03573E-13-7.98028E-13
 -1      1680 5.47147E+01 4.13777E+00 2.05066E+00-6.72947E+00 2.52090E-13-8.08575E-13
 -1      1681 3.09480E+01 5.31833E+00 3.51133E-01-1.03539E+01 2.07612E-13-6.31495E-13
 -1      1682 4.13810E+01 4.86442E+00 1.26716E+00-1.09147E+01 2.26541E-13-8.98392E-13
 -1      1683 1.64789E+01 3.33802E+00-4.99385E-01-7.88544E+00 1.55209E-13-3.50164E-13
 -1      1684 2.47378E+01 5.29605E+00 4.33455E-01-1.11447E+01 2.59015E-13-4.32099E-13
 -1      1685 7.03985E+00-2.69199E+00-1.16267E+00-3.21462E+00-1.09024E-13-3.08642E-14
 -1      1686 1.18071E+01 1.93804E+00-3.44074E-01-6.73798E+00 8.85958E-14-2.96430E-13
 -1      1687 2.15110E+00-1.03608E+01-1.60371E+00-1.75484E-01-6.21725E-15 6.46427E-14
 -1      1688 4.03630E+00-4.84938E+00-1.00952E+00-2.08644E+00-1.17684E-13 1.13687E-13
 -1      1689-2.76434E-01-1.61461E+01-1.92276E+00 8.20287E-01-2.74447E-13-3.83027E-14
 -1      1690-1.93289E-01-1.22816E+01-1.60470E+00 1.26900E+00-1.04805E-13-3.85386E-14
 -1      1691-7.50693E-01-1.70735E+01-1.83553E+00-1.78279E-01-5.76178E-13-1.55598E-13
 -1      1692-8.40302E-01-1.66674E+01-1.82757E+00 1.36309E+00-3.37091E-13-6.48370E-14
 -1      1693-3.40521E-01-1.33076E+01-1.57760E+00-6.88130E-01-6.54143E-13-1.26787E-13
 -1      1694-4.09298E-01-1.67875E+01-1.89853E+00 2.82150E-01-6.45206E-13-6.26166E-14
 -1      1695 2.93900E+00-5.40891E+00-9.32077E-01 2.02284E+00-4.52416E-13-9.76996E-14
 -1      1696 1.54778E+00-1.11799E+01-1.54389E+00 6.16543E-01-6.86340E-13-1.17323E-13
 -1      1697 9.81182E+00 1.81537E+00-2.69230E-01 6.44361E+00-2.36700E-13-1.06581E-14
 -1      1698 5.84645E+00-3.21003E+00-1.04618E+00 3.17660E+00-3.33955E-13-9.45910E-14
 -1      1699 2.18929E+01 5.93291E+00 4.24043E-01 1.12103E+01-7.58282E-14-1.02474E-13
 -1      1700 1.41320E+01 3.58391E+00-4.12628E-01 7.68689E+00-1.01696E-13-6.55032E-14
 -1      1701 3.72723E+01 5.57209E+00 1.03588E+00 1.14378E+01-9.95870E-14-9.99201E-14
 -1      1702 2.78357E+01 6.09722E+00 3.16859E-01 1.06796E+01-1.22791E-13-1.30118E-13
 -1      1703 4.95821E+01 4.61264E+00 1.61265E+00 8.22811E+00-1.66672E-14 8.06022E-14
 -1      1704 4.19358E+01 6.27671E+00 1.03408E+00 1.11497E+01-1.17906E-13-8.91509E-14
 -1      1705 5.53243E+01 3.59331E+00 1.82234E+00 4.62055E-01 5.90916E-14 1.06665E-13
 -1      1706 5.26039E+01 4.30959E+00 1.60016E+00 6.14908E+00 6.17562E-14 1.03972E-13
 -1      1707 5.16157E+01 4.61488E+00 1.63715E+00-7.86221E+00-6.96387E-14 4.66294E-14
 -1      1708 5.54306E+01 3.45477E+00 1.86097E+00-2.52253E+00 3.93852E-14 4.94327E-14
 -1      1709 3.98212E+01 6.74602E+00 1.08126E+00-1.23881E+01 1.06609E-13-5.47340E-14
 -1      1710 4.82624E+01 4.97053E+00 1.69011E+00-1.01745E+01 1.27245E-13 7.58282E-14
 -1      1711 2.52745E+01 7.00965E+00 3.43571E-01-1.16533E+01 1.49880E-13-1.90958E-13
 -1      1712 3.46341E+01 6.86093E+00 1.17202E+00-1.32002E+01 4.83502E-14-1.73861E-13
 -1      1713 1.27254E+01 2.76208E+00-4.84433E-01-7.00728E+00 5.89973E-13-1.98619E-13
 -1      1714 2.00079E+01 5.79996E+00 4.13406E-01-1.07770E+01 2.24487E-13-1.20570E-13
 -1      1715 4.33829E+00-4.75523E+00-1.22658E+00-2.18841E+00 5.22693E-13-2.27318E-13
 -1      1716 7.96744E+00 1.00108E+00-3.99972E-01-5.49923E+00 5.61773E-13-3.65596E-13
 -1      1717 8.98756E-01-1.27130E+01-1.65736E+00-2.17677E-01-3.54161E-14-2.62814E-13
 -1      1718 1.85206E+00-7.11022E+00-1.08312E+00-1.08137E+00 3.52163E-13-2.85494E-13
 -1      1719-5.72679E-01-1.70361E+01-1.85334E+00-6.71975E-01-1.26482E-13-2.83107E-15
 -1      1720-5.14666E-01-1.43350E+01-1.60980E+00 6.46503E-01 1.50990E-14-1.98730E-13
 -1      1721 2.57426E+01-1.23570E+00 1.50699E-01 6.29594E+00-6.43929E-14-3.83027E-13
 -1      1722 1.39535E+01-4.73825E+00-4.78561E-01 5.88148E+00 2.88325E-13-4.08396E-13
 -1      1723 2.00178E+01 1.26791E-02-3.88487E-04 1.25028E-02-5.97120E-13-6.81852E-13
 -1      1724 2.00443E+01 6.26338E-02-2.11083E-04 6.09092E-02-1.58577E-13-3.73696E-13
 -1      1725 1.77879E-02-1.08814E+01-1.26319E+00 1.52065E+00 8.68194E-14 5.29021E-13
 -1      1726 5.03894E+00-8.42102E+00-1.01497E+00 3.77846E+00 3.28626E-13 1.11966E-13
 -1      1727-1.33152E+00-1.13944E+01-1.26323E+00-5.76623E-01 2.12282E-13 2.26541E-13
 -1      1728 3.69042E+01 2.85792E+00 7.82289E-01 5.41618E+00-1.42858E-13-1.10800E-13
 -1      1729 4.61587E+01 6.30823E+00 1.54568E+00 4.04873E+00-1.80522E-13-3.30069E-13
 -1      1730 5.05318E+01 7.44210E+00 1.83517E+00 8.62422E-01 2.18603E-13-4.33792E-13
 -1      1731 4.87591E+01 7.07038E+00 1.67263E+00-2.10071E+00 2.56128E-13-4.95992E-13
 -1      1732 4.12757E+01 4.52920E+00 1.05514E+00-3.91207E+00 9.65755E-14-6.68909E-13
 -1      1733 3.15691E+01 1.35173E+00 5.51240E-01-6.24512E+00 7.51066E-14-5.67879E-13
 -1      1734 1.98641E+01-1.85623E+00-1.58712E-01-6.63785E+00-4.48530E-14-3.42948E-13
 -1      1735 1.03338E+01-5.96353E+00-7.26810E-01-5.16867E+00 6.08402E-14-2.42889E-13
 -1      1736 3.23229E+00-9.32838E+00-1.07173E+00-3.21380E+00-1.07470E-13-3.38202E-14
 -1      1737-8.18195E-01-1.15884E+01-1.32815E+00-8.07289E-01-1.88349E-13-2.02671E-13
 -1      1738-1.24766E+00-1.17031E+01-1.32674E+00 1.11992E+00-2.89685E-13-1.41887E-13
 -1      1739 1.95341E+00-9.44897E+00-1.05166E+00 3.51735E+00-4.57190E-13 9.76996E-15
 -1      1740 8.50095E+00-5.77630E+00-6.38654E-01 5.65838E+00-4.24993E-13-7.04992E-14
 -1      1741 1.74219E+01-1.48856E+00-1.15095E-01 7.21808E+00-1.97287E-13 5.21805E-15
 -1      1742 2.85039E+01 2.00447E+00 5.08753E-01 7.09195E+00-5.46230E-14-2.15272E-13
 -1      1743 3.76058E+01 4.78643E+00 8.03310E-01 5.13358E+00-1.59980E-13-2.17493E-13
 -1      1744 4.48343E+01 7.11132E+00 1.33555E+00 3.20604E+00-1.18017E-13-2.06779E-13
 -1      1745 4.77694E+01 7.38705E+00 1.54293E+00-5.45537E-01 6.01186E-14-1.37793E-13
 -1      1746 4.48120E+01 6.76420E+00 1.42328E+00-4.64443E+00 1.55320E-13-6.87783E-14
 -1      1747 3.68238E+01 5.20065E+00 1.00809E+00-7.28113E+00 1.33948E-13-1.20348E-13
 -1      1748 2.63657E+01 2.05004E+00 3.93922E-01-7.90465E+00 2.64733E-13-1.50102E-13
 -1      1749 1.56364E+01-2.04708E+00-2.15570E-01-6.98443E+00 4.53304E-13-1.11466E-13
 -1      1750 6.63503E+00-6.60845E+00-7.99093E-01-5.03301E+00 3.70481E-13-3.06311E-13
 -1      1751 9.27260E-01-1.01078E+01-1.14235E+00-2.93302E+00 1.16518E-13-3.44613E-13
 -1      1752 2.28516E+01 1.98476E+00-2.35923E-02-2.72317E+00-6.56419E-14 3.63820E-13
 -1      1753 1.98221E+01 3.71426E+00-3.55366E-02-2.15355E+00-9.98776E-14-6.37893E-14
 -1      1754 2.00559E+01 3.56190E+00-4.02537E-02-2.44652E+00-1.09161E-13-2.40710E-14
 -1      1755 2.03598E+01 3.18159E+00-4.56848E-02-2.58643E+00-1.01614E-13 3.26544E-14
 -1      1756 2.05782E+01 2.80979E+00-1.42535E-01-2.85473E+00-1.05929E-13 9.62633E-14
 -1      1757 2.04203E+01 2.69332E+00-4.43033E-03-2.22746E+00-1.07452E-13 6.39072E-15
 -1      1758 1.93576E+01 4.18989E+00-2.02120E-02-1.27186E+00-7.61075E-14-1.16938E-13
 -1      1759 1.94299E+01 4.14940E+00-1.75171E-02-1.49621E+00-8.37269E-14-1.03416E-13
 -1      1760 1.92630E+01 4.29531E+00-1.68062E-02-8.60542E-01-4.95975E-14-1.39794E-13
 -1      1761 1.93050E+01 4.27142E+00-1.43479E-02-1.07141E+00-5.99594E-14-1.32038E-13
 -1      1762 1.95305E+01 3.78336E+00-9.20966E-03-1.12111E+00-7.21561E-14-1.17894E-13
 -1      1763 1.92125E+01 4.35592E+00-1.48166E-02-4.67240E-01-2.30869E-14-1.39314E-13
 -1      1764 1.92340E+01 4.34303E+00-1.33243E-02-6.67693E-01-3.94926E-14-1.43954E-13
 -1      1765 1.94349E+01 3.90394E+00-9.18607E-03-7.33855E-01-4.17690E-14-1.30226E-13
 -1      1766 1.91936E+01 4.38164E+00-1.36823E-02-8.37438E-02-7.11817E-15-1.55001E-13
 -1      1767 1.91999E+01 4.37769E+00-1.32301E-02-2.79344E-01-1.21826E-14-1.49275E-13
 -1      1768 1.93854E+01 3.96869E+00-9.14488E-03-3.58594E-01-1.41477E-14-1.36665E-13
 -1      1769 1.92015E+01 4.37631E+00-1.31833E-02 2.98330E-01 1.38848E-14-1.67923E-13
 -1      1770 1.91941E+01 4.38081E+00-1.37651E-02 1.02572E-01 4.27945E-15-1.63133E-13
 -1      1771 1.93710E+01 3.98817E+00-9.13159E-03 1.05304E-02 4.57363E-15-1.49779E-13
 -1      1772 1.92381E+01 4.33896E+00-1.33397E-02 6.87369E-01 2.94476E-14-1.73589E-13
 -1      1773 1.92153E+01 4.35275E+00-1.49282E-02 4.86422E-01 2.21037E-14-1.73583E-13
 -1      1774 1.93881E+01 3.96539E+00-9.17524E-03 3.79831E-01 2.27522E-14-1.68582E-13
 -1      1775 1.93105E+01 4.26528E+00-1.44184E-02 1.08533E+00 4.65873E-14-1.66103E-13
 -1      1776 1.92677E+01 4.28989E+00-1.69835E-02 8.77217E-01 3.90935E-14-1.76262E-13
 -1      1777 1.94401E+01 3.89768E+00-9.18309E-03 7.52236E-01 3.89334E-14-1.70997E-13
 -1      1778 1.94404E+01 4.13775E+00-1.74123E-02 1.51564E+00 8.63051E-14-1.41283E-13
 -1      1779 1.93648E+01 4.18051E+00-2.05053E-02 1.28598E+00 6.20608E-14-1.46359E-13
 -1      1780 1.95385E+01 3.77347E+00-9.24075E-03 1.13628E+00 6.30539E-14-1.43965E-13
 -1      1781 1.96673E+01 3.92096E+00-2.52019E-02 1.98095E+00 1.10949E-13-1.26343E-13
 -1      1782 1.95356E+01 3.99789E+00-2.68934E-02 1.72355E+00 9.77274E-14-1.40180E-13
 -1      1783 1.97099E+01 3.56611E+00-8.69976E-03 1.53632E+00 9.85486E-14-1.32049E-13
 -1      1784 2.00732E+01 3.52250E+00-4.51899E-02 2.47344E+00 1.35232E-13-6.77791E-14
 -1      1785 1.98346E+01 3.68308E+00-3.97032E-02 2.18436E+00 1.20089E-13-1.06731E-13
 -1      1786 2.00039E+01 3.22282E+00-5.26810E-03 1.93588E+00 1.27661E-13-1.05234E-13
 -1      1787 2.09157E+01 2.68158E+00-5.76510E-02 2.85898E+00 1.41507E-13 3.50345E-14
 -1      1788 2.04097E+01 3.09671E+00-5.04069E-02 2.61733E+00 1.39879E-13-2.66037E-14
 -1      1789 2.05142E+01 2.60981E+00 3.18678E-03 2.24592E+00 1.43176E-13-4.10227E-14
 -1      1790 2.17241E+01 1.21296E+00-1.22082E-01 2.33084E+00 1.23089E-13 1.71599E-13
 -1      1791 2.12686E+01 2.26288E+00 1.23762E-04 2.74156E+00 1.37848E-13 8.20038E-14
 -1      1792 2.09319E+01 1.68496E+00-2.29685E-02 2.14148E+00 1.41829E-13 4.09985E-14
 -1      1793 2.09451E+01 7.78670E-01-6.24641E-02 1.52524E+00 1.31575E-13 1.39468E-13
 -1      1794 2.17904E+01 2.45809E+00 9.08690E-02-3.04917E+00-8.58862E-14 2.03504E-13
 -1      1795 2.00937E+01 2.97947E-01-8.92528E-03 6.58095E-01 8.60111E-14 7.81059E-14
 -1      1796 2.06462E+01 4.40418E-01-1.24656E-02 1.03510E+00 1.06089E-13 1.20003E-13
 -1      1797 2.07384E+01 8.45130E-01 2.25668E-03 1.41635E+00 1.23453E-13 5.68330E-14
 -1      1798 2.15013E+01 1.74270E+00 7.94498E-02-2.33825E+00-9.11909E-14 1.52316E-13
 -1      1799 2.05148E+01 5.00497E-01 3.25338E-02-9.22706E-01-8.30759E-14 1.27238E-13
 -1      1800 2.00825E+01 3.51894E-01 7.58395E-03-6.30894E-01-7.90097E-14 1.04486E-13
 -1      1801 1.98878E+01 2.57455E-01 2.73957E-02-3.92473E-01-8.85845E-14 9.10981E-14
 -1      1802 1.96966E+01 1.78328E-01 1.04128E-02-2.54492E-01-8.85906E-14 7.70269E-14
 -1      1803 2.01941E+01 4.84097E-01-5.68996E-03-7.24230E-01-1.07845E-13 5.67879E-14
 -1      1804 1.95747E+01 1.33038E-01 1.66698E-02-1.20697E-01-7.28072E-14 6.98972E-14
 -1      1805 1.94966E+01 9.34757E-02 7.01536E-03-4.96726E-02-3.69210E-14 5.99507E-14
 -1      1806 1.98680E+01 2.44737E-01-5.65878E-03-2.96634E-01-1.00248E-13 4.23325E-14
 -1      1807 1.94320E+01 6.88679E-02 8.71391E-03 2.41848E-02-3.12222E-14 5.41173E-14
 -1      1808 1.94178E+01 4.73742E-02 4.18905E-03 6.07239E-02-3.09650E-14 3.49905E-14
 -1      1809 1.96858E+01 1.26083E-01-4.56780E-03-5.90782E-02-5.00583E-14-1.07254E-14
 -1      1810 1.93923E+01 3.32109E-02 4.27990E-03 1.00059E-01-3.63782E-14 3.14792E-14
 -1      1811 1.94129E+01 2.10714E-02 2.54434E-03 1.17437E-01-1.24086E-14 3.42575E-15
 -1      1812 1.96002E+01 6.21495E-02-3.45544E-03 7.16639E-02-3.78775E-14-1.32868E-14
 -1      1813 1.94123E+01 1.27096E-02 1.91869E-03 1.36420E-01-2.98318E-16 1.98744E-14
 -1      1814 1.94509E+01 5.94467E-03 1.60972E-03 1.42819E-01-8.39530E-15 3.38836E-14
 -1      1815 1.95778E+01 2.59904E-02-2.39209E-03 1.40036E-01-3.35547E-15-4.75303E-15
 -1      1816 1.94654E+01 1.14042E-03 6.44695E-04 1.49867E-01-4.32750E-14 3.80071E-14
 -1      1817 1.95123E+01-2.28346E-03 1.06485E-03 1.50142E-01-1.86912E-14 5.47480E-14
 -1      1818 1.95946E+01 5.53729E-03-1.54849E-03 1.71467E-01-1.04117E-14 5.46321E-14
 -1      1819 1.95355E+01-4.74935E-03-4.22009E-05 1.50580E-01-3.34261E-14 5.56178E-14
 -1      1820 1.95853E+01-5.97774E-03 7.59253E-04 1.47843E-01-3.64920E-14 6.57965E-14
 -1      1821 1.96344E+01-5.22910E-03-9.60342E-04 1.81520E-01-2.52997E-14 3.91889E-14
 -1      1822 1.96131E+01-6.83729E-03-3.86139E-04 1.45212E-01-6.92224E-14 4.57227E-14
 -1      1823 1.96631E+01-6.56717E-03 6.20659E-04 1.41560E-01-8.33388E-14-9.11969E-15
 -1      1824 1.96870E+01-9.64175E-03-5.90312E-04 1.80281E-01-9.13765E-14-1.11186E-14
 -1      1825 1.96934E+01-6.29347E-03-5.16739E-04 1.38296E-01-6.13854E-14 4.35726E-15
 -1      1826 1.97426E+01-4.97465E-03 6.06928E-04 1.35187E-01-1.98054E-14-2.15073E-14
 -1      1827 1.97465E+01-9.71331E-03-3.87516E-04 1.74561E-01-7.35597E-14 5.88455E-15
 -1      1828 1.97745E+01-3.89294E-03-5.11367E-04 1.33001E-01-6.59287E-15-3.71462E-15
 -1      1829 1.98232E+01-1.83477E-03 6.87634E-04 1.31464E-01 2.67866E-16 8.49484E-15
 -1      1830 1.98099E+01-6.74526E-03-3.08120E-04 1.69097E-01-4.19754E-15-2.19856E-15
 -1      1831 1.98568E+01-1.87705E-04-4.20875E-04 1.31558E-01-3.48868E-14-2.63096E-14
 -1      1832 1.99061E+01 2.37234E-03 8.36004E-04 1.32309E-01-2.30067E-14-3.82238E-14
 -1      1833 1.98763E+01-1.64200E-03-3.18011E-04 1.67216E-01-4.37480E-14-2.02825E-14
 -1      1834 1.99419E+01 4.37665E-03-2.81318E-04 1.35490E-01-2.32688E-14-6.21830E-14
 -1      1835 1.99936E+01 7.21749E-03 1.02339E-03 1.38976E-01-5.85940E-14 1.37156E-14
 -1      1836 1.99465E+01 4.89203E-03-3.90421E-04 1.71218E-01-3.91256E-14-2.25080E-16
 -1      1837 2.00327E+01 9.36169E-03-1.20335E-04 1.45691E-01-9.02590E-14-2.76838E-14
 -1      1838 2.00888E+01 1.22244E-02 1.21385E-03 1.52084E-01-3.99829E-14-5.07040E-14
 -1      1839 2.00221E+01 1.21963E-02-5.02840E-04 1.82541E-01-7.06617E-14-1.52196E-14
 -1      1840 2.01325E+01 1.42360E-02 3.87671E-05 1.62374E-01-1.79929E-14-1.01844E-13
 -1      1841 2.01950E+01 1.67651E-02 1.35851E-03 1.71495E-01-8.21847E-15-9.08799E-14
 -1      1842 2.01055E+01 1.95037E-02-6.34168E-04 2.01759E-01-6.53240E-14-1.67524E-14
 -1      1843 2.02445E+01 1.82667E-02 1.74228E-04 1.84874E-01-3.72241E-14-1.67599E-13
 -1      1844 2.03150E+01 1.99473E-02 1.39010E-03 1.96064E-01-3.81235E-14-1.57927E-13
 -1      1845 2.01995E+01 2.57807E-02-7.62173E-04 2.28403E-01-5.09007E-14-4.51289E-14
 -1      1846 2.03716E+01 2.04055E-02 2.64179E-04 2.11318E-01 1.48672E-14-1.34828E-13
 -1      1847 2.04507E+01 2.05029E-02 1.21943E-03 2.23231E-01 3.18450E-14-7.14519E-14
 -1      1848 2.03063E+01 2.95586E-02-8.61198E-04 2.60610E-01 8.85915E-15-7.76597E-14
 -1      1849 2.05150E+01 1.91879E-02 2.86209E-04 2.38147E-01 9.03395E-15-7.15345E-14
 -1      1850 2.06020E+01 1.67114E-02 7.36899E-04 2.48506E-01 4.24132E-14-7.47025E-14
 -1      1851 2.04279E+01 2.87803E-02-9.00013E-04 2.94606E-01 3.37386E-14-8.01817E-14
 -1      1852 2.06737E+01 1.26925E-02 2.18298E-04 2.59558E-01 1.68194E-14-6.62982E-14
 -1      1853 2.07655E+01 6.42688E-03-1.75242E-04 2.64905E-01 4.30946E-14-1.43265E-13
 -1      1854 2.05645E+01 2.07229E-02-8.39698E-04 3.24065E-01-1.78041E-14-1.00697E-13
 -1      1855 2.08432E+01-1.34534E-03 4.08692E-05 2.67003E-01 6.11675E-14-1.56794E-13
 -1      1856 2.09336E+01-1.26642E-02-1.61205E-03 2.62570E-01-4.29006E-14-1.26894E-13
 -1      1857 2.07143E+01 2.12359E-03-6.31343E-04 3.39492E-01 3.33557E-14-1.56568E-13
 -1      1858 2.10140E+01-2.51103E-02-2.61426E-04 2.49044E-01-8.82419E-14-4.57963E-14
 -1      1859 2.10928E+01-4.23625E-02-3.58766E-03 2.28951E-01-6.90023E-14-5.07292E-14
 -1      1860 2.08723E+01-3.02792E-02-2.13945E-04 3.27919E-01 4.26276E-15-2.14017E-13
 -1      1861 2.11702E+01-5.97554E-02-6.99935E-04 1.92100E-01-9.66284E-14 3.29059E-14
 -1      1862 2.12233E+01-8.26304E-02-5.94643E-03 1.50214E-01-3.51566E-14 1.77108E-14
 -1      1863 2.10291E+01-7.84868E-02 4.85019E-04 2.73454E-01-5.39432E-14-7.20334E-14
 -1      1864 2.12886E+01-1.03733E-01-1.28539E-03 8.28806E-02 2.30718E-14 7.91400E-14
 -1      1865 2.12988E+01-1.29544E-01-8.25932E-03 1.47403E-02 2.11870E-14 7.19636E-14
 -1      1866 2.11698E+01-1.40983E-01 1.53703E-03 1.59537E-01 4.87316E-14 3.13295E-14
 -1      1867 2.13396E+01-1.50506E-01-2.02186E-03-8.66006E-02-3.26722E-14-9.47506E-15
 -1      1868 2.12892E+01-1.72964E-01-9.76495E-03-1.80569E-01-4.50872E-14-9.88281E-14
 -1      1869 2.12729E+01-2.09560E-01 2.96665E-03-2.60445E-02 2.14709E-14-2.59611E-14
 -1      1870 2.12901E+01-1.86498E-01-2.87917E-03-3.11126E-01-8.76378E-14-8.29994E-14
 -1      1871 2.11664E+01-1.95371E-01-9.45715E-03-4.21540E-01-1.08960E-13-1.17078E-13
 -1      1872 2.13112E+01-2.66275E-01 4.64673E-03-2.82688E-01-1.05115E-13-1.26322E-13
 -1      1873 2.11122E+01-1.91267E-01-3.69037E-03-5.63001E-01-7.03179E-14-1.50676E-13
 -1      1874 2.09141E+01-1.74479E-01-6.46096E-03-6.68314E-01-7.64753E-15-1.43197E-13
 -1      1875 2.12550E+01-2.83159E-01 6.14745E-03-5.85967E-01-1.02844E-13-1.26549E-14
 -1      1876 2.07961E+01-1.42987E-01-4.06174E-03-7.86161E-01 1.02172E-13-2.49693E-13
 -1      1877 2.05415E+01-9.25787E-02-7.51198E-04-8.53674E-01 1.12115E-13-1.22632E-13
 -1      1878 2.10815E+01-2.28649E-01 6.58763E-03-8.78338E-01 2.80808E-16-4.69462E-14
 -1      1879 2.03681E+01-3.12465E-02-3.22086E-03-9.02251E-01 9.29595E-15-1.41304E-13
 -1      1880 2.00967E+01 4.77981E-02 6.20079E-03-8.97094E-01 3.45540E-14-1.77436E-13
 -1      1881 2.07905E+01-8.42773E-02 4.72695E-03-1.07042E+00 5.51521E-14-8.61494E-14
 -1      1882 1.99024E+01 1.26610E-01-3.67725E-04-8.36882E-01-5.95357E-15-1.83911E-13
 -1      1883 1.96698E+01 2.11345E-01 1.16456E-02-7.39245E-01-4.83992E-14-2.01667E-13
 -1      1884 2.04240E+01 1.33383E-01-1.38600E-05-1.06452E+00 5.28037E-14-2.21701E-13
 -1      1885 1.95117E+01 2.80288E-01 4.56814E-03-5.61851E-01-1.70127E-13-2.19347E-13
 -1      1886 1.93739E+01 3.36711E-01 1.31373E-02-3.83881E-01-2.08547E-13-1.92055E-13
 -1      1887 2.00725E+01 3.61957E-01-6.28727E-03-8.02736E-01-9.01050E-14-9.39084E-14
 -1      1888 1.93090E+01 3.65702E-01 1.00270E-02-1.28131E-01-1.66043E-13-2.29185E-13
 -1      1889 1.93019E+01 3.67648E-01 1.02680E-02 8.34085E-02-1.89154E-14-1.23321E-13
 -1      1890 1.98500E+01 5.13253E-01-1.06908E-02-3.16766E-01-2.10311E-13-6.37018E-14
 -1      1891 1.93557E+01 3.42667E-01 1.32914E-02 3.41963E-01 1.58625E-13-1.41241E-13
 -1      1892 1.94805E+01 2.88997E-01 4.97463E-03 5.24294E-01 2.19559E-13-6.88919E-14
 -1      1893 1.98389E+01 5.19806E-01-1.04261E-02 2.63035E-01 6.37906E-14-1.26697E-13
 -1      1894 1.96309E+01 2.21825E-01 1.21816E-02 7.08455E-01 1.09403E-13-1.91636E-13
 -1      1895 1.98538E+01 1.37466E-01-5.04590E-06 8.12366E-01-9.58825E-15-2.00996E-13
 -1      1896 2.00426E+01 3.78157E-01-5.50482E-03 7.60401E-01 1.01899E-13-2.44236E-13
 -1      1897 2.00443E+01 5.78213E-02 6.82051E-03 8.79901E-01-7.21899E-14-1.83791E-13
 -1      1898 2.03097E+01-2.29233E-02-3.10454E-03 8.90380E-01-1.30874E-13-1.47216E-13
 -1      1899 2.03821E+01 1.50593E-01 6.50646E-04 1.03849E+00 1.10628E-14-1.19528E-13
 -1      1900 2.04820E+01-8.66778E-02-2.80999E-04 8.46801E-01-2.33523E-13-1.98675E-13
 -1      1901 2.07333E+01-1.39768E-01-4.17952E-03 7.81868E-01-1.78509E-13-3.43854E-13
 -1      1902 2.07430E+01-7.30934E-02 4.91387E-03 1.05837E+00-2.41502E-13-7.88558E-14
 -1      1903 2.08509E+01-1.74000E-01-6.23550E-03 6.65324E-01 6.17609E-14-2.23582E-13
 -1      1904 2.10466E+01-1.93299E-01-3.95040E-03 5.59460E-01 1.07211E-13-1.48595E-13
 -1      1905 2.10322E+01-2.26343E-01 6.37818E-03 8.73155E-01-2.14403E-14 2.98344E-14
 -1      1906 2.10995E+01-1.99435E-01-9.46464E-03 4.15856E-01 8.84254E-14-2.13247E-13
 -1      1907 2.12198E+01-1.92163E-01-3.18747E-03 3.02524E-01 2.63236E-14-9.17550E-14
 -1      1908 2.12039E+01-2.88721E-01 5.76380E-03 5.79426E-01 8.48844E-14 9.37870E-14
 -1      1909 2.12156E+01-1.79609E-01-9.92151E-03 1.67676E-01 8.29545E-15-7.22773E-15
 -1      1910 2.12603E+01-1.57733E-01-2.32514E-03 6.96094E-02-1.52738E-14 4.42680E-16
 -1      1911 2.12555E+01-2.76634E-01 4.24341E-03 2.68546E-01 3.83998E-14 1.10112E-13
 -1      1912 2.12143E+01-1.36826E-01-8.45911E-03-3.67390E-02-1.12165E-13-1.01066E-13
 -1      1913 2.11957E+01-1.10753E-01-1.53201E-03-1.09073E-01-1.19823E-13-1.46626E-13
 -1      1914 2.12088E+01-2.21410E-01 2.63397E-03 1.25939E-03-1.28299E-13 7.05686E-14
 -1      1915 2.11235E+01-8.89787E-02-6.10612E-03-1.80944E-01-8.87298E-14-1.71417E-13
 -1      1916 2.10596E+01-6.51163E-02-8.26685E-04-2.26227E-01 4.92709E-14-6.14730E-14
 -1      1917 2.10937E+01-1.51679E-01 1.29897E-03-1.95095E-01-9.01998E-14-4.13992E-15
 -1      1918 2.09744E+01-4.63931E-02-3.65252E-03-2.66122E-01 2.77404E-13-5.79812E-14
 -1      1919 2.08835E+01-2.73741E-02-1.83997E-04-2.87977E-01 3.42592E-13-2.04600E-15
 -1      1920 2.09383E+01-8.58768E-02 3.12245E-04-3.17487E-01 1.29983E-13 2.19447E-14
 -1      1921 2.07949E+01-1.28385E-02-1.55110E-03-3.01985E-01 2.08306E-13 7.19228E-14
 -1      1922 2.06928E+01 1.26199E-03 4.26040E-04-3.05570E-01 2.50313E-13 2.33831E-13
 -1      1923 2.07656E+01-3.21570E-02-3.71280E-04-3.75840E-01 3.67990E-13 1.18645E-13
 -1      1924 2.06077E+01 1.21308E-02 1.38335E-05-3.00094E-01 2.42259E-13 1.93304E-13
 -1      1925 2.05070E+01 2.25497E-02 1.00906E-03-2.90010E-01 2.49926E-13 2.68467E-13
 -1      1926 2.05922E+01 8.55351E-03-8.22843E-04-3.84147E-01 2.69389E-13 1.78142E-13
 -1      1927 2.04298E+01 3.09667E-02 1.00385E-03-2.70140E-01 2.01252E-13 3.20848E-13
 -1      1928 2.03399E+01 3.93170E-02 1.51725E-03-2.49559E-01 2.80275E-13 3.33411E-13
 -1      1929 2.04300E+01 3.91494E-02-1.10115E-03-3.55190E-01 2.80005E-13 2.74949E-13
 -1      1930 2.02729E+01 4.64273E-02 1.41063E-03-2.18755E-01 3.57519E-13 6.54966E-14
 -1      1931 2.02006E+01 5.36826E-02 1.83834E-03-1.89532E-01 2.34667E-13 2.22039E-13
 -1      1932 2.02866E+01 6.37246E-02-1.12777E-03-2.98493E-01 2.02264E-13 3.34501E-13
 -1      1933 2.01507E+01 5.73949E-02 1.46665E-03-1.52250E-01 2.28089E-13 3.33228E-13
 -1      1934 2.00989E+01 6.19724E-02 2.15378E-03-1.17934E-01 1.22247E-13 4.26159E-13
 -1      1935 2.00852E+01 8.61381E-02-1.00745E-03-1.39666E-01 4.17421E-14 4.83054E-13
 -1      1936 2.01712E+01 8.17482E-02-1.31879E-03-2.23105E-01 2.73075E-13 2.41447E-13
 -1      1937 1.96105E+01 1.42062E-01 7.87917E-03 2.60428E-01 9.55954E-14 2.75578E-14
 -1      1938 1.98830E+01 2.04108E-01 1.64384E-02 4.33416E-01 8.37282E-14 6.27762E-14
 -1      1939 2.00957E+01 3.50576E-01-1.53052E-03 6.56170E-01 9.64281E-14 2.11914E-14
 -1      1940 1.93678E+01 7.20426E-02 6.95283E-03 5.72853E-02 6.54208E-14-1.21101E-14
 -1      1941 1.94831E+01 1.01878E-01 1.42064E-02 1.45846E-01 6.82232E-14 1.74903E-14
 -1      1942 1.97027E+01 1.65289E-01-1.95134E-03 2.57281E-01 8.61386E-14 2.84469E-14
 -1      1943 1.92773E+01 3.64442E-02 4.44553E-03-4.86069E-02 1.13512E-14 6.07717E-15
 -1      1944 1.93076E+01 5.21880E-02 8.35914E-03-1.24352E-03 2.67987E-14 5.95010E-16
 -1      1945 1.95025E+01 8.09564E-02-2.84392E-03 4.49020E-02 3.53996E-14 3.57873E-15
 -1      1946 1.92763E+01 1.67562E-02 2.89542E-03-1.01918E-01-2.53131E-14-2.89727E-14
 -1      1947 1.92609E+01 2.55144E-02 4.39230E-03-7.69721E-02-1.03686E-14-8.51836E-15
 -1      1948 1.94241E+01 3.80333E-02-2.87224E-03-6.78109E-02-5.20634E-16-5.12073E-14
 -1      1949 1.93254E+01 5.50465E-03 2.04539E-03-1.25403E-01 3.46824E-14-5.28446E-14
 -1      1950 1.92863E+01 1.03837E-02 2.21101E-03-1.13395E-01 8.82963E-15-4.33679E-14
 -1      1951 1.94191E+01 1.46454E-02-2.35149E-03-1.24768E-01 1.53364E-14-8.12592E-14
 -1      1952 1.94006E+01-7.47451E-04 1.53777E-03-1.31845E-01 4.04720E-14-5.44034E-14
 -1      1953 1.93504E+01 1.78895E-03 1.04465E-03-1.27392E-01 4.91903E-14-4.29729E-14
 -1      1954 1.94566E+01 1.69453E-03-1.75303E-03-1.49600E-01 5.82951E-14-7.80628E-14
 -1      1955 1.94876E+01-3.76935E-03 1.20731E-03-1.29108E-01 3.08006E-14-1.04992E-13
 -1      1956 1.94334E+01-2.73371E-03 4.15273E-04-1.28848E-01 4.37568E-14-7.44774E-14
 -1      1957 1.95172E+01-5.02530E-03-1.26063E-03-1.56133E-01 5.51877E-14-6.20674E-14
 -1      1958 1.95783E+01-4.56658E-03 9.93986E-04-1.22395E-01-4.11652E-14-5.98412E-14
 -1      1959 1.95240E+01-4.52847E-03 9.11587E-05-1.24065E-01-5.55244E-15-8.80826E-14
 -1      1960 1.95893E+01-7.70261E-03-9.08708E-04-1.53121E-01 9.13912E-15-4.61106E-14
 -1      1961 1.96693E+01-3.73470E-03 8.78020E-04-1.15365E-01-2.39959E-14-2.53560E-14
 -1      1962 1.96164E+01-4.38491E-03-3.91567E-05-1.17342E-01-2.28621E-14-3.82709E-14
 -1      1963 1.96665E+01-7.57666E-03-6.81689E-04-1.46481E-01-4.11241E-14-5.15245E-14
 -1      1964 1.97600E+01-1.61081E-03 8.53919E-04-1.10763E-01 4.67820E-14-1.73582E-14
 -1      1965 1.97083E+01-2.76490E-03-3.37435E-05-1.11798E-01 2.11194E-14-3.97042E-14
 -1      1966 1.97459E+01-5.36341E-03-5.57132E-04-1.40463E-01 1.46164E-14-1.12790E-13
 -1      1967 1.98524E+01 1.65542E-03 9.23990E-04-1.10844E-01 9.54148E-14-9.13907E-14
 -1      1968 1.98006E+01 9.24464E-05 7.49376E-05-1.09882E-01 7.63689E-14-1.82162E-14
 -1      1969 1.98275E+01-1.44037E-03-5.17566E-04-1.38349E-01 8.06621E-14-1.01809E-13
 -1      1970 1.99507E+01 6.06834E-03 1.09751E-03-1.17684E-01 6.68558E-14-1.20898E-13
 -1      1971 1.98962E+01 4.12069E-03 2.69493E-04-1.13726E-01 6.05686E-14-9.36683E-14
 -1      1972 1.99133E+01 4.06764E-03-5.51657E-04-1.42935E-01 8.92754E-14-7.77646E-14
 -1      1973 2.00606E+01 1.17735E-02 1.39115E-03-1.33450E-01 3.30483E-14-1.93630E-14
 -1      1974 1.99998E+01 9.40398E-03 5.42894E-04-1.25430E-01 3.97889E-14-4.84808E-14
 -1      1975 2.00073E+01 1.12501E-02-6.53353E-04-1.56900E-01 1.98640E-14-4.72962E-14
 -1      1976 2.01899E+01 1.90552E-02 1.82904E-03-1.60640E-01 4.25951E-14-5.13311E-14
 -1      1977 2.01183E+01 1.61703E-02 8.95558E-04-1.47304E-01 5.24381E-14 6.66822E-15
 -1      1978 2.01149E+01 2.03974E-02-8.21010E-04-1.83117E-01 3.39907E-14-8.54874E-15
 -1      1979 2.03487E+01 2.83339E-02 2.44114E-03-2.02319E-01 1.11722E-13-1.75301E-13
 -1      1980 2.02603E+01 2.47899E-02 1.33238E-03-1.82105E-01 6.42460E-14-1.25131E-13
 -1      1981 2.02434E+01 3.19969E-02-1.05690E-03-2.24943E-01 1.43211E-13-5.90068E-14
 -1      1982 2.05494E+01 4.01420E-02 3.25692E-03-2.62313E-01 2.51659E-14-1.94725E-13
 -1      1983 2.04367E+01 3.57628E-02 1.85797E-03-2.33243E-01 1.32901E-13-1.65338E-13
 -1      1984 2.04018E+01 4.67159E-02-1.36742E-03-2.86470E-01 1.28841E-13-1.98212E-13
 -1      1985 2.08070E+01 5.50342E-02 4.28850E-03-3.45317E-01-5.90198E-14-2.59165E-13
 -1      1986 2.06608E+01 4.96635E-02 2.46758E-03-3.04918E-01-6.84652E-14-2.87272E-13
 -1      1987 2.06010E+01 6.53295E-02-1.76481E-03-3.72690E-01 1.36425E-14-2.30241E-13
 -1      1988 2.11396E+01 7.33358E-02 5.49289E-03-4.56702E-01-1.33742E-13-2.29232E-13
 -1      1989 2.09487E+01 6.69710E-02 3.12957E-03-4.02064E-01-4.59515E-14-1.87954E-13
 -1      1990 2.08537E+01 8.84969E-02-2.27210E-03-4.89438E-01-9.60343E-14-1.51012E-13
 -1      1991 2.15676E+01 9.45336E-02 6.69838E-03-6.01642E-01-1.67786E-13-1.85058E-13
 -1      1992 2.13193E+01 8.76369E-02 3.75479E-03-5.29807E-01-1.94869E-13-2.24923E-13
 -1      1993 2.11747E+01 1.16193E-01-2.93375E-03-6.42783E-01-1.80467E-13-1.78830E-13
 -1      1994 2.21124E+01 1.15950E-01 7.48400E-03-7.82716E-01 1.42985E-14-1.14774E-13
 -1      1995 2.17934E+01 1.10108E-01 4.15205E-03-6.91829E-01-9.86255E-14-1.40474E-13
 -1      1996 2.15797E+01 1.46417E-01-3.83276E-03-8.37223E-01-1.06887E-13-1.59803E-13
 -1      1997 2.27919E+01 1.30144E-01 7.03501E-03-9.94484E-01-3.18448E-14-1.02650E-13
 -1      1998 2.23918E+01 1.29325E-01 3.98944E-03-8.86527E-01 1.66455E-14-5.99737E-14
 -1      1999 2.20846E+01 1.72547E-01-5.10415E-03-1.07145E+00 1.97910E-14-1.28427E-13
 -1      2000 2.36129E+01 1.20533E-01 4.10494E-03-1.21271E+00-1.53353E-13-1.23619E-13
 -1      2001 2.31307E+01 1.33089E-01 2.83091E-03-1.09912E+00-1.46656E-13-1.25887E-13
 -1      2002 2.27025E+01 1.78537E-01-6.90099E-03-1.32975E+00-8.98548E-14-5.49526E-14
 -1      2003 2.45573E+01 5.60360E-02-2.58502E-03-1.37600E+00-5.93413E-14 2.06779E-14
 -1      2004 2.40133E+01 9.67644E-02 3.92163E-04-1.28750E+00-1.19489E-13-6.62742E-14
 -1      2005 2.34411E+01 1.31892E-01-9.20946E-03-1.56661E+00-1.61224E-13-3.92689E-14
 -1      2006 2.55643E+01-1.09180E-01-1.29023E-02-1.36168E+00-4.14052E-14 1.33022E-13
 -1      2007 2.50156E+01-2.07780E-02-2.92367E-03-1.36165E+00-4.74074E-14 7.14394E-14
 -1      2008 2.42978E+01-2.17416E-02-1.13905E-02-1.68409E+00-8.88642E-14 1.41736E-14
 -1      2009 2.65096E+01-4.11251E-01-2.27850E-02-9.75212E-01-3.06699E-14 4.56244E-13
 -1      2010 2.60649E+01-2.67038E-01-5.43480E-03-1.16602E+00-2.16441E-14 3.29237E-13
 -1      2011 2.52528E+01-3.46260E-01-1.14296E-02-1.51046E+00-1.05816E-13 2.56189E-13
 -1      2012 2.71913E+01-7.96255E-01-2.43221E-02-1.30488E-02-1.23136E-13 3.02978E-13
 -1      2013 2.70038E+01-6.43374E-01-6.49032E-03-5.02538E-01-8.41480E-14 3.48008E-13
 -1      2014 2.62451E+01-8.46420E-01-6.41044E-03-8.16426E-01-7.16233E-14 4.03775E-13
 -1      2015 2.73361E+01-9.80713E-01-1.38386E-02 1.50048E+00-2.55716E-14 2.80019E-13
 -1      2016 2.75555E+01-9.80702E-01-1.05903E-02 7.29607E-01-1.32498E-13 3.00229E-13
 -1      2017 2.71151E+01-1.32022E+00-2.03097E-04 5.49038E-01-9.14199E-14 2.87389E-13
 -1      2018 2.66739E+01-4.34582E-01-6.72520E-03 2.88247E+00 2.58404E-14 4.09693E-13
 -1      2019 2.73395E+01-8.22686E-01-3.22270E-02 2.20879E+00 1.12575E-14 3.47142E-13
 -1      2020 2.75139E+01-1.22035E+00-2.23200E-02 2.33272E+00-2.13627E-14 4.16410E-13
 -1      2021 2.53896E+01 7.48200E-01-6.41075E-02 2.78976E+00 4.41730E-14 3.28092E-13
 -1      2022 2.62353E+01 1.59442E-01-7.17864E-02 2.83457E+00 3.38826E-14 3.01745E-13
 -1      2023 2.71478E+01 1.21471E-01-6.06550E-02 3.41487E+00 2.67633E-14 4.47989E-13
 -1      2024 2.44387E+01 1.71474E+00-1.39625E-01 5.95421E-01-1.15769E-13 1.55199E-13
 -1      2025 2.49799E+01 1.47137E+00-7.54718E-02 1.66546E+00 1.32533E-14 2.12579E-13
 -1      2026 2.63997E+01 1.80486E+00-9.10293E-02 2.21705E+00 9.34947E-14 2.11418E-13
 -1      2027 2.49340E+01 1.20808E+00-1.46665E-01-2.12069E+00 7.01106E-14 3.17767E-13
 -1      2028 2.46758E+01 1.63721E+00-6.85528E-02-8.95147E-01-7.53009E-14 1.87676E-13
 -1      2029 2.61160E+01 2.33490E+00-1.22309E-01-7.60539E-01-7.68274E-14 1.40099E-13
 -1      2030 2.64490E+01-1.27494E-01-4.71418E-02-3.09154E+00 5.77316E-14 3.14512E-13
 -1      2031 2.55700E+01 5.02929E-01-4.45658E-02-2.68268E+00 1.17767E-13 3.21611E-13
 -1      2032 2.68443E+01 1.05286E+00-4.62190E-02-3.08591E+00 6.42403E-14 3.13895E-13
 -1      2033 2.75537E+01-8.24341E-01 6.59047E-02-2.15595E+00 1.69597E-13 4.18311E-13
 -1      2034 2.66316E+01-6.53556E-01-5.06218E-02-2.51314E+00 1.15912E-13 4.15695E-13
 -1      2035 2.73999E+01-6.20354E-01-6.21816E-02-3.13005E+00 1.51358E-13 3.55192E-13
 -1      2036 2.76270E+01-8.37079E-01 7.27426E-02-5.39729E-01-1.34403E-13 1.94124E-13
 -1      2037 2.71677E+01-1.00672E+00-5.03002E-02-1.16653E+00 2.30371E-14 3.00572E-13
 -1      2038 2.73253E+01-1.46189E+00-8.56472E-02-1.51948E+00 3.00645E-14 3.63052E-13
 -1      2039 2.69287E+01-5.07869E-01 3.63993E-02 6.87761E-01-1.74787E-13 1.46275E-13
 -1      2040 2.70079E+01-7.37314E-01-3.28856E-02 1.96039E-01-2.78853E-13 9.89816E-14
 -1      2041 2.66070E+01-1.24006E+00-7.84445E-02 1.84766E-01-2.01842E-13 1.57715E-13
 -1      2042 2.58899E+01-1.88105E-01 5.35110E-03 1.29093E+00 1.03636E-13 3.28321E-13
 -1      2043 2.63239E+01-3.47377E-01-1.67906E-02 1.03781E+00 1.96267E-14 2.92436E-13
 -1      2044 2.56487E+01-6.73743E-01-5.24899E-02 1.25637E+00-1.03329E-13 1.76451E-13
 -1      2045 2.47883E+01 7.72078E-03-9.09390E-03 1.42920E+00-4.05396E-13 4.85384E-13
 -1      2046 2.53738E+01-6.89447E-02-4.74455E-03 1.36024E+00-8.19362E-14 3.01949E-13
 -1      2047 2.46681E+01-2.07465E-01-2.69538E-02 1.68894E+00-8.46168E-14 2.77939E-13
 -1      2048 2.37624E+01 9.58097E-02-1.19785E-02 1.32046E+00-4.79328E-14 5.77582E-13
 -1      2049 2.43609E+01 7.31086E-02 3.26836E-03 1.35311E+00-2.99234E-13 4.82909E-13
 -1      2050 2.37554E+01 5.37192E-02-1.06045E-02 1.70608E+00-3.86074E-13 2.27456E-13
 -1      2051 2.28696E+01 1.19712E-01-1.00965E-02 1.11748E+00-1.76090E-13 7.36756E-13
 -1      2052 2.34092E+01 1.23606E-01 7.62283E-03 1.19127E+00-9.44422E-14 6.99642E-13
 -1      2053 2.29444E+01 1.58841E-01-3.06851E-03 1.52009E+00-2.16567E-13 3.65903E-13
 -1      2054 2.21240E+01 1.13613E-01-7.12761E-03 9.01888E-01-1.50407E-13 9.53209E-13
 -1      2055 2.25783E+01 1.27153E-01 9.17792E-03 9.83475E-01-3.28860E-14 9.97240E-13
 -1      2056 2.22477E+01 1.78424E-01-7.73817E-04 1.26693E+00-1.83147E-13 5.60909E-13
 -1      2057 2.15189E+01 9.73886E-02-4.46635E-03 7.08184E-01 2.17887E-13 4.57853E-13
 -1      2058 2.18859E+01 1.12053E-01 9.01279E-03 7.82989E-01-8.64612E-14 6.20800E-13
 -1      2059 2.16657E+01 1.61430E-01-7.44092E-04 1.01622E+00 8.07991E-14 4.59105E-13
 -1      2060 2.10385E+01 8.09847E-02-2.43758E-03 5.45001E-01 4.68314E-13 3.13747E-13
 -1      2061 2.13266E+01 9.31490E-02 8.00946E-03 6.09053E-01 4.47324E-13 4.63920E-13
 -1      2062 2.11909E+01 1.34743E-01-1.34512E-03 7.95281E-01 4.11978E-13 2.01751E-13
 -1      2063 2.06662E+01 6.93228E-02-9.39621E-04 4.08802E-01 3.20883E-13 4.57394E-14
 -1      2064 2.08861E+01 7.73738E-02 6.71007E-03 4.63289E-01 4.58861E-13 1.67746E-13
 -1      2065 2.08121E+01 1.11155E-01-1.83790E-03 6.08343E-01 5.42412E-13-4.14128E-14
 -1      2066 2.03873E+01 6.25594E-02-1.73979E-04 2.90256E-01 2.60766E-13-1.37204E-13
 -1      2067 2.05475E+01 6.77038E-02 5.13563E-03 3.38499E-01 2.51914E-13 8.47351E-14
 -1      2068 2.05179E+01 9.91046E-02-9.82840E-04 4.48013E-01 3.37230E-13-1.28196E-13
 -1      2069 2.01903E+01 6.45398E-02 9.20225E-04 1.77982E-01 3.84382E-13-2.33050E-13
 -1      2070 2.02963E+01 6.56931E-02 3.47601E-03 2.26210E-01 3.28080E-13-2.31152E-13
 -1      2071 2.02946E+01 9.69475E-02 4.68828E-04 3.05603E-01 3.40731E-13-1.60679E-13
 -1      2072 2.00830E+01 6.69454E-02 2.16727E-03 9.61580E-02 6.01158E-14-3.35946E-13
 -1      2073 2.01473E+01 6.97183E-02 2.26967E-03 1.43575E-01 4.57411E-13-1.60172E-13
 -1      2074 2.01553E+01 9.88038E-02-6.48235E-04 1.98538E-01 2.96517E-13 1.62319E-13
 -1      2075 2.00776E+01 9.92915E-02-2.23039E-04 1.23095E-01 6.34257E-14 4.66522E-13
 -1      2076 1.99866E+01 5.68680E-01-1.98389E-03 2.93332E-01-1.49854E-13-3.77585E-14
 -1      2077 2.00091E+01 4.75613E-01 1.39348E-03 2.94498E-01-2.83044E-13 2.66731E-13
 -1      2078 2.00319E+01 3.87281E-01-1.02229E-03 2.83126E-01-2.36294E-13 2.17138E-13
 -1      2079 2.00542E+01 2.98752E-01 2.12642E-03 2.57477E-01 4.75081E-14 1.41136E-13
 -1      2080 2.00312E+01 4.35051E-01 6.81437E-04 3.68774E-01-9.95118E-14 8.11188E-14
 -1      2081 2.00637E+01 2.31109E-01-1.62938E-04 2.19151E-01 1.59366E-13 1.21874E-13
 -1      2082 2.00781E+01 1.58275E-01 1.97235E-03 1.74412E-01 7.62429E-14 2.87421E-13
 -1      2083 2.01120E+01 1.59631E-01 1.44869E-03 2.14199E-01 2.10215E-13 2.89889E-13
 -1      2084 2.00803E+01 2.82194E-01-9.61820E-04 3.10620E-01 1.37436E-13 1.01219E-13
 -1      2085 1.99513E+01 7.28275E-01-2.68024E-03 2.52683E-01-2.97615E-13-8.47815E-13
 -1      2086 1.99681E+01 6.46032E-01-3.37908E-04 2.75260E-01-2.25726E-13-3.23370E-13
 -1      2087 1.99683E+01 5.99159E-01 1.76616E-03 3.58898E-01-2.17476E-13-2.63247E-13
 -1      2088 1.99282E+01 8.49506E-01-3.04918E-03 1.72923E-01-1.36728E-13-1.34894E-13
 -1      2089 1.99383E+01 7.88125E-01-1.89600E-03 2.11054E-01-5.34308E-14-3.76614E-13
 -1      2090 1.99198E+01 7.36168E-01 2.65338E-03 2.90808E-01 7.20643E-14-4.66238E-13
 -1      2091 1.99194E+01 9.13968E-01-2.98201E-03 7.18017E-02-1.84920E-13 1.86380E-13
 -1      2092 1.99221E+01 8.83152E-01-3.05940E-03 1.17166E-01-1.78006E-13 2.79117E-13
 -1      2093 1.98905E+01 8.29775E-01 3.18850E-03 1.80494E-01 1.71652E-13-5.53407E-14
 -1      2094 1.99235E+01 9.16241E-01-2.56086E-03-3.27604E-02-2.12730E-13 2.47946E-13
 -1      2095 1.99198E+01 9.18804E-01-3.60153E-03 1.21528E-02-2.16297E-13 2.19864E-13
 -1      2096 1.98819E+01 8.68496E-01 3.21585E-03 5.03213E-02 2.89005E-14 2.86486E-13
 -1      2097 1.99375E+01 8.60188E-01-1.89914E-03-1.25550E-01-2.51477E-13-1.38492E-13
 -1      2098 1.99291E+01 8.93884E-01-3.52062E-03-8.72917E-02-2.15982E-13 2.36753E-13
 -1      2099 1.98913E+01 8.51071E-01 2.79275E-03-7.81365E-02-2.04523E-13 1.66357E-13
 -1      2100 1.99576E+01 7.56982E-01-1.12024E-03-1.95781E-01-3.93568E-13-3.32738E-13
 -1      2101 1.99466E+01 8.15652E-01-2.91669E-03-1.68354E-01-3.65470E-13-3.78930E-13
 -1      2102 1.99142E+01 7.84079E-01 2.07192E-03-1.87365E-01-2.47536E-13-3.64962E-13
 -1      2103 1.99803E+01 6.24813E-01-2.44759E-04-2.36995E-01-5.15871E-13-4.09464E-13
 -1      2104 1.99684E+01 6.98334E-01-2.00483E-03-2.22622E-01-3.70933E-13-4.84766E-13
 -1      2105 1.99450E+01 6.80507E-01 1.27362E-03-2.65256E-01-2.29354E-13-3.84439E-13
 -1      2106 2.00040E+01 4.76028E-01 6.11010E-04-2.48438E-01-3.83859E-13 6.64332E-13
 -1      2107 1.99918E+01 5.57298E-01-9.95561E-04-2.47350E-01-4.52293E-13 1.85039E-13
 -1      2108 1.99791E+01 5.54059E-01 4.31394E-04-3.06850E-01-3.05471E-13-1.98268E-13
 -1      2109 2.00267E+01 3.29577E-01 1.35563E-03-2.29722E-01-2.20990E-13 2.61899E-13
 -1      2110 2.00151E+01 4.07679E-01-7.23376E-05-2.41816E-01-3.90012E-13 6.10020E-13
 -1      2111 2.00138E+01 4.17975E-01-3.49553E-04-3.10855E-01-1.18116E-13 6.58959E-13
 -1      2112 2.00474E+01 1.96092E-01 7.32816E-04-1.83279E-01-2.89080E-13 2.30691E-14
 -1      2113 2.00368E+01 2.65312E-01 4.03213E-04-2.07683E-01-3.10982E-13 7.56908E-14
 -1      2114 2.00474E+01 2.86489E-01-6.77462E-04-2.79059E-01-6.08250E-14 1.49253E-13
 -1      2115 9.55162E+00-5.97496E+00-2.12438E-01 5.84953E+00 1.06026E-13-3.63855E-13
 -1      2116 5.86660E+00-7.43013E+00-4.69701E-01 4.48123E+00 6.79456E-14 1.07914E-13
 -1      2117 1.67815E-01-7.12802E+00-3.61533E-01 6.76240E-02 2.20407E-13 2.39919E-13
 -1      2118 3.36563E-01-7.22810E+00-3.84285E-01-1.62235E+00 3.99292E-13-1.75360E-13
 -1      2119 3.20713E+00-7.13069E+00-3.59141E-01 3.56894E+00 1.54765E-13 4.90830E-13
 -1      2120 1.38283E+00-7.35295E+00-3.90696E-01 2.22742E+00 1.55431E-15 4.30489E-13
 -1      2121 6.63848E+00-5.70350E+00-1.70069E-01 5.19513E+00-4.47420E-14 1.02807E-13
 -1      2122 1.89565E+01-4.57745E+00-9.70463E-02 6.49926E+00-1.14353E-14-6.47815E-13
 -1      2123 1.37470E+01-6.19409E+00-3.99536E-01 5.70526E+00 1.37224E-13-6.08930E-13
 -1      2124 2.91607E+01-2.38225E+00 1.62376E-02 4.61914E+00-9.44800E-14-1.67644E-13
 -1      2125 2.36974E+01-4.09197E+00-2.08355E-01 4.96890E+00-1.42775E-13-3.57991E-13
 -1      2126 1.95252E+01 4.01769E+00-2.49826E-02-1.70112E+00-9.20579E-14-9.84560E-14
 -1      2127 1.96481E+01 3.94377E+00-2.46643E-02-1.95753E+00-1.01132E-13-8.10359E-14
 -1      2128 1.99635E+01 3.23740E+00-1.87395E-02-1.92700E+00-1.02372E-13-6.47225E-14
 -1      2129 1.96970E+01 3.58970E+00-6.69308E-03-1.52125E+00-9.34784E-14-9.30575E-14
 -1      2130 4.12079E+01 5.47152E+00 3.74970E-01 5.58141E-01-5.76206E-14-5.26357E-13
 -1      2131 3.86734E+01 4.09243E+00 1.72503E-01 1.40295E+00-1.47327E-13-2.78111E-13
 -1      2132 4.40722E+01 7.07079E+00 5.59837E-01-1.51823E-01 2.31482E-13-3.99455E-13
 -1      2133 4.28186E+01 6.92279E+00 4.28071E-01 7.62952E-01 9.96980E-14-4.24355E-13
 -1      2134 4.09784E+01 6.01041E+00 2.79109E-01-8.71638E-01 1.60760E-13-3.80640E-13
 -1      2135 4.36882E+01 6.79612E+00 5.96280E-01-3.06200E-01 2.24043E-13-3.61544E-13
 -1      2136 3.56949E+01 2.14814E+00 5.01155E-02-1.36613E+00 6.68215E-14-3.70703E-13
 -1      2137 3.96679E+01 4.04909E+00 3.60190E-01-1.11806E+00 9.28146E-14-3.46390E-13
 -1      2138 2.82457E+01-2.15155E+00-1.22453E-01-4.23400E+00 2.70339E-14-5.16698E-13
 -1      2139 3.29847E+01-7.30957E-01 2.94821E-02-3.21831E+00-2.97817E-14-6.59028E-13
 -1      2140 2.01394E+01-4.68024E+00-3.03552E-01-5.48733E+00-4.16889E-14-3.61267E-13
 -1      2141 2.52923E+01-2.95293E+00 2.75328E-02-5.82425E+00 8.53762E-14-3.29570E-13
 -1      2142 2.85569E+01-4.16829E+00 1.22612E-01-3.25179E+00-8.60423E-16-4.58189E-13
 -1      2143 1.12261E+01-6.56184E+00-3.87708E-01-5.55759E+00 3.66374E-14-2.23016E-13
 -1      2144 1.54836E+01-4.95150E+00-1.61863E-01-6.41572E+00 4.39648E-14-4.24272E-13
 -1      2145 3.77402E+00-7.72388E+00-5.03963E-01-3.66266E+00-6.38378E-14-1.40499E-13
 -1      2146 6.96264E+00-6.30087E+00-2.55723E-01-5.21926E+00 6.65024E-14-1.60261E-13
 -1      2147 3.19572E-01-7.74244E+00-4.51168E-01-1.01436E+00-1.13853E-13-1.78968E-13
 -1      2148 1.52870E+00-7.55324E+00-4.17740E-01-2.39895E+00-9.15934E-14-2.26430E-13
 -1      2149 8.20519E-01-7.18823E+00-3.73872E-01 2.43355E+00-1.61815E-13-1.14353E-13
 -1      2150 1.53665E-01-7.33933E+00-3.91350E-01 9.42928E-01-1.18499E-13-7.58282E-14
 -1      2151 4.98505E+00-5.91629E+00-2.29501E-01 5.40172E+00-3.74090E-13-1.19571E-13
 -1      2152 2.38091E+00-7.49461E+00-4.55743E-01 3.77628E+00-2.65399E-13-1.39333E-13
 -1      2153 2.99463E+00-4.97770E+00-1.71694E-01 3.89518E+00-1.69587E-13-2.44249E-13
 -1      2154 1.31917E+01-4.46319E+00-7.66257E-02 7.20199E+00-2.93765E-13-3.08087E-15
 -1      2155 9.23948E+00-6.10881E+00-3.03567E-01 6.22036E+00-4.39593E-13 8.98864E-14
 -1      2156 2.19028E+01-2.11321E+00 4.59275E-02 7.12982E+00-2.15827E-13 8.74856E-14
 -1      2157 1.70080E+01-4.06793E+00-2.54765E-01 6.55874E+00-2.16827E-13 9.10383E-15
 -1      2158 3.00501E+01 1.08978E-01 7.41716E-03 4.59790E+00-5.56222E-14-1.77580E-13
 -1      2159 2.55832E+01-1.21315E+00-5.78034E-02 5.62255E+00-1.25011E-13-1.07636E-13
 -1      2160 3.69223E+01 4.69535E+00 3.51079E-01 2.72556E+00-1.37973E-13-1.40721E-13
 -1      2161 3.30111E+01 2.81477E+00 4.22445E-02 2.95105E+00 5.96745E-16-7.79377E-14
 -1      2162 4.00455E+01 7.02009E+00 3.60175E-01 9.34320E-01-2.18159E-14-2.33313E-13
 -1      2163 3.77211E+01 6.14407E+00 1.28193E-01 1.83649E+00-1.47493E-13-2.25320E-13
 -1      2164 4.10693E+01 7.28288E+00 3.69683E-01-9.61081E-01 8.28781E-14-1.87461E-13
 -1      2165 4.08258E+01 7.38554E+00 2.89015E-01 4.86552E-01 3.11973E-14-1.98078E-13
 -1      2166 3.77442E+01 5.63975E+00 1.91201E-01-2.81595E+00 1.64285E-13-1.68199E-13
 -1      2167 4.03924E+01 6.44824E+00 3.78702E-01-1.65077E+00 7.36633E-14-1.03861E-13
 -1      2168 3.20781E+01 2.33370E+00 3.89600E-02-4.34488E+00 1.11577E-13-1.19571E-13
 -1      2169 3.61493E+01 3.83884E+00 3.02738E-01-3.72177E+00 2.39336E-13-8.97060E-14
 -1      2170 2.43560E+01-1.08855E+00-1.14878E-01-6.00914E+00 4.33098E-13-1.86962E-13
 -1      2171 2.94686E+01 9.03265E-01 2.05451E-01-6.20371E+00 2.73559E-13-1.94511E-13
 -1      2172 1.52236E+01-4.47290E+00-2.82486E-01-6.55015E+00 3.32068E-13-1.17961E-13
 -1      2173 2.03223E+01-2.41707E+00 4.53965E-02-7.29025E+00 4.16778E-13-2.25320E-13
 -1      2174 7.87100E+00-6.40243E+00-3.10304E-01-5.92051E+00 1.47438E-13-2.98525E-13
 -1      2175 1.16555E+01-4.77390E+00-8.41936E-02-7.01533E+00 2.62679E-13-2.00180E-13
 -1      2176 1.83737E+00-7.29151E+00-3.97193E-01-3.39379E+00 3.54883E-13-2.36255E-13
 -1      2177 4.04496E+00-6.18886E+00-2.47841E-01-4.94740E+00 1.76192E-13-3.03479E-13
 -1      2178 3.74892E+01 2.14661E+00 3.17797E-01 2.31066E+00-1.49127E-13-1.63980E-13
 -1      2179 3.25896E+01-1.10644E-01-6.88423E-02 2.26096E+00-3.16899E-14-1.17795E-13
 -1      2180 3.56079E+01 2.49627E+00 1.95510E-01-1.12566E+00 4.31044E-14-2.41029E-13
 -1      2181 3.16321E+01-2.50029E+00 9.88622E-02 1.51623E+00-5.55112E-15-1.29619E-13
 -1      2182 2.07288E+01 1.10849E+00-2.08963E-02-1.61688E+00-8.86478E-14 1.21056E-13
 -1      2183 2.06218E+01 1.33224E+00-1.78386E-02-1.67871E+00-1.00038E-13 5.37643E-14
 -1      2184 2.06857E+00-5.06339E+00-1.81710E-01 1.56338E+00 2.13177E-13 2.79943E-13
 -1      2185 1.41871E+01-6.19562E+00-8.72031E-02 6.41868E+00-6.75571E-14-6.42472E-13
 -1      2186 2.00596E+01 1.57991E-01 1.07473E-03-1.74304E-01-7.24772E-14 3.25921E-13
 -1      2187 2.46417E+00-4.87997E+00-1.61376E-01-3.13381E+00 3.97571E-13-2.64511E-13
 -1      2188 2.35865E+01-5.49619E+00 3.75211E-02 5.13592E+00-4.18554E-14-4.15362E-13
 -1      2189 8.08479E+00-5.28519E+00-8.31660E-02-6.53095E+00 2.18769E-13-2.65982E-13
 -1      2190 1.59868E+01-5.44729E+00-7.93903E-02-7.21698E+00 2.13107E-13-2.12212E-13
 -1      2191 2.42122E+01-3.37308E+00 5.48273E-02-5.75935E+00 5.26190E-13-2.76779E-13
 -1      2192 3.10395E+01 2.81486E-01 1.86116E-01-2.99062E+00 1.97620E-13-6.88893E-14
 -1      2193 3.47135E+01 4.52264E+00 2.65762E-01-6.51192E-01 1.23929E-13-1.72307E-13
 -1      2194 3.67792E+01 7.79257E+00 3.61871E-01-1.05468E-01 4.55191E-14-1.62287E-13
 -1      2195 3.64124E+01 8.12655E+00 2.99150E-01-1.21216E-01 8.27116E-15-1.84741E-13
 -1      2196 3.46086E+01 5.40175E+00 1.69045E-01 1.32713E-01-6.88061E-14-8.74301E-14
 -1      2197 3.15028E+01 7.85878E-01 9.92792E-02 2.65971E+00 2.60833E-14-6.04516E-14
 -1      2198 2.95991E+01-1.25935E+00 9.50892E-02 2.10460E+00 2.72907E-14-3.66096E-14
 -1      2199 3.13739E+01 1.06899E+00-1.53624E-01 3.38320E-01 4.65600E-14 4.87943E-14
 -1      2200 2.53833E+01-3.26500E+00 1.28976E-01 5.24365E+00-1.83714E-13-8.67639E-14
 -1      2201 9.00839E+00-5.41827E+00-9.22628E-02 6.74304E+00-2.88491E-13 5.46785E-14
 -1      2202 1.38149E+00-5.10289E+00-2.12542E-01-1.29045E-01 1.36349E-14-1.63980E-13
 -1      2203 4.26053E+00-5.60817E+00-2.01928E-01-4.04784E+00 4.00791E-14-2.33535E-13
 -1      2204 2.08773E+01-5.82253E+00-1.78774E-02-5.79065E+00-1.39333E-14-3.55715E-13
 -1      2205 3.39426E+01-3.53948E-01 1.26984E-01-2.15069E-01 1.16226E-14-3.77531E-13
 -1      2206 3.72692E+01 5.03472E+00 2.56357E-01 1.13871E+00 5.59552E-14-3.79696E-14
 -1      2207 3.81480E+01 6.42624E+00 3.16887E-01-8.99767E-01 7.21645E-16-4.46920E-13
 -1      2208 3.92007E+01 7.71889E+00 4.42573E-01 2.73171E-01 1.86462E-13-2.96818E-13
 -1      2209 1.12870E+01-6.15907E+00-1.38371E-01-6.15236E+00 3.82472E-14-2.77389E-13
 -1      2210 1.76110E+01-5.16341E+00-1.63619E-02 7.05687E+00-2.73337E-13 6.47260E-14
 -1      2211 2.01420E+01 5.06553E-01 3.74264E-03 6.79264E-01 8.14314E-14 5.53160E-15
 -1      2212 2.04101E+01 7.00041E-01 2.07981E-02 9.70921E-01 9.22960E-14 6.04031E-15
 -1      2213 1.95657E+01 3.51704E+00-1.11259E-02-5.91915E-01-3.30217E-14-1.20688E-13
 -1      2214 1.96006E+01 3.47089E+00-1.05195E-02-7.76480E-01-4.82378E-14-1.22135E-13
 -1      2215 1.96468E+01 3.38219E+00-1.28115E-02-9.40874E-01-5.87345E-14-1.10716E-13
 -1      2216 1.97068E+01 3.30144E+00-1.27908E-02-1.13089E+00-7.67785E-14-9.25995E-14
 -1      2217 1.97918E+01 3.03448E+00 3.38467E-04-7.92377E-01-4.56496E-14-1.04477E-13
 -1      2218 1.95192E+01 3.59982E+00-9.63474E-03 9.94736E-02 1.44649E-14-1.48910E-13
 -1      2219 1.95185E+01 3.60064E+00-9.64273E-03-8.01438E-02 1.33250E-15-1.35615E-13
 -1      2220 1.95449E+01 3.56029E+00-9.73698E-03 4.45817E-01 2.38115E-14-1.64903E-13
 -1      2221 1.95278E+01 3.58292E+00-1.01565E-02 2.64846E-01 1.41433E-14-1.64533E-13
 -1      2222 1.96854E+01 3.22293E+00-8.79641E-04 1.69646E-01 1.71754E-14-1.48261E-13
 -1      2223 1.96058E+01 3.46350E+00-1.06226E-02 7.90057E-01 3.88782E-14-1.64961E-13
 -1      2224 1.95700E+01 3.51063E+00-1.12340E-02 6.08490E-01 2.64590E-14-1.69888E-13
 -1      2225 1.97217E+01 3.15921E+00-4.89542E-04 4.88314E-01 2.02446E-14-1.58901E-13
 -1      2226 1.97151E+01 3.28938E+00-1.29639E-02 1.14379E+00 8.61135E-14-1.22855E-13
 -1      2227 1.96532E+01 3.37285E+00-1.29035E-02 9.54338E-01 6.34044E-14-1.37250E-13
 -1      2228 1.97976E+01 3.02513E+00 2.37647E-04 8.04230E-01 5.26717E-14-1.39209E-13
 -1      2229 1.98922E+01 3.00354E+00-1.81782E-02 1.49130E+00 9.97308E-14-1.23570E-13
 -1      2230 1.97938E+01 3.14493E+00-1.51853E-02 1.30071E+00 8.79786E-14-1.29201E-13
 -1      2231 1.99253E+01 2.79960E+00 1.93929E-03 1.11095E+00 8.67756E-14-1.20159E-13
 -1      2232 2.01678E+01 2.54388E+00-2.84017E-02 1.79591E+00 1.24623E-13-8.88352E-14
 -1      2233 2.00181E+01 2.78331E+00-1.70816E-02 1.62136E+00 1.10455E-13-1.11095E-13
 -1      2234 2.01177E+01 2.44877E+00 5.86943E-03 1.37719E+00 9.20413E-14-1.06634E-13
 -1      2235 1.98651E+01 2.68559E-01 4.75734E-03 2.86465E-01 7.73808E-14 1.45951E-14
 -1      2236 2.00258E+01 3.68157E-01 2.01697E-02 4.43746E-01 9.39041E-14 2.35519E-14
 -1      2237 2.02065E+01 6.34855E-01-2.24808E-03 7.06056E-01 8.72852E-14-9.06957E-15
 -1      2238 2.03973E+01 8.55310E-01 1.33240E-02-1.00057E+00-1.02514E-13 2.47447E-14
 -1      2239 2.01854E+01 6.27220E-01-4.62043E-03-6.93249E-01-1.06005E-13 3.00814E-14
 -1      2240 2.05437E+01 1.95513E+00-1.36874E-02-1.89711E+00-1.00807E-13 4.64212E-15
 -1      2241 2.04054E+01 1.20933E+00-8.69263E-03-1.29081E+00-1.01390E-13 5.30262E-15
 -1      2242 2.03798E+01 1.38610E+00 9.56187E-03-1.23929E+00-1.06099E-13-1.80984E-14
 -1      2243 2.02929E+01 2.39759E+00 7.50948E-04-1.83729E+00-1.05417E-13-3.11348E-14
 -1      2244 3.17776E+01-2.22809E+00-1.98185E-01-5.68718E-01 1.04623E-13-3.30291E-14
 -1      2245 2.94104E+01-4.07901E+00 2.55947E-02 1.11411E+00-3.12250E-14 6.57807E-14
 -1      2246 2.01196E+01 4.69829E-01 1.58462E-02-4.75315E-01-1.18326E-13 4.09544E-14
 -1      2247 1.99801E+01 3.45308E-01 2.71408E-04-3.04375E-01-1.01601E-13 7.48750E-15
 -1      2248 2.02432E+01 7.52232E-01 1.69413E-04-6.95004E-01-1.07096E-13 1.14503E-15
 -1      2249 1.99156E+01 2.60194E-01 1.05616E-02-1.65757E-01-6.68378E-14 4.02141E-15
 -1      2250 1.98385E+01 1.89396E-01 9.18249E-04-6.86655E-02-4.18152E-14-2.18455E-14
 -1      2251 2.00800E+01 4.21043E-01-2.28318E-03-3.11947E-01-9.84510E-14 4.27533E-15
 -1      2252 1.97937E+01 1.40225E-01 6.21749E-03 1.46979E-02-3.41645E-14-2.41389E-14
 -1      2253 1.97603E+01 9.86801E-02 9.30582E-04 6.85596E-02-2.27805E-14-1.98181E-15
 -1      2254 1.99594E+01 2.31933E-01-2.80714E-03-7.14608E-02-4.07232E-14-1.71681E-14
 -1      2255 1.97346E+01 6.93436E-02 3.47282E-03 1.15837E-01 2.80754E-16-2.81403E-14
 -1      2256 1.97294E+01 4.48107E-02 8.65109E-04 1.43720E-01 2.13159E-14-3.39791E-15
 -1      2257 1.98847E+01 1.20193E-01-2.54179E-03 7.19460E-02-2.37381E-14-1.47030E-14
 -1      2258 1.97185E+01 2.73718E-02 1.79447E-03 1.68064E-01-9.48674E-15-3.88903E-14
 -1      2259 1.97305E+01 1.34177E-02 7.98418E-04 1.80408E-01-2.38955E-14-2.79375E-14
 -1      2260 1.98471E+01 5.35657E-02-2.04199E-03 1.52140E-01-9.51455E-15-7.04499E-14
 -1      2261 1.97301E+01 3.61944E-03 7.64519E-04 1.90745E-01-2.20428E-14-2.54579E-14
 -1      2262 1.97522E+01-3.40444E-03 7.53505E-04 1.94236E-01-4.18962E-14-6.46274E-14
 -1      2263 1.98363E+01 1.49603E-02-1.57101E-03 1.92462E-01-2.26169E-14-1.22257E-13
 -1      2264 1.97589E+01-8.05130E-03 1.40019E-04 1.96709E-01-7.74777E-14-2.35369E-14
 -1      2265 1.97868E+01-1.03633E-02 7.45871E-04 1.95827E-01-1.02612E-13-1.23937E-14
 -1      2266 1.98439E+01-5.30262E-03-1.20851E-03 2.08956E-01-3.38855E-14-7.24398E-14
 -1      2267 1.97982E+01-1.14225E-02-2.21062E-04 1.94733E-01-1.17974E-13 1.12475E-14
 -1      2268 1.98292E+01-1.04489E-02 7.82357E-04 1.92576E-01-6.47278E-14 4.36232E-15
 -1      2269 1.98636E+01-1.30938E-02-9.61859E-04 2.12796E-01-7.96183E-14 2.30229E-14
 -1      2270 1.98439E+01-8.96242E-03-4.07376E-04 1.90964E-01-2.22893E-14 6.91352E-16
 -1      2271 1.98770E+01-5.66895E-03 8.62479E-04 1.89715E-01-2.66942E-15-8.61593E-15
 -1      2272 1.98915E+01-1.21850E-02-8.16292E-04 2.11878E-01-5.11231E-14-1.94542E-14
 -1      2273 1.98942E+01-2.37662E-03-4.77091E-04 1.89759E-01-1.74749E-14-1.40321E-14
 -1      2274 1.99293E+01 2.53277E-03 9.79636E-04 1.90954E-01-4.31239E-14 3.68274E-14
 -1      2275 1.99253E+01-5.13789E-03-7.52739E-04 2.11831E-01-1.84888E-14-1.21385E-14
 -1      2276 1.99489E+01 7.04985E-03-4.68802E-04 1.94179E-01-4.73426E-14-1.98802E-15
 -1      2277 1.99865E+01 1.29897E-02 1.12080E-03 1.98852E-01-5.77296E-14-3.55523E-14
 -1      2278 1.99641E+01 6.17069E-03-7.52990E-04 2.16653E-01-5.12811E-14 2.02353E-14
 -1      2279 2.00088E+01 1.81937E-02-4.07086E-04 2.06252E-01-8.70743E-14-3.50735E-14
 -1      2280 2.00497E+01 2.45705E-02 1.26449E-03 2.14977E-01-8.35066E-14-2.01643E-14
 -1      2281 2.00080E+01 2.01758E-02-8.00388E-04 2.29079E-01-1.04644E-13-7.93411E-14
 -1      2282 2.00754E+01 2.98558E-02-3.05534E-04 2.27033E-01-8.68785E-14 2.08402E-14
 -1      2283 2.01209E+01 3.59395E-02 1.37751E-03 2.39882E-01-7.52335E-14 6.92205E-15
 -1      2284 2.00579E+01 3.53018E-02-8.79325E-04 2.50719E-01-5.88510E-14-3.17919E-15
 -1      2285 2.01510E+01 4.05161E-02-1.68435E-04 2.56485E-01-3.34573E-14 1.38160E-15
 -1      2286 2.02022E+01 4.53048E-02 1.41123E-03 2.72890E-01-7.98328E-15 1.01118E-14
 -1      2287 2.01155E+01 4.96420E-02-9.74564E-04 2.82008E-01-6.01825E-14-7.74117E-15
 -1      2288 2.02378E+01 4.80757E-02 8.18075E-06 2.93167E-01-3.58800E-14-3.21688E-14
 -1      2289 2.02955E+01 5.01582E-02 1.29840E-03 3.11697E-01-7.79251E-15-4.32791E-14
 -1      2290 2.01829E+01 6.06237E-02-1.07074E-03 3.21943E-01-5.20259E-14-1.45718E-14
 -1      2291 2.03383E+01 4.96077E-02 2.35269E-04 3.33733E-01-3.44060E-14-8.49417E-14
 -1      2292 2.04027E+01 4.70545E-02 9.52432E-04 3.51789E-01-2.45013E-14-1.48805E-13
 -1      2293 2.02623E+01 6.46803E-02-1.15188E-03 3.67618E-01-5.10247E-14-8.69257E-14
 -1      2294 2.04543E+01 4.11850E-02 5.27758E-04 3.72275E-01 5.35365E-14-2.04167E-13
 -1      2295 2.05248E+01 3.15312E-02 2.72439E-04 3.85749E-01 1.62873E-14-1.93202E-13
 -1      2296 2.03567E+01 5.70029E-02-1.20017E-03 4.13580E-01-1.48183E-14-1.90550E-13
 -1      2297 2.05871E+01 1.79334E-02 8.97152E-04 3.99598E-01 2.28711E-15-1.86508E-13
 -1      2298 2.06614E+01-1.62489E-03-8.40387E-04 4.02607E-01 4.23638E-14-2.26586E-13
 -1      2299 2.04690E+01 3.15367E-02-1.19238E-03 4.51066E-01 2.18480E-14-2.90216E-13
 -1      2300 2.07361E+01-2.54268E-02 1.33584E-03 4.02657E-01 2.35904E-14-2.37103E-13
 -1      2301 2.08104E+01-5.74248E-02-2.44731E-03 3.87541E-01 6.13076E-15-2.13888E-13
 -1      2302 2.06019E+01-1.84751E-02-1.09080E-03 4.67299E-01 2.65627E-14-2.67299E-13
 -1      2303 2.08983E+01-9.31389E-02 1.78765E-03 3.64598E-01 1.86095E-14-1.48194E-13
 -1      2304 2.09663E+01-1.38564E-01-4.50724E-03 3.22541E-01 1.97551E-14-9.66811E-14
 -1      2305 2.07576E+01-9.89179E-02-8.26081E-04 4.45207E-01 3.15098E-14-1.80086E-13
 -1      2306 2.10664E+01-1.85568E-01 2.10501E-03 2.66187E-01 3.56475E-14-2.52782E-14
 -1      2307 2.11193E+01-2.41692E-01-6.77550E-03 1.88954E-01 1.01653E-13-3.88236E-14
 -1      2308 2.09354E+01-2.11591E-01-2.74904E-04 3.64231E-01 4.95992E-14-8.61160E-14
 -1      2309 2.12261E+01-2.94658E-01 2.00551E-03 8.98170E-02 2.63014E-14-4.31585E-14
 -1      2310 2.12530E+01-3.52172E-01-8.67740E-03-2.68252E-02-2.89200E-14-7.21536E-14
 -1      2311 2.11299E+01-3.48882E-01 7.46617E-04 2.03345E-01 4.69145E-15-9.58613E-14
 -1      2312 2.13540E+01-3.98424E-01 1.10048E-03-1.72523E-01-3.77957E-14-2.05863E-14
 -1      2313 2.13431E+01-4.39069E-01-9.24716E-03-3.23531E-01-1.07869E-13-5.88397E-16
 -1      2314 2.13257E+01-4.86989E-01 2.40200E-03-5.20976E-02-5.44942E-15-3.06848E-14
 -1      2315 2.14170E+01-4.57480E-01-9.63199E-04-5.06873E-01-1.21190E-13 5.61841E-14
 -1      2316 2.13586E+01-4.54830E-01-7.26489E-03-6.71886E-01 3.46511E-16 1.58323E-13
 -1      2317 2.14932E+01-5.80638E-01 4.63239E-03-3.98290E-01-6.26807E-14 1.10523E-13
 -1      2318 2.13772E+01-4.19265E-01-4.06862E-03-8.63138E-01-2.15147E-14 1.41782E-13
 -1      2319 2.12689E+01-3.46587E-01-1.89671E-03-1.00283E+00 1.80832E-14 1.05135E-13
 -1      2320 2.15883E+01-5.65963E-01 6.80537E-03-7.96661E-01-3.60438E-14 1.89785E-13
 -1      2321 2.12082E+01-2.37610E-01-7.32873E-03-1.14707E+00 4.31468E-14 1.44843E-13
 -1      2322 2.10613E+01-8.55579E-02 5.99390E-03-1.20780E+00 4.03104E-15 5.30914E-14
 -1      2323 2.15620E+01-3.79900E-01 7.45237E-03-1.15937E+00-3.17845E-15 3.13199E-13
 -1      2324 2.09236E+01 8.90466E-02-8.61070E-03-1.23474E+00-7.19428E-15-4.62395E-14
 -1      2325 2.07662E+01 2.90809E-01 1.29252E-02-1.16836E+00 1.16747E-15-2.16830E-14
 -1      2326 2.13893E+01-4.33125E-03 4.21784E-03-1.35136E+00-1.87183E-14 2.32840E-13
 -1      2327 2.05985E+01 4.81472E-01-5.70610E-03-1.02548E+00-2.02375E-14-6.28373E-14
 -1      2328 2.04721E+01 6.61054E-01 1.44887E-02-8.20525E-01-1.16225E-13-2.90176E-15
 -1      2329 2.11107E+01 4.89449E-01-2.30881E-03-1.23581E+00-6.12402E-14 6.59883E-14
 -1      2330 2.03556E+01 7.89184E-01 1.63472E-03-5.17003E-01-1.92305E-13 3.79653E-14
 -1      2331 2.02999E+01 8.64711E-01 9.05561E-03-2.20339E-01-1.55411E-13 1.06586E-13
 -1      2332 2.08433E+01 9.30302E-01-8.60278E-03-7.61101E-01-9.59981E-14 5.12043E-14
 -1      2333 2.02999E+01 8.69255E-01 1.01964E-02 1.55509E-01-8.28088E-14-1.18731E-14
 -1      2334 2.03343E+01 8.01962E-01-1.05544E-04 4.52492E-01 5.50736E-14-1.11090E-13
 -1      2335 2.07284E+01 1.12591E+00-8.67149E-03-3.50639E-02-2.25015E-13 8.73445E-14
 -1      2336 2.04516E+01 6.80473E-01 1.49856E-02 7.71654E-01 1.70003E-13-2.46675E-13
 -1      2337 2.05651E+01 5.03258E-01-7.05341E-03 9.77392E-01 1.13213E-13-2.80025E-13
 -1      2338 2.08319E+01 9.80031E-01-1.28115E-03 7.00741E-01 1.91060E-14-1.48445E-13
 -1      2339 2.07322E+01 3.15020E-01 1.26337E-02 1.14024E+00 4.56120E-14-1.64228E-13
 -1      2340 2.08871E+01 1.10006E-01-9.09476E-03 1.20890E+00-5.18353E-14-1.23510E-13
 -1      2341 2.10918E+01 5.56011E-01 6.43359E-03 1.19657E+00 7.23239E-14-2.60610E-13
 -1      2342 2.10223E+01-6.68076E-02 5.28482E-03 1.19582E+00-1.70209E-13-3.05553E-14
 -1      2343 2.11736E+01-2.24735E-01-6.90665E-03 1.13866E+00-1.74014E-13 7.00930E-14
 -1      2344 2.13674E+01 4.68608E-02 9.22811E-03 1.33320E+00-6.51430E-14-9.19359E-14
 -1      2345 2.12310E+01-3.39185E-01-2.45208E-03 9.97943E-01-1.15413E-13 1.72115E-13
 -1      2346 2.13447E+01-4.17520E-01-3.12335E-03 8.61421E-01 3.54619E-14 1.92034E-13
 -1      2347 2.15400E+01-3.59945E-01 7.11380E-03 1.15375E+00-6.11685E-15 1.69923E-13
 -1      2348 2.13226E+01-4.59259E-01-7.49720E-03 6.64744E-01 4.36036E-14 1.87926E-13
 -1      2349 2.13838E+01-4.65416E-01 5.13950E-05 5.01040E-01-3.35036E-14 1.25495E-13
 -1      2350 2.15673E+01-5.74373E-01 3.02754E-03 7.92017E-01-3.50230E-14 5.26395E-14
 -1      2351 2.13060E+01-4.51499E-01-9.19982E-03 3.07557E-01 6.06958E-14 2.74094E-14
 -1      2352 2.13157E+01-4.11980E-01 1.87164E-03 1.55862E-01 3.00411E-14 9.61891E-14
 -1      2353 2.14710E+01-6.06657E-01-4.54886E-04 3.85045E-01-1.01647E-13-3.23228E-14
 -1      2354 2.12107E+01-3.67923E-01-8.44753E-03-8.55146E-04-9.34908E-14 1.23838E-13
 -1      2355 2.11790E+01-3.09757E-01 2.47011E-03-1.19585E-01-1.68753E-13 8.56345E-14
 -1      2356 2.12993E+01-5.19204E-01-2.38131E-03 2.57490E-02-8.45092E-14 1.20405E-13
 -1      2357 2.10683E+01-2.56858E-01-6.47807E-03-2.28338E-01-1.44785E-13 1.74741E-13
 -1      2358 2.10081E+01-1.98723E-01 2.35098E-03-3.08077E-01-5.20845E-14 1.03015E-13
 -1      2359 2.10971E+01-3.79265E-01-2.96998E-03-2.43329E-01-8.62129E-14 2.61861E-13
 -1      2360 2.09040E+01-1.49883E-01-4.23493E-03-3.71355E-01 6.29907E-14 2.06460E-13
 -1      2361 2.08276E+01-1.01078E-01 1.96222E-03-4.15104E-01 1.85693E-13 2.28808E-13
 -1      2362 2.08945E+01-2.34958E-01-2.78901E-03-4.15654E-01 1.07219E-13 3.76502E-13
 -1      2363 2.07354E+01-6.16434E-02-2.25493E-03-4.41351E-01 2.83378E-13 2.28425E-13
 -1      2364 2.06528E+01-2.45139E-02 1.59255E-03-4.55909E-01 3.16440E-13 1.76321E-13
 -1      2365 2.07077E+01-1.11270E-01-2.31732E-03-5.03580E-01 1.75993E-13 3.84067E-13
 -1      2366 2.05737E+01 5.17864E-03-7.58664E-04-4.54568E-01 2.41047E-13 6.56093E-14
 -1      2367 2.04924E+01 3.22725E-02 1.37942E-03-4.47076E-01 3.58957E-13 2.12441E-13
 -1      2368 2.05430E+01-1.55174E-02-1.81885E-03-5.25775E-01 2.14425E-13 3.57207E-13
 -1      2369 2.04254E+01 5.44068E-02 2.25538E-04-4.26036E-01 5.26034E-13 2.78978E-13
 -1      2370 2.03505E+01 7.45700E-02 1.31370E-03-4.02265E-01 2.99625E-13 3.72140E-13
 -1      2371 2.04011E+01 5.53473E-02-1.37815E-03-4.99986E-01 4.30596E-13 4.14786E-13
 -1      2372 2.02939E+01 9.18348E-02 7.47878E-04-3.67313E-01 4.83214E-14 5.53028E-13
 -1      2373 2.02295E+01 1.07738E-01 1.40987E-03-3.31242E-01 8.96983E-14 4.79847E-13
 -1      2374 2.02807E+01 1.08430E-01-8.95045E-04-4.39937E-01 2.38199E-13 6.44245E-13
 -1      2375 9.65781E+00-4.55982E+00 1.54323E-02 6.05194E+00-1.36779E-13-2.76446E-13
 -1      2376 6.86305E+00-4.02219E+00 6.47710E-02 4.75432E+00-8.31279E-14 2.05724E-13
 -1      2377 1.96191E+01 7.40300E-02 2.15348E-03-6.69497E-02 1.86189E-14-7.87465E-14
 -1      2378 1.96458E+01 1.05371E-01 6.92082E-03-2.01452E-02 2.19660E-14-4.47836E-14
 -1      2379 1.95976E+01 3.31106E-02 1.45671E-03-1.34695E-01 3.58728E-14-1.12926E-13
 -1      2380 1.95934E+01 5.14663E-02 3.71348E-03-1.11157E-01 3.17077E-14-9.22863E-14
 -1      2381 1.97665E+01 9.22368E-02-3.22158E-03-7.35946E-02 4.48277E-14-8.30822E-14
 -1      2382 1.96133E+01 9.44140E-03 1.04806E-03-1.66441E-01 6.24051E-14-8.82237E-14
 -1      2383 1.95912E+01 1.99261E-02 1.86710E-03-1.56582E-01 3.84583E-14-1.03724E-13
 -1      2384 1.97348E+01 3.97077E-02-2.37791E-03-1.48938E-01 3.76454E-14-9.80403E-14
 -1      2385 1.96513E+01-3.27200E-03 8.10165E-04-1.77104E-01 3.44820E-14-5.97382E-14
 -1      2386 1.96195E+01 2.09722E-03 7.88323E-04-1.74972E-01 6.33954E-14-6.19608E-14
 -1      2387 1.97354E+01 9.68253E-03-1.64453E-03-1.85309E-01 4.39947E-14-6.91302E-14
 -1      2388 1.97021E+01-8.56849E-03 6.98370E-04-1.76640E-01-2.56897E-14-5.04496E-14
 -1      2389 1.96654E+01-6.70545E-03 1.62161E-04-1.78276E-01 2.44299E-14-5.44894E-14
 -1      2390 1.97566E+01-5.94056E-03-1.11331E-03-1.98794E-01 8.92668E-16-4.82759E-14
 -1      2391 1.97602E+01-8.56358E-03 6.96809E-04-1.71997E-01-6.32862E-15-7.80419E-14
 -1      2392 1.97212E+01-9.24102E-03-1.79971E-04-1.74615E-01-1.13688E-14-6.87037E-14
 -1      2393 1.97908E+01-1.17553E-02-7.67340E-04-2.00371E-01 9.16264E-15-6.23288E-14
 -1      2394 1.98231E+01-4.51190E-03 8.00114E-04-1.68277E-01 7.12278E-14-1.50943E-13
 -1      2395 1.97826E+01-7.16772E-03-3.35373E-04-1.69795E-01 1.98111E-14-1.31336E-13
 -1      2396 1.98333E+01-1.04987E-02-5.69610E-04-1.97844E-01 5.25208E-14-9.31478E-14
 -1      2397 1.98906E+01 2.92019E-03 1.00995E-03-1.69485E-01 7.02874E-14-1.37814E-13
 -1      2398 1.98482E+01-1.43710E-03-3.66194E-04-1.68217E-01 7.02409E-14-1.70087E-13
 -1      2399 1.98816E+01-3.76584E-03-4.86309E-04-1.97031E-01 7.68394E-14-1.39202E-13
 -1      2400 1.99642E+01 1.35177E-02 1.33504E-03-1.79071E-01 2.58034E-14-7.35512E-14
 -1      2401 1.99184E+01 7.51036E-03-3.14466E-04-1.73502E-01 7.81511E-14-1.05423E-13
 -1      2402 1.99352E+01 7.63886E-03-4.90393E-04-2.02573E-01 3.88087E-14-1.04968E-13
 -1      2403 2.00469E+01 2.74499E-02 1.79153E-03-2.00343E-01-1.83038E-14-3.50071E-14
 -1      2404 1.99953E+01 1.96469E-02-2.09933E-04-1.88947E-01 9.67092E-15-2.80988E-14
 -1      2405 1.99950E+01 2.35254E-02-5.60052E-04-2.18517E-01-9.87987E-15-4.45057E-14
 -1      2406 2.01432E+01 4.52386E-02 2.40260E-03-2.36827E-01 7.21694E-14-4.53642E-14
 -1      2407 2.00827E+01 3.53107E-02-7.49949E-05-2.17909E-01 1.36897E-14-5.02078E-14
 -1      2408 2.00630E+01 4.42307E-02-6.76027E-04-2.48774E-01 2.60025E-14-2.88141E-14
 -1      2409 2.02585E+01 6.77326E-02 3.19640E-03-2.92572E-01 1.61265E-13-8.78485E-14
 -1      2410 2.01850E+01 5.51806E-02 7.15339E-05-2.64122E-01 1.33716E-13-5.91695E-14
 -1      2411 2.01419E+01 7.05721E-02-8.18622E-04-2.97497E-01 9.23990E-14-6.95764E-14
 -1      2412 2.03998E+01 9.60450E-02 4.20016E-03-3.72394E-01 1.21414E-13-1.20322E-13
 -1      2413 2.03082E+01 8.02402E-02 2.11147E-04-3.31980E-01 1.76209E-13-8.19794E-14
 -1      2414 2.02350E+01 1.03795E-01-9.64693E-04-3.69396E-01 1.52824E-13-4.89071E-14
 -1      2415 2.05747E+01 1.31369E-01 5.42674E-03-4.81993E-01-2.68223E-14-8.38273E-14
 -1      2416 2.04591E+01 1.11672E-01 3.22767E-04-4.26721E-01 4.93523E-14-4.29845E-14
 -1      2417 2.03463E+01 1.45441E-01-1.08563E-03-4.69943E-01 1.90206E-14 7.51831E-14
 -1      2418 2.07918E+01 1.74496E-01 6.84662E-03-6.27750E-01-1.33369E-13-5.36811E-14
 -1      2419 2.06455E+01 1.50562E-01 3.81106E-04-5.54425E-01-8.29898E-14-3.61848E-14
 -1      2420 2.04796E+01 1.96992E-01-1.14926E-03-6.05404E-01-7.05870E-14 1.37163E-13
 -1      2421 2.10603E+01 2.24700E-01 8.33608E-03-8.15861E-01-2.00731E-13-2.89422E-14
 -1      2422 2.08758E+01 1.97172E-01 3.59241E-04-7.21562E-01-1.56132E-13-4.53997E-14
 -1      2423 2.06385E+01 2.58997E-01-1.13266E-03-7.82466E-01-1.44661E-13 7.56316E-14
 -1      2424 2.13892E+01 2.77357E-01 9.59280E-03-1.05008E+00-1.01861E-13-7.10046E-14
 -1      2425 2.11590E+01 2.49319E-01 2.44112E-04-9.33614E-01-1.77772E-13-1.18819E-13
 -1      2426 2.08263E+01 3.29138E-01-1.06026E-03-1.00710E+00-1.29926E-13-2.63703E-14
 -1      2427 2.17875E+01 3.19328E-01 1.00239E-02-1.32690E+00-2.49406E-14 1.34776E-14
 -1      2428 2.15052E+01 2.99076E-01 8.63842E-05-1.19188E+00-3.82261E-14-5.52473E-14
 -1      2429 2.10466E+01 3.98297E-01-1.09252E-03-1.28199E+00-8.72646E-14-1.02022E-13
 -1      2430 2.22653E+01 3.21002E-01 8.65313E-03-1.62631E+00-1.17211E-13 1.50249E-14
 -1      2431 2.19269E+01 3.26658E-01 1.31782E-04-1.48695E+00-9.56093E-15 3.51379E-14
 -1      2432 2.13059E+01 4.43264E-01-1.69341E-03-1.60143E+00-3.43952E-14 2.14700E-14
 -1      2433 2.28379E+01 2.25316E-01 4.18195E-03-1.89624E+00-9.17979E-14-2.34565E-14
 -1      2434 2.24438E+01 2.90741E-01 1.09608E-03-1.78673E+00-1.40138E-13-3.33177E-14
 -1      2435 2.16208E+01 4.14988E-01-3.86380E-03-1.94218E+00-7.00153E-14 4.57934E-14
 -1      2436 2.35353E+01-5.94799E-02-4.67851E-03-2.03055E+00-1.49047E-13-8.61811E-15
 -1      2437 2.30925E+01 1.17649E-01 4.56621E-03-2.01664E+00-8.64788E-14-3.32078E-14
 -1      2438 2.20338E+01 2.24462E-01-9.25930E-03-2.24820E+00-1.07881E-13-7.54824E-14
 -1      2439 2.44112E+01-6.36422E-01-1.79687E-02-1.84749E+00-1.69628E-13 1.67032E-13
 -1      2440 2.39385E+01-2.97130E-01 1.28205E-02-2.03216E+00-2.21595E-13 5.13790E-14
 -1      2441 2.26393E+01-2.60474E-01-1.98323E-02-2.40709E+00-2.12952E-13-6.40935E-14
 -1      2442 2.55278E+01-1.50352E+00-3.21510E-02-1.10143E+00-1.00911E-13 1.48892E-13
 -1      2443 2.50702E+01-1.03080E+00 2.66849E-02-1.59790E+00-8.63198E-14 1.78137E-13
 -1      2444 2.36070E+01-1.15939E+00-3.46890E-02-2.22120E+00-1.88680E-13-7.75612E-14
 -1      2445 2.68536E+01-2.27326E+00-3.93026E-02 3.82791E-01-1.38653E-13 1.45303E-13
 -1      2446 2.65038E+01-1.93743E+00 3.30119E-02-4.38286E-01-1.04762E-13 1.60248E-13
 -1      2447 2.51363E+01-2.36060E+00-4.68486E-02-1.38605E+00-1.06550E-13-1.50761E-13
 -1      2448 2.81246E+01-1.94951E+00-2.44669E-02 2.31033E+00-6.54537E-14 2.37876E-13
 -1      2449 2.80154E+01-2.30963E+00 1.13384E-02 1.46312E+00-9.98420E-14 2.15312E-13
 -1      2450 2.72022E+01-3.17536E+00-7.74569E-02 3.08097E-01-1.53546E-13 8.19006E-15
 -1      2451 2.78901E+01 3.45977E+00-1.31125E-01 1.72493E+00 1.25094E-13 1.19231E-13
 -1      2452 2.82624E+01 2.24310E+00-2.19100E-01 2.97146E+00 2.62734E-13 2.98048E-13
 -1      2453 2.80132E+01 3.39421E+00-1.87302E-01-1.66097E+00-1.21181E-13 1.49006E-13
 -1      2454 2.79228E+01 3.93101E+00-1.41652E-01-7.37612E-02-2.85605E-14 2.12080E-13
 -1      2455 2.84546E+01 5.96127E-01-2.19505E-01-3.50330E+00 1.71863E-13 5.81792E-14
 -1      2456 2.80373E+01 2.16401E+00-1.02781E-01-2.90479E+00 4.64628E-14 1.17233E-13
 -1      2457 3.00557E+01 3.54874E+00-1.47620E-01-2.35420E+00-7.71605E-15 4.78229E-14
 -1      2458 2.91019E+01-2.47537E+00-9.40507E-03-2.00345E+00 6.86881E-14 3.56937E-14
 -1      2459 2.90713E+01-1.40292E+00-6.37279E-02-2.67436E+00 9.89209E-14 8.27116E-15
 -1      2460 2.70758E+01-2.78221E+00 6.90754E-02 1.76215E-01-1.18718E-13 1.60569E-13
 -1      2461 2.73868E+01-2.94149E+00-2.82381E-02-7.08743E-01 7.51205E-14 8.32581E-14
 -1      2462 2.81618E+01-4.27099E+00-9.38214E-02 2.38690E-01-6.39107E-14 1.00260E-13
 -1      2463 2.51147E+01-1.76817E+00 6.38076E-02 1.63647E+00-1.21604E-13-8.05935E-14
 -1      2464 2.56484E+01-2.27342E+00 2.65399E-03 9.82342E-01-1.54463E-13-4.84474E-14
 -1      2465 2.47554E+01-3.79581E+00-7.58393E-02 2.10463E+00-6.80012E-15-1.51771E-13
 -1      2466 2.36628E+01-7.17183E-01 3.17858E-02 2.25832E+00-1.12856E-13-8.48028E-14
 -1      2467 2.42181E+01-1.13917E+00 9.76463E-03 1.93225E+00-1.53544E-13-7.38402E-14
 -1      2468 2.25300E+01-2.16591E+00-7.03346E-02 2.92508E+00-1.39125E-13-4.41251E-13
 -1      2469 2.27093E+01-3.84987E-02 1.11540E-02 2.32255E+00-1.51604E-13 6.83915E-15
 -1      2470 2.32099E+01-2.74498E-01 1.32570E-02 2.24452E+00-3.30369E-14-2.59437E-14
 -1      2471 2.13652E+01-7.06137E-01-4.22455E-02 2.97712E+00-1.94832E-13-2.43219E-13
 -1      2472 2.20740E+01 2.91558E-01 2.20075E-03 2.11587E+00-2.84090E-13-5.81897E-14
 -1      2473 2.25030E+01 1.96108E-01 1.36231E-02 2.17824E+00-2.28581E-13-7.16523E-14
 -1      2474 2.08541E+01 1.48673E-01-1.92454E-02 2.71531E+00-1.16912E-13-3.07565E-13
 -1      2475 2.16157E+01 4.02367E-01-4.68169E-04 1.80782E+00-1.69599E-13-1.33947E-13
 -1      2476 2.19784E+01 3.86981E-01 1.36925E-02 1.92938E+00-2.49658E-13-1.88958E-13
 -1      2477 2.06425E+01 5.31096E-01-7.72099E-03 2.34801E+00-1.14301E-13-2.86454E-13
 -1      2478 2.12567E+01 4.01149E-01-4.04422E-04 1.48740E+00-8.46218E-14-3.72721E-13
 -1      2479 2.15600E+01 4.22012E-01 1.33081E-02 1.62122E+00-1.67438E-13-2.93419E-13
 -1      2480 2.05441E+01 6.36772E-01-3.33848E-03 1.96593E+00-5.25903E-14-5.06719E-13
 -1      2481 2.09608E+01 3.54867E-01 4.71855E-04 1.19470E+00 1.15138E-13-4.23692E-13
 -1      2482 2.12111E+01 3.86843E-01 1.24097E-02 1.31873E+00 2.38655E-14-3.90953E-13
 -1      2483 2.04752E+01 6.07659E-01-2.36171E-03 1.61065E+00-2.31946E-14-5.32748E-13
 -1      2484 2.07125E+01 2.99764E-01 1.35428E-03 9.42167E-01 4.16750E-13-2.59458E-13
 -1      2485 2.09159E+01 3.30199E-01 1.10803E-02 1.04946E+00 2.24092E-13-3.91231E-13
 -1      2486 2.04069E+01 5.28977E-01-2.56823E-03 1.29801E+00 1.80753E-13-6.58710E-13
 -1      2487 2.05045E+01 2.53700E-01 1.96894E-03 7.27859E-01 3.97426E-13-1.22583E-13
 -1      2488 2.06668E+01 2.76845E-01 9.45316E-03 8.19349E-01 4.00900E-13-7.57075E-14
 -1      2489 2.03335E+01 4.45999E-01-2.85081E-03 1.03011E+00 1.41139E-13-5.17466E-13
 -1      2490 2.03348E+01 2.22858E-01 2.08614E-03 5.42031E-01 1.95938E-13 3.33041E-14
 -1      2491 2.04582E+01 2.35117E-01 6.51305E-03 6.23975E-01 4.11112E-13 3.72459E-14
 -1      2492 2.02577E+01 3.79488E-01-2.90053E-03 8.01830E-01 2.08269E-13 2.94087E-14
 -1      2493 2.01577E+01 1.57702E-01 2.20450E-03 2.54308E-01 1.44757E-13 2.51195E-13
 -1      2494 1.98471E+01 7.49158E-01-3.40344E-03 3.12258E-01 2.57188E-13-2.16464E-13
 -1      2495 1.98793E+01 6.94943E-01-1.51866E-04 3.63029E-01 1.35906E-13-5.42043E-13
 -1      2496 1.98099E+01 8.19283E-01-2.77458E-03 1.71253E-01 2.72235E-13 1.94910E-13
 -1      2497 1.98246E+01 7.87881E-01-1.68812E-03 2.38398E-01 2.51288E-13-3.22160E-14
 -1      2498 1.97854E+01 7.68582E-01 3.09752E-03 3.11610E-01 3.52216E-13-6.17315E-14
 -1      2499 2.00106E+01 4.77600E-01-3.42852E-03 4.46425E-01-7.84599E-14-1.41132E-13
 -1      2500 2.00664E+01 4.01528E-01 3.53629E-03 4.37929E-01 1.16438E-13-5.07881E-14
 -1      2501 1.99168E+01 6.30357E-01-3.58469E-03 4.11388E-01-1.63868E-13-4.59704E-13
 -1      2502 1.99631E+01 5.61479E-01 1.66127E-03 4.34968E-01-1.65339E-13-8.88949E-14
 -1      2503 1.99848E+01 5.28208E-01 2.15639E-03 5.11545E-01-2.81350E-16-2.77860E-13
 -1      2504 1.98669E+01 6.70015E-01 2.70194E-03 4.43792E-01 2.21891E-13-1.60074E-13
 -1      2505 1.98059E+01 8.34630E-01-1.88038E-03 1.50744E-02 1.15877E-13 1.94565E-13
 -1      2506 1.98039E+01 8.28715E-01-2.82571E-03 8.65666E-02 2.06583E-13 1.77984E-13
 -1      2507 1.97473E+01 8.14409E-01 3.20223E-03 1.41298E-01 2.74749E-13 1.09023E-13
 -1      2508 1.98296E+01 7.97861E-01-9.38963E-04-1.31948E-01-5.54594E-14 1.33337E-13
 -1      2509 1.98143E+01 8.16569E-01-3.38720E-03-6.68664E-02-3.58759E-14 2.67332E-13
 -1      2510 1.97511E+01 8.05821E-01 2.78354E-03-3.69184E-02 1.77462E-13 1.59286E-13
 -1      2511 1.98725E+01 7.18439E-01-1.18553E-04-2.51185E-01-3.09967E-14-4.48079E-13
 -1      2512 1.98485E+01 7.57879E-01-3.33507E-03-2.00349E-01-1.00217E-13-2.41888E-13
 -1      2513 1.97886E+01 7.49712E-01 2.02758E-03-1.96975E-01 1.04687E-13 2.97455E-14
 -1      2514 1.99248E+01 6.11748E-01 6.00886E-04-3.30344E-01-2.45985E-13-6.47525E-13
 -1      2515 1.98971E+01 6.64789E-01-2.82309E-03-2.98556E-01-1.09903E-13-6.96054E-13
 -1      2516 1.98483E+01 6.59191E-01 1.24039E-03-3.19622E-01-4.85424E-15-5.64534E-13
 -1      2517 1.99812E+01 4.88090E-01 1.18967E-03-3.67746E-01-2.20670E-13 1.73053E-13
 -1      2518 1.99522E+01 5.50002E-01-2.05487E-03-3.55620E-01-2.58056E-13-3.90483E-13
 -1      2519 1.99186E+01 5.47652E-01 4.06332E-04-3.96171E-01-1.58974E-13-5.08602E-13
 -1      2520 2.00360E+01 3.61215E-01 1.53516E-03-3.61539E-01-1.11094E-13 6.12754E-13
 -1      2521 2.00089E+01 4.24879E-01-1.07558E-03-3.69932E-01-1.70194E-13 6.28242E-13
 -1      2522 1.99926E+01 4.27075E-01-7.91068E-05-4.24888E-01-8.11423E-14 3.14835E-13
 -1      2523 2.00858E+01 2.41637E-01 1.82103E-03-3.17617E-01-9.25393E-14-3.51871E-14
 -1      2524 2.00608E+01 3.02188E-01-3.02033E-04-3.43483E-01 4.21671E-14 1.88389E-13
 -1      2525 2.00608E+01 3.08228E-01-8.28123E-04-4.05665E-01-4.84583E-14 5.33024E-13
 -1      2526 2.00976E+01 1.55292E-01 8.04544E-04-2.20044E-01 1.25806E-13 2.85143E-13
 -1      2527 3.41733E+00-2.76596E+00 1.05593E-01-2.05899E+00 4.11532E-13-1.82243E-13
 -1      2528 4.81682E+00-3.02801E+00 6.39129E-02-4.37787E+00 3.35620E-13-1.52933E-13
 -1      2529 1.96990E+01 1.44143E-01 3.32618E-03 6.04119E-02 3.69318E-14-1.71435E-14
 -1      2530 1.97773E+01 1.98692E-01 1.23803E-02 1.46986E-01 4.97770E-14 1.90408E-15
 -1      2531 1.98461E+01 1.82471E-01-3.83585E-03 6.52041E-02 4.88955E-14-3.75635E-14
 -1      2532 1.77902E+01-5.79068E+00-3.17470E-02 6.44814E+00 7.63833E-14-5.58421E-13
 -1      2533 1.36647E+01-5.39020E+00 4.83549E-02 6.31336E+00-7.97140E-14-4.06730E-13
 -1      2534 7.50530E+00-3.96655E+00 7.49724E-02-5.94571E+00 2.49745E-13-1.29174E-13
 -1      2535 1.11980E+01-4.44741E+00 3.35236E-02-7.15825E+00 1.71668E-13-1.41526E-13
 -1      2536 3.38160E+01 2.55642E+00-1.16214E-01-2.28316E+00 1.90931E-13-1.28730E-13
 -1      2537 3.29019E+01 7.83115E-01-3.38098E-02-2.10758E+00 2.84744E-13-5.27356E-14
 -1      2538 2.58264E+01-5.66537E+00-1.57290E-01 3.94399E+00 5.46507E-14-1.05582E-13
 -1      2539 2.19164E+01-5.99511E+00 3.04437E-02 5.14424E+00 1.64757E-13-4.92953E-13
 -1      2540 2.86925E+00-2.75716E+00 6.76219E-02 8.27689E-01-1.67574E-14-2.12053E-13
 -1      2541 3.25186E+00-3.12686E+00 6.93997E-02-1.60188E+00 1.11827E-13-3.28959E-13
 -1      2542 3.14427E+01-2.25738E+00-1.84415E-02 4.88563E-01 1.23339E-14-4.47475E-13
 -1      2543 3.30628E+01 2.55971E-02-2.31493E-01 1.66511E+00 1.47604E-13-1.02446E-13
 -1      2544 1.95257E+01 3.58597E+00-1.01106E-02-2.45515E-01-5.39106E-16-1.37630E-13
 -1      2545 1.95415E+01 3.56520E+00-9.68372E-03-4.26386E-01-1.33324E-14-1.29539E-13
 -1      2546 1.97177E+01 3.16503E+00-5.40717E-04-4.73648E-01-1.55255E-14-1.17564E-13
 -1      2547 1.96840E+01 3.22507E+00-8.94149E-04-1.52141E-01 1.16796E-15-1.33920E-13
 -1      2548 3.51416E+01 6.61477E+00-8.43055E-02 7.69170E-01 1.92069E-14 8.71109E-14
 -1      2549 3.56361E+01 7.01248E+00-2.35675E-02-4.03842E-02-4.06897E-14-1.59699E-13
 -1      2550 1.07342E+01-5.11015E+00 4.09655E-02-6.01614E+00 7.53286E-14-2.67231E-13
 -1      2551 1.50134E+01-5.68281E+00-4.39460E-02-6.66761E+00 6.63358E-14-2.74114E-13
 -1      2552 3.55822E+01 6.37255E+00-2.62453E-02-1.01927E+00 1.44329E-15-1.96773E-13
 -1      2553 3.42448E+01 4.88174E+00-1.02982E-01-1.79097E+00 8.90399E-14-1.11217E-13
 -1      2554 3.23817E+01 3.10112E+00-9.19469E-02-2.69467E+00 2.06668E-13-5.81202E-14
 -1      2555 3.28598E+01 6.05715E+00-5.71405E-02-7.82687E-01-5.29576E-14 7.17482E-14
 -1      2556 3.37371E+01 3.52426E+00-4.15485E-02 2.24845E+00 2.96430E-14 1.08413E-13
 -1      2557 3.49561E+01 5.20708E+00-6.23140E-02 1.74427E+00 5.52336E-14 7.61613E-14
 -1      2558 2.69599E+01-5.21575E+00-2.59402E-03-3.01066E+00-3.43059E-14-4.26326E-13
 -1      2559 2.92412E+01-4.41796E+00-1.69561E-01-1.79115E+00-1.28314E-13-6.62914E-13
 -1      2560 2.07462E+01-5.08798E+00-1.66816E-02 6.60323E+00-2.94598E-13 1.10259E-13
 -1      2561 1.70682E+01-5.26104E+00 7.56323E-02 6.99477E+00-2.92572E-13 8.67778E-14
 -1      2562 1.96692E+01-6.03662E+00 1.10774E-02-5.72859E+00 4.16334E-14-3.73951E-13
 -1      2563 2.38814E+01-5.81247E+00-6.49406E-02-4.88972E+00-1.90958E-14-3.96322E-13
 -1      2564 2.58095E+01-5.62099E+00 4.88529E-02-3.44023E+00-9.52016E-15-4.15237E-13
 -1      2565 4.55348E+00-3.76673E+00 3.81891E-02-3.37890E+00 8.38773E-14-2.67453E-13
 -1      2566 6.87331E+00-4.09983E+00 1.68907E-02-5.08949E+00 1.04777E-13-2.50910E-13
 -1      2567 5.51605E+00-3.27547E+00 5.54099E-02 5.05927E+00-7.23865E-14-2.06835E-13
 -1      2568 3.96842E+00-2.87845E+00 1.04782E-01 3.17781E+00-9.45494E-14-2.20435E-13
 -1      2569 1.23075E+01-4.69963E+00-7.37338E-03 7.45104E+00-1.88183E-13 9.31200E-14
 -1      2570 8.37523E+00-4.23155E+00 7.82823E-02 6.33729E+00-1.46161E-13-5.62328E-14
 -1      2571 8.91384E+00-2.82581E+00 1.62440E-01 5.75318E+00 7.60503E-15-8.56260E-14
 -1      2572 2.65105E+01-3.68114E+00-9.19593E-02 3.92145E+00-1.39486E-13-1.60982E-13
 -1      2573 2.36492E+01-4.69968E+00 1.05735E-03 5.20530E+00-2.59293E-13 4.22717E-14
 -1      2574 2.29850E+01-5.10116E+00 8.81260E-02 5.32099E+00-2.69118E-13 1.99007E-14
 -1      2575 3.24021E+01 5.71625E+00-1.19752E-01-8.00180E-01-1.73750E-14-1.95677E-13
 -1      2576 3.16314E+01 3.84158E+00-1.28385E-01-6.89730E-01-2.60347E-14-2.91434E-14
 -1      2577 3.33178E+01 7.90194E+00-9.93769E-02-1.06685E-01-2.14273E-14-8.37377E-14
 -1      2578 3.25603E+01 7.38359E+00-1.35646E-01-4.78778E-01-9.16489E-14-1.45328E-13
 -1      2579 3.26984E+01 6.66257E+00-1.36232E-01 5.84695E-01 1.14908E-13-1.18211E-13
 -1      2580 3.31283E+01 7.59777E+00-1.31018E-01 3.60955E-01 5.30687E-14-8.81933E-14
 -1      2581 3.13333E+01 2.71532E+00-8.80793E-02 4.99096E-01 1.39416E-13-2.27318E-13
 -1      2582 3.23119E+01 4.67220E+00-1.39901E-01 7.12030E-01 1.79357E-13-1.80800E-13
 -1      2583 2.90174E+01-1.72009E+00 9.16387E-03-2.57883E+00 2.67869E-13-7.10543E-15
 -1      2584 3.08281E+01 5.32317E-03-1.50453E-01-1.19467E+00 1.10516E-13-8.31557E-14
 -1      2585 2.28430E+01-4.69751E+00 5.15375E-03-5.56059E+00 3.55854E-13-6.07292E-14
 -1      2586 2.65460E+01-3.43232E+00-6.37597E-02-4.52094E+00 3.65347E-13 1.51767E-13
 -1      2587 1.56465E+01-5.19155E+00 7.02443E-02-7.23316E+00 2.16605E-13-2.76112E-13
 -1      2588 1.92864E+01-5.18926E+00 1.44725E-03-7.02565E+00 3.18301E-13-3.78989E-13
 -1      2589 4.16850E+00-3.37730E+00 4.12557E-02 3.04219E+00 1.76026E-13 3.99014E-13
 -1      2590 2.81570E+00-3.00013E+00 4.68967E-02 4.38312E-01 4.52810E-13-1.63203E-14
 -1      2591 2.04842E+01 8.74954E-01-7.30875E-03 1.22819E+00 1.20928E-13 1.14702E-14
 -1      2592 2.08349E+01 1.25692E+00-6.04766E-03 1.72886E+00 1.34708E-13 2.59168E-14
 -1      2593 2.06418E+01 1.71558E+00-1.57911E-02 1.92308E+00 1.38553E-13-1.19002E-14
 -1      2594 2.04445E+01 1.05807E+00-9.40334E-03 1.24298E+00 1.11417E-13-1.74365E-14
 -1      2595 3.26239E+01 5.24574E+00-8.41040E-02 1.67707E+00-4.15779E-14 1.58956E-13
 -1      2596 1.99165E+01 2.81131E+00 1.15118E-03-1.09813E+00-7.49427E-14-8.84336E-14
 -1      2597 1.97828E+01 3.15667E+00-1.62076E-02-1.28804E+00-8.18169E-14-9.02247E-14
 -1      2598 1.98847E+01 3.01310E+00-1.85406E-02-1.47807E+00-9.41797E-14-8.50804E-14
 -1      2599 1.99910E+01 3.41005E-01-3.52956E-03 3.05443E-01 7.58543E-14-3.52669E-15
 -1      2600 2.04191E+01 2.11573E+00-1.27660E-02 1.87609E+00 1.34560E-13-5.12645E-14
 -1      2601 1.43498E+01-4.63293E+00 9.72288E-02-7.16308E+00 1.23013E-13-2.84550E-13
 -1      2602 1.71856E+01-4.73223E+00 1.57381E-02-6.77593E+00 1.15116E-13-3.25101E-13
 -1      2603 1.33677E+01-3.57254E+00 1.54448E-01-6.87143E+00 1.68948E-13-1.72751E-13
 -1      2604 2.22721E+01-5.19252E+00 3.46050E-02-5.71794E+00 2.17548E-13 3.29181E-14
 -1      2605 3.12070E+01-1.30466E+00-9.88365E-02-2.22831E+00 2.30878E-13 7.91589E-14
 -1      2606 2.77689E+01-3.22136E+00 2.93574E-02-2.71115E+00 2.08167E-13 1.54349E-13
 -1      2607 7.91310E+00-2.50605E+00 1.49498E-01-5.14800E+00 1.80689E-13-1.02696E-15
 -1      2608 1.35233E+01-4.29236E+00 1.27987E-01 6.09082E+00-7.42184E-14-3.09475E-13
 -1      2609 2.93530E+01-1.32576E+00-9.95518E-02 3.00097E+00 6.81954E-14 1.15297E-13
 -1      2610 2.95552E+01-2.58448E+00-1.46808E-01 1.89304E+00 4.00409E-14-4.90857E-14
 -1      2611 2.92568E+01 2.83445E-01-7.16973E-02 3.20961E+00 2.42445E-13 1.31090E-13
 -1      2612 2.01538E+01 2.17738E-01 1.63777E-03 3.34526E-01 1.01218E-13 1.94534E-13
 -1      2613 2.02061E+01 1.57269E-01 1.24246E-03 3.15082E-01 2.00258E-13 1.43735E-13
 -1      2614 2.03031E+01 1.57945E-01 2.07727E-03 3.85673E-01 2.07469E-13 8.62971E-16
 -1      2615 2.01279E+01 2.79866E-01-1.13887E-03 3.78681E-01 7.89970E-14 1.81768E-14
 -1      2616 2.02330E+01 2.84584E-01 3.03071E-03 5.47352E-01 1.70450E-13 2.23414E-14
 -1      2617 2.01281E+01 3.32158E-01 4.92026E-04 4.70423E-01 1.56838E-13 3.70189E-14
 -1      2618 3.01186E+01 9.43782E-01-3.55544E-02 4.55367E-01 7.68829E-14-2.00062E-13
 -1      2619 2.01495E+01 1.26125E-01 1.98938E-03-2.59247E-01 2.34925E-13 5.31590E-13
 -1      2620 2.01107E+01 1.91208E-01-3.22718E-04-2.96506E-01 9.38643E-14 3.21709E-13
 -1      2621 2.01306E+01 2.03370E-01 1.48795E-05-3.61710E-01 5.94935E-14 3.59487E-13
 -1      2622 2.01977E+01 1.16799E-01 1.25442E-03-3.00237E-01 2.03765E-13 4.64932E-13
 -1      2623 3.02648E+01 5.32103E+00-7.57036E-02 1.44078E+00 1.83714E-13-8.06438E-14
 -1      2624 3.06602E+01 7.53747E+00-6.45295E-02 2.62929E-01 1.32672E-14 1.30167E-13
 -1      2625 4.90787E+00-1.60399E+00 1.64966E-01-7.47533E-01 4.20053E-13-6.51146E-14
 -1      2626 2.04339E+01 1.80816E+00 1.25515E-02 1.56377E+00 1.15684E-13-5.58754E-14
 -1      2627 2.10959E+01-5.61163E+00 1.08456E-01 5.32094E+00 2.42029E-13-2.87576E-13
 -1      2628 1.60078E+01-4.69389E+00 1.12335E-01 7.02469E+00-1.92957E-13 5.43038E-14
 -1      2629 5.68253E+00-2.08323E+00 1.54353E-01-2.50248E+00 1.37126E-13-2.71116E-13
 -1      2630 1.87990E+01-5.59695E+00 8.94811E-02-5.90704E+00 1.12688E-13-3.39954E-13
 -1      2631 2.95081E+01 2.87206E+00-1.29520E-01-1.67003E+00 7.57727E-14 8.82627E-15
 -1      2632 3.09694E+01 2.09677E+00-7.85059E-02-6.72818E-01 2.63956E-14 4.00791E-14
 -1      2633 2.95357E+01 4.40370E-01-6.90891E-02-5.66487E-01 1.18128E-13-1.11022E-14
 -1      2634 3.04170E+01-3.42480E+00 5.36497E-02 3.84877E-01-8.64586E-15-4.05898E-13
 -1      2635 5.20867E+00-1.58265E+00 1.71957E-01 1.92893E+00-5.64687E-14-3.07920E-13
 -1      2636 2.78540E+01-4.92584E+00 1.48662E-02 1.79261E+00-2.53964E-15 8.08381E-14
 -1      2637 2.01182E+01 2.61308E+00-9.96495E-03-1.67749E+00-1.01371E-13-5.86458E-14
 -1      2638 1.05966E+01-3.83553E+00 1.27871E-01-5.61115E+00 1.00031E-13-2.29122E-13
 -1      2639 7.11068E+00-2.55299E+00 1.50216E-01 3.86902E+00 1.37723E-13 1.60955E-13
 -1      2640 2.80927E+01-2.92850E+00 1.16411E-02 2.48914E+00-7.75699E-14 3.88023E-14
 -1      2641 2.66681E+01-4.00985E+00 5.44354E-02 2.78559E+00-1.87392E-13 6.21725E-14
 -1      2642 2.85056E+01-2.23447E+00-1.70893E-01 7.98624E-01-1.54807E-14 1.26010E-13
 -1      2643 3.05736E+01 6.23265E+00-9.37369E-02-1.13821E+00-9.04832E-14-4.71845E-16
 -1      2644 3.13123E+01 1.46759E+00-5.56253E-02 2.94203E+00 2.57433E-13-1.62925E-14
 -1      2645 2.01940E+01 1.43727E-01-7.54146E-04-3.69321E-01 1.36859E-13 6.48431E-13
 -1      2646 1.98510E+01 2.76680E+00-6.32856E-03 5.16349E-01 2.75879E-14-1.49046E-13
 -1      2647 1.98267E+01 2.81665E+00-5.72653E-03 3.65439E-01 2.28272E-14-1.49208E-13
 -1      2648 1.98101E+01 2.85434E+00-5.62325E-03 2.29860E-01 1.78620E-14-1.57817E-13
 -1      2649 1.98017E+01 2.87128E+00-5.45224E-03 7.51862E-02 2.02441E-14-1.40224E-13
 -1      2650 1.99565E+01 2.50379E+00 3.69555E-03 2.65134E-01 2.19026E-14-1.60546E-13
 -1      2651 2.00470E+01 2.32469E+00-1.07370E-02 1.04676E+00 8.90511E-14-1.26998E-13
 -1      2652 1.99838E+01 2.47385E+00-6.34844E-03 9.10930E-01 8.62044E-14-1.21672E-13
 -1      2653 2.02172E+01 1.90910E+00-1.19420E-02 1.22855E+00 8.25208E-14-1.06164E-13
 -1      2654 2.01263E+01 2.14695E+00-4.81490E-03 1.13513E+00 8.39762E-14-1.17871E-13
 -1      2655 2.01923E+01 1.88779E+00 6.50056E-03 9.27407E-01 7.83237E-14-1.15268E-13
 -1      2656 2.02103E+01 7.27427E-01-3.42808E-03 6.43851E-01 7.37084E-14-3.89714E-14
 -1      2657 2.03520E+01 9.52039E-01 9.17761E-03 9.07763E-01 7.29460E-14-4.20378E-14
 -1      2658 2.29058E+01-5.40887E+00-6.81707E-02 4.39690E+00 2.21503E-13-2.51172E-13
 -1      2659 1.98437E+01-4.75323E+00 1.56280E-01 5.33447E+00 2.58349E-13-3.05270E-13
 -1      2660 2.00686E+01 4.16988E-01-1.32913E-03 2.88495E-01 7.66904E-14-3.63618E-14
 -1      2661 2.01688E+01 5.54261E-01 1.02696E-02 4.51302E-01 8.39414E-14-1.67206E-14
 -1      2662 2.02531E+01 8.23508E-01 1.03456E-03 6.17938E-01 6.92181E-14-6.96996E-14
 -1      2663 2.03186E+01 1.70976E+00-9.94070E-03-1.33315E+00-9.97423E-14-4.06832E-14
 -1      2664 2.02849E+01 1.32864E+00-7.08490E-03-1.03448E+00-8.88547E-14-3.26618E-14
 -1      2665 2.03147E+01 1.01408E+00 4.38382E-03-8.11626E-01-8.44227E-14-2.74070E-14
 -1      2666 2.02198E+01 7.84238E-01-4.96649E-03-5.71883E-01-9.31729E-14-2.21894E-14
 -1      2667 2.02791E+01 1.36138E+00 1.48192E-03-8.97861E-01-8.35966E-14-5.47397E-14
 -1      2668 2.02084E+01 6.00683E-01 5.73011E-03-4.07422E-01-8.77150E-14-9.53098E-15
 -1      2669 2.01275E+01 4.59752E-01-2.87439E-03-2.49161E-01-6.48953E-14 1.02036E-14
 -1      2670 2.02572E+01 8.35538E-01 2.34853E-03-5.03377E-01-7.17032E-14-3.42825E-14
 -1      2671 2.01037E+01 3.47680E-01 4.66012E-03-1.39151E-01-3.04875E-14 7.75039E-15
 -1      2672 2.00474E+01 2.60740E-01-1.43963E-03-4.02548E-02-1.54710E-14 1.15360E-15
 -1      2673 2.01940E+01 4.95619E-01-7.46674E-04-2.15090E-01-4.44677E-14 1.24612E-14
 -1      2674 2.00238E+01 1.91311E-01 3.34916E-03 2.88475E-02-2.73567E-14 3.62258E-15
 -1      2675 1.99904E+01 1.37444E-01-4.91994E-04 8.75266E-02-2.37705E-14-5.39003E-15
 -1      2676 2.01303E+01 2.81284E-01-1.66653E-03-2.38343E-02-2.36183E-14 2.35544E-14
 -1      2677 1.99716E+01 9.46277E-02 2.25060E-03 1.27894E-01-2.13293E-14-8.56636E-15
 -1      2678 1.99558E+01 6.19784E-02 1.07782E-04 1.60299E-01-1.54599E-14-4.84778E-14
 -1      2679 2.00787E+01 1.46626E-01-1.77539E-03 9.53308E-02-1.77949E-14 4.62487E-14
 -1      2680 1.99426E+01 3.65387E-02 1.41165E-03 1.81616E-01-2.51318E-15-4.84575E-14
 -1      2681 1.99395E+01 1.80558E-02 4.78605E-04 1.97551E-01-6.28616E-15-2.80851E-14
 -1      2682 2.00417E+01 6.41438E-02-1.59890E-03 1.64301E-01-4.40777E-15 4.02557E-14
 -1      2683 1.99313E+01 4.39905E-03 8.05065E-04 2.07156E-01 5.85775E-15-3.63333E-14
 -1      2684 1.99367E+01-4.34478E-03 7.15239E-04 2.13513E-01-1.80166E-14 2.22792E-15
 -1      2685 2.00180E+01 1.69207E-02-1.35594E-03 2.00552E-01-2.27826E-15 4.97671E-14
 -1      2686 1.99326E+01-9.78327E-03 3.84984E-04 2.16838E-01-4.67233E-14-7.19130E-15
 -1      2687 1.99438E+01-1.16895E-02 8.80316E-04 2.18509E-01-5.71788E-14 3.85287E-14
 -1      2688 2.00049E+01-5.88862E-03-1.13283E-03 2.17340E-01-2.09102E-14 1.16574E-14
 -1      2689 1.99429E+01-1.12872E-02 1.07758E-04 2.19549E-01-7.92235E-14 1.45015E-14
 -1      2690 1.99582E+01-8.33470E-03 1.01193E-03 2.20039E-01-7.54724E-14-5.81801E-15
 -1      2691 2.00000E+01-1.14740E-02-9.58329E-04 2.24524E-01-8.67707E-14-1.09174E-14
 -1      2692 1.99598E+01-3.75365E-03-6.26640E-05 2.21719E-01-1.87086E-14-1.93232E-14
 -1      2693 1.99783E+01 2.63752E-03 1.13075E-03 2.23549E-01-1.44951E-14-1.88789E-14
 -1      2694 2.00016E+01-4.78502E-03-8.37878E-04 2.29384E-01-5.71878E-14 2.14633E-14
 -1      2695 1.99821E+01 1.01515E-02-1.53363E-04 2.27992E-01-5.46705E-14-2.08689E-16
 -1      2696 2.00035E+01 1.88656E-02 1.24443E-03 2.32944E-01-1.18083E-13 8.65901E-15
 -1      2697 2.00083E+01 1.05896E-02-7.68916E-04 2.37259E-01-4.00343E-14-5.26012E-14
 -1      2698 2.00094E+01 2.82556E-02-1.82007E-04 2.41637E-01-1.16815E-13-1.39175E-14
 -1      2699 2.00337E+01 3.82680E-02 1.34924E-03 2.50890E-01-7.35590E-14-2.07788E-14
 -1      2700 2.00196E+01 3.17955E-02-7.47051E-04 2.51997E-01-1.27656E-13 1.44689E-14
 -1      2701 2.00420E+01 4.84614E-02-1.56783E-04 2.64757E-01-5.61658E-14-5.29220E-14
 -1      2702 2.00698E+01 5.86330E-02 1.42962E-03 2.78913E-01-7.25807E-14-3.49134E-14
 -1      2703 2.00354E+01 5.61849E-02-7.68950E-04 2.76210E-01-8.00912E-14-4.35942E-15
 -1      2704 2.00811E+01 6.83340E-02-7.62046E-05 2.98291E-01-2.61505E-14-3.78300E-14
 -1      2705 2.01131E+01 7.71958E-02 1.45687E-03 3.17310E-01-1.71367E-14-2.48154E-14
 -1      2706 2.00566E+01 8.08074E-02-8.33845E-04 3.11343E-01-1.16930E-14-5.12568E-14
 -1      2707 2.01286E+01 8.46690E-02 7.12127E-05 3.41828E-01-5.00254E-14-3.81365E-14
 -1      2708 2.01658E+01 9.02004E-02 1.38730E-03 3.64847E-01-7.80796E-14-4.18371E-14
 -1      2709 2.00847E+01 1.01885E-01-9.44844E-04 3.57543E-01-3.35490E-14-8.50888E-14
 -1      2710 2.01874E+01 9.30570E-02 3.06894E-04 3.93201E-01-7.78214E-14-2.88135E-14
 -1      2711 2.02308E+01 9.24821E-02 1.16104E-03 4.18268E-01-7.18494E-14-8.86752E-14
 -1      2712 2.01224E+01 1.14282E-01-1.11004E-03 4.13332E-01-8.47986E-14 5.49926E-15
 -1      2713 2.02612E+01 8.75123E-02 6.60366E-04 4.47880E-01-6.54004E-14-1.09078E-13
 -1      2714 2.03119E+01 7.71842E-02 7.02507E-04 4.71601E-01-7.21155E-14-1.43993E-13
 -1      2715 2.01740E+01 1.11028E-01-1.34241E-03 4.75060E-01-1.24899E-13-1.33436E-13
 -1      2716 2.03551E+01 6.03329E-02 1.16287E-03 4.98189E-01 2.62804E-15-1.84219E-13
 -1      2717 2.04142E+01 3.58421E-02-7.49750E-05 5.15341E-01 3.65874E-14-2.37181E-13
 -1      2718 2.02457E+01 8.30892E-02-1.65669E-03 5.36140E-01-5.34324E-14-1.62626E-13
 -1      2719 2.04755E+01 2.50898E-03 1.83175E-03 5.32424E-01 1.29950E-13-2.11829E-13
 -1      2720 2.05438E+01-4.07394E-02-1.25567E-03 5.35648E-01 8.93668E-14-1.63194E-13
 -1      2721 2.03462E+01 1.97003E-02-2.05876E-03 5.86105E-01 1.49951E-13-1.12034E-13
 -1      2722 2.06295E+01-9.47771E-02 2.63994E-03 5.34102E-01 8.20428E-14-5.42682E-14
 -1      2723 2.07070E+01-1.60146E-01-2.89050E-03 5.13891E-01 1.10608E-13-2.37921E-14
 -1      2724 2.04864E+01-9.01299E-02-2.52014E-03 6.09581E-01 1.47046E-13-4.58170E-14
 -1      2725 2.08236E+01-2.36768E-01 3.45900E-03 4.81811E-01 6.39843E-14 1.28919E-14
 -1      2726 2.09087E+01-3.23667E-01-4.93043E-03 4.27181E-01 4.97462E-14 3.55034E-14
 -1      2727 2.06787E+01-2.54037E-01-2.93087E-03 5.85483E-01 9.80097E-14 1.18096E-13
 -1      2728 2.10599E+01-4.18942E-01 3.98635E-03 3.50646E-01-8.45946E-15-7.71007E-15
 -1      2729 2.11479E+01-5.18468E-01-7.08298E-03 2.51124E-01-2.17488E-14 7.51526E-15
 -1      2730 2.09339E+01-4.69522E-01-3.03438E-03 4.87160E-01 2.95818E-14 9.78474E-14
 -1      2731 2.13297E+01-6.17607E-01 3.66580E-03 1.17205E-01 5.62745E-14-2.41444E-15
 -1      2732 2.14113E+01-7.07275E-01-8.59412E-03-3.28828E-02 4.26856E-14 1.31521E-14
 -1      2733 2.12539E+01-7.12930E-01-2.34065E-03 2.85267E-01 6.70102E-14 1.41613E-13
 -1      2734 2.16052E+01-7.79621E-01 1.85737E-03-2.28969E-01-1.18510E-14 4.05158E-14
 -1      2735 2.16654E+01-8.20369E-01-8.13788E-03-4.23136E-01-5.47535E-14 7.25765E-14
 -1      2736 2.16205E+01-9.26660E-01-2.55942E-04-4.28936E-02 1.99200E-14 1.35724E-14
 -1      2737 2.18329E+01-8.19122E-01-1.94223E-03-6.65794E-01 1.77192E-14 1.70613E-13
 -1      2738 2.18535E+01-7.60285E-01-4.02194E-03-8.76195E-01 6.19552E-14 2.91570E-13
 -1      2739 2.19828E+01-1.01198E+00 3.52518E-03-4.93590E-01 6.86125E-14 1.69270E-13
 -1      2740 2.19404E+01-6.33188E-01-6.90719E-03-1.11482E+00-3.39136E-14 3.39070E-13
 -1      2741 2.19069E+01-4.33374E-01 4.60876E-03-1.28501E+00 4.44257E-14 2.67941E-13
 -1      2742 2.22542E+01-8.43667E-01 8.19821E-03-1.00725E+00 8.28265E-14 2.80529E-13
 -1      2743 2.18647E+01-1.54341E-01-1.16125E-02-1.42479E+00-3.70296E-14 1.36662E-13
 -1      2744 2.17797E+01 1.74602E-01 1.37612E-02-1.47398E+00-1.74455E-13 1.00720E-13
 -1      2745 2.23331E+01-3.20140E-01 1.14886E-02-1.43770E+00-1.05049E-13 8.46829E-14
 -1      2746 2.16228E+01 5.52011E-01-1.19495E-02-1.40712E+00-1.62117E-13 6.09541E-14
 -1      2747 2.15144E+01 9.09900E-01 1.65302E-02-1.26935E+00-1.46110E-13-1.20764E-14
 -1      2748 2.21763E+01 5.07534E-01 6.09868E-03-1.55742E+00-1.91240E-13-5.88811E-14
 -1      2749 2.13380E+01 1.24321E+00-6.50483E-03-9.50832E-01-7.25951E-14 1.46817E-15
 -1      2750 2.12563E+01 1.46732E+00 7.19005E-03-6.26782E-01-6.00119E-14 9.96328E-15
 -1      2751 2.18833E+01 1.38523E+00-4.55193E-03-1.18228E+00-8.18563E-14-1.43996E-13
 -1      2752 2.11965E+01 1.58685E+00 3.50926E-03-1.49798E-01-1.85615E-13 2.85746E-14
 -1      2753 2.11817E+01 1.56052E+00-8.66118E-03 2.58020E-01-2.10151E-13 7.44371E-14
 -1      2754 2.16765E+01 1.90770E+00-1.25365E-02-3.40669E-01-1.96960E-13-1.46120E-13
 -1      2755 2.12906E+01 1.39776E+00 1.18282E-02 7.04239E-01-9.17634E-14 1.06857E-13
 -1      2756 2.13568E+01 1.13165E+00-1.84283E-02 1.04217E+00-1.86501E-14-1.90984E-14
 -1      2757 2.17293E+01 1.80744E+00-4.47713E-03 6.47351E-01-5.87082E-14 1.77213E-13
 -1      2758 2.15430E+01 7.78398E-01 1.05767E-02 1.27703E+00 4.70719E-14-1.06764E-14
 -1      2759 2.16539E+01 4.15175E-01-1.83216E-02 1.43693E+00 3.68681E-14-4.72348E-14
 -1      2760 2.19981E+01 1.12017E+00 8.36107E-03 1.35311E+00-3.86637E-15 1.77577E-13
 -1      2761 2.17846E+01 4.40300E-02 3.15106E-03 1.41724E+00 6.42737E-14-3.10651E-14
 -1      2762 2.18833E+01-2.61093E-01-1.03818E-02 1.38756E+00 3.50067E-15 1.37283E-13
 -1      2763 2.22622E+01 2.10484E-01 1.54867E-02 1.54626E+00 4.94618E-14 1.76624E-13
 -1      2764 2.18846E+01-5.19771E-01-3.83282E-03 1.19151E+00-9.79640E-14 2.28073E-13
 -1      2765 2.19314E+01-6.88255E-01-9.02754E-04 1.03332E+00-4.07448E-14 1.90323E-13
 -1      2766 2.23333E+01-5.43385E-01 1.30270E-02 1.28798E+00-2.01326E-15 3.20148E-13
 -1      2767 2.18136E+01-7.97546E-01-7.02707E-03 7.73356E-01-4.26220E-14 3.16400E-14
 -1      2768 2.17994E+01-8.32575E-01 5.43210E-03 5.65225E-01-9.23688E-14 1.23467E-14
 -1      2769 2.21722E+01-9.52981E-01 4.97771E-03 7.98956E-01-1.24656E-13 9.74559E-14
 -1      2770 2.16158E+01-8.22091E-01-6.82032E-03 3.24664E-01-5.75995E-14 1.36242E-14
 -1      2771 2.15544E+01-7.68421E-01 7.97524E-03 1.26469E-01-1.26775E-13 3.81443E-14
 -1      2772 2.18531E+01-1.02996E+00-2.27534E-03 2.84897E-01-6.05604E-14 1.44817E-14
 -1      2773 2.13578E+01-6.90293E-01-4.97261E-03-5.58126E-02 2.29851E-15 3.67456E-14
 -1      2774 2.12701E+01-5.96896E-01 7.75177E-03-2.12737E-01 7.76289E-14 1.28412E-13
 -1      2775 2.14782E+01-8.89561E-01-6.18067E-03-1.36171E-01 6.69023E-15 7.92941E-14
 -1      2776 2.10937E+01-4.95942E-01-2.92037E-03-3.30167E-01-5.05612E-14 3.06176E-13
 -1      2777 2.09976E+01-3.97714E-01 6.23758E-03-4.36905E-01-1.68172E-14 3.05813E-13
 -1      2778 2.11230E+01-6.54341E-01-7.07814E-03-4.26786E-01 1.36030E-13 2.21747E-13
 -1      2779 2.08548E+01-3.01733E-01-1.28567E-03-4.98656E-01 7.83416E-14 2.72166E-13
 -1      2780 2.07615E+01-2.16998E-01 4.43826E-03-5.59095E-01 1.91865E-13 2.93808E-13
 -1      2781 2.08249E+01-4.09942E-01-6.24556E-03-5.95381E-01 1.17501E-13 3.41054E-13
 -1      2782 2.06531E+01-1.38363E-01-1.93188E-04-5.78885E-01 1.66815E-13 2.55205E-13
 -1      2783 2.05683E+01-7.29904E-02 2.87733E-03-6.02072E-01 1.67832E-13 2.18088E-13
 -1      2784 2.05926E+01-2.00218E-01-4.80757E-03-6.67661E-01 1.64089E-13 1.81216E-13
 -1      2785 2.04889E+01-1.38294E-02 4.33115E-04-5.92700E-01 3.11607E-13 4.20579E-13
 -1      2786 2.04145E+01 3.36628E-02 1.73742E-03-5.88283E-01 4.35166E-13 5.22956E-13
 -1      2787 2.04194E+01-3.85449E-02-3.39839E-03-6.70933E-01 4.04183E-13 3.39858E-13
 -1      2788 2.03569E+01 7.67064E-02 7.28118E-04-5.59623E-01 4.61518E-13 5.39652E-13
 -1      2789 2.02930E+01 1.11114E-01 1.08894E-03-5.35603E-01 2.72305E-13 5.45966E-13
 -1      2790 2.02928E+01 7.91689E-02-2.23971E-03-6.27737E-01 4.48317E-13 6.44638E-13
 -1      2791 2.02497E+01 1.42784E-01 6.42641E-04-4.94074E-01 1.14714E-13 5.21206E-13
 -1      2792 2.01965E+01 1.68369E-01 5.88756E-04-4.55396E-01 2.04794E-13 5.93484E-13
 -1      2793 2.01997E+01 1.65359E-01-9.73817E-04-5.54284E-01 2.47926E-13 6.26587E-13
 -1      2794 2.01174E+01 3.98489E-01-3.77611E-03 6.05148E-01 1.36044E-13-1.18958E-14
 -1      2795 2.84685E+01 4.17158E+00-1.31430E-01 1.78040E+00 1.48187E-13 1.00725E-13
 -1      2796 2.86959E+01 5.75683E+00-1.87595E-01 1.34677E+00 1.39833E-13 1.07275E-13
 -1      2797 2.86872E+01-4.04555E+00 4.34949E-02 1.38177E-01-6.91010E-14-2.69090E-13
 -1      2798 1.98928E+01 1.22760E-01-1.42482E-04-7.45784E-02 5.35959E-14-5.87765E-14
 -1      2799 1.99265E+01 1.73401E-01 4.94158E-03-1.80250E-02 5.58151E-14-7.18062E-14
 -1      2800 1.98569E+01-3.79325E-03 5.51793E-04-2.05757E-01 4.55069E-15 6.95874E-15
 -1      2801 1.98445E+01 4.72917E-03 8.49560E-04-2.00921E-01 1.62809E-14 1.93324E-14
 -1      2802 1.98766E+01-1.10131E-02 6.75900E-04-2.09958E-01 4.71719E-14-7.31940E-14
 -1      2803 1.98579E+01-8.82031E-03 2.47963E-04-2.09493E-01 3.10279E-14-2.55096E-14
 -1      2804 1.99345E+01-4.47365E-03-1.00268E-03-2.14868E-01 3.79584E-14-4.75118E-14
 -1      2805 1.99046E+01-8.49158E-03 8.15682E-04-2.10390E-01 8.42835E-14-1.10515E-13
 -1      2806 1.98817E+01-1.10352E-02-1.41292E-04-2.10727E-01 4.14919E-14-9.98299E-14
 -1      2807 1.99414E+01-1.13287E-02-7.38076E-04-2.21570E-01 7.37153E-14-1.10529E-13
 -1      2808 1.99389E+01 1.72216E-03 9.93312E-04-2.13148E-01 5.15534E-14-4.87900E-14
 -1      2809 1.99126E+01-4.63545E-03-3.91869E-04-2.11542E-01 9.76055E-14-3.69705E-14
 -1      2810 1.99560E+01-6.28102E-03-5.64454E-04-2.25095E-01 6.71152E-14-6.23343E-14
 -1      2811 1.99788E+01 1.85932E-02 1.22597E-03-2.23161E-01 1.20612E-14 1.54016E-14
 -1      2812 1.99492E+01 8.84566E-03-5.59280E-04-2.17343E-01 3.35336E-14-3.58952E-14
 -1      2813 1.99764E+01 8.31984E-03-4.58561E-04-2.31799E-01 2.64254E-14 5.30722E-15
 -1      2814 2.00246E+01 4.18920E-02 1.52920E-03-2.44750E-01-2.84126E-14-1.59053E-14
 -1      2815 1.99910E+01 2.87745E-02-6.87779E-04-2.32665E-01-8.23021E-15-4.32240E-15
 -1      2816 2.00015E+01 3.13497E-02-3.96701E-04-2.46868E-01 1.41919E-14 9.01744E-14
 -1      2817 2.00772E+01 7.20780E-02 1.91820E-03-2.82074E-01 1.82252E-14 2.46174E-15
 -1      2818 2.00384E+01 5.52595E-02-8.15195E-04-2.61668E-01-8.28703E-15 9.69598E-15
 -1      2819 2.00307E+01 6.26677E-02-3.53509E-04-2.74858E-01 3.16926E-17 3.34001E-14
 -1      2820 2.01380E+01 1.10221E-01 2.40744E-03-3.39483E-01 1.61394E-13-2.49327E-14
 -1      2821 2.00924E+01 8.90594E-02-9.76569E-04-3.08535E-01 8.97908E-14 6.42630E-14
 -1      2822 2.00637E+01 1.02972E-01-2.99797E-04-3.20124E-01 2.41077E-14 6.40143E-14
 -1      2823 2.02083E+01 1.57897E-01 3.00833E-03-4.21791E-01 7.79989E-14 1.22171E-13
 -1      2824 2.01539E+01 1.31501E-01-1.20666E-03-3.77786E-01 1.34453E-13 2.90115E-14
 -1      2825 2.00999E+01 1.53685E-01-1.99803E-04-3.87140E-01 1.11247E-13 1.46324E-13
 -1      2826 2.02889E+01 2.16961E-01 3.72504E-03-5.34426E-01-7.20512E-14 2.27222E-13
 -1      2827 2.02239E+01 1.84331E-01-1.54064E-03-4.74503E-01 2.29467E-14 1.77823E-13
 -1      2828 2.01381E+01 2.16780E-01-8.58989E-06-4.80728E-01 2.06905E-14 2.59163E-13
 -1      2829 2.03801E+01 2.89005E-01 4.54771E-03-6.83378E-01-6.31763E-14 1.61960E-13
 -1      2830 2.03026E+01 2.49367E-01-2.01084E-03-6.04407E-01-4.55049E-14 1.35400E-13
 -1      2831 2.01759E+01 2.94407E-01 3.27017E-04-6.06152E-01-2.90411E-14 1.59410E-13
 -1      2832 2.04809E+01 3.74132E-01 5.44418E-03-8.74765E-01-1.58616E-13 1.12725E-13
 -1      2833 2.03891E+01 3.27683E-01-2.63576E-03-7.73700E-01-1.31575E-13 1.23946E-13
 -1      2834 2.02094E+01 3.88049E-01 8.58719E-04-7.69019E-01-6.72517E-14 1.16089E-13
 -1      2835 2.05892E+01 4.68401E-01 6.35490E-03-1.11376E+00-1.18401E-13 5.08184E-14
 -1      2836 2.04818E+01 4.17834E-01-3.39359E-03-9.88455E-01-1.25157E-13 9.37854E-14
 -1      2837 2.02326E+01 4.96709E-01 1.60594E-03-9.74927E-01-1.39066E-13 9.04353E-14
 -1      2838 2.07037E+01 5.58850E-01 7.20313E-03-1.40240E+00-9.11662E-15-4.10028E-14
 -1      2839 2.05785E+01 5.12274E-01-4.16540E-03-1.25328E+00-6.79986E-14 1.09276E-14
 -1      2840 2.02383E+01 6.13290E-01 2.48134E-03-1.22875E+00-4.18764E-14 1.23595E-13
 -1      2841 2.08285E+01 6.14601E-01 7.94646E-03-1.73582E+00-3.91618E-14 2.80288E-14
 -1      2842 2.06806E+01 5.90655E-01-4.61748E-03-1.56878E+00 1.68658E-14-1.12137E-14
 -1      2843 2.02202E+01 7.17844E-01 3.13763E-03-1.53358E+00-2.31666E-14 8.07565E-14
 -1      2844 2.09855E+01 5.72840E-01 8.68777E-03-2.09593E+00-7.49176E-14 9.13497E-15
 -1      2845 2.08012E+01 6.08511E-01-3.93869E-03-1.92717E+00-7.07471E-14 4.03795E-14
 -1      2846 2.01805E+01 7.66036E-01 2.71246E-03-1.88935E+00-4.47491E-14 2.45769E-14
 -1      2847 2.12387E+01 3.21909E-01 9.98169E-03-2.44107E+00-1.24377E-13 4.65052E-15
 -1      2848 2.09847E+01 4.81218E-01-2.55576E-04-2.30440E+00-4.25153E-14 2.03812E-14
 -1      2849 2.01470E+01 6.71818E-01-4.32212E-04-2.29075E+00-7.25213E-14 9.59825E-14
 -1      2850 2.17267E+01-3.06857E-01 1.06460E-02-2.68899E+00-2.03727E-13-8.43108E-14
 -1      2851 2.13405E+01 7.01635E-02 1.04994E-02-2.64527E+00-1.42894E-13-2.87250E-14
 -1      2852 2.02044E+01 2.88214E-01-8.83672E-03-2.72065E+00-1.38983E-13-5.57670E-15
 -1      2853 2.27081E+01-1.46819E+00 1.41915E-02-2.67113E+00-9.25492E-14-1.91947E-13
 -1      2854 2.20937E+01-8.00771E-01 3.60129E-02-2.82367E+00-1.46337E-13-1.39102E-13
 -1      2855 2.05542E+01-6.05591E-01-2.73835E-02-3.13237E+00-1.51105E-13-1.50040E-13
 -1      2856 2.45558E+01-3.05754E+00 2.57998E-02-2.06891E+00-1.36197E-13-1.27592E-13
 -1      2857 2.35886E+01-2.24911E+00 7.05578E-02-2.59931E+00-1.12919E-13-1.77812E-13
 -1      2858 2.15548E+01-2.14160E+00-5.04385E-02-3.35447E+00-1.26576E-13-1.63931E-13
 -1      2859 2.70535E+01-4.07929E+00 2.73307E-02-7.36882E-01-1.01016E-13-1.38577E-13
 -1      2860 2.58236E+01-3.74548E+00 9.75904E-02-1.69767E+00-1.52073E-13-8.93036E-14
 -1      2861 2.34128E+01-4.04509E+00-7.85227E-02-3.18610E+00-1.75679E-13-1.42306E-13
 -1      2862 2.62441E+01-5.23114E+00-1.21407E-01-2.33108E+00-8.11434E-14-4.54865E-13
 -1      2863 2.01805E+01 1.81008E-01 9.08687E-04-4.25442E-01 1.37384E-13 5.00665E-13
 -1      2864 2.01487E+01 1.95135E-01 8.76954E-04-3.92743E-01 7.58001E-14 4.46533E-13
 -1      2865 2.01148E+01 2.40996E-01 7.76943E-04-4.17770E-01-1.15627E-14 1.28347E-13
 -1      2866 2.01440E+01 2.15571E-01-1.20886E-03-4.78672E-01 1.11949E-13 5.50275E-13
 -1      2867 3.00727E+01 4.74222E+00-1.64092E-01 8.43628E-01-1.84297E-14 2.28643E-13
 -1      2868 2.91287E+01-8.72303E-01-1.65817E-02 2.65865E-01 1.54043E-15-1.29674E-13
 -1      2869 2.89579E+01 1.37857E+00-1.71101E-01 1.48240E+00 5.98688E-14 5.83145E-14
 -1      2870 2.29680E+01-3.60942E+00 1.28664E-01 3.52286E+00 1.10793E-13-2.91076E-13
 -1      2871 2.43706E+01-4.62371E+00 4.27145E-02 3.07325E+00 1.33601E-13-9.52296E-14
 -1      2872 2.58996E+01-5.10280E+00 1.17958E-01 2.67301E+00-1.13798E-15 6.24500E-15
 -1      2873 1.98781E+01-1.11730E-01 1.68379E-02 3.10573E+00-1.35067E-13-5.39728E-13
 -1      2874 2.02967E+01-6.77904E-01 3.72399E-02 3.23998E+00-1.57898E-13-5.24071E-13
 -1      2875 1.97329E+01 5.31933E-01-4.17325E-03 2.62878E+00-6.72134E-14-5.61959E-13
 -1      2876 1.99336E+01 2.75867E-01 2.36480E-02 2.80331E+00-1.19624E-13-5.73845E-13
 -1      2877 1.86520E+01 2.34578E-01-1.58989E-03 3.05383E+00-1.34737E-13-7.79335E-13
 -1      2878 1.98008E+01 7.77136E-01-9.86905E-03 2.19166E+00 6.79310E-15-5.39462E-13
 -1      2879 1.98995E+01 7.02874E-01 1.54689E-02 2.37666E+00-4.27077E-14-6.84397E-13
 -1      2880 1.89028E+01 7.96204E-01 5.65280E-03 2.48722E+00-3.40914E-14-7.77699E-13
 -1      2881 1.99152E+01 8.01940E-01-1.02487E-02 1.80926E+00-2.35022E-13-3.52307E-13
 -1      2882 1.99764E+01 8.18303E-01 1.06529E-02 1.98660E+00-1.42728E-13-4.58060E-13
 -1      2883 1.92202E+01 9.68854E-01 7.35344E-03 2.04250E+00-1.33680E-13-6.65749E-13
 -1      2884 2.00104E+01 7.27843E-01-8.85611E-03 1.47893E+00 1.13532E-13-2.76943E-13
 -1      2885 2.00618E+01 7.80988E-01 8.26690E-03 1.63943E+00-2.95868E-14-2.58482E-13
 -1      2886 1.94997E+01 9.45724E-01 6.82579E-03 1.68237E+00-2.05706E-13-2.93302E-13
 -1      2887 2.00697E+01 6.24128E-01-7.03364E-03 1.19602E+00 1.03777E-13-3.16685E-13
 -1      2888 2.01196E+01 6.84429E-01 6.81059E-03 1.33652E+00 1.62742E-13-2.92680E-13
 -1      2889 1.97117E+01 8.40644E-01 5.40656E-03 1.38084E+00 1.63787E-13-2.16698E-13
 -1      2890 2.00965E+01 5.28244E-01-4.69633E-03 9.54709E-01-5.17728E-14-1.03363E-13
 -1      2891 2.01446E+01 5.79786E-01 5.68600E-03 1.07583E+00-7.06273E-14-1.58123E-13
 -1      2892 1.98578E+01 7.17169E-01 3.91952E-03 1.12409E+00-1.38386E-13 1.78722E-13
 -1      2893 2.01001E+01 4.59374E-01-6.13423E-04 7.45211E-01 1.52484E-13 8.93682E-14
 -1      2894 2.01425E+01 4.92241E-01 4.62503E-03 8.49258E-01 1.16741E-13-1.00980E-13
 -1      2895 1.99464E+01 6.11042E-01 2.59647E-03 9.02777E-01-4.95991E-14 1.03372E-14
 -1      2896 1.96676E+01 7.84977E-01-1.26307E-04-1.01576E-01 1.91845E-13 8.15305E-14
 -1      2897 1.96494E+01 7.98827E-01-2.87298E-03-1.13427E-02 2.70101E-13-1.14482E-14
 -1      2898 1.96773E+01 7.90982E-01-2.88297E-03 2.98776E-01 2.77926E-13-1.37652E-13
 -1      2899 1.97169E+01 7.57658E-01-5.12195E-04 3.81765E-01 3.85960E-13-2.03774E-13
 -1      2900 1.97322E+01 7.09820E-01 8.67982E-04-2.71292E-01 7.64370E-14-2.33015E-13
 -1      2901 1.96948E+01 7.42629E-01-3.31490E-03-1.96634E-01 1.23899E-13 3.34597E-14
 -1      2902 1.96090E+01 7.58182E-01 2.19133E-03-1.78562E-01 2.28718E-13 1.21850E-14
 -1      2903 1.96446E+01 8.15525E-01-1.51258E-03 9.77742E-02 1.73834E-13 1.62120E-13
 -1      2904 1.96537E+01 8.06480E-01-1.79608E-03 1.91794E-01 2.50103E-13 1.23588E-13
 -1      2905 1.95883E+01 8.17670E-01 3.21489E-03 2.61669E-01 1.63593E-13-2.83540E-14
 -1      2906 1.95673E+01 8.15371E-01 3.27393E-03 3.45666E-02 1.89540E-13 1.25677E-14
 -1      2907 1.59491E+01-4.18486E+00-1.88968E-03 6.03157E+00 1.17989E-13-2.34757E-13
 -1      2908 1.26658E+01-2.99779E+00 1.80777E-01 5.54773E+00 1.64452E-14-2.44693E-13
 -1      2909 1.98200E+01 6.07354E-01 1.59029E-03-3.92449E-01-1.73504E-13-8.39523E-13
 -1      2910 1.97728E+01 6.52439E-01-3.16582E-03-3.41149E-01 3.43774E-14-4.27795E-13
 -1      2911 1.96963E+01 6.63336E-01 1.16979E-03-3.49310E-01-2.04550E-14-3.47253E-13
 -1      2912 1.99192E+01 4.89190E-01 2.00140E-03-4.61590E-01-5.65558E-14-4.09303E-13
 -1      2913 1.98680E+01 5.42272E-01-2.62414E-03-4.34918E-01-6.28625E-14-6.46497E-13
 -1      2914 1.98087E+01 5.47610E-01 2.12150E-04-4.64771E-01-1.05315E-13-6.92920E-13
 -1      2915 2.00174E+01 3.69307E-01 1.97609E-03-4.78454E-01 1.58991E-13 6.18684E-13
 -1      2916 1.99664E+01 4.25018E-01-2.12948E-03-4.74893E-01 1.10466E-13 1.04622E-13
 -1      2917 1.99298E+01 4.25659E-01-5.07375E-04-5.20752E-01 1.78096E-13-4.90255E-14
 -1      2918 2.00756E+01 2.95452E-01-9.64499E-04-4.38308E-01-3.53638E-14 5.84100E-13
 -1      2919 1.99607E+01 2.33686E-01-5.46633E-04 6.18223E-02 4.66204E-14-6.39294E-14
 -1      2920 2.00245E+01 3.16367E-01 7.48696E-03 1.59798E-01 5.72737E-14-4.66267E-14
 -1      2921 2.01465E+01 4.80836E-01-1.31437E-03 2.79951E-01 7.46261E-14-8.03493E-14
 -1      2922 2.00577E+01 2.70782E-01-2.20508E-03 5.87809E-02 6.17585E-14-8.94820E-14
 -1      2923 2.11496E+01-5.12835E+00 7.18813E-02-5.78926E+00 2.20046E-13 1.12996E-13
 -1      2924 2.41093E+01-5.05420E+00-5.63352E-02-4.64649E+00 2.13968E-13 2.93987E-13
 -1      2925 2.40929E+01-4.95231E+00-5.06332E-02 4.31816E+00-2.12400E-13 1.49117E-14
 -1      2926 2.19375E+01-5.02821E+00 1.09515E-01 5.37688E+00-2.57239E-13 5.47062E-14
 -1      2927 2.64589E+01-4.11758E+00 4.42652E-02-2.90187E+00 2.06661E-13 2.50786E-13
 -1      2928 2.80134E+01-2.94398E+00-1.55854E-01-1.43434E+00 7.96221E-14-1.76664E-14
 -1      2929 2.03356E+01 1.50049E+00-1.88131E-03 1.26844E+00 9.20158E-14-5.34377E-14
 -1      2930 1.84260E+01-4.75314E+00-2.87161E-02 6.55063E+00-1.49714E-13 6.34909E-14
 -1      2931 1.47362E+01-3.72001E+00 1.67099E-01 6.71696E+00-5.89112E-14 3.03646E-14
 -1      2932 2.05860E+01-1.39086E+00 7.01969E-02 3.55437E+00-1.65341E-13-3.29828E-13
 -1      2933 2.13513E+01-2.38869E+00 4.27682E-02 3.55843E+00-1.08160E-13-2.52191E-13
 -1      2934 1.87026E+01-1.00694E+00-3.29291E-02 3.77716E+00-4.08770E-14-4.42757E-13
 -1      2935 1.98491E+01 1.66180E-02 4.10507E-04-1.89788E-01 1.46789E-14 5.29064E-15
 -1      2936 1.98463E+01 3.40575E-02 1.76902E-03-1.75690E-01 3.19976E-14-2.49047E-14
 -1      2937 1.99381E+01 1.82984E-02-1.37722E-03-1.96754E-01 9.04933E-15 3.10974E-14
 -1      2938 1.98585E+01 5.57904E-02 2.00708E-04-1.51113E-01 1.36121E-14-3.79500E-14
 -1      2939 1.98706E+01 8.63099E-02 3.12742E-03-1.20787E-01 3.15476E-14-3.94238E-14
 -1      2940 1.99564E+01 6.34812E-02-1.86352E-03-1.56167E-01 1.10324E-14-4.73035E-15
 -1      2941 2.00856E+01 2.52699E+00-2.18125E-03-1.45891E+00-9.32214E-14-6.93889E-14
 -1      2942 9.97254E+00-2.45954E+00 1.54832E-01-4.92356E+00 1.45869E-13-2.22572E-13
 -1      2943 1.33447E+01-3.72780E+00 2.81626E-02-5.98765E+00 9.70057E-14-1.98869E-13
 -1      2944 1.99286E+01 2.59702E+00-7.94323E-03 7.94756E-01 7.49524E-14-1.18019E-13
 -1      2945 1.98853E+01 2.68943E+00-6.19266E-03 6.45512E-01 4.02544E-14-1.28116E-13
 -1      2946 2.00046E+01 2.39076E+00 4.44384E-03 5.16698E-01 4.09043E-14-1.20344E-13
 -1      2947 2.00851E+01 2.19218E+00 5.66570E-03 7.45921E-01 7.09811E-14-1.11472E-13
 -1      2948 1.98802E+01 2.69874E+00-5.99236E-03-6.35599E-01-3.32922E-14-9.73123E-14
 -1      2949 1.99224E+01 2.60891E+00-7.56971E-03-7.84680E-01-5.29939E-14-8.37984E-14
 -1      2950 9.36241E+00-2.09470E+00 6.20805E-02 4.65157E+00 3.02952E-14 4.19387E-14
 -1      2951 7.15406E+00-1.19502E+00 1.64292E-01 2.76141E+00 3.96912E-13-7.99638E-14
 -1      2952 6.89152E+00-7.42012E-01 1.18300E-01 2.93867E+00 8.26422E-14-2.64871E-13
 -1      2953 6.23815E+00-4.77075E-01 1.89602E-01 4.86832E-01 9.02490E-14-4.20664E-13
 -1      2954 6.36076E+00-8.67668E-01 1.43745E-01-1.60079E+00 1.67640E-13-3.33650E-13
 -1      2955 7.66341E+00-1.58406E+00 1.21210E-01-3.59136E+00 1.79967E-13-2.20907E-13
 -1      2956 2.40796E+01-5.34728E+00 1.03258E-01-3.80410E+00-5.89390E-14-4.71755E-13
 -1      2957 1.73098E+01-4.36042E+00 1.69198E-01-5.77794E+00 7.92977E-14-2.50251E-13
 -1      2958 2.08788E+01-5.16878E+00-2.05859E-02-5.14973E+00 1.57097E-14-4.50834E-13
 -1      2959 2.23157E+01-4.46512E+00 8.78593E-02-4.12449E+00-1.28522E-13-3.23715E-13
 -1      2960 1.12003E+01-2.78563E+00 4.20594E-02 6.38334E+00-2.35784E-14-2.00950E-14
 -1      2961 8.80037E+00-1.61702E+00 1.69034E-01 4.89522E+00 1.39139E-13-1.78413E-13
 -1      2962 2.87703E+01 6.51497E+00-1.85221E-01-9.59110E-01-6.65856E-14 1.97085E-13
 -1      2963 2.86830E+01 5.07415E+00-1.63583E-01-1.60416E+00-3.84137E-14 2.16105E-13
 -1      2964 6.01797E+00-7.63382E-01 1.61520E-01 7.63602E-01 3.49394E-13-3.45279E-14
 -1      2965 6.37247E+00-6.49638E-01 1.41289E-01-1.77349E+00 1.78926E-13 4.54636E-14
 -1      2966 8.35347E+00-2.68885E-01 1.95915E-01 1.66667E+00 2.41831E-13-8.79297E-14
 -1      2967 2.86920E+01 6.84365E+00-1.67507E-01 7.06428E-01 8.76244E-14 1.25032E-13
 -1      2968 2.87378E+01 7.12248E+00-1.72100E-01-1.74314E-01-6.91114E-15 1.64809E-13
 -1      2969 8.14756E+00-1.19331E+00 1.62642E-01-4.13131E+00 1.10835E-13 5.61218E-14
 -1      2970 1.04311E+01-2.18860E+00 1.23148E-01-5.78368E+00-9.32587E-15 1.65534E-13
 -1      2971 1.99967E+01 5.12992E-01 3.47795E-03 5.81496E-01 2.38163E-13-2.01957E-13
 -1      2972 2.00670E+01 4.75545E-01 2.08880E-03 6.74816E-01 2.60538E-13 7.30935E-14
 -1      2973 1.99408E+01 5.58737E-01-5.13509E-03 7.19826E-01 3.19683E-13-2.69333E-14
 -1      2974 1.99070E+01 5.80721E-01-5.65348E-03 5.64013E-01 2.60960E-13-1.67369E-13
 -1      2975 1.99759E+01 2.49086E+00-5.53536E-03-9.02207E-01-6.37662E-14-8.03880E-14
 -1      2976 2.00359E+01 2.36083E+00-6.92476E-03-1.03626E+00-7.32716E-14-8.17810E-14
 -1      2977 2.00773E+01 2.20732E+00 6.00373E-03-7.39856E-01-5.64308E-14-6.81049E-14
 -1      2978 1.99401E+01 2.54149E+00 3.46022E-03 4.53619E-03 2.00580E-14-1.24613E-13
 -1      2979 1.98010E+01 2.87216E+00-5.49904E-03-6.19595E-02 1.05541E-14-1.21860E-13
 -1      2980 1.98084E+01 2.85747E+00-5.55688E-03-2.16710E-01 3.36027E-15-1.26045E-13
 -1      2981 1.86511E+01-3.83786E+00 9.86716E-02 5.20635E+00 1.73889E-13-1.49686E-13
 -1      2982 1.26492E+01-2.55254E+00 1.51834E-01-6.07329E+00 2.75890E-14-9.83102E-14
 -1      2983 1.48988E+01-2.93234E+00 4.84149E-02-6.06357E+00-2.38212E-14-2.75988E-13
 -1      2984 1.24135E+01-1.50783E+00 9.89468E-02-5.23501E+00-4.85029E-14-9.99756E-14
 -1      2985 1.64522E+01-3.24186E+00 1.65221E-01-5.39109E+00 2.99066E-14-2.32064E-13
 -1      2986 2.82726E+01 2.43734E+00-1.22897E-01 1.90524E+00 1.66020E-13 2.06557E-13
 -1      2987 2.70797E+01 3.31182E+00-8.83671E-02 2.02891E+00 1.10079E-13 2.57953E-13
 -1      2988 2.75530E+01 8.27788E-01-8.19860E-02 1.64012E+00-1.38778E-15 2.49460E-13
 -1      2989 1.99947E+01 1.41327E-01-2.35579E-03-7.78749E-02 2.72627E-14-5.69437E-14
 -1      2990 2.79422E+01-2.08083E+00-2.42214E-02-1.58339E-01 1.19176E-14 2.05114E-14
 -1      2991 3.11371E+01 3.11487E+00-2.53202E-01-2.62746E+00 1.48104E-13-8.55288E-14
 -1      2992 3.13886E+01 5.29450E+00-1.10347E-01-1.61761E+00-2.35922E-14 1.21986E-13
 -1      2993 1.23927E+01-1.84576E+00 1.65772E-01 4.72441E+00 1.30132E-13-1.11605E-13
 -1      2994 2.73259E+01 5.75142E+00-1.15809E-01 1.10085E+00 9.00113E-14 2.15855E-13
 -1      2995 2.00644E+01 2.97473E-01-1.83104E-04-4.95516E-01 1.75202E-13 5.62718E-13
 -1      2996 2.52995E+01-4.57124E+00 1.88374E-02-3.24187E+00 1.88509E-13 2.54741E-13
 -1      2997 2.55175E+01-4.48827E+00 2.54050E-02 3.10542E+00-2.26930E-13 6.11108E-14
 -1      2998 2.44325E+01-4.56800E+00 2.43507E-02 3.34647E+00-2.15487E-13 4.49883E-14
 -1      2999 2.62573E+01-3.91473E+00-9.69206E-02 1.78606E+00-1.97552E-13 1.13395E-13
 -1      3000 8.28339E+00-4.13389E-01 1.75665E-01-2.90308E+00 4.76980E-14 7.28584E-14
 -1      3001 1.03852E+01-3.21862E-01 1.01515E-01-3.57183E+00-8.17783E-14 1.37224E-13
 -1      3002 8.89740E+00 3.15772E-01 1.25158E-01-1.55790E+00 1.62405E-14 1.49353E-13
 -1      3003 2.73416E+01 6.16685E+00-1.22424E-01-6.25137E-01 5.43454E-14 1.76928E-13
 -1      3004 2.04363E+01-4.49744E+00 9.29243E-02 5.50342E+00-1.36474E-13 1.56212E-14
 -1      3005 3.13742E+01 5.71693E+00-1.86550E-01-1.28080E-01-1.32172E-13 1.63196E-13
 -1      3006 2.02896E+01 1.58810E+00-1.20646E-03 1.16705E+00 8.23048E-14-8.32659E-14
 -1      3007 2.01259E+01-3.19897E+00-2.48087E-02 4.40075E+00 8.02622E-14-2.08063E-13
 -1      3008 8.01405E+00-3.42435E-02 1.81295E-01-5.36866E-01 1.42723E-13-4.04787E-13
 -1      3009 2.85158E+01 3.74981E+00-1.51191E-01-1.84102E+00-8.16708E-14 1.43302E-13
 -1      3010 2.79385E+01 2.37197E+00-1.11465E-01-1.83886E+00-1.13645E-13 5.07649E-14
 -1      3011 2.71642E+01 4.42921E+00-1.01991E-01-1.85393E+00-1.82701E-13 3.69371E-13
 -1      3012 9.37286E+00-6.26099E-01 1.66675E-01 3.64516E+00 1.35530E-13-1.62398E-13
 -1      3013 2.02794E+01 1.36739E+00 2.09513E-03 9.20559E-01 7.05265E-14-9.55737E-14
 -1      3014 3.19609E+01 1.26986E+00-1.03142E-01 2.83736E+00 1.94761E-13-6.25333E-14
 -1      3015 1.97700E+01 7.10628E-01-3.88250E-03 4.62681E-01 3.46559E-13-1.07615E-13
 -1      3016 1.98374E+01 6.56626E-01 1.30153E-03 5.18247E-01 1.91160E-13 9.23469E-16
 -1      3017 1.98404E+01 6.48326E-01 3.16875E-03 5.95065E-01 3.99172E-13-7.30762E-14
 -1      3018 1.96826E+01 7.61186E-01 3.30560E-03 4.59597E-01 3.58976E-13-8.36706E-14
 -1      3019 1.98237E+01 2.82190E+00-5.69188E-03-3.51970E-01-3.88276E-15-1.05267E-13
 -1      3020 1.98474E+01 2.77350E+00-6.17811E-03-5.05604E-01-2.96974E-14-9.69322E-14
 -1      3021 1.99998E+01 2.39858E+00 4.26636E-03-5.07954E-01-2.79299E-14-8.41608E-14
 -1      3022 1.99544E+01 2.50731E+00 3.63546E-03-2.55836E-01-3.44473E-15-1.07030E-13
 -1      3023 1.96676E+01-4.85723E+00 6.90450E-02-6.15817E+00 1.75970E-13-5.46126E-14
 -1      3024 2.15969E+01-4.74295E+00 2.08008E-02-5.03614E+00 2.27818E-13 2.86515E-13
 -1      3025 1.81203E+01-4.06644E+00 9.58353E-02-6.18545E+00 1.94386E-13-2.21698E-13
 -1      3026 1.05487E+01-1.39673E+00 1.70269E-01-4.11615E+00 1.55695E-13-1.93456E-13
 -1      3027 2.81782E+01-1.83606E-01-1.13074E-01-1.25522E+00 9.82547E-15-3.25712E-14
 -1      3028 2.88234E+01-1.13254E+00-5.38861E-02-2.08651E-01 4.25285E-14-5.37070E-14
 -1      3029 2.76387E+01-2.36130E+00-1.45542E-02 3.37882E-01-4.97866E-14 1.49186E-14
 -1      3030 2.01458E+01 2.17342E+00 4.52408E-04-1.20801E+00-8.87861E-14-7.20778E-14
 -1      3031 1.43801E+01-2.74274E+00 1.55519E-01 6.07755E+00-1.23512E-14 3.21410E-14
 -1      3032 1.73484E+01-2.19297E+00 1.32386E-01 4.78063E+00 4.59008E-14-8.54941E-14
 -1      3033 2.02421E+01 1.48317E+00-6.08866E-03 8.03850E-01 6.97065E-14-1.25193E-13
 -1      3034 2.02047E+01 1.67125E+00-3.85919E-04 7.47417E-01 7.59809E-14-1.16020E-13
 -1      3035 3.13096E+01 5.07223E+00-1.99238E-01 1.42533E+00-1.54321E-14 7.20951E-14
 -1      3036 2.02909E+01 1.06521E+00 8.65472E-04-5.93666E-01-6.42714E-14-4.90730E-14
 -1      3037 2.02577E+01 8.45044E-01-5.03772E-03-4.16878E-01-5.82018E-14-2.89066E-14
 -1      3038 2.02687E+01 6.63374E-01 3.75085E-03-2.91890E-01-3.49465E-14-1.21523E-14
 -1      3039 2.02298E+01 5.12954E-01-3.16361E-03-1.71788E-01-2.65966E-14-1.28741E-15
 -1      3040 2.02925E+01 8.81646E-01 1.12595E-03-3.66876E-01-3.59761E-14-4.04350E-14
 -1      3041 2.02225E+01 3.94062E-01 3.50217E-03-8.31250E-02-1.85254E-14 1.93488E-14
 -1      3042 2.01873E+01 2.95293E-01-1.90465E-03-4.76592E-03-9.16720E-15 3.50282E-14
 -1      3043 2.02770E+01 5.39631E-01-3.42293E-04-1.47753E-01-1.74153E-14-4.89496E-15
 -1      3044 2.01724E+01 2.18430E-01 2.67652E-03 5.28664E-02-6.94166E-15 5.48093E-14
 -1      3045 2.01457E+01 1.55171E-01-9.58192E-04 1.00864E-01-9.20573E-15 6.39850E-14
 -1      3046 2.02427E+01 3.11537E-01-8.33537E-04 3.74216E-03-1.24980E-14 3.86979E-14
 -1      3047 2.01285E+01 1.07011E-01 1.83409E-03 1.35477E-01-2.33398E-14 5.88919E-14
 -1      3048 2.01103E+01 6.84879E-02-2.93384E-04 1.62797E-01-2.77821E-14 4.78141E-14
 -1      3049 2.02031E+01 1.63398E-01-9.65877E-04 1.00788E-01-1.74736E-14 4.03674E-14
 -1      3050 2.00935E+01 4.02766E-02 1.12487E-03 1.81798E-01-1.41829E-14 5.23752E-14
 -1      3051 2.00825E+01 1.91913E-02 1.59553E-04 1.96022E-01-6.87864E-15 4.02532E-14
 -1      3052 2.01649E+01 7.18777E-02-9.29571E-04 1.58590E-01-3.17362E-14 3.71185E-14
 -1      3053 2.00672E+01 5.07812E-03 5.67908E-04 2.05422E-01-4.39933E-14 2.65309E-14
 -1      3054 2.00620E+01-3.55187E-03 4.67244E-04 2.12288E-01-5.32253E-14-1.92571E-14
 -1      3055 2.01310E+01 2.06708E-02-8.16399E-04 1.90510E-01-3.54719E-14-6.89328E-15
 -1      3056 2.00484E+01-7.56719E-03 1.45423E-04 2.16785E-01-5.62241E-14-1.80935E-14
 -1      3057 2.00476E+01-7.22109E-03 6.82197E-04 2.20575E-01-9.50354E-14-8.31522E-15
 -1      3058 2.01021E+01-1.57294E-03-6.80821E-04 2.07307E-01-7.04899E-14 3.55919E-15
 -1      3059 2.00357E+01-3.95533E-03-1.69737E-04 2.23757E-01-8.42516E-14 3.51488E-14
 -1      3060 2.00383E+01 2.86913E-03 8.41278E-04 2.27642E-01-5.24939E-14 3.99975E-14
 -1      3061 2.00779E+01-2.87625E-03-5.48954E-04 2.17375E-01-4.87890E-14 3.81640E-14
 -1      3062 2.00279E+01 1.13499E-02-4.02674E-04 2.32224E-01-5.70580E-14 4.43446E-15
 -1      3063 2.00333E+01 2.27599E-02 9.68826E-04 2.38529E-01-7.94659E-14-4.80347E-15
 -1      3064 2.00577E+01 1.09552E-02-4.33531E-04 2.27130E-01-9.29787E-14 4.48745E-14
 -1      3065 2.00242E+01 3.48131E-02-5.70745E-04 2.46545E-01-9.11813E-14 2.17597E-14
 -1      3066 2.00321E+01 4.92088E-02 1.07936E-03 2.56926E-01-1.01836E-13 5.72925E-14
 -1      3067 2.00407E+01 3.55053E-02-3.42178E-04 2.41429E-01-8.22929E-14 6.00159E-14
 -1      3068 2.00241E+01 6.33301E-02-6.80713E-04 2.69871E-01-9.82020E-14 8.41907E-14
 -1      3069 2.00348E+01 7.91112E-02 1.17908E-03 2.85397E-01-8.28800E-14 5.56589E-14
 -1      3070 2.00266E+01 6.70478E-02-2.83876E-04 2.63905E-01-7.45131E-14 1.29850E-13
 -1      3071 2.00282E+01 9.36533E-02-7.26421E-04 3.04287E-01-9.08938E-14 8.10346E-14
 -1      3072 2.00419E+01 1.08917E-01 1.26665E-03 3.25434E-01-3.10479E-14 2.66862E-14
 -1      3073 2.00151E+01 1.01890E-01-2.72658E-04 2.97175E-01-1.02664E-13 1.23679E-13
 -1      3074 2.00375E+01 1.21796E-01-6.86543E-04 3.50788E-01-1.86640E-14-1.10290E-13
 -1      3075 2.00553E+01 1.34020E-01 1.33314E-03 3.77336E-01-9.70288E-14-1.31107E-13
 -1      3076 2.00072E+01 1.35701E-01-3.31176E-04 3.42899E-01-1.17965E-13-2.79805E-14
 -1      3077 2.00547E+01 1.42414E-01-5.21955E-04 4.09063E-01-9.48616E-14-9.51887E-14
 -1      3078 2.00781E+01 1.48139E-01 1.36081E-03 4.39895E-01-7.92206E-14-1.02806E-13
 -1      3079 2.00047E+01 1.62805E-01-4.94906E-04 4.01669E-01-9.01472E-14-2.11296E-13
 -1      3080 2.00841E+01 1.48202E-01-1.73205E-04 4.77072E-01-6.85782E-14-6.58743E-14
 -1      3081 2.01155E+01 1.42762E-01 1.32015E-03 5.09865E-01-1.22986E-13-9.85264E-14
 -1      3082 2.00116E+01 1.75484E-01-8.15396E-04 4.72710E-01-6.93129E-14-1.44484E-13
 -1      3083 2.01328E+01 1.29441E-01 4.40180E-04 5.50372E-01-8.26545E-14-3.90903E-14
 -1      3084 2.01755E+01 1.06865E-01 1.16347E-03 5.81192E-01 3.27973E-14 7.71055E-15
 -1      3085 2.00345E+01 1.63371E-01-1.36170E-03 5.53345E-01-1.91425E-14 3.78454E-14
 -1      3086 2.02111E+01 7.39765E-02 1.41517E-03 6.21165E-01 1.23370E-13 3.38057E-14
 -1      3087 2.02695E+01 2.72784E-02 8.12918E-04 6.43976E-01 2.35734E-13 5.32514E-14
 -1      3088 2.00840E+01 1.13204E-01-2.21615E-03 6.38132E-01 1.06315E-13 1.81762E-13
 -1      3089 2.03329E+01-3.18726E-02 2.84818E-03 6.77012E-01 2.84146E-13-4.45793E-14
 -1      3090 2.04125E+01-1.09617E-01 1.46071E-04 6.83162E-01 1.71604E-13 7.09816E-15
 -1      3091 2.01752E+01 9.40405E-03-3.45632E-03 7.17573E-01 1.96326E-13 1.39257E-13
 -1      3092 2.05162E+01-2.00582E-01 4.79633E-03 6.99246E-01 9.27392E-14 7.10180E-14
 -1      3093 2.06222E+01-3.13752E-01-1.01612E-03 6.77114E-01 8.05195E-14 1.21709E-13
 -1      3094 2.03286E+01-1.63679E-01-5.10388E-03 7.76231E-01 2.06213E-13 6.35082E-15
 -1      3095 2.07796E+01-4.37595E-01 7.16440E-03 6.61376E-01 2.84060E-14 7.94921E-14
 -1      3096 2.09149E+01-5.83331E-01-2.91272E-03 5.96659E-01 3.50539E-14 7.78120E-14
 -1      3097 2.05691E+01-4.16419E-01-7.02405E-03 7.90223E-01 3.77601E-14 7.60416E-14
 -1      3098 2.11371E+01-7.30769E-01 9.50390E-03 5.28370E-01 3.84780E-14 5.68346E-14
 -1      3099 2.12977E+01-8.90837E-01-5.60955E-03 4.06072E-01 6.77367E-14 1.17099E-15
 -1      3100 2.09217E+01-7.43776E-01-8.80458E-03 7.24486E-01-1.25035E-14 1.02983E-14
 -1      3101 2.15837E+01-1.03344E+00 1.05522E-02 2.61078E-01 6.41362E-14-3.59431E-14
 -1      3102 2.17540E+01-1.16432E+00-8.49548E-03 7.17777E-02-5.69483E-15 1.29932E-14
 -1      3103 2.14006E+01-1.10582E+00-9.28647E-03 5.32126E-01-5.25057E-15-8.04621E-14
 -1      3104 2.20765E+01-1.24626E+00 8.57914E-03-1.67131E-01 2.23492E-14 4.11784E-14
 -1      3105 2.22261E+01-1.27414E+00-9.75589E-03-4.14461E-01 1.48326E-13 1.57197E-13
 -1      3106 2.19868E+01-1.40563E+00-7.00952E-03 1.65523E-01 7.00048E-14-3.99795E-14
 -1      3107 2.25197E+01-1.21445E+00 1.11193E-03-7.34780E-01 8.91523E-14 6.21064E-14
 -1      3108 2.26084E+01-1.04676E+00-6.49772E-03-9.95421E-01 4.26417E-15 4.31596E-14
 -1      3109 2.26019E+01-1.47287E+00-3.97279E-04-3.91749E-01 3.92892E-14 2.56234E-14
 -1      3110 2.27789E+01-7.61561E-01-1.03265E-02-1.32669E+00-1.24096E-13 1.60916E-14
 -1      3111 2.27737E+01-3.28341E-01 5.28891E-03-1.50662E+00-2.38260E-13-7.26233E-14
 -1      3112 2.30995E+01-1.10719E+00 6.37224E-03-1.07040E+00-1.21323E-13-1.46265E-13
 -1      3113 2.27265E+01 1.99165E-01-2.53546E-02-1.67321E+00-1.91266E-13-1.05457E-13
 -1      3114 2.26467E+01 8.16003E-01 1.54386E-02-1.64001E+00-1.70833E-13-1.16531E-13
 -1      3115 2.32936E+01-1.16377E-01 1.62956E-02-1.63638E+00-2.51605E-13-1.61033E-13
 -1      3116 2.24366E+01 1.42117E+00-3.10683E-02-1.47810E+00-1.01671E-13-2.25905E-13
 -1      3117 2.23382E+01 1.98107E+00 1.46133E-02-1.16837E+00-1.30389E-13-2.58471E-13
 -1      3118 2.31227E+01 1.28146E+00 7.33130E-03-1.69963E+00-2.08122E-13-2.77639E-13
 -1      3119 2.21502E+01 2.34634E+00-2.73044E-02-6.29967E-01-1.17829E-13-1.56064E-13
 -1      3120 2.20962E+01 2.50999E+00-2.11563E-02-1.51557E-01-1.27716E-13-3.29265E-14
 -1      3121 2.27951E+01 2.55018E+00 3.53300E-03-1.01148E+00-2.59463E-14-5.91502E-14
 -1      3122 2.21810E+01 2.44615E+00 7.04450E-03 5.25984E-01-8.72444E-14 1.53948E-14
 -1      3123 2.22199E+01 2.09152E+00-3.33010E-02 9.63993E-01 1.59870E-14 6.71865E-14
 -1      3124 2.26699E+01 2.96163E+00 5.72305E-03 2.33998E-01-5.24589E-14-3.14644E-14
 -1      3125 2.24525E+01 1.60946E+00 1.77689E-02 1.39114E+00 1.09851E-13 6.69204E-14
 -1      3126 2.25491E+01 9.86264E-01-3.27254E-02 1.59842E+00 7.26531E-14 1.95563E-13
 -1      3127 2.29005E+01 2.18032E+00 6.46426E-03 1.32016E+00 4.72968E-14-1.64599E-14
 -1      3128 2.27192E+01 3.74670E-01 9.80979E-03 1.63436E+00 6.03172E-14 1.80415E-13
 -1      3129 2.27803E+01-1.97777E-01-2.19167E-02 1.57443E+00 6.77019E-14 1.77974E-13
 -1      3130 2.32207E+01 7.65970E-01 1.12419E-02 1.73536E+00 6.38853E-14 1.32653E-13
 -1      3131 2.27473E+01-6.52946E-01-1.75251E-03 1.32662E+00-4.51866E-14 1.60149E-13
 -1      3132 2.27221E+01-9.87442E-01-4.93667E-03 1.10255E+00-1.48483E-13 1.33554E-13
 -1      3133 2.32769E+01-5.35199E-01 1.51170E-02 1.45105E+00 3.77107E-15 8.02977E-14
 -1      3134 2.24955E+01-1.19523E+00-9.13087E-03 7.58753E-01-2.13098E-13 1.84725E-13
 -1      3135 2.23870E+01-1.28317E+00 6.60703E-03 4.92727E-01-1.80447E-13 8.01687E-14
 -1      3136 2.29627E+01-1.30940E+00 6.52553E-03 8.02496E-01-2.33332E-13 1.13946E-14
 -1      3137 2.20685E+01-1.28761E+00-9.92067E-03 1.87973E-01-4.63183E-14 1.13234E-13
 -1      3138 2.19108E+01-1.21153E+00 1.14102E-02-4.21530E-02-3.29986E-14 1.07520E-13
 -1      3139 2.24049E+01-1.51585E+00-3.12242E-03 1.40284E-01-1.95537E-13 6.68270E-15
 -1      3140 2.15940E+01-1.10127E+00-7.21471E-03-2.55283E-01-3.17937E-14 1.04694E-13
 -1      3141 2.14252E+01-9.52348E-01 1.12207E-02-4.20509E-01 5.41969E-14 1.47991E-13
 -1      3142 2.17871E+01-1.34442E+00-8.64385E-03-3.60826E-01-8.44231E-14 2.02180E-13
 -1      3143 2.11613E+01-8.02234E-01-3.98419E-03-5.42985E-01 2.69682E-13 1.88376E-13
 -1      3144 2.10079E+01-6.43049E-01 8.97516E-03-6.43513E-01 1.90328E-13 3.82083E-13
 -1      3145 2.12365E+01-1.00576E+00-9.99715E-03-6.68479E-01 1.16039E-13 3.76304E-13
 -1      3146 2.08118E+01-4.98598E-01-1.49426E-03-6.96596E-01 1.07828E-14 3.75949E-13
 -1      3147 2.06855E+01-3.60859E-01 6.33549E-03-7.44663E-01 2.34839E-13 3.53764E-13
 -1      3148 2.08065E+01-6.44179E-01-8.76307E-03-8.16795E-01 1.48048E-13 3.63727E-13
 -1      3149 2.05515E+01-2.42167E-01 1.51016E-05-7.51090E-01 2.58065E-13 3.34261E-13
 -1      3150 2.04538E+01-1.36114E-01 4.04441E-03-7.60932E-01 1.93364E-13 3.21920E-13
 -1      3151 2.05004E+01-3.32041E-01-6.68868E-03-8.54742E-01 1.92339E-13 4.45932E-13
 -1      3152 2.03685E+01-4.72851E-02 7.69581E-04-7.38610E-01 3.66204E-13 3.22114E-13
 -1      3153 2.02954E+01 2.87367E-02 2.29571E-03-7.22436E-01 5.40210E-13 5.21162E-13
 -1      3154 2.02979E+01-9.19236E-02-4.64743E-03-8.23540E-01 3.49897E-13 5.12670E-13
 -1      3155 2.02445E+01 9.20740E-02 9.92354E-04-6.83722E-01 5.37802E-13 4.80020E-13
 -1      3156 2.01901E+01 1.45631E-01 1.14456E-03-6.50667E-01 4.29197E-13 4.93565E-13
 -1      3157 2.01722E+01 7.97478E-02-3.28961E-03-7.52635E-01 5.30025E-13 5.12748E-13
 -1      3158 2.00024E+01-8.23030E-03 6.42427E-04-2.21947E-01 3.11621E-14-1.17022E-13
 -1      3159 1.99974E+01-7.20259E-03 2.46871E-04-2.18734E-01 8.33154E-14-1.37186E-13
 -1      3160 2.69572E+01-3.00599E+00 1.22807E-02-6.18565E-01-3.78864E-14 1.64244E-13
 -1      3161 2.73083E+01-1.47809E+00-1.04200E-01 7.23969E-01-7.29694E-14 1.92707E-13
 -1      3162 2.00063E+01-2.14097E-03 4.17823E-04-2.13622E-01 8.11351E-14-1.38248E-13
 -1      3163 2.00067E+01 7.78140E-03 7.73807E-04-2.06535E-01 3.78527E-14-1.00299E-13
 -1      3164 2.00596E+01-5.94964E-04-7.97359E-04-2.13338E-01 7.41870E-14-1.73626E-13
 -1      3165 2.00124E+01 1.95329E-02 1.00477E-03-2.38052E-01-5.78724E-14 3.28248E-14
 -1      3166 2.00001E+01 7.94916E-03-4.54112E-04-2.32260E-01 1.12686E-14-8.07015E-15
 -1      3167 2.00232E+01 4.95288E-02 1.18924E-03-2.57039E-01 9.05126E-15 8.30631E-14
 -1      3168 2.00083E+01 3.27040E-02-7.20786E-04-2.46046E-01-2.44862E-14 6.21718E-14
 -1      3169 2.00290E+01 3.33055E-02-2.81686E-04-2.46180E-01-5.81260E-14-4.13485E-14
 -1      3170 2.00363E+01 8.97196E-02 1.39327E-03-2.89424E-01-3.38517E-15 6.62666E-14
 -1      3171 2.00189E+01 6.75939E-02-9.86006E-04-2.71020E-01 5.81545E-14 9.99264E-14
 -1      3172 2.00240E+01 7.13536E-02-1.12994E-04-2.69178E-01 9.49330E-15 1.28874E-14
 -1      3173 2.00499E+01 1.40911E-01 1.62237E-03-3.39361E-01 5.96463E-14 4.71711E-14
 -1      3174 2.00303E+01 1.12959E-01-1.28753E-03-3.11398E-01-3.60687E-15 5.18579E-14
 -1      3175 2.00182E+01 1.21665E-01 9.57641E-05-3.05890E-01 2.80754E-14 1.47344E-14
 -1      3176 2.00619E+01 2.04683E-01 1.87484E-03-4.10998E-01 1.29896E-14 2.17462E-13
 -1      3177 2.00406E+01 1.70003E-01-1.66303E-03-3.71259E-01 4.58030E-14 1.26270E-13
 -1      3178 2.00086E+01 1.85264E-01 3.81874E-04-3.60174E-01-2.03206E-14 6.10599E-14
 -1      3179 2.00686E+01 2.83143E-01 2.14205E-03-5.08616E-01 3.25183E-14 1.86126E-13
 -1      3180 2.00465E+01 2.40601E-01-2.15152E-03-4.54760E-01 3.57174E-14 2.07665E-13
 -1      3181 1.99909E+01 2.63993E-01 7.94981E-04-4.35707E-01 1.30521E-15 1.74498E-13
 -1      3182 2.00648E+01 3.78439E-01 2.41035E-03-6.36656E-01-3.96124E-14 1.67263E-13
 -1      3183 2.00434E+01 3.26958E-01-2.79346E-03-5.66229E-01 2.99695E-14 2.26791E-13
 -1      3184 1.99593E+01 3.60154E-01 1.39712E-03-5.36056E-01 1.83918E-14 2.07730E-13
 -1      3185 2.00428E+01 4.91737E-01 2.67000E-03-7.99592E-01-1.15091E-13 1.61267E-13
 -1      3186 2.00247E+01 4.30901E-01-3.62786E-03-7.10154E-01-8.08601E-14 1.75802E-13
 -1      3187 1.99051E+01 4.75841E-01 2.25973E-03-6.64680E-01-4.57029E-14 2.19878E-13
 -1      3188 1.99922E+01 6.21170E-01 2.94024E-03-1.00170E+00-1.28104E-13 1.29254E-13
 -1      3189 1.99808E+01 5.52416E-01-4.68577E-03-8.91079E-01-1.03959E-13 1.43238E-13
 -1      3190 1.98168E+01 6.11607E-01 3.45026E-03-8.24896E-01-6.50648E-14 2.02914E-13
 -1      3191 1.99007E+01 7.57924E-01 3.32945E-03-1.24684E+00-6.01983E-14 1.84622E-13
 -1      3192 1.98997E+01 6.86783E-01-5.97819E-03-1.11350E+00-9.03923E-14 1.68779E-13
 -1      3193 1.96791E+01 7.63924E-01 4.99802E-03-1.02005E+00-9.81920E-14 1.82058E-13
 -1      3194 1.97580E+01 8.79248E-01 4.16202E-03-1.53869E+00-2.15615E-15 1.82544E-13
 -1      3195 1.97684E+01 8.19278E-01-7.46905E-03-1.38208E+00-1.72960E-14 1.38595E-13
 -1      3196 1.94740E+01 9.20591E-01 6.82470E-03-1.25440E+00-4.83358E-14 1.97990E-13
 -1      3197 1.95639E+01 9.36845E-01 6.24770E-03-1.88218E+00-4.36425E-14 1.27855E-13
 -1      3198 1.95782E+01 9.16047E-01-8.98941E-03-1.70285E+00 1.56364E-14 1.45733E-13
 -1      3199 1.91831E+01 1.05290E+00 8.62961E-03-1.53564E+00-6.49741E-15 2.30707E-13
 -1      3200 1.93482E+01 8.39897E-01 1.17639E-02-2.28665E+00-5.31043E-14 1.23199E-13
 -1      3201 1.93366E+01 9.09796E-01-9.81392E-03-2.08635E+00-4.23089E-14 1.05893E-13
 -1      3202 1.87954E+01 1.10311E+00 9.82349E-03-1.88100E+00-1.22345E-14 2.59025E-13
 -1      3203 1.92016E+01 4.28592E-01 2.22829E-02-2.77056E+00-1.40284E-13-3.98605E-14
 -1      3204 1.90949E+01 6.79262E-01-7.16010E-03-2.55346E+00-4.80776E-14 7.63881E-14
 -1      3205 1.83219E+01 9.66610E-01 9.88095E-03-2.32859E+00-1.26976E-14 1.79954E-13
 -1      3206 1.93316E+01-5.37546E-01 3.85602E-02-3.35212E+00-1.13444E-13-1.61609E-13
 -1      3207 1.90058E+01 5.35234E-02 1.57616E-02-3.12448E+00-1.70073E-13-7.99621E-14
 -1      3208 1.78529E+01 4.60273E-01 1.55902E-02-2.95984E+00-1.03874E-13-1.99320E-15
 -1      3209 2.12370E+01-3.40743E+00 1.13621E-01-4.14890E+00-1.60840E-13-2.95586E-13
 -1      3210 1.86692E+01 1.11608E+00-1.27122E-02 1.73294E+00-2.21962E-13-4.07899E-13
 -1      3211 1.85237E+01 1.12266E+00 5.79384E-03 1.91157E+00-1.39060E-13-6.52873E-13
 -1      3212 2.00515E+01 2.16403E+00-4.32235E-03 2.92446E-01 3.56587E-14-1.34932E-13
 -1      3213 2.00386E+01 2.20315E+00-3.32386E-03 1.70782E-01 1.44241E-14-1.43003E-13
 -1      3214 3.12094E+01 1.50940E+00-4.34469E-02-3.38856E+00 3.35343E-13-1.00892E-13
 -1      3215 2.00771E+01 1.59574E-01-9.71134E-04-8.37104E-02 2.58614E-14-6.41016E-14
 -1      3216 2.01073E+01 2.22918E-01 3.19337E-03-2.78350E-02 4.02275E-14-6.22255E-14
 -1      3217 1.48618E+01-1.58611E+00 2.36531E-02 4.70964E+00 1.81438E-13-1.21139E-13
 -1      3218 1.24638E+01-4.51930E-01 1.52057E-01 3.74913E+00 2.22832E-13-2.37171E-13
 -1      3219 1.71049E+01-1.06068E+00 7.85078E-02 4.06550E+00 1.15928E-13-2.04021E-13
 -1      3220 1.81161E+01 1.06756E+00-1.56327E-02 2.11143E+00 1.81945E-14-6.91929E-13
 -1      3221 1.79814E+01 9.64115E-01 1.61632E-02 2.33874E+00-4.05133E-14-7.06414E-13
 -1      3222 1.76863E+01 1.28943E+00 1.84516E-02 1.76866E+00-2.21958E-14-2.92920E-13
 -1      3223 1.74685E+01 7.48094E-01-1.33035E-02 2.64769E+00-1.44175E-13-5.01743E-13
 -1      3224 1.74590E+01 4.24984E-01 3.87291E-02 2.94574E+00-5.38623E-14-3.61295E-13
 -1      3225 1.68013E+01 1.11979E+00 2.50523E-02 2.21846E+00-2.04806E-14-3.24910E-13
 -1      3226 1.91011E+01 1.03240E+00-9.72234E-03 1.43780E+00-1.09835E-13-5.10296E-13
 -1      3227 1.89811E+01 1.08927E+00 2.30088E-03 1.58632E+00-2.14231E-13-5.12788E-13
 -1      3228 1.83697E+01 1.25594E+00 1.39021E-02 1.46465E+00-1.89689E-13-3.92462E-13
 -1      3229 1.94203E+01 9.00017E-01-7.33199E-03 1.19254E+00-1.09452E-13-2.44466E-13
 -1      3230 1.93334E+01 9.71995E-01 1.19439E-03 1.32011E+00-2.12073E-14-4.58847E-13
 -1      3231 1.88846E+01 1.12953E+00 1.05483E-02 1.23261E+00-1.58187E-13-4.72093E-13
 -1      3232 1.96459E+01 7.65817E-01-5.70499E-03 9.81900E-01-2.14973E-13-4.75043E-14
 -1      3233 1.95892E+01 8.33206E-01 7.79330E-04 1.09245E+00-1.92462E-13-4.84877E-14
 -1      3234 1.92630E+01 9.76026E-01 8.05570E-03 1.03766E+00-2.58894E-13-2.47741E-13
 -1      3235 1.98085E+01 6.60417E-01-6.03179E-04 7.98324E-01 1.17211E-13-8.22346E-14
 -1      3236 1.97675E+01 7.07318E-01 6.80149E-04 8.93709E-01-8.31375E-14-7.38745E-14
 -1      3237 1.95329E+01 8.31754E-01 5.52036E-03 8.65081E-01-6.93180E-14-2.74208E-13
 -1      3238 1.95332E+01 7.37029E-01 1.57274E-03-2.69862E-01 8.14380E-14-2.65788E-13
 -1      3239 1.94852E+01 7.70707E-01-3.41229E-03-1.69496E-01 2.19831E-13-5.35352E-14
 -1      3240 1.99607E+01 3.65607E-01 2.71756E-03-5.80663E-01 3.15561E-13 2.24068E-13
 -1      3241 1.98835E+01 4.20057E-01-2.43823E-03-5.68304E-01 2.72770E-13-2.30636E-13
 -1      3242 1.96587E+01 6.22995E-01 2.54597E-03-4.38183E-01-1.57280E-13-5.27280E-13
 -1      3243 1.95901E+01 6.69052E-01-3.63294E-03-3.65626E-01-4.22195E-14-3.08112E-13
 -1      3244 1.94842E+01 6.98199E-01 1.15524E-03-3.66018E-01-1.26485E-14-3.80466E-13
 -1      3245 2.40766E+01-4.55456E+00 3.18382E-02-3.41893E+00 2.97880E-13 4.22532E-13
 -1      3246 2.57178E+01-4.13905E+00-8.63959E-02-2.05116E+00 1.64715E-13 2.72199E-13
 -1      3247 9.80895E+00-1.18483E-01 7.02916E-02 2.62060E+00 1.56195E-13-1.08857E-13
 -1      3248 8.90533E+00 3.67841E-01 1.23354E-01 6.41941E-01 3.96298E-14 6.20337E-14
 -1      3249 1.68641E+01-2.17758E-01 3.61465E-02 3.58797E+00 1.44856E-13-3.94382E-13
 -1      3250 1.98089E+01 4.93668E-01 3.10342E-03-5.43020E-01 7.37326E-14-5.00312E-13
 -1      3251 1.97306E+01 5.46634E-01-3.18275E-03-5.00101E-01-8.65723E-14-5.26307E-13
 -1      3252 1.96420E+01 5.62259E-01-2.49504E-04-5.25543E-01-1.34629E-13-3.61185E-13
 -1      3253 1.98226E+01 4.23752E-01-5.07950E-04-6.11741E-01 2.05033E-13-2.16007E-13
 -1      3254 2.00050E+01-1.34309E-04 8.28621E-04-2.28040E-01 3.89715E-14-3.90622E-14
 -1      3255 1.99959E+01-5.98958E-03-1.46204E-04-2.24999E-01 4.70176E-15-8.45218E-14
 -1      3256 2.00450E+01-4.70146E-03-6.06871E-04-2.23711E-01 2.26550E-15-1.00333E-13
 -1      3257 2.00353E+01 7.53224E-03-4.39694E-04-2.32661E-01-4.40098E-14 3.04350E-14
 -1      3258 2.00185E+01 2.25412E-02 1.12142E-04-1.95216E-01 1.44071E-14-7.47082E-14
 -1      3259 2.00264E+01 4.45477E-02 1.48732E-03-1.79375E-01 8.55929E-15-6.41662E-14
 -1      3260 2.00808E+01 2.46393E-02-1.01503E-03-1.93945E-01 4.87207E-14-1.52894E-13
 -1      3261 3.09027E+01-7.71107E-01-1.59621E-03-2.61313E+00 2.12497E-13-1.70142E-14
 -1      3262 2.00414E+01 7.27554E-02-3.36877E-04-1.56452E-01-1.69006E-14-3.74503E-14
 -1      3263 2.00595E+01 1.11746E-01 2.43571E-03-1.25248E-01 1.09315E-15-6.77767E-14
 -1      3264 2.01480E+01 1.72534E-01-1.43397E-03-8.60926E-02 9.33566E-16-9.31235E-14
 -1      3265 2.01101E+01 7.85089E-02-1.24109E-03-1.55715E-01 5.24935E-15-1.15090E-13
 -1      3266 2.61341E+01 4.86733E+00-1.02608E-01 1.42273E+00 1.72057E-13 2.18735E-13
 -1      3267 2.60324E+01 5.65327E+00-1.51524E-01 6.19774E-01 1.42386E-13 2.03969E-13
 -1      3268 2.18680E+01-4.52804E+00-2.79776E-02 4.62344E+00-1.77733E-13-4.32016E-14
 -1      3269 1.93053E+01-3.81587E+00 1.23985E-01 5.49472E+00-1.20091E-13-5.79710E-14
 -1      3270 2.02911E+01 9.89445E-01-7.26775E-04 6.90497E-01 7.18594E-14-1.00476E-13
 -1      3271 2.02684E+01 1.30862E+00 3.04167E-03 7.71494E-01 7.20215E-14-1.15611E-13
 -1      3272 2.02720E+01 1.12924E+00-3.83135E-05 5.92336E-01 7.56161E-14-1.25657E-13
 -1      3273 2.02324E+01 7.76984E-01-3.68644E-03 4.84500E-01 7.07766E-14-1.03653E-13
 -1      3274 1.61074E+01-2.98314E+00-3.93415E-02 5.87258E+00-1.10745E-14 2.30996E-14
 -1      3275 1.35620E+01-1.67046E+00 1.39109E-01 5.37797E+00 4.91968E-14-6.58223E-14
 -1      3276 1.11005E+01-7.35967E-01 5.39674E-02 4.43909E+00 1.46320E-13-1.29757E-13
 -1      3277 9.68544E+00 2.20648E-01 1.18731E-01 2.49685E+00 1.64518E-13-2.46872E-13
 -1      3278 2.02003E+01 1.89238E+00 1.83025E-03-1.00762E+00-7.68818E-14-7.41911E-14
 -1      3279 3.13293E+01 3.86243E+00-1.32813E-01 2.77471E+00 9.10105E-14 5.14588E-14
 -1      3280 1.86408E+01-3.07464E+00-3.45544E-02-4.83204E+00-7.84234E-14-2.63407E-13
 -1      3281 2.04719E+01-2.47538E+00 6.89967E-02-3.95298E+00-1.72154E-13-2.30116E-13
 -1      3282 1.96771E+01-1.45019E+00 6.14661E-02-3.79723E+00-1.01903E-13-1.91489E-13
 -1      3283 1.58320E+01-2.05633E+00 1.59270E-01-4.91769E+00 7.20257E-15-1.33039E-13
 -1      3284 2.60851E+01 5.89021E+00-1.16755E-01-1.42571E-01 1.32297E-13 1.79449E-13
 -1      3285 2.61301E+01 5.33904E+00-1.24805E-01-1.07340E+00 1.52239E-14 2.31034E-13
 -1      3286 2.51149E+01 5.05595E+00-6.39214E-02 2.19685E-01 1.07206E-13 2.14247E-13
 -1      3287 8.94313E+00 5.22891E-01 1.00046E-01 2.67168E-01 1.44345E-13-4.27589E-13
 -1      3288 9.23205E+00 2.05038E-01 1.17809E-01-1.72361E+00 1.36152E-13-4.01512E-13
 -1      3289 2.00317E+01 2.22208E+00-3.65630E-03 6.58015E-02 1.09084E-14-1.40288E-13
 -1      3290 2.00312E+01 2.22285E+00-3.71516E-03-5.82296E-02 7.63826E-15-1.19544E-13
 -1      3291 2.01458E+01 1.92742E+00 5.07936E-03 1.01359E-01 1.44904E-14-1.32348E-13
 -1      3292 1.82998E+01-2.94262E+00 9.17313E-02 5.09064E+00-1.26885E-13-1.33990E-13
 -1      3293 1.77191E+01-9.36379E-01-3.41794E-02-3.92027E+00-1.04607E-13-1.12528E-13
 -1      3294 1.17547E+01-5.91141E-01 1.56053E-01-4.31516E+00-1.31783E-13 7.73825E-14
 -1      3295 1.33173E+01-1.09276E+00 6.02177E-02-4.65311E+00-1.88877E-13-1.45890E-13
 -1      3296 1.14146E+01 3.35793E-02 6.16205E-02-3.22965E+00-1.06519E-13 1.22027E-13
 -1      3297 1.34672E+01-8.05356E-01 1.10587E-01 4.40462E+00 1.26715E-13-1.52420E-13
 -1      3298 2.71481E+01-5.07163E-01-6.69648E-02 1.44376E+00-9.99825E-14 2.39718E-13
 -1      3299 2.64303E+01 5.82286E-01-6.64564E-02 1.88071E+00-3.86080E-14 2.89414E-13
 -1      3300 2.63779E+01-1.46412E+00-1.43236E-02 9.28482E-01-1.39846E-13 3.07726E-13
 -1      3301 1.13084E+01 4.53129E-01 1.49663E-01-2.09743E+00 4.64039E-14-1.73001E-13
 -1      3302 1.04100E+01-1.46515E-01 1.44621E-01-2.93854E+00 1.04788E-13-1.41692E-13
 -1      3303 2.15178E+01-4.11879E+00 3.59561E-02-4.42631E+00 2.23856E-13 3.13964E-13
 -1      3304 2.29687E+01-4.55145E+00 1.86189E-02-4.04073E+00 3.19737E-13 4.86326E-13
 -1      3305 2.37315E+01-4.04512E+00 1.86682E-02-2.77964E+00 2.45639E-13 5.55187E-13
 -1      3306 2.01621E+01 1.88942E-01 7.60259E-04-6.01911E-01 2.54665E-13 5.18584E-13
 -1      3307 2.01252E+01 2.28322E-01 1.06671E-03-5.58948E-01 2.41941E-13 5.38965E-13
 -1      3308 1.22277E+01-1.23098E+00 1.64184E-02-4.34744E+00 9.61523E-14-8.02830E-14
 -1      3309 2.01649E+01 4.61794E-01-2.63415E-03 2.00295E-01 5.91988E-14-1.06103E-13
 -1      3310 2.02210E+01 6.02236E-01 2.83187E-03 3.39942E-01 6.63035E-14-1.05174E-13
 -1      3311 2.02565E+01 7.60415E-01 1.49405E-03 4.02587E-01 6.84919E-14-1.10004E-13
 -1      3312 2.00704E+01 2.10869E+00-3.30786E-03 3.90554E-01 4.74194E-14-1.26024E-13
 -1      3313 2.01686E+01 1.85456E+00 6.39342E-03 2.91670E-01 4.99294E-14-1.21552E-13
 -1      3314 2.00957E+01 2.02625E+00-6.12559E-03 5.02340E-01 5.96600E-14-8.94229E-14
 -1      3315 1.56357E+01 3.72222E-01 4.42616E-02 3.12982E+00 8.37455E-14-1.43573E-13
 -1      3316 1.59940E+01-2.33525E+00 5.38828E-02-5.40211E+00-1.02085E-13-3.36120E-13
 -1      3317 1.69781E+01-3.26982E+00 1.04548E-01-5.90511E+00 5.75928E-16-3.59060E-13
 -1      3318 1.88684E+01-3.53820E+00 2.69348E-02-5.27762E+00 1.34111E-13-3.59334E-13
 -1      3319 2.60781E+01 3.75786E+00-1.32649E-01 1.81026E+00 1.59206E-13 2.25712E-13
 -1      3320 2.51158E+01 4.02423E+00-3.72845E-02 1.54166E+00 1.15713E-13 1.70627E-13
 -1      3321 2.59437E+01 2.52734E+00-5.94017E-02 1.99908E+00 7.19771E-14 2.37713E-13
 -1      3322 2.01249E+01 1.94277E+00-2.50707E-03-5.83834E-01-5.01988E-14-5.61048E-14
 -1      3323 2.01631E+01 1.81193E+00-6.27465E-03-6.82651E-01-6.46010E-14-6.78614E-14
 -1      3324 1.26262E+01 1.44129E-01 7.43788E-02 2.89045E+00 1.44017E-13-1.17198E-13
 -1      3325 1.93753E+01 8.08765E-01 2.76236E-03-1.39525E-01 1.02831E-13 6.67567E-14
 -1      3326 1.94532E+01 8.18822E-01-1.38597E-04-4.45342E-02 1.67161E-13 6.95322E-14
 -1      3327 1.94404E+01 8.33075E-01-2.45045E-03 7.31363E-02 1.73330E-13 9.29459E-14
 -1      3328 1.97992E+01 6.62686E-01 1.68747E-03 7.11590E-01 2.44906E-13-1.22153E-13
 -1      3329 2.58386E+01-3.42495E+00-5.21659E-03-1.00209E+00-1.71261E-14 3.12857E-13
 -1      3330 1.94529E+01 8.45212E-01-1.73277E-03 2.11808E-01 2.37739E-13 1.58877E-13
 -1      3331 1.94853E+01 8.34933E-01-5.35786E-04 3.25618E-01 1.27083E-13-9.93590E-14
 -1      3332 1.93443E+01 8.69080E-01 3.11450E-03 1.36125E-01 2.01906E-13 3.21473E-14
 -1      3333 2.00693E+01 2.11475E+00-2.84208E-03-3.83137E-01-6.88551E-15-7.21263E-14
 -1      3334 2.00927E+01 2.03652E+00-5.15827E-03-4.98356E-01-2.89394E-14-5.33050E-14
 -1      3335 2.02016E+01 1.70448E+00 4.00430E-03-4.50964E-01-4.52150E-14-4.00421E-14
 -1      3336 1.09123E+01 8.96571E-01 5.84683E-02 4.53879E-01-2.09245E-13 5.31936E-14
 -1      3337 9.74006E+00 6.85456E-01 1.44093E-01-4.26838E-01-7.37101E-14 1.53877E-13
 -1      3338 1.08753E+01 7.26579E-01 4.75968E-02-1.41178E+00-2.52192E-13 1.97349E-13
 -1      3339 2.68296E+01-3.12137E+00-1.81051E-02 7.77891E-01-1.09517E-13-5.29229E-14
 -1      3340 2.57941E+01-3.59073E+00-2.87389E-02 1.30644E+00-1.49715E-13 2.00950E-14
 -1      3341 2.66761E+01-2.24238E+00-9.01775E-02-3.25419E-01-1.34340E-13-1.99257E-13
 -1      3342 2.01147E+01 2.80405E-01-1.61937E-03 2.73980E-02 3.98855E-14-8.55015E-14
 -1      3343 2.01583E+01 3.74852E-01 3.46723E-03 1.18163E-01 5.04173E-14-9.09225E-14
 -1      3344 2.02134E+01 4.75685E-01-1.05909E-03 1.67347E-01 4.68771E-14-1.00092E-13
 -1      3345 2.01826E+01 3.02940E-01-1.89537E-03 1.87561E-02 2.72765E-14-7.21389E-14
 -1      3346 2.00998E+01 2.02594E-01-6.33174E-04-6.59446E-01 3.85437E-13 4.87838E-13
 -1      3347 2.60557E+01 4.58541E+00-1.45680E-01-1.48134E+00-1.69476E-13 2.05360E-13
 -1      3348 2.59359E+01 3.68594E+00-8.26551E-02-1.82047E+00-2.61319E-13 4.76043E-14
 -1      3349 2.50469E+01 4.56911E+00-6.07955E-02-1.16204E+00-3.98223E-14 4.45477E-15
 -1      3350 2.02592E+01 1.46561E+00 7.61860E-03 5.88344E-01 7.68738E-14-1.07450E-13
 -1      3351 2.01630E+01 1.80300E+00-7.23948E-03 6.85637E-01 7.03561E-14-1.11945E-13
 -1      3352 2.01293E+01 1.93256E+00-2.70639E-03 5.91085E-01 6.30409E-14-1.01576E-13
 -1      3353 2.41356E+01-4.19793E+00-2.92469E-02 2.71014E+00-2.80095E-13 2.37570E-14
 -1      3354 2.32478E+01-4.41254E+00 5.72115E-02 3.73813E+00-2.21240E-13-2.21559E-14
 -1      3355 2.19697E+01-4.01170E+00 1.09086E-02 3.95913E+00-1.96669E-13-1.21814E-13
 -1      3356 1.95424E+01 8.06037E-01-3.72513E-03 4.50558E-01 1.03526E-13-1.51396E-13
 -1      3357 1.96168E+01 7.65941E-01-1.09765E-03 5.33775E-01 1.43883E-13-2.65906E-14
 -1      3358 1.94107E+01 8.59760E-01 6.58909E-04 4.05689E-01 8.55028E-14-1.17325E-13
 -1      3359 2.00289E+01 3.08813E-01-1.43547E-03-5.70482E-01 2.79224E-13 5.97037E-13
 -1      3360 1.99918E+01 3.03798E-01-7.20759E-04-6.24165E-01 3.79490E-13 3.20483E-13
 -1      3361 2.02206E+01 1.54184E+00-2.64588E-03-7.86706E-01-7.03726E-14-6.82729E-14
 -1      3362 2.77514E+01 9.54638E-01-9.21157E-02-1.77455E+00-1.32200E-13-3.08642E-14
 -1      3363 2.71577E+01-3.48255E-01-5.35221E-02-1.36450E+00-1.49297E-13-1.91569E-13
 -1      3364 2.68092E+01 1.96214E+00-8.10321E-02-2.07864E+00-1.95718E-13 1.23929E-14
 -1      3365 1.15836E+01 6.60092E-01 6.93430E-02 2.14621E+00 1.70506E-13-2.51320E-13
 -1      3366 1.01029E+01 6.80162E-01 1.28083E-01 1.38171E+00 1.89110E-13-2.83065E-13
 -1      3367 1.08142E+01 9.38974E-01 3.44112E-02 2.15087E-01 1.68397E-13-3.14179E-13
 -1      3368 1.53194E+01-9.23716E-01 1.19724E-01-4.06114E+00-3.57839E-14-6.73558E-14
 -1      3369 2.01126E+01 2.43131E-01 1.28234E-03-5.28775E-01 1.79596E-13 5.33536E-13
 -1      3370 2.02247E+01 1.55803E+00 1.34771E-03-6.81707E-01-5.79265E-14-5.95481E-14
 -1      3371 1.17475E+01 9.99966E-01 1.08376E-01-1.30856E+00 1.72518E-14-1.72043E-13
 -1      3372 1.25602E+01 4.99936E-01-5.51630E-03-2.54237E+00-4.23168E-14 1.65840E-14
 -1      3373 2.03205E+01 6.83770E-01 1.58350E-03-1.98955E-01-1.59473E-15-3.56410E-14
 -1      3374 2.03040E+01 5.33960E-01-2.31952E-03-1.04754E-01-1.55360E-14-1.58198E-14
 -1      3375 2.03044E+01 4.10413E-01 2.09815E-03-4.06465E-02-1.10406E-14 3.04607E-15
 -1      3376 2.02813E+01 3.08219E-01-1.70177E-03 2.21851E-02 3.38480E-15 1.41662E-14
 -1      3377 2.03393E+01 5.38916E-01 3.91113E-04-8.18313E-02 1.23687E-14-3.38821E-14
 -1      3378 2.02707E+01 2.27137E-01 1.83214E-03 6.44969E-02-1.58209E-14-2.93778E-15
 -1      3379 2.02473E+01 1.60740E-01-1.02275E-03 1.03811E-01-3.28372E-14 4.65613E-15
 -1      3380 2.03198E+01 3.11046E-01-2.47767E-04 2.81260E-02-1.16190E-14-1.30298E-14
 -1      3381 2.02305E+01 1.10163E-01 1.33583E-03 1.29763E-01-4.86802E-14-1.70953E-15
 -1      3382 2.02098E+01 7.00719E-02-4.12599E-04 1.52836E-01-2.67697E-14-1.78338E-15
 -1      3383 2.02854E+01 1.62250E-01-4.07547E-04 9.96579E-02-3.63157E-14-4.64000E-14
 -1      3384 2.01899E+01 4.13496E-02 8.26141E-04 1.67512E-01-4.05443E-14-9.79484E-15
 -1      3385 2.01726E+01 2.05505E-02 2.84588E-05 1.80311E-01-6.41275E-14-4.54378E-14
 -1      3386 2.02445E+01 7.09975E-02-5.07263E-04 1.43147E-01-4.75731E-14-2.95903E-14
 -1      3387 2.01516E+01 7.74605E-03 3.93884E-04 1.88309E-01-6.67722E-14-8.57182E-15
 -1      3388 2.01375E+01 1.06915E-03 3.36145E-04 1.95571E-01-5.27917E-14 6.56696E-15
 -1      3389 2.02016E+01 2.25802E-02-5.07837E-04 1.68316E-01-5.39398E-14-7.43774E-14
 -1      3390 2.01164E+01-1.03630E-04 3.78331E-05 2.00602E-01-5.11165E-14 1.47293E-15
 -1      3391 2.01052E+01 3.57009E-03 5.51119E-04 2.05994E-01-7.97681E-14-3.04647E-14
 -1      3392 2.01592E+01 5.74414E-03-4.42858E-04 1.83394E-01-7.46074E-14-5.24709E-14
 -1      3393 2.00842E+01 1.08938E-02-2.54063E-04 2.10995E-01-8.69720E-14-1.67222E-14
 -1      3394 2.00754E+01 2.21126E-02 7.07494E-04 2.17317E-01-8.76721E-14-3.22162E-14
 -1      3395 2.01180E+01 1.21582E-02-3.42162E-04 1.95018E-01-7.82047E-14-7.01884E-14
 -1      3396 2.00545E+01 3.55419E-02-4.94425E-04 2.24601E-01-9.28195E-14-9.41054E-18
 -1      3397 2.00476E+01 5.20903E-02 8.32348E-04 2.33980E-01-1.09958E-13 1.05188E-15
 -1      3398 2.00782E+01 3.55752E-02-2.27464E-04 2.08455E-01-7.13877E-14-1.64259E-14
 -1      3399 2.00266E+01 6.96287E-02-6.91549E-04 2.45386E-01-9.54173E-14 2.07234E-14
 -1      3400 2.00213E+01 8.95338E-02 9.47107E-04 2.59409E-01-7.21144E-14 2.27595E-14
 -1      3401 2.00390E+01 7.10535E-02-1.16375E-04 2.27897E-01-7.42691E-14-1.21023E-14
 -1      3402 2.00001E+01 1.09237E-01-8.44668E-04 2.76425E-01-9.89204E-14 9.56410E-15
 -1      3403 1.99965E+01 1.30411E-01 1.06911E-03 2.96218E-01-9.35070E-14 2.90181E-14
 -1      3404 1.99998E+01 1.14206E-01-3.08175E-05 2.56736E-01-9.64146E-14-2.04111E-14
 -1      3405 1.99752E+01 1.50030E-01-9.41014E-04 3.20043E-01-1.59809E-13 3.53366E-14
 -1      3406 1.99741E+01 1.69894E-01 1.21330E-03 3.46273E-01-1.69578E-13-2.16242E-14
 -1      3407 1.99606E+01 1.60441E-01 1.77110E-06 2.97765E-01-1.12232E-13 2.92884E-14
 -1      3408 1.99535E+01 1.86503E-01-9.52509E-04 3.77823E-01-1.29646E-13-4.94454E-14
 -1      3409 1.99561E+01 2.01590E-01 1.39238E-03 4.10624E-01-1.14971E-13-1.01995E-13
 -1      3410 1.99220E+01 2.04143E-01-5.96468E-05 3.53278E-01-1.60910E-13 6.75884E-14
 -1      3411 1.99383E+01 2.11193E-01-8.30488E-04 4.50457E-01-2.95042E-14-7.18098E-14
 -1      3412 1.99472E+01 2.16747E-01 1.61527E-03 4.89255E-01-1.19488E-14-4.46123E-14
 -1      3413 1.98865E+01 2.37820E-01-2.74371E-04 4.25051E-01-6.47102E-14 8.83300E-14
 -1      3414 1.99358E+01 2.13924E-01-4.99331E-04 5.37384E-01 1.09346E-14-4.15032E-15
 -1      3415 1.99552E+01 2.03565E-01 1.88040E-03 5.80597E-01 8.83793E-14 1.30263E-13
 -1      3416 1.98592E+01 2.51223E-01-7.26147E-04 5.14139E-01 7.31603E-14 1.09954E-13
 -1      3417 1.99565E+01 1.81245E-01 1.51399E-04 6.36110E-01 1.07096E-13 1.07780E-13
 -1      3418 1.99925E+01 1.46830E-01 2.15956E-03 6.80672E-01 1.59212E-13 1.28862E-13
 -1      3419 1.98491E+01 2.30574E-01-1.52873E-03 6.20408E-01 1.17301E-13 7.75962E-14
 -1      3420 2.00162E+01 9.64010E-02 1.27511E-03 7.41053E-01 1.13554E-13 4.02659E-14
 -1      3421 2.00773E+01 2.83687E-02 2.36413E-03 7.81676E-01 1.41369E-13-5.04320E-14
 -1      3422 1.98709E+01 1.58170E-01-2.82730E-03 7.41589E-01 9.94919E-14-2.16892E-14
 -1      3423 2.01377E+01-5.94996E-02 3.07104E-03 8.41576E-01 1.81201E-13-7.34975E-14
 -1      3424 2.02348E+01-1.70812E-01 2.29886E-03 8.69644E-01 1.38234E-13-6.04101E-14
 -1      3425 1.99469E+01 1.28809E-02-4.78570E-03 8.71484E-01 8.93693E-14-6.58220E-14
 -1      3426 2.03511E+01-3.03944E-01 5.78281E-03 9.18796E-01 4.83390E-14-5.48888E-14
 -1      3427 2.04959E+01-4.65014E-01 1.63454E-03 9.20864E-01-1.91789E-14-4.42058E-14
 -1      3428 2.01084E+01-2.27413E-01-7.51787E-03 9.96710E-01 9.78275E-14-1.18598E-13
 -1      3429 2.06919E+01-6.45081E-01 9.52808E-03 9.41260E-01-2.64509E-14 1.77487E-14
 -1      3430 2.08930E+01-8.53162E-01-4.04496E-04 8.97632E-01-9.26559E-16-4.49287E-14
 -1      3431 2.03957E+01-5.78887E-01-1.09114E-02 1.09142E+00-2.13266E-14-2.22517E-14
 -1      3432 2.11943E+01-1.06707E+00 1.40844E-02 8.58167E-01-3.98808E-15-4.62866E-14
 -1      3433 2.14494E+01-1.29607E+00-4.35679E-03 7.42721E-01-2.68214E-14-2.78779E-14
 -1      3434 2.08565E+01-1.04056E+00-1.47798E-02 1.11012E+00-1.21523E-14 4.68375E-15
 -1      3435 2.18655E+01-1.49910E+00 1.72483E-02 5.98300E-01 5.09462E-14-2.48519E-14
 -1      3436 2.21486E+01-1.68140E+00-1.07161E-02 3.86743E-01 7.34054E-14-1.65507E-14
 -1      3437 2.15327E+01-1.55883E+00-1.70728E-02 9.70659E-01 4.40685E-15 8.09951E-14
 -1      3438 2.26513E+01-1.78233E+00 1.60136E-02 9.53588E-02-2.70148E-14 1.74526E-14
 -1      3439 2.29157E+01-1.79647E+00-1.41913E-02-2.14283E-01-1.29485E-14-4.71469E-14
 -1      3440 2.24145E+01-1.98624E+00-1.57181E-02 5.86084E-01 3.08690E-14-3.09366E-15
 -1      3441 2.33810E+01-1.64361E+00 2.79074E-03-6.45225E-01-4.72912E-14-1.48768E-13
 -1      3442 2.35444E+01-1.34853E+00-2.01281E-02-9.74825E-01-1.83171E-13-1.61518E-13
 -1      3443 2.33647E+01-2.03657E+00-1.68323E-02-1.49883E-01-1.10426E-13-1.52545E-13
 -1      3444 2.38954E+01-7.92791E-01-2.20310E-03-1.49036E+00-2.24661E-13-7.14131E-14
 -1      3445 2.38770E+01-3.47767E-02 7.30178E-03-1.68987E+00-2.81304E-13-8.45539E-14
 -1      3446 2.42226E+01-1.40399E+00-3.43999E-02-1.10371E+00-1.21098E-13-2.60945E-13
 -1      3447 2.38135E+01 8.54895E-01-5.22386E-02-1.89756E+00-3.24154E-13-4.20107E-14
 -1      3448 2.36815E+01 1.81502E+00 1.28291E-04-1.75266E+00-1.70419E-13-1.61881E-13
 -1      3449 2.45516E+01 3.02300E-01-4.44002E-03-1.84525E+00-2.14795E-13 1.18508E-13
 -1      3450 2.38233E+01 2.86869E+00-6.34799E-02-1.52430E+00-7.61335E-14-7.02199E-14
 -1      3451 2.36680E+01 3.57367E+00-2.97056E-02-9.67101E-01-4.48877E-14 1.93534E-14
 -1      3452 2.36673E+01 3.98884E+00-4.87741E-02 2.04646E-01 1.17545E-14-2.01957E-14
 -1      3453 2.37179E+01 3.67013E+00-8.38052E-02 8.80630E-01-5.03070E-16 2.21923E-14
 -1      3454 2.37864E+01 1.12317E+00-2.16159E-03 1.80407E+00-1.79301E-14 7.01514E-14
 -1      3455 2.38799E+01 1.97778E-01-4.48764E-02 1.81043E+00 1.21873E-14 5.36069E-14
 -1      3456 2.38334E+01-6.10076E-01-4.05241E-03 1.46815E+00 2.33390E-14 1.55709E-14
 -1      3457 2.37467E+01-1.22371E+00-1.62176E-02 1.17052E+00-1.14821E-13-5.72755E-14
 -1      3458 2.45302E+01-3.91564E-01 1.55775E-03 1.62152E+00-4.42667E-14 3.85091E-14
 -1      3459 2.33855E+01-1.59949E+00-1.15512E-02 6.89636E-01-2.00998E-13-6.35097E-14
 -1      3460 2.31690E+01-1.79444E+00 8.37169E-03 3.38007E-01-1.69254E-13 6.74851E-15
 -1      3461 2.39948E+01-1.68526E+00 7.75690E-03 7.23253E-01-1.13650E-13-1.77193E-13
 -1      3462 2.26678E+01-1.83291E+00-1.27773E-02-5.81135E-02-1.50570E-13 8.63954E-14
 -1      3463 2.23903E+01-1.74377E+00 1.79016E-02-3.40051E-01-1.00709E-13 1.02014E-13
 -1      3464 2.30721E+01-2.10948E+00-9.89816E-03-1.86419E-01-1.11091E-13 1.41803E-13
 -1      3465 2.19146E+01-1.59336E+00-7.82159E-03-5.78874E-01-3.37996E-14 1.49645E-13
 -1      3466 2.16372E+01-1.38303E+00 1.64926E-02-7.58548E-01-6.04076E-14 3.26300E-13
 -1      3467 2.21132E+01-1.89094E+00-1.58142E-02-7.92977E-01-2.12686E-14 3.07522E-13
 -1      3468 2.12648E+01-1.16772E+00-2.84848E-03-8.62802E-01-1.11135E-13 3.55465E-13
 -1      3469 2.10296E+01-9.39980E-01 1.22402E-02-9.53114E-01 8.25194E-14 2.57316E-13
 -1      3470 2.13060E+01-1.40784E+00-1.68058E-02-1.08723E+00-5.75066E-14 3.53178E-13
 -1      3471 2.07723E+01-7.33345E-01 4.38611E-04-9.70398E-01 1.71468E-13 7.27648E-14
 -1      3472 2.05940E+01-5.37301E-01 8.06292E-03-9.98228E-01 7.46772E-14 1.21201E-13
 -1      3473 2.07181E+01-8.96955E-01-1.37558E-02-1.16434E+00-2.52191E-14 9.63841E-14
 -1      3474 2.04331E+01-3.68524E-01 1.96719E-03-9.67721E-01 1.63556E-13 3.12241E-13
 -1      3475 2.03089E+01-2.18653E-01 4.86668E-03-9.56238E-01 3.22197E-13 2.83078E-13
 -1      3476 2.03322E+01-4.64786E-01-9.85426E-03-1.11836E+00 2.05652E-13-6.19504E-14
 -1      3477 2.02191E+01-9.39421E-02 2.35235E-03-9.02896E-01 3.56323E-13 3.37738E-13
 -1      3478 2.01388E+01 1.21032E-02 2.66375E-03-8.69007E-01 5.20927E-13 4.93500E-13
 -1      3479 2.01036E+01-1.38239E-01-6.25008E-03-1.01219E+00 4.41552E-13 7.46972E-14
 -1      3480 2.00969E+01 9.93440E-02 2.36063E-03-8.06950E-01 5.28094E-13 4.69957E-13
 -1      3481 2.00455E+01 1.71478E-01 9.97778E-04-7.61784E-01 4.33662E-13 4.06975E-13
 -1      3482 1.99849E+01 8.98528E-02-4.10213E-03-8.82846E-01 6.19874E-13 1.71916E-13
 -1      3483 2.01350E+01 2.59118E-02-4.49614E-06-1.87278E-01 5.25911E-14-1.50263E-13
 -1      3484 2.01496E+01 4.92485E-02 1.10467E-03-1.72083E-01 2.51370E-14-1.48237E-13
 -1      3485 2.00244E+01 9.56206E-02 9.48358E-04-2.67336E-01-3.37844E-14-5.86973E-14
 -1      3486 2.00257E+01 7.04754E-02-8.79346E-04-2.52588E-01-5.20357E-14-6.33475E-14
 -1      3487 2.00442E+01 4.98326E-02 8.57925E-04-2.42261E-01-3.39689E-14-1.04383E-13
 -1      3488 2.00462E+01 3.16433E-02-5.64737E-04-2.33037E-01-5.40385E-14-6.67348E-14
 -1      3489 2.00419E+01 7.05884E-02 2.41589E-05-2.38741E-01-3.04671E-14-5.48438E-14
 -1      3490 1.99687E+01 2.29491E-01 1.02682E-03-3.60308E-01-6.72914E-14 9.96358E-14
 -1      3491 1.99735E+01 1.89547E-01-1.60887E-03-3.28912E-01-1.94971E-14 6.84683E-14
 -1      3492 1.99228E+01 3.20375E-01 9.86131E-04-4.34237E-01-3.93138E-15 1.24322E-13
 -1      3493 1.99329E+01 2.71750E-01-2.08879E-03-3.92051E-01-4.75541E-14 8.23543E-14
 -1      3494 1.99059E+01 2.83281E-01 1.22911E-03-3.57587E-01-7.17695E-14 7.18429E-14
 -1      3495 1.98547E+01 4.29911E-01 8.58235E-04-5.29799E-01 1.35508E-14 1.84741E-13
 -1      3496 1.98738E+01 3.71543E-01-2.69395E-03-4.75387E-01 7.08763E-15 1.72280E-13
 -1      3497 1.98290E+01 3.89001E-01 1.95183E-03-4.27448E-01-1.86698E-14 7.34599E-14
 -1      3498 1.97531E+01 5.59761E-01 6.16013E-04-6.48905E-01-1.32670E-14 1.47340E-13
 -1      3499 1.97863E+01 4.90922E-01-3.46953E-03-5.81039E-01 3.74163E-14 1.95001E-13
 -1      3500 1.97213E+01 5.15141E-01 2.94866E-03-5.14717E-01 2.54533E-14 1.04428E-13
 -1      3501 1.96030E+01 7.09742E-01 2.52968E-04-7.92972E-01-1.21756E-13 2.09075E-13
 -1      3502 1.96572E+01 6.30838E-01-4.47671E-03-7.10652E-01-5.24965E-14 1.78817E-13
 -1      3503 1.95690E+01 6.62879E-01 4.31294E-03-6.19560E-01-4.43232E-14 1.27896E-13
 -1      3504 1.93850E+01 8.75317E-01-1.73038E-04-9.63313E-01-1.13182E-13 2.08254E-13
 -1      3505 1.94688E+01 7.89288E-01-5.81233E-03-8.65594E-01-1.07680E-13 1.86838E-13
 -1      3506 1.93537E+01 8.31100E-01 6.15235E-03-7.41459E-01-1.17346E-13 1.73495E-13
 -1      3507 1.90760E+01 1.04329E+00-4.49583E-04-1.16263E+00 1.63647E-14 9.49449E-14
 -1      3508 1.91985E+01 9.57961E-01-7.65020E-03-1.04786E+00-3.50364E-14 1.40417E-13
 -1      3509 1.90514E+01 1.01382E+00 8.58513E-03-8.80082E-01-3.70195E-14 4.49414E-14
 -1      3510 1.86507E+01 1.18487E+00-3.44900E-05-1.39894E+00-2.18127E-14 9.89144E-14
 -1      3511 1.88191E+01 1.11668E+00-1.03037E-02-1.26271E+00 3.63175E-15 8.45260E-14
 -1      3512 1.86314E+01 1.19616E+00 1.17519E-02-1.03783E+00 4.74965E-14-6.16520E-14
 -1      3513 1.80873E+01 1.24499E+00 2.46183E-03-1.69410E+00-3.72120E-15 8.17545E-14
 -1      3514 1.83004E+01 1.22466E+00-1.42381E-02-1.52484E+00-2.56021E-14 8.35643E-14
 -1      3515 1.80554E+01 1.34827E+00 1.59047E-02-1.22579E+00-2.93940E-14-1.00853E-13
 -1      3516 1.73686E+01 1.12076E+00 6.77198E-03-2.10160E+00-2.96386E-14 1.30466E-13
 -1      3517 1.76144E+01 1.20664E+00-1.95080E-02-1.87037E+00 1.56927E-15 1.16511E-13
 -1      3518 1.72749E+01 1.41574E+00 2.18168E-02-1.47571E+00-6.92174E-14-6.10059E-14
 -1      3519 1.64307E+01 5.78310E-01-1.95997E-02-2.75160E+00-9.94465E-14 7.14637E-14
 -1      3520 1.67367E+01 9.50517E-01-2.10079E-02-2.36384E+00-1.19273E-14 1.48106E-13
 -1      3521 1.62519E+01 1.29358E+00 3.57412E-02-1.85776E+00-1.84516E-14 2.87730E-14
 -1      3522 1.87002E+01 1.13484E+00-8.29816E-03 9.58676E-01-1.95308E-13-2.00184E-13
 -1      3523 1.84754E+01 1.21335E+00-3.71373E-03 1.04496E+00-1.08952E-13-2.36069E-13
 -1      3524 1.97018E+01-3.20425E+00-2.36480E-02 4.52117E+00-1.43770E-13-2.36575E-13
 -1      3525 1.73787E+01-2.08580E+00 8.05331E-02 4.77066E+00-3.64587E-14-1.58255E-13
 -1      3526 1.41118E+01 5.02607E-01 3.17419E-02 2.66976E+00 4.87297E-14 3.28210E-15
 -1      3527 1.22634E+01 1.04673E+00 1.38543E-01 1.57840E+00-1.37201E-13 1.61773E-13
 -1      3528 1.25247E+01 1.13508E+00 1.47473E-02 6.49248E-01-2.78534E-13 1.64521E-13
 -1      3529 1.48427E+01 1.03127E+00-2.72250E-02 2.06050E+00-1.15352E-13 9.38555E-14
 -1      3530 1.73288E+01 1.37059E+00-1.75189E-02 1.27424E+00-1.06964E-13 4.07108E-14
 -1      3531 1.69378E+01 1.37920E+00-1.14603E-03 1.41702E+00-7.42874E-14-4.15969E-14
 -1      3532 1.62561E+01 1.32712E+00-2.36914E-02 1.53518E+00 9.16485E-14-1.79275E-14
 -1      3533 1.57737E+01 1.23935E+00 1.46619E-02 1.76020E+00 2.50471E-14-1.16712E-14
 -1      3534 1.61433E+01 1.52248E+00 3.22850E-02 9.84014E-01 2.75666E-14 7.82829E-14
 -1      3535 1.91228E+01 9.78638E-01-6.53379E-03 8.30547E-01-2.21353E-13-1.19062E-13
 -1      3536 1.89610E+01 1.05629E+00-3.12916E-03 9.08084E-01-2.66300E-13-1.74385E-13
 -1      3537 1.86486E+01 1.17336E+00 1.18609E-02 7.35488E-01-2.22635E-13-1.04888E-13
 -1      3538 1.96834E+01 7.28620E-01-2.71242E-03 6.57847E-01 1.61704E-13-5.37254E-14
 -1      3539 1.94338E+01 6.63175E-01 3.56878E-03-4.79880E-01-9.31438E-14-4.07970E-13
 -1      3540 1.93422E+01 7.16951E-01-4.48308E-03-3.82538E-01-3.58805E-14-5.76203E-13
 -1      3541 2.00378E+01 2.20579E+00-3.18565E-03-1.62757E-01 1.07067E-14-1.05180E-13
 -1      3542 2.00494E+01 2.16857E+00-4.29796E-03-2.84720E-01-6.30957E-15-9.04174E-14
 -1      3543 2.01639E+01 1.85636E+00 4.67393E-03-2.83220E-01 5.78694E-15-7.95671E-14
 -1      3544 2.02623E+01 1.34424E+00 1.59835E-03-5.21375E-01-5.30125E-14-6.51820E-14
 -1      3545 2.00006E+01 1.55165E-01 1.00777E-03-3.05613E-01-5.63127E-15-1.57257E-15
 -1      3546 2.00028E+01 1.22934E-01-1.21663E-03-2.83412E-01 6.36650E-15-3.20151E-14
 -1      3547 2.00059E+01 1.25522E-01 3.18105E-04-2.65331E-01-4.45359E-14-4.37386E-14
 -1      3548 1.99624E+01 1.96049E-01 7.04323E-04-3.04134E-01-4.42430E-14 6.63120E-14
 -1      3549 1.51969E+01 1.16154E-01 9.09087E-02-3.36683E+00-9.63066E-14 1.75450E-14
 -1      3550 2.02897E+01 8.87747E-01 5.97224E-04 4.45679E-01 6.01152E-14-1.17009E-13
 -1      3551 2.02816E+01 1.05962E+00-2.04119E-03 4.82968E-01 6.66899E-14-1.19073E-13
 -1      3552 2.02643E+01 7.04254E-01-9.56340E-04 3.01062E-01 5.42759E-14-1.16768E-13
 -1      3553 2.01073E+01 1.95449E-03 3.31371E-04-2.05332E-01 3.40866E-14-1.02663E-13
 -1      3554 2.01172E+01 1.08762E-02 5.65896E-04-1.97234E-01 5.43912E-14-1.31119E-13
 -1      3555 2.01752E+01 2.81599E-02-6.59768E-04-1.79152E-01 3.47040E-14-1.66546E-13
 -1      3556 2.00168E+01 2.56760E-01 7.82642E-04-6.75864E-01 4.31704E-13 3.25841E-13
 -1      3557 2.03025E+01 1.07734E+00-3.92824E-04-4.14005E-01-3.05208E-14-6.06081E-14
 -1      3558 2.03032E+01 8.66048E-01-2.80026E-03-2.83451E-01-1.10706E-14-4.30588E-14
 -1      3559 2.03310E+01 8.68653E-01 9.80973E-04-2.34512E-01-2.57106E-15-2.80706E-14
 -1      3560 2.02696E+01 1.33357E+00 2.23431E-03-4.25626E-01-3.23520E-14-4.57567E-14
 -1      3561 2.48617E+01-3.46208E+00 1.11781E-02-1.24321E+00 1.10609E-13 3.69486E-13
 -1      3562 2.56242E+01-2.86605E+00-7.94724E-02-1.04078E-01-4.72205E-14 3.34734E-13
 -1      3563 1.81190E+01 1.28066E+00-1.21850E-02 1.10005E+00-9.36469E-15-3.19152E-13
 -1      3564 1.78183E+01 1.34020E+00-3.86634E-03 1.20382E+00-7.12841E-15-8.30787E-14
 -1      3565 1.80560E+01 1.33609E+00 1.52200E-02 8.02984E-01-6.40781E-14-7.66514E-14
 -1      3566 1.49543E+01-1.06330E+00-2.41830E-02 4.44210E+00 3.14332E-15-1.56930E-13
 -1      3567 1.32230E+01 2.72985E-02 6.65880E-02 3.45429E+00 1.01252E-13-2.61118E-13
 -1      3568 2.37585E+01 3.02418E+00-2.87228E-02 1.34844E+00 1.20910E-14 4.51028E-17
 -1      3569 1.99237E+01 2.74499E-01-2.01224E-03-7.24604E-01 3.81728E-13 8.32391E-14
 -1      3570 1.95535E+01 7.97865E-01 7.78161E-04 6.57665E-01-2.27684E-14-1.71136E-13
 -1      3571 1.15879E+01 6.71077E-01 1.23012E-01-2.21540E+00-1.57541E-13 2.87513E-13
 -1      3572 1.24880E+01 2.71758E-01 3.36724E-02-2.91183E+00-1.69557E-13 2.06161E-13
 -1      3573 1.20091E+01 9.40684E-01 3.84947E-02-1.28301E+00-2.16185E-13 2.07813E-13
 -1      3574 2.04524E+01-3.63863E+00 4.78782E-02-4.61067E+00 1.26708E-13 1.62773E-13
 -1      3575 2.16101E+01-3.51041E+00 1.83188E-02-3.60629E+00 8.41376E-14 6.18723E-13
 -1      3576 1.92142E+01-2.89374E+00 2.37728E-02-4.54597E+00 5.06435E-14-6.19643E-15
 -1      3577 2.55823E+01-1.92006E+00-1.48001E-02 6.46686E-01-5.58546E-14 2.81278E-13
 -1      3578 2.32667E+01-3.60440E+00 7.68759E-03-2.39808E+00 9.93125E-14 5.06178E-13
 -1      3579 2.42397E+01-3.72673E+00-1.46506E-02-1.84893E+00 1.20810E-13 4.05984E-13
 -1      3580 2.43367E+01-3.03550E+00 1.93581E-02-8.62002E-01 1.13790E-13 3.42877E-13
 -1      3581 2.47425E+01 2.67849E+00-3.36618E-02-1.88889E+00-1.76026E-13 8.08728E-14
 -1      3582 2.56096E+01 2.18781E+00-9.83226E-02-2.03937E+00-2.50730E-13 1.55237E-13
 -1      3583 2.02132E+01 8.31279E-02-7.10998E-04-1.47341E-01 2.24250E-14-1.80130E-13
 -1      3584 2.01673E+01 8.03360E-02-4.89571E-04-1.53276E-01 1.95738E-14-1.58948E-13
 -1      3585 2.01875E+01 1.23271E-01 1.77573E-03-1.25416E-01 3.61663E-15-1.27701E-13
 -1      3586 2.39399E+01 2.16945E+00-5.90651E-02 1.77445E+00-7.97105E-15 1.38366E-14
 -1      3587 1.93938E+01 8.77714E-01 4.84597E-03 5.58909E-01 1.64844E-14-8.25063E-14
 -1      3588 1.94475E+01 8.34768E-01-4.04559E-03 6.91303E-01 5.97363E-15-1.18814E-13
 -1      3589 1.93325E+01 8.99883E-01-1.92274E-03 7.61112E-01-5.04831E-14-1.26868E-13
 -1      3590 1.93041E+01 8.89679E-01-3.98010E-03 4.27463E-01 1.37521E-13-1.02348E-13
 -1      3591 2.48346E+01 1.80606E+00-1.96029E-02 1.99848E+00 2.88103E-14 1.15540E-13
 -1      3592 2.02170E+01 1.69982E+00 8.69953E-03 4.62521E-01 5.53761E-14-9.86346E-14
 -1      3593 2.00745E+01 3.12110E-02-2.03235E-04-2.21272E-01-1.37780E-14-1.38109E-13
 -1      3594 2.00633E+01 1.78218E-02 7.33272E-04-2.26683E-01-6.55124E-14-2.99640E-14
 -1      3595 2.00669E+01 7.08731E-03-2.40842E-04-2.20751E-01-1.79499E-14-5.41372E-14
 -1      3596 1.45270E+01 3.65881E-01 2.61222E-02 2.79404E+00 2.60087E-14-2.79100E-13
 -1      3597 1.29857E+01 5.23271E-01 5.90066E-02 2.73568E+00 9.15977E-14-3.12916E-13
 -1      3598 1.29255E+01 9.33072E-01-5.31850E-04 1.71984E+00 1.10261E-13-3.72917E-13
 -1      3599 1.54421E+01 5.81869E-01 5.21070E-02-2.70665E+00-1.11459E-13-1.77532E-14
 -1      3600 1.44897E+01 1.19780E+00 8.83888E-02-1.98359E+00-1.36974E-14 8.16101E-14
 -1      3601 2.02102E+01 1.64561E+00-3.23305E-03 1.30077E-01 3.29837E-14-1.18974E-13
 -1      3602 2.02055E+01 1.66561E+00-2.77387E-03 3.95345E-02 2.52959E-14-1.26970E-13
 -1      3603 1.39978E+01-7.64354E-01 2.84482E-02-4.23650E+00-1.45897E-13-2.73871E-13
 -1      3604 1.49537E+01-1.46833E+00 1.09868E-01-4.98017E+00-1.24088E-13-3.67956E-13
 -1      3605 1.65631E+01-1.97006E+00 3.56940E-02-4.82713E+00-9.99756E-14-4.56135E-13
 -1      3606 2.36407E+01 3.89571E+00-1.09384E-01-5.56312E-01 3.94441E-14-4.12023E-14
 -1      3607 1.68488E+01-1.25237E+00 5.12339E-02 4.05866E+00 1.68789E-15-2.13432E-13
 -1      3608 1.91865E+01 9.31786E-01 2.98322E-03 2.64329E-01 1.16227E-13-1.36581E-13
 -1      3609 1.91285E+01 9.48521E-01-3.38454E-03 4.26582E-01 5.21665E-14 4.46026E-14
 -1      3610 2.02166E+01 1.61144E+00-2.65026E-03 2.00960E-01 3.56561E-14-1.14765E-13
 -1      3611 2.02943E+01 1.39538E+00 6.16914E-03 1.34148E-01 3.71951E-14-1.01585E-13
 -1      3612 2.02279E+01 1.54649E+00-6.41094E-03 2.84029E-01 4.29639E-14-1.24595E-13
 -1      3613 2.56305E+01 1.06501E+00-7.67778E-02 2.01378E+00-4.57273E-15 1.55320E-13
 -1      3614 1.92700E+01 8.02559E-01 2.25072E-03-2.51146E-01 6.82923E-14-2.60542E-13
 -1      3615 1.92136E+01 8.39199E-01-4.24902E-03-1.23927E-01 1.63879E-13 1.85446E-14
 -1      3616 1.92025E+01 7.66081E-01 1.11068E-03-3.74708E-01-5.97142E-14-4.30514E-13
 -1      3617 1.46587E+01 1.39953E+00 5.99581E-02 1.29334E+00-2.63906E-14 1.29301E-13
 -1      3618 1.91021E+01 1.00303E+00 8.07490E-03 6.42078E-01-1.12730E-13 4.03774E-14
 -1      3619 2.01443E+01 1.92896E+00 4.80937E-03-9.48419E-02 7.11345E-15-1.15918E-13
 -1      3620 2.08734E+01-3.33619E+00 5.55828E-02 4.04271E+00-1.46614E-13-1.68493E-13
 -1      3621 1.98041E+01-2.69551E+00-1.50845E-02 3.95577E+00-1.44511E-13-1.79299E-13
 -1      3622 2.18413E+01-3.50456E+00-7.96544E-03 3.35027E+00-1.88690E-13-1.88469E-13
 -1      3623 1.91621E+01 9.16950E-01 2.42156E-04 1.13106E-01 2.09468E-13 3.95681E-14
 -1      3624 1.72528E+01 1.46744E+00 2.08035E-02 8.73956E-01 6.27429E-14 1.32622E-14
 -1      3625 2.00837E+01 8.96874E-04 5.65380E-04-2.16181E-01-1.37344E-14-6.25652E-14
 -1      3626 2.00900E+01-1.12371E-03 1.25516E-04-2.10853E-01 1.82831E-14-7.42609E-14
 -1      3627 2.01064E+01 8.66622E-03-3.93385E-04-2.09018E-01-3.51455E-14-1.11805E-13
 -1      3628 1.95340E+01 5.67264E-01-3.69315E-03-5.65318E-01-6.79542E-14-3.01501E-13
 -1      3629 1.94130E+01 5.95542E-01-1.79037E-07-5.91955E-01-1.02228E-13-3.77236E-13
 -1      3630 1.96418E+01 5.05170E-01 3.44918E-03-6.24708E-01-5.49161E-14-3.40722E-13
 -1      3631 2.68525E+01-1.29534E+00-1.07527E-02-1.07952E+00-1.35641E-13-1.77323E-13
 -1      3632 2.62214E+01-1.91391E+00 3.51223E-02-6.39747E-01-1.26201E-13-2.16487E-13
 -1      3633 2.62976E+01-3.14716E-01-5.49840E-02-1.60160E+00-9.27244E-14-1.73341E-13
 -1      3634 2.02386E+01 3.32296E-01-1.47135E-03 1.21856E-02 1.54052E-14-1.05982E-13
 -1      3635 2.02574E+01 4.17867E-01 3.15205E-03 7.50020E-02 3.12726E-14-1.10717E-13
 -1      3636 2.52612E+01-3.36636E+00-6.82818E-02 8.10735E-01-2.22376E-13-4.76008E-14
 -1      3637 2.50140E+01-3.87919E+00 2.83489E-02 1.82513E+00-3.68837E-13 3.91232E-14
 -1      3638 2.37725E+01-3.80089E+00 2.62525E-03 2.35306E+00-3.20239E-13-1.49974E-14
 -1      3639 2.02708E+01 1.19223E+00-2.25744E-03 4.47890E-01 5.95038E-14-9.89002E-14
 -1      3640 2.02432E+01 1.50427E+00 5.99621E-05-3.08023E-01-9.95651E-15-1.63936E-14
 -1      3641 2.02578E+01 1.40794E+00-3.23899E-03-3.75179E-01-2.85544E-14-1.40030E-14
 -1      3642 2.03104E+01 1.15830E+00 1.90595E-03-2.80221E-01-8.13157E-15-8.62311E-15
 -1      3643 1.98300E+01 3.56494E-01 2.52304E-03-7.01045E-01 3.34546E-13-4.75010E-14
 -1      3644 1.97220E+01 4.17555E-01-2.56424E-03-6.79556E-01 2.21708E-13-1.36697E-13
 -1      3645 1.96338E+01 4.24954E-01 6.66582E-04-7.27690E-01 3.04471E-13-4.07148E-14
 -1      3646 1.98490E+01 2.62933E-01 1.60898E-03-7.99941E-01 5.21664E-13 1.20840E-13
 -1      3647 1.23106E+01 1.13996E+00 6.28358E-02-3.26879E-01 3.65714E-14-2.23328E-13
 -1      3648 2.02034E+01 1.76388E-01-1.17618E-03-9.21805E-02 5.78725E-15-1.31473E-13
 -1      3649 2.02294E+01 2.46353E-01 2.58745E-03-4.48155E-02 1.23832E-14-1.22746E-13
 -1      3650 2.02517E+01 1.82341E-01-6.47694E-04-9.17472E-02 1.16628E-14-1.53206E-13
 -1      3651 2.54835E+01 1.13857E+00-3.29820E-02-2.00080E+00-1.45890E-13 8.35287E-14
 -1      3652 2.01396E+01 5.94934E-03-5.45604E-04-1.97062E-01 2.40957E-14-1.19955E-13
 -1      3653 2.02842E+01 3.41609E-01-7.09678E-04 1.02200E-03 2.65349E-14-1.46788E-13
 -1      3654 2.52969E+01 8.30916E-02-1.30363E-02 1.76350E+00-6.96491E-14 6.23494E-14
 -1      3655 2.03611E+01 3.91912E-01 5.74997E-04-4.59849E-03-3.52379E-15-3.11735E-14
 -1      3656 2.03452E+01 2.93762E-01-1.22444E-03 4.10559E-02-2.13524E-14-4.27759E-14
 -1      3657 2.03343E+01 2.14135E-01 1.04683E-03 6.87793E-02-3.62315E-14-4.83645E-14
 -1      3658 2.03127E+01 1.50269E-01-8.30887E-04 9.78269E-02-4.87770E-14-5.87797E-14
 -1      3659 2.03698E+01 2.85306E-01 8.66088E-05 4.15840E-02-4.10871E-14-6.53745E-14
 -1      3660 2.02936E+01 1.01700E-01 7.99562E-04 1.14783E-01-5.22996E-14-4.84366E-14
 -1      3661 2.02707E+01 6.43991E-02-3.26692E-04 1.32346E-01-5.15412E-14-5.59947E-14
 -1      3662 2.03347E+01 1.46051E-01-6.47303E-05 8.81020E-02-4.48998E-14-5.63523E-14
 -1      3663 2.02468E+01 3.84285E-02 4.75352E-04 1.42149E-01-5.57786E-14-5.79729E-14
 -1      3664 2.02243E+01 2.10849E-02 4.38523E-05 1.52660E-01-5.66122E-14-5.02303E-14
 -1      3665 2.02885E+01 6.33958E-02-2.36420E-04 1.16850E-01-3.01872E-14-1.02569E-14
 -1      3666 2.01978E+01 1.18985E-02 1.71969E-04 1.58598E-01-5.47269E-14-2.24784E-14
 -1      3667 2.01764E+01 9.41546E-03 3.00758E-04 1.65674E-01-6.70909E-14-1.12513E-14
 -1      3668 2.02367E+01 2.39216E-02-2.86463E-04 1.34491E-01-4.46178E-14-2.44653E-14
 -1      3669 2.01483E+01 1.26893E-02-1.06878E-04 1.70461E-01-6.36283E-14 6.61885E-15
 -1      3670 2.01281E+01 2.12609E-02 4.79002E-04 1.77002E-01-5.05775E-14 3.62673E-14
 -1      3671 2.01822E+01 1.68028E-02-2.46892E-04 1.46807E-01-5.20916E-14 4.07425E-14
 -1      3672 2.00988E+01 3.37494E-02-3.63053E-04 1.82887E-01-3.57083E-14 8.01930E-14
 -1      3673 2.00795E+01 5.04643E-02 6.09310E-04 1.91206E-01-2.93264E-14 1.12466E-13
 -1      3674 2.01261E+01 3.38705E-02-1.48710E-04 1.58647E-01-2.24652E-14 1.17826E-13
 -1      3675 2.00489E+01 6.96090E-02-6.02736E-04 2.00076E-01-7.61580E-14 1.42065E-13
 -1      3676 2.00302E+01 9.20973E-02 7.21447E-04 2.12041E-01-8.50661E-14 1.16534E-13
 -1      3677 2.00684E+01 6.88764E-02-9.20937E-06 1.74085E-01-2.98952E-14 1.69094E-13
 -1      3678 1.99977E+01 1.15680E-01-8.28959E-04 2.25569E-01-1.08892E-13 1.05976E-13
 -1      3679 1.99793E+01 1.41727E-01 8.42558E-04 2.42732E-01-9.74682E-14 1.03174E-13
 -1      3680 2.00082E+01 1.16694E-01 1.35044E-04 1.96650E-01-8.23467E-14 1.75501E-13
 -1      3681 1.99447E+01 1.67462E-01-1.03673E-03 2.62504E-01-9.12772E-14 1.21374E-13
 -1      3682 1.99267E+01 1.94598E-01 1.00152E-03 2.86183E-01-1.12013E-13 1.78362E-13
 -1      3683 1.99447E+01 1.72630E-01 2.64181E-04 2.29633E-01-9.08579E-14 2.04151E-13
 -1      3684 1.98898E+01 2.19728E-01-1.21374E-03 3.13789E-01-1.53195E-13 1.32792E-13
 -1      3685 1.98729E+01 2.44803E-01 1.22884E-03 3.45109E-01-1.52104E-13 1.04514E-13
 -1      3686 1.98771E+01 2.31495E-01 3.39920E-04 2.76296E-01-1.01203E-13 1.71615E-13
 -1      3687 1.98344E+01 2.65650E-01-1.33241E-03 3.82214E-01-8.26259E-14 1.24494E-13
 -1      3688 1.98206E+01 2.84358E-01 1.55919E-03 4.22090E-01 1.39163E-14 1.43496E-13
 -1      3689 1.98057E+01 2.86732E-01 3.10309E-04 3.40095E-01-6.00177E-14 1.21122E-13
 -1      3690 1.97824E+01 2.95857E-01-1.34304E-03 4.70448E-01 5.61385E-14 1.54329E-13
 -1      3691 1.97752E+01 3.02249E-01 2.02946E-03 5.19468E-01 9.23302E-14 1.59661E-13
 -1      3692 1.97329E+01 3.29413E-01 1.00761E-04 4.24809E-01 5.53754E-14 8.74668E-14
 -1      3693 1.97413E+01 2.97496E-01-1.16197E-03 5.80815E-01 8.49671E-14 1.12497E-13
 -1      3694 1.97467E+01 2.83540E-01 2.67006E-03 6.38971E-01 7.30963E-14 4.05232E-14
 -1      3695 1.96642E+01 3.47173E-01-3.97061E-04 5.34548E-01 4.28062E-14 4.45605E-14
 -1      3696 1.97244E+01 2.53459E-01-6.52292E-04 7.14703E-01 6.45080E-14 7.71119E-14
 -1      3697 1.97514E+01 2.08763E-01 3.48251E-03 7.80831E-01 6.62221E-14 5.57411E-14
 -1      3698 1.96098E+01 3.23170E-01-1.34054E-03 6.73455E-01 7.36782E-14 5.16274E-14
 -1      3699 1.97525E+01 1.42096E-01 4.07049E-04 8.71232E-01 3.01271E-14-4.84814E-15
 -1      3700 1.98142E+01 5.40657E-02 4.39131E-03 9.41927E-01 1.03193E-13-3.16552E-14
 -1      3701 1.95875E+01 2.35269E-01-2.95631E-03 8.44808E-01 5.85738E-14-3.81883E-15
 -1      3702 1.98572E+01-6.19492E-02 2.37393E-03 1.04454E+00 1.28087E-13-5.36712E-14
 -1      3703 1.99711E+01-2.07063E-01 5.13358E-03 1.11218E+00 6.29819E-14-7.32794E-14
 -1      3704 1.96252E+01 5.58724E-02-5.55510E-03 1.04891E+00 8.05642E-14-7.27859E-14
 -1      3705 2.00838E+01-3.84370E-01 5.87261E-03 1.21796E+00 4.00957E-14 9.68220E-15
 -1      3706 2.02702E+01-5.97464E-01 5.32856E-03 1.26736E+00 3.01129E-14 6.30306E-14
 -1      3707 1.97655E+01-2.47133E-01-9.47735E-03 1.27827E+00 1.20008E-13-7.48880E-15
 -1      3708 2.04888E+01-8.40089E-01 1.13995E-02 1.35600E+00-5.03881E-14 6.56001E-14
 -1      3709 2.07732E+01-1.12142E+00 5.56727E-03 1.35996E+00-1.97132E-14 3.16526E-14
 -1      3710 2.00689E+01-7.00008E-01-1.42736E-02 1.50683E+00 1.08546E-14 1.85414E-14
 -1      3711 2.11423E+01-1.42722E+00 1.74248E-02 1.39866E+00 2.14196E-14 1.15768E-13
 -1      3712 2.15323E+01-1.74916E+00-6.65637E-04 1.31189E+00 5.61695E-14 7.83632E-14
 -1      3713 2.05940E+01-1.31344E+00-2.51128E-02 1.68249E+00 5.75213E-14 2.92015E-14
 -1      3714 2.21219E+01-2.03118E+00 3.47289E-02 1.18260E+00-4.06788E-14 4.97569E-14
 -1      3715 2.25615E+01-2.30038E+00-7.95337E-03 9.53305E-01-4.62304E-14-7.02301E-14
 -1      3716 2.15328E+01-2.10593E+00-3.86782E-02 1.69963E+00-2.04012E-14 9.10929E-14
 -1      3717 2.43789E+01-2.63674E+00 2.31633E-02 2.78695E-01-1.34370E-13-2.33563E-14
 -1      3718 2.48286E+01-2.19434E+00-8.31788E-03-2.72458E-01-1.56313E-13-4.40065E-14
 -1      3719 2.53904E+01-1.64505E-01-6.98915E-02-1.69747E+00-7.93445E-14-4.91842E-14
 -1      3720 2.46502E+01-2.09402E+00-8.13915E-03 4.66033E-01-5.35579E-14 2.01458E-14
 -1      3721 2.42170E+01-2.52781E+00-1.93920E-02-4.36902E-02-7.16493E-14 6.60938E-14
 -1      3722 2.22019E+01-2.16281E+00-5.06655E-03-1.15013E+00-7.34577E-14 5.40165E-13
 -1      3723 2.17732E+01-1.86573E+00 2.51135E-02-1.33128E+00-2.29751E-14 4.90726E-13
 -1      3724 2.12732E+01-1.55852E+00 2.01091E-04-1.38544E+00-1.04390E-13 3.68523E-13
 -1      3725 2.09340E+01-1.24109E+00 1.65604E-02-1.43689E+00-2.39263E-13 2.70161E-13
 -1      3726 2.11967E+01-1.83088E+00-2.68776E-02-1.74476E+00-1.33287E-13 6.36003E-13
 -1      3727 2.06217E+01-9.58043E-01 4.13213E-03-1.38252E+00-1.10591E-13 4.00074E-13
 -1      3728 2.03817E+01-6.96373E-01 9.16246E-03-1.36143E+00 4.44668E-14 3.15257E-13
 -1      3729 2.04480E+01-1.12598E+00-2.12556E-02-1.67238E+00-1.12923E-13 5.74730E-13
 -1      3730 2.02099E+01-4.71969E-01 5.34220E-03-1.26582E+00 1.45125E-13 2.84223E-13
 -1      3731 2.00561E+01-2.77346E-01 4.72379E-03-1.20960E+00 2.87701E-13 3.84232E-13
 -1      3732 2.00093E+01-5.54937E-01-1.32112E-02-1.47287E+00 9.26234E-14 5.73437E-13
 -1      3733 1.99778E+01-1.16320E-01 4.71643E-03-1.10477E+00 3.30540E-13 1.93242E-13
 -1      3734 1.98917E+01 1.76191E-02 2.22408E-03-1.03554E+00 4.89356E-13 1.20507E-13
 -1      3735 1.97857E+01-1.41308E-01-7.05767E-03-1.24174E+00 2.46929E-13 5.79661E-13
 -1      3736 1.98788E+01 1.12348E-01 3.53835E-03-9.47016E-01 5.66215E-13 6.84078E-14
 -1      3737 1.98382E+01 2.03519E-01 1.59007E-03-8.75543E-01 5.40185E-13 1.23499E-13
 -1      3738 1.97140E+01 2.74448E-01-3.80306E-03-8.57475E-01 4.99610E-13 9.18587E-14
 -1      3739 1.97098E+01 1.18969E-01-4.55273E-03-1.03098E+00 4.76930E-13 2.58814E-13
 -1      3740 1.95963E+01 5.76711E-01-7.64378E-04-4.68387E-01-3.15799E-14 9.74911E-14
 -1      3741 1.96605E+01 5.06340E-01-2.74748E-03-4.24917E-01-7.41299E-15 6.99209E-14
 -1      3742 1.89207E+01 1.02404E+00-4.28818E-03 4.65602E-01-1.03973E-13 1.18154E-15
 -1      3743 2.00388E+01 9.08806E-02 5.72252E-04-2.23968E-01-1.54694E-14-6.91159E-14
 -1      3744 2.00552E+01 6.54037E-02-6.49214E-04-2.13179E-01-1.36006E-14-8.75887E-14
 -1      3745 1.97406E+01 4.42395E-01-1.97734E-04-3.95742E-01-2.40454E-14 5.53827E-14
 -1      3746 1.97856E+01 3.82076E-01-2.17194E-03-3.59520E-01-4.23645E-14 1.81833E-14
 -1      3747 1.96392E+01 5.10308E-01 2.98855E-03-3.52258E-01-3.07775E-14-4.69022E-14
 -1      3748 1.98465E+01 3.27903E-01 1.76128E-04-3.34841E-01-5.50704E-14 1.33806E-15
 -1      3749 1.98786E+01 2.77094E-01-1.70206E-03-3.06007E-01-7.33682E-14 5.49026E-16
 -1      3750 1.97730E+01 3.84168E-01 2.03656E-03-3.04338E-01-5.71783E-14-5.19826E-14
 -1      3751 1.93977E+01 7.31040E-01-1.57571E-03-5.50777E-01-9.10350E-14 1.24505E-13
 -1      3752 1.94893E+01 6.50753E-01-3.47796E-03-5.00790E-01-3.25894E-14 1.55253E-13
 -1      3753 1.94606E+01 6.56170E-01 4.26744E-03-4.04835E-01-6.08896E-14 9.74078E-14
 -1      3754 1.91236E+01 9.03001E-01-2.67271E-03-6.39721E-01-4.56065E-14 2.66937E-14
 -1      3755 1.92536E+01 8.14427E-01-4.45513E-03-5.84412E-01-3.85464E-14 9.99231E-14
 -1      3756 1.92197E+01 8.20982E-01 5.99374E-03-4.57579E-01-2.99550E-14 1.06490E-13
 -1      3757 1.87464E+01 1.08531E+00-4.06141E-03-7.31745E-01 9.57269E-15-8.35429E-14
 -1      3758 1.89287E+01 9.92812E-01-5.86297E-03-6.72137E-01-4.00271E-14-8.52424E-15
 -1      3759 1.88936E+01 1.00119E+00 8.34565E-03-5.04292E-01 3.53568E-14-7.35229E-14
 -1      3760 1.82296E+01 1.26237E+00-5.65964E-03-8.25703E-01 1.69156E-14 2.85588E-14
 -1      3761 1.84816E+01 1.17481E+00-8.06936E-03-7.60929E-01 4.06600E-14-2.58997E-14
 -1      3762 1.84511E+01 1.18856E+00 1.16201E-02-5.37971E-01-1.66292E-14 1.36387E-14
 -1      3763 1.75239E+01 1.40564E+00-7.14143E-03-9.28651E-01-7.01705E-14-2.45836E-14
 -1      3764 1.78669E+01 1.33870E+00-1.17446E-02-8.52180E-01-2.70060E-14-7.64926E-15
 -1      3765 1.78488E+01 1.36775E+00 1.63950E-02-5.53265E-01-1.47317E-14 8.22549E-14
 -1      3766 1.65581E+01 1.46358E+00-8.33223E-03-1.06894E+00-1.04497E-13-2.07040E-14
 -1      3767 1.70200E+01 1.44661E+00-1.77891E-02-9.60190E-01-7.11774E-14-1.97209E-14
 -1      3768 1.70229E+01 1.51389E+00 2.39441E-02-5.52038E-01-1.07751E-13 4.82873E-14
 -1      3769 1.51827E+01 1.32679E+00-1.80548E-02-1.33042E+00-3.00012E-14-5.81219E-14
 -1      3770 1.58406E+01 1.45062E+00-2.14157E-02-1.12735E+00-6.15969E-14-6.08342E-14
 -1      3771 1.58739E+01 1.58011E+00 3.62175E-02-5.49864E-01-6.74317E-14-6.83880E-14
 -1      3772 2.02866E+01 1.42893E+00 4.88372E-03 2.11432E-03 1.65984E-14-1.03937E-13
 -1      3773 2.02062E+01 1.66670E+00-2.38339E-03-3.44024E-02 5.83615E-15-1.17931E-13
 -1      3774 2.02084E+01 1.64683E+00-3.64085E-03-1.25083E-01 6.36278E-15-1.08126E-13
 -1      3775 1.37829E+01 1.29948E+00 8.45010E-03 5.38939E-01-6.85034E-14 6.98139E-14
 -1      3776 1.29546E+01 1.33989E+00 8.71301E-02-4.07212E-01-1.60952E-13 7.13977E-14
 -1      3777 1.46314E+01 1.41710E+00-1.90313E-02 3.69899E-01 4.48478E-14 3.93643E-14
 -1      3778 1.61868E+01 1.46304E+00-1.64202E-02 4.28814E-01 5.75508E-14 1.36782E-13
 -1      3779 1.55185E+01 1.46244E+00-1.12141E-02 4.43794E-01 1.67431E-14 1.25446E-13
 -1      3780 1.50324E+01 1.48723E+00 5.13603E-02-2.29053E-01 5.60901E-15 8.39892E-14
 -1      3781 2.02195E+01 1.61286E+00-1.43953E-03-1.78589E-01 1.14139E-14-9.42184E-14
 -1      3782 2.02289E+01 1.55560E+00-3.77767E-03-2.61705E-01 4.81052E-15-6.73346E-14
 -1      3783 2.03046E+01 1.29779E+00 3.92056E-03-1.99119E-01 8.06085E-15-3.93350E-14
 -1      3784 2.02935E+01 1.39061E+00 4.85321E-03-1.12161E-01 1.72781E-14-1.05508E-13
 -1      3785 1.72704E+01 1.39502E+00-1.20691E-02 4.81901E-01 1.21240E-14 1.58469E-13
 -1      3786 1.67943E+01 1.44429E+00-1.03620E-02 4.87851E-01 4.74967E-14 6.40321E-14
 -1      3787 1.64258E+01 1.48000E+00 2.95304E-02-2.36366E-03 1.16259E-15 1.62040E-13
 -1      3788 1.27419E+01 1.32473E+00 6.40608E-02 5.37061E-01 2.97128E-14-2.79006E-13
 -1      3789 1.31406E+01 1.22791E+00-4.62527E-02-8.90659E-01-8.01087E-14-7.69940E-14
 -1      3790 2.51559E+01-1.07767E+00-5.30312E-02 1.35979E+00-6.63514E-14 5.45605E-14
 -1      3791 2.03217E+01 9.46657E-01 5.64949E-03 3.21105E-01 4.58060E-14-9.85731E-14
 -1      3792 2.02694E+01 1.29074E+00-5.36474E-03 4.06956E-01 6.08117E-14-1.05475E-13
 -1      3793 2.02585E+01 1.39379E+00-1.26366E-03 3.43140E-01 4.27834E-14-9.17252E-14
 -1      3794 1.90413E+01 9.21723E-01 6.43691E-04 4.83361E-04 2.35457E-13-6.16514E-14
 -1      3795 1.45432E+01 1.33056E+00 2.65068E-02-1.17337E+00-3.70528E-14-5.17537E-14
 -1      3796 1.86263E+01 1.11712E+00-5.95425E-03 4.91918E-01-2.11591E-13 1.24993E-13
 -1      3797 1.83672E+01 1.19073E+00-7.49435E-03 5.11568E-01-1.09294E-13 1.44617E-13
 -1      3798 2.02766E+01 6.33140E-01 2.50344E-03 2.36056E-01 4.27641E-14-1.15811E-13
 -1      3799 2.02961E+01 7.51316E-01-2.60656E-03 2.70371E-01 3.68899E-14-1.01875E-13
 -1      3800 2.03181E+01 8.46624E-01-1.91133E-03 2.47364E-01 4.50975E-14-9.80472E-14
 -1      3801 2.02579E+01 5.17578E-01-1.48925E-03 1.45712E-01 3.55112E-14-1.01693E-13
 -1      3802 2.03409E+01 9.33463E-01-1.99753E-03-2.16834E-01-9.81547E-15-7.18522E-15
 -1      3803 2.03567E+01 7.50041E-01 3.26820E-04-1.35929E-01-6.43417E-15-1.56311E-14
 -1      3804 2.03431E+01 1.01720E+00 4.45603E-04-1.82453E-01 1.06057E-15-2.29643E-15
 -1      3805 1.81323E+01-1.59166E+00-4.27132E-03 3.81642E+00-3.29502E-14-2.03840E-13
 -1      3806 1.62909E+01-4.94626E-01 3.20584E-02 3.50882E+00 3.33574E-14-2.01875E-13
 -1      3807 2.03009E+01 5.54745E-01-1.17807E-03 1.31155E-01 3.63829E-14-1.17969E-13
 -1      3808 2.03660E+01 6.20311E-01-5.80328E-04-9.78796E-02 8.02986E-15-3.34818E-14
 -1      3809 2.03620E+01 4.83444E-01-9.36100E-04-3.35221E-02 1.44941E-14-3.45596E-14
 -1      3810 2.03863E+01 4.69709E-01 6.32998E-04-1.89909E-02-1.55371E-14-5.29003E-14
 -1      3811 2.03820E+01 6.87611E-01 6.66247E-04-8.74291E-02-8.17284E-15-2.89720E-14
 -1      3812 1.80481E+01 1.26374E+00-7.59659E-03 4.84124E-01-1.18605E-13 2.31051E-13
 -1      3813 1.76987E+01 1.33359E+00-8.15394E-03 4.90347E-01-4.93871E-14 2.25981E-13
 -1      3814 1.81392E+01 1.24584E+00 1.47384E-02 2.27148E-01-8.14299E-14 4.71090E-13
 -1      3815 2.01668E+01 8.92787E-03 2.62647E-04-1.82635E-01 4.01903E-15-1.19145E-13
 -1      3816 2.01848E+01 1.44835E-02 3.20511E-04-1.74703E-01 2.60557E-14-1.22201E-13
 -1      3817 2.03179E+01 3.35893E-01-1.62745E-03-1.67646E-02 2.23416E-14-1.43107E-13
 -1      3818 2.03348E+01 4.46090E-01 2.17073E-03 4.34864E-02 2.42053E-14-1.24791E-13
 -1      3819 2.02083E+01 2.70625E-02-2.10018E-05-1.67105E-01 2.43030E-14-1.39631E-13
 -1      3820 2.02281E+01 4.84267E-02 7.04121E-04-1.54146E-01 3.76784E-14-1.48122E-13
 -1      3821 2.02299E+01 2.95375E-02-3.90284E-04-1.52429E-01 1.87825E-14-1.20492E-13
 -1      3822 2.37333E+01-2.63764E+00 2.50593E-03-5.65613E-01 8.38392E-15 1.45307E-13
 -1      3823 1.87401E+01 1.08283E+00 1.01111E-02 2.67255E-01 3.90229E-14 2.40865E-13
 -1      3824 1.81797E+01-2.30140E+00 4.84669E-02-4.59782E+00 1.62179E-14-3.57499E-13
 -1      3825 1.95158E+01-2.49200E+00 1.94577E-02-3.95555E+00 9.24417E-14 9.98481E-14
 -1      3826 1.70040E+01-1.60767E+00 1.18495E-02-4.31876E+00-3.01651E-14-4.62578E-13
 -1      3827 2.02493E+01 7.86152E-02-4.43346E-04-1.40608E-01 2.94384E-14-1.50602E-13
 -1      3828 2.02709E+01 1.20911E-01 1.14927E-03-1.18276E-01 1.74433E-14-1.66227E-13
 -1      3829 2.02764E+01 7.84809E-02-3.90976E-04-1.29023E-01 1.79432E-14-1.52573E-13
 -1      3830 2.33383E+01-2.46837E+00 2.99614E-02 6.33690E-01-9.06406E-14-1.27583E-13
 -1      3831 2.38563E+01-2.38729E+00 1.12412E-02 1.52863E-01-1.65537E-13-6.61918E-14
 -1      3832 2.03295E+01 1.15243E+00-4.36018E-03 1.35535E-01 5.76215E-14-1.07498E-13
 -1      3833 2.03270E+01 1.19034E+00-1.98044E-03 7.60022E-02 5.55674E-14-9.53674E-14
 -1      3834 1.98751E+01 2.77152E-01 1.32474E-03-2.63751E-01-9.75553E-14-7.11197E-15
 -1      3835 1.99259E+01 2.31981E-01 4.05874E-04-2.86375E-01-9.08784E-14 3.54368E-14
 -1      3836 1.99497E+01 1.89991E-01-1.30657E-03-2.64534E-01-9.68386E-14-1.81240E-14
 -1      3837 2.34086E+01-2.47306E+00 6.12565E-04-5.21931E-01-5.17086E-14 2.81420E-13
 -1      3838 2.29010E+01-2.39798E+00 2.80061E-02-9.09403E-01 5.34035E-15 3.54564E-13
 -1      3839 2.00067E+01 1.19585E-01-9.60401E-04-2.34199E-01-8.94594E-15-3.94249E-14
 -1      3840 2.00216E+01 1.16893E-01 3.86392E-04-2.07628E-01-1.21961E-14-8.98794E-14
 -1      3841 1.99878E+01 1.53263E-01 5.29916E-04-2.49891E-01-5.50823E-14-3.15179E-14
 -1      3842 2.00836E+01 4.48389E-02 5.44839E-04-2.06356E-01-3.57927E-14-1.12524E-13
 -1      3843 2.00993E+01 2.80893E-02-3.44663E-04-1.98855E-01-4.87368E-14-1.42252E-13
 -1      3844 2.00789E+01 6.30142E-02 5.54045E-05-1.90530E-01-4.39537E-14-1.94244E-13
 -1      3845 1.57867E+01-1.84729E-02 2.87994E-02 3.12911E+00 4.48756E-14-2.57024E-13
 -1      3846 1.53383E+01 4.52510E-01-5.51232E-03 2.48230E+00 8.50665E-14-2.53070E-13
 -1      3847 1.70434E+01-3.44709E-01 6.39975E-03 2.99062E+00 3.03533E-15-2.06956E-13
 -1      3848 1.44216E+01 1.58645E+00 5.58912E-02-3.27190E-01-7.55847E-14-1.66723E-13
 -1      3849 2.03259E+01 1.20557E+00-2.27752E-03 3.16489E-02 3.78583E-14-7.39387E-14
 -1      3850 2.03247E+01 1.20481E+00-2.78153E-03-2.86720E-02 1.65995E-14-9.27025E-14
 -1      3851 2.03786E+01 1.00832E+00 4.33233E-03 3.94203E-02 5.81643E-14-7.44369E-14
 -1      3852 1.32589E+01 1.11188E+00 5.01509E-03-1.14394E+00-2.04203E-14 1.17628E-13
 -1      3853 2.03215E+01 1.20705E+00 7.20387E-03 2.50676E-01 4.19126E-14-9.85478E-14
 -1      3854 1.91329E+01 7.29639E-01 4.49401E-03-5.24932E-01-1.57953E-13-6.35395E-13
 -1      3855 1.90122E+01 8.00929E-01-6.31135E-03-3.94075E-01 1.32493E-14-5.68501E-13
 -1      3856 2.28186E+01-3.55827E+00 3.95827E-02 2.79361E+00-1.03704E-13-5.08578E-14
 -1      3857 2.17393E+01-3.05334E+00 2.77149E-02 2.93713E+00-1.25067E-13-2.13683E-14
 -1      3858 2.34033E+01-3.38028E+00 4.71821E-03 1.97352E+00-1.80275E-13 3.48337E-14
 -1      3859 1.36036E+01 6.65476E-03 9.91404E-02-3.50775E+00-1.16022E-13-6.74738E-14
 -1      3860 1.48163E+01-5.43489E-01 1.47086E-02-3.83015E+00-9.23428E-14-3.36516E-13
 -1      3861 1.33837E+01 4.49852E-01 1.86737E-02-2.64567E+00-1.05959E-13 1.36054E-13
 -1      3862 2.01256E+01 1.65493E-02 4.43210E-04-1.93952E-01-3.27411E-14-1.21574E-13
 -1      3863 2.01419E+01 9.80818E-03-2.62467E-05-1.87583E-01-8.46359E-15-1.05035E-13
 -1      3864 2.01813E+01 1.53687E-02-3.00485E-04-1.66850E-01 2.00174E-15-9.01386E-14
 -1      3865 2.01313E+01 2.82132E-02-1.56694E-04-1.78072E-01-2.63574E-14-1.10267E-13
 -1      3866 1.38760E+01 1.20066E+00 3.87717E-02 1.07251E+00-2.35302E-14-3.09447E-13
 -1      3867 1.88731E+01 9.23794E-01 5.51645E-03-2.26762E-01 1.71632E-13-6.06322E-14
 -1      3868 1.87772E+01 9.90722E-01-6.37537E-03 2.80176E-02 1.75005E-13 8.65291E-15
 -1      3869 1.84855E+01 1.07058E+00-6.21491E-03 1.69329E-02-1.46886E-14 1.90507E-13
 -1      3870 1.87615E+01 8.72788E-01-3.39155E-03-3.92243E-01 3.12905E-14-5.32180E-13
 -1      3871 1.74158E+01 1.37768E+00 1.92595E-02 1.38324E-01-5.12229E-14 3.25406E-13
 -1      3872 2.23276E+01-2.50516E+00-1.85438E-02-1.53157E+00 3.58897E-14 5.48081E-13
 -1      3873 2.02876E+01 1.74430E-01-1.07423E-03-9.46789E-02 1.06247E-14-1.51200E-13
 -1      3874 2.03099E+01 2.44920E-01 1.75875E-03-5.77194E-02 1.20636E-14-1.50405E-13
 -1      3875 2.03182E+01 1.73301E-01-2.38900E-04-8.94441E-02 2.12185E-14-1.64757E-13
 -1      3876 2.03497E+01 3.33273E-01-6.38238E-05-2.30616E-02 2.88970E-14-1.34320E-13
 -1      3877 1.90612E+01-1.86470E+00 6.23108E-02 3.70454E+00-1.19670E-14-2.27764E-13
 -1      3878 1.82991E+01-1.19693E+00 3.27736E-03 3.33016E+00 1.55063E-14-2.13131E-13
 -1      3879 1.98436E+01-2.32384E+00-3.61847E-02 3.45569E+00-6.03515E-14-1.19259E-13
 -1      3880 2.03295E+01 5.61461E-01-1.53285E-03 9.79357E-02 3.76536E-14-1.28083E-13
 -1      3881 2.03421E+01 6.87134E-01 3.89704E-03 1.72678E-01 4.94913E-14-1.11033E-13
 -1      3882 2.03376E+01 8.47198E-01-4.45709E-03 2.08189E-01 6.18817E-14-1.01429E-13
 -1      3883 2.03588E+01 5.64202E-01 5.03926E-04 7.53147E-02 3.24263E-14-1.15721E-13
 -1      3884 1.94084E+01 5.27054E-01 3.44302E-03-7.20439E-01 2.94087E-14-2.61436E-13
 -1      3885 1.92643E+01 6.07639E-01-4.36209E-03-6.39773E-01 6.92523E-15-2.54084E-13
 -1      3886 1.91105E+01 6.50943E-01 2.29929E-03-6.68243E-01-3.84396E-14-3.01672E-13
 -1      3887 2.27470E+01-2.67012E+00-2.74276E-02 1.33985E+00-1.34074E-13 1.75424E-14
 -1      3888 2.21049E+01-3.44624E+00 4.03891E-03-3.12982E+00 1.17375E-13 6.15438E-13
 -1      3889 2.27541E+01-3.14188E+00 1.78088E-02-2.18417E+00 1.50218E-13 4.51804E-13
 -1      3890 2.10469E+01-2.91798E+00 1.35960E-02-3.34604E+00 1.49351E-13 5.71415E-13
 -1      3891 2.02025E+01-2.60243E+00 1.68817E-03-3.60152E+00 1.70180E-13 4.25329E-13
 -1      3892 2.07560E+01-2.53808E+00 7.38653E-03-3.12063E+00 2.24307E-13 5.09371E-13
 -1      3893 1.91747E+01-2.05081E+00 1.29681E-03-3.67235E+00 2.28401E-13 1.99195E-13
 -1      3894 2.55313E+01-1.62750E+00 3.37788E-02-8.82851E-01-1.19134E-13-1.03282E-13
 -1      3895 2.03701E+01 1.84969E-01 4.60781E-04 6.05793E-02-2.14566E-14-2.96070E-14
 -1      3896 2.03480E+01 1.28002E-01-5.45781E-04 7.95397E-02-1.09632E-14-1.59235E-14
 -1      3897 2.03251E+01 8.53910E-02 3.61323E-04 8.83726E-02-1.31089E-14-2.08069E-14
 -1      3898 2.02993E+01 5.42499E-02-1.79124E-04 1.00279E-01-4.72909E-14 9.71377E-16
 -1      3899 2.03555E+01 1.19730E-01-1.14618E-05 6.33495E-02-1.56144E-14-1.48366E-14
 -1      3900 2.02711E+01 3.38746E-02 1.88463E-04 1.05575E-01-4.83671E-14 1.65019E-15
 -1      3901 2.02438E+01 2.23560E-02 8.21594E-05 1.13410E-01-2.77407E-14-1.95796E-15
 -1      3902 2.03026E+01 5.22993E-02-1.57278E-04 7.89940E-02-1.19070E-14-1.23461E-14
 -1      3903 2.02122E+01 1.87487E-02-1.53284E-05 1.17206E-01-3.25580E-14 3.70882E-14
 -1      3904 2.01843E+01 2.20494E-02 2.57282E-04 1.23500E-01-2.92731E-14 6.93152E-14
 -1      3905 2.02423E+01 2.64245E-02-1.79609E-04 8.95232E-02-2.37498E-14 2.67024E-14
 -1      3906 2.01502E+01 3.11017E-02-2.30158E-04 1.27555E-01-2.72665E-14 1.25205E-13
 -1      3907 2.01219E+01 4.56087E-02 3.75326E-04 1.34463E-01-6.30753E-15 1.56219E-13
 -1      3908 2.01773E+01 3.21466E-02-9.98892E-05 9.84973E-02 1.85244E-14 1.18180E-13
 -1      3909 2.00854E+01 6.40881E-02-4.63167E-04 1.40395E-01-3.05806E-14 1.39134E-13
 -1      3910 2.00565E+01 8.69706E-02 4.64462E-04 1.49691E-01-3.90931E-14 1.45477E-13
 -1      3911 2.01084E+01 6.18977E-02 6.08514E-05 1.09173E-01-3.49329E-14 1.07464E-13
 -1      3912 2.00170E+01 1.12425E-01-7.24241E-04 1.58978E-01-6.00207E-14 1.28650E-13
 -1      3913 1.99869E+01 1.41370E-01 5.53286E-04 1.72348E-01-6.44503E-14 1.45412E-13
 -1      3914 2.00349E+01 1.09665E-01 2.27209E-04 1.24404E-01-7.04044E-14 5.54562E-14
 -1      3915 1.99437E+01 1.71493E-01-1.00131E-03 1.86584E-01-8.28842E-14 1.82244E-13
 -1      3916 1.99121E+01 2.04211E-01 6.78743E-04 2.05634E-01-9.74186E-14 1.67773E-13
 -1      3917 1.99555E+01 1.70835E-01 4.45453E-04 1.47298E-01-4.29677E-14 9.27519E-14
 -1      3918 1.98640E+01 2.36559E-01-1.30131E-03 2.26611E-01-1.40038E-13 1.41131E-13
 -1      3919 1.98309E+01 2.70410E-01 8.78644E-04 2.53039E-01-1.25762E-13 1.12088E-13
 -1      3920 1.98683E+01 2.40690E-01 6.63972E-04 1.81170E-01-1.27865E-13 1.07705E-13
 -1      3921 1.97773E+01 3.01913E-01-1.61860E-03 2.82938E-01-1.06804E-13 1.44687E-13
 -1      3922 1.97433E+01 3.33411E-01 1.20050E-03 3.18634E-01-4.96382E-14 1.44412E-13
 -1      3923 1.97715E+01 3.13957E-01 8.46513E-04 2.30052E-01-8.60525E-14 1.77550E-13
 -1      3924 1.96842E+01 3.59872E-01-1.93666E-03 3.60179E-01 2.93726E-14 1.30612E-13
 -1      3925 1.96514E+01 3.84156E-01 1.70349E-03 4.07302E-01 8.78198E-14 1.28666E-13
 -1      3926 1.96643E+01 3.83719E-01 9.43370E-04 2.99011E-01-3.76425E-14 1.52466E-13
 -1      3927 1.95878E+01 3.99705E-01-2.21870E-03 4.63899E-01 4.70452E-14 1.13082E-13
 -1      3928 1.95604E+01 4.09964E-01 2.45906E-03 5.24873E-01-1.85891E-14 8.27605E-14
 -1      3929 1.95477E+01 4.40315E-01 8.80106E-04 3.94516E-01 9.27446E-15 9.76481E-14
 -1      3930 1.94955E+01 4.06485E-01-2.39143E-03 6.00677E-01 1.85570E-14 8.82394E-14
 -1      3931 1.94806E+01 3.93355E-01 3.54386E-03 6.78013E-01 6.08749E-14 2.37378E-14
 -1      3932 1.94257E+01 4.70097E-01 5.40538E-04 5.24758E-01-5.67715E-17 8.99598E-14
 -1      3933 1.94210E+01 3.59939E-01-2.31715E-03 7.77783E-01 5.39493E-14-4.42263E-14
 -1      3934 1.94301E+01 3.10936E-01 5.01069E-03 8.73529E-01 5.94230E-14-5.47896E-14
 -1      3935 1.93076E+01 4.54020E-01-2.66805E-04 6.99749E-01-1.90867E-14 2.60980E-14
 -1      3936 1.93878E+01 2.33522E-01-1.74150E-03 1.00198E+00 6.96531E-14-9.29974E-14
 -1      3937 1.94385E+01 1.32740E-01 6.88709E-03 1.11639E+00 1.04128E-13-5.64378E-14
 -1      3938 1.92103E+01 3.66085E-01-1.86976E-03 9.30843E-01 7.35897E-14-9.46320E-14
 -1      3939 1.94337E+01-5.83423E-03-1.57156E-04 1.27699E+00 1.15858E-13 3.61338E-14
 -1      3940 1.95516E+01-1.78015E-01 8.99967E-03 1.40547E+00 1.16805E-13 3.76436E-14
 -1      3941 1.91629E+01 1.72176E-01-4.81755E-03 1.22895E+00 1.33008E-13-8.68853E-14
 -1      3942 1.96218E+01-4.00228E-01 3.31149E-03 1.59524E+00 2.63389E-14 8.76740E-14
 -1      3943 1.98370E+01-6.60773E-01 1.00375E-02 1.71918E+00 8.90520E-15 1.08985E-13
 -1      3944 1.92155E+01-1.75097E-01-1.03087E-02 1.60275E+00 8.28696E-14-1.44385E-14
 -1      3945 2.00453E+01-9.78945E-01 1.12696E-02 1.91646E+00 2.25414E-14 5.77893E-14
 -1      3946 2.04342E+01-1.33123E+00 1.56672E-02 1.98832E+00 1.04712E-13 9.85713E-15
 -1      3947 1.94733E+01-7.15392E-01-9.33114E-03 2.03960E+00 3.14800E-14 1.48258E-13
 -1      3948 2.02607E+01-1.62909E+00 2.45681E-02 2.50404E+00 5.29897E-14-3.22594E-14
 -1      3949 2.07909E+01-2.09388E+00 1.19393E-02 2.54152E+00-5.76457E-14 2.69021E-14
 -1      3950 2.39458E+01-3.23187E+00-2.75829E-02 1.24256E+00-1.78394E-13 1.21763E-13
 -1      3951 1.43804E+01 1.19311E+00-3.10081E-03-9.81815E-01-1.68320E-14 6.69369E-14
 -1      3952 1.37745E+01 9.98546E-01 6.27788E-02-1.73324E+00-4.45390E-15 2.80078E-13
 -1      3953 1.44777E+01 6.04845E-01-9.52579E-06-2.31768E+00 3.64752E-14 1.26116E-13
 -1      3954 2.51180E+01-9.82322E-01-6.43122E-02-1.42567E+00-8.00610E-14 8.60423E-15
 -1      3955 2.03403E+01 1.05849E+00-2.99898E-03-1.60878E-01 3.59955E-16-3.88461E-14
 -1      3956 2.03794E+01 8.63117E-01 2.47245E-03-1.05038E-01-2.72030E-15-3.89437E-14
 -1      3957 2.03382E+01 1.11591E+00-5.32923E-04-1.25116E-01 4.09515E-15-8.58009E-14
 -1      3958 2.03369E+01 1.01021E+00 2.26825E-04 1.79828E-01 5.21458E-14-1.02204E-13
 -1      3959 2.03761E+01 8.50959E-01 3.48764E-03 1.15062E-01 6.54177E-14-9.35742E-14
 -1      3960 2.33985E+01-3.04159E+00-6.36790E-03-1.37109E+00 1.75114E-13 4.56853E-13
 -1      3961 2.02215E+01-1.11633E+00 1.04591E-02-1.95794E+00-2.00112E-13 7.22987E-13
 -1      3962 1.99281E+01-7.77495E-01 1.14510E-02-1.84052E+00-3.32076E-14 6.39632E-13
 -1      3963 1.97862E+01-5.06793E-01 9.41170E-03-1.64765E+00 6.95048E-14 4.99130E-13
 -1      3964 1.96154E+01-2.69297E-01 2.90405E-03-1.51768E+00 1.02176E-13 4.84825E-13
 -1      3965 1.94160E+01-5.48822E-01-1.70352E-02-1.90405E+00-1.03049E-13 5.31839E-13
 -1      3966 1.95845E+01-7.78682E-02 7.53611E-03-1.33846E+00 1.90180E-13 5.79934E-13
 -1      3967 1.95077E+01 7.77461E-02 1.03010E-03-1.21500E+00 2.80738E-13 5.69806E-13
 -1      3968 1.92740E+01-5.77899E-02-6.51563E-03-1.49316E+00 1.54777E-13 5.78485E-13
 -1      3969 1.95453E+01 5.51143E-01-1.57641E-03-2.89269E-01-9.25812E-14 5.58927E-15
 -1      3970 1.96239E+01 4.84315E-01-1.86315E-03-2.68080E-01-4.82838E-14-5.76112E-14
 -1      3971 1.93360E+01 6.96885E-01-2.59766E-03-3.18191E-01-6.99130E-14 5.97050E-14
 -1      3972 1.94423E+01 6.22081E-01-2.25357E-03-2.97502E-01-8.98186E-14 1.02791E-14
 -1      3973 1.94552E+01 6.06228E-01 3.63957E-03-2.09096E-01-9.46036E-14 4.14059E-14
 -1      3974 1.97043E+01 4.22063E-01-8.56208E-04-2.57439E-01-2.47588E-14-8.40247E-14
 -1      3975 1.97632E+01 3.63786E-01-1.51930E-03-2.38011E-01-6.31451E-14-9.21698E-14
 -1      3976 1.96339E+01 4.71895E-01 2.60450E-03-1.98413E-01-7.28598E-14-5.81191E-14
 -1      3977 1.86877E+01 1.02506E+00-5.96304E-03-3.36495E-01 5.89085E-14-4.07009E-14
 -1      3978 1.88844E+01 9.41078E-01-3.37355E-03-3.28007E-01 1.04573E-13 1.03724E-14
 -1      3979 1.81911E+01 1.19101E+00-8.59672E-03-3.04727E-01-2.06839E-14-1.01401E-13
 -1      3980 1.84592E+01 1.11037E+00-4.36887E-03-3.09479E-01-3.14751E-14-8.20724E-14
 -1      3981 1.85269E+01 1.07189E+00 9.28066E-03-1.24165E-01 5.39649E-14-3.32327E-14
 -1      3982 1.75208E+01 1.33648E+00-1.22295E-02-2.29873E-01-7.48851E-14-8.91893E-14
 -1      3983 1.78878E+01 1.26939E+00-6.02960E-03-2.51896E-01 1.92508E-14-6.70053E-14
 -1      3984 1.80051E+01 1.22120E+00 1.29135E-02-1.06006E-02-3.22174E-14-1.79212E-13
 -1      3985 1.66056E+01 1.43440E+00-1.64685E-02-1.02152E-01-9.16628E-14-6.37783E-14
 -1      3986 1.71119E+01 1.39597E+00-8.69159E-03-1.41744E-01-1.65739E-13-8.96806E-14
 -1      3987 1.73104E+01 1.34039E+00 1.86189E-02 1.78772E-01-1.22867E-13-1.49141E-13
 -1      3988 1.53091E+01 1.44409E+00-1.88850E-02 7.94781E-02-5.17013E-14-1.43815E-13
 -1      3989 1.60370E+01 1.46474E+00-1.03090E-02 2.56027E-02 3.07675E-14-9.08462E-14
 -1      3990 1.63610E+01 1.40362E+00 2.60013E-02 4.78182E-01-3.14426E-14-7.39242E-14
 -1      3991 1.67505E+01 1.26920E+00-1.01113E-02-4.08416E-01 4.85326E-14-3.58906E-14
 -1      3992 1.61719E+01 1.28122E+00-1.51543E-02-5.63078E-01 3.03598E-14-5.80144E-14
 -1      3993 2.03707E+01 3.08832E-01-1.12879E-03-3.63926E-02 5.06630E-14-1.58216E-13
 -1      3994 2.03825E+01 4.16706E-01 1.36071E-04 6.89796E-03 3.85673E-14-1.27688E-13
 -1      3995 2.22897E+01-2.79958E+00-1.69331E-02 2.00296E+00-8.69088E-14 1.20552E-13
 -1      3996 2.29657E+01-3.04699E+00-1.50414E-02 1.75847E+00-5.93570E-14 1.08369E-13
 -1      3997 2.23755E+01-2.90225E+00-4.47868E-03-2.08740E+00 2.16480E-13 4.22659E-13
 -1      3998 2.17424E+01-2.47892E+00 2.98831E-02-2.23301E+00 1.22153E-13 5.12664E-13
 -1      3999 1.90583E+01 8.56770E-01-4.01769E-03-3.37126E-01 2.00937E-14-3.18447E-14
 -1      4000 1.92027E+01 7.75644E-01-2.72809E-03-3.20323E-01-9.40597E-15 1.87412E-14
 -1      4001 1.92239E+01 7.54374E-01 4.99247E-03-2.07676E-01-1.04623E-14-6.10356E-14
 -1      4002 1.76178E+01 1.20817E+00-8.25389E-03-2.01042E-01-2.04586E-13 1.04811E-13
 -1      4003 1.71930E+01 1.25076E+00-1.41763E-02-2.66891E-01-1.17434E-13-5.39705E-15
 -1      4004 1.71453E+01 1.15422E+00 2.18751E-02-7.61121E-01-9.69980E-14-2.10407E-13
 -1      4005 1.52079E+01 1.26625E+00-8.81231E-03-7.67968E-01 1.82649E-14-5.65520E-16
 -1      4006 2.10332E+01-1.98144E+00 9.87097E-04-2.17583E+00-5.05277E-14 5.76056E-13
 -1      4007 2.05861E+01-1.54063E+00 2.08080E-02-2.14551E+00-1.50673E-13 5.53525E-13
 -1      4008 1.98570E+01-1.28277E+00-2.61725E-02-2.35575E+00-9.50978E-14 8.26763E-13
 -1      4009 2.08259E+01-2.30074E+00-1.39526E-02-2.73487E+00 1.29026E-13 5.65112E-13
 -1      4010 2.02455E+01 2.72991E-02 3.71582E-05-1.34655E-01-6.46813E-15-9.57429E-14
 -1      4011 2.02701E+01 4.37334E-02 3.17681E-04-1.24677E-01-5.27600E-16-1.39329E-13
 -1      4012 1.96111E+01 3.59472E-01 1.54443E-03-8.29589E-01 4.98706E-13 2.68485E-13
 -1      4013 1.94985E+01 4.37812E-01-3.28409E-03-7.76922E-01 2.23518E-13-4.97076E-14
 -1      4014 1.93681E+01 4.52802E-01-4.57873E-04-8.35658E-01 2.26854E-13 8.03455E-14
 -1      4015 1.96011E+01 2.97690E-01 3.10579E-03-9.11544E-01 5.02088E-13 2.35552E-13
 -1      4016 2.03985E+01 3.48575E-01 3.05989E-04 1.69404E-02-2.94346E-14-7.27210E-14
 -1      4017 2.03843E+01 2.57918E-01-7.37721E-04 4.59142E-02-2.85562E-14-5.59857E-14
 -1      4018 2.03959E+01 2.41447E-01 2.11728E-04 3.88909E-02-3.88887E-15-1.54942E-14
 -1      4019 1.82440E+01 1.11498E+00-6.22166E-03-4.24290E-02-1.06025E-13 1.93657E-13
 -1      4020 1.79201E+01 1.16603E+00-1.19036E-02-1.10764E-01-1.84810E-13 1.87547E-13
 -1      4021 1.78681E+01 1.11825E+00 1.79942E-02-4.77127E-01-3.35178E-13-7.26710E-14
 -1      4022 1.83879E+01 1.05197E+00 1.35919E-02-2.89613E-01-6.77303E-14-2.95658E-13
 -1      4023 1.45893E+01 1.02829E+00 2.58422E-02 1.75331E+00-3.68325E-14-2.84803E-13
 -1      4024 1.41610E+01 1.29572E+00-2.75425E-02 6.92734E-01-1.23841E-13-2.51006E-13
 -1      4025 1.49379E+01 1.40306E+00 1.55551E-02 3.82777E-01-1.18485E-13-1.87092E-13
 -1      4026 1.56936E+01 6.85342E-01 1.93733E-02 2.06806E+00 1.68051E-14-1.66046E-13
 -1      4027 2.02958E+01 7.00783E-02-1.48034E-04-1.16833E-01 2.25570E-14-1.48868E-13
 -1      4028 2.03190E+01 1.07371E-01 4.77694E-04-1.00392E-01 3.35433E-14-1.32470E-13
 -1      4029 2.03069E+01 6.74684E-02-3.12375E-04-9.90546E-02 2.15825E-15-1.54861E-13
 -1      4030 1.94328E+01-1.32357E+00-8.55816E-03 2.74789E+00 5.07793E-14-5.29355E-14
 -1      4031 1.99555E+01 1.88282E-01 7.89956E-04-2.31587E-01-7.99431E-14-5.79794E-14
 -1      4032 2.02165E+01 1.93324E-02 1.09552E-04-1.39362E-01 1.61864E-14-7.35262E-14
 -1      4033 2.02515E+01 3.00556E-02-2.50407E-04-1.13602E-01-1.48059E-14-5.47925E-14
 -1      4034 2.01914E+01 1.90084E-02 1.82749E-04-1.46085E-01 4.84381E-16-6.90043E-14
 -1      4035 2.00042E+01 1.38479E-01 1.72944E-04-1.81656E-01-3.83000E-14-4.95427E-14
 -1      4036 2.00346E+01 1.06060E-01-6.41723E-04-1.71946E-01-4.75629E-14-7.84565E-14
 -1      4037 1.89224E+01 9.12136E-01 6.79480E-03-1.83964E-01 3.50468E-14-9.34504E-14
 -1      4038 1.97738E+01 3.53372E-01 1.80395E-03-1.82681E-01-5.60087E-14-1.05555E-13
 -1      4039 1.98271E+01 3.10332E-01-3.60857E-04-2.27389E-01-6.17758E-14-7.94215E-14
 -1      4040 1.98724E+01 2.60661E-01-1.20635E-03-2.10980E-01-9.87252E-14-1.25802E-14
 -1      4041 1.95596E+01 1.55335E-01 4.07718E-03-1.09838E+00 3.06821E-13 5.03770E-13
 -1      4042 1.95450E+01 2.45957E-01 4.49952E-04-1.00294E+00 4.18484E-13 3.73851E-13
 -1      4043 1.94225E+01 3.27870E-01 5.26594E-04-9.74397E-01 3.27152E-13 3.95901E-13
 -1      4044 1.93143E+01 2.00109E-01-2.29958E-03-1.18282E+00 2.52174E-13 6.09127E-13
 -1      4045 1.62708E+01-9.09622E-01 5.87691E-02-4.01458E+00-7.10647E-14-6.01288E-13
 -1      4046 1.76206E+01-1.31961E+00 1.43127E-02-3.79485E+00 3.27741E-14-4.71081E-13
 -1      4047 1.56145E+01-3.41052E-01 8.49408E-03-3.43466E+00-9.68010E-14-4.42658E-13
 -1      4048 2.00726E+01 7.87780E-02 2.93385E-04-1.66736E-01-1.65108E-14-1.02544E-13
 -1      4049 2.00998E+01 5.55073E-02-4.27398E-04-1.59366E-01-2.96284E-14-1.12782E-13
 -1      4050 2.00566E+01 9.97632E-02 3.10985E-04-1.40530E-01-4.82085E-14-1.25225E-14
 -1      4051 1.58269E+01 1.13795E+00 3.37436E-02-1.22383E+00 9.36382E-15-5.93618E-14
 -1      4052 1.53525E+01 1.31335E+00 2.13214E-02 1.00045E+00 3.04704E-15-1.12827E-13
 -1      4053 2.03926E+01 8.24583E-01-3.29400E-03 4.41760E-02 8.72650E-14-5.38089E-14
 -1      4054 2.03964E+01 8.40041E-01-1.83621E-03 1.14730E-02 6.03581E-14-3.56944E-14
 -1      4055 2.01349E+01-1.88644E+00 3.19767E-02-2.95751E+00 5.15811E-14 5.46943E-13
 -1      4056 2.03297E+01 1.18434E+00-1.27266E-03-5.78930E-02 8.79268E-15-1.16431E-13
 -1      4057 2.03329E+01 1.14668E+00-2.96811E-03-1.00831E-01 1.07226E-14-1.09062E-13
 -1      4058 2.03838E+01 9.42051E-01 3.38523E-03-6.72327E-02-4.77354E-17-9.55107E-14
 -1      4059 2.03822E+01 9.97584E-01 4.23706E-03-2.31113E-02 3.70528E-14-8.53562E-14
 -1      4060 2.03954E+01 7.66797E-01-1.95873E-04-6.56947E-02-1.34598E-14-4.65991E-14
 -1      4061 2.03892E+01 7.21012E-01-1.72499E-03-8.08613E-02-1.44067E-14-3.73140E-14
 -1      4062 2.03992E+01 6.03583E-01 4.33445E-04-4.40424E-02-2.25104E-14-4.57033E-14
 -1      4063 1.87950E+01 7.65303E-01 2.97766E-03-6.56242E-01-5.86457E-14-6.75452E-13
 -1      4064 1.85861E+01 8.82133E-01-2.75724E-03-4.90509E-01 3.24738E-14-5.47408E-13
 -1      4065 1.83451E+01 8.99353E-01-1.04173E-02-5.79879E-01-8.85302E-14-4.57610E-13
 -1      4066 2.03396E+01 1.57606E-01-4.88150E-04-8.69757E-02 1.46398E-14-1.62544E-13
 -1      4067 2.03594E+01 2.22721E-01 7.56461E-04-6.03542E-02 2.23283E-14-1.57948E-13
 -1      4068 2.03547E+01 1.49895E-01-2.68006E-04-7.50169E-02 1.22770E-14-1.25300E-13
 -1      4069 2.03894E+01 2.96251E-01 7.16696E-05-3.52524E-02 3.02486E-14-1.34393E-13
 -1      4070 2.04039E+01 5.10963E-01-3.54847E-04-2.57245E-02-2.79800E-14-4.83066E-14
 -1      4071 2.04003E+01 4.17704E-01-3.99420E-04 3.28452E-03-3.64980E-14-5.59601E-14
 -1      4072 2.04136E+01 3.92379E-01 5.47405E-04 8.44173E-03-4.28552E-14-6.71429E-14
 -1      4073 2.04134E+01 5.47015E-01-2.24162E-04-2.24728E-02-4.64416E-14-9.05592E-14
 -1      4074 1.86030E+01-1.06456E+00-1.21341E-02 2.96776E+00-3.44648E-14-1.80498E-13
 -1      4075 1.80093E+01-6.66352E-01 3.51721E-02 3.00787E+00-1.52742E-14-1.42889E-13
 -1      4076 1.74119E+01-2.76489E-01-5.46651E-03 2.71721E+00-1.73435E-14-1.35989E-13
 -1      4077 1.89954E+01-8.38077E-01-9.99342E-03 2.50231E+00 5.49144E-14 3.44646E-15
 -1      4078 1.89527E+01 6.42258E-01-7.01524E-04-7.78138E-01 9.99985E-14-2.50516E-13
 -1      4079 2.03801E+01 1.46387E-01-3.92708E-05 3.69114E-02-2.90051E-14 1.17144E-14
 -1      4080 2.03566E+01 1.00055E-01 2.33460E-05 4.80067E-02-2.69201E-14-3.96378E-15
 -1      4081 2.03844E+01 6.32001E-01-2.18858E-03 8.23295E-02 5.26873E-14-1.16321E-13
 -1      4082 2.03959E+01 7.79939E-01 9.86802E-04 6.32651E-02 7.81744E-14-9.91868E-14
 -1      4083 2.04199E+01 6.39149E-01 2.59695E-03 2.83868E-02 8.16984E-14-6.01831E-14
 -1      4084 2.03850E+01 5.10039E-01-9.13857E-04 2.76203E-02 4.86738E-14-1.22881E-13
 -1      4085 1.84382E+01-1.54270E+00 1.89749E-02-3.66227E+00 1.01876E-13-1.90117E-13
 -1      4086 1.91467E+01-1.66479E+00 8.38879E-03-3.31942E+00 1.58113E-13 1.52515E-13
 -1      4087 1.75422E+01-9.66809E-01-1.38059E-02-3.41579E+00-5.30739E-14-5.56049E-13
 -1      4088 2.03290E+01 6.57492E-02 3.13836E-05 4.96714E-02-2.04126E-14 9.88494E-15
 -1      4089 2.03004E+01 4.33285E-02 1.14179E-04 5.71342E-02-1.00147E-14-1.12400E-14
 -1      4090 2.03507E+01 8.93185E-02-3.85943E-04 2.50201E-02-1.66306E-14 4.00531E-14
 -1      4091 2.02682E+01 3.02752E-02 1.60684E-05 5.81516E-02 6.45813E-15-4.65430E-15
 -1      4092 2.02366E+01 2.62606E-02 2.06694E-04 6.37638E-02 4.12021E-15 3.47792E-14
 -1      4093 2.02913E+01 4.15579E-02-3.75307E-04 3.03037E-02 4.92665E-16 5.22920E-15
 -1      4094 2.02009E+01 2.92275E-02-1.52051E-04 6.50997E-02 2.73601E-14 1.40842E-14
 -1      4095 2.01673E+01 3.94328E-02 2.07986E-04 7.03363E-02 5.04012E-14 4.13331E-14
 -1      4096 2.02241E+01 3.20521E-02-2.34596E-04 3.47961E-02 1.73214E-14 2.20626E-14
 -1      4097 2.01288E+01 5.48523E-02-2.66936E-04 7.31077E-02-1.87713E-14 2.97477E-14
 -1      4098 2.00935E+01 7.57059E-02 2.64797E-04 7.94962E-02-5.11500E-14 3.46001E-14
 -1      4099 2.01511E+01 5.19839E-02 9.31068E-05 4.01191E-02 2.94767E-15-5.49206E-14
 -1      4100 2.00510E+01 1.00576E-01-5.80984E-04 8.41980E-02-4.60806E-14 4.12936E-14
 -1      4101 2.00136E+01 1.30090E-01 3.33779E-04 9.32919E-02-4.62538E-14 7.25038E-14
 -1      4102 2.00724E+01 9.53866E-02 3.85079E-04 4.78277E-02-2.96074E-14-1.72358E-14
 -1      4103 1.99664E+01 1.61879E-01-9.22466E-04 1.01353E-01-3.31997E-14 3.05374E-14
 -1      4104 1.99259E+01 1.97778E-01 3.96559E-04 1.14507E-01-4.76944E-14 3.61466E-14
 -1      4105 1.99863E+01 1.56809E-01 9.05209E-04 6.02605E-02-2.58297E-14 1.00823E-14
 -1      4106 1.98723E+01 2.34503E-01-1.33277E-03 1.27491E-01-1.11931E-13 7.66313E-14
 -1      4107 1.98280E+01 2.74711E-01 5.35863E-04 1.46471E-01-1.36268E-13 8.07533E-14
 -1      4108 1.98902E+01 2.32149E-01 1.51718E-03 7.98592E-02-5.39797E-14 1.63847E-14
 -1      4109 1.97661E+01 3.13960E-01-1.83970E-03 1.66484E-01-1.08919E-13 1.14594E-13
 -1      4110 1.97177E+01 3.55980E-01 8.04678E-04 1.93509E-01-5.39936E-14 1.24108E-13
 -1      4111 1.97809E+01 3.17394E-01 2.20474E-03 1.10217E-01-9.75717E-14 3.59623E-14
 -1      4112 1.96454E+01 3.94607E-01-2.46115E-03 2.23441E-01-3.95523E-14 1.07036E-13
 -1      4113 1.95932E+01 4.35025E-01 1.27493E-03 2.61375E-01 1.60468E-14 1.13422E-13
 -1      4114 1.96547E+01 4.07754E-01 2.94778E-03 1.56289E-01-2.30712E-14 8.31490E-15
 -1      4115 1.95088E+01 4.68604E-01-3.21468E-03 3.05176E-01 1.84203E-14 7.41150E-14
 -1      4116 1.94545E+01 5.02531E-01 2.04316E-03 3.57739E-01-5.77739E-14 1.89349E-14
 -1      4117 1.95085E+01 4.96690E-01 3.71669E-03 2.24964E-01-2.13740E-14-7.11871E-15
 -1      4118 1.93570E+01 5.24729E-01-4.11112E-03 4.20730E-01-2.23341E-14 7.46700E-14
 -1      4119 1.93044E+01 5.45155E-01 3.23820E-03 4.92670E-01 3.04815E-14 4.70142E-14
 -1      4120 1.93402E+01 5.74774E-01 4.46174E-03 3.25716E-01-1.24378E-14 3.29805E-14
 -1      4121 1.91939E+01 5.47012E-01-5.14383E-03 5.81861E-01-4.64350E-15 1.39790E-13
 -1      4122 1.91505E+01 5.44040E-01 5.02583E-03 6.79002E-01 1.57583E-14 1.41184E-13
 -1      4123 1.91495E+01 6.28299E-01 5.09043E-03 4.71348E-01 1.12437E-13 1.14252E-13
 -1      4124 1.90296E+01 5.13091E-01-6.27039E-03 8.03362E-01 1.22632E-14 8.35206E-14
 -1      4125 1.90081E+01 4.73000E-01 7.59547E-03 9.32287E-01 7.18934E-14 1.50976E-14
 -1      4126 1.89401E+01 6.37526E-01 5.40846E-03 6.78801E-01 1.20987E-14 2.32415E-13
 -1      4127 1.88841E+01 3.92035E-01-7.39484E-03 1.10262E+00 7.49032E-14-4.44257E-15
 -1      4128 1.89042E+01 2.95743E-01 1.05881E-02 1.26986E+00 9.78640E-14-1.38690E-14
 -1      4129 1.87218E+01 5.74156E-01 4.98146E-03 9.69880E-01 5.33139E-14 1.97275E-13
 -1      4130 1.87924E+01 1.47742E-01-6.90589E-03 1.49588E+00 1.51632E-13-9.18012E-14
 -1      4131 1.88733E+01-3.88695E-02 9.89201E-03 1.71171E+00 1.17762E-13-3.07694E-14
 -1      4132 1.85192E+01 3.97259E-01 3.50066E-03 1.36979E+00 1.09007E-13-1.06643E-14
 -1      4133 1.88058E+01-2.41422E-01-6.06444E-03 1.95431E+00 4.18769E-14 4.91485E-14
 -1      4134 1.89931E+01-5.38478E-01 9.49223E-03 2.21447E+00 1.08670E-13 1.01946E-13
 -1      4135 1.83033E+01-3.09397E-01 9.61963E-03 2.39306E+00 1.53887E-14 7.20778E-16
 -1      4136 1.83561E+01 9.37371E-02-8.36116E-03 1.83326E+00 1.39909E-13-7.25458E-14
 -1      4137 1.99244E+01 2.15847E-01-3.22798E-05-2.01778E-01-9.64491E-14-5.90545E-16
 -1      4138 1.99605E+01 1.74723E-01-9.17636E-04-1.88829E-01-3.72684E-14-8.74986E-15
 -1      4139 1.99778E+01 1.66670E-01 6.96697E-04-1.52001E-01-6.64795E-14 2.96732E-14
 -1      4140 1.90475E+01-4.08948E-01 1.42540E-02-2.06170E+00-2.45284E-13 4.56054E-13
 -1      4141 1.88828E+01-1.38048E-01-9.91526E-04-1.83595E+00-1.65037E-13 2.67440E-13
 -1      4142 1.88021E+01 9.00066E-01-7.20587E-03-2.29228E-02-3.97577E-16-6.79795E-17
 -1      4143 1.89854E+01 8.34115E-01-8.80690E-04-5.23152E-02 3.18805E-14-6.05923E-14
 -1      4144 2.04155E+01 2.86868E-01-7.24336E-05 1.82106E-02-1.83453E-14 2.87146E-14
 -1      4145 2.04006E+01 2.08470E-01-7.08765E-05 3.36276E-02-6.76333E-15 3.30455E-14
 -1      4146 2.03981E+01 1.86557E-01-4.05023E-04 1.74150E-02-3.46536E-14 7.06037E-14
 -1      4147 1.89653E+01 6.72314E-02 1.11352E-02-1.56584E+00 7.81019E-14 1.78647E-13
 -1      4148 1.89333E+01 2.24264E-01-2.81042E-03-1.36829E+00 2.50477E-13 2.70772E-13
 -1      4149 1.85013E+01 1.62439E-01-8.83422E-04-1.70045E+00-1.15192E-13 7.39042E-14
 -1      4150 1.93728E+01 6.24908E-01-3.34639E-03-1.18560E-01-3.54236E-14 7.52150E-14
 -1      4151 1.94789E+01 5.59850E-01-1.07351E-03-1.20814E-01-9.64157E-14 7.56117E-14
 -1      4152 2.04059E+01 4.87977E-01 7.93274E-04 1.43811E-02 6.95096E-14-1.50514E-13
 -1      4153 2.04214E+01 5.29681E-01-9.28732E-04 1.89896E-02 6.34028E-14-8.74995E-14
 -1      4154 2.04256E+01 5.85992E-01 5.72029E-04 1.12842E-02 7.22988E-14-4.40674E-15
 -1      4155 2.04181E+01 4.39484E-01-6.98001E-06-3.42064E-03 5.24340E-14-9.37596E-14
 -1      4156 1.95687E+01 4.95593E-01-2.17877E-03-1.29385E-01-1.39026E-13 6.82863E-14
 -1      4157 1.96505E+01 4.35623E-01-1.01192E-03-1.26049E-01-8.93773E-14 3.00690E-16
 -1      4158 1.95181E+01 5.32070E-01 4.14637E-03-4.51330E-02-9.98456E-14 9.17190E-14
 -1      4159 1.78514E+01 1.12783E+00-1.45606E-02 2.79923E-01-9.26184E-14-2.69169E-14
 -1      4160 1.81754E+01 1.08890E+00-1.95392E-07 1.88161E-01-3.44953E-14-4.31036E-14
 -1      4161 1.83883E+01 1.02776E+00-1.03052E-02 9.19087E-02 6.18689E-14-2.86217E-14
 -1      4162 1.86311E+01 9.70203E-01-5.62310E-04 3.69306E-02 4.36568E-14-2.69685E-14
 -1      4163 1.87474E+01 9.03804E-01 8.30210E-03 1.76443E-01 1.91725E-14 2.97273E-14
 -1      4164 1.83505E+01 9.99021E-01 1.01153E-02 3.60269E-01 3.34933E-14 6.26704E-14
 -1      4165 1.62446E+01 1.14420E+00-1.14259E-02 1.01754E+00 5.10438E-14-1.24615E-13
 -1      4166 1.68191E+01 1.17746E+00 4.46091E-03 7.85493E-01-7.04905E-14-9.92735E-14
 -1      4167 1.57242E+01 8.94571E-01-8.97125E-03 1.68316E+00-1.67401E-16-1.37760E-13
 -1      4168 1.61182E+01 1.03578E+00 1.40127E-02 1.32513E+00 4.15406E-14-1.73443E-13
 -1      4169 1.66904E+01 8.24519E-01 1.13210E-02 1.63056E+00 2.90662E-14-3.57464E-13
 -1      4170 1.93937E+01-1.48418E+00 5.59998E-03-2.96631E+00 1.59386E-14 3.89700E-13
 -1      4171 2.01343E+01 3.78352E-02 3.13685E-04-1.55748E-01-2.98546E-14-7.92172E-14
 -1      4172 2.01598E+01 2.53958E-02-1.19755E-04-1.49596E-01 2.31603E-15-2.79915E-14
 -1      4173 2.01913E+01 2.75781E-02-1.06600E-04-1.23158E-01-3.09600E-14-7.04160E-14
 -1      4174 2.03988E+01 2.37038E-01 1.30437E-04-4.18430E-02 7.27239E-15-5.05068E-14
 -1      4175 2.04129E+01 3.26350E-01-3.13452E-04-1.71533E-02 2.21864E-14-6.40225E-14
 -1      4176 2.04263E+01 3.71861E-01 4.07538E-04-8.15081E-03 2.35404E-14-2.27977E-15
 -1      4177 1.65133E+01 3.94060E-01 2.16184E-03 2.30800E+00-6.22028E-15-2.46834E-13
 -1      4178 2.04246E+01 6.80311E-01 2.09238E-03 7.03667E-03 5.03784E-14-2.28958E-14
 -1      4179 2.03980E+01 8.30504E-01-1.52399E-03-3.07255E-03 3.57763E-14-5.21766E-14
 -1      4180 2.03998E+01 8.08421E-01-2.21204E-03-2.38767E-02 1.87396E-14-7.00287E-14
 -1      4181 1.66538E+01 7.89425E-01-5.47518E-03-1.53607E+00 1.49725E-13-3.00953E-13
 -1      4182 1.57506E+01 7.13369E-01-1.01832E-02-1.91876E+00 1.37089E-13-3.30814E-14
 -1      4183 1.91229E+01 7.62038E-01-4.96556E-03-8.73215E-02 4.79943E-14-5.02252E-14
 -1      4184 1.92619E+01 6.94417E-01-1.03969E-03-9.98625E-02 2.38769E-14 5.03786E-14
 -1      4185 1.93161E+01 6.57901E-01 5.36040E-03-7.16509E-03 4.20838E-14 5.68627E-14
 -1      4186 1.71508E+01 1.17622E+00-1.87959E-02 5.71647E-01-1.11261E-13-2.96175E-14
 -1      4187 1.75850E+01 1.17008E+00 1.26506E-03 4.27885E-01-6.04364E-14-6.03424E-15
 -1      4188 1.78513E+01 1.04857E+00 1.23842E-02 6.43155E-01-8.88641E-14 5.02672E-14
 -1      4189 1.72124E+01 1.02209E+00 1.44031E-02 1.06372E+00-3.24282E-14-3.93492E-14
 -1      4190 1.75659E+01 9.12194E-01-3.68524E-03-9.88787E-01-1.80712E-13-5.57916E-14
 -1      4191 1.71113E+01 8.78498E-01-2.23828E-02-1.18493E+00 7.49314E-15-1.23263E-13
 -1      4192 1.57120E+01 3.25136E-01 4.36360E-02-2.63014E+00 8.95332E-14-2.11217E-13
 -1      4193 2.04219E+01 3.47749E-01-8.08082E-05 1.53523E-02-1.60617E-14 9.48717E-15
 -1      4194 2.04238E+01 3.13975E-01-1.36958E-04 8.33732E-03-5.64192E-15 9.20402E-14
 -1      4195 2.04266E+01 4.17553E-01 7.73443E-04 9.63370E-04-2.88363E-14-8.89805E-15
 -1      4196 1.91834E+01 4.59269E-01-3.58647E-04-9.31540E-01 1.94533E-13 1.53895E-13
 -1      4197 1.88690E+01 5.71108E-01 3.36546E-03-9.38142E-01 9.39410E-14-1.46671E-13
 -1      4198 1.81362E+01 9.11257E-01-3.38911E-03-6.97711E-01-2.48292E-13-2.85300E-13
 -1      4199 1.78291E+01 9.10679E-01-1.45866E-02-8.23163E-01-3.22068E-13-2.13616E-13
 -1      4200 1.79722E+01 7.27144E-01 1.23517E-02-1.20414E+00-1.32892E-13 7.48603E-14
 -1      4201 1.84337E+01 7.58161E-01 7.04676E-03-8.92645E-01 2.58647E-15-2.69996E-13
 -1      4202 1.90508E+01-9.68431E-01 4.35685E-03-2.64654E+00-2.02590E-14 4.56561E-13
 -1      4203 1.83530E+01-5.45672E-01-4.62835E-03-2.60498E+00-1.53170E-13-2.96026E-14
 -1      4204 1.90637E+01 7.85094E-01 6.73862E-03 6.13367E-02 5.59960E-14 1.49899E-13
 -1      4205 1.86656E+01 5.37116E-01-5.94804E-03-1.07902E+00 1.33721E-13-5.30495E-14
 -1      4206 1.72547E+01 5.63103E-01 1.01784E-02-1.76570E+00 7.75791E-14-1.80111E-13
 -1      4207 1.97238E+01 3.78097E-01-1.34233E-03-1.28822E-01-5.53580E-14-3.20803E-14
 -1      4208 1.97879E+01 3.24659E-01-8.83983E-04-1.23053E-01-4.03008E-14 5.69575E-16
 -1      4209 1.96807E+01 4.13829E-01 3.08488E-03-6.40223E-02-8.19865E-14 9.40355E-14
 -1      4210 1.91881E+01 2.65801E-01 3.61621E-03-1.18996E+00 2.38847E-13 4.13054E-13
 -1      4211 1.92238E+01 3.25493E-01-4.43029E-03-1.07510E+00 2.26820E-13 4.95150E-13
 -1      4212 2.00397E+01 1.15405E-01-6.84553E-05-1.08218E-01-4.07827E-14 1.76468E-14
 -1      4213 2.00773E+01 8.63490E-02-3.43651E-04-1.03265E-01-2.05471E-14 2.98140E-14
 -1      4214 2.01269E+01 5.26418E-02 3.00337E-06-1.31526E-01-2.88358E-14-1.21918E-14
 -1      4215 1.98856E+01 2.51480E-01 1.18117E-03-1.66386E-01-6.95924E-14 1.73337E-17
 -1      4216 2.17135E+01-2.63751E+00 4.54350E-02 2.51558E+00-1.20589E-13 7.79862E-14
 -1      4217 1.99517E+01 1.86679E-01-3.40150E-04-1.15417E-01-7.28246E-14 3.87660E-14
 -1      4218 1.99948E+01 1.48770E-01-5.06575E-04-1.09656E-01-9.23106E-14 3.05665E-14
 -1      4219 2.00179E+01 1.37410E-01 6.81881E-04-7.23729E-02-5.24271E-14 5.55136E-15
 -1      4220 1.78680E+01-1.64516E-01 2.16554E-03 2.39997E+00 1.14728E-14-7.47232E-14
 -1      4221 1.70541E+01 2.02265E-01 1.72015E-02 2.35622E+00-1.49095E-14-1.27266E-13
 -1      4222 1.70001E+01 4.23811E-01-1.34393E-02 2.02087E+00 4.98121E-14-2.37813E-13
 -1      4223 1.78964E+01 7.76236E-02-4.34889E-03 2.09768E+00 9.61882E-14-5.13145E-14
 -1      4224 2.03818E+01 1.68480E-01-9.30748E-06-4.78042E-02 5.27764E-15-4.47482E-14
 -1      4225 2.03985E+01 1.95943E-01-6.11131E-04-2.69035E-02 5.15433E-15 3.09594E-14
 -1      4226 2.03589E+01 1.17319E-01 2.95689E-04-6.30451E-02 8.38004E-15-3.86409E-14
 -1      4227 2.03988E+01 8.07919E-01-1.03893E-03-3.74764E-02 7.63380E-16-8.22189E-14
 -1      4228 2.03979E+01 7.74837E-01-1.96968E-03-5.45965E-02-1.21552E-14-7.31373E-14
 -1      4229 2.04168E+01 6.54832E-01 2.38879E-03-3.26778E-02-3.58590E-14-8.11276E-14
 -1      4230 2.04276E+01 6.67078E-01 3.32539E-03-1.42981E-02-5.25772E-15-5.74412E-14
 -1      4231 2.02525E+01 2.78415E-02 5.62818E-05-9.01675E-02-5.92700E-14-1.10625E-15
 -1      4232 2.02826E+01 3.77568E-02 2.22290E-04-8.35258E-02-3.33081E-14-2.55707E-14
 -1      4233 1.67156E+01-1.15999E-01-5.84476E-03-2.84341E+00 5.97942E-14-6.23324E-13
 -1      4234 1.93081E+01 4.13163E-01 9.60981E-04-9.21103E-01 2.12547E-13 2.94238E-13
 -1      4235 1.88786E+01 3.55567E-01 3.99800E-03-1.25485E+00 2.08153E-13 7.68732E-14
 -1      4236 2.03090E+01 5.42573E-02 1.32667E-04-7.84485E-02-2.80147E-14-2.79545E-14
 -1      4237 2.03367E+01 8.23917E-02 1.85190E-04-6.86686E-02-7.59280E-16-5.80200E-14
 -1      4238 2.03550E+01 9.90106E-02-8.85580E-04-4.05814E-02-1.65964E-14 7.26642E-14
 -1      4239 2.03053E+01 5.04493E-02-6.58012E-04-5.41544E-02-5.78869E-14 7.29739E-14
 -1      4240 1.94849E+01 5.13915E-01-3.90049E-03 8.23284E-02-4.53386E-14 3.40473E-14
 -1      4241 1.95787E+01 4.60447E-01-1.20021E-03 6.43886E-02-6.91850E-14 6.68098E-14
 -1      4242 1.83913E+01 5.51743E-01 2.41424E-03-1.22482E+00 1.76608E-14 9.35891E-15
 -1      4243 1.81130E+01 4.86560E-01-1.32533E-02-1.41556E+00-6.17050E-14 9.87572E-14
 -1      4244 2.03604E+01 9.61423E-02 1.58249E-04-1.11769E-02-3.30333E-14 7.33915E-14
 -1      4245 2.03328E+01 6.36923E-02 5.99166E-04-8.66429E-03-2.28756E-14 6.59733E-14
 -1      4246 2.03063E+01 4.57052E-02 1.94565E-04-1.59402E-02-2.55765E-14 3.17938E-14
 -1      4247 2.02740E+01 3.31276E-02 3.30235E-04-1.35758E-02-5.22179E-15 2.49814E-14
 -1      4248 2.01708E+01 4.36911E-02-2.87156E-04 4.93995E-03 2.57875E-14-2.85626E-14
 -1      4249 2.01327E+01 6.02912E-02 6.47741E-06 8.34601E-03 1.44229E-14-6.88496E-14
 -1      4250 2.00870E+01 8.57740E-02-2.43269E-04-1.36273E-02-1.82645E-14-4.86955E-14
 -1      4251 2.00450E+01 1.13156E-01-1.89932E-04-9.15537E-03-2.84860E-14-9.64810E-15
 -1      4252 1.99993E+01 1.45405E-01-7.45125E-04-9.29430E-03-7.61794E-14 1.15593E-14
 -1      4253 1.99526E+01 1.81296E-01-4.85643E-04-2.47770E-03-6.58493E-14-2.21716E-14
 -1      4254 1.97846E+01 3.10385E-01-1.98627E-03 1.38459E-02-5.06767E-14 6.11244E-14
 -1      4255 1.97244E+01 3.58314E-01-1.01708E-03 3.01248E-02-5.87079E-14 7.55890E-14
 -1      4256 1.96483E+01 4.09345E-01-2.84291E-03 3.95622E-02-1.12614E-13 5.29958E-14
 -1      4257 1.94045E+01 5.65236E-01-1.25488E-03 1.19658E-01-3.12406E-14-1.99292E-14
 -1      4258 1.92879E+01 6.17738E-01-5.20069E-03 1.51074E-01 3.54177E-14 5.04908E-14
 -1      4259 1.91961E+01 6.64864E-01-1.09624E-03 2.06363E-01 9.74023E-14 1.26099E-13
 -1      4260 1.90506E+01 7.11218E-01-6.79240E-03 2.58288E-01 7.84396E-14 1.42098E-13
 -1      4261 1.89481E+01 7.47604E-01-5.96996E-04 3.38912E-01 9.84872E-14 1.45167E-13
 -1      4262 1.87665E+01 7.80060E-01-8.72572E-03 4.21053E-01 9.34403E-14 8.82665E-14
 -1      4263 1.86564E+01 7.96201E-01 4.51266E-04 5.36770E-01 4.92665E-14 9.38993E-14
 -1      4264 1.84300E+01 8.03400E-01-1.10350E-02 6.62400E-01-1.41008E-14 8.00835E-14
 -1      4265 1.83199E+01 7.85613E-01 2.43103E-03 8.25860E-01 3.78129E-15 2.63102E-14
 -1      4266 1.80372E+01 7.51606E-01-1.36029E-02 1.01389E+00-1.76372E-14-9.99309E-16
 -1      4267 1.79446E+01 6.75487E-01 5.03946E-03 1.24247E+00 2.29961E-14-1.06412E-13
 -1      4268 2.02191E+01 2.61821E-02 3.74414E-05-9.15155E-02-4.15565E-14 3.53939E-15
 -1      4269 2.02461E+01 3.14925E-02-3.38950E-04-6.33126E-02-4.00141E-14 8.53982E-14
 -1      4270 2.01877E+01 3.20721E-02 3.24955E-06-9.64867E-02-5.77360E-14 1.05310E-14
 -1      4271 2.04278E+01 3.18551E-01-2.70258E-04-6.14011E-03-3.87525E-15 3.47052E-14
 -1      4272 2.04347E+01 4.29586E-01 5.28154E-04 4.11623E-03 2.73138E-14 2.91970E-14
 -1      4273 2.04030E+01 1.90127E-01-1.39014E-04-7.13456E-03-2.08952E-14 6.62988E-14
 -1      4274 2.03828E+01 1.32779E-01 9.50870E-04-3.53631E-03-1.83588E-14 8.20700E-14
 -1      4275 1.80615E+01 3.57671E-01 1.33914E-02-1.68459E+00-2.22517E-13 1.49368E-14
 -1      4276 2.01061E+01 7.74702E-02 1.28868E-04-4.87277E-02 8.58159E-15-1.53472E-14
 -1      4277 2.01230E+01 6.22996E-02 5.03240E-05-8.19658E-02 1.21795E-15 2.03769E-14
 -1      4278 2.01577E+01 4.44359E-02 2.45147E-05-7.79727E-02-1.59735E-14 1.40517E-14
 -1      4279 1.71259E+01 6.16342E-01 1.72142E-03 1.71758E+00 6.46588E-14-2.61541E-13
 -1      4280 2.04292E+01 5.71827E-01-6.88273E-04 5.29021E-04 5.69791E-14-2.08651E-14
 -1      4281 1.98487E+01 2.74657E-01-7.50452E-04-1.22922E-01-1.12172E-14 4.53838E-14
 -1      4282 1.99002E+01 2.28623E-01-7.14625E-04-1.16655E-01-1.15403E-14 6.67823E-14
 -1      4283 1.99237E+01 2.14224E-01 1.37890E-03-7.34771E-02-4.77982E-14 5.25307E-14
 -1      4284 1.98134E+01 3.07039E-01 2.16592E-03-7.17371E-02 3.00342E-15 5.23545E-14
 -1      4285 2.04188E+01 5.54949E-01-9.70334E-04-1.52745E-02-5.27469E-14-8.83451E-14
 -1      4286 1.75693E+01 1.71963E-01-1.61643E-02-2.09599E+00-7.86584E-14-2.23043E-13
 -1      4287 2.02399E+01 2.98638E-02 7.99129E-05-1.65093E-02-8.21337E-15 1.12554E-14
 -1      4288 2.04296E+01 5.12134E-01-3.88087E-04-2.06603E-03 1.03830E-14 2.04064E-15
 -1      4289 2.02039E+01 3.43660E-02 2.14592E-04-1.41045E-02-9.82007E-15-3.71729E-15
 -1      4290 1.98999E+01 2.21330E-01-1.29719E-03-1.03819E-03-5.27786E-15 1.74725E-14
 -1      4291 1.98473E+01 2.64041E-01-7.64947E-04 9.51257E-03-2.41879E-14 3.93636E-14
 -1      4292 1.76159E+01 5.77928E-01-1.28761E-02 1.51267E+00 7.21088E-14-1.62881E-13
 -1      4293 1.74731E+01-3.09368E-01 1.79944E-02-2.76334E+00 1.01455E-13-3.79392E-13
 -1      4294 2.01831E+01 4.13821E-02 1.80800E-05-4.76305E-02-1.36679E-14 5.70342E-14
 -1      4295 2.04262E+01 5.07491E-01-9.02804E-04-6.96086E-03-1.52357E-14-6.06567E-16
 -1      4296 1.80131E+01 2.64337E-01 1.03406E-02 1.83244E+00 1.11280E-13-1.16871E-13
 -1      4297 2.04208E+01 2.62453E-01 6.67375E-04-6.49818E-04-1.10005E-14 4.58552E-14
 -3
    1PSTEP                         3           1           1          
  100CL  101 1.000000000        4297                     0    1           1
 -4  TOSTRAIN    6    1
 -5  EXX         1    4    1    1
 -5  EYY         1    4    2    2
 -5  EZZ         1    4    3    3
 -5  EXY         1    4    1    2
 -5  EYZ         1    4    2    3
 -5  EZX         1    4    3    1
 -1         1 2.79868E-04-7.64915E-05-7.58262E-05 7.25668E-05 9.57822E-19 3.16007E-18
 -1         2 3.72933E-05-1.14464E-04 2.09603E-05-6.39045E-07-4.14787E-18 9.19348E-19
 -1         3 9.51771E-05-2.86353E-05-2.84320E-05-5.28119E-08-2.12123E-18-2.46131E-18
 -1         4 9.51969E-05-2.86126E-05-2.84774E-05 3.31420E-08 1.05966E-18 1.85403E-19
 -1         5 1.43306E-04-2.14733E-05-4.25141E-05 3.85261E-05-5.75982E-20 4.69881E-18
 -1         6 1.45370E-04 2.57465E-10-4.41731E-05-5.35195E-05-2.57498E-19 5.01698E-18
 -1         7 9.05775E-05-5.10101E-07-3.90563E-05-2.92567E-05-3.88576E-20 1.36634E-18
 -1         8 8.51057E-05 8.64968E-08-3.63309E-05-2.02813E-05-4.26163E-20 1.29561E-19
 -1         9 8.28048E-05 7.64716E-08-3.53469E-05-1.56515E-05-6.37260E-20-5.73857E-19
 -1        10 8.17752E-05 3.89936E-08-3.48824E-05-1.20908E-05-3.94267E-20-9.81035E-19
 -1        11 8.12649E-05 1.89291E-08-3.46578E-05-9.02353E-06-4.26958E-20-1.20360E-18
 -1        12 8.10015E-05 8.90767E-09-3.45460E-05-6.29186E-06-2.90291E-20-1.29191E-18
 -1        13 8.08647E-05 4.32159E-09-3.44901E-05-3.69048E-06-1.56122E-20-1.38256E-18
 -1        14 8.08080E-05 2.42813E-09-3.44675E-05-1.18550E-06-1.33830E-20-1.43749E-18
 -1        15 8.08101E-05 2.41409E-09-3.44682E-05 1.29027E-06 4.00438E-21-1.46772E-18
 -1        16 8.08713E-05 4.21737E-09-3.44923E-05 3.80043E-06 1.69481E-20-1.51407E-18
 -1        17 8.10134E-05 8.12466E-09-3.45495E-05 6.41433E-06 1.08394E-20-1.50608E-18
 -1        18 8.12815E-05 1.79287E-08-3.46625E-05 9.16591E-06 2.12420E-20-1.38973E-18
 -1        19 8.17991E-05 3.80323E-08-3.48906E-05 1.22698E-05 4.84463E-20-1.27387E-18
 -1        20 8.28272E-05 8.15042E-08-3.53597E-05 1.58828E-05 5.93188E-20-9.57503E-19
 -1        21 8.50701E-05 1.69713E-07-3.63692E-05 2.04925E-05 6.25746E-20-3.00334E-19
 -1        22 9.16149E-05-9.87516E-08-3.87277E-05 2.80035E-05 1.69407E-20 1.18271E-18
 -1        23 1.12929E-04-3.81109E-05-3.53835E-05-4.40406E-06-1.56066E-19 4.07296E-18
 -1        24 9.27564E-05-2.76826E-05-2.89848E-05 3.90824E-07-9.95925E-21 3.28798E-18
 -1        25 8.90656E-05-2.68360E-05-2.69131E-05 3.75459E-07-1.20752E-20 2.55665E-18
 -1        26 8.79563E-05-2.64706E-05-2.63739E-05 2.03498E-07 3.71636E-20 1.85924E-18
 -1        27 8.79773E-05-2.64474E-05-2.63644E-05 1.39232E-07-1.14944E-19 1.33295E-18
 -1        28 8.85073E-05-2.65827E-05-2.65329E-05 1.00089E-07 4.68195E-20 1.09322E-18
 -1        29 8.92614E-05-2.67953E-05-2.67653E-05 7.42149E-08 1.09439E-19 1.09574E-18
 -1        30 9.00908E-05-2.70366E-05-2.70169E-05 5.57404E-08 1.75681E-20 1.20838E-18
 -1        31 9.09143E-05-2.72794E-05-2.72654E-05 4.18604E-08-7.12050E-20 4.34265E-19
 -1        32 9.16901E-05-2.75097E-05-2.74994E-05 3.11732E-08-3.94234E-20 5.03770E-20
 -1        33 9.24018E-05-2.77219E-05-2.77143E-05 2.29302E-08 3.29432E-20-1.32631E-19
 -1        34 9.30500E-05-2.79159E-05-2.79103E-05 1.67054E-08-1.78409E-19-4.92016E-19
 -1        35 9.36477E-05-2.80951E-05-2.80913E-05 1.22543E-08 1.52074E-19-8.71494E-19
 -1        36 9.42160E-05-2.82659E-05-2.82636E-05 9.45348E-09 4.20150E-20-1.94957E-19
 -1        37 9.47826E-05-2.84363E-05-2.84354E-05 8.27140E-09-4.35020E-19-3.84514E-19
 -1        38 9.53786E-05-2.86157E-05-2.86162E-05 8.74689E-09 6.03083E-20-1.23360E-18
 -1        39 9.60371E-05-2.88136E-05-2.88157E-05 1.09580E-08-1.74240E-21-1.42448E-18
 -1        40 9.67888E-05-2.90393E-05-2.90430E-05 1.49661E-08-4.46577E-20-1.42062E-18
 -1        41 9.76582E-05-2.92998E-05-2.93050E-05 2.07160E-08-1.46580E-20-1.59812E-18
 -1        42 9.86555E-05-2.95979E-05-2.96043E-05 2.78691E-08-3.28528E-19-1.28237E-18
 -1        43 9.97666E-05-2.99293E-05-2.99358E-05 3.55482E-08 2.75718E-20-3.27891E-19
 -1        44 1.00940E-04-3.02783E-05-3.02828E-05 4.19902E-08-8.86262E-21 7.53922E-19
 -1        45 1.02069E-04-3.06133E-05-3.06124E-05 4.41602E-08-4.45310E-19-3.97363E-19
 -1        46 1.02982E-04-3.08830E-05-3.08720E-05 3.75106E-08 5.86963E-20-2.21656E-18
 -1        47 1.03434E-04-3.10146E-05-3.09884E-05 1.62829E-08 6.46305E-20-2.72102E-18
 -1        48 1.03124E-04-3.09197E-05-3.08748E-05-2.50179E-08 3.93149E-19-1.41213E-18
 -1        49 1.01757E-04-3.05105E-05-3.04488E-05-8.83903E-08 5.61259E-20 9.60588E-20
 -1        50 9.91421E-05-2.97306E-05-2.96637E-05-1.67467E-07 8.54701E-20-8.55411E-19
 -1        51 9.53390E-05-2.85978E-05-2.85477E-05-2.43131E-07-2.07051E-19-1.10847E-18
 -1        52 9.07856E-05-2.72416E-05-2.72353E-05-2.84474E-07-3.32400E-19-1.46478E-18
 -1        53 8.63148E-05-2.59096E-05-2.59648E-05-2.60475E-07 1.77323E-20-5.61437E-19
 -1        54 8.29750E-05-2.49141E-05-2.50250E-05-1.59945E-07 4.30333E-19-7.93392E-19
 -1        55 8.16672E-05-2.45242E-05-2.46585E-05-6.09250E-09-6.15388E-19-2.14642E-18
 -1        56 8.27647E-05-2.48514E-05-2.49647E-05 1.49904E-07 1.86041E-19-3.63393E-18
 -1        57 8.59402E-05-2.57979E-05-2.58564E-05 2.55485E-07 1.02131E-19-5.95147E-19
 -1        58 9.03148E-05-2.71011E-05-2.70976E-05 2.84726E-07 5.52459E-19-1.55547E-18
 -1        59 9.48322E-05-2.84462E-05-2.83975E-05 2.46688E-07 1.64176E-19-1.06516E-18
 -1        60 9.86305E-05-2.95772E-05-2.95099E-05 1.71653E-07-3.15205E-20-6.18996E-19
 -1        61 1.01237E-04-3.03542E-05-3.02909E-05 9.09688E-08-2.65723E-20-1.62273E-18
 -1        62 1.02565E-04-3.07516E-05-3.07042E-05 2.47827E-08 1.34260E-20-1.96154E-18
 -1        63 1.02790E-04-3.08211E-05-3.07921E-05-1.96904E-08-3.85017E-19-2.15576E-18
 -1        64 1.02206E-04-3.06498E-05-3.06361E-05-4.40362E-08 5.13830E-20-4.20112E-18
 -1        65 1.01118E-04-3.03285E-05-3.03250E-05-5.35912E-08-8.22897E-20-3.83535E-18
 -1        66 9.97901E-05-2.99346E-05-2.99369E-05-5.39238E-08 4.28817E-19-4.52275E-18
 -1        67 9.84209E-05-2.95276E-05-2.95335E-05-4.90589E-08 2.23076E-19-3.52013E-18
 -1        68 9.71598E-05-2.91519E-05-2.91617E-05-4.07285E-08 4.15889E-19 7.07885E-19
 -1        69 9.61253E-05-2.88424E-05-2.88587E-05-2.76264E-08 4.17174E-20 1.72189E-18
 -1        70 9.54278E-05-2.86312E-05-2.86540E-05-1.48254E-09-6.24931E-19 1.70023E-18
 -1        71 9.51609E-05-2.85427E-05-2.85534E-05 3.36481E-08 6.96340E-20 2.51782E-18
 -1        72 1.02135E-04-3.05742E-05-3.41364E-05-1.92730E-06 5.62218E-20 4.12346E-18
 -1        73 9.25117E-05-2.74983E-05-2.88927E-05-3.32812E-07 8.80054E-20 2.75427E-18
 -1        74 8.90516E-05-2.66850E-05-2.69559E-05-1.25574E-07 8.18992E-21 1.84197E-18
 -1        75 8.79845E-05-2.64210E-05-2.64173E-05-9.51199E-08 3.11992E-20 1.33605E-18
 -1        76 8.80095E-05-2.64266E-05-2.63902E-05-7.59237E-08 1.07174E-19 7.88700E-19
 -1        77 8.85370E-05-2.65759E-05-2.65487E-05-6.16079E-08 1.32727E-20 3.43128E-19
 -1        78 8.92861E-05-2.67946E-05-2.67756E-05-5.04984E-08-9.07612E-20 7.97965E-19
 -1        79 9.01087E-05-2.70380E-05-2.70233E-05-4.12007E-08-2.79434E-20 7.61678E-19
 -1        80 9.09239E-05-2.72808E-05-2.72683E-05-3.30537E-08 3.71357E-20 1.08935E-19
 -1        81 9.16900E-05-2.75097E-05-2.74989E-05-2.57729E-08 1.15553E-19-3.58834E-19
 -1        82 9.23906E-05-2.77194E-05-2.77102E-05-1.92293E-08 7.59065E-20-6.79446E-20
 -1        83 9.30271E-05-2.79102E-05-2.79026E-05-1.33359E-08 1.69574E-20 1.92966E-19
 -1        84 9.36139E-05-2.80863E-05-2.80804E-05-8.01145E-09-7.31601E-20-1.17110E-19
 -1        85 9.41760E-05-2.82553E-05-2.82512E-05-3.17607E-09 1.31471E-20 4.04533E-20
 -1        86 9.47483E-05-2.84276E-05-2.84254E-05 1.23900E-09-1.95680E-20-1.49755E-18
 -1        87 9.53763E-05-2.86167E-05-2.86170E-05 5.26821E-09 3.68135E-20-2.47070E-18
 -1        88 9.61178E-05-2.88402E-05-2.88434E-05 8.86807E-09-2.19009E-19-2.30762E-18
 -1        89 9.70466E-05-2.91200E-05-2.91273E-05 1.18352E-08 4.01795E-19-3.41527E-18
 -1        90 9.82573E-05-2.94844E-05-2.94977E-05 1.36541E-08-5.26660E-19-4.00305E-18
 -1        91 9.98719E-05-2.99697E-05-2.99918E-05 1.32174E-08 2.42875E-19-3.68093E-18
 -1        92 1.02046E-04-3.06220E-05-3.06573E-05 8.33225E-09 2.28157E-20-3.50360E-18
 -1        93 1.04974E-04-3.14982E-05-3.15532E-05-5.08725E-09-1.84859E-19-1.82570E-18
 -1        94 1.08881E-04-3.26645E-05-3.27468E-05-3.41512E-08-3.33207E-19-1.79956E-18
 -1        95 1.13993E-04-3.41862E-05-3.43007E-05-8.99782E-08-1.10152E-19-9.26178E-19
 -1        96 1.20442E-04-3.61017E-05-3.62385E-05-1.86518E-07-2.70227E-20 5.16558E-19
 -1        97 1.28050E-04-3.83632E-05-3.84710E-05-3.31294E-07-1.49092E-19 1.41073E-18
 -1        98 1.35942E-04-4.07267E-05-4.06763E-05-4.96027E-07 3.41737E-19 7.35198E-20
 -1        99 1.42000E-04-4.25930E-05-4.21744E-05-5.58166E-07-1.39271E-19-4.65299E-19
 -1       100 1.42588E-04-4.29006E-05-4.19680E-05-2.49590E-07-3.91964E-19 1.80492E-18
 -1       101 1.33658E-04-4.03788E-05-3.92267E-05 7.05178E-07 8.65595E-20 1.53858E-18
 -1       102 1.14658E-04-3.46144E-05-3.42663E-05 1.93808E-06-3.14616E-20 3.71106E-19
 -1       103 9.32869E-05-2.77889E-05-2.92312E-05 2.33303E-06-1.71458E-20 7.68682E-20
 -1       104 8.34781E-05-2.44231E-05-2.70887E-05 8.47779E-07 1.44949E-19 3.10424E-18
 -1       105 9.30045E-05-2.73523E-05-2.92589E-05-1.28465E-06 3.31153E-19 4.22468E-18
 -1       106 1.14464E-04-3.42539E-05-3.42711E-05-2.17976E-06-1.08869E-19 8.76256E-19
 -1       107 1.33557E-04-4.02634E-05-3.91882E-05-1.61453E-06-3.19245E-19-2.09964E-18
 -1       108 1.42580E-04-4.29944E-05-4.19102E-05-6.41072E-07 2.11017E-19 1.75794E-18
 -1       109 1.41998E-04-4.27280E-05-4.21072E-05 3.07598E-08 5.31028E-19 3.67036E-18
 -1       110 1.35851E-04-4.07981E-05-4.06012E-05 3.10023E-07 5.56878E-19 1.48076E-18
 -1       111 1.27812E-04-3.83423E-05-3.83767E-05 3.52821E-07-5.10567E-19 2.99659E-18
 -1       112 1.20015E-04-3.59902E-05-3.61045E-05 3.01072E-07 1.49268E-19 6.89730E-18
 -1       113 1.13342E-04-3.39897E-05-3.41077E-05 2.29625E-07 3.66869E-19 6.74835E-18
 -1       114 1.07977E-04-3.23852E-05-3.24804E-05 1.67272E-07-1.11994E-18 7.04416E-18
 -1       115 1.03800E-04-3.11371E-05-3.12066E-05 1.20995E-07 2.40363E-19 7.68312E-18
 -1       116 1.00610E-04-3.01837E-05-3.02336E-05 8.98041E-08 4.42724E-20 5.44217E-18
 -1       117 9.82245E-05-2.94694E-05-2.95095E-05 6.91401E-08-1.25949E-20 3.69652E-19
 -1       118 9.65263E-05-2.89595E-05-2.89991E-05 5.41017E-08 1.86830E-19 6.95518E-19
 -1       119 9.54828E-05-2.86429E-05-2.86866E-05 2.84649E-08-1.22867E-19-5.11278E-18
 -1       120 9.51243E-05-2.85190E-05-2.85436E-05-3.49689E-08 1.86266E-18-4.96299E-18
 -1       121 9.52624E-05-2.86500E-05-2.85505E-05-5.51878E-08-7.69014E-18-2.17819E-18
 -1       122 9.51453E-05-2.82696E-05-2.87001E-05 1.56655E-08-7.66854E-18-4.90351E-19
 -1       123 9.48511E-05-2.72849E-05-2.89817E-05 5.51201E-08-2.29616E-18 1.18600E-18
 -1       124 9.44642E-05-2.59890E-05-2.93493E-05 6.70831E-08-6.39745E-19 9.79926E-19
 -1       125 9.40742E-05-2.46797E-05-2.97252E-05 5.98152E-08-4.74151E-18-1.83791E-18
 -1       126 9.37589E-05-2.36169E-05-3.00340E-05 4.31072E-08-1.16600E-17 1.25056E-19
 -1       127 9.35545E-05-2.29301E-05-3.02359E-05 2.05754E-08-7.93599E-18 9.01911E-19
 -1       128 9.34911E-05-2.27175E-05-3.03005E-05-2.21746E-09-8.09351E-18 9.77586E-19
 -1       129 9.35671E-05-2.29742E-05-3.02280E-05-2.18215E-08-3.61261E-18 1.20603E-18
 -1       130 9.37617E-05-2.36302E-05-3.00379E-05-3.61898E-08-6.58658E-18-9.72734E-19
 -1       131 9.40412E-05-2.45717E-05-2.97632E-05-4.48035E-08-1.43429E-17-4.97771E-19
 -1       132 9.43602E-05-2.56451E-05-2.94494E-05-4.67812E-08-1.63410E-17 3.23795E-18
 -1       133 9.46870E-05-2.67426E-05-2.91293E-05-4.29177E-08-1.02692E-17-3.72848E-20
 -1       134 9.49728E-05-2.77038E-05-2.88518E-05-3.41249E-08-1.12969E-17-3.39123E-20
 -1       135 9.51748E-05-2.83680E-05-2.86552E-05-9.65302E-09-9.28668E-18-7.14628E-20
 -1       136 9.52352E-05-2.86098E-05-2.85543E-05 6.62192E-08-4.44265E-18 6.37863E-19
 -1       137 2.83879E-05-9.63928E-05 1.75177E-05-2.59425E-05 1.82769E-18 7.58994E-19
 -1       138 9.31993E-06-4.56896E-05 6.19268E-06-2.58768E-05 7.11550E-18 3.37797E-18
 -1       139 9.25203E-06 5.51842E-06-1.17994E-05 1.26670E-05 2.88626E-18 1.94648E-18
 -1       140 5.77296E-05 2.30541E-05-3.44443E-05 7.30698E-05-5.28549E-19-6.34004E-19
 -1       141 1.62893E-04-9.85485E-06-5.86891E-05 1.15497E-04-1.87575E-18-4.07677E-18
 -1       142 2.71343E-04-6.66863E-05-7.53980E-05 9.61578E-05-1.10601E-18-1.31629E-18
 -1       143 3.32016E-04-1.02351E-04-8.33982E-05 2.48652E-05 2.68139E-20-2.61998E-18
 -1       144 3.12972E-04-9.07536E-05-8.10414E-05-6.20158E-05 1.80583E-18-7.41323E-18
 -1       145 2.19079E-04-3.78393E-05-6.78920E-05-1.12344E-04 2.19170E-18-7.13456E-18
 -1       146 1.05080E-04 1.21611E-05-4.67479E-05-9.93779E-05 2.57202E-18-3.14080E-18
 -1       147 3.06595E-05 2.34896E-05-2.54756E-05-4.93522E-05 1.29935E-18-1.89651E-18
 -1       148 5.58758E-06-8.87802E-06-5.51492E-06 2.92576E-06-1.80164E-18 1.74277E-18
 -1       149 1.49147E-05-6.42449E-05 1.08377E-05 3.02768E-05 1.73642E-19 3.59036E-19
 -1       150 3.32669E-05-1.06504E-04 1.94523E-05 2.03700E-05-2.54195E-18 6.51200E-19
 -1       151 3.65628E-05-1.11670E-04 2.03090E-05-7.01275E-06-5.89620E-18-4.79566E-19
 -1       152 2.05571E-05-7.40182E-05 1.28927E-05-2.50190E-05-5.89831E-18-1.61227E-18
 -1       153 5.73888E-06-1.47190E-05-2.57004E-06-6.07266E-06-2.18026E-18-1.14667E-18
 -1       154 2.11182E-05 2.53572E-05-2.18157E-05 4.26970E-05-8.15693E-19-4.20975E-19
 -1       155 8.94784E-05 2.05523E-05-4.37296E-05 9.66162E-05-6.78897E-19-5.23043E-19
 -1       156 1.93185E-04-2.55032E-05-6.36357E-05 1.13241E-04-3.10755E-19 1.40184E-19
 -1       157 3.10455E-04-9.60275E-05-7.96020E-05-9.55682E-06 5.53298E-19 1.94839E-18
 -1       158 2.65705E-04-6.79283E-05-7.38847E-05-8.62636E-05-2.11388E-19 8.38351E-19
 -1       159 1.71257E-04-1.38101E-05-6.00062E-05-1.16931E-04 2.50298E-19-1.14349E-18
 -1       160 7.50712E-05 2.63094E-05-4.07077E-05-9.19305E-05 7.26754E-19-9.88911E-19
 -1       161 1.53761E-05 2.22909E-05-1.86742E-05-3.39520E-05 4.61082E-18-2.71728E-18
 -1       162 6.55706E-06-2.61957E-05 1.13913E-06 1.37319E-05 3.91710E-18-1.03719E-18
 -1       163 2.48403E-05-8.47691E-05 1.51064E-05 2.34571E-05-1.38871E-18-8.14263E-19
 -1       164 9.48401E-05-1.23400E-05-3.55602E-05-2.23572E-05-6.41919E-19 7.14896E-19
 -1       165 8.92352E-05-8.45549E-06-3.47818E-05-1.73988E-05-6.48199E-19-1.28048E-19
 -1       166 8.65352E-05-6.49800E-06-3.44139E-05-1.35976E-05-5.68482E-19-6.45783E-19
 -1       167 8.52029E-05-5.51985E-06-3.42341E-05-1.03756E-05-4.79346E-19-8.57402E-19
 -1       168 8.44630E-05-4.94614E-06-3.41479E-05-7.55322E-06-3.86566E-19-1.00009E-18
 -1       169 8.40429E-05-4.60296E-06-3.41074E-05-4.90867E-06-2.71545E-19-1.15081E-18
 -1       170 8.38287E-05-4.41926E-06-3.40907E-05-2.39779E-06-1.14213E-19-1.15310E-18
 -1       171 8.37657E-05-4.36362E-06-3.40865E-05 5.09704E-08-4.91349E-20-1.24338E-18
 -1       172 8.38387E-05-4.42771E-06-3.40915E-05 2.50175E-06 8.94668E-20-1.26045E-18
 -1       173 8.40652E-05-4.62260E-06-3.41088E-05 5.01902E-06 1.78451E-19-1.29990E-18
 -1       174 8.44921E-05-4.97517E-06-3.41483E-05 7.63045E-06 2.75043E-19-1.22075E-18
 -1       175 8.52594E-05-5.57647E-06-3.42347E-05 1.05214E-05 5.08377E-19-1.10855E-18
 -1       176 8.66444E-05-6.60864E-06-3.44172E-05 1.37933E-05 6.48086E-19-9.69390E-19
 -1       177 8.93765E-05-8.59727E-06-3.47867E-05 1.76325E-05 7.99506E-19-4.76827E-19
 -1       178 9.57509E-05-1.36068E-05-3.54161E-05 2.19013E-05 8.18565E-19 3.21290E-19
 -1       179 1.05566E-04-2.60901E-05-3.52513E-05 1.86685E-05 6.18539E-19 1.52900E-18
 -1       180 1.03360E-04-2.72898E-05-3.25995E-05-1.21325E-05-4.85615E-19 1.60624E-18
 -1       181 9.70691E-05-2.82785E-05-2.95170E-05-4.73687E-06-4.43144E-19 1.24550E-18
 -1       182 9.34650E-05-2.76242E-05-2.81695E-05-1.77529E-06-4.61570E-19 9.40127E-19
 -1       183 9.19271E-05-2.73919E-05-2.76226E-05-4.26481E-07-4.02334E-19 6.42465E-19
 -1       184 9.13507E-05-2.73164E-05-2.74249E-05 2.39957E-07-1.37943E-19 6.02993E-19
 -1       185 9.13112E-05-2.73555E-05-2.74009E-05 5.69479E-07-5.24135E-20 4.93182E-19
 -1       186 9.15619E-05-2.74595E-05-2.74683E-05 7.14570E-07-1.98325E-20 2.09930E-19
 -1       187 9.19602E-05-2.75950E-05-2.75831E-05 7.55659E-07-3.12221E-19 2.50242E-19
 -1       188 9.24230E-05-2.77415E-05-2.77198E-05 7.40144E-07-2.16186E-19 3.63791E-19
 -1       189 9.29035E-05-2.78878E-05-2.78636E-05 6.98325E-07-2.73799E-19 3.19927E-19
 -1       190 9.33787E-05-2.80286E-05-2.80071E-05 6.50614E-07-3.91295E-19-4.12312E-19
 -1       191 9.38417E-05-2.81630E-05-2.81479E-05 6.11217E-07-2.29701E-19-3.87565E-19
 -1       192 9.42967E-05-2.82930E-05-2.82871E-05 5.90184E-07 1.26075E-19-4.78032E-19
 -1       193 9.47561E-05-2.84230E-05-2.84281E-05 5.94523E-07-1.32347E-19-7.95897E-19
 -1       194 9.52371E-05-2.85586E-05-2.85758E-05 6.28646E-07-5.18385E-19-3.28436E-19
 -1       195 9.57598E-05-2.87067E-05-2.87362E-05 6.94212E-07-1.43438E-19-9.96885E-19
 -1       196 9.63444E-05-2.88744E-05-2.89147E-05 7.89325E-07-7.29988E-20-1.18875E-18
 -1       197 9.70080E-05-2.90683E-05-2.91160E-05 9.07038E-07-2.47849E-19-1.09460E-18
 -1       198 9.77600E-05-2.92936E-05-2.93421E-05 1.03314E-06 2.91543E-19-5.47858E-19
 -1       199 9.85963E-05-2.95523E-05-2.95903E-05 1.14338E-06 2.99312E-19-4.17167E-19
 -1       200 9.94919E-05-2.98407E-05-2.98516E-05 1.20064E-06 5.41754E-19-6.10481E-19
 -1       201 1.00392E-04-3.01467E-05-3.01077E-05 1.15330E-06-5.94366E-19-1.38515E-19
 -1       202 1.01203E-04-3.04456E-05-3.03293E-05 9.37265E-07-5.74456E-19 2.43677E-19
 -1       203 1.01791E-04-3.06960E-05-3.04756E-05 4.85236E-07-1.84077E-19 1.94677E-21
 -1       204 1.01981E-04-3.08376E-05-3.04979E-05-2.52047E-07 8.04375E-20 1.32258E-19
 -1       205 1.01586E-04-3.07927E-05-3.03479E-05-1.27014E-06 2.31582E-19-8.19834E-19
 -1       206 1.00448E-04-3.04796E-05-2.99927E-05-2.46577E-06-3.31200E-19-1.66808E-18
 -1       207 9.85160E-05-2.98418E-05-2.94349E-05-3.60204E-06 2.74639E-19-2.01565E-18
 -1       208 9.59321E-05-2.88945E-05-2.87291E-05-4.32180E-06 3.40683E-20-5.01801E-19
 -1       209 9.30884E-05-2.77722E-05-2.79869E-05-4.24972E-06 3.06676E-19-6.15717E-19
 -1       210 9.05911E-05-2.67348E-05-2.73579E-05-3.17889E-06-6.05218E-19-9.09482E-19
 -1       211 8.90893E-05-2.60924E-05-2.69877E-05-1.24723E-06-1.03329E-18-1.97958E-18
 -1       212 8.90163E-05-2.60635E-05-2.69686E-05 1.04163E-06 2.47241E-19-1.55426E-18
 -1       213 9.03878E-05-2.66569E-05-2.73036E-05 3.01729E-06 1.35732E-18-3.35415E-19
 -1       214 9.27934E-05-2.76651E-05-2.79057E-05 4.15290E-06-6.95521E-19-1.10497E-18
 -1       215 9.55867E-05-2.87781E-05-2.86305E-05 4.28158E-06-4.09612E-19-1.29448E-18
 -1       216 9.81479E-05-2.97279E-05-2.93258E-05 3.59075E-06-3.82077E-19-3.30190E-18
 -1       217 1.00064E-04-3.03696E-05-2.98754E-05 2.45067E-06-9.42820E-21-2.24502E-18
 -1       218 1.01173E-04-3.06798E-05-3.02197E-05 1.22551E-06-2.85270E-19-1.92572E-18
 -1       219 1.01516E-04-3.07108E-05-3.03529E-05 1.64371E-07-5.30471E-19-2.11041E-18
 -1       220 1.01244E-04-3.05442E-05-3.03064E-05-6.17872E-07-8.67986E-19-2.45462E-18
 -1       221 1.00550E-04-3.02587E-05-3.01293E-05-1.10718E-06 7.46015E-19-1.76698E-18
 -1       222 9.96161E-05-2.99176E-05-2.98732E-05-1.34379E-06 8.63236E-19-4.22350E-19
 -1       223 9.85940E-05-2.95660E-05-2.95839E-05-1.38431E-06 1.45811E-18 5.57118E-19
 -1       224 9.75993E-05-2.92339E-05-2.92984E-05-1.27843E-06 1.82610E-18 1.48337E-18
 -1       225 9.67173E-05-2.89405E-05-2.90454E-05-1.05849E-06 1.55242E-18 5.35454E-19
 -1       226 9.60096E-05-2.86989E-05-2.88453E-05-7.40673E-07 1.07512E-18 2.30872E-18
 -1       227 9.55008E-05-2.85220E-05-2.87034E-05-3.47154E-07 3.15648E-20 3.76647E-18
 -1       228 9.94605E-05-2.85423E-05-3.05751E-05 7.21708E-06 6.94779E-19 1.28156E-18
 -1       229 9.43727E-05-2.77776E-05-2.85113E-05 2.74944E-06 4.31027E-19 7.80270E-19
 -1       230 9.20492E-05-2.73868E-05-2.76674E-05 9.35314E-07 4.05864E-19 3.01120E-19
 -1       231 9.10979E-05-2.72233E-05-2.73478E-05 7.26378E-08 3.71239E-19 7.26959E-20
 -1       232 9.08852E-05-2.72157E-05-2.72734E-05-3.56924E-07 2.66207E-20 1.69426E-19
 -1       233 9.10710E-05-2.73019E-05-2.73228E-05-5.60951E-07-1.45687E-19 1.11381E-19
 -1       234 9.14621E-05-2.74366E-05-2.74358E-05-6.39599E-07 2.76859E-19-1.60881E-19
 -1       235 9.19469E-05-2.75914E-05-2.75788E-05-6.48006E-07 2.28695E-19-3.01587E-19
 -1       236 9.24616E-05-2.77501E-05-2.77323E-05-6.19863E-07 1.52380E-19-6.34244E-19
 -1       237 9.29730E-05-2.79040E-05-2.78859E-05-5.77448E-07-7.64952E-20-3.03702E-19
 -1       238 9.34683E-05-2.80505E-05-2.80357E-05-5.36433E-07-5.03294E-20 1.30764E-19
 -1       239 9.39498E-05-2.81906E-05-2.81820E-05-5.08649E-07 2.32936E-19 2.65921E-19
 -1       240 9.44312E-05-2.83288E-05-2.83290E-05-5.03921E-07 3.02098E-19-5.19417E-19
 -1       241 9.49360E-05-2.84720E-05-2.84837E-05-5.31489E-07 4.98846E-19-9.27680E-19
 -1       242 9.54976E-05-2.86300E-05-2.86563E-05-6.01230E-07 3.31578E-19-3.81403E-19
 -1       243 9.61592E-05-2.88151E-05-2.88601E-05-7.24835E-07-1.01121E-19-8.55309E-19
 -1       244 9.69760E-05-2.90430E-05-2.91120E-05-9.16976E-07 8.56294E-19-1.13688E-18
 -1       245 9.80174E-05-2.93333E-05-2.94334E-05-1.19641E-06-1.07948E-19-1.62150E-18
 -1       246 9.93698E-05-2.97104E-05-2.98508E-05-1.58667E-06-3.72264E-20-1.90860E-18
 -1       247 1.01138E-04-3.02048E-05-3.03967E-05-2.11544E-06-1.08582E-18-1.70372E-18
 -1       248 1.03447E-04-3.08536E-05-3.11086E-05-2.81060E-06-9.19161E-19-6.88479E-19
 -1       249 1.06428E-04-3.17007E-05-3.20257E-05-3.68830E-06 1.02160E-19-1.64773E-19
 -1       250 1.10204E-04-3.27952E-05-3.31791E-05-4.72485E-06-1.88923E-19-8.07313E-19
 -1       251 1.14825E-04-3.41860E-05-3.45698E-05-5.79862E-06-8.32360E-19-8.08768E-19
 -1       252 1.20172E-04-3.59060E-05-3.61293E-05-6.58781E-06-3.09493E-19 1.25162E-19
 -1       253 1.25790E-04-3.79303E-05-3.76628E-05-6.43478E-06 1.81014E-19 1.01656E-18
 -1       254 1.30672E-04-4.00656E-05-3.88104E-05-4.29232E-06-2.74161E-20 2.32791E-18
 -1       255 1.33138E-04-4.17178E-05-3.91139E-05 8.99291E-07-1.33344E-18 1.55050E-18
 -1       256 1.31145E-04-4.16268E-05-3.83071E-05 8.84122E-06 2.81672E-19 1.44231E-18
 -1       257 1.23591E-04-3.81084E-05-3.66946E-05 1.55773E-05 2.00069E-19 1.48376E-18
 -1       258 1.13508E-04-3.21629E-05-3.51650E-05 1.44517E-05 1.58157E-19 2.32001E-18
 -1       259 1.07884E-04-2.82047E-05-3.45883E-05 2.55994E-06-7.06240E-19 1.87082E-18
 -1       260 1.11974E-04-3.05988E-05-3.51830E-05-1.13973E-05 7.33054E-19 2.20700E-18
 -1       261 1.22241E-04-3.69067E-05-3.66174E-05-1.64026E-05 6.47583E-19 1.44170E-18
 -1       262 1.30533E-04-4.11502E-05-3.82065E-05-1.15224E-05 1.01325E-18 1.71813E-18
 -1       263 1.33443E-04-4.20222E-05-3.91002E-05-3.34245E-06-1.53110E-18 9.88911E-19
 -1       264 1.31450E-04-4.06079E-05-3.89158E-05 2.94952E-06-6.75548E-19 1.66772E-18
 -1       265 1.26683E-04-3.84202E-05-3.78467E-05 6.06144E-06 9.82337E-19 2.52372E-18
 -1       266 1.20958E-04-3.62610E-05-3.63237E-05 6.79207E-06-1.83383E-18 3.99977E-18
 -1       267 1.15373E-04-3.44009E-05-3.47186E-05 6.26646E-06-1.95404E-19 4.39618E-18
 -1       268 1.10449E-04-3.28827E-05-3.32492E-05 5.27318E-06-3.01860E-19 4.77033E-18
 -1       269 1.06349E-04-3.16738E-05-3.20034E-05 4.22726E-06-1.65337E-18 5.06571E-18
 -1       270 1.03051E-04-3.07235E-05-3.09937E-05 3.29816E-06 1.16866E-18 4.32702E-18
 -1       271 1.00462E-04-2.99835E-05-3.02001E-05 2.52424E-06 2.60780E-18 2.81908E-18
 -1       272 9.84765E-05-2.94108E-05-2.95948E-05 1.88121E-06 1.90465E-18 1.42757E-18
 -1       273 9.70134E-05-2.89815E-05-2.91534E-05 1.31926E-06 8.82025E-19-1.06360E-18
 -1       274 9.60128E-05-2.86700E-05-2.88589E-05 7.71377E-07 3.11177E-18-2.34230E-18
 -1       275 9.54316E-05-2.85080E-05-2.86759E-05 2.30133E-07-7.20767E-19-5.94587E-18
 -1       276 9.52975E-05-2.81594E-05-2.87704E-05 5.38947E-07-5.34399E-19 2.05493E-18
 -1       277 9.50306E-05-2.74552E-05-2.89604E-05 1.04475E-06 9.93977E-20 7.77771E-19
 -1       278 9.46708E-05-2.65438E-05-2.91975E-05 1.32357E-06-2.12250E-18 1.89933E-18
 -1       279 9.43039E-05-2.55815E-05-2.94535E-05 1.32135E-06-1.39782E-18-1.39741E-18
 -1       280 9.39951E-05-2.47413E-05-2.96826E-05 1.08634E-06-2.52914E-18-5.05081E-18
 -1       281 9.37756E-05-2.41213E-05-2.98553E-05 6.85507E-07-3.09244E-18 1.26109E-18
 -1       282 9.36760E-05-2.38192E-05-2.99426E-05 2.06827E-07-2.46957E-18 9.28802E-19
 -1       283 9.36995E-05-2.38580E-05-2.99360E-05-2.67470E-07-1.51307E-18 2.32729E-18
 -1       284 9.38320E-05-2.42100E-05-2.98413E-05-6.71643E-07-2.53625E-18-2.24739E-18
 -1       285 9.40475E-05-2.48089E-05-2.96759E-05-9.61782E-07-3.20993E-18-3.14661E-18
 -1       286 9.43091E-05-2.55518E-05-2.94683E-05-1.11345E-06-4.03587E-18-1.02645E-18
 -1       287 9.45942E-05-2.63684E-05-2.92394E-05-1.12406E-06-4.73541E-18 3.53592E-18
 -1       288 9.48681E-05-2.71497E-05-2.90212E-05-9.91775E-07-3.64838E-18 7.64336E-19
 -1       289 9.51080E-05-2.78095E-05-2.88399E-05-7.18615E-07-3.60757E-18 9.82351E-19
 -1       290 9.53227E-05-2.81991E-05-2.87645E-05-5.93839E-07-1.27919E-18 3.21728E-18
 -1       291 1.14046E-05-4.66742E-05 1.21028E-05 4.10612E-06-1.72901E-19 3.17224E-18
 -1       292 2.44989E-05-4.69973E-05 6.43017E-06 1.61447E-05 1.61847E-18 3.19051E-18
 -1       293 5.23284E-05-4.16756E-05-6.70799E-06 3.15707E-05 2.37550E-18-2.21801E-18
 -1       294 9.64402E-05-4.13527E-05-2.43473E-05 4.08738E-05 1.97570E-19-2.63237E-18
 -1       295 1.48241E-04-4.41187E-05-4.39920E-05 3.41730E-05-2.68192E-19-1.31650E-18
 -1       296 1.90804E-04-3.88430E-05-6.22577E-05 3.34661E-05-1.84485E-18-9.02090E-19
 -1       297 2.16510E-04-3.85696E-05-7.23357E-05 1.46331E-05 2.68509E-19-2.99056E-18
 -1       298 2.27286E-04-4.10007E-05-7.52854E-05-4.83467E-06 1.95453E-18-2.89733E-18
 -1       299 2.03076E-04-3.78249E-05-6.77897E-05-1.95627E-05 9.30254E-19-3.33922E-18
 -1       300 1.68465E-04-4.21548E-05-5.28248E-05-2.84270E-05 4.49139E-19-4.31817E-18
 -1       301 1.19906E-04-3.68747E-05-3.54856E-05-4.40190E-05 5.12031E-19-2.34395E-18
 -1       302 7.53437E-05-3.77470E-05-1.75781E-05-3.78111E-05 1.24937E-20-2.40441E-18
 -1       303 4.33372E-05-4.32998E-05-2.27284E-06-2.85937E-05 1.25149E-19-1.39072E-19
 -1       304 1.91960E-05-4.87302E-05 9.27876E-06-1.16877E-05-1.06366E-18-9.11513E-19
 -1       305 1.07511E-05-4.90943E-05 1.30864E-05 6.98846E-07-1.53339E-18-1.02904E-18
 -1       306 1.56227E-05-4.86596E-05 1.08324E-05 1.34926E-05-1.97083E-18-1.75971E-19
 -1       307 3.47262E-05-4.02497E-05 2.75991E-07 3.04605E-05-3.27950E-18-4.84132E-20
 -1       308 6.50724E-05-3.40428E-05-1.44606E-05 4.09295E-05-1.79105E-18-3.67824E-19
 -1       309 1.05732E-04-2.99310E-05-3.22804E-05 4.81338E-05-6.85461E-19-4.14623E-19
 -1       310 1.52720E-04-3.51038E-05-4.94183E-05 3.42013E-05-4.07688E-19-1.26886E-18
 -1       311 1.86043E-04-3.15144E-05-6.38882E-05 2.82481E-05-1.39025E-18-1.57993E-18
 -1       312 2.08678E-04-3.44494E-05-7.13659E-05 9.87444E-06-8.32210E-20-1.32931E-18
 -1       313 2.10539E-04-3.65218E-05-7.09870E-05-1.67219E-05 3.75236E-19-6.13781E-19
 -1       314 1.84439E-04-3.22535E-05-6.23623E-05-3.86466E-05 1.51693E-18-2.72533E-19
 -1       315 1.43374E-04-2.81356E-05-4.78099E-05-4.96199E-05 6.78262E-19-1.26208E-18
 -1       316 9.90417E-05-2.98883E-05-2.96290E-05-4.74514E-05 2.41997E-18-5.79159E-19
 -1       317 5.62849E-05-3.36564E-05-1.12224E-05-3.78698E-05 2.78483E-18-1.37728E-18
 -1       318 2.90418E-05-4.22398E-05 3.15812E-06-2.59247E-05 3.93023E-19-2.38313E-18
 -1       319 1.31420E-05-4.79624E-05 1.17514E-05-1.12396E-05 2.36714E-18-1.48368E-18
 -1       320 9.16423E-05-1.43953E-05-3.31688E-05-1.30719E-05-6.88289E-19-2.69959E-19
 -1       321 9.56779E-05-1.90943E-05-3.28847E-05-1.46395E-05-6.59273E-19 2.94820E-19
 -1       322 8.80120E-05-1.03740E-05-3.33287E-05-8.16852E-06-5.30597E-19-6.06982E-19
 -1       323 8.72122E-05-9.45958E-06-3.33710E-05-5.72370E-06-3.56662E-19-7.94186E-19
 -1       324 8.67573E-05-8.92942E-06-3.33998E-05-3.36974E-06-1.64836E-19-8.09902E-19
 -1       325 8.65548E-05-8.68965E-06-3.34143E-05-1.07355E-06-2.47084E-20-8.71716E-19
 -1       326 8.65633E-05-8.69917E-06-3.34139E-05 1.20408E-06 8.56547E-20-9.97878E-19
 -1       327 8.67845E-05-8.95985E-06-3.33986E-05 3.50223E-06 1.73346E-19-1.06896E-18
 -1       328 8.72515E-05-9.50350E-06-3.33693E-05 5.81874E-06 3.04332E-19-1.01701E-18
 -1       329 8.80829E-05-1.04539E-05-3.33250E-05 8.26013E-06 5.36796E-19-8.18720E-19
 -1       330 8.94868E-05-1.20345E-05-3.32604E-05 1.07711E-05 7.06109E-19-7.81507E-19
 -1       331 9.18933E-05-1.47200E-05-3.31554E-05 1.31775E-05 8.58878E-19-5.19575E-19
 -1       332 9.57818E-05-1.94508E-05-3.28210E-05 1.43843E-05 9.10099E-19-4.89691E-21
 -1       333 9.87597E-05-2.44349E-05-3.19416E-05 1.19058E-05 8.83958E-19 4.67033E-19
 -1       334 9.63572E-05-2.68024E-05-2.97797E-05 5.74915E-06 6.40628E-19 1.96250E-19
 -1       335 9.64114E-05-2.60209E-05-3.01229E-05-6.35818E-06-6.10843E-19 3.53882E-19
 -1       336 9.48911E-05-2.70179E-05-2.90632E-05-2.84234E-06-6.89824E-19 3.40232E-19
 -1       337 9.39158E-05-2.74141E-05-2.84859E-05-9.24994E-07-4.42863E-19 1.05903E-19
 -1       338 9.34004E-05-2.76268E-05-2.81818E-05 1.40675E-07-2.25390E-19-1.54565E-19
 -1       339 9.32149E-05-2.77791E-05-2.80410E-05 7.15536E-07-1.63561E-19-9.80026E-20
 -1       340 9.32436E-05-2.79079E-05-2.79999E-05 9.99709E-07 1.07645E-19 1.52267E-19
 -1       341 9.34020E-05-2.80226E-05-2.80195E-05 1.11243E-06-1.36044E-19 3.64865E-19
 -1       342 9.36339E-05-2.81249E-05-2.80755E-05 1.12928E-06-3.30636E-19 6.45784E-20
 -1       343 9.39045E-05-2.82154E-05-2.81528E-05 1.10058E-06-7.10004E-19-1.57591E-20
 -1       344 9.41949E-05-2.82957E-05-2.82428E-05 1.06093E-06-1.86074E-19 8.63729E-20
 -1       345 9.44976E-05-2.83682E-05-2.83413E-05 1.03466E-06-1.39658E-21-2.08598E-20
 -1       346 9.48135E-05-2.84366E-05-2.84472E-05 1.03886E-06-3.16010E-19 9.24883E-20
 -1       347 9.51494E-05-2.85059E-05-2.85612E-05 1.08498E-06-2.75778E-19 2.70130E-21
 -1       348 9.55163E-05-2.85825E-05-2.86853E-05 1.17937E-06-5.80380E-19-6.03696E-21
 -1       349 9.59272E-05-2.86741E-05-2.88219E-05 1.32270E-06-2.77007E-19-1.05633E-19
 -1       350 9.63963E-05-2.87904E-05-2.89730E-05 1.50829E-06-1.95440E-19-5.36031E-19
 -1       351 9.69361E-05-2.89429E-05-2.91390E-05 1.71945E-06 2.50428E-19-3.13834E-19
 -1       352 9.75552E-05-2.91446E-05-2.93182E-05 1.92578E-06 1.37057E-19-6.99229E-19
 -1       353 9.82549E-05-2.94097E-05-2.95051E-05 2.07898E-06-1.21357E-19-7.39553E-19
 -1       354 9.90244E-05-2.97501E-05-2.96901E-05 2.10954E-06 2.77988E-19-1.33871E-18
 -1       355 9.98345E-05-3.01708E-05-2.98587E-05 1.92658E-06-2.18518E-19-9.19871E-19
 -1       356 1.00630E-04-3.06595E-05-2.99921E-05 1.42530E-06-2.66743E-19 6.84525E-20
 -1       357 1.01320E-04-3.11718E-05-3.00704E-05 5.08159E-07 5.46570E-19 3.31353E-19
 -1       358 1.01771E-04-3.16134E-05-3.00761E-05-8.73655E-07-2.98562E-19-6.14124E-19
 -1       359 1.01812E-04-3.18296E-05-3.00016E-05-2.65702E-06-1.09936E-18-4.20703E-19
 -1       360 1.01265E-04-3.16224E-05-2.98542E-05-4.59590E-06-2.87249E-19 2.49561E-19
 -1       361 1.00019E-04-3.08201E-05-2.96595E-05-6.22232E-06 7.39301E-19-6.43522E-19
 -1       362 9.81475E-05-2.94104E-05-2.94559E-05-6.90972E-06 8.39658E-20-1.09877E-18
 -1       363 9.60239E-05-2.76774E-05-2.92826E-05-6.10629E-06 7.81107E-21-1.07860E-18
 -1       364 9.42825E-05-2.61947E-05-2.91671E-05-3.68411E-06-1.38658E-18-4.52763E-19
 -1       365 9.35642E-05-2.55752E-05-2.91224E-05-1.74194E-07-7.07067E-19-3.52111E-19
 -1       366 9.41578E-05-2.61024E-05-2.91516E-05 3.37562E-06 1.24378E-18-9.04125E-19
 -1       367 9.58163E-05-2.75373E-05-2.92514E-05 5.89247E-06 2.87054E-19-1.31730E-18
 -1       368 9.79065E-05-2.92730E-05-2.94101E-05 6.79772E-06-7.08453E-19-6.54895E-19
 -1       369 9.97775E-05-3.07174E-05-2.95999E-05 6.17919E-06-1.70162E-18-2.92281E-19
 -1       370 1.01033E-04-3.15610E-05-2.97814E-05 4.56964E-06 1.00053E-18 1.01782E-18
 -1       371 1.01576E-04-3.17953E-05-2.99159E-05 2.59953E-06 3.66695E-19 2.16233E-19
 -1       372 1.01508E-04-3.15845E-05-2.99767E-05 7.55635E-07-2.61422E-20 1.21845E-18
 -1       373 1.01007E-04-3.11285E-05-2.99557E-05-6.95946E-07-1.06316E-18 2.02014E-19
 -1       374 1.00249E-04-3.05862E-05-2.98610E-05-1.67572E-06-2.58046E-19-1.56522E-19
 -1       375 9.93735E-05-3.00547E-05-2.97111E-05-2.21838E-06 2.12480E-18 4.62134E-19
 -1       376 9.84783E-05-2.95790E-05-2.95292E-05-2.40692E-06 1.83082E-18 8.00067E-19
 -1       377 9.76277E-05-2.91705E-05-2.93382E-05-2.32868E-06 2.20644E-18 1.38143E-18
 -1       378 9.68609E-05-2.88232E-05-2.91572E-05-2.05365E-06 7.83087E-19 2.47855E-18
 -1       379 9.62008E-05-2.85260E-05-2.90005E-05-1.62956E-06 1.77472E-18 1.00734E-18
 -1       380 9.57185E-05-2.83304E-05-2.88775E-05-1.13123E-06 1.55673E-18 2.28923E-18
 -1       381 9.43360E-05-2.73307E-05-2.86784E-05 2.47627E-06 6.26047E-19 1.50964E-19
 -1       382 9.31289E-05-2.74496E-05-2.81264E-05 7.49855E-07 3.71790E-19 5.93775E-20
 -1       383 9.25758E-05-2.75265E-05-2.78683E-05-1.74754E-07 4.74338E-20-9.63186E-20
 -1       384 9.24382E-05-2.76188E-05-2.77755E-05-6.56824E-07-2.97715E-20-4.35783E-19
 -1       385 9.25498E-05-2.77286E-05-2.77788E-05-8.85281E-07 2.37439E-19-6.00109E-19
 -1       386 9.28020E-05-2.78466E-05-2.78375E-05-9.67061E-07 4.27041E-19-3.92365E-19
 -1       387 9.31267E-05-2.79647E-05-2.79266E-05-9.67820E-07 3.08756E-19-3.68251E-19
 -1       388 9.34841E-05-2.80778E-05-2.80315E-05-9.30877E-07-3.02549E-19-3.12553E-19
 -1       389 9.38541E-05-2.81838E-05-2.81446E-05-8.86507E-07-1.89803E-19-5.22915E-19
 -1       390 9.42310E-05-2.82834E-05-2.82633E-05-8.57262E-07 4.03517E-19-6.76353E-19
 -1       391 9.46203E-05-2.83794E-05-2.83886E-05-8.61410E-07 7.03270E-19-6.35408E-19
 -1       392 9.50362E-05-2.84762E-05-2.85249E-05-9.15464E-07 3.02110E-19-4.05969E-19
 -1       393 9.55009E-05-2.85795E-05-2.86792E-05-1.03624E-06-7.62042E-20-6.02901E-20
 -1       394 9.60442E-05-2.86965E-05-2.88611E-05-1.24273E-06 6.30297E-19-7.90631E-20
 -1       395 9.67039E-05-2.88361E-05-2.90830E-05-1.55775E-06 9.61487E-19-9.09858E-19
 -1       396 9.75261E-05-2.90086E-05-2.93602E-05-2.00940E-06 6.37874E-19-1.12615E-18
 -1       397 9.85663E-05-2.92271E-05-2.97108E-05-2.63166E-06-4.41958E-19-1.44806E-18
 -1       398 9.98893E-05-2.95088E-05-3.01555E-05-3.46283E-06-7.60364E-19-9.39606E-19
 -1       399 1.01569E-04-2.98781E-05-3.07157E-05-4.53925E-06-1.29612E-18-1.00692E-18
 -1       400 1.03687E-04-3.03741E-05-3.14101E-05-5.87838E-06-2.94112E-20-8.00640E-19
 -1       401 1.06326E-04-3.10649E-05-3.22467E-05-7.44182E-06 5.26682E-20-1.92836E-19
 -1       402 1.09568E-04-3.20726E-05-3.32096E-05-9.06324E-06-1.22903E-18-5.13787E-19
 -1       403 1.13486E-04-3.36076E-05-3.42414E-05-1.03272E-05-5.61096E-19 5.44285E-21
 -1       404 1.18129E-04-3.59757E-05-3.52299E-05-1.04090E-05-7.14696E-19 5.42379E-19
 -1       405 1.23427E-04-3.94294E-05-3.60301E-05-7.98629E-06-2.64721E-19 2.81375E-18
 -1       406 1.28873E-04-4.36070E-05-3.65791E-05-1.58650E-06-5.38055E-19 2.06750E-18
 -1       407 1.32893E-04-4.64392E-05-3.71081E-05 8.97199E-06-4.45692E-19 2.03569E-18
 -1       408 1.32570E-04-4.36345E-05-3.82394E-05 1.99288E-05-1.00344E-19 3.06214E-18
 -1       409 1.25748E-04-3.31071E-05-4.01440E-05 2.06748E-05 8.45471E-19 2.39234E-18
 -1       410 1.20003E-04-2.43841E-05-4.14088E-05 5.44904E-06-5.24102E-20 5.62748E-19
 -1       411 1.22356E-04-2.76527E-05-4.09718E-05-1.43104E-05-2.96673E-19 1.32054E-18
 -1       412 1.29743E-04-3.86087E-05-3.93792E-05-2.23957E-05 6.78857E-19 1.68779E-18
 -1       413 1.34096E-04-4.60482E-05-3.78312E-05-1.56095E-05 1.16097E-18 2.10198E-18
 -1       414 1.31783E-04-4.57570E-05-3.69626E-05-3.70566E-06-8.74770E-19 1.67278E-18
 -1       415 1.26319E-04-4.17525E-05-3.63255E-05 5.29806E-06-1.37813E-18 6.90233E-19
 -1       416 1.20484E-04-3.76441E-05-3.55563E-05 9.79863E-06 2.48502E-19 1.41389E-18
 -1       417 1.15279E-04-3.46203E-05-3.45911E-05 1.09100E-05-2.05124E-18 1.61604E-18
 -1       418 1.10883E-04-3.26389E-05-3.35342E-05 1.01712E-05-1.75176E-18 1.30726E-18
 -1       419 1.07227E-04-3.13569E-05-3.25055E-05 8.68559E-06-1.46257E-18 2.98779E-18
 -1       420 1.04215E-04-3.04913E-05-3.15819E-05 7.06517E-06-2.81528E-19 3.57540E-18
 -1       421 1.01761E-04-2.98692E-05-3.07969E-05 5.58336E-06 1.07682E-18 9.53651E-19
 -1       422 9.97870E-05-2.93940E-05-3.01562E-05 4.31909E-06 3.70872E-18 9.91806E-19
 -1       423 9.82249E-05-2.90116E-05-2.96524E-05 3.25459E-06 3.05155E-18-8.56388E-19
 -1       424 9.69900E-05-2.86805E-05-2.92703E-05 2.31142E-06 1.67127E-18-9.54670E-19
 -1       425 9.60741E-05-2.84035E-05-2.89962E-05 1.46545E-06 1.80453E-18-6.69483E-20
 -1       426 9.56331E-05-2.82444E-05-2.88772E-05 9.95197E-07 1.93196E-18 2.31922E-18
 -1       427 9.44749E-05-2.60927E-05-2.93063E-05 2.33187E-06-1.05110E-18 5.40883E-19
 -1       428 9.50537E-05-2.70041E-05-2.91613E-05 2.17986E-06 2.13547E-19 4.07460E-19
 -1       429 9.54227E-05-2.76867E-05-2.90256E-05 1.66686E-06 1.24200E-18 1.21196E-18
 -1       430 9.39806E-05-2.52928E-05-2.94394E-05 2.07712E-06-1.11235E-18-4.47305E-18
 -1       431 9.36179E-05-2.46775E-05-2.95491E-05 1.49814E-06 1.19987E-18-1.47903E-18
 -1       432 9.34319E-05-2.43343E-05-2.96172E-05 7.25214E-07 9.65227E-19 1.67044E-18
 -1       433 9.34252E-05-2.42879E-05-2.96343E-05-1.00635E-07-7.87684E-19 1.58972E-18
 -1       434 9.35739E-05-2.45187E-05-2.95987E-05-8.54896E-07-1.39075E-18 5.17528E-20
 -1       435 9.38379E-05-2.49737E-05-2.95159E-05-1.44619E-06-1.19520E-18-2.86061E-18
 -1       436 9.41654E-05-2.55694E-05-2.93997E-05-1.81698E-06-2.00273E-18-3.44138E-18
 -1       437 9.45287E-05-2.62526E-05-2.92614E-05-1.95973E-06-1.14123E-18 3.25465E-18
 -1       438 9.48881E-05-2.69420E-05-2.91187E-05-1.86895E-06 6.05806E-22 2.80349E-18
 -1       439 9.52291E-05-2.75899E-05-2.89854E-05-1.57044E-06-3.81198E-19-1.13973E-19
 -1       440 5.48836E-05-4.16669E-05-5.88335E-06 3.93253E-05-8.65244E-19-2.28297E-18
 -1       441 1.15273E-05-2.25208E-05 4.51629E-06-5.78981E-06 2.86412E-18-8.73079E-19
 -1       442 2.52323E-05-2.92615E-05 1.50849E-06 2.49332E-05 3.67401E-20 3.17415E-18
 -1       443 9.80374E-05-5.61270E-05-1.81605E-05 3.95858E-05 8.90443E-20-5.02264E-18
 -1       444 1.39808E-04-6.29788E-05-3.30885E-05 2.18672E-05-6.23840E-19-5.29607E-19
 -1       445 8.94275E-05-1.19268E-05-3.32771E-05-1.07672E-05-6.38624E-19-5.39593E-19
 -1       446 1.65716E-04-3.05188E-05-5.80507E-05-9.65598E-06-4.55280E-21-2.38842E-18
 -1       447 1.74327E-04-1.93717E-05-6.57747E-05-1.57093E-06 5.83817E-19-2.75381E-18
 -1       448 1.71591E-04-2.19725E-05-6.36736E-05 5.09795E-06 8.99020E-19-6.74979E-19
 -1       449 1.65774E-04-3.88088E-05-5.44224E-05 7.84496E-06 3.29761E-19-1.08526E-19
 -1       450 1.52357E-04-5.98465E-05-3.98614E-05-1.04511E-05-6.53539E-19-4.07190E-18
 -1       451 1.28940E-04-6.19992E-05-2.86995E-05-2.92271E-05-1.22820E-20-2.06750E-18
 -1       452 8.49965E-05-5.21726E-05-1.43198E-05-4.10755E-05 1.67924E-19-2.05048E-18
 -1       453 4.09272E-05-3.63878E-05-2.25920E-06-3.45057E-05 5.35219E-19-1.42651E-18
 -1       454 1.67087E-05-2.69856E-05 4.03821E-06-1.52776E-05 1.61360E-19-1.89185E-18
 -1       455 1.31574E-05-2.27116E-05 3.94367E-06 1.34024E-05-4.26560E-19-7.86258E-19
 -1       456 3.02556E-05-3.05374E-05-8.37874E-08 3.48519E-05-1.28622E-18-1.19527E-18
 -1       457 7.19236E-05-4.50491E-05-1.15377E-05 4.70265E-05-1.96766E-18 1.02672E-18
 -1       458 1.09565E-04-5.27077E-05-2.43792E-05 4.05223E-05-1.63975E-18 7.10978E-19
 -1       459 1.38366E-04-5.13948E-05-3.73080E-05 2.31756E-05-4.15628E-19-1.11491E-18
 -1       460 1.53152E-04-3.18582E-05-5.21185E-05 3.01984E-06-2.95562E-19 2.92862E-19
 -1       461 1.56396E-04-1.60458E-05-6.01407E-05-1.37570E-06-3.62318E-19-1.52604E-18
 -1       462 1.62132E-04-1.26730E-05-6.37824E-05-4.48956E-08 2.55275E-19-1.16777E-18
 -1       463 1.60048E-04-2.05116E-05-5.96299E-05-9.82549E-07 5.56183E-19-9.75041E-19
 -1       464 1.53411E-04-3.73300E-05-4.97422E-05-7.63016E-06 7.88508E-19-5.56712E-19
 -1       465 1.36541E-04-4.87615E-05-3.75122E-05-2.80181E-05 2.71956E-18-7.34695E-19
 -1       466 1.01862E-04-5.17305E-05-2.15997E-05-4.26181E-05 2.46931E-18-2.01287E-18
 -1       467 6.61393E-05-4.33496E-05-9.69616E-06-4.70020E-05 7.32472E-19-1.42947E-18
 -1       468 2.71141E-05-2.85165E-05 5.07557E-07-3.26466E-05 2.19329E-18-1.49607E-18
 -1       469 1.62914E-04-4.91022E-05-4.87996E-05-3.35316E-06 3.90720E-19-1.12962E-18
 -1       470 1.44306E-04-4.61207E-05-4.23608E-05 2.19051E-06 5.82282E-19 7.26860E-20
 -1       471 9.58006E-05-2.51420E-05-3.02680E-05 6.02569E-06 5.11275E-19-9.89821E-20
 -1       472 8.95645E-05-1.34032E-05-3.26595E-05-3.92589E-06-2.22899E-19-6.99488E-19
 -1       473 9.02674E-05-1.43678E-05-3.25487E-05-5.88241E-06-3.96580E-19-5.70354E-19
 -1       474 8.90719E-05-1.27233E-05-3.27386E-05 5.43164E-08 6.91907E-20-8.23576E-19
 -1       475 8.92059E-05-1.29069E-05-3.27176E-05 2.04625E-06 9.33634E-20-9.74655E-19
 -1       476 8.95967E-05-1.34442E-05-3.26560E-05 3.99945E-06 1.60301E-19-9.99505E-19
 -1       477 9.03158E-05-1.44316E-05-3.25429E-05 5.95503E-06 5.22403E-19-7.31671E-19
 -1       478 9.14550E-05-1.60092E-05-3.23570E-05 7.78587E-06 5.53993E-19-7.65107E-19
 -1       479 9.32303E-05-1.84770E-05-3.20573E-05 9.30303E-06 6.17373E-19-5.86059E-19
 -1       480 9.50947E-05-2.65708E-05-2.93495E-05 2.87993E-06 5.76169E-19 3.67583E-20
 -1       481 9.54669E-05-2.44288E-05-3.04351E-05-5.82284E-06-6.09544E-19-4.17164E-20
 -1       482 9.46190E-05-2.07661E-05-3.16720E-05-9.52389E-06-6.64175E-19-1.87315E-19
 -1       483 1.50345E-04-6.06298E-05-3.86947E-05-6.83775E-06 2.53804E-20 6.64127E-19
 -1       484 9.52578E-05-2.62105E-05-2.95834E-05-2.89961E-06-7.35176E-19 2.08159E-20
 -1       485 9.49052E-05-2.71425E-05-2.90367E-05-1.03126E-06-3.69484E-19 2.04472E-20
 -1       486 9.46361E-05-2.76724E-05-2.86967E-05 1.05215E-07-1.82719E-19-5.47288E-20
 -1       487 9.44884E-05-2.79948E-05-2.84964E-05 7.60821E-07-1.64747E-20-2.18206E-19
 -1       488 9.44450E-05-2.81998E-05-2.83905E-05 1.10866E-06-1.33294E-19-7.31441E-19
 -1       489 9.44777E-05-2.83316E-05-2.83483E-05 1.26701E-06-9.68647E-20-7.39106E-19
 -1       490 9.45616E-05-2.84140E-05-2.83490E-05 1.31761E-06-3.85285E-19-1.13419E-19
 -1       491 9.46789E-05-2.84618E-05-2.83789E-05 1.31788E-06-5.06495E-19 2.06840E-19
 -1       492 9.48192E-05-2.84847E-05-2.84291E-05 1.30862E-06-1.60324E-19-1.01489E-19
 -1       493 9.49779E-05-2.84907E-05-2.84945E-05 1.31899E-06-1.41863E-19 1.18422E-19
 -1       494 9.51557E-05-2.84873E-05-2.85720E-05 1.36949E-06-5.57625E-19-2.29910E-19
 -1       495 9.53570E-05-2.84823E-05-2.86603E-05 1.47347E-06-4.78122E-19-3.26229E-19
 -1       496 9.55903E-05-2.84856E-05-2.87588E-05 1.63744E-06-4.92844E-19 9.87306E-20
 -1       497 9.58671E-05-2.85101E-05-2.88668E-05 1.86006E-06-1.17186E-19 2.93211E-20
 -1       498 9.62022E-05-2.85733E-05-2.89833E-05 2.12991E-06-3.87949E-19-2.28735E-19
 -1       499 9.66140E-05-2.86989E-05-2.91060E-05 2.42202E-06-3.26789E-19-8.01067E-19
 -1       500 9.71237E-05-2.89171E-05-2.92312E-05 2.69337E-06 1.42811E-19-1.52654E-18
 -1       501 9.77548E-05-2.92640E-05-2.93535E-05 2.87806E-06 2.05185E-19-1.89302E-18
 -1       502 9.85293E-05-2.97763E-05-2.94666E-05 2.88369E-06 6.18338E-20-1.35217E-18
 -1       503 9.94596E-05-3.04792E-05-2.95651E-05 2.59193E-06 3.49697E-19-8.59022E-19
 -1       504 1.00533E-04-3.13635E-05-2.96472E-05 1.86863E-06 2.90058E-19-4.16593E-19
 -1       505 1.01682E-04-3.23495E-05-2.97188E-05 5.92077E-07-1.23544E-19-6.44992E-19
 -1       506 1.02758E-04-3.32449E-05-2.97966E-05-1.28962E-06-1.50161E-19 3.35160E-19
 -1       507 1.03501E-04-3.37232E-05-2.99094E-05-3.66737E-06-4.67674E-19 9.63192E-19
 -1       508 1.03575E-04-3.33692E-05-3.00897E-05-6.16443E-06-1.59178E-19 1.78040E-18
 -1       509 1.02697E-04-3.18522E-05-3.03586E-05-8.07168E-06 3.20669E-19 1.78121E-18
 -1       510 1.00894E-04-2.92500E-05-3.06972E-05-8.46056E-06-5.13177E-19 1.03447E-18
 -1       511 9.87358E-05-2.63123E-05-3.10312E-05-6.62625E-06-5.16109E-19 2.20052E-19
 -1       512 9.72120E-05-2.42902E-05-3.12482E-05-2.68078E-06-8.87364E-19 8.02268E-19
 -1       513 9.71337E-05-2.41889E-05-3.12604E-05 2.19382E-06-9.38238E-19-8.56665E-20
 -1       514 9.85630E-05-2.60867E-05-3.10588E-05 6.28205E-06 7.54093E-19-1.50796E-18
 -1       515 1.00710E-04-2.90108E-05-3.07260E-05 8.29870E-06 1.97536E-19-1.38267E-18
 -1       516 1.02561E-04-3.16874E-05-3.03739E-05 8.04037E-06-6.57076E-19 4.84404E-19
 -1       517 1.03503E-04-3.33135E-05-3.00827E-05 6.17621E-06 9.13869E-21 9.57097E-19
 -1       518 1.03469E-04-3.37585E-05-2.98788E-05 3.64055E-06-3.83532E-19 4.00602E-19
 -1       519 1.02725E-04-3.33261E-05-2.97460E-05 1.17961E-06-4.79071E-19-6.34607E-20
 -1       520 1.01617E-04-3.24355E-05-2.96527E-05-7.96085E-07-6.41294E-19 1.18149E-18
 -1       521 1.00416E-04-3.14244E-05-2.95705E-05-2.15723E-06-2.70186E-19 1.63102E-18
 -1       522 9.92812E-05-3.04921E-05-2.94828E-05-2.94180E-06 1.15167E-18 2.74527E-18
 -1       523 9.82832E-05-2.97201E-05-2.93851E-05-3.25859E-06 1.20439E-18 2.03791E-18
 -1       524 9.74366E-05-2.91141E-05-2.92812E-05-3.22700E-06 2.19463E-18 2.23771E-18
 -1       525 9.67273E-05-2.86426E-05-2.91786E-05-2.94632E-06 2.14297E-18 2.89698E-18
 -1       526 9.61380E-05-2.82674E-05-2.90860E-05-2.48659E-06 9.89523E-19 4.27541E-18
 -1       527 5.06290E-05-2.95652E-05-8.53573E-06 3.48667E-05-9.07543E-19-4.19864E-19
 -1       528 9.41300E-05-2.76737E-05-2.84776E-05-1.27580E-07 2.26319E-19-4.01937E-19
 -1       529 9.39622E-05-2.79180E-05-2.83033E-05-7.51724E-07 3.14512E-19-5.62902E-19
 -1       530 9.39452E-05-2.80856E-05-2.82252E-05-1.07261E-06 2.06088E-19-5.76930E-19
 -1       531 9.40291E-05-2.82069E-05-2.82096E-05-1.21013E-06 1.47268E-19-2.36120E-19
 -1       532 9.41761E-05-2.82959E-05-2.82346E-05-1.24504E-06-5.30060E-20-2.22168E-19
 -1       533 9.43615E-05-2.83605E-05-2.82864E-05-1.23358E-06 1.04034E-19-4.84173E-19
 -1       534 9.45714E-05-2.84054E-05-2.83570E-05-1.21670E-06 5.96992E-19-7.49298E-19
 -1       535 9.48007E-05-2.84344E-05-2.84427E-05-1.22589E-06 3.00706E-19-9.07991E-19
 -1       536 9.50508E-05-2.84499E-05-2.85430E-05-1.28739E-06 1.16492E-19-4.82598E-19
 -1       537 9.53283E-05-2.84537E-05-2.86599E-05-1.42529E-06-1.36312E-19-1.08285E-19
 -1       538 9.56438E-05-2.84465E-05-2.87978E-05-1.66412E-06 3.44568E-19-1.96795E-19
 -1       539 9.60105E-05-2.84277E-05-2.89625E-05-2.03096E-06 9.86110E-19-6.89432E-19
 -1       540 9.64435E-05-2.83957E-05-2.91610E-05-2.55713E-06 7.69263E-19 1.00770E-19
 -1       541 9.69586E-05-2.83484E-05-2.94012E-05-3.27912E-06-2.61205E-19 7.88894E-19
 -1       542 9.75717E-05-2.82849E-05-2.96901E-05-4.23785E-06-7.07513E-19 7.54237E-19
 -1       543 9.82990E-05-2.82114E-05-3.00323E-05-5.47467E-06-9.68547E-19 4.85625E-19
 -1       544 9.91613E-05-2.81534E-05-3.04258E-05-7.02089E-06-8.78653E-19-4.53127E-19
 -1       545 1.00199E-04-2.81826E-05-3.08577E-05-8.87577E-06-1.14283E-19-2.62743E-19
 -1       546 1.01506E-04-2.84674E-05-3.12972E-05-1.09647E-05-3.53308E-19 4.37681E-19
 -1       547 1.03307E-04-2.93547E-05-3.16927E-05-1.30663E-05-4.48209E-19-2.42879E-19
 -1       548 1.06078E-04-3.14659E-05-3.19822E-05-1.46951E-05-9.18511E-19-3.98549E-19
 -1       549 1.10675E-04-3.56928E-05-3.21476E-05-1.49230E-05-1.57957E-18-3.11865E-19
 -1       550 1.18249E-04-4.27556E-05-3.23594E-05-1.21906E-05-7.32468E-19-8.34315E-19
 -1       551 1.29134E-04-5.13913E-05-3.33104E-05-4.37183E-06-9.91639E-19-3.59964E-19
 -1       552 1.40318E-04-5.57003E-05-3.63788E-05 8.84046E-06-5.15825E-19 3.58785E-19
 -1       553 1.38171E-04-2.43878E-05-4.94333E-05 1.59457E-05 9.70912E-19 6.06290E-19
 -1       554 1.36060E-04-1.82406E-05-5.10791E-05-6.13384E-06-7.78529E-19 1.54122E-18
 -1       555 1.41041E-04-3.47329E-05-4.61390E-05-2.12234E-05 1.45298E-18-5.37548E-19
 -1       556 1.32933E-04-5.91995E-05-3.15227E-05 8.27558E-06-2.47463E-19 3.79014E-19
 -1       557 1.16751E-04-4.77496E-05-2.94964E-05 1.66477E-05-3.64747E-19-2.34596E-18
 -1       558 1.06083E-04-3.71557E-05-2.95211E-05 1.87706E-05-1.30402E-18-2.27434E-18
 -1       559 1.00548E-04-3.06780E-05-2.99442E-05 1.78104E-05-7.57483E-19-1.79437E-18
 -1       560 9.81008E-05-2.75480E-05-3.02366E-05 1.57360E-05-8.04522E-19-2.04263E-18
 -1       561 9.71347E-05-2.63996E-05-3.03134E-05 1.33521E-05-3.55393E-19-2.46695E-18
 -1       562 9.67572E-05-2.62358E-05-3.02206E-05 1.10403E-05-5.25550E-19-3.61369E-18
 -1       563 9.65474E-05-2.64655E-05-3.00320E-05 8.96195E-06 5.71891E-19-4.02496E-18
 -1       564 9.63434E-05-2.67827E-05-2.98087E-05 7.16531E-06 1.18794E-18-4.20098E-18
 -1       565 9.61009E-05-2.70461E-05-2.95918E-05 5.63639E-06 9.43269E-19-1.27526E-18
 -1       566 9.58110E-05-2.71921E-05-2.94042E-05 4.32494E-06 1.15436E-18 8.77941E-19
 -1       567 9.33117E-05-2.48578E-05-2.93389E-05 2.40708E-06 2.32056E-18-1.46215E-18
 -1       568 9.29160E-05-2.44226E-05-2.93560E-05 1.43009E-06 2.09170E-18 6.70271E-19
 -1       569 9.48251E-05-2.65132E-05-2.92744E-05 3.23767E-06 6.21397E-19-1.23236E-18
 -1       570 9.39730E-05-2.55810E-05-2.93116E-05 3.05524E-06-9.30857E-20-7.62494E-19
 -1       571 9.28151E-05-2.43138E-05-2.93595E-05 3.15131E-07 1.62387E-18 7.14598E-19
 -1       572 9.29778E-05-2.45079E-05-2.93459E-05-7.60784E-07 5.25396E-19 1.59460E-18
 -1       573 9.33368E-05-2.49412E-05-2.93138E-05-1.65608E-06 5.43355E-19-1.43097E-18
 -1       574 9.38056E-05-2.55212E-05-2.92656E-05-2.27487E-06-9.22858E-19-5.16230E-18
 -1       575 9.43302E-05-2.61869E-05-2.92046E-05-2.60172E-06-9.36600E-19-1.04335E-18
 -1       576 9.48586E-05-2.68708E-05-2.91374E-05-2.62651E-06-5.81477E-19 4.80306E-18
 -1       577 9.53415E-05-2.75106E-05-2.90695E-05-2.38331E-06-8.95237E-20 3.75540E-19
 -1       578 2.83470E-05-1.49719E-05-5.06503E-06-2.06526E-05 1.83597E-18-3.40772E-19
 -1       579 9.45035E-05-2.72836E-05-2.87998E-05 9.85183E-07 3.59444E-19-1.06511E-19
 -1       580 8.94921E-05-4.94868E-05-1.67996E-05 3.94365E-05 6.75721E-19-2.06372E-18
 -1       581 5.47794E-05-3.11323E-05-9.59923E-06-4.17793E-05 7.84247E-19 2.05564E-19
 -1       582 1.50330E-04-3.96672E-05-4.76396E-05-2.08055E-05 2.13833E-18-1.67130E-19
 -1       583 1.25859E-04-6.38773E-05-2.65537E-05 2.57175E-05 1.01178E-18-1.01113E-18
 -1       584 2.27104E-05-1.29138E-05-3.55242E-06-3.54174E-06 5.11826E-19-2.32828E-18
 -1       585 1.52277E-04-5.20912E-05-4.33295E-05 1.59098E-05 1.27746E-18-1.07049E-18
 -1       586 8.91860E-05-1.28817E-05-3.27199E-05-1.93808E-06 1.21970E-20-8.04707E-19
 -1       587 1.46545E-04-1.56219E-05-5.66231E-05 3.09905E-06-8.44280E-19 8.27511E-19
 -1       588 7.54540E-05-4.41057E-05-1.30860E-05-4.05730E-05 6.91126E-19-1.41476E-18
 -1       589 1.47744E-04-2.13114E-05-5.46729E-05-1.25050E-05 4.11764E-19 2.66180E-19
 -1       590 1.48001E-04-2.67166E-05-5.23026E-05 1.81602E-05 3.30237E-19 7.25007E-19
 -1       591 1.42438E-04-6.52369E-05-3.32086E-05-1.00366E-05-5.31937E-19-3.44520E-18
 -1       592 1.03828E-04-5.44037E-05-2.08948E-05 4.06560E-05-1.79894E-18 5.93940E-19
 -1       593 1.17697E-04-6.16574E-05-2.38843E-05-3.10752E-05 1.93071E-19-2.98842E-18
 -1       594 3.69540E-05-2.29582E-05-5.49708E-06-2.75603E-05 8.73026E-19-1.41232E-18
 -1       595 3.18601E-05-1.72922E-05-5.61000E-06 2.67186E-05 2.07126E-19-1.49279E-18
 -1       596 6.06539E-05-3.49789E-05-1.05777E-05 4.42429E-05-6.06529E-19 8.94149E-20
 -1       597 1.27690E-04-5.91499E-05-2.93476E-05 2.53838E-05-1.37863E-18-2.83253E-19
 -1       598 1.37225E-04-2.13716E-05-5.02686E-05-1.00767E-05 1.94129E-19-4.70103E-20
 -1       599 1.34368E-04-6.80939E-06-5.52524E-05-3.15860E-06-5.71324E-19 5.67975E-19
 -1       600 1.34428E-04-9.52415E-06-5.41657E-05 6.35310E-06 7.90811E-19 4.19811E-20
 -1       601 1.37587E-04-2.66570E-05-4.80730E-05 1.09550E-05 1.17002E-18-5.24419E-19
 -1       602 1.43336E-04-5.02269E-05-4.01604E-05-6.08638E-06 5.64428E-19-7.01449E-19
 -1       603 1.28208E-04-5.89771E-05-2.96721E-05-2.71064E-05 1.55224E-18 2.05601E-18
 -1       604 9.74479E-05-5.25378E-05-1.90443E-05-4.27300E-05 1.29967E-18-1.61782E-18
 -1       605 2.44357E-05-1.51367E-05-3.41736E-06 1.18513E-05 2.92136E-18 1.49713E-19
 -1       606 9.61382E-05-2.31836E-05-3.12698E-05 9.59148E-06 8.21956E-19-1.17483E-19
 -1       607 9.13486E-05-1.59044E-05-3.23681E-05-7.67526E-06-5.16871E-19-5.28536E-19
 -1       608 8.13031E-05-4.15421E-05-1.66743E-05-4.18801E-05 4.70791E-19-2.04196E-18
 -1       609 9.59146E-05-2.78389E-05-2.91693E-05 2.48770E-06 7.52934E-19 6.56135E-19
 -1       610 9.57933E-05-2.80562E-05-2.90284E-05-2.08908E-06 1.18614E-18 4.10010E-18
 -1       611 1.35838E-04-3.49156E-05-4.36637E-05-1.00633E-05 3.27272E-19 1.40290E-19
 -1       612 1.35985E-04-5.55669E-05-3.46224E-05 8.35684E-06-7.61000E-19 8.65562E-19
 -1       613 9.15795E-05-1.68471E-05-3.20338E-05 2.44021E-06 1.99147E-19-9.11929E-19
 -1       614 9.13224E-05-1.64434E-05-3.20963E-05 8.39725E-07 1.05753E-19-9.58822E-19
 -1       615 9.29090E-05-1.89986E-05-3.16815E-05 5.26608E-06 4.96149E-19-7.24645E-19
 -1       616 9.39887E-05-2.09261E-05-3.13204E-05 6.14792E-06 4.44076E-19-7.12481E-19
 -1       617 9.52670E-05-2.40904E-05-3.04939E-05 5.15270E-06 4.01546E-19-4.62051E-19
 -1       618 1.10803E-04-5.32455E-05-2.44396E-05 2.80987E-05 1.67699E-18-1.72652E-18
 -1       619 9.53333E-05-2.59357E-05-2.97380E-05 2.60180E-06 4.99712E-19-4.32530E-19
 -1       620 9.41755E-05-2.09777E-05-3.13705E-05-7.06590E-06-5.40576E-19-3.55746E-19
 -1       621 9.51327E-05-2.40523E-05-3.04637E-05-4.21192E-06-4.85816E-19-3.24089E-19
 -1       622 9.54553E-05-2.59170E-05-2.98011E-05-2.07810E-06-3.81530E-19-4.15233E-20
 -1       623 9.55139E-05-2.70679E-05-2.93340E-05-6.27401E-07-1.45272E-19 1.17616E-19
 -1       624 9.54676E-05-2.77721E-05-2.90126E-05 3.01798E-07-1.28085E-19 2.27119E-19
 -1       625 9.53999E-05-2.82005E-05-2.88000E-05 8.58088E-07-1.12387E-19 2.80625E-19
 -1       626 9.53408E-05-2.84506E-05-2.86674E-05 1.16372E-06-3.22350E-20 2.85580E-19
 -1       627 9.52985E-05-2.85814E-05-2.85932E-05 1.31290E-06-1.41585E-20 2.00633E-19
 -1       628 9.52729E-05-2.86298E-05-2.85615E-05 1.37602E-06-2.31478E-19-2.76829E-21
 -1       629 9.52621E-05-2.86203E-05-2.85608E-05 1.40515E-06-7.01997E-19 2.27220E-20
 -1       630 9.52643E-05-2.85702E-05-2.85832E-05 1.43864E-06-6.95012E-20-1.12096E-19
 -1       631 9.52795E-05-2.84928E-05-2.86228E-05 1.50447E-06-6.18605E-19-2.04328E-19
 -1       632 9.53097E-05-2.84002E-05-2.86755E-05 1.62239E-06-7.01705E-19 1.16718E-19
 -1       633 9.53606E-05-2.83057E-05-2.87377E-05 1.80499E-06-4.21127E-19-1.98396E-19
 -1       634 9.54420E-05-2.82262E-05-2.88067E-05 2.05745E-06 2.41663E-19-4.34663E-19
 -1       635 9.55701E-05-2.81854E-05-2.88790E-05 2.37619E-06-5.82512E-19-2.63318E-19
 -1       636 9.57695E-05-2.82164E-05-2.89512E-05 2.74615E-06-5.47394E-19-3.13335E-19
 -1       637 9.60763E-05-2.83647E-05-2.90192E-05 3.13671E-06-9.16479E-19-9.86792E-19
 -1       638 9.65399E-05-2.86887E-05-2.90791E-05 3.49634E-06 2.72402E-19-8.93415E-19
 -1       639 9.72239E-05-2.92569E-05-2.91289E-05 3.74633E-06 1.50230E-18-7.01104E-19
 -1       640 9.82007E-05-3.01365E-05-2.91708E-05 3.77451E-06 6.42048E-19 3.53839E-19
 -1       641 9.95356E-05-3.13677E-05-2.92155E-05 3.43184E-06 3.74450E-19 7.45010E-19
 -1       642 1.01252E-04-3.29157E-05-2.92878E-05 2.53840E-06 6.76937E-20 7.42271E-19
 -1       643 1.03266E-04-3.45956E-05-2.94316E-05 9.15569E-07 6.47550E-19 3.63166E-19
 -1       644 1.05310E-04-3.59929E-05-2.97088E-05-1.52760E-06-1.96705E-19 3.84242E-19
 -1       645 1.06881E-04-3.64426E-05-3.01894E-05-4.63583E-06 1.05316E-18 1.56008E-18
 -1       646 1.07311E-04-3.51668E-05-3.09176E-05-7.80367E-06-2.59685E-20 1.51516E-18
 -1       647 1.06076E-04-3.17152E-05-3.18677E-05-9.80542E-06-1.26687E-18-1.88552E-19
 -1       648 1.03501E-04-2.68243E-05-3.28649E-05-9.15250E-06-8.61480E-19-5.68207E-19
 -1       649 1.00914E-04-2.24973E-05-3.36191E-05-5.14123E-06-6.67354E-19-1.04929E-18
 -1       650 1.00089E-04-2.11719E-05-3.38358E-05 1.01404E-06-1.13545E-18 4.43921E-20
 -1       651 1.01670E-04-2.37189E-05-3.34118E-05 6.73892E-06-8.83950E-20 9.21019E-19
 -1       652 1.04461E-04-2.85403E-05-3.25382E-05 9.63313E-06 2.00622E-19 1.36607E-18
 -1       653 1.06705E-04-3.31486E-05-3.15235E-05 9.21654E-06 4.72641E-19 1.39088E-18
 -1       654 1.07362E-04-3.58949E-05-3.06283E-05 6.61258E-06-8.80220E-19 1.75269E-18
 -1       655 1.06477E-04-3.65387E-05-2.99749E-05 3.29992E-06-5.53199E-19 7.44689E-20
 -1       656 1.04662E-04-3.56853E-05-2.95633E-05 3.12548E-07-3.75558E-19 3.52607E-19
 -1       657 1.02565E-04-3.41192E-05-2.93357E-05-1.90375E-06 1.07603E-18-2.26925E-20
 -1       658 1.00615E-04-3.24317E-05-2.92228E-05-3.30119E-06-2.76887E-20 2.18816E-18
 -1       659 9.90070E-05-3.09461E-05-2.91696E-05-4.01276E-06 1.35950E-18 1.56916E-18
 -1       660 9.77740E-05-2.97774E-05-2.91416E-05-4.21524E-06 1.11247E-18 1.02956E-18
 -1       661 9.68680E-05-2.89171E-05-2.91218E-05-4.06762E-06 3.19423E-18 3.54997E-18
 -1       662 9.62103E-05-2.82983E-05-2.91047E-05-3.68981E-06 2.23081E-18 3.74381E-18
 -1       663 9.57146E-05-2.78375E-05-2.90912E-05-3.15848E-06 1.13577E-18 3.62493E-18
 -1       664 1.23024E-04-1.60449E-05-4.63358E-05 1.11376E-05 8.20193E-19 1.45612E-18
 -1       665 9.50925E-05-2.76830E-05-2.88889E-05-1.50501E-07 3.40217E-19-4.78453E-19
 -1       666 9.49331E-05-2.84640E-05-2.84868E-05-1.29491E-06 7.93619E-20 6.13379E-20
 -1       667 9.49599E-05-2.85325E-05-2.84690E-05-1.35961E-06 5.18350E-19-5.25527E-19
 -1       668 9.50111E-05-2.85496E-05-2.84836E-05-1.38211E-06 2.98784E-19-6.96574E-19
 -1       669 9.50797E-05-2.85264E-05-2.85229E-05-1.40651E-06 4.81666E-19-6.40467E-20
 -1       670 9.51609E-05-2.84689E-05-2.85823E-05-1.46777E-06-2.71173E-20 4.47326E-19
 -1       671 9.52518E-05-2.83788E-05-2.86597E-05-1.59542E-06 7.14335E-20 4.00686E-19
 -1       672 9.53496E-05-2.82541E-05-2.87549E-05-1.81656E-06-1.54391E-19 2.95000E-19
 -1       673 9.54506E-05-2.80891E-05-2.88688E-05-2.15817E-06 7.48306E-19 5.56395E-19
 -1       674 9.55481E-05-2.78744E-05-2.90023E-05-2.64880E-06 3.61557E-19 1.39040E-18
 -1       675 9.56306E-05-2.75974E-05-2.91562E-05-3.31964E-06-1.41137E-20 1.60562E-18
 -1       676 9.56800E-05-2.72436E-05-2.93286E-05-4.20462E-06-2.07318E-19 7.45076E-19
 -1       677 9.56709E-05-2.68022E-05-2.95135E-05-5.33908E-06-8.25617E-19 5.95577E-19
 -1       678 9.55741E-05-2.62770E-05-2.96966E-05-6.75655E-06-7.23400E-19 7.27184E-19
 -1       679 9.53700E-05-2.57113E-05-2.98512E-05-8.48327E-06-1.53934E-19 5.16394E-19
 -1       680 9.50832E-05-2.52350E-05-2.99324E-05-1.05306E-05 2.51572E-20 3.87571E-19
 -1       681 9.48581E-05-2.51482E-05-2.98734E-05-1.28857E-05-5.04233E-19 1.28185E-19
 -1       682 9.51058E-05-2.60512E-05-2.95919E-05-1.54942E-05-4.80783E-19 5.16913E-19
 -1       683 9.67191E-05-2.89766E-05-2.90240E-05-1.82069E-05-1.13048E-18-4.77976E-19
 -1       684 1.01468E-04-3.54722E-05-2.82503E-05-2.04369E-05-5.87722E-19-1.39456E-18
 -1       685 1.11740E-04-4.66723E-05-2.77953E-05-2.07573E-05-1.10315E-18-1.02227E-18
 -1       686 1.25486E-04-5.87844E-05-2.85131E-05-1.79276E-05-8.77910E-19-1.72965E-18
 -1       687 9.55369E-05-2.76664E-05-2.90863E-05-2.79072E-06 9.88065E-20 2.32633E-18
 -1       688 1.35442E-04-4.18741E-05-4.03961E-05 7.84925E-06-2.43787E-19 4.58457E-19
 -1       689 8.88364E-05-2.73233E-05-2.63207E-05 2.09290E-05-2.96735E-19-4.36930E-18
 -1       690 8.83127E-05-2.37557E-05-2.76522E-05 1.69896E-05-7.44463E-19-4.78610E-18
 -1       691 8.93420E-05-2.27355E-05-2.85403E-05 1.38923E-05-1.69599E-19-5.22326E-18
 -1       692 9.07643E-05-2.29877E-05-2.90445E-05 1.14440E-05-1.81106E-18-2.56449E-18
 -1       693 9.20807E-05-2.37395E-05-2.92873E-05 9.41902E-06 4.03063E-19-1.82033E-18
 -1       694 9.31212E-05-2.45853E-05-2.93713E-05 7.70332E-06 2.10232E-19-3.13706E-19
 -1       695 9.38623E-05-2.53249E-05-2.93716E-05 6.23785E-06-1.31635E-18 1.00681E-18
 -1       696 9.43156E-05-2.58655E-05-2.93380E-05 4.94785E-06 9.60776E-19-1.21479E-20
 -1       697 9.20640E-05-2.41860E-05-2.90909E-05-4.84801E-07 1.80678E-18-1.55300E-19
 -1       698 9.22625E-05-2.42297E-05-2.91583E-05 2.30551E-06 1.42669E-18-1.51975E-18
 -1       699 9.25161E-05-2.46623E-05-2.90808E-05-1.70166E-06 4.25639E-19-1.09494E-18
 -1       700 9.19490E-05-2.40148E-05-2.91151E-05 9.22278E-07 1.25159E-18 1.19851E-18
 -1       701 7.65017E-05-3.57376E-05-1.70685E-05 3.47050E-05 7.67597E-19-5.77279E-19
 -1       702 9.31673E-05-2.53182E-05-2.90786E-05-2.59191E-06-7.06269E-19-4.28549E-18
 -1       703 9.39224E-05-2.60686E-05-2.90803E-05-3.12751E-06 4.06257E-19-3.51399E-18
 -1       704 9.46783E-05-2.68131E-05-2.90849E-05-3.29774E-06 1.68832E-18 3.09179E-18
 -1       705 9.52269E-05-2.70258E-05-2.92269E-05 9.14904E-07 3.57015E-19-5.35775E-19
 -1       706 1.17614E-04-5.74850E-05-2.57102E-05-2.91208E-05 1.62154E-18 2.22019E-18
 -1       707 1.17814E-04-5.67659E-05-2.60366E-05 2.76245E-05-1.18818E-18 1.09320E-19
 -1       708 1.34541E-04-5.68495E-05-3.34122E-05-1.03544E-05 6.18453E-19 8.18022E-19
 -1       709 8.78470E-05-4.32864E-05-1.87936E-05 3.96530E-05-2.13929E-19 3.91382E-19
 -1       710 9.31399E-05-3.55486E-05-2.45204E-05 2.58818E-05-4.36728E-19-1.11266E-18
 -1       711 9.49405E-05-2.83252E-05-2.85494E-05-1.12967E-06 2.14992E-20 1.58525E-19
 -1       712 9.49929E-05-2.80849E-05-2.86747E-05-7.84521E-07 5.74697E-20-2.17820E-19
 -1       713 6.42357E-05-2.98328E-05-1.42933E-05-3.34452E-05 6.80538E-19-1.02195E-18
 -1       714 9.21022E-05-1.76765E-05-3.19026E-05 3.94739E-06 3.70853E-19-6.07235E-19
 -1       715 9.20554E-05-1.76136E-05-3.19092E-05-3.89801E-06-2.42514E-19-4.33261E-19
 -1       716 4.60771E-05-1.74823E-05-1.17411E-05 2.25382E-05 1.43543E-18-9.80441E-19
 -1       717 3.70397E-05-1.02807E-05-1.08902E-05 9.74985E-06 9.12142E-19-2.19366E-18
 -1       718 4.01871E-05-1.41541E-05-1.05799E-05-1.64466E-05 1.12282E-18-1.69820E-18
 -1       719 9.89919E-05-4.73330E-05-2.17903E-05-3.20879E-05-2.95350E-19-2.11005E-18
 -1       720 5.53657E-05-2.37840E-05-1.30671E-05 3.44752E-05 5.69047E-19-4.22537E-19
 -1       721 1.22129E-04-1.24935E-05-4.75382E-05-9.18980E-06-4.26428E-19 2.34788E-18
 -1       722 3.48790E-05-1.01291E-05-1.00114E-05-2.21290E-06 8.23520E-19 7.70959E-19
 -1       723 1.20161E-04-7.05101E-06-4.90168E-05 1.82490E-06 5.79476E-19 9.21985E-19
 -1       724 5.14328E-05-2.00868E-05-1.29483E-05-2.97561E-05-2.60780E-19 9.15325E-19
 -1       725 9.40663E-05-2.57360E-05-2.92860E-05 3.97464E-06 2.85728E-18-8.04380E-19
 -1       726 9.28829E-05-1.89244E-05-3.17003E-05-5.28860E-06-3.98027E-19-4.60690E-19
 -1       727 9.13154E-05-1.64340E-05-3.20974E-05-7.83496E-07 7.07909E-20-7.14940E-19
 -1       728 7.03515E-05-2.94307E-05-1.72246E-05-3.40126E-05-6.91735E-19-1.82162E-18
 -1       729 1.25309E-04-2.96187E-05-4.13153E-05 1.30654E-05 4.00183E-19 2.04551E-18
 -1       730 1.27160E-04-5.66183E-05-3.03054E-05 1.38354E-05-1.62917E-18 6.31410E-19
 -1       731 4.86305E-05-1.29042E-05-1.49347E-05-1.54201E-05-7.10045E-19 1.31973E-18
 -1       732 1.23840E-04-2.28456E-05-4.36683E-05-1.29734E-05-1.63221E-18 8.67124E-19
 -1       733 9.30040E-05-2.48208E-05-2.92208E-05 3.35248E-06 2.00553E-18 1.28214E-19
 -1       734 9.15558E-05-1.68142E-05-3.20376E-05-2.38005E-06-1.12591E-19-5.43667E-19
 -1       735 1.02334E-04-4.94698E-05-2.24568E-05-3.37126E-05 1.48004E-18-3.51380E-19
 -1       736 1.33538E-04-4.64689E-05-3.75227E-05-4.98458E-06-3.23057E-19-8.66554E-19
 -1       737 9.46397E-05-2.27129E-05-3.08240E-05 3.90794E-06 4.84816E-19-7.92195E-19
 -1       738 9.50979E-05-2.38358E-05-3.05392E-05-3.11125E-06-3.23089E-19-3.28529E-19
 -1       739 9.56697E-05-2.57596E-05-2.99616E-05-1.50037E-06-9.16684E-20-1.67970E-19
 -1       740 9.59298E-05-2.70285E-05-2.95291E-05-3.65668E-07-1.27192E-19 1.23370E-19
 -1       741 9.60028E-05-2.78362E-05-2.92142E-05 3.83585E-07-8.95069E-21 2.85504E-19
 -1       742 9.59753E-05-2.83274E-05-2.89920E-05 8.44030E-07-2.37277E-19 2.72701E-19
 -1       743 9.58968E-05-2.85996E-05-2.88417E-05 1.10629E-06-6.92791E-20 1.68768E-19
 -1       744 9.57939E-05-2.87187E-05-2.87465E-05 1.24485E-06-4.53803E-19-6.29464E-20
 -1       745 9.56801E-05-2.87293E-05-2.86933E-05 1.31859E-06-3.15943E-19 1.58207E-19
 -1       746 9.55624E-05-2.86623E-05-2.86715E-05 1.37279E-06-4.72650E-19 3.08721E-19
 -1       747 9.54443E-05-2.85401E-05-2.86733E-05 1.44185E-06-5.50605E-19 2.17623E-19
 -1       748 9.53280E-05-2.83803E-05-2.86919E-05 1.55168E-06-6.31667E-19 5.24496E-19
 -1       749 9.52171E-05-2.81994E-05-2.87219E-05 1.72146E-06-4.99353E-19 7.28917E-19
 -1       750 9.51184E-05-2.80159E-05-2.87582E-05 1.96445E-06-7.19765E-19 6.42828E-19
 -1       751 9.50450E-05-2.78546E-05-2.87959E-05 2.28786E-06-6.95204E-19-9.30683E-19
 -1       752 9.50198E-05-2.77505E-05-2.88297E-05 2.69166E-06-5.36009E-19-1.19857E-18
 -1       753 9.50804E-05-2.77531E-05-2.88545E-05 3.16602E-06-4.19070E-19-5.56724E-19
 -1       754 9.52841E-05-2.79305E-05-2.88657E-05 3.68716E-06 2.09393E-19 8.93759E-19
 -1       755 9.57127E-05-2.83706E-05-2.88608E-05 4.21086E-06 1.06717E-18 1.34405E-18
 -1       756 9.64758E-05-2.91769E-05-2.88423E-05 4.66277E-06 1.62602E-18 8.25920E-20
 -1       757 9.77049E-05-3.04528E-05-2.88222E-05 4.92469E-06 6.51727E-19 3.98239E-19
 -1       758 9.95331E-05-3.22646E-05-2.88293E-05 4.81746E-06-9.10485E-20 2.68576E-19
 -1       759 1.02042E-04-3.45676E-05-2.89179E-05 4.08352E-06 3.69047E-21-3.12051E-19
 -1       760 1.05147E-04-3.70706E-05-2.91768E-05 2.40515E-06 1.48106E-19-4.70384E-19
 -1       761 1.08438E-04-3.90875E-05-2.97239E-05-4.74073E-07 4.08953E-19 1.44171E-19
 -1       762 1.11086E-04-3.95028E-05-3.06849E-05-4.47468E-06 1.16166E-19-5.97918E-19
 -1       763 1.11920E-04-3.69749E-05-3.21227E-05-8.77905E-06-1.62167E-18-7.41276E-19
 -1       764 1.09981E-04-3.08224E-05-3.39423E-05-1.11742E-05-1.76695E-18-1.13304E-18
 -1       765 1.06239E-04-2.31273E-05-3.56374E-05-9.34568E-06-6.16475E-19-1.79534E-18
 -1       766 1.02896E-04-1.77444E-05-3.65967E-05-2.81750E-06-1.49290E-19-2.74250E-19
 -1       767 1.03963E-04-1.91814E-05-3.64002E-05 5.31974E-06-1.59946E-19-2.21357E-19
 -1       768 1.07609E-04-2.57751E-05-3.50873E-05 1.04415E-05 4.36058E-19 3.65438E-19
 -1       769 1.10963E-04-3.33395E-05-3.32856E-05 1.05853E-05 6.21911E-19 7.59212E-19
 -1       770 1.11953E-04-3.83183E-05-3.15621E-05 7.17519E-06-1.08749E-18-1.36307E-19
 -1       771 1.10405E-04-3.97623E-05-3.02774E-05 2.78668E-06-1.52832E-18 2.69018E-19
 -1       772 1.07419E-04-3.86538E-05-2.94715E-05-9.30421E-07-5.64625E-19 6.35146E-19
 -1       773 1.04128E-04-3.63561E-05-2.90463E-05-3.41888E-06-4.01805E-19 1.99016E-18
 -1       774 1.01222E-04-3.38632E-05-2.88689E-05-4.76920E-06 1.81514E-18 1.93280E-18
 -1       775 9.89669E-05-3.16949E-05-2.88313E-05-5.28614E-06 3.13651E-19 2.67965E-18
 -1       776 9.73667E-05-3.00242E-05-2.88611E-05-5.26171E-06 1.50594E-18 2.82959E-18
 -1       777 9.63082E-05-2.88358E-05-2.89165E-05-4.91500E-06 3.17218E-18 3.87221E-18
 -1       778 9.56375E-05-2.80247E-05-2.89766E-05-4.39314E-06 3.04795E-18 2.60897E-18
 -1       779 9.55008E-05-2.86775E-05-2.86386E-05-1.35895E-06 2.64393E-19-7.98740E-19
 -1       780 1.30172E-04-4.96453E-05-3.46590E-05 1.45794E-06-9.32676E-19 1.75499E-18
 -1       781 9.55685E-05-2.86395E-05-2.86839E-05-1.27783E-06 4.99548E-19-1.04938E-18
 -1       782 9.53694E-05-2.85338E-05-2.86438E-05-1.47284E-06-4.99893E-19 1.48457E-19
 -1       783 9.52970E-05-2.83739E-05-2.86813E-05-1.58008E-06-1.99665E-19-1.92757E-19
 -1       784 9.52094E-05-2.81575E-05-2.87364E-05-1.75976E-06 2.67141E-19 1.51371E-19
 -1       785 9.50932E-05-2.78785E-05-2.88062E-05-2.03660E-06 1.33892E-19 9.74410E-20
 -1       786 9.49295E-05-2.75248E-05-2.88876E-05-2.43376E-06-2.56826E-19 8.81253E-19
 -1       787 9.46908E-05-2.70790E-05-2.89763E-05-2.97362E-06 1.56341E-19 1.12516E-18
 -1       788 9.43392E-05-2.65196E-05-2.90653E-05-3.67796E-06 1.22454E-19 1.65626E-18
 -1       789 9.38240E-05-2.58242E-05-2.91424E-05-4.56775E-06-4.51828E-19 1.21795E-18
 -1       790 9.30813E-05-2.49769E-05-2.91871E-05-5.66312E-06-6.91200E-19 1.10386E-18
 -1       791 9.20389E-05-2.39842E-05-2.91657E-05-6.98570E-06-6.07335E-19 1.49401E-18
 -1       792 9.06320E-05-2.29045E-05-2.90254E-05-8.56755E-06-3.36904E-20 1.22832E-18
 -1       793 8.88397E-05-2.19013E-05-2.86872E-05-1.04754E-05-4.20035E-20 1.55570E-18
 -1       794 8.67597E-05-2.13304E-05-2.80390E-05-1.28616E-05 2.04262E-20 1.25939E-18
 -1       795 8.47272E-05-2.18700E-05-2.69301E-05-1.60873E-05-1.96505E-19 8.36700E-19
 -1       796 8.38581E-05-2.48349E-05-2.52333E-05-2.09104E-05-9.94954E-19-4.12194E-19
 -1       797 8.39992E-05-1.96174E-05-2.75909E-05 9.88134E-06-1.10824E-18-1.46683E-18
 -1       798 9.32277E-05-1.97629E-05-3.14858E-05 1.23318E-06 1.85210E-19-7.42614E-19
 -1       799 9.57384E-05-2.77091E-05-2.91558E-05-2.39099E-07 1.14459E-19-4.49772E-19
 -1       800 7.14524E-05-2.27471E-05-2.06379E-05 2.39428E-05 1.64608E-18-1.59097E-18
 -1       801 8.02966E-05-1.86768E-05-2.63998E-05 1.20802E-05 2.66653E-19-2.53239E-18
 -1       802 7.59753E-05-1.87274E-05-2.45056E-05 1.55580E-05-4.72434E-19-8.50297E-19
 -1       803 8.70106E-05-2.09376E-05-2.83166E-05 8.28529E-06-8.92381E-19-3.52483E-18
 -1       804 8.93572E-05-2.22846E-05-2.87449E-05 6.99149E-06-1.38852E-18-2.48963E-18
 -1       805 9.11183E-05-2.34722E-05-2.89907E-05 5.86545E-06-1.34176E-18-1.38431E-18
 -1       806 9.24257E-05-2.44402E-05-2.91361E-05 4.86404E-06 1.55716E-19-1.22680E-18
 -1       807 9.13544E-05-2.41181E-05-2.88159E-05-1.64206E-06 4.75611E-19-1.96016E-18
 -1       808 9.43014E-05-2.67316E-05-2.89583E-05-3.92354E-06 2.24690E-18-3.52016E-20
 -1       809 9.22107E-05-2.49187E-05-2.88397E-05-2.84918E-06-7.63585E-19-2.39462E-18
 -1       810 1.23864E-04-5.52203E-05-2.94489E-05-1.38314E-05 1.26692E-18 2.70707E-18
 -1       811 4.84617E-05-1.20069E-05-1.53125E-05 9.85711E-06-1.77400E-19 2.06808E-19
 -1       812 9.32525E-05-2.58379E-05-2.88917E-05-3.61387E-06-3.38578E-20-2.36292E-18
 -1       813 9.54354E-05-2.86373E-05-2.86278E-05-1.41018E-06-6.52200E-20-2.67224E-19
 -1       814 9.56376E-05-2.84972E-05-2.87745E-05-1.11375E-06 1.55461E-19-8.78451E-19
 -1       815 9.57010E-05-2.82093E-05-2.89251E-05-7.97741E-07-7.92214E-20-5.67628E-19
 -1       816 1.12249E-04-1.24511E-05-4.30755E-05 6.22159E-06 7.43086E-19 1.13847E-18
 -1       817 1.04837E-04-4.85161E-05-2.39887E-05 2.91767E-05-1.15580E-18-9.69165E-19
 -1       818 9.52227E-05-2.44824E-05-3.03177E-05 3.41658E-06 4.62107E-19-7.20515E-19
 -1       819 7.64850E-05-3.11934E-05-1.92064E-05 3.27624E-05 3.22137E-20-3.42784E-19
 -1       820 5.40221E-05-1.55730E-05-1.61908E-05 2.05913E-05 1.12937E-18-1.43644E-18
 -1       821 8.94186E-05-3.51267E-05-2.30563E-05-2.78470E-05-6.29213E-19-1.10507E-18
 -1       822 1.12257E-04-1.14454E-05-4.35216E-05-3.96113E-06 6.50310E-19 8.43857E-19
 -1       823 4.69713E-05-1.07647E-05-1.51726E-05-5.35530E-06 7.61420E-19-2.33109E-18
 -1       824 9.31178E-05-1.95632E-05-3.15246E-05 1.89299E-08 4.80612E-20-8.09527E-19
 -1       825 6.03968E-05-1.93309E-05-1.73356E-05-2.39747E-05-1.15122E-18 1.62577E-19
 -1       826 1.25196E-04-4.02106E-05-3.65440E-05 9.97005E-06-7.85299E-19 1.42839E-18
 -1       827 5.82161E-05-1.74644E-05-1.71534E-05-2.05611E-05 1.08003E-19 2.23431E-19
 -1       828 1.13826E-04-5.14095E-05-2.66914E-05-2.09329E-05 1.08890E-18 3.82815E-18
 -1       829 9.52490E-05-2.74871E-05-2.90409E-05-3.76874E-06 1.69380E-18 3.33068E-18
 -1       830 9.55297E-05-2.61573E-05-2.97302E-05 1.59633E-06 3.73996E-19-7.28599E-19
 -1       831 9.35592E-05-2.03649E-05-3.13689E-05 2.36387E-06 3.26476E-19-6.39528E-19
 -1       832 8.85009E-05-3.84576E-05-2.12806E-05-3.19773E-05-2.39743E-19-2.66103E-18
 -1       833 1.14816E-04-2.10435E-05-4.03958E-05 1.18308E-05 4.92047E-19 9.29142E-19
 -1       834 9.40114E-05-2.12984E-05-3.11665E-05-3.25648E-06-3.56047E-19-3.13459E-19
 -1       835 9.08345E-05-2.35722E-05-2.88283E-05-5.75123E-08 9.41946E-19 8.70090E-19
 -1       836 9.08930E-05-2.34668E-05-2.88963E-05 1.70884E-06 1.13663E-18-3.10242E-19
 -1       837 9.35155E-05-2.03151E-05-3.13732E-05-2.31203E-06-7.27600E-20-3.06537E-19
 -1       838 5.33820E-05-1.12465E-05-1.78516E-05-2.78083E-06-2.06837E-18 8.85427E-19
 -1       839 1.28513E-04-5.08669E-05-3.33494E-05 9.75313E-07-7.24537E-19-1.18865E-18
 -1       840 9.56670E-05-2.70707E-05-2.93986E-05 5.06880E-07 2.18393E-19-5.25901E-19
 -1       841 1.13105E-04-1.66665E-05-4.15973E-05-9.78410E-06-1.02581E-18-6.14033E-20
 -1       842 9.40658E-05-2.13613E-05-3.11581E-05 3.32305E-06 4.20892E-19-6.68046E-19
 -1       843 1.15620E-04-5.22254E-05-2.71296E-05 1.97402E-05-1.46246E-18-4.43578E-19
 -1       844 9.15989E-05-2.38829E-05-2.90182E-05 3.28152E-06-1.71564E-19-7.22738E-19
 -1       845 1.25761E-04-3.47087E-05-3.92656E-05-1.19912E-05-8.56430E-19-8.53002E-19
 -1       846 5.42150E-05-1.15726E-05-1.80838E-05 7.22540E-06 1.09525E-18-1.93225E-18
 -1       847 6.06146E-05-1.34335E-05-2.00887E-05-1.11071E-05-3.76493E-19-1.27856E-19
 -1       848 9.59039E-05-2.58345E-05-3.00291E-05-9.26766E-07 4.69195E-20-2.08198E-19
 -1       849 9.62600E-05-2.71242E-05-2.96294E-05-1.11216E-07 8.50067E-20-9.83531E-20
 -1       850 9.63862E-05-2.79575E-05-2.93267E-05 4.37734E-07-1.46554E-19-2.01556E-19
 -1       851 9.63658E-05-2.84536E-05-2.91053E-05 7.80927E-07-2.77924E-19-2.47125E-19
 -1       852 9.62566E-05-2.87098E-05-2.89487E-05 9.81840E-07-3.74448E-19-3.93501E-19
 -1       853 9.60936E-05-2.87924E-05-2.88433E-05 1.09690E-06-3.99619E-19-3.03403E-19
 -1       854 9.58975E-05-2.87492E-05-2.87778E-05 1.17198E-06-4.84822E-19-4.43711E-19
 -1       855 9.56800E-05-2.86142E-05-2.87425E-05 1.24354E-06-4.66807E-19-2.95561E-19
 -1       856 9.54470E-05-2.84126E-05-2.87290E-05 1.34050E-06-4.87692E-19 1.46136E-20
 -1       857 9.52018E-05-2.81647E-05-2.87302E-05 1.48599E-06-5.12623E-19-5.98788E-20
 -1       858 9.49483E-05-2.78902E-05-2.87392E-05 1.69898E-06-5.19860E-19-1.07456E-19
 -1       859 9.46943E-05-2.76125E-05-2.87493E-05 1.99515E-06-1.09634E-18 4.84551E-19
 -1       860 9.44560E-05-2.73638E-05-2.87538E-05 2.38722E-06-8.89866E-19 4.10924E-19
 -1       861 9.42632E-05-2.71902E-05-2.87456E-05 2.88435E-06 2.01135E-19 7.05218E-19
 -1       862 9.41658E-05-2.71575E-05-2.87178E-05 3.49025E-06 7.18941E-19 8.73997E-19
 -1       863 9.42423E-05-2.73567E-05-2.86652E-05 4.19913E-06 6.88084E-19 1.77183E-19
 -1       864 9.46083E-05-2.79072E-05-2.85862E-05 4.98783E-06 3.61758E-19-3.86159E-19
 -1       865 9.54239E-05-2.89536E-05-2.84873E-05 5.80117E-06 9.46751E-19-4.68563E-19
 -1       866 9.68941E-05-3.06500E-05-2.83902E-05 6.52556E-06-1.97258E-20-6.07868E-19
 -1       867 9.92471E-05-3.31139E-05-2.83426E-05 6.95226E-06-1.09798E-19 2.96343E-19
 -1       868 1.02712E-04-3.63559E-05-2.84364E-05 6.70506E-06-1.59587E-19 2.52800E-19
 -1       869 1.07205E-04-3.99305E-05-2.88325E-05 5.19316E-06 4.37399E-19 1.36693E-19
 -1       870 1.12332E-04-4.29362E-05-2.97407E-05 1.80982E-06-1.95278E-19-5.94197E-19
 -1       871 1.16500E-04-4.30438E-05-3.14921E-05-3.80521E-06-7.44939E-19-1.44464E-18
 -1       872 1.17993E-04-3.86908E-05-3.40684E-05-1.00927E-05-9.36560E-19-2.19433E-19
 -1       873 1.14515E-04-2.82470E-05-3.70885E-05-1.26978E-05-1.55591E-18 9.96306E-19
 -1       874 1.16167E-04-3.23837E-05-3.59847E-05 1.21567E-05-1.54124E-19 2.29935E-19
 -1       875 1.17860E-04-4.10242E-05-3.29761E-05 7.49712E-06-3.34615E-19-6.23424E-19
 -1       876 1.15490E-04-4.37372E-05-3.07550E-05 1.42265E-06-1.01597E-18-4.53690E-19
 -1       877 1.10683E-04-4.22293E-05-2.93329E-05-3.46998E-06-4.70977E-19 1.81885E-18
 -1       878 1.05730E-04-3.88870E-05-2.86464E-05-6.16114E-06 2.24946E-19 2.00901E-18
 -1       879 1.01598E-04-3.53403E-05-2.83965E-05-7.17945E-06-8.84547E-19 1.51002E-18
 -1       880 9.85883E-05-3.23615E-05-2.83833E-05-7.17535E-06 6.12852E-19-6.63015E-19
 -1       881 9.65967E-05-3.01366E-05-2.84826E-05-6.64250E-06 2.07731E-18 3.64657E-19
 -1       882 9.54033E-05-2.86122E-05-2.86241E-05-5.87970E-06 3.54519E-18 8.03318E-19
 -1       883 9.47595E-05-2.76235E-05-2.87719E-05-5.05573E-06 3.32811E-18 1.13980E-18
 -1       884 9.61067E-05-2.86267E-05-2.89200E-05-1.03422E-06 2.35575E-19-1.05430E-18
 -1       885 9.52231E-05-2.81587E-05-2.87419E-05-1.54630E-06-2.65670E-19-3.67772E-19
 -1       886 9.54531E-05-2.84314E-05-2.87236E-05-1.41436E-06-8.57067E-20-6.04348E-19
 -1       887 9.45982E-05-2.73635E-05-2.88149E-05-2.02800E-06-3.98096E-19 5.68860E-19
 -1       888 9.41466E-05-2.68149E-05-2.88564E-05-2.40787E-06-2.72792E-19 3.33992E-19
 -1       889 9.35459E-05-2.61382E-05-2.88890E-05-2.89344E-06 4.15965E-20 7.17940E-19
 -1       890 9.27363E-05-2.53078E-05-2.88979E-05-3.48835E-06 1.06768E-19 7.90362E-19
 -1       891 9.16399E-05-2.42988E-05-2.88604E-05-4.19100E-06-6.74586E-19 1.04639E-18
 -1       892 9.01591E-05-2.30945E-05-2.87420E-05-4.99689E-06-6.76892E-19 8.07893E-19
 -1       893 8.81759E-05-2.17000E-05-2.84898E-05-5.90752E-06 2.51497E-19-2.95714E-19
 -1       894 8.55534E-05-2.01643E-05-2.80243E-05-6.95399E-06 7.89980E-20-4.56942E-19
 -1       895 8.21396E-05-1.86130E-05-2.72262E-05-8.24900E-06-2.24102E-19-6.71890E-19
 -1       896 7.77736E-05-1.73101E-05-2.59110E-05-1.01012E-05-3.72187E-19-2.20652E-20
 -1       897 7.23807E-05-1.67918E-05-2.37578E-05-1.31553E-05 1.02736E-21 5.88474E-19
 -1       898 8.56494E-05-2.03114E-05-2.80022E-05 4.77195E-06-8.38175E-19-3.47056E-19
 -1       899 9.32737E-05-3.82279E-05-2.35105E-05 2.65483E-05-4.86116E-19-1.48170E-18
 -1       900 6.33040E-05-1.37068E-05-2.11208E-05 9.67667E-06-1.02453E-18 1.54108E-18
 -1       901 7.74455E-05-1.67460E-05-2.60116E-05 5.67044E-06-1.03942E-19 3.75022E-19
 -1       902 7.11346E-05-1.49054E-05-2.40767E-05 6.57352E-06 6.06646E-19 5.61978E-19
 -1       903 8.83189E-05-2.18223E-05-2.84983E-05 4.32302E-06-1.70968E-18-1.98508E-19
 -1       904 9.08925E-05-2.42990E-05-2.85399E-05-3.11621E-06-8.29047E-19-3.28365E-18
 -1       905 9.32127E-05-1.97454E-05-3.14880E-05-1.18920E-06 3.17294E-20-6.06915E-19
 -1       906 9.49460E-05-2.78060E-05-2.87743E-05-1.74516E-06-2.82207E-19-4.13533E-20
 -1       907 9.54871E-05-2.50620E-05-3.01845E-05 2.13088E-06 2.78317E-19-6.86916E-19
 -1       908 9.59805E-05-2.87467E-05-2.88145E-05-1.17671E-06 1.78092E-19-8.08641E-19
 -1       909 9.52146E-05-2.39485E-05-3.05420E-05-1.98921E-06-6.67652E-20-1.99806E-19
 -1       910 1.22670E-04-4.96092E-05-3.13640E-05-1.96181E-06 2.20728E-19 1.98653E-18
 -1       911 8.21207E-05-1.85904E-05-2.72283E-05 5.16959E-06 5.03760E-19-3.22922E-19
 -1       912 7.07982E-05-2.19736E-05-2.08285E-05 2.21954E-05 1.34345E-19-1.47050E-18
 -1       913 5.85282E-05-1.40265E-05-1.89062E-05-1.23956E-05-7.17085E-19 1.83530E-18
 -1       914 1.02271E-04-4.38270E-05-2.49847E-05-2.38761E-05 4.38965E-19 2.83085E-18
 -1       915 1.17977E-04-4.95336E-05-2.93048E-05-8.88521E-06 7.82401E-19 2.42741E-18
 -1       916 9.61884E-05-2.83313E-05-2.90816E-05-7.77750E-07 7.27038E-20-1.03542E-18
 -1       917 9.05193E-05-2.31998E-05-2.88515E-05 3.63718E-06 3.24682E-19 9.66652E-20
 -1       918 9.56514E-05-2.86263E-05-2.87251E-05-1.32799E-06-2.33583E-19-7.84768E-19
 -1       919 6.64979E-05-1.63168E-05-2.14377E-05 1.34969E-05 2.90641E-19-2.10065E-18
 -1       920 9.45612E-05-2.22406E-05-3.09944E-05 4.25725E-07 2.49401E-19-6.35757E-19
 -1       921 7.54384E-05-2.78457E-05-2.02376E-05-2.78749E-05-6.01718E-19-3.22047E-18
 -1       922 8.90351E-05-2.24286E-05-2.85454E-05 1.56484E-06 1.04681E-18-1.97383E-19
 -1       923 9.47241E-05-2.25943E-05-3.09124E-05 1.23691E-06 2.24304E-19-7.06497E-19
 -1       924 8.97989E-05-2.32826E-05-2.85076E-05-1.48686E-06 7.17543E-19-1.05865E-18
 -1       925 1.03339E-04-4.37319E-05-2.55247E-05 2.17369E-05-9.74321E-19-6.92583E-19
 -1       926 9.58267E-05-2.87369E-05-2.87528E-05-1.26012E-06-3.30502E-20-6.21025E-19
 -1       927 9.22987E-05-2.54883E-05-2.86329E-05-4.15048E-06-1.39685E-19-2.13033E-18
 -1       928 1.25815E-04-4.27640E-05-3.55920E-05-8.09985E-06-5.11939E-19-7.86708E-19
 -1       929 9.60398E-05-2.68944E-05-2.96335E-05 3.84624E-07 1.68844E-19-8.04430E-19
 -1       930 1.22039E-04-5.21841E-05-2.99593E-05 8.62998E-06-1.95921E-18 3.37544E-19
 -1       931 9.49444E-05-2.31469E-05-3.07696E-05-1.47808E-06 1.32855E-20 4.16349E-20
 -1       932 9.34768E-05-2.65614E-05-2.86783E-05-4.81601E-06 3.05686E-18 8.83994E-19
 -1       933 9.61939E-05-2.77940E-05-2.93141E-05-3.40140E-07 1.21132E-19-9.92824E-19
 -1       934 9.65321E-05-2.73400E-05-2.96537E-05 7.00336E-08-1.88216E-19-4.13870E-19
 -1       935 9.66529E-05-2.81283E-05-2.93678E-05 4.28196E-07-3.01058E-19-4.01687E-19
 -1       936 9.66064E-05-2.85788E-05-2.91547E-05 6.52709E-07-1.93577E-19-2.51978E-19
 -1       937 9.64511E-05-2.87835E-05-2.90004E-05 7.88232E-07-3.53916E-19-9.56709E-20
 -1       938 9.62246E-05-2.88068E-05-2.88934E-05 8.74157E-07-2.53968E-19 5.01891E-20
 -1       939 9.59496E-05-2.86957E-05-2.88231E-05 9.43220E-07-2.86051E-19 4.86578E-19
 -1       940 9.56381E-05-2.84843E-05-2.87802E-05 1.02286E-06-2.51335E-21 1.03115E-18
 -1       941 9.52956E-05-2.81980E-05-2.87562E-05 1.13615E-06-3.75514E-19 1.23382E-18
 -1       942 9.49243E-05-2.78575E-05-2.87429E-05 1.30392E-06-5.81747E-19 1.24222E-18
 -1       943 9.45265E-05-2.74842E-05-2.87325E-05 1.54617E-06-5.98611E-19 1.29357E-18
 -1       944 9.41090E-05-2.71041E-05-2.87164E-05 1.88344E-06-7.69207E-19 7.78588E-19
 -1       945 9.36882E-05-2.67545E-05-2.86859E-05 2.33802E-06 8.16457E-20 7.53997E-19
 -1       946 9.32966E-05-2.64897E-05-2.86316E-05 2.93448E-06 5.80643E-19 7.68519E-19
 -1       947 9.29918E-05-2.63885E-05-2.85443E-05 3.69903E-06 1.76325E-19 2.51575E-19
 -1       948 9.28669E-05-2.65618E-05-2.84165E-05 4.65639E-06 5.55676E-19 2.82614E-19
 -1       949 9.30648E-05-2.71595E-05-2.82453E-05 5.82155E-06 2.83530E-19-2.90166E-19
 -1       950 9.37958E-05-2.83744E-05-2.80381E-05 7.18142E-06 6.70159E-19-2.58869E-19
 -1       951 9.53576E-05-3.04375E-05-2.78223E-05 8.64925E-06 5.55891E-19 2.63929E-19
 -1       952 9.80872E-05-3.35302E-05-2.76647E-05 9.99143E-06-4.60611E-20 2.34397E-19
 -1       953 1.02552E-04-3.79260E-05-2.77236E-05 1.07721E-05 5.89904E-19 3.88510E-19
 -1       954 1.09150E-04-4.32830E-05-2.82398E-05 9.98850E-06-6.92256E-19 5.62608E-19
 -1       955 1.06658E-04-4.14209E-05-2.79548E-05-1.06062E-05-2.94313E-19 4.28285E-18
 -1       956 1.01081E-04-3.64985E-05-2.76806E-05-1.08303E-05-1.50053E-18 3.08738E-18
 -1       957 9.73441E-05-3.25931E-05-2.77519E-05-9.81269E-06 3.40233E-19 3.81779E-18
 -1       958 9.50979E-05-2.98374E-05-2.79683E-05-8.41047E-06 1.16608E-18 3.79499E-18
 -1       959 9.39219E-05-2.80510E-05-2.82297E-05-6.97035E-06 2.09514E-18 2.47661E-18
 -1       960 9.35446E-05-2.71195E-05-2.84673E-05-5.80702E-06 3.33347E-18 9.60347E-19
 -1       961 9.22896E-05-2.51970E-05-2.87541E-05-2.33971E-06-3.90191E-19 6.19637E-20
 -1       962 9.53620E-05-2.82384E-05-2.87673E-05-1.22480E-06-1.13212E-19-8.77952E-19
 -1       963 9.32231E-05-2.60610E-05-2.87838E-05-2.02411E-06-1.41376E-19-3.36777E-19
 -1       964 9.39474E-05-2.67786E-05-2.87867E-05-1.74783E-06-4.45059E-19-4.64043E-19
 -1       965 9.10739E-05-2.41642E-05-2.86757E-05-2.67260E-06-3.51402E-19 9.06460E-19
 -1       966 8.94819E-05-2.29427E-05-2.85170E-05-2.98920E-06 2.72477E-19 1.83443E-19
 -1       967 8.73926E-05-2.15203E-05-2.82312E-05-3.24669E-06-1.00867E-19-5.02881E-19
 -1       968 8.46455E-05-1.98988E-05-2.77490E-05-3.40230E-06 9.25739E-20 4.44000E-19
 -1       969 8.10159E-05-1.80975E-05-2.69654E-05-3.43518E-06-6.64664E-19 2.32707E-19
 -1       970 7.61653E-05-1.61571E-05-2.57166E-05-3.40216E-06-3.18508E-19 1.52363E-19
 -1       971 6.94046E-05-1.40671E-05-2.36826E-05-3.46012E-06-5.35164E-19-8.96065E-19
 -1       972 9.45559E-05-2.22369E-05-3.09943E-05-3.98482E-07 1.09600E-20-7.06583E-19
 -1       973 6.49517E-05-1.33850E-05-2.20351E-05-2.36714E-06-4.08627E-21 1.15077E-19
 -1       974 7.29078E-05-1.54563E-05-2.46053E-05-6.47121E-07 1.12739E-19 8.63272E-19
 -1       975 9.47239E-05-2.26035E-05-3.09082E-05-9.85189E-07 1.08858E-19-5.65821E-19
 -1       976 7.86265E-05-1.74378E-05-2.62230E-05 6.08944E-07-1.56152E-20 1.21652E-18
 -1       977 6.25607E-05-1.23572E-05-2.14603E-05-3.81170E-07-5.44947E-19-1.18239E-18
 -1       978 9.53159E-05-2.41222E-05-3.05110E-05 1.79031E-06 3.19065E-19-5.79622E-19
 -1       979 8.60325E-05-2.07803E-05-2.79680E-05 1.68333E-06-4.36636E-19 2.85839E-18
 -1       980 9.57584E-05-2.58217E-05-2.99742E-05 1.27799E-06 2.23215E-19-6.50154E-19
 -1       981 9.58572E-05-2.52428E-05-3.02632E-05-7.58528E-07-4.64823E-20-6.86500E-20
 -1       982 8.48565E-05-2.90042E-05-2.39050E-05 2.06973E-05-2.78181E-20-1.15086E-18
 -1       983 9.62884E-05-2.64452E-05-2.99330E-05-3.01613E-07-7.23660E-21-2.35463E-19
 -1       984 8.28086E-05-1.92278E-05-2.72513E-05 1.07992E-06-7.33238E-19 2.80825E-18
 -1       985 9.62049E-05-2.87939E-05-2.88904E-05-9.95757E-07 8.81683E-20-6.35398E-19
 -1       986 9.63366E-05-2.70023E-05-2.97142E-05 1.32279E-07 1.47896E-19-6.91734E-19
 -1       987 9.63926E-05-2.87228E-05-2.90014E-05-8.87080E-07 1.13091E-19-9.00051E-19
 -1       988 9.07534E-05-3.56606E-05-2.35495E-05-2.50868E-05 7.19171E-19-1.21989E-18
 -1       989 9.65100E-05-2.84604E-05-2.91642E-05-7.02612E-07 1.43737E-19-9.84888E-19
 -1       990 1.16345E-04-4.74167E-05-2.95634E-05 6.37594E-06-8.56188E-19 3.06523E-19
 -1       991 9.56124E-05-2.44267E-05-3.05104E-05 4.89295E-07 4.86643E-19-5.95155E-19
 -1       992 9.45187E-05-2.73705E-05-2.87778E-05-1.52217E-06-7.96157E-19-1.80785E-20
 -1       993 1.13817E-04-4.63104E-05-2.89479E-05-8.08658E-06 8.66051E-19 3.02131E-18
 -1       994 9.49798E-05-2.78535E-05-2.87684E-05-1.34950E-06-1.22053E-19-4.06907E-19
 -1       995 9.56874E-05-2.85293E-05-2.87821E-05-1.13688E-06-3.78857E-19-1.03001E-18
 -1       996 7.84983E-05-2.30085E-05-2.37445E-05 1.67353E-05 5.63777E-20-1.36428E-18
 -1       997 9.55790E-05-2.43000E-05-3.05482E-05 9.39718E-09 2.83257E-19-3.82107E-19
 -1       998 8.91339E-05-2.34269E-05-2.81590E-05-3.41426E-06-9.11242E-19-4.84581E-18
 -1       999 1.11600E-04-4.72477E-05-2.75168E-05 1.50148E-05-2.15869E-19 5.22411E-19
 -1      1000 6.81455E-05-1.99316E-05-2.05516E-05-1.96832E-05-4.66199E-19-7.60602E-19
 -1      1001 9.59671E-05-2.87195E-05-2.88204E-05-1.06844E-06-6.79237E-21-4.26452E-19
 -1      1002 8.71132E-05-2.18169E-05-2.79836E-05-1.34839E-06 4.84585E-19-1.07645E-18
 -1      1003 9.65203E-05-2.79419E-05-2.93908E-05-3.93035E-07 1.56653E-19-9.78963E-19
 -1      1004 9.33452E-05-3.49138E-05-2.50123E-05 2.03873E-05 1.13165E-19-1.03526E-18
 -1      1005 9.59891E-05-2.58188E-05-3.00727E-05 8.50935E-07 3.24812E-19-6.87929E-19
 -1      1006 9.09627E-05-2.49618E-05-2.82848E-05-4.82194E-06 8.53039E-19-2.48679E-19
 -1      1007 1.07021E-04-4.47108E-05-2.66837E-05-1.76812E-05 1.51163E-18 3.26454E-18
 -1      1008 9.79496E-05-3.87287E-05-2.53429E-05-2.06227E-05 1.45576E-18 2.73781E-18
 -1      1009 9.68145E-05-2.83265E-05-2.93522E-05 3.30045E-07-1.62614E-20 8.60891E-21
 -1      1010 9.67157E-05-2.86907E-05-2.91537E-05 4.49811E-07-1.32427E-19-1.21114E-19
 -1      1011 9.65042E-05-2.88173E-05-2.90088E-05 5.25837E-07-7.13351E-20-1.84884E-20
 -1      1012 9.62142E-05-2.87652E-05-2.89068E-05 5.81957E-07-6.16209E-20 3.53784E-19
 -1      1013 9.58654E-05-2.85772E-05-2.88378E-05 6.38700E-07 7.07378E-20 8.26580E-19
 -1      1014 9.54685E-05-2.82860E-05-2.87925E-05 7.15151E-07-3.66115E-19 5.11091E-19
 -1      1015 9.50243E-05-2.79128E-05-2.87621E-05 8.29231E-07-3.36891E-19 4.30086E-19
 -1      1016 9.45314E-05-2.74773E-05-2.87376E-05 1.00031E-06-5.49386E-19 6.99463E-19
 -1      1017 9.39876E-05-2.69991E-05-2.87095E-05 1.25074E-06-9.33680E-19 7.88407E-19
 -1      1018 9.33947E-05-2.65038E-05-2.86676E-05 1.60824E-06-5.15007E-19 1.13198E-18
 -1      1019 9.27637E-05-2.60292E-05-2.86006E-05 2.10807E-06 3.00550E-19 9.52445E-19
 -1      1020 9.21220E-05-2.56323E-05-2.84957E-05 2.79530E-06-2.86431E-19 4.79523E-19
 -1      1021 9.15227E-05-2.53976E-05-2.83395E-05 3.72642E-06-2.43801E-20 3.76223E-19
 -1      1022 9.10583E-05-2.54478E-05-2.81190E-05 4.96889E-06 1.86664E-19-1.56951E-19
 -1      1023 9.08807E-05-2.59560E-05-2.78254E-05 6.59491E-06 6.20828E-19-8.31903E-19
 -1      1024 9.12226E-05-2.71563E-05-2.74591E-05 8.66834E-06 8.47165E-19-2.78837E-19
 -1      1025 9.24946E-05-2.94116E-05-2.70392E-05 1.12094E-05 7.82436E-20 6.37930E-19
 -1      1026 9.54206E-05-3.31235E-05-2.66765E-05 1.40528E-05 6.40994E-19 5.76303E-19
 -1      1027 6.87717E-05-1.60304E-05-2.25700E-05-9.43655E-06 2.14059E-19 1.00496E-18
 -1      1028 9.57666E-05-2.48311E-05-3.04011E-05-5.41276E-07-2.43894E-20-3.96990E-19
 -1      1029 9.44850E-05-3.18491E-05-2.68434E-05-1.30913E-05-9.75597E-19 5.02728E-18
 -1      1030 9.23495E-05-2.87473E-05-2.72577E-05-1.04651E-05 1.29271E-19 2.76548E-18
 -1      1031 9.15544E-05-2.69012E-05-2.77091E-05-8.07622E-06 1.60187E-18 3.80670E-18
 -1      1032 9.23218E-05-2.53910E-05-2.86848E-05-1.27148E-06-7.50595E-19 9.48617E-20
 -1      1033 9.11466E-05-2.44290E-05-2.85935E-05-1.31094E-06-4.18922E-19 9.11333E-20
 -1      1034 9.32583E-05-2.62168E-05-2.87322E-05-1.18254E-06-3.47572E-19-7.31880E-19
 -1      1035 8.77767E-05-2.20678E-05-2.81614E-05-1.00952E-06 4.60899E-19-1.23326E-19
 -1      1036 8.53730E-05-2.06740E-05-2.77286E-05-4.97542E-07-4.61949E-20-9.37206E-19
 -1      1037 8.22843E-05-1.91591E-05-2.70537E-05 4.08988E-07-3.29931E-19-8.51835E-19
 -1      1038 7.82736E-05-1.75570E-05-2.60171E-05 1.86916E-06-1.00326E-18-7.66849E-19
 -1      1039 7.28105E-05-1.58416E-05-2.44040E-05 4.13941E-06 4.18488E-19-5.84929E-19
 -1      1040 7.76957E-05-1.83951E-05-2.54189E-05-5.84112E-06 3.19138E-19-1.44134E-18
 -1      1041 9.65989E-05-2.72851E-05-2.97063E-05-5.80255E-08 3.20173E-19-9.31800E-19
 -1      1042 8.96617E-05-2.33220E-05-2.84317E-05-1.24822E-06 1.74319E-19-9.59823E-19
 -1      1043 8.18191E-05-1.96726E-05-2.66364E-05-3.68218E-06-2.01429E-18-9.78037E-19
 -1      1044 9.89146E-05-3.71259E-05-2.64724E-05-1.61088E-05-3.94638E-19 3.91480E-18
 -1      1045 9.65249E-05-2.87839E-05-2.90317E-05-6.67276E-07-1.06467E-19-7.27638E-19
 -1      1046 9.22239E-05-2.60501E-05-2.83582E-05-5.48244E-06 2.59750E-18 1.74239E-18
 -1      1047 9.67418E-05-2.76352E-05-2.96169E-05 1.43305E-07-1.84995E-19-3.09117E-19
 -1      1048 8.47508E-05-2.07856E-05-2.74132E-05-2.30527E-06-1.53013E-18-9.94598E-19
 -1      1049 6.93270E-05-1.56321E-05-2.29789E-05 8.41902E-06-5.33297E-19-1.17818E-18
 -1      1050 9.66940E-05-2.85855E-05-2.91891E-05-5.56066E-07 1.64032E-19-8.68600E-19
 -1      1051 9.62722E-05-2.87877E-05-2.89220E-05-7.36304E-07-1.39650E-19-4.37703E-19
 -1      1052 9.51450E-05-2.79879E-05-2.87816E-05-9.01559E-07-4.77937E-19 6.52958E-21
 -1      1053 9.40128E-05-2.69179E-05-2.87551E-05-1.07912E-06-3.80885E-19-3.15607E-19
 -1      1054 9.18233E-05-2.63456E-05-2.80637E-05-6.60886E-06 1.60077E-18 3.58464E-18
 -1      1055 8.11116E-05-2.74765E-05-2.29718E-05-2.20402E-05-4.78094E-19-4.80404E-18
 -1      1056 9.55816E-05-2.83665E-05-2.88066E-05-8.39550E-07-1.16564E-19-5.64605E-20
 -1      1057 9.62601E-05-2.59090E-05-3.01499E-05 1.05555E-07 5.09289E-19-3.39124E-20
 -1      1058 9.56656E-05-2.45145E-05-3.04926E-05-2.91965E-07 7.55176E-20-6.90571E-19
 -1      1059 9.62752E-05-2.61154E-05-3.00672E-05-2.50865E-07-1.89263E-19-4.06685E-19
 -1      1060 8.75888E-05-2.29830E-05-2.76872E-05-4.74758E-06 1.23318E-19-3.39710E-18
 -1      1061 9.67431E-05-2.81327E-05-2.94042E-05-3.72644E-07 5.03538E-20-8.59719E-19
 -1      1062 9.65748E-05-2.69861E-05-2.98250E-05-3.16070E-08-3.27743E-19-4.86428E-19
 -1      1063 8.79615E-05-2.89619E-05-2.52736E-05 1.67405E-05-2.44946E-19-6.33200E-19
 -1      1064 9.68678E-05-2.85143E-05-2.92938E-05 1.39669E-07-1.94946E-19 2.78203E-19
 -1      1065 9.63755E-05-2.64034E-05-2.99869E-05 2.26749E-07 4.56925E-19-8.01759E-19
 -1      1066 8.91766E-05-3.17889E-05-2.45772E-05-2.03053E-05 1.87785E-19-1.01876E-18
 -1      1067 9.67077E-05-2.87692E-05-2.91161E-05 1.74681E-07-8.31452E-20 1.57400E-19
 -1      1068 9.64398E-05-2.88050E-05-2.89863E-05 2.01828E-07 1.26955E-19 1.22421E-19
 -1      1069 9.60898E-05-2.86705E-05-2.88942E-05 2.29948E-07 2.19282E-19-2.05004E-19
 -1      1070 9.56809E-05-2.84075E-05-2.88311E-05 2.68018E-07-1.80136E-19-3.37221E-19
 -1      1071 9.52088E-05-2.80355E-05-2.87884E-05 3.27896E-07-2.16952E-19 2.04509E-19
 -1      1072 9.46727E-05-2.75773E-05-2.87551E-05 4.23186E-07-1.48247E-19-1.79504E-19
 -1      1073 9.40638E-05-2.70456E-05-2.87219E-05 5.72799E-07-6.00856E-19 2.21828E-19
 -1      1074 9.33711E-05-2.64553E-05-2.86780E-05 8.02480E-07-4.84443E-19 2.59072E-19
 -1      1075 9.25862E-05-2.58272E-05-2.86107E-05 1.14822E-06-6.13455E-20 2.39661E-19
 -1      1076 9.17064E-05-2.51937E-05-2.85050E-05 1.65991E-06-1.98341E-19-1.58908E-19
 -1      1077 9.07418E-05-2.46059E-05-2.83433E-05 2.40567E-06 4.75891E-19 4.77724E-19
 -1      1078 8.97225E-05-2.41429E-05-2.81045E-05 3.47682E-06 5.05981E-19 1.28575E-18
 -1      1079 8.87126E-05-2.39238E-05-2.77654E-05 4.99296E-06 6.69177E-20 1.21924E-18
 -1      1080 8.78350E-05-2.41298E-05-2.73018E-05 7.10798E-06 3.91877E-19 6.81892E-19
 -1      1081 8.73520E-05-2.50354E-05-2.67087E-05 9.95250E-06 9.75774E-19-6.67593E-19
 -1      1082 8.72557E-05-2.64924E-05-2.60472E-05 1.29893E-05 5.67370E-19 1.38332E-19
 -1      1083 9.46301E-05-2.75055E-05-2.87678E-05-9.82096E-07-3.37827E-19 2.11522E-19
 -1      1084 8.77711E-05-2.63994E-05-2.63013E-05-1.22929E-05-2.08665E-18 4.61493E-19
 -1      1085 8.88007E-05-2.29997E-05-2.82013E-05 6.72264E-07 1.45999E-19 6.49915E-19
 -1      1086 9.68756E-05-2.79694E-05-2.95314E-05 8.65277E-08-1.36984E-19 5.38549E-19
 -1      1087 8.80394E-05-2.49375E-05-2.70418E-05-8.84267E-06 6.58766E-19 1.11453E-19
 -1      1088 9.16087E-05-2.49314E-05-2.85763E-05-1.88802E-07-2.67108E-19 3.05437E-19
 -1      1089 9.66101E-05-2.68907E-05-2.98797E-05 2.44001E-08 3.67955E-19-9.22887E-20
 -1      1090 9.26562E-05-2.57742E-05-2.86639E-05-3.53881E-07-8.66475E-19 6.88614E-19
 -1      1091 8.46872E-05-2.09570E-05-2.73147E-05 2.97343E-06-4.70088E-19 2.71315E-19
 -1      1092 8.69382E-05-2.19658E-05-2.78467E-05 1.56853E-06 4.55084E-19 1.14965E-19
 -1      1093 7.86888E-05-1.94373E-05-2.53847E-05 8.21137E-06 1.68542E-19-1.39404E-18
 -1      1094 7.78307E-05-2.05569E-05-2.45543E-05 1.21164E-05 4.62479E-20-1.97012E-18
 -1      1095 9.59561E-05-2.86376E-05-2.88507E-05-7.88392E-07-2.07447E-19-1.69328E-19
 -1      1096 9.68593E-05-2.79111E-05-2.95488E-05-1.23165E-07 1.74201E-20 1.08790E-19
 -1      1097 9.63209E-05-2.60229E-05-3.01262E-05-2.96859E-08 1.46368E-19-2.96392E-19
 -1      1098 7.90988E-05-2.18042E-05-2.45329E-05-1.34530E-05 1.35321E-18-2.35871E-18
 -1      1099 9.03394E-05-2.40002E-05-2.84317E-05 1.25282E-07 5.83656E-19 6.71362E-19
 -1      1100 8.19585E-05-2.00548E-05-2.65297E-05 5.11053E-06-4.91508E-19 1.50086E-19
 -1      1101 8.31748E-05-2.19886E-05-2.62281E-05-8.62028E-06-4.87545E-19 4.34759E-19
 -1      1102 9.67721E-05-2.74269E-05-2.97204E-05 3.44735E-08 7.93082E-21 4.51395E-19
 -1      1103 9.04774E-05-2.55147E-05-2.78403E-05-6.77607E-06 1.31246E-18 1.18137E-18
 -1      1104 8.56131E-05-2.24654E-05-2.70651E-05-6.37786E-06-6.64084E-19-9.44607E-19
 -1      1105 9.35238E-05-2.65206E-05-2.87158E-05-4.28834E-07-1.82860E-19 4.35806E-19
 -1      1106 9.53814E-05-2.81678E-05-2.88059E-05-4.39443E-07-9.70006E-20 4.34587E-20
 -1      1107 9.48594E-05-2.77181E-05-2.87749E-05-4.52757E-07-6.67102E-19 1.12094E-19
 -1      1108 8.29429E-05-2.37945E-05-2.53379E-05 1.29013E-05 4.13797E-19-7.14247E-19
 -1      1109 9.68670E-05-2.84867E-05-2.93063E-05-2.04862E-07-1.93125E-20 3.73807E-19
 -1      1110 9.63022E-05-2.60395E-05-3.01109E-05-1.46942E-07-1.76279E-19-4.51633E-19
 -1      1111 9.65298E-05-2.88094E-05-2.90232E-05-3.74164E-07-3.49598E-19 3.96317E-19
 -1      1112 9.67381E-05-2.87309E-05-2.91466E-05-2.92386E-07-2.67212E-19 4.92720E-19
 -1      1113 9.58870E-05-2.85384E-05-2.88637E-05-1.72031E-07 2.25071E-19 1.02106E-20
 -1      1114 9.62174E-05-2.87343E-05-2.89212E-05-4.06111E-07-2.58249E-19 4.31474E-19
 -1      1115 9.42480E-05-2.71685E-05-2.87484E-05-4.53375E-07 1.59822E-19 4.84766E-19
 -1      1116 1.16822E-04 2.57465E-10-4.18429E-05-4.14636E-05-7.19978E-20 3.14482E-18
 -1      1117 8.86261E-05 7.18798E-11-3.72414E-05-2.41753E-05-3.83282E-20 8.73767E-19
 -1      1118 8.40623E-05 4.14422E-11-3.57606E-05-1.78888E-05-3.84871E-20-2.10805E-19
 -1      1119 8.23309E-05 3.20121E-11-3.50710E-05-1.38486E-05-2.59139E-20-7.37018E-19
 -1      1120 8.15381E-05 2.73531E-11-3.47411E-05-1.05446E-05-1.42143E-20-1.09003E-18
 -1      1121 8.11441E-05 2.46206E-11-3.45793E-05-7.64916E-06-8.01373E-21-1.23149E-18
 -1      1122 8.09405E-05 2.29710E-11-3.44982E-05-4.98601E-06-7.93432E-21-1.30957E-18
 -1      1123 8.08423E-05 2.20807E-11-3.44604E-05-2.43556E-06-6.07316E-21-1.39177E-18
 -1      1124 8.08146E-05 2.18111E-11-3.44499E-05 5.22615E-08-2.88934E-21-1.41583E-18
 -1      1125 8.08467E-05 2.21251E-11-3.44619E-05 2.54263E-06 1.51870E-21-1.47088E-18
 -1      1126 8.09495E-05 2.30736E-11-3.45011E-05 5.10160E-06 7.98395E-21-1.48442E-18
 -1      1127 8.11593E-05 2.47870E-11-3.45832E-05 7.78143E-06 1.06938E-20-1.41317E-18
 -1      1128 8.15599E-05 2.76536E-11-3.47472E-05 1.07044E-05 1.76686E-20-1.29827E-18
 -1      1129 8.23545E-05 3.25011E-11-3.50811E-05 1.40549E-05 1.87406E-20-1.07390E-18
 -1      1130 8.40592E-05 4.19085E-11-3.57808E-05 1.81407E-05 3.58930E-20-6.14192E-19
 -1      1131 8.83235E-05 6.67013E-11-3.73115E-05 2.40179E-05 3.69518E-20 4.55571E-19
 -1      1132 1.06586E-04 1.63842E-10-4.06215E-05 3.61920E-05 8.47033E-20 2.78833E-18
 -1      1133 1.30180E-04-2.57464E-05-4.02603E-05-2.61041E-05-2.96885E-19 4.59642E-18
 -1      1134 9.74093E-05-2.88484E-05-3.15632E-05-6.81368E-07-6.45863E-20 3.86522E-18
 -1      1135 9.01038E-05-2.70098E-05-2.78764E-05 3.86585E-07-5.29396E-23 2.90949E-18
 -1      1136 8.81848E-05-2.65531E-05-2.66244E-05 2.50228E-07-1.96505E-20 2.25340E-18
 -1      1137 8.78182E-05-2.64241E-05-2.63657E-05 1.65208E-07-1.44525E-20 1.53710E-18
 -1      1138 8.81702E-05-2.64986E-05-2.64485E-05 1.17279E-07-5.08518E-20 1.29840E-18
 -1      1139 8.88515E-05-2.66817E-05-2.66498E-05 8.65100E-08 9.11255E-20 9.34608E-19
 -1      1140 8.96647E-05-2.69133E-05-2.68922E-05 6.51121E-08 5.26964E-20 1.27522E-18
 -1      1141 9.05030E-05-2.71578E-05-2.71424E-05 4.92811E-08-4.73009E-20 8.20808E-19
 -1      1142 9.13085E-05-2.73956E-05-2.73837E-05 3.71395E-08-4.62789E-20 2.04459E-19
 -1      1143 9.20544E-05-2.76173E-05-2.76081E-05 2.77199E-08-8.93872E-22-1.30695E-21
 -1      1144 9.27338E-05-2.78203E-05-2.78133E-05 2.04898E-08-5.14836E-20-1.97134E-19
 -1      1145 9.33544E-05-2.80065E-05-2.80015E-05 1.51425E-08-2.77888E-20-8.56185E-19
 -1      1146 9.39337E-05-2.81809E-05-2.81778E-05 1.15092E-08 8.77626E-20-4.88276E-19
 -1      1147 9.44965E-05-2.83506E-05-2.83495E-05 9.51909E-09-6.54405E-20-7.67541E-20
 -1      1148 9.50728E-05-2.85246E-05-2.85254E-05 9.17567E-09-1.66248E-19-9.11098E-19
 -1      1149 9.56950E-05-2.87124E-05-2.87151E-05 1.05302E-08-3.66162E-20-1.42837E-18
 -1      1150 9.63958E-05-2.89235E-05-2.89281E-05 1.36375E-08 6.72357E-20-1.25936E-18
 -1      1151 9.72038E-05-2.91663E-05-2.91725E-05 1.84763E-08-5.85669E-20-1.56675E-18
 -1      1152 9.81376E-05-2.94460E-05-2.94531E-05 2.48159E-08-1.50517E-19-1.42497E-18
 -1      1153 9.91972E-05-2.97621E-05-2.97688E-05 3.20074E-08-6.10264E-20-8.92276E-19
 -1      1154 1.00352E-04-3.01049E-05-3.01089E-05 3.86906E-08-4.06895E-20 7.26622E-19
 -1      1155 1.01525E-04-3.04514E-05-3.04488E-05 4.24434E-08-1.81966E-19 1.79604E-19
 -1      1156 1.02580E-04-3.07598E-05-3.07459E-05 3.94943E-08-3.01591E-19-1.29511E-18
 -1      1157 1.03305E-04-3.09678E-05-3.09373E-05 2.47818E-08 1.57808E-19-2.33222E-18
 -1      1158 1.03423E-04-3.09934E-05-3.09426E-05-7.14262E-09 8.54196E-20-2.54086E-18
 -1      1159 1.02623E-04-3.07458E-05-3.06764E-05-5.97946E-08 1.94841E-19-4.33588E-19
 -1      1160 1.00642E-04-3.01500E-05-3.00722E-05-1.30807E-07-1.32073E-19-5.46707E-19
 -1      1161 9.73936E-05-2.91842E-05-2.91189E-05-2.07454E-07-2.92491E-20-7.51556E-19
 -1      1162 9.31156E-05-2.79222E-05-2.78966E-05-2.64990E-07 7.34309E-20-1.94902E-18
 -1      1163 8.84555E-05-2.65561E-05-2.65926E-05-2.72836E-07-3.97942E-19-1.16417E-18
 -1      1164 8.43967E-05-2.53721E-05-2.54742E-05-2.10151E-07 3.26180E-19-4.82703E-19
 -1      1165 8.19724E-05-2.46672E-05-2.48124E-05-8.29538E-08-1.15216E-19-1.62923E-18
 -1      1166 8.18636E-05-2.46354E-05-2.47819E-05 7.17967E-08-1.09793E-19-3.38739E-18
 -1      1167 8.40953E-05-2.52838E-05-2.53891E-05 2.02571E-07 2.41437E-19-2.36584E-18
 -1      1168 8.80228E-05-2.64286E-05-2.64687E-05 2.70351E-07 6.70653E-20-4.15443E-19
 -1      1169 9.26197E-05-2.77750E-05-2.77520E-05 2.66739E-07 4.46728E-19-1.76135E-18
 -1      1170 9.68823E-05-2.90313E-05-2.89667E-05 2.11162E-07 1.55040E-19-9.61832E-19
 -1      1171 1.00129E-04-2.99954E-05-2.99166E-05 1.34042E-07-1.23324E-19-9.42933E-19
 -1      1172 1.02089E-04-3.05845E-05-3.05126E-05 6.08472E-08 4.45751E-20-1.56871E-18
 -1      1173 1.02829E-04-3.08137E-05-3.07599E-05 5.23051E-09 2.63027E-20-1.93937E-18
 -1      1174 1.02602E-04-3.07556E-05-3.07219E-05-2.98156E-08-2.40399E-19-3.06902E-18
 -1      1175 1.01721E-04-3.05016E-05-3.04847E-05-4.75122E-08 1.16237E-19-4.66677E-18
 -1      1176 1.00477E-04-3.01371E-05-3.01323E-05-5.31160E-08 2.23183E-19-3.46237E-18
 -1      1177 9.91002E-05-2.97312E-05-2.97346E-05-5.13127E-08-2.14898E-19-4.54564E-18
 -1      1178 9.77638E-05-2.93354E-05-2.93455E-05-4.49557E-08 1.94436E-19-1.16366E-18
 -1      1179 9.65985E-05-2.89892E-05-2.90067E-05-3.43876E-08 3.22806E-19 8.91443E-19
 -1      1180 9.57169E-05-2.87267E-05-2.87514E-05-1.61532E-08-2.89257E-19 1.46358E-18
 -1      1181 9.52398E-05-2.85934E-05-2.85980E-05 1.87741E-08-1.43169E-19 2.12637E-18
 -1      1182 9.51620E-05-2.85465E-05-2.85186E-05 2.59452E-08 5.04070E-19 1.80628E-18
 -1      1183 1.31014E-04-3.77270E-05-3.86458E-05 1.21734E-05-6.32892E-20 4.74127E-18
 -1      1184 9.65101E-05-2.81748E-05-3.13154E-05 8.01886E-07 7.71065E-20 3.43218E-18
 -1      1185 9.03168E-05-2.69121E-05-2.78569E-05 1.20475E-07 2.59007E-20 2.31863E-18
 -1      1186 8.82701E-05-2.64800E-05-2.66603E-05 9.36178E-09 2.44945E-20 1.59668E-18
 -1      1187 8.78571E-05-2.63861E-05-2.63921E-05-2.47746E-08 2.38542E-20 1.12663E-18
 -1      1188 8.81894E-05-2.64804E-05-2.64633E-05-3.35743E-08 7.53156E-20 4.75185E-19
 -1      1189 8.88599E-05-2.66734E-05-2.66584E-05-3.44481E-08-1.33044E-20 5.29051E-19
 -1      1190 8.96657E-05-2.69097E-05-2.68971E-05-3.23188E-08-1.16019E-19 9.36064E-19
 -1      1191 9.04975E-05-2.71560E-05-2.71444E-05-2.87290E-08 6.18576E-21 5.09451E-19
 -1      1192 9.12962E-05-2.73937E-05-2.73828E-05-2.43588E-08 1.15906E-19-2.57677E-19
 -1      1193 9.20345E-05-2.76142E-05-2.76042E-05-1.95887E-08 3.28303E-20-3.28546E-19
 -1      1194 9.27054E-05-2.78150E-05-2.78063E-05-1.46415E-08-4.08089E-20-4.77349E-20
 -1      1195 9.33172E-05-2.79987E-05-2.79915E-05-9.62865E-09 3.61854E-20 2.65376E-20
 -1      1196 9.38901E-05-2.81712E-05-2.81657E-05-4.57763E-09-1.62812E-19 2.54772E-20
 -1      1197 9.44538E-05-2.83415E-05-2.83380E-05 5.45325E-10 1.28501E-19-4.18072E-19
 -1      1198 9.50484E-05-2.85216E-05-2.85205E-05 5.81379E-09 5.17286E-20-2.25865E-18
 -1      1199 9.57251E-05-2.87270E-05-2.87290E-05 1.13126E-08-7.69942E-20-2.51303E-18
 -1      1200 9.65489E-05-2.89775E-05-2.89833E-05 1.70886E-08 6.54738E-20-2.67894E-18
 -1      1201 9.76028E-05-2.92979E-05-2.93092E-05 2.30536E-08-9.23092E-21-4.02105E-18
 -1      1202 9.89938E-05-2.97205E-05-2.97396E-05 2.87925E-08-8.12407E-20-3.55994E-18
 -1      1203 1.00859E-04-3.02861E-05-3.03167E-05 3.31860E-08 1.33500E-19-3.75993E-18
 -1      1204 1.03372E-04-3.10460E-05-3.10937E-05 3.37126E-08-6.95527E-20-3.08339E-18
 -1      1205 1.06743E-04-3.20613E-05-3.21333E-05 2.52592E-08-1.57290E-19-1.58644E-18
 -1      1206 1.11204E-04-3.33974E-05-3.35008E-05-1.57693E-09-1.75736E-19-1.77276E-18
 -1      1207 1.16951E-04-3.51064E-05-3.52408E-05-6.19244E-08-6.24240E-20-3.70206E-19
 -1      1208 1.24005E-04-3.71852E-05-3.73251E-05-1.74505E-07-1.33201E-19 1.31941E-18
 -1      1209 1.31914E-04-3.94939E-05-3.95585E-05-3.46899E-07 1.56297E-19 1.00495E-18
 -1      1210 1.39281E-04-4.16263E-05-4.14541E-05-5.33893E-07 6.68825E-20-5.07743E-19
 -1      1211 1.43256E-04-4.27800E-05-4.21783E-05-5.69284E-07-3.17015E-19 9.17522E-19
 -1      1212 1.39737E-04-4.18212E-05-4.07813E-05-1.56912E-07-1.97557E-19 1.90688E-18
 -1      1213 1.25749E-04-3.78810E-05-3.69193E-05 8.12493E-07-1.33619E-19 6.21934E-19
 -1      1214 1.04348E-04-3.16007E-05-3.17693E-05 1.79007E-06 2.50321E-19-2.47757E-20
 -1      1215 8.68423E-05-2.60688E-05-2.79884E-05 1.74095E-06 2.84153E-20 1.30591E-18
 -1      1216 8.59076E-05-2.53459E-05-2.79403E-05 3.56825E-07-1.10935E-19 3.39491E-18
 -1      1217 1.02322E-04-3.02333E-05-3.16288E-05-1.15686E-06-6.99993E-20 3.60815E-18
 -1      1218 1.24042E-04-3.71235E-05-3.67268E-05-1.64301E-06 3.99819E-19-1.07277E-18
 -1      1219 1.38830E-04-4.18061E-05-4.06244E-05-1.20860E-06-1.33553E-19-5.94829E-19
 -1      1220 1.43058E-04-4.30969E-05-4.20912E-05-5.15780E-07 2.66948E-19 3.14000E-18
 -1      1221 1.39419E-04-4.19284E-05-4.14097E-05-1.76883E-08 3.05776E-19 2.60404E-18
 -1      1222 1.32064E-04-3.96510E-05-3.95164E-05 2.14927E-07 1.68513E-19 1.08553E-18
 -1      1223 1.23981E-04-3.71902E-05-3.72498E-05 2.72689E-07-2.41926E-19 5.41439E-18
 -1      1224 1.16664E-04-3.49849E-05-3.51062E-05 2.49530E-07 1.40200E-19 7.60207E-18
 -1      1225 1.10612E-04-3.31713E-05-3.32907E-05 2.01816E-07-2.48650E-20 7.02489E-18
 -1      1226 1.05833E-04-3.17430E-05-3.18394E-05 1.55083E-07-3.90012E-19 7.42739E-18
 -1      1227 1.02152E-04-3.06439E-05-3.07163E-05 1.18213E-07-4.83834E-20 6.78529E-18
 -1      1228 9.93671E-05-2.98131E-05-2.98680E-05 9.21744E-08 2.15496E-19 3.00300E-18
 -1      1229 9.73217E-05-2.92032E-05-2.92500E-05 7.46745E-08-5.09610E-19 5.80661E-19
 -1      1230 9.59360E-05-2.87904E-05-2.88361E-05 5.83928E-08 4.41614E-19-1.61056E-18
 -1      1231 9.52185E-05-2.85735E-05-2.86066E-05 2.14328E-08 8.52807E-19-5.54760E-18
 -1      1232 9.51363E-05-2.85426E-05-2.84921E-05-3.52263E-08 5.12134E-19-3.66447E-18
 -1      1233 9.52685E-05-2.86748E-05-2.84957E-05-3.35426E-08-5.36192E-18-1.35422E-18
 -1      1234 9.52173E-05-2.85604E-05-2.86157E-05-2.43174E-08-9.73093E-18-1.68412E-18
 -1      1235 9.50095E-05-2.78445E-05-2.88347E-05 3.58760E-08-4.24995E-18 6.29269E-19
 -1      1236 9.46625E-05-2.66609E-05-2.91632E-05 6.08322E-08-1.97034E-19 2.73540E-19
 -1      1237 9.42675E-05-2.53148E-05-2.95387E-05 6.31518E-08-2.88669E-18 1.29009E-19
 -1      1238 9.39092E-05-2.40963E-05-2.98833E-05 5.06999E-08-9.65762E-18-1.58824E-18
 -1      1239 9.36455E-05-2.32016E-05-3.01403E-05 3.18889E-08-9.38421E-18 1.13623E-18
 -1      1240 9.35104E-05-2.27459E-05-3.02739E-05 9.38681E-09-8.23910E-18-3.75568E-19
 -1      1241 9.35173E-05-2.27740E-05-3.02694E-05-1.17091E-08-5.91825E-18 1.20754E-18
 -1      1242 9.36548E-05-2.32454E-05-3.01370E-05-2.86950E-08-4.27364E-18 1.19216E-19
 -1      1243 9.38951E-05-2.40649E-05-2.99030E-05-4.01118E-08-1.05869E-17-1.25152E-18
 -1      1244 9.41988E-05-2.50956E-05-2.96072E-05-4.54802E-08-1.66484E-17 8.94242E-19
 -1      1245 9.45253E-05-2.62039E-05-2.92885E-05-4.47550E-08-1.33968E-17 1.42312E-18
 -1      1246 9.48364E-05-2.72562E-05-2.89879E-05-3.76067E-08-1.03532E-17-1.67372E-19
 -1      1247 9.50893E-05-2.81052E-05-2.87485E-05-2.38105E-08-1.16828E-17 1.52840E-19
 -1      1248 9.52081E-05-2.85479E-05-2.85990E-05 3.64340E-08-5.82787E-18 1.38588E-19
 -1      1249 9.52622E-05-2.86478E-05-2.85192E-05 2.59959E-08-2.10150E-18 3.67046E-19
 -1      1250 3.55368E-05-1.12976E-04 1.95151E-05-1.49726E-05-9.89334E-19 4.28466E-19
 -1      1251 2.00507E-05-7.64323E-05 1.20648E-05-3.04065E-05 4.77218E-18 2.08455E-18
 -1      1252 7.25928E-06-2.06495E-05-2.60996E-06-1.07593E-05 6.45609E-18 3.15520E-18
 -1      1253 2.97496E-05 1.76828E-05-2.29815E-05 4.16158E-05 2.38863E-19 2.27005E-19
 -1      1254 1.08687E-04 1.06679E-05-4.67025E-05 9.78968E-05-7.02190E-19-2.44962E-18
 -1      1255 2.22978E-04-3.87860E-05-6.73027E-05 1.12567E-04-1.98714E-18-2.78843E-18
 -1      1256 3.11741E-04-8.75488E-05-7.97174E-05 6.40701E-05-2.25099E-19-1.05032E-18
 -1      1257 3.35752E-04-1.02001E-04-8.25521E-05-1.98112E-05 6.28816E-19-5.33758E-18
 -1      1258 2.75163E-04-6.65014E-05-7.48349E-05-9.31538E-05 2.06295E-18-8.43560E-18
 -1      1259 1.63529E-04-9.95653E-06-5.74663E-05-1.11034E-04 2.45555E-18-5.34308E-18
 -1      1260 6.53840E-05 2.17357E-05-3.60420E-05-7.62111E-05 2.35136E-18-2.50044E-18
 -1      1261 1.49795E-05 8.98358E-06-1.54347E-05-2.06706E-05-9.55453E-19 4.09964E-19
 -1      1262 8.98858E-06-3.84921E-05 2.87778E-06 2.07893E-05-2.99850E-19 8.90232E-19
 -1      1263 2.61172E-05-9.18376E-05 1.53597E-05 2.90753E-05-1.09013E-18 3.45272E-19
 -1      1264 3.76934E-05-1.16469E-04 2.01394E-05 7.32715E-06-4.08905E-18 4.58457E-20
 -1      1265 3.14701E-05-1.00147E-04 1.68440E-05-1.88367E-05-6.94398E-18-9.96111E-19
 -1      1266 1.26992E-05-4.69990E-05 5.38668E-06-1.97352E-05-3.94971E-18-1.31671E-18
 -1      1267 1.07077E-05 6.70081E-06-1.21160E-05 1.55515E-05-1.37558E-18-7.48777E-19
 -1      1268 5.26502E-05 2.72770E-05-3.27292E-05 7.15430E-05-6.92873E-19-5.92923E-19
 -1      1269 1.42669E-04 4.19365E-07-5.38760E-05 1.09765E-04-6.26804E-19-7.42001E-19
 -1      1270 2.43939E-04-5.21877E-05-6.99896E-05 9.86373E-05 2.35687E-19 1.98375E-18
 -1      1271 3.05766E-04-9.04108E-05-7.80335E-05 3.35738E-05 1.03457E-18 3.81334E-18
 -1      1272 2.97879E-04-8.58304E-05-7.70196E-05-5.06802E-05-2.92412E-19 9.20725E-19
 -1      1273 2.23721E-04-4.14050E-05-6.71627E-05-1.06769E-04 5.67089E-19-6.01393E-19
 -1      1274 1.23547E-04 8.87702E-06-5.04891E-05-1.08718E-04 4.37069E-19-9.02937E-19
 -1      1275 4.24269E-05 2.78858E-05-2.97005E-05-6.36436E-05 2.85281E-18-2.11928E-18
 -1      1276 8.52461E-06-1.10219E-06-8.63690E-06-6.78052E-06 3.77946E-18-1.98883E-18
 -1      1277 1.60596E-05-5.92954E-05 8.32996E-06 2.28470E-05 2.67578E-18-1.37558E-18
 -1      1278 3.45243E-05-1.07897E-04 1.83324E-05 1.36059E-05-5.13048E-18 5.40169E-19
 -1      1279 1.04405E-04-2.20100E-05-3.78797E-05-1.72782E-05-1.13926E-19 2.69822E-18
 -1      1280 9.02954E-05-6.67745E-06-3.60083E-05-2.04809E-05-3.30449E-19 3.95723E-19
 -1      1281 9.26261E-05-6.73545E-06-3.72117E-05-2.57666E-05-4.20975E-19 9.48465E-19
 -1      1282 8.58904E-05-4.09551E-06-3.51245E-05-1.64430E-05-3.72933E-19-4.33019E-19
 -1      1283 8.71385E-05-4.08850E-06-3.55922E-05-1.88632E-05-3.97470E-19-7.44860E-20
 -1      1284 9.21118E-05-1.04591E-05-3.50857E-05-1.90446E-05-6.09599E-19 3.64012E-19
 -1      1285 8.40939E-05-3.18945E-06-3.46858E-05-1.28301E-05-3.19053E-19-9.01627E-19
 -1      1286 8.46973E-05-3.15896E-06-3.49077E-05-1.46428E-05-3.61868E-19-6.88267E-19
 -1      1287 8.78519E-05-7.39286E-06-3.45692E-05-1.54196E-05-5.78841E-19-3.77512E-19
 -1      1288 8.31953E-05-2.72949E-06-3.44736E-05-9.69547E-06-2.81374E-19-1.13776E-18
 -1      1289 8.35051E-05-2.71280E-06-3.45809E-05-1.12441E-05-2.85688E-19-1.02187E-18
 -1      1290 8.58654E-05-5.98490E-06-3.43054E-05-1.19692E-05-4.85853E-19-7.42874E-19
 -1      1291 8.27093E-05-2.45837E-06-3.43701E-05-6.92269E-06-2.09250E-19-1.24392E-18
 -1      1292 8.28757E-05-2.45003E-06-3.44232E-05-8.29443E-06-2.40491E-19-1.17673E-18
 -1      1293 8.48324E-05-5.21841E-06-3.41773E-05-8.95011E-06-4.35133E-19-9.09978E-19
 -1      1294 8.24396E-05-2.29376E-06-3.43191E-05-4.30057E-06-1.49319E-19-1.35945E-18
 -1      1295 8.25282E-05-2.28980E-06-3.43455E-05-5.60313E-06-1.58170E-19-1.31155E-18
 -1      1296 8.42528E-05-4.76385E-06-3.41163E-05-6.22338E-06-2.92704E-19-1.09288E-18
 -1      1297 8.23104E-05-2.20474E-06-3.42980E-05-1.79260E-06-6.60311E-20-1.42266E-18
 -1      1298 8.23481E-05-2.20313E-06-3.43086E-05-3.04514E-06-8.74677E-20-1.35913E-18
 -1      1299 8.39360E-05-4.50153E-06-3.40890E-05-3.64904E-06-1.98444E-19-1.11515E-18
 -1      1300 8.22850E-05-2.17729E-06-3.42956E-05 6.70380E-07-8.61839E-21-1.45314E-18
 -1      1301 8.22836E-05-2.17734E-06-3.42952E-05-5.67051E-07-5.29114E-20-1.43318E-18
 -1      1302 8.37974E-05-4.38221E-06-3.40791E-05-1.17215E-06-8.09903E-20-1.20831E-18
 -1      1303 8.23568E-05-2.20748E-06-3.43101E-05 3.15208E-06 7.32452E-20-1.47569E-18
 -1      1304 8.23161E-05-2.20912E-06-3.42988E-05 1.89693E-06 3.84554E-20-1.46320E-18
 -1      1305 8.38023E-05-4.38641E-06-3.40795E-05 1.27489E-06 1.91960E-20-1.24974E-18
 -1      1306 8.25458E-05-2.30034E-06-3.43480E-05 5.71930E-06 1.01452E-19-1.51264E-18
 -1      1307 8.24536E-05-2.30373E-06-3.43210E-05 4.41073E-06 1.03778E-19-1.50547E-18
 -1      1308 8.39518E-05-4.51516E-06-3.40901E-05 3.75593E-06 1.45289E-19-1.24302E-18
 -1      1309 8.28990E-05-2.46574E-06-3.44257E-05 8.40357E-06 1.67871E-19-1.40871E-18
 -1      1310 8.27296E-05-2.47446E-06-3.43721E-05 7.02264E-06 1.45081E-19-1.46449E-18
 -1      1311 8.42794E-05-4.78788E-06-3.41173E-05 6.31687E-06 2.08117E-19-1.26862E-18
 -1      1312 8.35482E-05-2.74238E-06-3.45857E-05 1.14058E-05 3.18484E-19-1.28892E-18
 -1      1313 8.32315E-05-2.75955E-06-3.44767E-05 9.84001E-06 2.54507E-19-1.33876E-18
 -1      1314 8.48749E-05-5.26025E-06-3.41776E-05 9.06210E-06 3.58947E-19-1.13359E-18
 -1      1315 8.47584E-05-3.20337E-06-3.49162E-05 1.48552E-05 4.07926E-19-1.05239E-18
 -1      1316 8.41515E-05-3.24024E-06-3.46916E-05 1.30148E-05 3.50698E-19-1.22265E-18
 -1      1317 8.59481E-05-6.06380E-06-3.43068E-05 1.21322E-05 5.58552E-19-1.04254E-18
 -1      1318 8.72369E-05-4.08867E-06-3.56138E-05 1.91014E-05 4.95091E-19-4.84476E-19
 -1      1319 8.59594E-05-4.15277E-06-3.51326E-05 1.67043E-05 4.37175E-19-8.11246E-19
 -1      1320 8.79811E-05-7.51578E-06-3.45720E-05 1.56603E-05 6.91880E-19-6.97982E-19
 -1      1321 9.34386E-05-6.78797E-06-3.71069E-05 2.51025E-05 4.51680E-19 6.47980E-19
 -1      1322 9.01099E-05-6.43407E-06-3.60308E-05 2.11578E-05 4.23411E-19-6.62803E-20
 -1      1323 9.23402E-05-1.06935E-05-3.50708E-05 1.96851E-05 7.79932E-19-7.08331E-20
 -1      1324 1.23589E-04-2.49148E-05-3.90031E-05 2.83671E-05 2.38757E-19 2.95826E-18
 -1      1325 1.00049E-04-1.44170E-05-3.73434E-05 2.40548E-05 2.39499E-19 1.33715E-18
 -1      1326 1.01647E-04-1.93339E-05-3.53925E-05 2.14050E-05 7.61403E-19 9.55030E-19
 -1      1327 1.02566E-04-2.77935E-05-3.47459E-05 7.33311E-06 3.89238E-19 2.79055E-18
 -1      1328 1.05108E-04-3.02182E-05-3.35137E-05-7.96299E-06-2.96673E-19 2.77001E-18
 -1      1329 9.82187E-05-2.78302E-05-3.07496E-05-4.99145E-06-2.81533E-19 2.41934E-18
 -1      1330 9.54598E-05-2.78363E-05-2.92416E-05-2.49307E-06-2.04453E-19 2.21041E-18
 -1      1331 9.32241E-05-2.75444E-05-2.82013E-05-2.04633E-06-2.13373E-19 1.87562E-18
 -1      1332 9.94481E-05-2.80414E-05-3.09718E-05-7.89246E-06-4.97632E-19 1.46320E-18
 -1      1333 9.15327E-05-2.71860E-05-2.75664E-05-8.41627E-07-2.60873E-19 1.71688E-18
 -1      1334 9.08127E-05-2.70894E-05-2.72632E-05-7.31465E-07-2.47790E-19 1.42002E-18
 -1      1335 9.46783E-05-2.77580E-05-2.88045E-05-3.12687E-06-4.51310E-19 1.11119E-18
 -1      1336 9.00610E-05-2.69062E-05-2.70195E-05-1.76901E-07-1.35181E-19 1.21472E-18
 -1      1337 8.99855E-05-2.69319E-05-2.69838E-05-1.18712E-07-2.34436E-19 9.55056E-19
 -1      1338 9.24760E-05-2.74866E-05-2.78828E-05-1.05924E-06-4.43342E-19 8.01055E-19
 -1      1339 8.97256E-05-2.68644E-05-2.69094E-05 1.52377E-07-1.30815E-19 9.23703E-19
 -1      1340 8.99380E-05-2.69536E-05-2.69704E-05 1.81232E-07-8.28372E-20 8.56840E-19
 -1      1341 9.15157E-05-2.73421E-05-2.75155E-05-7.43407E-08-2.60509E-19 6.07653E-19
 -1      1342 8.99427E-05-2.69570E-05-2.69772E-05 3.13751E-07 3.15958E-20 7.87489E-19
 -1      1343 9.02843E-05-2.70762E-05-2.70762E-05 3.25826E-07 1.00741E-19 7.36264E-19
 -1      1344 9.12633E-05-2.73300E-05-2.74080E-05 4.15628E-07-1.53834E-19 6.11095E-19
 -1      1345 9.04296E-05-2.71188E-05-2.71244E-05 3.82905E-07 3.88911E-20 7.01165E-19
 -1      1346 9.08192E-05-2.72473E-05-2.72371E-05 3.85241E-07-2.89373E-20 6.78136E-19
 -1      1347 9.14004E-05-2.74044E-05-2.74318E-05 6.48628E-07 5.48181E-20 3.79519E-19
 -1      1348 9.10343E-05-2.73095E-05-2.73057E-05 3.99964E-07-1.36856E-19 7.45197E-19
 -1      1349 9.14280E-05-2.74357E-05-2.74200E-05 3.96854E-07-2.15483E-19 4.10351E-19
 -1      1350 9.17433E-05-2.75255E-05-2.75242E-05 7.39162E-07-1.85750E-19 2.34524E-19
 -1      1351 9.16721E-05-2.75059E-05-2.74969E-05 3.88683E-07-1.70763E-19 3.71282E-19
 -1      1352 9.20471E-05-2.76238E-05-2.76063E-05 3.82958E-07-1.62254E-19 1.76778E-19
 -1      1353 9.21844E-05-2.76672E-05-2.76508E-05 7.50276E-07-2.90778E-19 2.67942E-19
 -1      1354 9.22973E-05-2.76955E-05-2.76848E-05 3.64315E-07-2.02741E-19 5.40745E-20
 -1      1355 9.26442E-05-2.78030E-05-2.77864E-05 3.57926E-07-1.45914E-19-8.03771E-20
 -1      1356 9.26618E-05-2.78140E-05-2.77914E-05 7.20447E-07-2.58352E-19 3.54020E-19
 -1      1357 9.28896E-05-2.78731E-05-2.78631E-05 3.37171E-07-1.11078E-19-3.57995E-19
 -1      1358 9.32076E-05-2.79704E-05-2.79567E-05 3.31498E-07-2.68427E-19-5.53806E-19
 -1      1359 9.31421E-05-2.79578E-05-2.79353E-05 6.74850E-07-2.56822E-19-9.93564E-20
 -1      1360 9.34452E-05-2.80382E-05-2.80310E-05 3.14447E-07-2.48868E-19-3.77892E-19
 -1      1361 9.37401E-05-2.81275E-05-2.81181E-05 3.10480E-07-1.20261E-19-7.10020E-19
 -1      1362 9.36115E-05-2.80955E-05-2.80775E-05 6.30693E-07-3.25796E-19-4.23763E-19
 -1      1363 9.39726E-05-2.81937E-05-2.81906E-05 3.01245E-07 2.24155E-19-6.65751E-19
 -1      1364 9.42542E-05-2.82782E-05-2.82741E-05 2.99704E-07 1.04251E-19-6.25602E-19
 -1      1365 9.40693E-05-2.82278E-05-2.82175E-05 6.00045E-07-1.78515E-20-4.01118E-19
 -1      1366 9.44882E-05-2.83448E-05-2.83470E-05 3.01154E-07-5.13782E-20-4.73318E-19
 -1      1367 9.47697E-05-2.84288E-05-2.84307E-05 3.02543E-07-3.44236E-19-7.00773E-19
 -1      1368 9.45243E-05-2.83579E-05-2.83574E-05 5.91405E-07-3.40820E-20-6.35284E-19
 -1      1369 9.50143E-05-2.84985E-05-2.85068E-05 3.16483E-07-4.96706E-19-4.34343E-19
 -1      1370 9.53107E-05-2.85869E-05-2.85950E-05 3.21103E-07-1.99408E-19-8.65539E-19
 -1      1371 9.49915E-05-2.84907E-05-2.85016E-05 6.10480E-07-3.49826E-19-5.97480E-19
 -1      1372 9.55762E-05-2.86627E-05-2.86774E-05 3.48202E-07-1.19100E-19-1.09357E-18
 -1      1373 9.59033E-05-2.87606E-05-2.87747E-05 3.56095E-07-2.14528E-19-1.29120E-18
 -1      1374 9.54902E-05-2.86327E-05-2.86554E-05 6.60327E-07-2.87756E-19-7.00611E-19
 -1      1375 9.62003E-05-2.88459E-05-2.88667E-05 3.95549E-07-2.94499E-20-1.25623E-18
 -1      1376 9.65729E-05-2.89580E-05-2.89773E-05 4.06392E-07-9.69423E-20-1.38162E-18
 -1      1377 9.60410E-05-2.87907E-05-2.88247E-05 7.40877E-07-8.38087E-20-1.09461E-18
 -1      1378 9.69102E-05-2.90557E-05-2.90814E-05 4.55292E-07-1.41252E-19-1.18282E-18
 -1      1379 9.73394E-05-2.91862E-05-2.92084E-05 4.68200E-07-1.70420E-19-1.33134E-18
 -1      1380 9.66632E-05-2.89717E-05-2.90145E-05 8.47792E-07-2.58203E-19-1.10782E-18
 -1      1381 9.77220E-05-2.92981E-05-2.93259E-05 5.20601E-07 2.80824E-19-1.07491E-18
 -1      1382 9.82123E-05-2.94489E-05-2.94705E-05 5.33857E-07 1.01744E-19-1.09937E-18
 -1      1383 9.73707E-05-2.91816E-05-2.92282E-05 9.70605E-07 1.26770E-20-9.34270E-19
 -1      1384 9.86380E-05-2.95752E-05-2.96003E-05 5.79604E-07-8.66455E-20-9.29830E-19
 -1      1385 9.91815E-05-2.97448E-05-2.97597E-05 5.90323E-07 6.07744E-20-6.23277E-19
 -1      1386 9.81675E-05-2.94240E-05-2.94655E-05 1.09021E-06 3.27036E-19-5.47708E-19
 -1      1387 9.96373E-05-2.98828E-05-2.98971E-05 6.13866E-07 3.31511E-19-2.92670E-19
 -1      1388 1.00208E-04-3.00641E-05-3.00633E-05 6.17661E-07 2.09001E-19 9.74253E-20
 -1      1389 9.90401E-05-2.96980E-05-2.97208E-05 1.17603E-06 4.70749E-19-4.17790E-19
 -1      1390 1.00665E-04-3.02066E-05-3.01988E-05 5.97374E-07-1.93485E-19 1.39674E-19
 -1      1391 1.01210E-04-3.03843E-05-3.03560E-05 5.88185E-07-4.47567E-19-3.40352E-19
 -1      1392 9.99498E-05-2.99956E-05-2.99803E-05 1.18370E-06-1.12437E-19-4.44870E-19
 -1      1393 1.01621E-04-3.05184E-05-3.04739E-05 4.97206E-07-4.77424E-19-1.75938E-19
 -1      1394 1.02056E-04-3.06667E-05-3.05973E-05 4.67623E-07-3.20797E-19-8.79121E-19
 -1      1395 1.00824E-04-3.02983E-05-3.02202E-05 1.05512E-06-5.17750E-19 1.36169E-19
 -1      1396 1.02350E-04-3.07723E-05-3.06754E-05 2.77803E-07-3.18431E-20-1.03879E-18
 -1      1397 1.02557E-04-3.08535E-05-3.07307E-05 2.20377E-07-3.40186E-20-1.28165E-18
 -1      1398 1.01547E-04-3.05727E-05-3.04056E-05 7.23901E-07-4.18031E-19 2.56853E-19
 -1      1399 1.02644E-04-3.09032E-05-3.07418E-05-8.87591E-08 1.05221E-19-1.62398E-18
 -1      1400 1.02481E-04-3.08697E-05-3.06890E-05-1.78609E-07 3.44633E-19-9.28697E-19
 -1      1401 1.01963E-04-3.07675E-05-3.04916E-05 1.30382E-07-1.82526E-19-1.32847E-19
 -1      1402 1.02264E-04-3.08306E-05-3.06056E-05-6.04855E-07 5.37085E-19-1.18208E-18
 -1      1403 1.01593E-04-3.06327E-05-3.04068E-05-7.24113E-07 2.67973E-19-5.34656E-19
 -1      1404 1.01886E-04-3.08134E-05-3.04292E-05-7.49934E-07 2.46870E-19-1.84454E-19
 -1      1405 1.00993E-04-3.04733E-05-3.02091E-05-1.22370E-06-4.27950E-20-7.57327E-19
 -1      1406 9.97289E-05-3.00755E-05-2.98438E-05-1.35614E-06-2.25384E-19-1.09429E-18
 -1      1407 1.01133E-04-3.06310E-05-3.01774E-05-1.86549E-06-1.94255E-20-1.26658E-18
 -1      1408 9.87202E-05-2.97780E-05-2.95312E-05-1.82945E-06 1.66267E-19-1.21222E-18
 -1      1409 9.68990E-05-2.91828E-05-2.90135E-05-1.94232E-06-1.56569E-20-1.39481E-18
 -1      1410 9.95878E-05-3.01521E-05-2.97202E-05-3.04727E-06-1.11769E-19-1.97462E-18
 -1      1411 9.55579E-05-2.87607E-05-2.86151E-05-2.24007E-06-3.19731E-19-6.74715E-19
 -1      1412 9.33923E-05-2.80329E-05-2.80081E-05-2.28867E-06-1.86620E-19-1.06509E-18
 -1      1413 9.72873E-05-2.93585E-05-2.90857E-05-3.99576E-06 6.40188E-20-1.19972E-18
 -1      1414 9.19223E-05-2.75475E-05-2.75862E-05-2.25517E-06-8.55851E-20-7.87529E-19
 -1      1415 8.98070E-05-2.68214E-05-2.70000E-05-2.20000E-06 1.51263E-19-2.79018E-19
 -1      1416 9.44987E-05-2.83272E-05-2.83572E-05-4.33681E-06 3.10811E-19-1.20702E-18
 -1      1417 8.85198E-05-2.63814E-05-2.66403E-05-1.75064E-06-1.37044E-19-1.37233E-19
 -1      1418 8.69451E-05-2.58328E-05-2.62074E-05-1.58237E-06-1.55245E-19-4.65881E-19
 -1      1419 9.17374E-05-2.72558E-05-2.76662E-05-3.76827E-06-7.21103E-20-4.08356E-19
 -1      1420 8.61725E-05-2.55632E-05-2.59952E-05-7.75740E-07-2.43264E-19-1.18593E-18
 -1      1421 8.55566E-05-2.53473E-05-2.58264E-05-5.31425E-07-8.64649E-19-1.82047E-18
 -1      1422 8.96611E-05-2.64253E-05-2.71620E-05-2.24878E-06-9.28077E-19-1.49132E-18
 -1      1423 8.55192E-05-2.53347E-05-2.58158E-05 4.23189E-07-3.65984E-19-2.00572E-18
 -1      1424 8.60347E-05-2.55166E-05-2.59564E-05 6.70349E-07 1.42527E-19-2.55212E-18
 -1      1425 8.88422E-05-2.60940E-05-2.69655E-05-1.04039E-07-5.83990E-19-2.24545E-18
 -1      1426 8.67407E-05-2.57645E-05-2.61494E-05 1.49518E-06 8.17522E-19-1.64070E-18
 -1      1427 8.82363E-05-2.62872E-05-2.65597E-05 1.67029E-06 8.75534E-19-5.05507E-19
 -1      1428 8.95190E-05-2.63724E-05-2.71251E-05 2.06339E-06 8.11372E-19-1.01674E-18
 -1      1429 8.94764E-05-2.67133E-05-2.69048E-05 2.14659E-06-3.29322E-19-5.95729E-19
 -1      1430 9.15441E-05-2.74253E-05-2.74769E-05 2.20915E-06-1.67726E-19-9.09528E-19
 -1      1431 9.14824E-05-2.71638E-05-2.75981E-05 3.63870E-06 3.73800E-19-9.69727E-19
 -1      1432 9.29882E-05-2.79047E-05-2.78900E-05 2.26631E-06 4.95575E-19-1.27616E-18
 -1      1433 9.51343E-05-2.86284E-05-2.84905E-05 2.22267E-06 2.07109E-19-1.00019E-18
 -1      1434 9.41734E-05-2.82158E-05-2.82670E-05 4.26918E-06-6.78103E-19-1.07700E-18
 -1      1435 9.64638E-05-2.90494E-05-2.88841E-05 1.93710E-06 8.81775E-20-2.00384E-18
 -1      1436 9.82803E-05-2.96455E-05-2.93995E-05 1.82547E-06-1.50868E-19-1.91306E-18
 -1      1437 9.69280E-05-2.92433E-05-2.89817E-05 3.97151E-06-2.57045E-19-2.56470E-18
 -1      1438 9.92809E-05-2.99427E-05-2.97085E-05 1.35068E-06-1.08440E-19-1.21418E-18
 -1      1439 1.00539E-04-3.03406E-05-3.00712E-05 1.21609E-06-3.01299E-19-1.82367E-18
 -1      1440 9.92122E-05-3.00400E-05-2.96070E-05 3.03551E-06-3.20675E-19-2.87676E-18
 -1      1441 1.01125E-04-3.04970E-05-3.02639E-05 7.04207E-07-1.76626E-19-1.92640E-18
 -1      1442 1.01776E-04-3.06897E-05-3.04562E-05 5.80701E-07-3.36798E-19-2.31855E-18
 -1      1443 1.00737E-04-3.05193E-05-3.00548E-05 1.83653E-06-1.44075E-19-1.76682E-18
 -1      1444 1.01965E-04-3.07213E-05-3.05311E-05 1.36426E-07-1.79935E-19-2.36118E-18
 -1      1445 1.02086E-04-3.07421E-05-3.05715E-05 4.16027E-08-5.39461E-19-2.61150E-18
 -1      1446 1.01451E-04-3.06933E-05-3.02929E-05 6.84074E-07-3.44560E-19-2.09350E-18
 -1      1447 1.01957E-04-3.06801E-05-3.05476E-05-2.86426E-07-7.53988E-19-2.60890E-18
 -1      1448 1.01685E-04-3.05785E-05-3.04734E-05-3.48517E-07-3.89284E-19-3.17902E-18
 -1      1449 1.01461E-04-3.06280E-05-3.03348E-05-2.40752E-07-8.92439E-19-2.38275E-18
 -1      1450 1.01337E-04-3.04563E-05-3.03787E-05-5.54058E-07 2.29179E-19-2.96360E-18
 -1      1451 1.00818E-04-3.02811E-05-3.02311E-05-5.87185E-07 2.26645E-19-3.25301E-18
 -1      1452 1.00950E-04-3.04031E-05-3.02212E-05-8.75822E-07-1.13009E-19-1.91694E-18
 -1      1453 1.00344E-04-3.01276E-05-3.00941E-05-6.86924E-07 1.80770E-19-1.83998E-18
 -1      1454 9.97040E-05-2.99186E-05-2.99097E-05-6.97672E-07 7.05464E-19-2.15638E-18
 -1      1455 1.00110E-04-3.00900E-05-3.00030E-05-1.23643E-06 1.00103E-18-1.26909E-18
 -1      1456 9.91832E-05-2.97560E-05-2.97554E-05-7.15252E-07 8.68607E-19-2.13271E-18
 -1      1457 9.85204E-05-2.95432E-05-2.95634E-05-7.09825E-07 7.84727E-19-1.24999E-18
 -1      1458 9.91108E-05-2.97434E-05-2.97289E-05-1.37247E-06 9.08152E-19-2.59271E-19
 -1      1459 9.80131E-05-2.93874E-05-2.94115E-05-6.65996E-07 1.32107E-18-1.05384E-18
 -1      1460 9.74010E-05-2.91920E-05-2.92342E-05-6.48631E-07 1.24035E-18 1.12517E-18
 -1      1461 9.80860E-05-2.94010E-05-2.94405E-05-1.33787E-06 1.61283E-18 9.21658E-19
 -1      1462 9.69521E-05-2.90542E-05-2.91001E-05-5.56784E-07 9.22062E-19 6.25210E-19
 -1      1463 9.64490E-05-2.88931E-05-2.89550E-05-5.29122E-07 3.72503E-19 6.39336E-19
 -1      1464 9.71356E-05-2.90880E-05-2.91705E-05-1.17397E-06 1.82999E-18 1.41859E-18
 -1      1465 9.60913E-05-2.87814E-05-2.88498E-05-3.96114E-07 6.21522E-19 2.11551E-18
 -1      1466 9.57486E-05-2.86714E-05-2.87504E-05-3.57226E-07 3.37492E-19 1.98285E-18
 -1      1467 9.63330E-05-2.88211E-05-2.89433E-05-9.04584E-07 9.93001E-19 7.60522E-19
 -1      1468 9.54965E-05-2.85865E-05-2.86786E-05-1.89266E-07-6.35705E-20 3.26687E-18
 -1      1469 9.53547E-05-2.85546E-05-2.86266E-05-1.41902E-07 1.91352E-20 3.16759E-18
 -1      1470 9.57254E-05-2.86132E-05-2.87724E-05-5.49311E-07 9.43864E-19 3.40534E-18
 -1      1471 9.52187E-05-2.85619E-05-2.85594E-05 2.46300E-08-2.19648E-18 1.84928E-18
 -1      1472 9.53205E-05-2.85233E-05-2.86299E-05-1.25893E-07-2.17404E-18 2.26685E-18
 -1      1473 9.65332E-05-2.83503E-05-2.97593E-05 2.99898E-06 4.02182E-19 1.99132E-18
 -1      1474 1.02496E-04-2.93865E-05-3.21436E-05 4.46616E-06 3.38390E-19 2.58493E-18
 -1      1475 1.02289E-04-2.67069E-05-3.26945E-05 1.27885E-05 6.65768E-19 1.54478E-18
 -1      1476 9.19810E-05-2.74144E-05-2.77469E-05 1.15513E-06 2.61124E-19 1.28913E-18
 -1      1477 9.39312E-05-2.75706E-05-2.86621E-05 1.47702E-06 2.61349E-19 1.73010E-18
 -1      1478 9.64460E-05-2.80180E-05-2.95215E-05 4.87342E-06 5.46072E-19 1.10170E-18
 -1      1479 9.01425E-05-2.69878E-05-2.70463E-05 3.34897E-07 2.12969E-19 8.06931E-19
 -1      1480 9.07611E-05-2.70065E-05-2.73199E-05 4.97647E-07 1.89689E-19 1.05773E-18
 -1      1481 9.29973E-05-2.75653E-05-2.80852E-05 1.85750E-06 4.04538E-19 5.48388E-19
 -1      1482 8.96196E-05-2.68679E-05-2.68689E-05-5.21732E-08 2.49137E-19 4.82518E-19
 -1      1483 8.96606E-05-2.68067E-05-2.68981E-05 3.68494E-08 1.89464E-19 7.53462E-19
 -1      1484 9.14402E-05-2.72930E-05-2.75003E-05 5.23272E-07 3.89509E-19 2.08317E-19
 -1      1485 8.97471E-05-2.69189E-05-2.69095E-05-2.40175E-07-3.07711E-21 2.24596E-19
 -1      1486 8.95217E-05-2.68124E-05-2.68452E-05-1.89942E-07 7.09357E-20 3.77909E-19
 -1      1487 9.09057E-05-2.72110E-05-2.73034E-05-1.27584E-07 2.38797E-19 6.75707E-20
 -1      1488 9.01980E-05-2.70606E-05-2.70472E-05-3.24854E-07-9.40471E-20 4.43170E-19
 -1      1489 8.98529E-05-2.69340E-05-2.69462E-05-2.97042E-07-7.47101E-20 2.82234E-19
 -1      1490 9.09226E-05-2.72536E-05-2.72925E-05-4.48613E-07-1.29118E-19 2.20771E-19
 -1      1491 9.07951E-05-2.72434E-05-2.72276E-05-3.52120E-07 1.80811E-19 2.94443E-19
 -1      1492 9.04072E-05-2.71130E-05-2.71139E-05-3.38018E-07 7.68256E-20 3.65826E-19
 -1      1493 9.12304E-05-2.73661E-05-2.73753E-05-5.93059E-07 4.79947E-20-4.62063E-21
 -1      1494 9.14394E-05-2.74385E-05-2.74218E-05-3.47560E-07 1.64670E-19-6.78983E-20
 -1      1495 9.10503E-05-2.73135E-05-2.73074E-05-3.41824E-07 1.00092E-19 2.34860E-19
 -1      1496 9.16809E-05-2.75122E-05-2.75045E-05-6.38743E-07 2.69823E-19-2.09854E-19
 -1      1497 9.20766E-05-2.76300E-05-2.76141E-05-3.27009E-07 9.84880E-20-3.70921E-19
 -1      1498 9.17080E-05-2.75150E-05-2.75053E-05-3.26089E-07 8.24676E-20-2.16026E-19
 -1      1499 9.21889E-05-2.76698E-05-2.76536E-05-6.30312E-07 2.22485E-19-5.53554E-19
 -1      1500 9.26812E-05-2.78107E-05-2.77969E-05-3.01050E-07 1.02180E-20-1.22089E-19
 -1      1501 9.23417E-05-2.77067E-05-2.76962E-05-3.02431E-07 7.36646E-21-3.45805E-19
 -1      1502 9.27071E-05-2.78266E-05-2.78077E-05-5.95927E-07 6.17889E-20-6.01120E-19
 -1      1503 9.32469E-05-2.79789E-05-2.79683E-05-2.77189E-07-9.18905E-21 1.21764E-19
 -1      1504 9.29365E-05-2.78849E-05-2.78758E-05-2.78988E-07 3.35417E-20 1.17288E-19
 -1      1505 9.32134E-05-2.79771E-05-2.79598E-05-5.54671E-07-6.86289E-20 2.96817E-20
 -1      1506 9.37819E-05-2.81371E-05-2.81307E-05-2.61146E-07 6.86530E-20 8.97929E-20
 -1      1507 9.34936E-05-2.80504E-05-2.80444E-05-2.61842E-07 1.63978E-19 2.00834E-19
 -1      1508 9.37029E-05-2.81206E-05-2.81081E-05-5.20352E-07 1.34268E-19 4.90899E-20
 -1      1509 9.43053E-05-2.82912E-05-2.82899E-05-2.57746E-07 8.51587E-20-2.46803E-19
 -1      1510 9.40269E-05-2.82073E-05-2.82062E-05-2.55976E-07 4.26423E-20-1.98853E-19
 -1      1511 9.41839E-05-2.82598E-05-2.82548E-05-5.03818E-07 2.17975E-19 1.26363E-20
 -1      1512 9.48465E-05-2.84500E-05-2.84547E-05-2.71623E-07 2.45719E-19-1.09643E-18
 -1      1513 9.45608E-05-2.83631E-05-2.83685E-05-2.66009E-07 3.41180E-19-5.71018E-19
 -1      1514 9.46750E-05-2.84004E-05-2.84055E-05-5.14584E-07 4.13902E-19-8.56314E-19
 -1      1515 9.54448E-05-2.86249E-05-2.86370E-05-3.07841E-07 1.19200E-19-1.43500E-18
 -1      1516 9.51294E-05-2.85278E-05-2.85416E-05-2.96816E-07 1.88034E-19-1.19044E-18
 -1      1517 9.52046E-05-2.85509E-05-2.85690E-05-5.62155E-07 4.90849E-19-7.05218E-19
 -1      1518 9.61511E-05-2.88311E-05-2.88524E-05-3.72515E-07-2.64089E-19-1.69375E-18
 -1      1519 9.57772E-05-2.87145E-05-2.87392E-05-3.54134E-07-7.44541E-20-1.57599E-18
 -1      1520 9.58107E-05-2.87222E-05-2.87568E-05-6.57222E-07 7.92067E-20-4.86781E-19
 -1      1521 9.70303E-05-2.90876E-05-2.91205E-05-4.73439E-07 6.44822E-19-2.19592E-18
 -1      1522 9.65611E-05-2.89395E-05-2.89784E-05-4.45160E-07 2.90274E-19-1.78784E-18
 -1      1523 9.65422E-05-2.89283E-05-2.89841E-05-8.12829E-07 2.55079E-19-1.27456E-18
 -1      1524 9.81646E-05-2.94186E-05-2.94665E-05-6.20706E-07-3.48690E-19-2.76984E-18
 -1      1525 9.75533E-05-2.92239E-05-2.92814E-05-5.79135E-07 3.24895E-19-2.43180E-18
 -1      1526 9.74607E-05-2.91869E-05-2.92698E-05-1.04551E-06 6.35281E-19-1.19017E-18
 -1      1527 9.96588E-05-2.98548E-05-2.99221E-05-8.27126E-07 2.24229E-19-2.77339E-18
 -1      1528 9.88451E-05-2.95940E-05-2.96761E-05-7.67773E-07-3.67546E-19-2.96168E-18
 -1      1529 9.86433E-05-2.95199E-05-2.96381E-05-1.37620E-06-2.95077E-19-2.02635E-18
 -1      1530 1.01644E-04-3.04353E-05-3.05273E-05-1.10797E-06-6.81066E-19-2.48475E-18
 -1      1531 1.00551E-04-3.00833E-05-3.01975E-05-1.02513E-06-3.55928E-19-2.78630E-18
 -1      1532 1.00185E-04-2.99547E-05-3.01182E-05-1.83034E-06-2.65422E-19-1.73407E-18
 -1      1533 1.04278E-04-3.12076E-05-3.13300E-05-1.47887E-06-5.06473E-19-1.09247E-18
 -1      1534 1.02813E-04-3.07335E-05-3.08884E-05-1.36599E-06-3.70458E-19-1.89271E-18
 -1      1535 1.02200E-04-3.05250E-05-3.07449E-05-2.43577E-06-1.04130E-18-1.23502E-18
 -1      1536 1.07740E-04-3.22275E-05-3.23828E-05-1.94937E-06-1.58574E-19-7.86205E-19
 -1      1537 1.05794E-04-3.15956E-05-3.17985E-05-1.80064E-06-6.89438E-20-7.46759E-19
 -1      1538 1.04818E-04-3.12711E-05-3.15568E-05-3.21515E-06-4.57226E-19-3.64965E-19
 -1      1539 1.12198E-04-3.35519E-05-3.37321E-05-2.50726E-06-4.55280E-20-7.98726E-19
 -1      1540 1.09669E-04-3.27276E-05-3.29773E-05-2.32222E-06-1.22608E-19-1.20975E-18
 -1      1541 1.08169E-04-3.22393E-05-3.25890E-05-4.16686E-06 6.88644E-20-4.81939E-19
 -1      1542 1.17730E-04-3.52210E-05-3.53895E-05-3.08563E-06-5.25981E-19-1.82536E-19
 -1      1543 1.14570E-04-3.41865E-05-3.44571E-05-2.87969E-06-5.48189E-19-7.14049E-19
 -1      1544 1.12350E-04-3.34783E-05-3.38587E-05-5.22319E-06-5.58360E-19-8.47900E-19
 -1      1545 1.24165E-04-3.72162E-05-3.72769E-05-3.50386E-06-3.26884E-19 8.22919E-19
 -1      1546 1.20486E-04-3.60067E-05-3.62153E-05-3.32902E-06-2.49755E-19 1.98338E-19
 -1      1547 1.17347E-04-3.50279E-05-3.53342E-05-6.17194E-06-5.74404E-19-4.90366E-19
 -1      1548 1.30803E-04-3.93772E-05-3.91404E-05-3.38831E-06 4.11893E-19 8.06958E-19
 -1      1549 1.27065E-04-3.81465E-05-3.81084E-05-3.36411E-06 8.30622E-20 9.29116E-19
 -1      1550 1.22908E-04-3.68917E-05-3.68878E-05-6.53736E-06-1.39238E-19 5.10589E-19
 -1      1551 1.36061E-04-4.12644E-05-4.04711E-05-2.14075E-06 9.80838E-20 8.13985E-19
 -1      1552 1.33306E-04-4.03783E-05-3.97892E-05-2.47421E-06 3.14593E-19 9.46877E-19
 -1      1553 1.28343E-04-3.89624E-05-3.82470E-05-5.47597E-06 1.90238E-19 1.88773E-18
 -1      1554 1.37329E-04-4.20141E-05-4.05567E-05 8.38091E-07-8.82304E-19 1.37870E-18
 -1      1555 1.37258E-04-4.21029E-05-4.06744E-05-8.39721E-08-9.54553E-19 4.61034E-19
 -1      1556 1.32323E-04-4.08635E-05-3.90031E-05-1.91151E-06-7.72971E-19 2.11017E-18
 -1      1557 1.31759E-04-4.04227E-05-3.88483E-05 5.33243E-06 4.41675E-19 1.66643E-18
 -1      1558 1.36131E-04-4.21870E-05-4.01064E-05 3.84800E-06-2.54904E-20 1.74118E-18
 -1      1559 1.32892E-04-4.17009E-05-3.87776E-05 4.63673E-06-6.12008E-19 1.64314E-18
 -1      1560 1.18780E-04-3.57987E-05-3.56066E-05 8.98446E-06-1.60936E-20 1.10517E-18
 -1      1561 1.27648E-04-3.92803E-05-3.78134E-05 7.73306E-06 2.40174E-19 1.34530E-18
 -1      1562 1.28245E-04-4.01006E-05-3.75639E-05 1.21997E-05 4.11671E-19 1.07631E-18
 -1      1563 1.03778E-04-2.99857E-05-3.22847E-05 8.06103E-06-1.34466E-20 1.41804E-18
 -1      1564 1.13415E-04-3.36056E-05-3.44564E-05 8.17603E-06 4.74603E-20 1.28262E-18
 -1      1565 1.19059E-04-3.54337E-05-3.59481E-05 1.52977E-05 9.37295E-20 1.60777E-18
 -1      1566 9.66297E-05-2.70913E-05-3.08089E-05 1.09303E-06-1.53895E-19 2.66827E-18
 -1      1567 1.00665E-04-2.81640E-05-3.16801E-05 3.05689E-06-4.73756E-19 1.37061E-18
 -1      1568 1.10366E-04-3.01786E-05-3.48666E-05 8.84464E-06-2.83333E-19 2.38236E-18
 -1      1569 1.03280E-04-2.98684E-05-3.21059E-05-6.78129E-06 4.39081E-19 2.88754E-18
 -1      1570 9.85461E-05-2.74352E-05-3.11039E-05-4.55275E-06 2.72533E-19 2.93375E-18
 -1      1571 1.09095E-04-2.90787E-05-3.48670E-05-4.45629E-06 5.75982E-20 2.16361E-18
 -1      1572 1.18455E-04-3.58289E-05-3.53328E-05-9.41555E-06 1.58326E-19 1.17653E-18
 -1      1573 1.08566E-04-3.18579E-05-3.31177E-05-8.59288E-06 6.49688E-19 2.72120E-18
 -1      1574 1.16364E-04-3.34182E-05-3.58783E-05-1.42124E-05 7.28342E-19 1.44345E-18
 -1      1575 1.31677E-04-4.04303E-05-3.86273E-05-6.44767E-06 1.77996E-19-1.77877E-19
 -1      1576 1.23086E-04-3.75948E-05-3.64791E-05-6.99286E-06 6.85514E-19 1.06938E-18
 -1      1577 1.26061E-04-3.90082E-05-3.73784E-05-1.39968E-05 1.13584E-18 1.93843E-18
 -1      1578 1.37543E-04-4.20889E-05-4.04762E-05-1.79659E-06-3.47628E-19 1.17960E-18
 -1      1579 1.33605E-04-4.11923E-05-3.93199E-05-2.80540E-06-9.69800E-19-6.27863E-19
 -1      1580 1.32045E-04-4.17562E-05-3.86331E-05-7.37123E-06-5.87047E-19 1.02390E-18
 -1      1581 1.36389E-04-4.13563E-05-4.05101E-05 1.65634E-06-4.65934E-20 2.61944E-18
 -1      1582 1.36822E-04-4.18870E-05-4.04868E-05 8.76703E-07-5.57282E-19 1.65351E-18
 -1      1583 1.32643E-04-4.14442E-05-3.90037E-05-1.14664E-07-1.32137E-18 1.41655E-18
 -1      1584 1.31104E-04-3.94512E-05-3.92369E-05 3.28688E-06 6.17044E-19 2.40303E-18
 -1      1585 1.34078E-04-4.06343E-05-3.99750E-05 2.89087E-06 7.05651E-19 3.13767E-18
 -1      1586 1.29270E-04-3.95786E-05-3.83862E-05 4.55071E-06 3.65468E-19 2.28764E-18
 -1      1587 1.24346E-04-3.72542E-05-3.73681E-05 3.61602E-06-1.06440E-18 3.16780E-18
 -1      1588 1.28192E-04-3.85559E-05-3.84254E-05 3.49821E-06-3.08674E-19 2.56238E-18
 -1      1589 1.23971E-04-3.73636E-05-3.70936E-05 6.43710E-06-1.86566E-19 2.99110E-18
 -1      1590 1.17722E-04-3.52067E-05-3.54294E-05 3.29041E-06-1.46042E-19 5.06695E-18
 -1      1591 1.21457E-04-3.63753E-05-3.65032E-05 3.31679E-06-5.46333E-19 3.83881E-18
 -1      1592 1.18252E-04-3.53339E-05-3.55292E-05 6.52312E-06-1.13952E-18 4.31105E-18
 -1      1593 1.11951E-04-3.34705E-05-3.36938E-05 2.73912E-06 4.78805E-20 5.38231E-18
 -1      1594 1.15159E-04-3.44291E-05-3.46380E-05 2.82049E-06-1.82516E-19 5.43530E-18
 -1      1595 1.12947E-04-3.36368E-05-3.39901E-05 5.75994E-06-5.30332E-19 4.02911E-18
 -1      1596 1.07222E-04-3.20681E-05-3.22543E-05 2.17748E-06-1.32563E-18 5.68997E-18
 -1      1597 1.09812E-04-3.28204E-05-3.30257E-05 2.26856E-06-3.29588E-19 5.48799E-18
 -1      1598 1.08404E-04-3.22710E-05-3.26304E-05 4.74224E-06-5.39897E-19 5.13586E-18
 -1      1599 1.03480E-04-3.09652E-05-3.11099E-05 1.68798E-06 5.79155E-19 5.85625E-18
 -1      1600 1.05502E-04-3.15429E-05-3.17155E-05 1.77058E-06-1.42570E-19 5.75421E-18
 -1      1601 1.04689E-04-3.11917E-05-3.15008E-05 3.75807E-06-4.64353E-19 4.58488E-18
 -1      1602 1.00583E-04-3.01125E-05-3.02245E-05 1.28543E-06 1.29113E-18 4.01287E-18
 -1      1603 1.02131E-04-3.05501E-05-3.06881E-05 1.35537E-06 1.26250E-18 5.01418E-18
 -1      1604 1.01737E-04-3.03478E-05-3.05978E-05 2.90987E-06 1.64829E-18 3.33480E-18
 -1      1605 9.83922E-05-2.94646E-05-2.95581E-05 9.52657E-07 1.27345E-18 1.08707E-18
 -1      1606 9.95499E-05-2.97896E-05-2.99033E-05 1.01367E-06 1.31202E-18 3.24875E-18
 -1      1607 9.94461E-05-2.96935E-05-2.98972E-05 2.20478E-06 2.51148E-18 1.79464E-18
 -1      1608 9.68099E-05-2.89928E-05-2.90805E-05 6.60434E-07 1.81907E-19-4.25062E-19
 -1      1609 9.76320E-05-2.92198E-05-2.93237E-05 7.18582E-07-1.75693E-21-2.74961E-19
 -1      1610 9.77175E-05-2.91931E-05-2.93729E-05 1.60438E-06 9.76669E-19 4.01443E-19
 -1      1611 9.57881E-05-2.86827E-05-2.87741E-05 3.70693E-07 1.32605E-18-3.77552E-18
 -1      1612 9.62912E-05-2.88127E-05-2.89235E-05 4.39360E-07 2.01815E-18-7.44420E-19
 -1      1613 9.64772E-05-2.88223E-05-2.90035E-05 1.05620E-06 2.06217E-18-1.40061E-18
 -1      1614 9.53145E-05-2.85489E-05-2.86088E-05 8.69124E-08 2.86474E-19-4.97747E-18
 -1      1615 9.54909E-05-2.85725E-05-2.86807E-05 1.59170E-07-1.77809E-19-5.27151E-18
 -1      1616 9.56776E-05-2.85812E-05-2.87655E-05 5.06196E-07 1.39485E-18-4.77523E-18
 -1      1617 9.52205E-05-2.85604E-05-2.85549E-05-2.37298E-08-2.46717E-18-2.93485E-18
 -1      1618 9.51988E-05-2.81741E-05-2.87343E-05 2.95360E-07-4.26012E-18 6.65152E-19
 -1      1619 9.52626E-05-2.83902E-05-2.86555E-05 2.21390E-07-4.15050E-18-6.33459E-19
 -1      1620 9.49200E-05-2.73466E-05-2.89666E-05 5.58785E-07-1.38096E-18 9.40034E-19
 -1      1621 9.50823E-05-2.78232E-05-2.88317E-05 5.13135E-07-3.18945E-18 1.87679E-19
 -1      1622 9.51671E-05-2.78433E-05-2.88637E-05 7.97261E-07-4.69893E-19 1.63296E-18
 -1      1623 9.45555E-05-2.62692E-05-2.92678E-05 6.91268E-07-1.07858E-18 4.12718E-19
 -1      1624 9.47651E-05-2.68886E-05-2.90942E-05 6.76429E-07-1.83301E-18 1.65781E-18
 -1      1625 9.48461E-05-2.70180E-05-2.90774E-05 1.19805E-06-7.45056E-19 1.87664E-18
 -1      1626 9.41842E-05-2.51531E-05-2.95840E-05 6.77727E-07-2.93455E-18-1.50448E-18
 -1      1627 9.43929E-05-2.57792E-05-2.94071E-05 6.92225E-07-1.41103E-18 1.53163E-19
 -1      1628 9.44883E-05-2.60594E-05-2.93258E-05 1.33646E-06-1.76396E-18-4.68299E-19
 -1      1629 9.38778E-05-2.42142E-05-2.98539E-05 5.45912E-07-7.05277E-18-2.80195E-18
 -1      1630 9.40450E-05-2.47237E-05-2.97086E-05 5.80425E-07-3.84506E-18-3.67972E-18
 -1      1631 9.41512E-05-2.51350E-05-2.95696E-05 1.21376E-06-2.43297E-18-3.72036E-18
 -1      1632 9.36702E-05-2.35653E-05-3.00429E-05 3.32038E-07-5.46524E-18 1.03333E-18
 -1      1633 9.37771E-05-2.38956E-05-2.99480E-05 3.79366E-07-6.56451E-18 1.13789E-18
 -1      1634 9.38875E-05-2.43877E-05-2.97717E-05 8.92372E-07-2.43088E-18-1.06960E-18
 -1      1635 9.35915E-05-2.33058E-05-3.01209E-05 8.25971E-08-4.88969E-18 5.44583E-19
 -1      1636 9.36232E-05-2.34093E-05-3.00906E-05 1.32851E-07-5.46349E-18 8.26971E-19
 -1      1637 9.37279E-05-2.39184E-05-2.99022E-05 4.48049E-07-3.59535E-18 1.13229E-18
 -1      1638 9.36423E-05-2.34463E-05-3.00831E-05-1.60475E-07-2.85359E-18 1.76496E-18
 -1      1639 9.36005E-05-2.33243E-05-3.01176E-05-1.14924E-07-4.68928E-18 2.23078E-18
 -1      1640 9.36895E-05-2.37867E-05-2.99425E-05-3.23169E-08-1.50459E-18 1.81905E-18
 -1      1641 9.38055E-05-2.39398E-05-2.99422E-05-3.64309E-07-4.92812E-18-1.62031E-18
 -1      1642 9.37016E-05-2.36251E-05-3.00323E-05-3.28913E-07-2.98344E-18-6.98022E-19
 -1      1643 9.37668E-05-2.39892E-05-2.98914E-05-4.74420E-07-1.53091E-18-1.02699E-19
 -1      1644 9.40515E-05-2.46983E-05-2.97232E-05-5.07464E-07-8.06902E-18-2.02483E-18
 -1      1645 9.39039E-05-2.42453E-05-2.98534E-05-4.85357E-07-5.16956E-18-1.74269E-18
 -1      1646 9.39400E-05-2.44767E-05-2.97606E-05-8.23325E-07-3.76785E-18-2.14027E-18
 -1      1647 9.43397E-05-2.55946E-05-2.94630E-05-5.78513E-07-9.61431E-18 1.19124E-18
 -1      1648 9.41720E-05-2.50777E-05-2.96117E-05-5.70826E-07-8.51760E-18-9.59129E-19
 -1      1649 9.41788E-05-2.51632E-05-2.95732E-05-1.04468E-06-3.58524E-18-3.08933E-18
 -1      1650 9.46435E-05-2.65410E-05-2.91883E-05-5.76403E-07-7.80429E-18 1.04131E-18
 -1      1651 9.44716E-05-2.60116E-05-2.93403E-05-5.82866E-07-1.01292E-17 3.37852E-18
 -1      1652 9.44512E-05-2.59579E-05-2.93540E-05-1.12622E-06-4.60244E-18 2.04915E-18
 -1      1653 9.49207E-05-2.74022E-05-2.89395E-05-5.00622E-07-7.43895E-18 1.87294E-19
 -1      1654 9.47694E-05-2.69385E-05-2.90717E-05-5.20698E-07-6.98109E-18 6.68375E-19
 -1      1655 9.47307E-05-2.67717E-05-2.91296E-05-1.06521E-06-4.50451E-18 1.70467E-18
 -1      1656 9.51378E-05-2.80594E-05-2.87484E-05-3.55114E-07-6.84498E-18 6.40981E-19
 -1      1657 9.50248E-05-2.77326E-05-2.88433E-05-3.89241E-07-7.57538E-18 4.48675E-19
 -1      1658 9.49847E-05-2.75030E-05-2.89286E-05-8.63504E-07-3.92897E-18 5.46446E-19
 -1      1659 9.52682E-05-2.83921E-05-2.86555E-05-2.34667E-07-3.04458E-18 1.41250E-18
 -1      1660 9.52228E-05-2.82405E-05-2.87099E-05-3.05386E-07-4.97128E-18 1.59630E-18
 -1      1661 9.52141E-05-2.80200E-05-2.88027E-05-6.55923E-07-2.37614E-18 2.98906E-18
 -1      1662 9.54183E-05-2.83674E-05-2.87349E-05-4.73783E-07-7.91765E-19 2.54137E-18
 -1      1663 2.09010E-05-6.96931E-05 1.48774E-05-8.52606E-06 4.84503E-19 1.90159E-18
 -1      1664 2.35656E-05-7.69666E-05 1.65150E-05-1.01823E-07-1.52169E-18 1.82070E-18
 -1      1665 1.91034E-05-4.62689E-05 6.47057E-06-3.93493E-06 4.04204E-18 2.89844E-18
 -1      1666 2.44005E-05-6.76158E-05 1.18903E-05-5.23678E-06 1.85416E-18 2.05019E-18
 -1      1667 3.30560E-05-1.89902E-05-9.00050E-06 2.11212E-05 3.18738E-18-6.56451E-20
 -1      1668 2.88704E-05-4.05832E-05-4.43943E-07 4.76047E-06 4.53332E-18 9.24113E-19
 -1      1669 7.67870E-05-9.20981E-06-2.90518E-05 5.40110E-05-3.04932E-20-1.41709E-18
 -1      1670 5.21823E-05-1.72254E-05-1.83201E-05 2.98030E-05 1.38236E-18-2.03288E-20
 -1      1671 1.52451E-04-2.56117E-05-5.09837E-05 7.11466E-05-8.39833E-19-2.58853E-18
 -1      1672 1.05520E-04-1.38904E-05-3.96131E-05 5.57938E-05-3.62530E-19-1.32645E-18
 -1      1673 2.25497E-04-4.96699E-05-6.87032E-05 6.54686E-05-1.61741E-18-1.39845E-18
 -1      1674 1.77107E-04-2.72339E-05-6.07228E-05 7.45989E-05-2.01721E-18-2.31071E-18
 -1      1675 2.68886E-04-6.88635E-05-7.78137E-05 2.18087E-05 3.64859E-19-2.49705E-18
 -1      1676 2.42741E-04-5.50425E-05-7.40312E-05 5.18562E-05-2.42569E-19-2.21076E-18
 -1      1677 2.66988E-04-6.66986E-05-7.82380E-05-3.00605E-05 1.80333E-18-4.61125E-18
 -1      1678 2.75413E-04-7.12628E-05-7.93646E-05 6.95618E-06 1.03973E-18-3.14927E-18
 -1      1679 2.10936E-04-4.11300E-05-6.80882E-05-6.34697E-05 1.26017E-18-4.93990E-18
 -1      1680 2.51706E-04-6.13898E-05-7.43100E-05-4.16586E-05 1.56066E-18-5.00512E-18
 -1      1681 1.39272E-04-1.93876E-05-5.01370E-05-6.40958E-05 1.28495E-18-3.90990E-18
 -1      1682 1.88293E-04-3.77620E-05-6.00307E-05-6.75672E-05 1.40269E-18-5.56162E-18
 -1      1683 7.44158E-05-6.93256E-06-3.06879E-05-4.88146E-05 9.60535E-19-2.16840E-18
 -1      1684 1.09614E-04-1.07397E-05-4.08415E-05-6.89912E-05 1.60428E-18-2.67493E-18
 -1      1685 3.90298E-05-2.12150E-05-1.17478E-05-1.99000E-05-6.73391E-19-1.90582E-19
 -1      1686 5.39472E-05-7.14702E-06-2.12744E-05-4.17113E-05 5.45489E-19-1.83552E-18
 -1      1687 2.73355E-05-5.01193E-05 4.09148E-06-1.08633E-06-3.72694E-20 4.00011E-19
 -1      1688 2.75904E-05-2.74163E-05-3.64568E-06-1.29160E-05-7.26754E-19 7.03884E-19
 -1      1689 2.44963E-05-7.37444E-05 1.43047E-05 5.07797E-06-1.69830E-18-2.36957E-19
 -1      1690 1.89171E-05-5.59152E-05 1.01798E-05 7.85572E-06-6.47980E-19-2.38652E-19
 -1      1691 2.34381E-05-7.76076E-05 1.67225E-05-1.10363E-06-3.56686E-18-9.62865E-19
 -1      1692 2.24199E-05-7.55571E-05 1.63082E-05 8.43819E-06-2.08645E-18-4.01070E-19
 -1      1693 1.96430E-05-6.06291E-05 1.19849E-05-4.25986E-06-4.04966E-18-7.85200E-19
 -1      1694 2.47453E-05-7.66436E-05 1.55262E-05 1.74664E-06-3.99418E-18-3.87518E-19
 -1      1695 2.30538E-05-2.86237E-05-9.10024E-07 1.25223E-05-2.80029E-18-6.05417E-19
 -1      1696 2.55472E-05-5.32433E-05 6.40835E-06 3.81669E-06-4.24872E-18-7.26278E-19
 -1      1697 4.45142E-05-4.98766E-06-1.78923E-05 3.98890E-05-1.46367E-18-6.69156E-20
 -1      1698 3.39205E-05-2.21434E-05-8.74811E-06 1.96647E-05-2.06845E-18-5.85300E-19
 -1      1699 9.51704E-05-3.62936E-06-3.77318E-05 6.93971E-05-4.69256E-19-6.34428E-19
 -1      1700 6.27649E-05-2.53288E-06-2.72734E-05 4.75855E-05-6.30193E-19-4.05729E-19
 -1      1701 1.68047E-04-2.81923E-05-5.62736E-05 7.08057E-05-6.16640E-19-6.18334E-19
 -1      1702 1.23388E-04-1.11835E-05-4.69667E-05 6.61117E-05-7.59789E-19-8.05528E-19
 -1      1703 2.27212E-04-5.11704E-05-6.97418E-05 5.09359E-05-1.03232E-19 4.98902E-19
 -1      1704 1.89250E-04-3.14965E-05-6.39508E-05 6.90221E-05-7.29825E-19-5.51418E-19
 -1      1705 2.55713E-04-6.45271E-05-7.54902E-05 2.86034E-06 3.65706E-19 6.60315E-19
 -1      1706 2.42052E-04-5.69125E-05-7.36851E-05 3.80658E-05 3.82435E-19 6.44169E-19
 -1      1707 2.36858E-04-5.40999E-05-7.25335E-05-4.86708E-05-4.30822E-19 2.87991E-19
 -1      1708 2.56361E-04-6.53937E-05-7.52601E-05-1.56157E-05 2.43522E-19 3.05779E-19
 -1      1709 1.78443E-04-2.63082E-05-6.13757E-05-7.66880E-05 6.59839E-19-3.38813E-19
 -1      1710 2.20306E-04-4.76915E-05-6.79989E-05-6.29850E-05 7.87555E-19 4.69256E-19
 -1      1711 1.09850E-04-3.21798E-06-4.44842E-05-7.21392E-05 9.27501E-19-1.18076E-18
 -1      1712 1.53449E-04-1.84805E-05-5.36975E-05-8.17158E-05 2.99426E-19-1.07743E-18
 -1      1713 5.73433E-05-4.33433E-06-2.44318E-05-4.33784E-05 3.65156E-18-1.22989E-18
 -1      1714 8.63993E-05-1.55441E-06-3.48997E-05-6.67148E-05 1.39083E-18-7.47083E-19
 -1      1715 2.92040E-05-2.70892E-05-5.24524E-06-1.35473E-05 3.23397E-18-1.40735E-18
 -1      1716 3.70814E-05-6.04360E-06-1.47168E-05-3.40428E-05 3.47622E-18-2.26327E-18
 -1      1717 2.48088E-05-5.94543E-05 8.98528E-06-1.34752E-06-2.20229E-19-1.62686E-18
 -1      1718 2.05241E-05-3.49567E-05 2.35394E-06-6.69420E-06 2.17942E-18-1.76670E-18
 -1      1719 2.42579E-05-7.76585E-05 1.63299E-05-4.15984E-06-7.83082E-19-1.79995E-20
 -1      1720 2.03274E-05-6.52267E-05 1.35480E-05 4.00216E-06 9.35971E-20-1.23021E-18
 -1      1721 1.24134E-04-4.28747E-05-3.42922E-05 3.89748E-05-3.99376E-19-2.37254E-18
 -1      1722 7.38976E-05-4.18129E-05-1.54434E-05 3.64091E-05 1.78385E-18-2.52797E-18
 -1      1723 9.53053E-05-2.85359E-05-2.86168E-05 7.73985E-08-3.69646E-18-4.22099E-18
 -1      1724 9.53601E-05-2.83362E-05-2.87253E-05 3.77057E-07-9.81665E-19-2.31336E-18
 -1      1725 1.74341E-05-5.00370E-05 9.50425E-06 9.41354E-06 5.37019E-19 3.27463E-18
 -1      1726 3.74750E-05-4.58486E-05-1.65775E-09 2.33905E-05 2.03288E-18 6.93111E-19
 -1      1727 1.17417E-05-5.05521E-05 1.21644E-05-3.56957E-06 1.31412E-18 1.40226E-18
 -1      1728 1.70534E-04-4.02287E-05-5.30778E-05 3.35288E-05-8.84091E-19-6.86097E-19
 -1      1729 2.08583E-04-3.81099E-05-6.75923E-05 2.50636E-05-1.11766E-18-2.04304E-18
 -1      1730 2.27374E-04-3.93714E-05-7.40810E-05 5.33880E-06 1.35314E-18-2.68520E-18
 -1      1731 2.19696E-04-3.83769E-05-7.17915E-05-1.30044E-05 1.58565E-18-3.07049E-18
 -1      1732 1.88574E-04-3.89051E-05-6.04111E-05-2.42176E-05 5.97635E-19-4.14199E-18
 -1      1733 1.47611E-04-3.94494E-05-4.44049E-05-3.86603E-05 4.65445E-19-3.51434E-18
 -1      1734 9.74694E-05-3.69897E-05-2.64813E-05-4.10915E-05-2.77827E-19-2.12266E-18
 -1      1735 5.87662E-05-4.21220E-05-9.70423E-06-3.19966E-05 3.76930E-19-1.50348E-18
 -1      1736 3.02492E-05-4.75074E-05 3.60524E-06-1.98949E-05-6.66615E-19-2.09429E-19
 -1      1737 1.45560E-05-5.21165E-05 1.13992E-05-4.99750E-06-1.16594E-18-1.25446E-18
 -1      1738 1.26729E-05-5.20515E-05 1.21833E-05 6.93284E-06-1.79338E-18-8.77950E-19
 -1      1739 2.43028E-05-4.62833E-05 5.70001E-06 2.17741E-05-2.83036E-18 6.11981E-20
 -1      1740 4.96450E-05-3.87380E-05-6.93357E-06 3.50281E-05-2.63258E-18-4.36857E-19
 -1      1741 8.52523E-05-3.18124E-05-2.33100E-05 4.46833E-05-1.21973E-18 3.21873E-20
 -1      1742 1.32143E-04-3.19015E-05-4.11608E-05 4.39025E-05-3.38390E-19-1.33238E-18
 -1      1743 1.71090E-04-3.20776E-05-5.67350E-05 3.17793E-05-9.90287E-19-1.34594E-18
 -1      1744 2.01430E-04-3.20935E-05-6.78483E-05 1.98469E-05-7.30566E-19-1.28071E-18
 -1      1745 2.14716E-04-3.52698E-05-7.14477E-05-3.37713E-06 3.71847E-19-8.53174E-19
 -1      1746 2.01694E-04-3.38398E-05-6.69027E-05-2.87512E-05 9.61806E-19-4.25634E-19
 -1      1747 1.66482E-04-2.92805E-05-5.52345E-05-4.50736E-05 8.29669E-19-7.44542E-19
 -1      1748 1.22060E-04-2.84660E-05-3.87181E-05-4.89335E-05 1.63859E-18-9.30042E-19
 -1      1749 7.76915E-05-3.17778E-05-2.04399E-05-4.32369E-05 2.80537E-18-6.89908E-19
 -1      1750 4.21776E-05-3.98059E-05-3.84318E-06-3.11567E-05 2.29292E-18-1.89630E-18
 -1      1751 2.04872E-05-4.78251E-05 7.67530E-06-1.81568E-05 7.21672E-19-2.13304E-18
 -1      1752 1.06016E-04-2.31602E-05-3.55929E-05-1.68577E-05-4.06377E-19 2.25247E-18
 -1      1753 8.91356E-05-1.05796E-05-3.37926E-05-1.33315E-05-6.18288E-19-3.94929E-19
 -1      1754 9.04731E-05-1.16323E-05-3.39313E-05-1.51451E-05-6.75754E-19-1.48998E-19
 -1      1755 9.24716E-05-1.38697E-05-3.38481E-05-1.60113E-05-6.29034E-19 2.02176E-19
 -1      1756 9.41812E-05-1.58139E-05-3.40902E-05-1.76721E-05-6.55749E-19 5.95888E-19
 -1      1757 9.33985E-05-1.63403E-05-3.30406E-05-1.37890E-05-6.65186E-19 3.95988E-20
 -1      1758 8.62223E-05-7.67295E-06-3.37355E-05-7.87340E-06-4.71141E-19-7.23909E-19
 -1      1759 8.66207E-05-7.97297E-06-3.37681E-05-9.26227E-06-5.18308E-19-6.40172E-19
 -1      1760 8.56166E-05-7.04075E-06-3.37348E-05-5.32716E-06-3.07032E-19-8.65377E-19
 -1      1761 8.58469E-05-7.21792E-06-3.37489E-05-6.63255E-06-3.71177E-19-8.17387E-19
 -1      1762 8.76106E-05-9.87149E-06-3.33493E-05-6.94023E-06-4.46681E-19-7.29825E-19
 -1      1763 8.52867E-05-6.68284E-06-3.37398E-05-2.89244E-06-1.42919E-19-8.62412E-19
 -1      1764 8.54054E-05-6.77709E-06-3.37450E-05-4.13334E-06-2.44478E-19-8.91145E-19
 -1      1765 8.69833E-05-9.16083E-06-3.33850E-05-4.54291E-06-2.58570E-19-8.06170E-19
 -1      1766 8.51580E-05-6.53490E-06-3.37440E-05-5.18414E-07-4.40658E-20-9.59503E-19
 -1      1767 8.51929E-05-6.56334E-06-3.37452E-05-1.72927E-06-7.54162E-20-9.24073E-19
 -1      1768 8.66551E-05-8.78191E-06-3.34066E-05-2.21987E-06-8.75811E-20-8.46014E-19
 -1      1769 8.52027E-05-6.57231E-06-3.37454E-05 1.84680E-06 8.59530E-20-1.03951E-18
 -1      1770 8.51617E-05-6.53944E-06-3.37439E-05 6.34967E-07 2.64919E-20-1.00988E-18
 -1      1771 8.65583E-05-8.66845E-06-3.34137E-05 6.51882E-08 2.83130E-20-9.27203E-19
 -1      1772 8.54306E-05-6.80223E-06-3.37450E-05 4.25514E-06 1.82294E-19-1.07461E-18
 -1      1773 8.53045E-05-6.70171E-06-3.37397E-05 3.01119E-06 1.36832E-19-1.07457E-18
 -1      1774 8.66726E-05-8.80140E-06-3.34058E-05 2.35134E-06 1.40847E-19-1.04360E-18
 -1      1775 8.58819E-05-7.25492E-06-3.37483E-05 6.71868E-06 2.88398E-19-1.02827E-18
 -1      1776 8.56470E-05-7.07301E-06-3.37346E-05 5.43039E-06 2.42007E-19-1.09114E-18
 -1      1777 8.70170E-05-9.19807E-06-3.33834E-05 4.65670E-06 2.41016E-19-1.05857E-18
 -1      1778 8.66870E-05-8.04348E-06-3.37659E-05 9.38256E-06 5.34269E-19-8.74601E-19
 -1      1779 8.62706E-05-7.72756E-06-3.37338E-05 7.96082E-06 3.84189E-19-9.06008E-19
 -1      1780 8.76628E-05-9.92998E-06-3.33467E-05 7.03409E-06 3.90334E-19-8.91211E-19
 -1      1781 8.80883E-05-9.38885E-06-3.38175E-05 1.22630E-05 6.86838E-19-7.82129E-19
 -1      1782 8.73540E-05-8.83206E-06-3.37474E-05 1.06696E-05 6.04980E-19-8.67759E-19
 -1      1783 8.87748E-05-1.11631E-05-3.32929E-05 9.51055E-06 6.10062E-19-8.17453E-19
 -1      1784 9.06193E-05-1.18377E-05-3.39234E-05 1.53117E-05 8.37173E-19-4.19599E-19
 -1      1785 8.92455E-05-1.07399E-05-3.37857E-05 1.35222E-05 7.43424E-19-6.60712E-19
 -1      1786 9.06602E-05-1.32227E-05-3.32061E-05 1.19840E-05 7.90278E-19-6.51474E-19
 -1      1787 9.58502E-05-1.70278E-05-3.39849E-05 1.76984E-05 8.76004E-19 2.16946E-19
 -1      1788 9.28374E-05-1.43385E-05-3.38207E-05 1.62025E-05 8.65926E-19-1.64695E-19
 -1      1789 9.39539E-05-1.68829E-05-3.30191E-05 1.39033E-05 8.86327E-19-2.53951E-19
 -1      1790 1.01890E-04-2.50841E-05-3.33486E-05 1.44290E-05 7.62065E-19 1.06229E-18
 -1      1791 9.80463E-05-1.96083E-05-3.36158E-05 1.69716E-05 8.53326E-19 5.07743E-19
 -1      1792 9.73015E-05-2.18463E-05-3.24192E-05 1.32568E-05 8.78016E-19 2.53819E-19
 -1      1793 9.87155E-05-2.61244E-05-3.13314E-05 9.44196E-06 8.14475E-19 8.63378E-19
 -1      1794 1.00123E-04-1.95538E-05-3.42080E-05-1.88758E-05-5.31646E-19 1.25975E-18
 -1      1795 9.52716E-05-2.72738E-05-2.91735E-05 4.07392E-06 5.32466E-19 4.83523E-19
 -1      1796 9.77040E-05-2.73796E-05-3.01831E-05 6.40779E-06 6.56768E-19 7.42884E-19
 -1      1797 9.75435E-05-2.56050E-05-3.08228E-05 8.76790E-06 7.64235E-19 3.51823E-19
 -1      1798 9.97840E-05-2.25311E-05-3.28273E-05-1.44749E-05-5.64495E-19 9.42906E-19
 -1      1799 9.69279E-05-2.69700E-05-2.98669E-05-5.71199E-06-5.14255E-19 7.87656E-19
 -1      1800 9.51173E-05-2.70244E-05-2.91558E-05-3.90554E-06-4.89095E-19 6.46849E-19
 -1      1801 9.42970E-05-2.72243E-05-2.86485E-05-2.42960E-06-5.48368E-19 5.63952E-19
 -1      1802 9.35237E-05-2.73037E-05-2.83432E-05-1.57542E-06-5.48434E-19 4.76837E-19
 -1      1803 9.54790E-05-2.65354E-05-2.95674E-05-4.48333E-06-6.67608E-19 3.51542E-19
 -1      1804 9.29991E-05-2.73542E-05-2.80746E-05-7.47175E-07-4.50721E-19 4.32708E-19
 -1      1805 9.26973E-05-2.74171E-05-2.79524E-05-3.07497E-07-2.28563E-19 3.71123E-19
 -1      1806 9.42680E-05-2.72093E-05-2.87594E-05-1.83630E-06-6.20584E-19 2.62061E-19
 -1      1807 9.24225E-05-2.74445E-05-2.78169E-05 1.49715E-07-1.93282E-19 3.35008E-19
 -1      1808 9.23918E-05-2.75200E-05-2.77874E-05 3.75910E-07-1.91686E-19 2.16608E-19
 -1      1809 9.35684E-05-2.75157E-05-2.83245E-05-3.65722E-07-3.09883E-19-6.63928E-20
 -1      1810 9.22909E-05-2.75513E-05-2.77304E-05 6.19415E-07-2.25197E-19 1.94871E-19
 -1      1811 9.24084E-05-2.76359E-05-2.77506E-05 7.26988E-07-7.68145E-20 2.12068E-20
 -1      1812 9.32505E-05-2.76994E-05-2.81056E-05 4.43634E-07-2.34478E-19-8.22515E-20
 -1      1813 9.24187E-05-2.76741E-05-2.77409E-05 8.44507E-07-1.84658E-21 1.23033E-19
 -1      1814 9.26125E-05-2.77610E-05-2.77878E-05 8.84116E-07-5.19713E-20 2.09756E-19
 -1      1815 9.31940E-05-2.78411E-05-2.80168E-05 8.66889E-07-2.07720E-20-2.94232E-20
 -1      1816 9.26899E-05-2.78032E-05-2.78063E-05 9.27747E-07-2.67893E-19 2.35282E-19
 -1      1817 9.29176E-05-2.78872E-05-2.78664E-05 9.29449E-07-1.15707E-19 3.38916E-19
 -1      1818 9.33017E-05-2.79636E-05-2.80075E-05 1.06146E-06-6.44531E-20 3.38198E-19
 -1      1819 9.30329E-05-2.79304E-05-2.79012E-05 9.32163E-07-2.06924E-19 3.44300E-19
 -1      1820 9.32707E-05-2.80085E-05-2.79668E-05 9.15218E-07-2.25903E-19 4.07312E-19
 -1      1821 9.35058E-05-2.80726E-05-2.80462E-05 1.12370E-06-1.56617E-19 2.42598E-19
 -1      1822 9.34061E-05-2.80508E-05-2.80108E-05 8.98933E-07-4.28519E-19 2.83045E-19
 -1      1823 9.36422E-05-2.81223E-05-2.80778E-05 8.76324E-07-5.15907E-19-5.64552E-20
 -1      1824 9.37623E-05-2.81694E-05-2.81134E-05 1.11602E-06-5.65664E-19-6.88296E-20
 -1      1825 9.37879E-05-2.81627E-05-2.81269E-05 8.56118E-07-3.80005E-19 2.69734E-20
 -1      1826 9.40185E-05-2.82282E-05-2.81937E-05 8.36873E-07-1.22605E-19-1.33140E-19
 -1      1827 9.40456E-05-2.82550E-05-2.81973E-05 1.08062E-06-4.55370E-19 3.64282E-20
 -1      1828 9.41707E-05-2.82671E-05-2.82462E-05 8.23338E-07-4.08130E-20-2.29954E-20
 -1      1829 9.43978E-05-2.83286E-05-2.83129E-05 8.13828E-07 1.65819E-21 5.25871E-20
 -1      1830 9.43430E-05-2.83316E-05-2.82917E-05 1.04679E-06-2.59847E-20-1.36101E-20
 -1      1831 9.45569E-05-2.83671E-05-2.83685E-05 8.14407E-07-2.15966E-19-1.62869E-19
 -1      1832 9.47863E-05-2.84272E-05-2.84367E-05 8.19054E-07-1.42422E-19-2.36624E-19
 -1      1833 9.46520E-05-2.84021E-05-2.83939E-05 1.03515E-06-2.70821E-19-1.25558E-19
 -1      1834 9.49555E-05-2.84672E-05-2.84960E-05 8.38749E-07-1.44045E-19-3.84942E-19
 -1      1835 9.51959E-05-2.85294E-05-2.85677E-05 8.60328E-07-3.62725E-19 8.49063E-20
 -1      1836 9.49767E-05-2.84711E-05-2.85038E-05 1.05992E-06-2.42206E-19-1.39333E-21
 -1      1837 9.53806E-05-2.85734E-05-2.86321E-05 9.01900E-07-5.58746E-19-1.71376E-19
 -1      1838 9.56418E-05-2.86418E-05-2.87100E-05 9.41470E-07-2.47513E-19-3.13882E-19
 -1      1839 9.53264E-05-2.85441E-05-2.86228E-05 1.13001E-06-4.37430E-19-9.42164E-20
 -1      1840 9.58486E-05-2.86930E-05-2.87809E-05 1.00517E-06-1.11385E-19-6.30460E-19
 -1      1841 9.61407E-05-2.87721E-05-2.88675E-05 1.06164E-06-5.08762E-20-5.62590E-19
 -1      1842 9.57136E-05-2.86284E-05-2.87530E-05 1.24898E-06-4.04387E-19-1.03706E-19
 -1      1843 9.63763E-05-2.88340E-05-2.89460E-05 1.14446E-06-2.30435E-19-1.03752E-18
 -1      1844 9.67076E-05-2.89284E-05-2.90433E-05 1.21373E-06-2.36002E-19-9.77643E-19
 -1      1845 9.61522E-05-2.87325E-05-2.88968E-05 1.41392E-06-3.15100E-19-2.79369E-19
 -1      1846 9.69780E-05-2.90055E-05-2.91302E-05 1.30816E-06 9.20354E-20-8.34647E-19
 -1      1847 9.73533E-05-2.91194E-05-2.92388E-05 1.38191E-06 1.97136E-19-4.42321E-19
 -1      1848 9.66559E-05-2.88671E-05-2.90554E-05 1.61330E-06 5.48423E-20-4.80750E-19
 -1      1849 9.76625E-05-2.92161E-05-2.93331E-05 1.47425E-06 5.59238E-20-4.42833E-19
 -1      1850 9.80797E-05-2.93529E-05-2.94518E-05 1.53837E-06 2.62558E-19-4.62444E-19
 -1      1851 9.72359E-05-2.90444E-05-2.92281E-05 1.82375E-06 2.08858E-19-4.96363E-19
 -1      1852 9.84278E-05-2.94737E-05-2.95510E-05 1.60679E-06 1.04120E-19-4.10418E-19
 -1      1853 9.88743E-05-2.96341E-05-2.96750E-05 1.63989E-06 2.66776E-19-8.86877E-19
 -1      1854 9.78979E-05-2.92780E-05-2.94115E-05 2.00611E-06-1.10216E-19-6.23360E-19
 -1      1855 9.92554E-05-2.97825E-05-2.97739E-05 1.65287E-06 3.78655E-19-9.70629E-19
 -1      1856 9.97040E-05-2.99631E-05-2.98947E-05 1.62543E-06-2.65575E-19-7.85537E-19
 -1      1857 9.86376E-05-2.95809E-05-2.95979E-05 2.10162E-06 2.06487E-19-9.69231E-19
 -1      1858 1.00103E-04-3.01392E-05-2.99854E-05 1.54170E-06-5.46260E-19-2.83500E-19
 -1      1859 1.00508E-04-3.03292E-05-3.00891E-05 1.41731E-06-4.27157E-19-3.14038E-19
 -1      1860 9.94357E-05-2.99615E-05-2.97754E-05 2.02997E-06 2.63883E-20-1.32486E-18
 -1      1861 1.00897E-04-3.05267E-05-3.01611E-05 1.18919E-06-5.98177E-19 2.03702E-19
 -1      1862 1.01190E-04-3.07039E-05-3.02292E-05 9.29896E-07-2.17635E-19 1.09639E-19
 -1      1863 1.00250E-04-3.04161E-05-2.99272E-05 1.69281E-06-3.33935E-19-4.45921E-19
 -1      1864 1.01524E-04-3.09044E-05-3.02702E-05 5.13071E-07 1.42824E-19 4.89913E-19
 -1      1865 1.01620E-04-3.10319E-05-3.02811E-05 9.12493E-08 1.31156E-19 4.45488E-19
 -1      1866 1.01008E-04-3.09161E-05-3.00338E-05 9.87611E-07 3.01672E-19 1.93944E-19
 -1      1867 1.01835E-04-3.11989E-05-3.02797E-05-5.36099E-07-2.02256E-19-5.86562E-20
 -1      1868 1.01638E-04-3.12229E-05-3.02126E-05-1.11781E-06-2.79107E-19-6.11793E-19
 -1      1869 1.01595E-04-3.13920E-05-3.00764E-05-1.61228E-07 1.32916E-19-1.60712E-19
 -1      1870 1.01652E-04-3.12984E-05-3.01618E-05-1.92602E-06-5.42518E-19-5.13806E-19
 -1      1871 1.01085E-04-3.11546E-05-3.00037E-05-2.60953E-06-6.74513E-19-7.24767E-19
 -1      1872 1.01856E-04-3.17192E-05-3.00421E-05-1.74997E-06-6.50710E-19-7.81992E-19
 -1      1873 1.00813E-04-3.10658E-05-2.99046E-05-3.48524E-06-4.35299E-19-9.32754E-19
 -1      1874 9.98493E-05-3.06989E-05-2.96588E-05-4.13718E-06-4.73412E-20-8.86455E-19
 -1      1875 1.01610E-04-3.17215E-05-2.99306E-05-3.62741E-06-6.36656E-19-7.83398E-20
 -1      1876 9.92389E-05-3.03837E-05-2.95237E-05-4.86671E-06 6.32492E-19-1.54572E-18
 -1      1877 9.79500E-05-2.97848E-05-2.92163E-05-5.28465E-06 6.94043E-19-7.59147E-19
 -1      1878 1.00705E-04-3.12146E-05-2.97584E-05-5.43733E-06 1.73873E-21-2.90618E-19
 -1      1879 9.70403E-05-2.92415E-05-2.90680E-05-5.58536E-06 5.75467E-20-8.74730E-19
 -1      1880 9.56216E-05-2.84909E-05-2.87484E-05-5.55344E-06 2.13904E-19-1.09842E-18
 -1      1881 9.91160E-05-3.01088E-05-2.95578E-05-6.62644E-06 3.41416E-19-5.33307E-19
 -1      1882 9.45930E-05-2.78286E-05-2.86146E-05-5.18070E-06-3.68559E-20-1.13850E-18
 -1      1883 9.33474E-05-2.71100E-05-2.83462E-05-4.57628E-06-2.99615E-19-1.24842E-18
 -1      1884 9.70667E-05-2.85420E-05-2.93678E-05-6.58986E-06 3.26879E-19-1.37243E-18
 -1      1885 9.25059E-05-2.65457E-05-2.82525E-05-3.47812E-06-1.05317E-18-1.35786E-18
 -1      1886 9.17568E-05-2.60924E-05-2.80954E-05-2.37641E-06-1.29100E-18-1.18891E-18
 -1      1887 9.50753E-05-2.69424E-05-2.92220E-05-4.96932E-06-5.57791E-19-5.81338E-19
 -1      1888 9.14108E-05-2.58571E-05-2.80589E-05-7.93189E-07-1.02789E-18-1.41876E-18
 -1      1889 9.13737E-05-2.58380E-05-2.80504E-05 5.16338E-07-1.17096E-19-7.63414E-19
 -1      1890 9.38056E-05-2.58977E-05-2.91412E-05-1.96093E-06-1.30193E-18-3.94344E-19
 -1      1891 9.16615E-05-2.60382E-05-2.80772E-05 2.11691E-06 9.81963E-19-8.74347E-19
 -1      1892 9.23445E-05-2.64603E-05-2.82185E-05 3.24563E-06 1.35917E-18-4.26478E-19
 -1      1893 9.37432E-05-2.58511E-05-2.91335E-05 1.62831E-06 3.94896E-19-7.84318E-19
 -1      1894 9.31463E-05-2.70053E-05-2.83031E-05 4.38567E-06 6.77256E-19-1.18632E-18
 -1      1895 9.43456E-05-2.77080E-05-2.85590E-05 5.02893E-06-5.93568E-20-1.24426E-18
 -1      1896 9.49086E-05-2.68237E-05-2.91987E-05 4.70724E-06 6.30805E-19-1.51194E-18
 -1      1897 9.53567E-05-2.83691E-05-2.86848E-05 5.44701E-06-4.46891E-19-1.13776E-18
 -1      1898 9.67502E-05-2.91186E-05-2.89959E-05 5.51188E-06-8.10170E-19-9.11331E-19
 -1      1899 9.68415E-05-2.84011E-05-2.93293E-05 6.42877E-06 6.84790E-20-7.39935E-19
 -1      1900 9.76574E-05-2.96723E-05-2.91375E-05 5.24210E-06-1.44562E-18-1.22989E-18
 -1      1901 9.89356E-05-3.02786E-05-2.94392E-05 4.84014E-06-1.10506E-18-2.12862E-18
 -1      1902 9.88738E-05-2.99880E-05-2.95051E-05 6.55179E-06-1.49501E-18-4.88154E-19
 -1      1903 9.95476E-05-3.06067E-05-2.95682E-05 4.11867E-06 3.82333E-19-1.38408E-18
 -1      1904 1.00504E-04-3.09814E-05-2.98093E-05 3.46332E-06 6.63690E-19-9.19874E-19
 -1      1905 1.00468E-04-3.11329E-05-2.96923E-05 5.40524E-06-1.32728E-19 1.84690E-19
 -1      1906 1.00772E-04-3.10783E-05-2.99023E-05 2.57434E-06 5.47392E-19-1.32010E-18
 -1      1907 1.01326E-04-3.12245E-05-3.00546E-05 1.87277E-06 1.62951E-19-5.68006E-19
 -1      1908 1.01375E-04-3.16744E-05-2.98514E-05 3.58692E-06 5.25478E-19 5.80586E-19
 -1      1909 1.01297E-04-3.11491E-05-3.00987E-05 1.03799E-06 5.13514E-20-4.47430E-20
 -1      1910 1.01468E-04-3.11196E-05-3.01575E-05 4.30916E-07-9.45567E-20 2.74128E-21
 -1      1911 1.01606E-04-3.16883E-05-2.99495E-05 1.66243E-06 2.37714E-19 6.81645E-19
 -1      1912 1.01228E-04-3.09456E-05-3.01509E-05-2.27432E-07-6.94350E-19-6.25646E-19
 -1      1913 1.01092E-04-3.08047E-05-3.01286E-05-6.75214E-07-7.41759E-19-9.07685E-19
 -1      1914 1.01307E-04-3.13563E-05-2.99694E-05 7.79621E-09-7.94236E-19 4.36852E-19
 -1      1915 1.00724E-04-3.05915E-05-3.00784E-05-1.12013E-06-5.49281E-19-1.06115E-18
 -1      1916 1.00378E-04-3.03941E-05-2.99961E-05-1.40045E-06 3.05011E-19-3.80547E-19
 -1      1917 1.00661E-04-3.08579E-05-2.99109E-05-1.20773E-06-5.58380E-19-2.56285E-20
 -1      1918 9.99496E-05-3.01791E-05-2.99146E-05-1.64742E-06 1.71727E-18-3.58931E-19
 -1      1919 9.94844E-05-2.99636E-05-2.97953E-05-1.78272E-06 2.12081E-18-1.26658E-20
 -1      1920 9.98286E-05-3.03213E-05-2.97877E-05-1.96539E-06 8.04660E-19 1.35850E-19
 -1      1921 9.90440E-05-2.97660E-05-2.96961E-05-1.86943E-06 1.28951E-18 4.45237E-19
 -1      1922 9.85347E-05-2.95557E-05-2.95609E-05-1.89162E-06 1.54956E-18 1.44752E-18
 -1      1923 9.89302E-05-2.98177E-05-2.96209E-05-2.32663E-06 2.27803E-18 7.34467E-19
 -1      1924 9.81147E-05-2.93819E-05-2.94569E-05-1.85772E-06 1.49970E-18 1.19664E-18
 -1      1925 9.76186E-05-2.91897E-05-2.93231E-05-1.79530E-06 1.54716E-18 1.66194E-18
 -1      1926 9.80473E-05-2.93756E-05-2.94336E-05-2.37805E-06 1.66765E-18 1.10278E-18
 -1      1927 9.72390E-05-2.90394E-05-2.92249E-05-1.67229E-06 1.24584E-18 1.98620E-18
 -1      1928 9.67981E-05-2.88719E-05-2.91059E-05-1.54489E-06 1.73504E-18 2.06398E-18
 -1      1929 9.72316E-05-2.89978E-05-2.92469E-05-2.19879E-06 1.73337E-18 1.70207E-18
 -1      1930 9.64693E-05-2.87422E-05-2.90209E-05-1.35420E-06 2.21321E-18 4.05455E-19
 -1      1931 9.61140E-05-2.86050E-05-2.89259E-05-1.17329E-06 1.45270E-18 1.37453E-18
 -1      1932 9.65136E-05-2.86759E-05-2.90773E-05-1.84782E-06 1.25211E-18 2.07072E-18
 -1      1933 9.58715E-05-2.85154E-05-2.88617E-05-9.42501E-07 1.41198E-18 2.06284E-18
 -1      1934 9.56175E-05-2.84207E-05-2.87910E-05-7.30065E-07 7.56768E-19 2.63813E-18
 -1      1935 9.55222E-05-2.82815E-05-2.88210E-05-8.64597E-07 2.58404E-19 2.99033E-18
 -1      1936 9.59383E-05-2.84248E-05-2.89390E-05-1.38113E-06 1.69047E-18 1.49467E-18
 -1      1937 9.31691E-05-2.73498E-05-2.81804E-05 1.61217E-06 5.91778E-19 1.70611E-19
 -1      1938 9.43658E-05-2.74558E-05-2.86175E-05 2.68305E-06 5.18305E-19 3.88616E-19
 -1      1939 9.51952E-05-2.70366E-05-2.92163E-05 4.06200E-06 5.96960E-19 1.31178E-19
 -1      1940 9.21147E-05-2.73351E-05-2.77381E-05 3.54623E-07 4.04988E-19-7.49624E-20
 -1      1941 9.26108E-05-2.73682E-05-2.79109E-05 9.02859E-07 4.22335E-19 1.08275E-19
 -1      1942 9.35893E-05-2.73569E-05-2.83922E-05 1.59269E-06 5.33240E-19 1.76103E-19
 -1      1943 9.17384E-05-2.73718E-05-2.75699E-05-3.00900E-07 7.02706E-20 3.76202E-20
 -1      1944 9.18545E-05-2.73457E-05-2.76170E-05-7.69799E-09 1.65896E-19 3.67930E-21
 -1      1945 9.27576E-05-2.74712E-05-2.79900E-05 2.77965E-07 2.19140E-19 2.21519E-20
 -1      1946 9.17640E-05-2.74620E-05-2.75478E-05-6.30920E-07-1.56699E-19-1.79351E-19
 -1      1947 9.16758E-05-2.74003E-05-2.75311E-05-4.76494E-07-6.41851E-20-5.27261E-20
 -1      1948 9.24454E-05-2.75635E-05-2.78167E-05-4.19782E-07-3.22270E-21-3.16999E-19
 -1      1949 9.20152E-05-2.75845E-05-2.76059E-05-7.76304E-07 2.14702E-19-3.27133E-19
 -1      1950 9.18215E-05-2.75055E-05-2.75561E-05-7.01968E-07 5.46617E-20-2.68467E-19
 -1      1951 9.24543E-05-2.76685E-05-2.77737E-05-7.72375E-07 9.49388E-20-5.03033E-19
 -1      1952 9.23828E-05-2.77209E-05-2.77068E-05-8.16185E-07 2.50541E-19-3.36782E-19
 -1      1953 9.21406E-05-2.76364E-05-2.76410E-05-7.88620E-07 3.04511E-19-2.66023E-19
 -1      1954 9.26505E-05-2.77846E-05-2.78059E-05-9.26094E-07 3.60874E-19-4.83246E-19
 -1      1955 9.28016E-05-2.78591E-05-2.78282E-05-7.99237E-07 1.90670E-19-6.49953E-19
 -1      1956 9.25433E-05-2.77756E-05-2.77561E-05-7.97632E-07 2.70875E-19-4.61050E-19
 -1      1957 9.29482E-05-2.79039E-05-2.78806E-05-9.66535E-07 3.41638E-19-3.84227E-19
 -1      1958 9.32351E-05-2.79922E-05-2.79578E-05-7.57685E-07-2.54832E-19-3.70445E-19
 -1      1959 9.29779E-05-2.79132E-05-2.78846E-05-7.68024E-07-3.43720E-20-5.45274E-19
 -1      1960 9.32949E-05-2.80202E-05-2.79781E-05-9.47890E-07 5.65757E-20-2.85447E-19
 -1      1961 9.36672E-05-2.81180E-05-2.80894E-05-7.14167E-07-1.48546E-19-1.56966E-19
 -1      1962 9.34176E-05-2.80442E-05-2.80173E-05-7.26401E-07-1.41527E-19-2.36915E-19
 -1      1963 9.36618E-05-2.81301E-05-2.80874E-05-9.06787E-07-2.54578E-19-3.18961E-19
 -1      1964 9.40962E-05-2.82374E-05-2.82222E-05-6.85678E-07 2.89603E-19-1.07455E-19
 -1      1965 9.38531E-05-2.81679E-05-2.81509E-05-6.92080E-07 1.30739E-19-2.45788E-19
 -1      1966 9.40364E-05-2.82331E-05-2.82034E-05-8.69531E-07 9.04828E-20-6.98224E-19
 -1      1967 9.45317E-05-2.83541E-05-2.83586E-05-6.86175E-07 5.90663E-19-5.65752E-19
 -1      1968 9.42884E-05-2.82863E-05-2.82864E-05-6.80219E-07 4.72760E-19-1.12767E-19
 -1      1969 9.44192E-05-2.83311E-05-2.83253E-05-8.56446E-07 4.99337E-19-6.30248E-19
 -1      1970 9.49929E-05-2.84736E-05-2.85044E-05-7.28517E-07 4.13869E-19-7.48418E-19
 -1      1971 9.47374E-05-2.84039E-05-2.84277E-05-7.04019E-07 3.74948E-19-5.79851E-19
 -1      1972 9.48202E-05-2.84274E-05-2.84560E-05-8.84839E-07 5.52657E-19-4.81400E-19
 -1      1973 9.55076E-05-2.86039E-05-2.86681E-05-8.26116E-07 2.04585E-19-1.19866E-19
 -1      1974 9.52231E-05-2.85272E-05-2.85820E-05-7.76469E-07 2.46311E-19-3.00119E-19
 -1      1975 9.52575E-05-2.85273E-05-2.86010E-05-9.71286E-07 1.22967E-19-2.92786E-19
 -1      1976 9.61127E-05-2.87546E-05-2.88613E-05-9.94440E-07 2.63683E-19-3.17764E-19
 -1      1977 9.57772E-05-2.86648E-05-2.87593E-05-9.11880E-07 3.24617E-19 4.12794E-20
 -1      1978 9.57573E-05-2.86373E-05-2.87686E-05-1.13358E-06 2.10419E-19-5.29205E-20
 -1      1979 9.68548E-05-2.89382E-05-2.90985E-05-1.25245E-06 6.91610E-19-1.08520E-18
 -1      1980 9.64404E-05-2.88272E-05-2.89724E-05-1.12732E-06 3.97713E-19-7.74619E-19
 -1      1981 9.63531E-05-2.87653E-05-2.89699E-05-1.39251E-06 8.86542E-19-3.65280E-19
 -1      1982 9.77922E-05-2.91698E-05-2.93981E-05-1.62384E-06 1.55789E-19-1.20544E-18
 -1      1983 9.72638E-05-2.90276E-05-2.92375E-05-1.44389E-06 8.22717E-19-1.02352E-18
 -1      1984 9.70869E-05-2.89211E-05-2.92187E-05-1.77339E-06 7.97586E-19-1.22702E-18
 -1      1985 9.89961E-05-2.94683E-05-2.97825E-05-2.13768E-06-3.65361E-19-1.60435E-18
 -1      1986 9.83101E-05-2.92824E-05-2.95746E-05-1.88759E-06-4.23832E-19-1.77835E-18
 -1      1987 9.80091E-05-2.91164E-05-2.95317E-05-2.30713E-06 8.44535E-20-1.42530E-18
 -1      1988 1.00552E-04-2.98580E-05-3.02780E-05-2.82720E-06-8.27927E-19-1.41905E-18
 -1      1989 9.96555E-05-2.96122E-05-3.00075E-05-2.48897E-06-2.84461E-19-1.16353E-18
 -1      1990 9.91802E-05-2.93664E-05-2.99283E-05-3.02985E-06-5.94496E-19-9.34837E-19
 -1      1991 1.02558E-04-3.03703E-05-3.09140E-05-3.72445E-06-1.03868E-18-1.14559E-18
 -1      1992 1.01390E-04-3.00441E-05-3.05634E-05-3.27976E-06-1.20633E-18-1.39238E-18
 -1      1993 1.00670E-04-2.96920E-05-3.04295E-05-3.97913E-06-1.11718E-18-1.10704E-18
 -1      1994 1.05121E-04-3.10477E-05-3.17191E-05-4.84538E-06 8.85149E-20-7.10500E-19
 -1      1995 1.03615E-04-3.06150E-05-3.12709E-05-4.28275E-06-6.10532E-19-8.69599E-19
 -1      1996 1.02557E-04-3.01255E-05-3.10556E-05-5.18281E-06-6.61685E-19-9.89258E-19
 -1      1997 1.08337E-04-3.19502E-05-3.27123E-05-6.15633E-06-1.97134E-19-6.35457E-19
 -1      1998 1.06437E-04-3.13782E-05-3.21541E-05-5.48803E-06 1.03044E-19-3.71268E-19
 -1      1999 1.04926E-04-3.07205E-05-3.18202E-05-6.63279E-06 1.22515E-19-7.95026E-19
 -1      2000 1.12264E-04-3.31646E-05-3.38853E-05-7.50728E-06-9.49329E-19-7.65248E-19
 -1      2001 1.09952E-04-3.24142E-05-3.32205E-05-6.80406E-06-9.07867E-19-7.79307E-19
 -1      2002 1.07862E-04-3.15721E-05-3.27201E-05-8.23178E-06-5.56246E-19-3.40183E-19
 -1      2003 1.16863E-04-3.48113E-05-3.51742E-05-8.51810E-06-3.67352E-19 1.27981E-19
 -1      2004 1.14210E-04-3.38445E-05-3.44411E-05-7.97022E-06-7.39695E-19-4.10282E-19
 -1      2005 1.11449E-04-3.28460E-05-3.37195E-05-9.69807E-06-9.98056E-19-2.43092E-19
 -1      2006 1.21909E-04-3.70219E-05-3.64259E-05-8.42947E-06-2.56313E-19 8.23475E-19
 -1      2007 1.19156E-04-3.58314E-05-3.57209E-05-8.42928E-06-2.93477E-19 4.42244E-19
 -1      2008 1.15751E-04-3.47984E-05-3.47343E-05-1.04253E-05-5.50118E-19 8.77473E-20
 -1      2009 1.26856E-04-3.97967E-05-3.73919E-05-6.03703E-06-1.89901E-19 2.82437E-18
 -1      2010 1.24508E-04-3.84994E-05-3.68799E-05-7.21820E-06-1.33977E-19 2.03812E-18
 -1      2011 1.20762E-04-3.77079E-05-3.56352E-05-9.35048E-06-6.55041E-19 1.58592E-18
 -1      2012 1.30655E-04-4.26017E-05-3.78230E-05-8.07781E-08-7.62277E-19 1.87558E-18
 -1      2013 1.29518E-04-4.16312E-05-3.76886E-05-3.11095E-06-5.20952E-19 2.15434E-18
 -1      2014 1.26195E-04-4.15144E-05-3.63143E-05-5.05407E-06-4.43395E-19 2.49957E-18
 -1      2015 1.31593E-04-4.37019E-05-3.77165E-05 9.28868E-06-1.58296E-19 1.73345E-18
 -1      2016 1.32633E-04-4.40199E-05-3.80144E-05 4.51661E-06-8.20219E-19 1.85855E-18
 -1      2017 1.31006E-04-4.50224E-05-3.68508E-05 3.39880E-06-5.65937E-19 1.77908E-18
 -1      2018 1.27649E-04-4.01654E-05-3.75167E-05 1.78438E-05 1.59983E-19 2.53631E-18
 -1      2019 1.31409E-04-4.29280E-05-3.80346E-05 1.36734E-05 6.96685E-20 2.14892E-18
 -1      2020 1.32794E-04-4.50849E-05-3.76685E-05 1.44406E-05-1.32253E-19 2.57776E-18
 -1      2021 1.19926E-04-3.26165E-05-3.76450E-05 1.72699E-05 2.73486E-19 2.03101E-18
 -1      2022 1.24805E-04-3.66173E-05-3.80487E-05 1.75473E-05 2.09720E-19 1.86803E-18
 -1      2023 1.29188E-04-3.81175E-05-3.92450E-05 2.11397E-05 1.65754E-19 2.77323E-18
 -1      2024 1.14125E-04-2.65476E-05-3.80270E-05 3.68594E-06-7.16802E-19 9.60747E-19
 -1      2025 1.16958E-04-2.85712E-05-3.81469E-05 1.03100E-05 8.19504E-20 1.31596E-18
 -1      2026 1.23265E-04-2.89893E-05-4.07257E-05 1.37246E-05 5.78947E-19 1.30879E-18
 -1      2027 1.17217E-04-2.96577E-05-3.80442E-05-1.31281E-05 4.33999E-19 1.96708E-18
 -1      2028 1.15263E-04-2.73570E-05-3.79165E-05-5.54138E-06-4.66292E-19 1.16184E-18
 -1      2029 1.21201E-04-2.60153E-05-4.12266E-05-4.70810E-06-4.75821E-19 8.67291E-19
 -1      2030 1.26197E-04-3.83241E-05-3.78267E-05-1.91381E-05 3.57368E-19 1.94701E-18
 -1      2031 1.21107E-04-3.40700E-05-3.74593E-05-1.66071E-05 7.29084E-19 1.99095E-18
 -1      2032 1.26392E-04-3.32693E-05-4.00731E-05-1.91032E-05 3.97682E-19 1.94315E-18
 -1      2033 1.32292E-04-4.33820E-05-3.78710E-05-1.33463E-05 1.04988E-18 2.58954E-18
 -1      2034 1.27823E-04-4.10850E-05-3.73526E-05-1.55576E-05 7.17549E-19 2.57331E-18
 -1      2035 1.31451E-04-4.20080E-05-3.85526E-05-1.93765E-05 9.36977E-19 2.19879E-18
 -1      2036 1.32649E-04-4.35571E-05-3.79249E-05-3.34118E-06-8.31998E-19 1.20173E-18
 -1      2037 1.30880E-04-4.35331E-05-3.76124E-05-7.22139E-06 1.42513E-19 1.86069E-18
 -1      2038 1.32331E-04-4.58753E-05-3.73556E-05-9.40629E-06 1.86089E-19 2.24747E-18
 -1      2039 1.28905E-04-4.09400E-05-3.75707E-05 4.25757E-06-1.08203E-18 9.05558E-19
 -1      2040 1.29709E-04-4.20467E-05-3.76860E-05 1.21358E-06-1.72620E-18 6.12742E-19
 -1      2041 1.28583E-04-4.38029E-05-3.66120E-05 1.14379E-06-1.24951E-18 9.76344E-19
 -1      2042 1.23547E-04-3.78890E-05-3.66914E-05 7.99148E-06 6.41548E-19 2.03246E-18
 -1      2043 1.25872E-04-3.92358E-05-3.71893E-05 6.42451E-06 1.21496E-19 1.81032E-18
 -1      2044 1.23174E-04-3.97743E-05-3.59284E-05 7.77753E-06-6.39655E-19 1.09232E-18
 -1      2045 1.18041E-04-3.53621E-05-3.54661E-05 8.84743E-06-2.50960E-18 3.00474E-18
 -1      2046 1.20933E-04-3.65699E-05-3.61724E-05 8.42055E-06-5.07211E-19 1.86922E-18
 -1      2047 1.17802E-04-3.61896E-05-3.50721E-05 1.04554E-05-5.23814E-19 1.72056E-18
 -1      2048 1.13035E-04-3.34730E-05-3.41402E-05 8.17428E-06-2.96730E-19 3.57552E-18
 -1      2049 1.15895E-04-3.44578E-05-3.48902E-05 8.37641E-06-1.85240E-18 2.98942E-18
 -1      2050 1.13059E-04-3.36653E-05-3.40635E-05 1.05615E-05-2.38998E-18 1.40805E-18
 -1      2051 1.08746E-04-3.20863E-05-3.28899E-05 6.91771E-06-1.09008E-18 4.56087E-18
 -1      2052 1.11285E-04-3.28640E-05-3.35820E-05 7.37452E-06-5.84648E-19 4.33110E-18
 -1      2053 1.09036E-04-3.20169E-05-3.30192E-05 9.41007E-06-1.34065E-18 2.26512E-18
 -1      2054 1.05200E-04-3.10546E-05-3.18020E-05 5.58312E-06-9.31091E-19 5.90082E-18
 -1      2055 1.07321E-04-3.16624E-05-3.23927E-05 6.08818E-06-2.03576E-19 6.17339E-18
 -1      2056 1.05688E-04-3.09316E-05-3.20410E-05 7.84292E-06-1.13376E-18 3.47230E-18
 -1      2057 1.02338E-04-3.02712E-05-3.09017E-05 4.38399E-06 1.34883E-18 2.83433E-18
 -1      2058 1.04046E-04-3.07449E-05-3.13827E-05 4.84708E-06-5.35239E-19 3.84305E-18
 -1      2059 1.02941E-04-3.01813E-05-3.11852E-05 6.29088E-06 5.00189E-19 2.84208E-18
 -1      2060 1.00071E-04-2.96659E-05-3.01824E-05 3.37382E-06 2.89909E-18 1.94224E-18
 -1      2061 1.01411E-04-3.00345E-05-3.05616E-05 3.77033E-06 2.76915E-18 2.87189E-18
 -1      2062 1.00719E-04-2.96292E-05-3.04716E-05 4.92317E-06 2.55034E-18 1.24893E-18
 -1      2063 9.83127E-05-2.91917E-05-2.96266E-05 2.53068E-06 1.98641E-18 2.83149E-19
 -1      2064 9.93375E-05-2.94784E-05-2.99159E-05 2.86798E-06 2.84057E-18 1.03843E-18
 -1      2065 9.89492E-05-2.91997E-05-2.98992E-05 3.76593E-06 3.35779E-18-2.56365E-19
 -1      2066 9.69932E-05-2.88265E-05-2.92149E-05 1.79682E-06 1.61426E-18-8.49359E-19
 -1      2067 9.77414E-05-2.90386E-05-2.94259E-05 2.09547E-06 1.55946E-18 5.24551E-19
 -1      2068 9.75643E-05-2.88380E-05-2.94576E-05 2.77342E-06 2.08762E-18-7.93593E-19
 -1      2069 9.60507E-05-2.85372E-05-2.89311E-05 1.10180E-06 2.37950E-18-1.44269E-18
 -1      2070 9.65503E-05-2.86869E-05-2.90720E-05 1.40035E-06 2.03097E-18-1.43094E-18
 -1      2071 9.65016E-05-2.85312E-05-2.91285E-05 1.89183E-06 2.10928E-18-9.94676E-19
 -1      2072 9.55346E-05-2.83743E-05-2.87753E-05 5.95264E-07 3.72144E-19-2.07967E-18
 -1      2073 9.58368E-05-2.84531E-05-2.88707E-05 8.88795E-07 2.83159E-18-9.91540E-19
 -1      2074 9.58376E-05-2.83219E-05-2.89376E-05 1.22905E-06 1.83558E-18 1.00483E-18
 -1      2075 9.54660E-05-2.82091E-05-2.88252E-05 7.62015E-07 3.92635E-19 2.88800E-18
 -1      2076 9.43648E-05-2.58415E-05-2.93742E-05 1.81587E-06-9.27663E-19-2.33743E-19
 -1      2077 9.46001E-05-2.63216E-05-2.92573E-05 1.82308E-06-1.75218E-18 1.65119E-18
 -1      2078 9.48384E-05-2.67714E-05-2.91752E-05 1.75268E-06-1.46277E-18 1.34419E-18
 -1      2079 9.50666E-05-2.72293E-05-2.90656E-05 1.59391E-06 2.94097E-19 8.73697E-19
 -1      2080 9.47644E-05-2.65454E-05-2.92343E-05 2.28289E-06-6.16026E-19 5.02164E-19
 -1      2081 9.52115E-05-2.75617E-05-2.89933E-05 1.35665E-06 9.86549E-19 7.54459E-19
 -1      2082 9.53808E-05-2.79321E-05-2.88996E-05 1.07969E-06 4.71980E-19 1.77927E-18
 -1      2083 9.55411E-05-2.79733E-05-2.89525E-05 1.32600E-06 1.30133E-18 1.79455E-18
 -1      2084 9.52186E-05-2.73410E-05-2.90938E-05 1.92289E-06 8.50792E-19 6.26597E-19
 -1      2085 9.39695E-05-2.50300E-05-2.95550E-05 1.56423E-06-1.84238E-18-5.24837E-18
 -1      2086 9.41640E-05-2.54491E-05-2.94504E-05 1.70399E-06-1.39735E-18-2.00181E-18
 -1      2087 9.42286E-05-2.56755E-05-2.93736E-05 2.22175E-06-1.34628E-18-1.62962E-18
 -1      2088 9.36868E-05-2.44192E-05-2.96969E-05 1.07047E-06-8.46408E-19-8.35060E-19
 -1      2089 9.38211E-05-2.47276E-05-2.96182E-05 1.30652E-06-3.30763E-19-2.33142E-18
 -1      2090 9.38005E-05-2.49550E-05-2.94958E-05 1.80024E-06 4.46113E-19-2.88623E-18
 -1      2091 9.35528E-05-2.40998E-05-2.97761E-05 4.44487E-07-1.14474E-18 1.15378E-18
 -1      2092 9.36098E-05-2.42503E-05-2.97363E-05 7.25313E-07-1.10194E-18 1.72787E-18
 -1      2093 9.35268E-05-2.44683E-05-2.95852E-05 1.11734E-06 1.06261E-18-3.42586E-19
 -1      2094 9.35686E-05-2.40954E-05-2.97833E-05-2.02802E-07-1.31690E-18 1.53490E-18
 -1      2095 9.35487E-05-2.40764E-05-2.97866E-05 7.52316E-08-1.33898E-18 1.36107E-18
 -1      2096 9.34303E-05-2.42716E-05-2.96281E-05 3.11513E-07 1.78908E-19 1.77349E-18
 -1      2097 9.37144E-05-2.43833E-05-2.97200E-05-7.77212E-07-1.55676E-18-8.57332E-19
 -1      2098 9.36286E-05-2.42086E-05-2.97639E-05-5.40377E-07-1.33703E-18 1.46562E-18
 -1      2099 9.35009E-05-2.43675E-05-2.96187E-05-4.83702E-07-1.26609E-18 1.02982E-18
 -1      2100 9.39566E-05-2.49046E-05-2.95977E-05-1.21198E-06-2.43637E-18-2.05980E-18
 -1      2101 9.38229E-05-2.46070E-05-2.96743E-05-1.04219E-06-2.26243E-18-2.34576E-18
 -1      2102 9.37064E-05-2.47181E-05-2.95591E-05-1.15988E-06-1.53237E-18-2.25929E-18
 -1      2103 9.42522E-05-2.55677E-05-2.94371E-05-1.46711E-06-3.19349E-18-2.53478E-18
 -1      2104 9.40927E-05-2.51980E-05-2.95334E-05-1.37814E-06-2.29625E-18-3.00093E-18
 -1      2105 9.40024E-05-2.52542E-05-2.94590E-05-1.64206E-06-1.41981E-18-2.37986E-18
 -1      2106 9.45763E-05-2.63112E-05-2.92543E-05-1.53795E-06-2.37627E-18 4.11253E-18
 -1      2107 9.44045E-05-2.59045E-05-2.93606E-05-1.53121E-06-2.79991E-18 1.14548E-18
 -1      2108 9.43466E-05-2.59039E-05-2.93311E-05-1.89955E-06-1.89101E-18-1.22737E-18
 -1      2109 9.48926E-05-2.70421E-05-2.90740E-05-1.42209E-06-1.36803E-18 1.62128E-18
 -1      2110 9.47276E-05-2.66515E-05-2.91757E-05-1.49695E-06-2.41436E-18 3.77631E-18
 -1      2111 9.47073E-05-2.66003E-05-2.91899E-05-1.92434E-06-7.31191E-19 4.07927E-18
 -1      2112 9.51825E-05-2.77064E-05-2.89158E-05-1.13458E-06-1.78954E-18 1.42808E-19
 -1      2113 9.50338E-05-2.73612E-05-2.90011E-05-1.28566E-06-1.92512E-18 4.68561E-19
 -1      2114 9.50553E-05-2.72739E-05-2.90516E-05-1.72751E-06-3.76536E-19 9.23950E-19
 -1      2115 5.43230E-05-4.17939E-05-6.12113E-06 3.62113E-05 6.55604E-19-2.25247E-18
 -1      2116 3.92217E-05-4.30914E-05-3.06403E-09 2.77409E-05 4.20552E-19 6.68097E-19
 -1      2117 1.14985E-05-3.36662E-05 8.22156E-06 4.18625E-07 1.36468E-18 1.48527E-18
 -1      2118 1.24775E-05-3.43514E-05 8.01513E-06-1.00431E-05 2.47185E-18-1.08590E-18
 -1      2119 2.59718E-05-3.80242E-05 3.89490E-06 2.20934E-05 9.58418E-19 3.03873E-18
 -1      2120 1.76473E-05-3.64314E-05 6.66829E-06 1.37888E-05 9.74088E-21 2.66519E-18
 -1      2121 4.00026E-05-3.64001E-05-2.14554E-06 3.21603E-05-2.76980E-19 6.36334E-19
 -1      2122 9.69470E-05-4.87395E-05-2.10036E-05 4.02335E-05-7.07273E-20-4.01049E-18
 -1      2123 7.48813E-05-4.85634E-05-1.26924E-05 3.53183E-05 8.48727E-19-3.76972E-18
 -1      2124 1.42240E-04-5.30254E-05-3.81776E-05 2.85947E-05-5.85300E-19-1.03804E-18
 -1      2125 1.18988E-04-5.30413E-05-2.89999E-05 3.07599E-05-8.84302E-19-2.21669E-18
 -1      2126 8.72735E-05-8.72567E-06-3.37517E-05-1.05308E-05-5.69881E-19-6.09480E-19
 -1      2127 8.79637E-05-9.25364E-06-3.38201E-05-1.21180E-05-6.26057E-19-5.01668E-19
 -1      2128 9.04662E-05-1.30763E-05-3.32334E-05-1.19290E-05-6.33736E-19-4.00647E-19
 -1      2129 8.86768E-05-1.10353E-05-3.32986E-05-9.41726E-06-5.78672E-19-5.76062E-19
 -1      2130 1.87876E-04-3.33493E-05-6.48994E-05 3.45516E-06-3.56177E-19-3.25854E-18
 -1      2131 1.78066E-04-3.60064E-05-6.02726E-05 8.68492E-06-9.11831E-19-1.72159E-18
 -1      2132 1.98967E-04-3.00897E-05-7.03956E-05-9.39859E-07 1.43318E-18-2.47273E-18
 -1      2133 1.93397E-04-2.88153E-05-6.90207E-05 4.72304E-06 6.17487E-19-2.62707E-18
 -1      2134 1.86150E-04-3.03183E-05-6.57978E-05-5.39586E-06 9.94840E-19-2.35687E-18
 -1      2135 1.97479E-04-3.09011E-05-6.92810E-05-1.89553E-06 1.38617E-18-2.23828E-18
 -1      2136 1.66835E-04-4.08350E-05-5.38228E-05-8.45699E-06 4.13564E-19-2.29546E-18
 -1      2137 1.82596E-04-3.79016E-05-6.07377E-05-6.92133E-06 5.74500E-19-2.14511E-18
 -1      2138 1.37752E-04-5.04216E-05-3.78605E-05-2.62105E-05 1.67289E-19-3.19882E-18
 -1      2139 1.58072E-04-5.06439E-05-4.59364E-05-1.99229E-05-1.84336E-19-4.07931E-18
 -1      2140 1.03022E-04-5.06238E-05-2.35300E-05-3.39692E-05-2.57074E-19-2.23617E-18
 -1      2141 1.24619E-04-5.02327E-05-3.17822E-05-3.60549E-05 5.28125E-19-2.04008E-18
 -1      2142 1.41765E-04-6.08198E-05-3.42571E-05-2.01301E-05-5.08220E-21-2.83671E-18
 -1      2143 6.33855E-05-4.67303E-05-8.50946E-06-3.44041E-05 2.25311E-19-1.38069E-18
 -1      2144 8.10362E-05-4.54668E-05-1.58166E-05-3.97164E-05 2.72321E-19-2.62665E-18
 -1      2145 2.97256E-05-4.14519E-05 3.24283E-06-2.26736E-05-3.95141E-19-8.69479E-19
 -1      2146 4.25220E-05-3.95855E-05-2.16311E-06-3.23097E-05 4.10811E-19-9.91876E-19
 -1      2147 1.32269E-05-3.66808E-05 8.45568E-06-6.27937E-06-7.04731E-19-1.10792E-18
 -1      2148 1.86667E-05-3.75549E-05 6.61725E-06-1.48506E-05-5.67089E-19-1.40184E-18
 -1      2149 1.47102E-05-3.48677E-05 7.31638E-06 1.50649E-05-1.00204E-18-7.07273E-19
 -1      2150 1.17756E-05-3.46096E-05 8.40167E-06 5.83718E-06-7.33636E-19-4.68833E-19
 -1      2151 3.25180E-05-3.49665E-05 2.37484E-07 3.34392E-05-2.31494E-18-7.40307E-19
 -1      2152 2.26953E-05-3.84389E-05 5.13508E-06 2.33769E-05-1.64324E-18-8.62280E-19
 -1      2153 2.16164E-05-2.77361E-05 2.01538E-06 2.41130E-05-1.04947E-18-1.51238E-18
 -1      2154 6.93029E-05-3.99890E-05-1.28341E-05 4.45838E-05-1.81858E-18-1.90582E-20
 -1      2155 5.31581E-05-4.18551E-05-5.91795E-06 3.85070E-05-2.72067E-18 5.56342E-19
 -1      2156 1.07252E-04-4.14182E-05-2.80522E-05 4.41370E-05-1.33535E-18 5.42101E-19
 -1      2157 8.71657E-05-4.33043E-05-1.96990E-05 4.06017E-05-1.34170E-18 5.65394E-20
 -1      2158 1.42929E-04-4.24203E-05-4.30490E-05 2.84632E-05-3.44319E-19-1.09945E-18
 -1      2159 1.23640E-04-4.22417E-05-3.50896E-05 3.48063E-05-7.73341E-19-6.65344E-19
 -1      2160 1.68611E-04-3.08889E-05-5.77820E-05 1.68725E-05-8.54444E-19-8.71597E-19
 -1      2161 1.53114E-04-3.38154E-05-5.09787E-05 1.82684E-05 3.70577E-21-4.81962E-19
 -1      2162 1.80150E-04-2.42933E-05-6.55214E-05 5.78389E-06-1.35525E-19-1.44377E-18
 -1      2163 1.70664E-04-2.48129E-05-6.20540E-05 1.13687E-05-9.12678E-19-1.39506E-18
 -1      2164 1.84636E-04-2.45182E-05-6.73142E-05-5.94955E-06 5.13302E-19-1.16044E-18
 -1      2165 1.83445E-04-2.35663E-05-6.74971E-05 3.01199E-06 1.93124E-19-1.22597E-18
 -1      2166 1.71404E-04-2.73374E-05-6.10665E-05-1.74321E-05 1.01644E-18-1.04143E-18
 -1      2167 1.82592E-04-2.75385E-05-6.51118E-05-1.02190E-05 4.56127E-19-6.42898E-19
 -1      2168 1.49363E-04-3.47686E-05-4.89742E-05-2.68969E-05 6.90914E-19-7.40307E-19
 -1      2169 1.66223E-04-3.37942E-05-5.56843E-05-2.30395E-05 1.48167E-18-5.55654E-19
 -1      2170 1.17700E-04-3.98137E-05-3.37862E-05-3.71994E-05 2.68128E-18-1.15747E-18
 -1      2171 1.38743E-04-3.80903E-05-4.24101E-05-3.84039E-05 1.69343E-18-1.20363E-18
 -1      2172 7.92866E-05-4.26440E-05-1.67033E-05-4.05485E-05 2.05490E-18-7.30566E-19
 -1      2173 1.00161E-04-4.06065E-05-2.53627E-05-4.51301E-05 2.57922E-18-1.39506E-18
 -1      2174 4.70706E-05-4.12888E-05-3.57559E-06-3.66508E-05 9.13102E-19-1.84801E-18
 -1      2175 6.24427E-05-3.92634E-05-1.02318E-05-4.34282E-05 1.62503E-18-1.23926E-18
 -1      2176 1.97333E-05-3.67789E-05 5.90023E-06-2.10092E-05 2.19699E-18-1.46198E-18
 -1      2177 2.84570E-05-3.48952E-05 1.88251E-06-3.06267E-05 1.09098E-18-1.87830E-18
 -1      2178 1.74999E-04-4.37880E-05-5.51092E-05 1.43041E-05-9.23266E-19-1.01517E-18
 -1      2179 1.55445E-04-4.69850E-05-4.67263E-05 1.39964E-05-1.95982E-19-7.29719E-19
 -1      2180 1.65716E-04-3.92607E-05-5.35035E-05-6.96840E-06 2.66604E-19-1.49205E-18
 -1      2181 1.54059E-04-5.72360E-05-4.11461E-05 9.38616E-06-3.43048E-20-8.02140E-19
 -1      2182 9.71550E-05-2.43042E-05-3.12957E-05-1.00092E-05-5.48745E-19 7.49373E-19
 -1      2183 9.63214E-05-2.30902E-05-3.14479E-05-1.03920E-05-6.19300E-19 3.32818E-19
 -1      2184 1.73434E-05-2.68069E-05 3.41303E-06 9.67808E-06 1.31957E-18 1.73303E-18
 -1      2185 7.65333E-05-4.96457E-05-1.18317E-05 3.97347E-05-4.18434E-19-3.97716E-18
 -1      2186 9.52947E-05-2.79058E-05-2.88772E-05-1.07902E-06-4.48668E-19 2.01761E-18
 -1      2187 1.89361E-05-2.65276E-05 2.68268E-06-1.93998E-05 2.46105E-18-1.63774E-18
 -1      2188 1.20115E-04-5.99209E-05-2.56646E-05 3.17938E-05-2.59192E-19-2.57159E-18
 -1      2189 4.61681E-05-3.65985E-05-4.39545E-06-4.04297E-05 1.35441E-18-1.64684E-18
 -1      2190 8.40229E-05-4.86644E-05-1.54345E-05-4.46765E-05 1.31968E-18-1.31364E-18
 -1      2191 1.20036E-04-5.07294E-05-2.95090E-05-3.56531E-05 3.25748E-18-1.71312E-18
 -1      2192 1.47139E-04-4.32676E-05-4.38580E-05-1.85133E-05 1.22333E-18-4.26058E-19
 -1      2193 1.58462E-04-2.84339E-05-5.47860E-05-4.03119E-06 7.67200E-19-1.06641E-18
 -1      2194 1.63490E-04-1.59511E-05-6.19507E-05-6.52898E-07 2.82062E-19-1.00479E-18
 -1      2195 1.61355E-04-1.37472E-05-6.22025E-05-7.50385E-07 5.12455E-20-1.14371E-18
 -1      2196 1.56845E-04-2.39598E-05-5.63527E-05 8.21556E-07-4.25634E-19-5.41466E-19
 -1      2197 1.48749E-04-4.14035E-05-4.56539E-05 1.64649E-05 1.61466E-19-3.73965E-19
 -1      2198 1.42611E-04-4.84171E-05-4.00325E-05 1.30285E-05 1.68877E-19-2.26793E-19
 -1      2199 1.48092E-04-3.95100E-05-4.70786E-05 2.09436E-06 2.88203E-19 3.01967E-19
 -1      2200 1.25353E-04-5.19938E-05-3.09835E-05 3.24607E-05-1.13714E-18-5.37019E-19
 -1      2201 5.07693E-05-3.85386E-05-5.56809E-06 4.17426E-05-1.78555E-18 3.38390E-19
 -1      2202 1.41720E-05-2.59694E-05 4.30419E-06-7.98848E-07 8.43592E-20-1.01432E-18
 -1      2203 2.85884E-05-3.25036E-05 9.63643E-07-2.50581E-05 2.47969E-19-1.44589E-18
 -1      2204 1.07759E-04-5.75256E-05-2.15920E-05-3.58469E-05-8.55503E-20-2.20186E-18
 -1      2205 1.61956E-04-5.03563E-05-4.73791E-05-1.33138E-06 7.17596E-20-2.33696E-18
 -1      2206 1.69914E-04-2.96331E-05-5.92135E-05 7.04915E-06 3.46436E-19-2.35687E-19
 -1      2207 1.72024E-04-2.43488E-05-6.21685E-05-5.56998E-06 3.38813E-21-2.76683E-18
 -1      2208 1.75011E-04-1.98766E-05-6.49205E-05 1.69106E-06 1.15366E-18-1.83737E-18
 -1      2209 6.27438E-05-4.52554E-05-7.98447E-06-3.80861E-05 2.37169E-19-1.71715E-18
 -1      2210 9.12614E-05-4.97228E-05-1.78601E-05 4.36854E-05-1.69152E-18 4.00647E-19
 -1      2211 9.51854E-05-2.63675E-05-2.94801E-05 4.20497E-06 5.04090E-19 3.42420E-20
 -1      2212 9.61610E-05-2.58534E-05-3.00582E-05 6.01046E-06 5.71363E-19 3.73919E-20
 -1      2213 8.81615E-05-1.11873E-05-3.30283E-05-3.66423E-06-2.04420E-19-7.47116E-19
 -1      2214 8.83930E-05-1.14579E-05-3.30094E-05-4.80678E-06-2.98615E-19-7.56070E-19
 -1      2215 8.87428E-05-1.19429E-05-3.29596E-05-5.82446E-06-3.63596E-19-6.85389E-19
 -1      2216 8.91440E-05-1.24132E-05-3.29299E-05-7.00072E-06-4.75296E-19-5.73243E-19
 -1      2217 8.99114E-05-1.38246E-05-3.26074E-05-4.90519E-06-2.82592E-19-6.46763E-19
 -1      2218 8.78199E-05-1.07288E-05-3.30731E-05 6.15789E-07 8.95448E-20-9.21823E-19
 -1      2219 8.78155E-05-1.07239E-05-3.30733E-05-4.96129E-07 8.24877E-21-8.39522E-19
 -1      2220 8.79987E-05-1.09536E-05-3.30538E-05 2.75982E-06 1.47405E-19-1.02083E-18
 -1      2221 8.78853E-05-1.08208E-05-3.30636E-05 1.63952E-06 8.75542E-20-1.01854E-18
 -1      2222 8.91372E-05-1.27735E-05-3.27304E-05 1.05019E-06 1.06324E-19-9.17810E-19
 -1      2223 8.84284E-05-1.15003E-05-3.30068E-05 4.89083E-06 2.40675E-19-1.02118E-18
 -1      2224 8.81915E-05-1.12238E-05-3.30259E-05 3.76684E-06 1.63794E-19-1.05168E-18
 -1      2225 8.94002E-05-1.31293E-05-3.26893E-05 3.02290E-06 1.25324E-19-9.83663E-19
 -1      2226 8.92009E-05-1.24822E-05-3.29253E-05 7.08062E-06 5.33085E-19-7.60530E-19
 -1      2227 8.87869E-05-1.19964E-05-3.29559E-05 5.90780E-06 3.92504E-19-8.49653E-19
 -1      2228 8.99525E-05-1.38773E-05-3.26028E-05 4.97856E-06 3.26063E-19-8.61770E-19
 -1      2229 9.04599E-05-1.40889E-05-3.27948E-05 9.23184E-06 6.17379E-19-7.64950E-19
 -1      2230 8.97853E-05-1.32793E-05-3.28420E-05 8.05203E-06 5.44629E-19-7.99824E-19
 -1      2231 9.08803E-05-1.51361E-05-3.24550E-05 6.87728E-06 5.37181E-19-7.43844E-19
 -1      2232 9.24438E-05-1.66569E-05-3.25806E-05 1.11175E-05 7.71480E-19-5.49949E-19
 -1      2233 9.13724E-05-1.53190E-05-3.26547E-05 1.00370E-05 6.83768E-19-6.87744E-19
 -1      2234 9.22921E-05-1.70872E-05-3.22099E-05 8.52544E-06 5.69781E-19-6.60110E-19
 -1      2235 9.42051E-05-2.71066E-05-2.87397E-05 1.77336E-06 4.79020E-19 9.03447E-20
 -1      2236 9.48061E-05-2.68839E-05-2.90381E-05 2.74700E-06 5.81313E-19 1.45799E-19
 -1      2237 9.53177E-05-2.58401E-05-2.97841E-05 4.37082E-06 5.40338E-19-5.61424E-20
 -1      2238 9.58893E-05-2.50852E-05-3.02975E-05-6.19403E-06-6.34613E-19 1.53181E-19
 -1      2239 9.52313E-05-2.58429E-05-2.97543E-05-4.29154E-06-6.56219E-19 1.86217E-19
 -1      2240 9.50538E-05-2.00185E-05-3.22064E-05-1.17440E-05-6.24038E-19 2.87462E-20
 -1      2241 9.54532E-05-2.33794E-05-3.09195E-05-7.99073E-06-6.27651E-19 3.28291E-20
 -1      2242 9.50528E-05-2.25272E-05-3.10486E-05-7.67177E-06-6.56808E-19-1.12038E-19
 -1      2243 9.32069E-05-1.75739E-05-3.24115E-05-1.13737E-05-6.52586E-19-1.92740E-19
 -1      2244 1.54788E-04-5.57234E-05-4.31573E-05-3.52064E-06 6.47682E-19-2.04558E-19
 -1      2245 1.45840E-04-6.14754E-05-3.60659E-05 6.89684E-06-1.93494E-19 4.07211E-19
 -1      2246 9.51137E-05-2.65276E-05-2.93380E-05-2.94243E-06-7.32498E-19 2.53527E-19
 -1      2247 9.46496E-05-2.68991E-05-2.90350E-05-1.88423E-06-6.28953E-19 4.63502E-20
 -1      2248 9.53211E-05-2.53370E-05-2.99926E-05-4.30240E-06-6.62975E-19 7.08811E-21
 -1      2249 9.44496E-05-2.72270E-05-2.87723E-05-1.02612E-06-4.13758E-19 2.48965E-20
 -1      2250 9.41973E-05-2.74402E-05-2.86070E-05-4.25072E-07-2.58855E-19-1.35232E-19
 -1      2251 9.50208E-05-2.66775E-05-2.92981E-05-1.93110E-06-6.09456E-19 2.64665E-20
 -1      2252 9.40466E-05-2.76179E-05-2.84475E-05 9.09870E-08-2.11495E-19-1.49432E-19
 -1      2253 9.39544E-05-2.77604E-05-2.83656E-05 4.24416E-07-1.41021E-19-1.22681E-20
 -1      2254 9.47176E-05-2.74050E-05-2.88582E-05-4.42376E-07-2.52096E-19-1.06279E-19
 -1      2255 9.38704E-05-2.78671E-05-2.82748E-05 7.17086E-07 1.73814E-21-1.74201E-19
 -1      2256 9.38840E-05-2.79726E-05-2.82447E-05 8.89696E-07 1.31956E-19-2.10347E-20
 -1      2257 9.45211E-05-2.78308E-05-2.85906E-05 4.45380E-07-1.46950E-19-9.10188E-20
 -1      2258 9.38559E-05-2.80415E-05-2.81998E-05 1.04040E-06-5.87275E-20-2.40750E-19
 -1      2259 9.39344E-05-2.81236E-05-2.82018E-05 1.11681E-06-1.47925E-19-1.72947E-19
 -1      2260 9.44365E-05-2.80950E-05-2.84393E-05 9.41819E-07-5.88994E-20-4.36119E-19
 -1      2261 9.39466E-05-2.81697E-05-2.81874E-05 1.18080E-06-1.36456E-19-1.57596E-19
 -1      2262 9.40620E-05-2.82348E-05-2.82090E-05 1.20241E-06-2.59357E-19-4.00074E-19
 -1      2263 9.44396E-05-2.82641E-05-2.83665E-05 1.19143E-06-1.40010E-19-7.56826E-19
 -1      2264 9.41014E-05-2.82656E-05-2.82149E-05 1.21772E-06-4.79624E-19-1.45705E-19
 -1      2265 9.42364E-05-2.83172E-05-2.82485E-05 1.21226E-06-6.35218E-19-7.67228E-20
 -1      2266 9.45040E-05-2.83719E-05-2.83466E-05 1.29353E-06-2.09767E-19-4.48437E-19
 -1      2267 9.42936E-05-2.83372E-05-2.82678E-05 1.20549E-06-7.30313E-19 6.96272E-20
 -1      2268 9.44387E-05-2.83783E-05-2.83088E-05 1.19214E-06-4.00696E-19 2.70049E-20
 -1      2269 9.46087E-05-2.84376E-05-2.83625E-05 1.31731E-06-4.92875E-19 1.42523E-19
 -1      2270 9.45080E-05-2.83905E-05-2.83375E-05 1.18216E-06-1.37981E-19 4.27987E-21
 -1      2271 9.46595E-05-2.84240E-05-2.83836E-05 1.17443E-06-1.65249E-20-5.33367E-20
 -1      2272 9.47400E-05-2.84733E-05-2.84029E-05 1.31163E-06-3.16476E-19-1.20431E-19
 -1      2273 9.47384E-05-2.84309E-05-2.84192E-05 1.17470E-06-1.08178E-19-8.68654E-20
 -1      2274 9.48966E-05-2.84598E-05-2.84694E-05 1.18210E-06-2.66957E-19 2.27979E-19
 -1      2275 9.48907E-05-2.84881E-05-2.84609E-05 1.31133E-06-1.14454E-19-7.51429E-20
 -1      2276 9.49854E-05-2.84642E-05-2.85107E-05 1.20206E-06-2.93073E-19-1.23069E-20
 -1      2277 9.51536E-05-2.84919E-05-2.85653E-05 1.23099E-06-3.57374E-19-2.20086E-19
 -1      2278 9.50592E-05-2.84896E-05-2.85325E-05 1.34119E-06-3.17454E-19 1.25266E-19
 -1      2279 9.52544E-05-2.84967E-05-2.86119E-05 1.27680E-06-5.39031E-19-2.17122E-19
 -1      2280 9.54381E-05-2.85273E-05-2.86716E-05 1.33081E-06-5.16946E-19-1.24827E-19
 -1      2281 9.52483E-05-2.84856E-05-2.86154E-05 1.41811E-06-6.47799E-19-4.91159E-19
 -1      2282 9.55549E-05-2.85365E-05-2.87232E-05 1.40544E-06-5.37820E-19 1.29011E-19
 -1      2283 9.57607E-05-2.85750E-05-2.87890E-05 1.48498E-06-4.65731E-19 4.28508E-20
 -1      2284 9.54648E-05-2.84848E-05-2.87088E-05 1.55207E-06-3.64316E-19-1.96807E-20
 -1      2285 9.58993E-05-2.85939E-05-2.88458E-05 1.58777E-06-2.07117E-19 8.55271E-21
 -1      2286 9.61340E-05-2.86465E-05-2.89182E-05 1.68932E-06-4.94206E-20 6.25968E-20
 -1      2287 9.57188E-05-2.84987E-05-2.88121E-05 1.74576E-06-3.72559E-19-4.79214E-20
 -1      2288 9.63018E-05-2.86822E-05-2.89798E-05 1.81485E-06-2.22114E-19-1.99140E-19
 -1      2289 9.65717E-05-2.87566E-05-2.90590E-05 1.92956E-06-4.82395E-20-2.67918E-19
 -1      2290 9.60238E-05-2.85424E-05-2.89244E-05 1.99298E-06-3.22065E-19-9.02062E-20
 -1      2291 9.67777E-05-2.88188E-05-2.91244E-05 2.06597E-06-2.12990E-19-5.25830E-19
 -1      2292 9.70872E-05-2.89240E-05-2.92094E-05 2.17774E-06-1.51675E-19-9.21173E-19
 -1      2293 9.63965E-05-2.86365E-05-2.90441E-05 2.27573E-06-3.15867E-19-5.38111E-19
 -1      2294 9.73420E-05-2.90251E-05-2.92768E-05 2.30456E-06 3.31416E-19-1.26389E-18
 -1      2295 9.76916E-05-2.91714E-05-2.93649E-05 2.38797E-06 1.00826E-19-1.19601E-18
 -1      2296 9.68570E-05-2.88078E-05-2.91682E-05 2.56026E-06-9.17321E-20-1.17959E-18
 -1      2297 9.80068E-05-2.93260E-05-2.94315E-05 2.47370E-06 1.41583E-20-1.15457E-18
 -1      2298 9.83913E-05-2.95229E-05-2.95180E-05 2.49233E-06 2.62252E-19-1.40267E-18
 -1      2299 9.74279E-05-2.90895E-05-2.92921E-05 2.79232E-06 1.35249E-19-1.79657E-18
 -1      2300 9.87778E-05-2.97460E-05-2.95803E-05 2.49264E-06 1.46036E-19-1.46778E-18
 -1      2301 9.91825E-05-2.99991E-05-2.96587E-05 2.39907E-06 3.79527E-20-1.32407E-18
 -1      2302 9.81324E-05-2.95177E-05-2.94101E-05 2.89280E-06 1.64436E-19-1.65471E-18
 -1      2303 9.96464E-05-3.03009E-05-2.97132E-05 2.25704E-06 1.15201E-19-9.17389E-19
 -1      2304 1.00044E-04-3.06052E-05-2.97753E-05 1.99668E-06 1.22292E-19-5.98502E-19
 -1      2305 9.89880E-05-3.01235E-05-2.95163E-05 2.75604E-06 1.95061E-19-1.11482E-18
 -1      2306 1.00578E-04-3.09815E-05-2.98197E-05 1.64782E-06 2.20675E-19-1.56484E-19
 -1      2307 1.00923E-04-3.13116E-05-2.98574E-05 1.16971E-06 6.29279E-19-2.40336E-19
 -1      2308 9.99952E-05-3.09149E-05-2.96068E-05 2.25477E-06 3.07043E-19-5.33099E-19
 -1      2309 1.01495E-04-3.17290E-05-2.98925E-05 5.56010E-07 1.62818E-19-2.67171E-19
 -1      2310 1.01720E-04-3.20260E-05-2.98996E-05-1.66061E-07-1.79028E-19-4.46666E-19
 -1      2311 1.01116E-04-3.18480E-05-2.96836E-05 1.25880E-06 2.90431E-20-5.93427E-19
 -1      2312 1.02253E-04-3.24046E-05-2.99313E-05-1.06800E-06-2.33975E-19-1.27438E-19
 -1      2313 1.02274E-04-3.25677E-05-2.99069E-05-2.00281E-06-6.67758E-19-3.64270E-21
 -1      2314 1.02243E-04-3.27877E-05-2.97581E-05-3.22509E-07-3.37349E-20-1.89954E-19
 -1      2315 1.02641E-04-3.27728E-05-2.99467E-05-3.13779E-06-7.50223E-19 3.47806E-19
 -1      2316 1.02368E-04-3.26677E-05-2.98971E-05-4.15930E-06 2.14571E-21 9.80092E-19
 -1      2317 1.03172E-04-3.34762E-05-2.98531E-05-2.46560E-06-3.88024E-19 6.84193E-19
 -1      2318 1.02401E-04-3.25295E-05-2.99592E-05-5.34323E-06-1.33183E-19 8.77698E-19
 -1      2319 1.01778E-04-3.20319E-05-2.98981E-05-6.20801E-06 1.11944E-19 6.50836E-19
 -1      2320 1.03600E-04-3.35452E-05-2.99995E-05-4.93171E-06-2.23128E-19 1.17486E-18
 -1      2321 1.01342E-04-3.14185E-05-2.99929E-05-7.10093E-06 2.67098E-19 8.96648E-19
 -1      2322 1.00406E-04-3.05036E-05-2.99369E-05-7.47683E-06 2.49542E-20 3.28664E-19
 -1      2323 1.03208E-04-3.26225E-05-3.02246E-05-7.17703E-06-1.96745E-20 1.93885E-18
 -1      2324 9.95211E-05-2.94545E-05-3.00590E-05-7.64361E-06-4.45363E-20-2.86245E-19
 -1      2325 9.84529E-05-2.82997E-05-3.00199E-05-7.23271E-06 7.22625E-21-1.34227E-19
 -1      2326 1.01854E-04-3.05828E-05-3.05298E-05-8.36559E-06-1.15878E-19 1.44139E-18
 -1      2327 9.74085E-05-2.71256E-05-3.01415E-05-6.34821E-06-1.25280E-19-3.88992E-19
 -1      2328 9.65210E-05-2.61186E-05-3.01212E-05-5.07944E-06-7.19485E-19-1.79639E-20
 -1      2329 9.98311E-05-2.78241E-05-3.08683E-05-7.65026E-06-3.79108E-19 4.08497E-19
 -1      2330 9.58018E-05-2.53238E-05-3.01991E-05-3.20049E-06-1.19046E-18 2.35022E-19
 -1      2331 9.54181E-05-2.48952E-05-3.01921E-05-1.36400E-06-9.62067E-19 6.59821E-19
 -1      2332 9.79373E-05-2.53339E-05-3.11462E-05-4.71158E-06-5.94276E-19 3.16980E-19
 -1      2333 9.54098E-05-2.48751E-05-3.01931E-05 9.62673E-07-5.12627E-19-7.34998E-20
 -1      2334 9.56844E-05-2.52300E-05-3.01951E-05 2.80114E-06 3.40934E-19-6.87700E-19
 -1      2335 9.71107E-05-2.42382E-05-3.12618E-05-2.17062E-07-1.39295E-18 5.40704E-19
 -1      2336 9.63952E-05-2.59977E-05-3.01174E-05 4.77691E-06 1.05240E-18-1.52704E-18
 -1      2337 9.72203E-05-2.69722E-05-3.01313E-05 6.05052E-06 7.00845E-19-1.73349E-18
 -1      2338 9.78012E-05-2.50912E-05-3.11660E-05 4.33792E-06 1.18272E-19-9.18943E-19
 -1      2339 9.82565E-05-2.81353E-05-3.00072E-05 7.05863E-06 2.82358E-19-1.01664E-18
 -1      2340 9.93181E-05-2.93018E-05-3.00391E-05 7.48366E-06-3.20884E-19-7.64585E-19
 -1      2341 9.96337E-05-2.74927E-05-3.08948E-05 7.40737E-06 4.47721E-19-1.61330E-18
 -1      2342 1.00194E-04-3.03576E-05-2.99113E-05 7.40270E-06-1.05368E-18-1.89151E-19
 -1      2343 1.01157E-04-3.13083E-05-2.99598E-05 7.04885E-06-1.07723E-18 4.33910E-19
 -1      2344 1.01669E-04-3.03149E-05-3.05478E-05 8.25316E-06-4.03266E-19-5.69127E-19
 -1      2345 1.01588E-04-3.19416E-05-2.98571E-05 6.17775E-06-7.14464E-19 1.06548E-18
 -1      2346 1.02242E-04-3.24762E-05-2.99109E-05 5.33260E-06 2.19527E-19 1.18878E-18
 -1      2347 1.03076E-04-3.24956E-05-3.02234E-05 7.14228E-06-3.78650E-20 1.05190E-18
 -1      2348 1.02203E-04-3.26370E-05-2.98404E-05 4.11508E-06 2.69929E-19 1.16336E-18
 -1      2349 1.02492E-04-3.27646E-05-2.98831E-05 3.10167E-06-2.07402E-19 7.76874E-19
 -1      2350 1.03518E-04-3.35498E-05-2.99754E-05 4.90296E-06-2.16809E-19 3.25863E-19
 -1      2351 1.02115E-04-3.25740E-05-2.98360E-05 1.90393E-06 3.75735E-19 1.69677E-19
 -1      2352 1.02089E-04-3.24155E-05-2.98536E-05 9.64860E-07 1.85968E-19 5.95457E-19
 -1      2353 1.03110E-04-3.35611E-05-2.98084E-05 2.38362E-06-6.29245E-19-2.00093E-19
 -1      2354 1.01541E-04-3.20410E-05-2.98157E-05-5.29376E-09-5.78752E-19 7.66615E-19
 -1      2355 1.01292E-04-3.17343E-05-2.98015E-05-7.40287E-07-1.04466E-18 5.30117E-19
 -1      2356 1.02170E-04-3.28966E-05-2.96972E-05 1.59399E-07-5.23151E-19 7.45364E-19
 -1      2357 1.00701E-04-3.13114E-05-2.97615E-05-1.41352E-06-8.96288E-19 1.08173E-18
 -1      2358 1.00319E-04-3.09613E-05-2.97165E-05-1.90714E-06-3.22428E-19 6.37713E-19
 -1      2359 1.01008E-04-3.19404E-05-2.96110E-05-1.50632E-06-5.33699E-19 1.62104E-18
 -1      2360 9.97630E-05-3.05705E-05-2.96689E-05-2.29886E-06 3.89941E-19 1.27809E-18
 -1      2361 9.93206E-05-3.02378E-05-2.96000E-05-2.56969E-06 1.14953E-18 1.41643E-18
 -1      2362 9.98373E-05-3.09642E-05-2.95269E-05-2.57310E-06 6.63737E-19 2.33073E-18
 -1      2363 9.88314E-05-2.99124E-05-2.95447E-05-2.73217E-06 1.75425E-18 1.41406E-18
 -1      2364 9.83793E-05-2.96230E-05-2.94614E-05-2.82229E-06 1.95891E-18 1.09151E-18
 -1      2365 9.87704E-05-3.01090E-05-2.94345E-05-3.11740E-06 1.08948E-18 2.37756E-18
 -1      2366 9.79637E-05-2.93653E-05-2.94020E-05-2.81399E-06 1.49219E-18 4.06153E-19
 -1      2367 9.75346E-05-2.91231E-05-2.93143E-05-2.76761E-06 2.22212E-18 1.31511E-18
 -1      2368 9.78484E-05-2.94184E-05-2.93336E-05-3.25480E-06 1.32740E-18 2.21128E-18
 -1      2369 9.71856E-05-2.89203E-05-2.92558E-05-2.63737E-06 3.25640E-18 1.72701E-18
 -1      2370 9.67989E-05-2.87190E-05-2.91725E-05-2.49021E-06 1.85482E-18 2.30373E-18
 -1      2371 9.70711E-05-2.88789E-05-2.92301E-05-3.09515E-06 2.66559E-18 2.56772E-18
 -1      2372 9.65052E-05-2.85550E-05-2.91189E-05-2.27384E-06 2.99132E-19 3.42351E-18
 -1      2373 9.61752E-05-2.83883E-05-2.90465E-05-2.05055E-06 5.55276E-19 2.97048E-18
 -1      2374 9.64210E-05-2.84548E-05-2.91316E-05-2.72342E-06 1.47457E-18 3.98818E-18
 -1      2375 5.24816E-05-3.55324E-05-7.20935E-06 3.74644E-05-8.46398E-19-1.71143E-18
 -1      2376 3.83346E-05-2.90502E-05-3.74994E-06 2.94315E-05-5.14573E-19 1.27330E-18
 -1      2377 9.33153E-05-2.76778E-05-2.81227E-05-4.14451E-07 1.15260E-19-4.87478E-19
 -1      2378 9.33911E-05-2.75736E-05-2.81830E-05-1.24708E-07 1.35979E-19-2.77232E-19
 -1      2379 9.32727E-05-2.78410E-05-2.80370E-05-8.33827E-07 2.22069E-19-6.99065E-19
 -1      2380 9.32229E-05-2.77507E-05-2.80464E-05-6.88115E-07 1.96285E-19-5.71296E-19
 -1      2381 9.39992E-05-2.77941E-05-2.83850E-05-4.55586E-07 2.77504E-19-5.14317E-19
 -1      2382 9.33817E-05-2.79755E-05-2.80275E-05-1.03035E-06 3.86317E-19-5.46147E-19
 -1      2383 9.32601E-05-2.78951E-05-2.80069E-05-9.69316E-07 2.38075E-19-6.42103E-19
 -1      2384 9.39221E-05-2.80002E-05-2.82607E-05-9.21997E-07 2.33043E-19-6.06916E-19
 -1      2385 9.35810E-05-2.80900E-05-2.80647E-05-1.09636E-06 2.13460E-19-3.69808E-19
 -1      2386 9.34219E-05-2.80189E-05-2.80270E-05-1.08316E-06 3.92448E-19-3.83567E-19
 -1      2387 9.39665E-05-2.81450E-05-2.82151E-05-1.14715E-06 2.72348E-19-4.27949E-19
 -1      2388 9.38307E-05-2.81876E-05-2.81303E-05-1.09348E-06-1.59031E-19-3.12307E-19
 -1      2389 9.36542E-05-2.81256E-05-2.80831E-05-1.10361E-06 1.51233E-19-3.37316E-19
 -1      2390 9.40893E-05-2.82505E-05-2.82206E-05-1.23063E-06 5.52606E-21-2.98851E-19
 -1      2391 9.41074E-05-2.82706E-05-2.82133E-05-1.06474E-06-3.91772E-20-4.83117E-19
 -1      2392 9.39240E-05-2.82169E-05-2.81608E-05-1.08095E-06-7.03782E-20-4.25309E-19
 -1      2393 9.42600E-05-2.83275E-05-2.82595E-05-1.24039E-06 5.67210E-20-3.85845E-19
 -1      2394 9.44011E-05-2.83414E-05-2.83085E-05-1.04171E-06 4.40934E-19-9.34411E-19
 -1      2395 9.42137E-05-2.82945E-05-2.82523E-05-1.05111E-06 1.22640E-19-8.13034E-19
 -1      2396 9.44599E-05-2.83824E-05-2.83210E-05-1.22475E-06 3.25129E-19-5.76629E-19
 -1      2397 9.47115E-05-2.84027E-05-2.84145E-05-1.04919E-06 4.35112E-19-8.53136E-19
 -1      2398 9.45176E-05-2.83608E-05-2.83542E-05-1.04134E-06 4.34825E-19-1.05292E-18
 -1      2399 9.46803E-05-2.84195E-05-2.83992E-05-1.21971E-06 4.75672E-19-8.61727E-19
 -1      2400 9.50463E-05-2.84578E-05-2.85332E-05-1.10853E-06 1.59735E-19-4.55317E-19
 -1      2401 9.48390E-05-2.84186E-05-2.84670E-05-1.07406E-06 4.83792E-19-6.52617E-19
 -1      2402 9.49194E-05-2.84418E-05-2.84921E-05-1.25402E-06 2.40245E-19-6.49803E-19
 -1      2403 9.54197E-05-2.85103E-05-2.86691E-05-1.24022E-06-1.13309E-19-2.16711E-19
 -1      2404 9.51882E-05-2.84709E-05-2.85938E-05-1.16967E-06 5.98676E-20-1.73945E-19
 -1      2405 9.51817E-05-2.84515E-05-2.86006E-05-1.35273E-06-6.11609E-20-2.75511E-19
 -1      2406 9.58518E-05-2.85640E-05-2.88291E-05-1.46607E-06 4.46763E-19-2.80826E-19
 -1      2407 9.55814E-05-2.85213E-05-2.87403E-05-1.34896E-06 8.47463E-20-3.10810E-19
 -1      2408 9.54759E-05-2.84498E-05-2.87278E-05-1.54003E-06 1.60967E-19-1.78373E-19
 -1      2409 9.63679E-05-2.86228E-05-2.90223E-05-1.81116E-06 9.98308E-19-5.43824E-19
 -1      2410 9.60402E-05-2.85731E-05-2.89142E-05-1.63504E-06 8.27763E-19-3.66287E-19
 -1      2411 9.58140E-05-2.84369E-05-2.88788E-05-1.84165E-06 5.71994E-19-4.30711E-19
 -1      2412 9.69986E-05-2.86912E-05-2.92597E-05-2.30530E-06 7.51609E-19-7.44849E-19
 -1      2413 9.65909E-05-2.86300E-05-2.91254E-05-2.05511E-06 1.09082E-18-5.07492E-19
 -1      2414 9.62104E-05-2.84116E-05-2.90601E-05-2.28674E-06 9.46055E-19-3.02759E-19
 -1      2415 9.77791E-05-2.87745E-05-2.95542E-05-2.98376E-06-1.66042E-19-5.18931E-19
 -1      2416 9.72645E-05-2.86960E-05-2.93853E-05-2.64161E-06 3.05516E-19-2.66095E-19
 -1      2417 9.66810E-05-2.83721E-05-2.92791E-05-2.90917E-06 1.17748E-19 4.65419E-19
 -1      2418 9.87494E-05-2.88814E-05-2.99192E-05-3.88607E-06-8.25621E-19-3.32311E-19
 -1      2419 9.80963E-05-2.87772E-05-2.97068E-05-3.43216E-06-5.13747E-19-2.24001E-19
 -1      2420 9.72421E-05-2.83169E-05-2.95434E-05-3.74774E-06-4.36967E-19 8.49105E-19
 -1      2421 9.99540E-05-2.90280E-05-3.03674E-05-5.05057E-06-1.24262E-18-1.79167E-19
 -1      2422 9.91262E-05-2.88841E-05-3.01025E-05-4.46681E-06-9.66531E-19-2.81046E-19
 -1      2423 9.79101E-05-2.82486E-05-2.98589E-05-4.84383E-06-8.95519E-19 4.68196E-19
 -1      2424 1.01443E-04-2.92489E-05-3.09065E-05-6.50051E-06-6.30566E-19-4.39553E-19
 -1      2425 1.00401E-04-2.90403E-05-3.05822E-05-5.77952E-06-1.10049E-18-7.35547E-19
 -1      2426 9.87042E-05-2.81830E-05-3.02271E-05-6.23443E-06-8.04304E-19-1.63245E-19
 -1      2427 1.03280E-04-2.96188E-05-3.15335E-05-8.21415E-06-1.54393E-19 8.34327E-20
 -1      2428 1.01978E-04-2.92977E-05-3.11486E-05-7.37830E-06-2.36633E-19-3.42007E-19
 -1      2429 9.96545E-05-2.81684E-05-3.06408E-05-7.93612E-06-5.40210E-19-6.31567E-19
 -1      2430 1.05554E-04-3.02914E-05-3.22249E-05-1.00677E-05-7.25590E-19 9.30115E-20
 -1      2431 1.03947E-04-2.97689E-05-3.17902E-05-9.20495E-06-5.91881E-20 2.17520E-19
 -1      2432 1.00826E-04-2.83238E-05-3.10783E-05-9.91360E-06-2.12921E-19 1.32910E-19
 -1      2433 1.08424E-04-3.15586E-05-3.29275E-05-1.17386E-05-5.68274E-19-1.45203E-19
 -1      2434 1.06458E-04-3.06797E-05-3.24727E-05-1.10607E-05-8.67525E-19-2.06251E-19
 -1      2435 1.02369E-04-2.89052E-05-3.14980E-05-1.20230E-05-4.33429E-19 2.83484E-19
 -1      2436 1.12165E-04-3.38984E-05-3.35592E-05-1.25701E-05-9.22672E-19-5.33465E-20
 -1      2437 1.09790E-04-3.24355E-05-3.31356E-05-1.24840E-05-5.35346E-19-2.05571E-19
 -1      2438 1.04615E-04-3.03948E-05-3.18416E-05-1.39174E-05-6.67833E-19-4.67272E-19
 -1      2439 1.17179E-04-3.78781E-05-3.40495E-05-1.14368E-05-1.05008E-18 1.03400E-18
 -1      2440 1.14399E-04-3.56311E-05-3.37124E-05-1.25800E-05-1.37178E-18 3.18054E-19
 -1      2441 1.08207E-04-3.35539E-05-3.20642E-05-1.49010E-05-1.31828E-18-3.96770E-19
 -1      2442 1.23755E-04-4.35820E-05-3.44735E-05-6.81840E-06-6.24674E-19 9.21708E-19
 -1      2443 1.20816E-04-4.07613E-05-3.42149E-05-9.89177E-06-5.34379E-19 1.10276E-18
 -1      2444 1.14120E-04-3.91956E-05-3.22332E-05-1.37503E-05-1.16803E-18-4.80135E-19
 -1      2445 1.31178E-04-4.91312E-05-3.53019E-05 2.36966E-06-8.58362E-19 8.99483E-19
 -1      2446 1.28929E-04-4.71356E-05-3.49377E-05-2.71320E-06-6.48510E-19 9.92008E-19
 -1      2447 1.23136E-04-4.70830E-05-3.27598E-05-8.58031E-06-6.59600E-19-9.33298E-19
 -1      2448 1.36747E-04-4.94264E-05-3.75095E-05 1.43020E-05-4.05206E-19 1.47258E-18
 -1      2449 1.36690E-04-5.10365E-05-3.66686E-05 9.05743E-06-6.18076E-19 1.33286E-18
 -1      2450 1.34181E-04-5.38704E-05-3.46929E-05 1.90727E-06-9.50543E-19 5.06996E-20
 -1      2451 1.28055E-04-2.31807E-05-4.54100E-05 1.06781E-05 7.74612E-19 7.38136E-19
 -1      2452 1.31692E-04-2.93805E-05-4.46227E-05 1.83948E-05 1.62652E-18 1.84510E-18
 -1      2453 1.28815E-04-2.35883E-05-4.57596E-05-1.02822E-05-7.50471E-19 9.22406E-19
 -1      2454 1.27552E-04-2.09682E-05-4.61800E-05-4.56617E-07-1.76818E-19 1.31289E-18
 -1      2455 1.34960E-04-3.74971E-05-4.25463E-05-2.16871E-05 1.06387E-18 3.60068E-19
 -1      2456 1.30567E-04-2.96017E-05-4.36342E-05-1.79820E-05 2.87779E-19 7.25695E-19
 -1      2457 1.38264E-04-2.58270E-05-4.87093E-05-1.45736E-05-4.78574E-20 2.96038E-19
 -1      2458 1.42130E-04-5.33482E-05-3.80827E-05-1.24023E-05 4.25211E-19 2.20970E-19
 -1      2459 1.40530E-04-4.81200E-05-3.98298E-05-1.65556E-05 6.12299E-19 5.10337E-20
 -1      2460 1.32808E-04-5.20271E-05-3.43762E-05 1.09086E-06-7.34940E-19 9.93993E-19
 -1      2461 1.34656E-04-5.30907E-05-3.50563E-05-4.38746E-06 4.65021E-19 5.15406E-19
 -1      2462 1.40339E-04-6.04351E-05-3.45765E-05 1.47760E-06-3.95597E-19 6.20769E-19
 -1      2463 1.22028E-04-4.43891E-05-3.30483E-05 1.01306E-05-7.52801E-19-4.98889E-19
 -1      2464 1.25379E-04-4.74702E-05-3.33802E-05 6.08117E-06-9.56168E-19-2.99916E-19
 -1      2465 1.23414E-04-5.33318E-05-3.03034E-05 1.30286E-05-4.21134E-20-9.39545E-19
 -1      2466 1.13659E-04-3.72646E-05-3.26282E-05 1.39801E-05-6.98630E-19-5.24982E-19
 -1      2467 1.16938E-04-4.00358E-05-3.29234E-05 1.19615E-05-9.50503E-19-4.57120E-19
 -1      2468 1.10480E-04-4.23991E-05-2.94265E-05 1.81076E-05-8.61221E-19-2.73155E-18
 -1      2469 1.08178E-04-3.26411E-05-3.23337E-05 1.43777E-05-9.38503E-19 4.23318E-20
 -1      2470 1.10896E-04-3.44830E-05-3.27017E-05 1.38946E-05-2.04519E-19-1.60625E-19
 -1      2471 1.02808E-04-3.38239E-05-2.97141E-05 1.84298E-05-1.20609E-18-1.50563E-18
 -1      2472 1.04695E-04-3.01491E-05-3.19403E-05 1.30983E-05-1.75866E-18-3.60220E-19
 -1      2473 1.06858E-04-3.12328E-05-3.23625E-05 1.34844E-05-1.41503E-18-4.43567E-19
 -1      2474 9.91202E-05-2.90561E-05-3.00955E-05 1.68091E-05-7.23738E-19-1.90398E-18
 -1      2475 1.02358E-04-2.89628E-05-3.14566E-05 1.11913E-05-1.04990E-18-8.29193E-19
 -1      2476 1.04087E-04-2.95745E-05-3.18853E-05 1.19438E-05-1.54551E-18-1.16974E-18
 -1      2477 9.75501E-05-2.69493E-05-3.02848E-05 1.45353E-05-7.07579E-19-1.77329E-18
 -1      2478 1.00650E-04-2.84559E-05-3.09417E-05 9.20773E-06-5.23847E-19-2.30732E-18
 -1      2479 1.02045E-04-2.88095E-05-3.13396E-05 1.00361E-05-1.03652E-18-1.81641E-18
 -1      2480 9.69240E-05-2.63117E-05-3.02742E-05 1.21700E-05-3.25558E-19-3.13683E-18
 -1      2481 9.93059E-05-2.82549E-05-3.04488E-05 7.39573E-06 7.12757E-19-2.62286E-18
 -1      2482 1.00435E-04-2.84772E-05-3.07951E-05 8.16354E-06 1.47741E-19-2.42018E-18
 -1      2483 9.66364E-05-2.63533E-05-3.01297E-05 9.97070E-06-1.43584E-19-3.29797E-18
 -1      2484 9.82010E-05-2.81638E-05-3.00111E-05 5.83246E-06 2.57988E-18-1.60617E-18
 -1      2485 9.91119E-05-2.83233E-05-3.02988E-05 6.49667E-06 1.38723E-18-2.42191E-18
 -1      2486 9.64235E-05-2.66300E-05-2.99206E-05 8.03530E-06 1.11895E-18-4.07773E-18
 -1      2487 9.72755E-05-2.80869E-05-2.96453E-05 4.50580E-06 2.46025E-18-7.58848E-19
 -1      2488 9.80044E-05-2.82192E-05-2.98745E-05 5.07216E-06 2.48176E-18-4.68665E-19
 -1      2489 9.61930E-05-2.69199E-05-2.96985E-05 6.37690E-06 8.73719E-19-3.20336E-18
 -1      2490 9.65108E-05-2.79914E-05-2.93581E-05 3.35543E-06 1.21295E-18 2.06168E-19
 -1      2491 9.70750E-05-2.81158E-05-2.95309E-05 3.86270E-06 2.54498E-18 2.30570E-19
 -1      2492 9.59272E-05-2.71283E-05-2.94955E-05 4.96371E-06 1.28928E-18 1.82054E-19
 -1      2493 9.57607E-05-2.80489E-05-2.90115E-05 1.57429E-06 8.96116E-19 1.55502E-18
 -1      2494 9.34446E-05-2.47807E-05-2.94394E-05 1.93303E-06 1.59212E-18-1.34001E-18
 -1      2495 9.36707E-05-2.50895E-05-2.93925E-05 2.24732E-06 8.41326E-19-3.35551E-18
 -1      2496 9.31664E-05-2.43945E-05-2.94835E-05 1.06013E-06 1.68526E-18 1.20659E-18
 -1      2497 9.32797E-05-2.45666E-05-2.94544E-05 1.47580E-06 1.55559E-18-1.99432E-19
 -1      2498 9.31136E-05-2.46093E-05-2.93480E-05 1.92901E-06 2.18039E-18-3.82147E-19
 -1      2499 9.46114E-05-2.63075E-05-2.92852E-05 2.76358E-06-4.85703E-19-8.73675E-19
 -1      2500 9.49758E-05-2.67594E-05-2.92231E-05 2.71099E-06 7.20809E-19-3.14403E-19
 -1      2501 9.39465E-05-2.54458E-05-2.93702E-05 2.54669E-06-1.01442E-18-2.84579E-18
 -1      2502 9.42578E-05-2.58474E-05-2.93129E-05 2.69266E-06-1.02353E-18-5.50302E-19
 -1      2503 9.44082E-05-2.60376E-05-2.92941E-05 3.16671E-06-1.74163E-21-1.72008E-18
 -1      2504 9.36434E-05-2.51946E-05-2.93256E-05 2.74728E-06 1.37361E-18-9.90935E-19
 -1      2505 9.31240E-05-2.43170E-05-2.94954E-05 9.33177E-08 7.17331E-19 1.20445E-18
 -1      2506 9.31242E-05-2.43409E-05-2.94886E-05 5.35889E-07 1.27885E-18 1.10180E-18
 -1      2507 9.28669E-05-2.43369E-05-2.93587E-05 8.74704E-07 1.70083E-18 6.74905E-19
 -1      2508 9.32884E-05-2.45274E-05-2.94723E-05-8.16819E-07-3.43320E-19 8.25420E-19
 -1      2509 9.31920E-05-2.44128E-05-2.94888E-05-4.13935E-07-2.22088E-19 1.65491E-18
 -1      2510 9.28975E-05-2.43825E-05-2.93537E-05-2.28543E-07 1.09858E-18 9.86056E-19
 -1      2511 9.36049E-05-2.49680E-05-2.94162E-05-1.55495E-06-1.91884E-19-2.77382E-18
 -1      2512 9.34390E-05-2.47414E-05-2.94536E-05-1.24025E-06-6.20389E-19-1.49740E-18
 -1      2513 9.31575E-05-2.47023E-05-2.93308E-05-1.21937E-06 6.48063E-19 1.84138E-19
 -1      2514 9.40054E-05-2.55518E-05-2.93351E-05-2.04499E-06-1.52277E-18-4.00849E-18
 -1      2515 9.38023E-05-2.52547E-05-2.93875E-05-1.84820E-06-6.80353E-19-4.30891E-18
 -1      2516 9.35720E-05-2.52174E-05-2.92904E-05-1.97861E-06-3.00502E-20-3.49473E-18
 -1      2517 9.44496E-05-2.62220E-05-2.92362E-05-2.27652E-06-1.36605E-18 1.07128E-18
 -1      2518 9.42275E-05-2.58811E-05-2.92986E-05-2.20146E-06-1.59749E-18-2.41728E-18
 -1      2519 9.40673E-05-2.58478E-05-2.92355E-05-2.45249E-06-9.84124E-19-3.14849E-18
 -1      2520 9.48913E-05-2.69050E-05-2.91316E-05-2.23810E-06-6.87726E-19 3.79324E-18
 -1      2521 9.46750E-05-2.65593E-05-2.91962E-05-2.29005E-06-1.05358E-18 3.88912E-18
 -1      2522 9.45928E-05-2.65270E-05-2.91713E-05-2.63026E-06-5.02310E-19 1.94898E-18
 -1      2523 9.52990E-05-2.75460E-05-2.90306E-05-1.96620E-06-5.72862E-19-2.17824E-19
 -1      2524 9.50965E-05-2.72189E-05-2.90915E-05-2.12633E-06 2.61034E-19 1.16622E-18
 -1      2525 9.50885E-05-2.71894E-05-2.91026E-05-2.51126E-06-2.99980E-19 3.29967E-18
 -1      2526 9.54798E-05-2.79725E-05-2.89289E-05-1.36218E-06 7.78797E-19 1.76517E-18
 -1      2527 2.00735E-05-1.82040E-05-4.27697E-07-1.27461E-05 2.54756E-18-1.12825E-18
 -1      2528 2.71717E-05-2.13916E-05-2.25110E-06-2.71011E-05 2.07735E-18-9.46983E-19
 -1      2529 9.35943E-05-2.74598E-05-2.83316E-05 3.73979E-07 2.28623E-19-1.06127E-19
 -1      2530 9.38763E-05-2.73249E-05-2.84782E-05 9.09916E-07 3.08143E-19 1.17873E-20
 -1      2531 9.42498E-05-2.74771E-05-2.86304E-05 4.03644E-07 3.02686E-19-2.32537E-19
 -1      2532 9.30330E-05-5.29439E-05-1.72933E-05 3.99170E-05 4.72856E-19-3.45685E-18
 -1      2533 7.27014E-05-4.52578E-05-1.15905E-05 3.90827E-05-4.93397E-19-2.51781E-18
 -1      2534 4.12989E-05-2.97173E-05-4.69834E-06-3.68068E-05 1.54562E-18-8.00023E-19
 -1      2535 5.96292E-05-3.72231E-05-9.48403E-06-4.43130E-05 1.06281E-18-8.76467E-19
 -1      2536 1.57543E-04-3.59692E-05-5.25140E-05-1.41338E-05 1.18161E-18-7.96846E-19
 -1      2537 1.55605E-04-4.32253E-05-4.82824E-05-1.30469E-05 1.76246E-18-3.26955E-19
 -1      2538 1.31301E-04-6.36481E-05-2.95505E-05 2.44152E-05 3.37966E-19-6.53804E-19
 -1      2539 1.12885E-04-5.99008E-05-2.25998E-05 3.18453E-05 1.01940E-18-3.05154E-18
 -1      2540 1.75053E-05-1.73249E-05 1.61894E-07 5.12379E-06-1.03762E-19-1.31290E-18
 -1      2541 1.98529E-05-1.96345E-05 1.51898E-07-9.91640E-06 6.92238E-19-2.03669E-18
 -1      2542 1.52978E-04-5.56412E-05-4.17811E-05 3.02444E-06 7.62859E-20-2.77001E-18
 -1      2543 1.57736E-04-4.67800E-05-4.83715E-05 1.03078E-05 9.13737E-19-6.34639E-19
 -1      2544 8.78713E-05-1.08034E-05-3.30649E-05-1.51986E-06-3.33731E-21-8.51996E-19
 -1      2545 8.79753E-05-1.09254E-05-3.30556E-05-2.63953E-06-8.25340E-20-8.01909E-19
 -1      2546 8.93732E-05-1.30958E-05-3.26922E-05-2.93211E-06-9.61101E-20-7.27783E-19
 -1      2547 8.91274E-05-1.27613E-05-3.27315E-05-9.41825E-07 7.23013E-21-8.29024E-19
 -1      2548 1.58012E-04-1.85829E-05-6.00534E-05 4.76153E-06 1.19432E-19 5.39031E-19
 -1      2549 1.59712E-04-1.74823E-05-6.10388E-05-2.49997E-07-2.52416E-19-9.88673E-19
 -1      2550 5.83570E-05-3.97272E-05-7.83930E-06-3.72428E-05 4.66503E-19-1.65426E-18
 -1      2551 7.96734E-05-4.84459E-05-1.35387E-05-4.12757E-05 4.10811E-19-1.69687E-18
 -1      2552 1.60373E-04-2.04488E-05-6.00604E-05-6.30976E-06 8.89385E-21-1.21814E-18
 -1      2553 1.56244E-04-2.55276E-05-5.63854E-05-1.10869E-05 5.50571E-19-6.88426E-19
 -1      2554 1.49900E-04-3.13611E-05-5.11276E-05-1.66813E-05 1.27944E-18-3.59989E-19
 -1      2555 1.47904E-04-1.80174E-05-5.58678E-05-4.84520E-06-3.27802E-19 4.44269E-19
 -1      2556 1.55678E-04-3.13543E-05-5.34284E-05 1.39190E-05 1.83383E-19 6.70850E-19
 -1      2557 1.59108E-04-2.50526E-05-5.76726E-05 1.07979E-05 3.42625E-19 4.71797E-19
 -1      2558 1.35835E-04-6.33474E-05-3.10755E-05-1.86374E-05-2.12394E-19-2.63935E-18
 -1      2559 1.45798E-04-6.25689E-05-3.62693E-05-1.10881E-05-7.94093E-19-4.10387E-18
 -1      2560 1.06084E-04-5.38421E-05-2.24483E-05 4.08771E-05-1.82366E-18 6.82550E-19
 -1      2561 8.86851E-05-4.95439E-05-1.65073E-05 4.33009E-05-1.81138E-18 5.37092E-19
 -1      2562 1.02271E-04-5.68605E-05-1.94224E-05-3.54627E-05 2.58133E-19-2.31494E-18
 -1      2563 1.22117E-04-6.17019E-05-2.61220E-05-3.02697E-05-1.18585E-19-2.45343E-18
 -1      2564 1.30862E-04-6.37070E-05-2.86080E-05-2.12967E-05-5.92923E-20-2.57053E-18
 -1      2565 2.70097E-05-2.44963E-05-9.42072E-07-2.09170E-05 5.19231E-19-1.65595E-18
 -1      2566 3.85628E-05-2.93661E-05-3.88169E-06-3.15064E-05 6.49039E-19-1.55367E-18
 -1      2567 3.08670E-05-2.35567E-05-2.93698E-06 3.13193E-05-4.47869E-19-1.28093E-18
 -1      2568 2.28596E-05-1.95258E-05-1.05814E-06 1.96722E-05-5.85300E-19-1.36499E-18
 -1      2569 6.53316E-05-3.99508E-05-1.09036E-05 4.61255E-05-1.16552E-18 5.76618E-19
 -1      2570 4.58153E-05-3.22267E-05-5.54677E-06 3.92308E-05-9.04631E-19-3.48554E-19
 -1      2571 4.62517E-05-2.64224E-05-7.92366E-06 3.56150E-05 4.73280E-20-5.30243E-19
 -1      2572 1.31630E-04-5.52699E-05-3.30512E-05 2.42756E-05-8.63444E-19-9.96534E-19
 -1      2573 1.19328E-04-5.61655E-05-2.70657E-05 3.22233E-05-1.60513E-18 2.62157E-19
 -1      2574 1.16614E-04-5.72528E-05-2.51287E-05 3.29395E-05-1.66590E-18 1.23243E-19
 -1      2575 1.46300E-04-1.88973E-05-5.50250E-05-4.95350E-06-1.07573E-19-1.21126E-18
 -1      2576 1.45321E-04-2.67111E-05-5.12871E-05-4.26975E-06-1.61148E-19-1.80418E-19
 -1      2577 1.47509E-04-9.82654E-06-5.93585E-05-6.60429E-07-1.31714E-19-5.18351E-19
 -1      2578 1.44695E-04-1.11610E-05-5.77087E-05-2.96386E-06-5.67089E-19-8.99655E-19
 -1      2579 1.46383E-04-1.47908E-05-5.68786E-05 3.61954E-06 7.11508E-19-7.31625E-19
 -1      2580 1.47087E-04-1.09591E-05-5.88039E-05 2.23448E-06 3.28649E-19-5.45913E-19
 -1      2581 1.45453E-04-3.17059E-05-4.90603E-05 3.08964E-06 8.63127E-19-1.40735E-18
 -1      2582 1.47391E-04-2.37114E-05-5.35006E-05 4.40781E-06 1.11046E-18-1.11935E-18
 -1      2583 1.40622E-04-4.96575E-05-3.89525E-05-1.59642E-05 1.65828E-18-4.44692E-20
 -1      2584 1.47008E-04-4.37999E-05-4.47642E-05-7.39558E-06 6.84085E-19-5.14361E-19
 -1      2585 1.15480E-04-5.50094E-05-2.58976E-05-3.44227E-05 2.20292E-18-3.75871E-19
 -1      2586 1.31404E-04-5.41761E-05-3.33232E-05-2.79868E-05 2.26200E-18 9.39571E-19
 -1      2587 8.18231E-05-4.71741E-05-1.46011E-05-4.47767E-05 1.34043E-18-1.70926E-18
 -1      2588 9.92513E-05-5.22649E-05-2.01319E-05-4.34921E-05 1.97105E-18-2.34602E-18
 -1      2589 2.46158E-05-2.20963E-05-9.33830E-07 1.88326E-05 1.08971E-18 2.47037E-18
 -1      2590 1.76270E-05-1.83758E-05 4.86790E-07 2.71336E-06 2.80312E-18-1.01220E-19
 -1      2591 9.63045E-05-2.50863E-05-3.05479E-05 7.60307E-06 7.48592E-19 7.10118E-20
 -1      2592 9.74270E-05-2.37702E-05-3.15886E-05 1.07025E-05 8.33930E-19 1.60420E-19
 -1      2593 9.58660E-05-2.12963E-05-3.20143E-05 1.19048E-05 8.57727E-19-7.36522E-20
 -1      2594 9.58565E-05-2.41545E-05-3.07627E-05 7.69462E-06 6.89736E-19-1.07940E-19
 -1      2595 1.47978E-04-2.15057E-05-5.45000E-05 1.03819E-05-2.57498E-19 9.84252E-19
 -1      2596 9.08225E-05-1.50665E-05-3.24628E-05-6.79796E-06-4.63931E-19-5.47445E-19
 -1      2597 8.97175E-05-1.32062E-05-3.28479E-05-7.97357E-06-5.06484E-19-5.58512E-19
 -1      2598 9.04110E-05-1.40321E-05-3.27994E-05-9.14997E-06-5.83016E-19-5.26689E-19
 -1      2599 9.47129E-05-2.69296E-05-2.90625E-05 1.89084E-06 4.69576E-19-2.18276E-20
 -1      2600 9.42294E-05-1.90769E-05-3.22534E-05 1.16139E-05 8.32991E-19-3.17373E-19
 -1      2601 7.48119E-05-4.27002E-05-1.34182E-05-4.43429E-05 7.61271E-19-1.76141E-18
 -1      2602 8.85738E-05-4.71077E-05-1.77155E-05-4.19462E-05 7.12778E-19-2.01244E-18
 -1      2603 6.85387E-05-3.63294E-05-1.32576E-05-4.25374E-05 1.04609E-18-1.06959E-18
 -1      2604 1.13426E-04-5.65931E-05-2.42347E-05-3.53968E-05 1.34678E-18 2.03658E-19
 -1      2605 1.50610E-04-5.06529E-05-4.31882E-05-1.37943E-05 1.42916E-18 4.89585E-19
 -1      2606 1.36793E-04-5.50516E-05-3.49281E-05-1.67833E-05 1.28865E-18 9.55453E-19
 -1      2607 4.10479E-05-2.34516E-05-7.01246E-06-3.18686E-05 1.11830E-18-6.35275E-21
 -1      2608 7.03456E-05-3.99416E-05-1.25775E-05 3.77051E-05-4.59304E-19-1.91588E-18
 -1      2609 1.41813E-04-4.81038E-05-4.05130E-05 1.85775E-05 4.22140E-19 7.13731E-19
 -1      2610 1.44641E-04-5.43190E-05-3.92287E-05 1.17188E-05 2.47863E-19-3.03979E-19
 -1      2611 1.39016E-04-4.03433E-05-4.25418E-05 1.98690E-05 1.50105E-18 8.11563E-19
 -1      2612 9.56572E-05-2.77567E-05-2.90944E-05 2.07088E-06 6.26591E-19 1.20426E-18
 -1      2613 9.59932E-05-2.81188E-05-2.90846E-05 1.95051E-06 1.23969E-18 8.89791E-19
 -1      2614 9.64526E-05-2.82552E-05-2.92201E-05 2.38750E-06 1.28434E-18 5.34173E-21
 -1      2615 9.54491E-05-2.74199E-05-2.91594E-05 2.34422E-06 4.89029E-19 1.12523E-19
 -1      2616 9.59367E-05-2.75534E-05-2.92964E-05 3.38837E-06 1.05516E-18 1.38303E-19
 -1      2617 9.53729E-05-2.71734E-05-2.92266E-05 2.91214E-06 9.70900E-19 2.29165E-19
 -1      2618 1.42124E-04-3.84816E-05-4.45441E-05 2.81894E-06 4.76244E-19-1.23815E-18
 -1      2619 9.57671E-05-2.81873E-05-2.89557E-05-1.60486E-06 1.45430E-18 3.29079E-18
 -1      2620 9.54927E-05-2.78186E-05-2.90043E-05-1.83551E-06 5.81064E-19 1.99153E-18
 -1      2621 9.55695E-05-2.77896E-05-2.90485E-05-2.23916E-06 3.68293E-19 2.22540E-18
 -1      2622 9.60110E-05-2.82995E-05-2.90148E-05-1.85861E-06 1.26141E-18 2.87815E-18
 -1      2623 1.36625E-04-1.77890E-05-5.11974E-05 8.91910E-06 1.13757E-18-4.99220E-19
 -1      2624 1.35325E-04-7.81538E-06-5.48754E-05 1.62766E-06 8.19504E-20 8.05846E-19
 -1      2625 2.54266E-05-1.48850E-05-3.93428E-06-4.62759E-06 2.60023E-18-4.02764E-19
 -1      2626 9.47033E-05-2.05989E-05-3.17146E-05 9.68048E-06 7.16140E-19-3.45894E-19
 -1      2627 1.08318E-04-5.70139E-05-2.16039E-05 3.29391E-05 1.49819E-18-1.78022E-18
 -1      2628 8.27728E-05-4.53807E-05-1.56278E-05 4.34862E-05-1.19453E-18 3.36272E-19
 -1      2629 2.98152E-05-1.82586E-05-4.40684E-06-1.54916E-05 8.49045E-19-1.67818E-18
 -1      2630 9.73868E-05-5.36357E-05-1.84339E-05-3.65674E-05 6.97108E-19-2.10453E-18
 -1      2631 1.36597E-04-2.82929E-05-4.68741E-05-1.03383E-05 4.69256E-19 5.46336E-20
 -1      2632 1.44590E-04-3.41453E-05-4.76113E-05-4.16507E-06 1.63583E-19 2.48181E-19
 -1      2633 1.40116E-04-3.99982E-05-4.31520E-05-3.50682E-06 7.31307E-19-6.87155E-20
 -1      2634 1.49659E-04-5.98381E-05-3.83048E-05 2.38257E-06-5.36013E-20-2.51315E-18
 -1      2635 2.68185E-05-1.52231E-05-4.36117E-06 1.19410E-05-3.49507E-19-1.90604E-18
 -1      2636 1.39654E-04-6.32691E-05-3.26838E-05 1.10971E-05-1.56701E-20 5.00385E-19
 -1      2637 9.20821E-05-1.62828E-05-3.25207E-05-1.03844E-05-6.27531E-19-3.63046E-19
 -1      2638 5.57569E-05-3.35852E-05-9.04984E-06-3.47357E-05 6.19181E-19-1.41814E-18
 -1      2639 3.72929E-05-2.25298E-05-5.79568E-06 2.39511E-05 8.52327E-19 9.96323E-19
 -1      2640 1.37942E-04-5.40943E-05-3.58935E-05 1.54090E-05-4.80162E-19 2.40134E-19
 -1      2641 1.32641E-04-5.72695E-05-3.21097E-05 1.72441E-05-1.15996E-18 3.84765E-19
 -1      2642 1.39177E-04-5.11186E-05-3.83440E-05 4.94386E-06-9.58206E-20 7.79906E-19
 -1      2643 1.36819E-04-1.38634E-05-5.30267E-05-7.04606E-06-5.60101E-19-2.96462E-21
 -1      2644 1.47089E-04-3.76638E-05-4.70933E-05 1.82125E-05 1.59369E-18-1.00797E-19
 -1      2645 9.59579E-05-2.81631E-05-2.90575E-05-2.28627E-06 8.47225E-19 4.01410E-18
 -1      2646 9.05850E-05-1.51743E-05-3.23413E-05 3.19644E-06 1.70782E-19-9.22664E-19
 -1      2647 9.03971E-05-1.49030E-05-3.23749E-05 2.26224E-06 1.41311E-19-9.23666E-19
 -1      2648 9.02641E-05-1.47000E-05-3.24045E-05 1.42294E-06 1.10574E-19-9.76963E-19
 -1      2649 9.01996E-05-1.46075E-05-3.24159E-05 4.65438E-07 1.25320E-19-8.68053E-19
 -1      2650 9.14487E-05-1.65917E-05-3.20685E-05 1.64131E-06 1.35588E-19-9.93853E-19
 -1      2651 9.21564E-05-1.75533E-05-3.20107E-05 6.47997E-06 5.51269E-19-7.86179E-19
 -1      2652 9.16357E-05-1.67589E-05-3.21125E-05 5.63909E-06 5.33646E-19-7.53212E-19
 -1      2653 9.35622E-05-1.97737E-05-3.16659E-05 7.60531E-06 5.10844E-19-6.57200E-19
 -1      2654 9.27793E-05-1.85214E-05-3.18419E-05 7.02700E-06 5.19854E-19-7.29686E-19
 -1      2655 9.34479E-05-1.98660E-05-3.15121E-05 5.74109E-06 4.84861E-19-7.13566E-19
 -1      2656 9.52051E-05-2.54030E-05-2.99273E-05 3.98574E-06 4.56283E-19-2.41252E-19
 -1      2657 9.55413E-05-2.45539E-05-3.03907E-05 5.61949E-06 4.51571E-19-2.60234E-19
 -1      2658 1.16899E-04-5.83817E-05-2.53202E-05 2.72189E-05 1.37124E-18-1.55494E-18
 -1      2659 1.01061E-04-5.12058E-05-2.08136E-05 3.30229E-05 1.59920E-18-1.88981E-18
 -1      2660 9.49708E-05-2.66818E-05-2.92714E-05 1.78592E-06 4.74750E-19-2.25098E-19
 -1      2661 9.52353E-05-2.61879E-05-2.95554E-05 2.79377E-06 5.19638E-19-1.03509E-19
 -1      2662 9.52655E-05-2.50130E-05-3.01045E-05 3.82533E-06 4.28494E-19-4.31474E-19
 -1      2663 9.43269E-05-2.08706E-05-3.15164E-05-8.25284E-06-6.17447E-19-2.51852E-19
 -1      2664 9.47067E-05-2.26414E-05-3.09102E-05-6.40394E-06-5.50054E-19-2.02191E-19
 -1      2665 9.52818E-05-2.41983E-05-3.04489E-05-5.02435E-06-5.22618E-19-1.69662E-19
 -1      2666 9.51716E-05-2.51439E-05-3.00294E-05-3.54023E-06-5.76785E-19-1.37362E-19
 -1      2667 9.46200E-05-2.24894E-05-3.09078E-05-5.55819E-06-5.17503E-19-3.38865E-19
 -1      2668 9.53643E-05-2.60170E-05-2.97000E-05-2.52213E-06-5.42997E-19-5.90009E-20
 -1      2669 9.51927E-05-2.65602E-05-2.94241E-05-1.54243E-06-4.01733E-19 6.31660E-20
 -1      2670 9.52660E-05-2.49635E-05-3.01213E-05-3.11614E-06-4.43876E-19-2.12225E-19
 -1      2671 9.52284E-05-2.70706E-05-2.91940E-05-8.61411E-07-1.88732E-19 4.79790E-20
 -1      2672 9.50936E-05-2.73955E-05-2.90185E-05-2.49196E-07-9.57720E-20 7.14141E-21
 -1      2673 9.54552E-05-2.64875E-05-2.95602E-05-1.33151E-06-2.75276E-19 7.71408E-20
 -1      2674 9.50733E-05-2.76992E-05-2.88628E-05 1.78580E-07-1.69351E-19 2.24254E-20
 -1      2675 9.49968E-05-2.79025E-05-2.87564E-05 5.41831E-07-1.47151E-19-3.33670E-20
 -1      2676 9.54591E-05-2.74157E-05-2.91673E-05-1.47546E-07-1.46208E-19 1.45813E-19
 -1      2677 9.49644E-05-2.80835E-05-2.86553E-05 7.91725E-07-1.32038E-19-5.30299E-20
 -1      2678 9.49391E-05-2.82134E-05-2.85964E-05 9.92327E-07-9.57043E-20-3.00101E-19
 -1      2679 9.54058E-05-2.79831E-05-2.89017E-05 5.90143E-07-1.10159E-19 2.86301E-19
 -1      2680 9.49107E-05-2.83175E-05-2.85350E-05 1.12429E-06-1.55577E-20-2.99975E-19
 -1      2681 9.49234E-05-2.83997E-05-2.85085E-05 1.22294E-06-3.89143E-20-1.73860E-19
 -1      2682 9.53474E-05-2.83233E-05-2.87303E-05 1.01710E-06-2.72860E-20 2.49202E-19
 -1      2683 9.49033E-05-2.84534E-05-2.84757E-05 1.28239E-06 3.62624E-20-2.24921E-19
 -1      2684 9.49419E-05-2.85027E-05-2.84714E-05 1.32175E-06-1.11532E-19 1.37919E-20
 -1      2685 9.53014E-05-2.85146E-05-2.86277E-05 1.24151E-06-1.41035E-20 3.08082E-19
 -1      2686 9.49303E-05-2.85222E-05-2.84593E-05 1.34233E-06-2.89240E-19-4.45176E-20
 -1      2687 9.49861E-05-2.85481E-05-2.84703E-05 1.35267E-06-3.53964E-19 2.38511E-19
 -1      2688 9.52713E-05-2.86048E-05-2.85754E-05 1.34544E-06-1.29444E-19 7.21649E-20
 -1      2689 9.49820E-05-2.85437E-05-2.84732E-05 1.35911E-06-4.90431E-19 8.97713E-20
 -1      2690 9.50497E-05-2.85529E-05-2.84950E-05 1.36215E-06-4.67210E-19-3.60162E-20
 -1      2691 9.52561E-05-2.86248E-05-2.85597E-05 1.38991E-06-5.37152E-19-6.75839E-20
 -1      2692 9.50522E-05-2.85318E-05-2.85090E-05 1.37255E-06-1.15815E-19-1.19620E-19
 -1      2693 9.51295E-05-2.85295E-05-2.85389E-05 1.38387E-06-8.97318E-20-1.16869E-19
 -1      2694 9.52538E-05-2.85953E-05-2.85709E-05 1.41999E-06-3.54020E-19 1.32868E-19
 -1      2695 9.51386E-05-2.84973E-05-2.85611E-05 1.41138E-06-3.38437E-19-1.29177E-21
 -1      2696 9.52258E-05-2.84883E-05-2.85974E-05 1.44203E-06-7.30988E-19 5.36036E-20
 -1      2697 9.52637E-05-2.85318E-05-2.86021E-05 1.46875E-06-2.47831E-19-3.25626E-19
 -1      2698 9.52426E-05-2.84500E-05-2.86260E-05 1.49585E-06-7.23140E-19-8.61558E-20
 -1      2699 9.53419E-05-2.84392E-05-2.86678E-05 1.55313E-06-4.55365E-19-1.28631E-19
 -1      2700 9.52871E-05-2.84469E-05-2.86484E-05 1.55998E-06-7.90252E-19 8.95693E-20
 -1      2701 9.53690E-05-2.84004E-05-2.87014E-05 1.63897E-06-3.47693E-19-3.27612E-19
 -1      2702 9.54846E-05-2.83940E-05-2.87481E-05 1.72661E-06-4.49309E-19-2.16130E-19
 -1      2703 9.53277E-05-2.83534E-05-2.87060E-05 1.70987E-06-4.95803E-19-2.69869E-20
 -1      2704 9.55267E-05-2.83618E-05-2.87853E-05 1.84657E-06-1.61884E-19-2.34186E-19
 -1      2705 9.56645E-05-2.83675E-05-2.88364E-05 1.96430E-06-1.06085E-19-1.53619E-19
 -1      2706 9.53934E-05-2.82663E-05-2.87717E-05 1.92736E-06-7.23854E-20-3.17304E-19
 -1      2707 9.57295E-05-2.83521E-05-2.88758E-05 2.11608E-06-3.09681E-19-2.36083E-19
 -1      2708 9.58970E-05-2.83808E-05-2.89306E-05 2.25858E-06-4.83350E-19-2.58992E-19
 -1      2709 9.54972E-05-2.82059E-05-2.88425E-05 2.21336E-06-2.07684E-19-5.26740E-19
 -1      2710 9.59970E-05-2.83964E-05-2.89706E-05 2.43410E-06-4.81752E-19-1.78369E-19
 -1      2711 9.62034E-05-2.84624E-05-2.90277E-05 2.58928E-06-4.44782E-19-5.48942E-19
 -1      2712 9.56594E-05-2.82005E-05-2.89149E-05 2.55872E-06-5.24944E-19 3.40431E-20
 -1      2713 9.63559E-05-2.85288E-05-2.90664E-05 2.77259E-06-4.04860E-19-6.75244E-19
 -1      2714 9.66121E-05-2.86505E-05-2.91239E-05 2.91944E-06-4.46430E-19-8.91384E-19
 -1      2715 9.59101E-05-2.82894E-05-2.89850E-05 2.94085E-06-7.73182E-19-8.26034E-19
 -1      2716 9.68413E-05-2.87931E-05-2.91594E-05 3.08403E-06 1.62688E-20-1.14040E-18
 -1      2717 9.71595E-05-2.89924E-05-2.92147E-05 3.19021E-06 2.26494E-19-1.46826E-18
 -1      2718 9.62920E-05-2.85245E-05-2.90491E-05 3.31896E-06-3.30772E-19-1.00673E-18
 -1      2719 9.74963E-05-2.92414E-05-2.92456E-05 3.29596E-06 8.04452E-19-1.31132E-18
 -1      2720 9.78875E-05-2.95404E-05-2.92960E-05 3.31592E-06 5.53223E-19-1.01025E-18
 -1      2721 9.68614E-05-2.89692E-05-2.91039E-05 3.62827E-06 9.28266E-19-6.93542E-19
 -1      2722 9.83675E-05-2.99259E-05-2.93228E-05 3.30634E-06 5.07884E-19-3.35946E-19
 -1      2723 9.88377E-05-3.03399E-05-2.93664E-05 3.18123E-06 6.84716E-19-1.47285E-19
 -1      2724 9.76864E-05-2.96918E-05-2.91495E-05 3.77359E-06 9.10287E-19-2.83629E-19
 -1      2725 9.94933E-05-3.08804E-05-2.93933E-05 2.98264E-06 3.96093E-19 7.98070E-20
 -1      2726 1.00035E-04-3.14038E-05-2.94307E-05 2.64446E-06 3.07953E-19 2.19782E-19
 -1      2727 9.88371E-05-3.07465E-05-2.91920E-05 3.62442E-06 6.06727E-19 7.31073E-19
 -1      2728 1.00878E-04-3.20862E-05-2.94681E-05 2.17066E-06-5.23684E-20-4.77289E-20
 -1      2729 1.01455E-04-3.26701E-05-2.95044E-05 1.55458E-06-1.34634E-19 4.65229E-20
 -1      2730 1.00360E-04-3.21370E-05-2.92492E-05 3.01575E-06 1.83125E-19 6.05722E-19
 -1      2731 1.02447E-04-3.34172E-05-2.95713E-05 7.25558E-07 3.48366E-19-1.49467E-20
 -1      2732 1.02981E-04-3.39433E-05-2.96182E-05-2.03560E-07 2.64244E-19 8.14179E-20
 -1      2733 1.02231E-04-3.37542E-05-2.93553E-05 1.76594E-06 4.14824E-19 8.76654E-19
 -1      2734 1.03993E-04-3.45797E-05-2.97419E-05-1.41743E-06-7.33631E-20 2.50812E-19
 -1      2735 1.04352E-04-3.48455E-05-2.98174E-05-2.61941E-06-3.38951E-19 4.49284E-19
 -1      2736 1.04279E-04-3.52987E-05-2.95638E-05-2.65532E-07 1.23315E-19 8.40196E-20
 -1      2737 1.05139E-04-3.50876E-05-3.00289E-05-4.12158E-06 1.09691E-19 1.05618E-18
 -1      2738 1.05156E-04-3.48339E-05-3.01523E-05-5.42407E-06 3.83532E-19 1.80496E-18
 -1      2739 1.06120E-04-3.62279E-05-2.99415E-05-3.05556E-06 4.24744E-19 1.04786E-18
 -1      2740 1.05392E-04-3.43487E-05-3.04717E-05-6.90126E-06-2.09940E-19 2.09901E-18
 -1      2741 1.04931E-04-3.33658E-05-3.06545E-05-7.95483E-06 2.75016E-19 1.65868E-18
 -1      2742 1.07166E-04-3.58209E-05-3.05474E-05-6.23534E-06 5.12734E-19 1.73661E-18
 -1      2743 1.04355E-04-3.19537E-05-3.10701E-05-8.82011E-06-2.29233E-19 8.46006E-19
 -1      2744 1.03444E-04-3.03020E-05-3.12977E-05-9.12465E-06-1.07996E-18 6.23508E-19
 -1      2745 1.06789E-04-3.34453E-05-3.13924E-05-8.90005E-06-6.50301E-19 5.24227E-19
 -1      2746 1.02194E-04-2.82440E-05-3.17352E-05-8.71072E-06-1.00359E-18 3.77337E-19
 -1      2747 1.01126E-04-2.64256E-05-3.19560E-05-7.85785E-06-9.04493E-19-7.47569E-20
 -1      2748 1.04868E-04-2.92724E-05-3.23765E-05-9.64115E-06-1.18387E-18-3.64499E-19
 -1      2749 9.98426E-05-2.45535E-05-3.22898E-05-5.88610E-06-4.49401E-19 9.09051E-21
 -1      2750 9.91142E-05-2.33892E-05-3.24281E-05-3.88008E-06-3.71505E-19 6.16771E-20
 -1      2751 1.02234E-04-2.46590E-05-3.32624E-05-7.31890E-06-5.06725E-19-8.91406E-19
 -1      2752 9.86637E-05-2.27293E-05-3.25309E-05-9.27321E-07-1.14905E-18 1.76889E-19
 -1      2753 9.86485E-05-2.28162E-05-3.25302E-05 1.59727E-06-1.30093E-18 4.60799E-19
 -1      2754 1.00514E-04-2.18642E-05-3.37514E-05-2.10891E-06-1.21927E-18-9.04551E-19
 -1      2755 9.93699E-05-2.37760E-05-3.23556E-05 4.35958E-06-5.68058E-19 6.61496E-19
 -1      2756 1.00109E-04-2.50945E-05-3.22141E-05 6.45150E-06-1.15453E-19-1.18227E-19
 -1      2757 1.00897E-04-2.24286E-05-3.36453E-05 4.00741E-06-3.63433E-19 1.09703E-18
 -1      2758 1.01459E-04-2.70842E-05-3.18373E-05 7.90542E-06 2.91401E-19-6.60868E-20
 -1      2759 1.02547E-04-2.89310E-05-3.16145E-05 8.89531E-06 2.28235E-19-2.92403E-19
 -1      2760 1.03141E-04-2.61036E-05-3.29863E-05 8.37637E-06-2.39303E-20 1.09929E-18
 -1      2761 1.03669E-04-3.09158E-05-3.11688E-05 8.77338E-06 3.97888E-19-1.92306E-19
 -1      2762 1.04594E-04-3.24904E-05-3.09383E-05 8.58963E-06 2.16705E-20 8.49845E-19
 -1      2763 1.05688E-04-3.08230E-05-3.20301E-05 9.57211E-06 3.06193E-19 1.09339E-18
 -1      2764 1.04960E-04-3.37333E-05-3.05394E-05 7.37603E-06-6.06443E-19 1.41188E-18
 -1      2765 1.05420E-04-3.46067E-05-3.03516E-05 6.39673E-06-2.52230E-19 1.17819E-18
 -1      2766 1.07107E-04-3.45109E-05-3.10665E-05 7.97320E-06-1.24623E-20 1.98187E-18
 -1      2767 1.05024E-04-3.49500E-05-3.00564E-05 4.78744E-06-2.63851E-19 1.95867E-19
 -1      2768 1.04988E-04-3.51144E-05-2.99267E-05 3.49901E-06-5.71807E-19 7.64327E-20
 -1      2769 1.06936E-04-3.62197E-05-3.02894E-05 4.94592E-06-7.71680E-19 6.03298E-19
 -1      2770 1.04117E-04-3.47847E-05-2.97378E-05 2.00982E-06-3.56570E-19 8.43406E-20
 -1      2771 1.03726E-04-3.44625E-05-2.96563E-05 7.82901E-07-7.84796E-19 2.36130E-19
 -1      2772 1.05537E-04-3.61200E-05-2.97582E-05 1.76365E-06-3.74896E-19 8.96482E-20
 -1      2773 1.02697E-04-3.37912E-05-2.95487E-05-3.45507E-07 1.42300E-20 2.27472E-19
 -1      2774 1.02128E-04-3.32393E-05-2.94963E-05-1.31694E-06 4.80560E-19 7.94931E-19
 -1      2775 1.03557E-04-3.49103E-05-2.94418E-05-8.42962E-07 4.14161E-20 4.90868E-19
 -1      2776 1.01159E-04-3.24914E-05-2.94393E-05-2.04389E-06-3.12999E-19 1.89537E-18
 -1      2777 1.00548E-04-3.18994E-05-2.93987E-05-2.70465E-06-1.04106E-19 1.89313E-18
 -1      2778 1.01531E-04-3.32815E-05-2.92747E-05-2.64201E-06 8.42090E-19 1.37272E-18
 -1      2779 9.97415E-05-3.12276E-05-2.93677E-05-3.08692E-06 4.84972E-19 1.68484E-18
 -1      2780 9.91680E-05-3.06990E-05-2.93282E-05-3.46106E-06 1.18774E-18 1.81881E-18
 -1      2781 9.97608E-05-3.16931E-05-2.91940E-05-3.68569E-06 7.27385E-19 2.11129E-18
 -1      2782 9.85459E-05-3.01630E-05-2.93077E-05-3.58358E-06 1.03266E-18 1.57984E-18
 -1      2783 9.80444E-05-2.97349E-05-2.92653E-05-3.72711E-06 1.03896E-18 1.35007E-18
 -1      2784 9.83528E-05-3.03645E-05-2.91548E-05-4.13314E-06 1.01579E-18 1.12181E-18
 -1      2785 9.75852E-05-2.93363E-05-2.92480E-05-3.66910E-06 1.92900E-18 2.60359E-18
 -1      2786 9.71614E-05-2.90058E-05-2.92034E-05-3.64175E-06 2.69388E-18 3.23735E-18
 -1      2787 9.72950E-05-2.93492E-05-2.91316E-05-4.15340E-06 2.50209E-18 2.10388E-18
 -1      2788 9.68269E-05-2.87170E-05-2.91874E-05-3.46433E-06 2.85702E-18 3.34070E-18
 -1      2789 9.64731E-05-2.84624E-05-2.91436E-05-3.31564E-06 1.68570E-18 3.37979E-18
 -1      2790 9.65222E-05-2.86095E-05-2.91134E-05-3.88599E-06 2.77530E-18 3.99062E-18
 -1      2791 9.62221E-05-2.82491E-05-2.91290E-05-3.05855E-06 7.10133E-19 3.22651E-18
 -1      2792 9.59323E-05-2.80512E-05-2.90898E-05-2.81912E-06 1.26777E-18 3.67395E-18
 -1      2793 9.59541E-05-2.80679E-05-2.90975E-05-3.43128E-06 1.53478E-18 3.87887E-18
 -1      2794 9.52333E-05-2.68362E-05-2.93264E-05 3.74615E-06 8.42174E-19-7.36402E-20
 -1      2795 1.29793E-04-2.06169E-05-4.72546E-05 1.10215E-05 9.17548E-19 6.23681E-19
 -1      2796 1.28691E-04-1.33126E-05-5.01115E-05 8.33713E-06 8.65879E-19 6.64074E-19
 -1      2797 1.42323E-04-6.03084E-05-3.49952E-05 8.55382E-07-4.27745E-19-1.66580E-18
 -1      2798 9.45524E-05-2.78335E-05-2.85943E-05-4.61676E-07 3.31785E-19-3.63854E-19
 -1      2799 9.46335E-05-2.76478E-05-2.86907E-05-1.11583E-07 3.45522E-19-4.44514E-19
 -1      2800 9.45615E-05-2.83859E-05-2.83590E-05-1.27373E-06 2.81710E-20 4.30779E-20
 -1      2801 9.44894E-05-2.83279E-05-2.83519E-05-1.24379E-06 1.00787E-19 1.19677E-19
 -1      2802 9.46654E-05-2.84486E-05-2.83762E-05-1.29974E-06 2.92017E-19-4.53106E-19
 -1      2803 9.45739E-05-2.84108E-05-2.83547E-05-1.29686E-06 1.92078E-19-1.57917E-19
 -1      2804 9.49339E-05-2.84977E-05-2.84762E-05-1.33014E-06 2.34981E-19-2.94121E-19
 -1      2805 9.47947E-05-2.84767E-05-2.84191E-05-1.30242E-06 5.21755E-19-6.84141E-19
 -1      2806 9.46906E-05-2.84547E-05-2.83873E-05-1.30450E-06 2.56855E-19-6.17994E-19
 -1      2807 9.49763E-05-2.85406E-05-2.84750E-05-1.37163E-06 4.56333E-19-6.84230E-19
 -1      2808 9.49430E-05-2.84773E-05-2.84818E-05-1.31949E-06 3.19140E-19-3.02033E-19
 -1      2809 9.48291E-05-2.84681E-05-2.84418E-05-1.30955E-06 6.04225E-19-2.28865E-19
 -1      2810 9.50383E-05-2.85376E-05-2.85023E-05-1.39345E-06 4.15475E-19-3.85879E-19
 -1      2811 9.51086E-05-2.84543E-05-2.85618E-05-1.38147E-06 7.46645E-20 9.53432E-20
 -1      2812 9.49842E-05-2.84559E-05-2.85141E-05-1.34546E-06 2.07589E-19-2.22208E-19
 -1      2813 9.51143E-05-2.84974E-05-2.85517E-05-1.43495E-06 1.63586E-19 3.28543E-20
 -1      2814 9.52931E-05-2.84092E-05-2.86591E-05-1.51512E-06-1.75888E-19-9.84611E-20
 -1      2815 9.51550E-05-2.84205E-05-2.86029E-05-1.44031E-06-5.09489E-20-2.67577E-20
 -1      2816 9.52009E-05-2.84237E-05-2.86202E-05-1.52823E-06 8.78548E-20 5.58222E-19
 -1      2817 9.55002E-05-2.83413E-05-2.87756E-05-1.74617E-06 1.12822E-19 1.52392E-20
 -1      2818 9.53433E-05-2.83620E-05-2.87091E-05-1.61985E-06-5.13006E-20 6.00227E-20
 -1      2819 9.52954E-05-2.83164E-05-2.87065E-05-1.70150E-06 1.96223E-22 2.06762E-19
 -1      2820 9.57345E-05-2.82472E-05-2.89146E-05-2.10156E-06 9.99106E-19-1.54345E-19
 -1      2821 9.55522E-05-2.82779E-05-2.88353E-05-1.90998E-06 5.55848E-19 3.97818E-19
 -1      2822 9.53949E-05-2.81717E-05-2.88110E-05-1.98172E-06 1.49238E-19 3.96279E-19
 -1      2823 9.59999E-05-2.81213E-05-2.90802E-05-2.61109E-06 4.82850E-19 7.56295E-19
 -1      2824 9.57850E-05-2.81634E-05-2.89850E-05-2.33868E-06 8.32330E-19 1.79595E-19
 -1      2825 9.54946E-05-2.79820E-05-2.89347E-05-2.39658E-06 6.88671E-19 9.05818E-19
 -1      2826 9.62985E-05-2.79563E-05-2.92763E-05-3.30835E-06-4.46031E-19 1.40661E-18
 -1      2827 9.60433E-05-2.80114E-05-2.91620E-05-2.93740E-06 1.42051E-19 1.10081E-18
 -1      2828 9.55859E-05-2.77364E-05-2.90784E-05-2.97594E-06 1.28084E-19 1.60434E-18
 -1      2829 9.66286E-05-2.77447E-05-2.95056E-05-4.23044E-06-3.91091E-19 1.00261E-18
 -1      2830 9.63256E-05-2.78134E-05-2.93695E-05-3.74157E-06-2.81698E-19 8.38187E-19
 -1      2831 9.56546E-05-2.74212E-05-2.92417E-05-3.75237E-06-1.79779E-19 9.86821E-19
 -1      2832 9.69857E-05-2.74846E-05-2.97669E-05-5.41521E-06-9.81907E-19 6.97819E-19
 -1      2833 9.66268E-05-2.75632E-05-2.96080E-05-4.78957E-06-8.14510E-19 7.67282E-19
 -1      2834 9.56795E-05-2.70239E-05-2.94208E-05-4.76059E-06-4.16320E-19 7.18648E-19
 -1      2835 9.73657E-05-2.71918E-05-3.00521E-05-6.89468E-06-7.32961E-19 3.14591E-19
 -1      2836 9.69402E-05-2.72651E-05-2.98727E-05-6.11900E-06-7.74780E-19 5.80577E-19
 -1      2837 9.56340E-05-2.65408E-05-2.96057E-05-6.03526E-06-8.60887E-19 5.59838E-19
 -1      2838 9.77804E-05-2.69258E-05-3.03408E-05-8.68153E-06-5.64361E-20-2.53827E-19
 -1      2839 9.72670E-05-2.69525E-05-3.01495E-05-7.75837E-06-4.20943E-19 6.76479E-20
 -1      2840 9.54931E-05-2.59950E-05-2.97762E-05-7.60656E-06-2.59236E-19 7.65114E-19
 -1      2841 9.82939E-05-2.68396E-05-3.05951E-05-1.07456E-05-2.42431E-19 1.73511E-19
 -1      2842 9.76417E-05-2.67244E-05-3.04095E-05-9.71147E-06 1.04407E-19-6.94182E-20
 -1      2843 9.52565E-05-2.54721E-05-2.98965E-05-9.49362E-06-1.43412E-19 4.99921E-19
 -1      2844 9.91002E-05-2.72639E-05-3.07563E-05-1.29748E-05-4.63777E-19 5.65500E-20
 -1      2845 9.81898E-05-2.68127E-05-3.06041E-05-1.19301E-05-4.37959E-19 2.49967E-19
 -1      2846 9.49996E-05-2.51854E-05-2.99108E-05-1.16960E-05-2.77019E-19 1.52143E-19
 -1      2847 1.00663E-04-2.88224E-05-3.07534E-05-1.51114E-05-7.69953E-19 2.87896E-20
 -1      2848 9.92401E-05-2.76863E-05-3.06668E-05-1.42653E-05-2.63190E-19 1.26169E-19
 -1      2849 9.49791E-05-2.55817E-05-2.97433E-05-1.41809E-05-4.48941E-19 5.94178E-19
 -1      2850 1.03884E-04-3.25146E-05-3.05491E-05-1.66461E-05-1.26116E-18-5.21924E-19
 -1      2851 1.01506E-04-3.01674E-05-3.05367E-05-1.63755E-05-8.84584E-19-1.77823E-19
 -1      2852 9.58121E-05-2.74783E-05-2.93172E-05-1.68421E-05-8.60374E-19-3.45232E-20
 -1      2853 1.10211E-04-3.94519E-05-3.02752E-05-1.65356E-05-5.72912E-19-1.18824E-18
 -1      2854 1.06301E-04-3.54271E-05-3.02470E-05-1.74798E-05-9.05898E-19-8.61103E-19
 -1      2855 9.87814E-05-3.22078E-05-2.86284E-05-1.93909E-05-9.35409E-19-9.28818E-19
 -1      2856 1.21263E-04-4.96763E-05-3.05890E-05-1.28075E-05-8.43115E-19-7.89838E-19
 -1      2857 1.15439E-04-4.45088E-05-3.01490E-05-1.60909E-05-6.99014E-19-1.10076E-18
 -1      2858 1.05773E-04-4.09186E-05-2.79733E-05-2.07658E-05-7.83545E-19-1.01484E-18
 -1      2859 1.34615E-04-5.81121E-05-3.26901E-05-4.56165E-06-6.25375E-19-8.57859E-19
 -1      2860 1.28181E-04-5.48659E-05-3.10754E-05-1.05094E-05-9.41437E-19-5.52795E-19
 -1      2861 1.17380E-04-5.25970E-05-2.80421E-05-1.97235E-05-1.08754E-18-8.80941E-19
 -1      2862 1.32619E-04-6.22284E-05-3.05967E-05-1.44305E-05-5.02449E-19-2.81580E-18
 -1      2863 9.58376E-05-2.79686E-05-2.90835E-05-2.63369E-06 8.50471E-19 3.09936E-18
 -1      2864 9.56661E-05-2.78559E-05-2.90584E-05-2.43126E-06 4.69238E-19 2.76425E-18
 -1      2865 9.54395E-05-2.75890E-05-2.90761E-05-2.58619E-06-7.15787E-20 7.94532E-19
 -1      2866 9.56178E-05-2.77490E-05-2.90909E-05-2.96321E-06 6.93015E-19 3.40646E-18
 -1      2867 1.36663E-04-2.01446E-05-5.05170E-05 5.22246E-06-1.13926E-19 1.41542E-18
 -1      2868 1.39978E-04-4.57426E-05-4.04453E-05 1.64583E-06 9.47618E-21-8.03093E-19
 -1      2869 1.36170E-04-3.45594E-05-4.41526E-05 9.17679E-06 3.70577E-19 3.60836E-19
 -1      2870 1.14344E-04-5.01829E-05-2.70424E-05 2.18082E-05 6.85911E-19-1.80190E-18
 -1      2871 1.22595E-04-5.68939E-05-2.80065E-05 1.90249E-05 8.27128E-19-5.89545E-19
 -1      2872 1.30452E-04-6.14669E-05-2.91479E-05 1.65472E-05-7.04096E-21 3.86988E-20
 -1      2873 9.47932E-05-2.89534E-05-2.81575E-05 1.92260E-05-8.36124E-19-3.34115E-18
 -1      2874 9.75660E-05-3.22766E-05-2.78495E-05 2.00570E-05-9.77466E-19-3.24425E-18
 -1      2875 9.32120E-05-2.56508E-05-2.89696E-05 1.62734E-05-4.16082E-19-3.47879E-18
 -1      2876 9.44940E-05-2.71967E-05-2.87581E-05 1.73538E-05-7.40528E-19-3.55237E-18
 -1      2877 8.84864E-05-2.55265E-05-2.69885E-05 1.89046E-05-8.34082E-19-4.82446E-18
 -1      2878 9.31932E-05-2.45720E-05-2.94440E-05 1.35674E-05 4.20522E-20-3.33953E-18
 -1      2879 9.37335E-05-2.51030E-05-2.93584E-05 1.47127E-05-2.64382E-19-4.23675E-18
 -1      2880 8.88680E-05-2.32207E-05-2.81146E-05 1.53971E-05-2.11043E-19-4.81433E-18
 -1      2881 9.37031E-05-2.46168E-05-2.96447E-05 1.12002E-05-1.45490E-18-2.18095E-18
 -1      2882 9.39413E-05-2.46562E-05-2.96559E-05 1.22980E-05-8.83555E-19-2.83561E-18
 -1      2883 9.01302E-05-2.28544E-05-2.88065E-05 1.26441E-05-8.27547E-19-4.12130E-18
 -1      2884 9.42605E-05-2.51077E-05-2.96682E-05 9.15526E-06 7.02816E-19-1.71441E-18
 -1      2885 9.44049E-05-2.49526E-05-2.97361E-05 1.01489E-05-1.83155E-19-1.60013E-18
 -1      2886 9.14949E-05-2.33630E-05-2.91752E-05 1.04147E-05-1.27342E-18-1.81568E-18
 -1      2887 9.46885E-05-2.56889E-05-2.95961E-05 7.40393E-06 6.42431E-19-1.96043E-18
 -1      2888 9.48203E-05-2.54929E-05-2.96877E-05 8.27367E-06 1.00745E-18-1.81183E-18
 -1      2889 9.26567E-05-2.41643E-05-2.93348E-05 8.54803E-06 1.01392E-18-1.34146E-18
 -1      2890 9.49499E-05-2.61872E-05-2.94863E-05 5.91011E-06-3.20498E-19-6.39868E-19
 -1      2891 9.50905E-05-2.60253E-05-2.95793E-05 6.65990E-06-4.37218E-19-9.78857E-19
 -1      2892 9.35306E-05-2.49587E-05-2.93741E-05 6.95863E-06-8.56678E-19 1.10638E-18
 -1      2893 9.50596E-05-2.65261E-05-2.93737E-05 4.61321E-06 9.43950E-19 5.53232E-19
 -1      2894 9.52070E-05-2.64376E-05-2.94562E-05 5.25731E-06 7.22683E-19-6.25116E-19
 -1      2895 9.41063E-05-2.55889E-05-2.93554E-05 5.58862E-06-3.07042E-19 6.39919E-20
 -1      2896 9.25342E-05-2.43585E-05-2.92186E-05-6.28805E-07 1.18761E-18 5.04712E-19
 -1      2897 9.24313E-05-2.42625E-05-2.92254E-05-7.02168E-08 1.67206E-18-7.08701E-20
 -1      2898 9.25755E-05-2.43397E-05-2.92541E-05 1.84956E-06 1.72050E-18-8.52131E-19
 -1      2899 9.28086E-05-2.45584E-05-2.92519E-05 2.36331E-06 2.38927E-18-1.26146E-18
 -1      2900 9.29474E-05-2.48099E-05-2.91987E-05-1.67942E-06 4.73181E-19-1.44248E-18
 -1      2901 9.27286E-05-2.45944E-05-2.92121E-05-1.21726E-06 7.66993E-19 2.07131E-19
 -1      2902 9.22901E-05-2.44057E-05-2.90856E-05-1.10538E-06 1.41588E-18 7.54308E-20
 -1      2903 9.23830E-05-2.41782E-05-2.92360E-05 6.05269E-07 1.07612E-18 1.00360E-18
 -1      2904 9.24395E-05-2.42338E-05-2.92374E-05 1.18730E-06 1.54825E-18 7.65071E-19
 -1      2905 9.21047E-05-2.40941E-05-2.91360E-05 1.61986E-06 1.01272E-18-1.75524E-19
 -1      2906 9.20082E-05-2.40753E-05-2.91025E-05 2.13984E-07 1.17334E-18 7.78003E-20
 -1      2907 8.19293E-05-4.27097E-05-1.68151E-05 3.73383E-05 7.30248E-19-1.45340E-18
 -1      2908 6.43377E-05-3.26275E-05-1.29506E-05 3.43431E-05 1.02067E-19-1.51481E-18
 -1      2909 9.35113E-05-2.54245E-05-2.91744E-05-2.42945E-06-1.07407E-18-5.19705E-18
 -1      2910 9.32288E-05-2.51355E-05-2.91940E-05-2.11188E-06 2.12813E-19-2.64825E-18
 -1      2911 9.28426E-05-2.49805E-05-2.90796E-05-2.16239E-06-1.26626E-19-2.14966E-18
 -1      2912 9.41516E-05-2.61294E-05-2.91453E-05-2.85746E-06-3.50107E-19-2.53378E-18
 -1      2913 9.38386E-05-2.57969E-05-2.91700E-05-2.69235E-06-3.89149E-19-4.00213E-18
 -1      2914 9.35443E-05-2.56907E-05-2.90794E-05-2.87715E-06-6.51950E-19-4.28951E-18
 -1      2915 9.47906E-05-2.68405E-05-2.91145E-05-2.96186E-06 9.84232E-19 3.82995E-18
 -1      2916 9.44740E-05-2.64965E-05-2.91407E-05-2.93981E-06 6.83840E-19 6.47662E-19
 -1      2917 9.42967E-05-2.64435E-05-2.90817E-05-3.22371E-06 1.10250E-18-3.03491E-19
 -1      2918 9.51774E-05-2.72711E-05-2.91061E-05-2.71333E-06-2.18918E-19 3.61585E-18
 -1      2919 9.47181E-05-2.74018E-05-2.88518E-05 3.82710E-07 2.88602E-19-3.95753E-19
 -1      2920 9.48922E-05-2.71106E-05-2.90227E-05 9.89225E-07 3.54553E-19-2.88642E-19
 -1      2921 9.52506E-05-2.64891E-05-2.94738E-05 1.73303E-06 4.61972E-19-4.97401E-19
 -1      2922 9.51292E-05-2.73613E-05-2.90512E-05 3.63882E-07 3.82314E-19-5.53936E-19
 -1      2923 1.07936E-04-5.47371E-05-2.25452E-05-3.58383E-05 1.36224E-18 6.99507E-19
 -1      2924 1.22107E-04-5.84290E-05-2.74898E-05-2.87640E-05 1.32444E-18 1.81985E-18
 -1      2925 1.21875E-04-5.79285E-05-2.75848E-05 2.67315E-05-1.31486E-18 9.22737E-20
 -1      2926 1.11491E-04-5.54396E-05-2.36347E-05 3.32855E-05-1.59232E-18 3.38668E-19
 -1      2927 1.31814E-04-5.74692E-05-3.17054E-05-1.79640E-05 1.27934E-18 1.55251E-18
 -1      2928 1.37826E-04-5.38155E-05-3.65557E-05-8.87922E-06 4.92894E-19-1.09373E-19
 -1      2929 9.46955E-05-2.19030E-05-3.12034E-05 7.85222E-06 5.69623E-19-3.30806E-19
 -1      2930 9.45742E-05-4.89159E-05-1.96694E-05 4.05515E-05-9.27078E-19 3.93023E-19
 -1      2931 7.52480E-05-3.90048E-05-1.49417E-05 4.15812E-05-3.64859E-19 1.87724E-19
 -1      2932 9.99153E-05-3.61320E-05-2.70874E-05 2.20033E-05-1.02354E-18-2.04179E-18
 -1      2933 1.05024E-04-4.19377E-05-2.68858E-05 2.20284E-05-6.69553E-19-1.56119E-18
 -1      2934 9.05454E-05-3.14659E-05-2.54363E-05 2.33824E-05-2.53038E-19-2.74087E-18
 -1      2935 9.44950E-05-2.82773E-05-2.83776E-05-1.17488E-06 9.08693E-20 3.27514E-20
 -1      2936 9.44548E-05-2.81921E-05-2.83920E-05-1.08761E-06 1.98080E-19-1.54172E-19
 -1      2937 9.49193E-05-2.83939E-05-2.85157E-05-1.21800E-06 5.60198E-20 1.92508E-19
 -1      2938 9.44843E-05-2.81039E-05-2.84480E-05-9.35459E-07 8.42653E-20-2.34928E-19
 -1      2939 9.44943E-05-2.79801E-05-2.84950E-05-7.47731E-07 1.95295E-19-2.44052E-19
 -1      2940 9.49425E-05-2.82042E-05-2.86087E-05-9.66747E-07 6.82955E-20-2.92828E-20
 -1      2941 9.20390E-05-1.66574E-05-3.23141E-05-9.03132E-06-5.77085E-19-4.29558E-19
 -1      2942 5.07807E-05-2.61798E-05-9.99556E-06-3.04792E-05 9.03043E-19-1.37812E-18
 -1      2943 6.88313E-05-3.68555E-05-1.36043E-05-3.70664E-05 6.00335E-19-1.23127E-18
 -1      2944 9.11995E-05-1.60914E-05-3.22173E-05 4.91992E-06 4.63991E-19-7.30591E-19
 -1      2945 9.08589E-05-1.55920E-05-3.22792E-05 3.99603E-06 2.49194E-19-7.93096E-19
 -1      2946 9.18385E-05-1.71998E-05-3.19723E-05 3.19861E-06 2.53217E-19-7.44985E-19
 -1      2947 9.25033E-05-1.82621E-05-3.17976E-05 4.61760E-06 4.39407E-19-6.90066E-19
 -1      2948 9.08210E-05-1.55406E-05-3.22842E-05-3.93466E-06-2.06094E-19-6.02412E-19
 -1      2949 9.11525E-05-1.60264E-05-3.22237E-05-4.85754E-06-3.28058E-19-5.18753E-19
 -1      2950 4.74866E-05-2.34383E-05-1.00868E-05 2.87954E-05 1.87618E-19 2.60039E-19
 -1      2951 3.55394E-05-1.61453E-05-7.73057E-06 1.70944E-05 2.45708E-18-4.95091E-19
 -1      2952 3.37078E-05-1.35474E-05-8.22168E-06 1.81918E-05 5.11714E-19-1.63943E-18
 -1      2953 3.01161E-05-1.14543E-05-7.32724E-06 3.01372E-06 5.58691E-19-2.60399E-18
 -1      2954 3.13235E-05-1.34239E-05-7.16277E-06-9.90964E-06 1.03783E-18-2.06549E-18
 -1      2955 3.85822E-05-1.86640E-05-8.10760E-06-2.22322E-05 1.11427E-18-1.36732E-18
 -1      2956 1.22156E-04-6.00102E-05-2.62688E-05-2.35492E-05-3.64965E-19-2.92041E-18
 -1      2957 8.84151E-05-4.57339E-05-1.76934E-05-3.57682E-05 4.90644E-19-1.54906E-18
 -1      2958 1.06836E-04-5.44107E-05-2.25409E-05-3.18793E-05 9.70912E-20-2.79089E-18
 -1      2959 1.12518E-04-5.32675E-05-2.50824E-05-2.55326E-05-7.95682E-19-2.00397E-18
 -1      2960 5.72543E-05-2.93255E-05-1.18207E-05 3.95159E-05-1.45796E-19-1.24514E-19
 -1      2961 4.39751E-05-2.05136E-05-9.45700E-06 3.03037E-05 8.61380E-19-1.10453E-18
 -1      2962 1.27959E-04-9.81223E-06-5.12896E-05-5.93735E-06-4.12082E-19 1.22005E-18
 -1      2963 1.29571E-04-1.65794E-05-4.90035E-05-9.93053E-06-2.37804E-19 1.33778E-18
 -1      2964 2.95168E-05-1.24630E-05-6.73741E-06 4.72706E-06 2.16295E-18-2.13664E-19
 -1      2965 3.10713E-05-1.23989E-05-7.50267E-06-1.09788E-05 1.10763E-18 2.81215E-19
 -1      2966 3.98827E-05-1.34938E-05-1.06165E-05 1.03175E-05 1.49702E-18-5.44325E-19
 -1      2967 1.27091E-04-8.16041E-06-5.15628E-05 4.37312E-06 5.42525E-19 7.74029E-19
 -1      2968 1.26918E-04-6.89162E-06-5.20485E-05-1.07908E-06-4.31987E-20 1.02025E-18
 -1      2969 4.02703E-05-1.75542E-05-9.16016E-06-2.55748E-05 6.86097E-19 3.47707E-19
 -1      2970 5.26228E-05-2.54995E-05-1.11886E-05-3.58037E-05-5.78100E-20 1.02470E-18
 -1      2971 9.44847E-05-2.61289E-05-2.92830E-05 3.59974E-06 1.47434E-18-1.25021E-18
 -1      2972 9.48747E-05-2.64056E-05-2.93365E-05 4.17743E-06 1.61285E-18 4.52484E-19
 -1      2973 9.41651E-05-2.58188E-05-2.93094E-05 4.45606E-06 1.97899E-18-1.66730E-19
 -1      2974 9.39735E-05-2.56651E-05-2.92950E-05 3.49151E-06 1.61547E-18-1.03609E-18
 -1      2975 9.15729E-05-1.66679E-05-3.21217E-05-5.58509E-06-3.94743E-19-4.97637E-19
 -1      2976 9.20465E-05-1.73708E-05-3.20284E-05-6.41496E-06-4.53586E-19-5.06264E-19
 -1      2977 9.24444E-05-1.81794E-05-3.18066E-05-4.58006E-06-3.49333E-19-4.21602E-19
 -1      2978 9.13172E-05-1.63884E-05-3.21001E-05 2.80812E-08 1.24168E-19-7.71413E-19
 -1      2979 9.01954E-05-1.46024E-05-3.24165E-05-3.83559E-07 6.53346E-20-7.54369E-19
 -1      2980 9.02515E-05-1.46828E-05-3.24062E-05-1.34154E-06 2.08019E-20-7.80278E-19
 -1      2981 9.41566E-05-4.50610E-05-2.06920E-05 3.22298E-05 1.07647E-18-9.26654E-19
 -1      2982 6.36640E-05-3.04422E-05-1.37008E-05-3.75966E-05 1.70889E-19-6.08699E-19
 -1      2983 7.50665E-05-3.53167E-05-1.68644E-05-3.75364E-05-1.47437E-19-1.70857E-18
 -1      2984 6.11245E-05-2.50551E-05-1.51083E-05-3.24072E-05-3.00326E-19-6.19181E-19
 -1      2985 8.27391E-05-3.91766E-05-1.80852E-05-3.33734E-05 1.85077E-19-1.43641E-18
 -1      2986 1.31325E-04-2.86074E-05-4.44565E-05 1.17943E-05 1.02787E-18 1.27881E-18
 -1      2987 1.24346E-04-2.27885E-05-4.38372E-05 1.25599E-05 6.81544E-19 1.59692E-18
 -1      2988 1.30139E-04-3.53024E-05-4.09343E-05 1.01531E-05-8.62915E-21 1.54430E-18
 -1      2989 9.50143E-05-2.78875E-05-2.87770E-05-4.82083E-07 1.68770E-19-3.52508E-19
 -1      2990 1.36065E-04-4.97915E-05-3.70601E-05-9.80193E-07 7.37448E-20 1.26843E-19
 -1      2991 1.44184E-04-2.92872E-05-5.01371E-05-1.62652E-05 9.16701E-19-5.29396E-19
 -1      2992 1.42064E-04-1.94713E-05-5.29299E-05-1.00137E-05-1.46325E-19 7.55130E-19
 -1      2993 6.14130E-05-2.67301E-05-1.42777E-05 2.92464E-05 8.05528E-19-6.90755E-19
 -1      2994 1.22072E-04-1.14838E-05-4.78047E-05 6.81481E-06 5.57136E-19 1.33622E-18
 -1      2995 9.51200E-05-2.72466E-05-2.90893E-05-3.06748E-06 1.08458E-18 3.48349E-18
 -1      2996 1.26977E-04-5.79368E-05-2.95221E-05-2.00687E-05 1.16695E-18 1.57707E-18
 -1      2997 1.27888E-04-5.78627E-05-2.99208E-05 1.92241E-05-1.40486E-18 3.78306E-19
 -1      2998 1.22836E-04-5.66907E-05-2.82619E-05 2.07163E-05-1.33397E-18 2.78528E-19
 -1      2999 1.30766E-04-5.60135E-05-3.23795E-05 1.10566E-05-1.22293E-18 7.01979E-19
 -1      3000 3.97843E-05-1.40529E-05-1.04064E-05-1.79714E-05 2.95297E-19 4.51363E-19
 -1      3001 4.97679E-05-1.65136E-05-1.38927E-05-2.21113E-05-5.06261E-19 8.49574E-19
 -1      3002 4.17387E-05-1.13857E-05-1.25657E-05-9.64414E-06 1.00532E-19 9.24642E-19
 -1      3003 1.21563E-04-9.51861E-06-4.84522E-05-3.86990E-06 3.36378E-19 1.09520E-18
 -1      3004 1.03608E-04-5.07439E-05-2.23273E-05 3.40688E-05-8.44915E-19 9.67206E-20
 -1      3005 1.41500E-04-1.73303E-05-5.38756E-05-7.92873E-07-8.17810E-19 1.01028E-18
 -1      3006 9.43500E-05-2.14210E-05-3.12596E-05 7.22457E-06 5.09506E-19-5.15453E-19
 -1      3007 1.00443E-04-4.39490E-05-2.42994E-05 2.72428E-05 4.96785E-19-1.28791E-18
 -1      3008 3.79521E-05-1.18707E-05-1.05364E-05-3.32346E-06 8.83538E-19-2.50595E-18
 -1      3009 1.30649E-04-2.26646E-05-4.68137E-05-1.13968E-05-5.05679E-19 8.87055E-19
 -1      3010 1.29811E-04-2.84578E-05-4.38314E-05-1.13834E-05-7.03461E-19 3.14196E-19
 -1      3011 1.23171E-04-1.75688E-05-4.56190E-05-1.14767E-05-1.13111E-18 2.28662E-18
 -1      3012 4.52890E-05-1.66093E-05-1.17017E-05 2.25653E-05 8.39039E-19-1.00553E-18
 -1      3013 9.46123E-05-2.24622E-05-3.09141E-05 5.69870E-06 4.36591E-19-5.91647E-19
 -1      3014 1.50528E-04-3.94642E-05-4.79637E-05 1.75646E-05 1.20575E-18-3.87094E-19
 -1      3015 9.31333E-05-2.48534E-05-2.92765E-05 2.86422E-06 2.14537E-18-6.66190E-19
 -1      3016 9.35239E-05-2.52142E-05-2.92710E-05 3.20820E-06 1.18337E-18 5.71654E-21
 -1      3017 9.35474E-05-2.52607E-05-2.92545E-05 3.68373E-06 2.47107E-18-4.52377E-19
 -1      3018 9.26344E-05-2.44980E-05-2.91896E-05 2.84512E-06 2.22223E-18-5.17961E-19
 -1      3019 9.03754E-05-1.48738E-05-3.23780E-05-2.17886E-06-2.40361E-20-6.51651E-19
 -1      3020 9.05580E-05-1.51374E-05-3.23450E-05-3.12993E-06-1.83841E-19-6.00055E-19
 -1      3021 9.18046E-05-1.71555E-05-3.19774E-05-3.14447E-06-1.72900E-19-5.20996E-19
 -1      3022 9.14341E-05-1.65720E-05-3.20709E-05-1.58375E-06-2.13244E-20-6.62569E-19
 -1      3023 1.00496E-04-5.13249E-05-2.08289E-05-3.81220E-05 1.08950E-18-3.38072E-19
 -1      3024 1.09588E-04-5.34679E-05-2.39780E-05-3.11761E-05 1.41020E-18 1.77365E-18
 -1      3025 9.19595E-05-4.53871E-05-1.96206E-05-3.82909E-05 1.20342E-18-1.37241E-18
 -1      3026 5.19840E-05-2.19639E-05-1.22634E-05-2.54809E-05 9.63923E-19-1.19770E-18
 -1      3027 1.34606E-04-4.09673E-05-4.05307E-05-7.77043E-06 6.08805E-20-2.01700E-19
 -1      3028 1.38949E-04-4.64924E-05-3.98150E-05-1.29165E-06 2.63268E-19-3.32355E-19
 -1      3029 1.35007E-04-5.07074E-05-3.61799E-05 2.09165E-06-3.08241E-19 9.22737E-20
 -1      3030 9.28268E-05-1.84307E-05-3.18824E-05-7.47816E-06-5.49629E-19-4.46194E-19
 -1      3031 7.21725E-05-3.38258E-05-1.58842E-05 3.76230E-05-7.64447E-20 1.99000E-19
 -1      3032 8.55550E-05-3.54152E-05-2.10202E-05 2.95944E-05 2.84127E-19-5.29237E-19
 -1      3033 9.42809E-05-2.18459E-05-3.10651E-05 4.97622E-06 4.31516E-19-7.75004E-19
 -1      3034 9.38259E-05-2.09050E-05-3.12532E-05 4.62687E-06 4.70359E-19-7.18217E-19
 -1      3035 1.42132E-04-2.02899E-05-5.29228E-05 8.82350E-06-9.52912E-20 4.46333E-19
 -1      3036 9.51006E-05-2.39159E-05-3.05047E-05-3.67508E-06-3.97871E-19-3.03785E-19
 -1      3037 9.52655E-05-2.49084E-05-3.01708E-05-2.58067E-06-3.60297E-19-1.78945E-19
 -1      3038 9.55648E-05-2.58018E-05-2.98852E-05-1.80694E-06-2.16336E-19-7.52288E-20
 -1      3039 9.56041E-05-2.64525E-05-2.96476E-05-1.06345E-06-1.64645E-19-7.96989E-21
 -1      3040 9.53701E-05-2.47926E-05-3.02435E-05-2.27114E-06-2.22709E-19-2.50312E-19
 -1      3041 9.57295E-05-2.70178E-05-2.94355E-05-5.14583E-07-1.14681E-19 1.19778E-19
 -1      3042 9.57108E-05-2.74301E-05-2.92699E-05-2.95033E-08-5.67490E-20 2.16841E-19
 -1      3043 9.57866E-05-2.63969E-05-2.97396E-05-9.14664E-07-1.07809E-19-3.03022E-20
 -1      3044 9.57431E-05-2.77814E-05-2.91170E-05 3.27268E-07-4.29721E-20 3.39296E-19
 -1      3045 9.57114E-05-2.80392E-05-2.90058E-05 6.24399E-07-5.69880E-20 3.96097E-19
 -1      3046 9.59501E-05-2.74335E-05-2.93672E-05 2.31658E-08-7.73685E-20 2.39559E-19
 -1      3047 9.56943E-05-2.82480E-05-2.88991E-05 8.38670E-07-1.44484E-19 3.64569E-19
 -1      3048 9.56659E-05-2.84024E-05-2.88282E-05 1.00779E-06-1.71985E-19 2.95992E-19
 -1      3049 9.59732E-05-2.80821E-05-2.90996E-05 6.23925E-07-1.08170E-19 2.49894E-19
 -1      3050 9.56240E-05-2.85148E-05-2.87571E-05 1.12542E-06-8.77990E-20 3.24227E-19
 -1      3051 9.56035E-05-2.85982E-05-2.87160E-05 1.21347E-06-4.25820E-20 2.49187E-19
 -1      3052 9.59221E-05-2.84634E-05-2.89141E-05 9.81749E-07-1.96462E-19 2.29781E-19
 -1      3053 9.55500E-05-2.86440E-05-2.86720E-05 1.27166E-06-2.72339E-19 1.64239E-19
 -1      3054 9.55376E-05-2.86775E-05-2.86526E-05 1.31416E-06-3.29490E-19-1.19211E-19
 -1      3055 9.58337E-05-2.86590E-05-2.87920E-05 1.17935E-06-2.19588E-19-4.26726E-20
 -1      3056 9.54792E-05-2.86768E-05-2.86291E-05 1.34200E-06-3.48054E-19-1.12008E-19
 -1      3057 9.54739E-05-2.86747E-05-2.86258E-05 1.36546E-06-5.88314E-19-5.14752E-20
 -1      3058 9.57276E-05-2.87238E-05-2.87183E-05 1.28333E-06-4.36366E-19 2.20331E-20
 -1      3059 9.54140E-05-2.86410E-05-2.86176E-05 1.38516E-06-5.21557E-19 2.17588E-19
 -1      3060 9.54152E-05-2.86137E-05-2.86262E-05 1.40921E-06-3.24962E-19 2.47603E-19
 -1      3061 9.56139E-05-2.86956E-05-2.86812E-05 1.34566E-06-3.02027E-19 2.36253E-19
 -1      3062 9.53553E-05-2.85567E-05-2.86294E-05 1.43757E-06-3.53216E-19 2.74514E-20
 -1      3063 9.53629E-05-2.85120E-05-2.86469E-05 1.47661E-06-4.91932E-19-2.97357E-20
 -1      3064 9.54977E-05-2.86010E-05-2.86715E-05 1.40604E-06-5.75582E-19 2.77794E-19
 -1      3065 9.53042E-05-2.84393E-05-2.86584E-05 1.52623E-06-5.64456E-19 1.34703E-19
 -1      3066 9.53193E-05-2.83846E-05-2.86825E-05 1.59050E-06-6.30412E-19 3.54668E-19
 -1      3067 9.53818E-05-2.84601E-05-2.86820E-05 1.49456E-06-5.09432E-19 3.71527E-19
 -1      3068 9.52636E-05-2.83034E-05-2.86996E-05 1.67063E-06-6.07917E-19 5.21180E-19
 -1      3069 9.52890E-05-2.82461E-05-2.87285E-05 1.76674E-06-5.13066E-19 3.44555E-19
 -1      3070 9.52692E-05-2.82897E-05-2.87065E-05 1.63369E-06-4.61271E-19 8.03835E-19
 -1      3071 9.52395E-05-2.81647E-05-2.87489E-05 1.88368E-06-5.62676E-19 5.01643E-19
 -1      3072 9.52804E-05-2.81145E-05-2.87809E-05 2.01459E-06-1.92202E-19 1.65200E-19
 -1      3073 9.51649E-05-2.81074E-05-2.87399E-05 1.83965E-06-6.35540E-19 7.65631E-19
 -1      3074 9.52437E-05-2.80441E-05-2.88023E-05 2.17154E-06-1.15539E-19-6.82749E-19
 -1      3075 9.53081E-05-2.80142E-05-2.88355E-05 2.33589E-06-6.00655E-19-8.11613E-19
 -1      3076 9.50788E-05-2.79350E-05-2.87771E-05 2.12271E-06-7.30259E-19-1.73213E-19
 -1      3077 9.52958E-05-2.79707E-05-2.88555E-05 2.53230E-06-5.87238E-19-5.89263E-19
 -1      3078 9.53963E-05-2.79795E-05-2.88881E-05 2.72316E-06-4.90413E-19-6.36419E-19
 -1      3079 9.50284E-05-2.78021E-05-2.88130E-05 2.48652E-06-5.58054E-19-1.30802E-18
 -1      3080 9.54273E-05-2.79857E-05-2.89042E-05 2.95330E-06-4.24532E-19-4.07793E-19
 -1      3081 9.55822E-05-2.80585E-05-2.89341E-05 3.15631E-06-7.61341E-19-6.09925E-19
 -1      3082 9.50437E-05-2.77512E-05-2.88425E-05 2.92630E-06-4.29080E-19-8.94423E-19
 -1      3083 9.56851E-05-2.81454E-05-2.89440E-05 3.40706E-06-5.11671E-19-2.41987E-19
 -1      3084 9.59194E-05-2.83149E-05-2.89692E-05 3.59786E-06 2.03031E-19 4.77320E-20
 -1      3085 9.51712E-05-2.78409E-05-2.88607E-05 3.42547E-06-1.18501E-19 2.34281E-19
 -1      3086 9.61354E-05-2.85227E-05-2.89719E-05 3.84531E-06 7.63721E-19 2.09273E-19
 -1      3087 9.64813E-05-2.88277E-05-2.89915E-05 3.98652E-06 1.45931E-18 3.29652E-19
 -1      3088 9.54797E-05-2.81492E-05-2.88637E-05 3.95034E-06 6.58140E-19 1.12519E-18
 -1      3089 9.68650E-05-2.92029E-05-2.89880E-05 4.19103E-06 1.75900E-18-2.75967E-19
 -1      3090 9.73590E-05-2.96830E-05-2.90035E-05 4.22910E-06 1.06231E-18 4.39412E-20
 -1      3091 9.60640E-05-2.87720E-05-2.88516E-05 4.44212E-06 1.21535E-18 8.62070E-19
 -1      3092 9.79757E-05-3.02708E-05-2.89994E-05 4.32867E-06 5.74099E-19 4.39635E-19
 -1      3093 9.86506E-05-3.09529E-05-2.90169E-05 4.19166E-06 4.98453E-19 7.53437E-19
 -1      3094 9.70441E-05-2.98130E-05-2.88314E-05 4.80524E-06 1.27655E-18 3.93149E-20
 -1      3095 9.95654E-05-3.17792E-05-2.90259E-05 4.09423E-06 1.75847E-19 4.92094E-19
 -1      3096 1.00432E-04-3.26520E-05-2.90590E-05 3.69361E-06 2.17000E-19 4.81693E-19
 -1      3097 9.85530E-05-3.13573E-05-2.88230E-05 4.89186E-06 2.33752E-19 4.70734E-19
 -1      3098 1.01683E-04-3.36893E-05-2.91067E-05 3.27086E-06 2.38197E-19 3.51832E-19
 -1      3099 1.02698E-04-3.46594E-05-2.91794E-05 2.51378E-06 4.19323E-19 7.24879E-21
 -1      3100 1.00702E-04-3.34174E-05-2.88676E-05 4.48491E-06-7.74032E-20 6.37516E-20
 -1      3101 1.04241E-04-3.57700E-05-2.93072E-05 1.61620E-06 3.97034E-19-2.22505E-19
 -1      3102 1.05266E-04-3.66094E-05-2.94543E-05 4.44338E-07-3.52528E-20 8.04346E-20
 -1      3103 1.03501E-04-3.58248E-05-2.90368E-05 3.29412E-06-3.25028E-20-4.98098E-19
 -1      3104 1.06894E-04-3.74847E-05-2.97166E-05-1.03462E-06 1.38352E-19 2.54915E-19
 -1      3105 1.07672E-04-3.78049E-05-2.99778E-05-2.56571E-06 9.18206E-19 9.73123E-19
 -1      3106 1.06717E-04-3.80932E-05-2.94351E-05 1.02467E-06 4.33364E-19-2.47492E-19
 -1      3107 1.08970E-04-3.79557E-05-3.04308E-05-4.54864E-06 5.51897E-19 3.84466E-19
 -1      3108 1.09164E-04-3.72731E-05-3.08333E-05-6.16213E-06 2.63974E-20 2.67178E-19
 -1      3109 1.09733E-04-3.93015E-05-3.01862E-05-2.42511E-06 2.43219E-19 1.58621E-19
 -1      3110 1.09574E-04-3.61530E-05-3.15025E-05-8.21284E-06-7.68213E-19 9.96132E-20
 -1      3111 1.08908E-04-3.41050E-05-3.20396E-05-9.32669E-06-1.47494E-18-4.49567E-19
 -1      3112 1.11570E-04-3.82807E-05-3.13872E-05-6.62626E-06-7.51045E-19-9.05449E-19
 -1      3113 1.07973E-04-3.14818E-05-3.28717E-05-1.03580E-05-1.18403E-18-6.52823E-19
 -1      3114 1.06653E-04-2.84887E-05-3.34446E-05-1.01525E-05-1.05754E-18-7.21384E-19
 -1      3115 1.11065E-04-3.38540E-05-3.30327E-05-1.01300E-05-1.55756E-18-9.96872E-19
 -1      3116 1.04855E-04-2.52404E-05-3.42305E-05-9.15013E-06-6.29392E-19-1.39846E-18
 -1      3117 1.03522E-04-2.24990E-05-3.46723E-05-7.23276E-06-8.07163E-19-1.60007E-18
 -1      3118 1.08267E-04-2.69407E-05-3.48282E-05-1.05215E-05-1.28837E-18-1.71872E-18
 -1      3119 1.02164E-04-2.04311E-05-3.51250E-05-3.89979E-06-7.29428E-19-9.66107E-19
 -1      3120 1.01664E-04-1.95834E-05-3.52524E-05-9.38207E-07-7.90626E-19-2.03830E-19
 -1      3121 1.04900E-04-2.04258E-05-3.61907E-05-6.26151E-06-1.60629E-19-3.66168E-19
 -1      3122 1.02119E-04-2.00488E-05-3.51480E-05 3.25609E-06-5.40083E-19 9.53011E-20
 -1      3123 1.02869E-04-2.17355E-05-3.48892E-05 5.96758E-06 9.89664E-20 4.15915E-19
 -1      3124 1.03713E-04-1.82908E-05-3.65892E-05 1.44856E-06-3.24744E-19-1.94778E-19
 -1      3125 1.04592E-04-2.44363E-05-3.42896E-05 8.61182E-06 6.80028E-19 4.14268E-19
 -1      3126 1.06014E-04-2.74697E-05-3.37778E-05 9.89498E-06 4.49760E-19 1.21063E-18
 -1      3127 1.05926E-04-2.23418E-05-3.57989E-05 8.17240E-06 2.92786E-19-1.01892E-19
 -1      3128 1.07637E-04-3.06859E-05-3.29445E-05 1.01175E-05 3.73389E-19 1.11686E-18
 -1      3129 1.08792E-04-3.34538E-05-3.23651E-05 9.74649E-06 4.19105E-19 1.10174E-18
 -1      3130 1.09464E-04-2.95410E-05-3.42131E-05 1.07427E-05 3.95488E-19 8.21182E-19
 -1      3131 1.09256E-04-3.56029E-05-3.15717E-05 8.21240E-06-2.79726E-19 9.91394E-19
 -1      3132 1.09618E-04-3.71551E-05-3.10730E-05 6.82534E-06-9.19180E-19 8.26765E-19
 -1      3133 1.11585E-04-3.58229E-05-3.24162E-05 8.98271E-06 2.33381E-20 4.97083E-19
 -1      3134 1.08842E-04-3.78150E-05-3.04725E-05 4.69704E-06-1.31918E-18 1.14354E-18
 -1      3135 1.08429E-04-3.81012E-05-3.01169E-05 3.05022E-06-1.11705E-18 4.96282E-19
 -1      3136 1.11208E-04-3.90484E-05-3.09022E-05 4.96783E-06-1.44444E-18 7.05370E-20
 -1      3137 1.06942E-04-3.76438E-05-2.97343E-05 1.16364E-06-2.86731E-19 7.00973E-19
 -1      3138 1.06052E-04-3.70867E-05-2.95161E-05-2.60947E-07-2.04276E-19 6.65597E-19
 -1      3139 1.08860E-04-3.92208E-05-2.98563E-05 8.68427E-07-1.21047E-18 4.13686E-20
 -1      3140 1.04412E-04-3.60824E-05-2.93097E-05-1.58032E-06-1.96819E-19 6.48104E-19
 -1      3141 1.03369E-04-3.51584E-05-2.91934E-05-2.60315E-06 3.35505E-19 9.16134E-19
 -1      3142 1.05681E-04-3.75141E-05-2.92450E-05-2.23368E-06-5.22618E-19 1.25159E-18
 -1      3143 1.01920E-04-3.40450E-05-2.91034E-05-3.36133E-06 1.66946E-18 1.16614E-18
 -1      3144 1.00943E-04-3.30862E-05-2.90499E-05-3.98365E-06 1.17822E-18 2.36527E-18
 -1      3145 1.02577E-04-3.51128E-05-2.89486E-05-4.13821E-06 7.18338E-19 2.32950E-18
 -1      3146 9.98184E-05-3.21033E-05-2.90260E-05-4.31226E-06 6.67506E-20 2.32730E-18
 -1      3147 9.90088E-05-3.12781E-05-2.90050E-05-4.60982E-06 1.45377E-18 2.18997E-18
 -1      3148 1.00011E-04-3.27786E-05-2.88451E-05-5.05635E-06 9.16488E-19 2.25164E-18
 -1      3149 9.82103E-05-3.05125E-05-2.90133E-05-4.64961E-06 1.59754E-18 2.06923E-18
 -1      3150 9.75875E-05-2.98736E-05-2.90059E-05-4.71053E-06 1.19701E-18 1.99284E-18
 -1      3151 9.81048E-05-3.08579E-05-2.88438E-05-5.29126E-06 1.19067E-18 2.76053E-18
 -1      3152 9.70592E-05-2.93241E-05-2.90266E-05-4.57235E-06 2.26698E-18 1.99404E-18
 -1      3153 9.66004E-05-2.88598E-05-2.90235E-05-4.47222E-06 3.34416E-18 3.22624E-18
 -1      3154 9.67947E-05-2.94281E-05-2.88878E-05-5.09810E-06 2.16603E-18 3.17367E-18
 -1      3155 9.62694E-05-2.84837E-05-2.90475E-05-4.23257E-06 3.32925E-18 2.97155E-18
 -1      3156 9.59338E-05-2.81512E-05-2.90456E-05-4.02794E-06 2.65693E-18 3.05540E-18
 -1      3157 9.59488E-05-2.84330E-05-2.89470E-05-4.65917E-06 3.28110E-18 3.17415E-18
 -1      3158 9.52606E-05-2.86150E-05-2.85601E-05-1.37396E-06 1.92909E-19-7.24419E-19
 -1      3159 9.52358E-05-2.86024E-05-2.85563E-05-1.35407E-06 5.15762E-19-8.49245E-19
 -1      3160 1.32644E-04-5.28421E-05-3.41576E-05-3.82921E-06-2.34522E-19 1.01676E-18
 -1      3161 1.32300E-04-4.59016E-05-3.73966E-05 4.48171E-06-4.51733E-19 1.19283E-18
 -1      3162 9.52705E-05-2.85912E-05-2.85753E-05-1.32242E-06 5.02265E-19-8.55822E-19
 -1      3163 9.52579E-05-2.85451E-05-2.85885E-05-1.27855E-06 2.34326E-19-6.20900E-19
 -1      3164 9.55239E-05-2.86583E-05-2.86595E-05-1.32066E-06 4.59253E-19-1.07483E-18
 -1      3165 9.52677E-05-2.84975E-05-2.86122E-05-1.47366E-06-3.58258E-19 2.03201E-19
 -1      3166 9.52279E-05-2.85331E-05-2.85851E-05-1.43780E-06 6.97578E-20-4.99580E-20
 -1      3167 9.52763E-05-2.83705E-05-2.86697E-05-1.59119E-06 5.60316E-20 5.14200E-19
 -1      3168 9.52317E-05-2.84265E-05-2.86334E-05-1.52314E-06-1.51581E-19 3.84873E-19
 -1      3169 9.53288E-05-2.84538E-05-2.86617E-05-1.52397E-06-3.59828E-19-2.55967E-19
 -1      3170 9.52807E-05-2.81980E-05-2.87448E-05-1.79167E-06-2.09558E-20 4.10222E-19
 -1      3171 9.52328E-05-2.82751E-05-2.86996E-05-1.67774E-06 3.60004E-19 6.18592E-19
 -1      3172 9.52506E-05-2.82658E-05-2.87082E-05-1.66634E-06 5.87680E-20 7.97792E-20
 -1      3173 9.52721E-05-2.79740E-05-2.88363E-05-2.10081E-06 3.69239E-19 2.92012E-19
 -1      3174 9.52230E-05-2.80750E-05-2.87823E-05-1.92770E-06-2.23282E-20 3.21025E-19
 -1      3175 9.51508E-05-2.80182E-05-2.87708E-05-1.89360E-06 1.73800E-19 9.12128E-20
 -1      3176 9.52376E-05-2.76878E-05-2.89433E-05-2.54427E-06 8.04119E-20 1.34619E-18
 -1      3177 9.51907E-05-2.78175E-05-2.88801E-05-2.29827E-06 2.83542E-19 7.81671E-19
 -1      3178 9.50137E-05-2.77020E-05-2.88465E-05-2.22965E-06-1.25794E-19 3.77990E-19
 -1      3179 9.51573E-05-2.73242E-05-2.90637E-05-3.14857E-06 2.01304E-19 1.15221E-18
 -1      3180 9.51187E-05-2.74890E-05-2.89918E-05-2.81518E-06 2.21108E-19 1.28554E-18
 -1      3181 9.48166E-05-2.73025E-05-2.89318E-05-2.69723E-06 8.07993E-21 1.08023E-18
 -1      3182 9.50028E-05-2.68654E-05-2.91932E-05-3.94120E-06-2.45220E-19 1.03544E-18
 -1      3183 9.49818E-05-2.70725E-05-2.91138E-05-3.50523E-06 1.85525E-19 1.40394E-18
 -1      3184 9.45276E-05-2.68002E-05-2.90211E-05-3.31844E-06 1.13854E-19 1.28595E-18
 -1      3185 9.47357E-05-2.62948E-05-2.93224E-05-4.94985E-06-7.12469E-19 9.98320E-19
 -1      3186 9.47452E-05-2.65496E-05-2.92395E-05-4.39619E-06-5.00562E-19 1.08830E-18
 -1      3187 9.41033E-05-2.61732E-05-2.91049E-05-4.11468E-06-2.82923E-19 1.36115E-18
 -1      3188 9.43092E-05-2.56065E-05-2.94336E-05-6.20099E-06-7.93023E-19 8.00147E-19
 -1      3189 9.43640E-05-2.59067E-05-2.93554E-05-5.51620E-06-6.43558E-19 8.86708E-19
 -1      3190 9.34871E-05-2.54022E-05-2.91670E-05-5.10650E-06-4.02782E-19 1.25614E-18
 -1      3191 9.36779E-05-2.48252E-05-2.94965E-05-7.71852E-06-3.72656E-19 1.14290E-18
 -1      3192 9.37878E-05-2.51492E-05-2.94377E-05-6.89309E-06-5.59572E-19 1.04482E-18
 -1      3193 9.26117E-05-2.44825E-05-2.91806E-05-6.31462E-06-6.07855E-19 1.12703E-18
 -1      3194 9.28238E-05-2.40448E-05-2.94620E-05-9.52521E-06-1.33482E-20 1.13004E-18
 -1      3195 9.29756E-05-2.43286E-05-2.94466E-05-8.55571E-06-1.07070E-19 8.57970E-19
 -1      3196 9.14085E-05-2.34460E-05-2.91026E-05-7.76531E-06-2.99222E-19 1.22565E-18
 -1      3197 9.18141E-05-2.34962E-05-2.92570E-05-1.16516E-05-2.70169E-19 7.91480E-19
 -1      3198 9.19336E-05-2.35938E-05-2.93203E-05-1.05415E-05 9.67963E-20 9.02160E-19
 -1      3199 8.98317E-05-2.24030E-05-2.88675E-05-9.50634E-06-4.02231E-20 1.42819E-18
 -1      3200 9.09177E-05-2.36576E-05-2.87841E-05-1.41555E-05-3.28741E-19 7.62663E-19
 -1      3201 9.07932E-05-2.32773E-05-2.89701E-05-1.29155E-05-2.61911E-19 6.55529E-19
 -1      3202 8.79121E-05-2.16117E-05-2.83797E-05-1.16443E-05-7.57360E-20 1.60349E-18
 -1      3203 9.07920E-05-2.54218E-05-2.79370E-05-1.71511E-05-8.68426E-19-2.46751E-19
 -1      3204 8.99677E-05-2.40336E-05-2.82828E-05-1.58071E-05-2.97623E-19 4.72879E-19
 -1      3205 8.58519E-05-2.15853E-05-2.75079E-05-1.44151E-05-7.86049E-20 1.11400E-18
 -1      3206 9.27680E-05-3.02314E-05-2.66650E-05-2.07512E-05-7.02283E-19-1.00045E-18
 -1      3207 9.04049E-05-2.69188E-05-2.71526E-05-1.93420E-05-1.05283E-18-4.94991E-19
 -1      3208 8.43341E-05-2.33347E-05-2.60875E-05-1.83228E-05-6.43030E-19-1.23349E-20
 -1      3209 1.05834E-04-4.67268E-05-2.49298E-05-2.56837E-05-9.95687E-19-1.82980E-18
 -1      3210 8.73246E-05-2.13374E-05-2.83252E-05 1.07277E-05-1.37405E-18-2.52509E-18
 -1      3211 8.65961E-05-2.11247E-05-2.80387E-05 1.18335E-05-8.60849E-19-4.04160E-18
 -1      3212 9.23982E-05-1.83340E-05-3.17571E-05 1.81038E-06 2.20745E-19-8.35296E-19
 -1      3213 9.22794E-05-1.81307E-05-3.17898E-05 1.05722E-06 8.92925E-20-8.85258E-19
 -1      3214 1.46522E-04-3.73352E-05-4.69481E-05-2.09768E-05 2.07565E-18-6.24475E-19
 -1      3215 9.53787E-05-2.79203E-05-2.89142E-05-5.18207E-07 1.60094E-19-3.96820E-19
 -1      3216 9.54262E-05-2.76678E-05-2.90280E-05-1.72312E-07 2.49027E-19-3.85206E-19
 -1      3217 7.30028E-05-2.88179E-05-1.88527E-05 2.91549E-05 1.12317E-18-7.49942E-19
 -1      3218 5.97798E-05-2.01747E-05-1.64357E-05 2.32089E-05 1.37939E-18-1.46817E-18
 -1      3219 8.28549E-05-2.95986E-05-2.25465E-05 2.51674E-05 7.17649E-19-1.26301E-18
 -1      3220 8.47642E-05-2.07741E-05-2.74796E-05 1.30707E-05 1.12633E-19-4.28337E-18
 -1      3221 8.42253E-05-2.11198E-05-2.69881E-05 1.44779E-05-2.50798E-19-4.37304E-18
 -1      3222 8.23522E-05-1.91524E-05-2.70203E-05 1.09488E-05-1.37403E-19-1.81332E-18
 -1      3223 8.21336E-05-2.13736E-05-2.60870E-05 1.63905E-05-8.92508E-19-3.10603E-18
 -1      3224 8.24758E-05-2.29731E-05-2.53642E-05 1.82355E-05-3.33434E-19-2.23659E-18
 -1      3225 7.83709E-05-1.87054E-05-2.54823E-05 1.37333E-05-1.26790E-19-2.01135E-18
 -1      3226 8.94967E-05-2.23572E-05-2.88085E-05 8.90069E-06-6.79930E-19-3.15897E-18
 -1      3227 8.88268E-05-2.19321E-05-2.86610E-05 9.82009E-06-1.32619E-18-3.17440E-18
 -1      3228 8.56606E-05-2.02816E-05-2.79704E-05 9.06688E-06-1.17426E-18-2.42953E-18
 -1      3229 9.12023E-05-2.34470E-05-2.90639E-05 7.38237E-06-6.77560E-19-1.51336E-18
 -1      3230 9.06734E-05-2.29923E-05-2.90020E-05 8.17211E-06-1.31284E-19-2.84048E-18
 -1      3231 8.82981E-05-2.16144E-05-2.85414E-05 7.63045E-06-9.79253E-19-2.92248E-18
 -1      3232 9.24662E-05-2.44107E-05-2.91868E-05 6.07843E-06-1.33078E-18-2.94074E-19
 -1      3233 9.20905E-05-2.40180E-05-2.91712E-05 6.76278E-06-1.19143E-18-3.00162E-19
 -1      3234 9.03229E-05-2.28824E-05-2.88746E-05 6.42358E-06-1.60268E-18-1.53363E-18
 -1      3235 9.33834E-05-2.51521E-05-2.92441E-05 4.94201E-06 7.25593E-19-5.09071E-19
 -1      3236 9.31193E-05-2.48720E-05-2.92464E-05 5.53248E-06-5.14661E-19-4.57319E-19
 -1      3237 9.18179E-05-2.39514E-05-2.90661E-05 5.35526E-06-4.29111E-19-1.69748E-18
 -1      3238 9.19600E-05-2.43971E-05-2.89500E-05-1.67057E-06 5.04140E-19-1.64535E-18
 -1      3239 9.16904E-05-2.41611E-05-2.89532E-05-1.04926E-06 1.36086E-18-3.31409E-19
 -1      3240 9.45246E-05-2.67781E-05-2.90246E-05-3.59458E-06 1.95347E-18 1.38709E-18
 -1      3241 9.40866E-05-2.64012E-05-2.90167E-05-3.51808E-06 1.68858E-18-1.42775E-18
 -1      3242 9.27191E-05-2.51208E-05-2.89617E-05-2.71256E-06-9.73640E-19-3.26412E-18
 -1      3243 9.23356E-05-2.47947E-05-2.89589E-05-2.26340E-06-2.61359E-19-1.90736E-18
 -1      3244 9.17828E-05-2.45115E-05-2.88265E-05-2.26583E-06-7.83001E-20-2.35527E-18
 -1      3245 1.21112E-04-5.61291E-05-2.77371E-05-2.11648E-05 1.84407E-18 2.61570E-18
 -1      3246 1.28502E-04-5.63260E-05-3.12381E-05-1.26976E-05 1.01964E-18 1.68507E-18
 -1      3247 4.67781E-05-1.46774E-05-1.35088E-05 1.62228E-05 9.66888E-19-6.73921E-19
 -1      3248 4.17046E-05-1.11465E-05-1.26600E-05 3.97392E-06 2.45335E-19 3.84129E-19
 -1      3249 8.05645E-05-2.51801E-05-2.36083E-05 2.22112E-05 8.96740E-19-2.44144E-18
 -1      3250 9.36184E-05-2.59521E-05-2.89889E-05-3.36155E-06 4.56441E-19-3.09717E-18
 -1      3251 9.31787E-05-2.55789E-05-2.89826E-05-3.09587E-06-5.35923E-19-3.25809E-18
 -1      3252 9.27306E-05-2.53822E-05-2.88644E-05-3.25336E-06-8.33416E-19-2.23591E-18
 -1      3253 9.37885E-05-2.62994E-05-2.89257E-05-3.78697E-06 1.26925E-18-1.33719E-18
 -1      3254 9.52610E-05-2.85804E-05-2.85745E-05-1.41167E-06 2.41252E-19-2.41813E-19
 -1      3255 9.52275E-05-2.85939E-05-2.85578E-05-1.39285E-06 2.91062E-20-5.23230E-19
 -1      3256 9.54599E-05-2.86572E-05-2.86319E-05-1.38488E-06 1.40245E-20-6.21107E-19
 -1      3257 9.53962E-05-2.85854E-05-2.86348E-05-1.44028E-06-2.72441E-19 1.88407E-19
 -1      3258 9.52938E-05-2.84907E-05-2.86295E-05-1.20848E-06 8.91872E-20-4.62479E-19
 -1      3259 9.52982E-05-2.83992E-05-2.86657E-05-1.11041E-06 5.29862E-20-3.97219E-19
 -1      3260 9.55891E-05-2.85681E-05-2.87269E-05-1.20061E-06 3.01605E-19-9.46488E-19
 -1      3261 1.48260E-04-4.78164E-05-4.30528E-05-1.61765E-05 1.31550E-18-1.05456E-19
 -1      3262 9.53319E-05-2.82837E-05-2.87362E-05-9.68510E-07-1.04622E-19-2.31835E-19
 -1      3263 9.53585E-05-2.81278E-05-2.88045E-05-7.75347E-07 6.76696E-21-4.19570E-19
 -1      3264 9.56984E-05-2.79592E-05-2.90362E-05-5.32954E-07 5.77905E-21-5.76479E-19
 -1      3265 9.56519E-05-2.83531E-05-2.88467E-05-9.63953E-07 3.24962E-20-7.12464E-19
 -1      3266 1.17641E-04-1.40100E-05-4.47763E-05 8.80738E-06 1.06504E-18 1.35411E-18
 -1      3267 1.16104E-04-1.00524E-05-4.59868E-05 3.83669E-06 8.81444E-19 1.26267E-18
 -1      3268 1.10642E-04-5.27621E-05-2.49045E-05 2.86213E-05-1.10024E-18-2.67464E-19
 -1      3269 9.72039E-05-4.59269E-05-2.15373E-05 3.40149E-05-7.43430E-19-3.58904E-19
 -1      3270 9.52118E-05-2.42746E-05-3.04042E-05 4.27450E-06 4.44844E-19-6.21997E-19
 -1      3271 9.46426E-05-2.27277E-05-3.08099E-05 4.77591E-06 4.45848E-19-7.15686E-19
 -1      3272 9.49202E-05-2.35826E-05-3.05734E-05 3.66684E-06 4.68100E-19-7.77878E-19
 -1      3273 9.52401E-05-2.51983E-05-3.00310E-05 2.99928E-06 4.38141E-19-6.41660E-19
 -1      3274 8.10199E-05-3.71599E-05-1.89363E-05 3.63540E-05-6.85567E-20 1.43043E-19
 -1      3275 6.67687E-05-2.75276E-05-1.63255E-05 3.32922E-05 3.04535E-19-4.07476E-19
 -1      3276 5.38340E-05-1.94396E-05-1.45495E-05 2.74801E-05 9.05796E-19-8.03093E-19
 -1      3277 4.56363E-05-1.29553E-05-1.35862E-05 1.54567E-05 1.01842E-18-1.52826E-18
 -1      3278 9.34861E-05-1.98489E-05-3.15523E-05-6.23763E-06-4.75935E-19-4.59280E-19
 -1      3279 1.43859E-04-2.61738E-05-5.09063E-05 1.71768E-05 5.63489E-19 3.18696E-19
 -1      3280 9.32076E-05-4.12216E-05-2.24020E-05-2.99126E-05-4.85509E-19-1.63059E-18
 -1      3281 1.00923E-04-4.11317E-05-2.53808E-05-2.44708E-05-1.06575E-18-1.42452E-18
 -1      3282 9.56845E-05-3.51037E-05-2.57458E-05-2.35066E-05-6.30841E-19-1.18541E-18
 -1      3283 7.81006E-05-3.26367E-05-1.89211E-05-3.04429E-05 4.45222E-20-8.23581E-19
 -1      3284 1.15967E-04-9.04910E-06-4.62350E-05-8.82585E-07 8.19081E-19 1.11087E-18
 -1      3285 1.16980E-04-1.17265E-05-4.55503E-05-6.64485E-06 9.43383E-20 1.43022E-18
 -1      3286 1.12463E-04-1.17112E-05-4.34056E-05 1.35995E-06 6.63544E-19 1.32630E-18
 -1      3287 4.16964E-05-1.04289E-05-1.30465E-05 1.65390E-06 8.93573E-19-2.64687E-18
 -1      3288 4.35009E-05-1.23806E-05-1.29206E-05-1.06700E-05 8.42851E-19-2.48551E-18
 -1      3289 9.22201E-05-1.80302E-05-3.18086E-05 4.07343E-07 6.75282E-20-8.68453E-19
 -1      3290 9.22163E-05-1.80256E-05-3.18091E-05-3.60469E-07 4.72844E-20-7.40033E-19
 -1      3291 9.31718E-05-1.96088E-05-3.15090E-05 6.27458E-07 8.97029E-20-8.19298E-19
 -1      3292 9.12146E-05-4.02861E-05-2.15020E-05 3.15135E-05-7.85517E-19-8.29483E-19
 -1      3293 8.57633E-05-2.97232E-05-2.41381E-05-2.42683E-05-6.47583E-19-6.96632E-19
 -1      3294 5.65965E-05-1.98304E-05-1.52049E-05-2.67129E-05-8.15799E-19 4.79209E-19
 -1      3295 6.48909E-05-2.43144E-05-1.71769E-05-2.88050E-05-1.16925E-18-9.03149E-19
 -1      3296 5.42194E-05-1.62347E-05-1.60612E-05-1.99930E-05-6.59442E-19 7.55606E-19
 -1      3297 6.51222E-05-2.32319E-05-1.75618E-05 2.72667E-05 7.84405E-19-9.43542E-19
 -1      3298 1.30097E-04-4.11024E-05-3.83774E-05 8.93755E-06-6.18916E-19 1.48390E-18
 -1      3299 1.25122E-04-3.48898E-05-3.89058E-05 1.16425E-05-2.39022E-19 1.79169E-18
 -1      3300 1.27721E-04-4.46342E-05-3.56593E-05 5.74775E-06-8.65694E-19 1.90498E-18
 -1      3301 5.29883E-05-1.42109E-05-1.60895E-05-1.29841E-05 2.87237E-19-1.07102E-18
 -1      3302 4.95742E-05-1.57758E-05-1.39735E-05-1.81909E-05 6.48695E-19-8.77103E-19
 -1      3303 1.08299E-04-5.04044E-05-2.46846E-05-2.74010E-05 1.38580E-18 1.94356E-18
 -1      3304 1.15850E-04-5.45125E-05-2.62217E-05-2.50140E-05 1.97930E-18 3.01058E-18
 -1      3305 1.18759E-04-5.31913E-05-2.80346E-05-1.72073E-05 1.52062E-18 3.43688E-18
 -1      3306 9.57391E-05-2.79044E-05-2.90693E-05-3.72612E-06 1.57650E-18 3.21028E-18
 -1      3307 9.55067E-05-2.76646E-05-2.90714E-05-3.46015E-06 1.49773E-18 3.33645E-18
 -1      3308 5.99622E-05-2.33534E-05-1.56314E-05-2.69127E-05 5.95358E-19-4.96997E-19
 -1      3309 9.53676E-05-2.66043E-05-2.94793E-05 1.23992E-06 3.66469E-19-6.56829E-19
 -1      3310 9.54261E-05-2.60234E-05-2.97340E-05 2.10440E-06 4.10450E-19-6.51075E-19
 -1      3311 9.53712E-05-2.53190E-05-3.00171E-05 2.49220E-06 4.23998E-19-6.80978E-19
 -1      3312 9.25657E-05-1.86259E-05-3.17002E-05 2.41772E-06 2.93549E-19-7.80151E-19
 -1      3313 9.33823E-05-1.99901E-05-3.14312E-05 1.80558E-06 3.09087E-19-7.52462E-19
 -1      3314 9.28079E-05-1.90506E-05-3.16319E-05 3.10972E-06 3.69324E-19-5.53571E-19
 -1      3315 7.38608E-05-2.06275E-05-2.26577E-05 1.93751E-05 5.18411E-19-8.88815E-19
 -1      3316 7.94211E-05-3.40458E-05-1.92560E-05-3.34416E-05-6.31940E-19-2.08079E-18
 -1      3317 8.53701E-05-3.99744E-05-1.90855E-05-3.65554E-05 3.65283E-21-2.22272E-18
 -1      3318 9.48654E-05-4.38419E-05-2.17720E-05-3.26710E-05 8.30251E-19-2.22444E-18
 -1      3319 1.19002E-04-1.91703E-05-4.32544E-05 1.12064E-05 9.85417E-19 1.39729E-18
 -1      3320 1.13903E-04-1.66634E-05-4.18061E-05 9.54362E-06 7.16378E-19 1.05628E-18
 -1      3321 1.20016E-04-2.49426E-05-4.09557E-05 1.23753E-05 4.45645E-19 1.47161E-18
 -1      3322 9.30610E-05-1.94950E-05-3.15372E-05-3.61421E-06-3.10754E-19-3.47315E-19
 -1      3323 9.34352E-05-2.01672E-05-3.14228E-05-4.22593E-06-3.99910E-19-4.20095E-19
 -1      3324 5.98128E-05-1.74574E-05-1.78892E-05 1.78933E-05 8.91555E-19-7.25537E-19
 -1      3325 9.11039E-05-2.38316E-05-2.88212E-05-8.63724E-07 6.36572E-19 4.13256E-19
 -1      3326 9.14649E-05-2.38910E-05-2.89607E-05-2.75688E-07 1.03481E-18 4.30437E-19
 -1      3327 9.13869E-05-2.38015E-05-2.89738E-05 4.52748E-07 1.07299E-18 5.75379E-19
 -1      3328 9.33327E-05-2.51313E-05-2.92232E-05 4.40508E-06 1.51609E-18-7.56187E-19
 -1      3329 1.27941E-04-5.32140E-05-3.20443E-05-6.20341E-06-1.06025E-19 1.93671E-18
 -1      3330 9.14277E-05-2.37625E-05-2.90055E-05 1.31119E-06 1.47172E-18 9.83525E-19
 -1      3331 9.15950E-05-2.38595E-05-2.90314E-05 2.01573E-06 7.86707E-19-6.15079E-19
 -1      3332 9.08698E-05-2.35007E-05-2.88615E-05 8.42681E-07 1.24989E-18 1.99008E-19
 -1      3333 9.25510E-05-1.85961E-05-3.17050E-05-2.37180E-06-4.26247E-20-4.46496E-19
 -1      3334 9.27778E-05-1.89988E-05-3.16378E-05-3.08506E-06-1.79149E-19-3.29983E-19
 -1      3335 9.37572E-05-2.07485E-05-3.12753E-05-2.79168E-06-2.79902E-19-2.47879E-19
 -1      3336 5.05989E-05-1.14031E-05-1.65914E-05 2.80973E-06-1.29532E-18 3.29284E-19
 -1      3337 4.51962E-05-1.08561E-05-1.42074E-05-2.64233E-06-4.56299E-19 9.52489E-19
 -1      3338 5.06814E-05-1.21443E-05-1.63475E-05-8.73956E-06-1.56117E-18 1.22169E-18
 -1      3339 1.32245E-04-5.31658E-05-3.39552E-05 4.81552E-06-6.77970E-19-3.27643E-19
 -1      3340 1.28000E-04-5.39064E-05-3.18560E-05 8.08748E-06-9.26800E-19 1.24381E-19
 -1      3341 1.30361E-04-4.86579E-05-3.53347E-05-2.01450E-06-8.31654E-19-1.23349E-18
 -1      3342 9.53861E-05-2.73977E-05-2.91436E-05 1.69606E-07 2.46911E-19-5.29295E-19
 -1      3343 9.54513E-05-2.70175E-05-2.93165E-05 7.31482E-07 3.12107E-19-5.62853E-19
 -1      3344 9.55763E-05-2.66096E-05-2.95609E-05 1.03596E-06 2.90191E-19-6.19615E-19
 -1      3345 9.56774E-05-2.73870E-05-2.92740E-05 1.16109E-07 1.68854E-19-4.46574E-19
 -1      3346 9.54248E-05-2.77484E-05-2.90064E-05-4.08229E-06 2.38604E-18 3.01995E-18
 -1      3347 1.17733E-04-1.51791E-05-4.44668E-05-9.17021E-06-1.04905E-18 1.27129E-18
 -1      3348 1.18357E-04-1.93811E-05-4.27105E-05-1.12696E-05-1.61778E-18 2.94715E-19
 -1      3349 1.12831E-04-1.39368E-05-4.25981E-05-7.19359E-06-2.46592E-19 2.75815E-20
 -1      3350 9.43678E-05-2.19735E-05-3.09992E-05 3.64213E-06 4.75886E-19-6.65165E-19
 -1      3351 9.34490E-05-2.02082E-05-3.14145E-05 4.24442E-06 4.35538E-19-6.92990E-19
 -1      3352 9.30969E-05-1.95496E-05-3.15298E-05 3.65910E-06 3.90253E-19-6.28803E-19
 -1      3353 1.20970E-04-5.44278E-05-2.86217E-05 1.67771E-05-1.73390E-18 1.47066E-19
 -1      3354 1.16926E-04-5.43049E-05-2.66351E-05 2.31408E-05-1.36955E-18-1.37166E-19
 -1      3355 1.10333E-04-5.05042E-05-2.56023E-05 2.45089E-05-1.21745E-18-7.54111E-19
 -1      3356 9.19130E-05-2.40742E-05-2.90870E-05 2.78917E-06 6.40872E-19-9.37212E-19
 -1      3357 9.23205E-05-2.43750E-05-2.91234E-05 3.30432E-06 8.90706E-19-1.64608E-19
 -1      3358 9.12028E-05-2.36364E-05-2.89547E-05 2.51141E-06 5.29303E-19-7.26295E-19
 -1      3359 9.49364E-05-2.71401E-05-2.90607E-05-3.53156E-06 1.72853E-18 3.69595E-18
 -1      3360 9.47662E-05-2.71121E-05-2.89972E-05-3.86388E-06 2.34922E-18 1.98395E-18
 -1      3361 9.40895E-05-2.15406E-05-3.11018E-05-4.87008E-06-4.35640E-19-4.22641E-19
 -1      3362 1.30917E-04-3.49673E-05-4.14472E-05-1.09853E-05-8.18393E-19-1.91165E-19
 -1      3363 1.29896E-04-4.03786E-05-3.85541E-05-8.44691E-06-9.24245E-19-1.18590E-18
 -1      3364 1.24975E-04-2.88395E-05-4.14877E-05-1.28677E-05-1.21163E-18 7.66565E-20
 -1      3365 5.41179E-05-1.35038E-05-1.71608E-05 1.32861E-05 1.05553E-18-1.55568E-18
 -1      3366 4.69544E-05-1.13768E-05-1.47944E-05 8.55343E-06 1.17069E-18-1.75235E-18
 -1      3367 5.01058E-05-1.10268E-05-1.66264E-05 1.33149E-06 1.04245E-18-1.94495E-18
 -1      3368 7.40979E-05-2.64545E-05-1.99951E-05-2.51404E-05-2.21499E-19-4.17058E-19
 -1      3369 9.54253E-05-2.75764E-05-2.90736E-05-3.27337E-06 1.11178E-18 3.30284E-18
 -1      3370 9.40806E-05-2.14752E-05-3.11118E-05-4.22009E-06-3.58592E-19-3.68631E-19
 -1      3371 5.43573E-05-1.21753E-05-1.76946E-05-8.10063E-06 1.06792E-19-1.06504E-18
 -1      3372 5.91042E-05-1.55546E-05-1.86836E-05-1.57385E-05-2.61985E-19 1.02703E-19
 -1      3373 9.57852E-05-2.57755E-05-2.99986E-05-1.23163E-06-9.87219E-21-2.20635E-19
 -1      3374 9.59263E-05-2.64598E-05-2.97796E-05-6.48480E-07-9.61754E-20-9.79322E-20
 -1      3375 9.60984E-05-2.70549E-05-2.95826E-05-2.51621E-07-6.83470E-20 1.88564E-20
 -1      3376 9.61399E-05-2.75032E-05-2.94217E-05 1.37337E-07 2.09534E-20 8.76954E-20
 -1      3377 9.60835E-05-2.64905E-05-2.98242E-05-5.06575E-07 7.65680E-20-2.09747E-19
 -1      3378 9.62002E-05-2.78792E-05-2.92740E-05 3.99267E-07-9.79386E-20-1.81863E-20
 -1      3379 9.61877E-05-2.81579E-05-2.91593E-05 6.42642E-07-2.03278E-19 2.88236E-20
 -1      3380 9.63172E-05-2.75468E-05-2.94739E-05 1.74113E-07-7.19275E-20-8.06604E-20
 -1      3381 9.61764E-05-2.83780E-05-2.90517E-05 8.03292E-07-3.01354E-19-1.05827E-20
 -1      3382 9.61375E-05-2.85368E-05-2.89732E-05 9.46125E-07-1.65717E-19-1.10400E-20
 -1      3383 9.63660E-05-2.82060E-05-2.92129E-05 6.16930E-07-2.24811E-19-2.87238E-19
 -1      3384 9.60820E-05-2.86470E-05-2.88978E-05 1.03698E-06-2.50989E-19-6.06347E-20
 -1      3385 9.60305E-05-2.87201E-05-2.88472E-05 1.11621E-06-3.96979E-19-2.81282E-19
 -1      3386 9.63015E-05-2.85818E-05-2.90245E-05 8.86148E-07-2.94500E-19-1.83178E-19
 -1      3387 9.59482E-05-2.87516E-05-2.87971E-05 1.16572E-06-4.13352E-19-5.30637E-20
 -1      3388 9.58910E-05-2.87633E-05-2.87678E-05 1.21067E-06-3.26806E-19 4.06526E-20
 -1      3389 9.61664E-05-2.87511E-05-2.88941E-05 1.04196E-06-3.33913E-19-4.60432E-19
 -1      3390 9.57925E-05-2.87383E-05-2.87374E-05 1.24182E-06-3.16436E-19 9.11812E-21
 -1      3391 9.57332E-05-2.87055E-05-2.87242E-05 1.27520E-06-4.93803E-19-1.88591E-19
 -1      3392 9.59884E-05-2.87708E-05-2.88091E-05 1.13530E-06-4.61855E-19-3.24820E-19
 -1      3393 9.56240E-05-2.86395E-05-2.87085E-05 1.30616E-06-5.38398E-19-1.03519E-19
 -1      3394 9.55644E-05-2.85748E-05-2.87073E-05 1.34530E-06-5.42732E-19-1.99433E-19
 -1      3395 9.57833E-05-2.86817E-05-2.87591E-05 1.20725E-06-4.84124E-19-4.34499E-19
 -1      3396 9.54476E-05-2.84794E-05-2.87024E-05 1.39039E-06-5.74597E-19-5.83162E-23
 -1      3397 9.53889E-05-2.83925E-05-2.87098E-05 1.44845E-06-6.80690E-19 6.51163E-21
 -1      3398 9.55598E-05-2.85133E-05-2.87350E-05 1.29044E-06-4.41924E-19-1.01684E-19
 -1      3399 9.52662E-05-2.82769E-05-2.87122E-05 1.51906E-06-5.90679E-19 1.28288E-19
 -1      3400 9.52103E-05-2.81769E-05-2.87253E-05 1.60587E-06-4.46423E-19 1.40892E-19
 -1      3401 9.53222E-05-2.82886E-05-2.87291E-05 1.41079E-06-4.59761E-19-7.49189E-20
 -1      3402 9.50836E-05-2.80501E-05-2.87316E-05 1.71120E-06-6.12364E-19 5.92064E-20
 -1      3403 9.50338E-05-2.79470E-05-2.87477E-05 1.83373E-06-5.78853E-19 1.79636E-19
 -1      3404 9.50742E-05-2.80273E-05-2.87345E-05 1.58932E-06-5.96852E-19-1.26354E-19
 -1      3405 9.49071E-05-2.78203E-05-2.87548E-05 1.98122E-06-9.89296E-19 2.18750E-19
 -1      3406 9.48702E-05-2.77271E-05-2.87713E-05 2.14359E-06-1.04977E-18-1.33864E-19
 -1      3407 9.48213E-05-2.77512E-05-2.87443E-05 1.84331E-06-6.94768E-19 1.81309E-19
 -1      3408 9.47516E-05-2.76155E-05-2.87760E-05 2.33890E-06-8.02570E-19-3.06091E-19
 -1      3409 9.47393E-05-2.75508E-05-2.87901E-05 2.54196E-06-7.11724E-19-6.31398E-19
 -1      3410 9.45752E-05-2.74878E-05-2.87519E-05 2.18696E-06-9.96111E-19 4.18404E-19
 -1      3411 9.46438E-05-2.74764E-05-2.87889E-05 2.78855E-06-1.82645E-19-4.44536E-19
 -1      3412 9.46749E-05-2.74662E-05-2.87980E-05 3.02872E-06-7.39690E-20-2.76172E-19
 -1      3413 9.43583E-05-2.72764E-05-2.87503E-05 2.63127E-06-4.00587E-19 5.46805E-19
 -1      3414 9.46277E-05-2.74604E-05-2.87878E-05 3.32666E-06 6.76902E-20-2.56926E-20
 -1      3415 9.47313E-05-2.75408E-05-2.87893E-05 3.59417E-06 5.47110E-19 8.06391E-19
 -1      3416 9.42095E-05-2.71729E-05-2.87326E-05 3.18276E-06 4.52897E-19 6.80668E-19
 -1      3417 9.47719E-05-2.76465E-05-2.87675E-05 3.93782E-06 6.62974E-19 6.67211E-19
 -1      3418 9.49894E-05-2.78646E-05-2.87602E-05 4.21369E-06 9.85597E-19 7.97718E-19
 -1      3419 9.41921E-05-2.72556E-05-2.86925E-05 3.84062E-06 7.26147E-19 4.80358E-19
 -1      3420 9.51757E-05-2.81373E-05-2.87262E-05 4.58747E-06 7.02953E-19 2.49265E-19
 -1      3421 9.55624E-05-2.85502E-05-2.87112E-05 4.83895E-06 8.75139E-19-3.12198E-19
 -1      3422 9.44016E-05-2.76298E-05-2.86265E-05 4.59079E-06 6.15902E-19-1.34267E-19
 -1      3423 9.59744E-05-2.90558E-05-2.86685E-05 5.20976E-06 1.12172E-18-4.54984E-19
 -1      3424 9.65968E-05-2.97235E-05-2.86519E-05 5.38351E-06 8.55737E-19-3.73967E-19
 -1      3425 9.49738E-05-2.84274E-05-2.85368E-05 5.39490E-06 5.53238E-19-4.07470E-19
 -1      3426 9.73362E-05-3.05287E-05-2.86113E-05 5.68778E-06 2.99241E-19-3.39788E-19
 -1      3427 9.82613E-05-3.14965E-05-2.86077E-05 5.70059E-06-1.18726E-19-2.73656E-19
 -1      3428 9.60897E-05-2.97984E-05-2.84371E-05 6.17011E-06 6.05599E-19-7.34177E-19
 -1      3429 9.94410E-05-3.26453E-05-2.85930E-05 5.82684E-06-1.63744E-19 1.09872E-19
 -1      3430 1.00710E-04-3.39092E-05-2.86303E-05 5.55677E-06-5.73567E-21-2.78131E-19
 -1      3431 9.79652E-05-3.18778E-05-2.83618E-05 6.75640E-06-1.32023E-19-1.37750E-19
 -1      3432 1.02430E-04-3.53790E-05-2.86862E-05 5.31246E-06-2.46872E-20-2.86537E-19
 -1      3433 1.03998E-04-3.68076E-05-2.88113E-05 4.59780E-06-1.66037E-19-1.72580E-19
 -1      3434 1.00824E-04-3.47290E-05-2.83789E-05 6.87217E-06-7.52279E-20 2.89960E-20
 -1      3435 1.06238E-04-3.83996E-05-2.90127E-05 3.70376E-06 3.15384E-19-1.53848E-19
 -1      3436 1.07887E-04-3.96321E-05-2.92898E-05 2.39412E-06 4.54415E-19-1.02458E-19
 -1      3437 1.04788E-04-3.81596E-05-2.86154E-05 6.00884E-06 2.72804E-20 5.01398E-19
 -1      3438 1.10387E-04-4.08692E-05-2.97366E-05 5.90316E-07-1.67235E-19 1.08038E-19
 -1      3439 1.11709E-04-4.12710E-05-3.02378E-05-1.32651E-06-8.01575E-20-2.91860E-19
 -1      3440 1.09596E-04-4.14566E-05-2.92581E-05 3.62814E-06 1.91092E-19-1.91525E-20
 -1      3441 1.13682E-04-4.12321E-05-3.10401E-05-3.99425E-06-2.92752E-19-9.20937E-19
 -1      3442 1.14071E-04-4.00277E-05-3.18042E-05-6.03463E-06-1.13391E-18-9.99873E-19
 -1      3443 1.14194E-04-4.30521E-05-3.05490E-05-9.27850E-07-6.83589E-19-9.44326E-19
 -1      3444 1.14923E-04-3.79084E-05-3.30142E-05-9.22606E-06-1.39076E-18-4.42080E-19
 -1      3445 1.13739E-04-3.42860E-05-3.40255E-05-1.04611E-05-1.74140E-18-5.23423E-19
 -1      3446 1.17401E-04-4.12403E-05-3.27618E-05-6.83247E-06-7.49657E-19-1.61537E-18
 -1      3447 1.12251E-04-2.98738E-05-3.54894E-05-1.17468E-05-2.00669E-18-2.60064E-19
 -1      3448 1.10176E-04-2.51880E-05-3.64230E-05-1.08498E-05-1.05501E-18-1.00212E-18
 -1      3449 1.16487E-04-3.36278E-05-3.55267E-05-1.14230E-05-1.32972E-18 7.33610E-19
 -1      3450 1.09437E-04-2.02821E-05-3.84337E-05-9.43617E-06-4.71294E-19-4.34715E-19
 -1      3451 1.07642E-04-1.67515E-05-3.90581E-05-5.98682E-06-2.77880E-19 1.19782E-19
 -1      3452 1.07073E-04-1.47462E-05-3.97410E-05 1.26686E-06 7.27654E-20-1.25030E-19
 -1      3453 1.07819E-04-1.62863E-05-3.95249E-05 5.45152E-06-3.07049E-21 1.37365E-19
 -1      3454 1.11667E-04-2.86291E-05-3.55954E-05 1.11680E-05-1.11001E-19 4.34260E-19
 -1      3455 1.13496E-04-3.31083E-05-3.46104E-05 1.12074E-05 7.54455E-20 3.31853E-19
 -1      3456 1.14370E-04-3.69470E-05-3.31955E-05 9.08856E-06 1.44475E-19 9.63947E-20
 -1      3457 1.14851E-04-3.97278E-05-3.22529E-05 7.24605E-06-7.10802E-19-3.54560E-19
 -1      3458 1.17367E-04-3.69099E-05-3.44763E-05 1.00380E-05-2.74042E-19 2.38393E-19
 -1      3459 1.13661E-04-4.10079E-05-3.11778E-05 4.26917E-06-1.24427E-18-3.93155E-19
 -1      3460 1.12880E-04-4.16554E-05-3.04952E-05 2.09242E-06-1.04776E-18 4.17792E-20
 -1      3461 1.16657E-04-4.23144E-05-3.18338E-05 4.47728E-06-7.03560E-19-1.09691E-18
 -1      3462 1.10579E-04-4.10924E-05-2.98250E-05-3.59750E-07-9.32102E-19 5.34829E-19
 -1      3463 1.09086E-04-4.03153E-05-2.94097E-05-2.10508E-06-6.23435E-19 6.31511E-19
 -1      3464 1.12895E-04-4.29912E-05-2.99938E-05-1.15402E-06-6.87711E-19 8.77830E-19
 -1      3465 1.06642E-04-3.88828E-05-2.90675E-05-3.58350E-06-2.09234E-19 9.26371E-19
 -1      3466 1.04987E-04-3.75197E-05-2.88560E-05-4.69577E-06-3.73953E-19 2.01995E-18
 -1      3467 1.08025E-04-4.05722E-05-2.89643E-05-4.90890E-06-1.31662E-19 1.90371E-18
 -1      3468 1.02933E-04-3.59348E-05-2.87236E-05-5.34115E-06-6.87981E-19 2.20049E-18
 -1      3469 1.01466E-04-3.45358E-05-2.86411E-05-5.90023E-06 5.10834E-19 1.59291E-18
 -1      3470 1.03492E-04-3.71171E-05-2.85059E-05-6.73044E-06-3.55990E-19 2.18634E-18
 -1      3471 9.99629E-05-3.31675E-05-2.86251E-05-6.00723E-06 1.06147E-18 4.50449E-19
 -1      3472 9.88228E-05-3.19901E-05-2.86141E-05-6.17950E-06 4.62288E-19 7.50290E-19
 -1      3473 9.99589E-05-3.38489E-05-2.83815E-05-7.20784E-06-1.56117E-19 5.96664E-19
 -1      3474 9.78242E-05-3.09478E-05-2.86543E-05-5.99065E-06 1.01249E-18 1.93292E-18
 -1      3475 9.70144E-05-3.00608E-05-2.86772E-05-5.91957E-06 1.99455E-18 1.75239E-18
 -1      3476 9.74982E-05-3.12452E-05-2.84290E-05-6.92318E-06 1.27308E-18-3.83503E-19
 -1      3477 9.64124E-05-2.93352E-05-2.87391E-05-5.58936E-06 2.20581E-18 2.09076E-18
 -1      3478 9.58778E-05-2.87158E-05-2.87743E-05-5.37957E-06 3.22478E-18 3.05500E-18
 -1      3479 9.59377E-05-2.93687E-05-2.85517E-05-6.26591E-06 2.73342E-18 4.62411E-19
 -1      3480 9.55540E-05-2.82401E-05-2.88405E-05-4.99540E-06 3.26915E-18 2.90926E-18
 -1      3481 9.52082E-05-2.78213E-05-2.88766E-05-4.71581E-06 2.68458E-18 2.51937E-18
 -1      3482 9.50437E-05-2.81161E-05-2.86978E-05-5.46523E-06 3.83731E-18 1.06424E-18
 -1      3483 9.58440E-05-2.86409E-05-2.88013E-05-1.15934E-06 3.25564E-19-9.30200E-19
 -1      3484 9.58788E-05-2.85523E-05-2.88503E-05-1.06528E-06 1.55610E-19-9.17657E-19
 -1      3485 9.52162E-05-2.81523E-05-2.87383E-05-1.65494E-06-2.09142E-19-3.63364E-19
 -1      3486 9.52612E-05-2.82713E-05-2.87130E-05-1.56364E-06-3.22126E-19-3.92151E-19
 -1      3487 9.53764E-05-2.83986E-05-2.87017E-05-1.49971E-06-2.10283E-19-6.46179E-19
 -1      3488 9.54135E-05-2.84859E-05-2.86853E-05-1.44261E-06-3.34524E-19-4.13120E-19
 -1      3489 9.53368E-05-2.82952E-05-2.87320E-05-1.47792E-06-1.88606E-19-3.39509E-19
 -1      3490 9.47597E-05-2.74354E-05-2.88497E-05-2.23048E-06-4.16566E-19 6.16793E-19
 -1      3491 9.48436E-05-2.76287E-05-2.88121E-05-2.03612E-06-1.20696E-19 4.23851E-19
 -1      3492 9.44113E-05-2.69369E-05-2.89141E-05-2.68813E-06-2.43371E-20 7.69612E-19
 -1      3493 9.45333E-05-2.71785E-05-2.88737E-05-2.42698E-06-2.94383E-19 5.09812E-19
 -1      3494 9.43837E-05-2.70898E-05-2.88359E-05-2.21363E-06-4.44287E-19 4.44742E-19
 -1      3495 9.39306E-05-2.63178E-05-2.89739E-05-3.27971E-06 8.38858E-20 1.14363E-18
 -1      3496 9.41100E-05-2.66180E-05-2.89347E-05-2.94287E-06 4.38757E-20 1.06650E-18
 -1      3497 9.38652E-05-2.64775E-05-2.88735E-05-2.64611E-06-1.15575E-19 4.54752E-19
 -1      3498 9.32617E-05-2.55540E-05-2.90154E-05-4.01703E-06-8.21291E-20 9.12106E-19
 -1      3499 9.35242E-05-2.59235E-05-2.89840E-05-3.59691E-06 2.31625E-19 1.20715E-18
 -1      3500 9.31706E-05-2.57244E-05-2.88951E-05-3.18634E-06 1.57568E-19 6.46461E-19
 -1      3501 9.23332E-05-2.46249E-05-2.90170E-05-4.90887E-06-7.53725E-19 1.29427E-18
 -1      3502 9.27111E-05-2.50714E-05-2.90043E-05-4.39927E-06-3.24978E-19 1.10696E-18
 -1      3503 9.22324E-05-2.48053E-05-2.88821E-05-3.83537E-06-2.74382E-19 7.91734E-19
 -1      3504 9.10594E-05-2.35245E-05-2.89442E-05-5.96337E-06-7.00649E-19 1.28919E-18
 -1      3505 9.15895E-05-2.40458E-05-2.89679E-05-5.35844E-06-6.66588E-19 1.15661E-18
 -1      3506 9.09643E-05-2.36993E-05-2.88061E-05-4.58998E-06-7.26424E-19 1.07402E-18
 -1      3507 8.93483E-05-2.22827E-05-2.87440E-05-7.19722E-06 1.01306E-19 5.87754E-19
 -1      3508 9.00640E-05-2.28538E-05-2.88314E-05-6.48676E-06-2.16892E-19 8.69250E-19
 -1      3509 8.92603E-05-2.24008E-05-2.86237E-05-5.44813E-06-2.29168E-19 2.78208E-19
 -1      3510 8.71204E-05-2.10016E-05-2.83368E-05-8.66010E-06-1.35031E-19 6.12328E-19
 -1      3511 8.80342E-05-2.15522E-05-2.85287E-05-7.81679E-06 2.24811E-20 5.23256E-19
 -1      3512 8.69955E-05-2.09371E-05-2.82692E-05-6.42464E-06 2.94027E-19-3.81655E-19
 -1      3513 8.43479E-05-1.99140E-05-2.76058E-05-1.04873E-05-2.30353E-20 5.06098E-19
 -1      3514 8.54154E-05-2.02913E-05-2.79607E-05-9.43947E-06-1.58488E-19 5.17301E-19
 -1      3515 8.40290E-05-1.93957E-05-2.76437E-05-7.58824E-06-1.81961E-19-6.24329E-19
 -1      3516 8.10968E-05-1.94850E-05-2.63811E-05-1.30099E-05-1.83474E-19 8.07646E-19
 -1      3517 8.21820E-05-1.93896E-05-2.69800E-05-1.15785E-05 9.71358E-21 7.21258E-19
 -1      3518 8.02078E-05-1.79680E-05-2.65970E-05-9.13537E-06-4.28489E-19-3.77658E-19
 -1      3519 7.74432E-05-2.06906E-05-2.43919E-05-1.70337E-05-6.15621E-19 4.42409E-19
 -1      3520 7.83706E-05-1.93532E-05-2.53674E-05-1.46333E-05-7.38325E-20 9.16860E-19
 -1      3521 7.54911E-05-1.71082E-05-2.48948E-05-1.15004E-05-1.14220E-19 1.78117E-19
 -1      3522 8.74392E-05-2.12987E-05-2.83753E-05 5.93466E-06-1.20905E-18-1.23923E-18
 -1      3523 8.62499E-05-2.06102E-05-2.81444E-05 6.46880E-06-6.74462E-19-1.46138E-18
 -1      3524 9.84292E-05-4.33700E-05-2.36805E-05 2.79882E-05-8.90007E-19-1.46455E-18
 -1      3525 8.56203E-05-3.48741E-05-2.14635E-05 2.95327E-05-2.25734E-19-9.79699E-19
 -1      3526 6.64359E-05-1.78117E-05-2.07266E-05 1.65271E-05 3.01646E-19 2.02759E-20
 -1      3527 5.67039E-05-1.27326E-05-1.83547E-05 9.77102E-06-8.49342E-19 1.00130E-18
 -1      3528 5.79987E-05-1.25083E-05-1.94437E-05 4.01915E-06-1.72427E-18 1.01848E-18
 -1      3529 6.92450E-05-1.62541E-05-2.28067E-05 1.27555E-05-7.14082E-19 5.80998E-19
 -1      3530 8.05852E-05-1.82038E-05-2.67968E-05 7.88816E-06-6.62158E-19 2.52019E-19
 -1      3531 7.86875E-05-1.76276E-05-2.61726E-05 8.77202E-06-4.59874E-19-2.57509E-19
 -1      3532 7.55478E-05-1.68695E-05-2.52317E-05 9.50349E-06 5.67347E-19-1.10976E-19
 -1      3533 7.33214E-05-1.66531E-05-2.42345E-05 1.08965E-05 1.55055E-19-7.22625E-20
 -1      3534 7.46516E-05-1.58580E-05-2.50830E-05 6.09152E-06 1.70654E-19 4.84605E-19
 -1      3535 8.96722E-05-2.26488E-05-2.87474E-05 5.14148E-06-1.37028E-18-7.37052E-19
 -1      3536 8.87859E-05-2.20527E-05-2.86110E-05 5.62147E-06-1.64853E-18-1.07953E-18
 -1      3537 8.71095E-05-2.10703E-05-2.82605E-05 4.55302E-06-1.37822E-18-6.49305E-19
 -1      3538 9.26932E-05-2.46456E-05-2.91729E-05 4.07238E-06 1.00102E-18-3.32586E-19
 -1      3539 9.15895E-05-2.46097E-05-2.86930E-05-2.97069E-06-5.76604E-19-2.52553E-18
 -1      3540 9.10879E-05-2.42113E-05-2.86773E-05-2.36809E-06-2.22117E-19-3.56697E-18
 -1      3541 9.22715E-05-1.81171E-05-3.17917E-05-1.00754E-06 6.62793E-20-6.51116E-19
 -1      3542 9.23816E-05-1.83094E-05-3.17605E-05-1.76256E-06-3.90595E-20-5.59727E-19
 -1      3543 9.33602E-05-1.99725E-05-3.14353E-05-1.75326E-06 3.58236E-20-4.92559E-19
 -1      3544 9.45647E-05-2.25473E-05-3.08589E-05-3.22756E-06-3.28172E-19-4.03508E-19
 -1      3545 9.50178E-05-2.78348E-05-2.87891E-05-1.89189E-06-3.48603E-20-9.73506E-21
 -1      3546 9.50774E-05-2.79882E-05-2.87568E-05-1.75445E-06 3.94116E-20-1.98189E-19
 -1      3547 9.50864E-05-2.79826E-05-2.87577E-05-1.64252E-06-2.75699E-19-2.70763E-19
 -1      3548 9.47780E-05-2.75852E-05-2.87944E-05-1.88274E-06-2.73885E-19 4.10503E-19
 -1      3549 7.20706E-05-2.12867E-05-2.14430E-05-2.08423E-05-5.96185E-19 1.08632E-19
 -1      3550 9.53485E-05-2.47587E-05-3.02506E-05 2.75897E-06 3.72142E-19-7.24338E-19
 -1      3551 9.50684E-05-2.39250E-05-3.04972E-05 2.98980E-06 4.12843E-19-7.37116E-19
 -1      3552 9.54921E-05-2.55941E-05-2.99597E-05 1.86372E-06 3.35993E-19-7.22852E-19
 -1      3553 9.57457E-05-2.87159E-05-2.87259E-05-1.27110E-06 2.11012E-19-6.35535E-19
 -1      3554 9.57800E-05-2.86879E-05-2.87518E-05-1.22097E-06 3.36708E-19-8.11690E-19
 -1      3555 9.60332E-05-2.86867E-05-2.88651E-05-1.10904E-06 2.14834E-19-1.03100E-18
 -1      3556 9.49502E-05-2.73739E-05-2.89585E-05-4.18392E-06 2.67245E-18 2.01711E-18
 -1      3557 9.51401E-05-2.38728E-05-3.05445E-05-2.56289E-06-1.88938E-19-3.75193E-19
 -1      3558 9.54485E-05-2.48765E-05-3.02551E-05-1.75470E-06-6.85320E-20-2.66555E-19
 -1      3559 9.55718E-05-2.49092E-05-3.02805E-05-1.45174E-06-1.59162E-20-1.73770E-19
 -1      3560 9.46138E-05-2.26095E-05-3.08511E-05-2.63483E-06-2.00275E-19-2.83256E-19
 -1      3561 1.23319E-04-5.20188E-05-3.05177E-05-7.69604E-06 6.84720E-19 2.28729E-18
 -1      3562 1.26228E-04-5.01403E-05-3.28901E-05-6.44290E-07-2.92312E-19 2.07216E-18
 -1      3563 8.44691E-05-1.97686E-05-2.77719E-05 6.80984E-06-5.79738E-20-1.97570E-18
 -1      3564 8.29401E-05-1.90673E-05-2.73877E-05 7.45222E-06-4.41284E-20-5.14296E-19
 -1      3565 8.40506E-05-1.94537E-05-2.76305E-05 4.97085E-06-3.96673E-19-4.74507E-19
 -1      3566 7.27647E-05-2.63921E-05-1.99595E-05 2.74987E-05 1.94156E-20-9.71494E-19
 -1      3567 6.28325E-05-1.88551E-05-1.86119E-05 2.13837E-05 6.26785E-19-1.61643E-18
 -1      3568 1.08857E-04-1.94988E-05-3.83978E-05 8.34749E-06 7.48565E-20 2.74624E-22
 -1      3569 9.44853E-05-2.71524E-05-2.88641E-05-4.48564E-06 2.36308E-18 5.15290E-19
 -1      3570 9.19712E-05-2.41354E-05-2.90697E-05 4.07126E-06-1.40947E-19-1.05941E-18
 -1      3571 5.40460E-05-1.35342E-05-1.69270E-05-1.37144E-05-9.75239E-19 1.77983E-18
 -1      3572 5.90305E-05-1.65941E-05-1.80679E-05-1.80256E-05-1.04962E-18 1.27637E-18
 -1      3573 5.57871E-05-1.27313E-05-1.83163E-05-7.94246E-06-1.33829E-18 1.28640E-18
 -1      3574 1.02522E-04-4.66129E-05-2.37917E-05-2.85423E-05 7.84379E-19 1.00765E-18
 -1      3575 1.07894E-04-4.76140E-05-2.57695E-05-2.23246E-05 5.20846E-19 3.83018E-18
 -1      3576 9.55960E-05-4.12625E-05-2.32017E-05-2.81417E-05 3.13535E-19-3.83547E-20
 -1      3577 1.24584E-04-4.56681E-05-3.38736E-05 4.00329E-06-3.45768E-19 1.74126E-18
 -1      3578 1.15932E-04-5.04129E-05-2.80524E-05-1.48452E-05 6.14794E-19 3.13349E-18
 -1      3579 1.20772E-04-5.23535E-05-2.93740E-05-1.14457E-05 7.47877E-19 2.51324E-18
 -1      3580 1.20198E-04-4.92491E-05-3.03381E-05-5.33621E-06 7.04414E-19 2.12256E-18
 -1      3581 1.14043E-04-2.25436E-05-3.93331E-05-1.16931E-05-1.08976E-18 5.00649E-19
 -1      3582 1.18965E-04-2.60265E-05-4.01787E-05-1.26247E-05-1.55213E-18 9.61038E-19
 -1      3583 9.61354E-05-2.84791E-05-2.89981E-05-9.12112E-07 1.38821E-19-1.11509E-18
 -1      3584 9.59207E-05-2.84272E-05-2.89275E-05-9.48849E-07 1.21171E-19-9.83961E-19
 -1      3585 9.59523E-05-2.82548E-05-2.90069E-05-7.76386E-07 2.23885E-20-7.90532E-19
 -1      3586 1.10985E-04-2.37848E-05-3.75804E-05 1.09847E-05-4.93264E-20 8.56430E-20
 -1      3587 9.10907E-05-2.35328E-05-2.89362E-05 3.45991E-06 1.02046E-19-5.10754E-19
 -1      3588 9.14204E-05-2.38013E-05-2.89939E-05 4.27950E-06 3.69787E-20-7.35517E-19
 -1      3589 9.07767E-05-2.33299E-05-2.89125E-05 4.71165E-06-3.12514E-19-7.85373E-19
 -1      3590 9.06590E-05-2.33350E-05-2.88672E-05 2.64620E-06 8.51319E-19-6.33581E-19
 -1      3591 1.15708E-04-2.68497E-05-3.81514E-05 1.23715E-05 1.78353E-19 7.15266E-19
 -1      3592 9.38306E-05-2.07994E-05-3.12683E-05 2.86322E-06 3.42804E-19-6.10595E-19
 -1      3593 9.55483E-05-2.85289E-05-2.87233E-05-1.36978E-06-8.52921E-20-8.54963E-19
 -1      3594 9.55129E-05-2.85780E-05-2.86838E-05-1.40327E-06-4.05553E-19-1.85492E-19
 -1      3595 9.55467E-05-2.86329E-05-2.86782E-05-1.36655E-06-1.11118E-19-3.35135E-19
 -1      3596 6.86163E-05-1.90479E-05-2.11512E-05 1.72965E-05 1.61009E-19-1.72775E-18
 -1      3597 6.10050E-05-1.61436E-05-1.90176E-05 1.69352E-05 5.67029E-19-1.93708E-18
 -1      3598 6.02177E-05-1.40210E-05-1.98005E-05 1.06466E-05 6.82566E-19-2.30854E-18
 -1      3599 7.26283E-05-1.93638E-05-2.26433E-05-1.67554E-05-6.89988E-19-1.09876E-19
 -1      3600 6.71613E-05-1.51221E-05-2.19898E-05-1.22793E-05-8.47959E-20 5.05209E-19
 -1      3601 9.38926E-05-2.10308E-05-3.12379E-05 8.05236E-07 2.04185E-19-7.36504E-19
 -1      3602 9.38413E-05-2.09296E-05-3.12577E-05 2.44737E-07 1.56594E-19-7.86004E-19
 -1      3603 6.77074E-05-2.36773E-05-1.87694E-05-2.62260E-05-9.03149E-19-1.69539E-18
 -1      3604 7.31490E-05-2.85115E-05-1.87417E-05-3.08297E-05-7.68153E-19-2.27778E-18
 -1      3605 8.16351E-05-3.30938E-05-2.06772E-05-2.98822E-05-6.18916E-19-2.82366E-18
 -1      3606 1.07166E-04-1.50651E-05-3.98586E-05-3.44384E-06 2.44184E-19-2.55076E-19
 -1      3607 8.19485E-05-3.01066E-05-2.20367E-05 2.51250E-05 1.04556E-20-1.32124E-18
 -1      3608 9.00287E-05-2.29764E-05-2.87261E-05 1.63632E-06 7.19502E-19-8.45499E-19
 -1      3609 8.97381E-05-2.28049E-05-2.86976E-05 2.64075E-06 3.22935E-19 2.76112E-19
 -1      3610 9.39714E-05-2.12036E-05-3.11956E-05 1.24404E-06 2.20728E-19-7.10449E-19
 -1      3611 9.46371E-05-2.23560E-05-3.09558E-05 8.30437E-07 2.30255E-19-6.28862E-19
 -1      3612 9.41233E-05-2.15236E-05-3.11368E-05 1.75828E-06 2.65967E-19-7.71305E-19
 -1      3613 1.20638E-04-3.14339E-05-3.85021E-05 1.24663E-05-2.82962E-20 9.61594E-19
 -1      3614 9.06124E-05-2.37101E-05-2.86644E-05-1.55472E-06 4.22761E-19-1.61288E-18
 -1      3615 9.03007E-05-2.34458E-05-2.86671E-05-7.67166E-07 1.01449E-18 1.14800E-19
 -1      3616 9.03445E-05-2.37857E-05-2.85213E-05-2.31962E-06-3.69659E-19-2.66508E-18
 -1      3617 6.77184E-05-1.43622E-05-2.26548E-05 8.00641E-06-1.63362E-19 8.00420E-19
 -1      3618 8.95180E-05-2.25240E-05-2.86832E-05 3.97477E-06-6.97850E-19 2.49956E-19
 -1      3619 9.31628E-05-1.95989E-05-3.15103E-05-5.87117E-07 4.40361E-20-7.17584E-19
 -1      3620 1.04083E-04-4.57851E-05-2.47884E-05 2.50263E-05-9.07609E-19-1.04307E-18
 -1      3621 9.81776E-05-4.11058E-05-2.45127E-05 2.44881E-05-8.94573E-19-1.10996E-18
 -1      3622 1.09024E-04-4.78789E-05-2.62333E-05 2.07397E-05-1.16808E-18-1.16672E-18
 -1      3623 8.99380E-05-2.30084E-05-2.86833E-05 7.00180E-07 1.29671E-18 2.44946E-19
 -1      3624 8.00299E-05-1.76887E-05-2.66441E-05 5.41021E-06 3.88408E-19 8.20993E-20
 -1      3625 9.56348E-05-2.86876E-05-2.86896E-05-1.33826E-06-8.50224E-20-3.87309E-19
 -1      3626 9.56682E-05-2.87055E-05-2.86978E-05-1.30528E-06 1.13181E-19-4.59710E-19
 -1      3627 9.57328E-05-2.86816E-05-2.87376E-05-1.29392E-06-2.17568E-19-6.92128E-19
 -1      3628 9.22137E-05-2.51991E-05-2.87336E-05-3.49959E-06-4.20669E-19-1.86643E-18
 -1      3629 9.15919E-05-2.48969E-05-2.85836E-05-3.66449E-06-6.32840E-19-2.33527E-18
 -1      3630 9.28059E-05-2.56591E-05-2.87650E-05-3.86724E-06-3.39957E-19-2.10923E-18
 -1      3631 1.29735E-04-4.45136E-05-3.65614E-05-6.68272E-06-8.39714E-19-1.09765E-18
 -1      3632 1.27548E-04-4.66232E-05-3.45577E-05-3.96034E-06-7.81229E-19-1.34016E-18
 -1      3633 1.25755E-04-3.89881E-05-3.73802E-05-9.91464E-06-5.74024E-19-1.07303E-18
 -1      3634 9.59017E-05-2.73278E-05-2.93940E-05 7.54347E-08 9.53654E-20-6.56080E-19
 -1      3635 9.58624E-05-2.69538E-05-2.95211E-05 4.64298E-07 1.93593E-19-6.85392E-19
 -1      3636 1.25198E-04-5.20202E-05-3.16035E-05 5.01883E-06-1.37659E-18-2.94648E-19
 -1      3637 1.24615E-04-5.42470E-05-3.00575E-05 1.12984E-05-2.28327E-18 2.42172E-19
 -1      3638 1.18629E-04-5.20640E-05-2.85184E-05 1.45665E-05-1.98241E-18-9.28411E-20
 -1      3639 9.48278E-05-2.32778E-05-3.06723E-05 2.77265E-06 3.68357E-19-6.12239E-19
 -1      3640 9.42474E-05-2.17558E-05-3.10676E-05-1.90681E-06-6.16357E-20-1.01484E-19
 -1      3641 9.44590E-05-2.22306E-05-3.09665E-05-2.32254E-06-1.76766E-19-8.66848E-20
 -1      3642 9.50586E-05-2.35018E-05-3.06605E-05-1.73470E-06-5.03385E-20-5.33809E-20
 -1      3643 9.39159E-05-2.66346E-05-2.88259E-05-4.33980E-06 2.07100E-18-2.94054E-19
 -1      3644 9.33212E-05-2.61822E-05-2.87829E-05-4.20678E-06 1.37248E-18-8.46222E-19
 -1      3645 9.28863E-05-2.60256E-05-2.86522E-05-4.50475E-06 1.88482E-18-2.52044E-19
 -1      3646 9.41413E-05-2.71060E-05-2.87237E-05-4.95201E-06 3.22935E-18 7.48055E-19
 -1      3647 5.69038E-05-1.22480E-05-1.89159E-05-2.02354E-06 2.26396E-19-1.38246E-18
 -1      3648 9.59562E-05-2.80203E-05-2.91195E-05-5.70641E-07 3.58258E-20-8.13878E-19
 -1      3649 9.59748E-05-2.77297E-05-2.92387E-05-2.77429E-07 7.66583E-20-7.59853E-19
 -1      3650 9.61773E-05-2.80618E-05-2.91946E-05-5.67959E-07 7.21982E-20-9.48416E-19
 -1      3651 1.19771E-04-3.09361E-05-3.81886E-05-1.23859E-05-9.03202E-19 5.17061E-19
 -1      3652 9.58952E-05-2.87418E-05-2.87820E-05-1.21991E-06 1.49164E-19-7.42579E-19
 -1      3653 9.61043E-05-2.73497E-05-2.94688E-05 6.32666E-09 1.64264E-19-9.08687E-19
 -1      3654 1.20361E-04-3.57241E-05-3.63192E-05 1.09169E-05-4.31193E-19 3.85956E-19
 -1      3655 9.63969E-05-2.72218E-05-2.96444E-05-2.84669E-08-2.18138E-20-1.92979E-19
 -1      3656 9.64641E-05-2.76640E-05-2.94901E-05 2.54156E-07-1.32182E-19-2.64803E-19
 -1      3657 9.65228E-05-2.80309E-05-2.93500E-05 4.25777E-07-2.24290E-19-2.99399E-19
 -1      3658 9.65137E-05-2.83014E-05-2.92368E-05 6.05595E-07-3.01953E-19-3.63874E-19
 -1      3659 9.65912E-05-2.77412E-05-2.95068E-05 2.57425E-07-2.54349E-19-4.04699E-19
 -1      3660 9.64900E-05-2.85078E-05-2.91324E-05 7.10564E-07-3.23759E-19-2.99846E-19
 -1      3661 9.64357E-05-2.86510E-05-2.90517E-05 8.19283E-07-3.19065E-19-3.46634E-19
 -1      3662 9.66233E-05-2.83540E-05-2.92585E-05 5.45393E-07-2.77951E-19-3.48848E-19
 -1      3663 9.63577E-05-2.87417E-05-2.89766E-05 8.79969E-07-3.45296E-19-3.58880E-19
 -1      3664 9.62762E-05-2.87916E-05-2.89218E-05 9.45040E-07-3.50456E-19-3.10949E-19
 -1      3665 9.65218E-05-2.86814E-05-2.90753E-05 7.23355E-07-1.86873E-19-6.34953E-20
 -1      3666 9.61625E-05-2.87975E-05-2.88701E-05 9.81799E-07-3.38786E-19-1.39152E-19
 -1      3667 9.60642E-05-2.87790E-05-2.88354E-05 1.02560E-06-4.15325E-19-6.96512E-20
 -1      3668 9.63315E-05-2.87953E-05-2.89451E-05 8.32562E-07-2.76206E-19-1.51452E-19
 -1      3669 9.59263E-05-2.87227E-05-2.88019E-05 1.05524E-06-3.93890E-19 4.09738E-20
 -1      3670 9.58170E-05-2.86539E-05-2.87825E-05 1.09572E-06-3.13099E-19 2.24512E-19
 -1      3671 9.60820E-05-2.87513E-05-2.88569E-05 9.08802E-07-3.22472E-19 2.52216E-19
 -1      3672 9.56609E-05-2.85514E-05-2.87625E-05 1.13216E-06-2.21051E-19 4.96433E-19
 -1      3673 9.55438E-05-2.84456E-05-2.87542E-05 1.18366E-06-1.81544E-19 6.96219E-19
 -1      3674 9.57904E-05-2.85901E-05-2.88007E-05 9.82098E-07-1.39071E-19 7.29396E-19
 -1      3675 9.53724E-05-2.83089E-05-2.87436E-05 1.23857E-06-4.71454E-19 8.79448E-19
 -1      3676 9.52491E-05-2.81770E-05-2.87426E-05 1.31263E-06-5.26600E-19 7.21404E-19
 -1      3677 9.54653E-05-2.83411E-05-2.87676E-05 1.07767E-06-1.85066E-19 1.04677E-18
 -1      3678 9.50633E-05-2.80162E-05-2.87374E-05 1.39638E-06-6.74094E-19 6.56041E-19
 -1      3679 9.49359E-05-2.78682E-05-2.87403E-05 1.50263E-06-6.03374E-19 6.38699E-19
 -1      3680 9.51105E-05-2.80277E-05-2.87493E-05 1.21736E-06-5.09765E-19 1.08644E-18
 -1      3681 9.47370E-05-2.76935E-05-2.87366E-05 1.62503E-06-5.65049E-19 7.51363E-19
 -1      3682 9.46095E-05-2.75414E-05-2.87399E-05 1.77161E-06-6.93416E-19 1.10415E-18
 -1      3683 9.47277E-05-2.76707E-05-2.87378E-05 1.42153E-06-5.62453E-19 1.26379E-18
 -1      3684 9.44010E-05-2.73659E-05-2.87336E-05 1.94250E-06-9.48349E-19 8.22045E-19
 -1      3685 9.42815E-05-2.72259E-05-2.87338E-05 2.13639E-06-9.41596E-19 6.46989E-19
 -1      3686 9.43214E-05-2.72939E-05-2.87249E-05 1.71041E-06-6.26496E-19 1.06238E-18
 -1      3687 9.40718E-05-2.70679E-05-2.87207E-05 2.36609E-06-5.11494E-19 7.70677E-19
 -1      3688 9.39754E-05-2.69633E-05-2.87140E-05 2.61294E-06 8.61484E-20 8.88308E-19
 -1      3689 9.39027E-05-2.69289E-05-2.87020E-05 2.10535E-06-3.71538E-19 7.49804E-19
 -1      3690 9.37810E-05-2.68498E-05-2.86896E-05 2.91230E-06 3.47524E-19 9.55367E-19
 -1      3691 9.37331E-05-2.68139E-05-2.86724E-05 3.21575E-06 5.71568E-19 9.88376E-19
 -1      3692 9.34954E-05-2.66214E-05-2.86600E-05 2.62977E-06 3.42800E-19 5.41461E-19
 -1      3693 9.35830E-05-2.67836E-05-2.86324E-05 3.59552E-06 5.25987E-19 6.96413E-19
 -1      3694 9.36231E-05-2.68632E-05-2.86019E-05 3.95553E-06 4.52500E-19 2.50858E-19
 -1      3695 9.31434E-05-2.64379E-05-2.85895E-05 3.30911E-06 2.64991E-19 2.75850E-19
 -1      3696 9.35644E-05-2.69698E-05-2.85429E-05 4.42435E-06 3.99335E-19 4.77360E-19
 -1      3697 9.37510E-05-2.72271E-05-2.84979E-05 4.83371E-06 4.09947E-19 3.45064E-19
 -1      3698 9.29204E-05-2.64732E-05-2.84821E-05 4.16901E-06 4.56103E-19 3.19598E-19
 -1      3699 9.38557E-05-2.75417E-05-2.84188E-05 5.39334E-06 1.86501E-19-3.00122E-20
 -1      3700 9.42699E-05-2.80548E-05-2.83624E-05 5.83098E-06 6.38816E-19-1.95960E-19
 -1      3701 9.29421E-05-2.68576E-05-2.83324E-05 5.22977E-06 3.62600E-19-2.36404E-20
 -1      3702 9.46432E-05-2.86658E-05-2.82676E-05 6.46621E-06 7.92918E-19-3.32250E-19
 -1      3703 9.53888E-05-2.95235E-05-2.82099E-05 6.88491E-06 3.89887E-19-4.53634E-19
 -1      3704 9.33814E-05-2.77620E-05-2.81423E-05 6.49325E-06 4.98731E-19-4.50580E-19
 -1      3705 9.61779E-05-3.05299E-05-2.81141E-05 7.53973E-06 2.48211E-19 5.99372E-20
 -1      3706 9.73708E-05-3.18101E-05-2.80786E-05 7.84556E-06 1.86413E-19 3.90190E-19
 -1      3707 9.44881E-05-2.93997E-05-2.79285E-05 7.91311E-06 7.42907E-19-4.63585E-20
 -1      3708 9.87496E-05-3.32864E-05-2.80153E-05 8.39431E-06-3.11927E-19 4.06096E-19
 -1      3709 1.00514E-04-3.50240E-05-2.80474E-05 8.41881E-06-1.22034E-19 1.95946E-19
 -1      3710 9.65865E-05-3.19828E-05-2.77378E-05 9.32801E-06 6.71939E-20 1.14780E-19
 -1      3711 1.02692E-04-3.70244E-05-2.80814E-05 8.65838E-06 1.32597E-19 7.16654E-19
 -1      3712 1.05034E-04-3.90888E-05-2.82648E-05 8.12120E-06 3.47717E-19 4.85103E-19
 -1      3713 9.99790E-05-3.56386E-05-2.76633E-05 1.04154E-05 3.56088E-19 1.80765E-19
 -1      3714 1.08194E-04-4.13246E-05-2.85356E-05 7.32088E-06-2.51822E-19 3.08018E-19
 -1      3715 1.10733E-04-4.31735E-05-2.89823E-05 5.90141E-06-2.86190E-19-4.34762E-19
 -1      3716 1.05601E-04-4.07341E-05-2.79368E-05 1.05215E-05-1.26296E-19 5.63909E-19
 -1      3717 1.19824E-04-4.74160E-05-3.09499E-05 1.72525E-06-8.31819E-19-1.44604E-19
 -1      3718 1.21378E-04-4.59068E-05-3.23743E-05-1.68665E-06-9.67642E-19-2.72427E-19
 -1      3719 1.21241E-04-3.69555E-05-3.63698E-05-1.05081E-05-4.91220E-19-3.04439E-19
 -1      3720 1.20385E-04-4.51745E-05-3.22619E-05 2.88497E-06-3.31554E-19 1.24717E-19
 -1      3721 1.18958E-04-4.66053E-05-3.10769E-05-2.70463E-07-4.43547E-19 4.09147E-19
 -1      3722 1.08820E-04-4.20089E-05-2.86514E-05-7.11984E-06-4.54734E-19 3.34388E-18
 -1      3723 1.06311E-04-4.00249E-05-2.83196E-05-8.24127E-06-1.42227E-19 3.03782E-18
 -1      3724 1.03527E-04-3.78121E-05-2.81629E-05-8.57652E-06-6.46227E-19 2.28133E-18
 -1      3725 1.01435E-04-3.58393E-05-2.80538E-05-8.89503E-06-1.48115E-18 1.67243E-18
 -1      3726 1.03590E-04-3.89611E-05-2.77934E-05-1.08009E-05-8.25111E-19 3.93716E-18
 -1      3727 9.95613E-05-3.40276E-05-2.80713E-05-8.55846E-06-6.84609E-19 2.47665E-18
 -1      3728 9.80375E-05-3.24459E-05-2.80783E-05-8.42788E-06 2.75272E-19 1.95159E-18
 -1      3729 9.90102E-05-3.45428E-05-2.77040E-05-1.03528E-05-6.99042E-19 3.55785E-18
 -1      3730 9.69044E-05-3.11264E-05-2.81717E-05-7.83604E-06 8.98394E-19 1.75947E-18
 -1      3731 9.58947E-05-2.99790E-05-2.82329E-05-7.48798E-06 1.78101E-18 2.37858E-18
 -1      3732 9.60940E-05-3.12084E-05-2.78549E-05-9.11778E-06 5.73383E-19 3.54985E-18
 -1      3733 9.52919E-05-2.91004E-05-2.83511E-05-6.83902E-06 2.04620E-18 1.19626E-18
 -1      3734 9.46939E-05-2.83359E-05-2.84312E-05-6.41046E-06 3.02935E-18 7.45998E-19
 -1      3735 9.44297E-05-2.89281E-05-2.80971E-05-7.68697E-06 1.52861E-18 3.58838E-18
 -1      3736 9.44954E-05-2.78684E-05-2.85419E-05-5.86248E-06 3.50514E-18 4.23477E-19
 -1      3737 9.41747E-05-2.73734E-05-2.86235E-05-5.42003E-06 3.34400E-18 7.64518E-19
 -1      3738 9.34894E-05-2.68505E-05-2.85730E-05-5.30818E-06 3.09282E-18 5.68649E-19
 -1      3739 9.36926E-05-2.75838E-05-2.83484E-05-6.38225E-06 2.95242E-18 1.60218E-18
 -1      3740 9.24930E-05-2.52474E-05-2.88222E-05-2.89954E-06-1.95494E-19 6.03516E-19
 -1      3741 9.29020E-05-2.56713E-05-2.88228E-05-2.63044E-06-4.58903E-20 4.32844E-19
 -1      3742 8.86417E-05-2.21470E-05-2.85129E-05 2.88230E-06-6.43645E-19 7.31414E-21
 -1      3743 9.52921E-05-2.81949E-05-2.87539E-05-1.38647E-06-9.57633E-20-4.27860E-19
 -1      3744 9.54082E-05-2.83378E-05-2.87467E-05-1.31968E-06-8.41942E-20-5.42216E-19
 -1      3745 9.33711E-05-2.60939E-05-2.88338E-05-2.44983E-06-1.48852E-19 3.42846E-19
 -1      3746 9.36746E-05-2.64427E-05-2.88214E-05-2.22560E-06-2.62256E-19 1.12563E-19
 -1      3747 9.27866E-05-2.56302E-05-2.87707E-05-2.18065E-06-1.90527E-19-2.90347E-19
 -1      3748 9.40383E-05-2.67909E-05-2.88197E-05-2.07282E-06-3.40912E-19 8.28324E-21
 -1      3749 9.42666E-05-2.70761E-05-2.88019E-05-1.89433E-06-4.54184E-19 3.39886E-21
 -1      3750 9.36052E-05-2.64206E-05-2.87862E-05-1.88400E-06-3.53961E-19-3.21797E-19
 -1      3751 9.13278E-05-2.42276E-05-2.87628E-05-3.40957E-06-5.63550E-19 7.70746E-19
 -1      3752 9.18816E-05-2.47381E-05-2.87881E-05-3.10013E-06-2.01744E-19 9.61093E-19
 -1      3753 9.17259E-05-2.46823E-05-2.87179E-05-2.50612E-06-3.76936E-19 6.03001E-19
 -1      3754 8.97786E-05-2.30156E-05-2.86222E-05-3.96018E-06-2.82326E-19 1.65246E-19
 -1      3755 9.05268E-05-2.36206E-05-2.86899E-05-3.61779E-06-2.38620E-19 6.18572E-19
 -1      3756 9.03412E-05-2.35559E-05-2.86011E-05-2.83263E-06-1.85436E-19 6.59225E-19
 -1      3757 8.77241E-05-2.16067E-05-2.83504E-05-4.52985E-06 5.92584E-20-5.17171E-19
 -1      3758 8.87269E-05-2.23050E-05-2.84873E-05-4.16085E-06-2.47787E-19-5.27698E-20
 -1      3759 8.85274E-05-2.22352E-05-2.83814E-05-3.12181E-06 2.18875E-19-4.55142E-19
 -1      3760 8.50124E-05-2.00229E-05-2.78727E-05-5.11150E-06 1.04717E-19 1.76792E-19
 -1      3761 8.63409E-05-2.07965E-05-2.81190E-05-4.71051E-06 2.51706E-19-1.60332E-19
 -1      3762 8.61476E-05-2.07155E-05-2.80013E-05-3.33030E-06-1.02944E-19 8.44312E-20
 -1      3763 8.14491E-05-1.83304E-05-2.70762E-05-5.74879E-06-4.34387E-19-1.52185E-19
 -1      3764 8.31850E-05-1.91327E-05-2.74925E-05-5.27540E-06-1.67177E-19-4.73515E-20
 -1      3765 8.30170E-05-1.90086E-05-2.73741E-05-3.42497E-06-9.11971E-20 5.09194E-19
 -1      3766 7.67692E-05-1.66731E-05-2.57849E-05-6.61725E-06-6.46888E-19-1.28168E-19
 -1      3767 7.90066E-05-1.74003E-05-2.64656E-05-5.94403E-06-4.40623E-19-1.22085E-19
 -1      3768 7.88647E-05-1.71437E-05-2.63672E-05-3.41738E-06-6.67024E-19 2.98920E-19
 -1      3769 7.04292E-05-1.53458E-05-2.36710E-05-8.23594E-06-1.85719E-19-3.59797E-19
 -1      3770 7.33898E-05-1.56911E-05-2.48038E-05-6.97881E-06-3.81310E-19-3.76589E-19
 -1      3771 7.32808E-05-1.52044E-05-2.47618E-05-3.40392E-06-4.17433E-19-4.23361E-19
 -1      3772 9.45546E-05-2.21834E-05-3.09990E-05 1.30887E-08 1.02752E-19-6.43420E-19
 -1      3773 9.38426E-05-2.09260E-05-3.12584E-05-2.12967E-07 3.61290E-20-7.30050E-19
 -1      3774 9.38829E-05-2.10219E-05-3.12391E-05-7.74321E-07 3.93886E-20-6.69349E-19
 -1      3775 6.37645E-05-1.35140E-05-2.15061E-05 3.33629E-06-4.24066E-19 4.32185E-19
 -1      3776 5.96497E-05-1.22505E-05-2.00057E-05-2.52083E-06-9.96380E-19 4.41979E-19
 -1      3777 6.76761E-05-1.41267E-05-2.30171E-05 2.28985E-06 2.77628E-19 2.43681E-19
 -1      3778 7.50136E-05-1.61337E-05-2.52923E-05 2.65456E-06 3.56270E-19 8.46747E-19
 -1      3779 7.18246E-05-1.51893E-05-2.43119E-05 2.74730E-06 1.03647E-19 7.76577E-19
 -1      3780 6.93849E-05-1.44662E-05-2.33549E-05-1.41795E-06 3.47284E-20 5.19934E-19
 -1      3781 9.39815E-05-2.12027E-05-3.11960E-05-1.10555E-06 7.06576E-20-5.83257E-19
 -1      3782 9.41113E-05-2.14854E-05-3.11387E-05-1.62008E-06 2.97796E-20-4.16833E-19
 -1      3783 9.48292E-05-2.28323E-05-3.08420E-05-1.23264E-06 4.99005E-20-2.43502E-19
 -1      3784 9.46423E-05-2.23757E-05-3.09542E-05-6.94328E-07 1.06960E-19-6.53142E-19
 -1      3785 8.02643E-05-1.80118E-05-2.67223E-05 2.98320E-06 7.50509E-20 9.81001E-19
 -1      3786 7.79246E-05-1.70995E-05-2.61045E-05 3.02003E-06 2.94026E-19 3.96387E-19
 -1      3787 7.60617E-05-1.64601E-05-2.54391E-05-1.46322E-08 7.20061E-21 1.00310E-18
 -1      3788 5.86916E-05-1.19860E-05-1.97901E-05 3.32467E-06 1.83938E-19-1.72721E-18
 -1      3789 6.08861E-05-1.28590E-05-2.07467E-05-5.51360E-06-4.95915E-19-4.76588E-19
 -1      3790 1.21405E-04-4.09930E-05-3.46500E-05 8.41774E-06-4.10745E-19 3.37748E-19
 -1      3791 9.54094E-05-2.45311E-05-3.03564E-05 1.98780E-06 2.83562E-19-6.10214E-19
 -1      3792 9.46846E-05-2.28022E-05-3.08257E-05 2.51925E-06 3.76454E-19-6.52939E-19
 -1      3793 9.44799E-05-2.23019E-05-3.09379E-05 2.12420E-06 2.64850E-19-5.67823E-19
 -1      3794 8.93553E-05-2.28136E-05-2.85156E-05 2.99224E-09 1.45759E-18-3.81651E-19
 -1      3795 6.73147E-05-1.44779E-05-2.25506E-05-7.26373E-06-2.29380E-19-3.20384E-19
 -1      3796 8.71091E-05-2.12808E-05-2.82332E-05 3.04520E-06-1.30985E-18 7.73767E-19
 -1      3797 8.57724E-05-2.05580E-05-2.79756E-05 3.16685E-06-6.76580E-19 8.95246E-19
 -1      3798 9.56471E-05-2.59552E-05-2.98591E-05 1.46130E-06 2.64730E-19-7.16926E-19
 -1      3799 9.55787E-05-2.54131E-05-3.00802E-05 1.67373E-06 2.28366E-19-6.30652E-19
 -1      3800 9.55463E-05-2.49916E-05-3.02445E-05 1.53130E-06 2.79175E-19-6.06959E-19
 -1      3801 9.57289E-05-2.64731E-05-2.96863E-05 9.02027E-07 2.19832E-19-6.29526E-19
 -1      3802 9.55308E-05-2.46105E-05-3.04015E-05-1.34231E-06-6.07623E-20-4.44800E-20
 -1      3803 9.58645E-05-2.55098E-05-3.01509E-05-8.41466E-07-3.98306E-20-9.67636E-20
 -1      3804 9.54180E-05-2.42183E-05-3.05126E-05-1.12947E-06 6.56538E-21-1.42160E-20
 -1      3805 8.86240E-05-3.34764E-05-2.36498E-05 2.36255E-05-2.03976E-19-1.26188E-18
 -1      3806 7.82367E-05-2.56739E-05-2.24135E-05 2.17213E-05 2.06497E-19-1.24970E-18
 -1      3807 9.58800E-05-2.63579E-05-2.97993E-05 8.11910E-07 2.25228E-19-7.30284E-19
 -1      3808 9.60957E-05-2.61396E-05-2.99832E-05-6.05922E-07 4.97087E-20-2.07269E-19
 -1      3809 9.62728E-05-2.67852E-05-2.97837E-05-2.07518E-07 8.97253E-20-2.13940E-19
 -1      3810 9.64056E-05-2.68875E-05-2.97913E-05-1.17563E-07-9.61820E-20-3.27478E-19
 -1      3811 9.60739E-05-2.58438E-05-3.00963E-05-5.41228E-07-5.05938E-20-1.79350E-19
 -1      3812 8.41486E-05-1.97543E-05-2.76245E-05 2.99696E-06-7.34224E-19 1.43032E-18
 -1      3813 8.23859E-05-1.89218E-05-2.72278E-05 3.03548E-06-3.05728E-19 1.39893E-18
 -1      3814 8.45764E-05-2.00016E-05-2.76227E-05 1.40616E-06-5.04091E-19 2.91627E-18
 -1      3815 9.60194E-05-2.87676E-05-2.88213E-05-1.13059E-06 2.48797E-20-7.37563E-19
 -1      3816 9.60967E-05-2.87669E-05-2.88545E-05-1.08150E-06 1.61297E-19-7.56480E-19
 -1      3817 9.62743E-05-2.74237E-05-2.95131E-05-1.03781E-07 1.38305E-19-8.85901E-19
 -1      3818 9.61920E-05-2.69286E-05-2.96766E-05 2.69201E-07 1.49843E-19-7.72515E-19
 -1      3819 9.61912E-05-2.87401E-05-2.89077E-05-1.03446E-06 1.50447E-19-8.64384E-19
 -1      3820 9.62542E-05-2.86677E-05-2.89631E-05-9.54240E-07 2.33247E-19-9.16943E-19
 -1      3821 9.62912E-05-2.87586E-05-2.89439E-05-9.43608E-07 1.16272E-19-7.45901E-19
 -1      3822 1.16780E-04-4.64685E-05-3.01247E-05-3.50142E-06 5.19006E-20 8.99519E-19
 -1      3823 8.76773E-05-2.16297E-05-2.82703E-05 1.65443E-06 2.41572E-19 1.49107E-18
 -1      3824 8.97883E-05-3.69992E-05-2.24525E-05-2.84627E-05 1.00387E-19-2.21310E-18
 -1      3825 9.64644E-05-3.97741E-05-2.42270E-05-2.44867E-05 5.72244E-19 6.18106E-19
 -1      3826 8.32513E-05-3.19640E-05-2.19384E-05-2.67352E-05-1.86731E-19-2.86358E-18
 -1      3827 9.63136E-05-2.85526E-05-2.90420E-05-8.70431E-07 1.82238E-19-9.32296E-19
 -1      3828 9.63539E-05-2.83843E-05-2.91257E-05-7.32182E-07 1.07982E-19-1.02902E-18
 -1      3829 9.64429E-05-2.85921E-05-2.90803E-05-7.98714E-07 1.11077E-19-9.44498E-19
 -1      3830 1.14618E-04-4.51374E-05-2.96715E-05 3.92284E-06-5.61103E-19-7.89802E-19
 -1      3831 1.16996E-04-4.54645E-05-3.06164E-05 9.46293E-07-1.02475E-18-4.09772E-19
 -1      3832 9.51670E-05-2.35481E-05-3.07092E-05 8.39026E-07 3.56705E-19-6.65463E-19
 -1      3833 9.50976E-05-2.33675E-05-3.07485E-05 4.70490E-07 3.43988E-19-5.90369E-19
 -1      3834 9.42454E-05-2.70751E-05-2.87826E-05-1.63274E-06-6.03914E-19-4.40265E-20
 -1      3835 9.45533E-05-2.73615E-05-2.87951E-05-1.77280E-06-5.62580E-19 2.19371E-19
 -1      3836 9.47291E-05-2.75930E-05-2.87772E-05-1.63759E-06-5.99477E-19-1.12196E-19
 -1      3837 1.15002E-04-4.52182E-05-2.99050E-05-3.23100E-06-3.20089E-19 1.74212E-18
 -1      3838 1.12438E-04-4.41747E-05-2.91567E-05-5.62964E-06 3.30608E-20 2.19492E-18
 -1      3839 9.51004E-05-2.80101E-05-2.87564E-05-1.44980E-06-5.53796E-20-2.44059E-19
 -1      3840 9.51732E-05-2.80462E-05-2.87674E-05-1.28532E-06-7.54995E-20-5.56396E-19
 -1      3841 9.49604E-05-2.78250E-05-2.87705E-05-1.54695E-06-3.40986E-19-1.95111E-19
 -1      3842 9.55714E-05-2.84781E-05-2.87523E-05-1.27744E-06-2.21574E-19-6.96579E-19
 -1      3843 9.56714E-05-2.85791E-05-2.87551E-05-1.23100E-06-3.01704E-19-8.80606E-19
 -1      3844 9.55236E-05-2.83841E-05-2.87739E-05-1.17947E-06-2.72094E-19-1.20246E-18
 -1      3845 7.51600E-05-2.26815E-05-2.23889E-05 1.93707E-05 2.77802E-19-1.59110E-18
 -1      3846 7.24011E-05-1.97492E-05-2.25846E-05 1.53666E-05 5.26603E-19-1.56662E-18
 -1      3847 8.16423E-05-2.59983E-05-2.38248E-05 1.85134E-05 1.87935E-20-1.28115E-18
 -1      3848 6.63279E-05-1.31275E-05-2.26024E-05-2.02546E-06-4.67903E-19-1.03209E-18
 -1      3849 9.50711E-05-2.32930E-05-3.07701E-05 1.95922E-07 2.34361E-19-4.57716E-19
 -1      3850 9.50669E-05-2.32941E-05-3.07696E-05-1.77494E-07 1.02759E-19-5.73872E-19
 -1      3851 9.55942E-05-2.43169E-05-3.05321E-05 2.44031E-07 3.60064E-19-4.60800E-19
 -1      3852 6.15421E-05-1.36538E-05-2.05058E-05-7.08153E-06-1.26411E-19 7.28170E-19
 -1      3853 9.50346E-05-2.32932E-05-3.07208E-05 1.55181E-06 2.59459E-19-6.10058E-19
 -1      3854 9.00602E-05-2.38646E-05-2.83536E-05-3.24958E-06-9.77805E-19-3.93340E-18
 -1      3855 8.93993E-05-2.33374E-05-2.83346E-05-2.43951E-06 8.20187E-20-3.51929E-18
 -1      3856 1.13687E-04-4.95987E-05-2.73262E-05 1.72938E-05-6.41965E-19-3.14838E-19
 -1      3857 1.07843E-04-4.56355E-05-2.65623E-05 1.81823E-05-7.74221E-19-1.32276E-19
 -1      3858 1.16266E-04-4.95365E-05-2.85818E-05 1.22170E-05-1.11598E-18 2.15641E-19
 -1      3859 6.46279E-05-1.95436E-05-1.89711E-05-2.17146E-05-7.18244E-19-4.17667E-19
 -1      3860 7.13093E-05-2.37752E-05-2.03197E-05-2.37105E-05-5.71641E-19-2.08320E-18
 -1      3861 6.30625E-05-1.70041E-05-1.96733E-05-1.63780E-05-6.55934E-19 8.42242E-19
 -1      3862 9.58118E-05-2.86726E-05-2.87723E-05-1.20065E-06-2.02683E-19-7.52603E-19
 -1      3863 9.59001E-05-2.87275E-05-2.87884E-05-1.16123E-06-5.23937E-20-6.50219E-19
 -1      3864 9.60800E-05-2.87569E-05-2.88539E-05-1.03288E-06 1.23917E-20-5.58001E-19
 -1      3865 9.58233E-05-2.86245E-05-2.88001E-05-1.10235E-06-1.63165E-19-6.82603E-19
 -1      3866 6.43056E-05-1.41608E-05-2.13535E-05 6.63934E-06-1.45657E-19-1.91562E-18
 -1      3867 8.85442E-05-2.25704E-05-2.82550E-05-1.40376E-06 1.06248E-18-3.75342E-19
 -1      3868 8.80088E-05-2.20977E-05-2.82702E-05 1.73442E-07 1.08337E-18 5.35637E-20
 -1      3869 8.65058E-05-2.13010E-05-2.79669E-05 1.04822E-07-9.09287E-20 1.17933E-18
 -1      3870 8.80983E-05-2.26411E-05-2.80651E-05-2.42817E-06 1.93703E-19-3.29445E-18
 -1      3871 8.09366E-05-1.83468E-05-2.67561E-05 8.56291E-07-3.17094E-19 2.01442E-18
 -1      3872 1.09927E-04-4.37995E-05-2.84061E-05-9.48115E-06 2.22181E-19 3.39288E-18
 -1      3873 9.63599E-05-2.81501E-05-2.92366E-05-5.86108E-07 6.57718E-20-9.35999E-19
 -1      3874 9.63616E-05-2.78504E-05-2.93557E-05-3.57311E-07 7.46790E-20-9.31081E-19
 -1      3875 9.65062E-05-2.82004E-05-2.92747E-05-5.53701E-07 1.31353E-19-1.01992E-18
 -1      3876 9.64271E-05-2.74838E-05-2.95473E-05-1.42762E-07 1.78886E-19-8.31506E-19
 -1      3877 9.33426E-05-3.61989E-05-2.42697E-05 2.29328E-05-7.40840E-20-1.40998E-18
 -1      3878 8.88440E-05-3.18460E-05-2.44161E-05 2.06152E-05 9.59927E-20-1.31940E-18
 -1      3879 9.78647E-05-3.93622E-05-2.52005E-05 2.13923E-05-3.73601E-19-7.38269E-19
 -1      3880 9.60073E-05-2.63663E-05-2.98515E-05 6.06268E-07 2.33093E-19-7.92892E-19
 -1      3881 9.58802E-05-2.57937E-05-3.00233E-05 1.06896E-06 3.06375E-19-6.87349E-19
 -1      3882 9.56416E-05-2.50130E-05-3.02852E-05 1.28879E-06 3.83077E-19-6.27893E-19
 -1      3883 9.61402E-05-2.63981E-05-2.98877E-05 4.66234E-07 2.00735E-19-7.16366E-19
 -1      3884 9.16631E-05-2.52214E-05-2.84628E-05-4.45986E-06 1.82054E-19-1.61841E-18
 -1      3885 9.08728E-05-2.46206E-05-2.84092E-05-3.96050E-06 4.28711E-20-1.57290E-18
 -1      3886 9.00692E-05-2.42043E-05-2.82197E-05-4.13674E-06-2.37960E-19-1.86749E-18
 -1      3887 1.12173E-04-4.51714E-05-2.88118E-05 8.29428E-06-8.29986E-19 1.08592E-19
 -1      3888 1.10179E-04-4.79948E-05-2.66359E-05-1.93751E-05 7.26595E-19 3.80985E-18
 -1      3889 1.12816E-04-4.74926E-05-2.79326E-05-1.35210E-05 9.29916E-19 2.79687E-18
 -1      3890 1.04372E-04-4.39815E-05-2.58337E-05-2.07136E-05 9.24550E-19 3.53734E-18
 -1      3891 9.99175E-05-4.12556E-05-2.51349E-05-2.22951E-05 1.05348E-18 2.63299E-18
 -1      3892 1.02454E-04-4.17481E-05-2.59905E-05-1.93182E-05 1.38856E-18 3.15325E-18
 -1      3893 9.42361E-05-3.71601E-05-2.44566E-05-2.27336E-05 1.41391E-18 1.23311E-18
 -1      3894 1.23854E-04-4.42715E-05-3.39875E-05-5.46527E-06-7.37501E-19-6.39378E-19
 -1      3895 9.67354E-05-2.82200E-05-2.93621E-05 3.75014E-07-1.32827E-19-1.83281E-19
 -1      3896 9.67130E-05-2.84582E-05-2.92540E-05 4.92389E-07-6.78672E-20-9.85741E-20
 -1      3897 9.66635E-05-2.86297E-05-2.91561E-05 5.47068E-07-8.11505E-20-1.28804E-19
 -1      3898 9.65863E-05-2.87405E-05-2.90774E-05 6.20773E-07-2.92753E-19 6.01334E-21
 -1      3899 9.67602E-05-2.85092E-05-2.92505E-05 3.92163E-07-9.66603E-20-9.18459E-20
 -1      3900 9.64803E-05-2.87976E-05-2.90062E-05 6.53561E-07-2.99415E-19 1.02154E-20
 -1      3901 9.63671E-05-2.88134E-05-2.89513E-05 7.02062E-07-1.71728E-19-1.21208E-20
 -1      3902 9.66046E-05-2.87544E-05-2.90792E-05 4.89011E-07-7.37102E-20-7.64283E-20
 -1      3903 9.62217E-05-2.87852E-05-2.89014E-05 7.25561E-07-2.01550E-19 2.29593E-19
 -1      3904 9.60839E-05-2.87301E-05-2.88650E-05 7.64526E-07-1.81214E-19 4.29094E-19
 -1      3905 9.63544E-05-2.87915E-05-2.89562E-05 5.54192E-07-1.47023E-19 1.65301E-19
 -1      3906 9.59091E-05-2.86375E-05-2.88315E-05 7.89624E-07-1.68793E-19 7.75076E-19
 -1      3907 9.57528E-05-2.85289E-05-2.88089E-05 8.32390E-07-3.90467E-20 9.67069E-19
 -1      3908 9.60365E-05-2.86715E-05-2.88711E-05 6.09745E-07 1.14675E-19 7.31588E-19
 -1      3909 9.55539E-05-2.83876E-05-2.87872E-05 8.69111E-07-1.89309E-19 8.61308E-19
 -1      3910 9.53821E-05-2.82386E-05-2.87741E-05 9.26661E-07-2.42005E-19 9.00572E-19
 -1      3911 9.56656E-05-2.84316E-05-2.88144E-05 6.75833E-07-2.16252E-19 6.65253E-19
 -1      3912 9.51595E-05-2.80593E-05-2.87598E-05 9.84152E-07-3.71557E-19 7.96404E-19
 -1      3913 9.49732E-05-2.78804E-05-2.87521E-05 1.06692E-06-3.98978E-19 9.00170E-19
 -1      3914 9.52475E-05-2.80994E-05-2.87769E-05 7.70122E-07-4.35837E-19 3.43300E-19
 -1      3915 9.47264E-05-2.76729E-05-2.87407E-05 1.15504E-06-5.13093E-19 1.12818E-18
 -1      3916 9.45267E-05-2.74744E-05-2.87343E-05 1.27297E-06-6.03067E-19 1.03860E-18
 -1      3917 9.47816E-05-2.76950E-05-2.87498E-05 9.11845E-07-2.65991E-19 5.74178E-19
 -1      3918 9.42546E-05-2.72489E-05-2.87213E-05 1.40283E-06-8.66900E-19 8.73667E-19
 -1      3919 9.40452E-05-2.70434E-05-2.87119E-05 1.56643E-06-7.78524E-19 6.93876E-19
 -1      3920 9.42660E-05-2.72380E-05-2.87239E-05 1.12153E-06-7.91545E-19 6.66742E-19
 -1      3921 9.37488E-05-2.68133E-05-2.86923E-05 1.75152E-06-6.61166E-19 8.95682E-19
 -1      3922 9.35379E-05-2.66188E-05-2.86754E-05 1.97249E-06-3.07284E-19 8.93979E-19
 -1      3923 9.37001E-05-2.67511E-05-2.86894E-05 1.42413E-06-5.32706E-19 1.09912E-18
 -1      3924 9.32229E-05-2.64038E-05-2.86436E-05 2.22968E-06 1.81830E-19 8.08552E-19
 -1      3925 9.30271E-05-2.62466E-05-2.86142E-05 2.52139E-06 5.43646E-19 7.96504E-19
 -1      3926 9.30899E-05-2.62659E-05-2.86355E-05 1.85102E-06-2.33025E-19 9.43838E-19
 -1      3927 9.27075E-05-2.60761E-05-2.85642E-05 2.87176E-06 2.91233E-19 7.00031E-19
 -1      3928 9.25557E-05-2.59948E-05-2.85174E-05 3.24921E-06-1.15075E-19 5.12327E-19
 -1      3929 9.24539E-05-2.58298E-05-2.85501E-05 2.44224E-06 5.74132E-20 6.04488E-19
 -1      3930 9.22586E-05-2.59117E-05-2.84428E-05 3.71848E-06 1.14877E-19 5.46243E-19
 -1      3931 9.21979E-05-2.59614E-05-2.83745E-05 4.19722E-06 3.76845E-19 1.46948E-19
 -1      3932 9.18312E-05-2.55133E-05-2.84200E-05 3.24850E-06-3.51267E-22 5.56894E-19
 -1      3933 9.19703E-05-2.60270E-05-2.82696E-05 4.81485E-06 3.33972E-19-2.73782E-19
 -1      3934 9.20731E-05-2.62839E-05-2.81777E-05 5.40756E-06 3.67856E-19-3.39173E-19
 -1      3935 9.12926E-05-2.54199E-05-2.82321E-05 4.33178E-06-1.18156E-19 1.61559E-19
 -1      3936 9.19917E-05-2.65823E-05-2.80387E-05 6.20274E-06 4.31186E-19-5.75699E-19
 -1      3937 9.23647E-05-2.71470E-05-2.79261E-05 6.91099E-06 6.44601E-19-3.49378E-19
 -1      3938 9.09571E-05-2.56973E-05-2.79751E-05 5.76236E-06 4.55555E-19-5.85817E-19
 -1      3939 9.25498E-05-2.77899E-05-2.77548E-05 7.90516E-06 7.17217E-19 2.23685E-19
 -1      3940 9.33441E-05-2.87913E-05-2.76336E-05 8.70055E-06 7.23078E-19 2.33031E-19
 -1      3941 9.10130E-05-2.65489E-05-2.76445E-05 7.60780E-06 8.23382E-19-5.37862E-19
 -1      3942 9.40042E-05-2.99417E-05-2.74436E-05 9.87528E-06 1.63049E-19 5.42742E-19
 -1      3943 9.53915E-05-3.14994E-05-2.73468E-05 1.06425E-05 5.51254E-20 6.74668E-19
 -1      3944 9.17674E-05-2.82698E-05-2.72497E-05 9.92178E-06 5.13002E-19-8.93812E-20
 -1      3945 9.68361E-05-3.33138E-05-2.71839E-05 1.18638E-05 1.39540E-19 3.57746E-19
 -1      3946 9.91850E-05-3.55533E-05-2.72153E-05 1.23086E-05 6.48228E-19 6.10228E-20
 -1      3947 9.37655E-05-3.12124E-05-2.68415E-05 1.26261E-05 1.94877E-19 9.17787E-19
 -1      3948 9.87715E-05-3.67365E-05-2.64995E-05 1.55012E-05 3.28032E-19-1.99701E-19
 -1      3949 1.01979E-04-3.96892E-05-2.66532E-05 1.57332E-05-3.56852E-19 1.66535E-19
 -1      3950 1.18684E-04-4.95587E-05-2.97227E-05 7.69205E-06-1.10434E-18 7.53772E-19
 -1      3951 6.67779E-05-1.48575E-05-2.22626E-05-6.07790E-06-1.04195E-19 4.14378E-19
 -1      3952 6.40766E-05-1.50125E-05-2.08054E-05-1.07296E-05-2.75782E-20 1.73382E-18
 -1      3953 6.80775E-05-1.78022E-05-2.15466E-05-1.43476E-05 2.25794E-19 7.80700E-19
 -1      3954 1.21105E-04-4.04687E-05-3.47858E-05-8.82561E-06-4.95607E-19 5.33234E-20
 -1      3955 9.53506E-05-2.40128E-05-3.05839E-05-9.95912E-07 2.22822E-21-2.40476E-19
 -1      3956 9.58084E-05-2.50069E-05-3.03347E-05-6.50234E-07-1.68399E-20-2.41080E-19
 -1      3957 9.52551E-05-2.37399E-05-3.06513E-05-7.74530E-07 2.53510E-20-5.31148E-19
 -1      3958 9.53989E-05-2.42425E-05-3.04948E-05 1.11322E-06 3.22807E-19-6.32692E-19
 -1      3959 9.58085E-05-2.50615E-05-3.03078E-05 7.12286E-07 4.04967E-19-5.79269E-19
 -1      3960 1.15776E-04-4.79011E-05-2.91117E-05-8.48771E-06 1.08404E-18 2.82814E-18
 -1      3961 9.78727E-05-3.42187E-05-2.72433E-05-1.21206E-05-1.23879E-18 4.47564E-18
 -1      3962 9.59900E-05-3.21874E-05-2.73034E-05-1.13937E-05-2.05569E-19 3.95963E-18
 -1      3963 9.49306E-05-3.06928E-05-2.74972E-05-1.01997E-05 4.30270E-19 3.08985E-18
 -1      3964 9.37874E-05-2.93086E-05-2.76235E-05-9.39515E-06 6.32520E-19 3.00130E-18
 -1      3965 9.32657E-05-3.03263E-05-2.70343E-05-1.17870E-05-6.37923E-19 3.29234E-18
 -1      3966 9.33598E-05-2.83594E-05-2.78307E-05-8.28568E-06 1.17731E-18 3.59007E-18
 -1      3967 9.27810E-05-2.74993E-05-2.79742E-05-7.52143E-06 1.73790E-18 3.52737E-18
 -1      3968 9.18727E-05-2.78001E-05-2.74827E-05-9.24336E-06 9.58142E-19 3.58110E-18
 -1      3969 9.22877E-05-2.52951E-05-2.87167E-05-1.79071E-06-5.73122E-19 3.46003E-20
 -1      3970 9.27577E-05-2.57252E-05-2.87348E-05-1.65954E-06-2.98900E-19-3.56641E-19
 -1      3971 9.10845E-05-2.43007E-05-2.86308E-05-1.96975E-06-4.32795E-19 3.69602E-19
 -1      3972 9.16967E-05-2.48091E-05-2.86741E-05-1.84168E-06-5.56020E-19 6.36325E-20
 -1      3973 9.17725E-05-2.49115E-05-2.86418E-05-1.29440E-06-5.85641E-19 2.56322E-19
 -1      3974 9.32284E-05-2.61380E-05-2.87561E-05-1.59367E-06-1.53269E-19-5.20153E-19
 -1      3975 9.35930E-05-2.64987E-05-2.87601E-05-1.47340E-06-3.90898E-19-5.70575E-19
 -1      3976 9.28168E-05-2.58050E-05-2.87101E-05-1.22827E-06-4.51037E-19-3.59785E-19
 -1      3977 8.75331E-05-2.18069E-05-2.81895E-05-2.08306E-06 3.64671E-19-2.51957E-19
 -1      3978 8.85860E-05-2.24915E-05-2.83381E-05-2.03052E-06 6.47356E-19 6.42109E-20
 -1      3979 8.49351E-05-2.03035E-05-2.77297E-05-1.88640E-06-1.28043E-19-6.27720E-19
 -1      3980 8.63209E-05-2.10766E-05-2.79773E-05-1.91582E-06-1.94846E-19-5.08067E-19
 -1      3981 8.66789E-05-2.13760E-05-2.79541E-05-7.68641E-07 3.34068E-19-2.05726E-19
 -1      3982 8.15406E-05-1.86481E-05-2.69972E-05-1.42302E-06-4.63575E-19-5.52122E-19
 -1      3983 8.33750E-05-1.95006E-05-2.73961E-05-1.55936E-06 1.19170E-19-4.14795E-19
 -1      3984 8.39756E-05-1.99248E-05-2.74046E-05-6.56230E-08-1.99440E-19-1.10941E-18
 -1      3985 7.70485E-05-1.68682E-05-2.58498E-05-6.32369E-07-5.67435E-19-3.94820E-19
 -1      3986 7.95034E-05-1.77857E-05-2.64812E-05-8.77463E-07-1.02601E-18-5.55168E-19
 -1      3987 8.04892E-05-1.83730E-05-2.65554E-05 1.10668E-06-7.60605E-19-9.23251E-19
 -1      3988 7.08642E-05-1.49665E-05-2.40230E-05 4.92007E-07-3.20056E-19-8.90281E-19
 -1      3989 7.42889E-05-1.59203E-05-2.50516E-05 1.58493E-07 1.90470E-19-5.62389E-19
 -1      3990 7.58672E-05-1.67261E-05-2.52542E-05 2.96017E-06-1.94640E-19-4.57626E-19
 -1      3991 7.79656E-05-1.78710E-05-2.57906E-05-2.52829E-06 3.00440E-19-2.22182E-19
 -1      3992 7.52003E-05-1.69800E-05-2.50051E-05-3.48572E-06 1.87942E-19-3.59140E-19
 -1      3993 9.65637E-05-2.76287E-05-2.95475E-05-2.25287E-07 3.13628E-19-9.79432E-19
 -1      3994 9.64640E-05-2.71337E-05-2.97125E-05 4.27017E-08 2.38750E-19-7.90449E-19
 -1      3995 1.10165E-04-4.51496E-05-2.79236E-05 1.23993E-05-5.38012E-19 7.46274E-19
 -1      3996 1.13735E-04-4.72961E-05-2.85269E-05 1.08858E-05-3.67440E-19 6.70852E-19
 -1      3997 1.10702E-04-4.57788E-05-2.78402E-05-1.29220E-05 1.34012E-18 2.61646E-18
 -1      3998 1.07034E-04-4.29077E-05-2.73770E-05-1.38234E-05 7.56199E-19 3.17363E-18
 -1      3999 8.95354E-05-2.31405E-05-2.84692E-05-2.08697E-06 1.24390E-19-1.97133E-19
 -1      4000 9.03372E-05-2.37350E-05-2.85535E-05-1.98295E-06-5.82277E-20 1.16017E-19
 -1      4001 9.04578E-05-2.38777E-05-2.85167E-05-1.28561E-06-6.47660E-20-3.77840E-19
 -1      4002 8.21802E-05-1.94033E-05-2.69336E-05-1.24455E-06-1.26648E-18 6.48830E-19
 -1      4003 8.01048E-05-1.85851E-05-2.64157E-05-1.65218E-06-7.26976E-19-3.34094E-20
 -1      4004 7.99642E-05-1.90282E-05-2.60380E-05-4.71170E-06-6.00464E-19-1.30252E-18
 -1      4005 7.06222E-05-1.56832E-05-2.35765E-05-4.75409E-06 1.13079E-19-3.49401E-21
 -1      4006 1.02987E-04-3.94842E-05-2.72120E-05-1.34694E-05-3.12797E-19 3.56606E-18
 -1      4007 1.00200E-04-3.67748E-05-2.71088E-05-1.32818E-05-9.32742E-19 3.42658E-18
 -1      4008 9.64271E-05-3.44382E-05-2.66593E-05-1.45832E-05-5.88695E-19 5.11806E-18
 -1      4009 1.02478E-04-4.06872E-05-2.65309E-05-1.69301E-05 7.98732E-19 3.49831E-18
 -1      4010 9.63679E-05-2.87921E-05-2.89609E-05-8.33580E-07-4.00408E-20-5.92694E-19
 -1      4011 9.64613E-05-2.87495E-05-2.90182E-05-7.71812E-07-3.26612E-21-8.62513E-19
 -1      4012 9.28706E-05-2.63064E-05-2.85221E-05-5.13555E-06 3.08722E-18 1.66205E-18
 -1      4013 9.22294E-05-2.57655E-05-2.84961E-05-4.80952E-06 1.38368E-18-3.07714E-19
 -1      4014 9.15830E-05-2.55119E-05-2.83178E-05-5.17312E-06 1.40433E-18 4.97377E-19
 -1      4015 9.29086E-05-2.65884E-05-2.84120E-05-5.64289E-06 3.10816E-18 1.45818E-18
 -1      4016 9.66373E-05-2.74813E-05-2.96372E-05 1.04869E-07-1.82214E-19-4.50177E-19
 -1      4017 9.67008E-05-2.78912E-05-2.94924E-05 2.84231E-07-1.76777E-19-3.46578E-19
 -1      4018 9.67782E-05-2.79876E-05-2.94809E-05 2.40753E-07-2.40739E-20-9.59168E-20
 -1      4019 8.52923E-05-2.07446E-05-2.76853E-05-2.62656E-07-6.56346E-19 1.19883E-18
 -1      4020 8.36852E-05-2.00306E-05-2.73226E-05-6.85683E-07-1.14406E-18 1.16100E-18
 -1      4021 8.34629E-05-2.02266E-05-2.70376E-05-2.95364E-06-2.07491E-18-4.49869E-19
 -1      4022 8.60394E-05-2.12785E-05-2.77066E-05-1.79284E-06-4.19282E-19-1.83026E-18
 -1      4023 6.79668E-05-1.59821E-05-2.21877E-05 1.08538E-05-2.28017E-19-1.76306E-18
 -1      4024 6.56217E-05-1.40206E-05-2.22122E-05 4.28835E-06-7.66638E-19-1.55384E-18
 -1      4025 6.91063E-05-1.46808E-05-2.32702E-05 2.36957E-06-7.33478E-19-1.15819E-18
 -1      4026 7.37246E-05-1.91835E-05-2.33062E-05 1.28022E-05 1.04033E-19-1.02791E-18
 -1      4027 9.65470E-05-2.86601E-05-2.90949E-05-7.23253E-07 1.39638E-19-9.21563E-19
 -1      4028 9.66031E-05-2.85165E-05-2.91783E-05-6.21473E-07 2.07649E-19-8.20052E-19
 -1      4029 9.66036E-05-2.86881E-05-2.91077E-05-6.13195E-07 1.33606E-20-9.58664E-19
 -1      4030 9.44402E-05-3.40516E-05-2.59111E-05 1.70108E-05 3.14352E-19-3.27693E-19
 -1      4031 9.47560E-05-2.76124E-05-2.87730E-05-1.43364E-06-4.94886E-19-3.58920E-19
 -1      4032 9.62413E-05-2.87888E-05-2.89078E-05-8.62716E-07 1.00201E-19-4.55162E-19
 -1      4033 9.63931E-05-2.87872E-05-2.89748E-05-7.03249E-07-9.16556E-20-3.39192E-19
 -1      4034 9.61221E-05-2.87546E-05-2.88711E-05-9.04334E-07 2.99853E-21-4.27169E-19
 -1      4035 9.50600E-05-2.79182E-05-2.87744E-05-1.12454E-06-2.37096E-19-3.06693E-19
 -1      4036 9.52524E-05-2.81149E-05-2.87755E-05-1.06443E-06-2.94437E-19-4.85683E-19
 -1      4037 8.87938E-05-2.26982E-05-2.83027E-05-1.13882E-06 2.16956E-19-5.78503E-19
 -1      4038 9.36535E-05-2.65681E-05-2.87445E-05-1.13088E-06-3.46720E-19-6.53438E-19
 -1      4039 9.39720E-05-2.68462E-05-2.87695E-05-1.40765E-06-3.82421E-19-4.91657E-19
 -1      4040 9.42597E-05-2.71461E-05-2.87672E-05-1.30606E-06-6.11156E-19-7.78775E-20
 -1      4041 9.29133E-05-2.72085E-05-2.81448E-05-6.79953E-06 1.89937E-18 3.11857E-18
 -1      4042 9.27194E-05-2.67508E-05-2.82706E-05-6.20870E-06 2.59061E-18 2.31432E-18
 -1      4043 9.20191E-05-2.61859E-05-2.82123E-05-6.03198E-06 2.02523E-18 2.45081E-18
 -1      4044 9.16901E-05-2.66356E-05-2.78886E-05-7.32220E-06 1.56108E-18 3.77078E-18
 -1      4045 7.86955E-05-2.76595E-05-2.16647E-05-2.48522E-05-4.39901E-19-3.72226E-18
 -1      4046 8.57725E-05-3.14766E-05-2.32190E-05-2.34920E-05 2.02878E-19-2.91622E-18
 -1      4047 7.48297E-05-2.39426E-05-2.17787E-05-2.12622E-05-5.99249E-19-2.74028E-18
 -1      4048 9.54710E-05-2.83005E-05-2.87863E-05-1.03217E-06-1.02210E-19-6.34796E-19
 -1      4049 9.56345E-05-2.84490E-05-2.87953E-05-9.86549E-07-1.83414E-19-6.98174E-19
 -1      4050 9.53646E-05-2.81776E-05-2.87933E-05-8.69951E-07-2.98434E-19-7.75204E-20
 -1      4051 7.36923E-05-1.72392E-05-2.40748E-05-7.57607E-06 5.79655E-20-3.67478E-19
 -1      4052 7.12005E-05-1.57086E-05-2.37068E-05 6.19328E-06 1.88663E-20-6.98451E-19
 -1      4053 9.59345E-05-2.52010E-05-3.03260E-05 2.73471E-07 5.40212E-19-3.33103E-19
 -1      4054 9.59281E-05-2.51348E-05-3.03464E-05 7.10232E-08 3.73645E-19-2.20966E-19
 -1      4055 9.85297E-05-3.77929E-05-2.59170E-05-1.83084E-05 3.19315E-19 3.38583E-18
 -1      4056 9.51182E-05-2.34009E-05-3.07405E-05-3.58385E-07 5.44308E-20-7.20760E-19
 -1      4057 9.51896E-05-2.35824E-05-3.06993E-05-6.24192E-07 6.63781E-20-6.75147E-19
 -1      4058 9.57150E-05-2.46386E-05-3.04493E-05-4.16203E-07-2.95536E-22-5.91257E-19
 -1      4059 9.56269E-05-2.43731E-05-3.05224E-05-1.43070E-07 2.29374E-19-5.28395E-19
 -1      4060 9.60258E-05-2.54846E-05-3.02326E-05-4.06682E-07-8.33229E-20-2.88471E-19
 -1      4061 9.60639E-05-2.56916E-05-3.01657E-05-5.00570E-07-8.91844E-20-2.30992E-19
 -1      4062 9.62763E-05-2.62682E-05-3.00020E-05-2.72643E-07-1.39350E-19-2.82925E-19
 -1      4063 8.84026E-05-2.32100E-05-2.79291E-05-4.06245E-06-3.63045E-19-4.18137E-18
 -1      4064 8.72489E-05-2.23470E-05-2.78249E-05-3.03648E-06 2.01028E-19-3.38871E-18
 -1      4065 8.60877E-05-2.19098E-05-2.75417E-05-3.58973E-06-5.48045E-19-2.83282E-18
 -1      4066 9.66307E-05-2.83054E-05-2.92840E-05-5.38421E-07 9.06271E-20-1.00622E-18
 -1      4067 9.66300E-05-2.80253E-05-2.93994E-05-3.73621E-07 1.38223E-19-9.77771E-19
 -1      4068 9.67134E-05-2.83640E-05-2.92936E-05-4.64390E-07 7.60005E-20-7.75670E-19
 -1      4069 9.66691E-05-2.77171E-05-2.95506E-05-2.18229E-07 1.87253E-19-8.31959E-19
 -1      4070 9.64321E-05-2.67148E-05-2.98801E-05-1.59247E-07-1.73209E-19-2.99041E-19
 -1      4071 9.65482E-05-2.71537E-05-2.97419E-05 2.03327E-08-2.25940E-19-3.46419E-19
 -1      4072 9.66465E-05-2.72947E-05-2.97203E-05 5.22583E-08-2.65294E-19-4.15646E-19
 -1      4073 9.64254E-05-2.65568E-05-2.99445E-05-1.39117E-07-2.87496E-19-5.60605E-19
 -1      4074 9.01238E-05-3.16277E-05-2.51127E-05 1.83719E-05-2.13353E-19-1.11738E-18
 -1      4075 8.66602E-05-2.89509E-05-2.46081E-05 1.86201E-05-9.45534E-20-8.84554E-19
 -1      4076 8.33165E-05-2.61829E-05-2.45052E-05 1.68208E-05-1.07365E-19-8.41838E-19
 -1      4077 9.16658E-05-3.11129E-05-2.59866E-05 1.54905E-05 3.39945E-19 2.13297E-20
 -1      4078 8.93345E-05-2.40159E-05-2.79962E-05-4.81705E-06 6.19038E-19-1.55081E-18
 -1      4079 9.68390E-05-2.84173E-05-2.93237E-05 2.28499E-07-1.79556E-19 7.25176E-20
 -1      4080 9.67933E-05-2.86045E-05-2.92237E-05 2.97184E-07-1.66648E-19-2.45377E-20
 -1      4081 9.61688E-05-2.61079E-05-3.00338E-05 5.09659E-07 3.26160E-19-7.20084E-19
 -1      4082 9.60077E-05-2.54244E-05-3.02465E-05 3.91641E-07 4.83937E-19-6.14014E-19
 -1      4083 9.63206E-05-2.61314E-05-3.00719E-05 1.75728E-07 5.05752E-19-3.72562E-19
 -1      4084 9.63442E-05-2.66914E-05-2.98544E-05 1.70983E-07 3.01314E-19-7.60693E-19
 -1      4085 8.99775E-05-3.37135E-05-2.40460E-05-2.26712E-05 6.30656E-19-1.17691E-18
 -1      4086 9.35411E-05-3.52920E-05-2.49342E-05-2.05488E-05 9.78790E-19 9.44137E-19
 -1      4087 8.49351E-05-2.96444E-05-2.37449E-05-2.11454E-05-3.28556E-19-3.44222E-18
 -1      4088 9.67107E-05-2.87283E-05-2.91352E-05 3.07490E-07-1.26364E-19 6.11926E-20
 -1      4089 9.66067E-05-2.87945E-05-2.90620E-05 3.53688E-07-6.19955E-20-6.95808E-20
 -1      4090 9.67811E-05-2.86466E-05-2.92019E-05 1.54886E-07-1.02951E-19 2.47948E-19
 -1      4091 9.64718E-05-2.88104E-05-2.89977E-05 3.59986E-07 3.99789E-20-2.88124E-20
 -1      4092 9.63272E-05-2.87847E-05-2.89460E-05 3.94728E-07 2.55060E-20 2.15300E-19
 -1      4093 9.65664E-05-2.87891E-05-2.90487E-05 1.87594E-07 3.04984E-21 3.23711E-20
 -1      4094 9.61532E-05-2.87190E-05-2.89009E-05 4.02998E-07 1.69372E-19 8.71877E-20
 -1      4095 9.59782E-05-2.86230E-05-2.88658E-05 4.35415E-07 3.12008E-19 2.55871E-19
 -1      4096 9.62598E-05-2.87386E-05-2.89385E-05 2.15404E-07 1.07228E-19 1.36578E-19
 -1      4097 9.57734E-05-2.84938E-05-2.88350E-05 4.52571E-07-1.16203E-19 1.84152E-19
 -1      4098 9.55747E-05-2.83448E-05-2.88119E-05 4.92119E-07-3.16643E-19 2.14191E-19
 -1      4099 9.58830E-05-2.85398E-05-2.88610E-05 2.48357E-07 1.82475E-20-3.39985E-19
 -1      4100 9.53382E-05-2.81646E-05-2.87908E-05 5.21226E-07-2.85261E-19 2.55627E-19
 -1      4101 9.51163E-05-2.79718E-05-2.87750E-05 5.77522E-07-2.86333E-19 4.48833E-19
 -1      4102 9.54460E-05-2.82212E-05-2.88093E-05 2.96077E-07-1.83284E-19-1.06698E-19
 -1      4103 9.48479E-05-2.77512E-05-2.87590E-05 6.27421E-07-2.05522E-19 1.89041E-19
 -1      4104 9.46020E-05-2.75243E-05-2.87462E-05 7.08852E-07-2.95251E-19 2.23764E-19
 -1      4105 9.49477E-05-2.78065E-05-2.87716E-05 3.73041E-07-1.59898E-19 6.24142E-20
 -1      4106 9.42968E-05-2.72704E-05-2.87303E-05 7.89228E-07-6.92906E-19 4.74384E-19
 -1      4107 9.40260E-05-2.70184E-05-2.87156E-05 9.06727E-07-8.43565E-19 4.99902E-19
 -1      4108 9.43816E-05-2.73113E-05-2.87391E-05 4.94367E-07-3.34160E-19 1.01429E-19
 -1      4109 9.36784E-05-2.67396E-05-2.86945E-05 1.03061E-06-6.74260E-19 7.09391E-19
 -1      4110 9.33840E-05-2.64741E-05-2.86728E-05 1.19791E-06-3.34246E-19 7.68286E-19
 -1      4111 9.37380E-05-2.67501E-05-2.87013E-05 6.82295E-07-6.04015E-19 2.22623E-19
 -1      4112 9.29894E-05-2.61823E-05-2.86403E-05 1.38320E-06-2.44847E-19 6.62604E-19
 -1      4113 9.26776E-05-2.59205E-05-2.86057E-05 1.61803E-06 9.93377E-20 7.02139E-19
 -1      4114 9.30070E-05-2.61406E-05-2.86466E-05 9.67501E-07-1.42822E-19 5.14734E-20
 -1      4115 9.22344E-05-2.56337E-05-2.85545E-05 1.88919E-06 1.14030E-19 4.58807E-19
 -1      4116 9.19197E-05-2.54021E-05-2.85003E-05 2.21458E-06-3.57648E-19 1.17216E-19
 -1      4117 9.21828E-05-2.55094E-05-2.85611E-05 1.39263E-06-1.32316E-19-4.40683E-20
 -1      4118 9.14323E-05-2.51482E-05-2.84220E-05 2.60452E-06-1.38258E-19 4.62242E-19
 -1      4119 9.11424E-05-2.49864E-05-2.83411E-05 3.04986E-06 1.88695E-19 2.91040E-19
 -1      4120 9.12685E-05-2.48982E-05-2.84287E-05 2.01634E-06-7.69965E-20 2.04165E-19
 -1      4121 9.06254E-05-2.48077E-05-2.82258E-05 3.60199E-06-2.87456E-20 8.65370E-19
 -1      4122 9.04086E-05-2.47744E-05-2.81112E-05 4.20335E-06 9.75515E-20 8.73995E-19
 -1      4123 9.02833E-05-2.43718E-05-2.82298E-05 2.91787E-06 6.96035E-19 7.07275E-19
 -1      4124 8.98930E-05-2.47329E-05-2.79480E-05 4.97319E-06 7.59151E-20 5.17033E-19
 -1      4125 8.98284E-05-2.49130E-05-2.77940E-05 5.77130E-06 4.45055E-19 9.34609E-20
 -1      4126 8.92724E-05-2.40291E-05-2.79422E-05 4.20210E-06 7.48971E-20 1.43876E-18
 -1      4127 8.93747E-05-2.50999E-05-2.75725E-05 6.82574E-06 4.63686E-19-2.75021E-20
 -1      4128 8.95824E-05-2.56128E-05-2.73781E-05 7.86104E-06 6.05824E-19-8.58556E-20
 -1      4129 8.83242E-05-2.40185E-05-2.75420E-05 6.00402E-06 3.30037E-19 1.22122E-18
 -1      4130 8.92866E-05-2.61329E-05-2.70903E-05 9.26022E-06 9.38673E-19-5.68292E-19
 -1      4131 8.99145E-05-2.71611E-05-2.68593E-05 1.05963E-05 7.29004E-19-1.90475E-19
 -1      4132 8.76144E-05-2.45694E-05-2.70069E-05 8.47965E-06 6.74803E-19-6.60173E-20
 -1      4133 8.99049E-05-2.80064E-05-2.65494E-05 1.20981E-05 2.59238E-19 3.04253E-19
 -1      4134 9.11992E-05-2.97108E-05-2.63186E-05 1.37086E-05 6.72720E-19 6.31094E-19
 -1      4135 8.75867E-05-2.76346E-05-2.56597E-05 1.48142E-05 9.52647E-20 4.46347E-21
 -1      4136 8.72880E-05-2.57647E-05-2.63967E-05 1.13488E-05 8.66098E-19-4.49093E-19
 -1      4137 9.45696E-05-2.74355E-05-2.87719E-05-1.24910E-06-5.97066E-19-3.65570E-21
 -1      4138 9.48017E-05-2.76817E-05-2.87690E-05-1.16894E-06-2.30709E-19-5.41658E-20
 -1      4139 9.48933E-05-2.77471E-05-2.87745E-05-9.40959E-07-4.11540E-19 1.83691E-19
 -1      4140 9.12663E-05-2.91785E-05-2.65586E-05-1.27629E-05-1.51842E-18 2.82319E-18
 -1      4141 9.01165E-05-2.76313E-05-2.67829E-05-1.13654E-05-1.02166E-18 1.65558E-18
 -1      4142 8.82581E-05-2.25638E-05-2.81802E-05-1.41903E-07-2.46169E-21-4.20828E-22
 -1      4143 8.92161E-05-2.31487E-05-2.83177E-05-3.23856E-07 1.97355E-19-3.75095E-19
 -1      4144 9.68069E-05-2.77988E-05-2.95751E-05 1.12732E-07-1.13566E-19 1.77757E-19
 -1      4145 9.68478E-05-2.81509E-05-2.94418E-05 2.08171E-07-4.18682E-20 2.04567E-19
 -1      4146 9.68681E-05-2.82513E-05-2.94086E-05 1.07807E-07-2.14522E-19 4.37070E-19
 -1      4147 9.01988E-05-2.67890E-05-2.71362E-05-9.69332E-06 4.83487E-19 1.10591E-18
 -1      4148 8.98420E-05-2.59756E-05-2.73813E-05-8.47034E-06 1.55057E-18 1.67621E-18
 -1      4149 8.78705E-05-2.56556E-05-2.66666E-05-1.05266E-05-7.13093E-19 4.57501E-19
 -1      4150 9.13636E-05-2.46949E-05-2.85841E-05-7.33942E-07-2.19289E-19 4.65617E-19
 -1      4151 9.19585E-05-2.51595E-05-2.86319E-05-7.47899E-07-5.96860E-19 4.68072E-19
 -1      4152 9.64725E-05-2.68286E-05-2.98446E-05 8.90258E-08 4.30297E-19-9.31752E-19
 -1      4153 9.64893E-05-2.66498E-05-2.99345E-05 1.17555E-07 3.92493E-19-5.41663E-19
 -1      4154 9.64269E-05-2.63898E-05-3.00139E-05 6.98548E-08 4.47564E-19-2.72799E-20
 -1      4155 9.66014E-05-2.70760E-05-2.97966E-05-2.11754E-08 3.24591E-19-5.80416E-19
 -1      4156 9.24794E-05-2.55922E-05-2.86737E-05-8.00954E-07-8.60639E-19 4.22725E-19
 -1      4157 9.29527E-05-2.59962E-05-2.86992E-05-7.80306E-07-5.53288E-19 1.86141E-21
 -1      4158 9.21773E-05-2.53553E-05-2.86234E-05-2.79395E-07-6.18092E-19 5.67784E-19
 -1      4159 8.34162E-05-2.01105E-05-2.71825E-05 1.73286E-06-5.73352E-19-1.66629E-19
 -1      4160 8.49941E-05-2.07796E-05-2.75205E-05 1.16481E-06-2.13542E-19-2.66832E-19
 -1      4161 8.61098E-05-2.13602E-05-2.77863E-05 5.68959E-07 3.82998E-19-1.77182E-19
 -1      4162 8.73345E-05-2.19951E-05-2.80046E-05 2.28618E-07 2.70256E-19-1.66948E-19
 -1      4163 8.79704E-05-2.24901E-05-2.80336E-05 1.09227E-06 1.18686E-19 1.84025E-19
 -1      4164 8.59417E-05-2.14722E-05-2.75940E-05 2.23023E-06 2.07340E-19 3.87960E-19
 -1      4165 7.57368E-05-1.77416E-05-2.48955E-05 6.29906E-06 3.15987E-19-7.71425E-19
 -1      4166 7.84023E-05-1.84267E-05-2.56881E-05 4.86257E-06-4.36368E-19-6.14554E-19
 -1      4167 7.36120E-05-1.81905E-05-2.37838E-05 1.04196E-05-1.03894E-21-8.52810E-19
 -1      4168 7.52537E-05-1.81137E-05-2.44390E-05 8.20321E-06 2.57156E-19-1.07370E-18
 -1      4169 7.82843E-05-1.99334E-05-2.49675E-05 1.00940E-05 1.79933E-19-2.21287E-18
 -1      4170 9.44633E-05-3.47809E-05-2.55584E-05-1.83629E-05 9.86760E-20 2.41243E-18
 -1      4171 9.58231E-05-2.85836E-05-2.88158E-05-9.64153E-07-1.84814E-19-4.90392E-19
 -1      4172 9.59631E-05-2.86786E-05-2.88366E-05-9.26073E-07 1.43372E-20-1.73281E-19
 -1      4173 9.61097E-05-2.87132E-05-2.88846E-05-7.62406E-07-1.91657E-19-4.35908E-19
 -1      4174 9.67984E-05-2.80126E-05-2.94792E-05-2.59028E-07 4.50196E-20-3.12661E-19
 -1      4175 9.67385E-05-2.76068E-05-2.96290E-05-1.06187E-07 1.37344E-19-3.96330E-19
 -1      4176 9.67363E-05-2.74103E-05-2.97097E-05-5.04574E-08 1.45727E-19-1.41127E-20
 -1      4177 7.80689E-05-2.17171E-05-2.41431E-05 1.42876E-05-3.85053E-20-1.52802E-18
 -1      4178 9.62853E-05-2.59415E-05-3.01400E-05 4.35604E-08 3.11867E-19-1.41736E-19
 -1      4179 9.59490E-05-2.51830E-05-3.03337E-05-1.90206E-08 2.21472E-19-3.22998E-19
 -1      4180 9.59901E-05-2.52898E-05-3.03080E-05-1.47808E-07 1.16007E-19-4.33511E-19
 -1      4181 7.81838E-05-2.00241E-05-2.49450E-05-9.50901E-06 9.26866E-19-1.86304E-18
 -1      4182 7.39982E-05-1.90893E-05-2.35684E-05-1.18781E-05 8.48644E-19-2.04790E-19
 -1      4183 8.99798E-05-2.36826E-05-2.84307E-05-5.40562E-07 2.97107E-19-3.10918E-19
 -1      4184 9.07330E-05-2.42088E-05-2.85140E-05-6.18196E-07 1.47809E-19 3.11867E-19
 -1      4185 9.10341E-05-2.44693E-05-2.85088E-05-4.43553E-08 2.60518E-19 3.52007E-19
 -1      4186 8.00171E-05-1.88733E-05-2.62710E-05 3.53877E-06-6.88762E-19-1.83346E-19
 -1      4187 8.20647E-05-1.95514E-05-2.67870E-05 2.64881E-06-3.74131E-19-3.73546E-20
 -1      4188 8.34903E-05-2.05263E-05-2.69408E-05 3.98144E-06-5.50110E-19 3.11176E-19
 -1      4189 8.04831E-05-1.97426E-05-2.59807E-05 6.58495E-06-2.00747E-19-2.43590E-19
 -1      4190 8.23492E-05-2.07451E-05-2.64148E-05-6.12106E-06-1.11869E-18-3.45377E-19
 -1      4191 8.02596E-05-2.02295E-05-2.58064E-05-7.33527E-06 4.63850E-20-7.63063E-19
 -1      4192 7.42922E-05-2.09598E-05-2.27024E-05-1.62818E-05 5.54257E-19-1.30754E-18
 -1      4193 9.67506E-05-2.75181E-05-2.96714E-05 9.50381E-08-9.94293E-20 5.87300E-20
 -1      4194 9.68078E-05-2.76815E-05-2.96260E-05 5.16120E-08-3.49262E-20 5.69773E-19
 -1      4195 9.66719E-05-2.71936E-05-2.97737E-05 5.96372E-09-1.78511E-19-5.50833E-20
 -1      4196 9.06938E-05-2.52173E-05-2.80626E-05-5.76668E-06 1.20425E-18 9.52684E-19
 -1      4197 8.90318E-05-2.42410E-05-2.77556E-05-5.80755E-06 5.81540E-19-9.07962E-19
 -1      4198 8.50659E-05-2.15647E-05-2.72268E-05-4.31917E-06-1.53705E-18-1.76614E-18
 -1      4199 8.36206E-05-2.11128E-05-2.68406E-05-5.09577E-06-1.99376E-18-1.32239E-18
 -1      4200 8.45257E-05-2.22297E-05-2.66546E-05-7.45421E-06-8.22666E-19 4.63420E-19
 -1      4201 8.66866E-05-2.27337E-05-2.73835E-05-5.52590E-06 1.60109E-20-1.67141E-18
 -1      4202 9.20956E-05-3.18333E-05-2.58113E-05-1.63834E-05-1.25414E-19 2.82633E-18
 -1      4203 8.81813E-05-2.88104E-05-2.54611E-05-1.61260E-05-9.48194E-19-1.83254E-19
 -1      4204 8.96485E-05-2.35050E-05-2.83234E-05 3.79703E-07 3.46642E-19 9.27944E-19
 -1      4205 8.81252E-05-2.40990E-05-2.74608E-05-6.67964E-06 8.27796E-19-3.28402E-19
 -1      4206 8.13460E-05-2.19826E-05-2.54055E-05-1.09305E-05 4.80257E-19-1.11498E-18
 -1      4207 9.33846E-05-2.63745E-05-2.87234E-05-7.97471E-07-3.42693E-19-1.98593E-19
 -1      4208 9.37654E-05-2.67211E-05-2.87364E-05-7.61759E-07-2.49481E-19 3.52588E-21
 -1      4209 9.31223E-05-2.61491E-05-2.86918E-05-3.96329E-07-5.07536E-19 5.82124E-19
 -1      4210 9.09870E-05-2.61510E-05-2.77740E-05-7.36640E-06 1.47858E-18 2.55700E-18
 -1      4211 9.10834E-05-2.59063E-05-2.79487E-05-6.65538E-06 1.40413E-18 3.06521E-18
 -1      4212 9.52623E-05-2.80785E-05-2.87933E-05-6.69923E-07-2.52464E-19 1.09242E-19
 -1      4213 9.54834E-05-2.82702E-05-2.88069E-05-6.39260E-07-1.27196E-19 1.84563E-19
 -1      4214 9.57670E-05-2.85020E-05-2.88279E-05-8.14210E-07-1.78507E-19-7.54729E-20
 -1      4215 9.43326E-05-2.72122E-05-2.87617E-05-1.03001E-06-4.30810E-19 1.07430E-22
 -1      4216 1.07101E-04-4.36438E-05-2.70351E-05 1.55726E-05-7.46514E-19 4.82772E-19
 -1      4217 9.47421E-05-2.76131E-05-2.87708E-05-7.14485E-07-4.50819E-19 2.39980E-19
 -1      4218 9.50013E-05-2.78548E-05-2.87789E-05-6.78826E-07-5.71447E-19 1.89221E-19
 -1      4219 9.51260E-05-2.79436E-05-2.87900E-05-4.48022E-07-3.24549E-19 3.43654E-20
 -1      4220 8.53174E-05-2.63122E-05-2.52803E-05 1.48569E-05 7.10250E-20-4.62576E-19
 -1      4221 8.08964E-05-2.34244E-05-2.45700E-05 1.45861E-05-9.22918E-20-7.87840E-19
 -1      4222 8.03664E-05-2.22485E-05-2.49552E-05 1.25101E-05 3.08360E-19-1.47218E-18
 -1      4223 8.51163E-05-2.51905E-05-2.56979E-05 1.29856E-05 5.95448E-19-3.17661E-19
 -1      4224 9.68156E-05-2.83146E-05-2.93576E-05-2.95931E-07 3.26713E-20-2.77013E-19
 -1      4225 9.68568E-05-2.82068E-05-2.94236E-05-1.66545E-07 3.19078E-20 1.91653E-19
 -1      4226 9.67792E-05-2.85259E-05-2.92504E-05-3.90279E-07 5.18764E-20-2.39206E-19
 -1      4227 9.59842E-05-2.52924E-05-3.03002E-05-2.31996E-07 4.72573E-21-5.08974E-19
 -1      4228 9.60285E-05-2.54473E-05-3.02561E-05-3.37978E-07-7.52468E-20-4.52755E-19
 -1      4229 9.62838E-05-2.60520E-05-3.00909E-05-2.02291E-07-2.21984E-19-5.02219E-19
 -1      4230 9.63164E-05-2.60104E-05-3.01194E-05-8.85118E-08-3.25477E-20-3.55588E-19
 -1      4231 9.64007E-05-2.87997E-05-2.89717E-05-5.58179E-07-3.66910E-19-6.84815E-21
 -1      4232 9.65295E-05-2.87956E-05-2.90280E-05-5.17065E-07-2.06193E-19-1.58294E-19
 -1      4233 7.97724E-05-2.44235E-05-2.37416E-05-1.76020E-05 3.70140E-19-3.85869E-18
 -1      4234 9.13519E-05-2.56170E-05-2.81687E-05-5.70206E-06 1.31577E-18 1.82147E-18
 -1      4235 8.93844E-05-2.52820E-05-2.74583E-05-7.76814E-06 1.28857E-18 4.75882E-19
 -1      4236 9.66316E-05-2.87546E-05-2.90897E-05-4.85634E-07-1.73424E-19-1.73052E-19
 -1      4237 9.67233E-05-2.86603E-05-2.91692E-05-4.25091E-07-4.70035E-21-3.59172E-19
 -1      4238 9.67886E-05-2.86059E-05-2.92243E-05-2.51218E-07-1.02740E-19 4.49826E-19
 -1      4239 9.66209E-05-2.87664E-05-2.90828E-05-3.35241E-07-3.58347E-19 4.51743E-19
 -1      4240 9.20566E-05-2.53828E-05-2.85883E-05 5.09652E-07-2.80667E-19 2.10769E-19
 -1      4241 9.25757E-05-2.57752E-05-2.86330E-05 3.98596E-07-4.28288E-19 4.13584E-19
 -1      4242 8.67861E-05-2.36494E-05-2.70500E-05-7.58221E-06 1.09328E-19 5.79355E-20
 -1      4243 8.55764E-05-2.35399E-05-2.66340E-05-8.76299E-06-3.81982E-19 6.11354E-19
 -1      4244 9.68165E-05-2.86286E-05-2.92228E-05-6.91906E-08-2.04492E-19 4.54328E-19
 -1      4245 9.67312E-05-2.87445E-05-2.91350E-05-5.36361E-08-1.41611E-19 4.08406E-19
 -1      4246 9.66312E-05-2.87917E-05-2.90734E-05-9.86777E-08-1.58330E-19 1.96818E-19
 -1      4247 9.64949E-05-2.88055E-05-2.90086E-05-8.40406E-08-3.23254E-20 1.54647E-19
 -1      4248 9.59896E-05-2.86070E-05-2.88793E-05 3.05807E-08 1.59637E-19-1.76816E-19
 -1      4249 9.57837E-05-2.84739E-05-2.88471E-05 5.16658E-08 8.92849E-20-4.26212E-19
 -1      4250 9.55300E-05-2.82869E-05-2.88194E-05-8.43595E-08-1.13066E-19-3.01448E-19
 -1      4251 9.52912E-05-2.80967E-05-2.87983E-05-5.66761E-08-1.76342E-19-5.97264E-20
 -1      4252 9.50283E-05-2.78770E-05-2.87817E-05-5.75362E-08-4.71587E-19 7.15574E-20
 -1      4253 9.47543E-05-2.76398E-05-2.87651E-05-1.53381E-08-4.07639E-19-1.37252E-19
 -1      4254 9.37720E-05-2.67829E-05-2.87166E-05 8.57124E-08-3.13713E-19 3.78389E-19
 -1      4255 9.34151E-05-2.64700E-05-2.86944E-05 1.86487E-07-3.63430E-19 4.67932E-19
 -1      4256 9.29827E-05-2.61157E-05-2.86673E-05 2.44909E-07-6.97132E-19 3.28069E-19
 -1      4257 9.15967E-05-2.50273E-05-2.85342E-05 7.40740E-07-1.93394E-19-1.23371E-19
 -1      4258 9.09720E-05-2.46051E-05-2.84614E-05 9.35221E-07 2.19252E-19 3.12562E-19
 -1      4259 9.04617E-05-2.42554E-05-2.83780E-05 1.27749E-06 6.02967E-19 7.80614E-19
 -1      4260 8.97108E-05-2.38187E-05-2.82635E-05 1.59892E-06 4.85578E-19 8.79656E-19
 -1      4261 8.91618E-05-2.35078E-05-2.81395E-05 2.09803E-06 6.09683E-19 8.98653E-19
 -1      4262 8.82624E-05-2.30823E-05-2.79652E-05 2.60652E-06 5.78441E-19 5.46412E-19
 -1      4263 8.77021E-05-2.28613E-05-2.77873E-05 3.32286E-06 3.04983E-19 5.81283E-19
 -1      4264 8.66299E-05-2.24871E-05-2.75288E-05 4.10057E-06-8.72911E-20 4.95756E-19
 -1      4265 8.61119E-05-2.24338E-05-2.72820E-05 5.11247E-06 2.34085E-20 1.62873E-19
 -1      4266 8.48371E-05-2.21689E-05-2.69059E-05 6.27644E-06-1.09183E-19-6.18566E-21
 -1      4267 8.44784E-05-2.24258E-05-2.65762E-05 7.69146E-06 1.42358E-19-6.58742E-19
 -1      4268 9.62441E-05-2.87598E-05-2.89217E-05-5.66524E-07-2.57254E-19 2.19105E-20
 -1      4269 9.63654E-05-2.87725E-05-2.89696E-05-3.91935E-07-2.47707E-19 5.28656E-19
 -1      4270 9.60859E-05-2.86868E-05-2.88853E-05-5.97298E-07-3.57413E-19 6.51917E-20
 -1      4271 9.68206E-05-2.76653E-05-2.96390E-05-3.80102E-08-2.39897E-20 2.14842E-19
 -1      4272 9.66938E-05-2.71476E-05-2.98037E-05 2.54814E-08 1.69085E-19 1.80743E-19
 -1      4273 9.68856E-05-2.82415E-05-2.94194E-05-4.41663E-08-1.29351E-19 4.10421E-19
 -1      4274 9.68698E-05-2.84873E-05-2.93034E-05-2.18915E-08-1.13650E-19 5.08052E-19
 -1      4275 8.54773E-05-2.41181E-05-2.62494E-05-1.04284E-05-1.37749E-18 9.24672E-20
 -1      4276 9.56323E-05-2.83542E-05-2.88330E-05-3.01648E-07 5.31240E-20-9.50065E-20
 -1      4277 9.57349E-05-2.84506E-05-2.88360E-05-5.07407E-07 7.53975E-21 1.26143E-19
 -1      4278 9.59257E-05-2.85852E-05-2.88601E-05-4.82688E-07-9.88835E-20 8.69868E-20
 -1      4279 8.06690E-05-2.15331E-05-2.53379E-05 1.06326E-05 4.00266E-19-1.61907E-18
 -1      4280 9.64658E-05-2.64605E-05-3.00047E-05 3.27489E-09 3.52728E-19-1.29165E-19
 -1      4281 9.41262E-05-2.70463E-05-2.87512E-05-7.60946E-07-6.94397E-20 2.80947E-19
 -1      4282 9.44373E-05-2.73392E-05-2.87589E-05-7.22153E-07-7.14400E-20 4.13414E-19
 -1      4283 9.45667E-05-2.74443E-05-2.87619E-05-4.54858E-07-2.95893E-19 3.25190E-19
 -1      4284 9.39077E-05-2.68458E-05-2.87331E-05-4.44087E-07 1.85927E-20 3.24099E-19
 -1      4285 9.64412E-05-2.65258E-05-2.99672E-05-9.45566E-08-3.26529E-19-5.46899E-19
 -1      4286 8.34410E-05-2.42571E-05-2.54217E-05-1.29752E-05-4.86933E-19-1.38074E-18
 -1      4287 9.63377E-05-2.87721E-05-2.89564E-05-1.02201E-07-5.08447E-20 6.96763E-20
 -1      4288 9.65527E-05-2.67458E-05-2.99186E-05-1.27897E-08 6.42758E-20 1.26326E-20
 -1      4289 9.61596E-05-2.86994E-05-2.89108E-05-8.73136E-08-6.07908E-20-2.30117E-20
 -1      4290 9.44470E-05-2.73726E-05-2.87508E-05-6.42692E-09-3.26723E-20 1.08163E-19
 -1      4291 9.41347E-05-2.70948E-05-2.87341E-05 5.88873E-08-1.49734E-19 2.43679E-19
 -1      4292 8.30780E-05-2.23951E-05-2.60525E-05 9.36414E-06 4.46386E-19-1.00831E-18
 -1      4293 8.36213E-05-2.64604E-05-2.44339E-05-1.71064E-05 6.28060E-19-2.34862E-18
 -1      4294 9.60508E-05-2.86359E-05-2.88920E-05-2.94856E-07-8.46111E-20 3.53069E-19
 -1      4295 9.65441E-05-2.67624E-05-2.99096E-05-4.30910E-08-9.43162E-20-3.75493E-21
 -1      4296 8.53843E-05-2.44890E-05-2.60614E-05 1.13437E-05 6.88873E-19-7.23485E-19
 -1      4297 9.68658E-05-2.79237E-05-2.95443E-05-4.02269E-09-6.80984E-20 2.83866E-19
 -3
    1PSTEP                         4           1           1          
  100CL  101 1.000000000        4297                     0    1           1
 -4  ERROR       1    1
 -5  STR(%)      1    1    0    0
 -1         1 1.27614E+01
 -1         2 2.52148E+01
 -1         3 5.13713E-02
 -1         4 3.87103E-02
 -1         5 1.40433E+01
 -1         6 1.31475E+01
 -1         7 1.31475E+01
 -1         8 3.66147E+00
 -1         9 1.82181E+00
 -1        10 1.28720E+00
 -1        11 1.04474E+00
 -1        12 8.98801E-01
 -1        13 8.08185E-01
 -1        14 7.54139E-01
 -1        15 7.56103E-01
 -1        16 8.12496E-01
 -1        17 8.99771E-01
 -1        18 1.05102E+00
 -1        19 1.30574E+00
 -1        20 1.83247E+00
 -1        21 3.50324E+00
 -1        22 8.64330E+00
 -1        23 1.31475E+01
 -1        24 4.32252E+00
 -1        25 3.34720E+00
 -1        26 2.11866E+00
 -1        27 1.37113E+00
 -1        28 1.02268E+00
 -1        29 7.86239E-01
 -1        30 6.09756E-01
 -1        31 4.73789E-01
 -1        32 3.68629E-01
 -1        33 2.92201E-01
 -1        34 2.33709E-01
 -1        35 1.88861E-01
 -1        36 1.55479E-01
 -1        37 1.45231E-01
 -1        38 1.61683E-01
 -1        39 1.84289E-01
 -1        40 2.10665E-01
 -1        41 2.36660E-01
 -1        42 2.58079E-01
 -1        43 3.29296E-01
 -1        44 4.13595E-01
 -1        45 4.84841E-01
 -1        46 5.17900E-01
 -1        47 5.29954E-01
 -1        48 5.94780E-01
 -1        49 6.47756E-01
 -1        50 9.09889E-01
 -1        51 1.20315E+00
 -1        52 1.86816E+00
 -1        53 2.38603E+00
 -1        54 2.53801E+00
 -1        55 2.53801E+00
 -1        56 2.52688E+00
 -1        57 2.40725E+00
 -1        58 1.90995E+00
 -1        59 1.24265E+00
 -1        60 9.12475E-01
 -1        61 6.50295E-01
 -1        62 5.73466E-01
 -1        63 5.08224E-01
 -1        64 5.08224E-01
 -1        65 4.65919E-01
 -1        66 3.76620E-01
 -1        67 3.09914E-01
 -1        68 3.02395E-01
 -1        69 2.63844E-01
 -1        70 2.25858E-01
 -1        71 1.61865E-01
 -1        72 1.40433E+01
 -1        73 3.39844E+00
 -1        74 2.41798E+00
 -1        75 1.67164E+00
 -1        76 1.15163E+00
 -1        77 9.12636E-01
 -1        78 7.40600E-01
 -1        79 6.00827E-01
 -1        80 4.86309E-01
 -1        81 3.93553E-01
 -1        82 3.21527E-01
 -1        83 2.68603E-01
 -1        84 2.28875E-01
 -1        85 2.05883E-01
 -1        86 2.06349E-01
 -1        87 2.28018E-01
 -1        88 2.63674E-01
 -1        89 3.12823E-01
 -1        90 4.08646E-01
 -1        91 5.35411E-01
 -1        92 6.94162E-01
 -1        93 8.81336E-01
 -1        94 1.08161E+00
 -1        95 1.25909E+00
 -1        96 1.34754E+00
 -1        97 1.76855E+00
 -1        98 2.31850E+00
 -1        99 2.54276E+00
 -1       100 3.01565E+00
 -1       101 3.11330E+00
 -1       102 4.51705E+00
 -1       103 7.31545E+00
 -1       104 8.32550E+00
 -1       105 8.32550E+00
 -1       106 6.69877E+00
 -1       107 3.14570E+00
 -1       108 2.53728E+00
 -1       109 2.96781E+00
 -1       110 2.96781E+00
 -1       111 2.74694E+00
 -1       112 2.27778E+00
 -1       113 1.85842E+00
 -1       114 1.43829E+00
 -1       115 1.06522E+00
 -1       116 7.68530E-01
 -1       117 6.04675E-01
 -1       118 4.55629E-01
 -1       119 3.03946E-01
 -1       120 1.88377E-01
 -1       121 8.27446E-02
 -1       122 8.27446E-02
 -1       123 6.47828E-02
 -1       124 2.66732E-02
 -1       125 4.67721E-02
 -1       126 6.39259E-02
 -1       127 6.82535E-02
 -1       128 6.82535E-02
 -1       129 6.27477E-02
 -1       130 4.93231E-02
 -1       131 3.08064E-02
 -1       132 1.26390E-02
 -1       133 3.22752E-02
 -1       134 4.82574E-02
 -1       135 7.41710E-02
 -1       136 8.22890E-02
 -1       137 2.52148E+01
 -1       138 3.01704E+01
 -1       139 3.01704E+01
 -1       140 2.52767E+01
 -1       141 1.29951E+01
 -1       142 1.27475E+01
 -1       143 1.27475E+01
 -1       144 1.31998E+01
 -1       145 1.31998E+01
 -1       146 1.43725E+01
 -1       147 3.66288E+01
 -1       148 3.66288E+01
 -1       149 2.55605E+01
 -1       150 2.46552E+01
 -1       151 2.42279E+01
 -1       152 2.46075E+01
 -1       153 4.00660E+01
 -1       154 4.00660E+01
 -1       155 1.56619E+01
 -1       156 1.27614E+01
 -1       157 1.19978E+01
 -1       158 1.18102E+01
 -1       159 1.18102E+01
 -1       160 1.74412E+01
 -1       161 4.57450E+01
 -1       162 4.57450E+01
 -1       163 2.47417E+01
 -1       164 6.07568E+00
 -1       165 2.29591E+00
 -1       166 1.50557E+00
 -1       167 1.15626E+00
 -1       168 9.72384E-01
 -1       169 8.63919E-01
 -1       170 7.95859E-01
 -1       171 7.56103E-01
 -1       172 7.99309E-01
 -1       173 8.66653E-01
 -1       174 9.79886E-01
 -1       175 1.17082E+00
 -1       176 1.52543E+00
 -1       177 2.25853E+00
 -1       178 3.92980E+00
 -1       179 1.40433E+01
 -1       180 4.32252E+00
 -1       181 3.34720E+00
 -1       182 2.11866E+00
 -1       183 1.45419E+00
 -1       184 1.03348E+00
 -1       185 7.86239E-01
 -1       186 6.09756E-01
 -1       187 4.82510E-01
 -1       188 3.85905E-01
 -1       189 3.07760E-01
 -1       190 2.49212E-01
 -1       191 2.02281E-01
 -1       192 1.62841E-01
 -1       193 1.36030E-01
 -1       194 1.45231E-01
 -1       195 1.61683E-01
 -1       196 1.84289E-01
 -1       197 2.10665E-01
 -1       198 2.36660E-01
 -1       199 2.77383E-01
 -1       200 3.35973E-01
 -1       201 4.13595E-01
 -1       202 4.84841E-01
 -1       203 5.17900E-01
 -1       204 5.29954E-01
 -1       205 5.94780E-01
 -1       206 6.47756E-01
 -1       207 9.09889E-01
 -1       208 1.31746E+00
 -1       209 1.86816E+00
 -1       210 2.38603E+00
 -1       211 2.53801E+00
 -1       212 2.52688E+00
 -1       213 2.40725E+00
 -1       214 1.90995E+00
 -1       215 1.35109E+00
 -1       216 9.15386E-01
 -1       217 6.50295E-01
 -1       218 5.73466E-01
 -1       219 5.03680E-01
 -1       220 5.08224E-01
 -1       221 4.65919E-01
 -1       222 3.76620E-01
 -1       223 3.09914E-01
 -1       224 3.02395E-01
 -1       225 2.63844E-01
 -1       226 2.25858E-01
 -1       227 1.61865E-01
 -1       228 3.39844E+00
 -1       229 2.41798E+00
 -1       230 1.67164E+00
 -1       231 1.15163E+00
 -1       232 9.12636E-01
 -1       233 7.40600E-01
 -1       234 6.00827E-01
 -1       235 4.86309E-01
 -1       236 3.93553E-01
 -1       237 3.21527E-01
 -1       238 2.68603E-01
 -1       239 2.28875E-01
 -1       240 2.05883E-01
 -1       241 1.98874E-01
 -1       242 2.06349E-01
 -1       243 2.28018E-01
 -1       244 2.80475E-01
 -1       245 3.61435E-01
 -1       246 4.65692E-01
 -1       247 5.96146E-01
 -1       248 7.47562E-01
 -1       249 9.05741E-01
 -1       250 1.08161E+00
 -1       251 1.25909E+00
 -1       252 1.57028E+00
 -1       253 1.89031E+00
 -1       254 2.31850E+00
 -1       255 2.54276E+00
 -1       256 3.01565E+00
 -1       257 3.11330E+00
 -1       258 4.60607E+00
 -1       259 7.31545E+00
 -1       260 8.32550E+00
 -1       261 6.69877E+00
 -1       262 3.14570E+00
 -1       263 2.12896E+00
 -1       264 2.57113E+00
 -1       265 2.96781E+00
 -1       266 2.74694E+00
 -1       267 2.27778E+00
 -1       268 1.85842E+00
 -1       269 1.47647E+00
 -1       270 1.12418E+00
 -1       271 8.18507E-01
 -1       272 6.04675E-01
 -1       273 4.55629E-01
 -1       274 3.03946E-01
 -1       275 1.88377E-01
 -1       276 1.07871E-01
 -1       277 1.07871E-01
 -1       278 9.74096E-02
 -1       279 8.24308E-02
 -1       280 1.16729E-01
 -1       281 1.29363E-01
 -1       282 1.29363E-01
 -1       283 1.27920E-01
 -1       284 1.13737E-01
 -1       285 8.55241E-02
 -1       286 5.13215E-02
 -1       287 4.85736E-02
 -1       288 7.91521E-02
 -1       289 7.91521E-02
 -1       290 9.41827E-02
 -1       291 2.95924E+01
 -1       292 3.24759E+01
 -1       293 3.24759E+01
 -1       294 2.71645E+01
 -1       295 1.29951E+01
 -1       296 1.22589E+01
 -1       297 1.27475E+01
 -1       298 1.21102E+01
 -1       299 1.31998E+01
 -1       300 1.23175E+01
 -1       301 1.43725E+01
 -1       302 3.66288E+01
 -1       303 3.31536E+01
 -1       304 2.53007E+01
 -1       305 2.77455E+01
 -1       306 2.77455E+01
 -1       307 3.53281E+01
 -1       308 4.00660E+01
 -1       309 1.56619E+01
 -1       310 1.21967E+01
 -1       311 1.27614E+01
 -1       312 1.19978E+01
 -1       313 1.17116E+01
 -1       314 1.18102E+01
 -1       315 1.07895E+01
 -1       316 1.85530E+01
 -1       317 4.57450E+01
 -1       318 2.76248E+01
 -1       319 2.95924E+01
 -1       320 1.04491E+00
 -1       321 2.47725E+00
 -1       322 7.93778E-01
 -1       323 6.93881E-01
 -1       324 6.31143E-01
 -1       325 5.87305E-01
 -1       326 5.90488E-01
 -1       327 6.33828E-01
 -1       328 7.00184E-01
 -1       329 7.94992E-01
 -1       330 9.30052E-01
 -1       331 1.15682E+00
 -1       332 1.32591E+00
 -1       333 2.20257E+00
 -1       334 1.91628E+00
 -1       335 1.73465E+00
 -1       336 1.27353E+00
 -1       337 9.14096E-01
 -1       338 6.63950E-01
 -1       339 5.48921E-01
 -1       340 4.54340E-01
 -1       341 3.71758E-01
 -1       342 3.04250E-01
 -1       343 2.49212E-01
 -1       344 2.02281E-01
 -1       345 1.62841E-01
 -1       346 1.31835E-01
 -1       347 1.21582E-01
 -1       348 1.33725E-01
 -1       349 1.50229E-01
 -1       350 1.69630E-01
 -1       351 2.04673E-01
 -1       352 2.45467E-01
 -1       353 2.85513E-01
 -1       354 3.25358E-01
 -1       355 3.61306E-01
 -1       356 3.63843E-01
 -1       357 3.10435E-01
 -1       358 2.71566E-01
 -1       359 3.69132E-01
 -1       360 6.52265E-01
 -1       361 1.00185E+00
 -1       362 1.26655E+00
 -1       363 1.59093E+00
 -1       364 1.72780E+00
 -1       365 1.64516E+00
 -1       366 1.72579E+00
 -1       367 1.60654E+00
 -1       368 1.28924E+00
 -1       369 1.02824E+00
 -1       370 6.84549E-01
 -1       371 4.04957E-01
 -1       372 2.56852E-01
 -1       373 2.86268E-01
 -1       374 3.34109E-01
 -1       375 3.20673E-01
 -1       376 2.68654E-01
 -1       377 2.39991E-01
 -1       378 2.26158E-01
 -1       379 1.90855E-01
 -1       380 1.39073E-01
 -1       381 1.13462E+00
 -1       382 8.97010E-01
 -1       383 7.10235E-01
 -1       384 5.52102E-01
 -1       385 4.47838E-01
 -1       386 3.83525E-01
 -1       387 3.22276E-01
 -1       388 2.67418E-01
 -1       389 2.27578E-01
 -1       390 1.96447E-01
 -1       391 1.74269E-01
 -1       392 1.64178E-01
 -1       393 1.63467E-01
 -1       394 1.82848E-01
 -1       395 2.32544E-01
 -1       396 3.45611E-01
 -1       397 4.96238E-01
 -1       398 6.93791E-01
 -1       399 9.45228E-01
 -1       400 1.24963E+00
 -1       401 1.58858E+00
 -1       402 1.91277E+00
 -1       403 2.15972E+00
 -1       404 2.30940E+00
 -1       405 2.57343E+00
 -1       406 2.62274E+00
 -1       407 2.86280E+00
 -1       408 3.16766E+00
 -1       409 5.12174E+00
 -1       410 5.48500E+00
 -1       411 4.64102E+00
 -1       412 3.71659E+00
 -1       413 4.22826E+00
 -1       414 4.55959E+00
 -1       415 4.55836E+00
 -1       416 4.07325E+00
 -1       417 3.44230E+00
 -1       418 3.09962E+00
 -1       419 2.61990E+00
 -1       420 2.05969E+00
 -1       421 1.52840E+00
 -1       422 1.07553E+00
 -1       423 7.15912E-01
 -1       424 4.50798E-01
 -1       425 3.03148E-01
 -1       426 1.80277E-01
 -1       427 1.31849E-01
 -1       428 1.97523E-01
 -1       429 1.97523E-01
 -1       430 1.67807E-01
 -1       431 1.89503E-01
 -1       432 1.89503E-01
 -1       433 1.81554E-01
 -1       434 1.77382E-01
 -1       435 1.48516E-01
 -1       436 1.06669E-01
 -1       437 6.77166E-02
 -1       438 9.37438E-02
 -1       439 1.27419E-01
 -1       440 3.24759E+01
 -1       441 3.19414E+01
 -1       442 3.19414E+01
 -1       443 1.87418E+01
 -1       444 1.06154E+01
 -1       445 9.09198E-01
 -1       446 1.03600E+01
 -1       447 1.06187E+01
 -1       448 1.07275E+01
 -1       449 8.45750E+00
 -1       450 6.14710E+00
 -1       451 1.33797E+01
 -1       452 2.22483E+01
 -1       453 2.61527E+01
 -1       454 3.74200E+01
 -1       455 3.74200E+01
 -1       456 2.74935E+01
 -1       457 2.35508E+01
 -1       458 1.39818E+01
 -1       459 7.45382E+00
 -1       460 7.99171E+00
 -1       461 1.05720E+01
 -1       462 1.03084E+01
 -1       463 1.03354E+01
 -1       464 8.41815E+00
 -1       465 8.56813E+00
 -1       466 1.58221E+01
 -1       467 2.76248E+01
 -1       468 2.82916E+01
 -1       469 7.88244E+00
 -1       470 4.38236E+00
 -1       471 1.05282E+00
 -1       472 4.85480E-01
 -1       473 5.13312E-01
 -1       474 4.31272E-01
 -1       475 4.56831E-01
 -1       476 4.86207E-01
 -1       477 5.10053E-01
 -1       478 5.10053E-01
 -1       479 6.04076E-01
 -1       480 8.97010E-01
 -1       481 8.03398E-01
 -1       482 8.73939E-01
 -1       483 7.13110E+00
 -1       484 7.06570E-01
 -1       485 5.93916E-01
 -1       486 4.81797E-01
 -1       487 3.82937E-01
 -1       488 3.32982E-01
 -1       489 2.84159E-01
 -1       490 2.37679E-01
 -1       491 1.95543E-01
 -1       492 1.60329E-01
 -1       493 1.27630E-01
 -1       494 9.60896E-02
 -1       495 9.79345E-02
 -1       496 1.09532E-01
 -1       497 1.25628E-01
 -1       498 1.70698E-01
 -1       499 2.16367E-01
 -1       500 2.61135E-01
 -1       501 2.94923E-01
 -1       502 3.07489E-01
 -1       503 3.11659E-01
 -1       504 3.49702E-01
 -1       505 4.34858E-01
 -1       506 5.24670E-01
 -1       507 7.70461E-01
 -1       508 9.54693E-01
 -1       509 1.07175E+00
 -1       510 1.19832E+00
 -1       511 1.34832E+00
 -1       512 1.28865E+00
 -1       513 1.47000E+00
 -1       514 1.51677E+00
 -1       515 1.31738E+00
 -1       516 1.08623E+00
 -1       517 8.63013E-01
 -1       518 5.94808E-01
 -1       519 4.79456E-01
 -1       520 4.04768E-01
 -1       521 3.73333E-01
 -1       522 3.63545E-01
 -1       523 3.23898E-01
 -1       524 2.74938E-01
 -1       525 2.40587E-01
 -1       526 1.96902E-01
 -1       527 2.09719E+01
 -1       528 5.52102E-01
 -1       529 4.47838E-01
 -1       530 3.83525E-01
 -1       531 3.22276E-01
 -1       532 2.67418E-01
 -1       533 2.20321E-01
 -1       534 1.81063E-01
 -1       535 1.48866E-01
 -1       536 1.22335E-01
 -1       537 1.24168E-01
 -1       538 1.48316E-01
 -1       539 2.01651E-01
 -1       540 3.00042E-01
 -1       541 4.28176E-01
 -1       542 5.94632E-01
 -1       543 8.08209E-01
 -1       544 1.07593E+00
 -1       545 1.39897E+00
 -1       546 1.76554E+00
 -1       547 2.14124E+00
 -1       548 2.46094E+00
 -1       549 2.89270E+00
 -1       550 3.76766E+00
 -1       551 4.55314E+00
 -1       552 5.30952E+00
 -1       553 5.48500E+00
 -1       554 5.48500E+00
 -1       555 4.64102E+00
 -1       556 6.06840E+00
 -1       557 5.68504E+00
 -1       558 4.55836E+00
 -1       559 4.07325E+00
 -1       560 3.44230E+00
 -1       561 2.81824E+00
 -1       562 2.19949E+00
 -1       563 1.65055E+00
 -1       564 1.19272E+00
 -1       565 8.32734E-01
 -1       566 5.57778E-01
 -1       567 2.64122E-01
 -1       568 2.64122E-01
 -1       569 2.74207E-01
 -1       570 2.29425E-01
 -1       571 2.53065E-01
 -1       572 2.45125E-01
 -1       573 2.21722E-01
 -1       574 1.72810E-01
 -1       575 1.19226E-01
 -1       576 1.33349E-01
 -1       577 1.33349E-01
 -1       578 2.82916E+01
 -1       579 7.10235E-01
 -1       580 1.45190E+01
 -1       581 1.93214E+01
 -1       582 4.43804E+00
 -1       583 9.39934E+00
 -1       584 3.74200E+01
 -1       585 5.12174E+00
 -1       586 4.56742E-01
 -1       587 8.21076E+00
 -1       588 1.77714E+01
 -1       589 7.52255E+00
 -1       590 6.58121E+00
 -1       591 6.92416E+00
 -1       592 1.24268E+01
 -1       593 1.14010E+01
 -1       594 2.61527E+01
 -1       595 2.74935E+01
 -1       596 1.89365E+01
 -1       597 6.69246E+00
 -1       598 5.99933E+00
 -1       599 8.12633E+00
 -1       600 8.13718E+00
 -1       601 6.42703E+00
 -1       602 4.91630E+00
 -1       603 7.74930E+00
 -1       604 1.19282E+01
 -1       605 3.19414E+01
 -1       606 1.32923E+00
 -1       607 5.29654E-01
 -1       608 1.12277E+01
 -1       609 2.66986E-01
 -1       610 1.27419E-01
 -1       611 4.08148E+00
 -1       612 3.96749E+00
 -1       613 3.58173E-01
 -1       614 3.42834E-01
 -1       615 3.61380E-01
 -1       616 3.37009E-01
 -1       617 5.44037E-01
 -1       618 9.08908E+00
 -1       619 5.19560E-01
 -1       620 5.29654E-01
 -1       621 3.98662E-01
 -1       622 3.79018E-01
 -1       623 3.81427E-01
 -1       624 3.50890E-01
 -1       625 3.06658E-01
 -1       626 2.58348E-01
 -1       627 2.26091E-01
 -1       628 1.93583E-01
 -1       629 1.60329E-01
 -1       630 1.27630E-01
 -1       631 9.57869E-02
 -1       632 6.44947E-02
 -1       633 6.93251E-02
 -1       634 1.11354E-01
 -1       635 1.56615E-01
 -1       636 2.04144E-01
 -1       637 2.52878E-01
 -1       638 2.96635E-01
 -1       639 3.46521E-01
 -1       640 4.05472E-01
 -1       641 4.55847E-01
 -1       642 5.11481E-01
 -1       643 6.76730E-01
 -1       644 8.08051E-01
 -1       645 9.54693E-01
 -1       646 1.20079E+00
 -1       647 1.18681E+00
 -1       648 1.49036E+00
 -1       649 1.76837E+00
 -1       650 1.71634E+00
 -1       651 1.71885E+00
 -1       652 1.51677E+00
 -1       653 1.31738E+00
 -1       654 1.12931E+00
 -1       655 8.63013E-01
 -1       656 7.68347E-01
 -1       657 6.15186E-01
 -1       658 4.49912E-01
 -1       659 4.01212E-01
 -1       660 3.63545E-01
 -1       661 3.23898E-01
 -1       662 2.69384E-01
 -1       663 2.11268E-01
 -1       664 4.33972E+00
 -1       665 4.00873E-01
 -1       666 2.43084E-01
 -1       667 2.05840E-01
 -1       668 1.70293E-01
 -1       669 1.37085E-01
 -1       670 1.05728E-01
 -1       671 8.38023E-02
 -1       672 9.82898E-02
 -1       673 1.49239E-01
 -1       674 2.26927E-01
 -1       675 3.25295E-01
 -1       676 4.51096E-01
 -1       677 6.12910E-01
 -1       678 8.22091E-01
 -1       679 1.09466E+00
 -1       680 1.46098E+00
 -1       681 1.93970E+00
 -1       682 2.59233E+00
 -1       683 3.47179E+00
 -1       684 4.05680E+00
 -1       685 5.50159E+00
 -1       686 6.94941E+00
 -1       687 1.93466E-01
 -1       688 2.72081E+00
 -1       689 4.68876E+00
 -1       690 3.24806E+00
 -1       691 2.35356E+00
 -1       692 1.76017E+00
 -1       693 1.28926E+00
 -1       694 9.28638E-01
 -1       695 6.46575E-01
 -1       696 4.33456E-01
 -1       697 3.20556E-01
 -1       698 3.45037E-01
 -1       699 3.06787E-01
 -1       700 3.45037E-01
 -1       701 1.15897E+01
 -1       702 2.53070E-01
 -1       703 1.88913E-01
 -1       704 1.93466E-01
 -1       705 4.68551E-01
 -1       706 6.73995E+00
 -1       707 7.50807E+00
 -1       708 4.88168E+00
 -1       709 1.02121E+01
 -1       710 6.41014E+00
 -1       711 2.79822E-01
 -1       712 3.31879E-01
 -1       713 1.46498E+01
 -1       714 3.61380E-01
 -1       715 3.58105E-01
 -1       716 1.66360E+01
 -1       717 1.42809E+01
 -1       718 1.67210E+01
 -1       719 1.04551E+01
 -1       720 1.40700E+01
 -1       721 4.81512E+00
 -1       722 1.46751E+01
 -1       723 5.56694E+00
 -1       724 1.49602E+01
 -1       725 3.90493E-01
 -1       726 3.77089E-01
 -1       727 3.42427E-01
 -1       728 8.12382E+00
 -1       729 2.95138E+00
 -1       730 3.71257E+00
 -1       731 1.04858E+01
 -1       732 3.40628E+00
 -1       733 3.68275E-01
 -1       734 3.57314E-01
 -1       735 7.04243E+00
 -1       736 2.81566E+00
 -1       737 2.40815E-01
 -1       738 2.56694E-01
 -1       739 2.30131E-01
 -1       740 2.47534E-01
 -1       741 2.38500E-01
 -1       742 2.15050E-01
 -1       743 1.84524E-01
 -1       744 1.59526E-01
 -1       745 1.33615E-01
 -1       746 1.04790E-01
 -1       747 7.41488E-02
 -1       748 5.05009E-02
 -1       749 5.12416E-02
 -1       750 8.41732E-02
 -1       751 1.23589E-01
 -1       752 1.72475E-01
 -1       753 2.29786E-01
 -1       754 2.91106E-01
 -1       755 3.52777E-01
 -1       756 4.24923E-01
 -1       757 5.28704E-01
 -1       758 6.41422E-01
 -1       759 7.38021E-01
 -1       760 9.77808E-01
 -1       761 1.23770E+00
 -1       762 1.21877E+00
 -1       763 1.75577E+00
 -1       764 1.49036E+00
 -1       765 2.33556E+00
 -1       766 3.80869E+00
 -1       767 3.40457E+00
 -1       768 2.12311E+00
 -1       769 1.53457E+00
 -1       770 1.48789E+00
 -1       771 1.28641E+00
 -1       772 1.14651E+00
 -1       773 8.70916E-01
 -1       774 6.75205E-01
 -1       775 5.67919E-01
 -1       776 4.50702E-01
 -1       777 3.51492E-01
 -1       778 2.80881E-01
 -1       779 1.54726E-01
 -1       780 2.79473E+00
 -1       781 1.84971E-01
 -1       782 8.89905E-02
 -1       783 5.62101E-02
 -1       784 5.03289E-02
 -1       785 9.67122E-02
 -1       786 1.61465E-01
 -1       787 2.51700E-01
 -1       788 3.70805E-01
 -1       789 5.29150E-01
 -1       790 7.40054E-01
 -1       791 1.02039E+00
 -1       792 1.39093E+00
 -1       793 1.87421E+00
 -1       794 2.55406E+00
 -1       795 3.62947E+00
 -1       796 8.37638E+00
 -1       797 2.28521E+00
 -1       798 2.87736E-01
 -1       799 2.87840E-01
 -1       800 1.00138E+01
 -1       801 3.24806E+00
 -1       802 4.62453E+00
 -1       803 1.62354E+00
 -1       804 1.15573E+00
 -1       805 8.16740E-01
 -1       806 5.69483E-01
 -1       807 4.11807E-01
 -1       808 2.78841E-01
 -1       809 3.48691E-01
 -1       810 3.40689E+00
 -1       811 1.00138E+01
 -1       812 2.71839E-01
 -1       813 1.22218E-01
 -1       814 2.15252E-01
 -1       815 2.54541E-01
 -1       816 3.80869E+00
 -1       817 7.10969E+00
 -1       818 2.81627E-01
 -1       819 8.04980E+00
 -1       820 1.04546E+01
 -1       821 9.99198E+00
 -1       822 3.96758E+00
 -1       823 9.08789E+00
 -1       824 2.81721E-01
 -1       825 6.70108E+00
 -1       826 2.30697E+00
 -1       827 9.99198E+00
 -1       828 4.21583E+00
 -1       829 2.61279E-01
 -1       830 2.42776E-01
 -1       831 2.87736E-01
 -1       832 6.04777E+00
 -1       833 3.40457E+00
 -1       834 2.81632E-01
 -1       835 4.62018E-01
 -1       836 4.62018E-01
 -1       837 2.88801E-01
 -1       838 9.89938E+00
 -1       839 2.70221E+00
 -1       840 2.77517E-01
 -1       841 3.49058E+00
 -1       842 2.82451E-01
 -1       843 3.49324E+00
 -1       844 3.93453E-01
 -1       845 2.50329E+00
 -1       846 8.75847E+00
 -1       847 8.37638E+00
 -1       848 1.45656E-01
 -1       849 1.72790E-01
 -1       850 1.76568E-01
 -1       851 1.65756E-01
 -1       852 1.46265E-01
 -1       853 1.26524E-01
 -1       854 1.07240E-01
 -1       855 8.42555E-02
 -1       856 7.36499E-02
 -1       857 7.51463E-02
 -1       858 8.41732E-02
 -1       859 1.23589E-01
 -1       860 1.66038E-01
 -1       861 2.15316E-01
 -1       862 2.72223E-01
 -1       863 3.44045E-01
 -1       864 4.44094E-01
 -1       865 5.63233E-01
 -1       866 7.00955E-01
 -1       867 9.13495E-01
 -1       868 1.17406E+00
 -1       869 1.37867E+00
 -1       870 1.78101E+00
 -1       871 1.75577E+00
 -1       872 2.45478E+00
 -1       873 2.60004E+00
 -1       874 2.32867E+00
 -1       875 2.09935E+00
 -1       876 1.73460E+00
 -1       877 1.64258E+00
 -1       878 1.23687E+00
 -1       879 1.03515E+00
 -1       880 8.07513E-01
 -1       881 6.10300E-01
 -1       882 4.86089E-01
 -1       883 3.43285E-01
 -1       884 1.70187E-01
 -1       885 7.50234E-02
 -1       886 7.06972E-02
 -1       887 1.47020E-01
 -1       888 2.23374E-01
 -1       889 3.22449E-01
 -1       890 4.52672E-01
 -1       891 6.26041E-01
 -1       892 8.60661E-01
 -1       893 1.18588E+00
 -1       894 1.65322E+00
 -1       895 2.35382E+00
 -1       896 3.32841E+00
 -1       897 5.57139E+00
 -1       898 1.22061E+00
 -1       899 5.98289E+00
 -1       900 6.88354E+00
 -1       901 2.64955E+00
 -1       902 4.03770E+00
 -1       903 8.63295E-01
 -1       904 4.78485E-01
 -1       905 2.88801E-01
 -1       906 8.89908E-02
 -1       907 1.64716E-01
 -1       908 1.46190E-01
 -1       909 1.50161E-01
 -1       910 2.16569E+00
 -1       911 1.75310E+00
 -1       912 6.63713E+00
 -1       913 4.63323E+00
 -1       914 4.01891E+00
 -1       915 2.63296E+00
 -1       916 1.94203E-01
 -1       917 6.13726E-01
 -1       918 9.87329E-02
 -1       919 5.29893E+00
 -1       920 2.18246E-01
 -1       921 5.59723E+00
 -1       922 7.64147E-01
 -1       923 2.39079E-01
 -1       924 6.94210E-01
 -1       925 3.86035E+00
 -1       926 1.24301E-01
 -1       927 3.72015E-01
 -1       928 2.45478E+00
 -1       929 2.02923E-01
 -1       930 2.94941E+00
 -1       931 2.03094E-01
 -1       932 3.23880E-01
 -1       933 2.09570E-01
 -1       934 1.23358E-01
 -1       935 1.31829E-01
 -1       936 1.27424E-01
 -1       937 1.14721E-01
 -1       938 1.00099E-01
 -1       939 8.58041E-02
 -1       940 8.82503E-02
 -1       941 9.23960E-02
 -1       942 9.83031E-02
 -1       943 1.19691E-01
 -1       944 1.64183E-01
 -1       945 2.15316E-01
 -1       946 2.72223E-01
 -1       947 3.42140E-01
 -1       948 4.36305E-01
 -1       949 5.65459E-01
 -1       950 7.78045E-01
 -1       951 1.01804E+00
 -1       952 1.22098E+00
 -1       953 2.40207E+00
 -1       954 3.86035E+00
 -1       955 1.95984E+00
 -1       956 1.55789E+00
 -1       957 1.14429E+00
 -1       958 9.06827E-01
 -1       959 6.74897E-01
 -1       960 4.25299E-01
 -1       961 3.44349E-01
 -1       962 8.99399E-02
 -1       963 2.51459E-01
 -1       964 1.78519E-01
 -1       965 4.64122E-01
 -1       966 6.21548E-01
 -1       967 8.35209E-01
 -1       968 1.14063E+00
 -1       969 1.61700E+00
 -1       970 2.40892E+00
 -1       971 3.32403E+00
 -1       972 2.25981E-01
 -1       973 5.07274E+00
 -1       974 2.94576E+00
 -1       975 2.25981E-01
 -1       976 1.86992E+00
 -1       977 5.29893E+00
 -1       978 2.39079E-01
 -1       979 8.99541E-01
 -1       980 1.95899E-01
 -1       981 1.23160E-01
 -1       982 4.86534E+00
 -1       983 9.86687E-02
 -1       984 1.25006E+00
 -1       985 1.15520E-01
 -1       986 1.45791E-01
 -1       987 1.33323E-01
 -1       988 4.33831E+00
 -1       989 1.48313E-01
 -1       990 2.46675E+00
 -1       991 1.54435E-01
 -1       992 1.20650E-01
 -1       993 2.47086E+00
 -1       994 9.96700E-02
 -1       995 8.53174E-02
 -1       996 3.87897E+00
 -1       997 1.62369E-01
 -1       998 8.42331E-01
 -1       999 2.94518E+00
 -1      1000 4.22272E+00
 -1      1001 9.94854E-02
 -1      1002 7.34614E-01
 -1      1003 1.54365E-01
 -1      1004 3.86035E+00
 -1      1005 1.47980E-01
 -1      1006 8.42331E-01
 -1      1007 2.86847E+00
 -1      1008 2.69537E+00
 -1      1009 9.92368E-02
 -1      1010 9.77584E-02
 -1      1011 8.94212E-02
 -1      1012 9.13901E-02
 -1      1013 9.43684E-02
 -1      1014 1.01020E-01
 -1      1015 1.09287E-01
 -1      1016 1.24968E-01
 -1      1017 1.49083E-01
 -1      1018 1.98886E-01
 -1      1019 2.63203E-01
 -1      1020 3.42140E-01
 -1      1021 4.36305E-01
 -1      1022 5.67256E-01
 -1      1023 7.62183E-01
 -1      1024 1.05254E+00
 -1      1025 1.68404E+00
 -1      1026 1.92573E+00
 -1      1027 4.01018E+00
 -1      1028 1.47538E-01
 -1      1029 1.66477E+00
 -1      1030 1.32183E+00
 -1      1031 9.00178E-01
 -1      1032 2.58281E-01
 -1      1033 3.46915E-01
 -1      1034 1.94276E-01
 -1      1035 6.39763E-01
 -1      1036 8.80429E-01
 -1      1037 1.22940E+00
 -1      1038 1.77384E+00
 -1      1039 2.85324E+00
 -1      1040 2.94576E+00
 -1      1041 1.04788E-01
 -1      1042 4.69423E-01
 -1      1043 1.34980E+00
 -1      1044 2.31443E+00
 -1      1045 1.04102E-01
 -1      1046 4.25299E-01
 -1      1047 9.06098E-02
 -1      1048 8.99541E-01
 -1      1049 3.84417E+00
 -1      1050 1.13711E-01
 -1      1051 9.14149E-02
 -1      1052 1.03275E-01
 -1      1053 1.49604E-01
 -1      1054 5.68898E-01
 -1      1055 4.22272E+00
 -1      1056 1.05515E-01
 -1      1057 1.06102E-01
 -1      1058 1.62369E-01
 -1      1059 8.18907E-02
 -1      1060 1.14568E+00
 -1      1061 1.15164E-01
 -1      1062 6.89368E-02
 -1      1063 2.67018E+00
 -1      1064 8.09202E-02
 -1      1065 1.06102E-01
 -1      1066 2.58827E+00
 -1      1067 8.70812E-02
 -1      1068 9.13901E-02
 -1      1069 9.43684E-02
 -1      1070 1.10695E-01
 -1      1071 1.09287E-01
 -1      1072 1.24968E-01
 -1      1073 1.49083E-01
 -1      1074 1.89162E-01
 -1      1075 2.63697E-01
 -1      1076 3.70582E-01
 -1      1077 5.24155E-01
 -1      1078 7.45074E-01
 -1      1079 1.06295E+00
 -1      1080 1.52378E+00
 -1      1081 2.39922E+00
 -1      1082 1.68404E+00
 -1      1083 1.18338E-01
 -1      1084 2.46749E+00
 -1      1085 5.57903E-01
 -1      1086 7.11010E-02
 -1      1087 1.22195E+00
 -1      1088 2.93437E-01
 -1      1089 6.15641E-02
 -1      1090 2.29216E-01
 -1      1091 1.33932E+00
 -1      1092 8.65208E-01
 -1      1093 2.39922E+00
 -1      1094 2.85324E+00
 -1      1095 8.53174E-02
 -1      1096 7.70487E-02
 -1      1097 1.03563E-01
 -1      1098 3.78436E+00
 -1      1099 3.76824E-01
 -1      1100 2.07953E+00
 -1      1101 2.16715E+00
 -1      1102 5.02018E-02
 -1      1103 1.22195E+00
 -1      1104 1.22195E+00
 -1      1105 1.80468E-01
 -1      1106 1.10695E-01
 -1      1107 1.17503E-01
 -1      1108 2.39922E+00
 -1      1109 8.04238E-02
 -1      1110 9.31545E-02
 -1      1111 8.71360E-02
 -1      1112 8.21443E-02
 -1      1113 1.10695E-01
 -1      1114 8.98972E-02
 -1      1115 1.44102E-01
 -1      1116 1.31475E+01
 -1      1117 8.40448E+00
 -1      1118 2.74164E+00
 -1      1119 1.55450E+00
 -1      1120 1.16597E+00
 -1      1121 9.71769E-01
 -1      1122 8.53493E-01
 -1      1123 7.81162E-01
 -1      1124 7.55121E-01
 -1      1125 7.84300E-01
 -1      1126 8.56134E-01
 -1      1127 9.75397E-01
 -1      1128 1.17838E+00
 -1      1129 1.56911E+00
 -1      1130 2.66785E+00
 -1      1131 6.07327E+00
 -1      1132 1.13433E+01
 -1      1133 1.31475E+01
 -1      1134 8.73500E+00
 -1      1135 3.83486E+00
 -1      1136 2.73293E+00
 -1      1137 1.74489E+00
 -1      1138 1.19691E+00
 -1      1139 9.04460E-01
 -1      1140 6.97997E-01
 -1      1141 5.41772E-01
 -1      1142 4.21209E-01
 -1      1143 3.30415E-01
 -1      1144 2.62955E-01
 -1      1145 2.11285E-01
 -1      1146 1.72170E-01
 -1      1147 1.50355E-01
 -1      1148 1.53457E-01
 -1      1149 1.72986E-01
 -1      1150 1.97477E-01
 -1      1151 2.23662E-01
 -1      1152 2.47369E-01
 -1      1153 2.93687E-01
 -1      1154 3.71445E-01
 -1      1155 4.49218E-01
 -1      1156 5.01370E-01
 -1      1157 5.23927E-01
 -1      1158 5.62367E-01
 -1      1159 6.21268E-01
 -1      1160 7.78822E-01
 -1      1161 1.05652E+00
 -1      1162 1.53565E+00
 -1      1163 2.12710E+00
 -1      1164 2.46202E+00
 -1      1165 2.53801E+00
 -1      1166 2.53245E+00
 -1      1167 2.46707E+00
 -1      1168 2.15860E+00
 -1      1169 1.57630E+00
 -1      1170 1.07756E+00
 -1      1171 7.81385E-01
 -1      1172 6.11881E-01
 -1      1173 5.40845E-01
 -1      1174 5.08224E-01
 -1      1175 4.87071E-01
 -1      1176 4.21269E-01
 -1      1177 3.43267E-01
 -1      1178 3.06154E-01
 -1      1179 2.83119E-01
 -1      1180 2.44851E-01
 -1      1181 1.93861E-01
 -1      1182 1.00287E-01
 -1      1183 1.40433E+01
 -1      1184 8.72086E+00
 -1      1185 2.90821E+00
 -1      1186 2.04481E+00
 -1      1187 1.41164E+00
 -1      1188 1.03213E+00
 -1      1189 8.26618E-01
 -1      1190 6.70713E-01
 -1      1191 5.43568E-01
 -1      1192 4.39931E-01
 -1      1193 3.57540E-01
 -1      1194 2.95065E-01
 -1      1195 2.48739E-01
 -1      1196 2.17379E-01
 -1      1197 2.06116E-01
 -1      1198 2.17184E-01
 -1      1199 2.45846E-01
 -1      1200 2.88249E-01
 -1      1201 3.60735E-01
 -1      1202 4.72028E-01
 -1      1203 6.14787E-01
 -1      1204 7.87749E-01
 -1      1205 9.81475E-01
 -1      1206 1.17035E+00
 -1      1207 1.30332E+00
 -1      1208 1.55804E+00
 -1      1209 2.04353E+00
 -1      1210 2.43063E+00
 -1      1211 2.77921E+00
 -1      1212 3.06447E+00
 -1      1213 3.81518E+00
 -1      1214 5.91625E+00
 -1      1215 7.82047E+00
 -1      1216 8.32550E+00
 -1      1217 7.51213E+00
 -1      1218 4.92223E+00
 -1      1219 2.84149E+00
 -1      1220 2.75255E+00
 -1      1221 2.96781E+00
 -1      1222 2.85738E+00
 -1      1223 2.51236E+00
 -1      1224 2.06810E+00
 -1      1225 1.64836E+00
 -1      1226 1.25175E+00
 -1      1227 9.16875E-01
 -1      1228 6.86602E-01
 -1      1229 5.30152E-01
 -1      1230 3.79788E-01
 -1      1231 2.46162E-01
 -1      1232 1.19874E-01
 -1      1233 6.70579E-02
 -1      1234 8.27446E-02
 -1      1235 7.37637E-02
 -1      1236 4.57280E-02
 -1      1237 3.67226E-02
 -1      1238 5.53490E-02
 -1      1239 6.60897E-02
 -1      1240 6.82535E-02
 -1      1241 6.55006E-02
 -1      1242 5.60354E-02
 -1      1243 4.00648E-02
 -1      1244 2.17227E-02
 -1      1245 2.24571E-02
 -1      1246 4.02663E-02
 -1      1247 6.12142E-02
 -1      1248 7.82300E-02
 -1      1249 6.04996E-02
 -1      1250 2.52148E+01
 -1      1251 2.76926E+01
 -1      1252 3.01704E+01
 -1      1253 2.77236E+01
 -1      1254 1.91359E+01
 -1      1255 1.28713E+01
 -1      1256 1.27475E+01
 -1      1257 1.29737E+01
 -1      1258 1.31998E+01
 -1      1259 1.37862E+01
 -1      1260 2.55007E+01
 -1      1261 3.66288E+01
 -1      1262 3.10947E+01
 -1      1263 2.51079E+01
 -1      1264 2.44416E+01
 -1      1265 2.44177E+01
 -1      1266 3.23367E+01
 -1      1267 4.00660E+01
 -1      1268 2.78639E+01
 -1      1269 1.42116E+01
 -1      1270 1.27614E+01
 -1      1271 1.23796E+01
 -1      1272 1.19040E+01
 -1      1273 1.18102E+01
 -1      1274 1.46257E+01
 -1      1275 3.15931E+01
 -1      1276 4.57450E+01
 -1      1277 3.52434E+01
 -1      1278 2.49783E+01
 -1      1279 1.31475E+01
 -1      1280 4.86858E+00
 -1      1281 9.61158E+00
 -1      1282 2.05886E+00
 -1      1283 2.97869E+00
 -1      1284 4.18580E+00
 -1      1285 1.39639E+00
 -1      1286 1.66369E+00
 -1      1287 1.90074E+00
 -1      1288 1.10050E+00
 -1      1289 1.22173E+00
 -1      1290 1.33091E+00
 -1      1291 9.35593E-01
 -1      1292 1.00856E+00
 -1      1293 1.06432E+00
 -1      1294 8.36052E-01
 -1      1295 8.81360E-01
 -1      1296 9.18151E-01
 -1      1297 7.74999E-01
 -1      1298 8.02022E-01
 -1      1299 8.29889E-01
 -1      1300 7.56103E-01
 -1      1301 7.55121E-01
 -1      1302 7.75981E-01
 -1      1303 8.05903E-01
 -1      1304 7.77706E-01
 -1      1305 7.77706E-01
 -1      1306 8.83212E-01
 -1      1307 8.39575E-01
 -1      1308 8.32981E-01
 -1      1309 1.01545E+00
 -1      1310 9.39828E-01
 -1      1311 9.23269E-01
 -1      1312 1.23828E+00
 -1      1313 1.11092E+00
 -1      1314 1.07535E+00
 -1      1315 1.67895E+00
 -1      1316 1.41558E+00
 -1      1317 1.34812E+00
 -1      1318 2.88089E+00
 -1      1319 2.04550E+00
 -1      1320 1.89198E+00
 -1      1321 6.28655E+00
 -1      1322 3.71652E+00
 -1      1323 3.09417E+00
 -1      1324 1.40433E+01
 -1      1325 1.13433E+01
 -1      1326 8.98654E+00
 -1      1327 1.40433E+01
 -1      1328 8.73500E+00
 -1      1329 4.32252E+00
 -1      1330 3.83486E+00
 -1      1331 3.34720E+00
 -1      1332 3.83486E+00
 -1      1333 2.73293E+00
 -1      1334 2.11866E+00
 -1      1335 2.73293E+00
 -1      1336 1.78642E+00
 -1      1337 1.41266E+00
 -1      1338 1.78642E+00
 -1      1339 1.20230E+00
 -1      1340 1.02808E+00
 -1      1341 1.24383E+00
 -1      1342 9.04460E-01
 -1      1343 7.86239E-01
 -1      1344 9.09858E-01
 -1      1345 6.97997E-01
 -1      1346 6.09756E-01
 -1      1347 6.97997E-01
 -1      1348 5.46133E-01
 -1      1349 4.78149E-01
 -1      1350 5.46133E-01
 -1      1351 4.29847E-01
 -1      1352 3.77267E-01
 -1      1353 4.34208E-01
 -1      1354 3.38195E-01
 -1      1355 2.99981E-01
 -1      1356 3.46833E-01
 -1      1357 2.70707E-01
 -1      1358 2.41461E-01
 -1      1359 2.78486E-01
 -1      1360 2.17995E-01
 -1      1361 1.95571E-01
 -1      1362 2.25747E-01
 -1      1363 1.75851E-01
 -1      1364 1.59160E-01
 -1      1365 1.82561E-01
 -1      1366 1.45754E-01
 -1      1367 1.40630E-01
 -1      1368 1.49436E-01
 -1      1369 1.45231E-01
 -1      1370 1.53457E-01
 -1      1371 1.40630E-01
 -1      1372 1.61683E-01
 -1      1373 1.72986E-01
 -1      1374 1.53457E-01
 -1      1375 1.84289E-01
 -1      1376 1.97477E-01
 -1      1377 1.72986E-01
 -1      1378 2.10665E-01
 -1      1379 2.23662E-01
 -1      1380 1.97477E-01
 -1      1381 2.36660E-01
 -1      1382 2.47369E-01
 -1      1383 2.23662E-01
 -1      1384 2.67731E-01
 -1      1385 3.03339E-01
 -1      1386 2.57021E-01
 -1      1387 3.32634E-01
 -1      1388 3.74784E-01
 -1      1389 3.06678E-01
 -1      1390 4.13595E-01
 -1      1391 4.49218E-01
 -1      1392 3.74784E-01
 -1      1393 4.84841E-01
 -1      1394 5.01370E-01
 -1      1395 4.49218E-01
 -1      1396 5.17900E-01
 -1      1397 5.23927E-01
 -1      1398 5.01370E-01
 -1      1399 5.29954E-01
 -1      1400 5.62367E-01
 -1      1401 5.23927E-01
 -1      1402 5.94780E-01
 -1      1403 6.21268E-01
 -1      1404 5.62367E-01
 -1      1405 6.47756E-01
 -1      1406 7.78822E-01
 -1      1407 6.21268E-01
 -1      1408 9.09889E-01
 -1      1409 1.05652E+00
 -1      1410 7.78822E-01
 -1      1411 1.26030E+00
 -1      1412 1.59281E+00
 -1      1413 1.11367E+00
 -1      1414 1.86816E+00
 -1      1415 2.12710E+00
 -1      1416 1.59281E+00
 -1      1417 2.38603E+00
 -1      1418 2.46202E+00
 -1      1419 2.12710E+00
 -1      1420 2.53801E+00
 -1      1421 2.53801E+00
 -1      1422 2.46202E+00
 -1      1423 2.53245E+00
 -1      1424 2.52688E+00
 -1      1425 2.53245E+00
 -1      1426 2.46707E+00
 -1      1427 2.40725E+00
 -1      1428 2.46707E+00
 -1      1429 2.15860E+00
 -1      1430 1.90995E+00
 -1      1431 2.15860E+00
 -1      1432 1.63052E+00
 -1      1433 1.29687E+00
 -1      1434 1.63052E+00
 -1      1435 1.07902E+00
 -1      1436 9.13931E-01
 -1      1437 1.13324E+00
 -1      1438 7.81385E-01
 -1      1439 6.50295E-01
 -1      1440 7.82841E-01
 -1      1441 6.11881E-01
 -1      1442 5.73466E-01
 -1      1443 6.11881E-01
 -1      1444 5.38573E-01
 -1      1445 5.05952E-01
 -1      1446 5.38573E-01
 -1      1447 5.08224E-01
 -1      1448 5.08224E-01
 -1      1449 5.05952E-01
 -1      1450 4.87071E-01
 -1      1451 4.65919E-01
 -1      1452 4.87071E-01
 -1      1453 4.21269E-01
 -1      1454 3.76620E-01
 -1      1455 4.21269E-01
 -1      1456 3.43267E-01
 -1      1457 3.09914E-01
 -1      1458 3.43267E-01
 -1      1459 3.06154E-01
 -1      1460 3.02395E-01
 -1      1461 3.06154E-01
 -1      1462 2.83119E-01
 -1      1463 2.63844E-01
 -1      1464 2.83119E-01
 -1      1465 2.44851E-01
 -1      1466 2.25858E-01
 -1      1467 2.44851E-01
 -1      1468 1.93861E-01
 -1      1469 1.61865E-01
 -1      1470 1.93861E-01
 -1      1471 1.22077E-01
 -1      1472 1.22077E-01
 -1      1473 3.39844E+00
 -1      1474 8.72086E+00
 -1      1475 8.72086E+00
 -1      1476 2.41798E+00
 -1      1477 2.90821E+00
 -1      1478 2.90821E+00
 -1      1479 1.67164E+00
 -1      1480 2.04481E+00
 -1      1481 2.04481E+00
 -1      1482 1.15163E+00
 -1      1483 1.41164E+00
 -1      1484 1.41164E+00
 -1      1485 9.12636E-01
 -1      1486 1.03213E+00
 -1      1487 1.03213E+00
 -1      1488 7.40600E-01
 -1      1489 8.26618E-01
 -1      1490 8.26618E-01
 -1      1491 6.00827E-01
 -1      1492 6.70713E-01
 -1      1493 6.70713E-01
 -1      1494 4.86309E-01
 -1      1495 5.43568E-01
 -1      1496 5.43568E-01
 -1      1497 3.93553E-01
 -1      1498 4.39931E-01
 -1      1499 4.39931E-01
 -1      1500 3.21527E-01
 -1      1501 3.57540E-01
 -1      1502 3.57540E-01
 -1      1503 2.68603E-01
 -1      1504 2.95065E-01
 -1      1505 2.95065E-01
 -1      1506 2.28875E-01
 -1      1507 2.48739E-01
 -1      1508 2.48739E-01
 -1      1509 2.05883E-01
 -1      1510 2.17379E-01
 -1      1511 2.17379E-01
 -1      1512 2.02612E-01
 -1      1513 2.02379E-01
 -1      1514 2.02379E-01
 -1      1515 2.17184E-01
 -1      1516 2.06349E-01
 -1      1517 2.02612E-01
 -1      1518 2.45846E-01
 -1      1519 2.28018E-01
 -1      1520 2.17184E-01
 -1      1521 2.96649E-01
 -1      1522 2.72074E-01
 -1      1523 2.54246E-01
 -1      1524 3.85041E-01
 -1      1525 3.37129E-01
 -1      1526 3.20955E-01
 -1      1527 5.00551E-01
 -1      1528 4.37169E-01
 -1      1529 4.13564E-01
 -1      1530 6.45154E-01
 -1      1531 5.65779E-01
 -1      1532 5.30919E-01
 -1      1533 8.14449E-01
 -1      1534 7.20862E-01
 -1      1535 6.71854E-01
 -1      1536 9.93678E-01
 -1      1537 8.93538E-01
 -1      1538 8.26651E-01
 -1      1539 1.17035E+00
 -1      1540 1.08161E+00
 -1      1541 9.93678E-01
 -1      1542 1.30332E+00
 -1      1543 1.25909E+00
 -1      1544 1.17035E+00
 -1      1545 1.66941E+00
 -1      1546 1.45891E+00
 -1      1547 1.41468E+00
 -1      1548 2.10441E+00
 -1      1549 1.82943E+00
 -1      1550 1.73029E+00
 -1      1551 2.43063E+00
 -1      1552 2.31850E+00
 -1      1553 2.10441E+00
 -1      1554 2.77921E+00
 -1      1555 2.54276E+00
 -1      1556 2.43063E+00
 -1      1557 3.06447E+00
 -1      1558 3.01565E+00
 -1      1559 2.77921E+00
 -1      1560 3.81518E+00
 -1      1561 3.11330E+00
 -1      1562 3.06447E+00
 -1      1563 5.96076E+00
 -1      1564 4.56156E+00
 -1      1565 3.85968E+00
 -1      1566 7.82047E+00
 -1      1567 7.31545E+00
 -1      1568 5.96076E+00
 -1      1569 8.32550E+00
 -1      1570 8.32550E+00
 -1      1571 7.82047E+00
 -1      1572 6.69877E+00
 -1      1573 7.51213E+00
 -1      1574 7.51213E+00
 -1      1575 3.14570E+00
 -1      1576 4.92223E+00
 -1      1577 4.92223E+00
 -1      1578 2.33312E+00
 -1      1579 2.63733E+00
 -1      1580 2.63733E+00
 -1      1581 2.76947E+00
 -1      1582 2.55421E+00
 -1      1583 2.35005E+00
 -1      1584 2.96781E+00
 -1      1585 2.96781E+00
 -1      1586 2.76947E+00
 -1      1587 2.74694E+00
 -1      1588 2.85738E+00
 -1      1589 2.85738E+00
 -1      1590 2.27778E+00
 -1      1591 2.51236E+00
 -1      1592 2.51236E+00
 -1      1593 1.85842E+00
 -1      1594 2.06810E+00
 -1      1595 2.06810E+00
 -1      1596 1.45738E+00
 -1      1597 1.66745E+00
 -1      1598 1.66745E+00
 -1      1599 1.09470E+00
 -1      1600 1.28124E+00
 -1      1601 1.30033E+00
 -1      1602 7.93518E-01
 -1      1603 9.41863E-01
 -1      1604 9.71346E-01
 -1      1605 6.04675E-01
 -1      1606 6.86602E-01
 -1      1607 7.11591E-01
 -1      1608 4.55629E-01
 -1      1609 5.30152E-01
 -1      1610 5.30152E-01
 -1      1611 3.03946E-01
 -1      1612 3.79788E-01
 -1      1613 3.79788E-01
 -1      1614 1.88377E-01
 -1      1615 2.46162E-01
 -1      1616 2.46162E-01
 -1      1617 1.35561E-01
 -1      1618 9.53076E-02
 -1      1619 9.53076E-02
 -1      1620 8.63267E-02
 -1      1621 9.53076E-02
 -1      1622 1.07871E-01
 -1      1623 6.20414E-02
 -1      1624 8.10962E-02
 -1      1625 1.02640E-01
 -1      1626 6.46014E-02
 -1      1627 5.45520E-02
 -1      1628 8.99202E-02
 -1      1629 9.03277E-02
 -1      1630 8.17507E-02
 -1      1631 9.95801E-02
 -1      1632 9.88083E-02
 -1      1633 9.66446E-02
 -1      1634 1.23046E-01
 -1      1635 9.88083E-02
 -1      1636 9.88083E-02
 -1      1637 1.29363E-01
 -1      1638 9.53337E-02
 -1      1639 9.80866E-02
 -1      1640 1.28641E-01
 -1      1641 8.15303E-02
 -1      1642 8.82426E-02
 -1      1643 1.20829E-01
 -1      1644 5.81653E-02
 -1      1645 6.74236E-02
 -1      1646 9.96308E-02
 -1      1647 3.19803E-02
 -1      1648 4.10640E-02
 -1      1649 6.84228E-02
 -1      1650 4.04244E-02
 -1      1651 3.06063E-02
 -1      1652 4.99475E-02
 -1      1653 6.37047E-02
 -1      1654 5.57137E-02
 -1      1655 6.38628E-02
 -1      1656 7.66616E-02
 -1      1657 6.37047E-02
 -1      1658 7.91521E-02
 -1      1659 8.82359E-02
 -1      1660 8.41769E-02
 -1      1661 8.66674E-02
 -1      1662 1.28024E-01
 -1      1663 2.74036E+01
 -1      1664 2.74036E+01
 -1      1665 3.13232E+01
 -1      1666 2.88453E+01
 -1      1667 3.13232E+01
 -1      1668 3.13232E+01
 -1      1669 2.62206E+01
 -1      1670 2.86675E+01
 -1      1671 1.29951E+01
 -1      1672 1.91359E+01
 -1      1673 1.25032E+01
 -1      1674 1.26270E+01
 -1      1675 1.27475E+01
 -1      1676 1.27475E+01
 -1      1677 1.26550E+01
 -1      1678 1.24289E+01
 -1      1679 1.31998E+01
 -1      1680 1.31998E+01
 -1      1681 1.33450E+01
 -1      1682 1.27586E+01
 -1      1683 2.55007E+01
 -1      1684 1.43725E+01
 -1      1685 3.66288E+01
 -1      1686 3.66288E+01
 -1      1687 2.93570E+01
 -1      1688 3.48912E+01
 -1      1689 2.49780E+01
 -1      1690 2.54306E+01
 -1      1691 2.59867E+01
 -1      1692 2.62004E+01
 -1      1693 2.61765E+01
 -1      1694 2.59867E+01
 -1      1695 3.76970E+01
 -1      1696 2.99678E+01
 -1      1697 4.00660E+01
 -1      1698 4.00660E+01
 -1      1699 1.56619E+01
 -1      1700 2.78639E+01
 -1      1701 1.24790E+01
 -1      1702 1.39293E+01
 -1      1703 1.27614E+01
 -1      1704 1.27614E+01
 -1      1705 1.19978E+01
 -1      1706 1.23796E+01
 -1      1707 1.17609E+01
 -1      1708 1.18547E+01
 -1      1709 1.18102E+01
 -1      1710 1.18102E+01
 -1      1711 1.41154E+01
 -1      1712 1.12998E+01
 -1      1713 3.21490E+01
 -1      1714 1.79971E+01
 -1      1715 4.57450E+01
 -1      1716 4.57450E+01
 -1      1717 2.61833E+01
 -1      1718 3.66849E+01
 -1      1719 2.74036E+01
 -1      1720 2.71670E+01
 -1      1721 2.00798E+01
 -1      1722 2.98202E+01
 -1      1723 1.35561E-01
 -1      1724 1.48124E-01
 -1      1725 3.10341E+01
 -1      1726 3.24759E+01
 -1      1727 2.95924E+01
 -1      1728 1.26270E+01
 -1      1729 1.25032E+01
 -1      1730 1.24289E+01
 -1      1731 1.26550E+01
 -1      1732 1.27586E+01
 -1      1733 1.33450E+01
 -1      1734 2.55007E+01
 -1      1735 3.48912E+01
 -1      1736 2.92272E+01
 -1      1737 2.65231E+01
 -1      1738 2.77455E+01
 -1      1739 3.15368E+01
 -1      1740 3.76970E+01
 -1      1741 2.78639E+01
 -1      1742 1.39293E+01
 -1      1743 1.24790E+01
 -1      1744 1.23796E+01
 -1      1745 1.18547E+01
 -1      1746 1.17609E+01
 -1      1747 1.12998E+01
 -1      1748 1.46713E+01
 -1      1749 3.21490E+01
 -1      1750 3.66849E+01
 -1      1751 2.86086E+01
 -1      1752 9.61158E+00
 -1      1753 1.27524E+00
 -1      1754 1.67041E+00
 -1      1755 2.38658E+00
 -1      1756 4.27647E+00
 -1      1757 1.76108E+00
 -1      1758 8.83081E-01
 -1      1759 9.75019E-01
 -1      1760 7.78900E-01
 -1      1761 8.33133E-01
 -1      1762 7.43830E-01
 -1      1763 7.13501E-01
 -1      1764 7.47531E-01
 -1      1765 6.62512E-01
 -1      1766 6.71704E-01
 -1      1767 6.91582E-01
 -1      1768 6.09224E-01
 -1      1769 6.94899E-01
 -1      1770 6.73296E-01
 -1      1771 5.88897E-01
 -1      1772 7.50241E-01
 -1      1773 7.16569E-01
 -1      1774 6.12158E-01
 -1      1775 8.40035E-01
 -1      1776 7.83418E-01
 -1      1777 6.67006E-01
 -1      1778 9.82906E-01
 -1      1779 8.87439E-01
 -1      1780 7.47588E-01
 -1      1781 1.22774E+00
 -1      1782 1.05044E+00
 -1      1783 8.62522E-01
 -1      1784 1.70768E+00
 -1      1785 1.34112E+00
 -1      1786 1.04344E+00
 -1      1787 2.62786E+00
 -1      1788 1.79222E+00
 -1      1789 1.24137E+00
 -1      1790 8.12292E+00
 -1      1791 3.06618E+00
 -1      1792 1.76424E+00
 -1      1793 2.80051E+00
 -1      1794 5.19910E+00
 -1      1795 2.16713E+00
 -1      1796 2.65736E+00
 -1      1797 2.05942E+00
 -1      1798 3.39989E+00
 -1      1799 2.54092E+00
 -1      1800 1.92665E+00
 -1      1801 1.69609E+00
 -1      1802 1.36386E+00
 -1      1803 1.50409E+00
 -1      1804 1.18414E+00
 -1      1805 9.73786E-01
 -1      1806 1.09381E+00
 -1      1807 8.48713E-01
 -1      1808 7.25094E-01
 -1      1809 7.89023E-01
 -1      1810 6.67580E-01
 -1      1811 5.79338E-01
 -1      1812 6.06435E-01
 -1      1813 5.32048E-01
 -1      1814 4.68425E-01
 -1      1815 5.01630E-01
 -1      1816 4.27134E-01
 -1      1817 3.78832E-01
 -1      1818 4.13049E-01
 -1      1819 3.45078E-01
 -1      1820 3.06005E-01
 -1      1821 3.38004E-01
 -1      1822 2.78486E-01
 -1      1823 2.49212E-01
 -1      1824 2.76731E-01
 -1      1825 2.25747E-01
 -1      1826 2.02281E-01
 -1      1827 2.25747E-01
 -1      1828 1.82561E-01
 -1      1829 1.62841E-01
 -1      1830 1.82561E-01
 -1      1831 1.47338E-01
 -1      1832 1.33933E-01
 -1      1833 1.47338E-01
 -1      1834 1.28806E-01
 -1      1835 1.33406E-01
 -1      1836 1.26709E-01
 -1      1837 1.39478E-01
 -1      1838 1.47704E-01
 -1      1839 1.27653E-01
 -1      1840 1.55956E-01
 -1      1841 1.67259E-01
 -1      1842 1.41977E-01
 -1      1843 1.76960E-01
 -1      1844 1.90148E-01
 -1      1845 1.59929E-01
 -1      1846 2.07669E-01
 -1      1847 2.20666E-01
 -1      1848 1.87151E-01
 -1      1849 2.41063E-01
 -1      1850 2.61425E-01
 -1      1851 2.25070E-01
 -1      1852 2.81448E-01
 -1      1853 3.10743E-01
 -1      1854 2.65490E-01
 -1      1855 3.30666E-01
 -1      1856 3.69476E-01
 -1      1857 3.05436E-01
 -1      1858 3.87450E-01
 -1      1859 4.23073E-01
 -1      1860 3.43332E-01
 -1      1861 4.24342E-01
 -1      1862 4.40872E-01
 -1      1863 3.62574E-01
 -1      1864 4.14168E-01
 -1      1865 4.20195E-01
 -1      1866 3.37139E-01
 -1      1867 4.00760E-01
 -1      1868 4.33173E-01
 -1      1869 2.91001E-01
 -1      1870 4.81956E-01
 -1      1871 5.08444E-01
 -1      1872 3.20349E-01
 -1      1873 6.50010E-01
 -1      1874 7.81077E-01
 -1      1875 5.10698E-01
 -1      1876 9.55871E-01
 -1      1877 1.15966E+00
 -1      1878 8.27059E-01
 -1      1879 1.29201E+00
 -1      1880 1.56736E+00
 -1      1881 1.13420E+00
 -1      1882 1.72954E+00
 -1      1883 1.98848E+00
 -1      1884 1.42874E+00
 -1      1885 2.05692E+00
 -1      1886 2.13291E+00
 -1      1887 1.65937E+00
 -1      1888 2.09159E+00
 -1      1889 2.08602E+00
 -1      1890 1.68648E+00
 -1      1891 2.12634E+00
 -1      1892 2.06652E+00
 -1      1893 1.68548E+00
 -1      1894 2.00690E+00
 -1      1895 1.75825E+00
 -1      1896 1.66617E+00
 -1      1897 1.59960E+00
 -1      1898 1.32017E+00
 -1      1899 1.44789E+00
 -1      1900 1.18966E+00
 -1      1901 9.71813E-01
 -1      1902 1.15874E+00
 -1      1903 7.99968E-01
 -1      1904 6.67422E-01
 -1      1905 8.56394E-01
 -1      1906 5.27626E-01
 -1      1907 4.89212E-01
 -1      1908 5.44753E-01
 -1      1909 4.15159E-01
 -1      1910 3.80266E-01
 -1      1911 3.30905E-01
 -1      1912 3.94974E-01
 -1      1913 3.97246E-01
 -1      1914 2.71560E-01
 -1      1915 4.21166E-01
 -1      1916 4.00014E-01
 -1      1917 3.10188E-01
 -1      1918 3.93296E-01
 -1      1919 3.48646E-01
 -1      1920 3.27391E-01
 -1      1921 3.22637E-01
 -1      1922 2.89284E-01
 -1      1923 2.94663E-01
 -1      1924 2.74952E-01
 -1      1925 2.71193E-01
 -1      1926 2.54322E-01
 -1      1927 2.64277E-01
 -1      1928 2.45001E-01
 -1      1929 2.33075E-01
 -1      1930 2.27349E-01
 -1      1931 2.08356E-01
 -1      1932 2.08507E-01
 -1      1933 1.82465E-01
 -1      1934 1.50469E-01
 -1      1935 1.16628E-01
 -1      1936 1.64964E-01
 -1      1937 1.40313E+00
 -1      1938 1.77630E+00
 -1      1939 1.52545E+00
 -1      1940 1.02432E+00
 -1      1941 1.28433E+00
 -1      1942 1.01581E+00
 -1      1943 8.11436E-01
 -1      1944 9.30931E-01
 -1      1945 8.03623E-01
 -1      1946 6.46351E-01
 -1      1947 7.32369E-01
 -1      1948 6.31169E-01
 -1      1949 5.24332E-01
 -1      1950 5.94219E-01
 -1      1951 4.99970E-01
 -1      1952 4.34917E-01
 -1      1953 4.92176E-01
 -1      1954 4.15682E-01
 -1      1955 3.57915E-01
 -1      1956 4.04292E-01
 -1      1957 3.52900E-01
 -1      1958 2.94472E-01
 -1      1959 3.30485E-01
 -1      1960 2.94847E-01
 -1      1961 2.48091E-01
 -1      1962 2.74552E-01
 -1      1963 2.47498E-01
 -1      1964 2.12661E-01
 -1      1965 2.32525E-01
 -1      1966 2.12012E-01
 -1      1967 1.90076E-01
 -1      1968 2.01572E-01
 -1      1969 1.85358E-01
 -1      1970 1.81526E-01
 -1      1971 1.85031E-01
 -1      1972 1.69224E-01
 -1      1973 1.84908E-01
 -1      1974 1.81171E-01
 -1      1975 1.63823E-01
 -1      1976 2.05433E-01
 -1      1977 1.94598E-01
 -1      1978 1.73157E-01
 -1      1979 2.56510E-01
 -1      1980 2.30281E-01
 -1      1981 2.07696E-01
 -1      1982 3.53523E-01
 -1      1983 3.13043E-01
 -1      1984 2.89078E-01
 -1      1985 4.80965E-01
 -1      1986 4.28836E-01
 -1      1987 4.20924E-01
 -1      1988 6.44969E-01
 -1      1989 5.79742E-01
 -1      1990 5.95014E-01
 -1      1991 8.46395E-01
 -1      1992 7.70687E-01
 -1      1993 8.19510E-01
 -1      1994 1.07768E+00
 -1      1995 9.98594E-01
 -1      1996 1.09743E+00
 -1      1997 1.33510E+00
 -1      1998 1.24716E+00
 -1      1999 1.41910E+00
 -1      2000 1.58593E+00
 -1      2001 1.49719E+00
 -1      2002 1.75068E+00
 -1      2003 1.86500E+00
 -1      2004 1.70940E+00
 -1      2005 2.03624E+00
 -1      2006 2.09985E+00
 -1      2007 1.93984E+00
 -1      2008 2.23456E+00
 -1      2009 2.44597E+00
 -1      2010 2.23187E+00
 -1      2011 2.44141E+00
 -1      2012 2.58275E+00
 -1      2013 2.47062E+00
 -1      2014 2.59808E+00
 -1      2015 2.93922E+00
 -1      2016 2.70278E+00
 -1      2017 2.74277E+00
 -1      2018 3.14048E+00
 -1      2019 3.09165E+00
 -1      2020 3.01523E+00
 -1      2021 4.86390E+00
 -1      2022 4.11752E+00
 -1      2023 4.14470E+00
 -1      2024 6.40022E+00
 -1      2025 5.04553E+00
 -1      2026 5.30337E+00
 -1      2027 6.48326E+00
 -1      2028 5.97823E+00
 -1      2029 5.06301E+00
 -1      2030 5.20768E+00
 -1      2031 6.02104E+00
 -1      2032 4.17880E+00
 -1      2033 3.68698E+00
 -1      2034 5.46351E+00
 -1      2035 3.97242E+00
 -1      2036 3.34427E+00
 -1      2037 3.85264E+00
 -1      2038 4.39392E+00
 -1      2039 3.56474E+00
 -1      2040 3.34366E+00
 -1      2041 4.55897E+00
 -1      2042 3.52053E+00
 -1      2043 3.32219E+00
 -1      2044 4.31580E+00
 -1      2045 3.09462E+00
 -1      2046 3.20506E+00
 -1      2047 3.75778E+00
 -1      2048 2.68870E+00
 -1      2049 2.92328E+00
 -1      2050 3.27096E+00
 -1      2051 2.23916E+00
 -1      2052 2.44884E+00
 -1      2053 2.85976E+00
 -1      2054 1.76808E+00
 -1      2055 1.95906E+00
 -1      2056 2.33979E+00
 -1      2057 1.32629E+00
 -1      2058 1.50243E+00
 -1      2059 1.79405E+00
 -1      2060 9.47017E-01
 -1      2061 1.09986E+00
 -1      2062 1.30196E+00
 -1      2063 6.60293E-01
 -1      2064 7.67209E-01
 -1      2065 8.95719E-01
 -1      2066 4.53214E-01
 -1      2067 5.27736E-01
 -1      2068 5.83355E-01
 -1      2069 3.03547E-01
 -1      2070 3.79389E-01
 -1      2071 3.76973E-01
 -1      2072 1.84327E-01
 -1      2073 2.42112E-01
 -1      2074 2.41712E-01
 -1      2075 1.44074E-01
 -1      2076 1.07140E-01
 -1      2077 1.14629E-01
 -1      2078 1.47466E-01
 -1      2079 1.52697E-01
 -1      2080 1.64686E-01
 -1      2081 1.52697E-01
 -1      2082 1.52697E-01
 -1      2083 1.88900E-01
 -1      2084 1.97523E-01
 -1      2085 1.42268E-01
 -1      2086 1.25119E-01
 -1      2087 1.49828E-01
 -1      2088 1.59433E-01
 -1      2089 1.53116E-01
 -1      2090 1.78655E-01
 -1      2091 1.59433E-01
 -1      2092 1.59433E-01
 -1      2093 1.89503E-01
 -1      2094 1.54737E-01
 -1      2095 1.55459E-01
 -1      2096 1.85529E-01
 -1      2097 1.45560E-01
 -1      2098 1.52651E-01
 -1      2099 1.79468E-01
 -1      2100 1.17020E-01
 -1      2101 1.31127E-01
 -1      2102 1.62949E-01
 -1      2103 7.89954E-02
 -1      2104 9.60967E-02
 -1      2105 1.27593E-01
 -1      2106 5.81451E-02
 -1      2107 5.95190E-02
 -1      2108 8.71929E-02
 -1      2109 8.64479E-02
 -1      2110 7.11587E-02
 -1      2111 8.07302E-02
 -1      2112 1.03286E-01
 -1      2113 1.03286E-01
 -1      2114 1.10582E-01
 -1      2115 3.24759E+01
 -1      2116 3.24759E+01
 -1      2117 3.07669E+01
 -1      2118 3.07669E+01
 -1      2119 3.22086E+01
 -1      2120 3.07669E+01
 -1      2121 3.22086E+01
 -1      2122 2.29532E+01
 -1      2123 2.56088E+01
 -1      2124 1.18052E+01
 -1      2125 1.88899E+01
 -1      2126 1.03273E+00
 -1      2127 1.20738E+00
 -1      2128 9.77052E-01
 -1      2129 8.51488E-01
 -1      2130 1.15538E+01
 -1      2131 1.13095E+01
 -1      2132 1.13645E+01
 -1      2133 1.16831E+01
 -1      2134 1.19636E+01
 -1      2135 1.14189E+01
 -1      2136 1.03875E+01
 -1      2137 1.08286E+01
 -1      2138 1.02598E+01
 -1      2139 9.23228E+00
 -1      2140 2.50042E+01
 -1      2141 1.38761E+01
 -1      2142 9.76338E+00
 -1      2143 2.77010E+01
 -1      2144 2.94386E+01
 -1      2145 2.57267E+01
 -1      2146 2.96531E+01
 -1      2147 3.25827E+01
 -1      2148 3.13603E+01
 -1      2149 3.25827E+01
 -1      2150 3.25827E+01
 -1      2151 3.14108E+01
 -1      2152 2.76195E+01
 -1      2153 3.24567E+01
 -1      2154 3.18084E+01
 -1      2155 2.94394E+01
 -1      2156 1.48218E+01
 -1      2157 2.70239E+01
 -1      2158 9.82525E+00
 -1      2159 1.15578E+01
 -1      2160 1.03766E+01
 -1      2161 1.00942E+01
 -1      2162 1.12849E+01
 -1      2163 1.16667E+01
 -1      2164 1.10100E+01
 -1      2165 1.11531E+01
 -1      2166 1.10728E+01
 -1      2167 1.10235E+01
 -1      2168 9.60383E+00
 -1      2169 1.01142E+01
 -1      2170 1.35606E+01
 -1      2171 9.67882E+00
 -1      2172 3.07835E+01
 -1      2173 1.71875E+01
 -1      2174 2.76248E+01
 -1      2175 3.66849E+01
 -1      2176 2.89420E+01
 -1      2177 2.79582E+01
 -1      2178 1.00707E+01
 -1      2179 1.04388E+01
 -1      2180 9.12123E+00
 -1      2181 9.24890E+00
 -1      2182 2.91223E+00
 -1      2183 2.10595E+00
 -1      2184 3.19414E+01
 -1      2185 2.56088E+01
 -1      2186 1.10801E-01
 -1      2187 3.01165E+01
 -1      2188 1.46786E+01
 -1      2189 2.79582E+01
 -1      2190 2.17234E+01
 -1      2191 1.21951E+01
 -1      2192 8.49314E+00
 -1      2193 9.37677E+00
 -1      2194 1.03219E+01
 -1      2195 1.04402E+01
 -1      2196 9.28186E+00
 -1      2197 8.28952E+00
 -1      2198 5.91809E+00
 -1      2199 6.18704E+00
 -1      2200 1.07178E+01
 -1      2201 2.55221E+01
 -1      2202 3.74200E+01
 -1      2203 3.17863E+01
 -1      2204 1.78140E+01
 -1      2205 7.30230E+00
 -1      2206 9.59250E+00
 -1      2207 1.04894E+01
 -1      2208 1.06731E+01
 -1      2209 2.42005E+01
 -1      2210 1.87663E+01
 -1      2211 1.09372E+00
 -1      2212 1.48455E+00
 -1      2213 5.58311E-01
 -1      2214 5.89681E-01
 -1      2215 6.03596E-01
 -1      2216 6.53545E-01
 -1      2217 4.99396E-01
 -1      2218 5.10880E-01
 -1      2219 5.09289E-01
 -1      2220 5.45329E-01
 -1      2221 5.23659E-01
 -1      2222 4.44051E-01
 -1      2223 5.93196E-01
 -1      2224 5.60018E-01
 -1      2225 4.71519E-01
 -1      2226 6.52522E-01
 -1      2227 6.05118E-01
 -1      2228 4.98130E-01
 -1      2229 7.20052E-01
 -1      2230 6.52522E-01
 -1      2231 5.10053E-01
 -1      2232 8.80449E-01
 -1      2233 7.67064E-01
 -1      2234 5.57064E-01
 -1      2235 8.97010E-01
 -1      2236 1.01581E+00
 -1      2237 9.74916E-01
 -1      2238 1.26902E+00
 -1      2239 1.03846E+00
 -1      2240 1.67560E+00
 -1      2241 1.30429E+00
 -1      2242 8.38668E-01
 -1      2243 9.59422E-01
 -1      2244 7.50677E+00
 -1      2245 8.87323E+00
 -1      2246 9.90049E-01
 -1      2247 8.10333E-01
 -1      2248 7.54984E-01
 -1      2249 7.54006E-01
 -1      2250 6.28933E-01
 -1      2251 6.50243E-01
 -1      2252 5.72873E-01
 -1      2253 5.15359E-01
 -1      2254 5.37856E-01
 -1      2255 4.65929E-01
 -1      2256 4.18638E-01
 -1      2257 4.32367E-01
 -1      2258 3.93661E-01
 -1      2259 3.52370E-01
 -1      2260 3.57960E-01
 -1      2261 3.27959E-01
 -1      2262 2.94205E-01
 -1      2263 3.08571E-01
 -1      2264 2.70964E-01
 -1      2265 2.43446E-01
 -1      2266 2.60919E-01
 -1      2267 2.22377E-01
 -1      2268 1.98912E-01
 -1      2269 2.16611E-01
 -1      2270 1.81305E-01
 -1      2271 1.61585E-01
 -1      2272 1.77936E-01
 -1      2273 1.45235E-01
 -1      2274 1.29733E-01
 -1      2275 1.43979E-01
 -1      2276 1.13963E-01
 -1      2277 1.08836E-01
 -1      2278 1.11860E-01
 -1      2279 1.09758E-01
 -1      2280 1.15830E-01
 -1      2281 9.70120E-02
 -1      2282 1.21629E-01
 -1      2283 1.29880E-01
 -1      2284 1.03733E-01
 -1      2285 1.37928E-01
 -1      2286 1.47629E-01
 -1      2287 1.17580E-01
 -1      2288 1.70164E-01
 -1      2289 1.87685E-01
 -1      2290 1.48163E-01
 -1      2291 2.10520E-01
 -1      2292 2.30917E-01
 -1      2293 1.93532E-01
 -1      2294 2.53301E-01
 -1      2295 2.73324E-01
 -1      2296 2.38751E-01
 -1      2297 2.90218E-01
 -1      2298 3.10141E-01
 -1      2299 2.78029E-01
 -1      2300 3.16424E-01
 -1      2301 3.34397E-01
 -1      2302 3.01206E-01
 -1      2303 3.36482E-01
 -1      2304 3.37751E-01
 -1      2305 3.09574E-01
 -1      2306 3.56773E-01
 -1      2307 3.30069E-01
 -1      2308 3.30681E-01
 -1      2309 3.72647E-01
 -1      2310 3.53212E-01
 -1      2311 3.92280E-01
 -1      2312 3.98118E-01
 -1      2313 4.46901E-01
 -1      2314 4.79764E-01
 -1      2315 5.69797E-01
 -1      2316 7.11363E-01
 -1      2317 6.47565E-01
 -1      2318 8.03479E-01
 -1      2319 9.78273E-01
 -1      2320 8.62577E-01
 -1      2321 1.03680E+00
 -1      2322 1.16915E+00
 -1      2323 1.01322E+00
 -1      2324 1.23243E+00
 -1      2325 1.39462E+00
 -1      2326 1.13503E+00
 -1      2327 1.46963E+00
 -1      2328 1.53806E+00
 -1      2329 1.27332E+00
 -1      2330 1.50823E+00
 -1      2331 1.46691E+00
 -1      2332 1.31849E+00
 -1      2333 1.55758E+00
 -1      2334 1.59790E+00
 -1      2335 1.37932E+00
 -1      2336 1.62128E+00
 -1      2337 1.56165E+00
 -1      2338 1.49338E+00
 -1      2339 1.46196E+00
 -1      2340 1.30331E+00
 -1      2341 1.41707E+00
 -1      2342 1.18773E+00
 -1      2343 1.05723E+00
 -1      2344 1.20180E+00
 -1      2345 9.45626E-01
 -1      2346 7.73781E-01
 -1      2347 9.74619E-01
 -1      2348 6.39679E-01
 -1      2349 4.99883E-01
 -1      2350 7.28910E-01
 -1      2351 4.42207E-01
 -1      2352 3.68154E-01
 -1      2353 5.37132E-01
 -1      2354 3.30810E-01
 -1      2355 3.45518E-01
 -1      2356 4.42112E-01
 -1      2357 3.29801E-01
 -1      2358 3.53721E-01
 -1      2359 3.89051E-01
 -1      2360 3.48827E-01
 -1      2361 3.42109E-01
 -1      2362 3.68439E-01
 -1      2363 3.22285E-01
 -1      2364 2.96276E-01
 -1      2365 3.43722E-01
 -1      2366 2.71796E-01
 -1      2367 2.57465E-01
 -1      2368 2.99418E-01
 -1      2369 2.40289E-01
 -1      2370 2.33373E-01
 -1      2371 2.57763E-01
 -1      2372 2.11530E-01
 -1      2373 1.93878E-01
 -1      2374 2.18744E-01
 -1      2375 2.67239E+01
 -1      2376 2.64566E+01
 -1      2377 5.52102E-01
 -1      2378 6.31169E-01
 -1      2379 4.47838E-01
 -1      2380 4.99970E-01
 -1      2381 4.99970E-01
 -1      2382 3.83525E-01
 -1      2383 4.15682E-01
 -1      2384 4.15682E-01
 -1      2385 3.22276E-01
 -1      2386 3.52900E-01
 -1      2387 3.52900E-01
 -1      2388 2.67418E-01
 -1      2389 2.94847E-01
 -1      2390 2.94847E-01
 -1      2391 2.23950E-01
 -1      2392 2.43869E-01
 -1      2393 2.43869E-01
 -1      2394 1.88755E-01
 -1      2395 2.04321E-01
 -1      2396 2.00692E-01
 -1      2397 1.61568E-01
 -1      2398 1.72656E-01
 -1      2399 1.64965E-01
 -1      2400 1.43257E-01
 -1      2401 1.48302E-01
 -1      2402 1.35601E-01
 -1      2403 1.43818E-01
 -1      2404 1.44173E-01
 -1      2405 1.23252E-01
 -1      2406 1.65582E-01
 -1      2407 1.55892E-01
 -1      2408 1.36242E-01
 -1      2409 2.17098E-01
 -1      2410 1.92249E-01
 -1      2411 1.74983E-01
 -1      2412 3.22827E-01
 -1      2413 2.66293E-01
 -1      2414 2.50847E-01
 -1      2415 4.62207E-01
 -1      2416 3.86893E-01
 -1      2417 3.64109E-01
 -1      2418 6.44212E-01
 -1      2419 5.45435E-01
 -1      2420 5.11404E-01
 -1      2421 8.76719E-01
 -1      2422 7.51000E-01
 -1      2423 7.01421E-01
 -1      2424 1.16278E+00
 -1      2425 1.01058E+00
 -1      2426 9.42070E-01
 -1      2427 1.49377E+00
 -1      2428 1.32430E+00
 -1      2429 1.23745E+00
 -1      2430 1.83916E+00
 -1      2431 1.67706E+00
 -1      2432 1.58225E+00
 -1      2433 2.15048E+00
 -1      2434 2.02700E+00
 -1      2435 1.95339E+00
 -1      2436 2.38517E+00
 -1      2437 2.31033E+00
 -1      2438 2.30109E+00
 -1      2439 2.73306E+00
 -1      2440 2.60105E+00
 -1      2441 2.67682E+00
 -1      2442 3.19520E+00
 -1      2443 3.17054E+00
 -1      2444 3.33018E+00
 -1      2445 3.70797E+00
 -1      2446 3.58794E+00
 -1      2447 4.16040E+00
 -1      2448 4.23859E+00
 -1      2449 4.08616E+00
 -1      2450 4.93133E+00
 -1      2451 5.48500E+00
 -1      2452 5.30337E+00
 -1      2453 5.06301E+00
 -1      2454 5.48500E+00
 -1      2455 4.17880E+00
 -1      2456 4.64102E+00
 -1      2457 5.06301E+00
 -1      2458 5.67968E+00
 -1      2459 5.42384E+00
 -1      2460 5.31400E+00
 -1      2461 5.14833E+00
 -1      2462 6.59975E+00
 -1      2463 5.12170E+00
 -1      2464 5.12232E+00
 -1      2465 5.87672E+00
 -1      2466 4.31580E+00
 -1      2467 4.55836E+00
 -1      2468 5.12170E+00
 -1      2469 3.75778E+00
 -1      2470 4.07325E+00
 -1      2471 4.31580E+00
 -1      2472 3.27096E+00
 -1      2473 3.44230E+00
 -1      2474 3.75778E+00
 -1      2475 2.71907E+00
 -1      2476 2.95893E+00
 -1      2477 3.13027E+00
 -1      2478 2.12959E+00
 -1      2479 2.40970E+00
 -1      2480 2.50887E+00
 -1      2481 1.58948E+00
 -1      2482 1.85512E+00
 -1      2483 1.92502E+00
 -1      2484 1.13412E+00
 -1      2485 1.36056E+00
 -1      2486 1.42163E+00
 -1      2487 7.74323E-01
 -1      2488 9.54130E-01
 -1      2489 1.01273E+00
 -1      2490 5.04288E-01
 -1      2491 6.36845E-01
 -1      2492 6.95256E-01
 -1      2493 2.50335E-01
 -1      2494 2.26812E-01
 -1      2495 2.15964E-01
 -1      2496 2.26812E-01
 -1      2497 2.26812E-01
 -1      2498 2.64122E-01
 -1      2499 2.03028E-01
 -1      2500 2.35865E-01
 -1      2501 1.98616E-01
 -1      2502 1.80637E-01
 -1      2503 2.51816E-01
 -1      2504 2.46773E-01
 -1      2505 2.17310E-01
 -1      2506 2.21284E-01
 -1      2507 2.58593E-01
 -1      2508 2.11254E-01
 -1      2509 2.13339E-01
 -1      2510 2.49095E-01
 -1      2511 1.85119E-01
 -1      2512 1.99552E-01
 -1      2513 2.33424E-01
 -1      2514 1.39740E-01
 -1      2515 1.60663E-01
 -1      2516 1.97266E-01
 -1      2517 9.34711E-02
 -1      2518 1.12947E-01
 -1      2519 1.46018E-01
 -1      2520 1.13546E-01
 -1      2521 1.00533E-01
 -1      2522 1.26287E-01
 -1      2523 1.30384E-01
 -1      2524 1.13546E-01
 -1      2525 1.33349E-01
 -1      2526 1.33246E-01
 -1      2527 3.01165E+01
 -1      2528 2.82916E+01
 -1      2529 7.10235E-01
 -1      2530 8.03623E-01
 -1      2531 6.31169E-01
 -1      2532 1.66304E+01
 -1      2533 2.34975E+01
 -1      2534 2.38065E+01
 -1      2535 2.34731E+01
 -1      2536 7.39903E+00
 -1      2537 6.16024E+00
 -1      2538 1.00073E+01
 -1      2539 1.40706E+01
 -1      2540 3.74200E+01
 -1      2541 3.74200E+01
 -1      2542 5.63442E+00
 -1      2543 6.78962E+00
 -1      2544 5.22024E-01
 -1      2545 5.43942E-01
 -1      2546 4.71111E-01
 -1      2547 4.44007E-01
 -1      2548 9.46913E+00
 -1      2549 9.41476E+00
 -1      2550 2.19621E+01
 -1      2551 2.00099E+01
 -1      2552 9.07065E+00
 -1      2553 8.94128E+00
 -1      2554 5.98029E+00
 -1      2555 7.86665E+00
 -1      2556 7.51935E+00
 -1      2557 8.65435E+00
 -1      2558 1.01519E+01
 -1      2559 6.53563E+00
 -1      2560 1.32043E+01
 -1      2561 1.79888E+01
 -1      2562 1.68247E+01
 -1      2563 1.23903E+01
 -1      2564 9.16258E+00
 -1      2565 3.17863E+01
 -1      2566 2.61527E+01
 -1      2567 2.74935E+01
 -1      2568 3.24567E+01
 -1      2569 2.12436E+01
 -1      2570 2.32150E+01
 -1      2571 2.32150E+01
 -1      2572 7.07314E+00
 -1      2573 1.03371E+01
 -1      2574 9.55963E+00
 -1      2575 8.28567E+00
 -1      2576 6.99552E+00
 -1      2577 9.21735E+00
 -1      2578 9.34917E+00
 -1      2579 9.23629E+00
 -1      2580 9.22278E+00
 -1      2581 7.42259E+00
 -1      2582 8.38121E+00
 -1      2583 6.74221E+00
 -1      2584 6.66722E+00
 -1      2585 1.17857E+01
 -1      2586 8.15871E+00
 -1      2587 1.97765E+01
 -1      2588 1.38751E+01
 -1      2589 3.19414E+01
 -1      2590 3.19414E+01
 -1      2591 1.62275E+00
 -1      2592 1.76590E+00
 -1      2593 1.32757E+00
 -1      2594 1.19103E+00
 -1      2595 7.39599E+00
 -1      2596 5.21483E-01
 -1      2597 6.61716E-01
 -1      2598 7.19426E-01
 -1      2599 8.03623E-01
 -1      2600 1.24303E+00
 -1      2601 1.94262E+01
 -1      2602 1.15779E+01
 -1      2603 1.52745E+01
 -1      2604 9.83876E+00
 -1      2605 5.78457E+00
 -1      2606 6.33280E+00
 -1      2607 2.38065E+01
 -1      2608 1.77455E+01
 -1      2609 4.14470E+00
 -1      2610 5.21563E+00
 -1      2611 5.12174E+00
 -1      2612 2.32254E-01
 -1      2613 2.85067E-01
 -1      2614 3.58892E-01
 -1      2615 2.32254E-01
 -1      2616 4.12382E-01
 -1      2617 2.70596E-01
 -1      2618 5.67166E+00
 -1      2619 1.33246E-01
 -1      2620 1.27419E-01
 -1      2621 1.30384E-01
 -1      2622 1.59137E-01
 -1      2623 7.28211E+00
 -1      2624 8.13175E+00
 -1      2625 3.01165E+01
 -1      2626 9.66654E-01
 -1      2627 1.19592E+01
 -1      2628 1.56817E+01
 -1      2629 3.17863E+01
 -1      2630 1.45862E+01
 -1      2631 5.04041E+00
 -1      2632 6.03660E+00
 -1      2633 4.23192E+00
 -1      2634 6.02295E+00
 -1      2635 3.24567E+01
 -1      2636 8.26522E+00
 -1      2637 8.91568E-01
 -1      2638 2.19621E+01
 -1      2639 2.64566E+01
 -1      2640 5.71065E+00
 -1      2641 5.32997E+00
 -1      2642 4.17492E+00
 -1      2643 7.06283E+00
 -1      2644 5.30337E+00
 -1      2645 1.62161E-01
 -1      2646 4.22190E-01
 -1      2647 4.07502E-01
 -1      2648 3.99832E-01
 -1      2649 3.87053E-01
 -1      2650 3.50504E-01
 -1      2651 4.35716E-01
 -1      2652 4.35716E-01
 -1      2653 4.70543E-01
 -1      2654 4.23531E-01
 -1      2655 3.49195E-01
 -1      2656 7.20524E-01
 -1      2657 7.98429E-01
 -1      2658 9.24421E+00
 -1      2659 1.18041E+01
 -1      2660 6.14897E-01
 -1      2661 7.08285E-01
 -1      2662 5.31798E-01
 -1      2663 7.01797E-01
 -1      2664 6.66526E-01
 -1      2665 6.01030E-01
 -1      2666 5.52616E-01
 -1      2667 4.64158E-01
 -1      2668 5.42794E-01
 -1      2669 4.86467E-01
 -1      2670 3.88840E-01
 -1      2671 4.87672E-01
 -1      2672 4.31612E-01
 -1      2673 3.80223E-01
 -1      2674 4.16343E-01
 -1      2675 3.66914E-01
 -1      2676 3.66158E-01
 -1      2677 3.44797E-01
 -1      2678 3.19820E-01
 -1      2679 3.28774E-01
 -1      2680 2.95665E-01
 -1      2681 2.71254E-01
 -1      2682 2.82503E-01
 -1      2683 2.55125E-01
 -1      2684 2.31885E-01
 -1      2685 2.42220E-01
 -1      2686 2.15631E-01
 -1      2687 1.94563E-01
 -1      2688 2.09837E-01
 -1      2689 1.77936E-01
 -1      2690 1.60329E-01
 -1      2691 1.76956E-01
 -1      2692 1.43979E-01
 -1      2693 1.27630E-01
 -1      2694 1.43979E-01
 -1      2695 1.11708E-01
 -1      2696 9.59383E-02
 -1      2697 1.11708E-01
 -1      2698 8.02922E-02
 -1      2699 8.12146E-02
 -1      2700 8.01408E-02
 -1      2701 8.36298E-02
 -1      2702 8.94287E-02
 -1      2703 6.69099E-02
 -1      2704 1.10443E-01
 -1      2705 1.18491E-01
 -1      2706 9.03393E-02
 -1      2707 1.41122E-01
 -1      2708 1.63656E-01
 -1      2709 1.33984E-01
 -1      2710 1.87421E-01
 -1      2711 2.10256E-01
 -1      2712 1.80380E-01
 -1      2713 2.34623E-01
 -1      2714 2.57007E-01
 -1      2715 2.28511E-01
 -1      2716 2.78885E-01
 -1      2717 2.95779E-01
 -1      2718 2.74757E-01
 -1      2719 3.20722E-01
 -1      2720 3.27005E-01
 -1      2721 3.21578E-01
 -1      2722 3.56481E-01
 -1      2723 3.58565E-01
 -1      2724 3.75997E-01
 -1      2725 3.83753E-01
 -1      2726 4.02775E-01
 -1      2727 4.30660E-01
 -1      2728 4.30591E-01
 -1      2729 4.73170E-01
 -1      2730 4.83664E-01
 -1      2731 5.55794E-01
 -1      2732 6.00700E-01
 -1      2733 5.94105E-01
 -1      2734 6.66360E-01
 -1      2735 7.89256E-01
 -1      2736 7.42391E-01
 -1      2737 8.62577E-01
 -1      2738 9.54693E-01
 -1      2739 8.81372E-01
 -1      2740 1.07774E+00
 -1      2741 1.13627E+00
 -1      2742 1.07774E+00
 -1      2743 1.12928E+00
 -1      2744 1.19256E+00
 -1      2745 1.19380E+00
 -1      2746 1.34434E+00
 -1      2747 1.41934E+00
 -1      2748 1.33859E+00
 -1      2749 1.55834E+00
 -1      2750 1.52851E+00
 -1      2751 1.62936E+00
 -1      2752 1.50250E+00
 -1      2753 1.59317E+00
 -1      2754 1.74235E+00
 -1      2755 1.59442E+00
 -1      2756 1.61781E+00
 -1      2757 1.71759E+00
 -1      2758 1.51677E+00
 -1      2759 1.41707E+00
 -1      2760 1.61781E+00
 -1      2761 1.31738E+00
 -1      2762 1.20180E+00
 -1      2763 1.41707E+00
 -1      2764 1.10777E+00
 -1      2765 9.96161E-01
 -1      2766 1.22334E+00
 -1      2767 8.63013E-01
 -1      2768 7.28910E-01
 -1      2769 9.96161E-01
 -1      2770 6.81578E-01
 -1      2771 6.23902E-01
 -1      2772 8.15680E-01
 -1      2773 5.47321E-01
 -1      2774 5.09977E-01
 -1      2775 6.91767E-01
 -1      2776 4.27340E-01
 -1      2777 4.11623E-01
 -1      2778 5.32549E-01
 -1      2779 3.87272E-01
 -1      2780 3.82378E-01
 -1      2781 4.25562E-01
 -1      2782 3.63545E-01
 -1      2783 3.43722E-01
 -1      2784 3.82378E-01
 -1      2785 3.23898E-01
 -1      2786 2.99418E-01
 -1      2787 3.43722E-01
 -1      2788 2.72161E-01
 -1      2789 2.54985E-01
 -1      2790 2.96641E-01
 -1      2791 2.25927E-01
 -1      2792 2.04085E-01
 -1      2793 2.40326E-01
 -1      2794 4.15993E-01
 -1      2795 5.38337E+00
 -1      2796 6.23845E+00
 -1      2797 6.11684E+00
 -1      2798 4.24356E-01
 -1      2799 4.76487E-01
 -1      2800 2.55251E-01
 -1      2801 2.82680E-01
 -1      2802 2.13081E-01
 -1      2803 2.36629E-01
 -1      2804 2.24462E-01
 -1      2805 1.75678E-01
 -1      2806 1.95307E-01
 -1      2807 1.88067E-01
 -1      2808 1.42976E-01
 -1      2809 1.59074E-01
 -1      2810 1.53689E-01
 -1      2811 1.14031E-01
 -1      2812 1.27297E-01
 -1      2813 1.21406E-01
 -1      2814 1.03985E-01
 -1      2815 1.03069E-01
 -1      2816 9.47651E-02
 -1      2817 1.23303E-01
 -1      2818 1.11229E-01
 -1      2819 9.10461E-02
 -1      2820 1.75445E-01
 -1      2821 1.48778E-01
 -1      2822 1.23765E-01
 -1      2823 2.63484E-01
 -1      2824 2.14289E-01
 -1      2825 1.88083E-01
 -1      2826 3.76735E-01
 -1      2827 3.12669E-01
 -1      2828 2.76111E-01
 -1      2829 5.22864E-01
 -1      2830 4.39636E-01
 -1      2831 3.88195E-01
 -1      2832 7.10559E-01
 -1      2833 6.03771E-01
 -1      2834 5.32003E-01
 -1      2835 9.49011E-01
 -1      2836 8.15150E-01
 -1      2837 7.17501E-01
 -1      2838 1.24681E+00
 -1      2839 1.08529E+00
 -1      2840 9.58375E-01
 -1      2841 1.61326E+00
 -1      2842 1.42997E+00
 -1      2843 1.27782E+00
 -1      2844 2.04047E+00
 -1      2845 1.85262E+00
 -1      2846 1.70034E+00
 -1      2847 2.52663E+00
 -1      2848 2.36678E+00
 -1      2849 2.26601E+00
 -1      2850 3.18224E+00
 -1      2851 2.96636E+00
 -1      2852 3.03206E+00
 -1      2853 3.91223E+00
 -1      2854 3.47475E+00
 -1      2855 3.76430E+00
 -1      2856 5.02737E+00
 -1      2857 4.63462E+00
 -1      2858 4.77920E+00
 -1      2859 6.12947E+00
 -1      2860 5.75128E+00
 -1      2861 6.22550E+00
 -1      2862 6.93679E+00
 -1      2863 1.95184E-01
 -1      2864 1.60443E-01
 -1      2865 1.63407E-01
 -1      2866 2.02367E-01
 -1      2867 5.48500E+00
 -1      2868 3.81855E+00
 -1      2869 4.57392E+00
 -1      2870 7.38706E+00
 -1      2871 7.57874E+00
 -1      2872 7.73387E+00
 -1      2873 4.38100E+00
 -1      2874 4.62356E+00
 -1      2875 3.34518E+00
 -1      2876 3.66066E+00
 -1      2877 3.96841E+00
 -1      2878 2.58590E+00
 -1      2879 2.89793E+00
 -1      2880 2.80081E+00
 -1      2881 1.97983E+00
 -1      2882 2.28921E+00
 -1      2883 2.05686E+00
 -1      2884 1.46991E+00
 -1      2885 1.74438E+00
 -1      2886 1.52472E+00
 -1      2887 1.06068E+00
 -1      2888 1.28959E+00
 -1      2889 1.10895E+00
 -1      2890 7.39654E-01
 -1      2891 9.19647E-01
 -1      2892 7.87607E-01
 -1      2893 4.95617E-01
 -1      2894 6.33095E-01
 -1      2895 5.40016E-01
 -1      2896 2.82841E-01
 -1      2897 2.86811E-01
 -1      2898 3.04579E-01
 -1      2899 3.04579E-01
 -1      2900 2.64255E-01
 -1      2901 2.75956E-01
 -1      2902 3.13672E-01
 -1      2903 2.99051E-01
 -1      2904 3.04579E-01
 -1      2905 3.45037E-01
 -1      2906 3.32797E-01
 -1      2907 1.30544E+01
 -1      2908 1.62808E+01
 -1      2909 2.12940E-01
 -1      2910 2.37396E-01
 -1      2911 2.79928E-01
 -1      2912 1.54069E-01
 -1      2913 1.80862E-01
 -1      2914 2.20991E-01
 -1      2915 1.63407E-01
 -1      2916 1.56346E-01
 -1      2917 1.91189E-01
 -1      2918 1.63407E-01
 -1      2919 5.10327E-01
 -1      2920 5.89393E-01
 -1      2921 4.94056E-01
 -1      2922 4.34712E-01
 -1      2923 9.33408E+00
 -1      2924 7.24462E+00
 -1      2925 7.10026E+00
 -1      2926 9.96744E+00
 -1      2927 6.31549E+00
 -1      2928 4.89899E+00
 -1      2929 8.28449E-01
 -1      2930 1.13195E+01
 -1      2931 1.45743E+01
 -1      2932 5.48425E+00
 -1      2933 6.04759E+00
 -1      2934 5.54945E+00
 -1      2935 3.01049E-01
 -1      2936 3.31673E-01
 -1      2937 2.61453E-01
 -1      2938 3.57702E-01
 -1      2939 3.89859E-01
 -1      2940 3.05851E-01
 -1      2941 7.19426E-01
 -1      2942 2.04012E+01
 -1      2943 1.62106E+01
 -1      2944 4.35716E-01
 -1      2945 4.23794E-01
 -1      2946 3.59776E-01
 -1      2947 3.61380E-01
 -1      2948 4.21792E-01
 -1      2949 4.35708E-01
 -1      2950 1.88039E+01
 -1      2951 2.42887E+01
 -1      2952 2.08872E+01
 -1      2953 2.58504E+01
 -1      2954 2.70705E+01
 -1      2955 2.14369E+01
 -1      2956 9.17520E+00
 -1      2957 1.41133E+01
 -1      2958 1.09281E+01
 -1      2959 8.70227E+00
 -1      2960 1.65032E+01
 -1      2961 2.07817E+01
 -1      2962 6.47072E+00
 -1      2963 5.40722E+00
 -1      2964 2.33082E+01
 -1      2965 2.14833E+01
 -1      2966 1.56555E+01
 -1      2967 6.85206E+00
 -1      2968 6.84664E+00
 -1      2969 2.16259E+01
 -1      2970 1.71408E+01
 -1      2971 3.32350E-01
 -1      2972 4.74136E-01
 -1      2973 4.11974E-01
 -1      2974 3.09959E-01
 -1      2975 4.45200E-01
 -1      2976 4.53372E-01
 -1      2977 3.67597E-01
 -1      2978 3.42631E-01
 -1      2979 3.86850E-01
 -1      2980 3.99585E-01
 -1      2981 1.03394E+01
 -1      2982 1.37226E+01
 -1      2983 9.67575E+00
 -1      2984 1.15420E+01
 -1      2985 1.25525E+01
 -1      2986 4.68920E+00
 -1      2987 3.64555E+00
 -1      2988 2.83609E+00
 -1      2989 3.66376E-01
 -1      2990 3.80124E+00
 -1      2991 6.08178E+00
 -1      2992 6.50377E+00
 -1      2993 1.41128E+01
 -1      2994 4.95333E+00
 -1      2995 1.93466E-01
 -1      2996 5.81082E+00
 -1      2997 5.20251E+00
 -1      2998 5.61032E+00
 -1      2999 3.84003E+00
 -1      3000 1.93887E+01
 -1      3001 1.27230E+01
 -1      3002 1.25804E+01
 -1      3003 5.19103E+00
 -1      3004 8.86010E+00
 -1      3005 6.84788E+00
 -1      3006 5.74057E-01
 -1      3007 7.74961E+00
 -1      3008 1.55010E+01
 -1      3009 4.70281E+00
 -1      3010 3.74388E+00
 -1      3011 4.11070E+00
 -1      3012 1.41754E+01
 -1      3013 4.40523E-01
 -1      3014 5.85147E+00
 -1      3015 3.16198E-01
 -1      3016 2.98850E-01
 -1      3017 3.79384E-01
 -1      3018 3.56656E-01
 -1      3019 4.07028E-01
 -1      3020 4.21397E-01
 -1      3021 3.57709E-01
 -1      3022 3.49871E-01
 -1      3023 9.48532E+00
 -1      3024 6.89119E+00
 -1      3025 9.13506E+00
 -1      3026 1.56854E+01
 -1      3027 3.44857E+00
 -1      3028 3.59901E+00
 -1      3029 3.39157E+00
 -1      3030 5.29654E-01
 -1      3031 1.21410E+01
 -1      3032 8.99994E+00
 -1      3033 2.88912E-01
 -1      3034 3.01098E-01
 -1      3035 6.84788E+00
 -1      3036 3.27678E-01
 -1      3037 3.17856E-01
 -1      3038 3.04575E-01
 -1      3039 3.05779E-01
 -1      3040 2.43413E-01
 -1      3041 3.14480E-01
 -1      3042 2.99212E-01
 -1      3043 2.38833E-01
 -1      3044 2.94695E-01
 -1      3045 2.72579E-01
 -1      3046 2.43017E-01
 -1      3047 2.60854E-01
 -1      3048 2.36699E-01
 -1      3049 2.26775E-01
 -1      3050 2.21436E-01
 -1      3051 2.05308E-01
 -1      3052 1.99787E-01
 -1      3053 1.92809E-01
 -1      3054 1.76555E-01
 -1      3055 1.72025E-01
 -1      3056 1.63599E-01
 -1      3057 1.46972E-01
 -1      3058 1.46571E-01
 -1      3059 1.32559E-01
 -1      3060 1.16210E-01
 -1      3061 1.19202E-01
 -1      3062 1.00889E-01
 -1      3063 8.49679E-02
 -1      3064 8.94692E-02
 -1      3065 7.31439E-02
 -1      3066 5.74978E-02
 -1      3067 6.23248E-02
 -1      3068 5.78682E-02
 -1      3069 6.02834E-02
 -1      3070 5.08713E-02
 -1      3071 7.67491E-02
 -1      3072 9.77633E-02
 -1      3073 6.77074E-02
 -1      3074 1.17471E-01
 -1      3075 1.40102E-01
 -1      3076 1.03881E-01
 -1      3077 1.64545E-01
 -1      3078 1.88309E-01
 -1      3079 1.48032E-01
 -1      3080 2.16965E-01
 -1      3081 2.41332E-01
 -1      3082 2.01131E-01
 -1      3083 2.71992E-01
 -1      3084 2.93870E-01
 -1      3085 2.60446E-01
 -1      3086 3.24706E-01
 -1      3087 3.49649E-01
 -1      3088 3.21942E-01
 -1      3089 3.85722E-01
 -1      3090 4.15198E-01
 -1      3091 3.88850E-01
 -1      3092 4.67088E-01
 -1      3093 4.92275E-01
 -1      3094 4.76813E-01
 -1      3095 5.48634E-01
 -1      3096 5.76451E-01
 -1      3097 5.85063E-01
 -1      3098 6.24751E-01
 -1      3099 7.07376E-01
 -1      3100 6.89722E-01
 -1      3101 8.27269E-01
 -1      3102 8.92929E-01
 -1      3103 8.57915E-01
 -1      3104 1.02288E+00
 -1      3105 1.09620E+00
 -1      3106 1.10775E+00
 -1      3107 1.08673E+00
 -1      3108 1.20978E+00
 -1      3109 1.22824E+00
 -1      3110 1.47828E+00
 -1      3111 1.47129E+00
 -1      3112 1.48727E+00
 -1      3113 1.33859E+00
 -1      3114 1.49036E+00
 -1      3115 1.62306E+00
 -1      3116 1.91296E+00
 -1      3117 2.05196E+00
 -1      3118 1.91296E+00
 -1      3119 2.78853E+00
 -1      3120 2.76252E+00
 -1      3121 3.07213E+00
 -1      3122 2.56045E+00
 -1      3123 2.56171E+00
 -1      3124 3.60663E+00
 -1      3125 1.92098E+00
 -1      3126 1.81994E+00
 -1      3127 2.76384E+00
 -1      3128 1.52567E+00
 -1      3129 1.42597E+00
 -1      3130 1.82884E+00
 -1      3131 1.40263E+00
 -1      3132 1.30860E+00
 -1      3133 1.51123E+00
 -1      3134 1.20786E+00
 -1      3135 1.07471E+00
 -1      3136 1.38715E+00
 -1      3137 1.00476E+00
 -1      3138 9.57431E-01
 -1      3139 1.21646E+00
 -1      3140 8.19632E-01
 -1      3141 7.43051E-01
 -1      3142 1.00872E+00
 -1      3143 6.45195E-01
 -1      3144 5.62558E-01
 -1      3145 7.73061E-01
 -1      3146 5.08916E-01
 -1      3147 4.84566E-01
 -1      3148 6.21562E-01
 -1      3149 4.25957E-01
 -1      3150 4.07123E-01
 -1      3151 5.09311E-01
 -1      3152 3.57518E-01
 -1      3153 3.37695E-01
 -1      3154 4.01097E-01
 -1      3155 3.02390E-01
 -1      3156 2.75133E-01
 -1      3157 3.16187E-01
 -1      3158 1.62510E-01
 -1      3159 1.80283E-01
 -1      3160 3.83820E+00
 -1      3161 2.75777E+00
 -1      3162 1.95406E-01
 -1      3163 2.14028E-01
 -1      3164 1.69849E-01
 -1      3165 9.73592E-02
 -1      3166 1.13038E-01
 -1      3167 7.00062E-02
 -1      3168 8.09690E-02
 -1      3169 7.26003E-02
 -1      3170 7.43094E-02
 -1      3171 6.70656E-02
 -1      3172 5.32695E-02
 -1      3173 1.22976E-01
 -1      3174 9.75010E-02
 -1      3175 7.35206E-02
 -1      3176 1.94196E-01
 -1      3177 1.55352E-01
 -1      3178 1.29089E-01
 -1      3179 2.88497E-01
 -1      3180 2.39313E-01
 -1      3181 2.06583E-01
 -1      3182 4.10950E-01
 -1      3183 3.48050E-01
 -1      3184 3.11252E-01
 -1      3185 5.71030E-01
 -1      3186 4.90123E-01
 -1      3187 4.49977E-01
 -1      3188 7.81073E-01
 -1      3189 6.76482E-01
 -1      3190 6.34602E-01
 -1      3191 1.05752E+00
 -1      3192 9.21241E-01
 -1      3193 8.80222E-01
 -1      3194 1.42596E+00
 -1      3195 1.24279E+00
 -1      3196 1.20566E+00
 -1      3197 1.90696E+00
 -1      3198 1.66760E+00
 -1      3199 1.63257E+00
 -1      3200 2.57319E+00
 -1      3201 2.24688E+00
 -1      3202 2.21414E+00
 -1      3203 3.55063E+00
 -1      3204 3.11090E+00
 -1      3205 3.09176E+00
 -1      3206 6.21659E+00
 -1      3207 5.92409E+00
 -1      3208 6.00292E+00
 -1      3209 7.97836E+00
 -1      3210 2.02269E+00
 -1      3211 2.31938E+00
 -1      3212 3.22954E-01
 -1      3213 3.15285E-01
 -1      3214 4.53953E+00
 -1      3215 3.09860E-01
 -1      3216 3.44356E-01
 -1      3217 1.08018E+01
 -1      3218 1.33249E+01
 -1      3219 8.21197E+00
 -1      3220 2.80081E+00
 -1      3221 3.24806E+00
 -1      3222 2.76663E+00
 -1      3223 3.93630E+00
 -1      3224 4.65664E+00
 -1      3225 3.93630E+00
 -1      3226 1.45640E+00
 -1      3227 1.69186E+00
 -1      3228 1.95438E+00
 -1      3229 1.04218E+00
 -1      3230 1.22250E+00
 -1      3231 1.38964E+00
 -1      3232 7.31658E-01
 -1      3233 8.72689E-01
 -1      3234 9.86234E-01
 -1      3235 5.01469E-01
 -1      3236 6.08029E-01
 -1      3237 6.93111E-01
 -1      3238 3.59297E-01
 -1      3239 3.66182E-01
 -1      3240 2.36153E-01
 -1      3241 2.33877E-01
 -1      3242 3.00880E-01
 -1      3243 3.27739E-01
 -1      3244 3.80249E-01
 -1      3245 5.07342E+00
 -1      3246 4.14429E+00
 -1      3247 1.33249E+01
 -1      3248 1.23444E+01
 -1      3249 7.35128E+00
 -1      3250 2.30376E-01
 -1      3251 2.62454E-01
 -1      3252 3.10265E-01
 -1      3253 2.75340E-01
 -1      3254 1.29652E-01
 -1      3255 1.46256E-01
 -1      3256 1.38472E-01
 -1      3257 1.05604E-01
 -1      3258 2.29168E-01
 -1      3259 2.47537E-01
 -1      3260 2.00112E-01
 -1      3261 5.88606E+00
 -1      3262 2.67182E-01
 -1      3263 2.93210E-01
 -1      3264 2.71191E-01
 -1      3265 2.34897E-01
 -1      3266 4.07420E+00
 -1      3267 4.68782E+00
 -1      3268 7.30888E+00
 -1      3269 8.66091E+00
 -1      3270 4.12832E-01
 -1      3271 3.09318E-01
 -1      3272 2.61221E-01
 -1      3273 4.00594E-01
 -1      3274 9.13096E+00
 -1      3275 1.10599E+01
 -1      3276 1.22623E+01
 -1      3277 1.23677E+01
 -1      3278 4.53372E-01
 -1      3279 6.03310E+00
 -1      3280 1.02236E+01
 -1      3281 7.74679E+00
 -1      3282 7.02439E+00
 -1      3283 1.23209E+01
 -1      3284 4.76726E+00
 -1      3285 4.39135E+00
 -1      3286 3.88814E+00
 -1      3287 1.16844E+01
 -1      3288 1.29045E+01
 -1      3289 3.12277E-01
 -1      3290 3.12074E-01
 -1      3291 2.84728E-01
 -1      3292 7.57974E+00
 -1      3293 9.18418E+00
 -1      3294 1.08307E+01
 -1      3295 7.41245E+00
 -1      3296 8.59344E+00
 -1      3297 9.25220E+00
 -1      3298 2.51389E+00
 -1      3299 2.62918E+00
 -1      3300 2.55085E+00
 -1      3301 9.53993E+00
 -1      3302 1.33565E+01
 -1      3303 5.62913E+00
 -1      3304 5.47789E+00
 -1      3305 3.81136E+00
 -1      3306 2.65332E-01
 -1      3307 2.36274E-01
 -1      3308 1.23209E+01
 -1      3309 3.55664E-01
 -1      3310 3.81168E-01
 -1      3311 2.62202E-01
 -1      3312 3.22954E-01
 -1      3313 2.87736E-01
 -1      3314 3.24558E-01
 -1      3315 7.31916E+00
 -1      3316 7.08580E+00
 -1      3317 8.63772E+00
 -1      3318 6.54510E+00
 -1      3319 3.87214E+00
 -1      3320 3.60663E+00
 -1      3321 3.17797E+00
 -1      3322 3.19868E-01
 -1      3323 3.29360E-01
 -1      3324 1.00138E+01
 -1      3325 4.36913E-01
 -1      3326 3.91287E-01
 -1      3327 4.03528E-01
 -1      3328 4.79988E-01
 -1      3329 3.10081E+00
 -1      3330 4.03528E-01
 -1      3331 4.03528E-01
 -1      3332 4.62018E-01
 -1      3333 3.23057E-01
 -1      3334 3.23453E-01
 -1      3335 2.85217E-01
 -1      3336 9.95659E+00
 -1      3337 1.22872E+01
 -1      3338 1.01926E+01
 -1      3339 3.33485E+00
 -1      3340 3.20739E+00
 -1      3341 2.75894E+00
 -1      3342 3.39195E-01
 -1      3343 3.73034E-01
 -1      3344 2.60147E-01
 -1      3345 2.82678E-01
 -1      3346 2.71080E-01
 -1      3347 4.15285E+00
 -1      3348 3.44843E+00
 -1      3349 3.72908E+00
 -1      3350 2.61633E-01
 -1      3351 3.21915E-01
 -1      3352 3.21915E-01
 -1      3353 3.60290E+00
 -1      3354 5.50065E+00
 -1      3355 5.30146E+00
 -1      3356 3.69245E-01
 -1      3357 3.80864E-01
 -1      3358 4.27736E-01
 -1      3359 2.27373E-01
 -1      3360 2.70060E-01
 -1      3361 3.87876E-01
 -1      3362 3.29238E+00
 -1      3363 2.65947E+00
 -1      3364 2.95479E+00
 -1      3365 9.60653E+00
 -1      3366 1.15197E+01
 -1      3367 8.92318E+00
 -1      3368 9.99198E+00
 -1      3369 2.27373E-01
 -1      3370 3.16891E-01
 -1      3371 8.73213E+00
 -1      3372 9.18418E+00
 -1      3373 1.87894E-01
 -1      3374 1.96595E-01
 -1      3375 2.10162E-01
 -1      3376 2.05645E-01
 -1      3377 1.59223E-01
 -1      3378 2.07534E-01
 -1      3379 1.95809E-01
 -1      3380 1.74679E-01
 -1      3381 1.90403E-01
 -1      3382 1.75140E-01
 -1      3383 1.71162E-01
 -1      3384 1.65395E-01
 -1      3385 1.52896E-01
 -1      3386 1.56010E-01
 -1      3387 1.43025E-01
 -1      3388 1.30069E-01
 -1      3389 1.36395E-01
 -1      3390 1.20427E-01
 -1      3391 1.06015E-01
 -1      3392 1.16882E-01
 -1      3393 9.45225E-02
 -1      3394 7.92021E-02
 -1      3395 9.57479E-02
 -1      3396 7.38993E-02
 -1      3397 6.20754E-02
 -1      3398 7.89527E-02
 -1      3399 6.28236E-02
 -1      3400 6.31940E-02
 -1      3401 7.43981E-02
 -1      3402 6.77074E-02
 -1      3403 8.41732E-02
 -1      3404 7.96598E-02
 -1      3405 1.03881E-01
 -1      3406 1.23589E-01
 -1      3407 1.03881E-01
 -1      3408 1.44814E-01
 -1      3409 1.69257E-01
 -1      3410 1.44814E-01
 -1      3411 1.93895E-01
 -1      3412 2.22551E-01
 -1      3413 1.90677E-01
 -1      3414 2.51005E-01
 -1      3415 2.81665E-01
 -1      3416 2.43770E-01
 -1      3417 3.17575E-01
 -1      3418 3.48411E-01
 -1      3419 3.08134E-01
 -1      3420 3.98436E-01
 -1      3421 4.34509E-01
 -1      3422 3.94070E-01
 -1      3423 4.94078E-01
 -1      3424 5.45968E-01
 -1      3425 5.03664E-01
 -1      3426 6.14829E-01
 -1      3427 6.71188E-01
 -1      3428 6.32094E-01
 -1      3429 7.77458E-01
 -1      3430 8.25758E-01
 -1      3431 8.07225E-01
 -1      3432 9.56040E-01
 -1      3433 1.07593E+00
 -1      3434 1.04378E+00
 -1      3435 1.17824E+00
 -1      3436 1.30819E+00
 -1      3437 1.27637E+00
 -1      3438 1.50935E+00
 -1      3439 1.49989E+00
 -1      3440 1.57984E+00
 -1      3441 1.48727E+00
 -1      3442 1.75577E+00
 -1      3443 1.76839E+00
 -1      3444 2.10527E+00
 -1      3445 1.97257E+00
 -1      3446 2.10527E+00
 -1      3447 2.04520E+00
 -1      3448 2.46780E+00
 -1      3449 2.52741E+00
 -1      3450 2.91307E+00
 -1      3451 3.64964E+00
 -1      3452 3.80869E+00
 -1      3453 3.60663E+00
 -1      3454 2.22589E+00
 -1      3455 1.93162E+00
 -1      3456 1.81696E+00
 -1      3457 1.79362E+00
 -1      3458 2.21401E+00
 -1      3459 1.61124E+00
 -1      3460 1.51050E+00
 -1      3461 1.91697E+00
 -1      3462 1.46449E+00
 -1      3463 1.39455E+00
 -1      3464 1.68859E+00
 -1      3465 1.19169E+00
 -1      3466 1.05389E+00
 -1      3467 1.43972E+00
 -1      3468 9.53035E-01
 -1      3469 8.55179E-01
 -1      3470 1.13601E+00
 -1      3471 7.41359E-01
 -1      3472 6.87716E-01
 -1      3473 9.21333E-01
 -1      3474 5.89110E-01
 -1      3475 5.30501E-01
 -1      3476 7.08906E-01
 -1      3477 4.68396E-01
 -1      3478 4.18791E-01
 -1      3479 5.48194E-01
 -1      3480 3.47388E-01
 -1      3481 3.12083E-01
 -1      3482 4.14687E-01
 -1      3483 1.77579E-01
 -1      3484 1.92720E-01
 -1      3485 6.26762E-02
 -1      3486 6.56168E-02
 -1      3487 6.34537E-02
 -1      3488 7.98438E-02
 -1      3489 7.28603E-02
 -1      3490 1.54243E-01
 -1      3491 1.21866E-01
 -1      3492 2.37537E-01
 -1      3493 1.92420E-01
 -1      3494 1.85197E-01
 -1      3495 3.46627E-01
 -1      3496 2.87074E-01
 -1      3497 2.72912E-01
 -1      3498 4.90911E-01
 -1      3499 4.11738E-01
 -1      3500 3.87560E-01
 -1      3501 6.83047E-01
 -1      3502 5.77595E-01
 -1      3503 5.39356E-01
 -1      3504 9.40526E-01
 -1      3505 8.00358E-01
 -1      3506 7.43351E-01
 -1      3507 1.28840E+00
 -1      3508 1.10313E+00
 -1      3509 1.02327E+00
 -1      3510 1.76372E+00
 -1      3511 1.52208E+00
 -1      3512 1.41955E+00
 -1      3513 2.45394E+00
 -1      3514 2.11402E+00
 -1      3515 2.00352E+00
 -1      3516 3.47894E+00
 -1      3517 2.94123E+00
 -1      3518 2.84112E+00
 -1      3519 6.97389E+00
 -1      3520 4.60043E+00
 -1      3521 4.44990E+00
 -1      3522 1.18817E+00
 -1      3523 1.42208E+00
 -1      3524 6.54629E+00
 -1      3525 7.01634E+00
 -1      3526 8.44867E+00
 -1      3527 8.44867E+00
 -1      3528 8.39146E+00
 -1      3529 5.75404E+00
 -1      3530 2.46738E+00
 -1      3531 2.94881E+00
 -1      3532 3.64288E+00
 -1      3533 4.33112E+00
 -1      3534 3.34363E+00
 -1      3535 8.40018E-01
 -1      3536 1.00951E+00
 -1      3537 1.04195E+00
 -1      3538 4.68879E-01
 -1      3539 4.13588E-01
 -1      3540 4.45146E-01
 -1      3541 3.15614E-01
 -1      3542 3.23057E-01
 -1      3543 2.88801E-01
 -1      3544 2.69163E-01
 -1      3545 9.28515E-02
 -1      3546 6.96599E-02
 -1      3547 8.20071E-02
 -1      3548 1.18005E-01
 -1      3549 9.18418E+00
 -1      3550 2.23172E-01
 -1      3551 2.02766E-01
 -1      3552 2.03746E-01
 -1      3553 1.50458E-01
 -1      3554 1.65581E-01
 -1      3555 1.58189E-01
 -1      3556 2.79861E-01
 -1      3557 2.03428E-01
 -1      3558 1.90146E-01
 -1      3559 1.47909E-01
 -1      3560 2.15897E-01
 -1      3561 2.78629E+00
 -1      3562 2.48021E+00
 -1      3563 1.68832E+00
 -1      3564 2.01915E+00
 -1      3565 1.48685E+00
 -1      3566 7.34347E+00
 -1      3567 8.54586E+00
 -1      3568 3.40457E+00
 -1      3569 3.11063E-01
 -1      3570 4.81468E-01
 -1      3571 7.55951E+00
 -1      3572 5.66715E+00
 -1      3573 7.26630E+00
 -1      3574 5.53067E+00
 -1      3575 4.11737E+00
 -1      3576 5.03334E+00
 -1      3577 2.23633E+00
 -1      3578 3.42440E+00
 -1      3579 3.01992E+00
 -1      3580 2.39933E+00
 -1      3581 3.04531E+00
 -1      3582 3.00316E+00
 -1      3583 1.82195E-01
 -1      3584 2.04728E-01
 -1      3585 2.24372E-01
 -1      3586 2.76384E+00
 -1      3587 5.03590E-01
 -1      3588 5.91604E-01
 -1      3589 7.15233E-01
 -1      3590 5.37872E-01
 -1      3591 2.86662E+00
 -1      3592 2.85093E-01
 -1      3593 8.47150E-02
 -1      3594 9.38617E-02
 -1      3595 1.10475E-01
 -1      3596 5.96803E+00
 -1      3597 7.87676E+00
 -1      3598 7.02870E+00
 -1      3599 8.37638E+00
 -1      3600 6.97389E+00
 -1      3601 2.52991E-01
 -1      3602 2.49983E-01
 -1      3603 6.14916E+00
 -1      3604 6.86053E+00
 -1      3605 5.82250E+00
 -1      3606 3.88814E+00
 -1      3607 6.31001E+00
 -1      3608 6.13083E-01
 -1      3609 6.88937E-01
 -1      3610 2.63407E-01
 -1      3611 2.28662E-01
 -1      3612 2.63407E-01
 -1      3613 2.64002E+00
 -1      3614 5.53009E-01
 -1      3615 5.78114E-01
 -1      3616 5.86347E-01
 -1      3617 5.46062E+00
 -1      3618 7.38511E-01
 -1      3619 2.85261E-01
 -1      3620 5.48502E+00
 -1      3621 4.92162E+00
 -1      3622 3.67679E+00
 -1      3623 6.13083E-01
 -1      3624 2.20132E+00
 -1      3625 1.23260E-01
 -1      3626 1.39514E-01
 -1      3627 1.11517E-01
 -1      3628 3.60353E-01
 -1      3629 4.25250E-01
 -1      3630 3.21927E-01
 -1      3631 2.63522E+00
 -1      3632 2.57850E+00
 -1      3633 2.47903E+00
 -1      3634 2.45382E-01
 -1      3635 2.40220E-01
 -1      3636 2.82581E+00
 -1      3637 3.33099E+00
 -1      3638 3.22133E+00
 -1      3639 2.23584E-01
 -1      3640 2.45948E-01
 -1      3641 2.42363E-01
 -1      3642 1.76628E-01
 -1      3643 3.01360E-01
 -1      3644 2.97859E-01
 -1      3645 3.47947E-01
 -1      3646 3.33582E-01
 -1      3647 8.56743E+00
 -1      3648 2.32056E-01
 -1      3649 2.48705E-01
 -1      3650 2.01887E-01
 -1      3651 2.55167E+00
 -1      3652 1.35246E-01
 -1      3653 2.06247E-01
 -1      3654 2.31782E+00
 -1      3655 1.48074E-01
 -1      3656 1.49963E-01
 -1      3657 1.54198E-01
 -1      3658 1.48792E-01
 -1      3659 1.27594E-01
 -1      3660 1.46590E-01
 -1      3661 1.36845E-01
 -1      3662 1.29627E-01
 -1      3663 1.30493E-01
 -1      3664 1.20623E-01
 -1      3665 1.21073E-01
 -1      3666 1.13311E-01
 -1      3667 1.03670E-01
 -1      3668 1.07410E-01
 -1      3669 9.65222E-02
 -1      3670 8.50298E-02
 -1      3671 9.29514E-02
 -1      3672 8.62529E-02
 -1      3673 8.09501E-02
 -1      3674 8.70272E-02
 -1      3675 8.30230E-02
 -1      3676 8.37712E-02
 -1      3677 9.03231E-02
 -1      3678 8.67247E-02
 -1      3679 9.12381E-02
 -1      3680 9.53495E-02
 -1      3681 1.01932E-01
 -1      3682 1.21640E-01
 -1      3683 1.08997E-01
 -1      3684 1.43886E-01
 -1      3685 1.65111E-01
 -1      3686 1.41937E-01
 -1      3687 1.90677E-01
 -1      3688 2.15316E-01
 -1      3689 1.89749E-01
 -1      3690 2.43770E-01
 -1      3691 2.72223E-01
 -1      3692 2.43770E-01
 -1      3693 3.07181E-01
 -1      3694 3.43092E-01
 -1      3695 3.07181E-01
 -1      3696 3.90175E-01
 -1      3697 4.40200E-01
 -1      3698 3.89222E-01
 -1      3699 5.04777E-01
 -1      3700 5.64346E-01
 -1      3701 5.00882E-01
 -1      3702 6.70639E-01
 -1      3703 7.39500E-01
 -1      3704 6.71752E-01
 -1      3705 8.59500E-01
 -1      3706 9.65770E-01
 -1      3707 8.98045E-01
 -1      3708 1.06724E+00
 -1      3709 1.19752E+00
 -1      3710 1.11951E+00
 -1      3711 1.78806E+00
 -1      3712 1.89037E+00
 -1      3713 1.81152E+00
 -1      3714 2.61951E+00
 -1      3715 2.82068E+00
 -1      3716 3.13121E+00
 -1      3717 2.35259E+00
 -1      3718 2.70210E+00
 -1      3719 2.47903E+00
 -1      3720 2.13252E+00
 -1      3721 1.95014E+00
 -1      3722 1.80121E+00
 -1      3723 1.59836E+00
 -1      3724 1.39738E+00
 -1      3725 1.29652E+00
 -1      3726 1.75886E+00
 -1      3727 1.08972E+00
 -1      3728 9.75901E-01
 -1      3729 1.35109E+00
 -1      3730 8.57170E-01
 -1      3731 7.58563E-01
 -1      3732 1.02556E+00
 -1      3733 6.42598E-01
 -1      3734 5.80493E-01
 -1      3735 7.90862E-01
 -1      3736 4.55694E-01
 -1      3737 3.84292E-01
 -1      3738 3.74589E-01
 -1      3739 5.50098E-01
 -1      3740 3.98511E-01
 -1      3741 3.33399E-01
 -1      3742 8.13721E-01
 -1      3743 8.24817E-02
 -1      3744 8.03185E-02
 -1      3745 2.86954E-01
 -1      3746 2.37417E-01
 -1      3747 2.97904E-01
 -1      3748 2.00947E-01
 -1      3749 1.62769E-01
 -1      3750 2.14989E-01
 -1      3751 5.45082E-01
 -1      3752 4.58397E-01
 -1      3753 4.04236E-01
 -1      3754 7.41105E-01
 -1      3755 6.23795E-01
 -1      3756 5.42835E-01
 -1      3757 1.01054E+00
 -1      3758 8.47935E-01
 -1      3759 7.28379E-01
 -1      3760 1.39693E+00
 -1      3761 1.16325E+00
 -1      3762 9.87919E-01
 -1      3763 1.98541E+00
 -1      3764 1.63511E+00
 -1      3765 1.37881E+00
 -1      3766 2.86867E+00
 -1      3767 2.38137E+00
 -1      3768 2.01296E+00
 -1      3769 4.44771E+00
 -1      3770 3.32622E+00
 -1      3771 2.86648E+00
 -1      3772 2.22113E-01
 -1      3773 2.53851E-01
 -1      3774 2.57391E-01
 -1      3775 5.97814E+00
 -1      3776 7.48606E+00
 -1      3777 4.55522E+00
 -1      3778 2.79766E+00
 -1      3779 3.49173E+00
 -1      3780 4.00925E+00
 -1      3781 2.57391E-01
 -1      3782 2.57391E-01
 -1      3783 2.14538E-01
 -1      3784 2.25981E-01
 -1      3785 1.81151E+00
 -1      3786 2.25973E+00
 -1      3787 2.40784E+00
 -1      3788 7.02870E+00
 -1      3789 6.83765E+00
 -1      3790 2.20316E+00
 -1      3791 2.01898E-01
 -1      3792 2.60765E-01
 -1      3793 2.63407E-01
 -1      3794 7.29179E-01
 -1      3795 5.43516E+00
 -1      3796 8.81418E-01
 -1      3797 1.06008E+00
 -1      3798 2.19338E-01
 -1      3799 1.80308E-01
 -1      3800 2.17489E-01
 -1      3801 2.36708E-01
 -1      3802 1.36661E-01
 -1      3803 1.34408E-01
 -1      3804 1.63127E-01
 -1      3805 5.42411E+00
 -1      3806 5.75124E+00
 -1      3807 1.99411E-01
 -1      3808 1.22162E-01
 -1      3809 1.35729E-01
 -1      3810 1.11014E-01
 -1      3811 1.10914E-01
 -1      3812 1.23533E+00
 -1      3813 1.50158E+00
 -1      3814 1.07480E+00
 -1      3815 1.19911E-01
 -1      3816 1.30855E-01
 -1      3817 1.77680E-01
 -1      3818 1.74357E-01
 -1      3819 1.39757E-01
 -1      3820 1.51755E-01
 -1      3821 1.24422E-01
 -1      3822 2.18378E+00
 -1      3823 8.31844E-01
 -1      3824 5.19304E+00
 -1      3825 4.17861E+00
 -1      3826 4.96777E+00
 -1      3827 1.59250E-01
 -1      3828 1.71258E-01
 -1      3829 1.40818E-01
 -1      3830 2.12388E+00
 -1      3831 2.11126E+00
 -1      3832 1.96757E-01
 -1      3833 1.86340E-01
 -1      3834 1.49584E-01
 -1      3835 1.33835E-01
 -1      3836 1.04820E-01
 -1      3837 2.10273E+00
 -1      3838 2.05672E+00
 -1      3839 8.73467E-02
 -1      3840 9.48049E-02
 -1      3841 9.43304E-02
 -1      3842 7.80073E-02
 -1      3843 9.20251E-02
 -1      3844 8.76286E-02
 -1      3845 5.25805E+00
 -1      3846 4.58895E+00
 -1      3847 4.37215E+00
 -1      3848 4.31148E+00
 -1      3849 1.90308E-01
 -1      3850 1.94175E-01
 -1      3851 1.58402E-01
 -1      3852 4.85298E+00
 -1      3853 2.39079E-01
 -1      3854 6.60408E-01
 -1      3855 7.68270E-01
 -1      3856 3.21921E+00
 -1      3857 3.40276E+00
 -1      3858 2.94729E+00
 -1      3859 5.46190E+00
 -1      3860 4.90998E+00
 -1      3861 4.42797E+00
 -1      3862 9.91092E-02
 -1      3863 1.11893E-01
 -1      3864 1.07503E-01
 -1      3865 9.24014E-02
 -1      3866 5.29893E+00
 -1      3867 7.14412E-01
 -1      3868 7.49381E-01
 -1      3869 8.17077E-01
 -1      3870 7.88472E-01
 -1      3871 1.55999E+00
 -1      3872 2.21535E+00
 -1      3873 1.74284E-01
 -1      3874 1.81968E-01
 -1      3875 1.51339E-01
 -1      3876 1.50078E-01
 -1      3877 4.92162E+00
 -1      3878 4.36284E+00
 -1      3879 3.86035E+00
 -1      3880 1.75452E-01
 -1      3881 1.71940E-01
 -1      3882 1.93530E-01
 -1      3883 1.46886E-01
 -1      3884 6.07173E-01
 -1      3885 6.60408E-01
 -1      3886 8.42331E-01
 -1      3887 3.16355E+00
 -1      3888 3.54215E+00
 -1      3889 2.75071E+00
 -1      3890 3.44369E+00
 -1      3891 3.35714E+00
 -1      3892 2.78192E+00
 -1      3893 3.51684E+00
 -1      3894 2.57850E+00
 -1      3895 1.15533E-01
 -1      3896 1.13330E-01
 -1      3897 1.12591E-01
 -1      3898 1.06240E-01
 -1      3899 9.84976E-02
 -1      3900 1.02071E-01
 -1      3901 9.47600E-02
 -1      3902 9.35898E-02
 -1      3903 9.57444E-02
 -1      3904 8.85971E-02
 -1      3905 9.04056E-02
 -1      3906 9.00862E-02
 -1      3907 9.13093E-02
 -1      3908 9.28792E-02
 -1      3909 9.46350E-02
 -1      3910 9.67079E-02
 -1      3911 9.76940E-02
 -1      3912 1.00841E-01
 -1      3913 1.03795E-01
 -1      3914 1.05153E-01
 -1      3915 1.11635E-01
 -1      3916 1.22329E-01
 -1      3917 1.17127E-01
 -1      3918 1.34387E-01
 -1      3919 1.56633E-01
 -1      3920 1.37026E-01
 -1      3921 1.81534E-01
 -1      3922 2.07101E-01
 -1      3923 1.73985E-01
 -1      3924 2.39259E-01
 -1      3925 2.67713E-01
 -1      3926 2.31044E-01
 -1      3927 3.07181E-01
 -1      3928 3.42140E-01
 -1      3929 3.02671E-01
 -1      3930 3.89222E-01
 -1      3931 4.36305E-01
 -1      3932 3.89222E-01
 -1      3933 5.01781E-01
 -1      3934 5.66358E-01
 -1      3935 5.01781E-01
 -1      3936 6.63821E-01
 -1      3937 7.70114E-01
 -1      3938 6.64720E-01
 -1      3939 9.15292E-01
 -1      3940 1.03529E+00
 -1      3941 9.07362E-01
 -1      3942 1.35104E+00
 -1      3943 1.45251E+00
 -1      3944 1.36829E+00
 -1      3945 1.57335E+00
 -1      3946 2.16390E+00
 -1      3947 1.80488E+00
 -1      3948 3.13121E+00
 -1      3949 3.86035E+00
 -1      3950 2.70808E+00
 -1      3951 4.54146E+00
 -1      3952 4.32170E+00
 -1      3953 4.11645E+00
 -1      3954 2.45478E+00
 -1      3955 1.75316E-01
 -1      3956 1.35349E-01
 -1      3957 1.86759E-01
 -1      3958 1.93530E-01
 -1      3959 1.51207E-01
 -1      3960 2.55191E+00
 -1      3961 1.61133E+00
 -1      3962 1.40453E+00
 -1      3963 1.23306E+00
 -1      3964 1.11433E+00
 -1      3965 1.49330E+00
 -1      3966 9.03503E-01
 -1      3967 7.87538E-01
 -1      3968 1.11100E+00
 -1      3969 3.01315E-01
 -1      3970 2.54870E-01
 -1      3971 4.05519E-01
 -1      3972 3.45632E-01
 -1      3973 3.02598E-01
 -1      3974 2.22867E-01
 -1      3975 1.86397E-01
 -1      3976 2.26278E-01
 -1      3977 7.37486E-01
 -1      3978 6.30655E-01
 -1      3979 1.01053E+00
 -1      3980 8.57819E-01
 -1      3981 7.60096E-01
 -1      3982 1.42320E+00
 -1      3983 1.18501E+00
 -1      3984 1.05491E+00
 -1      3985 2.09138E+00
 -1      3986 1.69542E+00
 -1      3987 1.50162E+00
 -1      3988 3.08863E+00
 -1      3989 2.63108E+00
 -1      3990 2.31354E+00
 -1      3991 2.40784E+00
 -1      3992 2.94576E+00
 -1      3993 1.29576E-01
 -1      3994 1.25289E-01
 -1      3995 3.40276E+00
 -1      3996 2.70596E+00
 -1      3997 2.66967E+00
 -1      3998 2.41416E+00
 -1      3999 5.45486E-01
 -1      4000 4.66773E-01
 -1      4001 4.08169E-01
 -1      4002 1.29993E+00
 -1      4003 1.60986E+00
 -1      4004 2.14778E+00
 -1      4005 3.47797E+00
 -1      4006 2.13714E+00
 -1      4007 1.93616E+00
 -1      4008 1.98960E+00
 -1      4009 2.59145E+00
 -1      4010 1.09811E-01
 -1      4011 1.18713E-01
 -1      4012 3.74589E-01
 -1      4013 3.98657E-01
 -1      4014 6.33815E-01
 -1      4015 4.25299E-01
 -1      4016 1.06984E-01
 -1      4017 1.11220E-01
 -1      4018 9.49233E-02
 -1      4019 8.99541E-01
 -1      4020 1.07480E+00
 -1      4021 1.12467E+00
 -1      4022 8.17077E-01
 -1      4023 4.57155E+00
 -1      4024 4.57155E+00
 -1      4025 3.58410E+00
 -1      4026 3.86157E+00
 -1      4027 1.23517E-01
 -1      4028 1.31012E-01
 -1      4029 1.08907E-01
 -1      4030 2.89304E+00
 -1      4031 1.10160E-01
 -1      4032 1.03467E-01
 -1      4033 9.77584E-02
 -1      4034 9.54502E-02
 -1      4035 1.01473E-01
 -1      4036 9.66076E-02
 -1      4037 5.54593E-01
 -1      4038 1.71940E-01
 -1      4039 1.64061E-01
 -1      4040 1.35127E-01
 -1      4041 6.21898E-01
 -1      4042 4.97099E-01
 -1      4043 4.97099E-01
 -1      4044 7.34538E-01
 -1      4045 4.90998E+00
 -1      4046 4.28052E+00
 -1      4047 4.22272E+00
 -1      4048 9.77273E-02
 -1      4049 9.54160E-02
 -1      4050 1.04395E-01
 -1      4051 3.47797E+00
 -1      4052 3.34870E+00
 -1      4053 1.30268E-01
 -1      4054 1.34235E-01
 -1      4055 2.50490E+00
 -1      4056 1.94175E-01
 -1      4057 1.94175E-01
 -1      4058 1.54954E-01
 -1      4059 1.62369E-01
 -1      4060 1.14714E-01
 -1      4061 1.02525E-01
 -1      4062 9.02797E-02
 -1      4063 9.94003E-01
 -1      4064 9.40145E-01
 -1      4065 1.02261E+00
 -1      4066 1.31739E-01
 -1      4067 1.34765E-01
 -1      4068 1.14438E-01
 -1      4069 1.09976E-01
 -1      4070 8.38027E-02
 -1      4071 9.61476E-02
 -1      4072 7.97733E-02
 -1      4073 7.54138E-02
 -1      4074 3.26527E+00
 -1      4075 3.76776E+00
 -1      4076 3.27458E+00
 -1      4077 2.29796E+00
 -1      4078 9.94003E-01
 -1      4079 9.00785E-02
 -1      4080 8.93393E-02
 -1      4081 1.27041E-01
 -1      4082 1.30268E-01
 -1      4083 1.06102E-01
 -1      4084 1.25946E-01
 -1      4085 3.46329E+00
 -1      4086 2.64182E+00
 -1      4087 3.40549E+00
 -1      4088 9.24198E-02
 -1      4089 8.82512E-02
 -1      4090 8.40007E-02
 -1      4091 9.04056E-02
 -1      4092 9.13901E-02
 -1      4093 8.92357E-02
 -1      4094 9.28792E-02
 -1      4095 9.43684E-02
 -1      4096 9.28792E-02
 -1      4097 1.02532E-01
 -1      4098 1.05857E-01
 -1      4099 1.02532E-01
 -1      4100 1.05153E-01
 -1      4101 1.09287E-01
 -1      4102 1.09991E-01
 -1      4103 1.17127E-01
 -1      4104 1.24968E-01
 -1      4105 1.17127E-01
 -1      4106 1.37026E-01
 -1      4107 1.49083E-01
 -1      4108 1.37026E-01
 -1      4109 1.69123E-01
 -1      4110 1.94024E-01
 -1      4111 1.69123E-01
 -1      4112 2.31292E-01
 -1      4113 2.63450E-01
 -1      4114 2.26430E-01
 -1      4115 3.16892E-01
 -1      4116 3.56361E-01
 -1      4117 3.17140E-01
 -1      4118 4.33147E-01
 -1      4119 4.80230E-01
 -1      4120 4.47368E-01
 -1      4121 5.90689E-01
 -1      4122 6.56165E-01
 -1      4123 6.34614E-01
 -1      4124 8.15103E-01
 -1      4125 9.12566E-01
 -1      4126 9.04011E-01
 -1      4127 1.14298E+00
 -1      4128 1.28816E+00
 -1      4129 1.29336E+00
 -1      4130 1.72588E+00
 -1      4131 2.04163E+00
 -1      4132 1.96150E+00
 -1      4133 1.68404E+00
 -1      4134 1.80488E+00
 -1      4135 2.17711E+00
 -1      4136 2.04163E+00
 -1      4137 1.19494E-01
 -1      4138 1.09004E-01
 -1      4139 1.10806E-01
 -1      4140 2.06613E+00
 -1      4141 1.89466E+00
 -1      4142 5.98833E-01
 -1      4143 5.13663E-01
 -1      4144 8.08554E-02
 -1      4145 8.51689E-02
 -1      4146 7.60106E-02
 -1      4147 1.27189E+00
 -1      4148 1.06106E+00
 -1      4149 1.84472E+00
 -1      4150 3.20176E-01
 -1      4151 2.75859E-01
 -1      4152 1.05445E-01
 -1      4153 8.38328E-02
 -1      4154 8.38328E-02
 -1      4155 8.31759E-02
 -1      4156 2.43748E-01
 -1      4157 2.11746E-01
 -1      4158 2.61327E-01
 -1      4159 1.28436E+00
 -1      4160 1.10988E+00
 -1      4161 8.72819E-01
 -1      4162 7.52485E-01
 -1      4163 7.11555E-01
 -1      4164 1.10227E+00
 -1      4165 2.62623E+00
 -1      4166 2.08653E+00
 -1      4167 3.34870E+00
 -1      4168 2.85324E+00
 -1      4169 2.62623E+00
 -1      4170 2.45135E+00
 -1      4171 8.53174E-02
 -1      4172 9.24014E-02
 -1      4173 8.83661E-02
 -1      4174 9.61064E-02
 -1      4175 9.09182E-02
 -1      4176 6.93064E-02
 -1      4177 3.36610E+00
 -1      4178 1.04832E-01
 -1      4179 1.32966E-01
 -1      4180 1.32966E-01
 -1      4181 3.36506E+00
 -1      4182 3.89727E+00
 -1      4183 4.23124E-01
 -1      4184 3.61870E-01
 -1      4185 3.35131E-01
 -1      4186 1.92668E+00
 -1      4187 1.65446E+00
 -1      4188 1.70943E+00
 -1      4189 2.23938E+00
 -1      4190 1.75848E+00
 -1      4191 2.55646E+00
 -1      4192 4.00354E+00
 -1      4193 7.04058E-02
 -1      4194 6.06514E-02
 -1      4195 5.95693E-02
 -1      4196 1.03214E+00
 -1      4197 1.18381E+00
 -1      4198 1.06074E+00
 -1      4199 1.28587E+00
 -1      4200 1.69455E+00
 -1      4201 1.18381E+00
 -1      4202 2.12652E+00
 -1      4203 2.52788E+00
 -1      4204 4.67363E-01
 -1      4205 1.22195E+00
 -1      4206 2.97576E+00
 -1      4207 1.87372E-01
 -1      4208 1.65036E-01
 -1      4209 2.04842E-01
 -1      4210 1.06106E+00
 -1      4211 8.95422E-01
 -1      4212 1.06985E-01
 -1      4213 1.08105E-01
 -1      4214 9.54160E-02
 -1      4215 1.33971E-01
 -1      4216 3.86035E+00
 -1      4217 1.17921E-01
 -1      4218 1.10389E-01
 -1      4219 1.14099E-01
 -1      4220 2.53470E+00
 -1      4221 3.13910E+00
 -1      4222 2.62623E+00
 -1      4223 2.04163E+00
 -1      4224 9.77940E-02
 -1      4225 7.87363E-02
 -1      4226 9.70675E-02
 -1      4227 1.27762E-01
 -1      4228 1.20346E-01
 -1      4229 8.75226E-02
 -1      4230 9.83589E-02
 -1      4231 8.92755E-02
 -1      4232 9.56190E-02
 -1      4233 4.00354E+00
 -1      4234 7.05614E-01
 -1      4235 1.22195E+00
 -1      4236 9.31231E-02
 -1      4237 9.79277E-02
 -1      4238 8.12840E-02
 -1      4239 8.46402E-02
 -1      4240 2.78567E-01
 -1      4241 2.46457E-01
 -1      4242 1.22195E+00
 -1      4243 1.69455E+00
 -1      4244 8.15323E-02
 -1      4245 8.46128E-02
 -1      4246 8.71086E-02
 -1      4247 8.92631E-02
 -1      4248 1.02532E-01
 -1      4249 1.10695E-01
 -1      4250 1.10695E-01
 -1      4251 1.09991E-01
 -1      4252 1.13395E-01
 -1      4253 1.21235E-01
 -1      4254 1.64776E-01
 -1      4255 1.84815E-01
 -1      4256 2.09189E-01
 -1      4257 3.32010E-01
 -1      4258 3.73703E-01
 -1      4259 4.50489E-01
 -1      4260 5.41029E-01
 -1      4261 6.51488E-01
 -1      4262 8.05141E-01
 -1      4263 9.64078E-01
 -1      4264 1.20114E+00
 -1      4265 1.43155E+00
 -1      4266 1.80165E+00
 -1      4267 2.23938E+00
 -1      4268 9.06561E-02
 -1      4269 8.85166E-02
 -1      4270 8.76073E-02
 -1      4271 6.36253E-02
 -1      4272 5.58829E-02
 -1      4273 7.57624E-02
 -1      4274 8.06720E-02
 -1      4275 2.31732E+00
 -1      4276 1.10695E-01
 -1      4277 1.08105E-01
 -1      4278 9.80061E-02
 -1      4279 2.39922E+00
 -1      4280 8.25638E-02
 -1      4281 1.46853E-01
 -1      4282 1.31220E-01
 -1      4283 1.30803E-01
 -1      4284 1.62285E-01
 -1      4285 8.10456E-02
 -1      4286 3.12593E+00
 -1      4287 9.06437E-02
 -1      4288 7.68826E-02
 -1      4289 9.21328E-02
 -1      4290 1.34535E-01
 -1      4291 1.46593E-01
 -1      4292 2.39922E+00
 -1      4293 3.18631E+00
 -1      4294 1.00296E-01
 -1      4295 7.16781E-02
 -1      4296 2.39922E+00
 -1      4297 7.40749E-02
 -3
 9999
