    1C
    1UUSER                                                              
    1UDATE              27.october.2022                                 
    1UTIME              00:40:36                                        
    1UHOST                                                              
    1UPGM               CalculiX                                        
    1UVERSION           Version 2.17                             
    1UCOMPILETIME       Thu Jul 23 21:43:50 CEST 2020                    
    1UDIR                                                               
    1UDBN                                                               
    1UMAT    1SOLIDMATERIAL                                             
    2C                          4364                                     1
 -1         1 9.81816E+01 2.18782E+01 0.00000E+00
 -1         2 9.90772E+01 1.84524E+01 0.00000E+00
 -1         3 1.50000E+02 0.00000E+00 0.00000E+00
 -1         4 1.50000E+02 5.00000E+01 0.00000E+00
 -1         5 0.00000E+00 0.00000E+00 0.00000E+00
 -1         6 0.00000E+00 5.00000E+01 0.00000E+00
 -1         7 0.00000E+00 4.70500E+01 0.00000E+00
 -1         8 0.00000E+00 4.41000E+01 0.00000E+00
 -1         9 0.00000E+00 4.11500E+01 0.00000E+00
 -1        10 0.00000E+00 3.82000E+01 0.00000E+00
 -1        11 0.00000E+00 3.52500E+01 0.00000E+00
 -1        12 0.00000E+00 3.23500E+01 0.00000E+00
 -1        13 0.00000E+00 2.94000E+01 0.00000E+00
 -1        14 0.00000E+00 2.64500E+01 0.00000E+00
 -1        15 0.00000E+00 2.35000E+01 0.00000E+00
 -1        16 0.00000E+00 2.05500E+01 0.00000E+00
 -1        17 0.00000E+00 1.76000E+01 0.00000E+00
 -1        18 0.00000E+00 1.47000E+01 0.00000E+00
 -1        19 0.00000E+00 1.17500E+01 0.00000E+00
 -1        20 0.00000E+00 8.80000E+00 0.00000E+00
 -1        21 0.00000E+00 5.85000E+00 0.00000E+00
 -1        22 0.00000E+00 2.90000E+00 0.00000E+00
 -1        23 3.15000E+00 5.00000E+01 0.00000E+00
 -1        24 6.15000E+00 5.00000E+01 0.00000E+00
 -1        25 9.15000E+00 5.00000E+01 0.00000E+00
 -1        26 1.21500E+01 5.00000E+01 0.00000E+00
 -1        27 1.51500E+01 5.00000E+01 0.00000E+00
 -1        28 1.81500E+01 5.00000E+01 0.00000E+00
 -1        29 2.11500E+01 5.00000E+01 0.00000E+00
 -1        30 2.41500E+01 5.00000E+01 0.00000E+00
 -1        31 2.71500E+01 5.00000E+01 0.00000E+00
 -1        32 3.01500E+01 5.00000E+01 0.00000E+00
 -1        33 3.31500E+01 5.00000E+01 0.00000E+00
 -1        34 3.61500E+01 5.00000E+01 0.00000E+00
 -1        35 3.91500E+01 5.00000E+01 0.00000E+00
 -1        36 4.21500E+01 5.00000E+01 0.00000E+00
 -1        37 4.51500E+01 5.00000E+01 0.00000E+00
 -1        38 4.81500E+01 5.00000E+01 0.00000E+00
 -1        39 5.11500E+01 5.00000E+01 0.00000E+00
 -1        40 5.41500E+01 5.00000E+01 0.00000E+00
 -1        41 5.71500E+01 5.00000E+01 0.00000E+00
 -1        42 6.01500E+01 5.00000E+01 0.00000E+00
 -1        43 6.31500E+01 5.00000E+01 0.00000E+00
 -1        44 6.61500E+01 5.00000E+01 0.00000E+00
 -1        45 6.91500E+01 5.00000E+01 0.00000E+00
 -1        46 7.21500E+01 5.00000E+01 0.00000E+00
 -1        47 7.51500E+01 5.00000E+01 0.00000E+00
 -1        48 7.81500E+01 5.00000E+01 0.00000E+00
 -1        49 8.11500E+01 5.00000E+01 0.00000E+00
 -1        50 8.41500E+01 5.00000E+01 0.00000E+00
 -1        51 8.71500E+01 5.00000E+01 0.00000E+00
 -1        52 9.01500E+01 5.00000E+01 0.00000E+00
 -1        53 9.31500E+01 5.00000E+01 0.00000E+00
 -1        54 9.61500E+01 5.00000E+01 0.00000E+00
 -1        55 9.91500E+01 5.00000E+01 0.00000E+00
 -1        56 1.02150E+02 5.00000E+01 0.00000E+00
 -1        57 1.05150E+02 5.00000E+01 0.00000E+00
 -1        58 1.08150E+02 5.00000E+01 0.00000E+00
 -1        59 1.11150E+02 5.00000E+01 0.00000E+00
 -1        60 1.14150E+02 5.00000E+01 0.00000E+00
 -1        61 1.17150E+02 5.00000E+01 0.00000E+00
 -1        62 1.20150E+02 5.00000E+01 0.00000E+00
 -1        63 1.23150E+02 5.00000E+01 0.00000E+00
 -1        64 1.26150E+02 5.00000E+01 0.00000E+00
 -1        65 1.29150E+02 5.00000E+01 0.00000E+00
 -1        66 1.32150E+02 5.00000E+01 0.00000E+00
 -1        67 1.35150E+02 5.00000E+01 0.00000E+00
 -1        68 1.38150E+02 5.00000E+01 0.00000E+00
 -1        69 1.41150E+02 5.00000E+01 0.00000E+00
 -1        70 1.44150E+02 5.00000E+01 0.00000E+00
 -1        71 1.47150E+02 5.00000E+01 0.00000E+00
 -1        72 3.15000E+00 0.00000E+00 0.00000E+00
 -1        73 6.15000E+00 0.00000E+00 0.00000E+00
 -1        74 9.15000E+00 0.00000E+00 0.00000E+00
 -1        75 1.21500E+01 0.00000E+00 0.00000E+00
 -1        76 1.51500E+01 0.00000E+00 0.00000E+00
 -1        77 1.81500E+01 0.00000E+00 0.00000E+00
 -1        78 2.11500E+01 0.00000E+00 0.00000E+00
 -1        79 2.41500E+01 0.00000E+00 0.00000E+00
 -1        80 2.71500E+01 0.00000E+00 0.00000E+00
 -1        81 3.01500E+01 0.00000E+00 0.00000E+00
 -1        82 3.31500E+01 0.00000E+00 0.00000E+00
 -1        83 3.61500E+01 0.00000E+00 0.00000E+00
 -1        84 3.91500E+01 0.00000E+00 0.00000E+00
 -1        85 4.21500E+01 0.00000E+00 0.00000E+00
 -1        86 4.51500E+01 0.00000E+00 0.00000E+00
 -1        87 4.81500E+01 0.00000E+00 0.00000E+00
 -1        88 5.11500E+01 0.00000E+00 0.00000E+00
 -1        89 5.41500E+01 0.00000E+00 0.00000E+00
 -1        90 5.71500E+01 0.00000E+00 0.00000E+00
 -1        91 6.01500E+01 0.00000E+00 0.00000E+00
 -1        92 6.31500E+01 0.00000E+00 0.00000E+00
 -1        93 6.61500E+01 0.00000E+00 0.00000E+00
 -1        94 6.91500E+01 0.00000E+00 0.00000E+00
 -1        95 7.21500E+01 0.00000E+00 0.00000E+00
 -1        96 7.51500E+01 0.00000E+00 0.00000E+00
 -1        97 7.81500E+01 0.00000E+00 0.00000E+00
 -1        98 8.11500E+01 0.00000E+00 0.00000E+00
 -1        99 8.41500E+01 0.00000E+00 0.00000E+00
 -1       100 8.71500E+01 0.00000E+00 0.00000E+00
 -1       101 9.01500E+01 0.00000E+00 0.00000E+00
 -1       102 9.31500E+01 0.00000E+00 0.00000E+00
 -1       103 9.61500E+01 0.00000E+00 0.00000E+00
 -1       104 9.91500E+01 0.00000E+00 0.00000E+00
 -1       105 1.02150E+02 0.00000E+00 0.00000E+00
 -1       106 1.05150E+02 0.00000E+00 0.00000E+00
 -1       107 1.08150E+02 0.00000E+00 0.00000E+00
 -1       108 1.11150E+02 0.00000E+00 0.00000E+00
 -1       109 1.14150E+02 0.00000E+00 0.00000E+00
 -1       110 1.17150E+02 0.00000E+00 0.00000E+00
 -1       111 1.20150E+02 0.00000E+00 0.00000E+00
 -1       112 1.23150E+02 0.00000E+00 0.00000E+00
 -1       113 1.26150E+02 0.00000E+00 0.00000E+00
 -1       114 1.29150E+02 0.00000E+00 0.00000E+00
 -1       115 1.32150E+02 0.00000E+00 0.00000E+00
 -1       116 1.35150E+02 0.00000E+00 0.00000E+00
 -1       117 1.38150E+02 0.00000E+00 0.00000E+00
 -1       118 1.41150E+02 0.00000E+00 0.00000E+00
 -1       119 1.44150E+02 0.00000E+00 0.00000E+00
 -1       120 1.47150E+02 0.00000E+00 0.00000E+00
 -1       121 1.50000E+02 2.95000E+00 0.00000E+00
 -1       122 1.50000E+02 5.90000E+00 0.00000E+00
 -1       123 1.50000E+02 8.85000E+00 0.00000E+00
 -1       124 1.50000E+02 1.18000E+01 0.00000E+00
 -1       125 1.50000E+02 1.47500E+01 0.00000E+00
 -1       126 1.50000E+02 1.76500E+01 0.00000E+00
 -1       127 1.50000E+02 2.06000E+01 0.00000E+00
 -1       128 1.50000E+02 2.35500E+01 0.00000E+00
 -1       129 1.50000E+02 2.65000E+01 0.00000E+00
 -1       130 1.50000E+02 2.94500E+01 0.00000E+00
 -1       131 1.50000E+02 3.24000E+01 0.00000E+00
 -1       132 1.50000E+02 3.53000E+01 0.00000E+00
 -1       133 1.50000E+02 3.82500E+01 0.00000E+00
 -1       134 1.50000E+02 4.12000E+01 0.00000E+00
 -1       135 1.50000E+02 4.41500E+01 0.00000E+00
 -1       136 1.50000E+02 4.71000E+01 0.00000E+00
 -1       137 9.89417E+01 1.70818E+01 0.00000E+00
 -1       138 9.84878E+01 1.56409E+01 0.00000E+00
 -1       139 9.77840E+01 1.43987E+01 0.00000E+00
 -1       140 9.68384E+01 1.33210E+01 0.00000E+00
 -1       141 9.56024E+01 1.24048E+01 0.00000E+00
 -1       142 9.43002E+01 1.18147E+01 0.00000E+00
 -1       143 9.28250E+01 1.14925E+01 0.00000E+00
 -1       144 9.12339E+01 1.15034E+01 0.00000E+00
 -1       145 8.97234E+01 1.18600E+01 0.00000E+00
 -1       146 8.83675E+01 1.25163E+01 0.00000E+00
 -1       147 8.69780E+01 1.36567E+01 0.00000E+00
 -1       148 8.61422E+01 1.47409E+01 0.00000E+00
 -1       149 8.54826E+01 1.61049E+01 0.00000E+00
 -1       150 8.51299E+01 1.75951E+01 0.00000E+00
 -1       151 8.51111E+01 1.91405E+01 0.00000E+00
 -1       152 8.54262E+01 2.06350E+01 0.00000E+00
 -1       153 8.60475E+01 2.20081E+01 0.00000E+00
 -1       154 8.69798E+01 2.32499E+01 0.00000E+00
 -1       155 8.80859E+01 2.42030E+01 0.00000E+00
 -1       156 8.93862E+01 2.49145E+01 0.00000E+00
 -1       157 9.08577E+01 2.53454E+01 0.00000E+00
 -1       158 9.23463E+01 2.54472E+01 0.00000E+00
 -1       159 9.38113E+01 2.52342E+01 0.00000E+00
 -1       160 9.51408E+01 2.47464E+01 0.00000E+00
 -1       161 9.64074E+01 2.39523E+01 0.00000E+00
 -1       162 9.74604E+01 2.29269E+01 0.00000E+00
 -1       163 9.86712E+01 2.08017E+01 0.00000E+00
 -1       164 9.89731E+01 1.96551E+01 0.00000E+00
 -1       165 2.59800E+00 4.55750E+01 0.00000E+00
 -1       166 2.59800E+00 4.26250E+01 0.00000E+00
 -1       167 2.59800E+00 3.96750E+01 0.00000E+00
 -1       168 2.59800E+00 3.67250E+01 0.00000E+00
 -1       169 2.59800E+00 3.38250E+01 0.00000E+00
 -1       170 2.59800E+00 3.08750E+01 0.00000E+00
 -1       171 2.59800E+00 2.79250E+01 0.00000E+00
 -1       172 2.59800E+00 2.49750E+01 0.00000E+00
 -1       173 2.59800E+00 2.20250E+01 0.00000E+00
 -1       174 2.59800E+00 1.90750E+01 0.00000E+00
 -1       175 2.59800E+00 1.61750E+01 0.00000E+00
 -1       176 2.59800E+00 1.32250E+01 0.00000E+00
 -1       177 2.59800E+00 1.02750E+01 0.00000E+00
 -1       178 2.59800E+00 7.32500E+00 0.00000E+00
 -1       179 2.59800E+00 4.37500E+00 0.00000E+00
 -1       180 2.87400E+00 2.18750E+00 0.00000E+00
 -1       181 4.65000E+00 4.74020E+01 0.00000E+00
 -1       182 7.65000E+00 4.74020E+01 0.00000E+00
 -1       183 1.06500E+01 4.74020E+01 0.00000E+00
 -1       184 1.36500E+01 4.74020E+01 0.00000E+00
 -1       185 1.66500E+01 4.74020E+01 0.00000E+00
 -1       186 1.96500E+01 4.74020E+01 0.00000E+00
 -1       187 2.26500E+01 4.74020E+01 0.00000E+00
 -1       188 2.56500E+01 4.74020E+01 0.00000E+00
 -1       189 2.86500E+01 4.74020E+01 0.00000E+00
 -1       190 3.16500E+01 4.74020E+01 0.00000E+00
 -1       191 3.46500E+01 4.74020E+01 0.00000E+00
 -1       192 3.76500E+01 4.74020E+01 0.00000E+00
 -1       193 4.06500E+01 4.74020E+01 0.00000E+00
 -1       194 4.36500E+01 4.74020E+01 0.00000E+00
 -1       195 4.66500E+01 4.74020E+01 0.00000E+00
 -1       196 4.96500E+01 4.74020E+01 0.00000E+00
 -1       197 5.26500E+01 4.74020E+01 0.00000E+00
 -1       198 5.56500E+01 4.74020E+01 0.00000E+00
 -1       199 5.86500E+01 4.74020E+01 0.00000E+00
 -1       200 6.16500E+01 4.74020E+01 0.00000E+00
 -1       201 6.46500E+01 4.74020E+01 0.00000E+00
 -1       202 6.76500E+01 4.74020E+01 0.00000E+00
 -1       203 7.06500E+01 4.74020E+01 0.00000E+00
 -1       204 7.36500E+01 4.74020E+01 0.00000E+00
 -1       205 7.66500E+01 4.74020E+01 0.00000E+00
 -1       206 7.96500E+01 4.74020E+01 0.00000E+00
 -1       207 8.26500E+01 4.74020E+01 0.00000E+00
 -1       208 8.56500E+01 4.74020E+01 0.00000E+00
 -1       209 8.86500E+01 4.74020E+01 0.00000E+00
 -1       210 9.16500E+01 4.74020E+01 0.00000E+00
 -1       211 9.46500E+01 4.74020E+01 0.00000E+00
 -1       212 9.76500E+01 4.74020E+01 0.00000E+00
 -1       213 1.00650E+02 4.74020E+01 0.00000E+00
 -1       214 1.03650E+02 4.74020E+01 0.00000E+00
 -1       215 1.06650E+02 4.74020E+01 0.00000E+00
 -1       216 1.09650E+02 4.74020E+01 0.00000E+00
 -1       217 1.12650E+02 4.74020E+01 0.00000E+00
 -1       218 1.15650E+02 4.74020E+01 0.00000E+00
 -1       219 1.18650E+02 4.74020E+01 0.00000E+00
 -1       220 1.21650E+02 4.74020E+01 0.00000E+00
 -1       221 1.24650E+02 4.74020E+01 0.00000E+00
 -1       222 1.27650E+02 4.74020E+01 0.00000E+00
 -1       223 1.30650E+02 4.74020E+01 0.00000E+00
 -1       224 1.33650E+02 4.74020E+01 0.00000E+00
 -1       225 1.36650E+02 4.74020E+01 0.00000E+00
 -1       226 1.39650E+02 4.74020E+01 0.00000E+00
 -1       227 1.42650E+02 4.74020E+01 0.00000E+00
 -1       228 1.45650E+02 4.74020E+01 0.00000E+00
 -1       229 5.87400E+00 2.18750E+00 0.00000E+00
 -1       230 8.87400E+00 2.18750E+00 0.00000E+00
 -1       231 1.18740E+01 2.18750E+00 0.00000E+00
 -1       232 1.48740E+01 2.18750E+00 0.00000E+00
 -1       233 1.78740E+01 2.18750E+00 0.00000E+00
 -1       234 2.08740E+01 2.18750E+00 0.00000E+00
 -1       235 2.38740E+01 2.18750E+00 0.00000E+00
 -1       236 2.68740E+01 2.18750E+00 0.00000E+00
 -1       237 2.98740E+01 2.18750E+00 0.00000E+00
 -1       238 3.28740E+01 2.18750E+00 0.00000E+00
 -1       239 3.58740E+01 2.18750E+00 0.00000E+00
 -1       240 3.88740E+01 2.18750E+00 0.00000E+00
 -1       241 4.18740E+01 2.18750E+00 0.00000E+00
 -1       242 4.48740E+01 2.18750E+00 0.00000E+00
 -1       243 4.78740E+01 2.18750E+00 0.00000E+00
 -1       244 5.08740E+01 2.18750E+00 0.00000E+00
 -1       245 5.38740E+01 2.18750E+00 0.00000E+00
 -1       246 5.68740E+01 2.18750E+00 0.00000E+00
 -1       247 5.98740E+01 2.18750E+00 0.00000E+00
 -1       248 6.28740E+01 2.18750E+00 0.00000E+00
 -1       249 6.58740E+01 2.18750E+00 0.00000E+00
 -1       250 6.88740E+01 2.18750E+00 0.00000E+00
 -1       251 7.18740E+01 2.18750E+00 0.00000E+00
 -1       252 7.48740E+01 2.18750E+00 0.00000E+00
 -1       253 7.78740E+01 2.18750E+00 0.00000E+00
 -1       254 8.08740E+01 2.18750E+00 0.00000E+00
 -1       255 8.38740E+01 2.18750E+00 0.00000E+00
 -1       256 8.68740E+01 2.18750E+00 0.00000E+00
 -1       257 8.98740E+01 2.18750E+00 0.00000E+00
 -1       258 9.28740E+01 2.18750E+00 0.00000E+00
 -1       259 9.58740E+01 2.18750E+00 0.00000E+00
 -1       260 9.88740E+01 2.18750E+00 0.00000E+00
 -1       261 1.01874E+02 2.18750E+00 0.00000E+00
 -1       262 1.04874E+02 2.18750E+00 0.00000E+00
 -1       263 1.07874E+02 2.18750E+00 0.00000E+00
 -1       264 1.10874E+02 2.18750E+00 0.00000E+00
 -1       265 1.13874E+02 2.18750E+00 0.00000E+00
 -1       266 1.16874E+02 2.18750E+00 0.00000E+00
 -1       267 1.19874E+02 2.18750E+00 0.00000E+00
 -1       268 1.22874E+02 2.18750E+00 0.00000E+00
 -1       269 1.25874E+02 2.18750E+00 0.00000E+00
 -1       270 1.28874E+02 2.18750E+00 0.00000E+00
 -1       271 1.31874E+02 2.18750E+00 0.00000E+00
 -1       272 1.34874E+02 2.18750E+00 0.00000E+00
 -1       273 1.37874E+02 2.18750E+00 0.00000E+00
 -1       274 1.40874E+02 2.18750E+00 0.00000E+00
 -1       275 1.43874E+02 2.18750E+00 0.00000E+00
 -1       276 1.46874E+02 2.18750E+00 0.00000E+00
 -1       277 1.47402E+02 4.42500E+00 0.00000E+00
 -1       278 1.47402E+02 7.37500E+00 0.00000E+00
 -1       279 1.47402E+02 1.03250E+01 0.00000E+00
 -1       280 1.47402E+02 1.32750E+01 0.00000E+00
 -1       281 1.47402E+02 1.61750E+01 0.00000E+00
 -1       282 1.47402E+02 1.91250E+01 0.00000E+00
 -1       283 1.47402E+02 2.20750E+01 0.00000E+00
 -1       284 1.47402E+02 2.50250E+01 0.00000E+00
 -1       285 1.47402E+02 2.79750E+01 0.00000E+00
 -1       286 1.47402E+02 3.09250E+01 0.00000E+00
 -1       287 1.47402E+02 3.38250E+01 0.00000E+00
 -1       288 1.47402E+02 3.67750E+01 0.00000E+00
 -1       289 1.47402E+02 3.97250E+01 0.00000E+00
 -1       290 1.47402E+02 4.26750E+01 0.00000E+00
 -1       291 1.46526E+02 4.50385E+01 0.00000E+00
 -1       292 1.00205E+02 1.76490E+01 0.00000E+00
 -1       293 1.00031E+02 1.59467E+01 0.00000E+00
 -1       294 9.91908E+01 1.44222E+01 0.00000E+00
 -1       295 9.82225E+01 1.30603E+01 0.00000E+00
 -1       296 9.70422E+01 1.17543E+01 0.00000E+00
 -1       297 9.54863E+01 1.09292E+01 0.00000E+00
 -1       298 9.38571E+01 1.03054E+01 0.00000E+00
 -1       299 9.20205E+01 1.02018E+01 0.00000E+00
 -1       300 9.01808E+01 1.04202E+01 0.00000E+00
 -1       301 8.85173E+01 1.10968E+01 0.00000E+00
 -1       302 8.66377E+01 1.18255E+01 0.00000E+00
 -1       303 8.55999E+01 1.34585E+01 0.00000E+00
 -1       304 8.47209E+01 1.48951E+01 0.00000E+00
 -1       305 8.41264E+01 1.65708E+01 0.00000E+00
 -1       306 8.39082E+01 1.83531E+01 0.00000E+00
 -1       307 8.40003E+01 2.01552E+01 0.00000E+00
 -1       308 8.46323E+01 2.18214E+01 0.00000E+00
 -1       309 8.54100E+01 2.34575E+01 0.00000E+00
 -1       310 8.66868E+01 2.47084E+01 0.00000E+00
 -1       311 8.81541E+01 2.56224E+01 0.00000E+00
 -1       312 8.96871E+01 2.66151E+01 0.00000E+00
 -1       313 9.15135E+01 2.66894E+01 0.00000E+00
 -1       314 9.32533E+01 2.65405E+01 0.00000E+00
 -1       315 9.49226E+01 2.62072E+01 0.00000E+00
 -1       316 9.64181E+01 2.53766E+01 0.00000E+00
 -1       317 9.78302E+01 2.43600E+01 0.00000E+00
 -1       318 9.88105E+01 2.30831E+01 0.00000E+00
 -1       319 9.93671E+01 2.17678E+01 0.00000E+00
 -1       320 9.99835E+01 2.05342E+01 0.00000E+00
 -1       321 1.00088E+02 1.93315E+01 0.00000E+00
 -1       322 5.19600E+00 4.11500E+01 0.00000E+00
 -1       323 5.19600E+00 4.41000E+01 0.00000E+00
 -1       324 5.19600E+00 3.52750E+01 0.00000E+00
 -1       325 5.19600E+00 3.23250E+01 0.00000E+00
 -1       326 5.19600E+00 2.93750E+01 0.00000E+00
 -1       327 5.19600E+00 2.64250E+01 0.00000E+00
 -1       328 5.19600E+00 2.34750E+01 0.00000E+00
 -1       329 5.19600E+00 2.05250E+01 0.00000E+00
 -1       330 5.19600E+00 1.76250E+01 0.00000E+00
 -1       331 5.19600E+00 1.46750E+01 0.00000E+00
 -1       332 5.19600E+00 1.17250E+01 0.00000E+00
 -1       333 5.19600E+00 8.77500E+00 0.00000E+00
 -1       334 5.19600E+00 5.82500E+00 0.00000E+00
 -1       335 5.53500E+00 4.00625E+00 0.00000E+00
 -1       336 8.53500E+00 4.00625E+00 0.00000E+00
 -1       337 9.15000E+00 4.48040E+01 0.00000E+00
 -1       338 1.21500E+01 4.48040E+01 0.00000E+00
 -1       339 1.51500E+01 4.48040E+01 0.00000E+00
 -1       340 1.81500E+01 4.48040E+01 0.00000E+00
 -1       341 2.11500E+01 4.48040E+01 0.00000E+00
 -1       342 2.41500E+01 4.48040E+01 0.00000E+00
 -1       343 2.71500E+01 4.48040E+01 0.00000E+00
 -1       344 3.01500E+01 4.48040E+01 0.00000E+00
 -1       345 3.31500E+01 4.48040E+01 0.00000E+00
 -1       346 3.61500E+01 4.48040E+01 0.00000E+00
 -1       347 3.91500E+01 4.48040E+01 0.00000E+00
 -1       348 4.21500E+01 4.48040E+01 0.00000E+00
 -1       349 4.51500E+01 4.48040E+01 0.00000E+00
 -1       350 4.81500E+01 4.48040E+01 0.00000E+00
 -1       351 5.11500E+01 4.48040E+01 0.00000E+00
 -1       352 5.41500E+01 4.48040E+01 0.00000E+00
 -1       353 5.71500E+01 4.48040E+01 0.00000E+00
 -1       354 6.01500E+01 4.48040E+01 0.00000E+00
 -1       355 6.31500E+01 4.48040E+01 0.00000E+00
 -1       356 6.61500E+01 4.48040E+01 0.00000E+00
 -1       357 6.91500E+01 4.48040E+01 0.00000E+00
 -1       358 7.21500E+01 4.48040E+01 0.00000E+00
 -1       359 7.51500E+01 4.48040E+01 0.00000E+00
 -1       360 7.81500E+01 4.48040E+01 0.00000E+00
 -1       361 8.11500E+01 4.48040E+01 0.00000E+00
 -1       362 8.41500E+01 4.48040E+01 0.00000E+00
 -1       363 8.71500E+01 4.48040E+01 0.00000E+00
 -1       364 9.01500E+01 4.48040E+01 0.00000E+00
 -1       365 9.31500E+01 4.48040E+01 0.00000E+00
 -1       366 9.61500E+01 4.48040E+01 0.00000E+00
 -1       367 9.91500E+01 4.48040E+01 0.00000E+00
 -1       368 1.02150E+02 4.48040E+01 0.00000E+00
 -1       369 1.05150E+02 4.48040E+01 0.00000E+00
 -1       370 1.08150E+02 4.48040E+01 0.00000E+00
 -1       371 1.11150E+02 4.48040E+01 0.00000E+00
 -1       372 1.14150E+02 4.48040E+01 0.00000E+00
 -1       373 1.17150E+02 4.48040E+01 0.00000E+00
 -1       374 1.20150E+02 4.48040E+01 0.00000E+00
 -1       375 1.23150E+02 4.48040E+01 0.00000E+00
 -1       376 1.26150E+02 4.48040E+01 0.00000E+00
 -1       377 1.29150E+02 4.48040E+01 0.00000E+00
 -1       378 1.32150E+02 4.48040E+01 0.00000E+00
 -1       379 1.35150E+02 4.48040E+01 0.00000E+00
 -1       380 1.38150E+02 4.48040E+01 0.00000E+00
 -1       381 1.41150E+02 4.48040E+01 0.00000E+00
 -1       382 1.43838E+02 4.49212E+01 0.00000E+00
 -1       383 1.15350E+01 4.00625E+00 0.00000E+00
 -1       384 1.45350E+01 4.00625E+00 0.00000E+00
 -1       385 1.75350E+01 4.00625E+00 0.00000E+00
 -1       386 2.05350E+01 4.00625E+00 0.00000E+00
 -1       387 2.35350E+01 4.00625E+00 0.00000E+00
 -1       388 2.65350E+01 4.00625E+00 0.00000E+00
 -1       389 2.95350E+01 4.00625E+00 0.00000E+00
 -1       390 3.25350E+01 4.00625E+00 0.00000E+00
 -1       391 3.55350E+01 4.00625E+00 0.00000E+00
 -1       392 3.85350E+01 4.00625E+00 0.00000E+00
 -1       393 4.15350E+01 4.00625E+00 0.00000E+00
 -1       394 4.45350E+01 4.00625E+00 0.00000E+00
 -1       395 4.75350E+01 4.00625E+00 0.00000E+00
 -1       396 5.05350E+01 4.00625E+00 0.00000E+00
 -1       397 5.35350E+01 4.00625E+00 0.00000E+00
 -1       398 5.65350E+01 4.00625E+00 0.00000E+00
 -1       399 5.95350E+01 4.00625E+00 0.00000E+00
 -1       400 6.25350E+01 4.00625E+00 0.00000E+00
 -1       401 6.55350E+01 4.00625E+00 0.00000E+00
 -1       402 6.85350E+01 4.00625E+00 0.00000E+00
 -1       403 7.15350E+01 4.00625E+00 0.00000E+00
 -1       404 7.45350E+01 4.00625E+00 0.00000E+00
 -1       405 7.75350E+01 4.00625E+00 0.00000E+00
 -1       406 8.05350E+01 4.00625E+00 0.00000E+00
 -1       407 8.35350E+01 4.00625E+00 0.00000E+00
 -1       408 8.65350E+01 4.00625E+00 0.00000E+00
 -1       409 8.95350E+01 4.00625E+00 0.00000E+00
 -1       410 9.25350E+01 4.00625E+00 0.00000E+00
 -1       411 9.55350E+01 4.00625E+00 0.00000E+00
 -1       412 9.85350E+01 4.00625E+00 0.00000E+00
 -1       413 1.01535E+02 4.00625E+00 0.00000E+00
 -1       414 1.04535E+02 4.00625E+00 0.00000E+00
 -1       415 1.07535E+02 4.00625E+00 0.00000E+00
 -1       416 1.10535E+02 4.00625E+00 0.00000E+00
 -1       417 1.13535E+02 4.00625E+00 0.00000E+00
 -1       418 1.16535E+02 4.00625E+00 0.00000E+00
 -1       419 1.19535E+02 4.00625E+00 0.00000E+00
 -1       420 1.22535E+02 4.00625E+00 0.00000E+00
 -1       421 1.25535E+02 4.00625E+00 0.00000E+00
 -1       422 1.28535E+02 4.00625E+00 0.00000E+00
 -1       423 1.31535E+02 4.00625E+00 0.00000E+00
 -1       424 1.34535E+02 4.00625E+00 0.00000E+00
 -1       425 1.37535E+02 4.00625E+00 0.00000E+00
 -1       426 1.40535E+02 4.00625E+00 0.00000E+00
 -1       427 1.43535E+02 4.00625E+00 0.00000E+00
 -1       428 1.45469E+02 4.21562E+00 0.00000E+00
 -1       429 1.44804E+02 1.18000E+01 0.00000E+00
 -1       430 1.44804E+02 8.85000E+00 0.00000E+00
 -1       431 1.45136E+02 6.53281E+00 0.00000E+00
 -1       432 1.44804E+02 1.47000E+01 0.00000E+00
 -1       433 1.44804E+02 1.76500E+01 0.00000E+00
 -1       434 1.44804E+02 2.06000E+01 0.00000E+00
 -1       435 1.44804E+02 2.35500E+01 0.00000E+00
 -1       436 1.44804E+02 2.65000E+01 0.00000E+00
 -1       437 1.44804E+02 2.94500E+01 0.00000E+00
 -1       438 1.44804E+02 3.23500E+01 0.00000E+00
 -1       439 1.44804E+02 3.53000E+01 0.00000E+00
 -1       440 1.44804E+02 3.82500E+01 0.00000E+00
 -1       441 1.44804E+02 4.12000E+01 0.00000E+00
 -1       442 1.00819E+02 1.45184E+01 0.00000E+00
 -1       443 1.01344E+02 1.85735E+01 0.00000E+00
 -1       444 1.01646E+02 1.66420E+01 0.00000E+00
 -1       445 9.99679E+01 1.28445E+01 0.00000E+00
 -1       446 1.01240E+02 1.97763E+01 0.00000E+00
 -1       447 5.19600E+00 3.82125E+01 0.00000E+00
 -1       448 9.51951E+01 9.25031E+00 0.00000E+00
 -1       449 9.30307E+01 8.62487E+00 0.00000E+00
 -1       450 9.09380E+01 8.94064E+00 0.00000E+00
 -1       451 8.88607E+01 9.55784E+00 0.00000E+00
 -1       452 8.70787E+01 1.01745E+01 0.00000E+00
 -1       453 8.49542E+01 1.19019E+01 0.00000E+00
 -1       454 8.39833E+01 1.34565E+01 0.00000E+00
 -1       455 8.29652E+01 1.52155E+01 0.00000E+00
 -1       456 8.25644E+01 1.72840E+01 0.00000E+00
 -1       457 8.24087E+01 1.93331E+01 0.00000E+00
 -1       458 8.27127E+01 2.15965E+01 0.00000E+00
 -1       459 8.37749E+01 2.32319E+01 0.00000E+00
 -1       460 8.49653E+01 2.51883E+01 0.00000E+00
 -1       461 8.66466E+01 2.64079E+01 0.00000E+00
 -1       462 8.81796E+01 2.74006E+01 0.00000E+00
 -1       463 9.05476E+01 2.79474E+01 0.00000E+00
 -1       464 9.25226E+01 2.82403E+01 0.00000E+00
 -1       465 9.41918E+01 2.79070E+01 0.00000E+00
 -1       466 9.63403E+01 2.69983E+01 0.00000E+00
 -1       467 9.80216E+01 2.61150E+01 0.00000E+00
 -1       468 9.92730E+01 2.44529E+01 0.00000E+00
 -1       469 1.00349E+02 2.29587E+01 0.00000E+00
 -1       470 1.00966E+02 2.17252E+01 0.00000E+00
 -1       471 9.86561E+01 1.14820E+01 0.00000E+00
 -1       472 9.69108E+01 1.01226E+01 0.00000E+00
 -1       473 8.90400E+01 2.87329E+01 0.00000E+00
 -1       474 8.53951E+01 1.02509E+01 0.00000E+00
 -1       475 1.00350E+01 6.60425E+00 0.00000E+00
 -1       476 7.79400E+00 3.08500E+01 0.00000E+00
 -1       477 7.79400E+00 3.38000E+01 0.00000E+00
 -1       478 7.79400E+00 2.49500E+01 0.00000E+00
 -1       479 7.79400E+00 2.20000E+01 0.00000E+00
 -1       480 7.79400E+00 1.91000E+01 0.00000E+00
 -1       481 7.79400E+00 1.61500E+01 0.00000E+00
 -1       482 7.79400E+00 1.32000E+01 0.00000E+00
 -1       483 7.79400E+00 1.02500E+01 0.00000E+00
 -1       484 1.02822E+02 1.93074E+01 0.00000E+00
 -1       485 1.30350E+01 6.60425E+00 0.00000E+00
 -1       486 1.06500E+01 4.22060E+01 0.00000E+00
 -1       487 9.67163E+01 8.38167E+00 0.00000E+00
 -1       488 1.36500E+01 4.22060E+01 0.00000E+00
 -1       489 1.66500E+01 4.22060E+01 0.00000E+00
 -1       490 1.96500E+01 4.22060E+01 0.00000E+00
 -1       491 2.26500E+01 4.22060E+01 0.00000E+00
 -1       492 2.56500E+01 4.22060E+01 0.00000E+00
 -1       493 2.86500E+01 4.22060E+01 0.00000E+00
 -1       494 3.16500E+01 4.22060E+01 0.00000E+00
 -1       495 3.46500E+01 4.22060E+01 0.00000E+00
 -1       496 3.76500E+01 4.22060E+01 0.00000E+00
 -1       497 4.06500E+01 4.22060E+01 0.00000E+00
 -1       498 4.36500E+01 4.22060E+01 0.00000E+00
 -1       499 4.66500E+01 4.22060E+01 0.00000E+00
 -1       500 4.96500E+01 4.22060E+01 0.00000E+00
 -1       501 5.26500E+01 4.22060E+01 0.00000E+00
 -1       502 5.56500E+01 4.22060E+01 0.00000E+00
 -1       503 5.86500E+01 4.22060E+01 0.00000E+00
 -1       504 6.16500E+01 4.22060E+01 0.00000E+00
 -1       505 6.46500E+01 4.22060E+01 0.00000E+00
 -1       506 6.76500E+01 4.22060E+01 0.00000E+00
 -1       507 7.06500E+01 4.22060E+01 0.00000E+00
 -1       508 7.36500E+01 4.22060E+01 0.00000E+00
 -1       509 7.66500E+01 4.22060E+01 0.00000E+00
 -1       510 7.96500E+01 4.22060E+01 0.00000E+00
 -1       511 8.26500E+01 4.22060E+01 0.00000E+00
 -1       512 8.56500E+01 4.22060E+01 0.00000E+00
 -1       513 8.86500E+01 4.22060E+01 0.00000E+00
 -1       514 9.16500E+01 4.22060E+01 0.00000E+00
 -1       515 9.46500E+01 4.22060E+01 0.00000E+00
 -1       516 9.76500E+01 4.22060E+01 0.00000E+00
 -1       517 1.00650E+02 4.22060E+01 0.00000E+00
 -1       518 1.03650E+02 4.22060E+01 0.00000E+00
 -1       519 1.06650E+02 4.22060E+01 0.00000E+00
 -1       520 1.09650E+02 4.22060E+01 0.00000E+00
 -1       521 1.12650E+02 4.22060E+01 0.00000E+00
 -1       522 1.15650E+02 4.22060E+01 0.00000E+00
 -1       523 1.18650E+02 4.22060E+01 0.00000E+00
 -1       524 1.21650E+02 4.22060E+01 0.00000E+00
 -1       525 1.24650E+02 4.22060E+01 0.00000E+00
 -1       526 1.27650E+02 4.22060E+01 0.00000E+00
 -1       527 1.30650E+02 4.22060E+01 0.00000E+00
 -1       528 1.33650E+02 4.22060E+01 0.00000E+00
 -1       529 1.36650E+02 4.22060E+01 0.00000E+00
 -1       530 1.39650E+02 4.22060E+01 0.00000E+00
 -1       531 1.90350E+01 6.60425E+00 0.00000E+00
 -1       532 2.20350E+01 6.60425E+00 0.00000E+00
 -1       533 2.50350E+01 6.60425E+00 0.00000E+00
 -1       534 2.80350E+01 6.60425E+00 0.00000E+00
 -1       535 3.10350E+01 6.60425E+00 0.00000E+00
 -1       536 3.40350E+01 6.60425E+00 0.00000E+00
 -1       537 3.70350E+01 6.60425E+00 0.00000E+00
 -1       538 4.00350E+01 6.60425E+00 0.00000E+00
 -1       539 4.30350E+01 6.60425E+00 0.00000E+00
 -1       540 4.60350E+01 6.60425E+00 0.00000E+00
 -1       541 4.90350E+01 6.60425E+00 0.00000E+00
 -1       542 5.20350E+01 6.60425E+00 0.00000E+00
 -1       543 5.50350E+01 6.60425E+00 0.00000E+00
 -1       544 5.80350E+01 6.60425E+00 0.00000E+00
 -1       545 6.10350E+01 6.60425E+00 0.00000E+00
 -1       546 6.40350E+01 6.60425E+00 0.00000E+00
 -1       547 6.70350E+01 6.60425E+00 0.00000E+00
 -1       548 7.00350E+01 6.60425E+00 0.00000E+00
 -1       549 7.30350E+01 6.60425E+00 0.00000E+00
 -1       550 7.60350E+01 6.60425E+00 0.00000E+00
 -1       551 7.90350E+01 6.60425E+00 0.00000E+00
 -1       552 8.20350E+01 6.60425E+00 0.00000E+00
 -1       553 8.50350E+01 6.60425E+00 0.00000E+00
 -1       554 8.80350E+01 6.60425E+00 0.00000E+00
 -1       555 9.10350E+01 5.88893E+00 0.00000E+00
 -1       556 9.40350E+01 6.05650E+00 0.00000E+00
 -1       557 9.70350E+01 6.39164E+00 0.00000E+00
 -1       558 1.00035E+02 6.39164E+00 0.00000E+00
 -1       559 1.03035E+02 6.39164E+00 0.00000E+00
 -1       560 1.06035E+02 6.39164E+00 0.00000E+00
 -1       561 1.09035E+02 6.39164E+00 0.00000E+00
 -1       562 1.12035E+02 6.39164E+00 0.00000E+00
 -1       563 1.15035E+02 6.39164E+00 0.00000E+00
 -1       564 1.18035E+02 6.39164E+00 0.00000E+00
 -1       565 1.21035E+02 6.39164E+00 0.00000E+00
 -1       566 1.24035E+02 6.39164E+00 0.00000E+00
 -1       567 1.27035E+02 6.39164E+00 0.00000E+00
 -1       568 1.30035E+02 6.39164E+00 0.00000E+00
 -1       569 1.33035E+02 6.39164E+00 0.00000E+00
 -1       570 1.36035E+02 6.39164E+00 0.00000E+00
 -1       571 1.39035E+02 6.39164E+00 0.00000E+00
 -1       572 1.42035E+02 6.39164E+00 0.00000E+00
 -1       573 1.42206E+02 1.61750E+01 0.00000E+00
 -1       574 1.42206E+02 1.91250E+01 0.00000E+00
 -1       575 1.42206E+02 1.03250E+01 0.00000E+00
 -1       576 1.42206E+02 1.32500E+01 0.00000E+00
 -1       577 1.42206E+02 2.20750E+01 0.00000E+00
 -1       578 1.42206E+02 2.50250E+01 0.00000E+00
 -1       579 1.42206E+02 2.79750E+01 0.00000E+00
 -1       580 1.42206E+02 3.08750E+01 0.00000E+00
 -1       581 1.42206E+02 3.38250E+01 0.00000E+00
 -1       582 1.42206E+02 3.67750E+01 0.00000E+00
 -1       583 1.42206E+02 3.97250E+01 0.00000E+00
 -1       584 1.03124E+02 1.73758E+01 0.00000E+00
 -1       585 1.01773E+02 1.29798E+01 0.00000E+00
 -1       586 1.60350E+01 6.60425E+00 0.00000E+00
 -1       587 1.02548E+02 2.12563E+01 0.00000E+00
 -1       588 7.92300E+00 4.16780E+01 0.00000E+00
 -1       589 1.00922E+02 2.45056E+01 0.00000E+00
 -1       590 1.02597E+02 1.50493E+01 0.00000E+00
 -1       591 8.47989E+01 2.71864E+01 0.00000E+00
 -1       592 7.79400E+00 2.79000E+01 0.00000E+00
 -1       593 9.17285E+01 7.08684E+00 0.00000E+00
 -1       594 9.13080E+01 2.96246E+01 0.00000E+00
 -1       595 9.45425E+01 7.45088E+00 0.00000E+00
 -1       596 8.94109E+01 7.60517E+00 0.00000E+00
 -1       597 8.74910E+01 8.48292E+00 0.00000E+00
 -1       598 8.30851E+01 1.18151E+01 0.00000E+00
 -1       599 8.20669E+01 1.35741E+01 0.00000E+00
 -1       600 8.10810E+01 1.59235E+01 0.00000E+00
 -1       601 8.09435E+01 1.81914E+01 0.00000E+00
 -1       602 8.08608E+01 2.06931E+01 0.00000E+00
 -1       603 8.18054E+01 2.33484E+01 0.00000E+00
 -1       604 8.29959E+01 2.53048E+01 0.00000E+00
 -1       605 8.63319E+01 2.81791E+01 0.00000E+00
 -1       606 9.78954E+01 2.79165E+01 0.00000E+00
 -1       607 9.37259E+01 2.99199E+01 0.00000E+00
 -1       608 9.88373E+01 9.44917E+00 0.00000E+00
 -1       609 9.58743E+01 2.90112E+01 0.00000E+00
 -1       610 9.97406E+01 2.61071E+01 0.00000E+00
 -1       611 1.01807E+02 2.29163E+01 0.00000E+00
 -1       612 7.61550E+00 6.21462E+00 0.00000E+00
 -1       613 1.00487E+02 1.10318E+01 0.00000E+00
 -1       614 7.79400E+00 3.67375E+01 0.00000E+00
 -1       615 9.96144E+01 2.79086E+01 0.00000E+00
 -1       616 7.85850E+00 3.92077E+01 0.00000E+00
 -1       617 8.71924E+01 2.95114E+01 0.00000E+00
 -1       618 8.58074E+01 8.55924E+00 0.00000E+00
 -1       619 8.35260E+01 1.01641E+01 0.00000E+00
 -1       620 1.41678E+02 4.22645E+01 0.00000E+00
 -1       621 1.03920E+01 2.05500E+01 0.00000E+00
 -1       622 1.03920E+01 2.35000E+01 0.00000E+00
 -1       623 1.03920E+01 1.46750E+01 0.00000E+00
 -1       624 1.03920E+01 1.17250E+01 0.00000E+00
 -1       625 1.05855E+01 3.97357E+01 0.00000E+00
 -1       626 7.96834E+01 1.39555E+01 0.00000E+00
 -1       627 9.76963E+01 2.99619E+01 0.00000E+00
 -1       628 1.02828E+02 2.45262E+01 0.00000E+00
 -1       629 1.51500E+01 3.96080E+01 0.00000E+00
 -1       630 1.81500E+01 3.96080E+01 0.00000E+00
 -1       631 2.11500E+01 3.96080E+01 0.00000E+00
 -1       632 2.41500E+01 3.96080E+01 0.00000E+00
 -1       633 2.71500E+01 3.96080E+01 0.00000E+00
 -1       634 3.01500E+01 3.96080E+01 0.00000E+00
 -1       635 3.31500E+01 3.96080E+01 0.00000E+00
 -1       636 3.61500E+01 3.96080E+01 0.00000E+00
 -1       637 3.91500E+01 3.96080E+01 0.00000E+00
 -1       638 4.21500E+01 3.96080E+01 0.00000E+00
 -1       639 4.51500E+01 3.96080E+01 0.00000E+00
 -1       640 4.81500E+01 3.96080E+01 0.00000E+00
 -1       641 5.11500E+01 3.96080E+01 0.00000E+00
 -1       642 5.41500E+01 3.96080E+01 0.00000E+00
 -1       643 5.71500E+01 3.96080E+01 0.00000E+00
 -1       644 6.01500E+01 3.96080E+01 0.00000E+00
 -1       645 6.31500E+01 3.96080E+01 0.00000E+00
 -1       646 6.61500E+01 3.96080E+01 0.00000E+00
 -1       647 6.91500E+01 3.96080E+01 0.00000E+00
 -1       648 7.21500E+01 3.96080E+01 0.00000E+00
 -1       649 7.51500E+01 3.96080E+01 0.00000E+00
 -1       650 7.81500E+01 3.96080E+01 0.00000E+00
 -1       651 8.11500E+01 3.96080E+01 0.00000E+00
 -1       652 8.41500E+01 3.96080E+01 0.00000E+00
 -1       653 8.71500E+01 3.96080E+01 0.00000E+00
 -1       654 9.01500E+01 3.96080E+01 0.00000E+00
 -1       655 9.31500E+01 3.96080E+01 0.00000E+00
 -1       656 9.61500E+01 3.96080E+01 0.00000E+00
 -1       657 9.91500E+01 3.96080E+01 0.00000E+00
 -1       658 1.02150E+02 3.96080E+01 0.00000E+00
 -1       659 1.05150E+02 3.96080E+01 0.00000E+00
 -1       660 1.08150E+02 3.96080E+01 0.00000E+00
 -1       661 1.11150E+02 3.96080E+01 0.00000E+00
 -1       662 1.14150E+02 3.96080E+01 0.00000E+00
 -1       663 1.17150E+02 3.96080E+01 0.00000E+00
 -1       664 1.20150E+02 3.96080E+01 0.00000E+00
 -1       665 1.23150E+02 3.96080E+01 0.00000E+00
 -1       666 1.26150E+02 3.96080E+01 0.00000E+00
 -1       667 1.29150E+02 3.96080E+01 0.00000E+00
 -1       668 1.32150E+02 3.96080E+01 0.00000E+00
 -1       669 1.35150E+02 3.96080E+01 0.00000E+00
 -1       670 1.38150E+02 3.96080E+01 0.00000E+00
 -1       671 2.35350E+01 9.20225E+00 0.00000E+00
 -1       672 1.39206E+02 1.03250E+01 0.00000E+00
 -1       673 2.05350E+01 9.20225E+00 0.00000E+00
 -1       674 2.95350E+01 9.20225E+00 0.00000E+00
 -1       675 3.25350E+01 9.20225E+00 0.00000E+00
 -1       676 3.55350E+01 9.20225E+00 0.00000E+00
 -1       677 3.85350E+01 9.20225E+00 0.00000E+00
 -1       678 4.15350E+01 9.20225E+00 0.00000E+00
 -1       679 4.45350E+01 9.20225E+00 0.00000E+00
 -1       680 4.75350E+01 9.20225E+00 0.00000E+00
 -1       681 5.05350E+01 9.20225E+00 0.00000E+00
 -1       682 5.35350E+01 9.20225E+00 0.00000E+00
 -1       683 5.65350E+01 9.20225E+00 0.00000E+00
 -1       684 5.95350E+01 9.20225E+00 0.00000E+00
 -1       685 6.25350E+01 9.20225E+00 0.00000E+00
 -1       686 6.55350E+01 9.20225E+00 0.00000E+00
 -1       687 6.85350E+01 9.20225E+00 0.00000E+00
 -1       688 7.15350E+01 9.20225E+00 0.00000E+00
 -1       689 7.45350E+01 9.20225E+00 0.00000E+00
 -1       690 7.75350E+01 9.20225E+00 0.00000E+00
 -1       691 8.05350E+01 9.20225E+00 0.00000E+00
 -1       692 1.07535E+02 8.98964E+00 0.00000E+00
 -1       693 1.10535E+02 8.98964E+00 0.00000E+00
 -1       694 1.13535E+02 8.98964E+00 0.00000E+00
 -1       695 1.16535E+02 8.98964E+00 0.00000E+00
 -1       696 1.19535E+02 8.98964E+00 0.00000E+00
 -1       697 1.22535E+02 8.98964E+00 0.00000E+00
 -1       698 1.25535E+02 8.98964E+00 0.00000E+00
 -1       699 1.28535E+02 8.98964E+00 0.00000E+00
 -1       700 1.31535E+02 8.98964E+00 0.00000E+00
 -1       701 1.34535E+02 8.98964E+00 0.00000E+00
 -1       702 1.36870E+02 9.65732E+00 0.00000E+00
 -1       703 1.39608E+02 2.35500E+01 0.00000E+00
 -1       704 1.40178E+02 3.96665E+01 0.00000E+00
 -1       705 1.39608E+02 1.76500E+01 0.00000E+00
 -1       706 1.39608E+02 2.65000E+01 0.00000E+00
 -1       707 1.39608E+02 2.06000E+01 0.00000E+00
 -1       708 1.75350E+01 9.20225E+00 0.00000E+00
 -1       709 1.39608E+02 2.94000E+01 0.00000E+00
 -1       710 1.39608E+02 3.23500E+01 0.00000E+00
 -1       711 1.39608E+02 3.53000E+01 0.00000E+00
 -1       712 1.04657E+02 1.86045E+01 0.00000E+00
 -1       713 8.45420E+01 2.92630E+01 0.00000E+00
 -1       714 1.04382E+02 2.05535E+01 0.00000E+00
 -1       715 1.02562E+02 1.10610E+01 0.00000E+00
 -1       716 1.04685E+02 1.57988E+01 0.00000E+00
 -1       717 8.96077E+01 3.06190E+01 0.00000E+00
 -1       718 7.91880E+01 1.93856E+01 0.00000E+00
 -1       719 1.04535E+02 8.98964E+00 0.00000E+00
 -1       720 8.22961E+01 2.77800E+01 0.00000E+00
 -1       721 2.65350E+01 9.20225E+00 0.00000E+00
 -1       722 1.28678E+01 3.96719E+01 0.00000E+00
 -1       723 1.03778E+02 1.33802E+01 0.00000E+00
 -1       724 1.03920E+01 1.76125E+01 0.00000E+00
 -1       725 9.22887E+01 3.16411E+01 0.00000E+00
 -1       726 8.10916E+01 1.18354E+01 0.00000E+00
 -1       727 1.45350E+01 9.20225E+00 0.00000E+00
 -1       728 8.07923E+01 2.53053E+01 0.00000E+00
 -1       729 1.03920E+01 3.23250E+01 0.00000E+00
 -1       730 1.01567E+02 2.62180E+01 0.00000E+00
 -1       731 1.03427E+02 2.26444E+01 0.00000E+00
 -1       732 7.93839E+01 1.69587E+01 0.00000E+00
 -1       733 9.55291E+01 3.11890E+01 0.00000E+00
 -1       734 1.00850E+02 9.00277E+00 0.00000E+00
 -1       735 7.95593E+01 2.26517E+01 0.00000E+00
 -1       736 1.17135E+01 9.16463E+00 0.00000E+00
 -1       737 1.03920E+01 3.52625E+01 0.00000E+00
 -1       738 1.03920E+01 2.64500E+01 0.00000E+00
 -1       739 9.94152E+01 2.99540E+01 0.00000E+00
 -1       740 1.01441E+02 2.80195E+01 0.00000E+00
 -1       741 1.39608E+02 1.47250E+01 0.00000E+00
 -1       742 8.37150E+01 8.42755E+00 0.00000E+00
 -1       743 8.54025E+01 3.05953E+01 0.00000E+00
 -1       744 7.78865E+01 2.13443E+01 0.00000E+00
 -1       745 1.38879E+02 3.74540E+01 0.00000E+00
 -1       746 1.03920E+01 2.93875E+01 0.00000E+00
 -1       747 9.40919E+01 3.29101E+01 0.00000E+00
 -1       748 1.29900E+01 1.32000E+01 0.00000E+00
 -1       749 7.88472E+01 1.60296E+01 0.00000E+00
 -1       750 1.96500E+01 3.70100E+01 0.00000E+00
 -1       751 2.26500E+01 3.70100E+01 0.00000E+00
 -1       752 2.56500E+01 3.70100E+01 0.00000E+00
 -1       753 2.86500E+01 3.70100E+01 0.00000E+00
 -1       754 3.16500E+01 3.70100E+01 0.00000E+00
 -1       755 3.46500E+01 3.70100E+01 0.00000E+00
 -1       756 3.76500E+01 3.70100E+01 0.00000E+00
 -1       757 4.06500E+01 3.70100E+01 0.00000E+00
 -1       758 4.36500E+01 3.70100E+01 0.00000E+00
 -1       759 4.66500E+01 3.70100E+01 0.00000E+00
 -1       760 4.96500E+01 3.70100E+01 0.00000E+00
 -1       761 5.26500E+01 3.70100E+01 0.00000E+00
 -1       762 5.56500E+01 3.70100E+01 0.00000E+00
 -1       763 5.86500E+01 3.70100E+01 0.00000E+00
 -1       764 6.16500E+01 3.70100E+01 0.00000E+00
 -1       765 6.46500E+01 3.70100E+01 0.00000E+00
 -1       766 6.76500E+01 3.70100E+01 0.00000E+00
 -1       767 7.06500E+01 3.70100E+01 0.00000E+00
 -1       768 7.36500E+01 3.70100E+01 0.00000E+00
 -1       769 7.66500E+01 3.70100E+01 0.00000E+00
 -1       770 7.96500E+01 3.70100E+01 0.00000E+00
 -1       771 8.26500E+01 3.70100E+01 0.00000E+00
 -1       772 8.56500E+01 3.70100E+01 0.00000E+00
 -1       773 8.86500E+01 3.70100E+01 0.00000E+00
 -1       774 9.16500E+01 3.70100E+01 0.00000E+00
 -1       775 9.46500E+01 3.70100E+01 0.00000E+00
 -1       776 9.76500E+01 3.70100E+01 0.00000E+00
 -1       777 1.00650E+02 3.70100E+01 0.00000E+00
 -1       778 1.03650E+02 3.70100E+01 0.00000E+00
 -1       779 1.06650E+02 3.70100E+01 0.00000E+00
 -1       780 1.09650E+02 3.70100E+01 0.00000E+00
 -1       781 1.12650E+02 3.70100E+01 0.00000E+00
 -1       782 1.15650E+02 3.70100E+01 0.00000E+00
 -1       783 1.18650E+02 3.70100E+01 0.00000E+00
 -1       784 1.21650E+02 3.70100E+01 0.00000E+00
 -1       785 1.24650E+02 3.70100E+01 0.00000E+00
 -1       786 1.27650E+02 3.70100E+01 0.00000E+00
 -1       787 1.30650E+02 3.70100E+01 0.00000E+00
 -1       788 1.33650E+02 3.70100E+01 0.00000E+00
 -1       789 1.36264E+02 3.72320E+01 0.00000E+00
 -1       790 2.20350E+01 1.18003E+01 0.00000E+00
 -1       791 3.40350E+01 1.18003E+01 0.00000E+00
 -1       792 3.10350E+01 1.18003E+01 0.00000E+00
 -1       793 4.00350E+01 1.18003E+01 0.00000E+00
 -1       794 4.30350E+01 1.18003E+01 0.00000E+00
 -1       795 4.60350E+01 1.18003E+01 0.00000E+00
 -1       796 4.90350E+01 1.18003E+01 0.00000E+00
 -1       797 5.20350E+01 1.18003E+01 0.00000E+00
 -1       798 5.50350E+01 1.18003E+01 0.00000E+00
 -1       799 5.80350E+01 1.18003E+01 0.00000E+00
 -1       800 6.10350E+01 1.18003E+01 0.00000E+00
 -1       801 6.40350E+01 1.18003E+01 0.00000E+00
 -1       802 6.70350E+01 1.18003E+01 0.00000E+00
 -1       803 7.00350E+01 1.18003E+01 0.00000E+00
 -1       804 7.30350E+01 1.18003E+01 0.00000E+00
 -1       805 7.60350E+01 1.18003E+01 0.00000E+00
 -1       806 1.15035E+02 1.15876E+01 0.00000E+00
 -1       807 1.12035E+02 1.15876E+01 0.00000E+00
 -1       808 7.95057E+01 2.77813E+01 0.00000E+00
 -1       809 1.09035E+02 1.15876E+01 0.00000E+00
 -1       810 1.18035E+02 1.15876E+01 0.00000E+00
 -1       811 1.21035E+02 1.15876E+01 0.00000E+00
 -1       812 1.24035E+02 1.15876E+01 0.00000E+00
 -1       813 1.27035E+02 1.15876E+01 0.00000E+00
 -1       814 1.30035E+02 1.15876E+01 0.00000E+00
 -1       815 1.33035E+02 1.15876E+01 0.00000E+00
 -1       816 8.76153E+01 3.17765E+01 0.00000E+00
 -1       817 1.37010E+02 2.79500E+01 0.00000E+00
 -1       818 1.29900E+01 2.20250E+01 0.00000E+00
 -1       819 1.90350E+01 1.18003E+01 0.00000E+00
 -1       820 1.37010E+02 2.50000E+01 0.00000E+00
 -1       821 1.37010E+02 3.38250E+01 0.00000E+00
 -1       822 1.04888E+01 3.74991E+01 0.00000E+00
 -1       823 9.02963E+01 3.27986E+01 0.00000E+00
 -1       824 1.06035E+02 1.15876E+01 0.00000E+00
 -1       825 1.05454E+02 2.23069E+01 0.00000E+00
 -1       826 1.06206E+02 1.98166E+01 0.00000E+00
 -1       827 1.06141E+02 1.38736E+01 0.00000E+00
 -1       828 7.81645E+01 2.49131E+01 0.00000E+00
 -1       829 7.75764E+01 1.80341E+01 0.00000E+00
 -1       830 1.37010E+02 3.08875E+01 0.00000E+00
 -1       831 3.70350E+01 1.18003E+01 0.00000E+00
 -1       832 1.66500E+01 3.70100E+01 0.00000E+00
 -1       833 9.75346E+01 3.22038E+01 0.00000E+00
 -1       834 1.06542E+02 1.72209E+01 0.00000E+00
 -1       835 8.23817E+01 3.00926E+01 0.00000E+00
 -1       836 1.60350E+01 1.18003E+01 0.00000E+00
 -1       837 1.04855E+02 2.41887E+01 0.00000E+00
 -1       838 1.03833E+02 2.65904E+01 0.00000E+00
 -1       839 7.86797E+01 1.17610E+01 0.00000E+00
 -1       840 1.37625E+01 1.12011E+01 0.00000E+00
 -1       841 7.75192E+01 1.42885E+01 0.00000E+00
 -1       842 1.29900E+01 2.49750E+01 0.00000E+00
 -1       843 1.01242E+02 3.00649E+01 0.00000E+00
 -1       844 9.20995E+01 3.40677E+01 0.00000E+00
 -1       845 1.37010E+02 2.20500E+01 0.00000E+00
 -1       846 1.37010E+02 1.61875E+01 0.00000E+00
 -1       847 1.43678E+01 3.70739E+01 0.00000E+00
 -1       848 2.80350E+01 1.18003E+01 0.00000E+00
 -1       849 7.95913E+01 3.00939E+01 0.00000E+00
 -1       850 1.35370E+02 1.22553E+01 0.00000E+00
 -1       851 1.37010E+02 1.91187E+01 0.00000E+00
 -1       852 7.62749E+01 1.99928E+01 0.00000E+00
 -1       853 1.29900E+01 3.37938E+01 0.00000E+00
 -1       854 7.64917E+01 2.36056E+01 0.00000E+00
 -1       855 2.50350E+01 1.18003E+01 0.00000E+00
 -1       856 9.92536E+01 3.21958E+01 0.00000E+00
 -1       857 1.29900E+01 3.08563E+01 0.00000E+00
 -1       858 1.29900E+01 1.61375E+01 0.00000E+00
 -1       859 1.07998E+02 1.52957E+01 0.00000E+00
 -1       860 8.32422E+01 3.14249E+01 0.00000E+00
 -1       861 1.29900E+01 1.90812E+01 0.00000E+00
 -1       862 1.36820E+02 1.27614E+01 0.00000E+00
 -1       863 9.60975E+01 3.39249E+01 0.00000E+00
 -1       864 7.70397E+01 1.71050E+01 0.00000E+00
 -1       865 1.36637E+02 3.55285E+01 0.00000E+00
 -1       866 8.82255E+01 3.42033E+01 0.00000E+00
 -1       867 2.41500E+01 3.44120E+01 0.00000E+00
 -1       868 2.71500E+01 3.44120E+01 0.00000E+00
 -1       869 3.01500E+01 3.44120E+01 0.00000E+00
 -1       870 3.31500E+01 3.44120E+01 0.00000E+00
 -1       871 3.61500E+01 3.44120E+01 0.00000E+00
 -1       872 3.91500E+01 3.44120E+01 0.00000E+00
 -1       873 4.21500E+01 3.44120E+01 0.00000E+00
 -1       874 4.51500E+01 3.44120E+01 0.00000E+00
 -1       875 4.81500E+01 3.44120E+01 0.00000E+00
 -1       876 5.11500E+01 3.44120E+01 0.00000E+00
 -1       877 5.41500E+01 3.44120E+01 0.00000E+00
 -1       878 5.71500E+01 3.44120E+01 0.00000E+00
 -1       879 6.01500E+01 3.44120E+01 0.00000E+00
 -1       880 6.31500E+01 3.44120E+01 0.00000E+00
 -1       881 6.61500E+01 3.44120E+01 0.00000E+00
 -1       882 6.91500E+01 3.44120E+01 0.00000E+00
 -1       883 7.21500E+01 3.44120E+01 0.00000E+00
 -1       884 7.51500E+01 3.44120E+01 0.00000E+00
 -1       885 7.81500E+01 3.44120E+01 0.00000E+00
 -1       886 8.11500E+01 3.44120E+01 0.00000E+00
 -1       887 8.41500E+01 3.44120E+01 0.00000E+00
 -1       888 1.05150E+02 3.44120E+01 0.00000E+00
 -1       889 1.08150E+02 3.44120E+01 0.00000E+00
 -1       890 1.11150E+02 3.44120E+01 0.00000E+00
 -1       891 1.14150E+02 3.44120E+01 0.00000E+00
 -1       892 1.17150E+02 3.44120E+01 0.00000E+00
 -1       893 1.20150E+02 3.44120E+01 0.00000E+00
 -1       894 1.23150E+02 3.44120E+01 0.00000E+00
 -1       895 1.26150E+02 3.44120E+01 0.00000E+00
 -1       896 1.29150E+02 3.44120E+01 0.00000E+00
 -1       897 1.32150E+02 3.44120E+01 0.00000E+00
 -1       898 1.81500E+01 3.44120E+01 0.00000E+00
 -1       899 4.45350E+01 1.43982E+01 0.00000E+00
 -1       900 4.15350E+01 1.43982E+01 0.00000E+00
 -1       901 5.05350E+01 1.43982E+01 0.00000E+00
 -1       902 5.35350E+01 1.43982E+01 0.00000E+00
 -1       903 5.65350E+01 1.43982E+01 0.00000E+00
 -1       904 5.95350E+01 1.43982E+01 0.00000E+00
 -1       905 6.25350E+01 1.43982E+01 0.00000E+00
 -1       906 6.55350E+01 1.43982E+01 0.00000E+00
 -1       907 6.85350E+01 1.43982E+01 0.00000E+00
 -1       908 7.15350E+01 1.43982E+01 0.00000E+00
 -1       909 1.19535E+02 1.41856E+01 0.00000E+00
 -1       910 2.11500E+01 3.44120E+01 0.00000E+00
 -1       911 1.16535E+02 1.41856E+01 0.00000E+00
 -1       912 1.22535E+02 1.41856E+01 0.00000E+00
 -1       913 1.25535E+02 1.41856E+01 0.00000E+00
 -1       914 1.28535E+02 1.41856E+01 0.00000E+00
 -1       915 1.31535E+02 1.41856E+01 0.00000E+00
 -1       916 1.07622E+02 2.16029E+01 0.00000E+00
 -1       917 1.34412E+02 2.64750E+01 0.00000E+00
 -1       918 1.03769E+02 2.91989E+01 0.00000E+00
 -1       919 1.08396E+02 1.87803E+01 0.00000E+00
 -1       920 8.54645E+01 3.31424E+01 0.00000E+00
 -1       921 7.65225E+01 2.74285E+01 0.00000E+00
 -1       922 1.29900E+01 2.79188E+01 0.00000E+00
 -1       923 7.49279E+01 1.52964E+01 0.00000E+00
 -1       924 1.75350E+01 1.43982E+01 0.00000E+00
 -1       925 1.06682E+02 2.63854E+01 0.00000E+00
 -1       926 1.10998E+02 1.52957E+01 0.00000E+00
 -1       927 1.07023E+02 2.34847E+01 0.00000E+00
 -1       928 4.75350E+01 1.43982E+01 0.00000E+00
 -1       929 2.05350E+01 1.43982E+01 0.00000E+00
 -1       930 1.52625E+01 1.37991E+01 0.00000E+00
 -1       931 1.13766E+02 1.47407E+01 0.00000E+00
 -1       932 3.25350E+01 1.43982E+01 0.00000E+00
 -1       933 1.55880E+01 2.35000E+01 0.00000E+00
 -1       934 1.34412E+02 2.35250E+01 0.00000E+00
 -1       935 1.58678E+01 3.44759E+01 0.00000E+00
 -1       936 1.02447E+02 3.38792E+01 0.00000E+00
 -1       937 2.35350E+01 1.43982E+01 0.00000E+00
 -1       938 1.34394E+02 3.49702E+01 0.00000E+00
 -1       939 2.95350E+01 1.43982E+01 0.00000E+00
 -1       940 3.85350E+01 1.43982E+01 0.00000E+00
 -1       941 1.34321E+02 1.46185E+01 0.00000E+00
 -1       942 7.66081E+01 2.97411E+01 0.00000E+00
 -1       943 1.06618E+02 2.89939E+01 0.00000E+00
 -1       944 1.34412E+02 2.94125E+01 0.00000E+00
 -1       945 3.55350E+01 1.43982E+01 0.00000E+00
 -1       946 7.48496E+01 2.61211E+01 0.00000E+00
 -1       947 7.48801E+01 2.22542E+01 0.00000E+00
 -1       948 1.34321E+02 1.75497E+01 0.00000E+00
 -1       949 8.04518E+01 3.14262E+01 0.00000E+00
 -1       950 1.55880E+01 2.05562E+01 0.00000E+00
 -1       951 7.56778E+01 1.85113E+01 0.00000E+00
 -1       952 1.55880E+01 3.23250E+01 0.00000E+00
 -1       953 1.34580E+02 3.26497E+01 0.00000E+00
 -1       954 1.78703E+01 3.22611E+01 0.00000E+00
 -1       955 7.22849E+01 1.76131E+01 0.00000E+00
 -1       956 1.06650E+02 3.18140E+01 0.00000E+00
 -1       957 2.86500E+01 3.18140E+01 0.00000E+00
 -1       958 3.16500E+01 3.18140E+01 0.00000E+00
 -1       959 3.46500E+01 3.18140E+01 0.00000E+00
 -1       960 3.76500E+01 3.18140E+01 0.00000E+00
 -1       961 4.06500E+01 3.18140E+01 0.00000E+00
 -1       962 4.36500E+01 3.18140E+01 0.00000E+00
 -1       963 4.66500E+01 3.18140E+01 0.00000E+00
 -1       964 4.96500E+01 3.18140E+01 0.00000E+00
 -1       965 5.26500E+01 3.18140E+01 0.00000E+00
 -1       966 5.56500E+01 3.18140E+01 0.00000E+00
 -1       967 5.86500E+01 3.18140E+01 0.00000E+00
 -1       968 6.16500E+01 3.18140E+01 0.00000E+00
 -1       969 6.46500E+01 3.18140E+01 0.00000E+00
 -1       970 6.76500E+01 3.18140E+01 0.00000E+00
 -1       971 7.06500E+01 3.18140E+01 0.00000E+00
 -1       972 7.36500E+01 3.18140E+01 0.00000E+00
 -1       973 1.55880E+01 2.64438E+01 0.00000E+00
 -1       974 1.09650E+02 3.18140E+01 0.00000E+00
 -1       975 1.12650E+02 3.18140E+01 0.00000E+00
 -1       976 1.15650E+02 3.18140E+01 0.00000E+00
 -1       977 1.18650E+02 3.18140E+01 0.00000E+00
 -1       978 1.21650E+02 3.18140E+01 0.00000E+00
 -1       979 1.24650E+02 3.18140E+01 0.00000E+00
 -1       980 1.27650E+02 3.18140E+01 0.00000E+00
 -1       981 1.30650E+02 3.18140E+01 0.00000E+00
 -1       982 1.09433E+02 2.52380E+01 0.00000E+00
 -1       983 1.90350E+01 1.69963E+01 0.00000E+00
 -1       984 5.50350E+01 1.69963E+01 0.00000E+00
 -1       985 5.20350E+01 1.69963E+01 0.00000E+00
 -1       986 6.10350E+01 1.69963E+01 0.00000E+00
 -1       987 6.40350E+01 1.69963E+01 0.00000E+00
 -1       988 6.70350E+01 1.69963E+01 0.00000E+00
 -1       989 6.96600E+01 1.73047E+01 0.00000E+00
 -1       990 1.24035E+02 1.67836E+01 0.00000E+00
 -1       991 2.26500E+01 3.18140E+01 0.00000E+00
 -1       992 1.18035E+02 1.67836E+01 0.00000E+00
 -1       993 1.27035E+02 1.67836E+01 0.00000E+00
 -1       994 1.30035E+02 1.67836E+01 0.00000E+00
 -1       995 1.10137E+02 2.07756E+01 0.00000E+00
 -1       996 5.80350E+01 1.69963E+01 0.00000E+00
 -1       997 1.34412E+02 2.05938E+01 0.00000E+00
 -1       998 4.30350E+01 1.69963E+01 0.00000E+00
 -1       999 1.55880E+01 2.93875E+01 0.00000E+00
 -1      1000 1.04533E+02 3.14365E+01 0.00000E+00
 -1      1001 7.35825E+01 1.99336E+01 0.00000E+00
 -1      1002 1.32178E+02 1.71667E+01 0.00000E+00
 -1      1003 1.55880E+01 1.76125E+01 0.00000E+00
 -1      1004 1.21035E+02 1.67836E+01 0.00000E+00
 -1      1005 2.02601E+01 3.20376E+01 0.00000E+00
 -1      1006 1.09538E+02 2.26574E+01 0.00000E+00
 -1      1007 2.56500E+01 3.18140E+01 0.00000E+00
 -1      1008 2.65350E+01 1.43982E+01 0.00000E+00
 -1      1009 1.11951E+02 1.77581E+01 0.00000E+00
 -1      1010 4.00350E+01 1.69963E+01 0.00000E+00
 -1      1011 1.81860E+01 2.49719E+01 0.00000E+00
 -1      1012 2.20350E+01 1.69963E+01 0.00000E+00
 -1      1013 7.49352E+01 2.84336E+01 0.00000E+00
 -1      1014 4.90350E+01 1.69963E+01 0.00000E+00
 -1      1015 1.15266E+02 1.73387E+01 0.00000E+00
 -1      1016 1.09369E+02 2.78465E+01 0.00000E+00
 -1      1017 4.60350E+01 1.69963E+01 0.00000E+00
 -1      1018 1.31814E+02 2.79438E+01 0.00000E+00
 -1      1019 7.32380E+01 2.47696E+01 0.00000E+00
 -1      1020 1.31814E+02 2.49937E+01 0.00000E+00
 -1      1021 1.81860E+01 2.20281E+01 0.00000E+00
 -1      1022 3.40350E+01 1.69963E+01 0.00000E+00
 -1      1023 3.10350E+01 1.69963E+01 0.00000E+00
 -1      1024 3.01500E+01 2.92160E+01 0.00000E+00
 -1      1025 3.31500E+01 2.92160E+01 0.00000E+00
 -1      1026 3.61500E+01 2.92160E+01 0.00000E+00
 -1      1027 3.91500E+01 2.92160E+01 0.00000E+00
 -1      1028 4.21500E+01 2.92160E+01 0.00000E+00
 -1      1029 4.51500E+01 2.92160E+01 0.00000E+00
 -1      1030 4.81500E+01 2.92160E+01 0.00000E+00
 -1      1031 5.11500E+01 2.92160E+01 0.00000E+00
 -1      1032 5.41500E+01 2.92160E+01 0.00000E+00
 -1      1033 5.71500E+01 2.92160E+01 0.00000E+00
 -1      1034 6.01500E+01 2.92160E+01 0.00000E+00
 -1      1035 6.31500E+01 2.92160E+01 0.00000E+00
 -1      1036 6.61500E+01 2.92160E+01 0.00000E+00
 -1      1037 6.91500E+01 2.92160E+01 0.00000E+00
 -1      1038 7.21500E+01 2.92160E+01 0.00000E+00
 -1      1039 1.81860E+01 2.79156E+01 0.00000E+00
 -1      1040 1.11150E+02 2.92160E+01 0.00000E+00
 -1      1041 1.14150E+02 2.92160E+01 0.00000E+00
 -1      1042 1.17150E+02 2.92160E+01 0.00000E+00
 -1      1043 1.20150E+02 2.92160E+01 0.00000E+00
 -1      1044 1.23150E+02 2.92160E+01 0.00000E+00
 -1      1045 1.26150E+02 2.92160E+01 0.00000E+00
 -1      1046 1.29150E+02 2.92160E+01 0.00000E+00
 -1      1047 2.71500E+01 2.92160E+01 0.00000E+00
 -1      1048 1.12025E+02 2.40510E+01 0.00000E+00
 -1      1049 6.55350E+01 1.95942E+01 0.00000E+00
 -1      1050 6.25350E+01 1.95942E+01 0.00000E+00
 -1      1051 1.28535E+02 1.93816E+01 0.00000E+00
 -1      1052 1.12623E+02 2.21692E+01 0.00000E+00
 -1      1053 1.25535E+02 1.93816E+01 0.00000E+00
 -1      1054 2.50350E+01 1.69963E+01 0.00000E+00
 -1      1055 5.65350E+01 1.95942E+01 0.00000E+00
 -1      1056 4.45350E+01 1.95942E+01 0.00000E+00
 -1      1057 1.31814E+02 2.20625E+01 0.00000E+00
 -1      1058 3.70350E+01 1.69963E+01 0.00000E+00
 -1      1059 1.31996E+02 1.96146E+01 0.00000E+00
 -1      1060 2.80350E+01 1.69963E+01 0.00000E+00
 -1      1061 1.86105E+01 1.95122E+01 0.00000E+00
 -1      1062 1.22535E+02 1.93816E+01 0.00000E+00
 -1      1063 2.41500E+01 2.92160E+01 0.00000E+00
 -1      1064 5.35350E+01 1.95942E+01 0.00000E+00
 -1      1065 1.19535E+02 1.93816E+01 0.00000E+00
 -1      1066 5.95350E+01 1.95942E+01 0.00000E+00
 -1      1067 7.19404E+01 2.24491E+01 0.00000E+00
 -1      1068 5.05350E+01 1.95942E+01 0.00000E+00
 -1      1069 6.81600E+01 1.99027E+01 0.00000E+00
 -1      1070 2.07840E+01 2.64438E+01 0.00000E+00
 -1      1071 3.25350E+01 1.95942E+01 0.00000E+00
 -1      1072 2.17601E+01 2.94396E+01 0.00000E+00
 -1      1073 7.80177E+01 3.20543E+01 0.00000E+00
 -1      1074 7.08712E+01 1.99182E+01 0.00000E+00
 -1      1075 1.16766E+02 1.99367E+01 0.00000E+00
 -1      1076 1.11587E+02 2.66335E+01 0.00000E+00
 -1      1077 4.75350E+01 1.95942E+01 0.00000E+00
 -1      1078 4.15350E+01 1.95942E+01 0.00000E+00
 -1      1079 1.29150E+02 2.62660E+01 0.00000E+00
 -1      1080 2.16105E+01 1.95122E+01 0.00000E+00
 -1      1081 3.55350E+01 1.95942E+01 0.00000E+00
 -1      1082 2.07840E+01 2.35000E+01 0.00000E+00
 -1      1083 3.46500E+01 2.66180E+01 0.00000E+00
 -1      1084 3.76500E+01 2.66180E+01 0.00000E+00
 -1      1085 4.06500E+01 2.66180E+01 0.00000E+00
 -1      1086 4.36500E+01 2.66180E+01 0.00000E+00
 -1      1087 4.66500E+01 2.66180E+01 0.00000E+00
 -1      1088 4.96500E+01 2.66180E+01 0.00000E+00
 -1      1089 5.26500E+01 2.66180E+01 0.00000E+00
 -1      1090 5.56500E+01 2.66180E+01 0.00000E+00
 -1      1091 5.86500E+01 2.66180E+01 0.00000E+00
 -1      1092 6.16500E+01 2.66180E+01 0.00000E+00
 -1      1093 6.46500E+01 2.66180E+01 0.00000E+00
 -1      1094 6.76500E+01 2.66180E+01 0.00000E+00
 -1      1095 7.06500E+01 2.66180E+01 0.00000E+00
 -1      1096 2.95350E+01 1.95942E+01 0.00000E+00
 -1      1097 2.86500E+01 2.66180E+01 0.00000E+00
 -1      1098 1.15650E+02 2.66180E+01 0.00000E+00
 -1      1099 1.18650E+02 2.66180E+01 0.00000E+00
 -1      1100 1.21650E+02 2.66180E+01 0.00000E+00
 -1      1101 1.24650E+02 2.66180E+01 0.00000E+00
 -1      1102 1.26900E+02 2.64420E+01 0.00000E+00
 -1      1103 2.56500E+01 2.66180E+01 0.00000E+00
 -1      1104 6.40350E+01 2.21922E+01 0.00000E+00
 -1      1105 1.28530E+02 2.27334E+01 0.00000E+00
 -1      1106 1.14800E+02 2.38979E+01 0.00000E+00
 -1      1107 3.85350E+01 1.95942E+01 0.00000E+00
 -1      1108 7.23744E+01 2.74360E+01 0.00000E+00
 -1      1109 1.24035E+02 2.19796E+01 0.00000E+00
 -1      1110 2.46105E+01 1.95122E+01 0.00000E+00
 -1      1111 4.60350E+01 2.21922E+01 0.00000E+00
 -1      1112 3.16500E+01 2.66180E+01 0.00000E+00
 -1      1113 5.80350E+01 2.21922E+01 0.00000E+00
 -1      1114 2.11973E+01 2.15061E+01 0.00000E+00
 -1      1115 6.10350E+01 2.21922E+01 0.00000E+00
 -1      1116 5.50350E+01 2.21922E+01 0.00000E+00
 -1      1117 1.21035E+02 2.19796E+01 0.00000E+00
 -1      1118 5.20350E+01 2.21922E+01 0.00000E+00
 -1      1119 1.18266E+02 2.25347E+01 0.00000E+00
 -1      1120 3.10350E+01 2.21922E+01 0.00000E+00
 -1      1121 4.90350E+01 2.21922E+01 0.00000E+00
 -1      1122 2.32170E+01 2.65309E+01 0.00000E+00
 -1      1123 2.70728E+01 1.95532E+01 0.00000E+00
 -1      1124 6.66600E+01 2.25007E+01 0.00000E+00
 -1      1125 4.30350E+01 2.21922E+01 0.00000E+00
 -1      1126 3.40350E+01 2.21922E+01 0.00000E+00
 -1      1127 2.32170E+01 2.35871E+01 0.00000E+00
 -1      1128 7.03216E+01 2.48773E+01 0.00000E+00
 -1      1129 3.61500E+01 2.40200E+01 0.00000E+00
 -1      1130 3.91500E+01 2.40200E+01 0.00000E+00
 -1      1131 2.71500E+01 2.40200E+01 0.00000E+00
 -1      1132 2.51835E+01 2.38036E+01 0.00000E+00
 -1      1133 0.00000E+00 4.85250E+01 0.00000E+00
 -1      1134 0.00000E+00 4.55750E+01 0.00000E+00
 -1      1135 0.00000E+00 4.26250E+01 0.00000E+00
 -1      1136 0.00000E+00 3.96750E+01 0.00000E+00
 -1      1137 0.00000E+00 3.67250E+01 0.00000E+00
 -1      1138 0.00000E+00 3.38000E+01 0.00000E+00
 -1      1139 0.00000E+00 3.08750E+01 0.00000E+00
 -1      1140 0.00000E+00 2.79250E+01 0.00000E+00
 -1      1141 0.00000E+00 2.49750E+01 0.00000E+00
 -1      1142 0.00000E+00 2.20250E+01 0.00000E+00
 -1      1143 0.00000E+00 1.90750E+01 0.00000E+00
 -1      1144 0.00000E+00 1.61500E+01 0.00000E+00
 -1      1145 0.00000E+00 1.32250E+01 0.00000E+00
 -1      1146 0.00000E+00 1.02750E+01 0.00000E+00
 -1      1147 0.00000E+00 7.32500E+00 0.00000E+00
 -1      1148 0.00000E+00 4.37500E+00 0.00000E+00
 -1      1149 0.00000E+00 1.45000E+00 0.00000E+00
 -1      1150 1.57500E+00 5.00000E+01 0.00000E+00
 -1      1151 4.65000E+00 5.00000E+01 0.00000E+00
 -1      1152 7.65000E+00 5.00000E+01 0.00000E+00
 -1      1153 1.06500E+01 5.00000E+01 0.00000E+00
 -1      1154 1.36500E+01 5.00000E+01 0.00000E+00
 -1      1155 1.66500E+01 5.00000E+01 0.00000E+00
 -1      1156 1.96500E+01 5.00000E+01 0.00000E+00
 -1      1157 2.26500E+01 5.00000E+01 0.00000E+00
 -1      1158 2.56500E+01 5.00000E+01 0.00000E+00
 -1      1159 2.86500E+01 5.00000E+01 0.00000E+00
 -1      1160 3.16500E+01 5.00000E+01 0.00000E+00
 -1      1161 3.46500E+01 5.00000E+01 0.00000E+00
 -1      1162 3.76500E+01 5.00000E+01 0.00000E+00
 -1      1163 4.06500E+01 5.00000E+01 0.00000E+00
 -1      1164 4.36500E+01 5.00000E+01 0.00000E+00
 -1      1165 4.66500E+01 5.00000E+01 0.00000E+00
 -1      1166 4.96500E+01 5.00000E+01 0.00000E+00
 -1      1167 5.26500E+01 5.00000E+01 0.00000E+00
 -1      1168 5.56500E+01 5.00000E+01 0.00000E+00
 -1      1169 5.86500E+01 5.00000E+01 0.00000E+00
 -1      1170 6.16500E+01 5.00000E+01 0.00000E+00
 -1      1171 6.46500E+01 5.00000E+01 0.00000E+00
 -1      1172 6.76500E+01 5.00000E+01 0.00000E+00
 -1      1173 7.06500E+01 5.00000E+01 0.00000E+00
 -1      1174 7.36500E+01 5.00000E+01 0.00000E+00
 -1      1175 7.66500E+01 5.00000E+01 0.00000E+00
 -1      1176 7.96500E+01 5.00000E+01 0.00000E+00
 -1      1177 8.26500E+01 5.00000E+01 0.00000E+00
 -1      1178 8.56500E+01 5.00000E+01 0.00000E+00
 -1      1179 8.86500E+01 5.00000E+01 0.00000E+00
 -1      1180 9.16500E+01 5.00000E+01 0.00000E+00
 -1      1181 9.46500E+01 5.00000E+01 0.00000E+00
 -1      1182 9.76500E+01 5.00000E+01 0.00000E+00
 -1      1183 1.00650E+02 5.00000E+01 0.00000E+00
 -1      1184 1.03650E+02 5.00000E+01 0.00000E+00
 -1      1185 1.06650E+02 5.00000E+01 0.00000E+00
 -1      1186 1.09650E+02 5.00000E+01 0.00000E+00
 -1      1187 1.12650E+02 5.00000E+01 0.00000E+00
 -1      1188 1.15650E+02 5.00000E+01 0.00000E+00
 -1      1189 1.18650E+02 5.00000E+01 0.00000E+00
 -1      1190 1.21650E+02 5.00000E+01 0.00000E+00
 -1      1191 1.24650E+02 5.00000E+01 0.00000E+00
 -1      1192 1.27650E+02 5.00000E+01 0.00000E+00
 -1      1193 1.30650E+02 5.00000E+01 0.00000E+00
 -1      1194 1.33650E+02 5.00000E+01 0.00000E+00
 -1      1195 1.36650E+02 5.00000E+01 0.00000E+00
 -1      1196 1.39650E+02 5.00000E+01 0.00000E+00
 -1      1197 1.42650E+02 5.00000E+01 0.00000E+00
 -1      1198 1.45650E+02 5.00000E+01 0.00000E+00
 -1      1199 1.48575E+02 5.00000E+01 0.00000E+00
 -1      1200 1.57500E+00 0.00000E+00 0.00000E+00
 -1      1201 4.65000E+00 0.00000E+00 0.00000E+00
 -1      1202 7.65000E+00 0.00000E+00 0.00000E+00
 -1      1203 1.06500E+01 0.00000E+00 0.00000E+00
 -1      1204 1.36500E+01 0.00000E+00 0.00000E+00
 -1      1205 1.66500E+01 0.00000E+00 0.00000E+00
 -1      1206 1.96500E+01 0.00000E+00 0.00000E+00
 -1      1207 2.26500E+01 0.00000E+00 0.00000E+00
 -1      1208 2.56500E+01 0.00000E+00 0.00000E+00
 -1      1209 2.86500E+01 0.00000E+00 0.00000E+00
 -1      1210 3.16500E+01 0.00000E+00 0.00000E+00
 -1      1211 3.46500E+01 0.00000E+00 0.00000E+00
 -1      1212 3.76500E+01 0.00000E+00 0.00000E+00
 -1      1213 4.06500E+01 0.00000E+00 0.00000E+00
 -1      1214 4.36500E+01 0.00000E+00 0.00000E+00
 -1      1215 4.66500E+01 0.00000E+00 0.00000E+00
 -1      1216 4.96500E+01 0.00000E+00 0.00000E+00
 -1      1217 5.26500E+01 0.00000E+00 0.00000E+00
 -1      1218 5.56500E+01 0.00000E+00 0.00000E+00
 -1      1219 5.86500E+01 0.00000E+00 0.00000E+00
 -1      1220 6.16500E+01 0.00000E+00 0.00000E+00
 -1      1221 6.46500E+01 0.00000E+00 0.00000E+00
 -1      1222 6.76500E+01 0.00000E+00 0.00000E+00
 -1      1223 7.06500E+01 0.00000E+00 0.00000E+00
 -1      1224 7.36500E+01 0.00000E+00 0.00000E+00
 -1      1225 7.66500E+01 0.00000E+00 0.00000E+00
 -1      1226 7.96500E+01 0.00000E+00 0.00000E+00
 -1      1227 8.26500E+01 0.00000E+00 0.00000E+00
 -1      1228 8.56500E+01 0.00000E+00 0.00000E+00
 -1      1229 8.86500E+01 0.00000E+00 0.00000E+00
 -1      1230 9.16500E+01 0.00000E+00 0.00000E+00
 -1      1231 9.46500E+01 0.00000E+00 0.00000E+00
 -1      1232 9.76500E+01 0.00000E+00 0.00000E+00
 -1      1233 1.00650E+02 0.00000E+00 0.00000E+00
 -1      1234 1.03650E+02 0.00000E+00 0.00000E+00
 -1      1235 1.06650E+02 0.00000E+00 0.00000E+00
 -1      1236 1.09650E+02 0.00000E+00 0.00000E+00
 -1      1237 1.12650E+02 0.00000E+00 0.00000E+00
 -1      1238 1.15650E+02 0.00000E+00 0.00000E+00
 -1      1239 1.18650E+02 0.00000E+00 0.00000E+00
 -1      1240 1.21650E+02 0.00000E+00 0.00000E+00
 -1      1241 1.24650E+02 0.00000E+00 0.00000E+00
 -1      1242 1.27650E+02 0.00000E+00 0.00000E+00
 -1      1243 1.30650E+02 0.00000E+00 0.00000E+00
 -1      1244 1.33650E+02 0.00000E+00 0.00000E+00
 -1      1245 1.36650E+02 0.00000E+00 0.00000E+00
 -1      1246 1.39650E+02 0.00000E+00 0.00000E+00
 -1      1247 1.42650E+02 0.00000E+00 0.00000E+00
 -1      1248 1.45650E+02 0.00000E+00 0.00000E+00
 -1      1249 1.48575E+02 0.00000E+00 0.00000E+00
 -1      1250 1.50000E+02 1.47500E+00 0.00000E+00
 -1      1251 1.50000E+02 4.42500E+00 0.00000E+00
 -1      1252 1.50000E+02 7.37500E+00 0.00000E+00
 -1      1253 1.50000E+02 1.03250E+01 0.00000E+00
 -1      1254 1.50000E+02 1.32750E+01 0.00000E+00
 -1      1255 1.50000E+02 1.62000E+01 0.00000E+00
 -1      1256 1.50000E+02 1.91250E+01 0.00000E+00
 -1      1257 1.50000E+02 2.20750E+01 0.00000E+00
 -1      1258 1.50000E+02 2.50250E+01 0.00000E+00
 -1      1259 1.50000E+02 2.79750E+01 0.00000E+00
 -1      1260 1.50000E+02 3.09250E+01 0.00000E+00
 -1      1261 1.50000E+02 3.38500E+01 0.00000E+00
 -1      1262 1.50000E+02 3.67750E+01 0.00000E+00
 -1      1263 1.50000E+02 3.97250E+01 0.00000E+00
 -1      1264 1.50000E+02 4.26750E+01 0.00000E+00
 -1      1265 1.50000E+02 4.56250E+01 0.00000E+00
 -1      1266 1.50000E+02 4.85500E+01 0.00000E+00
 -1      1267 9.90432E+01 1.77638E+01 0.00000E+00
 -1      1268 9.87537E+01 1.63491E+01 0.00000E+00
 -1      1269 9.81677E+01 1.50018E+01 0.00000E+00
 -1      1270 9.73389E+01 1.38356E+01 0.00000E+00
 -1      1271 9.62457E+01 1.28289E+01 0.00000E+00
 -1      1272 9.49664E+01 1.20765E+01 0.00000E+00
 -1      1273 9.35713E+01 1.16137E+01 0.00000E+00
 -1      1274 9.20291E+01 1.14526E+01 0.00000E+00
 -1      1275 9.04688E+01 1.16397E+01 0.00000E+00
 -1      1276 8.90277E+01 1.21515E+01 0.00000E+00
 -1      1277 8.76360E+01 1.30417E+01 0.00000E+00
 -1      1278 8.65335E+01 1.41783E+01 0.00000E+00
 -1      1279 8.57754E+01 1.54050E+01 0.00000E+00
 -1      1280 8.52654E+01 1.68403E+01 0.00000E+00
 -1      1281 8.50777E+01 1.83673E+01 0.00000E+00
 -1      1282 8.52278E+01 1.98964E+01 0.00000E+00
 -1      1283 8.56998E+01 2.13383E+01 0.00000E+00
 -1      1284 8.64791E+01 2.26549E+01 0.00000E+00
 -1      1285 8.75079E+01 2.37554E+01 0.00000E+00
 -1      1286 8.87172E+01 2.45933E+01 0.00000E+00
 -1      1287 9.01101E+01 2.51703E+01 0.00000E+00
 -1      1288 9.15993E+01 2.54361E+01 0.00000E+00
 -1      1289 9.30845E+01 2.53796E+01 0.00000E+00
 -1      1290 9.44884E+01 2.50240E+01 0.00000E+00
 -1      1291 9.57954E+01 2.43833E+01 0.00000E+00
 -1      1292 9.69609E+01 2.34673E+01 0.00000E+00
 -1      1293 9.78449E+01 2.24190E+01 0.00000E+00
 -1      1294 9.84492E+01 2.13503E+01 0.00000E+00
 -1      1295 9.88465E+01 2.02348E+01 0.00000E+00
 -1      1296 9.90511E+01 1.90560E+01 0.00000E+00
 -1      1297 1.57500E+00 4.85250E+01 0.00000E+00
 -1      1298 1.29900E+00 4.48375E+01 0.00000E+00
 -1      1299 1.29900E+00 4.63125E+01 0.00000E+00
 -1      1300 1.29900E+00 4.18875E+01 0.00000E+00
 -1      1301 1.29900E+00 4.33625E+01 0.00000E+00
 -1      1302 2.59800E+00 4.41000E+01 0.00000E+00
 -1      1303 1.29900E+00 3.89375E+01 0.00000E+00
 -1      1304 1.29900E+00 4.04125E+01 0.00000E+00
 -1      1305 2.59800E+00 4.11500E+01 0.00000E+00
 -1      1306 1.29900E+00 3.59875E+01 0.00000E+00
 -1      1307 1.29900E+00 3.74625E+01 0.00000E+00
 -1      1308 2.59800E+00 3.82000E+01 0.00000E+00
 -1      1309 1.29900E+00 3.30875E+01 0.00000E+00
 -1      1310 1.29900E+00 3.45375E+01 0.00000E+00
 -1      1311 2.59800E+00 3.52750E+01 0.00000E+00
 -1      1312 1.29900E+00 3.01375E+01 0.00000E+00
 -1      1313 1.29900E+00 3.16125E+01 0.00000E+00
 -1      1314 2.59800E+00 3.23500E+01 0.00000E+00
 -1      1315 1.29900E+00 2.71875E+01 0.00000E+00
 -1      1316 1.29900E+00 2.86625E+01 0.00000E+00
 -1      1317 2.59800E+00 2.94000E+01 0.00000E+00
 -1      1318 1.29900E+00 2.42375E+01 0.00000E+00
 -1      1319 1.29900E+00 2.57125E+01 0.00000E+00
 -1      1320 2.59800E+00 2.64500E+01 0.00000E+00
 -1      1321 1.29900E+00 2.12875E+01 0.00000E+00
 -1      1322 1.29900E+00 2.27625E+01 0.00000E+00
 -1      1323 2.59800E+00 2.35000E+01 0.00000E+00
 -1      1324 1.29900E+00 1.83375E+01 0.00000E+00
 -1      1325 1.29900E+00 1.98125E+01 0.00000E+00
 -1      1326 2.59800E+00 2.05500E+01 0.00000E+00
 -1      1327 1.29900E+00 1.54375E+01 0.00000E+00
 -1      1328 1.29900E+00 1.68875E+01 0.00000E+00
 -1      1329 2.59800E+00 1.76250E+01 0.00000E+00
 -1      1330 1.29900E+00 1.24875E+01 0.00000E+00
 -1      1331 1.29900E+00 1.39625E+01 0.00000E+00
 -1      1332 2.59800E+00 1.47000E+01 0.00000E+00
 -1      1333 1.29900E+00 9.53750E+00 0.00000E+00
 -1      1334 1.29900E+00 1.10125E+01 0.00000E+00
 -1      1335 2.59800E+00 1.17500E+01 0.00000E+00
 -1      1336 1.29900E+00 6.58750E+00 0.00000E+00
 -1      1337 1.29900E+00 8.06250E+00 0.00000E+00
 -1      1338 2.59800E+00 8.80000E+00 0.00000E+00
 -1      1339 1.29900E+00 3.63750E+00 0.00000E+00
 -1      1340 1.29900E+00 5.11250E+00 0.00000E+00
 -1      1341 2.59800E+00 5.85000E+00 0.00000E+00
 -1      1342 1.43700E+00 1.09375E+00 0.00000E+00
 -1      1343 1.43700E+00 2.54375E+00 0.00000E+00
 -1      1344 2.73600E+00 3.28125E+00 0.00000E+00
 -1      1345 3.01200E+00 1.09375E+00 0.00000E+00
 -1      1346 3.90000E+00 4.87010E+01 0.00000E+00
 -1      1347 5.40000E+00 4.87010E+01 0.00000E+00
 -1      1348 6.90000E+00 4.87010E+01 0.00000E+00
 -1      1349 8.40000E+00 4.87010E+01 0.00000E+00
 -1      1350 6.15000E+00 4.74020E+01 0.00000E+00
 -1      1351 9.90000E+00 4.87010E+01 0.00000E+00
 -1      1352 1.14000E+01 4.87010E+01 0.00000E+00
 -1      1353 9.15000E+00 4.74020E+01 0.00000E+00
 -1      1354 1.29000E+01 4.87010E+01 0.00000E+00
 -1      1355 1.44000E+01 4.87010E+01 0.00000E+00
 -1      1356 1.21500E+01 4.74020E+01 0.00000E+00
 -1      1357 1.59000E+01 4.87010E+01 0.00000E+00
 -1      1358 1.74000E+01 4.87010E+01 0.00000E+00
 -1      1359 1.51500E+01 4.74020E+01 0.00000E+00
 -1      1360 1.89000E+01 4.87010E+01 0.00000E+00
 -1      1361 2.04000E+01 4.87010E+01 0.00000E+00
 -1      1362 1.81500E+01 4.74020E+01 0.00000E+00
 -1      1363 2.19000E+01 4.87010E+01 0.00000E+00
 -1      1364 2.34000E+01 4.87010E+01 0.00000E+00
 -1      1365 2.11500E+01 4.74020E+01 0.00000E+00
 -1      1366 2.49000E+01 4.87010E+01 0.00000E+00
 -1      1367 2.64000E+01 4.87010E+01 0.00000E+00
 -1      1368 2.41500E+01 4.74020E+01 0.00000E+00
 -1      1369 2.79000E+01 4.87010E+01 0.00000E+00
 -1      1370 2.94000E+01 4.87010E+01 0.00000E+00
 -1      1371 2.71500E+01 4.74020E+01 0.00000E+00
 -1      1372 3.09000E+01 4.87010E+01 0.00000E+00
 -1      1373 3.24000E+01 4.87010E+01 0.00000E+00
 -1      1374 3.01500E+01 4.74020E+01 0.00000E+00
 -1      1375 3.39000E+01 4.87010E+01 0.00000E+00
 -1      1376 3.54000E+01 4.87010E+01 0.00000E+00
 -1      1377 3.31500E+01 4.74020E+01 0.00000E+00
 -1      1378 3.69000E+01 4.87010E+01 0.00000E+00
 -1      1379 3.84000E+01 4.87010E+01 0.00000E+00
 -1      1380 3.61500E+01 4.74020E+01 0.00000E+00
 -1      1381 3.99000E+01 4.87010E+01 0.00000E+00
 -1      1382 4.14000E+01 4.87010E+01 0.00000E+00
 -1      1383 3.91500E+01 4.74020E+01 0.00000E+00
 -1      1384 4.29000E+01 4.87010E+01 0.00000E+00
 -1      1385 4.44000E+01 4.87010E+01 0.00000E+00
 -1      1386 4.21500E+01 4.74020E+01 0.00000E+00
 -1      1387 4.59000E+01 4.87010E+01 0.00000E+00
 -1      1388 4.74000E+01 4.87010E+01 0.00000E+00
 -1      1389 4.51500E+01 4.74020E+01 0.00000E+00
 -1      1390 4.89000E+01 4.87010E+01 0.00000E+00
 -1      1391 5.04000E+01 4.87010E+01 0.00000E+00
 -1      1392 4.81500E+01 4.74020E+01 0.00000E+00
 -1      1393 5.19000E+01 4.87010E+01 0.00000E+00
 -1      1394 5.34000E+01 4.87010E+01 0.00000E+00
 -1      1395 5.11500E+01 4.74020E+01 0.00000E+00
 -1      1396 5.49000E+01 4.87010E+01 0.00000E+00
 -1      1397 5.64000E+01 4.87010E+01 0.00000E+00
 -1      1398 5.41500E+01 4.74020E+01 0.00000E+00
 -1      1399 5.79000E+01 4.87010E+01 0.00000E+00
 -1      1400 5.94000E+01 4.87010E+01 0.00000E+00
 -1      1401 5.71500E+01 4.74020E+01 0.00000E+00
 -1      1402 6.09000E+01 4.87010E+01 0.00000E+00
 -1      1403 6.24000E+01 4.87010E+01 0.00000E+00
 -1      1404 6.01500E+01 4.74020E+01 0.00000E+00
 -1      1405 6.39000E+01 4.87010E+01 0.00000E+00
 -1      1406 6.54000E+01 4.87010E+01 0.00000E+00
 -1      1407 6.31500E+01 4.74020E+01 0.00000E+00
 -1      1408 6.69000E+01 4.87010E+01 0.00000E+00
 -1      1409 6.84000E+01 4.87010E+01 0.00000E+00
 -1      1410 6.61500E+01 4.74020E+01 0.00000E+00
 -1      1411 6.99000E+01 4.87010E+01 0.00000E+00
 -1      1412 7.14000E+01 4.87010E+01 0.00000E+00
 -1      1413 6.91500E+01 4.74020E+01 0.00000E+00
 -1      1414 7.29000E+01 4.87010E+01 0.00000E+00
 -1      1415 7.44000E+01 4.87010E+01 0.00000E+00
 -1      1416 7.21500E+01 4.74020E+01 0.00000E+00
 -1      1417 7.59000E+01 4.87010E+01 0.00000E+00
 -1      1418 7.74000E+01 4.87010E+01 0.00000E+00
 -1      1419 7.51500E+01 4.74020E+01 0.00000E+00
 -1      1420 7.89000E+01 4.87010E+01 0.00000E+00
 -1      1421 8.04000E+01 4.87010E+01 0.00000E+00
 -1      1422 7.81500E+01 4.74020E+01 0.00000E+00
 -1      1423 8.19000E+01 4.87010E+01 0.00000E+00
 -1      1424 8.34000E+01 4.87010E+01 0.00000E+00
 -1      1425 8.11500E+01 4.74020E+01 0.00000E+00
 -1      1426 8.49000E+01 4.87010E+01 0.00000E+00
 -1      1427 8.64000E+01 4.87010E+01 0.00000E+00
 -1      1428 8.41500E+01 4.74020E+01 0.00000E+00
 -1      1429 8.79000E+01 4.87010E+01 0.00000E+00
 -1      1430 8.94000E+01 4.87010E+01 0.00000E+00
 -1      1431 8.71500E+01 4.74020E+01 0.00000E+00
 -1      1432 9.09000E+01 4.87010E+01 0.00000E+00
 -1      1433 9.24000E+01 4.87010E+01 0.00000E+00
 -1      1434 9.01500E+01 4.74020E+01 0.00000E+00
 -1      1435 9.39000E+01 4.87010E+01 0.00000E+00
 -1      1436 9.54000E+01 4.87010E+01 0.00000E+00
 -1      1437 9.31500E+01 4.74020E+01 0.00000E+00
 -1      1438 9.69000E+01 4.87010E+01 0.00000E+00
 -1      1439 9.84000E+01 4.87010E+01 0.00000E+00
 -1      1440 9.61500E+01 4.74020E+01 0.00000E+00
 -1      1441 9.99000E+01 4.87010E+01 0.00000E+00
 -1      1442 1.01400E+02 4.87010E+01 0.00000E+00
 -1      1443 9.91500E+01 4.74020E+01 0.00000E+00
 -1      1444 1.02900E+02 4.87010E+01 0.00000E+00
 -1      1445 1.04400E+02 4.87010E+01 0.00000E+00
 -1      1446 1.02150E+02 4.74020E+01 0.00000E+00
 -1      1447 1.05900E+02 4.87010E+01 0.00000E+00
 -1      1448 1.07400E+02 4.87010E+01 0.00000E+00
 -1      1449 1.05150E+02 4.74020E+01 0.00000E+00
 -1      1450 1.08900E+02 4.87010E+01 0.00000E+00
 -1      1451 1.10400E+02 4.87010E+01 0.00000E+00
 -1      1452 1.08150E+02 4.74020E+01 0.00000E+00
 -1      1453 1.11900E+02 4.87010E+01 0.00000E+00
 -1      1454 1.13400E+02 4.87010E+01 0.00000E+00
 -1      1455 1.11150E+02 4.74020E+01 0.00000E+00
 -1      1456 1.14900E+02 4.87010E+01 0.00000E+00
 -1      1457 1.16400E+02 4.87010E+01 0.00000E+00
 -1      1458 1.14150E+02 4.74020E+01 0.00000E+00
 -1      1459 1.17900E+02 4.87010E+01 0.00000E+00
 -1      1460 1.19400E+02 4.87010E+01 0.00000E+00
 -1      1461 1.17150E+02 4.74020E+01 0.00000E+00
 -1      1462 1.20900E+02 4.87010E+01 0.00000E+00
 -1      1463 1.22400E+02 4.87010E+01 0.00000E+00
 -1      1464 1.20150E+02 4.74020E+01 0.00000E+00
 -1      1465 1.23900E+02 4.87010E+01 0.00000E+00
 -1      1466 1.25400E+02 4.87010E+01 0.00000E+00
 -1      1467 1.23150E+02 4.74020E+01 0.00000E+00
 -1      1468 1.26900E+02 4.87010E+01 0.00000E+00
 -1      1469 1.28400E+02 4.87010E+01 0.00000E+00
 -1      1470 1.26150E+02 4.74020E+01 0.00000E+00
 -1      1471 1.29900E+02 4.87010E+01 0.00000E+00
 -1      1472 1.31400E+02 4.87010E+01 0.00000E+00
 -1      1473 1.29150E+02 4.74020E+01 0.00000E+00
 -1      1474 1.32900E+02 4.87010E+01 0.00000E+00
 -1      1475 1.34400E+02 4.87010E+01 0.00000E+00
 -1      1476 1.32150E+02 4.74020E+01 0.00000E+00
 -1      1477 1.35900E+02 4.87010E+01 0.00000E+00
 -1      1478 1.37400E+02 4.87010E+01 0.00000E+00
 -1      1479 1.35150E+02 4.74020E+01 0.00000E+00
 -1      1480 1.38900E+02 4.87010E+01 0.00000E+00
 -1      1481 1.40400E+02 4.87010E+01 0.00000E+00
 -1      1482 1.38150E+02 4.74020E+01 0.00000E+00
 -1      1483 1.41900E+02 4.87010E+01 0.00000E+00
 -1      1484 1.43400E+02 4.87010E+01 0.00000E+00
 -1      1485 1.41150E+02 4.74020E+01 0.00000E+00
 -1      1486 1.44900E+02 4.87010E+01 0.00000E+00
 -1      1487 1.46400E+02 4.87010E+01 0.00000E+00
 -1      1488 1.44150E+02 4.74020E+01 0.00000E+00
 -1      1489 1.48575E+02 4.85500E+01 0.00000E+00
 -1      1490 1.47825E+02 4.72510E+01 0.00000E+00
 -1      1491 6.01200E+00 1.09375E+00 0.00000E+00
 -1      1492 4.51200E+00 1.09375E+00 0.00000E+00
 -1      1493 4.37400E+00 2.18750E+00 0.00000E+00
 -1      1494 9.01200E+00 1.09375E+00 0.00000E+00
 -1      1495 7.51200E+00 1.09375E+00 0.00000E+00
 -1      1496 7.37400E+00 2.18750E+00 0.00000E+00
 -1      1497 1.20120E+01 1.09375E+00 0.00000E+00
 -1      1498 1.05120E+01 1.09375E+00 0.00000E+00
 -1      1499 1.03740E+01 2.18750E+00 0.00000E+00
 -1      1500 1.50120E+01 1.09375E+00 0.00000E+00
 -1      1501 1.35120E+01 1.09375E+00 0.00000E+00
 -1      1502 1.33740E+01 2.18750E+00 0.00000E+00
 -1      1503 1.80120E+01 1.09375E+00 0.00000E+00
 -1      1504 1.65120E+01 1.09375E+00 0.00000E+00
 -1      1505 1.63740E+01 2.18750E+00 0.00000E+00
 -1      1506 2.10120E+01 1.09375E+00 0.00000E+00
 -1      1507 1.95120E+01 1.09375E+00 0.00000E+00
 -1      1508 1.93740E+01 2.18750E+00 0.00000E+00
 -1      1509 2.40120E+01 1.09375E+00 0.00000E+00
 -1      1510 2.25120E+01 1.09375E+00 0.00000E+00
 -1      1511 2.23740E+01 2.18750E+00 0.00000E+00
 -1      1512 2.70120E+01 1.09375E+00 0.00000E+00
 -1      1513 2.55120E+01 1.09375E+00 0.00000E+00
 -1      1514 2.53740E+01 2.18750E+00 0.00000E+00
 -1      1515 3.00120E+01 1.09375E+00 0.00000E+00
 -1      1516 2.85120E+01 1.09375E+00 0.00000E+00
 -1      1517 2.83740E+01 2.18750E+00 0.00000E+00
 -1      1518 3.30120E+01 1.09375E+00 0.00000E+00
 -1      1519 3.15120E+01 1.09375E+00 0.00000E+00
 -1      1520 3.13740E+01 2.18750E+00 0.00000E+00
 -1      1521 3.60120E+01 1.09375E+00 0.00000E+00
 -1      1522 3.45120E+01 1.09375E+00 0.00000E+00
 -1      1523 3.43740E+01 2.18750E+00 0.00000E+00
 -1      1524 3.90120E+01 1.09375E+00 0.00000E+00
 -1      1525 3.75120E+01 1.09375E+00 0.00000E+00
 -1      1526 3.73740E+01 2.18750E+00 0.00000E+00
 -1      1527 4.20120E+01 1.09375E+00 0.00000E+00
 -1      1528 4.05120E+01 1.09375E+00 0.00000E+00
 -1      1529 4.03740E+01 2.18750E+00 0.00000E+00
 -1      1530 4.50120E+01 1.09375E+00 0.00000E+00
 -1      1531 4.35120E+01 1.09375E+00 0.00000E+00
 -1      1532 4.33740E+01 2.18750E+00 0.00000E+00
 -1      1533 4.80120E+01 1.09375E+00 0.00000E+00
 -1      1534 4.65120E+01 1.09375E+00 0.00000E+00
 -1      1535 4.63740E+01 2.18750E+00 0.00000E+00
 -1      1536 5.10120E+01 1.09375E+00 0.00000E+00
 -1      1537 4.95120E+01 1.09375E+00 0.00000E+00
 -1      1538 4.93740E+01 2.18750E+00 0.00000E+00
 -1      1539 5.40120E+01 1.09375E+00 0.00000E+00
 -1      1540 5.25120E+01 1.09375E+00 0.00000E+00
 -1      1541 5.23740E+01 2.18750E+00 0.00000E+00
 -1      1542 5.70120E+01 1.09375E+00 0.00000E+00
 -1      1543 5.55120E+01 1.09375E+00 0.00000E+00
 -1      1544 5.53740E+01 2.18750E+00 0.00000E+00
 -1      1545 6.00120E+01 1.09375E+00 0.00000E+00
 -1      1546 5.85120E+01 1.09375E+00 0.00000E+00
 -1      1547 5.83740E+01 2.18750E+00 0.00000E+00
 -1      1548 6.30120E+01 1.09375E+00 0.00000E+00
 -1      1549 6.15120E+01 1.09375E+00 0.00000E+00
 -1      1550 6.13740E+01 2.18750E+00 0.00000E+00
 -1      1551 6.60120E+01 1.09375E+00 0.00000E+00
 -1      1552 6.45120E+01 1.09375E+00 0.00000E+00
 -1      1553 6.43740E+01 2.18750E+00 0.00000E+00
 -1      1554 6.90120E+01 1.09375E+00 0.00000E+00
 -1      1555 6.75120E+01 1.09375E+00 0.00000E+00
 -1      1556 6.73740E+01 2.18750E+00 0.00000E+00
 -1      1557 7.20120E+01 1.09375E+00 0.00000E+00
 -1      1558 7.05120E+01 1.09375E+00 0.00000E+00
 -1      1559 7.03740E+01 2.18750E+00 0.00000E+00
 -1      1560 7.50120E+01 1.09375E+00 0.00000E+00
 -1      1561 7.35120E+01 1.09375E+00 0.00000E+00
 -1      1562 7.33740E+01 2.18750E+00 0.00000E+00
 -1      1563 7.80120E+01 1.09375E+00 0.00000E+00
 -1      1564 7.65120E+01 1.09375E+00 0.00000E+00
 -1      1565 7.63740E+01 2.18750E+00 0.00000E+00
 -1      1566 8.10120E+01 1.09375E+00 0.00000E+00
 -1      1567 7.95120E+01 1.09375E+00 0.00000E+00
 -1      1568 7.93740E+01 2.18750E+00 0.00000E+00
 -1      1569 8.40120E+01 1.09375E+00 0.00000E+00
 -1      1570 8.25120E+01 1.09375E+00 0.00000E+00
 -1      1571 8.23740E+01 2.18750E+00 0.00000E+00
 -1      1572 8.70120E+01 1.09375E+00 0.00000E+00
 -1      1573 8.55120E+01 1.09375E+00 0.00000E+00
 -1      1574 8.53740E+01 2.18750E+00 0.00000E+00
 -1      1575 9.00120E+01 1.09375E+00 0.00000E+00
 -1      1576 8.85120E+01 1.09375E+00 0.00000E+00
 -1      1577 8.83740E+01 2.18750E+00 0.00000E+00
 -1      1578 9.30120E+01 1.09375E+00 0.00000E+00
 -1      1579 9.15120E+01 1.09375E+00 0.00000E+00
 -1      1580 9.13740E+01 2.18750E+00 0.00000E+00
 -1      1581 9.60120E+01 1.09375E+00 0.00000E+00
 -1      1582 9.45120E+01 1.09375E+00 0.00000E+00
 -1      1583 9.43740E+01 2.18750E+00 0.00000E+00
 -1      1584 9.90120E+01 1.09375E+00 0.00000E+00
 -1      1585 9.75120E+01 1.09375E+00 0.00000E+00
 -1      1586 9.73740E+01 2.18750E+00 0.00000E+00
 -1      1587 1.02012E+02 1.09375E+00 0.00000E+00
 -1      1588 1.00512E+02 1.09375E+00 0.00000E+00
 -1      1589 1.00374E+02 2.18750E+00 0.00000E+00
 -1      1590 1.05012E+02 1.09375E+00 0.00000E+00
 -1      1591 1.03512E+02 1.09375E+00 0.00000E+00
 -1      1592 1.03374E+02 2.18750E+00 0.00000E+00
 -1      1593 1.08012E+02 1.09375E+00 0.00000E+00
 -1      1594 1.06512E+02 1.09375E+00 0.00000E+00
 -1      1595 1.06374E+02 2.18750E+00 0.00000E+00
 -1      1596 1.11012E+02 1.09375E+00 0.00000E+00
 -1      1597 1.09512E+02 1.09375E+00 0.00000E+00
 -1      1598 1.09374E+02 2.18750E+00 0.00000E+00
 -1      1599 1.14012E+02 1.09375E+00 0.00000E+00
 -1      1600 1.12512E+02 1.09375E+00 0.00000E+00
 -1      1601 1.12374E+02 2.18750E+00 0.00000E+00
 -1      1602 1.17012E+02 1.09375E+00 0.00000E+00
 -1      1603 1.15512E+02 1.09375E+00 0.00000E+00
 -1      1604 1.15374E+02 2.18750E+00 0.00000E+00
 -1      1605 1.20012E+02 1.09375E+00 0.00000E+00
 -1      1606 1.18512E+02 1.09375E+00 0.00000E+00
 -1      1607 1.18374E+02 2.18750E+00 0.00000E+00
 -1      1608 1.23012E+02 1.09375E+00 0.00000E+00
 -1      1609 1.21512E+02 1.09375E+00 0.00000E+00
 -1      1610 1.21374E+02 2.18750E+00 0.00000E+00
 -1      1611 1.26012E+02 1.09375E+00 0.00000E+00
 -1      1612 1.24512E+02 1.09375E+00 0.00000E+00
 -1      1613 1.24374E+02 2.18750E+00 0.00000E+00
 -1      1614 1.29012E+02 1.09375E+00 0.00000E+00
 -1      1615 1.27512E+02 1.09375E+00 0.00000E+00
 -1      1616 1.27374E+02 2.18750E+00 0.00000E+00
 -1      1617 1.32012E+02 1.09375E+00 0.00000E+00
 -1      1618 1.30512E+02 1.09375E+00 0.00000E+00
 -1      1619 1.30374E+02 2.18750E+00 0.00000E+00
 -1      1620 1.35012E+02 1.09375E+00 0.00000E+00
 -1      1621 1.33512E+02 1.09375E+00 0.00000E+00
 -1      1622 1.33374E+02 2.18750E+00 0.00000E+00
 -1      1623 1.38012E+02 1.09375E+00 0.00000E+00
 -1      1624 1.36512E+02 1.09375E+00 0.00000E+00
 -1      1625 1.36374E+02 2.18750E+00 0.00000E+00
 -1      1626 1.41012E+02 1.09375E+00 0.00000E+00
 -1      1627 1.39512E+02 1.09375E+00 0.00000E+00
 -1      1628 1.39374E+02 2.18750E+00 0.00000E+00
 -1      1629 1.44012E+02 1.09375E+00 0.00000E+00
 -1      1630 1.42512E+02 1.09375E+00 0.00000E+00
 -1      1631 1.42374E+02 2.18750E+00 0.00000E+00
 -1      1632 1.47012E+02 1.09375E+00 0.00000E+00
 -1      1633 1.45512E+02 1.09375E+00 0.00000E+00
 -1      1634 1.45374E+02 2.18750E+00 0.00000E+00
 -1      1635 1.48575E+02 1.47500E+00 0.00000E+00
 -1      1636 1.48701E+02 5.16250E+00 0.00000E+00
 -1      1637 1.48701E+02 3.68750E+00 0.00000E+00
 -1      1638 1.48701E+02 8.11250E+00 0.00000E+00
 -1      1639 1.48701E+02 6.63750E+00 0.00000E+00
 -1      1640 1.47402E+02 5.90000E+00 0.00000E+00
 -1      1641 1.48701E+02 1.10625E+01 0.00000E+00
 -1      1642 1.48701E+02 9.58750E+00 0.00000E+00
 -1      1643 1.47402E+02 8.85000E+00 0.00000E+00
 -1      1644 1.48701E+02 1.40125E+01 0.00000E+00
 -1      1645 1.48701E+02 1.25375E+01 0.00000E+00
 -1      1646 1.47402E+02 1.18000E+01 0.00000E+00
 -1      1647 1.48701E+02 1.69125E+01 0.00000E+00
 -1      1648 1.48701E+02 1.54625E+01 0.00000E+00
 -1      1649 1.47402E+02 1.47250E+01 0.00000E+00
 -1      1650 1.48701E+02 1.98625E+01 0.00000E+00
 -1      1651 1.48701E+02 1.83875E+01 0.00000E+00
 -1      1652 1.47402E+02 1.76500E+01 0.00000E+00
 -1      1653 1.48701E+02 2.28125E+01 0.00000E+00
 -1      1654 1.48701E+02 2.13375E+01 0.00000E+00
 -1      1655 1.47402E+02 2.06000E+01 0.00000E+00
 -1      1656 1.48701E+02 2.57625E+01 0.00000E+00
 -1      1657 1.48701E+02 2.42875E+01 0.00000E+00
 -1      1658 1.47402E+02 2.35500E+01 0.00000E+00
 -1      1659 1.48701E+02 2.87125E+01 0.00000E+00
 -1      1660 1.48701E+02 2.72375E+01 0.00000E+00
 -1      1661 1.47402E+02 2.65000E+01 0.00000E+00
 -1      1662 1.48701E+02 3.16625E+01 0.00000E+00
 -1      1663 1.48701E+02 3.01875E+01 0.00000E+00
 -1      1664 1.47402E+02 2.94500E+01 0.00000E+00
 -1      1665 1.48701E+02 3.45625E+01 0.00000E+00
 -1      1666 1.48701E+02 3.31125E+01 0.00000E+00
 -1      1667 1.47402E+02 3.23750E+01 0.00000E+00
 -1      1668 1.48701E+02 3.75125E+01 0.00000E+00
 -1      1669 1.48701E+02 3.60375E+01 0.00000E+00
 -1      1670 1.47402E+02 3.53000E+01 0.00000E+00
 -1      1671 1.48701E+02 4.04625E+01 0.00000E+00
 -1      1672 1.48701E+02 3.89875E+01 0.00000E+00
 -1      1673 1.47402E+02 3.82500E+01 0.00000E+00
 -1      1674 1.48701E+02 4.34125E+01 0.00000E+00
 -1      1675 1.48701E+02 4.19375E+01 0.00000E+00
 -1      1676 1.47402E+02 4.12000E+01 0.00000E+00
 -1      1677 1.48263E+02 4.60692E+01 0.00000E+00
 -1      1678 1.48263E+02 4.45942E+01 0.00000E+00
 -1      1679 1.46964E+02 4.38568E+01 0.00000E+00
 -1      1680 1.46088E+02 4.62202E+01 0.00000E+00
 -1      1681 9.95732E+01 1.73654E+01 0.00000E+00
 -1      1682 9.96409E+01 1.80507E+01 0.00000E+00
 -1      1683 9.92594E+01 1.57938E+01 0.00000E+00
 -1      1684 9.94863E+01 1.65143E+01 0.00000E+00
 -1      1685 9.84874E+01 1.44105E+01 0.00000E+00
 -1      1686 9.88393E+01 1.50316E+01 0.00000E+00
 -1      1687 9.75305E+01 1.31906E+01 0.00000E+00
 -1      1688 9.80033E+01 1.37295E+01 0.00000E+00
 -1      1689 9.63223E+01 1.20796E+01 0.00000E+00
 -1      1690 9.69403E+01 1.25377E+01 0.00000E+00
 -1      1691 9.48932E+01 1.13720E+01 0.00000E+00
 -1      1692 9.55443E+01 1.16670E+01 0.00000E+00
 -1      1693 9.33410E+01 1.08989E+01 0.00000E+00
 -1      1694 9.40786E+01 1.10601E+01 0.00000E+00
 -1      1695 9.16272E+01 1.08526E+01 0.00000E+00
 -1      1696 9.24228E+01 1.08471E+01 0.00000E+00
 -1      1697 8.99521E+01 1.11401E+01 0.00000E+00
 -1      1698 9.07074E+01 1.09618E+01 0.00000E+00
 -1      1699 8.84424E+01 1.18065E+01 0.00000E+00
 -1      1700 8.91204E+01 1.14784E+01 0.00000E+00
 -1      1701 8.68079E+01 1.27411E+01 0.00000E+00
 -1      1702 8.75026E+01 1.21709E+01 0.00000E+00
 -1      1703 8.58711E+01 1.40997E+01 0.00000E+00
 -1      1704 8.62890E+01 1.35576E+01 0.00000E+00
 -1      1705 8.51017E+01 1.55000E+01 0.00000E+00
 -1      1706 8.54315E+01 1.48180E+01 0.00000E+00
 -1      1707 8.46282E+01 1.70829E+01 0.00000E+00
 -1      1708 8.48045E+01 1.63378E+01 0.00000E+00
 -1      1709 8.45097E+01 1.87468E+01 0.00000E+00
 -1      1710 8.45191E+01 1.79741E+01 0.00000E+00
 -1      1711 8.47133E+01 2.03951E+01 0.00000E+00
 -1      1712 8.45557E+01 1.96479E+01 0.00000E+00
 -1      1713 8.53399E+01 2.19147E+01 0.00000E+00
 -1      1714 8.50292E+01 2.12282E+01 0.00000E+00
 -1      1715 8.61949E+01 2.33537E+01 0.00000E+00
 -1      1716 8.57288E+01 2.27328E+01 0.00000E+00
 -1      1717 8.73863E+01 2.44557E+01 0.00000E+00
 -1      1718 8.68333E+01 2.39792E+01 0.00000E+00
 -1      1719 8.87702E+01 2.52684E+01 0.00000E+00
 -1      1720 8.81200E+01 2.49127E+01 0.00000E+00
 -1      1721 9.02724E+01 2.59802E+01 0.00000E+00
 -1      1722 8.95366E+01 2.57648E+01 0.00000E+00
 -1      1723 9.19299E+01 2.60683E+01 0.00000E+00
 -1      1724 9.11856E+01 2.60174E+01 0.00000E+00
 -1      1725 9.35323E+01 2.58873E+01 0.00000E+00
 -1      1726 9.27998E+01 2.59939E+01 0.00000E+00
 -1      1727 9.50317E+01 2.54768E+01 0.00000E+00
 -1      1728 9.43669E+01 2.57207E+01 0.00000E+00
 -1      1729 9.64128E+01 2.46645E+01 0.00000E+00
 -1      1730 9.57794E+01 2.50615E+01 0.00000E+00
 -1      1731 9.76453E+01 2.36435E+01 0.00000E+00
 -1      1732 9.71188E+01 2.41562E+01 0.00000E+00
 -1      1733 9.84961E+01 2.24807E+01 0.00000E+00
 -1      1734 9.81354E+01 2.30050E+01 0.00000E+00
 -1      1735 9.90191E+01 2.12848E+01 0.00000E+00
 -1      1736 9.87743E+01 2.18230E+01 0.00000E+00
 -1      1737 9.94783E+01 2.00947E+01 0.00000E+00
 -1      1738 9.93273E+01 2.06680E+01 0.00000E+00
 -1      1739 9.95824E+01 1.88920E+01 0.00000E+00
 -1      1740 9.95304E+01 1.94933E+01 0.00000E+00
 -1      1741 1.00036E+02 1.99329E+01 0.00000E+00
 -1      1742 9.76323E+01 1.24073E+01 0.00000E+00
 -1      1743 9.87066E+01 1.37412E+01 0.00000E+00
 -1      1744 1.48437E+02 2.56875E+00 0.00000E+00
 -1      1745 1.47138E+02 3.30625E+00 0.00000E+00
 -1      1746 1.00118E+02 1.67978E+01 0.00000E+00
 -1      1747 9.96109E+01 1.51845E+01 0.00000E+00
 -1      1748 1.00146E+02 1.84902E+01 0.00000E+00
 -1      1749 9.62642E+01 1.13417E+01 0.00000E+00
 -1      1750 9.46717E+01 1.06173E+01 0.00000E+00
 -1      1751 9.29388E+01 1.02536E+01 0.00000E+00
 -1      1752 9.11007E+01 1.03110E+01 0.00000E+00
 -1      1753 8.93491E+01 1.07585E+01 0.00000E+00
 -1      1754 8.75775E+01 1.14612E+01 0.00000E+00
 -1      1755 8.61188E+01 1.26420E+01 0.00000E+00
 -1      1756 8.51604E+01 1.41768E+01 0.00000E+00
 -1      1757 8.44237E+01 1.57329E+01 0.00000E+00
 -1      1758 8.40173E+01 1.74619E+01 0.00000E+00
 -1      1759 8.39543E+01 1.92541E+01 0.00000E+00
 -1      1760 8.43163E+01 2.09883E+01 0.00000E+00
 -1      1761 8.50212E+01 2.26394E+01 0.00000E+00
 -1      1762 8.60484E+01 2.40829E+01 0.00000E+00
 -1      1763 8.74204E+01 2.51654E+01 0.00000E+00
 -1      1764 8.89206E+01 2.61187E+01 0.00000E+00
 -1      1765 9.06003E+01 2.66523E+01 0.00000E+00
 -1      1766 9.23834E+01 2.66150E+01 0.00000E+00
 -1      1767 9.40879E+01 2.63738E+01 0.00000E+00
 -1      1768 9.56703E+01 2.57919E+01 0.00000E+00
 -1      1769 9.71242E+01 2.48683E+01 0.00000E+00
 -1      1770 9.83204E+01 2.37216E+01 0.00000E+00
 -1      1771 9.90888E+01 2.24255E+01 0.00000E+00
 -1      1772 9.96753E+01 2.11510E+01 0.00000E+00
 -1      1773 2.87400E+00 4.77875E+01 0.00000E+00
 -1      1774 3.89700E+00 4.04125E+01 0.00000E+00
 -1      1775 3.89700E+00 4.18875E+01 0.00000E+00
 -1      1776 3.89700E+00 4.33625E+01 0.00000E+00
 -1      1777 3.89700E+00 4.48375E+01 0.00000E+00
 -1      1778 5.19600E+00 4.26250E+01 0.00000E+00
 -1      1779 3.89700E+00 3.45500E+01 0.00000E+00
 -1      1780 3.89700E+00 3.60000E+01 0.00000E+00
 -1      1781 3.89700E+00 3.16000E+01 0.00000E+00
 -1      1782 3.89700E+00 3.30750E+01 0.00000E+00
 -1      1783 5.19600E+00 3.38000E+01 0.00000E+00
 -1      1784 3.89700E+00 2.86500E+01 0.00000E+00
 -1      1785 3.89700E+00 3.01250E+01 0.00000E+00
 -1      1786 5.19600E+00 3.08500E+01 0.00000E+00
 -1      1787 3.89700E+00 2.57000E+01 0.00000E+00
 -1      1788 3.89700E+00 2.71750E+01 0.00000E+00
 -1      1789 5.19600E+00 2.79000E+01 0.00000E+00
 -1      1790 3.89700E+00 2.27500E+01 0.00000E+00
 -1      1791 3.89700E+00 2.42250E+01 0.00000E+00
 -1      1792 5.19600E+00 2.49500E+01 0.00000E+00
 -1      1793 3.89700E+00 1.98000E+01 0.00000E+00
 -1      1794 3.89700E+00 2.12750E+01 0.00000E+00
 -1      1795 5.19600E+00 2.20000E+01 0.00000E+00
 -1      1796 3.89700E+00 1.69000E+01 0.00000E+00
 -1      1797 3.89700E+00 1.83500E+01 0.00000E+00
 -1      1798 5.19600E+00 1.90750E+01 0.00000E+00
 -1      1799 3.89700E+00 1.39500E+01 0.00000E+00
 -1      1800 3.89700E+00 1.54250E+01 0.00000E+00
 -1      1801 5.19600E+00 1.61500E+01 0.00000E+00
 -1      1802 3.89700E+00 1.10000E+01 0.00000E+00
 -1      1803 3.89700E+00 1.24750E+01 0.00000E+00
 -1      1804 5.19600E+00 1.32000E+01 0.00000E+00
 -1      1805 3.89700E+00 8.05000E+00 0.00000E+00
 -1      1806 3.89700E+00 9.52500E+00 0.00000E+00
 -1      1807 5.19600E+00 1.02500E+01 0.00000E+00
 -1      1808 3.89700E+00 5.10000E+00 0.00000E+00
 -1      1809 3.89700E+00 6.57500E+00 0.00000E+00
 -1      1810 5.19600E+00 7.30000E+00 0.00000E+00
 -1      1811 4.20450E+00 3.09687E+00 0.00000E+00
 -1      1812 4.06650E+00 4.19063E+00 0.00000E+00
 -1      1813 5.36550E+00 4.91563E+00 0.00000E+00
 -1      1814 5.70450E+00 3.09687E+00 0.00000E+00
 -1      1815 3.62400E+00 4.64885E+01 0.00000E+00
 -1      1816 8.70450E+00 3.09687E+00 0.00000E+00
 -1      1817 7.20450E+00 3.09687E+00 0.00000E+00
 -1      1818 7.03500E+00 4.00625E+00 0.00000E+00
 -1      1819 4.92300E+00 4.57510E+01 0.00000E+00
 -1      1820 8.40000E+00 4.61030E+01 0.00000E+00
 -1      1821 9.90000E+00 4.61030E+01 0.00000E+00
 -1      1822 1.14000E+01 4.61030E+01 0.00000E+00
 -1      1823 1.29000E+01 4.61030E+01 0.00000E+00
 -1      1824 1.06500E+01 4.48040E+01 0.00000E+00
 -1      1825 1.44000E+01 4.61030E+01 0.00000E+00
 -1      1826 1.59000E+01 4.61030E+01 0.00000E+00
 -1      1827 1.36500E+01 4.48040E+01 0.00000E+00
 -1      1828 1.74000E+01 4.61030E+01 0.00000E+00
 -1      1829 1.89000E+01 4.61030E+01 0.00000E+00
 -1      1830 1.66500E+01 4.48040E+01 0.00000E+00
 -1      1831 2.04000E+01 4.61030E+01 0.00000E+00
 -1      1832 2.19000E+01 4.61030E+01 0.00000E+00
 -1      1833 1.96500E+01 4.48040E+01 0.00000E+00
 -1      1834 2.34000E+01 4.61030E+01 0.00000E+00
 -1      1835 2.49000E+01 4.61030E+01 0.00000E+00
 -1      1836 2.26500E+01 4.48040E+01 0.00000E+00
 -1      1837 2.64000E+01 4.61030E+01 0.00000E+00
 -1      1838 2.79000E+01 4.61030E+01 0.00000E+00
 -1      1839 2.56500E+01 4.48040E+01 0.00000E+00
 -1      1840 2.94000E+01 4.61030E+01 0.00000E+00
 -1      1841 3.09000E+01 4.61030E+01 0.00000E+00
 -1      1842 2.86500E+01 4.48040E+01 0.00000E+00
 -1      1843 3.24000E+01 4.61030E+01 0.00000E+00
 -1      1844 3.39000E+01 4.61030E+01 0.00000E+00
 -1      1845 3.16500E+01 4.48040E+01 0.00000E+00
 -1      1846 3.54000E+01 4.61030E+01 0.00000E+00
 -1      1847 3.69000E+01 4.61030E+01 0.00000E+00
 -1      1848 3.46500E+01 4.48040E+01 0.00000E+00
 -1      1849 3.84000E+01 4.61030E+01 0.00000E+00
 -1      1850 3.99000E+01 4.61030E+01 0.00000E+00
 -1      1851 3.76500E+01 4.48040E+01 0.00000E+00
 -1      1852 4.14000E+01 4.61030E+01 0.00000E+00
 -1      1853 4.29000E+01 4.61030E+01 0.00000E+00
 -1      1854 4.06500E+01 4.48040E+01 0.00000E+00
 -1      1855 4.44000E+01 4.61030E+01 0.00000E+00
 -1      1856 4.59000E+01 4.61030E+01 0.00000E+00
 -1      1857 4.36500E+01 4.48040E+01 0.00000E+00
 -1      1858 4.74000E+01 4.61030E+01 0.00000E+00
 -1      1859 4.89000E+01 4.61030E+01 0.00000E+00
 -1      1860 4.66500E+01 4.48040E+01 0.00000E+00
 -1      1861 5.04000E+01 4.61030E+01 0.00000E+00
 -1      1862 5.19000E+01 4.61030E+01 0.00000E+00
 -1      1863 4.96500E+01 4.48040E+01 0.00000E+00
 -1      1864 5.34000E+01 4.61030E+01 0.00000E+00
 -1      1865 5.49000E+01 4.61030E+01 0.00000E+00
 -1      1866 5.26500E+01 4.48040E+01 0.00000E+00
 -1      1867 5.64000E+01 4.61030E+01 0.00000E+00
 -1      1868 5.79000E+01 4.61030E+01 0.00000E+00
 -1      1869 5.56500E+01 4.48040E+01 0.00000E+00
 -1      1870 5.94000E+01 4.61030E+01 0.00000E+00
 -1      1871 6.09000E+01 4.61030E+01 0.00000E+00
 -1      1872 5.86500E+01 4.48040E+01 0.00000E+00
 -1      1873 6.24000E+01 4.61030E+01 0.00000E+00
 -1      1874 6.39000E+01 4.61030E+01 0.00000E+00
 -1      1875 6.16500E+01 4.48040E+01 0.00000E+00
 -1      1876 6.54000E+01 4.61030E+01 0.00000E+00
 -1      1877 6.69000E+01 4.61030E+01 0.00000E+00
 -1      1878 6.46500E+01 4.48040E+01 0.00000E+00
 -1      1879 6.84000E+01 4.61030E+01 0.00000E+00
 -1      1880 6.99000E+01 4.61030E+01 0.00000E+00
 -1      1881 6.76500E+01 4.48040E+01 0.00000E+00
 -1      1882 7.14000E+01 4.61030E+01 0.00000E+00
 -1      1883 7.29000E+01 4.61030E+01 0.00000E+00
 -1      1884 7.06500E+01 4.48040E+01 0.00000E+00
 -1      1885 7.44000E+01 4.61030E+01 0.00000E+00
 -1      1886 7.59000E+01 4.61030E+01 0.00000E+00
 -1      1887 7.36500E+01 4.48040E+01 0.00000E+00
 -1      1888 7.74000E+01 4.61030E+01 0.00000E+00
 -1      1889 7.89000E+01 4.61030E+01 0.00000E+00
 -1      1890 7.66500E+01 4.48040E+01 0.00000E+00
 -1      1891 8.04000E+01 4.61030E+01 0.00000E+00
 -1      1892 8.19000E+01 4.61030E+01 0.00000E+00
 -1      1893 7.96500E+01 4.48040E+01 0.00000E+00
 -1      1894 8.34000E+01 4.61030E+01 0.00000E+00
 -1      1895 8.49000E+01 4.61030E+01 0.00000E+00
 -1      1896 8.26500E+01 4.48040E+01 0.00000E+00
 -1      1897 8.64000E+01 4.61030E+01 0.00000E+00
 -1      1898 8.79000E+01 4.61030E+01 0.00000E+00
 -1      1899 8.56500E+01 4.48040E+01 0.00000E+00
 -1      1900 8.94000E+01 4.61030E+01 0.00000E+00
 -1      1901 9.09000E+01 4.61030E+01 0.00000E+00
 -1      1902 8.86500E+01 4.48040E+01 0.00000E+00
 -1      1903 9.24000E+01 4.61030E+01 0.00000E+00
 -1      1904 9.39000E+01 4.61030E+01 0.00000E+00
 -1      1905 9.16500E+01 4.48040E+01 0.00000E+00
 -1      1906 9.54000E+01 4.61030E+01 0.00000E+00
 -1      1907 9.69000E+01 4.61030E+01 0.00000E+00
 -1      1908 9.46500E+01 4.48040E+01 0.00000E+00
 -1      1909 9.84000E+01 4.61030E+01 0.00000E+00
 -1      1910 9.99000E+01 4.61030E+01 0.00000E+00
 -1      1911 9.76500E+01 4.48040E+01 0.00000E+00
 -1      1912 1.01400E+02 4.61030E+01 0.00000E+00
 -1      1913 1.02900E+02 4.61030E+01 0.00000E+00
 -1      1914 1.00650E+02 4.48040E+01 0.00000E+00
 -1      1915 1.04400E+02 4.61030E+01 0.00000E+00
 -1      1916 1.05900E+02 4.61030E+01 0.00000E+00
 -1      1917 1.03650E+02 4.48040E+01 0.00000E+00
 -1      1918 1.07400E+02 4.61030E+01 0.00000E+00
 -1      1919 1.08900E+02 4.61030E+01 0.00000E+00
 -1      1920 1.06650E+02 4.48040E+01 0.00000E+00
 -1      1921 1.10400E+02 4.61030E+01 0.00000E+00
 -1      1922 1.11900E+02 4.61030E+01 0.00000E+00
 -1      1923 1.09650E+02 4.48040E+01 0.00000E+00
 -1      1924 1.13400E+02 4.61030E+01 0.00000E+00
 -1      1925 1.14900E+02 4.61030E+01 0.00000E+00
 -1      1926 1.12650E+02 4.48040E+01 0.00000E+00
 -1      1927 1.16400E+02 4.61030E+01 0.00000E+00
 -1      1928 1.17900E+02 4.61030E+01 0.00000E+00
 -1      1929 1.15650E+02 4.48040E+01 0.00000E+00
 -1      1930 1.19400E+02 4.61030E+01 0.00000E+00
 -1      1931 1.20900E+02 4.61030E+01 0.00000E+00
 -1      1932 1.18650E+02 4.48040E+01 0.00000E+00
 -1      1933 1.22400E+02 4.61030E+01 0.00000E+00
 -1      1934 1.23900E+02 4.61030E+01 0.00000E+00
 -1      1935 1.21650E+02 4.48040E+01 0.00000E+00
 -1      1936 1.25400E+02 4.61030E+01 0.00000E+00
 -1      1937 1.26900E+02 4.61030E+01 0.00000E+00
 -1      1938 1.24650E+02 4.48040E+01 0.00000E+00
 -1      1939 1.28400E+02 4.61030E+01 0.00000E+00
 -1      1940 1.29900E+02 4.61030E+01 0.00000E+00
 -1      1941 1.27650E+02 4.48040E+01 0.00000E+00
 -1      1942 1.31400E+02 4.61030E+01 0.00000E+00
 -1      1943 1.32900E+02 4.61030E+01 0.00000E+00
 -1      1944 1.30650E+02 4.48040E+01 0.00000E+00
 -1      1945 1.34400E+02 4.61030E+01 0.00000E+00
 -1      1946 1.35900E+02 4.61030E+01 0.00000E+00
 -1      1947 1.33650E+02 4.48040E+01 0.00000E+00
 -1      1948 1.37400E+02 4.61030E+01 0.00000E+00
 -1      1949 1.38900E+02 4.61030E+01 0.00000E+00
 -1      1950 1.36650E+02 4.48040E+01 0.00000E+00
 -1      1951 1.40400E+02 4.61030E+01 0.00000E+00
 -1      1952 1.41900E+02 4.61030E+01 0.00000E+00
 -1      1953 1.39650E+02 4.48040E+01 0.00000E+00
 -1      1954 1.43244E+02 4.61616E+01 0.00000E+00
 -1      1955 1.44744E+02 4.61616E+01 0.00000E+00
 -1      1956 1.45182E+02 4.49799E+01 0.00000E+00
 -1      1957 1.42494E+02 4.48626E+01 0.00000E+00
 -1      1958 1.17045E+01 3.09687E+00 0.00000E+00
 -1      1959 1.02045E+01 3.09687E+00 0.00000E+00
 -1      1960 1.00350E+01 4.00625E+00 0.00000E+00
 -1      1961 1.47045E+01 3.09687E+00 0.00000E+00
 -1      1962 1.32045E+01 3.09687E+00 0.00000E+00
 -1      1963 1.30350E+01 4.00625E+00 0.00000E+00
 -1      1964 1.77045E+01 3.09687E+00 0.00000E+00
 -1      1965 1.62045E+01 3.09687E+00 0.00000E+00
 -1      1966 1.60350E+01 4.00625E+00 0.00000E+00
 -1      1967 2.07045E+01 3.09687E+00 0.00000E+00
 -1      1968 1.92045E+01 3.09687E+00 0.00000E+00
 -1      1969 1.90350E+01 4.00625E+00 0.00000E+00
 -1      1970 2.37045E+01 3.09687E+00 0.00000E+00
 -1      1971 2.22045E+01 3.09687E+00 0.00000E+00
 -1      1972 2.20350E+01 4.00625E+00 0.00000E+00
 -1      1973 2.67045E+01 3.09687E+00 0.00000E+00
 -1      1974 2.52045E+01 3.09687E+00 0.00000E+00
 -1      1975 2.50350E+01 4.00625E+00 0.00000E+00
 -1      1976 2.97045E+01 3.09687E+00 0.00000E+00
 -1      1977 2.82045E+01 3.09687E+00 0.00000E+00
 -1      1978 2.80350E+01 4.00625E+00 0.00000E+00
 -1      1979 3.27045E+01 3.09687E+00 0.00000E+00
 -1      1980 3.12045E+01 3.09687E+00 0.00000E+00
 -1      1981 3.10350E+01 4.00625E+00 0.00000E+00
 -1      1982 3.57045E+01 3.09687E+00 0.00000E+00
 -1      1983 3.42045E+01 3.09687E+00 0.00000E+00
 -1      1984 3.40350E+01 4.00625E+00 0.00000E+00
 -1      1985 3.87045E+01 3.09687E+00 0.00000E+00
 -1      1986 3.72045E+01 3.09687E+00 0.00000E+00
 -1      1987 3.70350E+01 4.00625E+00 0.00000E+00
 -1      1988 4.17045E+01 3.09687E+00 0.00000E+00
 -1      1989 4.02045E+01 3.09687E+00 0.00000E+00
 -1      1990 4.00350E+01 4.00625E+00 0.00000E+00
 -1      1991 4.47045E+01 3.09687E+00 0.00000E+00
 -1      1992 4.32045E+01 3.09687E+00 0.00000E+00
 -1      1993 4.30350E+01 4.00625E+00 0.00000E+00
 -1      1994 4.77045E+01 3.09687E+00 0.00000E+00
 -1      1995 4.62045E+01 3.09687E+00 0.00000E+00
 -1      1996 4.60350E+01 4.00625E+00 0.00000E+00
 -1      1997 5.07045E+01 3.09687E+00 0.00000E+00
 -1      1998 4.92045E+01 3.09687E+00 0.00000E+00
 -1      1999 4.90350E+01 4.00625E+00 0.00000E+00
 -1      2000 5.37045E+01 3.09687E+00 0.00000E+00
 -1      2001 5.22045E+01 3.09687E+00 0.00000E+00
 -1      2002 5.20350E+01 4.00625E+00 0.00000E+00
 -1      2003 5.67045E+01 3.09687E+00 0.00000E+00
 -1      2004 5.52045E+01 3.09687E+00 0.00000E+00
 -1      2005 5.50350E+01 4.00625E+00 0.00000E+00
 -1      2006 5.97045E+01 3.09687E+00 0.00000E+00
 -1      2007 5.82045E+01 3.09687E+00 0.00000E+00
 -1      2008 5.80350E+01 4.00625E+00 0.00000E+00
 -1      2009 6.27045E+01 3.09687E+00 0.00000E+00
 -1      2010 6.12045E+01 3.09687E+00 0.00000E+00
 -1      2011 6.10350E+01 4.00625E+00 0.00000E+00
 -1      2012 6.57045E+01 3.09687E+00 0.00000E+00
 -1      2013 6.42045E+01 3.09687E+00 0.00000E+00
 -1      2014 6.40350E+01 4.00625E+00 0.00000E+00
 -1      2015 6.87045E+01 3.09687E+00 0.00000E+00
 -1      2016 6.72045E+01 3.09687E+00 0.00000E+00
 -1      2017 6.70350E+01 4.00625E+00 0.00000E+00
 -1      2018 7.17045E+01 3.09687E+00 0.00000E+00
 -1      2019 7.02045E+01 3.09687E+00 0.00000E+00
 -1      2020 7.00350E+01 4.00625E+00 0.00000E+00
 -1      2021 7.47045E+01 3.09687E+00 0.00000E+00
 -1      2022 7.32045E+01 3.09687E+00 0.00000E+00
 -1      2023 7.30350E+01 4.00625E+00 0.00000E+00
 -1      2024 7.77045E+01 3.09687E+00 0.00000E+00
 -1      2025 7.62045E+01 3.09687E+00 0.00000E+00
 -1      2026 7.60350E+01 4.00625E+00 0.00000E+00
 -1      2027 8.07045E+01 3.09687E+00 0.00000E+00
 -1      2028 7.92045E+01 3.09687E+00 0.00000E+00
 -1      2029 7.90350E+01 4.00625E+00 0.00000E+00
 -1      2030 8.37045E+01 3.09687E+00 0.00000E+00
 -1      2031 8.22045E+01 3.09687E+00 0.00000E+00
 -1      2032 8.20350E+01 4.00625E+00 0.00000E+00
 -1      2033 8.67045E+01 3.09687E+00 0.00000E+00
 -1      2034 8.52045E+01 3.09687E+00 0.00000E+00
 -1      2035 8.50350E+01 4.00625E+00 0.00000E+00
 -1      2036 8.97045E+01 3.09687E+00 0.00000E+00
 -1      2037 8.82045E+01 3.09687E+00 0.00000E+00
 -1      2038 8.80350E+01 4.00625E+00 0.00000E+00
 -1      2039 9.27045E+01 3.09687E+00 0.00000E+00
 -1      2040 9.12045E+01 3.09687E+00 0.00000E+00
 -1      2041 9.10350E+01 4.00625E+00 0.00000E+00
 -1      2042 9.57045E+01 3.09687E+00 0.00000E+00
 -1      2043 9.42045E+01 3.09687E+00 0.00000E+00
 -1      2044 9.40350E+01 4.00625E+00 0.00000E+00
 -1      2045 9.87045E+01 3.09687E+00 0.00000E+00
 -1      2046 9.72045E+01 3.09687E+00 0.00000E+00
 -1      2047 9.70350E+01 4.00625E+00 0.00000E+00
 -1      2048 1.01704E+02 3.09687E+00 0.00000E+00
 -1      2049 1.00204E+02 3.09687E+00 0.00000E+00
 -1      2050 1.00035E+02 4.00625E+00 0.00000E+00
 -1      2051 1.04704E+02 3.09687E+00 0.00000E+00
 -1      2052 1.03204E+02 3.09687E+00 0.00000E+00
 -1      2053 1.03035E+02 4.00625E+00 0.00000E+00
 -1      2054 1.07704E+02 3.09687E+00 0.00000E+00
 -1      2055 1.06204E+02 3.09687E+00 0.00000E+00
 -1      2056 1.06035E+02 4.00625E+00 0.00000E+00
 -1      2057 1.10704E+02 3.09687E+00 0.00000E+00
 -1      2058 1.09204E+02 3.09687E+00 0.00000E+00
 -1      2059 1.09035E+02 4.00625E+00 0.00000E+00
 -1      2060 1.13704E+02 3.09687E+00 0.00000E+00
 -1      2061 1.12204E+02 3.09687E+00 0.00000E+00
 -1      2062 1.12035E+02 4.00625E+00 0.00000E+00
 -1      2063 1.16704E+02 3.09687E+00 0.00000E+00
 -1      2064 1.15204E+02 3.09687E+00 0.00000E+00
 -1      2065 1.15035E+02 4.00625E+00 0.00000E+00
 -1      2066 1.19704E+02 3.09687E+00 0.00000E+00
 -1      2067 1.18204E+02 3.09687E+00 0.00000E+00
 -1      2068 1.18035E+02 4.00625E+00 0.00000E+00
 -1      2069 1.22704E+02 3.09687E+00 0.00000E+00
 -1      2070 1.21204E+02 3.09687E+00 0.00000E+00
 -1      2071 1.21035E+02 4.00625E+00 0.00000E+00
 -1      2072 1.25704E+02 3.09687E+00 0.00000E+00
 -1      2073 1.24204E+02 3.09687E+00 0.00000E+00
 -1      2074 1.24035E+02 4.00625E+00 0.00000E+00
 -1      2075 1.28704E+02 3.09687E+00 0.00000E+00
 -1      2076 1.27204E+02 3.09687E+00 0.00000E+00
 -1      2077 1.27035E+02 4.00625E+00 0.00000E+00
 -1      2078 1.31704E+02 3.09687E+00 0.00000E+00
 -1      2079 1.30204E+02 3.09687E+00 0.00000E+00
 -1      2080 1.30035E+02 4.00625E+00 0.00000E+00
 -1      2081 1.34704E+02 3.09687E+00 0.00000E+00
 -1      2082 1.33204E+02 3.09687E+00 0.00000E+00
 -1      2083 1.33035E+02 4.00625E+00 0.00000E+00
 -1      2084 1.37704E+02 3.09687E+00 0.00000E+00
 -1      2085 1.36204E+02 3.09687E+00 0.00000E+00
 -1      2086 1.36035E+02 4.00625E+00 0.00000E+00
 -1      2087 1.40704E+02 3.09687E+00 0.00000E+00
 -1      2088 1.39204E+02 3.09687E+00 0.00000E+00
 -1      2089 1.39035E+02 4.00625E+00 0.00000E+00
 -1      2090 1.43704E+02 3.09687E+00 0.00000E+00
 -1      2091 1.42204E+02 3.09687E+00 0.00000E+00
 -1      2092 1.42035E+02 4.00625E+00 0.00000E+00
 -1      2093 1.46171E+02 3.20156E+00 0.00000E+00
 -1      2094 1.44671E+02 3.20156E+00 0.00000E+00
 -1      2095 1.44502E+02 4.11094E+00 0.00000E+00
 -1      2096 1.46435E+02 4.32031E+00 0.00000E+00
 -1      2097 1.46103E+02 1.25375E+01 0.00000E+00
 -1      2098 1.46103E+02 1.10625E+01 0.00000E+00
 -1      2099 1.46103E+02 9.58750E+00 0.00000E+00
 -1      2100 1.46103E+02 8.11250E+00 0.00000E+00
 -1      2101 1.44804E+02 1.03250E+01 0.00000E+00
 -1      2102 1.46269E+02 6.95391E+00 0.00000E+00
 -1      2103 1.46269E+02 5.47891E+00 0.00000E+00
 -1      2104 1.45302E+02 5.37422E+00 0.00000E+00
 -1      2105 1.44970E+02 7.69141E+00 0.00000E+00
 -1      2106 1.46103E+02 1.54375E+01 0.00000E+00
 -1      2107 1.46103E+02 1.39875E+01 0.00000E+00
 -1      2108 1.44804E+02 1.32500E+01 0.00000E+00
 -1      2109 1.46103E+02 1.83875E+01 0.00000E+00
 -1      2110 1.46103E+02 1.69125E+01 0.00000E+00
 -1      2111 1.44804E+02 1.61750E+01 0.00000E+00
 -1      2112 1.46103E+02 2.13375E+01 0.00000E+00
 -1      2113 1.46103E+02 1.98625E+01 0.00000E+00
 -1      2114 1.44804E+02 1.91250E+01 0.00000E+00
 -1      2115 1.46103E+02 2.42875E+01 0.00000E+00
 -1      2116 1.46103E+02 2.28125E+01 0.00000E+00
 -1      2117 1.44804E+02 2.20750E+01 0.00000E+00
 -1      2118 1.46103E+02 2.72375E+01 0.00000E+00
 -1      2119 1.46103E+02 2.57625E+01 0.00000E+00
 -1      2120 1.44804E+02 2.50250E+01 0.00000E+00
 -1      2121 1.46103E+02 3.01875E+01 0.00000E+00
 -1      2122 1.46103E+02 2.87125E+01 0.00000E+00
 -1      2123 1.44804E+02 2.79750E+01 0.00000E+00
 -1      2124 1.46103E+02 3.30875E+01 0.00000E+00
 -1      2125 1.46103E+02 3.16375E+01 0.00000E+00
 -1      2126 1.44804E+02 3.09000E+01 0.00000E+00
 -1      2127 1.46103E+02 3.60375E+01 0.00000E+00
 -1      2128 1.46103E+02 3.45625E+01 0.00000E+00
 -1      2129 1.44804E+02 3.38250E+01 0.00000E+00
 -1      2130 1.46103E+02 3.89875E+01 0.00000E+00
 -1      2131 1.46103E+02 3.75125E+01 0.00000E+00
 -1      2132 1.44804E+02 3.67750E+01 0.00000E+00
 -1      2133 1.46103E+02 4.19375E+01 0.00000E+00
 -1      2134 1.46103E+02 4.04625E+01 0.00000E+00
 -1      2135 1.44804E+02 3.97250E+01 0.00000E+00
 -1      2136 1.00005E+02 1.44703E+01 0.00000E+00
 -1      2137 1.00425E+02 1.52326E+01 0.00000E+00
 -1      2138 1.00774E+02 1.81112E+01 0.00000E+00
 -1      2139 1.00716E+02 1.89525E+01 0.00000E+00
 -1      2140 1.00838E+02 1.62943E+01 0.00000E+00
 -1      2141 1.00925E+02 1.71455E+01 0.00000E+00
 -1      2142 9.90952E+01 1.29524E+01 0.00000E+00
 -1      2143 9.95793E+01 1.36334E+01 0.00000E+00
 -1      2144 1.00664E+02 1.95539E+01 0.00000E+00
 -1      2145 1.00612E+02 2.01552E+01 0.00000E+00
 -1      2146 1.01292E+02 1.91749E+01 0.00000E+00
 -1      2147 3.89700E+00 3.74688E+01 0.00000E+00
 -1      2148 3.89700E+00 3.89437E+01 0.00000E+00
 -1      2149 5.19600E+00 3.96813E+01 0.00000E+00
 -1      2150 5.19600E+00 3.67438E+01 0.00000E+00
 -1      2151 9.45261E+01 9.77787E+00 0.00000E+00
 -1      2152 9.53407E+01 1.00897E+01 0.00000E+00
 -1      2153 9.25256E+01 9.41332E+00 0.00000E+00
 -1      2154 9.34439E+01 9.46515E+00 0.00000E+00
 -1      2155 9.05594E+01 9.68041E+00 0.00000E+00
 -1      2156 9.14793E+01 9.57120E+00 0.00000E+00
 -1      2157 8.86890E+01 1.03273E+01 0.00000E+00
 -1      2158 8.95208E+01 9.98901E+00 0.00000E+00
 -1      2159 8.68582E+01 1.10000E+01 0.00000E+00
 -1      2160 8.77980E+01 1.06357E+01 0.00000E+00
 -1      2161 8.52771E+01 1.26802E+01 0.00000E+00
 -1      2162 8.57960E+01 1.18637E+01 0.00000E+00
 -1      2163 8.43521E+01 1.41758E+01 0.00000E+00
 -1      2164 8.47916E+01 1.34575E+01 0.00000E+00
 -1      2165 8.35458E+01 1.58931E+01 0.00000E+00
 -1      2166 8.38430E+01 1.50553E+01 0.00000E+00
 -1      2167 8.32363E+01 1.78185E+01 0.00000E+00
 -1      2168 8.33454E+01 1.69274E+01 0.00000E+00
 -1      2169 8.32045E+01 1.97442E+01 0.00000E+00
 -1      2170 8.31585E+01 1.88431E+01 0.00000E+00
 -1      2171 8.36725E+01 2.17089E+01 0.00000E+00
 -1      2172 8.33565E+01 2.08758E+01 0.00000E+00
 -1      2173 8.45925E+01 2.33447E+01 0.00000E+00
 -1      2174 8.42036E+01 2.25266E+01 0.00000E+00
 -1      2175 8.58260E+01 2.49484E+01 0.00000E+00
 -1      2176 8.51877E+01 2.43229E+01 0.00000E+00
 -1      2177 8.74003E+01 2.60151E+01 0.00000E+00
 -1      2178 8.66667E+01 2.55581E+01 0.00000E+00
 -1      2179 8.89333E+01 2.70078E+01 0.00000E+00
 -1      2180 8.81668E+01 2.65115E+01 0.00000E+00
 -1      2181 8.74131E+01 2.69042E+01 0.00000E+00
 -1      2182 9.10306E+01 2.73184E+01 0.00000E+00
 -1      2183 9.01173E+01 2.72812E+01 0.00000E+00
 -1      2184 9.28879E+01 2.73904E+01 0.00000E+00
 -1      2185 9.20181E+01 2.74649E+01 0.00000E+00
 -1      2186 9.45572E+01 2.70571E+01 0.00000E+00
 -1      2187 9.37226E+01 2.72238E+01 0.00000E+00
 -1      2188 9.33572E+01 2.80737E+01 0.00000E+00
 -1      2189 9.63792E+01 2.61874E+01 0.00000E+00
 -1      2190 9.56314E+01 2.66027E+01 0.00000E+00
 -1      2191 9.79259E+01 2.52375E+01 0.00000E+00
 -1      2192 9.72198E+01 2.57458E+01 0.00000E+00
 -1      2193 9.90417E+01 2.37680E+01 0.00000E+00
 -1      2194 9.85516E+01 2.44065E+01 0.00000E+00
 -1      2195 9.98581E+01 2.23633E+01 0.00000E+00
 -1      2196 9.95798E+01 2.30209E+01 0.00000E+00
 -1      2197 1.00475E+02 2.11297E+01 0.00000E+00
 -1      2198 1.00166E+02 2.17465E+01 0.00000E+00
 -1      2199 1.00657E+02 2.23420E+01 0.00000E+00
 -1      2200 9.78491E+01 1.16181E+01 0.00000E+00
 -1      2201 9.84393E+01 1.22711E+01 0.00000E+00
 -1      2202 9.61985E+01 1.05259E+01 0.00000E+00
 -1      2203 9.69765E+01 1.09385E+01 0.00000E+00
 -1      2204 9.93120E+01 1.21633E+01 0.00000E+00
 -1      2205 6.42300E+00 4.57510E+01 0.00000E+00
 -1      2206 9.60529E+01 9.68646E+00 0.00000E+00
 -1      2207 7.17300E+00 4.44520E+01 0.00000E+00
 -1      2208 1.01233E+02 1.55802E+01 0.00000E+00
 -1      2209 1.01495E+02 1.76077E+01 0.00000E+00
 -1      2210 1.45665E+02 4.31193E+01 0.00000E+00
 -1      2211 1.00394E+02 1.36815E+01 0.00000E+00
 -1      2212 1.01103E+02 2.07507E+01 0.00000E+00
 -1      2213 9.98111E+01 2.37058E+01 0.00000E+00
 -1      2214 9.86473E+01 2.52839E+01 0.00000E+00
 -1      2215 9.52661E+01 2.74526E+01 0.00000E+00
 -1      2216 8.93636E+01 2.76740E+01 0.00000E+00
 -1      2217 8.86098E+01 2.80667E+01 0.00000E+00
 -1      2218 8.97938E+01 2.83401E+01 0.00000E+00
 -1      2219 8.58060E+01 2.57981E+01 0.00000E+00
 -1      2220 8.43701E+01 2.42101E+01 0.00000E+00
 -1      2221 8.32438E+01 2.24142E+01 0.00000E+00
 -1      2222 8.25607E+01 2.04648E+01 0.00000E+00
 -1      2223 8.24866E+01 1.83086E+01 0.00000E+00
 -1      2224 8.27648E+01 1.62498E+01 0.00000E+00
 -1      2225 8.34743E+01 1.43360E+01 0.00000E+00
 -1      2226 8.44688E+01 1.26792E+01 0.00000E+00
 -1      2227 8.60164E+01 1.10382E+01 0.00000E+00
 -1      2228 8.62369E+01 1.02127E+01 0.00000E+00
 -1      2229 8.51746E+01 1.10764E+01 0.00000E+00
 -1      2230 8.79697E+01 9.86619E+00 0.00000E+00
 -1      2231 8.98994E+01 9.24924E+00 0.00000E+00
 -1      2232 9.41129E+01 8.93759E+00 0.00000E+00
 -1      2233 9.19844E+01 8.78275E+00 0.00000E+00
 -1      2234 9.15351E+01 2.80939E+01 0.00000E+00
 -1      2235 9.71810E+01 2.65566E+01 0.00000E+00
 -1      2236 9.77834E+01 1.08023E+01 0.00000E+00
 -1      2237 1.07850E+01 5.30525E+00 0.00000E+00
 -1      2238 9.28500E+00 5.30525E+00 0.00000E+00
 -1      2239 6.49500E+00 3.01125E+01 0.00000E+00
 -1      2240 6.49500E+00 3.15875E+01 0.00000E+00
 -1      2241 6.49500E+00 3.30625E+01 0.00000E+00
 -1      2242 6.49500E+00 3.45375E+01 0.00000E+00
 -1      2243 7.79400E+00 3.23250E+01 0.00000E+00
 -1      2244 6.49500E+00 2.42125E+01 0.00000E+00
 -1      2245 6.49500E+00 2.56875E+01 0.00000E+00
 -1      2246 6.49500E+00 2.12625E+01 0.00000E+00
 -1      2247 6.49500E+00 2.27375E+01 0.00000E+00
 -1      2248 7.79400E+00 2.34750E+01 0.00000E+00
 -1      2249 6.49500E+00 1.83625E+01 0.00000E+00
 -1      2250 6.49500E+00 1.98125E+01 0.00000E+00
 -1      2251 7.79400E+00 2.05500E+01 0.00000E+00
 -1      2252 6.49500E+00 1.54125E+01 0.00000E+00
 -1      2253 6.49500E+00 1.68875E+01 0.00000E+00
 -1      2254 7.79400E+00 1.76250E+01 0.00000E+00
 -1      2255 6.49500E+00 1.24625E+01 0.00000E+00
 -1      2256 6.49500E+00 1.39375E+01 0.00000E+00
 -1      2257 7.79400E+00 1.46750E+01 0.00000E+00
 -1      2258 6.49500E+00 9.51250E+00 0.00000E+00
 -1      2259 6.49500E+00 1.09875E+01 0.00000E+00
 -1      2260 7.79400E+00 1.17250E+01 0.00000E+00
 -1      2261 1.02083E+02 1.89404E+01 0.00000E+00
 -1      2262 1.02031E+02 1.95418E+01 0.00000E+00
 -1      2263 1.37850E+01 5.30525E+00 0.00000E+00
 -1      2264 1.22850E+01 5.30525E+00 0.00000E+00
 -1      2265 1.15350E+01 6.60425E+00 0.00000E+00
 -1      2266 9.90000E+00 4.35050E+01 0.00000E+00
 -1      2267 1.14000E+01 4.35050E+01 0.00000E+00
 -1      2268 9.59557E+01 8.81599E+00 0.00000E+00
 -1      2269 9.68135E+01 9.25214E+00 0.00000E+00
 -1      2270 1.29000E+01 4.35050E+01 0.00000E+00
 -1      2271 1.44000E+01 4.35050E+01 0.00000E+00
 -1      2272 1.21500E+01 4.22060E+01 0.00000E+00
 -1      2273 1.59000E+01 4.35050E+01 0.00000E+00
 -1      2274 1.74000E+01 4.35050E+01 0.00000E+00
 -1      2275 1.51500E+01 4.22060E+01 0.00000E+00
 -1      2276 1.89000E+01 4.35050E+01 0.00000E+00
 -1      2277 2.04000E+01 4.35050E+01 0.00000E+00
 -1      2278 1.81500E+01 4.22060E+01 0.00000E+00
 -1      2279 2.19000E+01 4.35050E+01 0.00000E+00
 -1      2280 2.34000E+01 4.35050E+01 0.00000E+00
 -1      2281 2.11500E+01 4.22060E+01 0.00000E+00
 -1      2282 2.49000E+01 4.35050E+01 0.00000E+00
 -1      2283 2.64000E+01 4.35050E+01 0.00000E+00
 -1      2284 2.41500E+01 4.22060E+01 0.00000E+00
 -1      2285 2.79000E+01 4.35050E+01 0.00000E+00
 -1      2286 2.94000E+01 4.35050E+01 0.00000E+00
 -1      2287 2.71500E+01 4.22060E+01 0.00000E+00
 -1      2288 3.09000E+01 4.35050E+01 0.00000E+00
 -1      2289 3.24000E+01 4.35050E+01 0.00000E+00
 -1      2290 3.01500E+01 4.22060E+01 0.00000E+00
 -1      2291 3.39000E+01 4.35050E+01 0.00000E+00
 -1      2292 3.54000E+01 4.35050E+01 0.00000E+00
 -1      2293 3.31500E+01 4.22060E+01 0.00000E+00
 -1      2294 3.69000E+01 4.35050E+01 0.00000E+00
 -1      2295 3.84000E+01 4.35050E+01 0.00000E+00
 -1      2296 3.61500E+01 4.22060E+01 0.00000E+00
 -1      2297 3.99000E+01 4.35050E+01 0.00000E+00
 -1      2298 4.14000E+01 4.35050E+01 0.00000E+00
 -1      2299 3.91500E+01 4.22060E+01 0.00000E+00
 -1      2300 4.29000E+01 4.35050E+01 0.00000E+00
 -1      2301 4.44000E+01 4.35050E+01 0.00000E+00
 -1      2302 4.21500E+01 4.22060E+01 0.00000E+00
 -1      2303 4.59000E+01 4.35050E+01 0.00000E+00
 -1      2304 4.74000E+01 4.35050E+01 0.00000E+00
 -1      2305 4.51500E+01 4.22060E+01 0.00000E+00
 -1      2306 4.89000E+01 4.35050E+01 0.00000E+00
 -1      2307 5.04000E+01 4.35050E+01 0.00000E+00
 -1      2308 4.81500E+01 4.22060E+01 0.00000E+00
 -1      2309 5.19000E+01 4.35050E+01 0.00000E+00
 -1      2310 5.34000E+01 4.35050E+01 0.00000E+00
 -1      2311 5.11500E+01 4.22060E+01 0.00000E+00
 -1      2312 5.49000E+01 4.35050E+01 0.00000E+00
 -1      2313 5.64000E+01 4.35050E+01 0.00000E+00
 -1      2314 5.41500E+01 4.22060E+01 0.00000E+00
 -1      2315 5.79000E+01 4.35050E+01 0.00000E+00
 -1      2316 5.94000E+01 4.35050E+01 0.00000E+00
 -1      2317 5.71500E+01 4.22060E+01 0.00000E+00
 -1      2318 6.09000E+01 4.35050E+01 0.00000E+00
 -1      2319 6.24000E+01 4.35050E+01 0.00000E+00
 -1      2320 6.01500E+01 4.22060E+01 0.00000E+00
 -1      2321 6.39000E+01 4.35050E+01 0.00000E+00
 -1      2322 6.54000E+01 4.35050E+01 0.00000E+00
 -1      2323 6.31500E+01 4.22060E+01 0.00000E+00
 -1      2324 6.69000E+01 4.35050E+01 0.00000E+00
 -1      2325 6.84000E+01 4.35050E+01 0.00000E+00
 -1      2326 6.61500E+01 4.22060E+01 0.00000E+00
 -1      2327 6.99000E+01 4.35050E+01 0.00000E+00
 -1      2328 7.14000E+01 4.35050E+01 0.00000E+00
 -1      2329 6.91500E+01 4.22060E+01 0.00000E+00
 -1      2330 7.29000E+01 4.35050E+01 0.00000E+00
 -1      2331 7.44000E+01 4.35050E+01 0.00000E+00
 -1      2332 7.21500E+01 4.22060E+01 0.00000E+00
 -1      2333 7.59000E+01 4.35050E+01 0.00000E+00
 -1      2334 7.74000E+01 4.35050E+01 0.00000E+00
 -1      2335 7.51500E+01 4.22060E+01 0.00000E+00
 -1      2336 7.89000E+01 4.35050E+01 0.00000E+00
 -1      2337 8.04000E+01 4.35050E+01 0.00000E+00
 -1      2338 7.81500E+01 4.22060E+01 0.00000E+00
 -1      2339 8.19000E+01 4.35050E+01 0.00000E+00
 -1      2340 8.34000E+01 4.35050E+01 0.00000E+00
 -1      2341 8.11500E+01 4.22060E+01 0.00000E+00
 -1      2342 8.49000E+01 4.35050E+01 0.00000E+00
 -1      2343 8.64000E+01 4.35050E+01 0.00000E+00
 -1      2344 8.41500E+01 4.22060E+01 0.00000E+00
 -1      2345 8.79000E+01 4.35050E+01 0.00000E+00
 -1      2346 8.94000E+01 4.35050E+01 0.00000E+00
 -1      2347 8.71500E+01 4.22060E+01 0.00000E+00
 -1      2348 9.09000E+01 4.35050E+01 0.00000E+00
 -1      2349 9.24000E+01 4.35050E+01 0.00000E+00
 -1      2350 9.01500E+01 4.22060E+01 0.00000E+00
 -1      2351 9.39000E+01 4.35050E+01 0.00000E+00
 -1      2352 9.54000E+01 4.35050E+01 0.00000E+00
 -1      2353 9.31500E+01 4.22060E+01 0.00000E+00
 -1      2354 9.69000E+01 4.35050E+01 0.00000E+00
 -1      2355 9.84000E+01 4.35050E+01 0.00000E+00
 -1      2356 9.61500E+01 4.22060E+01 0.00000E+00
 -1      2357 9.99000E+01 4.35050E+01 0.00000E+00
 -1      2358 1.01400E+02 4.35050E+01 0.00000E+00
 -1      2359 9.91500E+01 4.22060E+01 0.00000E+00
 -1      2360 1.02900E+02 4.35050E+01 0.00000E+00
 -1      2361 1.04400E+02 4.35050E+01 0.00000E+00
 -1      2362 1.02150E+02 4.22060E+01 0.00000E+00
 -1      2363 1.05900E+02 4.35050E+01 0.00000E+00
 -1      2364 1.07400E+02 4.35050E+01 0.00000E+00
 -1      2365 1.05150E+02 4.22060E+01 0.00000E+00
 -1      2366 1.08900E+02 4.35050E+01 0.00000E+00
 -1      2367 1.10400E+02 4.35050E+01 0.00000E+00
 -1      2368 1.08150E+02 4.22060E+01 0.00000E+00
 -1      2369 1.11900E+02 4.35050E+01 0.00000E+00
 -1      2370 1.13400E+02 4.35050E+01 0.00000E+00
 -1      2371 1.11150E+02 4.22060E+01 0.00000E+00
 -1      2372 1.14900E+02 4.35050E+01 0.00000E+00
 -1      2373 1.16400E+02 4.35050E+01 0.00000E+00
 -1      2374 1.14150E+02 4.22060E+01 0.00000E+00
 -1      2375 1.17900E+02 4.35050E+01 0.00000E+00
 -1      2376 1.19400E+02 4.35050E+01 0.00000E+00
 -1      2377 1.17150E+02 4.22060E+01 0.00000E+00
 -1      2378 1.20900E+02 4.35050E+01 0.00000E+00
 -1      2379 1.22400E+02 4.35050E+01 0.00000E+00
 -1      2380 1.20150E+02 4.22060E+01 0.00000E+00
 -1      2381 1.23900E+02 4.35050E+01 0.00000E+00
 -1      2382 1.25400E+02 4.35050E+01 0.00000E+00
 -1      2383 1.23150E+02 4.22060E+01 0.00000E+00
 -1      2384 1.26900E+02 4.35050E+01 0.00000E+00
 -1      2385 1.28400E+02 4.35050E+01 0.00000E+00
 -1      2386 1.26150E+02 4.22060E+01 0.00000E+00
 -1      2387 1.29900E+02 4.35050E+01 0.00000E+00
 -1      2388 1.31400E+02 4.35050E+01 0.00000E+00
 -1      2389 1.29150E+02 4.22060E+01 0.00000E+00
 -1      2390 1.32900E+02 4.35050E+01 0.00000E+00
 -1      2391 1.34400E+02 4.35050E+01 0.00000E+00
 -1      2392 1.32150E+02 4.22060E+01 0.00000E+00
 -1      2393 1.35900E+02 4.35050E+01 0.00000E+00
 -1      2394 1.37400E+02 4.35050E+01 0.00000E+00
 -1      2395 1.35150E+02 4.22060E+01 0.00000E+00
 -1      2396 1.38900E+02 4.35050E+01 0.00000E+00
 -1      2397 1.40400E+02 4.35050E+01 0.00000E+00
 -1      2398 1.38150E+02 4.22060E+01 0.00000E+00
 -1      2399 1.97850E+01 5.30525E+00 0.00000E+00
 -1      2400 1.82850E+01 5.30525E+00 0.00000E+00
 -1      2401 2.27850E+01 5.30525E+00 0.00000E+00
 -1      2402 2.12850E+01 5.30525E+00 0.00000E+00
 -1      2403 2.05350E+01 6.60425E+00 0.00000E+00
 -1      2404 2.57850E+01 5.30525E+00 0.00000E+00
 -1      2405 2.42850E+01 5.30525E+00 0.00000E+00
 -1      2406 2.35350E+01 6.60425E+00 0.00000E+00
 -1      2407 2.87850E+01 5.30525E+00 0.00000E+00
 -1      2408 2.72850E+01 5.30525E+00 0.00000E+00
 -1      2409 2.65350E+01 6.60425E+00 0.00000E+00
 -1      2410 3.17850E+01 5.30525E+00 0.00000E+00
 -1      2411 3.02850E+01 5.30525E+00 0.00000E+00
 -1      2412 2.95350E+01 6.60425E+00 0.00000E+00
 -1      2413 3.47850E+01 5.30525E+00 0.00000E+00
 -1      2414 3.32850E+01 5.30525E+00 0.00000E+00
 -1      2415 3.25350E+01 6.60425E+00 0.00000E+00
 -1      2416 3.77850E+01 5.30525E+00 0.00000E+00
 -1      2417 3.62850E+01 5.30525E+00 0.00000E+00
 -1      2418 3.55350E+01 6.60425E+00 0.00000E+00
 -1      2419 4.07850E+01 5.30525E+00 0.00000E+00
 -1      2420 3.92850E+01 5.30525E+00 0.00000E+00
 -1      2421 3.85350E+01 6.60425E+00 0.00000E+00
 -1      2422 4.37850E+01 5.30525E+00 0.00000E+00
 -1      2423 4.22850E+01 5.30525E+00 0.00000E+00
 -1      2424 4.15350E+01 6.60425E+00 0.00000E+00
 -1      2425 4.67850E+01 5.30525E+00 0.00000E+00
 -1      2426 4.52850E+01 5.30525E+00 0.00000E+00
 -1      2427 4.45350E+01 6.60425E+00 0.00000E+00
 -1      2428 4.97850E+01 5.30525E+00 0.00000E+00
 -1      2429 4.82850E+01 5.30525E+00 0.00000E+00
 -1      2430 4.75350E+01 6.60425E+00 0.00000E+00
 -1      2431 5.27850E+01 5.30525E+00 0.00000E+00
 -1      2432 5.12850E+01 5.30525E+00 0.00000E+00
 -1      2433 5.05350E+01 6.60425E+00 0.00000E+00
 -1      2434 5.57850E+01 5.30525E+00 0.00000E+00
 -1      2435 5.42850E+01 5.30525E+00 0.00000E+00
 -1      2436 5.35350E+01 6.60425E+00 0.00000E+00
 -1      2437 5.87850E+01 5.30525E+00 0.00000E+00
 -1      2438 5.72850E+01 5.30525E+00 0.00000E+00
 -1      2439 5.65350E+01 6.60425E+00 0.00000E+00
 -1      2440 6.17850E+01 5.30525E+00 0.00000E+00
 -1      2441 6.02850E+01 5.30525E+00 0.00000E+00
 -1      2442 5.95350E+01 6.60425E+00 0.00000E+00
 -1      2443 6.47850E+01 5.30525E+00 0.00000E+00
 -1      2444 6.32850E+01 5.30525E+00 0.00000E+00
 -1      2445 6.25350E+01 6.60425E+00 0.00000E+00
 -1      2446 6.77850E+01 5.30525E+00 0.00000E+00
 -1      2447 6.62850E+01 5.30525E+00 0.00000E+00
 -1      2448 6.55350E+01 6.60425E+00 0.00000E+00
 -1      2449 7.07850E+01 5.30525E+00 0.00000E+00
 -1      2450 6.92850E+01 5.30525E+00 0.00000E+00
 -1      2451 6.85350E+01 6.60425E+00 0.00000E+00
 -1      2452 7.37850E+01 5.30525E+00 0.00000E+00
 -1      2453 7.22850E+01 5.30525E+00 0.00000E+00
 -1      2454 7.15350E+01 6.60425E+00 0.00000E+00
 -1      2455 7.67850E+01 5.30525E+00 0.00000E+00
 -1      2456 7.52850E+01 5.30525E+00 0.00000E+00
 -1      2457 7.45350E+01 6.60425E+00 0.00000E+00
 -1      2458 7.97850E+01 5.30525E+00 0.00000E+00
 -1      2459 7.82850E+01 5.30525E+00 0.00000E+00
 -1      2460 7.75350E+01 6.60425E+00 0.00000E+00
 -1      2461 8.27850E+01 5.30525E+00 0.00000E+00
 -1      2462 8.12850E+01 5.30525E+00 0.00000E+00
 -1      2463 8.05350E+01 6.60425E+00 0.00000E+00
 -1      2464 8.57850E+01 5.30525E+00 0.00000E+00
 -1      2465 8.42850E+01 5.30525E+00 0.00000E+00
 -1      2466 8.35350E+01 6.60425E+00 0.00000E+00
 -1      2467 8.87850E+01 5.30525E+00 0.00000E+00
 -1      2468 8.72850E+01 5.30525E+00 0.00000E+00
 -1      2469 8.65350E+01 6.60425E+00 0.00000E+00
 -1      2470 9.17850E+01 4.94759E+00 0.00000E+00
 -1      2471 9.02850E+01 4.94759E+00 0.00000E+00
 -1      2472 9.47850E+01 5.03137E+00 0.00000E+00
 -1      2473 9.32850E+01 5.03137E+00 0.00000E+00
 -1      2474 9.77850E+01 5.19895E+00 0.00000E+00
 -1      2475 9.62850E+01 5.19895E+00 0.00000E+00
 -1      2476 1.00785E+02 5.19895E+00 0.00000E+00
 -1      2477 9.92850E+01 5.19895E+00 0.00000E+00
 -1      2478 9.85350E+01 6.39164E+00 0.00000E+00
 -1      2479 1.03785E+02 5.19895E+00 0.00000E+00
 -1      2480 1.02285E+02 5.19895E+00 0.00000E+00
 -1      2481 1.01535E+02 6.39164E+00 0.00000E+00
 -1      2482 1.06785E+02 5.19895E+00 0.00000E+00
 -1      2483 1.05285E+02 5.19895E+00 0.00000E+00
 -1      2484 1.04535E+02 6.39164E+00 0.00000E+00
 -1      2485 1.09785E+02 5.19895E+00 0.00000E+00
 -1      2486 1.08285E+02 5.19895E+00 0.00000E+00
 -1      2487 1.07535E+02 6.39164E+00 0.00000E+00
 -1      2488 1.12785E+02 5.19895E+00 0.00000E+00
 -1      2489 1.11285E+02 5.19895E+00 0.00000E+00
 -1      2490 1.10535E+02 6.39164E+00 0.00000E+00
 -1      2491 1.15785E+02 5.19895E+00 0.00000E+00
 -1      2492 1.14285E+02 5.19895E+00 0.00000E+00
 -1      2493 1.13535E+02 6.39164E+00 0.00000E+00
 -1      2494 1.18785E+02 5.19895E+00 0.00000E+00
 -1      2495 1.17285E+02 5.19895E+00 0.00000E+00
 -1      2496 1.16535E+02 6.39164E+00 0.00000E+00
 -1      2497 1.21785E+02 5.19895E+00 0.00000E+00
 -1      2498 1.20285E+02 5.19895E+00 0.00000E+00
 -1      2499 1.19535E+02 6.39164E+00 0.00000E+00
 -1      2500 1.24785E+02 5.19895E+00 0.00000E+00
 -1      2501 1.23285E+02 5.19895E+00 0.00000E+00
 -1      2502 1.22535E+02 6.39164E+00 0.00000E+00
 -1      2503 1.27785E+02 5.19895E+00 0.00000E+00
 -1      2504 1.26285E+02 5.19895E+00 0.00000E+00
 -1      2505 1.25535E+02 6.39164E+00 0.00000E+00
 -1      2506 1.30785E+02 5.19895E+00 0.00000E+00
 -1      2507 1.29285E+02 5.19895E+00 0.00000E+00
 -1      2508 1.28535E+02 6.39164E+00 0.00000E+00
 -1      2509 1.33785E+02 5.19895E+00 0.00000E+00
 -1      2510 1.32285E+02 5.19895E+00 0.00000E+00
 -1      2511 1.31535E+02 6.39164E+00 0.00000E+00
 -1      2512 1.36785E+02 5.19895E+00 0.00000E+00
 -1      2513 1.35285E+02 5.19895E+00 0.00000E+00
 -1      2514 1.34535E+02 6.39164E+00 0.00000E+00
 -1      2515 1.39785E+02 5.19895E+00 0.00000E+00
 -1      2516 1.38285E+02 5.19895E+00 0.00000E+00
 -1      2517 1.37535E+02 6.39164E+00 0.00000E+00
 -1      2518 1.42785E+02 5.19895E+00 0.00000E+00
 -1      2519 1.41285E+02 5.19895E+00 0.00000E+00
 -1      2520 1.40535E+02 6.39164E+00 0.00000E+00
 -1      2521 1.44336E+02 5.26953E+00 0.00000E+00
 -1      2522 1.43505E+02 1.69125E+01 0.00000E+00
 -1      2523 1.43505E+02 1.54375E+01 0.00000E+00
 -1      2524 1.43505E+02 1.98625E+01 0.00000E+00
 -1      2525 1.43505E+02 1.83875E+01 0.00000E+00
 -1      2526 1.42206E+02 1.76500E+01 0.00000E+00
 -1      2527 1.43505E+02 1.10625E+01 0.00000E+00
 -1      2528 1.43505E+02 9.58750E+00 0.00000E+00
 -1      2529 1.43505E+02 1.39750E+01 0.00000E+00
 -1      2530 1.43505E+02 1.25250E+01 0.00000E+00
 -1      2531 1.42206E+02 1.17875E+01 0.00000E+00
 -1      2532 1.42206E+02 1.47125E+01 0.00000E+00
 -1      2533 1.43505E+02 2.28125E+01 0.00000E+00
 -1      2534 1.43505E+02 2.13375E+01 0.00000E+00
 -1      2535 1.42206E+02 2.06000E+01 0.00000E+00
 -1      2536 1.43505E+02 2.57625E+01 0.00000E+00
 -1      2537 1.43505E+02 2.42875E+01 0.00000E+00
 -1      2538 1.42206E+02 2.35500E+01 0.00000E+00
 -1      2539 1.43505E+02 2.87125E+01 0.00000E+00
 -1      2540 1.43505E+02 2.72375E+01 0.00000E+00
 -1      2541 1.42206E+02 2.65000E+01 0.00000E+00
 -1      2542 1.43505E+02 3.16125E+01 0.00000E+00
 -1      2543 1.43505E+02 3.01625E+01 0.00000E+00
 -1      2544 1.42206E+02 2.94250E+01 0.00000E+00
 -1      2545 1.43505E+02 3.45625E+01 0.00000E+00
 -1      2546 1.43505E+02 3.30875E+01 0.00000E+00
 -1      2547 1.42206E+02 3.23500E+01 0.00000E+00
 -1      2548 1.43505E+02 3.75125E+01 0.00000E+00
 -1      2549 1.43505E+02 3.60375E+01 0.00000E+00
 -1      2550 1.42206E+02 3.53000E+01 0.00000E+00
 -1      2551 1.43505E+02 4.04625E+01 0.00000E+00
 -1      2552 1.43505E+02 3.89875E+01 0.00000E+00
 -1      2553 1.42206E+02 3.82500E+01 0.00000E+00
 -1      2554 1.02385E+02 1.70089E+01 0.00000E+00
 -1      2555 1.02234E+02 1.79747E+01 0.00000E+00
 -1      2556 1.02973E+02 1.83416E+01 0.00000E+00
 -1      2557 1.00870E+02 1.29122E+01 0.00000E+00
 -1      2558 1.01296E+02 1.37491E+01 0.00000E+00
 -1      2559 1.67850E+01 5.30525E+00 0.00000E+00
 -1      2560 1.52850E+01 5.30525E+00 0.00000E+00
 -1      2561 1.75350E+01 6.60425E+00 0.00000E+00
 -1      2562 1.44321E+02 4.30606E+01 0.00000E+00
 -1      2563 1.01894E+02 2.05163E+01 0.00000E+00
 -1      2564 1.01757E+02 2.14907E+01 0.00000E+00
 -1      2565 1.02685E+02 2.02818E+01 0.00000E+00
 -1      2566 6.55950E+00 4.28890E+01 0.00000E+00
 -1      2567 8.53650E+00 4.32410E+01 0.00000E+00
 -1      2568 9.28650E+00 4.19420E+01 0.00000E+00
 -1      2569 6.55950E+00 4.14140E+01 0.00000E+00
 -1      2570 1.00635E+02 2.37322E+01 0.00000E+00
 -1      2571 1.00097E+02 2.44793E+01 0.00000E+00
 -1      2572 1.01708E+02 1.47838E+01 0.00000E+00
 -1      2573 1.02121E+02 1.58456E+01 0.00000E+00
 -1      2574 8.57227E+01 2.67971E+01 0.00000E+00
 -1      2575 8.48821E+01 2.61873E+01 0.00000E+00
 -1      2576 6.49500E+00 2.71625E+01 0.00000E+00
 -1      2577 6.49500E+00 2.86375E+01 0.00000E+00
 -1      2578 7.79400E+00 2.93750E+01 0.00000E+00
 -1      2579 7.79400E+00 2.64250E+01 0.00000E+00
 -1      2580 9.13332E+01 8.01374E+00 0.00000E+00
 -1      2581 9.23796E+01 7.85585E+00 0.00000E+00
 -1      2582 9.19153E+01 2.89325E+01 0.00000E+00
 -1      2583 9.09278E+01 2.87860E+01 0.00000E+00
 -1      2584 9.37866E+01 8.03788E+00 0.00000E+00
 -1      2585 9.48688E+01 8.35060E+00 0.00000E+00
 -1      2586 8.91358E+01 8.58150E+00 0.00000E+00
 -1      2587 9.01744E+01 8.27290E+00 0.00000E+00
 -1      2588 8.72848E+01 9.32873E+00 0.00000E+00
 -1      2589 8.81758E+01 9.02038E+00 0.00000E+00
 -1      2590 8.35342E+01 1.26358E+01 0.00000E+00
 -1      2591 8.40196E+01 1.18585E+01 0.00000E+00
 -1      2592 8.25160E+01 1.43948E+01 0.00000E+00
 -1      2593 8.30251E+01 1.35153E+01 0.00000E+00
 -1      2594 8.25760E+01 1.26946E+01 0.00000E+00
 -1      2595 8.18227E+01 1.66038E+01 0.00000E+00
 -1      2596 8.20231E+01 1.55695E+01 0.00000E+00
 -1      2597 8.16761E+01 1.87623E+01 0.00000E+00
 -1      2598 8.17539E+01 1.77377E+01 0.00000E+00
 -1      2599 8.17868E+01 2.11448E+01 0.00000E+00
 -1      2600 8.16348E+01 2.00131E+01 0.00000E+00
 -1      2601 8.27901E+01 2.32902E+01 0.00000E+00
 -1      2602 8.22590E+01 2.24725E+01 0.00000E+00
 -1      2603 8.39806E+01 2.52466E+01 0.00000E+00
 -1      2604 8.33854E+01 2.42684E+01 0.00000E+00
 -1      2605 8.24007E+01 2.43266E+01 0.00000E+00
 -1      2606 8.72557E+01 2.77899E+01 0.00000E+00
 -1      2607 8.64892E+01 2.72935E+01 0.00000E+00
 -1      2608 8.55654E+01 2.76828E+01 0.00000E+00
 -1      2609 9.79585E+01 2.70157E+01 0.00000E+00
 -1      2610 9.71178E+01 2.74574E+01 0.00000E+00
 -1      2611 9.39589E+01 2.89135E+01 0.00000E+00
 -1      2612 9.31242E+01 2.90801E+01 0.00000E+00
 -1      2613 9.78740E+01 9.78589E+00 0.00000E+00
 -1      2614 9.87467E+01 1.04656E+01 0.00000E+00
 -1      2615 9.61073E+01 2.80047E+01 0.00000E+00
 -1      2616 9.50331E+01 2.84591E+01 0.00000E+00
 -1      2617 9.48001E+01 2.94655E+01 0.00000E+00
 -1      2618 9.95068E+01 2.52800E+01 0.00000E+00
 -1      2619 9.88811E+01 2.61110E+01 0.00000E+00
 -1      2620 1.01386E+02 2.23207E+01 0.00000E+00
 -1      2621 1.01078E+02 2.29375E+01 0.00000E+00
 -1      2622 8.07525E+00 5.11044E+00 0.00000E+00
 -1      2623 6.57525E+00 5.11044E+00 0.00000E+00
 -1      2624 6.40575E+00 6.01981E+00 0.00000E+00
 -1      2625 8.82525E+00 6.40944E+00 0.00000E+00
 -1      2626 9.95717E+01 1.12569E+01 0.00000E+00
 -1      2627 1.00228E+02 1.19382E+01 0.00000E+00
 -1      2628 9.31355E+01 7.26886E+00 0.00000E+00
 -1      2629 7.79400E+00 3.52687E+01 0.00000E+00
 -1      2630 6.49500E+00 3.60062E+01 0.00000E+00
 -1      2631 6.49500E+00 3.74750E+01 0.00000E+00
 -1      2632 1.02185E+02 1.40145E+01 0.00000E+00
 -1      2633 6.40575E+00 7.49481E+00 0.00000E+00
 -1      2634 9.96623E+01 1.02405E+01 0.00000E+00
 -1      2635 1.02177E+02 2.20863E+01 0.00000E+00
 -1      2636 1.01364E+02 2.37110E+01 0.00000E+00
 -1      2637 9.77768E+01 8.91542E+00 0.00000E+00
 -1      2638 9.68848E+01 2.84638E+01 0.00000E+00
 -1      2639 9.96775E+01 2.70078E+01 0.00000E+00
 -1      2640 9.88180E+01 2.70118E+01 0.00000E+00
 -1      2641 9.87549E+01 2.79125E+01 0.00000E+00
 -1      2642 9.55350E+01 6.22407E+00 0.00000E+00
 -1      2643 1.43586E+02 6.46223E+00 0.00000E+00
 -1      2644 1.43419E+02 7.62082E+00 0.00000E+00
 -1      2645 8.38974E+01 2.62456E+01 0.00000E+00
 -1      2646 1.02861E+02 1.62125E+01 0.00000E+00
 -1      2647 1.01130E+02 1.20058E+01 0.00000E+00
 -1      2648 8.13331E+01 2.20207E+01 0.00000E+00
 -1      2649 1.45350E+01 6.60425E+00 0.00000E+00
 -1      2650 6.52725E+00 3.87101E+01 0.00000E+00
 -1      2651 6.52725E+00 4.01789E+01 0.00000E+00
 -1      2652 7.89075E+00 4.04429E+01 0.00000E+00
 -1      2653 7.82625E+00 3.79726E+01 0.00000E+00
 -1      2654 8.09022E+01 1.94422E+01 0.00000E+00
 -1      2655 7.70475E+00 8.23231E+00 0.00000E+00
 -1      2656 8.15740E+01 1.47488E+01 0.00000E+00
 -1      2657 9.01740E+01 2.91788E+01 0.00000E+00
 -1      2658 8.81162E+01 2.91221E+01 0.00000E+00
 -1      2659 8.76860E+01 2.84560E+01 0.00000E+00
 -1      2660 8.67621E+01 2.88453E+01 0.00000E+00
 -1      2661 8.64430E+01 9.36689E+00 0.00000E+00
 -1      2662 8.66492E+01 8.52108E+00 0.00000E+00
 -1      2663 8.56013E+01 9.40504E+00 0.00000E+00
 -1      2664 8.84509E+01 8.04404E+00 0.00000E+00
 -1      2665 8.42401E+01 1.10330E+01 0.00000E+00
 -1      2666 8.44605E+01 1.02075E+01 0.00000E+00
 -1      2667 8.33055E+01 1.09896E+01 0.00000E+00
 -1      2668 9.56294E+01 7.91627E+00 0.00000E+00
 -1      2669 9.25169E+01 2.97723E+01 0.00000E+00
 -1      2670 1.00331E+02 2.53064E+01 0.00000E+00
 -1      2671 9.05697E+01 7.34600E+00 0.00000E+00
 -1      2672 8.10122E+01 1.70574E+01 0.00000E+00
 -1      2673 1.42758E+02 4.35929E+01 0.00000E+00
 -1      2674 1.43241E+02 4.17323E+01 0.00000E+00
 -1      2675 1.41942E+02 4.09948E+01 0.00000E+00
 -1      2676 1.41414E+02 4.35342E+01 0.00000E+00
 -1      2677 1.42120E+02 8.35832E+00 0.00000E+00
 -1      2678 1.40664E+02 4.22352E+01 0.00000E+00
 -1      2679 9.09300E+00 1.98250E+01 0.00000E+00
 -1      2680 9.09300E+00 2.12750E+01 0.00000E+00
 -1      2681 9.09300E+00 2.27500E+01 0.00000E+00
 -1      2682 9.09300E+00 2.42250E+01 0.00000E+00
 -1      2683 1.03920E+01 2.20250E+01 0.00000E+00
 -1      2684 9.09300E+00 1.39375E+01 0.00000E+00
 -1      2685 9.09300E+00 1.54125E+01 0.00000E+00
 -1      2686 9.09300E+00 1.09875E+01 0.00000E+00
 -1      2687 9.09300E+00 1.24625E+01 0.00000E+00
 -1      2688 1.03920E+01 1.32000E+01 0.00000E+00
 -1      2689 9.25425E+00 4.07069E+01 0.00000E+00
 -1      2690 1.06178E+01 4.09709E+01 0.00000E+00
 -1      2691 9.22200E+00 3.94717E+01 0.00000E+00
 -1      2692 8.03822E+01 1.49395E+01 0.00000E+00
 -1      2693 8.08752E+01 1.37648E+01 0.00000E+00
 -1      2694 8.91450E+00 8.42712E+00 0.00000E+00
 -1      2695 9.77958E+01 2.89392E+01 0.00000E+00
 -1      2696 9.67853E+01 2.94865E+01 0.00000E+00
 -1      2697 1.02317E+02 2.37212E+01 0.00000E+00
 -1      2698 1.01875E+02 2.45159E+01 0.00000E+00
 -1      2699 1.44000E+01 4.09070E+01 0.00000E+00
 -1      2700 1.59000E+01 4.09070E+01 0.00000E+00
 -1      2701 1.74000E+01 4.09070E+01 0.00000E+00
 -1      2702 1.89000E+01 4.09070E+01 0.00000E+00
 -1      2703 1.66500E+01 3.96080E+01 0.00000E+00
 -1      2704 2.04000E+01 4.09070E+01 0.00000E+00
 -1      2705 2.19000E+01 4.09070E+01 0.00000E+00
 -1      2706 1.96500E+01 3.96080E+01 0.00000E+00
 -1      2707 2.34000E+01 4.09070E+01 0.00000E+00
 -1      2708 2.49000E+01 4.09070E+01 0.00000E+00
 -1      2709 2.26500E+01 3.96080E+01 0.00000E+00
 -1      2710 2.64000E+01 4.09070E+01 0.00000E+00
 -1      2711 2.79000E+01 4.09070E+01 0.00000E+00
 -1      2712 2.56500E+01 3.96080E+01 0.00000E+00
 -1      2713 2.94000E+01 4.09070E+01 0.00000E+00
 -1      2714 3.09000E+01 4.09070E+01 0.00000E+00
 -1      2715 2.86500E+01 3.96080E+01 0.00000E+00
 -1      2716 3.24000E+01 4.09070E+01 0.00000E+00
 -1      2717 3.39000E+01 4.09070E+01 0.00000E+00
 -1      2718 3.16500E+01 3.96080E+01 0.00000E+00
 -1      2719 3.54000E+01 4.09070E+01 0.00000E+00
 -1      2720 3.69000E+01 4.09070E+01 0.00000E+00
 -1      2721 3.46500E+01 3.96080E+01 0.00000E+00
 -1      2722 3.84000E+01 4.09070E+01 0.00000E+00
 -1      2723 3.99000E+01 4.09070E+01 0.00000E+00
 -1      2724 3.76500E+01 3.96080E+01 0.00000E+00
 -1      2725 4.14000E+01 4.09070E+01 0.00000E+00
 -1      2726 4.29000E+01 4.09070E+01 0.00000E+00
 -1      2727 4.06500E+01 3.96080E+01 0.00000E+00
 -1      2728 4.44000E+01 4.09070E+01 0.00000E+00
 -1      2729 4.59000E+01 4.09070E+01 0.00000E+00
 -1      2730 4.36500E+01 3.96080E+01 0.00000E+00
 -1      2731 4.74000E+01 4.09070E+01 0.00000E+00
 -1      2732 4.89000E+01 4.09070E+01 0.00000E+00
 -1      2733 4.66500E+01 3.96080E+01 0.00000E+00
 -1      2734 5.04000E+01 4.09070E+01 0.00000E+00
 -1      2735 5.19000E+01 4.09070E+01 0.00000E+00
 -1      2736 4.96500E+01 3.96080E+01 0.00000E+00
 -1      2737 5.34000E+01 4.09070E+01 0.00000E+00
 -1      2738 5.49000E+01 4.09070E+01 0.00000E+00
 -1      2739 5.26500E+01 3.96080E+01 0.00000E+00
 -1      2740 5.64000E+01 4.09070E+01 0.00000E+00
 -1      2741 5.79000E+01 4.09070E+01 0.00000E+00
 -1      2742 5.56500E+01 3.96080E+01 0.00000E+00
 -1      2743 5.94000E+01 4.09070E+01 0.00000E+00
 -1      2744 6.09000E+01 4.09070E+01 0.00000E+00
 -1      2745 5.86500E+01 3.96080E+01 0.00000E+00
 -1      2746 6.24000E+01 4.09070E+01 0.00000E+00
 -1      2747 6.39000E+01 4.09070E+01 0.00000E+00
 -1      2748 6.16500E+01 3.96080E+01 0.00000E+00
 -1      2749 6.54000E+01 4.09070E+01 0.00000E+00
 -1      2750 6.69000E+01 4.09070E+01 0.00000E+00
 -1      2751 6.46500E+01 3.96080E+01 0.00000E+00
 -1      2752 6.84000E+01 4.09070E+01 0.00000E+00
 -1      2753 6.99000E+01 4.09070E+01 0.00000E+00
 -1      2754 6.76500E+01 3.96080E+01 0.00000E+00
 -1      2755 7.14000E+01 4.09070E+01 0.00000E+00
 -1      2756 7.29000E+01 4.09070E+01 0.00000E+00
 -1      2757 7.06500E+01 3.96080E+01 0.00000E+00
 -1      2758 7.44000E+01 4.09070E+01 0.00000E+00
 -1      2759 7.59000E+01 4.09070E+01 0.00000E+00
 -1      2760 7.36500E+01 3.96080E+01 0.00000E+00
 -1      2761 7.74000E+01 4.09070E+01 0.00000E+00
 -1      2762 7.89000E+01 4.09070E+01 0.00000E+00
 -1      2763 7.66500E+01 3.96080E+01 0.00000E+00
 -1      2764 8.04000E+01 4.09070E+01 0.00000E+00
 -1      2765 8.19000E+01 4.09070E+01 0.00000E+00
 -1      2766 7.96500E+01 3.96080E+01 0.00000E+00
 -1      2767 8.34000E+01 4.09070E+01 0.00000E+00
 -1      2768 8.49000E+01 4.09070E+01 0.00000E+00
 -1      2769 8.26500E+01 3.96080E+01 0.00000E+00
 -1      2770 8.64000E+01 4.09070E+01 0.00000E+00
 -1      2771 8.79000E+01 4.09070E+01 0.00000E+00
 -1      2772 8.56500E+01 3.96080E+01 0.00000E+00
 -1      2773 8.94000E+01 4.09070E+01 0.00000E+00
 -1      2774 9.09000E+01 4.09070E+01 0.00000E+00
 -1      2775 8.86500E+01 3.96080E+01 0.00000E+00
 -1      2776 9.24000E+01 4.09070E+01 0.00000E+00
 -1      2777 9.39000E+01 4.09070E+01 0.00000E+00
 -1      2778 9.16500E+01 3.96080E+01 0.00000E+00
 -1      2779 9.54000E+01 4.09070E+01 0.00000E+00
 -1      2780 9.69000E+01 4.09070E+01 0.00000E+00
 -1      2781 9.46500E+01 3.96080E+01 0.00000E+00
 -1      2782 9.84000E+01 4.09070E+01 0.00000E+00
 -1      2783 9.99000E+01 4.09070E+01 0.00000E+00
 -1      2784 9.76500E+01 3.96080E+01 0.00000E+00
 -1      2785 1.01400E+02 4.09070E+01 0.00000E+00
 -1      2786 1.02900E+02 4.09070E+01 0.00000E+00
 -1      2787 1.00650E+02 3.96080E+01 0.00000E+00
 -1      2788 1.04400E+02 4.09070E+01 0.00000E+00
 -1      2789 1.05900E+02 4.09070E+01 0.00000E+00
 -1      2790 1.03650E+02 3.96080E+01 0.00000E+00
 -1      2791 1.07400E+02 4.09070E+01 0.00000E+00
 -1      2792 1.08900E+02 4.09070E+01 0.00000E+00
 -1      2793 1.06650E+02 3.96080E+01 0.00000E+00
 -1      2794 1.10400E+02 4.09070E+01 0.00000E+00
 -1      2795 1.11900E+02 4.09070E+01 0.00000E+00
 -1      2796 1.09650E+02 3.96080E+01 0.00000E+00
 -1      2797 1.13400E+02 4.09070E+01 0.00000E+00
 -1      2798 1.14900E+02 4.09070E+01 0.00000E+00
 -1      2799 1.12650E+02 3.96080E+01 0.00000E+00
 -1      2800 1.16400E+02 4.09070E+01 0.00000E+00
 -1      2801 1.17900E+02 4.09070E+01 0.00000E+00
 -1      2802 1.15650E+02 3.96080E+01 0.00000E+00
 -1      2803 1.19400E+02 4.09070E+01 0.00000E+00
 -1      2804 1.20900E+02 4.09070E+01 0.00000E+00
 -1      2805 1.18650E+02 3.96080E+01 0.00000E+00
 -1      2806 1.22400E+02 4.09070E+01 0.00000E+00
 -1      2807 1.23900E+02 4.09070E+01 0.00000E+00
 -1      2808 1.21650E+02 3.96080E+01 0.00000E+00
 -1      2809 1.25400E+02 4.09070E+01 0.00000E+00
 -1      2810 1.26900E+02 4.09070E+01 0.00000E+00
 -1      2811 1.24650E+02 3.96080E+01 0.00000E+00
 -1      2812 1.28400E+02 4.09070E+01 0.00000E+00
 -1      2813 1.29900E+02 4.09070E+01 0.00000E+00
 -1      2814 1.27650E+02 3.96080E+01 0.00000E+00
 -1      2815 1.31400E+02 4.09070E+01 0.00000E+00
 -1      2816 1.32900E+02 4.09070E+01 0.00000E+00
 -1      2817 1.30650E+02 3.96080E+01 0.00000E+00
 -1      2818 1.34400E+02 4.09070E+01 0.00000E+00
 -1      2819 1.35900E+02 4.09070E+01 0.00000E+00
 -1      2820 1.33650E+02 3.96080E+01 0.00000E+00
 -1      2821 1.37400E+02 4.09070E+01 0.00000E+00
 -1      2822 1.38900E+02 4.09070E+01 0.00000E+00
 -1      2823 1.36650E+02 3.96080E+01 0.00000E+00
 -1      2824 2.42850E+01 7.90325E+00 0.00000E+00
 -1      2825 2.27850E+01 7.90325E+00 0.00000E+00
 -1      2826 1.40706E+02 1.03250E+01 0.00000E+00
 -1      2827 1.40620E+02 8.35832E+00 0.00000E+00
 -1      2828 1.39120E+02 8.35832E+00 0.00000E+00
 -1      2829 2.12850E+01 7.90325E+00 0.00000E+00
 -1      2830 1.97850E+01 7.90325E+00 0.00000E+00
 -1      2831 2.20350E+01 9.20225E+00 0.00000E+00
 -1      2832 3.02850E+01 7.90325E+00 0.00000E+00
 -1      2833 2.87850E+01 7.90325E+00 0.00000E+00
 -1      2834 3.32850E+01 7.90325E+00 0.00000E+00
 -1      2835 3.17850E+01 7.90325E+00 0.00000E+00
 -1      2836 3.10350E+01 9.20225E+00 0.00000E+00
 -1      2837 3.62850E+01 7.90325E+00 0.00000E+00
 -1      2838 3.47850E+01 7.90325E+00 0.00000E+00
 -1      2839 3.40350E+01 9.20225E+00 0.00000E+00
 -1      2840 3.92850E+01 7.90325E+00 0.00000E+00
 -1      2841 3.77850E+01 7.90325E+00 0.00000E+00
 -1      2842 3.70350E+01 9.20225E+00 0.00000E+00
 -1      2843 4.22850E+01 7.90325E+00 0.00000E+00
 -1      2844 4.07850E+01 7.90325E+00 0.00000E+00
 -1      2845 4.00350E+01 9.20225E+00 0.00000E+00
 -1      2846 4.52850E+01 7.90325E+00 0.00000E+00
 -1      2847 4.37850E+01 7.90325E+00 0.00000E+00
 -1      2848 4.30350E+01 9.20225E+00 0.00000E+00
 -1      2849 4.82850E+01 7.90325E+00 0.00000E+00
 -1      2850 4.67850E+01 7.90325E+00 0.00000E+00
 -1      2851 4.60350E+01 9.20225E+00 0.00000E+00
 -1      2852 5.12850E+01 7.90325E+00 0.00000E+00
 -1      2853 4.97850E+01 7.90325E+00 0.00000E+00
 -1      2854 4.90350E+01 9.20225E+00 0.00000E+00
 -1      2855 5.42850E+01 7.90325E+00 0.00000E+00
 -1      2856 5.27850E+01 7.90325E+00 0.00000E+00
 -1      2857 5.20350E+01 9.20225E+00 0.00000E+00
 -1      2858 5.72850E+01 7.90325E+00 0.00000E+00
 -1      2859 5.57850E+01 7.90325E+00 0.00000E+00
 -1      2860 5.50350E+01 9.20225E+00 0.00000E+00
 -1      2861 6.02850E+01 7.90325E+00 0.00000E+00
 -1      2862 5.87850E+01 7.90325E+00 0.00000E+00
 -1      2863 5.80350E+01 9.20225E+00 0.00000E+00
 -1      2864 6.32850E+01 7.90325E+00 0.00000E+00
 -1      2865 6.17850E+01 7.90325E+00 0.00000E+00
 -1      2866 6.10350E+01 9.20225E+00 0.00000E+00
 -1      2867 6.62850E+01 7.90325E+00 0.00000E+00
 -1      2868 6.47850E+01 7.90325E+00 0.00000E+00
 -1      2869 6.40350E+01 9.20225E+00 0.00000E+00
 -1      2870 6.92850E+01 7.90325E+00 0.00000E+00
 -1      2871 6.77850E+01 7.90325E+00 0.00000E+00
 -1      2872 6.70350E+01 9.20225E+00 0.00000E+00
 -1      2873 7.22850E+01 7.90325E+00 0.00000E+00
 -1      2874 7.07850E+01 7.90325E+00 0.00000E+00
 -1      2875 7.00350E+01 9.20225E+00 0.00000E+00
 -1      2876 7.52850E+01 7.90325E+00 0.00000E+00
 -1      2877 7.37850E+01 7.90325E+00 0.00000E+00
 -1      2878 7.30350E+01 9.20225E+00 0.00000E+00
 -1      2879 7.82850E+01 7.90325E+00 0.00000E+00
 -1      2880 7.67850E+01 7.90325E+00 0.00000E+00
 -1      2881 7.60350E+01 9.20225E+00 0.00000E+00
 -1      2882 8.12850E+01 7.90325E+00 0.00000E+00
 -1      2883 7.97850E+01 7.90325E+00 0.00000E+00
 -1      2884 7.90350E+01 9.20225E+00 0.00000E+00
 -1      2885 8.69212E+01 7.58174E+00 0.00000E+00
 -1      2886 8.54212E+01 7.58174E+00 0.00000E+00
 -1      2887 8.95350E+01 6.24659E+00 0.00000E+00
 -1      2888 9.25350E+01 5.97271E+00 0.00000E+00
 -1      2889 1.08285E+02 7.69064E+00 0.00000E+00
 -1      2890 1.06785E+02 7.69064E+00 0.00000E+00
 -1      2891 1.11285E+02 7.69064E+00 0.00000E+00
 -1      2892 1.09785E+02 7.69064E+00 0.00000E+00
 -1      2893 1.09035E+02 8.98964E+00 0.00000E+00
 -1      2894 1.14285E+02 7.69064E+00 0.00000E+00
 -1      2895 1.12785E+02 7.69064E+00 0.00000E+00
 -1      2896 1.12035E+02 8.98964E+00 0.00000E+00
 -1      2897 1.17285E+02 7.69064E+00 0.00000E+00
 -1      2898 1.15785E+02 7.69064E+00 0.00000E+00
 -1      2899 1.15035E+02 8.98964E+00 0.00000E+00
 -1      2900 1.20285E+02 7.69064E+00 0.00000E+00
 -1      2901 1.18785E+02 7.69064E+00 0.00000E+00
 -1      2902 1.18035E+02 8.98964E+00 0.00000E+00
 -1      2903 1.23285E+02 7.69064E+00 0.00000E+00
 -1      2904 1.21785E+02 7.69064E+00 0.00000E+00
 -1      2905 1.21035E+02 8.98964E+00 0.00000E+00
 -1      2906 1.26285E+02 7.69064E+00 0.00000E+00
 -1      2907 1.24785E+02 7.69064E+00 0.00000E+00
 -1      2908 1.24035E+02 8.98964E+00 0.00000E+00
 -1      2909 1.29285E+02 7.69064E+00 0.00000E+00
 -1      2910 1.27785E+02 7.69064E+00 0.00000E+00
 -1      2911 1.27035E+02 8.98964E+00 0.00000E+00
 -1      2912 1.32285E+02 7.69064E+00 0.00000E+00
 -1      2913 1.30785E+02 7.69064E+00 0.00000E+00
 -1      2914 1.30035E+02 8.98964E+00 0.00000E+00
 -1      2915 1.35285E+02 7.69064E+00 0.00000E+00
 -1      2916 1.33785E+02 7.69064E+00 0.00000E+00
 -1      2917 1.33035E+02 8.98964E+00 0.00000E+00
 -1      2918 1.37953E+02 8.02448E+00 0.00000E+00
 -1      2919 1.36453E+02 8.02448E+00 0.00000E+00
 -1      2920 1.35703E+02 9.32348E+00 0.00000E+00
 -1      2921 1.38038E+02 9.99116E+00 0.00000E+00
 -1      2922 1.40907E+02 2.42875E+01 0.00000E+00
 -1      2923 1.40907E+02 2.28125E+01 0.00000E+00
 -1      2924 1.39914E+02 4.09362E+01 0.00000E+00
 -1      2925 1.40928E+02 4.09655E+01 0.00000E+00
 -1      2926 1.39164E+02 3.96372E+01 0.00000E+00
 -1      2927 1.40907E+02 1.83875E+01 0.00000E+00
 -1      2928 1.40907E+02 1.69125E+01 0.00000E+00
 -1      2929 1.40907E+02 2.72375E+01 0.00000E+00
 -1      2930 1.40907E+02 2.57625E+01 0.00000E+00
 -1      2931 1.39608E+02 2.50250E+01 0.00000E+00
 -1      2932 1.40907E+02 2.13375E+01 0.00000E+00
 -1      2933 1.40907E+02 1.98625E+01 0.00000E+00
 -1      2934 1.39608E+02 1.91250E+01 0.00000E+00
 -1      2935 1.39608E+02 2.20750E+01 0.00000E+00
 -1      2936 1.82850E+01 7.90325E+00 0.00000E+00
 -1      2937 1.67850E+01 7.90325E+00 0.00000E+00
 -1      2938 1.90350E+01 9.20225E+00 0.00000E+00
 -1      2939 1.40907E+02 3.01375E+01 0.00000E+00
 -1      2940 1.40907E+02 2.86875E+01 0.00000E+00
 -1      2941 1.39608E+02 2.79500E+01 0.00000E+00
 -1      2942 1.40907E+02 3.30875E+01 0.00000E+00
 -1      2943 1.40907E+02 3.16125E+01 0.00000E+00
 -1      2944 1.39608E+02 3.08750E+01 0.00000E+00
 -1      2945 1.40907E+02 3.60375E+01 0.00000E+00
 -1      2946 1.40907E+02 3.45625E+01 0.00000E+00
 -1      2947 1.39608E+02 3.38250E+01 0.00000E+00
 -1      2948 1.03890E+02 1.79902E+01 0.00000E+00
 -1      2949 1.03740E+02 1.89559E+01 0.00000E+00
 -1      2950 8.54370E+01 2.87211E+01 0.00000E+00
 -1      2951 8.46705E+01 2.82247E+01 0.00000E+00
 -1      2952 1.03602E+02 1.99304E+01 0.00000E+00
 -1      2953 1.03465E+02 2.09049E+01 0.00000E+00
 -1      2954 1.04519E+02 1.95790E+01 0.00000E+00
 -1      2955 1.01524E+02 1.10464E+01 0.00000E+00
 -1      2956 1.02167E+02 1.20204E+01 0.00000E+00
 -1      2957 1.03641E+02 1.54240E+01 0.00000E+00
 -1      2958 1.03905E+02 1.65873E+01 0.00000E+00
 -1      2959 9.04579E+01 3.01218E+01 0.00000E+00
 -1      2960 8.93239E+01 2.96759E+01 0.00000E+00
 -1      2961 8.00244E+01 2.00393E+01 0.00000E+00
 -1      2962 8.00657E+01 1.87885E+01 0.00000E+00
 -1      2963 1.05285E+02 7.69064E+00 0.00000E+00
 -1      2964 1.03785E+02 7.69064E+00 0.00000E+00
 -1      2965 1.06035E+02 8.98964E+00 0.00000E+00
 -1      2966 8.35475E+01 2.74832E+01 0.00000E+00
 -1      2967 8.26460E+01 2.65424E+01 0.00000E+00
 -1      2968 2.72850E+01 7.90325E+00 0.00000E+00
 -1      2969 2.57850E+01 7.90325E+00 0.00000E+00
 -1      2970 2.50350E+01 9.20225E+00 0.00000E+00
 -1      2971 2.80350E+01 9.20225E+00 0.00000E+00
 -1      2972 1.17589E+01 4.09389E+01 0.00000E+00
 -1      2973 1.32589E+01 4.09389E+01 0.00000E+00
 -1      2974 1.40089E+01 3.96399E+01 0.00000E+00
 -1      2975 1.17266E+01 3.97038E+01 0.00000E+00
 -1      2976 1.02776E+02 1.31800E+01 0.00000E+00
 -1      2977 1.03188E+02 1.42148E+01 0.00000E+00
 -1      2978 9.09300E+00 1.68813E+01 0.00000E+00
 -1      2979 9.09300E+00 1.83563E+01 0.00000E+00
 -1      2980 1.03920E+01 1.90812E+01 0.00000E+00
 -1      2981 1.03920E+01 1.61437E+01 0.00000E+00
 -1      2982 9.30073E+01 3.07805E+01 0.00000E+00
 -1      2983 9.17984E+01 3.06329E+01 0.00000E+00
 -1      2984 8.15793E+01 1.27048E+01 0.00000E+00
 -1      2985 8.20883E+01 1.18253E+01 0.00000E+00
 -1      2986 1.41192E+02 3.96958E+01 0.00000E+00
 -1      2987 1.52850E+01 7.90325E+00 0.00000E+00
 -1      2988 1.37850E+01 7.90325E+00 0.00000E+00
 -1      2989 1.60350E+01 9.20225E+00 0.00000E+00
 -1      2990 8.18941E+01 2.53050E+01 0.00000E+00
 -1      2991 8.12989E+01 2.43268E+01 0.00000E+00
 -1      2992 9.09300E+00 3.15875E+01 0.00000E+00
 -1      2993 9.09300E+00 3.30625E+01 0.00000E+00
 -1      2994 1.01244E+02 2.53618E+01 0.00000E+00
 -1      2995 1.00654E+02 2.61626E+01 0.00000E+00
 -1      2996 1.02987E+02 2.19503E+01 0.00000E+00
 -1      2997 1.02617E+02 2.27803E+01 0.00000E+00
 -1      2998 8.01637E+01 1.75750E+01 0.00000E+00
 -1      2999 8.02324E+01 1.64411E+01 0.00000E+00
 -1      3000 9.57017E+01 3.01001E+01 0.00000E+00
 -1      3001 9.46275E+01 3.05544E+01 0.00000E+00
 -1      3002 9.98434E+01 9.22597E+00 0.00000E+00
 -1      3003 1.00668E+02 1.00173E+01 0.00000E+00
 -1      3004 8.06824E+01 2.30001E+01 0.00000E+00
 -1      3005 8.02101E+01 2.16724E+01 0.00000E+00
 -1      3006 9.28817E+01 6.57167E+00 0.00000E+00
 -1      3007 9.42888E+01 6.75369E+00 0.00000E+00
 -1      3008 1.08743E+01 7.88444E+00 0.00000E+00
 -1      3009 9.75375E+00 9.70731E+00 0.00000E+00
 -1      3010 1.10527E+01 1.04448E+01 0.00000E+00
 -1      3011 1.23743E+01 7.88444E+00 0.00000E+00
 -1      3012 9.09300E+00 3.45313E+01 0.00000E+00
 -1      3013 9.09300E+00 3.60000E+01 0.00000E+00
 -1      3014 1.03920E+01 3.37938E+01 0.00000E+00
 -1      3015 1.03920E+01 2.49750E+01 0.00000E+00
 -1      3016 9.09300E+00 2.57000E+01 0.00000E+00
 -1      3017 9.09300E+00 2.71750E+01 0.00000E+00
 -1      3018 1.04232E+02 1.45895E+01 0.00000E+00
 -1      3019 9.86553E+01 2.89352E+01 0.00000E+00
 -1      3020 9.85557E+01 2.99579E+01 0.00000E+00
 -1      3021 9.95148E+01 2.89313E+01 0.00000E+00
 -1      3022 9.09482E+01 3.11300E+01 0.00000E+00
 -1      3023 1.00591E+02 2.70633E+01 0.00000E+00
 -1      3024 1.00528E+02 2.79641E+01 0.00000E+00
 -1      3025 1.01504E+02 2.71188E+01 0.00000E+00
 -1      3026 1.02198E+02 2.53721E+01 0.00000E+00
 -1      3027 1.39608E+02 1.61875E+01 0.00000E+00
 -1      3028 1.40907E+02 1.54500E+01 0.00000E+00
 -1      3029 1.40907E+02 1.39875E+01 0.00000E+00
 -1      3030 8.01758E+01 2.39785E+01 0.00000E+00
 -1      3031 1.31243E+01 9.18344E+00 0.00000E+00
 -1      3032 8.47612E+01 8.49339E+00 0.00000E+00
 -1      3033 8.43750E+01 7.51590E+00 0.00000E+00
 -1      3034 8.28750E+01 7.51590E+00 0.00000E+00
 -1      3035 8.45551E+01 9.33920E+00 0.00000E+00
 -1      3036 8.21250E+01 8.81490E+00 0.00000E+00
 -1      3037 9.02229E+01 6.74705E+00 0.00000E+00
 -1      3038 8.87229E+01 7.10471E+00 0.00000E+00
 -1      3039 9.13817E+01 6.48788E+00 0.00000E+00
 -1      3040 8.15442E+01 2.65427E+01 0.00000E+00
 -1      3041 9.94362E+01 7.92040E+00 0.00000E+00
 -1      3042 9.79362E+01 7.92040E+00 0.00000E+00
 -1      3043 1.00442E+02 7.69720E+00 0.00000E+00
 -1      3044 8.36205E+01 9.29583E+00 0.00000E+00
 -1      3045 8.77630E+01 7.54358E+00 0.00000E+00
 -1      3046 1.40706E+02 1.17875E+01 0.00000E+00
 -1      3047 8.58672E+01 2.93872E+01 0.00000E+00
 -1      3048 8.49723E+01 2.99291E+01 0.00000E+00
 -1      3049 8.62975E+01 3.00533E+01 0.00000E+00
 -1      3050 9.66127E+01 3.05754E+01 0.00000E+00
 -1      3051 1.03170E+02 1.22206E+01 0.00000E+00
 -1      3052 1.04671E+02 1.72017E+01 0.00000E+00
 -1      3053 1.41192E+02 3.82207E+01 0.00000E+00
 -1      3054 8.34191E+01 2.85215E+01 0.00000E+00
 -1      3055 7.92859E+01 1.81722E+01 0.00000E+00
 -1      3056 1.03905E+02 2.15989E+01 0.00000E+00
 -1      3057 1.01706E+02 1.00319E+01 0.00000E+00
 -1      3058 7.93737E+01 2.10187E+01 0.00000E+00
 -1      3059 7.85372E+01 2.03649E+01 0.00000E+00
 -1      3060 7.87229E+01 2.19980E+01 0.00000E+00
 -1      3061 1.39529E+02 3.85602E+01 0.00000E+00
 -1      3062 1.40542E+02 3.71145E+01 0.00000E+00
 -1      3063 1.39243E+02 3.63770E+01 0.00000E+00
 -1      3064 1.38514E+02 3.85310E+01 0.00000E+00
 -1      3065 8.84001E+01 3.00652E+01 0.00000E+00
 -1      3066 9.09300E+00 2.86437E+01 0.00000E+00
 -1      3067 9.09300E+00 3.01187E+01 0.00000E+00
 -1      3068 1.03920E+01 3.08563E+01 0.00000E+00
 -1      3069 1.03920E+01 2.79188E+01 0.00000E+00
 -1      3070 1.02692E+02 8.99620E+00 0.00000E+00
 -1      3071 1.01942E+02 7.69720E+00 0.00000E+00
 -1      3072 8.03875E+01 1.28954E+01 0.00000E+00
 -1      3073 9.57888E+01 6.92126E+00 0.00000E+00
 -1      3074 9.68756E+01 7.38665E+00 0.00000E+00
 -1      3075 9.39089E+01 3.14150E+01 0.00000E+00
 -1      3076 9.31903E+01 3.22756E+01 0.00000E+00
 -1      3077 9.48105E+01 3.20495E+01 0.00000E+00
 -1      3078 1.03127E+02 2.35853E+01 0.00000E+00
 -1      3079 1.16910E+01 1.24625E+01 0.00000E+00
 -1      3080 1.16910E+01 1.39375E+01 0.00000E+00
 -1      3081 7.99641E+01 1.59765E+01 0.00000E+00
 -1      3082 7.92653E+01 1.49925E+01 0.00000E+00
 -1      3083 1.89000E+01 3.83090E+01 0.00000E+00
 -1      3084 2.04000E+01 3.83090E+01 0.00000E+00
 -1      3085 2.19000E+01 3.83090E+01 0.00000E+00
 -1      3086 2.34000E+01 3.83090E+01 0.00000E+00
 -1      3087 2.11500E+01 3.70100E+01 0.00000E+00
 -1      3088 2.49000E+01 3.83090E+01 0.00000E+00
 -1      3089 2.64000E+01 3.83090E+01 0.00000E+00
 -1      3090 2.41500E+01 3.70100E+01 0.00000E+00
 -1      3091 2.79000E+01 3.83090E+01 0.00000E+00
 -1      3092 2.94000E+01 3.83090E+01 0.00000E+00
 -1      3093 2.71500E+01 3.70100E+01 0.00000E+00
 -1      3094 3.09000E+01 3.83090E+01 0.00000E+00
 -1      3095 3.24000E+01 3.83090E+01 0.00000E+00
 -1      3096 3.01500E+01 3.70100E+01 0.00000E+00
 -1      3097 3.39000E+01 3.83090E+01 0.00000E+00
 -1      3098 3.54000E+01 3.83090E+01 0.00000E+00
 -1      3099 3.31500E+01 3.70100E+01 0.00000E+00
 -1      3100 3.69000E+01 3.83090E+01 0.00000E+00
 -1      3101 3.84000E+01 3.83090E+01 0.00000E+00
 -1      3102 3.61500E+01 3.70100E+01 0.00000E+00
 -1      3103 3.99000E+01 3.83090E+01 0.00000E+00
 -1      3104 4.14000E+01 3.83090E+01 0.00000E+00
 -1      3105 3.91500E+01 3.70100E+01 0.00000E+00
 -1      3106 4.29000E+01 3.83090E+01 0.00000E+00
 -1      3107 4.44000E+01 3.83090E+01 0.00000E+00
 -1      3108 4.21500E+01 3.70100E+01 0.00000E+00
 -1      3109 4.59000E+01 3.83090E+01 0.00000E+00
 -1      3110 4.74000E+01 3.83090E+01 0.00000E+00
 -1      3111 4.51500E+01 3.70100E+01 0.00000E+00
 -1      3112 4.89000E+01 3.83090E+01 0.00000E+00
 -1      3113 5.04000E+01 3.83090E+01 0.00000E+00
 -1      3114 4.81500E+01 3.70100E+01 0.00000E+00
 -1      3115 5.19000E+01 3.83090E+01 0.00000E+00
 -1      3116 5.34000E+01 3.83090E+01 0.00000E+00
 -1      3117 5.11500E+01 3.70100E+01 0.00000E+00
 -1      3118 5.49000E+01 3.83090E+01 0.00000E+00
 -1      3119 5.64000E+01 3.83090E+01 0.00000E+00
 -1      3120 5.41500E+01 3.70100E+01 0.00000E+00
 -1      3121 5.79000E+01 3.83090E+01 0.00000E+00
 -1      3122 5.94000E+01 3.83090E+01 0.00000E+00
 -1      3123 5.71500E+01 3.70100E+01 0.00000E+00
 -1      3124 6.09000E+01 3.83090E+01 0.00000E+00
 -1      3125 6.24000E+01 3.83090E+01 0.00000E+00
 -1      3126 6.01500E+01 3.70100E+01 0.00000E+00
 -1      3127 6.39000E+01 3.83090E+01 0.00000E+00
 -1      3128 6.54000E+01 3.83090E+01 0.00000E+00
 -1      3129 6.31500E+01 3.70100E+01 0.00000E+00
 -1      3130 6.69000E+01 3.83090E+01 0.00000E+00
 -1      3131 6.84000E+01 3.83090E+01 0.00000E+00
 -1      3132 6.61500E+01 3.70100E+01 0.00000E+00
 -1      3133 6.99000E+01 3.83090E+01 0.00000E+00
 -1      3134 7.14000E+01 3.83090E+01 0.00000E+00
 -1      3135 6.91500E+01 3.70100E+01 0.00000E+00
 -1      3136 7.29000E+01 3.83090E+01 0.00000E+00
 -1      3137 7.44000E+01 3.83090E+01 0.00000E+00
 -1      3138 7.21500E+01 3.70100E+01 0.00000E+00
 -1      3139 7.59000E+01 3.83090E+01 0.00000E+00
 -1      3140 7.74000E+01 3.83090E+01 0.00000E+00
 -1      3141 7.51500E+01 3.70100E+01 0.00000E+00
 -1      3142 7.89000E+01 3.83090E+01 0.00000E+00
 -1      3143 8.04000E+01 3.83090E+01 0.00000E+00
 -1      3144 7.81500E+01 3.70100E+01 0.00000E+00
 -1      3145 8.19000E+01 3.83090E+01 0.00000E+00
 -1      3146 8.34000E+01 3.83090E+01 0.00000E+00
 -1      3147 8.11500E+01 3.70100E+01 0.00000E+00
 -1      3148 8.49000E+01 3.83090E+01 0.00000E+00
 -1      3149 8.64000E+01 3.83090E+01 0.00000E+00
 -1      3150 8.41500E+01 3.70100E+01 0.00000E+00
 -1      3151 8.79000E+01 3.83090E+01 0.00000E+00
 -1      3152 8.94000E+01 3.83090E+01 0.00000E+00
 -1      3153 8.71500E+01 3.70100E+01 0.00000E+00
 -1      3154 9.09000E+01 3.83090E+01 0.00000E+00
 -1      3155 9.24000E+01 3.83090E+01 0.00000E+00
 -1      3156 9.01500E+01 3.70100E+01 0.00000E+00
 -1      3157 9.39000E+01 3.83090E+01 0.00000E+00
 -1      3158 9.54000E+01 3.83090E+01 0.00000E+00
 -1      3159 9.31500E+01 3.70100E+01 0.00000E+00
 -1      3160 9.69000E+01 3.83090E+01 0.00000E+00
 -1      3161 9.84000E+01 3.83090E+01 0.00000E+00
 -1      3162 9.61500E+01 3.70100E+01 0.00000E+00
 -1      3163 9.99000E+01 3.83090E+01 0.00000E+00
 -1      3164 1.01400E+02 3.83090E+01 0.00000E+00
 -1      3165 9.91500E+01 3.70100E+01 0.00000E+00
 -1      3166 1.02900E+02 3.83090E+01 0.00000E+00
 -1      3167 1.04400E+02 3.83090E+01 0.00000E+00
 -1      3168 1.02150E+02 3.70100E+01 0.00000E+00
 -1      3169 1.05900E+02 3.83090E+01 0.00000E+00
 -1      3170 1.07400E+02 3.83090E+01 0.00000E+00
 -1      3171 1.05150E+02 3.70100E+01 0.00000E+00
 -1      3172 1.08900E+02 3.83090E+01 0.00000E+00
 -1      3173 1.10400E+02 3.83090E+01 0.00000E+00
 -1      3174 1.08150E+02 3.70100E+01 0.00000E+00
 -1      3175 1.11900E+02 3.83090E+01 0.00000E+00
 -1      3176 1.13400E+02 3.83090E+01 0.00000E+00
 -1      3177 1.11150E+02 3.70100E+01 0.00000E+00
 -1      3178 1.14900E+02 3.83090E+01 0.00000E+00
 -1      3179 1.16400E+02 3.83090E+01 0.00000E+00
 -1      3180 1.14150E+02 3.70100E+01 0.00000E+00
 -1      3181 1.17900E+02 3.83090E+01 0.00000E+00
 -1      3182 1.19400E+02 3.83090E+01 0.00000E+00
 -1      3183 1.17150E+02 3.70100E+01 0.00000E+00
 -1      3184 1.20900E+02 3.83090E+01 0.00000E+00
 -1      3185 1.22400E+02 3.83090E+01 0.00000E+00
 -1      3186 1.20150E+02 3.70100E+01 0.00000E+00
 -1      3187 1.23900E+02 3.83090E+01 0.00000E+00
 -1      3188 1.25400E+02 3.83090E+01 0.00000E+00
 -1      3189 1.23150E+02 3.70100E+01 0.00000E+00
 -1      3190 1.26900E+02 3.83090E+01 0.00000E+00
 -1      3191 1.28400E+02 3.83090E+01 0.00000E+00
 -1      3192 1.26150E+02 3.70100E+01 0.00000E+00
 -1      3193 1.29900E+02 3.83090E+01 0.00000E+00
 -1      3194 1.31400E+02 3.83090E+01 0.00000E+00
 -1      3195 1.29150E+02 3.70100E+01 0.00000E+00
 -1      3196 1.32900E+02 3.83090E+01 0.00000E+00
 -1      3197 1.34400E+02 3.83090E+01 0.00000E+00
 -1      3198 1.32150E+02 3.70100E+01 0.00000E+00
 -1      3199 1.35707E+02 3.84200E+01 0.00000E+00
 -1      3200 1.37207E+02 3.84200E+01 0.00000E+00
 -1      3201 1.37572E+02 3.73430E+01 0.00000E+00
 -1      3202 1.34957E+02 3.71210E+01 0.00000E+00
 -1      3203 2.27850E+01 1.05013E+01 0.00000E+00
 -1      3204 2.12850E+01 1.05013E+01 0.00000E+00
 -1      3205 3.47850E+01 1.05013E+01 0.00000E+00
 -1      3206 3.32850E+01 1.05013E+01 0.00000E+00
 -1      3207 3.17850E+01 1.05013E+01 0.00000E+00
 -1      3208 3.02850E+01 1.05013E+01 0.00000E+00
 -1      3209 3.25350E+01 1.18003E+01 0.00000E+00
 -1      3210 4.07850E+01 1.05013E+01 0.00000E+00
 -1      3211 3.92850E+01 1.05013E+01 0.00000E+00
 -1      3212 4.37850E+01 1.05013E+01 0.00000E+00
 -1      3213 4.22850E+01 1.05013E+01 0.00000E+00
 -1      3214 4.15350E+01 1.18003E+01 0.00000E+00
 -1      3215 4.67850E+01 1.05013E+01 0.00000E+00
 -1      3216 4.52850E+01 1.05013E+01 0.00000E+00
 -1      3217 4.45350E+01 1.18003E+01 0.00000E+00
 -1      3218 4.97850E+01 1.05013E+01 0.00000E+00
 -1      3219 4.82850E+01 1.05013E+01 0.00000E+00
 -1      3220 4.75350E+01 1.18003E+01 0.00000E+00
 -1      3221 5.27850E+01 1.05013E+01 0.00000E+00
 -1      3222 5.12850E+01 1.05013E+01 0.00000E+00
 -1      3223 5.05350E+01 1.18003E+01 0.00000E+00
 -1      3224 5.57850E+01 1.05013E+01 0.00000E+00
 -1      3225 5.42850E+01 1.05013E+01 0.00000E+00
 -1      3226 5.35350E+01 1.18003E+01 0.00000E+00
 -1      3227 5.87850E+01 1.05013E+01 0.00000E+00
 -1      3228 5.72850E+01 1.05013E+01 0.00000E+00
 -1      3229 5.65350E+01 1.18003E+01 0.00000E+00
 -1      3230 6.17850E+01 1.05013E+01 0.00000E+00
 -1      3231 6.02850E+01 1.05013E+01 0.00000E+00
 -1      3232 5.95350E+01 1.18003E+01 0.00000E+00
 -1      3233 6.47850E+01 1.05013E+01 0.00000E+00
 -1      3234 6.32850E+01 1.05013E+01 0.00000E+00
 -1      3235 6.25350E+01 1.18003E+01 0.00000E+00
 -1      3236 6.77850E+01 1.05013E+01 0.00000E+00
 -1      3237 6.62850E+01 1.05013E+01 0.00000E+00
 -1      3238 6.55350E+01 1.18003E+01 0.00000E+00
 -1      3239 7.07850E+01 1.05013E+01 0.00000E+00
 -1      3240 6.92850E+01 1.05013E+01 0.00000E+00
 -1      3241 6.85350E+01 1.18003E+01 0.00000E+00
 -1      3242 7.37850E+01 1.05013E+01 0.00000E+00
 -1      3243 7.22850E+01 1.05013E+01 0.00000E+00
 -1      3244 7.15350E+01 1.18003E+01 0.00000E+00
 -1      3245 7.67850E+01 1.05013E+01 0.00000E+00
 -1      3246 7.52850E+01 1.05013E+01 0.00000E+00
 -1      3247 7.45350E+01 1.18003E+01 0.00000E+00
 -1      3248 1.15785E+02 1.02886E+01 0.00000E+00
 -1      3249 1.14285E+02 1.02886E+01 0.00000E+00
 -1      3250 1.12785E+02 1.02886E+01 0.00000E+00
 -1      3251 1.11285E+02 1.02886E+01 0.00000E+00
 -1      3252 1.13535E+02 1.15876E+01 0.00000E+00
 -1      3253 8.09009E+01 2.77807E+01 0.00000E+00
 -1      3254 8.01490E+01 2.65433E+01 0.00000E+00
 -1      3255 1.09785E+02 1.02886E+01 0.00000E+00
 -1      3256 1.08285E+02 1.02886E+01 0.00000E+00
 -1      3257 1.10535E+02 1.15876E+01 0.00000E+00
 -1      3258 1.18785E+02 1.02886E+01 0.00000E+00
 -1      3259 1.17285E+02 1.02886E+01 0.00000E+00
 -1      3260 1.16535E+02 1.15876E+01 0.00000E+00
 -1      3261 1.21785E+02 1.02886E+01 0.00000E+00
 -1      3262 1.20285E+02 1.02886E+01 0.00000E+00
 -1      3263 1.19535E+02 1.15876E+01 0.00000E+00
 -1      3264 1.24785E+02 1.02886E+01 0.00000E+00
 -1      3265 1.23285E+02 1.02886E+01 0.00000E+00
 -1      3266 1.22535E+02 1.15876E+01 0.00000E+00
 -1      3267 1.27785E+02 1.02886E+01 0.00000E+00
 -1      3268 1.26285E+02 1.02886E+01 0.00000E+00
 -1      3269 1.25535E+02 1.15876E+01 0.00000E+00
 -1      3270 1.30785E+02 1.02886E+01 0.00000E+00
 -1      3271 1.29285E+02 1.02886E+01 0.00000E+00
 -1      3272 1.28535E+02 1.15876E+01 0.00000E+00
 -1      3273 1.33785E+02 1.02886E+01 0.00000E+00
 -1      3274 1.32285E+02 1.02886E+01 0.00000E+00
 -1      3275 1.31535E+02 1.15876E+01 0.00000E+00
 -1      3276 8.86115E+01 3.11977E+01 0.00000E+00
 -1      3277 8.74039E+01 3.06440E+01 0.00000E+00
 -1      3278 1.38309E+02 2.86750E+01 0.00000E+00
 -1      3279 1.38309E+02 2.72250E+01 0.00000E+00
 -1      3280 1.16910E+01 2.12875E+01 0.00000E+00
 -1      3281 1.16910E+01 2.27625E+01 0.00000E+00
 -1      3282 1.97850E+01 1.05013E+01 0.00000E+00
 -1      3283 1.82850E+01 1.05013E+01 0.00000E+00
 -1      3284 2.05350E+01 1.18003E+01 0.00000E+00
 -1      3285 1.38309E+02 2.57500E+01 0.00000E+00
 -1      3286 1.38309E+02 2.42750E+01 0.00000E+00
 -1      3287 1.37010E+02 2.64750E+01 0.00000E+00
 -1      3288 1.38309E+02 3.45625E+01 0.00000E+00
 -1      3289 1.38309E+02 3.30875E+01 0.00000E+00
 -1      3290 8.20305E+01 9.68318E+00 0.00000E+00
 -1      3291 1.03548E+02 1.00253E+01 0.00000E+00
 -1      3292 9.14137E+00 3.71183E+01 0.00000E+00
 -1      3293 9.17362E+00 3.83534E+01 0.00000E+00
 -1      3294 1.05371E+01 3.86174E+01 0.00000E+00
 -1      3295 1.04404E+01 3.63808E+01 0.00000E+00
 -1      3296 9.12925E+01 3.22199E+01 0.00000E+00
 -1      3297 8.99520E+01 3.17088E+01 0.00000E+00
 -1      3298 8.89558E+01 3.22876E+01 0.00000E+00
 -1      3299 1.06785E+02 1.02886E+01 0.00000E+00
 -1      3300 1.05285E+02 1.02886E+01 0.00000E+00
 -1      3301 1.07535E+02 1.15876E+01 0.00000E+00
 -1      3302 1.04918E+02 2.14302E+01 0.00000E+00
 -1      3303 1.04440E+02 2.24756E+01 0.00000E+00
 -1      3304 1.04298E+02 1.13243E+01 0.00000E+00
 -1      3305 1.05432E+02 1.92106E+01 0.00000E+00
 -1      3306 1.05294E+02 2.01850E+01 0.00000E+00
 -1      3307 8.23088E+01 1.09998E+01 0.00000E+00
 -1      3308 1.04960E+02 1.36269E+01 0.00000E+00
 -1      3309 1.05413E+02 1.48362E+01 0.00000E+00
 -1      3310 7.94784E+01 2.51092E+01 0.00000E+00
 -1      3311 7.88619E+01 2.37824E+01 0.00000E+00
 -1      3312 7.83822E+01 1.87099E+01 0.00000E+00
 -1      3313 7.84801E+01 1.74964E+01 0.00000E+00
 -1      3314 1.38309E+02 3.16187E+01 0.00000E+00
 -1      3315 1.38309E+02 3.01437E+01 0.00000E+00
 -1      3316 1.37010E+02 2.94188E+01 0.00000E+00
 -1      3317 1.37010E+02 3.23563E+01 0.00000E+00
 -1      3318 3.77850E+01 1.05013E+01 0.00000E+00
 -1      3319 3.62850E+01 1.05013E+01 0.00000E+00
 -1      3320 3.55350E+01 1.18003E+01 0.00000E+00
 -1      3321 3.85350E+01 1.18003E+01 0.00000E+00
 -1      3322 1.59000E+01 3.83090E+01 0.00000E+00
 -1      3323 1.74000E+01 3.83090E+01 0.00000E+00
 -1      3324 1.81500E+01 3.70100E+01 0.00000E+00
 -1      3325 9.76154E+01 3.10828E+01 0.00000E+00
 -1      3326 9.65318E+01 3.16964E+01 0.00000E+00
 -1      3327 1.05614E+02 1.65098E+01 0.00000E+00
 -1      3328 1.05599E+02 1.79127E+01 0.00000E+00
 -1      3329 1.39407E+02 1.25250E+01 0.00000E+00
 -1      3330 8.34619E+01 2.96778E+01 0.00000E+00
 -1      3331 8.23389E+01 2.89363E+01 0.00000E+00
 -1      3332 1.67850E+01 1.05013E+01 0.00000E+00
 -1      3333 1.52850E+01 1.05013E+01 0.00000E+00
 -1      3334 1.75350E+01 1.18003E+01 0.00000E+00
 -1      3335 1.04907E+02 1.24839E+01 0.00000E+00
 -1      3336 1.04141E+02 2.34166E+01 0.00000E+00
 -1      3337 1.03842E+02 2.43575E+01 0.00000E+00
 -1      3338 1.05155E+02 2.32478E+01 0.00000E+00
 -1      3339 1.03330E+02 2.55583E+01 0.00000E+00
 -1      3340 1.02700E+02 2.64042E+01 0.00000E+00
 -1      3341 7.91155E+01 1.64941E+01 0.00000E+00
 -1      3342 7.91815E+01 1.28583E+01 0.00000E+00
 -1      3343 7.98856E+01 1.17982E+01 0.00000E+00
 -1      3344 1.27380E+01 1.01829E+01 0.00000E+00
 -1      3345 1.20772E+01 1.14631E+01 0.00000E+00
 -1      3346 1.33763E+01 1.22006E+01 0.00000E+00
 -1      3347 1.41488E+01 1.02017E+01 0.00000E+00
 -1      3348 7.81832E+01 1.51590E+01 0.00000E+00
 -1      3349 7.86013E+01 1.41220E+01 0.00000E+00
 -1      3350 8.08133E+01 1.05188E+01 0.00000E+00
 -1      3351 7.96073E+01 1.04816E+01 0.00000E+00
 -1      3352 1.16910E+01 2.42375E+01 0.00000E+00
 -1      3353 1.16910E+01 2.57125E+01 0.00000E+00
 -1      3354 1.29900E+01 2.35000E+01 0.00000E+00
 -1      3355 1.00428E+02 2.89868E+01 0.00000E+00
 -1      3356 1.00329E+02 3.00094E+01 0.00000E+00
 -1      3357 1.01342E+02 2.90422E+01 0.00000E+00
 -1      3358 9.21941E+01 3.28544E+01 0.00000E+00
 -1      3359 9.11979E+01 3.34332E+01 0.00000E+00
 -1      3360 9.30957E+01 3.34889E+01 0.00000E+00
 -1      3361 1.37010E+02 2.35250E+01 0.00000E+00
 -1      3362 1.38309E+02 2.28000E+01 0.00000E+00
 -1      3363 1.38309E+02 2.13250E+01 0.00000E+00
 -1      3364 1.02637E+02 2.73049E+01 0.00000E+00
 -1      3365 1.38309E+02 1.69188E+01 0.00000E+00
 -1      3366 1.38309E+02 1.54563E+01 0.00000E+00
 -1      3367 1.36178E+01 3.83729E+01 0.00000E+00
 -1      3368 1.47589E+01 3.83409E+01 0.00000E+00
 -1      3369 1.55089E+01 3.70419E+01 0.00000E+00
 -1      3370 1.16783E+01 3.85855E+01 0.00000E+00
 -1      3371 2.95350E+01 1.18003E+01 0.00000E+00
 -1      3372 2.87850E+01 1.05013E+01 0.00000E+00
 -1      3373 2.72850E+01 1.05013E+01 0.00000E+00
 -1      3374 7.88351E+01 2.63472E+01 0.00000E+00
 -1      3375 7.81073E+01 1.04816E+01 0.00000E+00
 -1      3376 7.73573E+01 1.17807E+01 0.00000E+00
 -1      3377 8.09437E+01 2.89370E+01 0.00000E+00
 -1      3378 7.95485E+01 2.89376E+01 0.00000E+00
 -1      3379 8.09865E+01 3.00933E+01 0.00000E+00
 -1      3380 8.65089E+01 3.11859E+01 0.00000E+00
 -1      3381 1.34953E+02 1.06225E+01 0.00000E+00
 -1      3382 1.34203E+02 1.19215E+01 0.00000E+00
 -1      3383 1.36120E+02 1.09563E+01 0.00000E+00
 -1      3384 1.05830E+02 2.10617E+01 0.00000E+00
 -1      3385 1.38309E+02 1.98594E+01 0.00000E+00
 -1      3386 1.38309E+02 1.83844E+01 0.00000E+00
 -1      3387 1.37010E+02 1.76531E+01 0.00000E+00
 -1      3388 1.37010E+02 2.05844E+01 0.00000E+00
 -1      3389 7.80994E+01 1.30248E+01 0.00000E+00
 -1      3390 1.06088E+02 1.27306E+01 0.00000E+00
 -1      3391 7.77314E+01 1.96892E+01 0.00000E+00
 -1      3392 7.69256E+01 1.90135E+01 0.00000E+00
 -1      3393 7.70807E+01 2.06685E+01 0.00000E+00
 -1      3394 1.16910E+01 3.30594E+01 0.00000E+00
 -1      3395 1.16910E+01 3.45281E+01 0.00000E+00
 -1      3396 7.80255E+01 2.31287E+01 0.00000E+00
 -1      3397 7.71891E+01 2.24749E+01 0.00000E+00
 -1      3398 7.73281E+01 2.42593E+01 0.00000E+00
 -1      3399 2.42850E+01 1.05013E+01 0.00000E+00
 -1      3400 2.35350E+01 1.18003E+01 0.00000E+00
 -1      3401 2.57850E+01 1.05013E+01 0.00000E+00
 -1      3402 9.93344E+01 3.10749E+01 0.00000E+00
 -1      3403 9.84749E+01 3.10789E+01 0.00000E+00
 -1      3404 9.83941E+01 3.21998E+01 0.00000E+00
 -1      3405 1.04344E+02 2.53895E+01 0.00000E+00
 -1      3406 1.16910E+01 3.01219E+01 0.00000E+00
 -1      3407 1.16910E+01 3.15906E+01 0.00000E+00
 -1      3408 1.29900E+01 3.23250E+01 0.00000E+00
 -1      3409 1.06374E+02 1.85187E+01 0.00000E+00
 -1      3410 1.16910E+01 1.54063E+01 0.00000E+00
 -1      3411 1.16910E+01 1.68750E+01 0.00000E+00
 -1      3412 1.29900E+01 1.46687E+01 0.00000E+00
 -1      3413 1.06342E+02 1.55472E+01 0.00000E+00
 -1      3414 1.07270E+02 1.62583E+01 0.00000E+00
 -1      3415 1.07069E+02 1.45846E+01 0.00000E+00
 -1      3416 8.43224E+01 3.10101E+01 0.00000E+00
 -1      3417 8.38921E+01 3.03440E+01 0.00000E+00
 -1      3418 8.28119E+01 3.07588E+01 0.00000E+00
 -1      3419 1.16910E+01 1.83469E+01 0.00000E+00
 -1      3420 1.16910E+01 1.98156E+01 0.00000E+00
 -1      3421 1.29900E+01 2.05531E+01 0.00000E+00
 -1      3422 1.29900E+01 1.76094E+01 0.00000E+00
 -1      3423 1.38214E+02 1.37432E+01 0.00000E+00
 -1      3424 1.38013E+02 1.15432E+01 0.00000E+00
 -1      3425 9.58133E+01 3.25569E+01 0.00000E+00
 -1      3426 9.50947E+01 3.34175E+01 0.00000E+00
 -1      3427 9.68161E+01 3.30643E+01 0.00000E+00
 -1      3428 1.48988E+01 1.15007E+01 0.00000E+00
 -1      3429 7.82118E+01 1.70319E+01 0.00000E+00
 -1      3430 7.79434E+01 1.65673E+01 0.00000E+00
 -1      3431 7.73080E+01 1.75696E+01 0.00000E+00
 -1      3432 7.72794E+01 1.56968E+01 0.00000E+00
 -1      3433 1.37758E+02 3.64912E+01 0.00000E+00
 -1      3434 1.38123E+02 3.54142E+01 0.00000E+00
 -1      3435 1.36824E+02 3.46768E+01 0.00000E+00
 -1      3436 1.36451E+02 3.63802E+01 0.00000E+00
 -1      3437 8.92609E+01 3.35010E+01 0.00000E+00
 -1      3438 8.79204E+01 3.29899E+01 0.00000E+00
 -1      3439 2.34000E+01 3.57110E+01 0.00000E+00
 -1      3440 2.49000E+01 3.57110E+01 0.00000E+00
 -1      3441 2.64000E+01 3.57110E+01 0.00000E+00
 -1      3442 2.79000E+01 3.57110E+01 0.00000E+00
 -1      3443 2.56500E+01 3.44120E+01 0.00000E+00
 -1      3444 2.94000E+01 3.57110E+01 0.00000E+00
 -1      3445 3.09000E+01 3.57110E+01 0.00000E+00
 -1      3446 2.86500E+01 3.44120E+01 0.00000E+00
 -1      3447 3.24000E+01 3.57110E+01 0.00000E+00
 -1      3448 3.39000E+01 3.57110E+01 0.00000E+00
 -1      3449 3.16500E+01 3.44120E+01 0.00000E+00
 -1      3450 3.54000E+01 3.57110E+01 0.00000E+00
 -1      3451 3.69000E+01 3.57110E+01 0.00000E+00
 -1      3452 3.46500E+01 3.44120E+01 0.00000E+00
 -1      3453 3.84000E+01 3.57110E+01 0.00000E+00
 -1      3454 3.99000E+01 3.57110E+01 0.00000E+00
 -1      3455 3.76500E+01 3.44120E+01 0.00000E+00
 -1      3456 4.14000E+01 3.57110E+01 0.00000E+00
 -1      3457 4.29000E+01 3.57110E+01 0.00000E+00
 -1      3458 4.06500E+01 3.44120E+01 0.00000E+00
 -1      3459 4.44000E+01 3.57110E+01 0.00000E+00
 -1      3460 4.59000E+01 3.57110E+01 0.00000E+00
 -1      3461 4.36500E+01 3.44120E+01 0.00000E+00
 -1      3462 4.74000E+01 3.57110E+01 0.00000E+00
 -1      3463 4.89000E+01 3.57110E+01 0.00000E+00
 -1      3464 4.66500E+01 3.44120E+01 0.00000E+00
 -1      3465 5.04000E+01 3.57110E+01 0.00000E+00
 -1      3466 5.19000E+01 3.57110E+01 0.00000E+00
 -1      3467 4.96500E+01 3.44120E+01 0.00000E+00
 -1      3468 5.34000E+01 3.57110E+01 0.00000E+00
 -1      3469 5.49000E+01 3.57110E+01 0.00000E+00
 -1      3470 5.26500E+01 3.44120E+01 0.00000E+00
 -1      3471 5.64000E+01 3.57110E+01 0.00000E+00
 -1      3472 5.79000E+01 3.57110E+01 0.00000E+00
 -1      3473 5.56500E+01 3.44120E+01 0.00000E+00
 -1      3474 5.94000E+01 3.57110E+01 0.00000E+00
 -1      3475 6.09000E+01 3.57110E+01 0.00000E+00
 -1      3476 5.86500E+01 3.44120E+01 0.00000E+00
 -1      3477 6.24000E+01 3.57110E+01 0.00000E+00
 -1      3478 6.39000E+01 3.57110E+01 0.00000E+00
 -1      3479 6.16500E+01 3.44120E+01 0.00000E+00
 -1      3480 6.54000E+01 3.57110E+01 0.00000E+00
 -1      3481 6.69000E+01 3.57110E+01 0.00000E+00
 -1      3482 6.46500E+01 3.44120E+01 0.00000E+00
 -1      3483 6.84000E+01 3.57110E+01 0.00000E+00
 -1      3484 6.99000E+01 3.57110E+01 0.00000E+00
 -1      3485 6.76500E+01 3.44120E+01 0.00000E+00
 -1      3486 7.14000E+01 3.57110E+01 0.00000E+00
 -1      3487 7.29000E+01 3.57110E+01 0.00000E+00
 -1      3488 7.06500E+01 3.44120E+01 0.00000E+00
 -1      3489 7.44000E+01 3.57110E+01 0.00000E+00
 -1      3490 7.59000E+01 3.57110E+01 0.00000E+00
 -1      3491 7.36500E+01 3.44120E+01 0.00000E+00
 -1      3492 7.74000E+01 3.57110E+01 0.00000E+00
 -1      3493 7.89000E+01 3.57110E+01 0.00000E+00
 -1      3494 7.66500E+01 3.44120E+01 0.00000E+00
 -1      3495 8.04000E+01 3.57110E+01 0.00000E+00
 -1      3496 8.19000E+01 3.57110E+01 0.00000E+00
 -1      3497 7.96500E+01 3.44120E+01 0.00000E+00
 -1      3498 8.34000E+01 3.57110E+01 0.00000E+00
 -1      3499 8.49000E+01 3.57110E+01 0.00000E+00
 -1      3500 8.26500E+01 3.44120E+01 0.00000E+00
 -1      3501 8.69377E+01 3.56067E+01 0.00000E+00
 -1      3502 8.84377E+01 3.56067E+01 0.00000E+00
 -1      3503 8.99377E+01 3.56067E+01 0.00000E+00
 -1      3504 9.18748E+01 3.55388E+01 0.00000E+00
 -1      3505 9.33748E+01 3.55388E+01 0.00000E+00
 -1      3506 9.53737E+01 3.54675E+01 0.00000E+00
 -1      3507 9.68737E+01 3.54675E+01 0.00000E+00
 -1      3508 9.84518E+01 3.46029E+01 0.00000E+00
 -1      3509 9.99518E+01 3.46029E+01 0.00000E+00
 -1      3510 1.04400E+02 3.57110E+01 0.00000E+00
 -1      3511 1.05900E+02 3.57110E+01 0.00000E+00
 -1      3512 1.07400E+02 3.57110E+01 0.00000E+00
 -1      3513 1.08900E+02 3.57110E+01 0.00000E+00
 -1      3514 1.06650E+02 3.44120E+01 0.00000E+00
 -1      3515 1.10400E+02 3.57110E+01 0.00000E+00
 -1      3516 1.11900E+02 3.57110E+01 0.00000E+00
 -1      3517 1.09650E+02 3.44120E+01 0.00000E+00
 -1      3518 1.13400E+02 3.57110E+01 0.00000E+00
 -1      3519 1.14900E+02 3.57110E+01 0.00000E+00
 -1      3520 1.12650E+02 3.44120E+01 0.00000E+00
 -1      3521 1.16400E+02 3.57110E+01 0.00000E+00
 -1      3522 1.17900E+02 3.57110E+01 0.00000E+00
 -1      3523 1.15650E+02 3.44120E+01 0.00000E+00
 -1      3524 1.19400E+02 3.57110E+01 0.00000E+00
 -1      3525 1.20900E+02 3.57110E+01 0.00000E+00
 -1      3526 1.18650E+02 3.44120E+01 0.00000E+00
 -1      3527 1.22400E+02 3.57110E+01 0.00000E+00
 -1      3528 1.23900E+02 3.57110E+01 0.00000E+00
 -1      3529 1.21650E+02 3.44120E+01 0.00000E+00
 -1      3530 1.25400E+02 3.57110E+01 0.00000E+00
 -1      3531 1.26900E+02 3.57110E+01 0.00000E+00
 -1      3532 1.24650E+02 3.44120E+01 0.00000E+00
 -1      3533 1.28400E+02 3.57110E+01 0.00000E+00
 -1      3534 1.29900E+02 3.57110E+01 0.00000E+00
 -1      3535 1.27650E+02 3.44120E+01 0.00000E+00
 -1      3536 1.31400E+02 3.57110E+01 0.00000E+00
 -1      3537 1.32900E+02 3.57110E+01 0.00000E+00
 -1      3538 1.30650E+02 3.44120E+01 0.00000E+00
 -1      3539 1.24283E+01 3.72865E+01 0.00000E+00
 -1      3540 1.74000E+01 3.57110E+01 0.00000E+00
 -1      3541 1.89000E+01 3.57110E+01 0.00000E+00
 -1      3542 4.52850E+01 1.30992E+01 0.00000E+00
 -1      3543 4.37850E+01 1.30992E+01 0.00000E+00
 -1      3544 4.22850E+01 1.30992E+01 0.00000E+00
 -1      3545 4.07850E+01 1.30992E+01 0.00000E+00
 -1      3546 4.30350E+01 1.43982E+01 0.00000E+00
 -1      3547 5.12850E+01 1.30992E+01 0.00000E+00
 -1      3548 4.97850E+01 1.30992E+01 0.00000E+00
 -1      3549 5.42850E+01 1.30992E+01 0.00000E+00
 -1      3550 5.27850E+01 1.30992E+01 0.00000E+00
 -1      3551 5.20350E+01 1.43982E+01 0.00000E+00
 -1      3552 5.72850E+01 1.30992E+01 0.00000E+00
 -1      3553 5.57850E+01 1.30992E+01 0.00000E+00
 -1      3554 5.50350E+01 1.43982E+01 0.00000E+00
 -1      3555 6.02850E+01 1.30992E+01 0.00000E+00
 -1      3556 5.87850E+01 1.30992E+01 0.00000E+00
 -1      3557 5.80350E+01 1.43982E+01 0.00000E+00
 -1      3558 6.32850E+01 1.30992E+01 0.00000E+00
 -1      3559 6.17850E+01 1.30992E+01 0.00000E+00
 -1      3560 6.10350E+01 1.43982E+01 0.00000E+00
 -1      3561 6.62850E+01 1.30992E+01 0.00000E+00
 -1      3562 6.47850E+01 1.30992E+01 0.00000E+00
 -1      3563 6.40350E+01 1.43982E+01 0.00000E+00
 -1      3564 6.92850E+01 1.30992E+01 0.00000E+00
 -1      3565 6.77850E+01 1.30992E+01 0.00000E+00
 -1      3566 6.70350E+01 1.43982E+01 0.00000E+00
 -1      3567 7.22850E+01 1.30992E+01 0.00000E+00
 -1      3568 7.07850E+01 1.30992E+01 0.00000E+00
 -1      3569 7.00350E+01 1.43982E+01 0.00000E+00
 -1      3570 1.20285E+02 1.28866E+01 0.00000E+00
 -1      3571 1.18785E+02 1.28866E+01 0.00000E+00
 -1      3572 2.04000E+01 3.57110E+01 0.00000E+00
 -1      3573 2.19000E+01 3.57110E+01 0.00000E+00
 -1      3574 2.26500E+01 3.44120E+01 0.00000E+00
 -1      3575 1.17285E+02 1.28866E+01 0.00000E+00
 -1      3576 1.15785E+02 1.28866E+01 0.00000E+00
 -1      3577 1.18035E+02 1.41856E+01 0.00000E+00
 -1      3578 1.36915E+02 1.44744E+01 0.00000E+00
 -1      3579 1.23285E+02 1.28866E+01 0.00000E+00
 -1      3580 1.21785E+02 1.28866E+01 0.00000E+00
 -1      3581 1.21035E+02 1.41856E+01 0.00000E+00
 -1      3582 1.26285E+02 1.28866E+01 0.00000E+00
 -1      3583 1.24785E+02 1.28866E+01 0.00000E+00
 -1      3584 1.24035E+02 1.41856E+01 0.00000E+00
 -1      3585 1.29285E+02 1.28866E+01 0.00000E+00
 -1      3586 1.27785E+02 1.28866E+01 0.00000E+00
 -1      3587 1.27035E+02 1.41856E+01 0.00000E+00
 -1      3588 1.32285E+02 1.28866E+01 0.00000E+00
 -1      3589 1.30785E+02 1.28866E+01 0.00000E+00
 -1      3590 1.30035E+02 1.41856E+01 0.00000E+00
 -1      3591 1.06914E+02 2.07097E+01 0.00000E+00
 -1      3592 1.06538E+02 2.19549E+01 0.00000E+00
 -1      3593 1.36845E+02 1.12093E+01 0.00000E+00
 -1      3594 1.35711E+02 2.72125E+01 0.00000E+00
 -1      3595 1.35711E+02 2.57375E+01 0.00000E+00
 -1      3596 1.03801E+02 2.78946E+01 0.00000E+00
 -1      3597 1.02605E+02 2.86092E+01 0.00000E+00
 -1      3598 1.07469E+02 1.80006E+01 0.00000E+00
 -1      3599 1.07301E+02 1.92984E+01 0.00000E+00
 -1      3600 8.65399E+01 3.24595E+01 0.00000E+00
 -1      3601 8.54335E+01 3.18688E+01 0.00000E+00
 -1      3602 7.67771E+01 1.30444E+01 0.00000E+00
 -1      3603 1.07588E+02 1.27306E+01 0.00000E+00
 -1      3604 7.80141E+01 2.76049E+01 0.00000E+00
 -1      3605 7.73435E+01 2.61708E+01 0.00000E+00
 -1      3606 1.16910E+01 2.71844E+01 0.00000E+00
 -1      3607 1.16910E+01 2.86531E+01 0.00000E+00
 -1      3608 1.29900E+01 2.93875E+01 0.00000E+00
 -1      3609 7.59838E+01 1.62007E+01 0.00000E+00
 -1      3610 7.62235E+01 1.47925E+01 0.00000E+00
 -1      3611 1.82850E+01 1.30992E+01 0.00000E+00
 -1      3612 1.67850E+01 1.30992E+01 0.00000E+00
 -1      3613 1.05769E+02 2.52870E+01 0.00000E+00
 -1      3614 1.05257E+02 2.64879E+01 0.00000E+00
 -1      3615 1.08516E+02 1.34417E+01 0.00000E+00
 -1      3616 1.11516E+02 1.34417E+01 0.00000E+00
 -1      3617 1.10016E+02 1.34417E+01 0.00000E+00
 -1      3618 1.09498E+02 1.52957E+01 0.00000E+00
 -1      3619 1.06238E+02 2.28958E+01 0.00000E+00
 -1      3620 1.05939E+02 2.38367E+01 0.00000E+00
 -1      3621 1.07322E+02 2.25438E+01 0.00000E+00
 -1      3622 4.82850E+01 1.30992E+01 0.00000E+00
 -1      3623 4.67850E+01 1.30992E+01 0.00000E+00
 -1      3624 4.60350E+01 1.43982E+01 0.00000E+00
 -1      3625 4.90350E+01 1.43982E+01 0.00000E+00
 -1      3626 2.12850E+01 1.30992E+01 0.00000E+00
 -1      3627 1.97850E+01 1.30992E+01 0.00000E+00
 -1      3628 1.90350E+01 1.43982E+01 0.00000E+00
 -1      3629 1.56488E+01 1.27997E+01 0.00000E+00
 -1      3630 1.45125E+01 1.25001E+01 0.00000E+00
 -1      3631 1.41263E+01 1.34996E+01 0.00000E+00
 -1      3632 1.63988E+01 1.40987E+01 0.00000E+00
 -1      3633 1.14401E+02 1.31641E+01 0.00000E+00
 -1      3634 1.12901E+02 1.31641E+01 0.00000E+00
 -1      3635 1.12382E+02 1.50182E+01 0.00000E+00
 -1      3636 1.15151E+02 1.44631E+01 0.00000E+00
 -1      3637 3.32850E+01 1.30992E+01 0.00000E+00
 -1      3638 3.17850E+01 1.30992E+01 0.00000E+00
 -1      3639 7.54814E+01 1.35483E+01 0.00000E+00
 -1      3640 1.02505E+02 2.96319E+01 0.00000E+00
 -1      3641 1.42890E+01 2.27625E+01 0.00000E+00
 -1      3642 1.42890E+01 2.42375E+01 0.00000E+00
 -1      3643 1.35711E+02 2.42625E+01 0.00000E+00
 -1      3644 1.35711E+02 2.27875E+01 0.00000E+00
 -1      3645 1.34412E+02 2.50000E+01 0.00000E+00
 -1      3646 1.96500E+01 3.44120E+01 0.00000E+00
 -1      3647 8.61877E+01 3.43077E+01 0.00000E+00
 -1      3648 1.51178E+01 3.57749E+01 0.00000E+00
 -1      3649 1.62589E+01 3.57429E+01 0.00000E+00
 -1      3650 1.70089E+01 3.44439E+01 0.00000E+00
 -1      3651 1.06852E+02 2.49350E+01 0.00000E+00
 -1      3652 1.00850E+02 3.30375E+01 0.00000E+00
 -1      3653 1.01548E+02 3.54446E+01 0.00000E+00
 -1      3654 1.03048E+02 3.54446E+01 0.00000E+00
 -1      3655 2.27850E+01 1.30992E+01 0.00000E+00
 -1      3656 2.20350E+01 1.43982E+01 0.00000E+00
 -1      3657 2.42850E+01 1.30992E+01 0.00000E+00
 -1      3658 1.34022E+02 3.59901E+01 0.00000E+00
 -1      3659 1.35329E+02 3.61011E+01 0.00000E+00
 -1      3660 1.35515E+02 3.52494E+01 0.00000E+00
 -1      3661 1.33272E+02 3.46911E+01 0.00000E+00
 -1      3662 3.02850E+01 1.30992E+01 0.00000E+00
 -1      3663 2.87850E+01 1.30992E+01 0.00000E+00
 -1      3664 3.10350E+01 1.43982E+01 0.00000E+00
 -1      3665 1.41263E+01 1.49683E+01 0.00000E+00
 -1      3666 4.00350E+01 1.43982E+01 0.00000E+00
 -1      3667 3.92850E+01 1.30992E+01 0.00000E+00
 -1      3668 3.77850E+01 1.30992E+01 0.00000E+00
 -1      3669 1.35665E+02 1.54030E+01 0.00000E+00
 -1      3670 1.35570E+02 1.36899E+01 0.00000E+00
 -1      3671 7.39814E+01 1.35483E+01 0.00000E+00
 -1      3672 7.32314E+01 1.48473E+01 0.00000E+00
 -1      3673 7.80997E+01 2.99175E+01 0.00000E+00
 -1      3674 7.80569E+01 2.87612E+01 0.00000E+00
 -1      3675 7.65653E+01 2.85848E+01 0.00000E+00
 -1      3676 1.08197E+02 1.70380E+01 0.00000E+00
 -1      3677 1.05225E+02 2.77921E+01 0.00000E+00
 -1      3678 1.05194E+02 2.90964E+01 0.00000E+00
 -1      3679 1.06650E+02 2.76896E+01 0.00000E+00
 -1      3680 1.33678E+02 1.31031E+01 0.00000E+00
 -1      3681 1.32928E+02 1.44021E+01 0.00000E+00
 -1      3682 1.08009E+02 2.01916E+01 0.00000E+00
 -1      3683 1.36095E+02 1.25083E+01 0.00000E+00
 -1      3684 1.35711E+02 2.86812E+01 0.00000E+00
 -1      3685 1.34412E+02 2.79438E+01 0.00000E+00
 -1      3686 1.35711E+02 3.01500E+01 0.00000E+00
 -1      3687 3.62850E+01 1.30992E+01 0.00000E+00
 -1      3688 3.47850E+01 1.30992E+01 0.00000E+00
 -1      3689 3.40350E+01 1.43982E+01 0.00000E+00
 -1      3690 3.70350E+01 1.43982E+01 0.00000E+00
 -1      3691 1.00248E+02 3.11304E+01 0.00000E+00
 -1      3692 7.65071E+01 2.55171E+01 0.00000E+00
 -1      3693 7.56706E+01 2.48633E+01 0.00000E+00
 -1      3694 7.56860E+01 2.67748E+01 0.00000E+00
 -1      3695 7.63833E+01 2.17992E+01 0.00000E+00
 -1      3696 7.55775E+01 2.11235E+01 0.00000E+00
 -1      3697 7.56859E+01 2.29299E+01 0.00000E+00
 -1      3698 8.43533E+01 3.22837E+01 0.00000E+00
 -1      3699 1.23799E+01 3.61682E+01 0.00000E+00
 -1      3700 1.29900E+01 2.64469E+01 0.00000E+00
 -1      3701 2.65350E+01 1.18003E+01 0.00000E+00
 -1      3702 1.35665E+02 1.83342E+01 0.00000E+00
 -1      3703 1.35665E+02 1.68686E+01 0.00000E+00
 -1      3704 1.34321E+02 1.60841E+01 0.00000E+00
 -1      3705 1.03798E+02 3.41456E+01 0.00000E+00
 -1      3706 8.14167E+01 3.07594E+01 0.00000E+00
 -1      3707 8.00215E+01 3.07601E+01 0.00000E+00
 -1      3708 8.18470E+01 3.14256E+01 0.00000E+00
 -1      3709 9.43710E+01 3.49601E+01 0.00000E+00
 -1      3710 1.42890E+01 1.98188E+01 0.00000E+00
 -1      3711 1.42890E+01 2.12906E+01 0.00000E+00
 -1      3712 1.55880E+01 2.20281E+01 0.00000E+00
 -1      3713 7.66271E+01 1.82727E+01 0.00000E+00
 -1      3714 7.63587E+01 1.78081E+01 0.00000E+00
 -1      3715 1.35702E+02 3.43976E+01 0.00000E+00
 -1      3716 1.42890E+01 3.15906E+01 0.00000E+00
 -1      3717 1.42890E+01 3.30594E+01 0.00000E+00
 -1      3718 1.36789E+01 3.54338E+01 0.00000E+00
 -1      3719 7.53028E+01 1.69038E+01 0.00000E+00
 -1      3720 1.57279E+01 3.34004E+01 0.00000E+00
 -1      3721 1.44289E+01 3.41348E+01 0.00000E+00
 -1      3722 7.59763E+01 1.92520E+01 0.00000E+00
 -1      3723 1.34487E+02 3.38100E+01 0.00000E+00
 -1      3724 1.35795E+02 3.32374E+01 0.00000E+00
 -1      3725 1.35795E+02 3.17686E+01 0.00000E+00
 -1      3726 1.33365E+02 3.35309E+01 0.00000E+00
 -1      3727 1.67291E+01 3.22931E+01 0.00000E+00
 -1      3728 1.68690E+01 3.33685E+01 0.00000E+00
 -1      3729 1.80101E+01 3.33366E+01 0.00000E+00
 -1      3730 7.39813E+01 1.80622E+01 0.00000E+00
 -1      3731 7.36064E+01 1.64548E+01 0.00000E+00
 -1      3732 7.19100E+01 1.60057E+01 0.00000E+00
 -1      3733 1.05900E+02 3.31130E+01 0.00000E+00
 -1      3734 1.07400E+02 3.31130E+01 0.00000E+00
 -1      3735 1.01844E+02 3.19720E+01 0.00000E+00
 -1      3736 8.68450E+01 3.36729E+01 0.00000E+00
 -1      3737 2.79000E+01 3.31130E+01 0.00000E+00
 -1      3738 2.94000E+01 3.31130E+01 0.00000E+00
 -1      3739 3.09000E+01 3.31130E+01 0.00000E+00
 -1      3740 3.24000E+01 3.31130E+01 0.00000E+00
 -1      3741 3.01500E+01 3.18140E+01 0.00000E+00
 -1      3742 3.39000E+01 3.31130E+01 0.00000E+00
 -1      3743 3.54000E+01 3.31130E+01 0.00000E+00
 -1      3744 3.31500E+01 3.18140E+01 0.00000E+00
 -1      3745 3.69000E+01 3.31130E+01 0.00000E+00
 -1      3746 3.84000E+01 3.31130E+01 0.00000E+00
 -1      3747 3.61500E+01 3.18140E+01 0.00000E+00
 -1      3748 3.99000E+01 3.31130E+01 0.00000E+00
 -1      3749 4.14000E+01 3.31130E+01 0.00000E+00
 -1      3750 3.91500E+01 3.18140E+01 0.00000E+00
 -1      3751 4.29000E+01 3.31130E+01 0.00000E+00
 -1      3752 4.44000E+01 3.31130E+01 0.00000E+00
 -1      3753 4.21500E+01 3.18140E+01 0.00000E+00
 -1      3754 4.59000E+01 3.31130E+01 0.00000E+00
 -1      3755 4.74000E+01 3.31130E+01 0.00000E+00
 -1      3756 4.51500E+01 3.18140E+01 0.00000E+00
 -1      3757 4.89000E+01 3.31130E+01 0.00000E+00
 -1      3758 5.04000E+01 3.31130E+01 0.00000E+00
 -1      3759 4.81500E+01 3.18140E+01 0.00000E+00
 -1      3760 5.19000E+01 3.31130E+01 0.00000E+00
 -1      3761 5.34000E+01 3.31130E+01 0.00000E+00
 -1      3762 5.11500E+01 3.18140E+01 0.00000E+00
 -1      3763 5.49000E+01 3.31130E+01 0.00000E+00
 -1      3764 5.64000E+01 3.31130E+01 0.00000E+00
 -1      3765 5.41500E+01 3.18140E+01 0.00000E+00
 -1      3766 5.79000E+01 3.31130E+01 0.00000E+00
 -1      3767 5.94000E+01 3.31130E+01 0.00000E+00
 -1      3768 5.71500E+01 3.18140E+01 0.00000E+00
 -1      3769 6.09000E+01 3.31130E+01 0.00000E+00
 -1      3770 6.24000E+01 3.31130E+01 0.00000E+00
 -1      3771 6.01500E+01 3.18140E+01 0.00000E+00
 -1      3772 6.39000E+01 3.31130E+01 0.00000E+00
 -1      3773 6.54000E+01 3.31130E+01 0.00000E+00
 -1      3774 6.31500E+01 3.18140E+01 0.00000E+00
 -1      3775 6.69000E+01 3.31130E+01 0.00000E+00
 -1      3776 6.84000E+01 3.31130E+01 0.00000E+00
 -1      3777 6.61500E+01 3.18140E+01 0.00000E+00
 -1      3778 6.99000E+01 3.31130E+01 0.00000E+00
 -1      3779 7.14000E+01 3.31130E+01 0.00000E+00
 -1      3780 6.91500E+01 3.18140E+01 0.00000E+00
 -1      3781 7.29000E+01 3.31130E+01 0.00000E+00
 -1      3782 7.44000E+01 3.31130E+01 0.00000E+00
 -1      3783 7.21500E+01 3.18140E+01 0.00000E+00
 -1      3784 7.58790E+01 3.20766E+01 0.00000E+00
 -1      3785 7.73790E+01 3.20766E+01 0.00000E+00
 -1      3786 7.93009E+01 3.29191E+01 0.00000E+00
 -1      3787 8.08009E+01 3.29191E+01 0.00000E+00
 -1      3788 9.01625E+01 3.41355E+01 0.00000E+00
 -1      3789 1.42890E+01 2.57094E+01 0.00000E+00
 -1      3790 1.42890E+01 2.71812E+01 0.00000E+00
 -1      3791 1.55880E+01 2.49719E+01 0.00000E+00
 -1      3792 1.08900E+02 3.31130E+01 0.00000E+00
 -1      3793 1.10400E+02 3.31130E+01 0.00000E+00
 -1      3794 1.08150E+02 3.18140E+01 0.00000E+00
 -1      3795 1.11900E+02 3.31130E+01 0.00000E+00
 -1      3796 1.13400E+02 3.31130E+01 0.00000E+00
 -1      3797 1.11150E+02 3.18140E+01 0.00000E+00
 -1      3798 1.14900E+02 3.31130E+01 0.00000E+00
 -1      3799 1.16400E+02 3.31130E+01 0.00000E+00
 -1      3800 1.14150E+02 3.18140E+01 0.00000E+00
 -1      3801 1.17900E+02 3.31130E+01 0.00000E+00
 -1      3802 1.19400E+02 3.31130E+01 0.00000E+00
 -1      3803 1.17150E+02 3.18140E+01 0.00000E+00
 -1      3804 1.20900E+02 3.31130E+01 0.00000E+00
 -1      3805 1.22400E+02 3.31130E+01 0.00000E+00
 -1      3806 1.20150E+02 3.18140E+01 0.00000E+00
 -1      3807 1.23900E+02 3.31130E+01 0.00000E+00
 -1      3808 1.25400E+02 3.31130E+01 0.00000E+00
 -1      3809 1.23150E+02 3.18140E+01 0.00000E+00
 -1      3810 1.26900E+02 3.31130E+01 0.00000E+00
 -1      3811 1.28400E+02 3.31130E+01 0.00000E+00
 -1      3812 1.26150E+02 3.18140E+01 0.00000E+00
 -1      3813 1.29900E+02 3.31130E+01 0.00000E+00
 -1      3814 1.31400E+02 3.31130E+01 0.00000E+00
 -1      3815 1.29150E+02 3.18140E+01 0.00000E+00
 -1      3816 1.08228E+02 2.43613E+01 0.00000E+00
 -1      3817 1.08058E+02 2.58117E+01 0.00000E+00
 -1      3818 1.97850E+01 1.56973E+01 0.00000E+00
 -1      3819 1.82850E+01 1.56973E+01 0.00000E+00
 -1      3820 5.57850E+01 1.56973E+01 0.00000E+00
 -1      3821 5.42850E+01 1.56973E+01 0.00000E+00
 -1      3822 5.27850E+01 1.56973E+01 0.00000E+00
 -1      3823 5.12850E+01 1.56973E+01 0.00000E+00
 -1      3824 5.35350E+01 1.69963E+01 0.00000E+00
 -1      3825 6.17850E+01 1.56973E+01 0.00000E+00
 -1      3826 6.02850E+01 1.56973E+01 0.00000E+00
 -1      3827 6.47850E+01 1.56973E+01 0.00000E+00
 -1      3828 6.32850E+01 1.56973E+01 0.00000E+00
 -1      3829 6.25350E+01 1.69963E+01 0.00000E+00
 -1      3830 6.77850E+01 1.56973E+01 0.00000E+00
 -1      3831 6.62850E+01 1.56973E+01 0.00000E+00
 -1      3832 6.55350E+01 1.69963E+01 0.00000E+00
 -1      3833 7.05975E+01 1.58515E+01 0.00000E+00
 -1      3834 6.90975E+01 1.58515E+01 0.00000E+00
 -1      3835 6.83475E+01 1.71505E+01 0.00000E+00
 -1      3836 7.09724E+01 1.74589E+01 0.00000E+00
 -1      3837 1.24785E+02 1.54846E+01 0.00000E+00
 -1      3838 1.23285E+02 1.54846E+01 0.00000E+00
 -1      3839 2.19000E+01 3.31130E+01 0.00000E+00
 -1      3840 2.34000E+01 3.31130E+01 0.00000E+00
 -1      3841 1.18785E+02 1.54846E+01 0.00000E+00
 -1      3842 1.17285E+02 1.54846E+01 0.00000E+00
 -1      3843 1.27785E+02 1.54846E+01 0.00000E+00
 -1      3844 1.26285E+02 1.54846E+01 0.00000E+00
 -1      3845 1.25535E+02 1.67836E+01 0.00000E+00
 -1      3846 1.30785E+02 1.54846E+01 0.00000E+00
 -1      3847 1.29285E+02 1.54846E+01 0.00000E+00
 -1      3848 1.28535E+02 1.67836E+01 0.00000E+00
 -1      3849 1.09266E+02 1.97779E+01 0.00000E+00
 -1      3850 1.08879E+02 2.11892E+01 0.00000E+00
 -1      3851 5.87850E+01 1.56973E+01 0.00000E+00
 -1      3852 5.72850E+01 1.56973E+01 0.00000E+00
 -1      3853 5.95350E+01 1.69963E+01 0.00000E+00
 -1      3854 1.35711E+02 2.13219E+01 0.00000E+00
 -1      3855 1.35711E+02 1.98563E+01 0.00000E+00
 -1      3856 1.34412E+02 2.20594E+01 0.00000E+00
 -1      3857 4.37850E+01 1.56973E+01 0.00000E+00
 -1      3858 4.22850E+01 1.56973E+01 0.00000E+00
 -1      3859 1.34846E+02 1.34369E+01 0.00000E+00
 -1      3860 1.09697E+02 1.70380E+01 0.00000E+00
 -1      3861 1.42890E+01 2.86531E+01 0.00000E+00
 -1      3862 1.42890E+01 3.01219E+01 0.00000E+00
 -1      3863 1.55880E+01 3.08563E+01 0.00000E+00
 -1      3864 1.04151E+02 3.03177E+01 0.00000E+00
 -1      3865 1.02887E+02 3.07507E+01 0.00000E+00
 -1      3866 1.03490E+02 3.26579E+01 0.00000E+00
 -1      3867 1.05576E+02 3.02152E+01 0.00000E+00
 -1      3868 7.49287E+01 1.99632E+01 0.00000E+00
 -1      3869 7.46301E+01 1.92224E+01 0.00000E+00
 -1      3870 7.29337E+01 1.87734E+01 0.00000E+00
 -1      3871 7.42313E+01 2.10939E+01 0.00000E+00
 -1      3872 1.33249E+02 1.58926E+01 0.00000E+00
 -1      3873 1.31856E+02 1.56762E+01 0.00000E+00
 -1      3874 1.31106E+02 1.69752E+01 0.00000E+00
 -1      3875 1.33249E+02 1.73582E+01 0.00000E+00
 -1      3876 1.42890E+01 1.68750E+01 0.00000E+00
 -1      3877 1.42890E+01 1.83469E+01 0.00000E+00
 -1      3878 1.55880E+01 1.90844E+01 0.00000E+00
 -1      3879 1.21785E+02 1.54846E+01 0.00000E+00
 -1      3880 1.20285E+02 1.54846E+01 0.00000E+00
 -1      3881 1.22535E+02 1.67836E+01 0.00000E+00
 -1      3882 1.92051E+01 3.32248E+01 0.00000E+00
 -1      3883 2.07051E+01 3.32248E+01 0.00000E+00
 -1      3884 2.14551E+01 3.19258E+01 0.00000E+00
 -1      3885 1.90652E+01 3.21493E+01 0.00000E+00
 -1      3886 1.08580E+02 2.21301E+01 0.00000E+00
 -1      3887 1.08280E+02 2.30711E+01 0.00000E+00
 -1      3888 1.09837E+02 2.17165E+01 0.00000E+00
 -1      3889 1.65615E+01 1.60054E+01 0.00000E+00
 -1      3890 1.54253E+01 1.57058E+01 0.00000E+00
 -1      3891 2.49000E+01 3.31130E+01 0.00000E+00
 -1      3892 2.64000E+01 3.31130E+01 0.00000E+00
 -1      3893 2.41500E+01 3.18140E+01 0.00000E+00
 -1      3894 2.72850E+01 1.30992E+01 0.00000E+00
 -1      3895 2.57850E+01 1.30992E+01 0.00000E+00
 -1      3896 2.50350E+01 1.43982E+01 0.00000E+00
 -1      3897 1.11475E+02 1.65269E+01 0.00000E+00
 -1      3898 1.10174E+02 1.82692E+01 0.00000E+00
 -1      3899 1.11044E+02 1.92668E+01 0.00000E+00
 -1      3900 1.12859E+02 1.62494E+01 0.00000E+00
 -1      3901 1.04841E+02 3.29243E+01 0.00000E+00
 -1      3902 1.05591E+02 3.16253E+01 0.00000E+00
 -1      3903 4.15350E+01 1.69963E+01 0.00000E+00
 -1      3904 4.07850E+01 1.56973E+01 0.00000E+00
 -1      3905 3.92850E+01 1.56973E+01 0.00000E+00
 -1      3906 1.09485E+02 2.39477E+01 0.00000E+00
 -1      3907 2.71500E+01 3.18140E+01 0.00000E+00
 -1      3908 7.51290E+01 3.07776E+01 0.00000E+00
 -1      3909 8.21961E+01 3.29184E+01 0.00000E+00
 -1      3910 8.36961E+01 3.29184E+01 0.00000E+00
 -1      3911 1.68870E+01 2.42359E+01 0.00000E+00
 -1      3912 1.68870E+01 2.57078E+01 0.00000E+00
 -1      3913 1.55880E+01 2.79156E+01 0.00000E+00
 -1      3914 9.76756E+01 3.30604E+01 0.00000E+00
 -1      3915 2.80350E+01 1.43982E+01 0.00000E+00
 -1      3916 2.12850E+01 1.56973E+01 0.00000E+00
 -1      3917 2.05350E+01 1.69963E+01 0.00000E+00
 -1      3918 2.27850E+01 1.56973E+01 0.00000E+00
 -1      3919 1.73115E+01 1.73044E+01 0.00000E+00
 -1      3920 7.57716E+01 2.90874E+01 0.00000E+00
 -1      3921 7.57288E+01 2.79311E+01 0.00000E+00
 -1      3922 7.48924E+01 2.72774E+01 0.00000E+00
 -1      3923 1.34366E+02 1.90717E+01 0.00000E+00
 -1      3924 5.05350E+01 1.69963E+01 0.00000E+00
 -1      3925 4.97850E+01 1.56973E+01 0.00000E+00
 -1      3926 4.82850E+01 1.56973E+01 0.00000E+00
 -1      3927 1.32615E+02 3.22319E+01 0.00000E+00
 -1      3928 1.16651E+02 1.70611E+01 0.00000E+00
 -1      3929 1.15901E+02 1.57621E+01 0.00000E+00
 -1      3930 1.14516E+02 1.60397E+01 0.00000E+00
 -1      3931 1.08026E+02 2.71159E+01 0.00000E+00
 -1      3932 1.07994E+02 2.84202E+01 0.00000E+00
 -1      3933 1.09401E+02 2.65422E+01 0.00000E+00
 -1      3934 4.67850E+01 1.56973E+01 0.00000E+00
 -1      3935 4.52850E+01 1.56973E+01 0.00000E+00
 -1      3936 4.75350E+01 1.69963E+01 0.00000E+00
 -1      3937 5.65350E+01 1.69963E+01 0.00000E+00
 -1      3938 1.33113E+02 2.86781E+01 0.00000E+00
 -1      3939 1.33113E+02 2.72094E+01 0.00000E+00
 -1      3940 4.45350E+01 1.69963E+01 0.00000E+00
 -1      3941 1.34496E+02 3.10311E+01 0.00000E+00
 -1      3942 7.48648E+01 2.41876E+01 0.00000E+00
 -1      3943 7.40590E+01 2.35119E+01 0.00000E+00
 -1      3944 7.40438E+01 2.54453E+01 0.00000E+00
 -1      3945 1.33113E+02 2.57344E+01 0.00000E+00
 -1      3946 1.33113E+02 2.42594E+01 0.00000E+00
 -1      3947 1.31814E+02 2.64688E+01 0.00000E+00
 -1      3948 1.68870E+01 2.27641E+01 0.00000E+00
 -1      3949 1.81860E+01 2.35000E+01 0.00000E+00
 -1      3950 1.68870E+01 2.12922E+01 0.00000E+00
 -1      3951 1.67291E+01 3.08243E+01 0.00000E+00
 -1      3952 3.47850E+01 1.56973E+01 0.00000E+00
 -1      3953 3.32850E+01 1.56973E+01 0.00000E+00
 -1      3954 3.25350E+01 1.69963E+01 0.00000E+00
 -1      3955 3.17850E+01 1.56973E+01 0.00000E+00
 -1      3956 3.02850E+01 1.56973E+01 0.00000E+00
 -1      3957 1.19535E+02 1.67836E+01 0.00000E+00
 -1      3958 2.94000E+01 3.05150E+01 0.00000E+00
 -1      3959 3.09000E+01 3.05150E+01 0.00000E+00
 -1      3960 3.24000E+01 3.05150E+01 0.00000E+00
 -1      3961 3.39000E+01 3.05150E+01 0.00000E+00
 -1      3962 3.16500E+01 2.92160E+01 0.00000E+00
 -1      3963 3.54000E+01 3.05150E+01 0.00000E+00
 -1      3964 3.69000E+01 3.05150E+01 0.00000E+00
 -1      3965 3.46500E+01 2.92160E+01 0.00000E+00
 -1      3966 3.84000E+01 3.05150E+01 0.00000E+00
 -1      3967 3.99000E+01 3.05150E+01 0.00000E+00
 -1      3968 3.76500E+01 2.92160E+01 0.00000E+00
 -1      3969 4.14000E+01 3.05150E+01 0.00000E+00
 -1      3970 4.29000E+01 3.05150E+01 0.00000E+00
 -1      3971 4.06500E+01 2.92160E+01 0.00000E+00
 -1      3972 4.44000E+01 3.05150E+01 0.00000E+00
 -1      3973 4.59000E+01 3.05150E+01 0.00000E+00
 -1      3974 4.36500E+01 2.92160E+01 0.00000E+00
 -1      3975 4.74000E+01 3.05150E+01 0.00000E+00
 -1      3976 4.89000E+01 3.05150E+01 0.00000E+00
 -1      3977 4.66500E+01 2.92160E+01 0.00000E+00
 -1      3978 5.04000E+01 3.05150E+01 0.00000E+00
 -1      3979 5.19000E+01 3.05150E+01 0.00000E+00
 -1      3980 4.96500E+01 2.92160E+01 0.00000E+00
 -1      3981 5.34000E+01 3.05150E+01 0.00000E+00
 -1      3982 5.49000E+01 3.05150E+01 0.00000E+00
 -1      3983 5.26500E+01 2.92160E+01 0.00000E+00
 -1      3984 5.64000E+01 3.05150E+01 0.00000E+00
 -1      3985 5.79000E+01 3.05150E+01 0.00000E+00
 -1      3986 5.56500E+01 2.92160E+01 0.00000E+00
 -1      3987 5.94000E+01 3.05150E+01 0.00000E+00
 -1      3988 6.09000E+01 3.05150E+01 0.00000E+00
 -1      3989 5.86500E+01 2.92160E+01 0.00000E+00
 -1      3990 6.24000E+01 3.05150E+01 0.00000E+00
 -1      3991 6.39000E+01 3.05150E+01 0.00000E+00
 -1      3992 6.16500E+01 2.92160E+01 0.00000E+00
 -1      3993 6.54000E+01 3.05150E+01 0.00000E+00
 -1      3994 6.69000E+01 3.05150E+01 0.00000E+00
 -1      3995 6.46500E+01 2.92160E+01 0.00000E+00
 -1      3996 6.84000E+01 3.05150E+01 0.00000E+00
 -1      3997 6.99000E+01 3.05150E+01 0.00000E+00
 -1      3998 6.76500E+01 2.92160E+01 0.00000E+00
 -1      3999 7.14000E+01 3.05150E+01 0.00000E+00
 -1      4000 7.29000E+01 3.05150E+01 0.00000E+00
 -1      4001 7.06500E+01 2.92160E+01 0.00000E+00
 -1      4002 1.81860E+01 2.64438E+01 0.00000E+00
 -1      4003 1.68870E+01 2.71797E+01 0.00000E+00
 -1      4004 1.68870E+01 2.86516E+01 0.00000E+00
 -1      4005 1.10400E+02 3.05150E+01 0.00000E+00
 -1      4006 1.11900E+02 3.05150E+01 0.00000E+00
 -1      4007 1.13400E+02 3.05150E+01 0.00000E+00
 -1      4008 1.14900E+02 3.05150E+01 0.00000E+00
 -1      4009 1.12650E+02 2.92160E+01 0.00000E+00
 -1      4010 1.16400E+02 3.05150E+01 0.00000E+00
 -1      4011 1.17900E+02 3.05150E+01 0.00000E+00
 -1      4012 1.15650E+02 2.92160E+01 0.00000E+00
 -1      4013 1.19400E+02 3.05150E+01 0.00000E+00
 -1      4014 1.20900E+02 3.05150E+01 0.00000E+00
 -1      4015 1.18650E+02 2.92160E+01 0.00000E+00
 -1      4016 1.22400E+02 3.05150E+01 0.00000E+00
 -1      4017 1.23900E+02 3.05150E+01 0.00000E+00
 -1      4018 1.21650E+02 2.92160E+01 0.00000E+00
 -1      4019 1.25400E+02 3.05150E+01 0.00000E+00
 -1      4020 1.26900E+02 3.05150E+01 0.00000E+00
 -1      4021 1.24650E+02 2.92160E+01 0.00000E+00
 -1      4022 1.28400E+02 3.05150E+01 0.00000E+00
 -1      4023 1.29900E+02 3.05150E+01 0.00000E+00
 -1      4024 1.27650E+02 2.92160E+01 0.00000E+00
 -1      4025 2.64000E+01 3.05150E+01 0.00000E+00
 -1      4026 2.79000E+01 3.05150E+01 0.00000E+00
 -1      4027 2.86500E+01 2.92160E+01 0.00000E+00
 -1      4028 1.10781E+02 2.33542E+01 0.00000E+00
 -1      4029 1.10729E+02 2.46445E+01 0.00000E+00
 -1      4030 6.62850E+01 1.82952E+01 0.00000E+00
 -1      4031 6.47850E+01 1.82952E+01 0.00000E+00
 -1      4032 6.32850E+01 1.82952E+01 0.00000E+00
 -1      4033 6.17850E+01 1.82952E+01 0.00000E+00
 -1      4034 6.40350E+01 1.95942E+01 0.00000E+00
 -1      4035 1.29285E+02 1.80826E+01 0.00000E+00
 -1      4036 1.27785E+02 1.80826E+01 0.00000E+00
 -1      4037 1.11380E+02 2.14724E+01 0.00000E+00
 -1      4038 1.11081E+02 2.24133E+01 0.00000E+00
 -1      4039 1.12324E+02 2.31101E+01 0.00000E+00
 -1      4040 1.26285E+02 1.80826E+01 0.00000E+00
 -1      4041 1.24785E+02 1.80826E+01 0.00000E+00
 -1      4042 1.27035E+02 1.93816E+01 0.00000E+00
 -1      4043 8.48073E+01 3.37772E+01 0.00000E+00
 -1      4044 2.57850E+01 1.56973E+01 0.00000E+00
 -1      4045 2.42850E+01 1.56973E+01 0.00000E+00
 -1      4046 2.35350E+01 1.69963E+01 0.00000E+00
 -1      4047 5.72850E+01 1.82952E+01 0.00000E+00
 -1      4048 5.57850E+01 1.82952E+01 0.00000E+00
 -1      4049 4.52850E+01 1.82952E+01 0.00000E+00
 -1      4050 4.37850E+01 1.82952E+01 0.00000E+00
 -1      4051 1.33113E+02 2.27938E+01 0.00000E+00
 -1      4052 1.33113E+02 2.13281E+01 0.00000E+00
 -1      4053 1.31814E+02 2.35281E+01 0.00000E+00
 -1      4054 3.77850E+01 1.56973E+01 0.00000E+00
 -1      4055 3.62850E+01 1.56973E+01 0.00000E+00
 -1      4056 3.55350E+01 1.69963E+01 0.00000E+00
 -1      4057 3.85350E+01 1.69963E+01 0.00000E+00
 -1      4058 1.33204E+02 2.01042E+01 0.00000E+00
 -1      4059 1.33158E+02 1.85822E+01 0.00000E+00
 -1      4060 1.32087E+02 1.83906E+01 0.00000E+00
 -1      4061 1.31905E+02 2.08385E+01 0.00000E+00
 -1      4062 1.32531E+02 3.06133E+01 0.00000E+00
 -1      4063 1.06634E+02 3.04039E+01 0.00000E+00
 -1      4064 1.08134E+02 3.04039E+01 0.00000E+00
 -1      4065 2.87850E+01 1.56973E+01 0.00000E+00
 -1      4066 2.72850E+01 1.56973E+01 0.00000E+00
 -1      4067 2.65350E+01 1.69963E+01 0.00000E+00
 -1      4068 2.95350E+01 1.69963E+01 0.00000E+00
 -1      4069 1.70993E+01 1.85623E+01 0.00000E+00
 -1      4070 1.70993E+01 2.00342E+01 0.00000E+00
 -1      4071 1.83983E+01 2.07702E+01 0.00000E+00
 -1      4072 1.88228E+01 1.82542E+01 0.00000E+00
 -1      4073 1.23285E+02 1.80826E+01 0.00000E+00
 -1      4074 1.21785E+02 1.80826E+01 0.00000E+00
 -1      4075 1.24035E+02 1.93816E+01 0.00000E+00
 -1      4076 2.34000E+01 3.05150E+01 0.00000E+00
 -1      4077 2.49000E+01 3.05150E+01 0.00000E+00
 -1      4078 2.56500E+01 2.92160E+01 0.00000E+00
 -1      4079 1.80281E+01 3.00884E+01 0.00000E+00
 -1      4080 5.42850E+01 1.82952E+01 0.00000E+00
 -1      4081 5.27850E+01 1.82952E+01 0.00000E+00
 -1      4082 5.50350E+01 1.95942E+01 0.00000E+00
 -1      4083 7.43790E+01 2.94786E+01 0.00000E+00
 -1      4084 1.20285E+02 1.80826E+01 0.00000E+00
 -1      4085 1.18785E+02 1.80826E+01 0.00000E+00
 -1      4086 1.21035E+02 1.93816E+01 0.00000E+00
 -1      4087 6.02850E+01 1.82952E+01 0.00000E+00
 -1      4088 5.87850E+01 1.82952E+01 0.00000E+00
 -1      4089 5.80350E+01 1.95942E+01 0.00000E+00
 -1      4090 7.34102E+01 2.23516E+01 0.00000E+00
 -1      4091 7.27615E+01 2.11914E+01 0.00000E+00
 -1      4092 7.25892E+01 2.36094E+01 0.00000E+00
 -1      4093 5.20350E+01 1.95942E+01 0.00000E+00
 -1      4094 5.12850E+01 1.82952E+01 0.00000E+00
 -1      4095 4.97850E+01 1.82952E+01 0.00000E+00
 -1      4096 6.89100E+01 1.86037E+01 0.00000E+00
 -1      4097 6.75975E+01 1.84495E+01 0.00000E+00
 -1      4098 6.68475E+01 1.97485E+01 0.00000E+00
 -1      4099 1.94850E+01 2.57078E+01 0.00000E+00
 -1      4100 1.94850E+01 2.71797E+01 0.00000E+00
 -1      4101 1.09509E+02 2.98302E+01 0.00000E+00
 -1      4102 1.10259E+02 2.85312E+01 0.00000E+00
 -1      4103 3.32850E+01 1.82952E+01 0.00000E+00
 -1      4104 3.17850E+01 1.82952E+01 0.00000E+00
 -1      4105 2.10101E+01 3.07386E+01 0.00000E+00
 -1      4106 2.22051E+01 3.06268E+01 0.00000E+00
 -1      4107 2.29551E+01 2.93278E+01 0.00000E+00
 -1      4108 1.30482E+02 2.85799E+01 0.00000E+00
 -1      4109 1.31232E+02 2.98789E+01 0.00000E+00
 -1      4110 7.92347E+01 3.17402E+01 0.00000E+00
 -1      4111 7.88045E+01 3.10741E+01 0.00000E+00
 -1      4112 1.12287E+02 1.99637E+01 0.00000E+00
 -1      4113 1.92231E+01 2.99766E+01 0.00000E+00
 -1      4114 6.10350E+01 1.95942E+01 0.00000E+00
 -1      4115 7.15781E+01 1.87656E+01 0.00000E+00
 -1      4116 7.02656E+01 1.86114E+01 0.00000E+00
 -1      4117 6.95156E+01 1.99104E+01 0.00000E+00
 -1      4118 7.22269E+01 1.99259E+01 0.00000E+00
 -1      4119 1.17401E+02 1.83601E+01 0.00000E+00
 -1      4120 1.16016E+02 1.86377E+01 0.00000E+00
 -1      4121 1.18151E+02 1.96591E+01 0.00000E+00
 -1      4122 1.10510E+02 2.59357E+01 0.00000E+00
 -1      4123 1.10478E+02 2.72400E+01 0.00000E+00
 -1      4124 1.11369E+02 2.79248E+01 0.00000E+00
 -1      4125 1.11806E+02 2.53423E+01 0.00000E+00
 -1      4126 4.82850E+01 1.82952E+01 0.00000E+00
 -1      4127 4.67850E+01 1.82952E+01 0.00000E+00
 -1      4128 4.90350E+01 1.95942E+01 0.00000E+00
 -1      4129 4.60350E+01 1.95942E+01 0.00000E+00
 -1      4130 4.22850E+01 1.82952E+01 0.00000E+00
 -1      4131 4.07850E+01 1.82952E+01 0.00000E+00
 -1      4132 4.30350E+01 1.95942E+01 0.00000E+00
 -1      4133 1.30482E+02 2.71049E+01 0.00000E+00
 -1      4134 1.30482E+02 2.56299E+01 0.00000E+00
 -1      4135 1.29150E+02 2.77410E+01 0.00000E+00
 -1      4136 2.03228E+01 1.82542E+01 0.00000E+00
 -1      4137 2.01105E+01 1.95122E+01 0.00000E+00
 -1      4138 2.18228E+01 1.82542E+01 0.00000E+00
 -1      4139 3.62850E+01 1.82952E+01 0.00000E+00
 -1      4140 3.47850E+01 1.82952E+01 0.00000E+00
 -1      4141 3.40350E+01 1.95942E+01 0.00000E+00
 -1      4142 1.94850E+01 2.27641E+01 0.00000E+00
 -1      4143 1.94850E+01 2.42359E+01 0.00000E+00
 -1      4144 2.07840E+01 2.49719E+01 0.00000E+00
 -1      4145 1.13609E+02 1.75484E+01 0.00000E+00
 -1      4146 1.31015E+02 1.81991E+01 0.00000E+00
 -1      4147 1.30265E+02 1.94981E+01 0.00000E+00
 -1      4148 1.30174E+02 2.07221E+01 0.00000E+00
 -1      4149 1.13945E+02 1.97539E+01 0.00000E+00
 -1      4150 3.39000E+01 2.79170E+01 0.00000E+00
 -1      4151 3.54000E+01 2.79170E+01 0.00000E+00
 -1      4152 3.69000E+01 2.79170E+01 0.00000E+00
 -1      4153 3.84000E+01 2.79170E+01 0.00000E+00
 -1      4154 3.61500E+01 2.66180E+01 0.00000E+00
 -1      4155 3.99000E+01 2.79170E+01 0.00000E+00
 -1      4156 4.14000E+01 2.79170E+01 0.00000E+00
 -1      4157 3.91500E+01 2.66180E+01 0.00000E+00
 -1      4158 4.29000E+01 2.79170E+01 0.00000E+00
 -1      4159 4.44000E+01 2.79170E+01 0.00000E+00
 -1      4160 4.21500E+01 2.66180E+01 0.00000E+00
 -1      4161 4.59000E+01 2.79170E+01 0.00000E+00
 -1      4162 4.74000E+01 2.79170E+01 0.00000E+00
 -1      4163 4.51500E+01 2.66180E+01 0.00000E+00
 -1      4164 4.89000E+01 2.79170E+01 0.00000E+00
 -1      4165 5.04000E+01 2.79170E+01 0.00000E+00
 -1      4166 4.81500E+01 2.66180E+01 0.00000E+00
 -1      4167 5.19000E+01 2.79170E+01 0.00000E+00
 -1      4168 5.34000E+01 2.79170E+01 0.00000E+00
 -1      4169 5.11500E+01 2.66180E+01 0.00000E+00
 -1      4170 5.49000E+01 2.79170E+01 0.00000E+00
 -1      4171 5.64000E+01 2.79170E+01 0.00000E+00
 -1      4172 5.41500E+01 2.66180E+01 0.00000E+00
 -1      4173 5.79000E+01 2.79170E+01 0.00000E+00
 -1      4174 5.94000E+01 2.79170E+01 0.00000E+00
 -1      4175 5.71500E+01 2.66180E+01 0.00000E+00
 -1      4176 6.09000E+01 2.79170E+01 0.00000E+00
 -1      4177 6.24000E+01 2.79170E+01 0.00000E+00
 -1      4178 6.01500E+01 2.66180E+01 0.00000E+00
 -1      4179 6.39000E+01 2.79170E+01 0.00000E+00
 -1      4180 6.54000E+01 2.79170E+01 0.00000E+00
 -1      4181 6.31500E+01 2.66180E+01 0.00000E+00
 -1      4182 6.69000E+01 2.79170E+01 0.00000E+00
 -1      4183 6.84000E+01 2.79170E+01 0.00000E+00
 -1      4184 6.61500E+01 2.66180E+01 0.00000E+00
 -1      4185 6.99000E+01 2.79170E+01 0.00000E+00
 -1      4186 7.14000E+01 2.79170E+01 0.00000E+00
 -1      4187 6.91500E+01 2.66180E+01 0.00000E+00
 -1      4188 3.10350E+01 1.95942E+01 0.00000E+00
 -1      4189 3.02850E+01 1.82952E+01 0.00000E+00
 -1      4190 2.87850E+01 1.82952E+01 0.00000E+00
 -1      4191 7.73129E+01 3.08977E+01 0.00000E+00
 -1      4192 2.79000E+01 2.79170E+01 0.00000E+00
 -1      4193 2.94000E+01 2.79170E+01 0.00000E+00
 -1      4194 1.14900E+02 2.79170E+01 0.00000E+00
 -1      4195 1.16400E+02 2.79170E+01 0.00000E+00
 -1      4196 1.17900E+02 2.79170E+01 0.00000E+00
 -1      4197 1.19400E+02 2.79170E+01 0.00000E+00
 -1      4198 1.17150E+02 2.66180E+01 0.00000E+00
 -1      4199 1.20900E+02 2.79170E+01 0.00000E+00
 -1      4200 1.22400E+02 2.79170E+01 0.00000E+00
 -1      4201 1.20150E+02 2.66180E+01 0.00000E+00
 -1      4202 1.23900E+02 2.79170E+01 0.00000E+00
 -1      4203 1.25400E+02 2.79170E+01 0.00000E+00
 -1      4204 1.23150E+02 2.66180E+01 0.00000E+00
 -1      4205 1.26525E+02 2.78290E+01 0.00000E+00
 -1      4206 1.28025E+02 2.78290E+01 0.00000E+00
 -1      4207 1.28025E+02 2.63540E+01 0.00000E+00
 -1      4208 1.25775E+02 2.65300E+01 0.00000E+00
 -1      4209 2.49000E+01 2.79170E+01 0.00000E+00
 -1      4210 2.64000E+01 2.79170E+01 0.00000E+00
 -1      4211 2.71500E+01 2.66180E+01 0.00000E+00
 -1      4212 1.99731E+01 2.86776E+01 0.00000E+00
 -1      4213 6.47850E+01 2.08932E+01 0.00000E+00
 -1      4214 6.32850E+01 2.08932E+01 0.00000E+00
 -1      4215 1.30172E+02 2.23979E+01 0.00000E+00
 -1      4216 1.28533E+02 2.10575E+01 0.00000E+00
 -1      4217 1.13712E+02 2.30335E+01 0.00000E+00
 -1      4218 1.13412E+02 2.39744E+01 0.00000E+00
 -1      4219 1.27033E+02 2.10575E+01 0.00000E+00
 -1      4220 2.12721E+01 2.79417E+01 0.00000E+00
 -1      4221 3.92850E+01 1.82952E+01 0.00000E+00
 -1      4222 3.77850E+01 1.82952E+01 0.00000E+00
 -1      4223 4.00350E+01 1.95942E+01 0.00000E+00
 -1      4224 1.12869E+02 2.79248E+01 0.00000E+00
 -1      4225 7.36120E+01 2.67785E+01 0.00000E+00
 -1      4226 7.28062E+01 2.61028E+01 0.00000E+00
 -1      4227 1.24785E+02 2.06806E+01 0.00000E+00
 -1      4228 1.23285E+02 2.06806E+01 0.00000E+00
 -1      4229 1.30172E+02 2.38636E+01 0.00000E+00
 -1      4230 7.36548E+01 2.79348E+01 0.00000E+00
 -1      4231 2.48228E+01 1.82542E+01 0.00000E+00
 -1      4232 2.33228E+01 1.82542E+01 0.00000E+00
 -1      4233 2.31105E+01 1.95122E+01 0.00000E+00
 -1      4234 4.67850E+01 2.08932E+01 0.00000E+00
 -1      4235 4.52850E+01 2.08932E+01 0.00000E+00
 -1      4236 3.09000E+01 2.79170E+01 0.00000E+00
 -1      4237 3.24000E+01 2.79170E+01 0.00000E+00
 -1      4238 3.01500E+01 2.66180E+01 0.00000E+00
 -1      4239 5.87850E+01 2.08932E+01 0.00000E+00
 -1      4240 5.72850E+01 2.08932E+01 0.00000E+00
 -1      4241 1.99039E+01 2.05091E+01 0.00000E+00
 -1      4242 1.96916E+01 2.17671E+01 0.00000E+00
 -1      4243 2.09906E+01 2.25030E+01 0.00000E+00
 -1      4244 2.14039E+01 2.05091E+01 0.00000E+00
 -1      4245 6.17850E+01 2.08932E+01 0.00000E+00
 -1      4246 6.02850E+01 2.08932E+01 0.00000E+00
 -1      4247 6.25350E+01 2.21922E+01 0.00000E+00
 -1      4248 5.57850E+01 2.08932E+01 0.00000E+00
 -1      4249 5.42850E+01 2.08932E+01 0.00000E+00
 -1      4250 5.65350E+01 2.21922E+01 0.00000E+00
 -1      4251 1.21785E+02 2.06806E+01 0.00000E+00
 -1      4252 1.20285E+02 2.06806E+01 0.00000E+00
 -1      4253 1.22535E+02 2.19796E+01 0.00000E+00
 -1      4254 5.27850E+01 2.08932E+01 0.00000E+00
 -1      4255 5.12850E+01 2.08932E+01 0.00000E+00
 -1      4256 5.35350E+01 2.21922E+01 0.00000E+00
 -1      4257 1.18901E+02 2.09581E+01 0.00000E+00
 -1      4258 1.17516E+02 2.12357E+01 0.00000E+00
 -1      4259 1.19651E+02 2.22571E+01 0.00000E+00
 -1      4260 3.31500E+01 2.66180E+01 0.00000E+00
 -1      4261 3.17850E+01 2.08932E+01 0.00000E+00
 -1      4262 3.02850E+01 2.08932E+01 0.00000E+00
 -1      4263 4.97850E+01 2.08932E+01 0.00000E+00
 -1      4264 4.82850E+01 2.08932E+01 0.00000E+00
 -1      4265 5.05350E+01 2.21922E+01 0.00000E+00
 -1      4266 1.13619E+02 2.66258E+01 0.00000E+00
 -1      4267 2.24886E+01 2.79852E+01 0.00000E+00
 -1      4268 2.36835E+01 2.78734E+01 0.00000E+00
 -1      4269 2.44335E+01 2.65744E+01 0.00000E+00
 -1      4270 2.20005E+01 2.64873E+01 0.00000E+00
 -1      4271 5.95350E+01 2.21922E+01 0.00000E+00
 -1      4272 3.70350E+01 1.95942E+01 0.00000E+00
 -1      4273 2.75539E+01 1.82747E+01 0.00000E+00
 -1      4274 2.60539E+01 1.82747E+01 0.00000E+00
 -1      4275 2.58416E+01 1.95327E+01 0.00000E+00
 -1      4276 2.83039E+01 1.95737E+01 0.00000E+00
 -1      4277 1.14695E+02 2.10529E+01 0.00000E+00
 -1      4278 1.15783E+02 2.19173E+01 0.00000E+00
 -1      4279 6.60975E+01 2.10475E+01 0.00000E+00
 -1      4280 6.53475E+01 2.23465E+01 0.00000E+00
 -1      4281 6.74100E+01 2.12017E+01 0.00000E+00
 -1      4282 7.14058E+01 2.11836E+01 0.00000E+00
 -1      4283 1.26283E+02 2.23565E+01 0.00000E+00
 -1      4284 1.13837E+02 2.53345E+01 0.00000E+00
 -1      4285 4.37850E+01 2.08932E+01 0.00000E+00
 -1      4286 4.22850E+01 2.08932E+01 0.00000E+00
 -1      4287 4.45350E+01 2.21922E+01 0.00000E+00
 -1      4288 1.28840E+02 2.44997E+01 0.00000E+00
 -1      4289 4.75350E+01 2.21922E+01 0.00000E+00
 -1      4290 3.47850E+01 2.08932E+01 0.00000E+00
 -1      4291 3.32850E+01 2.08932E+01 0.00000E+00
 -1      4292 3.25350E+01 2.21922E+01 0.00000E+00
 -1      4293 2.20005E+01 2.35436E+01 0.00000E+00
 -1      4294 2.20005E+01 2.50154E+01 0.00000E+00
 -1      4295 2.32170E+01 2.50590E+01 0.00000E+00
 -1      4296 7.80839E+01 3.32331E+01 0.00000E+00
 -1      4297 7.17798E+01 2.48235E+01 0.00000E+00
 -1      4298 7.11310E+01 2.36632E+01 0.00000E+00
 -1      4299 3.54000E+01 2.53190E+01 0.00000E+00
 -1      4300 3.69000E+01 2.53190E+01 0.00000E+00
 -1      4301 1.16533E+02 2.32163E+01 0.00000E+00
 -1      4302 3.84000E+01 2.53190E+01 0.00000E+00
 -1      4303 3.99000E+01 2.53190E+01 0.00000E+00
 -1      4304 3.76500E+01 2.40200E+01 0.00000E+00
 -1      4305 4.18425E+01 2.44051E+01 0.00000E+00
 -1      4306 4.33425E+01 2.44051E+01 0.00000E+00
 -1      4307 4.48425E+01 2.44051E+01 0.00000E+00
 -1      4308 4.63425E+01 2.44051E+01 0.00000E+00
 -1      4309 4.78425E+01 2.44051E+01 0.00000E+00
 -1      4310 4.93425E+01 2.44051E+01 0.00000E+00
 -1      4311 5.08425E+01 2.44051E+01 0.00000E+00
 -1      4312 5.23425E+01 2.44051E+01 0.00000E+00
 -1      4313 5.38425E+01 2.44051E+01 0.00000E+00
 -1      4314 5.53425E+01 2.44051E+01 0.00000E+00
 -1      4315 5.68425E+01 2.44051E+01 0.00000E+00
 -1      4316 5.83425E+01 2.44051E+01 0.00000E+00
 -1      4317 5.98425E+01 2.44051E+01 0.00000E+00
 -1      4318 6.13425E+01 2.44051E+01 0.00000E+00
 -1      4319 6.28425E+01 2.44051E+01 0.00000E+00
 -1      4320 6.43425E+01 2.44051E+01 0.00000E+00
 -1      4321 6.56550E+01 2.45593E+01 0.00000E+00
 -1      4322 6.71550E+01 2.45593E+01 0.00000E+00
 -1      4323 6.89858E+01 2.57477E+01 0.00000E+00
 -1      4324 7.04858E+01 2.57477E+01 0.00000E+00
 -1      4325 6.84908E+01 2.36890E+01 0.00000E+00
 -1      4326 7.15122E+01 2.70270E+01 0.00000E+00
 -1      4327 7.22622E+01 2.83260E+01 0.00000E+00
 -1      4328 7.44912E+01 2.85886E+01 0.00000E+00
 -1      4329 2.64000E+01 2.53190E+01 0.00000E+00
 -1      4330 2.79000E+01 2.53190E+01 0.00000E+00
 -1      4331 1.19842E+02 2.42988E+01 0.00000E+00
 -1      4332 1.21342E+02 2.42988E+01 0.00000E+00
 -1      4333 1.22842E+02 2.42988E+01 0.00000E+00
 -1      4334 1.24342E+02 2.42988E+01 0.00000E+00
 -1      4335 1.15225E+02 2.52579E+01 0.00000E+00
 -1      4336 1.26590E+02 2.46757E+01 0.00000E+00
 -1      4337 4.03425E+01 2.18071E+01 0.00000E+00
 -1      4338 3.88425E+01 2.18071E+01 0.00000E+00
 -1      4339 2.98425E+01 2.44051E+01 0.00000E+00
 -1      4340 3.13425E+01 2.44051E+01 0.00000E+00
 -1      4341 2.90925E+01 2.31061E+01 0.00000E+00
 -1      4342 2.83425E+01 2.18071E+01 0.00000E+00
 -1      4343 6.93002E+01 2.24749E+01 0.00000E+00
 -1      4344 3.73425E+01 2.18071E+01 0.00000E+00
 -1      4345 3.58425E+01 2.18071E+01 0.00000E+00
 -1      4346 2.42003E+01 2.51672E+01 0.00000E+00
 -1      4347 2.54167E+01 2.52108E+01 0.00000E+00
 -1      4348 2.61667E+01 2.39118E+01 0.00000E+00
 -1      4349 2.42003E+01 2.36953E+01 0.00000E+00
 -1      4350 7.13480E+01 2.61567E+01 0.00000E+00
 -1      4351 2.39137E+01 2.15497E+01 0.00000E+00
 -1      4352 2.24137E+01 2.15497E+01 0.00000E+00
 -1      4353 3.28425E+01 2.44051E+01 0.00000E+00
 -1      4354 1.16958E+02 2.45763E+01 0.00000E+00
 -1      4355 3.43425E+01 2.44051E+01 0.00000E+00
 -1      4356 1.18458E+02 2.45763E+01 0.00000E+00
 -1      4357 3.50925E+01 2.31061E+01 0.00000E+00
 -1      4358 4.10925E+01 2.31061E+01 0.00000E+00
 -1      4359 1.27715E+02 2.45877E+01 0.00000E+00
 -1      4360 2.61281E+01 2.16784E+01 0.00000E+00
 -1      4361 2.48970E+01 2.16579E+01 0.00000E+00
 -1      4362 6.87656E+01 2.12094E+01 0.00000E+00
 -1      4363 2.71114E+01 2.17866E+01 0.00000E+00
 -1      4364 2.22071E+01 2.25466E+01 0.00000E+00
 -3
    3C                          2100                                     1
 -1       165    8    0    1
 -2         6         7        23      1133      1297      1150
 -1       166    8    0    1
 -2         7         8       165      1134      1298      1299
 -1       167    8    0    1
 -2         8         9       166      1135      1300      1301
 -1       168    8    0    1
 -2         8       166       165      1301      1302      1298
 -1       169    8    0    1
 -2         9        10       167      1136      1303      1304
 -1       170    8    0    1
 -2         9       167       166      1304      1305      1300
 -1       171    8    0    1
 -2        10        11       168      1137      1306      1307
 -1       172    8    0    1
 -2        10       168       167      1307      1308      1303
 -1       173    8    0    1
 -2        11        12       169      1138      1309      1310
 -1       174    8    0    1
 -2        11       169       168      1310      1311      1306
 -1       175    8    0    1
 -2        12        13       170      1139      1312      1313
 -1       176    8    0    1
 -2        12       170       169      1313      1314      1309
 -1       177    8    0    1
 -2        13        14       171      1140      1315      1316
 -1       178    8    0    1
 -2        13       171       170      1316      1317      1312
 -1       179    8    0    1
 -2        14        15       172      1141      1318      1319
 -1       180    8    0    1
 -2        14       172       171      1319      1320      1315
 -1       181    8    0    1
 -2        15        16       173      1142      1321      1322
 -1       182    8    0    1
 -2        15       173       172      1322      1323      1318
 -1       183    8    0    1
 -2        16        17       174      1143      1324      1325
 -1       184    8    0    1
 -2        16       174       173      1325      1326      1321
 -1       185    8    0    1
 -2        17        18       175      1144      1327      1328
 -1       186    8    0    1
 -2        17       175       174      1328      1329      1324
 -1       187    8    0    1
 -2        18        19       176      1145      1330      1331
 -1       188    8    0    1
 -2        18       176       175      1331      1332      1327
 -1       189    8    0    1
 -2        19        20       177      1146      1333      1334
 -1       190    8    0    1
 -2        19       177       176      1334      1335      1330
 -1       191    8    0    1
 -2        20        21       178      1147      1336      1337
 -1       192    8    0    1
 -2        20       178       177      1337      1338      1333
 -1       193    8    0    1
 -2        21        22       179      1148      1339      1340
 -1       194    8    0    1
 -2        21       179       178      1340      1341      1336
 -1       195    8    0    1
 -2        22         5       180      1149      1342      1343
 -1       196    8    0    1
 -2       179        22       180      1339      1343      1344
 -1       197    8    0    1
 -2         5        72       180      1200      1345      1342
 -1       198    8    0    1
 -2        24        23       181      1151      1346      1347
 -1       199    8    0    1
 -2        25        24       182      1152      1348      1349
 -1       200    8    0    1
 -2        24       181       182      1347      1350      1348
 -1       201    8    0    1
 -2        26        25       183      1153      1351      1352
 -1       202    8    0    1
 -2        25       182       183      1349      1353      1351
 -1       203    8    0    1
 -2        27        26       184      1154      1354      1355
 -1       204    8    0    1
 -2        26       183       184      1352      1356      1354
 -1       205    8    0    1
 -2        28        27       185      1155      1357      1358
 -1       206    8    0    1
 -2        27       184       185      1355      1359      1357
 -1       207    8    0    1
 -2        29        28       186      1156      1360      1361
 -1       208    8    0    1
 -2        28       185       186      1358      1362      1360
 -1       209    8    0    1
 -2        30        29       187      1157      1363      1364
 -1       210    8    0    1
 -2        29       186       187      1361      1365      1363
 -1       211    8    0    1
 -2        31        30       188      1158      1366      1367
 -1       212    8    0    1
 -2        30       187       188      1364      1368      1366
 -1       213    8    0    1
 -2        32        31       189      1159      1369      1370
 -1       214    8    0    1
 -2        31       188       189      1367      1371      1369
 -1       215    8    0    1
 -2        33        32       190      1160      1372      1373
 -1       216    8    0    1
 -2        32       189       190      1370      1374      1372
 -1       217    8    0    1
 -2        34        33       191      1161      1375      1376
 -1       218    8    0    1
 -2        33       190       191      1373      1377      1375
 -1       219    8    0    1
 -2        35        34       192      1162      1378      1379
 -1       220    8    0    1
 -2        34       191       192      1376      1380      1378
 -1       221    8    0    1
 -2        36        35       193      1163      1381      1382
 -1       222    8    0    1
 -2        35       192       193      1379      1383      1381
 -1       223    8    0    1
 -2        37        36       194      1164      1384      1385
 -1       224    8    0    1
 -2        36       193       194      1382      1386      1384
 -1       225    8    0    1
 -2        38        37       195      1165      1387      1388
 -1       226    8    0    1
 -2        37       194       195      1385      1389      1387
 -1       227    8    0    1
 -2        39        38       196      1166      1390      1391
 -1       228    8    0    1
 -2        38       195       196      1388      1392      1390
 -1       229    8    0    1
 -2        40        39       197      1167      1393      1394
 -1       230    8    0    1
 -2        39       196       197      1391      1395      1393
 -1       231    8    0    1
 -2        41        40       198      1168      1396      1397
 -1       232    8    0    1
 -2        40       197       198      1394      1398      1396
 -1       233    8    0    1
 -2        42        41       199      1169      1399      1400
 -1       234    8    0    1
 -2        41       198       199      1397      1401      1399
 -1       235    8    0    1
 -2        43        42       200      1170      1402      1403
 -1       236    8    0    1
 -2        42       199       200      1400      1404      1402
 -1       237    8    0    1
 -2        44        43       201      1171      1405      1406
 -1       238    8    0    1
 -2        43       200       201      1403      1407      1405
 -1       239    8    0    1
 -2        45        44       202      1172      1408      1409
 -1       240    8    0    1
 -2        44       201       202      1406      1410      1408
 -1       241    8    0    1
 -2        46        45       203      1173      1411      1412
 -1       242    8    0    1
 -2        45       202       203      1409      1413      1411
 -1       243    8    0    1
 -2        47        46       204      1174      1414      1415
 -1       244    8    0    1
 -2        46       203       204      1412      1416      1414
 -1       245    8    0    1
 -2        48        47       205      1175      1417      1418
 -1       246    8    0    1
 -2        47       204       205      1415      1419      1417
 -1       247    8    0    1
 -2        49        48       206      1176      1420      1421
 -1       248    8    0    1
 -2        48       205       206      1418      1422      1420
 -1       249    8    0    1
 -2        50        49       207      1177      1423      1424
 -1       250    8    0    1
 -2        49       206       207      1421      1425      1423
 -1       251    8    0    1
 -2        51        50       208      1178      1426      1427
 -1       252    8    0    1
 -2        50       207       208      1424      1428      1426
 -1       253    8    0    1
 -2        52        51       209      1179      1429      1430
 -1       254    8    0    1
 -2        51       208       209      1427      1431      1429
 -1       255    8    0    1
 -2        53        52       210      1180      1432      1433
 -1       256    8    0    1
 -2        52       209       210      1430      1434      1432
 -1       257    8    0    1
 -2        54        53       211      1181      1435      1436
 -1       258    8    0    1
 -2        53       210       211      1433      1437      1435
 -1       259    8    0    1
 -2        55        54       212      1182      1438      1439
 -1       260    8    0    1
 -2        54       211       212      1436      1440      1438
 -1       261    8    0    1
 -2        56        55       213      1183      1441      1442
 -1       262    8    0    1
 -2        55       212       213      1439      1443      1441
 -1       263    8    0    1
 -2        57        56       214      1184      1444      1445
 -1       264    8    0    1
 -2        56       213       214      1442      1446      1444
 -1       265    8    0    1
 -2        58        57       215      1185      1447      1448
 -1       266    8    0    1
 -2        57       214       215      1445      1449      1447
 -1       267    8    0    1
 -2        59        58       216      1186      1450      1451
 -1       268    8    0    1
 -2        58       215       216      1448      1452      1450
 -1       269    8    0    1
 -2        60        59       217      1187      1453      1454
 -1       270    8    0    1
 -2        59       216       217      1451      1455      1453
 -1       271    8    0    1
 -2        61        60       218      1188      1456      1457
 -1       272    8    0    1
 -2        60       217       218      1454      1458      1456
 -1       273    8    0    1
 -2        62        61       219      1189      1459      1460
 -1       274    8    0    1
 -2        61       218       219      1457      1461      1459
 -1       275    8    0    1
 -2        63        62       220      1190      1462      1463
 -1       276    8    0    1
 -2        62       219       220      1460      1464      1462
 -1       277    8    0    1
 -2        64        63       221      1191      1465      1466
 -1       278    8    0    1
 -2        63       220       221      1463      1467      1465
 -1       279    8    0    1
 -2        65        64       222      1192      1468      1469
 -1       280    8    0    1
 -2        64       221       222      1466      1470      1468
 -1       281    8    0    1
 -2        66        65       223      1193      1471      1472
 -1       282    8    0    1
 -2        65       222       223      1469      1473      1471
 -1       283    8    0    1
 -2        67        66       224      1194      1474      1475
 -1       284    8    0    1
 -2        66       223       224      1472      1476      1474
 -1       285    8    0    1
 -2        68        67       225      1195      1477      1478
 -1       286    8    0    1
 -2        67       224       225      1475      1479      1477
 -1       287    8    0    1
 -2        69        68       226      1196      1480      1481
 -1       288    8    0    1
 -2        68       225       226      1478      1482      1480
 -1       289    8    0    1
 -2        70        69       227      1197      1483      1484
 -1       290    8    0    1
 -2        69       226       227      1481      1485      1483
 -1       291    8    0    1
 -2        71        70       228      1198      1486      1487
 -1       292    8    0    1
 -2        70       227       228      1484      1488      1486
 -1       293    8    0    1
 -2         4        71       136      1199      1489      1266
 -1       294    8    0    1
 -2       136        71       228      1489      1487      1490
 -1       295    8    0    1
 -2        72        73       229      1201      1491      1492
 -1       296    8    0    1
 -2        72       229       180      1492      1493      1345
 -1       297    8    0    1
 -2        73        74       230      1202      1494      1495
 -1       298    8    0    1
 -2        73       230       229      1495      1496      1491
 -1       299    8    0    1
 -2        74        75       231      1203      1497      1498
 -1       300    8    0    1
 -2        74       231       230      1498      1499      1494
 -1       301    8    0    1
 -2        75        76       232      1204      1500      1501
 -1       302    8    0    1
 -2        75       232       231      1501      1502      1497
 -1       303    8    0    1
 -2        76        77       233      1205      1503      1504
 -1       304    8    0    1
 -2        76       233       232      1504      1505      1500
 -1       305    8    0    1
 -2        77        78       234      1206      1506      1507
 -1       306    8    0    1
 -2        77       234       233      1507      1508      1503
 -1       307    8    0    1
 -2        78        79       235      1207      1509      1510
 -1       308    8    0    1
 -2        78       235       234      1510      1511      1506
 -1       309    8    0    1
 -2        79        80       236      1208      1512      1513
 -1       310    8    0    1
 -2        79       236       235      1513      1514      1509
 -1       311    8    0    1
 -2        80        81       237      1209      1515      1516
 -1       312    8    0    1
 -2        80       237       236      1516      1517      1512
 -1       313    8    0    1
 -2        81        82       238      1210      1518      1519
 -1       314    8    0    1
 -2        81       238       237      1519      1520      1515
 -1       315    8    0    1
 -2        82        83       239      1211      1521      1522
 -1       316    8    0    1
 -2        82       239       238      1522      1523      1518
 -1       317    8    0    1
 -2        83        84       240      1212      1524      1525
 -1       318    8    0    1
 -2        83       240       239      1525      1526      1521
 -1       319    8    0    1
 -2        84        85       241      1213      1527      1528
 -1       320    8    0    1
 -2        84       241       240      1528      1529      1524
 -1       321    8    0    1
 -2        85        86       242      1214      1530      1531
 -1       322    8    0    1
 -2        85       242       241      1531      1532      1527
 -1       323    8    0    1
 -2        86        87       243      1215      1533      1534
 -1       324    8    0    1
 -2        86       243       242      1534      1535      1530
 -1       325    8    0    1
 -2        87        88       244      1216      1536      1537
 -1       326    8    0    1
 -2        87       244       243      1537      1538      1533
 -1       327    8    0    1
 -2        88        89       245      1217      1539      1540
 -1       328    8    0    1
 -2        88       245       244      1540      1541      1536
 -1       329    8    0    1
 -2        89        90       246      1218      1542      1543
 -1       330    8    0    1
 -2        89       246       245      1543      1544      1539
 -1       331    8    0    1
 -2        90        91       247      1219      1545      1546
 -1       332    8    0    1
 -2        90       247       246      1546      1547      1542
 -1       333    8    0    1
 -2        91        92       248      1220      1548      1549
 -1       334    8    0    1
 -2        91       248       247      1549      1550      1545
 -1       335    8    0    1
 -2        92        93       249      1221      1551      1552
 -1       336    8    0    1
 -2        92       249       248      1552      1553      1548
 -1       337    8    0    1
 -2        93        94       250      1222      1554      1555
 -1       338    8    0    1
 -2        93       250       249      1555      1556      1551
 -1       339    8    0    1
 -2        94        95       251      1223      1557      1558
 -1       340    8    0    1
 -2        94       251       250      1558      1559      1554
 -1       341    8    0    1
 -2        95        96       252      1224      1560      1561
 -1       342    8    0    1
 -2        95       252       251      1561      1562      1557
 -1       343    8    0    1
 -2        96        97       253      1225      1563      1564
 -1       344    8    0    1
 -2        96       253       252      1564      1565      1560
 -1       345    8    0    1
 -2        97        98       254      1226      1566      1567
 -1       346    8    0    1
 -2        97       254       253      1567      1568      1563
 -1       347    8    0    1
 -2        98        99       255      1227      1569      1570
 -1       348    8    0    1
 -2        98       255       254      1570      1571      1566
 -1       349    8    0    1
 -2        99       100       256      1228      1572      1573
 -1       350    8    0    1
 -2        99       256       255      1573      1574      1569
 -1       351    8    0    1
 -2       100       101       257      1229      1575      1576
 -1       352    8    0    1
 -2       100       257       256      1576      1577      1572
 -1       353    8    0    1
 -2       101       102       258      1230      1578      1579
 -1       354    8    0    1
 -2       101       258       257      1579      1580      1575
 -1       355    8    0    1
 -2       102       103       259      1231      1581      1582
 -1       356    8    0    1
 -2       102       259       258      1582      1583      1578
 -1       357    8    0    1
 -2       103       104       260      1232      1584      1585
 -1       358    8    0    1
 -2       103       260       259      1585      1586      1581
 -1       359    8    0    1
 -2       104       105       261      1233      1587      1588
 -1       360    8    0    1
 -2       104       261       260      1588      1589      1584
 -1       361    8    0    1
 -2       105       106       262      1234      1590      1591
 -1       362    8    0    1
 -2       105       262       261      1591      1592      1587
 -1       363    8    0    1
 -2       106       107       263      1235      1593      1594
 -1       364    8    0    1
 -2       106       263       262      1594      1595      1590
 -1       365    8    0    1
 -2       107       108       264      1236      1596      1597
 -1       366    8    0    1
 -2       107       264       263      1597      1598      1593
 -1       367    8    0    1
 -2       108       109       265      1237      1599      1600
 -1       368    8    0    1
 -2       108       265       264      1600      1601      1596
 -1       369    8    0    1
 -2       109       110       266      1238      1602      1603
 -1       370    8    0    1
 -2       109       266       265      1603      1604      1599
 -1       371    8    0    1
 -2       110       111       267      1239      1605      1606
 -1       372    8    0    1
 -2       110       267       266      1606      1607      1602
 -1       373    8    0    1
 -2       111       112       268      1240      1608      1609
 -1       374    8    0    1
 -2       111       268       267      1609      1610      1605
 -1       375    8    0    1
 -2       112       113       269      1241      1611      1612
 -1       376    8    0    1
 -2       112       269       268      1612      1613      1608
 -1       377    8    0    1
 -2       113       114       270      1242      1614      1615
 -1       378    8    0    1
 -2       113       270       269      1615      1616      1611
 -1       379    8    0    1
 -2       114       115       271      1243      1617      1618
 -1       380    8    0    1
 -2       114       271       270      1618      1619      1614
 -1       381    8    0    1
 -2       115       116       272      1244      1620      1621
 -1       382    8    0    1
 -2       115       272       271      1621      1622      1617
 -1       383    8    0    1
 -2       116       117       273      1245      1623      1624
 -1       384    8    0    1
 -2       116       273       272      1624      1625      1620
 -1       385    8    0    1
 -2       117       118       274      1246      1626      1627
 -1       386    8    0    1
 -2       117       274       273      1627      1628      1623
 -1       387    8    0    1
 -2       118       119       275      1247      1629      1630
 -1       388    8    0    1
 -2       118       275       274      1630      1631      1626
 -1       389    8    0    1
 -2       119       120       276      1248      1632      1633
 -1       390    8    0    1
 -2       119       276       275      1633      1634      1629
 -1       391    8    0    1
 -2       120         3       121      1249      1250      1635
 -1       392    8    0    1
 -2       121       122       277      1251      1636      1637
 -1       393    8    0    1
 -2       122       123       278      1252      1638      1639
 -1       394    8    0    1
 -2       122       278       277      1639      1640      1636
 -1       395    8    0    1
 -2       123       124       279      1253      1641      1642
 -1       396    8    0    1
 -2       123       279       278      1642      1643      1638
 -1       397    8    0    1
 -2       124       125       280      1254      1644      1645
 -1       398    8    0    1
 -2       124       280       279      1645      1646      1641
 -1       399    8    0    1
 -2       125       126       281      1255      1647      1648
 -1       400    8    0    1
 -2       125       281       280      1648      1649      1644
 -1       401    8    0    1
 -2       126       127       282      1256      1650      1651
 -1       402    8    0    1
 -2       126       282       281      1651      1652      1647
 -1       403    8    0    1
 -2       127       128       283      1257      1653      1654
 -1       404    8    0    1
 -2       127       283       282      1654      1655      1650
 -1       405    8    0    1
 -2       128       129       284      1258      1656      1657
 -1       406    8    0    1
 -2       128       284       283      1657      1658      1653
 -1       407    8    0    1
 -2       129       130       285      1259      1659      1660
 -1       408    8    0    1
 -2       129       285       284      1660      1661      1656
 -1       409    8    0    1
 -2       130       131       286      1260      1662      1663
 -1       410    8    0    1
 -2       130       286       285      1663      1664      1659
 -1       411    8    0    1
 -2       131       132       287      1261      1665      1666
 -1       412    8    0    1
 -2       131       287       286      1666      1667      1662
 -1       413    8    0    1
 -2       132       133       288      1262      1668      1669
 -1       414    8    0    1
 -2       132       288       287      1669      1670      1665
 -1       415    8    0    1
 -2       133       134       289      1263      1671      1672
 -1       416    8    0    1
 -2       133       289       288      1672      1673      1668
 -1       417    8    0    1
 -2       134       135       290      1264      1674      1675
 -1       418    8    0    1
 -2       134       290       289      1675      1676      1671
 -1       419    8    0    1
 -2       135       136       291      1265      1677      1678
 -1       420    8    0    1
 -2       290       135       291      1674      1678      1679
 -1       421    8    0    1
 -2       136       228       291      1490      1680      1677
 -1       422    8    0    1
 -2         2       137       292      1267      1681      1682
 -1       423    8    0    1
 -2       137       138       293      1268      1683      1684
 -1       424    8    0    1
 -2       138       139       294      1269      1685      1686
 -1       425    8    0    1
 -2       139       140       295      1270      1687      1688
 -1       426    8    0    1
 -2       140       141       296      1271      1689      1690
 -1       427    8    0    1
 -2       141       142       297      1272      1691      1692
 -1       428    8    0    1
 -2       142       143       298      1273      1693      1694
 -1       429    8    0    1
 -2       143       144       299      1274      1695      1696
 -1       430    8    0    1
 -2       144       145       300      1275      1697      1698
 -1       431    8    0    1
 -2       145       146       301      1276      1699      1700
 -1       432    8    0    1
 -2       146       147       302      1277      1701      1702
 -1       433    8    0    1
 -2       147       148       303      1278      1703      1704
 -1       434    8    0    1
 -2       148       149       304      1279      1705      1706
 -1       435    8    0    1
 -2       149       150       305      1280      1707      1708
 -1       436    8    0    1
 -2       150       151       306      1281      1709      1710
 -1       437    8    0    1
 -2       151       152       307      1282      1711      1712
 -1       438    8    0    1
 -2       152       153       308      1283      1713      1714
 -1       439    8    0    1
 -2       153       154       309      1284      1715      1716
 -1       440    8    0    1
 -2       154       155       310      1285      1717      1718
 -1       441    8    0    1
 -2       155       156       311      1286      1719      1720
 -1       442    8    0    1
 -2       156       157       312      1287      1721      1722
 -1       443    8    0    1
 -2       157       158       313      1288      1723      1724
 -1       444    8    0    1
 -2       158       159       314      1289      1725      1726
 -1       445    8    0    1
 -2       159       160       315      1290      1727      1728
 -1       446    8    0    1
 -2       160       161       316      1291      1729      1730
 -1       447    8    0    1
 -2       161       162       317      1292      1731      1732
 -1       448    8    0    1
 -2       162         1       318      1293      1733      1734
 -1       449    8    0    1
 -2         1       163       319      1294      1735      1736
 -1       450    8    0    1
 -2       163       164       320      1295      1737      1738
 -1       451    8    0    1
 -2       164         2       321      1296      1739      1740
 -1       452    8    0    1
 -2       164       321       320      1740      1741      1737
 -1       453    8    0    1
 -2       295       140       296      1687      1690      1742
 -1       454    8    0    1
 -2       294       139       295      1685      1688      1743
 -1       455    8    0    1
 -2       120       121       276      1635      1744      1632
 -1       456    8    0    1
 -2       121       277       276      1637      1745      1744
 -1       457    8    0    1
 -2       292       137       293      1681      1684      1746
 -1       458    8    0    1
 -2       293       138       294      1683      1686      1747
 -1       459    8    0    1
 -2         2       292       321      1682      1748      1739
 -1       460    8    0    1
 -2       141       297       296      1692      1749      1689
 -1       461    8    0    1
 -2       142       298       297      1694      1750      1691
 -1       462    8    0    1
 -2       143       299       298      1696      1751      1693
 -1       463    8    0    1
 -2       144       300       299      1698      1752      1695
 -1       464    8    0    1
 -2       145       301       300      1700      1753      1697
 -1       465    8    0    1
 -2       146       302       301      1702      1754      1699
 -1       466    8    0    1
 -2       147       303       302      1704      1755      1701
 -1       467    8    0    1
 -2       148       304       303      1706      1756      1703
 -1       468    8    0    1
 -2       149       305       304      1708      1757      1705
 -1       469    8    0    1
 -2       150       306       305      1710      1758      1707
 -1       470    8    0    1
 -2       151       307       306      1712      1759      1709
 -1       471    8    0    1
 -2       152       308       307      1714      1760      1711
 -1       472    8    0    1
 -2       153       309       308      1716      1761      1713
 -1       473    8    0    1
 -2       154       310       309      1718      1762      1715
 -1       474    8    0    1
 -2       155       311       310      1720      1763      1717
 -1       475    8    0    1
 -2       156       312       311      1722      1764      1719
 -1       476    8    0    1
 -2       157       313       312      1724      1765      1721
 -1       477    8    0    1
 -2       158       314       313      1726      1766      1723
 -1       478    8    0    1
 -2       159       315       314      1728      1767      1725
 -1       479    8    0    1
 -2       160       316       315      1730      1768      1727
 -1       480    8    0    1
 -2       161       317       316      1732      1769      1729
 -1       481    8    0    1
 -2       162       318       317      1734      1770      1731
 -1       482    8    0    1
 -2         1       319       318      1736      1771      1733
 -1       483    8    0    1
 -2       163       320       319      1738      1772      1735
 -1       484    8    0    1
 -2        23         7       165      1297      1299      1773
 -1       485    8    0    1
 -2       166       167       322      1305      1774      1775
 -1       486    8    0    1
 -2       165       166       323      1302      1776      1777
 -1       487    8    0    1
 -2       166       322       323      1775      1778      1776
 -1       488    8    0    1
 -2       168       169       324      1311      1779      1780
 -1       489    8    0    1
 -2       169       170       325      1314      1781      1782
 -1       490    8    0    1
 -2       169       325       324      1782      1783      1779
 -1       491    8    0    1
 -2       170       171       326      1317      1784      1785
 -1       492    8    0    1
 -2       170       326       325      1785      1786      1781
 -1       493    8    0    1
 -2       171       172       327      1320      1787      1788
 -1       494    8    0    1
 -2       171       327       326      1788      1789      1784
 -1       495    8    0    1
 -2       172       173       328      1323      1790      1791
 -1       496    8    0    1
 -2       172       328       327      1791      1792      1787
 -1       497    8    0    1
 -2       173       174       329      1326      1793      1794
 -1       498    8    0    1
 -2       173       329       328      1794      1795      1790
 -1       499    8    0    1
 -2       174       175       330      1329      1796      1797
 -1       500    8    0    1
 -2       174       330       329      1797      1798      1793
 -1       501    8    0    1
 -2       175       176       331      1332      1799      1800
 -1       502    8    0    1
 -2       175       331       330      1800      1801      1796
 -1       503    8    0    1
 -2       176       177       332      1335      1802      1803
 -1       504    8    0    1
 -2       176       332       331      1803      1804      1799
 -1       505    8    0    1
 -2       177       178       333      1338      1805      1806
 -1       506    8    0    1
 -2       177       333       332      1806      1807      1802
 -1       507    8    0    1
 -2       178       179       334      1341      1808      1809
 -1       508    8    0    1
 -2       178       334       333      1809      1810      1805
 -1       509    8    0    1
 -2       179       180       335      1344      1811      1812
 -1       510    8    0    1
 -2       334       179       335      1808      1812      1813
 -1       511    8    0    1
 -2       180       229       335      1493      1814      1811
 -1       512    8    0    1
 -2       181        23       165      1346      1773      1815
 -1       513    8    0    1
 -2       229       230       336      1496      1816      1817
 -1       514    8    0    1
 -2       229       336       335      1817      1818      1814
 -1       515    8    0    1
 -2       181       165       323      1815      1777      1819
 -1       516    8    0    1
 -2       183       182       337      1353      1820      1821
 -1       517    8    0    1
 -2       184       183       338      1356      1822      1823
 -1       518    8    0    1
 -2       183       337       338      1821      1824      1822
 -1       519    8    0    1
 -2       185       184       339      1359      1825      1826
 -1       520    8    0    1
 -2       184       338       339      1823      1827      1825
 -1       521    8    0    1
 -2       186       185       340      1362      1828      1829
 -1       522    8    0    1
 -2       185       339       340      1826      1830      1828
 -1       523    8    0    1
 -2       187       186       341      1365      1831      1832
 -1       524    8    0    1
 -2       186       340       341      1829      1833      1831
 -1       525    8    0    1
 -2       188       187       342      1368      1834      1835
 -1       526    8    0    1
 -2       187       341       342      1832      1836      1834
 -1       527    8    0    1
 -2       189       188       343      1371      1837      1838
 -1       528    8    0    1
 -2       188       342       343      1835      1839      1837
 -1       529    8    0    1
 -2       190       189       344      1374      1840      1841
 -1       530    8    0    1
 -2       189       343       344      1838      1842      1840
 -1       531    8    0    1
 -2       191       190       345      1377      1843      1844
 -1       532    8    0    1
 -2       190       344       345      1841      1845      1843
 -1       533    8    0    1
 -2       192       191       346      1380      1846      1847
 -1       534    8    0    1
 -2       191       345       346      1844      1848      1846
 -1       535    8    0    1
 -2       193       192       347      1383      1849      1850
 -1       536    8    0    1
 -2       192       346       347      1847      1851      1849
 -1       537    8    0    1
 -2       194       193       348      1386      1852      1853
 -1       538    8    0    1
 -2       193       347       348      1850      1854      1852
 -1       539    8    0    1
 -2       195       194       349      1389      1855      1856
 -1       540    8    0    1
 -2       194       348       349      1853      1857      1855
 -1       541    8    0    1
 -2       196       195       350      1392      1858      1859
 -1       542    8    0    1
 -2       195       349       350      1856      1860      1858
 -1       543    8    0    1
 -2       197       196       351      1395      1861      1862
 -1       544    8    0    1
 -2       196       350       351      1859      1863      1861
 -1       545    8    0    1
 -2       198       197       352      1398      1864      1865
 -1       546    8    0    1
 -2       197       351       352      1862      1866      1864
 -1       547    8    0    1
 -2       199       198       353      1401      1867      1868
 -1       548    8    0    1
 -2       198       352       353      1865      1869      1867
 -1       549    8    0    1
 -2       200       199       354      1404      1870      1871
 -1       550    8    0    1
 -2       199       353       354      1868      1872      1870
 -1       551    8    0    1
 -2       201       200       355      1407      1873      1874
 -1       552    8    0    1
 -2       200       354       355      1871      1875      1873
 -1       553    8    0    1
 -2       202       201       356      1410      1876      1877
 -1       554    8    0    1
 -2       201       355       356      1874      1878      1876
 -1       555    8    0    1
 -2       203       202       357      1413      1879      1880
 -1       556    8    0    1
 -2       202       356       357      1877      1881      1879
 -1       557    8    0    1
 -2       204       203       358      1416      1882      1883
 -1       558    8    0    1
 -2       203       357       358      1880      1884      1882
 -1       559    8    0    1
 -2       205       204       359      1419      1885      1886
 -1       560    8    0    1
 -2       204       358       359      1883      1887      1885
 -1       561    8    0    1
 -2       206       205       360      1422      1888      1889
 -1       562    8    0    1
 -2       205       359       360      1886      1890      1888
 -1       563    8    0    1
 -2       207       206       361      1425      1891      1892
 -1       564    8    0    1
 -2       206       360       361      1889      1893      1891
 -1       565    8    0    1
 -2       208       207       362      1428      1894      1895
 -1       566    8    0    1
 -2       207       361       362      1892      1896      1894
 -1       567    8    0    1
 -2       209       208       363      1431      1897      1898
 -1       568    8    0    1
 -2       208       362       363      1895      1899      1897
 -1       569    8    0    1
 -2       210       209       364      1434      1900      1901
 -1       570    8    0    1
 -2       209       363       364      1898      1902      1900
 -1       571    8    0    1
 -2       211       210       365      1437      1903      1904
 -1       572    8    0    1
 -2       210       364       365      1901      1905      1903
 -1       573    8    0    1
 -2       212       211       366      1440      1906      1907
 -1       574    8    0    1
 -2       211       365       366      1904      1908      1906
 -1       575    8    0    1
 -2       213       212       367      1443      1909      1910
 -1       576    8    0    1
 -2       212       366       367      1907      1911      1909
 -1       577    8    0    1
 -2       214       213       368      1446      1912      1913
 -1       578    8    0    1
 -2       213       367       368      1910      1914      1912
 -1       579    8    0    1
 -2       215       214       369      1449      1915      1916
 -1       580    8    0    1
 -2       214       368       369      1913      1917      1915
 -1       581    8    0    1
 -2       216       215       370      1452      1918      1919
 -1       582    8    0    1
 -2       215       369       370      1916      1920      1918
 -1       583    8    0    1
 -2       217       216       371      1455      1921      1922
 -1       584    8    0    1
 -2       216       370       371      1919      1923      1921
 -1       585    8    0    1
 -2       218       217       372      1458      1924      1925
 -1       586    8    0    1
 -2       217       371       372      1922      1926      1924
 -1       587    8    0    1
 -2       219       218       373      1461      1927      1928
 -1       588    8    0    1
 -2       218       372       373      1925      1929      1927
 -1       589    8    0    1
 -2       220       219       374      1464      1930      1931
 -1       590    8    0    1
 -2       219       373       374      1928      1932      1930
 -1       591    8    0    1
 -2       221       220       375      1467      1933      1934
 -1       592    8    0    1
 -2       220       374       375      1931      1935      1933
 -1       593    8    0    1
 -2       222       221       376      1470      1936      1937
 -1       594    8    0    1
 -2       221       375       376      1934      1938      1936
 -1       595    8    0    1
 -2       223       222       377      1473      1939      1940
 -1       596    8    0    1
 -2       222       376       377      1937      1941      1939
 -1       597    8    0    1
 -2       224       223       378      1476      1942      1943
 -1       598    8    0    1
 -2       223       377       378      1940      1944      1942
 -1       599    8    0    1
 -2       225       224       379      1479      1945      1946
 -1       600    8    0    1
 -2       224       378       379      1943      1947      1945
 -1       601    8    0    1
 -2       226       225       380      1482      1948      1949
 -1       602    8    0    1
 -2       225       379       380      1946      1950      1948
 -1       603    8    0    1
 -2       227       226       381      1485      1951      1952
 -1       604    8    0    1
 -2       226       380       381      1949      1953      1951
 -1       605    8    0    1
 -2       228       227       382      1488      1954      1955
 -1       606    8    0    1
 -2       291       228       382      1680      1955      1956
 -1       607    8    0    1
 -2       227       381       382      1952      1957      1954
 -1       608    8    0    1
 -2       230       231       383      1499      1958      1959
 -1       609    8    0    1
 -2       230       383       336      1959      1960      1816
 -1       610    8    0    1
 -2       231       232       384      1502      1961      1962
 -1       611    8    0    1
 -2       231       384       383      1962      1963      1958
 -1       612    8    0    1
 -2       232       233       385      1505      1964      1965
 -1       613    8    0    1
 -2       232       385       384      1965      1966      1961
 -1       614    8    0    1
 -2       233       234       386      1508      1967      1968
 -1       615    8    0    1
 -2       233       386       385      1968      1969      1964
 -1       616    8    0    1
 -2       234       235       387      1511      1970      1971
 -1       617    8    0    1
 -2       234       387       386      1971      1972      1967
 -1       618    8    0    1
 -2       235       236       388      1514      1973      1974
 -1       619    8    0    1
 -2       235       388       387      1974      1975      1970
 -1       620    8    0    1
 -2       236       237       389      1517      1976      1977
 -1       621    8    0    1
 -2       236       389       388      1977      1978      1973
 -1       622    8    0    1
 -2       237       238       390      1520      1979      1980
 -1       623    8    0    1
 -2       237       390       389      1980      1981      1976
 -1       624    8    0    1
 -2       238       239       391      1523      1982      1983
 -1       625    8    0    1
 -2       238       391       390      1983      1984      1979
 -1       626    8    0    1
 -2       239       240       392      1526      1985      1986
 -1       627    8    0    1
 -2       239       392       391      1986      1987      1982
 -1       628    8    0    1
 -2       240       241       393      1529      1988      1989
 -1       629    8    0    1
 -2       240       393       392      1989      1990      1985
 -1       630    8    0    1
 -2       241       242       394      1532      1991      1992
 -1       631    8    0    1
 -2       241       394       393      1992      1993      1988
 -1       632    8    0    1
 -2       242       243       395      1535      1994      1995
 -1       633    8    0    1
 -2       242       395       394      1995      1996      1991
 -1       634    8    0    1
 -2       243       244       396      1538      1997      1998
 -1       635    8    0    1
 -2       243       396       395      1998      1999      1994
 -1       636    8    0    1
 -2       244       245       397      1541      2000      2001
 -1       637    8    0    1
 -2       244       397       396      2001      2002      1997
 -1       638    8    0    1
 -2       245       246       398      1544      2003      2004
 -1       639    8    0    1
 -2       245       398       397      2004      2005      2000
 -1       640    8    0    1
 -2       246       247       399      1547      2006      2007
 -1       641    8    0    1
 -2       246       399       398      2007      2008      2003
 -1       642    8    0    1
 -2       247       248       400      1550      2009      2010
 -1       643    8    0    1
 -2       247       400       399      2010      2011      2006
 -1       644    8    0    1
 -2       248       249       401      1553      2012      2013
 -1       645    8    0    1
 -2       248       401       400      2013      2014      2009
 -1       646    8    0    1
 -2       249       250       402      1556      2015      2016
 -1       647    8    0    1
 -2       249       402       401      2016      2017      2012
 -1       648    8    0    1
 -2       250       251       403      1559      2018      2019
 -1       649    8    0    1
 -2       250       403       402      2019      2020      2015
 -1       650    8    0    1
 -2       251       252       404      1562      2021      2022
 -1       651    8    0    1
 -2       251       404       403      2022      2023      2018
 -1       652    8    0    1
 -2       252       253       405      1565      2024      2025
 -1       653    8    0    1
 -2       252       405       404      2025      2026      2021
 -1       654    8    0    1
 -2       253       254       406      1568      2027      2028
 -1       655    8    0    1
 -2       253       406       405      2028      2029      2024
 -1       656    8    0    1
 -2       254       255       407      1571      2030      2031
 -1       657    8    0    1
 -2       254       407       406      2031      2032      2027
 -1       658    8    0    1
 -2       255       256       408      1574      2033      2034
 -1       659    8    0    1
 -2       255       408       407      2034      2035      2030
 -1       660    8    0    1
 -2       256       257       409      1577      2036      2037
 -1       661    8    0    1
 -2       256       409       408      2037      2038      2033
 -1       662    8    0    1
 -2       257       258       410      1580      2039      2040
 -1       663    8    0    1
 -2       257       410       409      2040      2041      2036
 -1       664    8    0    1
 -2       258       259       411      1583      2042      2043
 -1       665    8    0    1
 -2       258       411       410      2043      2044      2039
 -1       666    8    0    1
 -2       259       260       412      1586      2045      2046
 -1       667    8    0    1
 -2       259       412       411      2046      2047      2042
 -1       668    8    0    1
 -2       260       261       413      1589      2048      2049
 -1       669    8    0    1
 -2       260       413       412      2049      2050      2045
 -1       670    8    0    1
 -2       261       262       414      1592      2051      2052
 -1       671    8    0    1
 -2       261       414       413      2052      2053      2048
 -1       672    8    0    1
 -2       262       263       415      1595      2054      2055
 -1       673    8    0    1
 -2       262       415       414      2055      2056      2051
 -1       674    8    0    1
 -2       263       264       416      1598      2057      2058
 -1       675    8    0    1
 -2       263       416       415      2058      2059      2054
 -1       676    8    0    1
 -2       264       265       417      1601      2060      2061
 -1       677    8    0    1
 -2       264       417       416      2061      2062      2057
 -1       678    8    0    1
 -2       265       266       418      1604      2063      2064
 -1       679    8    0    1
 -2       265       418       417      2064      2065      2060
 -1       680    8    0    1
 -2       266       267       419      1607      2066      2067
 -1       681    8    0    1
 -2       266       419       418      2067      2068      2063
 -1       682    8    0    1
 -2       267       268       420      1610      2069      2070
 -1       683    8    0    1
 -2       267       420       419      2070      2071      2066
 -1       684    8    0    1
 -2       268       269       421      1613      2072      2073
 -1       685    8    0    1
 -2       268       421       420      2073      2074      2069
 -1       686    8    0    1
 -2       269       270       422      1616      2075      2076
 -1       687    8    0    1
 -2       269       422       421      2076      2077      2072
 -1       688    8    0    1
 -2       270       271       423      1619      2078      2079
 -1       689    8    0    1
 -2       270       423       422      2079      2080      2075
 -1       690    8    0    1
 -2       271       272       424      1622      2081      2082
 -1       691    8    0    1
 -2       271       424       423      2082      2083      2078
 -1       692    8    0    1
 -2       272       273       425      1625      2084      2085
 -1       693    8    0    1
 -2       272       425       424      2085      2086      2081
 -1       694    8    0    1
 -2       273       274       426      1628      2087      2088
 -1       695    8    0    1
 -2       273       426       425      2088      2089      2084
 -1       696    8    0    1
 -2       274       275       427      1631      2090      2091
 -1       697    8    0    1
 -2       274       427       426      2091      2092      2087
 -1       698    8    0    1
 -2       275       276       428      1634      2093      2094
 -1       699    8    0    1
 -2       427       275       428      2090      2094      2095
 -1       700    8    0    1
 -2       276       277       428      1745      2096      2093
 -1       701    8    0    1
 -2       279       280       429      1646      2097      2098
 -1       702    8    0    1
 -2       278       279       430      1643      2099      2100
 -1       703    8    0    1
 -2       279       429       430      2098      2101      2099
 -1       704    8    0    1
 -2       277       278       431      1640      2102      2103
 -1       705    8    0    1
 -2       428       277       431      2096      2103      2104
 -1       706    8    0    1
 -2       278       430       431      2100      2105      2102
 -1       707    8    0    1
 -2       280       281       432      1649      2106      2107
 -1       708    8    0    1
 -2       280       432       429      2107      2108      2097
 -1       709    8    0    1
 -2       281       282       433      1652      2109      2110
 -1       710    8    0    1
 -2       281       433       432      2110      2111      2106
 -1       711    8    0    1
 -2       282       283       434      1655      2112      2113
 -1       712    8    0    1
 -2       282       434       433      2113      2114      2109
 -1       713    8    0    1
 -2       283       284       435      1658      2115      2116
 -1       714    8    0    1
 -2       283       435       434      2116      2117      2112
 -1       715    8    0    1
 -2       284       285       436      1661      2118      2119
 -1       716    8    0    1
 -2       284       436       435      2119      2120      2115
 -1       717    8    0    1
 -2       285       286       437      1664      2121      2122
 -1       718    8    0    1
 -2       285       437       436      2122      2123      2118
 -1       719    8    0    1
 -2       286       287       438      1667      2124      2125
 -1       720    8    0    1
 -2       286       438       437      2125      2126      2121
 -1       721    8    0    1
 -2       287       288       439      1670      2127      2128
 -1       722    8    0    1
 -2       287       439       438      2128      2129      2124
 -1       723    8    0    1
 -2       288       289       440      1673      2130      2131
 -1       724    8    0    1
 -2       288       440       439      2131      2132      2127
 -1       725    8    0    1
 -2       289       290       441      1676      2133      2134
 -1       726    8    0    1
 -2       289       441       440      2134      2135      2130
 -1       727    8    0    1
 -2       293       294       442      1747      2136      2137
 -1       728    8    0    1
 -2       321       292       443      1748      2138      2139
 -1       729    8    0    1
 -2       292       293       444      1746      2140      2141
 -1       730    8    0    1
 -2       294       295       445      1743      2142      2143
 -1       731    8    0    1
 -2       320       321       446      1741      2144      2145
 -1       732    8    0    1
 -2       321       443       446      2139      2146      2144
 -1       733    8    0    1
 -2       167       168       447      1308      2147      2148
 -1       734    8    0    1
 -2       322       167       447      1774      2148      2149
 -1       735    8    0    1
 -2       168       324       447      1780      2150      2147
 -1       736    8    0    1
 -2       297       298       448      1750      2151      2152
 -1       737    8    0    1
 -2       298       299       449      1751      2153      2154
 -1       738    8    0    1
 -2       299       300       450      1752      2155      2156
 -1       739    8    0    1
 -2       300       301       451      1753      2157      2158
 -1       740    8    0    1
 -2       301       302       452      1754      2159      2160
 -1       741    8    0    1
 -2       302       303       453      1755      2161      2162
 -1       742    8    0    1
 -2       303       304       454      1756      2163      2164
 -1       743    8    0    1
 -2       304       305       455      1757      2165      2166
 -1       744    8    0    1
 -2       305       306       456      1758      2167      2168
 -1       745    8    0    1
 -2       306       307       457      1759      2169      2170
 -1       746    8    0    1
 -2       307       308       458      1760      2171      2172
 -1       747    8    0    1
 -2       308       309       459      1761      2173      2174
 -1       748    8    0    1
 -2       309       310       460      1762      2175      2176
 -1       749    8    0    1
 -2       310       311       461      1763      2177      2178
 -1       750    8    0    1
 -2       311       312       462      1764      2179      2180
 -1       751    8    0    1
 -2       311       462       461      2180      2181      2177
 -1       752    8    0    1
 -2       312       313       463      1765      2182      2183
 -1       753    8    0    1
 -2       313       314       464      1766      2184      2185
 -1       754    8    0    1
 -2       314       315       465      1767      2186      2187
 -1       755    8    0    1
 -2       314       465       464      2187      2188      2184
 -1       756    8    0    1
 -2       315       316       466      1768      2189      2190
 -1       757    8    0    1
 -2       316       317       467      1769      2191      2192
 -1       758    8    0    1
 -2       317       318       468      1770      2193      2194
 -1       759    8    0    1
 -2       318       319       469      1771      2195      2196
 -1       760    8    0    1
 -2       319       320       470      1772      2197      2198
 -1       761    8    0    1
 -2       319       470       469      2198      2199      2195
 -1       762    8    0    1
 -2       295       296       471      1742      2200      2201
 -1       763    8    0    1
 -2       296       297       472      1749      2202      2203
 -1       764    8    0    1
 -2       445       295       471      2142      2201      2204
 -1       765    8    0    1
 -2       181       323       182      1819      2205      1350
 -1       766    8    0    1
 -2       297       448       472      2152      2206      2202
 -1       767    8    0    1
 -2       337       182       323      1820      2205      2207
 -1       768    8    0    1
 -2       444       293       442      2140      2137      2208
 -1       769    8    0    1
 -2       443       292       444      2138      2141      2209
 -1       770    8    0    1
 -2       441       290       291      2133      1679      2210
 -1       771    8    0    1
 -2       442       294       445      2136      2143      2211
 -1       772    8    0    1
 -2       320       446       470      2145      2212      2197
 -1       773    8    0    1
 -2       468       318       469      2193      2196      2213
 -1       774    8    0    1
 -2       467       317       468      2191      2194      2214
 -1       775    8    0    1
 -2       465       315       466      2186      2190      2215
 -1       776    8    0    1
 -2       462       312       473      2179      2216      2217
 -1       777    8    0    1
 -2       312       463       473      2183      2218      2216
 -1       778    8    0    1
 -2       460       310       461      2175      2178      2219
 -1       779    8    0    1
 -2       459       309       460      2173      2176      2220
 -1       780    8    0    1
 -2       458       308       459      2171      2174      2221
 -1       781    8    0    1
 -2       457       307       458      2169      2172      2222
 -1       782    8    0    1
 -2       456       306       457      2167      2170      2223
 -1       783    8    0    1
 -2       455       305       456      2165      2168      2224
 -1       784    8    0    1
 -2       454       304       455      2163      2166      2225
 -1       785    8    0    1
 -2       453       303       454      2161      2164      2226
 -1       786    8    0    1
 -2       452       302       474      2159      2227      2228
 -1       787    8    0    1
 -2       302       453       474      2162      2229      2227
 -1       788    8    0    1
 -2       451       301       452      2157      2160      2230
 -1       789    8    0    1
 -2       450       300       451      2155      2158      2231
 -1       790    8    0    1
 -2       448       298       449      2151      2154      2232
 -1       791    8    0    1
 -2       449       299       450      2153      2156      2233
 -1       792    8    0    1
 -2       463       313       464      2182      2185      2234
 -1       793    8    0    1
 -2       466       316       467      2189      2192      2235
 -1       794    8    0    1
 -2       471       296       472      2200      2203      2236
 -1       795    8    0    1
 -2       336       383       475      1960      2237      2238
 -1       796    8    0    1
 -2       325       326       476      1786      2239      2240
 -1       797    8    0    1
 -2       324       325       477      1783      2241      2242
 -1       798    8    0    1
 -2       325       476       477      2240      2243      2241
 -1       799    8    0    1
 -2       327       328       478      1792      2244      2245
 -1       800    8    0    1
 -2       328       329       479      1795      2246      2247
 -1       801    8    0    1
 -2       328       479       478      2247      2248      2244
 -1       802    8    0    1
 -2       329       330       480      1798      2249      2250
 -1       803    8    0    1
 -2       329       480       479      2250      2251      2246
 -1       804    8    0    1
 -2       330       331       481      1801      2252      2253
 -1       805    8    0    1
 -2       330       481       480      2253      2254      2249
 -1       806    8    0    1
 -2       331       332       482      1804      2255      2256
 -1       807    8    0    1
 -2       331       482       481      2256      2257      2252
 -1       808    8    0    1
 -2       332       333       483      1807      2258      2259
 -1       809    8    0    1
 -2       332       483       482      2259      2260      2255
 -1       810    8    0    1
 -2       446       443       484      2146      2261      2262
 -1       811    8    0    1
 -2       383       384       485      1963      2263      2264
 -1       812    8    0    1
 -2       383       485       475      2264      2265      2237
 -1       813    8    0    1
 -2       338       337       486      1824      2266      2267
 -1       814    8    0    1
 -2       472       448       487      2206      2268      2269
 -1       815    8    0    1
 -2       339       338       488      1827      2270      2271
 -1       816    8    0    1
 -2       338       486       488      2267      2272      2270
 -1       817    8    0    1
 -2       340       339       489      1830      2273      2274
 -1       818    8    0    1
 -2       339       488       489      2271      2275      2273
 -1       819    8    0    1
 -2       341       340       490      1833      2276      2277
 -1       820    8    0    1
 -2       340       489       490      2274      2278      2276
 -1       821    8    0    1
 -2       342       341       491      1836      2279      2280
 -1       822    8    0    1
 -2       341       490       491      2277      2281      2279
 -1       823    8    0    1
 -2       343       342       492      1839      2282      2283
 -1       824    8    0    1
 -2       342       491       492      2280      2284      2282
 -1       825    8    0    1
 -2       344       343       493      1842      2285      2286
 -1       826    8    0    1
 -2       343       492       493      2283      2287      2285
 -1       827    8    0    1
 -2       345       344       494      1845      2288      2289
 -1       828    8    0    1
 -2       344       493       494      2286      2290      2288
 -1       829    8    0    1
 -2       346       345       495      1848      2291      2292
 -1       830    8    0    1
 -2       345       494       495      2289      2293      2291
 -1       831    8    0    1
 -2       347       346       496      1851      2294      2295
 -1       832    8    0    1
 -2       346       495       496      2292      2296      2294
 -1       833    8    0    1
 -2       348       347       497      1854      2297      2298
 -1       834    8    0    1
 -2       347       496       497      2295      2299      2297
 -1       835    8    0    1
 -2       349       348       498      1857      2300      2301
 -1       836    8    0    1
 -2       348       497       498      2298      2302      2300
 -1       837    8    0    1
 -2       350       349       499      1860      2303      2304
 -1       838    8    0    1
 -2       349       498       499      2301      2305      2303
 -1       839    8    0    1
 -2       351       350       500      1863      2306      2307
 -1       840    8    0    1
 -2       350       499       500      2304      2308      2306
 -1       841    8    0    1
 -2       352       351       501      1866      2309      2310
 -1       842    8    0    1
 -2       351       500       501      2307      2311      2309
 -1       843    8    0    1
 -2       353       352       502      1869      2312      2313
 -1       844    8    0    1
 -2       352       501       502      2310      2314      2312
 -1       845    8    0    1
 -2       354       353       503      1872      2315      2316
 -1       846    8    0    1
 -2       353       502       503      2313      2317      2315
 -1       847    8    0    1
 -2       355       354       504      1875      2318      2319
 -1       848    8    0    1
 -2       354       503       504      2316      2320      2318
 -1       849    8    0    1
 -2       356       355       505      1878      2321      2322
 -1       850    8    0    1
 -2       355       504       505      2319      2323      2321
 -1       851    8    0    1
 -2       357       356       506      1881      2324      2325
 -1       852    8    0    1
 -2       356       505       506      2322      2326      2324
 -1       853    8    0    1
 -2       358       357       507      1884      2327      2328
 -1       854    8    0    1
 -2       357       506       507      2325      2329      2327
 -1       855    8    0    1
 -2       359       358       508      1887      2330      2331
 -1       856    8    0    1
 -2       358       507       508      2328      2332      2330
 -1       857    8    0    1
 -2       360       359       509      1890      2333      2334
 -1       858    8    0    1
 -2       359       508       509      2331      2335      2333
 -1       859    8    0    1
 -2       361       360       510      1893      2336      2337
 -1       860    8    0    1
 -2       360       509       510      2334      2338      2336
 -1       861    8    0    1
 -2       362       361       511      1896      2339      2340
 -1       862    8    0    1
 -2       361       510       511      2337      2341      2339
 -1       863    8    0    1
 -2       363       362       512      1899      2342      2343
 -1       864    8    0    1
 -2       362       511       512      2340      2344      2342
 -1       865    8    0    1
 -2       364       363       513      1902      2345      2346
 -1       866    8    0    1
 -2       363       512       513      2343      2347      2345
 -1       867    8    0    1
 -2       365       364       514      1905      2348      2349
 -1       868    8    0    1
 -2       364       513       514      2346      2350      2348
 -1       869    8    0    1
 -2       366       365       515      1908      2351      2352
 -1       870    8    0    1
 -2       365       514       515      2349      2353      2351
 -1       871    8    0    1
 -2       367       366       516      1911      2354      2355
 -1       872    8    0    1
 -2       366       515       516      2352      2356      2354
 -1       873    8    0    1
 -2       368       367       517      1914      2357      2358
 -1       874    8    0    1
 -2       367       516       517      2355      2359      2357
 -1       875    8    0    1
 -2       369       368       518      1917      2360      2361
 -1       876    8    0    1
 -2       368       517       518      2358      2362      2360
 -1       877    8    0    1
 -2       370       369       519      1920      2363      2364
 -1       878    8    0    1
 -2       369       518       519      2361      2365      2363
 -1       879    8    0    1
 -2       371       370       520      1923      2366      2367
 -1       880    8    0    1
 -2       370       519       520      2364      2368      2366
 -1       881    8    0    1
 -2       372       371       521      1926      2369      2370
 -1       882    8    0    1
 -2       371       520       521      2367      2371      2369
 -1       883    8    0    1
 -2       373       372       522      1929      2372      2373
 -1       884    8    0    1
 -2       372       521       522      2370      2374      2372
 -1       885    8    0    1
 -2       374       373       523      1932      2375      2376
 -1       886    8    0    1
 -2       373       522       523      2373      2377      2375
 -1       887    8    0    1
 -2       375       374       524      1935      2378      2379
 -1       888    8    0    1
 -2       374       523       524      2376      2380      2378
 -1       889    8    0    1
 -2       376       375       525      1938      2381      2382
 -1       890    8    0    1
 -2       375       524       525      2379      2383      2381
 -1       891    8    0    1
 -2       377       376       526      1941      2384      2385
 -1       892    8    0    1
 -2       376       525       526      2382      2386      2384
 -1       893    8    0    1
 -2       378       377       527      1944      2387      2388
 -1       894    8    0    1
 -2       377       526       527      2385      2389      2387
 -1       895    8    0    1
 -2       379       378       528      1947      2390      2391
 -1       896    8    0    1
 -2       378       527       528      2388      2392      2390
 -1       897    8    0    1
 -2       380       379       529      1950      2393      2394
 -1       898    8    0    1
 -2       379       528       529      2391      2395      2393
 -1       899    8    0    1
 -2       381       380       530      1953      2396      2397
 -1       900    8    0    1
 -2       380       529       530      2394      2398      2396
 -1       901    8    0    1
 -2       385       386       531      1969      2399      2400
 -1       902    8    0    1
 -2       386       387       532      1972      2401      2402
 -1       903    8    0    1
 -2       386       532       531      2402      2403      2399
 -1       904    8    0    1
 -2       387       388       533      1975      2404      2405
 -1       905    8    0    1
 -2       387       533       532      2405      2406      2401
 -1       906    8    0    1
 -2       388       389       534      1978      2407      2408
 -1       907    8    0    1
 -2       388       534       533      2408      2409      2404
 -1       908    8    0    1
 -2       389       390       535      1981      2410      2411
 -1       909    8    0    1
 -2       389       535       534      2411      2412      2407
 -1       910    8    0    1
 -2       390       391       536      1984      2413      2414
 -1       911    8    0    1
 -2       390       536       535      2414      2415      2410
 -1       912    8    0    1
 -2       391       392       537      1987      2416      2417
 -1       913    8    0    1
 -2       391       537       536      2417      2418      2413
 -1       914    8    0    1
 -2       392       393       538      1990      2419      2420
 -1       915    8    0    1
 -2       392       538       537      2420      2421      2416
 -1       916    8    0    1
 -2       393       394       539      1993      2422      2423
 -1       917    8    0    1
 -2       393       539       538      2423      2424      2419
 -1       918    8    0    1
 -2       394       395       540      1996      2425      2426
 -1       919    8    0    1
 -2       394       540       539      2426      2427      2422
 -1       920    8    0    1
 -2       395       396       541      1999      2428      2429
 -1       921    8    0    1
 -2       395       541       540      2429      2430      2425
 -1       922    8    0    1
 -2       396       397       542      2002      2431      2432
 -1       923    8    0    1
 -2       396       542       541      2432      2433      2428
 -1       924    8    0    1
 -2       397       398       543      2005      2434      2435
 -1       925    8    0    1
 -2       397       543       542      2435      2436      2431
 -1       926    8    0    1
 -2       398       399       544      2008      2437      2438
 -1       927    8    0    1
 -2       398       544       543      2438      2439      2434
 -1       928    8    0    1
 -2       399       400       545      2011      2440      2441
 -1       929    8    0    1
 -2       399       545       544      2441      2442      2437
 -1       930    8    0    1
 -2       400       401       546      2014      2443      2444
 -1       931    8    0    1
 -2       400       546       545      2444      2445      2440
 -1       932    8    0    1
 -2       401       402       547      2017      2446      2447
 -1       933    8    0    1
 -2       401       547       546      2447      2448      2443
 -1       934    8    0    1
 -2       402       403       548      2020      2449      2450
 -1       935    8    0    1
 -2       402       548       547      2450      2451      2446
 -1       936    8    0    1
 -2       403       404       549      2023      2452      2453
 -1       937    8    0    1
 -2       403       549       548      2453      2454      2449
 -1       938    8    0    1
 -2       404       405       550      2026      2455      2456
 -1       939    8    0    1
 -2       404       550       549      2456      2457      2452
 -1       940    8    0    1
 -2       405       406       551      2029      2458      2459
 -1       941    8    0    1
 -2       405       551       550      2459      2460      2455
 -1       942    8    0    1
 -2       406       407       552      2032      2461      2462
 -1       943    8    0    1
 -2       406       552       551      2462      2463      2458
 -1       944    8    0    1
 -2       407       408       553      2035      2464      2465
 -1       945    8    0    1
 -2       407       553       552      2465      2466      2461
 -1       946    8    0    1
 -2       408       409       554      2038      2467      2468
 -1       947    8    0    1
 -2       408       554       553      2468      2469      2464
 -1       948    8    0    1
 -2       409       410       555      2041      2470      2471
 -1       949    8    0    1
 -2       410       411       556      2044      2472      2473
 -1       950    8    0    1
 -2       411       412       557      2047      2474      2475
 -1       951    8    0    1
 -2       412       413       558      2050      2476      2477
 -1       952    8    0    1
 -2       412       558       557      2477      2478      2474
 -1       953    8    0    1
 -2       413       414       559      2053      2479      2480
 -1       954    8    0    1
 -2       413       559       558      2480      2481      2476
 -1       955    8    0    1
 -2       414       415       560      2056      2482      2483
 -1       956    8    0    1
 -2       414       560       559      2483      2484      2479
 -1       957    8    0    1
 -2       415       416       561      2059      2485      2486
 -1       958    8    0    1
 -2       415       561       560      2486      2487      2482
 -1       959    8    0    1
 -2       416       417       562      2062      2488      2489
 -1       960    8    0    1
 -2       416       562       561      2489      2490      2485
 -1       961    8    0    1
 -2       417       418       563      2065      2491      2492
 -1       962    8    0    1
 -2       417       563       562      2492      2493      2488
 -1       963    8    0    1
 -2       418       419       564      2068      2494      2495
 -1       964    8    0    1
 -2       418       564       563      2495      2496      2491
 -1       965    8    0    1
 -2       419       420       565      2071      2497      2498
 -1       966    8    0    1
 -2       419       565       564      2498      2499      2494
 -1       967    8    0    1
 -2       420       421       566      2074      2500      2501
 -1       968    8    0    1
 -2       420       566       565      2501      2502      2497
 -1       969    8    0    1
 -2       421       422       567      2077      2503      2504
 -1       970    8    0    1
 -2       421       567       566      2504      2505      2500
 -1       971    8    0    1
 -2       422       423       568      2080      2506      2507
 -1       972    8    0    1
 -2       422       568       567      2507      2508      2503
 -1       973    8    0    1
 -2       423       424       569      2083      2509      2510
 -1       974    8    0    1
 -2       423       569       568      2510      2511      2506
 -1       975    8    0    1
 -2       424       425       570      2086      2512      2513
 -1       976    8    0    1
 -2       424       570       569      2513      2514      2509
 -1       977    8    0    1
 -2       425       426       571      2089      2515      2516
 -1       978    8    0    1
 -2       425       571       570      2516      2517      2512
 -1       979    8    0    1
 -2       426       427       572      2092      2518      2519
 -1       980    8    0    1
 -2       426       572       571      2519      2520      2515
 -1       981    8    0    1
 -2       427       428       431      2095      2104      2521
 -1       982    8    0    1
 -2       432       433       573      2111      2522      2523
 -1       983    8    0    1
 -2       433       434       574      2114      2524      2525
 -1       984    8    0    1
 -2       433       574       573      2525      2526      2522
 -1       985    8    0    1
 -2       430       429       575      2101      2527      2528
 -1       986    8    0    1
 -2       429       432       576      2108      2529      2530
 -1       987    8    0    1
 -2       575       429       576      2527      2530      2531
 -1       988    8    0    1
 -2       432       573       576      2523      2532      2529
 -1       989    8    0    1
 -2       434       435       577      2117      2533      2534
 -1       990    8    0    1
 -2       434       577       574      2534      2535      2524
 -1       991    8    0    1
 -2       435       436       578      2120      2536      2537
 -1       992    8    0    1
 -2       435       578       577      2537      2538      2533
 -1       993    8    0    1
 -2       436       437       579      2123      2539      2540
 -1       994    8    0    1
 -2       436       579       578      2540      2541      2536
 -1       995    8    0    1
 -2       437       438       580      2126      2542      2543
 -1       996    8    0    1
 -2       437       580       579      2543      2544      2539
 -1       997    8    0    1
 -2       438       439       581      2129      2545      2546
 -1       998    8    0    1
 -2       438       581       580      2546      2547      2542
 -1       999    8    0    1
 -2       439       440       582      2132      2548      2549
 -1      1000    8    0    1
 -2       439       582       581      2549      2550      2545
 -1      1001    8    0    1
 -2       440       441       583      2135      2551      2552
 -1      1002    8    0    1
 -2       440       583       582      2552      2553      2548
 -1      1003    8    0    1
 -2       443       444       584      2209      2554      2555
 -1      1004    8    0    1
 -2       443       584       484      2555      2556      2261
 -1      1005    8    0    1
 -2       442       445       585      2211      2557      2558
 -1      1006    8    0    1
 -2       384       385       586      1966      2559      2560
 -1      1007    8    0    1
 -2       385       531       586      2400      2561      2559
 -1      1008    8    0    1
 -2       441       291       382      2210      1956      2562
 -1      1009    8    0    1
 -2       470       446       587      2212      2563      2564
 -1      1010    8    0    1
 -2       446       484       587      2262      2565      2563
 -1      1011    8    0    1
 -2       337       323       588      2207      2566      2567
 -1      1012    8    0    1
 -2       486       337       588      2266      2567      2568
 -1      1013    8    0    1
 -2       323       322       588      1778      2569      2566
 -1      1014    8    0    1
 -2       468       469       589      2213      2570      2571
 -1      1015    8    0    1
 -2       444       442       590      2208      2572      2573
 -1      1016    8    0    1
 -2       460       461       591      2219      2574      2575
 -1      1017    8    0    1
 -2       326       327       592      1789      2576      2577
 -1      1018    8    0    1
 -2       476       326       592      2239      2577      2578
 -1      1019    8    0    1
 -2       327       478       592      2245      2579      2576
 -1      1020    8    0    1
 -2       449       450       593      2233      2580      2581
 -1      1021    8    0    1
 -2       463       464       594      2234      2582      2583
 -1      1022    8    0    1
 -2       448       449       595      2232      2584      2585
 -1      1023    8    0    1
 -2       450       451       596      2231      2586      2587
 -1      1024    8    0    1
 -2       451       452       597      2230      2588      2589
 -1      1025    8    0    1
 -2       453       454       598      2226      2590      2591
 -1      1026    8    0    1
 -2       454       455       599      2225      2592      2593
 -1      1027    8    0    1
 -2       454       599       598      2593      2594      2590
 -1      1028    8    0    1
 -2       455       456       600      2224      2595      2596
 -1      1029    8    0    1
 -2       456       457       601      2223      2597      2598
 -1      1030    8    0    1
 -2       457       458       602      2222      2599      2600
 -1      1031    8    0    1
 -2       458       459       603      2221      2601      2602
 -1      1032    8    0    1
 -2       459       460       604      2220      2603      2604
 -1      1033    8    0    1
 -2       459       604       603      2604      2605      2601
 -1      1034    8    0    1
 -2       461       462       605      2181      2606      2607
 -1      1035    8    0    1
 -2       461       605       591      2607      2608      2574
 -1      1036    8    0    1
 -2       466       467       606      2235      2609      2610
 -1      1037    8    0    1
 -2       464       465       607      2188      2611      2612
 -1      1038    8    0    1
 -2       471       472       608      2236      2613      2614
 -1      1039    8    0    1
 -2       465       466       609      2215      2615      2616
 -1      1040    8    0    1
 -2       465       609       607      2616      2617      2611
 -1      1041    8    0    1
 -2       467       468       610      2214      2618      2619
 -1      1042    8    0    1
 -2       469       470       611      2199      2620      2621
 -1      1043    8    0    1
 -2       335       336       612      1818      2622      2623
 -1      1044    8    0    1
 -2       334       335       612      1813      2623      2624
 -1      1045    8    0    1
 -2       336       475       612      2238      2625      2622
 -1      1046    8    0    1
 -2       445       471       613      2204      2626      2627
 -1      1047    8    0    1
 -2       449       593       595      2581      2628      2584
 -1      1048    8    0    1
 -2       324       477       614      2242      2629      2630
 -1      1049    8    0    1
 -2       324       614       447      2630      2631      2150
 -1      1050    8    0    1
 -2       442       585       590      2558      2632      2572
 -1      1051    8    0    1
 -2       333       334       612      1810      2624      2633
 -1      1052    8    0    1
 -2       613       471       608      2626      2614      2634
 -1      1053    8    0    1
 -2       611       470       587      2620      2564      2635
 -1      1054    8    0    1
 -2       589       469       611      2570      2621      2636
 -1      1055    8    0    1
 -2       472       487       608      2269      2637      2613
 -1      1056    8    0    1
 -2       609       466       606      2615      2610      2638
 -1      1057    8    0    1
 -2       467       610       615      2619      2639      2640
 -1      1058    8    0    1
 -2       467       615       606      2640      2641      2609
 -1      1059    8    0    1
 -2       411       557       556      2475      2642      2472
 -1      1060    8    0    1
 -2       427       431       572      2521      2643      2518
 -1      1061    8    0    1
 -2       431       430       572      2105      2644      2643
 -1      1062    8    0    1
 -2       604       460       591      2603      2575      2645
 -1      1063    8    0    1
 -2       584       444       590      2554      2573      2646
 -1      1064    8    0    1
 -2       585       445       613      2557      2627      2647
 -1      1065    8    0    1
 -2       602       458       603      2599      2602      2648
 -1      1066    8    0    1
 -2       384       586       485      2560      2649      2263
 -1      1067    8    0    1
 -2       322       447       616      2149      2650      2651
 -1      1068    8    0    1
 -2       588       322       616      2569      2651      2652
 -1      1069    8    0    1
 -2       447       614       616      2631      2653      2650
 -1      1070    8    0    1
 -2       601       457       602      2597      2600      2654
 -1      1071    8    0    1
 -2       333       612       483      2633      2655      2258
 -1      1072    8    0    1
 -2       599       455       600      2592      2596      2656
 -1      1073    8    0    1
 -2       473       463       594      2218      2583      2657
 -1      1074    8    0    1
 -2       462       473       617      2217      2658      2659
 -1      1075    8    0    1
 -2       462       617       605      2659      2660      2606
 -1      1076    8    0    1
 -2       597       452       618      2588      2661      2662
 -1      1077    8    0    1
 -2       452       474       618      2228      2663      2661
 -1      1078    8    0    1
 -2       596       451       597      2586      2589      2664
 -1      1079    8    0    1
 -2       474       453       619      2229      2665      2666
 -1      1080    8    0    1
 -2       453       598       619      2591      2667      2665
 -1      1081    8    0    1
 -2       487       448       595      2268      2585      2668
 -1      1082    8    0    1
 -2       594       464       607      2582      2612      2669
 -1      1083    8    0    1
 -2       468       589       610      2571      2670      2618
 -1      1084    8    0    1
 -2       450       596       593      2587      2671      2580
 -1      1085    8    0    1
 -2       600       456       601      2595      2598      2672
 -1      1086    8    0    1
 -2       441       382       620      2562      2673      2674
 -1      1087    8    0    1
 -2       583       441       620      2551      2674      2675
 -1      1088    8    0    1
 -2       382       381       620      1957      2676      2673
 -1      1089    8    0    1
 -2       572       430       575      2644      2528      2677
 -1      1090    8    0    1
 -2       620       381       530      2676      2397      2678
 -1      1091    8    0    1
 -2       479       480       621      2251      2679      2680
 -1      1092    8    0    1
 -2       478       479       622      2248      2681      2682
 -1      1093    8    0    1
 -2       479       621       622      2680      2683      2681
 -1      1094    8    0    1
 -2       481       482       623      2257      2684      2685
 -1      1095    8    0    1
 -2       482       483       624      2260      2686      2687
 -1      1096    8    0    1
 -2       482       624       623      2687      2688      2684
 -1      1097    8    0    1
 -2       486       588       625      2568      2689      2690
 -1      1098    8    0    1
 -2       588       616       625      2652      2691      2689
 -1      1099    8    0    1
 -2       599       600       626      2656      2692      2693
 -1      1100    8    0    1
 -2       612       475       483      2625      2694      2655
 -1      1101    8    0    1
 -2       609       606       627      2638      2695      2696
 -1      1102    8    0    1
 -2       589       611       628      2636      2697      2698
 -1      1103    8    0    1
 -2       489       488       629      2275      2699      2700
 -1      1104    8    0    1
 -2       490       489       630      2278      2701      2702
 -1      1105    8    0    1
 -2       489       629       630      2700      2703      2701
 -1      1106    8    0    1
 -2       491       490       631      2281      2704      2705
 -1      1107    8    0    1
 -2       490       630       631      2702      2706      2704
 -1      1108    8    0    1
 -2       492       491       632      2284      2707      2708
 -1      1109    8    0    1
 -2       491       631       632      2705      2709      2707
 -1      1110    8    0    1
 -2       493       492       633      2287      2710      2711
 -1      1111    8    0    1
 -2       492       632       633      2708      2712      2710
 -1      1112    8    0    1
 -2       494       493       634      2290      2713      2714
 -1      1113    8    0    1
 -2       493       633       634      2711      2715      2713
 -1      1114    8    0    1
 -2       495       494       635      2293      2716      2717
 -1      1115    8    0    1
 -2       494       634       635      2714      2718      2716
 -1      1116    8    0    1
 -2       496       495       636      2296      2719      2720
 -1      1117    8    0    1
 -2       495       635       636      2717      2721      2719
 -1      1118    8    0    1
 -2       497       496       637      2299      2722      2723
 -1      1119    8    0    1
 -2       496       636       637      2720      2724      2722
 -1      1120    8    0    1
 -2       498       497       638      2302      2725      2726
 -1      1121    8    0    1
 -2       497       637       638      2723      2727      2725
 -1      1122    8    0    1
 -2       499       498       639      2305      2728      2729
 -1      1123    8    0    1
 -2       498       638       639      2726      2730      2728
 -1      1124    8    0    1
 -2       500       499       640      2308      2731      2732
 -1      1125    8    0    1
 -2       499       639       640      2729      2733      2731
 -1      1126    8    0    1
 -2       501       500       641      2311      2734      2735
 -1      1127    8    0    1
 -2       500       640       641      2732      2736      2734
 -1      1128    8    0    1
 -2       502       501       642      2314      2737      2738
 -1      1129    8    0    1
 -2       501       641       642      2735      2739      2737
 -1      1130    8    0    1
 -2       503       502       643      2317      2740      2741
 -1      1131    8    0    1
 -2       502       642       643      2738      2742      2740
 -1      1132    8    0    1
 -2       504       503       644      2320      2743      2744
 -1      1133    8    0    1
 -2       503       643       644      2741      2745      2743
 -1      1134    8    0    1
 -2       505       504       645      2323      2746      2747
 -1      1135    8    0    1
 -2       504       644       645      2744      2748      2746
 -1      1136    8    0    1
 -2       506       505       646      2326      2749      2750
 -1      1137    8    0    1
 -2       505       645       646      2747      2751      2749
 -1      1138    8    0    1
 -2       507       506       647      2329      2752      2753
 -1      1139    8    0    1
 -2       506       646       647      2750      2754      2752
 -1      1140    8    0    1
 -2       508       507       648      2332      2755      2756
 -1      1141    8    0    1
 -2       507       647       648      2753      2757      2755
 -1      1142    8    0    1
 -2       509       508       649      2335      2758      2759
 -1      1143    8    0    1
 -2       508       648       649      2756      2760      2758
 -1      1144    8    0    1
 -2       510       509       650      2338      2761      2762
 -1      1145    8    0    1
 -2       509       649       650      2759      2763      2761
 -1      1146    8    0    1
 -2       511       510       651      2341      2764      2765
 -1      1147    8    0    1
 -2       510       650       651      2762      2766      2764
 -1      1148    8    0    1
 -2       512       511       652      2344      2767      2768
 -1      1149    8    0    1
 -2       511       651       652      2765      2769      2767
 -1      1150    8    0    1
 -2       513       512       653      2347      2770      2771
 -1      1151    8    0    1
 -2       512       652       653      2768      2772      2770
 -1      1152    8    0    1
 -2       514       513       654      2350      2773      2774
 -1      1153    8    0    1
 -2       513       653       654      2771      2775      2773
 -1      1154    8    0    1
 -2       515       514       655      2353      2776      2777
 -1      1155    8    0    1
 -2       514       654       655      2774      2778      2776
 -1      1156    8    0    1
 -2       516       515       656      2356      2779      2780
 -1      1157    8    0    1
 -2       515       655       656      2777      2781      2779
 -1      1158    8    0    1
 -2       517       516       657      2359      2782      2783
 -1      1159    8    0    1
 -2       516       656       657      2780      2784      2782
 -1      1160    8    0    1
 -2       518       517       658      2362      2785      2786
 -1      1161    8    0    1
 -2       517       657       658      2783      2787      2785
 -1      1162    8    0    1
 -2       519       518       659      2365      2788      2789
 -1      1163    8    0    1
 -2       518       658       659      2786      2790      2788
 -1      1164    8    0    1
 -2       520       519       660      2368      2791      2792
 -1      1165    8    0    1
 -2       519       659       660      2789      2793      2791
 -1      1166    8    0    1
 -2       521       520       661      2371      2794      2795
 -1      1167    8    0    1
 -2       520       660       661      2792      2796      2794
 -1      1168    8    0    1
 -2       522       521       662      2374      2797      2798
 -1      1169    8    0    1
 -2       521       661       662      2795      2799      2797
 -1      1170    8    0    1
 -2       523       522       663      2377      2800      2801
 -1      1171    8    0    1
 -2       522       662       663      2798      2802      2800
 -1      1172    8    0    1
 -2       524       523       664      2380      2803      2804
 -1      1173    8    0    1
 -2       523       663       664      2801      2805      2803
 -1      1174    8    0    1
 -2       525       524       665      2383      2806      2807
 -1      1175    8    0    1
 -2       524       664       665      2804      2808      2806
 -1      1176    8    0    1
 -2       526       525       666      2386      2809      2810
 -1      1177    8    0    1
 -2       525       665       666      2807      2811      2809
 -1      1178    8    0    1
 -2       527       526       667      2389      2812      2813
 -1      1179    8    0    1
 -2       526       666       667      2810      2814      2812
 -1      1180    8    0    1
 -2       528       527       668      2392      2815      2816
 -1      1181    8    0    1
 -2       527       667       668      2813      2817      2815
 -1      1182    8    0    1
 -2       529       528       669      2395      2818      2819
 -1      1183    8    0    1
 -2       528       668       669      2816      2820      2818
 -1      1184    8    0    1
 -2       530       529       670      2398      2821      2822
 -1      1185    8    0    1
 -2       529       669       670      2819      2823      2821
 -1      1186    8    0    1
 -2       532       533       671      2406      2824      2825
 -1      1187    8    0    1
 -2       572       575       672      2677      2826      2827
 -1      1188    8    0    1
 -2       572       672       571      2827      2828      2520
 -1      1189    8    0    1
 -2       531       532       673      2403      2829      2830
 -1      1190    8    0    1
 -2       532       671       673      2825      2831      2829
 -1      1191    8    0    1
 -2       534       535       674      2412      2832      2833
 -1      1192    8    0    1
 -2       535       536       675      2415      2834      2835
 -1      1193    8    0    1
 -2       535       675       674      2835      2836      2832
 -1      1194    8    0    1
 -2       536       537       676      2418      2837      2838
 -1      1195    8    0    1
 -2       536       676       675      2838      2839      2834
 -1      1196    8    0    1
 -2       537       538       677      2421      2840      2841
 -1      1197    8    0    1
 -2       537       677       676      2841      2842      2837
 -1      1198    8    0    1
 -2       538       539       678      2424      2843      2844
 -1      1199    8    0    1
 -2       538       678       677      2844      2845      2840
 -1      1200    8    0    1
 -2       539       540       679      2427      2846      2847
 -1      1201    8    0    1
 -2       539       679       678      2847      2848      2843
 -1      1202    8    0    1
 -2       540       541       680      2430      2849      2850
 -1      1203    8    0    1
 -2       540       680       679      2850      2851      2846
 -1      1204    8    0    1
 -2       541       542       681      2433      2852      2853
 -1      1205    8    0    1
 -2       541       681       680      2853      2854      2849
 -1      1206    8    0    1
 -2       542       543       682      2436      2855      2856
 -1      1207    8    0    1
 -2       542       682       681      2856      2857      2852
 -1      1208    8    0    1
 -2       543       544       683      2439      2858      2859
 -1      1209    8    0    1
 -2       543       683       682      2859      2860      2855
 -1      1210    8    0    1
 -2       544       545       684      2442      2861      2862
 -1      1211    8    0    1
 -2       544       684       683      2862      2863      2858
 -1      1212    8    0    1
 -2       545       546       685      2445      2864      2865
 -1      1213    8    0    1
 -2       545       685       684      2865      2866      2861
 -1      1214    8    0    1
 -2       546       547       686      2448      2867      2868
 -1      1215    8    0    1
 -2       546       686       685      2868      2869      2864
 -1      1216    8    0    1
 -2       547       548       687      2451      2870      2871
 -1      1217    8    0    1
 -2       547       687       686      2871      2872      2867
 -1      1218    8    0    1
 -2       548       549       688      2454      2873      2874
 -1      1219    8    0    1
 -2       548       688       687      2874      2875      2870
 -1      1220    8    0    1
 -2       549       550       689      2457      2876      2877
 -1      1221    8    0    1
 -2       549       689       688      2877      2878      2873
 -1      1222    8    0    1
 -2       550       551       690      2460      2879      2880
 -1      1223    8    0    1
 -2       550       690       689      2880      2881      2876
 -1      1224    8    0    1
 -2       551       552       691      2463      2882      2883
 -1      1225    8    0    1
 -2       551       691       690      2883      2884      2879
 -1      1226    8    0    1
 -2       553       554       618      2469      2885      2886
 -1      1227    8    0    1
 -2       409       555       554      2471      2887      2467
 -1      1228    8    0    1
 -2       555       410       556      2470      2473      2888
 -1      1229    8    0    1
 -2       560       561       692      2487      2889      2890
 -1      1230    8    0    1
 -2       561       562       693      2490      2891      2892
 -1      1231    8    0    1
 -2       561       693       692      2892      2893      2889
 -1      1232    8    0    1
 -2       562       563       694      2493      2894      2895
 -1      1233    8    0    1
 -2       562       694       693      2895      2896      2891
 -1      1234    8    0    1
 -2       563       564       695      2496      2897      2898
 -1      1235    8    0    1
 -2       563       695       694      2898      2899      2894
 -1      1236    8    0    1
 -2       564       565       696      2499      2900      2901
 -1      1237    8    0    1
 -2       564       696       695      2901      2902      2897
 -1      1238    8    0    1
 -2       565       566       697      2502      2903      2904
 -1      1239    8    0    1
 -2       565       697       696      2904      2905      2900
 -1      1240    8    0    1
 -2       566       567       698      2505      2906      2907
 -1      1241    8    0    1
 -2       566       698       697      2907      2908      2903
 -1      1242    8    0    1
 -2       567       568       699      2508      2909      2910
 -1      1243    8    0    1
 -2       567       699       698      2910      2911      2906
 -1      1244    8    0    1
 -2       568       569       700      2511      2912      2913
 -1      1245    8    0    1
 -2       568       700       699      2913      2914      2909
 -1      1246    8    0    1
 -2       569       570       701      2514      2915      2916
 -1      1247    8    0    1
 -2       569       701       700      2916      2917      2912
 -1      1248    8    0    1
 -2       570       571       702      2517      2918      2919
 -1      1249    8    0    1
 -2       701       570       702      2915      2919      2920
 -1      1250    8    0    1
 -2       571       672       702      2828      2921      2918
 -1      1251    8    0    1
 -2       577       578       703      2538      2922      2923
 -1      1252    8    0    1
 -2       620       530       704      2678      2924      2925
 -1      1253    8    0    1
 -2       530       670       704      2822      2926      2924
 -1      1254    8    0    1
 -2       573       574       705      2526      2927      2928
 -1      1255    8    0    1
 -2       578       579       706      2541      2929      2930
 -1      1256    8    0    1
 -2       578       706       703      2930      2931      2922
 -1      1257    8    0    1
 -2       574       577       707      2535      2932      2933
 -1      1258    8    0    1
 -2       705       574       707      2927      2933      2934
 -1      1259    8    0    1
 -2       577       703       707      2923      2935      2932
 -1      1260    8    0    1
 -2       586       531       708      2561      2936      2937
 -1      1261    8    0    1
 -2       531       673       708      2830      2938      2936
 -1      1262    8    0    1
 -2       579       580       709      2544      2939      2940
 -1      1263    8    0    1
 -2       579       709       706      2940      2941      2929
 -1      1264    8    0    1
 -2       580       581       710      2547      2942      2943
 -1      1265    8    0    1
 -2       580       710       709      2943      2944      2939
 -1      1266    8    0    1
 -2       581       582       711      2550      2945      2946
 -1      1267    8    0    1
 -2       581       711       710      2946      2947      2942
 -1      1268    8    0    1
 -2       484       584       712      2556      2948      2949
 -1      1269    8    0    1
 -2       591       605       713      2608      2950      2951
 -1      1270    8    0    1
 -2       587       484       714      2565      2952      2953
 -1      1271    8    0    1
 -2       484       712       714      2949      2954      2952
 -1      1272    8    0    1
 -2       585       613       715      2647      2955      2956
 -1      1273    8    0    1
 -2       584       590       716      2646      2957      2958
 -1      1274    8    0    1
 -2       473       594       717      2657      2959      2960
 -1      1275    8    0    1
 -2       601       602       718      2654      2961      2962
 -1      1276    8    0    1
 -2       559       560       719      2484      2963      2964
 -1      1277    8    0    1
 -2       560       692       719      2890      2965      2963
 -1      1278    8    0    1
 -2       604       591       720      2645      2966      2967
 -1      1279    8    0    1
 -2       533       534       721      2409      2968      2969
 -1      1280    8    0    1
 -2       671       533       721      2824      2969      2970
 -1      1281    8    0    1
 -2       534       674       721      2833      2971      2968
 -1      1282    8    0    1
 -2       488       486       722      2272      2972      2973
 -1      1283    8    0    1
 -2       629       488       722      2699      2973      2974
 -1      1284    8    0    1
 -2       486       625       722      2690      2975      2972
 -1      1285    8    0    1
 -2       590       585       723      2632      2976      2977
 -1      1286    8    0    1
 -2       480       481       724      2254      2978      2979
 -1      1287    8    0    1
 -2       621       480       724      2679      2979      2980
 -1      1288    8    0    1
 -2       481       623       724      2685      2981      2978
 -1      1289    8    0    1
 -2       594       607       725      2669      2982      2983
 -1      1290    8    0    1
 -2       598       599       726      2594      2984      2985
 -1      1291    8    0    1
 -2       583       620       704      2675      2925      2986
 -1      1292    8    0    1
 -2       485       586       727      2649      2987      2988
 -1      1293    8    0    1
 -2       586       708       727      2937      2989      2987
 -1      1294    8    0    1
 -2       603       604       728      2605      2990      2991
 -1      1295    8    0    1
 -2       477       476       729      2243      2992      2993
 -1      1296    8    0    1
 -2       610       589       730      2670      2994      2995
 -1      1297    8    0    1
 -2       611       587       731      2635      2996      2997
 -1      1298    8    0    1
 -2       600       601       732      2672      2998      2999
 -1      1299    8    0    1
 -2       607       609       733      2617      3000      3001
 -1      1300    8    0    1
 -2       613       608       734      2634      3002      3003
 -1      1301    8    0    1
 -2       602       603       735      2648      3004      3005
 -1      1302    8    0    1
 -2       595       593       556      2628      3006      3007
 -1      1303    8    0    1
 -2       483       475       736      2694      3008      3009
 -1      1304    8    0    1
 -2       624       483       736      2686      3009      3010
 -1      1305    8    0    1
 -2       475       485       736      2265      3011      3008
 -1      1306    8    0    1
 -2       614       477       737      2629      3012      3013
 -1      1307    8    0    1
 -2       477       729       737      2993      3014      3012
 -1      1308    8    0    1
 -2       478       622       738      2682      3015      3016
 -1      1309    8    0    1
 -2       478       738       592      3016      3017      2579
 -1      1310    8    0    1
 -2       590       723       716      2977      3018      2957
 -1      1311    8    0    1
 -2       627       606       739      2695      3019      3020
 -1      1312    8    0    1
 -2       606       615       739      2641      3021      3019
 -1      1313    8    0    1
 -2       594       725       717      2983      3022      2959
 -1      1314    8    0    1
 -2       615       610       740      2639      3023      3024
 -1      1315    8    0    1
 -2       610       730       740      2995      3025      3023
 -1      1316    8    0    1
 -2       589       628       730      2698      3026      2994
 -1      1317    8    0    1
 -2       573       705       741      2928      3027      3028
 -1      1318    8    0    1
 -2       573       741       576      3028      3029      2532
 -1      1319    8    0    1
 -2       603       728       735      2991      3030      3004
 -1      1320    8    0    1
 -2       736       485       727      3011      2988      3031
 -1      1321    8    0    1
 -2       553       618       742      2886      3032      3033
 -1      1322    8    0    1
 -2       552       553       742      2466      3033      3034
 -1      1323    8    0    1
 -2       618       474       742      2663      3035      3032
 -1      1324    8    0    1
 -2       691       552       742      2882      3034      3036
 -1      1325    8    0    1
 -2       554       555       596      2887      3037      3038
 -1      1326    8    0    1
 -2       555       556       593      2888      3006      3039
 -1      1327    8    0    1
 -2       604       720       728      2967      3040      2990
 -1      1328    8    0    1
 -2       557       558       608      2478      3041      3042
 -1      1329    8    0    1
 -2       596       555       593      3037      3039      2671
 -1      1330    8    0    1
 -2       608       558       734      3041      3043      3002
 -1      1331    8    0    1
 -2       742       474       619      3035      2666      3044
 -1      1332    8    0    1
 -2       554       596       597      3038      2664      3045
 -1      1333    8    0    1
 -2       575       576       672      2531      3046      2826
 -1      1334    8    0    1
 -2       713       605       743      2950      3047      3048
 -1      1335    8    0    1
 -2       605       617       743      2660      3049      3047
 -1      1336    8    0    1
 -2       733       609       627      3000      2696      3050
 -1      1337    8    0    1
 -2       585       715       723      2956      3051      2976
 -1      1338    8    0    1
 -2       712       584       716      2948      2958      3052
 -1      1339    8    0    1
 -2       582       583       704      2553      2986      3053
 -1      1340    8    0    1
 -2       591       713       720      2951      3054      2966
 -1      1341    8    0    1
 -2       732       601       718      2998      2962      3055
 -1      1342    8    0    1
 -2       731       587       714      2996      2953      3056
 -1      1343    8    0    1
 -2       715       613       734      2955      3003      3057
 -1      1344    8    0    1
 -2       718       602       744      2961      3058      3059
 -1      1345    8    0    1
 -2       602       735       744      3005      3060      3058
 -1      1346    8    0    1
 -2       582       704       745      3053      3061      3062
 -1      1347    8    0    1
 -2       711       582       745      2945      3062      3063
 -1      1348    8    0    1
 -2       704       670       745      2926      3064      3061
 -1      1349    8    0    1
 -2       473       717       617      2960      3065      2658
 -1      1350    8    0    1
 -2       476       592       746      2578      3066      3067
 -1      1351    8    0    1
 -2       729       476       746      2992      3067      3068
 -1      1352    8    0    1
 -2       592       738       746      3017      3069      3066
 -1      1353    8    0    1
 -2       559       719       734      2964      3070      3071
 -1      1354    8    0    1
 -2       558       559       734      2481      3071      3043
 -1      1355    8    0    1
 -2       599       626       726      2693      3072      2984
 -1      1356    8    0    1
 -2       554       597       618      3045      2662      2885
 -1      1357    8    0    1
 -2       487       595       557      2668      3073      3074
 -1      1358    8    0    1
 -2       725       607       747      2982      3075      3076
 -1      1359    8    0    1
 -2       607       733       747      3001      3077      3075
 -1      1360    8    0    1
 -2       557       608       487      3042      2637      3074
 -1      1361    8    0    1
 -2       557       595       556      3073      3007      2642
 -1      1362    8    0    1
 -2       611       731       628      2997      3078      2697
 -1      1363    8    0    1
 -2       623       624       748      2688      3079      3080
 -1      1364    8    0    1
 -2       626       600       749      2692      3081      3082
 -1      1365    8    0    1
 -2       631       630       750      2706      3083      3084
 -1      1366    8    0    1
 -2       632       631       751      2709      3085      3086
 -1      1367    8    0    1
 -2       631       750       751      3084      3087      3085
 -1      1368    8    0    1
 -2       633       632       752      2712      3088      3089
 -1      1369    8    0    1
 -2       632       751       752      3086      3090      3088
 -1      1370    8    0    1
 -2       634       633       753      2715      3091      3092
 -1      1371    8    0    1
 -2       633       752       753      3089      3093      3091
 -1      1372    8    0    1
 -2       635       634       754      2718      3094      3095
 -1      1373    8    0    1
 -2       634       753       754      3092      3096      3094
 -1      1374    8    0    1
 -2       636       635       755      2721      3097      3098
 -1      1375    8    0    1
 -2       635       754       755      3095      3099      3097
 -1      1376    8    0    1
 -2       637       636       756      2724      3100      3101
 -1      1377    8    0    1
 -2       636       755       756      3098      3102      3100
 -1      1378    8    0    1
 -2       638       637       757      2727      3103      3104
 -1      1379    8    0    1
 -2       637       756       757      3101      3105      3103
 -1      1380    8    0    1
 -2       639       638       758      2730      3106      3107
 -1      1381    8    0    1
 -2       638       757       758      3104      3108      3106
 -1      1382    8    0    1
 -2       640       639       759      2733      3109      3110
 -1      1383    8    0    1
 -2       639       758       759      3107      3111      3109
 -1      1384    8    0    1
 -2       641       640       760      2736      3112      3113
 -1      1385    8    0    1
 -2       640       759       760      3110      3114      3112
 -1      1386    8    0    1
 -2       642       641       761      2739      3115      3116
 -1      1387    8    0    1
 -2       641       760       761      3113      3117      3115
 -1      1388    8    0    1
 -2       643       642       762      2742      3118      3119
 -1      1389    8    0    1
 -2       642       761       762      3116      3120      3118
 -1      1390    8    0    1
 -2       644       643       763      2745      3121      3122
 -1      1391    8    0    1
 -2       643       762       763      3119      3123      3121
 -1      1392    8    0    1
 -2       645       644       764      2748      3124      3125
 -1      1393    8    0    1
 -2       644       763       764      3122      3126      3124
 -1      1394    8    0    1
 -2       646       645       765      2751      3127      3128
 -1      1395    8    0    1
 -2       645       764       765      3125      3129      3127
 -1      1396    8    0    1
 -2       647       646       766      2754      3130      3131
 -1      1397    8    0    1
 -2       646       765       766      3128      3132      3130
 -1      1398    8    0    1
 -2       648       647       767      2757      3133      3134
 -1      1399    8    0    1
 -2       647       766       767      3131      3135      3133
 -1      1400    8    0    1
 -2       649       648       768      2760      3136      3137
 -1      1401    8    0    1
 -2       648       767       768      3134      3138      3136
 -1      1402    8    0    1
 -2       650       649       769      2763      3139      3140
 -1      1403    8    0    1
 -2       649       768       769      3137      3141      3139
 -1      1404    8    0    1
 -2       651       650       770      2766      3142      3143
 -1      1405    8    0    1
 -2       650       769       770      3140      3144      3142
 -1      1406    8    0    1
 -2       652       651       771      2769      3145      3146
 -1      1407    8    0    1
 -2       651       770       771      3143      3147      3145
 -1      1408    8    0    1
 -2       653       652       772      2772      3148      3149
 -1      1409    8    0    1
 -2       652       771       772      3146      3150      3148
 -1      1410    8    0    1
 -2       654       653       773      2775      3151      3152
 -1      1411    8    0    1
 -2       653       772       773      3149      3153      3151
 -1      1412    8    0    1
 -2       655       654       774      2778      3154      3155
 -1      1413    8    0    1
 -2       654       773       774      3152      3156      3154
 -1      1414    8    0    1
 -2       656       655       775      2781      3157      3158
 -1      1415    8    0    1
 -2       655       774       775      3155      3159      3157
 -1      1416    8    0    1
 -2       657       656       776      2784      3160      3161
 -1      1417    8    0    1
 -2       656       775       776      3158      3162      3160
 -1      1418    8    0    1
 -2       658       657       777      2787      3163      3164
 -1      1419    8    0    1
 -2       657       776       777      3161      3165      3163
 -1      1420    8    0    1
 -2       659       658       778      2790      3166      3167
 -1      1421    8    0    1
 -2       658       777       778      3164      3168      3166
 -1      1422    8    0    1
 -2       660       659       779      2793      3169      3170
 -1      1423    8    0    1
 -2       659       778       779      3167      3171      3169
 -1      1424    8    0    1
 -2       661       660       780      2796      3172      3173
 -1      1425    8    0    1
 -2       660       779       780      3170      3174      3172
 -1      1426    8    0    1
 -2       662       661       781      2799      3175      3176
 -1      1427    8    0    1
 -2       661       780       781      3173      3177      3175
 -1      1428    8    0    1
 -2       663       662       782      2802      3178      3179
 -1      1429    8    0    1
 -2       662       781       782      3176      3180      3178
 -1      1430    8    0    1
 -2       664       663       783      2805      3181      3182
 -1      1431    8    0    1
 -2       663       782       783      3179      3183      3181
 -1      1432    8    0    1
 -2       665       664       784      2808      3184      3185
 -1      1433    8    0    1
 -2       664       783       784      3182      3186      3184
 -1      1434    8    0    1
 -2       666       665       785      2811      3187      3188
 -1      1435    8    0    1
 -2       665       784       785      3185      3189      3187
 -1      1436    8    0    1
 -2       667       666       786      2814      3190      3191
 -1      1437    8    0    1
 -2       666       785       786      3188      3192      3190
 -1      1438    8    0    1
 -2       668       667       787      2817      3193      3194
 -1      1439    8    0    1
 -2       667       786       787      3191      3195      3193
 -1      1440    8    0    1
 -2       669       668       788      2820      3196      3197
 -1      1441    8    0    1
 -2       668       787       788      3194      3198      3196
 -1      1442    8    0    1
 -2       670       669       789      2823      3199      3200
 -1      1443    8    0    1
 -2       745       670       789      3064      3200      3201
 -1      1444    8    0    1
 -2       669       788       789      3197      3202      3199
 -1      1445    8    0    1
 -2       673       671       790      2831      3203      3204
 -1      1446    8    0    1
 -2       675       676       791      2839      3205      3206
 -1      1447    8    0    1
 -2       674       675       792      2836      3207      3208
 -1      1448    8    0    1
 -2       675       791       792      3206      3209      3207
 -1      1449    8    0    1
 -2       677       678       793      2845      3210      3211
 -1      1450    8    0    1
 -2       678       679       794      2848      3212      3213
 -1      1451    8    0    1
 -2       678       794       793      3213      3214      3210
 -1      1452    8    0    1
 -2       679       680       795      2851      3215      3216
 -1      1453    8    0    1
 -2       679       795       794      3216      3217      3212
 -1      1454    8    0    1
 -2       680       681       796      2854      3218      3219
 -1      1455    8    0    1
 -2       680       796       795      3219      3220      3215
 -1      1456    8    0    1
 -2       681       682       797      2857      3221      3222
 -1      1457    8    0    1
 -2       681       797       796      3222      3223      3218
 -1      1458    8    0    1
 -2       682       683       798      2860      3224      3225
 -1      1459    8    0    1
 -2       682       798       797      3225      3226      3221
 -1      1460    8    0    1
 -2       683       684       799      2863      3227      3228
 -1      1461    8    0    1
 -2       683       799       798      3228      3229      3224
 -1      1462    8    0    1
 -2       684       685       800      2866      3230      3231
 -1      1463    8    0    1
 -2       684       800       799      3231      3232      3227
 -1      1464    8    0    1
 -2       685       686       801      2869      3233      3234
 -1      1465    8    0    1
 -2       685       801       800      3234      3235      3230
 -1      1466    8    0    1
 -2       686       687       802      2872      3236      3237
 -1      1467    8    0    1
 -2       686       802       801      3237      3238      3233
 -1      1468    8    0    1
 -2       687       688       803      2875      3239      3240
 -1      1469    8    0    1
 -2       687       803       802      3240      3241      3236
 -1      1470    8    0    1
 -2       688       689       804      2878      3242      3243
 -1      1471    8    0    1
 -2       688       804       803      3243      3244      3239
 -1      1472    8    0    1
 -2       689       690       805      2881      3245      3246
 -1      1473    8    0    1
 -2       689       805       804      3246      3247      3242
 -1      1474    8    0    1
 -2       694       695       806      2899      3248      3249
 -1      1475    8    0    1
 -2       693       694       807      2896      3250      3251
 -1      1476    8    0    1
 -2       694       806       807      3249      3252      3250
 -1      1477    8    0    1
 -2       728       720       808      3040      3253      3254
 -1      1478    8    0    1
 -2       692       693       809      2893      3255      3256
 -1      1479    8    0    1
 -2       693       807       809      3251      3257      3255
 -1      1480    8    0    1
 -2       695       696       810      2902      3258      3259
 -1      1481    8    0    1
 -2       695       810       806      3259      3260      3248
 -1      1482    8    0    1
 -2       696       697       811      2905      3261      3262
 -1      1483    8    0    1
 -2       696       811       810      3262      3263      3258
 -1      1484    8    0    1
 -2       697       698       812      2908      3264      3265
 -1      1485    8    0    1
 -2       697       812       811      3265      3266      3261
 -1      1486    8    0    1
 -2       698       699       813      2911      3267      3268
 -1      1487    8    0    1
 -2       698       813       812      3268      3269      3264
 -1      1488    8    0    1
 -2       699       700       814      2914      3270      3271
 -1      1489    8    0    1
 -2       699       814       813      3271      3272      3267
 -1      1490    8    0    1
 -2       700       701       815      2917      3273      3274
 -1      1491    8    0    1
 -2       700       815       814      3274      3275      3270
 -1      1492    8    0    1
 -2       617       717       816      3065      3276      3277
 -1      1493    8    0    1
 -2       706       709       817      2941      3278      3279
 -1      1494    8    0    1
 -2       622       621       818      2683      3280      3281
 -1      1495    8    0    1
 -2       708       673       819      2938      3282      3283
 -1      1496    8    0    1
 -2       673       790       819      3204      3284      3282
 -1      1497    8    0    1
 -2       703       706       820      2931      3285      3286
 -1      1498    8    0    1
 -2       706       817       820      3279      3287      3285
 -1      1499    8    0    1
 -2       710       711       821      2947      3288      3289
 -1      1500    8    0    1
 -2       742       619       691      3044      3290      3036
 -1      1501    8    0    1
 -2       715       734       719      3057      3070      3291
 -1      1502    8    0    1
 -2       616       614       822      2653      3292      3293
 -1      1503    8    0    1
 -2       625       616       822      2691      3293      3294
 -1      1504    8    0    1
 -2       614       737       822      3013      3295      3292
 -1      1505    8    0    1
 -2       717       725       823      3022      3296      3297
 -1      1506    8    0    1
 -2       717       823       816      3297      3298      3276
 -1      1507    8    0    1
 -2       719       692       824      2965      3299      3300
 -1      1508    8    0    1
 -2       692       809       824      3256      3301      3299
 -1      1509    8    0    1
 -2       731       714       825      3056      3302      3303
 -1      1510    8    0    1
 -2       715       719       824      3291      3300      3304
 -1      1511    8    0    1
 -2       714       712       826      2954      3305      3306
 -1      1512    8    0    1
 -2       619       598       726      2667      2985      3307
 -1      1513    8    0    1
 -2       716       723       827      3018      3308      3309
 -1      1514    8    0    1
 -2       735       728       828      3030      3310      3311
 -1      1515    8    0    1
 -2       732       718       829      3055      3312      3313
 -1      1516    8    0    1
 -2       709       710       830      2944      3314      3315
 -1      1517    8    0    1
 -2       817       709       830      3278      3315      3316
 -1      1518    8    0    1
 -2       710       821       830      3289      3317      3314
 -1      1519    8    0    1
 -2       676       677       831      2842      3318      3319
 -1      1520    8    0    1
 -2       791       676       831      3205      3319      3320
 -1      1521    8    0    1
 -2       677       793       831      3211      3321      3318
 -1      1522    8    0    1
 -2       630       629       832      2703      3322      3323
 -1      1523    8    0    1
 -2       630       832       750      3323      3324      3083
 -1      1524    8    0    1
 -2       733       627       833      3050      3325      3326
 -1      1525    8    0    1
 -2       712       716       834      3052      3327      3328
 -1      1526    8    0    1
 -2       672       576       741      3046      3029      3329
 -1      1527    8    0    1
 -2       720       713       835      3054      3330      3331
 -1      1528    8    0    1
 -2       727       708       836      2989      3332      3333
 -1      1529    8    0    1
 -2       708       819       836      3283      3334      3332
 -1      1530    8    0    1
 -2       723       715       824      3051      3304      3335
 -1      1531    8    0    1
 -2       628       731       837      3078      3336      3337
 -1      1532    8    0    1
 -2       731       825       837      3303      3338      3336
 -1      1533    8    0    1
 -2       730       628       838      3026      3339      3340
 -1      1534    8    0    1
 -2       600       732       749      2999      3341      3081
 -1      1535    8    0    1
 -2       726       626       839      3072      3342      3343
 -1      1536    8    0    1
 -2       624       736       840      3010      3344      3345
 -1      1537    8    0    1
 -2       748       624       840      3079      3345      3346
 -1      1538    8    0    1
 -2       736       727       840      3031      3347      3344
 -1      1539    8    0    1
 -2       626       749       841      3082      3348      3349
 -1      1540    8    0    1
 -2       691       619       726      3290      3307      3350
 -1      1541    8    0    1
 -2       691       726       839      3350      3343      3351
 -1      1542    8    0    1
 -2       738       622       842      3015      3352      3353
 -1      1543    8    0    1
 -2       622       818       842      3281      3354      3352
 -1      1544    8    0    1
 -2       739       615       843      3021      3355      3356
 -1      1545    8    0    1
 -2       615       740       843      3024      3357      3355
 -1      1546    8    0    1
 -2       823       725       844      3296      3358      3359
 -1      1547    8    0    1
 -2       725       747       844      3076      3360      3358
 -1      1548    8    0    1
 -2       703       820       845      3286      3361      3362
 -1      1549    8    0    1
 -2       703       845       707      3362      3363      2935
 -1      1550    8    0    1
 -2       740       730       838      3025      3340      3364
 -1      1551    8    0    1
 -2       741       705       846      3027      3365      3366
 -1      1552    8    0    1
 -2       629       722       847      2974      3367      3368
 -1      1553    8    0    1
 -2       629       847       832      3368      3369      3322
 -1      1554    8    0    1
 -2       722       625       822      2975      3294      3370
 -1      1555    8    0    1
 -2       674       792       848      3208      3371      3372
 -1      1556    8    0    1
 -2       674       848       721      3372      3373      2971
 -1      1557    8    0    1
 -2       728       808       828      3254      3374      3310
 -1      1558    8    0    1
 -2       805       690       839      3245      3375      3376
 -1      1559    8    0    1
 -2       690       691       839      2884      3351      3375
 -1      1560    8    0    1
 -2       808       720       849      3253      3377      3378
 -1      1561    8    0    1
 -2       720       835       849      3331      3379      3377
 -1      1562    8    0    1
 -2       617       816       743      3277      3380      3049
 -1      1563    8    0    1
 -2       815       701       850      3273      3381      3382
 -1      1564    8    0    1
 -2       701       702       850      2920      3383      3381
 -1      1565    8    0    1
 -2       714       826       825      3306      3384      3302
 -1      1566    8    0    1
 -2       705       707       851      2934      3385      3386
 -1      1567    8    0    1
 -2       846       705       851      3365      3386      3387
 -1      1568    8    0    1
 -2       707       845       851      3363      3388      3385
 -1      1569    8    0    1
 -2       626       841       839      3349      3389      3342
 -1      1570    8    0    1
 -2       723       824       827      3335      3390      3308
 -1      1571    8    0    1
 -2       829       718       852      3312      3391      3392
 -1      1572    8    0    1
 -2       718       744       852      3059      3393      3391
 -1      1573    8    0    1
 -2       737       729       853      3014      3394      3395
 -1      1574    8    0    1
 -2       744       735       854      3060      3396      3397
 -1      1575    8    0    1
 -2       735       828       854      3311      3398      3396
 -1      1576    8    0    1
 -2       790       671       855      3203      3399      3400
 -1      1577    8    0    1
 -2       671       721       855      2970      3401      3399
 -1      1578    8    0    1
 -2       627       739       856      3020      3402      3403
 -1      1579    8    0    1
 -2       627       856       833      3403      3404      3325
 -1      1580    8    0    1
 -2       628       837       838      3337      3405      3339
 -1      1581    8    0    1
 -2       729       746       857      3068      3406      3407
 -1      1582    8    0    1
 -2       729       857       853      3407      3408      3394
 -1      1583    8    0    1
 -2       826       712       834      3305      3328      3409
 -1      1584    8    0    1
 -2       724       623       858      2981      3410      3411
 -1      1585    8    0    1
 -2       623       748       858      3080      3412      3410
 -1      1586    8    0    1
 -2       834       716       859      3327      3413      3414
 -1      1587    8    0    1
 -2       716       827       859      3309      3415      3413
 -1      1588    8    0    1
 -2       713       743       860      3048      3416      3417
 -1      1589    8    0    1
 -2       713       860       835      3417      3418      3330
 -1      1590    8    0    1
 -2       621       724       861      2980      3419      3420
 -1      1591    8    0    1
 -2       818       621       861      3280      3420      3421
 -1      1592    8    0    1
 -2       724       858       861      3411      3422      3419
 -1      1593    8    0    1
 -2       672       741       862      3329      3423      3424
 -1      1594    8    0    1
 -2       747       733       863      3077      3425      3426
 -1      1595    8    0    1
 -2       733       833       863      3326      3427      3425
 -1      1596    8    0    1
 -2       727       836       840      3333      3428      3347
 -1      1597    8    0    1
 -2       749       732       864      3341      3429      3430
 -1      1598    8    0    1
 -2       732       829       864      3313      3431      3429
 -1      1599    8    0    1
 -2       841       749       864      3348      3430      3432
 -1      1600    8    0    1
 -2       711       745       865      3063      3433      3434
 -1      1601    8    0    1
 -2       821       711       865      3288      3434      3435
 -1      1602    8    0    1
 -2       745       789       865      3201      3436      3433
 -1      1603    8    0    1
 -2       816       823       866      3298      3437      3438
 -1      1604    8    0    1
 -2       752       751       867      3090      3439      3440
 -1      1605    8    0    1
 -2       753       752       868      3093      3441      3442
 -1      1606    8    0    1
 -2       752       867       868      3440      3443      3441
 -1      1607    8    0    1
 -2       754       753       869      3096      3444      3445
 -1      1608    8    0    1
 -2       753       868       869      3442      3446      3444
 -1      1609    8    0    1
 -2       755       754       870      3099      3447      3448
 -1      1610    8    0    1
 -2       754       869       870      3445      3449      3447
 -1      1611    8    0    1
 -2       756       755       871      3102      3450      3451
 -1      1612    8    0    1
 -2       755       870       871      3448      3452      3450
 -1      1613    8    0    1
 -2       757       756       872      3105      3453      3454
 -1      1614    8    0    1
 -2       756       871       872      3451      3455      3453
 -1      1615    8    0    1
 -2       758       757       873      3108      3456      3457
 -1      1616    8    0    1
 -2       757       872       873      3454      3458      3456
 -1      1617    8    0    1
 -2       759       758       874      3111      3459      3460
 -1      1618    8    0    1
 -2       758       873       874      3457      3461      3459
 -1      1619    8    0    1
 -2       760       759       875      3114      3462      3463
 -1      1620    8    0    1
 -2       759       874       875      3460      3464      3462
 -1      1621    8    0    1
 -2       761       760       876      3117      3465      3466
 -1      1622    8    0    1
 -2       760       875       876      3463      3467      3465
 -1      1623    8    0    1
 -2       762       761       877      3120      3468      3469
 -1      1624    8    0    1
 -2       761       876       877      3466      3470      3468
 -1      1625    8    0    1
 -2       763       762       878      3123      3471      3472
 -1      1626    8    0    1
 -2       762       877       878      3469      3473      3471
 -1      1627    8    0    1
 -2       764       763       879      3126      3474      3475
 -1      1628    8    0    1
 -2       763       878       879      3472      3476      3474
 -1      1629    8    0    1
 -2       765       764       880      3129      3477      3478
 -1      1630    8    0    1
 -2       764       879       880      3475      3479      3477
 -1      1631    8    0    1
 -2       766       765       881      3132      3480      3481
 -1      1632    8    0    1
 -2       765       880       881      3478      3482      3480
 -1      1633    8    0    1
 -2       767       766       882      3135      3483      3484
 -1      1634    8    0    1
 -2       766       881       882      3481      3485      3483
 -1      1635    8    0    1
 -2       768       767       883      3138      3486      3487
 -1      1636    8    0    1
 -2       767       882       883      3484      3488      3486
 -1      1637    8    0    1
 -2       769       768       884      3141      3489      3490
 -1      1638    8    0    1
 -2       768       883       884      3487      3491      3489
 -1      1639    8    0    1
 -2       770       769       885      3144      3492      3493
 -1      1640    8    0    1
 -2       769       884       885      3490      3494      3492
 -1      1641    8    0    1
 -2       771       770       886      3147      3495      3496
 -1      1642    8    0    1
 -2       770       885       886      3493      3497      3495
 -1      1643    8    0    1
 -2       772       771       887      3150      3498      3499
 -1      1644    8    0    1
 -2       771       886       887      3496      3500      3498
 -1      1645    8    0    1
 -2       773       772       866      3153      3501      3502
 -1      1646    8    0    1
 -2       774       773       866      3156      3502      3503
 -1      1647    8    0    1
 -2       775       774       844      3159      3504      3505
 -1      1648    8    0    1
 -2       776       775       863      3162      3506      3507
 -1      1649    8    0    1
 -2       777       776       856      3165      3508      3509
 -1      1650    8    0    1
 -2       779       778       888      3171      3510      3511
 -1      1651    8    0    1
 -2       780       779       889      3174      3512      3513
 -1      1652    8    0    1
 -2       779       888       889      3511      3514      3512
 -1      1653    8    0    1
 -2       781       780       890      3177      3515      3516
 -1      1654    8    0    1
 -2       780       889       890      3513      3517      3515
 -1      1655    8    0    1
 -2       782       781       891      3180      3518      3519
 -1      1656    8    0    1
 -2       781       890       891      3516      3520      3518
 -1      1657    8    0    1
 -2       783       782       892      3183      3521      3522
 -1      1658    8    0    1
 -2       782       891       892      3519      3523      3521
 -1      1659    8    0    1
 -2       784       783       893      3186      3524      3525
 -1      1660    8    0    1
 -2       783       892       893      3522      3526      3524
 -1      1661    8    0    1
 -2       785       784       894      3189      3527      3528
 -1      1662    8    0    1
 -2       784       893       894      3525      3529      3527
 -1      1663    8    0    1
 -2       786       785       895      3192      3530      3531
 -1      1664    8    0    1
 -2       785       894       895      3528      3532      3530
 -1      1665    8    0    1
 -2       787       786       896      3195      3533      3534
 -1      1666    8    0    1
 -2       786       895       896      3531      3535      3533
 -1      1667    8    0    1
 -2       788       787       897      3198      3536      3537
 -1      1668    8    0    1
 -2       787       896       897      3534      3538      3536
 -1      1669    8    0    1
 -2       722       822       847      3370      3539      3367
 -1      1670    8    0    1
 -2       750       832       898      3324      3540      3541
 -1      1671    8    0    1
 -2       794       795       899      3217      3542      3543
 -1      1672    8    0    1
 -2       793       794       900      3214      3544      3545
 -1      1673    8    0    1
 -2       794       899       900      3543      3546      3544
 -1      1674    8    0    1
 -2       796       797       901      3223      3547      3548
 -1      1675    8    0    1
 -2       797       798       902      3226      3549      3550
 -1      1676    8    0    1
 -2       797       902       901      3550      3551      3547
 -1      1677    8    0    1
 -2       798       799       903      3229      3552      3553
 -1      1678    8    0    1
 -2       798       903       902      3553      3554      3549
 -1      1679    8    0    1
 -2       799       800       904      3232      3555      3556
 -1      1680    8    0    1
 -2       799       904       903      3556      3557      3552
 -1      1681    8    0    1
 -2       800       801       905      3235      3558      3559
 -1      1682    8    0    1
 -2       800       905       904      3559      3560      3555
 -1      1683    8    0    1
 -2       801       802       906      3238      3561      3562
 -1      1684    8    0    1
 -2       801       906       905      3562      3563      3558
 -1      1685    8    0    1
 -2       802       803       907      3241      3564      3565
 -1      1686    8    0    1
 -2       802       907       906      3565      3566      3561
 -1      1687    8    0    1
 -2       803       804       908      3244      3567      3568
 -1      1688    8    0    1
 -2       803       908       907      3568      3569      3564
 -1      1689    8    0    1
 -2       810       811       909      3263      3570      3571
 -1      1690    8    0    1
 -2       751       750       910      3087      3572      3573
 -1      1691    8    0    1
 -2       751       910       867      3573      3574      3439
 -1      1692    8    0    1
 -2       806       810       911      3260      3575      3576
 -1      1693    8    0    1
 -2       810       909       911      3571      3577      3575
 -1      1694    8    0    1
 -2       741       846       862      3366      3578      3423
 -1      1695    8    0    1
 -2       811       812       912      3266      3579      3580
 -1      1696    8    0    1
 -2       811       912       909      3580      3581      3570
 -1      1697    8    0    1
 -2       812       813       913      3269      3582      3583
 -1      1698    8    0    1
 -2       812       913       912      3583      3584      3579
 -1      1699    8    0    1
 -2       813       814       914      3272      3585      3586
 -1      1700    8    0    1
 -2       813       914       913      3586      3587      3582
 -1      1701    8    0    1
 -2       814       815       915      3275      3588      3589
 -1      1702    8    0    1
 -2       814       915       914      3589      3590      3585
 -1      1703    8    0    1
 -2       825       826       916      3384      3591      3592
 -1      1704    8    0    1
 -2       702       672       862      2921      3424      3593
 -1      1705    8    0    1
 -2       820       817       917      3287      3594      3595
 -1      1706    8    0    1
 -2       740       838       918      3364      3596      3597
 -1      1707    8    0    1
 -2       826       834       919      3409      3598      3599
 -1      1708    8    0    1
 -2       743       816       920      3380      3600      3601
 -1      1709    8    0    1
 -2       805       839       841      3376      3389      3602
 -1      1710    8    0    1
 -2       824       809       827      3301      3603      3390
 -1      1711    8    0    1
 -2       828       808       921      3374      3604      3605
 -1      1712    8    0    1
 -2       746       738       922      3069      3606      3607
 -1      1713    8    0    1
 -2       746       922       857      3607      3608      3406
 -1      1714    8    0    1
 -2       841       864       923      3432      3609      3610
 -1      1715    8    0    1
 -2       836       819       924      3334      3611      3612
 -1      1716    8    0    1
 -2       838       837       925      3405      3613      3614
 -1      1717    8    0    1
 -2       827       809       859      3603      3615      3415
 -1      1718    8    0    1
 -2       809       807       926      3257      3616      3617
 -1      1719    8    0    1
 -2       809       926       859      3617      3618      3615
 -1      1720    8    0    1
 -2       837       825       927      3338      3619      3620
 -1      1721    8    0    1
 -2       825       916       927      3592      3621      3619
 -1      1722    8    0    1
 -2       795       796       928      3220      3622      3623
 -1      1723    8    0    1
 -2       899       795       928      3542      3623      3624
 -1      1724    8    0    1
 -2       796       901       928      3548      3625      3622
 -1      1725    8    0    1
 -2       819       790       929      3284      3626      3627
 -1      1726    8    0    1
 -2       819       929       924      3627      3628      3611
 -1      1727    8    0    1
 -2       840       836       930      3428      3629      3630
 -1      1728    8    0    1
 -2       748       840       930      3346      3630      3631
 -1      1729    8    0    1
 -2       836       924       930      3612      3632      3629
 -1      1730    8    0    1
 -2       807       806       931      3252      3633      3634
 -1      1731    8    0    1
 -2       926       807       931      3616      3634      3635
 -1      1732    8    0    1
 -2       806       911       931      3576      3636      3633
 -1      1733    8    0    1
 -2       792       791       932      3209      3637      3638
 -1      1734    8    0    1
 -2       805       841       923      3602      3610      3639
 -1      1735    8    0    1
 -2       843       740       918      3357      3597      3640
 -1      1736    8    0    1
 -2       842       818       933      3354      3641      3642
 -1      1737    8    0    1
 -2       845       820       934      3361      3643      3644
 -1      1738    8    0    1
 -2       820       917       934      3595      3645      3643
 -1      1739    8    0    1
 -2       750       898       910      3541      3646      3572
 -1      1740    8    0    1
 -2       772       887       866      3499      3647      3501
 -1      1741    8    0    1
 -2       832       847       935      3369      3648      3649
 -1      1742    8    0    1
 -2       832       935       898      3649      3650      3540
 -1      1743    8    0    1
 -2       925       837       927      3613      3620      3651
 -1      1744    8    0    1
 -2       777       856       936      3509      3652      3653
 -1      1745    8    0    1
 -2       778       777       936      3168      3653      3654
 -1      1746    8    0    1
 -2       929       790       937      3626      3655      3656
 -1      1747    8    0    1
 -2       790       855       937      3400      3657      3655
 -1      1748    8    0    1
 -2       789       788       938      3202      3658      3659
 -1      1749    8    0    1
 -2       865       789       938      3436      3659      3660
 -1      1750    8    0    1
 -2       788       897       938      3537      3661      3658
 -1      1751    8    0    1
 -2       848       792       939      3371      3662      3663
 -1      1752    8    0    1
 -2       792       932       939      3638      3664      3662
 -1      1753    8    0    1
 -2       748       930       858      3631      3665      3412
 -1      1754    8    0    1
 -2       793       900       940      3545      3666      3667
 -1      1755    8    0    1
 -2       793       940       831      3667      3668      3321
 -1      1756    8    0    1
 -2       862       846       941      3578      3669      3670
 -1      1757    8    0    1
 -2       908       804       923      3567      3671      3672
 -1      1758    8    0    1
 -2       804       805       923      3247      3639      3671
 -1      1759    8    0    1
 -2       808       849       942      3378      3673      3674
 -1      1760    8    0    1
 -2       808       942       921      3674      3675      3604
 -1      1761    8    0    1
 -2       919       834       859      3598      3414      3676
 -1      1762    8    0    1
 -2       918       838       943      3596      3677      3678
 -1      1763    8    0    1
 -2       838       925       943      3614      3679      3677
 -1      1764    8    0    1
 -2       915       815       941      3588      3680      3681
 -1      1765    8    0    1
 -2       916       826       919      3591      3599      3682
 -1      1766    8    0    1
 -2       702       862       850      3593      3683      3383
 -1      1767    8    0    1
 -2       917       817       944      3594      3684      3685
 -1      1768    8    0    1
 -2       817       830       944      3316      3686      3684
 -1      1769    8    0    1
 -2       791       831       945      3320      3687      3688
 -1      1770    8    0    1
 -2       932       791       945      3637      3688      3689
 -1      1771    8    0    1
 -2       831       940       945      3668      3690      3687
 -1      1772    8    0    1
 -2       739       843       856      3356      3691      3402
 -1      1773    8    0    1
 -2       854       828       946      3398      3692      3693
 -1      1774    8    0    1
 -2       828       921       946      3605      3694      3692
 -1      1775    8    0    1
 -2       852       744       947      3393      3695      3696
 -1      1776    8    0    1
 -2       744       854       947      3397      3697      3695
 -1      1777    8    0    1
 -2       743       920       860      3601      3698      3416
 -1      1778    8    0    1
 -2       822       737       847      3295      3699      3539
 -1      1779    8    0    1
 -2       922       738       842      3606      3353      3700
 -1      1780    8    0    1
 -2       855       721       848      3401      3373      3701
 -1      1781    8    0    1
 -2       846       851       948      3387      3702      3703
 -1      1782    8    0    1
 -2       846       948       941      3703      3704      3669
 -1      1783    8    0    1
 -2       888       778       936      3510      3654      3705
 -1      1784    8    0    1
 -2       849       835       949      3379      3706      3707
 -1      1785    8    0    1
 -2       835       860       949      3418      3708      3706
 -1      1786    8    0    1
 -2       747       863       775      3426      3506      3709
 -1      1787    8    0    1
 -2       818       861       950      3421      3710      3711
 -1      1788    8    0    1
 -2       818       950       933      3711      3712      3641
 -1      1789    8    0    1
 -2       864       829       951      3431      3713      3714
 -1      1790    8    0    1
 -2       821       865       938      3435      3660      3715
 -1      1791    8    0    1
 -2       853       857       952      3408      3716      3717
 -1      1792    8    0    1
 -2       737       853       847      3395      3718      3699
 -1      1793    8    0    1
 -2       747       775       844      3709      3505      3360
 -1      1794    8    0    1
 -2       864       951       923      3714      3719      3609
 -1      1795    8    0    1
 -2       853       952       935      3717      3720      3721
 -1      1796    8    0    1
 -2       951       829       852      3713      3392      3722
 -1      1797    8    0    1
 -2       821       938       953      3715      3723      3724
 -1      1798    8    0    1
 -2       830       821       953      3317      3724      3725
 -1      1799    8    0    1
 -2       938       897       953      3661      3726      3723
 -1      1800    8    0    1
 -2       847       853       935      3718      3721      3648
 -1      1801    8    0    1
 -2       935       952       954      3720      3727      3728
 -1      1802    8    0    1
 -2       935       954       898      3728      3729      3650
 -1      1803    8    0    1
 -2       923       951       955      3719      3730      3731
 -1      1804    8    0    1
 -2       923       955       908      3731      3732      3672
 -1      1805    8    0    1
 -2       889       888       956      3514      3733      3734
 -1      1806    8    0    1
 -2       936       856       843      3652      3691      3735
 -1      1807    8    0    1
 -2       816       866       920      3438      3736      3600
 -1      1808    8    0    1
 -2       869       868       957      3446      3737      3738
 -1      1809    8    0    1
 -2       870       869       958      3449      3739      3740
 -1      1810    8    0    1
 -2       869       957       958      3738      3741      3739
 -1      1811    8    0    1
 -2       871       870       959      3452      3742      3743
 -1      1812    8    0    1
 -2       870       958       959      3740      3744      3742
 -1      1813    8    0    1
 -2       872       871       960      3455      3745      3746
 -1      1814    8    0    1
 -2       871       959       960      3743      3747      3745
 -1      1815    8    0    1
 -2       873       872       961      3458      3748      3749
 -1      1816    8    0    1
 -2       872       960       961      3746      3750      3748
 -1      1817    8    0    1
 -2       874       873       962      3461      3751      3752
 -1      1818    8    0    1
 -2       873       961       962      3749      3753      3751
 -1      1819    8    0    1
 -2       875       874       963      3464      3754      3755
 -1      1820    8    0    1
 -2       874       962       963      3752      3756      3754
 -1      1821    8    0    1
 -2       876       875       964      3467      3757      3758
 -1      1822    8    0    1
 -2       875       963       964      3755      3759      3757
 -1      1823    8    0    1
 -2       877       876       965      3470      3760      3761
 -1      1824    8    0    1
 -2       876       964       965      3758      3762      3760
 -1      1825    8    0    1
 -2       878       877       966      3473      3763      3764
 -1      1826    8    0    1
 -2       877       965       966      3761      3765      3763
 -1      1827    8    0    1
 -2       879       878       967      3476      3766      3767
 -1      1828    8    0    1
 -2       878       966       967      3764      3768      3766
 -1      1829    8    0    1
 -2       880       879       968      3479      3769      3770
 -1      1830    8    0    1
 -2       879       967       968      3767      3771      3769
 -1      1831    8    0    1
 -2       881       880       969      3482      3772      3773
 -1      1832    8    0    1
 -2       880       968       969      3770      3774      3772
 -1      1833    8    0    1
 -2       882       881       970      3485      3775      3776
 -1      1834    8    0    1
 -2       881       969       970      3773      3777      3775
 -1      1835    8    0    1
 -2       883       882       971      3488      3778      3779
 -1      1836    8    0    1
 -2       882       970       971      3776      3780      3778
 -1      1837    8    0    1
 -2       884       883       972      3491      3781      3782
 -1      1838    8    0    1
 -2       883       971       972      3779      3783      3781
 -1      1839    8    0    1
 -2       885       884       942      3494      3784      3785
 -1      1840    8    0    1
 -2       886       885       949      3497      3786      3787
 -1      1841    8    0    1
 -2       774       866       844      3503      3788      3504
 -1      1842    8    0    1
 -2       922       842       973      3700      3789      3790
 -1      1843    8    0    1
 -2       842       933       973      3642      3791      3789
 -1      1844    8    0    1
 -2       890       889       974      3517      3792      3793
 -1      1845    8    0    1
 -2       889       956       974      3734      3794      3792
 -1      1846    8    0    1
 -2       891       890       975      3520      3795      3796
 -1      1847    8    0    1
 -2       890       974       975      3793      3797      3795
 -1      1848    8    0    1
 -2       892       891       976      3523      3798      3799
 -1      1849    8    0    1
 -2       891       975       976      3796      3800      3798
 -1      1850    8    0    1
 -2       893       892       977      3526      3801      3802
 -1      1851    8    0    1
 -2       892       976       977      3799      3803      3801
 -1      1852    8    0    1
 -2       894       893       978      3529      3804      3805
 -1      1853    8    0    1
 -2       893       977       978      3802      3806      3804
 -1      1854    8    0    1
 -2       895       894       979      3532      3807      3808
 -1      1855    8    0    1
 -2       894       978       979      3805      3809      3807
 -1      1856    8    0    1
 -2       896       895       980      3535      3810      3811
 -1      1857    8    0    1
 -2       895       979       980      3808      3812      3810
 -1      1858    8    0    1
 -2       897       896       981      3538      3813      3814
 -1      1859    8    0    1
 -2       896       980       981      3811      3815      3813
 -1      1860    8    0    1
 -2       925       927       982      3651      3816      3817
 -1      1861    8    0    1
 -2       924       929       983      3628      3818      3819
 -1      1862    8    0    1
 -2       902       903       984      3554      3820      3821
 -1      1863    8    0    1
 -2       901       902       985      3551      3822      3823
 -1      1864    8    0    1
 -2       902       984       985      3821      3824      3822
 -1      1865    8    0    1
 -2       904       905       986      3560      3825      3826
 -1      1866    8    0    1
 -2       905       906       987      3563      3827      3828
 -1      1867    8    0    1
 -2       905       987       986      3828      3829      3825
 -1      1868    8    0    1
 -2       906       907       988      3566      3830      3831
 -1      1869    8    0    1
 -2       906       988       987      3831      3832      3827
 -1      1870    8    0    1
 -2       907       908       989      3569      3833      3834
 -1      1871    8    0    1
 -2       988       907       989      3830      3834      3835
 -1      1872    8    0    1
 -2       908       955       989      3732      3836      3833
 -1      1873    8    0    1
 -2       912       913       990      3584      3837      3838
 -1      1874    8    0    1
 -2       867       910       991      3574      3839      3840
 -1      1875    8    0    1
 -2       911       909       992      3577      3841      3842
 -1      1876    8    0    1
 -2       913       914       993      3587      3843      3844
 -1      1877    8    0    1
 -2       913       993       990      3844      3845      3837
 -1      1878    8    0    1
 -2       914       915       994      3590      3846      3847
 -1      1879    8    0    1
 -2       914       994       993      3847      3848      3843
 -1      1880    8    0    1
 -2       916       919       995      3682      3849      3850
 -1      1881    8    0    1
 -2       903       904       996      3557      3851      3852
 -1      1882    8    0    1
 -2       904       986       996      3826      3853      3851
 -1      1883    8    0    1
 -2       851       845       997      3388      3854      3855
 -1      1884    8    0    1
 -2       845       934       997      3644      3856      3854
 -1      1885    8    0    1
 -2       900       899       998      3546      3857      3858
 -1      1886    8    0    1
 -2       850       862       941      3683      3670      3859
 -1      1887    8    0    1
 -2       815       850       941      3382      3859      3680
 -1      1888    8    0    1
 -2       919       859       926      3676      3618      3860
 -1      1889    8    0    1
 -2       857       922       999      3608      3861      3862
 -1      1890    8    0    1
 -2       857       999       952      3862      3863      3716
 -1      1891    8    0    1
 -2       843       918      1000      3640      3864      3865
 -1      1892    8    0    1
 -2       936       843      1000      3735      3865      3866
 -1      1893    8    0    1
 -2       918       943      1000      3678      3867      3864
 -1      1894    8    0    1
 -2       951       852      1001      3722      3868      3869
 -1      1895    8    0    1
 -2       955       951      1001      3730      3869      3870
 -1      1896    8    0    1
 -2       852       947      1001      3696      3871      3868
 -1      1897    8    0    1
 -2       915       941      1002      3681      3872      3873
 -1      1898    8    0    1
 -2       994       915      1002      3846      3873      3874
 -1      1899    8    0    1
 -2       941       948      1002      3704      3875      3872
 -1      1900    8    0    1
 -2       861       858      1003      3422      3876      3877
 -1      1901    8    0    1
 -2       861      1003       950      3877      3878      3710
 -1      1902    8    0    1
 -2       909       912      1004      3581      3879      3880
 -1      1903    8    0    1
 -2       912       990      1004      3838      3881      3879
 -1      1904    8    0    1
 -2       910       898      1005      3646      3882      3883
 -1      1905    8    0    1
 -2       991       910      1005      3839      3883      3884
 -1      1906    8    0    1
 -2       898       954      1005      3729      3885      3882
 -1      1907    8    0    1
 -2       927       916      1006      3621      3886      3887
 -1      1908    8    0    1
 -2       916       995      1006      3850      3888      3886
 -1      1909    8    0    1
 -2       930       924      1003      3632      3889      3890
 -1      1910    8    0    1
 -2       868       867      1007      3443      3891      3892
 -1      1911    8    0    1
 -2       867       991      1007      3840      3893      3891
 -1      1912    8    0    1
 -2       858       930      1003      3665      3890      3876
 -1      1913    8    0    1
 -2       855       848      1008      3701      3894      3895
 -1      1914    8    0    1
 -2       855      1008       937      3895      3896      3657
 -1      1915    8    0    1
 -2       919       926      1009      3860      3897      3898
 -1      1916    8    0    1
 -2       995       919      1009      3849      3898      3899
 -1      1917    8    0    1
 -2       926       931      1009      3635      3900      3897
 -1      1918    8    0    1
 -2       956       888      1000      3733      3901      3902
 -1      1919    8    0    1
 -2       900       998      1010      3858      3903      3904
 -1      1920    8    0    1
 -2       900      1010       940      3904      3905      3666
 -1      1921    8    0    1
 -2       927      1006       982      3887      3906      3816
 -1      1922    8    0    1
 -2       957       868      1007      3737      3892      3907
 -1      1923    8    0    1
 -2       884       972       942      3782      3908      3784
 -1      1924    8    0    1
 -2       886       949       860      3787      3708      3909
 -1      1925    8    0    1
 -2       844       866       823      3788      3437      3359
 -1      1926    8    0    1
 -2       887       886       860      3500      3909      3910
 -1      1927    8    0    1
 -2       973       933      1011      3791      3911      3912
 -1      1928    8    0    1
 -2       922       973       999      3790      3913      3861
 -1      1929    8    0    1
 -2       776       863       856      3507      3914      3508
 -1      1930    8    0    1
 -2       848       939      1008      3663      3915      3894
 -1      1931    8    0    1
 -2       983       929      1012      3818      3916      3917
 -1      1932    8    0    1
 -2       929       937      1012      3656      3918      3916
 -1      1933    8    0    1
 -2       924       983      1003      3819      3919      3889
 -1      1934    8    0    1
 -2       921       942      1013      3675      3920      3921
 -1      1935    8    0    1
 -2       921      1013       946      3921      3922      3694
 -1      1936    8    0    1
 -2       851       997       948      3855      3923      3702
 -1      1937    8    0    1
 -2       888       936      1000      3705      3866      3901
 -1      1938    8    0    1
 -2       901       985      1014      3823      3924      3925
 -1      1939    8    0    1
 -2       901      1014       928      3925      3926      3625
 -1      1940    8    0    1
 -2       897       981       953      3814      3927      3726
 -1      1941    8    0    1
 -2       911       992      1015      3842      3928      3929
 -1      1942    8    0    1
 -2       911      1015       931      3929      3930      3636
 -1      1943    8    0    1
 -2       943       925      1016      3679      3931      3932
 -1      1944    8    0    1
 -2       925       982      1016      3817      3933      3931
 -1      1945    8    0    1
 -2       899       928      1017      3624      3934      3935
 -1      1946    8    0    1
 -2       928      1014      1017      3926      3936      3934
 -1      1947    8    0    1
 -2       903       996       984      3852      3937      3820
 -1      1948    8    0    1
 -2       917       944      1018      3685      3938      3939
 -1      1949    8    0    1
 -2       998       899      1017      3857      3935      3940
 -1      1950    8    0    1
 -2       944       830       953      3686      3725      3941
 -1      1951    8    0    1
 -2       947       854      1019      3697      3942      3943
 -1      1952    8    0    1
 -2       854       946      1019      3693      3944      3942
 -1      1953    8    0    1
 -2       934       917      1020      3645      3945      3946
 -1      1954    8    0    1
 -2       917      1018      1020      3939      3947      3945
 -1      1955    8    0    1
 -2      1011       933      1021      3911      3948      3949
 -1      1956    8    0    1
 -2       933       950      1021      3712      3950      3948
 -1      1957    8    0    1
 -2       954       952       999      3727      3863      3951
 -1      1958    8    0    1
 -2       932       945      1022      3689      3952      3953
 -1      1959    8    0    1
 -2       932      1022      1023      3953      3954      3955
 -1      1960    8    0    1
 -2       932      1023       939      3955      3956      3664
 -1      1961    8    0    1
 -2       992       909      1004      3841      3880      3957
 -1      1962    8    0    1
 -2       958       957      1024      3741      3958      3959
 -1      1963    8    0    1
 -2       959       958      1025      3744      3960      3961
 -1      1964    8    0    1
 -2       958      1024      1025      3959      3962      3960
 -1      1965    8    0    1
 -2       960       959      1026      3747      3963      3964
 -1      1966    8    0    1
 -2       959      1025      1026      3961      3965      3963
 -1      1967    8    0    1
 -2       961       960      1027      3750      3966      3967
 -1      1968    8    0    1
 -2       960      1026      1027      3964      3968      3966
 -1      1969    8    0    1
 -2       962       961      1028      3753      3969      3970
 -1      1970    8    0    1
 -2       961      1027      1028      3967      3971      3969
 -1      1971    8    0    1
 -2       963       962      1029      3756      3972      3973
 -1      1972    8    0    1
 -2       962      1028      1029      3970      3974      3972
 -1      1973    8    0    1
 -2       964       963      1030      3759      3975      3976
 -1      1974    8    0    1
 -2       963      1029      1030      3973      3977      3975
 -1      1975    8    0    1
 -2       965       964      1031      3762      3978      3979
 -1      1976    8    0    1
 -2       964      1030      1031      3976      3980      3978
 -1      1977    8    0    1
 -2       966       965      1032      3765      3981      3982
 -1      1978    8    0    1
 -2       965      1031      1032      3979      3983      3981
 -1      1979    8    0    1
 -2       967       966      1033      3768      3984      3985
 -1      1980    8    0    1
 -2       966      1032      1033      3982      3986      3984
 -1      1981    8    0    1
 -2       968       967      1034      3771      3987      3988
 -1      1982    8    0    1
 -2       967      1033      1034      3985      3989      3987
 -1      1983    8    0    1
 -2       969       968      1035      3774      3990      3991
 -1      1984    8    0    1
 -2       968      1034      1035      3988      3992      3990
 -1      1985    8    0    1
 -2       970       969      1036      3777      3993      3994
 -1      1986    8    0    1
 -2       969      1035      1036      3991      3995      3993
 -1      1987    8    0    1
 -2       971       970      1037      3780      3996      3997
 -1      1988    8    0    1
 -2       970      1036      1037      3994      3998      3996
 -1      1989    8    0    1
 -2       972       971      1038      3783      3999      4000
 -1      1990    8    0    1
 -2       971      1037      1038      3997      4001      3999
 -1      1991    8    0    1
 -2       973      1011      1039      3912      4002      4003
 -1      1992    8    0    1
 -2       973      1039       999      4003      4004      3913
 -1      1993    8    0    1
 -2       975       974      1040      3797      4005      4006
 -1      1994    8    0    1
 -2       976       975      1041      3800      4007      4008
 -1      1995    8    0    1
 -2       975      1040      1041      4006      4009      4007
 -1      1996    8    0    1
 -2       977       976      1042      3803      4010      4011
 -1      1997    8    0    1
 -2       976      1041      1042      4008      4012      4010
 -1      1998    8    0    1
 -2       978       977      1043      3806      4013      4014
 -1      1999    8    0    1
 -2       977      1042      1043      4011      4015      4013
 -1      2000    8    0    1
 -2       979       978      1044      3809      4016      4017
 -1      2001    8    0    1
 -2       978      1043      1044      4014      4018      4016
 -1      2002    8    0    1
 -2       980       979      1045      3812      4019      4020
 -1      2003    8    0    1
 -2       979      1044      1045      4017      4021      4019
 -1      2004    8    0    1
 -2       981       980      1046      3815      4022      4023
 -1      2005    8    0    1
 -2       980      1045      1046      4020      4024      4022
 -1      2006    8    0    1
 -2       957      1007      1047      3907      4025      4026
 -1      2007    8    0    1
 -2       957      1047      1024      4026      4027      3958
 -1      2008    8    0    1
 -2       982      1006      1048      3906      4028      4029
 -1      2009    8    0    1
 -2       987       988      1049      3832      4030      4031
 -1      2010    8    0    1
 -2       986       987      1050      3829      4032      4033
 -1      2011    8    0    1
 -2       987      1049      1050      4031      4034      4032
 -1      2012    8    0    1
 -2       993       994      1051      3848      4035      4036
 -1      2013    8    0    1
 -2      1006       995      1052      3888      4037      4038
 -1      2014    8    0    1
 -2      1006      1052      1048      4038      4039      4028
 -1      2015    8    0    1
 -2       990       993      1053      3845      4040      4041
 -1      2016    8    0    1
 -2       993      1051      1053      4036      4042      4040
 -1      2017    8    0    1
 -2       866       887       920      3647      4043      3736
 -1      2018    8    0    1
 -2       937      1008      1054      3896      4044      4045
 -1      2019    8    0    1
 -2       937      1054      1012      4045      4046      3918
 -1      2020    8    0    1
 -2       984       996      1055      3937      4047      4048
 -1      2021    8    0    1
 -2       998      1017      1056      3940      4049      4050
 -1      2022    8    0    1
 -2       997       934      1057      3856      4051      4052
 -1      2023    8    0    1
 -2       934      1020      1057      3946      4053      4051
 -1      2024    8    0    1
 -2       945       940      1058      3690      4054      4055
 -1      2025    8    0    1
 -2      1022       945      1058      3952      4055      4056
 -1      2026    8    0    1
 -2       940      1010      1058      3905      4057      4054
 -1      2027    8    0    1
 -2       948       997      1059      3923      4058      4059
 -1      2028    8    0    1
 -2      1002       948      1059      3875      4059      4060
 -1      2029    8    0    1
 -2       997      1057      1059      4052      4061      4058
 -1      2030    8    0    1
 -2       944       953       981      3941      3927      4062
 -1      2031    8    0    1
 -2       860       920       887      3698      4043      3910
 -1      2032    8    0    1
 -2      1000       943       956      3867      4063      3902
 -1      2033    8    0    1
 -2       956       943       974      4063      4064      3794
 -1      2034    8    0    1
 -2      1008       939      1060      3915      4065      4066
 -1      2035    8    0    1
 -2      1054      1008      1060      4044      4066      4067
 -1      2036    8    0    1
 -2       939      1023      1060      3956      4068      4065
 -1      2037    8    0    1
 -2       833       856       863      3404      3914      3427
 -1      2038    8    0    1
 -2       950      1003      1061      3878      4069      4070
 -1      2039    8    0    1
 -2      1021       950      1061      3950      4070      4071
 -1      2040    8    0    1
 -2      1003       983      1061      3919      4072      4069
 -1      2041    8    0    1
 -2      1004       990      1062      3881      4073      4074
 -1      2042    8    0    1
 -2       990      1053      1062      4041      4075      4073
 -1      2043    8    0    1
 -2      1007       991      1063      3893      4076      4077
 -1      2044    8    0    1
 -2      1007      1063      1047      4077      4078      4025
 -1      2045    8    0    1
 -2       954       999      1039      3951      4004      4079
 -1      2046    8    0    1
 -2       985       984      1064      3824      4080      4081
 -1      2047    8    0    1
 -2       984      1055      1064      4048      4082      4080
 -1      2048    8    0    1
 -2       942       972      1038      3908      4000      4083
 -1      2049    8    0    1
 -2       992      1004      1065      3957      4084      4085
 -1      2050    8    0    1
 -2      1004      1062      1065      4074      4086      4084
 -1      2051    8    0    1
 -2       996       986      1066      3853      4087      4088
 -1      2052    8    0    1
 -2       996      1066      1055      4088      4089      4047
 -1      2053    8    0    1
 -2      1001       947      1067      3871      4090      4091
 -1      2054    8    0    1
 -2       947      1019      1067      3943      4092      4090
 -1      2055    8    0    1
 -2       985      1064      1068      4081      4093      4094
 -1      2056    8    0    1
 -2       985      1068      1014      4094      4095      3924
 -1      2057    8    0    1
 -2       988       989      1069      3835      4096      4097
 -1      2058    8    0    1
 -2       988      1069      1049      4097      4098      4030
 -1      2059    8    0    1
 -2      1039      1011      1070      4002      4099      4100
 -1      2060    8    0    1
 -2      1040       974      1016      4005      4101      4102
 -1      2061    8    0    1
 -2      1023      1022      1071      3954      4103      4104
 -1      2062    8    0    1
 -2       991      1005      1072      3884      4105      4106
 -1      2063    8    0    1
 -2       991      1072      1063      4106      4107      4076
 -1      2064    8    0    1
 -2       981      1046      1018      4023      4108      4109
 -1      2065    8    0    1
 -2       849       949      1073      3707      4110      4111
 -1      2066    8    0    1
 -2       995      1009      1052      3899      4112      4037
 -1      2067    8    0    1
 -2       954      1039      1005      4079      4113      3885
 -1      2068    8    0    1
 -2       986      1050      1066      4033      4114      4087
 -1      2069    8    0    1
 -2       989       955      1074      3836      4115      4116
 -1      2070    8    0    1
 -2      1069       989      1074      4096      4116      4117
 -1      2071    8    0    1
 -2       955      1001      1074      3870      4118      4115
 -1      2072    8    0    1
 -2      1015       992      1075      3928      4119      4120
 -1      2073    8    0    1
 -2       992      1065      1075      4085      4121      4119
 -1      2074    8    0    1
 -2      1016       982      1076      3933      4122      4123
 -1      2075    8    0    1
 -2      1040      1016      1076      4102      4123      4124
 -1      2076    8    0    1
 -2       982      1048      1076      4029      4125      4122
 -1      2077    8    0    1
 -2      1017      1014      1077      3936      4126      4127
 -1      2078    8    0    1
 -2      1014      1068      1077      4095      4128      4126
 -1      2079    8    0    1
 -2      1056      1017      1077      4049      4127      4129
 -1      2080    8    0    1
 -2      1010       998      1078      3903      4130      4131
 -1      2081    8    0    1
 -2       998      1056      1078      4050      4132      4130
 -1      2082    8    0    1
 -2      1018       944       981      3938      4062      4109
 -1      2083    8    0    1
 -2      1020      1018      1079      3947      4133      4134
 -1      2084    8    0    1
 -2      1018      1046      1079      4108      4135      4133
 -1      2085    8    0    1
 -2      1061       983      1080      4072      4136      4137
 -1      2086    8    0    1
 -2       983      1012      1080      3917      4138      4136
 -1      2087    8    0    1
 -2      1022      1058      1081      4056      4139      4140
 -1      2088    8    0    1
 -2      1022      1081      1071      4140      4141      4103
 -1      2089    8    0    1
 -2       974       943      1016      4064      3932      4101
 -1      2090    8    0    1
 -2      1011      1021      1082      3949      4142      4143
 -1      2091    8    0    1
 -2      1011      1082      1070      4143      4144      4099
 -1      2092    8    0    1
 -2       931      1015      1009      3930      4145      3900
 -1      2093    8    0    1
 -2       994      1002      1059      3874      4060      4146
 -1      2094    8    0    1
 -2       994      1059      1051      4146      4147      4035
 -1      2095    8    0    1
 -2      1051      1059      1057      4147      4061      4148
 -1      2096    8    0    1
 -2      1009      1015      1052      4145      4149      4112
 -1      2097    8    0    1
 -2      1026      1025      1083      3965      4150      4151
 -1      2098    8    0    1
 -2      1027      1026      1084      3968      4152      4153
 -1      2099    8    0    1
 -2      1026      1083      1084      4151      4154      4152
 -1      2100    8    0    1
 -2      1028      1027      1085      3971      4155      4156
 -1      2101    8    0    1
 -2      1027      1084      1085      4153      4157      4155
 -1      2102    8    0    1
 -2      1029      1028      1086      3974      4158      4159
 -1      2103    8    0    1
 -2      1028      1085      1086      4156      4160      4158
 -1      2104    8    0    1
 -2      1030      1029      1087      3977      4161      4162
 -1      2105    8    0    1
 -2      1029      1086      1087      4159      4163      4161
 -1      2106    8    0    1
 -2      1031      1030      1088      3980      4164      4165
 -1      2107    8    0    1
 -2      1030      1087      1088      4162      4166      4164
 -1      2108    8    0    1
 -2      1032      1031      1089      3983      4167      4168
 -1      2109    8    0    1
 -2      1031      1088      1089      4165      4169      4167
 -1      2110    8    0    1
 -2      1033      1032      1090      3986      4170      4171
 -1      2111    8    0    1
 -2      1032      1089      1090      4168      4172      4170
 -1      2112    8    0    1
 -2      1034      1033      1091      3989      4173      4174
 -1      2113    8    0    1
 -2      1033      1090      1091      4171      4175      4173
 -1      2114    8    0    1
 -2      1035      1034      1092      3992      4176      4177
 -1      2115    8    0    1
 -2      1034      1091      1092      4174      4178      4176
 -1      2116    8    0    1
 -2      1036      1035      1093      3995      4179      4180
 -1      2117    8    0    1
 -2      1035      1092      1093      4177      4181      4179
 -1      2118    8    0    1
 -2      1037      1036      1094      3998      4182      4183
 -1      2119    8    0    1
 -2      1036      1093      1094      4180      4184      4182
 -1      2120    8    0    1
 -2      1038      1037      1095      4001      4185      4186
 -1      2121    8    0    1
 -2      1037      1094      1095      4183      4187      4185
 -1      2122    8    0    1
 -2      1023      1071      1096      4104      4188      4189
 -1      2123    8    0    1
 -2      1023      1096      1060      4189      4190      4068
 -1      2124    8    0    1
 -2       849      1073       942      4111      4191      3673
 -1      2125    8    0    1
 -2      1024      1047      1097      4027      4192      4193
 -1      2126    8    0    1
 -2      1042      1041      1098      4012      4194      4195
 -1      2127    8    0    1
 -2      1043      1042      1099      4015      4196      4197
 -1      2128    8    0    1
 -2      1042      1098      1099      4195      4198      4196
 -1      2129    8    0    1
 -2      1044      1043      1100      4018      4199      4200
 -1      2130    8    0    1
 -2      1043      1099      1100      4197      4201      4199
 -1      2131    8    0    1
 -2      1045      1044      1101      4021      4202      4203
 -1      2132    8    0    1
 -2      1044      1100      1101      4200      4204      4202
 -1      2133    8    0    1
 -2      1046      1045      1102      4024      4205      4206
 -1      2134    8    0    1
 -2      1079      1046      1102      4135      4206      4207
 -1      2135    8    0    1
 -2      1045      1101      1102      4203      4208      4205
 -1      2136    8    0    1
 -2      1047      1063      1103      4078      4209      4210
 -1      2137    8    0    1
 -2      1047      1103      1097      4210      4211      4192
 -1      2138    8    0    1
 -2      1005      1039      1072      4113      4212      4105
 -1      2139    8    0    1
 -2      1050      1049      1104      4034      4213      4214
 -1      2140    8    0    1
 -2      1051      1057      1105      4148      4215      4216
 -1      2141    8    0    1
 -2      1048      1052      1106      4039      4217      4218
 -1      2142    8    0    1
 -2      1053      1051      1105      4042      4216      4219
 -1      2143    8    0    1
 -2      1039      1070      1072      4100      4220      4212
 -1      2144    8    0    1
 -2      1058      1010      1107      4057      4221      4222
 -1      2145    8    0    1
 -2      1010      1078      1107      4131      4223      4221
 -1      2146    8    0    1
 -2      1041      1040      1076      4009      4124      4224
 -1      2147    8    0    1
 -2      1019       946      1108      3944      4225      4226
 -1      2148    8    0    1
 -2      1062      1053      1109      4075      4227      4228
 -1      2149    8    0    1
 -2      1057      1020      1105      4053      4229      4215
 -1      2150    8    0    1
 -2      1108       946      1013      4225      3922      4230
 -1      2151    8    0    1
 -2      1012      1054      1110      4046      4231      4232
 -1      2152    8    0    1
 -2      1012      1110      1080      4232      4233      4138
 -1      2153    8    0    1
 -2      1056      1077      1111      4129      4234      4235
 -1      2154    8    0    1
 -2      1025      1024      1112      3962      4236      4237
 -1      2155    8    0    1
 -2      1024      1097      1112      4193      4238      4236
 -1      2156    8    0    1
 -2      1055      1066      1113      4089      4239      4240
 -1      2157    8    0    1
 -2      1021      1061      1114      4071      4241      4242
 -1      2158    8    0    1
 -2      1082      1021      1114      4142      4242      4243
 -1      2159    8    0    1
 -2      1061      1080      1114      4137      4244      4241
 -1      2160    8    0    1
 -2      1066      1050      1115      4114      4245      4246
 -1      2161    8    0    1
 -2      1050      1104      1115      4214      4247      4245
 -1      2162    8    0    1
 -2      1064      1055      1116      4082      4248      4249
 -1      2163    8    0    1
 -2      1055      1113      1116      4240      4250      4248
 -1      2164    8    0    1
 -2      1065      1062      1117      4086      4251      4252
 -1      2165    8    0    1
 -2      1062      1109      1117      4228      4253      4251
 -1      2166    8    0    1
 -2      1068      1064      1118      4093      4254      4255
 -1      2167    8    0    1
 -2      1064      1116      1118      4249      4256      4254
 -1      2168    8    0    1
 -2      1075      1065      1119      4121      4257      4258
 -1      2169    8    0    1
 -2      1065      1117      1119      4252      4259      4257
 -1      2170    8    0    1
 -2      1083      1025      1112      4150      4237      4260
 -1      2171    8    0    1
 -2      1096      1071      1120      4188      4261      4262
 -1      2172    8    0    1
 -2      1077      1068      1121      4128      4263      4264
 -1      2173    8    0    1
 -2      1068      1118      1121      4255      4265      4263
 -1      2174    8    0    1
 -2      1098      1041      1076      4194      4224      4266
 -1      2175    8    0    1
 -2      1063      1072      1122      4107      4267      4268
 -1      2176    8    0    1
 -2      1103      1063      1122      4209      4268      4269
 -1      2177    8    0    1
 -2      1072      1070      1122      4220      4270      4267
 -1      2178    8    0    1
 -2      1066      1115      1113      4246      4271      4239
 -1      2179    8    0    1
 -2      1058      1107      1081      4222      4272      4139
 -1      2180    8    0    1
 -2      1054      1060      1123      4067      4273      4274
 -1      2181    8    0    1
 -2      1110      1054      1123      4231      4274      4275
 -1      2182    8    0    1
 -2      1060      1096      1123      4190      4276      4273
 -1      2183    8    0    1
 -2      1106      1052      1075      4217      4277      4278
 -1      2184    8    0    1
 -2      1104      1049      1124      4213      4279      4280
 -1      2185    8    0    1
 -2      1049      1069      1124      4098      4281      4279
 -1      2186    8    0    1
 -2      1074      1001      1067      4118      4091      4282
 -1      2187    8    0    1
 -2      1053      1105      1109      4219      4283      4227
 -1      2188    8    0    1
 -2      1076      1048      1098      4125      4284      4266
 -1      2189    8    0    1
 -2      1078      1056      1125      4132      4285      4286
 -1      2190    8    0    1
 -2      1056      1111      1125      4235      4287      4285
 -1      2191    8    0    1
 -2      1105      1020      1079      4229      4134      4288
 -1      2192    8    0    1
 -2      1052      1015      1075      4149      4120      4277
 -1      2193    8    0    1
 -2      1111      1077      1121      4234      4264      4289
 -1      2194    8    0    1
 -2      1071      1081      1126      4141      4290      4291
 -1      2195    8    0    1
 -2      1071      1126      1120      4291      4292      4261
 -1      2196    8    0    1
 -2      1070      1082      1127      4144      4293      4294
 -1      2197    8    0    1
 -2      1070      1127      1122      4294      4295      4270
 -1      2198    8    0    1
 -2       949       885      1073      3786      4296      4110
 -1      2199    8    0    1
 -2      1067      1019      1128      4092      4297      4298
 -1      2200    8    0    1
 -2      1084      1083      1129      4154      4299      4300
 -1      2201    8    0    1
 -2      1106      1075      1119      4278      4258      4301
 -1      2202    8    0    1
 -2      1085      1084      1130      4157      4302      4303
 -1      2203    8    0    1
 -2      1084      1129      1130      4300      4304      4302
 -1      2204    8    0    1
 -2      1086      1085      1125      4160      4305      4306
 -1      2205    8    0    1
 -2      1087      1086      1111      4163      4307      4308
 -1      2206    8    0    1
 -2      1088      1087      1121      4166      4309      4310
 -1      2207    8    0    1
 -2      1089      1088      1118      4169      4311      4312
 -1      2208    8    0    1
 -2      1090      1089      1116      4172      4313      4314
 -1      2209    8    0    1
 -2      1091      1090      1113      4175      4315      4316
 -1      2210    8    0    1
 -2      1092      1091      1115      4178      4317      4318
 -1      2211    8    0    1
 -2      1093      1092      1104      4181      4319      4320
 -1      2212    8    0    1
 -2      1094      1093      1124      4184      4321      4322
 -1      2213    8    0    1
 -2      1095      1094      1128      4187      4323      4324
 -1      2214    8    0    1
 -2      1128      1094      1124      4323      4322      4325
 -1      2215    8    0    1
 -2      1038      1095      1108      4186      4326      4327
 -1      2216    8    0    1
 -2       942      1038      1108      4083      4327      4328
 -1      2217    8    0    1
 -2      1097      1103      1131      4211      4329      4330
 -1      2218    8    0    1
 -2      1100      1099      1117      4201      4331      4332
 -1      2219    8    0    1
 -2      1101      1100      1109      4204      4333      4334
 -1      2220    8    0    1
 -2      1113      1115      1091      4271      4317      4316
 -1      2221    8    0    1
 -2      1104      1092      1115      4319      4318      4247
 -1      2222    8    0    1
 -2      1048      1106      1098      4218      4335      4284
 -1      2223    8    0    1
 -2      1113      1090      1116      4315      4314      4250
 -1      2224    8    0    1
 -2      1109      1105      1101      4283      4336      4334
 -1      2225    8    0    1
 -2      1107      1078      1130      4223      4337      4338
 -1      2226    8    0    1
 -2      1111      1121      1087      4289      4309      4308
 -1      2227    8    0    1
 -2      1116      1089      1118      4313      4312      4256
 -1      2228    8    0    1
 -2      1112      1097      1120      4238      4339      4340
 -1      2229    8    0    1
 -2      1096      1120      1131      4262      4341      4342
 -1      2230    8    0    1
 -2      1067      1128      1124      4298      4325      4343
 -1      2231    8    0    1
 -2      1081      1107      1129      4272      4344      4345
 -1      2232    8    0    1
 -2      1103      1122      1132      4269      4346      4347
 -1      2233    8    0    1
 -2      1131      1103      1132      4329      4347      4348
 -1      2234    8    0    1
 -2      1122      1127      1132      4295      4349      4346
 -1      2235    8    0    1
 -2      1019      1108      1128      4226      4350      4297
 -1      2236    8    0    1
 -2      1117      1109      1100      4253      4333      4332
 -1      2237    8    0    1
 -2      1080      1110      1127      4233      4351      4352
 -1      2238    8    0    1
 -2      1112      1120      1126      4340      4292      4353
 -1      2239    8    0    1
 -2      1098      1106      1119      4335      4301      4354
 -1      2240    8    0    1
 -2      1083      1112      1126      4260      4353      4355
 -1      2241    8    0    1
 -2      1111      1086      1125      4307      4306      4287
 -1      2242    8    0    1
 -2      1099      1098      1119      4198      4354      4356
 -1      2243    8    0    1
 -2      1088      1121      1118      4310      4265      4311
 -1      2244    8    0    1
 -2      1120      1097      1131      4339      4330      4341
 -1      2245    8    0    1
 -2      1093      1104      1124      4320      4280      4321
 -1      2246    8    0    1
 -2      1083      1126      1129      4355      4357      4299
 -1      2247    8    0    1
 -2      1125      1085      1130      4305      4303      4358
 -1      2248    8    0    1
 -2      1081      1129      1126      4345      4357      4290
 -1      2249    8    0    1
 -2      1073       885       942      4296      3785      4191
 -1      2250    8    0    1
 -2      1107      1130      1129      4338      4304      4344
 -1      2251    8    0    1
 -2      1130      1078      1125      4337      4286      4358
 -1      2252    8    0    1
 -2      1117      1099      1119      4331      4356      4259
 -1      2253    8    0    1
 -2      1105      1079      1102      4288      4207      4359
 -1      2254    8    0    1
 -2      1110      1123      1132      4275      4360      4361
 -1      2255    8    0    1
 -2      1074      1067      1124      4282      4343      4362
 -1      2256    8    0    1
 -2      1128      1108      1095      4350      4326      4324
 -1      2257    8    0    1
 -2      1127      1110      1132      4351      4361      4349
 -1      2258    8    0    1
 -2      1123      1096      1131      4276      4342      4363
 -1      2259    8    0    1
 -2      1127      1082      1114      4293      4243      4364
 -1      2260    8    0    1
 -2      1069      1074      1124      4117      4362      4281
 -1      2261    8    0    1
 -2      1101      1105      1102      4336      4359      4208
 -1      2262    8    0    1
 -2      1123      1131      1132      4363      4348      4360
 -1      2263    8    0    1
 -2      1080      1127      1114      4352      4364      4244
 -1      2264    8    0    1
 -2       942      1108      1013      4328      4230      3920
 -3
    1PSTEP                         1           1           1          
  100CL  101 1.000000000        4364                     0    1           1
 -4  DISP        4    1
 -5  D1          1    2    1    0
 -5  D2          1    2    2    0
 -5  D3          1    2    3    0
 -5  ALL         1    2    0    0    1ALL
 -1         1 1.12026E-02 2.00796E-04-2.08373E-14
 -1         2 1.15718E-02 6.18673E-04-2.08514E-14
 -1         3 1.59999E-02 2.51794E-03-4.84619E-14
 -1         4 1.44177E-02 1.15164E-03-5.61871E-14
 -1         5 0.00000E+00 0.00000E+00 0.00000E+00
 -1         6 0.00000E+00 0.00000E+00 0.00000E+00
 -1         7 0.00000E+00 0.00000E+00 0.00000E+00
 -1         8 0.00000E+00 0.00000E+00 0.00000E+00
 -1         9 0.00000E+00 0.00000E+00 0.00000E+00
 -1        10 0.00000E+00 0.00000E+00 0.00000E+00
 -1        11 0.00000E+00 0.00000E+00 0.00000E+00
 -1        12 0.00000E+00 0.00000E+00 0.00000E+00
 -1        13 0.00000E+00 0.00000E+00 0.00000E+00
 -1        14 0.00000E+00 0.00000E+00 0.00000E+00
 -1        15 0.00000E+00 0.00000E+00 0.00000E+00
 -1        16 0.00000E+00 0.00000E+00 0.00000E+00
 -1        17 0.00000E+00 0.00000E+00 0.00000E+00
 -1        18 0.00000E+00 0.00000E+00 0.00000E+00
 -1        19 0.00000E+00 0.00000E+00 0.00000E+00
 -1        20 0.00000E+00 0.00000E+00 0.00000E+00
 -1        21 0.00000E+00 0.00000E+00 0.00000E+00
 -1        22 0.00000E+00 0.00000E+00 0.00000E+00
 -1        23 4.11088E-04-2.60618E-04-5.43456E-18
 -1        24 7.02794E-04-4.00736E-04-6.82099E-17
 -1        25 9.72563E-04-4.97893E-04-1.84433E-16
 -1        26 1.23674E-03-5.66296E-04-3.50462E-16
 -1        27 1.49995E-03-6.15061E-04-5.64215E-16
 -1        28 1.76430E-03-6.49539E-04-8.25803E-16
 -1        29 2.03076E-03-6.73396E-04-1.13484E-15
 -1        30 2.29975E-03-6.89283E-04-1.49216E-15
 -1        31 2.57138E-03-6.99167E-04-1.89791E-15
 -1        32 2.84560E-03-7.04528E-04-2.34929E-15
 -1        33 3.12230E-03-7.06476E-04-2.84455E-15
 -1        34 3.40139E-03-7.05850E-04-3.38252E-15
 -1        35 3.68280E-03-7.03295E-04-3.96432E-15
 -1        36 3.96655E-03-6.99332E-04-4.58587E-15
 -1        37 4.25277E-03-6.94428E-04-5.24913E-15
 -1        38 4.54166E-03-6.89062E-04-5.95670E-15
 -1        39 4.83352E-03-6.83794E-04-6.70238E-15
 -1        40 5.12871E-03-6.79331E-04-7.48826E-15
 -1        41 5.42755E-03-6.76584E-04-8.31323E-15
 -1        42 5.73026E-03-6.76696E-04-9.17659E-15
 -1        43 6.03675E-03-6.81025E-04-1.00770E-14
 -1        44 6.34646E-03-6.91028E-04-1.10133E-14
 -1        45 6.65809E-03-7.08008E-04-1.19859E-14
 -1        46 6.96941E-03-7.32676E-04-1.30092E-14
 -1        47 7.27725E-03-7.64526E-04-1.40809E-14
 -1        48 7.57774E-03-8.01120E-04-1.52044E-14
 -1        49 7.86705E-03-8.37534E-04-1.63739E-14
 -1        50 8.14253E-03-8.66369E-04-1.75873E-14
 -1        51 8.40400E-03-8.78719E-04-1.88583E-14
 -1        52 8.65459E-03-8.66154E-04-2.01839E-14
 -1        53 8.90037E-03-8.23173E-04-2.15534E-14
 -1        54 9.14885E-03-7.49035E-04-2.29657E-14
 -1        55 9.40671E-03-6.48014E-04-2.44256E-14
 -1        56 9.67799E-03-5.27943E-04-2.59341E-14
 -1        57 9.96341E-03-3.97815E-04-2.75078E-14
 -1        58 1.02609E-02-2.65593E-04-2.91249E-14
 -1        59 1.05668E-02-1.36925E-04-3.07839E-14
 -1        60 1.08773E-02-1.48938E-05-3.24818E-14
 -1        61 1.11887E-02 9.95465E-05-3.42178E-14
 -1        62 1.14987E-02 2.06870E-04-3.60093E-14
 -1        63 1.18058E-02 3.08314E-04-3.78679E-14
 -1        64 1.21091E-02 4.05385E-04-3.97835E-14
 -1        65 1.24086E-02 4.99554E-04-4.17424E-14
 -1        66 1.27044E-02 5.92111E-04-4.37479E-14
 -1        67 1.29969E-02 6.84115E-04-4.58006E-14
 -1        68 1.32868E-02 7.76396E-04-4.78749E-14
 -1        69 1.35745E-02 8.69571E-04-4.99613E-14
 -1        70 1.38608E-02 9.64038E-04-5.20496E-14
 -1        71 1.41465E-02 1.05985E-03-5.41607E-14
 -1        72 4.13531E-04 2.61325E-04 4.27548E-17
 -1        73 7.02608E-04 4.03444E-04 6.48929E-17
 -1        74 9.73085E-04 4.99670E-04 6.17419E-17
 -1        75 1.23754E-03 5.68014E-04 2.92362E-17
 -1        76 1.50086E-03 6.16826E-04-3.58566E-17
 -1        77 1.76525E-03 6.51385E-04-1.35891E-16
 -1        78 2.03172E-03 6.75333E-04-2.74039E-16
 -1        79 2.30068E-03 6.91302E-04-4.49531E-16
 -1        80 2.57225E-03 7.01240E-04-6.64077E-16
 -1        81 2.84639E-03 7.06598E-04-9.23957E-16
 -1        82 3.12298E-03 7.08451E-04-1.23135E-15
 -1        83 3.40193E-03 7.07582E-04-1.57990E-15
 -1        84 3.68323E-03 7.04554E-04-1.96790E-15
 -1        85 3.96696E-03 6.99776E-04-2.39540E-15
 -1        86 4.25338E-03 6.93563E-04-2.86423E-15
 -1        87 4.54294E-03 6.86202E-04-3.37694E-15
 -1        88 4.83640E-03 6.78039E-04-3.93292E-15
 -1        89 5.13485E-03 6.69585E-04-4.52303E-15
 -1        90 5.43987E-03 6.61676E-04-5.15387E-15
 -1        91 5.75355E-03 6.55714E-04-5.82062E-15
 -1        92 6.07865E-03 6.54017E-04-6.53096E-15
 -1        93 6.41857E-03 6.60335E-04-7.27756E-15
 -1        94 6.77706E-03 6.80531E-04-8.07568E-15
 -1        95 7.15742E-03 7.23291E-04-8.90910E-15
 -1        96 7.56052E-03 8.00315E-04-9.78221E-15
 -1        97 7.98148E-03 9.24675E-04-1.06916E-14
 -1        98 8.40541E-03 1.10492E-03-1.16420E-14
 -1        99 8.80611E-03 1.33318E-03-1.26436E-14
 -1       100 9.15477E-03 1.57173E-03-1.36896E-14
 -1       101 9.44152E-03 1.75460E-03-1.47892E-14
 -1       102 9.69425E-03 1.82125E-03-1.59465E-14
 -1       103 9.96619E-03 1.76232E-03-1.71895E-14
 -1       104 1.02962E-02 1.62756E-03-1.84998E-14
 -1       105 1.06844E-02 1.48596E-03-1.98652E-14
 -1       106 1.11047E-02 1.38482E-03-2.12959E-14
 -1       107 1.15285E-02 1.33961E-03-2.27980E-14
 -1       108 1.19374E-02 1.34508E-03-2.43670E-14
 -1       109 1.23241E-02 1.38858E-03-2.60170E-14
 -1       110 1.26882E-02 1.45763E-03-2.77417E-14
 -1       111 1.30326E-02 1.54259E-03-2.95158E-14
 -1       112 1.33611E-02 1.63680E-03-3.13192E-14
 -1       113 1.36772E-02 1.73591E-03-3.31472E-14
 -1       114 1.39840E-02 1.83718E-03-3.50125E-14
 -1       115 1.42837E-02 1.93890E-03-3.69105E-14
 -1       116 1.45782E-02 2.04003E-03-3.88158E-14
 -1       117 1.48689E-02 2.13990E-03-4.07427E-14
 -1       118 1.51569E-02 2.23809E-03-4.26844E-14
 -1       119 1.54431E-02 2.33442E-03-4.46406E-14
 -1       120 1.57287E-02 2.42900E-03-4.66028E-14
 -1       121 1.59080E-02 2.43349E-03-4.89232E-14
 -1       122 1.58170E-02 2.34906E-03-4.94082E-14
 -1       123 1.57276E-02 2.26542E-03-4.98523E-14
 -1       124 1.56393E-02 2.18331E-03-5.02910E-14
 -1       125 1.55514E-02 2.10309E-03-5.07446E-14
 -1       126 1.54645E-02 2.02603E-03-5.12096E-14
 -1       127 1.53749E-02 1.94912E-03-5.16850E-14
 -1       128 1.52835E-02 1.87310E-03-5.21473E-14
 -1       129 1.51900E-02 1.79727E-03-5.26203E-14
 -1       130 1.50945E-02 1.72092E-03-5.30844E-14
 -1       131 1.49974E-02 1.64346E-03-5.35491E-14
 -1       132 1.49009E-02 1.56580E-03-5.40232E-14
 -1       133 1.48024E-02 1.48508E-03-5.44904E-14
 -1       134 1.47043E-02 1.40270E-03-5.49317E-14
 -1       135 1.46072E-02 1.31899E-03-5.53544E-14
 -1       136 1.45113E-02 1.23464E-03-5.57758E-14
 -1       137 1.15647E-02 7.83378E-04-2.06263E-14
 -1       138 1.14577E-02 9.57783E-04-2.02397E-14
 -1       139 1.12631E-02 1.11441E-03-1.97664E-14
 -1       140 1.09810E-02 1.25527E-03-1.92148E-14
 -1       141 1.05937E-02 1.37917E-03-1.85613E-14
 -1       142 1.01689E-02 1.45793E-03-1.79301E-14
 -1       143 9.67662E-03 1.49202E-03-1.72729E-14
 -1       144 9.13559E-03 1.46486E-03-1.66182E-14
 -1       145 8.62026E-03 1.37764E-03-1.60504E-14
 -1       146 8.15841E-03 1.24637E-03-1.55921E-14
 -1       147 7.69257E-03 1.04906E-03-1.51880E-14
 -1       148 7.41363E-03 8.82488E-04-1.49936E-14
 -1       149 7.19423E-03 6.91949E-04-1.48985E-14
 -1       150 7.07424E-03 5.00487E-04-1.49356E-14
 -1       151 7.06002E-03 3.14335E-04-1.51050E-14
 -1       152 7.15039E-03 1.44123E-04-1.53885E-14
 -1       153 7.33628E-03-6.74076E-06-1.57712E-14
 -1       154 7.61917E-03-1.36991E-04-1.62639E-14
 -1       155 7.95786E-03-2.32231E-04-1.68029E-14
 -1       156 8.36133E-03-2.95996E-04-1.74063E-14
 -1       157 8.81706E-03-3.24900E-04-1.80655E-14
 -1       158 9.28619E-03-3.13493E-04-1.87056E-14
 -1       159 9.75290E-03-2.64523E-04-1.93122E-14
 -1       160 1.01808E-02-1.84871E-04-1.98351E-14
 -1       161 1.05968E-02-7.05701E-05-2.02963E-14
 -1       162 1.09508E-02 6.69108E-05-2.06378E-14
 -1       163 1.13830E-02 3.34869E-04-2.09367E-14
 -1       164 1.15072E-02 4.73572E-04-2.09445E-14
 -1       165 2.40281E-04-1.25499E-04-1.92988E-17
 -1       166 2.25209E-04-9.46193E-05-2.30359E-17
 -1       167 2.19523E-04-7.27903E-05-2.40557E-17
 -1       168 2.16754E-04-5.51118E-05-2.40490E-17
 -1       169 2.15293E-04-3.99704E-05-2.29173E-17
 -1       170 2.14482E-04-2.59172E-05-2.13520E-17
 -1       171 2.14078E-04-1.26460E-05-1.95868E-17
 -1       172 2.13961E-04 2.69982E-07-1.77979E-17
 -1       173 2.14098E-04 1.31989E-05-1.61207E-17
 -1       174 2.14526E-04 2.65113E-05-1.38507E-17
 -1       175 2.15346E-04 4.03950E-05-1.09809E-17
 -1       176 2.16861E-04 5.59205E-05-7.16929E-18
 -1       177 2.19670E-04 7.38263E-05-2.37847E-18
 -1       178 2.25385E-04 9.60238E-05 4.46556E-18
 -1       179 2.39209E-04 1.27582E-04 1.39659E-17
 -1       180 2.97505E-04 1.85446E-04 2.55160E-17
 -1       181 4.68316E-04-2.63443E-04-5.03883E-17
 -1       182 7.66246E-04-3.81867E-04-1.44236E-16
 -1       183 1.04988E-03-4.64469E-04-2.86816E-16
 -1       184 1.32707E-03-5.22829E-04-4.76381E-16
 -1       185 1.60148E-03-5.63933E-04-7.11850E-16
 -1       186 1.87522E-03-5.92428E-04-9.93173E-16
 -1       187 2.14946E-03-6.11567E-04-1.32113E-15
 -1       188 2.42483E-03-6.23720E-04-1.69593E-15
 -1       189 2.70166E-03-6.30643E-04-2.11633E-15
 -1       190 2.98012E-03-6.33638E-04-2.58071E-15
 -1       191 3.26027E-03-6.33678E-04-3.08846E-15
 -1       192 3.54218E-03-6.31488E-04-3.63907E-15
 -1       193 3.82590E-03-6.27628E-04-4.23310E-15
 -1       194 4.11154E-03-6.22565E-04-4.86628E-15
 -1       195 4.39926E-03-6.16743E-04-5.54165E-15
 -1       196 4.68926E-03-6.10654E-04-6.25880E-15
 -1       197 4.98178E-03-6.04912E-04-7.01556E-15
 -1       198 5.27707E-03-6.00325E-04-7.81075E-15
 -1       199 5.57531E-03-5.97945E-04-8.64466E-15
 -1       200 5.87655E-03-5.99089E-04-9.51571E-15
 -1       201 6.18055E-03-6.05290E-04-1.04258E-14
 -1       202 6.48670E-03-6.18126E-04-1.13715E-14
 -1       203 6.79385E-03-6.38872E-04-1.23610E-14
 -1       204 7.10026E-03-6.67938E-04-1.33979E-14
 -1       205 7.40367E-03-7.04109E-04-1.44849E-14
 -1       206 7.70157E-03-7.43773E-04-1.56197E-14
 -1       207 7.99180E-03-7.80482E-04-1.67990E-14
 -1       208 8.27334E-03-8.05351E-04-1.80314E-14
 -1       209 8.54699E-03-8.08651E-04-1.93182E-14
 -1       210 8.81562E-03-7.82400E-04-2.06583E-14
 -1       211 9.08357E-03-7.22984E-04-2.20399E-14
 -1       212 9.35538E-03-6.32453E-04-2.34693E-14
 -1       213 9.63444E-03-5.17773E-04-2.49477E-14
 -1       214 9.92215E-03-3.88451E-04-2.64833E-14
 -1       215 1.02179E-02-2.53816E-04-2.80728E-14
 -1       216 1.05199E-02-1.21085E-04-2.97075E-14
 -1       217 1.08255E-02 5.36048E-06-3.13835E-14
 -1       218 1.11324E-02 1.23723E-04-3.30974E-14
 -1       219 1.14388E-02 2.34067E-04-3.48584E-14
 -1       220 1.17432E-02 3.37536E-04-3.66769E-14
 -1       221 1.20450E-02 4.35720E-04-3.85501E-14
 -1       222 1.23438E-02 5.30260E-04-4.04700E-14
 -1       223 1.26398E-02 6.22626E-04-4.24367E-14
 -1       224 1.29331E-02 7.14037E-04-4.44484E-14
 -1       225 1.32240E-02 8.05458E-04-4.64964E-14
 -1       226 1.35130E-02 8.97623E-04-4.85678E-14
 -1       227 1.38006E-02 9.91054E-04-5.06488E-14
 -1       228 1.40870E-02 1.08601E-03-5.27432E-14
 -1       229 6.04135E-04 3.30866E-04 3.62056E-17
 -1       230 8.92997E-04 4.32273E-04 2.32731E-17
 -1       231 1.17165E-03 5.03690E-04-1.78419E-17
 -1       232 1.44577E-03 5.54296E-04-9.11035E-17
 -1       233 1.71837E-03 5.89871E-04-1.99442E-16
 -1       234 1.99110E-03 6.14348E-04-3.45237E-16
 -1       235 2.26484E-03 6.30538E-04-5.29907E-16
 -1       236 2.54005E-03 6.40505E-04-7.53764E-16
 -1       237 2.81695E-03 6.45771E-04-1.01977E-15
 -1       238 3.09563E-03 6.47452E-04-1.33027E-15
 -1       239 3.37616E-03 6.46350E-04-1.68323E-15
 -1       240 3.65862E-03 6.43034E-04-2.07647E-15
 -1       241 3.94315E-03 6.37899E-04-2.51042E-15
 -1       242 4.22999E-03 6.31232E-04-2.98552E-15
 -1       243 4.51957E-03 6.23274E-04-3.50264E-15
 -1       244 4.81248E-03 6.14305E-04-4.06155E-15
 -1       245 5.10958E-03 6.04740E-04-4.65775E-15
 -1       246 5.41204E-03 5.95288E-04-5.29053E-15
 -1       247 5.72136E-03 5.87176E-04-5.96218E-15
 -1       248 6.03946E-03 5.82500E-04-6.67940E-15
 -1       249 6.36858E-03 5.84746E-04-7.43663E-15
 -1       250 6.71111E-03 5.99510E-04-8.23848E-15
 -1       251 7.06913E-03 6.35337E-04-9.07581E-15
 -1       252 7.44345E-03 7.04219E-04-9.95149E-15
 -1       253 7.83206E-03 8.20502E-04-1.08670E-14
 -1       254 8.22820E-03 9.95676E-04-1.18223E-14
 -1       255 8.61928E-03 1.22629E-03-1.28239E-14
 -1       256 8.98987E-03 1.47758E-03-1.38739E-14
 -1       257 9.33161E-03 1.67960E-03-1.49757E-14
 -1       258 9.65493E-03 1.76065E-03-1.61409E-14
 -1       259 9.98540E-03 1.70329E-03-1.73836E-14
 -1       260 1.03425E-02 1.56028E-03-1.86955E-14
 -1       261 1.07257E-02 1.40866E-03-2.00689E-14
 -1       262 1.11212E-02 1.30069E-03-2.15056E-14
 -1       263 1.15144E-02 1.25262E-03-2.30094E-14
 -1       264 1.18957E-02 1.25813E-03-2.45778E-14
 -1       265 1.22612E-02 1.30322E-03-2.62164E-14
 -1       266 1.26105E-02 1.37448E-03-2.79236E-14
 -1       267 1.29453E-02 1.46172E-03-2.96872E-14
 -1       268 1.32680E-02 1.55802E-03-3.14877E-14
 -1       269 1.35809E-02 1.65893E-03-3.33179E-14
 -1       270 1.38861E-02 1.76169E-03-3.51843E-14
 -1       271 1.41853E-02 1.86464E-03-3.70767E-14
 -1       272 1.44801E-02 1.96677E-03-3.89861E-14
 -1       273 1.47715E-02 2.06744E-03-4.09042E-14
 -1       274 1.50605E-02 2.16627E-03-4.28417E-14
 -1       275 1.53477E-02 2.26306E-03-4.47969E-14
 -1       276 1.56339E-02 2.35788E-03-4.67589E-14
 -1       277 1.56149E-02 2.31067E-03-4.74539E-14
 -1       278 1.55249E-02 2.22727E-03-4.79104E-14
 -1       279 1.54365E-02 2.14498E-03-4.83617E-14
 -1       280 1.53490E-02 2.06405E-03-4.88197E-14
 -1       281 1.52629E-02 1.98587E-03-4.92679E-14
 -1       282 1.51743E-02 1.90756E-03-4.97283E-14
 -1       283 1.50841E-02 1.83010E-03-5.01878E-14
 -1       284 1.49917E-02 1.75301E-03-5.06450E-14
 -1       285 1.48970E-02 1.67578E-03-5.10942E-14
 -1       286 1.48004E-02 1.59791E-03-5.15425E-14
 -1       287 1.47040E-02 1.52039E-03-5.19875E-14
 -1       288 1.46052E-02 1.44030E-03-5.24397E-14
 -1       289 1.45064E-02 1.35890E-03-5.28795E-14
 -1       290 1.44084E-02 1.27631E-03-5.33054E-14
 -1       291 1.42473E-02 1.18131E-03-5.30259E-14
 -1       292 1.16050E-02 6.88991E-04-2.13307E-14
 -1       293 1.15194E-02 7.82066E-04-2.10370E-14
 -1       294 1.13089E-02 9.14615E-04-2.04433E-14
 -1       295 1.10105E-02 1.06831E-03-1.98237E-14
 -1       296 1.06272E-02 1.24422E-03-1.91290E-14
 -1       297 1.02361E-02 1.42186E-03-1.83388E-14
 -1       298 9.83940E-03 1.54584E-03-1.75638E-14
 -1       299 9.43014E-03 1.57040E-03-1.67898E-14
 -1       300 9.00475E-03 1.47632E-03-1.60766E-14
 -1       301 8.56680E-03 1.28984E-03-1.55061E-14
 -1       302 8.13117E-03 1.01876E-03-1.48864E-14
 -1       303 7.67200E-03 8.11633E-04-1.46824E-14
 -1       304 7.35078E-03 6.38987E-04-1.45220E-14
 -1       305 7.11944E-03 4.99421E-04-1.44918E-14
 -1       306 7.02627E-03 3.90851E-04-1.46080E-14
 -1       307 7.08278E-03 2.94004E-04-1.48389E-14
 -1       308 7.27374E-03 1.80661E-04-1.52448E-14
 -1       309 7.57765E-03 5.33406E-05-1.57089E-14
 -1       310 7.92882E-03-1.04238E-04-1.63251E-14
 -1       311 8.29406E-03-2.49537E-04-1.69970E-14
 -1       312 8.69201E-03-3.64195E-04-1.77300E-14
 -1       313 9.06225E-03-4.00545E-04-1.85005E-14
 -1       314 9.44118E-03-3.55203E-04-1.92303E-14
 -1       315 9.81435E-03-2.41567E-04-1.99259E-14
 -1       316 1.02173E-02-7.45571E-05-2.04972E-14
 -1       317 1.06137E-02 1.21366E-04-2.10229E-14
 -1       318 1.09712E-02 2.84692E-04-2.13273E-14
 -1       319 1.12480E-02 4.00113E-04-2.14267E-14
 -1       320 1.14432E-02 5.18763E-04-2.15785E-14
 -1       321 1.15560E-02 5.89133E-04-2.14784E-14
 -1       322 4.55235E-04-1.64679E-04-8.12203E-17
 -1       323 4.74073E-04-2.12894E-04-7.69241E-17
 -1       324 4.40564E-04-9.39670E-05-8.01564E-17
 -1       325 4.37657E-04-6.48741E-05-7.65616E-17
 -1       326 4.36072E-04-3.78833E-05-7.21333E-17
 -1       327 4.35380E-04-1.20135E-05-6.69901E-17
 -1       328 4.35413E-04 1.35210E-05-6.16674E-17
 -1       329 4.36174E-04 3.94505E-05-5.56670E-17
 -1       330 4.37806E-04 6.60962E-05-4.82470E-17
 -1       331 4.40806E-04 9.53654E-05-3.92380E-17
 -1       332 4.46112E-04 1.28274E-04-2.80232E-17
 -1       333 4.55839E-04 1.67246E-04-1.36338E-17
 -1       334 4.75699E-04 2.16967E-04 4.75694E-18
 -1       335 5.31714E-04 2.69854E-04 1.81197E-17
 -1       336 8.24022E-04 3.73191E-04-1.78555E-18
 -1       337 8.62884E-04-3.57045E-04-2.24511E-16
 -1       338 1.14912E-03-4.25457E-04-3.90848E-16
 -1       339 1.43180E-03-4.74129E-04-6.01671E-16
 -1       340 1.71246E-03-5.08171E-04-8.57079E-16
 -1       341 1.99223E-03-5.31333E-04-1.15712E-15
 -1       342 2.27191E-03-5.46383E-04-1.50270E-15
 -1       343 2.55201E-03-5.55375E-04-1.89245E-15
 -1       344 2.83286E-03-5.59837E-04-2.32637E-15
 -1       345 3.11465E-03-5.60899E-04-2.80385E-15
 -1       346 3.39753E-03-5.59396E-04-3.32405E-15
 -1       347 3.68158E-03-5.55954E-04-3.88702E-15
 -1       348 3.96694E-03-5.51062E-04-4.49275E-15
 -1       349 4.25372E-03-5.45147E-04-5.13860E-15
 -1       350 4.54210E-03-5.38644E-04-5.82621E-15
 -1       351 4.83228E-03-5.32073E-04-6.55308E-15
 -1       352 5.12448E-03-5.26115E-04-7.31948E-15
 -1       353 5.41896E-03-5.21677E-04-8.12319E-15
 -1       354 5.71592E-03-5.19943E-04-8.96658E-15
 -1       355 6.01551E-03-5.22379E-04-9.84816E-15
 -1       356 6.31772E-03-5.30652E-04-1.07673E-14
 -1       357 6.62226E-03-5.46402E-04-1.17258E-14
 -1       358 6.92846E-03-5.70813E-04-1.27294E-14
 -1       359 7.23513E-03-6.03932E-04-1.37795E-14
 -1       360 7.54049E-03-6.43782E-04-1.48774E-14
 -1       361 7.84241E-03-6.85513E-04-1.60237E-14
 -1       362 8.13889E-03-7.21060E-04-1.72182E-14
 -1       363 8.42898E-03-7.39968E-04-1.84676E-14
 -1       364 8.71361E-03-7.31774E-04-1.97682E-14
 -1       365 8.99570E-03-6.89389E-04-2.11174E-14
 -1       366 9.27922E-03-6.11850E-04-2.25167E-14
 -1       367 9.56754E-03-5.04701E-04-2.39668E-14
 -1       368 9.86217E-03-3.77787E-04-2.54680E-14
 -1       369 1.01626E-02-2.41852E-04-2.70236E-14
 -1       370 1.04672E-02-1.05783E-04-2.86314E-14
 -1       371 1.07736E-02 2.46634E-05-3.02850E-14
 -1       372 1.10799E-02 1.46794E-04-3.19820E-14
 -1       373 1.13849E-02 2.60207E-04-3.37163E-14
 -1       374 1.16877E-02 3.65884E-04-3.54993E-14
 -1       375 1.19879E-02 4.65440E-04-3.73383E-14
 -1       376 1.22855E-02 5.60631E-04-3.92198E-14
 -1       377 1.25806E-02 6.53070E-04-4.11497E-14
 -1       378 1.28734E-02 7.44115E-04-4.31218E-14
 -1       379 1.31643E-02 8.34843E-04-4.51366E-14
 -1       380 1.34536E-02 9.26084E-04-4.71830E-14
 -1       381 1.37415E-02 1.01845E-03-4.92505E-14
 -1       382 1.39947E-02 1.09918E-03-5.11313E-14
 -1       383 1.10934E-03 4.47197E-04-4.91211E-17
 -1       384 1.38994E-03 4.99794E-04-1.28085E-16
 -1       385 1.66812E-03 5.36752E-04-2.41516E-16
 -1       386 1.94545E-03 5.62141E-04-3.92254E-16
 -1       387 2.22289E-03 5.78911E-04-5.81990E-16
 -1       388 2.50102E-03 5.89225E-04-8.11319E-16
 -1       389 2.78019E-03 5.94679E-04-1.08098E-15
 -1       390 3.06060E-03 5.96436E-04-1.39333E-15
 -1       391 3.34239E-03 5.95334E-04-1.74892E-15
 -1       392 3.62568E-03 5.91955E-04-2.14438E-15
 -1       393 3.91062E-03 5.86699E-04-2.58269E-15
 -1       394 4.19743E-03 5.79844E-04-3.06108E-15
 -1       395 4.48643E-03 5.71611E-04-3.58066E-15
 -1       396 4.77807E-03 5.62238E-04-4.14177E-15
 -1       397 5.07295E-03 5.52082E-04-4.74115E-15
 -1       398 5.37188E-03 5.41761E-04-5.37576E-15
 -1       399 5.67587E-03 5.32364E-04-6.05054E-15
 -1       400 5.98617E-03 5.25782E-04-6.77176E-15
 -1       401 6.30431E-03 5.25190E-04-7.53395E-15
 -1       402 6.63203E-03 5.35735E-04-8.33692E-15
 -1       403 6.97128E-03 5.65375E-04-9.17878E-15
 -1       404 7.32407E-03 6.25556E-04-1.00557E-14
 -1       405 7.69203E-03 7.30779E-04-1.09723E-14
 -1       406 8.07501E-03 8.94900E-04-1.19279E-14
 -1       407 8.46814E-03 1.12074E-03-1.29280E-14
 -1       408 8.85940E-03 1.38157E-03-1.39771E-14
 -1       409 9.23495E-03 1.60737E-03-1.50798E-14
 -1       410 9.59523E-03 1.71035E-03-1.62459E-14
 -1       411 9.95889E-03 1.65760E-03-1.74866E-14
 -1       412 1.03403E-02 1.50634E-03-1.88008E-14
 -1       413 1.07337E-02 1.34567E-03-2.01776E-14
 -1       414 1.11245E-02 1.23257E-03-2.16162E-14
 -1       415 1.15030E-02 1.18258E-03-2.31175E-14
 -1       416 1.18660E-02 1.18773E-03-2.46831E-14
 -1       417 1.22143E-02 1.23317E-03-2.63134E-14
 -1       418 1.25497E-02 1.30513E-03-2.80092E-14
 -1       419 1.28741E-02 1.39323E-03-2.97640E-14
 -1       420 1.31894E-02 1.49044E-03-3.15596E-14
 -1       421 1.34975E-02 1.59225E-03-3.33880E-14
 -1       422 1.37997E-02 1.69586E-03-3.52530E-14
 -1       423 1.40972E-02 1.79958E-03-3.71417E-14
 -1       424 1.43911E-02 1.90239E-03-3.90455E-14
 -1       425 1.46823E-02 2.00367E-03-4.09666E-14
 -1       426 1.49713E-02 2.10304E-03-4.29016E-14
 -1       427 1.52588E-02 2.20030E-03-4.48532E-14
 -1       428 1.54370E-02 2.25588E-03-4.61511E-14
 -1       429 1.51461E-02 2.02292E-03-4.68839E-14
 -1       430 1.52334E-02 2.10435E-03-4.64272E-14
 -1       431 1.53346E-02 2.17978E-03-4.62893E-14
 -1       432 1.50607E-02 1.94419E-03-4.73329E-14
 -1       433 1.49732E-02 1.86529E-03-4.77853E-14
 -1       434 1.48842E-02 1.78730E-03-4.82334E-14
 -1       435 1.47930E-02 1.70979E-03-4.86801E-14
 -1       436 1.46994E-02 1.63231E-03-4.91223E-14
 -1       437 1.46035E-02 1.55443E-03-4.95576E-14
 -1       438 1.45073E-02 1.47712E-03-4.99834E-14
 -1       439 1.44083E-02 1.39747E-03-5.04159E-14
 -1       440 1.43089E-02 1.31665E-03-5.08478E-14
 -1       441 1.42100E-02 1.23466E-03-5.12751E-14
 -1       442 1.14073E-02 8.07966E-04-2.12517E-14
 -1       443 1.16097E-02 6.60767E-04-2.20236E-14
 -1       444 1.16020E-02 7.17598E-04-2.19310E-14
 -1       445 1.11343E-02 9.29659E-04-2.06277E-14
 -1       446 1.15430E-02 6.21145E-04-2.21230E-14
 -1       447 4.45722E-04-1.26433E-04-8.18708E-17
 -1       448 1.00133E-02 1.50715E-03-1.80087E-14
 -1       449 9.62670E-03 1.61563E-03-1.70187E-14
 -1       450 9.26370E-03 1.56973E-03-1.62080E-14
 -1       451 8.85497E-03 1.38721E-03-1.54709E-14
 -1       452 8.48421E-03 1.15579E-03-1.48741E-14
 -1       453 7.90897E-03 8.08293E-04-1.42967E-14
 -1       454 7.54796E-03 6.29556E-04-1.41244E-14
 -1       455 7.23261E-03 4.80674E-04-1.39619E-14
 -1       456 7.04157E-03 3.98333E-04-1.40426E-14
 -1       457 7.01538E-03 3.42997E-04-1.42052E-14
 -1       458 7.16709E-03 2.74309E-04-1.45482E-14
 -1       459 7.41911E-03 1.75201E-04-1.50970E-14
 -1       460 7.80507E-03 1.18313E-05-1.57385E-14
 -1       461 8.18004E-03-1.65915E-04-1.65028E-14
 -1       462 8.50489E-03-3.08782E-04-1.72134E-14
 -1       463 8.91106E-03-4.22744E-04-1.82434E-14
 -1       464 9.22817E-03-4.21135E-04-1.91165E-14
 -1       465 9.50966E-03-3.40155E-04-1.98113E-14
 -1       466 9.93896E-03-1.36802E-04-2.06740E-14
 -1       467 1.03085E-02 7.31961E-05-2.13514E-14
 -1       468 1.07431E-02 2.82403E-04-2.17399E-14
 -1       469 1.10974E-02 4.48033E-04-2.20817E-14
 -1       470 1.13205E-02 5.40763E-04-2.22335E-14
 -1       471 1.07965E-02 1.10196E-03-1.98394E-14
 -1       472 1.03705E-02 1.33169E-03-1.88746E-14
 -1       473 8.70280E-03-3.89637E-04-1.77130E-14
 -1       474 8.22039E-03 9.55934E-04-1.42771E-14
 -1       475 9.30950E-04 3.45601E-04-6.26533E-17
 -1       476 6.66127E-04-7.50373E-05-1.58392E-16
 -1       477 6.70019E-04-1.15754E-04-1.65798E-16
 -1       478 6.63511E-04 1.09551E-06-1.39804E-16
 -1       479 6.64221E-04 3.87045E-05-1.28566E-16
 -1       480 6.66326E-04 7.67132E-05-1.15535E-16
 -1       481 6.70351E-04 1.17590E-04-1.00234E-16
 -1       482 6.77255E-04 1.62182E-04-8.20741E-17
 -1       483 6.89020E-04 2.12523E-04-5.97666E-17
 -1       484 1.16053E-02 6.74313E-04-2.28692E-14
 -1       485 1.21676E-03 4.05718E-04-1.39083E-16
 -1       486 9.76094E-04-3.28156E-04-3.09316E-16
 -1       487 1.02090E-02 1.43105E-03-1.85704E-14
 -1       488 1.26196E-03-3.82624E-04-4.96636E-16
 -1       489 1.54697E-03-4.21793E-04-7.27144E-16
 -1       490 1.83111E-03-4.49053E-04-1.00064E-15
 -1       491 2.11471E-03-4.67254E-04-1.31753E-15
 -1       492 2.39812E-03-4.78627E-04-1.67815E-15
 -1       493 2.68161E-03-4.84875E-04-2.08143E-15
 -1       494 2.96539E-03-4.87276E-04-2.52804E-15
 -1       495 3.24960E-03-4.86777E-04-3.01805E-15
 -1       496 3.53437E-03-4.84076E-04-3.55151E-15
 -1       497 3.81981E-03-4.79700E-04-4.12776E-15
 -1       498 4.10601E-03-4.74067E-04-4.74488E-15
 -1       499 4.39313E-03-4.67567E-04-5.40200E-15
 -1       500 4.68133E-03-4.60624E-04-6.10006E-15
 -1       501 4.97084E-03-4.53775E-04-6.83700E-15
 -1       502 5.26195E-03-4.47742E-04-7.61334E-15
 -1       503 5.55502E-03-4.43496E-04-8.42787E-15
 -1       504 5.85049E-03-4.42313E-04-9.28100E-15
 -1       505 6.14883E-03-4.45764E-04-1.01731E-14
 -1       506 6.45050E-03-4.55635E-04-1.11032E-14
 -1       507 6.75577E-03-4.73678E-04-1.20740E-14
 -1       508 7.06452E-03-5.01134E-04-1.30901E-14
 -1       509 7.37584E-03-5.37913E-04-1.41525E-14
 -1       510 7.68780E-03-5.81474E-04-1.52619E-14
 -1       511 7.99761E-03-6.25665E-04-1.64205E-14
 -1       512 8.30239E-03-6.60271E-04-1.76296E-14
 -1       513 8.60081E-03-6.72415E-04-1.88917E-14
 -1       514 8.89441E-03-6.50370E-04-2.02052E-14
 -1       515 9.18732E-03-5.88552E-04-2.15694E-14
 -1       516 9.48406E-03-4.90154E-04-2.29886E-14
 -1       517 9.78703E-03-3.65631E-04-2.44584E-14
 -1       518 1.00956E-02-2.27972E-04-2.59817E-14
 -1       519 1.04073E-02-8.83948E-05-2.75585E-14
 -1       520 1.07190E-02 4.57773E-05-2.91867E-14
 -1       521 1.10285E-02 1.71105E-04-3.08630E-14
 -1       522 1.13348E-02 2.86956E-04-3.25786E-14
 -1       523 1.16374E-02 3.94324E-04-3.43329E-14
 -1       524 1.19366E-02 4.94923E-04-3.61371E-14
 -1       525 1.22328E-02 5.90620E-04-3.79863E-14
 -1       526 1.25265E-02 6.83130E-04-3.98791E-14
 -1       527 1.28181E-02 7.73896E-04-4.18169E-14
 -1       528 1.31081E-02 8.64064E-04-4.37933E-14
 -1       529 1.33968E-02 9.54511E-04-4.58118E-14
 -1       530 1.36844E-02 1.04590E-03-4.78545E-14
 -1       531 1.78355E-03 4.78964E-04-3.92241E-16
 -1       532 2.06559E-03 4.99277E-04-5.74736E-16
 -1       533 2.34748E-03 5.12215E-04-7.96357E-16
 -1       534 2.62959E-03 5.19608E-04-1.05766E-15
 -1       535 2.91218E-03 5.22809E-04-1.36003E-15
 -1       536 3.19546E-03 5.22802E-04-1.70531E-15
 -1       537 3.47954E-03 5.20280E-04-2.09180E-15
 -1       538 3.76455E-03 5.15717E-04-2.52008E-15
 -1       539 4.05063E-03 5.09436E-04-2.98986E-15
 -1       540 4.33793E-03 5.01664E-04-3.50032E-15
 -1       541 4.62664E-03 4.92607E-04-4.05235E-15
 -1       542 4.91700E-03 4.82532E-04-4.64210E-15
 -1       543 5.20929E-03 4.71874E-04-5.26878E-15
 -1       544 5.50387E-03 4.61401E-04-5.93485E-15
 -1       545 5.80116E-03 4.52441E-04-6.64423E-15
 -1       546 6.10170E-03 4.47220E-04-7.39865E-15
 -1       547 6.40636E-03 4.49340E-04-8.19314E-15
 -1       548 6.71660E-03 4.64419E-04-9.02637E-15
 -1       549 7.03519E-03 5.00870E-04-9.89433E-15
 -1       550 7.36708E-03 5.70653E-04-1.07992E-14
 -1       551 7.71988E-03 6.89426E-04-1.17427E-14
 -1       552 8.10159E-03 8.73612E-04-1.27230E-14
 -1       553 8.51280E-03 1.12859E-03-1.37491E-14
 -1       554 8.93784E-03 1.41437E-03-1.48303E-14
 -1       555 9.37382E-03 1.63437E-03-1.58879E-14
 -1       556 9.76871E-03 1.64907E-03-1.71200E-14
 -1       557 1.01857E-02 1.49551E-03-1.84553E-14
 -1       558 1.06064E-02 1.30821E-03-1.98136E-14
 -1       559 1.10089E-02 1.16795E-03-2.12355E-14
 -1       560 1.13826E-02 1.09853E-03-2.27173E-14
 -1       561 1.17303E-02 1.08999E-03-2.42589E-14
 -1       562 1.20599E-02 1.12579E-03-2.58590E-14
 -1       563 1.23776E-02 1.19121E-03-2.75204E-14
 -1       564 1.26876E-02 1.27523E-03-2.92450E-14
 -1       565 1.29922E-02 1.37023E-03-3.10178E-14
 -1       566 1.32927E-02 1.47113E-03-3.28307E-14
 -1       567 1.35898E-02 1.57471E-03-3.46770E-14
 -1       568 1.38841E-02 1.67896E-03-3.65562E-14
 -1       569 1.41762E-02 1.78266E-03-3.84515E-14
 -1       570 1.44665E-02 1.88505E-03-4.03651E-14
 -1       571 1.47552E-02 1.98566E-03-4.22943E-14
 -1       572 1.50427E-02 2.08422E-03-4.42394E-14
 -1       573 1.47718E-02 1.82184E-03-4.58475E-14
 -1       574 1.46842E-02 1.74385E-03-4.62900E-14
 -1       575 1.49426E-02 1.98006E-03-4.49544E-14
 -1       576 1.48573E-02 1.90027E-03-4.54025E-14
 -1       577 1.45944E-02 1.66653E-03-4.67286E-14
 -1       578 1.45020E-02 1.58939E-03-4.71600E-14
 -1       579 1.44069E-02 1.51196E-03-4.75835E-14
 -1       580 1.43112E-02 1.43517E-03-4.80007E-14
 -1       581 1.42121E-02 1.35609E-03-4.84185E-14
 -1       582 1.41121E-02 1.27583E-03-4.88394E-14
 -1       583 1.40121E-02 1.19434E-03-4.92609E-14
 -1       584 1.16541E-02 7.10020E-04-2.27756E-14
 -1       585 1.13131E-02 8.50072E-04-2.15233E-14
 -1       586 1.50082E-03 4.48839E-04-2.47869E-16
 -1       587 1.14451E-02 6.24773E-04-2.29773E-14
 -1       588 7.12553E-04-2.51658E-04-1.77104E-16
 -1       589 1.09017E-02 4.14166E-04-2.25699E-14
 -1       590 1.15465E-02 7.58996E-04-2.22037E-14
 -1       591 8.00032E-03-8.76836E-05-1.58908E-14
 -1       592 6.64104E-04-3.64759E-05-1.49623E-16
 -1       593 9.44240E-03 1.63378E-03-1.63060E-14
 -1       594 9.03134E-03-4.50248E-04-1.87596E-14
 -1       595 9.84894E-03 1.59719E-03-1.75083E-14
 -1       596 9.08654E-03 1.49957E-03-1.54618E-14
 -1       597 8.73441E-03 1.28459E-03-1.48421E-14
 -1       598 7.71004E-03 6.48999E-04-1.36467E-14
 -1       599 7.38319E-03 4.99556E-04-1.34901E-14
 -1       600 7.08878E-03 3.88713E-04-1.34065E-14
 -1       601 6.98080E-03 3.45990E-04-1.35925E-14
 -1       602 7.02708E-03 3.03184E-04-1.38191E-14
 -1       603 7.28361E-03 2.20345E-04-1.44149E-14
 -1       604 7.59509E-03 9.89595E-05-1.50369E-14
 -1       605 8.28675E-03-2.25713E-04-1.65788E-14
 -1       606 1.00657E-02-2.50784E-05-2.15221E-14
 -1       607 9.34868E-03-3.95241E-04-1.98453E-14
 -1       608 1.06011E-02 1.21073E-03-1.96672E-14
 -1       609 9.68706E-03-2.42260E-04-2.07081E-14
 -1       610 1.05358E-02 2.36213E-04-2.21864E-14
 -1       611 1.12045E-02 5.39272E-04-2.28121E-14
 -1       612 7.03556E-04 2.90685E-04-1.87872E-17
 -1       613 1.09750E-02 1.00717E-03-2.06465E-14
 -1       614 6.76713E-04-1.59896E-04-1.71111E-16
 -1       615 1.03047E-02 1.24615E-04-2.23519E-14
 -1       616 6.91831E-04-2.02703E-04-1.75658E-16
 -1       617 8.46889E-03-3.25262E-04-1.70585E-14
 -1       618 8.47158E-03 1.10005E-03-1.42412E-14
 -1       619 7.97488E-03 7.82851E-04-1.36194E-14
 -1       620 1.38763E-02 1.10682E-03-4.92589E-14
 -1       621 9.00190E-04 7.39400E-05-2.14882E-16
 -1       622 8.98126E-04 2.51106E-05-2.34489E-16
 -1       623 9.12096E-04 1.77900E-04-1.67153E-16
 -1       624 9.24304E-04 2.36423E-04-1.36911E-16
 -1       625 9.50377E-04-2.69617E-04-3.06873E-16
 -1       626 7.17593E-03 4.03720E-04-1.27443E-14
 -1       627 9.87647E-03-1.28226E-04-2.16775E-14
 -1       628 1.10797E-02 5.13815E-04-2.35356E-14
 -1       629 1.38330E-03-3.35998E-04-6.03826E-16
 -1       630 1.66952E-03-3.66251E-04-8.52024E-16
 -1       631 1.95576E-03-3.87148E-04-1.14176E-15
 -1       632 2.24184E-03-4.00776E-04-1.47375E-15
 -1       633 2.52776E-03-4.08859E-04-1.84738E-15
 -1       634 2.81356E-03-4.12749E-04-2.26316E-15
 -1       635 3.09932E-03-4.13466E-04-2.72281E-15
 -1       636 3.38510E-03-4.11770E-04-3.22476E-15
 -1       637 3.67096E-03-4.08216E-04-3.77191E-15
 -1       638 3.95698E-03-4.03227E-04-4.36074E-15
 -1       639 4.24324E-03-3.97149E-04-4.98830E-15
 -1       640 4.52988E-03-3.90316E-04-5.65595E-15
 -1       641 4.81710E-03-3.83120E-04-6.36355E-15
 -1       642 5.10519E-03-3.76076E-04-7.11238E-15
 -1       643 5.39455E-03-3.69894E-04-7.90007E-15
 -1       644 5.68578E-03-3.65555E-04-8.72498E-15
 -1       645 5.97968E-03-3.64363E-04-9.58962E-15
 -1       646 6.27724E-03-3.67981E-04-1.04924E-14
 -1       647 6.57957E-03-3.78385E-04-1.14313E-14
 -1       648 6.88766E-03-3.97669E-04-1.24137E-14
 -1       649 7.20191E-03-4.27552E-04-1.34406E-14
 -1       650 7.52142E-03-4.68334E-04-1.45144E-14
 -1       651 7.84345E-03-5.17190E-04-1.56351E-14
 -1       652 8.16352E-03-5.66198E-04-1.68070E-14
 -1       653 8.47727E-03-6.01319E-04-1.80311E-14
 -1       654 8.78325E-03-6.05336E-04-1.93056E-14
 -1       655 9.08509E-03-5.64634E-04-2.06322E-14
 -1       656 9.38935E-03-4.77430E-04-2.20152E-14
 -1       657 9.70080E-03-3.54423E-04-2.34545E-14
 -1       658 1.00194E-02-2.12752E-04-2.49472E-14
 -1       659 1.03414E-02-6.77453E-05-2.64931E-14
 -1       660 1.06620E-02 7.08536E-05-2.80932E-14
 -1       661 1.09779E-02 1.98987E-04-2.97448E-14
 -1       662 1.12878E-02 3.16305E-04-3.14393E-14
 -1       663 1.15916E-02 4.24281E-04-3.31705E-14
 -1       664 1.18905E-02 5.25006E-04-3.49443E-14
 -1       665 1.21853E-02 6.20569E-04-3.67659E-14
 -1       666 1.24772E-02 7.12789E-04-3.86237E-14
 -1       667 1.27670E-02 8.03140E-04-4.05276E-14
 -1       668 1.30554E-02 8.92764E-04-4.24751E-14
 -1       669 1.33427E-02 9.82527E-04-4.44572E-14
 -1       670 1.36294E-02 1.07307E-03-4.64722E-14
 -1       671 2.19072E-03 4.33790E-04-7.70756E-16
 -1       672 1.46572E-02 1.88177E-03-4.30013E-14
 -1       673 1.90564E-03 4.18201E-04-5.56480E-16
 -1       674 2.76051E-03 4.48140E-04-1.31583E-15
 -1       675 3.04550E-03 4.49484E-04-1.65084E-15
 -1       676 3.33068E-03 4.48107E-04-2.02818E-15
 -1       677 3.61613E-03 4.44567E-04-2.44760E-15
 -1       678 3.90188E-03 4.39250E-04-2.90868E-15
 -1       679 4.18796E-03 4.32423E-04-3.40991E-15
 -1       680 4.47439E-03 4.24304E-04-3.95345E-15
 -1       681 4.76113E-03 4.15128E-04-4.53363E-15
 -1       682 5.04809E-03 4.05239E-04-5.15170E-15
 -1       683 5.33516E-03 3.95203E-04-5.80976E-15
 -1       684 5.62211E-03 3.85963E-04-6.51024E-15
 -1       685 5.90871E-03 3.79040E-04-7.25455E-15
 -1       686 6.19483E-03 3.76798E-04-8.03981E-15
 -1       687 6.48078E-03 3.82788E-04-8.86375E-15
 -1       688 6.76805E-03 4.02199E-04-9.72300E-15
 -1       689 7.06060E-03 4.42622E-04-1.06188E-14
 -1       690 7.36682E-03 5.15506E-04-1.15515E-14
 -1       691 7.70142E-03 6.39461E-04-1.25170E-14
 -1       692 1.16386E-02 9.86614E-04-2.38682E-14
 -1       693 1.19425E-02 1.01864E-03-2.54462E-14
 -1       694 1.22354E-02 1.07970E-03-2.70791E-14
 -1       695 1.25241E-02 1.15949E-03-2.87694E-14
 -1       696 1.28116E-02 1.25103E-03-3.05135E-14
 -1       697 1.30990E-02 1.34949E-03-3.23064E-14
 -1       698 1.33866E-02 1.45159E-03-3.41367E-14
 -1       699 1.36743E-02 1.55515E-03-3.60004E-14
 -1       700 1.39619E-02 1.65877E-03-3.78861E-14
 -1       701 1.42491E-02 1.76154E-03-3.97931E-14
 -1       702 1.44536E-02 1.82220E-03-4.13897E-14
 -1       703 1.43051E-02 1.54624E-03-4.52220E-14
 -1       704 1.38208E-02 1.13335E-03-4.78617E-14
 -1       705 1.44840E-02 1.69929E-03-4.43614E-14
 -1       706 1.42111E-02 1.46972E-03-4.56380E-14
 -1       707 1.43960E-02 1.62257E-03-4.47948E-14
 -1       708 1.62026E-03 3.94591E-04-3.81426E-16
 -1       709 1.41158E-02 1.39384E-03-4.60409E-14
 -1       710 1.40167E-02 1.31562E-03-4.64503E-14
 -1       711 1.39160E-02 1.23611E-03-4.68609E-14
 -1       712 1.16857E-02 7.16404E-04-2.37176E-14
 -1       713 8.09937E-03-1.85305E-04-1.60082E-14
 -1       714 1.15812E-02 6.84025E-04-2.38285E-14
 -1       715 1.12194E-02 9.30100E-04-2.16561E-14
 -1       716 1.16813E-02 7.55220E-04-2.33609E-14
 -1       717 8.80814E-03-4.41847E-04-1.81591E-14
 -1       718 6.92553E-03 3.03541E-04-1.31273E-14
 -1       719 1.13107E-02 1.00003E-03-2.23459E-14
 -1       720 7.72226E-03-1.93552E-05-1.50325E-14
 -1       721 2.47563E-03 4.43276E-04-1.02291E-15
 -1       722 1.16641E-03-3.06798E-04-4.43195E-16
 -1       723 1.15071E-02 8.12396E-04-2.25755E-14
 -1       724 9.04579E-04 1.24357E-04-1.92642E-16
 -1       725 9.12856E-03-4.56359E-04-1.94115E-14
 -1       726 7.50194E-03 5.33782E-04-1.29827E-14
 -1       727 1.33454E-03 3.60574E-04-2.43098E-16
 -1       728 7.36785E-03 1.41493E-04-1.42566E-14
 -1       729 9.04187E-04-1.21960E-04-2.78386E-16
 -1       730 1.07424E-02 3.60928E-04-2.31100E-14
 -1       731 1.13447E-02 6.09978E-04-2.36035E-14
 -1       732 6.96579E-03 3.36174E-04-1.29518E-14
 -1       733 9.53472E-03-3.17546E-04-2.08099E-14
 -1       734 1.08523E-02 1.11408E-03-2.05518E-14
 -1       735 7.07244E-03 2.43877E-04-1.35705E-14
 -1       736 1.06609E-03 3.17517E-04-1.43176E-16
 -1       737 9.11467E-04-1.75250E-04-2.88239E-16
 -1       738 8.98058E-04-2.31141E-05-2.51325E-16
 -1       739 1.01059E-02 4.91220E-06-2.25041E-14
 -1       740 1.05322E-02 2.50812E-04-2.32723E-14
 -1       741 1.45691E-02 1.77632E-03-4.39234E-14
 -1       742 8.18206E-03 9.05449E-04-1.34955E-14
 -1       743 8.26250E-03-2.84469E-04-1.64710E-14
 -1       744 6.91064E-03 2.54849E-04-1.28838E-14
 -1       745 1.37729E-02 1.15494E-03-4.66689E-14
 -1       746 8.99969E-04-7.16752E-05-2.65897E-16
 -1       747 9.31229E-03-4.17553E-04-2.03560E-14
 -1       748 1.16178E-03 2.43004E-04-2.46747E-16
 -1       749 6.98474E-03 3.40706E-04-1.26829E-14
 -1       750 1.79752E-03-3.07565E-04-9.75636E-16
 -1       751 2.08515E-03-3.22718E-04-1.27991E-15
 -1       752 2.37287E-03-3.32272E-04-1.62511E-15
 -1       753 2.66042E-03-3.37514E-04-2.01063E-15
 -1       754 2.94769E-03-3.39464E-04-2.43893E-15
 -1       755 3.23462E-03-3.38897E-04-2.91133E-15
 -1       756 3.52118E-03-3.36380E-04-3.42684E-15
 -1       757 3.80736E-03-3.32329E-04-3.98608E-15
 -1       758 4.09321E-03-3.27051E-04-4.58479E-15
 -1       759 4.37877E-03-3.20805E-04-5.22311E-15
 -1       760 4.66419E-03-3.13846E-04-5.90115E-15
 -1       761 4.94967E-03-3.06490E-04-6.61899E-15
 -1       762 5.23558E-03-2.99173E-04-7.37992E-15
 -1       763 5.52253E-03-2.92525E-04-8.17839E-15
 -1       764 5.81138E-03-2.87454E-04-9.01438E-15
 -1       765 6.10339E-03-2.85247E-04-9.88993E-15
 -1       766 6.40022E-03-2.87676E-04-1.08031E-14
 -1       767 6.70380E-03-2.97087E-04-1.17528E-14
 -1       768 7.01605E-03-3.16359E-04-1.27452E-14
 -1       769 7.33808E-03-3.48439E-04-1.37831E-14
 -1       770 7.66886E-03-3.94871E-04-1.48674E-14
 -1       771 8.00413E-03-4.52878E-04-1.60019E-14
 -1       772 8.33653E-03-5.11301E-04-1.71850E-14
 -1       773 8.66023E-03-5.48350E-04-1.84198E-14
 -1       774 8.97385E-03-5.38839E-04-1.97072E-14
 -1       775 9.28658E-03-4.69895E-04-2.10510E-14
 -1       776 9.60733E-03-3.48498E-04-2.24556E-14
 -1       777 9.93721E-03-1.98982E-04-2.39182E-14
 -1       778 1.02727E-02-4.41456E-05-2.54365E-14
 -1       779 1.06054E-02 1.01246E-04-2.70048E-14
 -1       780 1.09302E-02 2.32416E-04-2.86295E-14
 -1       781 1.12452E-02 3.50161E-04-3.02977E-14
 -1       782 1.15511E-02 4.57248E-04-3.20092E-14
 -1       783 1.18497E-02 5.56678E-04-3.37607E-14
 -1       784 1.21430E-02 6.51003E-04-3.55522E-14
 -1       785 1.24326E-02 7.42201E-04-3.73811E-14
 -1       786 1.27199E-02 8.31741E-04-3.92541E-14
 -1       787 1.30060E-02 9.20689E-04-4.11714E-14
 -1       788 1.32914E-02 1.00981E-03-4.31232E-14
 -1       789 1.35321E-02 1.08196E-03-4.48829E-14
 -1       790 2.03296E-03 3.54823E-04-7.35513E-16
 -1       791 3.18009E-03 3.75266E-04-1.95579E-15
 -1       792 2.89363E-03 3.75352E-04-1.58836E-15
 -1       793 3.75217E-03 3.68885E-04-2.81671E-15
 -1       794 4.03767E-03 3.63351E-04-3.30977E-15
 -1       795 4.32267E-03 3.56609E-04-3.84441E-15
 -1       796 4.60695E-03 3.48904E-04-4.41776E-15
 -1       797 4.89022E-03 3.40546E-04-5.02823E-15
 -1       798 5.17204E-03 3.31999E-04-5.67698E-15
 -1       799 5.45179E-03 3.23984E-04-6.36793E-15
 -1       800 5.72869E-03 3.17591E-04-7.10154E-15
 -1       801 6.00179E-03 3.14409E-04-7.87692E-15
 -1       802 6.27016E-03 3.16639E-04-8.69117E-15
 -1       803 6.53318E-03 3.27188E-04-9.54182E-15
 -1       804 6.79143E-03 3.49827E-04-1.04295E-14
 -1       805 7.04803E-03 3.90393E-04-1.13541E-14
 -1       806 1.23817E-02 1.05440E-03-2.83043E-14
 -1       807 1.21199E-02 9.78306E-04-2.66444E-14
 -1       808 7.39825E-03 3.13822E-05-1.40390E-14
 -1       809 1.18602E-02 9.18603E-04-2.50324E-14
 -1       810 1.26481E-02 1.14154E-03-3.00194E-14
 -1       811 1.29192E-02 1.23595E-03-3.17854E-14
 -1       812 1.31946E-02 1.33486E-03-3.35985E-14
 -1       813 1.34731E-02 1.43619E-03-3.54476E-14
 -1       814 1.37541E-02 1.53842E-03-3.73217E-14
 -1       815 1.40367E-02 1.64052E-03-3.92168E-14
 -1       816 8.56499E-03-4.09899E-04-1.74687E-14
 -1       817 1.39210E-02 1.35193E-03-4.41171E-14
 -1       818 1.13877E-03 5.88439E-05-3.47328E-16
 -1       819 1.74588E-03 3.37201E-04-5.29382E-16
 -1       820 1.40172E-02 1.42777E-03-4.37131E-14
 -1       821 1.37212E-02 1.19707E-03-4.49156E-14
 -1       822 9.29023E-04-2.20550E-04-2.98799E-16
 -1       823 8.88246E-03-4.80770E-04-1.86851E-14
 -1       824 1.15952E-02 8.84127E-04-2.34724E-14
 -1       825 1.15041E-02 6.68365E-04-2.46073E-14
 -1       826 1.17045E-02 7.27456E-04-2.46780E-14
 -1       827 1.17016E-02 8.15593E-04-2.38456E-14
 -1       828 7.10098E-03 1.59273E-04-1.33113E-14
 -1       829 6.86053E-03 2.95665E-04-1.24671E-14
 -1       830 1.38222E-02 1.27523E-03-4.45178E-14
 -1       831 3.46628E-03 3.72962E-04-2.36523E-15
 -1       832 1.51043E-03-2.85298E-04-7.11745E-16
 -1       833 9.74370E-03-2.16660E-04-2.18654E-14
 -1       834 1.17843E-02 7.64049E-04-2.45084E-14
 -1       835 7.85522E-03-1.47485E-04-1.52853E-14
 -1       836 1.45915E-03 3.11519E-04-3.61541E-16
 -1       837 1.12907E-02 5.96327E-04-2.45362E-14
 -1       838 1.09532E-02 4.55195E-04-2.43093E-14
 -1       839 7.28296E-03 4.50328E-04-1.21904E-14
 -1       840 1.24632E-03 3.00029E-04-2.48143E-16
 -1       841 7.00747E-03 3.52030E-04-1.20792E-14
 -1       842 1.13741E-03 1.17932E-06-3.73711E-16
 -1       843 1.03356E-02 1.27452E-04-2.34207E-14
 -1       844 9.06756E-03-4.86962E-04-1.95958E-14
 -1       845 1.41097E-02 1.50294E-03-4.33005E-14
 -1       846 1.42832E-02 1.65299E-03-4.24490E-14
 -1       847 1.29325E-03-2.64101E-04-5.38435E-16
 -1       848 2.60693E-03 3.72595E-04-1.26359E-15
 -1       849 7.51694E-03-8.45782E-05-1.42749E-14
 -1       850 1.42392E-02 1.70164E-03-4.08080E-14
 -1       851 1.41981E-02 1.57761E-03-4.28798E-14
 -1       852 6.79198E-03 2.53456E-04-1.22305E-14
 -1       853 1.14960E-03-1.75634E-04-4.32017E-16
 -1       854 6.90424E-03 1.85400E-04-1.26316E-14
 -1       855 2.32002E-03 3.66134E-04-9.80383E-16
 -1       856 9.95621E-03-1.03432E-04-2.26910E-14
 -1       857 1.14247E-03-1.14838E-04-4.15768E-16
 -1       858 1.15017E-03 1.78584E-04-2.84691E-16
 -1       859 1.18580E-02 8.18460E-04-2.50104E-14
 -1       860 8.00828E-03-2.40611E-04-1.57301E-14
 -1       861 1.14285E-03 1.17549E-04-3.17996E-16
 -1       862 1.43619E-02 1.73663E-03-4.18167E-14
 -1       863 9.51533E-03-3.46191E-04-2.13862E-14
 -1       864 6.85355E-03 2.99026E-04-1.22036E-14
 -1       865 1.36269E-02 1.13978E-03-4.49003E-14
 -1       866 8.63722E-03-4.82529E-04-1.79693E-14
 -1       867 2.21844E-03-2.55947E-04-1.41522E-15
 -1       868 2.50721E-03-2.62047E-04-1.77219E-15
 -1       869 2.79575E-03-2.64978E-04-2.16973E-15
 -1       870 3.08380E-03-2.65462E-04-2.61055E-15
 -1       871 3.37120E-03-2.64041E-04-3.09534E-15
 -1       872 3.65785E-03-2.61102E-04-3.62326E-15
 -1       873 3.94368E-03-2.56914E-04-4.19244E-15
 -1       874 4.22867E-03-2.51668E-04-4.80091E-15
 -1       875 4.51283E-03-2.45507E-04-5.45032E-15
 -1       876 4.79629E-03-2.38575E-04-6.13939E-15
 -1       877 5.07927E-03-2.31059E-04-6.86914E-15
 -1       878 5.36221E-03-2.23244E-04-7.64076E-15
 -1       879 5.64586E-03-2.15595E-04-8.44984E-15
 -1       880 5.93140E-03-2.08864E-04-9.29745E-15
 -1       881 6.22056E-03-2.04262E-04-1.01835E-14
 -1       882 6.51575E-03-2.03718E-04-1.11040E-14
 -1       883 6.82004E-03-2.10228E-04-1.20646E-14
 -1       884 7.13634E-03-2.28137E-04-1.30679E-14
 -1       885 7.46821E-03-2.62728E-04-1.41171E-14
 -1       886 7.81294E-03-3.18342E-04-1.52139E-14
 -1       887 8.16535E-03-3.92247E-04-1.63539E-14
 -1       888 1.05545E-02 1.37644E-04-2.59255E-14
 -1       889 1.08900E-02 2.72990E-04-2.75172E-14
 -1       890 1.12107E-02 3.90134E-04-2.91629E-14
 -1       891 1.15182E-02 4.94477E-04-3.08463E-14
 -1       892 1.18157E-02 5.90759E-04-3.25759E-14
 -1       893 1.21064E-02 6.82355E-04-3.43466E-14
 -1       894 1.23928E-02 7.71497E-04-3.61495E-14
 -1       895 1.26768E-02 8.59608E-04-3.79930E-14
 -1       896 1.29598E-02 9.47599E-04-3.98815E-14
 -1       897 1.32425E-02 1.03606E-03-4.18064E-14
 -1       898 1.64194E-03-2.30434E-04-8.20233E-16
 -1       899 4.17219E-03 2.88807E-04-3.72535E-15
 -1       900 3.88778E-03 2.93927E-04-3.20033E-15
 -1       901 4.73638E-03 2.76482E-04-4.89383E-15
 -1       902 5.01517E-03 2.70006E-04-5.53560E-15
 -1       903 5.29077E-03 2.64069E-04-6.21634E-15
 -1       904 5.56213E-03 2.59544E-04-6.94141E-15
 -1       905 5.82789E-03 2.57628E-04-7.70649E-15
 -1       906 6.08632E-03 2.59859E-04-8.51207E-15
 -1       907 6.33539E-03 2.68065E-04-9.35308E-15
 -1       908 6.57277E-03 2.84300E-04-1.02308E-14
 -1       909 1.27481E-02 1.13192E-03-3.12753E-14
 -1       910 1.92981E-03-2.45768E-04-1.09783E-15
 -1       911 1.24948E-02 1.04318E-03-2.95329E-14
 -1       912 1.30098E-02 1.22595E-03-3.30639E-14
 -1       913 1.32781E-02 1.32342E-03-3.48975E-14
 -1       914 1.35513E-02 1.42283E-03-3.67547E-14
 -1       915 1.38282E-02 1.52303E-03-3.86421E-14
 -1       916 1.16877E-02 7.23860E-04-2.56571E-14
 -1       917 1.37286E-02 1.31031E-03-4.22224E-14
 -1       918 1.07132E-02 3.18143E-04-2.45987E-14
 -1       919 1.18546E-02 7.79296E-04-2.56975E-14
 -1       920 8.31292E-03-3.84492E-04-1.67490E-14
 -1       921 7.07258E-03 5.57840E-05-1.29791E-14
 -1       922 1.13859E-03-5.63374E-05-3.96245E-16
 -1       923 6.78707E-03 2.99105E-04-1.13574E-14
 -1       924 1.58869E-03 2.58375E-04-4.94925E-16
 -1       925 1.12575E-02 5.62367E-04-2.57727E-14
 -1       926 1.20590E-02 8.80916E-04-2.66167E-14
 -1       927 1.15191E-02 6.69312E-04-2.55840E-14
 -1       928 4.45520E-03 2.82890E-04-4.29121E-15
 -1       929 1.87624E-03 2.76705E-04-6.93368E-16
 -1       930 1.37459E-03 2.54119E-04-3.58952E-16
 -1       931 1.22675E-02 9.57698E-04-2.80520E-14
 -1       932 3.02872E-03 3.01738E-04-1.87473E-15
 -1       933 1.38156E-03 3.39312E-05-5.14102E-16
 -1       934 1.38237E-02 1.38439E-03-4.18166E-14
 -1       935 1.42425E-03-2.16139E-04-6.35353E-16
 -1       936 1.02656E-02 2.00140E-05-2.44741E-14
 -1       937 2.16448E-03 2.89042E-04-9.29629E-16
 -1       938 1.34342E-02 1.08767E-03-4.33429E-14
 -1       939 2.74099E-03 3.00600E-04-1.51804E-15
 -1       940 3.60227E-03 2.97988E-04-2.71555E-15
 -1       941 1.40759E-02 1.60486E-03-4.04810E-14
 -1       942 7.17191E-03-4.04194E-05-1.32015E-14
 -1       943 1.10489E-02 4.48782E-04-2.60609E-14
 -1       944 1.36299E-02 1.23520E-03-4.26173E-14
 -1       945 3.31586E-03 3.00709E-04-2.27431E-15
 -1       946 6.86558E-03 9.46099E-05-1.23112E-14
 -1       947 6.74539E-03 1.96751E-04-1.19868E-14
 -1       948 1.39942E-02 1.53044E-03-4.09096E-14
 -1       949 7.66544E-03-1.65972E-04-1.47008E-14
 -1       950 1.38471E-03 9.94923E-05-4.77401E-16
 -1       951 6.75680E-03 2.64571E-04-1.19015E-14
 -1       952 1.39065E-03-1.63503E-04-5.99743E-16
 -1       953 1.35335E-02 1.15545E-03-4.31589E-14
 -1       954 1.60789E-03-1.74909E-04-7.77647E-16
 -1       955 6.55417E-03 2.39591E-04-1.07576E-14
 -1       956 1.08657E-02 3.22300E-04-2.64156E-14
 -1       957 2.64446E-03-1.90417E-04-1.91407E-15
 -1       958 2.93345E-03-1.91635E-04-2.32429E-15
 -1       959 3.22170E-03-1.91171E-04-2.77751E-15
 -1       960 3.50900E-03-1.89356E-04-3.27469E-15
 -1       961 3.79515E-03-1.86406E-04-3.81333E-15
 -1       962 4.08005E-03-1.82449E-04-4.39280E-15
 -1       963 4.36358E-03-1.77545E-04-5.01337E-15
 -1       964 4.64573E-03-1.71705E-04-5.67213E-15
 -1       965 4.92654E-03-1.64918E-04-6.37140E-15
 -1       966 5.20621E-03-1.57188E-04-7.11457E-15
 -1       967 5.48520E-03-1.48572E-04-7.89559E-15
 -1       968 5.76431E-03-1.39276E-04-8.71489E-15
 -1       969 6.04491E-03-1.29793E-04-9.57313E-15
 -1       970 6.32916E-03-1.21177E-04-1.04679E-14
 -1       971 6.62024E-03-1.15503E-04-1.13981E-14
 -1       972 6.92281E-03-1.16608E-04-1.23686E-14
 -1       973 1.38145E-03-3.11158E-05-5.46841E-16
 -1       974 1.11904E-02 4.37402E-04-2.80327E-14
 -1       975 1.14970E-02 5.36670E-04-2.96906E-14
 -1       976 1.17909E-02 6.27562E-04-3.13932E-14
 -1       977 1.20768E-02 7.14676E-04-3.31410E-14
 -1       978 1.23582E-02 8.00552E-04-3.49255E-14
 -1       979 1.26376E-02 8.86505E-04-3.67428E-14
 -1       980 1.29164E-02 9.73185E-04-3.86064E-14
 -1       981 1.31956E-02 1.06091E-03-4.05066E-14
 -1       982 1.15868E-02 6.70508E-04-2.71010E-14
 -1       983 1.72212E-03 2.01125E-04-6.44033E-16
 -1       984 5.13814E-03 2.04169E-04-6.05625E-15
 -1       985 4.86413E-03 2.07733E-04-5.38296E-15
 -1       986 5.67072E-03 2.02290E-04-7.52734E-15
 -1       987 5.92606E-03 2.06269E-04-8.32400E-15
 -1       988 6.17111E-03 2.15463E-04-9.15601E-15
 -1       989 6.37018E-03 2.23983E-04-9.94241E-15
 -1       990 1.30852E-02 1.21736E-03-3.43480E-14
 -1       991 2.06573E-03-1.80976E-04-1.21687E-15
 -1       992 1.25777E-02 1.03760E-03-3.07686E-14
 -1       993 1.33508E-02 1.31262E-03-3.61940E-14
 -1       994 1.36218E-02 1.40971E-03-3.80637E-14
 -1       995 1.18896E-02 7.84585E-04-2.68961E-14
 -1       996 5.40747E-03 2.02017E-04-6.77112E-15
 -1       997 1.39138E-02 1.45736E-03-4.14043E-14
 -1       998 4.02329E-03 2.20314E-04-3.59824E-15
 -1       999 1.38438E-03-9.66459E-05-5.75725E-16
 -1      1000 1.06462E-02 2.43554E-04-2.52601E-14
 -1      1001 6.62757E-03 2.19924E-04-1.13694E-14
 -1      1002 1.38074E-02 1.47022E-03-3.94814E-14
 -1      1003 1.39119E-03 1.66583E-04-4.36327E-16
 -1      1004 1.28268E-02 1.12518E-03-3.25376E-14
 -1      1005 1.83635E-03-1.79511E-04-9.85597E-16
 -1      1006 1.17554E-02 7.38161E-04-2.68229E-14
 -1      1007 2.35506E-03-1.87060E-04-1.54559E-15
 -1      1008 2.45284E-03 2.96651E-04-1.20354E-15
 -1      1009 1.21006E-02 8.66203E-04-2.74781E-14
 -1      1010 3.73876E-03 2.23759E-04-3.08248E-15
 -1      1011 1.62799E-03 1.54075E-06-7.16149E-16
 -1      1012 2.01045E-03 2.13186E-04-8.72092E-16
 -1      1013 6.95548E-03 1.31842E-05-1.25296E-14
 -1      1014 4.58649E-03 2.11951E-04-4.75040E-15
 -1      1015 1.23484E-02 9.52772E-04-2.92596E-14
 -1      1016 1.14070E-02 5.82305E-04-2.73951E-14
 -1      1017 4.30601E-03 2.16276E-04-4.15495E-15
 -1      1018 1.34398E-02 1.19482E-03-4.07411E-14
 -1      1019 6.68628E-03 1.19479E-04-1.16786E-14
 -1      1020 1.35385E-02 1.26820E-03-4.03469E-14
 -1      1021 1.62976E-03 7.27654E-05-6.72666E-16
 -1      1022 3.16561E-03 2.27775E-04-2.17639E-15
 -1      1023 2.87749E-03 2.27701E-04-1.78744E-15
 -1      1024 2.78428E-03-1.17740E-04-2.05181E-15
 -1      1025 3.07329E-03-1.17882E-04-2.47327E-15
 -1      1026 3.36129E-03-1.17013E-04-2.93929E-15
 -1      1027 3.64801E-03-1.15273E-04-3.44768E-15
 -1      1028 3.93321E-03-1.12728E-04-3.99745E-15
 -1      1029 4.21671E-03-1.09370E-04-4.58868E-15
 -1      1030 4.49832E-03-1.05121E-04-5.21981E-15
 -1      1031 4.77791E-03-9.98400E-05-5.88878E-15
 -1      1032 5.05543E-03-9.33303E-05-6.59914E-15
 -1      1033 5.33095E-03-8.53557E-05-7.35279E-15
 -1      1034 5.60479E-03-7.56786E-05-8.14402E-15
 -1      1035 5.87764E-03-6.41475E-05-8.97393E-15
 -1      1036 6.15081E-03-5.08879E-05-9.84131E-15
 -1      1037 6.42656E-03-3.66373E-05-1.07444E-14
 -1      1038 6.70856E-03-2.35621E-05-1.16836E-14
 -1      1039 1.62952E-03-6.96640E-05-7.55333E-16
 -1      1040 1.14932E-02 5.83511E-04-2.85395E-14
 -1      1041 1.17784E-02 6.66421E-04-3.02131E-14
 -1      1042 1.20556E-02 7.47303E-04-3.19364E-14
 -1      1043 1.23292E-02 8.28758E-04-3.36997E-14
 -1      1044 1.26020E-02 9.11902E-04-3.55014E-14
 -1      1045 1.28754E-02 9.96965E-04-3.73387E-14
 -1      1046 1.31503E-02 1.08392E-03-3.92157E-14
 -1      1047 2.49464E-03-1.16358E-04-1.67199E-15
 -1      1048 1.18680E-02 7.57810E-04-2.83663E-14
 -1      1049 6.03145E-03 1.62039E-04-8.94801E-15
 -1      1050 5.78338E-03 1.51341E-04-8.12492E-15
 -1      1051 1.34148E-02 1.30069E-03-3.74936E-14
 -1      1052 1.20047E-02 8.10362E-04-2.84472E-14
 -1      1053 1.31488E-02 1.20756E-03-3.56350E-14
 -1      1054 2.29952E-03 2.21076E-04-1.13707E-15
 -1      1055 5.26206E-03 1.42985E-04-6.59174E-15
 -1      1056 4.15923E-03 1.48497E-04-4.01078E-15
 -1      1057 1.36314E-02 1.33965E-03-3.99438E-14
 -1      1058 3.45278E-03 2.26343E-04-2.60871E-15
 -1      1059 1.37212E-02 1.40464E-03-3.97163E-14
 -1      1060 2.58868E-03 2.25665E-04-1.44160E-15
 -1      1061 1.67457E-03 1.35820E-04-6.61529E-16
 -1      1062 1.28893E-02 1.11738E-03-3.38071E-14
 -1      1063 2.20485E-03-1.13419E-04-1.33215E-15
 -1      1064 4.99223E-03 1.42839E-04-5.88581E-15
 -1      1065 1.26382E-02 1.03145E-03-3.20153E-14
 -1      1066 5.52627E-03 1.45445E-04-7.33911E-15
 -1      1067 6.53698E-03 1.58314E-04-1.10767E-14
 -1      1068 4.71793E-03 1.44121E-04-5.22192E-15
 -1      1069 6.23818E-03 1.71060E-04-9.72529E-15
 -1      1070 1.87738E-03-3.62097E-05-9.53925E-16
 -1      1071 3.01618E-03 1.54306E-04-2.07369E-15
 -1      1072 1.97472E-03-1.15599E-04-1.09292E-15
 -1      1073 7.40022E-03-1.56053E-04-1.38819E-14
 -1      1074 6.44077E-03 1.92252E-04-1.05337E-14
 -1      1075 1.24005E-02 9.47402E-04-3.04783E-14
 -1      1076 1.16867E-02 6.79223E-04-2.84581E-14
 -1      1077 4.44003E-03 1.46169E-04-4.59755E-15
 -1      1078 3.87605E-03 1.50743E-04-3.46410E-15
 -1      1079 1.32536E-02 1.15725E-03-3.88242E-14
 -1      1080 1.96270E-03 1.44871E-04-8.94863E-16
 -1      1081 3.30420E-03 1.53909E-04-2.49458E-15
 -1      1082 1.87750E-03 3.95166E-05-9.03693E-16
 -1      1083 3.21509E-03-4.41276E-05-2.61792E-15
 -1      1084 3.50248E-03-4.33806E-05-3.09608E-15
 -1      1085 3.78829E-03-4.21771E-05-3.61638E-15
 -1      1086 4.07223E-03-4.04552E-05-4.17747E-15
 -1      1087 4.35402E-03-3.80612E-05-4.77891E-15
 -1      1088 4.63340E-03-3.47936E-05-5.42052E-15
 -1      1089 4.91006E-03-3.03485E-05-6.09950E-15
 -1      1090 5.18377E-03-2.43215E-05-6.82079E-15
 -1      1091 5.45432E-03-1.62056E-05-7.58411E-15
 -1      1092 5.72170E-03-5.41683E-06-8.38459E-15
 -1      1093 5.98615E-03 8.64037E-06-9.22599E-15
 -1      1094 6.24860E-03 2.61790E-05-1.01017E-14
 -1      1095 6.51036E-03 4.74085E-05-1.10127E-14
 -1      1096 2.72721E-03 1.53529E-04-1.69498E-15
 -1      1097 2.63688E-03-4.42260E-05-1.79323E-15
 -1      1098 1.20439E-02 7.78624E-04-3.07346E-14
 -1      1099 1.23058E-02 8.54925E-04-3.24768E-14
 -1      1100 1.25696E-02 9.34924E-04-3.42593E-14
 -1      1101 1.28361E-02 1.01838E-03-3.60780E-14
 -1      1102 1.30441E-02 1.08696E-03-3.74377E-14
 -1      1103 2.34692E-03-4.34700E-05-1.44242E-15
 -1      1104 5.90658E-03 1.04187E-04-8.72937E-15
 -1      1105 1.33139E-02 1.22283E-03-3.79588E-14
 -1      1106 1.20981E-02 8.22947E-04-2.98962E-14
 -1      1107 3.59093E-03 1.52637E-04-2.95867E-15
 -1      1108 6.68364E-03 3.54373E-05-1.16182E-14
 -1      1109 1.29410E-02 1.10635E-03-3.50791E-14
 -1      1110 2.25201E-03 1.50910E-04-1.16461E-15
 -1      1111 4.29635E-03 7.86861E-05-4.43551E-15
 -1      1112 2.92644E-03-4.44261E-05-2.18449E-15
 -1      1113 5.39032E-03 8.55234E-05-7.14009E-15
 -1      1114 1.91928E-03 9.16702E-05-9.01341E-16
 -1      1115 5.65188E-03 9.27686E-05-7.91454E-15
 -1      1116 5.12311E-03 8.13306E-05-6.40182E-15
 -1      1117 1.26844E-02 1.02133E-03-3.32689E-14
 -1      1118 4.85121E-03 7.92518E-05-5.70605E-15
 -1      1119 1.24350E-02 9.36147E-04-3.17060E-14
 -1      1120 2.86815E-03 8.06220E-05-1.96561E-15
 -1      1121 4.57541E-03 7.85537E-05-5.05216E-15
 -1      1122 2.11184E-03-4.00110E-05-1.18552E-15
 -1      1123 2.48966E-03 1.52895E-04-1.41579E-15
 -1      1124 6.12414E-03 1.12359E-04-9.49769E-15
 -1      1125 4.01456E-03 7.92468E-05-3.85929E-15
 -1      1126 3.15694E-03 8.08128E-05-2.37460E-15
 -1      1127 2.11187E-03 3.88523E-05-1.12542E-15
 -1      1128 6.44869E-03 8.96938E-05-1.07752E-14
 -1      1129 3.35871E-03 2.92609E-05-2.75875E-15
 -1      1130 3.64525E-03 2.93681E-05-3.24892E-15
 -1      1131 2.49170E-03 2.83957E-05-1.54786E-15
 -1      1132 2.30170E-03 3.38403E-05-1.32776E-15
 -1      1133 0.00000E+00 0.00000E+00 0.00000E+00
 -1      1134 0.00000E+00 0.00000E+00 0.00000E+00
 -1      1135 0.00000E+00 0.00000E+00 0.00000E+00
 -1      1136 0.00000E+00 0.00000E+00 0.00000E+00
 -1      1137 0.00000E+00 0.00000E+00 0.00000E+00
 -1      1138 0.00000E+00 0.00000E+00 0.00000E+00
 -1      1139 0.00000E+00 0.00000E+00 0.00000E+00
 -1      1140 0.00000E+00 0.00000E+00 0.00000E+00
 -1      1141 0.00000E+00 0.00000E+00 0.00000E+00
 -1      1142 0.00000E+00 0.00000E+00 0.00000E+00
 -1      1143 0.00000E+00 0.00000E+00 0.00000E+00
 -1      1144 0.00000E+00 0.00000E+00 0.00000E+00
 -1      1145 0.00000E+00 0.00000E+00 0.00000E+00
 -1      1146 0.00000E+00 0.00000E+00 0.00000E+00
 -1      1147 0.00000E+00 0.00000E+00 0.00000E+00
 -1      1148 0.00000E+00 0.00000E+00 0.00000E+00
 -1      1149 0.00000E+00 0.00000E+00 0.00000E+00
 -1      1150 2.11521E-04-1.48275E-04-3.64563E-18
 -1      1151 5.51198E-04-3.37358E-04-4.47775E-17
 -1      1152 8.32723E-04-4.58678E-04-1.32706E-16
 -1      1153 1.10199E-03-5.40080E-04-2.73747E-16
 -1      1154 1.36708E-03-5.96915E-04-4.64066E-16
 -1      1155 1.63158E-03-6.37047E-04-7.02427E-16
 -1      1156 1.89735E-03-6.65084E-04-9.87735E-16
 -1      1157 2.16526E-03-6.84102E-04-1.31995E-15
 -1      1158 2.43568E-03-6.96335E-04-1.70141E-15
 -1      1159 2.70866E-03-7.03455E-04-2.12966E-15
 -1      1160 2.98416E-03-7.06720E-04-2.60302E-15
 -1      1161 3.26208E-03-7.07075E-04-3.11945E-15
 -1      1162 3.54235E-03-7.05235E-04-3.67896E-15
 -1      1163 3.82496E-03-7.01759E-04-4.28057E-15
 -1      1164 4.10996E-03-6.97116E-04-4.92287E-15
 -1      1165 4.39754E-03-6.91755E-04-5.60904E-15
 -1      1166 4.68793E-03-6.86175E-04-6.33562E-15
 -1      1167 4.98147E-03-6.80990E-04-7.10018E-15
 -1      1168 5.27848E-03-6.77001E-04-7.90478E-15
 -1      1169 5.57922E-03-6.75244E-04-8.75065E-15
 -1      1170 5.88375E-03-6.77004E-04-9.63362E-15
 -1      1171 6.19173E-03-6.83766E-04-1.05522E-14
 -1      1172 6.50225E-03-6.97037E-04-1.15068E-14
 -1      1173 6.81355E-03-7.18004E-04-1.25054E-14
 -1      1174 7.12298E-03-7.46977E-04-1.35531E-14
 -1      1175 7.42705E-03-7.82652E-04-1.46497E-14
 -1      1176 7.72193E-03-8.21383E-04-1.57964E-14
 -1      1177 8.00440E-03-8.56797E-04-1.69883E-14
 -1      1178 8.27300E-03-8.80249E-04-1.82322E-14
 -1      1179 8.52916E-03-8.82385E-04-1.95290E-14
 -1      1180 8.77746E-03-8.55606E-04-2.08738E-14
 -1      1181 9.02471E-03-7.96485E-04-2.22667E-14
 -1      1182 9.27800E-03-7.06966E-04-2.37033E-14
 -1      1183 9.54270E-03-5.93667E-04-2.51848E-14
 -1      1184 9.82115E-03-4.65701E-04-2.67258E-14
 -1      1185 1.01126E-02-3.32112E-04-2.83215E-14
 -1      1186 1.04143E-02-1.99995E-04-2.99604E-14
 -1      1187 1.07223E-02-7.37452E-05-3.16409E-14
 -1      1188 1.10331E-02 4.47623E-05-3.33600E-14
 -1      1189 1.13437E-02 1.55491E-04-3.51200E-14
 -1      1190 1.16521E-02 2.59489E-04-3.69438E-14
 -1      1191 1.19572E-02 3.58269E-04-3.88340E-14
 -1      1192 1.22585E-02 4.53414E-04-4.07713E-14
 -1      1193 1.25562E-02 5.46354E-04-4.27530E-14
 -1      1194 1.28504E-02 6.38281E-04-4.47816E-14
 -1      1195 1.31416E-02 7.30148E-04-4.68428E-14
 -1      1196 1.34305E-02 8.22685E-04-4.89226E-14
 -1      1197 1.37175E-02 9.16415E-04-5.10084E-14
 -1      1198 1.40035E-02 1.01160E-03-5.31066E-14
 -1      1199 1.42819E-02 1.10554E-03-5.51781E-14
 -1      1200 2.28269E-04 1.60649E-04 2.10877E-17
 -1      1201 5.53364E-04 3.41991E-04 5.16758E-17
 -1      1202 8.33640E-04 4.60849E-04 6.06747E-17
 -1      1203 1.10287E-03 5.41774E-04 4.17824E-17
 -1      1204 1.36795E-03 5.98605E-04-8.51099E-18
 -1      1205 1.63248E-03 6.38822E-04-9.17235E-17
 -1      1206 1.89827E-03 6.66954E-04-2.10823E-16
 -1      1207 2.16618E-03 6.86065E-04-3.67721E-16
 -1      1208 2.43656E-03 6.98376E-04-5.62362E-16
 -1      1209 2.70948E-03 7.05536E-04-7.98569E-16
 -1      1210 2.98489E-03 7.08773E-04-1.08282E-15
 -1      1211 3.26270E-03 7.08985E-04-1.41120E-15
 -1      1212 3.54286E-03 7.06821E-04-1.77988E-15
 -1      1213 3.82543E-03 7.02742E-04-2.18818E-15
 -1      1214 4.11056E-03 6.97083E-04-2.63645E-15
 -1      1215 4.39863E-03 6.90112E-04-3.12666E-15
 -1      1216 4.69024E-03 6.82104E-04-3.66077E-15
 -1      1217 4.98634E-03 6.73431E-04-4.23348E-15
 -1      1218 5.28824E-03 6.64684E-04-4.84416E-15
 -1      1219 5.59777E-03 6.56868E-04-5.49459E-15
 -1      1220 5.91734E-03 6.51690E-04-6.18330E-15
 -1      1221 6.24997E-03 6.52001E-04-6.91034E-15
 -1      1222 6.59914E-03 6.62453E-04-7.67934E-15
 -1      1223 6.96827E-03 6.90348E-04-8.49852E-15
 -1      1224 7.35947E-03 7.46419E-04-9.35211E-15
 -1      1225 7.77104E-03 8.44580E-04-1.02456E-14
 -1      1226 8.19378E-03 9.98467E-04-1.11725E-14
 -1      1227 8.60769E-03 1.21170E-03-1.21485E-14
 -1      1228 8.98438E-03 1.46237E-03-1.31745E-14
 -1      1229 9.30202E-03 1.69308E-03-1.42475E-14
 -1      1230 9.56850E-03 1.82887E-03-1.53755E-14
 -1      1231 9.82711E-03 1.82633E-03-1.65758E-14
 -1      1232 1.01271E-02 1.71030E-03-1.78543E-14
 -1      1233 1.04878E-02 1.55268E-03-1.91915E-14
 -1      1234 1.08938E-02 1.41990E-03-2.05895E-14
 -1      1235 1.13165E-02 1.34380E-03-2.20534E-14
 -1      1236 1.17325E-02 1.32602E-03-2.35887E-14
 -1      1237 1.21298E-02 1.35439E-03-2.52011E-14
 -1      1238 1.25049E-02 1.41446E-03-2.68919E-14
 -1      1239 1.28590E-02 1.49450E-03-2.86423E-14
 -1      1240 1.31956E-02 1.58627E-03-3.04235E-14
 -1      1241 1.35180E-02 1.68443E-03-3.22389E-14
 -1      1242 1.38297E-02 1.78560E-03-3.40819E-14
 -1      1243 1.41331E-02 1.88774E-03-3.59587E-14
 -1      1244 1.44304E-02 1.98958E-03-3.78571E-14
 -1      1245 1.47231E-02 2.09034E-03-3.97777E-14
 -1      1246 1.50125E-02 2.18951E-03-4.17160E-14
 -1      1247 1.52998E-02 2.28681E-03-4.36624E-14
 -1      1248 1.55857E-02 2.38217E-03-4.56189E-14
 -1      1249 1.58641E-02 2.47372E-03-4.75374E-14
 -1      1250 1.59537E-02 2.47593E-03-4.86891E-14
 -1      1251 1.58621E-02 2.39145E-03-4.91687E-14
 -1      1252 1.57719E-02 2.30737E-03-4.96351E-14
 -1      1253 1.56832E-02 2.22449E-03-5.00706E-14
 -1      1254 1.55953E-02 2.14332E-03-5.05167E-14
 -1      1255 1.55082E-02 2.06467E-03-5.09806E-14
 -1      1256 1.54202E-02 1.98765E-03-5.14558E-14
 -1      1257 1.53298E-02 1.91114E-03-5.19190E-14
 -1      1258 1.52374E-02 1.83517E-03-5.23841E-14
 -1      1259 1.51429E-02 1.75904E-03-5.28561E-14
 -1      1260 1.50464E-02 1.68209E-03-5.33160E-14
 -1      1261 1.49494E-02 1.60450E-03-5.37838E-14
 -1      1262 1.48517E-02 1.52531E-03-5.42555E-14
 -1      1263 1.47532E-02 1.44377E-03-5.47141E-14
 -1      1264 1.46554E-02 1.36072E-03-5.51421E-14
 -1      1265 1.45589E-02 1.27667E-03-5.55652E-14
 -1      1266 1.44643E-02 1.19296E-03-5.59903E-14
 -1      1267 1.16209E-02 6.89047E-04-2.07574E-14
 -1      1268 1.15518E-02 8.36977E-04-2.04591E-14
 -1      1269 1.13754E-02 9.92617E-04-2.00271E-14
 -1      1270 1.11102E-02 1.14844E-03-1.95176E-14
 -1      1271 1.07566E-02 1.30410E-03-1.89163E-14
 -1      1272 1.03449E-02 1.43566E-03-1.82731E-14
 -1      1273 9.89947E-03 1.51771E-03-1.76302E-14
 -1      1274 9.40738E-03 1.53203E-03-1.69681E-14
 -1      1275 8.90344E-03 1.46263E-03-1.63489E-14
 -1      1276 8.42656E-03 1.32523E-03-1.58301E-14
 -1      1277 7.95073E-03 1.12763E-03-1.53849E-14
 -1      1278 7.55862E-03 9.24231E-04-1.50856E-14
 -1      1279 7.27977E-03 7.44280E-04-1.49335E-14
 -1      1280 7.08668E-03 5.68627E-04-1.49037E-14
 -1      1281 7.01097E-03 4.05705E-04-1.50098E-14
 -1      1282 7.05937E-03 2.52971E-04-1.52414E-14
 -1      1283 7.22095E-03 1.07048E-04-1.55768E-14
 -1      1284 7.48323E-03-3.55316E-05-1.60189E-14
 -1      1285 7.81712E-03-1.65653E-04-1.65447E-14
 -1      1286 8.19547E-03-2.71743E-04-1.71245E-14
 -1      1287 8.61701E-03-3.42016E-04-1.77630E-14
 -1      1288 9.05943E-03-3.64403E-04-1.84147E-14
 -1      1289 9.50300E-03-3.31129E-04-1.90384E-14
 -1      1290 9.93316E-03-2.48757E-04-1.96060E-14
 -1      1291 1.03523E-02-1.26643E-04-2.01063E-14
 -1      1292 1.07493E-02 2.40260E-05-2.05013E-14
 -1      1293 1.10725E-02 1.73630E-04-2.07549E-14
 -1      1294 1.13112E-02 3.08137E-04-2.08963E-14
 -1      1295 1.14835E-02 4.34208E-04-2.09511E-14
 -1      1296 1.15900E-02 5.57539E-04-2.09086E-14
 -1      1297 1.66582E-04-1.10316E-04-1.00831E-17
 -1      1298 1.12489E-04-5.69884E-05-1.50026E-17
 -1      1299 1.17554E-04-6.75873E-05-1.34983E-17
 -1      1300 1.08395E-04-4.35151E-05-1.72659E-17
 -1      1301 1.10242E-04-4.96241E-05-1.67374E-17
 -1      1302 2.26233E-04-1.07636E-04-3.98715E-17
 -1      1303 1.06852E-04-3.36436E-05-1.77403E-17
 -1      1304 1.07683E-04-3.83691E-05-1.76725E-17
 -1      1305 2.19070E-04-8.24978E-05-4.30293E-17
 -1      1306 1.06094E-04-2.53688E-05-1.77674E-17
 -1      1307 1.06517E-04-2.94025E-05-1.78216E-17
 -1      1308 2.15904E-04-6.33097E-05-4.36933E-17
 -1      1309 1.05701E-04-1.81061E-05-1.69271E-17
 -1      1310 1.05924E-04-2.16756E-05-1.72388E-17
 -1      1311 2.14275E-04-4.72081E-05-4.29209E-17
 -1      1312 1.05492E-04-1.12492E-05-1.60733E-17
 -1      1313 1.05610E-04-1.46358E-05-1.64121E-17
 -1      1314 2.13385E-04-3.27685E-05-4.10642E-17
 -1      1315 1.05398E-04-4.69452E-06-1.50433E-17
 -1      1316 1.05449E-04-7.94895E-06-1.54228E-17
 -1      1317 2.12908E-04-1.91999E-05-3.88958E-17
 -1      1318 1.05388E-04 1.74197E-06-1.38100E-17
 -1      1319 1.05386E-04-1.47253E-06-1.41759E-17
 -1      1320 2.12703E-04-6.16551E-06-3.62124E-17
 -1      1321 1.05458E-04 8.22860E-06-1.26174E-17
 -1      1322 1.05403E-04 4.96739E-06-1.29427E-17
 -1      1323 2.12712E-04 6.70791E-06-3.33934E-17
 -1      1324 1.05627E-04 1.49417E-05-1.10182E-17
 -1      1325 1.05504E-04 1.15398E-05-1.14925E-17
 -1      1326 2.12935E-04 1.97695E-05-3.01815E-17
 -1      1327 1.05948E-04 2.19673E-05-8.90401E-18
 -1      1328 1.05720E-04 1.83738E-05-9.55453E-18
 -1      1329 2.13428E-04 3.32797E-05-2.60751E-17
 -1      1330 1.06553E-04 2.98409E-05-6.43745E-18
 -1      1331 1.06124E-04 2.57618E-05-7.19639E-18
 -1      1332 2.14340E-04 4.78171E-05-2.09522E-17
 -1      1333 1.07719E-04 3.89439E-05-3.27971E-18
 -1      1334 1.06880E-04 3.41495E-05-4.48589E-18
 -1      1335 2.16003E-04 6.42388E-05-1.50433E-17
 -1      1336 1.10229E-04 5.03688E-05 1.05710E-18
 -1      1337 1.08406E-04 4.41876E-05-7.72494E-19
 -1      1338 2.19177E-04 8.37396E-05-7.30481E-18
 -1      1339 1.16869E-04 6.76267E-05 6.92534E-18
 -1      1340 1.12135E-04 5.77917E-05 4.21484E-18
 -1      1341 2.26227E-04 1.09465E-04 2.69695E-18
 -1      1342 1.57465E-04 1.09831E-04 1.51382E-17
 -1      1343 1.35570E-04 8.60852E-05 1.06658E-17
 -1      1344 2.55877E-04 1.52080E-04 1.41759E-17
 -1      1345 3.34834E-04 2.20670E-04 2.87991E-17
 -1      1346 4.21227E-04-2.61646E-04-4.21755E-17
 -1      1347 5.74197E-04-3.36642E-04-7.34818E-17
 -1      1348 7.21256E-04-3.97159E-04-1.19222E-16
 -1      1349 8.64295E-04-4.46343E-04-1.77877E-16
 -1      1350 6.11652E-04-3.30728E-04-1.05195E-16
 -1      1351 1.00419E-03-4.87276E-04-2.48675E-16
 -1      1352 1.14190E-03-5.21094E-04-3.31413E-16
 -1      1353 9.04670E-04-4.31203E-04-2.23169E-16
 -1      1354 1.27827E-03-5.49660E-04-4.25956E-16
 -1      1355 1.41379E-03-5.73451E-04-5.32967E-16
 -1      1356 1.18689E-03-5.00280E-04-3.89025E-16
 -1      1357 1.54891E-03-5.93525E-04-6.51145E-16
 -1      1358 1.68389E-03-6.10213E-04-7.81628E-16
 -1      1359 1.46363E-03-5.48557E-04-6.01095E-16
 -1      1360 1.81897E-03-6.24136E-04-9.23374E-16
 -1      1361 1.95426E-03-6.35582E-04-1.07619E-15
 -1      1362 1.73815E-03-5.82177E-04-8.59569E-16
 -1      1363 2.08991E-03-6.44945E-04-1.24147E-15
 -1      1364 2.22594E-03-6.52469E-04-1.41873E-15
 -1      1365 2.01236E-03-6.05072E-04-1.16441E-15
 -1      1366 2.36244E-03-6.58422E-04-1.60752E-15
 -1      1367 2.49941E-03-6.63002E-04-1.80808E-15
 -1      1368 2.28728E-03-6.20005E-04-1.51558E-15
 -1      1369 2.63689E-03-6.66396E-04-2.02072E-15
 -1      1370 2.77487E-03-6.68764E-04-2.24357E-15
 -1      1371 2.56345E-03-6.28989E-04-1.91301E-15
 -1      1372 2.91337E-03-6.70234E-04-2.47740E-15
 -1      1373 3.05238E-03-6.70936E-04-2.72329E-15
 -1      1374 2.84113E-03-6.33518E-04-2.35501E-15
 -1      1375 3.19191E-03-6.70957E-04-2.97946E-15
 -1      1376 3.33194E-03-6.70401E-04-3.24557E-15
 -1      1377 3.12045E-03-6.34698E-04-2.84079E-15
 -1      1378 3.47250E-03-6.69327E-04-3.52337E-15
 -1      1379 3.61357E-03-6.67823E-04-3.81169E-15
 -1      1380 3.40150E-03-6.33352E-04-3.36984E-15
 -1      1381 3.75517E-03-6.65929E-04-4.11073E-15
 -1      1382 3.89730E-03-6.63723E-04-4.41948E-15
 -1      1383 3.68434E-03-6.30100E-04-3.94247E-15
 -1      1384 4.03999E-03-6.61239E-04-4.73811E-15
 -1      1385 4.18325E-03-6.58550E-04-5.06847E-15
 -1      1386 3.96904E-03-6.25430E-04-4.55621E-15
 -1      1387 4.32711E-03-6.55693E-04-5.40883E-15
 -1      1388 4.47159E-03-6.52747E-04-5.75904E-15
 -1      1389 4.25574E-03-6.19775E-04-5.21038E-15
 -1      1390 4.61673E-03-6.49761E-04-6.11941E-15
 -1      1391 4.76255E-03-6.46826E-04-6.49013E-15
 -1      1392 4.54462E-03-6.13580E-04-5.90638E-15
 -1      1393 4.90911E-03-6.44016E-04-6.87053E-15
 -1      1394 5.05642E-03-6.41440E-04-7.26016E-15
 -1      1395 4.83591E-03-6.07380E-04-6.64265E-15
 -1      1396 5.20452E-03-6.39206E-04-7.66090E-15
 -1      1397 5.35343E-03-6.37447E-04-8.07121E-15
 -1      1398 5.12982E-03-6.01871E-04-7.41909E-15
 -1      1399 5.50318E-03-6.36316E-04-8.49082E-15
 -1      1400 5.65375E-03-6.35965E-04-8.92057E-15
 -1      1401 5.42658E-03-5.97980E-04-8.23412E-15
 -1      1402 5.80514E-03-6.36598E-04-9.35896E-15
 -1      1403 5.95731E-03-6.38377E-04-9.80697E-15
 -1      1404 5.72627E-03-5.96911E-04-9.08693E-15
 -1      1405 6.11018E-03-6.41547E-04-1.02634E-14
 -1      1406 6.26366E-03-6.46257E-04-1.07285E-14
 -1      1407 6.02878E-03-6.00141E-04-9.97709E-15
 -1      1408 6.41761E-03-6.52765E-04-1.12054E-14
 -1      1409 6.57185E-03-6.61165E-04-1.16922E-14
 -1      1410 6.33370E-03-6.09324E-04-1.09062E-14
 -1      1411 6.72615E-03-6.71664E-04-1.21890E-14
 -1      1412 6.88024E-03-6.84240E-04-1.26979E-14
 -1      1413 6.64014E-03-6.26037E-04-1.18745E-14
 -1      1414 7.03381E-03-6.98951E-04-1.32188E-14
 -1      1415 7.18651E-03-7.15577E-04-1.37525E-14
 -1      1416 6.94669E-03-6.51319E-04-1.28882E-14
 -1      1417 7.33796E-03-7.33901E-04-1.42994E-14
 -1      1418 7.48781E-03-7.53425E-04-1.48558E-14
 -1      1419 7.25138E-03-6.84973E-04-1.39492E-14
 -1      1420 7.63568E-03-7.73545E-04-1.54254E-14
 -1      1421 7.78126E-03-7.93447E-04-1.60080E-14
 -1      1422 7.55190E-03-7.24718E-04-1.50600E-14
 -1      1423 7.92431E-03-8.12106E-04-1.66009E-14
 -1      1424 8.06469E-03-8.28448E-04-1.72080E-14
 -1      1425 7.84596E-03-7.65467E-04-1.62181E-14
 -1      1426 8.20240E-03-8.41155E-04-1.78275E-14
 -1      1427 8.33757E-03-8.49078E-04-1.84594E-14
 -1      1428 8.13195E-03-7.99211E-04-1.74241E-14
 -1      1429 8.47051E-03-8.50920E-04-1.91051E-14
 -1      1430 8.60165E-03-8.45750E-04-1.97628E-14
 -1      1431 8.40975E-03-8.16014E-04-1.86835E-14
 -1      1432 8.73158E-03-8.32705E-04-2.04336E-14
 -1      1433 8.86096E-03-8.11364E-04-2.11154E-14
 -1      1434 8.68114E-03-8.06284E-04-1.99948E-14
 -1      1435 8.99049E-03-7.81611E-04-2.18086E-14
 -1      1436 9.12085E-03-7.43682E-04-2.25164E-14
 -1      1437 8.94969E-03-7.63685E-04-2.13553E-14
 -1      1438 9.25269E-03-6.98253E-04-2.32330E-14
 -1      1439 9.38652E-03-6.46134E-04-2.39588E-14
 -1      1440 9.21982E-03-6.87360E-04-2.27610E-14
 -1      1441 9.52272E-03-5.88540E-04-2.46999E-14
 -1      1442 9.66153E-03-5.26587E-04-2.54543E-14
 -1      1443 9.49548E-03-5.82243E-04-2.42156E-14
 -1      1444 9.80302E-03-4.61626E-04-2.62245E-14
 -1      1445 9.94713E-03-3.94774E-04-2.70077E-14
 -1      1446 9.77900E-03-4.57287E-04-2.57229E-14
 -1      1447 1.00937E-02-3.27160E-04-2.78016E-14
 -1      1448 1.02423E-02-2.59681E-04-2.86090E-14
 -1      1449 1.00708E-02-3.22592E-04-2.72851E-14
 -1      1450 1.03928E-02-1.93061E-04-2.94280E-14
 -1      1451 1.05448E-02-1.27886E-04-3.02563E-14
 -1      1452 1.03695E-02-1.86861E-04-2.88957E-14
 -1      1453 1.06978E-02-6.44691E-05-3.10947E-14
 -1      1454 1.08515E-02-3.10001E-06-3.19458E-14
 -1      1455 1.06731E-02-5.60277E-05-3.05522E-14
 -1      1456 1.10056E-02 5.62185E-05-3.28036E-14
 -1      1457 1.11597E-02 1.13421E-04-3.36709E-14
 -1      1458 1.09792E-02 6.69092E-05-3.22480E-14
 -1      1459 1.13137E-02 1.68688E-04-3.45544E-14
 -1      1460 1.14673E-02 2.22095E-04-3.54492E-14
 -1      1461 1.12856E-02 1.81278E-04-3.39862E-14
 -1      1462 1.16204E-02 2.73898E-04-3.63581E-14
 -1      1463 1.17728E-02 3.24242E-04-3.72841E-14
 -1      1464 1.15908E-02 2.87887E-04-3.57762E-14
 -1      1465 1.19245E-02 3.73390E-04-3.82256E-14
 -1      1466 1.20753E-02 4.21510E-04-3.91784E-14
 -1      1467 1.18938E-02 3.88270E-04-3.76217E-14
 -1      1468 1.22254E-02 4.68830E-04-4.01434E-14
 -1      1469 1.23746E-02 5.15515E-04-4.11196E-14
 -1      1470 1.21940E-02 4.84155E-04-3.95205E-14
 -1      1471 1.25231E-02 5.61745E-04-4.21067E-14
 -1      1472 1.26707E-02 6.07668E-04-4.31047E-14
 -1      1473 1.24914E-02 5.77163E-04-4.14644E-14
 -1      1474 1.28176E-02 6.53420E-04-4.41123E-14
 -1      1475 1.29639E-02 6.99122E-04-4.51314E-14
 -1      1476 1.27861E-02 6.68668E-04-4.34516E-14
 -1      1477 1.31095E-02 7.44877E-04-4.61584E-14
 -1      1478 1.32546E-02 7.90782E-04-4.71899E-14
 -1      1479 1.30782E-02 7.59775E-04-4.54776E-14
 -1      1480 1.33991E-02 8.36909E-04-4.82269E-14
 -1      1481 1.35432E-02 8.83331E-04-4.92662E-14
 -1      1482 1.33683E-02 8.51334E-04-4.75358E-14
 -1      1483 1.36869E-02 9.30094E-04-5.03087E-14
 -1      1484 1.38303E-02 9.77245E-04-5.13534E-14
 -1      1485 1.36566E-02 9.43980E-04-4.96103E-14
 -1      1486 1.39735E-02 1.02478E-03-5.24039E-14
 -1      1487 1.41165E-02 1.07271E-03-5.34579E-14
 -1      1488 1.39437E-02 1.03813E-03-5.16990E-14
 -1      1489 1.43286E-02 1.14697E-03-5.49744E-14
 -1      1490 1.42990E-02 1.15988E-03-5.42614E-14
 -1      1491 6.42563E-04 3.71821E-04 4.39915E-17
 -1      1492 4.92570E-04 3.03570E-04 3.90177E-17
 -1      1493 4.44562E-04 2.65806E-04 2.81079E-17
 -1      1494 9.27877E-04 4.71570E-04 3.45318E-17
 -1      1495 7.87151E-04 4.26200E-04 4.26498E-17
 -1      1496 7.44190E-04 3.90466E-04 2.65358E-17
 -1      1497 1.20249E-03 5.40656E-04-3.93023E-18
 -1      1498 1.06596E-03 5.09160E-04 1.92310E-17
 -1      1499 1.03000E-03 4.75641E-04-1.47723E-18
 -1      1500 1.47275E-03 5.89367E-04-7.45660E-17
 -1      1501 1.33784E-03 5.67173E-04-3.49520E-17
 -1      1502 1.30768E-03 5.35067E-04-5.97937E-17
 -1      1503 1.74202E-03 6.23586E-04-1.79273E-16
 -1      1504 1.60734E-03 6.08050E-04-1.22217E-16
 -1      1505 1.58169E-03 5.76786E-04-1.50948E-16
 -1      1506 2.01199E-03 6.47132E-04-3.21398E-16
 -1      1507 1.87683E-03 6.36524E-04-2.45572E-16
 -1      1508 1.85468E-03 6.05730E-04-2.78166E-16
 -1      1509 2.28352E-03 6.62693E-04-5.01335E-16
 -1      1510 2.14752E-03 6.55783E-04-4.06535E-16
 -1      1511 2.12807E-03 6.25229E-04-4.43439E-16
 -1      1512 2.55699E-03 6.72244E-04-7.20683E-16
 -1      1513 2.42000E-03 6.68123E-04-6.05839E-16
 -1      1514 2.40263E-03 6.37666E-04-6.47093E-16
 -1      1515 2.83253E-03 6.77244E-04-9.84225E-16
 -1      1516 2.69449E-03 6.75239E-04-8.47033E-16
 -1      1517 2.67873E-03 6.44790E-04-8.91919E-16
 -1      1518 3.11018E-03 6.78768E-04-1.29286E-15
 -1      1519 2.97109E-03 6.78385E-04-1.13306E-15
 -1      1520 2.95655E-03 6.47886E-04-1.18059E-15
 -1      1521 3.38995E-03 6.77591E-04-1.64289E-15
 -1      1522 3.24980E-03 6.78475E-04-1.46237E-15
 -1      1523 3.23618E-03 6.47888E-04-1.51219E-15
 -1      1524 3.67189E-03 6.74261E-04-2.03451E-15
 -1      1525 3.53065E-03 6.76162E-04-1.83379E-15
 -1      1526 3.51770E-03 6.45455E-04-1.88535E-15
 -1      1527 3.95613E-03 6.69161E-04-2.46564E-15
 -1      1528 3.81371E-03 6.71904E-04-2.24479E-15
 -1      1529 3.80123E-03 6.41045E-04-2.29944E-15
 -1      1530 4.24294E-03 6.62570E-04-2.93771E-15
 -1      1531 4.09920E-03 6.66024E-04-2.69623E-15
 -1      1532 4.08698E-03 6.34974E-04-2.75391E-15
 -1      1533 4.53278E-03 6.54727E-04-3.45194E-15
 -1      1534 4.38745E-03 6.58770E-04-3.18967E-15
 -1      1535 4.37527E-03 6.27474E-04-3.24999E-15
 -1      1536 4.82635E-03 6.45905E-04-4.00832E-15
 -1      1537 4.67906E-03 6.50389E-04-3.72510E-15
 -1      1538 4.66664E-03 6.18766E-04-3.78774E-15
 -1      1539 5.12466E-03 6.36520E-04-4.60088E-15
 -1      1540 4.97485E-03 6.41209E-04-4.29997E-15
 -1      1541 4.96180E-03 6.09143E-04-4.36479E-15
 -1      1542 5.42906E-03 6.27276E-04-5.23408E-15
 -1      1543 5.27600E-03 6.31767E-04-4.91294E-15
 -1      1544 5.26178E-03 5.99093E-04-4.97986E-15
 -1      1545 5.74138E-03 6.19396E-04-5.90734E-15
 -1      1546 5.58411E-03 6.22991E-04-5.56533E-15
 -1      1547 5.56791E-03 5.89479E-04-5.63469E-15
 -1      1548 6.06390E-03 6.14979E-04-6.61680E-15
 -1      1549 5.90121E-03 6.16491E-04-6.25671E-15
 -1      1550 5.88188E-03 5.81823E-04-6.32872E-15
 -1      1551 6.39928E-03 6.17539E-04-7.36959E-15
 -1      1552 6.22979E-03 6.15000E-04-6.98835E-15
 -1      1553 6.20570E-03 5.78745E-04-7.06421E-15
 -1      1554 6.75031E-03 6.32786E-04-8.16601E-15
 -1      1555 6.57265E-03 6.23034E-04-7.76186E-15
 -1      1556 6.54161E-03 5.84629E-04-7.84161E-15
 -1      1557 7.11918E-03 6.69556E-04-9.00387E-15
 -1      1558 6.93238E-03 6.47776E-04-8.58050E-15
 -1      1559 6.89170E-03 6.06518E-04-8.66210E-15
 -1      1560 7.50611E-03 7.40430E-04-9.88019E-15
 -1      1561 7.31044E-03 6.99946E-04-9.43737E-15
 -1      1562 7.25730E-03 6.55054E-04-9.51972E-15
 -1      1563 7.90734E-03 8.60597E-04-1.07927E-14
 -1      1564 7.70539E-03 7.93784E-04-1.03311E-14
 -1      1565 7.63792E-03 7.44635E-04-1.04169E-14
 -1      1566 8.31265E-03 1.04213E-03-1.17444E-14
 -1      1567 8.11051E-03 9.43994E-04-1.12637E-14
 -1      1568 8.02969E-03 8.90746E-04-1.13510E-14
 -1      1569 8.70472E-03 1.28061E-03-1.27468E-14
 -1      1570 8.51182E-03 1.15634E-03-1.22390E-14
 -1      1571 8.42371E-03 1.10100E-03-1.23286E-14
 -1      1572 9.06417E-03 1.53818E-03-1.37969E-14
 -1      1573 8.88959E-03 1.41126E-03-1.32654E-14
 -1      1574 8.80593E-03 1.35848E-03-1.33546E-14
 -1      1575 9.38314E-03 1.74140E-03-1.48985E-14
 -1      1576 9.22812E-03 1.65138E-03-1.43410E-14
 -1      1577 9.16272E-03 1.60671E-03-1.44313E-14
 -1      1578 9.67855E-03 1.81756E-03-1.60651E-14
 -1      1579 9.53147E-03 1.79714E-03-1.54734E-14
 -1      1580 9.49370E-03 1.76228E-03-1.55668E-14
 -1      1581 9.98511E-03 1.75133E-03-1.73055E-14
 -1      1582 9.82815E-03 1.79913E-03-1.66752E-14
 -1      1583 9.81847E-03 1.76946E-03-1.67708E-14
 -1      1584 1.03287E-02 1.59949E-03-1.86157E-14
 -1      1585 1.01517E-02 1.68073E-03-1.79527E-14
 -1      1586 1.01621E-02 1.64965E-03-1.80489E-14
 -1      1587 1.07101E-02 1.44167E-03-1.99860E-14
 -1      1588 1.05156E-02 1.51729E-03-1.92939E-14
 -1      1589 1.05337E-02 1.48166E-03-1.93919E-14
 -1      1590 1.11126E-02 1.33144E-03-2.14220E-14
 -1      1591 1.09101E-02 1.37930E-03-2.06948E-14
 -1      1592 1.09239E-02 1.33954E-03-2.07973E-14
 -1      1593 1.15169E-02 1.28386E-03-2.29181E-14
 -1      1594 1.13156E-02 1.30025E-03-2.21622E-14
 -1      1595 1.13180E-02 1.25813E-03-2.22657E-14
 -1      1596 1.19098E-02 1.29107E-03-2.44949E-14
 -1      1597 1.17153E-02 1.28164E-03-2.36966E-14
 -1      1598 1.17044E-02 1.23875E-03-2.38024E-14
 -1      1599 1.22855E-02 1.33792E-03-2.61369E-14
 -1      1600 1.21000E-02 1.31050E-03-2.53072E-14
 -1      1601 1.20770E-02 1.26785E-03-2.54082E-14
 -1      1602 1.26427E-02 1.41048E-03-2.78538E-14
 -1      1603 1.24663E-02 1.37169E-03-2.69867E-14
 -1      1604 1.24341E-02 1.32982E-03-2.70822E-14
 -1      1605 1.29834E-02 1.49849E-03-2.96153E-14
 -1      1606 1.28150E-02 1.45303E-03-2.87309E-14
 -1      1607 1.27761E-02 1.41215E-03-2.88172E-14
 -1      1608 1.33100E-02 1.59514E-03-3.14118E-14
 -1      1609 1.31483E-02 1.54604E-03-3.05090E-14
 -1      1610 1.31051E-02 1.50617E-03-3.05951E-14
 -1      1611 1.36255E-02 1.69611E-03-3.32428E-14
 -1      1612 1.34690E-02 1.64527E-03-3.23245E-14
 -1      1613 1.34231E-02 1.60632E-03-3.24082E-14
 -1      1614 1.39323E-02 1.79877E-03-3.51051E-14
 -1      1615 1.37799E-02 1.74735E-03-3.41688E-14
 -1      1616 1.37324E-02 1.70919E-03-3.42549E-14
 -1      1617 1.42325E-02 1.90155E-03-3.69908E-14
 -1      1618 1.40831E-02 1.85022E-03-3.60457E-14
 -1      1619 1.40349E-02 1.81273E-03-3.61301E-14
 -1      1620 1.45276E-02 2.00345E-03-3.89015E-14
 -1      1621 1.43806E-02 1.95265E-03-3.79445E-14
 -1      1622 1.43321E-02 1.91572E-03-3.80285E-14
 -1      1623 1.48191E-02 2.10390E-03-4.08291E-14
 -1      1624 1.46738E-02 2.05389E-03-3.98620E-14
 -1      1625 1.46254E-02 2.01740E-03-3.99451E-14
 -1      1626 1.51079E-02 2.20250E-03-4.27689E-14
 -1      1627 1.49638E-02 2.15344E-03-4.17969E-14
 -1      1628 1.49157E-02 2.11732E-03-4.18773E-14
 -1      1629 1.53950E-02 2.29906E-03-4.47170E-14
 -1      1630 1.52516E-02 2.25103E-03-4.37425E-14
 -1      1631 1.52039E-02 2.21520E-03-4.38213E-14
 -1      1632 1.56810E-02 2.39368E-03-4.66792E-14
 -1      1633 1.55381E-02 2.34658E-03-4.56974E-14
 -1      1634 1.54907E-02 2.31096E-03-4.57766E-14
 -1      1635 1.58180E-02 2.43157E-03-4.77615E-14
 -1      1636 1.57157E-02 2.33033E-03-4.84275E-14
 -1      1637 1.57612E-02 2.37231E-03-4.81939E-14
 -1      1638 1.56260E-02 2.24697E-03-4.88848E-14
 -1      1639 1.56706E-02 2.28852E-03-4.86603E-14
 -1      1640 1.55694E-02 2.26911E-03-4.76863E-14
 -1      1641 1.55378E-02 2.16483E-03-4.93275E-14
 -1      1642 1.55818E-02 2.20572E-03-4.91041E-14
 -1      1643 1.54803E-02 2.18626E-03-4.81377E-14
 -1      1644 1.54503E-02 2.08420E-03-4.97804E-14
 -1      1645 1.54940E-02 2.12432E-03-4.95531E-14
 -1      1646 1.53926E-02 2.10466E-03-4.85871E-14
 -1      1647 1.53640E-02 2.00642E-03-5.02396E-14
 -1      1648 1.54072E-02 2.04513E-03-5.00089E-14
 -1      1649 1.53061E-02 2.02511E-03-4.90403E-14
 -1      1650 1.52750E-02 1.92857E-03-5.07069E-14
 -1      1651 1.53197E-02 1.96735E-03-5.04734E-14
 -1      1652 1.52190E-02 1.94683E-03-4.94977E-14
 -1      1653 1.51843E-02 1.85157E-03-5.11647E-14
 -1      1654 1.52299E-02 1.88999E-03-5.09370E-14
 -1      1655 1.51298E-02 1.86890E-03-4.99560E-14
 -1      1656 1.50913E-02 1.77486E-03-5.16280E-14
 -1      1657 1.51381E-02 1.81321E-03-5.13963E-14
 -1      1658 1.50385E-02 1.79157E-03-5.04129E-14
 -1      1659 1.49962E-02 1.69787E-03-5.20877E-14
 -1      1660 1.50440E-02 1.73643E-03-5.18604E-14
 -1      1661 1.49450E-02 1.71435E-03-5.08687E-14
 -1      1662 1.48992E-02 1.62008E-03-5.25459E-14
 -1      1663 1.49479E-02 1.65910E-03-5.23162E-14
 -1      1664 1.48493E-02 1.63675E-03-5.13199E-14
 -1      1665 1.48025E-02 1.54245E-03-5.29991E-14
 -1      1666 1.48510E-02 1.58143E-03-5.27732E-14
 -1      1667 1.47526E-02 1.55901E-03-5.17657E-14
 -1      1668 1.47037E-02 1.46210E-03-5.34607E-14
 -1      1669 1.47532E-02 1.50245E-03-5.32324E-14
 -1      1670 1.46547E-02 1.48019E-03-5.22159E-14
 -1      1671 1.46051E-02 1.38033E-03-5.39048E-14
 -1      1672 1.46544E-02 1.42138E-03-5.36861E-14
 -1      1673 1.45557E-02 1.39945E-03-5.26651E-14
 -1      1674 1.45075E-02 1.29734E-03-5.43313E-14
 -1      1675 1.45562E-02 1.33897E-03-5.41211E-14
 -1      1676 1.44571E-02 1.31747E-03-5.30992E-14
 -1      1677 1.43790E-02 1.20770E-03-5.44029E-14
 -1      1678 1.44271E-02 1.24964E-03-5.41899E-14
 -1      1679 1.43275E-02 1.22862E-03-5.31732E-14
 -1      1680 1.41669E-02 1.13348E-03-5.28926E-14
 -1      1681 1.16285E-02 7.01573E-04-2.09829E-14
 -1      1682 1.16382E-02 6.58159E-04-2.10947E-14
 -1      1683 1.15079E-02 8.07444E-04-2.06470E-14
 -1      1684 1.15817E-02 7.54277E-04-2.08413E-14
 -1      1685 1.12746E-02 9.50630E-04-2.01184E-14
 -1      1686 1.13948E-02 8.84434E-04-2.03564E-14
 -1      1687 1.09557E-02 1.11549E-03-1.95368E-14
 -1      1688 1.11121E-02 1.03581E-03-1.98143E-14
 -1      1689 1.05546E-02 1.29996E-03-1.88634E-14
 -1      1690 1.07427E-02 1.20932E-03-1.91934E-14
 -1      1691 1.01590E-02 1.46772E-03-1.81606E-14
 -1      1692 1.03399E-02 1.39742E-03-1.84742E-14
 -1      1693 9.74848E-03 1.57390E-03-1.74477E-14
 -1      1694 9.93658E-03 1.53495E-03-1.77774E-14
 -1      1695 9.31831E-03 1.57388E-03-1.67316E-14
 -1      1696 9.51959E-03 1.58831E-03-1.70584E-14
 -1      1697 8.87991E-03 1.45699E-03-1.60879E-14
 -1      1698 9.08148E-03 1.52421E-03-1.63715E-14
 -1      1699 8.43460E-03 1.26040E-03-1.55716E-14
 -1      1700 8.63715E-03 1.35818E-03-1.57980E-14
 -1      1701 7.97085E-03 9.82351E-04-1.50523E-14
 -1      1702 8.20317E-03 1.11174E-03-1.52541E-14
 -1      1703 7.55668E-03 7.90290E-04-1.48465E-14
 -1      1704 7.71436E-03 8.76431E-04-1.49437E-14
 -1      1705 7.25001E-03 6.20320E-04-1.47158E-14
 -1      1706 7.38369E-03 6.96134E-04-1.47629E-14
 -1      1707 7.05040E-03 4.84701E-04-1.47180E-14
 -1      1708 7.12646E-03 5.42828E-04-1.46991E-14
 -1      1709 6.99449E-03 3.74697E-04-1.48618E-14
 -1      1710 7.00135E-03 4.23494E-04-1.47774E-14
 -1      1711 7.08802E-03 2.71465E-04-1.51208E-14
 -1      1712 7.02686E-03 3.19771E-04-1.49807E-14
 -1      1713 7.30697E-03 1.47713E-04-1.55157E-14
 -1      1714 7.19167E-03 2.06073E-04-1.53259E-14
 -1      1715 7.63391E-03 9.33805E-06-1.59988E-14
 -1      1716 7.47477E-03 8.02235E-05-1.57528E-14
 -1      1717 7.99432E-03-1.48228E-04-1.65831E-14
 -1      1718 7.82545E-03-7.79753E-05-1.63141E-14
 -1      1719 8.37132E-03-2.89590E-04-1.72275E-14
 -1      1720 8.19319E-03-2.28088E-04-1.69241E-14
 -1      1721 8.77540E-03-3.90652E-04-1.79235E-14
 -1      1722 8.59864E-03-3.51121E-04-1.75964E-14
 -1      1723 9.15655E-03-4.09406E-04-1.86292E-14
 -1      1724 8.98054E-03-4.09055E-04-1.83091E-14
 -1      1725 9.54758E-03-3.48767E-04-1.92942E-14
 -1      1726 9.36714E-03-3.85758E-04-1.89911E-14
 -1      1727 9.92896E-03-2.23600E-04-1.99054E-14
 -1      1728 9.75261E-03-2.88677E-04-1.96393E-14
 -1      1729 1.03428E-02-5.04872E-05-2.04261E-14
 -1      1730 1.01513E-02-1.36155E-04-2.01896E-14
 -1      1731 1.07396E-02 1.42309E-04-2.08496E-14
 -1      1732 1.05572E-02 5.49204E-05-2.06803E-14
 -1      1733 1.10755E-02 2.97646E-04-2.10885E-14
 -1      1734 1.09333E-02 2.29230E-04-2.09912E-14
 -1      1735 1.13334E-02 4.12423E-04-2.11807E-14
 -1      1736 1.12258E-02 3.57688E-04-2.11307E-14
 -1      1737 1.15136E-02 5.23818E-04-2.12594E-14
 -1      1738 1.14366E-02 4.79467E-04-2.12561E-14
 -1      1739 1.16136E-02 6.02332E-04-2.11625E-14
 -1      1740 1.15737E-02 5.62066E-04-2.12096E-14
 -1      1741 1.15393E-02 5.77824E-04-2.15247E-14
 -1      1742 1.07892E-02 1.12364E-03-1.94926E-14
 -1      1743 1.11571E-02 9.43431E-04-2.01480E-14
 -1      1744 1.57708E-02 2.39603E-03-4.78432E-14
 -1      1745 1.56241E-02 2.33448E-03-4.71062E-14
 -1      1746 1.16096E-02 7.11368E-04-2.11899E-14
 -1      1747 1.14405E-02 8.01427E-04-2.07502E-14
 -1      1748 1.16354E-02 6.41969E-04-2.14046E-14
 -1      1749 1.03905E-02 1.33077E-03-1.87526E-14
 -1      1750 9.99930E-03 1.51303E-03-1.79747E-14
 -1      1751 9.62276E-03 1.60993E-03-1.72012E-14
 -1      1752 9.23294E-03 1.57478E-03-1.64549E-14
 -1      1753 8.82507E-03 1.41042E-03-1.58112E-14
 -1      1754 8.38415E-03 1.14812E-03-1.52108E-14
 -1      1755 7.92561E-03 8.76833E-04-1.47954E-14
 -1      1756 7.50440E-03 6.76810E-04-1.46092E-14
 -1      1757 7.19889E-03 5.29269E-04-1.45118E-14
 -1      1758 7.01875E-03 4.29433E-04-1.45548E-14
 -1      1759 7.00173E-03 3.55481E-04-1.47300E-14
 -1      1760 7.14477E-03 2.75599E-04-1.50487E-14
 -1      1761 7.42074E-03 1.61331E-04-1.54858E-14
 -1      1762 7.77631E-03 9.41096E-06-1.60306E-14
 -1      1763 8.15042E-03-1.66941E-04-1.66806E-14
 -1      1764 8.53851E-03-3.24095E-04-1.73859E-14
 -1      1765 8.89289E-03-4.23190E-04-1.81386E-14
 -1      1766 9.24442E-03-4.23436E-04-1.88868E-14
 -1      1767 9.60089E-03-3.32021E-04-1.95989E-14
 -1      1768 9.97342E-03-1.66927E-04-2.02347E-14
 -1      1769 1.03794E-02 4.13217E-05-2.07807E-14
 -1      1770 1.07732E-02 2.41839E-04-2.11875E-14
 -1      1771 1.11134E-02 3.87430E-04-2.13791E-14
 -1      1772 1.13707E-02 5.00694E-04-2.14992E-14
 -1      1773 2.85043E-04-1.76192E-04-3.32986E-17
 -1      1774 3.32126E-04-1.16790E-04-6.62854E-17
 -1      1775 3.36185E-04-1.32989E-04-6.52961E-17
 -1      1776 3.42090E-04-1.51984E-04-6.33716E-17
 -1      1777 3.51602E-04-1.73980E-04-5.98209E-17
 -1      1778 4.58179E-04-1.88007E-04-9.53827E-17
 -1      1779 3.24666E-04-6.53778E-05-6.47540E-17
 -1      1780 3.25787E-04-7.66721E-05-6.59466E-17
 -1      1781 3.23219E-04-4.38839E-05-6.20299E-17
 -1      1782 3.23852E-04-5.43726E-05-6.35885E-17
 -1      1783 4.36662E-04-7.92531E-05-9.46102E-17
 -1      1784 3.22462E-04-2.37691E-05-5.86011E-17
 -1      1785 3.22782E-04-3.36802E-05-6.03901E-17
 -1      1786 4.34718E-04-5.12902E-05-9.03683E-17
 -1      1787 3.22181E-04-4.34009E-06-5.43050E-17
 -1      1788 3.22273E-04-1.39894E-05-5.65547E-17
 -1      1789 4.33728E-04-2.49118E-05-8.50828E-17
 -1      1790 3.22300E-04 1.49726E-05-4.98869E-17
 -1      1791 3.22190E-04 5.31271E-06-5.21501E-17
 -1      1792 4.33442E-04 7.51510E-07-7.89977E-17
 -1      1793 3.22849E-04 3.47188E-05-4.48182E-17
 -1      1794 3.22508E-04 2.47740E-05-4.76236E-17
 -1      1795 4.33790E-04 2.64448E-05-7.24654E-17
 -1      1796 3.23945E-04 5.51570E-05-3.82723E-17
 -1      1797 3.23300E-04 4.47936E-05-4.17553E-17
 -1      1798 4.34839E-04 5.26877E-05-6.46049E-17
 -1      1799 3.25951E-04 7.78118E-05-3.06016E-17
 -1      1800 3.24780E-04 6.62289E-05-3.47893E-17
 -1      1801 4.36844E-04 8.05600E-05-5.53079E-17
 -1      1802 3.29568E-04 1.03653E-04-2.12504E-17
 -1      1803 3.27458E-04 9.03018E-05-2.63732E-17
 -1      1804 4.40418E-04 1.11527E-04-4.41812E-17
 -1      1805 3.36514E-04 1.35107E-04-8.82270E-18
 -1      1806 3.32378E-04 1.18612E-04-1.55041E-17
 -1      1807 4.46787E-04 1.47293E-04-3.00866E-17
 -1      1808 3.52133E-04 1.77579E-04 6.72205E-18
 -1      1809 3.42693E-04 1.54747E-04-1.73472E-18
 -1      1810 4.59195E-04 1.91402E-04-1.23328E-17
 -1      1811 4.07431E-04 2.33619E-04 2.02475E-17
 -1      1812 3.77876E-04 2.02619E-04 1.23599E-17
 -1      1813 4.95609E-04 2.43909E-04 4.56720E-18
 -1      1814 5.58176E-04 3.02369E-04 2.04779E-17
 -1      1815 3.39816E-04-1.90867E-04-4.90601E-17
 -1      1816 8.52996E-04 4.06773E-04 2.76472E-18
 -1      1817 7.06692E-04 3.59150E-04 1.48807E-17
 -1      1818 6.73007E-04 3.28611E-04 4.63496E-18
 -1      1819 4.58707E-04-2.36639E-04-7.94585E-17
 -1      1820 8.06763E-04-3.73809E-04-1.97758E-16
 -1      1821 9.51947E-04-4.14851E-04-2.69262E-16
 -1      1822 1.09471E-03-4.49360E-04-3.52095E-16
 -1      1823 1.23630E-03-4.78044E-04-4.46393E-16
 -1      1824 1.00348E-03-3.97404E-04-3.15869E-16
 -1      1825 1.37663E-03-5.02275E-04-5.51832E-16
 -1      1826 1.51626E-03-5.22350E-04-6.68912E-16
 -1      1827 1.28906E-03-4.54940E-04-5.03856E-16
 -1      1828 1.65538E-03-5.39179E-04-7.97485E-16
 -1      1829 1.79418E-03-5.52998E-04-9.37279E-16
 -1      1830 1.57139E-03-4.95289E-04-7.36634E-16
 -1      1831 1.93288E-03-5.64405E-04-1.08853E-15
 -1      1832 2.07154E-03-5.73600E-04-1.25124E-15
 -1      1833 1.85198E-03-5.23015E-04-1.01430E-15
 -1      1834 2.21032E-03-5.80990E-04-1.42541E-15
 -1      1835 2.34923E-03-5.86742E-04-1.61062E-15
 -1      1836 2.13193E-03-5.41406E-04-1.33690E-15
 -1      1837 2.48838E-03-5.91140E-04-1.80712E-15
 -1      1838 2.62776E-03-5.94321E-04-2.01530E-15
 -1      1839 2.41196E-03-5.52854E-04-1.70403E-15
 -1      1840 2.76745E-03-5.96484E-04-2.23454E-15
 -1      1841 2.90742E-03-5.97739E-04-2.46411E-15
 -1      1842 2.69253E-03-5.59126E-04-2.11571E-15
 -1      1843 3.04774E-03-5.98226E-04-2.70507E-15
 -1      1844 3.18838E-03-5.98032E-04-2.95648E-15
 -1      1845 2.97391E-03-5.61527E-04-2.57158E-15
 -1      1846 3.32938E-03-5.97254E-04-3.21902E-15
 -1      1847 3.47074E-03-5.95964E-04-3.49226E-15
 -1      1848 3.25628E-03-5.61016E-04-3.07024E-15
 -1      1849 3.61249E-03-5.94231E-04-3.77587E-15
 -1      1850 3.75462E-03-5.92113E-04-4.07062E-15
 -1      1851 3.53977E-03-5.58303E-04-3.61209E-15
 -1      1852 3.89716E-03-5.89665E-04-4.37501E-15
 -1      1853 4.04012E-03-5.86940E-04-4.68978E-15
 -1      1854 3.82450E-03-5.53923E-04-4.19638E-15
 -1      1855 4.18351E-03-5.83989E-04-5.01498E-15
 -1      1856 4.32737E-03-5.80866E-04-5.35046E-15
 -1      1857 4.11059E-03-5.48312E-04-4.82130E-15
 -1      1858 4.47171E-03-5.77629E-04-5.69592E-15
 -1      1859 4.61657E-03-5.74343E-04-6.05122E-15
 -1      1860 4.39819E-03-5.41882E-04-5.48777E-15
 -1      1861 4.76196E-03-5.71083E-04-6.41811E-15
 -1      1862 4.90792E-03-5.67929E-04-6.79369E-15
 -1      1863 4.68748E-03-5.35092E-04-6.19497E-15
 -1      1864 5.05447E-03-5.64991E-04-7.17822E-15
 -1      1865 5.20164E-03-5.62367E-04-7.57365E-15
 -1      1866 4.97867E-03-5.28525E-04-6.94148E-15
 -1      1867 5.34945E-03-5.60213E-04-7.97967E-15
 -1      1868 5.49792E-03-5.58651E-04-8.39441E-15
 -1      1869 5.27199E-03-5.22969E-04-7.72705E-15
 -1      1870 5.64707E-03-5.57885E-04-8.81771E-15
 -1      1871 5.79688E-03-5.58064E-04-9.25138E-15
 -1      1872 5.56766E-03-5.19476E-04-8.55171E-15
 -1      1873 5.94736E-03-5.59437E-04-9.69426E-15
 -1      1874 6.09844E-03-5.62168E-04-1.01460E-14
 -1      1875 5.86585E-03-5.19404E-04-9.41308E-15
 -1      1876 6.25015E-03-5.66529E-04-1.06086E-14
 -1      1877 6.40229E-03-5.72676E-04-1.10813E-14
 -1      1878 6.16664E-03-5.24383E-04-1.03144E-14
 -1      1879 6.55494E-03-5.80855E-04-1.15635E-14
 -1      1880 6.70775E-03-5.91169E-04-1.20559E-14
 -1      1881 6.46989E-03-5.36179E-04-1.12543E-14
 -1      1882 6.86083E-03-6.03747E-04-1.25597E-14
 -1      1883 7.01367E-03-6.18570E-04-1.30754E-14
 -1      1884 6.77517E-03-5.56369E-04-1.22353E-14
 -1      1885 7.16640E-03-6.35531E-04-1.36045E-14
 -1      1886 7.31841E-03-6.54386E-04-1.41449E-14
 -1      1887 7.08158E-03-5.85768E-04-1.32622E-14
 -1      1888 7.46979E-03-6.74665E-04-1.46970E-14
 -1      1889 7.61993E-03-6.95805E-04-1.52605E-14
 -1      1890 7.38769E-03-6.23602E-04-1.43372E-14
 -1      1891 7.76889E-03-7.16890E-04-1.58365E-14
 -1      1892 7.91620E-03-7.36993E-04-1.64245E-14
 -1      1893 7.69154E-03-6.66541E-04-1.54592E-14
 -1      1894 8.06183E-03-7.54800E-04-1.70252E-14
 -1      1895 8.20574E-03-7.69114E-04-1.76396E-14
 -1      1896 7.99099E-03-7.07979E-04-1.66292E-14
 -1      1897 8.34777E-03-7.78458E-04-1.82668E-14
 -1      1898 8.48844E-03-7.81631E-04-1.89060E-14
 -1      1899 8.28441E-03-7.38186E-04-1.78524E-14
 -1      1900 8.62755E-03-7.77401E-04-1.95582E-14
 -1      1901 8.76610E-03-7.64962E-04-2.02235E-14
 -1      1902 8.57167E-03-7.45949E-04-1.91258E-14
 -1      1903 8.90387E-03-7.43752E-04-2.09016E-14
 -1      1904 9.04213E-03-7.13655E-04-2.15908E-14
 -1      1905 8.85470E-03-7.21742E-04-2.04502E-14
 -1      1906 9.18065E-03-6.74996E-04-2.22928E-14
 -1      1907 9.32055E-03-6.28404E-04-2.30066E-14
 -1      1908 9.13716E-03-6.61169E-04-2.18252E-14
 -1      1909 9.46162E-03-5.74961E-04-2.37322E-14
 -1      1910 9.60452E-03-5.15793E-04-2.44705E-14
 -1      1911 9.42290E-03-5.66730E-04-2.32498E-14
 -1      1912 9.74909E-03-4.52353E-04-2.52221E-14
 -1      1913 9.89542E-03-3.85869E-04-2.59890E-14
 -1      1914 9.71445E-03-4.46805E-04-2.47246E-14
 -1      1915 1.00435E-02-3.17734E-04-2.67698E-14
 -1      1916 1.01928E-02-2.48968E-04-2.75607E-14
 -1      1917 1.00122E-02-3.12472E-04-2.62531E-14
 -1      1918 1.03436E-02-1.80610E-04-2.83646E-14
 -1      1919 1.04951E-02-1.13327E-04-2.91817E-14
 -1      1920 1.03150E-02-1.74113E-04-2.78359E-14
 -1      1921 1.06475E-02-4.77088E-05-3.00078E-14
 -1      1922 1.08001E-02 1.59227E-05-3.08463E-14
 -1      1923 1.06206E-02-3.92863E-05-2.94652E-14
 -1      1924 1.09531E-02 7.73731E-05-3.16935E-14
 -1      1925 1.11059E-02 1.36573E-04-3.25506E-14
 -1      1926 1.09270E-02 8.78134E-05-3.11394E-14
 -1      1927 1.12587E-02 1.93603E-04-3.34202E-14
 -1      1928 1.14110E-02 2.48544E-04-3.43019E-14
 -1      1929 1.12325E-02 2.05811E-04-3.28559E-14
 -1      1930 1.15629E-02 3.01626E-04-3.51970E-14
 -1      1931 1.17142E-02 3.53001E-04-3.61031E-14
 -1      1932 1.15363E-02 3.15201E-04-3.46165E-14
 -1      1933 1.18649E-02 4.02949E-04-3.70210E-14
 -1      1934 1.20150E-02 4.51641E-04-3.79547E-14
 -1      1935 1.18377E-02 4.17457E-04-3.64275E-14
 -1      1936 1.21645E-02 4.99347E-04-3.89014E-14
 -1      1937 1.23133E-02 5.46229E-04-3.98592E-14
 -1      1938 1.21365E-02 5.14393E-04-3.82864E-14
 -1      1939 1.24614E-02 5.92519E-04-4.08264E-14
 -1      1940 1.26089E-02 6.38355E-04-4.18051E-14
 -1      1941 1.24328E-02 6.07773E-04-4.01934E-14
 -1      1942 1.27558E-02 6.83922E-04-4.27975E-14
 -1      1943 1.29021E-02 7.29333E-04-4.37955E-14
 -1      1944 1.27267E-02 6.99124E-04-4.21447E-14
 -1      1945 1.30479E-02 7.74729E-04-4.48038E-14
 -1      1946 1.31933E-02 8.20201E-04-4.58227E-14
 -1      1947 1.30186E-02 7.89682E-04-4.41369E-14
 -1      1948 1.33381E-02 8.65849E-04-4.68483E-14
 -1      1949 1.34826E-02 9.11749E-04-4.78784E-14
 -1      1950 1.33087E-02 8.80405E-04-4.61634E-14
 -1      1951 1.36267E-02 9.57964E-04-4.89135E-14
 -1      1952 1.37705E-02 1.00456E-03-4.99521E-14
 -1      1953 1.35974E-02 9.72016E-04-4.82200E-14
 -1      1954 1.38972E-02 1.04497E-03-5.08947E-14
 -1      1955 1.40405E-02 1.09235E-03-5.19419E-14
 -1      1956 1.41209E-02 1.13987E-03-5.20813E-14
 -1      1957 1.38679E-02 1.05849E-03-5.01933E-14
 -1      1958 1.13785E-03 4.79411E-04-4.26769E-17
 -1      1959 9.96180E-04 4.46339E-04-1.60597E-17
 -1      1960 9.63909E-04 4.16919E-04-2.95987E-17
 -1      1961 1.41678E-03 5.30414E-04-1.20374E-16
 -1      1962 1.27772E-03 5.07225E-04-7.74798E-17
 -1      1963 1.24823E-03 4.79132E-04-9.36344E-17
 -1      1964 1.69300E-03 5.66039E-04-2.31558E-16
 -1      1965 1.55505E-03 5.49906E-04-1.71317E-16
 -1      1966 1.52836E-03 5.22788E-04-1.90386E-16
 -1      1967 1.96847E-03 5.90415E-04-3.80365E-16
 -1      1968 1.83074E-03 5.79466E-04-3.01151E-16
 -1      1969 1.80651E-03 5.52996E-04-3.22659E-16
 -1      1970 2.24429E-03 6.06436E-04-5.67431E-16
 -1      1971 2.10629E-03 5.99348E-04-4.69107E-16
 -1      1972 2.08411E-03 5.73296E-04-4.93014E-16
 -1      1973 2.52109E-03 6.16206E-04-7.93731E-16
 -1      1974 2.38255E-03 6.12012E-04-6.75634E-16
 -1      1975 2.36202E-03 5.86220E-04-7.02306E-16
 -1      1976 2.79919E-03 6.21268E-04-1.06231E-15
 -1      1977 2.65996E-03 6.19258E-04-9.22317E-16
 -1      1978 2.64075E-03 5.93619E-04-9.51387E-16
 -1      1979 3.07878E-03 6.22749E-04-1.37368E-15
 -1      1980 2.93879E-03 6.22407E-04-1.21253E-15
 -1      1981 2.92059E-03 5.96849E-04-1.24244E-15
 -1      1982 3.35998E-03 6.21451E-04-1.72698E-15
 -1      1983 3.21918E-03 6.22411E-04-1.54531E-15
 -1      1984 3.20174E-03 5.96885E-04-1.57652E-15
 -1      1985 3.64292E-03 6.17937E-04-2.12260E-15
 -1      1986 3.50123E-03 6.19945E-04-1.91973E-15
 -1      1987 3.48431E-03 5.94413E-04-1.95257E-15
 -1      1988 3.92774E-03 6.12584E-04-2.55876E-15
 -1      1989 3.78508E-03 6.15469E-04-2.33524E-15
 -1      1990 3.76848E-03 5.89904E-04-2.36962E-15
 -1      1991 4.21471E-03 6.05656E-04-3.03539E-15
 -1      1992 4.07094E-03 6.09298E-04-2.79160E-15
 -1      1993 4.05441E-03 5.83670E-04-2.82786E-15
 -1      1994 4.50420E-03 5.97358E-04-3.55338E-15
 -1      1995 4.35911E-03 6.01656E-04-3.28932E-15
 -1      1996 4.34240E-03 5.75932E-04-3.32686E-15
 -1      1997 4.79675E-03 5.87913E-04-4.11284E-15
 -1      1998 4.65005E-03 5.92747E-04-3.82801E-15
 -1      1999 4.63282E-03 5.66881E-04-3.86694E-15
 -1      2000 5.09311E-03 5.77663E-04-4.70927E-15
 -1      2001 4.94439E-03 5.82840E-04-4.40669E-15
 -1      2002 4.92621E-03 5.56765E-04-4.44726E-15
 -1      2003 5.39425E-03 5.67210E-04-5.34506E-15
 -1      2004 5.24299E-03 5.72385E-04-5.02244E-15
 -1      2005 5.22328E-03 5.46003E-04-5.06396E-15
 -1      2006 5.70143E-03 5.57634E-04-6.02242E-15
 -1      2007 5.54696E-03 5.62191E-04-5.67850E-15
 -1      2008 5.52492E-03 5.35351E-04-5.72123E-15
 -1      2009 6.01619E-03 5.50838E-04-6.73795E-15
 -1      2010 5.85771E-03 5.53698E-04-6.37514E-15
 -1      2011 5.83224E-03 5.26173E-04-6.41963E-15
 -1      2012 6.34030E-03 5.50071E-04-7.49747E-15
 -1      2013 6.17689E-03 5.49406E-04-7.11235E-15
 -1      2014 6.14658E-03 5.20841E-04-7.15975E-15
 -1      2015 6.67566E-03 5.60697E-04-8.29804E-15
 -1      2016 6.50638E-03 5.53517E-04-7.89286E-15
 -1      2017 6.46946E-03 5.23354E-04-7.94185E-15
 -1      2018 7.02402E-03 5.91158E-04-9.13728E-15
 -1      2019 6.84806E-03 5.72813E-04-8.71307E-15
 -1      2020 6.80262E-03 5.40186E-04-8.76405E-15
 -1      2021 7.38660E-03 6.53781E-04-1.00167E-14
 -1      2022 7.20353E-03 6.17622E-04-9.57127E-15
 -1      2023 7.14798E-03 5.81262E-04-9.62261E-15
 -1      2024 7.76336E-03 7.64228E-04-1.09315E-14
 -1      2025 7.57354E-03 7.02159E-04-1.04695E-14
 -1      2026 7.50754E-03 6.60482E-04-1.05207E-14
 -1      2027 8.15160E-03 9.37085E-04-1.18880E-14
 -1      2028 7.95697E-03 8.42538E-04-1.14049E-14
 -1      2029 7.88287E-03 7.94342E-04-1.14568E-14
 -1      2030 8.54358E-03 1.17338E-03-1.28883E-14
 -1      2031 8.34863E-03 1.04858E-03-1.23824E-14
 -1      2032 8.27270E-03 9.94995E-04-1.24343E-14
 -1      2033 8.92570E-03 1.44154E-03-1.39395E-14
 -1      2034 8.73737E-03 1.30756E-03-1.34074E-14
 -1      2035 8.66875E-03 1.25421E-03-1.34582E-14
 -1      2036 9.28474E-03 1.66611E-03-1.50437E-14
 -1      2037 9.10766E-03 1.56486E-03-1.44841E-14
 -1      2038 9.05422E-03 1.52106E-03-1.45345E-14
 -1      2039 9.62595E-03 1.76090E-03-1.62153E-14
 -1      2040 9.45499E-03 1.73244E-03-1.56211E-14
 -1      2041 9.41785E-03 1.70242E-03-1.56720E-14
 -1      2042 9.97258E-03 1.69857E-03-1.74555E-14
 -1      2043 9.79588E-03 1.74614E-03-1.68259E-14
 -1      2044 9.77251E-03 1.72377E-03-1.68775E-14
 -1      2045 1.03421E-02 1.53967E-03-1.87666E-14
 -1      2046 1.01541E-02 1.62544E-03-1.81027E-14
 -1      2047 1.01425E-02 1.60096E-03-1.81551E-14
 -1      2048 1.07301E-02 1.37296E-03-2.01420E-14
 -1      2049 1.05352E-02 1.45326E-03-1.94465E-14
 -1      2050 1.05331E-02 1.42345E-03-1.94994E-14
 -1      2051 1.11216E-02 1.25674E-03-2.15804E-14
 -1      2052 1.09268E-02 1.30750E-03-2.08524E-14
 -1      2053 1.09287E-02 1.27417E-03-2.09065E-14
 -1      2054 1.15055E-02 1.20627E-03-2.30811E-14
 -1      2055 1.13154E-02 1.22389E-03-2.23244E-14
 -1      2056 1.13144E-02 1.18929E-03-2.23777E-14
 -1      2057 1.18763E-02 1.21278E-03-2.46519E-14
 -1      2058 1.16929E-02 1.20348E-03-2.38570E-14
 -1      2059 1.16848E-02 1.16862E-03-2.39126E-14
 -1      2060 1.22327E-02 1.26018E-03-2.62866E-14
 -1      2061 1.20564E-02 1.23229E-03-2.54612E-14
 -1      2062 1.20396E-02 1.19751E-03-2.55115E-14
 -1      2063 1.25753E-02 1.33396E-03-2.79863E-14
 -1      2064 1.24057E-02 1.29443E-03-2.71279E-14
 -1      2065 1.23809E-02 1.25984E-03-2.71746E-14
 -1      2066 1.29055E-02 1.42346E-03-2.97402E-14
 -1      2067 1.27418E-02 1.37716E-03-2.88569E-14
 -1      2068 1.27106E-02 1.34287E-03-2.88975E-14
 -1      2069 1.32252E-02 1.52160E-03-3.15311E-14
 -1      2070 1.30665E-02 1.47171E-03-3.06319E-14
 -1      2071 1.30305E-02 1.43777E-03-3.06680E-14
 -1      2072 1.35364E-02 1.62396E-03-3.33640E-14
 -1      2073 1.33817E-02 1.57241E-03-3.24437E-14
 -1      2074 1.33423E-02 1.53888E-03-3.24784E-14
 -1      2075 1.38407E-02 1.72785E-03-3.52251E-14
 -1      2076 1.36892E-02 1.67580E-03-3.42900E-14
 -1      2077 1.36476E-02 1.64267E-03-3.43241E-14
 -1      2078 1.41396E-02 1.83167E-03-3.71089E-14
 -1      2079 1.39907E-02 1.77982E-03-3.61666E-14
 -1      2080 1.39477E-02 1.74707E-03-3.61991E-14
 -1      2081 1.44344E-02 1.93446E-03-3.90181E-14
 -1      2082 1.42874E-02 1.88322E-03-3.80615E-14
 -1      2083 1.42436E-02 1.85083E-03-3.80941E-14
 -1      2084 1.47260E-02 2.03564E-03-4.09392E-14
 -1      2085 1.45805E-02 1.98527E-03-3.99748E-14
 -1      2086 1.45363E-02 1.95320E-03-4.00065E-14
 -1      2087 1.50152E-02 2.13486E-03-4.28774E-14
 -1      2088 1.48708E-02 2.08551E-03-4.19073E-14
 -1      2089 1.48265E-02 2.05373E-03-4.19356E-14
 -1      2090 1.53028E-02 2.23193E-03-4.48270E-14
 -1      2091 1.51592E-02 2.18367E-03-4.38521E-14
 -1      2092 1.51148E-02 2.15216E-03-4.38800E-14
 -1      2093 1.55352E-02 2.30715E-03-4.64575E-14
 -1      2094 1.53920E-02 2.25976E-03-4.54753E-14
 -1      2095 1.53476E-02 2.22844E-03-4.55064E-14
 -1      2096 1.55257E-02 2.28361E-03-4.68048E-14
 -1      2097 1.52476E-02 2.04399E-03-4.78518E-14
 -1      2098 1.52911E-02 2.08441E-03-4.76237E-14
 -1      2099 1.53348E-02 2.12517E-03-4.73956E-14
 -1      2100 1.53788E-02 2.16623E-03-4.71724E-14
 -1      2101 1.51895E-02 2.06368E-03-4.66585E-14
 -1      2102 1.54295E-02 2.20395E-03-4.71047E-14
 -1      2103 1.54744E-02 2.24554E-03-4.68751E-14
 -1      2104 1.53854E-02 2.21800E-03-4.62263E-14
 -1      2105 1.52836E-02 2.14220E-03-4.63635E-14
 -1      2106 1.51620E-02 1.96547E-03-4.82991E-14
 -1      2107 1.52048E-02 2.00458E-03-4.80731E-14
 -1      2108 1.51034E-02 1.98360E-03-4.71097E-14
 -1      2109 1.50741E-02 1.88673E-03-4.87565E-14
 -1      2110 1.51182E-02 1.92598E-03-4.85279E-14
 -1      2111 1.50172E-02 1.90478E-03-4.75573E-14
 -1      2112 1.49845E-02 1.80883E-03-4.92080E-14
 -1      2113 1.50295E-02 1.84771E-03-4.89829E-14
 -1      2114 1.49292E-02 1.82633E-03-4.80089E-14
 -1      2115 1.48927E-02 1.73134E-03-4.96599E-14
 -1      2116 1.49389E-02 1.77007E-03-4.94346E-14
 -1      2117 1.48392E-02 1.74856E-03-4.84558E-14
 -1      2118 1.47986E-02 1.65380E-03-5.01077E-14
 -1      2119 1.48459E-02 1.69262E-03-4.98833E-14
 -1      2120 1.47468E-02 1.67104E-03-4.89012E-14
 -1      2121 1.47022E-02 1.57579E-03-5.05506E-14
 -1      2122 1.47506E-02 1.61489E-03-5.03303E-14
 -1      2123 1.46520E-02 1.59334E-03-4.93411E-14
 -1      2124 1.46058E-02 1.49830E-03-5.09853E-14
 -1      2125 1.46542E-02 1.53717E-03-5.07678E-14
 -1      2126 1.45558E-02 1.51572E-03-4.97745E-14
 -1      2127 1.45067E-02 1.41840E-03-5.14304E-14
 -1      2128 1.45563E-02 1.45850E-03-5.12083E-14
 -1      2129 1.44581E-02 1.43724E-03-5.02064E-14
 -1      2130 1.44075E-02 1.33733E-03-5.18667E-14
 -1      2131 1.44571E-02 1.37801E-03-5.16489E-14
 -1      2132 1.43586E-02 1.35699E-03-5.06400E-14
 -1      2133 1.43090E-02 1.25509E-03-5.22961E-14
 -1      2134 1.43581E-02 1.29634E-03-5.20821E-14
 -1      2135 1.42593E-02 1.27559E-03-5.10702E-14
 -1      2136 1.13616E-02 8.03973E-04-2.08587E-14
 -1      2137 1.14812E-02 7.55486E-04-2.11551E-14
 -1      2138 1.16488E-02 6.63073E-04-2.16798E-14
 -1      2139 1.16231E-02 6.41986E-04-2.17516E-14
 -1      2140 1.15906E-02 7.09611E-04-2.14896E-14
 -1      2141 1.16390E-02 6.88813E-04-2.16369E-14
 -1      2142 1.10486E-02 9.43867E-04-2.02401E-14
 -1      2143 1.12076E-02 8.69786E-04-2.05525E-14
 -1      2144 1.15839E-02 6.22936E-04-2.18004E-14
 -1      2145 1.15252E-02 6.04833E-04-2.18503E-14
 -1      2146 1.16155E-02 6.51963E-04-2.20749E-14
 -1      2147 3.27256E-04-8.89765E-05-6.65429E-17
 -1      2148 3.29329E-04-1.02154E-04-6.66378E-17
 -1      2149 4.46336E-04-1.45085E-04-9.79712E-17
 -1      2150 4.40127E-04-1.09914E-04-9.74020E-17
 -1      2151 9.89923E-03 1.55736E-03-1.78125E-14
 -1      2152 1.00643E-02 1.47904E-03-1.81995E-14
 -1      2153 9.53484E-03 1.64048E-03-1.69291E-14
 -1      2154 9.69361E-03 1.62115E-03-1.73171E-14
 -1      2155 9.17453E-03 1.56210E-03-1.61668E-14
 -1      2156 9.34328E-03 1.61753E-03-1.65225E-14
 -1      2157 8.77159E-03 1.34998E-03-1.55116E-14
 -1      2158 8.95910E-03 1.46113E-03-1.57944E-14
 -1      2159 8.36177E-03 1.06818E-03-1.48974E-14
 -1      2160 8.57358E-03 1.22064E-03-1.52080E-14
 -1      2161 7.82515E-03 7.61321E-04-1.45025E-14
 -1      2162 8.05174E-03 8.75728E-04-1.46036E-14
 -1      2163 7.45166E-03 5.84809E-04-1.43322E-14
 -1      2164 7.62384E-03 6.64322E-04-1.44113E-14
 -1      2165 7.15038E-03 4.57493E-04-1.42325E-14
 -1      2166 7.27833E-03 5.04668E-04-1.42474E-14
 -1      2167 6.99304E-03 3.93467E-04-1.43302E-14
 -1      2168 7.04485E-03 4.16394E-04-1.42726E-14
 -1      2169 7.01396E-03 3.49423E-04-1.45277E-14
 -1      2170 6.98150E-03 3.67405E-04-1.44137E-14
 -1      2171 7.20972E-03 2.81494E-04-1.49030E-14
 -1      2172 7.10221E-03 3.15953E-04-1.47029E-14
 -1      2173 7.51106E-03 1.66088E-04-1.54109E-14
 -1      2174 7.35025E-03 2.25496E-04-1.51795E-14
 -1      2175 7.90622E-03-9.45064E-06-1.60469E-14
 -1      2176 7.72748E-03 7.64799E-05-1.57382E-14
 -1      2177 8.28329E-03-2.00235E-04-1.67713E-14
 -1      2178 8.11111E-03-1.11666E-04-1.64349E-14
 -1      2179 8.63011E-03-3.56265E-04-1.74946E-14
 -1      2180 8.46243E-03-2.82075E-04-1.71299E-14
 -1      2181 8.38350E-03-2.39433E-04-1.68770E-14
 -1      2182 8.99183E-03-4.50213E-04-1.83947E-14
 -1      2183 8.84043E-03-4.23628E-04-1.80093E-14
 -1      2184 9.30601E-03-4.28604E-04-1.91990E-14
 -1      2185 9.16030E-03-4.52863E-04-1.88340E-14
 -1      2186 9.60970E-03-3.15325E-04-1.98919E-14
 -1      2187 9.45760E-03-3.83491E-04-1.95422E-14
 -1      2188 9.35213E-03-4.16828E-04-1.94864E-14
 -1      2189 1.00169E-02-1.01247E-04-2.06124E-14
 -1      2190 9.83870E-03-2.01643E-04-2.03208E-14
 -1      2191 1.04079E-02 1.28116E-04-2.12089E-14
 -1      2192 1.02162E-02 1.57404E-05-2.09446E-14
 -1      2193 1.08298E-02 3.29796E-04-2.15470E-14
 -1      2194 1.06465E-02 2.42219E-04-2.13977E-14
 -1      2195 1.11698E-02 4.73509E-04-2.17590E-14
 -1      2196 1.10238E-02 4.19682E-04-2.17114E-14
 -1      2197 1.14011E-02 5.66377E-04-2.19069E-14
 -1      2198 1.12927E-02 5.23558E-04-2.18311E-14
 -1      2199 1.12202E-02 5.35039E-04-2.21624E-14
 -1      2200 1.06719E-02 1.14142E-03-1.94993E-14
 -1      2201 1.08608E-02 1.04148E-03-1.98513E-14
 -1      2202 1.02577E-02 1.37849E-03-1.86281E-14
 -1      2203 1.04391E-02 1.27138E-03-1.90224E-14
 -1      2204 1.09496E-02 9.74979E-04-2.02474E-14
 -1      2205 6.07550E-04-2.97974E-04-1.23640E-16
 -1      2206 1.01517E-02 1.43212E-03-1.84614E-14
 -1      2207 6.63325E-04-2.92234E-04-1.55746E-16
 -1      2208 1.15450E-02 7.25569E-04-2.15980E-14
 -1      2209 1.16536E-02 6.81582E-04-2.19818E-14
 -1      2210 1.42281E-02 1.20789E-03-5.21570E-14
 -1      2211 1.12795E-02 8.23107E-04-2.09515E-14
 -1      2212 1.14688E-02 6.10079E-04-2.21798E-14
 -1      2213 1.09138E-02 4.07464E-04-2.19216E-14
 -1      2214 1.04948E-02 2.05580E-04-2.15616E-14
 -1      2215 9.68789E-03-2.63513E-04-2.02614E-14
 -1      2216 8.73894E-03-3.99469E-04-1.77454E-14
 -1      2217 8.64332E-03-3.65861E-04-1.74838E-14
 -1      2218 8.82424E-03-4.32232E-04-1.79964E-14
 -1      2219 8.02371E-03-5.47955E-05-1.61345E-14
 -1      2220 7.62243E-03 1.33491E-04-1.54266E-14
 -1      2221 7.27621E-03 2.67042E-04-1.48291E-14
 -1      2222 7.04763E-03 3.33748E-04-1.43837E-14
 -1      2223 6.97732E-03 3.68550E-04-1.41300E-14
 -1      2224 7.09330E-03 4.11736E-04-1.40081E-14
 -1      2225 7.36960E-03 5.09476E-04-1.40503E-14
 -1      2226 7.73801E-03 6.75568E-04-1.42222E-14
 -1      2227 8.22878E-03 9.55381E-04-1.45968E-14
 -1      2228 8.38455E-03 1.03887E-03-1.45900E-14
 -1      2229 8.09871E-03 8.53358E-04-1.43023E-14
 -1      2230 8.70731E-03 1.28092E-03-1.51899E-14
 -1      2231 9.08893E-03 1.51911E-03-1.58587E-14
 -1      2232 9.79283E-03 1.60419E-03-1.75329E-14
 -1      2233 9.45091E-03 1.64472E-03-1.66334E-14
 -1      2234 9.07832E-03-4.62975E-04-1.86996E-14
 -1      2235 1.00857E-02-2.72401E-05-2.10320E-14
 -1      2236 1.05479E-02 1.19870E-03-1.93724E-14
 -1      2237 1.01613E-03 3.99294E-04-6.59601E-17
 -1      2238 8.71725E-04 3.63066E-04-3.83672E-17
 -1      2239 5.48050E-04-5.52550E-05-1.26513E-16
 -1      2240 5.49063E-04-7.19589E-05-1.29860E-16
 -1      2241 5.50451E-04-8.92717E-05-1.32828E-16
 -1      2242 5.52279E-04-1.07240E-04-1.35308E-16
 -1      2243 6.65557E-04-9.53815E-05-1.77701E-16
 -1      2244 5.46704E-04 8.84130E-06-1.10683E-16
 -1      2245 5.46683E-04-6.98076E-06-1.15115E-16
 -1      2246 5.47446E-04 4.08241E-05-1.01170E-16
 -1      2247 5.46955E-04 2.47632E-05-1.06143E-16
 -1      2248 6.61693E-04 1.98954E-05-1.47980E-16
 -1      2249 5.49236E-04 7.34242E-05-9.01243E-17
 -1      2250 5.48194E-04 5.69419E-05-9.60468E-17
 -1      2251 6.62998E-04 5.77044E-05-1.35132E-16
 -1      2252 5.52565E-04 1.08882E-04-7.70326E-17
 -1      2253 5.50676E-04 9.08138E-05-8.38088E-17
 -1      2254 6.65811E-04 9.71355E-05-1.19994E-16
 -1      2255 5.58351E-04 1.48207E-04-6.11490E-17
 -1      2256 5.55084E-04 1.27987E-04-6.94703E-17
 -1      2257 6.70820E-04 1.39879E-04-1.02322E-16
 -1      2258 5.68548E-04 1.93797E-04-4.16063E-17
 -1      2259 5.62779E-04 1.70085E-04-5.20688E-17
 -1      2260 6.79348E-04 1.87404E-04-8.12067E-17
 -1      2261 1.16380E-02 6.71587E-04-2.24502E-14
 -1      2262 1.16036E-02 6.64806E-04-2.24995E-14
 -1      2263 1.30148E-03 4.55810E-04-1.44524E-16
 -1      2264 1.15921E-03 4.30104E-04-1.00885E-16
 -1      2265 1.07144E-03 3.80751E-04-1.05791E-16
 -1      2266 9.14890E-04-3.45967E-04-2.80442E-16
 -1      2267 1.05895E-03-3.79119E-04-3.63208E-16
 -1      2268 1.00819E-02 1.48188E-03-1.83116E-14
 -1      2269 1.02427E-02 1.38323E-03-1.87445E-14
 -1      2270 1.20216E-03-4.07286E-04-4.57330E-16
 -1      2271 1.34494E-03-4.30910E-04-5.61901E-16
 -1      2272 1.11677E-03-3.59857E-04-4.11495E-16
 -1      2273 1.48709E-03-4.50825E-04-6.77315E-16
 -1      2274 1.62885E-03-4.67312E-04-8.04383E-16
 -1      2275 1.40305E-03-4.06113E-04-6.20028E-16
 -1      2276 1.77027E-03-4.81032E-04-9.42063E-16
 -1      2277 1.91147E-03-4.92196E-04-1.09087E-15
 -1      2278 1.68817E-03-4.38649E-04-8.71549E-16
 -1      2279 2.05253E-03-5.01288E-04-1.25074E-15
 -1      2280 2.19350E-03-5.08479E-04-1.42167E-15
 -1      2281 1.97240E-03-4.60749E-04-1.16644E-15
 -1      2282 2.33448E-03-5.14119E-04-1.60309E-15
 -1      2283 2.47548E-03-5.18345E-04-1.79593E-15
 -1      2284 2.25614E-03-4.74995E-04-1.50463E-15
 -1      2285 2.61658E-03-5.21408E-04-2.00031E-15
 -1      2286 2.75777E-03-5.23418E-04-2.21490E-15
 -1      2287 2.53975E-03-4.83358E-04-1.88673E-15
 -1      2288 2.89912E-03-5.24555E-04-2.44023E-15
 -1      2289 3.04062E-03-5.24904E-04-2.67669E-15
 -1      2290 2.82350E-03-4.87317E-04-2.31171E-15
 -1      2291 3.18231E-03-5.24591E-04-2.92403E-15
 -1      2292 3.32419E-03-5.23685E-04-3.18212E-15
 -1      2293 3.10757E-03-4.87970E-04-2.78007E-15
 -1      2294 3.46629E-03-5.22274E-04-3.45107E-15
 -1      2295 3.60861E-03-5.20413E-04-3.73043E-15
 -1      2296 3.39212E-03-4.86124E-04-3.29196E-15
 -1      2297 3.75117E-03-5.18168E-04-4.02000E-15
 -1      2298 3.89399E-03-5.15585E-04-4.32045E-15
 -1      2299 3.67726E-03-4.82372E-04-3.84641E-15
 -1      2300 4.03709E-03-5.12718E-04-4.63022E-15
 -1      2301 4.18048E-03-5.09611E-04-4.95127E-15
 -1      2302 3.96311E-03-4.77168E-04-4.44217E-15
 -1      2303 4.32418E-03-5.06320E-04-5.28299E-15
 -1      2304 4.46821E-03-5.02894E-04-5.62362E-15
 -1      2305 4.24978E-03-4.70900E-04-5.07900E-15
 -1      2306 4.61260E-03-4.99398E-04-5.97450E-15
 -1      2307 4.75738E-03-4.95896E-04-6.33623E-15
 -1      2308 4.53744E-03-4.63956E-04-5.75698E-15
 -1      2309 4.90257E-03-4.92477E-04-6.70728E-15
 -1      2310 5.04821E-03-4.89224E-04-7.08696E-15
 -1      2311 4.82628E-03-4.56800E-04-6.47378E-15
 -1      2312 5.19432E-03-4.86260E-04-7.47671E-15
 -1      2313 5.34095E-03-4.83698E-04-7.87819E-15
 -1      2314 5.11655E-03-4.50051E-04-7.23049E-15
 -1      2315 5.48814E-03-4.81702E-04-8.28810E-15
 -1      2316 5.63591E-03-4.80419E-04-8.70669E-15
 -1      2317 5.40858E-03-4.44553E-04-8.02617E-15
 -1      2318 5.78432E-03-4.80058E-04-9.13562E-15
 -1      2319 5.93337E-03-4.80802E-04-9.57426E-15
 -1      2320 5.70276E-03-4.41442E-04-8.86048E-15
 -1      2321 6.08314E-03-4.82891E-04-1.00219E-14
 -1      2322 6.23358E-03-4.86538E-04-1.04801E-14
 -1      2323 5.99955E-03-4.42177E-04-9.73292E-15
 -1      2324 6.38482E-03-4.91985E-04-1.09485E-14
 -1      2325 6.53668E-03-4.99447E-04-1.14262E-14
 -1      2326 6.29946E-03-4.48507E-04-1.06447E-14
 -1      2327 6.68934E-03-5.09106E-04-1.19150E-14
 -1      2328 6.84250E-03-5.21125E-04-1.24131E-14
 -1      2329 6.60290E-03-4.62320E-04-1.15964E-14
 -1      2330 6.99634E-03-5.35536E-04-1.29234E-14
 -1      2331 7.15040E-03-5.52339E-04-1.34472E-14
 -1      2332 6.91002E-03-4.85289E-04-1.25894E-14
 -1      2333 7.30484E-03-5.71301E-04-1.39818E-14
 -1      2334 7.45905E-03-5.92112E-04-1.45278E-14
 -1      2335 7.22037E-03-5.18216E-04-1.36291E-14
 -1      2336 7.61310E-03-6.14158E-04-1.50859E-14
 -1      2337 7.76635E-03-6.36656E-04-1.56554E-14
 -1      2338 7.53256E-03-5.60012E-04-1.47156E-14
 -1      2339 7.91872E-03-6.58555E-04-1.62383E-14
 -1      2340 8.06977E-03-6.78547E-04-1.68336E-14
 -1      2341 7.84409E-03-6.06430E-04-1.58500E-14
 -1      2342 8.21928E-03-6.95235E-04-1.74408E-14
 -1      2343 8.36730E-03-7.06970E-04-1.80623E-14
 -1      2344 8.15182E-03-6.49069E-04-1.70338E-14
 -1      2345 8.51356E-03-7.12322E-04-1.86967E-14
 -1      2346 8.65875E-03-7.09787E-04-1.93425E-14
 -1      2347 8.45329E-03-6.75696E-04-1.82695E-14
 -1      2348 8.80262E-03-6.98388E-04-2.00020E-14
 -1      2349 8.94645E-03-6.77412E-04-2.06739E-14
 -1      2350 8.74842E-03-6.72966E-04-1.95572E-14
 -1      2351 9.09000E-03-6.46721E-04-2.13583E-14
 -1      2352 9.23461E-03-6.06725E-04-2.20570E-14
 -1      2353 9.04039E-03-6.31336E-04-2.08958E-14
 -1      2354 9.38003E-03-5.58202E-04-2.27672E-14
 -1      2355 9.52715E-03-5.02472E-04-2.34911E-14
 -1      2356 9.33418E-03-5.49498E-04-2.22864E-14
 -1      2357 9.67570E-03-4.40894E-04-2.42277E-14
 -1      2358 9.82592E-03-3.75136E-04-2.49768E-14
 -1      2359 9.63369E-03-4.34977E-04-2.37308E-14
 -1      2360 9.97755E-03-3.06635E-04-2.57408E-14
 -1      2361 1.01303E-02-2.36838E-04-2.65177E-14
 -1      2362 9.93977E-03-3.00551E-04-2.52290E-14
 -1      2363 1.02839E-02-1.66907E-04-2.73066E-14
 -1      2364 1.04380E-02-9.77788E-05-2.81082E-14
 -1      2365 1.02505E-02-1.59147E-04-2.67796E-14
 -1      2366 1.05924E-02-3.01892E-05-2.89233E-14
 -1      2367 1.07466E-02 3.54358E-05-2.97495E-14
 -1      2368 1.05628E-02-2.03912E-05-2.83813E-14
 -1      2369 1.09006E-02 9.87689E-05-3.05853E-14
 -1      2370 1.10540E-02 1.59741E-04-3.14327E-14
 -1      2371 1.08738E-02 1.10369E-04-3.00322E-14
 -1      2372 1.12070E-02 2.18328E-04-3.22880E-14
 -1      2373 1.13592E-02 2.74661E-04-3.31568E-14
 -1      2374 1.11819E-02 2.31311E-04-3.17244E-14
 -1      2375 1.15108E-02 3.28896E-04-3.40392E-14
 -1      2376 1.16616E-02 3.81247E-04-3.49320E-14
 -1      2377 1.14863E-02 3.42849E-04-3.34608E-14
 -1      2378 1.18118E-02 4.31952E-04-3.58347E-14
 -1      2379 1.19612E-02 4.81236E-04-3.67480E-14
 -1      2380 1.17871E-02 4.46527E-04-3.52426E-14
 -1      2381 1.21099E-02 5.29353E-04-3.76752E-14
 -1      2382 1.22580E-02 5.76502E-04-3.86148E-14
 -1      2383 1.20847E-02 5.44271E-04-3.70691E-14
 -1      2384 1.24055E-02 6.22916E-04-3.95658E-14
 -1      2385 1.25525E-02 6.68759E-04-4.05268E-14
 -1      2386 1.23796E-02 6.37956E-04-3.89405E-14
 -1      2387 1.26989E-02 7.14225E-04-4.14959E-14
 -1      2388 1.28448E-02 7.59443E-04-4.24795E-14
 -1      2389 1.26722E-02 7.29208E-04-4.08554E-14
 -1      2390 1.29903E-02 8.04563E-04-4.34751E-14
 -1      2391 1.31354E-02 8.49686E-04-4.44749E-14
 -1      2392 1.29630E-02 8.19340E-04-4.28125E-14
 -1      2393 1.32801E-02 8.94924E-04-4.54854E-14
 -1      2394 1.34245E-02 9.40356E-04-4.65032E-14
 -1      2395 1.32523E-02 9.09372E-04-4.48108E-14
 -1      2396 1.35686E-02 9.86060E-04-4.75267E-14
 -1      2397 1.37124E-02 1.03210E-03-4.85569E-14
 -1      2398 1.35405E-02 1.00007E-03-4.68382E-14
 -1      2399 1.86453E-03 5.22842E-04-4.04421E-16
 -1      2400 1.72432E-03 5.10553E-04-3.25721E-16
 -1      2401 2.14465E-03 5.40965E-04-5.91012E-16
 -1      2402 2.00463E-03 5.32921E-04-4.92919E-16
 -1      2403 1.92414E-03 4.91993E-04-4.89571E-16
 -1      2404 2.42486E-03 5.52222E-04-8.16025E-16
 -1      2405 2.28473E-03 5.47350E-04-6.98321E-16
 -1      2406 2.20633E-03 5.08013E-04-6.92006E-16
 -1      2407 2.70561E-03 5.58330E-04-1.08175E-15
 -1      2408 2.56516E-03 5.55842E-04-9.43866E-16
 -1      2409 2.48848E-03 5.17686E-04-9.33105E-16
 -1      2410 2.98716E-03 5.60544E-04-1.38957E-15
 -1      2411 2.84628E-03 5.59866E-04-1.23022E-15
 -1      2412 2.77093E-03 5.22589E-04-1.21477E-15
 -1      2413 3.26972E-03 5.59762E-04-1.73911E-15
 -1      2414 3.12831E-03 5.60484E-04-1.55930E-15
 -1      2415 3.05395E-03 5.23874E-04-1.53902E-15
 -1      2416 3.55343E-03 5.56608E-04-2.13097E-15
 -1      2417 3.41142E-03 5.58450E-04-1.92966E-15
 -1      2418 3.33769E-03 5.22359E-04-1.90470E-15
 -1      2419 3.83844E-03 5.51504E-04-2.56417E-15
 -1      2420 3.69576E-03 5.54277E-04-2.34215E-15
 -1      2421 3.62229E-03 5.18608E-04-2.31218E-15
 -1      2422 4.12494E-03 5.44728E-04-3.03732E-15
 -1      2423 3.98149E-03 5.48306E-04-2.79520E-15
 -1      2424 3.90790E-03 5.12997E-04-2.76076E-15
 -1      2425 4.41316E-03 5.36477E-04-3.55281E-15
 -1      2426 4.26881E-03 5.40768E-04-3.29017E-15
 -1      2427 4.19465E-03 5.05777E-04-3.25048E-15
 -1      2428 4.70343E-03 5.26939E-04-4.10807E-15
 -1      2429 4.55800E-03 5.31847E-04-3.82550E-15
 -1      2430 4.48273E-03 4.97131E-04-3.78182E-15
 -1      2431 4.99616E-03 5.16380E-04-4.70189E-15
 -1      2432 4.84943E-03 5.21756E-04-4.40041E-15
 -1      2433 4.77236E-03 4.87257E-04-4.35166E-15
 -1      2434 5.29187E-03 5.05266E-04-5.33459E-15
 -1      2435 5.14356E-03 5.10844E-04-5.01406E-15
 -1      2436 5.06378E-03 4.76451E-04-4.96097E-15
 -1      2437 5.59120E-03 4.94446E-04-6.00778E-15
 -1      2438 5.44098E-03 4.99741E-04-5.66511E-15
 -1      2439 5.35731E-03 4.65244E-04-5.60889E-15
 -1      2440 5.89494E-03 4.85431E-04-6.72209E-15
 -1      2441 5.74239E-03 4.89586E-04-6.36012E-15
 -1      2442 5.65331E-03 4.54587E-04-6.29768E-15
 -1      2443 6.20404E-03 4.80821E-04-7.47954E-15
 -1      2444 6.04867E-03 4.82370E-04-7.09521E-15
 -1      2445 5.95221E-03 4.46137E-04-7.02890E-15
 -1      2446 6.51973E-03 4.84917E-04-8.27714E-15
 -1      2447 6.36088E-03 4.81448E-04-7.87346E-15
 -1      2448 6.25463E-03 4.42668E-04-7.80287E-15
 -1      2449 6.84374E-03 5.04565E-04-9.11260E-15
 -1      2450 6.68051E-03 4.92266E-04-8.68985E-15
 -1      2451 6.56164E-03 4.48657E-04-8.61479E-15
 -1      2452 7.17878E-03 5.50071E-04-9.98674E-15
 -1      2453 7.00972E-03 5.23253E-04-9.54454E-15
 -1      2454 6.87530E-03 4.71049E-04-9.46511E-15
 -1      2455 7.52904E-03 6.35743E-04-1.08972E-14
 -1      2456 7.35198E-03 5.86690E-04-1.04374E-14
 -1      2457 7.19964E-03 5.20185E-04-1.03517E-14
 -1      2458 7.89987E-03 7.78610E-04-1.18473E-14
 -1      2459 7.71225E-03 6.98571E-04-1.13673E-14
 -1      2460 7.54174E-03 6.10595E-04-1.12764E-14
 -1      2461 8.29436E-03 9.91685E-04-1.28376E-14
 -1      2462 8.09553E-03 8.75679E-04-1.23374E-14
 -1      2463 7.91143E-03 7.60935E-04-1.22386E-14
 -1      2464 8.70415E-03 1.26486E-03-1.38766E-14
 -1      2465 8.49962E-03 1.12289E-03-1.33512E-14
 -1      2466 8.31469E-03 9.87266E-04-1.32422E-14
 -1      2467 9.10676E-03 1.53779E-03-1.49713E-14
 -1      2468 8.90816E-03 1.40916E-03-1.44165E-14
 -1      2469 8.74043E-03 1.27960E-03-1.42966E-14
 -1      2470 9.49122E-03 1.70458E-03-1.60877E-14
 -1      2471 9.30530E-03 1.64817E-03-1.54994E-14
 -1      2472 9.86012E-03 1.67589E-03-1.73253E-14
 -1      2473 9.67145E-03 1.71130E-03-1.67030E-14
 -1      2474 1.02535E-02 1.50787E-03-1.86471E-14
 -1      2475 1.00529E-02 1.59818E-03-1.79881E-14
 -1      2476 1.06626E-02 1.32232E-03-2.00148E-14
 -1      2477 1.04592E-02 1.41125E-03-1.93229E-14
 -1      2478 1.03832E-02 1.40189E-03-1.91452E-14
 -1      2479 1.10610E-02 1.19049E-03-2.14443E-14
 -1      2480 1.08653E-02 1.24830E-03-2.07224E-14
 -1      2481 1.08032E-02 1.22148E-03-2.05351E-14
 -1      2482 1.14373E-02 1.12880E-03-2.29366E-14
 -1      2483 1.12526E-02 1.15134E-03-2.21823E-14
 -1      2484 1.11965E-02 1.11293E-03-2.19869E-14
 -1      2485 1.17923E-02 1.12787E-03-2.44901E-14
 -1      2486 1.16174E-02 1.12198E-03-2.37058E-14
 -1      2487 1.15583E-02 1.07593E-03-2.34992E-14
 -1      2488 1.21311E-02 1.17034E-03-2.61070E-14
 -1      2489 1.19635E-02 1.14472E-03-2.52903E-14
 -1      2490 1.18963E-02 1.09354E-03-2.50715E-14
 -1      2491 1.24580E-02 1.24113E-03-2.77833E-14
 -1      2492 1.22958E-02 1.20296E-03-2.69374E-14
 -1      2493 1.22190E-02 1.14800E-03-2.67030E-14
 -1      2494 1.27759E-02 1.32912E-03-2.95172E-14
 -1      2495 1.26179E-02 1.28349E-03-2.86435E-14
 -1      2496 1.25322E-02 1.22589E-03-2.83931E-14
 -1      2497 1.30867E-02 1.42680E-03-3.12986E-14
 -1      2498 1.29320E-02 1.37709E-03-3.04045E-14
 -1      2499 1.28392E-02 1.31782E-03-3.01404E-14
 -1      2500 1.33917E-02 1.52935E-03-3.31202E-14
 -1      2501 1.32398E-02 1.47768E-03-3.22044E-14
 -1      2502 1.31416E-02 1.41753E-03-3.19318E-14
 -1      2503 1.36921E-02 1.63383E-03-3.49728E-14
 -1      2504 1.35424E-02 1.58148E-03-3.40426E-14
 -1      2505 1.34404E-02 1.52101E-03-3.37602E-14
 -1      2506 1.39887E-02 1.73844E-03-3.68514E-14
 -1      2507 1.38408E-02 1.68620E-03-3.59084E-14
 -1      2508 1.37363E-02 1.62579E-03-3.56201E-14
 -1      2509 1.42822E-02 1.84213E-03-3.87512E-14
 -1      2510 1.41357E-02 1.79045E-03-3.77985E-14
 -1      2511 1.40296E-02 1.73035E-03-3.75043E-14
 -1      2512 1.45733E-02 1.94427E-03-4.06695E-14
 -1      2513 1.44280E-02 1.89343E-03-3.97095E-14
 -1      2514 1.43209E-02 1.83379E-03-3.94088E-14
 -1      2515 1.48625E-02 2.04445E-03-4.26027E-14
 -1      2516 1.47181E-02 1.99463E-03-4.16340E-14
 -1      2517 1.46105E-02 1.93556E-03-4.13331E-14
 -1      2518 1.51502E-02 2.14247E-03-4.45510E-14
 -1      2519 1.50065E-02 2.09375E-03-4.35748E-14
 -1      2520 1.48987E-02 2.03531E-03-4.32700E-14
 -1      2521 1.52963E-02 2.19025E-03-4.55755E-14
 -1      2522 1.48727E-02 1.84384E-03-4.68136E-14
 -1      2523 1.49162E-02 1.88323E-03-4.65892E-14
 -1      2524 1.47844E-02 1.76575E-03-4.72612E-14
 -1      2525 1.48288E-02 1.80471E-03-4.70390E-14
 -1      2526 1.47283E-02 1.78278E-03-4.60708E-14
 -1      2527 1.50443E-02 2.00185E-03-4.59215E-14
 -1      2528 1.50877E-02 2.04252E-03-4.56943E-14
 -1      2529 1.49591E-02 1.92256E-03-4.63647E-14
 -1      2530 1.50015E-02 1.96187E-03-4.61435E-14
 -1      2531 1.48998E-02 1.94008E-03-4.51799E-14
 -1      2532 1.48146E-02 1.86097E-03-4.56247E-14
 -1      2533 1.46940E-02 1.68822E-03-4.77017E-14
 -1      2534 1.47395E-02 1.72696E-03-4.74816E-14
 -1      2535 1.46398E-02 1.70516E-03-4.65128E-14
 -1      2536 1.46010E-02 1.61079E-03-4.81409E-14
 -1      2537 1.46478E-02 1.64953E-03-4.79234E-14
 -1      2538 1.45488E-02 1.62796E-03-4.69494E-14
 -1      2539 1.45054E-02 1.53303E-03-4.85730E-14
 -1      2540 1.45535E-02 1.57198E-03-4.83557E-14
 -1      2541 1.44551E-02 1.55070E-03-4.73786E-14
 -1      2542 1.44094E-02 1.45590E-03-4.89946E-14
 -1      2543 1.44576E-02 1.49457E-03-4.87840E-14
 -1      2544 1.43595E-02 1.47360E-03-4.77981E-14
 -1      2545 1.43102E-02 1.37647E-03-4.94230E-14
 -1      2546 1.43599E-02 1.41632E-03-4.92087E-14
 -1      2547 1.42619E-02 1.39567E-03-4.82175E-14
 -1      2548 1.42104E-02 1.29592E-03-4.98497E-14
 -1      2549 1.42603E-02 1.33634E-03-4.96376E-14
 -1      2550 1.41622E-02 1.31600E-03-4.86401E-14
 -1      2551 1.41109E-02 1.21417E-03-5.02738E-14
 -1      2552 1.41605E-02 1.25519E-03-5.00602E-14
 -1      2553 1.40620E-02 1.23512E-03-4.90609E-14
 -1      2554 1.16576E-02 6.95271E-04-2.23573E-14
 -1      2555 1.16644E-02 6.85668E-04-2.24028E-14
 -1      2556 1.16706E-02 6.92425E-04-2.28283E-14
 -1      2557 1.12205E-02 8.44183E-04-2.10878E-14
 -1      2558 1.13602E-02 7.89983E-04-2.14012E-14
 -1      2559 1.58382E-03 4.95516E-04-2.56319E-16
 -1      2560 1.44292E-03 4.77526E-04-1.96417E-16
 -1      2561 1.64139E-03 4.67496E-04-3.25898E-16
 -1      2562 1.41019E-02 1.16691E-03-5.12106E-14
 -1      2563 1.15185E-02 6.43780E-04-2.25546E-14
 -1      2564 1.14007E-02 6.18167E-04-2.26104E-14
 -1      2565 1.15612E-02 6.67729E-04-2.29307E-14
 -1      2566 5.88357E-04-2.37868E-04-1.37734E-16
 -1      2567 7.81066E-04-3.04576E-04-2.15648E-16
 -1      2568 8.40618E-04-2.93276E-04-2.53134E-16
 -1      2569 5.78873E-04-2.10055E-04-1.40092E-16
 -1      2570 1.09868E-02 4.70113E-04-2.23368E-14
 -1      2571 1.08054E-02 3.89224E-04-2.21680E-14
 -1      2572 1.14941E-02 7.42689E-04-2.17333E-14
 -1      2573 1.15986E-02 7.14611E-04-2.20747E-14
 -1      2574 8.12430E-03-1.07583E-04-1.62129E-14
 -1      2575 7.94225E-03-1.35546E-05-1.58296E-14
 -1      2576 5.46890E-04-2.28851E-05-1.19181E-16
 -1      2577 5.47336E-04-3.89109E-05-1.23003E-16
 -1      2578 6.62840E-04-5.57481E-05-1.69217E-16
 -1      2579 6.61637E-04-1.76885E-05-1.59310E-16
 -1      2580 9.37033E-03 1.63925E-03-1.62801E-14
 -1      2581 9.52162E-03 1.66487E-03-1.66822E-14
 -1      2582 9.12334E-03-4.68723E-04-1.89613E-14
 -1      2583 8.99145E-03-4.66893E-04-1.85216E-14
 -1      2584 9.72795E-03 1.64111E-03-1.72864E-14
 -1      2585 9.89321E-03 1.57797E-03-1.77838E-14
 -1      2586 9.01331E-03 1.46707E-03-1.54880E-14
 -1      2587 9.18717E-03 1.56824E-03-1.58533E-14
 -1      2588 8.65606E-03 1.22148E-03-1.48759E-14
 -1      2589 8.82725E-03 1.34668E-03-1.51737E-14
 -1      2590 7.64575E-03 5.98868E-04-1.38966E-14
 -1      2591 7.82531E-03 6.86743E-04-1.39828E-14
 -1      2592 7.29900E-03 4.54877E-04-1.37326E-14
 -1      2593 7.46330E-03 5.17807E-04-1.38138E-14
 -1      2594 7.54139E-03 5.36234E-04-1.35772E-14
 -1      2595 7.03846E-03 3.77029E-04-1.37299E-14
 -1      2596 7.13670E-03 3.99883E-04-1.36900E-14
 -1      2597 6.96462E-03 3.52789E-04-1.39047E-14
 -1      2598 6.97920E-03 3.60591E-04-1.38242E-14
 -1      2599 7.07299E-03 3.20051E-04-1.41906E-14
 -1      2600 6.99538E-03 3.36948E-04-1.40212E-14
 -1      2601 7.35269E-03 2.40441E-04-1.47634E-14
 -1      2602 7.21878E-03 2.79879E-04-1.44915E-14
 -1      2603 7.71897E-03 9.24027E-05-1.53978E-14
 -1      2604 7.52753E-03 1.74791E-04-1.50776E-14
 -1      2605 7.43690E-03 1.94117E-04-1.47339E-14
 -1      2606 8.42736E-03-2.68334E-04-1.69143E-14
 -1      2607 8.27951E-03-1.87970E-04-1.65610E-14
 -1      2608 8.17307E-03-1.47946E-04-1.62478E-14
 -1      2609 1.01414E-02 3.40175E-05-2.14565E-14
 -1      2610 9.96672E-03-7.82654E-05-2.11168E-14
 -1      2611 9.40188E-03-3.95064E-04-1.98529E-14
 -1      2612 9.28493E-03-4.38762E-04-1.95060E-14
 -1      2613 1.04522E-02 1.25691E-03-1.92865E-14
 -1      2614 1.06543E-02 1.13321E-03-1.97716E-14
 -1      2615 9.76481E-03-2.00742E-04-2.07169E-14
 -1      2616 9.57714E-03-3.12013E-04-2.02802E-14
 -1      2617 9.49337E-03-3.47714E-04-2.02976E-14
 -1      2618 1.06049E-02 2.92047E-04-2.19810E-14
 -1      2619 1.03936E-02 1.79732E-04-2.17852E-14
 -1      2620 1.12688E-02 5.75520E-04-2.25292E-14
 -1      2621 1.11521E-02 5.35566E-04-2.24547E-14
 -1      2622 7.57520E-04 3.33970E-04-1.89735E-17
 -1      2623 6.11177E-04 2.84714E-04-4.29615E-18
 -1      2624 5.84520E-04 2.57967E-04-1.18314E-17
 -1      2625 8.13428E-04 3.22594E-04-4.61735E-17
 -1      2626 1.08611E-02 1.01726E-03-2.02582E-14
 -1      2627 1.10311E-02 9.30710E-04-2.06547E-14
 -1      2628 9.63419E-03 1.66860E-03-1.69214E-14
 -1      2629 6.70393E-04-1.37826E-04-1.84192E-16
 -1      2630 5.54714E-04-1.26135E-04-1.37152E-16
 -1      2631 5.57873E-04-1.46102E-04-1.38547E-16
 -1      2632 1.14509E-02 7.68164E-04-2.18724E-14
 -1      2633 5.72110E-04 2.27785E-04-2.48689E-17
 -1      2634 1.07671E-02 1.08351E-03-2.01702E-14
 -1      2635 1.13456E-02 6.13872E-04-2.29030E-14
 -1      2636 1.10558E-02 5.12993E-04-2.27015E-14
 -1      2637 1.03750E-02 1.31912E-03-1.91325E-14
 -1      2638 9.84272E-03-1.43992E-04-2.11330E-14
 -1      2639 1.03880E-02 1.97612E-04-2.22882E-14
 -1      2640 1.02654E-02 1.19587E-04-2.18695E-14
 -1      2641 1.01593E-02 6.01096E-05-2.19512E-14
 -1      2642 9.96110E-03 1.60473E-03-1.77984E-14
 -1      2643 1.51885E-02 2.13251E-03-4.52685E-14
 -1      2644 1.51379E-02 2.09460E-03-4.53365E-14
 -1      2645 7.81612E-03 3.20890E-05-1.54715E-14
 -1      2646 1.16411E-02 7.12196E-04-2.24948E-14
 -1      2647 1.11434E-02 8.89902E-04-2.10983E-14
 -1      2648 7.12295E-03 2.93197E-04-1.41249E-14
 -1      2649 1.35739E-03 4.31678E-04-1.98924E-16
 -1      2650 5.64320E-04-1.64863E-04-1.40174E-16
 -1      2651 5.69690E-04-1.87924E-04-1.40025E-16
 -1      2652 6.97788E-04-2.27582E-04-1.91972E-16
 -1      2653 6.80783E-04-1.81505E-04-1.88976E-16
 -1      2654 6.95993E-03 3.33718E-04-1.37149E-14
 -1      2655 6.89414E-04 2.51062E-04-4.88433E-17
 -1      2656 7.20330E-03 4.09626E-04-1.34557E-14
 -1      2657 8.88967E-03-4.55134E-04-1.82513E-14
 -1      2658 8.60879E-03-3.70388E-04-1.74027E-14
 -1      2659 8.52645E-03-3.22738E-04-1.71586E-14
 -1      2660 8.41038E-03-2.80644E-04-1.68356E-14
 -1      2661 8.51895E-03 1.11763E-03-1.45732E-14
 -1      2662 8.63002E-03 1.19252E-03-1.45547E-14
 -1      2663 8.38200E-03 1.01657E-03-1.42751E-14
 -1      2664 8.94014E-03 1.41552E-03-1.51670E-14
 -1      2665 7.97611E-03 7.60939E-04-1.39722E-14
 -1      2666 8.11752E-03 8.41586E-04-1.39606E-14
 -1      2667 7.85807E-03 6.86548E-04-1.36463E-14
 -1      2668 9.99939E-03 1.54125E-03-1.80566E-14
 -1      2669 9.18941E-03-4.60899E-04-1.93189E-14
 -1      2670 1.07027E-02 3.56534E-04-2.23921E-14
 -1      2671 9.27913E-03 1.61073E-03-1.58984E-14
 -1      2672 6.99294E-03 3.54428E-04-1.35071E-14
 -1      2673 1.39351E-02 1.10279E-03-5.01973E-14
 -1      2674 1.40431E-02 1.17036E-03-5.02708E-14
 -1      2675 1.39440E-02 1.15057E-03-4.92657E-14
 -1      2676 1.38085E-02 1.06261E-03-4.92586E-14
 -1      2677 1.49920E-02 2.03194E-03-4.46027E-14
 -1      2678 1.37802E-02 1.07618E-03-4.85592E-14
 -1      2679 7.80572E-04 7.71968E-05-1.73581E-16
 -1      2680 7.79331E-04 5.53677E-05-1.82309E-16
 -1      2681 7.78496E-04 3.34916E-05-1.90332E-16
 -1      2682 7.78078E-04 1.18654E-05-1.98111E-16
 -1      2683 8.96946E-04 4.95594E-05-2.37671E-16
 -1      2684 7.91742E-04 1.72898E-04-1.31080E-16
 -1      2685 7.87796E-04 1.47501E-04-1.43060E-16
 -1      2686 8.03447E-04 2.28065E-04-1.03948E-16
 -1      2687 7.96910E-04 1.99687E-04-1.18137E-16
 -1      2688 9.15033E-04 2.07476E-04-1.63064E-16
 -1      2689 8.27951E-04-2.64995E-04-2.52836E-16
 -1      2690 9.59534E-04-3.00106E-04-3.22753E-16
 -1      2691 8.17441E-04-2.38383E-04-2.51494E-16
 -1      2692 7.11881E-03 3.74345E-04-1.30811E-14
 -1      2693 7.26709E-03 4.18167E-04-1.31213E-14
 -1      2694 8.02957E-04 2.77974E-04-7.25196E-17
 -1      2695 9.93467E-03-7.92582E-05-2.16186E-14
 -1      2696 9.75919E-03-1.92089E-04-2.12110E-14
 -1      2697 1.11380E-02 5.56542E-04-2.31861E-14
 -1      2698 1.09862E-02 4.97826E-04-2.30651E-14
 -1      2699 1.32003E-03-3.61788E-04-5.63894E-16
 -1      2700 1.46325E-03-3.80488E-04-6.77992E-16
 -1      2701 1.60630E-03-3.96224E-04-8.02770E-16
 -1      2702 1.74924E-03-4.09236E-04-9.38296E-16
 -1      2703 1.52500E-03-3.54039E-04-7.35970E-16
 -1      2704 1.89203E-03-4.19979E-04-1.08473E-15
 -1      2705 2.03472E-03-4.28637E-04-1.24161E-15
 -1      2706 1.81171E-03-3.79165E-04-1.00487E-15
 -1      2707 2.17731E-03-4.35575E-04-1.40906E-15
 -1      2708 2.31983E-03-4.40939E-04-1.58678E-15
 -1      2709 2.09820E-03-3.95977E-04-1.31563E-15
 -1      2710 2.46232E-03-4.45008E-04-1.77572E-15
 -1      2711 2.60477E-03-4.47897E-04-1.97571E-15
 -1      2712 2.38444E-03-4.06429E-04-1.66803E-15
 -1      2713 2.74724E-03-4.49811E-04-2.18605E-15
 -1      2714 2.88971E-03-4.50839E-04-2.40677E-15
 -1      2715 2.67048E-03-4.12071E-04-2.06279E-15
 -1      2716 3.03223E-03-4.51133E-04-2.63850E-15
 -1      2717 3.17478E-03-4.50757E-04-2.88138E-15
 -1      2718 2.95638E-03-4.14087E-04-2.50048E-15
 -1      2719 3.31741E-03-4.49822E-04-3.13551E-15
 -1      2720 3.46010E-03-4.48377E-04-3.40037E-15
 -1      2721 3.24224E-03-4.13357E-04-2.98156E-15
 -1      2722 3.60288E-03-4.46500E-04-3.67497E-15
 -1      2723 3.74576E-03-4.44232E-04-3.96050E-15
 -1      2724 3.52812E-03-4.10527E-04-3.50621E-15
 -1      2725 3.88875E-03-4.41633E-04-4.25637E-15
 -1      2726 4.03186E-03-4.38736E-04-4.56202E-15
 -1      2727 3.81410E-03-4.06070E-04-4.07278E-15
 -1      2728 4.17511E-03-4.35595E-04-4.87818E-15
 -1      2729 4.31853E-03-4.32246E-04-5.20496E-15
 -1      2730 4.10026E-03-4.00355E-04-4.68051E-15
 -1      2731 4.46211E-03-4.28745E-04-5.54115E-15
 -1      2732 4.60591E-03-4.25135E-04-5.88731E-15
 -1      2733 4.38672E-03-3.93708E-04-5.32820E-15
 -1      2734 4.74993E-03-4.21486E-04-6.24423E-15
 -1      2735 4.89422E-03-4.17859E-04-6.61018E-15
 -1      2736 4.67363E-03-3.86476E-04-6.01644E-15
 -1      2737 5.03882E-03-4.14346E-04-6.98587E-15
 -1      2738 5.18377E-03-4.11036E-04-7.37205E-15
 -1      2739 4.96123E-03-3.79100E-04-6.74376E-15
 -1      2740 5.32912E-03-4.08052E-04-7.76763E-15
 -1      2741 5.47493E-03-4.05520E-04-8.17324E-15
 -1      2742 5.24987E-03-3.72182E-04-7.51146E-15
 -1      2743 5.62130E-03-4.03597E-04-8.58780E-15
 -1      2744 5.76827E-03-4.02461E-04-9.01231E-15
 -1      2745 5.54006E-03-3.66565E-04-8.31780E-15
 -1      2746 5.91597E-03-4.02301E-04-9.44655E-15
 -1      2747 6.06444E-03-4.03352E-04-9.89012E-15
 -1      2748 5.83249E-03-3.63402E-04-9.16228E-15
 -1      2749 6.21387E-03-4.05820E-04-1.03444E-14
 -1      2750 6.36424E-03-4.10000E-04-1.08079E-14
 -1      2751 6.12809E-03-3.64205E-04-1.00469E-14
 -1      2752 6.51579E-03-4.16084E-04-1.12804E-14
 -1      2753 6.66842E-03-4.24396E-04-1.17634E-14
 -1      2754 6.42799E-03-3.70859E-04-1.09680E-14
 -1      2755 6.82240E-03-4.35066E-04-1.22585E-14
 -1      2756 6.97746E-03-4.48372E-04-1.27632E-14
 -1      2757 6.73331E-03-3.85517E-04-1.19295E-14
 -1      2758 7.13386E-03-4.64297E-04-1.32799E-14
 -1      2759 7.29108E-03-4.82905E-04-1.38091E-14
 -1      2760 7.04488E-03-4.10298E-04-1.29350E-14
 -1      2761 7.44930E-03-5.03917E-04-1.43496E-14
 -1      2762 7.60775E-03-5.26935E-04-1.49004E-14
 -1      2763 7.36256E-03-4.46530E-04-1.39861E-14
 -1      2764 7.76639E-03-5.51285E-04-1.54658E-14
 -1      2765 7.92436E-03-5.75810E-04-1.60430E-14
 -1      2766 7.68448E-03-4.93324E-04-1.50850E-14
 -1      2767 8.08139E-03-5.99357E-04-1.66307E-14
 -1      2768 8.23688E-03-6.19918E-04-1.72312E-14
 -1      2769 8.00669E-03-5.45531E-04-1.62319E-14
 -1      2770 8.39046E-03-6.35955E-04-1.78469E-14
 -1      2771 8.54227E-03-6.45076E-04-1.84754E-14
 -1      2772 8.32405E-03-5.91799E-04-1.74283E-14
 -1      2773 8.69192E-03-6.45879E-04-1.91152E-14
 -1      2774 8.84067E-03-6.36324E-04-1.97690E-14
 -1      2775 8.63298E-03-6.15385E-04-1.86785E-14
 -1      2776 8.98830E-03-6.15756E-04-2.04359E-14
 -1      2777 9.13664E-03-5.84010E-04-2.11154E-14
 -1      2778 8.93454E-03-5.98947E-04-1.99786E-14
 -1      2779 9.28547E-03-5.41422E-04-2.18088E-14
 -1      2780 9.43623E-03-4.89501E-04-2.25152E-14
 -1      2781 9.23508E-03-5.33885E-04-2.13328E-14
 -1      2782 9.58863E-03-4.29572E-04-2.32364E-14
 -1      2783 9.74311E-03-3.63985E-04-2.39711E-14
 -1      2784 9.54153E-03-4.25248E-04-2.27436E-14
 -1      2785 9.89927E-03-2.94273E-04-2.47182E-14
 -1      2786 1.00567E-02-2.22707E-04-2.54797E-14
 -1      2787 9.85667E-03-2.88629E-04-2.42098E-14
 -1      2788 1.02151E-02-1.50529E-04-2.62550E-14
 -1      2789 1.03736E-02-7.91616E-05-2.70415E-14
 -1      2790 1.01780E-02-1.41612E-04-2.57301E-14
 -1      2791 1.05321E-02-9.41667E-06-2.78401E-14
 -1      2792 1.06898E-02 5.81371E-05-2.86540E-14
 -1      2793 1.05005E-02 2.53290E-06-2.73030E-14
 -1      2794 1.08468E-02 1.23117E-04-2.94790E-14
 -1      2795 1.10026E-02 1.85496E-04-3.03140E-14
 -1      2796 1.08197E-02 1.37046E-04-2.89257E-14
 -1      2797 1.11572E-02 2.45195E-04-3.11605E-14
 -1      2798 1.13105E-02 3.02456E-04-3.20160E-14
 -1      2799 1.11331E-02 2.60120E-04-3.05951E-14
 -1      2800 1.14628E-02 3.57382E-04-3.28827E-14
 -1      2801 1.16137E-02 4.10297E-04-3.37637E-14
 -1      2802 1.14401E-02 3.72656E-04-3.23083E-14
 -1      2803 1.17637E-02 4.61390E-04-3.46527E-14
 -1      2804 1.19127E-02 5.10972E-04-3.55519E-14
 -1      2805 1.17415E-02 4.76672E-04-3.40618E-14
 -1      2806 1.20608E-02 5.59258E-04-3.64641E-14
 -1      2807 1.22082E-02 6.06508E-04-3.73852E-14
 -1      2808 1.20382E-02 5.74401E-04-3.58598E-14
 -1      2809 1.23549E-02 6.52927E-04-3.83203E-14
 -1      2810 1.25010E-02 6.98716E-04-3.92645E-14
 -1      2811 1.23314E-02 6.67873E-04-3.77009E-14
 -1      2812 1.26466E-02 7.44055E-04-4.02179E-14
 -1      2813 1.27918E-02 7.89090E-04-4.11818E-14
 -1      2814 1.26222E-02 7.58776E-04-3.95838E-14
 -1      2815 1.29366E-02 8.33968E-04-4.21589E-14
 -1      2816 1.30811E-02 8.78797E-04-4.31470E-14
 -1      2817 1.29112E-02 8.48433E-04-4.15113E-14
 -1      2818 1.32253E-02 9.23688E-04-4.41409E-14
 -1      2819 1.33692E-02 9.68724E-04-4.51433E-14
 -1      2820 1.31990E-02 9.37850E-04-4.34754E-14
 -1      2821 1.35129E-02 1.01399E-03-4.61524E-14
 -1      2822 1.36564E-02 1.05953E-03-4.71689E-14
 -1      2823 1.34860E-02 1.02778E-03-4.54724E-14
 -1      2824 2.26911E-03 4.74423E-04-7.95913E-16
 -1      2825 2.12721E-03 4.68275E-04-6.82546E-16
 -1      2826 1.47997E-02 1.93122E-03-4.39821E-14
 -1      2827 1.48488E-02 1.98288E-03-4.36261E-14
 -1      2828 1.47054E-02 1.93331E-03-4.26538E-14
 -1      2829 1.98525E-03 4.60413E-04-5.78828E-16
 -1      2830 1.84317E-03 4.50680E-04-4.84191E-16
 -1      2831 2.04763E-03 4.28255E-04-6.70511E-16
 -1      2832 2.83674E-03 4.86416E-04-1.35134E-15
 -1      2833 2.69477E-03 4.84999E-04-1.19695E-15
 -1      2834 3.12095E-03 4.86874E-04-1.69107E-15
 -1      2835 2.97880E-03 4.87016E-04-1.51585E-15
 -1      2836 2.90299E-03 4.49921E-04-1.49049E-15
 -1      2837 3.40563E-03 4.84730E-04-2.07304E-15
 -1      2838 3.26323E-03 4.86094E-04-1.87685E-15
 -1      2839 3.18817E-03 4.49647E-04-1.84633E-15
 -1      2840 3.69089E-03 4.80490E-04-2.49693E-15
 -1      2841 3.54819E-03 4.82849E-04-2.27981E-15
 -1      2842 3.47356E-03 4.46972E-04-2.24475E-15
 -1      2843 3.97683E-03 4.74492E-04-2.96120E-15
 -1      2844 3.83377E-03 4.77694E-04-2.72417E-15
 -1      2845 3.75923E-03 4.42351E-04-2.68446E-15
 -1      2846 4.26353E-03 4.66964E-04-3.46779E-15
 -1      2847 4.12007E-03 4.70906E-04-3.20904E-15
 -1      2848 4.04522E-03 4.36089E-04-3.16575E-15
 -1      2849 4.55108E-03 4.58093E-04-4.01420E-15
 -1      2850 4.40718E-03 4.62684E-04-3.73594E-15
 -1      2851 4.33154E-03 4.28403E-04-3.68733E-15
 -1      2852 4.83959E-03 4.48094E-04-4.59866E-15
 -1      2853 4.69519E-03 4.53218E-04-4.30232E-15
 -1      2854 4.61819E-03 4.19488E-04-4.24986E-15
 -1      2855 5.12911E-03 4.37311E-04-5.22340E-15
 -1      2856 4.98419E-03 4.42774E-04-4.90585E-15
 -1      2857 4.90510E-03 4.09594E-04-4.84977E-15
 -1      2858 5.41973E-03 4.26351E-04-5.88638E-15
 -1      2859 5.27424E-03 4.31809E-04-5.54956E-15
 -1      2860 5.19215E-03 3.99125E-04-5.48834E-15
 -1      2861 5.71149E-03 4.16268E-04-6.59168E-15
 -1      2862 5.56541E-03 4.21127E-04-6.23324E-15
 -1      2863 5.47916E-03 3.88769E-04-6.16713E-15
 -1      2864 6.00448E-03 4.08834E-04-7.33949E-15
 -1      2865 5.85775E-03 4.12098E-04-6.96074E-15
 -1      2866 5.76584E-03 3.79673E-04-6.88909E-15
 -1      2867 6.29901E-03 4.06913E-04-8.12967E-15
 -1      2868 6.15143E-03 4.06984E-04-7.72958E-15
 -1      2869 6.05194E-03 3.73679E-04-7.65390E-15
 -1      2870 6.59600E-03 4.14964E-04-8.95392E-15
 -1      2871 6.44700E-03 4.09357E-04-8.53697E-15
 -1      2872 6.33744E-03 3.73621E-04-8.45691E-15
 -1      2873 6.89785E-03 4.39719E-04-9.81984E-15
 -1      2874 6.74599E-03 4.24688E-04-9.38286E-15
 -1      2875 6.62315E-03 3.83700E-04-9.29786E-15
 -1      2876 7.20992E-03 4.91097E-04-1.07199E-14
 -1      2877 7.05208E-03 4.61070E-04-1.02652E-14
 -1      2878 6.91179E-03 4.10015E-04-1.01760E-14
 -1      2879 7.54225E-03 5.83747E-04-1.16567E-14
 -1      2880 7.37286E-03 5.30567E-04-1.11831E-14
 -1      2881 7.21005E-03 4.61776E-04-1.10897E-14
 -1      2882 7.90956E-03 7.38522E-04-1.26305E-14
 -1      2883 7.72110E-03 6.50533E-04-1.21390E-14
 -1      2884 7.53108E-03 5.53722E-04-1.20385E-14
 -1      2885 8.73913E-03 1.27120E-03-1.45479E-14
 -1      2886 8.51751E-03 1.11070E-03-1.40101E-14
 -1      2887 9.17272E-03 1.56720E-03-1.53691E-14
 -1      2888 9.56802E-03 1.69319E-03-1.65159E-14
 -1      2889 1.16792E-02 1.02638E-03-2.40818E-14
 -1      2890 1.15127E-02 1.02487E-03-2.33085E-14
 -1      2891 1.19970E-02 1.06219E-03-2.56722E-14
 -1      2892 1.18402E-02 1.04001E-03-2.48701E-14
 -1      2893 1.17938E-02 9.86876E-04-2.46684E-14
 -1      2894 1.23027E-02 1.12745E-03-2.73189E-14
 -1      2895 1.21508E-02 1.09198E-03-2.64885E-14
 -1      2896 1.20910E-02 1.03792E-03-2.62744E-14
 -1      2897 1.26023E-02 1.21123E-03-2.90220E-14
 -1      2898 1.24530E-02 1.16754E-03-2.81636E-14
 -1      2899 1.23806E-02 1.11164E-03-2.79355E-14
 -1      2900 1.28987E-02 1.30610E-03-3.07797E-14
 -1      2901 1.27507E-02 1.25761E-03-2.98948E-14
 -1      2902 1.26679E-02 1.19974E-03-2.96520E-14
 -1      2903 1.31931E-02 1.40709E-03-3.25806E-14
 -1      2904 1.30460E-02 1.35605E-03-3.16751E-14
 -1      2905 1.29550E-02 1.29654E-03-3.14194E-14
 -1      2906 1.34859E-02 1.51095E-03-3.44172E-14
 -1      2907 1.33396E-02 1.45880E-03-3.34945E-14
 -1      2908 1.32424E-02 1.39812E-03-3.32298E-14
 -1      2909 1.37773E-02 1.61562E-03-3.62807E-14
 -1      2910 1.36317E-02 1.56327E-03-3.53465E-14
 -1      2911 1.35300E-02 1.50189E-03-3.50731E-14
 -1      2912 1.40676E-02 1.71984E-03-3.81737E-14
 -1      2913 1.39226E-02 1.66784E-03-3.72264E-14
 -1      2914 1.38176E-02 1.60615E-03-3.69461E-14
 -1      2915 1.43567E-02 1.82283E-03-4.00852E-14
 -1      2916 1.42122E-02 1.77152E-03-3.91263E-14
 -1      2917 1.41051E-02 1.70982E-03-3.88433E-14
 -1      2918 1.46033E-02 1.90365E-03-4.18479E-14
 -1      2919 1.44594E-02 1.85315E-03-4.08823E-14
 -1      2920 1.43512E-02 1.79175E-03-4.05944E-14
 -1      2921 1.45552E-02 1.85203E-03-4.21998E-14
 -1      2922 1.44038E-02 1.56786E-03-4.61919E-14
 -1      2923 1.44500E-02 1.60626E-03-4.59786E-14
 -1      2924 1.37523E-02 1.08970E-03-4.78672E-14
 -1      2925 1.38482E-02 1.12004E-03-4.85649E-14
 -1      2926 1.37250E-02 1.10313E-03-4.71763E-14
 -1      2927 1.45843E-02 1.72173E-03-4.53269E-14
 -1      2928 1.46278E-02 1.76054E-03-4.51050E-14
 -1      2929 1.43092E-02 1.49082E-03-4.66145E-14
 -1      2930 1.43568E-02 1.52941E-03-4.64059E-14
 -1      2931 1.42588E-02 1.50801E-03-4.54365E-14
 -1      2932 1.44954E-02 1.64465E-03-4.57620E-14
 -1      2933 1.45402E-02 1.68313E-03-4.55449E-14
 -1      2934 1.44405E-02 1.66079E-03-4.45807E-14
 -1      2935 1.43512E-02 1.58436E-03-4.50126E-14
 -1      2936 1.70094E-03 4.38667E-04-3.98959E-16
 -1      2937 1.55848E-03 4.24179E-04-3.23607E-16
 -1      2938 1.76206E-03 4.09176E-04-4.75951E-16
 -1      2939 1.42136E-02 1.41442E-03-4.70243E-14
 -1      2940 1.42617E-02 1.45273E-03-4.68193E-14
 -1      2941 1.41640E-02 1.43188E-03-4.58478E-14
 -1      2942 1.41144E-02 1.33572E-03-4.74411E-14
 -1      2943 1.41642E-02 1.37522E-03-4.72330E-14
 -1      2944 1.40667E-02 1.35487E-03-4.62553E-14
 -1      2945 1.40139E-02 1.25580E-03-4.78599E-14
 -1      2946 1.40642E-02 1.29592E-03-4.76509E-14
 -1      2947 1.39666E-02 1.27602E-03-4.66677E-14
 -1      2948 1.16977E-02 7.07368E-04-2.32527E-14
 -1      2949 1.16700E-02 7.00917E-04-2.33016E-14
 -1      2950 8.21808E-03-1.97714E-04-1.63098E-14
 -1      2951 8.08263E-03-1.27125E-04-1.59658E-14
 -1      2952 1.16156E-02 6.89290E-04-2.33573E-14
 -1      2953 1.15344E-02 6.75295E-04-2.34124E-14
 -1      2954 1.16644E-02 7.07796E-04-2.37851E-14
 -1      2955 1.10907E-02 9.34980E-04-2.11643E-14
 -1      2956 1.12575E-02 8.59926E-04-2.16058E-14
 -1      2957 1.16353E-02 7.32410E-04-2.27901E-14
 -1      2958 1.16903E-02 7.20510E-04-2.30775E-14
 -1      2959 8.92680E-03-4.72041E-04-1.84762E-14
 -1      2960 8.78239E-03-4.36691E-04-1.79541E-14
 -1      2961 6.94970E-03 3.16591E-04-1.34806E-14
 -1      2962 6.92918E-03 3.25676E-04-1.33680E-14
 -1      2963 1.13382E-02 1.03592E-03-2.25482E-14
 -1      2964 1.11554E-02 1.06562E-03-2.18036E-14
 -1      2965 1.14781E-02 9.71529E-04-2.31162E-14
 -1      2966 7.87887E-03-3.07417E-05-1.54703E-14
 -1      2967 7.68446E-03 6.13513E-05-1.50459E-14
 -1      2968 2.55285E-03 4.82613E-04-1.05281E-15
 -1      2969 2.41098E-03 4.79161E-04-9.19336E-16
 -1      2970 2.33286E-03 4.40337E-04-9.03439E-16
 -1      2971 2.61793E-03 4.47131E-04-1.17624E-15
 -1      2972 1.06805E-03-3.21030E-04-3.88307E-16
 -1      2973 1.21136E-03-3.46054E-04-4.83988E-16
 -1      2974 1.27290E-03-3.23994E-04-5.34119E-16
 -1      2975 1.05580E-03-2.90817E-04-3.86003E-16
 -1      2976 1.14192E-02 7.96697E-04-2.20597E-14
 -1      2977 1.15356E-02 7.59495E-04-2.23999E-14
 -1      2978 7.84697E-04 1.23268E-04-1.53997E-16
 -1      2979 7.82348E-04 9.98576E-05-1.64216E-16
 -1      2980 9.00017E-04 9.92328E-05-2.16353E-16
 -1      2981 9.05672E-04 1.51295E-04-1.91714E-16
 -1      2982 9.22697E-03-4.53136E-04-1.96503E-14
 -1      2983 9.08724E-03-4.78570E-04-1.91049E-14
 -1      2984 7.44541E-03 4.86187E-04-1.32443E-14
 -1      2985 7.60817E-03 5.56132E-04-1.33232E-14
 -1      2986 1.39164E-02 1.16366E-03-4.85690E-14
 -1      2987 1.41580E-03 4.06687E-04-2.56888E-16
 -1      2988 1.27277E-03 3.85939E-04-1.98775E-16
 -1      2989 1.47601E-03 3.80905E-04-3.18268E-16
 -1      2990 7.48610E-03 1.50433E-04-1.46525E-14
 -1      2991 7.33178E-03 2.07045E-04-1.43451E-14
 -1      2992 7.82064E-04-9.78153E-05-2.29241E-16
 -1      2993 7.84336E-04-1.21139E-04-2.34025E-16
 -1      2994 1.08024E-02 4.15683E-04-2.28541E-14
 -1      2995 1.06223E-02 3.26624E-04-2.26624E-14
 -1      2996 1.14075E-02 6.41177E-04-2.33006E-14
 -1      2997 1.12840E-02 6.05594E-04-2.32174E-14
 -1      2998 6.94884E-03 3.35950E-04-1.32776E-14
 -1      2999 7.00181E-03 3.45255E-04-1.31855E-14
 -1      3000 9.58270E-03-2.95750E-04-2.07845E-14
 -1      3001 9.43103E-03-3.77065E-04-2.03488E-14
 -1      3002 1.07078E-02 1.14157E-03-2.01231E-14
 -1      3003 1.08887E-02 1.03789E-03-2.06179E-14
 -1      3004 7.16519E-03 2.60829E-04-1.39990E-14
 -1      3005 7.03616E-03 2.91922E-04-1.37054E-14
 -1      3006 9.60710E-03 1.68398E-03-1.67305E-14
 -1      3007 9.79211E-03 1.64987E-03-1.73382E-14
 -1      3008 9.94725E-04 3.34736E-04-1.09586E-16
 -1      3009 8.73390E-04 2.68515E-04-1.06021E-16
 -1      3010 9.91552E-04 2.77362E-04-1.50813E-16
 -1      3011 1.13830E-03 3.63367E-04-1.51639E-16
 -1      3012 7.87335E-04-1.45263E-04-2.37969E-16
 -1      3013 7.91137E-04-1.70419E-04-2.41303E-16
 -1      3014 9.05177E-04-1.48777E-04-2.98481E-16
 -1      3015 8.95930E-04 9.97190E-07-2.56387E-16
 -1      3016 7.78046E-04-9.71266E-06-2.05172E-16
 -1      3017 7.78401E-04-3.13212E-05-2.11948E-16
 -1      3018 1.16223E-02 7.58503E-04-2.29810E-14
 -1      3019 1.00551E-02-3.32978E-06-2.20300E-14
 -1      3020 9.97112E-03-6.16655E-05-2.21064E-14
 -1      3021 1.01758E-02 6.96889E-05-2.24463E-14
 -1      3022 8.98026E-03-4.83061E-04-1.87959E-14
 -1      3023 1.05045E-02 2.66099E-04-2.27454E-14
 -1      3024 1.04012E-02 2.04114E-04-2.28257E-14
 -1      3025 1.06179E-02 3.23778E-04-2.32058E-14
 -1      3026 1.09076E-02 4.65488E-04-2.33363E-14
 -1      3027 1.45268E-02 1.73760E-03-4.41457E-14
 -1      3028 1.46705E-02 1.79927E-03-4.48872E-14
 -1      3029 1.47129E-02 1.83833E-03-4.46648E-14
 -1      3030 7.20540E-03 2.20267E-04-1.39199E-14
 -1      3031 1.19825E-03 3.42631E-04-1.99209E-16
 -1      3032 8.34505E-03 9.88154E-04-1.38787E-14
 -1      3033 8.36752E-03 1.00981E-03-1.36351E-14
 -1      3034 8.15618E-03 8.76540E-04-1.31204E-14
 -1      3035 8.23219E-03 9.09701E-04-1.38998E-14
 -1      3036 7.94305E-03 7.42192E-04-1.30103E-14
 -1      3037 9.25131E-03 1.60227E-03-1.56939E-14
 -1      3038 9.02916E-03 1.47718E-03-1.51611E-14
 -1      3039 9.41018E-03 1.66538E-03-1.61163E-14
 -1      3040 7.55206E-03 8.47463E-05-1.46506E-14
 -1      3041 1.05697E-02 1.25099E-03-1.97611E-14
 -1      3042 1.03479E-02 1.36152E-03-1.90755E-14
 -1      3043 1.07060E-02 1.20192E-03-2.01999E-14
 -1      3044 8.09980E-03 8.25992E-04-1.35714E-14
 -1      3045 8.86808E-03 1.36321E-03-1.48525E-14
 -1      3046 1.47574E-02 1.89120E-03-4.42011E-14
 -1      3047 8.30753E-03-2.53656E-04-1.65446E-14
 -1      3048 8.20392E-03-2.34876E-04-1.62554E-14
 -1      3049 8.38652E-03-3.06842E-04-1.67817E-14
 -1      3050 9.68092E-03-2.39561E-04-2.12603E-14
 -1      3051 1.13741E-02 8.39098E-04-2.21282E-14
 -1      3052 1.17235E-02 7.26918E-04-2.35526E-14
 -1      3053 1.39665E-02 1.20459E-03-4.83628E-14
 -1      3054 7.92812E-03-8.89487E-05-1.55281E-14
 -1      3055 6.91036E-03 3.17660E-04-1.30477E-14
 -1      3056 1.14905E-02 6.69233E-04-2.37287E-14
 -1      3057 1.10284E-02 9.93867E-04-2.11163E-14
 -1      3058 6.95983E-03 2.93426E-04-1.33594E-14
 -1      3059 6.89889E-03 2.87448E-04-1.30165E-14
 -1      3060 6.97351E-03 2.65068E-04-1.32352E-14
 -1      3061 1.37966E-02 1.14418E-03-4.72756E-14
 -1      3062 1.39425E-02 1.21510E-03-4.77635E-14
 -1      3063 1.38445E-02 1.19561E-03-4.67786E-14
 -1      3064 1.37011E-02 1.11413E-03-4.65829E-14
 -1      3065 8.66449E-03-4.07337E-04-1.76200E-14
 -1      3066 7.79164E-04-5.30685E-05-2.18169E-16
 -1      3067 7.80359E-04-7.52216E-05-2.23806E-16
 -1      3068 8.99716E-04-9.69018E-05-2.87015E-16
 -1      3069 8.96806E-04-4.74313E-05-2.72799E-16
 -1      3070 1.10822E-02 1.02369E-03-2.14529E-14
 -1      3071 1.09130E-02 1.12637E-03-2.09116E-14
 -1      3072 7.32153E-03 4.36858E-04-1.28709E-14
 -1      3073 1.00028E-02 1.56809E-03-1.79985E-14
 -1      3074 1.01682E-02 1.47226E-03-1.85339E-14
 -1      3075 9.31912E-03-4.24462E-04-2.01244E-14
 -1      3076 9.21887E-03-4.58590E-04-1.98999E-14
 -1      3077 9.40818E-03-3.87821E-04-2.06032E-14
 -1      3078 1.12216E-02 5.89295E-04-2.35826E-14
 -1      3079 1.04045E-03 2.42773E-04-1.97731E-16
 -1      3080 1.03391E-03 2.11084E-04-2.15810E-16
 -1      3081 7.01959E-03 3.46671E-04-1.30500E-14
 -1      3082 7.05506E-03 3.52152E-04-1.27207E-14
 -1      3083 1.73182E-03-3.38624E-04-9.27061E-16
 -1      3084 1.87550E-03-3.48400E-04-1.07076E-15
 -1      3085 2.01916E-03-3.56391E-04-1.22431E-15
 -1      3086 2.16281E-03-3.62744E-04-1.38825E-15
 -1      3087 1.94039E-03-3.16981E-04-1.13570E-15
 -1      3088 2.30641E-03-3.67727E-04-1.56277E-15
 -1      3089 2.44995E-03-3.71458E-04-1.74731E-15
 -1      3090 2.22838E-03-3.29011E-04-1.46019E-15
 -1      3091 2.59343E-03-3.74150E-04-1.94322E-15
 -1      3092 2.73685E-03-3.75893E-04-2.14915E-15
 -1      3093 2.51625E-03-3.36113E-04-1.82628E-15
 -1      3094 2.88022E-03-3.76849E-04-2.36542E-15
 -1      3095 3.02351E-03-3.77086E-04-2.59273E-15
 -1      3096 2.80384E-03-3.39451E-04-2.23366E-15
 -1      3097 3.16676E-03-3.76722E-04-2.83091E-15
 -1      3098 3.30995E-03-3.75807E-04-3.08057E-15
 -1      3099 3.09107E-03-3.39922E-04-2.68375E-15
 -1      3100 3.45310E-03-3.74430E-04-3.34070E-15
 -1      3101 3.59620E-03-3.72622E-04-3.61084E-15
 -1      3102 3.37790E-03-3.38191E-04-3.17751E-15
 -1      3103 3.73927E-03-3.70451E-04-3.89181E-15
 -1      3104 3.88231E-03-3.67942E-04-4.18330E-15
 -1      3105 3.66434E-03-3.34741E-04-3.71385E-15
 -1      3106 4.02533E-03-3.65148E-04-4.48483E-15
 -1      3107 4.16834E-03-3.62089E-04-4.79643E-15
 -1      3108 3.95039E-03-3.29920E-04-4.29221E-15
 -1      3109 4.31136E-03-3.58815E-04-5.11829E-15
 -1      3110 4.45440E-03-3.55350E-04-5.44990E-15
 -1      3111 4.23611E-03-3.24000E-04-4.91042E-15
 -1      3112 4.59748E-03-3.51747E-04-5.79101E-15
 -1      3113 4.74064E-03-3.48040E-04-6.14266E-15
 -1      3114 4.52158E-03-3.17224E-04-5.56922E-15
 -1      3115 4.88391E-03-3.44296E-04-6.50531E-15
 -1      3116 5.02734E-03-3.40569E-04-6.87620E-15
 -1      3117 4.80697E-03-3.09864E-04-6.26756E-15
 -1      3118 5.17098E-03-3.36943E-04-7.25747E-15
 -1      3119 5.31491E-03-3.33507E-04-7.64922E-15
 -1      3120 5.09258E-03-3.02282E-04-7.00668E-15
 -1      3121 5.45919E-03-3.30369E-04-8.05073E-15
 -1      3122 5.60395E-03-3.27668E-04-8.46129E-15
 -1      3123 5.37888E-03-2.95000E-04-7.78534E-15
 -1      3124 5.74930E-03-3.25535E-04-8.88164E-15
 -1      3125 5.89536E-03-3.24182E-04-9.31136E-15
 -1      3126 5.66661E-03-2.88776E-04-8.60252E-15
 -1      3127 6.04234E-03-3.23762E-04-9.75057E-15
 -1      3128 6.19035E-03-3.24578E-04-1.02007E-14
 -1      3129 5.95687E-03-2.84705E-04-9.45781E-15
 -1      3130 6.33966E-03-3.26797E-04-1.06593E-14
 -1      3131 6.49038E-03-3.30831E-04-1.11264E-14
 -1      3132 6.25116E-03-2.84324E-04-1.03520E-14
 -1      3133 6.64285E-03-3.36840E-04-1.16053E-14
 -1      3134 6.79706E-03-3.45328E-04-1.20945E-14
 -1      3135 6.55136E-03-2.89737E-04-1.12842E-14
 -1      3136 6.95339E-03-3.56415E-04-1.25943E-14
 -1      3137 7.11160E-03-3.70617E-04-1.31049E-14
 -1      3138 6.85958E-03-3.03669E-04-1.22564E-14
 -1      3139 7.27204E-03-3.87943E-04-1.36273E-14
 -1      3140 7.43405E-03-4.08618E-04-1.41613E-14
 -1      3141 7.17753E-03-3.29329E-04-1.32731E-14
 -1      3142 7.59781E-03-4.32395E-04-1.47073E-14
 -1      3143 7.76217E-03-4.58802E-04-1.52669E-14
 -1      3144 7.50543E-03-3.69516E-04-1.43347E-14
 -1      3145 7.92702E-03-4.87139E-04-1.58370E-14
 -1      3146 8.09091E-03-5.15573E-04-1.64186E-14
 -1      3147 7.84051E-03-4.24300E-04-1.54451E-14
 -1      3148 8.25342E-03-5.42653E-04-1.70119E-14
 -1      3149 8.41362E-03-5.65147E-04-1.76208E-14
 -1      3150 8.17624E-03-4.87252E-04-1.66012E-14
 -1      3151 8.57088E-03-5.81394E-04-1.82425E-14
 -1      3152 8.72601E-03-5.87401E-04-1.88756E-14
 -1      3153 8.50406E-03-5.41095E-04-1.78094E-14
 -1      3154 8.87845E-03-5.81416E-04-1.95244E-14
 -1      3155 9.03075E-03-5.61617E-04-2.01850E-14
 -1      3156 8.82007E-03-5.60884E-04-1.90721E-14
 -1      3157 9.18237E-03-5.27667E-04-2.08596E-14
 -1      3158 9.33632E-03-4.80984E-04-2.15484E-14
 -1      3159 9.12874E-03-5.22119E-04-2.03886E-14
 -1      3160 9.49206E-03-4.22683E-04-2.22535E-14
 -1      3161 9.65085E-03-3.56199E-04-2.29715E-14
 -1      3162 9.44164E-03-4.22567E-04-2.17644E-14
 -1      3163 9.81212E-03-2.83705E-04-2.37034E-14
 -1      3164 9.97519E-03-2.08486E-04-2.44488E-14
 -1      3165 9.76632E-03-2.80819E-04-2.31987E-14
 -1      3166 1.01397E-02-1.32061E-04-2.52069E-14
 -1      3167 1.03043E-02-5.70071E-05-2.59803E-14
 -1      3168 1.01006E-02-1.23055E-04-2.46867E-14
 -1      3169 1.04686E-02 1.59129E-05-2.67663E-14
 -1      3170 1.06315E-02 8.59022E-05-2.75638E-14
 -1      3171 1.04366E-02 3.02581E-05-2.62294E-14
 -1      3172 1.07930E-02 1.52616E-04-2.83751E-14
 -1      3173 1.09524E-02 2.16155E-04-2.91987E-14
 -1      3174 1.07670E-02 1.69759E-04-2.78251E-14
 -1      3175 1.11099E-02 2.76472E-04-3.00319E-14
 -1      3176 1.12652E-02 3.34039E-04-3.08765E-14
 -1      3177 1.10879E-02 2.94382E-04-2.94691E-14
 -1      3178 1.14188E-02 3.88955E-04-3.17312E-14
 -1      3179 1.15704E-02 4.41742E-04-3.25978E-14
 -1      3180 1.13988E-02 4.06458E-04-3.11560E-14
 -1      3181 1.17206E-02 4.92560E-04-3.34749E-14
 -1      3182 1.18693E-02 5.41856E-04-3.43620E-14
 -1      3183 1.17011E-02 5.09211E-04-3.28870E-14
 -1      3184 1.20169E-02 5.89803E-04-3.52599E-14
 -1      3185 1.21634E-02 6.36740E-04-3.61664E-14
 -1      3186 1.19969E-02 6.05575E-04-3.46607E-14
 -1      3187 1.23092E-02 6.82835E-04-3.70843E-14
 -1      3188 1.24543E-02 7.28327E-04-3.80142E-14
 -1      3189 1.22882E-02 6.97874E-04-3.64723E-14
 -1      3190 1.25988E-02 7.73366E-04-3.89534E-14
 -1      3191 1.27429E-02 8.18115E-04-3.99017E-14
 -1      3192 1.25765E-02 7.87849E-04-3.83226E-14
 -1      3193 1.28867E-02 8.62700E-04-4.08642E-14
 -1      3194 1.30302E-02 9.07230E-04-4.18352E-14
 -1      3195 1.28631E-02 8.76767E-04-4.02208E-14
 -1      3196 1.31735E-02 9.51804E-04-4.28142E-14
 -1      3197 1.33167E-02 9.96499E-04-4.38008E-14
 -1      3198 1.31487E-02 9.65533E-04-4.21557E-14
 -1      3199 1.34374E-02 1.03253E-03-4.46826E-14
 -1      3200 1.35804E-02 1.07764E-03-4.56850E-14
 -1      3201 1.36524E-02 1.11841E-03-4.57845E-14
 -1      3202 1.34117E-02 1.04599E-03-4.40115E-14
 -1      3203 2.11124E-03 3.95490E-04-7.65853E-16
 -1      3204 1.96798E-03 3.88144E-04-6.56349E-16
 -1      3205 3.25561E-03 4.12241E-04-2.00523E-15
 -1      3206 3.11266E-03 4.13000E-04-1.81395E-15
 -1      3207 2.96970E-03 4.13136E-04-1.63300E-15
 -1      3208 2.82671E-03 4.12595E-04-1.46298E-15
 -1      3209 3.03681E-03 3.76159E-04-1.77946E-15
 -1      3210 3.82731E-03 4.04286E-04-2.87576E-15
 -1      3211 3.68440E-03 4.06927E-04-2.64276E-15
 -1      3212 4.11309E-03 3.97912E-04-3.37268E-15
 -1      3213 3.97021E-03 4.01275E-04-3.11883E-15
 -1      3214 3.89514E-03 3.66391E-04-3.07045E-15
 -1      3215 4.39874E-03 3.90249E-04-3.91008E-15
 -1      3216 4.25593E-03 3.94232E-04-3.63609E-15
 -1      3217 4.18046E-03 3.60062E-04-3.58248E-15
 -1      3218 4.68413E-03 3.81514E-04-4.48754E-15
 -1      3219 4.54146E-03 3.86006E-04-4.19457E-15
 -1      3220 4.46515E-03 3.52612E-04-4.13672E-15
 -1      3221 4.96905E-03 3.72003E-04-5.10343E-15
 -1      3222 4.82665E-03 3.76840E-04-4.79086E-15
 -1      3223 4.74897E-03 3.44288E-04-4.72899E-15
 -1      3224 5.25316E-03 3.62187E-04-5.75664E-15
 -1      3225 5.11120E-03 3.67108E-04-5.42485E-15
 -1      3226 5.03153E-03 3.35445E-04-5.35963E-15
 -1      3227 5.53600E-03 3.52840E-04-6.45263E-15
 -1      3228 5.39473E-03 3.57415E-04-6.09931E-15
 -1      3229 5.31228E-03 3.26629E-04-6.02869E-15
 -1      3230 5.81696E-03 3.45186E-04-7.19111E-15
 -1      3231 5.67670E-03 3.48739E-04-6.81664E-15
 -1      3232 5.59048E-03 3.18696E-04-6.74240E-15
 -1      3233 6.09543E-03 3.41084E-04-7.97138E-15
 -1      3234 5.95648E-03 3.42593E-04-7.57601E-15
 -1      3235 5.86520E-03 3.12923E-04-7.49619E-15
 -1      3236 6.37100E-03 3.43232E-04-8.78735E-15
 -1      3237 6.23349E-03 3.41225E-04-8.37538E-15
 -1      3238 6.13540E-03 3.11125E-04-8.29077E-15
 -1      3239 6.64413E-03 3.55384E-04-9.64413E-15
 -1      3240 6.50763E-03 3.47801E-04-9.21106E-15
 -1      3241 6.40019E-03 3.15734E-04-9.12279E-15
 -1      3242 6.91745E-03 3.82770E-04-1.05348E-14
 -1      3243 6.78025E-03 3.66697E-04-1.00840E-14
 -1      3244 6.65941E-03 3.29798E-04-9.99067E-15
 -1      3245 7.19775E-03 4.33600E-04-1.14613E-14
 -1      3246 7.05556E-03 4.04210E-04-1.09942E-14
 -1      3247 6.91488E-03 3.57390E-04-1.08956E-14
 -1      3248 1.24519E-02 1.10032E-03-2.85540E-14
 -1      3249 1.23142E-02 1.05867E-03-2.77109E-14
 -1      3250 1.21769E-02 1.02041E-03-2.68767E-14
 -1      3251 1.20388E-02 9.86477E-04-2.60598E-14
 -1      3252 1.22531E-02 1.00851E-03-2.74843E-14
 -1      3253 7.56418E-03 2.61797E-05-1.45404E-14
 -1      3254 7.39593E-03 1.03037E-04-1.41575E-14
 -1      3255 1.19002E-02 9.57345E-04-2.52570E-14
 -1      3256 1.17584E-02 9.35172E-04-2.44652E-14
 -1      3257 1.19941E-02 9.37177E-04-2.58458E-14
 -1      3258 1.27286E-02 1.19124E-03-3.02822E-14
 -1      3259 1.25899E-02 1.14464E-03-2.94122E-14
 -1      3260 1.25160E-02 1.09235E-03-2.91734E-14
 -1      3261 1.30078E-02 1.28897E-03-3.20606E-14
 -1      3262 1.28678E-02 1.23942E-03-3.11652E-14
 -1      3263 1.27840E-02 1.18479E-03-3.09139E-14
 -1      3264 1.32893E-02 1.39052E-03-3.38777E-14
 -1      3265 1.31482E-02 1.33938E-03-3.29632E-14
 -1      3266 1.30568E-02 1.28269E-03-3.26994E-14
 -1      3267 1.35725E-02 1.49377E-03-3.57287E-14
 -1      3268 1.34306E-02 1.44201E-03-3.47999E-14
 -1      3269 1.33336E-02 1.38374E-03-3.45273E-14
 -1      3270 1.38569E-02 1.59732E-03-3.76102E-14
 -1      3271 1.37146E-02 1.54556E-03-3.66680E-14
 -1      3272 1.36133E-02 1.48621E-03-3.63892E-14
 -1      3273 1.41420E-02 1.70023E-03-3.95137E-14
 -1      3274 1.39994E-02 1.64889E-03-3.85594E-14
 -1      3275 1.38951E-02 1.58887E-03-3.82743E-14
 -1      3276 8.69924E-03-4.41253E-04-1.78278E-14
 -1      3277 8.54433E-03-3.79647E-04-1.72809E-14
 -1      3278 1.40185E-02 1.37291E-03-4.50863E-14
 -1      3279 1.40663E-02 1.41066E-03-4.48863E-14
 -1      3280 1.01704E-03 6.80080E-05-2.89346E-16
 -1      3281 1.01589E-03 4.10968E-05-3.01327E-16
 -1      3282 1.82467E-03 3.78972E-04-5.56372E-16
 -1      3283 1.68129E-03 3.67809E-04-4.65353E-16
 -1      3284 1.88849E-03 3.48116E-04-6.39896E-16
 -1      3285 1.41143E-02 1.44881E-03-4.46798E-14
 -1      3286 1.41614E-02 1.48680E-03-4.44729E-14
 -1      3287 1.39698E-02 1.38997E-03-4.39270E-14
 -1      3288 1.38185E-02 1.21656E-03-4.58978E-14
 -1      3289 1.38692E-02 1.25627E-03-4.56921E-14
 -1      3290 7.84707E-03 6.80947E-04-1.30743E-14
 -1      3291 1.12533E-02 9.43935E-04-2.20161E-14
 -1      3292 7.99336E-04-1.91337E-04-2.45382E-16
 -1      3293 8.07283E-04-2.15194E-04-2.48486E-16
 -1      3294 9.36561E-04-2.45884E-04-3.17387E-16
 -1      3295 9.17481E-04-1.98410E-04-3.08293E-16
 -1      3296 9.00571E-03-4.91843E-04-1.90632E-14
 -1      3297 8.85921E-03-4.80255E-04-1.84377E-14
 -1      3298 8.73887E-03-4.69535E-04-1.80857E-14
 -1      3299 1.16130E-02 9.20402E-04-2.36879E-14
 -1      3300 1.14603E-02 9.17447E-04-2.29218E-14
 -1      3301 1.17339E-02 8.83780E-04-2.42609E-14
 -1      3302 1.15581E-02 6.90026E-04-2.42322E-14
 -1      3303 1.14367E-02 6.59317E-04-2.41185E-14
 -1      3304 1.14179E-02 8.73249E-04-2.25703E-14
 -1      3305 1.17149E-02 7.24543E-04-2.42093E-14
 -1      3306 1.16618E-02 7.14772E-04-2.42662E-14
 -1      3307 7.73412E-03 6.19095E-04-1.33096E-14
 -1      3308 1.16172E-02 7.90609E-04-2.32200E-14
 -1      3309 1.17035E-02 7.69618E-04-2.36164E-14
 -1      3310 7.22902E-03 1.72139E-04-1.37901E-14
 -1      3311 7.08578E-03 2.18062E-04-1.34528E-14
 -1      3312 6.87241E-03 3.00971E-04-1.28036E-14
 -1      3313 6.89354E-03 3.09565E-04-1.27160E-14
 -1      3314 1.39194E-02 1.29543E-03-4.54915E-14
 -1      3315 1.39693E-02 1.33442E-03-4.52886E-14
 -1      3316 1.38721E-02 1.31379E-03-4.43320E-14
 -1      3317 1.37721E-02 1.23642E-03-4.47302E-14
 -1      3318 3.54148E-03 4.09156E-04-2.41989E-15
 -1      3319 3.39855E-03 4.10947E-04-2.20741E-15
 -1      3320 3.32324E-03 3.74754E-04-2.16797E-15
 -1      3321 3.60937E-03 3.71376E-04-2.59834E-15
 -1      3322 1.44471E-03-3.12587E-04-6.71162E-16
 -1      3323 1.58822E-03-3.26748E-04-7.93812E-16
 -1      3324 1.65261E-03-2.98583E-04-8.51980E-16
 -1      3325 9.78595E-03-1.80103E-04-2.17903E-14
 -1      3326 9.62607E-03-2.77115E-04-2.13538E-14
 -1      3327 1.17557E-02 7.47850E-04-2.39455E-14
 -1      3328 1.17546E-02 7.37421E-04-2.41243E-14
 -1      3329 1.46131E-02 1.82855E-03-4.34687E-14
 -1      3330 7.99254E-03-1.56290E-04-1.56577E-14
 -1      3331 7.80933E-03-7.44898E-05-1.51692E-14
 -1      3332 1.53792E-03 3.54289E-04-3.83428E-16
 -1      3333 1.39453E-03 3.38208E-04-3.10692E-16
 -1      3334 1.60115E-03 3.26832E-04-4.52478E-16
 -1      3335 1.15489E-02 8.26796E-04-2.30370E-14
 -1      3336 1.13199E-02 6.23770E-04-2.40823E-14
 -1      3337 1.11902E-02 5.79478E-04-2.40481E-14
 -1      3338 1.14106E-02 6.50516E-04-2.45886E-14
 -1      3339 1.10064E-02 5.05543E-04-2.39368E-14
 -1      3340 1.08406E-02 4.31912E-04-2.37210E-14
 -1      3341 6.95540E-03 3.28151E-04-1.28235E-14
 -1      3342 7.22508E-03 4.06402E-04-1.24728E-14
 -1      3343 7.38784E-03 4.65285E-04-1.25917E-14
 -1      3344 1.15366E-03 3.11767E-04-2.02109E-16
 -1      3345 1.08246E-03 2.71070E-04-1.97975E-16
 -1      3346 1.20162E-03 2.72321E-04-2.58135E-16
 -1      3347 1.28819E-03 3.31654E-04-2.56116E-16
 -1      3348 6.98246E-03 3.33095E-04-1.23867E-14
 -1      3349 7.07928E-03 3.58762E-04-1.24160E-14
 -1      3350 7.61182E-03 5.63913E-04-1.27602E-14
 -1      3351 7.48351E-03 5.16880E-04-1.23612E-14
 -1      3352 1.01529E-03 1.43950E-05-3.12697E-16
 -1      3353 1.01525E-03-1.22063E-05-3.23282E-16
 -1      3354 1.13600E-03 3.00486E-05-3.73589E-16
 -1      3355 1.02952E-02 1.36845E-04-2.29025E-14
 -1      3356 1.02055E-02 7.22566E-05-2.29766E-14
 -1      3357 1.04134E-02 1.97415E-04-2.33630E-14
 -1      3358 9.09699E-03-4.88077E-04-1.95247E-14
 -1      3359 8.97979E-03-5.03633E-04-1.91536E-14
 -1      3360 9.18443E-03-4.73215E-04-1.99915E-14
 -1      3361 1.40642E-02 1.46535E-03-4.35149E-14
 -1      3362 1.42076E-02 1.52466E-03-4.42636E-14
 -1      3363 1.42530E-02 1.56252E-03-4.40507E-14
 -1      3364 1.07384E-02 3.75637E-04-2.38013E-14
 -1      3365 1.43838E-02 1.67621E-03-4.34066E-14
 -1      3366 1.44259E-02 1.71445E-03-4.31888E-14
 -1      3367 1.22727E-03-2.87563E-04-5.04371E-16
 -1      3368 1.33592E-03-3.00895E-04-5.84792E-16
 -1      3369 1.40008E-03-2.76612E-04-6.35695E-16
 -1      3370 1.04428E-03-2.64283E-04-3.81775E-16
 -1      3371 2.75010E-03 3.75071E-04-1.43326E-15
 -1      3372 2.68370E-03 4.11250E-04-1.30321E-15
 -1      3373 2.54066E-03 4.09026E-04-1.15351E-15
 -1      3374 7.24680E-03 1.15086E-04-1.36833E-14
 -1      3375 7.32837E-03 4.66711E-04-1.18775E-14
 -1      3376 7.15883E-03 4.02068E-04-1.17761E-14
 -1      3377 7.63454E-03-3.85382E-05-1.46639E-14
 -1      3378 7.46733E-03-1.66441E-05-1.41658E-14
 -1      3379 7.69227E-03-1.03770E-04-1.47853E-14
 -1      3380 8.43518E-03-3.58662E-04-1.69808E-14
 -1      3381 1.42440E-02 1.73095E-03-4.03078E-14
 -1      3382 1.41379E-02 1.67081E-03-4.00206E-14
 -1      3383 1.43458E-02 1.76140E-03-4.11056E-14
 -1      3384 1.16313E-02 7.10527E-04-2.46600E-14
 -1      3385 1.42973E-02 1.60017E-03-4.38376E-14
 -1      3386 1.43410E-02 1.63821E-03-4.36222E-14
 -1      3387 1.42411E-02 1.61501E-03-4.26698E-14
 -1      3388 1.41546E-02 1.54013E-03-4.30950E-14
 -1      3389 7.12672E-03 3.79523E-04-1.21418E-14
 -1      3390 1.16590E-02 8.31188E-04-2.36736E-14
 -1      3391 6.84872E-03 2.82244E-04-1.26847E-14
 -1      3392 6.80735E-03 2.75557E-04-1.23574E-14
 -1      3393 6.83419E-03 2.60875E-04-1.25654E-14
 -1      3394 1.02403E-03-1.48756E-04-3.65471E-16
 -1      3395 1.02802E-03-1.77955E-04-3.71421E-16
 -1      3396 6.98624E-03 2.28350E-04-1.31086E-14
 -1      3397 6.89864E-03 2.30860E-04-1.27703E-14
 -1      3398 6.99267E-03 1.86007E-04-1.29805E-14
 -1      3399 2.25443E-03 4.01315E-04-8.85265E-16
 -1      3400 2.17589E-03 3.62207E-04-8.65180E-16
 -1      3401 2.39757E-03 4.05748E-04-1.01441E-15
 -1      3402 1.00093E-02-5.18082E-05-2.26163E-14
 -1      3403 9.89691E-03-1.16661E-04-2.22010E-14
 -1      3404 9.83626E-03-1.65520E-04-2.22932E-14
 -1      3405 1.11259E-02 5.47811E-04-2.44382E-14
 -1      3406 1.01854E-03-9.27545E-05-3.50672E-16
 -1      3407 1.02088E-03-1.20406E-04-3.58559E-16
 -1      3408 1.14370E-03-1.45469E-04-4.38370E-16
 -1      3409 1.17740E-02 7.45745E-04-2.46101E-14
 -1      3410 1.02865E-03 1.80740E-04-2.32751E-16
 -1      3411 1.02453E-03 1.51461E-04-2.48526E-16
 -1      3412 1.15340E-03 2.11228E-04-2.77095E-16
 -1      3413 1.17768E-02 7.73168E-04-2.41922E-14
 -1      3414 1.18360E-02 7.82799E-04-2.47739E-14
 -1      3415 1.17963E-02 8.02856E-04-2.44394E-14
 -1      3416 8.14955E-03-2.59466E-04-1.61135E-14
 -1      3417 8.07441E-03-2.08361E-04-1.58854E-14
 -1      3418 7.94687E-03-1.90321E-04-1.55178E-14
 -1      3419 1.02127E-03 1.22973E-04-2.62946E-16
 -1      3420 1.01883E-03 9.52616E-05-2.76539E-16
 -1      3421 1.13864E-03 8.83192E-05-3.45156E-16
 -1      3422 1.14419E-03 1.48307E-04-3.13362E-16
 -1      3423 1.44657E-02 1.75657E-03-4.28737E-14
 -1      3424 1.45089E-02 1.80889E-03-4.24174E-14
 -1      3425 9.51123E-03-3.42618E-04-2.11197E-14
 -1      3426 9.40709E-03-3.96831E-04-2.08854E-14
 -1      3427 9.61453E-03-2.93944E-04-2.16425E-14
 -1      3428 1.35092E-03 3.08204E-04-3.12088E-16
 -1      3429 6.89533E-03 3.09807E-04-1.25820E-14
 -1      3430 6.90019E-03 3.10524E-04-1.24492E-14
 -1      3431 6.84036E-03 2.93468E-04-1.23420E-14
 -1      3432 6.90409E-03 3.13192E-04-1.21492E-14
 -1      3433 1.36997E-02 1.14742E-03-4.57932E-14
 -1      3434 1.37715E-02 1.18783E-03-4.58900E-14
 -1      3435 1.36742E-02 1.16859E-03-4.49212E-14
 -1      3436 1.35795E-02 1.11106E-03-4.49040E-14
 -1      3437 8.76525E-03-4.96620E-04-1.83387E-14
 -1      3438 8.61640E-03-4.59123E-04-1.77329E-14
 -1      3439 2.15060E-03-2.90448E-04-1.36050E-15
 -1      3440 2.29488E-03-2.94773E-04-1.53091E-15
 -1      3441 2.43913E-03-2.98061E-04-1.71214E-15
 -1      3442 2.58332E-03-3.00399E-04-1.90372E-15
 -1      3443 2.36220E-03-2.60087E-04-1.60129E-15
 -1      3444 2.72743E-03-3.01946E-04-2.10469E-15
 -1      3445 2.87142E-03-3.02764E-04-2.31617E-15
 -1      3446 2.65108E-03-2.64390E-04-1.97893E-15
 -1      3447 3.01530E-03-3.02977E-04-2.53974E-15
 -1      3448 3.15904E-03-3.02628E-04-2.77342E-15
 -1      3449 2.93955E-03-2.65912E-04-2.39866E-15
 -1      3450 3.30264E-03-3.01810E-04-3.01800E-15
 -1      3451 3.44610E-03-3.00550E-04-3.27372E-15
 -1      3452 3.22740E-03-2.65282E-04-2.86185E-15
 -1      3453 3.58940E-03-2.98920E-04-3.53935E-15
 -1      3454 3.73254E-03-2.96933E-04-3.81536E-15
 -1      3455 3.51452E-03-2.62961E-04-3.36799E-15
 -1      3456 3.87553E-03-2.94644E-04-4.10207E-15
 -1      3457 4.01837E-03-2.92061E-04-4.39868E-15
 -1      3458 3.80082E-03-2.59271E-04-3.91535E-15
 -1      3459 4.16105E-03-2.89228E-04-4.70624E-15
 -1      3460 4.30360E-03-2.86150E-04-5.02292E-15
 -1      3461 4.08625E-03-2.54431E-04-4.50472E-15
 -1      3462 4.44600E-03-2.82869E-04-5.34979E-15
 -1      3463 4.58830E-03-2.79392E-04-5.68650E-15
 -1      3464 4.37082E-03-2.48597E-04-5.13393E-15
 -1      3465 4.73050E-03-2.75764E-04-6.03310E-15
 -1      3466 4.87266E-03-2.72005E-04-6.39088E-15
 -1      3467 4.65459E-03-2.41903E-04-5.80251E-15
 -1      3468 5.01479E-03-2.68166E-04-6.75782E-15
 -1      3469 5.15698E-03-2.64289E-04-7.13476E-15
 -1      3470 4.93772E-03-2.34498E-04-6.51146E-15
 -1      3471 5.29928E-03-2.60438E-04-7.52192E-15
 -1      3472 5.44180E-03-2.56694E-04-7.91908E-15
 -1      3473 5.22055E-03-2.26605E-04-7.26139E-15
 -1      3474 5.58465E-03-2.53134E-04-8.32647E-15
 -1      3475 5.72799E-03-2.49903E-04-8.74248E-15
 -1      3476 5.50366E-03-2.18576E-04-8.05181E-15
 -1      3477 5.87198E-03-2.47093E-04-9.16804E-15
 -1      3478 6.01684E-03-2.44949E-04-9.60337E-15
 -1      3479 5.78803E-03-2.10994E-04-8.88047E-15
 -1      3480 6.16280E-03-2.43578E-04-1.00471E-14
 -1      3481 6.31015E-03-2.43372E-04-1.05015E-14
 -1      3482 6.07515E-03-2.04808E-04-9.74629E-15
 -1      3483 6.45922E-03-2.44454E-04-1.09656E-14
 -1      3484 6.61029E-03-2.47425E-04-1.14391E-14
 -1      3485 6.36717E-03-2.01552E-04-1.06494E-14
 -1      3486 6.76382E-03-2.52433E-04-1.19222E-14
 -1      3487 6.91994E-03-2.60276E-04-1.24162E-14
 -1      3488 6.66696E-03-2.03682E-04-1.15913E-14
 -1      3489 7.07919E-03-2.71124E-04-1.29214E-14
 -1      3490 7.24142E-03-2.85987E-04-1.34375E-14
 -1      3491 6.97784E-03-2.14981E-04-1.25736E-14
 -1      3492 7.40732E-03-3.04987E-04-1.39662E-14
 -1      3493 7.57559E-03-3.28587E-04-1.45067E-14
 -1      3494 7.30316E-03-2.40495E-04-1.36014E-14
 -1      3495 7.74670E-03-3.56833E-04-1.50567E-14
 -1      3496 7.91875E-03-3.89200E-04-1.56199E-14
 -1      3497 7.64420E-03-2.86570E-04-1.46741E-14
 -1      3498 8.09173E-03-4.24596E-04-1.61948E-14
 -1      3499 8.26306E-03-4.60394E-04-1.67812E-14
 -1      3500 7.99645E-03-3.55066E-04-1.57911E-14
 -1      3501 8.49172E-03-5.02206E-04-1.75904E-14
 -1      3502 8.65584E-03-5.25339E-04-1.82085E-14
 -1      3503 8.81680E-03-5.35473E-04-1.88410E-14
 -1      3504 9.02056E-03-5.24018E-04-1.96708E-14
 -1      3505 9.17813E-03-4.93003E-04-2.03356E-14
 -1      3506 9.39066E-03-4.21805E-04-2.12380E-14
 -1      3507 9.55443E-03-3.53396E-04-2.19384E-14
 -1      3508 9.75688E-03-2.42154E-04-2.25954E-14
 -1      3509 9.93185E-03-1.54728E-04-2.33255E-14
 -1      3510 1.04056E-02 4.62366E-05-2.56961E-14
 -1      3511 1.05752E-02 1.19987E-04-2.64793E-14
 -1      3512 1.07428E-02 1.88958E-04-2.72766E-14
 -1      3513 1.09068E-02 2.53677E-04-2.80871E-14
 -1      3514 1.07206E-02 2.10105E-04-2.67296E-14
 -1      3515 1.10680E-02 3.14159E-04-2.89075E-14
 -1      3516 1.12258E-02 3.71326E-04-2.97387E-14
 -1      3517 1.10504E-02 3.35960E-04-2.83474E-14
 -1      3518 1.13809E-02 4.25344E-04-3.05841E-14
 -1      3519 1.15333E-02 4.77088E-04-3.14370E-14
 -1      3520 1.13653E-02 4.45831E-04-3.00100E-14
 -1      3521 1.16835E-02 5.26715E-04-3.23005E-14
 -1      3522 1.18318E-02 5.74891E-04-3.31773E-14
 -1      3523 1.16680E-02 5.45255E-04-3.17164E-14
 -1      3524 1.19786E-02 6.21751E-04-3.40619E-14
 -1      3525 1.21241E-02 6.67745E-04-3.49572E-14
 -1      3526 1.19620E-02 6.38454E-04-3.34647E-14
 -1      3527 1.22685E-02 7.12991E-04-3.58621E-14
 -1      3528 1.24122E-02 7.57776E-04-3.67751E-14
 -1      3529 1.22503E-02 7.28252E-04-3.52519E-14
 -1      3530 1.25553E-02 8.02201E-04-3.76993E-14
 -1      3531 1.26980E-02 8.46443E-04-3.86346E-14
 -1      3532 1.25353E-02 8.16446E-04-3.70781E-14
 -1      3533 1.28404E-02 8.90590E-04-3.95806E-14
 -1      3534 1.29826E-02 9.34747E-04-4.05378E-14
 -1      3535 1.28186E-02 9.04168E-04-3.89454E-14
 -1      3536 1.31247E-02 9.78988E-04-4.15030E-14
 -1      3537 1.32667E-02 1.02336E-03-4.24763E-14
 -1      3538 1.31013E-02 9.92139E-04-4.08535E-14
 -1      3539 1.10832E-03-2.46079E-04-4.24289E-16
 -1      3540 1.57432E-03-2.59404E-04-7.78877E-16
 -1      3541 1.71812E-03-2.69554E-04-9.09551E-16
 -1      3542 4.24740E-03 3.22654E-04-3.79696E-15
 -1      3543 4.10519E-03 3.25844E-04-3.52736E-15
 -1      3544 3.96276E-03 3.28760E-04-3.26840E-15
 -1      3545 3.82011E-03 3.31399E-04-3.01968E-15
 -1      3546 4.03020E-03 2.91481E-04-3.46999E-15
 -1      3547 4.81291E-03 3.07971E-04-4.97343E-15
 -1      3548 4.67211E-03 3.11868E-04-4.66458E-15
 -1      3549 5.09285E-03 3.00102E-04-5.61884E-15
 -1      3550 4.95316E-03 3.04048E-04-5.29138E-15
 -1      3551 4.87608E-03 2.72648E-04-5.22020E-15
 -1      3552 5.36998E-03 2.92648E-04-6.30577E-15
 -1      3553 5.23180E-03 2.96300E-04-5.95688E-15
 -1      3554 5.15323E-03 2.66054E-04-5.88253E-15
 -1      3555 5.64330E-03 2.86542E-04-7.03470E-15
 -1      3556 5.50716E-03 2.89395E-04-6.66501E-15
 -1      3557 5.42658E-03 2.60316E-04-6.58570E-15
 -1      3558 5.91152E-03 2.83098E-04-7.80426E-15
 -1      3559 5.77809E-03 2.84447E-04-7.41369E-15
 -1      3560 5.69488E-03 2.56438E-04-7.32986E-15
 -1      3561 6.17315E-03 2.84053E-04-8.61182E-15
 -1      3562 6.04318E-03 2.82979E-04-8.20320E-15
 -1      3563 5.95649E-03 2.55754E-04-8.11459E-15
 -1      3564 6.42664E-03 2.91558E-04-9.45888E-15
 -1      3565 6.30088E-03 2.86953E-04-9.03136E-15
 -1      3566 6.20940E-03 2.59902E-04-8.93778E-15
 -1      3567 6.67064E-03 3.07909E-04-1.03410E-14
 -1      3568 6.54963E-03 2.98607E-04-9.89576E-15
 -1      3569 6.45125E-03 2.70674E-04-9.79757E-15
 -1      3570 1.28342E-02 1.18008E-03-3.15467E-14
 -1      3571 1.27025E-02 1.13290E-03-3.06643E-14
 -1      3572 1.86215E-03-2.78003E-04-1.05000E-15
 -1      3573 2.00634E-03-2.84897E-04-1.20017E-15
 -1      3574 2.07321E-03-2.52175E-04-1.26387E-15
 -1      3575 1.25729E-02 1.08731E-03-2.97928E-14
 -1      3576 1.24450E-02 1.04323E-03-2.89352E-14
 -1      3577 1.26226E-02 1.08378E-03-3.04145E-14
 -1      3578 1.43228E-02 1.69434E-03-4.21404E-14
 -1      3579 1.31022E-02 1.27751E-03-3.33423E-14
 -1      3580 1.29674E-02 1.22829E-03-3.24397E-14
 -1      3581 1.28794E-02 1.17621E-03-3.21800E-14
 -1      3582 1.33753E-02 1.37767E-03-3.51783E-14
 -1      3583 1.32382E-02 1.32731E-03-3.42561E-14
 -1      3584 1.31440E-02 1.27278E-03-3.39865E-14
 -1      3585 1.36523E-02 1.47910E-03-3.70463E-14
 -1      3586 1.35134E-02 1.42827E-03-3.61081E-14
 -1      3587 1.34146E-02 1.37185E-03-3.58301E-14
 -1      3588 1.39320E-02 1.58072E-03-3.89395E-14
 -1      3589 1.37918E-02 1.52993E-03-3.79902E-14
 -1      3590 1.36895E-02 1.47213E-03-3.77038E-14
 -1      3591 1.17104E-02 7.32296E-04-2.51807E-14
 -1      3592 1.16090E-02 7.06961E-04-2.51446E-14
 -1      3593 1.44075E-02 1.77891E-03-4.16109E-14
 -1      3594 1.38249E-02 1.33121E-03-4.31769E-14
 -1      3595 1.38732E-02 1.36882E-03-4.29730E-14
 -1      3596 1.08207E-02 3.99676E-04-2.44705E-14
 -1      3597 1.06111E-02 2.99356E-04-2.39473E-14
 -1      3598 1.18365E-02 7.68450E-04-2.51128E-14
 -1      3599 1.17944E-02 7.54937E-04-2.51989E-14
 -1      3600 8.45105E-03-4.03039E-04-1.71219E-14
 -1      3601 8.30870E-03-3.40229E-04-1.66268E-14
 -1      3602 7.02263E-03 3.56911E-04-1.17224E-14
 -1      3603 1.17791E-02 8.52679E-04-2.44502E-14
 -1      3604 7.23260E-03 5.89518E-05-1.35122E-14
 -1      3605 7.09222E-03 1.18590E-04-1.31572E-14
 -1      3606 1.01577E-03-3.88374E-05-3.33094E-16
 -1      3607 1.01684E-03-6.56048E-05-3.42256E-16
 -1      3608 1.13837E-03-8.57092E-05-4.20196E-16
 -1      3609 6.80946E-03 2.91763E-04-1.17854E-14
 -1      3610 6.88381E-03 3.13486E-04-1.17231E-14
 -1      3611 1.66563E-03 2.98521E-04-5.25160E-16
 -1      3612 1.52194E-03 2.86651E-04-4.37340E-16
 -1      3613 1.12695E-02 5.93471E-04-2.51681E-14
 -1      3614 1.11083E-02 5.27001E-04-2.50499E-14
 -1      3615 1.18698E-02 8.54049E-04-2.50387E-14
 -1      3616 1.20981E-02 9.19863E-04-2.66438E-14
 -1      3617 1.19820E-02 8.84989E-04-2.58345E-14
 -1      3618 1.19653E-02 8.41250E-04-2.58197E-14
 -1      3619 1.15180E-02 6.80824E-04-2.51093E-14
 -1      3620 1.14148E-02 6.48824E-04-2.50722E-14
 -1      3621 1.16173E-02 7.07157E-04-2.56346E-14
 -1      3622 4.53091E-03 3.15627E-04-4.36601E-15
 -1      3623 4.38930E-03 3.19248E-04-4.07629E-15
 -1      3624 4.31396E-03 2.85776E-04-4.01462E-15
 -1      3625 4.59609E-03 2.79384E-04-4.59822E-15
 -1      3626 1.95348E-03 3.16585E-04-7.27649E-16
 -1      3627 1.80949E-03 3.08447E-04-6.21912E-16
 -1      3628 1.73115E-03 2.69342E-04-6.01339E-16
 -1      3629 1.41493E-03 2.83698E-04-3.71583E-16
 -1      3630 1.30813E-03 2.78999E-04-3.11898E-16
 -1      3631 1.26616E-03 2.50588E-04-3.10407E-16
 -1      3632 1.47998E-03 2.58055E-04-4.34968E-16
 -1      3633 1.23287E-02 9.99197E-04-2.81980E-14
 -1      3634 1.22063E-02 9.59310E-04-2.73639E-14
 -1      3635 1.21668E-02 9.13311E-04-2.73436E-14
 -1      3636 1.23830E-02 9.95513E-04-2.88031E-14
 -1      3637 3.10433E-03 3.39029E-04-1.92939E-15
 -1      3638 2.96077E-03 3.39141E-04-1.74272E-15
 -1      3639 6.89666E-03 3.28874E-04-1.13651E-14
 -1      3640 1.05160E-02 2.34847E-04-2.40220E-14
 -1      3641 1.25801E-03 4.76428E-05-4.39115E-16
 -1      3642 1.25727E-03 1.67020E-05-4.54620E-16
 -1      3643 1.39206E-02 1.40616E-03-4.27702E-14
 -1      3644 1.39670E-02 1.44334E-03-4.25623E-14
 -1      3645 1.37771E-02 1.34746E-03-4.20279E-14
 -1      3646 1.78459E-03-2.39637E-04-9.66783E-16
 -1      3647 8.41125E-03-4.48673E-04-1.71627E-14
 -1      3648 1.35661E-03-2.41828E-04-6.00553E-16
 -1      3649 1.46534E-03-2.51226E-04-6.87059E-16
 -1      3650 1.53152E-03-2.24658E-04-7.38165E-16
 -1      3651 1.13952E-02 6.31068E-04-2.56941E-14
 -1      3652 1.01029E-02-3.81044E-05-2.35902E-14
 -1      3653 1.00879E-02-9.52263E-05-2.42114E-14
 -1      3654 1.02611E-02-1.31143E-05-2.49710E-14
 -1      3655 2.09750E-03 3.23191E-04-8.42696E-16
 -1      3656 2.01944E-03 2.84414E-04-8.18735E-16
 -1      3657 2.24153E-03 3.28395E-04-9.67474E-16
 -1      3658 1.33630E-02 1.04908E-03-4.32450E-14
 -1      3659 1.34829E-02 1.08505E-03-4.41204E-14
 -1      3660 1.35305E-02 1.11381E-03-4.41310E-14
 -1      3661 1.33384E-02 1.06205E-03-4.25838E-14
 -1      3662 2.81710E-03 3.38616E-04-1.56705E-15
 -1      3663 2.67333E-03 3.37402E-04-1.40204E-15
 -1      3664 2.88466E-03 3.01971E-04-1.70454E-15
 -1      3665 1.25978E-03 2.16398E-04-3.32620E-16
 -1      3666 3.74517E-03 2.96237E-04-2.96597E-15
 -1      3667 3.67727E-03 3.33707E-04-2.78050E-15
 -1      3668 3.53425E-03 3.35674E-04-2.55197E-15
 -1      3669 1.41798E-02 1.62887E-03-4.14692E-14
 -1      3670 1.42185E-02 1.67023E-03-4.11582E-14
 -1      3671 6.78380E-03 3.13634E-04-1.09000E-14
 -1      3672 6.67744E-03 2.83851E-04-1.07969E-14
 -1      3673 7.34451E-03-5.14515E-05-1.37440E-14
 -1      3674 7.29176E-03 5.10141E-06-1.36296E-14
 -1      3675 7.12531E-03 1.62187E-05-1.31020E-14
 -1      3676 1.18851E-02 7.92086E-04-2.53679E-14
 -1      3677 1.09899E-02 4.64057E-04-2.51946E-14
 -1      3678 1.08801E-02 3.96601E-04-2.53382E-14
 -1      3679 1.11496E-02 5.16511E-04-2.59310E-14
 -1      3680 1.40568E-02 1.62212E-03-3.98581E-14
 -1      3681 1.39520E-02 1.56357E-03-3.95689E-14
 -1      3682 1.17947E-02 7.56691E-04-2.56898E-14
 -1      3683 1.43005E-02 1.71893E-03-4.13203E-14
 -1      3684 1.37758E-02 1.29346E-03-4.33763E-14
 -1      3685 1.36800E-02 1.27303E-03-4.24276E-14
 -1      3686 1.37260E-02 1.25533E-03-4.35746E-14
 -1      3687 3.39108E-03 3.37240E-04-2.33381E-15
 -1      3688 3.24777E-03 3.38384E-04-2.12650E-15
 -1      3689 3.17223E-03 3.01834E-04-2.08281E-15
 -1      3690 3.45912E-03 2.99789E-04-2.50330E-15
 -1      3691 1.01257E-02 1.01998E-05-2.30701E-14
 -1      3692 6.98433E-03 1.36774E-04-1.28181E-14
 -1      3693 6.88421E-03 1.48632E-04-1.24835E-14
 -1      3694 6.96468E-03 8.50790E-05-1.26519E-14
 -1      3695 6.82311E-03 2.32554E-04-1.24431E-14
 -1      3696 6.75687E-03 2.30738E-04-1.21191E-14
 -1      3697 6.81337E-03 1.99429E-04-1.23183E-14
 -1      3698 8.17784E-03-3.17196E-04-1.62466E-14
 -1      3699 1.09873E-03-2.20724E-04-4.18082E-16
 -1      3700 1.13592E-03-2.76167E-05-3.98539E-16
 -1      3701 2.46311E-03 3.70754E-04-1.12913E-15
 -1      3702 1.40964E-02 1.55403E-03-4.18962E-14
 -1      3703 1.41385E-02 1.59129E-03-4.16836E-14
 -1      3704 1.40356E-02 1.56712E-03-4.07035E-14
 -1      3705 1.04055E-02 8.24807E-05-2.52101E-14
 -1      3706 7.77073E-03-1.49428E-04-1.50026E-14
 -1      3707 7.59904E-03-1.18873E-04-1.44962E-14
 -1      3708 7.84481E-03-1.95949E-04-1.52221E-14
 -1      3709 9.29374E-03-4.52999E-04-2.07247E-14
 -1      3710 1.26165E-03 1.10179E-04-4.05451E-16
 -1      3711 1.25946E-03 7.87385E-05-4.22744E-16
 -1      3712 1.38117E-03 6.68296E-05-5.09006E-16
 -1      3713 6.79624E-03 2.78374E-04-1.21899E-14
 -1      3714 6.78898E-03 2.78900E-04-1.20587E-14
 -1      3715 1.35780E-02 1.14243E-03-4.41395E-14
 -1      3716 1.26422E-03-1.39195E-04-5.17449E-16
 -1      3717 1.26800E-03-1.71615E-04-5.26949E-16
 -1      3718 1.21845E-03-2.19384E-04-4.98204E-16
 -1      3719 6.75035E-03 2.76346E-04-1.16377E-14
 -1      3720 1.40556E-03-1.90276E-04-6.31561E-16
 -1      3721 1.28467E-03-1.97027E-04-5.42846E-16
 -1      3722 6.75844E-03 2.60207E-04-1.20733E-14
 -1      3723 1.34841E-02 1.12189E-03-4.32629E-14
 -1      3724 1.36273E-02 1.17635E-03-4.40472E-14
 -1      3725 1.36783E-02 1.21537E-03-4.38503E-14
 -1      3726 1.33885E-02 1.09598E-03-4.24955E-14
 -1      3727 1.49757E-03-1.70222E-04-6.98999E-16
 -1      3728 1.51425E-03-1.97192E-04-7.18718E-16
 -1      3729 1.62330E-03-2.03185E-04-8.11620E-16
 -1      3730 6.65024E-03 2.48491E-04-1.13317E-14
 -1      3731 6.65620E-03 2.63645E-04-1.10652E-14
 -1      3732 6.55127E-03 2.56421E-04-1.05048E-14
 -1      3733 1.07024E-02 2.33765E-04-2.61850E-14
 -1      3734 1.08720E-02 2.99997E-04-2.69813E-14
 -1      3735 1.02796E-02 7.40663E-05-2.39641E-14
 -1      3736 8.48887E-03-4.47255E-04-1.73646E-14
 -1      3737 2.57497E-03-2.26871E-04-1.85716E-15
 -1      3738 2.71953E-03-2.28104E-04-2.05391E-15
 -1      3739 2.86395E-03-2.28775E-04-2.26128E-15
 -1      3740 3.00822E-03-2.28920E-04-2.48002E-15
 -1      3741 2.78858E-03-1.91609E-04-2.12776E-15
 -1      3742 3.15229E-03-2.28629E-04-2.70908E-15
 -1      3743 3.29616E-03-2.27920E-04-2.94912E-15
 -1      3744 3.07737E-03-1.91862E-04-2.55931E-15
 -1      3745 3.43979E-03-2.26865E-04-3.19959E-15
 -1      3746 3.58318E-03-2.25467E-04-3.46027E-15
 -1      3747 3.36527E-03-1.90615E-04-3.03445E-15
 -1      3748 3.72632E-03-2.23782E-04-3.73233E-15
 -1      3749 3.86919E-03-2.21804E-04-4.01365E-15
 -1      3750 3.65208E-03-1.88138E-04-3.55219E-15
 -1      3751 4.01177E-03-2.19575E-04-4.30564E-15
 -1      3752 4.15409E-03-2.17083E-04-4.60871E-15
 -1      3753 3.93765E-03-1.84598E-04-4.11087E-15
 -1      3754 4.29611E-03-2.14363E-04-4.92054E-15
 -1      3755 4.43785E-03-2.11400E-04-5.24284E-15
 -1      3756 4.22188E-03-1.80081E-04-4.71045E-15
 -1      3757 4.57931E-03-2.08223E-04-5.57486E-15
 -1      3758 4.72052E-03-2.04818E-04-5.91682E-15
 -1      3759 4.50469E-03-1.74614E-04-5.35080E-15
 -1      3760 4.86147E-03-2.01216E-04-6.26963E-15
 -1      3761 5.00224E-03-1.97410E-04-6.63225E-15
 -1      3762 4.78610E-03-1.68187E-04-6.03010E-15
 -1      3763 5.14283E-03-1.93433E-04-7.00468E-15
 -1      3764 5.28334E-03-1.89300E-04-7.38736E-15
 -1      3765 5.06622E-03-1.60779E-04-6.75096E-15
 -1      3766 5.42383E-03-1.85045E-04-7.78029E-15
 -1      3767 5.56446E-03-1.80726E-04-8.18322E-15
 -1      3768 5.34537E-03-1.52398E-04-7.51261E-15
 -1      3769 5.70532E-03-1.76381E-04-8.59490E-15
 -1      3770 5.84664E-03-1.72143E-04-9.01614E-15
 -1      3771 5.62417E-03-1.43143E-04-8.31224E-15
 -1      3772 5.98860E-03-1.68055E-04-9.44783E-15
 -1      3773 6.13155E-03-1.64389E-04-9.88726E-15
 -1      3774 5.90373E-03-1.33310E-04-9.15059E-15
 -1      3775 6.27573E-03-1.61196E-04-1.03364E-14
 -1      3776 6.42163E-03-1.58973E-04-1.07951E-14
 -1      3777 6.18584E-03-1.23591E-04-1.00269E-14
 -1      3778 6.56964E-03-1.57794E-04-1.12644E-14
 -1      3779 6.72034E-03-1.58544E-04-1.17427E-14
 -1      3780 6.47325E-03-1.15441E-04-1.09397E-14
 -1      3781 6.87428E-03-1.61403E-04-1.22303E-14
 -1      3782 7.03203E-03-1.67669E-04-1.27294E-14
 -1      3783 6.77000E-03-1.11740E-04-1.18910E-14
 -1      3784 7.16657E-03-1.32620E-04-1.31518E-14
 -1      3785 7.33202E-03-1.45736E-04-1.36730E-14
 -1      3786 7.57517E-03-2.11561E-04-1.44234E-14
 -1      3787 7.75274E-03-2.41960E-04-1.49682E-14
 -1      3788 8.85730E-03-5.12718E-04-1.87854E-14
 -1      3789 1.25722E-03-1.41079E-05-4.68836E-16
 -1      3790 1.25786E-03-4.49719E-05-4.82443E-16
 -1      3791 1.37957E-03 1.40826E-06-5.43998E-16
 -1      3792 1.10370E-02 3.59945E-04-2.77895E-14
 -1      3793 1.11971E-02 4.15898E-04-2.86074E-14
 -1      3794 1.10280E-02 3.86467E-04-2.72316E-14
 -1      3795 1.13532E-02 4.67914E-04-2.94374E-14
 -1      3796 1.15057E-02 5.17464E-04-3.02790E-14
 -1      3797 1.13449E-02 4.91841E-04-2.88679E-14
 -1      3798 1.16552E-02 5.64736E-04-3.11327E-14
 -1      3799 1.18023E-02 6.10745E-04-3.19954E-14
 -1      3800 1.16454E-02 5.85374E-04-3.05473E-14
 -1      3801 1.19474E-02 6.55576E-04-3.28670E-14
 -1      3802 1.20911E-02 6.99827E-04-3.37514E-14
 -1      3803 1.19351E-02 6.73243E-04-3.22724E-14
 -1      3804 1.22335E-02 7.43561E-04-3.46446E-14
 -1      3805 1.23752E-02 7.87103E-04-3.55461E-14
 -1      3806 1.22185E-02 7.58970E-04-3.40370E-14
 -1      3807 1.25163E-02 8.30503E-04-3.64593E-14
 -1      3808 1.26571E-02 8.73930E-04-3.73811E-14
 -1      3809 1.24986E-02 8.44382E-04-3.58407E-14
 -1      3810 1.27976E-02 9.17430E-04-3.83134E-14
 -1      3811 1.29380E-02 9.61082E-04-3.92557E-14
 -1      3812 1.27774E-02 9.30359E-04-3.76838E-14
 -1      3813 1.30785E-02 1.00493E-03-4.02047E-14
 -1      3814 1.32190E-02 1.04900E-03-4.11676E-14
 -1      3815 1.30563E-02 1.01732E-03-3.95643E-14
 -1      3816 1.15533E-02 6.78369E-04-2.63506E-14
 -1      3817 1.14305E-02 6.28883E-04-2.64437E-14
 -1      3818 1.79767E-03 2.39307E-04-6.81801E-16
 -1      3819 1.65366E-03 2.31107E-04-5.79127E-16
 -1      3820 5.21313E-03 2.33373E-04-6.14997E-15
 -1      3821 5.07647E-03 2.35804E-04-5.80552E-15
 -1      3822 4.93881E-03 2.38403E-04-5.47187E-15
 -1      3823 4.80025E-03 2.41178E-04-5.14791E-15
 -1      3824 5.00132E-03 2.05273E-04-5.72632E-15
 -1      3825 5.74619E-03 2.28384E-04-7.62869E-15
 -1      3826 5.61533E-03 2.28708E-04-7.24343E-15
 -1      3827 6.00149E-03 2.30856E-04-8.42776E-15
 -1      3828 5.87497E-03 2.29142E-04-8.02381E-15
 -1      3829 5.79783E-03 2.02346E-04-7.93026E-15
 -1      3830 6.24608E-03 2.38623E-04-9.26555E-15
 -1      3831 6.12528E-03 2.34115E-04-8.84179E-15
 -1      3832 6.04735E-03 2.08339E-04-8.74427E-15
 -1      3833 6.45944E-03 2.49608E-04-1.00984E-14
 -1      3834 6.34599E-03 2.41765E-04-9.65771E-15
 -1      3835 6.26813E-03 2.16779E-04-9.55576E-15
 -1      3836 6.45820E-03 2.28505E-04-1.03562E-14
 -1      3837 1.31825E-02 1.26834E-03-3.46294E-14
 -1      3838 1.30503E-02 1.22018E-03-3.37177E-14
 -1      3839 1.99638E-03-2.14386E-04-1.17026E-15
 -1      3840 2.14097E-03-2.18829E-04-1.32670E-15
 -1      3841 1.26658E-02 1.08138E-03-3.10394E-14
 -1      3842 1.25426E-02 1.03742E-03-3.01673E-14
 -1      3843 1.34515E-02 1.36617E-03-3.64805E-14
 -1      3844 1.33163E-02 1.31699E-03-3.55526E-14
 -1      3845 1.32181E-02 1.26371E-03-3.52755E-14
 -1      3846 1.37252E-02 1.46523E-03-3.83645E-14
 -1      3847 1.35878E-02 1.41558E-03-3.74185E-14
 -1      3848 1.34862E-02 1.36030E-03-3.71351E-14
 -1      3849 1.18841E-02 7.83538E-04-2.63071E-14
 -1      3850 1.17987E-02 7.58300E-04-2.62874E-14
 -1      3851 5.48275E-03 2.29675E-04-6.86899E-15
 -1      3852 5.34859E-03 2.31337E-04-6.50416E-15
 -1      3853 5.53893E-03 2.00717E-04-7.15510E-15
 -1      3854 1.40120E-02 1.48019E-03-4.23556E-14
 -1      3855 1.40560E-02 1.51708E-03-4.21454E-14
 -1      3856 1.38697E-02 1.42079E-03-4.16187E-14
 -1      3857 4.09754E-03 2.54630E-04-3.67520E-15
 -1      3858 3.95552E-03 2.56945E-04-3.41039E-15
 -1      3859 1.41574E-02 1.65264E-03-4.06540E-14
 -1      3860 1.19733E-02 8.24006E-04-2.61659E-14
 -1      3861 1.25921E-03-7.60448E-05-4.95236E-16
 -1      3862 1.26130E-03-1.07377E-04-5.06959E-16
 -1      3863 1.38549E-03-1.30325E-04-6.02112E-16
 -1      3864 1.06683E-02 2.87108E-04-2.49445E-14
 -1      3865 1.04836E-02 1.96569E-04-2.43484E-14
 -1      3866 1.04440E-02 1.34725E-04-2.48790E-14
 -1      3867 1.08429E-02 3.56877E-04-2.56719E-14
 -1      3868 6.70202E-03 2.38033E-04-1.18057E-14
 -1      3869 6.68200E-03 2.42576E-04-1.16423E-14
 -1      3870 6.57857E-03 2.28702E-04-1.10719E-14
 -1      3871 6.67152E-03 2.12751E-04-1.16868E-14
 -1      3872 1.39415E-02 1.53663E-03-3.99883E-14
 -1      3873 1.38187E-02 1.49598E-03-3.90688E-14
 -1      3874 1.37148E-02 1.43950E-03-3.87788E-14
 -1      3875 1.39009E-02 1.50002E-03-4.01988E-14
 -1      3876 1.26858E-03 1.74663E-04-3.67897E-16
 -1      3877 1.26468E-03 1.42111E-04-3.87209E-16
 -1      3878 1.38591E-03 1.33295E-04-4.69731E-16
 -1      3879 1.29200E-02 1.17292E-03-3.28150E-14
 -1      3880 1.27916E-02 1.12647E-03-3.19210E-14
 -1      3881 1.29565E-02 1.16949E-03-3.34497E-14
 -1      3882 1.73751E-03-2.06498E-04-9.14768E-16
 -1      3883 1.88171E-03-2.13038E-04-1.05391E-15
 -1      3884 1.94991E-03-1.81151E-04-1.11068E-15
 -1      3885 1.72071E-03-1.78234E-04-8.91133E-16
 -1      3886 1.17281E-02 7.36881E-04-2.62508E-14
 -1      3887 1.16473E-02 7.12443E-04-2.62140E-14
 -1      3888 1.18342E-02 7.66218E-04-2.68730E-14
 -1      3889 1.48756E-03 2.12188E-04-4.78499E-16
 -1      3890 1.38034E-03 2.10833E-04-4.09639E-16
 -1      3891 2.28564E-03-2.22327E-04-1.49347E-15
 -1      3892 2.43033E-03-2.24964E-04-1.67042E-15
 -1      3893 2.20953E-03-1.84892E-04-1.38908E-15
 -1      3894 2.52946E-03 3.35361E-04-1.24717E-15
 -1      3895 2.38552E-03 3.32418E-04-1.10247E-15
 -1      3896 2.30804E-03 2.94117E-04-1.07393E-15
 -1      3897 1.20933E-02 8.69221E-04-2.70587E-14
 -1      3898 1.19828E-02 8.19024E-04-2.65930E-14
 -1      3899 1.20104E-02 8.24893E-04-2.72007E-14
 -1      3900 1.21928E-02 9.06736E-04-2.77811E-14
 -1      3901 1.05897E-02 1.92228E-04-2.56087E-14
 -1      3902 1.07522E-02 2.89361E-04-2.58490E-14
 -1      3903 3.88117E-03 2.22163E-04-3.34845E-15
 -1      3904 3.81313E-03 2.59031E-04-3.15516E-15
 -1      3905 3.67040E-03 2.60889E-04-2.91062E-15
 -1      3906 1.16798E-02 7.13046E-04-2.69734E-14
 -1      3907 2.49917E-03-1.89463E-04-1.73802E-15
 -1      3908 7.05020E-03-7.45805E-05-1.27948E-14
 -1      3909 7.92250E-03-2.77164E-04-1.54871E-14
 -1      3910 8.10599E-03-3.21519E-04-1.60549E-14
 -1      3911 1.50291E-03 1.86002E-05-6.23823E-16
 -1      3912 1.50285E-03-1.56406E-05-6.42390E-16
 -1      3913 1.38096E-03-6.39919E-05-5.75101E-16
 -1      3914 9.71758E-03-2.41073E-04-2.20485E-14
 -1      3915 2.59654E-03 2.99647E-04-1.36876E-15
 -1      3916 1.94192E-03 2.46095E-04-7.92972E-16
 -1      3917 1.86507E-03 2.08396E-04-7.65311E-16
 -1      3918 2.08636E-03 2.51606E-04-9.13251E-16
 -1      3919 1.55481E-03 1.85032E-04-5.46994E-16
 -1      3920 7.06263E-03-5.69797E-06-1.28758E-14
 -1      3921 7.01510E-03 4.14976E-05-1.27644E-14
 -1      3922 6.90934E-03 6.16420E-05-1.24323E-14
 -1      3923 1.39549E-02 1.49360E-03-4.11647E-14
 -1      3924 4.72554E-03 2.09434E-04-5.07327E-15
 -1      3925 4.66092E-03 2.43969E-04-4.83373E-15
 -1      3926 4.52090E-03 2.46784E-04-4.52951E-15
 -1      3927 1.33644E-02 1.10821E-03-4.18368E-14
 -1      3928 1.24652E-02 9.92290E-04-3.00270E-14
 -1      3929 1.24281E-02 9.93771E-04-2.94133E-14
 -1      3930 1.23174E-02 9.51668E-04-2.86722E-14
 -1      3931 1.13301E-02 5.80542E-04-2.65921E-14
 -1      3932 1.12320E-02 5.26605E-04-2.67364E-14
 -1      3933 1.14995E-02 6.35182E-04-2.72590E-14
 -1      3934 4.38029E-03 2.49510E-04-4.23460E-15
 -1      3935 4.23915E-03 2.52153E-04-3.94991E-15
 -1      3936 4.44648E-03 2.13920E-04-4.45851E-15
 -1      3937 5.27287E-03 2.02075E-04-6.42033E-15
 -1      3938 1.35349E-02 1.21519E-03-4.16860E-14
 -1      3939 1.35847E-02 1.25244E-03-4.14894E-14
 -1      3940 4.16485E-03 2.18275E-04-3.88330E-15
 -1      3941 1.35823E-02 1.19577E-03-4.28988E-14
 -1      3942 6.79426E-03 1.58496E-04-1.21623E-14
 -1      3943 6.71130E-03 1.64361E-04-1.18446E-14
 -1      3944 6.76945E-03 1.14196E-04-1.20028E-14
 -1      3945 1.36337E-02 1.28938E-03-4.12888E-14
 -1      3946 1.36815E-02 1.32598E-03-4.10881E-14
 -1      3947 1.34902E-02 1.23184E-03-4.05544E-14
 -1      3948 1.50375E-03 5.29038E-05-6.03860E-16
 -1      3949 1.62711E-03 3.72241E-05-7.07930E-16
 -1      3950 1.50540E-03 8.73925E-05-5.82962E-16
 -1      3951 1.49391E-03-1.35111E-04-6.86015E-16
 -1      3952 3.24051E-03 2.64617E-04-2.24035E-15
 -1      3953 3.09673E-03 2.65127E-04-2.03755E-15
 -1      3954 3.02136E-03 2.28277E-04-1.99083E-15
 -1      3955 2.95276E-03 2.65166E-04-1.84557E-15
 -1      3956 2.80861E-03 2.64702E-04-1.66456E-15
 -1      3957 1.27033E-02 1.07900E-03-3.16645E-14
 -1      3958 2.71356E-03-1.54486E-04-1.99725E-15
 -1      3959 2.85825E-03-1.54933E-04-2.19990E-15
 -1      3960 3.00275E-03-1.55025E-04-2.41400E-15
 -1      3961 3.14702E-03-1.54770E-04-2.63828E-15
 -1      3962 2.92847E-03-1.18145E-04-2.27138E-15
 -1      3963 3.29103E-03-1.54231E-04-2.87334E-15
 -1      3964 3.43476E-03-1.53403E-04-3.11891E-15
 -1      3965 3.21712E-03-1.17713E-04-2.71548E-15
 -1      3966 3.57816E-03-1.52336E-04-3.37535E-15
 -1      3967 3.72123E-03-1.51014E-04-3.64211E-15
 -1      3968 3.50460E-03-1.16351E-04-3.20241E-15
 -1      3969 3.86393E-03-1.49476E-04-3.91894E-15
 -1      3970 4.00626E-03-1.47697E-04-4.20642E-15
 -1      3971 3.79063E-03-1.14159E-04-3.73070E-15
 -1      3972 4.14818E-03-1.45707E-04-4.50372E-15
 -1      3973 4.28970E-03-1.43472E-04-4.81185E-15
 -1      3974 4.07502E-03-1.11163E-04-4.30061E-15
 -1      3975 4.43078E-03-1.41015E-04-5.12912E-15
 -1      3976 4.57144E-03-1.38295E-04-5.45644E-15
 -1      3977 4.35757E-03-1.07315E-04-4.91134E-15
 -1      3978 4.71165E-03-1.35329E-04-5.79379E-15
 -1      3979 4.85144E-03-1.32073E-04-6.14150E-15
 -1      3980 4.63812E-03-1.02498E-04-5.56142E-15
 -1      3981 4.99079E-03-1.28539E-04-6.50050E-15
 -1      3982 5.12977E-03-1.24686E-04-6.86819E-15
 -1      3983 4.91658E-03-9.65308E-05-6.25198E-15
 -1      3984 5.26837E-03-1.20518E-04-7.24578E-15
 -1      3985 5.40671E-03-1.16010E-04-7.63465E-15
 -1      3986 5.19294E-03-8.91795E-05-6.98324E-15
 -1      3987 5.54479E-03-1.11161E-04-8.03214E-15
 -1      3988 5.68282E-03-1.05983E-04-8.43912E-15
 -1      3989 5.46739E-03-8.01752E-05-7.75474E-15
 -1      3990 5.82086E-03-1.00470E-04-8.85616E-15
 -1      3991 5.95922E-03-9.47178E-05-9.28278E-15
 -1      3992 5.74041E-03-6.92701E-05-8.56428E-15
 -1      3993 6.09800E-03-8.87135E-05-9.71888E-15
 -1      3994 6.23773E-03-8.27265E-05-1.01635E-14
 -1      3995 6.01302E-03-5.63565E-05-9.41319E-15
 -1      3996 6.37859E-03-7.67607E-05-1.06171E-14
 -1      3997 6.52132E-03-7.13800E-05-1.10809E-14
 -1      3998 6.28700E-03-4.17279E-05-1.02985E-14
 -1      3999 6.66629E-03-6.66264E-05-1.15553E-14
 -1      4000 6.81446E-03-6.36652E-05-1.20373E-14
 -1      4001 6.56547E-03-2.66094E-05-1.12206E-14
 -1      4002 1.62699E-03-3.41313E-05-7.49414E-16
 -1      4003 1.50359E-03-4.99338E-05-6.59629E-16
 -1      4004 1.50513E-03-8.43967E-05-6.76380E-16
 -1      4005 1.13424E-02 5.17206E-04-2.82991E-14
 -1      4006 1.14929E-02 5.63191E-04-2.91253E-14
 -1      4007 1.16396E-02 6.06750E-04-2.99653E-14
 -1      4008 1.17837E-02 6.49358E-04-3.08163E-14
 -1      4009 1.16381E-02 6.29111E-04-2.93851E-14
 -1      4010 1.19255E-02 6.91108E-04-3.16765E-14
 -1      4011 1.20659E-02 7.32727E-04-3.25466E-14
 -1      4012 1.19188E-02 7.09315E-04-3.10810E-14
 -1      4013 1.22052E-02 7.74230E-04-3.34294E-14
 -1      4014 1.23438E-02 8.15963E-04-3.43213E-14
 -1      4015 1.21938E-02 7.89369E-04-3.28229E-14
 -1      4016 1.24820E-02 8.57910E-04-3.52222E-14
 -1      4017 1.26200E-02 9.00202E-04-3.61346E-14
 -1      4018 1.24666E-02 8.71068E-04-3.46061E-14
 -1      4019 1.27580E-02 9.42833E-04-3.70541E-14
 -1      4020 1.28962E-02 9.85843E-04-3.79837E-14
 -1      4021 1.27394E-02 9.54824E-04-3.64258E-14
 -1      4022 1.30345E-02 1.02924E-03-3.89239E-14
 -1      4023 1.31732E-02 1.07299E-03-3.98698E-14
 -1      4024 1.30132E-02 1.04062E-03-3.82821E-14
 -1      4025 2.42382E-03-1.52273E-04-1.62213E-15
 -1      4026 2.56873E-03-1.53608E-04-1.80456E-15
 -1      4027 2.63894E-03-1.17461E-04-1.86994E-15
 -1      4028 1.18144E-02 7.52051E-04-2.76019E-14
 -1      4029 1.17352E-02 7.20508E-04-2.77396E-14
 -1      4030 6.09572E-03 1.87755E-04-9.06276E-15
 -1      4031 5.97483E-03 1.82302E-04-8.64379E-15
 -1      4032 5.85098E-03 1.78032E-04-8.23429E-15
 -1      4033 5.72458E-03 1.75195E-04-7.83449E-15
 -1      4034 5.90637E-03 1.55272E-04-8.54078E-15
 -1      4035 1.35191E-02 1.35418E-03-3.77916E-14
 -1      4036 1.33844E-02 1.30623E-03-3.68525E-14
 -1      4037 1.19521E-02 7.99185E-04-2.76803E-14
 -1      4038 1.18862E-02 7.77020E-04-2.76418E-14
 -1      4039 1.19439E-02 7.87848E-04-2.84183E-14
 -1      4040 1.32511E-02 1.25879E-03-3.59224E-14
 -1      4041 1.31194E-02 1.21187E-03-3.49998E-14
 -1      4042 1.32820E-02 1.25331E-03-3.65708E-14
 -1      4043 8.24891E-03-3.91633E-04-1.65656E-14
 -1      4044 2.37540E-03 2.59383E-04-1.18381E-15
 -1      4045 2.23087E-03 2.56000E-04-1.04388E-15
 -1      4046 2.15412E-03 2.18188E-04-1.01216E-15
 -1      4047 5.33303E-03 1.72077E-04-6.69411E-15
 -1      4048 5.19919E-03 1.72461E-04-6.33362E-15
 -1      4049 4.23224E-03 1.82456E-04-4.09506E-15
 -1      4050 4.09107E-03 1.84122E-04-3.81521E-15
 -1      4051 1.37278E-02 1.36205E-03-4.08853E-14
 -1      4052 1.37728E-02 1.39800E-03-4.06798E-14
 -1      4053 1.35862E-02 1.30398E-03-4.01545E-14
 -1      4054 3.52737E-03 2.62454E-04-2.67679E-15
 -1      4055 3.38406E-03 2.63720E-04-2.45321E-15
 -1      4056 3.30914E-03 2.27455E-04-2.40163E-15
 -1      4057 3.59583E-03 2.25313E-04-2.85419E-15
 -1      4058 1.38178E-02 1.43086E-03-4.05654E-14
 -1      4059 1.38579E-02 1.46682E-03-4.03181E-14
 -1      4060 1.37651E-02 1.43694E-03-3.96046E-14
 -1      4061 1.36773E-02 1.37188E-03-3.98374E-14
 -1      4062 1.34137E-02 1.14808E-03-4.15661E-14
 -1      4063 1.09496E-02 3.91399E-04-2.62541E-14
 -1      4064 1.11130E-02 4.47395E-04-2.70541E-14
 -1      4065 2.66431E-03 2.63631E-04-1.49444E-15
 -1      4066 2.51989E-03 2.61900E-04-1.33408E-15
 -1      4067 2.44351E-03 2.24243E-04-1.29767E-15
 -1      4068 2.73272E-03 2.27381E-04-1.62327E-15
 -1      4069 1.53096E-03 1.53249E-04-5.54691E-16
 -1      4070 1.52771E-03 1.17910E-04-5.78151E-16
 -1      4071 1.65049E-03 1.04372E-04-6.80201E-16
 -1      4072 1.69672E-03 1.68756E-04-6.65687E-16
 -1      4073 1.29894E-02 1.16579E-03-3.40878E-14
 -1      4074 1.28615E-02 1.12049E-03-3.31853E-14
 -1      4075 1.30195E-02 1.16139E-03-3.47275E-14
 -1      4076 2.13401E-03-1.47929E-04-1.28745E-15
 -1      4077 2.27889E-03-1.50395E-04-1.44985E-15
 -1      4078 2.34897E-03-1.15386E-04-1.50958E-15
 -1      4079 1.61638E-03-1.22580E-04-7.81100E-16
 -1      4080 5.06401E-03 1.73234E-04-5.98474E-15
 -1      4081 4.92765E-03 1.74411E-04-5.64513E-15
 -1      4082 5.12717E-03 1.42256E-04-6.24528E-15
 -1      4083 6.93433E-03-2.23783E-05-1.24418E-14
 -1      4084 1.27359E-02 1.07644E-03-3.22910E-14
 -1      4085 1.26130E-02 1.03344E-03-3.14082E-14
 -1      4086 1.27646E-02 1.07302E-03-3.29212E-14
 -1      4087 5.59594E-03 1.73273E-04-7.44429E-15
 -1      4088 5.46534E-03 1.72360E-04-7.06472E-15
 -1      4089 5.39399E-03 1.43313E-04-6.97107E-15
 -1      4090 6.63657E-03 1.80415E-04-1.15381E-14
 -1      4091 6.57369E-03 1.92134E-04-1.12329E-14
 -1      4092 6.60182E-03 1.44352E-04-1.13867E-14
 -1      4093 4.85521E-03 1.43038E-04-5.56078E-15
 -1      4094 4.79024E-03 1.75790E-04-5.31506E-15
 -1      4095 4.65189E-03 1.77380E-04-4.99562E-15
 -1      4096 6.29653E-03 1.96627E-04-9.84531E-15
 -1      4097 6.19763E-03 1.91492E-04-9.44972E-15
 -1      4098 6.13254E-03 1.65112E-04-9.34206E-15
 -1      4099 1.75112E-03-1.68466E-05-8.43564E-16
 -1      4100 1.75190E-03-5.37976E-05-8.65234E-16
 -1      4101 1.12933E-02 5.16361E-04-2.77291E-14
 -1      4102 1.14496E-02 5.87651E-04-2.79782E-14
 -1      4103 3.09046E-03 1.91339E-04-2.14017E-15
 -1      4104 2.94622E-03 1.91335E-04-1.94261E-15
 -1      4105 1.90406E-03-1.48463E-04-1.05201E-15
 -1      4106 2.01896E-03-1.48480E-04-1.16670E-15
 -1      4107 2.08877E-03-1.15047E-04-1.22194E-15
 -1      4108 1.32957E-02 1.13941E-03-3.99859E-14
 -1      4109 1.33191E-02 1.12851E-03-4.06362E-14
 -1      4110 7.53684E-03-1.54327E-04-1.43004E-14
 -1      4111 7.46592E-03-1.14877E-04-1.40903E-14
 -1      4112 1.20718E-02 8.40585E-04-2.79754E-14
 -1      4113 1.73064E-03-1.23669E-04-8.80291E-16
 -1      4114 5.65432E-03 1.47229E-04-7.73635E-15
 -1      4115 6.48769E-03 2.15276E-04-1.06549E-14
 -1      4116 6.39630E-03 2.06601E-04-1.02472E-14
 -1      4117 6.33622E-03 1.80438E-04-1.01346E-14
 -1      4118 6.52918E-03 2.05675E-04-1.09560E-14
 -1      4119 1.24957E-02 9.90525E-04-3.06429E-14
 -1      4120 1.23816E-02 9.49255E-04-2.98858E-14
 -1      4121 1.25212E-02 9.87790E-04-3.12590E-14
 -1      4122 1.16376E-02 6.79989E-04-2.77857E-14
 -1      4123 1.15519E-02 6.38036E-04-2.79353E-14
 -1      4124 1.15924E-02 6.37636E-04-2.85106E-14
 -1      4125 1.17834E-02 7.24708E-04-2.84235E-14
 -1      4126 4.51273E-03 1.79036E-04-4.68587E-15
 -1      4127 4.37281E-03 1.80763E-04-4.38565E-15
 -1      4128 4.57915E-03 1.44881E-04-4.91630E-15
 -1      4129 4.29980E-03 1.47215E-04-4.31090E-15
 -1      4130 3.94937E-03 1.85677E-04-3.54488E-15
 -1      4131 3.80718E-03 1.87127E-04-3.28447E-15
 -1      4132 4.01777E-03 1.49625E-04-3.74474E-15
 -1      4133 1.33468E-02 1.17625E-03-3.97897E-14
 -1      4134 1.33967E-02 1.21251E-03-3.95916E-14
 -1      4135 1.32031E-02 1.12115E-03-3.90304E-14
 -1      4136 1.84081E-03 1.74565E-04-7.76262E-16
 -1      4137 1.81725E-03 1.41196E-04-7.85518E-16
 -1      4138 1.98526E-03 1.79369E-04-8.95930E-16
 -1      4139 3.37816E-03 1.90387E-04-2.56636E-15
 -1      4140 3.23445E-03 1.91019E-04-2.34781E-15
 -1      4141 3.16003E-03 1.54418E-04-2.29264E-15
 -1      4142 1.75208E-03 5.70051E-05-7.96143E-16
 -1      4143 1.75118E-03 2.00495E-05-8.20524E-16
 -1      4144 1.87587E-03 1.65764E-06-9.41833E-16
 -1      4145 1.22275E-02 9.06189E-04-2.83769E-14
 -1      4146 1.36727E-02 1.40702E-03-3.88992E-14
 -1      4147 1.35679E-02 1.35211E-03-3.86079E-14
 -1      4148 1.35239E-02 1.32033E-03-3.87225E-14
 -1      4149 1.21963E-02 8.81394E-04-2.88682E-14
 -1      4150 3.14361E-03-8.10959E-05-2.56139E-15
 -1      4151 3.28768E-03-8.07247E-05-2.79154E-15
 -1      4152 3.43143E-03-8.01954E-05-3.03238E-15
 -1      4153 3.57481E-03-7.94899E-05-3.28394E-15
 -1      4154 3.35867E-03-4.38643E-05-2.86636E-15
 -1      4155 3.71778E-03-7.86381E-05-3.54556E-15
 -1      4156 3.86033E-03-7.76051E-05-3.81786E-15
 -1      4157 3.64537E-03-4.28811E-05-3.36441E-15
 -1      4158 4.00240E-03-7.64172E-05-4.10125E-15
 -1      4159 4.14399E-03-7.50320E-05-4.39403E-15
 -1      4160 3.93031E-03-4.14108E-05-3.90479E-15
 -1      4161 4.28506E-03-7.34578E-05-4.69697E-15
 -1      4162 4.42558E-03-7.16501E-05-5.01013E-15
 -1      4163 4.21321E-03-3.93515E-05-4.48608E-15
 -1      4164 4.56552E-03-6.96068E-05-5.33198E-15
 -1      4165 4.70487E-03-6.72726E-05-5.66513E-15
 -1      4166 4.49378E-03-3.65252E-05-5.10675E-15
 -1      4167 4.84358E-03-6.46345E-05-6.00815E-15
 -1      4168 4.98167E-03-6.16284E-05-6.36112E-15
 -1      4169 4.77174E-03-3.26686E-05-5.76733E-15
 -1      4170 5.11910E-03-5.82274E-05-6.72445E-15
 -1      4171 5.25590E-03-5.43636E-05-7.09728E-15
 -1      4172 5.04680E-03-2.74160E-05-6.46770E-15
 -1      4173 5.39203E-03-4.99931E-05-7.48053E-15
 -1      4174 5.52759E-03-4.50553E-05-7.87367E-15
 -1      4175 5.31874E-03-2.02888E-05-7.21020E-15
 -1      4176 5.66254E-03-3.94869E-05-8.27548E-15
 -1      4177 5.79709E-03-3.32594E-05-8.68786E-15
 -1      4178 5.58742E-03-1.06996E-05-7.99022E-15
 -1      4179 5.93117E-03-2.62897E-05-9.11035E-15
 -1      4180 6.06520E-03-1.86400E-05-9.54159E-15
 -1      4181 5.85292E-03 2.00764E-06-8.80954E-15
 -1      4182 6.19907E-03-1.02290E-05-9.98237E-15
 -1      4183 6.33346E-03-1.18648E-06-1.04314E-14
 -1      4184 6.11574E-03 1.84494E-05-9.66797E-15
 -1      4185 6.46847E-03 8.43474E-06-1.08901E-14
 -1      4186 6.60507E-03 1.79938E-05-1.13591E-14
 -1      4187 6.37701E-03 3.89399E-05-1.05626E-14
 -1      4188 2.87137E-03 1.54337E-04-1.89380E-15
 -1      4189 2.80176E-03 1.90927E-04-1.75650E-15
 -1      4190 2.65712E-03 1.90087E-04-1.58081E-15
 -1      4191 7.29042E-03-9.10841E-05-1.35532E-14
 -1      4192 2.56482E-03-8.06207E-05-1.74609E-15
 -1      4193 2.70979E-03-8.10596E-05-1.93407E-15
 -1      4194 1.19154E-02 7.27159E-04-3.04900E-14
 -1      4195 1.20502E-02 7.65287E-04-3.13472E-14
 -1      4196 1.21842E-02 8.03911E-04-3.22178E-14
 -1      4197 1.23183E-02 8.43404E-04-3.30995E-14
 -1      4198 1.21766E-02 8.17823E-04-3.16145E-14
 -1      4199 1.24522E-02 8.83564E-04-3.39895E-14
 -1      4200 1.25866E-02 9.24519E-04-3.48906E-14
 -1      4201 1.24389E-02 8.95310E-04-3.33752E-14
 -1      4202 1.27212E-02 9.66156E-04-3.58007E-14
 -1      4203 1.28565E-02 1.00844E-03-3.67179E-14
 -1      4204 1.27036E-02 9.76693E-04-3.51754E-14
 -1      4205 1.29614E-02 1.04272E-03-3.74008E-14
 -1      4206 1.30975E-02 1.08609E-03-3.83366E-14
 -1      4207 1.31494E-02 1.12214E-03-3.81399E-14
 -1      4208 1.29408E-02 1.05273E-03-3.67673E-14
 -1      4209 2.27472E-03-7.89137E-05-1.40030E-15
 -1      4210 2.41977E-03-7.99096E-05-1.56830E-15
 -1      4211 2.49123E-03-4.40259E-05-1.62561E-15
 -1      4212 1.80046E-03-9.25395E-05-9.28673E-16
 -1      4213 5.96525E-03 1.33383E-04-8.84996E-15
 -1      4214 5.84130E-03 1.27196E-04-8.43607E-15
 -1      4215 1.34728E-02 1.28069E-03-3.89550E-14
 -1      4216 1.33664E-02 1.26157E-03-3.77397E-14
 -1      4217 1.20545E-02 8.18586E-04-2.91810E-14
 -1      4218 1.19868E-02 7.92559E-04-2.91382E-14
 -1      4219 1.32330E-02 1.21562E-03-3.68042E-14
 -1      4220 1.92448E-03-7.57194E-05-1.03540E-15
 -1      4221 3.66456E-03 1.88409E-04-3.03422E-15
 -1      4222 3.52154E-03 1.89517E-04-2.79503E-15
 -1      4223 3.73356E-03 1.51799E-04-3.21856E-15
 -1      4224 1.17308E-02 6.75910E-04-2.93437E-14
 -1      4225 6.77445E-03 7.00854E-05-1.19740E-14
 -1      4226 6.68289E-03 8.33989E-05-1.16618E-14
 -1      4227 1.30471E-02 1.15625E-03-3.53658E-14
 -1      4228 1.29177E-02 1.11189E-03-3.44553E-14
 -1      4229 1.34265E-02 1.24577E-03-3.91567E-14
 -1      4230 6.81511E-03 3.18246E-05-1.20819E-14
 -1      4231 2.27472E-03 1.86343E-04-1.16447E-15
 -1      4232 2.12992E-03 1.83264E-04-1.02551E-15
 -1      4233 2.10633E-03 1.48624E-04-1.03709E-15
 -1      4234 4.36769E-03 1.12546E-04-4.52920E-15
 -1      4235 4.22741E-03 1.13275E-04-4.23376E-15
 -1      4236 2.85462E-03-8.12804E-05-2.13214E-15
 -1      4237 2.99924E-03-8.12795E-05-2.34151E-15
 -1      4238 2.78123E-03-4.44659E-05-1.99705E-15
 -1      4239 5.45639E-03 1.15512E-04-7.25047E-15
 -1      4240 5.32456E-03 1.13549E-04-6.87432E-15
 -1      4241 1.79537E-03 1.15003E-04-7.88445E-16
 -1      4242 1.77301E-03 8.24966E-05-7.94991E-16
 -1      4243 1.89707E-03 6.56540E-05-9.14823E-16
 -1      4244 1.93972E-03 1.18485E-04-9.10093E-16
 -1      4245 5.71494E-03 1.22148E-04-8.03081E-15
 -1      4246 5.58661E-03 1.18404E-04-7.63624E-15
 -1      4247 5.77834E-03 9.78113E-05-8.32865E-15
 -1      4248 5.19124E-03 1.12182E-04-6.50967E-15
 -1      4249 5.05661E-03 1.11445E-04-6.15469E-15
 -1      4250 5.25652E-03 8.29131E-05-6.77644E-15
 -1      4251 1.27902E-02 1.06869E-03-3.35488E-14
 -1      4252 1.26648E-02 1.02652E-03-3.26535E-14
 -1      4253 1.28135E-02 1.06323E-03-3.41790E-14
 -1      4254 4.92077E-03 1.11094E-04-5.80977E-15
 -1      4255 4.78387E-03 1.11146E-04-5.47414E-15
 -1      4256 4.98714E-03 7.99031E-05-6.06087E-15
 -1      4257 1.25425E-02 9.83772E-04-3.18762E-14
 -1      4258 1.24221E-02 9.42451E-04-3.11086E-14
 -1      4259 1.25615E-02 9.78299E-04-3.24947E-14
 -1      4260 3.07051E-03-4.43939E-05-2.41024E-15
 -1      4261 2.94155E-03 1.17637E-04-2.03461E-15
 -1      4262 2.79691E-03 1.17353E-04-1.84335E-15
 -1      4263 4.64599E-03 1.11420E-04-5.14947E-15
 -1      4264 4.50724E-03 1.11931E-04-4.83436E-15
 -1      4265 4.71339E-03 7.86330E-05-5.38595E-15
 -1      4266 1.18683E-02 7.31848E-04-2.95994E-14
 -1      4267 2.04183E-03-7.84336E-05-1.15229E-15
 -1      4268 2.15709E-03-7.66882E-05-1.27074E-15
 -1      4269 2.22848E-03-4.18886E-05-1.32326E-15
 -1      4270 1.99347E-03-3.82512E-05-1.07904E-15
 -1      4271 5.52062E-03 8.85213E-05-7.53279E-15
 -1      4272 3.44753E-03 1.53478E-04-2.73464E-15
 -1      4273 2.53837E-03 1.89587E-04-1.44345E-15
 -1      4274 2.39355E-03 1.87763E-04-1.28643E-15
 -1      4275 2.37010E-03 1.52435E-04-1.30020E-15
 -1      4276 2.60789E-03 1.53654E-04-1.56635E-15
 -1      4277 1.22087E-02 8.77342E-04-2.94684E-14
 -1      4278 1.22608E-02 8.87178E-04-3.02043E-14
 -1      4279 6.07182E-03 1.37326E-04-9.23172E-15
 -1      4280 6.01350E-03 1.07905E-04-9.11981E-15
 -1      4281 6.17635E-03 1.42522E-04-9.62193E-15
 -1      4282 6.47827E-03 1.77361E-04-1.08135E-14
 -1      4283 1.31269E-02 1.16394E-03-3.65194E-14
 -1      4284 1.19542E-02 7.70297E-04-2.95570E-14
 -1      4285 4.08649E-03 1.14020E-04-3.94773E-15
 -1      4286 3.94496E-03 1.14792E-04-3.67187E-15
 -1      4287 4.15556E-03 7.88856E-05-4.15451E-15
 -1      4288 1.32856E-02 1.19056E-03-3.84027E-14
 -1      4289 4.43599E-03 7.84527E-05-4.75030E-15
 -1      4290 3.23008E-03 1.17548E-04-2.44925E-15
 -1      4291 3.08596E-03 1.17702E-04-2.23697E-15
 -1      4292 3.01227E-03 8.08890E-05-2.17965E-15
 -1      4293 1.99353E-03 3.93681E-05-1.02423E-15
 -1      4294 1.99307E-03 5.52862E-07-1.05261E-15
 -1      4295 2.11048E-03-5.85458E-07-1.16893E-15
 -1      4296 7.44075E-03-2.06670E-04-1.40149E-14
 -1      4297 6.56416E-03 1.07680E-04-1.12327E-14
 -1      4298 6.48902E-03 1.27374E-04-1.09364E-14
 -1      4299 3.28637E-03-7.38627E-06-2.70342E-15
 -1      4300 3.43010E-03-7.16320E-06-2.93945E-15
 -1      4301 1.22705E-02 8.79861E-04-3.08080E-14
 -1      4302 3.57343E-03-6.89776E-06-3.18703E-15
 -1      4303 3.71632E-03-6.55063E-06-3.44400E-15
 -1      4304 3.50194E-03 2.93240E-05-3.01176E-15
 -1      4305 3.90061E-03 1.90073E-05-3.75233E-15
 -1      4306 4.04232E-03 1.93244E-05-4.03238E-15
 -1      4307 4.18343E-03 1.97102E-05-4.32198E-15
 -1      4308 4.32393E-03 2.02664E-05-4.62133E-15
 -1      4309 4.46374E-03 2.09573E-05-4.93015E-15
 -1      4310 4.60283E-03 2.19042E-05-5.24845E-15
 -1      4311 4.74112E-03 2.30726E-05-5.57803E-15
 -1      4312 4.87859E-03 2.46154E-05-5.91774E-15
 -1      4313 5.01512E-03 2.64989E-05-6.26642E-15
 -1      4314 5.15072E-03 2.89155E-05-6.62602E-15
 -1      4315 5.28523E-03 3.18308E-05-6.99454E-15
 -1      4316 5.41869E-03 3.54831E-05-7.37375E-15
 -1      4317 5.55089E-03 3.98345E-05-7.76385E-15
 -1      4318 5.68196E-03 4.51716E-05-8.16208E-15
 -1      4319 5.81157E-03 5.14487E-05-8.57143E-15
 -1      4320 5.93999E-03 5.89829E-05-8.98928E-15
 -1      4321 6.05223E-03 6.31622E-05-9.37308E-15
 -1      4322 6.17831E-03 7.33262E-05-9.80983E-15
 -1      4323 6.34793E-03 5.96670E-05-1.04458E-14
 -1      4324 6.47564E-03 7.22387E-05-1.09046E-14
 -1      4325 6.27901E-03 1.02499E-04-1.01378E-14
 -1      4326 6.59353E-03 4.57108E-05-1.13260E-14
 -1      4327 6.69512E-03 1.05095E-05-1.16650E-14
 -1      4328 6.91698E-03 1.16857E-05-1.24084E-14
 -1      4329 2.41825E-03-7.75966E-06-1.50863E-15
 -1      4330 2.56335E-03-7.79088E-06-1.68181E-15
 -1      4331 1.25036E-02 9.40425E-04-3.28837E-14
 -1      4332 1.26319E-02 9.80373E-04-3.37768E-14
 -1      4333 1.27615E-02 1.02163E-03-3.46796E-14
 -1      4334 1.28925E-02 1.06377E-03-3.55905E-14
 -1      4335 1.20742E-02 8.04069E-04-3.03310E-14
 -1      4336 1.30783E-02 1.12002E-03-3.70232E-14
 -1      4337 3.75986E-03 9.04906E-05-3.37183E-15
 -1      4338 3.61716E-03 9.09373E-05-3.11784E-15
 -1      4339 2.75120E-03 1.80097E-05-1.89529E-15
 -1      4340 2.89601E-03 1.81466E-05-2.09030E-15
 -1      4341 2.67934E-03 5.45304E-05-1.76432E-15
 -1      4342 2.60809E-03 9.08364E-05-1.63747E-15
 -1      4343 6.33074E-03 1.34043E-04-1.02829E-14
 -1      4344 3.47401E-03 9.12966E-05-2.87414E-15
 -1      4345 3.33045E-03 9.15973E-05-2.64124E-15
 -1      4346 2.20549E-03-3.52099E-06-1.26930E-15
 -1      4347 2.32313E-03-4.73949E-06-1.39813E-15
 -1      4348 2.39594E-03 3.12415E-05-1.44840E-15
 -1      4349 2.20587E-03 3.65013E-05-1.23748E-15
 -1      4350 6.55842E-03 6.89134E-05-1.12056E-14
 -1      4351 2.18026E-03 9.46027E-05-1.16033E-15
 -1      4352 2.03541E-03 9.26902E-05-1.02055E-15
 -1      4353 3.04059E-03 1.82351E-05-2.29559E-15
 -1      4354 1.22493E-02 8.61064E-04-3.12363E-14
 -1      4355 3.18489E-03 1.83361E-05-2.51254E-15
 -1      4356 1.23755E-02 8.98441E-04-3.21080E-14
 -1      4357 3.25746E-03 5.50422E-05-2.57722E-15
 -1      4358 3.83000E-03 5.45858E-05-3.55999E-15
 -1      4359 1.31817E-02 1.15516E-03-3.77112E-14
 -1      4360 2.39416E-03 9.31368E-05-1.38756E-15
 -1      4361 2.27515E-03 9.26768E-05-1.25952E-15
 -1      4362 6.28153E-03 1.52397E-04-1.00200E-14
 -1      4363 2.48911E-03 9.07884E-05-1.49681E-15
 -1      4364 2.01427E-03 6.59249E-05-1.02261E-15
 -3
    1PSTEP                         2           1           1          
  100CL  101 1.000000000        4364                     0    1           1
 -4  STRESS      6    1
 -5  SXX         1    4    1    1
 -5  SYY         1    4    2    2
 -5  SZZ         1    4    3    3
 -5  SXY         1    4    1    2
 -5  SYZ         1    4    2    3
 -5  SZX         1    4    3    1
 -1         1-1.83535E-01-2.15664E+00-1.66967E+00 4.83111E-01-1.52972E-12 8.95561E-13
 -1         2-6.39369E-01-2.53366E+01-3.43051E+00-1.06495E-01 1.26884E-12 2.17874E-13
 -1         3 1.99971E+01-2.95204E-03 1.28310E-02-3.00834E-03-6.01467E-13-5.47951E-13
 -1         4 1.99974E+01-2.51609E-03 1.03970E-02 2.60241E-03 4.46706E-14 2.09539E-13
 -1         5 3.27453E+01 6.13827E+00 2.74078E+00 6.22160E+00-1.87003E-14 1.26088E-12
 -1         6 3.57287E+01 1.22554E+01 5.12260E+00-8.64263E+00-7.73270E-14 5.81771E-13
 -1         7 2.08050E+01 6.09582E+00-1.28888E-01-4.72508E+00-1.45717E-14-1.10020E-13
 -1         8 1.96636E+01 5.93249E+00 5.07087E-02-3.27575E+00-5.71071E-15-2.57946E-13
 -1         9 1.91342E+01 5.77108E+00 4.90623E-02-2.52830E+00-3.64986E-15-3.16434E-13
 -1        10 1.88977E+01 5.69275E+00 5.13626E-02-1.95267E+00 1.31666E-15-3.23582E-13
 -1        11 1.87792E+01 5.65290E+00 5.05381E-02-1.45714E+00 1.24033E-15-3.16410E-13
 -1        12 1.87182E+01 5.63196E+00 4.89091E-02-1.01594E+00 5.14064E-15-2.82558E-13
 -1        13 1.86865E+01 5.62106E+00 4.75347E-02-5.95841E-01 6.30409E-15-2.48963E-13
 -1        14 1.86733E+01 5.61650E+00 4.68037E-02-1.91428E-01 6.70755E-15-2.12090E-13
 -1        15 1.86738E+01 5.61667E+00 4.68477E-02 2.08237E-01 1.13292E-14-1.79507E-13
 -1        16 1.86882E+01 5.62158E+00 4.76784E-02 6.13514E-01 1.15549E-14-1.54030E-13
 -1        17 1.87212E+01 5.63277E+00 4.92052E-02 1.03565E+00 9.80075E-15-1.06163E-13
 -1        18 1.87834E+01 5.65400E+00 5.09586E-02 1.48014E+00 1.07488E-14-3.38477E-14
 -1        19 1.89029E+01 5.69428E+00 5.16502E-02 1.98164E+00 1.36106E-14 4.59819E-14
 -1        20 1.91397E+01 5.77363E+00 4.88488E-02 2.56540E+00 1.72761E-14 1.77542E-13
 -1        21 1.96593E+01 5.94716E+00 4.58649E-02 3.31005E+00 1.76248E-14 3.81893E-13
 -1        22 2.11877E+01 6.37748E+00 1.39416E-01 4.52291E+00 1.20737E-15 7.06796E-13
 -1        23 2.30091E+01-1.37819E+00-9.37844E-01-7.11376E-01-5.03902E-14 3.24754E-13
 -1        24 1.93455E+01-9.94585E-02-3.09761E-01 6.30320E-02-9.78124E-15 1.46405E-13
 -1        25 1.86560E+01-5.63529E-02-6.87651E-02 6.06027E-02 3.41957E-16-1.90733E-14
 -1        26 1.84527E+01-2.21585E-02-6.46068E-03 3.28141E-02 6.72628E-15-1.22151E-13
 -1        27 1.84639E+01-1.19217E-02 1.53400E-03 2.23972E-02-1.37350E-14-1.88497E-13
 -1        28 1.85792E+01-6.42762E-03 1.65884E-03 1.60699E-02-9.84694E-15-2.35233E-13
 -1        29 1.87423E+01-3.36570E-03 1.50659E-03 1.19005E-02 2.93101E-15-2.33222E-13
 -1        30 1.89235E+01-1.63152E-03 1.56408E-03 8.93747E-03 1.18427E-14-2.99185E-13
 -1        31 1.91065E+01-6.90629E-04 1.55475E-03 6.73759E-03-9.78611E-15-3.55054E-13
 -1        32 1.92839E+01-2.55228E-04 1.36398E-03 5.08560E-03-3.00573E-14-4.14149E-13
 -1        33 1.94538E+01-1.55675E-04 9.93462E-04 3.87297E-03 5.26160E-14-4.73714E-13
 -1        34 1.96178E+01-2.80711E-04 4.79522E-04 3.04517E-03-2.97249E-16-5.32161E-13
 -1        35 1.97804E+01-5.46679E-04-1.34828E-04 2.57807E-03 1.45122E-14-6.48780E-13
 -1        36 1.99476E+01-8.78858E-04-7.99934E-04 2.46544E-03-1.70266E-15-6.13740E-13
 -1        37 2.01264E+01-1.19766E-03-1.44891E-03 2.70909E-03-5.86490E-14-7.39121E-13
 -1        38 2.03233E+01-1.40699E-03-1.98187E-03 3.30589E-03-9.00942E-15-7.06191E-13
 -1        39 2.05433E+01-1.38483E-03-2.24710E-03 4.22714E-03-7.00438E-15-6.51847E-13
 -1        40 2.07879E+01-9.79083E-04-2.02262E-03 5.38573E-03 1.60215E-14-6.75401E-13
 -1        41 2.10525E+01-1.49161E-05-1.00762E-03 6.58742E-03-1.06461E-14-8.68036E-13
 -1        42 2.13233E+01 1.67548E-03 1.15628E-03 7.46742E-03-4.56249E-15-8.60105E-13
 -1        43 2.15732E+01 4.18635E-03 4.79929E-03 7.42623E-03-3.29577E-14-7.19210E-13
 -1        44 2.17600E+01 7.42283E-03 1.00270E-02 5.60555E-03 5.49483E-14-5.84296E-13
 -1        45 2.18254E+01 1.09448E-02 1.63878E-02 9.88502E-04-8.93339E-15-4.61128E-13
 -1        46 2.17016E+01 1.38269E-02 2.24671E-02-7.25140E-03 5.83135E-14-5.21410E-13
 -1        47 2.13275E+01 1.46727E-02 2.56852E-02-1.90703E-02-5.41851E-14-3.18498E-13
 -1        48 2.06753E+01 1.19660E-02 2.27446E-02-3.26758E-02-1.47283E-14-4.24806E-13
 -1        49 1.97840E+01 4.85776E-03 1.11706E-02-4.40019E-02 4.51049E-14-3.44752E-13
 -1        50 1.87824E+01-5.84683E-03-8.34376E-03-4.74546E-02-1.40953E-14-1.42622E-13
 -1        51 1.78794E+01-1.72389E-02-3.03920E-02-3.85380E-02-2.69210E-14-2.37206E-14
 -1        52 1.73071E+01-2.51438E-02-4.61726E-02-1.73708E-02-2.36913E-14-3.18842E-14
 -1        53 1.72301E+01-2.62239E-02-4.83431E-02 9.84378E-03-6.04679E-14-3.29025E-13
 -1        54 1.76710E+01-2.00085E-02-3.58504E-02 3.35658E-02 1.12611E-13-2.59301E-13
 -1        55 1.84998E+01-9.17916E-03-1.46660E-02 4.62148E-02-1.08632E-13-7.51343E-14
 -1        56 1.94944E+01 2.10158E-03 6.31140E-03 4.59617E-02-7.36688E-15-4.04746E-13
 -1        57 2.04313E+01 1.04090E-02 2.04224E-02 3.62898E-02 7.38407E-15-5.52893E-13
 -1        58 2.11560E+01 1.43355E-02 2.56691E-02 2.27946E-02 5.47544E-15-6.56248E-13
 -1        59 2.16051E+01 1.43482E-02 2.38616E-02 1.01487E-02 5.61433E-14-4.97144E-13
 -1        60 2.17907E+01 1.18677E-02 1.82743E-02 7.85256E-04 5.18902E-14-1.89935E-13
 -1        61 2.17681E+01 8.37713E-03 1.17775E-02-4.84808E-03 3.82041E-14 5.62668E-14
 -1        62 2.16055E+01 4.94317E-03 6.10711E-03-7.41468E-03-1.04210E-13-3.58005E-13
 -1        63 2.13655E+01 2.12508E-03 1.93804E-03-7.92182E-03-5.43058E-15-6.25647E-13
 -1        64 2.10963E+01 8.85542E-05-7.31787E-04-7.28348E-03 3.94627E-14-7.24455E-13
 -1        65 2.08307E+01-1.23500E-03-2.22220E-03-6.15876E-03 1.43905E-14-3.12862E-13
 -1        66 2.05882E+01-2.01910E-03-2.94685E-03-4.94139E-03 9.73253E-14-5.03599E-13
 -1        67 2.03797E+01-2.45933E-03-3.31629E-03-3.80016E-03 3.09621E-14-4.74664E-13
 -1        68 2.02107E+01-2.72065E-03-3.69927E-03-2.70437E-03 1.39602E-13 2.20313E-14
 -1        69 2.00854E+01-2.86604E-03-4.28522E-03-1.39598E-03-4.73788E-15-3.01654E-14
 -1        70 2.00091E+01-2.45818E-03-4.30742E-03 9.21291E-04-6.22842E-15 3.50056E-13
 -1        71 1.99881E+01 4.91651E-04 2.01415E-04 3.85259E-03-4.72556E-14 2.54452E-13
 -1        72 2.10221E+01-4.04623E-01-9.80004E-01-3.11101E-01 2.84148E-15 1.28239E-12
 -1        73 1.93096E+01-6.58807E-02-2.91080E-01-5.37017E-02 4.31903E-15 1.14434E-12
 -1        74 1.86648E+01-2.05412E-02-6.42692E-02-2.02157E-02 1.34442E-14 1.00917E-12
 -1        75 1.84607E+01-9.93417E-03-9.33105E-03-1.52604E-02 5.73163E-15 9.29026E-13
 -1        76 1.84713E+01-5.26269E-03 6.34670E-04-1.21326E-02 2.42433E-15 9.08445E-13
 -1        77 1.85850E+01-2.76734E-03 1.63537E-03-9.77587E-03 1.39579E-14 9.07855E-13
 -1        78 1.87461E+01-1.37423E-03 1.68159E-03-7.93288E-03-2.04695E-14 9.61689E-13
 -1        79 1.89249E+01-6.15082E-04 1.74969E-03-6.37550E-03 1.04076E-14 9.66680E-13
 -1        80 1.91053E+01-2.57423E-04 1.71333E-03-4.99588E-03 3.78181E-15 9.00295E-13
 -1        81 1.92800E+01-1.76933E-04 1.47859E-03-3.74960E-03 1.46292E-14 6.74837E-13
 -1        82 1.94476E+01-3.06110E-04 1.03244E-03-2.61693E-03 1.29289E-14 5.34364E-13
 -1        83 1.96109E+01-6.11318E-04 3.79831E-04-1.58703E-03-1.90807E-14 5.23453E-13
 -1        84 1.97761E+01-1.08189E-03-4.89087E-04-6.54271E-04 2.08163E-14 5.57667E-13
 -1        85 1.99530E+01-1.72436E-03-1.61099E-03 1.78895E-04 2.94285E-15 5.56354E-13
 -1        86 2.01546E+01-2.55786E-03-3.05548E-03 8.93231E-04 6.39166E-15 5.71422E-13
 -1        87 2.03984E+01-3.60715E-03-4.92997E-03 1.43557E-03-1.65341E-18 4.10756E-13
 -1        88 2.07064E+01-4.88764E-03-7.38045E-03 1.68712E-03-4.44539E-14 4.47204E-13
 -1        89 2.11070E+01-6.37277E-03-1.05756E-02 1.40707E-03 3.68882E-14 2.83329E-13
 -1        90 2.16357E+01-7.92705E-03-1.46404E-02 1.38041E-04-4.44399E-14 2.10668E-13
 -1        91 2.23351E+01-9.17936E-03-1.94576E-02-2.93645E-03-1.90566E-14 4.51820E-13
 -1        92 2.32516E+01-9.31073E-03-2.41704E-02-9.15809E-03-2.04708E-15 8.08024E-13
 -1        93 2.44243E+01-6.77756E-03-2.61210E-02-2.04289E-02 8.79898E-14 6.69676E-13
 -1        94 2.58572E+01 8.31114E-04-1.90893E-02-3.85974E-02-1.42202E-14 1.66343E-13
 -1        95 2.74623E+01 1.60706E-02 8.11685E-03-6.29357E-02-4.48384E-14 4.81268E-13
 -1        96 2.89655E+01 3.85467E-02 6.82095E-02-8.37704E-02 8.07668E-14 6.23016E-13
 -1        97 2.98031E+01 5.81263E-02 1.57125E-01-7.30047E-02-6.14179E-14 8.89430E-13
 -1        98 2.91512E+01 5.11811E-02 2.20339E-01 1.35644E-02 3.53736E-14 7.45522E-13
 -1        99 2.63657E+01-1.20625E-03 1.45826E-01 1.89896E-01 8.29415E-15 2.81442E-13
 -1       100 2.19504E+01-6.98102E-02-1.20301E-01 3.50111E-01-4.22769E-14 6.45137E-13
 -1       101 1.81886E+01-9.08285E-02-4.06387E-01 2.93703E-01-8.39008E-14 6.75709E-13
 -1       102 1.77534E+01-4.79535E-02-4.32948E-01-3.57052E-03 8.92880E-14 3.36717E-13
 -1       103 2.09961E+01 8.88875E-03-1.74170E-01-2.75801E-01-4.27694E-14 1.46327E-13
 -1       104 2.55284E+01 4.35802E-02 1.11551E-01-3.16065E-01 2.42055E-14 4.24605E-13
 -1       105 2.87758E+01 4.85959E-02 2.16996E-01-1.91328E-01 2.08544E-14 2.78583E-13
 -1       106 2.98575E+01 3.46465E-02 1.72781E-01-5.55805E-02-9.44065E-14 3.43142E-13
 -1       107 2.92638E+01 1.61069E-02 8.39159E-02 2.35327E-02 4.45031E-14 2.64094E-13
 -1       108 2.78402E+01 2.12843E-03 1.72699E-02 5.12279E-02 6.54563E-14-1.84668E-13
 -1       109 2.62186E+01-5.56468E-03-1.59134E-02 5.15918E-02 1.01009E-13-5.48995E-13
 -1       110 2.47283E+01-8.49471E-03-2.62221E-02 4.21724E-02-1.26195E-13-3.89242E-13
 -1       111 2.34888E+01-8.72720E-03-2.55147E-02 3.14436E-02 4.93320E-14 2.65933E-13
 -1       112 2.25110E+01-7.75528E-03-2.10319E-02 2.24081E-02-1.39941E-13 5.86678E-13
 -1       113 2.17620E+01-6.42980E-03-1.61077E-02 1.56500E-02 2.92973E-14 5.97407E-13
 -1       114 2.11976E+01-5.16640E-03-1.19449E-02 1.09048E-02-6.69361E-14 3.99891E-13
 -1       115 2.07765E+01-4.13166E-03-8.82902E-03 7.70571E-03 1.96560E-13-1.07029E-13
 -1       116 2.04657E+01-3.37718E-03-6.75185E-03 5.60054E-03 1.23518E-14-6.60469E-13
 -1       117 2.02412E+01-2.90945E-03-5.73033E-03 4.22477E-03 5.92600E-14-1.38395E-12
 -1       118 2.00886E+01-2.61319E-03-5.63385E-03 3.06760E-03-8.05693E-14-9.24224E-13
 -1       119 2.00031E+01-1.91889E-03-5.11245E-03 9.00588E-04 4.67961E-14-1.13451E-12
 -1       120 1.99854E+01 2.12800E-03 1.13056E-03-3.86080E-03 2.69256E-13-1.61155E-12
 -1       121 2.00000E+01-1.24985E-02 4.03372E-04-5.53119E-03-1.52170E-12-3.04507E-14
 -1       122 1.99974E+01 9.06497E-03-5.28902E-03-1.61169E-04-4.09145E-13 1.93320E-13
 -1       123 1.99980E+01 9.51820E-02-4.05807E-03 3.25793E-03 7.96819E-13 3.09008E-13
 -1       124 1.99993E+01 2.20572E-01-1.33468E-03 4.72900E-03 4.26925E-13 1.25035E-13
 -1       125 2.00008E+01 3.56698E-01 1.22024E-03 4.70189E-03-1.80078E-13-2.00390E-13
 -1       126 2.00020E+01 4.75895E-01 3.09454E-03 3.78995E-03-9.19678E-13 1.11105E-13
 -1       127 2.00027E+01 5.62157E-01 4.18045E-03 2.24997E-03-3.93038E-13-3.41344E-14
 -1       128 2.00030E+01 6.01149E-01 4.50476E-03 4.79815E-04-5.37531E-13-4.02242E-14
 -1       129 2.00027E+01 5.89027E-01 4.14800E-03-1.22782E-03-1.08863E-12-5.67794E-15
 -1       130 2.00021E+01 5.29621E-01 3.24368E-03-2.64803E-03-4.03422E-13 3.00729E-14
 -1       131 2.00012E+01 4.33090E-01 1.91774E-03-3.65021E-03-6.96592E-13-3.05243E-13
 -1       132 2.00002E+01 3.16196E-01 3.13862E-04-4.02215E-03-1.09267E-12 2.46971E-13
 -1       133 1.99990E+01 1.92769E-01-1.56589E-03-3.74035E-03-9.81857E-13-2.35763E-14
 -1       134 1.99978E+01 8.38484E-02-3.68845E-03-2.80391E-03-1.70511E-13 4.16374E-13
 -1       135 1.99981E+01 1.17522E-02-3.85242E-03 3.99690E-05 4.48692E-14-1.33145E-13
 -1       136 1.99981E+01-8.35764E-03 3.39941E-04 7.15121E-03-4.38837E-13-1.59906E-13
 -1       137-1.49495E+00-2.20177E+01-3.29920E+00-4.14961E+00 1.56403E-12 1.04111E-13
 -1       138-2.07143E+00-1.14954E+01-2.68250E+00-4.09691E+00 1.36102E-12 7.36300E-13
 -1       139 1.29573E+00 7.50679E-01-1.61882E+00 1.48895E+00 1.70469E-12 1.17589E-12
 -1       140 1.26471E+01 8.99939E+00-1.63361E-01 1.06937E+01 1.44657E-12 1.64857E-12
 -1       141 3.29233E+01 1.03489E+01 1.57880E+00 1.79576E+01 8.76188E-13 1.60094E-12
 -1       142 5.43297E+01 6.20662E+00 3.11602E+00 1.70197E+01 4.02151E-13 1.09684E-12
 -1       143 6.93455E+01 1.76809E+00 4.11713E+00 7.09341E+00 1.33095E-13 2.12164E-13
 -1       144 6.88859E+01 1.89733E+00 4.08747E+00-7.91823E+00 1.25398E-13-1.02893E-12
 -1       145 5.24861E+01 6.69550E+00 3.00201E+00-1.77101E+01 3.86247E-13-1.09729E-12
 -1       146 2.95166E+01 1.06049E+01 1.30582E+00-1.73387E+01 8.35609E-13-1.16507E-12
 -1       147 8.23995E+00 6.87749E+00-6.51096E-01-7.75010E+00 1.02757E-12-1.07320E-12
 -1       148-3.49116E-01-2.67098E+00-1.98287E+00 7.65713E-01 1.05843E-12-6.47038E-13
 -1       149-2.18518E+00-1.55322E+01-2.95754E+00 4.92402E+00 1.13853E-13-8.31418E-14
 -1       150-1.00178E+00-2.43313E+01-3.41350E+00 2.80310E+00-6.84258E-13 1.18783E-13
 -1       151-8.75667E-01-2.36771E+01-3.29911E+00-2.11647E+00-1.22086E-12-9.36386E-14
 -1       152-1.65820E+00-1.41333E+01-2.65437E+00-3.91657E+00-8.16069E-13-2.27332E-13
 -1       153 3.30734E-01-9.83001E-01-1.53945E+00 3.24538E-01-8.71803E-13-5.82923E-13
 -1       154 9.65386E+00 8.95557E+00-1.49616E-01 9.32959E+00-9.70557E-13-9.32587E-13
 -1       155 2.58177E+01 1.15239E+01 1.21681E+00 1.69676E+01-7.27418E-13-1.16518E-12
 -1       156 4.59428E+01 7.74563E+00 2.44097E+00 1.78564E+01-4.77451E-13-1.05427E-12
 -1       157 6.15567E+01 2.74811E+00 3.23471E+00 1.05715E+01-1.30779E-13-5.36793E-14
 -1       158 6.61523E+01 8.67341E-01 3.46115E+00-2.36081E+00 5.96606E-14 4.65745E-13
 -1       159 5.72886E+01 4.19248E+00 3.03786E+00-1.41177E+01-2.79089E-13 8.24951E-13
 -1       160 4.03024E+01 9.29508E+00 2.14900E+00-1.86647E+01-7.32830E-13 1.41065E-12
 -1       161 2.05227E+01 1.15855E+01 8.33616E-01-1.52392E+01-1.72412E-12 2.29622E-12
 -1       162 6.18566E+00 6.99591E+00-5.47585E-01-6.72606E+00-2.11087E-12 1.79418E-12
 -1       163-1.57317E+00-1.26621E+01-2.52483E+00 3.79603E+00-2.74669E-13 2.05364E-13
 -1       164-9.95222E-01-2.11174E+01-3.05553E+00 3.41635E+00 1.92651E-13-9.53577E-14
 -1       165 2.10019E+01 3.69246E+00-5.73815E-02-3.61033E+00-1.17621E-13-1.59088E-13
 -1       166 1.99845E+01 4.20752E+00-4.59277E-02-2.80899E+00-7.58560E-14-2.38434E-13
 -1       167 1.95099E+01 4.47644E+00-3.13213E-02-2.19649E+00-2.50147E-14-2.67611E-13
 -1       168 1.92716E+01 4.61611E+00-2.34695E-02-1.67510E+00 1.19249E-14-2.69122E-13
 -1       169 1.91441E+01 4.69874E+00-1.95098E-02-1.21935E+00 3.22298E-14-2.50172E-13
 -1       170 1.90726E+01 4.75048E+00-1.74149E-02-7.92212E-01 5.26319E-14-2.23285E-13
 -1       171 1.90367E+01 4.77885E+00-1.64018E-02-3.86979E-01 7.60198E-14-1.85012E-13
 -1       172 1.90264E+01 4.78754E+00-1.61093E-02 8.16897E-03 1.10222E-13-1.45439E-13
 -1       173 1.90386E+01 4.77753E+00-1.64425E-02 4.03674E-01 1.34912E-13-1.29212E-13
 -1       174 1.90765E+01 4.74745E+00-1.74971E-02 8.10014E-01 1.38373E-13-1.02747E-13
 -1       175 1.91489E+01 4.69424E+00-1.96664E-02 1.23168E+00 1.41577E-13-4.55807E-14
 -1       176 1.92812E+01 4.60613E+00-2.39872E-02 1.69864E+00 1.75143E-13 3.25417E-14
 -1       177 1.95237E+01 4.45939E+00-3.28253E-02 2.22722E+00 1.69701E-13 1.26508E-13
 -1       178 2.00078E+01 4.18289E+00-4.71783E-02 2.84749E+00 1.63622E-13 2.77802E-13
 -1       179 2.11231E+01 3.46250E+00-5.97685E-02 3.53709E+00 1.25748E-13 4.83190E-13
 -1       180 2.24024E+01 1.14334E+00-3.36329E-01 3.01505E+00 5.47782E-14 7.32817E-13
 -1       181 2.19559E+01 8.58092E-01 6.85947E-04-1.95963E+00-9.89625E-14-1.12133E-14
 -1       182 2.04315E+01 1.90417E-01-9.91108E-03-7.64770E-01-9.20895E-14-4.68688E-14
 -1       183 1.96563E+01 1.01800E-01 1.36309E-02-2.85958E-01-6.40052E-14-6.18602E-14
 -1       184 1.93175E+01 4.74805E-02 1.00431E-02-6.75823E-02-5.32077E-14-1.09010E-13
 -1       185 1.91899E+01 2.31248E-02 5.20956E-03 4.09301E-02-3.24112E-14-1.02848E-13
 -1       186 1.91806E+01 1.04140E-02 2.50146E-03 9.55835E-02-2.63350E-14-7.79426E-14
 -1       187 1.92362E+01 3.47242E-03 1.22891E-03 1.21054E-01-4.31295E-14-1.13022E-13
 -1       188 1.93265E+01-1.54507E-04 6.31619E-04 1.30479E-01-2.31455E-14-1.15896E-13
 -1       189 1.94345E+01-1.67955E-03 3.40107E-04 1.31689E-01-6.07764E-14-9.49053E-14
 -1       190 1.95508E+01-1.78848E-03 2.03879E-04 1.29738E-01-4.53308E-14-9.15324E-14
 -1       191 1.96718E+01-9.18378E-04 1.57833E-04 1.28045E-01-6.96993E-14-2.20648E-13
 -1       192 1.97968E+01 6.14041E-04 1.66053E-04 1.28936E-01-8.34718E-14-3.48024E-13
 -1       193 1.99278E+01 2.53745E-03 2.02084E-04 1.33898E-01-3.58974E-14-3.64417E-13
 -1       194 2.00679E+01 4.56747E-03 2.41514E-04 1.43643E-01-2.81320E-14-3.07952E-13
 -1       195 2.02206E+01 6.35058E-03 2.58446E-04 1.58018E-01-1.87955E-14-2.25265E-13
 -1       196 2.03889E+01 7.40684E-03 2.23835E-04 1.75772E-01 3.34673E-14-3.11789E-13
 -1       197 2.05740E+01 7.07751E-03 1.06042E-04 1.94189E-01-9.49689E-15-3.22207E-13
 -1       198 2.07736E+01 4.49775E-03-1.25058E-04 2.08631E-01-8.72194E-14-3.34326E-13
 -1       199 2.09805E+01-1.36238E-03-4.88640E-04 2.12110E-01-7.73579E-14-2.85947E-13
 -1       200 2.11803E+01-1.15128E-02-9.77218E-04 1.95161E-01 3.19571E-14-3.41514E-13
 -1       201 2.13499E+01-2.65065E-02-1.53643E-03 1.46490E-01 8.12691E-14-2.94265E-13
 -1       202 2.14574E+01-4.56510E-02-2.04963E-03 5.51226E-02 4.10566E-14-2.98464E-13
 -1       203 2.14644E+01-6.59041E-02-2.33992E-03-8.51689E-02 2.59213E-14-1.13955E-13
 -1       204 2.13326E+01-8.09096E-02-2.21757E-03-2.68959E-01 9.95347E-14-7.69684E-14
 -1       205 2.10365E+01-8.12535E-02-1.56084E-03-4.71426E-01-4.09677E-14 7.18856E-14
 -1       206 2.05804E+01-5.73864E-02-4.28479E-04-6.44452E-01 3.90165E-14 9.20577E-14
 -1       207 2.00148E+01-5.78352E-03 9.17896E-04-7.23733E-01 1.29395E-13-1.27866E-14
 -1       208 1.94416E+01 6.40965E-02 2.13602E-03-6.52050E-01 7.51085E-14 3.51724E-14
 -1       209 1.89951E+01 1.28431E-01 2.93039E-03-4.13205E-01-4.80406E-14 1.52473E-13
 -1       210 1.87978E+01 1.59173E-01 3.24752E-03-5.56994E-02-1.83907E-13 1.65511E-13
 -1       211 1.89081E+01 1.41533E-01 3.11296E-03 3.18157E-01-5.98046E-14 1.24899E-13
 -1       212 1.92924E+01 8.41276E-02 2.44972E-03 5.98318E-01-3.90508E-15-2.75444E-14
 -1       213 1.98417E+01 1.30126E-02 1.32536E-03 7.18317E-01-1.87660E-13-7.66913E-14
 -1       214 2.04198E+01-4.54439E-02-3.99599E-05 6.77219E-01-7.19037E-14-1.53063E-13
 -1       215 2.09124E+01-7.73739E-02-1.28704E-03 5.23863E-01-1.19148E-13-2.71548E-13
 -1       216 2.12540E+01-8.30768E-02-2.09314E-03 3.23634E-01-9.79577E-15-3.89664E-13
 -1       217 2.14285E+01-7.11376E-02-2.35008E-03 1.30817E-01 1.66220E-13-5.51378E-13
 -1       218 2.14552E+01-5.14841E-02-2.14748E-03-2.30814E-02 1.56152E-13-1.88263E-13
 -1       219 2.13704E+01-3.14322E-02-1.66361E-03-1.27727E-01-2.17685E-13-1.79890E-13
 -1       220 2.12140E+01-1.48554E-02-1.08211E-03-1.86608E-01-1.01096E-13-1.62680E-13
 -1       221 2.10210E+01-2.95269E-03-5.35444E-04-2.09596E-01 9.98863E-15-1.30898E-13
 -1       222 2.08181E+01 4.63460E-03-9.17671E-05-2.07753E-01 2.39467E-13-8.90069E-14
 -1       223 2.06237E+01 8.94317E-03 2.31618E-04-1.90542E-01 6.57247E-14 1.89631E-13
 -1       224 2.04489E+01 1.11667E-02 4.42893E-04-1.64750E-01 1.33844E-13 2.29070E-13
 -1       225 2.03004E+01 1.24186E-02 5.49093E-04-1.34385E-01 1.36144E-13 1.46937E-13
 -1       226 2.01814E+01 1.36142E-02 5.40656E-04-1.01039E-01 2.82650E-14-2.06579E-13
 -1       227 2.00933E+01 1.52928E-02 4.95542E-04-6.48165E-02 2.14797E-13-2.15339E-13
 -1       228 2.00339E+01 1.64992E-02 3.93818E-04-2.66717E-02 3.19917E-14 2.21225E-14
 -1       229 2.09464E+01 2.77029E-01-5.13249E-02 1.16554E+00 7.51274E-14 6.62039E-13
 -1       230 1.98514E+01 1.26835E-01 8.31181E-03 4.43834E-01 8.21088E-14 5.89697E-13
 -1       231 1.93451E+01 5.81858E-02 1.27519E-02 1.50549E-01 4.38031E-14 5.03343E-13
 -1       232 1.91362E+01 2.79341E-02 7.66466E-03 1.06534E-02 1.69947E-14 4.85414E-13
 -1       233 1.90886E+01 1.34665E-02 3.86801E-03-5.95670E-02 1.31396E-14 4.96876E-13
 -1       234 1.91287E+01 5.78136E-03 1.96808E-03-9.38182E-02-2.96605E-14 4.85167E-13
 -1       235 1.92155E+01 1.60637E-03 1.09126E-03-1.08426E-01 3.39907E-14 4.25666E-13
 -1       236 1.93259E+01-4.74634E-04 6.63368E-04-1.12495E-01 7.21281E-14 3.84385E-13
 -1       237 1.94472E+01-1.16202E-03 4.41584E-04-1.11732E-01 1.09838E-13 2.59112E-13
 -1       238 1.95741E+01-8.33069E-04 3.34197E-04-1.10077E-01 4.58746E-14 2.48553E-13
 -1       239 1.97057E+01 3.12382E-04 3.03690E-04-1.10505E-01-7.18716E-15 2.28884E-13
 -1       240 1.98450E+01 2.19347E-03 3.31423E-04-1.15508E-01 2.13865E-14 2.22726E-13
 -1       241 1.99983E+01 4.82393E-03 4.05929E-04-1.27433E-01 3.01846E-14 2.32899E-13
 -1       242 2.01748E+01 8.30197E-03 5.17647E-04-1.48755E-01 2.16591E-14 1.57911E-13
 -1       243 2.03870E+01 1.28032E-02 6.53785E-04-1.82310E-01 7.04531E-14 2.76662E-13
 -1       244 2.06507E+01 1.85627E-02 7.90327E-04-2.31473E-01-3.64430E-14 2.65991E-13
 -1       245 2.09854E+01 2.58175E-02 8.78732E-04-3.00201E-01 9.78704E-14 1.75553E-13
 -1       246 2.14146E+01 3.46511E-02 8.26359E-04-3.92732E-01-7.53542E-15 9.99401E-14
 -1       247 2.19643E+01 4.46210E-02 4.78354E-04-5.12469E-01-1.24924E-13 1.34547E-13
 -1       248 2.26599E+01 5.39474E-02-3.66587E-04-6.59159E-01-1.35227E-13 2.31776E-13
 -1       249 2.35186E+01 5.79343E-02-1.81601E-03-8.22744E-01 8.46233E-14 1.94595E-13
 -1       250 2.45334E+01 4.63788E-02-3.49011E-03-9.71733E-01 7.03835E-14 2.82984E-13
 -1       251 2.56461E+01 9.03367E-04-3.80173E-03-1.03515E+00-1.10732E-13 1.35152E-13
 -1       252 2.67111E+01-1.02910E-01 2.54248E-04-8.85166E-01-1.24597E-13 1.98002E-13
 -1       253 2.74619E+01-2.73898E-01 1.09669E-02-3.50911E-01-1.02256E-13 3.99294E-13
 -1       254 2.75304E+01-4.48891E-01 2.11911E-02 6.64568E-01 6.01550E-14 5.48723E-13
 -1       255 2.66079E+01-4.31116E-01 9.63016E-03 1.90949E+00 1.67897E-13 5.87759E-13
 -1       256 2.48234E+01-7.68119E-03-4.10988E-02 2.55153E+00-1.44159E-13 2.72487E-13
 -1       257 2.31184E+01 6.33493E-01-9.93014E-02 1.64239E+00-4.57967E-14 2.15890E-13
 -1       258 2.27935E+01 8.48499E-01-1.04969E-01-5.30454E-01 1.91732E-13 1.11713E-13
 -1       259 2.41559E+01 3.71300E-01-5.24204E-02-2.27243E+00 7.38992E-15-2.94244E-14
 -1       260 2.60993E+01-2.28579E-01 6.55194E-03-2.40215E+00-1.80064E-15-2.75877E-13
 -1       261 2.73989E+01-4.62701E-01 2.28526E-02-1.35587E+00 1.62523E-13-2.61452E-13
 -1       262 2.76613E+01-3.76567E-01 1.23365E-02-1.51846E-01-2.16185E-13-2.47910E-13
 -1       263 2.71031E+01-1.96806E-01-1.18646E-03 6.47579E-01 1.80473E-13-2.47475E-13
 -1       264 2.61076E+01-5.57964E-02-6.34148E-03 9.89008E-01 1.52344E-13-3.61185E-13
 -1       265 2.49833E+01 2.08750E-02-5.55507E-03 1.02550E+00 2.63455E-14-1.76138E-13
 -1       266 2.39151E+01 5.08710E-02-2.95285E-03 9.13274E-01-2.27869E-13 1.35423E-13
 -1       267 2.29881E+01 5.57639E-02-7.38143E-04 7.52617E-01-1.99199E-13 4.94804E-13
 -1       268 2.22256E+01 4.99009E-02 5.70480E-04 5.93930E-01-2.42745E-13 6.63342E-13
 -1       269 2.16190E+01 4.08450E-02 1.14862E-03 4.57131E-01 1.60580E-13 2.57660E-13
 -1       270 2.11466E+01 3.20135E-02 1.29148E-03 3.46619E-01 7.88101E-14 2.46225E-13
 -1       271 2.07844E+01 2.47201E-02 1.22523E-03 2.59980E-01 3.22282E-13 5.62003E-14
 -1       272 2.05106E+01 1.93062E-02 1.05907E-03 1.92275E-01 3.63077E-13-4.06253E-13
 -1       273 2.03081E+01 1.57698E-02 7.98266E-04 1.38135E-01 3.14304E-13-3.32298E-13
 -1       274 2.01644E+01 1.42624E-02 4.38965E-04 9.21067E-02-1.91828E-13-4.81489E-13
 -1       275 2.00711E+01 1.46725E-02 3.87147E-04 4.92253E-02 1.01630E-13-5.79072E-13
 -1       276 2.00193E+01 1.16628E-02 9.87322E-04 1.01991E-02-1.67910E-14-4.28494E-13
 -1       277 2.00192E+01 4.07000E-02 4.96644E-04 3.20901E-02-1.40591E-13 6.31488E-13
 -1       278 2.00156E+01 1.04687E-01 1.19647E-04 7.22998E-02-1.20178E-13 5.46234E-13
 -1       279 2.00072E+01 1.91973E-01 1.06472E-05 9.94014E-02-2.28421E-13 4.22230E-15
 -1       280 1.99986E+01 2.89560E-01-9.02738E-05 1.06071E-01-2.13146E-13-2.15682E-13
 -1       281 1.99915E+01 3.80450E-01-2.85470E-04 9.39002E-02-2.98607E-13-6.26400E-13
 -1       282 1.99865E+01 4.53698E-01-4.54290E-04 6.64982E-02-2.64846E-13 1.68661E-13
 -1       283 1.99841E+01 4.96911E-01-5.62954E-04 2.97637E-02-2.97648E-13-3.36280E-14
 -1       284 1.99842E+01 5.04817E-01-5.82453E-04-9.92755E-03-3.35759E-15-5.21518E-15
 -1       285 1.99864E+01 4.77500E-01-5.13819E-04-4.66739E-02 2.27188E-13 3.49845E-13
 -1       286 1.99904E+01 4.19882E-01-3.71908E-04-7.56146E-02-4.15367E-14-2.05200E-13
 -1       287 1.99954E+01 3.42158E-01-1.80264E-04-9.29857E-02-8.05415E-14-2.43947E-13
 -1       288 2.00012E+01 2.52528E-01-5.38511E-06-9.70948E-02-1.15388E-13 2.00093E-13
 -1       289 2.00073E+01 1.64356E-01 1.01180E-04-8.64742E-02-3.62646E-14 3.85078E-13
 -1       290 2.00133E+01 8.98619E-02 3.85046E-04-6.16039E-02-2.82824E-13 2.01910E-13
 -1       291 2.00259E+01 5.01939E-02 4.28898E-04-4.90187E-02-1.52176E-13-2.29141E-13
 -1       292-1.16949E+00-1.14744E+01-1.04062E+00 3.63221E-01 3.05221E-13 3.20743E-13
 -1       293 2.18075E+00-8.99186E+00-7.72368E-01 3.04136E+00 5.96551E-13 3.65027E-13
 -1       294 8.07899E+00-6.32447E+00-6.72264E-01 4.74284E+00 7.11431E-13 7.97196E-13
 -1       295 1.72737E+01-2.55398E+00-2.95486E-01 6.57307E+00 9.13103E-13 8.06799E-13
 -1       296 2.90426E+01 3.44911E-01 1.60230E-01 6.51243E+00 7.73381E-13 6.68410E-13
 -1       297 3.91519E+01 3.79664E+00 6.33038E-01 5.46933E+00 5.98313E-13 6.02851E-13
 -1       298 4.56639E+01 6.21460E+00 9.24307E-01 2.63371E+00 5.49186E-13 3.91853E-13
 -1       299 4.91565E+01 7.06129E+00 1.18212E+00-8.49562E-02 5.58414E-13 1.71836E-13
 -1       300 4.61370E+01 6.01541E+00 1.02620E+00-3.35477E+00 1.37182E-13-2.58127E-13
 -1       301 3.81652E+01 3.73359E+00 6.40558E-01-6.29051E+00 2.78749E-13-3.16192E-13
 -1       302 2.73853E+01-1.57985E+00 3.73815E-02-5.81015E+00 1.36668E-13-1.43635E-13
 -1       303 1.42511E+01-3.69384E+00-4.05518E-01-6.16879E+00 2.64067E-13-3.92575E-13
 -1       304 5.66762E+00-7.49819E+00-7.88345E-01-4.01867E+00 6.60583E-14-5.00138E-13
 -1       305 2.71212E-01-1.05822E+01-1.00196E+00-1.68963E+00-2.32120E-13-3.86677E-13
 -1       306-1.41998E+00-1.16006E+01-1.04116E+00 4.71096E-01-5.36600E-13-1.66867E-13
 -1       307 6.60457E-01-9.59356E+00-8.33757E-01 2.85886E+00-5.11119E-13 1.00711E-13
 -1       308 5.84600E+00-6.55379E+00-6.38648E-01 4.84376E+00-3.59296E-13-2.31520E-13
 -1       309 1.50953E+01-2.76622E+00-2.10012E-01 7.03124E+00-2.37921E-13-3.94809E-13
 -1       310 2.47080E+01 1.16007E+00 1.40051E-01 7.72173E+00-3.02786E-13-5.22887E-13
 -1       311 3.44943E+01 4.37994E+00 5.46731E-01 7.54861E+00-4.62234E-13-4.23273E-13
 -1       312 4.04198E+01 6.04014E+00 5.41463E-01 3.42792E+00-6.40349E-13-9.81160E-14
 -1       313 4.60636E+01 6.92828E+00 9.19393E-01 1.16304E+00-2.05391E-13-7.25600E-14
 -1       314 4.60660E+01 6.54992E+00 9.82972E-01-2.76797E+00-2.30913E-13 1.61815E-13
 -1       315 4.01461E+01 5.57149E+00 7.19459E-01-5.61566E+00-4.24501E-13 1.12910E-13
 -1       316 3.17430E+01 3.73300E+00 4.50251E-01-7.91049E+00-8.22065E-13 1.26621E-13
 -1       317 2.17476E+01 2.95420E-01 3.24582E-02-7.71759E+00-5.72181E-13 6.52534E-13
 -1       318 1.24304E+01-3.02670E+00-3.45275E-01-6.54674E+00-2.32592E-13 9.74665E-13
 -1       319 5.17167E+00-6.60649E+00-7.64313E-01-4.20194E+00-1.04639E-13 5.45695E-13
 -1       320 1.43623E+00-9.34898E+00-8.84228E-01-3.09810E+00 7.96030E-14 2.60347E-13
 -1       321-8.04312E-01-1.18303E+01-1.10861E+00-1.35967E+00 2.35909E-13 4.46698E-13
 -1       322 2.01339E+01 3.00101E+00-2.19713E-02-2.09711E+00-5.96458E-14-1.69564E-13
 -1       323 2.07481E+01 2.20803E+00-1.76643E-02-2.36455E+00-9.91486E-14-1.50166E-13
 -1       324 1.95892E+01 3.69382E+00-1.55968E-02-1.31655E+00 1.90461E-14-2.07216E-13
 -1       325 1.94686E+01 3.85183E+00-1.37082E-02-9.23047E-01 4.31643E-14-1.87530E-13
 -1       326 1.94013E+01 3.94352E+00-1.27154E-02-5.43455E-01 8.30248E-14-1.39176E-13
 -1       327 1.93716E+01 3.98526E+00-1.22918E-02-1.73189E-01 1.18563E-13-1.09903E-13
 -1       328 1.93730E+01 3.98359E+00-1.23085E-02 1.94073E-01 1.61857E-13-9.15557E-14
 -1       329 1.94057E+01 3.93818E+00-1.27554E-02 5.64754E-01 1.61675E-13-8.41029E-14
 -1       330 1.94750E+01 3.84404E+00-1.37665E-02 9.38581E-01 1.71912E-13-5.46728E-14
 -1       331 1.95993E+01 3.68071E+00-1.56576E-02 1.33271E+00 1.85538E-13 2.77148E-14
 -1       332 1.98111E+01 3.41087E+00-1.88427E-02 1.73836E+00 1.96064E-13 8.96045E-14
 -1       333 2.01767E+01 2.95531E+00-2.29114E-02 2.12723E+00 1.90488E-13 1.98914E-13
 -1       334 2.07402E+01 2.12921E+00-3.04414E-02 2.32266E+00 1.62513E-13 3.39635E-13
 -1       335 2.10826E+01 1.18761E+00-2.49136E-02 1.92260E+00 1.31456E-13 4.55490E-13
 -1       336 2.03793E+01 4.89412E-01 8.34960E-03 9.27820E-01 1.07530E-13 3.94204E-13
 -1       337 2.04494E+01 6.75565E-01 1.25996E-02-1.02476E+00-6.44844E-14-1.10528E-13
 -1       338 2.00286E+01 3.38273E-01 7.20161E-03-4.56672E-01-7.03901E-14-7.60300E-14
 -1       339 1.97767E+01 1.78597E-01 4.13087E-03-1.45731E-01-4.30937E-14-6.44046E-14
 -1       340 1.96450E+01 9.37501E-02 1.91947E-03 2.86783E-02-7.58492E-15-9.87347E-14
 -1       341 1.95953E+01 4.62981E-02 8.44715E-04 1.24686E-01-2.19569E-14-8.82402E-14
 -1       342 1.95986E+01 1.95591E-02 3.57660E-04 1.74915E-01-2.53610E-14-5.16758E-14
 -1       343 1.96351E+01 5.43792E-03 1.34752E-04 1.98902E-01-3.41494E-14-7.74966E-14
 -1       344 1.96924E+01-4.55111E-04 4.08596E-05 2.09111E-01-7.62507E-14-1.34688E-13
 -1       345 1.97629E+01-7.63094E-04 2.09888E-05 2.13877E-01-1.31730E-13-1.69052E-13
 -1       346 1.98431E+01 2.73908E-03 4.75565E-05 2.18891E-01-1.26668E-13-1.66159E-13
 -1       347 1.99315E+01 8.69024E-03 1.01720E-04 2.27962E-01-5.40792E-14-1.52949E-13
 -1       348 2.00288E+01 1.58500E-02 1.66648E-04 2.43354E-01-2.34347E-14-1.21038E-13
 -1       349 2.01364E+01 2.28613E-02 2.24180E-04 2.65846E-01 6.36187E-15-1.58436E-13
 -1       350 2.02563E+01 2.80285E-02 2.52475E-04 2.94523E-01-3.71474E-14-1.63523E-13
 -1       351 2.03901E+01 2.91136E-02 2.24504E-04 3.26364E-01 6.77288E-16-1.57047E-13
 -1       352 2.05382E+01 2.31973E-02 1.08196E-04 3.55652E-01-5.32566E-14-2.24666E-13
 -1       353 2.06993E+01 6.71536E-03-1.30153E-04 3.73329E-01-1.17916E-14-1.59427E-13
 -1       354 2.08690E+01-2.41212E-02-5.16830E-04 3.66570E-01 9.72601E-15-6.49021E-15
 -1       355 2.10386E+01-7.22062E-02-1.05397E-03 3.19092E-01 5.61178E-14-6.48686E-15
 -1       356 2.11943E+01-1.37348E-01-1.69359E-03 2.13023E-01 3.01450E-14-4.49515E-14
 -1       357 2.13157E+01-2.12856E-01-2.31289E-03 3.34828E-02 1.13349E-13-4.83043E-14
 -1       358 2.13760E+01-2.81569E-01-2.69227E-03-2.23062E-01 1.23941E-13-7.36444E-14
 -1       359 2.13448E+01-3.14018E-01-2.57112E-03-5.36906E-01 1.55783E-13-5.81103E-14
 -1       360 2.11962E+01-2.73445E-01-1.72914E-03-8.53638E-01 2.78510E-14 1.24770E-13
 -1       361 2.09251E+01-1.32198E-01-2.14201E-04-1.08228E+00 1.83566E-15 5.20715E-14
 -1       362 2.05665E+01 1.02100E-01 1.63190E-03-1.11569E+00 1.07849E-13 2.55871E-14
 -1       363 2.02068E+01 3.66637E-01 3.35817E-03-8.79593E-01 4.28570E-14-7.66359E-14
 -1       364 1.99632E+01 5.56766E-01 4.36464E-03-3.91061E-01-6.20656E-14-9.87858E-14
 -1       365 1.99295E+01 5.83038E-01 4.58317E-03 2.19092E-01-2.24402E-13-3.86482E-14
 -1       366 2.01189E+01 4.32684E-01 3.87068E-03 7.59361E-01-1.87966E-13-1.07086E-13
 -1       367 2.04563E+01 1.78194E-01 2.32358E-03 1.07373E+00-1.37317E-13-9.11464E-14
 -1       368 2.08247E+01-7.33753E-02 3.70185E-04 1.11246E+00-1.98924E-13-2.72800E-13
 -1       369 2.11254E+01-2.44374E-01-1.40732E-03 9.28656E-01-1.51332E-13-2.71626E-13
 -1       370 2.13085E+01-3.11916E-01-2.47160E-03 6.25998E-01-1.01628E-13-1.49540E-13
 -1       371 2.13698E+01-2.96274E-01-2.74566E-03 3.03844E-01-4.31674E-14-1.19323E-13
 -1       372 2.13314E+01-2.34034E-01-2.45837E-03 2.77797E-02 3.31120E-13-1.04009E-13
 -1       373 2.12238E+01-1.57638E-01-1.86962E-03-1.73445E-01 1.45506E-13-2.56767E-13
 -1       374 2.10757E+01-8.75992E-02-1.20658E-03-2.97747E-01 2.16407E-16 1.95760E-13
 -1       375 2.09097E+01-3.30635E-02-6.13884E-04-3.57346E-01-5.70715E-14 3.88655E-13
 -1       376 2.07422E+01 4.50726E-03-1.55576E-04-3.69272E-01-1.44154E-14 3.34431E-13
 -1       377 2.05841E+01 2.76829E-02 1.62876E-04-3.49730E-01 3.05302E-13 2.86586E-13
 -1       378 2.04418E+01 4.05332E-02 3.65949E-04-3.11501E-01 1.58257E-13 4.07201E-13
 -1       379 2.03186E+01 4.72051E-02 4.84381E-04-2.63271E-01 3.57704E-14 2.04031E-13
 -1       380 2.02156E+01 5.12297E-02 5.46776E-04-2.10026E-01-2.37475E-13 2.71797E-13
 -1       381 2.01326E+01 5.50115E-02 6.61875E-04-1.53980E-01 8.96475E-14 2.05544E-13
 -1       382 2.00737E+01 5.44035E-02 5.24970E-04-1.00411E-01-1.15535E-14-4.82101E-14
 -1       383 1.98783E+01 2.29202E-01 1.08385E-02 3.98844E-01 8.87099E-14 3.71162E-13
 -1       384 1.95914E+01 1.16250E-01 6.21584E-03 1.18883E-01 2.15980E-14 3.15926E-13
 -1       385 1.94596E+01 5.91882E-02 2.84378E-03-3.19722E-02 1.00001E-14 3.09950E-13
 -1       386 1.94248E+01 2.82397E-02 1.23367E-03-1.12127E-01 1.04805E-14 2.60719E-13
 -1       387 1.94486E+01 1.10991E-02 5.39840E-04-1.52350E-01 7.80501E-14 1.87788E-13
 -1       388 1.95070E+01 2.18854E-03 2.33804E-04-1.70224E-01 1.06037E-13 1.71915E-13
 -1       389 1.95859E+01-1.30077E-03 1.06757E-04-1.76792E-01 1.63288E-13 1.60181E-13
 -1       390 1.96775E+01-8.95256E-04 8.42976E-05-1.79591E-01 4.26156E-14 1.63477E-13
 -1       391 1.97789E+01 2.57606E-03 1.38070E-04-1.84211E-01 3.70126E-14 1.59907E-13
 -1       392 1.98906E+01 8.73353E-03 2.56506E-04-1.95190E-01 2.61828E-14 6.62809E-14
 -1       393 2.00159E+01 1.75349E-02 4.36278E-04-2.16625E-01 8.14523E-14 9.43223E-14
 -1       394 2.01608E+01 2.92186E-02 6.79165E-04-2.52623E-01 4.98190E-14 1.17331E-13
 -1       395 2.03334E+01 4.42581E-02 9.89026E-04-3.07662E-01-3.47779E-14 1.44605E-13
 -1       396 2.05441E+01 6.32746E-02 1.36607E-03-3.86822E-01 2.45763E-14 2.05733E-13
 -1       397 2.08053E+01 8.68191E-02 1.79506E-03-4.95786E-01 1.54021E-13 1.03928E-13
 -1       398 2.11312E+01 1.14845E-01 2.22267E-03-6.40318E-01 5.40028E-14 8.78894E-14
 -1       399 2.15373E+01 1.45533E-01 2.51991E-03-8.24612E-01-1.72173E-13 2.12697E-14
 -1       400 2.20382E+01 1.72906E-01 2.43761E-03-1.04744E+00-1.05616E-13 5.07711E-14
 -1       401 2.26462E+01 1.82443E-01 1.58662E-03-1.29428E+00-5.35562E-14-3.45663E-14
 -1       402 2.33670E+01 1.44418E-01-4.43923E-04-1.52313E+00 1.05829E-13 1.12909E-13
 -1       403 2.41959E+01 7.71438E-03-3.75206E-03-1.64322E+00-7.84453E-14 1.19525E-13
 -1       404 2.51115E+01-2.92901E-01-7.30557E-03-1.49346E+00-1.79905E-13 7.67294E-14
 -1       405 2.60573E+01-7.83392E-01-9.46982E-03-8.50983E-01-1.53025E-13 1.89970E-13
 -1       406 2.68896E+01-1.30242E+00-9.39008E-03 4.51586E-01-5.41190E-14 3.01021E-13
 -1       407 2.72888E+01-1.32935E+00-2.36267E-02 2.19921E+00 1.78784E-13 5.05327E-13
 -1       408 2.69136E+01-2.19987E-01-5.85716E-02 3.36681E+00 1.21477E-13 4.91148E-13
 -1       409 2.59704E+01 1.73689E+00-1.04526E-01 2.47408E+00-2.15800E-14 2.97739E-13
 -1       410 2.56203E+01 2.55807E+00-9.92024E-02-4.49916E-01 2.34278E-13 4.78229E-14
 -1       411 2.63167E+01 1.24099E+00-8.05927E-02-2.98058E+00 2.74933E-13-2.36294E-13
 -1       412 2.72061E+01-6.37265E-01-3.42651E-02-3.19102E+00 5.07190E-14-3.59604E-13
 -1       413 2.73072E+01-1.41576E+00-1.69146E-02-1.69562E+00 7.50320E-14-3.03537E-13
 -1       414 2.66967E+01-1.18766E+00-1.26153E-02-2.42620E-03-1.74269E-13-1.12571E-13
 -1       415 2.57706E+01-6.38794E-01-1.29060E-02 1.10909E+00 6.88369E-14-1.49266E-13
 -1       416 2.48030E+01-1.92761E-01-8.39866E-03 1.58393E+00 1.86132E-13 1.35914E-13
 -1       417 2.39014E+01 5.86573E-02-3.31352E-03 1.63260E+00-4.73789E-14 1.71628E-13
 -1       418 2.31033E+01 1.62525E-01 3.37005E-04 1.46664E+00-2.90820E-13 2.78712E-13
 -1       419 2.24194E+01 1.83868E-01 2.18521E-03 1.22491E+00-4.49955E-13 3.61152E-13
 -1       420 2.18491E+01 1.67985E-01 2.77211E-03 9.80611E-01-2.11639E-13 1.83324E-13
 -1       421 2.13841E+01 1.39795E-01 2.68538E-03 7.65202E-01 2.37558E-13 1.88597E-13
 -1       422 2.10119E+01 1.11115E-01 2.32331E-03 5.87503E-01 2.40832E-13 1.56174E-13
 -1       423 2.07185E+01 8.67534E-02 1.91053E-03 4.45617E-01 3.82587E-13 3.38585E-14
 -1       424 2.04907E+01 6.82725E-02 1.54886E-03 3.33215E-01 5.17642E-13 1.07387E-13
 -1       425 2.03173E+01 5.54519E-02 1.20036E-03 2.42786E-01 3.61497E-13 7.58319E-14
 -1       426 2.01883E+01 4.85318E-02 9.18364E-04 1.67206E-01 4.92687E-14 4.18590E-14
 -1       427 2.00957E+01 4.56055E-02 7.16229E-04 1.00423E-01 8.82427E-15 6.87623E-14
 -1       428 2.00524E+01 4.60336E-02 4.30592E-04 6.52018E-02-1.97380E-13 3.35922E-13
 -1       429 2.00084E+01 2.54756E-01 8.00159E-05 1.85808E-01-2.76028E-13 4.17929E-14
 -1       430 2.00408E+01 1.66971E-01 5.36378E-04 1.63855E-01-3.13942E-13 1.73460E-13
 -1       431 2.00532E+01 1.01266E-01 6.06364E-04 1.18285E-01-2.06607E-13 5.75802E-13
 -1       432 1.99790E+01 3.36405E-01-1.62944E-04 1.76518E-01-2.38699E-13-6.87039E-13
 -1       433 1.99552E+01 4.05018E-01-3.81320E-04 1.39066E-01-1.52921E-13 4.07875E-14
 -1       434 1.99407E+01 4.50286E-01-5.30287E-04 8.16180E-02 1.81491E-13 9.53875E-14
 -1       435 1.99362E+01 4.67318E-01-5.88700E-04 1.44270E-02-9.31723E-14 4.16413E-14
 -1       436 1.99411E+01 4.55180E-01-5.56113E-04-5.22071E-02 1.47959E-13 3.24222E-13
 -1       437 1.99536E+01 4.16667E-01-4.43283E-04-1.09250E-01 1.23399E-13-1.21502E-13
 -1       438 1.99713E+01 3.58696E-01-2.68380E-04-1.49266E-01 1.70489E-13-3.27410E-13
 -1       439 1.99927E+01 2.86621E-01-6.91441E-05-1.69151E-01 1.87543E-13 1.15074E-13
 -1       440 2.00156E+01 2.09514E-01 1.52756E-04-1.65900E-01 1.43854E-13 8.83822E-14
 -1       441 2.00377E+01 1.34646E-01 4.10248E-04-1.40312E-01-7.90064E-14 7.76656E-14
 -1       442 9.86556E+00-5.85830E+00-5.57255E-02 6.36842E+00 1.75235E-13 4.83814E-13
 -1       443 4.36060E-01-5.51572E+00-1.97611E-01-9.63550E-01 7.44630E-14 4.32876E-13
 -1       444 3.08477E+00-4.47116E+00-2.00701E-02 3.31847E+00-6.50174E-15 3.75394E-13
 -1       445 1.84011E+01-6.15161E+00-3.76440E-02 6.44822E+00 1.29646E-13 3.50851E-13
 -1       446 1.81309E+00-5.67921E+00-1.98207E-01-3.56273E+00 3.04062E-13 2.15286E-13
 -1       447 1.97928E+01 3.43423E+00-1.87044E-02-1.71950E+00-1.24752E-14-2.10137E-13
 -1       448 3.63345E+01 3.62256E+00 3.49337E-02-9.96563E-01 4.08146E-13-7.61613E-14
 -1       449 3.66064E+01 7.27135E+00 1.53253E-02-7.86137E-01 5.11896E-13 1.15394E-13
 -1       450 3.80564E+01 7.21826E+00 1.25874E-01 6.55473E-01 3.29153E-13 3.43725E-13
 -1       451 3.69841E+01 3.42900E+00 1.09399E-01 3.11905E-01 1.09870E-13 1.86212E-13
 -1       452 3.29034E+01-1.20047E+00 2.47640E-03-1.12017E+00 1.21472E-13 2.23710E-14
 -1       453 2.36997E+01-5.54540E+00-3.36309E-02-5.22156E+00-1.54182E-13 7.95891E-14
 -1       454 1.51115E+01-6.19419E+00-7.21983E-02-6.68338E+00-1.14797E-13-1.96924E-13
 -1       455 7.08287E+00-5.37500E+00-4.27373E-02-5.70041E+00-1.80383E-13-5.81479E-13
 -1       456 1.69965E+00-4.60980E+00-5.39673E-02-1.90477E+00-2.01311E-13-3.05422E-13
 -1       457 1.88571E+00-4.13782E+00-7.29564E-03 2.75764E+00-1.64778E-13-4.80171E-15
 -1       458 7.67771E+00-4.70315E+00 3.71926E-02 6.75186E+00-2.56406E-13 9.32587E-14
 -1       459 1.44860E+01-5.46249E+00-3.61709E-02 7.49453E+00-1.53960E-13-2.33729E-13
 -1       460 2.40101E+01-4.24268E+00 1.14905E-02 5.73708E+00-1.70336E-13-5.63147E-13
 -1       461 3.01989E+01-7.34110E-01 1.89744E-02 3.10469E+00-3.77146E-13-2.91933E-13
 -1       462 3.32393E+01 3.01453E+00-1.92857E-02 7.03811E-01-5.45959E-13-1.16060E-13
 -1       463 3.56606E+01 7.48085E+00 3.18741E-02 6.23571E-02-4.54303E-13-1.58186E-13
 -1       464 3.50952E+01 8.33661E+00 2.46132E-03 8.72115E-02-2.47552E-13 6.07344E-14
 -1       465 3.52693E+01 6.64757E+00 3.72285E-02 1.02032E-01-2.60625E-13 9.89625E-14
 -1       466 3.30963E+01 2.21277E+00 3.01559E-02-1.71319E+00-3.76560E-13-1.60594E-13
 -1       467 2.87172E+01-1.97500E+00 1.42618E-02-3.78109E+00-1.93096E-13-5.33990E-13
 -1       468 2.08538E+01-4.29836E+00-3.19151E-02-6.70215E+00 3.41227E-13 2.63817E-13
 -1       469 1.31048E+01-5.51203E+00-7.76852E-02-7.37320E+00 6.10428E-13 6.66708E-13
 -1       470 7.79349E+00-5.37343E+00-4.76959E-02-6.70176E+00 5.26704E-13 3.18287E-13
 -1       471 2.63557E+01-4.79424E+00-4.77378E-02 4.41108E+00 3.37855E-13 2.86188E-13
 -1       472 3.34651E+01-7.95584E-01 2.62197E-02 1.05932E+00 5.08043E-13 1.17767E-13
 -1       473 3.15871E+01 5.01841E+00-1.13427E-01-1.19980E+00-7.00745E-13-1.89640E-14
 -1       474 2.92411E+01-4.62004E+00-3.04150E-02-1.85427E+00-4.03705E-14 7.76740E-14
 -1       475 2.03670E+01 8.32527E-01 3.91442E-03 9.70935E-01 1.19342E-13 2.41571E-13
 -1       476 1.97418E+01 3.11009E+00-5.40328E-03-6.32544E-01 5.29351E-14-1.33674E-13
 -1       477 1.98363E+01 2.93494E+00-6.02742E-03-9.49114E-01 3.17561E-14-1.70604E-13
 -1       478 1.96757E+01 3.23375E+00-5.02512E-03 8.60730E-03 1.35006E-13-7.61514E-14
 -1       479 1.96940E+01 3.20033E+00-5.10194E-03 3.29423E-01 1.38975E-13-9.88751E-14
 -1       480 1.97468E+01 3.10257E+00-5.41348E-03 6.44278E-01 1.46328E-13-6.78303E-14
 -1       481 1.98436E+01 2.92339E+00-5.96307E-03 9.59663E-01 1.79637E-13-1.48766E-14
 -1       482 1.99961E+01 2.63691E+00-6.53270E-03 1.25510E+00 1.65174E-13 6.09905E-14
 -1       483 2.02350E+01 2.18882E+00-5.43087E-03 1.50069E+00 1.64107E-13 1.30540E-13
 -1       484 4.23854E+00-1.95557E+00 1.67985E-01-2.56715E+00 3.51514E-13 1.30854E-13
 -1       485 2.01067E+01 4.56842E-01 5.21030E-03 4.62226E-01 7.38138E-14 2.01457E-13
 -1       486 2.03377E+01 9.75027E-01 2.73554E-03-9.36502E-01-3.84303E-14-1.35489E-13
 -1       487 3.25668E+01 5.68854E-02-8.42984E-02-2.39468E+00 4.55871E-13 1.27676E-15
 -1       488 2.01691E+01 5.50921E-01 2.35577E-03-4.64159E-01-5.47626E-14-1.03503E-13
 -1       489 2.00255E+01 3.09598E-01 9.91931E-04-1.58916E-01-3.63104E-14-8.99220E-14
 -1       490 1.99287E+01 1.70689E-01 4.55278E-04 2.80227E-02-1.57760E-14-7.13373E-14
 -1       491 1.98754E+01 8.85834E-02 1.83729E-04 1.38624E-01-2.51430E-14-9.18605E-14
 -1       492 1.98559E+01 4.12671E-02 6.40326E-05 2.01267E-01-3.55262E-14-1.13279E-13
 -1       493 1.98607E+01 1.65495E-02 1.18999E-05 2.35355E-01-1.06580E-13-1.23542E-13
 -1       494 1.98828E+01 7.13063E-03-3.93218E-06 2.54370E-01-1.24890E-13-1.56338E-13
 -1       495 1.99174E+01 8.25035E-03 2.98930E-06 2.67776E-01-1.14332E-13-1.06958E-13
 -1       496 1.99620E+01 1.64791E-02 2.45996E-05 2.82172E-01-7.02996E-14 3.08487E-15
 -1       497 2.00155E+01 2.89918E-02 5.41397E-05 3.01940E-01-1.25883E-14 3.44330E-15
 -1       498 2.00781E+01 4.30375E-02 8.45877E-05 3.29532E-01-3.29792E-14-8.01403E-15
 -1       499 2.01509E+01 5.54778E-02 1.07611E-04 3.65446E-01-1.93077E-14-3.88977E-14
 -1       500 2.02359E+01 6.23615E-02 1.12702E-04 4.07939E-01-1.72619E-14 5.51790E-14
 -1       501 2.03354E+01 5.85726E-02 8.65753E-05 4.52489E-01-1.14286E-13-1.66574E-14
 -1       502 2.04525E+01 3.76863E-02 1.34863E-05 4.91082E-01-1.17246E-15-7.03663E-14
 -1       503 2.05900E+01-7.69125E-03-1.22836E-04 5.11484E-01 9.77152E-15-1.23918E-13
 -1       504 2.07505E+01-8.46288E-02-3.33727E-04 4.96796E-01 4.13148E-14-1.54719E-13
 -1       505 2.09346E+01-1.96956E-01-6.15878E-04 4.25942E-01 3.97934E-14-2.08681E-13
 -1       506 2.11383E+01-3.40057E-01-9.30355E-04 2.76131E-01 9.62093E-14-1.43252E-13
 -1       507 2.13486E+01-4.93351E-01-1.19654E-03 2.89134E-02 9.52132E-14-7.68015E-14
 -1       508 2.15378E+01-6.12482E-01-1.24089E-03-3.18120E-01 1.33769E-13-9.16870E-14
 -1       509 2.16614E+01-6.28668E-01-9.49840E-04-7.33395E-01 1.16329E-13-1.13544E-13
 -1       510 2.16665E+01-4.66165E-01-2.67970E-04-1.13334E+00-1.33975E-13-2.68150E-13
 -1       511 2.15187E+01-8.58429E-02 4.50538E-04-1.37976E+00 7.83993E-14-2.38183E-13
 -1       512 2.12458E+01 4.52924E-01 9.44625E-04-1.31778E+00-5.32395E-14-1.68330E-13
 -1       513 2.09593E+01 9.67028E-01 1.55105E-03-8.67995E-01-3.68268E-14-1.98109E-13
 -1       514 2.08148E+01 1.21591E+00 1.71670E-03-1.18511E-01-8.00670E-14 3.50344E-14
 -1       515 2.08972E+01 1.07307E+00 1.65959E-03 6.72161E-01-1.94734E-13 5.91125E-14
 -1       516 2.11577E+01 6.11398E-01 1.72919E-03 1.22467E+00-2.00308E-13-5.44988E-14
 -1       517 2.14479E+01 5.76721E-02 1.06121E-03 1.39480E+00-2.03518E-13-1.26562E-13
 -1       518 2.16376E+01-3.80054E-01-2.45220E-04 1.22212E+00-1.07969E-13 5.75018E-14
 -1       519 2.16743E+01-6.04509E-01-1.08783E-03 8.49357E-01-5.28391E-14 2.91815E-14
 -1       520 2.15787E+01-6.31550E-01-1.32904E-03 4.26883E-01-9.82917E-14 2.52055E-13
 -1       521 2.14026E+01-5.33143E-01-1.27019E-03 5.54333E-02 4.52926E-14 1.11886E-13
 -1       522 2.11948E+01-3.82981E-01-1.02140E-03-2.20313E-01 1.54236E-13-3.83748E-14
 -1       523 2.09879E+01-2.32443E-01-7.00791E-04-3.94814E-01 2.40904E-13 3.48214E-15
 -1       524 2.07988E+01-1.07954E-01-3.95410E-04-4.82893E-01 6.10180E-14 7.18427E-14
 -1       525 2.06338E+01-1.75636E-02-1.52927E-04-5.06324E-01 1.03256E-13 3.62776E-13
 -1       526 2.04935E+01 4.12022E-02 1.73049E-05-4.86281E-01 1.91810E-14 2.97560E-13
 -1       527 2.03762E+01 7.54436E-02 1.27805E-04-4.39972E-01 2.89713E-13 1.02991E-13
 -1       528 2.02789E+01 9.33211E-02 1.97242E-04-3.79698E-01 2.09678E-14 2.77827E-13
 -1       529 2.01987E+01 1.02112E-01 2.34410E-04-3.13254E-01 3.48018E-14 3.23129E-13
 -1       530 2.01329E+01 1.07390E-01 2.88623E-04-2.44637E-01-3.74216E-13 4.19932E-13
 -1       531 1.98118E+01 1.34642E-01 1.01253E-03-2.87506E-02 3.57683E-14 1.01732E-13
 -1       532 1.97600E+01 6.82990E-02 4.07226E-04-1.33815E-01 7.93789E-14 9.16120E-14
 -1       533 1.97501E+01 3.06780E-02 1.51004E-04-1.91592E-01 1.03267E-13 1.35126E-13
 -1       534 1.97691E+01 1.14961E-02 4.30655E-05-2.21992E-01 1.43899E-13 1.01597E-13
 -1       535 1.98076E+01 5.06919E-03 1.16400E-05-2.38689E-01 7.16179E-14 2.02210E-13
 -1       536 1.98604E+01 8.15574E-03 3.05813E-05-2.51572E-01 9.06264E-14 1.64099E-13
 -1       537 1.99245E+01 1.89827E-02 8.96888E-05-2.68264E-01 6.95012E-14 1.24283E-13
 -1       538 1.99997E+01 3.67821E-02 1.85196E-04-2.95102E-01 1.24447E-14 1.47053E-13
 -1       539 2.00869E+01 6.15504E-02 3.17237E-04-3.37848E-01 2.09675E-14 1.17821E-13
 -1       540 2.01887E+01 9.38870E-02 4.88658E-04-4.02199E-01 3.09493E-14 8.94306E-14
 -1       541 2.03081E+01 1.34804E-01 7.03111E-04-4.94138E-01-2.36701E-14 1.19425E-14
 -1       542 2.04488E+01 1.85355E-01 9.60873E-04-6.20065E-01 1.07757E-13-4.74220E-14
 -1       543 2.06143E+01 2.45814E-01 1.25022E-03-7.86520E-01 1.05695E-13 8.05228E-14
 -1       544 2.08079E+01 3.13929E-01 1.53052E-03-9.99168E-01-7.32765E-14 1.00608E-13
 -1       545 2.10335E+01 3.81425E-01 1.70491E-03-1.26042E+00-2.17788E-13 8.27156E-14
 -1       546 2.12976E+01 4.27573E-01 1.59613E-03-1.56470E+00-2.45203E-15 1.65953E-13
 -1       547 2.16164E+01 4.08702E-01 9.35241E-04-1.89002E+00-3.18490E-14 1.39419E-13
 -1       548 2.20306E+01 2.44900E-01-4.88302E-04-2.18380E+00-4.22360E-14 1.49462E-13
 -1       549 2.26289E+01-1.85463E-01-2.63328E-03-2.34132E+00-1.01242E-13 1.06214E-13
 -1       550 2.35703E+01-1.00693E+00-3.59067E-03-2.17732E+00-1.65239E-13 1.89694E-14
 -1       551 2.50472E+01-2.18124E+00-3.22554E-03-1.40549E+00-1.96290E-13 9.29313E-14
 -1       552 2.70389E+01-3.12526E+00-1.26788E-02 2.19805E-01 1.72128E-14 2.19667E-13
 -1       553 2.90106E+01-2.27489E+00-5.77660E-02 2.46981E+00 1.19096E-13 2.50456E-13
 -1       554 3.01190E+01 1.41162E+00-1.34630E-01 3.54971E+00 1.78788E-13 2.15092E-13
 -1       555 2.87783E+01 4.44153E+00-1.63167E-01 1.32782E+00 3.52149E-13 6.54476E-14
 -1       556 2.91314E+01 3.91824E+00-1.50042E-01-2.28396E+00 4.72872E-13-1.89120E-13
 -1       557 2.95849E+01 7.28292E-02-1.36589E-01-3.58440E+00 2.17631E-13-1.91076E-13
 -1       558 2.84578E+01-2.67360E+00-4.22907E-02-1.96793E+00 5.14207E-14-3.57417E-13
 -1       559 2.64807E+01-2.83737E+00-1.25202E-02 2.18629E-01-1.13853E-13-2.63959E-13
 -1       560 2.46828E+01-1.74602E+00-8.36687E-03 1.61905E+00-1.95068E-13-1.72500E-13
 -1       561 2.34058E+01-6.96075E-01-6.15644E-03 2.20938E+00-9.02098E-14-9.65829E-15
 -1       562 2.25740E+01-2.47368E-02-2.91392E-03 2.27378E+00-9.53079E-14 3.36966E-13
 -1       563 2.20179E+01 2.99149E-01 2.93650E-05 2.07240E+00-2.61808E-13 5.63036E-13
 -1       564 2.16099E+01 4.05445E-01 1.56299E-03 1.76762E+00-3.55527E-13 2.70276E-13
 -1       565 2.12847E+01 4.00443E-01 2.08111E-03 1.44744E+00-1.37587E-13 7.12569E-14
 -1       566 2.10138E+01 3.49311E-01 2.05948E-03 1.15451E+00-1.23025E-13 1.90097E-13
 -1       567 2.07853E+01 2.86566E-01 1.79515E-03 9.04723E-01 8.00867E-14 3.20007E-13
 -1       568 2.05938E+01 2.28138E-01 1.46202E-03 6.99722E-01 4.29048E-13 3.25610E-13
 -1       569 2.04360E+01 1.80220E-01 1.21369E-03 5.34702E-01 3.45292E-13 1.92906E-13
 -1       570 2.03081E+01 1.45419E-01 1.22789E-03 4.02744E-01 4.21340E-13 1.81310E-13
 -1       571 2.02065E+01 1.21368E-01 1.00613E-03 2.93802E-01-4.73905E-15 5.58773E-13
 -1       572 2.01232E+01 1.07337E-01 6.28790E-04 2.00787E-01-1.14876E-13 5.82776E-13
 -1       573 1.99248E+01 3.90409E-01-1.26391E-04 2.19086E-01 1.80846E-13-2.89117E-13
 -1       574 1.98855E+01 4.42411E-01-2.19306E-04 1.49001E-01 1.97017E-13 5.55163E-13
 -1       575 2.00429E+01 2.28980E-01 8.09058E-05 2.59582E-01-1.66675E-13-4.65989E-14
 -1       576 1.99800E+01 3.16150E-01 1.52325E-04 2.57416E-01-3.59197E-13-1.50905E-13
 -1       577 1.98666E+01 4.66994E-01-2.57832E-04 6.05312E-02 2.66674E-13-3.93033E-13
 -1       578 1.98680E+01 4.63038E-01-2.60684E-04-3.25085E-02 1.90123E-13 3.34584E-13
 -1       579 1.98873E+01 4.33012E-01-2.26901E-04-1.17309E-01 1.10613E-13 2.15177E-13
 -1       580 1.99194E+01 3.83080E-01-1.59124E-04-1.82733E-01 2.47735E-13-2.19027E-13
 -1       581 1.99608E+01 3.17808E-01-8.90379E-05-2.24239E-01 2.25607E-13-2.87180E-13
 -1       582 2.00060E+01 2.44731E-01-2.00117E-05-2.37185E-01 1.32276E-13 6.61438E-14
 -1       583 2.00514E+01 1.70396E-01 1.17010E-04-2.20444E-01-1.84279E-13-3.68783E-14
 -1       584 4.69956E+00-1.47920E+00 1.71208E-01 1.55151E+00 1.17382E-13 1.30063E-13
 -1       585 1.66788E+01-5.21942E+00 8.64340E-02 6.45361E+00-3.28612E-13 1.77323E-13
 -1       586 1.99227E+01 2.49629E-01 2.40933E-03 1.53919E-01 4.69902E-14 1.57024E-13
 -1       587 7.80951E+00-3.07526E+00 1.35864E-01-5.99172E+00 5.46237E-13 5.65381E-14
 -1       588 2.03871E+01 1.75618E+00-5.22028E-03-1.52138E+00-5.54752E-14-1.48596E-13
 -1       589 1.94531E+01-5.40687E+00 4.94881E-02-6.82909E+00 7.62959E-13 3.70503E-13
 -1       590 9.23195E+00-3.23544E+00 1.43721E-01 5.54150E+00-2.55594E-13 8.39884E-14
 -1       591 2.75694E+01-3.73616E+00-1.71996E-02 2.41643E+00-2.70964E-14-8.76590E-14
 -1       592 1.96908E+01 3.20493E+00-5.11602E-03-3.12245E-01 1.02691E-13-8.59319E-14
 -1       593 3.13420E+01 6.13909E+00-1.87114E-01 4.19459E-01 5.11383E-13-2.25618E-14
 -1       594 3.02821E+01 7.57169E+00-1.78443E-01-5.69571E-01-4.01387E-13-2.67768E-13
 -1       595 3.19995E+01 4.36786E+00-1.50279E-01-2.59702E+00 3.88661E-13 2.39947E-14
 -1       596 3.22792E+01 4.12585E+00-1.52513E-01 2.63369E+00 2.28581E-13 1.03299E-13
 -1       597 3.25084E+01 3.14369E-01-1.01914E-01 2.21741E+00 1.61142E-13 1.81480E-13
 -1       598 2.13235E+01-5.84711E+00 4.15006E-02-5.50289E+00-1.43344E-13 1.68390E-14
 -1       599 1.43284E+01-4.62482E+00 1.21892E-01-6.49828E+00-2.98761E-13-1.29834E-13
 -1       600 7.32069E+00-2.11041E+00 1.72637E-01-4.18951E+00-5.01890E-14-6.56919E-13
 -1       601 4.34410E+00-1.27932E+00 1.75512E-01 1.83822E-01 2.36648E-14-1.20320E-13
 -1       602 7.32908E+00-1.87777E+00 1.75648E-01 4.97167E+00-3.78933E-14 3.74561E-14
 -1       603 1.46313E+01-4.36258E+00 1.24483E-01 7.32806E+00-7.52315E-14-3.00315E-14
 -1       604 2.16685E+01-5.43154E+00 3.59681E-02 5.98734E+00 1.42310E-13-3.81445E-13
 -1       605 2.96105E+01-7.64779E-01-9.23957E-02-5.99416E-03-2.62502E-13-4.92176E-14
 -1       606 2.96609E+01-1.00773E+00-9.28745E-02-3.83866E-01-6.39870E-14-1.30493E-13
 -1       607 2.93620E+01 6.64262E+00-1.95095E-01 1.19782E+00-2.45443E-13-1.30757E-13
 -1       608 3.00633E+01-4.19292E+00-5.41780E-02 3.56583E-01 2.33813E-13-8.58758E-14
 -1       609 3.05453E+01 3.48724E+00-1.38852E-01 1.46568E+00-2.76883E-13 1.19557E-14
 -1       610 2.54695E+01-4.60873E+00 4.20488E-03-4.31908E+00 2.27568E-13-3.66554E-13
 -1       611 1.31518E+01-4.65674E+00 9.11770E-02-7.38938E+00 5.74166E-13 4.61638E-13
 -1       612 2.05777E+01 1.30585E+00-8.87192E-04 1.54832E+00 1.44190E-13 2.78400E-13
 -1       613 2.46006E+01-5.96776E+00 2.69124E-02 4.26386E+00-4.75453E-14 1.25785E-13
 -1       614 1.99838E+01 2.65595E+00-6.44953E-03-1.24305E+00-2.95700E-15-1.84922E-13
 -1       615 2.75010E+01-3.50173E+00-3.73652E-02-1.50522E+00 1.53476E-13-1.40204E-13
 -1       616 2.01677E+01 2.28027E+00-5.82526E-03-1.43538E+00-3.78434E-14-1.70017E-13
 -1       617 2.90706E+01 1.47003E+00-1.28802E-01-1.60278E+00-3.85282E-13 7.39825E-14
 -1       618 3.06993E+01-2.92179E+00-9.12653E-02 1.24860E+00 1.56699E-14 2.01519E-13
 -1       619 2.61491E+01-5.63719E+00 1.87494E-02-2.92352E+00-9.64159E-14 6.97394E-14
 -1       620 2.00951E+01 1.09206E-01 3.38294E-04-1.96776E-01-2.34811E-13 2.57034E-13
 -1       621 1.99696E+01 2.45922E+00-1.57911E-03 3.91852E-01 1.14579E-13-6.77279E-14
 -1       622 1.99380E+01 2.53512E+00-1.51554E-03 1.34714E-01 1.06599E-13-9.78186E-14
 -1       623 2.01271E+01 2.05208E+00-1.55354E-03 8.46841E-01 1.53604E-13 6.62434E-15
 -1       624 2.02422E+01 1.67917E+00-2.38058E-03 9.89218E-01 1.47064E-13 8.04006E-14
 -1       625 2.02886E+01 1.43407E+00 1.23419E-03-9.91869E-01-4.77883E-14-1.49954E-13
 -1       626 1.35353E+01-1.94217E+00 1.26213E-01-5.12037E+00-1.77247E-13-8.03455E-14
 -1       627 2.82198E+01 4.06413E-01-1.07691E-01 1.52326E+00 6.35360E-14-1.12438E-13
 -1       628 1.79682E+01-4.47329E+00 8.55680E-02-6.54949E+00 4.90274E-13 5.60160E-13
 -1       629 2.02421E+01 6.85029E-01 5.60190E-04-3.86600E-01-5.31305E-14-1.30466E-13
 -1       630 2.01726E+01 4.04208E-01 1.55049E-04-1.27362E-01-3.91713E-14-1.35478E-13
 -1       631 2.01099E+01 2.30835E-01 5.87779E-05 4.23432E-02-5.50224E-15-1.32270E-13
 -1       632 2.00633E+01 1.24395E-01 1.53950E-05 1.48339E-01-4.17399E-14-8.11106E-14
 -1       633 2.00330E+01 6.26217E-02-7.79767E-07 2.12233E-01-5.16317E-14-6.74917E-14
 -1       634 2.00169E+01 3.15441E-02-5.79080E-06 2.50614E-01-6.47532E-14 7.13236E-15
 -1       635 2.00121E+01 2.19348E-02-4.40763E-06 2.75895E-01-7.34994E-14 6.01804E-14
 -1       636 2.00164E+01 2.72813E-02 1.63560E-06 2.97194E-01-5.69684E-14 1.01091E-13
 -1       637 2.00287E+01 4.25399E-02 1.09383E-05 3.21032E-01-7.13818E-14 1.08089E-13
 -1       638 2.00482E+01 6.32523E-02 2.17776E-05 3.51775E-01-3.58593E-14 7.24038E-14
 -1       639 2.00758E+01 8.48119E-02 3.19580E-05 3.91814E-01-2.56198E-14 1.02325E-13
 -1       640 2.01131E+01 1.01786E-01 3.87347E-05 4.41488E-01 2.92882E-14 6.21468E-14
 -1       641 2.01634E+01 1.07295E-01 3.83396E-05 4.98739E-01-8.26786E-14 4.67310E-14
 -1       642 2.02318E+01 9.25579E-02 2.57392E-05 5.58516E-01-1.59978E-13 4.70213E-14
 -1       643 2.03259E+01 4.68419E-02-5.53673E-06 6.11940E-01-6.39176E-14 1.88004E-14
 -1       644 2.04556E+01-4.16935E-02-6.35551E-05 6.45320E-01 1.27623E-14-6.19382E-14
 -1       645 2.06331E+01-1.83458E-01-1.54611E-04 6.39210E-01 3.73463E-14-1.56574E-13
 -1       646 2.08701E+01-3.82072E-01-2.79052E-04 5.68088E-01 8.77540E-14-1.45460E-13
 -1       647 2.11727E+01-6.25020E-01-3.97690E-04 4.01939E-01 2.15601E-13-1.44839E-13
 -1       648 2.15318E+01-8.70321E-01-4.61305E-04 1.12152E-01 1.55763E-13 7.26116E-15
 -1       649 2.19081E+01-1.03194E+00-2.29326E-04-3.12577E-01 3.10231E-15-1.51258E-13
 -1       650 2.22230E+01-9.82350E-01 8.26189E-05-8.35905E-01-9.12724E-14-2.19175E-13
 -1       651 2.23725E+01-5.92638E-01 4.34161E-05-1.33920E+00-2.14064E-14-1.07544E-13
 -1       652 2.22804E+01 1.76163E-01-1.15101E-03-1.60647E+00 6.85459E-14-1.83129E-13
 -1       653 2.19972E+01 1.13476E+00-2.98858E-03-1.40326E+00 8.55988E-14-4.41523E-14
 -1       654 2.17178E+01 1.88594E+00-1.27096E-04-6.55977E-01 3.80299E-14 1.07232E-13
 -1       655 2.16752E+01 1.98762E+00-1.62954E-03 3.70108E-01-1.20355E-13 1.09380E-13
 -1       656 2.19011E+01 1.39728E+00-1.44149E-03 1.23756E+00-2.49353E-13 2.21958E-13
 -1       657 2.22153E+01 4.41326E-01 1.83873E-04 1.59618E+00-1.95444E-13 3.00349E-13
 -1       658 2.23693E+01-4.08373E-01-9.89930E-04 1.44720E+00-1.15544E-13 2.75630E-13
 -1       659 2.22872E+01-9.12913E-01-1.16559E-03 9.85320E-01-9.90828E-14 3.08548E-13
 -1       660 2.20084E+01-1.04690E+00-7.04186E-04 4.49537E-01-3.73704E-14 2.69256E-13
 -1       661 2.16400E+01-9.29549E-01-5.47364E-04-9.57102E-03-5.96034E-14 1.32894E-13
 -1       662 2.12711E+01-6.96137E-01-4.41789E-04-3.37250E-01 2.15434E-14 1.19372E-13
 -1       663 2.09511E+01-4.44566E-01-3.20190E-04-5.34694E-01 1.51871E-13-8.66538E-14
 -1       664 2.06965E+01-2.27814E-01-1.84642E-04-6.27030E-01 8.20351E-14-2.01417E-13
 -1       665 2.05045E+01-6.50429E-02-7.80778E-05-6.44284E-01 5.55312E-14-4.38690E-13
 -1       666 2.03642E+01 4.43995E-02-8.50524E-06-6.12953E-01-1.86446E-14-3.82969E-13
 -1       667 2.02630E+01 1.10343E-01 3.26212E-05-5.53456E-01 2.29345E-13-1.80510E-13
 -1       668 2.01900E+01 1.45422E-01 5.83963E-05-4.80090E-01 8.53484E-14-3.22698E-13
 -1       669 2.01363E+01 1.61537E-01 9.29498E-05-4.01820E-01-1.53819E-14-4.34196E-13
 -1       670 2.00953E+01 1.68127E-01 9.80931E-05-3.23713E-01 1.18674E-13-3.14665E-13
 -1       671 1.99867E+01 1.07850E-01 7.75659E-05-1.45988E-01 1.09775E-13 8.70377E-14
 -1       672 2.00648E+01 2.58248E-01-4.28436E-05 3.61563E-01 6.50613E-14-2.63987E-13
 -1       673 2.00351E+01 2.02894E-01 1.92749E-04-3.75812E-02 7.05256E-14 6.45593E-14
 -1       674 1.99560E+01 2.70861E-02 9.48756E-06-2.48100E-01 8.08388E-14 1.77157E-13
 -1       675 1.99640E+01 2.10338E-02 8.52822E-06-2.73477E-01 9.23944E-14 1.30590E-13
 -1       676 1.99826E+01 3.07643E-02 2.18661E-05-2.96575E-01 8.04128E-14 1.62397E-13
 -1       677 2.00093E+01 5.37611E-02 4.82889E-05-3.25607E-01 6.40704E-14 1.20464E-13
 -1       678 2.00425E+01 8.89927E-02 8.72462E-05-3.67477E-01 4.47192E-14 1.15535E-13
 -1       679 2.00807E+01 1.36559E-01 1.39483E-04-4.28390E-01 2.68726E-14 5.52223E-14
 -1       680 2.01220E+01 1.97377E-01 2.07072E-04-5.14265E-01-1.27280E-14 6.29336E-14
 -1       681 2.01639E+01 2.72750E-01 2.92290E-04-6.30982E-01 5.44280E-14 2.06258E-14
 -1       682 2.02027E+01 3.63525E-01 3.95801E-04-7.84401E-01 1.72012E-15-1.29893E-14
 -1       683 2.02329E+01 4.68403E-01 5.12943E-04-9.80091E-01 1.36164E-14 3.51683E-14
 -1       684 2.02481E+01 5.80664E-01 6.24598E-04-1.22267E+00-1.72116E-13 4.68528E-14
 -1       685 2.02433E+01 6.82127E-01 6.88859E-04-1.51469E+00-1.29819E-13-4.23843E-15
 -1       686 2.02226E+01 7.32955E-01 6.81539E-04-1.85519E+00-4.34867E-14 1.39136E-13
 -1       687 2.02145E+01 6.56083E-01 6.75447E-04-2.23771E+00 2.04895E-14 1.78416E-13
 -1       688 2.03043E+01 3.18848E-01 1.30741E-03-2.64429E+00 1.61213E-14 1.01930E-13
 -1       689 2.06816E+01-4.71827E-01 3.52791E-03-3.02515E+00-1.48928E-13 1.04023E-13
 -1       690 2.17033E+01-1.90472E+00 1.58407E-02-3.24862E+00-1.83700E-13 1.18136E-13
 -1       691 2.38845E+01-3.93338E+00 2.69902E-02-2.95628E+00-1.70875E-13 1.06939E-14
 -1       692 2.15289E+01-1.40655E+00 6.87430E-03 3.13525E+00-3.05398E-13-1.18503E-13
 -1       693 2.07093E+01-1.90227E-01 1.05017E-03 2.88897E+00-2.74266E-13 2.03403E-14
 -1       694 2.04127E+01 4.31899E-01 7.20729E-04 2.51349E+00-1.84556E-13 6.93359E-14
 -1       695 2.03316E+01 6.73330E-01 7.08532E-04 2.12020E+00-9.74662E-14 8.68667E-14
 -1       696 2.03201E+01 7.05771E-01 7.10724E-04 1.74895E+00-1.68284E-14-1.68171E-13
 -1       697 2.03158E+01 6.40251E-01 7.30459E-04 1.41801E+00-1.25583E-13-3.90932E-13
 -1       698 2.02985E+01 5.40864E-01 6.70828E-04 1.13389E+00-1.18286E-13-3.11339E-13
 -1       699 2.02672E+01 4.39972E-01 5.58779E-04 8.96001E-01 1.42006E-13-2.15835E-13
 -1       700 2.02269E+01 3.51986E-01 4.71146E-04 7.00234E-01 2.92830E-13 1.44551E-13
 -1       701 2.01822E+01 2.82849E-01 3.72229E-04 5.41204E-01 4.00449E-13 3.21019E-13
 -1       702 2.01132E+01 2.69195E-01 4.30298E-04 4.45601E-01 3.82849E-13-1.90703E-15
 -1       703 1.97715E+01 4.98106E-01-9.12739E-05 6.71525E-03 3.99246E-13-1.48008E-13
 -1       704 2.00726E+01 1.69519E-01 1.42936E-04-2.71739E-01-1.72498E-13-3.07601E-13
 -1       705 1.98298E+01 4.59564E-01-7.86726E-05 2.32858E-01 2.24326E-13 1.15008E-13
 -1       706 1.97915E+01 4.71862E-01-7.87618E-05-1.06886E-01 2.01206E-13 8.72894E-14
 -1       707 1.97834E+01 4.94903E-01-9.23387E-05 1.25469E-01 8.73530E-14 1.16492E-13
 -1       708 2.01108E+01 3.60235E-01 4.43967E-04 1.39436E-01 6.89175E-14 8.31763E-14
 -1       709 1.98360E+01 4.22996E-01-5.38349E-05-2.00117E-01 3.19922E-14 1.09614E-13
 -1       710 1.98985E+01 3.57185E-01-5.43691E-05-2.66793E-01 2.50168E-13-3.20741E-13
 -1       711 1.99710E+01 2.82287E-01-4.81514E-05-2.99492E-01 1.74110E-13-9.88296E-14
 -1       712 7.09769E+00 2.61918E-02 1.64436E-01-8.76358E-01 2.17926E-13 3.50761E-14
 -1       713 2.74452E+01-2.58204E+00-4.98282E-02 9.76363E-02 5.32673E-14-2.08167E-16
 -1       714 8.53050E+00-8.48300E-01 1.58311E-01-4.12101E+00 4.23328E-13-9.54861E-14
 -1       715 2.17318E+01-4.88965E+00 5.70142E-02 4.71778E+00-5.03129E-13 1.76147E-13
 -1       716 9.67575E+00-6.19525E-01 1.58842E-01 3.52399E+00-9.50663E-14-1.32512E-13
 -1       717 2.81262E+01 5.41057E+00-1.50210E-01-1.69323E+00-4.15383E-13-1.82961E-13
 -1       718 8.02801E+00 6.60943E-02 1.60057E-01 2.12848E+00 1.06391E-14-2.27561E-13
 -1       719 2.33200E+01-3.22632E+00 3.46842E-02 2.95325E+00-3.59114E-13 5.69137E-14
 -1       720 2.47956E+01-4.66770E+00 1.00435E-02 3.07218E+00 8.47586E-15-2.87149E-14
 -1       721 1.99620E+01 5.34810E-02 2.84273E-05-2.10115E-01 1.04853E-13 1.15154E-13
 -1       722 2.02841E+01 9.85453E-01-1.10794E-03-6.58715E-01-2.22279E-14-1.52421E-13
 -1       723 1.49320E+01-2.96959E+00 1.15726E-01 5.61831E+00-4.23665E-13-4.12934E-14
 -1       724 2.00324E+01 2.30305E+00-1.63851E-03 6.34869E-01 1.43189E-13-1.65704E-14
 -1       725 2.64902E+01 6.28333E+00-1.56457E-01 1.22472E-01-4.53013E-13-1.80506E-13
 -1       726 1.93868E+01-4.37416E+00 7.94290E-02-5.35729E+00-1.60344E-13 2.08236E-14
 -1       727 2.02075E+01 6.21202E-01 1.06658E-03 4.16048E-01 7.99339E-14 9.66945E-14
 -1       728 1.94396E+01-4.38764E+00 6.12620E-02 5.92316E+00-2.81025E-14-2.19481E-13
 -1       729 2.00264E+01 2.31398E+00-1.66000E-03-6.26723E-01 4.67423E-14-1.31569E-13
 -1       730 2.30051E+01-5.09019E+00 3.20364E-02-4.90997E+00 3.92974E-13 2.00887E-13
 -1       731 1.25733E+01-3.00926E+00 1.31108E-01-6.56480E+00 6.13912E-13 4.29656E-13
 -1       732 8.11986E+00-7.70353E-02 1.65573E-01-1.77021E+00 1.38481E-13-2.91343E-13
 -1       733 2.72458E+01 3.87451E+00-1.26103E-01 2.07123E+00-1.05138E-13 2.68396E-14
 -1       734 2.72168E+01-4.84139E+00 1.14519E-03 1.36007E+00-1.14521E-13-1.82672E-13
 -1       735 1.30246E+01-2.08391E+00 1.01716E-01 5.85622E+00-9.04554E-14-8.90260E-15
 -1       736 2.03145E+01 1.00071E+00 2.73179E-03 7.99429E-01 1.23488E-13 1.42798E-13
 -1       737 2.01252E+01 2.06220E+00-6.75647E-04-8.41381E-01-1.13042E-15-1.41681E-13
 -1       738 1.99369E+01 2.53689E+00-1.51304E-03-1.26098E-01 1.00400E-13-6.34663E-14
 -1       739 2.72613E+01-1.83371E+00-4.71921E-02 6.16083E-01-2.87964E-15-2.87841E-13
 -1       740 2.53912E+01-4.46765E+00 6.02925E-04-2.57301E+00-4.55538E-15-2.39100E-13
 -1       741 1.99062E+01 3.94784E-01-1.15387E-04 3.11825E-01 2.47930E-14 1.80946E-13
 -1       742 2.81245E+01-4.44140E+00-1.68027E-02-2.79305E-01-7.47666E-16 1.23315E-13
 -1       743 2.72313E+01-7.60755E-01-7.04350E-02-1.36673E+00-1.35543E-13 1.30970E-13
 -1       744 1.18362E+01-2.38924E-01 9.22845E-02 3.92169E+00 3.58671E-14 3.76678E-14
 -1       745 2.00277E+01 2.25662E-01 2.66595E-05-3.21167E-01-1.55309E-13-5.24633E-13
 -1       746 1.99661E+01 2.46516E+00-1.57487E-03-3.82560E-01 7.80851E-14-6.91441E-14
 -1       747 2.52112E+01 4.61246E+00-8.82957E-02 1.29742E+00-2.71418E-13-2.07370E-13
 -1       748 2.02698E+01 1.31599E+00-2.54079E-04 6.25563E-01 1.48983E-13 5.13698E-14
 -1       749 1.00556E+01-1.71339E-01 1.17826E-01-2.91393E+00-1.35014E-14-2.68577E-13
 -1       750 2.02678E+01 4.55011E-01-1.03584E-05-7.65128E-02-9.12694E-15-7.79138E-14
 -1       751 2.02280E+01 2.66005E-01-1.18048E-05 6.26463E-02 2.81659E-15-7.16713E-14
 -1       752 2.01865E+01 1.48018E-01-9.94728E-06 1.53104E-01-1.41266E-14-4.88735E-14
 -1       753 2.01484E+01 8.05618E-02-7.34113E-06 2.10659E-01-8.98691E-15 1.35681E-14
 -1       754 2.01154E+01 4.93164E-02-4.60652E-06 2.48502E-01-2.21803E-14 7.07353E-14
 -1       755 2.00875E+01 4.40171E-02-2.21374E-06 2.77097E-01-5.85471E-14 1.41421E-13
 -1       756 2.00645E+01 5.68911E-02 3.89744E-07 3.04466E-01-3.91308E-14 1.13369E-13
 -1       757 2.00460E+01 8.15069E-02 3.43647E-06 3.36555E-01-6.12334E-14 1.84614E-13
 -1       758 2.00323E+01 1.11816E-01 6.64801E-06 3.77528E-01-6.72595E-14 1.05472E-13
 -1       759 2.00245E+01 1.41251E-01 9.90508E-06 4.29883E-01-6.46395E-14 9.19764E-14
 -1       760 2.00258E+01 1.61855E-01 1.25305E-05 4.94369E-01-1.00336E-13-4.22524E-14
 -1       761 2.00415E+01 1.63494E-01 1.34215E-05 5.69644E-01-1.29312E-13-2.37867E-14
 -1       762 2.00804E+01 1.33308E-01 1.06661E-05 6.51643E-01-8.01706E-14 4.50741E-14
 -1       763 2.01561E+01 5.57502E-02 8.13004E-07 7.32527E-01-3.61386E-14 6.06805E-14
 -1       764 2.02872E+01-8.60978E-02-2.40184E-05 7.99088E-01-3.07694E-14 6.07914E-14
 -1       765 2.04977E+01-3.06756E-01-6.77473E-05 8.30464E-01 1.64467E-14 1.68024E-14
 -1       766 2.08136E+01-6.10241E-01-1.33230E-04 7.95353E-01 1.85534E-13 7.42607E-14
 -1       767 2.12542E+01-9.75186E-01-2.10956E-04 6.50608E-01 2.39153E-13-1.21345E-13
 -1       768 2.18194E+01-1.33475E+00-1.03241E-04 3.44073E-01 2.46697E-14-1.40042E-13
 -1       769 2.24474E+01-1.53660E+00 6.28352E-04-1.64650E-01-4.79238E-14-6.46724E-14
 -1       770 2.30132E+01-1.37326E+00-1.91565E-04-8.43341E-01-2.19261E-14 7.31530E-14
 -1       771 2.33146E+01-6.08007E-01-2.96917E-03-1.51950E+00-4.17228E-14 1.83059E-13
 -1       772 2.32090E+01 7.62475E-01-8.32725E-03-1.81042E+00 5.40097E-14 3.17866E-14
 -1       773 2.29008E+01 2.24356E+00-1.10616E-02-1.39226E+00-4.22581E-14-1.68695E-13
 -1       774 2.26129E+01 3.08760E+00-1.81359E-02-1.86587E-01-2.10338E-13-4.11624E-13
 -1       775 2.27199E+01 2.59078E+00-1.43191E-02 1.10925E+00-8.03893E-14-4.12415E-13
 -1       776 2.31001E+01 1.24202E+00-1.69705E-02 1.80302E+00-1.85952E-13-2.35694E-13
 -1       777 2.33550E+01-2.59257E-01 3.55397E-03 1.68890E+00-1.52315E-13-3.68932E-15
 -1       778 2.31443E+01-1.22396E+00-2.26382E-03 1.05332E+00 1.10197E-13 2.48628E-13
 -1       779 2.26251E+01-1.54224E+00-1.21996E-03 3.37889E-01-1.13327E-13 4.66405E-13
 -1       780 2.19975E+01-1.41509E+00-1.73846E-04-2.25088E-01-1.27052E-13 5.42916E-13
 -1       781 2.14081E+01-1.08161E+00-8.61102E-05-5.86036E-01-1.09917E-13 4.05748E-13
 -1       782 2.09307E+01-7.06437E-01-1.45081E-04-7.70743E-01 3.26076E-14 8.53608E-14
 -1       783 2.05811E+01-3.77812E-01-8.68318E-05-8.29961E-01 1.49388E-13 6.23445E-14
 -1       784 2.03439E+01-1.27765E-01-2.12265E-05-8.10077E-01 1.20438E-14 4.40766E-14
 -1       785 2.01933E+01 4.29206E-02 8.69150E-06-7.45360E-01 2.32523E-14-1.36563E-13
 -1       786 2.01039E+01 1.47562E-01 1.76266E-05-6.58748E-01 2.47138E-14-5.93529E-13
 -1       787 2.00549E+01 2.03682E-01 8.12142E-06-5.64716E-01 8.62965E-14-8.85765E-13
 -1       788 2.00310E+01 2.28519E-01 4.27610E-05-4.71442E-01-3.45222E-14-4.26966E-13
 -1       789 2.00302E+01 2.29461E-01 7.96116E-05-3.93284E-01 1.29564E-13-1.99481E-13
 -1       790 2.01800E+01 2.49514E-01 1.35159E-05-5.65945E-02 4.09188E-14 3.61119E-14
 -1       791 2.00597E+01 4.67539E-02 1.43557E-06-2.85515E-01 4.28555E-14 7.22979E-14
 -1       792 2.00783E+01 4.74150E-02-6.62631E-07-2.55196E-01 9.94987E-14 6.41631E-14
 -1       793 2.00334E+01 1.07109E-01 1.64396E-05-3.53247E-01 3.53928E-14 1.92074E-13
 -1       794 2.00196E+01 1.63968E-01 2.78795E-05-4.04428E-01 5.98119E-14 1.60450E-13
 -1       795 1.99997E+01 2.38321E-01 4.25979E-05-4.74584E-01 1.59213E-14 1.16298E-13
 -1       796 1.99678E+01 3.31095E-01 6.23945E-05-5.68403E-01 6.76631E-14 2.40893E-14
 -1       797 1.99157E+01 4.43319E-01 8.82327E-05-6.90071E-01 4.40273E-14 1.08585E-13
 -1       798 1.98322E+01 5.74786E-01 1.20454E-04-8.43349E-01 1.47574E-14 2.03482E-14
 -1       799 1.97033E+01 7.21669E-01 1.54390E-04-1.03176E+00-9.76958E-14-2.52937E-15
 -1       800 1.95125E+01 8.72279E-01 1.69354E-04-1.25937E+00-1.60860E-13-1.23675E-13
 -1       801 1.92445E+01 9.99799E-01 1.49365E-04-1.53303E+00-1.62455E-13-4.49951E-14
 -1       802 1.88918E+01 1.05143E+00 3.48813E-04-1.86698E+00-6.45720E-14 1.04615E-13
 -1       803 1.84684E+01 9.32103E-01 1.09602E-03-2.29606E+00 5.09560E-14 1.31666E-13
 -1       804 1.80619E+01 4.72312E-01 5.35138E-03-2.89184E+00-1.22309E-13 1.45620E-13
 -1       805 1.78831E+01-5.81995E-01 2.59039E-02-3.71130E+00-8.59430E-14 5.24164E-14
 -1       806 1.87264E+01 9.61559E-01 3.49965E-04 2.19452E+00 3.82385E-14-2.32959E-13
 -1       807 1.83332E+01 6.15244E-01 2.27993E-03 2.73462E+00-2.84962E-13-4.22980E-14
 -1       808 2.19985E+01-3.85504E+00 1.97795E-02 3.74944E+00 7.18581E-14-2.18499E-13
 -1       809 1.81551E+01-2.21338E-01 1.75452E-02 3.45689E+00-2.00679E-13-1.06546E-13
 -1       810 1.91018E+01 1.02976E+00 9.90581E-06 1.78586E+00-5.33572E-14-3.39249E-13
 -1       811 1.94089E+01 9.54950E-01 1.24777E-04 1.46187E+00-7.02140E-14-5.01709E-14
 -1       812 1.96358E+01 8.25273E-01 1.67434E-04 1.19281E+00-7.04211E-14-2.23032E-13
 -1       813 1.97935E+01 6.85122E-01 1.68318E-04 9.65637E-01-1.07072E-13-4.80032E-13
 -1       814 1.98970E+01 5.56549E-01 1.48519E-04 7.74166E-01 4.50790E-14-6.29225E-13
 -1       815 1.99598E+01 4.49553E-01 7.46835E-05 6.14063E-01 2.16205E-13-3.19700E-13
 -1       816 2.66122E+01 2.51230E+00-8.74958E-02-2.20609E+00-2.44936E-13 1.82902E-13
 -1       817 1.97194E+01 4.80864E-01-8.40653E-06-2.06389E-01 2.77631E-13 8.67998E-14
 -1       818 2.01471E+01 1.90476E+00-3.28658E-04 1.96464E-01 8.11927E-14-9.12763E-14
 -1       819 2.02283E+01 4.30318E-01 5.37827E-05 9.55216E-02 4.61382E-14-7.08543E-16
 -1       820 1.96662E+01 5.33311E-01-2.15287E-05-7.92486E-02 3.08818E-13-2.39144E-13
 -1       821 1.99026E+01 3.27102E-01-5.56962E-05-3.56831E-01 1.20944E-13-3.06896E-13
 -1       822 2.02158E+01 1.77863E+00 7.83119E-04-9.50691E-01-3.42650E-14-1.44525E-13
 -1       823 2.53517E+01 4.95225E+00-8.50573E-02-1.19715E+00-2.73694E-13 9.32397E-14
 -1       824 1.85159E+01-1.88062E+00 5.86972E-02 4.35491E+00-6.46098E-14 1.61912E-13
 -1       825 1.26799E+01-1.25856E+00 1.02049E-01-5.09471E+00 3.24164E-13 3.95125E-13
 -1       826 9.97108E+00 4.50108E-01 1.03500E-01-2.34933E+00 2.28531E-13-8.56329E-14
 -1       827 1.43781E+01-7.72606E-01 7.12430E-02 4.14389E+00-4.14451E-14-6.40668E-14
 -1       828 1.74147E+01-2.48484E+00 3.81487E-02 5.09021E+00-6.63341E-14-3.09804E-14
 -1       829 1.00301E+01 8.56840E-01 1.01284E-01-9.72122E-03 8.37843E-14-2.33681E-13
 -1       830 1.98022E+01 4.08837E-01-2.98293E-05-3.01037E-01 2.28454E-13 7.31557E-14
 -1       831 2.00457E+01 6.76406E-02 7.22694E-06-3.15688E-01 6.41486E-14 1.34998E-13
 -1       832 2.02930E+01 7.47163E-01-1.09125E-06-2.80776E-01-2.20154E-14-1.08261E-13
 -1       833 2.61089E+01 1.39988E+00-5.38891E-02 2.09487E+00 3.35600E-14 2.46157E-14
 -1       834 1.01913E+01 8.01783E-01 8.38328E-02 1.06183E+00 6.12141E-15-1.64403E-13
 -1       835 2.54923E+01-3.34388E+00-2.59295E-02 8.20653E-01-7.03422E-14-7.88558E-14
 -1       836 2.02701E+01 7.14812E-01-3.46842E-05 3.21917E-01 8.52254E-14 3.61332E-15
 -1       837 1.63581E+01-2.85631E+00 6.60074E-02-5.79233E+00 2.47363E-13 6.84989E-13
 -1       838 2.13223E+01-4.28284E+00 4.08768E-02-4.73911E+00 2.45698E-13 4.83537E-13
 -1       839 1.83488E+01-2.26824E+00 5.72707E-02-4.60238E+00-1.03853E-13 8.33101E-14
 -1       840 2.02823E+01 9.52515E-01 2.93412E-04 5.49693E-01 1.17163E-13 5.91864E-14
 -1       841 1.38174E+01-2.75721E-01 7.01311E-02-3.77529E+00-8.89922E-14-1.32117E-13
 -1       842 2.01352E+01 1.94380E+00-3.15768E-04 2.92331E-03 8.12207E-14-9.04897E-14
 -1       843 2.60045E+01-3.21971E+00-3.01188E-02-4.56201E-01 1.53427E-13-1.64977E-13
 -1       844 2.42014E+01 4.61961E+00-6.40065E-02-1.12032E-02-1.59053E-13-1.64098E-13
 -1       845 1.96553E+01 5.56548E-01-3.46550E-05 6.65831E-02 5.56189E-14 2.63948E-13
 -1       846 1.97832E+01 4.91989E-01-8.09348E-05 3.36623E-01-2.46016E-14 6.12187E-14
 -1       847 2.02968E+01 1.04419E+00-2.74953E-04-4.88425E-01-2.53187E-14-1.25024E-13
 -1       848 2.01037E+01 7.49386E-02 8.58256E-08-2.15354E-01 3.77510E-14 6.15554E-14
 -1       849 2.34893E+01-3.46814E+00 4.07344E-03 1.95124E+00 7.18713E-14 1.71788E-13
 -1       850 1.99443E+01 4.09285E-01-7.08679E-04 4.98685E-01 4.34927E-13-2.14840E-13
 -1       851 1.96939E+01 5.43623E-01-6.08071E-05 2.11800E-01-1.37205E-13 3.35323E-13
 -1       852 1.19787E+01 8.14234E-01 5.64271E-02 2.00042E+00 5.95396E-14-1.26173E-13
 -1       853 2.02217E+01 1.60045E+00-1.36126E-03-5.22801E-01 5.31290E-15-8.57780E-14
 -1       854 1.55559E+01-9.30841E-01 4.13143E-02 4.23730E+00-7.12186E-14-5.34945E-14
 -1       855 2.01375E+01 1.37875E-01 2.13519E-06-1.54133E-01 9.71086E-14 7.75893E-14
 -1       856 2.59759E+01-5.33962E-01-4.60180E-02 1.68196E+00 1.47699E-13-1.25554E-13
 -1       857 2.01766E+01 1.79605E+00-2.54012E-04-3.71566E-01 5.62812E-14-8.52351E-14
 -1       858 2.02281E+01 1.59430E+00 1.28486E-04 5.29224E-01 1.20238E-13 6.13415E-15
 -1       859 1.34549E+01 6.54979E-01 5.46581E-02 2.59385E+00-1.55258E-16-1.56628E-13
 -1       860 2.58152E+01-2.21987E+00-2.23891E-02-5.86052E-01-3.49100E-14 1.49328E-13
 -1       861 2.01793E+01 1.78967E+00-2.80890E-04 3.76966E-01 1.13203E-13-1.94703E-14
 -1       862 1.99386E+01 3.92308E-01-2.99205E-04 4.35676E-01 4.42404E-13-1.84970E-13
 -1       863 2.47501E+01 2.66675E+00-4.40455E-02 1.94201E+00-3.38601E-14-3.35388E-13
 -1       864 1.10361E+01 9.00496E-01 7.21425E-02-1.07992E+00 1.03063E-13-2.55119E-13
 -1       865 1.99644E+01 2.78389E-01 1.72872E-04-3.81761E-01-1.31758E-13-6.04173E-13
 -1       866 2.44752E+01 2.83380E+00-4.46492E-02-1.93286E+00-2.45078E-13-4.67040E-14
 -1       867 2.03036E+01 2.76231E-01-2.32733E-05 7.84799E-02 1.00298E-14-3.00359E-14
 -1       868 2.02621E+01 1.58845E-01-8.59690E-06 1.48562E-01-1.16023E-14-2.52037E-14
 -1       869 2.02150E+01 9.46339E-02-5.97994E-06 1.95578E-01 2.68949E-14-3.76737E-14
 -1       870 2.01659E+01 6.96743E-02-3.41960E-06 2.29568E-01-9.34888E-16-3.10367E-14
 -1       871 2.01166E+01 7.33004E-02-1.60628E-06 2.58861E-01-2.27705E-14 3.96418E-14
 -1       872 2.00676E+01 9.69589E-02-1.13046E-06 2.90152E-01-3.66656E-14 5.72831E-14
 -1       873 2.00192E+01 1.33189E-01-1.76571E-06 3.28722E-01-9.45736E-14 1.34638E-14
 -1       874 1.99720E+01 1.74607E-01-1.72943E-06 3.78706E-01-6.66148E-14 3.69977E-14
 -1       875 1.99280E+01 2.12846E-01-1.23211E-06 4.43214E-01-7.44098E-14 1.77011E-13
 -1       876 1.98913E+01 2.37544E-01-5.30759E-07 5.24308E-01-1.07778E-13 2.27308E-13
 -1       877 1.98692E+01 2.35377E-01-1.90279E-07 6.22755E-01-6.21923E-14 1.58593E-13
 -1       878 1.98746E+01 1.89336E-01-1.39546E-06 7.37383E-01-5.85133E-14 1.66728E-13
 -1       879 1.99268E+01 7.86546E-02-7.76061E-06 8.63745E-01-3.33249E-14 1.90778E-13
 -1       880 2.00545E+01-1.19832E-01-3.31242E-05 9.91609E-01-1.27946E-15 2.84496E-13
 -1       881 2.02960E+01-4.27374E-01-6.18656E-05 1.10040E+00 1.00096E-13 2.18488E-13
 -1       882 2.06985E+01-8.53158E-01-6.94863E-05 1.15168E+00 5.68249E-14 9.36831E-14
 -1       883 2.13052E+01-1.36889E+00 3.07904E-04 1.07713E+00 1.09581E-13 1.71012E-14
 -1       884 2.21413E+01-1.87846E+00-4.78042E-03 7.77846E-01 1.12837E-14-7.66755E-14
 -1       885 2.31706E+01-2.17932E+00 3.76846E-03 1.72880E-01 1.37575E-13-2.25772E-14
 -1       886 2.40452E+01-1.80749E+00-3.16961E-03-7.47452E-01 5.93506E-14 1.59035E-13
 -1       887 2.45624E+01-4.40810E-01-2.91001E-02-1.74299E+00-1.34033E-13 2.35173E-13
 -1       888 2.34085E+01-2.12774E+00 1.08949E-03 5.42121E-02 4.50855E-14 2.30383E-14
 -1       889 2.24133E+01-1.99808E+00 2.14266E-03-6.58900E-01-1.20115E-14 1.73128E-13
 -1       890 2.15263E+01-1.52395E+00 9.29706E-04-1.02987E+00-2.04697E-13 1.88930E-13
 -1       891 2.08549E+01-9.90255E-01 5.03019E-05-1.15136E+00-2.40321E-13 1.64816E-14
 -1       892 2.03990E+01-5.29630E-01-1.00914E-04-1.12496E+00 1.68625E-13-1.15404E-14
 -1       893 2.01172E+01-1.82658E-01-1.48341E-05-1.02475E+00 6.73880E-14-1.95834E-13
 -1       894 1.99615E+01 5.29064E-02 2.67503E-05-8.95395E-01-2.28996E-13-2.05762E-13
 -1       895 1.98900E+01 1.97163E-01 2.42735E-05-7.61263E-01-1.36616E-13-4.36315E-13
 -1       896 1.98710E+01 2.73982E-01 2.41627E-05-6.34357E-01-1.49129E-13-4.23404E-13
 -1       897 1.98815E+01 3.06376E-01-3.79929E-05-5.20031E-01 3.60137E-13-4.49955E-13
 -1       898 2.03372E+01 7.51318E-01-6.12331E-05-1.74308E-01 7.61361E-15-4.95599E-14
 -1       899 1.99402E+01 2.54973E-01 6.61000E-06-3.96693E-01 2.03350E-14 2.44502E-13
 -1       900 2.00037E+01 1.75192E-01 4.52557E-06-3.45608E-01 4.66260E-14 1.90894E-13
 -1       901 1.97482E+01 4.78289E-01 1.10612E-05-5.46050E-01 5.56119E-14 8.67616E-14
 -1       902 1.95966E+01 6.22281E-01 1.50332E-05-6.47522E-01 3.01603E-14 7.32177E-14
 -1       903 1.93859E+01 7.85903E-01 1.51637E-05-7.67426E-01 1.88929E-14 1.76535E-14
 -1       904 1.90936E+01 9.62807E-01-9.50894E-06-9.05998E-01-9.98140E-14-3.11194E-14
 -1       905 1.86912E+01 1.13839E+00-1.21668E-04-1.06593E+00-2.51081E-13 1.44620E-14
 -1       906 1.81429E+01 1.28380E+00-5.48707E-04-1.25875E+00-1.53464E-13-1.41700E-13
 -1       907 1.74070E+01 1.34293E+00-8.74044E-04-1.51609E+00-2.33057E-14-1.27360E-13
 -1       908 1.64440E+01 1.24012E+00 2.63540E-03-1.89750E+00-5.06589E-14-2.66399E-14
 -1       909 1.83954E+01 1.23994E+00-7.59241E-04 1.23472E+00-1.30442E-13 3.56621E-15
 -1       910 2.03325E+01 4.66179E-01 6.31764E-05-2.58857E-02 9.24694E-15-4.59221E-14
 -1       911 1.77401E+01 1.32871E+00 2.64846E-04 1.48585E+00-8.80493E-14-6.07474E-14
 -1       912 1.88807E+01 1.09033E+00-1.74984E-04 1.03981E+00-1.71912E-13 9.27081E-14
 -1       913 1.92349E+01 9.22918E-01-1.22189E-05 8.73094E-01 1.13377E-13-3.40627E-14
 -1       914 1.94898E+01 7.63178E-01 1.44163E-05 7.25684E-01 2.74808E-13-3.56562E-13
 -1       915 1.96697E+01 6.23873E-01-6.94636E-05 5.96549E-01 4.70525E-14-5.19934E-13
 -1       916 1.30103E+01 1.06237E-01 5.40770E-02-3.38636E+00 5.62575E-14 2.58954E-13
 -1       917 1.95663E+01 5.57688E-01-1.17021E-05-2.01161E-01 5.36063E-14-1.06531E-13
 -1       918 2.37235E+01-3.88498E+00-3.37730E-03-2.39202E+00 8.45253E-14-1.75350E-13
 -1       919 1.19201E+01 1.23607E+00 5.03739E-02-6.55593E-01-4.49415E-14-3.06378E-13
 -1       920 2.54451E+01 1.99241E-01-5.55008E-02-1.92034E+00-2.16796E-13 9.98030E-14
 -1       921 1.98448E+01-2.39761E+00 8.77867E-03 3.64258E+00-1.21866E-13-1.42357E-13
 -1       922 2.01453E+01 1.90808E+00-3.05646E-04-1.90651E-01 7.95010E-14-5.24951E-14
 -1       923 1.41558E+01 1.00697E+00 3.48136E-02-2.21203E+00-8.32303E-14-1.01147E-13
 -1       924 2.03209E+01 7.42927E-01-2.26765E-04 2.17429E-01 8.00487E-14-1.74370E-15
 -1       925 1.91994E+01-2.61835E+00 2.42672E-02-4.34549E+00 1.12476E-13 4.59807E-13
 -1       926 1.51421E+01 1.27469E+00 1.53167E-02 1.86503E+00-1.16759E-13-2.74830E-13
 -1       927 1.51925E+01-1.16841E+00 4.43684E-02-4.56055E+00 6.35794E-14 8.63001E-13
 -1       928 1.98583E+01 3.55856E-01 8.37643E-06-4.62798E-01 1.02563E-13 1.54773E-13
 -1       929 2.03066E+01 4.58744E-01 1.30429E-05 4.37724E-02 9.32087E-15 6.69789E-15
 -1       930 2.03021E+01 9.97618E-01-6.83315E-05 3.97548E-01 1.25511E-13 2.23917E-14
 -1       931 1.66766E+01 1.36247E+00 5.82433E-03 1.62566E+00-8.18467E-15-3.52695E-13
 -1       932 2.01465E+01 7.14418E-02-1.52124E-06-2.43526E-01 9.37234E-14 7.57392E-14
 -1       933 2.02807E+01 1.43046E+00-4.77791E-05 6.74612E-02 5.07339E-14-6.98902E-14
 -1       934 1.95121E+01 6.15560E-01 5.07431E-05-3.50960E-02-7.50347E-14 8.60372E-14
 -1       935 2.03154E+01 1.04681E+00 3.35285E-04-3.25167E-01 1.08245E-14-5.76958E-14
 -1       936 2.43519E+01-1.82884E+00-8.53705E-03 8.21429E-01 9.84521E-14-1.13754E-15
 -1       937 2.02739E+01 2.71275E-01-2.10745E-05-7.54912E-02 4.33359E-14-5.89728E-15
 -1       938 1.99279E+01 2.94273E-01 9.91802E-05-4.46826E-01 1.38036E-13-4.34310E-13
 -1       939 2.01900E+01 9.33959E-02 1.27902E-06-2.06809E-01 3.40344E-14 1.20259E-15
 -1       940 2.00561E+01 1.16787E-01 4.34846E-06-3.06279E-01 1.75299E-14 8.96809E-14
 -1       941 1.97621E+01 5.32350E-01 4.21214E-04 4.74009E-01 2.10916E-13-5.07166E-13
 -1       942 2.15737E+01-2.73518E+00-9.41081E-03 2.58956E+00 1.00797E-13 3.62694E-13
 -1       943 2.16854E+01-3.05339E+00 5.96991E-03-2.95008E+00 9.72744E-14-2.61290E-13
 -1       944 1.96670E+01 4.75895E-01 1.46661E-04-3.29824E-01 1.89669E-13 1.67743E-13
 -1       945 2.01025E+01 8.11253E-02 4.24414E-07-2.74196E-01 2.49077E-14 3.01883E-14
 -1       946 1.82595E+01-1.34473E+00 1.47501E-02 3.53654E+00-5.31324E-14-1.08827E-13
 -1       947 1.46103E+01 2.39742E-01 2.15566E-02 3.00926E+00-2.45373E-14-1.25885E-13
 -1       948 1.96045E+01 6.08495E-01-1.58663E-04 3.32361E-01 5.33870E-14-5.66448E-14
 -1       949 2.42754E+01-3.07148E+00 4.31264E-04 7.75725E-01 1.50463E-13 3.03819E-13
 -1       950 2.02911E+01 1.35982E+00-1.36406E-04 1.91362E-01 9.10542E-14-3.55687E-14
 -1       951 1.21254E+01 1.19295E+00 5.14681E-02 4.00894E-01 7.50710E-14-2.92776E-13
 -1       952 2.03021E+01 1.23256E+00 6.06937E-04-2.92833E-01 3.97922E-14-5.52759E-14
 -1       953 1.98168E+01 3.68995E-01-1.85515E-04-4.12870E-01 8.52921E-14-4.16094E-13
 -1       954 2.03534E+01 9.03224E-01 1.67839E-05-1.72326E-01 2.12386E-14-4.06118E-14
 -1       955 1.47301E+01 1.51322E+00 1.03707E-02-3.77426E-01-1.76335E-14 4.63431E-15
 -1       956 2.27179E+01-2.69843E+00-9.45607E-03-1.42827E+00 2.01853E-13-2.10001E-13
 -1       957 2.03001E+01 1.59210E-01-5.18599E-06 1.30366E-01 1.73373E-14-4.59996E-15
 -1       958 2.02420E+01 1.06049E-01-4.29373E-06 1.65129E-01 3.74529E-14-4.36702E-15
 -1       959 2.01769E+01 9.30401E-02-2.92640E-06 1.93258E-01 6.78309E-15 5.10775E-14
 -1       960 2.01069E+01 1.09619E-01-1.33335E-06 2.21067E-01-1.29039E-14 6.87934E-14
 -1       961 2.00328E+01 1.46914E-01-7.48012E-06 2.53958E-01-9.34679E-14 7.13140E-14
 -1       962 1.99548E+01 1.96980E-01-1.19803E-05 2.96734E-01-4.08306E-14 1.18810E-13
 -1       963 1.98735E+01 2.51505E-01-1.67815E-05 3.53919E-01 3.37499E-14 1.96548E-13
 -1       964 1.97906E+01 3.00792E-01-2.03469E-05 4.29878E-01-1.30919E-14 2.48551E-13
 -1       965 1.97107E+01 3.32580E-01-2.49412E-05 5.29038E-01-9.98798E-14 3.86950E-13
 -1       966 1.96422E+01 3.30838E-01-3.12995E-05 6.55826E-01-9.08963E-14 3.54253E-13
 -1       967 1.96001E+01 2.74712E-01-4.29449E-05 8.14133E-01 2.54634E-14 3.15765E-13
 -1       968 1.96087E+01 1.37938E-01-6.91617E-05 1.00585E+00 2.02149E-14 3.23341E-13
 -1       969 1.97055E+01-1.10638E-01-1.63701E-04 1.22759E+00-4.19494E-14 2.46597E-13
 -1       970 1.99462E+01-5.03597E-01-1.47694E-04 1.46372E+00 6.06429E-14 2.28296E-13
 -1       971 2.04075E+01-1.06661E+00-3.67468E-04 1.67452E+00 6.64359E-14 3.05203E-13
 -1       972 2.12063E+01-1.78136E+00 4.45512E-03 1.76187E+00-2.58708E-14 2.45300E-13
 -1       973 2.02802E+01 1.43192E+00 2.21289E-05-6.35908E-02 4.60698E-14-7.20830E-14
 -1       974 2.15070E+01-2.01017E+00 1.54114E-03-1.74166E+00-2.46232E-14-2.77981E-13
 -1       975 2.05981E+01-1.25351E+00-1.31297E-04-1.71876E+00-1.98571E-13-4.57811E-14
 -1       976 2.00595E+01-6.40449E-01-4.95945E-04-1.53007E+00-6.99401E-14-1.13756E-14
 -1       977 1.97647E+01-1.94385E-01-1.93720E-04-1.29485E+00 2.94591E-14-1.13509E-13
 -1       978 1.96336E+01 9.98021E-02-3.13127E-05-1.06346E+00-7.26707E-14-2.36224E-13
 -1       979 1.96033E+01 2.75562E-01 1.61174E-06-8.58728E-01-6.25998E-14-8.08502E-14
 -1       980 1.96312E+01 3.66137E-01 5.80431E-05-6.85723E-01-1.08178E-13 2.31091E-13
 -1       981 1.96857E+01 4.01594E-01 4.99782E-05-5.43714E-01-1.31530E-13-4.97909E-14
 -1       982 1.73981E+01-9.70142E-01 1.45088E-02-3.58344E+00 1.83718E-13 7.24143E-13
 -1       983 2.03627E+01 7.22995E-01 3.84241E-04 1.20667E-01 3.99874E-14 5.78184E-15
 -1       984 1.92568E+01 7.77923E-01-1.58332E-05-4.90847E-01 4.83724E-14 1.53906E-14
 -1       985 1.94986E+01 6.15561E-01-9.87500E-06-4.36384E-01 1.07274E-13 6.24942E-14
 -1       986 1.84994E+01 1.13891E+00-8.89751E-05-5.85689E-01-1.56046E-13 3.14412E-14
 -1       987 1.79122E+01 1.31348E+00-4.12513E-04-6.16779E-01-9.08173E-14-1.28326E-13
 -1       988 1.71091E+01 1.45456E+00 2.32019E-04-6.37851E-01-1.22971E-13-1.83913E-13
 -1       989 1.60888E+01 1.53102E+00 4.55262E-03-5.34169E-01-1.06781E-13-6.07347E-14
 -1       990 1.86773E+01 1.10499E+00-1.61732E-04 5.99703E-01 1.16245E-13 1.31975E-13
 -1       991 2.03756E+01 4.43861E-01 4.61110E-05 1.13666E-02 2.14992E-14-7.44611E-15
 -1       992 1.74315E+01 1.42174E+00-4.09441E-05 6.92816E-01-2.22639E-13-4.13484E-14
 -1       993 1.90678E+01 9.33631E-01-4.19623E-05 5.39335E-01 2.32875E-13 3.98303E-14
 -1       994 1.93538E+01 7.78033E-01-1.59020E-05 4.70773E-01 1.34429E-13-5.52022E-14
 -1       995 1.40226E+01 9.39091E-01 1.53520E-02-1.85094E+00-2.07165E-13 1.44229E-13
 -1       996 1.89336E+01 9.55248E-01-3.21260E-05-5.42536E-01-1.05023E-13 7.53915E-14
 -1       997 1.95223E+01 6.34508E-01-9.26601E-05 1.47650E-01-5.40211E-14 5.74903E-13
 -1       998 1.99333E+01 2.50489E-01 3.98445E-06-2.98003E-01 6.98969E-15 8.94092E-14
 -1       999 2.02904E+01 1.36517E+00 1.27365E-04-1.89292E-01 4.34726E-14-3.14520E-14
 -1      1000 2.38546E+01-3.09293E+00 9.34094E-03-1.09636E+00 6.04133E-14-2.98125E-13
 -1      1001 1.40053E+01 1.20248E+00 1.39130E-02 1.24591E+00 1.24385E-13-2.26168E-13
 -1      1002 1.94928E+01 6.87202E-01 6.09499E-04 3.97967E-01 2.72788E-14-3.97448E-14
 -1      1003 2.03084E+01 1.22063E+00-2.62580E-05 2.95177E-01 1.01098E-13-4.51641E-15
 -1      1004 1.81487E+01 1.27511E+00-6.63890E-04 6.51274E-01-3.15471E-13 2.06476E-13
 -1      1005 2.03768E+01 6.38793E-01-3.34751E-04-6.67445E-02 2.51713E-14-3.64792E-14
 -1      1006 1.50589E+01 1.41421E-01 2.46668E-02-3.06355E+00-1.19552E-13 4.80240E-13
 -1      1007 2.03472E+01 2.65806E-01-1.27685E-05 8.16438E-02 4.57252E-15-3.18903E-14
 -1      1008 2.02331E+01 1.55742E-01-6.59235E-06-1.54637E-01 6.75471E-14 1.65191E-14
 -1      1009 1.47376E+01 1.50800E+00 4.75727E-03 3.01674E-01-6.55307E-14-1.57035E-13
 -1      1010 2.00243E+01 1.73324E-01-1.80701E-05-2.65429E-01-2.54506E-14 4.52605E-14
 -1      1011 2.03696E+01 1.03338E+00 4.47264E-06 7.09020E-04 4.49482E-14-5.12225E-14
 -1      1012 2.03594E+01 4.51128E-01 3.43444E-06-7.57030E-04 1.75792E-14-3.51089E-14
 -1      1013 2.00327E+01-2.01117E+00-1.53011E-02 2.98370E+00 7.81233E-15 3.30932E-13
 -1      1014 1.96815E+01 4.72441E-01-5.27590E-06-3.84157E-01 9.92636E-14 1.86700E-13
 -1      1015 1.63745E+01 1.54862E+00 3.47261E-03 5.48900E-01-2.22171E-13 8.93773E-14
 -1      1016 1.96327E+01-1.81161E+00 3.19910E-03-3.16040E+00 7.51314E-14 9.65990E-14
 -1      1017 1.98222E+01 3.50427E-01 3.25797E-06-3.37551E-01 5.09919E-14 1.28777E-13
 -1      1018 1.94908E+01 5.55566E-01 1.88978E-04-3.56300E-01 8.89276E-16 3.87757E-14
 -1      1019 1.70826E+01-3.40127E-01 7.52218E-03 3.02122E+00 6.38727E-14-6.33080E-14
 -1      1020 1.93702E+01 6.55006E-01-3.76482E-04-1.84099E-01 1.30998E-13 1.11329E-13
 -1      1021 2.03693E+01 1.00188E+00-1.80376E-04 7.30484E-02 6.04023E-14-4.78192E-14
 -1      1022 2.01702E+01 9.79063E-02-4.97259E-06-2.11491E-01 8.39850E-14 1.90602E-14
 -1      1023 2.02318E+01 1.08566E-01 1.03346E-05-1.81916E-01 1.52188E-14-1.45501E-14
 -1      1024 2.03074E+01 1.52573E-01-3.64888E-05 9.55994E-02 1.12938E-14-7.07915E-14
 -1      1025 2.02368E+01 1.16549E-01-4.19815E-05 1.18162E-01 3.54482E-14-6.65593E-14
 -1      1026 2.01560E+01 1.19942E-01 2.15486E-06 1.39267E-01-3.04594E-15-2.04977E-14
 -1      1027 2.00666E+01 1.52460E-01 2.24343E-06 1.63484E-01-3.37237E-14-1.75824E-14
 -1      1028 1.99686E+01 2.05517E-01-3.20137E-05 1.95120E-01 4.26835E-14 1.64005E-13
 -1      1029 1.98612E+01 2.71668E-01-5.30864E-05 2.39049E-01-2.79919E-14 1.31381E-13
 -1      1030 1.97442E+01 3.41968E-01-5.54366E-05 3.00294E-01 1.71795E-14 7.36522E-14
 -1      1031 1.96181E+01 4.06274E-01-6.26994E-05 3.85159E-01 6.24999E-14 6.95037E-14
 -1      1032 1.94859E+01 4.51280E-01-7.16183E-05 5.01367E-01-5.99024E-14 1.65524E-13
 -1      1033 1.93550E+01 4.59209E-01-8.67128E-05 6.58359E-01-5.80164E-14 3.69514E-13
 -1      1034 1.92391E+01 4.06224E-01-1.28954E-04 8.67256E-01-4.40827E-14 2.33149E-13
 -1      1035 1.91638E+01 2.60686E-01-1.91227E-04 1.13969E+00-3.68233E-14 1.85063E-13
 -1      1036 1.91680E+01-1.59041E-02-6.41697E-04 1.48460E+00 7.97390E-14 2.30679E-13
 -1      1037 1.93310E+01-4.79374E-01 2.69666E-04 1.90243E+00 6.67688E-14 2.30155E-13
 -1      1038 1.97242E+01-1.16828E+00 4.39296E-03 2.37221E+00 2.91824E-15 2.69106E-13
 -1      1039 2.03707E+01 1.00545E+00-2.93651E-05-7.52845E-02-1.38265E-15-4.00083E-14
 -1      1040 1.99804E+01-1.42006E+00 5.64464E-03-2.47394E+00-1.76692E-14-1.67510E-13
 -1      1041 1.94301E+01-6.48212E-01-2.44019E-03-2.02697E+00-1.69548E-14-4.58664E-14
 -1      1042 1.92009E+01-1.13714E-01-9.41627E-04-1.60056E+00 3.57046E-14-2.23537E-14
 -1      1043 1.91623E+01 2.17116E-01-2.22526E-04-1.22893E+00-2.01350E-14-9.58877E-14
 -1      1044 1.92204E+01 4.03840E-01 2.27285E-05-9.34072E-01-4.07582E-14 1.07873E-13
 -1      1045 1.93254E+01 4.93368E-01 2.04131E-04-7.07353E-01-4.75422E-14 9.05951E-14
 -1      1046 1.94482E+01 5.16035E-01-2.59348E-04-5.32383E-01-2.04370E-13-7.62844E-14
 -1      1047 2.03638E+01 2.40662E-01-1.41124E-05 6.70456E-02 2.98541E-14-9.19376E-14
 -1      1048 1.67585E+01 1.42650E-01 5.04946E-03-2.51891E+00-1.58442E-13 5.24368E-13
 -1      1049 1.73491E+01 1.31332E+00 8.70792E-05 7.74755E-02-8.77821E-14-1.89003E-13
 -1      1050 1.80421E+01 1.18792E+00-1.62444E-04-8.39022E-02-4.29639E-14-1.57316E-13
 -1      1051 1.90727E+01 8.76942E-01-9.16927E-06 2.38885E-01 1.81070E-13 3.15422E-13
 -1      1052 1.57951E+01 8.85503E-01 8.54716E-03-1.82275E+00-3.26765E-13 2.26268E-13
 -1      1053 1.87073E+01 1.02883E+00 1.43455E-04 2.15022E-01 1.50191E-13 2.54029E-13
 -1      1054 2.03309E+01 2.71616E-01 7.57647E-05-8.50996E-02 3.63131E-14-3.73134E-14
 -1      1055 1.89590E+01 8.74690E-01-1.14916E-04-2.24139E-01-2.79000E-15 9.18016E-14
 -1      1056 1.98407E+01 3.22230E-01-1.44064E-05-2.09031E-01-2.51631E-14 1.75303E-14
 -1      1057 1.93284E+01 7.17437E-01 9.59965E-05 2.72273E-02-9.25819E-14 4.10532E-13
 -1      1058 2.01018E+01 1.21324E-01-1.72697E-05-2.37646E-01-6.85687E-16 7.08879E-14
 -1      1059 1.93755E+01 7.22603E-01-1.71671E-04 2.19274E-01-4.17943E-14 3.76045E-13
 -1      1060 2.02864E+01 1.62542E-01 3.58481E-05-1.42437E-01 6.68014E-14-1.19874E-14
 -1      1061 2.03745E+01 8.75140E-01-1.72181E-05 1.08990E-01 5.95899E-14-7.66230E-15
 -1      1062 1.82290E+01 1.17559E+00-1.60242E-04 1.54242E-01-2.64194E-13-3.73220E-14
 -1      1063 2.03994E+01 3.96224E-01-6.20681E-05 2.75035E-02 1.26856E-15-1.35319E-13
 -1      1064 1.92647E+01 7.15906E-01-9.00857E-05-2.40428E-01 8.77646E-14 1.23479E-13
 -1      1065 1.75852E+01 1.31356E+00 1.02135E-03 3.39467E-02-1.88562E-13 1.19389E-13
 -1      1066 1.85620E+01 1.03632E+00-1.45389E-04-1.77071E-01-4.62509E-14-1.03081E-14
 -1      1067 1.58781E+01 6.86804E-01 1.96236E-03 2.04888E+00-1.31516E-14-2.15163E-13
 -1      1068 1.95025E+01 5.67906E-01-6.77033E-05-2.37950E-01 1.46955E-13 4.10818E-14
 -1      1069 1.65691E+01 1.34012E+00-1.86471E-03 4.00670E-01-1.41090E-13-1.49950E-13
 -1      1070 2.04131E+01 7.12523E-01-2.45931E-04-1.22227E-02 1.30668E-14 5.55721E-16
 -1      1071 2.02382E+01 1.20655E-01-1.34620E-05-1.38838E-01 1.24781E-14 6.74214E-14
 -1      1072 2.04067E+01 5.74458E-01 2.17245E-04-1.68830E-02 9.08139E-15-1.15913E-13
 -1      1073 2.30447E+01-2.63435E+00 3.56469E-02 1.15948E+00 1.75349E-13 3.35915E-13
 -1      1074 1.55066E+01 1.34458E+00 8.98957E-03 7.44294E-01-1.00128E-13-2.26966E-13
 -1      1075 1.67687E+01 1.36311E+00-4.46728E-03-3.27168E-01-2.38613E-13 1.51145E-13
 -1      1076 1.83835E+01-7.39582E-01 4.35612E-03-2.80688E+00-4.46768E-14 3.91599E-13
 -1      1077 1.96900E+01 4.35617E-01-4.73613E-05-2.25518E-01 3.97753E-14 2.63355E-14
 -1      1078 1.99641E+01 2.30711E-01-7.04171E-05-1.91492E-01-1.27581E-14 6.13376E-14
 -1      1079 1.92470E+01 6.56750E-01-3.61491E-04-3.74540E-01-9.83713E-14-1.52923E-13
 -1      1080 2.03970E+01 5.63853E-01 2.75651E-04 1.84284E-02 4.14670E-14-3.45019E-14
 -1      1081 2.01594E+01 1.25642E-01 5.46362E-05-1.58282E-01 5.22605E-14 8.97160E-14
 -1      1082 2.04125E+01 7.14061E-01 3.66545E-04 1.39062E-02 8.12653E-14-5.88096E-15
 -1      1083 2.02062E+01 1.29437E-01-1.06316E-05 5.49743E-02 1.92346E-14-6.49721E-14
 -1      1084 2.01118E+01 1.50053E-01-2.09236E-05 6.80457E-02-1.19541E-14-2.47931E-14
 -1      1085 2.00053E+01 2.00466E-01 1.83784E-04 8.70783E-02 6.64084E-14 5.18754E-15
 -1      1086 1.98840E+01 2.72085E-01 1.51435E-04 1.14703E-01 4.84001E-14-7.94946E-14
 -1      1087 1.97474E+01 3.55988E-01 1.26833E-04 1.55307E-01 8.98018E-15 5.30906E-14
 -1      1088 1.95925E+01 4.45338E-01 1.76884E-04 2.15817E-01 3.15781E-14 9.55525E-14
 -1      1089 1.94168E+01 5.30074E-01 2.47734E-04 3.04560E-01 5.20182E-14 9.48927E-14
 -1      1090 1.92197E+01 5.97037E-01 3.43592E-04 4.32970E-01 7.09280E-14 1.28625E-13
 -1      1091 1.90033E+01 6.28140E-01 4.45660E-04 6.16284E-01-3.60640E-14 2.31166E-13
 -1      1092 1.87755E+01 5.98190E-01 5.58831E-04 8.74275E-01-5.66347E-14 2.78208E-13
 -1      1093 1.85523E+01 4.70248E-01 2.57624E-05 1.23318E+00-5.66587E-14 1.39452E-13
 -1      1094 1.83698E+01 2.15193E-01 1.48641E-03 1.69652E+00 8.24498E-15 2.23888E-15
 -1      1095 1.82912E+01-3.00343E-01-4.16391E-03 2.33038E+00-7.00015E-15-8.74360E-14
 -1      1096 2.03065E+01 1.58971E-01-2.11087E-04-1.13045E-01 4.82531E-15-2.13958E-14
 -1      1097 2.03570E+01 2.06848E-01 1.94583E-05 3.27595E-02 3.88811E-14-4.07166E-14
 -1      1098 1.83405E+01 1.16050E-01-2.14651E-04-1.86050E+00-3.00605E-14 1.51877E-13
 -1      1099 1.84888E+01 4.35484E-01 2.58782E-05-1.34619E+00-1.57003E-13-1.74937E-13
 -1      1100 1.87078E+01 6.03186E-01 2.58573E-04-9.62214E-01-3.07689E-14-3.63294E-13
 -1      1101 1.89402E+01 6.66913E-01 7.10995E-04-6.76487E-01-7.10642E-14-3.36690E-13
 -1      1102 1.91106E+01 6.79310E-01 4.29274E-03-4.99958E-01-7.81594E-14-3.50923E-13
 -1      1103 2.04027E+01 3.34074E-01 1.13370E-05 1.86695E-02 4.81565E-14-1.25618E-14
 -1      1104 1.78472E+01 1.05155E+00-1.24806E-04 5.56632E-01-7.16083E-14 4.72051E-15
 -1      1105 1.90341E+01 8.23738E-01-2.09814E-03-1.00812E-01 1.80418E-13 4.44407E-13
 -1      1106 1.71349E+01 6.19589E-01-7.59965E-03-1.73878E+00-3.09830E-13 3.19529E-13
 -1      1107 2.00690E+01 1.64158E-01 2.84895E-05-1.74802E-01-1.39533E-14 7.09588E-14
 -1      1108 1.88066E+01-8.63609E-01 1.31192E-02 2.73537E+00 1.11567E-13-9.99526E-16
 -1      1109 1.84820E+01 1.00403E+00-1.45095E-03-2.09859E-01-7.92802E-14 3.86097E-13
 -1      1110 2.03825E+01 3.48720E-01-3.46556E-05-4.66205E-02 4.32897E-14-1.03939E-13
 -1      1111 1.97459E+01 3.80071E-01-9.49201E-05-8.12269E-02 4.76976E-14-9.13410E-14
 -1      1112 2.02896E+01 1.44747E-01 1.05903E-04 4.43571E-02 2.28567E-14-2.58552E-14
 -1      1113 1.87672E+01 8.78960E-01-3.65121E-04 1.33661E-01 8.15035E-14-3.56595E-14
 -1      1114 2.04102E+01 6.43264E-01-8.94347E-05 2.07449E-02 5.50329E-14-1.04691E-13
 -1      1115 1.83605E+01 9.84901E-01-3.54949E-04 3.00122E-01-3.01268E-14-7.40365E-14
 -1      1116 1.90932E+01 7.53577E-01-2.69172E-04 3.00214E-02 4.59781E-14 8.74699E-14
 -1      1117 1.79869E+01 1.08762E+00 1.79788E-04-4.29805E-01-1.29119E-13 4.65382E-13
 -1      1118 1.93563E+01 6.22553E-01-1.84520E-04-3.12359E-02 4.17441E-14-1.30824E-14
 -1      1119 1.75085E+01 1.03566E+00 1.19097E-03-8.47710E-01-2.95186E-13 2.18888E-13
 -1      1120 2.02989E+01 1.51122E-01 5.76423E-05-6.46361E-02 6.52674E-16-8.54765E-15
 -1      1121 1.95701E+01 4.95728E-01-1.25624E-04-6.48604E-02 1.02923E-13-5.40859E-14
 -1      1122 2.04205E+01 4.95050E-01 2.31823E-04 4.01146E-03-3.31656E-14 3.61536E-14
 -1      1123 2.03511E+01 2.32964E-01-5.95621E-05-8.46766E-02 2.71828E-14-9.77848E-14
 -1      1124 1.73554E+01 1.02213E+00-1.26787E-03 9.40814E-01-9.39720E-14-7.05271E-14
 -1      1125 1.98925E+01 2.80458E-01-1.15881E-04-8.67864E-02-6.82158E-15 9.90628E-15
 -1      1126 2.02190E+01 1.30878E-01 4.38378E-06-7.63974E-02 1.18868E-14-1.23774E-14
 -1      1127 2.04221E+01 4.95754E-01 2.82460E-05-2.99133E-03 4.78881E-14 2.76849E-15
 -1      1128 1.74307E+01 2.21092E-01-2.76261E-03 2.13145E+00-1.34712E-14-6.44667E-15
 -1      1129 2.01587E+01 1.42763E-01-6.03135E-06-2.32214E-02 2.38947E-15 3.73407E-15
 -1      1130 2.00527E+01 1.83551E-01-6.87765E-05-1.88001E-02 1.50713E-14 3.00105E-14
 -1      1131 2.03858E+01 2.65409E-01-1.53418E-07-1.37449E-02-2.62383E-14 5.09420E-14
 -1      1132 2.04102E+01 3.64514E-01-5.52193E-05-1.04731E-02 1.30446E-14 5.65776E-14
 -1      1133 2.79448E+01 9.08065E+00 2.32384E+00-6.69603E+00-2.65343E-14 2.27401E-13
 -1      1134 2.05364E+01 6.22373E+00 2.09347E-01-3.90456E+00-8.77076E-15-1.62453E-13
 -1      1135 1.94289E+01 5.85122E+00 7.51133E-02-2.88951E+00-4.17721E-15-2.82526E-13
 -1      1136 1.90256E+01 5.72582E+00 6.04461E-02-2.23692E+00-1.63758E-15-3.14111E-13
 -1      1137 1.88438E+01 5.67053E+00 5.79655E-02-1.70280E+00 1.21431E-16-3.16231E-13
 -1      1138 1.87528E+01 5.64255E+00 5.57236E-02-1.23518E+00 9.19403E-16-2.95037E-13
 -1      1139 1.87060E+01 5.62800E+00 5.39335E-02-8.05052E-01 2.61466E-15-2.59890E-13
 -1      1140 1.86834E+01 5.62083E+00 5.26838E-02-3.93238E-01 1.50205E-15-2.26030E-13
 -1      1141 1.86770E+01 5.61880E+00 5.22863E-02 8.38372E-03 2.43121E-15-1.91023E-13
 -1      1142 1.86846E+01 5.62121E+00 5.28047E-02 4.10432E-01 5.64284E-15-1.63849E-13
 -1      1143 1.87084E+01 5.62878E+00 5.42024E-02 8.23641E-01 4.05969E-15-1.27851E-13
 -1      1144 1.87568E+01 5.64398E+00 5.64138E-02 1.25648E+00 5.76882E-15-6.44831E-14
 -1      1145 1.88488E+01 5.67224E+00 5.86049E-02 1.72871E+00 5.96918E-15 1.01334E-14
 -1      1146 1.90311E+01 5.72748E+00 6.05030E-02 2.27006E+00 6.72379E-15 1.19601E-13
 -1      1147 1.94257E+01 5.84847E+00 6.91918E-02 2.93015E+00 9.18710E-15 2.82512E-13
 -1      1148 2.04425E+01 6.17867E+00 1.52993E-01 3.87936E+00 5.71765E-15 5.49040E-13
 -1      1149 2.51997E+01 7.98869E+00 1.42920E+00 5.84503E+00-3.88578E-16 9.78023E-13
 -1      1150 2.87913E+01 3.61433E+00 1.27061E+00-4.21551E+00-8.38496E-14 4.52305E-13
 -1      1151 2.02073E+01-1.77628E-01-6.16073E-01-1.10163E-01-3.00385E-14 2.67730E-13
 -1      1152 1.88115E+01-9.64042E-02-2.36336E-01 6.23794E-02-4.12691E-15 4.98924E-14
 -1      1153 1.84765E+01-4.81370E-02-5.96113E-02 4.03733E-02-2.02095E-15-7.28237E-14
 -1      1154 1.84208E+01-2.47693E-02-1.52947E-02 2.66124E-02-2.98134E-15-1.60167E-13
 -1      1155 1.85029E+01-1.33089E-02-5.20172E-03 1.88518E-02-1.79412E-14-2.20574E-13
 -1      1156 1.86518E+01-6.99833E-03-1.85723E-03 1.38877E-02 3.50674E-15-2.33358E-13
 -1      1157 1.88293E+01-3.40726E-03-2.61275E-05 1.04490E-02-2.36101E-15-2.62302E-13
 -1      1158 1.90142E+01-1.40792E-03 1.01643E-03 7.92639E-03 3.55957E-15-3.33557E-13
 -1      1159 1.91957E+01-4.08458E-04 1.40345E-03 6.02708E-03-2.97296E-15-3.79479E-13
 -1      1160 1.93696E+01-7.07562E-05 1.26201E-03 4.60639E-03 1.74925E-15-4.76006E-13
 -1      1161 1.95361E+01-1.81971E-04 7.23759E-04 3.59128E-03 2.67933E-14-4.74354E-13
 -1      1162 1.96985E+01-5.91590E-04-9.28514E-05 2.94646E-03 9.99501E-15-5.99701E-13
 -1      1163 1.98622E+01-1.17556E-03-1.07637E-03 2.65819E-03 9.07634E-15-6.39639E-13
 -1      1164 2.00340E+01-1.81114E-03-2.10324E-03 2.72371E-03-3.24649E-14-6.80855E-13
 -1      1165 2.02208E+01-2.35563E-03-3.01284E-03 3.14001E-03-2.98383E-14-7.33638E-13
 -1      1166 2.04287E+01-2.62694E-03-3.57915E-03 3.88697E-03-8.85468E-16-6.68499E-13
 -1      1167 2.06613E+01-2.38846E-03-3.48314E-03 4.90074E-03 1.18608E-14-6.42195E-13
 -1      1168 2.09178E+01-1.34516E-03-2.29625E-03 6.03369E-03-2.14072E-14-7.99747E-13
 -1      1169 2.11894E+01 8.34633E-04 5.02062E-04 7.00007E-03 2.10464E-14-9.10394E-13
 -1      1170 2.14563E+01 4.44824E-03 5.43178E-03 7.31559E-03-3.30210E-15-7.78687E-13
 -1      1171 2.16842E+01 9.60879E-03 1.27863E-02 6.25829E-03-1.20531E-14-6.20851E-13
 -1      1172 2.18221E+01 1.59929E-02 2.22224E-02 2.91109E-03 1.74288E-14-5.07080E-13
 -1      1173 2.18050E+01 2.25139E-02 3.21973E-02-3.61332E-03 9.10296E-16-5.26019E-13
 -1      1174 2.15644E+01 2.70620E-02 3.95074E-02-1.36677E-02 2.43694E-14-3.84864E-13
 -1      1175 2.10502E+01 2.66569E-02 3.94873E-02-2.63121E-02-3.83435E-14-3.64327E-13
 -1      1176 2.02629E+01 1.84019E-02 2.75522E-02-3.86352E-02 4.32837E-14-4.57585E-13
 -1      1177 1.92847E+01 1.39321E-03 2.25872E-03-4.58657E-02-8.57259E-15-2.66544E-13
 -1      1178 1.82909E+01-2.11897E-02-3.15253E-02-4.30206E-02-8.60423E-16-8.36969E-14
 -1      1179 1.75158E+01-4.17974E-02-6.23251E-02-2.79378E-02-5.63265E-15-3.37716E-14
 -1      1180 1.71733E+01-5.16071E-02-7.69617E-02-3.75996E-03-4.85592E-14-1.97629E-13
 -1      1181 1.73655E+01-4.59721E-02-6.85482E-02 2.16870E-02 6.22419E-15-4.03150E-13
 -1      1182 1.80337E+01-2.76271E-02-4.11251E-02 3.98934E-02 3.39793E-14-1.34448E-13
 -1      1183 1.89874E+01-4.71087E-03-6.84218E-03 4.61830E-02-5.11319E-14-1.47486E-13
 -1      1184 1.99886E+01 1.44227E-02 2.16875E-02 4.13730E-02 3.76901E-15-5.67997E-13
 -1      1185 2.08398E+01 2.52353E-02 3.75237E-02 2.99441E-02 1.84494E-14-5.83918E-13
 -1      1186 2.14313E+01 2.76179E-02 4.05379E-02 1.69662E-02 3.36072E-14-6.09394E-13
 -1      1187 2.17424E+01 2.41270E-02 3.47783E-02 5.96273E-03 3.05535E-14-3.45514E-13
 -1      1188 2.18123E+01 1.78645E-02 2.51205E-02-1.61410E-03 2.49820E-14-2.31996E-14
 -1      1189 2.17074E+01 1.12220E-02 1.52413E-02-5.83575E-03-4.35162E-14-1.28125E-13
 -1      1190 2.14957E+01 5.54757E-03 7.10752E-03-7.49976E-03-4.63630E-14-4.09377E-13
 -1      1191 2.12334E+01 1.33265E-03 1.32176E-03-7.54133E-03 1.38605E-14-7.27690E-13
 -1      1192 2.09609E+01-1.46252E-03-2.31188E-03-6.73582E-03 5.97519E-14-6.13554E-13
 -1      1193 2.07039E+01-3.13128E-03-4.33544E-03-5.60869E-03 8.98519E-15-2.87398E-13
 -1      1194 2.04769E+01-4.04130E-03-5.37505E-03-4.44573E-03 1.77230E-14-5.13643E-13
 -1      1195 2.02872E+01-4.53692E-03-6.02089E-03-3.32366E-03 1.08088E-13-2.19814E-13
 -1      1196 2.01392E+01-4.87299E-03-6.70603E-03-2.11410E-03-9.83328E-15-6.40404E-14
 -1      1197 2.00376E+01-5.04130E-03-7.25930E-03-4.10608E-04 3.06854E-14 2.62379E-13
 -1      1198 1.99900E+01-5.33622E-03-5.28582E-03 2.67080E-03-2.93098E-14 2.16982E-13
 -1      1199 1.99924E+01 2.67516E-03 5.80280E-03 2.59270E-03 1.46149E-14 2.96335E-13
 -1      1200 2.77715E+01 5.25464E-01 3.77005E-01 1.96594E+00-1.81313E-14 1.29713E-12
 -1      1201 2.00644E+01-6.62152E-02-5.73457E-01 1.29554E-01 1.17614E-15 1.22991E-12
 -1      1202 1.88857E+01-4.06115E-02-1.93198E-01 1.95111E-02 5.29264E-15 1.08297E-12
 -1      1203 1.85047E+01-2.14759E-02-5.05771E-02 1.59305E-03 5.81826E-15 9.64021E-13
 -1      1204 1.84324E+01-1.25063E-02-1.34735E-02-3.88554E-03 7.14749E-15 9.33309E-13
 -1      1205 1.85076E+01-7.58302E-03-4.80608E-03-5.26436E-03 3.89478E-15 9.21121E-13
 -1      1206 1.86526E+01-4.61848E-03-2.20524E-03-5.34821E-03-4.80209E-15 9.25071E-13
 -1      1207 1.88273E+01-2.80626E-03-8.00610E-04-4.93532E-03-5.47565E-15 1.00055E-12
 -1      1208 1.90098E+01-1.75584E-03 6.00707E-05-4.27142E-03-7.94102E-15 9.48032E-13
 -1      1209 1.91891E+01-1.25617E-03 4.08122E-04-3.46345E-03 9.22138E-15 8.13665E-13
 -1      1210 1.93611E+01-1.18858E-03 2.71599E-04-2.57018E-03 8.81749E-15 5.91100E-13
 -1      1211 1.95265E+01-1.49257E-03-3.11708E-04-1.62445E-03 1.25407E-14 5.08415E-13
 -1      1212 1.96901E+01-2.15112E-03-1.33106E-03-6.41831E-04 1.17132E-15 5.34665E-13
 -1      1213 1.98597E+01-3.18446E-03-2.82075E-03 3.72794E-04 2.97836E-15 5.60765E-13
 -1      1214 2.00468E+01-4.64718E-03-4.86839E-03 1.41763E-03-3.88735E-15 5.82985E-13
 -1      1215 2.02662E+01-6.62455E-03-7.62074E-03 2.48185E-03 1.12456E-14 5.12282E-13
 -1      1216 2.05375E+01-9.22040E-03-1.12845E-02 3.52349E-03-2.40007E-14 4.07722E-13
 -1      1217 2.08856E+01-1.25219E-02-1.61072E-02 4.42736E-03 8.57289E-15 4.05230E-13
 -1      1218 2.13420E+01-1.65116E-02-2.22995E-02 4.92684E-03 1.11647E-14 2.08260E-13
 -1      1219 2.19458E+01-2.08714E-02-2.98116E-02 4.46693E-03-1.64591E-14 3.63558E-13
 -1      1220 2.27424E+01-2.45917E-02-3.77855E-02 1.99083E-03-2.44557E-14 6.03025E-13
 -1      1221 2.37771E+01-2.52911E-02-4.33937E-02-4.31083E-03 1.21322E-14 8.53793E-13
 -1      1222 2.50788E+01-1.83190E-02-3.98262E-02-1.70362E-02 7.11857E-14 3.56812E-13
 -1      1223 2.66193E+01 3.63345E-03-1.40954E-02-3.85746E-02-6.40758E-14 3.21382E-13
 -1      1224 2.82387E+01 4.78453E-02 5.15403E-02-6.72948E-02 5.14142E-14 5.37868E-13
 -1      1225 2.95353E+01 1.11157E-01 1.64747E-01-8.91651E-02-5.48173E-15 7.45647E-13
 -1      1226 2.97924E+01 1.60271E-01 2.86376E-01-6.97522E-02-2.71103E-14 9.12860E-13
 -1      1227 2.81670E+01 1.27835E-01 2.98022E-01 3.07480E-02 2.69125E-14 3.98237E-13
 -1      1228 2.44218E+01-2.40042E-02 7.06543E-02 1.95477E-01-3.15260E-14 5.07372E-13
 -1      1229 1.99300E+01-1.92379E-01-3.26806E-01 2.97544E-01-1.60965E-14 6.88338E-13
 -1      1230 1.74744E+01-2.09591E-01-5.67150E-01 2.00560E-01-2.71103E-14 5.32095E-13
 -1      1231 1.88994E+01-7.56950E-02-4.20870E-01-4.32490E-02 5.71904E-14 1.13964E-13
 -1      1232 2.30968E+01 5.05561E-02-5.66875E-02-2.24862E-01-8.70831E-15 2.54685E-13
 -1      1233 2.72542E+01 8.83891E-02 2.00430E-01-2.39086E-01-4.75089E-14 4.33736E-13
 -1      1234 2.95023E+01 7.04889E-02 2.42275E-01-1.47126E-01 9.22526E-15 2.71269E-13
 -1      1235 2.97110E+01 3.87709E-02 1.62585E-01-4.88425E-02-3.80364E-14 4.02222E-13
 -1      1236 2.86382E+01 1.39524E-02 6.88239E-02 1.23234E-02 5.70676E-14-5.67602E-15
 -1      1237 2.70652E+01-7.41616E-04 7.68233E-03 3.73254E-02 6.11002E-14-2.50078E-13
 -1      1238 2.54798E+01-7.62553E-03-2.03926E-02 4.11182E-02 1.16702E-14-5.94483E-13
 -1      1239 2.41009E+01-9.84153E-03-2.81806E-02 3.58626E-02-3.26555E-14-6.40044E-14
 -1      1240 2.29872E+01-9.68098E-03-2.66622E-02 2.82590E-02-2.22738E-14 3.71619E-13
 -1      1241 2.21232E+01-8.53383E-03-2.20632E-02 2.11703E-02-4.78569E-14 6.88789E-13
 -1      1242 2.14678E+01-7.15140E-03-1.72067E-02 1.54954E-02-1.12049E-14 5.17154E-13
 -1      1243 2.09768E+01-5.91336E-03-1.31493E-02 1.12992E-02 7.80819E-14 4.36751E-14
 -1      1244 2.06125E+01-4.98886E-03-1.01968E-02 8.35356E-03 2.92800E-14-2.58494E-13
 -1      1245 2.03458E+01-4.48126E-03-8.45396E-03 6.37107E-03 1.00371E-13-1.09938E-12
 -1      1246 2.01572E+01-4.45732E-03-7.97392E-03 5.01510E-03-1.18901E-14-1.20490E-12
 -1      1247 2.00368E+01-4.54230E-03-8.04044E-03 3.56149E-03-6.03911E-14-8.15085E-13
 -1      1248 1.99843E+01-2.79405E-03-5.00862E-03 4.58878E-04 1.74178E-13-1.47914E-12
 -1      1249 1.99918E+01 2.86284E-03 7.60698E-03-2.94498E-03-1.00046E-14-1.13260E-12
 -1      1250 2.00025E+01-8.62442E-03 6.96631E-03-2.93403E-03-1.21688E-12-9.70052E-14
 -1      1251 1.99953E+01-1.33515E-02-5.96258E-03-3.03208E-03-1.25062E-12 2.30265E-14
 -1      1252 1.99953E+01 4.31501E-02-7.38769E-03 1.59170E-03 4.23890E-13 2.61073E-13
 -1      1253 1.99976E+01 1.53411E-01-4.00681E-03 3.97178E-03 6.81632E-13 1.50933E-13
 -1      1254 2.00004E+01 2.89380E-01 2.55888E-04 4.67599E-03 2.11196E-13-1.19347E-13
 -1      1255 2.00028E+01 4.21426E-01 3.85744E-03 4.17829E-03-7.00373E-13-8.95069E-15
 -1      1256 2.00046E+01 5.27275E-01 6.28968E-03 3.00993E-03-7.73564E-13-7.49997E-14
 -1      1257 2.00055E+01 5.91486E-01 7.49323E-03 1.36885E-03-2.91643E-13-9.56656E-14
 -1      1258 2.00054E+01 6.04912E-01 7.46694E-03-3.56598E-04-9.33688E-13-8.65031E-14
 -1      1259 2.00046E+01 5.67759E-01 6.38911E-03-1.91383E-03-7.93011E-13 6.22603E-16
 -1      1260 2.00032E+01 4.87304E-01 4.48241E-03-3.10795E-03-4.48649E-13-1.62740E-13
 -1      1261 2.00015E+01 3.77361E-01 2.02048E-03-3.80185E-03-1.08941E-12 5.01842E-14
 -1      1262 1.99994E+01 2.53644E-01-8.51520E-04-3.85740E-03-9.67834E-13 3.88298E-14
 -1      1263 1.99974E+01 1.33818E-01-3.95884E-03-3.17222E-03-6.37878E-13 1.95383E-13
 -1      1264 1.99960E+01 3.81992E-02-6.63829E-03-1.58646E-03 1.14271E-14 1.34373E-13
 -1      1265 1.99951E+01-6.53549E-03-4.40788E-03 4.26805E-03-1.68766E-13-2.04093E-13
 -1      1266 2.00023E+01-7.83909E-03 5.47742E-03 2.74159E-03-2.54346E-13 8.29097E-14
 -1      1267-1.08789E+00-2.53527E+01-3.82776E+00-2.36526E+00 1.55537E-12 1.69927E-13
 -1      1268-2.12917E+00-1.80063E+01-3.41307E+00-4.73780E+00 1.43863E-12 4.31877E-13
 -1      1269-9.93483E-01-5.87575E+00-2.45480E+00-2.00638E+00 1.56852E-12 8.40883E-13
 -1      1270 6.38022E+00 5.25932E+00-9.30725E-01 5.86971E+00 1.63758E-12 1.57740E-12
 -1      1271 2.27660E+01 1.05217E+01 9.44456E-01 1.47977E+01 1.17195E-12 1.69242E-12
 -1      1272 4.48874E+01 9.04666E+00 2.91992E+00 1.84634E+01 6.42930E-13 1.44151E-12
 -1      1273 6.41881E+01 4.47206E+00 4.40470E+00 1.28326E+01 2.14412E-13 7.23421E-13
 -1      1274 7.22945E+01 1.81552E+00 4.96291E+00-4.13192E-01 1.13326E-13-5.09426E-13
 -1      1275 6.29368E+01 4.65741E+00 4.26296E+00-1.36357E+01 2.99760E-13-1.15818E-12
 -1      1276 4.20283E+01 9.32119E+00 2.61277E+00-1.85807E+01 5.84643E-13-1.14153E-12
 -1      1277 1.85044E+01 9.58647E+00 4.64404E-01-1.28248E+01 1.00853E-12-1.16218E-12
 -1      1278 3.34512E+00 2.30669E+00-1.39944E+00-3.06026E+00 1.09246E-12-8.84182E-13
 -1      1279-1.77019E+00-9.72853E+00-2.76779E+00 3.55183E+00 6.47038E-13-4.03011E-13
 -1      1280-1.69831E+00-2.14025E+01-3.60203E+00 4.42642E+00-2.80220E-13 1.55986E-14
 -1      1281-8.31836E-01-2.58587E+01-3.81779E+00 3.40549E-01-1.04391E-12 1.86587E-14
 -1      1282-1.43257E+00-2.02872E+01-3.38979E+00-3.53729E+00-1.07458E-12-1.70475E-13
 -1      1283-1.10073E+00-8.17114E+00-2.37376E+00-2.50708E+00-8.47988E-13-4.20441E-13
 -1      1284 4.46076E+00 4.34197E+00-8.80305E-01 4.55435E+00-9.29035E-13-8.46656E-13
 -1      1285 1.75825E+01 1.09951E+01 7.00221E-01 1.34691E+01-8.63309E-13-1.07137E-12
 -1      1286 3.68510E+01 1.03969E+01 2.32267E+00 1.83870E+01-6.50258E-13-1.18039E-12
 -1      1287 5.54641E+01 5.85056E+00 3.47810E+00 1.48803E+01-3.08004E-13-5.97966E-13
 -1      1288 6.64672E+01 1.92017E+00 4.10566E+00 4.38363E+00-8.16708E-15 2.69396E-13
 -1      1289 6.39875E+01 2.62313E+00 3.90237E+00-8.73040E+00-8.53866E-14 6.40377E-13
 -1      1290 5.01784E+01 7.33082E+00 3.14772E+00-1.71104E+01-4.71845E-13 1.09202E-12
 -1      1291 3.09180E+01 1.11949E+01 1.84091E+00-1.77208E+01-1.28331E-12 1.91402E-12
 -1      1292 1.30553E+01 9.94000E+00 2.52191E-01-1.10741E+01-2.04881E-12 2.21823E-12
 -1      1293 2.57967E+00 2.53068E+00-1.17735E+00-2.78680E+00-1.97442E-12 1.44873E-12
 -1      1294-1.23590E+00-7.97701E+00-2.35398E+00 2.67901E+00-9.62119E-13 5.64881E-13
 -1      1295-1.60205E+00-1.78845E+01-3.15329E+00 3.96973E+00 7.48290E-14-5.72320E-14
 -1      1296-9.48288E-01-2.47201E+01-3.70070E+00 2.01771E+00 7.55174E-13 5.05013E-14
 -1      1297 2.22498E+01 1.83731E+00-7.25558E-01-2.79051E+00-3.49443E-14 1.04305E-13
 -1      1298 2.03496E+01 4.68838E+00-4.87019E-02-3.30762E+00-5.46507E-14-2.23863E-13
 -1      1299 2.08541E+01 4.80814E+00-1.13477E-01-4.16126E+00-8.40994E-14-1.60615E-13
 -1      1300 1.95270E+01 4.99303E+00-1.96583E-02-2.65569E+00-3.72480E-14-2.99712E-13
 -1      1301 1.98224E+01 5.08862E+00-1.36521E-05-3.04634E+00-4.71359E-14-2.74059E-13
 -1      1302 2.05173E+01 3.95163E+00-2.60109E-02-3.07496E+00-8.82974E-14-1.91888E-13
 -1      1303 1.91858E+01 5.08429E+00-3.33475E-03-2.07194E+00-8.80546E-15-3.17881E-13
 -1      1304 1.93316E+01 5.13877E+00 1.05285E-02-2.36531E+00-1.99632E-14-3.11584E-13
 -1      1305 1.97519E+01 4.36663E+00-2.38556E-02-2.49113E+00-5.20955E-14-2.49370E-13
 -1      1306 1.90138E+01 5.13216E+00 3.52881E-03-1.56546E+00 8.48800E-15-3.13851E-13
 -1      1307 1.90901E+01 5.16130E+00 1.28529E-02-1.81554E+00 7.22512E-15-3.19200E-13
 -1      1308 1.93948E+01 4.55554E+00-1.94570E-02-1.93196E+00-1.31752E-15-2.68886E-13
 -1      1309 1.89231E+01 5.16269E+00 6.61477E-03-1.11768E+00 2.27080E-14-2.86177E-13
 -1      1310 1.89641E+01 5.17865E+00 1.28248E-02-1.33923E+00 1.59725E-14-3.01729E-13
 -1      1311 1.92111E+01 4.66289E+00-1.59887E-02-1.44513E+00 1.60397E-14-2.53013E-13
 -1      1312 1.88737E+01 5.18312E+00 8.23201E-03-6.94216E-01 3.41205E-14-2.53460E-13
 -1      1313 1.88957E+01 5.19171E+00 1.20524E-02-9.04523E-01 3.04500E-14-2.73205E-13
 -1      1314 1.91110E+01 4.72910E+00-1.39415E-02-1.00451E+00 4.02087E-14-2.40235E-13
 -1      1315 1.88509E+01 5.19543E+00 9.32749E-03-2.89377E-01 4.74742E-14-2.15966E-13
 -1      1316 1.88603E+01 5.19912E+00 1.11120E-02-4.91558E-01 4.56211E-14-2.35777E-13
 -1      1317 1.90571E+01 4.76869E+00-1.28650E-02-5.88917E-01 6.19509E-14-1.99965E-13
 -1      1318 1.88475E+01 5.20046E+00 1.02647E-02 1.08150E-01 6.48687E-14-1.80094E-13
 -1      1319 1.88471E+01 5.20032E+00 1.01894E-02-9.15796E-02 5.99245E-14-1.98154E-13
 -1      1320 1.90339E+01 4.78704E+00-1.24131E-02-1.89201E-01 8.75853E-14-1.63827E-13
 -1      1321 1.88622E+01 5.19876E+00 1.12102E-02 5.08742E-01 7.83458E-14-1.59456E-13
 -1      1322 1.88520E+01 5.19477E+00 9.26327E-03 3.06123E-01 7.79818E-14-1.73124E-13
 -1      1323 1.90348E+01 4.78639E+00-1.24305E-02 2.05680E-01 1.17882E-13-1.33664E-13
 -1      1324 1.88992E+01 5.19054E+00 1.21500E-02 9.23245E-01 8.16690E-14-1.18178E-13
 -1      1325 1.88763E+01 5.18178E+00 8.17425E-03 7.11947E-01 8.08477E-14-1.43873E-13
 -1      1326 1.90599E+01 4.76658E+00-1.29193E-02 6.06119E-01 1.27768E-13-1.16858E-13
 -1      1327 1.89687E+01 5.17676E+00 1.29552E-02 1.35677E+00 8.43735E-14-5.34104E-14
 -1      1328 1.89268E+01 5.16042E+00 6.49483E-03 1.13373E+00 8.28118E-14-9.31859E-14
 -1      1329 1.91157E+01 4.72548E+00-1.39464E-02 1.01957E+00 1.34079E-13-7.24004E-14
 -1      1330 1.90979E+01 5.15728E+00 1.28701E-02 1.84177E+00 1.05379E-13 2.99517E-14
 -1      1331 1.90202E+01 5.12748E+00 3.19760E-03 1.58882E+00 9.77196E-14-1.23426E-14
 -1      1332 1.92184E+01 4.65622E+00-1.61001E-02 1.46292E+00 1.45315E-13-2.21351E-15
 -1      1333 1.93420E+01 5.13287E+00 1.01889E-02 2.39908E+00 1.06401E-13 1.43632E-13
 -1      1334 1.91943E+01 5.07646E+00-4.31381E-03 2.10175E+00 9.80466E-14 7.37709E-14
 -1      1335 1.94072E+01 4.54280E+00-1.99512E-02 1.95886E+00 1.64051E-13 8.01026E-14
 -1      1336 1.98482E+01 5.09768E+00 6.01395E-03 3.08506E+00 1.02585E-13 3.22457E-13
 -1      1337 1.95390E+01 4.98350E+00-2.04766E-02 2.69785E+00 9.48477E-14 2.19907E-13
 -1      1338 1.97716E+01 4.34587E+00-2.45382E-02 2.52886E+00 1.55749E-13 2.08888E-13
 -1      1339 2.10900E+01 4.90452E+00 8.20158E-03 4.05425E+00 7.04992E-14 5.86156E-13
 -1      1340 2.03240E+01 4.73211E+00-4.79266E-02 3.41726E+00 7.35245E-14 4.28602E-13
 -1      1341 2.05555E+01 3.91477E+00-2.24218E-02 3.17909E+00 1.38875E-13 3.83429E-13
 -1      1342 2.71827E+01 3.20355E+00 9.28430E-01 4.58115E+00 8.81240E-15 9.87155E-13
 -1      1343 2.20043E+01 3.52058E+00-1.81910E-01 3.88502E+00 1.87628E-14 7.22922E-13
 -1      1344 2.20973E+01 2.56087E+00-3.26401E-02 3.45697E+00 9.80015E-14 6.13093E-13
 -1      1345 2.14081E+01 3.59640E-01-7.63266E-01 1.18446E+00 3.19259E-14 1.00059E-12
 -1      1346 2.19827E+01 1.31384E-01-4.00754E-01-1.28617E+00-6.72240E-14 1.45828E-13
 -1      1347 2.06595E+01 3.06728E-01-1.64768E-01-8.06255E-01-5.87863E-14 6.67522E-14
 -1      1348 2.00617E+01 1.53533E-01-7.34895E-02-4.02547E-01-4.93806E-14 4.37298E-14
 -1      1349 1.95914E+01 9.12723E-02-1.48718E-02-3.30343E-01-4.56371E-14-3.39173E-14
 -1      1350 2.09563E+01 3.69331E-01-1.04155E-01-1.27471E+00-1.05790E-13-2.22461E-14
 -1      1351 1.92341E+01 6.45629E-02 3.09235E-03-1.35585E-01-3.17879E-14-3.92741E-14
 -1      1352 1.90794E+01 4.13697E-02 1.32850E-02-1.17753E-01-3.02276E-14-8.54906E-14
 -1      1353 1.99056E+01 1.34012E-01-3.51066E-02-5.04494E-01-7.83540E-14-5.54036E-14
 -1      1354 1.89194E+01 3.16469E-02 1.32965E-02-2.79718E-02-1.76621E-14-1.16931E-13
 -1      1355 1.88999E+01 1.95787E-02 1.11107E-02-1.85271E-02-3.32030E-14-1.49280E-13
 -1      1356 1.94287E+01 5.55731E-02-8.54632E-03-1.70057E-01-6.61277E-14-8.36813E-14
 -1      1357 1.88448E+01 1.62459E-02 8.82931E-03 2.56149E-02-1.50821E-14-1.53507E-13
 -1      1358 1.88878E+01 9.40772E-03 6.49455E-03 3.03788E-02-2.23042E-14-1.68077E-13
 -1      1359 1.92211E+01 2.46983E-02-3.58128E-03-1.02977E-02-4.17609E-14-1.17338E-13
 -1      1360 1.88897E+01 8.24281E-03 4.73440E-03 5.23720E-02-1.21912E-14-1.49032E-13
 -1      1361 1.89619E+01 4.01102E-03 3.71979E-03 5.44775E-02-5.25188E-15-1.52369E-13
 -1      1362 1.91671E+01 1.07282E-02-2.33796E-03 6.99974E-02-3.49269E-14-7.88597E-14
 -1      1363 1.89947E+01 3.78085E-03 2.51923E-03 6.45382E-02-1.47993E-14-1.69691E-13
 -1      1364 1.90789E+01 1.07697E-03 2.31451E-03 6.51331E-02-2.32326E-14-2.07572E-13
 -1      1365 1.91985E+01 3.61090E-03-1.50043E-03 1.09358E-01-2.49484E-14-9.43653E-14
 -1      1366 1.91279E+01 1.31379E-03 1.42299E-03 6.86656E-02-2.53020E-15-2.02168E-13
 -1      1367 1.92151E+01-4.06030E-04 1.56982E-03 6.84609E-02-1.95581E-14-2.44311E-13
 -1      1368 1.92761E+01-6.02309E-05-8.12121E-04 1.26386E-01-4.08557E-14-1.15770E-13
 -1      1369 1.92719E+01 8.94101E-05 8.48604E-04 6.86811E-02-3.37363E-14-2.10196E-13
 -1      1370 1.93577E+01-9.56664E-04 1.12921E-03 6.81527E-02-4.69491E-14-2.35377E-13
 -1      1371 1.93779E+01-1.72301E-03-3.52166E-04 1.31427E-01-3.83695E-14-1.24204E-13
 -1      1372 1.94181E+01-3.07181E-04 5.17020E-04 6.71349E-02-5.37033E-14-2.44900E-13
 -1      1373 1.95012E+01-8.78991E-04 8.45077E-04 6.66149E-02-6.42017E-15-2.98393E-13
 -1      1374 1.94913E+01-2.09713E-03-1.23799E-04 1.30863E-01-5.96650E-14-9.02014E-14
 -1      1375 1.95633E+01-1.31513E-04 3.08355E-04 6.57606E-02-2.60436E-15-3.25614E-13
 -1      1376 1.96442E+01-3.73756E-04 6.52366E-04 6.54838E-02-3.99790E-14-3.75686E-13
 -1      1377 1.96104E+01-1.59832E-03-8.35061E-05 1.28905E-01-4.42151E-14-1.65198E-13
 -1      1378 1.97081E+01 4.39605E-04 1.64645E-04 6.57463E-02-5.62319E-14-4.41809E-13
 -1      1379 1.97886E+01 4.07701E-04 5.14468E-04 6.58747E-02-4.49981E-14-5.06520E-13
 -1      1380 1.97333E+01-5.02652E-04-1.81429E-04 1.28411E-01-8.66035E-14-2.87955E-13
 -1      1381 1.98553E+01 1.26381E-03 5.11515E-05 6.78624E-02 1.94744E-15-5.14701E-13
 -1      1382 1.99383E+01 1.32986E-03 4.04533E-04 6.84945E-02-1.66741E-14-4.86403E-13
 -1      1383 1.98608E+01 9.73737E-04-3.72815E-04 1.31284E-01-4.66363E-14-3.90061E-13
 -1      1384 2.00095E+01 2.20181E-03-5.66473E-05 7.24960E-02-1.16446E-14-4.80665E-13
 -1      1385 2.00983E+01 2.24572E-03 2.99476E-04 7.36629E-02-4.10001E-14-5.27933E-13
 -1      1386 1.99956E+01 2.62258E-03-6.15863E-04 1.38622E-01-4.36121E-14-3.40344E-13
 -1      1387 2.01759E+01 3.08920E-03-1.76443E-04 7.96089E-02-4.46453E-14-4.88309E-13
 -1      1388 2.02734E+01 2.97077E-03 1.78828E-04 8.12566E-02-2.08471E-14-4.84198E-13
 -1      1389 2.01413E+01 4.19815E-03-8.65503E-04 1.50713E-01-2.34524E-14-2.51008E-13
 -1      1390 2.03590E+01 3.70835E-03-3.17943E-04 8.86205E-02 6.84484E-15-5.03061E-13
 -1      1391 2.04674E+01 3.25768E-03 2.67388E-05 9.05774E-02 3.28942E-15-4.86125E-13
 -1      1392 2.03013E+01 5.37143E-03-1.06602E-03 1.66869E-01 3.13307E-15-2.66377E-13
 -1      1393 2.05617E+01 3.76148E-03-4.78132E-04 9.82205E-02 3.85992E-15-4.91401E-13
 -1      1394 2.06816E+01 2.77657E-03-1.62533E-04 1.00151E-01 2.65939E-15-4.95440E-13
 -1      1395 2.04781E+01 5.68490E-03-1.14346E-03 1.85125E-01 1.98710E-14-3.30735E-13
 -1      1396 2.07835E+01 2.85274E-03-6.32994E-04 1.06129E-01-3.45601E-14-5.11009E-13
 -1      1397 2.09121E+01 1.11266E-03-3.75228E-04 1.07475E-01-6.01808E-14-5.66166E-13
 -1      1398 2.06714E+01 4.51912E-03-9.99095E-04 2.01824E-01-6.09684E-14-3.50817E-13
 -1      1399 2.10181E+01 4.96561E-04-7.26815E-04 1.08859E-01-1.52655E-14-5.64201E-13
 -1      1400 2.11482E+01-2.19532E-03-5.66009E-04 1.08792E-01-2.96047E-14-5.98411E-13
 -1      1401 2.08769E+01 1.09770E-03-5.07291E-04 2.11167E-01-8.17046E-14-3.11409E-13
 -1      1402 2.12508E+01-3.81570E-03-6.63817E-04 1.01614E-01 6.08183E-15-6.09481E-13
 -1      1403 2.13691E+01-7.53827E-03-6.48682E-04 9.90231E-02 1.79240E-15-5.66711E-13
 -1      1404 2.10841E+01-5.41850E-03 4.75409E-04 2.04918E-01-2.55390E-14-3.25091E-13
 -1      1405 2.14564E+01-1.04425E-02-3.13338E-04 7.85503E-02 2.12514E-14-5.02942E-13
 -1      1406 2.15424E+01-1.49942E-02-5.02798E-04 7.21375E-02 6.58748E-14-4.38748E-13
 -1      1407 2.12744E+01-1.56703E-02 2.07776E-03 1.72637E-01 5.43311E-14-3.14424E-13
 -1      1408 2.15977E+01-1.92605E-02 4.51652E-04 3.37834E-02 5.71813E-14-4.43611E-13
 -1      1409 2.16238E+01-2.39313E-02-1.49453E-05 2.23636E-02 5.81132E-15-3.84593E-13
 -1      1410 2.14203E+01-2.95848E-02 4.34115E-03 1.03039E-01 5.70806E-14-2.99568E-13
 -1      1411 2.16269E+01-2.91662E-02 1.66538E-03-3.64430E-02-6.42802E-15-3.13846E-13
 -1      1412 2.15619E+01-3.25184E-02 8.28219E-04-5.33363E-02 1.88599E-14-3.24597E-13
 -1      1413 2.14856E+01-4.55849E-02 7.09342E-03-1.27584E-02 2.61236E-14-2.16261E-13
 -1      1414 2.14924E+01-3.75661E-02 3.13217E-03-1.30248E-01 8.32199E-14-2.84337E-13
 -1      1415 2.13091E+01-3.74251E-02 1.81651E-03-1.51455E-01 7.09502E-15-2.42540E-13
 -1      1416 2.14299E+01-5.97447E-02 9.78295E-03-1.75547E-01 7.24689E-14-6.45112E-14
 -1      1417 2.11532E+01-4.02904E-02 4.32567E-03-2.35984E-01-4.34566E-14-1.64107E-13
 -1      1418 2.08414E+01-3.42512E-02 2.44080E-03-2.57796E-01-2.57134E-14-1.46071E-13
 -1      1419 2.12183E+01-6.55700E-02 1.13584E-02-3.70566E-01 2.87739E-14-9.02056E-14
 -1      1420 2.06008E+01-3.26075E-02 4.45033E-03-3.29748E-01 2.12343E-14-1.71651E-13
 -1      1421 2.01814E+01-1.92709E-02 2.01354E-03-3.45718E-01 6.23572E-14-1.58491E-13
 -1      1422 2.08366E+01-5.53991E-02 1.03966E-02-5.61358E-01-1.01967E-14 1.29536E-13
 -1      1423 1.98824E+01-1.17795E-02 2.83724E-03-3.78278E-01 8.34705E-14-1.45873E-13
 -1      1424 1.94167E+01 7.56450E-03 9.48022E-05-3.80717E-01 4.97486E-14-8.28330E-14
 -1      1425 2.03100E+01-2.42392E-02 5.67417E-03-6.90974E-01 9.21966E-14 2.18853E-14
 -1      1426 1.91131E+01 1.95579E-02-4.23588E-04-3.50232E-01 5.58048E-14-2.83870E-14
 -1      1427 1.86970E+01 3.99567E-02-2.95732E-03-3.33794E-01 3.36588E-14 2.05461E-14
 -1      1428 1.97161E+01 2.50268E-02-2.75377E-03-6.97032E-01 1.19444E-13-6.09582E-14
 -1      1429 1.84601E+01 5.18059E-02-4.14986E-03-2.33809E-01-7.94946E-14 6.58709E-14
 -1      1430 1.81979E+01 6.59427E-02-5.78321E-03-1.99698E-01-4.36994E-14 6.86569E-14
 -1      1431 1.91795E+01 7.87529E-02-1.26287E-02-5.40996E-01-2.53304E-14 1.13645E-13
 -1      1432 1.80931E+01 7.17730E-02-6.49645E-03-5.05186E-02-7.24290E-14 4.69468E-14
 -1      1433 1.80579E+01 7.37089E-02-6.71175E-03-7.89457E-03-9.64289E-14-4.26521E-14
 -1      1434 1.88387E+01 1.16428E-01-1.98965E-02-2.38444E-01-8.47707E-14 8.71317E-14
 -1      1435 1.81164E+01 7.03449E-02-6.26936E-03 1.48057E-01-5.08803E-14-1.06785E-13
 -1      1436 1.83182E+01 5.92320E-02-4.99514E-03 1.85790E-01 3.86661E-14-9.86364E-14
 -1      1437 1.87926E+01 1.21625E-01-2.08771E-02 1.33520E-01-1.52024E-13 2.14036E-13
 -1      1438 1.85222E+01 4.85263E-02-3.81886E-03 3.02915E-01 8.78039E-14-7.37015E-14
 -1      1439 1.89033E+01 2.91565E-02-1.48172E-03 3.24828E-01-3.08195E-14-7.36425E-14
 -1      1440 1.90547E+01 9.19125E-02-1.50982E-02 4.65698E-01 5.38111E-15 4.18771E-14
 -1      1441 1.91944E+01 1.66310E-02-6.70848E-04 3.75425E-01-1.53192E-13-6.22384E-14
 -1      1442 1.96555E+01-3.64933E-03 2.06508E-03 3.78022E-01-1.24444E-13-2.40911E-13
 -1      1443 1.95472E+01 4.06285E-02-5.52724E-03 6.67595E-01-8.21331E-14-4.53708E-14
 -1      1444 1.99613E+01-1.27201E-02 1.64219E-03 3.61434E-01-4.16856E-14-2.93730E-13
 -1      1445 2.04005E+01-2.80514E-02 4.19347E-03 3.48543E-01-2.90336E-14-3.56441E-13
 -1      1446 2.01369E+01-1.17073E-02 3.62666E-03 7.05499E-01-1.77948E-13-1.40718E-13
 -1      1447 2.06605E+01-3.13414E-02 2.47052E-03 2.84889E-01-5.56144E-14-3.99090E-13
 -1      1448 2.10051E+01-3.93968E-02 4.51187E-03 2.63949E-01-2.34721E-14-4.71826E-13
 -1      1449 2.06909E+01-4.87988E-02 9.47945E-03 6.04966E-01-9.27873E-14-2.24934E-13
 -1      1450 2.11851E+01-3.76039E-02 2.07767E-03 1.80428E-01 3.55445E-14-5.16186E-13
 -1      1451 2.14032E+01-3.91695E-02 3.54147E-03 1.58512E-01 7.97500E-14-4.22315E-13
 -1      1452 2.11163E+01-6.47174E-02 1.14118E-02 4.24884E-01-5.34902E-14-3.58013E-13
 -1      1453 2.14951E+01-3.45119E-02 1.13642E-03 7.78636E-02 1.24887E-13-5.01450E-13
 -1      1454 2.15896E+01-3.18676E-02 2.09303E-03 5.95097E-02 1.15562E-13-3.71483E-13
 -1      1455 2.13739E+01-6.26768E-02 1.04016E-02 2.26110E-01 7.37891E-14-5.11620E-13
 -1      1456 2.16041E+01-2.65302E-02 2.28696E-04-4.97932E-03 9.32904E-14-1.86151E-13
 -1      1457 2.15988E+01-2.19977E-02 7.86229E-04-1.79587E-02 6.30745E-14-1.46740E-13
 -1      1458 2.14686E+01-5.00765E-02 7.89259E-03 5.17040E-02 1.61540E-13-3.15931E-13
 -1      1459 2.15552E+01-1.73783E-02-3.53610E-04-6.18768E-02-6.99454E-14-1.57627E-13
 -1      1460 2.14815E+01-1.26118E-02-9.41857E-05-6.95729E-02-1.79999E-13-3.34462E-13
 -1      1461 2.14316E+01-3.39925E-02 5.06444E-03-7.77227E-02-1.88183E-14-2.52321E-13
 -1      1462 2.14009E+01-9.28515E-03-5.72234E-04-9.43353E-02-6.99712E-14-3.39288E-13
 -1      1463 2.12880E+01-5.17407E-03-5.30446E-04-9.77806E-02-3.46449E-14-4.31484E-13
 -1      1464 2.13032E+01-1.90843E-02 2.60141E-03-1.59154E-01-1.57481E-13-1.39824E-13
 -1      1465 2.11887E+01-3.15467E-03-5.23638E-04-1.07507E-01-3.04979E-14-4.07930E-13
 -1      1466 2.10601E+01-9.47472E-06-6.33819E-04-1.07974E-01 2.70495E-14-4.09274E-13
 -1      1467 2.11222E+01-7.48521E-03 7.63685E-04-1.99586E-01-9.05186E-14-1.33315E-13
 -1      1468 2.09559E+01 9.63653E-04-3.34423E-04-1.07296E-01 1.13923E-13-3.69903E-13
 -1      1469 2.08277E+01 3.17671E-03-5.41406E-04-1.05917E-01 1.40161E-13-2.52819E-13
 -1      1470 2.09196E+01 4.38227E-04-4.49658E-04-2.09674E-01 1.19042E-13-9.93866E-14
 -1      1471 2.07280E+01 3.44575E-03-1.09410E-04-9.88017E-02 1.43765E-14-6.18507E-14
 -1      1472 2.06101E+01 4.92105E-03-3.69837E-04-9.64126E-02 5.63473E-14-1.69850E-13
 -1      1473 2.07179E+01 5.25802E-03-1.16077E-03-1.99765E-01 2.03629E-13-1.64708E-14
 -1      1474 2.05208E+01 4.81140E-03 7.51687E-05-8.57016E-02 8.23510E-14-2.02584E-13
 -1      1475 2.04189E+01 5.78961E-03-2.13085E-04-8.28208E-02 3.03515E-14-9.60039E-14
 -1      1476 2.05315E+01 7.89793E-03-1.52826E-03-1.78008E-01 5.59210E-14 1.77015E-13
 -1      1477 2.03431E+01 5.57968E-03 1.51604E-04-7.01846E-02 1.23934E-13-1.88099E-13
 -1      1478 2.02603E+01 6.28334E-03-1.56860E-04-6.70389E-02 1.99681E-13 3.24062E-14
 -1      1479 2.03689E+01 9.31982E-03-1.70711E-03-1.49797E-01 1.12567E-13 2.44293E-13
 -1      1480 2.01997E+01 6.19540E-03 4.29398E-05-5.31272E-02 6.80374E-14-1.22196E-13
 -1      1481 2.01382E+01 6.76091E-03-2.59316E-04-4.96938E-02-3.01625E-16-1.36411E-13
 -1      1482 2.02346E+01 1.03875E-02-1.82574E-03-1.17912E-01 8.31828E-14-1.07697E-13
 -1      1483 2.00936E+01 6.89812E-03-2.74313E-04-3.45634E-02 1.50885E-13-8.48551E-14
 -1      1484 2.00556E+01 7.23528E-03-3.37838E-04-3.06339E-02 9.15510E-14 7.41236E-14
 -1      1485 2.01310E+01 1.17230E-02-1.89398E-03-8.31380E-02 1.20484E-13-1.78205E-13
 -1      1486 2.00264E+01 8.19926E-03-2.61746E-04-1.44671E-02 3.69366E-15 1.71666E-13
 -1      1487 2.00131E+01 6.54642E-03 6.08662E-04-1.01149E-02-4.37714E-15 1.54167E-13
 -1      1488 2.00581E+01 1.32996E-02-1.72026E-03-4.60986E-02 9.24952E-14-6.42867E-14
 -1      1489 1.99972E+01 2.07231E-05 1.84036E-03 3.24391E-03-2.46084E-13 1.41630E-13
 -1      1490 2.00113E+01 7.28179E-03-2.32062E-04-8.18563E-03-1.43415E-13-3.66584E-14
 -1      1491 2.02395E+01 7.54903E-02-1.52088E-01 4.84346E-01 4.60500E-14 8.97848E-13
 -1      1492 2.15105E+01 2.16053E-01-2.29266E-01 7.21318E-01 3.99264E-14 9.54709E-13
 -1      1493 2.17113E+01 8.81651E-01-8.53988E-02 2.06537E+00 6.50521E-14 7.05214E-13
 -1      1494 1.93103E+01 3.23980E-02-2.13347E-02 1.86470E-01 5.15577E-14 7.92172E-13
 -1      1495 1.97317E+01 1.13596E-01-6.27001E-02 2.38466E-01 3.93713E-14 8.48103E-13
 -1      1496 2.02857E+01 1.87709E-01-5.51650E-02 7.86954E-01 7.53564E-14 6.32539E-13
 -1      1497 1.89278E+01 1.51654E-02 5.66322E-03 5.38592E-02 2.44032E-14 7.05391E-13
 -1      1498 1.90670E+01 5.16463E-02 9.79622E-04 8.01695E-02 2.96959E-14 7.47784E-13
 -1      1499 1.95404E+01 7.18643E-02-1.21581E-02 2.99660E-01 6.69777E-14 5.57717E-13
 -1      1500 1.88173E+01 7.21661E-03 6.97554E-03-8.94416E-03 1.52356E-14 6.88432E-13
 -1      1501 1.88322E+01 2.59444E-02 1.11072E-02 5.48182E-03 8.54091E-15 7.03826E-13
 -1      1502 1.92052E+01 3.11778E-02-2.45796E-03 8.37245E-02 2.32193E-14 4.91638E-13
 -1      1503 1.88445E+01 3.37597E-03 4.76779E-03-3.97352E-02 1.95887E-14 6.93922E-13
 -1      1504 1.88004E+01 1.39846E-02 8.55242E-03-3.15409E-02 4.21928E-15 6.82461E-13
 -1      1505 1.90899E+01 1.35075E-02-1.62971E-03-2.20793E-02 9.04311E-15 4.85873E-13
 -1      1506 1.89418E+01 1.32165E-03 3.26218E-03-5.40758E-02-2.23625E-14 7.09115E-13
 -1      1507 1.88701E+01 7.59439E-03 5.40900E-03-4.94457E-02-1.27934E-14 6.87655E-13
 -1      1508 1.90941E+01 4.95807E-03-1.67456E-03-7.49847E-02-5.01509E-15 5.09209E-13
 -1      1509 1.90727E+01 2.17565E-04 2.45871E-03-5.94585E-02 2.86365E-14 6.91176E-13
 -1      1510 1.89896E+01 3.96028E-03 3.48983E-03-5.69654E-02 1.88277E-15 6.92556E-13
 -1      1511 1.91625E+01 5.49815E-04-1.46011E-03-9.98972E-02-7.31511E-16 4.66090E-13
 -1      1512 1.92170E+01-2.91705E-04 1.96336E-03-6.01194E-02 4.49443E-14 6.17754E-13
 -1      1513 1.91313E+01 1.91093E-03 2.41183E-03-5.88711E-02 3.21448E-14 6.62141E-13
 -1      1514 1.92641E+01-1.62779E-03-1.14531E-03-1.09556E-01 4.39462E-14 4.32106E-13
 -1      1515 1.93645E+01-3.85094E-04 1.57702E-03-5.87571E-02 6.36156E-14 4.77179E-13
 -1      1516 1.92803E+01 8.95333E-04 1.76524E-03-5.81398E-02 6.37567E-14 5.73318E-13
 -1      1517 1.93819E+01-2.43385E-03-8.92361E-04-1.11404E-01 1.02261E-13 3.10351E-13
 -1      1518 1.95116E+01-1.60641E-04 1.22974E-03-5.72602E-02 2.24158E-14 4.11886E-13
 -1      1519 1.94300E+01 6.25488E-04 1.34697E-03-5.68155E-02 3.10718E-14 4.50329E-13
 -1      1520 1.95070E+01-2.30943E-03-7.56697E-04-1.10290E-01 7.72226E-14 2.51016E-13
 -1      1521 1.96592E+01 3.31655E-04 8.98103E-04-5.70762E-02-8.00663E-15 3.71761E-13
 -1      1522 1.95790E+01 9.47596E-04 1.07049E-03-5.64293E-02 1.69477E-14 3.87824E-13
 -1      1523 1.96366E+01-1.49395E-03-7.48838E-04-1.09682E-01 2.52100E-14 2.59211E-13
 -1      1524 1.98120E+01 1.07712E-03 5.69237E-04-5.94397E-02 2.23351E-14 3.88880E-13
 -1      1525 1.97302E+01 1.79270E-03 8.96881E-04-5.82486E-02-1.02967E-14 3.56021E-13
 -1      1526 1.97718E+01-1.07204E-04-8.73215E-04-1.12318E-01-8.42485E-15 2.14691E-13
 -1      1527 1.99779E+01 2.09109E-03 2.28305E-04-6.55383E-02 5.96821E-15 3.90451E-13
 -1      1528 1.98899E+01 3.15680E-03 8.05136E-04-6.34525E-02 2.02428E-14 3.96075E-13
 -1      1529 1.99173E+01 1.81662E-03-1.14252E-03-1.20614E-01 4.19691E-14 2.48971E-13
 -1      1530 2.01682E+01 3.41647E-03-1.46959E-04-7.66522E-02 2.70617E-15 3.55655E-13
 -1      1531 2.00675E+01 5.09335E-03 7.80467E-04-7.32725E-02 5.62050E-16 3.45596E-13
 -1      1532 2.00807E+01 4.31431E-03-1.58305E-03-1.36966E-01 1.86349E-14 1.93869E-13
 -1      1533 2.03978E+01 5.12050E-03-5.91182E-04-9.42776E-02 3.33433E-14 3.47579E-13
 -1      1534 2.02760E+01 7.70987E-03 8.07616E-04-8.91148E-02 4.69557E-14 3.91429E-13
 -1      1535 2.02729E+01 7.48641E-03-2.23837E-03-1.64009E-01 4.42782E-14 2.10350E-13
 -1      1536 2.06857E+01 7.28524E-03-1.15753E-03-1.20226E-01-4.44239E-14 3.28358E-13
 -1      1537 2.05319E+01 1.11606E-02 8.63440E-04-1.12659E-01-2.19909E-14 3.26329E-13
 -1      1538 2.05077E+01 1.14879E-02-3.17267E-03-2.04823E-01 2.06601E-14 3.00903E-13
 -1      1539 2.10560E+01 9.97961E-03-1.92373E-03-1.56653E-01 5.92814E-14 2.30262E-13
 -1      1540 2.08565E+01 1.56200E-02 9.05768E-04-1.45900E-01 2.92552E-14 3.03217E-13
 -1      1541 2.08028E+01 1.65005E-02-4.47191E-03-2.63047E-01 2.56067E-14 2.19028E-13
 -1      1542 2.15381E+01 1.31887E-02-2.98901E-03-2.05905E-01-4.01840E-14 1.27837E-13
 -1      1543 2.12759E+01 2.12049E-02 8.57532E-04-1.91034E-01 2.04719E-14 1.85657E-13
 -1      1544 2.11795E+01 2.26546E-02-6.23539E-03-3.42769E-01 6.34328E-14 1.63712E-13
 -1      1545 2.21662E+01 1.66532E-02-4.43278E-03-2.69924E-01-4.59459E-14 2.66646E-13
 -1      1546 2.18210E+01 2.77802E-02 5.92355E-04-2.49987E-01-7.74675E-14 1.65022E-13
 -1      1547 2.16626E+01 2.98290E-02-8.53786E-03-4.47861E-01-8.11287E-14 8.96566E-14
 -1      1548 2.29753E+01 1.95359E-02-6.15898E-03-3.48686E-01-6.66971E-14 4.97748E-13
 -1      1549 2.25260E+01 3.45261E-02-5.05704E-05-3.23148E-01-9.13618E-14 3.56593E-13
 -1      1550 2.22784E+01 3.71976E-02-1.13140E-02-5.80091E-01-1.39853E-13 2.22108E-13
 -1      1551 2.39916E+01 1.98100E-02-7.47909E-03-4.36754E-01 9.77491E-14 4.55806E-13
 -1      1552 2.34218E+01 3.90778E-02-1.14389E-03-4.06554E-01 4.02196E-14 4.97526E-13
 -1      1553 2.30499E+01 4.22899E-02-1.40720E-02-7.34806E-01-2.44796E-14 2.01715E-13
 -1      1554 2.52098E+01 1.33526E-02-6.27670E-03-5.16636E-01 1.46150E-14 2.46532E-13
 -1      1555 2.45218E+01 3.60825E-02-2.29915E-03-4.86409E-01 9.59974E-14 4.13454E-13
 -1      1556 2.39860E+01 3.93248E-02-1.53048E-02-8.92279E-01 1.00638E-13 2.38195E-13
 -1      1557 2.65510E+01-6.71656E-03 1.97653E-03-5.48309E-01-6.50951E-14 3.23956E-13
 -1      1558 2.57929E+01 1.55670E-02-1.92737E-03-5.30227E-01-4.95228E-14 1.98765E-13
 -1      1559 2.50612E+01 1.69515E-02-1.16522E-02-1.00305E+00-4.05894E-14 2.52780E-13
 -1      1560 2.77998E+01-4.82451E-02 2.34994E-02-4.58974E-01-4.11927E-14 4.46691E-13
 -1      1561 2.71068E+01-3.65395E-02 3.39626E-03-4.77193E-01-8.25564E-14 3.31041E-13
 -1      1562 2.61832E+01-4.22853E-02 2.42185E-03-9.69692E-01-9.84317E-14 1.18055E-13
 -1      1563 2.85453E+01-1.10327E-01 5.89646E-02-1.51442E-01-9.69346E-14 6.08185E-13
 -1      1564 2.81789E+01-1.28835E-01 1.74597E-02-2.40895E-01-4.18728E-14 4.80192E-13
 -1      1565 2.71537E+01-1.53818E-01 3.14649E-02-6.42683E-01-1.27412E-13 3.32024E-13
 -1      1566 2.82185E+01-1.61711E-01 8.69467E-02 4.26056E-01 4.67473E-14 6.89421E-13
 -1      1567 2.85396E+01-2.37227E-01 3.66852E-02 2.42694E-01-1.50401E-14 6.91194E-13
 -1      1568 2.76469E+01-2.99102E-01 6.91042E-02 1.20245E-01-5.17295E-14 4.91570E-13
 -1      1569 2.63907E+01-1.28635E-01 5.41232E-02 1.12036E+00 6.75501E-14 3.86025E-13
 -1      1570 2.76573E+01-2.72421E-01 3.85791E-02 8.88063E-01 1.31586E-13 5.87932E-13
 -1      1571 2.72790E+01-3.78539E-01 8.26107E-02 1.25994E+00 1.71613E-13 5.87863E-13
 -1      1572 2.33996E+01 4.41375E-02-7.62544E-02 1.44927E+00-1.42971E-13 4.34736E-13
 -1      1573 2.53591E+01-1.15254E-01-1.14372E-02 1.32391E+00-1.02028E-13 2.96152E-13
 -1      1574 2.58899E+01-2.05584E-01 3.14437E-02 2.24666E+00-4.50941E-14 4.31745E-13
 -1      1575 2.07903E+01 2.52080E-01-2.26869E-01 8.91194E-01-3.82958E-14 5.01196E-13
 -1      1576 2.24325E+01 2.09071E-01-1.09311E-01 1.03724E+00-2.29816E-14 4.49696E-13
 -1      1577 2.39877E+01 2.75749E-01-7.74896E-02 2.15369E+00-9.18848E-14 2.17319E-13
 -1      1578 2.04395E+01 2.76038E-01-2.43245E-01-3.58034E-01 1.43059E-13 2.55004E-13
 -1      1579 2.06130E+01 4.25077E-01-1.72779E-01-4.33064E-03 5.27148E-14 3.61655E-13
 -1      1580 2.28087E+01 7.10737E-01-1.51596E-01 5.91520E-01 8.35582E-14 1.55227E-13
 -1      1581 2.26590E+01 8.24317E-02-9.66969E-02-1.32399E+00-3.56555E-14 6.17284E-14
 -1      1582 2.12224E+01 3.10197E-01-1.29879E-01-1.04875E+00 5.25482E-14 1.12771E-13
 -1      1583 2.32851E+01 6.06933E-01-1.32039E-01-1.42857E+00 1.21556E-13 1.16088E-14
 -1      1584 2.57924E+01-1.07669E-01 6.82468E-02-1.36037E+00 2.54788E-16 9.16767E-14
 -1      1585 2.37807E+01 1.81363E-02-1.89640E-02-1.32766E+00-5.31428E-14 4.86278E-14
 -1      1586 2.50015E+01 5.91534E-02-5.81237E-02-2.37509E+00-1.44815E-14-9.22873E-14
 -1      1587 2.80143E+01-1.60844E-01 1.23427E-01-7.47463E-01 8.44793E-14-2.00118E-14
 -1      1588 2.65552E+01-1.75371E-01 6.00797E-02-8.79171E-01 7.84338E-14 1.23401E-13
 -1      1589 2.67095E+01-3.71582E-01 6.56595E-04-1.88787E+00 8.67223E-14-2.42181E-13
 -1      1590 2.86881E+01-1.16886E-01 9.13844E-02-7.30771E-02-1.33706E-13 8.18234E-14
 -1      1591 2.81886E+01-1.97829E-01 6.80553E-02-2.24304E-01-6.94375E-14-3.17801E-15
 -1      1592 2.75519E+01-4.32940E-01 2.25691E-02-7.43613E-01-2.84182E-14-3.20952E-13
 -1      1593 2.81377E+01-5.44698E-02 3.77195E-02 3.58201E-01 8.78811E-14 4.00201E-14
 -1      1594 2.84033E+01-1.31999E-01 3.89685E-02 2.58562E-01 1.56472E-14 4.69156E-14
 -1      1595 2.74292E+01-2.83622E-01 2.04126E-02 2.59307E-01-8.60076E-15-2.08650E-13
 -1      1596 2.69539E+01-1.04745E-02 1.39419E-03 5.32307E-01 1.08280E-13-3.09898E-13
 -1      1597 2.76144E+01-5.90267E-02 9.13731E-03 4.88265E-01 1.09929E-13-1.75065E-13
 -1      1598 2.66504E+01-1.15967E-01 1.14094E-02 8.24278E-01 1.82951E-13-3.06224E-13
 -1      1599 2.55983E+01 1.13945E-02-1.40411E-02 5.42657E-01 4.20478E-14-3.14498E-13
 -1      1600 2.63644E+01-1.01468E-02-6.62144E-03 5.34170E-01 2.38413E-14-2.00853E-13
 -1      1601 2.55767E+01-7.91853E-03 4.57135E-03 1.00871E+00 6.30995E-14-2.11999E-13
 -1      1602 2.43281E+01 1.88035E-02-1.68126E-02 4.77041E-01-2.04752E-13-1.09752E-13
 -1      1603 2.50417E+01 1.43385E-02-1.08991E-02 4.85592E-01-3.51954E-14-2.27811E-13
 -1      1604 2.44657E+01 4.19003E-02 1.03197E-03 9.68803E-01-5.19957E-14-1.64122E-14
 -1      1605 2.32482E+01 1.89985E-02-1.44135E-02 3.89087E-01-1.00260E-13 3.77007E-13
 -1      1606 2.38481E+01 2.30241E-02-9.60372E-03 4.03414E-01-1.82217E-13 5.36723E-14
 -1      1607 2.34572E+01 5.60380E-02-3.88013E-04 8.31917E-01-2.39093E-13 2.57823E-13
 -1      1608 2.23784E+01 1.63868E-02-1.08551E-02 3.04506E-01-2.20970E-13 6.26450E-13
 -1      1609 2.28555E+01 2.35796E-02-6.79917E-03 3.19133E-01-1.07555E-13 4.53682E-13
 -1      1610 2.26060E+01 5.33499E-02-8.22537E-04 6.72449E-01-2.09902E-13 5.98529E-13
 -1      1611 2.16996E+01 1.31461E-02-7.68820E-03 2.32795E-01 6.67712E-14 4.38752E-13
 -1      1612 2.20674E+01 2.07590E-02-4.25261E-03 2.45565E-01 3.69973E-14 4.92870E-13
 -1      1613 2.19182E+01 4.46818E-02-8.83210E-04 5.25054E-01 3.33214E-14 4.72675E-13
 -1      1614 2.11797E+01 1.01953E-02-5.29135E-03 1.75551E-01 3.35582E-14 2.92740E-13
 -1      1615 2.14582E+01 1.70434E-02-2.42036E-03 1.85944E-01 3.02250E-14 3.63150E-13
 -1      1616 2.13775E+01 3.51890E-02-8.28508E-04 4.01701E-01 3.64418E-14 2.15025E-13
 -1      1617 2.07866E+01 7.85608E-03-3.62169E-03 1.31066E-01 2.88815E-13-4.95715E-14
 -1      1618 2.09951E+01 1.35808E-02-1.24349E-03 1.39281E-01 1.59311E-13 2.23392E-13
 -1      1619 2.09600E+01 2.69348E-02-7.59961E-04 3.03350E-01 2.15725E-13 1.80439E-13
 -1      1620 2.04933E+01 6.17674E-03-2.55940E-03 9.65074E-02 9.79728E-14-5.27361E-13
 -1      1621 2.06475E+01 1.08359E-02-5.53466E-04 1.03033E-01 2.00274E-13-2.59830E-13
 -1      1622 2.06423E+01 2.05447E-02-7.35082E-04 2.26350E-01 3.60762E-13-2.15174E-13
 -1      1623 2.02792E+01 5.13889E-03-2.04452E-03 6.89135E-02 1.98851E-13-8.20049E-13
 -1      1624 2.03906E+01 8.97013E-03-2.28282E-04 7.43243E-02 2.44810E-13-5.47093E-13
 -1      1625 2.04044E+01 1.60443E-02-8.19869E-04 1.65576E-01 3.82483E-13-3.31598E-13
 -1      1626 2.01308E+01 4.77020E-03-1.97831E-03 4.52679E-02-1.44830E-13-7.78752E-13
 -1      1627 2.02067E+01 8.12065E-03-2.21797E-04 5.03000E-02-8.55430E-14-8.75700E-13
 -1      1628 2.02313E+01 1.33986E-02-1.09539E-03 1.15688E-01 1.84085E-14-3.41138E-13
 -1      1629 2.00409E+01 4.89294E-03-1.70756E-03 2.27564E-02 3.31861E-14-7.87332E-13
 -1      1630 2.00842E+01 8.21283E-03-3.50395E-04 2.83378E-02-1.97202E-14-6.93124E-13
 -1      1631 2.01124E+01 1.26605E-02-1.40528E-03 7.15780E-02-8.24013E-14-5.82418E-13
 -1      1632 2.00049E+01 4.37110E-03 1.17337E-03 2.53076E-03-8.01831E-15-1.00748E-12
 -1      1633 2.00164E+01 7.50725E-03 1.15023E-04 7.87181E-03 9.22764E-14-9.15010E-13
 -1      1634 2.00395E+01 1.16363E-02-1.27158E-03 3.00376E-02 1.72273E-13-5.21185E-13
 -1      1635 1.99974E+01-4.55563E-04 2.59995E-03-3.39407E-03-6.31533E-13-7.23310E-13
 -1      1636 2.00081E+01 2.93932E-02-1.17339E-03 1.74503E-02-3.16055E-13 4.62822E-13
 -1      1637 2.00081E+01 1.46697E-02 8.18446E-04 1.21780E-02-7.41170E-13 2.16678E-13
 -1      1638 2.00059E+01 1.02963E-01-1.01289E-03 3.87470E-02 3.08264E-13 4.38056E-13
 -1      1639 2.00076E+01 6.16776E-02-8.21136E-04 3.47725E-02-1.42406E-13 4.29475E-13
 -1      1640 2.00158E+01 6.78298E-02-1.46242E-03 5.23041E-02-1.57374E-13 6.41251E-13
 -1      1641 2.00020E+01 2.06455E-01-4.90515E-04 5.20395E-02 7.95119E-14 3.45177E-14
 -1      1642 2.00043E+01 1.47503E-01-6.80263E-04 5.01436E-02 2.52475E-13 1.55425E-13
 -1      1643 2.00094E+01 1.44768E-01-1.43673E-03 8.67996E-02-9.43440E-14 2.16763E-13
 -1      1644 1.99981E+01 3.20861E-01-7.16530E-05 5.46324E-02-1.04070E-13-1.72499E-13
 -1      1645 2.00003E+01 2.56830E-01-2.93911E-04 5.49892E-02 8.04669E-14-2.18288E-14
 -1      1646 2.00027E+01 2.40168E-01-2.64133E-04 1.03790E-01-2.87822E-13-1.88805E-13
 -1      1647 1.99950E+01 4.24105E-01 1.26206E-04 4.75067E-02-5.18418E-13-2.19906E-13
 -1      1648 1.99968E+01 3.67870E-01-4.72750E-05 4.96264E-02-2.37968E-13-4.51796E-13
 -1      1649 1.99963E+01 3.37649E-01 8.48098E-04 1.00843E-01-2.32992E-13-4.94319E-13
 -1      1650 1.99929E+01 5.02969E-01 1.99871E-04 3.27212E-02-3.63998E-13 9.21327E-14
 -1      1651 1.99941E+01 4.62115E-01 8.52888E-05 3.61505E-02-5.92062E-13 1.51607E-13
 -1      1652 1.99915E+01 4.22423E-01 1.70393E-03 8.08486E-02-3.05172E-13-1.95032E-13
 -1      1653 1.99922E+01 5.43993E-01 1.87644E-04 1.34319E-02-4.08554E-13-8.91099E-14
 -1      1654 1.99926E+01 5.25394E-01 1.17751E-04 1.74573E-02-3.55827E-13-2.94413E-14
 -1      1655 1.99884E+01 4.82347E-01 2.21667E-03 4.84493E-02-2.87418E-13 1.33490E-13
 -1      1656 1.99925E+01 5.42548E-01 1.37318E-04-7.06233E-03-4.65721E-13-4.02289E-14
 -1      1657 1.99922E+01 5.48135E-01 1.13143E-04-3.07634E-03-3.20693E-13-5.49370E-14
 -1      1658 1.99875E+01 5.08465E-01 2.35648E-03 9.91750E-03-2.09765E-13-7.25400E-14
 -1      1659 1.99939E+01 5.00416E-01 7.09086E-05-2.57533E-02-1.73903E-13 2.40022E-13
 -1      1660 1.99930E+01 5.28460E-01 9.52631E-05-2.23540E-02-3.95670E-13 2.21379E-13
 -1      1661 1.99884E+01 4.98212E-01 2.16043E-03-2.85814E-02 1.43195E-13 1.65594E-13
 -1      1662 1.99960E+01 4.24943E-01-4.81290E-06-4.01908E-02-3.43144E-13-3.12659E-13
 -1      1663 1.99947E+01 4.70672E-01 7.88908E-05-3.78018E-02-1.82935E-13 9.65016E-15
 -1      1664 1.99908E+01 4.54283E-01 1.69092E-03-6.16442E-02 8.48591E-14 1.60635E-13
 -1      1665 1.99985E+01 3.29432E-01-8.65574E-05-4.85119E-02-5.80461E-13 1.37226E-14
 -1      1666 1.99969E+01 3.84814E-01 3.12433E-05-4.74233E-02-3.09754E-13-3.42028E-13
 -1      1667 1.99944E+01 3.84431E-01 1.04948E-03-8.49257E-02-9.67815E-14-3.82031E-13
 -1      1668 2.00013E+01 2.24672E-01-2.44082E-04-4.98501E-02-5.12863E-13 6.48842E-14
 -1      1669 1.99996E+01 2.83186E-01-8.06596E-05-5.01916E-02-5.12120E-13 2.92733E-13
 -1      1670 1.99987E+01 2.98309E-01 2.64052E-04-9.57728E-02-1.61697E-13 1.39891E-13
 -1      1671 2.00040E+01 1.27756E-01-5.48508E-04-4.35127E-02-1.50615E-13 4.97116E-13
 -1      1672 2.00024E+01 1.79351E-01-3.26532E-04-4.53557E-02-4.81246E-13 2.13246E-13
 -1      1673 2.00035E+01 2.06854E-01-5.75485E-04-9.25569E-02-7.55554E-14 7.47454E-14
 -1      1674 2.00071E+01 5.48551E-02-1.59205E-04-3.00174E-02-1.26668E-13 6.31759E-14
 -1      1675 2.00048E+01 8.97660E-02-7.45025E-04-3.33805E-02-2.04312E-13 3.38287E-13
 -1      1676 2.00082E+01 1.23397E-01-1.29304E-03-7.47539E-02-2.19477E-13 3.42706E-13
 -1      1677 2.00111E+01 2.17335E-02 9.63427E-04-1.84276E-02-2.88456E-13-3.31626E-13
 -1      1678 2.00106E+01 3.61267E-02-6.53827E-04-2.46830E-02-5.21201E-14-1.96331E-13
 -1      1679 2.00187E+01 6.78312E-02-6.50873E-04-5.53742E-02-1.87408E-13 5.77403E-14
 -1      1680 2.00308E+01 3.32903E-02 5.04556E-04-3.82274E-02-5.07450E-14-2.49328E-13
 -1      1681-8.49525E-01-1.61316E+01-1.83186E+00-1.54400E+00 9.41025E-13 1.50269E-13
 -1      1682-7.71286E-01-1.77121E+01-1.98455E+00-1.26416E-01 7.94136E-13 2.72365E-13
 -1      1683 8.08904E-01-9.98942E+00-1.38571E+00-2.85322E-01 9.78551E-13 5.82340E-13
 -1      1684 2.88244E-01-1.45620E+01-1.79252E+00-5.30065E-01 1.01885E-12 2.19894E-13
 -1      1685 5.25782E+00-2.62817E+00-8.81439E-01 2.99489E+00 1.20082E-12 8.79963E-13
 -1      1686 2.80814E+00-8.19872E+00-1.55795E+00 5.55561E-01 9.78995E-13 6.97831E-13
 -1      1687 1.49896E+01 3.31232E+00-1.38981E-01 8.23054E+00 1.16973E-12 1.16152E-12
 -1      1688 9.04249E+00-7.48221E-01-1.02953E+00 4.41979E+00 1.20925E-12 1.02540E-12
 -1      1689 3.04033E+01 5.35504E+00 7.63023E-01 1.17114E+01 8.57536E-13 1.08136E-12
 -1      1690 2.09465E+01 4.12464E+00-2.00463E-01 8.95376E+00 1.03184E-12 1.15818E-12
 -1      1691 4.54631E+01 5.11546E+00 1.56796E+00 1.10846E+01 5.52891E-13 8.82405E-13
 -1      1692 3.58174E+01 6.23083E+00 7.36422E-01 1.16756E+01 7.41296E-13 1.09912E-12
 -1      1693 5.59782E+01 3.91317E+00 2.06223E+00 5.17596E+00 3.51524E-13 3.04756E-13
 -1      1694 4.94021E+01 5.28317E+00 1.52448E+00 9.36431E+00 4.48155E-13 6.97109E-13
 -1      1695 5.80130E+01 3.93768E+00 2.15228E+00-3.42667E+00 3.04312E-13-3.64653E-13
 -1      1696 5.81083E+01 3.84370E+00 2.12091E+00 2.89697E+00 3.61711E-13 1.94067E-13
 -1      1697 4.88584E+01 5.47396E+00 1.57563E+00-1.01178E+01 2.33785E-13-6.87672E-13
 -1      1698 5.60444E+01 3.88556E+00 2.12059E+00-5.92924E+00 1.29674E-13-6.13065E-13
 -1      1699 3.36309E+01 6.51941E+00 6.61827E-01-1.19504E+01 5.34794E-13-6.92557E-13
 -1      1700 4.42442E+01 5.50949E+00 1.62043E+00-1.19034E+01 3.25795E-13-6.63469E-13
 -1      1701 1.81591E+01 2.27771E+00-4.03847E-01-7.34825E+00 5.20251E-13-6.08180E-13
 -1      1702 2.80073E+01 4.42789E+00 6.03526E-01-1.08530E+01 5.27578E-13-6.23723E-13
 -1      1703 6.62590E+00-2.88379E+00-1.24021E+00-3.03408E+00 6.39488E-13-5.04041E-13
 -1      1704 1.13284E+01 1.63102E+00-4.35630E-01-6.56587E+00 6.46594E-13-7.31415E-13
 -1      1705 1.49903E+00-1.07756E+01-1.75708E+00 3.35806E-01 1.25011E-13-3.42726E-13
 -1      1706 3.27341E+00-4.96376E+00-1.12244E+00-1.56533E+00 5.54889E-13-5.93414E-13
 -1      1707-3.72176E-01-1.66432E+01-1.97833E+00 7.61296E-01-4.32931E-13-8.51541E-14
 -1      1708-2.92386E-01-1.27308E+01-1.65517E+00 1.35789E+00-4.64073E-14-1.98702E-13
 -1      1709-7.84876E-01-1.70187E+01-1.86445E+00-4.68594E-01-8.64558E-13-1.04028E-13
 -1      1710-8.65583E-01-1.73580E+01-1.93427E+00 1.26745E+00-6.04794E-13-2.30094E-14
 -1      1711 1.67176E-01-1.15601E+01-1.42034E+00-2.59961E-01-6.64913E-13-1.20598E-14
 -1      1712-1.10029E-01-1.57779E+01-1.82777E+00 1.93094E-01-8.61367E-13-1.49047E-14
 -1      1713 3.59274E+00-3.66159E+00-8.63126E-01 2.44830E+00-6.43707E-13-4.32876E-13
 -1      1714 1.80961E+00-9.62591E+00-1.54870E+00 5.17317E-01-5.68101E-13-2.75224E-13
 -1      1715 1.26316E+01 2.99718E+00-6.96477E-02 7.80062E+00-6.10623E-13-6.22613E-13
 -1      1716 7.61165E+00-1.68337E+00-9.02802E-01 4.15094E+00-5.25358E-13-4.71290E-13
 -1      1717 2.49442E+01 6.46517E+00 6.69850E-01 1.19000E+01-5.16254E-13-8.10463E-13
 -1      1718 1.71028E+01 4.72727E+00-1.83601E-01 8.87034E+00-5.99631E-13-6.76903E-13
 -1      1719 3.91208E+01 6.16775E+00 1.23231E+00 1.25304E+01-4.69014E-13-7.35190E-13
 -1      1720 2.98818E+01 7.29560E+00 5.60395E-01 1.23375E+01-5.60441E-13-7.28750E-13
 -1      1721 4.95785E+01 4.39867E+00 1.48446E+00 7.04933E+00-4.06272E-13-1.10467E-13
 -1      1722 4.28748E+01 6.00730E+00 1.07555E+00 1.02329E+01-5.05387E-13-5.02487E-13
 -1      1723 5.50635E+01 3.62356E+00 1.79111E+00-1.23751E-01-5.26246E-14 1.99469E-13
 -1      1724 5.29054E+01 4.18723E+00 1.59517E+00 5.44846E+00-1.88127E-13-2.87548E-14
 -1      1725 5.10551E+01 4.70963E+00 1.60083E+00-8.07691E+00-2.80304E-13 4.62852E-13
 -1      1726 5.50507E+01 3.52081E+00 1.85130E+00-2.96050E+00-9.71445E-14 2.87548E-13
 -1      1727 3.99555E+01 6.53016E+00 1.04805E+00-1.19118E+01-5.03320E-13 7.44516E-13
 -1      1728 4.75683E+01 4.94204E+00 1.58755E+00-9.85539E+00-3.68601E-13 5.06484E-13
 -1      1729 2.59704E+01 7.04403E+00 3.60003E-01-1.17288E+01-1.15052E-12 1.20259E-12
 -1      1730 3.52326E+01 6.69817E+00 1.15435E+00-1.30306E+01-8.21676E-13 8.02913E-13
 -1      1731 1.39312E+01 3.42091E+00-3.82383E-01-7.60649E+00-1.23257E-12 1.27343E-12
 -1      1732 2.09625E+01 5.98410E+00 4.53179E-01-1.10244E+01-1.16773E-12 1.49325E-12
 -1      1733 6.00030E+00-2.41397E+00-1.02876E+00-3.37539E+00-8.93063E-13 9.60565E-13
 -1      1734 9.60226E+00 1.91890E+00-3.30647E-01-6.35462E+00-1.17040E-12 1.27731E-12
 -1      1735 1.60694E+00-9.06141E+00-1.55175E+00-2.67000E-01-2.80664E-13 4.98768E-13
 -1      1736 2.88775E+00-4.20800E+00-1.01696E+00-1.77180E+00-7.72937E-13 6.55975E-13
 -1      1737 2.69516E-01-1.44634E+01-1.74612E+00 7.62017E-02 1.16684E-13 7.72854E-14
 -1      1738 4.89622E-01-1.07578E+01-1.43420E+00 1.21832E-01-6.10623E-14 2.07709E-13
 -1      1739-5.97559E-01-1.78503E+01-2.00852E+00-4.63714E-01 7.31915E-13 3.63043E-13
 -1      1740-5.95245E-01-1.58890E+01-1.81800E+00 8.24361E-01 2.44915E-13 1.86628E-13
 -1      1741-9.87747E-02-1.11957E+01-1.30720E+00-2.19048E+00 1.65146E-13 3.18245E-13
 -1      1742 2.34758E+01-9.08901E-01 6.41929E-02 6.77884E+00 8.40994E-13 8.21787E-13
 -1      1743 1.24288E+01-4.67411E+00-6.07802E-01 5.60481E+00 8.32667E-13 9.07052E-13
 -1      1744 2.00069E+01 2.46674E-03 3.53868E-04 1.47796E-03-7.25552E-13-2.23411E-13
 -1      1745 2.00184E+01 2.57508E-02 1.37745E-04 2.05334E-02-1.27386E-13 1.37313E-13
 -1      1746 3.38993E-03-1.09294E+01-1.23750E+00 1.63593E+00 4.71123E-13 2.35090E-13
 -1      1747 4.70633E+00-8.41638E+00-1.02585E+00 3.70616E+00 6.65468E-13 5.75623E-13
 -1      1748-1.40531E+00-1.26290E+01-1.42693E+00-4.98503E-01 3.36550E-13 4.84557E-13
 -1      1749 3.47185E+01 2.50727E+00 7.05822E-01 6.08179E+00 7.22367E-13 6.27387E-13
 -1      1750 4.37345E+01 5.66517E+00 1.32881E+00 4.20427E+00 5.74846E-13 5.45564E-13
 -1      1751 4.88769E+01 7.52432E+00 1.70324E+00 1.32930E+00 5.76650E-13 2.51132E-13
 -1      1752 4.91978E+01 7.31461E+00 1.73900E+00-1.75603E+00 3.34011E-13-3.93019E-14
 -1      1753 4.33843E+01 5.45247E+00 1.31776E+00-5.03245E+00 1.72432E-13-4.02345E-13
 -1      1754 3.27362E+01 1.28442E+00 4.26749E-01-5.88088E+00 2.88547E-13-2.33591E-13
 -1      1755 2.11683E+01-2.34703E+00-4.47688E-02-6.46442E+00 1.68421E-13-3.64930E-13
 -1      1756 9.66104E+00-5.88985E+00-7.43335E-01-4.99437E+00 1.66422E-13-4.41314E-13
 -1      1757 2.51125E+00-9.74589E+00-1.20180E+00-2.74512E+00-2.33147E-14-4.70554E-13
 -1      1758-1.07883E+00-1.20540E+01-1.40696E+00-5.47242E-01-4.01762E-13-2.78666E-13
 -1      1759-8.78684E-01-1.14901E+01-1.30692E+00 1.62745E+00-5.97244E-13-6.99441E-14
 -1      1760 2.82853E+00-8.82463E+00-1.04377E+00 3.74074E+00-4.19664E-13-4.92939E-14
 -1      1761 1.02888E+01-4.80925E+00-5.19760E-01 6.00448E+00-2.94431E-13-3.72313E-13
 -1      1762 1.99906E+01-7.72299E-01 1.32999E-02 7.34417E+00-2.91100E-13-4.99822E-13
 -1      1763 3.00401E+01 3.17982E+00 5.90699E-01 7.77102E+00-3.74922E-13-4.66960E-13
 -1      1764 3.88345E+01 5.75912E+00 1.04493E+00 5.79586E+00-5.61523E-13-2.77889E-13
 -1      1765 4.43350E+01 7.10189E+00 1.19879E+00 2.44658E+00-4.67293E-13-1.05804E-13
 -1      1766 4.75012E+01 7.46110E+00 1.54481E+00-8.20735E-01-1.71585E-13 7.44960E-14
 -1      1767 4.42452E+01 6.70564E+00 1.35224E+00-4.29734E+00-3.66818E-13 1.53932E-13
 -1      1768 3.68812E+01 5.18010E+00 9.88284E-01-7.01513E+00-6.28456E-13 1.54321E-13
 -1      1769 2.70688E+01 2.29440E+00 4.22603E-01-7.85621E+00-7.35190E-13 5.03819E-13
 -1      1770 1.71216E+01-1.29940E+00-1.23933E-01-7.20928E+00-3.98015E-13 8.60201E-13
 -1      1771 8.59418E+00-4.94262E+00-6.52102E-01-5.38535E+00-2.03837E-13 7.62057E-13
 -1      1772 2.96743E+00-8.67225E+00-1.09814E+00-3.47645E+00-1.12133E-14 4.88165E-13
 -1      1773 2.28432E+01 1.98411E+00-2.36154E-02-2.72244E+00-8.70415E-14 6.95000E-14
 -1      1774 1.98206E+01 3.71857E+00-3.48936E-02-2.15531E+00-4.07226E-14-1.98550E-13
 -1      1775 2.00472E+01 3.56023E+00-4.29334E-02-2.44187E+00-7.40328E-14-1.81390E-13
 -1      1776 2.03580E+01 3.18182E+00-4.51786E-02-2.58545E+00-8.42265E-14-1.66929E-13
 -1      1777 2.05740E+01 2.80850E+00-1.42601E-01-2.85358E+00-1.10408E-13-1.35163E-13
 -1      1778 2.04246E+01 2.69120E+00-2.97876E-03-2.22155E+00-8.08793E-14-1.59969E-13
 -1      1779 1.93611E+01 4.19097E+00-2.01945E-02-1.27031E+00 2.36985E-14-2.07117E-13
 -1      1780 1.94328E+01 4.15080E+00-1.71693E-02-1.49475E+00 1.22346E-14-2.16892E-13
 -1      1781 1.92669E+01 4.29755E+00-1.68225E-02-8.59416E-01 4.89274E-14-1.86349E-13
 -1      1782 1.93085E+01 4.27325E+00-1.43570E-02-1.07019E+00 3.77530E-14-2.04243E-13
 -1      1783 1.95336E+01 3.78582E+00-9.26937E-03-1.11892E+00 2.61852E-14-2.00975E-13
 -1      1784 1.92169E+01 4.35863E+00-1.48233E-02-4.66635E-01 7.88806E-14-1.43925E-13
 -1      1785 1.92382E+01 4.34555E+00-1.33264E-02-6.66869E-01 7.23255E-14-1.65975E-13
 -1      1786 1.94387E+01 3.90710E+00-9.17688E-03-7.32642E-01 6.56089E-14-1.65222E-13
 -1      1787 1.91981E+01 4.38453E+00-1.36801E-02-8.36796E-02 1.15332E-13-1.10346E-13
 -1      1788 1.92043E+01 4.38053E+00-1.32267E-02-2.79031E-01 9.28801E-14-1.33116E-13
 -1      1789 1.93896E+01 3.97222E+00-9.11379E-03-3.58029E-01 9.33160E-14-1.21559E-13
 -1      1790 1.92061E+01 4.37912E+00-1.31744E-02 2.97868E-01 1.52592E-13-9.03860E-14
 -1      1791 1.91986E+01 4.38367E+00-1.37655E-02 1.02344E-01 1.37076E-13-9.80396E-14
 -1      1792 1.93753E+01 3.99181E+00-9.09337E-03 1.04283E-02 1.35265E-13-9.79807E-14
 -1      1793 1.92424E+01 4.34142E+00-1.33279E-02 6.86483E-01 1.51620E-13-7.92665E-14
 -1      1794 1.92198E+01 4.35536E+00-1.49323E-02 4.85720E-01 1.50361E-13-9.26065E-14
 -1      1795 1.93925E+01 3.96881E+00-9.13747E-03 3.79112E-01 1.58301E-13-8.96071E-14
 -1      1796 1.93142E+01 4.26721E+00-1.44062E-02 1.08416E+00 1.57917E-13-3.25608E-14
 -1      1797 1.92718E+01 4.29205E+00-1.69888E-02 8.76174E-01 1.51581E-13-6.27345E-14
 -1      1798 1.94442E+01 3.90062E+00-9.15141E-03 7.51050E-01 1.61232E-13-6.86656E-14
 -1      1799 1.94430E+01 4.13901E+00-1.73979E-02 1.51432E+00 1.83202E-13 3.85594E-14
 -1      1800 1.93681E+01 4.18204E+00-2.05137E-02 1.28472E+00 1.62371E-13 1.71044E-15
 -1      1801 1.95419E+01 3.77573E+00-9.21228E-03 1.13478E+00 1.76152E-13-1.36800E-14
 -1      1802 1.96682E+01 3.92146E+00-2.51954E-02 1.97968E+00 1.84690E-13 1.14186E-13
 -1      1803 1.95375E+01 3.99869E+00-2.69047E-02 1.72226E+00 1.85020E-13 6.90108E-14
 -1      1804 1.97122E+01 3.56753E+00-8.68609E-03 1.53468E+00 1.86832E-13 6.16156E-14
 -1      1805 2.00719E+01 3.52234E+00-4.51686E-02 2.47230E+00 1.80078E-13 2.43503E-13
 -1      1806 1.98345E+01 3.68323E+00-3.96871E-02 2.18318E+00 1.74361E-13 1.73542E-13
 -1      1807 2.00043E+01 3.22342E+00-5.26661E-03 1.93439E+00 1.86468E-13 1.44594E-13
 -1      1808 2.09111E+01 2.68116E+00-5.76272E-02 2.85811E+00 1.43298E-13 4.13523E-13
 -1      1809 2.04069E+01 3.09643E+00-5.03646E-02 2.61643E+00 1.62594E-13 3.13076E-13
 -1      1810 2.05122E+01 2.60981E+00 3.20984E-03 2.24473E+00 1.77116E-13 2.68632E-13
 -1      1811 2.17170E+01 1.21279E+00-1.22046E-01 2.33025E+00 1.00919E-13 5.89959E-13
 -1      1812 2.12629E+01 2.26248E+00 1.28138E-04 2.74082E+00 1.26333E-13 4.73260E-13
 -1      1813 2.09272E+01 1.68485E+00-2.29504E-02 2.14066E+00 1.46893E-13 3.98907E-13
 -1      1814 2.09382E+01 7.78606E-01-6.24498E-02 1.52477E+00 1.04437E-13 5.62403E-13
 -1      1815 2.17841E+01 2.45731E+00 9.08991E-02-3.04838E+00-1.01865E-13-5.53169E-14
 -1      1816 2.00876E+01 2.98036E-01-8.90389E-03 6.57520E-01 9.30193E-14 4.99524E-13
 -1      1817 2.06397E+01 4.40461E-01-1.24583E-02 1.03456E+00 8.75341E-14 5.27098E-13
 -1      1818 2.07329E+01 8.45107E-01 2.23247E-03 1.41560E+00 1.17101E-13 4.26140E-13
 -1      1819 2.14961E+01 1.74204E+00 7.95092E-02-2.33766E+00-9.88064E-14-8.21010E-14
 -1      1820 2.05092E+01 5.00983E-01 3.25115E-02-9.21724E-01-7.26641E-14-8.49683E-14
 -1      1821 2.00780E+01 3.52431E-01 7.76825E-03-6.29690E-01-5.47253E-14-8.98578E-14
 -1      1822 1.98838E+01 2.57913E-01 2.74370E-02-3.90886E-01-7.32834E-14-7.79299E-14
 -1      1823 1.96935E+01 1.78949E-01 1.05165E-02-2.52561E-01-6.58701E-14-9.32431E-14
 -1      1824 2.01910E+01 4.84168E-01-5.91233E-03-7.22164E-01-7.11818E-14-9.09494E-14
 -1      1825 1.95725E+01 1.33778E-01 1.66897E-02-1.18237E-01-4.83676E-14-7.85353E-14
 -1      1826 1.94956E+01 9.45149E-02 7.08282E-03-4.66816E-02-4.06164E-14-8.81959E-14
 -1      1827 1.98666E+01 2.45321E-01-5.86951E-03-2.93609E-01-5.70728E-14-6.54628E-14
 -1      1828 1.94325E+01 7.01832E-02 8.75814E-03 2.81877E-02-2.26067E-14-9.37844E-14
 -1      1829 1.94201E+01 4.89658E-02 4.28913E-03 6.55743E-02-1.97539E-14-8.90993E-14
 -1      1830 1.96868E+01 1.27641E-01-4.75328E-03-5.42576E-02-2.98854E-14-8.56439E-14
 -1      1831 1.93968E+01 3.51017E-02 4.34357E-03 1.06319E-01-3.64822E-14-8.91275E-14
 -1      1832 1.94201E+01 2.33146E-02 2.70060E-03 1.24922E-01-3.29510E-14-9.47365E-14
 -1      1833 1.96047E+01 6.46628E-02-3.60494E-03 7.91496E-02-2.07316E-14-1.01146E-13
 -1      1834 1.94225E+01 1.53139E-02 2.00599E-03 1.45827E-01-3.82217E-14-8.31156E-14
 -1      1835 1.94652E+01 9.00008E-03 1.82771E-03 1.53910E-01-1.83293E-14-6.30346E-14
 -1      1836 1.95872E+01 2.95906E-02-2.52729E-03 1.51244E-01-2.65572E-14-7.66146E-14
 -1      1837 1.94837E+01 4.62617E-03 7.56168E-04 1.63520E-01-3.35546E-14-8.70747E-14
 -1      1838 1.95364E+01 1.75145E-03 1.35023E-03 1.66033E-01-4.04451E-14-9.32392E-14
 -1      1839 1.96108E+01 1.04496E-02-1.68871E-03 1.87716E-01-3.51473E-14-6.54635E-14
 -1      1840 1.95649E+01-2.20293E-04 9.39958E-05 1.69793E-01-6.63252E-14-1.11068E-13
 -1      1841 1.96228E+01-8.13168E-04 1.11732E-03 1.69935E-01-5.13047E-14-9.70076E-14
 -1      1842 1.96599E+01 1.22287E-03-1.11929E-03 2.04392E-01-5.17583E-14-1.08327E-13
 -1      1843 1.96577E+01-1.13360E-03-2.25455E-04 1.71483E-01-7.53290E-14-1.35691E-13
 -1      1844 1.97184E+01-1.72796E-04 1.05229E-03 1.71417E-01-9.34802E-14-1.84327E-13
 -1      1845 1.97251E+01-1.45591E-03-7.76824E-04 2.11591E-01-1.05396E-13-1.63821E-13
 -1      1846 1.97580E+01 6.43144E-04-3.33959E-04 1.73236E-01-9.93790E-14-2.07443E-13
 -1      1847 1.98211E+01 2.64309E-03 1.10337E-03 1.74429E-01-8.81766E-14-2.41604E-13
 -1      1848 1.98010E+01 3.09279E-04-6.05792E-04 2.16282E-01-1.29889E-13-1.67941E-13
 -1      1849 1.98647E+01 4.19275E-03-3.12660E-04 1.78182E-01-6.82674E-14-2.31857E-13
 -1      1850 1.99310E+01 6.80677E-03 1.22388E-03 1.81572E-01-5.77926E-14-2.54827E-13
 -1      1851 1.98854E+01 5.02879E-03-5.57255E-04 2.23194E-01-8.52018E-14-1.51597E-13
 -1      1852 1.99790E+01 8.71852E-03-2.17893E-04 1.88245E-01-4.14654E-14-2.46673E-13
 -1      1853 2.00499E+01 1.15202E-02 1.36213E-03 1.94291E-01-3.50202E-14-2.23472E-13
 -1      1854 1.99781E+01 1.14656E-02-5.90823E-04 2.35359E-01-4.29194E-14-1.37646E-13
 -1      1855 2.01031E+01 1.33861E-02-9.29262E-05 2.04213E-01-1.79706E-14-2.13413E-13
 -1      1856 2.01802E+01 1.58670E-02 1.45389E-03 2.12844E-01 1.18455E-15-1.58255E-13
 -1      1857 2.00802E+01 1.83785E-02-6.71749E-04 2.54302E-01-5.28605E-15-1.61927E-13
 -1      1858 2.02396E+01 1.71788E-02 2.59102E-05 2.25594E-01-2.12008E-14-1.73389E-13
 -1      1859 2.03243E+01 1.86706E-02 1.41627E-03 2.36090E-01 9.16330E-15-2.09664E-13
 -1      1860 2.01937E+01 2.43001E-02-7.67455E-04 2.79969E-01-1.51940E-14-1.60763E-13
 -1      1861 2.03907E+01 1.87609E-02 1.05961E-04 2.50301E-01 1.91445E-14-2.48309E-13
 -1      1862 2.04834E+01 1.83694E-02 1.14452E-03 2.61085E-01 8.87148E-16-2.18297E-13
 -1      1863 2.03204E+01 2.73290E-02-8.44401E-04 3.10416E-01-2.31181E-14-1.79409E-13
 -1      1864 2.05573E+01 1.63714E-02 1.17098E-04 2.74174E-01-2.93755E-14-2.75851E-13
 -1      1865 2.06564E+01 1.29473E-02 5.15861E-04 2.82565E-01-5.71874E-14-2.65733E-13
 -1      1866 2.04616E+01 2.49627E-02-8.65292E-04 3.41305E-01-2.04988E-14-1.84577E-13
 -1      1867 2.07372E+01 7.80593E-03 3.23906E-05 2.90430E-01-4.55125E-14-2.65461E-13
 -1      1868 2.08388E+01 8.44591E-06-5.93048E-04 2.92414E-01-5.41573E-14-2.27297E-13
 -1      1869 2.06171E+01 1.40469E-02-7.86221E-04 3.65276E-01-3.53254E-14-2.09872E-13
 -1      1870 2.09247E+01-9.39340E-03-1.70025E-04 2.89238E-01-5.85790E-14-1.53568E-13
 -1      1871 2.10212E+01-2.28469E-02-2.26587E-03 2.79418E-01 1.74634E-14-1.22914E-13
 -1      1872 2.07841E+01-9.00039E-03-5.53342E-04 3.71401E-01-1.25267E-14-1.07575E-13
 -1      1873 2.11080E+01-3.73540E-02-5.05767E-04 2.57795E-01 4.01506E-14-1.44741E-13
 -1      1874 2.11878E+01-5.71234E-02-4.47469E-03 2.29777E-01 6.78177E-14-1.50032E-13
 -1      1875 2.09563E+01-4.74308E-02-9.93543E-05 3.45091E-01 4.32867E-14 5.21171E-15
 -1      1876 2.12686E+01-7.66500E-02-9.85418E-04 1.81571E-01 5.03000E-14-1.66577E-13
 -1      1877 2.13159E+01-1.01780E-01-6.97719E-03 1.29184E-01 3.26965E-14-1.64229E-13
 -1      1878 2.11225E+01-1.02535E-01 6.57034E-04 2.69140E-01 4.48782E-14-4.13515E-14
 -1      1879 2.13806E+01-1.24279E-01-1.62022E-03 4.76400E-02 9.59493E-14-1.69485E-13
 -1      1880 2.13770E+01-1.50833E-01-9.20657E-03-3.25955E-02 1.04467E-13-8.70295E-14
 -1      1881 2.12655E+01-1.70881E-01 1.79710E-03 1.26888E-01 6.15103E-14-5.42553E-14
 -1      1882 2.14114E+01-1.71080E-01-2.40998E-03-1.48996E-01 8.84028E-14-6.76498E-14
 -1      1883 2.13397E+01-1.90956E-01-1.02419E-02-2.54014E-01 1.24771E-13-5.21309E-14
 -1      1884 2.13611E+01-2.40691E-01 3.34895E-03-9.13571E-02 1.19879E-13-2.68429E-14
 -1      1885 2.13274E+01-1.99979E-01-3.30122E-03-3.96111E-01 1.50100E-13-2.37008E-14
 -1      1886 2.11776E+01-2.01247E-01-9.00495E-03-5.11956E-01 6.56272E-14 3.98791E-14
 -1      1887 2.13798E+01-2.89063E-01 5.14368E-03-3.78145E-01 1.61766E-13-1.25136E-13
 -1      1888 2.11038E+01-1.87819E-01-4.04841E-03-6.54768E-01-4.39531E-14 1.11937E-13
 -1      1889 2.08812E+01-1.58365E-01-4.79806E-03-7.54283E-01-5.65130E-15 1.25866E-13
 -1      1890 2.12913E+01-2.83768E-01 6.59313E-03-6.96905E-01 7.84837E-14 2.87155E-14
 -1      1891 2.07417E+01-1.14013E-01-4.10127E-03-8.56423E-01-1.33392E-14 8.44359E-14
 -1      1892 2.04729E+01-4.92657E-02 1.88753E-03-9.02999E-01 2.85898E-14 2.81888E-14
 -1      1893 2.10777E+01-1.93907E-01 6.60463E-03-9.74717E-01 1.20097E-14 1.30865E-13
 -1      1894 2.02852E+01 2.36698E-02-2.58094E-03-9.16355E-01 1.14568E-13-2.58951E-15
 -1      1895 2.00185E+01 1.11882E-01 8.93807E-03-8.76898E-01 9.03407E-14 4.56883E-15
 -1      1896 2.07519E+01-1.09519E-02 3.87165E-03-1.11089E+00 5.65701E-14 3.85132E-14
 -1      1897 1.98282E+01 1.94047E-01 1.25301E-03-7.68807E-01 6.49108E-14 1.45973E-14
 -1      1898 1.96239E+01 2.75558E-01 1.32936E-02-6.33281E-01 3.82446E-14 6.80450E-14
 -1      1899 2.03756E+01 2.29885E-01-1.75821E-03-1.01165E+00 7.42924E-14-6.91068E-14
 -1      1900 1.94943E+01 3.34538E-01 6.84789E-03-4.12338E-01-2.46209E-14 1.76096E-14
 -1      1901 1.94048E+01 3.73565E-01 1.29086E-02-2.08215E-01-1.32112E-13 6.32827E-15
 -1      1902 2.00565E+01 4.47673E-01-8.24357E-03-6.45682E-01-2.72915E-14-5.65832E-14
 -1      1903 1.93869E+01 3.81731E-01 1.20186E-02 6.69339E-02-2.31952E-13 9.26964E-14
 -1      1904 1.94367E+01 3.59331E-01 8.53590E-03 2.80532E-01-1.80932E-13 8.52226E-14
 -1      1905 1.99092E+01 5.50991E-01-1.16022E-02-8.74187E-02-1.23043E-13-1.02847E-13
 -1      1906 1.95377E+01 3.12673E-01 1.37808E-02 5.24542E-01-1.20244E-13 7.56491E-15
 -1      1907 1.97129E+01 2.39894E-01 2.80565E-03 6.83926E-01-9.92058E-14-7.89082E-14
 -1      1908 1.99921E+01 4.91710E-01-9.58097E-03 4.97443E-01-2.25616E-13-3.35161E-14
 -1      1909 1.98918E+01 1.60884E-01 1.06660E-02 8.27085E-01-1.06526E-13-7.31173E-14
 -1      1910 2.01459E+01 7.09955E-02-1.65078E-03 8.94244E-01-1.11214E-13-8.38821E-14
 -1      1911 2.02713E+01 2.98175E-01-3.48949E-03 9.30151E-01-1.55523E-13-1.06911E-13
 -1      1912 2.03394E+01-7.22216E-03 4.04724E-03 9.13471E-01-1.76606E-13-1.61777E-13
 -1      1913 2.06124E+01-8.07361E-02-3.85365E-03 8.88603E-01-1.25007E-13-1.65853E-13
 -1      1914 2.06421E+01 5.43603E-02 2.62459E-03 1.10603E+00-1.73923E-13-2.19112E-13
 -1      1915 2.07680E+01-1.34224E-01-3.07749E-03 8.06947E-01-1.24224E-13-2.15496E-13
 -1      1916 2.10065E+01-1.73919E-01-4.21607E-03 7.18483E-01-1.76625E-13-2.46835E-13
 -1      1917 2.09898E+01-1.50918E-01 6.14650E-03 1.02891E+00-1.65045E-13-2.75713E-13
 -1      1918 2.10987E+01-1.95628E-01-8.13796E-03 5.82275E-01-1.01542E-13-1.98683E-13
 -1      1919 2.12694E+01-2.02018E-01-3.58594E-03 4.67610E-01-5.59583E-14-2.25166E-13
 -1      1920 2.12374E+01-2.68162E-01 6.75105E-03 7.80296E-01-1.39239E-13-2.12572E-13
 -1      1921 2.12974E+01-1.98165E-01-1.01711E-02 3.21870E-01-8.43895E-14-2.36740E-13
 -1      1922 2.13896E+01-1.82168E-01-2.66698E-03 2.11711E-01 5.03373E-14-3.26372E-13
 -1      1923 2.13593E+01-2.94875E-01 5.57687E-03 4.63853E-01-6.85693E-14-1.35005E-13
 -1      1924 2.13663E+01-1.63941E-01-9.65104E-03 8.64896E-02 2.79518E-13-2.74748E-13
 -1      1925 2.13866E+01-1.38128E-01-1.80787E-03-1.44832E-03 2.84719E-13-7.93950E-14
 -1      1926 2.13671E+01-2.57992E-01 3.81296E-03 1.62646E-01 1.53818E-13-1.22647E-13
 -1      1927 2.13287E+01-1.15411E-01-7.63567E-03-9.28484E-02 1.98873E-13-1.77023E-13
 -1      1928 2.12931E+01-8.90805E-02-1.09112E-03-1.52740E-01-6.13008E-16-1.28239E-13
 -1      1929 2.12893E+01-1.91026E-01 2.15956E-03-7.65398E-02 1.93272E-13-2.10193E-13
 -1      1930 2.12157E+01-6.81174E-02-5.11701E-03-2.09261E-01-1.16808E-13 1.43545E-13
 -1      1931 2.11431E+01-4.62502E-02-5.14718E-04-2.43032E-01-5.64410E-14 1.51593E-13
 -1      1932 2.11567E+01-1.19941E-01 8.80189E-04-2.38925E-01 1.00504E-13-2.20345E-14
 -1      1933 2.10578E+01-2.98341E-02-2.76013E-03-2.70208E-01-5.02309E-14 1.57933E-13
 -1      1934 2.09653E+01-1.40303E-02-6.04530E-05-2.83393E-01 5.93961E-14 2.05416E-13
 -1      1935 2.09957E+01-5.93532E-02-7.65159E-06-3.30116E-01-3.61020E-14 2.57975E-13
 -1      1936 2.08802E+01-2.63255E-03-8.88850E-04-2.88978E-01 7.38113E-15 7.05403E-14
 -1      1937 2.07813E+01 7.51123E-03 2.91835E-04-2.87820E-01 9.74111E-14 1.94847E-13
 -1      1938 2.08260E+01-1.45311E-02-5.76244E-04-3.65077E-01-3.26944E-15 3.42659E-13
 -1      1939 2.07016E+01 1.46346E-02 4.18787E-04-2.79189E-01 2.58060E-13 8.19136E-14
 -1      1940 2.06057E+01 2.04186E-02 5.67103E-04-2.69071E-01 2.68975E-13 2.85796E-13
 -1      1941 2.06611E+01 1.50295E-02-9.08890E-04-3.60598E-01 7.14448E-14 3.09051E-13
 -1      1942 2.05344E+01 2.44659E-02 1.21955E-03-2.52024E-01 1.11118E-13 4.02662E-13
 -1      1943 2.04476E+01 2.74085E-02 7.91661E-04-2.36852E-01 1.66917E-13 4.53209E-13
 -1      1944 2.05096E+01 3.25609E-02-1.07500E-03-3.31230E-01 3.00372E-13 3.41855E-13
 -1      1945 2.03861E+01 2.96093E-02 1.61685E-03-2.15309E-01 1.51319E-13 2.67615E-13
 -1      1946 2.03120E+01 3.11074E-02 9.81421E-04-1.97448E-01 6.28926E-14 2.85290E-13
 -1      1947 2.03761E+01 4.20766E-02-1.12788E-03-2.87704E-01 7.33267E-14 3.19334E-13
 -1      1948 2.02606E+01 3.25204E-02 1.70369E-03-1.73617E-01-9.48429E-14 1.66125E-13
 -1      1949 2.02010E+01 3.36757E-02 1.12865E-03-1.54128E-01-7.90586E-14-1.37200E-14
 -1      1950 2.02628E+01 4.73488E-02-1.09864E-03-2.36819E-01-1.04520E-13 1.66647E-13
 -1      1951 2.01592E+01 3.49179E-02 1.51963E-03-1.28950E-01 7.38952E-14-6.02520E-14
 -1      1952 2.01150E+01 3.61450E-02 1.18164E-03-1.08117E-01 1.97271E-13-3.70333E-14
 -1      1953 2.01698E+01 5.13281E-02-9.49813E-04-1.82142E-01-9.28897E-14 2.20653E-13
 -1      1954 2.00853E+01 3.61388E-02 1.28058E-03-8.34998E-02 1.48808E-13-1.51709E-13
 -1      1955 2.00555E+01 3.63261E-02 1.26406E-03-6.26964E-02 2.57329E-14-4.72634E-14
 -1      1956 2.00485E+01 4.94057E-02-7.74364E-04-7.46025E-02-8.75224E-14-6.10040E-14
 -1      1957 2.00989E+01 5.30493E-02-1.12159E-03-1.26906E-01 6.83345E-14 8.36503E-14
 -1      1958 1.96053E+01 1.42451E-01 7.91629E-03 2.59505E-01 7.44405E-14 4.37518E-13
 -1      1959 1.98773E+01 2.04303E-01 1.64335E-02 4.32698E-01 9.61158E-14 4.82871E-13
 -1      1960 2.00913E+01 3.51091E-01-1.44507E-03 6.55251E-01 1.03841E-13 3.92828E-13
 -1      1961 1.93642E+01 7.25427E-02 6.99754E-03 5.55793E-02 2.54801E-14 4.04098E-13
 -1      1962 1.94788E+01 1.02302E-01 1.42459E-02 1.44460E-01 3.10073E-14 4.03909E-13
 -1      1963 1.96996E+01 1.65949E-01-1.92283E-03 2.55531E-01 5.11865E-14 3.32644E-13
 -1      1964 1.92764E+01 3.72341E-02 4.50009E-03-5.14923E-02 1.48878E-14 4.06562E-13
 -1      1965 1.93054E+01 5.28619E-02 8.41485E-03-3.61554E-03 1.66427E-14 4.07985E-13
 -1      1966 1.95015E+01 8.18504E-02-2.85964E-03 4.19239E-02 1.58393E-14 3.19998E-13
 -1      1967 1.92795E+01 1.79465E-02 2.97276E-03-1.06622E-01-8.72566E-15 3.65559E-13
 -1      1968 1.92620E+01 2.65537E-02 4.46314E-03-8.08720E-02 6.61710E-15 3.99192E-13
 -1      1969 1.94263E+01 3.93966E-02-2.91918E-03-7.26541E-02 4.76507E-15 2.92470E-13
 -1      1970 1.93347E+01 7.21989E-03 2.16122E-03-1.32758E-01 5.71993E-14 3.06467E-13
 -1      1971 1.92924E+01 1.19048E-02 2.31137E-03-1.19563E-01 2.55353E-14 3.32685E-13
 -1      1972 1.94262E+01 1.66364E-02-2.42254E-03-1.32393E-01 4.55372E-14 2.21367E-13
 -1      1973 1.94190E+01 1.66764E-03 1.70401E-03-1.42943E-01 7.82782E-14 2.82655E-13
 -1      1974 1.93639E+01 3.94824E-03 1.18412E-03-1.36795E-01 5.72784E-14 2.89861E-13
 -1      1975 1.94708E+01 4.52958E-03-1.84749E-03-1.61190E-01 8.77045E-14 1.80660E-13
 -1      1976 1.95190E+01-4.30777E-04 1.44010E-03-1.45394E-01 1.22474E-13 1.84232E-13
 -1      1977 1.94578E+01 2.72788E-04 6.03552E-04-1.42761E-01 1.19573E-13 2.52893E-13
 -1      1978 1.95416E+01-1.06955E-03-1.38838E-03-1.73245E-01 1.40797E-13 1.85380E-13
 -1      1979 1.96281E+01-1.49188E-05 1.31678E-03-1.45764E-01 4.21822E-14 1.82661E-13
 -1      1980 1.95639E+01-4.08469E-04 3.41217E-04-1.44163E-01 7.90020E-14 1.99968E-13
 -1      1981 1.96281E+01-2.27164E-03-1.07953E-03-1.77797E-01 1.04767E-13 1.69502E-13
 -1      1982 1.97447E+01 2.40870E-03 1.32183E-03-1.48286E-01 6.73135E-15 1.89131E-13
 -1      1983 1.96778E+01 1.19610E-03 2.89477E-04-1.45809E-01 3.92183E-14 2.07282E-13
 -1      1984 1.97251E+01-2.09132E-04-9.06561E-04-1.81377E-01 3.64578E-14 1.72400E-13
 -1      1985 1.98704E+01 6.61889E-03 1.45916E-03-1.56457E-01 3.64012E-14 1.44824E-13
 -1      1986 1.97994E+01 4.73110E-03 3.93889E-04-1.51480E-01 1.06114E-15 1.48941E-13
 -1      1987 1.98315E+01 4.54426E-03-8.49190E-04-1.89028E-01 2.73504E-14 1.16424E-13
 -1      1988 2.00102E+01 1.26129E-02 1.74236E-03-1.73494E-01 5.78395E-14 1.61609E-13
 -1      1989 1.99319E+01 1.00940E-02 6.25733E-04-1.64475E-01 4.93957E-14 1.51279E-13
 -1      1990 1.99495E+01 1.17940E-02-8.92316E-04-2.05047E-01 5.73200E-14 6.35219E-14
 -1      1991 2.01717E+01 2.05724E-02 2.19240E-03-2.02702E-01 4.46016E-14 1.34174E-13
 -1      1992 2.00815E+01 1.73871E-02 9.70515E-04-1.88011E-01 3.10508E-14 1.52527E-13
 -1      1993 2.00835E+01 2.16423E-02-1.02728E-03-2.33517E-01 5.75722E-14 1.24209E-13
 -1      1994 2.03653E+01 3.08325E-02 2.83378E-03-2.47766E-01 1.29789E-14 2.29498E-13
 -1      1995 2.02568E+01 2.68866E-02 1.42093E-03-2.25536E-01 7.93755E-15 1.44645E-13
 -1      1996 2.02408E+01 3.44384E-02-1.25124E-03-2.78707E-01 1.59090E-14 1.11007E-13
 -1      1997 2.06041E+01 4.38192E-02 3.68391E-03-3.12949E-01-7.37626E-15 2.71399E-13
 -1      1998 2.04693E+01 3.89971E-02 1.96888E-03-2.80968E-01 3.54183E-14 2.45763E-13
 -1      1999 2.04304E+01 5.07152E-02-1.56744E-03-3.45376E-01-1.41623E-14 1.65708E-13
 -1      2000 2.09042E+01 5.98888E-02 4.72879E-03-4.03108E-01 1.13491E-13 1.51130E-13
 -1      2001 2.07333E+01 5.41407E-02 2.59251E-03-3.58787E-01 3.73293E-14 2.02699E-13
 -1      2002 2.06639E+01 7.10415E-02-1.98745E-03-4.38893E-01 9.26989E-14 1.66258E-13
 -1      2003 2.12844E+01 7.89412E-02 5.87300E-03-5.23254E-01 1.66980E-14 1.01056E-13
 -1      2004 2.10657E+01 7.24823E-02 3.23371E-03-4.63807E-01 8.53900E-14 1.01530E-13
 -1      2005 2.09546E+01 9.56602E-02-2.53740E-03-5.64997E-01 1.14436E-13 8.58205E-14
 -1      2006 2.17651E+01 9.95637E-02 6.85160E-03-6.77121E-01-1.61124E-13 9.28107E-14
 -1      2007 2.14859E+01 9.33025E-02 3.76252E-03-6.00237E-01-8.79219E-14 3.94791E-14
 -1      2008 2.13174E+01 1.23659E-01-3.26977E-03-7.28752E-01-5.56508E-14 4.32938E-14
 -1      2009 2.23657E+01 1.17298E-01 7.10433E-03-8.63715E-01-1.51058E-13 1.20461E-13
 -1      2010 2.20143E+01 1.13683E-01 3.93565E-03-7.69261E-01-1.55734E-13 1.32887E-13
 -1      2011 2.17680E+01 1.51232E-01-4.27713E-03-9.31877E-01-1.45104E-13 7.17712E-14
 -1      2012 2.30989E+01 1.21509E-01 5.66886E-03-1.07012E+00 1.24284E-14 6.26261E-14
 -1      2013 2.26690E+01 1.25998E-01 3.38151E-03-9.63827E-01-7.36525E-14 4.99227E-14
 -1      2014 2.23204E+01 1.68367E-01-5.68742E-03-1.16703E+00-8.37256E-14-3.05064E-14
 -1      2015 2.39608E+01 9.07857E-02 1.28799E-03-1.25831E+00 1.05823E-13 1.76416E-13
 -1      2016 2.34601E+01 1.13824E-01 1.71255E-03-1.15873E+00 8.74288E-14 1.71837E-13
 -1      2017 2.29846E+01 1.53408E-01-7.58106E-03-1.40698E+00 2.84417E-14 9.63951E-14
 -1      2018 2.49155E+01-1.06811E-02-6.85167E-03-1.34519E+00-1.08111E-13 1.05305E-13
 -1      2019 2.43786E+01 4.71463E-02-1.14651E-03-1.29457E+00 2.74845E-17 1.77431E-13
 -1      2020 2.37628E+01 6.67732E-02-9.71221E-03-1.58704E+00 1.11583E-14 7.44283E-14
 -1      2021 2.58766E+01-2.25456E-01-1.72660E-02-1.18331E+00-1.36209E-13 1.13153E-13
 -1      2022 2.53804E+01-1.17062E-01-4.31887E-03-1.25843E+00-1.80043E-13 4.04364E-14
 -1      2023 2.46431E+01-1.48793E-01-1.09569E-02-1.58329E+00-1.25774E-13 8.70198E-14
 -1      2024 2.66897E+01-5.59819E-01-2.38735E-02-5.73620E-01-9.53942E-14 2.97348E-13
 -1      2025 2.63597E+01-4.11509E-01-6.39269E-03-8.79721E-01-1.43319E-13 1.84866E-13
 -1      2026 2.55881E+01-5.37691E-01-8.83116E-03-1.20390E+00-1.70523E-13 1.92342E-13
 -1      2027 2.71254E+01-8.78721E-01-1.78410E-02 6.11699E-01 2.07126E-14 4.23005E-13
 -1      2028 2.71129E+01-7.78803E-01-7.37636E-03 7.91760E-03-6.46878E-14 3.56116E-13
 -1      2029 2.64992E+01-1.03150E+00-6.67630E-04-2.44655E-01-1.07581E-13 2.01763E-13
 -1      2030 2.69051E+01-8.16206E-01-6.74912E-03 2.11689E+00 1.93201E-13 6.10727E-13
 -1      2031 2.73160E+01-9.49076E-01-1.74079E-02 1.35450E+00 1.39139E-13 5.10855E-13
 -1      2032 2.71466E+01-1.28324E+00 8.50819E-03 1.29955E+00 7.80469E-14 3.94958E-13
 -1      2033 2.59001E+01-2.13581E-04-2.23841E-02 2.98933E+00 1.91860E-14 4.45179E-13
 -1      2034 2.66806E+01-4.71489E-01-4.09474E-02 2.56311E+00 9.42493E-14 5.83825E-13
 -1      2035 2.71774E+01-7.39687E-01-1.08713E-02 2.83142E+00 1.38639E-13 4.87188E-13
 -1      2036 2.45999E+01 1.21693E+00-8.53958E-02 2.02144E+00-3.09058E-14 1.94476E-13
 -1      2037 2.53852E+01 7.19989E-01-6.75806E-02 2.51267E+00-2.04003E-14 2.97793E-13
 -1      2038 2.64932E+01 7.74289E-01-6.32887E-02 3.05339E+00 5.58026E-14 4.43450E-13
 -1      2039 2.41886E+01 1.61595E+00-1.33814E-01-5.46353E-01 2.10304E-13 8.84084E-14
 -1      2040 2.44217E+01 1.63096E+00-6.52146E-02 6.67156E-01 7.06518E-14 1.12150E-13
 -1      2041 2.57936E+01 2.12955E+00-1.14206E-01 1.06013E+00 8.52096E-14 1.61805E-13
 -1      2042 2.51952E+01 6.86652E-01-1.03255E-01-2.65881E+00 1.16566E-13-1.87732E-13
 -1      2043 2.46451E+01 1.22554E+00-5.20821E-02-1.72394E+00 2.09971E-13-3.45522E-14
 -1      2044 2.59674E+01 1.88984E+00-9.62439E-02-1.80382E+00 2.93876E-13-7.15946E-14
 -1      2045 2.66541E+01-4.62013E-01-1.00541E-02-2.80980E+00 3.83409E-14-4.03351E-13
 -1      2046 2.57379E+01 6.95273E-03-3.88054E-02-2.74529E+00 3.54647E-14-2.07279E-13
 -1      2047 2.67829E+01 3.23075E-01-3.94881E-02-3.19486E+00 1.38958E-13-3.15709E-13
 -1      2048 2.74054E+01-9.02921E-01 4.13876E-02-1.52764E+00 1.23846E-13-2.84772E-13
 -1      2049 2.67211E+01-8.10335E-01-3.05827E-02-2.05316E+00 5.91107E-14-4.29344E-13
 -1      2050 2.72429E+01-1.01922E+00-2.20986E-02-2.45956E+00 8.25811E-14-3.66682E-13
 -1      2051 2.72386E+01-7.34598E-01 3.96998E-02-7.07284E-02-2.04834E-13-2.39094E-13
 -1      2052 2.70398E+01-8.75769E-01-2.38379E-02-6.69523E-01-2.09277E-14-1.62108E-13
 -1      2053 2.69651E+01-1.30576E+00-2.31877E-02-8.16894E-01-7.23692E-14-1.33805E-13
 -1      2054 2.64729E+01-3.86166E-01 1.65057E-02 8.89186E-01 1.78032E-13-2.26499E-13
 -1      2055 2.67008E+01-5.59297E-01-1.73023E-02 4.87971E-01-8.28539E-14-2.17222E-13
 -1      2056 2.62038E+01-9.29116E-01-2.58749E-02 5.87346E-01-5.61287E-14-1.39910E-13
 -1      2057 2.54657E+01-1.09606E-01-1.46103E-04 1.29592E+00 2.20634E-13-8.27966E-14
 -1      2058 2.59380E+01-2.27558E-01-1.07112E-02 1.11821E+00 1.97630E-13-5.17156E-14
 -1      2059 2.52756E+01-4.27419E-01-1.80830E-02 1.36618E+00 1.12034E-13 5.19983E-15
 -1      2060 2.44372E+01 4.39080E-02-6.85231E-03 1.33479E+00-9.13381E-15 6.68042E-15
 -1      2061 2.49929E+01-1.36461E-02-3.99168E-03 1.30866E+00 2.10082E-14-3.12562E-14
 -1      2062 2.43519E+01-7.34747E-02-8.60317E-03 1.61615E+00 7.93489E-14 1.66194E-13
 -1      2063 2.34979E+01 1.06029E-01-7.52353E-03 1.19216E+00-2.49008E-13 1.57197E-13
 -1      2064 2.40356E+01 8.79817E-02 1.18601E-03 1.24287E+00-9.53148E-14 4.52000E-14
 -1      2065 2.35042E+01 1.07543E-01-2.29204E-03 1.55104E+00-1.47754E-13 2.17801E-13
 -1      2066 2.26919E+01 1.17583E-01-5.97657E-03 9.88560E-01-3.20726E-13 4.20735E-13
 -1      2067 2.31628E+01 1.19565E-01 4.25916E-03 1.06669E+00-3.93034E-13 2.15347E-13
 -1      2068 2.27611E+01 1.71485E-01 5.88777E-04 1.34444E+00-3.96482E-13 2.87987E-13
 -1      2069 2.20272E+01 1.06607E-01-4.12453E-03 7.85774E-01-2.48796E-13 4.95138E-13
 -1      2070 2.24165E+01 1.16538E-01 5.51272E-03 8.65427E-01-1.77133E-13 4.34153E-13
 -1      2071 2.21313E+01 1.74563E-01 1.37216E-03 1.10060E+00-2.55328E-13 3.21077E-13
 -1      2072 2.14937E+01 8.84099E-02-2.61302E-03 6.09150E-01 2.49321E-13 2.39768E-13
 -1      2073 2.18043E+01 1.00081E-01 5.57543E-03 6.79367E-01 1.06203E-13 3.39691E-13
 -1      2074 2.16118E+01 1.52527E-01 1.22763E-03 8.70788E-01 1.59660E-14 9.26005E-14
 -1      2075 2.10735E+01 7.01947E-02-1.53220E-03 4.64965E-01 1.41139E-13 1.85999E-13
 -1      2076 2.13158E+01 8.08657E-02 5.02767E-03 5.22753E-01 1.18476E-13 2.10644E-13
 -1      2077 2.11923E+01 1.24036E-01 8.04549E-04 6.74591E-01 1.63023E-13 2.32402E-13
 -1      2078 2.07475E+01 5.48763E-02-7.84259E-04 3.50825E-01 3.01560E-13 2.45981E-14
 -1      2079 2.09333E+01 6.35570E-02 4.26790E-03 3.96896E-01 2.52077E-13 2.42941E-13
 -1      2080 2.08595E+01 9.74976E-02 3.92833E-04 5.15224E-01 3.34348E-13 8.36445E-14
 -1      2081 2.04981E+01 4.33629E-02-2.76743E-04 2.60908E-01 5.53286E-13-1.49213E-13
 -1      2082 2.06385E+01 4.98999E-02 3.52296E-03 2.97541E-01 5.06304E-13 3.09777E-14
 -1      2083 2.05992E+01 7.61301E-02 8.91121E-05 3.88499E-01 5.01547E-13 7.58931E-15
 -1      2084 2.03113E+01 3.56012E-02 3.96230E-05 1.88760E-01 3.03007E-13-1.38149E-13
 -1      2085 2.04151E+01 4.01194E-02 2.85883E-03 2.18544E-01 3.92293E-13-9.78238E-14
 -1      2086 2.03989E+01 6.03969E-02-2.07366E-04 2.87392E-01 4.00282E-13 1.11434E-13
 -1      2087 2.01759E+01 3.16629E-02 2.20228E-04 1.28027E-01-1.10842E-13-2.34991E-13
 -1      2088 2.02496E+01 3.42765E-02 2.26184E-03 1.53764E-01 1.10185E-13-1.53268E-13
 -1      2089 2.02481E+01 5.04778E-02-4.33871E-04 2.04744E-01 2.11355E-13 6.41754E-14
 -1      2090 2.00843E+01 3.06276E-02 6.94511E-04 7.35314E-02 7.45767E-14-4.09395E-13
 -1      2091 2.01314E+01 3.16274E-02 1.60418E-03 9.73984E-02-3.77088E-14-3.07814E-13
 -1      2092 2.01377E+01 4.59355E-02-5.11847E-04 1.33778E-01-2.89482E-16 5.05535E-14
 -1      2093 2.00362E+01 2.89963E-02 1.12895E-03 3.64476E-02-1.00852E-13 1.22610E-14
 -1      2094 2.00637E+01 3.17630E-02 1.05773E-03 5.77429E-02-6.14873E-15-1.81712E-13
 -1      2095 2.00715E+01 4.52057E-02-4.75606E-04 8.27602E-02-8.08786E-14 1.23618E-13
 -1      2096 2.00355E+01 4.24609E-02 2.60818E-06 4.81887E-02-1.86665E-13 5.43703E-13
 -1      2097 2.00004E+01 2.70818E-01-8.48207E-04 1.45316E-01-2.66334E-13-1.48628E-13
 -1      2098 2.00111E+01 2.24596E-01 9.05854E-04 1.42082E-01-2.87172E-13 7.24379E-14
 -1      2099 2.00215E+01 1.79057E-01-3.30531E-04 1.31940E-01-2.95334E-13 4.54865E-14
 -1      2100 2.00310E+01 1.37102E-01 1.16230E-03 1.16488E-01-2.40293E-13 3.22200E-13
 -1      2101 2.00243E+01 2.10579E-01 8.65389E-05 1.76831E-01-3.09391E-13 4.88926E-14
 -1      2102 2.00334E+01 1.03529E-01 1.32515E-04 9.53635E-02-1.78539E-13 4.68534E-13
 -1      2103 2.00379E+01 7.05736E-02 9.95277E-04 7.33261E-02-1.53370E-13 6.47868E-13
 -1      2104 2.00542E+01 7.31102E-02 6.87385E-04 9.13916E-02-1.66925E-13 6.29814E-13
 -1      2105 2.00447E+01 1.33094E-01-4.47062E-04 1.40693E-01-2.69259E-13 2.82924E-13
 -1      2106 1.99822E+01 3.56068E-01-1.28124E-03 1.33931E-01-3.39872E-13-5.95822E-13
 -1      2107 1.99913E+01 3.12791E-01 1.31619E-04 1.41372E-01-2.16318E-13-3.14704E-13
 -1      2108 1.99943E+01 2.97263E-01 5.67650E-04 1.82552E-01-2.32326E-13-3.10878E-13
 -1      2109 1.99682E+01 4.26304E-01-1.57521E-03 1.01106E-01-1.69750E-13 4.45542E-14
 -1      2110 1.99747E+01 3.91323E-01-6.44924E-04 1.17398E-01-2.88760E-13-1.49272E-13
 -1      2111 1.99688E+01 3.74448E-01 1.20248E-03 1.58963E-01-2.12830E-13-3.96500E-13
 -1      2112 1.99605E+01 4.70299E-01-1.65323E-03 5.38584E-02-7.31562E-14 6.37251E-15
 -1      2113 1.99637E+01 4.49448E-01-1.30932E-03 7.55292E-02-4.37093E-14 1.54578E-13
 -1      2114 1.99503E+01 4.32836E-01 1.57729E-03 1.11043E-01 8.09346E-14 1.30336E-13
 -1      2115 1.99592E+01 4.82974E-01-1.52334E-03 5.15588E-04-1.37356E-14 3.15994E-14
 -1      2116 1.99591E+01 4.78916E-01-1.71383E-03 2.38825E-02-1.29167E-13-6.90030E-15
 -1      2117 1.99411E+01 4.64654E-01 1.72463E-03 4.82282E-02 1.86441E-14-9.91594E-14
 -1      2118 1.99637E+01 4.63836E-01-1.21294E-03-5.08582E-02 2.48740E-13 2.85713E-13
 -1      2119 1.99607E+01 4.76646E-01-1.82731E-03-2.92408E-02 1.10177E-13 2.60387E-13
 -1      2120 1.99412E+01 4.66963E-01 1.64418E-03-1.91473E-02 1.93297E-14 2.12662E-13
 -1      2121 1.99728E+01 4.16637E-01-7.74502E-04-9.33655E-02 4.77605E-14-1.68147E-13
 -1      2122 1.99676E+01 4.44057E-01-1.66238E-03-7.63521E-02 1.74608E-13 1.47153E-13
 -1      2123 1.99495E+01 4.40800E-01 1.37048E-03-8.13665E-02 1.17477E-13 1.14206E-13
 -1      2124 1.99849E+01 3.49803E-01-2.29455E-04-1.21492E-01-1.50997E-14-2.76314E-13
 -1      2125 1.99783E+01 3.86940E-01-1.30198E-03-1.11231E-01 1.53962E-14-2.34389E-13
 -1      2126 1.99640E+01 3.91146E-01 9.97422E-04-1.30129E-01 1.75575E-13-2.34103E-13
 -1      2127 1.99992E+01 2.70010E-01 3.42076E-04-1.32909E-01 3.50073E-14 1.67337E-13
 -1      2128 1.99916E+01 3.12933E-01-8.26774E-04-1.30356E-01 3.21252E-14 5.94742E-14
 -1      2129 1.99828E+01 3.24514E-01 5.17977E-04-1.60262E-01 1.95069E-13-9.63960E-14
 -1      2130 2.00139E+01 1.88191E-01 8.31172E-04-1.25477E-01 8.51289E-14 2.01534E-13
 -1      2131 2.00063E+01 2.30554E-01-3.34232E-04-1.31348E-01 4.57583E-14 9.25278E-14
 -1      2132 2.00041E+01 2.48228E-01 5.38612E-05-1.68610E-01 1.50198E-13 6.17659E-14
 -1      2133 2.00270E+01 1.11485E-01 3.43817E-04-9.98281E-02-1.78886E-13 4.51423E-14
 -1      2134 2.00206E+01 1.49884E-01 3.79300E-05-1.13699E-01-4.69365E-14 1.65054E-13
 -1      2135 2.00258E+01 1.71237E-01-2.10842E-04-1.53936E-01-1.21032E-15 8.68001E-14
 -1      2136 9.28630E+00-6.05097E+00-2.45059E-01 5.71599E+00 4.76064E-13 6.55781E-13
 -1      2137 5.95404E+00-7.14206E+00-3.92770E-01 4.64305E+00 3.68205E-13 4.30711E-13
 -1      2138-2.78369E-01-8.22110E+00-5.12531E-01-1.40101E-01 1.39361E-13 4.78784E-13
 -1      2139-6.66748E-02-8.56107E+00-5.82698E-01-1.39870E+00 1.28897E-13 4.54636E-13
 -1      2140 2.81786E+00-6.50364E+00-2.67988E-01 3.37904E+00 2.94820E-13 4.03289E-13
 -1      2141 9.81504E-01-7.67608E+00-4.84282E-01 1.67800E+00 7.03326E-14 3.80196E-13
 -1      2142 1.80374E+01-4.43344E+00-7.29739E-02 6.53101E+00 6.07181E-13 5.80758E-13
 -1      2143 1.32899E+01-6.17488E+00-3.92352E-01 5.69557E+00 4.33431E-13 6.78985E-13
 -1      2144 6.52843E-01-8.57316E+00-5.94847E-01-2.35160E+00 2.76612E-13 3.10585E-13
 -1      2145 1.70828E+00-7.33703E+00-4.40288E-01-3.42457E+00 2.04892E-13 1.90181E-13
 -1      2146 1.01472E+00-5.96364E+00-3.43410E-01-2.27771E+00 2.13968E-13 3.76810E-13
 -1      2147 1.95258E+01 4.01691E+00-2.56527E-02-1.70079E+00 1.53350E-15-2.20053E-13
 -1      2148 1.96520E+01 3.94290E+00-2.43424E-02-1.95602E+00-2.14126E-14-2.16303E-13
 -1      2149 1.99730E+01 3.25371E+00-7.98984E-03-1.90893E+00-3.62935E-14-1.93623E-13
 -1      2150 1.96975E+01 3.58476E+00-9.23235E-03-1.51702E+00 5.96463E-15-2.11414E-13
 -1      2151 4.03444E+01 4.81971E+00 3.17048E-01 9.75757E-01 4.90663E-13 2.62346E-13
 -1      2152 3.75836E+01 3.38551E+00 1.69280E-01 1.88833E+00 4.18970E-13 2.12830E-13
 -1      2153 4.22417E+01 7.05791E+00 4.28257E-01-5.74598E-02 5.49505E-13 1.61170E-13
 -1      2154 4.06693E+01 6.51391E+00 2.63927E-01 4.97209E-01 4.64018E-13 2.25153E-13
 -1      2155 4.17815E+01 6.40167E+00 4.12085E-01-9.23593E-01 1.97231E-13 8.26006E-14
 -1      2156 4.29531E+01 6.93433E+00 4.34507E-01-3.92730E-02 4.25104E-13 1.83006E-13
 -1      2157 3.75239E+01 3.22132E+00 2.20207E-01-2.72220E+00 1.37071E-13-6.80567E-14
 -1      2158 4.09908E+01 4.69355E+00 4.41955E-01-1.74775E+00 1.24845E-13-3.82472E-14
 -1      2159 3.01549E+01-1.28688E+00-1.60366E-02-3.51689E+00 1.43385E-13 4.11893E-14
 -1      2160 3.54933E+01 1.28788E+00 3.86759E-01-3.75686E+00 2.02394E-13-1.02696E-13
 -1      2161 1.91223E+01-4.80515E+00-2.91883E-01-5.65508E+00 1.93179E-14-1.37779E-13
 -1      2162 2.50095E+01-3.60444E+00-9.89585E-02-5.46329E+00-5.40124E-14-5.41789E-14
 -1      2163 1.03151E+01-6.68705E+00-4.61143E-01-5.38058E+00-1.83187E-14-3.32373E-13
 -1      2164 1.48062E+01-4.97318E+00-1.63452E-01-6.45214E+00 7.39409E-14-2.64067E-13
 -1      2165 3.66341E+00-7.56474E+00-4.60139E-01-3.66559E+00-1.93345E-13-5.10036E-13
 -1      2166 6.70164E+00-6.32485E+00-2.63249E-01-5.08618E+00-5.99520E-14-4.84807E-13
 -1      2167 1.75834E-01-7.67875E+00-4.36287E-01-5.23670E-01-3.48208E-13-2.01505E-13
 -1      2168 1.17682E+00-7.28361E+00-3.82622E-01-2.07046E+00-2.45026E-13-3.60101E-13
 -1      2169 1.38947E+00-6.53454E+00-2.87430E-01 3.03991E+00-3.37397E-13 9.53682E-14
 -1      2170 3.19164E-01-7.44881E+00-4.12444E-01 1.40239E+00-3.54425E-13-5.95635E-14
 -1      2171 7.10575E+00-5.57768E+00-1.61600E-01 6.06212E+00-2.92710E-13-1.47105E-14
 -1      2172 4.21713E+00-6.71582E+00-3.20269E-01 4.79925E+00-3.43114E-13 6.80289E-14
 -1      2173 1.47377E+01-4.00478E+00-5.88009E-02 7.29114E+00-1.90181E-13-3.12222E-13
 -1      2174 1.01528E+01-5.87654E+00-3.53048E-01 6.18598E+00-2.33369E-13-1.93678E-13
 -1      2175 2.43353E+01-1.59069E+00 1.15516E-01 6.70226E+00-2.54186E-13-5.66991E-13
 -1      2176 1.95906E+01-3.61831E+00-1.85938E-01 6.34760E+00-2.19769E-13-4.93827E-13
 -1      2177 3.20389E+01 1.79397E+00 2.42793E-01 5.27533E+00-4.11365E-13-3.98681E-13
 -1      2178 2.73633E+01-4.76673E-02-8.14623E-02 5.31325E+00-3.30208E-13-4.55525E-13
 -1      2179 3.61849E+01 4.45394E+00 9.12602E-02 2.14131E+00-6.10345E-13-1.81077E-13
 -1      2180 3.40224E+01 3.35994E+00 1.63877E-01 3.80257E+00-5.26905E-13-3.00426E-13
 -1      2181 3.22680E+01 1.47991E+00 2.22180E-01 1.96898E+00-4.30822E-13-1.55931E-13
 -1      2182 4.06354E+01 7.23036E+00 4.48282E-01 8.91851E-01-3.00204E-13-1.18322E-13
 -1      2183 3.79163E+01 6.61166E+00 2.03050E-01 1.60811E+00-5.29909E-13-8.59868E-14
 -1      2184 4.00304E+01 7.22100E+00 2.81431E-01-9.27187E-01-2.10554E-13 1.04805E-13
 -1      2185 4.00382E+01 7.43421E+00 2.58340E-01 2.80989E-01-1.83464E-13-2.18922E-14
 -1      2186 3.74646E+01 5.81952E+00 1.82460E-01-2.41107E+00-3.45279E-13 5.19584E-14
 -1      2187 4.00068E+01 6.50652E+00 3.39787E-01-1.48430E+00-2.33202E-13 9.99201E-14
 -1      2188 3.57638E+01 7.90289E+00 3.10326E-01 1.04687E-01-2.79554E-13 8.11573E-14
 -1      2189 3.22893E+01 2.56967E+00 6.01525E-02-4.59629E+00-5.80050E-13-8.81517E-14
 -1      2190 3.61238E+01 3.93710E+00 2.86585E-01-3.75095E+00-4.05648E-13-1.00864E-13
 -1      2191 2.52822E+01-1.07203E+00-9.59410E-02-5.68851E+00-3.63432E-13-1.11022E-14
 -1      2192 2.99985E+01 8.30672E-01 2.16525E-01-5.76103E+00-5.54917E-13-2.50577E-13
 -1      2193 1.65281E+01-3.72758E+00-2.77044E-01-6.56194E+00 9.53682E-14 6.48148E-13
 -1      2194 2.11964E+01-1.94975E+00 2.33510E-02-7.18922E+00-1.66422E-13 3.21632E-13
 -1      2195 9.19064E+00-5.99180E+00-4.31909E-01-5.88829E+00 2.48246E-13 5.06400E-13
 -1      2196 1.28838E+01-4.22390E+00-1.18334E-01-6.99219E+00 2.01728E-13 7.86204E-13
 -1      2197 4.62624E+00-7.10901E+00-4.21250E-01-4.86043E+00 3.26239E-13 3.04062E-13
 -1      2198 6.83985E+00-5.97334E+00-2.82214E-01-5.66212E+00 2.28484E-13 3.53828E-13
 -1      2199 1.03609E+01-5.63602E+00-1.42430E-01-7.00726E+00 5.25247E-13 4.11365E-13
 -1      2200 2.74340E+01-2.18272E+00 5.24360E-02 5.50021E+00 6.01297E-13 4.34430E-13
 -1      2201 2.18468E+01-3.85824E+00-2.69139E-01 5.46152E+00 6.81788E-13 5.51892E-13
 -1      2202 3.59276E+01 1.45496E+00 2.68882E-01 3.30127E+00 5.27536E-13 3.34066E-13
 -1      2203 3.11520E+01-4.45233E-01-5.31409E-02 3.59479E+00 6.82870E-13 3.40838E-13
 -1      2204 2.25035E+01-5.53502E+00 2.73672E-04 5.42410E+00 3.02536E-13 3.48110E-13
 -1      2205 2.07244E+01 1.10879E+00-2.05266E-02-1.61644E+00-9.20652E-14-1.01296E-13
 -1      2206 3.54193E+01 1.67323E+00 2.36599E-01 2.53527E-02 4.14363E-13-3.14748E-14
 -1      2207 2.06175E+01 1.32961E+00-1.88314E-02-1.67762E+00-8.38947E-14-1.28210E-13
 -1      2208 6.20970E+00-5.49012E+00-1.38496E-01 4.87250E+00 1.20459E-13 3.88078E-13
 -1      2209 1.54168E+00-5.27395E+00-2.22665E-01 1.17830E+00-9.29812E-15 4.43590E-13
 -1      2210 2.00343E+01 9.11150E-02 5.82172E-04-9.46220E-02-1.17042E-13 5.33372E-14
 -1      2211 1.41092E+01-6.17454E+00-1.01225E-01 6.47464E+00 1.42664E-13 4.97862E-13
 -1      2212 4.56793E+00-5.78716E+00-2.19472E-01-5.16704E+00 3.67373E-13 2.82607E-13
 -1      2213 1.69726E+01-4.99770E+00-5.19835E-02-7.05915E+00 5.34184E-13 5.85296E-13
 -1      2214 2.51341E+01-3.01338E+00 9.04125E-02-5.43443E+00 3.61933E-14-1.92291E-13
 -1      2215 3.49154E+01 4.71758E+00 2.57085E-01-8.49078E-01-3.18801E-13-3.87468E-14
 -1      2216 3.55970E+01 5.47960E+00 1.69493E-01 8.50225E-01-6.86368E-13-6.15064E-14
 -1      2217 3.26757E+01 4.18725E+00 5.93824E-02-1.98036E-01-6.29635E-13-2.29816E-14
 -1      2218 3.33941E+01 6.10582E+00-1.29028E-01-6.17022E-01-6.09124E-13-1.30507E-13
 -1      2219 2.73394E+01-2.45241E+00 9.74763E-02 4.39156E+00-2.72754E-13-4.79838E-13
 -1      2220 1.94234E+01-4.91082E+00 2.01780E-02 6.77926E+00-1.65590E-13-3.89966E-13
 -1      2221 1.09900E+01-5.40266E+00-8.01453E-02 7.05711E+00-2.39531E-13-1.07456E-13
 -1      2222 4.56159E+00-4.73856E+00-1.00297E-01 4.85038E+00-2.13302E-13 3.89688E-14
 -1      2223 1.49380E+00-4.74321E+00-1.84239E-01 4.46761E-01-2.00406E-13-1.63203E-13
 -1      2224 4.14302E+00-5.33161E+00-1.81663E-01-3.84858E+00-1.97203E-13-5.00766E-13
 -1      2225 1.09665E+01-6.09097E+00-1.42454E-01-6.18739E+00-1.19849E-13-4.51944E-13
 -1      2226 1.95968E+01-5.84371E+00 9.14641E-03-6.02563E+00-1.57541E-13-2.06501E-14
 -1      2227 2.85894E+01-3.24661E+00 4.72000E-02-3.68042E+00 9.43690E-15 2.22045E-15
 -1      2228 3.07532E+01-3.21935E+00-1.67620E-01-1.40806E+00 2.43972E-14 6.40044E-14
 -1      2229 2.69274E+01-4.83971E+00 1.30750E-01-3.66397E+00-1.06443E-13 5.19029E-14
 -1      2230 3.52985E+01 1.23298E+00 1.91408E-01-3.97162E-01 1.00545E-13 5.85643E-14
 -1      2231 3.83032E+01 5.70633E+00 3.94674E-01 5.02669E-01 1.85185E-13 2.74836E-13
 -1      2232 3.71800E+01 5.77010E+00 2.67819E-01-9.33235E-01 4.69291E-13 2.25375E-14
 -1      2233 3.79531E+01 7.70955E+00 3.53634E-01-5.64974E-02 4.96270E-13 2.62873E-13
 -1      2234 3.60964E+01 8.25241E+00 2.79059E-01 2.78298E-02-3.17635E-13-3.94407E-14
 -1      2235 3.11704E+01 2.53416E-01 1.47761E-01-2.73399E+00-3.41824E-13-2.54574E-13
 -1      2236 3.03439E+01-2.75252E+00 1.08698E-01 2.80638E+00 4.51750E-13 1.94678E-13
 -1      2237 2.01398E+01 5.07034E-01 3.81396E-03 6.78137E-01 9.77812E-14 3.10813E-13
 -1      2238 2.04066E+01 6.99631E-01 2.04665E-02 9.69153E-01 1.15475E-13 3.17804E-13
 -1      2239 1.95693E+01 3.52111E+00-1.11683E-02-5.90692E-01 6.88224E-14-1.37219E-13
 -1      2240 1.96041E+01 3.47488E+00-1.05098E-02-7.74881E-01 4.82092E-14-1.60018E-13
 -1      2241 1.96497E+01 3.38608E+00-1.28406E-02-9.39380E-01 3.83158E-14-1.78559E-13
 -1      2242 1.97092E+01 3.30494E+00-1.29194E-02-1.12857E+00 2.48587E-14-1.91090E-13
 -1      2243 1.97950E+01 3.03885E+00 2.45339E-04-7.90760E-01 4.13413E-14-1.49823E-13
 -1      2244 1.95232E+01 3.60431E+00-9.64055E-03 9.91518E-02 1.49431E-13-8.45669E-14
 -1      2245 1.95225E+01 3.60516E+00-9.65306E-03-8.00883E-02 1.30318E-13-9.13280E-14
 -1      2246 1.95489E+01 3.56446E+00-9.73118E-03 4.44741E-01 1.53016E-13-8.99645E-14
 -1      2247 1.95318E+01 3.58725E+00-1.01710E-02 2.64097E-01 1.49852E-13-9.83172E-14
 -1      2248 1.96891E+01 3.22842E+00-8.39220E-04 1.68997E-01 1.31862E-13-8.98136E-14
 -1      2249 1.96096E+01 3.46705E+00-1.06111E-02 7.88463E-01 1.64377E-13-6.15220E-14
 -1      2250 1.95740E+01 3.51444E+00-1.12445E-02 6.07116E-01 1.53948E-13-7.72221E-14
 -1      2251 1.97254E+01 3.16421E+00-4.46274E-04 4.86830E-01 1.39353E-13-8.25516E-14
 -1      2252 1.97182E+01 3.29212E+00-1.29492E-02 1.14182E+00 1.82553E-13 1.28907E-14
 -1      2253 1.96567E+01 3.37594E+00-1.29136E-02 9.52535E-01 1.75453E-13-3.65506E-14
 -1      2254 1.98011E+01 3.02937E+00 3.06250E-04 8.02191E-01 1.61306E-13-4.41318E-14
 -1      2255 1.98942E+01 3.00526E+00-1.81689E-02 1.48918E+00 1.84897E-13 7.80556E-14
 -1      2256 1.97964E+01 3.14708E+00-1.52132E-02 1.29863E+00 1.73885E-13 4.36699E-14
 -1      2257 1.99280E+01 2.80278E+00 1.95708E-03 1.10850E+00 1.68901E-13 2.10765E-14
 -1      2258 2.01678E+01 2.54439E+00-2.85151E-02 1.79393E+00 1.84817E-13 1.65147E-13
 -1      2259 2.00192E+01 2.78441E+00-1.71457E-02 1.61943E+00 1.83986E-13 1.10136E-13
 -1      2260 2.01194E+01 2.45090E+00 5.90047E-03 1.37471E+00 1.64501E-13 1.00707E-13
 -1      2261 2.46037E+00-3.54394E+00 4.17374E-02-1.68247E+00 2.40578E-13 2.10387E-13
 -1      2262 3.07080E+00-3.65197E+00 2.45978E-02-3.14992E+00 3.25018E-13 1.21791E-13
 -1      2263 1.98639E+01 2.69744E-01 4.80270E-03 2.83620E-01 4.91183E-14 2.54230E-13
 -1      2264 2.00232E+01 3.69326E-01 2.00594E-02 4.41205E-01 7.32387E-14 2.88514E-13
 -1      2265 2.02066E+01 6.38359E-01-1.21936E-03 7.04427E-01 1.00044E-13 2.26693E-13
 -1      2266 2.03944E+01 8.54310E-01 1.24568E-02-1.00005E+00-5.10061E-14-1.18832E-13
 -1      2267 2.01857E+01 6.29795E-01-3.75096E-03-6.90320E-01-4.96599E-14-1.03762E-13
 -1      2268 3.41376E+01 1.66292E+00-1.10365E-01-1.53956E+00 4.35263E-13-1.34115E-13
 -1      2269 3.29337E+01-2.66752E-01-3.55948E-02-8.64712E-01 4.83294E-13-1.27676E-15
 -1      2270 2.01183E+01 4.71506E-01 1.55619E-02-4.72373E-01-5.75880E-14-7.90159E-14
 -1      2271 1.99802E+01 3.47709E-01 2.09384E-04-2.99779E-01-4.40533E-14-8.28528E-14
 -1      2272 2.02415E+01 7.50322E-01-1.35840E-03-6.89940E-01-5.02810E-14-1.20369E-13
 -1      2273 1.99176E+01 2.63248E-01 1.07463E-02-1.60908E-01-4.25039E-14-7.92426E-14
 -1      2274 1.98411E+01 1.92874E-01 8.40863E-04-6.19168E-02-2.42449E-14-9.05776E-14
 -1      2275 2.00802E+01 4.20223E-01-3.99031E-03-3.04929E-01-4.61436E-14-9.75436E-14
 -1      2276 1.97984E+01 1.44439E-01 6.38919E-03 2.26393E-02-8.94627E-15-7.63948E-14
 -1      2277 1.97664E+01 1.03490E-01 9.42220E-04 7.85707E-02-7.53867E-15-7.64658E-14
 -1      2278 1.99622E+01 2.34445E-01-3.79587E-03-6.13872E-02-2.23090E-14-7.57312E-14
 -1      2279 1.97430E+01 7.50233E-02 3.59366E-03 1.27917E-01-1.97132E-14-8.97669E-14
 -1      2280 1.97402E+01 5.13317E-02 9.41498E-04 1.58280E-01-2.60410E-14-8.42216E-14
 -1      2281 1.98911E+01 1.25584E-01-3.08158E-03 8.58629E-02-2.39170E-14-8.00107E-14
 -1      2282 1.97322E+01 3.49456E-02 1.88463E-03 1.85684E-01-3.39546E-14-8.78485E-14
 -1      2283 1.97479E+01 2.20558E-02 9.34159E-04 2.01130E-01-2.95578E-14-1.00036E-13
 -1      2284 1.98579E+01 6.21079E-02-2.30564E-03 1.71500E-01-3.21566E-14-1.07235E-13
 -1      2285 1.97510E+01 1.34895E-02 8.33520E-04 2.15601E-01-6.42459E-14-9.94900E-14
 -1      2286 1.97784E+01 7.73591E-03 9.51966E-04 2.23002E-01-8.66100E-14-1.44632E-13
 -1      2287 1.98528E+01 2.69603E-02-1.66614E-03 2.19191E-01-6.83269E-14-1.25361E-13
 -1      2288 1.97894E+01 4.46758E-03 1.95598E-04 2.30775E-01-1.06356E-13-1.45839E-13
 -1      2289 1.98244E+01 3.58341E-03 1.00922E-03 2.34755E-01-1.34955E-13-1.67592E-13
 -1      2290 1.98678E+01 1.04694E-02-1.20503E-03 2.45271E-01-1.14034E-13-1.37916E-13
 -1      2291 1.98413E+01 3.97086E-03-1.71710E-04 2.40198E-01-1.13375E-13-1.44811E-13
 -1      2292 1.98817E+01 6.41885E-03 1.10557E-03 2.43925E-01-1.16014E-13-1.28777E-13
 -1      2293 1.98972E+01 6.67191E-03-9.03404E-04 2.61149E-01-1.14572E-13-1.52664E-13
 -1      2294 1.99033E+01 9.27318E-03-3.56421E-04 2.50079E-01-9.45071E-14-8.24069E-14
 -1      2295 1.99483E+01 1.38804E-02 1.22831E-03 2.55678E-01-3.04480E-14-8.37587E-14
 -1      2296 1.99374E+01 1.15296E-02-7.29141E-04 2.74822E-01-1.01840E-13-5.00258E-14
 -1      2297 1.99740E+01 1.82133E-02-4.14429E-04 2.64559E-01-3.04077E-14-7.66959E-14
 -1      2298 2.00237E+01 2.39307E-02 1.35283E-03 2.73308E-01-2.83185E-14-3.43518E-14
 -1      2299 1.99867E+01 2.19617E-02-6.52193E-04 2.91759E-01-2.66484E-14 1.54699E-14
 -1      2300 2.00540E+01 2.87693E-02-3.79973E-04 2.86032E-01-2.06609E-14-4.02979E-14
 -1      2301 2.01089E+01 3.44783E-02 1.44100E-03 2.98395E-01-8.77014E-15-8.48423E-14
 -1      2302 2.00448E+01 3.52184E-02-6.48530E-04 3.15376E-01-3.12040E-14 1.29060E-14
 -1      2303 2.01443E+01 3.87030E-02-2.70812E-04 3.15160E-01-1.73295E-14-7.75340E-14
 -1      2304 2.02053E+01 4.30373E-02 1.43823E-03 3.30696E-01-3.63497E-14-9.64305E-14
 -1      2305 2.01124E+01 4.83863E-02-7.00646E-04 3.47153E-01-3.25487E-14-3.15326E-14
 -1      2306 2.02469E+01 4.52305E-02-9.12509E-05 3.50634E-01-2.00052E-14-7.24272E-14
 -1      2307 2.03144E+01 4.64156E-02 1.27093E-03 3.67792E-01 2.24555E-15-6.82880E-14
 -1      2308 2.01911E+01 5.79476E-02-7.97197E-04 3.86487E-01-1.28331E-14-2.12163E-15
 -1      2309 2.03639E+01 4.47365E-02 1.65064E-04 3.88698E-01-5.44528E-14-8.91465E-14
 -1      2310 2.04378E+01 4.04789E-02 8.46778E-04 4.04522E-01-8.15674E-14-1.01714E-13
 -1      2311 2.02831E+01 5.93910E-02-9.32292E-04 4.30274E-01-7.47165E-14 4.42967E-15
 -1      2312 2.04968E+01 3.26152E-02 5.10391E-04 4.22502E-01-4.12386E-14-1.50444E-13
 -1      2313 2.05761E+01 2.01214E-02 6.16778E-05 4.32314E-01 3.40830E-15-1.05707E-13
 -1      2314 2.03913E+01 4.69653E-02-1.10302E-03 4.72281E-01-6.14102E-14-3.88565E-14
 -1      2315 2.06464E+01 3.41969E-03 9.52608E-04 4.41417E-01-2.87606E-15-1.07274E-13
 -1      2316 2.07285E+01-2.03021E-02-1.18026E-03 4.38608E-01 1.85444E-14-7.15785E-14
 -1      2317 2.05185E+01 1.37795E-02-1.30236E-03 5.02415E-01 1.09276E-14-1.09364E-13
 -1      2318 2.08118E+01-4.83517E-02 1.47464E-03 4.30614E-01 2.82140E-14-6.31607E-14
 -1      2319 2.08919E+01-8.56758E-02-2.92494E-03 4.06808E-01 4.69396E-14-1.01545E-13
 -1      2320 2.06676E+01-4.73729E-02-1.50268E-03 5.06121E-01 1.99508E-14-1.09721E-13
 -1      2321 2.09889E+01-1.26356E-01 1.99794E-03 3.71483E-01 3.48160E-14-8.59969E-14
 -1      2322 2.10596E+01-1.77422E-01-5.09294E-03 3.17464E-01 2.22794E-14-1.33889E-13
 -1      2323 2.08402E+01-1.41890E-01-1.62479E-03 4.64366E-01 4.94727E-14-2.08378E-13
 -1      2324 2.11683E+01-2.28869E-01 2.33398E-03 2.43832E-01 5.23759E-14-8.09450E-14
 -1      2325 2.12199E+01-2.88991E-01-7.36819E-03 1.51824E-01 9.57149E-14-1.10050E-13
 -1      2326 2.10351E+01-2.69266E-01-1.49296E-03 3.55056E-01 4.39177E-14-1.96785E-13
 -1      2327 2.13329E+01-3.43474E-01 2.13139E-03 3.12425E-02 9.79627E-14-4.13419E-14
 -1      2328 2.13532E+01-3.99934E-01-9.05131E-03-1.00951E-01 1.08405E-13-5.99720E-14
 -1      2329 2.12441E+01-4.16689E-01-8.01917E-04 1.57217E-01 1.17838E-13-1.01119E-13
 -1      2330 2.14550E+01-4.41136E-01 9.29754E-04-2.68940E-01 1.46492E-13-1.00380E-13
 -1      2331 2.14317E+01-4.71238E-01-9.02013E-03-4.31872E-01 1.61983E-13-9.58523E-14
 -1      2332 2.14475E+01-5.51354E-01 8.47494E-04-1.40271E-01 1.12975E-13-1.10461E-13
 -1      2333 2.14969E+01-4.74289E-01-1.65787E-03-6.30930E-01 1.28479E-13-7.06572E-14
 -1      2334 2.14216E+01-4.48453E-01-6.04977E-03-7.97355E-01 1.08505E-13 4.52662E-14
 -1      2335 2.16094E+01-6.16421E-01 3.62203E-03-5.23794E-01 1.45902E-13-1.03875E-13
 -1      2336 2.14200E+01-3.86511E-01-5.37636E-03-9.86236E-01-2.81793E-14-6.40724E-14
 -1      2337 2.12948E+01-2.80497E-01 3.46828E-04-1.10939E+00-4.07839E-14-1.00007E-13
 -1      2338 2.16794E+01-5.40214E-01 6.79448E-03-9.36567E-01-3.97972E-14-1.79420E-13
 -1      2339 2.12071E+01-1.40592E-01-8.87243E-03-1.22185E+00 5.67272E-14-1.46522E-13
 -1      2340 2.10510E+01 4.28836E-02 8.53206E-03-1.24478E+00 1.02867E-13-5.94262E-14
 -1      2341 2.16100E+01-2.66889E-01 8.41875E-03-1.26745E+00-3.38044E-14-3.01115E-13
 -1      2342 2.08930E+01 2.38242E-01-9.42345E-03-1.20930E+00 4.96506E-14-9.65306E-14
 -1      2343 2.07433E+01 4.50679E-01 1.46792E-02-1.09047E+00-2.73241E-15-1.55964E-13
 -1      2344 2.13932E+01 1.89758E-01 5.63307E-03-1.36672E+00 2.73830E-14-1.51922E-13
 -1      2345 2.05786E+01 6.35527E-01-4.51785E-03-8.72426E-01-7.13709E-15-1.63079E-13
 -1      2346 2.04799E+01 7.90558E-01 1.44495E-02-6.18006E-01-6.70432E-14-1.57638E-13
 -1      2347 2.10993E+01 7.08586E-01-1.23419E-03-1.11184E+00-2.63790E-14-1.79745E-13
 -1      2348 2.03970E+01 8.79799E-01 4.65054E-03-2.61493E-01-9.56106E-14-9.97644E-14
 -1      2349 2.03836E+01 9.01348E-01 7.44178E-03 5.86611E-02-1.44035E-13-6.24672E-14
 -1      2350 2.08689E+01 1.08101E+00-8.44764E-03-5.02669E-01-8.69699E-14-7.48762E-14
 -1      2351 2.04309E+01 8.50077E-01 1.31062E-02 4.34456E-01-1.86435E-13 4.73525E-16
 -1      2352 2.05070E+01 7.27207E-01-2.08212E-03 7.16860E-01-1.98037E-13-1.29582E-14
 -1      2353 2.08360E+01 1.13260E+00-9.55639E-03 2.82131E-01-1.11571E-13 5.42154E-14
 -1      2354 2.06567E+01 5.61503E-01 1.57081E-02 9.82399E-01-1.99286E-13-1.56195E-13
 -1      2355 2.07955E+01 3.56056E-01-8.27455E-03 1.14300E+00-1.70576E-13-5.83843E-14
 -1      2356 2.10191E+01 8.37447E-01-3.45896E-03 9.65837E-01-2.23356E-13-3.39665E-14
 -1      2357 2.09632E+01 1.55766E-01 1.09594E-02 1.22976E+00-2.00444E-13-1.26753E-13
 -1      2358 2.11213E+01-4.28461E-02-9.26609E-03 1.24457E+00-2.19833E-13-2.42930E-13
 -1      2359 2.13102E+01 3.39454E-01 4.69245E-03 1.32868E+00-2.03574E-13-6.32079E-14
 -1      2360 2.12326E+01-2.03006E-01 2.63817E-03 1.16779E+00-1.61121E-13-1.31117E-13
 -1      2361 2.13688E+01-3.33403E-01-6.63723E-03 1.06735E+00-1.00294E-13-1.08971E-13
 -1      2362 2.15592E+01-1.52440E-01 8.20029E-03 1.32168E+00-1.63171E-13-8.50287E-14
 -1      2363 2.13940E+01-4.17621E-01-4.69510E-03 8.92456E-01-9.26583E-14-1.38096E-13
 -1      2364 2.14838E+01-4.64612E-01-2.80055E-03 7.32595E-01-1.10651E-13-7.92370E-14
 -1      2365 2.16726E+01-4.84268E-01 7.29766E-03 1.04100E+00-1.05863E-13 5.36750E-14
 -1      2366 2.14343E+01-4.77408E-01-8.62158E-03 5.30778E-01-1.25439E-13-7.58733E-15
 -1      2367 2.14713E+01-4.59904E-01 2.83149E-04 3.63106E-01-6.87605E-14 3.02106E-14
 -1      2368 2.16380E+01-6.13047E-01 4.31307E-03 6.37276E-01-3.67510E-14 1.28615E-13
 -1      2369 2.13768E+01-4.26494E-01-9.29500E-03 1.83698E-01 1.29447E-14 3.91563E-14
 -1      2370 2.13672E+01-3.74505E-01 1.92079E-03 4.12376E-02 1.76577E-13 5.55722E-14
 -1      2371 2.14963E+01-5.80176E-01 1.42467E-03 2.37230E-01-5.80884E-14 1.81499E-13
 -1      2372 2.12554E+01-3.21400E-01-7.94269E-03-9.30274E-02 2.05459E-13-4.95512E-14
 -1      2373 2.12112E+01-2.60150E-01 2.40040E-03-1.96238E-01 1.06806E-13-1.62860E-13
 -1      2374 2.13001E+01-4.57728E-01-4.92791E-04-8.71960E-02 9.92622E-14 6.68472E-14
 -1      2375 2.11005E+01-2.06179E-01-5.74237E-03-2.81868E-01 2.38239E-13-1.50430E-13
 -1      2376 2.10342E+01-1.51027E-01 2.22105E-03-3.45204E-01 1.51040E-13 2.38184E-14
 -1      2377 2.10903E+01-3.08371E-01-1.42248E-03-3.11881E-01 2.15146E-13-3.03087E-14
 -1      2378 2.09341E+01-1.06046E-01-3.49553E-03-3.88993E-01-4.44756E-15 1.27546E-14
 -1      2379 2.08567E+01-6.35400E-02 1.78633E-03-4.18913E-01-4.40369E-14 1.88450E-13
 -1      2380 2.08910E+01-1.71325E-01-1.69485E-03-4.42223E-01 8.27593E-14 5.92744E-15
 -1      2381 2.07704E+01-3.06830E-02-1.61436E-03-4.31297E-01-3.61702E-14 3.16749E-13
 -1      2382 2.06903E+01-1.61569E-03 1.33417E-03-4.36596E-01 1.05963E-13 3.29861E-13
 -1      2383 2.07133E+01-6.40843E-02-1.64177E-03-4.96966E-01 1.17870E-13 2.07109E-13
 -1      2384 2.06179E+01 1.98900E-02-2.36435E-04-4.27843E-01 2.15894E-14 3.52128E-13
 -1      2385 2.05408E+01 3.76648E-02 9.76387E-04-4.16858E-01 1.53889E-13 3.11208E-13
 -1      2386 2.05605E+01 1.04221E-02-1.47236E-03-4.97792E-01 9.60902E-14 3.22231E-13
 -1      2387 2.04811E+01 5.03348E-02 6.54430E-04-3.95334E-01 2.86711E-13 2.00846E-13
 -1      2388 2.04108E+01 6.00110E-02 7.48432E-04-3.74656E-01 2.47108E-13 1.43598E-13
 -1      2389 2.04316E+01 5.69227E-02-1.28165E-03-4.63967E-01 1.15822E-13 2.74337E-13
 -1      2390 2.03618E+01 6.67867E-02 1.14067E-03-3.46329E-01 4.41207E-14 2.38199E-13
 -1      2391 2.03004E+01 7.15432E-02 6.40229E-04-3.20474E-01-2.92616E-14 2.21444E-13
 -1      2392 2.03244E+01 8.30224E-02-1.09769E-03-4.10248E-01 1.53253E-13 1.23821E-13
 -1      2393 2.02603E+01 7.50860E-02 1.31476E-03-2.89084E-01 6.67136E-14 2.07911E-13
 -1      2394 2.02087E+01 7.76012E-02 6.30906E-04-2.60722E-01-2.98480E-14 3.50329E-13
 -1      2395 2.02358E+01 9.64505E-02-9.17576E-04-3.46625E-01 5.06726E-14 2.18693E-13
 -1      2396 2.01755E+01 7.98234E-02 1.23604E-03-2.28185E-01-3.20551E-13 4.21480E-13
 -1      2397 2.01342E+01 8.18834E-02 8.00511E-04-1.98617E-01-2.35825E-13 3.50329E-13
 -1      2398 2.01629E+01 1.03721E-01-6.99818E-04-2.79011E-01-1.54043E-13 4.10517E-13
 -1      2399 1.96240E+01 7.70288E-02 2.27401E-03-7.41174E-02 2.50101E-14 1.77540E-13
 -1      2400 1.96487E+01 1.07846E-01 6.96539E-03-2.60512E-02 1.64179E-14 2.00860E-13
 -1      2401 1.96077E+01 3.74741E-02 1.64865E-03-1.45723E-01 7.45026E-14 1.30338E-13
 -1      2402 1.96003E+01 5.51036E-02 3.75979E-03-1.20305E-01 5.16207E-14 1.63208E-13
 -1      2403 1.97731E+01 9.69005E-02-3.33778E-03-8.37687E-02 5.50110E-14 9.01685E-14
 -1      2404 1.96307E+01 1.55562E-02 1.31548E-03-1.82846E-01 1.17732E-13 1.41233E-13
 -1      2405 1.96040E+01 2.50597E-02 1.92983E-03-1.70353E-01 9.09584E-14 1.59765E-13
 -1      2406 1.97463E+01 4.64131E-02-2.49227E-03-1.64198E-01 8.80969E-14 1.24957E-13
 -1      2407 1.96789E+01 5.14526E-03 1.17102E-03-2.00907E-01 1.59383E-13 1.42182E-13
 -1      2408 1.96407E+01 9.22782E-03 8.69811E-04-1.95152E-01 1.26211E-13 1.46153E-13
 -1      2409 1.97536E+01 1.90152E-02-1.78950E-03-2.07621E-01 1.25575E-13 1.07316E-13
 -1      2410 1.97438E+01 2.84894E-03 1.18063E-03-2.10461E-01 4.67203E-14 1.93498E-13
 -1      2411 1.96983E+01 3.03285E-03 2.64192E-04-2.07186E-01 1.32006E-13 1.87373E-13
 -1      2412 1.97842E+01 6.83691E-03-1.29658E-03-2.30698E-01 1.21126E-13 1.49518E-13
 -1      2413 1.98210E+01 6.75293E-03 1.33603E-03-2.19215E-01 6.16151E-14 1.69951E-13
 -1      2414 1.97699E+01 3.88964E-03-5.48431E-05-2.15254E-01 5.62481E-14 1.88655E-13
 -1      2415 1.98308E+01 5.50367E-03-9.93365E-04-2.45134E-01 6.83017E-14 1.99841E-13
 -1      2416 1.99093E+01 1.58597E-02 1.64053E-03-2.33229E-01 5.07692E-14 9.50929E-14
 -1      2417 1.98526E+01 1.03659E-02-1.85940E-04-2.26014E-01 7.08175E-14 1.25069E-13
 -1      2418 1.98896E+01 1.25748E-02-8.41144E-04-2.59637E-01 8.75806E-14 1.31411E-13
 -1      2419 2.00103E+01 2.98221E-02 2.10546E-03-2.57712E-01 5.66338E-14 1.00766E-13
 -1      2420 1.99462E+01 2.17949E-02-1.93565E-04-2.44944E-01 1.33647E-14 9.23534E-14
 -1      2421 1.99592E+01 2.68297E-02-8.02525E-04-2.81153E-01 3.87117E-14 1.41773E-13
 -1      2422 2.01272E+01 4.88029E-02 2.74868E-03-2.97601E-01 4.85241E-14 1.28565E-13
 -1      2423 2.00529E+01 3.80838E-02-1.23670E-04-2.77002E-01 6.59148E-14 1.48477E-13
 -1      2424 2.00400E+01 4.79208E-02-8.44412E-04-3.15709E-01 2.08674E-14 1.55164E-13
 -1      2425 2.02655E+01 7.33683E-02 3.59111E-03-3.57992E-01 4.72831E-15 1.14770E-13
 -1      2426 2.01768E+01 5.95983E-02-1.20767E-05-3.27117E-01 6.51788E-14 1.50173E-13
 -1      2427 2.01338E+01 7.61783E-02-9.35382E-04-3.69015E-01 2.97993E-14 9.67103E-14
 -1      2428 2.04317E+01 1.04336E-01 4.64783E-03-4.44421E-01-1.89856E-14 9.19547E-14
 -1      2429 2.03236E+01 8.70466E-02 1.09898E-04-4.00547E-01-3.90037E-14 1.06150E-13
 -1      2430 2.02436E+01 1.12441E-01-1.04250E-03-4.46899E-01 1.11628E-14 3.70315E-14
 -1      2431 2.06338E+01 1.42450E-01 5.90886E-03-5.62921E-01 1.48992E-13 5.16730E-14
 -1      2432 2.05001E+01 1.21266E-01 2.11704E-04-5.03061E-01 8.28039E-14 9.83239E-14
 -1      2433 2.03728E+01 1.57780E-01-1.13083E-03-5.55555E-01 2.66858E-14-3.53376E-14
 -1      2434 2.08805E+01 1.87642E-01 7.30240E-03-7.19597E-01 6.75026E-14 1.01368E-13
 -1      2435 2.07142E+01 1.62739E-01 2.62696E-04-6.40806E-01 1.40951E-13 9.65328E-14
 -1      2436 2.05251E+01 2.12911E-01-1.16887E-03-7.01473E-01 1.12376E-13 7.50487E-15
 -1      2437 2.11808E+01 2.37460E-01 8.63146E-03-9.19254E-01-1.28050E-13 3.34043E-14
 -1      2438 2.09747E+01 2.10528E-01 2.38417E-04-8.19526E-01-6.88598E-15 8.09233E-14
 -1      2439 2.07041E+01 2.76912E-01-1.14954E-03-8.90823E-01 1.51470E-14 7.77476E-14
 -1      2440 2.15439E+01 2.83955E-01 9.48271E-03-1.16223E+00-1.29534E-13 6.14066E-14
 -1      2441 2.12909E+01 2.60077E-01 1.46850E-04-1.04252E+00-1.96442E-13 4.16662E-14
 -1      2442 2.09135E+01 3.44580E-01-1.14441E-03-1.12778E+00-1.62989E-13 9.04578E-14
 -1      2443 2.19785E+01 3.08030E-01 9.12404E-03-1.43805E+00-5.02111E-14 4.51145E-14
 -1      2444 2.16738E+01 2.99012E-01 1.07188E-04-1.30625E+00-2.26963E-14 1.11803E-13
 -1      2445 2.11582E+01 4.01414E-01-1.41169E-03-1.41105E+00-1.08029E-13 1.44009E-13
 -1      2446 2.24958E+01 2.70668E-01 6.45962E-03-1.71412E+00 2.66785E-14 1.00853E-13
 -1      2447 2.21377E+01 2.99979E-01 5.17037E-04-1.59203E+00-3.64400E-14 5.58107E-14
 -1      2448 2.14485E+01 4.15002E-01-2.57912E-03-1.72732E+00-1.38302E-14 1.42919E-13
 -1      2449 2.31147E+01 1.03478E-01 1.67372E-04-1.91819E+00-6.30503E-14 1.68568E-13
 -1      2450 2.27072E+01 2.10806E-01 2.36315E-03-1.85146E+00 2.70197E-14 1.36333E-13
 -1      2451 2.18098E+01 3.22683E-01-5.86027E-03-2.04009E+00-4.01982E-14 1.26453E-13
 -1      2452 2.38703E+01-2.88459E-01-1.06159E-02-1.91711E+00-1.47695E-13 8.06169E-14
 -1      2453 2.34262E+01-5.19926E-02 7.31287E-03-1.98466E+00-1.09543E-13 1.28055E-13
 -1      2454 2.23015E+01 2.19447E-02-1.29459E-02-2.27194E+00-6.39443E-14 1.44991E-13
 -1      2455 2.48143E+01-9.74014E-01-2.52237E-02-1.50713E+00-1.40336E-13 1.44361E-13
 -1      2456 2.43644E+01-5.83417E-01 1.72533E-02-1.81552E+00-1.54638E-13 1.12023E-13
 -1      2457 2.30408E+01-6.14438E-01-2.48498E-02-2.27957E+00-1.40390E-13 5.43296E-14
 -1      2458 2.59719E+01-1.81858E+00-3.65517E-02-4.58682E-01-1.35381E-13 2.09665E-13
 -1      2459 2.55823E+01-1.39120E+00 2.77092E-02-1.09147E+00-1.55485E-13 1.36367E-13
 -1      2460 2.42063E+01-1.63123E+00-3.78874E-02-1.82974E+00-1.68019E-13 2.12556E-14
 -1      2461 2.71948E+01-2.20647E+00-4.16765E-02 1.26063E+00 8.91301E-14 3.37565E-13
 -1      2462 2.69921E+01-2.15035E+00 1.67391E-02 3.86610E-01-3.47951E-14 3.04833E-13
 -1      2463 2.59347E+01-2.69215E+00-3.77633E-02-6.40629E-01-9.70370E-14 1.92507E-13
 -1      2464 2.79811E+01-1.04107E+00-5.27402E-02 2.95105E+00 1.43545E-13 3.31866E-13
 -1      2465 2.81207E+01-1.88943E+00-5.21254E-02 2.34165E+00 1.80612E-13 3.85296E-13
 -1      2466 2.79920E+01-2.77141E+00-3.02797E-02 1.33958E+00 1.02082E-13 2.15057E-13
 -1      2467 2.80326E+01 1.89409E+00-7.26388E-02 3.01253E+00 1.07400E-13 2.84245E-13
 -1      2468 2.84082E+01 3.15922E-01-1.36635E-01 3.41479E+00 1.71779E-13 3.95670E-13
 -1      2469 2.95825E+01-5.46281E-01-9.54259E-02 3.11569E+00 1.02987E-13 2.86729E-13
 -1      2470 2.71584E+01 3.53081E+00-1.17693E-01 3.99403E-01 2.98261E-13 4.40828E-14
 -1      2471 2.72867E+01 2.94343E+00-1.73946E-01 1.85089E+00 1.13382E-13 2.13795E-13
 -1      2472 2.76213E+01 2.29056E+00-1.73634E-01-2.61993E+00 3.93741E-13-1.99677E-13
 -1      2473 2.73408E+01 3.36044E+00-1.02416E-01-1.39008E+00 3.69649E-13-7.24698E-14
 -1      2474 2.83274E+01-5.29060E-01-9.92020E-02-3.32387E+00 6.84452E-14-3.14752E-13
 -1      2475 2.79365E+01 9.28607E-01-6.14586E-02-3.28513E+00 2.38712E-13-2.52166E-13
 -1      2476 2.78181E+01-2.05437E+00-1.67109E-02-1.80237E+00 8.98569E-14-2.98307E-13
 -1      2477 2.77591E+01-1.54493E+00-4.93053E-02-2.53925E+00 8.98517E-14-3.21663E-13
 -1      2478 2.90402E+01-1.41595E+00-9.43798E-02-2.85052E+00 9.14685E-14-3.09648E-13
 -1      2479 2.65998E+01-1.89707E+00 2.99055E-02 7.91469E-02-1.51665E-13-2.09296E-13
 -1      2480 2.68472E+01-2.12641E+00-4.17791E-02-7.20331E-01-1.65284E-14-1.95149E-13
 -1      2481 2.73648E+01-2.81223E+00-4.83047E-02-8.68719E-01-2.80782E-14-3.31204E-13
 -1      2482 2.52527E+01-1.09166E+00 2.52937E-02 1.33399E+00-6.74877E-14-1.52895E-13
 -1      2483 2.56550E+01-1.52357E+00-3.52136E-02 8.23373E-01-1.45661E-13-1.84710E-13
 -1      2484 2.54610E+01-2.33660E+00-5.05038E-02 9.68607E-01-1.70053E-13-2.68056E-13
 -1      2485 2.41278E+01-3.80776E-01 1.25102E-02 1.87860E+00 3.32317E-14 1.94896E-15
 -1      2486 2.45776E+01-7.16887E-01-2.11553E-02 1.66431E+00-2.25410E-14-7.04645E-14
 -1      2487 2.39615E+01-1.25337E+00-3.73354E-02 1.94450E+00-1.31333E-13-5.75659E-14
 -1      2488 2.32554E+01 4.76208E-02 4.00112E-03 1.94491E+00-4.39399E-14 2.04726E-13
 -1      2489 2.36928E+01-1.39610E-01-7.49746E-03 1.92907E+00 7.65685E-14 2.36589E-13
 -1      2490 2.29457E+01-3.75052E-01-2.17724E-02 2.25708E+00-9.11497E-14 1.35865E-13
 -1      2491 2.25738E+01 2.41459E-01 4.70507E-04 1.76587E+00-2.43964E-13 4.36929E-13
 -1      2492 2.29710E+01 1.63760E-01 1.65689E-03 1.85182E+00-9.31051E-14 4.00274E-13
 -1      2493 2.22759E+01 1.31307E-01-9.87064E-03 2.17980E+00-1.98296E-13 4.63865E-13
 -1      2494 2.20251E+01 2.95196E-01-5.48151E-04 1.49419E+00-4.40810E-13 3.40938E-13
 -1      2495 2.23707E+01 2.79055E-01 6.49230E-03 1.61727E+00-3.48903E-13 3.53296E-13
 -1      2496 2.18041E+01 3.49003E-01-3.62173E-03 1.92211E+00-2.57261E-13 3.95086E-13
 -1      2497 2.15755E+01 2.80555E-01-5.64316E-04 1.21230E+00-9.17738E-14 1.67116E-13
 -1      2498 2.18665E+01 2.93033E-01 8.30632E-03 1.33726E+00-2.48258E-13 2.25213E-13
 -1      2499 2.14405E+01 4.00244E-01-1.11209E-03 1.60723E+00-3.08657E-13 2.81815E-14
 -1      2500 2.12061E+01 2.39783E-01-2.78583E-04 9.58129E-01-4.02317E-14 1.28437E-13
 -1      2501 2.14449E+01 2.62279E-01 8.32548E-03 1.06923E+00-1.90962E-13 5.50329E-14
 -1      2502 2.11427E+01 3.72209E-01-4.12205E-04 1.29960E+00-6.22937E-14 1.93812E-13
 -1      2503 2.09046E+01 1.94379E-01 2.56908E-05 7.44365E-01 2.00238E-13 2.77362E-13
 -1      2504 2.10965E+01 2.17703E-01 7.45026E-03 8.36854E-01 1.05752E-13 3.13773E-13
 -1      2505 2.08928E+01 3.15213E-01-4.37239E-04 1.02794E+00-8.05864E-14 2.40841E-13
 -1      2506 2.06612E+01 1.53820E-01 2.67556E-04 5.70954E-01 3.50646E-13 1.46099E-13
 -1      2507 2.08128E+01 1.74042E-01 6.25491E-03 6.45485E-01 3.73754E-13 2.22508E-13
 -1      2508 2.06829E+01 2.54684E-01-6.42962E-04 8.00635E-01 3.09857E-13 2.92382E-13
 -1      2509 2.04675E+01 1.21738E-01 5.25073E-04 4.32302E-01 3.80136E-13 1.54160E-13
 -1      2510 2.05852E+01 1.37385E-01 5.06276E-03 4.91833E-01 4.01220E-13 7.56128E-14
 -1      2511 2.05085E+01 2.01659E-01-8.16837E-04 6.15805E-01 3.59751E-13 3.19764E-13
 -1      2512 2.03153E+01 9.86237E-02 5.97897E-04 3.20136E-01 3.88337E-13 7.15539E-14
 -1      2513 2.04051E+01 1.10026E-01 4.02888E-03 3.68754E-01 4.00448E-13 8.49590E-14
 -1      2514 2.03651E+01 1.60122E-01-1.09012E-03 4.67643E-01 4.00774E-13 8.60957E-14
 -1      2515 2.01984E+01 8.40877E-02 6.58631E-04 2.27534E-01 4.16752E-14 2.50922E-13
 -1      2516 2.02658E+01 9.11821E-02 3.24579E-03 2.68687E-01 1.85708E-13 2.92429E-13
 -1      2517 2.02490E+01 1.29221E-01-2.07435E-03 3.47004E-01 2.04299E-13 4.11101E-13
 -1      2518 2.01104E+01 7.70721E-02 1.03801E-03 1.48811E-01-1.30987E-13 4.00721E-13
 -1      2519 2.01598E+01 8.02969E-02 2.68026E-03 1.84769E-01 3.75247E-14 3.91641E-13
 -1      2520 2.01580E+01 1.09691E-01-2.31218E-03 2.45623E-01-2.92583E-14 6.10945E-13
 -1      2521 2.00769E+01 7.41805E-02 1.40176E-03 1.10290E-01-1.24516E-13 4.98119E-13
 -1      2522 1.99361E+01 3.94701E-01-1.86446E-03 1.77545E-01-7.49083E-14-1.59977E-13
 -1      2523 1.99549E+01 3.63198E-01 3.33078E-04 1.98165E-01-5.39737E-14-5.64087E-13
 -1      2524 1.99104E+01 4.43440E-01-1.68195E-03 1.13730E-01 2.13283E-13 3.78638E-13
 -1      2525 1.99218E+01 4.22328E-01-5.13054E-04 1.44846E-01 1.99417E-14 3.14503E-13
 -1      2526 1.99070E+01 4.20720E-01 1.58168E-03 1.85196E-01 1.82223E-13 1.96922E-13
 -1      2527 2.00207E+01 2.39904E-01-1.49553E-03 2.21541E-01-2.23990E-13 7.86584E-15
 -1      2528 2.00469E+01 1.99074E-01 1.77360E-03 2.11990E-01-2.01003E-13 1.62234E-13
 -1      2529 1.99757E+01 3.23347E-01-1.68196E-03 2.15742E-01-3.09193E-13-5.29140E-13
 -1      2530 1.99986E+01 2.86204E-01 1.16653E-03 2.20803E-01-3.17288E-13-6.67416E-14
 -1      2531 2.00073E+01 2.73470E-01-6.10453E-04 2.58571E-01-2.54920E-13-1.30073E-13
 -1      2532 1.99548E+01 3.56218E-01 1.37124E-03 2.40489E-01-7.68522E-14-2.50361E-13
 -1      2533 1.99001E+01 4.64647E-01-1.32417E-03 3.60834E-02 4.65491E-14-1.39726E-13
 -1      2534 1.99035E+01 4.56437E-01-1.16812E-03 7.22867E-02 2.16221E-13-1.72224E-13
 -1      2535 1.98782E+01 4.59540E-01 1.73616E-03 1.05288E-01 1.87505E-13 3.17703E-14
 -1      2536 1.99047E+01 4.57246E-01-8.57625E-04-4.34181E-02 1.31161E-13 3.70529E-13
 -1      2537 1.99006E+01 4.62501E-01-1.59930E-03-7.61810E-03-1.83465E-14 2.97109E-13
 -1      2538 1.98694E+01 4.69783E-01 1.67524E-03 1.39029E-02 2.44785E-13-2.66912E-14
 -1      2539 1.99218E+01 4.23741E-01-3.63120E-04-1.13909E-01 9.91274E-14-5.71736E-14
 -1      2540 1.99116E+01 4.41341E-01-1.75743E-03-8.33313E-02 1.35070E-13 1.47695E-13
 -1      2541 1.98795E+01 4.52196E-01 1.42422E-03-7.55560E-02 2.22787E-13 2.63358E-13
 -1      2542 1.99476E+01 3.70592E-01 1.49793E-04-1.66189E-01 2.30410E-13-3.01486E-13
 -1      2543 1.99333E+01 3.97336E-01-1.68251E-03-1.44717E-01 2.14553E-13-1.87069E-13
 -1      2544 1.99048E+01 4.11182E-01 1.08346E-03-1.51014E-01 1.50562E-13 2.24490E-14
 -1      2545 1.99796E+01 3.02678E-01 6.04698E-04-1.96462E-01 2.12023E-13-5.59634E-14
 -1      2546 1.99626E+01 3.36221E-01-1.42993E-03-1.85752E-01 2.36669E-13-3.46729E-13
 -1      2547 1.99409E+01 3.52461E-01 6.47145E-04-2.04766E-01 2.80660E-13-3.70595E-13
 -1      2548 2.00142E+01 2.27890E-01 8.86736E-04-2.00827E-01 1.61776E-13 9.02010E-14
 -1      2549 1.99964E+01 2.64352E-01-1.01784E-03-2.02424E-01 1.53745E-13 1.02733E-13
 -1      2550 1.99837E+01 2.82181E-01 2.00673E-04-2.31937E-01 1.45362E-13-5.56055E-14
 -1      2551 2.00471E+01 1.53681E-01 1.08917E-03-1.79422E-01-1.88208E-13 1.30211E-13
 -1      2552 2.00309E+01 1.89508E-01-4.74568E-04-1.92932E-01-4.82786E-14-7.87569E-14
 -1      2553 2.00280E+01 2.07462E-01-1.59404E-04-2.29876E-01 3.21514E-14-1.04509E-13
 -1      2554 3.91266E+00-2.86996E+00 9.17223E-02 2.46808E+00 4.70318E-14 2.60791E-13
 -1      2555 2.62272E+00-3.35066E+00 2.11023E-02 2.36728E-01 1.70409E-13 2.43083E-13
 -1      2556 4.36777E+00-1.83775E+00 1.34099E-01-4.97043E-01 2.74841E-13 1.98841E-13
 -1      2557 1.73360E+01-5.75275E+00-2.96242E-02 6.50510E+00-1.51046E-13 2.31808E-13
 -1      2558 1.34327E+01-5.42634E+00 4.07328E-02 6.32202E+00-1.25955E-13 3.53495E-13
 -1      2559 1.97004E+01 1.46075E-01 3.38601E-03 5.59017E-02 2.41881E-14 2.30242E-13
 -1      2560 1.97773E+01 2.00282E-01 1.24263E-02 1.43256E-01 2.37358E-14 2.40110E-13
 -1      2561 1.98491E+01 1.85424E-01-4.00757E-03 5.85298E-02 4.45159E-14 1.27878E-13
 -1      2562 2.00566E+01 9.41664E-02 7.79753E-04-1.21830E-01-5.15780E-14 8.42052E-14
 -1      2563 4.83661E+00-4.18472E+00-1.48407E-03-4.77944E+00 3.98515E-13 1.32894E-13
 -1      2564 7.75880E+00-4.19303E+00 5.18081E-02-6.37816E+00 5.13978E-13 2.29317E-13
 -1      2565 5.91126E+00-2.63383E+00 1.13770E-01-4.31193E+00 4.34791E-13 6.11178E-14
 -1      2566 2.05406E+01 1.95586E+00-1.38776E-02-1.90136E+00-7.35037E-14-1.50366E-13
 -1      2567 2.04062E+01 1.21800E+00-5.65497E-03-1.28658E+00-6.79543E-14-1.36746E-13
 -1      2568 2.03691E+01 1.37382E+00 3.00296E-03-1.22823E+00-4.79816E-14-1.42913E-13
 -1      2569 2.02839E+01 2.36691E+00-7.50082E-03-1.82681E+00-5.28631E-14-1.52517E-13
 -1      2570 1.63425E+01-5.35984E+00-5.46119E-03-7.05466E+00 6.81566E-13 6.06489E-13
 -1      2571 1.99847E+01-4.95272E+00-3.03061E-02-6.82014E+00 5.90084E-13 3.24615E-13
 -1      2572 9.45968E+00-4.61170E+00 1.54187E-02 6.01457E+00-2.77001E-14 3.05450E-13
 -1      2573 6.16963E+00-3.77051E+00 6.56073E-02 4.37836E+00-1.12049E-13 2.25653E-13
 -1      2574 2.86301E+01-2.37436E+00-6.30836E-02 2.81251E+00-2.34229E-13-2.30926E-13
 -1      2575 2.58976E+01-3.89765E+00 3.23516E-03 3.92471E+00-8.74578E-14-3.69815E-13
 -1      2576 1.95296E+01 3.59042E+00-1.01299E-02-2.45012E-01 1.14752E-13-9.88046E-14
 -1      2577 1.95452E+01 3.56954E+00-9.69361E-03-4.25506E-01 8.92334E-14-1.12543E-13
 -1      2578 1.97211E+01 3.17022E+00-5.44735E-04-4.72405E-01 7.65437E-14-1.10886E-13
 -1      2579 1.96876E+01 3.23063E+00-8.62563E-04-1.51810E-01 1.17848E-13-8.35178E-14
 -1      2580 3.45140E+01 6.60343E+00-6.12174E-02 7.56352E-01 4.39537E-13 1.65520E-13
 -1      2581 3.37114E+01 6.66669E+00-1.53007E-01-3.02308E-01 5.00266E-13 7.49470E-14
 -1      2582 3.25008E+01 7.86603E+00-1.51688E-01-1.35073E-01-3.74811E-13-6.46662E-14
 -1      2583 3.29838E+01 7.46235E+00-8.17587E-02-4.90103E-01-4.58689E-13-2.20449E-13
 -1      2584 3.40985E+01 5.66685E+00-1.42672E-01-1.56309E+00 4.70846E-13 6.88893E-14
 -1      2585 3.41650E+01 4.06250E+00-5.05860E-02-1.97043E+00 3.93685E-13-3.16969E-14
 -1      2586 3.46112E+01 3.76482E+00-4.15270E-02 1.69861E+00 2.00728E-13 1.38112E-13
 -1      2587 3.47272E+01 5.47435E+00-1.45047E-01 1.53770E+00 2.68396E-13 2.35090E-13
 -1      2588 3.26884E+01-4.17542E-01-7.65319E-02 5.85795E-01 1.42691E-13 6.47260E-14
 -1      2589 3.44986E+01 1.67721E+00-6.00157E-02 1.16336E+00 1.92901E-13 1.96343E-13
 -1      2590 1.84120E+01-6.02452E+00-1.78417E-02-5.99646E+00-1.52378E-13-1.97446E-14
 -1      2591 2.22721E+01-5.77226E+00-4.77491E-02-5.34109E+00-1.27620E-13 6.46080E-14
 -1      2592 1.07817E+01-4.89261E+00 4.99069E-02-6.03350E+00-2.56656E-13-3.69205E-13
 -1      2593 1.46416E+01-5.49470E+00-6.74457E-04-6.65440E+00-2.14329E-13-2.02907E-13
 -1      2594 1.80121E+01-5.33505E+00 1.10876E-01-6.02333E+00-2.08250E-13-1.85824E-14
 -1      2595 4.58959E+00-3.22415E+00 8.50851E-02-2.99374E+00-1.48992E-13-5.20584E-13
 -1      2596 7.10421E+00-3.71232E+00 5.75070E-02-5.03756E+00-1.16879E-13-5.74985E-13
 -1      2597 3.03105E+00-2.66361E+00 6.02899E-02 1.52523E+00-1.11716E-13-8.83738E-14
 -1      2598 3.08165E+00-2.88439E+00 7.21301E-02-9.49836E-01-1.15727E-13-1.96343E-13
 -1      2599 7.27244E+00-3.31918E+00 5.79343E-02 5.91248E+00-1.46078E-13 1.02834E-13
 -1      2600 4.76230E+00-2.88133E+00 1.32096E-01 3.78128E+00-1.04264E-13-4.19109E-14
 -1      2601 1.45139E+01-5.00515E+00 1.04460E-02 7.50425E+00-1.30673E-13-1.19085E-13
 -1      2602 1.12815E+01-4.39569E+00 1.13428E-01 6.95674E+00-1.81438E-13 4.65183E-14
 -1      2603 2.25459E+01-4.96685E+00-5.78455E-02 5.94822E+00-1.86517E-14-4.41758E-13
 -1      2604 1.83209E+01-5.31342E+00 4.04871E-02 6.72424E+00-3.83027E-15-2.73045E-13
 -1      2605 1.82859E+01-4.96388E+00 1.07815E-01 6.69194E+00 4.40481E-14-2.18315E-13
 -1      2606 3.10623E+01 1.03604E+00-1.45951E-01 3.94743E-01-4.32307E-13-1.30090E-13
 -1      2607 2.98966E+01-7.81939E-01-7.00322E-02 1.40404E+00-3.87178E-13-1.80023E-13
 -1      2608 2.88063E+01-2.16453E+00 2.28355E-02 1.19196E+00-1.81390E-13-1.20515E-13
 -1      2609 2.92033E+01-1.40263E+00-4.34519E-02-2.02417E+00-1.22981E-13-3.00066E-13
 -1      2610 3.11845E+01 5.15297E-01-6.58741E-02-1.16173E+00-2.23856E-13-8.89289E-14
 -1      2611 3.21211E+01 6.59597E+00-1.25416E-01 8.19724E-01-2.33313E-13 3.80806E-14
 -1      2612 3.19592E+01 7.34762E+00-1.85471E-01 5.13297E-01-2.61735E-13-4.37636E-14
 -1      2613 3.13392E+01-2.74142E+00-1.22970E-01 8.62143E-01 3.55063E-13 2.43694E-14
 -1      2614 2.83505E+01-4.41368E+00-2.65501E-02 2.31576E+00 1.86545E-13 1.10439E-13
 -1      2615 3.18791E+01 2.86357E+00-6.65081E-02 5.68402E-02-3.05422E-13-1.13021E-13
 -1      2616 3.25612E+01 4.95881E+00-1.48188E-01 6.88565E-01-2.34784E-13 4.33820E-14
 -1      2617 3.02559E+01 5.23873E+00-7.09342E-02 1.32676E+00-2.49967E-13 1.82909E-14
 -1      2618 2.33658E+01-4.44134E+00 3.30189E-03-5.42983E+00 2.81719E-13-1.49297E-13
 -1      2619 2.67417E+01-3.40341E+00-8.17178E-02-4.04369E+00 3.20854E-14-4.94133E-13
 -1      2620 1.05011E+01-4.92264E+00 2.42154E-02-6.94763E+00 5.87974E-13 3.67012E-13
 -1      2621 1.30914E+01-5.05813E+00 9.37493E-03-7.44130E+00 5.77538E-13 5.34794E-13
 -1      2622 2.04805E+01 8.75484E-01-7.20647E-03 1.22715E+00 1.27294E-13 3.34489E-13
 -1      2623 2.08307E+01 1.25712E+00-6.01749E-03 1.72796E+00 1.33303E-13 3.65262E-13
 -1      2624 2.06386E+01 1.71567E+00-1.57882E-02 1.92203E+00 1.52687E-13 3.05318E-13
 -1      2625 2.04421E+01 1.05932E+00-9.28975E-03 1.24094E+00 1.32801E-13 2.65377E-13
 -1      2626 2.52502E+01-5.52167E+00-7.56968E-02 4.41238E+00 1.62065E-13 2.38559E-13
 -1      2627 2.16322E+01-5.94635E+00 1.79946E-02 5.24840E+00 1.04361E-14 1.57915E-13
 -1      2628 3.18839E+01 5.47777E+00-1.08130E-01-1.12923E+00 4.61298E-13-2.38698E-14
 -1      2629 1.99175E+01 2.81823E+00 1.49036E-03-1.09805E+00 1.08212E-14-1.81357E-13
 -1      2630 1.97865E+01 3.16460E+00-1.46612E-02-1.28534E+00 1.15870E-14-1.99337E-13
 -1      2631 1.98812E+01 3.02718E+00-1.73649E-02-1.47477E+00-3.32666E-15-2.00462E-13
 -1      2632 1.29997E+01-4.29417E+00 1.30825E-01 6.08504E+00-2.24487E-13 2.08417E-13
 -1      2633 2.04176E+01 2.11612E+00-1.26589E-02 1.87481E+00 1.71078E-13 2.34651E-13
 -1      2634 2.75718E+01-5.10209E+00 6.07311E-02 2.37634E+00 8.75966E-14 3.91631E-14
 -1      2635 1.04619E+01-3.97915E+00 1.03766E-01-6.71169E+00 5.90084E-13 2.63900E-13
 -1      2636 1.63416E+01-5.09363E+00 7.51786E-02-7.14779E+00 5.81313E-13 4.90025E-13
 -1      2637 3.14829E+01-2.00000E+00-1.60253E-02-1.09587E+00 3.87169E-13-2.30371E-14
 -1      2638 3.04429E+01 1.28355E+00-4.00443E-02 5.70031E-01-1.53683E-13-7.57450E-14
 -1      2639 2.66548E+01-3.93427E+00 4.01273E-02-2.96568E+00 1.93477E-13-2.27249E-13
 -1      2640 2.81487E+01-2.84560E+00-3.84463E-04-2.54563E+00 3.42226E-14-3.61822E-13
 -1      2641 2.84594E+01-2.36420E+00-1.04744E-01-9.04632E-01 8.25728E-15-1.65035E-13
 -1      2642 2.94486E+01 2.00012E+00-1.17685E-01-3.03786E+00 3.45751E-13-1.80411E-13
 -1      2643 2.00844E+01 1.04868E-01 1.59277E-04 1.58639E-01-2.36547E-13 4.33516E-13
 -1      2644 2.00771E+01 1.36598E-01-3.49083E-04 1.82375E-01-1.85374E-13 3.54604E-13
 -1      2645 2.48830E+01-4.69936E+00 5.38200E-02 4.24254E+00 8.01720E-14-2.42084E-13
 -1      2646 6.89119E+00-2.43317E+00 1.59722E-01 3.57857E+00-1.60219E-13 1.09190E-13
 -1      2647 2.07752E+01-5.67511E+00 8.56141E-02 5.44774E+00-1.92735E-13 1.57718E-13
 -1      2648 1.07850E+01-3.24931E+00 1.25152E-01 6.32251E+00-6.62526E-14 3.66374E-14
 -1      2649 1.99916E+01 3.42591E-01-3.69507E-03 3.01259E-01 5.54819E-14 1.73429E-13
 -1      2650 1.99876E+01 2.84109E+00-1.49919E-02-1.58566E+00-1.86187E-14-1.92181E-13
 -1      2651 2.01309E+01 2.61309E+00-2.25150E-02-1.75189E+00-4.23433E-14-1.78052E-13
 -1      2652 2.02844E+01 2.05380E+00 4.21081E-03-1.48593E+00-4.66114E-14-1.60325E-13
 -1      2653 2.00880E+01 2.49696E+00 4.11142E-03-1.34155E+00-1.86176E-14-1.69681E-13
 -1      2654 5.66593E+00-1.59978E+00 1.70005E-01 2.63362E+00-3.72757E-14-9.14269E-14
 -1      2655 2.04332E+01 1.80863E+00 1.25076E-02 1.56234E+00 1.55732E-13 2.06566E-13
 -1      2656 1.06981E+01-3.47180E+00 1.36796E-01-5.46870E+00-1.75276E-13-3.51497E-13
 -1      2657 3.12499E+01 6.43722E+00-8.03639E-02-8.62395E-01-5.37126E-13-1.31992E-13
 -1      2658 3.00630E+01 3.06276E+00-2.25553E-01-1.42007E+00-5.74818E-13 3.88578E-16
 -1      2659 3.11607E+01 2.14683E+00-4.57130E-02-4.98711E-01-5.10453E-13-1.50990E-14
 -1      2660 2.95410E+01 4.71516E-01-2.43508E-02-7.40870E-01-2.87936E-13 3.83860E-14
 -1      2661 3.18772E+01-2.21679E+00-1.67594E-02 1.33536E-01 6.18949E-14 6.79456E-14
 -1      2662 3.15216E+01-1.44860E+00-1.56901E-01 1.71108E+00 6.39072E-14 2.26930E-13
 -1      2663 3.00254E+01-3.57141E+00-2.47515E-03-3.94590E-01 2.55351E-15 1.19127E-13
 -1      2664 3.27885E+01 2.20502E+00-3.83292E-02 2.50374E+00 2.02893E-13 1.57985E-13
 -1      2665 2.51805E+01-5.65713E+00 8.35955E-03-3.96508E+00-1.24956E-13 3.30569E-14
 -1      2666 2.73455E+01-5.22543E+00-1.15854E-01-2.28753E+00-5.11535E-14 8.69860E-14
 -1      2667 2.39628E+01-5.65017E+00 1.02967E-01-4.21255E+00-1.53932E-13-4.11476E-15
 -1      2668 3.25044E+01 2.24588E+00-6.76234E-02-2.46342E+00 3.84914E-13 2.99483E-14
 -1      2669 3.00602E+01 7.28048E+00-1.09592E-01 3.51269E-01-3.23352E-13-2.60923E-13
 -1      2670 2.26658E+01-5.03484E+00 7.89444E-02-5.63049E+00 5.44315E-13-5.94802E-14
 -1      2671 3.20869E+01 5.31949E+00-5.67020E-02 1.62279E+00 3.63931E-13 1.91930E-14
 -1      2672 5.73073E+00-1.75945E+00 1.63457E-01-2.04644E+00-2.42584E-14-4.40592E-13
 -1      2673 2.00867E+01 8.28185E-02 1.19408E-03-1.48075E-01-1.03333E-13-8.35332E-15
 -1      2674 2.00630E+01 1.21290E-01-5.23449E-04-1.68569E-01-1.08052E-13 1.84196E-13
 -1      2675 2.00737E+01 1.39712E-01 3.54642E-04-2.09316E-01-2.50103E-13 3.24205E-13
 -1      2676 2.01164E+01 8.27931E-02 1.36659E-03-1.75718E-01-1.05664E-13 1.71184E-13
 -1      2677 2.00885E+01 1.68910E-01 1.51403E-03 2.33065E-01-1.40100E-13 2.73229E-13
 -1      2678 2.01117E+01 1.06704E-01-8.46548E-04-2.20242E-01-3.57430E-13 3.19421E-13
 -1      2679 1.98544E+01 2.77275E+00-6.29782E-03 5.14311E-01 1.29192E-13-6.32866E-14
 -1      2680 1.98300E+01 2.82293E+00-5.74684E-03 3.63799E-01 1.25224E-13-8.27676E-14
 -1      2681 1.98133E+01 2.86097E+00-5.63364E-03 2.28807E-01 1.22843E-13-1.02061E-13
 -1      2682 1.98048E+01 2.87805E+00-5.47458E-03 7.46721E-02 1.20776E-13-8.28426E-14
 -1      2683 1.99593E+01 2.51164E+00 3.72496E-03 2.63549E-01 1.09014E-13-9.77779E-14
 -1      2684 2.00495E+01 2.32857E+00-1.06366E-02 1.04359E+00 1.61763E-13 3.03744E-14
 -1      2685 1.99865E+01 2.47803E+00-6.37828E-03 9.07881E-01 1.70344E-13-5.93449E-15
 -1      2686 2.02197E+01 1.91081E+00-1.16824E-02 1.22565E+00 1.50949E-13 1.04522E-13
 -1      2687 2.01284E+01 2.14959E+00-4.88466E-03 1.13213E+00 1.51840E-13 7.29243E-14
 -1      2688 2.01947E+01 1.89123E+00 6.38027E-03 9.23503E-01 1.47428E-13 4.42722E-14
 -1      2689 2.03195E+01 1.58228E+00-8.85098E-03-1.24054E+00-4.61796E-14-1.50988E-13
 -1      2690 2.03009E+01 1.21686E+00 5.99199E-05-9.66202E-01-4.45466E-14-1.45380E-13
 -1      2691 2.02406E+01 1.84686E+00-4.18338E-04-1.21865E+00-4.33403E-14-1.56067E-13
 -1      2692 1.05104E+01-1.99324E+00 1.43271E-01-4.69420E+00-1.11910E-13-2.97845E-13
 -1      2693 1.37628E+01-3.30313E+00 8.23490E-02-5.84697E+00-2.05946E-13-9.76996E-14
 -1      2694 2.03349E+01 1.50115E+00-1.92517E-03 1.26563E+00 1.41756E-13 1.84801E-13
 -1      2695 2.90316E+01-2.17427E-01-7.61515E-02 6.47245E-01-2.08167E-16-1.74916E-13
 -1      2696 2.92196E+01 1.83527E+00-1.73290E-01 1.42550E+00-1.09537E-13-7.45237E-14
 -1      2697 1.56962E+01-4.47863E+00 1.17669E-01-6.92378E+00 5.09481E-13 5.02931E-13
 -1      2698 1.85114E+01-5.02755E+00 6.29005E-03-6.73054E+00 6.03073E-13 4.90628E-13
 -1      2699 2.02143E+01 6.33429E-01 7.02495E-03-4.31996E-01-5.33082E-14-1.14238E-13
 -1      2700 2.01350E+01 4.84181E-01-2.80552E-03-2.70642E-01-4.26591E-14-1.10025E-13
 -1      2701 2.01095E+01 3.71359E-01 6.43850E-03-1.48750E-01-2.90072E-14-1.11912E-13
 -1      2702 2.00526E+01 2.79010E-01-1.57710E-03-4.80708E-02-2.34179E-14-1.21081E-13
 -1      2703 2.01996E+01 5.38265E-01-1.92894E-03-2.51810E-01-4.78253E-14-1.21483E-13
 -1      2704 2.00276E+01 2.11074E-01 4.44954E-03 3.09719E-02-1.24093E-14-1.14935E-13
 -1      2705 1.99948E+01 1.54429E-01-5.80857E-04 9.17935E-02-1.06271E-14-1.02545E-13
 -1      2706 2.01328E+01 3.14126E-01-2.18477E-03-3.91530E-02-2.29527E-14-1.40178E-13
 -1      2707 1.99753E+01 1.13341E-01 2.80457E-03 1.40469E-01-2.99407E-14-7.69257E-14
 -1      2708 1.99616E+01 7.97961E-02 4.41454E-05 1.75865E-01-3.99935E-14-8.06782E-14
 -1      2709 2.00794E+01 1.74882E-01-1.99938E-03 9.75561E-02-2.65028E-14-1.01864E-13
 -1      2710 1.99486E+01 5.62113E-02 1.61225E-03 2.04662E-01-4.13741E-14-9.41446E-14
 -1      2711 1.99487E+01 3.81345E-02 4.42763E-04 2.24663E-01-7.93034E-14-8.00295E-14
 -1      2712 2.00425E+01 9.14015E-02-1.64152E-03 1.81682E-01-4.87231E-14-8.30254E-14
 -1      2713 1.99415E+01 2.64336E-02 7.72553E-04 2.41573E-01-8.88675E-14-5.56586E-14
 -1      2714 1.99515E+01 1.90198E-02 7.16342E-04 2.53232E-01-9.01248E-14-5.98441E-14
 -1      2715 2.00206E+01 4.54871E-02-1.28623E-03 2.32209E-01-5.73484E-14-3.20765E-14
 -1      2716 1.99491E+01 1.55758E-02 1.96611E-04 2.64196E-01-8.83930E-14-5.02608E-14
 -1      2717 1.99663E+01 1.55938E-02 9.23157E-04 2.72503E-01-9.43123E-14-2.83576E-14
 -1      2718 2.00111E+01 2.55289E-02-9.96133E-04 2.63591E-01-6.61167E-14 3.88049E-14
 -1      2719 1.99680E+01 1.78745E-02-1.84353E-04 2.81866E-01-1.05772E-13-5.29473E-15
 -1      2720 1.99908E+01 2.29638E-02 1.09246E-03 2.90319E-01-8.11334E-14 4.44461E-14
 -1      2721 2.00117E+01 2.36675E-02-7.84882E-04 2.86556E-01-6.43402E-14 7.47376E-14
 -1      2722 1.99960E+01 2.90102E-02-4.17878E-04 3.01179E-01-7.21007E-14 6.73686E-14
 -1      2723 2.00236E+01 3.72308E-02 1.23365E-03 3.12117E-01-2.76216E-14 4.87883E-14
 -1      2724 2.00205E+01 3.41422E-02-6.49554E-04 3.08897E-01-5.61258E-14 1.12429E-13
 -1      2725 2.00323E+01 4.52999E-02-5.31685E-04 3.26533E-01-2.19560E-14 1.04155E-14
 -1      2726 2.00648E+01 5.47905E-02 1.34077E-03 3.41291E-01-3.00099E-14 2.67145E-14
 -1      2727 2.00366E+01 5.22176E-02-5.85398E-04 3.36046E-01-5.68306E-14 7.10836E-14
 -1      2728 2.00773E+01 6.30622E-02-5.34271E-04 3.60363E-01-2.67920E-14 8.89145E-15
 -1      2729 2.01150E+01 7.17393E-02 1.39383E-03 3.79271E-01-4.18661E-15 2.39992E-14
 -1      2730 2.00603E+01 7.33694E-02-5.92915E-04 3.71378E-01-3.43144E-14 1.09876E-13
 -1      2731 2.01325E+01 7.80468E-02-4.14967E-04 4.03089E-01 3.63935E-15 1.73644E-14
 -1      2732 2.01761E+01 8.33235E-02 1.35839E-03 4.25342E-01-1.26295E-14 6.24475E-14
 -1      2733 2.00926E+01 9.25770E-02-6.81046E-04 4.16268E-01 5.97463E-15 1.03209E-13
 -1      2734 2.02005E+01 8.49098E-02-1.44357E-04 4.52801E-01-5.65642E-14 7.21143E-14
 -1      2735 2.02509E+01 8.34582E-02 1.18452E-03 4.76205E-01-9.93453E-14 3.97551E-14
 -1      2736 2.01360E+01 1.03671E-01-8.69529E-04 4.69877E-01-2.93754E-14 3.25901E-15
 -1      2737 2.02851E+01 7.68023E-02 3.23479E-04 5.04688E-01-1.26156E-13 2.12009E-14
 -1      2738 2.03435E+01 6.44337E-02 8.06014E-04 5.25325E-01-7.20504E-14 3.15103E-15
 -1      2739 2.01948E+01 9.87949E-02-1.18931E-03 5.28682E-01-1.19357E-13 5.43421E-14
 -1      2740 2.03916E+01 4.52570E-02 1.04325E-03 5.50277E-01-3.00245E-14-5.78124E-14
 -1      2741 2.04589E+01 1.70810E-02 1.41373E-04 5.62145E-01-9.42815E-15-8.24277E-14
 -1      2742 2.02750E+01 6.81487E-02-1.67774E-03 5.85757E-01-1.25992E-13 4.03849E-14
 -1      2743 2.05265E+01-1.92624E-02 2.05856E-03 5.76575E-01 4.38249E-15-1.15943E-13
 -1      2744 2.06035E+01-6.81184E-02-8.99352E-04 5.71372E-01 3.12303E-14-1.02989E-13
 -1      2745 2.03853E+01 4.00081E-04-2.36299E-03 6.29865E-01-1.07441E-14-1.30221E-14
 -1      2746 2.06972E+01-1.25533E-01 3.36120E-03 5.65417E-01 4.83537E-14-1.58434E-13
 -1      2747 2.07835E+01-1.98219E-01-2.39157E-03 5.32734E-01 5.76186E-14-1.65161E-13
 -1      2748 2.05369E+01-1.15601E-01-3.22709E-03 6.44477E-01 2.58024E-14-1.19530E-13
 -1      2749 2.09094E+01-2.77603E-01 4.81515E-03 4.93609E-01 8.18243E-14-1.51534E-13
 -1      2750 2.10026E+01-3.72357E-01-4.32907E-03 4.22024E-01 1.05290E-13-1.33685E-13
 -1      2751 2.07419E+01-2.86807E-01-4.13406E-03 6.07111E-01 5.24083E-14-1.80954E-13
 -1      2752 2.11636E+01-4.67779E-01 6.05578E-03 3.35043E-01 1.41828E-13-1.11355E-13
 -1      2753 2.12571E+01-5.73034E-01-6.50219E-03 2.14915E-01 1.14048E-13-1.23054E-13
 -1      2754 2.10099E+01-5.08512E-01-4.71959E-03 4.89888E-01 1.56718E-13-1.42674E-13
 -1      2755 2.14476E+01-6.66579E-01 6.33195E-03 6.68416E-02 1.31952E-13-6.11986E-14
 -1      2756 2.15291E+01-7.54940E-01-8.17365E-03-1.04297E-01 1.28964E-13-2.34111E-14
 -1      2757 2.13411E+01-7.52908E-01-4.30751E-03 2.63182E-01 1.95378E-13-9.67470E-14
 -1      2758 2.17263E+01-8.11899E-01 4.60688E-03-3.16903E-01 4.30937E-14-1.15701E-13
 -1      2759 2.17775E+01-8.37571E-01-7.89732E-03-5.25403E-01 3.97267E-14-1.93878E-13
 -1      2760 2.17134E+01-9.54965E-01-1.85170E-03-9.40880E-02 7.58042E-14-3.34725E-14
 -1      2761 2.19373E+01-8.08552E-01-2.78409E-04-7.81512E-01 7.45064E-16-2.27264E-13
 -1      2762 2.19390E+01-7.16382E-01-4.01884E-03-9.87646E-01-1.10737E-13-2.48255E-13
 -1      2763 2.20695E+01-1.00627E+00 3.32806E-03-5.71054E-01-4.56392E-14-2.31120E-13
 -1      2764 2.20034E+01-5.54322E-01-8.20715E-03-1.22637E+00-8.37104E-14-1.93287E-13
 -1      2765 2.19465E+01-3.07786E-01 4.08059E-03-1.36119E+00 2.05168E-14-2.16771E-13
 -1      2766 2.23155E+01-7.79474E-01 9.48741E-03-1.09190E+00-8.36136E-14-1.59947E-13
 -1      2767 2.18746E+01-3.13390E-03-1.64459E-02-1.47803E+00 9.23695E-14-2.28925E-13
 -1      2768 2.17740E+01 3.66312E-01 1.27834E-02-1.45838E+00-1.64486E-14-2.07136E-13
 -1      2769 2.23531E+01-1.93374E-01 1.23784E-02-1.49005E+00 4.26783E-14-1.63535E-13
 -1      2770 2.15989E+01 7.36405E-01-1.86382E-02-1.34752E+00 7.69729E-15-1.24023E-13
 -1      2771 2.14972E+01 1.10242E+00 1.65273E-02-1.12792E+00 4.10128E-14-1.14959E-13
 -1      2772 2.21605E+01 6.64488E-01 5.39519E-03-1.53177E+00 7.97381E-14-1.32152E-13
 -1      2773 2.13278E+01 1.38771E+00-9.40203E-03-7.60985E-01 1.44189E-14-2.92689E-14
 -1      2774 2.12793E+01 1.56754E+00 9.70528E-03-3.77766E-01-2.38095E-14 1.18049E-13
 -1      2775 2.18630E+01 1.51506E+00-2.53034E-03-1.05625E+00 6.26614E-14 6.28182E-14
 -1      2776 2.12541E+01 1.60497E+00 4.99976E-03 1.18534E-01-8.23560E-14 1.30690E-13
 -1      2777 2.12832E+01 1.50230E+00-5.44511E-03 5.22971E-01-1.69033E-13 1.40163E-13
 -1      2778 2.16930E+01 1.93131E+00-8.21994E-03-1.47430E-01-5.30880E-14 9.31664E-14
 -1      2779 2.14187E+01 1.27767E+00 1.57995E-02 9.44474E-01-2.51761E-13 1.11310E-13
 -1      2780 2.15097E+01 9.46528E-01-1.67702E-02 1.22082E+00-2.10367E-13 1.45143E-13
 -1      2781 2.17917E+01 1.68763E+00-6.33964E-03 8.23376E-01-2.06580E-13 1.19633E-13
 -1      2782 2.17001E+01 5.82056E-01 1.60083E-02 1.40628E+00-2.01366E-13 1.22258E-13
 -1      2783 2.18043E+01 1.98040E-01-1.71136E-02 1.48092E+00-1.96400E-13 1.27753E-13
 -1      2784 2.20774E+01 9.28848E-01 5.62205E-03 1.44897E+00-1.82329E-13 2.47018E-13
 -1      2785 2.19124E+01-1.36907E-01 6.72191E-03 1.42172E+00-1.16643E-13 1.24065E-13
 -1      2786 2.19850E+01-4.26440E-01-1.10842E-02 1.32275E+00-6.68440E-14 1.72403E-13
 -1      2787 2.23167E+01 3.27255E-02 1.16503E-02 1.54124E+00-1.82962E-13 2.94614E-13
 -1      2788 2.19578E+01-6.32117E-01-2.70846E-03 1.10673E+00-1.07268E-13 1.87717E-13
 -1      2789 2.19729E+01-7.67066E-01-2.93012E-03 9.12256E-01-9.11198E-14 2.15656E-13
 -1      2790 2.23499E+01-6.51483E-01 9.47978E-03 1.22385E+00-9.25069E-14 2.43205E-13
 -1      2791 2.18340E+01-8.29752E-01-7.71323E-03 6.52082E-01-8.83733E-16 1.78079E-13
 -1      2792 2.17950E+01-8.31552E-01 3.28944E-03 4.38767E-01-4.06761E-14 2.40076E-13
 -1      2793 2.21555E+01-9.77600E-01 4.07231E-03 7.15633E-01-3.79674E-14 3.62674E-13
 -1      2794 2.16031E+01-7.93154E-01-8.49931E-03 2.10238E-01-8.80821E-14 1.45311E-13
 -1      2795 2.15280E+01-7.16745E-01 6.05121E-03 2.62824E-02-1.10427E-14 5.18905E-14
 -1      2796 2.18199E+01-9.91016E-01-9.90392E-04 2.14255E-01-8.84618E-14 7.81875E-14
 -1      2797 2.13327E+01-6.28852E-01-7.09566E-03-1.40208E-01 3.66537E-14 4.53683E-14
 -1      2798 2.12412E+01-5.24195E-01 6.30784E-03-2.74705E-01 8.55196E-14 8.62185E-15
 -1      2799 2.14451E+01-8.17869E-01-3.90902E-03-1.79716E-01 2.09871E-14 1.82429E-13
 -1      2800 2.10709E+01-4.26037E-01-4.96555E-03-3.77337E-01 1.37165E-13-7.00823E-14
 -1      2801 2.09771E+01-3.25468E-01 5.29049E-03-4.61062E-01 1.51896E-13-4.31987E-14
 -1      2802 2.10993E+01-5.75558E-01-4.78481E-03-4.41297E-01 6.36237E-14 9.46851E-14
 -1      2803 2.08416E+01-2.39241E-01-2.93083E-03-5.11047E-01 1.02979E-13-4.05769E-14
 -1      2804 2.07537E+01-1.58135E-01 3.88995E-03-5.52038E-01 2.43846E-14-2.15306E-14
 -1      2805 2.08133E+01-3.40592E-01-4.40732E-03-5.84788E-01 1.26984E-13-1.70780E-13
 -1      2806 2.06520E+01-9.24994E-02-1.32061E-03-5.63890E-01 1.04014E-13-7.69303E-14
 -1      2807 2.05736E+01-3.46791E-02 2.57454E-03-5.73146E-01 1.02330E-13-7.15519E-15
 -1      2808 2.05922E+01-1.49811E-01-3.54303E-03-6.38288E-01 8.32492E-15-2.68551E-13
 -1      2809 2.04999E+01 9.97559E-03-1.87526E-04-5.60067E-01 1.74706E-14 5.02407E-14
 -1      2810 2.04319E+01 4.69140E-02 1.53596E-03-5.48070E-01 6.71636E-15-8.03293E-14
 -1      2811 2.04282E+01-1.28039E-02-2.64491E-03-6.30222E-01 5.99951E-14-4.97978E-13
 -1      2812 2.03795E+01 7.42029E-02 5.27402E-04-5.20390E-01 2.01607E-14 4.66540E-14
 -1      2813 2.03217E+01 9.52116E-02 8.15015E-04-4.95610E-01 2.27731E-13-1.77980E-14
 -1      2814 2.03091E+01 7.55695E-02-1.89669E-03-5.84063E-01 9.41974E-14-2.78115E-13
 -1      2815 2.02845E+01 1.10074E-01 9.11376E-04-4.60608E-01 2.71245E-13-1.14701E-13
 -1      2816 2.02359E+01 1.20530E-01 3.75841E-04-4.29098E-01 1.43661E-13 5.45956E-14
 -1      2817 2.02232E+01 1.26581E-01-1.31965E-03-5.17147E-01 1.85537E-13-2.86307E-13
 -1      2818 2.02089E+01 1.27749E-01 1.06030E-03-3.91383E-01 6.27776E-14-4.47674E-14
 -1      2819 2.01684E+01 1.32300E-01 1.61158E-04-3.56974E-01 8.97257E-15-8.27044E-14
 -1      2820 2.01607E+01 1.52596E-01-8.48960E-04-4.41037E-01 1.27723E-14-3.84978E-13
 -1      2821 2.01478E+01 1.35721E-01 9.65747E-04-3.19221E-01-4.19431E-14 1.16969E-13
 -1      2822 2.01149E+01 1.38176E-01 2.48681E-04-2.83908E-01-1.23823E-13 5.03096E-14
 -1      2823 2.01136E+01 1.64130E-01-6.55750E-04-3.62644E-01 8.78779E-14-3.47702E-13
 -1      2824 1.98710E+01 6.64218E-02 4.17248E-04-1.70052E-01 1.01284E-13 1.11810E-13
 -1      2825 1.98800E+01 9.52462E-02 3.12162E-03-1.36557E-01 1.00121E-13 1.05587E-13
 -1      2826 2.00537E+01 2.41600E-01-3.17883E-04 3.08464E-01-9.84077E-14-1.60206E-13
 -1      2827 2.01039E+01 1.82183E-01 1.23218E-03 2.82085E-01-1.94664E-14 2.69507E-13
 -1      2828 2.01439E+01 1.93837E-01 3.28905E-03 3.31786E-01 3.94253E-14 2.46552E-13
 -1      2829 1.99006E+01 1.30439E-01 3.70447E-06-8.73617E-02 7.62996E-14 8.41866E-14
 -1      2830 1.99330E+01 1.79825E-01 5.19812E-03-2.83015E-02 5.55324E-14 9.07667E-14
 -1      2831 2.00021E+01 1.52083E-01-2.47052E-03-9.41321E-02 8.91919E-14 6.64558E-14
 -1      2832 1.98837E+01 1.60240E-02 9.20962E-04-2.44230E-01 7.04898E-14 1.74949E-13
 -1      2833 1.98654E+01 2.16615E-02 7.87097E-04-2.33558E-01 1.14850E-13 1.50351E-13
 -1      2834 1.99140E+01 1.54812E-02 1.15206E-03-2.63310E-01 1.01495E-13 1.36349E-13
 -1      2835 1.98876E+01 1.39566E-02 1.54765E-04-2.55105E-01 8.34279E-14 1.68881E-13
 -1      2836 1.99562E+01 2.27241E-02-1.11050E-03-2.61083E-01 7.91998E-14 1.45859E-13
 -1      2837 1.99555E+01 2.65735E-02 1.42422E-03-2.83239E-01 6.40140E-14 1.47676E-13
 -1      2838 1.99226E+01 1.92587E-02-2.78519E-04-2.73425E-01 1.05970E-13 1.41468E-13
 -1      2839 1.99704E+01 2.48592E-02-8.50563E-04-2.84937E-01 9.99616E-14 1.43636E-13
 -1      2840 2.00067E+01 4.77379E-02 1.76273E-03-3.11272E-01 2.74078E-14 1.48494E-13
 -1      2841 1.99676E+01 3.52870E-02-5.92152E-04-2.96485E-01 4.75868E-14 1.45184E-13
 -1      2842 1.99936E+01 4.14022E-02-6.67325E-04-3.10690E-01 6.61039E-14 1.44004E-13
 -1      2843 2.00672E+01 7.85115E-02 2.18665E-03-3.53723E-01 2.19501E-14 1.11900E-13
 -1      2844 2.00214E+01 6.10367E-02-8.49669E-04-3.30951E-01 2.81025E-14 1.29951E-13
 -1      2845 2.00239E+01 7.06206E-02-5.27746E-04-3.45869E-01 5.19006E-14 9.25493E-14
 -1      2846 2.01375E+01 1.19276E-01 2.71054E-03-4.16519E-01 3.36747E-14 4.52943E-14
 -1      2847 2.00838E+01 9.64739E-02-1.10471E-03-3.82845E-01 3.15866E-14 5.86564E-14
 -1      2848 2.00599E+01 1.12091E-01-3.94604E-04-3.97008E-01 4.44431E-14 1.19806E-13
 -1      2849 2.02183E+01 1.71006E-01 3.34325E-03-5.05580E-01-4.17673E-15 3.59493E-14
 -1      2850 2.01551E+01 1.42296E-01-1.40483E-03-4.58012E-01 6.13794E-16 6.68178E-14
 -1      2851 2.00999E+01 1.66372E-01-2.23384E-04-4.70154E-01 1.17356E-14 3.68931E-14
 -1      2852 2.03099E+01 2.34848E-01 4.08279E-03-6.26997E-01 6.84439E-14-4.33631E-14
 -1      2853 2.02354E+01 1.99623E-01-1.79225E-03-5.62424E-01 3.30544E-14 1.97111E-14
 -1      2854 2.01421E+01 2.34633E-01 3.70522E-05-5.71201E-01 2.71989E-14 6.99871E-14
 -1      2855 2.04122E+01 3.11275E-01 4.90875E-03-7.86910E-01 8.36695E-14 1.20701E-14
 -1      2856 2.03246E+01 2.69414E-01-2.29808E-03-7.02252E-01 6.92419E-14-5.68884E-14
 -1      2857 2.01834E+01 3.18020E-01 4.39083E-04-7.06023E-01 1.92103E-14-5.60998E-15
 -1      2858 2.05240E+01 3.98336E-01 5.77450E-03-9.90862E-01-1.89614E-14 9.55960E-14
 -1      2859 2.04218E+01 3.51248E-01-2.92618E-03-8.83584E-01 7.36193E-14 8.28968E-14
 -1      2860 2.02194E+01 4.16383E-01 1.01979E-03-8.80358E-01 1.84691E-14 1.01852E-14
 -1      2861 2.06441E+01 4.88238E-01 6.60454E-03-1.24232E+00-1.77799E-13 6.09900E-14
 -1      2862 2.05253E+01 4.40881E-01-3.61691E-03-1.11156E+00-1.03461E-13 1.03154E-13
 -1      2863 2.02441E+01 5.25769E-01 1.75330E-03-1.09933E+00-9.07308E-14 1.89192E-14
 -1      2864 2.07738E+01 5.61090E-01 7.32460E-03-1.53985E+00-9.22940E-14 6.62469E-14
 -1      2865 2.06353E+01 5.25590E-01-4.16967E-03-1.38855E+00-1.90386E-13 2.36243E-14
 -1      2866 2.02515E+01 6.33689E-01 2.44920E-03-1.36660E+00-1.50563E-13 3.74300E-14
 -1      2867 2.09243E+01 5.74520E-01 7.94246E-03-1.87240E+00-2.94062E-14 2.12852E-13
 -1      2868 2.07581E+01 5.76046E-01-4.06628E-03-1.71087E+00-9.41776E-15 1.53563E-13
 -1      2869 2.02400E+01 7.10827E-01 2.58390E-03-1.68302E+00-8.24222E-14 3.13117E-14
 -1      2870 2.11325E+01 4.48848E-01 8.60098E-03-2.21165E+00-2.97660E-14 1.55063E-13
 -1      2871 2.09186E+01 5.33702E-01-2.15987E-03-2.06321E+00 8.12366E-16 2.32290E-13
 -1      2872 2.02224E+01 6.98005E-01 1.05551E-03-2.04490E+00 2.14283E-14 2.21035E-13
 -1      2873 2.14893E+01 5.45426E-02 9.51110E-03-2.49853E+00-2.05771E-14 1.04200E-13
 -1      2874 2.11847E+01 2.95506E-01 3.99756E-03-2.40782E+00-1.51370E-14 9.06492E-14
 -1      2875 2.02487E+01 4.87688E-01-4.18091E-03-2.44031E+00-2.88886E-15 1.01147E-13
 -1      2876 2.21722E+01-7.71788E-01 1.08592E-02-2.61953E+00-1.84759E-13 6.35042E-14
 -1      2877 2.17016E+01-2.89981E-01 1.81298E-02-2.66382E+00-1.05214E-13 1.03588E-13
 -1      2878 2.04446E+01-8.48388E-02-1.55390E-02-2.83701E+00-4.91659E-14 1.15448E-13
 -1      2879 2.34522E+01-2.11527E+00 8.77756E-03-2.36305E+00-1.85041E-13 9.73680E-14
 -1      2880 2.27308E+01-1.37551E+00 4.52137E-02-2.66360E+00-1.70249E-13 7.55622E-14
 -1      2881 2.10657E+01-1.22013E+00-3.45892E-02-3.14799E+00-1.78729E-13 1.28449E-13
 -1      2882 2.55625E+01-3.59600E+00-4.39241E-03-1.38966E+00-6.52846E-14 8.33509E-14
 -1      2883 2.45950E+01-2.91146E+00 6.54921E-02-2.07028E+00-2.01012E-13 5.33748E-14
 -1      2884 2.25560E+01-2.94602E+00-4.71071E-02-3.13969E+00-1.75984E-13 5.91749E-14
 -1      2885 3.06958E+01-5.98280E-01-7.36260E-02 2.48283E+00 9.96841E-14 1.80689E-13
 -1      2886 2.99096E+01-2.61148E+00-6.29483E-02 1.91680E+00 6.29462E-14 2.31426E-13
 -1      2887 2.95393E+01 3.09955E+00-1.27150E-01 2.55757E+00 2.24348E-13 1.27939E-13
 -1      2888 2.89444E+01 4.34667E+00-1.57259E-01-4.95320E-01 4.76591E-13-7.94850E-14
 -1      2889 2.25464E+01-9.80272E-01 3.49281E-02 2.63343E+00-2.07747E-13-4.19326E-15
 -1      2890 2.31686E+01-1.64068E+00 2.51996E-03 2.40704E+00-2.66428E-13-8.67700E-14
 -1      2891 2.16778E+01-7.77015E-02 1.19283E-02 2.56676E+00-2.18599E-13 2.09892E-13
 -1      2892 2.20953E+01-4.72415E-01 7.05293E-03 2.56230E+00-1.90695E-13 1.29142E-13
 -1      2893 2.10218E+01-8.28348E-01-3.19046E-02 3.02070E+00-2.88067E-13-3.44204E-14
 -1      2894 2.12283E+01 3.74823E-01 1.79344E-03 2.28915E+00-2.79956E-13 2.94600E-13
 -1      2895 2.15111E+01 1.93215E-01 7.93228E-03 2.39740E+00-1.61944E-13 2.40965E-13
 -1      2896 2.05281E+01 1.17168E-01-1.14811E-02 2.70137E+00-2.24203E-13 1.34090E-14
 -1      2897 2.09738E+01 5.38794E-01-2.25902E-03 1.94423E+00-1.68516E-13 3.06011E-13
 -1      2898 2.11826E+01 4.84561E-01 7.81673E-03 2.09762E+00-2.19917E-13 3.69346E-13
 -1      2899 2.03666E+01 5.54453E-01-2.30474E-03 2.31617E+00-1.77178E-13 3.99926E-14
 -1      2900 2.08020E+01 5.48155E-01-3.46445E-03 1.59955E+00-1.26305E-13-9.56436E-14
 -1      2901 2.09694E+01 5.58682E-01 7.56144E-03 1.75949E+00-1.44066E-13 8.57749E-14
 -1      2902 2.03298E+01 6.92274E-01 1.20692E-03 1.93319E+00-1.33380E-14 8.53897E-14
 -1      2903 2.06637E+01 4.88509E-01-3.32172E-03 1.28742E+00-9.84875E-14-1.90657E-14
 -1      2904 2.08040E+01 5.25785E-01 7.09036E-03 1.43429E+00-1.85626E-13-8.61096E-14
 -1      2905 2.03234E+01 6.75540E-01 2.19963E-03 1.58162E+00-9.18036E-14-3.80078E-13
 -1      2906 2.05413E+01 4.07677E-01-2.71029E-03 1.01997E+00-6.87693E-14-5.18161E-14
 -1      2907 2.06601E+01 4.51286E-01 6.36393E-03 1.14613E+00-9.06483E-14-2.87654E-14
 -1      2908 2.03110E+01 5.92036E-01 1.90275E-03 1.27400E+00-1.24599E-13-3.76839E-13
 -1      2909 2.04305E+01 3.28888E-01-2.03225E-03 7.98064E-01 3.58646E-13 1.01199E-13
 -1      2910 2.05303E+01 3.69309E-01 5.49362E-03 9.02465E-01 1.58075E-13 1.26379E-14
 -1      2911 2.02846E+01 4.90947E-01 1.22612E-03 1.01310E+00 2.54061E-14-3.34844E-13
 -1      2912 2.03322E+01 2.62157E-01-1.27156E-03 6.17233E-01 3.29757E-13 2.61841E-13
 -1      2913 2.04144E+01 2.95479E-01 4.59505E-03 7.01975E-01 3.70089E-13 3.10575E-13
 -1      2914 2.02470E+01 3.95752E-01 5.63250E-04 7.96444E-01 1.93643E-13 3.06023E-14
 -1      2915 2.02490E+01 2.11892E-01 4.29265E-04 4.70937E-01 4.09203E-13 3.15062E-13
 -1      2916 2.03135E+01 2.35665E-01 3.86027E-03 5.38501E-01 3.74167E-13 2.51159E-13
 -1      2917 2.02023E+01 3.16018E-01-4.16176E-04 6.19013E-01 3.67258E-13 1.61968E-13
 -1      2918 2.01676E+01 1.93864E-01 1.41770E-03 3.70383E-01 1.59748E-13 3.95135E-13
 -1      2919 2.02166E+01 2.10758E-01 3.58510E-03 4.27036E-01 3.92047E-13 2.68632E-13
 -1      2920 2.01383E+01 2.72425E-01-2.86699E-03 4.91562E-01 4.03757E-13 2.02853E-13
 -1      2921 2.00789E+01 2.57170E-01-4.51085E-03 4.01232E-01 1.90501E-13-1.74862E-13
 -1      2922 1.98198E+01 4.78879E-01-6.29874E-04-1.38433E-02 2.74289E-13 3.36204E-14
 -1      2923 1.98181E+01 4.80292E-01-1.20259E-03 3.48137E-02 3.89925E-13-2.26774E-13
 -1      2924 2.01045E+01 1.39432E-01 9.79365E-04-2.58601E-01-2.16823E-13 1.66037E-13
 -1      2925 2.00851E+01 1.39863E-01 3.70543E-04-2.34188E-01-2.18465E-13 2.48876E-13
 -1      2926 2.00824E+01 1.67813E-01-6.70504E-04-2.97447E-01-5.51224E-14-4.19841E-13
 -1      2927 1.98539E+01 4.47709E-01-1.90393E-03 1.89217E-01 2.28972E-13 3.17387E-13
 -1      2928 1.98803E+01 4.24243E-01 2.52573E-04 2.26446E-01 3.10996E-13-9.73915E-14
 -1      2929 1.98409E+01 4.51645E-01-9.77931E-06-1.12569E-01 1.45600E-13 2.73668E-13
 -1      2930 1.98273E+01 4.64859E-01-1.60514E-03-6.83948E-02 1.80750E-13 2.37354E-13
 -1      2931 1.97832E+01 4.88858E-01 1.59783E-03-5.06757E-02 2.68533E-13-3.89510E-14
 -1      2932 1.98231E+01 4.78392E-01-1.29748E-03 9.16435E-02 1.30051E-13-2.58236E-13
 -1      2933 1.98354E+01 4.67056E-01-5.66994E-04 1.38137E-01 2.05857E-13 3.04365E-13
 -1      2934 1.98087E+01 4.81865E-01 1.91681E-03 1.80011E-01 2.05645E-13 2.31776E-13
 -1      2935 1.97795E+01 5.01002E-01 1.86116E-03 6.62176E-02 1.53147E-13-9.40183E-14
 -1      2936 1.99647E+01 2.38855E-01-6.60807E-04 5.31939E-02 5.72961E-14 9.78947E-14
 -1      2937 2.00293E+01 3.21085E-01 8.11557E-03 1.53546E-01 6.55731E-14 1.23779E-13
 -1      2938 2.00619E+01 2.77250E-01-2.87131E-03 4.73279E-02 7.16674E-14 7.40263E-14
 -1      2939 1.98805E+01 4.03088E-01 5.34802E-04-1.91448E-01 1.20151E-13-9.00352E-14
 -1      2940 1.98582E+01 4.25378E-01-1.75862E-03-1.57470E-01 7.56763E-14 2.35591E-13
 -1      2941 1.98151E+01 4.50274E-01 1.18954E-03-1.54591E-01 1.53908E-13 1.24313E-13
 -1      2942 1.99331E+01 3.38228E-01 9.03100E-04-2.45194E-01 2.35288E-13-3.68982E-13
 -1      2943 1.99049E+01 3.67821E-01-1.70132E-03-2.23690E-01 2.74316E-13-2.72536E-13
 -1      2944 1.98679E+01 3.91891E-01 6.92963E-04-2.34899E-01 1.35128E-13-1.08325E-13
 -1      2945 1.99913E+01 2.64273E-01 6.86978E-04-2.67424E-01 1.48055E-13-3.47122E-14
 -1      2946 1.99620E+01 2.98322E-01-1.36775E-03-2.61444E-01 2.01859E-13-1.45323E-13
 -1      2947 1.99345E+01 3.20806E-01 2.53276E-04-2.85029E-01 1.73754E-13-2.58696E-13
 -1      2948 5.79868E+00-7.29014E-01 1.27582E-01 3.45989E-01 1.47802E-13 1.05999E-13
 -1      2949 5.72747E+00-9.63035E-01 1.61773E-01-1.77095E+00 2.99170E-13 1.65201E-13
 -1      2950 2.83249E+01-1.76426E+00-1.33443E-01 1.03927E-01-5.46369E-14 2.19130E-14
 -1      2951 2.75324E+01-3.02294E+00-1.19588E-02 1.12923E+00 4.02664E-14 2.28151E-14
 -1      2952 6.41238E+00-1.36999E+00 1.51120E-01-3.33184E+00 3.66263E-13 1.62925E-14
 -1      2953 8.09802E+00-1.95043E+00 1.30459E-01-5.08086E+00 4.61353E-13-6.67522E-14
 -1      2954 7.88652E+00-4.31791E-01 1.85525E-01-2.50725E+00 3.49824E-13 3.25295E-14
 -1      2955 2.28850E+01-5.61285E+00-6.95643E-02 4.56036E+00-3.09863E-13 1.99391E-13
 -1      2956 1.94639E+01-4.89063E+00 1.51768E-01 5.47006E+00-4.22079E-13 8.69409E-14
 -1      2957 9.28951E+00-1.93684E+00 1.02399E-01 4.55779E+00-2.34701E-13-9.48130E-14
 -1      2958 7.24662E+00-1.01154E+00 1.79771E-01 2.55749E+00-7.27127E-14-7.78544E-14
 -1      2959 2.90833E+01 6.48368E+00-1.91788E-01-1.10816E+00-3.65319E-13-2.91774E-13
 -1      2960 2.99553E+01 5.23690E+00-1.03934E-01-1.51784E+00-5.65048E-13-1.17656E-13
 -1      2961 7.48739E+00-9.23731E-01 1.13564E-01 3.46622E+00-5.23193E-15-9.62008E-14
 -1      2962 6.23894E+00-5.71080E-01 1.81216E-01 1.17268E+00 4.72565E-14-1.53572E-13
 -1      2963 2.41425E+01-2.34826E+00 7.16488E-02 2.19897E+00-2.97630E-13-9.44856E-14
 -1      2964 2.49703E+01-3.12663E+00-3.77762E-03 1.63614E+00-2.49474E-13-8.54121E-14
 -1      2965 2.22375E+01-2.39502E+00-5.39786E-02 3.07801E+00-2.97692E-13-3.15858E-14
 -1      2966 2.58843E+01-4.40051E+00-1.03559E-01 2.83966E+00 2.26902E-14 3.96211E-14
 -1      2967 2.34822E+01-4.88245E+00 9.41030E-02 4.40502E+00 9.11077E-14-2.11428E-13
 -1      2968 1.98677E+01 3.12519E-02 6.94593E-04-2.17042E-01 1.43683E-13 1.11669E-13
 -1      2969 1.98606E+01 4.64568E-02 1.72529E-03-1.98604E-01 1.22256E-13 1.29848E-13
 -1      2970 1.99677E+01 7.82316E-02-1.94364E-03-1.79498E-01 1.06586E-13 9.84079E-14
 -1      2971 1.99540E+01 3.84947E-02-1.47300E-03-2.29896E-01 9.77763E-14 1.50661E-13
 -1      2972 2.03094E+01 9.89197E-01 3.35226E-03-7.95610E-01-2.94179E-14-1.45009E-13
 -1      2973 2.02196E+01 7.65763E-01-3.57646E-03-5.61000E-01-3.87351E-14-1.33121E-13
 -1      2974 2.02558E+01 8.44874E-01 9.84199E-04-5.20011E-01-3.71731E-14-1.37593E-13
 -1      2975 2.02843E+01 1.20490E+00-1.72196E-03-8.22754E-01-3.71293E-14-1.51239E-13
 -1      2976 1.55452E+01-4.22430E+00 3.06239E-03 6.10303E+00-3.65402E-13 3.28071E-14
 -1      2977 1.22445E+01-3.01187E+00 1.66177E-01 5.51762E+00-3.43614E-13-2.31759E-14
 -1      2978 1.99316E+01 2.60223E+00-7.87480E-03 7.92088E-01 1.67743E-13-1.99101E-14
 -1      2979 1.98886E+01 2.69494E+00-6.17612E-03 6.43262E-01 1.46640E-13-4.82468E-14
 -1      2980 2.00074E+01 2.39772E+00 4.41427E-03 5.14101E-01 1.25531E-13-3.99455E-14
 -1      2981 2.00875E+01 2.19808E+00 5.71175E-03 7.42490E-01 1.49066E-13-4.02358E-15
 -1      2982 2.78787E+01 6.52798E+00-1.68829E-01 6.55328E-01-3.51441E-13-2.32928E-13
 -1      2983 2.83370E+01 6.87451E+00-1.75744E-01-2.74877E-01-3.86330E-13-2.48978E-13
 -1      2984 1.69938E+01-4.39937E+00 1.22051E-01-5.83311E+00-2.42362E-13 2.22045E-15
 -1      2985 2.02035E+01-5.21623E+00 8.41996E-03-5.49505E+00-1.84436E-13-9.88098E-15
 -1      2986 2.00617E+01 1.69833E-01 5.69681E-05-2.46052E-01-1.45265E-13-1.53215E-13
 -1      2987 2.00692E+01 4.20484E-01-1.69495E-03 2.82146E-01 7.77334E-14 1.25418E-13
 -1      2988 2.01690E+01 5.58350E-01 1.02715E-02 4.47562E-01 7.45207E-14 1.57019E-13
 -1      2989 2.01485E+01 4.83136E-01-2.78704E-03 2.72421E-01 7.60576E-14 8.24787E-14
 -1      2990 2.02300E+01-5.04320E+00-6.07766E-02 6.02283E+00 6.19504E-14-2.96214E-13
 -1      2991 1.72408E+01-4.24976E+00 1.49590E-01 6.49636E+00-5.50393E-14-1.08247E-13
 -1      2992 1.98831E+01 2.70411E+00-6.17367E-03-6.33267E-01 5.14665E-14-1.33074E-13
 -1      2993 1.99252E+01 2.61331E+00-7.91358E-03-7.82495E-01 3.61304E-14-1.51301E-13
 -1      2994 2.13878E+01-5.19979E+00 6.73712E-02-5.77153E+00 6.55614E-13 2.57457E-13
 -1      2995 2.40275E+01-4.93348E+00-3.89855E-02-4.61291E+00 3.06533E-13-3.45557E-14
 -1      2996 1.02502E+01-3.00958E+00 1.42453E-01-6.23042E+00 5.72820E-13 1.88960E-13
 -1      2997 1.27489E+01-3.88323E+00 6.98490E-02-7.00694E+00 5.50837E-13 4.55094E-13
 -1      2998 6.21256E+00-6.72878E-01 1.52629E-01-8.30019E-01 1.31208E-13-1.59622E-13
 -1      2999 7.67948E+00-1.08134E+00 1.63798E-01-2.92997E+00 5.48381E-14-5.37070E-13
 -1      3000 2.89095E+01 3.73483E+00-1.13205E-01 1.84239E+00-2.13274E-13 4.56996E-14
 -1      3001 2.81860E+01 5.21297E+00-1.88061E-01 1.62497E+00-1.98674E-13 1.27398E-14
 -1      3002 2.83271E+01-4.62577E+00-9.82752E-02 8.91643E-01 4.42008E-14-1.81688E-13
 -1      3003 2.61316E+01-5.23567E+00 8.71879E-02 2.65098E+00-6.36713E-14-3.22936E-14
 -1      3004 1.35247E+01-3.28671E+00 4.40501E-02 6.65382E+00-7.49678E-14-1.51823E-14
 -1      3005 1.03024E+01-1.90889E+00 1.63499E-01 5.43631E+00-3.12250E-14 4.84057E-14
 -1      3006 3.01905E+01 5.13772E+00-1.66300E-01-9.32583E-01 5.27023E-13-1.17427E-13
 -1      3007 3.06020E+01 4.12534E+00-1.31449E-01-2.49336E+00 3.97765E-13-1.27509E-13
 -1      3008 2.03471E+01 9.31700E-01 8.26482E-03 8.88124E-01 1.17607E-13 1.90310E-13
 -1      3009 2.02921E+01 1.56692E+00-5.29429E-04 1.14899E+00 1.34561E-13 1.35620E-13
 -1      3010 2.02810E+01 1.34737E+00 1.75320E-03 9.02862E-01 1.41012E-13 1.13904E-13
 -1      3011 2.02050E+01 7.13544E-01-3.61753E-03 6.25253E-01 1.00537E-13 1.75909E-13
 -1      3012 1.99790E+01 2.49286E+00-6.13859E-03-8.99245E-01 2.09691E-14-1.52058E-13
 -1      3013 2.00410E+01 2.34280E+00-1.09784E-02-1.03236E+00-6.16762E-15-1.62494E-13
 -1      3014 2.00810E+01 2.21460E+00 6.72087E-03-7.36870E-01 2.39333E-14-1.36213E-13
 -1      3015 1.99427E+01 2.54974E+00 3.51461E-03 4.31503E-03 1.05127E-13-7.32897E-14
 -1      3016 1.98040E+01 2.87894E+00-5.52608E-03-6.18217E-02 1.19823E-13-6.88080E-14
 -1      3017 1.98113E+01 2.86421E+00-5.57400E-03-2.16024E-01 9.99710E-14-7.52573E-14
 -1      3018 1.22525E+01-1.78257E+00 1.67559E-01 4.65504E+00-2.60819E-13-2.80470E-14
 -1      3019 2.84574E+01-1.54169E+00-7.01033E-02 1.11089E-01-3.46979E-14-1.99521E-13
 -1      3020 2.77600E+01-7.63116E-01-7.04574E-02 1.11480E+00 3.88578E-16-2.29511E-13
 -1      3021 2.74148E+01-2.57671E+00-2.88742E-02-4.90798E-01 7.27994E-14-1.84769E-13
 -1      3022 2.73707E+01 5.99148E+00-1.40517E-01-7.59890E-01-3.85580E-13-1.86405E-13
 -1      3023 2.55259E+01-4.55367E+00 1.53688E-02-3.37850E+00 1.17226E-13-2.06904E-13
 -1      3024 2.62535E+01-4.03819E+00-7.95403E-02-1.98933E+00 1.18180E-13-1.58318E-13
 -1      3025 2.43154E+01-4.71316E+00 5.32586E-02-3.73595E+00 1.44745E-13-6.62456E-14
 -1      3026 2.06465E+01-4.86296E+00 9.39534E-02-5.74277E+00 4.72178E-13 4.38059E-13
 -1      3027 1.98708E+01 4.31059E-01 1.80579E-03 2.73052E-01 1.11438E-13 2.99743E-14
 -1      3028 1.99095E+01 3.88580E-01-2.75494E-03 2.63025E-01 1.34520E-13-1.11582E-13
 -1      3029 1.99487E+01 3.56972E-01 1.67965E-03 2.85808E-01-1.58919E-13 5.94459E-14
 -1      3030 1.62160E+01-3.28794E+00 1.05297E-01 6.05223E+00-1.22707E-13-7.74936E-14
 -1      3031 2.02513E+01 8.10670E-01 1.00029E-03 6.00543E-01 1.03276E-13 1.29519E-13
 -1      3032 2.92098E+01-3.74688E+00-9.62691E-02 5.17090E-01 1.25247E-15 2.19311E-13
 -1      3033 2.86287E+01-3.33599E+00-4.59654E-02 1.00653E+00 5.96762E-14 1.53044E-13
 -1      3034 2.76356E+01-3.75672E+00 1.88324E-02-4.48846E-02 3.47777E-14 1.28064E-13
 -1      3035 2.86992E+01-4.55657E+00-1.03834E-02-1.00417E+00-2.03657E-14 1.32852E-13
 -1      3036 2.59045E+01-4.32954E+00-1.54606E-02-1.64265E+00-4.95229E-14 9.12291E-14
 -1      3037 3.06255E+01 4.55068E+00-8.11469E-02 2.06727E+00 3.25295E-13 5.90777E-14
 -1      3038 3.09430E+01 2.44525E+00-2.80502E-01 2.93849E+00 2.00090E-13 1.46244E-13
 -1      3039 2.99685E+01 5.05935E+00-2.44789E-01 7.91127E-01 4.95298E-13 3.07133E-15
 -1      3040 2.23457E+01-4.58994E+00 7.15494E-02 4.55229E+00 3.39034E-14-1.82927E-13
 -1      3041 2.93722E+01-3.41653E+00-2.60777E-02-9.69530E-01 1.29514E-13-2.32883E-13
 -1      3042 3.02714E+01-1.85355E+00-5.67101E-02-1.78872E+00 3.02695E-13-8.16569E-14
 -1      3043 2.80017E+01-3.74743E+00-2.22144E-02-3.01659E-01-1.64955E-14-3.04898E-13
 -1      3044 2.71333E+01-4.86727E+00 2.88952E-02-1.63929E+00-2.94209E-15 1.26302E-13
 -1      3045 3.15133E+01 1.00368E+00-4.80624E-02 2.99270E+00 1.64757E-13 1.54737E-13
 -1      3046 2.00130E+01 2.85620E-01-1.59467E-03 3.07990E-01-1.80604E-13-1.27823E-13
 -1      3047 2.84434E+01-7.48845E-01-6.03935E-02-7.22763E-01-9.66241E-14 1.07067E-13
 -1      3048 2.74151E+01-1.59108E+00-2.34925E-02-5.85990E-01-1.46064E-14 8.68125E-14
 -1      3049 2.79416E+01 2.30913E-01-1.73100E-01-1.44423E+00-1.80626E-13 4.38399E-14
 -1      3050 2.79006E+01 2.18640E+00-9.81521E-02 1.83487E+00 7.88258E-15-8.96228E-14
 -1      3051 1.83779E+01-4.00370E+00 9.31996E-02 5.31125E+00-4.57523E-13 1.65493E-14
 -1      3052 8.21755E+00-2.45924E-01 1.83374E-01 1.37601E+00-1.71287E-14-5.24303E-14
 -1      3053 2.00374E+01 2.06904E-01 1.25603E-04-2.55278E-01-1.47117E-14-2.41692E-13
 -1      3054 2.62597E+01-3.71427E+00 3.02017E-04 1.57613E+00 3.56937E-14 4.48808E-14
 -1      3055 7.96470E+00 1.44513E-03 1.83596E-01 1.70990E-01 7.09459E-14-2.11858E-13
 -1      3056 1.04820E+01-1.93590E+00 1.64359E-01-5.38212E+00 5.41192E-13 6.02296E-14
 -1      3057 2.46411E+01-5.05104E+00 2.18345E-02 3.12492E+00-3.11945E-13 9.88359E-14
 -1      3058 9.87221E+00-9.88694E-01 1.63507E-01 4.42496E+00 1.00753E-14 4.32709E-14
 -1      3059 9.93540E+00-7.87074E-02 1.17853E-01 3.15445E+00 2.37588E-14-9.23428E-14
 -1      3060 1.23148E+01-1.14480E+00 7.60520E-02 4.76750E+00 2.63331E-15 5.09315E-15
 -1      3061 2.00500E+01 1.97645E-01-5.30311E-06-2.96063E-01-1.83200E-13-5.29861E-13
 -1      3062 2.00145E+01 2.34763E-01-4.74302E-04-2.78816E-01 4.82977E-15-2.10340E-13
 -1      3063 2.00002E+01 2.54216E-01 4.90097E-04-3.10953E-01 1.81350E-14-2.61316E-13
 -1      3064 2.00631E+01 1.97867E-01 9.19609E-04-3.22523E-01-2.08590E-14-5.33579E-13
 -1      3065 2.88111E+01 3.50861E+00-1.06891E-01-1.68519E+00-4.56676E-13-3.09058E-14
 -1      3066 1.98266E+01 2.82830E+00-5.75840E-03-3.50610E-01 9.38813E-14-7.07396E-14
 -1      3067 1.98503E+01 2.77967E+00-6.22045E-03-5.03820E-01 6.24622E-14-1.01258E-13
 -1      3068 2.00027E+01 2.40578E+00 4.35777E-03-5.05432E-01 5.82922E-14-1.05442E-13
 -1      3069 1.99571E+01 2.51536E+00 3.71476E-03-2.54594E-01 8.88072E-14-6.44326E-14
 -1      3070 2.49778E+01-4.16699E+00-3.78721E-02 2.23609E+00-2.79093E-13-1.47451E-14
 -1      3071 2.69572E+01-3.77434E+00 5.20507E-02 7.16828E-01-1.12542E-13-2.62210E-13
 -1      3072 1.65254E+01-3.13899E+00 1.54932E-01-5.29983E+00-1.51448E-13-3.82472E-14
 -1      3073 3.05349E+01 2.04442E+00-1.93264E-01-3.04704E+00 3.40394E-13-3.18634E-14
 -1      3074 3.11270E+01 3.81790E-02-1.14492E-01-3.00670E+00 3.50692E-13 1.12965E-14
 -1      3075 2.71775E+01 5.50904E+00-1.44032E-01 1.24834E+00-3.18953E-13-1.71793E-13
 -1      3076 2.58562E+01 5.48719E+00-1.00373E-01 7.76763E-01-3.98528E-13-2.28512E-13
 -1      3077 2.62503E+01 4.31865E+00-8.77495E-02 1.62759E+00-2.30427E-13-6.26998E-14
 -1      3078 1.53445E+01-3.76568E+00 1.25654E-01-6.63289E+00 5.53294E-13 5.42733E-13
 -1      3079 2.02450E+01 1.48739E+00-5.99901E-03 7.98206E-01 1.50196E-13 6.34212E-14
 -1      3080 2.02069E+01 1.67648E+00-4.97427E-04 7.42338E-01 1.45186E-13 2.59228E-14
 -1      3081 8.80768E+00-1.13718E+00 1.35798E-01-3.49777E+00-1.37390E-15-4.88942E-13
 -1      3082 1.18266E+01-1.01648E+00 1.61577E-01-3.99595E+00-1.19224E-13-1.79329E-13
 -1      3083 2.02266E+01 4.39877E-01 3.96664E-03-1.05342E-01-3.33525E-14-1.00789E-13
 -1      3084 2.01889E+01 3.35886E-01-2.09968E-03-1.65016E-02-1.26925E-14-1.11441E-13
 -1      3085 2.01745E+01 2.56288E-01 3.02169E-03 4.96142E-02-6.21177E-15-9.25987E-14
 -1      3086 2.01464E+01 1.90551E-01-1.05648E-03 1.06164E-01-2.55966E-14-8.22429E-14
 -1      3087 2.02435E+01 3.58617E-01-9.02117E-04-4.42751E-03-2.27037E-15-7.46807E-14
 -1      3088 2.01292E+01 1.41664E-01 2.03701E-03 1.48507E-01-2.77416E-14-6.12290E-14
 -1      3089 2.01109E+01 1.02601E-01-3.09021E-04 1.83362E-01-3.53191E-14-5.89868E-14
 -1      3090 2.02029E+01 2.05323E-01-1.03312E-03 1.09609E-01-1.11735E-14-6.20370E-14
 -1      3091 2.00938E+01 7.50378E-02 1.20590E-03 2.09826E-01-3.67052E-14-2.04706E-14
 -1      3092 2.00839E+01 5.47993E-02 2.09938E-04 2.31307E-01-4.32631E-14 5.00027E-15
 -1      3093 2.01636E+01 1.12857E-01-9.76655E-04 1.82979E-01-1.32273E-14-1.43237E-14
 -1      3094 2.00682E+01 4.23013E-02 5.52673E-04 2.48425E-01-5.09599E-14 5.98136E-14
 -1      3095 2.00651E+01 3.54661E-02 5.74204E-04 2.62835E-01-6.86299E-14 6.81267E-14
 -1      3096 2.01287E+01 6.37685E-02-8.41017E-04 2.30174E-01-1.07453E-14 5.64643E-14
 -1      3097 2.00511E+01 3.36554E-02 5.88416E-05 2.75741E-01-6.87240E-14 9.27357E-14
 -1      3098 2.00534E+01 3.62935E-02 8.38524E-04 2.87751E-01-3.83543E-14 1.07685E-13
 -1      3099 2.00989E+01 4.57403E-02-6.89436E-04 2.63003E-01-4.47486E-14 9.32896E-14
 -1      3100 2.00412E+01 4.18969E-02-3.00919E-04 3.00355E-01-5.40153E-14 1.06127E-13
 -1      3101 2.00480E+01 5.09327E-02 1.03872E-03 3.13329E-01-6.25124E-14 1.11483E-13
 -1      3102 2.00741E+01 4.97338E-02-5.54527E-04 2.90693E-01-5.23552E-14 1.32012E-13
 -1      3103 2.00377E+01 6.12443E-02-5.45552E-04 3.28513E-01-8.27108E-14 1.43449E-13
 -1      3104 2.00486E+01 7.39734E-02 1.19604E-03 3.44729E-01-4.62676E-14 1.24845E-13
 -1      3105 2.00537E+01 6.86375E-02-4.55639E-04 3.20212E-01-5.25728E-14 1.33569E-13
 -1      3106 2.00404E+01 8.64276E-02-6.80758E-04 3.64481E-01-5.42507E-14 9.69159E-14
 -1      3107 2.00555E+01 1.00096E-01 1.31978E-03 3.85231E-01-5.00094E-14 1.09050E-13
 -1      3108 2.00379E+01 9.61998E-02-4.12083E-04 3.56604E-01-6.08351E-14 1.58287E-13
 -1      3109 2.00503E+01 1.11878E-01-6.94243E-04 4.10696E-01-5.11634E-14 1.07160E-13
 -1      3110 2.00704E+01 1.23282E-01 1.40897E-03 4.36260E-01-3.88518E-15 1.05490E-13
 -1      3111 2.00272E+01 1.26092E-01-4.50183E-04 4.03198E-01-6.48539E-14 8.69681E-14
 -1      3112 2.00698E+01 1.30955E-01-5.52991E-04 4.67679E-01-2.82998E-14 2.23343E-14
 -1      3113 2.00963E+01 1.36070E-01 1.45186E-03 4.97177E-01-8.63609E-14-2.44713E-14
 -1      3114 2.00237E+01 1.51018E-01-6.08182E-04 4.61628E-01-8.67177E-14 4.78647E-14
 -1      3115 2.01033E+01 1.35254E-01-2.00834E-04 5.33689E-01-1.23521E-13-9.59026E-15
 -1      3116 2.01386E+01 1.28926E-01 1.42295E-03 5.64808E-01-1.64241E-13-9.96487E-15
 -1      3117 2.00315E+01 1.61880E-01-9.41692E-04 5.31616E-01-1.03680E-13-7.53197E-14
 -1      3118 2.01581E+01 1.14097E-01 4.42323E-04 6.04104E-01-1.31189E-13 3.61889E-14
 -1      3119 2.02055E+01 8.99438E-02 1.27533E-03 6.32712E-01-8.91154E-14 3.46113E-14
 -1      3120 2.00575E+01 1.47099E-01-1.52490E-03 6.10493E-01-1.03168E-13 2.26379E-14
 -1      3121 2.02446E+01 5.45317E-02 1.47521E-03 6.70485E-01-6.47745E-14 6.47549E-14
 -1      3122 2.03087E+01 5.27379E-03 9.25708E-04 6.90157E-01-1.20632E-14 1.32287E-14
 -1      3123 2.01125E+01 9.23677E-02-2.44461E-03 6.92360E-01-7.11019E-14 4.38117E-14
 -1      3124 2.03775E+01-5.76108E-02 2.99454E-03 7.19297E-01-1.65973E-14 6.29626E-14
 -1      3125 2.04635E+01-1.38947E-01 2.33711E-04 7.20832E-01-3.78015E-15-1.59168E-14
 -1      3126 2.02126E+01-1.86628E-02-3.77938E-03 7.66775E-01-2.23812E-14 6.36669E-14
 -1      3127 2.05746E+01-2.34644E-01 5.04793E-03 7.30348E-01 3.20913E-15-6.09634E-14
 -1      3128 2.06874E+01-3.51975E-01-1.01058E-03 7.01492E-01 2.87246E-14-7.55167E-14
 -1      3129 2.03787E+01-2.01808E-01-5.54327E-03 8.16825E-01-1.76919E-14 1.61980E-14
 -1      3130 2.08546E+01-4.80526E-01 7.51288E-03 6.75350E-01 1.25713E-13-2.77245E-14
 -1      3131 2.09962E+01-6.29483E-01-3.00327E-03 6.01273E-01 2.37471E-13-1.53841E-14
 -1      3132 2.06364E+01-4.66306E-01-7.55955E-03 8.16584E-01 8.44161E-14 4.32013E-14
 -1      3133 2.12292E+01-7.79258E-01 9.92022E-03 5.18172E-01 2.71745E-13-9.96458E-14
 -1      3134 2.13942E+01-9.39153E-01-5.84450E-03 3.83995E-01 2.03187E-13-4.88397E-14
 -1      3135 2.10095E+01-8.03102E-01-9.24831E-03 7.28805E-01 2.24278E-13 1.16300E-14
 -1      3136 2.16903E+01-1.07795E+00 1.10687E-02 2.19820E-01 8.22797E-14-3.63285E-14
 -1      3137 2.18601E+01-1.20045E+00-8.67757E-03 1.73512E-02 2.46393E-14-7.39706E-14
 -1      3138 2.15091E+01-1.16635E+00-9.52732E-03 5.06401E-01 1.47418E-13-1.42216E-13
 -1      3139 2.21882E+01-1.26633E+00 9.29176E-03-2.43917E-01-9.07965E-16-7.42576E-14
 -1      3140 2.23279E+01-1.27040E+00-9.24126E-03-5.01973E-01-6.99044E-14-7.41405E-14
 -1      3141 2.21126E+01-1.44997E+00-6.73877E-03 9.89217E-02-1.37821E-14-1.32620E-13
 -1      3142 2.26120E+01-1.17687E+00 7.83215E-04-8.36377E-01-8.07706E-14-4.89860E-14
 -1      3143 2.26838E+01-9.69072E-01-5.03063E-03-1.09605E+00-3.77415E-14-1.82255E-14
 -1      3144 2.27274E+01-1.45638E+00 2.71478E-03-4.94992E-01-3.35873E-14 2.56673E-14
 -1      3145 2.28170E+01-6.37895E-01-1.51427E-02-1.41393E+00 4.82166E-15 2.96589E-14
 -1      3146 2.28002E+01-1.63736E-01 6.12518E-03-1.56815E+00 1.18605E-14 7.39802E-14
 -1      3147 2.31868E+01-9.79420E-01 1.17485E-02-1.18847E+00-3.92465E-14 4.88741E-14
 -1      3148 2.27070E+01 3.98393E-01-3.11920E-02-1.68566E+00 8.24492E-14 3.28262E-14
 -1      3149 2.26192E+01 1.02360E+00 1.20704E-02-1.59766E+00 7.89143E-14-3.75568E-16
 -1      3150 2.33090E+01 1.12395E-01 1.53517E-02-1.70372E+00 1.02687E-14 1.70680E-13
 -1      3151 2.24084E+01 1.61160E+00-3.13462E-02-1.38057E+00-1.14802E-14-6.69625E-14
 -1      3152 2.23136E+01 2.14502E+00 1.68397E-02-1.02403E+00-1.39914E-14-1.72722E-14
 -1      3153 2.30776E+01 1.45010E+00-1.53309E-02-1.61485E+00 5.71982E-15-9.57411E-14
 -1      3154 2.21424E+01 2.42491E+00-2.36859E-02-4.05352E-01-5.71635E-14-9.68123E-14
 -1      3155 2.21567E+01 2.50113E+00-7.22724E-03 8.51212E-02-1.48862E-13-1.33907E-13
 -1      3156 2.27681E+01 2.78175E+00 3.23622E-03-8.15166E-01-1.04515E-13-2.84940E-13
 -1      3157 2.22215E+01 2.33156E+00 2.08267E-03 7.28268E-01-1.12183E-13-1.54936E-13
 -1      3158 2.23039E+01 1.92175E+00-3.13932E-02 1.14895E+00-1.70041E-13-6.89054E-14
 -1      3159 2.27246E+01 2.86289E+00-2.06642E-03 4.42886E-01-1.65671E-13-3.83019E-13
 -1      3160 2.25456E+01 1.37881E+00 1.90766E-02 1.49773E+00-2.09603E-13 2.73466E-14
 -1      3161 2.26208E+01 7.30982E-01-3.93914E-02 1.65156E+00-1.67155E-13 7.72256E-14
 -1      3162 2.30218E+01 1.93079E+00 1.27661E-02 1.49596E+00-1.14199E-13-3.06188E-13
 -1      3163 2.27764E+01 1.59146E-01 1.15532E-02 1.63200E+00-1.71664E-13 1.44159E-13
 -1      3164 2.28235E+01-3.78992E-01-1.73356E-02 1.54059E+00-1.69327E-13 1.36280E-13
 -1      3165 2.32606E+01 5.44913E-01 1.55578E-02 1.79110E+00-1.75106E-13-2.00564E-13
 -1      3166 2.27411E+01-7.94932E-01-6.20274E-03 1.24969E+00-2.70424E-14 1.77348E-13
 -1      3167 2.27026E+01-1.07525E+00-3.67669E-03 1.01059E+00 5.06702E-15 2.65874E-13
 -1      3168 2.32664E+01-7.40946E-01 5.90494E-03 1.37977E+00-2.21454E-14 7.96585E-14
 -1      3169 2.24470E+01-1.23424E+00-1.07947E-02 6.63088E-01-8.55993E-14 4.10654E-13
 -1      3170 2.23229E+01-1.27873E+00 6.57612E-03 3.97389E-01-6.91036E-14 4.27673E-13
 -1      3171 2.28837E+01-1.39103E+00 4.26324E-04 6.89688E-01 4.22898E-15 4.13388E-13
 -1      3172 2.19987E+01-1.24802E+00-9.57850E-03 1.11440E-01-1.14494E-13 3.79465E-13
 -1      3173 2.18334E+01-1.14894E+00 1.08051E-02-1.09291E-01-9.85213E-14 4.07962E-13
 -1      3174 2.22937E+01-1.48761E+00-4.88595E-03 4.66832E-02-1.38032E-13 4.21420E-13
 -1      3175 2.15241E+01-1.02282E+00-6.72904E-03-3.00143E-01-9.75366E-14 3.82313E-13
 -1      3176 2.13557E+01-8.66621E-01 1.05171E-02-4.53188E-01-4.48676E-14 1.99754E-13
 -1      3177 2.16770E+01-1.26045E+00-8.82517E-03-4.14686E-01-1.44310E-13 5.74293E-13
 -1      3178 2.11035E+01-7.14607E-01-3.78234E-03-5.56703E-01-8.70425E-15 9.20167E-14
 -1      3179 2.09547E+01-5.58119E-01 8.31012E-03-6.45731E-01 6.83764E-14-2.22967E-14
 -1      3180 2.11437E+01-9.05134E-01-9.51484E-03-6.85097E-01 7.31972E-15 2.19580E-13
 -1      3181 2.07696E+01-4.20056E-01-1.53801E-03-6.84701E-01 1.58917E-13-1.07033E-13
 -1      3182 2.06492E+01-2.90729E-01 5.81006E-03-7.23409E-01 1.52104E-13-1.33027E-13
 -1      3183 2.07348E+01-5.50714E-01-8.14432E-03-8.04653E-01 6.26538E-14 2.96124E-14
 -1      3184 2.05236E+01-1.83028E-01-1.09867E-04-7.20392E-01 1.07093E-13-1.32526E-13
 -1      3185 2.04313E+01-8.87508E-02 3.64994E-03-7.23778E-01-4.41413E-15-1.65959E-13
 -1      3186 2.04471E+01-2.58858E-01-6.12689E-03-8.22539E-01 8.31318E-14 3.84358E-14
 -1      3187 2.03518E+01-1.36984E-02 6.80913E-04-6.96163E-01 3.73850E-14-3.31235E-13
 -1      3188 2.02832E+01 4.80370E-02 2.01388E-03-6.77021E-01 6.72207E-15-2.44364E-13
 -1      3189 2.02582E+01-4.64230E-02-4.23739E-03-7.79040E-01-1.39803E-14 1.43115E-17
 -1      3190 2.02364E+01 9.50698E-02 1.05723E-03-6.36822E-01-1.69073E-14-3.83074E-13
 -1      3191 2.01861E+01 1.31088E-01 8.85409E-04-6.04835E-01 2.03482E-13-3.94491E-13
 -1      3192 2.01420E+01 9.27357E-02-2.75798E-03-7.02616E-01-2.13960E-14-3.63935E-13
 -1      3193 2.01609E+01 1.57143E-01 1.16798E-03-5.59817E-01 2.07062E-13-4.87519E-13
 -1      3194 2.01238E+01 1.75311E-01 1.87545E-04-5.21752E-01 2.39728E-14-5.17388E-13
 -1      3195 2.00754E+01 1.74155E-01-1.68574E-03-6.11823E-01 9.78306E-14-8.85625E-13
 -1      3196 2.01115E+01 1.87593E-01 1.08007E-03-4.76516E-01-2.48052E-14-3.83479E-13
 -1      3197 2.00844E+01 1.94953E-01-1.13196E-04-4.36470E-01-3.34997E-14-3.76388E-13
 -1      3198 2.00406E+01 2.15753E-01-7.54566E-04-5.18011E-01 6.48671E-15-6.52087E-13
 -1      3199 2.00844E+01 1.96283E-01 9.77155E-04-3.98009E-01 3.31785E-14-2.80401E-13
 -1      3200 2.00635E+01 1.98743E-01-6.36671E-05-3.58106E-01 1.43380E-13-2.95426E-13
 -1      3201 2.00278E+01 2.26697E-01-6.11499E-04-3.56767E-01-8.34118E-14-4.14533E-13
 -1      3202 2.00294E+01 2.28350E-01-4.96361E-04-4.32129E-01 8.15022E-14-2.65101E-13
 -1      3203 2.00847E+01 1.73808E-01-8.59540E-04-1.02238E-01 7.60327E-14 6.21528E-14
 -1      3204 2.01142E+01 2.35054E-01 3.58996E-03-4.36732E-02 5.92470E-14 5.48286E-14
 -1      3205 2.00228E+01 3.97237E-02 1.02621E-03-2.91753E-01 4.88283E-14 1.13806E-13
 -1      3206 2.00132E+01 3.44188E-02-1.36894E-05-2.78683E-01 6.78897E-14 8.57966E-14
 -1      3207 2.00227E+01 3.42329E-02 7.31252E-04-2.65078E-01 7.61479E-14 9.54105E-14
 -1      3208 2.00195E+01 3.91698E-02 5.83074E-04-2.50396E-01 8.01876E-14 1.15965E-13
 -1      3209 2.00662E+01 4.60564E-02-7.62225E-04-2.70543E-01 8.14391E-14 5.06724E-14
 -1      3210 2.00396E+01 1.00486E-01 1.54892E-03-3.61025E-01 2.49381E-14 1.60639E-13
 -1      3211 2.00214E+01 7.88936E-02-9.28395E-04-3.39238E-01 6.48179E-14 1.47102E-13
 -1      3212 2.00517E+01 1.53306E-01 1.81253E-03-4.17020E-01 3.97415E-14 1.35253E-13
 -1      3213 2.00304E+01 1.24078E-01-1.35744E-03-3.86025E-01 6.19266E-14 1.72765E-13
 -1      3214 2.00261E+01 1.35374E-01 2.04969E-05-3.78147E-01 3.00678E-14 2.01483E-13
 -1      3215 2.00622E+01 2.21433E-01 2.08410E-03-4.94919E-01-8.61854E-15 9.68567E-14
 -1      3216 2.00388E+01 1.84193E-01-1.83493E-03-4.51841E-01 7.60262E-15 1.28923E-13
 -1      3217 2.00103E+01 2.01348E-01 3.88139E-04-4.38606E-01 4.28574E-14 1.28827E-13
 -1      3218 2.00669E+01 3.05969E-01 2.35929E-03-5.99956E-01 6.70993E-14 3.90611E-14
 -1      3219 2.00427E+01 2.60106E-01-2.40846E-03-5.42040E-01 2.77122E-14 4.20202E-14
 -1      3220 1.99858E+01 2.85417E-01 8.89948E-04-5.20409E-01 4.27596E-14 4.54548E-14
 -1      3221 2.00596E+01 4.07817E-01 2.62986E-03-7.37096E-01-7.15454E-15 9.27382E-14
 -1      3222 2.00365E+01 3.52940E-01-3.12238E-03-6.61708E-01 3.62794E-14 8.84638E-14
 -1      3223 1.99457E+01 3.88634E-01 1.58688E-03-6.27990E-01 3.90404E-14 7.25929E-14
 -1      3224 2.00319E+01 5.26189E-01 2.89988E-03-9.10937E-01 1.36207E-14 2.32736E-14
 -1      3225 2.00126E+01 4.62991E-01-4.01268E-03-8.15714E-01-1.32424E-15 1.96397E-14
 -1      3226 1.98806E+01 5.11502E-01 2.54415E-03-7.65321E-01 5.13125E-14 6.23749E-14
 -1      3227 1.99737E+01 6.55833E-01 3.22145E-03-1.12552E+00-1.67036E-13 1.63228E-14
 -1      3228 1.99614E+01 5.87682E-01-5.09911E-03-1.00865E+00-4.82341E-14 2.30149E-16
 -1      3229 1.97781E+01 6.52097E-01 3.80480E-03-9.36032E-01-4.64249E-14-1.66436E-14
 -1      3230 1.98747E+01 7.81998E-01 3.76987E-03-1.38423E+00-1.32475E-13-4.75390E-14
 -1      3231 1.98716E+01 7.17795E-01-6.36756E-03-1.24485E+00-1.88401E-13-1.30871E-14
 -1      3232 1.96230E+01 8.02722E-01 5.33791E-03-1.14387E+00-1.40460E-13-2.93960E-14
 -1      3233 1.97301E+01 8.71883E-01 5.02691E-03-1.69032E+00-1.23213E-13-8.22590E-15
 -1      3234 1.97334E+01 8.30814E-01-7.71440E-03-1.52887E+00-1.12205E-13-3.41755E-14
 -1      3235 1.93989E+01 9.44088E-01 6.94498E-03-1.39415E+00-1.51494E-13-1.29394E-13
 -1      3236 1.95532E+01 8.61911E-01 8.34071E-03-2.04845E+00 3.79861E-15 1.10774E-13
 -1      3237 1.95466E+01 8.80246E-01-8.70622E-03-1.86690E+00-4.06268E-14 1.15523E-13
 -1      3238 1.90933E+01 1.03578E+00 8.20147E-03-1.69715E+00-1.08067E-13 5.15592E-14
 -1      3239 1.93988E+01 6.37518E-01 1.56007E-02-2.46897E+00 2.38959E-14 1.16463E-13
 -1      3240 1.93371E+01 7.79952E-01-8.14248E-03-2.27149E+00 2.92752E-14 1.06740E-13
 -1      3241 1.87070E+01 1.00446E+00 8.79635E-03-2.07590E+00 9.28402E-15 9.56399E-14
 -1      3242 1.94154E+01 1.61345E-02 3.12308E-02-2.95843E+00-1.35910E-13 1.13950E-13
 -1      3243 1.91981E+01 3.81614E-01-1.59335E-03-2.75974E+00-6.69256E-14 1.49230E-13
 -1      3244 1.82863E+01 7.16225E-01 1.00343E-02-2.58416E+00-4.08198E-14 1.56716E-13
 -1      3245 1.98713E+01-1.22349E+00 5.87546E-02-3.50652E+00-1.74917E-13 1.00672E-13
 -1      3246 1.93268E+01-5.17745E-01 1.69346E-02-3.33744E+00-1.29098E-13 9.69511E-14
 -1      3247 1.79335E+01-5.71719E-02-8.28993E-04-3.29189E+00-8.28990E-14 9.80032E-14
 -1      3248 1.95272E+01 8.03880E-01-8.09206E-03 2.15784E+00-1.08026E-13-2.02834E-13
 -1      3249 1.95831E+01 7.07292E-01 1.33838E-02 2.34479E+00-1.33063E-13-2.96802E-14
 -1      3250 1.93896E+01 5.05415E-01-7.01934E-03 2.61303E+00-2.32171E-13-1.97728E-14
 -1      3251 1.95728E+01 2.27217E-01 2.59289E-02 2.79504E+00-2.72053E-13-1.68380E-14
 -1      3252 1.85701E+01 8.17007E-01 1.63910E-02 2.45437E+00-1.17771E-13-1.37865E-13
 -1      3253 2.31412E+01-4.32870E+00-4.93193E-02 3.45295E+00 2.36547E-14-1.59509E-13
 -1      3254 2.09677E+01-4.01627E+00 1.06737E-01 4.73615E+00 6.53713E-14-2.40996E-13
 -1      3255 1.94532E+01-2.08487E-01 7.01455E-03 3.14758E+00-2.59682E-13-1.47048E-13
 -1      3256 1.98884E+01-8.20174E-01 3.56204E-02 3.30787E+00-2.51689E-13-1.49379E-13
 -1      3257 1.82494E+01 2.38199E-01 2.46843E-02 3.07627E+00-2.60542E-13-1.94619E-14
 -1      3258 1.97019E+01 8.56704E-01-8.12448E-03 1.77248E+00-6.69313E-15-2.22333E-13
 -1      3259 1.97165E+01 8.57717E-01 7.09623E-03 1.94926E+00-2.69422E-14-2.33166E-13
 -1      3260 1.89450E+01 1.00871E+00 9.56378E-03 1.98624E+00-2.41728E-14-3.72145E-13
 -1      3261 1.98530E+01 7.88401E-01-7.02381E-03 1.44427E+00-1.84966E-14-2.31358E-13
 -1      3262 1.98617E+01 8.35708E-01 4.79113E-03 1.60214E+00-1.56680E-14-1.99025E-13
 -1      3263 1.92783E+01 1.00168E+00 7.45565E-03 1.62101E+00-6.61967E-14-1.48629E-13
 -1      3264 1.99597E+01 6.75298E-01-5.66892E-03 1.16651E+00-1.24124E-13-3.04236E-13
 -1      3265 1.99734E+01 7.37483E-01 3.72152E-03 1.30320E+00-6.57708E-14-3.01482E-13
 -1      3266 1.95400E+01 8.96984E-01 6.08341E-03 1.32552E+00-5.19957E-14-5.21444E-14
 -1      3267 2.00249E+01 5.56112E-01-4.42026E-03 9.32953E-01-1.52151E-14-3.46530E-13
 -1      3268 2.00448E+01 6.17526E-01 3.21780E-03 1.04857E+00-8.98650E-14-3.47171E-13
 -1      3269 1.97273E+01 7.59991E-01 4.57910E-03 1.07767E+00-1.16635E-13-3.87364E-13
 -1      3270 2.00584E+01 4.49133E-01-3.28125E-03 7.38453E-01 1.32340E-13-2.38736E-13
 -1      3271 2.00820E+01 5.02568E-01 2.85070E-03 8.34600E-01 3.61519E-14-3.68471E-13
 -1      3272 1.98537E+01 6.23876E-01 3.18380E-03 8.68508E-01-1.60523E-14-6.16248E-13
 -1      3273 2.00712E+01 3.63324E-01-1.41390E-03 5.78438E-01 3.16281E-13-2.74329E-14
 -1      3274 2.00953E+01 4.04462E-01 2.69856E-03 6.56344E-01 2.93598E-13-1.34885E-13
 -1      3275 1.99333E+01 5.03925E-01 1.61148E-03 6.92592E-01 1.22838E-13-4.35839E-13
 -1      3276 2.72555E+01 3.86862E+00-1.55104E-01-1.93312E+00-3.59601E-13 1.58346E-14
 -1      3277 2.79123E+01 2.11937E+00-6.60843E-02-1.95288E+00-2.73087E-13 1.78108E-13
 -1      3278 1.97810E+01 4.52292E-01 8.63347E-04-2.03103E-01 1.24360E-13 1.63352E-13
 -1      3279 1.97518E+01 4.73623E-01-1.86819E-03-1.55372E-01 2.56002E-13 5.40985E-15
 -1      3280 2.00538E+01 2.17347E+00-4.31180E-03 2.90109E-01 1.03402E-13-8.04795E-14
 -1      3281 2.00406E+01 2.21274E+00-3.37673E-03 1.69101E-01 8.78750E-14-9.61728E-14
 -1      3282 2.01324E+01 3.09079E-01-1.90423E-03 2.80151E-02 6.56279E-14 3.40000E-14
 -1      3283 2.01776E+01 4.07279E-01 4.96672E-03 1.21822E-01 6.55026E-14 3.95010E-14
 -1      3284 2.01980E+01 3.37483E-01-1.43094E-03 1.66375E-02 4.34423E-14 1.46119E-14
 -1      3285 1.97305E+01 5.01911E-01 1.34957E-04-9.35299E-02 2.86066E-13-1.03340E-13
 -1      3286 1.97166E+01 5.13147E-01-1.54381E-03-3.50490E-02 3.77093E-13-1.56543E-13
 -1      3287 1.96941E+01 5.09858E-01 1.32960E-03-1.43982E-01 3.24586E-13-7.92440E-14
 -1      3288 1.99401E+01 3.05536E-01 8.00123E-04-3.27423E-01 1.15304E-13-2.41055E-13
 -1      3289 1.98964E+01 3.40011E-01-1.62158E-03-3.11568E-01 1.79639E-13-2.93301E-13
 -1      3290 2.48544E+01-4.87922E+00-8.23260E-03-3.03303E+00-1.27703E-13 9.21147E-14
 -1      3291 2.27198E+01-3.91030E+00 1.30063E-01 3.72128E+00-4.09776E-13 1.23044E-13
 -1      3292 2.01024E+01 2.20504E+00-5.21040E-03-1.10222E+00-1.79840E-14-1.54465E-13
 -1      3293 2.01754E+01 2.01339E+00-1.03167E-02-1.18263E+00-4.03393E-14-1.50125E-13
 -1      3294 2.02633E+01 1.62999E+00 9.30346E-03-9.76247E-01-3.96928E-14-1.51224E-13
 -1      3295 2.01862E+01 1.93791E+00 9.23584E-03-8.99569E-01-2.11342E-14-1.43391E-13
 -1      3296 2.59091E+01 5.67340E+00-1.12659E-01-5.69324E-01-3.56451E-13-7.93358E-14
 -1      3297 2.67184E+01 5.18276E+00-1.04763E-01-1.45812E+00-3.05131E-13-2.06779E-14
 -1      3298 2.60318E+01 3.71210E+00-1.03872E-01-1.70597E+00-2.63262E-13 1.34396E-13
 -1      3299 2.01321E+01-1.56956E+00 6.77119E-02 3.68930E+00-1.80512E-13-1.97134E-14
 -1      3300 2.09435E+01-2.64432E+00 4.25003E-02 3.75737E+00-1.99549E-13 8.33396E-14
 -1      3301 1.82053E+01-1.10152E+00-2.95118E-02 3.85293E+00-8.97424E-14 1.14991E-13
 -1      3302 1.06090E+01-1.05706E+00 1.20397E-01-4.62503E+00 4.28685E-13 9.19403E-14
 -1      3303 1.25513E+01-2.16668E+00 8.35996E-02-5.83623E+00 5.02209E-13 4.12170E-13
 -1      3304 1.97505E+01-3.39138E+00-8.38701E-03 4.58301E+00-2.75030E-13 1.43344E-13
 -1      3305 8.51743E+00 1.90780E-01 9.42660E-02-1.61296E+00 2.25375E-13-2.39808E-14
 -1      3306 9.24637E+00-2.25355E-01 1.11088E-01-3.23388E+00 3.20341E-13 1.22680E-14
 -1      3307 2.27707E+01-5.14483E+00 6.33620E-02-4.21611E+00-1.57430E-13 3.47378E-14
 -1      3308 1.44621E+01-1.87170E+00 4.65323E-02 4.86373E+00-2.30441E-13-7.16094E-15
 -1      3309 1.20769E+01-7.07418E-01 1.05572E-01 3.87154E+00-3.06768E-14-8.75688E-14
 -1      3310 1.81455E+01-3.51722E+00-2.86484E-02 5.56737E+00-7.38368E-14-1.44267E-13
 -1      3311 1.53625E+01-2.24471E+00 9.79037E-02 5.47054E+00-1.01794E-13-9.92262E-15
 -1      3312 8.95415E+00 4.44201E-01 1.07818E-01 9.94762E-01 2.43377E-14-2.17326E-13
 -1      3313 9.11105E+00 4.00221E-01 1.45700E-01-8.50817E-01 9.96954E-14-2.54685E-13
 -1      3314 1.98546E+01 3.84237E-01 1.28467E-03-2.83295E-01 2.63888E-13-7.82988E-14
 -1      3315 1.98148E+01 4.13416E-01-1.89184E-03-2.49451E-01 1.37341E-13 1.73880E-13
 -1      3316 1.97617E+01 4.46231E-01 7.22259E-04-2.55469E-01 2.08737E-13 1.79303E-13
 -1      3317 1.98515E+01 3.68242E-01-1.08466E-04-3.31261E-01 2.30500E-13-2.09855E-13
 -1      3318 2.00291E+01 6.24542E-02 1.29065E-03-3.21335E-01 7.03328E-14 1.31238E-13
 -1      3319 2.00148E+01 4.86080E-02-4.98483E-04-3.05661E-01 5.88443E-14 1.30611E-13
 -1      3320 2.00507E+01 5.64586E-02-5.21003E-04-3.00438E-01 4.17057E-14 8.78641E-14
 -1      3321 2.00383E+01 8.69109E-02-2.69681E-04-3.34018E-01 6.72724E-14 1.80539E-13
 -1      3322 2.02724E+01 7.24897E-01 3.56844E-03-3.36537E-01-3.94637E-14-1.28287E-13
 -1      3323 2.02324E+01 5.65992E-01-3.04440E-03-2.03692E-01-3.40745E-14-1.34103E-13
 -1      3324 2.02776E+01 5.97591E-01-4.65569E-04-1.75025E-01-1.45238E-14-9.33946E-14
 -1      3325 2.72023E+01 9.21509E-01-7.07494E-02 1.81332E+00 6.61832E-14 2.89560E-14
 -1      3326 2.66475E+01 2.57918E+00-1.01468E-01 2.09117E+00-3.60129E-14 7.76740E-14
 -1      3327 9.83396E+00 1.09481E-01 9.55379E-02 2.19752E+00 1.22125E-15-9.76857E-14
 -1      3328 8.69340E+00 4.40754E-01 1.37155E-01 1.39812E-01 9.56787E-14-1.18253E-13
 -1      3329 1.99832E+01 3.31811E-01 1.13898E-03 3.41123E-01 9.65907E-14-3.53539E-14
 -1      3330 2.63938E+01-3.05158E+00-6.59211E-02 4.95135E-01-4.57598E-14-9.73562E-14
 -1      3331 2.52160E+01-3.90746E+00 1.22703E-02 1.87764E+00-5.02324E-14-3.62540E-14
 -1      3332 2.01911E+01 5.26506E-01-2.98841E-03 2.30129E-01 7.75114E-14 3.52200E-14
 -1      3333 2.02446E+01 6.80314E-01 4.67216E-03 3.73878E-01 7.87701E-14 5.38049E-14
 -1      3334 2.02443E+01 5.67723E-01-1.34728E-03 2.04574E-01 6.60484E-14-2.36638E-15
 -1      3335 1.69487E+01-2.29494E+00 1.52885E-01 4.88778E+00-2.38157E-13 1.35100E-14
 -1      3336 1.46036E+01-2.85120E+00 1.31312E-01-6.12078E+00 4.88248E-13 5.62689E-13
 -1      3337 1.69484E+01-3.75058E+00 1.07432E-03-6.19606E+00 3.69094E-13 5.91832E-13
 -1      3338 1.45647E+01-2.06271E+00 1.03604E-01-5.48281E+00 3.10328E-13 5.70259E-13
 -1      3339 1.98087E+01-4.26571E+00 1.14214E-01-5.58624E+00 3.75901E-13 4.77549E-13
 -1      3340 2.20167E+01-4.78925E+00-1.34204E-02-4.89566E+00 3.44141E-13 3.57573E-13
 -1      3341 9.08036E+00-1.39135E-01 1.22731E-01-2.40206E+00 4.90788E-14-3.07782E-13
 -1      3342 1.59992E+01-2.09140E+00 9.29188E-02-4.83631E+00-1.11348E-13-4.06619E-14
 -1      3343 1.87186E+01-3.39771E+00-4.53266E-04-5.00579E+00-7.29833E-14 6.75154E-14
 -1      3344 2.02920E+01 9.76826E-01-8.88658E-05 6.73413E-01 1.26031E-13 9.45372E-14
 -1      3345 2.02708E+01 1.31229E+00 2.75974E-03 7.67627E-01 1.39336E-13 6.59822E-14
 -1      3346 2.02769E+01 1.13630E+00 4.89714E-04 5.89854E-01 1.38728E-13 5.83844E-14
 -1      3347 2.02368E+01 7.83127E-01-3.50945E-03 4.80803E-01 9.18098E-14 7.85210E-14
 -1      3348 1.19498E+01-2.20488E-01 9.39595E-02-3.34809E+00-6.35429E-14-1.31672E-13
 -1      3349 1.36119E+01-1.15067E+00 5.70375E-02-4.42255E+00-1.55195E-13-1.07386E-13
 -1      3350 2.17814E+01-4.06835E+00 8.09713E-02-4.11947E+00-1.30458E-13 6.58501E-15
 -1      3351 2.12149E+01-3.09433E+00 7.89925E-02-3.86427E+00-1.33546E-13 4.05483E-14
 -1      3352 2.00335E+01 2.23191E+00-3.71445E-03 6.52282E-02 9.04698E-14-9.08048E-14
 -1      3353 2.00330E+01 2.23284E+00-3.67324E-03-5.79736E-02 9.15154E-14-8.03098E-14
 -1      3354 2.01469E+01 1.93916E+00 5.07469E-03 9.99320E-02 7.05805E-14-9.11722E-14
 -1      3355 2.67592E+01-3.34212E+00-2.14365E-02-9.69141E-01 1.69809E-13-8.16847E-14
 -1      3356 2.65362E+01-2.59383E+00-8.82165E-02 8.69339E-02 7.65325E-14-2.27152E-13
 -1      3357 2.57253E+01-3.70993E+00 1.39060E-02-1.55796E+00 6.85754E-14-1.13718E-13
 -1      3358 2.53438E+01 5.24311E+00-1.37036E-01 8.14452E-02-2.99441E-13-1.43839E-13
 -1      3359 2.48277E+01 4.90785E+00-3.15028E-02-6.16411E-01-2.23599E-13-1.80047E-14
 -1      3360 2.47258E+01 4.64800E+00-7.10034E-02 6.22157E-01-1.88204E-13-2.62391E-13
 -1      3361 1.96625E+01 5.48917E-01 1.85138E-03-6.81566E-03 1.61766E-13-9.40871E-14
 -1      3362 1.97129E+01 5.25464E-01-7.14761E-04 3.55940E-02 2.49713E-13-2.65185E-14
 -1      3363 1.97192E+01 5.23684E-01-9.32369E-04 9.70470E-02 1.18104E-14 1.61773E-13
 -1      3364 2.33486E+01-4.50650E+00 1.56005E-02-3.69372E+00 1.24595E-13 7.92734E-14
 -1      3365 1.98011E+01 4.71844E-01-2.57440E-03 2.82647E-01 2.02830E-14 1.21647E-13
 -1      3366 1.98514E+01 4.43530E-01 1.50599E-03 3.23655E-01-4.09705E-14 1.29684E-13
 -1      3367 2.02969E+01 1.03187E+00 5.67537E-03-5.74608E-01-2.30007E-14-1.43568E-13
 -1      3368 2.02634E+01 8.65640E-01-3.00597E-03-4.37762E-01-3.71831E-14-1.48301E-13
 -1      3369 2.02898E+01 9.04494E-01 1.10924E-03-3.82840E-01-2.45517E-14-1.13980E-13
 -1      3370 2.02525E+01 1.36816E+00-4.12201E-03-8.07341E-01-3.04377E-14-1.57995E-13
 -1      3371 2.00873E+01 5.98219E-02-1.00741E-03-2.35907E-01 6.09390E-14 6.27206E-14
 -1      3372 2.00314E+01 4.98113E-02 3.65292E-04-2.32525E-01 5.86667E-14 1.25772E-13
 -1      3373 2.00364E+01 6.79144E-02 1.35055E-03-2.10910E-01 5.93000E-14 8.10052E-14
 -1      3374 1.98305E+01-3.26144E+00 5.02069E-02 4.53496E+00 9.61037E-16-1.59057E-13
 -1      3375 2.01405E+01-2.05387E+00 6.07897E-02-3.87649E+00-1.55414E-13 9.61592E-14
 -1      3376 1.79843E+01-1.47456E+00-1.57922E-02-4.15214E+00-1.38754E-13 1.08181E-13
 -1      3377 2.41265E+01-4.02819E+00 1.62323E-02 2.45646E+00 1.76439E-14 4.82253E-15
 -1      3378 2.27370E+01-3.66225E+00-2.67466E-03 2.87170E+00 6.88460E-14-2.03986E-14
 -1      3379 2.44806E+01-3.44023E+00-6.65187E-03 1.35941E+00-2.40780E-15 3.58552E-14
 -1      3380 2.70876E+01 8.73493E-01-5.21978E-02-1.80545E+00-2.09895E-13 1.41595E-13
 -1      3381 2.00664E+01 3.50978E-01 2.60127E-03 5.23448E-01 4.21900E-13 1.64715E-14
 -1      3382 1.99492E+01 4.30298E-01-4.85067E-04 5.54907E-01 3.24159E-13-2.57614E-13
 -1      3383 2.00331E+01 3.39401E-01 6.89960E-04 4.73335E-01 4.70041E-13-2.23534E-13
 -1      3384 1.12732E+01-3.60435E-01 1.30368E-01-3.76114E+00 3.35162E-13 2.03726E-14
 -1      3385 1.97358E+01 5.16282E-01-1.61683E-03 1.67075E-01-1.02890E-14 3.12905E-13
 -1      3386 1.97641E+01 5.00504E-01-8.82821E-05 2.22995E-01-4.98551E-15 3.43154E-13
 -1      3387 1.97409E+01 5.22551E-01 2.11338E-03 2.75348E-01-8.22447E-14 2.34473E-13
 -1      3388 1.96768E+01 5.54784E-01 2.14123E-03 1.39599E-01-6.49318E-14 2.52335E-13
 -1      3389 1.61430E+01-1.21163E+00 1.17415E-01-4.20856E+00-1.21059E-13-1.03105E-13
 -1      3390 1.66033E+01-1.37289E+00 9.11464E-02 4.30192E+00-3.91492E-14 9.27869E-14
 -1      3391 1.02451E+01 4.87728E-01 1.44690E-01 2.07106E+00 1.75970E-14-2.20809E-13
 -1      3392 1.09917E+01 8.29657E-01 7.73367E-02 1.07322E+00 6.47087E-14-2.10491E-13
 -1      3393 1.17628E+01 2.61847E-01 3.74718E-02 2.89132E+00 4.72209E-14-1.64035E-14
 -1      3394 2.01276E+01 1.94914E+00-2.71849E-03-5.80107E-01 2.83856E-14-1.07835E-13
 -1      3395 2.01644E+01 1.81607E+00-7.24856E-03-6.79846E-01 6.92138E-15-1.18422E-13
 -1      3396 1.44384E+01-1.46985E+00 8.94471E-02 5.02124E+00-8.65766E-14-4.20497E-14
 -1      3397 1.36695E+01-6.18066E-01 4.77819E-02 4.14834E+00-1.54668E-14-3.40075E-14
 -1      3398 1.64346E+01-1.67164E+00 4.60416E-02 4.59515E+00-5.15586E-14-1.23235E-14
 -1      3399 2.00671E+01 1.28860E-01 2.34357E-03-1.47511E-01 1.02753E-13 9.56676E-14
 -1      3400 2.01532E+01 1.91579E-01-1.43301E-03-1.07283E-01 6.74908E-14 5.90485E-14
 -1      3401 2.00513E+01 9.28964E-02-1.34973E-04-1.82999E-01 8.29407E-14 1.00214E-13
 -1      3402 2.67306E+01-1.10261E+00 2.13218E-03 1.13236E+00 3.98639E-14-1.48818E-13
 -1      3403 2.70296E+01-2.14726E-01-9.54745E-02 1.50947E+00 1.07119E-13-1.32533E-14
 -1      3404 2.59907E+01 3.16019E-01-1.00246E-01 1.88837E+00 1.13236E-13-1.22284E-13
 -1      3405 1.89353E+01-3.60752E+00 7.67913E-02-5.36228E+00 2.39732E-13 5.51514E-13
 -1      3406 2.00706E+01 2.12314E+00-3.16990E-03-3.80678E-01 6.59360E-14-7.71748E-14
 -1      3407 2.00946E+01 2.04463E+00-5.31892E-03-4.94634E-01 5.20505E-14-1.06194E-13
 -1      3408 2.02060E+01 1.71503E+00 5.15971E-03-4.48871E-01 2.64277E-14-9.08640E-14
 -1      3409 1.01391E+01 6.68548E-01 1.46441E-01-6.04062E-01 4.55638E-14-1.41581E-13
 -1      3410 2.01656E+01 1.81004E+00-6.96662E-03 6.80633E-01 1.35277E-13 2.50234E-15
 -1      3411 2.01306E+01 1.94017E+00-2.84728E-03 5.86038E-01 1.30602E-13-2.36790E-15
 -1      3412 2.02597E+01 1.47179E+00 6.58721E-03 5.81857E-01 1.29233E-13 1.85857E-14
 -1      3413 1.18475E+01 1.78967E-02 1.19356E-01 2.98161E+00 4.04607E-14-2.05162E-13
 -1      3414 1.18028E+01 6.77358E-01 3.87813E-02 1.83651E+00 3.36710E-14-6.54546E-14
 -1      3415 1.38207E+01-3.12532E-02 4.23238E-02 3.33859E+00 4.43309E-15-1.76116E-13
 -1      3416 2.63855E+01-1.56304E+00-9.10314E-02-9.32385E-01-1.06842E-13 1.49009E-13
 -1      3417 2.66189E+01-2.36003E+00-1.82801E-02-2.70414E-01-2.62065E-14 2.19755E-14
 -1      3418 2.56716E+01-2.79703E+00-2.56258E-02 1.51430E-01-6.47000E-14 1.75910E-14
 -1      3419 2.00991E+01 2.03594E+00-5.31527E-03 5.00869E-01 1.24322E-13-1.35350E-14
 -1      3420 2.00740E+01 2.11692E+00-3.12224E-03 3.88059E-01 1.12214E-13-3.82267E-14
 -1      3421 2.01693E+01 1.86289E+00 5.35866E-03 2.87648E-01 1.01887E-13-5.48826E-14
 -1      3422 2.02105E+01 1.70881E+00 6.08698E-03 4.54713E-01 1.18168E-13-7.48989E-15
 -1      3423 1.99124E+01 3.89205E-01-3.54984E-03 3.71929E-01 2.29487E-13 8.35120E-14
 -1      3424 2.00091E+01 3.26758E-01 1.83660E-03 3.98150E-01 3.28615E-13-3.56639E-13
 -1      3425 2.59783E+01 3.14423E+00-9.27996E-02 1.97935E+00-1.02640E-13-6.69187E-14
 -1      3426 2.49365E+01 3.63661E+00-7.63284E-02 1.63872E+00-1.60538E-13-1.68802E-13
 -1      3427 2.55777E+01 2.10119E+00-3.22671E-03 2.05522E+00-1.03945E-14-1.67800E-13
 -1      3428 2.02700E+01 8.39153E-01 1.69325E-04 4.32903E-01 9.70793E-14 4.86425E-14
 -1      3429 9.74792E+00 3.99613E-01 1.26471E-01-1.34910E+00 9.34079E-14-3.14609E-13
 -1      3430 1.04944E+01 3.41873E-01 7.09432E-02-1.94338E+00 4.17305E-14-2.32064E-13
 -1      3431 1.05310E+01 8.47937E-01 7.20658E-02-5.93041E-01 8.17593E-14-2.81775E-13
 -1      3432 1.23934E+01 3.62253E-01 1.07068E-01-2.47639E+00 3.20716E-14-1.30500E-13
 -1      3433 1.99970E+01 2.51847E-01-7.20823E-05-3.50948E-01-1.70097E-13-5.31124E-13
 -1      3434 1.99655E+01 2.79298E-01-8.39197E-04-3.40121E-01 3.11943E-14-2.74960E-13
 -1      3435 1.99332E+01 3.02679E-01 9.21634E-05-3.69835E-01-4.54059E-15-4.22488E-13
 -1      3436 1.99986E+01 2.54642E-01 7.68784E-04-3.87426E-01-2.76207E-14-4.45021E-13
 -1      3437 2.48346E+01 3.77271E+00-1.20699E-01-1.53248E+00-3.20410E-13 1.15873E-13
 -1      3438 2.55532E+01 2.72052E+00-4.39713E-02-2.08152E+00-2.74496E-13 4.44852E-14
 -1      3439 2.02692E+01 2.76631E-01 1.89033E-03 6.86791E-02 6.09158E-15-5.73339E-14
 -1      3440 2.02451E+01 2.08502E-01-1.06316E-03 1.16085E-01-1.92042E-15-4.71866E-14
 -1      3441 2.02271E+01 1.57350E-01 1.32106E-03 1.49315E-01-8.03253E-15-5.37648E-14
 -1      3442 2.02058E+01 1.17611E-01-3.81122E-04 1.80046E-01-3.85293E-15-7.77583E-15
 -1      3443 2.02804E+01 2.16616E-01-3.45054E-04 1.14763E-01 1.39758E-15-2.45086E-14
 -1      3444 2.01838E+01 9.00206E-02 7.46718E-04 2.01971E-01 7.50635E-15-8.84891E-15
 -1      3445 2.01661E+01 7.11185E-02 1.22225E-04 2.22535E-01 8.20120E-15 4.11831E-15
 -1      3446 2.02361E+01 1.25856E-01-4.47990E-04 1.72828E-01 9.66115E-15-1.00955E-14
 -1      3447 2.01421E+01 6.06699E-02 2.51657E-04 2.38232E-01-4.95074E-15-4.88906E-15
 -1      3448 2.01278E+01 5.69429E-02 4.86947E-04 2.53837E-01-4.00649E-14 4.31562E-14
 -1      3449 2.01884E+01 8.13905E-02-4.39013E-04 2.12937E-01 1.46668E-14-4.13024E-14
 -1      3450 2.01029E+01 5.88323E-02-1.56991E-04 2.67477E-01-5.62123E-14 9.83799E-14
 -1      3451 2.00917E+01 6.59132E-02 7.56273E-04 2.82150E-01-2.08246E-14 7.91911E-14
 -1      3452 2.01396E+01 7.08888E-02-3.65995E-04 2.44261E-01-9.86243E-15 1.20262E-14
 -1      3453 2.00664E+01 7.63234E-02-4.83190E-04 2.97056E-01-2.63282E-14 1.09305E-13
 -1      3454 2.00580E+01 9.05874E-02 9.67204E-04 3.13813E-01-4.04621E-14 1.20282E-13
 -1      3455 2.00910E+01 8.47082E-02-2.70365E-04 2.74304E-01-3.12652E-14 5.47834E-14
 -1      3456 2.00325E+01 1.06175E-01-7.29578E-04 3.32579E-01-9.41626E-14 8.89875E-14
 -1      3457 2.00270E+01 1.24251E-01 1.15026E-03 3.53564E-01-8.98650E-14 6.81486E-14
 -1      3458 2.00426E+01 1.14816E-01-1.86236E-04 3.09040E-01-7.57334E-14 2.46715E-14
 -1      3459 2.00018E+01 1.41670E-01-8.87271E-04 3.78177E-01-7.73085E-14 8.38657E-14
 -1      3460 1.99996E+01 1.59948E-01 1.33009E-03 4.04741E-01-6.19367E-14 6.03188E-14
 -1      3461 1.99951E+01 1.53753E-01-1.52302E-04 3.53166E-01-6.94490E-14 2.07806E-14
 -1      3462 1.99759E+01 1.75369E-01-9.30822E-04 4.36630E-01-7.82854E-14 1.29825E-13
 -1      3463 1.99785E+01 1.89520E-01 1.52608E-03 4.69300E-01-1.17886E-13 7.63295E-14
 -1      3464 1.99496E+01 1.93606E-01-2.14433E-04 4.10303E-01-4.48235E-14 9.60951E-14
 -1      3465 1.99585E+01 1.98181E-01-8.13564E-04 5.09299E-01-1.03867E-13 7.02952E-14
 -1      3466 1.99684E+01 2.02700E-01 1.75166E-03 5.47644E-01-8.05479E-14 9.52790E-14
 -1      3467 1.99088E+01 2.24947E-01-4.38262E-04 4.83041E-01-1.15500E-13 2.04090E-13
 -1      3468 1.99561E+01 1.98500E-01-4.59106E-04 5.95822E-01-9.52912E-14 1.01057E-13
 -1      3469 1.99776E+01 1.86333E-01 2.00679E-03 6.38179E-01-8.49548E-14 1.11112E-13
 -1      3470 1.98784E+01 2.35840E-01-9.15326E-04 5.72809E-01-6.32505E-14 2.08284E-13
 -1      3471 1.99797E+01 1.61594E-01 2.46969E-04 6.93475E-01-9.06002E-14 1.14163E-13
 -1      3472 2.00192E+01 1.24006E-01 2.26086E-03 7.36466E-01-6.21516E-14 1.26624E-13
 -1      3473 1.98680E+01 2.10990E-01-1.76708E-03 6.79441E-01-6.71231E-14 1.47468E-13
 -1      3474 2.00461E+01 6.96226E-02 1.46447E-03 7.95968E-01-2.39826E-14 1.10180E-13
 -1      3475 2.01125E+01-3.38917E-03 2.41478E-03 8.33751E-01 1.35661E-16 8.30950E-14
 -1      3476 1.98934E+01 1.31334E-01-3.14657E-03 8.00199E-01-6.49765E-14 1.88624E-13
 -1      3477 2.01791E+01-9.69907E-02 3.39442E-03 8.91397E-01-1.46552E-14 1.18308E-13
 -1      3478 2.02835E+01-2.15175E-01 2.24020E-03 9.14528E-01 1.66823E-14 1.60186E-13
 -1      3479 1.99779E+01-2.53053E-02-5.22574E-03 9.27880E-01-2.13954E-15 1.93437E-13
 -1      3480 2.04102E+01-3.55522E-01 6.26471E-03 9.58861E-01 7.03459E-14 9.71951E-14
 -1      3481 2.05639E+01-5.24737E-01 1.28712E-03 9.52804E-01 1.26347E-13 1.14412E-13
 -1      3482 2.01547E+01-2.81402E-01-8.13904E-03 1.04734E+00 3.24109E-14 2.77085E-13
 -1      3483 2.07756E+01-7.12017E-01 1.01396E-02 9.63437E-01 1.09109E-13 5.55323E-14
 -1      3484 2.09856E+01-9.26756E-01-1.18353E-03 9.07341E-01 1.13870E-13-3.81218E-14
 -1      3485 2.04663E+01-6.52281E-01-1.17931E-02 1.12951E+00 9.70077E-14 1.69761E-13
 -1      3486 2.13050E+01-1.14276E+00 1.46150E-02 8.50623E-01 1.76490E-13-1.17257E-13
 -1      3487 2.15711E+01-1.37143E+00-4.12903E-03 7.18212E-01 8.33888E-14-9.48564E-14
 -1      3488 2.09605E+01-1.13016E+00-1.56409E-02 1.12183E+00 8.35382E-14 3.72515E-14
 -1      3489 2.19967E+01-1.56739E+00 1.65743E-02 5.58086E-01 9.66458E-15-1.20231E-13
 -1      3490 2.22892E+01-1.73974E+00-1.18071E-02 3.32037E-01-1.30221E-14-9.26796E-14
 -1      3491 2.16479E+01-1.64654E+00-2.37976E-02 9.39590E-01 6.06019E-14 1.25323E-14
 -1      3492 2.28279E+01-1.80833E+00 2.50639E-02-1.39083E-02 2.84564E-14-6.45021E-14
 -1      3493 2.30559E+01-1.78469E+00-1.45058E-02-3.36676E-01 6.08632E-14 4.55742E-14
 -1      3494 2.26152E+01-2.07664E+00-2.28369E-02 4.99078E-01 6.73732E-14-9.69719E-14
 -1      3495 2.35234E+01-1.58680E+00-3.45505E-04-7.92587E-01 3.28205E-14 7.47451E-14
 -1      3496 2.36761E+01-1.18492E+00-8.01999E-03-1.13876E+00-1.84523E-14 1.52240E-13
 -1      3497 2.35498E+01-1.98845E+00-6.28028E-03-2.71458E-01 1.02281E-13 7.00868E-14
 -1      3498 2.39005E+01-6.10204E-01-4.00650E-02-1.58614E+00-9.33949E-14 1.90586E-13
 -1      3499 2.39053E+01 2.53093E-01 4.88599E-03-1.79456E+00-9.78211E-14 8.57216E-14
 -1      3500 2.43528E+01-1.11563E+00 1.11050E-02-1.24335E+00-1.65458E-14 2.58407E-13
 -1      3501 2.37933E+01 1.62231E+00-4.82365E-02-1.84827E+00-8.15806E-14-5.61738E-14
 -1      3502 2.36233E+01 2.52902E+00-3.58752E-02-1.60675E+00-9.39075E-14-1.68275E-13
 -1      3503 2.34987E+01 3.17280E+00-1.89339E-02-1.02381E+00-2.18821E-13-3.00484E-13
 -1      3504 2.33352E+01 3.78108E+00-6.76770E-02-7.78694E-02-2.33001E-13-3.25233E-13
 -1      3505 2.33947E+01 3.62288E+00-2.83696E-02 6.26096E-01-1.57457E-13-3.10805E-13
 -1      3506 2.36471E+01 2.72897E+00-1.89071E-02 1.46877E+00-5.53307E-14-4.66341E-13
 -1      3507 2.37889E+01 1.85424E+00-8.45412E-02 1.83443E+00-8.96956E-14-3.26608E-13
 -1      3508 2.44952E+01 5.81953E-01-1.83988E-02 1.83117E+00-2.28879E-14-2.34743E-13
 -1      3509 2.45435E+01-3.94967E-01-3.09898E-02 1.68951E+00 6.31439E-15-3.95023E-14
 -1      3510 2.32712E+01-1.70201E+00-1.46684E-02 5.41561E-01 1.07169E-13 1.95470E-13
 -1      3511 2.30299E+01-1.80810E+00 1.37253E-02 1.97563E-01 1.10430E-14 2.34259E-13
 -1      3512 2.25188E+01-1.79667E+00-1.11956E-02-1.64363E-01-1.13816E-13 2.85621E-13
 -1      3513 2.22307E+01-1.66784E+00 1.84927E-02-4.26021E-01-9.04177E-14 3.01562E-13
 -1      3514 2.28627E+01-2.09165E+00-1.31192E-02-3.17566E-01 3.47530E-14 1.09589E-13
 -1      3515 2.17680E+01-1.49304E+00-6.37656E-03-6.33908E-01-1.49863E-13 3.31808E-13
 -1      3516 2.14941E+01-1.27035E+00 1.61971E-02-7.93137E-01-1.26496E-13 3.28278E-13
 -1      3517 2.19192E+01-1.78320E+00-1.53891E-02-8.58144E-01-1.19807E-13 1.07974E-13
 -1      3518 2.11411E+01-1.05081E+00-1.89636E-03-8.75277E-01-1.74292E-13 2.70765E-13
 -1      3519 2.09144E+01-8.25938E-01 1.15056E-02-9.49876E-01-9.73504E-14 9.05424E-14
 -1      3520 2.11455E+01-1.27591E+00-1.58490E-02-1.09914E+00-2.20997E-13 2.22573E-13
 -1      3521 2.06744E+01-6.25613E-01 7.83968E-04-9.53180E-01 6.84489E-14 2.33178E-14
 -1      3522 2.05053E+01-4.39981E-01 7.32099E-03-9.69936E-01 1.51509E-13-2.75654E-14
 -1      3523 2.05928E+01-7.73398E-01-1.28520E-02-1.14249E+00-2.74542E-14-4.41567E-14
 -1      3524 2.03570E+01-2.83210E-01 2.02499E-03-9.31244E-01 1.37280E-13-2.44593E-14
 -1      3525 2.02402E+01-1.47676E-01 4.19824E-03-9.12753E-01 3.51430E-14 9.85071E-15
 -1      3526 2.02347E+01-3.65090E-01-9.13424E-03-1.07674E+00 1.51362E-13-1.93503E-13
 -1      3527 2.01586E+01-3.78118E-02 2.34897E-03-8.55346E-01-1.40483E-13-3.30957E-14
 -1      3528 2.00830E+01 5.14444E-02 2.04499E-03-8.17725E-01-1.08245E-13-9.78304E-14
 -1      3529 2.00246E+01-7.03563E-02-5.91875E-03-9.60582E-01-8.43435E-14-9.75496E-14
 -1      3530 2.00458E+01 1.20942E-01 2.20346E-03-7.54977E-01-3.05665E-14-2.95582E-13
 -1      3531 1.99998E+01 1.73459E-01 6.56658E-04-7.08652E-01-5.57641E-14-4.77764E-13
 -1      3532 1.99172E+01 1.21902E-01-3.57646E-03-8.28177E-01-1.94790E-13-3.34289E-13
 -1      3533 1.99902E+01 2.12246E-01 1.88693E-03-6.47588E-01-6.80684E-14-5.62785E-13
 -1      3534 1.99640E+01 2.38575E-01-1.79494E-04-5.99003E-01-2.99432E-14-7.14120E-13
 -1      3535 1.98760E+01 2.34002E-01-1.97665E-03-6.97324E-01-1.35183E-13-5.09596E-13
 -1      3536 1.99697E+01 2.55870E-01 1.24823E-03-5.43205E-01 2.18436E-13-6.88013E-13
 -1      3537 1.99573E+01 2.66412E-01-3.64018E-04-4.96178E-01 1.54369E-13-4.75066E-13
 -1      3538 1.98745E+01 2.89741E-01-7.56122E-04-5.76596E-01 7.64576E-14-3.39745E-13
 -1      3539 2.02493E+01 1.38867E+00-5.06775E-03-7.09671E-01-2.79886E-14-1.29165E-13
 -1      3540 2.03167E+01 7.54543E-01 1.30851E-03-2.29352E-01-3.11450E-15-7.45172E-14
 -1      3541 2.03019E+01 5.96432E-01-2.40515E-03-1.26366E-01 7.31926E-15-6.12221E-14
 -1      3542 1.99700E+01 2.48826E-01 1.12100E-03-4.35549E-01 1.54885E-14 1.76318E-13
 -1      3543 1.99782E+01 2.06880E-01-1.71072E-03-4.01142E-01 4.20189E-14 1.91981E-13
 -1      3544 2.00123E+01 1.71508E-01 1.08344E-03-3.75209E-01 3.90793E-14 1.81660E-13
 -1      3545 2.00178E+01 1.39368E-01-1.20709E-03-3.49619E-01 3.84468E-14 1.74500E-13
 -1      3546 1.99736E+01 2.15679E-01 7.34465E-04-3.70574E-01 2.90970E-14 2.50047E-13
 -1      3547 1.98300E+01 4.62920E-01 9.35199E-04-6.16911E-01 5.77129E-14 7.54503E-14
 -1      3548 1.98539E+01 4.00509E-01-2.98130E-03-5.58897E-01 5.71263E-14 7.46122E-14
 -1      3549 1.97107E+01 6.00296E-01 6.83131E-04-7.43372E-01 1.51230E-14 7.44995E-14
 -1      3550 1.97502E+01 5.27711E-01-3.84604E-03-6.71287E-01 4.46274E-14 7.03674E-14
 -1      3551 1.96814E+01 5.53648E-01 3.29427E-03-5.96025E-01 2.56745E-14 5.93132E-14
 -1      3552 1.95386E+01 7.55053E-01 3.47244E-04-8.96271E-01-4.41625E-14-1.60619E-14
 -1      3553 1.96008E+01 6.74142E-01-4.95478E-03-8.08991E-01 4.06530E-15 2.94816E-14
 -1      3554 1.95046E+01 7.09114E-01 4.79381E-03-7.06734E-01 3.39632E-14 7.55688E-14
 -1      3555 1.92942E+01 9.18474E-01 4.51887E-05-1.07773E+00-1.33408E-13-7.26849E-14
 -1      3556 1.93871E+01 8.34473E-01-6.43061E-03-9.73991E-01-8.89961E-14-4.73995E-14
 -1      3557 1.92591E+01 8.81613E-01 6.76450E-03-8.35974E-01-4.73764E-14-6.67427E-14
 -1      3558 1.89559E+01 1.07065E+00 1.34203E-04-1.29259E+00-2.19088E-13-5.02013E-15
 -1      3559 1.90865E+01 9.95044E-01-8.50209E-03-1.16980E+00-1.90601E-13-7.81002E-14
 -1      3560 1.89197E+01 1.06083E+00 9.28536E-03-9.85069E-01-1.77419E-13 3.10960E-14
 -1      3561 1.85027E+01 1.17155E+00 1.18759E-03-1.55408E+00-1.44637E-13 6.07790E-15
 -1      3562 1.86738E+01 1.12692E+00-1.15273E-02-1.40562E+00-1.67550E-13-3.95316E-14
 -1      3563 1.84551E+01 1.22534E+00 1.24175E-02-1.16055E+00-2.07497E-13-6.94423E-14
 -1      3564 1.79224E+01 1.15024E+00 4.81740E-03-1.89217E+00 3.41485E-14 9.78948E-15
 -1      3565 1.81266E+01 1.17513E+00-1.54621E-02-1.70210E+00-6.88625E-14-1.01310E-14
 -1      3566 1.78308E+01 1.33330E+00 1.70879E-02-1.38410E+00-1.01212E-13-1.60707E-13
 -1      3567 1.72198E+01 8.79536E-01 7.61578E-03-2.38213E+00-9.68978E-14 3.30964E-14
 -1      3568 1.74184E+01 1.05146E+00-2.13150E-02-2.10681E+00-1.07563E-14 5.19725E-14
 -1      3569 1.70083E+01 1.32433E+00 2.93109E-02-1.69344E+00-7.31793E-15-8.53701E-14
 -1      3570 1.88843E+01 1.08445E+00-1.05330E-02 1.35658E+00-1.47840E-13-5.57811E-14
 -1      3571 1.87340E+01 1.13759E+00 1.46801E-04 1.50192E+00-1.36448E-13-1.56702E-13
 -1      3572 2.03035E+01 4.67011E-01 2.15880E-03-5.32882E-02 1.43242E-15-5.93176E-14
 -1      3573 2.02798E+01 3.60415E-01-1.86157E-03 1.84906E-02 7.82343E-15-5.56629E-14
 -1      3574 2.03163E+01 3.69537E-01-1.42847E-04 2.80905E-02 5.40339E-15-3.74982E-14
 -1      3575 1.83965E+01 1.15974E+00-1.46080E-02 1.64025E+00-1.12046E-13-1.79987E-13
 -1      3576 1.81955E+01 1.14683E+00-4.68365E-03 1.82873E+00 4.34438E-14-1.48348E-13
 -1      3577 1.81226E+01 1.30189E+00 1.70265E-02 1.35538E+00-1.56847E-13-3.24298E-14
 -1      3578 1.98597E+01 4.47086E-01 1.34052E-03 3.89196E-01 1.93760E-13-1.12211E-14
 -1      3579 1.92447E+01 9.48689E-01-7.70737E-03 1.12253E+00-8.71670E-14-1.16521E-13
 -1      3580 1.91343E+01 1.02397E+00 1.62723E-04 1.24484E+00-1.52139E-13-2.98051E-14
 -1      3581 1.86717E+01 1.17787E+00 1.09479E-02 1.13569E+00-1.27258E-13 4.95415E-14
 -1      3582 1.95043E+01 7.97102E-01-5.79051E-03 9.23782E-01-4.75709E-14-2.78931E-13
 -1      3583 1.94278E+01 8.75111E-01 2.31934E-04 1.02871E+00 1.00538E-14-1.75707E-13
 -1      3584 1.90818E+01 1.01561E+00 8.19251E-03 9.55639E-01-2.75262E-14 1.42637E-14
 -1      3585 1.96864E+01 6.54208E-01-4.43773E-03 7.52946E-01 2.35453E-13-5.55346E-13
 -1      3586 1.96367E+01 7.25466E-01 5.00427E-04 8.42902E-01 1.22783E-13-4.29397E-13
 -1      3587 1.93793E+01 8.49427E-01 5.99841E-03 7.98782E-01 1.97892E-13-1.97777E-13
 -1      3588 1.98104E+01 5.32653E-01-3.13735E-03 6.06597E-01 3.64668E-14-4.82932E-13
 -1      3589 1.97814E+01 5.92565E-01 1.17410E-03 6.83159E-01 6.09532E-14-5.29270E-13
 -1      3590 1.95915E+01 6.96826E-01 3.88460E-03 6.60396E-01 2.08353E-13-3.92798E-13
 -1      3591 1.14657E+01 2.53785E-01 5.67278E-02-2.89197E+00 2.07282E-13 2.04559E-14
 -1      3592 1.27819E+01-5.95157E-01 5.31045E-02-4.23188E+00 1.34278E-13 3.41199E-13
 -1      3593 2.00324E+01 3.36271E-01 3.51973E-03 4.43291E-01 4.75757E-13-2.23043E-13
 -1      3594 1.96466E+01 5.20121E-01 1.11058E-03-2.03475E-01 2.00648E-13-4.27058E-14
 -1      3595 1.96121E+01 5.42722E-01-2.10999E-03-1.38848E-01 1.74815E-13-1.72222E-13
 -1      3596 2.26026E+01-4.06613E+00 2.12018E-02-3.56147E+00 1.16691E-13 1.52188E-13
 -1      3597 2.44937E+01-4.22417E+00-1.96308E-02-2.53997E+00-2.28498E-14-2.17323E-13
 -1      3598 1.10150E+01 1.00958E+00 5.39083E-02 1.65046E-01-8.95291E-14-2.43000E-13
 -1      3599 1.10007E+01 8.40781E-01 8.05038E-02-1.50963E+00 6.41327E-14-1.67179E-13
 -1      3600 2.59148E+01 1.28557E+00-9.78416E-02-1.99679E+00-2.37872E-13 9.48339E-14
 -1      3601 2.64135E+01-1.65783E-01-1.68779E-02-1.68564E+00-2.15654E-13 1.23991E-13
 -1      3602 1.58991E+01-4.49749E-01 4.14253E-02-3.72758E+00-7.76757E-14-1.02481E-13
 -1      3603 1.65211E+01-4.40728E-01 9.72740E-02 3.74951E+00-7.78440E-14-1.08774E-13
 -1      3604 2.07803E+01-3.18297E+00-2.38454E-02 3.72753E+00-1.33305E-14-1.85671E-13
 -1      3605 1.87718E+01-2.42099E+00 4.88729E-02 4.35023E+00-1.19431E-13-1.11244E-13
 -1      3606 2.00391E+01 2.21519E+00-3.41435E-03-1.61788E-01 9.18720E-14-5.85821E-14
 -1      3607 2.00512E+01 2.17817E+00-4.26400E-03-2.82550E-01 8.18801E-14-5.75433E-14
 -1      3608 2.01670E+01 1.86794E+00 5.43035E-03-2.81778E-01 6.64607E-14-6.12001E-14
 -1      3609 1.26617E+01 1.00745E+00 8.38505E-02-1.66308E+00 9.11771E-15-1.08275E-13
 -1      3610 1.38750E+01 3.40496E-01 1.12184E-02-2.97448E+00-7.92925E-14-9.29257E-14
 -1      3611 2.02728E+01 5.79704E-01-2.74543E-03 1.56847E-01 5.65599E-14-2.05426E-15
 -1      3612 2.02998E+01 7.37753E-01 3.19764E-03 2.71636E-01 8.15752E-14-4.96462E-15
 -1      3613 1.79882E+01-2.65909E+00 1.03528E-01-5.02220E+00 1.13805E-13 5.94583E-13
 -1      3614 2.00492E+01-3.46889E+00-1.85749E-02-4.54488E+00 1.52630E-13 4.84106E-13
 -1      3615 1.57324E+01 1.42652E-01-3.43194E-03 3.14153E+00-1.27193E-13-1.62398E-13
 -1      3616 1.66570E+01 8.64968E-01-3.06966E-02 2.34923E+00-2.04437E-13-2.10788E-13
 -1      3617 1.65002E+01 5.34700E-01 1.19065E-02 2.69433E+00-2.27317E-13-2.34219E-13
 -1      3618 1.43845E+01 1.05237E+00 8.12753E-02 2.21222E+00-1.29438E-13-2.34115E-13
 -1      3619 1.40415E+01-1.17142E+00 1.01009E-01-4.76350E+00 1.61354E-13 6.48162E-13
 -1      3620 1.55872E+01-2.06762E+00-5.13271E-03-5.18994E+00 1.04441E-13 8.10886E-13
 -1      3621 1.41280E+01-5.39038E-01 6.35369E-02-3.99361E+00 2.96291E-14 5.42774E-13
 -1      3622 1.99124E+01 3.45727E-01 1.07769E-03-5.15084E-01 8.66407E-14 9.43601E-14
 -1      3623 1.99263E+01 2.93719E-01-2.28645E-03-4.69750E-01 6.34706E-14 1.34564E-13
 -1      3624 1.99026E+01 3.06675E-01 1.34955E-03-4.29064E-01 5.91984E-14 1.98181E-13
 -1      3625 1.98090E+01 4.19219E-01 2.17539E-03-5.03678E-01 8.99016E-14 1.18387E-13
 -1      3626 2.02429E+01 3.48067E-01-1.98689E-03-6.64442E-03 1.84637E-14 2.67342E-14
 -1      3627 2.02725E+01 4.53036E-01 3.16369E-03 7.21968E-02 1.91159E-14-2.15987E-15
 -1      3628 2.03106E+01 6.00183E-01 4.86949E-05 1.27550E-01 4.20129E-14-6.86473E-15
 -1      3629 2.02822E+01 8.53041E-01-2.39987E-03 3.58297E-01 1.10727E-13 6.79806E-15
 -1      3630 2.02926E+01 9.81997E-01 1.38098E-03 4.75065E-01 1.25427E-13 4.65604E-14
 -1      3631 2.02798E+01 1.15366E+00-2.27458E-03 5.07876E-01 1.38320E-13 4.48286E-14
 -1      3632 2.03069E+01 8.70725E-01-9.78208E-04 3.02992E-01 1.05590E-13 1.29815E-14
 -1      3633 1.76492E+01 1.12480E+00-2.17577E-02 1.93150E+00 1.23440E-13-2.75807E-13
 -1      3634 1.74115E+01 9.98867E-01-6.48746E-03 2.18106E+00-1.23885E-13-2.54590E-13
 -1      3635 1.60958E+01 1.37568E+00 7.05704E-02 1.73130E+00-3.53545E-14-2.85915E-13
 -1      3636 1.73079E+01 1.37587E+00 3.50041E-02 1.55087E+00-1.29452E-14-2.31704E-13
 -1      3637 2.01043E+01 5.92081E-02 5.43633E-04-2.65069E-01 7.02372E-14 7.96748E-14
 -1      3638 2.01140E+01 6.07278E-02 2.76616E-04-2.48455E-01 1.00573E-13 8.90795E-14
 -1      3639 1.59789E+01 2.38957E-01 5.44600E-02-3.03240E+00-4.97935E-14-9.45927E-14
 -1      3640 2.49006E+01-3.65041E+00-1.29830E-02-1.45140E+00 1.01221E-13-1.98681E-13
 -1      3641 2.02096E+01 1.65951E+00-3.43532E-03 1.28055E-01 6.53864E-14-8.36720E-14
 -1      3642 2.02055E+01 1.67985E+00-2.71851E-03 3.87807E-02 6.74363E-14-8.49136E-14
 -1      3643 1.95908E+01 5.73641E-01 1.41222E-04-5.77120E-02 1.02706E-13-2.11582E-13
 -1      3644 1.95816E+01 5.83417E-01-1.59082E-03 1.69158E-02-1.32988E-14 1.55405E-13
 -1      3645 1.95408E+01 5.89901E-01 1.76386E-03-1.19455E-01-1.28345E-14-6.01175E-14
 -1      3646 2.03350E+01 6.06386E-01 4.34248E-04-9.81022E-02 8.39415E-15-4.48365E-14
 -1      3647 2.46307E+01 1.09619E+00-2.32184E-02-1.92135E+00-1.85763E-13 1.01960E-13
 -1      3648 2.03017E+01 1.04908E+00-1.58936E-03-4.08672E-01-1.07095E-14-9.88125E-14
 -1      3649 2.03007E+01 8.94972E-01-2.33840E-03-3.03225E-01-1.03904E-14-8.46944E-14
 -1      3650 2.03261E+01 9.01436E-01 1.30738E-03-2.48597E-01 1.14815E-14-5.60688E-14
 -1      3651 1.72634E+01-1.95408E+00 3.74144E-02-4.54637E+00 5.97994E-14 7.24469E-13
 -1      3652 2.50657E+01-1.25094E+00-3.59915E-02 1.20900E+00 1.33279E-13-1.23396E-13
 -1      3653 2.38683E+01-1.04162E+00-7.43975E-03 1.23958E+00-1.98886E-15 7.02346E-14
 -1      3654 2.37545E+01-1.49743E+00 3.92257E-03 9.32623E-01 1.27556E-13 1.40665E-13
 -1      3655 2.02312E+01 2.66903E-01 2.35162E-03-6.37788E-02 3.68430E-14 1.73071E-14
 -1      3656 2.02873E+01 3.63701E-01-4.08384E-04-1.78452E-02 2.69275E-14 5.92815E-15
 -1      3657 2.02061E+01 2.00588E-01-1.03662E-03-1.15266E-01 6.67644E-14 3.42312E-14
 -1      3658 1.99810E+01 2.62165E-01 8.27424E-04-4.58677E-01 3.82759E-14-4.25826E-13
 -1      3659 1.99802E+01 2.61379E-01-1.85356E-04-4.19990E-01 1.96124E-13-3.80988E-13
 -1      3660 1.99468E+01 2.86431E-01 2.40077E-04-4.13476E-01-6.09725E-15-6.27634E-13
 -1      3661 1.99063E+01 3.01651E-01 7.28865E-04-4.82781E-01 2.60567E-13-3.78596E-13
 -1      3662 2.01352E+01 6.94641E-02 1.83927E-04-2.31575E-01 7.52479E-14 5.51008E-14
 -1      3663 2.01493E+01 8.69196E-02 8.88182E-04-2.09745E-01 3.44004E-14 5.61708E-14
 -1      3664 2.01659E+01 8.15279E-02-5.21891E-04-2.25609E-01 6.01844E-14 3.79199E-14
 -1      3665 2.02707E+01 1.29028E+00-3.52560E-04 4.69604E-01 1.13754E-13 1.51838E-14
 -1      3666 2.00302E+01 1.46094E-01 2.80609E-04-3.25536E-01 4.16162E-14 1.24147E-13
 -1      3667 2.00457E+01 1.13447E-01 9.75076E-04-3.30134E-01 5.30135E-14 1.42124E-13
 -1      3668 2.00509E+01 9.13051E-02-7.34808E-04-3.10816E-01 6.42406E-14 1.28921E-13
 -1      3669 1.97656E+01 5.08381E-01-2.51270E-03 4.02686E-01 1.30098E-13-2.07012E-13
 -1      3670 1.98563E+01 4.61039E-01 6.92394E-04 4.54320E-01 3.20280E-13-4.17235E-13
 -1      3671 1.61408E+01 6.79984E-01 1.73923E-03-2.63359E+00-7.83002E-14-1.45058E-14
 -1      3672 1.54722E+01 1.13791E+00 4.54357E-02-2.02362E+00-6.47221E-14-8.07757E-14
 -1      3673 2.24406E+01-3.13309E+00-2.91107E-02 2.27375E+00 1.17963E-13 2.45853E-13
 -1      3674 2.18236E+01-3.21149E+00 3.48760E-02 3.08957E+00 6.63768E-14 2.20726E-14
 -1      3675 2.07150E+01-2.53877E+00 6.37758E-03 3.15188E+00-1.93899E-14 1.20282E-13
 -1      3676 1.25052E+01 9.89213E-01 5.71947E-02 9.51141E-01-6.38951E-14-8.48072E-14
 -1      3677 2.15787E+01-3.58752E+00 4.34939E-02-3.73814E+00 1.46423E-13 1.67873E-13
 -1      3678 2.25821E+01-3.48907E+00-2.99693E-02-2.69887E+00 1.55866E-13-1.36573E-13
 -1      3679 2.04287E+01-2.87720E+00-9.06004E-03-3.67825E+00 9.86919E-14 7.52081E-14
 -1      3680 1.98591E+01 4.93633E-01 1.51604E-03 5.44811E-01 2.26148E-13-4.81848E-13
 -1      3681 1.97175E+01 5.78427E-01 7.73144E-04 5.33702E-01 4.90961E-14-5.39929E-13
 -1      3682 1.24363E+01 7.09903E-01 7.80216E-02-2.05661E+00 1.14500E-13-1.22808E-13
 -1      3683 1.99360E+01 3.95491E-01-3.88717E-03 4.65924E-01 4.24632E-13-1.94598E-13
 -1      3684 1.96888E+01 4.74888E-01-2.25285E-03-2.66789E-01 2.40722E-13 9.05106E-14
 -1      3685 1.96183E+01 5.16906E-01 7.26129E-04-2.67532E-01 1.47442E-13 9.58205E-14
 -1      3686 1.97412E+01 4.44744E-01 2.28791E-03-3.14391E-01 1.77779E-13 1.29932E-13
 -1      3687 2.00752E+01 7.52874E-02 7.98964E-04-2.95425E-01 3.75941E-14 7.79346E-14
 -1      3688 2.00819E+01 6.40366E-02-2.53688E-04-2.79331E-01 3.91763E-14 7.12040E-14
 -1      3689 2.01229E+01 7.56708E-02-3.32517E-04-2.58944E-01 7.88932E-14 3.38925E-14
 -1      3690 2.00785E+01 9.86739E-02-6.36023E-05-2.90043E-01 1.03961E-14 6.51306E-14
 -1      3691 2.61708E+01-1.90758E+00-2.20033E-02 6.16408E-01 1.08602E-13-1.47625E-13
 -1      3692 1.78721E+01-1.88604E+00 2.82263E-02 4.29078E+00-7.64683E-14-6.53158E-14
 -1      3693 1.69027E+01-1.17337E+00 6.96688E-03 3.90028E+00-7.68136E-14-7.22582E-14
 -1      3694 1.90609E+01-1.88208E+00 1.65685E-02 3.57106E+00-9.87298E-14-1.50709E-13
 -1      3695 1.33857E+01 3.12775E-02 9.34905E-02 3.44580E+00-6.44276E-15-4.73926E-14
 -1      3696 1.32294E+01 4.98470E-01 1.40970E-02 2.55836E+00 1.96058E-14-7.28063E-14
 -1      3697 1.50063E+01-3.46725E-01 1.95231E-02 3.58863E+00-5.29396E-14-1.16285E-13
 -1      3698 2.57680E+01-9.74967E-01-1.21534E-02-1.31872E+00-1.10689E-13 1.64837E-13
 -1      3699 2.02217E+01 1.53194E+00-1.49832E-03-6.69100E-01-1.69898E-14-1.22206E-13
 -1      3700 2.01461E+01 1.94075E+00 5.08919E-03-9.40534E-02 8.16109E-14-7.63346E-14
 -1      3701 2.01160E+01 1.04675E-01-1.25114E-03-1.85942E-01 7.46439E-14 5.85215E-14
 -1      3702 1.96450E+01 5.73076E-01-1.88897E-03 2.69685E-01-4.82654E-14 2.24958E-13
 -1      3703 1.96982E+01 5.48515E-01 1.95821E-04 3.33924E-01 1.22376E-14-3.44732E-14
 -1      3704 1.96837E+01 5.74724E-01 1.77754E-03 4.05096E-01 9.62533E-14-1.78659E-13
 -1      3705 2.38039E+01-2.02867E+00-3.25215E-02 4.05384E-01 2.89538E-14 1.18135E-15
 -1      3706 2.49053E+01-3.22738E+00-1.60611E-04 8.12255E-01 6.74443E-14 1.43854E-13
 -1      3707 2.38792E+01-3.28679E+00-5.02585E-03 1.39085E+00 1.09029E-13 2.22952E-13
 -1      3708 2.50318E+01-2.68642E+00-7.19047E-03 1.15415E-01 6.64481E-14 2.41963E-13
 -1      3709 2.38802E+01 3.46893E+00-7.64544E-02 1.19657E+00-1.29934E-13-3.16055E-13
 -1      3710 2.02293E+01 1.56556E+00-4.23184E-03 2.79841E-01 1.07087E-13-2.98991E-14
 -1      3711 2.02188E+01 1.62597E+00-1.98345E-03 1.97259E-01 9.49597E-14-6.62569E-14
 -1      3712 2.02914E+01 1.41030E+00 5.15359E-03 1.30168E-01 7.33047E-14-4.54569E-14
 -1      3713 1.12304E+01 1.05259E+00 1.21963E-01 2.39614E-01 9.04771E-14-3.02293E-13
 -1      3714 1.14754E+01 9.98114E-01 2.21572E-02-3.37949E-01 8.47955E-14-2.74468E-13
 -1      3715 1.99117E+01 3.10255E-01-8.35332E-04-4.01155E-01 7.21340E-14-3.67217E-13
 -1      3716 2.02427E+01 1.50686E+00-7.57461E-04-3.35893E-01 5.33117E-14-7.38306E-14
 -1      3717 2.02549E+01 1.40785E+00-4.14377E-03-4.01582E-01 1.61970E-14-7.00730E-14
 -1      3718 2.02690E+01 1.33401E+00 3.49087E-03-5.13893E-01-9.53292E-15-1.01276E-13
 -1      3719 1.30426E+01 1.13117E+00 4.58905E-02-9.52039E-01-9.35710E-15-1.68660E-13
 -1      3720 2.03079E+01 1.14495E+00 1.60327E-03-3.09036E-01 2.48562E-14-4.76184E-14
 -1      3721 2.02720E+01 1.32537E+00 1.79945E-03-4.25964E-01 8.88721E-15-5.82739E-14
 -1      3722 1.20124E+01 9.62079E-01 4.38456E-02 1.18160E+00 7.25451E-14-2.22752E-13
 -1      3723 1.98703E+01 3.30446E-01-7.55719E-04-4.30984E-01 1.53144E-13-4.13184E-13
 -1      3724 1.98642E+01 3.50200E-01 1.61567E-03-3.84232E-01 1.11557E-13-2.95494E-13
 -1      3725 1.98037E+01 3.86756E-01-2.08291E-03-3.57380E-01 1.14253E-13-1.65493E-13
 -1      3726 1.98472E+01 3.39670E-01 1.71219E-04-4.64373E-01 2.68553E-13-5.17446E-13
 -1      3727 2.03267E+01 1.06362E+00-6.35986E-04-2.31133E-01 3.00241E-14-4.50792E-14
 -1      3728 2.03331E+01 9.73145E-01-3.89356E-04-2.45212E-01 2.18989E-14-4.61345E-14
 -1      3729 2.03403E+01 8.28811E-01-1.15077E-03-1.71093E-01 7.88483E-15-5.50118E-14
 -1      3730 1.35529E+01 1.41744E+00 6.45523E-02-1.57696E-03 3.77196E-14-1.36682E-13
 -1      3731 1.43058E+01 1.25075E+00-1.76583E-02-1.21563E+00-6.00548E-14-5.37036E-14
 -1      3732 1.54956E+01 1.35949E+00-1.45340E-02-1.19398E+00-3.75464E-14-5.56066E-15
 -1      3733 2.31346E+01-2.45728E+00-3.39361E-03-6.76636E-01 1.08014E-13-5.10169E-14
 -1      3734 2.26362E+01-2.30098E+00 2.81502E-02-1.02397E+00 1.57505E-13-4.80605E-15
 -1      3735 2.52233E+01-2.39018E+00 1.96863E-02 2.75563E-01 1.41373E-13-1.54342E-13
 -1      3736 2.50531E+01 1.57424E+00-1.42580E-02-1.95475E+00-2.71460E-13-1.31214E-14
 -1      3737 2.02828E+01 1.61512E-01 7.00777E-04 1.38503E-01-5.85240E-15-1.24144E-14
 -1      3738 2.02578E+01 1.25555E-01-3.20155E-04 1.63246E-01 1.59897E-14-2.46699E-14
 -1      3739 2.02297E+01 1.01747E-01 3.11080E-04 1.79625E-01 4.04667E-14-2.04203E-14
 -1      3740 2.02046E+01 8.74613E-02 1.05853E-04 1.97703E-01 2.09085E-14-3.09463E-15
 -1      3741 2.02698E+01 1.32168E-01-6.17734E-05 1.48178E-01 2.70958E-14-1.47729E-14
 -1      3742 2.01721E+01 8.18093E-02-5.75210E-05 2.10939E-01 9.05366E-15 3.23883E-14
 -1      3743 2.01475E+01 8.35439E-02 4.22264E-04 2.26423E-01-6.94160E-17 5.58240E-14
 -1      3744 2.02083E+01 9.91345E-02-1.03918E-04 1.79340E-01 2.72671E-14 2.81498E-14
 -1      3745 2.01120E+01 9.10878E-02-3.95106E-04 2.39742E-01-1.96184E-14 6.27447E-14
 -1      3746 2.00881E+01 1.04272E-01 6.64654E-04 2.55941E-01-1.46207E-14 6.94854E-14
 -1      3747 2.01411E+01 1.01064E-01-5.25690E-05 2.07060E-01-1.83724E-14 5.03254E-14
 -1      3748 2.00500E+01 1.20863E-01-7.02514E-04 2.72075E-01-6.47624E-14 5.00526E-14
 -1      3749 2.00269E+01 1.41543E-01 8.73081E-04 2.91626E-01-8.19797E-14 6.18997E-14
 -1      3750 2.00696E+01 1.28198E-01 4.79463E-05 2.37202E-01-5.32377E-14 7.65983E-14
 -1      3751 1.99863E+01 1.63406E-01-9.73892E-04 3.12958E-01-6.51798E-14 4.52224E-14
 -1      3752 1.99643E+01 1.87738E-01 1.09002E-03 3.37981E-01-5.96620E-14 5.31281E-14
 -1      3753 1.99940E+01 1.72083E-01 1.52172E-04 2.74838E-01-6.92525E-14 9.07913E-14
 -1      3754 1.99218E+01 2.10882E-01-1.19156E-03 3.66695E-01-8.55791E-15 1.16347E-13
 -1      3755 1.99018E+01 2.34560E-01 1.35401E-03 3.98846E-01 4.32334E-15 1.86982E-13
 -1      3756 1.99147E+01 2.24532E-01 2.08122E-04 3.24636E-01 1.10026E-14 1.42821E-13
 -1      3757 1.98583E+01 2.54279E-01-1.32944E-03 4.36990E-01-3.58076E-14 2.28157E-13
 -1      3758 1.98424E+01 2.72015E-01 1.70876E-03 4.77487E-01-8.71757E-14 2.57273E-13
 -1      3759 1.98328E+01 2.76512E-01 1.65612E-04 3.91024E-01 6.16090E-15 2.10478E-13
 -1      3760 1.98002E+01 2.82348E-01-1.33778E-03 5.27023E-01-1.19250E-13 3.26654E-13
 -1      3761 1.97922E+01 2.87322E-01 2.19622E-03 5.76565E-01-8.04315E-14 2.77590E-13
 -1      3762 1.97510E+01 3.16946E-01-6.63036E-05 4.78392E-01-6.03601E-14 3.35980E-13
 -1      3763 1.97557E+01 2.80551E-01-1.12786E-03 6.39293E-01-5.67569E-14 2.46089E-13
 -1      3764 1.97619E+01 2.63919E-01 2.85008E-03 6.97795E-01-3.06044E-14 2.41103E-13
 -1      3765 1.96756E+01 3.31579E-01-6.06269E-04 5.91174E-01-1.05453E-13 3.82780E-13
 -1      3766 1.97390E+01 2.30215E-01-5.52940E-04 7.75005E-01-7.75551E-15 2.41420E-13
 -1      3767 1.97690E+01 1.80841E-01 3.66955E-03 8.41012E-01-3.06392E-14 2.93282E-13
 -1      3768 1.96179E+01 3.01793E-01-1.62493E-03 7.33560E-01-2.17852E-14 3.18310E-13
 -1      3769 1.97725E+01 1.08300E-01 6.25672E-04 9.32648E-01 4.42634E-15 3.21888E-13
 -1      3770 1.98401E+01 1.29934E-02 4.56417E-03 1.00217E+00 3.13027E-14 3.08569E-13
 -1      3771 1.95969E+01 2.03768E-01-3.36595E-03 9.08522E-01 1.36471E-14 3.48724E-13
 -1      3772 1.98897E+01-1.11507E-01 2.77384E-03 1.10508E+00-3.38648E-14 2.82030E-13
 -1      3773 2.00132E+01-2.66685E-01 5.24363E-03 1.16947E+00 8.76328E-15 2.62405E-13
 -1      3774 1.96423E+01 8.50952E-03-6.16136E-03 1.11549E+00-1.65381E-14 2.38326E-13
 -1      3775 2.01387E+01-4.54802E-01 6.56772E-03 1.27369E+00 8.47139E-14 2.14929E-13
 -1      3776 2.03396E+01-6.80528E-01 5.20838E-03 1.31586E+00 7.15497E-14 1.42150E-13
 -1      3777 1.97995E+01-3.16787E-01-1.04805E-02 1.34542E+00 4.00770E-15 2.36044E-13
 -1      3778 2.05826E+01-9.36812E-01 1.27450E-02 1.39882E+00 9.35475E-14 2.24294E-13
 -1      3779 2.08782E+01-1.23189E+00 2.51339E-03 1.38704E+00 7.49583E-14 2.00818E-13
 -1      3780 2.01331E+01-7.99964E-01-1.62630E-02 1.57106E+00 7.81576E-14 2.39681E-13
 -1      3781 2.13050E+01-1.54105E+00 2.35200E-02 1.39562E+00 4.71501E-14 1.65468E-13
 -1      3782 2.17407E+01-1.82656E+00 1.40553E-02 1.24731E+00-5.01986E-16 1.15585E-13
 -1      3783 2.07413E+01-1.45793E+00-2.30471E-02 1.73145E+00 2.28997E-14 2.77198E-13
 -1      3784 2.20130E+01-2.26978E+00 1.50196E-02 1.58965E+00 6.79829E-14 1.42605E-13
 -1      3785 2.25902E+01-2.53552E+00 4.93835E-03 1.34720E+00 1.36613E-13 2.28487E-13
 -1      3786 2.37006E+01-2.60292E+00 1.14125E-03 4.71657E-01 1.67218E-13 1.82432E-13
 -1      3787 2.41877E+01-2.43271E+00-8.38810E-03 2.98636E-03 7.81159E-14 1.96082E-13
 -1      3788 2.43672E+01 3.91582E+00-4.01167E-02-1.03655E+00-2.03559E-13-3.57527E-14
 -1      3789 2.02051E+01 1.68045E+00-2.75023E-03-3.39723E-02 6.72190E-14-7.71424E-14
 -1      3790 2.02088E+01 1.66200E+00-3.24683E-03-1.23149E-01 6.13006E-14-6.45366E-14
 -1      3791 2.02862E+01 1.44548E+00 5.14567E-03 1.85975E-03 4.44024E-14-8.25818E-14
 -1      3792 2.19710E+01-2.02837E+00-1.05553E-03-1.21037E+00-1.34584E-14 1.69925E-14
 -1      3793 2.15467E+01-1.71785E+00 2.37096E-02-1.36290E+00-1.44497E-13 7.69776E-14
 -1      3794 2.20405E+01-2.33335E+00-1.08649E-02-1.57933E+00 7.55142E-14-2.94004E-13
 -1      3795 2.10842E+01-1.40492E+00 2.34904E-03-1.38524E+00-2.17803E-13 1.64701E-13
 -1      3796 2.07591E+01-1.09489E+00 1.47176E-02-1.41833E+00-2.00968E-13 2.48736E-14
 -1      3797 2.09709E+01-1.64746E+00-2.11069E-02-1.74619E+00-1.46445E-13-7.07585E-14
 -1      3798 2.04751E+01-8.19525E-01 4.65309E-03-1.34973E+00-1.20928E-13-2.32783E-14
 -1      3799 2.02495E+01-5.71177E-01 7.91763E-03-1.31779E+00 1.08952E-13 1.22983E-14
 -1      3800 2.02797E+01-9.65609E-01-1.86987E-02-1.62782E+00-1.65296E-13-4.13430E-14
 -1      3801 2.00954E+01-3.60799E-01 5.19461E-03-1.21615E+00 1.46877E-13-6.71056E-14
 -1      3802 1.99526E+01-1.83008E-01 3.69089E-03-1.15428E+00 1.71250E-14-2.71439E-13
 -1      3803 1.98813E+01-4.28978E-01-1.22988E-02-1.41298E+00 5.84645E-14-1.09732E-13
 -1      3804 1.98849E+01-3.78620E-02 4.78291E-03-1.04804E+00 6.06749E-15-2.82709E-13
 -1      3805 1.98034E+01 7.73373E-02 1.19579E-03-9.76712E-01-8.50749E-14-2.32838E-13
 -1      3806 1.96815E+01-5.34422E-02-7.20973E-03-1.17808E+00-6.78773E-14-1.81417E-13
 -1      3807 1.97885E+01 1.68234E-01 3.86534E-03-8.79383E-01-1.99389E-13-1.74294E-13
 -1      3808 1.97490E+01 2.35175E-01-2.10907E-04-8.08891E-01-1.29757E-13-1.66670E-13
 -1      3809 1.96093E+01 1.84611E-01-3.92014E-03-9.59683E-01-1.02717E-13-1.59805E-13
 -1      3810 1.97642E+01 2.85421E-01 2.95688E-03-7.24763E-01-8.56900E-14-6.43012E-14
 -1      3811 1.97513E+01 3.18101E-01-8.76240E-04-6.59849E-01-6.74011E-14-7.02594E-14
 -1      3812 1.96130E+01 3.19474E-01-1.96627E-03-7.70765E-01-3.15840E-14 1.03257E-13
 -1      3813 1.97814E+01 3.39418E-01 1.89102E-03-5.89316E-01-6.21218E-14-1.75856E-13
 -1      3814 1.97845E+01 3.50718E-01-1.25191E-03-5.32137E-01 1.25991E-13-2.40996E-13
 -1      3815 1.96582E+01 3.82797E-01-7.82782E-04-6.13482E-01-1.00632E-13 1.25542E-13
 -1      3816 1.64556E+01-9.99342E-01 7.65759E-02-4.04828E+00 2.08916E-13 8.38361E-13
 -1      3817 1.81437E+01-1.82266E+00-1.83663E-02-3.96426E+00 2.13997E-13 6.06251E-13
 -1      3818 2.03335E+01 5.85914E-01-1.98604E-03 8.24438E-02 2.44314E-14 4.04065E-15
 -1      3819 2.03433E+01 7.37088E-01 1.20779E-03 1.70631E-01 5.40752E-14 3.69690E-15
 -1      3820 1.93133E+01 7.79950E-01-1.70078E-03-6.25095E-01 3.40495E-14 9.18575E-15
 -1      3821 1.94188E+01 6.96127E-01-3.86980E-03-5.72745E-01 6.05524E-14 3.88496E-14
 -1      3822 1.95424E+01 6.18193E-01-8.50025E-04-5.39297E-01 7.04499E-14 3.71578E-14
 -1      3823 1.96178E+01 5.43556E-01-3.03003E-03-4.93703E-01 6.13164E-14 8.15816E-14
 -1      3824 1.93910E+01 7.01772E-01 4.76315E-03-4.63637E-01 7.53405E-14 4.32906E-14
 -1      3825 1.85784E+01 1.13391E+00-4.15592E-03-8.17411E-01-2.07102E-13 1.75382E-14
 -1      3826 1.87811E+01 1.04438E+00-6.73463E-03-7.52970E-01-1.20965E-13 6.36293E-14
 -1      3827 1.80030E+01 1.29305E+00-6.15188E-03-9.25938E-01-1.23058E-13-1.41700E-13
 -1      3828 1.82798E+01 1.21622E+00-9.61047E-03-8.51377E-01-1.77426E-13-5.16017E-14
 -1      3829 1.82446E+01 1.24037E+00 1.29106E-02-6.01725E-01-1.16707E-13-7.71139E-14
 -1      3830 1.72097E+01 1.39184E+00-1.16648E-02-1.06399E+00-8.19340E-14-1.38932E-13
 -1      3831 1.75935E+01 1.35533E+00-1.40908E-02-9.61546E-01-1.07262E-13-1.69090E-13
 -1      3832 1.75706E+01 1.40280E+00 1.85885E-02-6.27333E-01-1.09587E-13-1.61006E-13
 -1      3833 1.61696E+01 1.37508E+00-1.62295E-02-1.20145E+00-8.70304E-14-3.07675E-14
 -1      3834 1.66827E+01 1.41390E+00-2.08410E-02-1.05047E+00-9.24723E-14-8.32112E-14
 -1      3835 1.66871E+01 1.52386E+00 3.20977E-02-5.84495E-01-1.17831E-13-1.38693E-13
 -1      3836 1.55156E+01 1.57855E+00 5.15477E-02-4.50343E-01-7.35395E-14 1.33884E-14
 -1      3837 1.89425E+01 1.00796E+00-6.21519E-03 7.42722E-01 1.32460E-13 8.34023E-14
 -1      3838 1.87643E+01 1.09346E+00-3.60829E-03 8.12401E-01-4.81663E-14 1.97644E-13
 -1      3839 2.03557E+01 4.58774E-01 1.02062E-03-8.37359E-03 1.57203E-14-2.57747E-14
 -1      3840 2.03391E+01 3.56110E-01-1.34752E-03 4.46903E-02 1.09128E-14-2.57517E-14
 -1      3841 1.78834E+01 1.31939E+00-1.29887E-02 9.74081E-01-1.77355E-13 2.51173E-14
 -1      3842 1.75350E+01 1.36483E+00-1.38455E-02 1.07625E+00-1.76421E-13 3.39897E-16
 -1      3843 1.92690E+01 8.44205E-01-4.57412E-03 6.37058E-01 1.74500E-13-6.93754E-14
 -1      3844 1.91410E+01 9.25435E-01-2.38371E-03 7.00914E-01 2.23385E-13-1.05012E-14
 -1      3845 1.88968E+01 1.02833E+00 8.37801E-03 5.69765E-01 2.35085E-13-2.20460E-14
 -1      3846 1.95051E+01 6.96416E-01-3.83231E-03 5.37517E-01 2.29614E-13-2.67128E-13
 -1      3847 1.94157E+01 7.68958E-01-1.29360E-03 5.94652E-01 2.62550E-13-1.82765E-13
 -1      3848 1.92283E+01 8.62187E-01 6.02573E-03 5.05556E-01 1.43198E-13 9.54879E-14
 -1      3849 1.28958E+01 1.04405E+00-9.21777E-03-1.31779E+00-4.47229E-14-2.29351E-13
 -1      3850 1.35216E+01 5.31790E-01 3.42503E-02-2.59401E+00-4.01641E-14 2.67741E-13
 -1      3851 1.90019E+01 9.55596E-01-2.81066E-03-7.18356E-01-9.91969E-14 2.14029E-14
 -1      3852 1.91488E+01 8.65712E-01-5.01537E-03-6.60017E-01-3.04511E-14 5.36200E-14
 -1      3853 1.87437E+01 1.05712E+00 9.30414E-03-5.64681E-01-1.50289E-13 5.78078E-14
 -1      3854 1.95878E+01 5.93270E-01-9.56423E-04 1.05814E-01-1.67884E-14 5.00019E-13
 -1      3855 1.96086E+01 5.86821E-01-9.13214E-04 1.80309E-01-8.69228E-14 3.36268E-13
 -1      3856 1.95188E+01 6.29319E-01 2.06745E-03 5.59822E-02-9.06009E-14 3.79492E-13
 -1      3857 1.99360E+01 2.53641E-01 4.02501E-04-3.46940E-01 1.38481E-14 1.54594E-13
 -1      3858 1.99669E+01 2.11098E-01-1.33802E-03-3.22378E-01 3.77753E-14 1.41552E-13
 -1      3859 1.98557E+01 4.71652E-01 6.08212E-04 4.86850E-01 3.40797E-13-4.53877E-13
 -1      3860 1.34499E+01 1.24289E+00 5.36197E-04 7.30007E-01-9.82825E-14-1.58720E-13
 -1      3861 2.02159E+01 1.62905E+00-2.41570E-03-1.93323E-01 6.08939E-14-4.53575E-14
 -1      3862 2.02264E+01 1.57129E+00-4.18824E-03-2.75092E-01 5.30242E-14-5.92183E-14
 -1      3863 2.03019E+01 1.31042E+00 4.49114E-03-2.43441E-01 4.69777E-14-3.88810E-14
 -1      3864 2.38459E+01-3.40149E+00 4.49231E-02-1.70352E+00 1.32399E-13-2.74058E-13
 -1      3865 2.47440E+01-3.22039E+00-4.62330E-02-8.51451E-01 1.34940E-13-3.03399E-13
 -1      3866 2.42053E+01-2.50137E+00 5.26537E-03-1.16173E-01 1.43674E-14-1.33319E-13
 -1      3867 2.28153E+01-3.13466E+00 8.92287E-03-2.06793E+00 1.06280E-13-2.87881E-13
 -1      3868 1.30918E+01 1.04370E+00 6.70548E-02 1.62247E+00 1.04187E-13-1.38795E-13
 -1      3869 1.30001E+01 1.16817E+00-7.97521E-03 8.53369E-01 9.14528E-14-2.22756E-13
 -1      3870 1.43682E+01 1.34724E+00 1.24892E-02 3.84975E-01 7.59722E-14-1.33643E-13
 -1      3871 1.42236E+01 7.23302E-01 1.33755E-02 2.11402E+00 6.07648E-14-1.74976E-13
 -1      3872 1.96242E+01 6.07910E-01-1.81041E-03 4.38670E-01 7.56641E-14-2.21594E-13
 -1      3873 1.95790E+01 6.58858E-01 1.27171E-03 4.97064E-01 6.13184E-14-3.01852E-13
 -1      3874 1.94292E+01 7.35565E-01 2.98790E-03 4.32813E-01 8.49781E-14-1.66480E-14
 -1      3875 1.95491E+01 6.44256E-01-9.93056E-04 3.65871E-01 6.33493E-14-1.33320E-13
 -1      3876 2.02585E+01 1.39993E+00-4.56083E-03 4.06627E-01 1.13617E-13 6.81784E-15
 -1      3877 2.02437E+01 1.49933E+00-1.44125E-03 3.39138E-01 1.11130E-13-1.47722E-14
 -1      3878 2.03045E+01 1.30484E+00 4.93344E-03 2.43245E-01 9.29137E-14-1.80655E-14
 -1      3879 1.84956E+01 1.17428E+00-8.75141E-03 8.54319E-01-2.55557E-13 2.42592E-13
 -1      3880 1.82502E+01 1.25202E+00-5.86863E-03 9.32675E-01-1.88661E-13 1.77347E-13
 -1      3881 1.84474E+01 1.20291E+00 1.14279E-02 6.25910E-01-1.14134E-13 1.82979E-13
 -1      3882 2.03577E+01 6.95549E-01 2.52915E-04-1.18599E-01 7.38728E-15-5.32443E-14
 -1      3883 2.03521E+01 5.51331E-01-1.35736E-03-4.60624E-02 2.33290E-14-4.86722E-14
 -1      3884 2.03753E+01 5.45189E-01 1.34869E-03-2.68999E-02 3.20130E-14-6.63944E-15
 -1      3885 2.03643E+01 7.72742E-01 5.04468E-04-1.16699E-01 1.01265E-14-4.24558E-14
 -1      3886 1.40920E+01 1.33469E-01 4.70846E-02-3.18663E+00-3.73616E-14 3.71519E-13
 -1      3887 1.49932E+01-5.29564E-01-4.50681E-03-3.79194E+00 9.24087E-15 6.50511E-13
 -1      3888 1.46169E+01 5.15458E-01 3.87965E-02-2.46574E+00-1.86694E-13 4.27897E-13
 -1      3889 2.03191E+01 9.78756E-01-8.60904E-04 2.62607E-01 9.04837E-14 2.46789E-15
 -1      3890 2.03108E+01 1.12572E+00 4.19082E-03 3.52645E-01 1.05492E-13 1.47430E-14
 -1      3891 2.03274E+01 2.74541E-01 1.03644E-03 7.89389E-02 1.09738E-14-3.15673E-14
 -1      3892 2.03044E+01 2.09793E-01-8.76477E-04 1.15226E-01-1.32933E-14-3.30862E-14
 -1      3893 2.03610E+01 3.53570E-01 3.42649E-04 4.76994E-02 5.04897E-15-2.33482E-14
 -1      3894 2.01692E+01 1.13042E-01-3.24441E-04-1.85542E-01 6.04426E-14 4.30306E-14
 -1      3895 2.01887E+01 1.51304E-01 1.58393E-03-1.52568E-01 9.02521E-14 4.06001E-14
 -1      3896 2.02503E+01 2.12182E-01-6.52999E-04-1.16428E-01 6.05051E-14 4.53557E-15
 -1      3897 1.48595E+01 1.35860E+00-2.29574E-02 1.06078E+00-7.13795E-14-1.25839E-13
 -1      3898 1.35833E+01 1.39859E+00 7.38549E-02-1.39729E-01-3.93435E-14-3.05130E-13
 -1      3899 1.42528E+01 1.23865E+00-1.32309E-02-7.58536E-01-1.06933E-13-1.49825E-13
 -1      3900 1.56425E+01 1.40954E+00-2.29752E-02 1.02878E+00-1.03710E-13-1.02869E-13
 -1      3901 2.37220E+01-2.51062E+00 4.51672E-02-4.59571E-01-2.87348E-14-1.25544E-13
 -1      3902 2.32028E+01-2.95257E+00-3.90931E-02-1.28302E+00 1.35092E-13-1.98244E-13
 -1      3903 1.99806E+01 2.12607E-01 8.39184E-04-2.81394E-01-2.26423E-14 5.24167E-14
 -1      3904 2.00140E+01 1.75183E-01 4.94810E-04-3.05434E-01 1.07063E-14 9.97938E-14
 -1      3905 2.00395E+01 1.44074E-01-8.96353E-04-2.86004E-01-2.68719E-14 6.25909E-14
 -1      3906 1.62387E+01-4.41079E-01 1.89151E-02-3.38464E+00 3.48471E-14 6.19589E-13
 -1      3907 2.03225E+01 2.12076E-01 9.73676E-05 1.06799E-01 5.05779E-15-4.69538E-15
 -1      3908 2.13389E+01-2.20447E+00-7.10677E-03 2.13448E+00 2.89419E-14 2.46657E-13
 -1      3909 2.48944E+01-2.05023E+00-2.28497E-02-6.40231E-01 4.37445E-14 1.74366E-13
 -1      3910 2.52310E+01-1.20337E+00-5.53054E-03-1.18980E+00-8.81135E-14 2.07142E-13
 -1      3911 2.03220E+01 1.22473E+00-2.72192E-03 3.05555E-02 4.69374E-14-5.17577E-14
 -1      3912 2.03219E+01 1.22556E+00-2.60472E-03-2.79975E-02 3.82679E-14-8.08738E-14
 -1      3913 2.02914E+01 1.41262E+00 5.43090E-03-1.26923E-01 3.70642E-14-4.68536E-14
 -1      3914 2.55193E+01 1.19481E+00-1.59635E-02 1.96600E+00 9.41920E-14-2.96804E-13
 -1      3915 2.02086E+01 1.23422E-01-6.38705E-04-1.81597E-01 4.79792E-14 6.97198E-15
 -1      3916 2.03347E+01 4.59983E-01 1.31431E-03 2.35903E-02 1.55053E-14-1.00354E-14
 -1      3917 2.03607E+01 5.86057E-01 6.01752E-04 5.86503E-02 3.04482E-14-1.48139E-14
 -1      3918 2.03169E+01 3.57098E-01-1.30117E-03-3.78193E-02 2.90352E-14-2.11130E-14
 -1      3919 2.03371E+01 9.65178E-01 2.87714E-04 2.07477E-01 6.97674E-14 5.04440E-15
 -1      3920 2.07466E+01-2.37930E+00-1.93405E-02 2.81724E+00 2.21333E-14 4.16044E-13
 -1      3921 1.99814E+01-2.18360E+00 1.18315E-02 3.31140E+00-3.86479E-14 7.99898E-14
 -1      3922 1.91329E+01-1.70328E+00-8.59916E-03 3.27933E+00-2.44908E-14 8.65618E-14
 -1      3923 1.95630E+01 6.26736E-01 1.76896E-03 2.40619E-01-1.00275E-16 3.04988E-13
 -1      3924 1.95992E+01 5.47450E-01 3.32775E-03-4.10099E-01 1.04870E-13 1.58607E-13
 -1      3925 1.97117E+01 4.75525E-01-2.39110E-04-4.63458E-01 6.83067E-14 1.28021E-13
 -1      3926 1.97660E+01 4.11307E-01-2.36777E-03-4.25163E-01 1.00586E-13 1.36998E-13
 -1      3927 1.97578E+01 3.88016E-01 1.68747E-03-4.74763E-01-3.28245E-14-2.73150E-13
 -1      3928 1.70264E+01 1.50920E+00 3.78066E-02 6.22303E-01-2.10585E-13 3.83669E-14
 -1      3929 1.70318E+01 1.40109E+00-1.63678E-02 1.03297E+00-1.48211E-13 2.18002E-14
 -1      3930 1.64405E+01 1.40889E+00-3.31218E-02 1.04298E+00-1.51064E-13-7.93267E-14
 -1      3931 1.95086E+01-2.13995E+00 5.71669E-02-3.71031E+00 1.35103E-13 2.86776E-13
 -1      3932 2.05664E+01-2.41766E+00-7.55162E-03-3.06129E+00 4.45869E-14-1.33837E-13
 -1      3933 1.84852E+01-1.43612E+00-1.10901E-02-3.41110E+00 1.54935E-13 4.15687E-13
 -1      3934 1.98386E+01 3.53840E-01 1.66799E-04-3.99250E-01 8.10706E-14 1.23394E-13
 -1      3935 1.98786E+01 3.00408E-01-1.81113E-03-3.68196E-01 4.56201E-14 1.45237E-13
 -1      3936 1.97578E+01 4.13699E-01 2.25638E-03-3.60570E-01 8.33715E-14 1.55399E-13
 -1      3937 1.91143E+01 8.73748E-01 6.69175E-03-5.16976E-01-2.23607E-14 2.49611E-14
 -1      3938 1.95845E+01 5.18161E-01 2.23042E-03-3.42700E-01 9.65907E-14 1.24666E-13
 -1      3939 1.95218E+01 5.53354E-01-2.96408E-03-2.77678E-01 1.08492E-13-1.78397E-14
 -1      3940 1.98814E+01 3.01844E-01 1.46288E-03-3.17492E-01 3.17328E-14 1.17960E-13
 -1      3941 1.97387E+01 4.21756E-01-9.67523E-04-3.74645E-01 9.11490E-14-1.14690E-13
 -1      3942 1.64038E+01-6.21913E-01 4.01026E-02 3.60038E+00-2.65092E-14-5.39794E-14
 -1      3943 1.58249E+01-9.98994E-02-1.22495E-02 3.04494E+00 6.96405E-15-1.13709E-13
 -1      3944 1.76420E+01-8.15256E-01 1.60517E-02 3.25734E+00 2.91937E-14-3.75320E-14
 -1      3945 1.94725E+01 6.07069E-01 1.04496E-03-1.92508E-01 7.91714E-14-6.29291E-14
 -1      3946 1.94369E+01 6.32692E-01-2.31193E-03-1.07308E-01 3.27455E-14 1.65230E-13
 -1      3947 1.94325E+01 6.07605E-01 1.51828E-03-2.72479E-01 1.53094E-13 2.26468E-14
 -1      3948 2.03247E+01 1.21028E+00-1.73168E-03 7.37522E-02 5.67130E-14-4.94415E-14
 -1      3949 2.03743E+01 1.03095E+00 4.37958E-03 3.72478E-02 5.77808E-14-3.40988E-14
 -1      3950 2.03255E+01 1.17191E+00-3.80202E-03 1.29356E-01 7.33443E-14-4.61120E-14
 -1      3951 2.03246E+01 1.13006E+00-8.77262E-04-1.87309E-01 3.99418E-14-3.34279E-14
 -1      3952 2.01369E+01 8.96119E-02 3.22288E-04-2.43157E-01 6.27128E-14 3.48657E-14
 -1      3953 2.01592E+01 8.53662E-02-1.93318E-05-2.26967E-01 9.91655E-14 4.71187E-14
 -1      3954 2.01998E+01 1.02815E-01-8.47468E-05-1.96976E-01 5.38275E-14-1.00421E-14
 -1      3955 2.01897E+01 8.93634E-02 6.25891E-05-2.13076E-01 5.40294E-14 2.44283E-14
 -1      3956 2.02124E+01 1.02760E-01 4.36074E-04-1.93460E-01 2.52197E-14-2.29159E-14
 -1      3957 1.78434E+01 1.36535E+00 1.67208E-02 6.72705E-01-2.73669E-13 5.18747E-14
 -1      3958 2.03046E+01 1.57223E-01 1.96744E-04 1.12489E-01 3.11193E-14-4.71325E-14
 -1      3959 2.02749E+01 1.28729E-01-2.06832E-04 1.30556E-01 1.89398E-14-4.35532E-14
 -1      3960 2.02399E+01 1.11877E-01-6.39884E-05 1.41252E-01 3.87073E-14-5.83889E-14
 -1      3961 2.02072E+01 1.04868E-01 1.07634E-04 1.55916E-01 2.27798E-14-3.01885E-14
 -1      3962 2.02714E+01 1.34309E-01 7.99116E-05 1.06989E-01 2.55659E-14-6.95665E-14
 -1      3963 2.01665E+01 1.06303E-01-3.26365E-04 1.66060E-01-3.58349E-15-7.79022E-15
 -1      3964 2.01319E+01 1.15375E-01 3.46698E-04 1.80358E-01 2.41526E-15 2.91370E-15
 -1      3965 2.01960E+01 1.18032E-01 1.00570E-04 1.28622E-01 5.78149E-15-3.37595E-14
 -1      3966 2.00864E+01 1.30147E-01-6.15170E-04 1.92340E-01-2.75901E-14 1.22709E-14
 -1      3967 2.00501E+01 1.50750E-01 5.32940E-04 2.08857E-01-6.37960E-14 2.87294E-14
 -1      3968 2.01114E+01 1.36271E-01 2.65678E-04 1.51145E-01-1.89352E-14-3.73124E-14
 -1      3969 1.99998E+01 1.74684E-01-9.50460E-04 2.24896E-01-3.75793E-14 1.17514E-13
 -1      3970 1.99621E+01 2.02890E-01 7.33138E-04 2.45992E-01-5.75592E-15 1.83350E-13
 -1      3971 2.00183E+01 1.79397E-01 4.23228E-04 1.78945E-01 1.18999E-14 8.37963E-14
 -1      3972 1.99066E+01 2.32058E-01-1.29837E-03 2.68481E-01-9.74518E-15 1.68177E-13
 -1      3973 1.98678E+01 2.63754E-01 9.80228E-04 2.96474E-01 7.54349E-15 1.54205E-13
 -1      3974 1.99162E+01 2.39224E-01 5.31440E-04 2.16423E-01 1.56949E-14 1.77323E-13
 -1      3975 1.98069E+01 2.93732E-01-1.64071E-03 3.27936E-01 7.15118E-15 1.40110E-13
 -1      3976 1.97681E+01 3.24228E-01 1.33966E-03 3.65084E-01 1.21201E-14 1.52763E-13
 -1      3977 1.98047E+01 3.07726E-01 6.96240E-04 2.68781E-01-2.08438E-14 7.15863E-14
 -1      3978 1.97021E+01 3.49752E-01-1.97489E-03 4.08519E-01 3.70986E-14 1.43648E-13
 -1      3979 1.96656E+01 3.73160E-01 1.87471E-03 4.57226E-01-5.60533E-15 1.99346E-13
 -1      3980 1.96837E+01 3.75250E-01 7.70254E-04 3.41528E-01 5.86521E-14 7.59509E-14
 -1      3981 1.95960E+01 3.87387E-01-2.25874E-03 5.16245E-01-7.36209E-14 2.45183E-13
 -1      3982 1.95662E+01 3.95945E-01 2.66472E-03 5.79055E-01-9.61317E-14 2.66739E-13
 -1      3983 1.95546E+01 4.29985E-01 6.69214E-04 4.41682E-01-1.08114E-14 1.08506E-13
 -1      3984 1.94968E+01 3.89846E-01-2.41343E-03 6.57939E-01-9.75988E-14 3.39639E-13
 -1      3985 1.94814E+01 3.73284E-01 3.79482E-03 7.37351E-01-1.73517E-14 3.12622E-13
 -1      3986 1.94223E+01 4.56270E-01 2.62109E-04 5.77806E-01-5.04361E-14 2.76784E-13
 -1      3987 1.94192E+01 3.35067E-01-2.28423E-03 8.40913E-01-2.61482E-16 2.73418E-13
 -1      3988 1.94307E+01 2.79996E-01 5.31928E-03 9.38789E-01-1.79456E-14 2.67110E-13
 -1      3989 1.92968E+01 4.33114E-01-6.64792E-04 7.60183E-01-6.85466E-14 3.01151E-13
 -1      3990 1.93888E+01 1.94741E-01-1.57210E-03 1.07159E+00-3.47793E-14 1.94145E-13
 -1      3991 1.94458E+01 8.44115E-02 7.25514E-03 1.18768E+00-2.38701E-14 2.03711E-13
 -1      3992 1.91968E+01 3.32441E-01-2.47009E-03 1.00030E+00-4.48117E-14 1.64723E-13
 -1      3993 1.94460E+01-6.53106E-02 2.69200E-04 1.35236E+00 5.90923E-15 2.51210E-13
 -1      3994 1.95747E+01-2.51024E-01 9.11553E-03 1.48156E+00 4.48541E-14 2.86180E-13
 -1      3995 1.91539E+01 1.18285E-01-5.70518E-03 1.30809E+00 2.54803E-14 2.13824E-13
 -1      3996 1.96573E+01-4.84885E-01 4.97008E-03 1.67377E+00 6.05880E-14 2.92288E-13
 -1      3997 1.98949E+01-7.65321E-01 1.16349E-02 1.79884E+00 6.11781E-14 2.70189E-13
 -1      3998 1.92209E+01-2.59106E-01-1.19557E-02 1.69184E+00 6.11035E-14 2.20526E-13
 -1      3999 2.01087E+01-1.09350E+00 1.35631E-02 2.00042E+00 3.13049E-14 2.77510E-13
 -1      4000 2.04532E+01-1.50151E+00-2.39237E-03 2.09901E+00-4.07131E-14 2.70877E-13
 -1      4001 1.94869E+01-8.34154E-01-1.59406E-02 2.12783E+00 6.60826E-14 2.40587E-13
 -1      4002 2.03744E+01 1.03248E+00 4.67895E-03-3.64029E-02 1.77853E-14-6.95670E-14
 -1      4003 2.03226E+01 1.21220E+00-2.06502E-03-7.11711E-02 3.43746E-14-4.57438E-14
 -1      4004 2.03258E+01 1.17999E+00-2.57780E-03-1.26499E-01 2.21853E-14-3.16515E-14
 -1      4005 2.07584E+01-1.73473E+00 3.52875E-03-2.13063E+00-5.23579E-14-2.77621E-13
 -1      4006 2.03196E+01-1.31841E+00 1.32920E-02-2.07148E+00-1.37871E-13-1.27897E-13
 -1      4007 2.00367E+01-9.47134E-01 9.18332E-03-1.89043E+00-6.81061E-14-7.10652E-14
 -1      4008 1.97685E+01-6.31432E-01 7.33055E-03-1.76862E+00-9.37603E-14-1.83972E-14
 -1      4009 1.96392E+01-1.05911E+00-2.40636E-02-2.25740E+00-1.85208E-14-1.16345E-13
 -1      4010 1.96504E+01-3.71169E-01 8.77587E-03-1.57443E+00-7.55239E-15-3.77692E-14
 -1      4011 1.94947E+01-1.54808E-01 9.73946E-04-1.44206E+00 8.00748E-14-6.37419E-14
 -1      4012 1.92816E+01-3.97744E-01-1.52611E-02-1.81315E+00-3.07327E-14-4.96140E-14
 -1      4013 1.94770E+01 2.04235E-02 7.88120E-03-1.26664E+00-5.58037E-14-7.39334E-14
 -1      4014 1.94021E+01 1.53643E-01-1.31457E-03-1.14426E+00-1.13736E-13-1.47353E-13
 -1      4015 1.91672E+01 4.82802E-02-6.29051E-03-1.40984E+00 3.60369E-14-9.70353E-14
 -1      4016 1.94348E+01 2.59730E-01 5.79727E-03-1.00151E+00-9.25526E-14-9.47532E-14
 -1      4017 1.94123E+01 3.34042E-01-2.09921E-03-8.96327E-01-9.60583E-15-8.37098E-14
 -1      4018 1.91862E+01 3.09759E-01-2.45032E-03-1.07788E+00-7.63073E-14 1.49850E-14
 -1      4019 1.94684E+01 3.91058E-01 4.17328E-03-7.83858E-01 4.17025E-14 4.33275E-14
 -1      4020 1.94769E+01 4.24848E-01-2.07634E-03-6.96101E-01-9.69821E-14 5.09028E-14
 -1      4021 1.92726E+01 4.50275E-01-7.85426E-05-8.18074E-01 6.60871E-15 2.01790E-13
 -1      4022 1.95427E+01 4.46562E-01 3.05441E-03-6.08286E-01-1.82347E-13 1.12324E-13
 -1      4023 1.95681E+01 4.57473E-01-2.27437E-04-5.38837E-01-1.74208E-13-1.15677E-14
 -1      4024 1.93861E+01 5.03384E-01-1.29299E-03-6.16996E-01-1.38463E-13-2.20162E-14
 -1      4025 2.03564E+01 2.55145E-01 3.65249E-04 7.37431E-02 2.72801E-14-6.86105E-14
 -1      4026 2.03317E+01 1.98450E-01-6.29593E-04 9.87693E-02 3.24272E-14-4.10064E-14
 -1      4027 2.03351E+01 1.96524E-01 3.18278E-04 8.17641E-02 1.65110E-14-7.91266E-14
 -1      4028 1.59730E+01 1.82207E-01 3.67264E-02-2.77733E+00-1.52271E-13 4.64926E-13
 -1      4029 1.69573E+01-4.43310E-01-2.59723E-02-3.04303E+00-3.06474E-14 5.65881E-13
 -1      4030 1.71885E+01 1.36432E+00-1.52222E-02-2.66386E-01-1.03774E-13-2.05969E-13
 -1      4031 1.76061E+01 1.31157E+00-7.21312E-03-2.82390E-01-6.19635E-14-1.87934E-13
 -1      4032 1.79520E+01 1.23741E+00-9.63856E-03-3.38765E-01-6.30268E-14-1.37230E-13
 -1      4033 1.82535E+01 1.16135E+00-5.24908E-03-3.42918E-01-1.04930E-13-8.30891E-14
 -1      4034 1.77416E+01 1.26481E+00 1.42229E-02-7.05504E-03-4.48590E-14-1.80881E-13
 -1      4035 1.92055E+01 8.27645E-01-2.48156E-03 3.59865E-01 7.23700E-14 2.05334E-14
 -1      4036 1.90582E+01 9.01085E-01-3.81276E-03 3.85624E-01 2.48078E-13 7.70438E-14
 -1      4037 1.50343E+01 9.67859E-01 5.55421E-02-1.85404E+00-2.95120E-13 1.84741E-13
 -1      4038 1.54335E+01 4.86682E-01-2.73464E-03-2.42375E+00-1.54716E-13 4.49221E-13
 -1      4039 1.63576E+01 4.86495E-01 2.08320E-02-2.17278E+00-1.58600E-13 4.75678E-13
 -1      4040 1.88762E+01 9.77663E-01-4.16551E-03 3.83996E-01 2.21971E-13 6.20545E-14
 -1      4041 1.86773E+01 1.05728E+00-5.76366E-03 4.01510E-01 1.33932E-13 1.53133E-13
 -1      4042 1.89067E+01 9.57594E-01 5.32172E-03 2.27301E-01 1.97699E-13 3.31029E-13
 -1      4043 2.49313E+01-2.14683E-01-9.16326E-02-1.82592E+00-1.64330E-13 1.81721E-13
 -1      4044 2.02824E+01 2.10676E-01-7.12445E-04-1.19997E-01 5.52724E-14-9.25056E-15
 -1      4045 2.03043E+01 2.75219E-01 1.09420E-03-7.84991E-02 5.30523E-14-1.74141E-14
 -1      4046 2.03441E+01 3.59418E-01-4.95797E-05-4.35775E-02 2.75816E-14-3.52307E-14
 -1      4047 1.89343E+01 9.08412E-01-4.40995E-03-3.77586E-01-5.63709E-14 8.43211E-14
 -1      4048 1.90992E+01 8.24745E-01-3.06441E-03-3.61631E-01 2.15229E-14 6.49371E-14
 -1      4049 1.98293E+01 3.35894E-01-4.39055E-04-2.72245E-01 5.38672E-15 9.00086E-14
 -1      4050 1.98849E+01 2.85183E-01-1.23436E-03-2.54444E-01-1.28626E-14 7.19176E-14
 -1      4051 1.94221E+01 6.64529E-01-5.20168E-05-3.83951E-03-1.17478E-13 3.63757E-13
 -1      4052 1.94240E+01 6.74875E-01-1.09752E-03 8.91618E-02-6.55262E-14 5.00028E-13
 -1      4053 1.93535E+01 6.89387E-01 2.37825E-03-7.77266E-02-2.28030E-14 2.34245E-13
 -1      4054 2.00793E+01 1.19708E-01 4.68570E-04-2.72126E-01-2.35024E-14 7.84484E-14
 -1      4055 2.01022E+01 1.01024E-01-4.59813E-04-2.55733E-01 8.59958E-15 5.75611E-14
 -1      4056 2.01355E+01 1.09419E-01 6.97621E-05-2.24634E-01 4.36677E-14 5.53189E-14
 -1      4057 2.00635E+01 1.47542E-01 3.59829E-04-2.51390E-01-1.12841E-14 7.42702E-14
 -1      4058 1.94496E+01 6.75695E-01-9.35182E-04 1.84137E-01-4.27515E-14 5.51644E-13
 -1      4059 1.94889E+01 6.65599E-01-1.10087E-03 2.77815E-01-2.28474E-15 1.29371E-13
 -1      4060 1.94284E+01 7.06532E-01-4.92497E-04 3.08357E-01-5.75614E-14 1.67162E-13
 -1      4061 1.93525E+01 7.23459E-01 1.41048E-03 1.25811E-01-1.13040E-14 4.00554E-13
 -1      4062 1.96663E+01 4.40546E-01-1.64103E-03-4.35099E-01-1.01984E-14 2.63163E-14
 -1      4063 2.22636E+01-2.85005E+00 1.56619E-02-2.17881E+00 9.99595E-14-2.95505E-13
 -1      4064 2.16350E+01-2.48028E+00 2.15046E-02-2.29743E+00 5.49772E-14-3.35760E-13
 -1      4065 2.02387E+01 1.26169E-01-3.00042E-04-1.74956E-01 4.33789E-14-1.94404E-14
 -1      4066 2.02616E+01 1.61875E-01 8.08425E-04-1.47269E-01 5.33894E-14-9.91537E-15
 -1      4067 2.03072E+01 2.15306E-01-2.22398E-04-1.14520E-01 5.04143E-14-2.84727E-14
 -1      4068 2.02575E+01 1.34490E-01-2.15510E-04-1.62787E-01 3.99907E-14-3.53583E-15
 -1      4069 2.03368E+01 1.03910E+00-3.01596E-03 1.95580E-01 8.25693E-14-2.03231E-14
 -1      4070 2.03349E+01 1.11160E+00-4.93150E-04 1.53235E-01 6.94035E-14-2.61626E-14
 -1      4071 2.03768E+01 9.48875E-01 3.73556E-03 9.20718E-02 5.32819E-14-3.19309E-14
 -1      4072 2.03684E+01 8.05661E-01 1.52017E-03 1.15329E-01 5.31385E-14-9.28619E-15
 -1      4073 1.84379E+01 1.13767E+00-5.10080E-03 3.84319E-01-5.60869E-14 6.57932E-14
 -1      4074 1.81668E+01 1.21319E+00-8.57972E-03 3.92425E-01-2.68554E-13 5.94657E-14
 -1      4075 1.84992E+01 1.11381E+00 1.08648E-02 1.87144E-01-8.91179E-14 1.34056E-13
 -1      4076 2.03878E+01 4.21563E-01 1.53357E-04 1.90274E-02 8.14701E-15-7.79715E-14
 -1      4077 2.03728E+01 3.28657E-01-9.50719E-04 5.42732E-02-2.38385E-15-6.99456E-14
 -1      4078 2.03818E+01 3.17644E-01 5.26374E-04 4.78832E-02 1.51549E-14-1.11156E-13
 -1      4079 2.03647E+01 9.68013E-01 2.45003E-03-1.28082E-01 1.11866E-14-4.00160E-14
 -1      4080 1.92525E+01 7.42681E-01-2.88536E-03-3.61640E-01 6.38636E-14 1.02425E-13
 -1      4081 1.93754E+01 6.64138E-01-2.47890E-03-3.41367E-01 7.87667E-14 9.52286E-14
 -1      4082 1.91279E+01 8.01252E-01 5.49543E-03-2.33403E-01 5.61031E-14 1.21549E-13
 -1      4083 2.05138E+01-1.90661E+00-1.79600E-03 2.52220E+00 1.92429E-14 3.11252E-13
 -1      4084 1.78468E+01 1.29041E+00-6.60298E-03 3.53052E-01-3.25775E-13 8.23167E-14
 -1      4085 1.74688E+01 1.34493E+00-1.53551E-02 3.54378E-01-2.14818E-13 2.61639E-14
 -1      4086 1.79524E+01 1.25613E+00 1.39528E-02 9.60690E-02-2.65029E-13-4.99969E-14
 -1      4087 1.85135E+01 1.07808E+00-6.49601E-03-3.73256E-01-1.20947E-13 1.29925E-14
 -1      4088 1.87358E+01 9.94128E-01-3.90008E-03-3.65592E-01-9.00110E-14 5.25692E-14
 -1      4089 1.87829E+01 9.63709E-01 7.53471E-03-2.02364E-01-2.04208E-14 4.38361E-14
 -1      4090 1.52967E+01 4.91045E-01 3.33918E-02 2.52186E+00-2.73869E-14-1.95143E-13
 -1      4091 1.48591E+01 8.87845E-01-2.90071E-02 1.69348E+00 2.04589E-14-2.55133E-13
 -1      4092 1.64720E+01 2.02340E-01 2.35846E-02 2.53490E+00 2.32106E-14-1.21908E-13
 -1      4093 1.93950E+01 6.46177E-01 3.98054E-03-2.39825E-01 1.08814E-13 8.77272E-14
 -1      4094 1.94951E+01 5.89253E-01-1.77272E-03-3.34464E-01 1.48917E-13 8.22863E-14
 -1      4095 1.95875E+01 5.18589E-01-2.01333E-03-3.13142E-01 1.33071E-13 1.27322E-13
 -1      4096 1.62735E+01 1.40498E+00-2.06923E-02-5.08449E-02-9.42510E-14-1.59662E-13
 -1      4097 1.67965E+01 1.40007E+00-7.69565E-03-1.40768E-01-1.33421E-13-1.80643E-13
 -1      4098 1.70069E+01 1.35726E+00 1.95137E-02 2.31848E-01-1.21784E-13-1.32560E-13
 -1      4099 2.03898E+01 8.66584E-01-1.96519E-03-9.55785E-03 3.33709E-14-2.61113E-14
 -1      4100 2.03885E+01 8.50264E-01-2.69664E-03-4.06569E-02-4.01021E-15-3.66798E-14
 -1      4101 2.06365E+01-1.95942E+00-5.52333E-03-2.46291E+00-8.61030E-15-2.55701E-13
 -1      4102 1.98402E+01-1.59570E+00 1.70034E-02-2.80130E+00 3.01165E-14-1.90369E-14
 -1      4103 2.02043E+01 1.08799E-01-9.08284E-05-1.75288E-01 4.06295E-14 3.12586E-14
 -1      4104 2.02359E+01 1.15737E-01 1.56295E-04-1.59883E-01 6.61580E-15 1.26132E-14
 -1      4105 2.03903E+01 6.06404E-01-8.82201E-04-4.26803E-02 3.24218E-14-7.19682E-14
 -1      4106 2.03884E+01 5.08466E-01-1.19949E-03-1.57818E-03 3.38257E-14-6.32875E-14
 -1      4107 2.04024E+01 4.87189E-01 8.12475E-04 6.73588E-03 3.26879E-15-1.39995E-13
 -1      4108 1.94632E+01 5.32573E-01-2.62744E-03-4.44058E-01-1.65014E-13-4.34182E-14
 -1      4109 1.95832E+01 4.80498E-01 4.73088E-04-4.54673E-01-1.79531E-13 1.00747E-14
 -1      4110 2.36001E+01-2.84644E+00 9.23452E-03 9.76865E-01 1.59686E-13 3.34887E-13
 -1      4111 2.32793E+01-2.99964E+00 3.54559E-02 1.53844E+00 1.21572E-13 3.24485E-13
 -1      4112 1.50839E+01 1.17630E+00-2.63536E-02-8.50240E-01-2.44478E-13-1.64591E-14
 -1      4113 2.03779E+01 8.22679E-01-2.15771E-04-7.79282E-02 6.89601E-15-3.86893E-14
 -1      4114 1.83331E+01 1.12341E+00 1.03315E-02-1.33057E-01-5.48743E-14-1.24073E-13
 -1      4115 1.50355E+01 1.38146E+00-2.15092E-02 2.14659E-01-7.89768E-14-1.03619E-13
 -1      4116 1.57433E+01 1.42831E+00-5.04909E-03 8.02177E-02-1.13626E-13-1.43042E-13
 -1      4117 1.60854E+01 1.34364E+00 1.17965E-02 5.81145E-01-1.25463E-13-1.81286E-13
 -1      4118 1.48486E+01 1.30447E+00 4.39817E-02 9.83709E-01 1.17658E-14-2.34331E-13
 -1      4119 1.70816E+01 1.39314E+00-5.23411E-03 2.09271E-01-2.05039E-13 6.73298E-14
 -1      4120 1.64893E+01 1.41634E+00-3.19874E-02 1.11933E-01-2.34702E-13 1.11863E-13
 -1      4121 1.72350E+01 1.35789E+00 1.63883E-02-1.39920E-01-1.51377E-13 2.88707E-13
 -1      4122 1.79744E+01-8.01460E-01 4.54519E-02-3.16944E+00-1.62563E-14 5.35963E-13
 -1      4123 1.89197E+01-1.29217E+00-1.76378E-02-2.98861E+00 2.58816E-14 3.00263E-13
 -1      4124 1.91778E+01-1.09737E+00 1.63791E-03-2.66823E+00-2.21784E-15 1.26542E-13
 -1      4125 1.75716E+01-3.07990E-01 7.33121E-03-2.70543E+00-8.62132E-14 4.27722E-13
 -1      4126 1.96822E+01 4.52786E-01-9.81891E-04-3.03090E-01 5.36300E-14 1.12872E-13
 -1      4127 1.97529E+01 3.91559E-01-1.60593E-03-2.82949E-01 2.75451E-14 8.34998E-14
 -1      4128 1.96042E+01 5.04746E-01 2.83094E-03-2.32037E-01 8.26431E-14 3.97143E-14
 -1      4129 1.97706E+01 3.80923E-01 1.95376E-03-2.17354E-01 2.05169E-14 1.92804E-14
 -1      4130 1.99478E+01 2.40511E-01-8.65338E-05-2.44414E-01-1.69229E-14 6.75549E-14
 -1      4131 1.99929E+01 2.00936E-01-1.03944E-03-2.29154E-01-2.06382E-14 7.59242E-14
 -1      4132 1.99062E+01 2.77795E-01 1.45434E-03-2.00302E-01-1.72232E-14 2.72898E-14
 -1      4133 1.93771E+01 6.07463E-01 1.79847E-03-3.62147E-01-1.11979E-14-6.38770E-14
 -1      4134 1.92999E+01 6.52809E-01-4.00101E-03-2.79814E-01 5.10210E-14 4.00859E-14
 -1      4135 1.93524E+01 5.86978E-01 1.51494E-03-4.54242E-01-2.01936E-13-2.28518E-13
 -1      4136 2.03783E+01 6.40131E-01-1.12907E-03 6.71953E-02 3.58577E-14-1.97679E-14
 -1      4137 2.03862E+01 7.17786E-01 6.86245E-04 6.42218E-02 4.85834E-14-1.06932E-14
 -1      4138 2.03765E+01 5.09568E-01-5.53518E-05 7.98892E-03 2.33498E-14-3.44781E-14
 -1      4139 2.01305E+01 1.22986E-01 4.40400E-06-1.98009E-01 2.23565E-14 5.74727E-14
 -1      4140 2.01651E+01 1.11846E-01-1.55053E-04-1.84470E-01 6.31175E-14 3.84885E-14
 -1      4141 2.01987E+01 1.22633E-01 2.51954E-04-1.48652E-01 4.46557E-14 1.12807E-13
 -1      4142 2.03883E+01 8.50725E-01-2.41614E-03 4.07791E-02 6.78318E-14-2.83107E-14
 -1      4143 2.03906E+01 8.67219E-01-1.53083E-03 1.03264E-02 7.03611E-14-2.36935E-14
 -1      4144 2.04160E+01 7.21914E-01 2.74318E-03 1.65330E-03 5.53743E-14 2.19372E-15
 -1      4145 1.56838E+01 1.61769E+00 5.95904E-02 4.35828E-01-1.57465E-13 2.85926E-14
 -1      4146 1.93579E+01 7.48231E-01-1.64638E-03 3.40180E-01-4.09322E-14 8.67229E-14
 -1      4147 1.92369E+01 7.99217E-01 2.42436E-03 2.28436E-01 8.26074E-14 3.16639E-13
 -1      4148 1.91957E+01 7.92287E-01-2.48074E-03 1.27815E-01 3.82684E-14 4.90609E-13
 -1      4149 1.59207E+01 1.26738E+00-2.81004E-03-6.00558E-01-3.62804E-13 9.48937E-14
 -1      4150 2.02212E+01 1.22228E-01-4.54540E-04 8.60281E-02 2.69127E-14-6.40642E-14
 -1      4151 2.01814E+01 1.24812E-01 1.91333E-04 9.72240E-02 1.62130E-15-3.51722E-14
 -1      4152 2.01335E+01 1.34341E-01-5.14773E-04 1.03750E-01-2.01528E-14-5.26630E-15
 -1      4153 2.00893E+01 1.51977E-01 2.13894E-04 1.15751E-01-2.93161E-14-1.63059E-14
 -1      4154 2.01593E+01 1.39354E-01 3.49120E-04 6.14673E-02 6.32299E-15-4.97660E-14
 -1      4155 2.00351E+01 1.75010E-01-7.69108E-04 1.25166E-01 2.57270E-14 6.83251E-15
 -1      4156 1.99870E+01 2.03889E-01 3.86732E-04 1.40420E-01 7.80843E-14 5.42845E-14
 -1      4157 2.00600E+01 1.75841E-01 7.95710E-04 7.71512E-02 3.43889E-14 8.96923E-15
 -1      4158 1.99247E+01 2.36267E-01-1.33660E-03 1.54714E-01 5.01238E-14 2.12028E-14
 -1      4159 1.98734E+01 2.73313E-01 7.61804E-04 1.75930E-01-7.22655E-15 4.26764E-14
 -1      4160 1.99469E+01 2.37640E-01 1.21285E-03 1.00023E-01 5.86178E-14-5.92825E-14
 -1      4161 1.98022E+01 3.10129E-01-1.91807E-03 1.97170E-01-2.96928E-14 6.28843E-14
 -1      4162 1.97472E+01 3.51046E-01 1.07094E-03 2.26445E-01-1.09242E-15 7.20551E-14
 -1      4163 1.98207E+01 3.15623E-01 1.92089E-03 1.33953E-01 2.69966E-14-1.19221E-14
 -1      4164 1.96657E+01 3.88713E-01-2.53381E-03 2.58079E-01 3.43093E-14 8.22661E-14
 -1      4165 1.96074E+01 4.28833E-01 1.59484E-03 2.98626E-01 6.23417E-14 1.02469E-13
 -1      4166 1.96770E+01 4.03105E-01 2.59790E-03 1.84213E-01 7.79971E-15 8.05533E-14
 -1      4167 1.95141E+01 4.61759E-01-3.27759E-03 3.44739E-01 4.81450E-14 1.02087E-13
 -1      4168 1.94546E+01 4.95150E-01 2.42987E-03 4.00565E-01 1.96132E-15 1.58994E-13
 -1      4169 1.95137E+01 4.90827E-01 3.21822E-03 2.58332E-01 4.89793E-14 9.21062E-14
 -1      4170 1.93486E+01 5.16033E-01-4.14532E-03 4.66605E-01 8.59672E-15 1.66576E-13
 -1      4171 1.92924E+01 5.34706E-01 3.71631E-03 5.42721E-01 3.30960E-14 2.88908E-13
 -1      4172 1.93290E+01 5.67156E-01 3.68463E-03 3.66166E-01 6.19616E-14 1.09472E-13
 -1      4173 1.91742E+01 5.33684E-01-5.11785E-03 6.35823E-01-6.52334E-14 3.31026E-13
 -1      4174 1.91291E+01 5.26755E-01 5.62979E-03 7.38338E-01-6.69978E-14 2.75849E-13
 -1      4175 1.91231E+01 6.16286E-01 3.81092E-03 5.20960E-01 6.02518E-15 1.87780E-13
 -1      4176 1.90016E+01 4.90587E-01-6.10173E-03 8.67596E-01-6.24001E-14 3.02090E-13
 -1      4177 1.89817E+01 4.43359E-01 8.54583E-03 1.00338E+00-4.93906E-14 2.52296E-13
 -1      4178 1.88998E+01 6.16163E-01 3.16620E-03 7.40103E-01-4.00830E-14 3.00424E-13
 -1      4179 1.88531E+01 3.52811E-01-7.14010E-03 1.18014E+00-1.59935E-14 2.10636E-13
 -1      4180 1.88772E+01 2.43773E-01 1.07001E-02 1.35540E+00 5.57428E-14 1.87380E-13
 -1      4181 1.86692E+01 5.35418E-01 6.32683E-04 1.04602E+00-4.93481E-14 1.45682E-13
 -1      4182 1.87705E+01 8.99547E-02-3.65964E-03 1.58547E+00 6.78268E-14 9.41712E-14
 -1      4183 1.88592E+01-1.14770E-01 1.17213E-02 1.80946E+00 3.64111E-14 9.05207E-14
 -1      4184 1.84641E+01 3.25652E-01-4.05698E-03 1.46032E+00-2.24563E-14 5.99113E-14
 -1      4185 1.88363E+01-3.90417E-01 1.13526E-03 2.11154E+00 4.32726E-14 4.69647E-14
 -1      4186 1.90364E+01-7.13638E-01 1.61154E-02 2.35787E+00 3.15752E-14 4.41345E-14
 -1      4187 1.83029E+01-4.52067E-02-1.44561E-02 2.00667E+00-1.65026E-14-1.10238E-14
 -1      4188 2.02707E+01 1.40023E-01 7.17205E-05-1.26597E-01 5.91163E-15 2.20364E-14
 -1      4189 2.02686E+01 1.33287E-01-2.59488E-04-1.47618E-01 2.30567E-14-2.56537E-15
 -1      4190 2.02977E+01 1.62630E-01 4.60044E-04-1.26762E-01 5.49955E-14-9.71682E-15
 -1      4191 2.23446E+01-2.80998E+00-2.05235E-02 1.90693E+00 1.81008E-13 3.56047E-13
 -1      4192 2.03601E+01 2.24668E-01-8.12598E-05 4.96109E-02 3.49877E-14-5.75697E-14
 -1      4193 2.03321E+01 1.79295E-01-2.20630E-04 6.44524E-02 2.39508E-14-4.41595E-14
 -1      4194 1.89070E+01-2.62893E-01 1.03781E-02-1.96042E+00-2.39150E-14 1.01809E-13
 -1      4195 1.87636E+01-1.57733E-02-8.60034E-03-1.73734E+00-6.74096E-14 1.09766E-13
 -1      4196 1.88741E+01 1.76943E-01 1.26087E-02-1.46754E+00-7.76263E-14-5.73038E-14
 -1      4197 1.88249E+01 3.05014E-01-1.01196E-02-1.28719E+00-1.64968E-14-1.49472E-13
 -1      4198 1.84251E+01 2.99078E-01 1.03427E-02-1.58895E+00-1.55617E-13-5.77012E-15
 -1      4199 1.89545E+01 4.20340E-01 8.38370E-03-1.08866E+00 3.35926E-14-2.25209E-13
 -1      4200 1.89633E+01 4.85806E-01-7.84114E-03-9.47501E-01-6.56587E-14-7.08765E-14
 -1      4201 1.86276E+01 5.39952E-01 1.24404E-02-1.14246E+00-2.40827E-14-3.02774E-13
 -1      4202 1.90903E+01 5.38530E-01 4.25436E-03-7.98984E-01-8.97416E-15-8.06729E-14
 -1      4203 1.91329E+01 5.64724E-01-5.22613E-03-6.94394E-01 3.31208E-15-1.32379E-13
 -1      4204 1.88499E+01 6.55492E-01 1.22793E-02-8.10582E-01-1.39968E-13-3.30117E-13
 -1      4205 1.92189E+01 5.92535E-01 4.71346E-03-6.03489E-01-1.18735E-13-2.24620E-13
 -1      4206 1.92791E+01 5.92926E-01-4.68058E-04-5.17590E-01-1.91175E-13-3.06238E-13
 -1      4207 1.91797E+01 6.64503E-01 1.13115E-03-4.37652E-01-1.37095E-13-2.39553E-13
 -1      4208 1.90347E+01 6.80540E-01 6.58425E-03-5.85095E-01 1.59185E-14-2.94288E-13
 -1      4209 2.04007E+01 3.65040E-01-4.44636E-04 2.27522E-02 3.14223E-14-7.39935E-14
 -1      4210 2.03831E+01 2.86272E-01-4.75315E-04 4.26023E-02 3.41672E-14-6.79324E-14
 -1      4211 2.03796E+01 2.69958E-01 5.62566E-04 2.58806E-02 4.86809E-14-4.65692E-14
 -1      4212 2.03918E+01 7.83004E-01 4.12066E-04-4.84781E-02-1.23044E-15-5.82831E-14
 -1      4213 1.75706E+01 1.15948E+00-1.44393E-02 3.20335E-01-7.24712E-14-7.20994E-14
 -1      4214 1.79366E+01 1.12774E+00 3.96544E-04 2.19784E-01-1.16202E-14-3.18491E-14
 -1      4215 1.91954E+01 7.66160E-01 6.77330E-04-3.60840E-02 1.43406E-14 5.08032E-13
 -1      4216 1.90546E+01 8.49922E-01 2.39667E-04 6.69267E-02 1.29507E-13 5.32276E-13
 -1      4217 1.64975E+01 6.96147E-01-1.60005E-02-1.77174E+00-2.77889E-13 3.17655E-13
 -1      4218 1.69405E+01 3.53392E-01-1.58683E-02-2.12789E+00-2.42904E-13 5.26859E-13
 -1      4219 1.88683E+01 9.12794E-01-5.85865E-03 4.16732E-02 1.50727E-13 3.56195E-13
 -1      4220 2.04128E+01 6.48788E-01 2.00614E-03-1.63819E-02-7.31563E-15-5.58560E-14
 -1      4221 2.00462E+01 1.68793E-01 8.99918E-05-2.20023E-01-3.66176E-15 7.99432E-14
 -1      4222 2.00851E+01 1.42285E-01-4.78234E-04-2.06117E-01 5.44943E-15 7.65460E-14
 -1      4223 2.00180E+01 1.98476E-01 7.94722E-04-1.83578E-01-2.58409E-14 7.58030E-14
 -1      4224 1.89385E+01-6.79417E-01 5.16998E-03-2.38452E+00-4.34982E-15 1.10073E-13
 -1      4225 1.85984E+01-1.07021E+00 3.57712E-02 3.09604E+00 6.10033E-14-3.08440E-14
 -1      4226 1.79379E+01-6.59359E-01-1.41153E-02 2.87977E+00 1.04076E-13-3.07297E-14
 -1      4227 1.85926E+01 1.01637E+00-2.38615E-03 1.20205E-02-3.00264E-14 3.15257E-13
 -1      4228 1.83378E+01 1.07023E+00-1.20596E-02-3.57439E-02-2.37497E-13 2.10513E-13
 -1      4229 1.92155E+01 7.37406E-01 1.29098E-03-1.40698E-01 1.46931E-13 3.60255E-13
 -1      4230 1.93763E+01-1.39000E+00 9.77811E-03 2.86766E+00 6.29869E-14 2.21295E-13
 -1      4231 2.03553E+01 3.11349E-01-5.01537E-05-6.75713E-02 1.93467E-14-6.50576E-14
 -1      4232 2.03710E+01 3.97519E-01-5.22277E-04-2.55484E-02 2.85926E-14-6.50961E-14
 -1      4233 2.03896E+01 4.54658E-01 4.24837E-04-1.45073E-02 5.10340E-14-6.97404E-14
 -1      4234 1.97149E+01 4.05334E-01-1.56271E-03-1.52398E-01 7.30689E-14-4.00524E-14
 -1      4235 1.97922E+01 3.50660E-01-7.80826E-04-1.46591E-01 1.69981E-14-3.09705E-14
 -1      4236 2.02978E+01 1.48649E-01-2.16740E-04 6.90818E-02 2.61737E-14-4.93007E-14
 -1      4237 2.02633E+01 1.30597E-01 1.93025E-04 8.14917E-02 3.96555E-14-3.02165E-14
 -1      4238 2.03222E+01 1.75483E-01 1.00433E-04 3.76428E-02 2.44896E-14-3.66393E-14
 -1      4239 1.86500E+01 9.45367E-01-7.94275E-03-1.84849E-02 2.02933E-14-3.19237E-14
 -1      4240 1.88590E+01 8.79618E-01-8.00162E-04-5.24503E-02 3.27011E-14 2.98924E-14
 -1      4241 2.03888E+01 7.54270E-01-2.44052E-03 6.30649E-02 4.81589E-14-3.71889E-14
 -1      4242 2.03903E+01 8.18449E-01-2.73855E-04 4.87769E-02 5.49965E-14-7.38503E-14
 -1      4243 2.04135E+01 6.83451E-01 2.01418E-03 1.73514E-02 6.84637E-14-6.07687E-14
 -1      4244 2.04038E+01 6.06320E-01 4.47117E-04 1.95508E-02 5.26687E-14-6.91508E-14
 -1      4245 1.81801E+01 1.06973E+00-1.10398E-02 1.11842E-01-1.57962E-14-1.02669E-13
 -1      4246 1.84551E+01 1.01565E+00-4.30685E-04 5.11421E-02 4.57292E-15-2.91598E-14
 -1      4247 1.81344E+01 1.02478E+00 7.58810E-03 4.21548E-01-5.23187E-14-3.40950E-14
 -1      4248 1.90161E+01 8.05398E-01-5.52461E-03-9.44878E-02 1.37727E-14 8.40466E-14
 -1      4249 1.91760E+01 7.35976E-01-9.65999E-04-1.10304E-01 7.50006E-14 9.16812E-14
 -1      4250 1.89504E+01 8.22022E-01 5.86346E-03 7.88326E-02 6.25601E-14 4.55726E-14
 -1      4251 1.81086E+01 1.13028E+00-1.47187E-03-1.20296E-01-2.33176E-13 1.77886E-13
 -1      4252 1.77631E+01 1.16975E+00-1.61633E-02-2.06839E-01-1.02938E-13 2.82909E-13
 -1      4253 1.82877E+01 1.06974E+00 1.87470E-02-3.08123E-01-1.19655E-13 4.03647E-13
 -1      4254 1.93037E+01 6.63205E-01-3.75829E-03-1.33864E-01 8.46954E-14 3.44766E-14
 -1      4255 1.94273E+01 5.95470E-01-1.00060E-03-1.38163E-01 8.92630E-14 9.10841E-15
 -1      4256 1.92405E+01 6.92743E-01 4.76896E-03-2.63328E-03 5.04065E-14 4.75779E-14
 -1      4257 1.75590E+01 1.18772E+00 9.70777E-03-3.86764E-01-1.89348E-13 2.91457E-13
 -1      4258 1.71134E+01 1.14999E+00-2.53419E-02-6.09336E-01-2.57219E-13 2.54258E-13
 -1      4259 1.77982E+01 1.09098E+00 2.07189E-02-6.23670E-01-1.64082E-13 4.04210E-13
 -1      4260 2.02474E+01 1.35949E-01 2.86376E-05 4.91972E-02 2.01895E-14-4.34879E-14
 -1      4261 2.02674E+01 1.34937E-01-4.37014E-04-1.03036E-01 9.40474E-15 2.39657E-14
 -1      4262 2.03032E+01 1.54811E-01-3.89426E-05-8.87446E-02-1.36284E-14-1.52202E-14
 -1      4263 1.95318E+01 5.27823E-01-2.47842E-03-1.49976E-01 1.13854E-13-1.32540E-14
 -1      4264 1.96285E+01 4.65370E-01-9.32452E-04-1.47605E-01 8.52611E-14-1.75817E-14
 -1      4265 1.94751E+01 5.62731E-01 3.72492E-03-4.94169E-02 7.44133E-14-1.08227E-14
 -1      4266 1.83179E+01-3.19817E-01-1.74447E-02-2.31364E+00 3.25152E-15 3.01548E-13
 -1      4267 2.04122E+01 5.34096E-01-9.80419E-04-6.47320E-03-1.83108E-14-6.04284E-14
 -1      4268 2.04097E+01 4.45887E-01-3.06559E-04 1.55952E-02-5.65802E-15-6.81475E-14
 -1      4269 2.04115E+01 4.13717E-01 3.90934E-04 1.07800E-02 2.08003E-15 1.78568E-14
 -1      4270 2.04156E+01 6.04456E-01 2.39221E-04-5.60634E-03-4.67320E-15 2.57859E-14
 -1      4271 1.85892E+01 9.38506E-01 6.98431E-03 2.12428E-01 4.43998E-14-4.08657E-14
 -1      4272 2.01149E+01 1.44586E-01 3.91989E-04-1.66962E-01 1.26652E-14 8.63571E-14
 -1      4273 2.03178E+01 1.96986E-01-3.33995E-04-1.14921E-01 5.20040E-14-4.20347E-14
 -1      4274 2.03418E+01 2.52025E-01 1.24519E-04-8.53058E-02 2.54450E-14-5.83549E-14
 -1      4275 2.03645E+01 2.90088E-01-2.78729E-04-6.66203E-02 3.34669E-14-9.18210E-14
 -1      4276 2.03267E+01 1.95404E-01-5.22359E-04-1.00640E-01 1.29054E-14-6.36290E-14
 -1      4277 1.63183E+01 1.17593E+00 2.40057E-02-1.02815E+00-3.62343E-13 6.74313E-14
 -1      4278 1.69675E+01 1.04186E+00 2.24075E-02-1.02776E+00-3.05963E-13 1.34840E-13
 -1      4279 1.73394E+01 1.16774E+00 2.69455E-03 4.97782E-01-1.22251E-13-5.44315E-14
 -1      4280 1.76208E+01 1.03691E+00 7.09472E-03 7.43382E-01-1.21952E-13-2.17810E-14
 -1      4281 1.69792E+01 1.15415E+00-6.09650E-03 6.84398E-01-1.10445E-13-5.70786E-14
 -1      4282 1.56799E+01 1.02385E+00 8.92788E-03 1.37975E+00-2.98627E-14-2.45713E-13
 -1      4283 1.88058E+01 9.25523E-01 1.14983E-02-1.45461E-01 6.06755E-14 3.36454E-13
 -1      4284 1.76266E+01 1.34532E-01 1.09429E-02-2.15968E+00-6.28122E-14 3.48230E-13
 -1      4285 1.98645E+01 3.00036E-01-9.71648E-04-1.47530E-01-1.07048E-14-2.52528E-15
 -1      4286 1.99268E+01 2.54596E-01-1.02833E-03-1.39485E-01 1.29490E-14 2.30397E-14
 -1      4287 1.98245E+01 3.31917E-01 1.74701E-03-8.50546E-02 2.54643E-14-3.14844E-14
 -1      4288 1.91315E+01 7.42085E-01-1.62786E-03-2.43539E-01 5.36726E-14 1.95702E-13
 -1      4289 1.96665E+01 4.40438E-01 2.74239E-03-7.39998E-02 6.56858E-14-1.01560E-13
 -1      4290 2.01878E+01 1.27549E-01-4.21122E-04-1.17259E-01 3.91445E-14 2.76610E-14
 -1      4291 2.02284E+01 1.26168E-01 7.04032E-05-1.07168E-01 2.32678E-14 2.90114E-14
 -1      4292 2.02575E+01 1.40194E-01-7.29179E-05-7.19978E-02 1.56483E-14-5.56471E-15
 -1      4293 2.04157E+01 6.02140E-01-3.35747E-04 4.86670E-03 6.51993E-14 1.26957E-14
 -1      4294 2.04173E+01 6.01905E-01-7.34184E-04-2.87682E-03 2.92320E-14 2.73267E-14
 -1      4295 2.04223E+01 4.99752E-01 1.50401E-03 2.70395E-03-5.97761E-15 5.10966E-14
 -1      4296 2.31789E+01-2.39009E+00 3.69723E-02 6.60771E-01 1.65809E-13 1.22199E-13
 -1      4297 1.72664E+01-4.17013E-02 1.31322E-02 2.56549E+00 3.48369E-14-2.45881E-14
 -1      4298 1.66207E+01 4.34385E-01-1.97930E-02 2.09952E+00 1.93727E-14-6.95575E-14
 -1      4299 2.01819E+01 1.35007E-01-6.54574E-04 1.64716E-02 6.53373E-15-1.14120E-15
 -1      4300 2.01352E+01 1.46462E-01 3.13113E-05 2.26595E-02 1.05422E-15-1.95212E-14
 -1      4301 1.73428E+01 8.67184E-01 1.44350E-02-1.27421E+00-3.55884E-13 1.93335E-13
 -1      4302 2.00811E+01 1.65553E-01-8.26795E-04 2.45521E-02 8.23864E-15 1.15796E-14
 -1      4303 2.00277E+01 1.91705E-01-3.75275E-04 3.45361E-02 2.89286E-14 3.94025E-14
 -1      4304 2.01068E+01 1.63328E-01 6.33186E-04-2.16594E-02 2.32654E-14 1.04063E-14
 -1      4305 1.99471E+01 2.39379E-01-7.04590E-04 2.25426E-03-4.59395E-15 2.52658E-14
 -1      4306 1.98849E+01 2.78376E-01-2.87182E-04 1.42087E-02 2.88498E-14-3.38776E-14
 -1      4307 1.98100E+01 3.23307E-01-1.88451E-03 1.99924E-02 5.65434E-14-6.05711E-14
 -1      4308 1.97407E+01 3.70507E-01-5.01882E-04 3.76855E-02 2.81737E-14-1.58119E-14
 -1      4309 1.96512E+01 4.21900E-01-2.74297E-03 4.98060E-02 5.46601E-14-1.12407E-15
 -1      4310 1.95727E+01 4.73668E-01-5.84798E-04 7.65483E-02 5.55341E-14 2.76534E-14
 -1      4311 1.94642E+01 5.28368E-01-3.67982E-03 9.86624E-02 1.84534E-14 2.64074E-14
 -1      4312 1.93754E+01 5.80500E-01-4.60632E-04 1.38524E-01 3.34207E-14 2.59404E-14
 -1      4313 1.92424E+01 6.34136E-01-4.74350E-03 1.76097E-01 5.15400E-14 8.16118E-14
 -1      4314 1.91429E+01 6.81059E-01-1.47003E-05 2.34732E-01 6.92819E-14 8.92363E-14
 -1      4315 1.89789E+01 7.27588E-01-5.91117E-03 2.95457E-01 6.16882E-14 5.22015E-14
 -1      4316 1.88699E+01 7.61589E-01 9.71214E-04 3.80481E-01 4.81998E-14 6.24944E-14
 -1      4317 1.86670E+01 7.92614E-01-7.04221E-03 4.75075E-01-2.75205E-14 4.22909E-14
 -1      4318 1.85527E+01 8.02961E-01 3.07574E-03 5.96606E-01-6.06180E-14 5.53078E-14
 -1      4319 1.83006E+01 8.06999E-01-7.62485E-03 7.40043E-01-6.47756E-14 8.32383E-14
 -1      4320 1.81876E+01 7.78349E-01 7.08965E-03 9.12167E-01-1.03951E-13 4.16268E-14
 -1      4321 1.79355E+01 7.26784E-01-7.06437E-03 1.12302E+00-1.21089E-13 2.07182E-14
 -1      4322 1.78182E+01 6.20042E-01 3.37561E-04 1.35131E+00-3.67592E-14-7.05499E-14
 -1      4323 1.79370E+01 2.37861E-01 1.01997E-02 1.89885E+00-6.62751E-15-2.50357E-14
 -1      4324 1.78787E+01-6.05474E-02-1.87970E-03 2.23491E+00-4.69977E-14-3.00444E-14
 -1      4325 1.73394E+01 6.64603E-01-3.40187E-03 1.50796E+00-1.31037E-14-9.31082E-14
 -1      4326 1.85179E+01-5.89563E-01-7.24385E-03 2.52033E+00 3.87427E-14-1.22332E-13
 -1      4327 1.92759E+01-1.03238E+00 9.22552E-03 2.54418E+00 5.31350E-14 1.19682E-13
 -1      4328 2.00530E+01-1.77491E+00 7.93745E-03 2.77043E+00 7.99148E-14 2.98031E-13
 -1      4329 2.03931E+01 2.98664E-01-6.94331E-04 1.73469E-03 2.39816E-14 3.51720E-14
 -1      4330 2.03715E+01 2.34920E-01-1.52816E-04 9.28241E-03 1.08692E-14-6.46888E-15
 -1      4331 1.81819E+01 7.76809E-01-2.86250E-03-9.10311E-01-1.53344E-13 9.20744E-14
 -1      4332 1.82979E+01 8.18673E-01-1.70132E-02-7.23846E-01-8.61571E-14 2.70396E-14
 -1      4333 1.85446E+01 8.11617E-01-6.66647E-03-5.98762E-01-6.60936E-14-3.69175E-14
 -1      4334 1.86754E+01 8.23559E-01-1.05683E-02-4.60775E-01-1.01007E-13 1.55897E-15
 -1      4335 1.77432E+01 3.42402E-01-1.16405E-02-1.81698E+00-1.29783E-13 1.94503E-13
 -1      4336 1.89549E+01 7.59608E-01-4.39319E-03-3.81883E-01 3.93295E-14-4.55754E-14
 -1      4337 2.00072E+01 2.06903E-01-3.82290E-04-1.03856E-01-1.03451E-15 2.64630E-14
 -1      4338 2.00600E+01 1.75405E-01-3.14520E-04-9.71846E-02-8.30011E-16 2.16425E-14
 -1      4339 2.03301E+01 1.79078E-01-4.51982E-05-1.46145E-02 1.78326E-14-2.83054E-14
 -1      4340 2.02962E+01 1.51200E-01 4.57313E-04-9.20317E-03 1.02766E-14-7.71499E-15
 -1      4341 2.03424E+01 2.04660E-01 2.01654E-04-3.77752E-02-2.30923E-14-2.86597E-15
 -1      4342 2.03487E+01 2.11729E-01-1.44183E-04-6.13944E-02-3.40582E-14-1.20902E-14
 -1      4343 1.66964E+01 8.85505E-01 1.34025E-02 1.45079E+00-6.94280E-15-1.59861E-13
 -1      4344 2.01130E+01 1.52506E-01-5.02749E-04-9.79441E-02 1.65474E-15 1.09331E-14
 -1      4345 2.01594E+01 1.36562E-01 1.15795E-04-9.09143E-02 2.29194E-14 2.66350E-14
 -1      4346 2.04143E+01 4.27198E-01-7.28092E-04-1.72919E-03-1.93066E-14 6.33994E-14
 -1      4347 2.04069E+01 3.51917E-01 7.42618E-04 4.94600E-03 1.96011E-14 4.70934E-14
 -1      4348 2.03960E+01 3.14708E-01-3.03574E-04-1.46764E-02-1.68096E-15 7.45660E-14
 -1      4349 2.04135E+01 4.29662E-01-4.31698E-04-9.08369E-03 2.80327E-14 3.98888E-14
 -1      4350 1.81105E+01-3.39049E-01 2.36494E-03 2.44081E+00 6.31656E-15-1.68502E-14
 -1      4351 2.04042E+01 4.23008E-01-3.51214E-04-2.29936E-02 6.00553E-14-7.40025E-14
 -1      4352 2.04101E+01 5.34270E-01 4.87657E-05 7.01583E-03 6.55834E-14-5.43778E-14
 -1      4353 2.02560E+01 1.36829E-01-3.54831E-04-1.44049E-02 1.62469E-14 6.74807E-16
 -1      4354 1.78698E+01 6.05187E-01 5.13665E-03-1.37642E+00-1.74567E-13 7.03877E-14
 -1      4355 2.02143E+01 1.32970E-01 4.24826E-04-1.02380E-02 3.20235E-15-1.57395E-14
 -1      4356 1.79413E+01 6.97651E-01-2.30359E-02-1.12918E+00-2.30026E-13-7.36173E-15
 -1      4357 2.01890E+01 1.37926E-01 2.78701E-04-5.16971E-02-1.50815E-14 2.32788E-15
 -1      4358 1.99761E+01 2.31508E-01 1.09154E-03-5.18861E-02-9.58104E-15 2.37183E-14
 -1      4359 1.90398E+01 7.51637E-01-5.66585E-03-3.03370E-01 1.02341E-13 8.27435E-14
 -1      4360 2.03833E+01 2.98500E-01-2.02697E-04-4.48270E-02 2.48084E-14-4.91078E-14
 -1      4361 2.03991E+01 3.61680E-01 7.17884E-04-2.62193E-02 3.53430E-14-4.40590E-14
 -1      4362 1.64731E+01 1.15898E+00-8.78880E-03 8.61814E-01-5.30468E-14-1.24414E-13
 -1      4363 2.03712E+01 2.54942E-01 9.37800E-04-4.69868E-02-4.31868E-15-3.43174E-14
 -1      4364 2.04154E+01 5.71436E-01 1.40243E-04 6.47064E-03 6.45770E-14-7.54749E-14
 -3
    1PSTEP                         3           1           1          
  100CL  101 1.000000000        4364                     0    1           1
 -4  TOSTRAIN    6    1
 -5  EXX         1    4    1    1
 -5  EYY         1    4    2    2
 -5  EZZ         1    4    3    3
 -5  EXY         1    4    1    2
 -5  EYZ         1    4    2    3
 -5  EZX         1    4    3    1
 -1         1 4.59219E-06-7.62228E-06-4.60772E-06 2.99069E-06-9.46771E-18 5.54341E-18
 -1         2 3.80513E-05-1.14836E-04 2.07728E-05-6.59253E-07 7.85470E-18 1.34869E-18
 -1         3 9.52101E-05-2.85997E-05-2.85020E-05-1.86230E-08-3.72337E-18-3.39208E-18
 -1         4 9.52144E-05-2.85945E-05-2.85146E-05 1.61101E-08 2.76532E-19 1.29715E-18
 -1         5 1.43246E-04-2.14645E-05-4.24966E-05 3.85147E-05-1.15938E-19 7.80530E-18
 -1         6 1.45311E-04 2.57347E-10-4.41555E-05-5.35020E-05-4.78997E-19 3.60127E-18
 -1         7 9.05475E-05-5.09682E-07-3.90436E-05-2.92505E-05-9.02090E-20-6.80909E-19
 -1         8 8.50888E-05 8.66339E-08-3.63244E-05-2.02784E-05-3.54166E-20-1.59677E-18
 -1         9 8.28009E-05 7.66200E-08-3.53454E-05-1.56514E-05-2.26317E-20-1.95887E-18
 -1        10 8.17832E-05 3.82638E-08-3.48846E-05-1.20879E-05 8.16593E-21-2.00314E-18
 -1        11 8.12768E-05 1.89930E-08-3.46623E-05-9.02037E-06 7.66962E-21-1.95874E-18
 -1        12 8.10188E-05 8.69267E-09-3.45531E-05-6.28913E-06 3.18249E-20-1.74916E-18
 -1        13 8.08852E-05 4.06782E-09-3.44987E-05-3.68854E-06 3.90256E-20-1.54120E-18
 -1        14 8.08301E-05 2.20733E-09-3.44768E-05-1.18503E-06 4.15234E-20-1.31294E-18
 -1        15 8.08324E-05 2.19196E-09-3.44777E-05 1.28909E-06 7.01331E-20-1.11123E-18
 -1        16 8.08923E-05 3.97575E-09-3.45012E-05 3.79795E-06 7.15263E-20-9.53527E-19
 -1        17 8.10314E-05 7.86019E-09-3.45570E-05 6.41116E-06 6.06671E-20-6.57193E-19
 -1        18 8.12946E-05 1.76506E-08-3.46679E-05 9.16277E-06 6.65351E-20-2.09540E-19
 -1        19 8.18051E-05 3.77602E-08-3.48928E-05 1.22673E-05 8.42732E-20 2.84651E-19
 -1        20 8.28236E-05 8.12598E-08-3.53579E-05 1.58811E-05 1.07004E-19 1.09907E-18
 -1        21 8.50543E-05 1.69576E-07-3.63623E-05 2.04908E-05 1.09135E-19 2.36414E-18
 -1        22 9.15840E-05-9.83634E-08-3.87149E-05 2.79990E-05 7.62330E-21 4.37546E-18
 -1        23 1.12876E-04-3.80931E-05-3.53672E-05-4.40376E-06-3.11867E-19 2.01022E-18
 -1        24 9.27061E-05-2.76675E-05-2.89694E-05 3.90198E-07-6.05827E-20 9.06286E-19
 -1        25 8.90167E-05-2.68215E-05-2.68983E-05 3.75160E-07 2.10931E-21-1.18029E-19
 -1        26 8.79111E-05-2.64574E-05-2.63602E-05 2.03135E-07 4.16403E-20-7.56096E-19
 -1        27 8.79382E-05-2.64360E-05-2.63527E-05 1.38650E-07-8.50267E-20-1.16689E-18
 -1        28 8.84790E-05-2.65746E-05-2.65246E-05 9.94801E-08-6.09564E-20-1.45620E-18
 -1        29 8.92519E-05-2.67930E-05-2.67628E-05 7.36700E-08 1.81440E-20-1.44376E-18
 -1        30 9.01118E-05-2.70435E-05-2.70237E-05 5.53272E-08 7.33120E-20-1.85211E-18
 -1        31 9.09821E-05-2.73005E-05-2.72866E-05 4.17089E-08-6.05807E-20-2.19794E-18
 -1        32 9.18266E-05-2.75516E-05-2.75416E-05 3.14823E-08-1.86069E-19-2.56379E-18
 -1        33 9.26357E-05-2.77932E-05-2.77861E-05 2.39755E-08 3.25718E-19-2.93252E-18
 -1        34 9.34177E-05-2.80274E-05-2.80227E-05 1.88511E-08-1.84013E-21-3.29433E-18
 -1        35 9.41933E-05-2.82601E-05-2.82576E-05 1.59595E-08 8.98378E-20-4.01626E-18
 -1        36 9.49912E-05-2.84997E-05-2.84992E-05 1.52622E-08-1.05404E-20-3.79934E-18
 -1        37 9.58438E-05-2.87556E-05-2.87572E-05 1.67706E-08-3.63065E-19-4.57551E-18
 -1        38 9.67824E-05-2.90371E-05-2.90407E-05 2.04650E-08-5.57727E-20-4.37166E-18
 -1        39 9.78304E-05-2.93509E-05-2.93563E-05 2.61680E-08-4.33600E-20-4.03524E-18
 -1        40 9.89943E-05-2.96988E-05-2.97052E-05 3.33402E-08 9.91812E-20-4.18105E-18
 -1        41 1.00252E-04-3.00737E-05-3.00798E-05 4.07792E-08-6.59047E-20-5.37356E-18
 -1        42 1.01535E-04-3.04555E-05-3.04587E-05 4.62269E-08-2.82440E-20-5.32446E-18
 -1        43 1.02717E-04-3.08058E-05-3.08020E-05 4.59719E-08-2.04023E-19-4.45225E-18
 -1        44 1.03594E-04-3.10647E-05-3.10486E-05 3.47010E-08 3.40156E-19-3.61707E-18
 -1        45 1.03891E-04-3.11504E-05-3.11167E-05 6.11930E-09-5.53012E-20-2.85460E-18
 -1        46 1.03289E-04-3.09686E-05-3.09151E-05-4.48896E-08 3.60985E-19-3.22777E-18
 -1        47 1.01502E-04-3.04347E-05-3.03665E-05-1.18054E-07-3.35433E-19-1.97166E-18
 -1        48 9.84043E-05-2.95117E-05-2.94449E-05-2.02279E-07-9.11752E-20-2.62980E-18
 -1        49 9.41866E-05-2.82557E-05-2.82166E-05-2.72393E-07 2.79221E-19-2.13417E-18
 -1        50 8.94601E-05-2.68479E-05-2.68633E-05-2.93767E-07-8.72574E-20-8.82926E-19
 -1        51 8.52082E-05-2.55807E-05-2.56621E-05-2.38569E-07-1.66647E-19-1.46801E-19
 -1        52 8.25168E-05-2.47783E-05-2.49084E-05-1.07534E-07-1.46659E-19-1.97349E-19
 -1        53 8.21546E-05-2.46702E-05-2.48072E-05 6.09377E-08-3.74322E-19-2.03683E-18
 -1        54 8.42274E-05-2.52884E-05-2.53864E-05 2.07788E-07 6.97116E-19-1.60523E-18
 -1        55 8.81285E-05-2.64511E-05-2.64851E-05 2.86091E-07-6.72483E-19-4.65114E-19
 -1        56 9.28183E-05-2.78481E-05-2.78220E-05 2.84525E-07-4.56040E-20-2.50555E-18
 -1        57 9.72479E-05-2.91672E-05-2.91052E-05 2.24651E-07 4.57100E-20-3.42264E-18
 -1        58 1.00686E-04-3.01912E-05-3.01211E-05 1.41110E-07 3.38979E-20-4.06250E-18
 -1        59 1.02827E-04-3.08301E-05-3.07713E-05 6.28253E-08 3.47559E-19-3.07756E-18
 -1        60 1.03722E-04-3.10992E-05-3.10595E-05 4.86111E-09 3.21225E-19-1.17579E-18
 -1        61 1.03629E-04-3.10742E-05-3.10531E-05-3.00119E-08 2.36501E-19 3.48315E-19
 -1        62 1.02867E-04-3.08502E-05-3.08429E-05-4.59004E-08-6.45111E-19-2.21622E-18
 -1        63 1.01735E-04-3.05148E-05-3.05160E-05-4.90398E-08-3.36183E-20-3.87305E-18
 -1        64 1.00460E-04-3.01362E-05-3.01412E-05-4.50882E-08 2.44293E-19-4.48472E-18
 -1        65 9.91986E-05-2.97608E-05-2.97669E-05-3.81257E-08 8.90844E-20-1.93676E-18
 -1        66 9.80464E-05-2.94172E-05-2.94229E-05-3.05896E-08 6.02489E-19-3.11752E-18
 -1        67 9.70545E-05-2.91209E-05-2.91262E-05-2.35248E-08 1.91670E-19-2.93839E-18
 -1        68 9.62507E-05-2.88801E-05-2.88862E-05-1.67413E-08 8.64205E-19 1.36391E-19
 -1        69 9.56548E-05-2.87009E-05-2.87097E-05-8.64178E-09-2.93300E-20-1.86739E-19
 -1        70 9.52910E-05-2.85899E-05-2.86014E-05 5.70323E-09-3.85562E-20 2.16702E-18
 -1        71 9.51806E-05-2.85524E-05-2.85542E-05 2.38494E-08-2.92535E-19 1.57518E-18
 -1        72 1.02083E-04-3.05583E-05-3.41202E-05-1.92586E-06 1.75759E-20 7.93850E-18
 -1        73 9.24604E-05-2.74830E-05-2.88771E-05-3.32439E-07 2.67444E-20 7.08401E-18
 -1        74 8.90012E-05-2.66700E-05-2.69407E-05-1.25145E-07 8.32260E-20 6.24725E-18
 -1        75 8.79358E-05-2.64064E-05-2.64027E-05-9.44694E-08 3.54832E-20 5.75106E-18
 -1        76 8.79651E-05-2.64135E-05-2.63770E-05-7.51066E-08 1.50092E-20 5.62370E-18
 -1        77 8.85016E-05-2.65655E-05-2.65382E-05-6.05173E-08 8.64071E-20 5.62003E-18
 -1        78 8.92668E-05-2.67891E-05-2.67702E-05-4.91083E-08-1.26715E-19 5.95332E-18
 -1        79 9.01167E-05-2.70409E-05-2.70263E-05-3.94674E-08 6.44281E-20 5.98421E-18
 -1        80 9.09753E-05-2.72969E-05-2.72847E-05-3.09269E-08 2.34114E-20 5.57325E-18
 -1        81 9.18078E-05-2.75458E-05-2.75356E-05-2.32118E-08 9.05618E-20 4.17756E-18
 -1        82 9.26067E-05-2.77853E-05-2.77770E-05-1.62001E-08 8.00357E-20 3.30796E-18
 -1        83 9.33854E-05-2.80190E-05-2.80128E-05-9.82448E-09-1.18119E-19 3.24043E-18
 -1        84 9.41741E-05-2.82560E-05-2.82523E-05-4.05025E-09 1.28863E-19 3.45222E-18
 -1        85 9.50189E-05-2.85101E-05-2.85094E-05 1.10744E-09 1.82177E-20 3.44409E-18
 -1        86 9.59825E-05-2.88002E-05-2.88033E-05 5.52953E-09 3.95681E-20 3.53738E-18
 -1        87 9.71474E-05-2.91507E-05-2.91589E-05 8.88689E-09-9.92617E-24 2.54278E-18
 -1        88 9.86193E-05-2.95933E-05-2.96087E-05 1.04441E-08-2.75190E-19 2.76840E-18
 -1        89 1.00534E-04-3.01681E-05-3.01941E-05 8.71041E-09 2.28355E-19 1.75394E-18
 -1        90 1.03059E-04-3.09249E-05-3.09665E-05 8.54537E-10-2.75104E-19 1.30413E-18
 -1        91 1.06398E-04-3.19231E-05-3.19868E-05-1.81780E-08-1.17971E-19 2.79698E-18
 -1        92 1.10770E-04-3.32264E-05-3.33184E-05-5.66929E-08-1.26745E-20 5.00203E-18
 -1        93 1.16353E-04-3.48868E-05-3.50066E-05-1.26464E-07 5.44696E-19 4.14567E-18
 -1        94 1.23156E-04-3.69076E-05-3.70309E-05-2.38936E-07-8.80302E-20 1.02965E-18
 -1        95 1.30738E-04-3.91670E-05-3.92162E-05-3.89602E-07-2.77573E-19 2.97931E-18
 -1        96 1.37778E-04-4.12931E-05-4.11095E-05-5.18578E-07 4.99996E-19 3.85675E-18
 -1        97 1.41612E-04-4.25235E-05-4.19106E-05-4.51934E-07-3.80219E-19 5.50599E-18
 -1        98 1.38427E-04-4.17156E-05-4.06685E-05 8.39703E-08 2.18975E-19 4.61511E-18
 -1        99 1.25344E-04-3.78794E-05-3.69692E-05 1.17555E-06 5.13514E-20 1.74203E-18
 -1       100 1.04797E-04-3.15183E-05-3.18308E-05 2.16736E-06-2.61703E-19 3.99334E-18
 -1       101 8.73227E-05-2.58357E-05-2.77891E-05 1.81816E-06-5.19397E-19 4.18302E-18
 -1       102 8.52272E-05-2.49719E-05-2.73552E-05-2.21032E-08 5.52742E-19 2.08442E-18
 -1       103 1.00218E-04-2.97033E-05-3.08365E-05-1.70734E-06-2.64770E-19 9.05902E-19
 -1       104 1.21342E-04-3.64209E-05-3.60001E-05-1.95659E-06 1.49839E-19 2.62813E-18
 -1       105 1.36648E-04-4.11869E-05-4.01444E-05-1.18441E-06 1.29090E-19 1.72461E-18
 -1       106 1.41882E-04-4.27354E-05-4.18802E-05-3.44070E-07-5.84415E-19 2.12416E-18
 -1       107 1.39208E-04-4.18486E-05-4.14288E-05 1.45678E-07 2.75494E-19 1.63489E-18
 -1       108 1.32545E-04-3.97862E-05-3.96925E-05 3.17125E-07 4.05206E-19-1.14323E-18
 -1       109 1.24881E-04-3.74589E-05-3.75229E-05 3.19378E-07 6.25294E-19-3.39851E-18
 -1       110 1.17803E-04-3.53291E-05-3.54389E-05 2.61068E-07-7.81210E-19-2.40960E-18
 -1       111 1.11900E-04-3.35605E-05-3.36645E-05 1.94651E-07 3.05389E-19 1.64624E-18
 -1       112 1.07237E-04-3.21655E-05-3.22477E-05 1.38717E-07-8.66304E-19 3.63182E-18
 -1       113 1.03661E-04-3.10962E-05-3.11561E-05 9.68808E-08 1.81368E-19 3.69824E-18
 -1       114 1.00965E-04-3.02898E-05-3.03317E-05 6.75060E-08-4.14367E-19 2.47552E-18
 -1       115 9.89542E-05-2.96878E-05-2.97168E-05 4.77020E-08 1.21680E-18-6.62568E-19
 -1       116 9.74701E-05-2.92431E-05-2.92640E-05 3.46700E-08 7.64640E-20-4.08861E-18
 -1       117 9.63992E-05-2.89217E-05-2.89392E-05 2.61534E-08 3.66848E-19-8.56731E-18
 -1       118 9.56718E-05-2.87024E-05-2.87211E-05 1.89899E-08-4.98763E-19-5.72139E-18
 -1       119 9.52628E-05-2.85777E-05-2.85974E-05 5.57507E-09 2.89690E-19-7.02318E-18
 -1       120 9.51638E-05-2.85420E-05-2.85482E-05-2.39002E-08 1.66682E-18-9.97624E-18
 -1       121 9.52553E-05-2.86315E-05-2.85516E-05-3.42407E-08-9.42004E-18-1.88504E-19
 -1       122 9.52201E-05-2.85169E-05-2.86058E-05-9.97716E-10-2.53280E-18 1.19674E-18
 -1       123 9.50984E-05-2.81095E-05-2.87239E-05 2.01681E-08 4.93269E-18 1.91291E-18
 -1       124 9.49218E-05-2.75182E-05-2.88920E-05 2.92748E-08 2.64287E-18 7.74027E-19
 -1       125 9.47305E-05-2.68757E-05-2.90763E-05 2.91069E-08-1.11478E-18-1.24051E-18
 -1       126 9.45634E-05-2.63125E-05-2.92394E-05 2.34616E-08-5.69325E-18 6.87795E-19
 -1       127 9.44420E-05-2.59043E-05-2.93585E-05 1.39284E-08-2.43309E-18-2.11308E-19
 -1       128 9.43870E-05-2.57195E-05-2.94130E-05 2.97028E-09-3.32757E-18-2.49005E-19
 -1       129 9.44038E-05-2.57764E-05-2.93971E-05-7.60079E-09-6.73912E-18-3.51497E-20
 -1       130 9.44870E-05-2.60571E-05-2.93156E-05-1.63926E-08-2.49738E-18 1.86165E-19
 -1       131 9.46225E-05-2.65136E-05-2.91827E-05-2.25965E-08-4.31224E-18-1.88960E-18
 -1       132 9.47867E-05-2.70664E-05-2.90219E-05-2.48990E-08-6.76414E-18 1.52887E-18
 -1       133 9.49604E-05-2.76499E-05-2.88529E-05-2.31545E-08-6.07816E-18-1.45948E-19
 -1       134 9.51131E-05-2.81637E-05-2.87056E-05-1.73576E-08-1.05554E-18 2.57755E-18
 -1       135 9.52177E-05-2.85072E-05-2.86038E-05 2.47427E-10 2.77762E-19-8.24233E-19
 -1       136 9.52406E-05-2.86090E-05-2.85552E-05 4.42694E-08-2.71661E-18-9.89893E-19
 -1       137 2.90481E-05-9.79972E-05 1.78790E-05-2.56881E-05 9.68159E-18 6.44513E-19
 -1       138 1.03902E-05-4.79486E-05 6.60733E-06-2.53618E-05 8.42544E-18 4.55820E-18
 -1       139 7.41035E-06 4.03621E-06-1.06321E-05 9.21732E-06 1.05515E-17 7.27982E-18
 -1       140 4.76016E-05 2.50203E-05-3.17015E-05 6.61993E-05 8.95271E-18 1.02051E-17
 -1       141 1.39738E-04-8.35220E-09-5.42993E-05 1.11166E-04 5.42249E-18 9.91071E-18
 -1       142 2.45395E-04-5.25099E-05-7.16422E-05 1.05360E-04 2.49007E-18 6.78897E-18
 -1       143 3.21809E-04-9.65271E-05-8.19854E-05 4.39116E-05 8.24070E-19 1.31311E-18
 -1       144 3.19478E-04-9.52128E-05-8.16548E-05-4.90176E-05 7.76279E-19-6.36905E-18
 -1       145 2.36080E-04-4.73854E-05-7.02498E-05-1.09634E-04 2.39075E-18-6.79109E-18
 -1       146 1.23540E-04 6.46760E-06-5.10982E-05-1.07335E-04 5.17368E-18-7.21206E-18
 -1       147 3.03430E-05 2.19087E-05-2.46968E-05-4.79768E-05 6.36164E-18-6.64328E-18
 -1       148 4.98591E-06-9.38755E-06-5.12782E-06 4.74013E-06 6.55222E-18-4.00435E-18
 -1       149 1.60083E-05-6.66161E-05 1.12270E-05 3.04820E-05 7.04731E-19-5.14678E-19
 -1       150 3.48650E-05-1.09556E-04 1.99353E-05 1.73525E-05-4.23601E-18 7.35383E-19
 -1       151 3.43677E-05-1.06784E-04 1.93654E-05-1.31020E-05-7.55807E-18-5.79655E-19
 -1       152 1.60862E-05-6.11405E-05 9.91936E-06-2.42455E-05-5.05255E-18-1.40777E-18
 -1       153 5.17843E-06-2.95422E-06-6.39890E-06 2.00904E-06-5.39687E-18-3.60942E-18
 -1       154 3.33908E-05 2.90681E-05-2.72974E-05 5.77546E-05-6.00758E-18-5.77168E-18
 -1       155 1.04741E-04 1.62552E-05-4.75509E-05 1.05037E-04-4.50367E-18-7.21291E-18
 -1       156 2.04223E-04-3.22357E-05-6.50740E-05 1.10540E-04-2.95583E-18-6.52681E-18
 -1       157 2.84580E-04-7.94728E-05-7.64606E-05 6.54425E-05-8.09466E-19-3.32460E-19
 -1       158 3.08827E-04-9.53176E-05-7.92607E-05-1.46145E-05 3.69359E-19 2.88288E-18
 -1       159 2.62474E-04-6.62165E-05-7.33641E-05-8.73956E-05-1.72789E-18 5.10634E-18
 -1       160 1.75567E-04-1.63826E-05-6.06202E-05-1.15543E-04-4.53650E-18 8.73122E-18
 -1       161 7.99857E-05 2.46600E-05-4.18993E-05-9.43380E-05-1.06730E-17 1.42141E-17
 -1       162 2.02436E-05 2.52594E-05-2.14384E-05-4.16375E-05-1.30684E-17 1.11054E-17
 -1       163 1.42044E-05-5.44416E-05 8.31314E-06 2.34993E-05-1.70000E-18 1.27140E-18
 -1       164 2.97936E-05-9.47721E-05 1.70393E-05 2.11488E-05 1.19283E-18-5.90408E-19
 -1       165 9.48161E-05-1.23376E-05-3.55509E-05-2.23497E-05-7.28170E-19-9.84861E-19
 -1       166 8.92190E-05-8.44782E-06-3.47787E-05-1.73890E-05-4.69594E-19-1.47602E-18
 -1       167 8.65542E-05-6.51017E-06-3.44154E-05-1.35973E-05-1.54861E-19-1.65661E-18
 -1       168 8.52084E-05-5.51580E-06-3.42370E-05-1.03697E-05 7.38193E-20-1.66599E-18
 -1       169 8.44779E-05-4.94594E-06-3.41541E-05-7.54833E-06 1.99517E-19-1.54868E-18
 -1       170 8.40604E-05-4.60035E-06-3.41159E-05-4.90417E-06 3.25817E-19-1.38225E-18
 -1       171 8.38477E-05-4.41550E-06-3.41004E-05-2.39558E-06 4.70598E-19-1.14531E-18
 -1       172 8.37853E-05-4.35967E-06-3.40966E-05 5.05698E-08 6.82327E-19-9.00330E-19
 -1       173 8.38583E-05-4.42431E-06-3.41013E-05 2.49893E-06 8.35167E-19-7.99857E-19
 -1       174 8.40834E-05-4.62023E-06-3.41175E-05 5.01437E-06 8.56594E-19-6.36036E-19
 -1       175 8.45073E-05-4.97396E-06-3.41553E-05 7.62470E-06 8.76432E-19-2.82194E-19
 -1       176 8.52694E-05-5.57636E-06-3.42390E-05 1.05154E-05 1.08421E-18 2.01461E-19
 -1       177 8.66462E-05-6.60887E-06-3.44178E-05 1.37876E-05 1.05052E-18 7.83135E-19
 -1       178 8.93671E-05-8.59664E-06-3.47828E-05 1.76273E-05 1.01290E-18 1.71972E-18
 -1       179 9.57253E-05-1.36024E-05-3.54070E-05 2.18963E-05 7.78397E-19 2.99119E-18
 -1       180 1.05525E-04-2.60785E-05-3.52384E-05 1.86646E-05 3.39157E-19 4.53655E-18
 -1       181 1.03325E-04-2.72804E-05-3.25882E-05-1.21310E-05-6.12617E-19-6.95626E-20
 -1       182 9.70351E-05-2.82670E-05-2.95071E-05-4.73429E-06-5.70066E-19-2.90142E-19
 -1       183 9.34366E-05-2.76151E-05-2.81610E-05-1.77021E-06-3.96216E-19-3.82938E-19
 -1       184 9.19058E-05-2.73846E-05-2.76164E-05-4.18367E-07-3.29378E-19-6.74821E-19
 -1       185 9.13402E-05-2.73115E-05-2.74224E-05 2.53377E-07-2.00644E-19-6.36683E-19
 -1       186 9.13178E-05-2.73548E-05-2.74038E-05 5.91708E-07-1.63027E-19-4.82499E-19
 -1       187 9.15943E-05-2.74655E-05-2.74794E-05 7.49381E-07-2.66992E-19-6.99665E-19
 -1       188 9.20305E-05-2.76110E-05-2.76061E-05 8.07730E-07-1.43282E-19-7.17453E-19
 -1       189 9.25469E-05-2.77720E-05-2.77595E-05 8.15217E-07-3.76235E-19-5.87509E-19
 -1       190 9.31015E-05-2.79386E-05-2.79263E-05 8.03139E-07-2.80619E-19-5.66629E-19
 -1       191 9.36763E-05-2.81072E-05-2.81005E-05 7.92657E-07-4.31472E-19-1.36592E-18
 -1       192 9.42695E-05-2.82785E-05-2.82813E-05 7.98173E-07-5.16730E-19-2.15443E-18
 -1       193 9.48904E-05-2.84565E-05-2.84710E-05 8.28892E-07-2.22222E-19-2.25591E-18
 -1       194 9.55544E-05-2.86470E-05-2.86738E-05 8.89218E-07-1.74151E-19-1.90637E-18
 -1       195 9.62790E-05-2.88567E-05-2.88944E-05 9.78205E-07-1.16352E-19-1.39450E-18
 -1       196 9.70790E-05-2.90920E-05-2.91365E-05 1.08811E-06 2.07179E-19-1.93012E-18
 -1       197 9.79610E-05-2.93578E-05-2.94010E-05 1.20212E-06-5.87904E-20-1.99462E-18
 -1       198 9.89157E-05-2.96550E-05-2.96836E-05 1.29152E-06-5.39929E-19-2.06964E-18
 -1       199 9.99098E-05-2.99779E-05-2.99725E-05 1.31306E-06-4.78882E-19-1.77015E-18
 -1       200 1.00876E-04-3.03109E-05-3.02457E-05 1.20814E-06 1.97829E-19-2.11414E-18
 -1       201 1.01706E-04-3.06238E-05-3.04693E-05 9.06842E-07 5.03095E-19-1.82164E-18
 -1       202 1.02246E-04-3.08679E-05-3.05980E-05 3.41235E-07 2.54162E-19-1.84763E-18
 -1       203 1.02309E-04-3.09739E-05-3.05804E-05-5.27236E-07 1.60463E-19-7.05432E-19
 -1       204 1.01703E-04-3.08573E-05-3.03701E-05-1.66498E-06 6.16167E-19-4.76473E-19
 -1       205 1.00292E-04-3.04368E-05-2.99435E-05-2.91835E-06-2.53609E-19 4.45005E-19
 -1       206 9.80843E-05-2.96732E-05-2.93206E-05-3.98947E-06 2.41535E-19 5.69883E-19
 -1       207 9.53155E-05-2.86214E-05-2.85799E-05-4.48025E-06 8.01018E-19-7.91562E-20
 -1       208 9.24844E-05-2.74715E-05-2.78551E-05-4.03650E-06 4.64962E-19 2.17734E-19
 -1       209 9.02652E-05-2.65285E-05-2.73054E-05-2.55793E-06-2.97398E-19 9.43878E-19
 -1       210 8.92814E-05-2.61007E-05-2.70659E-05-3.44806E-07-1.13846E-18 1.02459E-18
 -1       211 8.98318E-05-2.63420E-05-2.71989E-05 1.96954E-06-3.70221E-19 7.73188E-19
 -1       212 9.17448E-05-2.71634E-05-2.76691E-05 3.70387E-06-2.41818E-20-1.70517E-19
 -1       213 9.44638E-05-2.82852E-05-2.83576E-05 4.44672E-06-1.16170E-18-4.74754E-19
 -1       214 9.73020E-05-2.93874E-05-2.91064E-05 4.19231E-06-4.45119E-19-9.47540E-19
 -1       215 9.96951E-05-3.02414E-05-2.97704E-05 3.24296E-06-7.37589E-19-1.68101E-18
 -1       216 1.01331E-04-3.07554E-05-3.02541E-05 2.00345E-06-6.06356E-20-2.41220E-18
 -1       217 1.02145E-04-3.09475E-05-3.05217E-05 8.09820E-07 1.02898E-18-3.41329E-18
 -1       218 1.02244E-04-3.08923E-05-3.05869E-05-1.42885E-07 9.66657E-19-1.16544E-18
 -1       219 1.01811E-04-3.06764E-05-3.04921E-05-7.90689E-07-1.34758E-18-1.11360E-18
 -1       220 1.01042E-04-3.03749E-05-3.02897E-05-1.15519E-06-6.25835E-19-1.00706E-18
 -1       221 1.00105E-04-3.00433E-05-3.00284E-05-1.29750E-06 6.18343E-20-8.10321E-19
 -1       222 9.91275E-05-2.97180E-05-2.97473E-05-1.28609E-06 1.48242E-18-5.50996E-19
 -1       223 9.81948E-05-2.94201E-05-2.94740E-05-1.17954E-06 4.06867E-19 1.17391E-18
 -1       224 9.73594E-05-2.91602E-05-2.92266E-05-1.01988E-06 8.28561E-19 1.41805E-18
 -1       225 9.66502E-05-2.89423E-05-2.90157E-05-8.31908E-07 8.42798E-19 9.09608E-19
 -1       226 9.60816E-05-2.87665E-05-2.88474E-05-6.25479E-07 1.74974E-19-1.27882E-18
 -1       227 9.56599E-05-2.86326E-05-2.87242E-05-4.01245E-07 1.32969E-18-1.33305E-18
 -1       228 9.53754E-05-2.85419E-05-2.86416E-05-1.65111E-07 1.98043E-19 1.36949E-19
 -1       229 9.94221E-05-2.85309E-05-3.05635E-05 7.21527E-06 4.65114E-19 4.09835E-18
 -1       230 9.43375E-05-2.77671E-05-2.85008E-05 2.74755E-06 5.08299E-19 3.65050E-18
 -1       231 9.20180E-05-2.73770E-05-2.76582E-05 9.31971E-07 2.71166E-19 3.11593E-18
 -1       232 9.10740E-05-2.72154E-05-2.73409E-05 6.59497E-08 1.05205E-19 3.00494E-18
 -1       233 9.08733E-05-2.72108E-05-2.72702E-05-3.68748E-07 8.13392E-20 3.07590E-18
 -1       234 9.10781E-05-2.73020E-05-2.73256E-05-5.80779E-07-1.83612E-19 3.00342E-18
 -1       235 9.14987E-05-2.74447E-05-2.74479E-05-6.71210E-07 2.10419E-19 2.63508E-18
 -1       236 9.20276E-05-2.76116E-05-2.76045E-05-6.96395E-07 4.46507E-19 2.37952E-18
 -1       237 9.26069E-05-2.77879E-05-2.77780E-05-6.91675E-07 6.79947E-19 1.60403E-18
 -1       238 9.32106E-05-2.79674E-05-2.79602E-05-6.81429E-07 2.83985E-19 1.53866E-18
 -1       239 9.38356E-05-2.81499E-05-2.81499E-05-6.84076E-07-4.44921E-20 1.41690E-18
 -1       240 9.44964E-05-2.83400E-05-2.83515E-05-7.15047E-07 1.32393E-19 1.37878E-18
 -1       241 9.52225E-05-2.85466E-05-2.85740E-05-7.88870E-07 1.86858E-19 1.44175E-18
 -1       242 9.60581E-05-2.87824E-05-2.88306E-05-9.20864E-07 1.34079E-19 9.77545E-19
 -1       243 9.70618E-05-2.90643E-05-2.91395E-05-1.12858E-06 4.36138E-19 1.71267E-18
 -1       244 9.83089E-05-2.94137E-05-2.95237E-05-1.43293E-06-2.25598E-19 1.64661E-18
 -1       245 9.98925E-05-2.98575E-05-3.00119E-05-1.85839E-06 6.05864E-19 1.08676E-18
 -1       246 1.01924E-04-3.04285E-05-3.06379E-05-2.43120E-06-4.66489E-20 6.18676E-19
 -1       247 1.04527E-04-3.11657E-05-3.14390E-05-3.17243E-06-7.73336E-19 8.32914E-19
 -1       248 1.07828E-04-3.21139E-05-3.24501E-05-4.08051E-06-8.37118E-19 1.43481E-18
 -1       249 1.11913E-04-3.33196E-05-3.36895E-05-5.09318E-06 5.23860E-19 1.20463E-18
 -1       250 1.16764E-04-3.48218E-05-3.51305E-05-6.01549E-06 4.35707E-19 1.75180E-18
 -1       251 1.22129E-04-3.66276E-05-3.66567E-05-6.40809E-06-6.85487E-19 8.36657E-19
 -1       252 1.27342E-04-3.86491E-05-3.80104E-05-5.47960E-06-7.71323E-19 1.22571E-18
 -1       253 1.31147E-04-4.05513E-05-3.87878E-05-2.17230E-06-6.32992E-19 2.47183E-18
 -1       254 1.31708E-04-4.14971E-05-3.85870E-05 4.11399E-06 3.72377E-19 3.39687E-18
 -1       255 1.27306E-04-4.00779E-05-3.73495E-05 1.18207E-05 1.03935E-18 3.63851E-18
 -1       256 1.18277E-04-3.54399E-05-3.56468E-05 1.57952E-05-8.92415E-19 1.68681E-18
 -1       257 1.09324E-04-2.98678E-05-3.44041E-05 1.01672E-05-2.83571E-19 1.33647E-18
 -1       258 1.07479E-04-2.83718E-05-3.42742E-05-3.28376E-06 1.18696E-18 6.91549E-19
 -1       259 1.14573E-04-3.26655E-05-3.52885E-05-1.40674E-05 4.57398E-20-1.82191E-19
 -1       260 1.24599E-04-3.83825E-05-3.69269E-05-1.48704E-05-1.11471E-20-1.70779E-18
 -1       261 1.31099E-04-4.13773E-05-3.83715E-05-8.39348E-06 1.00610E-18-1.61850E-18
 -1       262 1.32241E-04-4.13270E-05-3.89195E-05-9.39998E-07-1.33829E-18-1.53468E-18
 -1       263 1.29345E-04-3.96542E-05-3.84432E-05 4.00882E-06 1.11722E-18-1.53199E-18
 -1       264 1.24411E-04-3.75532E-05-3.72471E-05 6.12243E-06 9.43080E-19-2.23589E-18
 -1       265 1.18946E-04-3.55831E-05-3.57468E-05 6.34832E-06 1.63091E-19-1.09039E-18
 -1       266 1.13813E-04-3.39180E-05-3.42512E-05 5.65360E-06-1.41062E-18 8.38324E-19
 -1       267 1.09389E-04-3.25736E-05-3.29233E-05 4.65906E-06-1.23314E-18 3.06308E-18
 -1       268 1.05764E-04-3.15141E-05-3.18195E-05 3.67671E-06-1.50271E-18 4.10640E-18
 -1       269 1.02888E-04-3.06915E-05-3.09372E-05 2.82986E-06 9.94069E-19 1.59504E-18
 -1       270 1.00651E-04-3.00589E-05-3.02491E-05 2.14574E-06 4.87871E-19 1.52425E-18
 -1       271 9.89361E-05-2.95760E-05-2.97214E-05 1.60940E-06 1.99508E-18 3.47907E-19
 -1       272 9.76403E-05-2.92104E-05-2.93234E-05 1.19027E-06 2.24762E-18-2.51490E-18
 -1       273 9.66817E-05-2.89377E-05-2.90303E-05 8.55121E-07 1.94569E-18-2.05708E-18
 -1       274 9.60001E-05-2.87390E-05-2.88246E-05 5.70184E-07-1.18750E-18-2.98065E-18
 -1       275 9.55550E-05-2.86036E-05-2.86921E-05 3.04728E-07 6.29138E-19-3.58473E-18
 -1       276 9.53121E-05-2.85449E-05-2.86110E-05 6.31374E-08-1.03944E-19-2.65258E-18
 -1       277 9.52706E-05-2.84057E-05-2.86546E-05 1.98653E-07-8.70327E-19 3.90921E-18
 -1       278 9.51627E-05-2.80954E-05-2.87427E-05 4.47570E-07-7.43961E-19 3.38145E-18
 -1       279 9.49981E-05-2.76676E-05-2.88559E-05 6.15342E-07-1.41404E-18 2.61379E-20
 -1       280 9.48181E-05-2.71905E-05-2.89836E-05 6.56627E-07-1.31947E-18-1.33517E-18
 -1       281 9.46548E-05-2.67473E-05-2.91042E-05 5.81287E-07-1.84852E-18-3.87772E-18
 -1       282 9.45264E-05-2.63911E-05-2.92025E-05 4.11656E-07-1.63952E-18 1.04410E-18
 -1       283 9.44532E-05-2.61816E-05-2.92612E-05 1.84252E-07-1.84259E-18-2.08173E-19
 -1       284 9.44423E-05-2.61441E-05-2.92727E-05-6.14562E-08-2.07852E-20-3.22853E-20
 -1       285 9.44920E-05-2.62775E-05-2.92366E-05-2.88934E-07 1.40640E-18 2.16571E-18
 -1       286 9.45929E-05-2.65577E-05-2.91593E-05-4.68090E-07-2.57132E-19-1.27029E-18
 -1       287 9.47276E-05-2.69353E-05-2.90545E-05-5.75626E-07-4.98590E-19-1.51015E-18
 -1       288 9.48831E-05-2.73706E-05-2.89339E-05-6.01063E-07-7.14309E-19 1.23867E-18
 -1       289 9.50377E-05-2.77993E-05-2.88161E-05-5.35317E-07-2.24495E-19 2.38382E-18
 -1       290 9.51726E-05-2.81631E-05-2.87170E-05-3.81357E-07-1.75081E-18 1.24992E-18
 -1       291 9.52893E-05-2.83701E-05-2.86781E-05-3.03449E-07-9.42044E-19-1.41849E-18
 -1       292 1.23096E-05-5.14826E-05 1.31074E-05 2.24851E-06 1.88936E-18 1.98576E-18
 -1       293 2.43334E-05-4.48303E-05 6.05221E-06 1.88275E-05 3.69285E-18 2.25967E-18
 -1       294 4.84667E-05-4.06976E-05-5.70771E-06 2.93604E-05 4.40372E-18 4.93529E-18
 -1       295 8.63263E-05-3.64164E-05-2.24352E-05 4.06904E-05 5.65289E-18 4.99432E-18
 -1       296 1.37576E-04-4.00759E-05-4.12191E-05 4.03150E-05 4.78764E-18 4.13797E-18
 -1       297 1.80110E-04-3.87564E-05-5.83406E-05 3.38578E-05 3.70381E-18 3.73203E-18
 -1       298 2.07249E-04-3.69612E-05-6.97106E-05 1.63039E-05 3.39988E-18 2.42590E-18
 -1       299 2.22302E-04-3.82871E-05-7.46820E-05-5.25920E-07 3.45653E-18 1.06377E-18
 -1       300 2.09641E-04-3.87312E-05-6.96167E-05-2.07676E-05 8.49151E-19-1.59835E-18
 -1       301 1.75490E-04-3.76578E-05-5.68051E-05-3.89413E-05 1.72588E-18-1.95665E-18
 -1       302 1.32610E-04-4.66983E-05-3.66869E-05-3.59676E-05 8.46504E-19-8.88749E-19
 -1       303 7.37185E-05-3.73691E-05-1.70128E-05-3.81878E-05 1.63393E-18-2.43003E-18
 -1       304 3.88266E-05-4.26761E-05-1.13892E-06-2.48775E-05 4.08905E-19-3.09604E-18
 -1       305 1.78402E-05-4.93474E-05 9.95870E-06-1.04596E-05-1.43731E-18-2.39382E-18
 -1       306 1.12979E-05-5.17251E-05 1.36429E-05 2.91631E-06-3.32176E-18-1.03306E-18
 -1       307 1.80412E-05-4.54360E-05 8.79130E-06 1.76977E-05-3.16441E-18 6.23416E-19
 -1       308 3.81130E-05-3.86476E-05-2.03005E-06 2.99852E-05-2.22431E-18-1.43315E-18
 -1       309 7.61339E-05-3.44371E-05-1.86130E-05 4.35267E-05-1.47320E-18-2.44443E-18
 -1       310 1.15800E-04-2.99731E-05-3.62875E-05 4.78012E-05-1.87427E-18-3.23651E-18
 -1       311 1.57220E-04-2.92018E-05-5.29312E-05 4.67295E-05-2.86165E-18-2.62072E-18
 -1       312 1.83073E-04-2.97536E-05-6.37930E-05 2.12205E-05-3.96401E-18-6.07323E-19
 -1       313 2.08140E-04-3.41268E-05-7.13246E-05 7.19980E-06-1.27161E-18-4.49245E-19
 -1       314 2.08600E-04-3.60227E-05-7.04847E-05-1.71351E-05-1.42937E-18 1.00140E-18
 -1       315 1.82185E-04-3.18485E-05-6.18848E-05-3.47636E-05-2.62787E-18 6.98590E-19
 -1       316 1.45181E-04-2.82141E-05-4.85359E-05-4.89697E-05-5.08940E-18 7.82870E-19
 -1       317 1.03091E-04-2.97075E-05-3.13354E-05-4.77755E-05-3.54272E-18 4.03886E-18
 -1       318 6.40093E-05-3.16772E-05-1.50780E-05-4.05275E-05-1.43996E-18 6.03395E-18
 -1       319 3.51567E-05-3.77557E-05-1.58984E-06-2.60120E-05-6.47980E-19 3.37818E-18
 -1       320 2.14581E-05-4.53075E-05 7.09333E-06-1.91787E-05 4.92550E-19 1.61180E-18
 -1       321 1.46541E-05-5.36019E-05 1.27703E-05-8.41704E-06 1.46007E-18 2.76514E-18
 -1       322 9.16201E-05-1.44408E-05-3.31546E-05-1.29821E-05-3.69230E-19-1.04968E-18
 -1       323 9.56714E-05-1.91005E-05-3.28786E-05-1.46377E-05-6.13778E-19-9.29572E-19
 -1       324 8.80272E-05-1.03726E-05-3.33357E-05-8.15008E-06 1.17904E-19-1.28279E-18
 -1       325 8.72247E-05-9.45069E-06-3.33802E-05-5.71410E-06 2.67207E-19-1.16089E-18
 -1       326 8.67717E-05-8.91930E-06-3.34103E-05-3.36424E-06 5.13963E-19-8.61555E-19
 -1       327 8.65700E-05-8.67871E-06-3.34255E-05-1.07212E-06 7.33961E-19-6.80356E-19
 -1       328 8.65791E-05-8.68865E-06-3.34252E-05 1.20140E-06 1.00197E-18-5.66768E-19
 -1       329 8.68003E-05-8.95097E-06-3.34091E-05 3.49610E-06 1.00084E-18-5.20631E-19
 -1       330 8.72661E-05-9.49673E-06-3.33784E-05 5.81026E-06 1.06422E-18-3.38456E-19
 -1       331 8.80942E-05-1.04495E-05-3.33317E-05 8.25008E-06 1.14857E-18 1.71561E-19
 -1       332 8.94929E-05-1.20324E-05-3.32640E-05 1.07613E-05 1.21373E-18 5.54694E-19
 -1       333 9.18902E-05-1.47182E-05-3.31548E-05 1.31685E-05 1.17922E-18 1.23137E-18
 -1       334 9.57649E-05-1.94464E-05-3.28156E-05 1.43783E-05 1.00603E-18 2.10247E-18
 -1       335 9.87322E-05-2.44271E-05-3.19332E-05 1.19018E-05 8.13800E-19 2.81965E-18
 -1       336 9.63334E-05-2.67947E-05-2.97727E-05 5.74365E-06 6.65669E-19 2.44032E-18
 -1       337 9.63950E-05-2.60145E-05-3.01185E-05-6.34376E-06-3.99194E-19-6.84222E-19
 -1       338 9.48807E-05-2.70117E-05-2.90612E-05-2.82702E-06-4.35750E-19-4.70661E-19
 -1       339 9.39136E-05-2.74078E-05-2.84879E-05-9.02147E-07-2.66773E-19-3.98693E-19
 -1       340 9.34108E-05-2.76206E-05-2.81890E-05 1.77532E-07-4.69543E-20-6.11215E-19
 -1       341 9.32435E-05-2.77740E-05-2.80554E-05 7.71864E-07-1.35924E-19-5.46248E-19
 -1       342 9.32980E-05-2.79053E-05-2.80242E-05 1.08281E-06-1.56997E-19-3.19898E-19
 -1       343 9.34926E-05-2.80245E-05-2.80573E-05 1.23130E-06-2.11401E-19-4.79741E-19
 -1       344 9.37738E-05-2.81342E-05-2.81311E-05 1.29449E-06-4.72028E-19-8.33781E-19
 -1       345 9.41103E-05-2.82364E-05-2.82316E-05 1.32400E-06-8.15469E-19-1.04651E-18
 -1       346 9.44867E-05-2.83342E-05-2.83509E-05 1.35504E-06-7.84133E-19-1.02860E-18
 -1       347 9.48993E-05-2.84323E-05-2.84855E-05 1.41119E-06-3.34776E-19-9.46825E-19
 -1       348 9.53522E-05-2.85373E-05-2.86344E-05 1.50648E-06-1.45072E-19-7.49280E-19
 -1       349 9.58547E-05-2.86578E-05-2.87979E-05 1.64571E-06 3.93833E-20-9.80794E-19
 -1       350 9.64182E-05-2.88045E-05-2.89764E-05 1.82324E-06-2.29960E-19-1.01229E-18
 -1       351 9.70536E-05-2.89904E-05-2.91692E-05 2.02035E-06 4.19272E-21-9.72193E-19
 -1       352 9.77677E-05-2.92300E-05-2.93729E-05 2.20166E-06-3.29684E-19-1.39079E-18
 -1       353 9.85587E-05-2.95383E-05-2.95806E-05 2.31108E-06-7.29955E-20-9.86928E-19
 -1       354 9.94112E-05-2.99269E-05-2.97808E-05 2.26924E-06 6.02086E-20-4.01776E-20
 -1       355 1.00289E-04-3.03975E-05-2.99570E-05 1.97533E-06 3.47396E-19-4.01573E-20
 -1       356 1.01124E-04-3.09292E-05-3.00894E-05 1.31871E-06 1.86612E-19-2.78271E-19
 -1       357 1.01811E-04-3.14613E-05-3.01580E-05 2.07274E-07 7.01685E-19-2.99027E-19
 -1       358 1.02197E-04-3.18741E-05-3.01477E-05-1.38086E-06 7.67253E-19-4.55894E-19
 -1       359 1.02094E-04-3.19842E-05-3.00562E-05-3.32370E-06 9.64367E-19-3.59731E-19
 -1       360 1.01327E-04-3.15800E-05-2.98979E-05-5.28443E-06 1.72413E-19 7.72385E-19
 -1       361 9.98323E-05-3.05222E-05-2.97051E-05-6.69981E-06 1.13622E-20 3.22347E-19
 -1       362 9.77876E-05-2.88969E-05-2.95188E-05-6.90666E-06 6.67639E-19 1.58394E-19
 -1       363 9.56941E-05-2.71257E-05-2.93746E-05-5.44510E-06 2.65305E-19-4.74413E-19
 -1       364 9.42612E-05-2.58738E-05-2.92934E-05-2.42086E-06-3.84217E-19-6.11530E-19
 -1       365 9.40631E-05-2.57010E-05-2.92819E-05 1.35628E-06-1.38915E-18-2.39250E-19
 -1       366 9.51808E-05-2.66865E-05-2.93410E-05 4.70080E-06-1.16360E-18-6.62912E-19
 -1       367 9.71531E-05-2.83781E-05-2.94668E-05 6.64689E-06-8.50055E-19-5.64240E-19
 -1       368 9.92693E-05-3.00995E-05-2.96429E-05 6.88665E-06-1.23143E-18-1.68876E-18
 -1       369 1.00948E-04-3.13408E-05-2.98367E-05 5.74882E-06-9.36814E-19-1.68150E-18
 -1       370 1.01918E-04-3.19225E-05-3.00069E-05 3.87523E-06-6.29124E-19-9.25725E-19
 -1       371 1.02188E-04-3.19352E-05-3.01181E-05 1.88094E-06-2.67227E-19-7.38665E-19
 -1       372 1.01916E-04-3.15844E-05-3.01508E-05 1.71970E-07 2.04979E-18-6.43866E-19
 -1       373 1.01294E-04-3.10677E-05-3.01034E-05-1.07371E-06 9.00754E-19-1.58951E-18
 -1       374 1.00487E-04-3.05235E-05-2.99887E-05-1.84320E-06 1.33941E-21 1.21185E-18
 -1       375 9.96180E-05-3.00275E-05-2.98267E-05-2.21214E-06-3.53300E-19 2.40596E-18
 -1       376 9.87663E-05-2.96101E-05-2.96389E-05-2.28597E-06-8.92381E-20 2.07029E-18
 -1       377 9.79797E-05-2.92742E-05-2.94446E-05-2.16499E-06 1.88996E-18 1.77410E-18
 -1       378 9.72833E-05-2.90100E-05-2.92587E-05-1.92834E-06 9.79685E-19 2.52077E-18
 -1       379 9.66869E-05-2.88024E-05-2.90916E-05-1.62978E-06 2.21436E-19 1.26305E-18
 -1       380 9.61907E-05-2.86362E-05-2.89500E-05-1.30016E-06-1.47008E-18 1.68255E-18
 -1       381 9.57901E-05-2.84999E-05-2.88363E-05-9.53208E-07 5.54961E-19 1.27241E-18
 -1       382 9.55105E-05-2.84184E-05-2.87519E-05-6.21594E-07-7.15218E-20-2.98443E-19
 -1       383 9.43155E-05-2.73216E-05-2.86733E-05 2.46903E-06 5.49149E-19 2.29767E-18
 -1       384 9.31172E-05-2.74430E-05-2.81241E-05 7.35942E-07 1.33701E-19 1.95573E-18
 -1       385 9.25763E-05-2.75217E-05-2.78705E-05-1.97923E-07 6.19050E-20 1.91874E-18
 -1       386 9.24568E-05-2.76170E-05-2.77842E-05-6.94120E-07 6.48793E-20 1.61397E-18
 -1       387 9.25956E-05-2.77316E-05-2.77969E-05-9.43120E-07 4.83167E-19 1.16250E-18
 -1       388 9.28872E-05-2.78571E-05-2.78692E-05-1.05377E-06 6.56418E-19 1.06424E-18
 -1       389 9.32680E-05-2.79862E-05-2.79775E-05-1.09442E-06 1.01083E-18 9.91599E-19
 -1       390 9.37038E-05-2.81152E-05-2.81091E-05-1.11176E-06 2.63811E-19 1.01200E-18
 -1       391 9.41814E-05-2.82435E-05-2.82586E-05-1.14035E-06 2.29126E-19 9.89901E-19
 -1       392 9.47041E-05-2.83739E-05-2.84263E-05-1.20832E-06 1.62084E-19 4.10310E-19
 -1       393 9.52881E-05-2.85113E-05-2.86171E-05-1.34101E-06 5.04228E-19 5.83900E-19
 -1       394 9.59611E-05-2.86630E-05-2.88396E-05-1.56386E-06 3.08403E-19 7.26334E-19
 -1       395 9.67611E-05-2.88384E-05-2.91062E-05-1.90458E-06-2.15292E-19 8.95177E-19
 -1       396 9.77367E-05-2.90493E-05-2.94326E-05-2.39461E-06 1.52138E-19 1.27359E-18
 -1       397 9.89462E-05-2.93110E-05-2.98373E-05-3.06915E-06 9.53466E-19 6.43364E-19
 -1       398 1.00458E-04-2.96438E-05-3.03410E-05-3.96387E-06 3.34301E-19 5.44077E-19
 -1       399 1.02347E-04-3.00781E-05-3.09634E-05-5.10474E-06-1.06584E-18 1.31670E-19
 -1       400 1.04694E-04-3.06633E-05-3.17186E-05-6.48416E-06-6.53814E-19 3.14298E-19
 -1       401 1.07576E-04-3.14853E-05-3.26048E-05-8.01219E-06-3.31536E-19-2.13980E-19
 -1       402 1.11066E-04-3.26931E-05-3.35899E-05-9.42888E-06 6.55130E-19 6.98956E-19
 -1       403 1.15213E-04-3.45235E-05-3.45945E-05-1.01723E-05-4.85613E-19 7.39921E-19
 -1       404 1.20007E-04-3.72579E-05-3.54899E-05-9.24525E-06-1.11370E-18 4.74987E-19
 -1       405 1.25215E-04-4.09416E-05-3.61507E-05-5.26799E-06-9.47291E-19 1.17601E-18
 -1       406 1.29920E-04-4.46023E-05-3.65979E-05 2.79553E-06-3.35028E-19 1.86347E-18
 -1       407 1.31880E-04-4.52805E-05-3.71975E-05 1.36141E-05 1.10675E-18 3.12822E-18
 -1       408 1.28558E-04-3.94119E-05-3.84127E-05 2.08421E-05 7.51993E-19 3.04046E-18
 -1       409 1.21337E-04-2.86803E-05-4.00796E-05 1.53157E-05-1.33540E-19 1.84314E-18
 -1       410 1.18489E-04-2.42775E-05-4.07273E-05-2.78520E-06 1.45012E-18 2.96031E-19
 -1       411 1.23660E-04-3.15707E-05-3.97519E-05-1.84512E-05 1.70201E-18-1.46280E-18
 -1       412 1.30512E-04-4.18515E-05-3.81187E-05-1.97539E-05 3.13965E-19-2.22612E-18
 -1       413 1.32081E-04-4.57279E-05-3.70684E-05-1.04967E-05 4.64492E-19-1.87904E-18
 -1       414 1.28842E-04-4.37756E-05-3.65015E-05-1.50193E-08-1.07882E-18-6.96868E-19
 -1       415 1.23648E-04-3.98386E-05-3.59640E-05 6.86577E-06 4.26147E-19-9.24030E-19
 -1       416 1.18397E-04-3.63388E-05-3.51975E-05 9.80528E-06 1.15225E-18 8.41362E-19
 -1       417 1.13737E-04-3.38609E-05-3.42445E-05 1.01066E-05-2.93298E-19 1.06246E-18
 -1       418 1.09783E-04-3.22312E-05-3.32352E-05 9.07922E-06-1.80031E-18 1.72535E-18
 -1       419 1.06493E-04-3.11553E-05-3.22800E-05 7.58278E-06-2.78544E-18 2.23570E-18
 -1       420 1.03799E-04-3.04170E-05-3.14398E-05 6.07045E-06-1.31014E-18 1.13486E-18
 -1       421 1.01626E-04-2.98869E-05-3.07356E-05 4.73697E-06 1.47060E-18 1.16751E-18
 -1       422 9.98945E-05-2.94912E-05-3.01646E-05 3.63692E-06 1.49087E-18 9.66794E-19
 -1       423 9.85329E-05-2.91875E-05-2.97127E-05 2.75858E-06 2.36840E-18 2.09600E-19
 -1       424 9.74751E-05-2.89496E-05-2.93626E-05 2.06276E-06 3.20445E-18 6.64777E-19
 -1       425 9.66679E-05-2.87623E-05-2.90981E-05 1.50296E-06 2.23784E-18 4.69436E-19
 -1       426 9.60641E-05-2.86106E-05-2.89054E-05 1.03508E-06 3.04996E-19 2.59127E-19
 -1       427 9.56277E-05-2.84920E-05-2.87699E-05 6.21668E-07 5.46256E-20 4.25671E-19
 -1       428 9.54212E-05-2.84277E-05-2.87100E-05 4.03630E-07-1.22187E-18 2.07952E-18
 -1       429 9.49138E-05-2.73704E-05-2.89469E-05 1.15024E-06-1.70875E-18 2.58718E-19
 -1       430 9.51931E-05-2.78354E-05-2.88657E-05 1.01434E-06-1.94345E-18 1.07380E-18
 -1       431 9.53458E-05-2.81661E-05-2.87892E-05 7.32243E-07-1.27900E-18 3.56449E-18
 -1       432 9.46578E-05-2.69393E-05-2.90228E-05 1.09273E-06-1.47766E-18-4.25310E-18
 -1       433 9.44468E-05-2.65783E-05-2.90879E-05 8.60883E-07-9.46656E-19 2.52495E-19
 -1       434 9.43133E-05-2.63418E-05-2.91325E-05 5.05254E-07 1.12351E-18 5.90494E-19
 -1       435 9.42678E-05-2.62542E-05-2.91508E-05 8.93102E-08-5.76781E-19 2.57780E-19
 -1       436 9.43081E-05-2.63190E-05-2.91402E-05-3.23187E-07 9.15938E-19 2.00709E-18
 -1       437 9.44226E-05-2.65204E-05-2.91025E-05-6.76310E-07 7.63900E-19-7.52155E-19
 -1       438 9.45894E-05-2.68220E-05-2.90441E-05-9.24027E-07 1.05541E-18-2.02682E-18
 -1       439 9.47942E-05-2.71961E-05-2.89709E-05-1.04712E-06 1.16098E-18 7.12361E-19
 -1       440 9.50128E-05-2.75962E-05-2.88923E-05-1.02700E-06 8.90523E-19 5.47128E-19
 -1       441 9.52248E-05-2.79847E-05-2.88157E-05-8.68599E-07-4.89087E-19 4.80787E-19
 -1       442 5.54275E-05-4.19107E-05-5.99002E-06 3.94236E-05 1.08473E-18 2.99490E-18
 -1       443 1.02384E-05-2.66060E-05 6.31565E-06-5.96484E-06 4.60905E-19 2.67991E-18
 -1       444 2.11054E-05-2.56694E-05 1.88498E-06 2.05429E-05-4.02341E-20 2.32383E-18
 -1       445 9.64659E-05-5.55268E-05-1.76785E-05 3.99175E-05 8.02670E-19 2.17195E-18
 -1       446 1.70301E-05-2.93508E-05 4.57918E-06-2.20550E-05 1.88221E-18 1.33259E-18
 -1       447 8.93720E-05-1.18952E-05-3.32705E-05-1.06445E-05-7.72281E-20-1.30087E-18
 -1       448 1.67797E-04-3.47061E-05-5.69152E-05-6.16920E-06 2.52638E-18-4.71691E-19
 -1       449 1.63907E-04-1.76913E-05-6.26095E-05-4.86656E-06 3.16896E-18 7.14366E-19
 -1       450 1.70729E-04-2.01735E-05-6.40787E-05 4.05769E-06 2.03786E-18 2.12791E-18
 -1       451 1.71060E-04-3.66622E-05-5.72121E-05 1.93084E-06 6.80009E-19 1.15313E-18
 -1       452 1.58394E-04-5.27249E-05-4.52781E-05-6.93441E-06 7.51874E-19 1.38066E-19
 -1       453 1.20826E-04-6.02154E-05-2.60949E-05-3.23239E-05-9.54606E-19 4.92603E-19
 -1       454 8.09113E-05-5.09808E-05-1.30828E-05-4.13733E-05-7.10449E-19-1.21901E-18
 -1       455 4.14676E-05-3.56526E-05-2.64333E-06-3.52882E-05-1.11692E-18-3.60000E-18
 -1       456 1.47561E-05-2.43024E-05 3.90038E-06-1.17914E-05-1.24612E-18-1.89037E-18
 -1       457 1.49012E-05-2.23873E-05 3.18256E-06 1.70711E-05-1.02004E-18-2.96462E-20
 -1       458 4.32262E-05-3.34172E-05-4.07226E-06 4.17972E-05-1.58723E-18 5.77147E-19
 -1       459 7.68362E-05-4.66545E-05-1.30630E-05 4.63947E-05-9.52489E-19-1.44690E-18
 -1       460 1.20379E-04-5.45199E-05-2.81845E-05 3.55153E-05-1.05424E-18-3.48633E-18
 -1       461 1.44826E-04-4.66642E-05-4.20022E-05 1.92195E-05-2.33474E-18-1.80736E-18
 -1       462 1.54003E-04-3.31022E-05-5.18830E-05 4.35692E-06-3.37977E-18-7.18284E-19
 -1       463 1.59080E-04-1.53661E-05-6.14788E-05 3.86020E-07-2.81204E-18-9.79223E-19
 -1       464 1.55207E-04-1.04414E-05-6.20338E-05 5.39881E-07-1.53196E-18 3.75950E-19
 -1       465 1.58399E-04-1.87828E-05-5.97040E-05 6.31626E-07-1.61339E-18 6.12511E-19
 -1       466 1.54397E-04-3.67866E-05-5.02980E-05-1.06055E-05-2.33096E-18-9.93676E-19
 -1       467 1.39550E-04-5.04497E-05-3.81352E-05-2.34068E-05-1.19527E-18-3.30544E-18
 -1       468 1.05490E-04-5.02139E-05-2.38025E-05-4.14895E-05 2.11239E-18 1.63350E-18
 -1       469 7.03892E-05-4.48579E-05-1.12168E-05-4.56436E-05 3.77893E-18 4.12719E-18
 -1       470 4.48563E-05-3.66532E-05-3.68436E-06-4.14871E-05 3.26076E-18 1.97036E-18
 -1       471 1.32420E-04-6.04125E-05-3.10294E-05 2.73067E-05 2.09154E-18 1.77178E-18
 -1       472 1.60457E-04-5.16333E-05-4.65459E-05 6.55767E-06 3.14500E-18 7.29295E-19
 -1       473 1.43407E-04-2.10651E-05-5.28337E-05-7.42730E-06-4.33813E-18-1.17473E-19
 -1       474 1.45887E-04-6.37298E-05-3.53178E-05-1.14788E-05-2.49981E-19 4.80744E-19
 -1       475 9.57909E-05-2.51369E-05-3.02664E-05 6.01055E-06 7.38781E-19 1.49544E-18
 -1       476 8.95734E-05-1.33849E-05-3.26713E-05-3.91575E-06 3.27693E-19-8.27502E-19
 -1       477 9.02746E-05-1.43531E-05-3.25591E-05-5.87547E-06 1.96585E-19-1.05612E-18
 -1       478 8.90812E-05-1.27021E-05-3.27517E-05 5.32833E-08 8.35754E-19-4.71413E-19
 -1       479 8.92162E-05-1.28873E-05-3.27304E-05 2.03928E-06 8.60319E-19-6.12086E-19
 -1       480 8.96080E-05-1.34279E-05-3.26678E-05 3.98839E-06 9.05840E-19-4.19902E-19
 -1       481 9.03254E-05-1.44185E-05-3.25526E-05 5.94077E-06 1.11204E-18-9.20900E-20
 -1       482 9.14617E-05-1.59998E-05-3.23639E-05 7.76970E-06 1.02251E-18 3.77558E-19
 -1       483 9.32379E-05-1.84764E-05-3.20598E-05 9.29000E-06 1.01590E-18 8.08101E-19
 -1       484 2.27372E-05-1.56073E-05-2.46146E-06-1.58919E-05 2.17608E-18 8.10187E-19
 -1       485 9.50861E-05-2.65559E-05-2.93517E-05 2.86140E-06 4.56942E-19 1.24711E-18
 -1       486 9.54496E-05-2.44148E-05-3.04338E-05-5.79740E-06-2.37905E-19-8.38741E-19
 -1       487 1.55119E-04-4.61327E-05-4.70067E-05-1.48242E-05 2.82192E-18 8.04681E-21
 -1       488 9.52530E-05-2.61930E-05-2.95888E-05-2.87337E-06-3.39008E-19-6.40731E-19
 -1       489 9.49157E-05-2.71350E-05-2.90454E-05-9.83769E-07-2.24779E-19-5.56660E-19
 -1       490 9.46540E-05-2.76574E-05-2.87112E-05 1.73474E-07-9.76613E-20-4.41612E-19
 -1       491 9.45181E-05-2.79719E-05-2.85192E-05 8.58148E-07-1.55647E-19-5.68660E-19
 -1       492 9.44929E-05-2.81692E-05-2.84242E-05 1.24594E-06-2.19924E-19-7.01253E-19
 -1       493 9.45511E-05-2.82936E-05-2.83960E-05 1.45696E-06-6.59780E-19-7.64783E-19
 -1       494 9.46697E-05-2.83700E-05-2.84142E-05 1.57467E-06-7.73126E-19-9.67806E-19
 -1       495 9.48331E-05-2.84142E-05-2.84652E-05 1.65766E-06-7.07772E-19-6.62118E-19
 -1       496 9.50337E-05-2.84387E-05-2.85406E-05 1.74678E-06-4.35188E-19 1.90967E-20
 -1       497 9.52705E-05-2.84556E-05-2.86347E-05 1.86915E-06-7.79275E-20 2.13156E-20
 -1       498 9.55484E-05-2.84782E-05-2.87441E-05 2.03996E-06-2.04157E-19-4.96106E-20
 -1       499 9.58773E-05-2.85230E-05-2.88658E-05 2.26229E-06-1.19524E-19-2.40795E-19
 -1       500 9.62720E-05-2.86116E-05-2.89969E-05 2.52534E-06-1.06859E-19 3.41584E-19
 -1       501 9.67515E-05-2.87718E-05-2.91339E-05 2.80112E-06-7.07485E-19-1.03117E-19
 -1       502 9.73388E-05-2.90384E-05-2.92716E-05 3.04003E-06-7.25812E-21-4.35601E-19
 -1       503 9.80587E-05-2.94507E-05-2.94039E-05 3.16633E-06 6.04904E-20-7.67109E-19
 -1       504 9.89333E-05-3.00461E-05-2.95243E-05 3.07541E-06 2.55758E-19-9.57786E-19
 -1       505 9.99709E-05-3.08436E-05-2.96282E-05 2.63678E-06 2.46340E-19-1.29184E-18
 -1       506 1.01146E-04-3.18156E-05-2.97162E-05 1.70938E-06 5.95582E-19-8.86798E-19
 -1       507 1.02366E-04-3.28455E-05-2.97989E-05 1.78988E-07 5.89415E-19-4.75437E-19
 -1       508 1.03438E-04-3.36831E-05-2.98992E-05-1.96931E-06 8.28092E-19-5.67587E-19
 -1       509 1.04049E-04-3.39372E-05-3.00513E-05-4.54006E-06 7.20134E-19-7.02890E-19
 -1       510 1.03840E-04-3.31717E-05-3.02875E-05-7.01593E-06-8.29372E-19-1.65998E-18
 -1       511 1.02592E-04-3.11505E-05-3.06163E-05-8.54136E-06 4.85329E-19-1.47447E-18
 -1       512 1.00522E-04-2.81958E-05-3.09937E-05-8.15767E-06-3.29576E-19-1.04205E-18
 -1       513 9.84226E-05-2.53392E-05-3.13160E-05-5.37330E-06-2.27973E-19-1.22639E-18
 -1       514 9.73787E-05-2.39479E-05-3.14643E-05-7.33640E-07-4.95652E-19 2.16880E-19
 -1       515 9.79753E-05-2.47457E-05-3.13782E-05 4.16100E-06-1.20549E-18 3.65934E-19
 -1       516 9.98752E-05-2.73164E-05-3.10905E-05 7.58127E-06-1.24000E-18-3.37373E-19
 -1       517 1.02049E-04-3.03668E-05-3.07172E-05 8.63446E-06-1.25987E-18-7.83480E-19
 -1       518 1.03579E-04-3.27202E-05-3.03690E-05 7.56551E-06-6.68378E-19 3.55962E-19
 -1       519 1.04076E-04-3.38404E-05-3.01050E-05 5.25792E-06-3.27099E-19 1.80648E-19
 -1       520 1.03660E-04-3.38321E-05-2.99308E-05 2.64261E-06-6.08472E-19 1.56034E-18
 -1       521 1.02680E-04-3.31121E-05-2.98195E-05 3.43158E-07 2.80382E-19 6.92630E-19
 -1       522 1.01476E-04-3.21006E-05-2.97361E-05-1.36385E-06 9.54794E-19-2.37558E-19
 -1       523 1.00276E-04-3.10887E-05-2.96541E-05-2.44409E-06 1.49131E-18 2.15558E-20
 -1       524 9.91967E-05-3.02261E-05-2.95602E-05-2.98934E-06 3.77731E-19 4.44740E-19
 -1       525 9.82814E-05-2.95602E-05-2.94525E-05-3.13439E-06 6.39202E-19 2.24576E-18
 -1       526 9.75293E-05-2.90803E-05-2.93352E-05-3.01031E-06 1.18740E-19 1.84204E-18
 -1       527 9.69214E-05-2.87497E-05-2.92160E-05-2.72364E-06 1.79346E-18 6.37566E-19
 -1       528 9.64326E-05-2.85257E-05-2.91022E-05-2.35051E-06 1.29801E-19 1.71988E-18
 -1       529 9.60380E-05-2.83693E-05-2.90000E-05-1.93919E-06 2.15440E-19 2.00032E-18
 -1       530 9.57170E-05-2.82503E-05-2.89133E-05-1.51442E-06-2.31658E-18 2.59958E-18
 -1       531 9.41483E-05-2.76629E-05-2.84901E-05-1.77980E-07 2.21423E-19 6.29768E-19
 -1       532 9.39969E-05-2.79039E-05-2.83241E-05-8.28378E-07 4.91393E-19 5.67121E-19
 -1       533 9.40043E-05-2.80686E-05-2.82576E-05-1.18604E-06 6.39272E-19 8.36493E-19
 -1       534 9.41220E-05-2.81869E-05-2.82578E-05-1.37424E-06 8.90801E-19 6.28937E-19
 -1       535 9.43149E-05-2.82725E-05-2.83038E-05-1.47760E-06 4.43349E-19 1.25178E-18
 -1       536 9.45614E-05-2.83331E-05-2.83834E-05-1.55735E-06 5.61021E-19 1.01585E-18
 -1       537 9.48514E-05-2.83733E-05-2.84903E-05-1.66068E-06 4.30246E-19 7.69374E-19
 -1       538 9.51836E-05-2.83960E-05-2.86226E-05-1.82682E-06 7.70384E-20 9.10330E-19
 -1       539 9.55636E-05-2.84030E-05-2.87820E-05-2.09144E-06 1.29798E-19 7.29371E-19
 -1       540 9.60018E-05-2.83946E-05-2.89728E-05-2.48980E-06 1.91591E-19 5.53618E-19
 -1       541 9.65118E-05-2.83707E-05-2.92008E-05-3.05895E-06-1.46529E-19 7.39299E-20
 -1       542 9.71090E-05-2.83313E-05-2.94728E-05-3.83849E-06 6.67068E-19-2.93565E-19
 -1       543 9.78102E-05-2.82802E-05-2.97941E-05-4.86893E-06 6.54305E-19 4.98474E-19
 -1       544 9.86346E-05-2.82329E-05-3.01668E-05-6.18532E-06-4.53616E-19 6.22809E-19
 -1       545 9.96121E-05-2.82340E-05-3.05846E-05-7.80258E-06-1.34821E-18 5.12049E-19
 -1       546 1.00804E-04-2.83913E-05-3.10283E-05-9.68623E-06-1.51792E-20 1.02733E-18
 -1       547 1.02350E-04-2.89357E-05-3.14600E-05-1.17001E-05-1.97161E-19 8.63073E-19
 -1       548 1.04559E-04-3.03054E-05-3.18245E-05-1.35188E-05-2.61461E-19 9.25241E-19
 -1       549 1.08025E-04-3.32064E-05-3.20746E-05-1.44939E-05-6.26735E-19 6.57517E-19
 -1       550 1.13683E-04-3.84616E-05-3.22504E-05-1.34786E-05-1.02291E-18 1.17431E-19
 -1       551 1.22393E-04-4.61640E-05-3.26811E-05-8.70067E-06-1.21512E-18 5.75290E-19
 -1       552 1.33239E-04-5.34911E-05-3.42227E-05 1.36070E-06 1.06554E-19 1.35984E-18
 -1       553 1.41478E-04-5.21940E-05-3.84690E-05 1.52893E-05 7.37276E-19 1.55043E-18
 -1       554 1.41600E-04-3.61128E-05-4.56848E-05 2.19744E-05 1.10681E-18 1.33162E-18
 -1       555 1.30928E-04-1.97287E-05-4.82339E-05 8.21985E-06 2.18021E-18 4.05232E-19
 -1       556 1.33338E-04-2.27436E-05-4.79282E-05-1.41388E-05 2.92729E-18-1.17076E-18
 -1       557 1.40972E-04-4.17222E-05-4.30186E-05-2.21892E-05 1.34726E-18-1.18283E-18
 -1       558 1.39393E-04-5.33251E-05-3.70360E-05-1.21824E-05 3.18312E-19-2.21261E-18
 -1       559 1.30170E-04-5.13230E-05-3.38358E-05 1.35342E-06-7.04817E-19-1.63404E-18
 -1       560 1.20043E-04-4.35635E-05-3.28066E-05 1.00227E-05-1.20757E-18-1.06785E-18
 -1       561 1.12459E-04-3.67427E-05-3.24718E-05 1.36771E-05-5.58440E-19-5.97903E-20
 -1       562 1.07535E-04-3.23622E-05-3.22271E-05 1.40758E-05-5.90002E-19 2.08598E-18
 -1       563 1.04420E-04-3.00297E-05-3.18814E-05 1.28291E-05-1.62072E-18 3.48546E-18
 -1       564 1.02323E-04-2.89429E-05-3.14431E-05 1.09424E-05-2.20088E-18 1.67314E-18
 -1       565 1.00781E-04-2.85028E-05-3.09689E-05 8.96037E-06-8.51726E-19 4.41114E-19
 -1       566 9.95635E-05-2.83592E-05-3.05089E-05 7.14697E-06-7.61584E-19 1.17679E-18
 -1       567 9.85655E-05-2.83312E-05-3.00941E-05 5.60066E-06 4.95773E-19 1.98099E-18
 -1       568 9.77379E-05-2.83355E-05-2.97387E-05 4.33161E-06 2.65601E-18 2.01568E-18
 -1       569 9.70551E-05-2.83378E-05-2.94460E-05 3.31006E-06 2.13752E-18 1.19418E-18
 -1       570 9.64957E-05-2.83209E-05-2.92135E-05 2.49318E-06 2.60830E-18 1.12239E-18
 -1       571 9.60467E-05-2.82899E-05-2.90350E-05 1.81877E-06-2.93369E-20 3.45907E-18
 -1       572 9.56704E-05-2.82372E-05-2.88977E-05 1.24296E-06-7.11135E-19 3.60766E-18
 -1       573 9.43223E-05-2.66047E-05-2.90223E-05 1.35625E-06 1.11953E-18-1.78977E-18
 -1       574 9.40610E-05-2.63008E-05-2.90409E-05 9.22384E-07 1.21963E-18 3.43673E-18
 -1       575 9.51150E-05-2.75424E-05-2.89594E-05 1.60693E-06-1.03180E-18-2.88469E-19
 -1       576 9.46912E-05-2.70377E-05-2.89938E-05 1.59353E-06-2.22360E-18-9.34173E-19
 -1       577 9.39359E-05-2.61567E-05-2.90492E-05 3.74717E-07 1.65084E-18-2.43306E-18
 -1       578 9.39486E-05-2.61776E-05-2.90457E-05-2.01243E-07 1.17695E-18 2.07124E-18
 -1       579 9.40832E-05-2.63481E-05-2.90301E-05-7.26198E-07 6.84745E-19 1.33205E-18
 -1       580 9.43072E-05-2.66318E-05-2.90043E-05-1.13121E-06 1.53360E-18-1.35588E-18
 -1       581 9.45976E-05-2.70019E-05-2.89699E-05-1.38815E-06 1.39662E-18-1.77778E-18
 -1       582 9.49169E-05-2.74145E-05-2.89297E-05-1.46829E-06 8.18850E-19 4.09461E-19
 -1       583 9.52392E-05-2.78336E-05-2.88877E-05-1.36465E-06-1.14077E-18-2.28294E-19
 -1       584 2.42474E-05-1.40021E-05-3.78524E-06 9.60456E-06 7.26648E-19 8.05422E-19
 -1       585 8.67559E-05-4.88048E-05-1.59590E-05 3.99509E-05-2.03415E-18 1.09770E-18
 -1       586 9.45099E-05-2.72757E-05-2.88061E-05 9.52830E-07 2.90893E-19 9.72051E-19
 -1       587 4.13873E-05-2.59946E-05-6.11624E-06-3.70916E-05 3.38136E-18 3.50036E-19
 -1       588 9.45803E-05-2.07543E-05-3.16582E-05-9.41808E-06-3.43416E-19-9.19879E-19
 -1       589 1.00287E-04-5.36079E-05-1.98304E-05-4.22753E-05 4.72311E-18 2.29355E-18
 -1       590 4.83784E-05-2.88007E-05-7.88206E-06 3.43045E-05-1.58231E-18 5.20025E-19
 -1       591 1.36645E-04-5.71515E-05-3.41293E-05 1.49589E-05-1.67765E-19-5.42525E-19
 -1       592 8.91948E-05-1.28609E-05-3.27326E-05-1.93295E-06 6.35706E-19-5.31957E-19
 -1       593 1.40745E-04-1.52732E-05-5.44354E-05 2.59665E-06 3.16568E-18-1.39674E-19
 -1       594 1.33639E-04-6.94954E-06-5.49265E-05-3.52592E-06-2.48488E-18-1.65754E-18
 -1       595 1.46353E-04-2.46995E-05-5.26689E-05-1.60768E-05 2.40589E-18 1.48337E-19
 -1       596 1.48034E-04-2.62484E-05-5.27335E-05 1.63038E-05 1.41529E-18 6.39457E-19
 -1       597 1.54498E-04-4.47979E-05-4.73749E-05 1.37268E-05 9.97752E-19 1.12322E-18
 -1       598 1.09834E-04-5.83648E-05-2.19115E-05-3.40655E-05-8.87532E-19 1.04212E-19
 -1       599 7.46634E-05-4.26663E-05-1.32819E-05-4.02275E-05-1.84955E-18-8.03940E-19
 -1       600 3.76287E-05-2.07543E-05-6.62118E-06-2.59351E-05-3.10676E-19-4.06682E-18
 -1       601 2.22631E-05-1.25486E-05-3.54248E-06 1.13794E-06 1.46514E-19-7.44754E-19
 -1       602 3.73320E-05-1.96628E-05-6.95116E-06 3.07770E-05-2.34575E-19 2.31664E-19
 -1       603 7.57274E-05-4.18539E-05-1.40769E-05 4.53642E-05-4.65709E-19-1.85791E-19
 -1       604 1.10891E-04-5.68708E-05-2.30243E-05 3.70645E-05 8.80755E-19-2.36140E-18
 -1       605 1.42227E-04-4.58105E-05-4.16481E-05-3.71067E-08-1.62498E-18-3.04773E-19
 -1       606 1.42815E-04-4.70387E-05-4.13753E-05-2.37632E-06-3.96067E-19-8.07752E-19
 -1       607 1.30608E-04-1.00355E-05-5.23642E-05 7.41505E-06-1.51931E-18-8.09499E-19
 -1       608 1.49226E-04-6.28365E-05-3.72157E-05 2.20742E-06 1.44746E-18-5.31672E-19
 -1       609 1.40670E-04-2.68318E-05-4.92791E-05 9.07324E-06-1.71413E-18 7.40095E-20
 -1       610 1.27861E-04-5.83373E-05-2.97810E-05-2.67372E-05 1.40885E-18-2.26910E-18
 -1       611 6.91498E-05-4.10935E-05-1.17016E-05-4.57438E-05 3.55468E-18 2.85776E-18
 -1       612 9.61247E-05-2.31771E-05-3.12664E-05 9.58487E-06 8.92614E-19 1.72343E-18
 -1       613 1.25633E-04-6.36001E-05-2.64902E-05 2.63954E-05-2.94238E-19 7.78741E-19
 -1       614 9.13760E-05-1.58917E-05-3.23732E-05-7.69504E-06-1.83059E-20-1.14476E-18
 -1       615 1.36013E-04-5.59087E-05-3.44626E-05-9.31802E-06 9.50090E-19-8.68050E-19
 -1       616 9.27874E-05-1.79442E-05-3.20962E-05-8.88571E-06-2.34269E-19-1.05249E-18
 -1       617 1.36515E-04-3.43452E-05-4.42428E-05-9.92200E-06-2.38511E-18 4.57980E-19
 -1       618 1.50491E-04-5.76390E-05-4.01167E-05 7.72944E-06 9.69960E-20 1.24752E-18
 -1       619 1.32546E-04-6.42264E-05-2.92135E-05-1.80980E-05-5.96761E-19 4.31841E-19
 -1       620 9.55344E-05-2.81877E-05-2.88617E-05-1.21813E-06-1.45359E-18 1.59116E-18
 -1       621 9.15823E-05-1.68152E-05-3.20487E-05 2.42575E-06 7.09298E-19-4.19267E-19
 -1       622 9.13234E-05-1.64087E-05-3.21117E-05 8.33946E-07 6.59898E-19-6.05545E-19
 -1       623 9.29140E-05-1.89790E-05-3.16919E-05 5.24235E-06 9.50880E-19 4.10077E-20
 -1       624 9.39961E-05-2.09180E-05-3.13276E-05 6.12373E-06 9.10393E-19 4.97718E-19
 -1       625 9.45618E-05-2.21565E-05-3.10265E-05-6.14014E-06-2.95831E-19-9.28286E-19
 -1       626 6.70480E-05-2.87649E-05-1.59606E-05-3.16975E-05-1.09721E-18-4.97341E-19
 -1       627 1.33953E-04-3.82248E-05-4.14073E-05 9.42968E-06 3.93341E-19-6.96023E-19
 -1       628 9.18312E-05-4.70925E-05-1.88710E-05-4.05445E-05 3.03495E-18 3.46770E-18
 -1       629 9.54116E-05-2.56561E-05-2.98933E-05-2.39324E-06-3.28902E-19-8.07649E-19
 -1       630 9.54826E-05-2.68935E-05-2.93948E-05-7.88434E-07-2.42489E-19-8.38674E-19
 -1       631 9.54317E-05-2.76293E-05-2.90579E-05 2.62125E-07-3.40611E-20-8.18812E-19
 -1       632 9.53616E-05-2.80695E-05-2.88394E-05 9.18289E-07-2.58390E-19-5.02113E-19
 -1       633 9.53059E-05-2.83204E-05-2.87081E-05 1.31382E-06-3.19625E-19-4.17806E-19
 -1       634 9.52733E-05-2.84453E-05-2.86406E-05 1.55142E-06-4.00853E-19 4.41528E-20
 -1       635 9.52642E-05-2.84842E-05-2.86200E-05 1.70792E-06-4.54996E-19 3.72545E-19
 -1       636 9.52774E-05-2.84650E-05-2.86339E-05 1.83978E-06-3.52662E-19 6.25801E-19
 -1       637 9.53137E-05-2.84098E-05-2.86731E-05 1.98734E-06-4.41887E-19 6.69124E-19
 -1       638 9.53775E-05-2.83392E-05-2.87306E-05 2.17765E-06-2.21986E-19 4.48214E-19
 -1       639 9.54779E-05-2.82759E-05-2.88007E-05 2.42552E-06-1.58599E-19 6.33437E-19
 -1       640 9.56312E-05-2.82484E-05-2.88782E-05 2.73302E-06 1.81308E-19 3.84718E-19
 -1       641 9.58627E-05-2.82940E-05-2.89579E-05 3.08743E-06-5.11820E-19 2.89287E-19
 -1       642 9.62097E-05-2.84619E-05-2.90347E-05 3.45748E-06-9.90337E-19 2.91084E-19
 -1       643 9.67230E-05-2.88139E-05-2.91039E-05 3.78820E-06-3.95681E-19 1.16384E-19
 -1       644 9.74674E-05-2.94208E-05-2.91631E-05 3.99484E-06 7.90050E-20-3.83427E-19
 -1       645 9.85151E-05-3.03492E-05-2.92145E-05 3.95701E-06 2.31191E-19-9.69269E-19
 -1       646 9.99275E-05-3.16334E-05-2.92699E-05 3.51673E-06 5.43239E-19-9.00470E-19
 -1       647 1.01716E-04-3.32224E-05-2.93557E-05 2.48820E-06 1.33467E-18-8.96620E-19
 -1       648 1.03776E-04-3.49035E-05-2.95186E-05 6.94275E-07 9.64247E-19 4.49502E-20
 -1       649 1.05799E-04-3.62110E-05-2.98242E-05-1.93500E-06 1.92052E-20-9.36361E-19
 -1       650 1.07227E-04-3.64251E-05-3.03434E-05-5.17465E-06-5.65018E-19-1.35680E-18
 -1       651 1.07382E-04-3.47828E-05-3.11138E-05-8.29031E-06-1.32516E-19-6.65750E-19
 -1       652 1.05847E-04-3.09886E-05-3.20863E-05-9.94479E-06 4.24333E-19-1.13366E-18
 -1       653 1.03132E-04-2.60167E-05-3.30599E-05-8.68687E-06 5.29896E-19-2.73325E-19
 -1       654 1.00724E-04-2.20446E-05-3.37202E-05-4.06081E-06 2.35424E-19 6.63816E-19
 -1       655 1.00378E-04-2.14973E-05-3.38117E-05 2.29114E-06-7.45057E-19 6.77116E-19
 -1       656 1.02297E-04-2.46315E-05-3.32902E-05 7.66112E-06-1.54361E-18 1.37403E-18
 -1       657 1.05157E-04-2.96349E-05-3.23658E-05 9.88109E-06-1.20989E-18 1.85931E-18
 -1       658 1.07105E-04-3.38994E-05-3.13775E-05 8.95885E-06-7.15273E-19 1.70628E-18
 -1       659 1.07435E-04-3.61844E-05-3.05403E-05 6.09960E-06-6.13369E-19 1.91005E-18
 -1       660 1.06299E-04-3.64248E-05-2.99484E-05 2.78285E-06-2.31340E-19 1.66682E-18
 -1       661 1.04376E-04-3.53399E-05-2.95890E-05-5.92492E-08-3.68974E-19 8.22675E-19
 -1       662 1.02286E-04-3.37016E-05-2.93949E-05-2.08774E-06 1.33364E-19 7.38969E-19
 -1       663 1.00403E-04-3.20466E-05-2.92965E-05-3.31001E-06 9.40155E-19-5.36429E-19
 -1       664 9.88805E-05-3.06510E-05-2.92419E-05-3.88161E-06 5.07836E-19-1.24687E-18
 -1       665 9.77336E-05-2.96018E-05-2.91996E-05-3.98843E-06 3.43765E-19-2.71570E-18
 -1       666 9.69089E-05-2.88803E-05-2.91552E-05-3.79447E-06-1.15419E-19-2.37076E-18
 -1       667 9.63330E-05-2.84218E-05-2.91047E-05-3.42616E-06 1.41975E-18-1.11744E-18
 -1       668 9.59348E-05-2.81504E-05-2.90503E-05-2.97198E-06 5.28347E-19-1.99766E-18
 -1       669 9.56562E-05-2.79970E-05-2.89965E-05-2.48746E-06-9.52211E-20-2.68788E-18
 -1       670 9.54515E-05-2.79071E-05-2.89473E-05-2.00394E-06 7.34650E-19-1.94793E-18
 -1       671 9.50206E-05-2.80390E-05-2.87061E-05-9.03732E-07 6.79560E-19 5.38805E-19
 -1       672 9.51779E-05-2.74342E-05-2.90332E-05 2.23825E-06 4.02760E-19-1.63421E-18
 -1       673 9.51150E-05-2.76557E-05-2.89105E-05-2.32646E-07 4.36587E-19 3.99653E-19
 -1       674 9.49896E-05-2.83795E-05-2.85472E-05-1.53586E-06 5.00431E-19 1.09669E-18
 -1       675 9.50364E-05-2.84198E-05-2.85499E-05-1.69295E-06 5.71965E-19 8.08414E-19
 -1       676 9.51111E-05-2.84001E-05-2.85904E-05-1.83594E-06 4.97793E-19 1.00532E-18
 -1       677 9.52057E-05-2.83288E-05-2.86614E-05-2.01566E-06 3.96626E-19 7.45729E-19
 -1       678 9.53134E-05-2.82086E-05-2.87589E-05-2.27486E-06 2.76833E-19 7.15218E-19
 -1       679 9.54269E-05-2.80366E-05-2.88811E-05-2.65194E-06 1.66354E-19 3.41852E-19
 -1       680 9.55366E-05-2.78061E-05-2.90266E-05-3.18355E-06-7.87922E-20 3.89589E-19
 -1       681 9.56287E-05-2.75072E-05-2.91939E-05-3.90608E-06 3.36935E-19 1.27684E-19
 -1       682 9.56836E-05-2.71305E-05-2.93785E-05-4.85582E-06 1.06484E-20-8.04100E-20
 -1       683 9.56774E-05-2.66744E-05-2.95709E-05-6.06723E-06 8.42924E-20 2.17709E-19
 -1       684 9.55890E-05-2.61617E-05-2.97524E-05-7.56888E-06-1.06548E-18 2.90042E-19
 -1       685 9.54214E-05-2.56718E-05-2.98902E-05-9.37668E-06-8.03644E-19-2.62378E-20
 -1       686 9.52500E-05-2.54001E-05-2.99332E-05-1.14845E-05-2.69203E-19 8.61321E-19
 -1       687 9.53215E-05-2.57547E-05-2.98120E-05-1.38525E-05 1.26841E-19 1.10448E-18
 -1       688 9.62298E-05-2.74897E-05-2.94554E-05-1.63694E-05 9.97967E-20 6.30992E-19
 -1       689 9.91530E-05-3.17970E-05-2.88543E-05-1.87271E-05-9.21935E-19 6.43953E-19
 -1       690 1.06048E-04-4.00975E-05-2.82083E-05-2.01105E-05-1.13717E-18 7.31307E-19
 -1       691 1.19316E-04-5.28896E-05-2.83730E-05-1.83008E-05-1.05779E-18 6.61960E-20
 -1       692 1.04518E-04-3.74632E-05-2.87134E-05 1.94087E-05-1.89057E-18-7.33590E-19
 -1       693 9.88858E-05-3.04920E-05-2.93079E-05 1.78841E-05-1.69784E-18 1.25917E-19
 -1       694 9.65853E-05-2.71054E-05-2.97746E-05 1.55597E-05-1.14249E-18 4.29222E-19
 -1       695 9.58544E-05-2.58399E-05-3.00037E-05 1.31250E-05-6.03362E-19 5.37747E-19
 -1       696 9.57533E-05-2.56690E-05-3.00336E-05 1.08269E-05-1.04176E-19-1.04106E-18
 -1       697 9.58262E-05-2.59748E-05-2.99337E-05 8.77814E-06-7.77421E-19-2.42005E-18
 -1       698 9.58859E-05-2.64233E-05-2.97673E-05 7.01930E-06-7.32244E-19-1.92734E-18
 -1       699 9.58810E-05-2.68588E-05-2.95790E-05 5.54667E-06 8.79083E-19-1.33612E-18
 -1       700 9.58152E-05-2.72202E-05-2.93962E-05 4.33478E-06 1.81276E-18 8.94840E-19
 -1       701 9.57011E-05-2.74853E-05-2.92340E-05 3.35031E-06 2.47897E-18 1.98726E-18
 -1       702 9.53918E-05-2.74518E-05-2.91156E-05 2.75848E-06 2.37002E-18-1.18052E-20
 -1       703 9.34386E-05-2.58729E-05-2.89570E-05 4.15706E-08 2.47152E-18-9.16237E-19
 -1       704 9.53414E-05-2.78681E-05-2.89166E-05-1.68219E-06-1.06785E-18-1.90420E-18
 -1       705 9.37714E-05-2.61398E-05-2.89853E-05 1.44150E-06 1.38868E-18 7.11955E-19
 -1       706 9.35712E-05-2.60265E-05-2.89480E-05-6.61673E-07 1.24556E-18 5.40363E-19
 -1       707 9.34998E-05-2.59052E-05-2.89695E-05 7.76716E-07 5.40757E-19 7.21139E-19
 -1       708 9.52504E-05-2.70149E-05-2.92422E-05 8.63172E-07 4.26632E-19 5.14900E-19
 -1       709 9.38530E-05-2.63228E-05-2.89417E-05-1.23882E-06 1.98047E-19 6.78560E-19
 -1       710 9.42444E-05-2.67254E-05-2.89369E-05-1.65158E-06 1.54866E-18-1.98554E-18
 -1       711 9.46966E-05-2.71856E-05-2.89334E-05-1.85400E-06 1.07783E-18-6.11803E-19
 -1       712 3.35262E-05-1.02497E-05-9.39395E-06-5.42507E-06 1.34907E-18 2.16946E-19
 -1       713 1.34451E-04-5.14316E-05-3.57560E-05 6.04415E-07 3.29757E-19-1.27055E-21
 -1       714 4.16071E-05-1.64521E-05-1.02207E-05-2.55110E-05 2.62057E-18-5.90964E-19
 -1       715 1.10389E-04-5.44110E-05-2.37888E-05 2.92053E-05-3.11465E-18 1.09043E-18
 -1       716 4.67331E-05-1.69995E-05-1.21811E-05 2.18152E-05-5.88516E-19-8.20351E-19
 -1       717 1.26419E-04-1.42010E-05-4.86249E-05-1.04819E-05-2.57154E-18-1.13256E-18
 -1       718 3.79055E-05-1.13825E-05-1.08008E-05 1.31763E-05 6.58734E-20-1.40872E-18
 -1       719 1.15607E-04-4.87272E-05-2.85400E-05 1.82820E-05-2.22308E-18 3.52349E-19
 -1       720 1.24728E-04-5.76637E-05-2.87063E-05 1.90182E-05 5.24896E-20-1.77784E-19
 -1       721 9.49808E-05-2.82625E-05-2.85934E-05-1.30071E-06 6.49093E-19 7.12860E-19
 -1       722 9.51846E-05-2.42830E-05-3.03903E-05-4.07776E-06-1.37603E-19-9.43559E-19
 -1       723 7.51818E-05-3.56377E-05-1.65381E-05 3.47800E-05-2.62255E-18-2.55645E-19
 -1       724 9.21047E-05-1.76485E-05-3.19156E-05 3.93014E-06 8.86406E-19-1.02579E-19
 -1       725 1.17391E-04-7.69895E-06-4.75643E-05 7.58160E-07-2.80458E-18-1.11742E-18
 -1       726 9.84535E-05-4.86383E-05-2.10684E-05-3.31642E-05-9.92590E-19 1.28908E-19
 -1       727 9.53371E-05-2.59112E-05-2.97502E-05 2.57553E-06 4.94829E-19 5.98585E-19
 -1       728 9.87502E-05-4.87520E-05-2.12111E-05 3.66672E-05-1.73906E-19-1.35871E-18
 -1       729 9.20604E-05-1.75878E-05-3.19227E-05-3.87971E-06 2.89357E-19-8.14473E-19
 -1       730 1.16774E-04-5.71492E-05-2.54402E-05-3.03950E-05 2.43271E-18 1.24362E-18
 -1       731 6.39844E-05-3.24789E-05-1.30386E-05-4.06392E-05 3.80045E-18 2.65982E-18
 -1       732 3.85395E-05-1.22032E-05-1.07013E-05-1.09585E-05 8.57273E-19-1.80360E-18
 -1       733 1.24387E-04-2.02923E-05-4.50580E-05 1.28219E-05-6.50945E-19 1.66164E-19
 -1       734 1.36518E-04-6.19370E-05-3.19594E-05 8.41950E-06-7.08980E-19-1.13080E-18
 -1       735 6.48537E-05-2.86753E-05-1.51452E-05 3.62528E-05-5.59995E-19-5.50307E-20
 -1       736 9.53022E-05-2.42593E-05-3.04373E-05 4.94885E-06 7.64451E-19 8.83988E-19
 -1       737 9.28892E-05-1.89293E-05-3.16995E-05-5.20855E-06-6.99812E-21-8.77068E-19
 -1       738 9.13156E-05-1.63987E-05-3.21126E-05-7.80606E-07 6.21527E-19-3.92886E-19
 -1       739 1.32503E-04-4.76093E-05-3.65498E-05 3.81385E-06-1.77877E-20-1.78187E-18
 -1       740 1.27292E-04-5.75485E-05-2.98879E-05-1.59282E-05-2.82036E-20-1.48015E-18
 -1       741 9.42277E-05-2.65574E-05-2.90020E-05 1.93035E-06 1.53480E-19 1.12014E-18
 -1       742 1.40295E-04-6.13034E-05-3.39130E-05-1.72903E-06-4.65206E-21 7.63322E-19
 -1       743 1.30860E-04-4.24239E-05-3.81505E-05-8.46069E-06-8.39066E-19 8.10703E-19
 -1       744 5.65725E-05-1.81785E-05-1.61281E-05 2.42771E-05 2.22048E-19 2.33212E-19
 -1       745 9.50474E-05-2.75364E-05-2.89332E-05-1.98818E-06-9.61434E-19-3.24773E-18
 -1       746 9.15573E-05-1.67819E-05-3.20522E-05-2.36823E-06 4.83384E-19-4.28035E-19
 -1       747 1.13590E-04-1.39258E-05-4.30257E-05 8.03167E-06-1.68028E-18-1.28373E-18
 -1       748 9.46431E-05-2.26898E-05-3.08380E-05 3.87253E-06 9.22277E-19 3.18004E-19
 -1       749 4.79604E-05-1.53494E-05-1.35593E-05-1.80386E-05-8.35386E-20-1.66251E-18
 -1       750 9.58632E-05-2.67872E-05-2.96040E-05-4.73651E-07-5.65000E-20-4.82323E-19
 -1       751 9.59437E-05-2.76304E-05-2.92772E-05 3.87810E-07 1.74358E-20-4.43680E-19
 -1       752 9.59147E-05-2.81330E-05-2.90493E-05 9.47784E-07-8.74503E-20-3.02550E-19
 -1       753 9.58297E-05-2.83998E-05-2.88985E-05 1.30408E-06-5.56332E-20 8.39932E-20
 -1       754 9.57170E-05-2.85014E-05-2.88067E-05 1.53835E-06-1.37306E-19 4.37885E-19
 -1       755 9.55921E-05-2.84869E-05-2.87594E-05 1.71536E-06-3.62435E-19 8.75461E-19
 -1       756 9.54641E-05-2.83927E-05-2.87449E-05 1.88479E-06-2.42239E-19 7.01809E-19
 -1       757 9.53408E-05-2.82490E-05-2.87536E-05 2.08344E-06-3.79064E-19 1.14285E-18
 -1       758 9.52320E-05-2.80851E-05-2.87772E-05 2.33708E-06-4.16369E-19 6.52924E-19
 -1       759 9.51531E-05-2.79339E-05-2.88082E-05 2.66118E-06-4.00149E-19 5.69378E-19
 -1       760 9.51297E-05-2.78376E-05-2.88395E-05 3.06038E-06-6.21127E-19-2.61562E-19
 -1       761 9.52020E-05-2.78522E-05-2.88642E-05 3.52637E-06-8.00505E-19-1.47251E-19
 -1       762 9.54306E-05-2.80515E-05-2.88767E-05 4.03398E-06-4.96294E-19 2.79030E-19
 -1       763 9.59017E-05-2.85289E-05-2.88740E-05 4.53469E-06-2.23715E-19 3.75641E-19
 -1       764 9.67287E-05-2.93917E-05-2.88588E-05 4.94674E-06-1.90477E-19 3.76327E-19
 -1       765 9.80463E-05-3.07430E-05-2.88445E-05 5.14097E-06 1.01813E-19 1.04014E-19
 -1       766 9.99842E-05-3.26394E-05-2.88625E-05 4.92361E-06 1.14854E-18 4.59709E-19
 -1       767 1.02604E-04-3.50066E-05-2.89710E-05 4.02757E-06 1.48047E-18-7.51181E-19
 -1       768 1.05809E-04-3.75263E-05-2.92643E-05 2.12998E-06 1.52716E-19-8.66928E-19
 -1       769 1.09087E-04-3.93857E-05-2.98696E-05-1.01926E-06-2.96672E-19-4.00352E-19
 -1       770 1.11549E-04-3.94151E-05-3.09151E-05-5.22068E-06-1.35732E-19 4.52852E-19
 -1       771 1.11895E-04-3.61976E-05-3.24522E-05-9.40640E-06-2.58285E-19 1.13323E-18
 -1       772 1.09442E-04-2.95130E-05-3.42847E-05-1.12074E-05 3.34341E-19 1.96771E-19
 -1       773 1.05862E-04-2.20159E-05-3.59732E-05-8.61878E-06-2.61596E-19-1.04429E-18
 -1       774 1.03295E-04-1.75754E-05-3.68013E-05-1.15506E-06-1.30210E-18-2.54814E-18
 -1       775 1.04509E-04-2.00995E-05-3.62263E-05 6.86677E-06-4.97647E-19-2.55303E-18
 -1       776 1.08251E-04-2.70616E-05-3.48553E-05 1.11616E-05-1.15114E-18-1.45907E-18
 -1       777 1.11579E-04-3.46039E-05-3.29770E-05 1.04551E-05-9.42905E-19-2.28269E-20
 -1       778 1.11963E-04-3.88884E-05-3.13255E-05 6.52054E-06 6.82170E-19 1.53912E-18
 -1       779 1.09944E-04-3.96639E-05-3.01242E-05 2.09169E-06-7.01548E-19 2.88727E-18
 -1       780 1.06772E-04-3.81633E-05-2.94043E-05-1.39340E-06-7.86513E-19 3.36091E-18
 -1       781 1.03489E-04-3.57335E-05-2.90383E-05-3.62784E-06-6.80441E-19 2.51177E-18
 -1       782 1.00679E-04-3.32647E-05-2.88924E-05-4.77127E-06 2.01857E-19 5.28425E-19
 -1       783 9.85450E-05-3.12005E-05-2.88622E-05-5.13785E-06 9.24780E-19 3.85942E-19
 -1       784 9.70581E-05-2.96711E-05-2.88803E-05-5.01476E-06 7.45578E-20 2.72855E-19
 -1       785 9.60972E-05-2.86432E-05-2.89088E-05-4.61413E-06 1.43943E-19-8.45390E-19
 -1       786 9.55221E-05-2.80172E-05-2.89306E-05-4.07796E-06 1.52990E-19-3.67422E-18
 -1       787 9.52085E-05-2.76799E-05-2.89408E-05-3.49586E-06 5.34217E-19-5.48331E-18
 -1       788 9.50590E-05-2.75275E-05-2.89419E-05-2.91845E-06-2.13709E-19-2.64313E-18
 -1       789 9.50540E-05-2.75220E-05-2.89420E-05-2.43461E-06 8.02062E-19-1.23488E-18
 -1       790 9.57388E-05-2.76404E-05-2.91850E-05-3.50347E-07 2.53307E-19 2.23550E-19
 -1       791 9.54558E-05-2.84341E-05-2.87236E-05-1.76747E-06 2.65296E-19 4.47559E-19
 -1       792 9.55434E-05-2.84575E-05-2.87511E-05-1.57978E-06 6.15944E-19 3.97200E-19
 -1       793 9.52443E-05-2.81092E-05-2.87721E-05-2.18676E-06 2.19098E-19 1.18903E-18
 -1       794 9.50971E-05-2.78187E-05-2.88335E-05-2.50360E-06 3.70264E-19 9.93262E-19
 -1       795 9.48963E-05-2.74362E-05-2.89113E-05-2.93790E-06 9.85600E-20 7.19940E-19
 -1       796 9.46118E-05-2.69489E-05-2.89982E-05-3.51868E-06 4.18867E-19 1.49124E-19
 -1       797 9.42031E-05-2.63400E-05-2.90838E-05-4.27187E-06 2.72550E-19 6.72195E-19
 -1       798 9.36177E-05-2.55948E-05-2.91522E-05-5.22073E-06 9.13551E-20 1.25965E-19
 -1       799 9.27939E-05-2.47112E-05-2.91778E-05-6.38707E-06-6.04783E-19-1.56588E-20
 -1       800 9.16705E-05-2.37216E-05-2.91204E-05-7.79609E-06-9.95802E-19-7.65609E-19
 -1       801 9.02118E-05-2.27313E-05-2.89196E-05-9.49017E-06-1.00567E-18-2.78541E-19
 -1       802 8.84582E-05-2.19819E-05-2.84886E-05-1.15575E-05-3.99732E-19 6.47619E-19
 -1       803 8.66118E-05-2.19465E-05-2.77099E-05-1.42137E-05 3.15441E-19 8.15077E-19
 -1       804 8.53267E-05-2.35613E-05-2.64520E-05-1.79019E-05-7.57151E-19 9.01455E-19
 -1       805 8.59520E-05-2.83557E-05-2.45925E-05-2.29747E-05-5.32023E-19 3.24483E-19
 -1       806 8.77993E-05-2.21737E-05-2.81240E-05 1.35851E-05 2.36716E-19-1.44213E-18
 -1       807 8.64186E-05-2.32638E-05-2.70583E-05 1.69286E-05-1.76404E-18-2.61843E-19
 -1       808 1.10234E-04-4.98121E-05-2.58251E-05 2.32108E-05 4.44836E-19-1.35260E-18
 -1       809 8.67438E-05-2.70148E-05-2.55360E-05 2.13998E-05-1.24230E-18-6.59564E-19
 -1       810 8.94900E-05-2.23847E-05-2.87594E-05 1.10553E-05-3.30305E-19-2.10011E-18
 -1       811 9.10589E-05-2.31798E-05-2.90906E-05 9.04965E-06-4.34658E-19-3.10582E-19
 -1       812 9.23245E-05-2.41215E-05-2.92293E-05 7.38408E-06-4.35941E-19-1.38067E-18
 -1       813 9.32757E-05-2.50141E-05-2.92543E-05 5.97775E-06-6.62824E-19-2.97163E-18
 -1       814 9.39524E-05-2.57743E-05-2.92187E-05 4.79246E-06 2.79061E-19-3.89520E-18
 -1       815 9.44045E-05-2.63734E-05-2.91559E-05 3.80134E-06 1.33842E-18-1.97909E-18
 -1       816 1.23261E-04-2.59291E-05-4.20231E-05-1.36568E-05-1.51619E-18 1.13227E-18
 -1       817 9.32149E-05-2.58807E-05-2.88575E-05-1.27765E-06 1.71867E-18 5.37332E-19
 -1       818 9.32178E-05-1.97108E-05-3.15042E-05 1.21620E-06 5.02622E-19-5.65044E-19
 -1       819 9.57105E-05-2.68486E-05-2.95121E-05 5.91324E-07 2.85617E-19-4.38594E-21
 -1       820 9.28868E-05-2.55550E-05-2.88566E-05-4.90586E-07 1.91173E-18-1.48041E-18
 -1       821 9.43070E-05-2.68746E-05-2.88998E-05-2.20895E-06 7.48698E-19-1.89983E-18
 -1       822 9.37235E-05-2.04111E-05-3.14168E-05-5.88523E-06-2.12117E-19-8.94678E-19
 -1       823 1.13769E-04-1.25131E-05-4.36964E-05-7.41091E-06-1.69420E-18 5.77213E-19
 -1       824 9.07738E-05-3.54905E-05-2.34852E-05 2.69590E-05-3.99945E-19 1.00234E-18
 -1       825 6.20325E-05-2.42530E-05-1.58302E-05-3.15387E-05 2.00673E-18 2.44586E-18
 -1       826 4.66905E-05-1.22489E-05-1.43946E-05-1.45435E-05 1.41471E-18-5.30110E-19
 -1       827 6.94689E-05-2.43209E-05-1.90971E-05 2.56526E-05-2.56565E-19-3.96689E-19
 -1       828 8.64225E-05-3.67652E-05-2.11467E-05 3.15108E-05-4.10632E-19-1.91787E-19
 -1       829 4.63937E-05-1.03932E-05-1.50705E-05-6.01790E-08 5.18669E-19-1.44660E-18
 -1       830 9.37124E-05-2.63420E-05-2.88731E-05-1.86356E-06 1.41424E-18 4.52869E-19
 -1       831 9.53590E-05-2.83146E-05-2.87333E-05-1.95426E-06 3.97110E-19 8.35701E-19
 -1       832 9.55661E-05-2.54321E-05-3.00574E-05-1.73814E-06-1.36286E-19-6.70186E-19
 -1       833 1.22405E-04-3.05553E-05-3.95548E-05 1.29682E-05 2.07735E-19 1.52387E-19
 -1       834 4.72649E-05-1.08608E-05-1.53052E-05 6.57325E-06 3.78969E-20-1.01776E-18
 -1       835 1.26206E-04-5.23038E-05-3.17641E-05 5.08024E-06-4.35454E-19-4.88139E-19
 -1       836 9.55030E-05-2.55533E-05-2.99786E-05 1.99282E-06 5.27586E-19 2.23680E-20
 -1       837 8.18818E-05-3.70645E-05-1.89739E-05-3.58573E-05 1.53132E-18 4.24045E-18
 -1       838 1.07595E-04-5.09133E-05-2.41475E-05-2.93374E-05 1.52099E-18 2.99332E-18
 -1       839 9.05336E-05-3.70955E-05-2.26995E-05-2.84909E-05-6.42858E-19 5.15724E-19
 -1       840 9.52214E-05-2.44394E-05-3.03341E-05 3.40286E-06 7.25297E-19 3.66392E-19
 -1       841 6.60911E-05-2.11524E-05-1.90114E-05-2.33708E-05-5.50902E-19-8.17863E-19
 -1       842 9.31053E-05-1.95079E-05-3.15429E-05 1.80967E-08 5.02795E-19-5.60175E-19
 -1       843 1.28474E-04-5.24382E-05-3.26931E-05-2.82410E-06 9.49785E-19-1.02128E-18
 -1       844 1.08737E-04-1.24838E-05-4.14777E-05-6.93530E-08-9.84610E-19-1.01584E-18
 -1       845 9.28015E-05-2.54287E-05-2.88742E-05 4.12181E-07 3.44307E-19 1.63397E-18
 -1       846 9.35030E-05-2.59188E-05-2.89649E-05 2.08385E-06-1.52296E-19 3.78973E-19
 -1       847 9.51602E-05-2.40227E-05-3.04885E-05-3.02359E-06-1.56735E-19-7.73959E-19
 -1       848 9.56249E-05-2.83627E-05-2.88266E-05-1.33314E-06 2.33697E-19 3.81057E-19
 -1       849 1.16802E-04-5.00769E-05-2.85822E-05 1.20791E-05 4.44915E-19 1.06345E-18
 -1       850 9.43892E-05-2.65419E-05-2.90799E-05 3.08710E-06 2.69241E-18-1.32996E-18
 -1       851 9.30039E-05-2.55454E-05-2.89110E-05 1.31115E-06-8.49364E-19 2.07581E-18
 -1       852 5.57977E-05-1.33158E-05-1.80070E-05 1.23835E-05 3.68578E-19-7.81070E-19
 -1       853 9.40095E-05-2.12650E-05-3.11810E-05-3.23639E-06 3.28892E-20-5.31006E-19
 -1       854 7.53463E-05-2.67143E-05-2.06962E-05 2.62309E-05-4.40874E-19-3.31157E-19
 -1       855 9.56959E-05-2.81113E-05-2.89648E-05-9.54158E-07 6.01148E-19 4.80315E-19
 -1       856 1.24523E-04-3.95853E-05-3.65647E-05 1.04122E-05 9.14352E-19-7.77219E-19
 -1       857 9.35137E-05-2.02708E-05-3.13907E-05-2.30017E-06 3.48407E-19-5.27646E-19
 -1       858 9.40466E-05-2.13056E-05-3.11743E-05 3.27615E-06 7.44328E-19 3.79732E-20
 -1       859 6.30572E-05-1.61804E-05-1.98967E-05 1.60572E-05-9.59530E-22-9.69634E-19
 -1       860 1.26133E-04-4.74177E-05-3.38143E-05-3.62794E-06-2.16122E-19 9.24417E-19
 -1       861 9.35357E-05-2.03049E-05-3.13856E-05 2.33360E-06 7.00778E-19-1.20530E-19
 -1       862 9.43856E-05-2.66151E-05-2.90455E-05 2.69704E-06 2.73869E-18-1.14505E-18
 -1       863 1.14111E-04-2.25955E-05-3.93767E-05 1.20220E-05-2.09574E-19-2.07621E-18
 -1       864 5.11634E-05-1.15809E-05-1.67088E-05-6.68519E-06 6.38009E-19-1.57939E-18
 -1       865 9.46706E-05-2.71951E-05-2.89174E-05-2.36328E-06-8.15644E-19-3.74012E-18
 -1       866 1.12564E-04-2.14065E-05-3.92255E-05-1.19653E-05-1.51714E-18-2.89103E-19
 -1       867 9.62894E-05-2.76898E-05-2.93999E-05 4.85828E-07 6.20892E-20-1.85937E-19
 -1       868 9.62591E-05-2.81894E-05-2.91728E-05 9.19669E-07-7.18237E-20-1.56023E-19
 -1       869 9.61265E-05-2.84279E-05-2.90137E-05 1.21072E-06 1.66492E-19-2.33218E-19
 -1       870 9.59288E-05-2.84767E-05-2.89080E-05 1.42113E-06-5.78741E-21-1.92132E-19
 -1       871 9.56888E-05-2.83890E-05-2.88428E-05 1.60247E-06-1.40960E-19 2.45402E-19
 -1       872 9.54216E-05-2.82063E-05-2.88066E-05 1.79618E-06-2.26977E-19 3.54610E-19
 -1       873 9.51393E-05-2.79646E-05-2.87891E-05 2.03495E-06-5.85456E-19 8.33472E-20
 -1       874 9.48555E-05-2.77000E-05-2.87809E-05 2.34437E-06-4.12377E-19 2.29034E-19
 -1       875 9.45913E-05-2.74551E-05-2.87727E-05 2.74371E-06-4.60632E-19 1.09578E-18
 -1       876 9.43809E-05-2.72849E-05-2.87554E-05 3.24572E-06-6.67199E-19 1.40714E-18
 -1       877 9.42792E-05-2.72638E-05-2.87209E-05 3.85515E-06-3.85000E-19 9.81768E-19
 -1       878 9.43704E-05-2.74907E-05-2.86627E-05 4.56475E-06-3.62225E-19 1.03213E-18
 -1       879 9.47774E-05-2.80924E-05-2.85793E-05 5.34699E-06-2.06297E-19 1.18101E-18
 -1       880 9.56687E-05-2.92198E-05-2.84782E-05 6.13853E-06-7.92015E-21 1.76117E-18
 -1       881 9.72582E-05-3.10293E-05-2.83840E-05 6.81200E-06 6.19640E-19 1.35254E-18
 -1       882 9.97833E-05-3.36319E-05-2.83509E-05 7.12944E-06 3.51773E-19 5.79942E-19
 -1       883 1.03409E-04-3.69550E-05-2.84790E-05 6.66792E-06 6.78362E-19 1.05865E-19
 -1       884 1.08125E-04-4.05687E-05-2.89697E-05 4.81524E-06 6.98637E-20-4.74661E-19
 -1       885 1.13444E-04-4.34839E-05-2.99696E-05 1.07021E-06 8.51658E-19-1.39761E-19
 -1       886 1.17088E-04-4.29529E-05-3.17833E-05-4.62708E-06 3.67409E-19 9.84504E-19
 -1       887 1.17635E-04-3.71467E-05-3.45980E-05-1.07899E-05-8.29722E-19 1.45585E-18
 -1       888 1.14507E-04-4.35743E-05-3.03958E-05 3.35598E-07 2.79097E-19 1.42616E-19
 -1       889 1.09581E-04-4.15368E-05-2.91544E-05-4.07890E-06-7.43559E-20 1.07174E-18
 -1       890 1.04682E-04-3.80100E-05-2.85703E-05-6.37540E-06-1.26717E-18 1.16957E-18
 -1       891 1.00724E-04-3.45083E-05-2.83778E-05-7.12748E-06-1.48770E-18 1.02029E-19
 -1       892 9.78948E-05-3.16633E-05-2.83853E-05-6.96405E-06 1.04387E-18-7.14407E-20
 -1       893 9.60570E-05-2.96086E-05-2.84779E-05-6.34371E-06 4.17163E-19-1.21231E-18
 -1       894 9.49791E-05-2.82645E-05-2.85919E-05-5.54292E-06-1.41759E-18-1.27377E-18
 -1       895 9.44327E-05-2.74755E-05-2.86959E-05-4.71258E-06-8.45721E-19-2.70100E-18
 -1       896 9.42323E-05-2.70825E-05-2.87784E-05-3.92697E-06-9.23181E-19-2.62108E-18
 -1       897 9.42360E-05-2.69431E-05-2.88400E-05-3.21924E-06 2.22942E-18-2.78543E-18
 -1       898 9.57705E-05-2.54753E-05-3.01267E-05-1.07905E-06 4.71318E-20-3.06800E-19
 -1       899 9.45891E-05-2.72719E-05-2.88502E-05-2.45572E-06 1.25883E-19 1.51359E-18
 -1       900 9.50056E-05-2.77425E-05-2.88270E-05-2.13948E-06 2.88637E-19 1.18173E-18
 -1       901 9.33558E-05-2.59342E-05-2.88950E-05-3.38031E-06 3.44264E-19 5.37096E-19
 -1       902 9.24280E-05-2.50319E-05-2.88840E-05-4.00847E-06 1.86706E-19 4.53252E-19
 -1       903 9.11909E-05-2.39517E-05-2.88167E-05-4.75073E-06 1.16956E-19 1.09283E-19
 -1       904 8.95463E-05-2.26917E-05-2.86520E-05-5.60856E-06-6.17896E-19-1.92644E-19
 -1       905 8.73794E-05-2.12805E-05-2.83285E-05-6.59860E-06-1.55431E-18 8.95277E-20
 -1       906 8.45614E-05-1.98043E-05-2.77550E-05-7.79227E-06-9.50018E-19-8.77191E-19
 -1       907 8.09734E-05-1.84710E-05-2.67898E-05-9.38532E-06-1.44272E-19-7.88415E-19
 -1       908 7.65294E-05-1.75899E-05-2.52505E-05-1.17464E-05-3.13604E-19-1.64909E-19
 -1       909 8.58271E-05-2.03736E-05-2.80542E-05 7.64352E-06-8.07499E-19 2.20777E-20
 -1       910 9.61555E-05-2.68267E-05-2.97121E-05-1.60245E-07 5.72429E-20-2.84280E-19
 -1       911 8.25783E-05-1.90162E-05-2.72400E-05 9.19812E-06-5.45065E-19-3.76056E-19
 -1       912 8.83507E-05-2.17801E-05-2.85309E-05 6.43695E-06-1.06422E-18 5.73907E-19
 -1       913 9.02765E-05-2.30836E-05-2.87970E-05 5.40487E-06 7.01859E-19-2.10864E-19
 -1       914 9.17183E-05-2.42084E-05-2.89328E-05 4.49233E-06 1.70119E-18-2.20729E-18
 -1       915 9.27743E-05-2.51287E-05-2.89912E-05 3.69292E-06 2.91278E-19-3.21864E-18
 -1       916 6.17249E-05-1.81576E-05-1.84804E-05-2.09632E-05 3.48260E-19 1.60302E-18
 -1       917 9.23761E-05-2.52962E-05-2.87486E-05-1.24528E-06 3.31849E-19-6.59478E-19
 -1       918 1.18524E-04-5.23857E-05-2.83568E-05-1.48077E-05 5.23256E-19-1.08550E-18
 -1       919 5.49246E-05-1.12146E-05-1.85547E-05-4.05843E-06-2.78211E-19-1.89660E-18
 -1       920 1.20962E-04-3.53221E-05-3.68991E-05-1.18878E-05-1.34207E-18 6.17818E-19
 -1       921 9.79116E-05-3.97794E-05-2.48828E-05 2.25493E-05-7.54400E-19-8.81252E-19
 -1       922 9.32045E-05-1.96925E-05-3.15062E-05-1.18022E-06 4.92149E-19-3.24970E-19
 -1       923 6.59202E-05-1.54772E-05-2.14953E-05-1.36935E-05-5.15241E-19-6.26162E-19
 -1       924 9.57052E-05-2.54918E-05-3.00923E-05 1.34599E-06 4.95540E-19-1.07943E-20
 -1       925 9.51315E-05-3.99307E-05-2.35716E-05-2.69007E-05 6.96281E-19 2.84642E-18
 -1       926 7.02625E-05-1.55835E-05-2.33796E-05 1.15454E-05-7.22799E-19-1.70132E-18
 -1       927 7.39509E-05-2.73308E-05-1.98231E-05-2.82320E-05 3.93599E-19 5.34237E-18
 -1       928 9.40552E-05-2.66745E-05-2.88774E-05-2.86494E-06 6.34912E-19 9.58121E-19
 -1       929 9.60429E-05-2.68250E-05-2.96648E-05 2.70972E-07 5.77007E-20 4.14630E-20
 -1       930 9.52516E-05-2.42524E-05-3.04285E-05 2.46101E-06 7.76971E-19 1.38615E-19
 -1       931 7.74577E-05-1.73441E-05-2.57424E-05 1.00636E-05-5.06656E-20-2.18335E-18
 -1       932 9.58337E-05-2.84405E-05-2.88828E-05-1.50754E-06 5.80192E-19 4.68862E-19
 -1       933 9.45315E-05-2.21607E-05-3.10162E-05 4.17617E-07 3.14067E-19-4.32654E-19
 -1       934 9.20354E-05-2.49433E-05-2.87536E-05-2.17261E-07-4.64501E-19 5.32611E-19
 -1       935 9.52441E-05-2.40377E-05-3.05159E-05-2.01294E-06 6.70088E-20-3.57164E-19
 -1       936 1.18586E-04-4.34850E-05-3.22165E-05 5.08504E-06 6.09472E-19-7.04923E-21
 -1       937 9.61551E-05-2.76710E-05-2.93504E-05-4.67326E-07 2.68270E-19-3.65069E-20
 -1       938 9.44744E-05-2.70673E-05-2.88884E-05-2.76607E-06 8.54509E-19-2.68859E-18
 -1       939 9.60093E-05-2.83981E-05-2.89762E-05-1.28025E-06 2.10689E-19 7.44459E-21
 -1       940 9.53384E-05-2.80955E-05-2.88184E-05-1.89601E-06 1.08518E-19 5.55167E-19
 -1       941 9.33440E-05-2.56971E-05-2.89900E-05 2.93434E-06 1.30567E-18-3.13960E-18
 -1       942 1.06653E-04-4.38308E-05-2.69570E-05 1.60306E-05 6.23987E-19 2.24525E-18
 -1       943 1.07617E-04-4.55276E-05-2.65887E-05-1.82624E-05 6.02178E-19-1.61751E-18
 -1       944 9.29725E-05-2.58298E-05-2.87749E-05-2.04176E-06 1.17414E-18 1.03841E-18
 -1       945 9.56105E-05-2.83316E-05-2.88338E-05-1.69740E-06 1.54190E-19 1.86880E-19
 -1       946 8.88501E-05-3.25096E-05-2.40937E-05 2.18929E-05-3.28915E-19-6.73694E-19
 -1       947 6.91996E-05-1.97610E-05-2.11117E-05 1.86288E-05-1.51894E-19-7.79284E-19
 -1       948 9.24858E-05-2.51086E-05-2.88765E-05 2.05748E-06 3.30491E-19-3.50658E-19
 -1       949 1.19984E-04-4.93058E-05-3.02892E-05 4.80210E-06 9.31440E-19 1.88078E-18
 -1       950 9.46820E-05-2.25118E-05-3.09306E-05 1.18462E-06 5.63669E-19-2.20187E-19
 -1       951 5.59623E-05-1.17148E-05-1.87812E-05 2.48173E-06 4.64727E-19-1.81242E-18
 -1       952 9.49152E-05-2.31346E-05-3.07610E-05-1.81278E-06 2.46333E-19-3.42184E-19
 -1       953 9.38389E-05-2.65524E-05-2.88378E-05-2.55586E-06 5.27999E-19-2.57582E-18
 -1       954 9.56305E-05-2.47752E-05-3.03665E-05-1.06678E-06 1.31477E-19-2.51406E-19
 -1       955 6.79670E-05-1.38521E-05-2.31554E-05-2.33645E-06-1.09152E-19 2.86916E-20
 -1       956 1.12049E-04-4.52903E-05-2.86443E-05-8.84170E-06 1.24956E-18-1.30000E-18
 -1       957 9.64399E-05-2.82421E-05-2.92277E-05 8.07029E-07 1.07326E-19-2.84759E-20
 -1       958 9.62389E-05-2.84121E-05-2.90686E-05 1.02223E-06 2.31851E-19-2.70339E-20
 -1       959 9.59475E-05-2.83811E-05-2.89570E-05 1.19636E-06 4.19906E-20 3.16194E-19
 -1       960 9.55906E-05-2.82022E-05-2.88808E-05 1.36851E-06-7.98812E-20 4.25864E-19
 -1       961 9.51845E-05-2.79187E-05-2.88282E-05 1.57212E-06-5.78611E-19 4.41468E-19
 -1       962 9.47416E-05-2.75689E-05-2.87883E-05 1.83692E-06-2.52761E-19 7.35491E-19
 -1       963 9.42763E-05-2.71930E-05-2.87500E-05 2.19093E-06 2.08928E-19 1.21672E-18
 -1       964 9.38114E-05-2.68399E-05-2.87021E-05 2.66115E-06-8.10451E-20 1.53865E-18
 -1       965 9.33852E-05-2.65743E-05-2.86333E-05 3.27500E-06-6.18303E-19 2.39541E-18
 -1       966 9.30615E-05-2.64848E-05-2.85330E-05 4.05988E-06-5.62691E-19 2.19300E-18
 -1       967 9.29413E-05-2.66919E-05-2.83928E-05 5.03987E-06 1.57631E-19 1.95474E-18
 -1       968 9.31779E-05-2.73555E-05-2.82098E-05 6.22666E-06 1.25139E-19 2.00164E-18
 -1       969 9.39942E-05-2.86774E-05-2.79935E-05 7.59940E-06-2.59687E-19 1.52655E-18
 -1       970 9.57014E-05-3.08924E-05-2.77758E-05 9.06111E-06 3.75407E-19 1.41326E-18
 -1       971 9.87030E-05-3.42322E-05-2.76316E-05 1.03661E-05 4.11272E-19 1.88935E-18
 -1       972 1.03521E-04-3.87838E-05-2.77287E-05 1.09068E-05-1.60152E-19 1.51853E-18
 -1       973 9.45270E-05-2.21532E-05-3.10173E-05-3.93657E-07 2.85194E-19-4.46228E-19
 -1       974 1.05284E-04-4.02988E-05-2.78453E-05-1.07817E-05-1.52427E-19-1.72083E-18
 -1       975 9.98772E-05-3.53948E-05-2.76358E-05-1.06399E-05-1.22924E-18-2.83407E-19
 -1       976 9.64369E-05-3.17054E-05-2.77438E-05-9.47185E-06-4.32963E-19-7.04204E-20
 -1       977 9.43958E-05-2.91607E-05-2.79586E-05-8.01571E-06 1.82366E-19-7.02672E-19
 -1       978 9.33507E-05-2.75727E-05-2.81907E-05-6.58330E-06-4.49866E-19-1.46234E-18
 -1       979 9.29552E-05-2.66925E-05-2.83983E-05-5.31594E-06-3.87522E-19-5.00501E-19
 -1       980 9.29586E-05-2.63011E-05-2.85673E-05-4.24496E-06-6.69670E-19 1.43056E-18
 -1       981 9.31677E-05-2.62101E-05-2.86959E-05-3.36585E-06-8.14233E-19-3.08230E-19
 -1       982 8.42133E-05-2.94949E-05-2.33994E-05-2.21832E-05 1.13730E-18 4.48281E-18
 -1       983 9.59318E-05-2.56473E-05-3.01206E-05 7.46986E-07 2.47541E-19 3.57922E-20
 -1       984 9.05876E-05-2.38052E-05-2.86210E-05-3.03858E-06 2.99449E-19 9.52754E-20
 -1       985 9.19712E-05-2.49239E-05-2.87346E-05-2.70142E-06 6.64076E-19 3.86869E-19
 -1       986 8.64654E-05-2.10042E-05-2.80551E-05-3.62569E-06-9.65996E-19 1.94635E-19
 -1       987 8.34204E-05-1.93336E-05-2.74672E-05-3.81816E-06-5.62202E-19-7.94398E-19
 -1       988 7.93937E-05-1.75155E-05-2.65184E-05-3.94860E-06-7.61251E-19-1.13851E-18
 -1       989 7.44195E-05-1.56999E-05-2.51494E-05-3.30676E-06-6.61029E-19-3.75977E-19
 -1       990 8.73611E-05-2.14197E-05-2.82611E-05 3.71245E-06 7.19611E-19 8.16990E-19
 -1       991 9.63923E-05-2.69944E-05-2.97418E-05 7.03649E-08 1.33090E-19-4.60950E-20
 -1       992 8.09763E-05-1.81319E-05-2.69334E-05 4.28886E-06-1.37824E-18-2.55961E-19
 -1       993 8.94653E-05-2.27938E-05-2.85737E-05 3.33874E-06 1.44161E-18 2.46569E-19
 -1       994 9.10494E-05-2.39433E-05-2.87598E-05 2.91431E-06 8.32181E-19-3.41728E-19
 -1       995 6.54107E-05-1.55823E-05-2.13007E-05-1.14582E-05-1.28245E-18 8.92852E-19
 -1       996 8.87956E-05-2.24992E-05-2.84128E-05-3.35856E-06-6.50143E-19 4.66708E-19
 -1       997 9.20569E-05-2.48674E-05-2.87958E-05 9.14024E-07-3.34417E-19 3.55892E-18
 -1       998 9.45624E-05-2.72833E-05-2.88339E-05-1.84478E-06 4.32694E-20 5.53486E-19
 -1       999 9.46703E-05-2.24856E-05-3.09359E-05-1.17181E-06 2.69116E-19-1.94703E-19
 -1      1000 1.17998E-04-4.88195E-05-2.96150E-05-6.78698E-06 3.73992E-19-1.84554E-18
 -1      1001 6.49542E-05-1.43013E-05-2.16592E-05 7.71275E-06 7.70001E-19-1.40009E-18
 -1      1002 9.18403E-05-2.45753E-05-2.88257E-05 2.46361E-06 1.68869E-19-2.46039E-19
 -1      1003 9.49630E-05-2.31994E-05-3.07559E-05 1.82728E-06 6.25842E-19-2.79585E-20
 -1      1004 8.46019E-05-1.98539E-05-2.77515E-05 4.03169E-06-1.95291E-18 1.27818E-18
 -1      1005 9.61202E-05-2.60673E-05-3.00238E-05-4.13180E-07 1.55822E-19-2.25824E-19
 -1      1006 7.14716E-05-2.08745E-05-2.15972E-05-1.89648E-05-7.40078E-19 2.97292E-18
 -1      1007 9.65118E-05-2.78017E-05-2.94472E-05 5.05414E-07 2.83061E-20-1.97416E-19
 -1      1008 9.61256E-05-2.81628E-05-2.91270E-05-9.57274E-07 4.18149E-19 1.02261E-19
 -1      1009 6.80179E-05-1.38795E-05-2.31853E-05 1.86750E-06-4.05667E-19-9.72124E-19
 -1      1010 9.51062E-05-2.77808E-05-2.88538E-05-1.64313E-06-1.57551E-19 2.80184E-19
 -1      1011 9.55218E-05-2.41786E-05-3.05757E-05 4.38917E-09 2.78251E-19-3.17092E-19
 -1      1012 9.63053E-05-2.69367E-05-2.97294E-05-4.68637E-09 1.08824E-19-2.17341E-19
 -1      1013 9.82889E-05-3.81733E-05-2.58180E-05 1.84705E-05 4.83834E-20 2.04864E-18
 -1      1014 9.30465E-05-2.58667E-05-2.87914E-05-2.37812E-06 6.14489E-19 1.15576E-18
 -1      1015 7.57564E-05-1.60227E-05-2.55879E-05 3.39795E-06-1.37535E-18 5.53281E-19
 -1      1016 9.60723E-05-3.66779E-05-2.54434E-05-1.95644E-05 4.65097E-19 5.97990E-19
 -1      1017 9.38909E-05-2.66487E-05-2.88180E-05-2.08960E-06 3.15664E-19 7.97191E-19
 -1      1018 9.20194E-05-2.51987E-05-2.86368E-05-2.20567E-06 5.50494E-21 2.40040E-19
 -1      1019 8.18209E-05-2.60341E-05-2.38820E-05 1.87028E-05 3.95403E-19-3.91905E-19
 -1      1020 9.13037E-05-2.45520E-05-2.86092E-05-1.13966E-06 8.10940E-19 6.89177E-19
 -1      1021 9.55657E-05-2.43279E-05-3.05311E-05 4.52205E-07 3.73919E-19-2.96023E-19
 -1      1022 9.59087E-05-2.83483E-05-2.89544E-05-1.30923E-06 5.19907E-19 1.17992E-19
 -1      1023 9.61869E-05-2.83856E-05-2.90577E-05-1.12615E-06 9.42114E-20-9.00720E-20
 -1      1024 9.64842E-05-2.82840E-05-2.92288E-05 5.91806E-07 6.99138E-20-4.38233E-19
 -1      1025 9.61994E-05-2.83547E-05-2.90764E-05 7.31481E-07 2.19441E-19-4.12034E-19
 -1      1026 9.58097E-05-2.82232E-05-2.89656E-05 8.62128E-07-1.88557E-20-1.26891E-19
 -1      1027 9.53373E-05-2.79405E-05-2.88843E-05 1.01205E-06-2.08766E-19-1.08843E-19
 -1      1028 9.47949E-05-2.75478E-05-2.88203E-05 1.20789E-06 2.64231E-19 1.01527E-18
 -1      1029 9.41890E-05-2.70794E-05-2.87614E-05 1.47982E-06-1.73283E-19 8.13309E-19
 -1      1030 9.35315E-05-2.65775E-05-2.86948E-05 1.85896E-06 1.06349E-19 4.55942E-19
 -1      1031 9.28392E-05-2.60911E-05-2.86065E-05 2.38432E-06 3.86904E-19 4.30261E-19
 -1      1032 9.21456E-05-2.56880E-05-2.84821E-05 3.10370E-06-3.70825E-19 1.02467E-18
 -1      1033 9.15105E-05-2.54631E-05-2.83064E-05 4.07555E-06-3.59149E-19 2.28747E-18
 -1      1034 9.10349E-05-2.55499E-05-2.80654E-05 5.36873E-06-2.72893E-19 1.44330E-18
 -1      1035 9.08841E-05-2.61352E-05-2.77502E-05 7.05524E-06-2.27954E-19 1.14563E-18
 -1      1036 9.13001E-05-2.74577E-05-2.73633E-05 9.19039E-06 4.93623E-19 1.42801E-18
 -1      1037 9.27367E-05-2.98988E-05-2.69296E-05 1.17770E-05 4.13331E-19 1.42477E-18
 -1      1038 9.55874E-05-3.37469E-05-2.64875E-05 1.46851E-05 1.80623E-20 1.66590E-18
 -1      1039 9.55672E-05-2.43132E-05-3.05375E-05-4.66047E-07-8.55933E-21-2.47670E-19
 -1      1040 9.71654E-05-3.53137E-05-2.64879E-05-1.53148E-05-1.09378E-19-1.03697E-18
 -1      1041 9.34540E-05-3.08406E-05-2.68429E-05-1.25479E-05-1.04959E-19-2.83934E-19
 -1      1042 9.15969E-05-2.79701E-05-2.72720E-05-9.90825E-06 2.21029E-19-1.38379E-19
 -1      1043 9.09392E-05-2.63405E-05-2.76859E-05-7.60766E-06-1.24646E-19-5.93591E-19
 -1      1044 9.09487E-05-2.55347E-05-2.80345E-05-5.78235E-06-2.52313E-19 6.67785E-19
 -1      1045 9.13207E-05-2.52587E-05-2.83116E-05-4.37885E-06-2.94309E-19 5.60827E-19
 -1      1046 9.18736E-05-2.53255E-05-2.85216E-05-3.29570E-06-1.26515E-18-4.72237E-19
 -1      1047 9.66266E-05-2.79451E-05-2.94350E-05 4.15044E-07 1.84811E-19-5.69138E-19
 -1      1048 7.95912E-05-2.32686E-05-2.41204E-05-1.55932E-05-9.80835E-19 3.24608E-18
 -1      1049 8.07387E-05-1.85307E-05-2.66602E-05 4.79610E-07-5.43411E-19-1.17002E-18
 -1      1050 8.42181E-05-2.01175E-05-2.74723E-05-5.19395E-07-2.65969E-19-9.73864E-19
 -1      1051 8.95695E-05-2.30708E-05-2.84995E-05 1.47881E-06 1.12091E-18 1.95261E-18
 -1      1052 7.39375E-05-1.83599E-05-2.37887E-05-1.12837E-05-2.02283E-18 1.40070E-18
 -1      1053 8.76125E-05-2.18258E-05-2.81938E-05 1.33109E-06 9.29755E-19 1.57256E-18
 -1      1054 9.64257E-05-2.77508E-05-2.94318E-05-5.26807E-07 2.24796E-19-2.30988E-19
 -1      1055 8.90316E-05-2.29189E-05-2.83344E-05-1.38752E-06-1.72714E-20 5.68296E-19
 -1      1056 9.40193E-05-2.68094E-05-2.88043E-05-1.29400E-06-1.55772E-19 1.08521E-19
 -1      1057 9.10150E-05-2.41958E-05-2.86365E-05 1.68550E-07-5.73126E-19 2.54139E-18
 -1      1058 9.55495E-05-2.81391E-05-2.88902E-05-1.47114E-06-4.24474E-21 4.38830E-19
 -1      1059 9.12324E-05-2.42381E-05-2.87125E-05 1.35741E-06-2.58727E-19 2.32790E-18
 -1      1060 9.63696E-05-2.82066E-05-2.92126E-05-8.81751E-07 4.13532E-19-7.42075E-20
 -1      1061 9.57715E-05-2.49391E-05-3.03568E-05 6.74700E-07 3.68890E-19-4.74331E-20
 -1      1062 8.51255E-05-2.04432E-05-2.77216E-05 9.54828E-07-1.63549E-18-2.31041E-19
 -1      1063 9.65738E-05-2.72551E-05-2.97083E-05 1.70260E-07 7.85289E-21-8.37691E-19
 -1      1064 9.07142E-05-2.41118E-05-2.85442E-05-1.48837E-06 5.43305E-19 7.64393E-19
 -1      1065 8.18610E-05-1.88681E-05-2.69934E-05 2.10146E-07-1.16729E-18 7.39075E-19
 -1      1066 8.69102E-05-2.15821E-05-2.79983E-05-1.09615E-06-2.86315E-19-6.38126E-20
 -1      1067 7.46262E-05-1.94154E-05-2.36548E-05 1.26835E-05-8.14078E-20-1.33196E-18
 -1      1068 9.20580E-05-2.51564E-05-2.86724E-05-1.47302E-06 9.09719E-19 2.54316E-19
 -1      1069 7.69885E-05-1.72859E-05-2.55934E-05 2.48034E-06-8.73413E-19-9.28265E-19
 -1      1070 9.61876E-05-2.57682E-05-3.01806E-05-7.56642E-08 8.08898E-20 3.44014E-21
 -1      1071 9.62002E-05-2.83372E-05-2.90842E-05-8.59476E-07 7.72455E-20 4.17371E-19
 -1      1072 9.63539E-05-2.64173E-05-2.99721E-05-1.04514E-07 5.62181E-20-7.17556E-19
 -1      1073 1.13449E-04-4.55164E-05-2.89879E-05 7.17772E-06 1.08550E-18 2.07947E-18
 -1      1074 7.19072E-05-1.57623E-05-2.40303E-05 4.60753E-06-6.19839E-19-1.40503E-18
 -1      1075 7.79101E-05-1.74580E-05-2.59239E-05-2.02533E-06-1.47713E-18 9.35663E-19
 -1      1076 8.85910E-05-2.97902E-05-2.51849E-05-1.73759E-05-2.76573E-19 2.42418E-18
 -1      1077 9.31398E-05-2.60542E-05-2.87511E-05-1.39607E-06 2.46228E-19 1.63029E-19
 -1      1078 9.47378E-05-2.74215E-05-2.88501E-05-1.18543E-06-7.89787E-20 3.79709E-19
 -1      1079 9.07146E-05-2.43678E-05-2.84356E-05-2.31858E-06-6.08965E-19-9.46666E-19
 -1      1080 9.63229E-05-2.64540E-05-2.99428E-05 1.14080E-07 2.56701E-19-2.13583E-19
 -1      1081 9.58177E-05-2.82009E-05-2.89784E-05-9.79843E-07 3.23517E-19 5.55385E-19
 -1      1082 9.61817E-05-2.57609E-05-3.01790E-05 8.60862E-08 5.03071E-19-3.64059E-20
 -1      1083 9.60352E-05-2.82496E-05-2.90510E-05 3.40317E-07 1.19071E-19-4.02208E-19
 -1      1084 9.55564E-05-2.80166E-05-2.89457E-05 4.21235E-07-7.40013E-20-1.53481E-19
 -1      1085 9.49766E-05-2.76246E-05-2.88645E-05 5.39056E-07 4.11099E-19 3.21132E-20
 -1      1086 9.42968E-05-2.71103E-05-2.87937E-05 7.10069E-07 2.99620E-19-4.92109E-19
 -1      1087 9.35267E-05-2.65156E-05-2.87186E-05 9.61423E-07 5.55915E-20 3.28656E-19
 -1      1088 9.26610E-05-2.58688E-05-2.86246E-05 1.33601E-06 1.95484E-19 5.91516E-19
 -1      1089 9.17034E-05-2.52145E-05-2.84944E-05 1.88537E-06 3.22017E-19 5.87431E-19
 -1      1090 9.06689E-05-2.46142E-05-2.83080E-05 2.68029E-06 4.39078E-19 7.96248E-19
 -1      1091 8.95939E-05-2.41571E-05-2.80428E-05 3.81509E-06-2.23254E-19 1.43103E-18
 -1      1092 8.85519E-05-2.39745E-05-2.76741E-05 5.41218E-06-3.50596E-19 1.72224E-18
 -1      1093 8.76725E-05-2.42641E-05-2.71750E-05 7.63398E-06-3.50744E-19 8.63272E-19
 -1      1094 8.71658E-05-2.52200E-05-2.65429E-05 1.05023E-05 5.10408E-20 1.38602E-20
 -1      1095 8.75358E-05-2.75545E-05-2.57210E-05 1.44261E-05-4.33327E-20-5.41270E-19
 -1      1096 9.64708E-05-2.82520E-05-2.92374E-05-6.99799E-07 2.98708E-20-1.32450E-19
 -1      1097 9.66424E-05-2.80964E-05-2.93768E-05 2.02797E-07 2.40693E-19-2.52055E-19
 -1      1098 8.71702E-05-2.56478E-05-2.63675E-05-1.15174E-05-1.86089E-19 9.40188E-19
 -1      1099 8.74197E-05-2.43388E-05-2.70345E-05-8.33355E-06-9.71928E-19-1.08295E-18
 -1      1100 8.82228E-05-2.38535E-05-2.75859E-05-5.95656E-06-1.90472E-19-2.24896E-18
 -1      1101 8.92377E-05-2.38827E-05-2.80068E-05-4.18777E-06-4.39920E-19-2.08427E-18
 -1      1102 9.00265E-05-2.40722E-05-2.82509E-05-3.09498E-06-4.83844E-19-2.17238E-18
 -1      1103 9.66786E-05-2.75559E-05-2.96239E-05 1.15573E-07 2.98111E-19-7.77637E-20
 -1      1104 8.34848E-05-2.04885E-05-2.69988E-05 3.44582E-06-4.43290E-19 2.92218E-20
 -1      1105 8.94650E-05-2.32661E-05-2.83784E-05-6.24077E-07 1.11687E-18 2.75109E-18
 -1      1106 8.07207E-05-2.15172E-05-2.53998E-05-1.07639E-05-1.91799E-18 1.97804E-18
 -1      1107 9.53321E-05-2.78883E-05-2.89044E-05-1.08211E-06-8.63777E-20 4.39269E-19
 -1      1108 9.07702E-05-3.09977E-05-2.55704E-05 1.69332E-05 6.90663E-19-6.18897E-21
 -1      1109 8.65774E-05-2.16197E-05-2.78442E-05-1.29912E-06-4.90782E-19 2.39012E-18
 -1      1110 9.65612E-05-2.74572E-05-2.96161E-05-2.88603E-07 2.67984E-19-6.43431E-19
 -1      1111 9.34853E-05-2.63984E-05-2.87518E-05-5.02833E-07 2.95271E-19-5.65444E-19
 -1      1112 9.64104E-05-2.82961E-05-2.91915E-05 2.74591E-07 1.41494E-19-1.60056E-19
 -1      1113 8.81126E-05-2.26243E-05-2.80677E-05 8.27426E-07 5.04546E-19-2.20749E-19
 -1      1114 9.62726E-05-2.60941E-05-3.00768E-05 1.28421E-07 3.40680E-19-6.48087E-19
 -1      1115 8.60245E-05-2.15388E-05-2.76380E-05 1.85790E-06-1.86499E-19-4.58322E-19
 -1      1116 8.98439E-05-2.36872E-05-2.83539E-05 1.85847E-07 2.84626E-19 5.41481E-19
 -1      1117 8.40978E-05-2.05166E-05-2.72484E-05-2.66070E-06-7.99303E-19 2.88094E-18
 -1      1118 9.12836E-05-2.46870E-05-2.85420E-05-1.93365E-07 2.58416E-19-8.09862E-20
 -1      1119 8.18924E-05-2.00821E-05-2.64859E-05-5.24773E-06-1.82734E-18 1.35502E-18
 -1      1120 9.64455E-05-2.82789E-05-2.92141E-05-4.00128E-07 4.04045E-21-5.29141E-20
 -1      1121 9.24831E-05-2.55965E-05-2.86661E-05-4.01517E-07 6.37139E-19-3.34818E-19
 -1      1122 9.65328E-05-2.68151E-05-2.98782E-05 2.48329E-08-2.05311E-19 2.23808E-19
 -1      1123 9.65771E-05-2.79635E-05-2.94060E-05-5.24189E-07 1.68274E-19-6.05334E-19
 -1      1124 8.11866E-05-1.99244E-05-2.62597E-05 5.82409E-06-5.81732E-19-4.36595E-19
 -1      1125 9.43259E-05-2.70822E-05-2.88191E-05-5.37249E-07-4.22289E-20 6.13245E-20
 -1      1126 9.60941E-05-2.82611E-05-2.90713E-05-4.72936E-07 7.35852E-20-7.66220E-20
 -1      1127 9.65399E-05-2.68138E-05-2.98825E-05-1.85178E-08 2.96450E-19 1.71382E-20
 -1      1128 8.26914E-05-2.38442E-05-2.52300E-05 1.31947E-05-8.33930E-20-3.99123E-20
 -1      1129 9.57900E-05-2.81184E-05-2.90022E-05-1.43752E-07 1.47921E-20 2.31156E-20
 -1      1130 9.52270E-05-2.77726E-05-2.89093E-05-1.16381E-07 9.32987E-20 1.85779E-19
 -1      1131 9.66961E-05-2.78587E-05-2.95017E-05-8.50877E-08-1.62428E-19 3.15355E-19
 -1      1132 9.66710E-05-2.74216E-05-2.96785E-05-6.48336E-08 8.07526E-20 3.50243E-19
 -1      1133 1.16778E-04 2.57347E-10-4.18276E-05-4.14516E-05-1.64324E-19 1.40777E-18
 -1      1134 8.86022E-05 7.18575E-11-3.72318E-05-2.41711E-05-5.46336E-20-1.00553E-18
 -1      1135 8.40524E-05 4.14171E-11-3.57568E-05-1.78875E-05-2.58345E-20-1.74894E-18
 -1      1136 8.23319E-05 3.20375E-11-3.50713E-05-1.38476E-05-1.01379E-20-1.94450E-18
 -1      1137 8.15487E-05 2.73478E-11-3.47444E-05-1.05411E-05 7.14684E-22-1.95763E-18
 -1      1138 8.11584E-05 2.46167E-11-3.45851E-05-7.64635E-06 5.69762E-21-1.82642E-18
 -1      1139 8.09594E-05 2.29603E-11-3.45061E-05-4.98366E-06 1.61863E-20-1.60885E-18
 -1      1140 8.08636E-05 2.20640E-11-3.44695E-05-2.43433E-06 9.30413E-21-1.39923E-18
 -1      1141 8.08367E-05 2.17932E-11-3.44594E-05 5.18992E-08 1.50514E-20-1.18252E-18
 -1      1142 8.08683E-05 2.21099E-11-3.44711E-05 2.54077E-06 3.49302E-20-1.01431E-18
 -1      1143 8.09690E-05 2.30638E-11-3.45093E-05 5.09873E-06 2.51231E-20-7.91473E-19
 -1      1144 8.11749E-05 2.47832E-11-3.45897E-05 7.77823E-06 3.57077E-20-3.99178E-19
 -1      1145 8.15695E-05 2.76552E-11-3.47510E-05 1.07015E-05 3.69253E-20 6.27201E-20
 -1      1146 8.23557E-05 3.25043E-11-3.50813E-05 1.40527E-05 4.16370E-20 7.40373E-19
 -1      1147 8.40494E-05 4.19066E-11-3.57764E-05 1.81390E-05 5.68571E-20 1.74890E-18
 -1      1148 8.83001E-05 6.66780E-11-3.73017E-05 2.40151E-05 3.55754E-20 3.39885E-18
 -1      1149 1.06544E-04 1.63764E-10-4.06062E-05 3.61835E-05-2.54110E-21 6.05449E-18
 -1      1150 1.30123E-04-2.57345E-05-4.02433E-05-2.60960E-05-5.19231E-19 2.79944E-18
 -1      1151 9.73591E-05-2.88333E-05-3.15475E-05-6.81962E-07-1.85924E-19 1.65733E-18
 -1      1152 9.00540E-05-2.69950E-05-2.78613E-05 3.86158E-07-2.55698E-20 3.08849E-19
 -1      1153 8.81374E-05-2.65391E-05-2.66101E-05 2.49930E-07-1.25070E-20-4.50727E-19
 -1      1154 8.77755E-05-2.64116E-05-2.63529E-05 1.64743E-07-1.84561E-20-9.91452E-19
 -1      1155 8.81355E-05-2.64887E-05-2.64385E-05 1.16702E-07-1.11064E-19-1.36547E-18
 -1      1156 8.88309E-05-2.66761E-05-2.66443E-05 8.59713E-08 2.17089E-20-1.44459E-18
 -1      1157 8.96681E-05-2.69152E-05-2.68942E-05 6.46843E-08-1.46159E-20-1.62379E-18
 -1      1158 9.05442E-05-2.71712E-05-2.71562E-05 4.90681E-08 2.20354E-20-2.06487E-18
 -1      1159 9.14065E-05-2.74263E-05-2.74151E-05 3.73105E-08-1.84040E-20-2.34917E-18
 -1      1160 9.22343E-05-2.76729E-05-2.76647E-05 2.85158E-08 1.08287E-20-2.94671E-18
 -1      1161 9.30281E-05-2.79105E-05-2.79049E-05 2.22317E-08 1.65863E-19-2.93647E-18
 -1      1162 9.38032E-05-2.81434E-05-2.81403E-05 1.82400E-08 6.18738E-20-3.71243E-18
 -1      1163 9.45853E-05-2.83787E-05-2.83781E-05 1.64554E-08 5.61869E-20-3.95968E-18
 -1      1164 9.54057E-05-2.86257E-05-2.86275E-05 1.68611E-08-2.00973E-19-4.21482E-18
 -1      1165 9.62971E-05-2.88938E-05-2.88978E-05 1.94382E-08-1.84714E-19-4.54157E-18
 -1      1166 9.72882E-05-2.91912E-05-2.91971E-05 2.40622E-08-5.48131E-21-4.13833E-18
 -1      1167 9.83957E-05-2.95226E-05-2.95294E-05 3.03379E-08 7.34245E-20-3.97548E-18
 -1      1168 9.96137E-05-2.98857E-05-2.98916E-05 3.73514E-08-1.32521E-19-4.95080E-18
 -1      1169 1.00900E-04-3.02673E-05-3.02693E-05 4.33338E-08 1.30287E-19-5.63578E-18
 -1      1170 1.02159E-04-3.06385E-05-3.06324E-05 4.52870E-08-2.04413E-20-4.82043E-18
 -1      1171 1.03226E-04-3.09499E-05-3.09303E-05 3.87418E-08-7.46142E-20-3.84335E-18
 -1      1172 1.03860E-04-3.11300E-05-3.10914E-05 1.80210E-08 1.07892E-19-3.13907E-18
 -1      1173 1.03755E-04-3.10887E-05-3.10288E-05-2.23681E-08 5.63145E-21-3.25632E-18
 -1      1174 1.02592E-04-3.07338E-05-3.06568E-05-8.46098E-08 1.50861E-19-2.38248E-18
 -1      1175 1.00145E-04-3.00012E-05-2.99218E-05-1.62885E-07-2.37364E-19-2.25538E-18
 -1      1176 9.64242E-05-2.88987E-05-2.88420E-05-2.39170E-07 2.67947E-19-2.83272E-18
 -1      1177 9.18269E-05-2.75462E-05-2.75409E-05-2.83930E-07-5.30684E-20-1.65007E-18
 -1      1178 8.71749E-05-2.61858E-05-2.62497E-05-2.66318E-07-5.32870E-21-5.18093E-19
 -1      1179 8.35572E-05-2.51325E-05-2.52596E-05-1.72948E-07-3.48574E-20-2.09032E-19
 -1      1180 8.19615E-05-2.46692E-05-2.48261E-05-2.32760E-08-3.00594E-19-1.22340E-18
 -1      1181 8.28563E-05-2.49288E-05-2.50686E-05 1.34253E-07 3.85301E-20-2.49570E-18
 -1      1182 8.59730E-05-2.58352E-05-2.59188E-05 2.46959E-07 2.10354E-19-8.32316E-19
 -1      1183 9.04327E-05-2.71375E-05-2.71507E-05 2.85895E-07-3.16531E-19-9.13102E-19
 -1      1184 9.51323E-05-2.85175E-05-2.84725E-05 2.56118E-07 2.33323E-20-3.51614E-18
 -1      1185 9.91473E-05-2.97045E-05-2.96285E-05 1.85368E-07 1.14212E-19-3.61469E-18
 -1      1186 1.01957E-04-3.05426E-05-3.04626E-05 1.05029E-07 2.08054E-19-3.77245E-18
 -1      1187 1.03451E-04-3.09953E-05-3.09294E-05 3.69121E-08 1.89138E-19-2.13891E-18
 -1      1188 1.03807E-04-3.11112E-05-3.10663E-05-9.99204E-09 1.54648E-19-1.43617E-19
 -1      1189 1.03331E-04-3.09789E-05-3.09540E-05-3.61261E-08-2.69387E-19-7.93167E-19
 -1      1190 1.02342E-04-3.06918E-05-3.06822E-05-4.64271E-08-2.87009E-19-2.53424E-18
 -1      1191 1.01108E-04-3.03290E-05-3.03290E-05-4.66844E-08 8.58033E-20-4.50474E-18
 -1      1192 9.98194E-05-2.99479E-05-2.99531E-05-4.16980E-08 3.69893E-19-3.79818E-18
 -1      1193 9.86009E-05-2.95858E-05-2.95932E-05-3.47205E-08 5.56223E-20-1.77913E-18
 -1      1194 9.75223E-05-2.92642E-05-2.92725E-05-2.75212E-08 1.09714E-19-3.17970E-18
 -1      1195 9.66207E-05-2.89947E-05-2.90039E-05-2.05750E-08 6.69116E-19-1.36075E-18
 -1      1196 9.59177E-05-2.87840E-05-2.87953E-05-1.30873E-08-6.08722E-20-3.96443E-19
 -1      1197 9.54347E-05-2.86388E-05-2.86525E-05-2.54186E-09 1.89957E-19 1.62425E-18
 -1      1198 9.52054E-05-2.85749E-05-2.85746E-05 1.65335E-08-1.81442E-19 1.34322E-18
 -1      1199 9.51898E-05-2.85561E-05-2.85367E-05 1.60500E-08 9.04733E-20 1.83445E-18
 -1      1200 1.30956E-04-3.77100E-05-3.86290E-05 1.21701E-05-1.12285E-19 8.02945E-18
 -1      1201 9.64585E-05-2.81595E-05-3.12995E-05 8.02001E-07 7.33213E-21 7.61356E-18
 -1      1202 9.02661E-05-2.68970E-05-2.78416E-05 1.20783E-07 3.27696E-20 6.70405E-18
 -1      1203 8.82206E-05-2.64653E-05-2.66455E-05 9.86176E-09 3.60154E-20 5.96772E-18
 -1      1204 8.78103E-05-2.63723E-05-2.63782E-05-2.40533E-08 4.42492E-20 5.77751E-18
 -1      1205 8.81490E-05-2.64686E-05-2.64515E-05-3.25889E-08 2.41107E-20 5.70215E-18
 -1      1206 8.88318E-05-2.66655E-05-2.66505E-05-3.31080E-08-2.97272E-20 5.72663E-18
 -1      1207 8.96588E-05-2.69083E-05-2.68959E-05-3.05520E-08-3.38964E-20 6.19389E-18
 -1      1208 9.05252E-05-2.71653E-05-2.71540E-05-2.64421E-08-4.91587E-20 5.86878E-18
 -1      1209 9.13778E-05-2.74195E-05-2.74092E-05-2.14404E-08 5.70848E-20 5.03696E-18
 -1      1210 9.21969E-05-2.76647E-05-2.76557E-05-1.59106E-08 5.45844E-20 3.65919E-18
 -1      1211 9.29861E-05-2.79017E-05-2.78944E-05-1.00561E-08 7.76330E-20 3.14733E-18
 -1      1212 9.37673E-05-2.81370E-05-2.81320E-05-3.97324E-09 7.25096E-21 3.30984E-18
 -1      1213 9.45787E-05-2.83822E-05-2.83799E-05 2.30777E-09 1.84374E-20 3.47140E-18
 -1      1214 9.54743E-05-2.86534E-05-2.86548E-05 8.77580E-09-2.40645E-20 3.60896E-18
 -1      1215 9.65260E-05-2.89724E-05-2.89785E-05 1.53638E-08 6.96159E-20 3.17127E-18
 -1      1216 9.78268E-05-2.93670E-05-2.93798E-05 2.18121E-08-1.48575E-19 2.52399E-18
 -1      1217 9.94959E-05-2.98731E-05-2.98953E-05 2.74075E-08 5.30711E-20 2.50855E-18
 -1      1218 1.01684E-04-3.05354E-05-3.05712E-05 3.04995E-08 6.91134E-20 1.28923E-18
 -1      1219 1.04576E-04-3.14080E-05-3.14634E-05 2.76524E-08-1.01890E-19 2.25058E-18
 -1      1220 1.08386E-04-3.25522E-05-3.26339E-05 1.23242E-08-1.51394E-19 3.73298E-18
 -1      1221 1.13323E-04-3.40258E-05-3.41379E-05-2.66861E-08 7.51030E-20 5.28538E-18
 -1      1222 1.19506E-04-3.58572E-05-3.59903E-05-1.05462E-07 4.40672E-19 2.20885E-18
 -1      1223 1.26773E-04-3.79901E-05-3.80998E-05-2.38795E-07-3.96660E-19 1.98947E-18
 -1      1224 1.34328E-04-4.01868E-05-4.01639E-05-4.16587E-07 3.18279E-19 3.32969E-18
 -1      1225 1.40250E-04-4.18994E-05-4.15676E-05-5.51974E-07-3.39210E-20 4.61588E-18
 -1      1226 1.41231E-04-4.22065E-05-4.14259E-05-4.31799E-07-1.67845E-19 5.65103E-18
 -1      1227 1.33520E-04-4.00555E-05-3.90020E-05 1.90345E-07 1.66614E-19 2.46508E-18
 -1      1228 1.16227E-04-3.51035E-05-3.45175E-05 1.21010E-06-1.95135E-19 3.14080E-18
 -1      1229 9.56465E-05-2.89207E-05-2.97528E-05 1.84194E-06-9.96587E-20 4.26100E-18
 -1      1230 8.43210E-05-2.51513E-05-2.73647E-05 1.24156E-06-1.67792E-19 3.29390E-18
 -1      1231 9.07066E-05-2.67584E-05-2.88952E-05-2.67732E-07 3.54047E-19 7.06002E-19
 -1      1232 1.09993E-04-3.26737E-05-3.33376E-05-1.39200E-06-5.39090E-20 1.57590E-18
 -1      1233 1.29369E-04-3.88000E-05-3.81064E-05-1.48006E-06-2.94106E-19 2.68425E-18
 -1      1234 1.40040E-04-4.21566E-05-4.10932E-05-9.10782E-07 5.70887E-20 1.67945E-18
 -1      1235 1.41193E-04-4.24919E-05-4.17254E-05-3.02358E-07-2.35455E-19 2.48997E-18
 -1      1236 1.36254E-04-4.09435E-05-4.06039E-05 7.62876E-08 3.53276E-19-3.50989E-20
 -1      1237 1.28872E-04-3.86791E-05-3.86269E-05 2.31062E-07 3.78240E-19-1.54806E-18
 -1      1238 1.21372E-04-3.64069E-05-3.64859E-05 2.54541E-07 7.22435E-20-3.68004E-18
 -1      1239 1.14820E-04-3.44364E-05-3.45500E-05 2.22007E-07-2.02153E-19-3.96173E-19
 -1      1240 1.09515E-04-3.28469E-05-3.29520E-05 1.74937E-07-1.37884E-19 2.30044E-18
 -1      1241 1.05392E-04-3.16137E-05-3.16975E-05 1.31054E-07-2.96257E-19 4.26395E-18
 -1      1242 1.02262E-04-3.06778E-05-3.07400E-05 9.59240E-08-6.93607E-20 3.20143E-18
 -1      1243 9.99169E-05-2.99763E-05-3.00211E-05 6.99475E-08 4.83363E-19 2.70369E-19
 -1      1244 9.81763E-05-2.94556E-05-2.94878E-05 5.17125E-08 1.81258E-19-1.60020E-18
 -1      1245 9.69032E-05-2.90747E-05-2.90993E-05 3.94399E-08 6.21346E-19-6.80570E-18
 -1      1246 9.60042E-05-2.88058E-05-2.88275E-05 3.10459E-08-7.36058E-20-7.45892E-18
 -1      1247 9.54311E-05-2.86341E-05-2.86557E-05 2.20473E-08-3.73850E-19-5.04576E-18
 -1      1248 9.51744E-05-2.85551E-05-2.85688E-05 2.84068E-09 1.07824E-18-9.15657E-18
 -1      1249 9.51840E-05-2.85569E-05-2.85276E-05-1.82308E-08-6.19333E-20-7.01135E-18
 -1      1250 9.52525E-05-2.86261E-05-2.85295E-05-1.81630E-08-7.53309E-18-6.00507E-19
 -1      1251 9.52435E-05-2.86198E-05-2.85741E-05-1.87700E-08-7.74192E-18 1.42545E-19
 -1      1252 9.51648E-05-2.83487E-05-2.86616E-05 9.85338E-09 2.62408E-18 1.61617E-18
 -1      1253 9.50133E-05-2.78318E-05-2.88062E-05 2.45872E-08 4.21963E-18 9.34346E-19
 -1      1254 9.48263E-05-2.71944E-05-2.89842E-05 2.89466E-08 1.30740E-18-7.38813E-19
 -1      1255 9.46441E-05-2.65742E-05-2.91592E-05 2.58656E-08-4.33565E-18-5.54089E-20
 -1      1256 9.44977E-05-2.60761E-05-2.93013E-05 1.86329E-08-4.78872E-18-4.64284E-19
 -1      1257 9.44084E-05-2.57733E-05-2.93885E-05 8.47383E-09-1.80541E-18-5.92215E-19
 -1      1258 9.43892E-05-2.57093E-05-2.94078E-05-2.20751E-09-5.77998E-18-5.35494E-19
 -1      1259 9.44400E-05-2.58836E-05-2.93587E-05-1.18475E-08-4.90912E-18 3.85342E-21
 -1      1260 9.45508E-05-2.62619E-05-2.92508E-05-1.92397E-08-2.77735E-18-1.00744E-18
 -1      1261 9.47031E-05-2.67795E-05-2.91030E-05-2.35352E-08-6.74396E-18 3.10664E-19
 -1      1262 9.48742E-05-2.73616E-05-2.89370E-05-2.38791E-08-5.99136E-18 2.40375E-19
 -1      1263 9.50401E-05-2.79248E-05-2.87777E-05-1.96375E-08-3.94877E-18 1.20952E-18
 -1      1264 9.51739E-05-2.83743E-05-2.86519E-05-9.82093E-09 7.07388E-20 8.31834E-19
 -1      1265 9.52303E-05-2.85892E-05-2.85761E-05 2.64212E-08-1.04474E-18-1.26343E-18
 -1      1266 9.52522E-05-2.86198E-05-2.85374E-05 1.69717E-08-1.57452E-18 5.13251E-19
 -1      1267 3.65059E-05-1.13705E-04 1.95448E-05-1.46421E-05 9.62780E-18 1.05182E-18
 -1      1268 2.04602E-05-7.78268E-05 1.25123E-05-2.93292E-05 8.90740E-18 2.67408E-18
 -1      1269 7.16992E-06-2.30537E-05-1.87633E-06-1.24204E-05 9.70869E-18 5.20417E-18
 -1      1270 2.41983E-05 1.72594E-05-2.10599E-05 3.63363E-05 1.01373E-17 9.76460E-18
 -1      1271 9.20290E-05 1.62315E-05-4.30564E-05 9.16046E-05 7.25230E-18 1.04761E-17
 -1      1272 1.96654E-04-2.52168E-05-6.31442E-05 1.14297E-04 3.97936E-18 8.92095E-18
 -1      1273 2.92976E-04-7.66942E-05-7.71112E-05 7.94400E-05 1.32772E-18 4.47996E-18
 -1      1274 3.34576E-04-1.01722E-04-8.22386E-05-2.55785E-06 7.01608E-19-3.15308E-18
 -1      1275 2.86956E-04-7.38215E-05-7.62633E-05-8.44113E-05 1.85521E-18-7.17013E-18
 -1      1276 1.83086E-04-1.93863E-05-6.09146E-05-1.15023E-04 3.61937E-18-7.06256E-18
 -1      1277 7.37578E-05 1.85516E-05-3.79184E-05-7.93914E-05 6.24263E-18-7.19300E-18
 -1      1278 1.46331E-05 8.20469E-06-1.47380E-05-1.89445E-05 6.76441E-18-5.47353E-18
 -1      1279 9.42242E-06-3.98435E-05 3.24678E-06 2.19875E-05 4.00308E-18-2.49409E-18
 -1      1280 2.76335E-05-9.43445E-05 1.58485E-05 2.74016E-05-1.73472E-18 9.63500E-20
 -1      1281 3.84339E-05-1.16494E-04 1.99494E-05 2.10816E-06-6.46191E-18 1.15620E-19
 -1      1282 2.70025E-05-8.97165E-05 1.48864E-05-2.18975E-05-6.65260E-18-1.05572E-18
 -1      1283 9.82255E-06-3.39466E-05 1.94191E-06-1.55200E-05-5.24822E-18-2.60378E-18
 -1      1284 1.62965E-05 1.55611E-05-1.67673E-05 2.81936E-05-5.74797E-18-5.23975E-18
 -1      1285 6.70183E-05 2.62397E-05-3.74908E-05 8.33800E-05-5.34224E-18-6.63227E-18
 -1      1286 1.57310E-04-6.45307E-06-5.64367E-05 1.13824E-04-4.02679E-18-7.30820E-18
 -1      1287 2.50788E-04-5.63433E-05-7.10299E-05 9.21159E-05-1.90688E-18-3.70153E-18
 -1      1288 3.07902E-04-9.16748E-05-7.81455E-05 2.71368E-05-5.04779E-20 1.66802E-18
 -1      1289 2.95380E-04-8.44944E-05-7.65753E-05-5.40454E-05-5.28628E-19 3.96454E-18
 -1      1290 2.23975E-04-4.12715E-05-6.71669E-05-1.05922E-04-2.92142E-18 6.76017E-18
 -1      1291 1.28606E-04 6.51047E-06-5.13950E-05-1.09700E-04-7.94347E-18 1.18483E-17
 -1      1292 4.76076E-05 2.83227E-05-3.16495E-05-6.85537E-05-1.26835E-17 1.37321E-17
 -1      1293 1.03508E-05 1.00475E-05-1.29069E-05-1.72516E-05-1.22210E-17 8.96838E-18
 -1      1294 8.87334E-06-3.28574E-05 1.95187E-06 1.65843E-05-5.95634E-18 3.49570E-18
 -1      1295 2.24251E-05-7.83708E-05 1.28222E-05 2.45745E-05 4.64174E-19-3.54483E-19
 -1      1296 3.60855E-05-1.11073E-04 1.90468E-05 1.24906E-05 4.67477E-18 3.12582E-19
 -1      1297 1.04363E-04-2.19997E-05-3.78651E-05-1.72746E-05-2.16417E-19 6.45227E-19
 -1      1298 9.02746E-05-6.67562E-06-3.60004E-05-2.04758E-05-3.38284E-19-1.38575E-18
 -1      1299 9.25987E-05-6.73358E-06-3.72008E-05-2.57602E-05-5.20925E-19-9.94152E-19
 -1      1300 8.58809E-05-4.09130E-06-3.51222E-05-1.64400E-05-2.30605E-19-1.85540E-18
 -1      1301 8.71230E-05-4.08618E-06-3.55873E-05-1.88583E-05-2.91750E-19-1.69658E-18
 -1      1302 9.20933E-05-1.04559E-05-3.50794E-05-1.90354E-05-5.46548E-19-1.18796E-18
 -1      1303 8.41024E-05-3.19261E-06-3.46874E-05-1.28263E-05-5.45013E-20-1.96780E-18
 -1      1304 8.46991E-05-3.16128E-06-3.49075E-05-1.46424E-05-1.23587E-19-1.92888E-18
 -1      1305 8.78528E-05-7.38948E-06-3.45687E-05-1.54213E-05-3.22481E-19-1.54372E-18
 -1      1306 8.32054E-05-2.72883E-06-3.44775E-05-9.69093E-06 5.25359E-20-1.94293E-18
 -1      1307 8.35135E-05-2.71227E-06-3.45836E-05-1.12391E-05 4.47207E-20-1.97597E-18
 -1      1308 8.58759E-05-5.98595E-06-3.43074E-05-1.19598E-05-8.15269E-21-1.66447E-18
 -1      1309 8.27251E-05-2.45817E-06-3.43767E-05-6.91899E-06 1.40571E-19-1.77158E-18
 -1      1310 8.28888E-05-2.44964E-06-3.44286E-05-8.29050E-06 9.88779E-20-1.86787E-18
 -1      1311 8.48432E-05-5.21741E-06-3.41819E-05-8.94603E-06 9.92948E-20-1.56627E-18
 -1      1312 8.24585E-05-2.29267E-06-3.43277E-05-4.29753E-06 2.11217E-19-1.56904E-18
 -1      1313 8.25457E-05-2.28870E-06-3.43532E-05-5.59943E-06 1.88505E-19-1.69129E-18
 -1      1314 8.42690E-05-4.76205E-06-3.41237E-05-6.21839E-06 2.48912E-19-1.48720E-18
 -1      1315 8.23309E-05-2.20307E-06-3.43075E-05-1.79138E-06 2.93889E-19-1.33692E-18
 -1      1316 8.23679E-05-2.20149E-06-3.43177E-05-3.04298E-06 2.82419E-19-1.45956E-18
 -1      1317 8.39542E-05-4.49804E-06-3.40982E-05-3.64567E-06 3.83506E-19-1.23786E-18
 -1      1318 8.23059E-05-2.17552E-06-3.43053E-05 6.69500E-07 4.01568E-19-1.11485E-18
 -1      1319 8.23045E-05-2.17556E-06-3.43049E-05-5.66921E-07 3.70961E-19-1.22664E-18
 -1      1320 8.38167E-05-4.37811E-06-3.40890E-05-1.17125E-06 5.42195E-19-1.01418E-18
 -1      1321 8.23771E-05-2.20600E-06-3.43194E-05 3.14935E-06 4.84996E-19-9.87098E-19
 -1      1322 8.23370E-05-2.20762E-06-3.43084E-05 1.89505E-06 4.82745E-19-1.07171E-18
 -1      1323 8.38219E-05-4.38250E-06-3.40895E-05 1.27326E-06 7.29746E-19-8.27419E-19
 -1      1324 8.25640E-05-2.29940E-06-3.43561E-05 5.71533E-06 5.05560E-19-7.31572E-19
 -1      1325 8.24732E-05-2.30277E-06-3.43298E-05 4.40729E-06 5.00482E-19-8.90655E-19
 -1      1326 8.39707E-05-4.51205E-06-3.40994E-05 3.75217E-06 7.90943E-19-7.23379E-19
 -1      1327 8.29132E-05-2.46540E-06-3.44318E-05 8.39907E-06 5.22315E-19-3.30634E-19
 -1      1328 8.27462E-05-2.47411E-06-3.43793E-05 7.01833E-06 5.12640E-19-5.76856E-19
 -1      1329 8.42962E-05-4.78586E-06-3.41252E-05 6.31164E-06 8.30019E-19-4.48213E-19
 -1      1330 8.35563E-05-2.74259E-06-3.45889E-05 1.14014E-05 6.52348E-19 1.85447E-19
 -1      1331 8.32431E-05-2.75976E-06-3.44815E-05 9.83557E-06 6.04927E-19-7.64183E-20
 -1      1332 8.48875E-05-5.25939E-06-3.41833E-05 9.05615E-06 8.99569E-19-1.36584E-20
 -1      1333 8.47576E-05-3.20374E-06-3.49156E-05 1.48514E-05 6.58727E-19 8.89199E-19
 -1      1334 8.41555E-05-3.24063E-06-3.46931E-05 1.30108E-05 6.06979E-19 4.56683E-19
 -1      1335 8.59541E-05-6.06370E-06-3.43093E-05 1.21263E-05 1.01555E-18 4.95832E-19
 -1      1336 8.72242E-05-4.08850E-06-3.56083E-05 1.90980E-05 6.35063E-19 1.99619E-18
 -1      1337 8.59529E-05-4.15270E-06-3.51297E-05 1.67010E-05 5.87153E-19 1.36131E-18
 -1      1338 8.79773E-05-7.51551E-06-3.45704E-05 1.56549E-05 9.64148E-19 1.29310E-18
 -1      1339 9.34102E-05-6.78540E-06-3.70959E-05 2.50978E-05 4.36328E-19 3.62858E-18
 -1      1340 9.00894E-05-6.43202E-06-3.60227E-05 2.11545E-05 4.55121E-19 2.65333E-18
 -1      1341 9.23228E-05-1.06912E-05-3.50643E-05 1.96801E-05 8.59712E-19 2.37365E-18
 -1      1342 1.23539E-04-2.49038E-05-3.89878E-05 2.83595E-05 5.45277E-20 6.11092E-18
 -1      1343 1.00013E-04-1.44102E-05-3.73304E-05 2.40501E-05 1.16044E-19 4.47540E-18
 -1      1344 1.01614E-04-1.93264E-05-3.53814E-05 2.14003E-05 6.06701E-19 3.79534E-18
 -1      1345 1.02520E-04-2.77800E-05-3.47313E-05 7.33239E-06 1.97597E-19 6.19435E-18
 -1      1346 1.05064E-04-3.02057E-05-3.34999E-05-7.96200E-06-4.16105E-19 9.02937E-19
 -1      1347 9.81758E-05-2.78176E-05-3.07364E-05-4.99110E-06-3.63854E-19 4.13140E-19
 -1      1348 9.54177E-05-2.78235E-05-2.92289E-05-2.49196E-06-3.05726E-19 2.70700E-19
 -1      1349 9.31832E-05-2.75318E-05-2.81889E-05-2.04498E-06-2.82512E-19-2.09905E-19
 -1      1350 9.94133E-05-2.80301E-05-3.09612E-05-7.89107E-06-6.54862E-19-1.37749E-19
 -1      1351 9.14941E-05-2.71742E-05-2.75547E-05-8.39334E-07-1.96770E-19-2.43072E-19
 -1      1352 9.07761E-05-2.70782E-05-2.72521E-05-7.28949E-07-1.87128E-19-5.29184E-19
 -1      1353 9.46472E-05-2.77482E-05-2.87952E-05-3.12306E-06-4.85032E-19-3.42956E-19
 -1      1354 9.00280E-05-2.68960E-05-2.70095E-05-1.73159E-07-1.09337E-19-7.23843E-19
 -1      1355 8.99557E-05-2.69225E-05-2.69749E-05-1.14692E-07-2.05548E-19-9.24126E-19
 -1      1356 9.24506E-05-2.74785E-05-2.78754E-05-1.05274E-06-4.09362E-19-5.18027E-19
 -1      1357 8.97012E-05-2.68564E-05-2.69023E-05 1.58568E-07-9.33639E-20-9.50292E-19
 -1      1358 8.99192E-05-2.69471E-05-2.69651E-05 1.88059E-07-1.38076E-19-1.04049E-18
 -1      1359 9.14990E-05-2.73360E-05-2.75111E-05-6.37477E-08-2.58527E-19-7.26370E-19
 -1      1360 8.99325E-05-2.69528E-05-2.69745E-05 3.24207E-07-7.54703E-20-9.22571E-19
 -1      1361 9.02838E-05-2.70747E-05-2.70765E-05 3.37242E-07-3.25123E-20-9.43237E-19
 -1      1362 9.12601E-05-2.73272E-05-2.74081E-05 4.33317E-07-2.16217E-19-4.88176E-19
 -1      1363 9.04420E-05-2.71209E-05-2.71287E-05 3.99522E-07-9.16152E-20-1.05046E-18
 -1      1364 9.08472E-05-2.72538E-05-2.72461E-05 4.03205E-07-1.43821E-19-1.28498E-18
 -1      1365 9.14183E-05-2.74070E-05-2.74387E-05 6.76979E-07-1.54443E-19-5.84168E-19
 -1      1366 9.10813E-05-2.73213E-05-2.73207E-05 4.25073E-07-1.56630E-20-1.25152E-18
 -1      1367 9.14987E-05-2.74543E-05-2.74421E-05 4.23806E-07-1.21075E-19-1.51240E-18
 -1      1368 9.17924E-05-2.75365E-05-2.75411E-05 7.82389E-07-2.52916E-19-7.16672E-19
 -1      1369 9.17698E-05-2.75321E-05-2.75274E-05 4.25168E-07-2.08843E-19-1.30121E-18
 -1      1370 9.21794E-05-2.76601E-05-2.76472E-05 4.21898E-07-2.90637E-19-1.45710E-18
 -1      1371 9.22786E-05-2.76904E-05-2.76819E-05 8.13593E-07-2.37526E-19-7.68881E-19
 -1      1372 9.24671E-05-2.77424E-05-2.77373E-05 4.15597E-07-3.32449E-19-1.51606E-18
 -1      1373 9.28627E-05-2.78642E-05-2.78535E-05 4.12378E-07-3.97439E-20-1.84720E-18
 -1      1374 9.28191E-05-2.78546E-05-2.78424E-05 8.10106E-07-3.69354E-19-5.58389E-19
 -1      1375 9.31585E-05-2.79487E-05-2.79460E-05 4.07090E-07-1.61222E-20-2.01571E-18
 -1      1376 9.35432E-05-2.80658E-05-2.80594E-05 4.05376E-07-2.47489E-19-2.32568E-18
 -1      1377 9.33854E-05-2.80224E-05-2.80130E-05 7.97985E-07-2.73713E-19-1.02265E-18
 -1      1378 9.38470E-05-2.81525E-05-2.81542E-05 4.07001E-07-3.48102E-19-2.73501E-18
 -1      1379 9.42301E-05-2.82682E-05-2.82676E-05 4.07796E-07-2.78560E-19-3.13560E-18
 -1      1380 9.39690E-05-2.81925E-05-2.81905E-05 7.94928E-07-5.36117E-19-1.78258E-18
 -1      1381 9.45470E-05-2.83587E-05-2.83662E-05 4.20100E-07 1.20557E-20-3.18625E-18
 -1      1382 9.49420E-05-2.84776E-05-2.84833E-05 4.24014E-07-1.03221E-19-3.01106E-18
 -1      1383 9.45742E-05-2.83674E-05-2.83757E-05 8.12707E-07-2.88701E-19-2.41466E-18
 -1      1384 9.52803E-05-2.85744E-05-2.85884E-05 4.48785E-07-7.20857E-20-2.97555E-18
 -1      1385 9.57025E-05-2.87016E-05-2.87136E-05 4.56009E-07-2.53810E-19-3.26815E-18
 -1      1386 9.52142E-05-2.85517E-05-2.85718E-05 8.58136E-07-2.69980E-19-2.10689E-18
 -1      1387 9.60714E-05-2.88077E-05-2.88279E-05 4.92817E-07-2.76375E-19-3.02286E-18
 -1      1388 9.65354E-05-2.89481E-05-2.89654E-05 5.03017E-07-1.29053E-19-2.99742E-18
 -1      1389 9.59060E-05-2.87520E-05-2.87833E-05 9.32987E-07-1.45181E-19-1.55386E-18
 -1      1390 9.69427E-05-2.90661E-05-2.90911E-05 5.48603E-07 4.23723E-20-3.11419E-18
 -1      1391 9.74593E-05-2.92237E-05-2.92437E-05 5.60717E-07 2.03631E-20-3.00935E-18
 -1      1392 9.66668E-05-2.89748E-05-2.90146E-05 1.03300E-06 1.93953E-20-1.64900E-18
 -1      1393 9.79084E-05-2.93553E-05-2.93816E-05 6.08032E-07 2.38948E-20-3.04200E-18
 -1      1394 9.84798E-05-2.95316E-05-2.95498E-05 6.19980E-07 1.64632E-20-3.06701E-18
 -1      1395 9.75083E-05-2.92257E-05-2.92680E-05 1.14601E-06 1.23011E-19-2.04741E-18
 -1      1396 9.89660E-05-2.96763E-05-2.96979E-05 6.56988E-07-2.13943E-19-3.16339E-18
 -1      1397 9.95803E-05-2.98686E-05-2.98778E-05 6.65322E-07-3.72548E-19-3.50484E-18
 -1      1398 9.84303E-05-2.95076E-05-2.95418E-05 1.24939E-06-3.77423E-19-2.17173E-18
 -1      1399 1.00086E-04-3.00224E-05-3.00300E-05 6.73890E-07-9.45006E-20-3.49268E-18
 -1      1400 1.00710E-04-3.02213E-05-3.02112E-05 6.73477E-07-1.83267E-19-3.70445E-18
 -1      1401 9.94130E-05-2.98182E-05-2.98281E-05 1.30722E-06-5.05791E-19-1.92777E-18
 -1      1402 1.01200E-04-3.03754E-05-3.03559E-05 6.29040E-07 3.76491E-20-3.77298E-18
 -1      1403 1.01769E-04-3.05623E-05-3.05197E-05 6.13000E-07 1.10966E-20-3.50821E-18
 -1      1404 1.00407E-04-3.01466E-05-3.01101E-05 1.26854E-06-1.58099E-19-2.01247E-18
 -1      1405 1.02189E-04-3.07013E-05-3.06386E-05 4.86264E-07 1.31556E-19-3.11344E-18
 -1      1406 1.02605E-04-3.08456E-05-3.07559E-05 4.46565E-07 4.07797E-19-2.71606E-18
 -1      1407 1.01326E-04-3.04696E-05-3.03598E-05 1.06871E-06 3.36337E-19-1.94644E-18
 -1      1408 1.02873E-04-3.09463E-05-3.08242E-05 2.09135E-07 3.53980E-19-2.74617E-18
 -1      1409 1.03005E-04-3.10051E-05-3.08571E-05 1.38441E-07 3.59724E-20-2.38081E-18
 -1      1410 1.02038E-04-3.07475E-05-3.05375E-05 6.37859E-07 3.53353E-19-1.85447E-18
 -1      1411 1.03025E-04-3.10368E-05-3.08460E-05-2.25600E-07-3.97940E-20-1.94286E-18
 -1      1412 1.02721E-04-3.09587E-05-3.07522E-05-3.30177E-07 1.16748E-19-2.00941E-18
 -1      1413 1.02367E-04-3.09209E-05-3.05948E-05-7.89804E-08 1.61717E-19-1.33876E-18
 -1      1414 1.02394E-04-3.08867E-05-3.06348E-05-8.06300E-07 5.15175E-19-1.76018E-18
 -1      1415 1.01523E-04-3.06224E-05-3.03795E-05-9.37576E-07 4.39167E-20-1.50145E-18
 -1      1416 1.02119E-04-3.09127E-05-3.04822E-05-1.08672E-06 4.48620E-19-3.99356E-19
 -1      1417 1.00781E-04-3.04169E-05-3.01407E-05-1.46085E-06-2.69022E-19-1.01591E-18
 -1      1418 9.92901E-05-2.99400E-05-2.97129E-05-1.59588E-06-1.59183E-19-9.04234E-19
 -1      1419 1.01117E-04-3.06403E-05-3.01641E-05-2.29398E-06 1.78118E-19-5.58416E-19
 -1      1420 9.81393E-05-2.95913E-05-2.93619E-05-2.04130E-06 1.31451E-19-1.06258E-18
 -1      1421 9.61264E-05-2.89252E-05-2.87934E-05-2.14016E-06 3.86025E-19-9.81129E-19
 -1      1422 9.92862E-05-3.00452E-05-2.96379E-05-3.47507E-06-6.31238E-20 8.01889E-19
 -1      1423 9.46909E-05-2.84636E-05-2.83731E-05-2.34172E-06 5.16723E-19-9.03017E-19
 -1      1424 9.24494E-05-2.77022E-05-2.77485E-05-2.35682E-06 3.07968E-19-5.12799E-19
 -1      1425 9.67408E-05-2.91378E-05-2.89526E-05-4.27746E-06 5.70741E-19 1.35466E-19
 -1      1426 9.09872E-05-2.72106E-05-2.73343E-05-2.16810E-06 3.45457E-19-1.75706E-19
 -1      1427 8.89803E-05-2.65154E-05-2.67811E-05-2.06634E-06 2.08363E-19 1.27214E-19
 -1      1428 9.38543E-05-2.80427E-05-2.82147E-05-4.31496E-06 7.39413E-19-3.77360E-19
 -1      1429 8.78371E-05-2.61189E-05-2.64653E-05-1.44739E-06-4.92113E-19 4.07807E-19
 -1      1430 8.65705E-05-2.56747E-05-2.61187E-05-1.23623E-06-2.70521E-19 4.25025E-19
 -1      1431 9.12363E-05-2.70062E-05-2.75719E-05-3.34902E-06-1.56807E-19 7.03520E-19
 -1      1432 8.60645E-05-2.54963E-05-2.59808E-05-3.12734E-07-4.48365E-19 2.90651E-19
 -1      1433 8.58941E-05-2.54364E-05-2.59342E-05-4.88712E-08-5.96933E-19-2.64043E-19
 -1      1434 8.95701E-05-2.63296E-05-2.71735E-05-1.47608E-06-5.24777E-19 5.39388E-19
 -1      1435 8.61772E-05-2.55367E-05-2.60110E-05 9.16546E-07-3.14964E-19-6.61056E-19
 -1      1436 8.71519E-05-2.58796E-05-2.62772E-05 1.15013E-06 2.39373E-19-6.10631E-19
 -1      1437 8.93445E-05-2.62375E-05-2.71197E-05 8.26552E-07-9.41107E-19 1.32499E-18
 -1      1438 8.81369E-05-2.62237E-05-2.65477E-05 1.87519E-06 5.43547E-19-4.56260E-19
 -1      1439 8.99761E-05-2.68637E-05-2.70534E-05 2.01084E-06-1.90788E-19-4.55863E-19
 -1      1440 9.06271E-05-2.67618E-05-2.74243E-05 2.88289E-06 3.33122E-20 2.59238E-19
 -1      1441 9.13792E-05-2.73405E-05-2.74476E-05 2.32406E-06-9.48334E-19-3.85268E-19
 -1      1442 9.35997E-05-2.80996E-05-2.80642E-05 2.34014E-06-7.70367E-19-1.49133E-18
 -1      1443 9.30316E-05-2.77231E-05-2.80089E-05 4.13273E-06-5.08445E-19-2.80877E-19
 -1      1444 9.50694E-05-2.85790E-05-2.84901E-05 2.23745E-06-2.58057E-19-1.81829E-18
 -1      1445 9.71791E-05-2.92831E-05-2.90835E-05 2.15765E-06-1.79733E-19-2.20652E-18
 -1      1446 9.59015E-05-2.88279E-05-2.87330E-05 4.36738E-06-1.10158E-18-8.71101E-19
 -1      1447 9.84244E-05-2.96677E-05-2.94584E-05 1.76360E-06-3.44286E-19-2.47054E-18
 -1      1448 1.00074E-04-3.02014E-05-2.99296E-05 1.63397E-06-1.45306E-19-2.92083E-18
 -1      1449 9.85840E-05-2.98043E-05-2.94435E-05 3.74503E-06-5.74401E-19-1.39245E-18
 -1      1450 1.00932E-04-3.04464E-05-3.02008E-05 1.11694E-06 2.20040E-19-3.19543E-18
 -1      1451 1.01971E-04-3.07676E-05-3.05032E-05 9.81263E-07 4.93694E-19-2.61434E-18
 -1      1452 1.00630E-04-3.04906E-05-3.00194E-05 2.63023E-06-3.31124E-19-2.21627E-18
 -1      1453 1.02405E-04-3.08733E-05-3.06526E-05 4.82013E-07 7.73113E-19-3.10422E-18
 -1      1454 1.02850E-04-3.09971E-05-3.07868E-05 3.68394E-07 7.15382E-19-2.29966E-18
 -1      1455 1.01855E-04-3.08475E-05-3.03951E-05 1.39973E-06 4.56792E-19-3.16717E-18
 -1      1456 1.02914E-04-3.09896E-05-3.08240E-05-3.08244E-08 5.77514E-19-1.15236E-18
 -1      1457 1.02882E-04-3.09613E-05-3.08203E-05-1.11173E-07 3.90461E-19-9.08388E-19
 -1      1458 1.02292E-04-3.09192E-05-3.05604E-05 3.20072E-07 1.00002E-18-1.95577E-18
 -1      1459 1.02669E-04-3.08754E-05-3.07701E-05-3.83047E-07-4.32996E-19-9.75792E-19
 -1      1460 1.02311E-04-3.07477E-05-3.06702E-05-4.30689E-07-1.11428E-18-2.07048E-18
 -1      1461 1.02097E-04-3.07857E-05-3.05439E-05-4.81140E-07-1.16497E-19-1.56199E-18
 -1      1462 1.01923E-04-3.06161E-05-3.05621E-05-5.83980E-07-4.33156E-19-2.10035E-18
 -1      1463 1.01380E-04-3.04354E-05-3.04066E-05-6.05308E-07-2.14470E-19-2.67110E-18
 -1      1464 1.01468E-04-3.05278E-05-3.03936E-05-9.85236E-07-9.74885E-19-8.65577E-19
 -1      1465 1.00904E-04-3.02839E-05-3.02676E-05-6.65517E-07-1.88797E-19-2.52528E-18
 -1      1466 1.00287E-04-3.00850E-05-3.00889E-05-6.68412E-07 1.67449E-19-2.53360E-18
 -1      1467 1.00591E-04-3.02113E-05-3.01602E-05-1.23553E-06-5.60354E-19-8.25281E-19
 -1      1468 9.97892E-05-2.99320E-05-2.99400E-05-6.64216E-07 7.05238E-19-2.28987E-18
 -1      1469 9.91755E-05-2.97379E-05-2.97609E-05-6.55680E-07 8.67662E-19-1.56507E-18
 -1      1470 9.96172E-05-2.98824E-05-2.98879E-05-1.29798E-06 7.36925E-19-6.15251E-19
 -1      1471 9.87000E-05-2.95949E-05-2.96169E-05-6.11630E-07 8.89972E-20-3.82885E-19
 -1      1472 9.81369E-05-2.94191E-05-2.94518E-05-5.96840E-07 3.48816E-19-1.05145E-18
 -1      1473 9.86507E-05-2.95703E-05-2.96100E-05-1.23664E-06 1.26056E-18-1.01963E-19
 -1      1474 9.77110E-05-2.92926E-05-2.93219E-05-5.30534E-07 5.09792E-19-1.25409E-18
 -1      1475 9.72248E-05-2.91420E-05-2.91791E-05-5.12700E-07 1.87890E-19-5.94303E-19
 -1      1476 9.77598E-05-2.92909E-05-2.93492E-05-1.10196E-06 3.46177E-19 1.09581E-18
 -1      1477 9.68637E-05-2.90352E-05-2.90688E-05-4.34476E-07 7.67208E-19-1.16442E-18
 -1      1478 9.64689E-05-2.89131E-05-2.89530E-05-4.15003E-07 1.23612E-18 2.00613E-19
 -1      1479 9.69837E-05-2.90516E-05-2.91198E-05-9.27314E-07 6.96843E-19 1.51229E-18
 -1      1480 9.61804E-05-2.88273E-05-2.88654E-05-3.28883E-07 4.21183E-19-7.56448E-19
 -1      1481 9.58869E-05-2.87363E-05-2.87797E-05-3.07628E-07-1.86777E-21-8.44447E-19
 -1      1482 9.63430E-05-2.88545E-05-2.89301E-05-7.29933E-07 5.14941E-19-6.66694E-19
 -1      1483 9.56746E-05-2.86720E-05-2.87164E-05-2.13964E-07 9.34050E-19-5.25294E-19
 -1      1484 9.54928E-05-2.86159E-05-2.86627E-05-1.89638E-07 5.66744E-19 4.58861E-19
 -1      1485 9.58476E-05-2.87000E-05-2.87843E-05-5.14664E-07 7.45853E-19-1.10318E-18
 -1      1486 9.53523E-05-2.85697E-05-2.86220E-05-8.95581E-08 2.28658E-20 1.06270E-18
 -1      1487 9.52901E-05-2.85598E-05-2.85965E-05-6.26161E-08-2.70968E-20 9.54366E-19
 -1      1488 9.54982E-05-2.85886E-05-2.86816E-05-2.85373E-07 5.72589E-19-3.97965E-19
 -1      1489 9.52222E-05-2.85700E-05-2.85587E-05 2.00813E-08-1.52338E-18 8.76754E-19
 -1      1490 9.52819E-05-2.85526E-05-2.85991E-05-5.06729E-08-8.87808E-19-2.26934E-19
 -1      1491 9.64882E-05-2.83369E-05-2.97457E-05 2.99833E-06 2.85132E-19 5.55815E-18
 -1      1492 1.02450E-04-2.93729E-05-3.21296E-05 4.46530E-06 2.47228E-19 5.91017E-18
 -1      1493 1.02250E-04-2.66958E-05-3.26823E-05 1.27856E-05 4.02764E-19 4.36582E-18
 -1      1494 9.19382E-05-2.74015E-05-2.77341E-05 1.15434E-06 3.19173E-19 4.90392E-18
 -1      1495 9.38878E-05-2.75576E-05-2.86490E-05 1.47622E-06 2.43734E-19 5.25016E-18
 -1      1496 9.64093E-05-2.80069E-05-2.95104E-05 4.87162E-06 4.66583E-19 3.91571E-18
 -1      1497 9.01027E-05-2.69756E-05-2.70344E-05 3.33414E-07 1.51063E-19 4.36672E-18
 -1      1498 9.07202E-05-2.69941E-05-2.73077E-05 4.96287E-07 1.83833E-19 4.62914E-18
 -1      1499 9.29640E-05-2.75552E-05-2.80753E-05 1.85504E-06 4.14623E-19 3.45252E-18
 -1      1500 8.95858E-05-2.68574E-05-2.68589E-05-5.53686E-08 9.43218E-20 4.26170E-18
 -1      1501 8.96242E-05-2.67955E-05-2.68873E-05 3.39351E-08 5.28734E-20 4.35698E-18
 -1      1502 9.14125E-05-2.72841E-05-2.74923E-05 5.18295E-07 1.43738E-19 3.04347E-18
 -1      1503 8.97239E-05-2.69114E-05-2.69028E-05-2.45980E-07 1.21261E-19 4.29570E-18
 -1      1504 8.94936E-05-2.68034E-05-2.68370E-05-1.95253E-07 2.61215E-20 4.22479E-18
 -1      1505 9.08874E-05-2.72047E-05-2.72984E-05-1.36681E-07 5.59803E-20 3.00778E-18
 -1      1506 9.01925E-05-2.70581E-05-2.70461E-05-3.34755E-07-1.38434E-19 4.38977E-18
 -1      1507 8.98389E-05-2.69288E-05-2.69423E-05-3.06092E-07-7.91959E-20 4.25690E-18
 -1      1508 9.09194E-05-2.72512E-05-2.72923E-05-4.64191E-07-3.10441E-20 3.15226E-18
 -1      1509 9.08184E-05-2.72491E-05-2.72353E-05-3.68077E-07 1.77274E-19 4.27871E-18
 -1      1510 9.04161E-05-2.71142E-05-2.71171E-05-3.52643E-07 1.16560E-20 4.28726E-18
 -1      1511 9.12511E-05-2.73702E-05-2.73827E-05-6.18411E-07-4.52799E-21 2.88532E-18
 -1      1512 9.15069E-05-2.74570E-05-2.74430E-05-3.72167E-07 2.78227E-19 3.82419E-18
 -1      1513 9.10953E-05-2.73248E-05-2.73217E-05-3.64440E-07 1.98991E-19 4.09896E-18
 -1      1514 9.17379E-05-2.75263E-05-2.75233E-05-6.78205E-07 2.72048E-19 2.67494E-18
 -1      1515 9.22102E-05-2.76677E-05-2.76555E-05-3.63735E-07 3.93811E-19 2.95397E-18
 -1      1516 9.18074E-05-2.75416E-05-2.75362E-05-3.59913E-07 3.94684E-19 3.54911E-18
 -1      1517 9.22994E-05-2.76987E-05-2.76892E-05-6.89645E-07 6.33046E-19 1.92122E-18
 -1      1518 9.29109E-05-2.78763E-05-2.78676E-05-3.54468E-07 1.38764E-19 2.54977E-18
 -1      1519 9.25211E-05-2.77561E-05-2.77517E-05-3.51715E-07 1.92349E-19 2.78775E-18
 -1      1520 9.28950E-05-2.78771E-05-2.78675E-05-6.82745E-07 4.78044E-19 1.55391E-18
 -1      1521 9.36137E-05-2.80843E-05-2.80808E-05-3.53329E-07-4.95648E-20 2.30138E-18
 -1      1522 9.32306E-05-2.79671E-05-2.79663E-05-3.49324E-07 1.04914E-19 2.40081E-18
 -1      1523 9.35109E-05-2.80583E-05-2.80537E-05-6.78983E-07 1.56062E-19 1.60464E-18
 -1      1524 9.43406E-05-2.82986E-05-2.83017E-05-3.67960E-07 1.38264E-19 2.40735E-18
 -1      1525 9.39497E-05-2.81788E-05-2.81844E-05-3.60587E-07-6.37417E-20 2.20394E-18
 -1      1526 9.41529E-05-2.82447E-05-2.82495E-05-6.95304E-07-5.21539E-20 1.32904E-18
 -1      1527 9.51297E-05-2.85303E-05-2.85418E-05-4.05714E-07 3.69464E-20 2.41708E-18
 -1      1528 9.47082E-05-2.84003E-05-2.84148E-05-3.92801E-07 1.25312E-19 2.45189E-18
 -1      1529 9.48433E-05-2.84430E-05-2.84613E-05-7.46656E-07 2.59809E-19 1.54125E-18
 -1      1530 9.60345E-05-2.87953E-05-2.88173E-05-4.74514E-07 1.67529E-20 2.20168E-18
 -1      1531 9.55512E-05-2.86447E-05-2.86714E-05-4.53592E-07 3.47912E-21 2.13940E-18
 -1      1532 9.56187E-05-2.86640E-05-2.87005E-05-8.47883E-07 1.15359E-19 1.20014E-18
 -1      1533 9.71258E-05-2.91144E-05-2.91498E-05-5.83623E-07 2.06412E-19 2.15169E-18
 -1      1534 9.65400E-05-2.89301E-05-2.89728E-05-5.51663E-07 2.90680E-19 2.42314E-18
 -1      1535 9.65301E-05-2.89224E-05-2.89826E-05-1.01529E-06 2.74103E-19 1.30216E-18
 -1      1536 9.84944E-05-2.95146E-05-2.95669E-05-7.44254E-07-2.75005E-19 2.03269E-18
 -1      1537 9.77538E-05-2.92794E-05-2.93431E-05-6.97415E-07-1.36132E-19 2.02013E-18
 -1      1538 9.76440E-05-2.92375E-05-2.93283E-05-1.26795E-06 1.27897E-19 1.86273E-18
 -1      1539 1.00255E-04-3.00297E-05-3.01034E-05-9.69755E-07 3.66980E-19 1.42543E-18
 -1      1540 9.92931E-05-2.97219E-05-2.98130E-05-9.03192E-07 1.81103E-19 1.87705E-18
 -1      1541 9.90438E-05-2.96333E-05-2.97632E-05-1.62839E-06 1.58519E-19 1.35589E-18
 -1      1542 1.02548E-04-3.07017E-05-3.08018E-05-1.27465E-06-2.48760E-19 7.91360E-19
 -1      1543 1.01282E-04-3.02943E-05-3.04203E-05-1.18259E-06 1.26731E-19 1.14930E-18
 -1      1544 1.00831E-04-3.01396E-05-3.03185E-05-2.12191E-06 3.92682E-19 1.01346E-18
 -1      1545 1.05536E-04-3.15803E-05-3.17109E-05-1.67096E-06-2.84429E-19 1.65068E-18
 -1      1546 1.03869E-04-3.10414E-05-3.12097E-05-1.54754E-06-4.79556E-19 1.02155E-18
 -1      1547 1.03125E-04-3.07923E-05-3.10298E-05-2.77247E-06-5.02228E-19 5.55018E-19
 -1      1548 1.09387E-04-3.27200E-05-3.28791E-05-2.15853E-06-4.12886E-19 3.08129E-18
 -1      1549 1.07217E-04-3.20155E-05-3.22295E-05-2.00044E-06-5.65573E-19 2.20749E-18
 -1      1550 1.06050E-04-3.16329E-05-3.19332E-05-3.59104E-06-8.65747E-19 1.37496E-18
 -1      1551 1.14228E-04-3.41687E-05-3.43376E-05-2.70371E-06 6.05116E-19 2.82165E-18
 -1      1552 1.11478E-04-3.32719E-05-3.35209E-05-2.51676E-06 2.48978E-19 3.07992E-18
 -1      1553 1.09721E-04-3.27069E-05-3.30559E-05-4.54880E-06-1.51533E-19 1.24871E-18
 -1      1554 1.20037E-04-3.59414E-05-3.60629E-05-3.19822E-06 9.04754E-20 1.52612E-18
 -1      1555 1.16722E-04-3.48560E-05-3.50936E-05-3.01110E-06 5.94268E-19 2.55950E-18
 -1      1556 1.14185E-04-3.40566E-05-3.43948E-05-5.52363E-06 6.22996E-19 1.47455E-18
 -1      1557 1.26440E-04-3.79648E-05-3.79110E-05-3.39429E-06-4.02973E-19 2.00548E-18
 -1      1558 1.22804E-04-3.67701E-05-3.68784E-05-3.28236E-06-3.06567E-19 1.23037E-18
 -1      1559 1.19331E-04-3.57043E-05-3.58813E-05-6.20936E-06-2.51264E-19 1.56483E-18
 -1      1560 1.32416E-04-3.99774E-05-3.95332E-05-2.84127E-06-2.55003E-19 2.76524E-18
 -1      1561 1.29127E-04-3.89028E-05-3.86556E-05-2.95405E-06-5.11072E-19 2.04932E-18
 -1      1562 1.24739E-04-3.76093E-05-3.73326E-05-6.00286E-06-6.09354E-19 7.30778E-19
 -1      1563 1.36003E-04-4.13886E-05-4.03406E-05-9.37496E-07-6.00070E-19 3.76496E-18
 -1      1564 1.34344E-04-4.08940E-05-3.99883E-05-1.49125E-06-2.59205E-19 2.97258E-18
 -1      1565 1.29478E-04-3.95685E-05-3.84215E-05-3.97851E-06-7.88720E-19 2.05538E-18
 -1      1566 1.34481E-04-4.12065E-05-3.96672E-05 2.63749E-06 2.89368E-19 4.26783E-18
 -1      1567 1.36189E-04-4.19529E-05-4.02573E-05 1.50239E-06-9.31207E-20 4.27884E-18
 -1      1568 1.31981E-04-4.10186E-05-3.87392E-05 7.44372E-07-3.20231E-19 3.04307E-18
 -1      1569 1.25776E-04-3.83908E-05-3.72595E-05 6.93555E-06 4.18156E-19 2.38937E-18
 -1      1570 1.32035E-04-4.08628E-05-3.89375E-05 5.49753E-06 8.14581E-19 3.63959E-18
 -1      1571 1.30323E-04-4.08906E-05-3.80359E-05 7.79963E-06 1.06239E-18 3.63907E-18
 -1      1572 1.11472E-04-3.31088E-05-3.38541E-05 8.97167E-06-8.85030E-19 2.69102E-18
 -1      1573 1.20939E-04-3.67597E-05-3.61171E-05 8.19565E-06-6.31582E-19 1.83319E-18
 -1      1574 1.23534E-04-3.80094E-05-3.65421E-05 1.39079E-05-2.79164E-19 2.67271E-18
 -1      1575 9.89655E-05-2.81760E-05-3.11409E-05 5.51691E-06-2.37063E-19 3.10268E-18
 -1      1576 1.06679E-04-3.08947E-05-3.28657E-05 6.42099E-06-1.42302E-19 2.78377E-18
 -1      1577 1.13944E-04-3.28444E-05-3.50311E-05 1.33324E-05-5.68889E-19 1.34530E-18
 -1      1578 9.72840E-05-2.75373E-05-3.07519E-05-2.21640E-06 8.85599E-19 1.57866E-18
 -1      1579 9.77966E-05-2.71761E-05-3.08771E-05-2.68088E-08 3.26372E-19 2.23887E-18
 -1      1580 1.07814E-04-2.89828E-05-3.43211E-05 3.66179E-06 5.17537E-19 9.60919E-19
 -1      1581 1.07921E-04-3.18394E-05-3.29483E-05-8.19614E-06-2.20705E-19 3.82435E-19
 -1      1582 1.00801E-04-2.86550E-05-3.13793E-05-6.49225E-06 3.25261E-19 6.98061E-19
 -1      1583 1.10203E-04-3.01857E-05-3.47603E-05-8.84353E-06 7.52430E-19 7.17860E-20
 -1      1584 1.22877E-04-3.74565E-05-3.63675E-05-8.42136E-06 1.57330E-21 5.67300E-19
 -1      1585 1.13242E-04-3.38589E-05-3.40886E-05-8.21885E-06-3.28990E-19 3.00908E-19
 -1      1586 1.19053E-04-3.53517E-05-3.60777E-05-1.47029E-05-8.96267E-20-5.71324E-19
 -1      1587 1.33455E-04-4.09627E-05-3.92029E-05-4.62715E-06 5.22977E-19-1.24090E-19
 -1      1588 1.26618E-04-3.88569E-05-3.73993E-05-5.44249E-06 4.85548E-19 7.63706E-19
 -1      1589 1.27718E-04-3.99268E-05-3.76225E-05-1.16868E-05 5.36834E-19-1.49909E-18
 -1      1590 1.36647E-04-4.16702E-05-4.03809E-05-4.52382E-07-8.27710E-19 5.06526E-19
 -1      1591 1.34417E-04-4.13088E-05-3.96628E-05-1.38855E-06-4.29869E-19-1.95347E-20
 -1      1592 1.31786E-04-4.14537E-05-3.86339E-05-4.60332E-06-1.75892E-19-1.98687E-18
 -1      1593 1.34013E-04-4.05099E-05-3.99392E-05 2.21743E-06 5.44040E-19 2.47731E-19
 -1      1594 1.35386E-04-4.12603E-05-4.02019E-05 1.60062E-06 9.68926E-20 2.90420E-19
 -1      1595 1.30991E-04-4.05643E-05-3.86822E-05 1.60523E-06-5.32043E-20-1.29165E-18
 -1      1596 1.28365E-04-3.85574E-05-3.84839E-05 3.29523E-06 6.70307E-19-1.91845E-18
 -1      1597 1.31568E-04-3.97432E-05-3.93213E-05 3.02259E-06 6.80505E-19-1.08373E-18
 -1      1598 1.27056E-04-3.86406E-05-3.78521E-05 5.10268E-06 1.13256E-18-1.89567E-18
 -1      1599 1.21901E-04-3.64947E-05-3.66522E-05 3.35930E-06 2.60296E-19-1.94683E-18
 -1      1600 1.25569E-04-3.77022E-05-3.76804E-05 3.30677E-06 1.47590E-19-1.24344E-18
 -1      1601 1.21799E-04-3.65824E-05-3.65051E-05 6.24439E-06 3.90616E-19-1.31237E-18
 -1      1602 1.15845E-04-3.46409E-05-3.48614E-05 2.95311E-06-1.26751E-18-6.79453E-19
 -1      1603 1.19242E-04-3.56901E-05-3.58463E-05 3.00605E-06-2.17876E-19-1.41026E-18
 -1      1604 1.16442E-04-3.47530E-05-3.50060E-05 5.99735E-06-3.21879E-19-1.01604E-19
 -1      1605 1.10699E-04-3.31007E-05-3.33076E-05 2.40863E-06-6.20658E-19 2.33387E-18
 -1      1606 1.13543E-04-3.39454E-05-3.41473E-05 2.49732E-06-1.12801E-18 3.32249E-19
 -1      1607 1.11622E-04-3.32429E-05-3.35922E-05 5.14996E-06-1.48010E-18 1.59604E-18
 -1      1608 1.06556E-04-3.18757E-05-3.20443E-05 1.88504E-06-1.36791E-18 3.87802E-18
 -1      1609 1.08812E-04-3.25288E-05-3.27168E-05 1.97558E-06-6.65818E-19 2.80850E-18
 -1      1610 1.07572E-04-3.20390E-05-3.23744E-05 4.16278E-06-1.29939E-18 3.70519E-18
 -1      1611 1.03324E-04-3.09258E-05-3.10548E-05 1.44111E-06 4.13345E-19 2.71610E-18
 -1      1612 1.05059E-04-3.14199E-05-3.15747E-05 1.52017E-06 2.29033E-19 3.05112E-18
 -1      1613 1.04310E-04-3.10977E-05-3.13797E-05 3.25033E-06 2.06279E-19 2.92608E-18
 -1      1614 1.00849E-04-3.02006E-05-3.02965E-05 1.08675E-06 2.07741E-19 1.81220E-18
 -1      1615 1.02161E-04-3.05700E-05-3.06904E-05 1.15108E-06 1.87108E-19 2.24807E-18
 -1      1616 1.01749E-04-3.03705E-05-3.05935E-05 2.48672E-06 2.25592E-19 1.33111E-18
 -1      1617 9.89779E-05-2.96526E-05-2.97237E-05 8.11360E-07 1.78790E-18-3.06871E-19
 -1      1618 9.99592E-05-2.99266E-05-3.00184E-05 8.62219E-07 9.86216E-19 1.38290E-18
 -1      1619 9.97723E-05-2.98136E-05-2.99850E-05 1.87788E-06 1.33545E-18 1.11700E-18
 -1      1620 9.75818E-05-2.92430E-05-2.92971E-05 5.97427E-07 6.06497E-19-3.26462E-18
 -1      1621 9.83067E-05-2.94440E-05-2.95145E-05 6.37823E-07 1.23980E-18-1.60847E-18
 -1      1622 9.82682E-05-2.93901E-05-2.95218E-05 1.40122E-06 2.23329E-18-1.33203E-18
 -1      1623 9.65630E-05-2.89428E-05-2.89873E-05 4.26608E-07 1.23098E-18-5.07649E-18
 -1      1624 9.70858E-05-2.90865E-05-2.91434E-05 4.60103E-07 1.51549E-18-3.38677E-18
 -1      1625 9.71421E-05-2.90716E-05-2.91760E-05 1.02499E-06 2.36776E-18-2.05275E-18
 -1      1626 9.58568E-05-2.87327E-05-2.87745E-05 2.80230E-07-8.96568E-19-4.82085E-18
 -1      1627 9.62110E-05-2.88277E-05-2.88793E-05 3.11381E-07-5.29551E-19-5.42100E-18
 -1      1628 9.63221E-05-2.88365E-05-2.89263E-05 7.16162E-07 1.13959E-19-2.11181E-18
 -1      1629 9.54283E-05-2.86041E-05-2.86450E-05 1.40873E-07 2.05439E-19-4.87396E-18
 -1      1630 9.56277E-05-2.86521E-05-2.87051E-05 1.75425E-07-1.22078E-19-4.29077E-18
 -1      1631 9.57572E-05-2.86697E-05-2.87568E-05 4.43102E-07-5.10104E-19-3.60545E-18
 -1      1632 9.52535E-05-2.85593E-05-2.85791E-05 1.56666E-08-4.96372E-20-6.23679E-18
 -1      1633 9.53055E-05-2.85593E-05-2.86051E-05 4.87302E-08 5.71235E-19-5.66435E-18
 -1      1634 9.54112E-05-2.85706E-05-2.86505E-05 1.85947E-07 1.06645E-18-3.22638E-18
 -1      1635 9.52227E-05-2.85736E-05-2.85547E-05-2.10109E-08-3.90949E-18-4.47763E-18
 -1      1636 9.52363E-05-2.84413E-05-2.86306E-05 1.08026E-07-1.95653E-18 2.86509E-18
 -1      1637 9.52546E-05-2.85143E-05-2.86001E-05 7.53874E-08-4.58820E-18 1.34134E-18
 -1      1638 9.51208E-05-2.80882E-05-2.87318E-05 2.39863E-07 1.90830E-18 2.71177E-18
 -1      1639 9.51873E-05-2.82874E-05-2.86743E-05 2.15258E-07-8.81563E-19 2.65866E-18
 -1      1640 9.52185E-05-2.82689E-05-2.86978E-05 3.23787E-07-9.74223E-19 3.96965E-18
 -1      1641 9.49536E-05-2.75905E-05-2.88716E-05 3.22150E-07 4.92215E-19 2.13681E-19
 -1      1642 9.50491E-05-2.78743E-05-2.87916E-05 3.10412E-07 1.56294E-18 9.62157E-19
 -1      1643 9.50781E-05-2.78934E-05-2.87985E-05 5.37331E-07-5.84034E-19 1.34187E-18
 -1      1644 9.47708E-05-2.70407E-05-2.90274E-05 3.38201E-07-6.44243E-19-1.06785E-18
 -1      1645 9.48732E-05-2.73485E-05-2.89402E-05 3.40409E-07 4.98130E-19-1.35131E-19
 -1      1646 9.49083E-05-2.74313E-05-2.89197E-05 6.42506E-07-1.78175E-18-1.16880E-18
 -1      1647 9.46082E-05-2.65449E-05-2.91695E-05 2.94089E-07-3.20925E-18-1.36132E-18
 -1      1648 9.46972E-05-2.68150E-05-2.90925E-05 3.07211E-07-1.47314E-18-2.79683E-18
 -1      1649 9.47369E-05-2.69595E-05-2.90445E-05 6.24266E-07-1.44233E-18-3.06007E-18
 -1      1650 9.44857E-05-2.61665E-05-2.92789E-05 2.02560E-07-2.25332E-18 5.70346E-19
 -1      1651 9.45497E-05-2.63626E-05-2.92228E-05 2.23789E-07-3.66514E-18 9.38519E-19
 -1      1652 9.45915E-05-2.65501E-05-2.91546E-05 5.00491E-07-1.88916E-18-1.20734E-18
 -1      1653 9.44233E-05-2.59700E-05-2.93365E-05 8.31500E-08-2.52915E-18-5.51632E-19
 -1      1654 9.44520E-05-2.60591E-05-2.93108E-05 1.08069E-07-2.20274E-18-1.82256E-19
 -1      1655 9.44909E-05-2.62612E-05-2.92334E-05 2.99924E-07-1.77925E-18 8.26367E-19
 -1      1656 9.44273E-05-2.59774E-05-2.93352E-05-4.37192E-08-2.88303E-18-2.49036E-19
 -1      1657 9.44179E-05-2.59503E-05-2.93428E-05-1.90440E-08-1.98524E-18-3.40085E-19
 -1      1658 9.44487E-05-2.61356E-05-2.92687E-05 6.13941E-08-1.29855E-18-4.49057E-19
 -1      1659 9.44940E-05-2.61799E-05-2.92772E-05-1.59425E-07-1.07654E-18 1.48585E-18
 -1      1660 9.44496E-05-2.60451E-05-2.93159E-05-1.38382E-07-2.44939E-18 1.37044E-18
 -1      1661 9.44679E-05-2.61855E-05-2.92563E-05-1.76933E-07 8.86445E-19 1.02511E-18
 -1      1662 9.46118E-05-2.65421E-05-2.91727E-05-2.48800E-07-2.12422E-18-1.93551E-18
 -1      1663 9.45401E-05-2.63226E-05-2.92358E-05-2.34011E-07-1.13246E-18 5.97386E-20
 -1      1664 9.45428E-05-2.63974E-05-2.91992E-05-3.81607E-07 5.25318E-19 9.94410E-19
 -1      1665 9.47604E-05-2.70004E-05-2.90403E-05-3.00312E-07-3.59333E-18 8.49496E-20
 -1      1666 9.46736E-05-2.67346E-05-2.91166E-05-2.93573E-07-1.91752E-18-2.11731E-18
 -1      1667 9.46608E-05-2.67343E-05-2.91076E-05-5.25730E-07-5.99124E-19-2.36495E-18
 -1      1668 9.49238E-05-2.75031E-05-2.88954E-05-3.08596E-07-3.17487E-18 4.01664E-19
 -1      1669 9.48317E-05-2.72222E-05-2.89758E-05-3.10710E-07-3.17026E-18 1.81216E-18
 -1      1670 9.48053E-05-2.71494E-05-2.89945E-05-5.92879E-07-1.00098E-18 8.65992E-19
 -1      1671 9.50755E-05-2.79680E-05-2.87623E-05-2.69364E-07-9.32376E-19 3.07738E-18
 -1      1672 9.49940E-05-2.77204E-05-2.88327E-05-2.80773E-07-2.97914E-18 1.32009E-18
 -1      1673 9.49602E-05-2.75906E-05-2.88747E-05-5.72971E-07-4.67725E-19 4.62710E-19
 -1      1674 9.51936E-05-2.83201E-05-2.86607E-05-1.85822E-07-7.84134E-19 3.91089E-19
 -1      1675 9.51339E-05-2.81498E-05-2.87101E-05-2.06641E-07-1.26479E-18 2.09416E-18
 -1      1676 9.51026E-05-2.79937E-05-2.87655E-05-4.62762E-07-1.35867E-18 2.12151E-18
 -1      1677 9.52583E-05-2.84851E-05-2.86137E-05-1.14076E-07-1.78568E-18-2.05293E-18
 -1      1678 9.52381E-05-2.84137E-05-2.86413E-05-1.52799E-07-3.22648E-19-1.21538E-18
 -1      1679 9.52311E-05-2.82742E-05-2.86981E-05-3.42793E-07-1.16014E-18 3.57440E-19
 -1      1680 9.53367E-05-2.84577E-05-2.86606E-05-2.36646E-07-3.14136E-19-1.54346E-18
 -1      1681 2.16167E-05-7.29865E-05 1.55356E-05-9.55810E-06 5.82505E-18 9.30042E-19
 -1      1682 2.44652E-05-8.04062E-05 1.69545E-05-7.82573E-07 4.91615E-18 1.68581E-18
 -1      1683 2.01021E-05-4.67447E-05 6.51641E-06-1.76628E-06 6.05883E-18 3.60518E-18
 -1      1684 2.47362E-05-6.71940E-05 1.18553E-05-3.28135E-06 6.30785E-18 1.36118E-18
 -1      1685 3.00510E-05-1.87671E-05-7.95397E-06 1.85398E-05 7.43441E-18 5.44812E-18
 -1      1686 2.73102E-05-4.08275E-05 2.82005E-07 3.43918E-06 6.05967E-18 4.31987E-18
 -1      1687 6.68458E-05-5.44224E-06-2.68074E-05 5.09510E-05 7.24128E-18 7.19131E-18
 -1      1688 4.55991E-05-1.50100E-05-1.67515E-05 2.73606E-05 7.48692E-18 6.34851E-18
 -1      1689 1.36037E-04-1.90231E-05-4.74499E-05 7.24990E-05 5.30751E-18 6.69495E-18
 -1      1690 9.41392E-05-9.99604E-06-3.67705E-05 5.54280E-05 6.38578E-18 7.16929E-18
 -1      1691 2.06943E-04-4.28279E-05-6.47886E-05 6.86192E-05 3.42307E-18 5.46167E-18
 -1      1692 1.60606E-04-2.25491E-05-5.65621E-05 7.22774E-05 4.58838E-18 6.80167E-18
 -1      1693 2.58027E-04-6.42808E-05-7.57390E-05 3.20417E-05 2.17603E-18 1.88719E-18
 -1      1694 2.25523E-04-4.75943E-05-7.08623E-05 5.79695E-05 2.77451E-18 4.31648E-18
 -1      1695 2.67552E-04-6.71995E-05-7.82520E-05-2.12127E-05 1.88401E-18-2.25798E-18
 -1      1696 2.68185E-04-6.77384E-05-7.84033E-05 1.79336E-05 2.23913E-18 1.20130E-18
 -1      1697 2.22588E-04-4.59821E-05-7.01146E-05-6.26343E-05 1.44726E-18-4.25803E-18
 -1      1698 2.58298E-04-6.45902E-05-7.55162E-05-3.67048E-05 8.03199E-19-3.79513E-18
 -1      1699 1.49888E-04-1.79447E-05-5.42060E-05-7.39785E-05 3.31105E-18-4.28599E-18
 -1      1700 2.00501E-04-3.92853E-05-6.33604E-05-7.36880E-05 2.01721E-18-4.10642E-18
 -1      1701 8.37949E-05-1.45184E-05-3.11185E-05-4.54891E-05 3.22127E-18-3.76591E-18
 -1      1702 1.26181E-04-1.97875E-05-4.34621E-05-6.71850E-05 3.26701E-18-3.86247E-18
 -1      1703 3.74433E-05-2.14262E-05-1.12516E-05-1.87824E-05 3.95734E-18-3.11962E-18
 -1      1704 5.22369E-05-7.79431E-06-2.05878E-05-4.06459E-05 4.00308E-18-4.52824E-18
 -1      1705 2.50421E-05-5.09437E-05 4.88519E-06 2.07880E-06 7.74188E-19-2.12182E-18
 -1      1706 2.42823E-05-2.67098E-05-2.93017E-06-9.69016E-06 3.43302E-18-3.67273E-18
 -1      1707 2.48299E-05-7.58953E-05 1.48870E-05 4.71279E-06-2.68001E-18-5.27066E-19
 -1      1708 1.91591E-05-5.78408E-05 1.07228E-05 8.40597E-06-2.86297E-19-1.23000E-18
 -1      1709 2.32385E-05-7.72568E-05 1.65554E-05-2.90082E-06-5.35155E-18-6.44169E-19
 -1      1710 2.34386E-05-7.86574E-05 1.68229E-05 7.84610E-06-3.74389E-18-1.42513E-19
 -1      1711 1.93395E-05-5.32577E-05 9.51201E-06-1.60928E-06-4.11827E-18-7.49624E-20
 -1      1712 2.46269E-05-7.23643E-05 1.39933E-05 1.19534E-06-5.33292E-18-9.21148E-20
 -1      1713 2.35722E-05-2.13356E-05-4.01177E-06 1.51561E-05-3.98529E-18-2.68001E-18
 -1      1714 2.45809E-05-4.62104E-05 3.79139E-06 3.20244E-06-3.51773E-18-1.70381E-18
 -1      1715 5.59683E-05-3.67335E-06-2.26585E-05 4.82896E-05-3.77946E-18-3.85400E-18
 -1      1716 3.99405E-05-1.76001E-05-1.27680E-05 2.56963E-05-3.25176E-18-2.91718E-18
 -1      1717 1.08589E-04-5.80505E-06-4.16808E-05 7.36670E-05-3.19586E-18-5.01613E-18
 -1      1718 7.49511E-05-1.65952E-06-3.20601E-05 5.49116E-05-3.71339E-18-4.18942E-18
 -1      1719 1.75718E-04-2.82771E-05-5.88298E-05 7.75694E-05-2.90363E-18-4.55111E-18
 -1      1720 1.31072E-04-8.74791E-06-5.04421E-05 7.63747E-05-3.46945E-18-4.51045E-18
 -1      1721 2.27683E-04-5.20010E-05-7.00413E-05 4.36387E-05-2.51495E-18-6.84403E-19
 -1      1722 1.94047E-04-3.41800E-05-6.47098E-05 6.33464E-05-3.12862E-18-3.11030E-18
 -1      1723 2.54472E-04-6.39659E-05-7.53096E-05-7.66076E-07-3.25684E-19 1.23458E-18
 -1      1724 2.43670E-04-5.79188E-05-7.39649E-05 3.37286E-05-1.16467E-18-1.78300E-19
 -1      1725 2.34105E-04-5.27959E-05-7.20409E-05-4.99999E-05-1.73536E-18 2.86551E-18
 -1      1726 2.54472E-04-6.45228E-05-7.48579E-05-1.83269E-05-6.01393E-19 1.77983E-18
 -1      1727 1.79438E-04-2.74805E-05-6.14173E-05-7.37395E-05-3.11560E-18 4.60871E-18
 -1      1728 2.17188E-04-4.66892E-05-6.74551E-05-6.10096E-05-2.28201E-18 3.13572E-18
 -1      1729 1.13091E-04-4.07187E-06-4.54492E-05-7.26067E-05-7.12185E-18 7.44373E-18
 -1      1730 1.56556E-04-2.00853E-05-5.44042E-05-8.06657E-05-5.08643E-18 4.96870E-18
 -1      1731 6.19984E-05-3.06545E-06-2.66096E-05-4.70878E-05-7.63177E-18 7.88249E-18
 -1      1732 9.06254E-05-2.09812E-06-3.63372E-05-6.82462E-05-7.23027E-18 9.24282E-18
 -1      1733 3.34910E-05-1.85973E-05-1.00222E-05-2.08953E-05-5.52689E-18 5.94617E-18
 -1      1734 4.34561E-05-4.10755E-06-1.80333E-05-3.93381E-05-7.24552E-18 7.90705E-18
 -1      1735 2.28138E-05-4.32284E-05 3.25995E-06-1.65285E-06-1.73726E-18 3.08765E-18
 -1      1736 2.12154E-05-2.27107E-05-2.95660E-06-1.09683E-05-4.78404E-18 4.06068E-18
 -1      1737 2.44399E-05-6.67641E-05 1.19622E-05 4.71725E-07 7.23366E-19 4.78256E-19
 -1      1738 1.97487E-05-4.98784E-05 7.83934E-06 7.54197E-07-3.77777E-19 1.28574E-18
 -1      1739 2.55243E-05-8.12787E-05 1.67898E-05-2.87061E-06 4.53078E-18 2.24739E-18
 -1      1740 2.24613E-05-7.22145E-05 1.48918E-05 5.10319E-06 1.51704E-18 1.15504E-18
 -1      1741 1.73909E-05-5.13044E-05 9.91022E-06-1.35601E-05 1.02195E-18 1.96999E-18
 -1      1742 1.12996E-04-3.79566E-05-3.19327E-05 4.19642E-05 5.20586E-18 5.08728E-18
 -1      1743 6.67301E-05-3.91447E-05-1.39724E-05 3.46964E-05 5.15504E-18 5.61583E-18
 -1      1744 9.52669E-05-2.85700E-05-2.85831E-05 9.14928E-09-4.49151E-18-1.38302E-18
 -1      1745 9.52885E-05-2.84752E-05-2.86338E-05 1.27111E-07-7.88577E-19 8.50035E-19
 -1      1746 1.73974E-05-5.02818E-05 9.71573E-06 1.01272E-05 2.91633E-18 1.45520E-18
 -1      1747 3.59000E-05-4.53358E-05 4.15052E-07 2.29429E-05 4.11997E-18 3.56341E-18
 -1      1748 1.33880E-05-5.60921E-05 1.32541E-05-3.08597E-06 2.08296E-18 2.99977E-18
 -1      1749 1.60736E-04-3.86668E-05-4.98186E-05 3.76492E-05 4.47191E-18 3.88449E-18
 -1      1750 1.98268E-04-3.73991E-05-6.42432E-05 2.60264E-05 3.55860E-18 3.37797E-18
 -1      1751 2.19565E-04-3.64273E-05-7.24625E-05 8.22899E-06 3.56940E-18 1.55494E-18
 -1      1752 2.21341E-04-3.79353E-05-7.24510E-05-1.08707E-05 2.06845E-18-2.43522E-19
 -1      1753 1.96920E-04-3.78960E-05-6.34918E-05-3.11533E-05 1.06721E-18-2.49112E-18
 -1      1754 1.53442E-04-4.12594E-05-4.65688E-05-3.64055E-05 1.78682E-18-1.44589E-18
 -1      1755 1.04218E-04-4.13528E-05-2.71007E-05-4.00179E-05 1.04270E-18-2.25904E-18
 -1      1756 5.54809E-05-4.07865E-05-8.92710E-06-3.09175E-05 1.02830E-18-2.73147E-18
 -1      1757 2.75979E-05-4.82797E-05 4.61233E-06-1.69936E-05-1.44843E-19-2.91305E-18
 -1      1758 1.40926E-05-5.38488E-05 1.20613E-05-3.38769E-06-2.48731E-18-1.72498E-18
 -1      1759 1.40972E-05-5.15922E-05 1.14462E-05 1.00747E-05-3.69709E-18-4.33681E-19
 -1      1760 2.75669E-05-4.45717E-05 3.59551E-06 2.31570E-05-2.59870E-18-3.05249E-19
 -1      1761 5.66072E-05-3.68570E-05-1.03030E-05 3.71706E-05-1.82366E-18-2.30499E-18
 -1      1762 9.62777E-05-3.22546E-05-2.73914E-05 4.54639E-05-1.80249E-18-3.09379E-18
 -1      1763 1.37662E-04-2.86163E-05-4.46442E-05 4.81063E-05-2.32129E-18-2.89177E-18
 -1      1764 1.75206E-04-2.95462E-05-5.87293E-05 3.58792E-05-3.47622E-18-1.72117E-18
 -1      1765 1.99261E-04-3.12298E-05-6.77728E-05 1.51455E-05-2.89262E-18-6.54756E-19
 -1      1766 2.13331E-04-3.45367E-05-7.11613E-05-5.08074E-06-1.06218E-18 4.60998E-19
 -1      1767 1.99180E-04-3.32076E-05-6.63476E-05-2.66026E-05-2.27090E-18 9.52489E-19
 -1      1768 1.66813E-04-2.94321E-05-5.53814E-05-4.34270E-05-3.89021E-18 9.54606E-19
 -1      1769 1.25017E-04-2.83477E-05-3.99350E-05-4.86337E-05-4.55153E-18 3.11878E-18
 -1      1770 8.35647E-05-3.04700E-05-2.31933E-05-4.46289E-05-2.46487E-18 5.32403E-18
 -1      1771 4.89171E-05-3.48821E-05-8.32175E-06-3.33379E-05-1.26208E-18 4.71776E-18
 -1      1772 2.80883E-05-4.39669E-05 2.92051E-06-2.15209E-05-6.94567E-20 3.02190E-18
 -1      1773 1.05977E-04-2.31513E-05-3.55801E-05-1.68532E-05-5.38845E-19 4.29869E-19
 -1      1774 8.91216E-05-1.05579E-05-3.37936E-05-1.33424E-05-2.52101E-19-1.22910E-18
 -1      1775 9.04382E-05-1.16241E-05-3.39294E-05-1.51163E-05-4.58285E-19-1.12285E-18
 -1      1776 9.24622E-05-1.38669E-05-3.38435E-05-1.60051E-05-5.21403E-19-1.03338E-18
 -1      1777 9.41629E-05-1.58139E-05-3.40826E-05-1.76650E-05-6.83476E-19-8.36657E-19
 -1      1778 9.34195E-05-1.63585E-05-3.30367E-05-1.37525E-05-5.00682E-19-9.90287E-19
 -1      1779 8.62373E-05-7.67279E-06-3.37419E-05-7.86383E-06 1.46704E-19-1.28217E-18
 -1      1780 8.66321E-05-7.97096E-06-3.37727E-05-9.25322E-06 7.57367E-20-1.34267E-18
 -1      1781 8.56318E-05-7.03557E-06-3.37436E-05-5.32019E-06 3.02884E-19-1.15361E-18
 -1      1782 8.58610E-05-7.21425E-06-3.37566E-05-6.62499E-06 2.33707E-19-1.26436E-18
 -1      1783 8.76219E-05-9.86415E-06-3.33575E-05-6.92666E-06 1.62098E-19-1.24415E-18
 -1      1784 8.53034E-05-6.67609E-06-3.37498E-05-2.88869E-06 4.88309E-19-8.90946E-19
 -1      1785 8.54214E-05-6.77094E-06-3.37545E-05-4.12824E-06 4.47730E-19-1.02745E-18
 -1      1786 8.69967E-05-9.15119E-06-3.33948E-05-4.53540E-06 4.06150E-19-1.02279E-18
 -1      1787 8.51755E-05-6.52760E-06-3.37546E-05-5.18017E-07 7.13958E-19-6.83092E-19
 -1      1788 8.52101E-05-6.55614E-06-3.37556E-05-1.72733E-06 5.74972E-19-8.24057E-19
 -1      1789 8.66700E-05-8.77111E-06-3.34175E-05-2.21637E-06 5.77671E-19-7.52496E-19
 -1      1790 8.52204E-05-6.56550E-06-3.37559E-05 1.84394E-06 9.44617E-19-5.59518E-19
 -1      1791 8.51794E-05-6.53235E-06-3.37546E-05 6.33561E-07 8.48565E-19-6.06899E-19
 -1      1792 8.65738E-05-8.65742E-06-3.34249E-05 6.45558E-08 8.37352E-19-6.06548E-19
 -1      1793 8.54477E-05-6.79673E-06-3.37547E-05 4.24966E-06 9.38601E-19-4.90697E-19
 -1      1794 8.53222E-05-6.69571E-06-3.37499E-05 3.00684E-06 9.30803E-19-5.73282E-19
 -1      1795 8.66884E-05-8.79140E-06-3.34168E-05 2.34688E-06 9.79961E-19-5.54721E-19
 -1      1796 8.58969E-05-7.25105E-06-3.37563E-05 6.71145E-06 9.77584E-19-2.01581E-19
 -1      1797 8.56633E-05-7.06858E-06-3.37436E-05 5.42393E-06 9.38357E-19-3.88365E-19
 -1      1798 8.70322E-05-9.18998E-06-3.33933E-05 4.64936E-06 9.98102E-19-4.25052E-19
 -1      1799 8.66977E-05-8.04129E-06-3.37714E-05 9.37439E-06 1.13411E-18 2.38704E-19
 -1      1800 8.62838E-05-7.72485E-06-3.37407E-05 7.95304E-06 1.00516E-18 1.05879E-20
 -1      1801 8.76757E-05-9.92412E-06-3.33547E-05 7.02480E-06 1.09046E-18-8.46768E-20
 -1      1802 8.80922E-05-9.38786E-06-3.38196E-05 1.22552E-05 1.14332E-18 7.06875E-19
 -1      1803 8.73620E-05-8.83097E-06-3.37513E-05 1.06616E-05 1.14536E-18 4.27235E-19
 -1      1804 8.87836E-05-1.11596E-05-3.32981E-05 9.50042E-06 1.15657E-18 3.81430E-19
 -1      1805 9.06130E-05-1.18365E-05-3.39211E-05 1.53047E-05 1.11476E-18 1.50735E-18
 -1      1806 8.92447E-05-1.07390E-05-3.37857E-05 1.35149E-05 1.07937E-18 1.07428E-18
 -1      1807 9.06614E-05-1.32205E-05-3.32076E-05 1.19748E-05 1.15433E-18 8.95102E-19
 -1      1808 9.58289E-05-1.70233E-05-3.39777E-05 1.76930E-05 8.87082E-19 2.55984E-18
 -1      1809 9.28242E-05-1.43359E-05-3.38160E-05 1.61969E-05 1.00652E-18 1.93804E-18
 -1      1810 9.39442E-05-1.68801E-05-3.30162E-05 1.38959E-05 1.09643E-18 1.66294E-18
 -1      1811 1.01856E-04-2.50747E-05-3.33380E-05 1.44254E-05 6.24687E-19 3.65219E-18
 -1      1812 9.80195E-05-1.96020E-05-3.36070E-05 1.69670E-05 7.82109E-19 2.92968E-18
 -1      1813 9.72794E-05-2.18402E-05-3.24123E-05 1.32517E-05 9.09356E-19 2.46942E-18
 -1      1814 9.86827E-05-2.61149E-05-3.13214E-05 9.43906E-06 6.46498E-19 3.48149E-18
 -1      1815 1.00094E-04-1.95485E-05-3.41977E-05-1.88709E-05-6.30656E-19-3.42625E-19
 -1      1816 9.52422E-05-2.72646E-05-2.91647E-05 4.07036E-06 5.75850E-19 3.09228E-18
 -1      1817 9.76728E-05-2.73700E-05-3.01738E-05 6.40441E-06 5.41889E-19 3.26298E-18
 -1      1818 9.75176E-05-2.55973E-05-3.08151E-05 8.76324E-06 7.24901E-19 2.63800E-18
 -1      1819 9.97604E-05-2.25269E-05-3.28188E-05-1.44712E-05-6.11717E-19-5.08273E-19
 -1      1820 9.69006E-05-2.69596E-05-2.98597E-05-5.70591E-06-4.49854E-19-5.25997E-19
 -1      1821 9.50950E-05-2.70157E-05-2.91493E-05-3.89808E-06-3.38773E-19-5.56269E-19
 -1      1822 9.42772E-05-2.72165E-05-2.86433E-05-2.41977E-06-4.53652E-19-4.82418E-19
 -1      1823 9.35081E-05-2.72965E-05-2.83392E-05-1.56347E-06-4.07767E-19-5.77213E-19
 -1      1824 9.54644E-05-2.65303E-05-2.95641E-05-4.47054E-06-4.40642E-19-5.63020E-19
 -1      1825 9.29876E-05-2.73476E-05-2.80724E-05-7.31944E-07-2.99420E-19-4.86170E-19
 -1      1826 9.26911E-05-2.74109E-05-2.79522E-05-2.88982E-07-2.51436E-19-5.45974E-19
 -1      1827 9.42610E-05-2.72043E-05-2.87593E-05-1.81758E-06-3.53312E-19-4.05246E-19
 -1      1828 9.24229E-05-2.74390E-05-2.78193E-05 1.74495E-07-1.39947E-19-5.80572E-19
 -1      1829 9.24007E-05-2.75160E-05-2.77926E-05 4.05936E-07-1.22290E-19-5.51571E-19
 -1      1830 9.35712E-05-2.75094E-05-2.83290E-05-3.35881E-07-1.85004E-19-5.30175E-19
 -1      1831 9.23092E-05-2.75487E-05-2.77391E-05 6.58168E-07-2.25843E-19-5.51741E-19
 -1      1832 9.24397E-05-2.76359E-05-2.77635E-05 7.73324E-07-2.03982E-19-5.86466E-19
 -1      1833 9.32685E-05-2.76936E-05-2.81163E-05 4.89974E-07-1.28338E-19-6.26140E-19
 -1      1834 9.24632E-05-2.76763E-05-2.77587E-05 9.02736E-07-2.36610E-19-5.14526E-19
 -1      1835 9.26759E-05-2.77672E-05-2.78116E-05 9.52774E-07-1.13467E-19-3.90215E-19
 -1      1836 9.32337E-05-2.78372E-05-2.80360E-05 9.36275E-07-1.64402E-19-4.74281E-19
 -1      1837 9.27717E-05-2.78129E-05-2.78368E-05 1.01226E-06-2.07719E-19-5.39033E-19
 -1      1838 9.30263E-05-2.79028E-05-2.79053E-05 1.02782E-06-2.50375E-19-5.77195E-19
 -1      1839 9.33722E-05-2.79632E-05-2.80384E-05 1.16205E-06-2.17579E-19-4.05251E-19
 -1      1840 9.31666E-05-2.79511E-05-2.79492E-05 1.05110E-06-4.10585E-19-6.87567E-19
 -1      1841 9.34415E-05-2.80380E-05-2.80261E-05 1.05198E-06-3.17600E-19-6.00523E-19
 -1      1842 9.36186E-05-2.80782E-05-2.80927E-05 1.26529E-06-3.20408E-19-6.70594E-19
 -1      1843 9.36102E-05-2.80876E-05-2.80819E-05 1.06156E-06-4.66322E-19-8.39990E-19
 -1      1844 9.38960E-05-2.81715E-05-2.81639E-05 1.06115E-06-5.78687E-19-1.14107E-18
 -1      1845 9.39322E-05-2.81845E-05-2.81803E-05 1.30985E-06-6.52453E-19-1.01413E-18
 -1      1846 9.40851E-05-2.82221E-05-2.82282E-05 1.07242E-06-6.15203E-19-1.28417E-18
 -1      1847 9.43807E-05-2.83048E-05-2.83143E-05 1.07980E-06-5.45855E-19-1.49564E-18
 -1      1848 9.42909E-05-2.82848E-05-2.82905E-05 1.33889E-06-8.04072E-19-1.03964E-18
 -1      1849 9.45883E-05-2.83577E-05-2.83856E-05 1.10303E-06-4.22608E-19-1.43531E-18
 -1      1850 9.48980E-05-2.84422E-05-2.84767E-05 1.12402E-06-3.57763E-19-1.57750E-18
 -1      1851 9.46859E-05-2.83830E-05-2.84175E-05 1.38168E-06-5.27440E-19-9.38456E-19
 -1      1852 9.51259E-05-2.84996E-05-2.85549E-05 1.16533E-06-2.56691E-19-1.52703E-18
 -1      1853 9.54573E-05-2.85898E-05-2.86527E-05 1.20275E-06-2.16792E-19-1.38340E-18
 -1      1854 9.51181E-05-2.84847E-05-2.85593E-05 1.45699E-06-2.65692E-19-8.52092E-19
 -1      1855 9.57099E-05-2.86548E-05-2.87382E-05 1.26418E-06-1.11246E-19-1.32113E-18
 -1      1856 9.60716E-05-2.87554E-05-2.88446E-05 1.31761E-06 7.33316E-21-9.79673E-19
 -1      1857 9.55948E-05-2.85975E-05-2.87155E-05 1.57425E-06-3.27229E-20-1.00241E-18
 -1      1858 9.63544E-05-2.88319E-05-2.89381E-05 1.39653E-06-1.31243E-19-1.07336E-18
 -1      1859 9.67537E-05-2.89478E-05-2.90547E-05 1.46151E-06 5.67256E-20-1.29792E-18
 -1      1860 9.61269E-05-2.87313E-05-2.88865E-05 1.73314E-06-9.40581E-20-9.95200E-19
 -1      1861 9.70718E-05-2.90405E-05-2.91559E-05 1.54948E-06 1.18513E-19-1.53715E-18
 -1      1862 9.75119E-05-2.91761E-05-2.92827E-05 1.61624E-06 5.49207E-21-1.35136E-18
 -1      1863 9.67261E-05-2.88978E-05-2.90722E-05 1.92162E-06-1.43112E-19-1.11063E-18
 -1      1864 9.78682E-05-2.92897E-05-2.93904E-05 1.69727E-06-1.81848E-19-1.70765E-18
 -1      1865 9.83444E-05-2.94482E-05-2.95251E-05 1.74921E-06-3.54017E-19-1.64501E-18
 -1      1866 9.74020E-05-2.91108E-05-2.92707E-05 2.11284E-06-1.26898E-19-1.14262E-18
 -1      1867 9.87376E-05-2.95875E-05-2.96356E-05 1.79790E-06-2.81744E-19-1.64333E-18
 -1      1868 9.92332E-05-2.97688E-05-2.97726E-05 1.81018E-06-3.35260E-19-1.40708E-18
 -1      1869 9.81577E-05-2.93850E-05-2.94768E-05 2.26123E-06-2.18681E-19-1.29921E-18
 -1      1870 9.96549E-05-2.99369E-05-2.98798E-05 1.79052E-06-3.62632E-19-9.50656E-19
 -1      1871 1.00137E-04-3.01358E-05-3.00084E-05 1.72973E-06 1.08106E-19-7.60895E-19
 -1      1872 9.89855E-05-2.97336E-05-2.96813E-05 2.29915E-06-7.75459E-20-6.65943E-19
 -1      1873 1.00568E-04-3.03314E-05-3.01033E-05 1.59588E-06 2.48552E-19-8.96016E-19
 -1      1874 1.00982E-04-3.05339E-05-3.02079E-05 1.42243E-06 4.19826E-19-9.28772E-19
 -1      1875 9.98597E-05-3.01632E-05-2.98702E-05 2.13628E-06 2.67965E-19 3.22629E-20
 -1      1876 1.01390E-04-3.07474E-05-3.02790E-05 1.12401E-06 3.11382E-19-1.03119E-18
 -1      1877 1.01660E-04-3.09260E-05-3.03392E-05 7.99709E-07 2.02404E-19-1.01665E-18
 -1      1878 1.00729E-04-3.06642E-05-3.00254E-05 1.66610E-06 2.77817E-19-2.55985E-19
 -1      1879 1.01992E-04-3.11332E-05-3.03738E-05 2.94914E-07 5.93972E-19-1.04919E-18
 -1      1880 1.02024E-04-3.12437E-05-3.03670E-05-2.01781E-07 6.46703E-19-5.38753E-19
 -1      1881 1.01506E-04-3.11955E-05-3.01266E-05 7.85497E-07 3.80778E-19-3.35866E-19
 -1      1882 1.02207E-04-3.13989E-05-3.03548E-05-9.22356E-07 5.47256E-19-4.18783E-19
 -1      1883 1.01905E-04-3.13800E-05-3.02613E-05-1.57247E-06 7.72395E-19-3.22715E-19
 -1      1884 1.02059E-04-3.16668E-05-3.01561E-05-5.65544E-07 7.42105E-19-1.66170E-19
 -1      1885 1.01849E-04-3.14152E-05-3.01977E-05-2.45211E-06 9.29185E-19-1.46720E-19
 -1      1886 1.01146E-04-3.11992E-05-3.00091E-05-3.16925E-06 4.06261E-19 2.46872E-19
 -1      1887 1.02214E-04-3.19264E-05-3.01051E-05-2.34090E-06 1.00140E-18-7.74649E-19
 -1      1888 1.00769E-04-3.10369E-05-2.98993E-05-4.05332E-06-2.72096E-19 6.92941E-19
 -1      1889 9.96674E-05-3.05776E-05-2.96269E-05-4.66937E-06-3.49798E-20 7.79174E-19
 -1      1890 1.01783E-04-3.17769E-05-2.99794E-05-4.31418E-06 4.85854E-19 1.77762E-19
 -1      1891 9.89390E-05-3.01681E-05-2.94877E-05-5.30167E-06-8.25758E-20 5.22695E-19
 -1      1892 9.75575E-05-2.94843E-05-2.91676E-05-5.58999E-06 1.76985E-19 1.74495E-19
 -1      1893 1.00638E-04-3.10439E-05-2.98026E-05-6.03396E-06 7.43470E-20 8.10118E-19
 -1      1894 9.65662E-05-2.88625E-05-2.90250E-05-5.67267E-06 7.09230E-19-1.60341E-20
 -1      1895 9.51538E-05-2.80779E-05-2.87152E-05-5.42842E-06 5.59252E-19 2.82797E-20
 -1      1896 9.88287E-05-2.97033E-05-2.96115E-05-6.87691E-06 3.50195E-19 2.38413E-19
 -1      1897 9.41412E-05-2.74038E-05-2.85973E-05-4.75928E-06 4.01831E-19 9.03645E-20
 -1      1898 9.30343E-05-2.67409E-05-2.83644E-05-3.92031E-06 2.36752E-19 4.21228E-19
 -1      1899 9.67007E-05-2.80108E-05-2.94448E-05-6.26261E-06 4.59902E-19-4.27808E-19
 -1      1900 9.23422E-05-2.62657E-05-2.82943E-05-2.55257E-06-1.52426E-19 1.09012E-19
 -1      1901 9.18517E-05-2.59607E-05-2.81933E-05-1.28895E-06-8.17837E-19 3.91765E-20
 -1      1902 9.48794E-05-2.65086E-05-2.93309E-05-3.99708E-06-1.68950E-19-3.50277E-19
 -1      1903 9.17559E-05-2.58949E-05-2.81836E-05 4.14353E-07-1.43589E-18 5.73833E-19
 -1      1904 9.20303E-05-2.60678E-05-2.82394E-05 1.73663E-06-1.12006E-18 5.27576E-19
 -1      1905 9.40353E-05-2.58014E-05-2.92841E-05-5.41163E-07-7.61694E-19-6.36672E-19
 -1      1906 9.25701E-05-2.64417E-05-2.82920E-05 3.24717E-06-7.44367E-19 4.68267E-20
 -1      1907 9.35241E-05-2.70229E-05-2.84906E-05 4.23383E-06-6.14139E-19-4.88483E-19
 -1      1908 9.45116E-05-2.62049E-05-2.93082E-05 3.07941E-06-1.39667E-18-2.07481E-19
 -1      1909 9.44775E-05-2.76659E-05-2.85958E-05 5.12005E-06-6.59448E-19-4.52637E-19
 -1      1910 9.58339E-05-2.84395E-05-2.88892E-05 5.53580E-06-6.88469E-19-5.19271E-19
 -1      1911 9.61090E-05-2.75341E-05-2.94016E-05 5.75807E-06-9.62765E-19-6.61827E-19
 -1      1912 9.68589E-05-2.90965E-05-2.90267E-05 5.65482E-06-1.09328E-18-1.00148E-18
 -1      1913 9.82750E-05-2.98252E-05-2.93493E-05 5.50088E-06-7.73851E-19-1.02670E-18
 -1      1914 9.82145E-05-2.92337E-05-2.95539E-05 6.84685E-06-1.07666E-18-1.35641E-18
 -1      1915 9.90914E-05-3.03033E-05-2.94915E-05 4.99539E-06-7.69007E-19-1.33402E-18
 -1      1916 1.00285E-04-3.08314E-05-2.97808E-05 4.44775E-06-1.09340E-18-1.52802E-18
 -1      1917 1.00158E-04-3.07128E-05-2.97405E-05 6.36946E-06-1.02171E-18-1.70680E-18
 -1      1918 1.00761E-04-3.10609E-05-2.99002E-05 3.60456E-06-6.28594E-19-1.22994E-18
 -1      1919 1.01577E-04-3.13417E-05-3.01133E-05 2.89473E-06-3.46410E-19-1.39389E-18
 -1      1920 1.01504E-04-3.16257E-05-2.99239E-05 4.83040E-06-8.61957E-19-1.31592E-18
 -1      1921 1.01714E-04-3.13539E-05-3.01902E-05 1.99253E-06-5.22414E-19-1.46553E-18
 -1      1922 1.02119E-04-3.14202E-05-3.03090E-05 1.31059E-06 3.11609E-19-2.02040E-18
 -1      1923 1.02124E-04-3.19254E-05-3.00655E-05 2.87147E-06-4.24476E-19-8.35747E-19
 -1      1924 1.01992E-04-3.12901E-05-3.03350E-05 5.35412E-07 1.73035E-18-1.70082E-18
 -1      1925 1.02041E-04-3.12074E-05-3.03635E-05-8.96581E-09 1.76255E-18-4.91494E-19
 -1      1926 1.02111E-04-3.17584E-05-3.01377E-05 1.00686E-06 9.52209E-19-7.59245E-19
 -1      1927 1.01741E-04-3.10082E-05-3.03410E-05-5.74776E-07 1.23112E-18-1.09586E-18
 -1      1928 1.01525E-04-3.08414E-05-3.02967E-05-9.45534E-07-3.79676E-21-7.93863E-19
 -1      1929 1.01647E-04-3.13260E-05-3.01301E-05-4.73818E-07 1.19644E-18-1.30120E-18
 -1      1930 1.01132E-04-3.06252E-05-3.02352E-05-1.29542E-06-7.23101E-19 8.88609E-19
 -1      1931 1.00748E-04-3.04239E-05-3.01408E-05-1.50449E-06-3.49398E-19 9.38435E-19
 -1      1932 1.00916E-04-3.07963E-05-3.00484E-05-1.47906E-06 6.22169E-19-1.36404E-19
 -1      1933 1.00322E-04-3.02207E-05-3.00531E-05-1.67272E-06-3.10953E-19 9.77679E-19
 -1      1934 9.98549E-05-3.00172E-05-2.99307E-05-1.75434E-06 3.67690E-19 1.27163E-18
 -1      1935 1.00064E-04-3.02765E-05-2.99091E-05-2.04357E-06-2.23489E-19 1.59699E-18
 -1      1936 9.94346E-05-2.98401E-05-2.98293E-05-1.78891E-06 4.56926E-20 4.36677E-19
 -1      1937 9.89473E-05-2.96522E-05-2.96969E-05-1.78174E-06 6.03021E-19 1.20620E-18
 -1      1938 9.91929E-05-2.98198E-05-2.97334E-05-2.26000E-06-2.02395E-20 2.12122E-18
 -1      1939 9.85574E-05-2.95046E-05-2.95926E-05-1.72831E-06 1.59751E-18 5.07084E-19
 -1      1940 9.80925E-05-2.93403E-05-2.94632E-05-1.66568E-06 1.66509E-18 1.76922E-18
 -1      1941 9.83661E-05-2.94430E-05-2.95417E-05-2.23227E-06 4.42277E-19 1.91317E-18
 -1      1942 9.77461E-05-2.92201E-05-2.93640E-05-1.56015E-06 6.87874E-19 2.49267E-18
 -1      1943 9.73294E-05-2.90815E-05-2.92463E-05-1.46623E-06 1.03330E-18 2.80558E-18
 -1      1944 9.76197E-05-2.91428E-05-2.93510E-05-2.05047E-06 1.85945E-18 2.11625E-18
 -1      1945 9.70321E-05-2.89843E-05-2.91576E-05-1.33286E-06 9.36740E-19 1.65666E-18
 -1      1946 9.66780E-05-2.88704E-05-2.90569E-05-1.22230E-06 3.89335E-19 1.76608E-18
 -1      1947 9.69706E-05-2.89067E-05-2.91742E-05-1.78103E-06 4.53927E-19 1.97683E-18
 -1      1948 9.64302E-05-2.87913E-05-2.89821E-05-1.07477E-06-5.87122E-19 1.02839E-18
 -1      1949 9.61457E-05-2.86999E-05-2.89014E-05-9.54126E-07-4.89410E-19-8.49338E-20
 -1      1950 9.64233E-05-2.87198E-05-2.90197E-05-1.46602E-06-6.47030E-19 1.03163E-18
 -1      1951 9.59443E-05-2.86348E-05-2.88416E-05-7.98260E-07 4.57447E-19-3.72989E-19
 -1      1952 9.57326E-05-2.85653E-05-2.87818E-05-6.69298E-07 1.22120E-18-2.29254E-19
 -1      1953 9.59746E-05-2.85682E-05-2.88918E-05-1.12754E-06-5.75032E-19 1.36595E-18
 -1      1954 9.55908E-05-2.85230E-05-2.87388E-05-5.16903E-07 9.21192E-19-9.39153E-19
 -1      1955 9.54485E-05-2.84795E-05-2.86965E-05-3.88121E-07 1.59298E-19-2.92582E-19
 -1      1956 9.53994E-05-2.84043E-05-2.87149E-05-4.61825E-07-5.41806E-19-3.77643E-19
 -1      1957 9.56348E-05-2.84585E-05-2.87938E-05-7.85610E-07 4.23023E-19 5.17835E-19
 -1      1958 9.31436E-05-2.73405E-05-2.81733E-05 1.60646E-06 4.60826E-19 2.70844E-18
 -1      1959 9.43383E-05-2.74467E-05-2.86097E-05 2.67861E-06 5.95001E-19 2.98921E-18
 -1      1960 9.51732E-05-2.70279E-05-2.92103E-05 4.05631E-06 6.42832E-19 2.43179E-18
 -1      1961 9.20971E-05-2.73278E-05-2.77335E-05 3.44062E-07 1.57733E-19 2.50157E-18
 -1      1962 9.25895E-05-2.73600E-05-2.79051E-05 8.94279E-07 1.91952E-19 2.50038E-18
 -1      1963 9.35732E-05-2.73493E-05-2.83885E-05 1.58186E-06 3.16870E-19 2.05922E-18
 -1      1964 9.17328E-05-2.73669E-05-2.75695E-05-3.18762E-07 9.21612E-20 2.51682E-18
 -1      1965 9.18429E-05-2.73394E-05-2.76146E-05-2.23819E-08 1.03025E-19 2.52562E-18
 -1      1966 9.27515E-05-2.74655E-05-2.79899E-05 2.59529E-07 9.80523E-20 1.98094E-18
 -1      1967 9.17772E-05-2.74609E-05-2.75536E-05-6.60040E-07-5.40165E-20 2.26299E-18
 -1      1968 9.16793E-05-2.73970E-05-2.75338E-05-5.00636E-07 4.09636E-20 2.47119E-18
 -1      1969 9.24541E-05-2.75601E-05-2.78220E-05-4.49763E-07 2.94973E-20 1.81053E-18
 -1      1970 9.20568E-05-2.75898E-05-2.76211E-05-8.21832E-07 3.54091E-19 1.89718E-18
 -1      1971 9.18481E-05-2.75071E-05-2.75665E-05-7.40153E-07 1.58076E-19 2.05948E-18
 -1      1972 9.24852E-05-2.76690E-05-2.77870E-05-8.19578E-07 2.81897E-19 1.37037E-18
 -1      1973 9.24665E-05-2.77359E-05-2.77357E-05-8.84884E-07 4.84579E-19 1.74977E-18
 -1      1974 9.22018E-05-2.76456E-05-2.76628E-05-8.46825E-07 3.54581E-19 1.79438E-18
 -1      1975 9.27142E-05-2.77912E-05-2.78307E-05-9.97841E-07 5.42932E-19 1.11837E-18
 -1      1976 9.29460E-05-2.78883E-05-2.78768E-05-9.00060E-07 7.58170E-19 1.14048E-18
 -1      1977 9.26550E-05-2.77964E-05-2.77944E-05-8.83758E-07 7.40212E-19 1.56553E-18
 -1      1978 9.30589E-05-2.79197E-05-2.79217E-05-1.07247E-06 8.71598E-19 1.14759E-18
 -1      1979 9.34654E-05-2.80421E-05-2.80339E-05-9.02347E-07 2.61128E-19 1.13076E-18
 -1      1980 9.31613E-05-2.79508E-05-2.79462E-05-8.92435E-07 4.89060E-19 1.23790E-18
 -1      1981 9.34720E-05-2.80494E-05-2.80421E-05-1.10065E-06 6.48557E-19 1.04930E-18
 -1      1982 9.40169E-05-2.81971E-05-2.82038E-05-9.17963E-07 4.16701E-20 1.17081E-18
 -1      1983 9.37015E-05-2.81058E-05-2.81114E-05-9.02626E-07 2.42780E-19 1.28317E-18
 -1      1984 9.39307E-05-2.81784E-05-2.81827E-05-1.12281E-06 2.25691E-19 1.06724E-18
 -1      1985 9.46094E-05-2.83569E-05-2.83888E-05-9.68541E-07 2.25341E-19 8.96532E-19
 -1      1986 9.42754E-05-2.82629E-05-2.82897E-05-9.37733E-07 6.56905E-21 9.22017E-19
 -1      1987 9.44307E-05-2.83079E-05-2.83413E-05-1.17017E-06 1.69312E-19 7.20718E-19
 -1      1988 9.52662E-05-2.85284E-05-2.85957E-05-1.07401E-06 3.58055E-19 1.00044E-18
 -1      1989 9.48987E-05-2.84270E-05-2.84856E-05-1.01818E-06 3.05782E-19 9.36491E-19
 -1      1990 9.49819E-05-2.84418E-05-2.85203E-05-1.26934E-06 3.54838E-19 3.93230E-19
 -1      1991 9.60232E-05-2.87219E-05-2.88357E-05-1.25482E-06 2.76104E-19 8.30599E-19
 -1      1992 9.55999E-05-2.86064E-05-2.87081E-05-1.16388E-06 1.92221E-19 9.44214E-19
 -1      1993 9.56065E-05-2.85863E-05-2.87266E-05-1.44558E-06 3.56399E-19 7.68912E-19
 -1      1994 9.69293E-05-2.89505E-05-2.91238E-05-1.53379E-06 8.03457E-20 1.42070E-18
 -1      1995 9.64206E-05-2.88123E-05-2.89699E-05-1.39617E-06 4.91362E-20 8.95419E-19
 -1      1996 9.63373E-05-2.87496E-05-2.89706E-05-1.72533E-06 9.84841E-20 6.87185E-19
 -1      1997 9.80467E-05-2.92310E-05-2.94794E-05-1.93730E-06-4.56620E-20 1.68009E-18
 -1      1998 9.74145E-05-2.90590E-05-2.92882E-05-1.73932E-06 2.19256E-19 1.52139E-18
 -1      1999 9.72176E-05-2.89426E-05-2.92663E-05-2.13804E-06-8.76729E-20 1.02581E-18
 -1      2000 9.94514E-05-2.95847E-05-2.99262E-05-2.49543E-06 7.02568E-19 9.35566E-19
 -1      2001 9.86489E-05-2.93649E-05-2.96840E-05-2.22106E-06 2.31088E-19 1.25481E-18
 -1      2002 9.83009E-05-2.91787E-05-2.96308E-05-2.71696E-06 5.73850E-19 1.02922E-18
 -1      2003 1.01233E-04-3.00388E-05-3.04911E-05-3.23919E-06 1.03364E-19 6.25583E-19
 -1      2004 1.00205E-04-2.97533E-05-3.01820E-05-2.87119E-06 5.28601E-19 6.28520E-19
 -1      2005 9.96507E-05-2.94760E-05-3.00839E-05-3.49760E-06 7.08416E-19 5.31269E-19
 -1      2006 1.03491E-04-3.06287E-05-3.12026E-05-4.19170E-06-9.97434E-19 5.74541E-19
 -1      2007 1.02175E-04-3.02552E-05-3.08095E-05-3.71575E-06-5.44282E-19 2.44395E-19
 -1      2008 1.01340E-04-2.98600E-05-3.06457E-05-4.51132E-06-3.44507E-19 2.68009E-19
 -1      2009 1.06326E-04-3.14026E-05-3.20847E-05-5.34681E-06-9.35118E-19 7.45717E-19
 -1      2010 1.04662E-04-3.09133E-05-3.15927E-05-4.76209E-06-9.64072E-19 8.22633E-19
 -1      2011 1.03447E-04-3.03708E-05-3.13335E-05-5.76876E-06-8.98259E-19 4.44299E-19
 -1      2012 1.09813E-04-3.24279E-05-3.31450E-05-6.62454E-06 7.69344E-20 3.87690E-19
 -1      2013 1.07763E-04-3.17892E-05-3.25482E-05-5.96655E-06-4.55942E-19 3.09045E-19
 -1      2014 1.06055E-04-3.10764E-05-3.21538E-05-7.22444E-06-5.18298E-19-1.88849E-19
 -1      2015 1.13967E-04-3.37992E-05-3.43532E-05-7.78952E-06 6.55094E-19 1.09210E-18
 -1      2016 1.11550E-04-3.29748E-05-3.36688E-05-7.17312E-06 5.41228E-19 1.06375E-18
 -1      2017 1.09242E-04-3.20938E-05-3.30904E-05-8.70985E-06 1.76069E-19 5.96728E-19
 -1      2018 1.18670E-04-3.56347E-05-3.56110E-05-8.32737E-06-6.69252E-19 6.51871E-19
 -1      2019 1.16023E-04-3.46005E-05-3.48994E-05-8.01403E-06 1.69986E-22 1.09837E-18
 -1      2020 1.13074E-04-3.36149E-05-3.40884E-05-9.82456E-06 6.90744E-20 4.60746E-19
 -1      2021 1.23569E-04-3.80155E-05-3.67267E-05-7.32526E-06-8.43208E-19 7.00457E-19
 -1      2022 1.21033E-04-3.68090E-05-3.61111E-05-7.79026E-06-1.11454E-18 2.50311E-19
 -1      2023 1.17576E-04-3.58973E-05-3.50441E-05-9.80135E-06-7.78602E-19 5.38700E-19
 -1      2024 1.27928E-04-4.07598E-05-3.74420E-05-3.55098E-06-5.90501E-19 1.84072E-18
 -1      2025 1.26120E-04-3.96072E-05-3.70993E-05-5.44589E-06-8.87241E-19 1.14441E-18
 -1      2026 1.22629E-04-3.91023E-05-3.58284E-05-7.45272E-06-1.05560E-18 1.19068E-18
 -1      2027 1.30450E-04-4.29095E-05-3.75803E-05 3.78671E-06 1.28220E-19 2.61860E-18
 -1      2028 1.30232E-04-4.24308E-05-3.76553E-05 4.90137E-08-4.00408E-19 2.20453E-18
 -1      2029 1.27661E-04-4.27670E-05-3.63856E-05-1.51453E-06-6.65980E-19 1.24900E-18
 -1      2030 1.29295E-04-4.23129E-05-3.73020E-05 1.31046E-05 1.19600E-18 3.78065E-18
 -1      2031 1.31457E-04-4.35173E-05-3.77499E-05 8.38501E-06 8.61300E-19 3.16242E-18
 -1      2032 1.31090E-04-4.49037E-05-3.69071E-05 8.04485E-06 4.83153E-19 2.44499E-18
 -1      2033 1.23366E-04-3.69692E-05-3.71064E-05 1.85054E-05 1.18743E-19 2.75587E-18
 -1      2034 1.27783E-04-4.03018E-05-3.76366E-05 1.58668E-05 5.83434E-19 3.61424E-18
 -1      2035 1.30488E-04-4.23316E-05-3.78199E-05 1.75279E-05 8.58216E-19 3.01595E-18
 -1      2036 1.15526E-04-2.92258E-05-3.72878E-05 1.25137E-05-1.91324E-19 1.20389E-18
 -1      2037 1.19950E-04-3.27395E-05-3.76149E-05 1.55546E-05-1.26314E-19 1.84343E-18
 -1      2038 1.25142E-04-3.40700E-05-3.92550E-05 1.89019E-05 3.45589E-19 2.74516E-18
 -1      2039 1.13067E-04-2.66690E-05-3.75009E-05-3.38219E-06 1.30178E-18 5.47236E-19
 -1      2040 1.14057E-04-2.70285E-05-3.75286E-05 4.13002E-06 4.37175E-19 6.94249E-19
 -1      2041 1.19948E-04-2.65442E-05-4.04340E-05 6.56270E-06 5.27278E-19 1.00164E-18
 -1      2042 1.19144E-04-3.25758E-05-3.74657E-05-1.64593E-05 7.21566E-19-1.16218E-18
 -1      2043 1.15681E-04-2.92970E-05-3.72061E-05-1.06720E-05 1.29988E-18-2.13929E-19
 -1      2044 1.21092E-04-2.79596E-05-4.02544E-05-1.11665E-05 1.81900E-18-4.43230E-19
 -1      2045 1.27599E-04-4.02629E-05-3.74651E-05-1.73940E-05 2.37355E-19-2.49697E-18
 -1      2046 1.22607E-04-3.66799E-05-3.69632E-05-1.69946E-05 2.19540E-19-1.28318E-18
 -1      2047 1.27132E-04-3.66664E-05-3.89109E-05-1.97777E-05 8.60162E-19-1.95439E-18
 -1      2048 1.31733E-04-4.35094E-05-3.76637E-05-9.45680E-06 7.66671E-19-1.76285E-18
 -1      2049 1.28445E-04-4.19881E-05-3.71610E-05-1.27101E-05 3.65931E-19-2.65786E-18
 -1      2050 1.31216E-04-4.37403E-05-3.75676E-05-1.52259E-05 5.11234E-19-2.26995E-18
 -1      2051 1.30700E-04-4.24671E-05-3.76738E-05-4.37842E-07-1.26803E-18-1.48011E-18
 -1      2052 1.30046E-04-4.27646E-05-3.74907E-05-4.14467E-06-1.29543E-19-1.00351E-18
 -1      2053 1.30304E-04-4.47063E-05-3.67666E-05-5.05696E-06-4.48001E-19-8.28316E-19
 -1      2054 1.26589E-04-3.96808E-05-3.71881E-05 5.50448E-06 1.10210E-18-1.40214E-18
 -1      2055 1.27970E-04-4.07826E-05-3.74274E-05 3.02077E-06-5.12878E-19-1.34471E-18
 -1      2056 1.26144E-04-4.18214E-05-3.62299E-05 3.63595E-06-3.47456E-19-8.66111E-19
 -1      2057 1.21422E-04-3.69013E-05-3.62237E-05 8.02234E-06 1.36583E-18-5.12574E-19
 -1      2058 1.23855E-04-3.81226E-05-3.67802E-05 6.92226E-06 1.22342E-18-3.20152E-19
 -1      2059 1.20996E-04-3.81175E-05-3.55835E-05 8.45727E-06 6.93548E-19 3.21873E-20
 -1      2060 1.16315E-04-3.46914E-05-3.50057E-05 8.26298E-06-5.65419E-20 4.13524E-20
 -1      2061 1.19039E-04-3.57634E-05-3.57037E-05 8.10125E-06 1.30051E-19-1.93494E-19
 -1      2062 1.16079E-04-3.51261E-05-3.47245E-05 1.00047E-05 4.91206E-19 1.02882E-18
 -1      2063 1.11754E-04-3.30528E-05-3.37557E-05 7.38004E-06-1.54148E-18 9.73122E-19
 -1      2064 1.14328E-04-3.39192E-05-3.44565E-05 7.69395E-06-5.90048E-19 2.79792E-19
 -1      2065 1.11774E-04-3.30620E-05-3.37420E-05 9.60165E-06-9.14666E-19 1.34829E-18
 -1      2066 1.07897E-04-3.18485E-05-3.26134E-05 6.11966E-06-1.98545E-18 2.60455E-18
 -1      2067 1.10122E-04-3.25264E-05-3.32402E-05 6.60334E-06-2.43307E-18 1.33309E-18
 -1      2068 1.08140E-04-3.17001E-05-3.27580E-05 8.32273E-06-2.45441E-18 1.78278E-18
 -1      2069 1.04745E-04-3.09539E-05-3.16394E-05 4.86432E-06-1.54016E-18 3.06514E-18
 -1      2070 1.06571E-04-3.14766E-05-3.21639E-05 5.35741E-06-1.09654E-18 2.68762E-18
 -1      2071 1.05136E-04-3.07869E-05-3.18590E-05 6.81326E-06-1.58061E-18 1.98762E-18
 -1      2072 1.02228E-04-3.02805E-05-3.08440E-05 3.77093E-06 1.54341E-18 1.48428E-18
 -1      2073 1.03679E-04-3.06804E-05-3.12654E-05 4.20561E-06 6.57446E-19 2.10285E-18
 -1      2074 1.02694E-04-3.01494E-05-3.10860E-05 5.39059E-06 9.88382E-20 5.73241E-19
 -1      2075 1.00252E-04-2.97686E-05-3.02126E-05 2.87835E-06 8.73716E-19 1.15142E-18
 -1      2076 1.01381E-04-3.00732E-05-3.05427E-05 3.23609E-06 7.33428E-19 1.30399E-18
 -1      2077 1.00738E-04-2.96853E-05-3.04481E-05 4.17604E-06 1.00919E-18 1.43868E-18
 -1      2078 9.87203E-05-2.93768E-05-2.97214E-05 2.17178E-06 1.86680E-18 1.52274E-19
 -1      2079 9.95856E-05-2.96082E-05-2.99752E-05 2.45698E-06 1.56047E-18 1.50392E-18
 -1      2080 9.91909E-05-2.93355E-05-2.99366E-05 3.18948E-06 2.06977E-18 5.17799E-19
 -1      2081 9.75485E-05-2.90761E-05-2.93463E-05 1.61514E-06 3.42510E-18-9.23701E-19
 -1      2082 9.82024E-05-2.92510E-05-2.95381E-05 1.84192E-06 3.13427E-18 1.91767E-19
 -1      2083 9.79824E-05-2.90650E-05-2.95357E-05 2.40499E-06 3.10482E-18 4.69812E-20
 -1      2084 9.66695E-05-2.88466E-05-2.90668E-05 1.16851E-06 1.87576E-18-8.55211E-19
 -1      2085 9.71532E-05-2.89774E-05-2.92081E-05 1.35289E-06 2.42848E-18-6.05576E-19
 -1      2086 9.70516E-05-2.88534E-05-2.92285E-05 1.77909E-06 2.47793E-18 6.89829E-19
 -1      2087 9.60303E-05-2.86723E-05-2.88669E-05 7.92548E-07-6.86167E-19-1.45471E-18
 -1      2088 9.63745E-05-2.87680E-05-2.89662E-05 9.51875E-07 6.82097E-19-9.48804E-19
 -1      2089 9.63482E-05-2.86849E-05-2.90001E-05 1.26746E-06 1.30839E-18 3.97277E-19
 -1      2090 9.55947E-05-2.85470E-05-2.87323E-05 4.55195E-07 4.61665E-19-2.53435E-18
 -1      2091 9.58166E-05-2.86109E-05-2.87968E-05 6.02942E-07-2.33435E-19-1.90552E-18
 -1      2092 9.58291E-05-2.85487E-05-2.88362E-05 8.28149E-07-1.79167E-21 3.12950E-19
 -1      2093 9.53674E-05-2.84867E-05-2.86592E-05 2.25628E-07-6.24324E-19 7.59013E-20
 -1      2094 9.54943E-05-2.85126E-05-2.87027E-05 3.57456E-07-3.80640E-20-1.12488E-18
 -1      2095 9.55147E-05-2.84576E-05-2.87404E-05 5.12325E-07-5.00678E-19 7.65252E-19
 -1      2096 9.53464E-05-2.84199E-05-2.86828E-05 2.98311E-07-1.15555E-18 3.36578E-18
 -1      2097 9.48542E-05-2.72811E-05-2.89629E-05 8.99577E-07-1.64873E-18-9.20077E-19
 -1      2098 9.49687E-05-2.75190E-05-2.89038E-05 8.79553E-07-1.77773E-18 4.48425E-19
 -1      2099 9.50850E-05-2.77490E-05-2.88595E-05 8.16773E-07-1.82825E-18 2.81582E-19
 -1      2100 9.51880E-05-2.79645E-05-2.88060E-05 7.21115E-07-1.48753E-18 1.99457E-18
 -1      2101 9.50531E-05-2.76036E-05-2.89066E-05 1.09467E-06-1.91528E-18 3.02668E-19
 -1      2102 9.52492E-05-2.81264E-05-2.87665E-05 5.90346E-07-1.10524E-18 2.90045E-18
 -1      2103 9.53165E-05-2.82910E-05-2.87217E-05 4.53924E-07-9.49434E-19 4.01061E-18
 -1      2104 9.53906E-05-2.83017E-05-2.87500E-05 5.65758E-07-1.03335E-18 3.89885E-18
 -1      2105 9.52613E-05-2.80008E-05-2.88275E-05 8.70954E-07-1.66684E-18 1.75144E-18
 -1      2106 9.46463E-05-2.68485E-05-2.90607E-05 8.29099E-07-2.10397E-18-3.68842E-18
 -1      2107 9.47494E-05-2.70696E-05-2.90052E-05 8.75158E-07-1.33911E-18-1.94817E-18
 -1      2108 9.47855E-05-2.71486E-05-2.89853E-05 1.13008E-06-1.43821E-18-1.92448E-18
 -1      2109 9.44798E-05-2.64937E-05-2.91425E-05 6.25892E-07-1.05083E-18 2.75812E-19
 -1      2110 9.45595E-05-2.66709E-05-2.90974E-05 7.26747E-07-1.78756E-18-9.24063E-19
 -1      2111 9.45530E-05-2.67455E-05-2.90561E-05 9.84055E-07-1.31752E-18-2.45452E-18
 -1      2112 9.43805E-05-2.62731E-05-2.91947E-05 3.33409E-07-4.52872E-19 3.94491E-20
 -1      2113 9.44249E-05-2.63774E-05-2.91678E-05 4.67562E-07-2.70582E-19 9.56914E-19
 -1      2114 9.43809E-05-2.64416E-05-2.91113E-05 6.87410E-07 5.01024E-19 8.06839E-19
 -1      2115 9.43562E-05-2.62112E-05-2.92104E-05 3.19173E-09-8.50299E-20 1.95615E-19
 -1      2116 9.43616E-05-2.62300E-05-2.92053E-05 1.47844E-07-7.99606E-19-4.27156E-20
 -1      2117 9.42914E-05-2.62771E-05-2.91429E-05 2.98556E-07 1.15416E-19-6.13844E-19
 -1      2118 9.44046E-05-2.63092E-05-2.91880E-05-3.14836E-07 1.53982E-18 1.76870E-18
 -1      2119 9.43727E-05-2.62429E-05-2.92049E-05-1.81014E-07 6.82048E-19 1.61192E-18
 -1      2120 9.42887E-05-2.62662E-05-2.91467E-05-1.18531E-07 1.19660E-19 1.31648E-18
 -1      2121 9.45146E-05-2.65475E-05-2.91315E-05-5.77977E-07 2.95660E-19-1.04091E-18
 -1      2122 9.44519E-05-2.64082E-05-2.91674E-05-4.72656E-07 1.08091E-18 9.10949E-19
 -1      2123 9.43658E-05-2.64022E-05-2.91224E-05-5.03698E-07 7.27242E-19 7.06991E-19
 -1      2124 9.46669E-05-2.68838E-05-2.90507E-05-7.52092E-07-9.34731E-20-1.71051E-18
 -1      2125 9.45838E-05-2.66960E-05-2.90994E-05-6.88572E-07 9.53096E-20-1.45098E-18
 -1      2126 9.45067E-05-2.66589E-05-2.90741E-05-8.05560E-07 1.08689E-18-1.44921E-18
 -1      2127 9.48479E-05-2.72850E-05-2.89543E-05-8.22768E-07 2.16711E-19 1.03589E-18
 -1      2128 9.47522E-05-2.70681E-05-2.90104E-05-8.06966E-07 1.98870E-19 3.68174E-19
 -1      2129 9.46917E-05-2.70022E-05-2.90079E-05-9.92098E-07 1.20757E-18-5.96737E-19
 -1      2130 9.50344E-05-2.76964E-05-2.88562E-05-7.76760E-07 5.26988E-19 1.24759E-18
 -1      2131 9.49390E-05-2.74820E-05-2.89113E-05-8.13106E-07 2.83266E-19 5.72791E-19
 -1      2132 9.49030E-05-2.73953E-05-2.89316E-05-1.04377E-06 9.29799E-19 3.82361E-19
 -1      2133 9.52069E-05-2.80796E-05-2.87676E-05-6.17983E-07-1.10739E-18 2.79453E-19
 -1      2134 9.51222E-05-2.78872E-05-2.88148E-05-7.03853E-07-2.90560E-19 1.02176E-18
 -1      2135 9.51166E-05-2.77926E-05-2.88539E-05-9.52938E-07-7.49240E-21 5.37334E-19
 -1      2136 5.32148E-05-4.17302E-05-5.78885E-06 3.53847E-05 2.94556E-18 4.05956E-18
 -1      2137 3.91166E-05-4.19545E-05-1.73164E-07 2.87427E-05 2.27937E-18 2.66625E-18
 -1      2138 1.11510E-05-3.80182E-05 9.70147E-06-8.67293E-07 8.62650E-19 2.96462E-18
 -1      2139 1.27450E-05-3.98393E-05 9.55059E-06-8.65861E-06 7.97693E-19 2.81469E-18
 -1      2140 2.30922E-05-3.46124E-05 3.98926E-06 2.09179E-05 1.82578E-18 2.49621E-18
 -1      2141 1.63315E-05-3.72631E-05 7.25757E-06 1.03876E-05 4.35269E-19 2.35348E-18
 -1      2142 9.23303E-05-4.67751E-05-1.97818E-05 4.04301E-05 3.75829E-18 3.59565E-18
 -1      2143 7.26671E-05-4.78293E-05-1.20327E-05 3.52583E-05 2.68255E-18 4.20319E-18
 -1      2144 1.62059E-05-4.09074E-05 8.48214E-06-1.45576E-05 1.71207E-18 1.92319E-18
 -1      2145 1.92451E-05-3.67496E-05 5.94446E-06-2.11997E-05 1.26801E-18 1.17780E-18
 -1      2146 1.38421E-05-2.93573E-05 5.43459E-06-1.41001E-05 1.32455E-18 2.33315E-18
 -1      2147 8.72781E-05-8.72920E-06-3.37546E-05-1.05287E-05 9.49272E-21-1.36221E-18
 -1      2148 8.79831E-05-9.26383E-06-3.38229E-05-1.21087E-05-1.32561E-19-1.33900E-18
 -1      2149 9.04726E-05-1.30276E-05-3.32190E-05-1.18172E-05-2.24675E-19-1.19860E-18
 -1      2150 8.86897E-05-1.10558E-05-3.33043E-05-9.39107E-06 3.69253E-20-1.30877E-18
 -1      2151 1.84778E-04-3.51367E-05-6.30104E-05 6.04040E-06 3.03746E-18 1.62419E-18
 -1      2152 1.73891E-04-3.78111E-05-5.77212E-05 1.16896E-05 2.59351E-18 1.31714E-18
 -1      2153 1.90456E-04-2.73479E-05-6.83886E-05-3.55703E-07 3.40126E-18 9.97805E-19
 -1      2154 1.83981E-04-2.74574E-05-6.61477E-05 3.07796E-06 2.87229E-18 1.39379E-18
 -1      2155 1.89226E-04-2.97924E-05-6.68708E-05-5.71748E-06 1.22100E-18 5.11184E-19
 -1      2156 1.94012E-04-2.89617E-05-6.91987E-05-2.43119E-07 2.63173E-18 1.13291E-18
 -1      2157 1.73769E-04-3.85806E-05-5.71589E-05-1.68517E-05 8.48621E-19-4.20128E-19
 -1      2158 1.87858E-04-3.68395E-05-6.31589E-05-1.08194E-05 7.72494E-19-2.36746E-19
 -1      2159 1.45456E-04-4.91835E-05-4.13164E-05-2.17712E-05 8.87902E-19 2.54957E-19
 -1      2160 1.66623E-04-4.51244E-05-5.07028E-05-2.32567E-05 1.25297E-18-6.35698E-19
 -1      2161 9.83399E-05-4.97822E-05-2.18430E-05-3.50076E-05 1.19432E-19-8.52539E-19
 -1      2162 1.24384E-04-5.27505E-05-3.10499E-05-3.38204E-05-3.34154E-19-3.35002E-19
 -1      2163 5.93314E-05-4.59202E-05-7.37889E-06-3.33083E-05-1.13502E-19-2.05750E-18
 -1      2164 7.78438E-05-4.46000E-05-1.48255E-05-3.99418E-05 4.57821E-19-1.63435E-18
 -1      2165 2.89089E-05-4.05986E-05 3.38219E-06-2.26917E-05-1.19686E-18-3.15795E-18
 -1      2166 4.13241E-05-3.93160E-05-1.79185E-06-3.14859E-05-3.71000E-19-3.00114E-18
 -1      2167 1.24302E-05-3.61934E-05 8.64090E-06-3.24177E-06-2.15557E-18-1.24853E-18
 -1      2168 1.65557E-05-3.58184E-05 6.90197E-06-1.28172E-05-1.51661E-18-2.22854E-18
 -1      2169 1.63622E-05-3.26912E-05 5.98138E-06 1.88185E-05-2.08857E-18 5.90382E-19
 -1      2170 1.27502E-05-3.53373E-05 8.22119E-06 8.68145E-06-2.19424E-18-3.68883E-19
 -1      2171 4.20359E-05-3.64806E-05-2.95248E-06 3.75274E-05-1.81180E-18-9.10560E-20
 -1      2172 3.01331E-05-3.75470E-05 2.04447E-06 2.97096E-05-2.12436E-18 4.20975E-19
 -1      2173 7.59847E-05-4.00402E-05-1.56128E-05 4.51356E-05-1.17695E-18-1.93346E-18
 -1      2174 5.72463E-05-4.19832E-05-7.79018E-06 3.82941E-05-1.44546E-18-1.19892E-18
 -1      2175 1.17990E-04-4.25044E-05-3.19422E-05 4.14902E-05-1.57379E-18-3.51010E-18
 -1      2176 9.87234E-05-4.49510E-05-2.37030E-05 3.92947E-05-1.36033E-18-3.05737E-18
 -1      2177 1.49657E-04-3.75740E-05-4.71765E-05 3.26568E-05-2.54671E-18-2.46825E-18
 -1      2178 1.30486E-04-3.92010E-05-3.94102E-05 3.28916E-05-2.04389E-18-2.82062E-18
 -1      2179 1.65816E-04-3.06138E-05-5.76209E-05 1.32558E-05-3.77819E-18-1.12105E-18
 -1      2180 1.56977E-04-3.28378E-05-5.26230E-05 2.35397E-05-3.26171E-18-1.86008E-18
 -1      2181 1.51226E-04-3.93674E-05-4.71534E-05 1.21889E-05-2.66702E-18-9.65618E-19
 -1      2182 1.82532E-04-2.42607E-05-6.62450E-05 5.52098E-06-1.85839E-18-7.32472E-19
 -1      2183 1.70818E-04-2.29721E-05-6.26445E-05 9.95498E-06-3.28056E-18-5.31937E-19
 -1      2184 1.79903E-04-2.32027E-05-6.61619E-05-5.73973E-06-1.30316E-18 6.48404E-19
 -1      2185 1.79669E-04-2.21655E-05-6.65876E-05 1.73946E-06-1.13587E-18-1.35525E-19
 -1      2186 1.69829E-04-2.60696E-05-6.09657E-05-1.49257E-05-2.13770E-18 3.21873E-19
 -1      2187 1.80728E-04-2.66545E-05-6.48295E-05-9.18852E-06-1.44334E-18 6.18758E-19
 -1      2188 1.58571E-04-1.39017E-05-6.09033E-05 6.48062E-07-1.73049E-18 5.02079E-19
 -1      2189 1.50002E-04-3.39770E-05-4.95122E-05-2.84532E-05-3.59084E-18-5.46336E-19
 -1      2190 1.65984E-04-3.32668E-05-5.58652E-05-2.32202E-05-2.51114E-18-6.24263E-19
 -1      2191 1.22060E-04-4.10853E-05-3.50428E-05-3.52146E-05-2.24930E-18-6.81862E-20
 -1      2192 1.41354E-04-3.92087E-05-4.30105E-05-3.56635E-05-3.43514E-18-1.55219E-18
 -1      2193 8.44259E-05-4.09661E-05-1.96056E-05-4.06215E-05 5.90382E-19 4.01240E-18
 -1      2194 1.03687E-04-3.95985E-05-2.73841E-05-4.45047E-05-1.02999E-18 1.99180E-18
 -1      2195 5.29417E-05-4.10449E-05-6.62648E-06-3.64514E-05 1.53652E-18 3.13497E-18
 -1      2196 6.75546E-05-3.83502E-05-1.29348E-05-4.32850E-05 1.24810E-18 4.86705E-18
 -1      2197 3.27872E-05-3.98595E-05 1.54086E-06-3.00883E-05 2.01933E-18 1.88211E-18
 -1      2198 4.15072E-05-3.78126E-05-2.58174E-06-3.50512E-05 1.41539E-18 2.19043E-18
 -1      2199 5.75925E-05-4.14360E-05-7.42805E-06-4.33783E-05 3.25134E-18 2.54650E-18
 -1      2200 1.33681E-04-4.96602E-05-3.58235E-05 3.40489E-05 3.72229E-18 2.68848E-18
 -1      2201 1.09928E-04-4.91978E-05-2.69795E-05 3.38094E-05 4.21992E-18 3.41693E-18
 -1      2202 1.68621E-04-4.47809E-05-5.21233E-05 2.04365E-05 3.26574E-18 2.06761E-18
 -1      2203 1.49055E-04-4.65471E-05-4.41199E-05 2.22535E-05 4.22712E-18 2.10996E-18
 -1      2204 1.15066E-04-5.85055E-05-2.42394E-05 3.35778E-05 1.87279E-18 2.15506E-18
 -1      2205 9.71328E-05-2.42970E-05-3.12880E-05-1.00065E-05-5.69974E-19-6.27056E-19
 -1      2206 1.65935E-04-4.29692E-05-5.18626E-05 1.56945E-07 2.56482E-18-1.95241E-19
 -1      2207 9.63060E-05-2.30952E-05-3.14427E-05-1.03852E-05-5.19364E-19-7.93670E-19
 -1      2208 3.76109E-05-3.48166E-05-1.68748E-06 3.01631E-05 7.45601E-19 2.40261E-18
 -1      2209 1.51937E-05-2.69984E-05 4.27150E-06 7.29422E-06-5.75982E-20 2.74608E-18
 -1      2210 9.52704E-05-2.81874E-05-2.87478E-05-5.85755E-07-7.24548E-19 3.30183E-19
 -1      2211 7.61520E-05-4.94139E-05-1.18172E-05 4.00811E-05 8.83032E-19 3.08198E-18
 -1      2212 3.03330E-05-3.37700E-05 6.96652E-07-3.19864E-05 2.27428E-18 1.74997E-18
 -1      2213 8.80357E-05-4.79709E-05-1.73545E-05-4.36995E-05 3.30682E-18 3.62350E-18
 -1      2214 1.23862E-04-5.03844E-05-3.11705E-05-3.36417E-05 2.24464E-19-1.19008E-18
 -1      2215 1.59157E-04-2.77817E-05-5.53943E-05-5.25620E-06-1.97359E-18-2.40134E-19
 -1      2216 1.61439E-04-2.50017E-05-5.78738E-05 5.26330E-06-4.24935E-18-3.80530E-19
 -1      2217 1.49532E-04-2.68251E-05-5.23786E-05-1.22593E-06-3.89762E-18-1.42090E-19
 -1      2218 1.50481E-04-1.84462E-05-5.70428E-05-3.81966E-06-3.77078E-18-8.07858E-19
 -1      2219 1.33552E-04-5.08736E-05-3.50886E-05 2.71858E-05-1.68835E-18-2.97054E-18
 -1      2220 9.94789E-05-5.11614E-05-2.06361E-05 4.19669E-05-1.02491E-18-2.41426E-18
 -1      2221 6.01657E-05-4.13124E-05-8.36349E-06 4.36869E-05-1.48315E-18-6.65027E-19
 -1      2222 2.86345E-05-2.89378E-05-2.24799E-07 3.00261E-05-1.32074E-18 2.41193E-19
 -1      2223 1.41525E-05-2.44575E-05 3.76468E-06 2.76566E-06-1.24072E-18-1.01009E-18
 -1      2224 2.76048E-05-3.10477E-05 8.32921E-07-2.38245E-05-1.22100E-18-3.09972E-18
 -1      2225 6.11262E-05-4.44675E-05-7.64334E-06-3.83029E-05-7.42001E-19-2.79775E-18
 -1      2226 1.01653E-04-5.58357E-05-1.96037E-05-3.73015E-05-9.74935E-19-1.27690E-19
 -1      2227 1.40711E-04-5.63695E-05-3.59793E-05-2.27835E-05 5.86570E-20 1.43996E-20
 -1      2228 1.51282E-04-5.90239E-05-4.01323E-05-8.71655E-06 1.50878E-19 3.95988E-19
 -1      2229 1.34953E-04-6.17007E-05-3.09312E-05-2.26817E-05-6.59203E-19 3.21449E-19
 -1      2230 1.66053E-04-4.48285E-05-5.12763E-05-2.45862E-06 6.22305E-19 3.62530E-19
 -1      2231 1.73680E-04-2.81096E-05-6.09913E-05 3.11176E-06 1.14604E-18 1.70127E-18
 -1      2232 1.68422E-04-2.60203E-05-6.00820E-05-5.77717E-06 2.90490E-18 1.39549E-19
 -1      2233 1.69210E-04-1.80118E-05-6.35484E-05-3.49746E-07 3.07219E-18 1.62744E-18
 -1      2234 1.59700E-04-1.26678E-05-6.20266E-05 1.72280E-07-1.96596E-18-2.44263E-19
 -1      2235 1.47857E-04-4.35335E-05-4.41875E-05-1.69247E-05-2.11594E-18-1.57590E-18
 -1      2236 1.48272E-04-5.66110E-05-3.88986E-05 1.73728E-05 2.79669E-18 1.20448E-18
 -1      2237 9.51741E-05-2.63622E-05-2.94773E-05 4.19799E-06 6.05318E-19 1.92408E-18
 -1      2238 9.61457E-05-2.58500E-05-3.00543E-05 5.99952E-06 7.14856E-19 1.96736E-18
 -1      2239 8.81729E-05-1.11730E-05-3.30395E-05-3.65666E-06 4.26044E-19-8.49442E-19
 -1      2240 8.84037E-05-1.14438E-05-3.30200E-05-4.79688E-06 2.98438E-19-9.90579E-19
 -1      2241 8.87512E-05-1.19285E-05-3.29694E-05-5.81521E-06 2.37192E-19-1.10536E-18
 -1      2242 8.91506E-05-1.23998E-05-3.29389E-05-6.98641E-06 1.53886E-19-1.18295E-18
 -1      2243 8.99201E-05-1.38081E-05-3.26186E-05-4.89518E-06 2.55922E-19-9.27481E-19
 -1      2244 8.78324E-05-1.07132E-05-3.30852E-05 6.13797E-07 9.25048E-19-5.23506E-19
 -1      2245 8.78277E-05-1.07080E-05-3.30854E-05-4.95785E-07 8.06728E-19-5.65361E-19
 -1      2246 8.80119E-05-1.09395E-05-3.30654E-05 2.75316E-06 9.47241E-19-5.56931E-19
 -1      2247 8.78983E-05-1.08058E-05-3.30756E-05 1.63489E-06 9.27656E-19-6.08633E-19
 -1      2248 8.91470E-05-1.27527E-05-3.27434E-05 1.04617E-06 8.16289E-19-5.55984E-19
 -1      2249 8.84413E-05-1.14888E-05-3.30172E-05 4.88096E-06 1.01757E-18-3.80847E-19
 -1      2250 8.82048E-05-1.12113E-05-3.30370E-05 3.75834E-06 9.53011E-19-4.78038E-19
 -1      2251 8.94109E-05-1.31109E-05-3.27016E-05 3.01371E-06 8.62664E-19-5.11032E-19
 -1      2252 8.92115E-05-1.24735E-05-3.29335E-05 7.06844E-06 1.13009E-18 7.97932E-20
 -1      2253 8.87989E-05-1.19866E-05-3.29652E-05 5.89665E-06 1.08614E-18-2.26270E-19
 -1      2254 8.99630E-05-1.38622E-05-3.26136E-05 4.96595E-06 9.98560E-19-2.73195E-19
 -1      2255 9.04670E-05-1.40835E-05-3.28000E-05 9.21875E-06 1.14460E-18 4.83206E-19
 -1      2256 8.97944E-05-1.32727E-05-3.28488E-05 8.03916E-06 1.07643E-18 2.70329E-19
 -1      2257 9.08886E-05-1.51248E-05-3.24633E-05 6.86216E-06 1.04558E-18 1.30470E-19
 -1      2258 9.24432E-05-1.66543E-05-3.25818E-05 1.11053E-05 1.14411E-18 1.02236E-18
 -1      2259 9.13761E-05-1.53152E-05-3.26582E-05 1.00250E-05 1.13896E-18 6.81789E-19
 -1      2260 9.22968E-05-1.70794E-05-3.22151E-05 8.51013E-06 1.01834E-18 6.23426E-19
 -1      2261 1.67192E-05-2.04504E-05 1.74671E-06-1.04153E-05 1.48930E-18 1.30274E-18
 -1      2262 1.98048E-05-2.18124E-05 9.47380E-07-1.94995E-05 2.01192E-18 7.53436E-19
 -1      2263 9.41980E-05-2.70994E-05-2.87395E-05 1.75574E-06 3.04072E-19 1.57380E-18
 -1      2264 9.47922E-05-2.68745E-05-2.90366E-05 2.73127E-06 4.53381E-19 1.78604E-18
 -1      2265 9.53119E-05-2.58251E-05-2.97844E-05 4.36074E-06 6.19320E-19 1.40334E-18
 -1      2266 9.58780E-05-2.50845E-05-3.02960E-05-6.19077E-06-3.15748E-19-7.35628E-19
 -1      2267 9.52278E-05-2.58323E-05-2.97542E-05-4.27341E-06-3.07413E-19-6.42338E-19
 -1      2268 1.60342E-04-4.06917E-05-5.16692E-05-9.53063E-06 2.69399E-18-8.30304E-19
 -1      2269 1.57259E-04-4.82676E-05-4.68366E-05-5.35298E-06 2.99172E-18-7.19978E-21
 -1      2270 9.51054E-05-2.65173E-05-2.93398E-05-2.92421E-06-3.56497E-19-4.89147E-19
 -1      2271 9.46468E-05-2.68877E-05-2.90389E-05-1.85577E-06-2.72713E-19-5.12899E-19
 -1      2272 9.53183E-05-2.53416E-05-2.99948E-05-4.27106E-06-3.11265E-19-7.45140E-19
 -1      2273 9.44543E-05-2.72155E-05-2.87786E-05-9.96095E-07-2.63120E-19-4.90548E-19
 -1      2274 9.42045E-05-2.74271E-05-2.86159E-05-3.83294E-07-1.50088E-19-5.60718E-19
 -1      2275 9.50254E-05-2.66792E-05-2.93053E-05-1.88765E-06-2.85652E-19-6.03842E-19
 -1      2276 9.40628E-05-2.76048E-05-2.84594E-05 1.40148E-07-5.53818E-20-4.72919E-19
 -1      2277 9.39765E-05-2.77462E-05-2.83811E-05 4.86390E-07-4.66679E-20-4.73360E-19
 -1      2278 9.47288E-05-2.73957E-05-2.88705E-05-3.80016E-07-1.38104E-19-4.68813E-19
 -1      2279 9.39022E-05-2.78522E-05-2.82944E-05 7.91865E-07-1.22033E-19-5.55700E-19
 -1      2280 9.39265E-05-2.79573E-05-2.82692E-05 9.79827E-07-1.61206E-19-5.21372E-19
 -1      2281 9.45443E-05-2.78134E-05-2.86099E-05 5.31532E-07-1.48057E-19-4.95304E-19
 -1      2282 9.39101E-05-2.80251E-05-2.82297E-05 1.14947E-06-2.10195E-19-5.43824E-19
 -1      2283 9.40048E-05-2.81076E-05-2.82384E-05 1.24509E-06-1.82977E-19-6.19274E-19
 -1      2284 9.44758E-05-2.80693E-05-2.84681E-05 1.06167E-06-1.99065E-19-6.63834E-19
 -1      2285 9.40318E-05-2.81526E-05-2.82310E-05 1.33467E-06-3.97713E-19-6.15890E-19
 -1      2286 9.41705E-05-2.82194E-05-2.82614E-05 1.38049E-06-5.36157E-19-8.95338E-19
 -1      2287 9.45011E-05-2.82304E-05-2.84076E-05 1.35690E-06-4.22976E-19-7.76047E-19
 -1      2288 9.42288E-05-2.82496E-05-2.82761E-05 1.42861E-06-6.58396E-19-9.02812E-19
 -1      2289 9.43956E-05-2.83050E-05-2.83210E-05 1.45325E-06-8.35437E-19-1.03747E-18
 -1      2290 9.45956E-05-2.83311E-05-2.84033E-05 1.51834E-06-7.05922E-19-8.53766E-19
 -1      2291 9.44770E-05-2.83256E-05-2.83512E-05 1.48694E-06-7.01847E-19-8.96449E-19
 -1      2292 9.46642E-05-2.83735E-05-2.84064E-05 1.51001E-06-7.18185E-19-7.97193E-19
 -1      2293 9.47404E-05-2.83915E-05-2.84384E-05 1.61664E-06-7.09253E-19-9.45062E-19
 -1      2294 9.47647E-05-2.83886E-05-2.84482E-05 1.54811E-06-5.85044E-19-5.10138E-19
 -1      2295 9.49702E-05-2.84332E-05-2.85115E-05 1.58277E-06-1.88487E-19-5.18506E-19
 -1      2296 9.49246E-05-2.84261E-05-2.85020E-05 1.70128E-06-6.30439E-19-3.09683E-19
 -1      2297 9.50891E-05-2.84470E-05-2.85623E-05 1.63775E-06-1.88238E-19-4.74784E-19
 -1      2298 9.53150E-05-2.84933E-05-2.86331E-05 1.69190E-06-1.75305E-19-2.12654E-19
 -1      2299 9.51443E-05-2.84469E-05-2.85869E-05 1.80613E-06-1.64966E-19 9.57661E-20
 -1      2300 9.54545E-05-2.85110E-05-2.86914E-05 1.77068E-06-1.27901E-19-2.49464E-19
 -1      2301 9.57054E-05-2.85649E-05-2.87694E-05 1.84720E-06-5.42914E-20-5.25215E-19
 -1      2302 9.54019E-05-2.84668E-05-2.86888E-05 1.95233E-06-1.93168E-19 7.98942E-20
 -1      2303 9.58704E-05-2.85929E-05-2.88342E-05 1.95099E-06-1.07278E-19-4.79973E-19
 -1      2304 9.61520E-05-2.86618E-05-2.89193E-05 2.04717E-06-2.25022E-19-5.96951E-19
 -1      2305 9.57050E-05-2.85005E-05-2.88044E-05 2.14904E-06-2.01492E-19-1.95202E-19
 -1      2306 9.63495E-05-2.87087E-05-2.89892E-05 2.17059E-06-1.23842E-19-4.48359E-19
 -1      2307 9.66672E-05-2.88014E-05-2.90809E-05 2.27681E-06 1.39012E-20-4.22735E-19
 -1      2308 9.60663E-05-2.85673E-05-2.89310E-05 2.39254E-06-7.94430E-20-1.31339E-20
 -1      2309 9.69066E-05-2.88784E-05-2.91544E-05 2.40623E-06-3.37089E-19-5.51859E-19
 -1      2310 9.72639E-05-2.90053E-05-2.92507E-05 2.50419E-06-5.04941E-19-6.29658E-19
 -1      2311 9.65028E-05-2.86918E-05-2.90652E-05 2.66360E-06-4.62531E-19 2.74218E-20
 -1      2312 9.75563E-05-2.91265E-05-2.93253E-05 2.61549E-06-2.55286E-19-9.31323E-19
 -1      2313 9.79526E-05-2.92987E-05-2.94229E-05 2.67623E-06 2.10990E-20-6.54375E-19
 -1      2314 9.70358E-05-2.89052E-05-2.92027E-05 2.92364E-06-3.80158E-19-2.40540E-19
 -1      2315 9.83101E-05-2.94800E-05-2.94952E-05 2.73258E-06-1.78042E-20-6.64080E-19
 -1      2316 9.87376E-05-2.97071E-05-2.95887E-05 2.71520E-06 1.14799E-19-4.43105E-19
 -1      2317 9.76892E-05-2.92446E-05-2.93380E-05 3.11019E-06 6.76470E-20-6.77015E-19
 -1      2318 9.91709E-05-2.99635E-05-2.96551E-05 2.66571E-06 1.74658E-19-3.90995E-19
 -1      2319 9.96116E-05-3.02493E-05-2.97370E-05 2.51833E-06 2.90578E-19-6.28612E-19
 -1      2320 9.84868E-05-2.97485E-05-2.94646E-05 3.13313E-06 1.23505E-19-6.79226E-19
 -1      2321 1.00125E-04-3.05887E-05-2.97941E-05 2.29966E-06 2.15528E-19-5.32362E-19
 -1      2322 1.00545E-04-3.09228E-05-2.98560E-05 1.96525E-06 1.37919E-19-8.28837E-19
 -1      2323 9.94442E-05-3.04451E-05-2.95768E-05 2.87464E-06 3.06259E-19-1.28996E-18
 -1      2324 1.01125E-04-3.13336E-05-2.99023E-05 1.50944E-06 3.24232E-19-5.01087E-19
 -1      2325 1.01470E-04-3.16798E-05-2.99364E-05 9.39864E-07 5.92521E-19-6.81264E-19
 -1      2326 1.00554E-04-3.13302E-05-2.96725E-05 2.19796E-06 2.71871E-19-1.21819E-18
 -1      2327 1.02073E-04-3.21142E-05-2.99748E-05 1.93406E-07 6.06436E-19-2.55927E-19
 -1      2328 1.02266E-04-3.23962E-05-2.99764E-05-6.24933E-07 6.71073E-19-3.71256E-19
 -1      2329 1.01759E-04-3.23318E-05-2.97572E-05 9.73247E-07 7.29476E-19-6.25972E-19
 -1      2330 1.02796E-04-3.27520E-05-3.00154E-05-1.66486E-06 9.06855E-19-6.21397E-19
 -1      2331 1.02742E-04-3.28478E-05-2.99865E-05-2.67349E-06 1.00275E-18-5.93371E-19
 -1      2332 1.02918E-04-3.32661E-05-2.98477E-05-8.68346E-07 6.99371E-19-6.83805E-19
 -1      2333 1.03046E-04-3.29660E-05-3.00402E-05-3.90576E-06 7.95351E-19-4.37402E-19
 -1      2334 1.02657E-04-3.27291E-05-2.99904E-05-4.93601E-06 6.71697E-19 2.80219E-19
 -1      2335 1.03778E-04-3.38111E-05-2.99728E-05-3.24253E-06 9.03200E-19-6.43037E-19
 -1      2336 1.02560E-04-3.24329E-05-3.00735E-05-6.10527E-06-1.74446E-19-3.96639E-19
 -1      2337 1.01804E-04-3.17573E-05-3.00187E-05-6.86764E-06-2.52474E-19-6.19090E-19
 -1      2338 1.03997E-04-3.35527E-05-3.01665E-05-5.79780E-06-2.46364E-19-1.11069E-18
 -1      2339 1.01199E-04-3.09526E-05-3.01372E-05-7.56385E-06 3.51168E-19-9.07039E-19
 -1      2340 1.00169E-04-2.98808E-05-3.00935E-05-7.70581E-06 6.36797E-19-3.67879E-19
 -1      2341 1.03274E-04-3.21543E-05-3.04500E-05-7.84610E-06-2.09267E-19-1.86404E-18
 -1      2342 9.91635E-05-2.86992E-05-3.02323E-05-7.48613E-06 3.07360E-19-5.97570E-19
 -1      2343 9.81127E-05-2.75081E-05-3.02072E-05-6.75053E-06-1.69142E-20-9.65493E-19
 -1      2344 1.01593E-04-2.96661E-05-3.08060E-05-8.46065E-06 1.69516E-19-9.40472E-19
 -1      2345 9.70917E-05-2.63652E-05-3.03274E-05-5.40073E-06-4.41847E-20-1.00954E-18
 -1      2346 9.63734E-05-2.55131E-05-3.03176E-05-3.82575E-06-4.15033E-19-9.75854E-19
 -1      2347 9.94622E-05-2.67658E-05-3.11600E-05-6.88279E-06-1.63294E-19-1.11271E-18
 -1      2348 9.58650E-05-2.49557E-05-3.03733E-05-1.61877E-06-5.91878E-19-6.17589E-19
 -1      2349 9.57667E-05-2.48380E-05-3.03717E-05 3.63140E-07-8.91651E-19-3.86701E-19
 -1      2350 9.78437E-05-2.46531E-05-3.13973E-05-3.11176E-06-5.38386E-19-4.63519E-19
 -1      2351 9.60571E-05-2.51578E-05-3.03390E-05 2.68949E-06-1.15412E-18 2.93111E-21
 -1      2352 9.66166E-05-2.58299E-05-3.03445E-05 4.43770E-06-1.22594E-18-8.02158E-20
 -1      2353 9.76149E-05-2.43588E-05-3.14293E-05 1.74653E-06-6.90676E-19 3.35618E-19
 -1      2354 9.75405E-05-2.68581E-05-3.02369E-05 6.08152E-06-1.23368E-18-9.66920E-19
 -1      2355 9.85296E-05-2.80006E-05-3.02560E-05 7.07571E-06-1.05595E-18-3.61427E-19
 -1      2356 9.88997E-05-2.60346E-05-3.12402E-05 5.97899E-06-1.38268E-18-2.10270E-19
 -1      2357 9.95866E-05-2.92213E-05-3.01178E-05 7.61279E-06-1.24084E-18-7.84662E-19
 -1      2358 1.00652E-04-3.03640E-05-3.01562E-05 7.70446E-06-1.36087E-18-1.50385E-18
 -1      2359 1.00986E-04-2.88335E-05-3.09058E-05 8.22514E-06-1.26022E-18-3.91287E-19
 -1      2360 1.01394E-04-3.13028E-05-3.00297E-05 7.22916E-06-9.97414E-19-8.11678E-19
 -1      2361 1.02242E-04-3.21050E-05-3.00822E-05 6.60742E-06-6.20867E-19-6.74582E-19
 -1      2362 1.02869E-04-3.15365E-05-3.05420E-05 8.18183E-06-1.01010E-18-5.26369E-19
 -1      2363 1.02479E-04-3.25448E-05-2.99886E-05 5.52473E-06-5.73600E-19-8.54880E-19
 -1      2364 1.02972E-04-3.28996E-05-3.00407E-05 4.53511E-06-6.84980E-19-4.90515E-19
 -1      2365 1.03884E-04-3.32773E-05-3.02343E-05 6.44430E-06-6.55346E-19 3.32274E-19
 -1      2366 1.02762E-04-3.28815E-05-2.99795E-05 3.28577E-06-7.76527E-19-4.69696E-20
 -1      2367 1.02901E-04-3.28638E-05-3.00150E-05 2.24780E-06-4.25661E-19 1.87018E-19
 -1      2368 1.03908E-04-3.38369E-05-3.00151E-05 3.94504E-06-2.27505E-19 7.96188E-19
 -1      2369 1.02417E-04-3.25560E-05-2.99733E-05 1.13718E-06 8.01339E-20 2.42396E-19
 -1      2370 1.02281E-04-3.23107E-05-2.99805E-05 2.55280E-07 1.09309E-18 3.44019E-19
 -1      2371 1.03190E-04-3.34738E-05-2.98734E-05 1.46856E-06-3.59594E-19 1.12356E-18
 -1      2372 1.01687E-04-3.18840E-05-2.99436E-05-5.75884E-07 1.27189E-18-3.06746E-19
 -1      2373 1.01374E-04-3.15439E-05-2.99186E-05-1.21481E-06 6.61180E-19-1.00818E-18
 -1      2374 1.02084E-04-3.26077E-05-2.97772E-05-5.39785E-07 6.14480E-19 4.13816E-19
 -1      2375 1.00781E-04-3.11171E-05-2.98763E-05-1.74490E-06 1.47481E-18-9.31236E-19
 -1      2376 1.00376E-04-3.07713E-05-2.98226E-05-2.13698E-06 9.35006E-19 1.47448E-19
 -1      2377 1.00872E-04-3.15954E-05-2.96952E-05-1.93069E-06 1.33186E-18-1.87625E-19
 -1      2378 9.98424E-05-3.04058E-05-2.97709E-05-2.40805E-06-2.75331E-20 7.89573E-20
 -1      2379 9.94058E-05-3.01004E-05-2.96960E-05-2.59327E-06-2.72609E-19 1.16659E-18
 -1      2380 9.97281E-05-3.06577E-05-2.96076E-05-2.73757E-06 5.12320E-19 3.66937E-20
 -1      2381 9.89528E-05-2.98158E-05-2.96358E-05-2.66993E-06-2.23911E-19 1.96083E-18
 -1      2382 9.85254E-05-2.95671E-05-2.95488E-05-2.70274E-06 6.55961E-19 2.04199E-18
 -1      2383 9.87288E-05-2.98933E-05-2.95067E-05-3.07645E-06 7.29671E-19 1.28210E-18
 -1      2384 9.81525E-05-2.93591E-05-2.94837E-05-2.64855E-06 1.33649E-19 2.17984E-18
 -1      2385 9.77583E-05-2.91661E-05-2.93932E-05-2.58055E-06 9.52645E-19 1.92653E-18
 -1      2386 9.78942E-05-2.93204E-05-2.93940E-05-3.08157E-06 5.94844E-19 1.99477E-18
 -1      2387 9.74563E-05-2.90200E-05-2.93275E-05-2.44730E-06 1.77487E-18 1.24333E-18
 -1      2388 9.71075E-05-2.88736E-05-2.92405E-05-2.31930E-06 1.52972E-18 8.88942E-19
 -1      2389 9.72139E-05-2.89151E-05-2.92754E-05-2.87218E-06 7.16996E-19 1.69828E-18
 -1      2390 9.68641E-05-2.87720E-05-2.91783E-05-2.14394E-06 2.73128E-19 1.47457E-18
 -1      2391 9.65655E-05-2.86608E-05-2.90998E-05-1.98389E-06-1.81143E-19 1.37084E-18
 -1      2392 9.66657E-05-2.86379E-05-2.91587E-05-2.53963E-06 9.48711E-19 7.66511E-19
 -1      2393 9.63686E-05-2.85876E-05-2.90443E-05-1.78957E-06 4.12989E-19 1.28707E-18
 -1      2394 9.61200E-05-2.85009E-05-2.89774E-05-1.61399E-06-1.84773E-19 2.16870E-18
 -1      2395 9.62246E-05-2.84477E-05-2.90505E-05-2.14577E-06 3.13688E-19 1.35382E-18
 -1      2396 9.59581E-05-2.84438E-05-2.89303E-05-1.41258E-06-1.98436E-18 2.60916E-18
 -1      2397 9.57592E-05-2.83744E-05-2.88764E-05-1.22953E-06-1.45987E-18 2.16870E-18
 -1      2398 9.58667E-05-2.83093E-05-2.89557E-05-1.72721E-06-9.53603E-19 2.54130E-18
 -1      2399 9.33342E-05-2.76707E-05-2.81334E-05-4.58822E-07 1.54823E-19 1.09906E-18
 -1      2400 9.34010E-05-2.75659E-05-2.81904E-05-1.61269E-07 1.01635E-19 1.24342E-18
 -1      2401 9.33140E-05-2.78349E-05-2.80566E-05-9.02093E-07 4.61206E-19 8.06856E-19
 -1      2402 9.32506E-05-2.77434E-05-2.80612E-05-7.44748E-07 3.19557E-19 1.01034E-18
 -1      2403 9.40239E-05-2.77811E-05-2.84016E-05-5.18568E-07 3.40545E-19 5.58186E-19
 -1      2404 9.34553E-05-2.79716E-05-2.80598E-05-1.13190E-06 7.28817E-19 8.74298E-19
 -1      2405 9.33140E-05-2.78892E-05-2.80324E-05-1.05457E-06 5.63076E-19 9.89022E-19
 -1      2406 9.39673E-05-2.79844E-05-2.82872E-05-1.01647E-06 5.45362E-19 7.73545E-19
 -1      2407 9.37000E-05-2.80899E-05-2.81145E-05-1.24371E-06 9.86660E-19 8.80176E-19
 -1      2408 9.35129E-05-2.80155E-05-2.80672E-05-1.20808E-06 7.81309E-19 9.04759E-19
 -1      2409 9.40404E-05-2.81264E-05-2.82552E-05-1.28528E-06 7.77372E-19 6.64340E-19
 -1      2410 9.40123E-05-2.81935E-05-2.82039E-05-1.30286E-06 2.89221E-19 1.19785E-18
 -1      2411 9.37968E-05-2.81264E-05-2.81435E-05-1.28258E-06 8.17183E-19 1.15993E-18
 -1      2412 9.42024E-05-2.82287E-05-2.82790E-05-1.42813E-06 7.49830E-19 9.25589E-19
 -1      2413 9.43741E-05-2.82855E-05-2.83190E-05-1.35705E-06 3.81427E-19 1.05208E-18
 -1      2414 9.41371E-05-2.82242E-05-2.82486E-05-1.33253E-06 3.48202E-19 1.16787E-18
 -1      2415 9.44259E-05-2.83021E-05-2.83423E-05-1.51750E-06 4.22820E-19 1.23711E-18
 -1      2416 9.47814E-05-2.83687E-05-2.84568E-05-1.44380E-06 3.14286E-19 5.88671E-19
 -1      2417 9.45215E-05-2.83112E-05-2.83765E-05-1.39914E-06 4.38394E-19 7.74236E-19
 -1      2418 9.46957E-05-2.83526E-05-2.84357E-05-1.60727E-06 5.42166E-19 8.13494E-19
 -1      2419 9.52413E-05-2.84471E-05-2.86187E-05-1.59536E-06 3.50590E-19 6.23791E-19
 -1      2420 9.49509E-05-2.83905E-05-2.85266E-05-1.51632E-06 8.27334E-20 5.71712E-19
 -1      2421 9.50066E-05-2.83842E-05-2.85553E-05-1.74047E-06 2.39644E-19 8.77640E-19
 -1      2422 9.57703E-05-2.85247E-05-2.88098E-05-1.84229E-06 3.00387E-19 7.95877E-19
 -1      2423 9.54358E-05-2.84655E-05-2.87020E-05-1.71478E-06 4.08043E-19 9.19140E-19
 -1      2424 9.53612E-05-2.83991E-05-2.87010E-05-1.95439E-06 1.29179E-19 9.60538E-19
 -1      2425 9.63923E-05-2.86064E-05-2.90384E-05-2.21614E-06 2.92702E-20 7.10482E-19
 -1      2426 9.59951E-05-2.85403E-05-2.89093E-05-2.02501E-06 4.03487E-19 9.29643E-19
 -1      2427 9.57678E-05-2.83985E-05-2.88759E-05-2.28438E-06 1.84472E-19 5.98683E-19
 -1      2428 9.71380E-05-2.86979E-05-2.93150E-05-2.75118E-06-1.17530E-19 5.69243E-19
 -1      2429 9.66546E-05-2.86194E-05-2.91576E-05-2.47958E-06-2.41453E-19 6.57120E-19
 -1      2430 9.62389E-05-2.83825E-05-2.90850E-05-2.76652E-06 6.91027E-20 2.29243E-19
 -1      2431 9.80441E-05-2.88069E-05-2.96522E-05-3.48475E-06 9.22334E-19 3.19880E-19
 -1      2432 9.74460E-05-2.87087E-05-2.94581E-05-3.11419E-06 5.12593E-19 6.08672E-19
 -1      2433 9.67895E-05-2.83510E-05-2.93348E-05-3.43915E-06 1.65197E-19-2.18756E-19
 -1      2434 9.91523E-05-2.89462E-05-3.00625E-05-4.45465E-06 4.17873E-19 6.27519E-19
 -1      2435 9.84062E-05-2.88172E-05-2.98230E-05-3.96690E-06 8.72555E-19 5.97583E-19
 -1      2436 9.74360E-05-2.83060E-05-2.96313E-05-4.34245E-06 6.95663E-19 4.64587E-20
 -1      2437 1.00510E-04-2.91399E-05-3.05565E-05-5.69062E-06-7.92689E-19 2.06789E-19
 -1      2438 9.95783E-05-2.89617E-05-3.02635E-05-5.07326E-06-4.26296E-20 5.00954E-19
 -1      2439 9.81970E-05-2.82570E-05-2.99784E-05-5.51462E-06 9.37675E-20 4.81295E-19
 -1      2440 1.02171E-04-2.94383E-05-3.11374E-05-7.19476E-06-8.01874E-19 3.80137E-19
 -1      2441 1.01014E-04-2.91774E-05-3.07865E-05-6.45368E-06-1.21607E-18 2.57934E-19
 -1      2442 9.90975E-05-2.82340E-05-3.03742E-05-6.98152E-06-1.00898E-18 5.59977E-19
 -1      2443 1.04206E-04-2.99441E-05-3.17945E-05-8.90220E-06-3.10831E-19 2.79281E-19
 -1      2444 1.02781E-04-2.95388E-05-3.13892E-05-8.08633E-06-1.40502E-19 6.92112E-19
 -1      2445 1.00182E-04-2.83125E-05-3.08062E-05-8.73507E-06-6.68749E-19 8.91486E-19
 -1      2446 1.06727E-04-3.08572E-05-3.24928E-05-1.06112E-05 1.65152E-19 6.24331E-19
 -1      2447 1.04988E-04-3.01976E-05-3.20514E-05-9.85544E-06-2.25580E-19 3.45497E-19
 -1      2448 1.01546E-04-2.86608E-05-3.12458E-05-1.06929E-05-8.56165E-20 8.84740E-19
 -1      2449 1.09922E-04-3.25284E-05-3.31680E-05-1.18745E-05-3.90313E-19 1.04353E-18
 -1      2450 1.07825E-04-3.14384E-05-3.27288E-05-1.14614E-05 1.67264E-19 8.43971E-19
 -1      2451 1.03404E-04-2.96120E-05-3.16458E-05-1.26291E-05-2.48845E-19 7.82806E-19
 -1      2452 1.14096E-04-3.54589E-05-3.37389E-05-1.18679E-05-9.14303E-19 4.99061E-19
 -1      2453 1.11617E-04-3.37241E-05-3.33569E-05-1.22860E-05-6.78126E-19 7.92724E-19
 -1      2454 1.06185E-04-3.17363E-05-3.19523E-05-1.40644E-05-3.95847E-19 8.97563E-19
 -1      2455 1.19591E-04-4.00511E-05-3.41776E-05-9.32983E-06-8.68765E-19 8.93669E-19
 -1      2456 1.16830E-04-3.76091E-05-3.38906E-05-1.12389E-05-9.57286E-19 6.93482E-19
 -1      2457 1.10632E-04-3.58059E-05-3.21560E-05-1.41116E-05-8.69089E-19 3.36325E-19
 -1      2458 1.26326E-04-4.57104E-05-3.46788E-05-2.83946E-06-8.38086E-19 1.29794E-18
 -1      2459 1.23768E-04-4.32104E-05-3.44267E-05-6.75672E-06-9.62534E-19 8.44181E-19
 -1      2460 1.17652E-04-4.22940E-05-3.24305E-05-1.13269E-05-1.04012E-18 1.31581E-19
 -1      2461 1.32711E-04-4.92971E-05-3.58960E-05 7.80389E-06 5.51749E-19 2.08970E-18
 -1      2462 1.31582E-04-4.88238E-05-3.54085E-05 2.39330E-06-2.15398E-19 1.88707E-18
 -1      2463 1.27399E-04-4.98154E-05-3.33835E-05-3.96580E-06-6.00699E-19 1.19172E-18
 -1      2464 1.34806E-04-4.48552E-05-3.87369E-05 1.82684E-05 8.88643E-19 2.05444E-18
 -1      2465 1.36682E-04-4.90952E-05-3.77214E-05 1.44959E-05 1.11810E-18 2.38522E-18
 -1      2466 1.37298E-04-5.31425E-05-3.61736E-05 8.29266E-06 6.31946E-19 1.33132E-18
 -1      2467 1.30886E-04-3.09233E-05-4.30982E-05 1.86490E-05 6.64921E-19 1.75961E-18
 -1      2468 1.35021E-04-3.88836E-05-4.16851E-05 2.11392E-05 1.06334E-18 2.44938E-18
 -1      2469 1.41786E-04-4.47258E-05-4.19348E-05 1.92876E-05 6.37445E-19 1.77496E-18
 -1      2470 1.24450E-04-2.18162E-05-4.44022E-05 2.47250E-06 1.84632E-18 2.72877E-19
 -1      2471 1.25980E-04-2.47162E-05-4.40142E-05 1.14579E-05 7.02084E-19 1.32348E-18
 -1      2472 1.28506E-04-2.83036E-05-4.35581E-05-1.62186E-05 2.43744E-18-1.23609E-18
 -1      2473 1.25540E-04-2.29099E-05-4.43467E-05-8.60526E-06 2.28826E-18-4.48636E-19
 -1      2474 1.35790E-04-4.28453E-05-4.01843E-05-2.05764E-05 4.23675E-19-1.94848E-18
 -1      2475 1.31792E-04-3.53996E-05-4.15285E-05-2.03365E-05 1.47786E-18-1.56103E-18
 -1      2476 1.35426E-04-4.94990E-05-3.68849E-05-1.11575E-05 5.56249E-19-1.84661E-18
 -1      2477 1.34464E-04-4.69422E-05-3.76836E-05-1.57192E-05 5.56183E-19-1.99124E-18
 -1      2478 1.40444E-04-4.80938E-05-3.99127E-05-1.76461E-05 5.66242E-19-1.91689E-18
 -1      2479 1.29333E-04-4.70761E-05-3.51472E-05 4.89957E-07-9.38910E-19-1.29565E-18
 -1      2480 1.30941E-04-4.84192E-05-3.55144E-05-4.45919E-06-1.02306E-19-1.20807E-18
 -1      2481 1.34395E-04-5.24151E-05-3.53051E-05-5.37779E-06-1.73820E-19-2.05024E-18
 -1      2482 1.21774E-04-4.13098E-05-3.43953E-05 8.25806E-06-4.17779E-19-9.46493E-19
 -1      2483 1.24393E-04-4.38548E-05-3.46411E-05 5.09707E-06-9.01720E-19-1.14344E-18
 -1      2484 1.24653E-04-4.74274E-05-3.32753E-05 5.99614E-06-1.05276E-18-1.65940E-18
 -1      2485 1.15421E-04-3.62994E-05-3.38648E-05 1.16294E-05 2.05723E-19 1.20636E-20
 -1      2486 1.18091E-04-3.84944E-05-3.41875E-05 1.03029E-05-1.39529E-19-4.36209E-19
 -1      2487 1.15946E-04-4.01458E-05-3.26180E-05 1.20374E-05-8.13019E-19-3.56361E-19
 -1      2488 1.10666E-04-3.30009E-05-3.32709E-05 1.20399E-05-2.72010E-19 1.26736E-18
 -1      2489 1.13033E-04-3.45010E-05-3.36832E-05 1.19419E-05 4.73994E-19 1.46459E-18
 -1      2490 1.09832E-04-3.45344E-05-3.23474E-05 1.39724E-05-5.64250E-19 8.41069E-19
 -1      2491 1.07149E-04-3.10992E-05-3.25910E-05 1.09316E-05-1.51025E-18 2.70480E-18
 -1      2492 1.09149E-04-3.20383E-05-3.30418E-05 1.14636E-05-5.76365E-19 2.47789E-18
 -1      2493 1.05902E-04-3.11834E-05-3.20574E-05 1.34940E-05-1.22755E-18 2.87155E-18
 -1      2494 1.04461E-04-3.00580E-05-3.18888E-05 9.24972E-06-2.72882E-18 2.11057E-18
 -1      2495 1.06119E-04-3.06386E-05-3.23259E-05 1.00116E-05-2.15988E-18 2.18707E-18
 -1      2496 1.03336E-04-2.94817E-05-3.16646E-05 1.18988E-05-1.59257E-18 2.44577E-18
 -1      2497 1.02341E-04-2.94854E-05-3.12257E-05 7.50470E-06-5.68123E-19 1.03453E-18
 -1      2498 1.03696E-04-2.98544E-05-3.16170E-05 8.27828E-06-1.53684E-18 1.39418E-18
 -1      2499 1.01527E-04-2.87217E-05-3.12063E-05 9.94950E-06-1.91073E-18 1.74456E-19
 -1      2500 1.00639E-04-2.91522E-05-3.06383E-05 5.93128E-06-2.49051E-19 7.95088E-19
 -1      2501 1.01732E-04-2.93985E-05-3.09706E-05 6.61902E-06-1.18214E-18 3.40679E-19
 -1      2502 1.00149E-04-2.84309E-05-3.07376E-05 8.04516E-06-3.85628E-19 1.19979E-18
 -1      2503 9.92679E-05-2.89381E-05-3.01413E-05 4.60798E-06 1.23957E-18 1.71700E-18
 -1      2504 1.00138E-04-2.91118E-05-3.04133E-05 5.18053E-06 6.54656E-19 1.94240E-18
 -1      2505 9.90399E-05-2.83452E-05-3.02993E-05 6.36346E-06-4.98868E-19 1.49092E-18
 -1      2506 9.81665E-05-2.87839E-05-2.97345E-05 3.53448E-06 2.17066E-18 9.04420E-19
 -1      2507 9.88508E-05-2.89127E-05-2.99514E-05 3.99586E-06 2.31371E-18 1.37743E-18
 -1      2508 9.81269E-05-2.83332E-05-2.99138E-05 4.95631E-06 1.91816E-18 1.80998E-18
 -1      2509 9.72895E-05-2.86603E-05-2.94107E-05 2.67616E-06 2.35322E-18 9.54327E-19
 -1      2510 9.78215E-05-2.87605E-05-2.95796E-05 3.04468E-06 2.48374E-18 4.68079E-19
 -1      2511 9.73724E-05-2.83363E-05-2.95898E-05 3.81213E-06 2.22703E-18 1.97949E-18
 -1      2512 9.65977E-05-2.85531E-05-2.91599E-05 1.98180E-06 2.40399E-18 4.42953E-19
 -1      2513 9.70043E-05-2.86320E-05-2.92882E-05 2.28276E-06 2.47896E-18 5.25936E-19
 -1      2514 9.67495E-05-2.83290E-05-2.93269E-05 2.89493E-06 2.48098E-18 5.32974E-19
 -1      2515 9.60620E-05-2.84554E-05-2.89719E-05 1.40855E-06 2.57989E-19 1.55333E-18
 -1      2516 9.63690E-05-2.85216E-05-2.90660E-05 1.66330E-06 1.14962E-18 1.81028E-18
 -1      2517 9.62423E-05-2.83089E-05-2.91217E-05 2.14812E-06 1.26471E-18 2.54491E-18
 -1      2518 9.56522E-05-2.83636E-05-2.88343E-05 9.21214E-07-8.10874E-19 2.48065E-18
 -1      2519 9.58803E-05-2.84211E-05-2.89016E-05 1.14381E-06 2.32296E-19 2.42445E-18
 -1      2520 9.58371E-05-2.82715E-05-2.89649E-05 1.52052E-06-1.81122E-19 3.78204E-18
 -1      2521 9.54961E-05-2.83300E-05-2.87805E-05 6.82745E-07-7.70812E-19 3.08359E-18
 -1      2522 9.43726E-05-2.65979E-05-2.90529E-05 1.09909E-06-4.63718E-19-9.90334E-19
 -1      2523 9.45040E-05-2.67780E-05-2.90243E-05 1.22674E-06-3.34123E-19-3.49197E-18
 -1      2524 9.41804E-05-2.63294E-05-2.90849E-05 7.04040E-07 1.32033E-18 2.34395E-18
 -1      2525 9.42629E-05-2.64478E-05-2.90654E-05 8.96666E-07 1.23449E-19 1.94692E-18
 -1      2526 9.41921E-05-2.64374E-05-2.90321E-05 1.14645E-06 1.12804E-18 1.21904E-18
 -1      2527 9.49959E-05-2.74564E-05-2.89508E-05 1.37144E-06-1.38661E-18 4.86934E-20
 -1      2528 9.51745E-05-2.76930E-05-2.89144E-05 1.31232E-06-1.24430E-18 1.00430E-18
 -1      2529 9.46629E-05-2.69946E-05-2.90067E-05 1.33554E-06-1.91405E-18-3.27563E-18
 -1      2530 9.48209E-05-2.72082E-05-2.89727E-05 1.36688E-06-1.96416E-18-4.13162E-19
 -1      2531 9.48832E-05-2.72788E-05-2.89755E-05 1.60068E-06-1.57808E-18-8.05216E-19
 -1      2532 9.45122E-05-2.68126E-05-2.90093E-05 1.48874E-06-4.75752E-19-1.54985E-18
 -1      2533 9.41007E-05-2.62143E-05-2.90989E-05 2.23373E-07 2.88161E-19-8.64972E-19
 -1      2534 9.41280E-05-2.62583E-05-2.90911E-05 4.47489E-07 1.33851E-18-1.06615E-18
 -1      2535 9.39991E-05-2.62116E-05-2.90456E-05 6.51782E-07 1.16074E-18 1.96673E-19
 -1      2536 9.41323E-05-2.62567E-05-2.90926E-05-2.68778E-07 8.11949E-19 2.29375E-18
 -1      2537 9.41061E-05-2.62247E-05-2.90977E-05-4.71597E-08-1.13574E-19 1.83924E-18
 -1      2538 9.39429E-05-2.61502E-05-2.90481E-05 8.60654E-08 1.51533E-18-1.65231E-19
 -1      2539 9.42607E-05-2.64413E-05-2.90667E-05-7.05153E-07 6.13646E-19-3.53932E-19
 -1      2540 9.41891E-05-2.63410E-05-2.90840E-05-5.15860E-07 8.36148E-19 9.14301E-19
 -1      2541 9.40162E-05-2.62480E-05-2.90385E-05-4.67728E-07 1.37916E-18 1.63031E-18
 -1      2542 9.44589E-05-2.67321E-05-2.90253E-05-1.02879E-06 1.42635E-18-1.86634E-18
 -1      2543 9.43553E-05-2.65817E-05-2.90518E-05-8.95870E-07 1.32818E-18-1.15805E-18
 -1      2544 9.41958E-05-2.64790E-05-2.90177E-05-9.34846E-07 9.32051E-19 1.38970E-19
 -1      2545 9.47079E-05-2.71019E-05-2.89719E-05-1.21619E-06 1.31253E-18-3.46440E-19
 -1      2546 9.45819E-05-2.69149E-05-2.90052E-05-1.14989E-06 1.46509E-18-2.14642E-18
 -1      2547 9.44521E-05-2.68095E-05-2.89874E-05-1.26760E-06 1.73742E-18-2.29416E-18
 -1      2548 9.49788E-05-2.75078E-05-2.89130E-05-1.24322E-06 1.00147E-18 5.58387E-19
 -1      2549 9.48449E-05-2.73061E-05-2.89488E-05-1.25310E-06 9.51753E-19 6.35966E-19
 -1      2550 9.47571E-05-2.72047E-05-2.89503E-05-1.43580E-06 8.99857E-19-3.44224E-19
 -1      2551 9.52414E-05-2.79085E-05-2.88531E-05-1.11071E-06-1.16510E-18 8.06065E-19
 -1      2552 9.51152E-05-2.77125E-05-2.88886E-05-1.19434E-06-2.98868E-19-4.87543E-19
 -1      2553 9.50755E-05-2.76233E-05-2.89086E-05-1.42304E-06 1.99033E-19-6.46959E-19
 -1      2554 2.26006E-05-1.93870E-05-1.05279E-06 1.52786E-05 2.91168E-19 1.61402E-18
 -1      2555 1.72457E-05-1.97324E-05 1.14041E-06 1.46546E-06 1.05490E-18 1.50518E-18
 -1      2556 2.32327E-05-1.51824E-05-2.97575E-06-3.07693E-06 1.70144E-18 1.23180E-18
 -1      2557 9.08130E-05-5.21175E-05-1.66886E-05 4.02697E-05-9.34913E-19 1.43503E-18
 -1      2558 7.16590E-05-4.50875E-05-1.12437E-05 3.91363E-05-7.79270E-19 2.18831E-18
 -1      2559 9.35977E-05-2.74526E-05-2.83359E-05 3.46058E-07 1.49736E-19 1.42531E-18
 -1      2560 9.38739E-05-2.73174E-05-2.84803E-05 8.86824E-07 1.46939E-19 1.48639E-18
 -1      2561 9.42603E-05-2.74671E-05-2.86398E-05 3.62327E-07 2.75574E-19 7.91623E-19
 -1      2562 9.53720E-05-2.82050E-05-2.87831E-05-7.54186E-07-3.19292E-19 5.21270E-19
 -1      2563 2.90117E-05-2.68345E-05-9.38338E-07-2.95870E-05 2.46698E-18 8.23104E-19
 -1      2564 4.28627E-05-3.11248E-05-4.84724E-06-3.94839E-05 3.18103E-18 1.41920E-18
 -1      2565 3.17489E-05-2.11492E-05-4.14029E-06-2.66929E-05 2.69176E-18 3.78200E-19
 -1      2566 9.50383E-05-2.00103E-05-3.22039E-05-1.17703E-05-4.55029E-19-9.30810E-19
 -1      2567 9.54406E-05-2.33437E-05-3.09187E-05-7.96453E-06-4.20684E-19-8.46520E-19
 -1      2568 9.50287E-05-2.25610E-05-3.10470E-05-7.60333E-06-2.97024E-19-8.84699E-19
 -1      2569 9.32195E-05-1.76953E-05-3.23941E-05-1.13088E-05-3.27246E-19-9.44151E-19
 -1      2570 8.54861E-05-4.88616E-05-1.57155E-05-4.36717E-05 4.21907E-18 3.75439E-18
 -1      2571 1.02284E-04-5.20906E-05-2.16185E-05-4.22199E-05 3.65262E-18 2.00948E-18
 -1      2572 5.16122E-05-3.54963E-05-6.85226E-06 3.72330E-05-1.71524E-19 1.89079E-18
 -1      2573 3.46719E-05-2.68623E-05-3.11490E-06 2.71041E-05-6.93720E-19 1.39655E-18
 -1      2574 1.39816E-04-5.21166E-05-3.78087E-05 1.74108E-05-1.45012E-18-1.42958E-18
 -1      2575 1.28886E-04-5.55615E-05-3.14131E-05 2.42958E-05-5.41360E-19-2.28953E-18
 -1      2576 8.78832E-05-1.07877E-05-3.30768E-05-1.51674E-06 7.10370E-19-6.11644E-19
 -1      2577 8.79869E-05-1.09101E-05-3.30672E-05-2.63408E-06 5.52397E-19-6.96685E-19
 -1      2578 8.93820E-05-1.30760E-05-3.27045E-05-2.92441E-06 4.73842E-19-6.86441E-19
 -1      2579 8.91365E-05-1.27399E-05-3.27444E-05-9.39777E-07 7.29533E-19-5.17014E-19
 -1      2580 1.55006E-04-1.77733E-05-5.90307E-05 4.68218E-06 2.72109E-18 1.02470E-18
 -1      2581 1.51225E-04-1.61944E-05-5.84116E-05-1.87143E-06 3.09675E-18 4.63962E-19
 -1      2582 1.43745E-04-8.75568E-06-5.83892E-05-8.36167E-07-2.32045E-18-4.00276E-19
 -1      2583 1.46522E-04-1.14679E-05-5.81695E-05-3.03397E-06-2.83925E-18-1.36468E-18
 -1      2584 1.54482E-04-2.15234E-05-5.74871E-05-9.67628E-06 2.91506E-18 4.26587E-19
 -1      2585 1.56959E-04-2.93897E-05-5.48516E-05-1.21979E-05 2.43691E-18-1.96512E-19
 -1      2586 1.59496E-04-3.14575E-05-5.50206E-05 1.05152E-05 1.24217E-18 8.54868E-19
 -1      2587 1.57754E-04-2.33348E-05-5.81215E-05 9.51909E-06 1.66188E-18 1.45520E-18
 -1      2588 1.56365E-04-4.85766E-05-4.64656E-05 3.62635E-06 8.83349E-19 4.00858E-19
 -1      2589 1.61969E-04-4.12113E-05-5.19655E-05 7.20176E-06 1.19410E-18 1.21549E-18
 -1      2590 9.63079E-05-5.49655E-05-1.77813E-05-3.71209E-05-9.43383E-19-1.22237E-19
 -1      2591 1.14372E-04-5.92360E-05-2.37986E-05-3.30639E-05-7.90070E-19 3.99958E-19
 -1      2592 5.82594E-05-3.87718E-05-8.17529E-06-3.73503E-05-1.58861E-18-2.28593E-18
 -1      2593 7.75726E-05-4.70809E-05-1.30703E-05-4.11939E-05-1.32688E-18-1.25615E-18
 -1      2594 9.32350E-05-5.12950E-05-1.75821E-05-3.72873E-05-1.28961E-18-1.15144E-19
 -1      2595 2.63396E-05-2.20312E-05-1.54546E-06-1.85327E-05-9.22207E-19-3.22296E-18
 -1      2596 3.90507E-05-2.79088E-05-4.57171E-06-3.11849E-05-7.23154E-19-3.55966E-18
 -1      2597 1.81526E-05-1.71001E-05-2.37823E-07 9.44187E-06-6.91708E-19-5.47183E-19
 -1      2598 1.86920E-05-1.82406E-05 6.16772E-08-5.87994E-06-7.16378E-19-1.21549E-18
 -1      2599 3.92896E-05-2.62776E-05-5.37163E-06 3.66010E-05-9.04208E-19 6.36122E-19
 -1      2600 2.66051E-05-2.07126E-05-2.05807E-06 2.34079E-05-6.45439E-19-2.59827E-19
 -1      2601 7.62492E-05-4.45831E-05-1.35342E-05 4.64549E-05-8.08916E-19-7.37077E-19
 -1      2602 5.98391E-05-3.72104E-05-9.29678E-06 4.30655E-05-1.12317E-18 2.87991E-19
 -1      2603 1.14539E-04-5.57774E-05-2.53884E-05 3.68223E-05-1.15196E-19-2.73475E-18
 -1      2604 9.47753E-05-5.15326E-05-1.83894E-05 4.16262E-05-2.39287E-20-1.69031E-18
 -1      2605 9.40131E-05-4.99143E-05-1.85181E-05 4.14263E-05 2.72533E-19-1.35149E-18
 -1      2606 1.46644E-04-3.92327E-05-4.65498E-05 2.44365E-06-2.67620E-18-8.04893E-19
 -1      2607 1.43582E-04-4.63330E-05-4.19259E-05 8.69166E-06-2.39681E-18-1.11448E-18
 -1      2608 1.40232E-04-5.14917E-05-3.79509E-05 7.37880E-06-1.12291E-18-7.46024E-19
 -1      2609 1.41129E-04-4.83362E-05-3.99222E-05-1.25306E-05-7.61271E-19-1.85754E-18
 -1      2610 1.47855E-04-4.20013E-05-4.55990E-05-7.19164E-06-1.38580E-18-5.50148E-19
 -1      2611 1.43714E-04-1.42988E-05-5.59074E-05 5.07448E-06-1.44461E-18 2.35581E-19
 -1      2612 1.41955E-04-1.04024E-05-5.70358E-05 3.17756E-06-1.62080E-18-2.70839E-19
 -1      2613 1.53326E-04-5.76490E-05-4.14396E-05 5.33708E-06 2.19794E-18 1.51195E-19
 -1      2614 1.41345E-04-6.14803E-05-3.43218E-05 1.43357E-05 1.15482E-18 6.83767E-19
 -1      2615 1.47809E-04-3.18105E-05-4.99490E-05 3.51868E-07-1.89079E-18-7.00073E-19
 -1      2616 1.48181E-04-2.26909E-05-5.43057E-05 4.26255E-06-1.45351E-18 2.68298E-19
 -1      2617 1.36693E-04-1.81751E-05-5.10444E-05 8.21329E-06-1.54774E-18 1.13397E-19
 -1      2618 1.17606E-04-5.45337E-05-2.70192E-05-3.36132E-05 1.74404E-18-9.23901E-19
 -1      2619 1.32320E-04-5.42923E-05-3.37295E-05-2.50324E-05 1.98629E-19-3.05885E-18
 -1      2620 5.70032E-05-3.84774E-05-7.85397E-06-4.30091E-05 3.63991E-18 2.27174E-18
 -1      2621 6.95527E-05-4.28018E-05-1.14315E-05-4.60652E-05 3.57533E-18 3.31058E-18
 -1      2622 9.62856E-05-2.50785E-05-3.05428E-05 7.59666E-06 7.88032E-19 2.07064E-18
 -1      2623 9.74064E-05-2.37632E-05-3.15827E-05 1.06969E-05 8.25195E-19 2.26115E-18
 -1      2624 9.58508E-05-2.12914E-05-3.20099E-05 1.18983E-05 9.45216E-19 1.89007E-18
 -1      2625 9.58431E-05-2.41453E-05-3.07605E-05 7.68202E-06 8.22092E-19 1.64281E-18
 -1      2626 1.28235E-04-6.22572E-05-2.85440E-05 2.73147E-05 1.00352E-18 1.47680E-18
 -1      2627 1.11480E-04-5.92448E-05-2.23227E-05 3.24901E-05 6.47980E-20 9.77476E-19
 -1      2628 1.44157E-04-1.93094E-05-5.38888E-05-6.99045E-06 2.85641E-18-1.47754E-19
 -1      2629 9.08170E-05-1.50355E-05-3.24725E-05-6.79742E-06 6.69876E-20-1.12268E-18
 -1      2630 8.97217E-05-1.31760E-05-3.28572E-05-7.95689E-06 7.17290E-20-1.23399E-18
 -1      2631 9.03725E-05-1.39617E-05-3.28089E-05-9.12955E-06-2.05935E-20-1.24096E-18
 -1      2632 6.78512E-05-3.92064E-05-1.18136E-05 3.76693E-05-1.38956E-18 1.29035E-18
 -1      2633 9.42218E-05-1.90732E-05-3.22513E-05 1.16060E-05 1.05907E-18 1.45258E-18
 -1      2634 1.38496E-04-6.37707E-05-3.18104E-05 1.47107E-05 5.42313E-19 2.42569E-19
 -1      2635 5.53549E-05-3.40422E-05-8.76696E-06-4.15486E-05 3.65304E-18 1.63371E-18
 -1      2636 8.49864E-05-4.77079E-05-1.57105E-05-4.42482E-05 3.59862E-18 3.03344E-18
 -1      2637 1.52798E-04-5.44764E-05-4.21947E-05-6.78396E-06 2.39676E-18-1.42725E-19
 -1      2638 1.43190E-04-3.73206E-05-4.55142E-05 3.52876E-06-9.51430E-19-4.68833E-19
 -1      2639 1.32491E-04-5.68702E-05-3.22668E-05-1.83590E-05 1.19770E-18-1.40660E-18
 -1      2640 1.38107E-04-5.37624E-05-3.61492E-05-1.57587E-05 2.11811E-19-2.23977E-18
 -1      2641 1.39048E-04-5.17647E-05-3.77776E-05-5.60010E-06 5.11528E-20-1.02152E-18
 -1      2642 1.37542E-04-3.23769E-05-4.54871E-05-1.88058E-05 2.14035E-18-1.11681E-18
 -1      2643 9.54897E-05-2.81928E-05-2.88410E-05 9.82051E-07-1.46434E-18 2.68367E-18
 -1      2644 9.54104E-05-2.80305E-05-2.88783E-05 1.12899E-06-1.14755E-18 2.19517E-18
 -1      2645 1.25127E-04-5.80019E-05-2.85775E-05 2.62634E-05 4.96255E-19-1.49861E-18
 -1      2646 3.60630E-05-2.16593E-05-5.60802E-06 2.21531E-05-9.91876E-19 6.75932E-19
 -1      2647 1.06915E-04-5.68255E-05-2.11639E-05 3.37241E-05-1.19305E-18 9.76258E-19
 -1      2648 5.58200E-05-3.10588E-05-1.01692E-05 3.91394E-05-4.10176E-19 2.27005E-19
 -1      2649 9.47141E-05-2.69228E-05-2.90665E-05 1.86493E-06 3.43462E-19 1.07361E-18
 -1      2650 9.11420E-05-1.50034E-05-3.26839E-05-9.81600E-06-1.15259E-19-1.18970E-18
 -1      2651 9.21604E-05-1.62829E-05-3.25986E-05-1.08450E-05-2.62126E-19-1.10223E-18
 -1      2652 9.36524E-05-1.92038E-05-3.18917E-05-9.19859E-06-2.88547E-19-9.92484E-19
 -1      2653 9.20844E-05-1.68128E-05-3.22447E-05-8.30486E-06-1.15252E-19-1.05041E-18
 -1      2654 2.90232E-05-1.59550E-05-4.99925E-06 1.63034E-05-2.30711E-19-5.66030E-19
 -1      2655 9.46995E-05-2.05957E-05-3.17145E-05 9.67166E-06 9.64056E-19 1.27874E-18
 -1      2656 5.57078E-05-3.20108E-05-9.67192E-06-3.38538E-05-1.08505E-18-2.17582E-18
 -1      2657 1.39728E-04-1.38745E-05-5.42214E-05-5.33864E-06-3.32460E-18-8.17069E-19
 -1      2658 1.39104E-04-2.80403E-05-4.83966E-05-8.79090E-06-3.55828E-18 2.11758E-21
 -1      2659 1.45383E-04-3.42271E-05-4.77999E-05-3.08726E-06-3.15996E-18-9.35971E-20
 -1      2660 1.40032E-04-3.99213E-05-4.29909E-05-4.58634E-06-1.78237E-18 2.37593E-19
 -1      2661 1.54987E-04-5.60711E-05-4.24518E-05 8.26653E-07 3.83177E-19 4.20128E-19
 -1      2662 1.52396E-04-5.17048E-05-4.37086E-05 1.05924E-05 3.95776E-19 1.40459E-18
 -1      2663 1.48084E-04-5.98966E-05-3.78032E-05-2.44270E-06 1.57230E-20 7.37342E-19
 -1      2664 1.53041E-04-3.62859E-05-5.01733E-05 1.54993E-05 1.25615E-18 9.77476E-19
 -1      2665 1.27977E-04-6.29228E-05-2.78507E-05-2.45458E-05-7.73553E-19 2.04876E-19
 -1      2666 1.37847E-04-6.37825E-05-3.21517E-05-1.41609E-05-3.16579E-19 5.38395E-19
 -1      2667 1.22033E-04-6.12851E-05-2.56705E-05-2.60777E-05-9.53230E-19-2.54639E-20
 -1      2668 1.51671E-04-3.56437E-05-4.99653E-05-1.52497E-05 2.38270E-18 1.85500E-19
 -1      2669 1.32900E-04-8.11758E-06-5.38657E-05 2.17452E-06-2.00196E-18-1.61521E-18
 -1      2670 1.15012E-04-5.64679E-05-2.48112E-05-3.48554E-05 3.36971E-18-3.68248E-19
 -1      2671 1.45276E-04-2.04265E-05-5.37077E-05 1.00458E-05 2.25353E-18 1.18902E-19
 -1      2672 2.95692E-05-1.67986E-05-4.89488E-06-1.26684E-05-1.50137E-19-2.72745E-18
 -1      2673 9.55311E-05-2.83027E-05-2.88079E-05-9.16656E-07-6.39682E-19-5.17112E-20
 -1      2674 9.53656E-05-2.80831E-05-2.88372E-05-1.04352E-06-6.68891E-19 1.14026E-18
 -1      2675 9.53890E-05-2.80119E-05-2.88746E-05-1.29577E-06-1.54825E-18 2.00698E-18
 -1      2676 9.56721E-05-2.83454E-05-2.88495E-05-1.08778E-06-6.54111E-19 1.05971E-18
 -1      2677 9.54160E-05-2.78957E-05-2.89319E-05 1.44278E-06-8.67286E-19 1.69142E-18
 -1      2678 9.56186E-05-2.82216E-05-2.88874E-05-1.36340E-06-2.21266E-18 1.97737E-18
 -1      2679 9.05929E-05-1.51509E-05-3.23546E-05 3.18383E-06 7.99759E-19-3.91776E-19
 -1      2680 9.04039E-05-1.48778E-05-3.23886E-05 2.25209E-06 7.75195E-19-5.12374E-19
 -1      2681 9.02698E-05-1.46729E-05-3.24186E-05 1.41643E-06 7.60454E-19-6.31807E-19
 -1      2682 9.02047E-05-1.45797E-05-3.24301E-05 4.62256E-07 7.47660E-19-5.12832E-19
 -1      2683 9.14509E-05-1.65584E-05-3.20836E-05 1.63149E-06 6.74850E-19-6.05294E-19
 -1      2684 9.21626E-05-1.75386E-05-3.20194E-05 6.46031E-06 1.00139E-18 1.88028E-19
 -1      2685 9.16428E-05-1.67429E-05-3.21226E-05 5.62022E-06 1.05451E-18-3.67334E-20
 -1      2686 9.35712E-05-1.97695E-05-3.16706E-05 7.58734E-06 9.34448E-19 6.47036E-19
 -1      2687 9.27854E-05-1.85117E-05-3.18489E-05 7.00843E-06 9.39964E-19 4.51435E-19
 -1      2688 9.34542E-05-1.98528E-05-3.15209E-05 5.71692E-06 9.12647E-19 2.74065E-19
 -1      2689 9.45116E-05-2.14805E-05-3.13303E-05-7.67954E-06-2.85874E-19-9.34690E-19
 -1      2690 9.49323E-05-2.32067E-05-3.07393E-05-5.98125E-06-2.75765E-19-8.99969E-19
 -1      2691 9.37462E-05-2.01200E-05-3.15556E-05-7.54400E-06-2.68294E-19-9.66134E-19
 -1      2692 5.26925E-05-2.47112E-05-1.14852E-05-2.90594E-05-6.92661E-19-1.84399E-18
 -1      2693 7.01385E-05-3.55080E-05-1.45503E-05-3.61955E-05-1.27510E-18-6.04887E-19
 -1      2694 9.46912E-05-2.18988E-05-3.12035E-05 7.83483E-06 8.77536E-19 1.14401E-18
 -1      2695 1.38665E-04-4.24003E-05-4.15257E-05 4.00675E-06-1.32349E-21-1.08272E-18
 -1      2696 1.36767E-04-3.27554E-05-4.51893E-05 8.82451E-06-6.78050E-19-4.61209E-19
 -1      2697 8.09740E-05-4.39181E-05-1.54648E-05-4.28615E-05 3.15414E-18 3.11343E-18
 -1      2698 9.53230E-05-5.03946E-05-1.92328E-05-4.16653E-05 3.73309E-18 3.03730E-18
 -1      2699 9.53438E-05-2.58713E-05-2.97491E-05-2.67426E-06-3.30003E-19-7.07189E-19
 -1      2700 9.51932E-05-2.64546E-05-2.94693E-05-1.67541E-06-2.64081E-19-6.81109E-19
 -1      2701 9.52196E-05-2.69686E-05-2.92277E-05-9.20831E-07-1.79568E-19-6.92787E-19
 -1      2702 9.50922E-05-2.73157E-05-2.90527E-05-2.97581E-07-1.44968E-19-7.49546E-19
 -1      2703 9.54222E-05-2.62906E-05-2.96347E-05-1.55883E-06-2.96062E-19-7.52040E-19
 -1      2704 9.50614E-05-2.76120E-05-2.88911E-05 1.91731E-07-7.68192E-20-7.11499E-19
 -1      2705 9.49937E-05-2.78278E-05-2.87874E-05 5.68245E-07-6.57869E-20-6.34802E-19
 -1      2706 9.54249E-05-2.72622E-05-2.92203E-05-2.42376E-07-1.42088E-19-8.67772E-19
 -1      2707 9.49548E-05-2.80005E-05-2.86848E-05 8.69572E-07-1.85347E-19-4.76207E-19
 -1      2708 9.49412E-05-2.81367E-05-2.86304E-05 1.08869E-06-2.47579E-19-4.99436E-19
 -1      2709 9.53692E-05-2.78492E-05-2.89442E-05 6.03919E-07-1.64065E-19-6.30587E-19
 -1      2710 9.49107E-05-2.82326E-05-2.85706E-05 1.26696E-06-2.56126E-19-5.82800E-19
 -1      2711 9.49386E-05-2.83172E-05-2.85505E-05 1.39077E-06-4.90926E-19-4.95420E-19
 -1      2712 9.53121E-05-2.81945E-05-2.87705E-05 1.12470E-06-3.01619E-19-5.13967E-19
 -1      2713 9.49207E-05-2.83631E-05-2.85220E-05 1.49545E-06-5.50132E-19-3.44554E-19
 -1      2714 9.49788E-05-2.84126E-05-2.85259E-05 1.56763E-06-5.57916E-19-3.70464E-19
 -1      2715 9.52729E-05-2.83824E-05-2.86719E-05 1.43748E-06-3.55014E-19-1.98569E-19
 -1      2716 9.49734E-05-2.84249E-05-2.85201E-05 1.63550E-06-5.47194E-19-3.11139E-19
 -1      2717 9.50541E-05-2.84504E-05-2.85412E-05 1.68692E-06-5.83838E-19-1.75547E-19
 -1      2718 9.52560E-05-2.84643E-05-2.86285E-05 1.63175E-06-4.09294E-19 2.40221E-19
 -1      2719 9.50603E-05-2.84403E-05-2.85521E-05 1.74489E-06-6.54778E-19-3.27768E-20
 -1      2720 9.51598E-05-2.84505E-05-2.85859E-05 1.79721E-06-5.02254E-19 2.75142E-19
 -1      2721 9.52609E-05-2.84743E-05-2.86256E-05 1.77392E-06-3.98296E-19 4.62661E-19
 -1      2722 9.51780E-05-2.84269E-05-2.86091E-05 1.86444E-06-4.46338E-19 4.17044E-19
 -1      2723 9.52957E-05-2.84297E-05-2.86525E-05 1.93216E-06-1.70991E-19 3.02023E-19
 -1      2724 9.52877E-05-2.84371E-05-2.86525E-05 1.91222E-06-3.47445E-19 6.95992E-19
 -1      2725 9.53278E-05-2.84011E-05-2.86848E-05 2.02140E-06-1.35918E-19 6.44767E-20
 -1      2726 9.54663E-05-2.84050E-05-2.87358E-05 2.11275E-06-1.85776E-19 1.65376E-19
 -1      2727 9.53388E-05-2.83743E-05-2.87012E-05 2.08028E-06-3.51809E-19 4.40041E-19
 -1      2728 9.55169E-05-2.83808E-05-2.87745E-05 2.23082E-06-1.65855E-19 5.50424E-20
 -1      2729 9.56811E-05-2.83961E-05-2.88315E-05 2.34787E-06-2.59171E-20 1.48566E-19
 -1      2730 9.54213E-05-2.83073E-05-2.87652E-05 2.29901E-06-2.12422E-19 6.80182E-19
 -1      2731 9.57581E-05-2.83885E-05-2.88742E-05 2.49531E-06 2.25293E-20 1.07494E-19
 -1      2732 9.59556E-05-2.84281E-05-2.89355E-05 2.63307E-06-7.81824E-20 3.86580E-19
 -1      2733 9.55478E-05-2.82619E-05-2.88392E-05 2.57690E-06 3.69858E-20 6.38914E-19
 -1      2734 9.60716E-05-2.84533E-05-2.89798E-05 2.80305E-06-3.50159E-19 4.46422E-19
 -1      2735 9.63120E-05-2.85342E-05-2.90435E-05 2.94794E-06-6.14994E-19 2.46103E-19
 -1      2736 9.57391E-05-2.82709E-05-2.89180E-05 2.90876E-06-1.81848E-19 2.01748E-20
 -1      2737 9.64855E-05-2.86134E-05-2.90869E-05 3.12426E-06-7.80963E-19 1.31244E-19
 -1      2738 9.67805E-05-2.87564E-05-2.91503E-05 3.25201E-06-4.46026E-19 1.95064E-20
 -1      2739 9.60261E-05-2.83775E-05-2.89964E-05 3.27279E-06-7.38874E-19 3.36403E-19
 -1      2740 9.70367E-05-2.89168E-05-2.91905E-05 3.40648E-06-1.85866E-19-3.57886E-19
 -1      2741 9.73989E-05-2.91459E-05-2.92508E-05 3.47994E-06-5.83647E-20-5.10267E-19
 -1      2742 9.64524E-05-2.86373E-05-2.90696E-05 3.62612E-06-7.79953E-19 2.50002E-19
 -1      2743 9.77700E-05-2.94183E-05-2.92863E-05 3.56927E-06 2.71297E-20-7.17744E-19
 -1      2744 9.82107E-05-2.97567E-05-2.93406E-05 3.53706E-06 1.93330E-19-6.37553E-19
 -1      2745 9.70758E-05-2.91166E-05-2.91337E-05 3.89917E-06-6.65107E-20-8.06126E-20
 -1      2746 9.87325E-05-3.01700E-05-2.93720E-05 3.50020E-06 2.99332E-19-9.80784E-19
 -1      2747 9.92556E-05-3.06312E-05-2.94189E-05 3.29788E-06 3.56687E-19-1.02242E-18
 -1      2748 9.79645E-05-2.98843E-05-2.91886E-05 3.98962E-06 1.59729E-19-7.39947E-19
 -1      2749 9.99582E-05-3.11994E-05-2.94511E-05 3.05567E-06 5.06531E-19-9.38070E-19
 -1      2750 1.00550E-04-3.17706E-05-2.94923E-05 2.61253E-06 6.51793E-19-8.27576E-19
 -1      2751 9.91864E-05-3.09911E-05-2.92412E-05 3.75831E-06 3.24432E-19-1.12019E-18
 -1      2752 1.01439E-04-3.24699E-05-2.95367E-05 2.07408E-06 8.77986E-19-6.89344E-19
 -1      2753 1.02052E-04-3.30868E-05-2.95797E-05 1.33043E-06 7.06009E-19-7.61761E-19
 -1      2754 1.00780E-04-3.24289E-05-2.93102E-05 3.03264E-06 9.70158E-19-8.83220E-19
 -1      2755 1.03074E-04-3.38226E-05-2.96570E-05 4.13781E-07 8.16848E-19-3.78847E-19
 -1      2756 1.03610E-04-3.43391E-05-2.97163E-05-6.45650E-07 7.98348E-19-1.44926E-19
 -1      2757 1.02706E-04-3.40664E-05-2.94322E-05 1.62922E-06 1.20948E-18-5.98910E-19
 -1      2758 1.04612E-04-3.49104E-05-2.98558E-05-1.96178E-06 2.66772E-19-7.16242E-19
 -1      2759 1.04910E-04-3.50879E-05-2.99518E-05-3.25249E-06 2.45927E-19-1.20019E-18
 -1      2760 1.04764E-04-3.55640E-05-2.96638E-05-5.82450E-07 4.69265E-19-2.07211E-19
 -1      2761 1.05619E-04-3.51888E-05-3.01852E-05-4.83793E-06 4.61236E-21-1.40687E-18
 -1      2762 1.05500E-04-3.47470E-05-3.03371E-05-6.11400E-06-6.85518E-19-1.53682E-18
 -1      2763 1.06525E-04-3.63243E-05-3.00744E-05-3.53509E-06-2.82527E-19-1.43074E-18
 -1      2764 1.05582E-04-3.40614E-05-3.06807E-05-7.59179E-06-5.18209E-19-1.19654E-18
 -1      2765 1.04941E-04-3.28237E-05-3.08931E-05-8.42643E-06 1.27009E-19-1.34192E-18
 -1      2766 1.07364E-04-3.56046E-05-3.07206E-05-6.75936E-06-5.17607E-19-9.90146E-19
 -1      2767 1.04193E-04-3.12409E-05-3.13233E-05-9.14968E-06 5.71812E-19-1.41716E-18
 -1      2768 1.03144E-04-2.93797E-05-3.15682E-05-9.02804E-06-1.01823E-19-1.28227E-18
 -1      2769 1.06702E-04-3.28716E-05-3.15979E-05-9.22413E-06 2.64197E-19-1.01236E-18
 -1      2770 1.01826E-04-2.73222E-05-3.19963E-05-8.34180E-06 4.76510E-20-7.67763E-19
 -1      2771 1.00769E-04-2.54843E-05-3.22064E-05-6.98236E-06 2.53895E-19-7.11650E-19
 -1      2772 1.04569E-04-2.85014E-05-3.25814E-05-9.48238E-06 4.93622E-19-8.18082E-19
 -1      2773 9.95918E-05-2.38467E-05-3.24954E-05-4.71086E-06 8.92603E-20-1.81187E-19
 -1      2774 9.90767E-05-2.29484E-05-3.25921E-05-2.33855E-06-1.47392E-19 7.30777E-19
 -1      2775 1.01949E-04-2.40146E-05-3.34092E-05-6.53868E-06 3.87904E-19 3.88876E-19
 -1      2776 9.89099E-05-2.27274E-05-3.26320E-05 7.33782E-07-5.09824E-19 8.09034E-19
 -1      2777 9.92100E-05-2.32429E-05-3.25766E-05 3.23744E-06-1.04639E-18 8.67680E-19
 -1      2778 1.00553E-04-2.17816E-05-3.37881E-05-9.12661E-07-3.28643E-19 5.76744E-19
 -1      2779 1.00146E-04-2.45366E-05-3.23482E-05 5.84674E-06-1.55851E-18 6.89062E-19
 -1      2780 1.01099E-04-2.61969E-05-3.21602E-05 7.55747E-06-1.30227E-18 8.98503E-19
 -1      2781 1.01368E-04-2.30857E-05-3.35722E-05 5.09709E-06-1.27882E-18 7.40581E-19
 -1      2782 1.02479E-04-2.82513E-05-3.17554E-05 8.70555E-06-1.24655E-18 7.56833E-19
 -1      2783 1.03572E-04-3.01815E-05-3.15134E-05 9.16760E-06-1.21581E-18 7.90850E-19
 -1      2784 1.03796E-04-2.71241E-05-3.28393E-05 8.96983E-06-1.12870E-18 1.52916E-18
 -1      2785 1.04531E-04-3.19649E-05-3.10758E-05 8.80110E-06-7.22076E-19 7.68019E-19
 -1      2786 1.05316E-04-3.34220E-05-3.08507E-05 8.18847E-06-4.13795E-19 1.06726E-18
 -1      2787 1.06207E-04-3.17419E-05-3.18723E-05 9.54100E-06-1.13262E-18 1.82380E-18
 -1      2788 1.05468E-04-3.43745E-05-3.04782E-05 6.85120E-06-6.64042E-19 1.16206E-18
 -1      2789 1.05733E-04-3.50384E-05-3.03080E-05 5.64730E-06-5.64075E-19 1.33501E-18
 -1      2790 1.07345E-04-3.50443E-05-3.09526E-05 7.57621E-06-5.72663E-19 1.50555E-18
 -1      2791 1.05168E-04-3.51317E-05-3.00429E-05 4.03670E-06-5.47097E-21 1.10239E-18
 -1      2792 1.04969E-04-3.51002E-05-2.99322E-05 2.71618E-06-2.51804E-19 1.48618E-18
 -1      2793 1.06893E-04-3.63117E-05-3.02347E-05 4.43011E-06-2.35036E-19 2.24513E-18
 -1      2794 1.04017E-04-3.46263E-05-2.97689E-05 1.30148E-06-5.45271E-19 8.99541E-19
 -1      2795 1.03530E-04-3.41760E-05-2.97016E-05 1.62701E-07-6.83590E-20 3.21227E-19
 -1      2796 1.05322E-04-3.58890E-05-2.97603E-05 1.32634E-06-5.47621E-19 4.84018E-19
 -1      2797 1.02493E-04-3.34597E-05-2.96108E-05-8.67951E-07 2.26905E-19 2.80852E-19
 -1      2798 1.01889E-04-3.28498E-05-2.95657E-05-1.70056E-06 5.29407E-19 5.33736E-20
 -1      2799 1.03294E-04-3.45249E-05-2.94861E-05-1.11253E-06 1.29920E-19 1.12932E-18
 -1      2800 1.00953E-04-3.21229E-05-2.95163E-05-2.33589E-06 8.49117E-19-4.33842E-19
 -1      2801 1.00348E-04-3.15247E-05-2.94772E-05-2.85419E-06 9.40307E-19-2.67421E-19
 -1      2802 1.01302E-04-3.28758E-05-2.93424E-05-2.73184E-06 3.93860E-19 5.86146E-19
 -1      2803 9.95916E-05-3.09088E-05-2.94459E-05-3.16362E-06 6.37491E-19-2.51191E-19
 -1      2804 9.90476E-05-3.04068E-05-2.94037E-05-3.41738E-06 1.50953E-19-1.33285E-19
 -1      2805 9.96038E-05-3.13488E-05-2.92677E-05-3.62012E-06 7.86094E-19-1.05721E-18
 -1      2806 9.84767E-05-2.99414E-05-2.93770E-05-3.49075E-06 6.43897E-19-4.76235E-19
 -1      2807 9.80153E-05-2.95597E-05-2.93290E-05-3.54805E-06 6.33474E-19-4.42940E-20
 -1      2808 9.82772E-05-3.01257E-05-2.92203E-05-3.95130E-06 5.15353E-20-1.66246E-18
 -1      2809 9.76045E-05-2.92378E-05-2.93007E-05-3.46708E-06 1.08152E-19 3.11014E-19
 -1      2810 9.72257E-05-2.89673E-05-2.92482E-05-3.39282E-06 4.15775E-20-4.97277E-19
 -1      2811 9.72990E-05-2.92403E-05-2.91774E-05-3.90138E-06 3.71398E-19-3.08272E-18
 -1      2812 9.69386E-05-2.87610E-05-2.92171E-05-3.22146E-06 1.24804E-19 2.88811E-19
 -1      2813 9.66329E-05-2.85788E-05-2.91631E-05-3.06806E-06 1.40976E-18-1.10178E-19
 -1      2814 9.66048E-05-2.86505E-05-2.91300E-05-3.61563E-06 5.83127E-19-1.72166E-18
 -1      2815 9.64341E-05-2.84549E-05-2.91307E-05-2.85138E-06 1.67914E-18-7.10053E-19
 -1      2816 9.61886E-05-2.83350E-05-2.90788E-05-2.65632E-06 8.89328E-19 3.37973E-19
 -1      2817 9.61222E-05-2.82857E-05-2.90775E-05-3.20139E-06 1.14857E-18-1.77237E-18
 -1      2818 9.60487E-05-2.82630E-05-2.90473E-05-2.42285E-06 3.88623E-19-2.77131E-19
 -1      2819 9.58509E-05-2.81823E-05-2.90003E-05-2.20984E-06 5.55445E-20-5.11980E-19
 -1      2820 9.57866E-05-2.80732E-05-2.90231E-05-2.73023E-06 7.90664E-20-2.38320E-18
 -1      2821 9.57465E-05-2.81376E-05-2.89718E-05-1.97613E-06-2.59648E-19 7.24094E-19
 -1      2822 9.55876E-05-2.80780E-05-2.89318E-05-1.75753E-06-7.66526E-19 3.11440E-19
 -1      2823 9.55457E-05-2.79513E-05-2.89714E-05-2.24494E-06 5.44006E-19-2.15244E-18
 -1      2824 9.45283E-05-2.80714E-05-2.84800E-05-1.05271E-06 6.26996E-19 6.92160E-19
 -1      2825 9.45263E-05-2.79509E-05-2.85212E-05-8.45351E-07 6.19800E-19 6.53631E-19
 -1      2826 9.51493E-05-2.74973E-05-2.89948E-05 1.90954E-06-6.09191E-19-9.91750E-19
 -1      2827 9.54708E-05-2.78541E-05-2.89742E-05 1.74624E-06-1.20507E-19 1.66838E-18
 -1      2828 9.56416E-05-2.78586E-05-2.90382E-05 2.05391E-06 2.44062E-19 1.52628E-18
 -1      2829 9.45784E-05-2.78083E-05-2.86157E-05-5.40811E-07 4.72331E-19 5.21155E-19
 -1      2830 9.46548E-05-2.76268E-05-2.87079E-05-1.75199E-07 3.43772E-19 5.61889E-19
 -1      2831 9.50345E-05-2.78467E-05-2.88035E-05-5.82722E-07 5.52140E-19 4.11394E-19
 -1      2832 9.46602E-05-2.83303E-05-2.84238E-05-1.51190E-06 4.36365E-19 1.08302E-18
 -1      2833 9.45652E-05-2.82772E-05-2.84064E-05-1.44584E-06 7.10976E-19 9.30744E-19
 -1      2834 9.48048E-05-2.83765E-05-2.84652E-05-1.63002E-06 6.28303E-19 8.44064E-19
 -1      2835 9.46828E-05-2.83447E-05-2.84301E-05-1.57922E-06 5.16458E-19 1.04545E-18
 -1      2836 9.49988E-05-2.83991E-05-2.85467E-05-1.61623E-06 4.90284E-19 9.02934E-19
 -1      2837 9.49861E-05-2.83833E-05-2.85390E-05-1.75338E-06 3.96277E-19 9.14182E-19
 -1      2838 9.48422E-05-2.83687E-05-2.84896E-05-1.69263E-06 6.56003E-19 8.75755E-19
 -1      2839 9.50627E-05-2.84095E-05-2.85687E-05-1.76390E-06 6.18810E-19 8.89178E-19
 -1      2840 9.51991E-05-2.83561E-05-2.86407E-05-1.92692E-06 1.69668E-19 9.19246E-19
 -1      2841 9.50340E-05-2.83562E-05-2.85783E-05-1.83538E-06 2.94585E-19 8.98758E-19
 -1      2842 9.51494E-05-2.83642E-05-2.86246E-05-1.92332E-06 4.09215E-19 8.91454E-19
 -1      2843 9.54428E-05-2.82967E-05-2.87692E-05-2.18972E-06 1.35882E-19 6.92716E-19
 -1      2844 9.52540E-05-2.83101E-05-2.86932E-05-2.04875E-06 1.73968E-19 8.04456E-19
 -1      2845 9.52519E-05-2.82686E-05-2.87090E-05-2.14109E-06 3.21289E-19 5.72924E-19
 -1      2846 9.57187E-05-2.82038E-05-2.89254E-05-2.57845E-06 2.08463E-19 2.80393E-19
 -1      2847 9.55011E-05-2.82302E-05-2.88343E-05-2.36999E-06 1.95536E-19 3.63111E-19
 -1      2848 9.53636E-05-2.81226E-05-2.88189E-05-2.45767E-06 2.75124E-19 7.41653E-19
 -1      2849 9.60284E-05-2.80737E-05-2.91116E-05-3.12978E-06-2.58560E-20 2.22543E-19
 -1      2850 9.57754E-05-2.81134E-05-2.90030E-05-2.83531E-06 3.79965E-21 4.13634E-19
 -1      2851 9.54764E-05-2.79216E-05-2.89529E-05-2.91048E-06 7.26489E-20 2.28386E-19
 -1      2852 9.63724E-05-2.79016E-05-2.93302E-05-3.88141E-06 4.23701E-19-2.68438E-19
 -1      2853 9.60767E-05-2.79546E-05-2.92015E-05-3.48167E-06 2.04623E-19 1.22022E-19
 -1      2854 9.55794E-05-2.76571E-05-2.91094E-05-3.53600E-06 1.68374E-19 4.33253E-19
 -1      2855 9.67491E-05-2.76850E-05-2.95816E-05-4.87135E-06 5.17954E-19 7.47198E-20
 -1      2856 9.64025E-05-2.77490E-05-2.94310E-05-4.34727E-06 4.28641E-19-3.52166E-19
 -1      2857 9.56564E-05-2.73196E-05-2.92856E-05-4.37062E-06 1.18921E-19-3.47285E-20
 -1      2858 9.71562E-05-2.74314E-05-2.98616E-05-6.13390E-06-1.17380E-19 5.91785E-19
 -1      2859 9.67488E-05-2.74971E-05-2.96897E-05-5.46981E-06 4.55738E-19 5.13171E-19
 -1      2860 9.56864E-05-2.69035E-05-2.94748E-05-5.44983E-06 1.14332E-19 6.30513E-20
 -1      2861 9.75985E-05-2.71761E-05-3.01577E-05-7.69054E-06-1.10066E-18 3.77557E-19
 -1      2862 9.71150E-05-2.72173E-05-2.99690E-05-6.88108E-06-6.40475E-19 6.38571E-19
 -1      2863 9.56468E-05-2.64189E-05-2.96629E-05-6.80540E-06-5.61667E-19 1.17119E-19
 -1      2864 9.81108E-05-2.70155E-05-3.04435E-05-9.53243E-06-5.71344E-19 4.10100E-19
 -1      2865 9.75184E-05-2.69702E-05-3.02497E-05-8.59577E-06-1.17858E-18 1.46246E-19
 -1      2866 9.55271E-05-2.59167E-05-2.98244E-05-8.45992E-06-9.32059E-19 2.31710E-19
 -1      2867 9.88072E-05-2.71673E-05-3.06747E-05-1.15910E-05-1.82038E-19 1.31765E-18
 -1      2868 9.80308E-05-2.69055E-05-3.04967E-05-1.05911E-05-5.82989E-20 9.50629E-19
 -1      2869 9.53617E-05-2.55330E-05-2.99174E-05-1.04187E-05-5.10233E-19 1.93834E-19
 -1      2870 9.99776E-05-2.80642E-05-3.07896E-05-1.36912E-05-1.84266E-19 9.59913E-19
 -1      2871 9.88532E-05-2.73392E-05-3.06565E-05-1.27722E-05 5.02853E-21 1.43799E-18
 -1      2872 9.52983E-05-2.55668E-05-2.98812E-05-1.26589E-05 1.32652E-19 1.36831E-18
 -1      2873 1.02238E-04-3.04528E-05-3.07316E-05-1.54671E-05-1.27383E-19 6.45049E-19
 -1      2874 1.00451E-04-2.88623E-05-3.06669E-05-1.49055E-05-9.37072E-20 5.61161E-19
 -1      2875 9.57319E-05-2.65985E-05-2.96434E-05-1.51067E-05-1.78828E-20 6.26146E-19
 -1      2876 1.06669E-04-3.53652E-05-3.05202E-05-1.62161E-05-1.14375E-18 3.93125E-19
 -1      2877 1.03729E-04-3.24090E-05-3.05017E-05-1.64903E-05-6.51329E-19 6.41263E-19
 -1      2878 9.74987E-05-2.95884E-05-2.91594E-05-1.75624E-05-3.04361E-19 7.14671E-19
 -1      2879 1.14687E-04-4.35884E-05-3.04396E-05-1.46284E-05-1.14547E-18 6.02755E-19
 -1      2880 1.10142E-04-3.90872E-05-3.02922E-05-1.64890E-05-1.05392E-18 4.67764E-19
 -1      2881 1.02105E-04-3.58546E-05-2.85155E-05-1.94876E-05-1.10642E-18 7.95152E-19
 -1      2882 1.26870E-04-5.36354E-05-3.14017E-05-8.60265E-06-4.04141E-19 5.15962E-19
 -1      2883 1.21185E-04-4.90933E-05-3.06646E-05-1.28160E-05-1.24434E-18 3.30402E-19
 -1      2884 1.11686E-04-4.61843E-05-2.82386E-05-1.94362E-05-1.08940E-18 3.66329E-19
 -1      2885 1.47130E-04-4.65949E-05-4.33471E-05 1.53699E-05 6.17116E-19 1.11893E-18
 -1      2886 1.46247E-04-5.50737E-05-3.92971E-05 1.18659E-05 3.89701E-19 1.43254E-18
 -1      2887 1.36417E-04-2.72576E-05-4.72324E-05 1.58326E-05 1.38892E-18 7.91976E-19
 -1      2888 1.31845E-04-2.04260E-05-4.83075E-05-3.06626E-06 2.95043E-18-4.92060E-19
 -1      2889 1.08714E-04-3.69270E-05-3.06424E-05 1.63022E-05-1.28605E-18-2.59561E-20
 -1      2890 1.12667E-04-4.09144E-05-3.07422E-05 1.49007E-05-1.64932E-18-5.37125E-19
 -1      2891 1.03322E-04-3.13554E-05-3.08006E-05 1.58894E-05-1.35323E-18 1.29933E-18
 -1      2892 1.05880E-04-3.38243E-05-3.08562E-05 1.58619E-05-1.18049E-18 7.99454E-19
 -1      2893 1.01333E-04-3.39301E-05-2.89997E-05 1.86996E-05-1.78328E-18-2.13068E-19
 -1      2894 1.00549E-04-2.85438E-05-3.08531E-05 1.41709E-05-1.73306E-18 1.82371E-18
 -1      2895 1.02147E-04-2.98214E-05-3.09684E-05 1.48411E-05-1.00251E-18 1.49169E-18
 -1      2896 9.76017E-05-2.87514E-05-2.95478E-05 1.67227E-05-1.38792E-18 8.30059E-20
 -1      2897 9.91090E-05-2.73937E-05-3.07431E-05 1.20357E-05-1.04320E-18 1.89435E-18
 -1      2898 1.00166E-04-2.79646E-05-3.09158E-05 1.29853E-05-1.36139E-18 2.28643E-18
 -1      2899 9.61950E-05-2.64516E-05-2.98982E-05 1.43382E-05-1.09681E-18 2.47574E-19
 -1      2900 9.82789E-05-2.71019E-05-3.05167E-05 9.90198E-06-7.81887E-19-5.92079E-19
 -1      2901 9.90454E-05-2.73067E-05-3.07184E-05 1.08921E-05-8.91840E-19 5.30987E-19
 -1      2902 9.58178E-05-2.57477E-05-3.00258E-05 1.19674E-05-8.25677E-20 5.28603E-19
 -1      2903 9.77056E-05-2.71886E-05-3.02333E-05 7.96974E-06-6.09684E-19-1.18026E-19
 -1      2904 9.83056E-05-2.72264E-05-3.04374E-05 8.87893E-06-1.14911E-18-5.33059E-19
 -1      2905 9.58098E-05-2.58197E-05-2.99880E-05 9.79099E-06-5.68309E-19-2.35287E-18
 -1      2906 9.72371E-05-2.73995E-05-2.99400E-05 6.31408E-06-4.25715E-19-3.20767E-19
 -1      2907 9.77275E-05-2.73745E-05-3.01288E-05 7.09512E-06-5.61156E-19-1.78072E-19
 -1      2908 9.58708E-05-2.61993E-05-2.98525E-05 7.88664E-06-7.71328E-19-2.33281E-18
 -1      2909 9.68212E-05-2.76174E-05-2.96660E-05 4.94040E-06 2.22019E-18 6.26469E-19
 -1      2910 9.72281E-05-2.75783E-05-2.98305E-05 5.58669E-06 9.78562E-19 7.82341E-20
 -1      2911 9.58902E-05-2.66419E-05-2.96735E-05 6.27158E-06 1.57276E-19-2.07285E-18
 -1      2912 9.64472E-05-2.77958E-05-2.94265E-05 3.82096E-06 2.04135E-18 1.62092E-18
 -1      2913 9.67828E-05-2.77629E-05-2.95637E-05 4.34556E-06 2.29103E-18 1.92261E-18
 -1      2914 9.58483E-05-2.70406E-05-2.94870E-05 4.93037E-06 1.19874E-18 1.89443E-19
 -1      2915 9.61206E-05-2.79188E-05-2.92278E-05 2.91532E-06 2.53316E-18 1.95038E-18
 -1      2916 9.63889E-05-2.79026E-05-2.93376E-05 3.33358E-06 2.31627E-18 1.55480E-18
 -1      2917 9.57508E-05-2.73551E-05-2.93139E-05 3.83199E-06 2.27350E-18 1.00266E-18
 -1      2918 9.57571E-05-2.78897E-05-2.90810E-05 2.29285E-06 9.88917E-19 2.44607E-18
 -1      2919 9.59631E-05-2.78823E-05-2.91648E-05 2.64355E-06 2.42696E-18 1.66296E-18
 -1      2920 9.55116E-05-2.74677E-05-2.91718E-05 3.04300E-06 2.49945E-18 1.25576E-18
 -1      2921 9.52530E-05-2.74531E-05-2.90730E-05 2.48382E-06 1.17929E-18-1.08248E-18
 -1      2922 9.36966E-05-2.60327E-05-2.90011E-05-8.56969E-08 1.69798E-18 2.08127E-19
 -1      2923 9.36873E-05-2.60227E-05-2.90034E-05 2.15513E-07 2.41382E-18-1.40384E-18
 -1      2924 9.55352E-05-2.80582E-05-2.89153E-05-1.60087E-06-1.34223E-18 1.02785E-18
 -1      2925 9.54432E-05-2.80276E-05-2.88911E-05-1.44974E-06-1.35240E-18 1.54066E-18
 -1      2926 9.53918E-05-2.78891E-05-2.89321E-05-1.84134E-06-3.41234E-19-2.59902E-18
 -1      2927 9.39057E-05-2.62281E-05-2.90114E-05 1.17134E-06 1.41745E-18 1.96478E-18
 -1      2928 9.40617E-05-2.63806E-05-2.90053E-05 1.40181E-06 1.92522E-18-6.02900E-19
 -1      2929 9.38355E-05-2.61935E-05-2.89895E-05-6.96855E-07 9.01335E-19 1.69414E-18
 -1      2930 9.37538E-05-2.61088E-05-2.89964E-05-4.23396E-07 1.11893E-18 1.46933E-18
 -1      2931 9.35052E-05-2.59361E-05-2.89525E-05-3.13707E-07 1.66235E-18-2.41125E-19
 -1      2932 9.37142E-05-2.60388E-05-2.90083E-05 5.67317E-07 8.05078E-19-1.59860E-18
 -1      2933 9.37877E-05-2.61113E-05-2.90061E-05 8.55132E-07 1.27436E-18 1.88416E-18
 -1      2934 9.36360E-05-2.60063E-05-2.89774E-05 1.11436E-06 1.27304E-18 1.43481E-18
 -1      2935 9.34696E-05-2.58733E-05-2.89632E-05 4.09918E-07 9.48051E-19-5.82018E-19
 -1      2936 9.47298E-05-2.73827E-05-2.88654E-05 3.29295E-07 3.54690E-19 6.06015E-19
 -1      2937 9.49072E-05-2.70959E-05-2.90333E-05 9.50526E-07 4.05929E-19 7.66250E-19
 -1      2938 9.51410E-05-2.73356E-05-2.90696E-05 2.92982E-07 4.43655E-19 4.58258E-19
 -1      2939 9.40922E-05-2.64820E-05-2.89739E-05-1.18515E-06 7.43792E-19-5.57360E-19
 -1      2940 9.39578E-05-2.63408E-05-2.89849E-05-9.74812E-07 4.68473E-19 1.45842E-18
 -1      2941 9.37127E-05-2.61648E-05-2.89449E-05-9.56991E-07 9.52763E-19 7.69556E-19
 -1      2942 9.44352E-05-2.68666E-05-2.89548E-05-1.51787E-06 1.45654E-18-2.28417E-18
 -1      2943 9.42624E-05-2.66817E-05-2.89692E-05-1.38474E-06 1.69815E-18-1.68713E-18
 -1      2944 9.40484E-05-2.65176E-05-2.89393E-05-1.45413E-06 8.36508E-19-6.70580E-19
 -1      2945 9.48180E-05-2.73015E-05-2.89332E-05-1.65548E-06 9.16531E-19-2.14885E-19
 -1      2946 9.46329E-05-2.70946E-05-2.89498E-05-1.61846E-06 1.24961E-18-8.99618E-19
 -1      2947 9.44677E-05-2.69506E-05-2.89350E-05-1.76447E-06 1.07562E-18-1.60145E-18
 -1      2948 2.84720E-05-1.19376E-05-6.63485E-06 2.14184E-06 9.14968E-19 6.56239E-19
 -1      2949 2.84183E-05-1.29991E-05-6.03599E-06-1.09630E-05 1.85209E-18 1.02279E-18
 -1      2950 1.37592E-04-4.86748E-05-3.85792E-05 6.43359E-07-3.38284E-19 1.35525E-19
 -1      2951 1.35442E-04-5.37099E-05-3.50705E-05 6.99044E-06 2.49279E-19 1.41243E-19
 -1      2952 3.22764E-05-1.59002E-05-6.48380E-06-2.06257E-05 2.26740E-18 1.01009E-19
 -1      2953 4.11620E-05-2.10427E-05-8.16103E-06-3.14530E-05 2.85588E-18-4.13352E-19
 -1      2954 3.79067E-05-1.35876E-05-9.76617E-06-1.55210E-05 2.16560E-18 2.01170E-19
 -1      2955 1.17094E-04-5.93214E-05-2.50058E-05 2.82308E-05-1.91821E-18 1.23429E-18
 -1      2956 9.94550E-05-5.13111E-05-2.00962E-05 3.38623E-05-2.61288E-18 5.38210E-19
 -1      2957 4.68564E-05-2.26400E-05-1.00162E-05 2.82149E-05-1.45287E-18-5.86994E-19
 -1      2958 3.56960E-05-1.54260E-05-8.05120E-06 1.58321E-05-4.50092E-19-4.81962E-19
 -1      2959 1.29503E-04-1.03989E-05-5.17232E-05-6.86001E-06-2.26137E-18-1.80624E-18
 -1      2960 1.35311E-04-1.77071E-05-5.07694E-05-9.39615E-06-3.49782E-18-7.28342E-19
 -1      2961 3.68116E-05-1.52572E-05-8.83588E-06 2.14576E-05-3.23461E-20-5.95464E-19
 -1      2962 3.02662E-05-1.18911E-05-7.23401E-06 7.25942E-06 2.92557E-19-9.50371E-19
 -1      2963 1.18217E-04-4.57738E-05-3.07934E-05 1.36127E-05-1.84248E-18-5.84906E-19
 -1      2964 1.23378E-04-5.05552E-05-3.12232E-05 1.01285E-05-1.54435E-18-5.28722E-19
 -1      2965 1.09392E-04-4.30956E-05-2.86035E-05 1.90544E-05-1.84288E-18-1.95545E-19
 -1      2966 1.29693E-04-5.77844E-05-3.11842E-05 1.75788E-05 1.40449E-19 2.45322E-19
 -1      2967 1.18661E-04-5.69302E-05-2.61230E-05 2.72692E-05 5.63912E-19-1.30898E-18
 -1      2968 9.45625E-05-2.82346E-05-2.84238E-05-1.34359E-06 8.89464E-19 6.91285E-19
 -1      2969 9.45054E-05-2.81535E-05-2.84304E-05-1.22945E-06 7.56826E-19 8.03823E-19
 -1      2970 9.49754E-05-2.81500E-05-2.86463E-05-1.11118E-06 6.59817E-19 6.09192E-19
 -1      2971 9.49663E-05-2.83204E-05-2.85678E-05-1.42316E-06 6.05282E-19 9.32666E-19
 -1      2972 9.52936E-05-2.43078E-05-3.04106E-05-4.92520E-06-1.82112E-19-8.97677E-19
 -1      2973 9.51951E-05-2.52336E-05-2.99962E-05-3.47286E-06-2.39786E-19-8.24081E-19
 -1      2974 9.52479E-05-2.49151E-05-3.01392E-05-3.21912E-06-2.30118E-19-8.51769E-19
 -1      2975 9.48731E-05-2.32375E-05-3.07070E-05-5.09324E-06-2.29850E-19-9.36244E-19
 -1      2976 8.00551E-05-4.23275E-05-1.61581E-05 3.77807E-05-2.26211E-18 2.03182E-19
 -1      2977 6.23723E-05-3.20717E-05-1.23981E-05 3.41567E-05-2.12732E-18-1.43466E-19
 -1      2978 9.12059E-05-1.60708E-05-3.22286E-05 4.90340E-06 1.03841E-18-1.23252E-19
 -1      2979 9.08663E-05-1.55703E-05-3.22916E-05 3.98210E-06 9.07770E-19-2.98670E-19
 -1      2980 9.18416E-05-1.71706E-05-3.19863E-05 3.18253E-06 7.77096E-19-2.47281E-19
 -1      2981 9.25065E-05-1.82375E-05-3.18093E-05 4.59636E-06 9.22789E-19-2.49081E-20
 -1      2982 1.23671E-04-8.49991E-06-4.99564E-05 4.05679E-06-2.17539E-18-1.44199E-18
 -1      2983 1.25368E-04-7.49453E-06-5.11390E-05-1.70162E-06-2.39202E-18-1.54127E-18
 -1      2984 8.70334E-05-4.54006E-05-1.74109E-05-3.61097E-05-1.50041E-18 1.36584E-20
 -1      2985 1.03647E-04-5.37134E-05-2.13703E-05-3.40170E-05-1.14201E-18-6.12511E-20
 -1      2986 9.52890E-05-2.78509E-05-2.89019E-05-1.52318E-06-8.99259E-19-9.48472E-19
 -1      2987 9.49695E-05-2.66656E-05-2.92791E-05 1.74662E-06 4.81209E-19 7.76398E-19
 -1      2988 9.52305E-05-2.61687E-05-2.95616E-05 2.77062E-06 4.61317E-19 9.72023E-19
 -1      2989 9.52589E-05-2.64789E-05-2.94870E-05 1.68641E-06 4.70833E-19 5.10582E-19
 -1      2990 1.03625E-04-5.28284E-05-2.19849E-05 3.72842E-05 3.83494E-19-1.83375E-18
 -1      2991 8.79564E-05-4.50804E-05-1.78463E-05 4.02156E-05-3.40613E-19-6.70003E-19
 -1      2992 9.08271E-05-1.55189E-05-3.22968E-05-3.92022E-06 3.18601E-19-8.23794E-19
 -1      2993 9.11601E-05-1.60090E-05-3.22356E-05-4.84401E-06 2.23664E-19-9.36625E-19
 -1      2994 1.09179E-04-5.54112E-05-2.28050E-05-3.57285E-05 4.05856E-18 1.59380E-18
 -1      2995 1.21520E-04-5.77621E-05-2.74629E-05-2.85561E-05 1.89767E-18-2.13929E-19
 -1      2996 5.29064E-05-2.91780E-05-9.66541E-06-3.85693E-05 3.54589E-18 1.16996E-18
 -1      2997 6.61568E-05-3.68041E-05-1.23326E-05-4.33763E-05 3.40973E-18 2.81744E-18
 -1      2998 3.03268E-05-1.22973E-05-7.18703E-06-5.13821E-06 8.12238E-19-9.88487E-19
 -1      2999 3.78797E-05-1.63539E-05-8.64593E-06-1.81379E-05 3.39501E-19-3.32482E-18
 -1      3000 1.32491E-04-2.33527E-05-4.71739E-05 1.14052E-05-1.32031E-18 2.83015E-19
 -1      3001 1.27041E-04-1.51734E-05-4.86084E-05 1.00593E-05-1.22989E-18 7.88270E-20
 -1      3002 1.41639E-04-6.23543E-05-3.43270E-05 5.51969E-06 2.73592E-19-1.12486E-18
 -1      3003 1.31791E-04-6.23872E-05-2.94361E-05 1.64108E-05-3.94082E-19-1.99794E-19
 -1      3004 6.90355E-05-3.50349E-05-1.44159E-05 4.11903E-05-4.64174E-19-9.37030E-20
 -1      3005 5.15526E-05-2.40413E-05-1.12122E-05 3.36534E-05-1.93335E-19 2.99532E-19
 -1      3006 1.36662E-04-1.84264E-05-5.12608E-05-5.77313E-06 3.26298E-18-7.26992E-19
 -1      3007 1.40018E-04-2.38848E-05-5.02364E-05-1.54351E-05 2.46254E-18-7.89435E-19
 -1      3008 9.55483E-05-2.46425E-05-3.03590E-05 5.49791E-06 7.28041E-19 1.17811E-18
 -1      3009 9.43911E-05-2.15264E-05-3.12296E-05 7.11282E-06 8.32997E-19 8.39549E-19
 -1      3010 9.46486E-05-2.25593E-05-3.08893E-05 5.58914E-06 8.72932E-19 7.05120E-19
 -1      3011 9.51999E-05-2.54612E-05-2.99008E-05 3.87062E-06 6.22371E-19 1.08896E-18
 -1      3012 9.15855E-05-1.66619E-05-3.21318E-05-5.56675E-06 1.29809E-19-9.41312E-19
 -1      3013 9.21022E-05-1.74581E-05-3.20291E-05-6.39082E-06-3.81808E-20-1.00591E-18
 -1      3014 9.24505E-05-1.81510E-05-3.18189E-05-4.56158E-06 1.48158E-19-8.43224E-19
 -1      3015 9.13179E-05-1.63530E-05-3.21154E-05 2.67121E-08 6.50787E-19-4.53697E-19
 -1      3016 9.02001E-05-1.45744E-05-3.24306E-05-3.82706E-07 7.41760E-19-4.25952E-19
 -1      3017 9.02559E-05-1.46548E-05-3.24202E-05-1.33729E-06 6.18868E-19-4.65880E-19
 -1      3018 6.06525E-05-2.62314E-05-1.41592E-05 2.88169E-05-1.61460E-18-1.73854E-19
 -1      3019 1.37814E-04-4.78947E-05-3.87849E-05 6.87694E-07-2.14776E-19-1.23508E-18
 -1      3020 1.33381E-04-4.31904E-05-3.89025E-05 6.90117E-06 2.38228E-21-1.42069E-18
 -1      3021 1.34269E-04-5.13928E-05-3.56205E-05-3.03827E-06 4.50701E-19-1.14387E-18
 -1      3022 1.21978E-04-1.03695E-05-4.83294E-05-4.70408E-06-2.38736E-18-1.15394E-18
 -1      3023 1.28035E-04-5.81717E-05-2.98871E-05-2.09145E-05 7.25695E-19-1.28093E-18
 -1      3024 1.30899E-04-5.66209E-05-3.21150E-05-1.23149E-05 7.31611E-19-9.80123E-19
 -1      3025 1.22445E-04-5.72560E-05-2.77496E-05-2.31273E-05 8.96055E-19-4.10070E-19
 -1      3026 1.05130E-04-5.27862E-05-2.21005E-05-3.55505E-05 2.92290E-18 2.71182E-18
 -1      3027 9.40047E-05-2.63368E-05-2.89941E-05 1.69032E-06 6.89857E-19 1.85555E-19
 -1      3028 9.42559E-05-2.65878E-05-2.90104E-05 1.62825E-06 8.32742E-19-6.90747E-19
 -1      3029 9.44812E-05-2.68006E-05-2.90000E-05 1.76929E-06-9.83783E-19 3.67999E-19
 -1      3030 8.17658E-05-3.89730E-05-1.79673E-05 3.74662E-05-7.59471E-19-4.79632E-19
 -1      3031 9.52755E-05-2.50716E-05-3.00838E-05 3.71765E-06 6.39325E-19 8.01785E-19
 -1      3032 1.44584E-04-5.94330E-05-3.68340E-05 3.20104E-06 7.74903E-21 1.35758E-18
 -1      3033 1.41159E-04-5.67182E-05-3.63514E-05 6.23092E-06 3.69439E-19 9.47406E-19
 -1      3034 1.36938E-04-5.73955E-05-3.40230E-05-2.77857E-07 2.15318E-19 7.92796E-19
 -1      3035 1.43187E-04-6.26820E-05-3.45389E-05-6.21631E-06-1.26102E-19 8.22045E-19
 -1      3036 1.29562E-04-5.76012E-05-3.08950E-05-1.01688E-05-3.06599E-19 5.64706E-19
 -1      3037 1.39451E-04-2.19649E-05-5.06381E-05 1.27974E-05 2.01403E-18 3.65812E-19
 -1      3038 1.44255E-04-3.21595E-05-4.90332E-05 1.81907E-05 1.23900E-18 9.05266E-19
 -1      3039 1.35829E-04-1.83703E-05-5.12055E-05 4.89745E-06 3.06647E-18 1.90318E-20
 -1      3040 1.12863E-04-5.38815E-05-2.50247E-05 2.81809E-05 2.09958E-19-1.13240E-18
 -1      3041 1.44786E-04-5.81923E-05-3.72038E-05-6.00185E-06 8.01750E-19-1.44186E-18
 -1      3042 1.46878E-04-5.19902E-05-4.08669E-05-1.10730E-05 1.87385E-18-5.05890E-19
 -1      3043 1.38726E-04-5.78155E-05-3.47547E-05-1.86741E-06-1.02147E-19-1.88751E-18
 -1      3044 1.36118E-04-6.19806E-05-3.16710E-05-1.01480E-05-1.82112E-20 7.81864E-19
 -1      3045 1.48698E-04-4.01710E-05-4.66818E-05 1.85263E-05 1.02004E-18 9.58206E-19
 -1      3046 9.48941E-05-2.72276E-05-2.90056E-05 1.90660E-06-1.11802E-18-7.91286E-19
 -1      3047 1.36601E-04-4.41131E-05-3.98513E-05-4.47425E-06-5.98111E-19 6.62486E-19
 -1      3048 1.32855E-04-4.67074E-05-3.70034E-05-3.62756E-06-9.03943E-20 5.37389E-19
 -1      3049 1.32972E-04-3.85696E-05-4.10707E-05-8.94048E-06-1.11824E-18 2.71368E-19
 -1      3050 1.29877E-04-2.93064E-05-4.34488E-05 1.13587E-05 4.84926E-20-5.54860E-19
 -1      3051 9.31003E-05-4.54525E-05-2.00908E-05 3.28792E-05-2.83205E-18 1.02491E-19
 -1      3052 3.92205E-05-1.31724E-05-1.05148E-05 8.51819E-06-1.06038E-19-3.24625E-19
 -1      3053 9.51203E-05-2.76397E-05-2.89198E-05-1.58029E-06-9.10721E-20-1.49619E-18
 -1      3054 1.30352E-04-5.52014E-05-3.22064E-05 9.75698E-06 2.20996E-19 2.77933E-19
 -1      3055 3.76628E-05-1.16335E-05-1.05059E-05 1.05851E-06 4.39197E-19-1.31131E-18
 -1      3056 5.24451E-05-2.44277E-05-1.14261E-05-3.33179E-05 3.35033E-18 3.73118E-19
 -1      3057 1.24523E-04-5.92853E-05-2.78818E-05 1.93447E-05-1.93124E-18 6.11849E-19
 -1      3058 4.81894E-05-1.90448E-05-1.19121E-05 2.73926E-05 6.23099E-20 2.67874E-19
 -1      3059 4.72555E-05-1.47366E-05-1.35198E-05 1.95276E-05 1.47066E-19-5.71747E-19
 -1      3060 6.01686E-05-2.31526E-05-1.55950E-05 2.95131E-05 1.63319E-20 3.15520E-20
 -1      3061 9.51940E-05-2.77017E-05-2.89253E-05-1.83277E-06-1.13410E-18-3.28009E-18
 -1      3062 9.49724E-05-2.74735E-05-2.89297E-05-1.72601E-06 2.98986E-20-1.30210E-18
 -1      3063 9.48753E-05-2.73619E-05-2.89326E-05-1.92495E-06 1.12265E-19-1.61767E-18
 -1      3064 9.52544E-05-2.77206E-05-2.89398E-05-1.99657E-06-1.29127E-19-3.30311E-18
 -1      3065 1.32336E-04-2.42983E-05-4.66800E-05-1.04321E-05-2.82697E-18-1.91218E-19
 -1      3066 9.03802E-05-1.48474E-05-3.23916E-05-2.17044E-06 5.81170E-19-4.37916E-19
 -1      3067 9.05632E-05-1.51122E-05-3.23581E-05-3.11889E-06 3.86671E-19-6.26831E-19
 -1      3068 9.18081E-05-1.71254E-05-3.19914E-05-3.12886E-06 3.60857E-19-6.52736E-19
 -1      3069 9.14350E-05-1.65375E-05-3.20858E-05-1.57606E-06 5.49759E-19-3.98867E-19
 -1      3070 1.24949E-04-5.54712E-05-2.99100E-05 1.38425E-05-1.72774E-18-9.12678E-20
 -1      3071 1.33685E-04-5.65577E-05-3.28705E-05 4.43751E-06-6.96711E-19-1.62321E-18
 -1      3072 8.29552E-05-3.87766E-05-1.83856E-05-3.28084E-05-9.37507E-19-2.36799E-19
 -1      3073 1.42760E-04-3.36098E-05-4.74621E-05-1.88626E-05 2.10742E-18-1.97465E-19
 -1      3074 1.48333E-04-4.41217E-05-4.50668E-05-1.86129E-05 2.17095E-18 7.01979E-20
 -1      3075 1.21752E-04-1.23857E-05-4.73809E-05 7.72785E-06-1.97443E-18-1.06361E-18
 -1      3076 1.15430E-04-1.06646E-05-4.52543E-05 4.80854E-06-2.46720E-18-1.41455E-18
 -1      3077 1.18957E-04-1.68101E-05-4.40878E-05 1.00756E-05-1.42662E-18-3.88126E-19
 -1      3078 7.82689E-05-4.00320E-05-1.59427E-05-4.10608E-05 3.42498E-18 3.35986E-18
 -1      3079 9.42885E-05-2.18301E-05-3.10748E-05 4.94127E-06 9.29784E-19 3.92608E-19
 -1      3080 9.38293E-05-2.08831E-05-3.12644E-05 4.59543E-06 8.98769E-19 1.60475E-19
 -1      3081 4.33719E-05-1.81915E-05-1.03112E-05-2.16528E-05-8.47033E-21-3.02645E-18
 -1      3082 5.75386E-05-2.19664E-05-1.46737E-05-2.47368E-05-7.38083E-19-1.11004E-18
 -1      3083 9.56830E-05-2.68061E-05-2.95046E-05-6.52118E-07-2.06468E-19-6.23932E-19
 -1      3084 9.56608E-05-2.72388E-05-2.93311E-05-1.02153E-07-7.85723E-20-6.89872E-19
 -1      3085 9.56984E-05-2.76046E-05-2.91724E-05 3.07136E-07-3.84542E-20-5.73230E-19
 -1      3086 9.56645E-05-2.78717E-05-2.90578E-05 6.57208E-07-1.58455E-19-5.09123E-19
 -1      3087 9.58864E-05-2.72102E-05-2.94358E-05-2.74084E-08-1.40549E-20-4.62309E-19
 -1      3088 9.56479E-05-2.80843E-05-2.89486E-05 9.19328E-07-1.71734E-19-3.79036E-19
 -1      3089 9.56200E-05-2.82408E-05-2.88779E-05 1.13509E-06-2.18642E-19-3.65157E-19
 -1      3090 9.59123E-05-2.78820E-05-2.91595E-05 6.78533E-07-6.91696E-20-3.84039E-19
 -1      3091 9.55759E-05-2.83499E-05-2.88069E-05 1.29892E-06-2.27223E-19-1.26723E-19
 -1      3092 9.55591E-05-2.84307E-05-2.87686E-05 1.43190E-06-2.67819E-19 3.09540E-20
 -1      3093 9.58574E-05-2.82663E-05-2.89710E-05 1.13273E-06-8.18832E-20-8.86707E-20
 -1      3094 9.55017E-05-2.84682E-05-2.87267E-05 1.53787E-06-3.15466E-19 3.70275E-19
 -1      3095 9.54965E-05-2.84963E-05-2.87123E-05 1.62708E-06-4.24852E-19 4.21736E-19
 -1      3096 9.57611E-05-2.84504E-05-2.88504E-05 1.42488E-06-6.65189E-20 3.49541E-19
 -1      3097 9.54334E-05-2.84843E-05-2.86923E-05 1.70697E-06-4.25434E-19 5.74078E-19
 -1      3098 9.54393E-05-2.84761E-05-2.86955E-05 1.78131E-06-2.37431E-19 6.66618E-19
 -1      3099 9.56448E-05-2.84940E-05-2.87814E-05 1.62812E-06-2.77015E-19 5.77507E-19
 -1      3100 9.53749E-05-2.84304E-05-2.86916E-05 1.85934E-06-3.34380E-19 6.56976E-19
 -1      3101 9.53924E-05-2.83990E-05-2.87078E-05 1.93966E-06-3.86982E-19 6.90134E-19
 -1      3102 9.55205E-05-2.84396E-05-2.87509E-05 1.79953E-06-3.24104E-19 8.17219E-19
 -1      3103 9.53307E-05-2.83328E-05-2.87153E-05 2.03365E-06-5.12019E-19 8.88019E-19
 -1      3104 9.53620E-05-2.82903E-05-2.87408E-05 2.13404E-06-2.86419E-19 7.72851E-19
 -1      3105 9.53966E-05-2.83207E-05-2.87484E-05 1.98226E-06-3.25451E-19 8.26856E-19
 -1      3106 9.53078E-05-2.82165E-05-2.87558E-05 2.25631E-06-3.35837E-19 5.99955E-19
 -1      3107 9.53577E-05-2.81760E-05-2.87875E-05 2.38476E-06-3.09582E-19 6.75069E-19
 -1      3108 9.52816E-05-2.81668E-05-2.87649E-05 2.20755E-06-3.76598E-19 9.79874E-19
 -1      3109 9.53186E-05-2.81095E-05-2.88063E-05 2.54241E-06-3.16726E-19 6.63374E-19
 -1      3110 9.53952E-05-2.80870E-05-2.88414E-05 2.70066E-06-2.40512E-20 6.53031E-19
 -1      3111 9.51881E-05-2.80092E-05-2.87925E-05 2.49599E-06-4.01476E-19 5.38374E-19
 -1      3112 9.53840E-05-2.80467E-05-2.88608E-05 2.89516E-06-1.75189E-19 1.38260E-19
 -1      3113 9.55004E-05-2.80632E-05-2.88965E-05 3.07776E-06-5.34615E-19-1.51489E-19
 -1      3114 9.51361E-05-2.78853E-05-2.88239E-05 2.85770E-06-5.36824E-19 2.96305E-19
 -1      3115 9.55372E-05-2.80747E-05-2.89132E-05 3.30379E-06-7.64652E-19-5.93682E-20
 -1      3116 9.57121E-05-2.81576E-05-2.89469E-05 3.49643E-06-1.01673E-18-6.16873E-20
 -1      3117 9.51581E-05-2.78442E-05-2.88522E-05 3.29096E-06-6.41829E-19-4.66265E-19
 -1      3118 9.58272E-05-2.82546E-05-2.89581E-05 3.73969E-06-8.12122E-19 2.24026E-19
 -1      3119 9.60864E-05-2.84385E-05-2.89874E-05 3.91679E-06-5.51667E-19 2.14261E-19
 -1      3120 9.53038E-05-2.79509E-05-2.88709E-05 3.77924E-06-6.38661E-19 1.40139E-19
 -1      3121 9.63230E-05-2.86633E-05-2.89918E-05 4.15062E-06-4.00985E-19 4.00864E-19
 -1      3122 9.66991E-05-2.89886E-05-2.90155E-05 4.27240E-06-7.46770E-20 8.18917E-20
 -1      3123 9.56455E-05-2.82889E-05-2.88758E-05 4.28604E-06-4.40155E-19 2.71215E-19
 -1      3124 9.71137E-05-2.93893E-05-2.90141E-05 4.45279E-06-1.02745E-19 3.89768E-19
 -1      3125 9.76432E-05-2.98955E-05-2.90339E-05 4.46229E-06-2.34009E-20-9.85324E-20
 -1      3126 9.62823E-05-2.89585E-05-2.88664E-05 4.74670E-06-1.38550E-19 3.94128E-19
 -1      3127 9.83024E-05-3.05169E-05-2.90331E-05 4.52120E-06 1.98658E-20-3.77392E-19
 -1      3128 9.90159E-05-3.12281E-05-2.90555E-05 4.34257E-06 1.77819E-19-4.67485E-19
 -1      3129 9.73378E-05-3.00655E-05-2.88506E-05 5.05654E-06-1.09521E-19 1.00273E-19
 -1      3130 9.99832E-05-3.20912E-05-2.90700E-05 4.18074E-06 7.78225E-19-1.71629E-19
 -1      3131 1.00885E-04-3.29878E-05-2.91096E-05 3.72217E-06 1.47006E-18-9.52358E-20
 -1      3132 9.89453E-05-3.16902E-05-2.88504E-05 5.05504E-06 5.22575E-19 2.67436E-19
 -1      3133 1.02191E-04-3.40524E-05-2.91670E-05 3.20773E-06 1.68223E-18-6.16856E-19
 -1      3134 1.03227E-04-3.50269E-05-2.92493E-05 2.37711E-06 1.25783E-18-3.02339E-19
 -1      3135 1.01206E-04-3.38247E-05-2.89104E-05 4.51165E-06 1.38839E-18 7.19949E-20
 -1      3136 1.04811E-04-3.61351E-05-2.93935E-05 1.36079E-06 5.09351E-19-2.24891E-19
 -1      3137 1.05823E-04-3.69327E-05-2.95551E-05 1.07412E-07 1.52528E-19-4.57913E-19
 -1      3138 1.04104E-04-3.62677E-05-2.91064E-05 3.13487E-06 9.12588E-19-8.80385E-19
 -1      3139 1.07454E-04-3.77409E-05-2.98442E-05-1.50996E-06-5.62028E-21-4.59690E-19
 -1      3140 1.08151E-04-3.79334E-05-3.01262E-05-3.10745E-06-4.32740E-19-4.58965E-19
 -1      3141 1.07379E-04-3.84845E-05-2.95502E-05 6.12372E-07-8.53187E-20-8.20982E-19
 -1      3142 1.09356E-04-3.79081E-05-3.06178E-05-5.17757E-06-5.00006E-19-3.03247E-19
 -1      3143 1.09410E-04-3.70129E-05-3.10450E-05-6.78505E-06-2.33638E-19-1.12826E-19
 -1      3144 1.10303E-04-3.94068E-05-3.03743E-05-3.06423E-06-2.07921E-19 1.58894E-19
 -1      3145 1.09585E-04-3.56117E-05-3.17566E-05-8.75288E-06 2.98480E-20 1.83600E-19
 -1      3146 1.08797E-04-3.33601E-05-3.23086E-05-9.70760E-06 7.34239E-20 4.57973E-19
 -1      3147 1.11796E-04-3.78046E-05-3.16688E-05-7.35718E-06-2.42953E-19 3.02556E-19
 -1      3148 1.07604E-04-3.04969E-05-3.31562E-05-1.04351E-05 5.10404E-19 2.03208E-19
 -1      3149 1.06231E-04-2.74560E-05-3.37179E-05-9.89030E-06 4.88520E-19-2.32934E-21
 -1      3150 1.10813E-04-3.27852E-05-3.33860E-05-1.05469E-05 6.35539E-20 1.05659E-18
 -1      3151 1.04449E-04-2.42929E-05-3.44636E-05-8.54641E-06-7.10685E-20-4.14530E-19
 -1      3152 1.03167E-04-2.16862E-05-3.48607E-05-6.33924E-06-8.66157E-20-1.06925E-19
 -1      3153 1.07843E-04-2.60408E-05-3.51125E-05-9.99672E-06 3.54099E-20-5.92685E-19
 -1      3154 1.02010E-04-2.00509E-05-3.52089E-05-2.50932E-06-3.53866E-19-5.99316E-19
 -1      3155 1.01946E-04-1.97320E-05-3.52599E-05 5.26941E-07-9.21527E-19-8.28943E-19
 -1      3156 1.04441E-04-1.92841E-05-3.64844E-05-5.04627E-06-6.47014E-19-1.76391E-18
 -1      3157 1.02483E-04-2.06454E-05-3.50660E-05 4.50832E-06-6.94455E-19-9.59129E-19
 -1      3158 1.03509E-04-2.26667E-05-3.47576E-05 7.11254E-06-1.05263E-18-4.26559E-19
 -1      3159 1.04125E-04-1.88279E-05-3.65633E-05 2.74167E-06-1.02559E-18-2.37107E-18
 -1      3160 1.05363E-04-2.56696E-05-3.40870E-05 9.27166E-06-1.29755E-18 1.69287E-19
 -1      3161 1.06730E-04-2.87783E-05-3.35473E-05 1.02240E-05-1.03477E-18 4.78066E-19
 -1      3162 1.06851E-04-2.37123E-05-3.55858E-05 9.26073E-06-7.06948E-19-1.89545E-18
 -1      3163 1.08215E-04-3.17964E-05-3.27101E-05 1.01028E-05-1.06269E-18 8.92409E-19
 -1      3164 1.09250E-04-3.43850E-05-3.21461E-05 9.53698E-06-1.04821E-18 8.43645E-19
 -1      3165 1.09964E-04-3.06568E-05-3.39338E-05 1.10877E-05-1.08399E-18-1.24158E-18
 -1      3166 1.09435E-04-3.62638E-05-3.13812E-05 7.73618E-06-1.67403E-19 1.09787E-18
 -1      3167 1.09649E-04-3.75473E-05-3.09137E-05 6.25602E-06 3.13667E-20 1.64588E-18
 -1      3168 1.11842E-04-3.67745E-05-3.21511E-05 8.54143E-06-1.37089E-19 4.93119E-19
 -1      3169 1.08669E-04-3.79290E-05-3.03553E-05 4.10483E-06-5.29901E-19 2.54214E-18
 -1      3170 1.08117E-04-3.79883E-05-3.00317E-05 2.46003E-06-4.27784E-19 2.64750E-18
 -1      3171 1.10957E-04-3.93155E-05-3.07018E-05 4.26949E-06 2.61786E-20 2.55907E-18
 -1      3172 1.06552E-04-3.73561E-05-2.96895E-05 6.89866E-07-7.08773E-19 2.34907E-18
 -1      3173 1.05594E-04-3.66772E-05-2.94978E-05-6.76561E-07-6.09894E-19 2.52548E-18
 -1      3174 1.08293E-04-3.89250E-05-2.97462E-05 2.88991E-07-8.54485E-19 2.60879E-18
 -1      3175 1.03966E-04-3.56096E-05-2.93196E-05-1.85803E-06-6.03797E-19 2.36670E-18
 -1      3176 1.02917E-04-3.46499E-05-2.92200E-05-2.80545E-06-2.77752E-19 1.23657E-18
 -1      3177 1.05037E-04-3.69566E-05-2.92085E-05-2.56710E-06-8.93351E-19 3.55515E-18
 -1      3178 1.01519E-04-3.35454E-05-2.91450E-05-3.44626E-06-5.38838E-20 5.69627E-19
 -1      3179 1.00570E-04-3.26049E-05-2.90984E-05-3.99738E-06 4.23282E-19-1.38029E-19
 -1      3180 1.01991E-04-3.45018E-05-2.89575E-05-4.24107E-06 4.53125E-20 1.35931E-18
 -1      3181 9.95052E-05-3.16689E-05-2.90781E-05-4.23862E-06 9.83770E-19-6.62586E-19
 -1      3182 9.87364E-05-3.08916E-05-2.90558E-05-4.47825E-06 9.41593E-19-8.23498E-19
 -1      3183 9.95357E-05-3.22320E-05-2.88733E-05-4.98118E-06 3.87857E-19 1.83315E-19
 -1      3184 9.79931E-05-3.01909E-05-2.90585E-05-4.45957E-06 6.62955E-19-8.20398E-19
 -1      3185 9.74134E-05-2.96154E-05-2.90434E-05-4.48053E-06-2.73253E-20-1.02737E-18
 -1      3186 9.77458E-05-3.04341E-05-2.88696E-05-5.09191E-06 5.14626E-19 2.37936E-19
 -1      3187 9.69321E-05-2.91402E-05-2.90512E-05-4.30958E-06 2.31431E-19-2.05050E-18
 -1      3188 9.65152E-05-2.87501E-05-2.90350E-05-4.19108E-06 4.16125E-20-1.51273E-18
 -1      3189 9.65401E-05-2.91553E-05-2.88942E-05-4.82263E-06-8.65447E-20 8.90253E-23
 -1      3190 9.62266E-05-2.84580E-05-2.90400E-05-3.94223E-06-1.04665E-19-2.37141E-18
 -1      3191 9.59356E-05-2.82143E-05-2.90203E-05-3.74422E-06 1.25965E-18-2.44209E-18
 -1      3192 9.57858E-05-2.83288E-05-2.89199E-05-4.34953E-06-1.32451E-19-2.25293E-18
 -1      3193 9.57779E-05-2.80546E-05-2.90201E-05-3.46553E-06 1.28181E-18-3.01797E-18
 -1      3194 9.55770E-05-2.79138E-05-2.89979E-05-3.22989E-06 1.48403E-19-3.20288E-18
 -1      3195 9.53510E-05-2.78475E-05-2.89360E-05-3.78747E-06 6.05618E-19-5.48244E-18
 -1      3196 9.54995E-05-2.78390E-05-2.89936E-05-2.94986E-06-1.53556E-19-2.37392E-18
 -1      3197 9.53615E-05-2.77634E-05-2.89710E-05-2.70196E-06-2.07379E-19-2.33002E-18
 -1      3198 9.51245E-05-2.76010E-05-2.89413E-05-3.20673E-06 4.01557E-20-4.03673E-18
 -1      3199 9.53580E-05-2.77586E-05-2.89677E-05-2.46386E-06 2.05390E-19-1.73582E-18
 -1      3200 9.52565E-05-2.77156E-05-2.89463E-05-2.21685E-06 8.87591E-19-1.82883E-18
 -1      3201 9.50474E-05-2.75307E-05-2.89379E-05-2.20856E-06-5.16359E-19-2.56616E-18
 -1      3202 9.50528E-05-2.75254E-05-2.89421E-05-2.67509E-06 5.04537E-19-1.64110E-18
 -1      3203 9.53943E-05-2.78635E-05-2.89448E-05-6.32902E-07 4.70679E-19 3.84756E-19
 -1      3204 9.54409E-05-2.76204E-05-2.90532E-05-2.70358E-07 3.66767E-19 3.39415E-19
 -1      3205 9.52883E-05-2.84163E-05-2.86558E-05-1.80609E-06 3.02270E-19 7.04515E-19
 -1      3206 9.52520E-05-2.84264E-05-2.86396E-05-1.72518E-06 4.20269E-19 5.31122E-19
 -1      3207 9.52964E-05-2.84420E-05-2.86493E-05-1.64096E-06 4.71392E-19 5.90636E-19
 -1      3208 9.52741E-05-2.84136E-05-2.86524E-05-1.55007E-06 4.96399E-19 7.17876E-19
 -1      3209 9.54888E-05-2.84456E-05-2.87355E-05-1.67479E-06 5.04147E-19 3.13686E-19
 -1      3210 9.52809E-05-2.81517E-05-2.87642E-05-2.23492E-06 1.54379E-19 9.94433E-19
 -1      3211 9.52285E-05-2.82249E-05-2.87191E-05-2.10004E-06 4.01254E-19 9.10633E-19
 -1      3212 9.52626E-05-2.79178E-05-2.88556E-05-2.58156E-06 2.46019E-19 8.37280E-19
 -1      3213 9.52076E-05-2.80221E-05-2.87986E-05-2.38968E-06 3.83355E-19 1.06950E-18
 -1      3214 9.51690E-05-2.79641E-05-2.88020E-05-2.34091E-06 1.86134E-19 1.24727E-18
 -1      3215 9.52151E-05-2.76089E-05-2.89667E-05-3.06378E-06-5.33527E-20 5.99589E-19
 -1      3216 9.51625E-05-2.77472E-05-2.88988E-05-2.79711E-06 4.70639E-20 7.98097E-19
 -1      3217 9.49988E-05-2.76279E-05-2.88719E-05-2.71518E-06 2.65307E-19 7.97501E-19
 -1      3218 9.51162E-05-2.72134E-05-2.90929E-05-3.71401E-06 4.15376E-19 2.41807E-19
 -1      3219 9.50732E-05-2.73904E-05-2.90155E-05-3.35549E-06 1.71552E-19 2.60125E-19
 -1      3220 9.47614E-05-2.71933E-05-2.89546E-05-3.22158E-06 2.64702E-19 2.81387E-19
 -1      3221 9.49353E-05-2.67183E-05-2.92266E-05-4.56297E-06-4.42899E-20 5.74094E-19
 -1      3222 9.49120E-05-2.69384E-05-2.91426E-05-4.09629E-06 2.24587E-19 5.47633E-19
 -1      3223 9.44220E-05-2.66455E-05-2.90415E-05-3.88755E-06 2.41678E-19 4.49385E-19
 -1      3224 9.46342E-05-2.61155E-05-2.93549E-05-5.63913E-06 8.43187E-20 1.44075E-19
 -1      3225 9.46426E-05-2.63790E-05-2.92700E-05-5.04966E-06-8.19767E-21 1.21579E-19
 -1      3226 9.39351E-05-2.59688E-05-2.91195E-05-4.73770E-06 3.17649E-19 3.86130E-19
 -1      3227 9.41714E-05-2.54155E-05-2.94555E-05-6.96748E-06-1.03403E-18 1.01046E-19
 -1      3228 9.42222E-05-2.57106E-05-2.93802E-05-6.24401E-06-2.98592E-19 1.42472E-21
 -1      3229 9.32444E-05-2.51546E-05-2.91679E-05-5.79449E-06-2.87392E-19-1.03032E-19
 -1      3230 9.35190E-05-2.46740E-05-2.94917E-05-8.56903E-06-8.20083E-19-2.94288E-19
 -1      3231 9.36102E-05-2.49608E-05-2.94437E-05-7.70622E-06-1.16629E-18-8.10149E-20
 -1      3232 9.22884E-05-2.42180E-05-2.91541E-05-7.08109E-06-8.69514E-19-1.81976E-19
 -1      3233 9.27001E-05-2.40412E-05-2.94075E-05-1.04639E-05-7.62744E-19-5.09223E-20
 -1      3234 9.27925E-05-2.42232E-05-2.94141E-05-9.46446E-06-6.94602E-19-2.11563E-19
 -1      3235 9.10170E-05-2.32269E-05-2.90283E-05-8.63046E-06-9.37822E-19-8.01012E-19
 -1      3236 9.18672E-05-2.38407E-05-2.91247E-05-1.26809E-05 2.35151E-20 6.85743E-19
 -1      3237 9.18341E-05-2.37197E-05-2.92227E-05-1.15570E-05-2.51499E-19 7.15144E-19
 -1      3238 8.94289E-05-2.23555E-05-2.87167E-05-1.05062E-05-6.68986E-19 3.19175E-19
 -1      3239 9.14422E-05-2.46991E-05-2.85490E-05-1.52841E-05 1.47928E-19 7.20964E-19
 -1      3240 9.09790E-05-2.38988E-05-2.87775E-05-1.40616E-05 1.81228E-19 6.60773E-19
 -1      3241 8.76336E-05-2.19538E-05-2.81174E-05-1.28508E-05 5.74716E-20 5.92057E-19
 -1      3242 9.23869E-05-2.77041E-05-2.76107E-05-1.83141E-05-8.41345E-19 7.05396E-19
 -1      3243 9.08768E-05-2.56064E-05-2.79787E-05-1.70841E-05-4.14302E-19 9.23799E-19
 -1      3244 8.60401E-05-2.27270E-05-2.70987E-05-1.59972E-05-2.52695E-19 9.70144E-19
 -1      3245 9.62891E-05-3.42976E-05-2.63599E-05-2.17071E-05-1.08281E-18 6.23214E-19
 -1      3246 9.27479E-05-3.00994E-05-2.67895E-05-2.06603E-05-7.99177E-19 6.00166E-19
 -1      3247 8.54806E-05-2.58904E-05-2.55416E-05-2.03783E-05-5.13183E-19 6.06674E-19
 -1      3248 9.18498E-05-2.40564E-05-2.90829E-05 1.33580E-05-6.68734E-19-1.25564E-18
 -1      3249 9.22232E-05-2.46269E-05-2.89225E-05 1.45153E-05-8.23726E-19-1.83735E-19
 -1      3250 9.16196E-05-2.52827E-05-2.84549E-05 1.61759E-05-1.43725E-18-1.22406E-19
 -1      3251 9.28420E-05-2.69162E-05-2.81622E-05 1.73026E-05-1.68414E-18-1.04236E-19
 -1      3252 8.72385E-05-2.26616E-05-2.76178E-05 1.51937E-05-7.29055E-19-8.53449E-19
 -1      3253 1.16450E-04-5.36012E-05-2.71098E-05 2.13754E-05 1.46444E-19-9.87435E-19
 -1      3254 1.05431E-04-4.92314E-05-2.37081E-05 2.93190E-05 4.04696E-19-1.49187E-18
 -1      3255 9.29220E-05-2.87931E-05-2.74590E-05 1.94850E-05-1.60757E-18-9.10292E-19
 -1      3256 9.58276E-05-3.23685E-05-2.70707E-05 2.04773E-05-1.55810E-18-9.24718E-19
 -1      3257 8.65264E-05-2.49716E-05-2.62933E-05 1.90436E-05-1.61289E-18-1.20474E-19
 -1      3258 9.26062E-05-2.40544E-05-2.94081E-05 1.09725E-05-4.14329E-20-1.37635E-18
 -1      3259 9.26526E-05-2.40922E-05-2.93579E-05 1.20669E-05-1.66784E-19-1.44341E-18
 -1      3260 8.87596E-05-2.22745E-05-2.84598E-05 1.22958E-05-1.49639E-19-2.30376E-18
 -1      3261 9.34220E-05-2.45971E-05-2.95212E-05 8.94073E-06-1.14503E-19-1.43222E-18
 -1      3262 9.33787E-05-2.44011E-05-2.95449E-05 9.91798E-06-9.69944E-20-1.23206E-18
 -1      3263 9.03600E-05-2.27813E-05-2.89360E-05 1.00348E-05-4.09789E-19-9.20082E-19
 -1      3264 9.40895E-05-2.52900E-05-2.95055E-05 7.22123E-06-7.68386E-19-1.88336E-18
 -1      3265 9.40525E-05-2.50269E-05-2.95692E-05 8.06745E-06-4.07152E-19-1.86632E-18
 -1      3266 9.17576E-05-2.36516E-05-2.91667E-05 8.20560E-06-3.21879E-19-3.22798E-19
 -1      3267 9.45683E-05-2.59525E-05-2.94224E-05 5.77543E-06-9.41887E-20-2.14518E-18
 -1      3268 9.45646E-05-2.56994E-05-2.95023E-05 6.49117E-06-5.56307E-19-2.14916E-18
 -1      3269 9.28473E-05-2.45694E-05-2.92458E-05 6.67131E-06-7.22024E-19-2.39797E-18
 -1      3270 9.48790E-05-2.65114E-05-2.93120E-05 4.57138E-06 8.19247E-19-1.47789E-18
 -1      3271 9.49066E-05-2.62995E-05-2.93930E-05 5.16657E-06 2.23797E-19-2.28101E-18
 -1      3272 9.36456E-05-2.53961E-05-2.92385E-05 5.37648E-06-9.93712E-20-3.81487E-18
 -1      3273 9.50601E-05-2.69410E-05-2.91989E-05 3.58080E-06 1.95793E-18-1.69822E-19
 -1      3274 9.51103E-05-2.67854E-05-2.92726E-05 4.06308E-06 1.81751E-18-8.35004E-19
 -1      3275 9.41984E-05-2.60788E-05-2.91884E-05 4.28747E-06 7.60423E-19-2.69805E-18
 -1      3276 1.24483E-04-2.02929E-05-4.52016E-05-1.19669E-05-2.22611E-18 9.80970E-20
 -1      3277 1.29982E-04-2.96880E-05-4.32170E-05-1.20893E-05-1.69047E-18 1.10257E-18
 -1      3278 9.35480E-05-2.61061E-05-2.89006E-05-1.25731E-06 7.69849E-19 1.01123E-18
 -1      3279 9.33821E-05-2.59588E-05-2.89023E-05-9.61828E-07 1.58477E-18 3.34895E-20
 -1      3280 9.23953E-05-1.82922E-05-3.17737E-05 1.79591E-06 6.40108E-19-4.98207E-19
 -1      3281 9.22752E-05-1.80878E-05-3.18066E-05 1.04681E-06 5.43989E-19-5.95357E-19
 -1      3282 9.54299E-05-2.72861E-05-2.92112E-05 1.73427E-07 4.06268E-19 2.10477E-19
 -1      3283 9.54948E-05-2.68928E-05-2.93833E-05 7.54137E-07 4.05492E-19 2.44530E-19
 -1      3284 9.57009E-05-2.72452E-05-2.93432E-05 1.02994E-07 2.68928E-19 9.04548E-20
 -1      3285 9.32374E-05-2.57965E-05-2.89027E-05-5.78995E-07 1.77089E-18-6.39721E-19
 -1      3286 9.31578E-05-2.57208E-05-2.89070E-05-2.16970E-07 2.33438E-18-9.69075E-19
 -1      3287 9.30510E-05-2.57084E-05-2.88564E-05-8.91316E-07 2.00934E-18-4.90558E-19
 -1      3288 9.45151E-05-2.70320E-05-2.89185E-05-2.02691E-06 7.13788E-19-1.49225E-18
 -1      3289 9.42615E-05-2.68021E-05-2.89169E-05-1.92876E-06 1.11205E-18-1.81567E-18
 -1      3290 1.25337E-04-5.87290E-05-2.85752E-05-1.87759E-05-7.90441E-19 5.70265E-19
 -1      3291 1.13590E-04-5.12631E-05-2.62514E-05 2.30365E-05-2.53670E-18 7.61714E-19
 -1      3292 9.25832E-05-1.82101E-05-3.18926E-05-6.82324E-06-1.11331E-19-9.56217E-19
 -1      3293 9.32120E-05-1.92198E-05-3.17475E-05-7.32106E-06-2.49721E-19-9.29344E-19
 -1      3294 9.41502E-05-2.11991E-05-3.12319E-05-6.04343E-06-2.45717E-19-9.36146E-19
 -1      3295 9.33432E-05-1.96225E-05-3.15619E-05-5.56876E-06-1.30832E-19-8.87660E-19
 -1      3296 1.15433E-04-9.83595E-06-4.56544E-05-3.52438E-06-2.20641E-18-4.91120E-19
 -1      3297 1.19976E-04-1.33396E-05-4.60719E-05-9.02644E-06-1.88888E-18-1.27955E-19
 -1      3298 1.18806E-04-1.93632E-05-4.29859E-05-1.05608E-05-1.62969E-18 8.31998E-19
 -1      3299 9.80125E-05-3.63309E-05-2.61954E-05 2.28385E-05-1.11744E-18-1.22039E-19
 -1      3300 1.03448E-04-4.25721E-05-2.59394E-05 2.32599E-05-1.23527E-18 5.15936E-19
 -1      3301 8.83078E-05-3.12108E-05-2.45745E-05 2.38515E-05-5.55528E-19 7.11825E-19
 -1      3302 5.18573E-05-2.03614E-05-1.30724E-05-2.86311E-05 2.65381E-18 5.69100E-19
 -1      3303 6.27437E-05-2.83673E-05-1.44370E-05-3.61291E-05 3.10898E-18 2.55147E-18
 -1      3304 9.89067E-05-4.43524E-05-2.34101E-05 2.83710E-05-1.70259E-18 8.87479E-19
 -1      3305 4.01520E-05-1.13940E-05-1.19914E-05-9.98496E-06 1.39516E-18-1.48654E-19
 -1      3306 4.41936E-05-1.44409E-05-1.23582E-05-2.00192E-05 1.98301E-18 7.59153E-20
 -1      3307 1.15691E-04-5.71193E-05-2.48781E-05-2.60997E-05-9.74617E-19 2.15040E-19
 -1      3308 7.14746E-05-2.96395E-05-1.77647E-05 3.01088E-05-1.42656E-18-4.43634E-20
 -1      3309 5.83686E-05-2.07721E-05-1.57393E-05 2.39667E-05-1.89947E-19-5.41995E-19
 -1      3310 9.14726E-05-4.26299E-05-2.10339E-05 3.44647E-05-4.57080E-19-8.93090E-19
 -1      3311 7.62214E-05-3.27753E-05-1.82734E-05 3.38653E-05-6.30087E-19-6.14099E-20
 -1      3312 4.18502E-05-1.08304E-05-1.29128E-05 6.15805E-06 1.50659E-19-1.34530E-18
 -1      3313 4.26061E-05-1.13181E-05-1.28937E-05-5.26696E-06 6.17163E-19-1.57665E-18
 -1      3314 9.39949E-05-2.65358E-05-2.89065E-05-1.75373E-06 1.63359E-18-4.84707E-19
 -1      3315 9.37683E-05-2.63355E-05-2.89065E-05-1.54422E-06 8.50204E-19 1.07640E-18
 -1      3316 9.34646E-05-2.61071E-05-2.88650E-05-1.58148E-06 1.29218E-18 1.10997E-18
 -1      3317 9.40052E-05-2.66056E-05-2.88859E-05-2.05066E-06 1.42691E-18-1.29910E-18
 -1      3318 9.52858E-05-2.83175E-05-2.86961E-05-1.98922E-06 4.35394E-19 8.12428E-19
 -1      3319 9.52397E-05-2.83603E-05-2.86643E-05-1.89219E-06 3.64274E-19 8.08547E-19
 -1      3320 9.53996E-05-2.83743E-05-2.87270E-05-1.85985E-06 2.58178E-19 5.43921E-19
 -1      3321 9.52968E-05-2.82119E-05-2.87516E-05-2.06773E-06 4.16448E-19 1.11762E-18
 -1      3322 9.54947E-05-2.55138E-05-2.99792E-05-2.08333E-06-2.44299E-19-7.94155E-19
 -1      3323 9.55404E-05-2.62038E-05-2.97265E-05-1.26095E-06-2.10938E-19-8.30161E-19
 -1      3324 9.57071E-05-2.61217E-05-2.98240E-05-1.08349E-06-8.99094E-20-5.78157E-19
 -1      3325 1.28319E-04-3.43712E-05-4.05138E-05 1.12253E-05 4.09646E-19 1.79253E-19
 -1      3326 1.23353E-04-2.56412E-05-4.22356E-05 1.29454E-05-2.22981E-19 4.80850E-19
 -1      3327 4.65355E-05-1.36637E-05-1.37500E-05 1.36037E-05 7.57036E-21-6.04782E-19
 -1      3328 4.05716E-05-1.05163E-05-1.23957E-05 8.65505E-07 5.92301E-19-7.32260E-19
 -1      3329 9.46826E-05-2.69690E-05-2.90161E-05 2.11172E-06 5.97943E-19-2.18857E-19
 -1      3330 1.30138E-04-5.21426E-05-3.36600E-05 3.06512E-06-2.83266E-19-6.02664E-19
 -1      3331 1.25641E-04-5.46473E-05-3.03823E-05 1.16235E-05-3.10980E-19-2.24384E-19
 -1      3332 9.54003E-05-2.63330E-05-2.96108E-05 1.42461E-06 4.79833E-19 2.18028E-19
 -1      3333 9.54244E-05-2.56880E-05-2.98705E-05 2.31448E-06 4.87624E-19 3.33077E-19
 -1      3334 9.55922E-05-2.62150E-05-2.97378E-05 1.26641E-06 4.08871E-19-1.46485E-20
 -1      3335 8.37683E-05-3.53591E-05-2.02060E-05 3.02577E-05-1.47423E-18 8.36974E-20
 -1      3336 7.34264E-05-3.46270E-05-1.61638E-05-3.78905E-05 3.02237E-18 3.48332E-18
 -1      3337 8.60630E-05-4.20734E-05-1.88489E-05-3.83565E-05 2.28482E-18 3.66379E-18
 -1      3338 7.21546E-05-3.07772E-05-1.73667E-05-3.39412E-05 1.92112E-18 3.53017E-18
 -1      3339 1.00258E-04-4.87742E-05-2.16604E-05-3.45815E-05 2.32691E-18 2.95625E-18
 -1      3340 1.11703E-04-5.42393E-05-2.46746E-05-3.03065E-05 2.13050E-18 2.21356E-18
 -1      3341 4.32632E-05-1.38098E-05-1.21887E-05-1.48699E-05 3.03847E-19-1.90508E-18
 -1      3342 7.90416E-05-3.29478E-05-1.94258E-05-2.99391E-05-6.89273E-19-2.51728E-19
 -1      3343 9.39909E-05-4.29198E-05-2.18892E-05-3.09882E-05-4.51733E-19 4.17958E-19
 -1      3344 9.52334E-05-2.43369E-05-3.03845E-05 4.16875E-06 7.80193E-19 5.85229E-19
 -1      3345 9.46489E-05-2.27132E-05-3.08198E-05 4.75198E-06 8.62555E-19 4.08461E-19
 -1      3346 9.49327E-05-2.35567E-05-3.05880E-05 3.65148E-06 8.58794E-19 3.61428E-19
 -1      3347 9.52521E-05-2.51755E-05-3.00452E-05 2.97640E-06 5.68346E-19 4.86082E-19
 -1      3348 5.70845E-05-1.82553E-05-1.63087E-05-2.07263E-05-3.93341E-19-8.15057E-19
 -1      3349 6.63810E-05-2.50065E-05-1.75302E-05-2.73777E-05-9.60747E-19-6.64815E-19
 -1      3350 1.09417E-04-5.06050E-05-2.49187E-05-2.55015E-05-8.07487E-19 4.07899E-20
 -1      3351 1.05331E-04-4.51547E-05-2.55104E-05-2.39217E-05-8.26651E-19 2.51013E-19
 -1      3352 9.22143E-05-1.79858E-05-3.18254E-05 4.03794E-07 5.60051E-19-5.62125E-19
 -1      3353 9.22107E-05-1.79807E-05-3.18258E-05-3.58884E-07 5.66524E-19-4.97155E-19
 -1      3354 9.31601E-05-1.95544E-05-3.15273E-05 6.18627E-07 4.36926E-19-5.64399E-19
 -1      3355 1.32230E-04-5.41116E-05-3.35550E-05-5.99945E-06 1.05119E-18-5.05785E-19
 -1      3356 1.30194E-04-5.01344E-05-3.46234E-05 5.38162E-07 4.73809E-19-1.40623E-18
 -1      3357 1.27781E-04-5.44366E-05-3.13843E-05-9.64450E-06 4.24522E-19-7.03990E-19
 -1      3358 1.13390E-04-1.10425E-05-4.43481E-05 5.04185E-07-1.85373E-18-8.90437E-19
 -1      3359 1.11261E-04-1.20524E-05-4.26293E-05-3.81588E-06-1.38400E-18-1.11438E-19
 -1      3360 1.11203E-04-1.30878E-05-4.23007E-05 3.85145E-06-1.16520E-18-1.62433E-18
 -1      3361 9.28443E-05-2.54781E-05-2.88647E-05-4.21922E-08 1.00141E-18-5.82444E-19
 -1      3362 9.31212E-05-2.56580E-05-2.89153E-05 2.20344E-07 1.54584E-18-1.64162E-19
 -1      3363 9.31539E-05-2.56752E-05-2.89228E-05 6.00767E-07 7.31119E-20 1.00145E-18
 -1      3364 1.17600E-04-5.48370E-05-2.68431E-05-2.28659E-05 7.71329E-19 4.90803E-19
 -1      3365 9.36204E-05-2.60367E-05-2.89735E-05 1.74972E-06 1.25562E-19 7.53051E-19
 -1      3366 9.38948E-05-2.62493E-05-2.89856E-05 2.00358E-06-2.53628E-19 8.02804E-19
 -1      3367 9.51697E-05-2.40900E-05-3.04427E-05-3.55710E-06-1.42385E-19-8.88754E-19
 -1      3368 9.52601E-05-2.48213E-05-3.01987E-05-2.70996E-06-2.30181E-19-9.18054E-19
 -1      3369 9.53244E-05-2.46799E-05-3.02723E-05-2.36996E-06-1.51987E-19-7.05589E-19
 -1      3370 9.44918E-05-2.24112E-05-3.09063E-05-4.99782E-06-1.88424E-19-9.78062E-19
 -1      3371 9.55700E-05-2.84099E-05-2.87865E-05-1.46038E-06 3.77241E-19 3.88270E-19
 -1      3372 9.53161E-05-2.83796E-05-2.86857E-05-1.43944E-06 3.63175E-19 7.78586E-19
 -1      3373 9.53125E-05-2.83020E-05-2.87140E-05-1.30563E-06 3.67096E-19 5.01461E-19
 -1      3374 9.90186E-05-4.39317E-05-2.34311E-05 2.80736E-05 5.92923E-21-9.84623E-19
 -1      3375 9.87546E-05-3.86394E-05-2.55486E-05-2.39973E-05-9.62057E-19 5.95252E-19
 -1      3376 8.77686E-05-3.26910E-05-2.36605E-05-2.57037E-05-8.58944E-19 6.69659E-19
 -1      3377 1.20620E-04-5.36715E-05-2.86346E-05 1.52067E-05 1.09214E-19 2.98711E-20
 -1      3378 1.13507E-04-4.99169E-05-2.72623E-05 1.77772E-05 4.26180E-19-1.26267E-19
 -1      3379 1.21498E-04-5.13448E-05-3.00893E-05 8.41542E-06-1.49058E-20 2.21961E-19
 -1      3380 1.27815E-04-3.44626E-05-4.01930E-05-1.11766E-05-1.29940E-18 8.76520E-19
 -1      3381 9.50490E-05-2.69986E-05-2.91552E-05 3.24039E-06 2.61176E-18 1.01967E-19
 -1      3382 9.43821E-05-2.64491E-05-2.91158E-05 3.43514E-06 2.00670E-18-1.59475E-18
 -1      3383 9.49099E-05-2.70035E-05-2.91003E-05 2.93017E-06 2.90978E-18-1.38378E-18
 -1      3384 5.40105E-05-1.80071E-05-1.49688E-05-2.32833E-05 2.07481E-18 1.26208E-19
 -1      3385 9.32447E-05-2.57332E-05-2.89392E-05 1.03427E-06-6.36935E-20 1.93703E-18
 -1      3386 9.33997E-05-2.58509E-05-2.89498E-05 1.38045E-06-3.08626E-20 2.12429E-18
 -1      3387 9.32547E-05-2.57160E-05-2.89377E-05 1.70454E-06-5.09134E-19 1.45150E-18
 -1      3388 9.29033E-05-2.54709E-05-2.88920E-05 8.64184E-07-4.01959E-19 1.56207E-18
 -1      3389 7.84346E-05-2.89988E-05-2.07714E-05-2.60530E-05-7.49386E-19-6.38292E-19
 -1      3390 8.08944E-05-3.03868E-05-2.13237E-05 2.66309E-05-2.42357E-19 5.74447E-19
 -1      3391 4.78828E-05-1.25201E-05-1.46436E-05 1.28208E-05 1.08950E-19-1.36690E-18
 -1      3392 5.10456E-05-1.18621E-05-1.65193E-05 6.64372E-06 4.00620E-19-1.30316E-18
 -1      3393 5.55856E-05-1.56106E-05-1.69996E-05 1.78986E-05 2.92326E-19-1.01538E-19
 -1      3394 9.30650E-05-1.94682E-05-3.15511E-05-3.59114E-06 1.75720E-19-6.67550E-19
 -1      3395 9.34369E-05-2.01480E-05-3.14352E-05-4.20857E-06 4.28471E-20-7.33087E-19
 -1      3396 7.07261E-05-2.77533E-05-1.81005E-05 3.10839E-05-5.35960E-19-2.60251E-19
 -1      3397 6.59074E-05-2.25392E-05-1.84173E-05 2.56802E-05-9.57147E-20-2.10541E-19
 -1      3398 8.05822E-05-3.15039E-05-2.08707E-05 2.84462E-05-3.19166E-19-7.62859E-20
 -1      3399 9.53702E-05-2.80570E-05-2.88402E-05-9.13164E-07 6.36088E-19 5.92228E-19
 -1      3400 9.56960E-05-2.78760E-05-2.90708E-05-6.64133E-07 4.17800E-19 3.65538E-19
 -1      3401 9.53499E-05-2.82022E-05-2.87781E-05-1.13285E-06 5.13442E-19 6.20372E-19
 -1      3402 1.28861E-04-4.34402E-05-3.66013E-05 7.00986E-06 2.46778E-19-9.21201E-19
 -1      3403 1.29155E-04-3.94998E-05-3.87615E-05 9.34432E-06 6.63121E-19-8.19504E-20
 -1      3404 1.23457E-04-3.54815E-05-3.80584E-05 1.16899E-05 7.00973E-19-7.56956E-19
 -1      3405 9.52121E-05-4.43388E-05-2.15312E-05-3.31950E-05 1.48400E-18 3.41411E-18
 -1      3406 9.25458E-05-1.85576E-05-3.17205E-05-2.35658E-06 4.08175E-19-4.77749E-19
 -1      3407 9.27754E-05-1.89627E-05-3.16528E-05-3.06202E-06 3.22217E-19-6.57394E-19
 -1      3408 9.37618E-05-2.07063E-05-3.12912E-05-2.77873E-06 1.63600E-19-5.62491E-19
 -1      3409 4.71169E-05-1.15100E-05-1.47421E-05-3.73943E-06 2.82065E-19-8.76573E-19
 -1      3410 9.34506E-05-2.01787E-05-3.14269E-05 4.21344E-06 8.37432E-19 1.54908E-20
 -1      3411 9.30925E-05-1.95150E-05-3.15433E-05 3.62786E-06 8.08490E-19-1.46585E-20
 -1      3412 9.43630E-05-2.19434E-05-3.10137E-05 3.60197E-06 8.00016E-19 1.15054E-19
 -1      3413 5.62208E-05-1.70103E-05-1.63823E-05 1.84576E-05 2.50457E-19-1.27002E-18
 -1      3414 5.51809E-05-1.36911E-05-1.76442E-05 1.13689E-05 2.08450E-19-4.05252E-19
 -1      3415 6.57968E-05-1.99531E-05-1.94976E-05 2.06675E-05 2.74095E-20-1.09034E-18
 -1      3416 1.28008E-04-4.50066E-05-3.58941E-05-5.77191E-06-6.61427E-19 9.22445E-19
 -1      3417 1.30154E-04-4.92391E-05-3.47426E-05-1.67399E-06-1.62247E-19 1.36055E-19
 -1      3418 1.26278E-04-4.99562E-05-3.28000E-05 9.37425E-07-4.00524E-19 1.08897E-19
 -1      3419 9.28090E-05-1.90104E-05-3.16468E-05 3.10062E-06 7.69614E-19-8.37872E-20
 -1      3420 9.25707E-05-1.85921E-05-3.17162E-05 2.40227E-06 6.94657E-19-2.36641E-19
 -1      3421 9.33756E-05-1.99501E-05-3.14491E-05 1.78068E-06 6.30731E-19-3.39749E-19
 -1      3422 9.37908E-05-2.07437E-05-3.12844E-05 2.81489E-06 7.31513E-19-4.63657E-20
 -1      3423 9.42701E-05-2.65879E-05-2.90192E-05 2.30242E-06 1.42063E-18 5.16979E-19
 -1      3424 9.48120E-05-2.70310E-05-2.90425E-05 2.46474E-06 2.03428E-18-2.20776E-18
 -1      3425 1.19347E-04-2.20067E-05-4.20455E-05 1.22531E-05-6.35434E-19-4.14252E-19
 -1      3426 1.13659E-04-1.81973E-05-4.11822E-05 1.01445E-05-9.93781E-19-1.04492E-18
 -1      3427 1.18801E-04-2.65293E-05-3.95566E-05 1.27228E-05-6.43745E-20-1.03873E-18
 -1      3428 9.53247E-05-2.49614E-05-3.01551E-05 2.67988E-06 6.00967E-19 3.01121E-19
 -1      3429 4.56671E-05-1.22034E-05-1.38942E-05-8.35158E-06 5.78259E-19-1.94743E-18
 -1      3430 4.93837E-05-1.34654E-05-1.51426E-05-1.20304E-05 2.58358E-19-1.43667E-18
 -1      3431 4.88335E-05-1.11095E-05-1.59125E-05-3.67121E-06 5.06135E-19-1.74436E-18
 -1      3432 5.83457E-05-1.61328E-05-1.77125E-05-1.53300E-05 1.98537E-19-8.07858E-19
 -1      3433 9.48641E-05-2.73678E-05-2.89273E-05-2.17253E-06-1.05298E-18-3.28791E-18
 -1      3434 9.46762E-05-2.71910E-05-2.89252E-05-2.10551E-06 1.93108E-19-1.70214E-18
 -1      3435 9.44875E-05-2.70348E-05-2.89080E-05-2.28946E-06-2.81084E-20-2.61540E-18
 -1      3436 9.48665E-05-2.73579E-05-2.89295E-05-2.39835E-06-1.70985E-19-2.75489E-18
 -1      3437 1.13043E-04-1.73402E-05-4.14423E-05-9.48678E-06-1.98338E-18 7.17305E-19
 -1      3438 1.17858E-04-2.34869E-05-4.06005E-05-1.28856E-05-1.69915E-18 2.75392E-19
 -1      3439 9.61223E-05-2.76415E-05-2.93422E-05 4.25156E-07 3.77095E-20-3.54924E-19
 -1      3440 9.61090E-05-2.79272E-05-2.92245E-05 7.18624E-07-1.18883E-20-2.92108E-19
 -1      3441 9.60929E-05-2.81485E-05-2.91144E-05 9.24332E-07-4.97252E-20-3.32830E-19
 -1      3442 9.60507E-05-2.83048E-05-2.90353E-05 1.11457E-06-2.38515E-20-4.81362E-20
 -1      3443 9.62644E-05-2.79400E-05-2.92831E-05 7.10439E-07 8.65169E-21-1.51720E-19
 -1      3444 9.59836E-05-2.84064E-05-2.89590E-05 1.25030E-06 4.64679E-20-5.47790E-20
 -1      3445 9.59271E-05-2.84702E-05-2.89097E-05 1.37760E-06 5.07693E-20 2.54945E-20
 -1      3446 9.61833E-05-2.83088E-05-2.90907E-05 1.06989E-06 5.98072E-20-6.24958E-20
 -1      3447 9.58275E-05-2.84858E-05-2.88598E-05 1.47477E-06-3.06473E-20-3.02656E-20
 -1      3448 9.57646E-05-2.84835E-05-2.88330E-05 1.57137E-06-2.48021E-19 2.67158E-19
 -1      3449 9.60195E-05-2.84523E-05-2.89589E-05 1.31818E-06 9.07944E-20-2.55681E-19
 -1      3450 9.56442E-05-2.84380E-05-2.88032E-05 1.65581E-06-3.47981E-19 6.09018E-19
 -1      3451 9.55796E-05-2.83897E-05-2.87930E-05 1.74665E-06-1.28914E-19 4.90231E-19
 -1      3452 9.58023E-05-2.84328E-05-2.88739E-05 1.51209E-06-6.10534E-20 7.44483E-20
 -1      3453 9.54457E-05-2.83021E-05-2.87776E-05 1.83892E-06-1.62984E-19 6.76648E-19
 -1      3454 9.53835E-05-2.82243E-05-2.87791E-05 1.94265E-06-2.50479E-19 7.44606E-19
 -1      3455 9.55506E-05-2.82976E-05-2.88237E-05 1.69807E-06-1.93546E-19 3.39135E-19
 -1      3456 9.52422E-05-2.81112E-05-2.87730E-05 2.05882E-06-5.82912E-19 5.50875E-19
 -1      3457 9.51873E-05-2.80199E-05-2.87820E-05 2.18873E-06-5.56307E-19 4.21872E-19
 -1      3458 9.52774E-05-2.80853E-05-2.87973E-05 1.91310E-06-4.68826E-19 1.52729E-19
 -1      3459 9.50456E-05-2.78981E-05-2.87806E-05 2.34109E-06-4.78577E-19 5.19169E-19
 -1      3460 9.50060E-05-2.78112E-05-2.87931E-05 2.50554E-06-3.83418E-19 3.73402E-19
 -1      3461 9.49955E-05-2.78321E-05-2.87848E-05 2.18626E-06-4.29922E-19 1.28642E-19
 -1      3462 9.48743E-05-2.77006E-05-2.87920E-05 2.70295E-06-4.84624E-19 8.03681E-19
 -1      3463 9.48628E-05-2.76404E-05-2.88042E-05 2.90519E-06-7.29772E-19 4.72516E-19
 -1      3464 9.47217E-05-2.75772E-05-2.87770E-05 2.53997E-06-2.77479E-19 5.94874E-19
 -1      3465 9.47585E-05-2.75673E-05-2.87991E-05 3.15280E-06-6.42988E-19 4.35161E-19
 -1      3466 9.47955E-05-2.75635E-05-2.88075E-05 3.39018E-06-4.98630E-19 5.89822E-19
 -1      3467 9.44831E-05-2.73693E-05-2.87646E-05 2.99025E-06-7.15000E-19 1.26341E-18
 -1      3468 9.47462E-05-2.75628E-05-2.87945E-05 3.68842E-06-5.89898E-19 6.25589E-19
 -1      3469 9.48624E-05-2.76550E-05-2.87961E-05 3.95063E-06-5.25910E-19 6.87838E-19
 -1      3470 9.43233E-05-2.72733E-05-2.87390E-05 3.54596E-06-3.91551E-19 1.28938E-18
 -1      3471 9.49103E-05-2.77733E-05-2.87721E-05 4.29294E-06-5.60858E-19 7.06721E-19
 -1      3472 9.51492E-05-2.80116E-05-2.87653E-05 4.55908E-06-3.84748E-19 7.83863E-19
 -1      3473 9.43108E-05-2.73757E-05-2.86927E-05 4.20606E-06-4.15524E-19 9.12896E-19
 -1      3474 9.53560E-05-2.83078E-05-2.87297E-05 4.92742E-06-1.48464E-19 6.82066E-19
 -1      3475 9.57751E-05-2.87517E-05-2.87158E-05 5.16132E-06 8.39795E-22 5.14397E-19
 -1      3476 9.45473E-05-2.77892E-05-2.86217E-05 4.95361E-06-4.02235E-19 1.16767E-18
 -1      3477 9.62248E-05-2.92940E-05-2.86726E-05 5.51817E-06-9.07227E-20 7.32381E-19
 -1      3478 9.68921E-05-3.00042E-05-2.86583E-05 5.66136E-06 1.03272E-19 9.91627E-19
 -1      3479 9.51766E-05-2.86529E-05-2.85286E-05 5.74402E-06-1.32450E-20 1.19746E-18
 -1      3480 9.76906E-05-3.08594E-05-2.86198E-05 5.93581E-06 4.35474E-19 6.01684E-19
 -1      3481 9.86712E-05-3.18776E-05-2.86213E-05 5.89831E-06 7.82149E-19 7.08265E-19
 -1      3482 9.63882E-05-3.01208E-05-2.84291E-05 6.48350E-06 2.00639E-19 1.71529E-18
 -1      3483 9.99339E-05-3.30844E-05-2.86139E-05 5.96413E-06 6.75436E-19 3.43772E-19
 -1      3484 1.01257E-04-3.43909E-05-2.86612E-05 5.61687E-06 7.04911E-19-2.35992E-19
 -1      3485 9.84072E-05-3.23268E-05-2.83619E-05 6.99219E-06 6.00523E-19 1.05090E-18
 -1      3486 1.03064E-04-3.58983E-05-2.87336E-05 5.26576E-06 1.09256E-18-7.25875E-19
 -1      3487 1.04685E-04-3.73406E-05-2.88763E-05 4.44608E-06 5.16215E-19-5.87204E-19
 -1      3488 1.01449E-04-3.53030E-05-2.84035E-05 6.94464E-06 5.17141E-19 2.30606E-19
 -1      3489 1.06962E-04-3.89113E-05-2.91058E-05 3.45482E-06 5.98267E-20-7.44286E-19
 -1      3490 1.08641E-04-4.01093E-05-2.94126E-05 2.05547E-06-8.06154E-20-5.73728E-19
 -1      3491 1.05472E-04-3.87323E-05-2.86867E-05 5.81651E-06 3.75156E-19 7.75829E-20
 -1      3492 1.11252E-04-4.12581E-05-2.99085E-05-8.60993E-08 1.76156E-19-3.99297E-19
 -1      3493 1.12360E-04-4.14148E-05-3.04565E-05-2.08419E-06 3.76774E-19 2.82126E-19
 -1      3494 1.10691E-04-4.21636E-05-2.94496E-05 3.08953E-06 4.17084E-19-6.00305E-19
 -1      3495 1.14284E-04-4.11606E-05-3.13397E-05-4.90649E-06 2.03174E-19 4.62707E-19
 -1      3496 1.14447E-04-3.94540E-05-3.21684E-05-7.04945E-06-1.14225E-19 9.42443E-19
 -1      3497 1.14991E-04-4.31024E-05-3.08318E-05-1.68046E-06 6.33169E-19 4.33872E-19
 -1      3498 1.14741E-04-3.69921E-05-3.34626E-05-9.81896E-06-5.78160E-19 1.17982E-18
 -1      3499 1.13466E-04-3.29522E-05-3.44887E-05-1.11092E-05-6.05576E-19 5.30651E-19
 -1      3500 1.17544E-04-4.01181E-05-3.31431E-05-7.69695E-06-1.02431E-19 1.59966E-18
 -1      3501 1.11053E-04-2.61963E-05-3.65377E-05-1.14417E-05-5.05030E-19-3.47747E-19
 -1      3502 1.08930E-04-2.16534E-05-3.75313E-05-9.94655E-06-5.81329E-19-1.04169E-18
 -1      3503 1.07393E-04-1.84339E-05-3.81923E-05-6.33787E-06-1.35462E-18-1.86014E-18
 -1      3504 1.05815E-04-1.52341E-05-3.90597E-05-4.82049E-07-1.44239E-18-2.01333E-18
 -1      3505 1.06268E-04-1.61287E-05-3.87317E-05 3.87583E-06-9.74723E-19-1.92402E-18
 -1      3506 1.08734E-04-2.07595E-05-3.77702E-05 9.09236E-06-3.42519E-19-2.88686E-18
 -1      3507 1.10752E-04-2.50336E-05-3.70357E-05 1.13560E-05-5.55270E-19-2.02187E-18
 -1      3508 1.15839E-04-3.21957E-05-3.59122E-05 1.13358E-05-1.41666E-19-1.45318E-18
 -1      3509 1.17482E-04-3.68987E-05-3.46455E-05 1.04589E-05 3.91058E-20-2.44528E-19
 -1      3510 1.13268E-04-4.13285E-05-3.08830E-05 3.35252E-06 6.63429E-19 1.21005E-18
 -1      3511 1.12229E-04-4.15294E-05-3.02514E-05 1.22301E-06 6.83623E-20 1.45018E-18
 -1      3512 1.09815E-04-4.07093E-05-2.96563E-05-1.01749E-06-7.04576E-19 1.76813E-18
 -1      3513 1.08217E-04-3.97267E-05-2.92875E-05-2.63728E-06-5.59730E-19 1.86681E-18
 -1      3514 1.11877E-04-4.26025E-05-2.97354E-05-1.96588E-06 2.15140E-19 6.78414E-19
 -1      3515 1.05799E-04-3.81978E-05-2.89946E-05-3.92419E-06-9.27726E-19 2.05405E-18
 -1      3516 1.04145E-04-3.67783E-05-2.88140E-05-4.90990E-06-7.83071E-19 2.03220E-18
 -1      3517 1.06946E-04-3.97825E-05-2.88389E-05-5.31232E-06-7.41663E-19 6.68410E-19
 -1      3518 1.02176E-04-3.52027E-05-2.87094E-05-5.41838E-06-1.07895E-18 1.67616E-18
 -1      3519 1.00756E-04-3.38272E-05-2.86431E-05-5.88018E-06-6.02645E-19 5.60501E-19
 -1      3520 1.02538E-04-3.62609E-05-2.84606E-05-6.80422E-06-1.36807E-18 1.37784E-18
 -1      3521 9.93421E-05-3.25151E-05-2.86374E-05-5.90064E-06 4.23731E-19 1.44348E-19
 -1      3522 9.82623E-05-3.13989E-05-2.86298E-05-6.00436E-06 9.37915E-19-1.70643E-19
 -1      3523 9.91841E-05-3.30828E-05-2.83746E-05-7.07258E-06-1.69956E-19-2.73351E-19
 -1      3524 9.73399E-05-3.04330E-05-2.86672E-05-5.76484E-06 8.49827E-19-1.51415E-19
 -1      3525 9.65870E-05-2.96238E-05-2.86837E-05-5.65037E-06 2.17552E-19 6.09801E-20
 -1      3526 9.68905E-05-3.06323E-05-2.84287E-05-6.66553E-06 9.37001E-19-1.19788E-18
 -1      3527 9.60440E-05-2.89814E-05-2.87328E-05-5.29500E-06-8.69656E-19-2.04878E-19
 -1      3528 9.55570E-05-2.84480E-05-2.87538E-05-5.06211E-06-6.70091E-19-6.05616E-19
 -1      3529 9.54643E-05-2.89332E-05-2.85343E-05-5.94646E-06-5.22126E-19-6.03878E-19
 -1      3530 9.52804E-05-2.80641E-05-2.87992E-05-4.67366E-06-1.89221E-19-1.82979E-18
 -1      3531 9.49886E-05-2.77462E-05-2.88159E-05-4.38689E-06-3.45207E-19-2.95759E-18
 -1      3532 9.46747E-05-2.78675E-05-2.86443E-05-5.12681E-06-1.20585E-18-2.06941E-18
 -1      3533 9.48857E-05-2.75495E-05-2.88517E-05-4.00888E-06-4.21375E-19-3.48391E-18
 -1      3534 9.47262E-05-2.73837E-05-2.88617E-05-3.70811E-06-1.85363E-19-4.42075E-18
 -1      3535 9.43159E-05-2.72771E-05-2.87379E-05-4.31676E-06-8.36849E-19-3.15464E-18
 -1      3536 9.47266E-05-2.73115E-05-2.88878E-05-3.36270E-06 1.35222E-18-4.25913E-18
 -1      3537 9.46547E-05-2.72413E-05-2.88927E-05-3.07158E-06 9.55620E-19-2.94088E-18
 -1      3538 9.42277E-05-2.70114E-05-2.88097E-05-3.56941E-06 4.73309E-19-2.10318E-18
 -1      3539 9.44486E-05-2.23076E-05-3.09355E-05-4.39320E-06-1.73263E-19-7.99590E-19
 -1      3540 9.56662E-05-2.54326E-05-3.00955E-05-1.41980E-06-1.92803E-20-4.61297E-19
 -1      3541 9.58273E-05-2.61592E-05-2.98663E-05-7.82265E-07 4.53097E-20-3.78994E-19
 -1      3542 9.47384E-05-2.73453E-05-2.88788E-05-2.69626E-06 9.58813E-20 1.09149E-18
 -1      3543 9.48411E-05-2.75527E-05-2.88440E-05-2.48326E-06 2.60117E-19 1.18845E-18
 -1      3544 9.50499E-05-2.77738E-05-2.88288E-05-2.32272E-06 2.41920E-19 1.12456E-18
 -1      3545 9.51253E-05-2.79314E-05-2.88016E-05-2.16431E-06 2.38004E-19 1.08024E-18
 -1      3546 9.48030E-05-2.75077E-05-2.88383E-05-2.29403E-06 1.80124E-19 1.54791E-18
 -1      3547 9.37660E-05-2.61255E-05-2.89855E-05-3.81897E-06 3.57270E-19 4.67073E-19
 -1      3548 9.39744E-05-2.64513E-05-2.89491E-05-3.45984E-06 3.53639E-19 4.61885E-19
 -1      3549 9.30021E-05-2.53006E-05-2.90125E-05-4.60183E-06 9.36184E-20 4.61187E-19
 -1      3550 9.33002E-05-2.56962E-05-2.89868E-05-4.15559E-06 2.76265E-19 4.35607E-19
 -1      3551 9.29251E-05-2.54845E-05-2.88915E-05-3.68968E-06 1.58937E-19 3.67177E-19
 -1      3552 9.19619E-05-2.43173E-05-2.89893E-05-5.54834E-06-2.73388E-19-9.94309E-20
 -1      3553 9.23810E-05-2.47838E-05-2.89878E-05-5.00804E-06 2.51659E-20 1.82506E-19
 -1      3554 9.18591E-05-2.44938E-05-2.88539E-05-4.37502E-06 2.10248E-19 4.67807E-19
 -1      3555 9.05651E-05-2.31896E-05-2.88751E-05-6.67164E-06-8.25858E-19-4.49953E-19
 -1      3556 9.11365E-05-2.37130E-05-2.89186E-05-6.02947E-06-5.50928E-19-2.93426E-19
 -1      3557 9.04407E-05-2.33244E-05-2.87402E-05-5.17508E-06-2.93282E-19-4.13170E-19
 -1      3558 8.87364E-05-2.19817E-05-2.86087E-05-8.00172E-06-1.35626E-18-3.10765E-20
 -1      3559 8.94789E-05-2.25160E-05-2.87285E-05-7.24163E-06-1.17991E-18-4.83477E-19
 -1      3560 8.85650E-05-2.19898E-05-2.84994E-05-6.09804E-06-1.09831E-18 1.92498E-19
 -1      3561 8.64327E-05-2.08553E-05-2.81004E-05-9.62050E-06-8.95372E-19 3.76247E-20
 -1      3562 8.73296E-05-2.12942E-05-2.83417E-05-8.70147E-06-1.03721E-18-2.44720E-19
 -1      3563 8.61133E-05-2.05472E-05-2.80558E-05-7.18435E-06-1.28450E-18-4.29881E-19
 -1      3564 8.36946E-05-2.01330E-05-2.72237E-05-1.17134E-05 2.11394E-19 6.06052E-20
 -1      3565 8.46604E-05-2.02772E-05-2.76475E-05-1.05368E-05-4.26292E-19-6.27148E-20
 -1      3566 8.29796E-05-1.91480E-05-2.72960E-05-8.56823E-06-6.26547E-19-9.94850E-19
 -1      3567 8.07315E-05-2.04223E-05-2.58199E-05-1.47465E-05-5.99842E-19 2.04886E-19
 -1      3568 8.14732E-05-1.98460E-05-2.64870E-05-1.30422E-05-6.65876E-20 3.21736E-19
 -1      3569 7.90579E-05-1.80331E-05-2.60498E-05-1.04832E-05-4.53014E-20-5.28476E-19
 -1      3570 8.83912E-05-2.17985E-05-2.85770E-05 8.39790E-06-9.15199E-19-3.45312E-19
 -1      3571 8.75842E-05-2.13460E-05-2.83873E-05 9.29763E-06-8.44679E-19-9.70063E-19
 -1      3572 9.60129E-05-2.67842E-05-2.96618E-05-3.29879E-07 8.86727E-21-3.67204E-19
 -1      3573 9.60583E-05-2.72522E-05-2.94949E-05 1.14466E-07 4.84306E-20-3.44580E-19
 -1      3574 9.62168E-05-2.72635E-05-2.95519E-05 1.73894E-07 3.34494E-20-2.32132E-19
 -1      3575 8.59665E-05-2.07373E-05-2.80070E-05 1.01540E-05-6.93620E-19-1.11420E-18
 -1      3576 8.50138E-05-2.05259E-05-2.76543E-05 1.13207E-05 2.68941E-19-9.18343E-19
 -1      3577 8.44140E-05-1.97143E-05-2.76682E-05 8.39043E-06-9.70958E-19-2.00757E-19
 -1      3578 9.39296E-05-2.62440E-05-2.90034E-05 2.40931E-06 1.19947E-18-6.94638E-20
 -1      3579 9.02971E-05-2.29638E-05-2.88844E-05 6.94897E-06-5.39606E-19-7.21322E-19
 -1      3580 8.96526E-05-2.24589E-05-2.87967E-05 7.70615E-06-9.41808E-19-1.84507E-19
 -1      3581 8.72146E-05-2.10806E-05-2.83044E-05 7.03049E-06-7.87790E-19 3.06685E-19
 -1      3582 9.17472E-05-2.40593E-05-2.90296E-05 5.71865E-06-2.94486E-19-1.72672E-18
 -1      3583 9.12630E-05-2.35872E-05-2.90031E-05 6.36820E-06 6.22375E-20-1.08771E-18
 -1      3584 8.94031E-05-2.24352E-05-2.86716E-05 5.91586E-06-1.70400E-19 8.82990E-20
 -1      3585 9.28164E-05-2.50018E-05-2.90791E-05 4.66110E-06 1.45757E-18-3.43785E-18
 -1      3586 9.24710E-05-2.45985E-05-2.90864E-05 5.21797E-06 7.60083E-19-2.65817E-18
 -1      3587 9.10604E-05-2.36484E-05-2.88696E-05 4.94484E-06 1.22505E-18-1.22433E-18
 -1      3588 9.35789E-05-2.57597E-05-2.90765E-05 3.75513E-06 2.25747E-19-2.98958E-18
 -1      3589 9.33491E-05-2.54391E-05-2.91001E-05 4.22908E-06 3.77329E-19-3.27643E-18
 -1      3590 9.22920E-05-2.46752E-05-2.89649E-05 4.08817E-06 1.28981E-18-2.43161E-18
 -1      3591 5.41549E-05-1.52521E-05-1.64720E-05-1.79027E-05 1.28316E-18 1.26684E-19
 -1      3592 6.16407E-05-2.11699E-05-1.71568E-05-2.61974E-05 8.31230E-19 2.11213E-18
 -1      3593 9.49071E-05-2.70215E-05-2.90814E-05 2.74418E-06 2.94516E-18-1.38074E-18
 -1      3594 9.28106E-05-2.55914E-05-2.88043E-05-1.25961E-06 1.24211E-18-2.64369E-19
 -1      3595 9.26186E-05-2.54299E-05-2.88026E-05-8.59532E-07 1.08219E-18-1.06614E-18
 -1      3596 1.13410E-04-5.16822E-05-2.63796E-05-2.20472E-05 7.22374E-19 9.42127E-19
 -1      3597 1.22699E-04-5.50781E-05-2.90500E-05-1.57236E-05-1.41402E-19-1.34531E-18
 -1      3598 5.09334E-05-1.10053E-05-1.69213E-05 1.02171E-06-5.54237E-19-1.50433E-18
 -1      3599 5.10681E-05-1.18265E-05-1.65330E-05-9.34533E-06 3.97020E-19-1.03492E-18
 -1      3600 1.21707E-04-3.07596E-05-3.93236E-05-1.23611E-05-1.47246E-18 5.87047E-19
 -1      3601 1.26039E-04-3.84989E-05-3.75771E-05-1.04349E-05-1.33498E-18 7.67544E-19
 -1      3602 7.62933E-05-2.49138E-05-2.18732E-05-2.30755E-05-4.80863E-19-6.34428E-19
 -1      3603 7.91628E-05-2.58393E-05-2.25088E-05 2.32112E-05-4.81889E-19-6.73391E-19
 -1      3604 1.03535E-04-4.48091E-05-2.52526E-05 2.30752E-05-8.25195E-20-1.14941E-18
 -1      3605 9.27784E-05-3.84152E-05-2.31256E-05 2.69300E-05-7.39331E-19-6.88638E-19
 -1      3606 9.22645E-05-1.80738E-05-3.18081E-05-1.00154E-06 5.68731E-19-3.62650E-19
 -1      3607 9.23762E-05-1.82662E-05-3.17765E-05-1.74912E-06 5.06877E-19-3.56220E-19
 -1      3608 9.33572E-05-1.99228E-05-3.14527E-05-1.74434E-06 4.11424E-19-3.78858E-19
 -1      3609 5.87348E-05-1.34105E-05-1.91281E-05-1.02953E-05 5.64468E-20-6.70321E-19
 -1      3610 6.55687E-05-1.82160E-05-2.02544E-05-1.84135E-05-4.90869E-19-5.75294E-19
 -1      3611 9.57129E-05-2.61967E-05-2.98024E-05 9.70956E-07 3.50133E-19-1.27168E-20
 -1      3612 9.56073E-05-2.54912E-05-3.00384E-05 1.68155E-06 5.04989E-19-3.07332E-20
 -1      3613 8.93087E-05-3.85076E-05-2.14057E-05-3.10898E-05 7.04520E-19 3.68073E-18
 -1      3614 1.00455E-04-4.51337E-05-2.37746E-05-2.81350E-05 9.44826E-19 2.99680E-18
 -1      3615 7.47174E-05-2.17907E-05-2.26950E-05 1.94475E-05-7.87397E-19-1.00534E-18
 -1      3616 7.81273E-05-1.96330E-05-2.51776E-05 1.45429E-05-1.26556E-18-1.30488E-18
 -1      3617 7.77914E-05-2.10425E-05-2.42788E-05 1.66792E-05-1.40720E-18-1.44992E-18
 -1      3618 6.68780E-05-1.56541E-05-2.16656E-05 1.36947E-05-8.01280E-19-1.44927E-18
 -1      3619 6.83933E-05-2.57817E-05-1.79048E-05-2.94884E-05 9.98837E-19 4.01240E-18
 -1      3620 7.71857E-05-3.21059E-05-1.93381E-05-3.21282E-05 6.46551E-19 5.01973E-18
 -1      3621 6.79556E-05-2.28405E-05-1.91103E-05-2.47223E-05 1.83436E-19 3.35999E-18
 -1      3622 9.43253E-05-2.68014E-05-2.89350E-05-3.18862E-06 5.36347E-19 5.84134E-19
 -1      3623 9.44706E-05-2.70642E-05-2.88966E-05-2.90798E-06 3.92913E-19 8.33016E-19
 -1      3624 9.43344E-05-2.69739E-05-2.88640E-05-2.65611E-06 3.66466E-19 1.22683E-18
 -1      3625 9.37266E-05-2.63054E-05-2.88871E-05-3.11800E-06 5.56533E-19 7.32874E-19
 -1      3626 9.59004E-05-2.72582E-05-2.94252E-05-4.11321E-08 1.14299E-19 1.65497E-19
 -1      3627 9.58841E-05-2.68080E-05-2.95929E-05 4.46933E-07 1.18336E-19-1.33707E-20
 -1      3628 9.58598E-05-2.61572E-05-2.98723E-05 7.89592E-07 2.60080E-19-4.24960E-20
 -1      3629 9.53667E-05-2.49090E-05-3.02046E-05 2.21803E-06 6.85450E-19 4.20831E-20
 -1      3630 9.52266E-05-2.43152E-05-3.03857E-05 2.94088E-06 7.76455E-19 2.88231E-19
 -1      3631 9.49257E-05-2.34743E-05-3.06301E-05 3.14400E-06 8.56266E-19 2.77511E-19
 -1      3632 9.54571E-05-2.48622E-05-3.02584E-05 1.87566E-06 6.53651E-19 8.03614E-20
 -1      3633 8.24682E-05-1.98259E-05-2.69237E-05 1.19569E-05 7.64157E-19-1.70738E-18
 -1      3634 8.14941E-05-2.01078E-05-2.63314E-05 1.35018E-05-7.66900E-19-1.57602E-18
 -1      3635 7.45805E-05-1.65439E-05-2.46232E-05 1.07176E-05-2.18859E-19-1.76994E-18
 -1      3636 8.04030E-05-1.82238E-05-2.65244E-05 9.60064E-06-8.01356E-20-1.43435E-18
 -1      3637 9.56492E-05-2.84392E-05-2.88024E-05-1.64090E-06 4.34802E-19 4.93225E-19
 -1      3638 9.56938E-05-2.84455E-05-2.88197E-05-1.53805E-06 6.22596E-19 5.51445E-19
 -1      3639 7.56708E-05-2.17669E-05-2.29090E-05-1.87720E-05-3.08241E-19-5.85578E-19
 -1      3640 1.23808E-04-5.29367E-05-3.04193E-05-8.98488E-06 6.26593E-19-1.22997E-18
 -1      3641 9.38705E-05-2.09636E-05-3.12580E-05 7.92724E-07 4.04773E-19-5.17970E-19
 -1      3642 9.38208E-05-2.08618E-05-3.12777E-05 2.40071E-07 4.17463E-19-5.25656E-19
 -1      3643 9.24696E-05-2.52554E-05-2.88056E-05-3.57265E-07 6.35798E-19-1.30980E-18
 -1      3644 9.24147E-05-2.51933E-05-2.88148E-05 1.04717E-07-8.23259E-20 9.62032E-19
 -1      3645 9.22062E-05-2.51089E-05-2.87498E-05-7.39481E-07-7.94517E-20-3.72156E-19
 -1      3646 9.59663E-05-2.61630E-05-2.99141E-05-6.07299E-07 5.19638E-20-2.77559E-19
 -1      3647 1.15756E-04-2.99335E-05-3.68632E-05-1.18941E-05-1.14997E-18 6.31198E-19
 -1      3648 9.51781E-05-2.40045E-05-3.05086E-05-2.52987E-06-6.62967E-20-6.11696E-19
 -1      3649 9.53949E-05-2.47359E-05-3.02907E-05-1.87711E-06-6.43214E-20-5.24299E-19
 -1      3650 9.55015E-05-2.47466E-05-3.03189E-05-1.53894E-06 7.10762E-20-3.47093E-19
 -1      3651 8.49450E-05-3.40206E-05-2.16924E-05-2.81442E-05 3.70180E-19 4.48480E-18
 -1      3652 1.21199E-04-4.17136E-05-3.41924E-05 7.48427E-06 8.25089E-19-7.63870E-19
 -1      3653 1.15157E-04-3.90470E-05-3.26449E-05 7.67361E-06-1.23118E-20 4.34786E-19
 -1      3654 1.15250E-04-4.10713E-05-3.17772E-05 5.77338E-06 7.89631E-19 8.70778E-19
 -1      3655 9.59546E-05-2.76342E-05-2.92719E-05-3.94821E-07 2.28076E-19 1.07139E-19
 -1      3656 9.60871E-05-2.72493E-05-2.95033E-05-1.10470E-07 1.66694E-19 3.66980E-20
 -1      3657 9.59345E-05-2.79092E-05-2.91574E-05-7.13551E-07 4.13303E-19 2.11908E-19
 -1      3658 9.47717E-05-2.72970E-05-2.89148E-05-2.83943E-06 2.36946E-19-2.63606E-18
 -1      3659 9.47704E-05-2.72981E-05-2.89174E-05-2.59994E-06 1.21410E-18-2.35849E-18
 -1      3660 9.45750E-05-2.71318E-05-2.89034E-05-2.55961E-06-3.77449E-20-3.88535E-18
 -1      3661 9.43597E-05-2.70021E-05-2.88650E-05-2.98864E-06 1.61304E-18-2.34369E-18
 -1      3662 9.57824E-05-2.84341E-05-2.88629E-05-1.43356E-06 4.65820E-19 3.41100E-19
 -1      3663 9.58236E-05-2.83721E-05-2.89047E-05-1.29842E-06 2.12955E-19 3.47724E-19
 -1      3664 9.59123E-05-2.84194E-05-2.89274E-05-1.39663E-06 3.72570E-19 2.34742E-19
 -1      3665 9.46842E-05-2.28134E-05-3.08030E-05 2.90707E-06 7.04190E-19 9.39952E-20
 -1      3666 9.51727E-05-2.79193E-05-2.88219E-05-2.01522E-06 2.57624E-19 7.68529E-19
 -1      3667 9.52921E-05-2.80979E-05-2.87941E-05-2.04369E-06 3.28179E-19 8.79813E-19
 -1      3668 9.53509E-05-2.82083E-05-2.87780E-05-1.92410E-06 3.97680E-19 7.98085E-19
 -1      3669 9.33991E-05-2.58121E-05-2.89748E-05 2.49282E-06 8.05371E-19-1.28150E-18
 -1      3670 9.38944E-05-2.61718E-05-2.90215E-05 2.81246E-06 1.98268E-18-2.58288E-18
 -1      3671 7.58872E-05-1.98228E-05-2.40215E-05-1.63032E-05-4.84721E-19-8.97855E-20
 -1      3672 7.19867E-05-1.67495E-05-2.35124E-05-1.25272E-05-4.00657E-19-5.00044E-19
 -1      3673 1.11377E-04-4.69359E-05-2.77208E-05 1.40756E-05 7.30243E-19 1.52194E-18
 -1      3674 1.08460E-04-4.65192E-05-2.64227E-05 1.91259E-05 4.10897E-19 1.36644E-19
 -1      3675 1.02261E-04-4.16914E-05-2.59357E-05 1.95116E-05-1.20029E-19 7.44602E-19
 -1      3676 5.80537E-05-1.32357E-05-1.90054E-05 5.88802E-06-3.95545E-19-5.24975E-19
 -1      3677 1.07819E-04-4.79722E-05-2.54945E-05-2.31409E-05 9.06425E-19 1.03922E-18
 -1      3678 1.12561E-04-4.88319E-05-2.74185E-05-1.67073E-05 9.64895E-19-8.45448E-19
 -1      3679 1.01403E-04-4.28719E-05-2.51167E-05-2.27701E-05 6.10949E-19 4.65590E-19
 -1      3680 9.38597E-05-2.60217E-05-2.90681E-05 3.37264E-06 1.39997E-18-2.98287E-18
 -1      3681 9.30653E-05-2.54145E-05-2.89905E-05 3.30387E-06 3.03928E-19-3.34242E-18
 -1      3682 5.80948E-05-1.44971E-05-1.84087E-05-1.27314E-05 7.08828E-19-7.60239E-19
 -1      3683 9.43737E-05-2.65911E-05-2.90634E-05 2.88429E-06 2.62867E-18-1.20466E-18
 -1      3684 9.30811E-05-2.58623E-05-2.88160E-05-1.65155E-06 1.49019E-18 5.60304E-19
 -1      3685 9.26809E-05-2.55657E-05-2.87611E-05-1.65615E-06 9.12737E-19 5.93175E-19
 -1      3686 9.33669E-05-2.60871E-05-2.88261E-05-1.94623E-06 1.10054E-18 8.04343E-19
 -1      3687 9.54874E-05-2.83215E-05-2.87826E-05-1.82882E-06 2.32725E-19 4.82452E-19
 -1      3688 9.55369E-05-2.83831E-05-2.87811E-05-1.72919E-06 2.42520E-19 4.40787E-19
 -1      3689 9.57156E-05-2.83861E-05-2.88566E-05-1.60299E-06 4.88386E-19 2.09811E-19
 -1      3690 9.54712E-05-2.82136E-05-2.88249E-05-1.79551E-06 6.43571E-20 4.03189E-19
 -1      3691 1.27379E-04-4.64392E-05-3.47665E-05 3.81586E-06 6.72296E-19-9.13869E-19
 -1      3692 8.77591E-05-3.45530E-05-2.27028E-05 2.65619E-05-4.73386E-19-4.04326E-19
 -1      3693 8.21552E-05-2.97441E-05-2.24373E-05 2.41446E-05-4.75516E-19-4.47326E-19
 -1      3694 9.34314E-05-3.62159E-05-2.44623E-05 2.21065E-05-6.11182E-19-9.32980E-19
 -1      3695 6.35634E-05-1.91071E-05-1.87220E-05 2.13312E-05-3.98767E-20-2.93338E-19
 -1      3696 6.22648E-05-1.65456E-05-1.95441E-05 1.58375E-05 1.21364E-19-4.50674E-19
 -1      3697 7.19258E-05-2.31165E-05-2.08492E-05 2.22153E-05-3.27725E-19-7.19872E-19
 -1      3698 1.24115E-04-4.14368E-05-3.54765E-05-8.16352E-06-6.85230E-19 1.02044E-18
 -1      3699 9.41075E-05-2.15911E-05-3.10838E-05-4.14205E-06-1.05175E-19-7.56513E-19
 -1      3700 9.31538E-05-1.95457E-05-3.15283E-05-5.82236E-07 5.05210E-19-4.72548E-19
 -1      3701 9.56426E-05-2.82369E-05-2.88926E-05-1.15107E-06 4.62081E-19 3.62276E-19
 -1      3702 9.27318E-05-2.53327E-05-2.88920E-05 1.66948E-06-2.98786E-19 1.39260E-18
 -1      3703 9.30169E-05-2.55285E-05-2.89229E-05 2.06715E-06 7.57565E-20-2.13405E-19
 -1      3704 9.29082E-05-2.53853E-05-2.89321E-05 2.50773E-06 5.95854E-19-1.10598E-18
 -1      3705 1.16297E-04-4.36195E-05-3.12624E-05 2.50952E-06 1.79240E-19 7.31228E-21
 -1      3706 1.23207E-04-5.09472E-05-3.09692E-05 5.02825E-06 4.17518E-19 8.90523E-19
 -1      3707 1.18413E-04-4.97573E-05-2.94416E-05 8.61001E-06 6.74940E-19 1.38017E-18
 -1      3708 1.23047E-04-4.85419E-05-3.19562E-05 7.14477E-07 4.11354E-19 1.49785E-18
 -1      3709 1.08869E-04-1.74867E-05-3.94343E-05 7.40736E-06-8.04337E-19-1.95651E-18
 -1      3710 9.40995E-05-2.14379E-05-3.11557E-05 1.73235E-06 6.62920E-19-1.85089E-19
 -1      3711 9.39599E-05-2.11384E-05-3.12162E-05 1.22113E-06 5.87846E-19-4.10162E-19
 -1      3712 9.46038E-05-2.22794E-05-3.09779E-05 8.05800E-07 4.53791E-19-2.81400E-19
 -1      3713 5.18004E-05-1.12054E-05-1.69664E-05 1.48332E-06 5.60114E-19-1.87131E-18
 -1      3714 5.31873E-05-1.16722E-05-1.77138E-05-2.09207E-06 5.24924E-19-1.69915E-18
 -1      3715 9.43755E-05-2.69667E-05-2.88925E-05-2.48334E-06 4.46544E-19-2.27325E-18
 -1      3716 9.42422E-05-2.17415E-05-3.10744E-05-2.07934E-06 3.30025E-19-4.57046E-19
 -1      3717 9.44465E-05-2.22256E-05-3.09665E-05-2.48598E-06 1.00267E-19-4.33786E-19
 -1      3718 9.46081E-05-2.26082E-05-3.08448E-05-3.18124E-06-5.90133E-20-6.26944E-19
 -1      3719 6.04260E-05-1.33113E-05-2.00297E-05-5.89357E-06-5.79291E-20-1.04410E-18
 -1      3720 9.50665E-05-2.35615E-05-3.06393E-05-1.91308E-06 1.53871E-19-2.94781E-19
 -1      3721 9.46375E-05-2.26513E-05-3.08449E-05-2.63692E-06 5.50158E-20-3.60743E-19
 -1      3722 5.57649E-05-1.26419E-05-1.83262E-05 7.31469E-06 4.49095E-19-1.37889E-18
 -1      3723 9.41494E-05-2.68115E-05-2.88618E-05-2.66800E-06 9.48036E-19-2.55781E-18
 -1      3724 9.40890E-05-2.67122E-05-2.88701E-05-2.37858E-06 6.90593E-19-1.82925E-18
 -1      3725 9.37540E-05-2.64464E-05-2.88535E-05-2.21235E-06 7.07282E-19-1.02448E-18
 -1      3726 9.40252E-05-2.67360E-05-2.88376E-05-2.87469E-06 1.66247E-18-3.20324E-18
 -1      3727 9.52754E-05-2.39724E-05-3.05607E-05-1.43082E-06 1.85863E-19-2.79062E-19
 -1      3728 9.54345E-05-2.44127E-05-3.04393E-05-1.51798E-06 1.35565E-19-2.85594E-19
 -1      3729 9.56762E-05-2.51092E-05-3.02471E-05-1.05914E-06 4.88108E-20-3.40549E-19
 -1      3730 6.24206E-05-1.27038E-05-2.10788E-05-9.76212E-09 2.33508E-19-8.46093E-19
 -1      3731 6.63614E-05-1.44557E-05-2.23078E-05-7.52531E-06-3.71765E-19-3.32474E-19
 -1      3732 7.18674E-05-1.56421E-05-2.41480E-05-7.39129E-06-2.32434E-19-3.44239E-20
 -1      3733 1.13680E-04-4.47460E-05-2.95552E-05-4.18870E-06 6.68651E-19-3.15818E-19
 -1      3734 1.11038E-04-4.33347E-05-2.89163E-05-6.33888E-06 9.75032E-19-2.97537E-20
 -1      3735 1.23497E-04-4.74432E-05-3.25250E-05 1.70587E-06 8.75170E-19-9.55427E-19
 -1      3736 1.17072E-04-2.82734E-05-3.81070E-05-1.21009E-05-1.68046E-18-8.12093E-20
 -1      3737 9.63530E-05-2.82073E-05-2.92028E-05 8.57401E-07-3.62292E-20-7.68507E-20
 -1      3738 9.62870E-05-2.83414E-05-2.91207E-05 1.01057E-06 9.89837E-20-1.52718E-19
 -1      3739 9.61861E-05-2.84155E-05-2.90434E-05 1.11196E-06 2.50508E-19-1.26411E-19
 -1      3740 9.60871E-05-2.84473E-05-2.89881E-05 1.22388E-06 1.29433E-19-1.91571E-20
 -1      3741 9.63339E-05-2.83273E-05-2.91459E-05 9.17294E-07 1.67736E-19-9.14515E-20
 -1      3742 9.59410E-05-2.84277E-05-2.89345E-05 1.30581E-06 5.60465E-20 2.00499E-19
 -1      3743 9.58206E-05-2.83849E-05-2.88995E-05 1.40167E-06-4.29824E-22 3.45577E-19
 -1      3744 9.60885E-05-2.83968E-05-2.90111E-05 1.11020E-06 1.68797E-19 1.74260E-19
 -1      3745 9.56418E-05-2.82971E-05-2.88634E-05 1.48412E-06-1.21447E-19 3.88420E-19
 -1      3746 9.55076E-05-2.82017E-05-2.88430E-05 1.58440E-06-9.05093E-20 4.30148E-19
 -1      3747 9.57658E-05-2.82917E-05-2.89177E-05 1.28180E-06-1.13734E-19 3.11538E-19
 -1      3748 9.53043E-05-2.80663E-05-2.88188E-05 1.68427E-06-4.00910E-19 3.09850E-19
 -1      3749 9.51625E-05-2.79370E-05-2.88078E-05 1.80530E-06-5.07494E-19 3.83189E-19
 -1      3750 9.53862E-05-2.80604E-05-2.88537E-05 1.46839E-06-3.29567E-19 4.74180E-19
 -1      3751 9.49410E-05-2.77724E-05-2.87900E-05 1.93736E-06-4.03494E-19 2.79948E-19
 -1      3752 9.47985E-05-2.76280E-05-2.87835E-05 2.09226E-06-3.69336E-19 3.28888E-19
 -1      3753 9.49636E-05-2.77437E-05-2.88080E-05 1.70138E-06-4.28706E-19 5.62041E-19
 -1      3754 9.45661E-05-2.74538E-05-2.87666E-05 2.27002E-06-5.29775E-20 7.20243E-19
 -1      3755 9.44337E-05-2.73162E-05-2.87598E-05 2.46905E-06 2.67635E-20 1.15751E-18
 -1      3756 9.45110E-05-2.73807E-05-2.87694E-05 2.00965E-06 6.81112E-20 8.84129E-19
 -1      3757 9.42019E-05-2.71562E-05-2.87386E-05 2.70518E-06-2.21666E-19 1.41240E-18
 -1      3758 9.40968E-05-2.70535E-05-2.87268E-05 2.95587E-06-5.39659E-19 1.59264E-18
 -1      3759 9.40464E-05-2.70160E-05-2.87267E-05 2.42062E-06 3.81388E-20 1.30296E-18
 -1      3760 9.38851E-05-2.69395E-05-2.86957E-05 3.26252E-06-7.38214E-19 2.02214E-18
 -1      3761 9.38351E-05-2.69095E-05-2.86746E-05 3.56921E-06-4.97909E-19 1.71841E-18
 -1      3762 9.35997E-05-2.67064E-05-2.86688E-05 2.96147E-06-3.73658E-19 2.07987E-18
 -1      3763 9.36757E-05-2.68849E-05-2.86286E-05 3.95753E-06-3.51352E-19 1.52341E-18
 -1      3764 9.37233E-05-2.69786E-05-2.85948E-05 4.31968E-06-1.89456E-19 1.49254E-18
 -1      3765 9.32207E-05-2.65282E-05-2.85846E-05 3.65965E-06-6.52805E-19 2.36959E-18
 -1      3766 9.36672E-05-2.71015E-05-2.85301E-05 4.79765E-06-4.80103E-20 1.49450E-18
 -1      3767 9.38747E-05-2.73856E-05-2.84823E-05 5.20626E-06-1.89671E-19 1.81555E-18
 -1      3768 9.29900E-05-2.65862E-05-2.84645E-05 4.54109E-06-1.34861E-19 1.97049E-18
 -1      3769 9.39990E-05-2.77316E-05-2.83981E-05 5.77354E-06 2.74013E-20 1.99264E-18
 -1      3770 9.44516E-05-2.82877E-05-2.83398E-05 6.20393E-06 1.93778E-19 1.91019E-18
 -1      3771 9.30322E-05-2.70204E-05-2.83027E-05 5.62418E-06 8.44814E-20 2.15877E-18
 -1      3772 9.48682E-05-2.89488E-05-2.82414E-05 6.84099E-06-2.09639E-19 1.74590E-18
 -1      3773 9.56746E-05-2.98678E-05-2.81844E-05 7.23958E-06 5.42475E-20 1.62441E-18
 -1      3774 9.35316E-05-2.80112E-05-2.81020E-05 6.90542E-06-1.02379E-19 1.47535E-18
 -1      3775 9.65387E-05-3.09446E-05-2.80885E-05 7.88476E-06 5.24418E-19 1.33051E-18
 -1      3776 9.78202E-05-3.23047E-05-2.80596E-05 8.14581E-06 4.42926E-19 8.79973E-19
 -1      3777 9.47509E-05-2.97785E-05-2.78824E-05 8.32880E-06 2.48092E-20 1.46123E-18
 -1      3778 9.93324E-05-3.38829E-05-2.80047E-05 8.65933E-06 5.79104E-19 1.38848E-18
 -1      3779 1.01176E-04-3.56957E-05-2.80541E-05 8.58642E-06 4.64030E-19 1.24316E-18
 -1      3780 9.70377E-05-3.25476E-05-2.76961E-05 9.72558E-06 4.83832E-19 1.48374E-18
 -1      3781 1.03620E-04-3.78076E-05-2.81222E-05 8.63952E-06 2.91882E-19 1.02433E-18
 -1      3782 1.06116E-04-3.97761E-05-2.83818E-05 7.72146E-06-3.09945E-21 7.15531E-19
 -1      3783 1.00884E-04-3.65401E-05-2.76575E-05 1.07185E-05 1.41759E-19 1.71599E-18
 -1      3784 1.08045E-04-4.22771E-05-2.81331E-05 9.84066E-06 4.20869E-19 8.82784E-19
 -1      3785 1.11188E-04-4.43527E-05-2.86261E-05 8.33980E-06 8.45696E-19 1.41445E-18
 -1      3786 1.16577E-04-4.62545E-05-3.01341E-05 2.91978E-06 1.03516E-18 1.12934E-18
 -1      3787 1.18667E-04-4.61261E-05-3.11184E-05 1.84870E-08 4.83575E-19 1.21384E-18
 -1      3788 1.10498E-04-1.61062E-05-4.05953E-05-6.41672E-06-1.26012E-18-2.21314E-19
 -1      3789 9.38182E-05-2.08584E-05-3.12782E-05-2.10305E-07 4.16118E-19-4.77548E-19
 -1      3790 9.38630E-05-2.09509E-05-3.12595E-05-7.62350E-07 3.79480E-19-3.99512E-19
 -1      3791 9.45285E-05-2.21044E-05-3.10207E-05 1.15127E-08 2.74872E-19-5.11222E-19
 -1      3792 1.07523E-04-4.10446E-05-2.84946E-05-7.49275E-06-8.33103E-20 1.05193E-19
 -1      3793 1.05023E-04-3.89951E-05-2.82140E-05-8.43701E-06-8.94502E-19 4.76526E-19
 -1      3794 1.08304E-04-4.25822E-05-2.82049E-05-9.77680E-06 4.67470E-19-1.82004E-18
 -1      3795 1.02405E-04-3.68138E-05-2.81021E-05-8.57531E-06-1.34830E-18 1.01957E-18
 -1      3796 1.00396E-04-3.48906E-05-2.80216E-05-8.78014E-06-1.24409E-18 1.53979E-19
 -1      3797 1.02245E-04-3.77733E-05-2.77054E-05-1.08098E-05-9.06554E-19-4.38032E-19
 -1      3798 9.86647E-05-3.31593E-05-2.80573E-05-8.35545E-06-7.48604E-19-1.44103E-19
 -1      3799 9.72310E-05-3.16591E-05-2.80742E-05-8.15772E-06 6.74463E-19 7.61325E-20
 -1      3800 9.79762E-05-3.35425E-05-2.76806E-05-1.00770E-05-1.02326E-18-2.55933E-19
 -1      3801 9.62005E-05-3.04333E-05-2.81676E-05-7.52853E-06 9.09238E-19-4.15416E-19
 -1      3802 9.52683E-05-2.93804E-05-2.82246E-05-7.14557E-06 1.06011E-19-1.68034E-18
 -1      3803 9.53032E-05-3.04270E-05-2.78476E-05-8.74703E-06 3.61923E-19-6.79292E-19
 -1      3804 9.47370E-05-2.85941E-05-2.83301E-05-6.48786E-06 3.75608E-20-1.75011E-18
 -1      3805 9.41899E-05-2.79241E-05-2.83954E-05-6.04631E-06-5.26654E-19-1.44138E-18
 -1      3806 9.38079E-05-2.83606E-05-2.80744E-05-7.29286E-06-4.20193E-19-1.12306E-18
 -1      3807 9.39853E-05-2.74738E-05-2.84913E-05-5.44380E-06-1.23431E-18-1.07896E-18
 -1      3808 9.37072E-05-2.70927E-05-2.85498E-05-5.00742E-06-8.03257E-19-1.03177E-18
 -1      3809 9.31193E-05-2.71285E-05-2.82956E-05-5.94090E-06-6.35867E-19-9.89268E-19
 -1      3810 9.37035E-05-2.68797E-05-2.86283E-05-4.48663E-06-5.30462E-19-3.98055E-19
 -1      3811 9.36006E-05-2.67001E-05-2.86747E-05-4.08478E-06-4.17245E-19-4.34939E-19
 -1      3812 9.29415E-05-2.64944E-05-2.84843E-05-4.77140E-06-1.95520E-19 6.39211E-19
 -1      3813 9.37095E-05-2.66456E-05-2.87350E-05-3.64815E-06-3.84564E-19-1.08863E-18
 -1      3814 9.37126E-05-2.65917E-05-2.87705E-05-3.29418E-06 7.79943E-19-1.49188E-18
 -1      3815 9.30646E-05-2.62591E-05-2.86337E-05-3.79774E-06-6.22963E-19 7.77167E-19
 -1      3816 7.96784E-05-2.83762E-05-2.17158E-05-2.50608E-05 1.29332E-18 5.18988E-18
 -1      3817 8.90286E-05-3.45727E-05-2.34032E-05-2.45407E-05 1.32475E-18 3.75299E-18
 -1      3818 9.59919E-05-2.62549E-05-2.98943E-05 5.10366E-07 1.51242E-19 2.50135E-20
 -1      3819 9.58182E-05-2.55537E-05-3.01091E-05 1.05629E-06 3.34752E-19 2.28854E-20
 -1      3820 9.08565E-05-2.38740E-05-2.87128E-05-3.86963E-06 2.10783E-19 5.68639E-20
 -1      3821 9.14814E-05-2.44207E-05-2.87540E-05-3.54556E-06 3.74848E-19 2.40497E-19
 -1      3822 9.21772E-05-2.49727E-05-2.88049E-05-3.33851E-06 4.36118E-19 2.30024E-19
 -1      3823 9.26458E-05-2.54327E-05-2.88163E-05-3.05626E-06 3.79578E-19 5.05029E-19
 -1      3824 9.13289E-05-2.43665E-05-2.86813E-05-2.87014E-06 4.66393E-19 2.67989E-19
 -1      3825 8.68547E-05-2.11351E-05-2.81803E-05-5.06017E-06-1.28206E-18 1.08569E-19
 -1      3826 8.79513E-05-2.18472E-05-2.83542E-05-4.66124E-06-7.48833E-19 3.93895E-19
 -1      3827 8.38901E-05-1.95524E-05-2.75951E-05-5.73200E-06-7.61785E-19-8.77188E-19
 -1      3828 8.53228E-05-2.03087E-05-2.78972E-05-5.27043E-06-1.09835E-18-3.19438E-19
 -1      3829 8.50886E-05-2.01756E-05-2.77742E-05-3.72496E-06-7.22469E-19-4.77373E-19
 -1      3830 7.99795E-05-1.79409E-05-2.66292E-05-6.58659E-06-5.07206E-19-8.60054E-19
 -1      3831 8.18626E-05-1.86595E-05-2.71369E-05-5.95243E-06-6.64005E-19-1.04675E-18
 -1      3832 8.16389E-05-1.84474E-05-2.70163E-05-3.88349E-06-6.78396E-19-9.96705E-19
 -1      3833 7.50571E-05-1.65283E-05-2.51412E-05-7.43753E-06-5.38763E-19-1.90463E-19
 -1      3834 7.74514E-05-1.70698E-05-2.59516E-05-6.50291E-06-5.72444E-19-5.15120E-19
 -1      3835 7.72397E-05-1.66281E-05-2.58628E-05-3.61830E-06-7.29426E-19-8.58576E-19
 -1      3836 7.15551E-05-1.47219E-05-2.41748E-05-2.78784E-06-4.55244E-19 8.28852E-20
 -1      3837 8.87712E-05-2.22520E-05-2.85302E-05 4.59780E-06 8.19992E-19 5.16300E-19
 -1      3838 8.77970E-05-2.15941E-05-2.83855E-05 5.02915E-06-2.98173E-19 1.22351E-18
 -1      3839 9.62750E-05-2.68964E-05-2.97301E-05-5.18365E-08 9.73159E-20-1.59558E-19
 -1      3840 9.63460E-05-2.73582E-05-2.95710E-05 2.76654E-07 6.75555E-20-1.59415E-19
 -1      3841 8.32926E-05-1.92463E-05-2.74944E-05 6.03002E-06-1.09791E-18 1.55491E-19
 -1      3842 8.15702E-05-1.85311E-05-2.70657E-05 6.66249E-06-1.09213E-18 2.10766E-21
 -1      3843 9.05576E-05-2.35006E-05-2.87549E-05 3.94369E-06 1.08024E-18-4.29467E-19
 -1      3844 8.98290E-05-2.29340E-05-2.86777E-05 4.33899E-06 1.38286E-18-6.50071E-20
 -1      3845 8.85040E-05-2.21107E-05-2.84246E-05 3.52712E-06 1.45529E-18-1.36475E-19
 -1      3846 9.18922E-05-2.45427E-05-2.88776E-05 3.32749E-06 1.42142E-18-1.65365E-18
 -1      3847 9.13590E-05-2.40732E-05-2.88414E-05 3.68118E-06 1.62531E-18-1.13140E-18
 -1      3848 9.03232E-05-2.33720E-05-2.86721E-05 3.12963E-06 8.86466E-19 5.91115E-19
 -1      3849 5.99302E-05-1.34377E-05-1.99580E-05-8.15775E-06-2.76847E-19-1.41979E-18
 -1      3850 6.35798E-05-1.68331E-05-1.99131E-05-1.60581E-05-2.48631E-19 1.65743E-18
 -1      3851 8.91239E-05-2.25910E-05-2.85240E-05-4.44697E-06-6.14077E-19 1.32494E-19
 -1      3852 8.99551E-05-2.32258E-05-2.86160E-05-4.08582E-06-1.88507E-19 3.31933E-19
 -1      3853 8.77321E-05-2.17561E-05-2.82425E-05-3.49564E-06-9.30359E-19 3.57857E-19
 -1      3854 9.24291E-05-2.51561E-05-2.88347E-05 6.55041E-07-1.03928E-19 3.09536E-18
 -1      3855 9.25373E-05-2.52166E-05-2.88550E-05 1.11620E-06-5.38093E-19 2.08166E-18
 -1      3856 9.20447E-05-2.48902E-05-2.87732E-05 3.46557E-07-5.60863E-19 2.34923E-18
 -1      3857 9.45706E-05-2.72728E-05-2.88405E-05-2.14772E-06 8.57261E-20 9.57013E-19
 -1      3858 9.47809E-05-2.75170E-05-2.88321E-05-1.99567E-06 2.33847E-19 8.76274E-19
 -1      3859 9.38763E-05-2.61202E-05-2.90362E-05 3.01383E-06 2.10970E-18-2.80971E-18
 -1      3860 6.22709E-05-1.32964E-05-2.09872E-05 4.51909E-06-6.08421E-19-9.82571E-19
 -1      3861 9.39425E-05-2.11190E-05-3.12186E-05-1.19676E-06 3.76962E-19-2.80785E-19
 -1      3862 9.40777E-05-2.14066E-05-3.11596E-05-1.70295E-06 3.28245E-19-3.66590E-19
 -1      3863 9.47971E-05-2.27690E-05-3.08533E-05-1.50701E-06 2.90814E-19-2.40692E-19
 -1      3864 1.18347E-04-5.03272E-05-2.89923E-05-1.05456E-05 8.19620E-19-1.69655E-18
 -1      3865 1.22495E-04-5.06177E-05-3.09682E-05-5.27088E-06 8.35347E-19-1.87817E-18
 -1      3866 1.18829E-04-4.64979E-05-3.09806E-05-7.19168E-07 8.89434E-20-8.25305E-19
 -1      3867 1.13110E-04-4.75330E-05-2.80727E-05-1.28015E-05 6.57926E-19-1.78211E-18
 -1      3868 6.07553E-05-1.38284E-05-1.98743E-05 1.00438E-05 6.44949E-19-8.59183E-19
 -1      3869 6.02478E-05-1.29974E-05-2.02784E-05 5.28276E-06 5.66132E-19-1.37894E-18
 -1      3870 6.64777E-05-1.41285E-05-2.23912E-05 2.38318E-06 4.70299E-19-8.27313E-19
 -1      3871 6.66788E-05-1.68942E-05-2.12890E-05 1.30868E-05 3.76159E-19-1.08320E-18
 -1      3872 9.25828E-05-2.51372E-05-2.89116E-05 2.71558E-06 4.68397E-19-1.37178E-18
 -1      3873 9.22903E-05-2.48344E-05-2.89052E-05 3.07706E-06 3.79590E-19-1.86861E-18
 -1      3874 9.14651E-05-2.42576E-05-2.87926E-05 2.67932E-06 5.26055E-19-1.03060E-19
 -1      3875 9.21720E-05-2.48580E-05-2.88524E-05 2.26492E-06 3.92162E-19-8.25312E-19
 -1      3876 9.44757E-05-2.22679E-05-3.09624E-05 2.51721E-06 7.03343E-19 4.22061E-20
 -1      3877 9.42589E-05-2.17779E-05-3.10684E-05 2.09942E-06 6.87947E-19-9.14470E-20
 -1      3878 9.48168E-05-2.27999E-05-3.08469E-05 1.50580E-06 5.75180E-19-1.11834E-19
 -1      3879 8.64092E-05-2.08179E-05-2.81415E-05 5.28864E-06-1.58202E-18 1.50176E-18
 -1      3880 8.51255E-05-2.01014E-05-2.78883E-05 5.77370E-06-1.16790E-18 1.09786E-18
 -1      3881 8.61100E-05-2.06416E-05-2.80175E-05 3.87468E-06-7.06544E-19 1.13272E-18
 -1      3882 9.59476E-05-2.57707E-05-3.00749E-05-7.34184E-07 4.57308E-20-3.29607E-19
 -1      3883 9.61291E-05-2.64471E-05-2.98685E-05-2.85148E-07 1.44417E-19-3.01304E-19
 -1      3884 9.62444E-05-2.65133E-05-2.98800E-05-1.66523E-07 1.98175E-19-4.11014E-20
 -1      3885 9.58684E-05-2.54129E-05-3.01934E-05-7.22425E-07 6.26880E-20-2.62822E-19
 -1      3886 6.68467E-05-1.95631E-05-2.00978E-05-1.97267E-05-2.31276E-19 2.29985E-18
 -1      3887 7.21591E-05-2.39341E-05-2.06838E-05-2.34739E-05 5.72144E-20 4.02698E-18
 -1      3888 6.88125E-05-1.84822E-05-2.14329E-05-1.52641E-05-1.15572E-18 2.64890E-18
 -1      3889 9.53606E-05-2.43653E-05-3.04296E-05 1.62566E-06 5.60137E-19 1.52770E-20
 -1      3890 9.51038E-05-2.36608E-05-3.06036E-05 2.18304E-06 6.53048E-19 9.12668E-20
 -1      3891 9.64036E-05-2.77333E-05-2.94265E-05 4.88669E-07 6.79331E-20-1.95416E-19
 -1      3892 9.63893E-05-2.80061E-05-2.93102E-05 7.13302E-07-8.22915E-20-2.04819E-19
 -1      3893 9.64518E-05-2.74040E-05-2.95907E-05 2.95282E-07 3.12556E-20-1.44537E-19
 -1      3894 9.58830E-05-2.82745E-05-2.89762E-05-1.14859E-06 3.74168E-19 2.66380E-19
 -1      3895 9.59182E-05-2.81228E-05-2.90496E-05-9.44466E-07 5.58704E-19 2.51334E-19
 -1      3896 9.61277E-05-2.79177E-05-2.92352E-05-7.20743E-07 3.74555E-19 2.80774E-20
 -1      3897 6.88515E-05-1.47256E-05-2.32780E-05 6.56674E-06-4.41873E-19-7.78992E-19
 -1      3898 6.25787E-05-1.28502E-05-2.10510E-05-8.64988E-07-2.43565E-19-1.88892E-18
 -1      3899 6.61197E-05-1.44439E-05-2.21936E-05-4.69570E-06-6.61963E-19-9.27501E-19
 -1      3900 7.25075E-05-1.56016E-05-2.44695E-05 6.36866E-06-6.42008E-19-6.36802E-19
 -1      3901 1.16484E-04-4.59084E-05-3.00868E-05-2.84496E-06-1.77890E-19-7.77169E-19
 -1      3902 1.14763E-04-4.71508E-05-2.91150E-05-7.94251E-06 8.36280E-19-1.22721E-18
 -1      3903 9.48410E-05-2.75326E-05-2.88435E-05-1.74197E-06-1.40166E-19 3.24484E-19
 -1      3904 9.50536E-05-2.77579E-05-2.88393E-05-1.89078E-06 6.62768E-20 6.17771E-19
 -1      3905 9.52215E-05-2.79405E-05-2.88379E-05-1.77050E-06-1.66350E-19 3.87468E-19
 -1      3906 7.79302E-05-2.53255E-05-2.24779E-05-2.09525E-05 2.15715E-19 3.83556E-18
 -1      3907 9.64707E-05-2.80224E-05-2.93346E-05 6.61137E-07 3.13102E-20-2.90664E-20
 -1      3908 1.04773E-04-4.09714E-05-2.73687E-05 1.32134E-05 1.79166E-19 1.52693E-18
 -1      3909 1.21507E-04-4.52939E-05-3.27434E-05-3.96333E-06 2.70799E-19 1.07941E-18
 -1      3910 1.21874E-04-4.17667E-05-3.43515E-05-7.36540E-06-5.45476E-19 1.28232E-18
 -1      3911 9.50255E-05-2.31955E-05-3.07939E-05 1.89153E-07 2.90565E-19-3.20405E-19
 -1      3912 9.50237E-05-2.31915E-05-3.07945E-05-1.73318E-07 2.36897E-19-5.00648E-19
 -1      3913 9.46001E-05-2.22688E-05-3.09799E-05-7.85712E-07 2.29445E-19-2.90047E-19
 -1      3914 1.19836E-04-3.07438E-05-3.82390E-05 1.21705E-05 5.83129E-19-1.83737E-18
 -1      3915 9.60561E-05-2.82808E-05-2.90488E-05-1.12417E-06 2.97014E-19 4.31600E-20
 -1      3916 9.61731E-05-2.68611E-05-2.97005E-05 1.46035E-07 9.59851E-20-6.21245E-20
 -1      3917 9.61178E-05-2.62969E-05-2.99211E-05 3.63073E-07 1.88489E-19-9.17051E-20
 -1      3918 9.62388E-05-2.73218E-05-2.95405E-05-2.34120E-07 1.79741E-19-1.30699E-19
 -1      3919 9.54639E-05-2.44573E-05-3.04304E-05 1.28438E-06 4.31894E-19 3.12272E-20
 -1      3920 1.02220E-04-4.09404E-05-2.63311E-05 1.74401E-05 1.37034E-19 2.57551E-18
 -1      3921 9.82523E-05-3.89599E-05-2.53692E-05 2.04992E-05-2.39254E-19 4.95183E-19
 -1      3922 9.35546E-05-3.54313E-05-2.49404E-05 2.03006E-05-1.51592E-19 5.35867E-19
 -1      3923 9.22594E-05-2.49652E-05-2.88341E-05 1.48955E-06-6.20696E-22 1.88802E-18
 -1      3924 9.25425E-05-2.53967E-05-2.87650E-05-2.53871E-06 6.49193E-19 9.81854E-19
 -1      3925 9.31863E-05-2.58948E-05-2.88400E-05-2.86903E-06 4.22851E-19 7.92511E-19
 -1      3926 9.35395E-05-2.62751E-05-2.88360E-05-2.63196E-06 6.22673E-19 8.48080E-19
 -1      3927 9.35279E-05-2.63801E-05-2.87716E-05-2.93901E-06-2.03199E-19-1.69093E-18
 -1      3928 7.88683E-05-1.71908E-05-2.62995E-05 3.85235E-06-1.30362E-18 2.37513E-19
 -1      3929 7.91257E-05-1.76359E-05-2.64107E-05 6.39456E-06-9.17498E-19 1.34953E-19
 -1      3930 7.63228E-05-1.67302E-05-2.56569E-05 6.45655E-06-9.35161E-19-4.91069E-19
 -1      3931 9.58735E-05-3.81413E-05-2.45401E-05-2.29686E-05 8.36349E-19 1.77528E-18
 -1      3932 1.01400E-04-4.08824E-05-2.59627E-05-1.89509E-05 2.76009E-19-8.28519E-19
 -1      3933 9.00922E-05-3.32303E-05-2.44086E-05-2.11163E-05 9.59123E-19 2.57331E-18
 -1      3934 9.39636E-05-2.66561E-05-2.88455E-05-2.47155E-06 5.01865E-19 7.63867E-19
 -1      3935 9.42333E-05-2.69648E-05-2.88357E-05-2.27931E-06 2.82410E-19 8.99084E-19
 -1      3936 9.34906E-05-2.62587E-05-2.88057E-05-2.23210E-06 5.16109E-19 9.61991E-19
 -1      3937 8.97628E-05-2.31550E-05-2.85225E-05-3.20032E-06-1.38423E-19 1.54521E-19
 -1      3938 9.25161E-05-2.55136E-05-2.87075E-05-2.12148E-06 5.97943E-19 7.71742E-19
 -1      3939 9.21748E-05-2.52491E-05-2.86929E-05-1.71896E-06 6.71615E-19-1.10436E-19
 -1      3940 9.42400E-05-2.69667E-05-2.88262E-05-1.96543E-06 1.96441E-19 7.30228E-19
 -1      3941 9.33928E-05-2.61884E-05-2.88053E-05-2.31923E-06 5.64256E-19-7.09986E-19
 -1      3942 7.89444E-05-2.64528E-05-2.23546E-05 2.22881E-05-1.64103E-19-3.34154E-19
 -1      3943 7.55167E-05-2.30651E-05-2.25225E-05 1.88496E-05 4.31060E-20-7.03911E-19
 -1      3944 8.51512E-05-2.91080E-05-2.39618E-05 2.01645E-05 1.80726E-19-2.32342E-19
 -1      3945 9.18576E-05-2.49286E-05-2.86802E-05-1.19171E-06 4.90109E-19-3.89561E-19
 -1      3946 9.16563E-05-2.47509E-05-2.86819E-05-6.64285E-07 2.02710E-19 1.02286E-18
 -1      3947 9.16654E-05-2.48695E-05-2.86214E-05-1.68678E-06 9.47726E-19 1.40194E-19
 -1      3948 9.50577E-05-2.32695E-05-3.07725E-05 4.56561E-07 3.51081E-19-3.06067E-19
 -1      3949 9.55416E-05-2.42031E-05-3.05581E-05 2.30581E-07 3.57691E-19-2.11088E-19
 -1      3950 9.51193E-05-2.34505E-05-3.07287E-05 8.00775E-07 4.54036E-19-2.85455E-19
 -1      3951 9.51709E-05-2.36527E-05-3.06537E-05-1.15953E-06 2.47259E-19-2.06935E-19
 -1      3952 9.57617E-05-2.83408E-05-2.88935E-05-1.50526E-06 3.88222E-19 2.15835E-19
 -1      3953 9.58742E-05-2.83923E-05-2.89209E-05-1.40503E-06 6.13881E-19 2.91687E-19
 -1      3954 9.60428E-05-2.83671E-05-2.90041E-05-1.21938E-06 3.33218E-19-6.21653E-20
 -1      3955 9.60138E-05-2.84170E-05-2.89698E-05-1.31904E-06 3.34468E-19 1.51223E-19
 -1      3956 9.61019E-05-2.83861E-05-2.90195E-05-1.19761E-06 1.56122E-19-1.41860E-19
 -1      3957 8.29943E-05-1.90129E-05-2.73615E-05 4.16436E-06-1.69414E-18 3.21131E-19
 -1      3958 9.64636E-05-2.82581E-05-2.92302E-05 6.96358E-07 1.92644E-19-2.91773E-19
 -1      3959 9.63633E-05-2.83508E-05-2.91490E-05 8.08203E-07 1.17246E-19-2.69615E-19
 -1      3960 9.62206E-05-2.83813E-05-2.90742E-05 8.74420E-07 2.39616E-19-3.61455E-19
 -1      3961 9.60750E-05-2.83683E-05-2.90168E-05 9.65195E-07 1.41018E-19-1.86881E-19
 -1      3962 9.63385E-05-2.83197E-05-2.91506E-05 6.62316E-07 1.58265E-19-4.30650E-19
 -1      3963 9.58797E-05-2.83027E-05-2.89627E-05 1.02799E-06-2.21836E-20-4.82251E-20
 -1      3964 9.57008E-05-2.82109E-05-2.89230E-05 1.11650E-06 1.49517E-20 1.80372E-20
 -1      3965 9.60026E-05-2.82895E-05-2.90195E-05 7.96234E-07 3.57901E-20-2.08987E-19
 -1      3966 9.54644E-05-2.80742E-05-2.88837E-05 1.19067E-06-1.70796E-19 7.59629E-20
 -1      3967 9.52606E-05-2.79259E-05-2.88558E-05 1.29292E-06-3.94927E-19 1.77848E-19
 -1      3968 9.55737E-05-2.80821E-05-2.89240E-05 9.35660E-07-1.17217E-19-2.30981E-19
 -1      3969 9.49888E-05-2.77379E-05-2.88252E-05 1.39221E-06-2.32634E-19 7.27465E-19
 -1      3970 9.47666E-05-2.75521E-05-2.88036E-05 1.52281E-06-3.56320E-20 1.13502E-18
 -1      3971 9.50684E-05-2.77439E-05-2.88519E-05 1.10775E-06 7.36662E-20 5.18739E-19
 -1      3972 9.44634E-05-2.73310E-05-2.87756E-05 1.66203E-06-6.03272E-20 1.04110E-18
 -1      3973 9.42302E-05-2.71280E-05-2.87546E-05 1.83531E-06 4.66978E-20 9.54600E-19
 -1      3974 9.44966E-05-2.73133E-05-2.87910E-05 1.33976E-06 9.71590E-20 1.09771E-18
 -1      3975 9.39014E-05-2.68945E-05-2.87230E-05 2.03008E-06 4.42692E-20 8.67350E-19
 -1      3976 9.36685E-05-2.66981E-05-2.86969E-05 2.26004E-06 7.50292E-20 9.45675E-19
 -1      3977 9.38677E-05-2.68281E-05-2.87288E-05 1.66388E-06-1.29033E-19 4.43153E-19
 -1      3978 9.33228E-05-2.64776E-05-2.86550E-05 2.52893E-06 2.29658E-19 8.89248E-19
 -1      3979 9.31097E-05-2.63194E-05-2.86178E-05 2.83045E-06-3.46997E-20 1.23405E-18
 -1      3980 9.31946E-05-2.63337E-05-2.86519E-05 2.11422E-06 3.63085E-19 4.70172E-19
 -1      3981 9.27643E-05-2.61464E-05-2.85585E-05 3.19581E-06-4.55748E-19 1.51780E-18
 -1      3982 9.26031E-05-2.60701E-05-2.85047E-05 3.58462E-06-5.95101E-19 1.65124E-18
 -1      3983 9.25019E-05-2.58885E-05-2.85462E-05 2.73422E-06-6.69280E-20 6.71706E-19
 -1      3984 9.22882E-05-2.59927E-05-2.84209E-05 4.07295E-06-6.04183E-19 2.10253E-18
 -1      3985 9.22301E-05-2.60585E-05-2.83458E-05 4.56456E-06-1.07415E-19 1.93528E-18
 -1      3986 9.18349E-05-2.55738E-05-2.83967E-05 3.57690E-06-3.12224E-19 1.71343E-18
 -1      3987 9.19971E-05-2.61429E-05-2.82313E-05 5.20565E-06-1.61859E-21 1.69259E-18
 -1      3988 9.21195E-05-2.64324E-05-2.81328E-05 5.81155E-06-1.11092E-19 1.65354E-18
 -1      3989 9.12718E-05-2.55035E-05-2.81888E-05 4.70589E-06-4.24336E-19 1.86427E-18
 -1      3990 9.20516E-05-2.67687E-05-2.79840E-05 6.63363E-06-2.15300E-19 1.20185E-18
 -1      3991 9.24682E-05-2.73881E-05-2.78658E-05 7.35228E-06-1.47767E-19 1.26107E-18
 -1      3992 9.09420E-05-2.58374E-05-2.79107E-05 6.19231E-06-2.77406E-19 1.01971E-18
 -1      3993 9.26929E-05-2.80914E-05-2.76854E-05 8.37176E-06 3.65812E-20 1.55511E-18
 -1      3994 9.35587E-05-2.91723E-05-2.75619E-05 9.17157E-06 2.77668E-19 1.77159E-18
 -1      3995 9.10480E-05-2.67912E-05-2.75588E-05 8.09771E-06 1.57736E-19 1.32367E-18
 -1      3996 9.42916E-05-3.03979E-05-2.73654E-05 1.03615E-05 3.75069E-19 1.80940E-18
 -1      3997 9.58142E-05-3.20823E-05-2.72725E-05 1.11357E-05 3.78722E-19 1.67260E-18
 -1      3998 9.19152E-05-2.86752E-05-2.71452E-05 1.04733E-05 3.78260E-19 1.36516E-18
 -1      3999 9.72984E-05-3.39532E-05-2.70999E-05 1.23835E-05 1.93791E-19 1.71792E-18
 -1      4000 9.95445E-05-3.63654E-05-2.70852E-05 1.29938E-05-2.52032E-19 1.67686E-18
 -1      4001 9.40092E-05-3.17878E-05-2.67227E-05 1.31723E-05 4.09081E-19 1.48935E-18
 -1      4002 9.55392E-05-2.41964E-05-3.05589E-05-2.25351E-07 1.10099E-19-4.30654E-19
 -1      4003 9.50457E-05-2.32570E-05-3.07739E-05-4.40583E-07 2.12796E-19-2.83177E-19
 -1      4004 9.51073E-05-2.34141E-05-3.07348E-05-7.83092E-07 1.37337E-19-1.95938E-19
 -1      4005 1.01322E-04-3.79205E-05-2.71598E-05-1.31896E-05-3.24116E-19-1.71861E-18
 -1      4006 9.86245E-05-3.53251E-05-2.70813E-05-1.28234E-05-8.53485E-19-7.91748E-19
 -1      4007 9.67529E-05-3.31472E-05-2.72271E-05-1.17027E-05-4.21608E-19-4.39926E-19
 -1      4008 9.50273E-05-3.12580E-05-2.73038E-05-1.09486E-05-5.80421E-19-1.13887E-19
 -1      4009 9.50673E-05-3.30650E-05-2.66576E-05-1.39744E-05-1.14654E-19-7.20233E-19
 -1      4010 9.40911E-05-2.98520E-05-2.75000E-05-9.74649E-06-4.67533E-20-2.33807E-19
 -1      4011 9.30516E-05-2.85881E-05-2.76238E-05-8.92706E-06 4.95702E-19-3.94592E-19
 -1      4012 9.24071E-05-2.94173E-05-2.70496E-05-1.12243E-05-1.90248E-19-3.07134E-19
 -1      4013 9.27070E-05-2.77382E-05-2.78159E-05-7.84110E-06-3.45452E-19-4.57683E-19
 -1      4014 9.21733E-05-2.69838E-05-2.79430E-05-7.08353E-06-7.04080E-19-9.12183E-19
 -1      4015 9.12122E-05-2.71428E-05-2.74806E-05-8.72761E-06 2.23086E-19-6.00694E-19
 -1      4016 9.21675E-05-2.65355E-05-2.81075E-05-6.19980E-06-5.72944E-19-5.86567E-19
 -1      4017 9.19653E-05-2.61382E-05-2.82191E-05-5.54869E-06-5.94647E-20-5.18203E-19
 -1      4018 9.09237E-05-2.59303E-05-2.78630E-05-6.67256E-06-4.72379E-19 9.27643E-20
 -1      4019 9.21421E-05-2.59558E-05-2.83508E-05-4.85246E-06 2.58159E-19 2.68218E-19
 -1      4020 9.21431E-05-2.57981E-05-2.84409E-05-4.30920E-06-6.00365E-19 3.15112E-19
 -1      4021 9.11312E-05-2.53880E-05-2.81759E-05-5.06427E-06 4.09112E-20 1.24918E-18
 -1      4022 9.24183E-05-2.57961E-05-2.85416E-05-3.76558E-06-1.12881E-18 6.95340E-19
 -1      4023 9.25280E-05-2.57756E-05-2.86090E-05-3.33566E-06-1.07843E-18-7.16096E-20
 -1      4024 9.15974E-05-2.52955E-05-2.84197E-05-3.81950E-06-8.57153E-19-1.36291E-19
 -1      4025 9.65702E-05-2.78661E-05-2.94433E-05 4.56505E-07 1.68877E-19-4.24732E-19
 -1      4026 9.65351E-05-2.80994E-05-2.93318E-05 6.11429E-07 2.00740E-19-2.53849E-19
 -1      4027 9.65526E-05-2.81148E-05-2.93294E-05 5.06159E-07 1.02211E-19-4.89831E-19
 -1      4028 7.57490E-05-2.20034E-05-2.29040E-05-1.71930E-05-9.42638E-19 2.87812E-18
 -1      4029 8.14196E-05-2.62987E-05-2.37151E-05-1.88378E-05-1.89725E-19 3.50308E-18
 -1      4030 7.99229E-05-1.80365E-05-2.65766E-05-1.64906E-06-6.42405E-19-1.27505E-18
 -1      4031 8.19752E-05-1.88957E-05-2.70596E-05-1.74813E-06-3.83584E-19-1.16340E-18
 -1      4032 8.37318E-05-1.97395E-05-2.74594E-05-2.09711E-06-3.90167E-19-8.49518E-19
 -1      4033 8.52700E-05-2.05387E-05-2.77606E-05-2.12283E-06-6.49566E-19-5.14361E-19
 -1      4034 8.26568E-05-1.93426E-05-2.70843E-05-4.36741E-08-2.77700E-19-1.11974E-18
 -1      4035 9.02761E-05-2.34918E-05-2.86306E-05 2.22773E-06 4.48005E-19 1.27112E-19
 -1      4036 8.94716E-05-2.29297E-05-2.85314E-05 2.38720E-06 1.53572E-18 4.76938E-19
 -1      4037 7.01300E-05-1.69481E-05-2.25958E-05-1.14774E-05-1.82693E-18 1.14364E-18
 -1      4038 7.28015E-05-1.97264E-05-2.27561E-05-1.50042E-05-9.57769E-19 2.78089E-18
 -1      4039 7.71684E-05-2.10811E-05-2.39637E-05-1.34505E-05-9.81809E-19 2.94467E-18
 -1      4040 8.84958E-05-2.23045E-05-2.83825E-05 2.37712E-06 1.37411E-18 3.84148E-19
 -1      4041 8.74375E-05-2.16390E-05-2.82197E-05 2.48554E-06 8.29104E-19 9.47963E-19
 -1      4042 8.86563E-05-2.24572E-05-2.83522E-05 1.40710E-06 1.22385E-18 2.04923E-18
 -1      4043 1.19158E-04-3.65076E-05-3.57458E-05-1.13033E-05-1.01729E-18 1.12495E-18
 -1      4044 9.62830E-05-2.79707E-05-2.92793E-05-7.42841E-07 3.42163E-19-5.72654E-20
 -1      4045 9.62924E-05-2.76972E-05-2.93941E-05-4.85947E-07 3.28419E-19-1.07802E-19
 -1      4046 9.63634E-05-2.73515E-05-2.95767E-05-2.69766E-07 1.70743E-19-2.18095E-19
 -1      4047 8.88720E-05-2.27170E-05-2.83678E-05-2.33743E-06-3.48963E-19 5.21987E-19
 -1      4048 8.97750E-05-2.33529E-05-2.84774E-05-2.23867E-06 1.33237E-19 4.01992E-19
 -1      4049 9.39462E-05-2.67275E-05-2.88096E-05-1.68533E-06 3.33464E-20 5.57196E-19
 -1      4050 9.42842E-05-2.70472E-05-2.88202E-05-1.57513E-06-7.96260E-20 4.45204E-19
 -1      4051 9.15369E-05-2.45814E-05-2.86954E-05-2.37684E-08-7.27248E-19 2.25183E-18
 -1      4052 9.15326E-05-2.45333E-05-2.87179E-05 5.51954E-07-4.05638E-19 3.09541E-18
 -1      4053 9.11712E-05-2.43684E-05-2.86213E-05-4.81164E-07-1.41161E-19 1.45009E-18
 -1      4054 9.54440E-05-2.81153E-05-2.88535E-05-1.68459E-06-1.45491E-19 4.85633E-19
 -1      4055 9.55813E-05-2.82358E-05-2.88640E-05-1.58311E-06 5.32354E-20 3.56331E-19
 -1      4056 9.57268E-05-2.82440E-05-2.89210E-05-1.39059E-06 2.70324E-19 3.42450E-19
 -1      4057 9.53290E-05-2.79600E-05-2.88712E-05-1.55622E-06-6.98539E-20 4.59768E-19
 -1      4058 9.16534E-05-2.45663E-05-2.87549E-05 1.13990E-06-2.64652E-19 3.41494E-18
 -1      4059 9.18549E-05-2.46702E-05-2.87974E-05 1.71981E-06-1.41435E-20 8.00871E-19
 -1      4060 9.15074E-05-2.43897E-05-2.87665E-05 1.90888E-06-3.56333E-19 1.03481E-18
 -1      4061 9.11192E-05-2.42034E-05-2.86732E-05 7.78828E-07-6.99773E-20 2.47962E-18
 -1      4062 9.30220E-05-2.59945E-05-2.87319E-05-2.69347E-06-6.31332E-20 1.62910E-19
 -1      4063 1.10066E-04-4.53992E-05-2.76591E-05-1.34879E-05 6.18796E-19-1.82932E-18
 -1      4064 1.06536E-04-4.27486E-05-2.72614E-05-1.42222E-05 3.40331E-19-2.07852E-18
 -1      4065 9.61947E-05-2.83111E-05-2.90940E-05-1.08306E-06 2.68536E-19-1.20346E-19
 -1      4066 9.62513E-05-2.81754E-05-2.91725E-05-9.11664E-07 3.30506E-19-6.13810E-20
 -1      4067 9.63935E-05-2.79846E-05-2.93189E-05-7.08933E-07 3.12088E-19-1.76260E-19
 -1      4068 9.62727E-05-2.82986E-05-2.91325E-05-1.00773E-06 2.47561E-19-2.18883E-20
 -1      4069 9.53620E-05-2.41002E-05-3.05514E-05 1.21074E-06 5.11143E-19-1.25810E-19
 -1      4070 9.52454E-05-2.37558E-05-3.06402E-05 9.48599E-07 4.29641E-19-1.61959E-19
 -1      4071 9.56715E-05-2.45966E-05-3.04475E-05 5.69968E-07 3.29840E-19-1.97667E-19
 -1      4072 9.58393E-05-2.52634E-05-3.02414E-05 7.13941E-07 3.28952E-19-5.74857E-20
 -1      4073 8.61813E-05-2.09150E-05-2.79893E-05 2.37912E-06-3.47203E-19 4.07290E-19
 -1      4074 8.47879E-05-2.01633E-05-2.77266E-05 2.42930E-06-1.66248E-18 3.68121E-19
 -1      4075 8.64848E-05-2.11391E-05-2.79669E-05 1.15851E-06-5.51683E-19 8.29867E-19
 -1      4076 9.64823E-05-2.71182E-05-2.97269E-05 1.17789E-07 5.04339E-20-4.82681E-19
 -1      4077 9.65450E-05-2.75376E-05-2.95780E-05 3.35977E-07-1.47573E-20-4.32996E-19
 -1      4078 9.66016E-05-2.76050E-05-2.95681E-05 2.96420E-07 9.38160E-20-6.88109E-19
 -1      4079 9.55883E-05-2.44863E-05-3.04636E-05-7.92887E-07 6.92506E-20-2.47718E-19
 -1      4080 9.06217E-05-2.39629E-05-2.85783E-05-2.23873E-06 3.95346E-19 6.34063E-19
 -1      4081 9.13186E-05-2.45130E-05-2.86397E-05-2.11322E-06 4.87604E-19 5.89511E-19
 -1      4082 8.99327E-05-2.35179E-05-2.84440E-05-1.44488E-06 3.47305E-19 7.52446E-19
 -1      4083 1.00411E-04-3.83820E-05-2.65903E-05 1.56136E-05 1.19126E-19 1.92680E-18
 -1      4084 8.31508E-05-1.93412E-05-2.73703E-05 2.18556E-06-2.01671E-18 5.09578E-19
 -1      4085 8.12855E-05-1.85291E-05-2.69499E-05 2.19377E-06-1.32983E-18 1.61968E-19
 -1      4086 8.36730E-05-1.96846E-05-2.73743E-05 5.94713E-07-1.64065E-18-3.09505E-19
 -1      4087 8.66286E-05-2.13048E-05-2.80189E-05-2.31063E-06-7.48719E-19 8.04297E-20
 -1      4088 8.78036E-05-2.20259E-05-2.82042E-05-2.26319E-06-5.57211E-19 3.25427E-19
 -1      4089 8.80547E-05-2.22543E-05-2.81735E-05-1.25273E-06-1.26414E-19 2.71367E-19
 -1      4090 7.20923E-05-1.95618E-05-2.23949E-05 1.56115E-05-1.69526E-19-1.20803E-18
 -1      4091 6.95309E-05-1.69581E-05-2.26338E-05 1.04835E-05 1.26661E-19-1.57939E-18
 -1      4092 7.81152E-05-2.26016E-05-2.37081E-05 1.56923E-05 1.43691E-19-7.54664E-19
 -1      4093 9.14284E-05-2.46358E-05-2.86113E-05-1.48463E-06 6.73613E-19 5.43073E-19
 -1      4094 9.19943E-05-2.50416E-05-2.87003E-05-2.07049E-06 9.21870E-19 5.09392E-19
 -1      4095 9.25358E-05-2.55098E-05-2.87326E-05-1.93850E-06 8.23773E-19 7.88181E-19
 -1      4096 7.55152E-05-1.65279E-05-2.53535E-05-3.14754E-07-5.83463E-19-9.88388E-19
 -1      4097 7.79942E-05-1.73170E-05-2.60317E-05-8.71424E-07-8.25943E-19-1.11826E-18
 -1      4098 7.90186E-05-1.78604E-05-2.61416E-05 1.43525E-06-7.53896E-19-8.20611E-19
 -1      4099 9.58592E-05-2.49989E-05-3.03757E-05-5.91676E-08 2.06582E-19-1.61641E-19
 -1      4100 9.58773E-05-2.50737E-05-3.03539E-05-2.51686E-07-2.48253E-20-2.27066E-19
 -1      4101 1.01076E-04-3.88033E-05-2.67078E-05-1.52466E-05-5.33002E-20-1.58291E-18
 -1      4102 9.67325E-05-3.59660E-05-2.59826E-05-1.73414E-05 1.86440E-19-1.17843E-19
 -1      4103 9.60558E-05-2.83451E-05-2.90192E-05-1.08512E-06 2.51516E-19 1.93505E-19
 -1      4104 9.61957E-05-2.83575E-05-2.90730E-05-9.89749E-07 4.09550E-20 7.80815E-20
 -1      4105 9.62317E-05-2.62401E-05-2.99995E-05-2.64212E-07 2.00706E-19-4.45517E-19
 -1      4106 9.63628E-05-2.67033E-05-2.98583E-05-9.76970E-09 2.09397E-19-3.91780E-19
 -1      4107 9.64570E-05-2.68274E-05-2.98383E-05 4.16983E-08 2.02355E-20-8.66636E-19
 -1      4108 9.19250E-05-2.52648E-05-2.85779E-05-2.74893E-06-1.02152E-18-2.68780E-19
 -1      4109 9.25660E-05-2.56885E-05-2.86601E-05-2.81464E-06-1.11138E-18 6.23672E-20
 -1      4110 1.16434E-04-4.72820E-05-2.96041E-05 6.04726E-06 9.88529E-19 2.07311E-18
 -1      4111 1.15088E-04-4.75908E-05-2.88021E-05 9.52366E-06 7.52589E-19 2.00871E-18
 -1      4112 7.01854E-05-1.59094E-05-2.33544E-05-5.26339E-06-1.51344E-18-1.01889E-19
 -1      4113 9.58629E-05-2.51935E-05-3.02876E-05-4.82413E-07 4.26894E-20-2.39505E-19
 -1      4114 8.56809E-05-2.08553E-05-2.77458E-05-8.23684E-07-3.39697E-19-7.68074E-19
 -1      4115 6.96549E-05-1.48702E-05-2.35552E-05 1.32884E-06-4.88900E-19-6.41439E-19
 -1      4116 7.29348E-05-1.56817E-05-2.45549E-05 4.96586E-07-7.03405E-19-8.85495E-19
 -1      4117 7.46607E-05-1.65977E-05-2.48424E-05 3.59756E-06-7.76680E-19-1.12225E-18
 -1      4118 6.87811E-05-1.50633E-05-2.28664E-05 6.08962E-06 7.28399E-20-1.45061E-18
 -1      4119 7.93582E-05-1.77608E-05-2.64174E-05 1.29549E-06-1.26929E-18 4.16812E-19
 -1      4120 7.65428E-05-1.67659E-05-2.57318E-05 6.92919E-07-1.45292E-18 6.92489E-19
 -1      4121 8.01083E-05-1.81787E-05-2.64833E-05-8.66171E-07-9.37099E-19 1.78723E-18
 -1      4122 8.66726E-05-2.95592E-05-2.43164E-05-1.96203E-05-1.00637E-19 3.31787E-18
 -1      4123 9.19651E-05-3.31562E-05-2.52662E-05-1.85009E-05 1.60214E-19 1.85877E-18
 -1      4124 9.28880E-05-3.26247E-05-2.58213E-05-1.65176E-05-1.37246E-20 7.83355E-19
 -1      4125 8.41038E-05-2.65794E-05-2.46274E-05-1.67479E-05-5.33700E-19 2.64780E-18
 -1      4126 9.30794E-05-2.59599E-05-2.87690E-05-1.87627E-06 3.31995E-19 6.98728E-19
 -1      4127 9.35046E-05-2.63516E-05-2.87855E-05-1.75159E-06 1.70517E-19 5.16903E-19
 -1      4128 9.26281E-05-2.56064E-05-2.87135E-05-1.43642E-06 5.11601E-19 2.45850E-19
 -1      4129 9.35986E-05-2.64325E-05-2.87785E-05-1.34553E-06 1.27009E-19 1.19355E-19
 -1      4130 9.46463E-05-2.73515E-05-2.88409E-05-1.51304E-06-1.04761E-19 4.18197E-19
 -1      4131 9.49187E-05-2.76030E-05-2.88533E-05-1.41857E-06-1.27761E-19 4.70007E-19
 -1      4132 9.43923E-05-2.71166E-05-2.88273E-05-1.23996E-06-1.06620E-19 1.68937E-19
 -1      4133 9.14015E-05-2.47915E-05-2.85408E-05-2.24186E-06-6.93200E-20-3.95429E-19
 -1      4134 9.09774E-05-2.44570E-05-2.85229E-05-1.73218E-06 3.15844E-19 2.48150E-19
 -1      4135 9.13138E-05-2.48534E-05-2.84777E-05-2.81198E-06-1.25008E-18-1.41463E-18
 -1      4136 9.61267E-05-2.60620E-05-3.00317E-05 4.15971E-07 2.21976E-19-1.22373E-19
 -1      4137 9.60509E-05-2.57061E-05-3.01453E-05 3.97563E-07 3.00754E-19-6.61957E-20
 -1      4138 9.63030E-05-2.66827E-05-2.98375E-05 4.94552E-08 1.44546E-19-2.13436E-19
 -1      4139 9.56838E-05-2.81722E-05-2.89335E-05-1.22577E-06 1.38398E-19 3.55784E-19
 -1      4140 9.58647E-05-2.82745E-05-2.89678E-05-1.14196E-06 3.90727E-19 2.38262E-19
 -1      4141 9.60087E-05-2.82717E-05-2.90293E-05-9.20228E-07 2.76440E-19 6.98332E-19
 -1      4142 9.58750E-05-2.50716E-05-3.03529E-05 2.52442E-07 4.19911E-19-1.75257E-19
 -1      4143 9.58613E-05-2.49976E-05-3.03756E-05 6.39253E-08 4.35569E-19-1.46674E-19
 -1      4144 9.61838E-05-2.57319E-05-3.01839E-05 1.02347E-08 3.42793E-19 1.35802E-20
 -1      4145 7.22884E-05-1.47872E-05-2.44326E-05 2.69798E-06-9.74786E-19 1.76993E-19
 -1      4146 9.11139E-05-2.40888E-05-2.87309E-05 2.10587E-06-2.53390E-19 5.36856E-19
 -1      4147 9.04590E-05-2.36789E-05-2.86115E-05 1.41413E-06 5.11379E-19 1.96015E-18
 -1      4148 9.02800E-05-2.36461E-05-2.85661E-05 7.91236E-07 2.36899E-19 3.03711E-18
 -1      4149 7.40061E-05-1.67046E-05-2.45677E-05-3.71774E-06-2.24593E-18 5.87431E-19
 -1      4150 9.61173E-05-2.83047E-05-2.90642E-05 5.32555E-07 1.66603E-19-3.96588E-19
 -1      4151 9.59232E-05-2.82365E-05-2.90079E-05 6.01863E-07 1.00367E-20-2.17733E-19
 -1      4152 9.56828E-05-2.81217E-05-2.89566E-05 6.42261E-07-1.24755E-19-3.26009E-20
 -1      4153 9.54458E-05-2.79756E-05-2.89151E-05 7.16556E-07-1.81481E-19-1.00941E-19
 -1      4154 9.57973E-05-2.81360E-05-2.89965E-05 3.80512E-07 3.91424E-20-3.08075E-19
 -1      4155 9.51562E-05-2.77871E-05-2.88752E-05 7.74838E-07 1.59262E-19 4.22965E-20
 -1      4156 9.48845E-05-2.75825E-05-2.88423E-05 8.69267E-07 4.83379E-19 3.36047E-19
 -1      4157 9.52714E-05-2.78209E-05-2.89045E-05 4.77603E-07 2.12884E-19 5.55239E-20
 -1      4158 9.45439E-05-2.73369E-05-2.88078E-05 9.57752E-07 3.10290E-19 1.31256E-19
 -1      4159 9.42438E-05-2.70902E-05-2.87774E-05 1.08909E-06-4.47359E-20 2.64187E-19
 -1      4160 9.46439E-05-2.73657E-05-2.88293E-05 6.19193E-07 3.62872E-19-3.66987E-19
 -1      4161 9.38561E-05-2.68094E-05-2.87411E-05 1.22058E-06-1.83813E-19 3.89284E-19
 -1      4162 9.35312E-05-2.65401E-05-2.87067E-05 1.40180E-06-6.76262E-21 4.46055E-19
 -1      4163 9.39308E-05-2.68151E-05-2.87571E-05 8.29232E-07 1.67122E-19-7.38033E-20
 -1      4164 9.30943E-05-2.62392E-05-2.86612E-05 1.59763E-06 2.12391E-19 5.09266E-19
 -1      4165 9.27536E-05-2.59708E-05-2.86156E-05 1.84864E-06 3.85925E-19 6.34333E-19
 -1      4166 9.31207E-05-2.61942E-05-2.86736E-05 1.14036E-06 4.82839E-20 4.98663E-19
 -1      4167 9.22692E-05-2.56737E-05-2.85525E-05 2.13410E-06 2.98041E-19 6.31968E-19
 -1      4168 9.19303E-05-2.54380E-05-2.84881E-05 2.47969E-06 1.21414E-20 9.84246E-19
 -1      4169 9.22167E-05-2.55441E-05-2.85626E-05 1.59920E-06 3.03205E-19 5.70181E-19
 -1      4170 9.14051E-05-2.51777E-05-2.83979E-05 2.88850E-06 5.32178E-20 1.03118E-18
 -1      4171 9.10994E-05-2.50197E-05-2.83067E-05 3.35970E-06 2.04880E-19 1.78848E-18
 -1      4172 9.12273E-05-2.49174E-05-2.84055E-05 2.26674E-06 3.83572E-19 6.77686E-19
 -1      4173 9.05505E-05-2.48430E-05-2.81784E-05 3.93605E-06-4.03826E-19 2.04921E-18
 -1      4174 9.03302E-05-2.48269E-05-2.80529E-05 4.57067E-06-4.14748E-19 1.70763E-18
 -1      4175 9.01763E-05-2.43894E-05-2.81809E-05 3.22499E-06 3.72984E-20 1.16244E-18
 -1      4176 8.97917E-05-2.48003E-05-2.78750E-05 5.37083E-06-3.86286E-19 1.87008E-18
 -1      4177 8.97435E-05-2.50177E-05-2.77094E-05 6.21139E-06-3.05751E-19 1.56183E-18
 -1      4178 8.91143E-05-2.40701E-05-2.78649E-05 4.58159E-06-2.48133E-19 1.85977E-18
 -1      4179 8.92828E-05-2.52427E-05-2.74710E-05 7.30562E-06-9.90069E-20 1.30394E-18
 -1      4180 8.95278E-05-2.58218E-05-2.72647E-05 8.39060E-06 3.45076E-19 1.15997E-18
 -1      4181 8.81351E-05-2.41216E-05-2.74321E-05 6.47533E-06-3.05489E-19 9.01841E-19
 -1      4182 8.92602E-05-2.63815E-05-2.69610E-05 9.81479E-06 4.19879E-19 5.82967E-19
 -1      4183 8.99530E-05-2.75050E-05-2.67220E-05 1.12014E-05 2.25402E-19 5.60367E-19
 -1      4184 8.74648E-05-2.48208E-05-2.68618E-05 9.04007E-06-1.39014E-19 3.70881E-19
 -1      4185 9.02530E-05-2.87698E-05-2.63459E-05 1.30715E-05 2.67877E-19 2.90735E-19
 -1      4186 9.16460E-05-3.06162E-05-2.60986E-05 1.45963E-05 1.95468E-19 2.73214E-19
 -1      4187 8.72418E-05-2.63416E-05-2.61512E-05 1.24222E-05-1.02155E-19-6.82432E-20
 -1      4188 9.63272E-05-2.82915E-05-2.91579E-05-7.83696E-07 3.65957E-20 1.36416E-19
 -1      4189 9.63273E-05-2.83201E-05-2.91468E-05-9.13825E-07 1.42732E-19-1.58809E-20
 -1      4190 9.64229E-05-2.82230E-05-2.92269E-05-7.84718E-07 3.40448E-19-6.01519E-20
 -1      4191 1.10447E-04-4.52724E-05-2.80044E-05 1.18048E-05 1.12053E-18 2.20409E-18
 -1      4192 9.66318E-05-2.80158E-05-2.94071E-05 3.07115E-07 2.16590E-19-3.56384E-19
 -1      4193 9.65638E-05-2.81918E-05-2.93031E-05 3.98991E-07 1.48267E-19-2.73368E-19
 -1      4194 9.03943E-05-2.82768E-05-2.65851E-05-1.21359E-05-1.48045E-19 6.30245E-19
 -1      4195 8.93854E-05-2.68680E-05-2.68236E-05-1.07550E-05-4.17298E-19 6.79504E-19
 -1      4196 8.96060E-05-2.61385E-05-2.71558E-05-9.08475E-06-4.80543E-19-3.54736E-19
 -1      4197 8.92212E-05-2.54258E-05-2.73767E-05-7.96831E-06-1.02124E-19-9.25300E-19
 -1      4198 8.72964E-05-2.49121E-05-2.66995E-05-9.83636E-06-9.63345E-19-3.57193E-20
 -1      4199 8.96472E-05-2.50882E-05-2.76384E-05-6.73935E-06 2.07954E-19-1.39415E-18
 -1      4200 8.96184E-05-2.47658E-05-2.78217E-05-5.86548E-06-4.06459E-19-4.38759E-19
 -1      4201 8.79139E-05-2.40575E-05-2.73230E-05-7.07240E-06-1.49084E-19-1.87432E-18
 -1      4202 9.01308E-05-2.47135E-05-2.80209E-05-4.94609E-06-5.55543E-20-4.99405E-19
 -1      4203 9.03098E-05-2.46361E-05-2.81644E-05-4.29863E-06 2.05029E-20-8.19489E-19
 -1      4204 8.88074E-05-2.38246E-05-2.78063E-05-5.01789E-06-8.66469E-19-2.04358E-18
 -1      4205 9.06655E-05-2.46408E-05-2.82797E-05-3.73588E-06-7.35026E-19-1.39050E-18
 -1      4206 9.09590E-05-2.47175E-05-2.83909E-05-3.20413E-06-1.18347E-18-1.89576E-18
 -1      4207 9.03808E-05-2.42368E-05-2.83434E-05-2.70927E-06-8.48681E-19-1.48295E-18
 -1      4208 8.96599E-05-2.39612E-05-2.81333E-05-3.62201E-06 9.85439E-20-1.82179E-18
 -1      4209 9.66254E-05-2.74050E-05-2.96675E-05 1.40847E-07 1.94519E-19-4.58055E-19
 -1      4210 9.66540E-05-2.77548E-05-2.95299E-05 2.63729E-07 2.11511E-19-4.20534E-19
 -1      4211 9.66593E-05-2.78290E-05-2.94967E-05 1.60213E-07 3.01358E-19-2.88285E-19
 -1      4212 9.59847E-05-2.54032E-05-3.02478E-05-3.00103E-07-7.61699E-21-3.60800E-19
 -1      4213 8.20340E-05-1.95589E-05-2.68261E-05 1.98302E-06-4.48632E-19-4.46330E-19
 -1      4214 8.38009E-05-2.02541E-05-2.72329E-05 1.36057E-06-7.19349E-20-1.97161E-19
 -1      4215 9.03111E-05-2.37745E-05-2.85133E-05-2.23377E-07 8.87749E-20 3.14496E-18
 -1      4216 8.95216E-05-2.31739E-05-2.84339E-05 4.14308E-07 8.01708E-19 3.29504E-18
 -1      4217 7.75877E-05-2.02300E-05-2.46385E-05-1.09679E-05-1.72027E-18 1.96644E-18
 -1      4218 8.01871E-05-2.24953E-05-2.47812E-05-1.31727E-05-1.50369E-18 3.26151E-18
 -1      4219 8.85535E-05-2.25997E-05-2.82866E-05 2.57977E-07 9.33073E-19 2.20501E-18
 -1      4220 9.62743E-05-2.60746E-05-3.00785E-05-1.01412E-07-4.52872E-20-3.45775E-19
 -1      4221 9.52168E-05-2.78338E-05-2.88781E-05-1.36205E-06-2.26681E-20 4.94887E-19
 -1      4222 9.54406E-05-2.80147E-05-2.88985E-05-1.27596E-06 3.37346E-20 4.73857E-19
 -1      4223 9.50390E-05-2.76531E-05-2.88768E-05-1.13644E-06-1.59968E-19 4.69257E-19
 -1      4224 9.11466E-05-3.02977E-05-2.60598E-05-1.47613E-05-2.69264E-20 6.81402E-19
 -1      4225 9.00416E-05-3.17165E-05-2.48699E-05 1.91659E-05 3.77646E-19-1.90938E-19
 -1      4226 8.63806E-05-2.87452E-05-2.47508E-05 1.78271E-05 6.44278E-19-1.90230E-19
 -1      4227 8.70875E-05-2.17175E-05-2.80241E-05 7.44126E-08-1.85878E-19 1.95159E-18
 -1      4228 8.58110E-05-2.10833E-05-2.77831E-05-2.21272E-07-1.47022E-18 1.30318E-18
 -1      4229 9.04473E-05-2.39412E-05-2.84981E-05-8.70989E-07 9.09574E-19 2.23015E-18
 -1      4230 9.42397E-05-3.43134E-05-2.56481E-05 1.77522E-05 3.89943E-19 1.36992E-18
 -1      4231 9.64854E-05-2.75963E-05-2.95241E-05-4.18298E-07 1.19766E-19-4.02737E-19
 -1      4232 9.64375E-05-2.72077E-05-2.96718E-05-1.58157E-07 1.77002E-19-4.02976E-19
 -1      4233 9.64434E-05-2.69636E-05-2.97755E-05-8.98068E-08 3.15925E-19-4.31726E-19
 -1      4234 9.33038E-05-2.62318E-05-2.87507E-05-9.43416E-07 4.52331E-19-2.47944E-19
 -1      4235 9.37485E-05-2.66036E-05-2.87792E-05-9.07470E-07 1.05226E-19-1.91722E-19
 -1      4236 9.64443E-05-2.82887E-05-2.92103E-05 4.27649E-07 1.62028E-19-3.05195E-19
 -1      4237 9.63052E-05-2.83260E-05-2.91333E-05 5.04472E-07 2.45487E-19-1.87055E-19
 -1      4238 9.65215E-05-2.81962E-05-2.92819E-05 2.33027E-07 1.51603E-19-2.26815E-19
 -1      4239 8.74701E-05-2.21297E-05-2.80311E-05-1.14430E-07 1.25626E-19-1.97623E-19
 -1      4240 8.85492E-05-2.27516E-05-2.82018E-05-3.24692E-07 2.02436E-19 1.85049E-19
 -1      4241 9.60155E-05-2.55316E-05-3.02160E-05 3.90402E-07 2.98126E-19-2.30217E-19
 -1      4242 9.59278E-05-2.52312E-05-3.02995E-05 3.01952E-07 3.40455E-19-4.57168E-19
 -1      4243 9.62277E-05-2.59104E-05-3.01288E-05 1.07413E-07 4.23823E-19-3.76187E-19
 -1      4244 9.62943E-05-2.62617E-05-3.00124E-05 1.21029E-07 3.26044E-19-4.28076E-19
 -1      4245 8.50594E-05-2.08618E-05-2.75523E-05 6.92353E-07-9.77860E-20-6.35571E-19
 -1      4246 8.64310E-05-2.15273E-05-2.78174E-05 3.16594E-07 2.83090E-20-1.80514E-19
 -1      4247 8.48793E-05-2.10372E-05-2.73341E-05 2.60958E-06-3.23877E-19-2.11065E-19
 -1      4248 8.94103E-05-2.33228E-05-2.83428E-05-5.84924E-07 8.52583E-20 5.20289E-19
 -1      4249 9.02645E-05-2.38883E-05-2.84503E-05-6.82833E-07 4.64290E-19 5.67550E-19
 -1      4250 8.90575E-05-2.31661E-05-2.82185E-05 4.88011E-07 3.87276E-19 2.82116E-19
 -1      4251 8.46187E-05-2.04850E-05-2.74911E-05-7.44688E-07-1.44347E-18 1.10120E-18
 -1      4252 8.29383E-05-1.97825E-05-2.71239E-05-1.28043E-06-6.37231E-19 1.75134E-18
 -1      4253 8.55295E-05-2.10581E-05-2.75643E-05-1.90743E-06-7.40719E-19 2.49877E-18
 -1      4254 9.09803E-05-2.44132E-05-2.85421E-05-8.28679E-07 5.24305E-19 2.13426E-19
 -1      4255 9.16615E-05-2.49162E-05-2.86087E-05-8.55294E-07 5.52580E-19 5.63849E-20
 -1      4256 9.06250E-05-2.41945E-05-2.84534E-05-1.63013E-08 3.12040E-19 2.94530E-19
 -1      4257 8.19037E-05-1.94423E-05-2.67348E-05-2.39425E-06-1.17216E-18 1.80426E-18
 -1      4258 7.98856E-05-1.89353E-05-2.62112E-05-3.77208E-06-1.59230E-18 1.57397E-18
 -1      4259 8.31653E-05-2.02605E-05-2.68859E-05-3.86081E-06-1.01574E-18 2.50225E-18
 -1      4260 9.62221E-05-2.82776E-05-2.91190E-05 3.04554E-07 1.24983E-19-2.69210E-19
 -1      4261 9.63195E-05-2.83103E-05-2.91483E-05-6.37844E-07 5.82198E-20 1.48359E-19
 -1      4262 9.64610E-05-2.82674E-05-2.92260E-05-5.49371E-07-8.43662E-20-9.42202E-20
 -1      4263 9.22579E-05-2.53855E-05-2.86684E-05-9.28424E-07 7.04808E-19-8.20489E-20
 -1      4264 9.28055E-05-2.58233E-05-2.87100E-05-9.13745E-07 5.27807E-19-1.08839E-19
 -1      4265 9.19292E-05-2.51472E-05-2.86077E-05-3.05914E-07 4.60653E-19-6.69975E-20
 -1      4266 8.77101E-05-2.76665E-05-2.57947E-05-1.43225E-05 2.01270E-20 1.86673E-18
 -1      4267 9.64393E-05-2.66156E-05-2.99279E-05-4.00722E-08-1.13352E-19-3.74081E-19
 -1      4268 9.65523E-05-2.70329E-05-2.97951E-05 9.65417E-08-3.50258E-20-4.21866E-19
 -1      4269 9.66061E-05-2.71898E-05-2.97485E-05 6.67334E-08 1.28764E-20 1.10542E-19
 -1      4270 9.63531E-05-2.62871E-05-3.00275E-05-3.47059E-08-2.89293E-20 1.59627E-19
 -1      4271 8.71694E-05-2.20969E-05-2.78635E-05 1.31503E-06 2.74857E-19-2.52977E-19
 -1      4272 9.55781E-05-2.80476E-05-2.89402E-05-1.03357E-06 7.84036E-20 5.34591E-19
 -1      4273 9.64705E-05-2.80869E-05-2.93084E-05-7.11416E-07 3.21930E-19-2.60215E-19
 -1      4274 9.65057E-05-2.78598E-05-2.94192E-05-5.28084E-07 1.57517E-19-3.61245E-19
 -1      4275 9.65599E-05-2.77104E-05-2.95079E-05-4.12411E-07 2.07176E-19-5.68416E-19
 -1      4276 9.65156E-05-2.81070E-05-2.93198E-05-6.23011E-07 7.98901E-20-3.93894E-19
 -1      4277 7.59919E-05-1.77464E-05-2.48774E-05-6.36472E-06-2.24308E-18 4.17425E-19
 -1      4278 7.92772E-05-1.93101E-05-2.56209E-05-6.36234E-06-1.89406E-18 8.34722E-19
 -1      4279 8.08968E-05-1.92138E-05-2.64260E-05 3.08150E-06-7.56789E-19-3.36957E-19
 -1      4280 8.24171E-05-2.02450E-05-2.66201E-05 4.60189E-06-7.54945E-19-1.34832E-19
 -1      4281 7.92131E-05-1.87513E-05-2.59338E-05 4.23675E-06-6.83704E-19-3.53343E-19
 -1      4282 7.31910E-05-1.75372E-05-2.38200E-05 8.54128E-06-1.84862E-19-1.52108E-18
 -1      4283 8.82127E-05-2.24746E-05-2.81328E-05-9.00473E-07 3.75609E-19 2.08281E-18
 -1      4284 8.37285E-05-2.45559E-05-2.53210E-05-1.33694E-05-3.88838E-19 2.15571E-18
 -1      4285 9.41657E-05-2.69477E-05-2.88111E-05-9.13282E-07-6.62678E-20-1.56329E-20
 -1      4286 9.45272E-05-2.72530E-05-2.88354E-05-8.63481E-07 8.01609E-20 1.42627E-19
 -1      4287 9.39259E-05-2.67427E-05-2.87866E-05-5.26528E-07 1.57636E-19-1.94903E-19
 -1      4288 9.00445E-05-2.37946E-05-2.83986E-05-1.50762E-06 3.32260E-19 1.21149E-18
 -1      4289 9.30168E-05-2.60016E-05-2.87111E-05-4.58094E-07 4.06627E-19-6.28707E-19
 -1      4290 9.59506E-05-2.82317E-05-2.90239E-05-7.25890E-07 2.42323E-19 1.71235E-19
 -1      4291 9.61456E-05-2.82971E-05-2.90777E-05-6.63418E-07 1.44038E-19 1.79595E-19
 -1      4292 9.62643E-05-2.82716E-05-2.91400E-05-4.45700E-07 9.68705E-20-3.44481E-20
 -1      4293 9.63577E-05-2.62974E-05-3.00270E-05 3.01272E-08 4.03614E-19 7.85923E-20
 -1      4294 9.63663E-05-2.63003E-05-3.00309E-05-1.78089E-08 1.80960E-19 1.69165E-19
 -1      4295 9.65330E-05-2.67971E-05-2.98815E-05 1.67387E-08-3.70042E-20 3.16312E-19
 -1      4296 1.13737E-04-4.45470E-05-2.95223E-05 4.09049E-06 1.02644E-18 7.56480E-19
 -1      4297 8.22619E-05-2.48837E-05-2.45442E-05 1.58816E-05 2.15659E-19-1.52210E-19
 -1      4298 7.85541E-05-2.16471E-05-2.44587E-05 1.29970E-05 1.19930E-19-4.30595E-19
 -1      4299 9.59124E-05-2.81875E-05-2.90273E-05 1.01967E-07 4.04469E-20-7.06459E-21
 -1      4300 9.56725E-05-2.80671E-05-2.89736E-05 1.40273E-07 6.52646E-21-1.20845E-19
 -1      4301 8.13253E-05-2.06666E-05-2.59455E-05-7.88796E-06-2.20309E-18 1.19684E-18
 -1      4302 9.53891E-05-2.78978E-05-2.89278E-05 1.51989E-07 5.10012E-20 7.16829E-20
 -1      4303 9.50967E-05-2.76976E-05-2.88867E-05 2.13795E-07 1.79082E-19 2.43920E-19
 -1      4304 9.55123E-05-2.79471E-05-2.89543E-05-1.34082E-07 1.44024E-19 6.44199E-20
 -1      4305 9.46451E-05-2.73549E-05-2.88411E-05 1.39549E-08-2.84390E-20 1.56407E-19
 -1      4306 9.42926E-05-2.70809E-05-2.88060E-05 8.79589E-08 1.78594E-19-2.09718E-19
 -1      4307 9.38742E-05-2.67578E-05-2.87708E-05 1.23763E-07 3.50031E-19-3.74963E-19
 -1      4308 9.34746E-05-2.64359E-05-2.87326E-05 2.33291E-07 1.74409E-19-9.78832E-20
 -1      4309 9.29782E-05-2.60601E-05-2.86889E-05 3.08323E-07 3.38372E-19-6.95886E-21
 -1      4310 9.25277E-05-2.57047E-05-2.86405E-05 4.73870E-07 3.43783E-19 1.71188E-19
 -1      4311 9.19369E-05-2.52847E-05-2.85783E-05 6.10767E-07 1.14235E-19 1.63475E-19
 -1      4312 9.14353E-05-2.49142E-05-2.85106E-05 8.57527E-07 2.06891E-19 1.60583E-19
 -1      4313 9.07312E-05-2.44626E-05-2.84176E-05 1.09012E-06 3.19057E-19 5.05215E-19
 -1      4314 9.01839E-05-2.41039E-05-2.83201E-05 1.45310E-06 4.28889E-19 5.52416E-19
 -1      4315 8.93448E-05-2.36396E-05-2.81803E-05 1.82902E-06 3.81879E-19 3.23153E-19
 -1      4316 8.87675E-05-2.33318E-05-2.80404E-05 2.35536E-06 2.98380E-19 3.86868E-19
 -1      4317 8.77682E-05-2.28827E-05-2.78330E-05 2.94094E-06-1.70365E-19 2.61799E-19
 -1      4318 8.71949E-05-2.26847E-05-2.76364E-05 3.69328E-06-3.75254E-19 3.42380E-19
 -1      4319 8.60036E-05-2.22899E-05-2.73328E-05 4.58122E-06-4.00992E-19 5.15285E-19
 -1      4320 8.54857E-05-2.22860E-05-2.70605E-05 5.64675E-06-6.43509E-19 2.57690E-19
 -1      4321 8.43789E-05-2.21511E-05-2.66940E-05 6.95202E-06-7.49598E-19 1.28254E-19
 -1      4322 8.39622E-05-2.25024E-05-2.63387E-05 8.36523E-06-2.27556E-19-4.36736E-19
 -1      4323 8.50598E-05-2.45062E-05-2.59155E-05 1.17548E-05-4.10248E-20-1.54985E-19
 -1      4324 8.52258E-05-2.58266E-05-2.54634E-05 1.38351E-05-2.90937E-19-1.85989E-19
 -1      4325 8.16239E-05-2.16009E-05-2.57362E-05 9.33498E-06-8.11166E-20-5.76389E-19
 -1      4326 8.90331E-05-2.92513E-05-2.56464E-05 1.56020E-05 2.39839E-19-7.57293E-19
 -1      4327 9.32515E-05-3.24662E-05-2.60182E-05 1.57497E-05 3.28930E-19 7.40896E-19
 -1      4328 9.80146E-05-3.71104E-05-2.60737E-05 1.71503E-05 4.94715E-19 1.84495E-18
 -1      4329 9.66842E-05-2.77098E-05-2.95629E-05 1.07386E-08 1.48458E-19 2.17732E-19
 -1      4330 9.66718E-05-2.79833E-05-2.94385E-05 5.74625E-08 6.72856E-20-4.00455E-20
 -1      4331 8.54749E-05-2.22710E-05-2.70975E-05-5.63526E-06-9.49268E-19 5.69980E-19
 -1      4332 8.59877E-05-2.22171E-05-2.73904E-05-4.48095E-06-5.33349E-19 1.67390E-19
 -1      4333 8.71577E-05-2.26179E-05-2.76835E-05-3.70662E-06-4.09150E-19-2.28536E-19
 -1      4334 8.77691E-05-2.27424E-05-2.79060E-05-2.85242E-06-6.25280E-19 9.64989E-21
 -1      4335 8.40188E-05-2.37003E-05-2.58920E-05-1.12480E-05-8.03419E-19 1.20406E-18
 -1      4336 8.91827E-05-2.34550E-05-2.81845E-05-2.36404E-06 2.43469E-19-2.82136E-19
 -1      4337 9.49774E-05-2.75959E-05-2.88791E-05-6.42918E-07-6.40424E-21 1.63819E-19
 -1      4338 9.52736E-05-2.78214E-05-2.89092E-05-6.01619E-07-5.13793E-21 1.33977E-19
 -1      4339 9.65541E-05-2.81901E-05-2.92990E-05-9.04708E-08 1.10392E-19-1.75224E-19
 -1      4340 9.64320E-05-2.82753E-05-2.92084E-05-5.69720E-08 6.36169E-20-4.77595E-20
 -1      4341 9.65759E-05-2.80863E-05-2.93520E-05-2.33847E-07-1.42952E-19-1.77417E-20
 -1      4342 9.65962E-05-2.80611E-05-2.93727E-05-3.80060E-07-2.10837E-19-7.48441E-20
 -1      4343 7.82225E-05-1.96545E-05-2.50532E-05 8.98108E-06-4.29778E-20-9.89614E-19
 -1      4344 9.55588E-05-2.80059E-05-2.89531E-05-6.06321E-07 1.02437E-20 6.76811E-20
 -1      4345 9.58017E-05-2.81490E-05-2.89936E-05-5.62803E-07 1.41882E-19 1.64883E-19
 -1      4346 9.66019E-05-2.71280E-05-2.97771E-05-1.07045E-08-1.19517E-19 3.92473E-19
 -1      4347 9.66718E-05-2.74780E-05-2.96519E-05 3.06181E-08 1.21340E-19 2.91531E-19
 -1      4348 9.66745E-05-2.76381E-05-2.95881E-05-9.08539E-08-1.04060E-20 4.61599E-19
 -1      4349 9.65942E-05-2.71156E-05-2.97781E-05-5.62324E-08 1.73536E-19 2.46930E-19
 -1      4350 8.67214E-05-2.74900E-05-2.53765E-05 1.51098E-05 3.91041E-20-1.04311E-19
 -1      4351 9.65592E-05-2.71341E-05-2.97549E-05-1.42342E-07 3.71771E-19-4.58111E-19
 -1      4352 9.64278E-05-2.66133E-05-2.99203E-05 4.34313E-08 4.05993E-19-3.36625E-19
 -1      4353 9.62621E-05-2.82851E-05-2.91343E-05-8.91730E-08 1.00576E-19 4.17726E-21
 -1      4354 8.42222E-05-2.26537E-05-2.63683E-05-8.52068E-06-1.08065E-18 4.35733E-19
 -1      4355 9.60678E-05-2.82449E-05-2.90655E-05-6.33782E-08 1.98241E-20-9.74354E-20
 -1      4356 8.44709E-05-2.22753E-05-2.67367E-05-6.99015E-06-1.42397E-18-4.55743E-20
 -1      4357 9.59404E-05-2.81850E-05-2.90371E-05-3.20029E-07-9.33614E-20 1.44105E-20
 -1      4358 9.47921E-05-2.74365E-05-2.88628E-05-3.21199E-07-5.93111E-20 1.46828E-19
 -1      4359 8.96002E-05-2.36125E-05-2.83005E-05-1.87801E-06 6.33539E-19 5.12221E-19
 -1      4360 9.66374E-05-2.76973E-05-2.95465E-05-2.77500E-07 1.53576E-19-3.04001E-19
 -1      4361 9.66207E-05-2.74203E-05-2.96548E-05-1.62310E-07 2.18790E-19-2.72746E-19
 -1      4362 7.68001E-05-1.80014E-05-2.52305E-05 5.33504E-06-3.28384E-19-7.70176E-19
 -1      4363 9.66402E-05-2.78891E-05-2.94615E-05-2.90870E-07-2.67348E-20-2.12441E-19
 -1      4364 9.63997E-05-2.64439E-05-2.99805E-05 4.00564E-08 3.99762E-19-4.67226E-19
 -3
    1PSTEP                         4           1           1          
  100CL  101 1.000000000        4364                     0    1           1
 -4  ERROR       1    1
 -5  STR(%)      1    1    0    0
 -1         1 3.73925E+01
 -1         2 2.33433E+01
 -1         3 2.55896E-02
 -1         4 2.32941E-02
 -1         5 1.40451E+01
 -1         6 1.31489E+01
 -1         7 1.31489E+01
 -1         8 3.65807E+00
 -1         9 1.82002E+00
 -1        10 1.28633E+00
 -1        11 1.04043E+00
 -1        12 8.97238E-01
 -1        13 8.06732E-01
 -1        14 7.53103E-01
 -1        15 7.55147E-01
 -1        16 8.11134E-01
 -1        17 8.98285E-01
 -1        18 1.04937E+00
 -1        19 1.30380E+00
 -1        20 1.82880E+00
 -1        21 3.49959E+00
 -1        22 8.64229E+00
 -1        23 1.31489E+01
 -1        24 4.32712E+00
 -1        25 3.35265E+00
 -1        26 2.12437E+00
 -1        27 1.37730E+00
 -1        28 1.03228E+00
 -1        29 7.98271E-01
 -1        30 6.24562E-01
 -1        31 4.91627E-01
 -1        32 3.89601E-01
 -1        33 3.12239E-01
 -1        34 2.54567E-01
 -1        35 2.12015E-01
 -1        36 2.06472E-01
 -1        37 2.26506E-01
 -1        38 2.49881E-01
 -1        39 2.71682E-01
 -1        40 2.95690E-01
 -1        41 3.79708E-01
 -1        42 4.65992E-01
 -1        43 5.31386E-01
 -1        44 5.46272E-01
 -1        45 5.83100E-01
 -1        46 6.20317E-01
 -1        47 7.52396E-01
 -1        48 9.98092E-01
 -1        49 1.44349E+00
 -1        50 2.11103E+00
 -1        51 2.51967E+00
 -1        52 2.51967E+00
 -1        53 2.56036E+00
 -1        54 2.56036E+00
 -1        55 2.26261E+00
 -1        56 1.64672E+00
 -1        57 1.04495E+00
 -1        58 8.27527E-01
 -1        59 6.03156E-01
 -1        60 5.96325E-01
 -1        61 5.33439E-01
 -1        62 5.33439E-01
 -1        63 4.74528E-01
 -1        64 3.85863E-01
 -1        65 2.94276E-01
 -1        66 2.71833E-01
 -1        67 2.43127E-01
 -1        68 2.05261E-01
 -1        69 1.60254E-01
 -1        70 1.46068E-01
 -1        71 9.28705E-02
 -1        72 1.40451E+01
 -1        73 3.40240E+00
 -1        74 2.42267E+00
 -1        75 1.67710E+00
 -1        76 1.15806E+00
 -1        77 9.22718E-01
 -1        78 7.53912E-01
 -1        79 6.18401E-01
 -1        80 5.09376E-01
 -1        81 4.23590E-01
 -1        82 3.59301E-01
 -1        83 3.15270E-01
 -1        84 2.90477E-01
 -1        85 2.95244E-01
 -1        86 3.23120E-01
 -1        87 3.72437E-01
 -1        88 4.75732E-01
 -1        89 6.09564E-01
 -1        90 7.73394E-01
 -1        91 9.58768E-01
 -1        92 1.14235E+00
 -1        93 1.27699E+00
 -1        94 1.42003E+00
 -1        95 1.97061E+00
 -1        96 2.40097E+00
 -1        97 2.64835E+00
 -1        98 2.89650E+00
 -1        99 3.64195E+00
 -1       100 5.75123E+00
 -1       101 7.16415E+00
 -1       102 7.92822E+00
 -1       103 7.92822E+00
 -1       104 5.07381E+00
 -1       105 2.53743E+00
 -1       106 2.67512E+00
 -1       107 2.82770E+00
 -1       108 2.82770E+00
 -1       109 2.50674E+00
 -1       110 2.06956E+00
 -1       111 1.66352E+00
 -1       112 1.27684E+00
 -1       113 9.45389E-01
 -1       114 6.78258E-01
 -1       115 5.06877E-01
 -1       116 3.86723E-01
 -1       117 2.89102E-01
 -1       118 2.06352E-01
 -1       119 1.35623E-01
 -1       120 8.81803E-02
 -1       121 3.71459E-02
 -1       122 3.71459E-02
 -1       123 3.38166E-02
 -1       124 1.80479E-02
 -1       125 1.80833E-02
 -1       126 2.88462E-02
 -1       127 3.38873E-02
 -1       128 3.38873E-02
 -1       129 3.36342E-02
 -1       130 2.90669E-02
 -1       131 2.05280E-02
 -1       132 9.90638E-03
 -1       133 1.77818E-02
 -1       134 2.80235E-02
 -1       135 4.09983E-02
 -1       136 4.42653E-02
 -1       137 2.54576E+01
 -1       138 2.88556E+01
 -1       139 2.88556E+01
 -1       140 2.69546E+01
 -1       141 1.31213E+01
 -1       142 1.32238E+01
 -1       143 1.32238E+01
 -1       144 1.28338E+01
 -1       145 1.28338E+01
 -1       146 1.59363E+01
 -1       147 3.77418E+01
 -1       148 3.77418E+01
 -1       149 2.58740E+01
 -1       150 2.43274E+01
 -1       151 2.48273E+01
 -1       152 2.80110E+01
 -1       153 3.27633E+01
 -1       154 3.13164E+01
 -1       155 1.27003E+01
 -1       156 1.32640E+01
 -1       157 1.32640E+01
 -1       158 1.20486E+01
 -1       159 1.20795E+01
 -1       160 1.20795E+01
 -1       161 1.51985E+01
 -1       162 3.73925E+01
 -1       163 2.52905E+01
 -1       164 2.36422E+01
 -1       165 6.07172E+00
 -1       166 2.29447E+00
 -1       167 1.50196E+00
 -1       168 1.15503E+00
 -1       169 9.69485E-01
 -1       170 8.62450E-01
 -1       171 7.94690E-01
 -1       172 7.55147E-01
 -1       173 7.98232E-01
 -1       174 8.65476E-01
 -1       175 9.78546E-01
 -1       176 1.16924E+00
 -1       177 1.52355E+00
 -1       178 2.25634E+00
 -1       179 3.92716E+00
 -1       180 1.40451E+01
 -1       181 4.32712E+00
 -1       182 3.35265E+00
 -1       183 2.12437E+00
 -1       184 1.45903E+00
 -1       185 1.03843E+00
 -1       186 7.98271E-01
 -1       187 6.24562E-01
 -1       188 4.94710E-01
 -1       189 3.99609E-01
 -1       190 3.22559E-01
 -1       191 2.60842E-01
 -1       192 2.12015E-01
 -1       193 1.92591E-01
 -1       194 2.06472E-01
 -1       195 2.26506E-01
 -1       196 2.49881E-01
 -1       197 2.71682E-01
 -1       198 3.11081E-01
 -1       199 3.79708E-01
 -1       200 4.65992E-01
 -1       201 5.31386E-01
 -1       202 5.46272E-01
 -1       203 5.83100E-01
 -1       204 6.20317E-01
 -1       205 7.52396E-01
 -1       206 1.01394E+00
 -1       207 1.49499E+00
 -1       208 2.11103E+00
 -1       209 2.51967E+00
 -1       210 2.49742E+00
 -1       211 2.56036E+00
 -1       212 2.26261E+00
 -1       213 1.64672E+00
 -1       214 1.14429E+00
 -1       215 8.27527E-01
 -1       216 6.03156E-01
 -1       217 5.96325E-01
 -1       218 5.30032E-01
 -1       219 5.33439E-01
 -1       220 4.74528E-01
 -1       221 3.85863E-01
 -1       222 3.09902E-01
 -1       223 2.71833E-01
 -1       224 2.43127E-01
 -1       225 2.05261E-01
 -1       226 1.60254E-01
 -1       227 1.46068E-01
 -1       228 9.28705E-02
 -1       229 3.40240E+00
 -1       230 2.42267E+00
 -1       231 1.67710E+00
 -1       232 1.15806E+00
 -1       233 9.22718E-01
 -1       234 7.53912E-01
 -1       235 6.18401E-01
 -1       236 5.09376E-01
 -1       237 4.23590E-01
 -1       238 3.59301E-01
 -1       239 3.15270E-01
 -1       240 2.90477E-01
 -1       241 2.84060E-01
 -1       242 2.95244E-01
 -1       243 3.31322E-01
 -1       244 4.17093E-01
 -1       245 5.27704E-01
 -1       246 6.61361E-01
 -1       247 8.09693E-01
 -1       248 9.58768E-01
 -1       249 1.14235E+00
 -1       250 1.31653E+00
 -1       251 1.67960E+00
 -1       252 1.97061E+00
 -1       253 2.40097E+00
 -1       254 2.64835E+00
 -1       255 2.89650E+00
 -1       256 3.64195E+00
 -1       257 5.75123E+00
 -1       258 7.16415E+00
 -1       259 7.92822E+00
 -1       260 5.07381E+00
 -1       261 2.53743E+00
 -1       262 2.26306E+00
 -1       263 2.67512E+00
 -1       264 2.82770E+00
 -1       265 2.50674E+00
 -1       266 2.06956E+00
 -1       267 1.67909E+00
 -1       268 1.32842E+00
 -1       269 1.00966E+00
 -1       270 7.42394E-01
 -1       271 5.28978E-01
 -1       272 3.86723E-01
 -1       273 2.89102E-01
 -1       274 2.06352E-01
 -1       275 1.37202E-01
 -1       276 8.81803E-02
 -1       277 5.32673E-02
 -1       278 5.42201E-02
 -1       279 5.42201E-02
 -1       280 3.30834E-02
 -1       281 5.38275E-02
 -1       282 6.46015E-02
 -1       283 6.56335E-02
 -1       284 6.56335E-02
 -1       285 6.35593E-02
 -1       286 5.27333E-02
 -1       287 3.64468E-02
 -1       288 2.52272E-02
 -1       289 4.60912E-02
 -1       290 4.60912E-02
 -1       291 5.59440E-02
 -1       292 2.69577E+01
 -1       293 3.24930E+01
 -1       294 3.24930E+01
 -1       295 2.84769E+01
 -1       296 1.31213E+01
 -1       297 1.22670E+01
 -1       298 1.32238E+01
 -1       299 1.22503E+01
 -1       300 1.28338E+01
 -1       301 1.18691E+01
 -1       302 1.60944E+01
 -1       303 3.77418E+01
 -1       304 3.52339E+01
 -1       305 2.82732E+01
 -1       306 2.82732E+01
 -1       307 2.75202E+01
 -1       308 3.27633E+01
 -1       309 3.27633E+01
 -1       310 1.27003E+01
 -1       311 1.17107E+01
 -1       312 1.32640E+01
 -1       313 1.20486E+01
 -1       314 1.17790E+01
 -1       315 1.20795E+01
 -1       316 1.09669E+01
 -1       317 1.52304E+01
 -1       318 3.73925E+01
 -1       319 3.52556E+01
 -1       320 2.36422E+01
 -1       321 2.69577E+01
 -1       322 1.06392E+00
 -1       323 2.47300E+00
 -1       324 7.85981E-01
 -1       325 6.92627E-01
 -1       326 6.29991E-01
 -1       327 5.86149E-01
 -1       328 5.89439E-01
 -1       329 6.32683E-01
 -1       330 6.98901E-01
 -1       331 7.93658E-01
 -1       332 9.28515E-01
 -1       333 1.15359E+00
 -1       334 1.32232E+00
 -1       335 2.20291E+00
 -1       336 1.91624E+00
 -1       337 1.73867E+00
 -1       338 1.27744E+00
 -1       339 9.17824E-01
 -1       340 6.67304E-01
 -1       341 5.58027E-01
 -1       342 4.64810E-01
 -1       343 3.83390E-01
 -1       344 3.14117E-01
 -1       345 2.56329E-01
 -1       346 2.08467E-01
 -1       347 1.68297E-01
 -1       348 1.68320E-01
 -1       349 1.83824E-01
 -1       350 2.01545E-01
 -1       351 2.20291E-01
 -1       352 2.64057E-01
 -1       353 3.11082E-01
 -1       354 3.59026E-01
 -1       355 3.89395E-01
 -1       356 3.77915E-01
 -1       357 2.99783E-01
 -1       358 2.70297E-01
 -1       359 4.53046E-01
 -1       360 7.76898E-01
 -1       361 1.11405E+00
 -1       362 1.40513E+00
 -1       363 1.67639E+00
 -1       364 1.72711E+00
 -1       365 1.69945E+00
 -1       366 1.71432E+00
 -1       367 1.50167E+00
 -1       368 1.19237E+00
 -1       369 8.81748E-01
 -1       370 5.35128E-01
 -1       371 2.94088E-01
 -1       372 2.86906E-01
 -1       373 3.55875E-01
 -1       374 3.80797E-01
 -1       375 3.56520E-01
 -1       376 3.08195E-01
 -1       377 2.64688E-01
 -1       378 2.25145E-01
 -1       379 1.85923E-01
 -1       380 1.54688E-01
 -1       381 1.18778E-01
 -1       382 8.03352E-02
 -1       383 1.13822E+00
 -1       384 9.00087E-01
 -1       385 7.13175E-01
 -1       386 5.54345E-01
 -1       387 4.55889E-01
 -1       388 3.92559E-01
 -1       389 3.32019E-01
 -1       390 2.89075E-01
 -1       391 2.57051E-01
 -1       392 2.35657E-01
 -1       393 2.25093E-01
 -1       394 2.25071E-01
 -1       395 2.69558E-01
 -1       396 3.94304E-01
 -1       397 5.64863E-01
 -1       398 7.82547E-01
 -1       399 1.05087E+00
 -1       400 1.36185E+00
 -1       401 1.68522E+00
 -1       402 1.95579E+00
 -1       403 2.17131E+00
 -1       404 2.33669E+00
 -1       405 2.47513E+00
 -1       406 2.32257E+00
 -1       407 2.47911E+00
 -1       408 2.97786E+00
 -1       409 4.86359E+00
 -1       410 4.68347E+00
 -1       411 3.94826E+00
 -1       412 3.08265E+00
 -1       413 2.45952E+00
 -1       414 2.22762E+00
 -1       415 2.26421E+00
 -1       416 2.12295E+00
 -1       417 2.03190E+00
 -1       418 1.80885E+00
 -1       419 1.55198E+00
 -1       420 1.25389E+00
 -1       421 9.70069E-01
 -1       422 7.25703E-01
 -1       423 5.27224E-01
 -1       424 3.71625E-01
 -1       425 2.76718E-01
 -1       426 2.02810E-01
 -1       427 1.37202E-01
 -1       428 7.67482E-02
 -1       429 6.17868E-02
 -1       430 1.06580E-01
 -1       431 1.06580E-01
 -1       432 7.67848E-02
 -1       433 9.31096E-02
 -1       434 9.54461E-02
 -1       435 9.54461E-02
 -1       436 9.39845E-02
 -1       437 8.70209E-02
 -1       438 7.01681E-02
 -1       439 4.55133E-02
 -1       440 5.24315E-02
 -1       441 7.52150E-02
 -1       442 3.24930E+01
 -1       443 3.42455E+01
 -1       444 3.42455E+01
 -1       445 1.98670E+01
 -1       446 2.95466E+01
 -1       447 9.09823E-01
 -1       448 9.16937E+00
 -1       449 1.14001E+01
 -1       450 1.06062E+01
 -1       451 8.76847E+00
 -1       452 8.30657E+00
 -1       453 1.31607E+01
 -1       454 2.35726E+01
 -1       455 2.72824E+01
 -1       456 3.79224E+01
 -1       457 3.79224E+01
 -1       458 2.51381E+01
 -1       459 2.14853E+01
 -1       460 1.21497E+01
 -1       461 7.35319E+00
 -1       462 7.85452E+00
 -1       463 9.88732E+00
 -1       464 1.09875E+01
 -1       465 1.02923E+01
 -1       466 7.93590E+00
 -1       467 8.23125E+00
 -1       468 1.35958E+01
 -1       469 2.27512E+01
 -1       470 2.61265E+01
 -1       471 1.12893E+01
 -1       472 7.30464E+00
 -1       473 8.31919E+00
 -1       474 7.49627E+00
 -1       475 1.05552E+00
 -1       476 4.84438E-01
 -1       477 5.08363E-01
 -1       478 4.30199E-01
 -1       479 4.55760E-01
 -1       480 4.84997E-01
 -1       481 5.08835E-01
 -1       482 5.08835E-01
 -1       483 6.00856E-01
 -1       484 3.12491E+01
 -1       485 9.00087E-01
 -1       486 8.02520E-01
 -1       487 3.93988E+00
 -1       488 7.09022E-01
 -1       489 5.95402E-01
 -1       490 4.81844E-01
 -1       491 3.84832E-01
 -1       492 3.37599E-01
 -1       493 2.87734E-01
 -1       494 2.39315E-01
 -1       495 1.94010E-01
 -1       496 1.51987E-01
 -1       497 1.19986E-01
 -1       498 1.32333E-01
 -1       499 1.46216E-01
 -1       500 1.87754E-01
 -1       501 2.35920E-01
 -1       502 2.80534E-01
 -1       503 3.13538E-01
 -1       504 3.43263E-01
 -1       505 3.58974E-01
 -1       506 3.66106E-01
 -1       507 4.50884E-01
 -1       508 5.05246E-01
 -1       509 7.16100E-01
 -1       510 9.14694E-01
 -1       511 1.13807E+00
 -1       512 1.23997E+00
 -1       513 1.37046E+00
 -1       514 1.21713E+00
 -1       515 1.34234E+00
 -1       516 1.29945E+00
 -1       517 1.16789E+00
 -1       518 9.96294E-01
 -1       519 7.81515E-01
 -1       520 5.44186E-01
 -1       521 4.70835E-01
 -1       522 3.91408E-01
 -1       523 3.53059E-01
 -1       524 3.46667E-01
 -1       525 3.14672E-01
 -1       526 2.83238E-01
 -1       527 2.45299E-01
 -1       528 2.03233E-01
 -1       529 1.59260E-01
 -1       530 1.18231E-01
 -1       531 5.54345E-01
 -1       532 4.55889E-01
 -1       533 3.92559E-01
 -1       534 3.32019E-01
 -1       535 2.77346E-01
 -1       536 2.29501E-01
 -1       537 1.87957E-01
 -1       538 1.55232E-01
 -1       539 1.81903E-01
 -1       540 2.19846E-01
 -1       541 3.34920E-01
 -1       542 4.81210E-01
 -1       543 6.67054E-01
 -1       544 8.99991E-01
 -1       545 1.18391E+00
 -1       546 1.51390E+00
 -1       547 1.86800E+00
 -1       548 2.19884E+00
 -1       549 2.43092E+00
 -1       550 3.09390E+00
 -1       551 3.82158E+00
 -1       552 4.55129E+00
 -1       553 3.20731E+00
 -1       554 4.86359E+00
 -1       555 5.49402E+00
 -1       556 4.71677E+00
 -1       557 3.66266E+00
 -1       558 3.32508E+00
 -1       559 4.35753E+00
 -1       560 3.53565E+00
 -1       561 2.83485E+00
 -1       562 2.32737E+00
 -1       563 2.08206E+00
 -1       564 1.75020E+00
 -1       565 1.40430E+00
 -1       566 1.08721E+00
 -1       567 8.17892E-01
 -1       568 5.99716E-01
 -1       569 4.28533E-01
 -1       570 2.93808E-01
 -1       571 2.11588E-01
 -1       572 1.32453E-01
 -1       573 1.25504E-01
 -1       574 1.32136E-01
 -1       575 1.29982E-01
 -1       576 1.42335E-01
 -1       577 1.32136E-01
 -1       578 1.23390E-01
 -1       579 1.23390E-01
 -1       580 1.08512E-01
 -1       581 8.19240E-02
 -1       582 8.46273E-02
 -1       583 8.46273E-02
 -1       584 3.42455E+01
 -1       585 1.41537E+01
 -1       586 7.13175E-01
 -1       587 2.61265E+01
 -1       588 8.78637E-01
 -1       589 1.12150E+01
 -1       590 2.36699E+01
 -1       591 6.83884E+00
 -1       592 4.55604E-01
 -1       593 8.61469E+00
 -1       594 7.80019E+00
 -1       595 6.30810E+00
 -1       596 6.93621E+00
 -1       597 4.09610E+00
 -1       598 1.03510E+01
 -1       599 1.70257E+01
 -1       600 2.72824E+01
 -1       601 3.79224E+01
 -1       602 2.51381E+01
 -1       603 1.54588E+01
 -1       604 1.03721E+01
 -1       605 3.86694E+00
 -1       606 3.19399E+00
 -1       607 7.90760E+00
 -1       608 6.32363E+00
 -1       609 5.91514E+00
 -1       610 7.59670E+00
 -1       611 1.46943E+01
 -1       612 1.32885E+00
 -1       613 9.98909E+00
 -1       614 5.08363E-01
 -1       615 4.09641E+00
 -1       616 4.62189E-01
 -1       617 5.05273E+00
 -1       618 3.97355E+00
 -1       619 7.09068E+00
 -1       620 7.86666E-02
 -1       621 3.57657E-01
 -1       622 3.42175E-01
 -1       623 3.60937E-01
 -1       624 3.36949E-01
 -1       625 3.45593E-01
 -1       626 1.42420E+01
 -1       627 2.55915E+00
 -1       628 8.91609E+00
 -1       629 3.99613E-01
 -1       630 3.86543E-01
 -1       631 3.43019E-01
 -1       632 2.89337E-01
 -1       633 2.38790E-01
 -1       634 2.05655E-01
 -1       635 1.68968E-01
 -1       636 1.30835E-01
 -1       637 9.20925E-02
 -1       638 8.10877E-02
 -1       639 1.00801E-01
 -1       640 1.53256E-01
 -1       641 2.07094E-01
 -1       642 2.60593E-01
 -1       643 3.08047E-01
 -1       644 3.59646E-01
 -1       645 4.22422E-01
 -1       646 4.71697E-01
 -1       647 5.37246E-01
 -1       648 7.03897E-01
 -1       649 8.33070E-01
 -1       650 9.94830E-01
 -1       651 1.19573E+00
 -1       652 1.24696E+00
 -1       653 1.61214E+00
 -1       654 1.68391E+00
 -1       655 1.64591E+00
 -1       656 1.74356E+00
 -1       657 1.32104E+00
 -1       658 1.21614E+00
 -1       659 1.06173E+00
 -1       660 8.35124E-01
 -1       661 7.44751E-01
 -1       662 5.85796E-01
 -1       663 4.77771E-01
 -1       664 4.36303E-01
 -1       665 3.75838E-01
 -1       666 3.14672E-01
 -1       667 2.73497E-01
 -1       668 2.26179E-01
 -1       669 1.78848E-01
 -1       670 1.26294E-01
 -1       671 3.27960E-01
 -1       672 2.28623E-01
 -1       673 3.99604E-01
 -1       674 2.43418E-01
 -1       675 2.02649E-01
 -1       676 1.61412E-01
 -1       677 1.19383E-01
 -1       678 1.17244E-01
 -1       679 1.55436E-01
 -1       680 2.46942E-01
 -1       681 3.60635E-01
 -1       682 5.03736E-01
 -1       683 6.85448E-01
 -1       684 9.17996E-01
 -1       685 1.21854E+00
 -1       686 1.61565E+00
 -1       687 2.13779E+00
 -1       688 2.83002E+00
 -1       689 3.71546E+00
 -1       690 4.88032E+00
 -1       691 6.71233E+00
 -1       692 4.21500E+00
 -1       693 3.32703E+00
 -1       694 2.56770E+00
 -1       695 1.96130E+00
 -1       696 1.49092E+00
 -1       697 1.12847E+00
 -1       698 8.48662E-01
 -1       699 6.31515E-01
 -1       700 4.62845E-01
 -1       701 3.27912E-01
 -1       702 2.60951E-01
 -1       703 1.65634E-01
 -1       704 8.46273E-02
 -1       705 1.79310E-01
 -1       706 1.63215E-01
 -1       707 1.79310E-01
 -1       708 4.69257E-01
 -1       709 1.52522E-01
 -1       710 1.24972E-01
 -1       711 1.04723E-01
 -1       712 1.52766E+01
 -1       713 3.70711E+00
 -1       714 1.68843E+01
 -1       715 9.13703E+00
 -1       716 1.69618E+01
 -1       717 5.38509E+00
 -1       718 1.47277E+01
 -1       719 6.13638E+00
 -1       720 6.59545E+00
 -1       721 2.82213E-01
 -1       722 3.90741E-01
 -1       723 1.20584E+01
 -1       724 3.60937E-01
 -1       725 5.70043E+00
 -1       726 8.91253E+00
 -1       727 5.20553E-01
 -1       728 9.22076E+00
 -1       729 3.59997E-01
 -1       730 6.70011E+00
 -1       731 1.22394E+01
 -1       732 1.48961E+01
 -1       733 4.69279E+00
 -1       734 6.58629E+00
 -1       735 1.36504E+01
 -1       736 5.44645E-01
 -1       737 3.59997E-01
 -1       738 3.41427E-01
 -1       739 2.72094E+00
 -1       740 4.41681E+00
 -1       741 2.28623E-01
 -1       742 4.55129E+00
 -1       743 2.80278E+00
 -1       744 1.09746E+01
 -1       745 8.33004E-02
 -1       746 3.56365E-01
 -1       747 4.79644E+00
 -1       748 2.40437E-01
 -1       749 1.08982E+01
 -1       750 2.54283E-01
 -1       751 2.43838E-01
 -1       752 2.16745E-01
 -1       753 1.80840E-01
 -1       754 1.52362E-01
 -1       755 1.20171E-01
 -1       756 8.30133E-02
 -1       757 6.10627E-02
 -1       758 7.52608E-02
 -1       759 1.17127E-01
 -1       760 1.71002E-01
 -1       761 2.34823E-01
 -1       762 3.01465E-01
 -1       763 3.67845E-01
 -1       764 4.43977E-01
 -1       765 5.54791E-01
 -1       766 6.68261E-01
 -1       767 7.56825E-01
 -1       768 9.83301E-01
 -1       769 1.38010E+00
 -1       770 1.30409E+00
 -1       771 1.58411E+00
 -1       772 1.62488E+00
 -1       773 1.93074E+00
 -1       774 2.84998E+00
 -1       775 3.27265E+00
 -1       776 3.37987E+00
 -1       777 2.58951E+00
 -1       778 1.39000E+00
 -1       779 1.29708E+00
 -1       780 1.10413E+00
 -1       781 8.24981E-01
 -1       782 6.96023E-01
 -1       783 5.86426E-01
 -1       784 4.71724E-01
 -1       785 3.86136E-01
 -1       786 3.19647E-01
 -1       787 2.55782E-01
 -1       788 1.97210E-01
 -1       789 1.28216E-01
 -1       790 2.84288E-01
 -1       791 1.33616E-01
 -1       792 1.70817E-01
 -1       793 6.65191E-02
 -1       794 9.89574E-02
 -1       795 1.74302E-01
 -1       796 2.78588E-01
 -1       797 4.15596E-01
 -1       798 5.94877E-01
 -1       799 8.30106E-01
 -1       800 1.13782E+00
 -1       801 1.53473E+00
 -1       802 2.06392E+00
 -1       803 2.79932E+00
 -1       804 5.31772E+00
 -1       805 6.08592E+00
 -1       806 3.01409E+00
 -1       807 4.80032E+00
 -1       808 5.85952E+00
 -1       809 7.73458E+00
 -1       810 1.89227E+00
 -1       811 1.38953E+00
 -1       812 1.02398E+00
 -1       813 7.43061E-01
 -1       814 5.29385E-01
 -1       815 3.70318E-01
 -1       816 3.42593E+00
 -1       817 2.03389E-01
 -1       818 2.87747E-01
 -1       819 3.07273E-01
 -1       820 2.04157E-01
 -1       821 1.47307E-01
 -1       822 3.00356E-01
 -1       823 4.04101E+00
 -1       824 6.69619E+00
 -1       825 1.01437E+01
 -1       826 9.62556E+00
 -1       827 9.61172E+00
 -1       828 7.50419E+00
 -1       829 8.88302E+00
 -1       830 1.75890E-01
 -1       831 9.16670E-02
 -1       832 2.34237E-01
 -1       833 2.55915E+00
 -1       834 9.62556E+00
 -1       835 2.58453E+00
 -1       836 3.00034E-01
 -1       837 7.25499E+00
 -1       838 6.58954E+00
 -1       839 7.96358E+00
 -1       840 2.69623E-01
 -1       841 8.11913E+00
 -1       842 2.80615E-01
 -1       843 2.90754E+00
 -1       844 3.27265E+00
 -1       845 2.26714E-01
 -1       846 2.37938E-01
 -1       847 2.73887E-01
 -1       848 2.02598E-01
 -1       849 3.45980E+00
 -1       850 2.93344E-01
 -1       851 2.37938E-01
 -1       852 8.88302E+00
 -1       853 2.83182E-01
 -1       854 7.15223E+00
 -1       855 2.46761E-01
 -1       856 3.37987E+00
 -1       857 2.87770E-01
 -1       858 2.78854E-01
 -1       859 7.73458E+00
 -1       860 2.19000E+00
 -1       861 2.87747E-01
 -1       862 2.30771E-01
 -1       863 3.37987E+00
 -1       864 7.62279E+00
 -1       865 1.18020E-01
 -1       866 2.97686E+00
 -1       867 1.75162E-01
 -1       868 1.62022E-01
 -1       869 1.38201E-01
 -1       870 1.17727E-01
 -1       871 9.25920E-02
 -1       872 9.12931E-02
 -1       873 9.32648E-02
 -1       874 1.17913E-01
 -1       875 1.67260E-01
 -1       876 2.23079E-01
 -1       877 2.84195E-01
 -1       878 3.60253E-01
 -1       879 4.68024E-01
 -1       880 5.91386E-01
 -1       881 7.41550E-01
 -1       882 9.60836E-01
 -1       883 1.17047E+00
 -1       884 1.38010E+00
 -1       885 1.85478E+00
 -1       886 2.14972E+00
 -1       887 1.62488E+00
 -1       888 1.39000E+00
 -1       889 1.55628E+00
 -1       890 1.24367E+00
 -1       891 1.02907E+00
 -1       892 8.02015E-01
 -1       893 6.25745E-01
 -1       894 5.02414E-01
 -1       895 3.87859E-01
 -1       896 2.97894E-01
 -1       897 2.24159E-01
 -1       898 1.42594E-01
 -1       899 1.57365E-01
 -1       900 1.07300E-01
 -1       901 3.60952E-01
 -1       902 5.10118E-01
 -1       903 7.07737E-01
 -1       904 9.75311E-01
 -1       905 1.34990E+00
 -1       906 1.87892E+00
 -1       907 2.65606E+00
 -1       908 4.92351E+00
 -1       909 1.67336E+00
 -1       910 1.71462E-01
 -1       911 2.59221E+00
 -1       912 1.22258E+00
 -1       913 8.85728E-01
 -1       914 6.41935E-01
 -1       915 4.62211E-01
 -1       916 6.90489E+00
 -1       917 2.67498E-01
 -1       918 4.26665E+00
 -1       919 7.09941E+00
 -1       920 2.13956E+00
 -1       921 4.05299E+00
 -1       922 2.87770E-01
 -1       923 7.20486E+00
 -1       924 1.81824E-01
 -1       925 5.87767E+00
 -1       926 6.76683E+00
 -1       927 5.87767E+00
 -1       928 2.46505E-01
 -1       929 2.04884E-01
 -1       930 1.55238E-01
 -1       931 4.01669E+00
 -1       932 1.31596E-01
 -1       933 2.15986E-01
 -1       934 2.67498E-01
 -1       935 1.64341E-01
 -1       936 2.58951E+00
 -1       937 2.03013E-01
 -1       938 1.74032E-01
 -1       939 1.54865E-01
 -1       940 9.51096E-02
 -1       941 3.42838E-01
 -1       942 2.99580E+00
 -1       943 3.36905E+00
 -1       944 2.42067E-01
 -1       945 1.03323E-01
 -1       946 3.90407E+00
 -1       947 5.55620E+00
 -1       948 3.36414E-01
 -1       949 2.58453E+00
 -1       950 2.15986E-01
 -1       951 7.20486E+00
 -1       952 2.03945E-01
 -1       953 2.20594E-01
 -1       954 1.25565E-01
 -1       955 5.38423E+00
 -1       956 1.91708E+00
 -1       957 1.22081E-01
 -1       958 1.05663E-01
 -1       959 1.02751E-01
 -1       960 1.09930E-01
 -1       961 1.17167E-01
 -1       962 1.26724E-01
 -1       963 1.67260E-01
 -1       964 2.23079E-01
 -1       965 2.84195E-01
 -1       966 3.64026E-01
 -1       967 4.63043E-01
 -1       968 6.03277E-01
 -1       969 8.24731E-01
 -1       970 1.07371E+00
 -1       971 1.35590E+00
 -1       972 2.21822E+00
 -1       973 2.14778E-01
 -1       974 2.48449E+00
 -1       975 1.45489E+00
 -1       976 1.14303E+00
 -1       977 8.94016E-01
 -1       978 6.63371E-01
 -1       979 4.90055E-01
 -1       980 3.90413E-01
 -1       981 3.07807E-01
 -1       982 3.88927E+00
 -1       983 1.13559E-01
 -1       984 5.25622E-01
 -1       985 3.87655E-01
 -1       986 9.61812E-01
 -1       987 1.32294E+00
 -1       988 1.78715E+00
 -1       989 2.60695E+00
 -1       990 8.93898E-01
 -1       991 1.19723E-01
 -1       992 1.62544E+00
 -1       993 6.57679E-01
 -1       994 4.85393E-01
 -1       995 5.56867E+00
 -1       996 7.08378E-01
 -1       997 2.88271E-01
 -1       998 1.41699E-01
 -1       999 2.14778E-01
 -1      1000 2.87965E+00
 -1      1001 5.38423E+00
 -1      1002 3.76567E-01
 -1      1003 2.03578E-01
 -1      1004 1.21618E+00
 -1      1005 8.83084E-02
 -1      1006 3.87852E+00
 -1      1007 1.28255E-01
 -1      1008 1.84105E-01
 -1      1009 5.56867E+00
 -1      1010 1.24256E-01
 -1      1011 1.51117E-01
 -1      1012 1.40952E-01
 -1      1013 2.99580E+00
 -1      1014 2.80766E-01
 -1      1015 2.80190E+00
 -1      1016 3.21022E+00
 -1      1017 1.96466E-01
 -1      1018 3.30613E-01
 -1      1019 3.84292E+00
 -1      1020 4.16394E-01
 -1      1021 1.53588E-01
 -1      1022 1.03587E-01
 -1      1023 1.18461E-01
 -1      1024 9.58405E-02
 -1      1025 1.09701E-01
 -1      1026 1.17897E-01
 -1      1027 1.27666E-01
 -1      1028 1.43619E-01
 -1      1029 1.69457E-01
 -1      1030 2.10796E-01
 -1      1031 2.80052E-01
 -1      1032 3.64026E-01
 -1      1033 4.63043E-01
 -1      1034 6.12811E-01
 -1      1035 8.23757E-01
 -1      1036 1.13165E+00
 -1      1037 1.59257E+00
 -1      1038 2.97992E+00
 -1      1039 1.49868E-01
 -1      1040 2.17920E+00
 -1      1041 1.56911E+00
 -1      1042 1.25276E+00
 -1      1043 8.78732E-01
 -1      1044 6.55369E-01
 -1      1045 4.92398E-01
 -1      1046 4.51370E-01
 -1      1047 9.64160E-02
 -1      1048 2.67238E+00
 -1      1049 1.27987E+00
 -1      1050 1.01645E+00
 -1      1051 4.87425E-01
 -1      1052 3.46574E+00
 -1      1053 7.04329E-01
 -1      1054 1.47295E-01
 -1      1055 5.39638E-01
 -1      1056 1.77291E-01
 -1      1057 4.16394E-01
 -1      1058 1.09473E-01
 -1      1059 3.85083E-01
 -1      1060 1.38155E-01
 -1      1061 1.53588E-01
 -1      1062 9.22870E-01
 -1      1063 8.76386E-02
 -1      1064 4.00832E-01
 -1      1065 1.29461E+00
 -1      1066 7.34642E-01
 -1      1067 3.52855E+00
 -1      1068 3.00969E-01
 -1      1069 2.90872E+00
 -1      1070 9.51855E-02
 -1      1071 1.00569E-01
 -1      1072 8.91626E-02
 -1      1073 2.38782E+00
 -1      1074 3.01605E+00
 -1      1075 2.06759E+00
 -1      1076 2.55569E+00
 -1      1077 2.28922E-01
 -1      1078 1.86211E-01
 -1      1079 4.51370E-01
 -1      1080 7.47041E-02
 -1      1081 1.10971E-01
 -1      1082 9.51855E-02
 -1      1083 1.17897E-01
 -1      1084 1.28477E-01
 -1      1085 1.82706E-01
 -1      1086 1.88831E-01
 -1      1087 2.53357E-01
 -1      1088 3.43557E-01
 -1      1089 4.70622E-01
 -1      1090 6.50320E-01
 -1      1091 9.04676E-01
 -1      1092 1.26185E+00
 -1      1093 1.62190E+00
 -1      1094 1.86499E+00
 -1      1095 1.91321E+00
 -1      1096 1.18090E-01
 -1      1097 1.17398E-01
 -1      1098 2.14652E+00
 -1      1099 1.56407E+00
 -1      1100 1.23061E+00
 -1      1101 8.31328E-01
 -1      1102 4.92398E-01
 -1      1103 7.36746E-02
 -1      1104 1.62190E+00
 -1      1105 7.04329E-01
 -1      1106 2.14652E+00
 -1      1107 1.25916E-01
 -1      1108 2.99580E+00
 -1      1109 8.31328E-01
 -1      1110 9.89396E-02
 -1      1111 2.13397E-01
 -1      1112 1.09701E-01
 -1      1113 7.74984E-01
 -1      1114 9.47352E-02
 -1      1115 1.17342E+00
 -1      1116 5.19796E-01
 -1      1117 1.23061E+00
 -1      1118 3.54676E-01
 -1      1119 1.61946E+00
 -1      1120 1.17398E-01
 -1      1121 2.68057E-01
 -1      1122 4.97825E-02
 -1      1123 1.18090E-01
 -1      1124 2.90872E+00
 -1      1125 1.86211E-01
 -1      1126 1.05998E-01
 -1      1127 7.28174E-02
 -1      1128 2.15406E+00
 -1      1129 1.28477E-01
 -1      1130 1.86211E-01
 -1      1131 1.18090E-01
 -1      1132 9.89396E-02
 -1      1133 1.31489E+01
 -1      1134 8.40348E+00
 -1      1135 2.73904E+00
 -1      1136 1.55317E+00
 -1      1137 1.16338E+00
 -1      1138 9.68835E-01
 -1      1139 8.51985E-01
 -1      1140 7.79918E-01
 -1      1141 7.54125E-01
 -1      1142 7.83140E-01
 -1      1143 8.54709E-01
 -1      1144 9.73826E-01
 -1      1145 1.17658E+00
 -1      1146 1.56630E+00
 -1      1147 2.66419E+00
 -1      1148 6.07094E+00
 -1      1149 1.13437E+01
 -1      1150 1.31489E+01
 -1      1151 8.73800E+00
 -1      1152 3.83988E+00
 -1      1153 2.73851E+00
 -1      1154 1.75084E+00
 -1      1155 1.20479E+00
 -1      1156 9.15274E-01
 -1      1157 7.11417E-01
 -1      1158 5.58094E-01
 -1      1159 4.40614E-01
 -1      1160 3.50920E-01
 -1      1161 2.83403E-01
 -1      1162 2.33291E-01
 -1      1163 2.09244E-01
 -1      1164 2.16489E-01
 -1      1165 2.38193E-01
 -1      1166 2.60782E-01
 -1      1167 2.83686E-01
 -1      1168 3.37699E-01
 -1      1169 4.22850E-01
 -1      1170 4.98689E-01
 -1      1171 5.38829E-01
 -1      1172 5.64686E-01
 -1      1173 6.01708E-01
 -1      1174 6.86356E-01
 -1      1175 8.75244E-01
 -1      1176 1.22079E+00
 -1      1177 1.77726E+00
 -1      1178 2.31535E+00
 -1      1179 2.51967E+00
 -1      1180 2.54002E+00
 -1      1181 2.56036E+00
 -1      1182 2.41149E+00
 -1      1183 1.95467E+00
 -1      1184 1.34584E+00
 -1      1185 9.36240E-01
 -1      1186 7.15341E-01
 -1      1187 5.99740E-01
 -1      1188 5.64882E-01
 -1      1189 5.33439E-01
 -1      1190 5.03983E-01
 -1      1191 4.30196E-01
 -1      1192 3.40070E-01
 -1      1193 2.83054E-01
 -1      1194 2.57480E-01
 -1      1195 2.24194E-01
 -1      1196 1.82758E-01
 -1      1197 1.53161E-01
 -1      1198 1.19469E-01
 -1      1199 5.80823E-02
 -1      1200 1.40451E+01
 -1      1201 8.72373E+00
 -1      1202 2.91253E+00
 -1      1203 2.04989E+00
 -1      1204 1.41758E+00
 -1      1205 1.04039E+00
 -1      1206 8.38315E-01
 -1      1207 6.86157E-01
 -1      1208 5.63888E-01
 -1      1209 4.66483E-01
 -1      1210 3.91446E-01
 -1      1211 3.37285E-01
 -1      1212 3.02873E-01
 -1      1213 2.92860E-01
 -1      1214 3.09182E-01
 -1      1215 3.47779E-01
 -1      1216 4.24084E-01
 -1      1217 5.42648E-01
 -1      1218 6.91479E-01
 -1      1219 8.66081E-01
 -1      1220 1.05056E+00
 -1      1221 1.20967E+00
 -1      1222 1.34851E+00
 -1      1223 1.69532E+00
 -1      1224 2.18579E+00
 -1      1225 2.52466E+00
 -1      1226 2.77242E+00
 -1      1227 3.26922E+00
 -1      1228 4.69659E+00
 -1      1229 6.45769E+00
 -1      1230 7.54619E+00
 -1      1231 7.92822E+00
 -1      1232 6.50101E+00
 -1      1233 3.80562E+00
 -1      1234 2.60628E+00
 -1      1235 2.75141E+00
 -1      1236 2.82770E+00
 -1      1237 2.66722E+00
 -1      1238 2.28815E+00
 -1      1239 1.86654E+00
 -1      1240 1.47018E+00
 -1      1241 1.11112E+00
 -1      1242 8.11823E-01
 -1      1243 5.92568E-01
 -1      1244 4.46800E-01
 -1      1245 3.37913E-01
 -1      1246 2.47727E-01
 -1      1247 1.70988E-01
 -1      1248 1.11902E-01
 -1      1249 5.68850E-02
 -1      1250 3.13678E-02
 -1      1251 3.71459E-02
 -1      1252 3.54813E-02
 -1      1253 2.59322E-02
 -1      1254 1.80656E-02
 -1      1255 2.34647E-02
 -1      1256 3.13668E-02
 -1      1257 3.38873E-02
 -1      1258 3.37608E-02
 -1      1259 3.13505E-02
 -1      1260 2.47974E-02
 -1      1261 1.52172E-02
 -1      1262 1.38441E-02
 -1      1263 2.29026E-02
 -1      1264 3.45109E-02
 -1      1265 4.26318E-02
 -1      1266 3.37797E-02
 -1      1267 2.44004E+01
 -1      1268 2.71566E+01
 -1      1269 2.88556E+01
 -1      1270 2.79051E+01
 -1      1271 2.00379E+01
 -1      1272 1.31725E+01
 -1      1273 1.32238E+01
 -1      1274 1.30288E+01
 -1      1275 1.28338E+01
 -1      1276 1.43851E+01
 -1      1277 2.68391E+01
 -1      1278 3.77418E+01
 -1      1279 3.18079E+01
 -1      1280 2.51007E+01
 -1      1281 2.45774E+01
 -1      1282 2.64192E+01
 -1      1283 3.03871E+01
 -1      1284 3.20398E+01
 -1      1285 2.20083E+01
 -1      1286 1.29821E+01
 -1      1287 1.32640E+01
 -1      1288 1.26563E+01
 -1      1289 1.20640E+01
 -1      1290 1.20795E+01
 -1      1291 1.36390E+01
 -1      1292 2.62955E+01
 -1      1293 3.73925E+01
 -1      1294 3.13415E+01
 -1      1295 2.44664E+01
 -1      1296 2.34928E+01
 -1      1297 1.31489E+01
 -1      1298 4.86489E+00
 -1      1299 9.61030E+00
 -1      1300 2.05724E+00
 -1      1301 2.97627E+00
 -1      1302 4.18309E+00
 -1      1303 1.39415E+00
 -1      1304 1.66099E+00
 -1      1305 1.89821E+00
 -1      1306 1.09773E+00
 -1      1307 1.22068E+00
 -1      1308 1.32850E+00
 -1      1309 9.33362E-01
 -1      1310 1.00496E+00
 -1      1311 1.06226E+00
 -1      1312 8.34591E-01
 -1      1313 8.79844E-01
 -1      1314 9.15968E-01
 -1      1315 7.73897E-01
 -1      1316 8.00711E-01
 -1      1317 8.28570E-01
 -1      1318 7.55147E-01
 -1      1319 7.54125E-01
 -1      1320 7.74918E-01
 -1      1321 8.04683E-01
 -1      1322 7.76689E-01
 -1      1323 7.76689E-01
 -1      1324 8.81880E-01
 -1      1325 8.38305E-01
 -1      1326 8.31854E-01
 -1      1327 1.01396E+00
 -1      1328 9.38416E-01
 -1      1329 9.22011E-01
 -1      1330 1.23652E+00
 -1      1331 1.10930E+00
 -1      1332 1.07389E+00
 -1      1333 1.67617E+00
 -1      1334 1.41367E+00
 -1      1335 1.34639E+00
 -1      1336 2.87796E+00
 -1      1337 2.04257E+00
 -1      1338 1.88994E+00
 -1      1339 6.28472E+00
 -1      1340 3.71337E+00
 -1      1341 3.09175E+00
 -1      1342 1.40451E+01
 -1      1343 1.13437E+01
 -1      1344 8.98611E+00
 -1      1345 1.40451E+01
 -1      1346 8.73800E+00
 -1      1347 4.32712E+00
 -1      1348 3.83988E+00
 -1      1349 3.35265E+00
 -1      1350 3.83988E+00
 -1      1351 2.73851E+00
 -1      1352 2.12437E+00
 -1      1353 2.73851E+00
 -1      1354 1.79170E+00
 -1      1355 1.41817E+00
 -1      1356 1.79170E+00
 -1      1357 1.20787E+00
 -1      1358 1.03535E+00
 -1      1359 1.24873E+00
 -1      1360 9.15274E-01
 -1      1361 7.98271E-01
 -1      1362 9.18352E-01
 -1      1363 7.11417E-01
 -1      1364 6.24562E-01
 -1      1365 7.11417E-01
 -1      1366 5.59636E-01
 -1      1367 4.93168E-01
 -1      1368 5.59636E-01
 -1      1369 4.45618E-01
 -1      1370 3.94605E-01
 -1      1371 4.47159E-01
 -1      1372 3.56080E-01
 -1      1373 3.17399E-01
 -1      1374 3.61084E-01
 -1      1375 2.86540E-01
 -1      1376 2.57704E-01
 -1      1377 2.91701E-01
 -1      1378 2.33291E-01
 -1      1379 2.12015E-01
 -1      1380 2.36428E-01
 -1      1381 2.02303E-01
 -1      1382 1.99532E-01
 -1      1383 2.02303E-01
 -1      1384 2.06472E-01
 -1      1385 2.16489E-01
 -1      1386 1.99532E-01
 -1      1387 2.26506E-01
 -1      1388 2.38193E-01
 -1      1389 2.16489E-01
 -1      1390 2.49881E-01
 -1      1391 2.60782E-01
 -1      1392 2.38193E-01
 -1      1393 2.71682E-01
 -1      1394 2.83686E-01
 -1      1395 2.60782E-01
 -1      1396 3.03386E-01
 -1      1397 3.45394E-01
 -1      1398 2.91382E-01
 -1      1399 3.79708E-01
 -1      1400 4.22850E-01
 -1      1401 3.45394E-01
 -1      1402 4.65992E-01
 -1      1403 4.98689E-01
 -1      1404 4.22850E-01
 -1      1405 5.31386E-01
 -1      1406 5.38829E-01
 -1      1407 4.98689E-01
 -1      1408 5.46272E-01
 -1      1409 5.64686E-01
 -1      1410 5.38829E-01
 -1      1411 5.83100E-01
 -1      1412 6.01708E-01
 -1      1413 5.64686E-01
 -1      1414 6.20317E-01
 -1      1415 6.86356E-01
 -1      1416 6.01708E-01
 -1      1417 7.52396E-01
 -1      1418 8.75244E-01
 -1      1419 6.86356E-01
 -1      1420 1.00602E+00
 -1      1421 1.22871E+00
 -1      1422 8.83170E-01
 -1      1423 1.46924E+00
 -1      1424 1.80301E+00
 -1      1425 1.25447E+00
 -1      1426 2.11103E+00
 -1      1427 2.31535E+00
 -1      1428 1.80301E+00
 -1      1429 2.51967E+00
 -1      1430 2.51967E+00
 -1      1431 2.31535E+00
 -1      1432 2.50854E+00
 -1      1433 2.52889E+00
 -1      1434 2.50854E+00
 -1      1435 2.56036E+00
 -1      1436 2.56036E+00
 -1      1437 2.52889E+00
 -1      1438 2.41149E+00
 -1      1439 2.26261E+00
 -1      1440 2.41149E+00
 -1      1441 1.95467E+00
 -1      1442 1.64672E+00
 -1      1443 1.95467E+00
 -1      1444 1.39551E+00
 -1      1445 1.09462E+00
 -1      1446 1.39551E+00
 -1      1447 9.36240E-01
 -1      1448 8.27527E-01
 -1      1449 9.85910E-01
 -1      1450 7.15341E-01
 -1      1451 6.03156E-01
 -1      1452 7.15341E-01
 -1      1453 5.99740E-01
 -1      1454 5.96325E-01
 -1      1455 5.99740E-01
 -1      1456 5.63178E-01
 -1      1457 5.31735E-01
 -1      1458 5.63178E-01
 -1      1459 5.33439E-01
 -1      1460 5.33439E-01
 -1      1461 5.31735E-01
 -1      1462 5.03983E-01
 -1      1463 4.74528E-01
 -1      1464 5.03983E-01
 -1      1465 4.30196E-01
 -1      1466 3.85863E-01
 -1      1467 4.30196E-01
 -1      1468 3.47882E-01
 -1      1469 3.02089E-01
 -1      1470 3.47882E-01
 -1      1471 2.83054E-01
 -1      1472 2.71833E-01
 -1      1473 2.90867E-01
 -1      1474 2.57480E-01
 -1      1475 2.43127E-01
 -1      1476 2.57480E-01
 -1      1477 2.24194E-01
 -1      1478 2.05261E-01
 -1      1479 2.24194E-01
 -1      1480 1.82758E-01
 -1      1481 1.60254E-01
 -1      1482 1.82758E-01
 -1      1483 1.53161E-01
 -1      1484 1.46068E-01
 -1      1485 1.53161E-01
 -1      1486 1.19469E-01
 -1      1487 9.28705E-02
 -1      1488 1.19469E-01
 -1      1489 6.85679E-02
 -1      1490 6.85679E-02
 -1      1491 3.40240E+00
 -1      1492 8.72373E+00
 -1      1493 8.72373E+00
 -1      1494 2.42267E+00
 -1      1495 2.91253E+00
 -1      1496 2.91253E+00
 -1      1497 1.67710E+00
 -1      1498 2.04989E+00
 -1      1499 2.04989E+00
 -1      1500 1.15806E+00
 -1      1501 1.41758E+00
 -1      1502 1.41758E+00
 -1      1503 9.22718E-01
 -1      1504 1.04039E+00
 -1      1505 1.04039E+00
 -1      1506 7.53912E-01
 -1      1507 8.38315E-01
 -1      1508 8.38315E-01
 -1      1509 6.18401E-01
 -1      1510 6.86157E-01
 -1      1511 6.86157E-01
 -1      1512 5.09376E-01
 -1      1513 5.63888E-01
 -1      1514 5.63888E-01
 -1      1515 4.23590E-01
 -1      1516 4.66483E-01
 -1      1517 4.66483E-01
 -1      1518 3.59301E-01
 -1      1519 3.91446E-01
 -1      1520 3.91446E-01
 -1      1521 3.15270E-01
 -1      1522 3.37285E-01
 -1      1523 3.37285E-01
 -1      1524 2.90477E-01
 -1      1525 3.02873E-01
 -1      1526 3.02873E-01
 -1      1527 2.89652E-01
 -1      1528 2.87268E-01
 -1      1529 2.87268E-01
 -1      1530 3.09182E-01
 -1      1531 2.95244E-01
 -1      1532 2.89652E-01
 -1      1533 3.51880E-01
 -1      1534 3.27221E-01
 -1      1535 3.13283E-01
 -1      1536 4.46413E-01
 -1      1537 3.94765E-01
 -1      1538 3.74208E-01
 -1      1539 5.68634E-01
 -1      1540 5.01718E-01
 -1      1541 4.72398E-01
 -1      1542 7.17377E-01
 -1      1543 6.35462E-01
 -1      1544 5.94532E-01
 -1      1545 8.84230E-01
 -1      1546 7.91543E-01
 -1      1547 7.35527E-01
 -1      1548 1.05056E+00
 -1      1549 9.58768E-01
 -1      1550 8.84230E-01
 -1      1551 1.20967E+00
 -1      1552 1.14235E+00
 -1      1553 1.05056E+00
 -1      1554 1.36828E+00
 -1      1555 1.29676E+00
 -1      1556 1.22944E+00
 -1      1557 1.82511E+00
 -1      1558 1.54982E+00
 -1      1559 1.49807E+00
 -1      1560 2.18579E+00
 -1      1561 1.97061E+00
 -1      1562 1.82511E+00
 -1      1563 2.52466E+00
 -1      1564 2.40097E+00
 -1      1565 2.18579E+00
 -1      1566 2.77242E+00
 -1      1567 2.64835E+00
 -1      1568 2.52466E+00
 -1      1569 3.26922E+00
 -1      1570 2.89650E+00
 -1      1571 2.77242E+00
 -1      1572 4.69659E+00
 -1      1573 3.64195E+00
 -1      1574 3.26922E+00
 -1      1575 6.45769E+00
 -1      1576 5.75123E+00
 -1      1577 4.69659E+00
 -1      1578 7.54619E+00
 -1      1579 7.16415E+00
 -1      1580 6.45769E+00
 -1      1581 7.92822E+00
 -1      1582 7.92822E+00
 -1      1583 7.54619E+00
 -1      1584 5.07381E+00
 -1      1585 6.50101E+00
 -1      1586 6.50101E+00
 -1      1587 2.53743E+00
 -1      1588 3.80562E+00
 -1      1589 3.80562E+00
 -1      1590 2.46909E+00
 -1      1591 2.40024E+00
 -1      1592 2.40024E+00
 -1      1593 2.75141E+00
 -1      1594 2.67512E+00
 -1      1595 2.46909E+00
 -1      1596 2.82770E+00
 -1      1597 2.82770E+00
 -1      1598 2.75141E+00
 -1      1599 2.50674E+00
 -1      1600 2.66722E+00
 -1      1601 2.66722E+00
 -1      1602 2.06956E+00
 -1      1603 2.28815E+00
 -1      1604 2.28815E+00
 -1      1605 1.67130E+00
 -1      1606 1.87432E+00
 -1      1607 1.87432E+00
 -1      1608 1.30263E+00
 -1      1609 1.49597E+00
 -1      1610 1.50376E+00
 -1      1611 9.77526E-01
 -1      1612 1.14325E+00
 -1      1613 1.16904E+00
 -1      1614 7.10326E-01
 -1      1615 8.43891E-01
 -1      1616 8.76028E-01
 -1      1617 5.17928E-01
 -1      1618 6.03618E-01
 -1      1619 6.35686E-01
 -1      1620 3.86723E-01
 -1      1621 4.46800E-01
 -1      1622 4.57850E-01
 -1      1623 2.89102E-01
 -1      1624 3.37913E-01
 -1      1625 3.37913E-01
 -1      1626 2.06352E-01
 -1      1627 2.47727E-01
 -1      1628 2.47727E-01
 -1      1629 1.36412E-01
 -1      1630 1.71777E-01
 -1      1631 1.71777E-01
 -1      1632 8.81803E-02
 -1      1633 1.11902E-01
 -1      1634 1.12691E-01
 -1      1635 6.26631E-02
 -1      1636 4.52066E-02
 -1      1637 4.52066E-02
 -1      1638 4.40184E-02
 -1      1639 4.56830E-02
 -1      1640 5.37437E-02
 -1      1641 3.61340E-02
 -1      1642 4.40184E-02
 -1      1643 5.42201E-02
 -1      1644 2.55834E-02
 -1      1645 2.55656E-02
 -1      1646 4.36518E-02
 -1      1647 4.13369E-02
 -1      1648 3.59554E-02
 -1      1649 4.34555E-02
 -1      1650 4.92444E-02
 -1      1651 4.67238E-02
 -1      1652 5.92145E-02
 -1      1653 4.97604E-02
 -1      1654 4.97604E-02
 -1      1655 6.51175E-02
 -1      1656 4.96339E-02
 -1      1657 4.97604E-02
 -1      1658 6.56335E-02
 -1      1659 4.63131E-02
 -1      1660 4.85968E-02
 -1      1661 6.45964E-02
 -1      1662 3.66307E-02
 -1      1663 4.09001E-02
 -1      1664 5.81463E-02
 -1      1665 2.31766E-02
 -1      1666 2.84874E-02
 -1      1667 4.45900E-02
 -1      1668 2.15045E-02
 -1      1669 1.75668E-02
 -1      1670 3.08370E-02
 -1      1671 3.70573E-02
 -1      1672 3.19365E-02
 -1      1673 3.56592E-02
 -1      1674 4.35448E-02
 -1      1675 3.70573E-02
 -1      1676 4.60912E-02
 -1      1677 5.01047E-02
 -1      1678 4.84711E-02
 -1      1679 5.10176E-02
 -1      1680 7.44072E-02
 -1      1681 2.62077E+01
 -1      1682 2.51505E+01
 -1      1683 3.06743E+01
 -1      1684 2.89753E+01
 -1      1685 3.06743E+01
 -1      1686 3.06743E+01
 -1      1687 2.77157E+01
 -1      1688 2.86663E+01
 -1      1689 1.31213E+01
 -1      1690 2.00379E+01
 -1      1691 1.27454E+01
 -1      1692 1.26941E+01
 -1      1693 1.32238E+01
 -1      1694 1.32238E+01
 -1      1695 1.25421E+01
 -1      1696 1.27371E+01
 -1      1697 1.28338E+01
 -1      1698 1.28338E+01
 -1      1699 1.39027E+01
 -1      1700 1.23515E+01
 -1      1701 2.69181E+01
 -1      1702 1.60154E+01
 -1      1703 3.77418E+01
 -1      1704 3.77418E+01
 -1      1705 3.05540E+01
 -1      1706 3.64879E+01
 -1      1707 2.63003E+01
 -1      1708 2.70736E+01
 -1      1709 2.65503E+01
 -1      1710 2.63003E+01
 -1      1711 2.77656E+01
 -1      1712 2.61738E+01
 -1      1713 3.27633E+01
 -1      1714 3.03871E+01
 -1      1715 3.20398E+01
 -1      1716 3.27633E+01
 -1      1717 1.27003E+01
 -1      1718 2.20083E+01
 -1      1719 1.24873E+01
 -1      1720 1.22055E+01
 -1      1721 1.32640E+01
 -1      1722 1.32640E+01
 -1      1723 1.20486E+01
 -1      1724 1.26563E+01
 -1      1725 1.19292E+01
 -1      1726 1.19138E+01
 -1      1727 1.20795E+01
 -1      1728 1.20795E+01
 -1      1729 1.30827E+01
 -1      1730 1.15232E+01
 -1      1731 2.63114E+01
 -1      1732 1.52144E+01
 -1      1733 3.73925E+01
 -1      1734 3.73925E+01
 -1      1735 3.02730E+01
 -1      1736 3.63240E+01
 -1      1737 2.36422E+01
 -1      1738 2.44664E+01
 -1      1739 2.51505E+01
 -1      1740 2.53000E+01
 -1      1741 2.53000E+01
 -1      1742 2.07991E+01
 -1      1743 3.04849E+01
 -1      1744 6.26631E-02
 -1      1745 7.07238E-02
 -1      1746 2.97254E+01
 -1      1747 3.24930E+01
 -1      1748 2.69577E+01
 -1      1749 1.26941E+01
 -1      1750 1.27454E+01
 -1      1751 1.27371E+01
 -1      1752 1.25421E+01
 -1      1753 1.23515E+01
 -1      1754 1.39818E+01
 -1      1755 2.69181E+01
 -1      1756 3.64879E+01
 -1      1757 3.17536E+01
 -1      1758 2.82732E+01
 -1      1759 2.78967E+01
 -1      1760 3.01418E+01
 -1      1761 3.27633E+01
 -1      1762 2.27318E+01
 -1      1763 1.22055E+01
 -1      1764 1.24873E+01
 -1      1765 1.26563E+01
 -1      1766 1.19138E+01
 -1      1767 1.19292E+01
 -1      1768 1.15232E+01
 -1      1769 1.30986E+01
 -1      1770 2.63114E+01
 -1      1771 3.63240E+01
 -1      1772 2.94489E+01
 -1      1773 9.61030E+00
 -1      1774 1.28294E+00
 -1      1775 1.67919E+00
 -1      1776 2.38373E+00
 -1      1777 4.27236E+00
 -1      1778 1.76846E+00
 -1      1779 8.77733E-01
 -1      1780 9.70506E-01
 -1      1781 7.77539E-01
 -1      1782 8.31056E-01
 -1      1783 7.39304E-01
 -1      1784 7.12341E-01
 -1      1785 7.46221E-01
 -1      1786 6.61309E-01
 -1      1787 6.70648E-01
 -1      1788 6.90419E-01
 -1      1789 6.08070E-01
 -1      1790 6.93835E-01
 -1      1791 6.72293E-01
 -1      1792 5.87794E-01
 -1      1793 7.49079E-01
 -1      1794 7.15457E-01
 -1      1795 6.11061E-01
 -1      1796 8.38723E-01
 -1      1797 7.82188E-01
 -1      1798 6.65792E-01
 -1      1799 9.81447E-01
 -1      1800 8.86102E-01
 -1      1801 7.46279E-01
 -1      1802 1.22603E+00
 -1      1803 1.04888E+00
 -1      1804 8.61086E-01
 -1      1805 1.70497E+00
 -1      1806 1.33857E+00
 -1      1807 1.04105E+00
 -1      1808 2.62474E+00
 -1      1809 1.78933E+00
 -1      1810 1.23796E+00
 -1      1811 8.12399E+00
 -1      1812 3.06504E+00
 -1      1813 1.76262E+00
 -1      1814 2.80266E+00
 -1      1815 5.19942E+00
 -1      1816 2.16945E+00
 -1      1817 2.65932E+00
 -1      1818 2.05958E+00
 -1      1819 3.40006E+00
 -1      1820 2.54566E+00
 -1      1821 1.93152E+00
 -1      1822 1.70091E+00
 -1      1823 1.36824E+00
 -1      1824 1.50805E+00
 -1      1825 1.18843E+00
 -1      1826 9.78128E-01
 -1      1827 1.09763E+00
 -1      1828 8.52868E-01
 -1      1829 7.32788E-01
 -1      1830 7.92564E-01
 -1      1831 6.78149E-01
 -1      1832 5.91295E-01
 -1      1833 6.12666E-01
 -1      1834 5.44686E-01
 -1      1835 4.79760E-01
 -1      1836 5.11418E-01
 -1      1837 4.39050E-01
 -1      1838 3.91500E-01
 -1      1839 4.24100E-01
 -1      1840 3.56863E-01
 -1      1841 3.18338E-01
 -1      1842 3.48754E-01
 -1      1843 2.89444E-01
 -1      1844 2.58586E-01
 -1      1845 2.85223E-01
 -1      1846 2.34654E-01
 -1      1847 2.10241E-01
 -1      1848 2.32398E-01
 -1      1849 1.90156E-01
 -1      1850 1.80444E-01
 -1      1851 1.88382E-01
 -1      1852 1.80456E-01
 -1      1853 1.87396E-01
 -1      1854 1.68309E-01
 -1      1855 1.95148E-01
 -1      1856 2.05165E-01
 -1      1857 1.76072E-01
 -1      1858 2.14025E-01
 -1      1859 2.25713E-01
 -1      1860 1.92684E-01
 -1      1861 2.35086E-01
 -1      1862 2.45986E-01
 -1      1863 2.10918E-01
 -1      1864 2.67870E-01
 -1      1865 2.87569E-01
 -1      1866 2.42174E-01
 -1      1867 3.11081E-01
 -1      1868 3.45395E-01
 -1      1869 2.87570E-01
 -1      1870 3.69367E-01
 -1      1871 4.12509E-01
 -1      1872 3.35054E-01
 -1      1873 4.27693E-01
 -1      1874 4.60391E-01
 -1      1875 3.74211E-01
 -1      1876 4.54650E-01
 -1      1877 4.62093E-01
 -1      1878 3.83655E-01
 -1      1879 4.23028E-01
 -1      1880 4.41442E-01
 -1      1881 3.38849E-01
 -1      1882 4.26698E-01
 -1      1883 4.45307E-01
 -1      1884 2.85040E-01
 -1      1885 5.36681E-01
 -1      1886 6.02721E-01
 -1      1887 3.61671E-01
 -1      1888 7.64647E-01
 -1      1889 8.95421E-01
 -1      1890 6.14972E-01
 -1      1891 1.06399E+00
 -1      1892 1.30452E+00
 -1      1893 9.45472E-01
 -1      1894 1.45006E+00
 -1      1895 1.75808E+00
 -1      1896 1.25959E+00
 -1      1897 1.89371E+00
 -1      1898 2.09803E+00
 -1      1899 1.54076E+00
 -1      1900 2.12339E+00
 -1      1901 2.11226E+00
 -1      1902 1.70175E+00
 -1      1903 2.09843E+00
 -1      1904 2.12991E+00
 -1      1905 1.71328E+00
 -1      1906 2.13734E+00
 -1      1907 1.98847E+00
 -1      1908 1.70689E+00
 -1      1909 1.88214E+00
 -1      1910 1.57419E+00
 -1      1911 1.60800E+00
 -1      1912 1.41954E+00
 -1      1913 1.16833E+00
 -1      1914 1.34702E+00
 -1      1915 1.01302E+00
 -1      1916 8.54637E-01
 -1      1917 1.03706E+00
 -1      1918 6.81327E-01
 -1      1919 5.69142E-01
 -1      1920 7.08438E-01
 -1      1921 4.48622E-01
 -1      1922 4.45206E-01
 -1      1923 4.14608E-01
 -1      1924 4.41615E-01
 -1      1925 4.08469E-01
 -1      1926 2.90497E-01
 -1      1927 4.42953E-01
 -1      1928 4.44657E-01
 -1      1929 3.21390E-01
 -1      1930 4.57118E-01
 -1      1931 4.27662E-01
 -1      1932 3.68336E-01
 -1      1933 4.15524E-01
 -1      1934 3.71192E-01
 -1      1935 3.68659E-01
 -1      1936 3.47029E-01
 -1      1937 3.09048E-01
 -1      1938 3.32357E-01
 -1      1939 2.87295E-01
 -1      1940 2.68260E-01
 -1      1941 2.86442E-01
 -1      1942 2.48489E-01
 -1      1943 2.34136E-01
 -1      1944 2.44917E-01
 -1      1945 2.14525E-01
 -1      1946 1.95592E-01
 -1      1947 2.05534E-01
 -1      1948 1.79975E-01
 -1      1949 1.57471E-01
 -1      1950 1.70306E-01
 -1      1951 1.39516E-01
 -1      1952 1.32423E-01
 -1      1953 1.36733E-01
 -1      1954 1.13202E-01
 -1      1955 8.66028E-02
 -1      1956 6.81396E-02
 -1      1957 9.95568E-02
 -1      1958 1.40766E+00
 -1      1959 1.78045E+00
 -1      1960 1.52723E+00
 -1      1961 1.02907E+00
 -1      1962 1.28859E+00
 -1      1963 1.01916E+00
 -1      1964 8.17947E-01
 -1      1965 9.35615E-01
 -1      1966 8.06631E-01
 -1      1967 6.54129E-01
 -1      1968 7.38532E-01
 -1      1969 6.33760E-01
 -1      1970 5.37145E-01
 -1      1971 6.04901E-01
 -1      1972 5.05117E-01
 -1      1973 4.50967E-01
 -1      1974 5.05480E-01
 -1      1975 4.24224E-01
 -1      1976 3.77805E-01
 -1      1977 4.20697E-01
 -1      1978 3.62289E-01
 -1      1979 3.24188E-01
 -1      1980 3.56332E-01
 -1      1981 3.10547E-01
 -1      1982 2.86161E-01
 -1      1983 3.08176E-01
 -1      1984 2.73063E-01
 -1      1985 2.63067E-01
 -1      1986 2.75464E-01
 -1      1987 2.46354E-01
 -1      1988 2.54577E-01
 -1      1989 2.57785E-01
 -1      1990 2.30375E-01
 -1      1991 2.60157E-01
 -1      1992 2.54566E-01
 -1      1993 2.25082E-01
 -1      1994 3.00440E-01
 -1      1995 2.82401E-01
 -1      1996 2.47314E-01
 -1      1997 4.05699E-01
 -1      1998 3.62813E-01
 -1      1999 3.31931E-01
 -1      2000 5.46283E-01
 -1      2001 4.90978E-01
 -1      2002 4.79584E-01
 -1      2003 7.21954E-01
 -1      2004 6.55125E-01
 -1      2005 6.73705E-01
 -1      2006 9.30281E-01
 -1      2007 8.56115E-01
 -1      2008 9.16708E-01
 -1      2009 1.16031E+00
 -1      2010 1.08577E+00
 -1      2011 1.20636E+00
 -1      2012 1.41379E+00
 -1      2013 1.32199E+00
 -1      2014 1.52353E+00
 -1      2015 1.63616E+00
 -1      2016 1.54907E+00
 -1      2017 1.82050E+00
 -1      2018 1.92546E+00
 -1      2019 1.74392E+00
 -1      2020 2.06355E+00
 -1      2021 2.15365E+00
 -1      2022 2.00814E+00
 -1      2023 2.25400E+00
 -1      2024 2.43805E+00
 -1      2025 2.22287E+00
 -1      2026 2.40591E+00
 -1      2027 2.48546E+00
 -1      2028 2.36177E+00
 -1      2029 2.39885E+00
 -1      2030 2.68780E+00
 -1      2031 2.56373E+00
 -1      2032 2.40084E+00
 -1      2033 3.30991E+00
 -1      2034 2.93718E+00
 -1      2035 2.72848E+00
 -1      2036 5.30741E+00
 -1      2037 4.25277E+00
 -1      2038 3.92072E+00
 -1      2039 5.92381E+00
 -1      2040 5.21735E+00
 -1      2041 4.77353E+00
 -1      2042 5.93824E+00
 -1      2043 5.55621E+00
 -1      2044 4.31587E+00
 -1      2045 4.07823E+00
 -1      2046 5.50544E+00
 -1      2047 3.51546E+00
 -1      2048 2.49847E+00
 -1      2049 3.76666E+00
 -1      2050 2.77108E+00
 -1      2051 2.24534E+00
 -1      2052 2.38252E+00
 -1      2053 2.34357E+00
 -1      2054 2.46967E+00
 -1      2055 2.26363E+00
 -1      2056 2.24591E+00
 -1      2057 2.47532E+00
 -1      2058 2.39903E+00
 -1      2059 2.19358E+00
 -1      2060 2.26932E+00
 -1      2061 2.42980E+00
 -1      2062 2.07742E+00
 -1      2063 1.93920E+00
 -1      2064 2.15779E+00
 -1      2065 1.92037E+00
 -1      2066 1.61554E+00
 -1      2067 1.81077E+00
 -1      2068 1.68041E+00
 -1      2069 1.29116E+00
 -1      2070 1.46649E+00
 -1      2071 1.40294E+00
 -1      2072 9.89866E-01
 -1      2073 1.14924E+00
 -1      2074 1.11198E+00
 -1      2075 7.34048E-01
 -1      2076 8.67683E-01
 -1      2077 8.47886E-01
 -1      2078 5.28101E-01
 -1      2079 6.34809E-01
 -1      2080 6.26464E-01
 -1      2081 3.79174E-01
 -1      2082 4.50302E-01
 -1      2083 4.49425E-01
 -1      2084 2.82910E-01
 -1      2085 3.31720E-01
 -1      2086 3.24172E-01
 -1      2087 2.04581E-01
 -1      2088 2.45956E-01
 -1      2089 2.39764E-01
 -1      2090 1.37202E-01
 -1      2091 1.71777E-01
 -1      2092 1.70006E-01
 -1      2093 8.24642E-02
 -1      2094 1.06975E-01
 -1      2095 1.06975E-01
 -1      2096 6.50078E-02
 -1      2097 4.74351E-02
 -1      2098 5.80035E-02
 -1      2099 8.03998E-02
 -1      2100 8.03998E-02
 -1      2101 8.41832E-02
 -1      2102 8.03998E-02
 -1      2103 7.99234E-02
 -1      2104 9.16639E-02
 -1      2105 1.06580E-01
 -1      2106 6.53062E-02
 -1      2107 5.49341E-02
 -1      2108 6.92858E-02
 -1      2109 7.88555E-02
 -1      2110 7.34686E-02
 -1      2111 8.49472E-02
 -1      2112 8.05398E-02
 -1      2113 8.00238E-02
 -1      2114 9.42778E-02
 -1      2115 8.05398E-02
 -1      2116 8.05398E-02
 -1      2117 9.54461E-02
 -1      2118 7.87719E-02
 -1      2119 7.98090E-02
 -1      2120 9.47153E-02
 -1      2121 6.98771E-02
 -1      2122 7.52901E-02
 -1      2123 9.05027E-02
 -1      2124 5.33074E-02
 -1      2125 6.14507E-02
 -1      2126 7.85945E-02
 -1      2127 3.53703E-02
 -1      2128 4.09800E-02
 -1      2129 5.78407E-02
 -1      2130 4.92614E-02
 -1      2131 3.88294E-02
 -1      2132 4.89724E-02
 -1      2133 6.06531E-02
 -1      2134 6.06531E-02
 -1      2135 6.38233E-02
 -1      2136 3.24930E+01
 -1      2137 3.24930E+01
 -1      2138 3.06016E+01
 -1      2139 3.06016E+01
 -1      2140 3.33692E+01
 -1      2141 3.06016E+01
 -1      2142 2.41719E+01
 -1      2143 2.61800E+01
 -1      2144 2.82522E+01
 -1      2145 2.65944E+01
 -1      2146 3.18961E+01
 -1      2147 1.03243E+00
 -1      2148 1.20589E+00
 -1      2149 9.86870E-01
 -1      2150 8.47902E-01
 -1      2151 1.11966E+01
 -1      2152 1.07182E+01
 -1      2153 1.18252E+01
 -1      2154 1.23120E+01
 -1      2155 1.17200E+01
 -1      2156 1.14283E+01
 -1      2157 1.03188E+01
 -1      2158 1.08011E+01
 -1      2159 1.22005E+01
 -1      2160 1.00878E+01
 -1      2161 2.54512E+01
 -1      2162 1.46276E+01
 -1      2163 2.94033E+01
 -1      2164 3.06572E+01
 -1      2165 2.77778E+01
 -1      2166 3.12582E+01
 -1      2167 3.30978E+01
 -1      2168 3.30978E+01
 -1      2169 3.27213E+01
 -1      2170 3.30978E+01
 -1      2171 2.89507E+01
 -1      2172 2.63292E+01
 -1      2173 2.71243E+01
 -1      2174 2.71243E+01
 -1      2175 1.24250E+01
 -1      2176 2.24565E+01
 -1      2177 9.53193E+00
 -1      2178 1.00267E+01
 -1      2179 1.05593E+01
 -1      2180 9.78259E+00
 -1      2181 7.60386E+00
 -1      2182 1.09680E+01
 -1      2183 1.15757E+01
 -1      2184 1.13833E+01
 -1      2185 1.15181E+01
 -1      2186 1.11859E+01
 -1      2187 1.10356E+01
 -1      2188 1.06399E+01
 -1      2189 9.45140E+00
 -1      2190 1.00077E+01
 -1      2191 1.17308E+01
 -1      2192 9.59907E+00
 -1      2193 2.54941E+01
 -1      2194 1.44131E+01
 -1      2195 2.90034E+01
 -1      2196 3.00718E+01
 -1      2197 2.48844E+01
 -1      2198 3.06910E+01
 -1      2199 2.44389E+01
 -1      2200 1.22053E+01
 -1      2201 1.98831E+01
 -1      2202 9.78584E+00
 -1      2203 1.02130E+01
 -1      2204 1.55781E+01
 -1      2205 2.91283E+00
 -1      2206 8.23700E+00
 -1      2207 2.10584E+00
 -1      2208 3.33692E+01
 -1      2209 3.42455E+01
 -1      2210 6.55795E-02
 -1      2211 2.61800E+01
 -1      2212 2.78366E+01
 -1      2213 1.81735E+01
 -1      2214 1.09135E+01
 -1      2215 9.11410E+00
 -1      2216 1.07916E+01
 -1      2217 8.08686E+00
 -1      2218 9.10326E+00
 -1      2219 9.75143E+00
 -1      2220 1.68175E+01
 -1      2221 2.33117E+01
 -1      2222 3.15303E+01
 -1      2223 3.79224E+01
 -1      2224 3.26024E+01
 -1      2225 2.54275E+01
 -1      2226 1.83666E+01
 -1      2227 1.17954E+01
 -1      2228 7.90142E+00
 -1      2229 1.03285E+01
 -1      2230 8.53752E+00
 -1      2231 9.68736E+00
 -1      2232 1.02847E+01
 -1      2233 1.10032E+01
 -1      2234 1.04374E+01
 -1      2235 8.08358E+00
 -1      2236 9.29696E+00
 -1      2237 1.09687E+00
 -1      2238 1.48588E+00
 -1      2239 5.57215E-01
 -1      2240 5.88533E-01
 -1      2241 6.00495E-01
 -1      2242 6.47172E-01
 -1      2243 4.96400E-01
 -1      2244 5.09819E-01
 -1      2245 5.08174E-01
 -1      2246 5.44221E-01
 -1      2247 5.22599E-01
 -1      2248 4.42979E-01
 -1      2249 5.91949E-01
 -1      2250 5.58840E-01
 -1      2251 4.70378E-01
 -1      2252 6.51246E-01
 -1      2253 6.03868E-01
 -1      2254 4.96916E-01
 -1      2255 7.18675E-01
 -1      2256 6.51246E-01
 -1      2257 5.08835E-01
 -1      2258 8.77225E-01
 -1      2259 7.64686E-01
 -1      2260 5.54846E-01
 -1      2261 3.27473E+01
 -1      2262 3.03979E+01
 -1      2263 9.00087E-01
 -1      2264 1.01916E+00
 -1      2265 9.77803E-01
 -1      2266 1.27059E+00
 -1      2267 1.03998E+00
 -1      2268 6.55463E+00
 -1      2269 5.62226E+00
 -1      2270 9.93231E-01
 -1      2271 8.13423E-01
 -1      2272 7.55771E-01
 -1      2273 7.56613E-01
 -1      2274 6.31353E-01
 -1      2275 6.52212E-01
 -1      2276 5.74574E-01
 -1      2277 5.19936E-01
 -1      2278 5.38623E-01
 -1      2279 4.71430E-01
 -1      2280 4.24821E-01
 -1      2281 4.33338E-01
 -1      2282 4.01204E-01
 -1      2283 3.60494E-01
 -1      2284 3.61215E-01
 -1      2285 3.35562E-01
 -1      2286 3.00926E-01
 -1      2287 3.12666E-01
 -1      2288 2.76716E-01
 -1      2289 2.47822E-01
 -1      2290 2.63525E-01
 -1      2291 2.25170E-01
 -1      2292 2.01239E-01
 -1      2293 2.16663E-01
 -1      2294 1.80227E-01
 -1      2295 1.60142E-01
 -1      2296 1.72999E-01
 -1      2297 1.44141E-01
 -1      2298 1.44153E-01
 -1      2299 1.35986E-01
 -1      2300 1.50326E-01
 -1      2301 1.58078E-01
 -1      2302 1.26159E-01
 -1      2303 1.65020E-01
 -1      2304 1.73880E-01
 -1      2305 1.39274E-01
 -1      2306 1.94649E-01
 -1      2307 2.04022E-01
 -1      2308 1.66985E-01
 -1      2309 2.28105E-01
 -1      2310 2.49989E-01
 -1      2311 2.11837E-01
 -1      2312 2.72295E-01
 -1      2313 2.95808E-01
 -1      2314 2.58227E-01
 -1      2315 3.12310E-01
 -1      2316 3.36282E-01
 -1      2317 2.97036E-01
 -1      2318 3.51145E-01
 -1      2319 3.66329E-01
 -1      2320 3.28400E-01
 -1      2321 3.74184E-01
 -1      2322 3.68444E-01
 -1      2323 3.51118E-01
 -1      2324 3.72011E-01
 -1      2325 3.32945E-01
 -1      2326 3.62540E-01
 -1      2327 3.75333E-01
 -1      2328 3.60590E-01
 -1      2329 4.08495E-01
 -1      2330 3.87771E-01
 -1      2331 4.79146E-01
 -1      2332 4.78065E-01
 -1      2333 5.84573E-01
 -1      2334 7.46499E-01
 -1      2335 6.10673E-01
 -1      2336 8.45796E-01
 -1      2337 1.01437E+00
 -1      2338 8.15397E-01
 -1      2339 1.12606E+00
 -1      2340 1.27160E+00
 -1      2341 1.02638E+00
 -1      2342 1.32255E+00
 -1      2343 1.45818E+00
 -1      2344 1.18902E+00
 -1      2345 1.52342E+00
 -1      2346 1.54879E+00
 -1      2347 1.30522E+00
 -1      2348 1.47212E+00
 -1      2349 1.45829E+00
 -1      2350 1.29379E+00
 -1      2351 1.52089E+00
 -1      2352 1.52833E+00
 -1      2353 1.27973E+00
 -1      2354 1.50689E+00
 -1      2355 1.40056E+00
 -1      2356 1.32089E+00
 -1      2357 1.33478E+00
 -1      2358 1.18013E+00
 -1      2359 1.23367E+00
 -1      2360 1.09433E+00
 -1      2361 9.39021E-01
 -1      2362 1.08209E+00
 -1      2363 8.31632E-01
 -1      2364 6.58322E-01
 -1      2365 8.88905E-01
 -1      2366 5.39657E-01
 -1      2367 4.19137E-01
 -1      2368 6.62851E-01
 -1      2369 3.82461E-01
 -1      2370 3.78870E-01
 -1      2371 5.07510E-01
 -1      2372 3.39157E-01
 -1      2373 3.73642E-01
 -1      2374 4.31122E-01
 -1      2375 3.54467E-01
 -1      2376 3.66928E-01
 -1      2377 3.72234E-01
 -1      2378 3.63732E-01
 -1      2379 3.51594E-01
 -1      2380 3.49863E-01
 -1      2381 3.35596E-01
 -1      2382 3.11433E-01
 -1      2383 3.30669E-01
 -1      2384 2.95717E-01
 -1      2385 2.73963E-01
 -1      2386 2.98955E-01
 -1      2387 2.54993E-01
 -1      2388 2.35222E-01
 -1      2389 2.64268E-01
 -1      2390 2.14189E-01
 -1      2391 1.94578E-01
 -1      2392 2.24266E-01
 -1      2393 1.72591E-01
 -1      2394 1.56974E-01
 -1      2395 1.81247E-01
 -1      2396 1.36460E-01
 -1      2397 1.18505E-01
 -1      2398 1.38745E-01
 -1      2399 5.54345E-01
 -1      2400 6.33760E-01
 -1      2401 4.55889E-01
 -1      2402 5.05117E-01
 -1      2403 5.05117E-01
 -1      2404 3.92559E-01
 -1      2405 4.24224E-01
 -1      2406 4.24224E-01
 -1      2407 3.32019E-01
 -1      2408 3.62289E-01
 -1      2409 3.62289E-01
 -1      2410 2.83210E-01
 -1      2411 3.04683E-01
 -1      2412 3.04683E-01
 -1      2413 2.43276E-01
 -1      2414 2.59288E-01
 -1      2415 2.53424E-01
 -1      2416 2.11807E-01
 -1      2417 2.22504E-01
 -1      2418 2.08729E-01
 -1      2419 1.90163E-01
 -1      2420 1.95444E-01
 -1      2421 1.71594E-01
 -1      2422 2.03487E-01
 -1      2423 2.03498E-01
 -1      2424 1.68567E-01
 -1      2425 2.44702E-01
 -1      2426 2.22459E-01
 -1      2427 2.00875E-01
 -1      2428 3.64612E-01
 -1      2429 3.02239E-01
 -1      2430 2.77383E-01
 -1      2431 5.23036E-01
 -1      2432 4.37757E-01
 -1      2433 4.08065E-01
 -1      2434 7.24801E-01
 -1      2435 6.15958E-01
 -1      2436 5.74132E-01
 -1      2437 9.75430E-01
 -1      2438 8.41269E-01
 -1      2439 7.83523E-01
 -1      2440 1.27288E+00
 -1      2441 1.11739E+00
 -1      2442 1.04195E+00
 -1      2443 1.59956E+00
 -1      2444 1.43787E+00
 -1      2445 1.34890E+00
 -1      2446 1.91189E+00
 -1      2447 1.77661E+00
 -1      2448 1.69095E+00
 -1      2449 2.18508E+00
 -1      2450 2.07732E+00
 -1      2451 2.03342E+00
 -1      2452 2.38380E+00
 -1      2453 2.30112E+00
 -1      2454 2.31488E+00
 -1      2455 2.78451E+00
 -1      2456 2.71529E+00
 -1      2457 2.76241E+00
 -1      2458 3.07208E+00
 -1      2459 3.14835E+00
 -1      2460 3.45774E+00
 -1      2461 3.51520E+00
 -1      2462 3.43693E+00
 -1      2463 4.18643E+00
 -1      2464 3.09258E+00
 -1      2465 2.84321E+00
 -1      2466 3.87930E+00
 -1      2467 4.86359E+00
 -1      2468 3.92072E+00
 -1      2469 4.03545E+00
 -1      2470 5.08874E+00
 -1      2471 5.17880E+00
 -1      2472 4.33251E+00
 -1      2473 4.70012E+00
 -1      2474 3.37266E+00
 -1      2475 3.80546E+00
 -1      2476 2.89230E+00
 -1      2477 3.20386E+00
 -1      2478 3.49387E+00
 -1      2479 3.29257E+00
 -1      2480 3.40852E+00
 -1      2481 3.84130E+00
 -1      2482 2.89993E+00
 -1      2483 2.88163E+00
 -1      2484 3.94659E+00
 -1      2485 2.47890E+00
 -1      2486 2.54953E+00
 -1      2487 3.18525E+00
 -1      2488 2.17963E+00
 -1      2489 2.22516E+00
 -1      2490 2.58111E+00
 -1      2491 1.94545E+00
 -1      2492 2.05698E+00
 -1      2493 2.20471E+00
 -1      2494 1.65109E+00
 -1      2495 1.77952E+00
 -1      2496 1.91613E+00
 -1      2497 1.32910E+00
 -1      2498 1.47814E+00
 -1      2499 1.57725E+00
 -1      2500 1.02864E+00
 -1      2501 1.17055E+00
 -1      2502 1.24576E+00
 -1      2503 7.71797E-01
 -1      2504 8.93980E-01
 -1      2505 9.52552E-01
 -1      2506 5.63470E-01
 -1      2507 6.62710E-01
 -1      2508 7.08804E-01
 -1      2509 4.00079E-01
 -1      2510 4.77878E-01
 -1      2511 5.14125E-01
 -1      2512 2.85263E-01
 -1      2513 3.32717E-01
 -1      2514 3.61170E-01
 -1      2515 2.07199E-01
 -1      2516 2.44153E-01
 -1      2517 2.52698E-01
 -1      2518 1.34827E-01
 -1      2519 1.67631E-01
 -1      2520 1.72020E-01
 -1      2521 1.21891E-01
 -1      2522 1.09307E-01
 -1      2523 1.01144E-01
 -1      2524 1.13791E-01
 -1      2525 1.12623E-01
 -1      2526 1.28820E-01
 -1      2527 9.58844E-02
 -1      2528 1.18281E-01
 -1      2529 1.09560E-01
 -1      2530 1.02061E-01
 -1      2531 1.36158E-01
 -1      2532 1.33920E-01
 -1      2533 1.13791E-01
 -1      2534 1.13791E-01
 -1      2535 1.32136E-01
 -1      2536 1.08687E-01
 -1      2537 1.09418E-01
 -1      2538 1.27763E-01
 -1      2539 1.05206E-01
 -1      2540 1.08687E-01
 -1      2541 1.23390E-01
 -1      2542 8.93400E-02
 -1      2543 9.77664E-02
 -1      2544 1.15951E-01
 -1      2545 6.37187E-02
 -1      2546 7.60461E-02
 -1      2547 9.52180E-02
 -1      2548 6.85294E-02
 -1      2549 6.50703E-02
 -1      2550 8.32757E-02
 -1      2551 7.99212E-02
 -1      2552 6.85294E-02
 -1      2553 8.46273E-02
 -1      2554 3.42455E+01
 -1      2555 3.42455E+01
 -1      2556 3.27473E+01
 -1      2557 1.70104E+01
 -1      2558 2.33233E+01
 -1      2559 7.13175E-01
 -1      2560 8.06631E-01
 -1      2561 6.33760E-01
 -1      2562 7.77751E-02
 -1      2563 2.78366E+01
 -1      2564 2.61265E+01
 -1      2565 2.86878E+01
 -1      2566 1.67582E+00
 -1      2567 1.30865E+00
 -1      2568 8.40578E-01
 -1      2569 9.71277E-01
 -1      2570 1.69831E+01
 -1      2571 1.24054E+01
 -1      2572 2.80814E+01
 -1      2573 2.89577E+01
 -1      2574 7.09602E+00
 -1      2575 9.49426E+00
 -1      2576 5.20876E-01
 -1      2577 5.42798E-01
 -1      2578 4.70021E-01
 -1      2579 4.42901E-01
 -1      2580 9.61046E+00
 -1      2581 1.00074E+01
 -1      2582 9.39387E+00
 -1      2583 8.84376E+00
 -1      2584 8.85411E+00
 -1      2585 7.73873E+00
 -1      2586 7.85234E+00
 -1      2587 8.77122E+00
 -1      2588 6.20133E+00
 -1      2589 6.43229E+00
 -1      2590 1.69618E+01
 -1      2591 1.17558E+01
 -1      2592 2.21541E+01
 -1      2593 2.02991E+01
 -1      2594 1.36883E+01
 -1      2595 3.26024E+01
 -1      2596 2.72824E+01
 -1      2597 3.79224E+01
 -1      2598 3.79224E+01
 -1      2599 2.51381E+01
 -1      2600 3.15303E+01
 -1      2601 1.84721E+01
 -1      2602 2.02985E+01
 -1      2603 1.12609E+01
 -1      2604 1.59287E+01
 -1      2605 1.29154E+01
 -1      2606 5.86073E+00
 -1      2607 5.61006E+00
 -1      2608 5.35289E+00
 -1      2609 5.71262E+00
 -1      2610 5.56495E+00
 -1      2611 9.09995E+00
 -1      2612 9.44757E+00
 -1      2613 6.81414E+00
 -1      2614 8.80645E+00
 -1      2615 6.92552E+00
 -1      2616 8.10372E+00
 -1      2617 6.91137E+00
 -1      2618 1.05963E+01
 -1      2619 7.91398E+00
 -1      2620 2.04104E+01
 -1      2621 1.87228E+01
 -1      2622 1.62254E+00
 -1      2623 1.76588E+00
 -1      2624 1.32558E+00
 -1      2625 1.19218E+00
 -1      2626 1.06392E+01
 -1      2627 1.49280E+01
 -1      2628 7.46139E+00
 -1      2629 5.08363E-01
 -1      2630 6.47172E-01
 -1      2631 7.09093E-01
 -1      2632 1.89118E+01
 -1      2633 1.24122E+00
 -1      2634 8.15636E+00
 -1      2635 2.04104E+01
 -1      2636 1.29547E+01
 -1      2637 5.13176E+00
 -1      2638 4.55456E+00
 -1      2639 5.84655E+00
 -1      2640 6.16383E+00
 -1      2641 3.64520E+00
 -1      2642 4.18972E+00
 -1      2643 1.19516E-01
 -1      2644 1.19516E-01
 -1      2645 8.60545E+00
 -1      2646 2.89577E+01
 -1      2647 1.20714E+01
 -1      2648 2.02985E+01
 -1      2649 8.06631E-01
 -1      2650 6.86006E-01
 -1      2651 7.63053E-01
 -1      2652 6.70413E-01
 -1      2653 4.85276E-01
 -1      2654 3.15303E+01
 -1      2655 9.64851E-01
 -1      2656 2.21541E+01
 -1      2657 8.05969E+00
 -1      2658 6.68596E+00
 -1      2659 6.45363E+00
 -1      2660 4.45984E+00
 -1      2661 6.14006E+00
 -1      2662 4.03482E+00
 -1      2663 5.73491E+00
 -1      2664 5.51615E+00
 -1      2665 1.01257E+01
 -1      2666 7.29348E+00
 -1      2667 8.72082E+00
 -1      2668 5.12399E+00
 -1      2669 7.85390E+00
 -1      2670 9.40586E+00
 -1      2671 7.77545E+00
 -1      2672 3.26024E+01
 -1      2673 7.95009E-02
 -1      2674 7.69408E-02
 -1      2675 8.16469E-02
 -1      2676 9.87225E-02
 -1      2677 1.31217E-01
 -1      2678 9.84489E-02
 -1      2679 4.21327E-01
 -1      2680 4.06708E-01
 -1      2681 3.98967E-01
 -1      2682 3.86187E-01
 -1      2683 3.49916E-01
 -1      2684 4.34886E-01
 -1      2685 4.34886E-01
 -1      2686 4.68903E-01
 -1      2687 4.22892E-01
 -1      2688 3.48943E-01
 -1      2689 6.12115E-01
 -1      2690 5.74056E-01
 -1      2691 4.03891E-01
 -1      2692 2.07622E+01
 -1      2693 1.56338E+01
 -1      2694 8.28187E-01
 -1      2695 2.87657E+00
 -1      2696 4.23714E+00
 -1      2697 1.18052E+01
 -1      2698 1.00656E+01
 -1      2699 5.54317E-01
 -1      2700 4.97508E-01
 -1      2701 4.90973E-01
 -1      2702 4.34194E-01
 -1      2703 3.93078E-01
 -1      2704 4.12432E-01
 -1      2705 3.63926E-01
 -1      2706 3.64781E-01
 -1      2707 3.37084E-01
 -1      2708 3.13468E-01
 -1      2709 3.16178E-01
 -1      2710 2.88194E-01
 -1      2711 2.63262E-01
 -1      2712 2.64063E-01
 -1      2713 2.46695E-01
 -1      2714 2.22485E-01
 -1      2715 2.22222E-01
 -1      2716 2.04142E-01
 -1      2717 1.81489E-01
 -1      2718 1.87312E-01
 -1      2719 1.62422E-01
 -1      2720 1.41411E-01
 -1      2721 1.49901E-01
 -1      2722 1.22040E-01
 -1      2723 1.06039E-01
 -1      2724 1.11464E-01
 -1      2725 1.00537E-01
 -1      2726 1.06710E-01
 -1      2727 8.65901E-02
 -1      2728 1.16567E-01
 -1      2729 1.23509E-01
 -1      2730 9.09446E-02
 -1      2731 1.49736E-01
 -1      2732 1.70505E-01
 -1      2733 1.27029E-01
 -1      2734 1.97424E-01
 -1      2735 2.21507E-01
 -1      2736 1.80175E-01
 -1      2737 2.48256E-01
 -1      2738 2.70563E-01
 -1      2739 2.33844E-01
 -1      2740 2.94290E-01
 -1      2741 3.10792E-01
 -1      2742 2.84320E-01
 -1      2743 3.36592E-01
 -1      2744 3.51454E-01
 -1      2745 3.33846E-01
 -1      2746 3.82842E-01
 -1      2747 3.90698E-01
 -1      2748 3.91034E-01
 -1      2749 4.15335E-01
 -1      2750 4.18901E-01
 -1      2751 4.47059E-01
 -1      2752 4.51676E-01
 -1      2753 4.94065E-01
 -1      2754 5.04472E-01
 -1      2755 5.77390E-01
 -1      2756 6.04571E-01
 -1      2757 6.20571E-01
 -1      2758 6.69158E-01
 -1      2759 7.74585E-01
 -1      2760 7.68483E-01
 -1      2761 8.55465E-01
 -1      2762 9.54762E-01
 -1      2763 9.13950E-01
 -1      2764 1.05521E+00
 -1      2765 1.16690E+00
 -1      2766 1.09528E+00
 -1      2767 1.19251E+00
 -1      2768 1.24347E+00
 -1      2769 1.22135E+00
 -1      2770 1.42606E+00
 -1      2771 1.49130E+00
 -1      2772 1.42955E+00
 -1      2773 1.52719E+00
 -1      2774 1.45052E+00
 -1      2775 1.64803E+00
 -1      2776 1.43152E+00
 -1      2777 1.49412E+00
 -1      2778 1.66491E+00
 -1      2779 1.54295E+00
 -1      2780 1.52150E+00
 -1      2781 1.69473E+00
 -1      2782 1.31025E+00
 -1      2783 1.24446E+00
 -1      2784 1.53230E+00
 -1      2785 1.19201E+00
 -1      2786 1.10621E+00
 -1      2787 1.26859E+00
 -1      2788 1.02901E+00
 -1      2789 9.21620E-01
 -1      2790 1.13893E+00
 -1      2791 8.08320E-01
 -1      2792 6.89655E-01
 -1      2793 9.48425E-01
 -1      2794 6.44468E-01
 -1      2795 6.07793E-01
 -1      2796 7.89937E-01
 -1      2797 5.28315E-01
 -1      2798 4.88602E-01
 -1      2799 6.65273E-01
 -1      2800 4.34590E-01
 -1      2801 4.15415E-01
 -1      2802 5.31783E-01
 -1      2803 3.94681E-01
 -1      2804 3.91485E-01
 -1      2805 4.57037E-01
 -1      2806 3.61253E-01
 -1      2807 3.45255E-01
 -1      2808 4.06071E-01
 -1      2809 3.14672E-01
 -1      2810 2.98955E-01
 -1      2811 3.45255E-01
 -1      2812 2.78368E-01
 -1      2813 2.59398E-01
 -1      2814 2.94084E-01
 -1      2815 2.35739E-01
 -1      2816 2.14706E-01
 -1      2817 2.49838E-01
 -1      2818 1.91041E-01
 -1      2819 1.69054E-01
 -1      2820 2.02514E-01
 -1      2821 1.42777E-01
 -1      2822 1.22263E-01
 -1      2823 1.52571E-01
 -1      2824 3.60259E-01
 -1      2825 3.91924E-01
 -1      2826 1.79302E-01
 -1      2827 1.80538E-01
 -1      2828 2.20106E-01
 -1      2829 4.27747E-01
 -1      2830 4.76975E-01
 -1      2831 3.63782E-01
 -1      2832 2.60382E-01
 -1      2833 2.87719E-01
 -1      2834 2.16075E-01
 -1      2835 2.39998E-01
 -1      2836 2.23034E-01
 -1      2837 1.74684E-01
 -1      2838 1.95457E-01
 -1      2839 1.82031E-01
 -1      2840 1.37307E-01
 -1      2841 1.53670E-01
 -1      2842 1.40398E-01
 -1      2843 1.49573E-01
 -1      2844 1.36238E-01
 -1      2845 1.18313E-01
 -1      2846 1.87641E-01
 -1      2847 1.68670E-01
 -1      2848 1.36340E-01
 -1      2849 2.90931E-01
 -1      2850 2.33394E-01
 -1      2851 2.01189E-01
 -1      2852 4.20922E-01
 -1      2853 3.47777E-01
 -1      2854 3.03789E-01
 -1      2855 5.85395E-01
 -1      2856 4.92473E-01
 -1      2857 4.32186E-01
 -1      2858 7.92720E-01
 -1      2859 6.76251E-01
 -1      2860 5.94592E-01
 -1      2861 1.05095E+00
 -1      2862 9.08994E-01
 -1      2863 8.01722E-01
 -1      2864 1.36622E+00
 -1      2865 1.20122E+00
 -1      2866 1.06827E+00
 -1      2867 1.74182E+00
 -1      2868 1.56477E+00
 -1      2869 1.41709E+00
 -1      2870 2.16832E+00
 -1      2871 2.00289E+00
 -1      2872 1.87672E+00
 -1      2873 2.63047E+00
 -1      2874 2.51443E+00
 -1      2875 2.48390E+00
 -1      2876 3.40468E+00
 -1      2877 3.07319E+00
 -1      2878 3.27274E+00
 -1      2879 4.35095E+00
 -1      2880 3.98711E+00
 -1      2881 4.29789E+00
 -1      2882 5.63181E+00
 -1      2883 5.26695E+00
 -1      2884 5.79632E+00
 -1      2885 4.41857E+00
 -1      2886 3.59043E+00
 -1      2887 5.17880E+00
 -1      2888 5.10539E+00
 -1      2889 3.52493E+00
 -1      2890 3.87533E+00
 -1      2891 2.82720E+00
 -1      2892 3.08094E+00
 -1      2893 3.77102E+00
 -1      2894 2.32488E+00
 -1      2895 2.44754E+00
 -1      2896 2.94737E+00
 -1      2897 1.85575E+00
 -1      2898 2.02168E+00
 -1      2899 2.26450E+00
 -1      2900 1.44761E+00
 -1      2901 1.62056E+00
 -1      2902 1.72611E+00
 -1      2903 1.10784E+00
 -1      2904 1.26639E+00
 -1      2905 1.30969E+00
 -1      2906 8.33277E-01
 -1      2907 9.67937E-01
 -1      2908 9.88568E-01
 -1      2909 6.15616E-01
 -1      2910 7.24703E-01
 -1      2911 7.40089E-01
 -1      2912 4.45689E-01
 -1      2913 5.31281E-01
 -1      2914 5.47180E-01
 -1      2915 3.10860E-01
 -1      2916 3.78223E-01
 -1      2917 3.95379E-01
 -1      2918 2.36270E-01
 -1      2919 2.77380E-01
 -1      2920 2.94432E-01
 -1      2921 2.44787E-01
 -1      2922 1.44512E-01
 -1      2923 1.48885E-01
 -1      2924 1.01429E-01
 -1      2925 8.16469E-02
 -1      2926 1.05461E-01
 -1      2927 1.55723E-01
 -1      2928 1.52407E-01
 -1      2929 1.43302E-01
 -1      2930 1.43302E-01
 -1      2931 1.64424E-01
 -1      2932 1.55723E-01
 -1      2933 1.55723E-01
 -1      2934 1.79310E-01
 -1      2935 1.72472E-01
 -1      2936 5.11801E-01
 -1      2937 5.91216E-01
 -1      2938 4.34431E-01
 -1      2939 1.30517E-01
 -1      2940 1.37956E-01
 -1      2941 1.57868E-01
 -1      2942 1.03448E-01
 -1      2943 1.16742E-01
 -1      2944 1.38747E-01
 -1      2945 9.46749E-02
 -1      2946 9.33233E-02
 -1      2947 1.14847E-01
 -1      2948 2.47610E+01
 -1      2949 2.32628E+01
 -1      2950 3.78703E+00
 -1      2951 5.27298E+00
 -1      2952 2.40667E+01
 -1      2953 2.15054E+01
 -1      2954 1.60804E+01
 -1      2955 9.56306E+00
 -1      2956 1.16454E+01
 -1      2957 2.03158E+01
 -1      2958 2.56036E+01
 -1      2959 6.59264E+00
 -1      2960 6.85214E+00
 -1      2961 1.99329E+01
 -1      2962 2.63251E+01
 -1      2963 4.83601E+00
 -1      2964 5.24695E+00
 -1      2965 5.17569E+00
 -1      2966 6.71714E+00
 -1      2967 8.48375E+00
 -1      2968 3.07116E-01
 -1      2969 3.37386E-01
 -1      2970 3.05086E-01
 -1      2971 2.62816E-01
 -1      2972 5.96631E-01
 -1      2973 5.49881E-01
 -1      2974 3.95177E-01
 -1      2975 3.68167E-01
 -1      2976 1.31061E+01
 -1      2977 1.78641E+01
 -1      2978 4.34886E-01
 -1      2979 4.22967E-01
 -1      2980 3.59297E-01
 -1      2981 3.60937E-01
 -1      2982 6.80402E+00
 -1      2983 6.75031E+00
 -1      2984 1.29691E+01
 -1      2985 9.63175E+00
 -1      2986 8.46273E-02
 -1      2987 6.16864E-01
 -1      2988 7.10320E-01
 -1      2989 4.94905E-01
 -1      2990 9.79641E+00
 -1      2991 1.23398E+01
 -1      2992 4.22217E-01
 -1      2993 4.34180E-01
 -1      2994 8.95756E+00
 -1      2995 7.14841E+00
 -1      2996 1.91830E+01
 -1      2997 1.34669E+01
 -1      2998 2.64092E+01
 -1      2999 2.10893E+01
 -1      3000 5.30396E+00
 -1      3001 6.30020E+00
 -1      3002 6.45496E+00
 -1      3003 8.28769E+00
 -1      3004 1.45546E+01
 -1      3005 1.93943E+01
 -1      3006 6.66573E+00
 -1      3007 5.51244E+00
 -1      3008 8.00082E-01
 -1      3009 5.72751E-01
 -1      3010 4.40797E-01
 -1      3011 7.22366E-01
 -1      3012 4.34180E-01
 -1      3013 4.34180E-01
 -1      3014 3.59997E-01
 -1      3015 3.41801E-01
 -1      3016 3.85813E-01
 -1      3017 3.98515E-01
 -1      3018 1.45101E+01
 -1      3019 2.95747E+00
 -1      3020 2.64005E+00
 -1      3021 3.40867E+00
 -1      3022 5.54276E+00
 -1      3023 6.00676E+00
 -1      3024 4.25661E+00
 -1      3025 5.55846E+00
 -1      3026 7.80810E+00
 -1      3027 2.03966E-01
 -1      3028 1.77064E-01
 -1      3029 1.85479E-01
 -1      3030 1.14356E+01
 -1      3031 5.32599E-01
 -1      3032 4.26242E+00
 -1      3033 3.87930E+00
 -1      3034 4.55129E+00
 -1      3035 6.02378E+00
 -1      3036 5.63181E+00
 -1      3037 6.21511E+00
 -1      3038 5.89990E+00
 -1      3039 7.05435E+00
 -1      3040 7.90811E+00
 -1      3041 4.82435E+00
 -1      3042 4.99315E+00
 -1      3043 4.95568E+00
 -1      3044 5.82098E+00
 -1      3045 4.47984E+00
 -1      3046 1.85479E-01
 -1      3047 3.33486E+00
 -1      3048 3.25494E+00
 -1      3049 3.92776E+00
 -1      3050 3.62597E+00
 -1      3051 1.05977E+01
 -1      3052 1.61192E+01
 -1      3053 8.46273E-02
 -1      3054 5.15128E+00
 -1      3055 1.48119E+01
 -1      3056 1.45618E+01
 -1      3057 7.86166E+00
 -1      3058 1.80563E+01
 -1      3059 1.28512E+01
 -1      3060 1.23125E+01
 -1      3061 8.39638E-02
 -1      3062 8.39638E-02
 -1      3063 9.40114E-02
 -1      3064 1.04797E-01
 -1      3065 5.21891E+00
 -1      3066 4.05984E-01
 -1      3067 4.20401E-01
 -1      3068 3.58181E-01
 -1      3069 3.48896E-01
 -1      3070 6.36133E+00
 -1      3071 5.47191E+00
 -1      3072 1.15773E+01
 -1      3073 4.98538E+00
 -1      3074 3.80127E+00
 -1      3075 6.35202E+00
 -1      3076 5.24843E+00
 -1      3077 4.74461E+00
 -1      3078 1.05777E+01
 -1      3079 2.88693E-01
 -1      3080 3.00687E-01
 -1      3081 1.90903E+01
 -1      3082 1.25701E+01
 -1      3083 3.20413E-01
 -1      3084 2.98651E-01
 -1      3085 2.93428E-01
 -1      3086 2.66587E-01
 -1      3087 2.49060E-01
 -1      3088 2.53041E-01
 -1      3089 2.27767E-01
 -1      3090 2.30291E-01
 -1      3091 2.09815E-01
 -1      3092 1.93247E-01
 -1      3093 1.98792E-01
 -1      3094 1.79009E-01
 -1      3095 1.60665E-01
 -1      3096 1.66601E-01
 -1      3097 1.44570E-01
 -1      3098 1.25503E-01
 -1      3099 1.36267E-01
 -1      3100 1.06924E-01
 -1      3101 8.75529E-02
 -1      3102 1.01592E-01
 -1      3103 7.65776E-02
 -1      3104 7.10752E-02
 -1      3105 7.20380E-02
 -1      3106 7.81743E-02
 -1      3107 8.80311E-02
 -1      3108 6.81618E-02
 -1      3109 1.08964E-01
 -1      3110 1.35192E-01
 -1      3111 9.61941E-02
 -1      3112 1.62129E-01
 -1      3113 1.89048E-01
 -1      3114 1.44065E-01
 -1      3115 2.20959E-01
 -1      3116 2.47708E-01
 -1      3117 2.02912E-01
 -1      3118 2.81029E-01
 -1      3119 3.04756E-01
 -1      3120 2.68144E-01
 -1      3121 3.37946E-01
 -1      3122 3.63745E-01
 -1      3123 3.34655E-01
 -1      3124 4.01811E-01
 -1      3125 4.33199E-01
 -1      3126 4.05911E-01
 -1      3127 4.88606E-01
 -1      3128 5.13244E-01
 -1      3129 4.99384E-01
 -1      3130 5.69979E-01
 -1      3131 6.02754E-01
 -1      3132 6.11526E-01
 -1      3133 6.47036E-01
 -1      3134 7.30361E-01
 -1      3135 7.12543E-01
 -1      3136 8.43599E-01
 -1      3137 9.08186E-01
 -1      3138 8.70063E-01
 -1      3139 1.10658E+00
 -1      3140 1.18746E+00
 -1      3141 1.18170E+00
 -1      3142 1.14946E+00
 -1      3143 1.24991E+00
 -1      3144 1.34209E+00
 -1      3145 1.38992E+00
 -1      3146 1.41553E+00
 -1      3147 1.44410E+00
 -1      3148 1.43592E+00
 -1      3149 1.61851E+00
 -1      3150 1.60449E+00
 -1      3151 1.77144E+00
 -1      3152 1.80733E+00
 -1      3153 1.77781E+00
 -1      3154 2.26695E+00
 -1      3155 2.24794E+00
 -1      3156 2.39036E+00
 -1      3157 2.45928E+00
 -1      3158 2.50811E+00
 -1      3159 3.06132E+00
 -1      3160 2.56171E+00
 -1      3161 2.35045E+00
 -1      3162 3.32626E+00
 -1      3163 1.95527E+00
 -1      3164 1.90282E+00
 -1      3165 2.98469E+00
 -1      3166 1.30307E+00
 -1      3167 1.22586E+00
 -1      3168 1.98975E+00
 -1      3169 1.17940E+00
 -1      3170 1.06610E+00
 -1      3171 1.34354E+00
 -1      3172 9.69626E-01
 -1      3173 9.24440E-01
 -1      3174 1.20061E+00
 -1      3175 7.84866E-01
 -1      3176 7.05388E-01
 -1      3177 9.64555E-01
 -1      3178 6.40909E-01
 -1      3179 5.86897E-01
 -1      3180 7.60502E-01
 -1      3181 5.32098E-01
 -1      3182 5.11364E-01
 -1      3183 6.41224E-01
 -1      3184 4.54014E-01
 -1      3185 4.23781E-01
 -1      3186 5.29075E-01
 -1      3187 3.80987E-01
 -1      3188 3.50404E-01
 -1      3189 4.28930E-01
 -1      3190 3.17160E-01
 -1      3191 2.96572E-01
 -1      3192 3.52892E-01
 -1      3193 2.64639E-01
 -1      3194 2.40980E-01
 -1      3195 2.87715E-01
 -1      3196 2.11694E-01
 -1      3197 1.88029E-01
 -1      3198 2.26496E-01
 -1      3199 1.53532E-01
 -1      3200 1.27255E-01
 -1      3201 1.05758E-01
 -1      3202 1.62713E-01
 -1      3203 3.06124E-01
 -1      3204 3.41946E-01
 -1      3205 1.47514E-01
 -1      3206 1.68133E-01
 -1      3207 1.86733E-01
 -1      3208 2.07117E-01
 -1      3209 1.52216E-01
 -1      3210 9.18814E-02
 -1      3211 9.29511E-02
 -1      3212 1.27197E-01
 -1      3213 1.08101E-01
 -1      3214 8.27383E-02
 -1      3215 2.10622E-01
 -1      3216 1.64869E-01
 -1      3217 1.36630E-01
 -1      3218 3.19612E-01
 -1      3219 2.62765E-01
 -1      3220 2.26445E-01
 -1      3221 4.59666E-01
 -1      3222 3.88115E-01
 -1      3223 3.47092E-01
 -1      3224 6.40163E-01
 -1      3225 5.49307E-01
 -1      3226 5.05237E-01
 -1      3227 8.74051E-01
 -1      3228 7.57777E-01
 -1      3229 7.12492E-01
 -1      3230 1.17818E+00
 -1      3231 1.02791E+00
 -1      3232 9.83962E-01
 -1      3233 1.57519E+00
 -1      3234 1.37664E+00
 -1      3235 1.33628E+00
 -1      3236 2.10085E+00
 -1      3237 1.83978E+00
 -1      3238 1.79932E+00
 -1      3239 2.81467E+00
 -1      3240 2.46856E+00
 -1      3241 2.43162E+00
 -1      3242 4.51659E+00
 -1      3243 4.07387E+00
 -1      3244 4.05852E+00
 -1      3245 5.48312E+00
 -1      3246 4.90069E+00
 -1      3247 5.70182E+00
 -1      3248 2.48769E+00
 -1      3249 2.79090E+00
 -1      3250 3.68401E+00
 -1      3251 4.06367E+00
 -1      3252 3.90720E+00
 -1      3253 6.22749E+00
 -1      3254 7.54014E+00
 -1      3255 5.53081E+00
 -1      3256 5.97479E+00
 -1      3257 6.26745E+00
 -1      3258 1.69159E+00
 -1      3259 1.92679E+00
 -1      3260 2.45318E+00
 -1      3261 1.25900E+00
 -1      3262 1.44022E+00
 -1      3263 1.64090E+00
 -1      3264 9.36320E-01
 -1      3265 1.07623E+00
 -1      3266 1.20676E+00
 -1      3267 6.87288E-01
 -1      3268 7.95861E-01
 -1      3269 8.83520E-01
 -1      3270 4.96115E-01
 -1      3271 5.80450E-01
 -1      3272 6.36223E-01
 -1      3273 3.49115E-01
 -1      3274 4.16582E-01
 -1      3275 4.49852E-01
 -1      3276 4.40551E+00
 -1      3277 4.23933E+00
 -1      3278 1.77955E-01
 -1      3279 1.83302E-01
 -1      3280 3.22702E-01
 -1      3281 3.14961E-01
 -1      3282 3.53439E-01
 -1      3283 3.88265E-01
 -1      3284 2.95781E-01
 -1      3285 1.83686E-01
 -1      3286 1.84895E-01
 -1      3287 2.03773E-01
 -1      3288 1.26015E-01
 -1      3289 1.36140E-01
 -1      3290 6.90151E+00
 -1      3291 7.63670E+00
 -1      3292 4.04359E-01
 -1      3293 3.81273E-01
 -1      3294 3.22975E-01
 -1      3295 3.30176E-01
 -1      3296 4.87072E+00
 -1      3297 4.71305E+00
 -1      3298 3.73347E+00
 -1      3299 5.45560E+00
 -1      3300 6.41628E+00
 -1      3301 7.21539E+00
 -1      3302 1.35140E+01
 -1      3303 1.11916E+01
 -1      3304 7.91661E+00
 -1      3305 1.24511E+01
 -1      3306 1.32549E+01
 -1      3307 8.00161E+00
 -1      3308 1.08351E+01
 -1      3309 1.32868E+01
 -1      3310 8.36248E+00
 -1      3311 1.05773E+01
 -1      3312 1.18054E+01
 -1      3313 1.18896E+01
 -1      3314 1.50431E-01
 -1      3315 1.64206E-01
 -1      3316 1.89640E-01
 -1      3317 1.61599E-01
 -1      3318 1.05525E-01
 -1      3319 1.26540E-01
 -1      3320 1.12642E-01
 -1      3321 7.90930E-02
 -1      3322 3.16925E-01
 -1      3323 3.10390E-01
 -1      3324 2.44260E-01
 -1      3325 2.55915E+00
 -1      3326 3.62597E+00
 -1      3327 1.32937E+01
 -1      3328 1.24511E+01
 -1      3329 2.28623E-01
 -1      3330 3.14582E+00
 -1      3331 4.58999E+00
 -1      3332 3.84646E-01
 -1      3333 4.10294E-01
 -1      3334 3.03654E-01
 -1      3335 9.37730E+00
 -1      3336 9.74719E+00
 -1      3337 8.08554E+00
 -1      3338 8.69936E+00
 -1      3339 7.75282E+00
 -1      3340 6.64482E+00
 -1      3341 1.28971E+01
 -1      3342 1.11028E+01
 -1      3343 8.43805E+00
 -1      3344 4.07134E-01
 -1      3345 3.03286E-01
 -1      3346 2.55030E-01
 -1      3347 3.95088E-01
 -1      3348 9.50867E+00
 -1      3349 1.11806E+01
 -1      3350 7.81243E+00
 -1      3351 7.33795E+00
 -1      3352 3.11395E-01
 -1      3353 3.11021E-01
 -1      3354 2.84181E-01
 -1      3355 3.50197E+00
 -1      3356 2.81424E+00
 -1      3357 3.66218E+00
 -1      3358 4.48654E+00
 -1      3359 3.65683E+00
 -1      3360 4.03454E+00
 -1      3361 2.15435E-01
 -1      3362 1.96174E-01
 -1      3363 2.03012E-01
 -1      3364 5.50318E+00
 -1      3365 2.08624E-01
 -1      3366 2.33280E-01
 -1      3367 3.32314E-01
 -1      3368 3.36750E-01
 -1      3369 2.54062E-01
 -1      3370 3.45549E-01
 -1      3371 1.86707E-01
 -1      3372 2.23008E-01
 -1      3373 2.42406E-01
 -1      3374 6.68186E+00
 -1      3375 6.42195E+00
 -1      3376 7.02475E+00
 -1      3377 5.02762E+00
 -1      3378 4.65966E+00
 -1      3379 3.02217E+00
 -1      3380 3.11435E+00
 -1      3381 3.10628E-01
 -1      3382 3.31831E-01
 -1      3383 2.77148E-01
 -1      3384 9.88464E+00
 -1      3385 2.08624E-01
 -1      3386 2.08624E-01
 -1      3387 2.37938E-01
 -1      3388 2.32326E-01
 -1      3389 8.04135E+00
 -1      3390 8.15396E+00
 -1      3391 1.18054E+01
 -1      3392 8.88302E+00
 -1      3393 9.92879E+00
 -1      3394 3.21589E-01
 -1      3395 3.21589E-01
 -1      3396 1.04013E+01
 -1      3397 9.06340E+00
 -1      3398 7.32821E+00
 -1      3399 2.87361E-01
 -1      3400 2.65525E-01
 -1      3401 2.64487E-01
 -1      3402 3.05040E+00
 -1      3403 2.96951E+00
 -1      3404 2.96951E+00
 -1      3405 6.92227E+00
 -1      3406 3.22067E-01
 -1      3407 3.23883E-01
 -1      3408 2.85476E-01
 -1      3409 9.62556E+00
 -1      3410 3.19896E-01
 -1      3411 3.19896E-01
 -1      3412 2.59646E-01
 -1      3413 1.23482E+01
 -1      3414 8.68007E+00
 -1      3415 8.67315E+00
 -1      3416 2.49639E+00
 -1      3417 2.94856E+00
 -1      3418 2.38727E+00
 -1      3419 3.24342E-01
 -1      3420 3.22702E-01
 -1      3421 2.87747E-01
 -1      3422 2.83301E-01
 -1      3423 2.29697E-01
 -1      3424 2.29697E-01
 -1      3425 4.03633E+00
 -1      3426 4.08815E+00
 -1      3427 2.96951E+00
 -1      3428 2.84829E-01
 -1      3429 1.12594E+01
 -1      3430 9.26050E+00
 -1      3431 8.25290E+00
 -1      3432 7.87096E+00
 -1      3433 1.00660E-01
 -1      3434 1.11371E-01
 -1      3435 1.32664E-01
 -1      3436 1.23118E-01
 -1      3437 3.50894E+00
 -1      3438 3.20140E+00
 -1      3439 2.09500E-01
 -1      3440 1.95953E-01
 -1      3441 1.89384E-01
 -1      3442 1.71431E-01
 -1      3443 1.68592E-01
 -1      3444 1.59520E-01
 -1      3445 1.45282E-01
 -1      3446 1.50112E-01
 -1      3447 1.35045E-01
 -1      3448 1.18949E-01
 -1      3449 1.27964E-01
 -1      3450 1.06381E-01
 -1      3451 8.78027E-02
 -1      3452 1.05159E-01
 -1      3453 8.71532E-02
 -1      3454 7.61779E-02
 -1      3455 9.19426E-02
 -1      3456 7.71638E-02
 -1      3457 8.42628E-02
 -1      3458 9.22789E-02
 -1      3459 9.65867E-02
 -1      3460 1.17520E-01
 -1      3461 1.05589E-01
 -1      3462 1.42194E-01
 -1      3463 1.69131E-01
 -1      3464 1.42586E-01
 -1      3465 1.97040E-01
 -1      3466 2.28951E-01
 -1      3467 1.95169E-01
 -1      3468 2.59509E-01
 -1      3469 2.92830E-01
 -1      3470 2.53637E-01
 -1      3471 3.30859E-01
 -1      3472 3.64049E-01
 -1      3473 3.22224E-01
 -1      3474 4.17934E-01
 -1      3475 4.56000E-01
 -1      3476 4.14138E-01
 -1      3477 5.17681E-01
 -1      3478 5.73088E-01
 -1      3479 5.29705E-01
 -1      3480 6.48170E-01
 -1      3481 7.04905E-01
 -1      3482 6.66468E-01
 -1      3483 8.14548E-01
 -1      3484 8.58831E-01
 -1      3485 8.51193E-01
 -1      3486 9.63646E-01
 -1      3487 1.07688E+00
 -1      3488 1.06565E+00
 -1      3489 1.18170E+00
 -1      3490 1.38010E+00
 -1      3491 1.27528E+00
 -1      3492 1.61744E+00
 -1      3493 1.57943E+00
 -1      3494 1.61744E+00
 -1      3495 1.72690E+00
 -1      3496 1.86691E+00
 -1      3497 2.00225E+00
 -1      3498 1.60449E+00
 -1      3499 1.62488E+00
 -1      3500 1.88730E+00
 -1      3501 2.30087E+00
 -1      3502 2.45380E+00
 -1      3503 2.91342E+00
 -1      3504 3.06132E+00
 -1      3505 3.27265E+00
 -1      3506 3.32626E+00
 -1      3507 3.37987E+00
 -1      3508 3.37987E+00
 -1      3509 2.98469E+00
 -1      3510 1.39000E+00
 -1      3511 1.34354E+00
 -1      3512 1.42668E+00
 -1      3513 1.33020E+00
 -1      3514 1.47314E+00
 -1      3515 1.17390E+00
 -1      3516 1.03433E+00
 -1      3517 1.39998E+00
 -1      3518 9.27023E-01
 -1      3519 8.62544E-01
 -1      3520 1.13637E+00
 -1      3521 7.49019E-01
 -1      3522 6.94220E-01
 -1      3523 9.15540E-01
 -1      3524 6.06085E-01
 -1      3525 5.48735E-01
 -1      3526 7.13880E-01
 -1      3527 4.87069E-01
 -1      3528 4.44275E-01
 -1      3529 5.64080E-01
 -1      3530 3.86998E-01
 -1      3531 3.53753E-01
 -1      3532 4.45137E-01
 -1      3533 3.08771E-01
 -1      3534 2.76838E-01
 -1      3535 3.42877E-01
 -1      3536 2.39970E-01
 -1      3537 2.10685E-01
 -1      3538 2.61027E-01
 -1      3539 2.87122E-01
 -1      3540 1.88415E-01
 -1      3541 1.98439E-01
 -1      3542 1.65833E-01
 -1      3543 1.28161E-01
 -1      3544 1.03129E-01
 -1      3545 8.69094E-02
 -1      3546 1.32332E-01
 -1      3547 3.88274E-01
 -1      3548 3.19770E-01
 -1      3549 5.52498E-01
 -1      3550 4.62857E-01
 -1      3551 4.35535E-01
 -1      3552 7.68921E-01
 -1      3553 6.51307E-01
 -1      3554 6.08927E-01
 -1      3555 1.05656E+00
 -1      3556 9.02709E-01
 -1      3557 8.41524E-01
 -1      3558 1.44232E+00
 -1      3559 1.24386E+00
 -1      3560 1.16261E+00
 -1      3561 1.97142E+00
 -1      3562 1.70683E+00
 -1      3563 1.61441E+00
 -1      3564 2.72769E+00
 -1      3565 2.35999E+00
 -1      3566 2.26749E+00
 -1      3567 5.12062E+00
 -1      3568 3.86142E+00
 -1      3569 3.78979E+00
 -1      3570 1.53145E+00
 -1      3571 1.78282E+00
 -1      3572 2.12873E-01
 -1      3573 2.07650E-01
 -1      3574 1.73312E-01
 -1      3575 2.24224E+00
 -1      3576 2.80315E+00
 -1      3577 2.13279E+00
 -1      3578 2.34354E-01
 -1      3579 1.12328E+00
 -1      3580 1.30606E+00
 -1      3581 1.44797E+00
 -1      3582 8.14395E-01
 -1      3583 9.54853E-01
 -1      3584 1.05415E+00
 -1      3585 5.85660E-01
 -1      3586 6.92498E-01
 -1      3587 7.63832E-01
 -1      3588 4.16264E-01
 -1      3589 4.95798E-01
 -1      3590 5.52073E-01
 -1      3591 8.26522E+00
 -1      3592 8.52431E+00
 -1      3593 2.45861E-01
 -1      3594 2.35443E-01
 -1      3595 2.35827E-01
 -1      3596 5.42809E+00
 -1      3597 4.34173E+00
 -1      3598 8.36248E+00
 -1      3599 8.36248E+00
 -1      3600 2.78275E+00
 -1      3601 2.47117E+00
 -1      3602 7.10253E+00
 -1      3603 8.67315E+00
 -1      3604 4.95625E+00
 -1      3605 5.77859E+00
 -1      3606 3.14599E-01
 -1      3607 3.22067E-01
 -1      3608 2.87770E-01
 -1      3609 7.41382E+00
 -1      3610 7.66199E+00
 -1      3611 2.44549E-01
 -1      3612 2.40929E-01
 -1      3613 6.56633E+00
 -1      3614 6.23360E+00
 -1      3615 7.73458E+00
 -1      3616 5.78358E+00
 -1      3617 7.25071E+00
 -1      3618 7.25071E+00
 -1      3619 8.01070E+00
 -1      3620 6.56633E+00
 -1      3621 6.39128E+00
 -1      3622 2.62547E-01
 -1      3623 2.10404E-01
 -1      3624 2.01935E-01
 -1      3625 3.03728E-01
 -1      3626 2.44586E-01
 -1      3627 2.56079E-01
 -1      3628 1.93354E-01
 -1      3629 2.27636E-01
 -1      3630 2.12431E-01
 -1      3631 1.97838E-01
 -1      3632 1.68531E-01
 -1      3633 3.51539E+00
 -1      3634 4.40851E+00
 -1      3635 5.39176E+00
 -1      3636 3.30445E+00
 -1      3637 1.32606E-01
 -1      3638 1.51206E-01
 -1      3639 6.64539E+00
 -1      3640 3.58709E+00
 -1      3641 2.51866E-01
 -1      3642 2.48300E-01
 -1      3643 2.35827E-01
 -1      3644 2.47106E-01
 -1      3645 2.67498E-01
 -1      3646 1.57028E-01
 -1      3647 2.30087E+00
 -1      3648 2.19114E-01
 -1      3649 1.99289E-01
 -1      3650 1.53468E-01
 -1      3651 5.87767E+00
 -1      3652 2.98469E+00
 -1      3653 2.58951E+00
 -1      3654 1.98975E+00
 -1      3655 2.43651E-01
 -1      3656 2.03949E-01
 -1      3657 2.24887E-01
 -1      3658 1.85621E-01
 -1      3659 1.51124E-01
 -1      3660 1.46026E-01
 -1      3661 1.99096E-01
 -1      3662 1.62841E-01
 -1      3663 1.78732E-01
 -1      3664 1.43231E-01
 -1      3665 2.17046E-01
 -1      3666 1.01205E-01
 -1      3667 8.08143E-02
 -1      3668 9.33883E-02
 -1      3669 2.90388E-01
 -1      3670 2.86805E-01
 -1      3671 6.26129E+00
 -1      3672 6.06419E+00
 -1      3673 3.22780E+00
 -1      3674 4.42766E+00
 -1      3675 3.52439E+00
 -1      3676 7.41700E+00
 -1      3677 4.97930E+00
 -1      3678 3.81785E+00
 -1      3679 4.62336E+00
 -1      3680 3.56578E-01
 -1      3681 4.02524E-01
 -1      3682 7.00215E+00
 -1      3683 2.62058E-01
 -1      3684 2.22728E-01
 -1      3685 2.54783E-01
 -1      3686 2.08979E-01
 -1      3687 9.74952E-02
 -1      3688 1.18470E-01
 -1      3689 1.17460E-01
 -1      3690 9.92165E-02
 -1      3691 3.14370E+00
 -1      3692 5.70413E+00
 -1      3693 5.52815E+00
 -1      3694 3.97853E+00
 -1      3695 8.26539E+00
 -1      3696 7.21961E+00
 -1      3697 6.35422E+00
 -1      3698 2.16478E+00
 -1      3699 3.16942E-01
 -1      3700 2.84192E-01
 -1      3701 2.24680E-01
 -1      3702 2.87176E-01
 -1      3703 2.87176E-01
 -1      3704 3.39626E-01
 -1      3705 1.98975E+00
 -1      3706 2.58453E+00
 -1      3707 3.02217E+00
 -1      3708 2.38727E+00
 -1      3709 4.03454E+00
 -1      3710 2.51866E-01
 -1      3711 2.51866E-01
 -1      3712 2.15986E-01
 -1      3713 8.04394E+00
 -1      3714 7.41382E+00
 -1      3715 1.60670E-01
 -1      3716 2.45857E-01
 -1      3717 2.43563E-01
 -1      3718 2.78535E-01
 -1      3719 7.20486E+00
 -1      3720 1.84143E-01
 -1      3721 2.23762E-01
 -1      3722 8.04394E+00
 -1      3723 1.97313E-01
 -1      3724 1.83950E-01
 -1      3725 1.98242E-01
 -1      3726 2.22376E-01
 -1      3727 1.64755E-01
 -1      3728 1.44953E-01
 -1      3729 1.34080E-01
 -1      3730 6.29454E+00
 -1      3731 6.29454E+00
 -1      3732 5.15387E+00
 -1      3733 1.65354E+00
 -1      3734 1.73668E+00
 -1      3735 2.74852E+00
 -1      3736 2.55821E+00
 -1      3737 1.42052E-01
 -1      3738 1.30141E-01
 -1      3739 1.21932E-01
 -1      3740 1.11695E-01
 -1      3741 1.13872E-01
 -1      3742 1.10239E-01
 -1      3743 9.76713E-02
 -1      3744 1.04207E-01
 -1      3745 1.01261E-01
 -1      3746 1.00612E-01
 -1      3747 1.06341E-01
 -1      3748 1.04230E-01
 -1      3749 1.05216E-01
 -1      3750 1.13549E-01
 -1      3751 1.09994E-01
 -1      3752 1.22318E-01
 -1      3753 1.21945E-01
 -1      3754 1.42586E-01
 -1      3755 1.67260E-01
 -1      3756 1.46992E-01
 -1      3757 1.95169E-01
 -1      3758 2.23079E-01
 -1      3759 1.95169E-01
 -1      3760 2.53637E-01
 -1      3761 2.84195E-01
 -1      3762 2.53637E-01
 -1      3763 3.24111E-01
 -1      3764 3.62140E-01
 -1      3765 3.24111E-01
 -1      3766 4.11648E-01
 -1      3767 4.65533E-01
 -1      3768 4.13535E-01
 -1      3769 5.35650E-01
 -1      3770 5.97331E-01
 -1      3771 5.33160E-01
 -1      3772 7.08059E-01
 -1      3773 7.83140E-01
 -1      3774 7.14004E-01
 -1      3775 9.07630E-01
 -1      3776 1.01727E+00
 -1      3777 9.49220E-01
 -1      3778 1.15837E+00
 -1      3779 1.26318E+00
 -1      3780 1.21480E+00
 -1      3781 1.69434E+00
 -1      3782 1.79916E+00
 -1      3783 1.78706E+00
 -1      3784 2.18795E+00
 -1      3785 2.42529E+00
 -1      3786 2.21966E+00
 -1      3787 2.36713E+00
 -1      3788 3.12476E+00
 -1      3789 2.47696E-01
 -1      3790 2.51274E-01
 -1      3791 2.15382E-01
 -1      3792 2.02039E+00
 -1      3793 1.86408E+00
 -1      3794 2.20079E+00
 -1      3795 1.34928E+00
 -1      3796 1.24198E+00
 -1      3797 1.96969E+00
 -1      3798 1.08605E+00
 -1      3799 9.72524E-01
 -1      3800 1.29896E+00
 -1      3801 8.48016E-01
 -1      3802 7.59881E-01
 -1      3803 1.01852E+00
 -1      3804 6.44558E-01
 -1      3805 5.82893E-01
 -1      3806 7.78694E-01
 -1      3807 4.96235E-01
 -1      3808 4.38957E-01
 -1      3809 5.76713E-01
 -1      3810 3.89136E-01
 -1      3811 3.44154E-01
 -1      3812 4.40234E-01
 -1      3813 3.02851E-01
 -1      3814 2.65983E-01
 -1      3815 3.49110E-01
 -1      3816 4.88347E+00
 -1      3817 4.88347E+00
 -1      3818 1.59222E-01
 -1      3819 1.47691E-01
 -1      3820 6.16679E-01
 -1      3821 5.17870E-01
 -1      3822 4.48886E-01
 -1      3823 3.74304E-01
 -1      3824 4.56638E-01
 -1      3825 1.15586E+00
 -1      3826 9.68561E-01
 -1      3827 1.60093E+00
 -1      3828 1.33642E+00
 -1      3829 1.14238E+00
 -1      3830 2.22161E+00
 -1      3831 1.83303E+00
 -1      3832 1.55505E+00
 -1      3833 3.76523E+00
 -1      3834 2.63150E+00
 -1      3835 2.19705E+00
 -1      3836 3.99559E+00
 -1      3837 8.89813E-01
 -1      3838 1.05824E+00
 -1      3839 1.45593E-01
 -1      3840 1.47442E-01
 -1      3841 1.64940E+00
 -1      3842 2.10883E+00
 -1      3843 6.49807E-01
 -1      3844 7.71704E-01
 -1      3845 7.75789E-01
 -1      3846 4.73802E-01
 -1      3847 5.63664E-01
 -1      3848 5.71536E-01
 -1      3849 6.33404E+00
 -1      3850 6.23678E+00
 -1      3851 8.41844E-01
 -1      3852 7.08057E-01
 -1      3853 8.35095E-01
 -1      3854 2.57492E-01
 -1      3855 2.63104E-01
 -1      3856 2.77884E-01
 -1      3857 1.49532E-01
 -1      3858 1.24499E-01
 -1      3859 3.18091E-01
 -1      3860 6.93312E+00
 -1      3861 2.51274E-01
 -1      3862 2.51274E-01
 -1      3863 2.09361E-01
 -1      3864 3.57315E+00
 -1      3865 2.89360E+00
 -1      3866 2.73458E+00
 -1      3867 3.12435E+00
 -1      3868 7.13362E+00
 -1      3869 6.29454E+00
 -1      3870 5.38423E+00
 -1      3871 5.47021E+00
 -1      3872 3.59703E-01
 -1      3873 4.19389E-01
 -1      3874 4.30980E-01
 -1      3875 3.56491E-01
 -1      3876 2.41216E-01
 -1      3877 2.45662E-01
 -1      3878 2.09782E-01
 -1      3879 1.21938E+00
 -1      3880 1.44477E+00
 -1      3881 1.05504E+00
 -1      3882 1.15451E-01
 -1      3883 1.29885E-01
 -1      3884 1.04016E-01
 -1      3885 1.06937E-01
 -1      3886 5.39171E+00
 -1      3887 4.87810E+00
 -1      3888 4.72359E+00
 -1      3889 1.92701E-01
 -1      3890 1.79408E-01
 -1      3891 1.51708E-01
 -1      3892 1.45139E-01
 -1      3893 1.23989E-01
 -1      3894 1.93352E-01
 -1      3895 2.15433E-01
 -1      3896 1.93559E-01
 -1      3897 6.16775E+00
 -1      3898 6.33404E+00
 -1      3899 5.56867E+00
 -1      3900 4.79268E+00
 -1      3901 2.13483E+00
 -1      3902 2.39837E+00
 -1      3903 1.32977E-01
 -1      3904 1.15778E-01
 -1      3905 1.09683E-01
 -1      3906 3.88390E+00
 -1      3907 1.25168E-01
 -1      3908 2.60701E+00
 -1      3909 2.16986E+00
 -1      3910 1.90744E+00
 -1      3911 1.83551E-01
 -1      3912 1.82947E-01
 -1      3913 2.14778E-01
 -1      3914 3.37987E+00
 -1      3915 1.69485E-01
 -1      3916 1.72918E-01
 -1      3917 1.27255E-01
 -1      3918 1.71982E-01
 -1      3919 1.58568E-01
 -1      3920 2.99580E+00
 -1      3921 3.52439E+00
 -1      3922 3.44993E+00
 -1      3923 3.12343E-01
 -1      3924 3.34211E-01
 -1      3925 3.20859E-01
 -1      3926 2.63636E-01
 -1      3927 2.64200E-01
 -1      3928 2.21367E+00
 -1      3929 2.69705E+00
 -1      3930 3.40929E+00
 -1      3931 4.54394E+00
 -1      3932 3.28964E+00
 -1      3933 3.54975E+00
 -1      3934 2.21486E-01
 -1      3935 1.76915E-01
 -1      3936 2.38616E-01
 -1      3937 6.17000E-01
 -1      3938 2.86340E-01
 -1      3939 2.99056E-01
 -1      3940 1.69082E-01
 -1      3941 2.31331E-01
 -1      3942 5.49757E+00
 -1      3943 4.69956E+00
 -1      3944 3.87349E+00
 -1      3945 3.41946E-01
 -1      3946 3.41946E-01
 -1      3947 3.73504E-01
 -1      3948 1.84787E-01
 -1      3949 1.52353E-01
 -1      3950 1.84787E-01
 -1      3951 1.70171E-01
 -1      3952 1.03455E-01
 -1      3953 1.17591E-01
 -1      3954 1.11024E-01
 -1      3955 1.25029E-01
 -1      3956 1.36663E-01
 -1      3957 1.42081E+00
 -1      3958 1.08961E-01
 -1      3959 1.00752E-01
 -1      3960 1.07682E-01
 -1      3961 1.06226E-01
 -1      3962 1.02771E-01
 -1      3963 1.10324E-01
 -1      3964 1.13914E-01
 -1      3965 1.13799E-01
 -1      3966 1.18798E-01
 -1      3967 1.22416E-01
 -1      3968 1.22781E-01
 -1      3969 1.30393E-01
 -1      3970 1.35172E-01
 -1      3971 1.35643E-01
 -1      3972 1.48091E-01
 -1      3973 1.68359E-01
 -1      3974 1.56538E-01
 -1      3975 1.89028E-01
 -1      3976 2.16937E-01
 -1      3977 1.90127E-01
 -1      3978 2.51565E-01
 -1      3979 2.82124E-01
 -1      3980 2.45424E-01
 -1      3981 3.24111E-01
 -1      3982 3.64026E-01
 -1      3983 3.22039E-01
 -1      3984 4.13535E-01
 -1      3985 4.63043E-01
 -1      3986 4.13535E-01
 -1      3987 5.37927E-01
 -1      3988 6.08044E-01
 -1      3989 5.37927E-01
 -1      3990 7.13517E-01
 -1      3991 8.24244E-01
 -1      3992 7.18284E-01
 -1      3993 9.78193E-01
 -1      3994 1.10268E+00
 -1      3995 9.77705E-01
 -1      3996 1.33314E+00
 -1      3997 1.47423E+00
 -1      3998 1.36211E+00
 -1      3999 2.16791E+00
 -1      4000 2.59907E+00
 -1      4001 2.28624E+00
 -1      4002 1.50492E-01
 -1      4003 1.82323E-01
 -1      4004 1.82323E-01
 -1      4005 2.33185E+00
 -1      4006 1.81705E+00
 -1      4007 1.51200E+00
 -1      4008 1.35607E+00
 -1      4009 1.87416E+00
 -1      4010 1.19789E+00
 -1      4011 1.07339E+00
 -1      4012 1.41093E+00
 -1      4013 8.86374E-01
 -1      4014 7.71051E-01
 -1      4015 1.06574E+00
 -1      4016 6.59370E-01
 -1      4017 5.72712E-01
 -1      4018 7.67050E-01
 -1      4019 4.91226E-01
 -1      4020 4.41406E-01
 -1      4021 5.73883E-01
 -1      4022 4.20892E-01
 -1      4023 3.79589E-01
 -1      4024 4.71884E-01
 -1      4025 1.12336E-01
 -1      4026 1.09249E-01
 -1      4027 9.61282E-02
 -1      4028 3.27545E+00
 -1      4029 3.28082E+00
 -1      4030 1.53351E+00
 -1      4031 1.30140E+00
 -1      4032 1.16970E+00
 -1      4033 9.89130E-01
 -1      4034 1.14816E+00
 -1      4035 4.86409E-01
 -1      4036 5.72552E-01
 -1      4037 4.51720E+00
 -1      4038 3.67213E+00
 -1      4039 3.06906E+00
 -1      4040 6.81004E-01
 -1      4041 7.99113E-01
 -1      4042 5.95877E-01
 -1      4043 1.88222E+00
 -1      4044 1.65700E-01
 -1      4045 1.75154E-01
 -1      4046 1.44123E-01
 -1      4047 6.24008E-01
 -1      4048 5.32630E-01
 -1      4049 1.86878E-01
 -1      4050 1.59495E-01
 -1      4051 3.41946E-01
 -1      4052 3.52333E-01
 -1      4053 4.16394E-01
 -1      4054 1.02291E-01
 -1      4055 1.06398E-01
 -1      4056 1.06530E-01
 -1      4057 1.16864E-01
 -1      4058 3.36677E-01
 -1      4059 3.60749E-01
 -1      4060 3.80825E-01
 -1      4061 4.00738E-01
 -1      4062 2.74937E-01
 -1      4063 2.64307E+00
 -1      4064 2.92677E+00
 -1      4065 1.46510E-01
 -1      4066 1.61130E-01
 -1      4067 1.42725E-01
 -1      4068 1.28308E-01
 -1      4069 1.78583E-01
 -1      4070 1.84787E-01
 -1      4071 1.53588E-01
 -1      4072 1.33573E-01
 -1      4073 9.08384E-01
 -1      4074 1.06953E+00
 -1      4075 8.13599E-01
 -1      4076 1.03681E-01
 -1      4077 1.07947E-01
 -1      4078 9.20273E-02
 -1      4079 1.37716E-01
 -1      4080 4.63227E-01
 -1      4081 3.94244E-01
 -1      4082 4.70235E-01
 -1      4083 2.98786E+00
 -1      4084 1.25540E+00
 -1      4085 1.46002E+00
 -1      4086 1.10874E+00
 -1      4087 8.48227E-01
 -1      4088 7.21510E-01
 -1      4089 6.37140E-01
 -1      4090 4.54238E+00
 -1      4091 4.45639E+00
 -1      4092 3.68573E+00
 -1      4093 3.50901E-01
 -1      4094 3.44312E-01
 -1      4095 2.90868E-01
 -1      4096 2.75783E+00
 -1      4097 2.34794E+00
 -1      4098 2.09429E+00
 -1      4099 1.23151E-01
 -1      4100 1.22527E-01
 -1      4101 2.84736E+00
 -1      4102 2.69471E+00
 -1      4103 1.02078E-01
 -1      4104 1.09515E-01
 -1      4105 8.87355E-02
 -1      4106 1.04443E-01
 -1      4107 8.84006E-02
 -1      4108 3.90992E-01
 -1      4109 3.19210E-01
 -1      4110 2.48618E+00
 -1      4111 2.92381E+00
 -1      4112 4.51720E+00
 -1      4113 1.19088E-01
 -1      4114 8.75545E-01
 -1      4115 4.20014E+00
 -1      4116 2.81150E+00
 -1      4117 2.96238E+00
 -1      4118 4.20014E+00
 -1      4119 1.84652E+00
 -1      4120 2.43474E+00
 -1      4121 1.68110E+00
 -1      4122 3.22248E+00
 -1      4123 2.88295E+00
 -1      4124 2.36745E+00
 -1      4125 2.61403E+00
 -1      4126 2.54844E-01
 -1      4127 2.12694E-01
 -1      4128 2.64946E-01
 -1      4129 2.03106E-01
 -1      4130 1.63955E-01
 -1      4131 1.55233E-01
 -1      4132 1.81751E-01
 -1      4133 3.90992E-01
 -1      4134 4.33882E-01
 -1      4135 4.51370E-01
 -1      4136 9.41314E-02
 -1      4137 1.14146E-01
 -1      4138 1.07828E-01
 -1      4139 1.10222E-01
 -1      4140 1.07279E-01
 -1      4141 1.05770E-01
 -1      4142 1.24387E-01
 -1      4143 1.23151E-01
 -1      4144 9.51855E-02
 -1      4145 4.18528E+00
 -1      4146 4.35238E-01
 -1      4147 4.36254E-01
 -1      4148 4.51910E-01
 -1      4149 3.13382E+00
 -1      4150 1.13799E-01
 -1      4151 1.17897E-01
 -1      4152 1.23187E-01
 -1      4153 1.28071E-01
 -1      4154 1.23187E-01
 -1      4155 1.55186E-01
 -1      4156 1.63163E-01
 -1      4157 1.55592E-01
 -1      4158 1.66225E-01
 -1      4159 1.79144E-01
 -1      4160 1.85768E-01
 -1      4161 2.11407E-01
 -1      4162 2.32077E-01
 -1      4163 2.21094E-01
 -1      4164 2.77177E-01
 -1      4165 3.11804E-01
 -1      4166 2.98457E-01
 -1      4167 3.75337E-01
 -1      4168 4.17324E-01
 -1      4169 4.07089E-01
 -1      4170 5.07173E-01
 -1      4171 5.56681E-01
 -1      4172 5.60471E-01
 -1      4173 6.83860E-01
 -1      4174 7.58744E-01
 -1      4175 7.77498E-01
 -1      4176 9.37328E-01
 -1      4177 1.04280E+00
 -1      4178 1.08326E+00
 -1      4179 1.22283E+00
 -1      4180 1.37678E+00
 -1      4181 1.44187E+00
 -1      4182 1.49832E+00
 -1      4183 1.72878E+00
 -1      4184 1.74345E+00
 -1      4185 1.75289E+00
 -1      4186 2.44656E+00
 -1      4187 1.88910E+00
 -1      4188 1.09329E-01
 -1      4189 1.18276E-01
 -1      4190 1.28122E-01
 -1      4191 2.69181E+00
 -1      4192 1.06907E-01
 -1      4193 1.06619E-01
 -1      4194 1.85782E+00
 -1      4195 1.69964E+00
 -1      4196 1.40841E+00
 -1      4197 1.22140E+00
 -1      4198 1.85530E+00
 -1      4199 1.05467E+00
 -1      4200 9.42990E-01
 -1      4201 1.39734E+00
 -1      4202 7.43348E-01
 -1      4203 6.61863E-01
 -1      4204 1.03097E+00
 -1      4205 4.92398E-01
 -1      4206 4.71884E-01
 -1      4207 4.71884E-01
 -1      4208 6.61863E-01
 -1      4209 8.06566E-02
 -1      4210 8.50453E-02
 -1      4211 9.55364E-02
 -1      4212 1.19515E-01
 -1      4213 1.45089E+00
 -1      4214 1.31918E+00
 -1      4215 5.60361E-01
 -1      4216 5.95877E-01
 -1      4217 2.80613E+00
 -1      4218 2.40945E+00
 -1      4219 7.04329E-01
 -1      4220 9.21741E-02
 -1      4221 1.25086E-01
 -1      4222 1.17694E-01
 -1      4223 1.56064E-01
 -1      4224 2.06240E+00
 -1      4225 3.44993E+00
 -1      4226 3.41936E+00
 -1      4227 7.67828E-01
 -1      4228 8.77099E-01
 -1      4229 5.60361E-01
 -1      4230 2.99580E+00
 -1      4231 1.23117E-01
 -1      4232 1.19946E-01
 -1      4233 8.68219E-02
 -1      4234 2.21160E-01
 -1      4235 1.95344E-01
 -1      4236 1.02771E-01
 -1      4237 1.09701E-01
 -1      4238 1.13550E-01
 -1      4239 7.54813E-01
 -1      4240 6.57311E-01
 -1      4241 1.24162E-01
 -1      4242 1.24162E-01
 -1      4243 9.49604E-02
 -1      4244 8.47196E-02
 -1      4245 1.09494E+00
 -1      4246 9.54032E-01
 -1      4247 1.39766E+00
 -1      4248 5.29717E-01
 -1      4249 4.60314E-01
 -1      4250 6.47390E-01
 -1      4251 1.07674E+00
 -1      4252 1.26261E+00
 -1      4253 1.03097E+00
 -1      4254 3.77754E-01
 -1      4255 3.27822E-01
 -1      4256 4.37236E-01
 -1      4257 1.45703E+00
 -1      4258 1.84353E+00
 -1      4259 1.42504E+00
 -1      4260 1.13799E-01
 -1      4261 1.08984E-01
 -1      4262 1.17744E-01
 -1      4263 2.84513E-01
 -1      4264 2.48489E-01
 -1      4265 3.11366E-01
 -1      4266 2.35110E+00
 -1      4267 6.94725E-02
 -1      4268 6.87105E-02
 -1      4269 6.17285E-02
 -1      4270 7.24840E-02
 -1      4271 9.74203E-01
 -1      4272 1.18444E-01
 -1      4273 1.28122E-01
 -1      4274 1.32692E-01
 -1      4275 1.08515E-01
 -1      4276 1.18090E-01
 -1      4277 2.76666E+00
 -1      4278 2.10706E+00
 -1      4279 2.09429E+00
 -1      4280 2.26531E+00
 -1      4281 2.90872E+00
 -1      4282 3.27230E+00
 -1      4283 7.67828E-01
 -1      4284 2.40945E+00
 -1      4285 1.81751E-01
 -1      4286 1.86211E-01
 -1      4287 1.99804E-01
 -1      4288 5.77849E-01
 -1      4289 2.40727E-01
 -1      4290 1.08484E-01
 -1      4291 1.03283E-01
 -1      4292 1.11698E-01
 -1      4293 8.40015E-02
 -1      4294 8.40015E-02
 -1      4295 6.12999E-02
 -1      4296 2.12130E+00
 -1      4297 2.99849E+00
 -1      4298 2.84131E+00
 -1      4299 1.23187E-01
 -1      4300 1.28477E-01
 -1      4301 1.88299E+00
 -1      4302 1.57344E-01
 -1      4303 1.84458E-01
 -1      4304 1.57344E-01
 -1      4305 1.84458E-01
 -1      4306 1.87521E-01
 -1      4307 2.01114E-01
 -1      4308 2.33377E-01
 -1      4309 2.60707E-01
 -1      4310 3.05807E-01
 -1      4311 3.49117E-01
 -1      4312 4.12649E-01
 -1      4313 4.95209E-01
 -1      4314 5.85058E-01
 -1      4315 7.12652E-01
 -1      4316 8.39830E-01
 -1      4317 1.03905E+00
 -1      4318 1.21763E+00
 -1      4319 1.44187E+00
 -1      4320 1.62190E+00
 -1      4321 2.26531E+00
 -1      4322 2.38686E+00
 -1      4323 2.00953E+00
 -1      4324 2.03364E+00
 -1      4325 2.53139E+00
 -1      4326 2.45451E+00
 -1      4327 2.98786E+00
 -1      4328 2.99580E+00
 -1      4329 9.58823E-02
 -1      4330 1.17744E-01
 -1      4331 1.39734E+00
 -1      4332 1.23061E+00
 -1      4333 1.03097E+00
 -1      4334 8.31328E-01
 -1      4335 2.14652E+00
 -1      4336 7.67828E-01
 -1      4337 1.86211E-01
 -1      4338 1.56064E-01
 -1      4339 1.17398E-01
 -1      4340 1.13550E-01
 -1      4341 1.17744E-01
 -1      4342 1.18090E-01
 -1      4343 3.21864E+00
 -1      4344 1.27197E-01
 -1      4345 1.19724E-01
 -1      4346 7.43610E-02
 -1      4347 8.63071E-02
 -1      4348 1.08515E-01
 -1      4349 8.58785E-02
 -1      4350 2.57493E+00
 -1      4351 8.58785E-02
 -1      4352 7.37607E-02
 -1      4353 1.07850E-01
 -1      4354 1.88299E+00
 -1      4355 1.11947E-01
 -1      4356 1.59177E+00
 -1      4357 1.17238E-01
 -1      4358 1.86211E-01
 -1      4359 5.98363E-01
 -1      4360 1.08515E-01
 -1      4361 9.89396E-02
 -1      4362 2.96238E+00
 -1      4363 1.18090E-01
 -1      4364 8.37763E-02
 -3
 9999
