    1C
    1UUSER                                                              
    1UDATE              27.october.2022                                 
    1UTIME              00:09:52                                        
    1UHOST                                                              
    1UPGM               CalculiX                                        
    1UVERSION           Version 2.17                             
    1UCOMPILETIME       Thu Jul 23 21:43:50 CEST 2020                    
    1UDIR                                                               
    1UDBN                                                               
    1UMAT    1SOLIDMATERIAL                                             
    2C                          4289                                     1
 -1         1 5.72225E+01 2.74261E+01 0.00000E+00
 -1         2 6.09800E+01 2.12224E+01 0.00000E+00
 -1         3 1.50000E+02 0.00000E+00 0.00000E+00
 -1         4 1.50000E+02 5.00000E+01 0.00000E+00
 -1         5 0.00000E+00 0.00000E+00 0.00000E+00
 -1         6 0.00000E+00 5.00000E+01 0.00000E+00
 -1         7 0.00000E+00 4.70500E+01 0.00000E+00
 -1         8 0.00000E+00 4.41000E+01 0.00000E+00
 -1         9 0.00000E+00 4.11500E+01 0.00000E+00
 -1        10 0.00000E+00 3.82000E+01 0.00000E+00
 -1        11 0.00000E+00 3.52500E+01 0.00000E+00
 -1        12 0.00000E+00 3.23500E+01 0.00000E+00
 -1        13 0.00000E+00 2.94000E+01 0.00000E+00
 -1        14 0.00000E+00 2.64500E+01 0.00000E+00
 -1        15 0.00000E+00 2.35000E+01 0.00000E+00
 -1        16 0.00000E+00 2.05500E+01 0.00000E+00
 -1        17 0.00000E+00 1.76000E+01 0.00000E+00
 -1        18 0.00000E+00 1.47000E+01 0.00000E+00
 -1        19 0.00000E+00 1.17500E+01 0.00000E+00
 -1        20 0.00000E+00 8.80000E+00 0.00000E+00
 -1        21 0.00000E+00 5.85000E+00 0.00000E+00
 -1        22 0.00000E+00 2.90000E+00 0.00000E+00
 -1        23 3.15000E+00 5.00000E+01 0.00000E+00
 -1        24 6.15000E+00 5.00000E+01 0.00000E+00
 -1        25 9.15000E+00 5.00000E+01 0.00000E+00
 -1        26 1.21500E+01 5.00000E+01 0.00000E+00
 -1        27 1.51500E+01 5.00000E+01 0.00000E+00
 -1        28 1.81500E+01 5.00000E+01 0.00000E+00
 -1        29 2.11500E+01 5.00000E+01 0.00000E+00
 -1        30 2.41500E+01 5.00000E+01 0.00000E+00
 -1        31 2.71500E+01 5.00000E+01 0.00000E+00
 -1        32 3.01500E+01 5.00000E+01 0.00000E+00
 -1        33 3.31500E+01 5.00000E+01 0.00000E+00
 -1        34 3.61500E+01 5.00000E+01 0.00000E+00
 -1        35 3.91500E+01 5.00000E+01 0.00000E+00
 -1        36 4.21500E+01 5.00000E+01 0.00000E+00
 -1        37 4.51500E+01 5.00000E+01 0.00000E+00
 -1        38 4.81500E+01 5.00000E+01 0.00000E+00
 -1        39 5.11500E+01 5.00000E+01 0.00000E+00
 -1        40 5.41500E+01 5.00000E+01 0.00000E+00
 -1        41 5.71500E+01 5.00000E+01 0.00000E+00
 -1        42 6.01500E+01 5.00000E+01 0.00000E+00
 -1        43 6.31500E+01 5.00000E+01 0.00000E+00
 -1        44 6.61500E+01 5.00000E+01 0.00000E+00
 -1        45 6.91500E+01 5.00000E+01 0.00000E+00
 -1        46 7.21500E+01 5.00000E+01 0.00000E+00
 -1        47 7.51500E+01 5.00000E+01 0.00000E+00
 -1        48 7.81500E+01 5.00000E+01 0.00000E+00
 -1        49 8.11500E+01 5.00000E+01 0.00000E+00
 -1        50 8.41500E+01 5.00000E+01 0.00000E+00
 -1        51 8.71500E+01 5.00000E+01 0.00000E+00
 -1        52 9.01500E+01 5.00000E+01 0.00000E+00
 -1        53 9.31500E+01 5.00000E+01 0.00000E+00
 -1        54 9.61500E+01 5.00000E+01 0.00000E+00
 -1        55 9.91500E+01 5.00000E+01 0.00000E+00
 -1        56 1.02150E+02 5.00000E+01 0.00000E+00
 -1        57 1.05150E+02 5.00000E+01 0.00000E+00
 -1        58 1.08150E+02 5.00000E+01 0.00000E+00
 -1        59 1.11150E+02 5.00000E+01 0.00000E+00
 -1        60 1.14150E+02 5.00000E+01 0.00000E+00
 -1        61 1.17150E+02 5.00000E+01 0.00000E+00
 -1        62 1.20150E+02 5.00000E+01 0.00000E+00
 -1        63 1.23150E+02 5.00000E+01 0.00000E+00
 -1        64 1.26150E+02 5.00000E+01 0.00000E+00
 -1        65 1.29150E+02 5.00000E+01 0.00000E+00
 -1        66 1.32150E+02 5.00000E+01 0.00000E+00
 -1        67 1.35150E+02 5.00000E+01 0.00000E+00
 -1        68 1.38150E+02 5.00000E+01 0.00000E+00
 -1        69 1.41150E+02 5.00000E+01 0.00000E+00
 -1        70 1.44150E+02 5.00000E+01 0.00000E+00
 -1        71 1.47150E+02 5.00000E+01 0.00000E+00
 -1        72 3.15000E+00 0.00000E+00 0.00000E+00
 -1        73 6.15000E+00 0.00000E+00 0.00000E+00
 -1        74 9.15000E+00 0.00000E+00 0.00000E+00
 -1        75 1.21500E+01 0.00000E+00 0.00000E+00
 -1        76 1.51500E+01 0.00000E+00 0.00000E+00
 -1        77 1.81500E+01 0.00000E+00 0.00000E+00
 -1        78 2.11500E+01 0.00000E+00 0.00000E+00
 -1        79 2.41500E+01 0.00000E+00 0.00000E+00
 -1        80 2.71500E+01 0.00000E+00 0.00000E+00
 -1        81 3.01500E+01 0.00000E+00 0.00000E+00
 -1        82 3.31500E+01 0.00000E+00 0.00000E+00
 -1        83 3.61500E+01 0.00000E+00 0.00000E+00
 -1        84 3.91500E+01 0.00000E+00 0.00000E+00
 -1        85 4.21500E+01 0.00000E+00 0.00000E+00
 -1        86 4.51500E+01 0.00000E+00 0.00000E+00
 -1        87 4.81500E+01 0.00000E+00 0.00000E+00
 -1        88 5.11500E+01 0.00000E+00 0.00000E+00
 -1        89 5.41500E+01 0.00000E+00 0.00000E+00
 -1        90 5.71500E+01 0.00000E+00 0.00000E+00
 -1        91 6.01500E+01 0.00000E+00 0.00000E+00
 -1        92 6.31500E+01 0.00000E+00 0.00000E+00
 -1        93 6.61500E+01 0.00000E+00 0.00000E+00
 -1        94 6.91500E+01 0.00000E+00 0.00000E+00
 -1        95 7.21500E+01 0.00000E+00 0.00000E+00
 -1        96 7.51500E+01 0.00000E+00 0.00000E+00
 -1        97 7.81500E+01 0.00000E+00 0.00000E+00
 -1        98 8.11500E+01 0.00000E+00 0.00000E+00
 -1        99 8.41500E+01 0.00000E+00 0.00000E+00
 -1       100 8.71500E+01 0.00000E+00 0.00000E+00
 -1       101 9.01500E+01 0.00000E+00 0.00000E+00
 -1       102 9.31500E+01 0.00000E+00 0.00000E+00
 -1       103 9.61500E+01 0.00000E+00 0.00000E+00
 -1       104 9.91500E+01 0.00000E+00 0.00000E+00
 -1       105 1.02150E+02 0.00000E+00 0.00000E+00
 -1       106 1.05150E+02 0.00000E+00 0.00000E+00
 -1       107 1.08150E+02 0.00000E+00 0.00000E+00
 -1       108 1.11150E+02 0.00000E+00 0.00000E+00
 -1       109 1.14150E+02 0.00000E+00 0.00000E+00
 -1       110 1.17150E+02 0.00000E+00 0.00000E+00
 -1       111 1.20150E+02 0.00000E+00 0.00000E+00
 -1       112 1.23150E+02 0.00000E+00 0.00000E+00
 -1       113 1.26150E+02 0.00000E+00 0.00000E+00
 -1       114 1.29150E+02 0.00000E+00 0.00000E+00
 -1       115 1.32150E+02 0.00000E+00 0.00000E+00
 -1       116 1.35150E+02 0.00000E+00 0.00000E+00
 -1       117 1.38150E+02 0.00000E+00 0.00000E+00
 -1       118 1.41150E+02 0.00000E+00 0.00000E+00
 -1       119 1.44150E+02 0.00000E+00 0.00000E+00
 -1       120 1.47150E+02 0.00000E+00 0.00000E+00
 -1       121 1.50000E+02 2.95000E+00 0.00000E+00
 -1       122 1.50000E+02 5.90000E+00 0.00000E+00
 -1       123 1.50000E+02 8.85000E+00 0.00000E+00
 -1       124 1.50000E+02 1.18000E+01 0.00000E+00
 -1       125 1.50000E+02 1.47500E+01 0.00000E+00
 -1       126 1.50000E+02 1.76500E+01 0.00000E+00
 -1       127 1.50000E+02 2.06000E+01 0.00000E+00
 -1       128 1.50000E+02 2.35500E+01 0.00000E+00
 -1       129 1.50000E+02 2.65000E+01 0.00000E+00
 -1       130 1.50000E+02 2.94500E+01 0.00000E+00
 -1       131 1.50000E+02 3.24000E+01 0.00000E+00
 -1       132 1.50000E+02 3.53000E+01 0.00000E+00
 -1       133 1.50000E+02 3.82500E+01 0.00000E+00
 -1       134 1.50000E+02 4.12000E+01 0.00000E+00
 -1       135 1.50000E+02 4.41500E+01 0.00000E+00
 -1       136 1.50000E+02 4.71000E+01 0.00000E+00
 -1       137 6.08289E+01 1.97761E+01 0.00000E+00
 -1       138 6.03562E+01 1.83338E+01 0.00000E+00
 -1       139 5.96029E+01 1.70532E+01 0.00000E+00
 -1       140 5.85512E+01 1.59211E+01 0.00000E+00
 -1       141 5.73403E+01 1.50817E+01 0.00000E+00
 -1       142 5.59955E+01 1.45188E+01 0.00000E+00
 -1       143 5.44424E+01 1.42377E+01 0.00000E+00
 -1       144 5.30137E+01 1.42894E+01 0.00000E+00
 -1       145 5.13905E+01 1.47189E+01 0.00000E+00
 -1       146 4.99742E+01 1.54818E+01 0.00000E+00
 -1       147 4.87778E+01 1.65386E+01 0.00000E+00
 -1       148 4.78719E+01 1.78030E+01 0.00000E+00
 -1       149 4.73189E+01 1.90705E+01 0.00000E+00
 -1       150 4.70079E+01 2.05975E+01 0.00000E+00
 -1       151 4.70288E+01 2.20479E+01 0.00000E+00
 -1       152 4.73747E+01 2.35398E+01 0.00000E+00
 -1       153 4.80143E+01 2.48845E+01 0.00000E+00
 -1       154 4.89095E+01 2.60484E+01 0.00000E+00
 -1       155 5.01160E+01 2.70593E+01 0.00000E+00
 -1       156 5.13722E+01 2.77185E+01 0.00000E+00
 -1       157 5.27807E+01 2.81189E+01 0.00000E+00
 -1       158 5.42489E+01 2.82172E+01 0.00000E+00
 -1       159 5.58162E+01 2.79772E+01 0.00000E+00
 -1       160 5.84483E+01 2.66107E+01 0.00000E+00
 -1       161 5.95209E+01 2.55000E+01 0.00000E+00
 -1       162 6.03245E+01 2.41799E+01 0.00000E+00
 -1       163 6.08283E+01 2.26715E+01 0.00000E+00
 -1       164 2.59800E+00 4.55750E+01 0.00000E+00
 -1       165 2.59800E+00 4.26250E+01 0.00000E+00
 -1       166 2.59800E+00 3.96750E+01 0.00000E+00
 -1       167 2.59800E+00 3.67250E+01 0.00000E+00
 -1       168 2.59800E+00 3.38250E+01 0.00000E+00
 -1       169 2.59800E+00 3.08750E+01 0.00000E+00
 -1       170 2.59800E+00 2.79250E+01 0.00000E+00
 -1       171 2.59800E+00 2.49750E+01 0.00000E+00
 -1       172 2.59800E+00 2.20250E+01 0.00000E+00
 -1       173 2.59800E+00 1.90750E+01 0.00000E+00
 -1       174 2.59800E+00 1.61750E+01 0.00000E+00
 -1       175 2.59800E+00 1.32250E+01 0.00000E+00
 -1       176 2.59800E+00 1.02750E+01 0.00000E+00
 -1       177 2.59800E+00 7.32500E+00 0.00000E+00
 -1       178 2.59800E+00 4.37500E+00 0.00000E+00
 -1       179 2.87400E+00 2.18750E+00 0.00000E+00
 -1       180 4.65000E+00 4.74020E+01 0.00000E+00
 -1       181 7.65000E+00 4.74020E+01 0.00000E+00
 -1       182 1.06500E+01 4.74020E+01 0.00000E+00
 -1       183 1.36500E+01 4.74020E+01 0.00000E+00
 -1       184 1.66500E+01 4.74020E+01 0.00000E+00
 -1       185 1.96500E+01 4.74020E+01 0.00000E+00
 -1       186 2.26500E+01 4.74020E+01 0.00000E+00
 -1       187 2.56500E+01 4.74020E+01 0.00000E+00
 -1       188 2.86500E+01 4.74020E+01 0.00000E+00
 -1       189 3.16500E+01 4.74020E+01 0.00000E+00
 -1       190 3.46500E+01 4.74020E+01 0.00000E+00
 -1       191 3.76500E+01 4.74020E+01 0.00000E+00
 -1       192 4.06500E+01 4.74020E+01 0.00000E+00
 -1       193 4.36500E+01 4.74020E+01 0.00000E+00
 -1       194 4.66500E+01 4.74020E+01 0.00000E+00
 -1       195 4.96500E+01 4.74020E+01 0.00000E+00
 -1       196 5.26500E+01 4.74020E+01 0.00000E+00
 -1       197 5.56500E+01 4.74020E+01 0.00000E+00
 -1       198 5.86500E+01 4.74020E+01 0.00000E+00
 -1       199 6.16500E+01 4.74020E+01 0.00000E+00
 -1       200 6.46500E+01 4.74020E+01 0.00000E+00
 -1       201 6.76500E+01 4.74020E+01 0.00000E+00
 -1       202 7.06500E+01 4.74020E+01 0.00000E+00
 -1       203 7.36500E+01 4.74020E+01 0.00000E+00
 -1       204 7.66500E+01 4.74020E+01 0.00000E+00
 -1       205 7.96500E+01 4.74020E+01 0.00000E+00
 -1       206 8.26500E+01 4.74020E+01 0.00000E+00
 -1       207 8.56500E+01 4.74020E+01 0.00000E+00
 -1       208 8.86500E+01 4.74020E+01 0.00000E+00
 -1       209 9.16500E+01 4.74020E+01 0.00000E+00
 -1       210 9.46500E+01 4.74020E+01 0.00000E+00
 -1       211 9.76500E+01 4.74020E+01 0.00000E+00
 -1       212 1.00650E+02 4.74020E+01 0.00000E+00
 -1       213 1.03650E+02 4.74020E+01 0.00000E+00
 -1       214 1.06650E+02 4.74020E+01 0.00000E+00
 -1       215 1.09650E+02 4.74020E+01 0.00000E+00
 -1       216 1.12650E+02 4.74020E+01 0.00000E+00
 -1       217 1.15650E+02 4.74020E+01 0.00000E+00
 -1       218 1.18650E+02 4.74020E+01 0.00000E+00
 -1       219 1.21650E+02 4.74020E+01 0.00000E+00
 -1       220 1.24650E+02 4.74020E+01 0.00000E+00
 -1       221 1.27650E+02 4.74020E+01 0.00000E+00
 -1       222 1.30650E+02 4.74020E+01 0.00000E+00
 -1       223 1.33650E+02 4.74020E+01 0.00000E+00
 -1       224 1.36650E+02 4.74020E+01 0.00000E+00
 -1       225 1.39650E+02 4.74020E+01 0.00000E+00
 -1       226 1.42650E+02 4.74020E+01 0.00000E+00
 -1       227 1.45650E+02 4.74020E+01 0.00000E+00
 -1       228 5.87400E+00 2.18750E+00 0.00000E+00
 -1       229 8.87400E+00 2.18750E+00 0.00000E+00
 -1       230 1.18740E+01 2.18750E+00 0.00000E+00
 -1       231 1.48740E+01 2.18750E+00 0.00000E+00
 -1       232 1.78740E+01 2.18750E+00 0.00000E+00
 -1       233 2.08740E+01 2.18750E+00 0.00000E+00
 -1       234 2.38740E+01 2.18750E+00 0.00000E+00
 -1       235 2.68740E+01 2.18750E+00 0.00000E+00
 -1       236 2.98740E+01 2.18750E+00 0.00000E+00
 -1       237 3.28740E+01 2.18750E+00 0.00000E+00
 -1       238 3.58740E+01 2.18750E+00 0.00000E+00
 -1       239 3.88740E+01 2.18750E+00 0.00000E+00
 -1       240 4.18740E+01 2.18750E+00 0.00000E+00
 -1       241 4.48740E+01 2.18750E+00 0.00000E+00
 -1       242 4.78740E+01 2.18750E+00 0.00000E+00
 -1       243 5.08740E+01 2.18750E+00 0.00000E+00
 -1       244 5.38740E+01 2.18750E+00 0.00000E+00
 -1       245 5.68740E+01 2.18750E+00 0.00000E+00
 -1       246 5.98740E+01 2.18750E+00 0.00000E+00
 -1       247 6.28740E+01 2.18750E+00 0.00000E+00
 -1       248 6.58740E+01 2.18750E+00 0.00000E+00
 -1       249 6.88740E+01 2.18750E+00 0.00000E+00
 -1       250 7.18740E+01 2.18750E+00 0.00000E+00
 -1       251 7.48740E+01 2.18750E+00 0.00000E+00
 -1       252 7.78740E+01 2.18750E+00 0.00000E+00
 -1       253 8.08740E+01 2.18750E+00 0.00000E+00
 -1       254 8.38740E+01 2.18750E+00 0.00000E+00
 -1       255 8.68740E+01 2.18750E+00 0.00000E+00
 -1       256 8.98740E+01 2.18750E+00 0.00000E+00
 -1       257 9.28740E+01 2.18750E+00 0.00000E+00
 -1       258 9.58740E+01 2.18750E+00 0.00000E+00
 -1       259 9.88740E+01 2.18750E+00 0.00000E+00
 -1       260 1.01874E+02 2.18750E+00 0.00000E+00
 -1       261 1.04874E+02 2.18750E+00 0.00000E+00
 -1       262 1.07874E+02 2.18750E+00 0.00000E+00
 -1       263 1.10874E+02 2.18750E+00 0.00000E+00
 -1       264 1.13874E+02 2.18750E+00 0.00000E+00
 -1       265 1.16874E+02 2.18750E+00 0.00000E+00
 -1       266 1.19874E+02 2.18750E+00 0.00000E+00
 -1       267 1.22874E+02 2.18750E+00 0.00000E+00
 -1       268 1.25874E+02 2.18750E+00 0.00000E+00
 -1       269 1.28874E+02 2.18750E+00 0.00000E+00
 -1       270 1.31874E+02 2.18750E+00 0.00000E+00
 -1       271 1.34874E+02 2.18750E+00 0.00000E+00
 -1       272 1.37874E+02 2.18750E+00 0.00000E+00
 -1       273 1.40874E+02 2.18750E+00 0.00000E+00
 -1       274 1.43874E+02 2.18750E+00 0.00000E+00
 -1       275 1.46874E+02 2.18750E+00 0.00000E+00
 -1       276 1.47402E+02 4.42500E+00 0.00000E+00
 -1       277 1.47402E+02 7.37500E+00 0.00000E+00
 -1       278 1.47402E+02 1.03250E+01 0.00000E+00
 -1       279 1.47402E+02 1.32750E+01 0.00000E+00
 -1       280 1.47402E+02 1.61750E+01 0.00000E+00
 -1       281 1.47402E+02 1.91250E+01 0.00000E+00
 -1       282 1.47402E+02 2.20750E+01 0.00000E+00
 -1       283 1.47402E+02 2.50250E+01 0.00000E+00
 -1       284 1.47402E+02 2.79750E+01 0.00000E+00
 -1       285 1.47402E+02 3.09250E+01 0.00000E+00
 -1       286 1.47402E+02 3.38250E+01 0.00000E+00
 -1       287 1.47402E+02 3.67750E+01 0.00000E+00
 -1       288 1.47402E+02 3.97250E+01 0.00000E+00
 -1       289 1.47402E+02 4.26750E+01 0.00000E+00
 -1       290 1.46526E+02 4.50385E+01 0.00000E+00
 -1       291 6.21103E+01 2.03733E+01 0.00000E+00
 -1       292 6.19039E+01 1.86251E+01 0.00000E+00
 -1       293 6.10968E+01 1.70364E+01 0.00000E+00
 -1       294 6.01495E+01 1.54909E+01 0.00000E+00
 -1       295 5.86365E+01 1.45050E+01 0.00000E+00
 -1       296 5.71360E+01 1.36819E+01 0.00000E+00
 -1       297 5.54498E+01 1.31028E+01 0.00000E+00
 -1       298 5.36842E+01 1.30519E+01 0.00000E+00
 -1       299 5.17633E+01 1.28461E+01 0.00000E+00
 -1       300 4.99485E+01 1.37379E+01 0.00000E+00
 -1       301 4.83515E+01 1.48504E+01 0.00000E+00
 -1       302 4.70669E+01 1.62695E+01 0.00000E+00
 -1       303 4.64074E+01 1.79184E+01 0.00000E+00
 -1       304 4.57291E+01 1.95419E+01 0.00000E+00
 -1       305 4.57223E+01 2.13414E+01 0.00000E+00
 -1       306 4.58574E+01 2.31056E+01 0.00000E+00
 -1       307 4.64484E+01 2.48049E+01 0.00000E+00
 -1       308 4.75009E+01 2.62056E+01 0.00000E+00
 -1       309 4.86265E+01 2.76116E+01 0.00000E+00
 -1       310 5.01808E+01 2.84625E+01 0.00000E+00
 -1       311 5.17221E+01 2.91655E+01 0.00000E+00
 -1       312 5.34282E+01 2.94613E+01 0.00000E+00
 -1       313 5.52414E+01 2.94613E+01 0.00000E+00
 -1       314 5.69923E+01 2.89085E+01 0.00000E+00
 -1       315 5.85069E+01 2.80279E+01 0.00000E+00
 -1       316 5.99169E+01 2.69558E+01 0.00000E+00
 -1       317 6.09583E+01 2.54704E+01 0.00000E+00
 -1       318 6.18853E+01 2.38629E+01 0.00000E+00
 -1       319 6.21100E+01 2.20731E+01 0.00000E+00
 -1       320 5.19600E+00 4.11500E+01 0.00000E+00
 -1       321 5.19600E+00 4.41000E+01 0.00000E+00
 -1       322 5.19600E+00 3.52750E+01 0.00000E+00
 -1       323 5.19600E+00 3.23250E+01 0.00000E+00
 -1       324 5.19600E+00 2.93750E+01 0.00000E+00
 -1       325 5.19600E+00 2.64250E+01 0.00000E+00
 -1       326 5.19600E+00 2.34750E+01 0.00000E+00
 -1       327 5.19600E+00 2.05250E+01 0.00000E+00
 -1       328 5.19600E+00 1.76250E+01 0.00000E+00
 -1       329 5.19600E+00 1.46750E+01 0.00000E+00
 -1       330 5.19600E+00 1.17250E+01 0.00000E+00
 -1       331 5.19600E+00 8.77500E+00 0.00000E+00
 -1       332 5.19600E+00 5.82500E+00 0.00000E+00
 -1       333 5.53500E+00 4.00625E+00 0.00000E+00
 -1       334 8.53500E+00 4.00625E+00 0.00000E+00
 -1       335 9.15000E+00 4.48040E+01 0.00000E+00
 -1       336 1.21500E+01 4.48040E+01 0.00000E+00
 -1       337 1.51500E+01 4.48040E+01 0.00000E+00
 -1       338 1.81500E+01 4.48040E+01 0.00000E+00
 -1       339 2.11500E+01 4.48040E+01 0.00000E+00
 -1       340 2.41500E+01 4.48040E+01 0.00000E+00
 -1       341 2.71500E+01 4.48040E+01 0.00000E+00
 -1       342 3.01500E+01 4.48040E+01 0.00000E+00
 -1       343 3.31500E+01 4.48040E+01 0.00000E+00
 -1       344 3.61500E+01 4.48040E+01 0.00000E+00
 -1       345 3.91500E+01 4.48040E+01 0.00000E+00
 -1       346 4.21500E+01 4.48040E+01 0.00000E+00
 -1       347 4.51500E+01 4.48040E+01 0.00000E+00
 -1       348 4.81500E+01 4.48040E+01 0.00000E+00
 -1       349 5.11500E+01 4.48040E+01 0.00000E+00
 -1       350 5.41500E+01 4.48040E+01 0.00000E+00
 -1       351 5.71500E+01 4.48040E+01 0.00000E+00
 -1       352 6.01500E+01 4.48040E+01 0.00000E+00
 -1       353 6.31500E+01 4.48040E+01 0.00000E+00
 -1       354 6.61500E+01 4.48040E+01 0.00000E+00
 -1       355 6.91500E+01 4.48040E+01 0.00000E+00
 -1       356 7.21500E+01 4.48040E+01 0.00000E+00
 -1       357 7.51500E+01 4.48040E+01 0.00000E+00
 -1       358 7.81500E+01 4.48040E+01 0.00000E+00
 -1       359 8.11500E+01 4.48040E+01 0.00000E+00
 -1       360 8.41500E+01 4.48040E+01 0.00000E+00
 -1       361 8.71500E+01 4.48040E+01 0.00000E+00
 -1       362 9.01500E+01 4.48040E+01 0.00000E+00
 -1       363 9.31500E+01 4.48040E+01 0.00000E+00
 -1       364 9.61500E+01 4.48040E+01 0.00000E+00
 -1       365 9.91500E+01 4.48040E+01 0.00000E+00
 -1       366 1.02150E+02 4.48040E+01 0.00000E+00
 -1       367 1.05150E+02 4.48040E+01 0.00000E+00
 -1       368 1.08150E+02 4.48040E+01 0.00000E+00
 -1       369 1.11150E+02 4.48040E+01 0.00000E+00
 -1       370 1.14150E+02 4.48040E+01 0.00000E+00
 -1       371 1.17150E+02 4.48040E+01 0.00000E+00
 -1       372 1.20150E+02 4.48040E+01 0.00000E+00
 -1       373 1.23150E+02 4.48040E+01 0.00000E+00
 -1       374 1.26150E+02 4.48040E+01 0.00000E+00
 -1       375 1.29150E+02 4.48040E+01 0.00000E+00
 -1       376 1.32150E+02 4.48040E+01 0.00000E+00
 -1       377 1.35150E+02 4.48040E+01 0.00000E+00
 -1       378 1.38150E+02 4.48040E+01 0.00000E+00
 -1       379 1.41150E+02 4.48040E+01 0.00000E+00
 -1       380 1.43838E+02 4.49212E+01 0.00000E+00
 -1       381 1.15350E+01 4.00625E+00 0.00000E+00
 -1       382 1.45350E+01 4.00625E+00 0.00000E+00
 -1       383 1.75350E+01 4.00625E+00 0.00000E+00
 -1       384 2.05350E+01 4.00625E+00 0.00000E+00
 -1       385 2.35350E+01 4.00625E+00 0.00000E+00
 -1       386 2.65350E+01 4.00625E+00 0.00000E+00
 -1       387 2.95350E+01 4.00625E+00 0.00000E+00
 -1       388 3.25350E+01 4.00625E+00 0.00000E+00
 -1       389 3.55350E+01 4.00625E+00 0.00000E+00
 -1       390 3.85350E+01 4.00625E+00 0.00000E+00
 -1       391 4.15350E+01 4.00625E+00 0.00000E+00
 -1       392 4.45350E+01 4.00625E+00 0.00000E+00
 -1       393 4.75350E+01 4.00625E+00 0.00000E+00
 -1       394 5.05350E+01 4.00625E+00 0.00000E+00
 -1       395 5.35350E+01 4.00625E+00 0.00000E+00
 -1       396 5.65350E+01 4.00625E+00 0.00000E+00
 -1       397 5.95350E+01 4.00625E+00 0.00000E+00
 -1       398 6.25350E+01 4.00625E+00 0.00000E+00
 -1       399 6.55350E+01 4.00625E+00 0.00000E+00
 -1       400 6.85350E+01 4.00625E+00 0.00000E+00
 -1       401 7.15350E+01 4.00625E+00 0.00000E+00
 -1       402 7.45350E+01 4.00625E+00 0.00000E+00
 -1       403 7.75350E+01 4.00625E+00 0.00000E+00
 -1       404 8.05350E+01 4.00625E+00 0.00000E+00
 -1       405 8.35350E+01 4.00625E+00 0.00000E+00
 -1       406 8.65350E+01 4.00625E+00 0.00000E+00
 -1       407 8.95350E+01 4.00625E+00 0.00000E+00
 -1       408 9.25350E+01 4.00625E+00 0.00000E+00
 -1       409 9.55350E+01 4.00625E+00 0.00000E+00
 -1       410 9.85350E+01 4.00625E+00 0.00000E+00
 -1       411 1.01535E+02 4.00625E+00 0.00000E+00
 -1       412 1.04535E+02 4.00625E+00 0.00000E+00
 -1       413 1.07535E+02 4.00625E+00 0.00000E+00
 -1       414 1.10535E+02 4.00625E+00 0.00000E+00
 -1       415 1.13535E+02 4.00625E+00 0.00000E+00
 -1       416 1.16535E+02 4.00625E+00 0.00000E+00
 -1       417 1.19535E+02 4.00625E+00 0.00000E+00
 -1       418 1.22535E+02 4.00625E+00 0.00000E+00
 -1       419 1.25535E+02 4.00625E+00 0.00000E+00
 -1       420 1.28535E+02 4.00625E+00 0.00000E+00
 -1       421 1.31535E+02 4.00625E+00 0.00000E+00
 -1       422 1.34535E+02 4.00625E+00 0.00000E+00
 -1       423 1.37535E+02 4.00625E+00 0.00000E+00
 -1       424 1.40535E+02 4.00625E+00 0.00000E+00
 -1       425 1.43535E+02 4.00625E+00 0.00000E+00
 -1       426 1.45469E+02 4.21562E+00 0.00000E+00
 -1       427 1.44804E+02 1.18000E+01 0.00000E+00
 -1       428 1.44804E+02 8.85000E+00 0.00000E+00
 -1       429 1.45136E+02 6.53281E+00 0.00000E+00
 -1       430 1.44804E+02 1.47000E+01 0.00000E+00
 -1       431 1.44804E+02 1.76500E+01 0.00000E+00
 -1       432 1.44804E+02 2.06000E+01 0.00000E+00
 -1       433 1.44804E+02 2.35500E+01 0.00000E+00
 -1       434 1.44804E+02 2.65000E+01 0.00000E+00
 -1       435 1.44804E+02 2.94500E+01 0.00000E+00
 -1       436 1.44804E+02 3.23500E+01 0.00000E+00
 -1       437 1.44804E+02 3.53000E+01 0.00000E+00
 -1       438 1.44804E+02 3.82500E+01 0.00000E+00
 -1       439 1.44804E+02 4.12000E+01 0.00000E+00
 -1       440 6.26560E+01 1.72437E+01 0.00000E+00
 -1       441 6.34901E+01 2.12234E+01 0.00000E+00
 -1       442 6.35439E+01 1.93177E+01 0.00000E+00
 -1       443 6.19425E+01 1.54549E+01 0.00000E+00
 -1       444 6.03293E+01 1.35610E+01 0.00000E+00
 -1       445 5.19600E+00 3.82125E+01 0.00000E+00
 -1       446 5.67412E+01 1.20872E+01 0.00000E+00
 -1       447 5.46068E+01 1.16979E+01 0.00000E+00
 -1       448 5.26859E+01 1.14921E+01 0.00000E+00
 -1       449 5.00995E+01 1.17527E+01 0.00000E+00
 -1       450 4.82175E+01 1.29556E+01 0.00000E+00
 -1       451 4.66240E+01 1.45776E+01 0.00000E+00
 -1       452 4.53003E+01 1.65193E+01 0.00000E+00
 -1       453 4.46220E+01 1.81427E+01 0.00000E+00
 -1       454 4.44295E+01 2.04367E+01 0.00000E+00
 -1       455 4.44139E+01 2.23289E+01 0.00000E+00
 -1       456 4.49286E+01 2.43809E+01 0.00000E+00
 -1       457 4.59384E+01 2.62839E+01 0.00000E+00
 -1       458 4.69210E+01 2.78234E+01 0.00000E+00
 -1       459 4.85800E+01 2.95415E+01 0.00000E+00
 -1       460 5.01214E+01 3.02445E+01 0.00000E+00
 -1       461 5.23107E+01 3.08382E+01 0.00000E+00
 -1       462 5.43348E+01 3.11764E+01 0.00000E+00
 -1       463 5.67341E+01 3.11400E+01 0.00000E+00
 -1       464 5.84853E+01 2.97336E+01 0.00000E+00
 -1       465 6.00471E+01 2.85904E+01 0.00000E+00
 -1       466 6.17048E+01 2.71015E+01 0.00000E+00
 -1       467 6.26318E+01 2.54939E+01 0.00000E+00
 -1       468 6.32837E+01 2.31294E+01 0.00000E+00
 -1       469 5.88289E+01 1.27378E+01 0.00000E+00
 -1       470 6.40302E+01 2.47605E+01 0.00000E+00
 -1       471 5.10221E+01 1.03987E+01 0.00000E+00
 -1       472 1.00350E+01 6.60425E+00 0.00000E+00
 -1       473 7.79400E+00 3.08500E+01 0.00000E+00
 -1       474 7.79400E+00 3.38000E+01 0.00000E+00
 -1       475 7.79400E+00 2.49500E+01 0.00000E+00
 -1       476 7.79400E+00 2.20000E+01 0.00000E+00
 -1       477 7.79400E+00 1.91000E+01 0.00000E+00
 -1       478 7.79400E+00 1.61500E+01 0.00000E+00
 -1       479 7.79400E+00 1.32000E+01 0.00000E+00
 -1       480 7.79400E+00 1.02500E+01 0.00000E+00
 -1       481 6.25692E+01 1.32871E+01 0.00000E+00
 -1       482 1.30350E+01 6.60425E+00 0.00000E+00
 -1       483 1.06500E+01 4.22060E+01 0.00000E+00
 -1       484 5.82455E+01 1.09351E+01 0.00000E+00
 -1       485 1.36500E+01 4.22060E+01 0.00000E+00
 -1       486 1.66500E+01 4.22060E+01 0.00000E+00
 -1       487 1.96500E+01 4.22060E+01 0.00000E+00
 -1       488 2.26500E+01 4.22060E+01 0.00000E+00
 -1       489 2.56500E+01 4.22060E+01 0.00000E+00
 -1       490 2.86500E+01 4.22060E+01 0.00000E+00
 -1       491 3.16500E+01 4.22060E+01 0.00000E+00
 -1       492 3.46500E+01 4.22060E+01 0.00000E+00
 -1       493 3.76500E+01 4.22060E+01 0.00000E+00
 -1       494 4.06500E+01 4.22060E+01 0.00000E+00
 -1       495 4.36500E+01 4.22060E+01 0.00000E+00
 -1       496 4.66500E+01 4.22060E+01 0.00000E+00
 -1       497 4.96500E+01 4.22060E+01 0.00000E+00
 -1       498 5.26500E+01 4.22060E+01 0.00000E+00
 -1       499 5.56500E+01 4.22060E+01 0.00000E+00
 -1       500 5.86500E+01 4.22060E+01 0.00000E+00
 -1       501 6.16500E+01 4.22060E+01 0.00000E+00
 -1       502 6.46500E+01 4.22060E+01 0.00000E+00
 -1       503 6.76500E+01 4.22060E+01 0.00000E+00
 -1       504 7.06500E+01 4.22060E+01 0.00000E+00
 -1       505 7.36500E+01 4.22060E+01 0.00000E+00
 -1       506 7.66500E+01 4.22060E+01 0.00000E+00
 -1       507 7.96500E+01 4.22060E+01 0.00000E+00
 -1       508 8.26500E+01 4.22060E+01 0.00000E+00
 -1       509 8.56500E+01 4.22060E+01 0.00000E+00
 -1       510 8.86500E+01 4.22060E+01 0.00000E+00
 -1       511 9.16500E+01 4.22060E+01 0.00000E+00
 -1       512 9.46500E+01 4.22060E+01 0.00000E+00
 -1       513 9.76500E+01 4.22060E+01 0.00000E+00
 -1       514 1.00650E+02 4.22060E+01 0.00000E+00
 -1       515 1.03650E+02 4.22060E+01 0.00000E+00
 -1       516 1.06650E+02 4.22060E+01 0.00000E+00
 -1       517 1.09650E+02 4.22060E+01 0.00000E+00
 -1       518 1.12650E+02 4.22060E+01 0.00000E+00
 -1       519 1.15650E+02 4.22060E+01 0.00000E+00
 -1       520 1.18650E+02 4.22060E+01 0.00000E+00
 -1       521 1.21650E+02 4.22060E+01 0.00000E+00
 -1       522 1.24650E+02 4.22060E+01 0.00000E+00
 -1       523 1.27650E+02 4.22060E+01 0.00000E+00
 -1       524 1.30650E+02 4.22060E+01 0.00000E+00
 -1       525 1.33650E+02 4.22060E+01 0.00000E+00
 -1       526 1.36650E+02 4.22060E+01 0.00000E+00
 -1       527 1.39650E+02 4.22060E+01 0.00000E+00
 -1       528 1.90350E+01 6.60425E+00 0.00000E+00
 -1       529 2.20350E+01 6.60425E+00 0.00000E+00
 -1       530 2.50350E+01 6.60425E+00 0.00000E+00
 -1       531 2.80350E+01 6.60425E+00 0.00000E+00
 -1       532 3.10350E+01 6.60425E+00 0.00000E+00
 -1       533 3.40350E+01 6.60425E+00 0.00000E+00
 -1       534 3.70350E+01 6.60425E+00 0.00000E+00
 -1       535 4.00350E+01 6.60425E+00 0.00000E+00
 -1       536 4.30350E+01 6.60425E+00 0.00000E+00
 -1       537 4.60350E+01 6.60425E+00 0.00000E+00
 -1       538 4.90350E+01 6.60425E+00 0.00000E+00
 -1       539 5.20350E+01 6.60425E+00 0.00000E+00
 -1       540 5.50350E+01 6.60425E+00 0.00000E+00
 -1       541 5.80350E+01 6.60425E+00 0.00000E+00
 -1       542 6.10350E+01 6.60425E+00 0.00000E+00
 -1       543 6.40350E+01 6.60425E+00 0.00000E+00
 -1       544 6.70350E+01 6.60425E+00 0.00000E+00
 -1       545 7.00350E+01 6.60425E+00 0.00000E+00
 -1       546 7.30350E+01 6.60425E+00 0.00000E+00
 -1       547 7.60350E+01 6.60425E+00 0.00000E+00
 -1       548 7.90350E+01 6.60425E+00 0.00000E+00
 -1       549 8.20350E+01 6.60425E+00 0.00000E+00
 -1       550 8.50350E+01 6.60425E+00 0.00000E+00
 -1       551 8.80350E+01 6.60425E+00 0.00000E+00
 -1       552 9.10350E+01 6.60425E+00 0.00000E+00
 -1       553 9.40350E+01 6.60425E+00 0.00000E+00
 -1       554 9.70350E+01 6.60425E+00 0.00000E+00
 -1       555 1.00035E+02 6.60425E+00 0.00000E+00
 -1       556 1.03035E+02 6.60425E+00 0.00000E+00
 -1       557 1.06035E+02 6.60425E+00 0.00000E+00
 -1       558 1.09035E+02 6.60425E+00 0.00000E+00
 -1       559 1.12035E+02 6.60425E+00 0.00000E+00
 -1       560 1.15035E+02 6.60425E+00 0.00000E+00
 -1       561 1.18035E+02 6.60425E+00 0.00000E+00
 -1       562 1.21035E+02 6.60425E+00 0.00000E+00
 -1       563 1.24035E+02 6.60425E+00 0.00000E+00
 -1       564 1.27035E+02 6.60425E+00 0.00000E+00
 -1       565 1.30035E+02 6.60425E+00 0.00000E+00
 -1       566 1.33035E+02 6.60425E+00 0.00000E+00
 -1       567 1.36035E+02 6.60425E+00 0.00000E+00
 -1       568 1.39035E+02 6.60425E+00 0.00000E+00
 -1       569 1.42035E+02 6.60425E+00 0.00000E+00
 -1       570 1.42206E+02 1.61750E+01 0.00000E+00
 -1       571 1.42206E+02 1.91250E+01 0.00000E+00
 -1       572 1.42206E+02 1.03250E+01 0.00000E+00
 -1       573 1.42206E+02 1.32500E+01 0.00000E+00
 -1       574 1.42206E+02 2.20750E+01 0.00000E+00
 -1       575 1.42206E+02 2.50250E+01 0.00000E+00
 -1       576 1.42206E+02 2.79750E+01 0.00000E+00
 -1       577 1.42206E+02 3.08750E+01 0.00000E+00
 -1       578 1.42206E+02 3.38250E+01 0.00000E+00
 -1       579 1.42206E+02 3.67750E+01 0.00000E+00
 -1       580 1.42206E+02 3.97250E+01 0.00000E+00
 -1       581 6.50639E+01 2.03143E+01 0.00000E+00
 -1       582 6.37367E+01 1.57760E+01 0.00000E+00
 -1       583 1.60350E+01 6.60425E+00 0.00000E+00
 -1       584 6.48576E+01 2.22203E+01 0.00000E+00
 -1       585 6.46246E+01 1.78500E+01 0.00000E+00
 -1       586 7.92300E+00 4.16780E+01 0.00000E+00
 -1       587 6.18540E+01 2.89349E+01 0.00000E+00
 -1       588 4.65770E+01 2.98156E+01 0.00000E+00
 -1       589 4.46142E+01 1.46295E+01 0.00000E+00
 -1       590 7.79400E+00 2.79000E+01 0.00000E+00
 -1       591 5.59816E+01 1.02053E+01 0.00000E+00
 -1       592 4.81446E+01 1.07678E+01 0.00000E+00
 -1       593 5.38112E+01 1.00563E+01 0.00000E+00
 -1       594 4.27067E+01 2.13687E+01 0.00000E+00
 -1       595 4.63168E+01 1.26821E+01 0.00000E+00
 -1       596 4.33786E+01 1.66698E+01 0.00000E+00
 -1       597 5.30401E+01 3.26990E+01 0.00000E+00
 -1       598 4.28991E+01 1.90747E+01 0.00000E+00
 -1       599 4.33328E+01 2.36906E+01 0.00000E+00
 -1       600 4.36224E+01 2.62934E+01 0.00000E+00
 -1       601 4.50997E+01 2.80545E+01 0.00000E+00
 -1       602 4.86390E+01 3.14534E+01 0.00000E+00
 -1       603 5.07672E+01 3.21967E+01 0.00000E+00
 -1       604 5.55605E+01 3.28731E+01 0.00000E+00
 -1       605 5.87886E+01 3.19047E+01 0.00000E+00
 -1       606 6.03504E+01 3.07615E+01 0.00000E+00
 -1       607 6.36541E+01 2.71545E+01 0.00000E+00
 -1       608 6.03637E+01 1.17191E+01 0.00000E+00
 -1       609 7.61550E+00 6.21462E+00 0.00000E+00
 -1       610 7.79400E+00 3.67375E+01 0.00000E+00
 -1       611 6.56041E+01 2.38513E+01 0.00000E+00
 -1       612 5.76150E+01 3.36378E+01 0.00000E+00
 -1       613 4.90672E+01 9.41383E+00 0.00000E+00
 -1       614 1.41678E+02 4.22645E+01 0.00000E+00
 -1       615 1.03920E+01 2.05500E+01 0.00000E+00
 -1       616 1.03920E+01 2.35000E+01 0.00000E+00
 -1       617 1.03920E+01 1.46750E+01 0.00000E+00
 -1       618 1.03920E+01 1.17250E+01 0.00000E+00
 -1       619 1.39206E+02 1.03250E+01 0.00000E+00
 -1       620 6.24264E+01 3.09382E+01 0.00000E+00
 -1       621 1.51500E+01 3.96080E+01 0.00000E+00
 -1       622 1.81500E+01 3.96080E+01 0.00000E+00
 -1       623 2.11500E+01 3.96080E+01 0.00000E+00
 -1       624 2.41500E+01 3.96080E+01 0.00000E+00
 -1       625 2.71500E+01 3.96080E+01 0.00000E+00
 -1       626 3.01500E+01 3.96080E+01 0.00000E+00
 -1       627 3.31500E+01 3.96080E+01 0.00000E+00
 -1       628 3.61500E+01 3.96080E+01 0.00000E+00
 -1       629 3.91500E+01 3.96080E+01 0.00000E+00
 -1       630 4.21500E+01 3.96080E+01 0.00000E+00
 -1       631 4.51500E+01 3.96080E+01 0.00000E+00
 -1       632 4.81500E+01 3.96080E+01 0.00000E+00
 -1       633 5.11500E+01 3.96080E+01 0.00000E+00
 -1       634 5.41500E+01 3.96080E+01 0.00000E+00
 -1       635 5.71500E+01 3.96080E+01 0.00000E+00
 -1       636 6.01500E+01 3.96080E+01 0.00000E+00
 -1       637 6.31500E+01 3.96080E+01 0.00000E+00
 -1       638 6.61500E+01 3.96080E+01 0.00000E+00
 -1       639 6.91500E+01 3.96080E+01 0.00000E+00
 -1       640 7.21500E+01 3.96080E+01 0.00000E+00
 -1       641 7.51500E+01 3.96080E+01 0.00000E+00
 -1       642 7.81500E+01 3.96080E+01 0.00000E+00
 -1       643 8.11500E+01 3.96080E+01 0.00000E+00
 -1       644 8.41500E+01 3.96080E+01 0.00000E+00
 -1       645 8.71500E+01 3.96080E+01 0.00000E+00
 -1       646 9.01500E+01 3.96080E+01 0.00000E+00
 -1       647 9.31500E+01 3.96080E+01 0.00000E+00
 -1       648 9.61500E+01 3.96080E+01 0.00000E+00
 -1       649 9.91500E+01 3.96080E+01 0.00000E+00
 -1       650 1.02150E+02 3.96080E+01 0.00000E+00
 -1       651 1.05150E+02 3.96080E+01 0.00000E+00
 -1       652 1.08150E+02 3.96080E+01 0.00000E+00
 -1       653 1.11150E+02 3.96080E+01 0.00000E+00
 -1       654 1.14150E+02 3.96080E+01 0.00000E+00
 -1       655 1.17150E+02 3.96080E+01 0.00000E+00
 -1       656 1.20150E+02 3.96080E+01 0.00000E+00
 -1       657 1.23150E+02 3.96080E+01 0.00000E+00
 -1       658 1.26150E+02 3.96080E+01 0.00000E+00
 -1       659 1.29150E+02 3.96080E+01 0.00000E+00
 -1       660 1.32150E+02 3.96080E+01 0.00000E+00
 -1       661 1.35150E+02 3.96080E+01 0.00000E+00
 -1       662 1.38150E+02 3.96080E+01 0.00000E+00
 -1       663 2.35350E+01 9.20225E+00 0.00000E+00
 -1       664 6.57020E+01 2.62497E+01 0.00000E+00
 -1       665 5.99000E+01 9.71865E+00 0.00000E+00
 -1       666 2.05350E+01 9.20225E+00 0.00000E+00
 -1       667 2.95350E+01 9.20225E+00 0.00000E+00
 -1       668 3.25350E+01 9.20225E+00 0.00000E+00
 -1       669 3.55350E+01 9.20225E+00 0.00000E+00
 -1       670 3.85350E+01 9.20225E+00 0.00000E+00
 -1       671 4.15350E+01 9.20225E+00 0.00000E+00
 -1       672 4.45350E+01 9.20225E+00 0.00000E+00
 -1       673 6.55350E+01 9.20225E+00 0.00000E+00
 -1       674 6.85350E+01 9.20225E+00 0.00000E+00
 -1       675 7.15350E+01 9.20225E+00 0.00000E+00
 -1       676 7.45350E+01 9.20225E+00 0.00000E+00
 -1       677 7.75350E+01 9.20225E+00 0.00000E+00
 -1       678 8.05350E+01 9.20225E+00 0.00000E+00
 -1       679 8.35350E+01 9.20225E+00 0.00000E+00
 -1       680 8.65350E+01 9.20225E+00 0.00000E+00
 -1       681 8.95350E+01 9.20225E+00 0.00000E+00
 -1       682 9.25350E+01 9.20225E+00 0.00000E+00
 -1       683 9.55350E+01 9.20225E+00 0.00000E+00
 -1       684 9.85350E+01 9.20225E+00 0.00000E+00
 -1       685 1.01535E+02 9.20225E+00 0.00000E+00
 -1       686 1.04535E+02 9.20225E+00 0.00000E+00
 -1       687 1.07535E+02 9.20225E+00 0.00000E+00
 -1       688 1.10535E+02 9.20225E+00 0.00000E+00
 -1       689 1.13535E+02 9.20225E+00 0.00000E+00
 -1       690 1.16535E+02 9.20225E+00 0.00000E+00
 -1       691 1.19535E+02 9.20225E+00 0.00000E+00
 -1       692 1.22535E+02 9.20225E+00 0.00000E+00
 -1       693 1.25535E+02 9.20225E+00 0.00000E+00
 -1       694 1.28535E+02 9.20225E+00 0.00000E+00
 -1       695 1.31535E+02 9.20225E+00 0.00000E+00
 -1       696 1.34535E+02 9.20225E+00 0.00000E+00
 -1       697 1.36870E+02 9.76363E+00 0.00000E+00
 -1       698 1.17135E+01 9.16463E+00 0.00000E+00
 -1       699 1.39608E+02 2.35500E+01 0.00000E+00
 -1       700 1.40178E+02 3.96665E+01 0.00000E+00
 -1       701 1.39608E+02 1.76500E+01 0.00000E+00
 -1       702 1.39608E+02 2.65000E+01 0.00000E+00
 -1       703 1.39608E+02 2.06000E+01 0.00000E+00
 -1       704 6.25573E+01 1.09687E+01 0.00000E+00
 -1       705 1.39608E+02 2.94000E+01 0.00000E+00
 -1       706 1.39608E+02 3.23500E+01 0.00000E+00
 -1       707 1.39608E+02 3.53000E+01 0.00000E+00
 -1       708 4.91376E+01 3.34443E+01 0.00000E+00
 -1       709 9.78035E+00 3.93914E+01 0.00000E+00
 -1       710 6.66659E+01 2.14519E+01 0.00000E+00
 -1       711 6.56803E+01 1.61710E+01 0.00000E+00
 -1       712 4.11773E+01 2.00853E+01 0.00000E+00
 -1       713 5.41878E+01 3.44135E+01 0.00000E+00
 -1       714 4.12020E+01 2.30198E+01 0.00000E+00
 -1       715 1.75350E+01 9.20225E+00 0.00000E+00
 -1       716 2.65350E+01 9.20225E+00 0.00000E+00
 -1       717 1.24652E+01 3.94997E+01 0.00000E+00
 -1       718 4.25294E+01 1.47612E+01 0.00000E+00
 -1       719 6.47057E+01 1.38031E+01 0.00000E+00
 -1       720 4.62285E+01 3.23712E+01 0.00000E+00
 -1       721 1.03920E+01 1.76125E+01 0.00000E+00
 -1       722 4.57479E+01 1.03091E+01 0.00000E+00
 -1       723 1.03920E+01 3.23250E+01 0.00000E+00
 -1       724 5.50081E+01 8.50330E+00 0.00000E+00
 -1       725 5.15335E+01 3.41225E+01 0.00000E+00
 -1       726 4.39220E+01 1.23063E+01 0.00000E+00
 -1       727 4.14916E+01 2.56226E+01 0.00000E+00
 -1       728 1.46243E+01 9.18344E+00 0.00000E+00
 -1       729 5.76398E+01 8.93778E+00 0.00000E+00
 -1       730 4.11282E+01 1.74714E+01 0.00000E+00
 -1       731 6.66978E+01 1.87518E+01 0.00000E+00
 -1       732 6.06815E+01 3.28522E+01 0.00000E+00
 -1       733 6.42264E+01 2.91578E+01 0.00000E+00
 -1       734 1.03920E+01 3.52625E+01 0.00000E+00
 -1       735 1.03920E+01 2.64500E+01 0.00000E+00
 -1       736 6.46938E+01 1.14847E+01 0.00000E+00
 -1       737 6.62743E+01 2.82531E+01 0.00000E+00
 -1       738 1.39608E+02 1.47250E+01 0.00000E+00
 -1       739 5.65350E+01 8.82207E+00 0.00000E+00
 -1       740 5.95079E+01 3.45854E+01 0.00000E+00
 -1       741 4.43960E+01 3.01450E+01 0.00000E+00
 -1       742 5.62423E+01 3.51782E+01 0.00000E+00
 -1       743 1.38879E+02 3.74540E+01 0.00000E+00
 -1       744 1.03920E+01 2.93875E+01 0.00000E+00
 -1       745 4.20420E+01 2.75940E+01 0.00000E+00
 -1       746 4.32190E+01 2.88695E+01 0.00000E+00
 -1       747 1.33027E+01 1.17438E+01 0.00000E+00
 -1       748 1.96500E+01 3.70100E+01 0.00000E+00
 -1       749 2.26500E+01 3.70100E+01 0.00000E+00
 -1       750 2.56500E+01 3.70100E+01 0.00000E+00
 -1       751 2.86500E+01 3.70100E+01 0.00000E+00
 -1       752 3.16500E+01 3.70100E+01 0.00000E+00
 -1       753 3.46500E+01 3.70100E+01 0.00000E+00
 -1       754 3.76500E+01 3.70100E+01 0.00000E+00
 -1       755 4.06500E+01 3.70100E+01 0.00000E+00
 -1       756 4.36500E+01 3.70100E+01 0.00000E+00
 -1       757 4.66500E+01 3.70100E+01 0.00000E+00
 -1       758 4.96500E+01 3.70100E+01 0.00000E+00
 -1       759 5.26500E+01 3.70100E+01 0.00000E+00
 -1       760 6.16500E+01 3.70100E+01 0.00000E+00
 -1       761 6.46500E+01 3.70100E+01 0.00000E+00
 -1       762 6.76500E+01 3.70100E+01 0.00000E+00
 -1       763 7.06500E+01 3.70100E+01 0.00000E+00
 -1       764 7.36500E+01 3.70100E+01 0.00000E+00
 -1       765 7.66500E+01 3.70100E+01 0.00000E+00
 -1       766 7.96500E+01 3.70100E+01 0.00000E+00
 -1       767 8.26500E+01 3.70100E+01 0.00000E+00
 -1       768 8.56500E+01 3.70100E+01 0.00000E+00
 -1       769 8.86500E+01 3.70100E+01 0.00000E+00
 -1       770 9.16500E+01 3.70100E+01 0.00000E+00
 -1       771 9.46500E+01 3.70100E+01 0.00000E+00
 -1       772 9.76500E+01 3.70100E+01 0.00000E+00
 -1       773 1.00650E+02 3.70100E+01 0.00000E+00
 -1       774 1.03650E+02 3.70100E+01 0.00000E+00
 -1       775 1.06650E+02 3.70100E+01 0.00000E+00
 -1       776 1.09650E+02 3.70100E+01 0.00000E+00
 -1       777 1.12650E+02 3.70100E+01 0.00000E+00
 -1       778 1.15650E+02 3.70100E+01 0.00000E+00
 -1       779 1.18650E+02 3.70100E+01 0.00000E+00
 -1       780 1.21650E+02 3.70100E+01 0.00000E+00
 -1       781 1.24650E+02 3.70100E+01 0.00000E+00
 -1       782 1.27650E+02 3.70100E+01 0.00000E+00
 -1       783 1.30650E+02 3.70100E+01 0.00000E+00
 -1       784 1.33650E+02 3.70100E+01 0.00000E+00
 -1       785 1.36264E+02 3.72320E+01 0.00000E+00
 -1       786 3.40350E+01 1.18003E+01 0.00000E+00
 -1       787 3.10350E+01 1.18003E+01 0.00000E+00
 -1       788 4.00350E+01 1.18003E+01 0.00000E+00
 -1       789 7.60350E+01 1.18003E+01 0.00000E+00
 -1       790 7.90350E+01 1.18003E+01 0.00000E+00
 -1       791 8.20350E+01 1.18003E+01 0.00000E+00
 -1       792 8.50350E+01 1.18003E+01 0.00000E+00
 -1       793 8.80350E+01 1.18003E+01 0.00000E+00
 -1       794 9.10350E+01 1.18003E+01 0.00000E+00
 -1       795 9.40350E+01 1.18003E+01 0.00000E+00
 -1       796 9.70350E+01 1.18003E+01 0.00000E+00
 -1       797 1.00035E+02 1.18003E+01 0.00000E+00
 -1       798 1.03035E+02 1.18003E+01 0.00000E+00
 -1       799 1.06035E+02 1.18003E+01 0.00000E+00
 -1       800 1.09035E+02 1.18003E+01 0.00000E+00
 -1       801 1.12035E+02 1.18003E+01 0.00000E+00
 -1       802 1.15035E+02 1.18003E+01 0.00000E+00
 -1       803 1.18035E+02 1.18003E+01 0.00000E+00
 -1       804 1.21035E+02 1.18003E+01 0.00000E+00
 -1       805 1.24035E+02 1.18003E+01 0.00000E+00
 -1       806 1.27035E+02 1.18003E+01 0.00000E+00
 -1       807 1.30035E+02 1.18003E+01 0.00000E+00
 -1       808 1.33035E+02 1.18003E+01 0.00000E+00
 -1       809 1.37010E+02 3.08750E+01 0.00000E+00
 -1       810 1.29900E+01 2.20250E+01 0.00000E+00
 -1       811 3.94757E+01 2.45294E+01 0.00000E+00
 -1       812 1.37010E+02 2.50250E+01 0.00000E+00
 -1       813 4.01564E+01 1.52516E+01 0.00000E+00
 -1       814 1.37010E+02 3.38250E+01 0.00000E+00
 -1       815 1.37010E+02 2.79500E+01 0.00000E+00
 -1       816 6.77016E+01 2.49669E+01 0.00000E+00
 -1       817 1.90350E+01 1.18003E+01 0.00000E+00
 -1       818 4.68575E+01 3.51457E+01 0.00000E+00
 -1       819 3.89353E+01 1.88200E+01 0.00000E+00
 -1       820 6.69340E+01 1.42704E+01 0.00000E+00
 -1       821 4.98228E+01 3.55949E+01 0.00000E+00
 -1       822 6.87634E+01 2.25675E+01 0.00000E+00
 -1       823 7.30350E+01 1.18003E+01 0.00000E+00
 -1       824 6.87953E+01 1.98673E+01 0.00000E+00
 -1       825 7.00350E+01 1.18003E+01 0.00000E+00
 -1       826 3.70350E+01 1.18003E+01 0.00000E+00
 -1       827 4.34706E+01 3.27742E+01 0.00000E+00
 -1       828 6.30691E+01 3.32765E+01 0.00000E+00
 -1       829 3.89600E+01 2.17545E+01 0.00000E+00
 -1       830 2.20350E+01 1.18003E+01 0.00000E+00
 -1       831 3.99535E+01 2.71145E+01 0.00000E+00
 -1       832 6.79514E+01 1.68512E+01 0.00000E+00
 -1       833 6.48691E+01 3.14961E+01 0.00000E+00
 -1       834 1.66500E+01 3.70100E+01 0.00000E+00
 -1       835 1.29900E+01 2.49750E+01 0.00000E+00
 -1       836 6.66203E+01 1.15027E+01 0.00000E+00
 -1       837 1.39652E+01 3.69017E+01 0.00000E+00
 -1       838 6.82739E+01 2.69702E+01 0.00000E+00
 -1       839 1.37010E+02 1.61875E+01 0.00000E+00
 -1       840 5.86500E+01 3.70100E+01 0.00000E+00
 -1       841 2.50350E+01 1.18003E+01 0.00000E+00
 -1       842 2.80350E+01 1.18003E+01 0.00000E+00
 -1       843 1.37010E+02 1.91375E+01 0.00000E+00
 -1       844 1.35370E+02 1.23616E+01 0.00000E+00
 -1       845 4.22936E+01 3.14986E+01 0.00000E+00
 -1       846 1.37010E+02 2.20812E+01 0.00000E+00
 -1       847 6.69171E+01 3.05913E+01 0.00000E+00
 -1       848 1.29900E+01 1.61437E+01 0.00000E+00
 -1       849 3.79635E+01 1.66003E+01 0.00000E+00
 -1       850 1.36940E+02 1.29756E+01 0.00000E+00
 -1       851 1.29900E+01 1.90812E+01 0.00000E+00
 -1       852 4.11236E+01 2.93066E+01 0.00000E+00
 -1       853 1.61689E+01 1.17720E+01 0.00000E+00
 -1       854 1.29900E+01 3.08563E+01 0.00000E+00
 -1       855 1.36637E+02 3.55285E+01 0.00000E+00
 -1       856 1.29900E+01 3.37938E+01 0.00000E+00
 -1       857 2.11500E+01 3.44120E+01 0.00000E+00
 -1       858 3.73669E+01 2.34859E+01 0.00000E+00
 -1       859 2.41500E+01 3.44120E+01 0.00000E+00
 -1       860 2.71500E+01 3.44120E+01 0.00000E+00
 -1       861 3.01500E+01 3.44120E+01 0.00000E+00
 -1       862 3.31500E+01 3.44120E+01 0.00000E+00
 -1       863 3.61500E+01 3.44120E+01 0.00000E+00
 -1       864 3.91500E+01 3.44120E+01 0.00000E+00
 -1       865 6.61500E+01 3.44120E+01 0.00000E+00
 -1       866 6.91500E+01 3.44120E+01 0.00000E+00
 -1       867 7.21500E+01 3.44120E+01 0.00000E+00
 -1       868 7.51500E+01 3.44120E+01 0.00000E+00
 -1       869 7.81500E+01 3.44120E+01 0.00000E+00
 -1       870 8.11500E+01 3.44120E+01 0.00000E+00
 -1       871 8.41500E+01 3.44120E+01 0.00000E+00
 -1       872 8.71500E+01 3.44120E+01 0.00000E+00
 -1       873 9.01500E+01 3.44120E+01 0.00000E+00
 -1       874 9.31500E+01 3.44120E+01 0.00000E+00
 -1       875 9.61500E+01 3.44120E+01 0.00000E+00
 -1       876 9.91500E+01 3.44120E+01 0.00000E+00
 -1       877 1.02150E+02 3.44120E+01 0.00000E+00
 -1       878 1.05150E+02 3.44120E+01 0.00000E+00
 -1       879 1.08150E+02 3.44120E+01 0.00000E+00
 -1       880 1.11150E+02 3.44120E+01 0.00000E+00
 -1       881 1.14150E+02 3.44120E+01 0.00000E+00
 -1       882 1.17150E+02 3.44120E+01 0.00000E+00
 -1       883 1.20150E+02 3.44120E+01 0.00000E+00
 -1       884 1.23150E+02 3.44120E+01 0.00000E+00
 -1       885 1.26150E+02 3.44120E+01 0.00000E+00
 -1       886 1.29150E+02 3.44120E+01 0.00000E+00
 -1       887 1.32150E+02 3.44120E+01 0.00000E+00
 -1       888 3.25350E+01 1.43982E+01 0.00000E+00
 -1       889 8.35350E+01 1.43982E+01 0.00000E+00
 -1       890 8.05350E+01 1.43982E+01 0.00000E+00
 -1       891 7.13321E+01 2.12475E+01 0.00000E+00
 -1       892 7.75350E+01 1.43982E+01 0.00000E+00
 -1       893 8.65350E+01 1.43982E+01 0.00000E+00
 -1       894 8.95350E+01 1.43982E+01 0.00000E+00
 -1       895 9.25350E+01 1.43982E+01 0.00000E+00
 -1       896 9.55350E+01 1.43982E+01 0.00000E+00
 -1       897 9.85350E+01 1.43982E+01 0.00000E+00
 -1       898 1.01535E+02 1.43982E+01 0.00000E+00
 -1       899 1.04535E+02 1.43982E+01 0.00000E+00
 -1       900 1.07535E+02 1.43982E+01 0.00000E+00
 -1       901 1.10535E+02 1.43982E+01 0.00000E+00
 -1       902 1.13535E+02 1.43982E+01 0.00000E+00
 -1       903 1.16535E+02 1.43982E+01 0.00000E+00
 -1       904 1.19535E+02 1.43982E+01 0.00000E+00
 -1       905 1.22535E+02 1.43982E+01 0.00000E+00
 -1       906 1.25535E+02 1.43982E+01 0.00000E+00
 -1       907 1.28535E+02 1.43982E+01 0.00000E+00
 -1       908 1.31535E+02 1.43982E+01 0.00000E+00
 -1       909 7.05091E+01 1.77617E+01 0.00000E+00
 -1       910 1.34412E+02 3.23500E+01 0.00000E+00
 -1       911 2.05350E+01 1.43982E+01 0.00000E+00
 -1       912 1.29900E+01 2.79188E+01 0.00000E+00
 -1       913 7.04138E+01 2.47325E+01 0.00000E+00
 -1       914 7.45350E+01 1.43982E+01 0.00000E+00
 -1       915 1.55880E+01 1.76125E+01 0.00000E+00
 -1       916 7.15350E+01 1.43982E+01 0.00000E+00
 -1       917 1.58784E+01 1.46923E+01 0.00000E+00
 -1       918 1.81500E+01 3.44120E+01 0.00000E+00
 -1       919 1.55880E+01 2.05562E+01 0.00000E+00
 -1       920 3.63948E+01 2.03088E+01 0.00000E+00
 -1       921 3.76985E+01 2.61946E+01 0.00000E+00
 -1       922 3.74992E+01 1.42003E+01 0.00000E+00
 -1       923 4.38575E+01 3.51457E+01 0.00000E+00
 -1       924 3.54230E+01 1.80890E+01 0.00000E+00
 -1       925 3.50171E+01 1.42993E+01 0.00000E+00
 -1       926 4.21500E+01 3.44120E+01 0.00000E+00
 -1       927 2.95350E+01 1.43982E+01 0.00000E+00
 -1       928 1.34394E+02 3.49702E+01 0.00000E+00
 -1       929 1.34412E+02 2.64875E+01 0.00000E+00
 -1       930 1.55880E+01 2.35063E+01 0.00000E+00
 -1       931 1.33870E+02 1.49596E+01 0.00000E+00
 -1       932 1.34412E+02 2.94250E+01 0.00000E+00
 -1       933 1.34412E+02 2.35438E+01 0.00000E+00
 -1       934 2.35350E+01 1.43982E+01 0.00000E+00
 -1       935 6.89167E+01 2.93085E+01 0.00000E+00
 -1       936 1.34412E+02 1.76625E+01 0.00000E+00
 -1       937 1.82067E+01 1.45453E+01 0.00000E+00
 -1       938 1.55880E+01 2.93875E+01 0.00000E+00
 -1       939 1.55700E+01 3.41029E+01 0.00000E+00
 -1       940 1.55790E+01 3.17452E+01 0.00000E+00
 -1       941 3.79883E+01 2.87081E+01 0.00000E+00
 -1       942 7.33852E+01 2.36520E+01 0.00000E+00
 -1       943 2.26500E+01 3.18140E+01 0.00000E+00
 -1       944 2.56500E+01 3.18140E+01 0.00000E+00
 -1       945 2.86500E+01 3.18140E+01 0.00000E+00
 -1       946 3.16500E+01 3.18140E+01 0.00000E+00
 -1       947 3.46500E+01 3.18140E+01 0.00000E+00
 -1       948 3.76500E+01 3.18140E+01 0.00000E+00
 -1       949 7.06500E+01 3.18140E+01 0.00000E+00
 -1       950 7.36500E+01 3.18140E+01 0.00000E+00
 -1       951 7.66500E+01 3.18140E+01 0.00000E+00
 -1       952 7.96500E+01 3.18140E+01 0.00000E+00
 -1       953 8.26500E+01 3.18140E+01 0.00000E+00
 -1       954 8.56500E+01 3.18140E+01 0.00000E+00
 -1       955 8.86500E+01 3.18140E+01 0.00000E+00
 -1       956 9.16500E+01 3.18140E+01 0.00000E+00
 -1       957 9.46500E+01 3.18140E+01 0.00000E+00
 -1       958 9.76500E+01 3.18140E+01 0.00000E+00
 -1       959 1.00650E+02 3.18140E+01 0.00000E+00
 -1       960 1.03650E+02 3.18140E+01 0.00000E+00
 -1       961 1.06650E+02 3.18140E+01 0.00000E+00
 -1       962 1.09650E+02 3.18140E+01 0.00000E+00
 -1       963 1.12650E+02 3.18140E+01 0.00000E+00
 -1       964 1.15650E+02 3.18140E+01 0.00000E+00
 -1       965 1.18650E+02 3.18140E+01 0.00000E+00
 -1       966 1.21650E+02 3.18140E+01 0.00000E+00
 -1       967 1.24650E+02 3.18140E+01 0.00000E+00
 -1       968 1.27650E+02 3.18140E+01 0.00000E+00
 -1       969 1.30650E+02 3.18140E+01 0.00000E+00
 -1       970 8.50350E+01 1.69963E+01 0.00000E+00
 -1       971 3.45998E+01 2.25953E+01 0.00000E+00
 -1       972 9.10350E+01 1.69963E+01 0.00000E+00
 -1       973 9.40350E+01 1.69963E+01 0.00000E+00
 -1       974 9.70350E+01 1.69963E+01 0.00000E+00
 -1       975 1.00035E+02 1.69963E+01 0.00000E+00
 -1       976 1.03035E+02 1.69963E+01 0.00000E+00
 -1       977 1.06035E+02 1.69963E+01 0.00000E+00
 -1       978 1.09035E+02 1.69963E+01 0.00000E+00
 -1       979 1.12035E+02 1.69963E+01 0.00000E+00
 -1       980 1.15035E+02 1.69963E+01 0.00000E+00
 -1       981 1.18035E+02 1.69963E+01 0.00000E+00
 -1       982 1.21035E+02 1.69963E+01 0.00000E+00
 -1       983 1.24035E+02 1.69963E+01 0.00000E+00
 -1       984 1.27035E+02 1.69963E+01 0.00000E+00
 -1       985 1.30035E+02 1.69963E+01 0.00000E+00
 -1       986 1.96500E+01 3.18140E+01 0.00000E+00
 -1       987 3.52625E+01 2.77489E+01 0.00000E+00
 -1       988 7.90350E+01 1.69963E+01 0.00000E+00
 -1       989 7.35091E+01 1.77617E+01 0.00000E+00
 -1       990 3.99718E+01 3.16563E+01 0.00000E+00
 -1       991 7.62721E+01 1.73790E+01 0.00000E+00
 -1       992 2.65350E+01 1.43982E+01 0.00000E+00
 -1       993 1.32223E+02 1.73294E+01 0.00000E+00
 -1       994 8.20350E+01 1.69963E+01 0.00000E+00
 -1       995 3.49312E+01 2.51721E+01 0.00000E+00
 -1       996 1.81860E+01 1.90844E+01 0.00000E+00
 -1       997 1.55880E+01 2.64469E+01 0.00000E+00
 -1       998 1.34412E+02 2.06031E+01 0.00000E+00
 -1       999 8.80350E+01 1.69963E+01 0.00000E+00
 -1      1000 7.10566E+01 2.70707E+01 0.00000E+00
 -1      1001 3.10350E+01 1.69963E+01 0.00000E+00
 -1      1002 1.81860E+01 2.20344E+01 0.00000E+00
 -1      1003 1.32223E+02 2.02700E+01 0.00000E+00
 -1      1004 3.36280E+01 2.03755E+01 0.00000E+00
 -1      1005 1.30650E+02 2.88765E+01 0.00000E+00
 -1      1006 7.48286E+01 2.05155E+01 0.00000E+00
 -1      1007 1.31138E+02 2.54888E+01 0.00000E+00
 -1      1008 7.40280E+01 2.59902E+01 0.00000E+00
 -1      1009 2.20350E+01 1.69963E+01 0.00000E+00
 -1      1010 1.76145E+01 3.17796E+01 0.00000E+00
 -1      1011 1.76235E+01 2.94219E+01 0.00000E+00
 -1      1012 1.81964E+01 1.68148E+01 0.00000E+00
 -1      1013 1.76235E+01 2.64813E+01 0.00000E+00
 -1      1014 2.80350E+01 1.69963E+01 0.00000E+00
 -1      1015 3.22625E+01 2.77489E+01 0.00000E+00
 -1      1016 2.71500E+01 2.92160E+01 0.00000E+00
 -1      1017 2.97062E+01 2.84824E+01 0.00000E+00
 -1      1018 9.85350E+01 1.95942E+01 0.00000E+00
 -1      1019 7.51500E+01 2.92160E+01 0.00000E+00
 -1      1020 7.81500E+01 2.92160E+01 0.00000E+00
 -1      1021 8.11500E+01 2.92160E+01 0.00000E+00
 -1      1022 8.41500E+01 2.92160E+01 0.00000E+00
 -1      1023 8.71500E+01 2.92160E+01 0.00000E+00
 -1      1024 9.01500E+01 2.92160E+01 0.00000E+00
 -1      1025 9.31500E+01 2.92160E+01 0.00000E+00
 -1      1026 9.61500E+01 2.92160E+01 0.00000E+00
 -1      1027 9.91500E+01 2.92160E+01 0.00000E+00
 -1      1028 1.02150E+02 2.92160E+01 0.00000E+00
 -1      1029 1.05150E+02 2.92160E+01 0.00000E+00
 -1      1030 1.08150E+02 2.92160E+01 0.00000E+00
 -1      1031 1.11150E+02 2.92160E+01 0.00000E+00
 -1      1032 1.14150E+02 2.92160E+01 0.00000E+00
 -1      1033 1.17150E+02 2.92160E+01 0.00000E+00
 -1      1034 1.20150E+02 2.92160E+01 0.00000E+00
 -1      1035 1.23150E+02 2.92160E+01 0.00000E+00
 -1      1036 1.26150E+02 2.92160E+01 0.00000E+00
 -1      1037 1.28400E+02 2.90462E+01 0.00000E+00
 -1      1038 9.55350E+01 1.95942E+01 0.00000E+00
 -1      1039 9.25350E+01 1.95942E+01 0.00000E+00
 -1      1040 1.01535E+02 1.95942E+01 0.00000E+00
 -1      1041 1.04535E+02 1.95942E+01 0.00000E+00
 -1      1042 1.07535E+02 1.95942E+01 0.00000E+00
 -1      1043 1.10535E+02 1.95942E+01 0.00000E+00
 -1      1044 1.13535E+02 1.95942E+01 0.00000E+00
 -1      1045 1.16535E+02 1.95942E+01 0.00000E+00
 -1      1046 1.19535E+02 1.95942E+01 0.00000E+00
 -1      1047 1.22535E+02 1.95942E+01 0.00000E+00
 -1      1048 1.25535E+02 1.95942E+01 0.00000E+00
 -1      1049 1.28535E+02 1.95942E+01 0.00000E+00
 -1      1050 8.35350E+01 1.95942E+01 0.00000E+00
 -1      1051 1.30379E+02 1.99321E+01 0.00000E+00
 -1      1052 2.50350E+01 1.69963E+01 0.00000E+00
 -1      1053 1.28888E+02 2.56586E+01 0.00000E+00
 -1      1054 2.13494E+01 2.03239E+01 0.00000E+00
 -1      1055 8.95350E+01 1.95942E+01 0.00000E+00
 -1      1056 8.65350E+01 1.95942E+01 0.00000E+00
 -1      1057 7.20333E+01 2.92622E+01 0.00000E+00
 -1      1058 2.11500E+01 2.92160E+01 0.00000E+00
 -1      1059 1.31681E+02 2.28794E+01 0.00000E+00
 -1      1060 8.05350E+01 1.95942E+01 0.00000E+00
 -1      1061 2.41500E+01 2.92160E+01 0.00000E+00
 -1      1062 2.95350E+01 1.95942E+01 0.00000E+00
 -1      1063 3.19288E+01 2.24420E+01 0.00000E+00
 -1      1064 2.43494E+01 2.03239E+01 0.00000E+00
 -1      1065 7.62117E+01 2.41325E+01 0.00000E+00
 -1      1066 1.29431E+02 2.30492E+01 0.00000E+00
 -1      1067 7.77721E+01 1.99770E+01 0.00000E+00
 -1      1068 3.19312E+01 2.51721E+01 0.00000E+00
 -1      1069 2.02215E+01 2.79516E+01 0.00000E+00
 -1      1070 2.56500E+01 2.66180E+01 0.00000E+00
 -1      1071 1.03035E+02 2.21922E+01 0.00000E+00
 -1      1072 8.50350E+01 2.21922E+01 0.00000E+00
 -1      1073 1.00035E+02 2.21922E+01 0.00000E+00
 -1      1074 7.96500E+01 2.66180E+01 0.00000E+00
 -1      1075 8.26500E+01 2.66180E+01 0.00000E+00
 -1      1076 8.56500E+01 2.66180E+01 0.00000E+00
 -1      1077 8.86500E+01 2.66180E+01 0.00000E+00
 -1      1078 9.16500E+01 2.66180E+01 0.00000E+00
 -1      1079 9.46500E+01 2.66180E+01 0.00000E+00
 -1      1080 9.76500E+01 2.66180E+01 0.00000E+00
 -1      1081 1.00650E+02 2.66180E+01 0.00000E+00
 -1      1082 1.03650E+02 2.66180E+01 0.00000E+00
 -1      1083 1.06650E+02 2.66180E+01 0.00000E+00
 -1      1084 1.09650E+02 2.66180E+01 0.00000E+00
 -1      1085 1.12650E+02 2.66180E+01 0.00000E+00
 -1      1086 1.15650E+02 2.66180E+01 0.00000E+00
 -1      1087 1.18650E+02 2.66180E+01 0.00000E+00
 -1      1088 1.21650E+02 2.66180E+01 0.00000E+00
 -1      1089 1.24650E+02 2.66180E+01 0.00000E+00
 -1      1090 1.26769E+02 2.61383E+01 0.00000E+00
 -1      1091 9.70350E+01 2.21922E+01 0.00000E+00
 -1      1092 9.40350E+01 2.21922E+01 0.00000E+00
 -1      1093 1.06035E+02 2.21922E+01 0.00000E+00
 -1      1094 1.09035E+02 2.21922E+01 0.00000E+00
 -1      1095 1.12035E+02 2.21922E+01 0.00000E+00
 -1      1096 1.15035E+02 2.21922E+01 0.00000E+00
 -1      1097 1.18035E+02 2.21922E+01 0.00000E+00
 -1      1098 1.21035E+02 2.21922E+01 0.00000E+00
 -1      1099 1.24035E+02 2.21922E+01 0.00000E+00
 -1      1100 2.69422E+01 1.99591E+01 0.00000E+00
 -1      1101 2.93320E+01 2.38093E+01 0.00000E+00
 -1      1102 9.10350E+01 2.21922E+01 0.00000E+00
 -1      1103 2.95191E+01 2.61459E+01 0.00000E+00
 -1      1104 2.10034E+01 2.34645E+01 0.00000E+00
 -1      1105 8.20350E+01 2.21922E+01 0.00000E+00
 -1      1106 2.26500E+01 2.66180E+01 0.00000E+00
 -1      1107 8.80350E+01 2.21922E+01 0.00000E+00
 -1      1108 7.71808E+01 2.66742E+01 0.00000E+00
 -1      1109 1.27312E+02 2.35289E+01 0.00000E+00
 -1      1110 7.94241E+01 2.29680E+01 0.00000E+00
 -1      1111 2.40034E+01 2.34645E+01 0.00000E+00
 -1      1112 2.75846E+01 2.63819E+01 0.00000E+00
 -1      1113 2.66677E+01 2.36369E+01 0.00000E+00
 -1      1114 0.00000E+00 4.85250E+01 0.00000E+00
 -1      1115 0.00000E+00 4.55750E+01 0.00000E+00
 -1      1116 0.00000E+00 4.26250E+01 0.00000E+00
 -1      1117 0.00000E+00 3.96750E+01 0.00000E+00
 -1      1118 0.00000E+00 3.67250E+01 0.00000E+00
 -1      1119 0.00000E+00 3.38000E+01 0.00000E+00
 -1      1120 0.00000E+00 3.08750E+01 0.00000E+00
 -1      1121 0.00000E+00 2.79250E+01 0.00000E+00
 -1      1122 0.00000E+00 2.49750E+01 0.00000E+00
 -1      1123 0.00000E+00 2.20250E+01 0.00000E+00
 -1      1124 0.00000E+00 1.90750E+01 0.00000E+00
 -1      1125 0.00000E+00 1.61500E+01 0.00000E+00
 -1      1126 0.00000E+00 1.32250E+01 0.00000E+00
 -1      1127 0.00000E+00 1.02750E+01 0.00000E+00
 -1      1128 0.00000E+00 7.32500E+00 0.00000E+00
 -1      1129 0.00000E+00 4.37500E+00 0.00000E+00
 -1      1130 0.00000E+00 1.45000E+00 0.00000E+00
 -1      1131 1.57500E+00 5.00000E+01 0.00000E+00
 -1      1132 4.65000E+00 5.00000E+01 0.00000E+00
 -1      1133 7.65000E+00 5.00000E+01 0.00000E+00
 -1      1134 1.06500E+01 5.00000E+01 0.00000E+00
 -1      1135 1.36500E+01 5.00000E+01 0.00000E+00
 -1      1136 1.66500E+01 5.00000E+01 0.00000E+00
 -1      1137 1.96500E+01 5.00000E+01 0.00000E+00
 -1      1138 2.26500E+01 5.00000E+01 0.00000E+00
 -1      1139 2.56500E+01 5.00000E+01 0.00000E+00
 -1      1140 2.86500E+01 5.00000E+01 0.00000E+00
 -1      1141 3.16500E+01 5.00000E+01 0.00000E+00
 -1      1142 3.46500E+01 5.00000E+01 0.00000E+00
 -1      1143 3.76500E+01 5.00000E+01 0.00000E+00
 -1      1144 4.06500E+01 5.00000E+01 0.00000E+00
 -1      1145 4.36500E+01 5.00000E+01 0.00000E+00
 -1      1146 4.66500E+01 5.00000E+01 0.00000E+00
 -1      1147 4.96500E+01 5.00000E+01 0.00000E+00
 -1      1148 5.26500E+01 5.00000E+01 0.00000E+00
 -1      1149 5.56500E+01 5.00000E+01 0.00000E+00
 -1      1150 5.86500E+01 5.00000E+01 0.00000E+00
 -1      1151 6.16500E+01 5.00000E+01 0.00000E+00
 -1      1152 6.46500E+01 5.00000E+01 0.00000E+00
 -1      1153 6.76500E+01 5.00000E+01 0.00000E+00
 -1      1154 7.06500E+01 5.00000E+01 0.00000E+00
 -1      1155 7.36500E+01 5.00000E+01 0.00000E+00
 -1      1156 7.66500E+01 5.00000E+01 0.00000E+00
 -1      1157 7.96500E+01 5.00000E+01 0.00000E+00
 -1      1158 8.26500E+01 5.00000E+01 0.00000E+00
 -1      1159 8.56500E+01 5.00000E+01 0.00000E+00
 -1      1160 8.86500E+01 5.00000E+01 0.00000E+00
 -1      1161 9.16500E+01 5.00000E+01 0.00000E+00
 -1      1162 9.46500E+01 5.00000E+01 0.00000E+00
 -1      1163 9.76500E+01 5.00000E+01 0.00000E+00
 -1      1164 1.00650E+02 5.00000E+01 0.00000E+00
 -1      1165 1.03650E+02 5.00000E+01 0.00000E+00
 -1      1166 1.06650E+02 5.00000E+01 0.00000E+00
 -1      1167 1.09650E+02 5.00000E+01 0.00000E+00
 -1      1168 1.12650E+02 5.00000E+01 0.00000E+00
 -1      1169 1.15650E+02 5.00000E+01 0.00000E+00
 -1      1170 1.18650E+02 5.00000E+01 0.00000E+00
 -1      1171 1.21650E+02 5.00000E+01 0.00000E+00
 -1      1172 1.24650E+02 5.00000E+01 0.00000E+00
 -1      1173 1.27650E+02 5.00000E+01 0.00000E+00
 -1      1174 1.30650E+02 5.00000E+01 0.00000E+00
 -1      1175 1.33650E+02 5.00000E+01 0.00000E+00
 -1      1176 1.36650E+02 5.00000E+01 0.00000E+00
 -1      1177 1.39650E+02 5.00000E+01 0.00000E+00
 -1      1178 1.42650E+02 5.00000E+01 0.00000E+00
 -1      1179 1.45650E+02 5.00000E+01 0.00000E+00
 -1      1180 1.48575E+02 5.00000E+01 0.00000E+00
 -1      1181 1.57500E+00 0.00000E+00 0.00000E+00
 -1      1182 4.65000E+00 0.00000E+00 0.00000E+00
 -1      1183 7.65000E+00 0.00000E+00 0.00000E+00
 -1      1184 1.06500E+01 0.00000E+00 0.00000E+00
 -1      1185 1.36500E+01 0.00000E+00 0.00000E+00
 -1      1186 1.66500E+01 0.00000E+00 0.00000E+00
 -1      1187 1.96500E+01 0.00000E+00 0.00000E+00
 -1      1188 2.26500E+01 0.00000E+00 0.00000E+00
 -1      1189 2.56500E+01 0.00000E+00 0.00000E+00
 -1      1190 2.86500E+01 0.00000E+00 0.00000E+00
 -1      1191 3.16500E+01 0.00000E+00 0.00000E+00
 -1      1192 3.46500E+01 0.00000E+00 0.00000E+00
 -1      1193 3.76500E+01 0.00000E+00 0.00000E+00
 -1      1194 4.06500E+01 0.00000E+00 0.00000E+00
 -1      1195 4.36500E+01 0.00000E+00 0.00000E+00
 -1      1196 4.66500E+01 0.00000E+00 0.00000E+00
 -1      1197 4.96500E+01 0.00000E+00 0.00000E+00
 -1      1198 5.26500E+01 0.00000E+00 0.00000E+00
 -1      1199 5.56500E+01 0.00000E+00 0.00000E+00
 -1      1200 5.86500E+01 0.00000E+00 0.00000E+00
 -1      1201 6.16500E+01 0.00000E+00 0.00000E+00
 -1      1202 6.46500E+01 0.00000E+00 0.00000E+00
 -1      1203 6.76500E+01 0.00000E+00 0.00000E+00
 -1      1204 7.06500E+01 0.00000E+00 0.00000E+00
 -1      1205 7.36500E+01 0.00000E+00 0.00000E+00
 -1      1206 7.66500E+01 0.00000E+00 0.00000E+00
 -1      1207 7.96500E+01 0.00000E+00 0.00000E+00
 -1      1208 8.26500E+01 0.00000E+00 0.00000E+00
 -1      1209 8.56500E+01 0.00000E+00 0.00000E+00
 -1      1210 8.86500E+01 0.00000E+00 0.00000E+00
 -1      1211 9.16500E+01 0.00000E+00 0.00000E+00
 -1      1212 9.46500E+01 0.00000E+00 0.00000E+00
 -1      1213 9.76500E+01 0.00000E+00 0.00000E+00
 -1      1214 1.00650E+02 0.00000E+00 0.00000E+00
 -1      1215 1.03650E+02 0.00000E+00 0.00000E+00
 -1      1216 1.06650E+02 0.00000E+00 0.00000E+00
 -1      1217 1.09650E+02 0.00000E+00 0.00000E+00
 -1      1218 1.12650E+02 0.00000E+00 0.00000E+00
 -1      1219 1.15650E+02 0.00000E+00 0.00000E+00
 -1      1220 1.18650E+02 0.00000E+00 0.00000E+00
 -1      1221 1.21650E+02 0.00000E+00 0.00000E+00
 -1      1222 1.24650E+02 0.00000E+00 0.00000E+00
 -1      1223 1.27650E+02 0.00000E+00 0.00000E+00
 -1      1224 1.30650E+02 0.00000E+00 0.00000E+00
 -1      1225 1.33650E+02 0.00000E+00 0.00000E+00
 -1      1226 1.36650E+02 0.00000E+00 0.00000E+00
 -1      1227 1.39650E+02 0.00000E+00 0.00000E+00
 -1      1228 1.42650E+02 0.00000E+00 0.00000E+00
 -1      1229 1.45650E+02 0.00000E+00 0.00000E+00
 -1      1230 1.48575E+02 0.00000E+00 0.00000E+00
 -1      1231 1.50000E+02 1.47500E+00 0.00000E+00
 -1      1232 1.50000E+02 4.42500E+00 0.00000E+00
 -1      1233 1.50000E+02 7.37500E+00 0.00000E+00
 -1      1234 1.50000E+02 1.03250E+01 0.00000E+00
 -1      1235 1.50000E+02 1.32750E+01 0.00000E+00
 -1      1236 1.50000E+02 1.62000E+01 0.00000E+00
 -1      1237 1.50000E+02 1.91250E+01 0.00000E+00
 -1      1238 1.50000E+02 2.20750E+01 0.00000E+00
 -1      1239 1.50000E+02 2.50250E+01 0.00000E+00
 -1      1240 1.50000E+02 2.79750E+01 0.00000E+00
 -1      1241 1.50000E+02 3.09250E+01 0.00000E+00
 -1      1242 1.50000E+02 3.38500E+01 0.00000E+00
 -1      1243 1.50000E+02 3.67750E+01 0.00000E+00
 -1      1244 1.50000E+02 3.97250E+01 0.00000E+00
 -1      1245 1.50000E+02 4.26750E+01 0.00000E+00
 -1      1246 1.50000E+02 4.56250E+01 0.00000E+00
 -1      1247 1.50000E+02 4.85500E+01 0.00000E+00
 -1      1248 6.09421E+01 2.04953E+01 0.00000E+00
 -1      1249 6.06318E+01 1.90421E+01 0.00000E+00
 -1      1250 6.00136E+01 1.76735E+01 0.00000E+00
 -1      1251 5.91084E+01 1.64580E+01 0.00000E+00
 -1      1252 5.79679E+01 1.54694E+01 0.00000E+00
 -1      1253 5.66826E+01 1.47651E+01 0.00000E+00
 -1      1254 5.52269E+01 1.43343E+01 0.00000E+00
 -1      1255 5.37267E+01 1.42269E+01 0.00000E+00
 -1      1256 5.21892E+01 1.44553E+01 0.00000E+00
 -1      1257 5.06604E+01 1.50595E+01 0.00000E+00
 -1      1258 4.93458E+01 1.59760E+01 0.00000E+00
 -1      1259 4.82896E+01 1.71456E+01 0.00000E+00
 -1      1260 4.75640E+01 1.84231E+01 0.00000E+00
 -1      1261 4.71208E+01 1.98253E+01 0.00000E+00
 -1      1262 4.69807E+01 2.13232E+01 0.00000E+00
 -1      1263 4.71608E+01 2.28034E+01 0.00000E+00
 -1      1264 4.76587E+01 2.42292E+01 0.00000E+00
 -1      1265 4.84313E+01 2.54900E+01 0.00000E+00
 -1      1266 4.94843E+01 2.65879E+01 0.00000E+00
 -1      1267 5.07274E+01 2.74208E+01 0.00000E+00
 -1      1268 5.20660E+01 2.79556E+01 0.00000E+00
 -1      1269 5.35122E+01 2.82067E+01 0.00000E+00
 -1      1270 5.50393E+01 2.81417E+01 0.00000E+00
 -1      1271 5.65343E+01 2.77397E+01 0.00000E+00
 -1      1272 5.78569E+01 2.70507E+01 0.00000E+00
 -1      1273 5.90153E+01 2.60850E+01 0.00000E+00
 -1      1274 5.99592E+01 2.48622E+01 0.00000E+00
 -1      1275 6.06194E+01 2.34401E+01 0.00000E+00
 -1      1276 6.09419E+01 2.19509E+01 0.00000E+00
 -1      1277 1.57500E+00 4.85250E+01 0.00000E+00
 -1      1278 1.29900E+00 4.48375E+01 0.00000E+00
 -1      1279 1.29900E+00 4.63125E+01 0.00000E+00
 -1      1280 1.29900E+00 4.18875E+01 0.00000E+00
 -1      1281 1.29900E+00 4.33625E+01 0.00000E+00
 -1      1282 2.59800E+00 4.41000E+01 0.00000E+00
 -1      1283 1.29900E+00 3.89375E+01 0.00000E+00
 -1      1284 1.29900E+00 4.04125E+01 0.00000E+00
 -1      1285 2.59800E+00 4.11500E+01 0.00000E+00
 -1      1286 1.29900E+00 3.59875E+01 0.00000E+00
 -1      1287 1.29900E+00 3.74625E+01 0.00000E+00
 -1      1288 2.59800E+00 3.82000E+01 0.00000E+00
 -1      1289 1.29900E+00 3.30875E+01 0.00000E+00
 -1      1290 1.29900E+00 3.45375E+01 0.00000E+00
 -1      1291 2.59800E+00 3.52750E+01 0.00000E+00
 -1      1292 1.29900E+00 3.01375E+01 0.00000E+00
 -1      1293 1.29900E+00 3.16125E+01 0.00000E+00
 -1      1294 2.59800E+00 3.23500E+01 0.00000E+00
 -1      1295 1.29900E+00 2.71875E+01 0.00000E+00
 -1      1296 1.29900E+00 2.86625E+01 0.00000E+00
 -1      1297 2.59800E+00 2.94000E+01 0.00000E+00
 -1      1298 1.29900E+00 2.42375E+01 0.00000E+00
 -1      1299 1.29900E+00 2.57125E+01 0.00000E+00
 -1      1300 2.59800E+00 2.64500E+01 0.00000E+00
 -1      1301 1.29900E+00 2.12875E+01 0.00000E+00
 -1      1302 1.29900E+00 2.27625E+01 0.00000E+00
 -1      1303 2.59800E+00 2.35000E+01 0.00000E+00
 -1      1304 1.29900E+00 1.83375E+01 0.00000E+00
 -1      1305 1.29900E+00 1.98125E+01 0.00000E+00
 -1      1306 2.59800E+00 2.05500E+01 0.00000E+00
 -1      1307 1.29900E+00 1.54375E+01 0.00000E+00
 -1      1308 1.29900E+00 1.68875E+01 0.00000E+00
 -1      1309 2.59800E+00 1.76250E+01 0.00000E+00
 -1      1310 1.29900E+00 1.24875E+01 0.00000E+00
 -1      1311 1.29900E+00 1.39625E+01 0.00000E+00
 -1      1312 2.59800E+00 1.47000E+01 0.00000E+00
 -1      1313 1.29900E+00 9.53750E+00 0.00000E+00
 -1      1314 1.29900E+00 1.10125E+01 0.00000E+00
 -1      1315 2.59800E+00 1.17500E+01 0.00000E+00
 -1      1316 1.29900E+00 6.58750E+00 0.00000E+00
 -1      1317 1.29900E+00 8.06250E+00 0.00000E+00
 -1      1318 2.59800E+00 8.80000E+00 0.00000E+00
 -1      1319 1.29900E+00 3.63750E+00 0.00000E+00
 -1      1320 1.29900E+00 5.11250E+00 0.00000E+00
 -1      1321 2.59800E+00 5.85000E+00 0.00000E+00
 -1      1322 1.43700E+00 1.09375E+00 0.00000E+00
 -1      1323 1.43700E+00 2.54375E+00 0.00000E+00
 -1      1324 2.73600E+00 3.28125E+00 0.00000E+00
 -1      1325 3.01200E+00 1.09375E+00 0.00000E+00
 -1      1326 3.90000E+00 4.87010E+01 0.00000E+00
 -1      1327 5.40000E+00 4.87010E+01 0.00000E+00
 -1      1328 6.90000E+00 4.87010E+01 0.00000E+00
 -1      1329 8.40000E+00 4.87010E+01 0.00000E+00
 -1      1330 6.15000E+00 4.74020E+01 0.00000E+00
 -1      1331 9.90000E+00 4.87010E+01 0.00000E+00
 -1      1332 1.14000E+01 4.87010E+01 0.00000E+00
 -1      1333 9.15000E+00 4.74020E+01 0.00000E+00
 -1      1334 1.29000E+01 4.87010E+01 0.00000E+00
 -1      1335 1.44000E+01 4.87010E+01 0.00000E+00
 -1      1336 1.21500E+01 4.74020E+01 0.00000E+00
 -1      1337 1.59000E+01 4.87010E+01 0.00000E+00
 -1      1338 1.74000E+01 4.87010E+01 0.00000E+00
 -1      1339 1.51500E+01 4.74020E+01 0.00000E+00
 -1      1340 1.89000E+01 4.87010E+01 0.00000E+00
 -1      1341 2.04000E+01 4.87010E+01 0.00000E+00
 -1      1342 1.81500E+01 4.74020E+01 0.00000E+00
 -1      1343 2.19000E+01 4.87010E+01 0.00000E+00
 -1      1344 2.34000E+01 4.87010E+01 0.00000E+00
 -1      1345 2.11500E+01 4.74020E+01 0.00000E+00
 -1      1346 2.49000E+01 4.87010E+01 0.00000E+00
 -1      1347 2.64000E+01 4.87010E+01 0.00000E+00
 -1      1348 2.41500E+01 4.74020E+01 0.00000E+00
 -1      1349 2.79000E+01 4.87010E+01 0.00000E+00
 -1      1350 2.94000E+01 4.87010E+01 0.00000E+00
 -1      1351 2.71500E+01 4.74020E+01 0.00000E+00
 -1      1352 3.09000E+01 4.87010E+01 0.00000E+00
 -1      1353 3.24000E+01 4.87010E+01 0.00000E+00
 -1      1354 3.01500E+01 4.74020E+01 0.00000E+00
 -1      1355 3.39000E+01 4.87010E+01 0.00000E+00
 -1      1356 3.54000E+01 4.87010E+01 0.00000E+00
 -1      1357 3.31500E+01 4.74020E+01 0.00000E+00
 -1      1358 3.69000E+01 4.87010E+01 0.00000E+00
 -1      1359 3.84000E+01 4.87010E+01 0.00000E+00
 -1      1360 3.61500E+01 4.74020E+01 0.00000E+00
 -1      1361 3.99000E+01 4.87010E+01 0.00000E+00
 -1      1362 4.14000E+01 4.87010E+01 0.00000E+00
 -1      1363 3.91500E+01 4.74020E+01 0.00000E+00
 -1      1364 4.29000E+01 4.87010E+01 0.00000E+00
 -1      1365 4.44000E+01 4.87010E+01 0.00000E+00
 -1      1366 4.21500E+01 4.74020E+01 0.00000E+00
 -1      1367 4.59000E+01 4.87010E+01 0.00000E+00
 -1      1368 4.74000E+01 4.87010E+01 0.00000E+00
 -1      1369 4.51500E+01 4.74020E+01 0.00000E+00
 -1      1370 4.89000E+01 4.87010E+01 0.00000E+00
 -1      1371 5.04000E+01 4.87010E+01 0.00000E+00
 -1      1372 4.81500E+01 4.74020E+01 0.00000E+00
 -1      1373 5.19000E+01 4.87010E+01 0.00000E+00
 -1      1374 5.34000E+01 4.87010E+01 0.00000E+00
 -1      1375 5.11500E+01 4.74020E+01 0.00000E+00
 -1      1376 5.49000E+01 4.87010E+01 0.00000E+00
 -1      1377 5.64000E+01 4.87010E+01 0.00000E+00
 -1      1378 5.41500E+01 4.74020E+01 0.00000E+00
 -1      1379 5.79000E+01 4.87010E+01 0.00000E+00
 -1      1380 5.94000E+01 4.87010E+01 0.00000E+00
 -1      1381 5.71500E+01 4.74020E+01 0.00000E+00
 -1      1382 6.09000E+01 4.87010E+01 0.00000E+00
 -1      1383 6.24000E+01 4.87010E+01 0.00000E+00
 -1      1384 6.01500E+01 4.74020E+01 0.00000E+00
 -1      1385 6.39000E+01 4.87010E+01 0.00000E+00
 -1      1386 6.54000E+01 4.87010E+01 0.00000E+00
 -1      1387 6.31500E+01 4.74020E+01 0.00000E+00
 -1      1388 6.69000E+01 4.87010E+01 0.00000E+00
 -1      1389 6.84000E+01 4.87010E+01 0.00000E+00
 -1      1390 6.61500E+01 4.74020E+01 0.00000E+00
 -1      1391 6.99000E+01 4.87010E+01 0.00000E+00
 -1      1392 7.14000E+01 4.87010E+01 0.00000E+00
 -1      1393 6.91500E+01 4.74020E+01 0.00000E+00
 -1      1394 7.29000E+01 4.87010E+01 0.00000E+00
 -1      1395 7.44000E+01 4.87010E+01 0.00000E+00
 -1      1396 7.21500E+01 4.74020E+01 0.00000E+00
 -1      1397 7.59000E+01 4.87010E+01 0.00000E+00
 -1      1398 7.74000E+01 4.87010E+01 0.00000E+00
 -1      1399 7.51500E+01 4.74020E+01 0.00000E+00
 -1      1400 7.89000E+01 4.87010E+01 0.00000E+00
 -1      1401 8.04000E+01 4.87010E+01 0.00000E+00
 -1      1402 7.81500E+01 4.74020E+01 0.00000E+00
 -1      1403 8.19000E+01 4.87010E+01 0.00000E+00
 -1      1404 8.34000E+01 4.87010E+01 0.00000E+00
 -1      1405 8.11500E+01 4.74020E+01 0.00000E+00
 -1      1406 8.49000E+01 4.87010E+01 0.00000E+00
 -1      1407 8.64000E+01 4.87010E+01 0.00000E+00
 -1      1408 8.41500E+01 4.74020E+01 0.00000E+00
 -1      1409 8.79000E+01 4.87010E+01 0.00000E+00
 -1      1410 8.94000E+01 4.87010E+01 0.00000E+00
 -1      1411 8.71500E+01 4.74020E+01 0.00000E+00
 -1      1412 9.09000E+01 4.87010E+01 0.00000E+00
 -1      1413 9.24000E+01 4.87010E+01 0.00000E+00
 -1      1414 9.01500E+01 4.74020E+01 0.00000E+00
 -1      1415 9.39000E+01 4.87010E+01 0.00000E+00
 -1      1416 9.54000E+01 4.87010E+01 0.00000E+00
 -1      1417 9.31500E+01 4.74020E+01 0.00000E+00
 -1      1418 9.69000E+01 4.87010E+01 0.00000E+00
 -1      1419 9.84000E+01 4.87010E+01 0.00000E+00
 -1      1420 9.61500E+01 4.74020E+01 0.00000E+00
 -1      1421 9.99000E+01 4.87010E+01 0.00000E+00
 -1      1422 1.01400E+02 4.87010E+01 0.00000E+00
 -1      1423 9.91500E+01 4.74020E+01 0.00000E+00
 -1      1424 1.02900E+02 4.87010E+01 0.00000E+00
 -1      1425 1.04400E+02 4.87010E+01 0.00000E+00
 -1      1426 1.02150E+02 4.74020E+01 0.00000E+00
 -1      1427 1.05900E+02 4.87010E+01 0.00000E+00
 -1      1428 1.07400E+02 4.87010E+01 0.00000E+00
 -1      1429 1.05150E+02 4.74020E+01 0.00000E+00
 -1      1430 1.08900E+02 4.87010E+01 0.00000E+00
 -1      1431 1.10400E+02 4.87010E+01 0.00000E+00
 -1      1432 1.08150E+02 4.74020E+01 0.00000E+00
 -1      1433 1.11900E+02 4.87010E+01 0.00000E+00
 -1      1434 1.13400E+02 4.87010E+01 0.00000E+00
 -1      1435 1.11150E+02 4.74020E+01 0.00000E+00
 -1      1436 1.14900E+02 4.87010E+01 0.00000E+00
 -1      1437 1.16400E+02 4.87010E+01 0.00000E+00
 -1      1438 1.14150E+02 4.74020E+01 0.00000E+00
 -1      1439 1.17900E+02 4.87010E+01 0.00000E+00
 -1      1440 1.19400E+02 4.87010E+01 0.00000E+00
 -1      1441 1.17150E+02 4.74020E+01 0.00000E+00
 -1      1442 1.20900E+02 4.87010E+01 0.00000E+00
 -1      1443 1.22400E+02 4.87010E+01 0.00000E+00
 -1      1444 1.20150E+02 4.74020E+01 0.00000E+00
 -1      1445 1.23900E+02 4.87010E+01 0.00000E+00
 -1      1446 1.25400E+02 4.87010E+01 0.00000E+00
 -1      1447 1.23150E+02 4.74020E+01 0.00000E+00
 -1      1448 1.26900E+02 4.87010E+01 0.00000E+00
 -1      1449 1.28400E+02 4.87010E+01 0.00000E+00
 -1      1450 1.26150E+02 4.74020E+01 0.00000E+00
 -1      1451 1.29900E+02 4.87010E+01 0.00000E+00
 -1      1452 1.31400E+02 4.87010E+01 0.00000E+00
 -1      1453 1.29150E+02 4.74020E+01 0.00000E+00
 -1      1454 1.32900E+02 4.87010E+01 0.00000E+00
 -1      1455 1.34400E+02 4.87010E+01 0.00000E+00
 -1      1456 1.32150E+02 4.74020E+01 0.00000E+00
 -1      1457 1.35900E+02 4.87010E+01 0.00000E+00
 -1      1458 1.37400E+02 4.87010E+01 0.00000E+00
 -1      1459 1.35150E+02 4.74020E+01 0.00000E+00
 -1      1460 1.38900E+02 4.87010E+01 0.00000E+00
 -1      1461 1.40400E+02 4.87010E+01 0.00000E+00
 -1      1462 1.38150E+02 4.74020E+01 0.00000E+00
 -1      1463 1.41900E+02 4.87010E+01 0.00000E+00
 -1      1464 1.43400E+02 4.87010E+01 0.00000E+00
 -1      1465 1.41150E+02 4.74020E+01 0.00000E+00
 -1      1466 1.44900E+02 4.87010E+01 0.00000E+00
 -1      1467 1.46400E+02 4.87010E+01 0.00000E+00
 -1      1468 1.44150E+02 4.74020E+01 0.00000E+00
 -1      1469 1.48575E+02 4.85500E+01 0.00000E+00
 -1      1470 1.47825E+02 4.72510E+01 0.00000E+00
 -1      1471 6.01200E+00 1.09375E+00 0.00000E+00
 -1      1472 4.51200E+00 1.09375E+00 0.00000E+00
 -1      1473 4.37400E+00 2.18750E+00 0.00000E+00
 -1      1474 9.01200E+00 1.09375E+00 0.00000E+00
 -1      1475 7.51200E+00 1.09375E+00 0.00000E+00
 -1      1476 7.37400E+00 2.18750E+00 0.00000E+00
 -1      1477 1.20120E+01 1.09375E+00 0.00000E+00
 -1      1478 1.05120E+01 1.09375E+00 0.00000E+00
 -1      1479 1.03740E+01 2.18750E+00 0.00000E+00
 -1      1480 1.50120E+01 1.09375E+00 0.00000E+00
 -1      1481 1.35120E+01 1.09375E+00 0.00000E+00
 -1      1482 1.33740E+01 2.18750E+00 0.00000E+00
 -1      1483 1.80120E+01 1.09375E+00 0.00000E+00
 -1      1484 1.65120E+01 1.09375E+00 0.00000E+00
 -1      1485 1.63740E+01 2.18750E+00 0.00000E+00
 -1      1486 2.10120E+01 1.09375E+00 0.00000E+00
 -1      1487 1.95120E+01 1.09375E+00 0.00000E+00
 -1      1488 1.93740E+01 2.18750E+00 0.00000E+00
 -1      1489 2.40120E+01 1.09375E+00 0.00000E+00
 -1      1490 2.25120E+01 1.09375E+00 0.00000E+00
 -1      1491 2.23740E+01 2.18750E+00 0.00000E+00
 -1      1492 2.70120E+01 1.09375E+00 0.00000E+00
 -1      1493 2.55120E+01 1.09375E+00 0.00000E+00
 -1      1494 2.53740E+01 2.18750E+00 0.00000E+00
 -1      1495 3.00120E+01 1.09375E+00 0.00000E+00
 -1      1496 2.85120E+01 1.09375E+00 0.00000E+00
 -1      1497 2.83740E+01 2.18750E+00 0.00000E+00
 -1      1498 3.30120E+01 1.09375E+00 0.00000E+00
 -1      1499 3.15120E+01 1.09375E+00 0.00000E+00
 -1      1500 3.13740E+01 2.18750E+00 0.00000E+00
 -1      1501 3.60120E+01 1.09375E+00 0.00000E+00
 -1      1502 3.45120E+01 1.09375E+00 0.00000E+00
 -1      1503 3.43740E+01 2.18750E+00 0.00000E+00
 -1      1504 3.90120E+01 1.09375E+00 0.00000E+00
 -1      1505 3.75120E+01 1.09375E+00 0.00000E+00
 -1      1506 3.73740E+01 2.18750E+00 0.00000E+00
 -1      1507 4.20120E+01 1.09375E+00 0.00000E+00
 -1      1508 4.05120E+01 1.09375E+00 0.00000E+00
 -1      1509 4.03740E+01 2.18750E+00 0.00000E+00
 -1      1510 4.50120E+01 1.09375E+00 0.00000E+00
 -1      1511 4.35120E+01 1.09375E+00 0.00000E+00
 -1      1512 4.33740E+01 2.18750E+00 0.00000E+00
 -1      1513 4.80120E+01 1.09375E+00 0.00000E+00
 -1      1514 4.65120E+01 1.09375E+00 0.00000E+00
 -1      1515 4.63740E+01 2.18750E+00 0.00000E+00
 -1      1516 5.10120E+01 1.09375E+00 0.00000E+00
 -1      1517 4.95120E+01 1.09375E+00 0.00000E+00
 -1      1518 4.93740E+01 2.18750E+00 0.00000E+00
 -1      1519 5.40120E+01 1.09375E+00 0.00000E+00
 -1      1520 5.25120E+01 1.09375E+00 0.00000E+00
 -1      1521 5.23740E+01 2.18750E+00 0.00000E+00
 -1      1522 5.70120E+01 1.09375E+00 0.00000E+00
 -1      1523 5.55120E+01 1.09375E+00 0.00000E+00
 -1      1524 5.53740E+01 2.18750E+00 0.00000E+00
 -1      1525 6.00120E+01 1.09375E+00 0.00000E+00
 -1      1526 5.85120E+01 1.09375E+00 0.00000E+00
 -1      1527 5.83740E+01 2.18750E+00 0.00000E+00
 -1      1528 6.30120E+01 1.09375E+00 0.00000E+00
 -1      1529 6.15120E+01 1.09375E+00 0.00000E+00
 -1      1530 6.13740E+01 2.18750E+00 0.00000E+00
 -1      1531 6.60120E+01 1.09375E+00 0.00000E+00
 -1      1532 6.45120E+01 1.09375E+00 0.00000E+00
 -1      1533 6.43740E+01 2.18750E+00 0.00000E+00
 -1      1534 6.90120E+01 1.09375E+00 0.00000E+00
 -1      1535 6.75120E+01 1.09375E+00 0.00000E+00
 -1      1536 6.73740E+01 2.18750E+00 0.00000E+00
 -1      1537 7.20120E+01 1.09375E+00 0.00000E+00
 -1      1538 7.05120E+01 1.09375E+00 0.00000E+00
 -1      1539 7.03740E+01 2.18750E+00 0.00000E+00
 -1      1540 7.50120E+01 1.09375E+00 0.00000E+00
 -1      1541 7.35120E+01 1.09375E+00 0.00000E+00
 -1      1542 7.33740E+01 2.18750E+00 0.00000E+00
 -1      1543 7.80120E+01 1.09375E+00 0.00000E+00
 -1      1544 7.65120E+01 1.09375E+00 0.00000E+00
 -1      1545 7.63740E+01 2.18750E+00 0.00000E+00
 -1      1546 8.10120E+01 1.09375E+00 0.00000E+00
 -1      1547 7.95120E+01 1.09375E+00 0.00000E+00
 -1      1548 7.93740E+01 2.18750E+00 0.00000E+00
 -1      1549 8.40120E+01 1.09375E+00 0.00000E+00
 -1      1550 8.25120E+01 1.09375E+00 0.00000E+00
 -1      1551 8.23740E+01 2.18750E+00 0.00000E+00
 -1      1552 8.70120E+01 1.09375E+00 0.00000E+00
 -1      1553 8.55120E+01 1.09375E+00 0.00000E+00
 -1      1554 8.53740E+01 2.18750E+00 0.00000E+00
 -1      1555 9.00120E+01 1.09375E+00 0.00000E+00
 -1      1556 8.85120E+01 1.09375E+00 0.00000E+00
 -1      1557 8.83740E+01 2.18750E+00 0.00000E+00
 -1      1558 9.30120E+01 1.09375E+00 0.00000E+00
 -1      1559 9.15120E+01 1.09375E+00 0.00000E+00
 -1      1560 9.13740E+01 2.18750E+00 0.00000E+00
 -1      1561 9.60120E+01 1.09375E+00 0.00000E+00
 -1      1562 9.45120E+01 1.09375E+00 0.00000E+00
 -1      1563 9.43740E+01 2.18750E+00 0.00000E+00
 -1      1564 9.90120E+01 1.09375E+00 0.00000E+00
 -1      1565 9.75120E+01 1.09375E+00 0.00000E+00
 -1      1566 9.73740E+01 2.18750E+00 0.00000E+00
 -1      1567 1.02012E+02 1.09375E+00 0.00000E+00
 -1      1568 1.00512E+02 1.09375E+00 0.00000E+00
 -1      1569 1.00374E+02 2.18750E+00 0.00000E+00
 -1      1570 1.05012E+02 1.09375E+00 0.00000E+00
 -1      1571 1.03512E+02 1.09375E+00 0.00000E+00
 -1      1572 1.03374E+02 2.18750E+00 0.00000E+00
 -1      1573 1.08012E+02 1.09375E+00 0.00000E+00
 -1      1574 1.06512E+02 1.09375E+00 0.00000E+00
 -1      1575 1.06374E+02 2.18750E+00 0.00000E+00
 -1      1576 1.11012E+02 1.09375E+00 0.00000E+00
 -1      1577 1.09512E+02 1.09375E+00 0.00000E+00
 -1      1578 1.09374E+02 2.18750E+00 0.00000E+00
 -1      1579 1.14012E+02 1.09375E+00 0.00000E+00
 -1      1580 1.12512E+02 1.09375E+00 0.00000E+00
 -1      1581 1.12374E+02 2.18750E+00 0.00000E+00
 -1      1582 1.17012E+02 1.09375E+00 0.00000E+00
 -1      1583 1.15512E+02 1.09375E+00 0.00000E+00
 -1      1584 1.15374E+02 2.18750E+00 0.00000E+00
 -1      1585 1.20012E+02 1.09375E+00 0.00000E+00
 -1      1586 1.18512E+02 1.09375E+00 0.00000E+00
 -1      1587 1.18374E+02 2.18750E+00 0.00000E+00
 -1      1588 1.23012E+02 1.09375E+00 0.00000E+00
 -1      1589 1.21512E+02 1.09375E+00 0.00000E+00
 -1      1590 1.21374E+02 2.18750E+00 0.00000E+00
 -1      1591 1.26012E+02 1.09375E+00 0.00000E+00
 -1      1592 1.24512E+02 1.09375E+00 0.00000E+00
 -1      1593 1.24374E+02 2.18750E+00 0.00000E+00
 -1      1594 1.29012E+02 1.09375E+00 0.00000E+00
 -1      1595 1.27512E+02 1.09375E+00 0.00000E+00
 -1      1596 1.27374E+02 2.18750E+00 0.00000E+00
 -1      1597 1.32012E+02 1.09375E+00 0.00000E+00
 -1      1598 1.30512E+02 1.09375E+00 0.00000E+00
 -1      1599 1.30374E+02 2.18750E+00 0.00000E+00
 -1      1600 1.35012E+02 1.09375E+00 0.00000E+00
 -1      1601 1.33512E+02 1.09375E+00 0.00000E+00
 -1      1602 1.33374E+02 2.18750E+00 0.00000E+00
 -1      1603 1.38012E+02 1.09375E+00 0.00000E+00
 -1      1604 1.36512E+02 1.09375E+00 0.00000E+00
 -1      1605 1.36374E+02 2.18750E+00 0.00000E+00
 -1      1606 1.41012E+02 1.09375E+00 0.00000E+00
 -1      1607 1.39512E+02 1.09375E+00 0.00000E+00
 -1      1608 1.39374E+02 2.18750E+00 0.00000E+00
 -1      1609 1.44012E+02 1.09375E+00 0.00000E+00
 -1      1610 1.42512E+02 1.09375E+00 0.00000E+00
 -1      1611 1.42374E+02 2.18750E+00 0.00000E+00
 -1      1612 1.47012E+02 1.09375E+00 0.00000E+00
 -1      1613 1.45512E+02 1.09375E+00 0.00000E+00
 -1      1614 1.45374E+02 2.18750E+00 0.00000E+00
 -1      1615 1.48575E+02 1.47500E+00 0.00000E+00
 -1      1616 1.48701E+02 5.16250E+00 0.00000E+00
 -1      1617 1.48701E+02 3.68750E+00 0.00000E+00
 -1      1618 1.48701E+02 8.11250E+00 0.00000E+00
 -1      1619 1.48701E+02 6.63750E+00 0.00000E+00
 -1      1620 1.47402E+02 5.90000E+00 0.00000E+00
 -1      1621 1.48701E+02 1.10625E+01 0.00000E+00
 -1      1622 1.48701E+02 9.58750E+00 0.00000E+00
 -1      1623 1.47402E+02 8.85000E+00 0.00000E+00
 -1      1624 1.48701E+02 1.40125E+01 0.00000E+00
 -1      1625 1.48701E+02 1.25375E+01 0.00000E+00
 -1      1626 1.47402E+02 1.18000E+01 0.00000E+00
 -1      1627 1.48701E+02 1.69125E+01 0.00000E+00
 -1      1628 1.48701E+02 1.54625E+01 0.00000E+00
 -1      1629 1.47402E+02 1.47250E+01 0.00000E+00
 -1      1630 1.48701E+02 1.98625E+01 0.00000E+00
 -1      1631 1.48701E+02 1.83875E+01 0.00000E+00
 -1      1632 1.47402E+02 1.76500E+01 0.00000E+00
 -1      1633 1.48701E+02 2.28125E+01 0.00000E+00
 -1      1634 1.48701E+02 2.13375E+01 0.00000E+00
 -1      1635 1.47402E+02 2.06000E+01 0.00000E+00
 -1      1636 1.48701E+02 2.57625E+01 0.00000E+00
 -1      1637 1.48701E+02 2.42875E+01 0.00000E+00
 -1      1638 1.47402E+02 2.35500E+01 0.00000E+00
 -1      1639 1.48701E+02 2.87125E+01 0.00000E+00
 -1      1640 1.48701E+02 2.72375E+01 0.00000E+00
 -1      1641 1.47402E+02 2.65000E+01 0.00000E+00
 -1      1642 1.48701E+02 3.16625E+01 0.00000E+00
 -1      1643 1.48701E+02 3.01875E+01 0.00000E+00
 -1      1644 1.47402E+02 2.94500E+01 0.00000E+00
 -1      1645 1.48701E+02 3.45625E+01 0.00000E+00
 -1      1646 1.48701E+02 3.31125E+01 0.00000E+00
 -1      1647 1.47402E+02 3.23750E+01 0.00000E+00
 -1      1648 1.48701E+02 3.75125E+01 0.00000E+00
 -1      1649 1.48701E+02 3.60375E+01 0.00000E+00
 -1      1650 1.47402E+02 3.53000E+01 0.00000E+00
 -1      1651 1.48701E+02 4.04625E+01 0.00000E+00
 -1      1652 1.48701E+02 3.89875E+01 0.00000E+00
 -1      1653 1.47402E+02 3.82500E+01 0.00000E+00
 -1      1654 1.48701E+02 4.34125E+01 0.00000E+00
 -1      1655 1.48701E+02 4.19375E+01 0.00000E+00
 -1      1656 1.47402E+02 4.12000E+01 0.00000E+00
 -1      1657 1.48263E+02 4.60692E+01 0.00000E+00
 -1      1658 1.48263E+02 4.45942E+01 0.00000E+00
 -1      1659 1.46964E+02 4.38568E+01 0.00000E+00
 -1      1660 1.46088E+02 4.62202E+01 0.00000E+00
 -1      1661 6.14696E+01 2.00747E+01 0.00000E+00
 -1      1662 6.15451E+01 2.07978E+01 0.00000E+00
 -1      1663 6.11300E+01 1.84795E+01 0.00000E+00
 -1      1664 6.13664E+01 1.92006E+01 0.00000E+00
 -1      1665 6.03499E+01 1.70448E+01 0.00000E+00
 -1      1666 6.07265E+01 1.76851E+01 0.00000E+00
 -1      1667 5.93503E+01 1.57060E+01 0.00000E+00
 -1      1668 5.98762E+01 1.62720E+01 0.00000E+00
 -1      1669 5.79884E+01 1.47933E+01 0.00000E+00
 -1      1670 5.85939E+01 1.52130E+01 0.00000E+00
 -1      1671 5.65658E+01 1.41003E+01 0.00000E+00
 -1      1672 5.72382E+01 1.43818E+01 0.00000E+00
 -1      1673 5.49461E+01 1.36702E+01 0.00000E+00
 -1      1674 5.57227E+01 1.38108E+01 0.00000E+00
 -1      1675 5.33489E+01 1.36706E+01 0.00000E+00
 -1      1676 5.40633E+01 1.36448E+01 0.00000E+00
 -1      1677 5.15769E+01 1.37825E+01 0.00000E+00
 -1      1678 5.23885E+01 1.35677E+01 0.00000E+00
 -1      1679 4.99613E+01 1.46099E+01 0.00000E+00
 -1      1680 5.06695E+01 1.42284E+01 0.00000E+00
 -1      1681 4.85647E+01 1.56945E+01 0.00000E+00
 -1      1682 4.91628E+01 1.51661E+01 0.00000E+00
 -1      1683 4.74694E+01 1.70363E+01 0.00000E+00
 -1      1684 4.79223E+01 1.64041E+01 0.00000E+00
 -1      1685 4.68632E+01 1.84945E+01 0.00000E+00
 -1      1686 4.71397E+01 1.78607E+01 0.00000E+00
 -1      1687 4.63685E+01 2.00697E+01 0.00000E+00
 -1      1688 4.65240E+01 1.93062E+01 0.00000E+00
 -1      1689 4.63756E+01 2.16947E+01 0.00000E+00
 -1      1690 4.63651E+01 2.09694E+01 0.00000E+00
 -1      1691 4.66161E+01 2.33227E+01 0.00000E+00
 -1      1692 4.64431E+01 2.25767E+01 0.00000E+00
 -1      1693 4.72313E+01 2.48447E+01 0.00000E+00
 -1      1694 4.69115E+01 2.41724E+01 0.00000E+00
 -1      1695 4.82052E+01 2.61270E+01 0.00000E+00
 -1      1696 4.77576E+01 2.55450E+01 0.00000E+00
 -1      1697 4.93712E+01 2.73355E+01 0.00000E+00
 -1      1698 4.87680E+01 2.68300E+01 0.00000E+00
 -1      1699 5.07765E+01 2.80905E+01 0.00000E+00
 -1      1700 5.01484E+01 2.77609E+01 0.00000E+00
 -1      1701 5.22514E+01 2.86422E+01 0.00000E+00
 -1      1702 5.15471E+01 2.84420E+01 0.00000E+00
 -1      1703 5.38385E+01 2.88393E+01 0.00000E+00
 -1      1704 5.31045E+01 2.87901E+01 0.00000E+00
 -1      1705 5.55288E+01 2.87193E+01 0.00000E+00
 -1      1706 5.47451E+01 2.88392E+01 0.00000E+00
 -1      1707 5.71074E+01 2.81673E+01 0.00000E+00
 -1      1708 5.64043E+01 2.84428E+01 0.00000E+00
 -1      1709 5.84776E+01 2.73193E+01 0.00000E+00
 -1      1710 5.78647E+01 2.77270E+01 0.00000E+00
 -1      1711 5.97189E+01 2.62279E+01 0.00000E+00
 -1      1712 5.91826E+01 2.67833E+01 0.00000E+00
 -1      1713 6.06414E+01 2.48252E+01 0.00000E+00
 -1      1714 6.02396E+01 2.54852E+01 0.00000E+00
 -1      1715 6.13568E+01 2.32672E+01 0.00000E+00
 -1      1716 6.11049E+01 2.40214E+01 0.00000E+00
 -1      1717 6.15450E+01 2.16477E+01 0.00000E+00
 -1      1718 6.14691E+01 2.23723E+01 0.00000E+00
 -1      1719 5.93930E+01 1.49979E+01 0.00000E+00
 -1      1720 6.06231E+01 1.62636E+01 0.00000E+00
 -1      1721 1.48437E+02 2.56875E+00 0.00000E+00
 -1      1722 1.47138E+02 3.30625E+00 0.00000E+00
 -1      1723 6.20071E+01 1.94992E+01 0.00000E+00
 -1      1724 6.15003E+01 1.78307E+01 0.00000E+00
 -1      1725 6.21101E+01 2.12232E+01 0.00000E+00
 -1      1726 5.78863E+01 1.40934E+01 0.00000E+00
 -1      1727 5.62929E+01 1.33923E+01 0.00000E+00
 -1      1728 5.45670E+01 1.30773E+01 0.00000E+00
 -1      1729 5.27238E+01 1.29490E+01 0.00000E+00
 -1      1730 5.08559E+01 1.32920E+01 0.00000E+00
 -1      1731 4.91500E+01 1.42941E+01 0.00000E+00
 -1      1732 4.77092E+01 1.55599E+01 0.00000E+00
 -1      1733 4.67371E+01 1.70940E+01 0.00000E+00
 -1      1734 4.60683E+01 1.87302E+01 0.00000E+00
 -1      1735 4.57257E+01 2.04416E+01 0.00000E+00
 -1      1736 4.57899E+01 2.22235E+01 0.00000E+00
 -1      1737 4.61529E+01 2.39552E+01 0.00000E+00
 -1      1738 4.69746E+01 2.55053E+01 0.00000E+00
 -1      1739 4.80637E+01 2.69086E+01 0.00000E+00
 -1      1740 4.94036E+01 2.80370E+01 0.00000E+00
 -1      1741 5.09514E+01 2.88140E+01 0.00000E+00
 -1      1742 5.25751E+01 2.93134E+01 0.00000E+00
 -1      1743 5.43348E+01 2.94613E+01 0.00000E+00
 -1      1744 5.61169E+01 2.91849E+01 0.00000E+00
 -1      1745 5.77496E+01 2.84682E+01 0.00000E+00
 -1      1746 5.92119E+01 2.74918E+01 0.00000E+00
 -1      1747 6.04376E+01 2.62131E+01 0.00000E+00
 -1      1748 6.14218E+01 2.46667E+01 0.00000E+00
 -1      1749 6.19976E+01 2.29680E+01 0.00000E+00
 -1      1750 2.87400E+00 4.77875E+01 0.00000E+00
 -1      1751 3.89700E+00 4.04125E+01 0.00000E+00
 -1      1752 3.89700E+00 4.18875E+01 0.00000E+00
 -1      1753 3.89700E+00 4.33625E+01 0.00000E+00
 -1      1754 3.89700E+00 4.48375E+01 0.00000E+00
 -1      1755 5.19600E+00 4.26250E+01 0.00000E+00
 -1      1756 3.89700E+00 3.45500E+01 0.00000E+00
 -1      1757 3.89700E+00 3.60000E+01 0.00000E+00
 -1      1758 3.89700E+00 3.16000E+01 0.00000E+00
 -1      1759 3.89700E+00 3.30750E+01 0.00000E+00
 -1      1760 5.19600E+00 3.38000E+01 0.00000E+00
 -1      1761 3.89700E+00 2.86500E+01 0.00000E+00
 -1      1762 3.89700E+00 3.01250E+01 0.00000E+00
 -1      1763 5.19600E+00 3.08500E+01 0.00000E+00
 -1      1764 3.89700E+00 2.57000E+01 0.00000E+00
 -1      1765 3.89700E+00 2.71750E+01 0.00000E+00
 -1      1766 5.19600E+00 2.79000E+01 0.00000E+00
 -1      1767 3.89700E+00 2.27500E+01 0.00000E+00
 -1      1768 3.89700E+00 2.42250E+01 0.00000E+00
 -1      1769 5.19600E+00 2.49500E+01 0.00000E+00
 -1      1770 3.89700E+00 1.98000E+01 0.00000E+00
 -1      1771 3.89700E+00 2.12750E+01 0.00000E+00
 -1      1772 5.19600E+00 2.20000E+01 0.00000E+00
 -1      1773 3.89700E+00 1.69000E+01 0.00000E+00
 -1      1774 3.89700E+00 1.83500E+01 0.00000E+00
 -1      1775 5.19600E+00 1.90750E+01 0.00000E+00
 -1      1776 3.89700E+00 1.39500E+01 0.00000E+00
 -1      1777 3.89700E+00 1.54250E+01 0.00000E+00
 -1      1778 5.19600E+00 1.61500E+01 0.00000E+00
 -1      1779 3.89700E+00 1.10000E+01 0.00000E+00
 -1      1780 3.89700E+00 1.24750E+01 0.00000E+00
 -1      1781 5.19600E+00 1.32000E+01 0.00000E+00
 -1      1782 3.89700E+00 8.05000E+00 0.00000E+00
 -1      1783 3.89700E+00 9.52500E+00 0.00000E+00
 -1      1784 5.19600E+00 1.02500E+01 0.00000E+00
 -1      1785 3.89700E+00 5.10000E+00 0.00000E+00
 -1      1786 3.89700E+00 6.57500E+00 0.00000E+00
 -1      1787 5.19600E+00 7.30000E+00 0.00000E+00
 -1      1788 4.20450E+00 3.09687E+00 0.00000E+00
 -1      1789 4.06650E+00 4.19063E+00 0.00000E+00
 -1      1790 5.36550E+00 4.91563E+00 0.00000E+00
 -1      1791 5.70450E+00 3.09687E+00 0.00000E+00
 -1      1792 3.62400E+00 4.64885E+01 0.00000E+00
 -1      1793 8.70450E+00 3.09687E+00 0.00000E+00
 -1      1794 7.20450E+00 3.09687E+00 0.00000E+00
 -1      1795 7.03500E+00 4.00625E+00 0.00000E+00
 -1      1796 4.92300E+00 4.57510E+01 0.00000E+00
 -1      1797 8.40000E+00 4.61030E+01 0.00000E+00
 -1      1798 9.90000E+00 4.61030E+01 0.00000E+00
 -1      1799 1.14000E+01 4.61030E+01 0.00000E+00
 -1      1800 1.29000E+01 4.61030E+01 0.00000E+00
 -1      1801 1.06500E+01 4.48040E+01 0.00000E+00
 -1      1802 1.44000E+01 4.61030E+01 0.00000E+00
 -1      1803 1.59000E+01 4.61030E+01 0.00000E+00
 -1      1804 1.36500E+01 4.48040E+01 0.00000E+00
 -1      1805 1.74000E+01 4.61030E+01 0.00000E+00
 -1      1806 1.89000E+01 4.61030E+01 0.00000E+00
 -1      1807 1.66500E+01 4.48040E+01 0.00000E+00
 -1      1808 2.04000E+01 4.61030E+01 0.00000E+00
 -1      1809 2.19000E+01 4.61030E+01 0.00000E+00
 -1      1810 1.96500E+01 4.48040E+01 0.00000E+00
 -1      1811 2.34000E+01 4.61030E+01 0.00000E+00
 -1      1812 2.49000E+01 4.61030E+01 0.00000E+00
 -1      1813 2.26500E+01 4.48040E+01 0.00000E+00
 -1      1814 2.64000E+01 4.61030E+01 0.00000E+00
 -1      1815 2.79000E+01 4.61030E+01 0.00000E+00
 -1      1816 2.56500E+01 4.48040E+01 0.00000E+00
 -1      1817 2.94000E+01 4.61030E+01 0.00000E+00
 -1      1818 3.09000E+01 4.61030E+01 0.00000E+00
 -1      1819 2.86500E+01 4.48040E+01 0.00000E+00
 -1      1820 3.24000E+01 4.61030E+01 0.00000E+00
 -1      1821 3.39000E+01 4.61030E+01 0.00000E+00
 -1      1822 3.16500E+01 4.48040E+01 0.00000E+00
 -1      1823 3.54000E+01 4.61030E+01 0.00000E+00
 -1      1824 3.69000E+01 4.61030E+01 0.00000E+00
 -1      1825 3.46500E+01 4.48040E+01 0.00000E+00
 -1      1826 3.84000E+01 4.61030E+01 0.00000E+00
 -1      1827 3.99000E+01 4.61030E+01 0.00000E+00
 -1      1828 3.76500E+01 4.48040E+01 0.00000E+00
 -1      1829 4.14000E+01 4.61030E+01 0.00000E+00
 -1      1830 4.29000E+01 4.61030E+01 0.00000E+00
 -1      1831 4.06500E+01 4.48040E+01 0.00000E+00
 -1      1832 4.44000E+01 4.61030E+01 0.00000E+00
 -1      1833 4.59000E+01 4.61030E+01 0.00000E+00
 -1      1834 4.36500E+01 4.48040E+01 0.00000E+00
 -1      1835 4.74000E+01 4.61030E+01 0.00000E+00
 -1      1836 4.89000E+01 4.61030E+01 0.00000E+00
 -1      1837 4.66500E+01 4.48040E+01 0.00000E+00
 -1      1838 5.04000E+01 4.61030E+01 0.00000E+00
 -1      1839 5.19000E+01 4.61030E+01 0.00000E+00
 -1      1840 4.96500E+01 4.48040E+01 0.00000E+00
 -1      1841 5.34000E+01 4.61030E+01 0.00000E+00
 -1      1842 5.49000E+01 4.61030E+01 0.00000E+00
 -1      1843 5.26500E+01 4.48040E+01 0.00000E+00
 -1      1844 5.64000E+01 4.61030E+01 0.00000E+00
 -1      1845 5.79000E+01 4.61030E+01 0.00000E+00
 -1      1846 5.56500E+01 4.48040E+01 0.00000E+00
 -1      1847 5.94000E+01 4.61030E+01 0.00000E+00
 -1      1848 6.09000E+01 4.61030E+01 0.00000E+00
 -1      1849 5.86500E+01 4.48040E+01 0.00000E+00
 -1      1850 6.24000E+01 4.61030E+01 0.00000E+00
 -1      1851 6.39000E+01 4.61030E+01 0.00000E+00
 -1      1852 6.16500E+01 4.48040E+01 0.00000E+00
 -1      1853 6.54000E+01 4.61030E+01 0.00000E+00
 -1      1854 6.69000E+01 4.61030E+01 0.00000E+00
 -1      1855 6.46500E+01 4.48040E+01 0.00000E+00
 -1      1856 6.84000E+01 4.61030E+01 0.00000E+00
 -1      1857 6.99000E+01 4.61030E+01 0.00000E+00
 -1      1858 6.76500E+01 4.48040E+01 0.00000E+00
 -1      1859 7.14000E+01 4.61030E+01 0.00000E+00
 -1      1860 7.29000E+01 4.61030E+01 0.00000E+00
 -1      1861 7.06500E+01 4.48040E+01 0.00000E+00
 -1      1862 7.44000E+01 4.61030E+01 0.00000E+00
 -1      1863 7.59000E+01 4.61030E+01 0.00000E+00
 -1      1864 7.36500E+01 4.48040E+01 0.00000E+00
 -1      1865 7.74000E+01 4.61030E+01 0.00000E+00
 -1      1866 7.89000E+01 4.61030E+01 0.00000E+00
 -1      1867 7.66500E+01 4.48040E+01 0.00000E+00
 -1      1868 8.04000E+01 4.61030E+01 0.00000E+00
 -1      1869 8.19000E+01 4.61030E+01 0.00000E+00
 -1      1870 7.96500E+01 4.48040E+01 0.00000E+00
 -1      1871 8.34000E+01 4.61030E+01 0.00000E+00
 -1      1872 8.49000E+01 4.61030E+01 0.00000E+00
 -1      1873 8.26500E+01 4.48040E+01 0.00000E+00
 -1      1874 8.64000E+01 4.61030E+01 0.00000E+00
 -1      1875 8.79000E+01 4.61030E+01 0.00000E+00
 -1      1876 8.56500E+01 4.48040E+01 0.00000E+00
 -1      1877 8.94000E+01 4.61030E+01 0.00000E+00
 -1      1878 9.09000E+01 4.61030E+01 0.00000E+00
 -1      1879 8.86500E+01 4.48040E+01 0.00000E+00
 -1      1880 9.24000E+01 4.61030E+01 0.00000E+00
 -1      1881 9.39000E+01 4.61030E+01 0.00000E+00
 -1      1882 9.16500E+01 4.48040E+01 0.00000E+00
 -1      1883 9.54000E+01 4.61030E+01 0.00000E+00
 -1      1884 9.69000E+01 4.61030E+01 0.00000E+00
 -1      1885 9.46500E+01 4.48040E+01 0.00000E+00
 -1      1886 9.84000E+01 4.61030E+01 0.00000E+00
 -1      1887 9.99000E+01 4.61030E+01 0.00000E+00
 -1      1888 9.76500E+01 4.48040E+01 0.00000E+00
 -1      1889 1.01400E+02 4.61030E+01 0.00000E+00
 -1      1890 1.02900E+02 4.61030E+01 0.00000E+00
 -1      1891 1.00650E+02 4.48040E+01 0.00000E+00
 -1      1892 1.04400E+02 4.61030E+01 0.00000E+00
 -1      1893 1.05900E+02 4.61030E+01 0.00000E+00
 -1      1894 1.03650E+02 4.48040E+01 0.00000E+00
 -1      1895 1.07400E+02 4.61030E+01 0.00000E+00
 -1      1896 1.08900E+02 4.61030E+01 0.00000E+00
 -1      1897 1.06650E+02 4.48040E+01 0.00000E+00
 -1      1898 1.10400E+02 4.61030E+01 0.00000E+00
 -1      1899 1.11900E+02 4.61030E+01 0.00000E+00
 -1      1900 1.09650E+02 4.48040E+01 0.00000E+00
 -1      1901 1.13400E+02 4.61030E+01 0.00000E+00
 -1      1902 1.14900E+02 4.61030E+01 0.00000E+00
 -1      1903 1.12650E+02 4.48040E+01 0.00000E+00
 -1      1904 1.16400E+02 4.61030E+01 0.00000E+00
 -1      1905 1.17900E+02 4.61030E+01 0.00000E+00
 -1      1906 1.15650E+02 4.48040E+01 0.00000E+00
 -1      1907 1.19400E+02 4.61030E+01 0.00000E+00
 -1      1908 1.20900E+02 4.61030E+01 0.00000E+00
 -1      1909 1.18650E+02 4.48040E+01 0.00000E+00
 -1      1910 1.22400E+02 4.61030E+01 0.00000E+00
 -1      1911 1.23900E+02 4.61030E+01 0.00000E+00
 -1      1912 1.21650E+02 4.48040E+01 0.00000E+00
 -1      1913 1.25400E+02 4.61030E+01 0.00000E+00
 -1      1914 1.26900E+02 4.61030E+01 0.00000E+00
 -1      1915 1.24650E+02 4.48040E+01 0.00000E+00
 -1      1916 1.28400E+02 4.61030E+01 0.00000E+00
 -1      1917 1.29900E+02 4.61030E+01 0.00000E+00
 -1      1918 1.27650E+02 4.48040E+01 0.00000E+00
 -1      1919 1.31400E+02 4.61030E+01 0.00000E+00
 -1      1920 1.32900E+02 4.61030E+01 0.00000E+00
 -1      1921 1.30650E+02 4.48040E+01 0.00000E+00
 -1      1922 1.34400E+02 4.61030E+01 0.00000E+00
 -1      1923 1.35900E+02 4.61030E+01 0.00000E+00
 -1      1924 1.33650E+02 4.48040E+01 0.00000E+00
 -1      1925 1.37400E+02 4.61030E+01 0.00000E+00
 -1      1926 1.38900E+02 4.61030E+01 0.00000E+00
 -1      1927 1.36650E+02 4.48040E+01 0.00000E+00
 -1      1928 1.40400E+02 4.61030E+01 0.00000E+00
 -1      1929 1.41900E+02 4.61030E+01 0.00000E+00
 -1      1930 1.39650E+02 4.48040E+01 0.00000E+00
 -1      1931 1.43244E+02 4.61616E+01 0.00000E+00
 -1      1932 1.44744E+02 4.61616E+01 0.00000E+00
 -1      1933 1.45182E+02 4.49799E+01 0.00000E+00
 -1      1934 1.42494E+02 4.48626E+01 0.00000E+00
 -1      1935 1.17045E+01 3.09687E+00 0.00000E+00
 -1      1936 1.02045E+01 3.09687E+00 0.00000E+00
 -1      1937 1.00350E+01 4.00625E+00 0.00000E+00
 -1      1938 1.47045E+01 3.09687E+00 0.00000E+00
 -1      1939 1.32045E+01 3.09687E+00 0.00000E+00
 -1      1940 1.30350E+01 4.00625E+00 0.00000E+00
 -1      1941 1.77045E+01 3.09687E+00 0.00000E+00
 -1      1942 1.62045E+01 3.09687E+00 0.00000E+00
 -1      1943 1.60350E+01 4.00625E+00 0.00000E+00
 -1      1944 2.07045E+01 3.09687E+00 0.00000E+00
 -1      1945 1.92045E+01 3.09687E+00 0.00000E+00
 -1      1946 1.90350E+01 4.00625E+00 0.00000E+00
 -1      1947 2.37045E+01 3.09687E+00 0.00000E+00
 -1      1948 2.22045E+01 3.09687E+00 0.00000E+00
 -1      1949 2.20350E+01 4.00625E+00 0.00000E+00
 -1      1950 2.67045E+01 3.09687E+00 0.00000E+00
 -1      1951 2.52045E+01 3.09687E+00 0.00000E+00
 -1      1952 2.50350E+01 4.00625E+00 0.00000E+00
 -1      1953 2.97045E+01 3.09687E+00 0.00000E+00
 -1      1954 2.82045E+01 3.09687E+00 0.00000E+00
 -1      1955 2.80350E+01 4.00625E+00 0.00000E+00
 -1      1956 3.27045E+01 3.09687E+00 0.00000E+00
 -1      1957 3.12045E+01 3.09687E+00 0.00000E+00
 -1      1958 3.10350E+01 4.00625E+00 0.00000E+00
 -1      1959 3.57045E+01 3.09687E+00 0.00000E+00
 -1      1960 3.42045E+01 3.09687E+00 0.00000E+00
 -1      1961 3.40350E+01 4.00625E+00 0.00000E+00
 -1      1962 3.87045E+01 3.09687E+00 0.00000E+00
 -1      1963 3.72045E+01 3.09687E+00 0.00000E+00
 -1      1964 3.70350E+01 4.00625E+00 0.00000E+00
 -1      1965 4.17045E+01 3.09687E+00 0.00000E+00
 -1      1966 4.02045E+01 3.09687E+00 0.00000E+00
 -1      1967 4.00350E+01 4.00625E+00 0.00000E+00
 -1      1968 4.47045E+01 3.09687E+00 0.00000E+00
 -1      1969 4.32045E+01 3.09687E+00 0.00000E+00
 -1      1970 4.30350E+01 4.00625E+00 0.00000E+00
 -1      1971 4.77045E+01 3.09687E+00 0.00000E+00
 -1      1972 4.62045E+01 3.09687E+00 0.00000E+00
 -1      1973 4.60350E+01 4.00625E+00 0.00000E+00
 -1      1974 5.07045E+01 3.09687E+00 0.00000E+00
 -1      1975 4.92045E+01 3.09687E+00 0.00000E+00
 -1      1976 4.90350E+01 4.00625E+00 0.00000E+00
 -1      1977 5.37045E+01 3.09687E+00 0.00000E+00
 -1      1978 5.22045E+01 3.09687E+00 0.00000E+00
 -1      1979 5.20350E+01 4.00625E+00 0.00000E+00
 -1      1980 5.67045E+01 3.09687E+00 0.00000E+00
 -1      1981 5.52045E+01 3.09687E+00 0.00000E+00
 -1      1982 5.50350E+01 4.00625E+00 0.00000E+00
 -1      1983 5.97045E+01 3.09687E+00 0.00000E+00
 -1      1984 5.82045E+01 3.09687E+00 0.00000E+00
 -1      1985 5.80350E+01 4.00625E+00 0.00000E+00
 -1      1986 6.27045E+01 3.09687E+00 0.00000E+00
 -1      1987 6.12045E+01 3.09687E+00 0.00000E+00
 -1      1988 6.10350E+01 4.00625E+00 0.00000E+00
 -1      1989 6.57045E+01 3.09687E+00 0.00000E+00
 -1      1990 6.42045E+01 3.09687E+00 0.00000E+00
 -1      1991 6.40350E+01 4.00625E+00 0.00000E+00
 -1      1992 6.87045E+01 3.09687E+00 0.00000E+00
 -1      1993 6.72045E+01 3.09687E+00 0.00000E+00
 -1      1994 6.70350E+01 4.00625E+00 0.00000E+00
 -1      1995 7.17045E+01 3.09687E+00 0.00000E+00
 -1      1996 7.02045E+01 3.09687E+00 0.00000E+00
 -1      1997 7.00350E+01 4.00625E+00 0.00000E+00
 -1      1998 7.47045E+01 3.09687E+00 0.00000E+00
 -1      1999 7.32045E+01 3.09687E+00 0.00000E+00
 -1      2000 7.30350E+01 4.00625E+00 0.00000E+00
 -1      2001 7.77045E+01 3.09687E+00 0.00000E+00
 -1      2002 7.62045E+01 3.09687E+00 0.00000E+00
 -1      2003 7.60350E+01 4.00625E+00 0.00000E+00
 -1      2004 8.07045E+01 3.09687E+00 0.00000E+00
 -1      2005 7.92045E+01 3.09687E+00 0.00000E+00
 -1      2006 7.90350E+01 4.00625E+00 0.00000E+00
 -1      2007 8.37045E+01 3.09687E+00 0.00000E+00
 -1      2008 8.22045E+01 3.09687E+00 0.00000E+00
 -1      2009 8.20350E+01 4.00625E+00 0.00000E+00
 -1      2010 8.67045E+01 3.09687E+00 0.00000E+00
 -1      2011 8.52045E+01 3.09687E+00 0.00000E+00
 -1      2012 8.50350E+01 4.00625E+00 0.00000E+00
 -1      2013 8.97045E+01 3.09687E+00 0.00000E+00
 -1      2014 8.82045E+01 3.09687E+00 0.00000E+00
 -1      2015 8.80350E+01 4.00625E+00 0.00000E+00
 -1      2016 9.27045E+01 3.09687E+00 0.00000E+00
 -1      2017 9.12045E+01 3.09687E+00 0.00000E+00
 -1      2018 9.10350E+01 4.00625E+00 0.00000E+00
 -1      2019 9.57045E+01 3.09687E+00 0.00000E+00
 -1      2020 9.42045E+01 3.09687E+00 0.00000E+00
 -1      2021 9.40350E+01 4.00625E+00 0.00000E+00
 -1      2022 9.87045E+01 3.09687E+00 0.00000E+00
 -1      2023 9.72045E+01 3.09687E+00 0.00000E+00
 -1      2024 9.70350E+01 4.00625E+00 0.00000E+00
 -1      2025 1.01704E+02 3.09687E+00 0.00000E+00
 -1      2026 1.00204E+02 3.09687E+00 0.00000E+00
 -1      2027 1.00035E+02 4.00625E+00 0.00000E+00
 -1      2028 1.04704E+02 3.09687E+00 0.00000E+00
 -1      2029 1.03204E+02 3.09687E+00 0.00000E+00
 -1      2030 1.03035E+02 4.00625E+00 0.00000E+00
 -1      2031 1.07704E+02 3.09687E+00 0.00000E+00
 -1      2032 1.06204E+02 3.09687E+00 0.00000E+00
 -1      2033 1.06035E+02 4.00625E+00 0.00000E+00
 -1      2034 1.10704E+02 3.09687E+00 0.00000E+00
 -1      2035 1.09204E+02 3.09687E+00 0.00000E+00
 -1      2036 1.09035E+02 4.00625E+00 0.00000E+00
 -1      2037 1.13704E+02 3.09687E+00 0.00000E+00
 -1      2038 1.12204E+02 3.09687E+00 0.00000E+00
 -1      2039 1.12035E+02 4.00625E+00 0.00000E+00
 -1      2040 1.16704E+02 3.09687E+00 0.00000E+00
 -1      2041 1.15204E+02 3.09687E+00 0.00000E+00
 -1      2042 1.15035E+02 4.00625E+00 0.00000E+00
 -1      2043 1.19704E+02 3.09687E+00 0.00000E+00
 -1      2044 1.18204E+02 3.09687E+00 0.00000E+00
 -1      2045 1.18035E+02 4.00625E+00 0.00000E+00
 -1      2046 1.22704E+02 3.09687E+00 0.00000E+00
 -1      2047 1.21204E+02 3.09687E+00 0.00000E+00
 -1      2048 1.21035E+02 4.00625E+00 0.00000E+00
 -1      2049 1.25704E+02 3.09687E+00 0.00000E+00
 -1      2050 1.24204E+02 3.09687E+00 0.00000E+00
 -1      2051 1.24035E+02 4.00625E+00 0.00000E+00
 -1      2052 1.28704E+02 3.09687E+00 0.00000E+00
 -1      2053 1.27204E+02 3.09687E+00 0.00000E+00
 -1      2054 1.27035E+02 4.00625E+00 0.00000E+00
 -1      2055 1.31704E+02 3.09687E+00 0.00000E+00
 -1      2056 1.30204E+02 3.09687E+00 0.00000E+00
 -1      2057 1.30035E+02 4.00625E+00 0.00000E+00
 -1      2058 1.34704E+02 3.09687E+00 0.00000E+00
 -1      2059 1.33204E+02 3.09687E+00 0.00000E+00
 -1      2060 1.33035E+02 4.00625E+00 0.00000E+00
 -1      2061 1.37704E+02 3.09687E+00 0.00000E+00
 -1      2062 1.36204E+02 3.09687E+00 0.00000E+00
 -1      2063 1.36035E+02 4.00625E+00 0.00000E+00
 -1      2064 1.40704E+02 3.09687E+00 0.00000E+00
 -1      2065 1.39204E+02 3.09687E+00 0.00000E+00
 -1      2066 1.39035E+02 4.00625E+00 0.00000E+00
 -1      2067 1.43704E+02 3.09687E+00 0.00000E+00
 -1      2068 1.42204E+02 3.09687E+00 0.00000E+00
 -1      2069 1.42035E+02 4.00625E+00 0.00000E+00
 -1      2070 1.46171E+02 3.20156E+00 0.00000E+00
 -1      2071 1.44671E+02 3.20156E+00 0.00000E+00
 -1      2072 1.44502E+02 4.11094E+00 0.00000E+00
 -1      2073 1.46435E+02 4.32031E+00 0.00000E+00
 -1      2074 1.46103E+02 1.25375E+01 0.00000E+00
 -1      2075 1.46103E+02 1.10625E+01 0.00000E+00
 -1      2076 1.46103E+02 9.58750E+00 0.00000E+00
 -1      2077 1.46103E+02 8.11250E+00 0.00000E+00
 -1      2078 1.44804E+02 1.03250E+01 0.00000E+00
 -1      2079 1.46269E+02 6.95391E+00 0.00000E+00
 -1      2080 1.46269E+02 5.47891E+00 0.00000E+00
 -1      2081 1.45302E+02 5.37422E+00 0.00000E+00
 -1      2082 1.44970E+02 7.69141E+00 0.00000E+00
 -1      2083 1.46103E+02 1.54375E+01 0.00000E+00
 -1      2084 1.46103E+02 1.39875E+01 0.00000E+00
 -1      2085 1.44804E+02 1.32500E+01 0.00000E+00
 -1      2086 1.46103E+02 1.83875E+01 0.00000E+00
 -1      2087 1.46103E+02 1.69125E+01 0.00000E+00
 -1      2088 1.44804E+02 1.61750E+01 0.00000E+00
 -1      2089 1.46103E+02 2.13375E+01 0.00000E+00
 -1      2090 1.46103E+02 1.98625E+01 0.00000E+00
 -1      2091 1.44804E+02 1.91250E+01 0.00000E+00
 -1      2092 1.46103E+02 2.42875E+01 0.00000E+00
 -1      2093 1.46103E+02 2.28125E+01 0.00000E+00
 -1      2094 1.44804E+02 2.20750E+01 0.00000E+00
 -1      2095 1.46103E+02 2.72375E+01 0.00000E+00
 -1      2096 1.46103E+02 2.57625E+01 0.00000E+00
 -1      2097 1.44804E+02 2.50250E+01 0.00000E+00
 -1      2098 1.46103E+02 3.01875E+01 0.00000E+00
 -1      2099 1.46103E+02 2.87125E+01 0.00000E+00
 -1      2100 1.44804E+02 2.79750E+01 0.00000E+00
 -1      2101 1.46103E+02 3.30875E+01 0.00000E+00
 -1      2102 1.46103E+02 3.16375E+01 0.00000E+00
 -1      2103 1.44804E+02 3.09000E+01 0.00000E+00
 -1      2104 1.46103E+02 3.60375E+01 0.00000E+00
 -1      2105 1.46103E+02 3.45625E+01 0.00000E+00
 -1      2106 1.44804E+02 3.38250E+01 0.00000E+00
 -1      2107 1.46103E+02 3.89875E+01 0.00000E+00
 -1      2108 1.46103E+02 3.75125E+01 0.00000E+00
 -1      2109 1.44804E+02 3.67750E+01 0.00000E+00
 -1      2110 1.46103E+02 4.19375E+01 0.00000E+00
 -1      2111 1.46103E+02 4.04625E+01 0.00000E+00
 -1      2112 1.44804E+02 3.97250E+01 0.00000E+00
 -1      2113 6.18764E+01 1.71400E+01 0.00000E+00
 -1      2114 6.22799E+01 1.79344E+01 0.00000E+00
 -1      2115 6.28002E+01 2.07984E+01 0.00000E+00
 -1      2116 6.28000E+01 2.16483E+01 0.00000E+00
 -1      2117 6.27239E+01 1.89714E+01 0.00000E+00
 -1      2118 6.28271E+01 1.98455E+01 0.00000E+00
 -1      2119 6.10460E+01 1.54729E+01 0.00000E+00
 -1      2120 6.15197E+01 1.62456E+01 0.00000E+00
 -1      2121 5.94829E+01 1.40330E+01 0.00000E+00
 -1      2122 6.02394E+01 1.45259E+01 0.00000E+00
 -1      2123 3.89700E+00 3.74688E+01 0.00000E+00
 -1      2124 3.89700E+00 3.89437E+01 0.00000E+00
 -1      2125 5.19600E+00 3.96813E+01 0.00000E+00
 -1      2126 5.19600E+00 3.67438E+01 0.00000E+00
 -1      2127 5.60955E+01 1.25950E+01 0.00000E+00
 -1      2128 5.69386E+01 1.28845E+01 0.00000E+00
 -1      2129 5.41455E+01 1.23749E+01 0.00000E+00
 -1      2130 5.50283E+01 1.24004E+01 0.00000E+00
 -1      2131 5.22246E+01 1.21691E+01 0.00000E+00
 -1      2132 5.31850E+01 1.22720E+01 0.00000E+00
 -1      2133 5.36463E+01 1.15950E+01 0.00000E+00
 -1      2134 5.00240E+01 1.27453E+01 0.00000E+00
 -1      2135 5.09314E+01 1.22994E+01 0.00000E+00
 -1      2136 4.82845E+01 1.39030E+01 0.00000E+00
 -1      2137 4.90830E+01 1.33467E+01 0.00000E+00
 -1      2138 4.68454E+01 1.54236E+01 0.00000E+00
 -1      2139 4.74877E+01 1.47140E+01 0.00000E+00
 -1      2140 4.58538E+01 1.72189E+01 0.00000E+00
 -1      2141 4.61836E+01 1.63944E+01 0.00000E+00
 -1      2142 4.51755E+01 1.88423E+01 0.00000E+00
 -1      2143 4.55147E+01 1.80306E+01 0.00000E+00
 -1      2144 4.49611E+01 1.73310E+01 0.00000E+00
 -1      2145 4.50759E+01 2.08891E+01 0.00000E+00
 -1      2146 4.50793E+01 1.99893E+01 0.00000E+00
 -1      2147 4.51357E+01 2.27172E+01 0.00000E+00
 -1      2148 4.50681E+01 2.18351E+01 0.00000E+00
 -1      2149 4.56885E+01 2.45929E+01 0.00000E+00
 -1      2150 4.53930E+01 2.37433E+01 0.00000E+00
 -1      2151 4.67196E+01 2.62448E+01 0.00000E+00
 -1      2152 4.61934E+01 2.55444E+01 0.00000E+00
 -1      2153 4.77738E+01 2.77175E+01 0.00000E+00
 -1      2154 4.72110E+01 2.70145E+01 0.00000E+00
 -1      2155 4.93804E+01 2.90020E+01 0.00000E+00
 -1      2156 4.86033E+01 2.85765E+01 0.00000E+00
 -1      2157 5.09217E+01 2.97050E+01 0.00000E+00
 -1      2158 5.01511E+01 2.93535E+01 0.00000E+00
 -1      2159 4.93507E+01 2.98930E+01 0.00000E+00
 -1      2160 5.28694E+01 3.01498E+01 0.00000E+00
 -1      2161 5.20164E+01 3.00018E+01 0.00000E+00
 -1      2162 5.47881E+01 3.03189E+01 0.00000E+00
 -1      2163 5.38815E+01 3.03189E+01 0.00000E+00
 -1      2164 5.68632E+01 3.00242E+01 0.00000E+00
 -1      2165 5.59878E+01 3.03006E+01 0.00000E+00
 -1      2166 5.84961E+01 2.88807E+01 0.00000E+00
 -1      2167 5.77388E+01 2.93210E+01 0.00000E+00
 -1      2168 5.99820E+01 2.77731E+01 0.00000E+00
 -1      2169 5.92770E+01 2.83091E+01 0.00000E+00
 -1      2170 6.13315E+01 2.62859E+01 0.00000E+00
 -1      2171 6.08109E+01 2.70286E+01 0.00000E+00
 -1      2172 6.22585E+01 2.46784E+01 0.00000E+00
 -1      2173 6.17950E+01 2.54822E+01 0.00000E+00
 -1      2174 6.21683E+01 2.62977E+01 0.00000E+00
 -1      2175 6.26968E+01 2.26013E+01 0.00000E+00
 -1      2176 6.25845E+01 2.34962E+01 0.00000E+00
 -1      2177 5.79824E+01 1.32098E+01 0.00000E+00
 -1      2178 5.87327E+01 1.36214E+01 0.00000E+00
 -1      2179 5.95791E+01 1.31494E+01 0.00000E+00
 -1      2180 6.11359E+01 1.45079E+01 0.00000E+00
 -1      2181 6.42300E+00 4.57510E+01 0.00000E+00
 -1      2182 5.77850E+01 1.24125E+01 0.00000E+00
 -1      2183 7.17300E+00 4.44520E+01 0.00000E+00
 -1      2184 6.31000E+01 1.82807E+01 0.00000E+00
 -1      2185 6.35170E+01 2.02706E+01 0.00000E+00
 -1      2186 1.45665E+02 4.31193E+01 0.00000E+00
 -1      2187 6.22993E+01 1.63493E+01 0.00000E+00
 -1      2188 6.33869E+01 2.21764E+01 0.00000E+00
 -1      2189 6.29578E+01 2.43117E+01 0.00000E+00
 -1      2190 6.33310E+01 2.51272E+01 0.00000E+00
 -1      2191 6.36570E+01 2.39450E+01 0.00000E+00
 -1      2192 6.08759E+01 2.78459E+01 0.00000E+00
 -1      2193 5.92662E+01 2.91620E+01 0.00000E+00
 -1      2194 5.76097E+01 3.04368E+01 0.00000E+00
 -1      2195 5.55345E+01 3.11582E+01 0.00000E+00
 -1      2196 5.12160E+01 3.05413E+01 0.00000E+00
 -1      2197 4.77505E+01 2.86824E+01 0.00000E+00
 -1      2198 4.64297E+01 2.70537E+01 0.00000E+00
 -1      2199 4.54335E+01 2.53324E+01 0.00000E+00
 -1      2200 4.46713E+01 2.33549E+01 0.00000E+00
 -1      2201 4.45257E+01 1.92897E+01 0.00000E+00
 -1      2202 4.59621E+01 1.55485E+01 0.00000E+00
 -1      2203 4.74208E+01 1.37666E+01 0.00000E+00
 -1      2204 5.13927E+01 1.16224E+01 0.00000E+00
 -1      2205 5.18540E+01 1.09454E+01 0.00000E+00
 -1      2206 5.05608E+01 1.10757E+01 0.00000E+00
 -1      2207 5.56740E+01 1.18926E+01 0.00000E+00
 -1      2208 4.91585E+01 1.23541E+01 0.00000E+00
 -1      2209 4.44217E+01 2.13828E+01 0.00000E+00
 -1      2210 5.33228E+01 3.10073E+01 0.00000E+00
 -1      2211 1.07850E+01 5.30525E+00 0.00000E+00
 -1      2212 9.28500E+00 5.30525E+00 0.00000E+00
 -1      2213 6.49500E+00 3.01125E+01 0.00000E+00
 -1      2214 6.49500E+00 3.15875E+01 0.00000E+00
 -1      2215 6.49500E+00 3.30625E+01 0.00000E+00
 -1      2216 6.49500E+00 3.45375E+01 0.00000E+00
 -1      2217 7.79400E+00 3.23250E+01 0.00000E+00
 -1      2218 6.49500E+00 2.42125E+01 0.00000E+00
 -1      2219 6.49500E+00 2.56875E+01 0.00000E+00
 -1      2220 6.49500E+00 2.12625E+01 0.00000E+00
 -1      2221 6.49500E+00 2.27375E+01 0.00000E+00
 -1      2222 7.79400E+00 2.34750E+01 0.00000E+00
 -1      2223 6.49500E+00 1.83625E+01 0.00000E+00
 -1      2224 6.49500E+00 1.98125E+01 0.00000E+00
 -1      2225 7.79400E+00 2.05500E+01 0.00000E+00
 -1      2226 6.49500E+00 1.54125E+01 0.00000E+00
 -1      2227 6.49500E+00 1.68875E+01 0.00000E+00
 -1      2228 7.79400E+00 1.76250E+01 0.00000E+00
 -1      2229 6.49500E+00 1.24625E+01 0.00000E+00
 -1      2230 6.49500E+00 1.39375E+01 0.00000E+00
 -1      2231 7.79400E+00 1.46750E+01 0.00000E+00
 -1      2232 6.49500E+00 9.51250E+00 0.00000E+00
 -1      2233 6.49500E+00 1.09875E+01 0.00000E+00
 -1      2234 7.79400E+00 1.17250E+01 0.00000E+00
 -1      2235 6.14492E+01 1.34240E+01 0.00000E+00
 -1      2236 6.22559E+01 1.43710E+01 0.00000E+00
 -1      2237 1.37850E+01 5.30525E+00 0.00000E+00
 -1      2238 1.22850E+01 5.30525E+00 0.00000E+00
 -1      2239 1.15350E+01 6.60425E+00 0.00000E+00
 -1      2240 9.90000E+00 4.35050E+01 0.00000E+00
 -1      2241 1.14000E+01 4.35050E+01 0.00000E+00
 -1      2242 5.74933E+01 1.15111E+01 0.00000E+00
 -1      2243 5.85372E+01 1.18364E+01 0.00000E+00
 -1      2244 1.29000E+01 4.35050E+01 0.00000E+00
 -1      2245 1.44000E+01 4.35050E+01 0.00000E+00
 -1      2246 1.21500E+01 4.22060E+01 0.00000E+00
 -1      2247 1.59000E+01 4.35050E+01 0.00000E+00
 -1      2248 1.74000E+01 4.35050E+01 0.00000E+00
 -1      2249 1.51500E+01 4.22060E+01 0.00000E+00
 -1      2250 1.89000E+01 4.35050E+01 0.00000E+00
 -1      2251 2.04000E+01 4.35050E+01 0.00000E+00
 -1      2252 1.81500E+01 4.22060E+01 0.00000E+00
 -1      2253 2.19000E+01 4.35050E+01 0.00000E+00
 -1      2254 2.34000E+01 4.35050E+01 0.00000E+00
 -1      2255 2.11500E+01 4.22060E+01 0.00000E+00
 -1      2256 2.49000E+01 4.35050E+01 0.00000E+00
 -1      2257 2.64000E+01 4.35050E+01 0.00000E+00
 -1      2258 2.41500E+01 4.22060E+01 0.00000E+00
 -1      2259 2.79000E+01 4.35050E+01 0.00000E+00
 -1      2260 2.94000E+01 4.35050E+01 0.00000E+00
 -1      2261 2.71500E+01 4.22060E+01 0.00000E+00
 -1      2262 3.09000E+01 4.35050E+01 0.00000E+00
 -1      2263 3.24000E+01 4.35050E+01 0.00000E+00
 -1      2264 3.01500E+01 4.22060E+01 0.00000E+00
 -1      2265 3.39000E+01 4.35050E+01 0.00000E+00
 -1      2266 3.54000E+01 4.35050E+01 0.00000E+00
 -1      2267 3.31500E+01 4.22060E+01 0.00000E+00
 -1      2268 3.69000E+01 4.35050E+01 0.00000E+00
 -1      2269 3.84000E+01 4.35050E+01 0.00000E+00
 -1      2270 3.61500E+01 4.22060E+01 0.00000E+00
 -1      2271 3.99000E+01 4.35050E+01 0.00000E+00
 -1      2272 4.14000E+01 4.35050E+01 0.00000E+00
 -1      2273 3.91500E+01 4.22060E+01 0.00000E+00
 -1      2274 4.29000E+01 4.35050E+01 0.00000E+00
 -1      2275 4.44000E+01 4.35050E+01 0.00000E+00
 -1      2276 4.21500E+01 4.22060E+01 0.00000E+00
 -1      2277 4.59000E+01 4.35050E+01 0.00000E+00
 -1      2278 4.74000E+01 4.35050E+01 0.00000E+00
 -1      2279 4.51500E+01 4.22060E+01 0.00000E+00
 -1      2280 4.89000E+01 4.35050E+01 0.00000E+00
 -1      2281 5.04000E+01 4.35050E+01 0.00000E+00
 -1      2282 4.81500E+01 4.22060E+01 0.00000E+00
 -1      2283 5.19000E+01 4.35050E+01 0.00000E+00
 -1      2284 5.34000E+01 4.35050E+01 0.00000E+00
 -1      2285 5.11500E+01 4.22060E+01 0.00000E+00
 -1      2286 5.49000E+01 4.35050E+01 0.00000E+00
 -1      2287 5.64000E+01 4.35050E+01 0.00000E+00
 -1      2288 5.41500E+01 4.22060E+01 0.00000E+00
 -1      2289 5.79000E+01 4.35050E+01 0.00000E+00
 -1      2290 5.94000E+01 4.35050E+01 0.00000E+00
 -1      2291 5.71500E+01 4.22060E+01 0.00000E+00
 -1      2292 6.09000E+01 4.35050E+01 0.00000E+00
 -1      2293 6.24000E+01 4.35050E+01 0.00000E+00
 -1      2294 6.01500E+01 4.22060E+01 0.00000E+00
 -1      2295 6.39000E+01 4.35050E+01 0.00000E+00
 -1      2296 6.54000E+01 4.35050E+01 0.00000E+00
 -1      2297 6.31500E+01 4.22060E+01 0.00000E+00
 -1      2298 6.69000E+01 4.35050E+01 0.00000E+00
 -1      2299 6.84000E+01 4.35050E+01 0.00000E+00
 -1      2300 6.61500E+01 4.22060E+01 0.00000E+00
 -1      2301 6.99000E+01 4.35050E+01 0.00000E+00
 -1      2302 7.14000E+01 4.35050E+01 0.00000E+00
 -1      2303 6.91500E+01 4.22060E+01 0.00000E+00
 -1      2304 7.29000E+01 4.35050E+01 0.00000E+00
 -1      2305 7.44000E+01 4.35050E+01 0.00000E+00
 -1      2306 7.21500E+01 4.22060E+01 0.00000E+00
 -1      2307 7.59000E+01 4.35050E+01 0.00000E+00
 -1      2308 7.74000E+01 4.35050E+01 0.00000E+00
 -1      2309 7.51500E+01 4.22060E+01 0.00000E+00
 -1      2310 7.89000E+01 4.35050E+01 0.00000E+00
 -1      2311 8.04000E+01 4.35050E+01 0.00000E+00
 -1      2312 7.81500E+01 4.22060E+01 0.00000E+00
 -1      2313 8.19000E+01 4.35050E+01 0.00000E+00
 -1      2314 8.34000E+01 4.35050E+01 0.00000E+00
 -1      2315 8.11500E+01 4.22060E+01 0.00000E+00
 -1      2316 8.49000E+01 4.35050E+01 0.00000E+00
 -1      2317 8.64000E+01 4.35050E+01 0.00000E+00
 -1      2318 8.41500E+01 4.22060E+01 0.00000E+00
 -1      2319 8.79000E+01 4.35050E+01 0.00000E+00
 -1      2320 8.94000E+01 4.35050E+01 0.00000E+00
 -1      2321 8.71500E+01 4.22060E+01 0.00000E+00
 -1      2322 9.09000E+01 4.35050E+01 0.00000E+00
 -1      2323 9.24000E+01 4.35050E+01 0.00000E+00
 -1      2324 9.01500E+01 4.22060E+01 0.00000E+00
 -1      2325 9.39000E+01 4.35050E+01 0.00000E+00
 -1      2326 9.54000E+01 4.35050E+01 0.00000E+00
 -1      2327 9.31500E+01 4.22060E+01 0.00000E+00
 -1      2328 9.69000E+01 4.35050E+01 0.00000E+00
 -1      2329 9.84000E+01 4.35050E+01 0.00000E+00
 -1      2330 9.61500E+01 4.22060E+01 0.00000E+00
 -1      2331 9.99000E+01 4.35050E+01 0.00000E+00
 -1      2332 1.01400E+02 4.35050E+01 0.00000E+00
 -1      2333 9.91500E+01 4.22060E+01 0.00000E+00
 -1      2334 1.02900E+02 4.35050E+01 0.00000E+00
 -1      2335 1.04400E+02 4.35050E+01 0.00000E+00
 -1      2336 1.02150E+02 4.22060E+01 0.00000E+00
 -1      2337 1.05900E+02 4.35050E+01 0.00000E+00
 -1      2338 1.07400E+02 4.35050E+01 0.00000E+00
 -1      2339 1.05150E+02 4.22060E+01 0.00000E+00
 -1      2340 1.08900E+02 4.35050E+01 0.00000E+00
 -1      2341 1.10400E+02 4.35050E+01 0.00000E+00
 -1      2342 1.08150E+02 4.22060E+01 0.00000E+00
 -1      2343 1.11900E+02 4.35050E+01 0.00000E+00
 -1      2344 1.13400E+02 4.35050E+01 0.00000E+00
 -1      2345 1.11150E+02 4.22060E+01 0.00000E+00
 -1      2346 1.14900E+02 4.35050E+01 0.00000E+00
 -1      2347 1.16400E+02 4.35050E+01 0.00000E+00
 -1      2348 1.14150E+02 4.22060E+01 0.00000E+00
 -1      2349 1.17900E+02 4.35050E+01 0.00000E+00
 -1      2350 1.19400E+02 4.35050E+01 0.00000E+00
 -1      2351 1.17150E+02 4.22060E+01 0.00000E+00
 -1      2352 1.20900E+02 4.35050E+01 0.00000E+00
 -1      2353 1.22400E+02 4.35050E+01 0.00000E+00
 -1      2354 1.20150E+02 4.22060E+01 0.00000E+00
 -1      2355 1.23900E+02 4.35050E+01 0.00000E+00
 -1      2356 1.25400E+02 4.35050E+01 0.00000E+00
 -1      2357 1.23150E+02 4.22060E+01 0.00000E+00
 -1      2358 1.26900E+02 4.35050E+01 0.00000E+00
 -1      2359 1.28400E+02 4.35050E+01 0.00000E+00
 -1      2360 1.26150E+02 4.22060E+01 0.00000E+00
 -1      2361 1.29900E+02 4.35050E+01 0.00000E+00
 -1      2362 1.31400E+02 4.35050E+01 0.00000E+00
 -1      2363 1.29150E+02 4.22060E+01 0.00000E+00
 -1      2364 1.32900E+02 4.35050E+01 0.00000E+00
 -1      2365 1.34400E+02 4.35050E+01 0.00000E+00
 -1      2366 1.32150E+02 4.22060E+01 0.00000E+00
 -1      2367 1.35900E+02 4.35050E+01 0.00000E+00
 -1      2368 1.37400E+02 4.35050E+01 0.00000E+00
 -1      2369 1.35150E+02 4.22060E+01 0.00000E+00
 -1      2370 1.38900E+02 4.35050E+01 0.00000E+00
 -1      2371 1.40400E+02 4.35050E+01 0.00000E+00
 -1      2372 1.38150E+02 4.22060E+01 0.00000E+00
 -1      2373 1.97850E+01 5.30525E+00 0.00000E+00
 -1      2374 1.82850E+01 5.30525E+00 0.00000E+00
 -1      2375 2.27850E+01 5.30525E+00 0.00000E+00
 -1      2376 2.12850E+01 5.30525E+00 0.00000E+00
 -1      2377 2.05350E+01 6.60425E+00 0.00000E+00
 -1      2378 2.57850E+01 5.30525E+00 0.00000E+00
 -1      2379 2.42850E+01 5.30525E+00 0.00000E+00
 -1      2380 2.35350E+01 6.60425E+00 0.00000E+00
 -1      2381 2.87850E+01 5.30525E+00 0.00000E+00
 -1      2382 2.72850E+01 5.30525E+00 0.00000E+00
 -1      2383 2.65350E+01 6.60425E+00 0.00000E+00
 -1      2384 3.17850E+01 5.30525E+00 0.00000E+00
 -1      2385 3.02850E+01 5.30525E+00 0.00000E+00
 -1      2386 2.95350E+01 6.60425E+00 0.00000E+00
 -1      2387 3.47850E+01 5.30525E+00 0.00000E+00
 -1      2388 3.32850E+01 5.30525E+00 0.00000E+00
 -1      2389 3.25350E+01 6.60425E+00 0.00000E+00
 -1      2390 3.77850E+01 5.30525E+00 0.00000E+00
 -1      2391 3.62850E+01 5.30525E+00 0.00000E+00
 -1      2392 3.55350E+01 6.60425E+00 0.00000E+00
 -1      2393 4.07850E+01 5.30525E+00 0.00000E+00
 -1      2394 3.92850E+01 5.30525E+00 0.00000E+00
 -1      2395 3.85350E+01 6.60425E+00 0.00000E+00
 -1      2396 4.37850E+01 5.30525E+00 0.00000E+00
 -1      2397 4.22850E+01 5.30525E+00 0.00000E+00
 -1      2398 4.15350E+01 6.60425E+00 0.00000E+00
 -1      2399 4.67850E+01 5.30525E+00 0.00000E+00
 -1      2400 4.52850E+01 5.30525E+00 0.00000E+00
 -1      2401 4.45350E+01 6.60425E+00 0.00000E+00
 -1      2402 4.97850E+01 5.30525E+00 0.00000E+00
 -1      2403 4.82850E+01 5.30525E+00 0.00000E+00
 -1      2404 4.75350E+01 6.60425E+00 0.00000E+00
 -1      2405 5.27850E+01 5.30525E+00 0.00000E+00
 -1      2406 5.12850E+01 5.30525E+00 0.00000E+00
 -1      2407 5.05350E+01 6.60425E+00 0.00000E+00
 -1      2408 5.57850E+01 5.30525E+00 0.00000E+00
 -1      2409 5.42850E+01 5.30525E+00 0.00000E+00
 -1      2410 5.35350E+01 6.60425E+00 0.00000E+00
 -1      2411 5.87850E+01 5.30525E+00 0.00000E+00
 -1      2412 5.72850E+01 5.30525E+00 0.00000E+00
 -1      2413 5.65350E+01 6.60425E+00 0.00000E+00
 -1      2414 6.17850E+01 5.30525E+00 0.00000E+00
 -1      2415 6.02850E+01 5.30525E+00 0.00000E+00
 -1      2416 5.95350E+01 6.60425E+00 0.00000E+00
 -1      2417 6.47850E+01 5.30525E+00 0.00000E+00
 -1      2418 6.32850E+01 5.30525E+00 0.00000E+00
 -1      2419 6.25350E+01 6.60425E+00 0.00000E+00
 -1      2420 6.77850E+01 5.30525E+00 0.00000E+00
 -1      2421 6.62850E+01 5.30525E+00 0.00000E+00
 -1      2422 6.55350E+01 6.60425E+00 0.00000E+00
 -1      2423 7.07850E+01 5.30525E+00 0.00000E+00
 -1      2424 6.92850E+01 5.30525E+00 0.00000E+00
 -1      2425 6.85350E+01 6.60425E+00 0.00000E+00
 -1      2426 7.37850E+01 5.30525E+00 0.00000E+00
 -1      2427 7.22850E+01 5.30525E+00 0.00000E+00
 -1      2428 7.15350E+01 6.60425E+00 0.00000E+00
 -1      2429 7.67850E+01 5.30525E+00 0.00000E+00
 -1      2430 7.52850E+01 5.30525E+00 0.00000E+00
 -1      2431 7.45350E+01 6.60425E+00 0.00000E+00
 -1      2432 7.97850E+01 5.30525E+00 0.00000E+00
 -1      2433 7.82850E+01 5.30525E+00 0.00000E+00
 -1      2434 7.75350E+01 6.60425E+00 0.00000E+00
 -1      2435 8.27850E+01 5.30525E+00 0.00000E+00
 -1      2436 8.12850E+01 5.30525E+00 0.00000E+00
 -1      2437 8.05350E+01 6.60425E+00 0.00000E+00
 -1      2438 8.57850E+01 5.30525E+00 0.00000E+00
 -1      2439 8.42850E+01 5.30525E+00 0.00000E+00
 -1      2440 8.35350E+01 6.60425E+00 0.00000E+00
 -1      2441 8.87850E+01 5.30525E+00 0.00000E+00
 -1      2442 8.72850E+01 5.30525E+00 0.00000E+00
 -1      2443 8.65350E+01 6.60425E+00 0.00000E+00
 -1      2444 9.17850E+01 5.30525E+00 0.00000E+00
 -1      2445 9.02850E+01 5.30525E+00 0.00000E+00
 -1      2446 8.95350E+01 6.60425E+00 0.00000E+00
 -1      2447 9.47850E+01 5.30525E+00 0.00000E+00
 -1      2448 9.32850E+01 5.30525E+00 0.00000E+00
 -1      2449 9.25350E+01 6.60425E+00 0.00000E+00
 -1      2450 9.77850E+01 5.30525E+00 0.00000E+00
 -1      2451 9.62850E+01 5.30525E+00 0.00000E+00
 -1      2452 9.55350E+01 6.60425E+00 0.00000E+00
 -1      2453 1.00785E+02 5.30525E+00 0.00000E+00
 -1      2454 9.92850E+01 5.30525E+00 0.00000E+00
 -1      2455 9.85350E+01 6.60425E+00 0.00000E+00
 -1      2456 1.03785E+02 5.30525E+00 0.00000E+00
 -1      2457 1.02285E+02 5.30525E+00 0.00000E+00
 -1      2458 1.01535E+02 6.60425E+00 0.00000E+00
 -1      2459 1.06785E+02 5.30525E+00 0.00000E+00
 -1      2460 1.05285E+02 5.30525E+00 0.00000E+00
 -1      2461 1.04535E+02 6.60425E+00 0.00000E+00
 -1      2462 1.09785E+02 5.30525E+00 0.00000E+00
 -1      2463 1.08285E+02 5.30525E+00 0.00000E+00
 -1      2464 1.07535E+02 6.60425E+00 0.00000E+00
 -1      2465 1.12785E+02 5.30525E+00 0.00000E+00
 -1      2466 1.11285E+02 5.30525E+00 0.00000E+00
 -1      2467 1.10535E+02 6.60425E+00 0.00000E+00
 -1      2468 1.15785E+02 5.30525E+00 0.00000E+00
 -1      2469 1.14285E+02 5.30525E+00 0.00000E+00
 -1      2470 1.13535E+02 6.60425E+00 0.00000E+00
 -1      2471 1.18785E+02 5.30525E+00 0.00000E+00
 -1      2472 1.17285E+02 5.30525E+00 0.00000E+00
 -1      2473 1.16535E+02 6.60425E+00 0.00000E+00
 -1      2474 1.21785E+02 5.30525E+00 0.00000E+00
 -1      2475 1.20285E+02 5.30525E+00 0.00000E+00
 -1      2476 1.19535E+02 6.60425E+00 0.00000E+00
 -1      2477 1.24785E+02 5.30525E+00 0.00000E+00
 -1      2478 1.23285E+02 5.30525E+00 0.00000E+00
 -1      2479 1.22535E+02 6.60425E+00 0.00000E+00
 -1      2480 1.27785E+02 5.30525E+00 0.00000E+00
 -1      2481 1.26285E+02 5.30525E+00 0.00000E+00
 -1      2482 1.25535E+02 6.60425E+00 0.00000E+00
 -1      2483 1.30785E+02 5.30525E+00 0.00000E+00
 -1      2484 1.29285E+02 5.30525E+00 0.00000E+00
 -1      2485 1.28535E+02 6.60425E+00 0.00000E+00
 -1      2486 1.33785E+02 5.30525E+00 0.00000E+00
 -1      2487 1.32285E+02 5.30525E+00 0.00000E+00
 -1      2488 1.31535E+02 6.60425E+00 0.00000E+00
 -1      2489 1.36785E+02 5.30525E+00 0.00000E+00
 -1      2490 1.35285E+02 5.30525E+00 0.00000E+00
 -1      2491 1.34535E+02 6.60425E+00 0.00000E+00
 -1      2492 1.39785E+02 5.30525E+00 0.00000E+00
 -1      2493 1.38285E+02 5.30525E+00 0.00000E+00
 -1      2494 1.37535E+02 6.60425E+00 0.00000E+00
 -1      2495 1.42785E+02 5.30525E+00 0.00000E+00
 -1      2496 1.41285E+02 5.30525E+00 0.00000E+00
 -1      2497 1.40535E+02 6.60425E+00 0.00000E+00
 -1      2498 1.44336E+02 5.26953E+00 0.00000E+00
 -1      2499 1.43505E+02 1.69125E+01 0.00000E+00
 -1      2500 1.43505E+02 1.54375E+01 0.00000E+00
 -1      2501 1.43505E+02 1.98625E+01 0.00000E+00
 -1      2502 1.43505E+02 1.83875E+01 0.00000E+00
 -1      2503 1.42206E+02 1.76500E+01 0.00000E+00
 -1      2504 1.43505E+02 1.10625E+01 0.00000E+00
 -1      2505 1.43505E+02 9.58750E+00 0.00000E+00
 -1      2506 1.43505E+02 1.39750E+01 0.00000E+00
 -1      2507 1.43505E+02 1.25250E+01 0.00000E+00
 -1      2508 1.42206E+02 1.17875E+01 0.00000E+00
 -1      2509 1.42206E+02 1.47125E+01 0.00000E+00
 -1      2510 1.43505E+02 2.28125E+01 0.00000E+00
 -1      2511 1.43505E+02 2.13375E+01 0.00000E+00
 -1      2512 1.42206E+02 2.06000E+01 0.00000E+00
 -1      2513 1.43505E+02 2.57625E+01 0.00000E+00
 -1      2514 1.43505E+02 2.42875E+01 0.00000E+00
 -1      2515 1.42206E+02 2.35500E+01 0.00000E+00
 -1      2516 1.43505E+02 2.87125E+01 0.00000E+00
 -1      2517 1.43505E+02 2.72375E+01 0.00000E+00
 -1      2518 1.42206E+02 2.65000E+01 0.00000E+00
 -1      2519 1.43505E+02 3.16125E+01 0.00000E+00
 -1      2520 1.43505E+02 3.01625E+01 0.00000E+00
 -1      2521 1.42206E+02 2.94250E+01 0.00000E+00
 -1      2522 1.43505E+02 3.45625E+01 0.00000E+00
 -1      2523 1.43505E+02 3.30875E+01 0.00000E+00
 -1      2524 1.42206E+02 3.23500E+01 0.00000E+00
 -1      2525 1.43505E+02 3.75125E+01 0.00000E+00
 -1      2526 1.43505E+02 3.60375E+01 0.00000E+00
 -1      2527 1.42206E+02 3.53000E+01 0.00000E+00
 -1      2528 1.43505E+02 4.04625E+01 0.00000E+00
 -1      2529 1.43505E+02 3.89875E+01 0.00000E+00
 -1      2530 1.42206E+02 3.82500E+01 0.00000E+00
 -1      2531 6.43039E+01 1.98160E+01 0.00000E+00
 -1      2532 6.42770E+01 2.07689E+01 0.00000E+00
 -1      2533 6.28396E+01 1.56154E+01 0.00000E+00
 -1      2534 6.31963E+01 1.65098E+01 0.00000E+00
 -1      2535 1.67850E+01 5.30525E+00 0.00000E+00
 -1      2536 1.52850E+01 5.30525E+00 0.00000E+00
 -1      2537 1.75350E+01 6.60425E+00 0.00000E+00
 -1      2538 1.44321E+02 4.30606E+01 0.00000E+00
 -1      2539 6.41738E+01 2.17219E+01 0.00000E+00
 -1      2540 6.40706E+01 2.26749E+01 0.00000E+00
 -1      2541 6.49607E+01 2.12673E+01 0.00000E+00
 -1      2542 6.36403E+01 1.75469E+01 0.00000E+00
 -1      2543 6.40843E+01 1.85839E+01 0.00000E+00
 -1      2544 6.41807E+01 1.68130E+01 0.00000E+00
 -1      2545 6.55950E+00 4.28890E+01 0.00000E+00
 -1      2546 8.53650E+00 4.32410E+01 0.00000E+00
 -1      2547 9.28650E+00 4.19420E+01 0.00000E+00
 -1      2548 6.55950E+00 4.14140E+01 0.00000E+00
 -1      2549 6.17794E+01 2.80182E+01 0.00000E+00
 -1      2550 6.09506E+01 2.87626E+01 0.00000E+00
 -1      2551 4.75785E+01 2.96786E+01 0.00000E+00
 -1      2552 4.67490E+01 2.88195E+01 0.00000E+00
 -1      2553 4.49572E+01 1.55744E+01 0.00000E+00
 -1      2554 4.56191E+01 1.46036E+01 0.00000E+00
 -1      2555 6.49500E+00 2.71625E+01 0.00000E+00
 -1      2556 6.49500E+00 2.86375E+01 0.00000E+00
 -1      2557 7.79400E+00 2.93750E+01 0.00000E+00
 -1      2558 7.79400E+00 2.64250E+01 0.00000E+00
 -1      2559 5.52942E+01 1.09516E+01 0.00000E+00
 -1      2560 5.63614E+01 1.11462E+01 0.00000E+00
 -1      2561 4.81811E+01 1.18617E+01 0.00000E+00
 -1      2562 4.91221E+01 1.12602E+01 0.00000E+00
 -1      2563 5.32485E+01 1.07742E+01 0.00000E+00
 -1      2564 5.42090E+01 1.08771E+01 0.00000E+00
 -1      2565 4.35603E+01 2.18488E+01 0.00000E+00
 -1      2566 4.35681E+01 2.09027E+01 0.00000E+00
 -1      2567 4.64704E+01 1.36298E+01 0.00000E+00
 -1      2568 4.72672E+01 1.28188E+01 0.00000E+00
 -1      2569 4.40003E+01 1.74063E+01 0.00000E+00
 -1      2570 4.43394E+01 1.65946E+01 0.00000E+00
 -1      2571 5.36874E+01 3.19377E+01 0.00000E+00
 -1      2572 5.26754E+01 3.17686E+01 0.00000E+00
 -1      2573 4.36643E+01 1.97557E+01 0.00000E+00
 -1      2574 4.37605E+01 1.86087E+01 0.00000E+00
 -1      2575 4.28029E+01 2.02217E+01 0.00000E+00
 -1      2576 4.41307E+01 2.40358E+01 0.00000E+00
 -1      2577 4.38734E+01 2.30098E+01 0.00000E+00
 -1      2578 4.47804E+01 2.62887E+01 0.00000E+00
 -1      2579 4.42755E+01 2.53372E+01 0.00000E+00
 -1      2580 4.60104E+01 2.79390E+01 0.00000E+00
 -1      2581 4.55191E+01 2.71692E+01 0.00000E+00
 -1      2582 4.43611E+01 2.71740E+01 0.00000E+00
 -1      2583 4.58384E+01 2.89351E+01 0.00000E+00
 -1      2584 4.93801E+01 3.08490E+01 0.00000E+00
 -1      2585 4.86095E+01 3.04975E+01 0.00000E+00
 -1      2586 5.15389E+01 3.15174E+01 0.00000E+00
 -1      2587 5.04443E+01 3.12206E+01 0.00000E+00
 -1      2588 5.61473E+01 3.20066E+01 0.00000E+00
 -1      2589 5.49477E+01 3.20248E+01 0.00000E+00
 -1      2590 5.86370E+01 3.08191E+01 0.00000E+00
 -1      2591 5.77614E+01 3.15223E+01 0.00000E+00
 -1      2592 6.01987E+01 2.96759E+01 0.00000E+00
 -1      2593 5.94179E+01 3.02475E+01 0.00000E+00
 -1      2594 5.95695E+01 3.13331E+01 0.00000E+00
 -1      2595 6.31429E+01 2.63242E+01 0.00000E+00
 -1      2596 6.26794E+01 2.71280E+01 0.00000E+00
 -1      2597 5.95963E+01 1.22285E+01 0.00000E+00
 -1      2598 6.03465E+01 1.26400E+01 0.00000E+00
 -1      2599 8.07525E+00 5.11044E+00 0.00000E+00
 -1      2600 6.57525E+00 5.11044E+00 0.00000E+00
 -1      2601 6.40575E+00 6.01981E+00 0.00000E+00
 -1      2602 8.82525E+00 6.40944E+00 0.00000E+00
 -1      2603 5.71136E+01 1.05702E+01 0.00000E+00
 -1      2604 7.79400E+00 3.52687E+01 0.00000E+00
 -1      2605 6.49500E+00 3.60062E+01 0.00000E+00
 -1      2606 6.49500E+00 3.74750E+01 0.00000E+00
 -1      2607 6.31529E+01 1.45315E+01 0.00000E+00
 -1      2608 6.14664E+01 1.25031E+01 0.00000E+00
 -1      2609 6.40575E+00 7.49481E+00 0.00000E+00
 -1      2610 6.27540E+01 2.80447E+01 0.00000E+00
 -1      2611 5.93046E+01 1.13271E+01 0.00000E+00
 -1      2612 6.11022E+01 2.98482E+01 0.00000E+00
 -1      2613 6.52308E+01 2.30358E+01 0.00000E+00
 -1      2614 6.44439E+01 2.34904E+01 0.00000E+00
 -1      2615 6.48172E+01 2.43059E+01 0.00000E+00
 -1      2616 1.43586E+02 6.56853E+00 0.00000E+00
 -1      2617 1.43419E+02 7.72713E+00 0.00000E+00
 -1      2618 5.71746E+01 3.23889E+01 0.00000E+00
 -1      2619 5.65878E+01 3.32555E+01 0.00000E+00
 -1      2620 5.82018E+01 3.27712E+01 0.00000E+00
 -1      2621 6.48443E+01 1.90822E+01 0.00000E+00
 -1      2622 4.97031E+01 3.18251E+01 0.00000E+00
 -1      2623 1.45350E+01 6.60425E+00 0.00000E+00
 -1      2624 4.39964E+01 1.56497E+01 0.00000E+00
 -1      2625 6.55950E+00 3.99453E+01 0.00000E+00
 -1      2626 4.76080E+01 3.06345E+01 0.00000E+00
 -1      2627 5.43003E+01 3.27860E+01 0.00000E+00
 -1      2628 4.31388E+01 1.78722E+01 0.00000E+00
 -1      2629 4.54655E+01 1.36558E+01 0.00000E+00
 -1      2630 4.30197E+01 2.25296E+01 0.00000E+00
 -1      2631 5.24166E+01 1.02275E+01 0.00000E+00
 -1      2632 4.95833E+01 1.05833E+01 0.00000E+00
 -1      2633 5.00446E+01 9.90629E+00 0.00000E+00
 -1      2634 4.86059E+01 1.00908E+01 0.00000E+00
 -1      2635 4.72307E+01 1.17249E+01 0.00000E+00
 -1      2636 5.48964E+01 1.01308E+01 0.00000E+00
 -1      2637 5.19036E+01 3.24478E+01 0.00000E+00
 -1      2638 4.34776E+01 2.49920E+01 0.00000E+00
 -1      2639 1.42758E+02 4.35929E+01 0.00000E+00
 -1      2640 1.43241E+02 4.17323E+01 0.00000E+00
 -1      2641 1.41942E+02 4.09948E+01 0.00000E+00
 -1      2642 1.41414E+02 4.35342E+01 0.00000E+00
 -1      2643 6.38421E+01 2.59575E+01 0.00000E+00
 -1      2644 7.70475E+00 8.23231E+00 0.00000E+00
 -1      2645 1.42120E+02 8.46463E+00 0.00000E+00
 -1      2646 1.40664E+02 4.22352E+01 0.00000E+00
 -1      2647 9.09300E+00 1.98250E+01 0.00000E+00
 -1      2648 9.09300E+00 2.12750E+01 0.00000E+00
 -1      2649 9.09300E+00 2.27500E+01 0.00000E+00
 -1      2650 9.09300E+00 2.42250E+01 0.00000E+00
 -1      2651 1.03920E+01 2.20250E+01 0.00000E+00
 -1      2652 9.09300E+00 1.39375E+01 0.00000E+00
 -1      2653 9.09300E+00 1.54125E+01 0.00000E+00
 -1      2654 9.09300E+00 1.09875E+01 0.00000E+00
 -1      2655 9.09300E+00 1.24625E+01 0.00000E+00
 -1      2656 1.03920E+01 1.32000E+01 0.00000E+00
 -1      2657 1.40706E+02 1.03250E+01 0.00000E+00
 -1      2658 1.40620E+02 8.46463E+00 0.00000E+00
 -1      2659 1.39120E+02 8.46463E+00 0.00000E+00
 -1      2660 8.91450E+00 8.42712E+00 0.00000E+00
 -1      2661 6.21402E+01 2.99366E+01 0.00000E+00
 -1      2662 6.13884E+01 3.08498E+01 0.00000E+00
 -1      2663 1.44000E+01 4.09070E+01 0.00000E+00
 -1      2664 1.59000E+01 4.09070E+01 0.00000E+00
 -1      2665 1.74000E+01 4.09070E+01 0.00000E+00
 -1      2666 1.89000E+01 4.09070E+01 0.00000E+00
 -1      2667 1.66500E+01 3.96080E+01 0.00000E+00
 -1      2668 2.04000E+01 4.09070E+01 0.00000E+00
 -1      2669 2.19000E+01 4.09070E+01 0.00000E+00
 -1      2670 1.96500E+01 3.96080E+01 0.00000E+00
 -1      2671 2.34000E+01 4.09070E+01 0.00000E+00
 -1      2672 2.49000E+01 4.09070E+01 0.00000E+00
 -1      2673 2.26500E+01 3.96080E+01 0.00000E+00
 -1      2674 2.64000E+01 4.09070E+01 0.00000E+00
 -1      2675 2.79000E+01 4.09070E+01 0.00000E+00
 -1      2676 2.56500E+01 3.96080E+01 0.00000E+00
 -1      2677 2.94000E+01 4.09070E+01 0.00000E+00
 -1      2678 3.09000E+01 4.09070E+01 0.00000E+00
 -1      2679 2.86500E+01 3.96080E+01 0.00000E+00
 -1      2680 3.24000E+01 4.09070E+01 0.00000E+00
 -1      2681 3.39000E+01 4.09070E+01 0.00000E+00
 -1      2682 3.16500E+01 3.96080E+01 0.00000E+00
 -1      2683 3.54000E+01 4.09070E+01 0.00000E+00
 -1      2684 3.69000E+01 4.09070E+01 0.00000E+00
 -1      2685 3.46500E+01 3.96080E+01 0.00000E+00
 -1      2686 3.84000E+01 4.09070E+01 0.00000E+00
 -1      2687 3.99000E+01 4.09070E+01 0.00000E+00
 -1      2688 3.76500E+01 3.96080E+01 0.00000E+00
 -1      2689 4.14000E+01 4.09070E+01 0.00000E+00
 -1      2690 4.29000E+01 4.09070E+01 0.00000E+00
 -1      2691 4.06500E+01 3.96080E+01 0.00000E+00
 -1      2692 4.44000E+01 4.09070E+01 0.00000E+00
 -1      2693 4.59000E+01 4.09070E+01 0.00000E+00
 -1      2694 4.36500E+01 3.96080E+01 0.00000E+00
 -1      2695 4.74000E+01 4.09070E+01 0.00000E+00
 -1      2696 4.89000E+01 4.09070E+01 0.00000E+00
 -1      2697 4.66500E+01 3.96080E+01 0.00000E+00
 -1      2698 5.04000E+01 4.09070E+01 0.00000E+00
 -1      2699 5.19000E+01 4.09070E+01 0.00000E+00
 -1      2700 4.96500E+01 3.96080E+01 0.00000E+00
 -1      2701 5.34000E+01 4.09070E+01 0.00000E+00
 -1      2702 5.49000E+01 4.09070E+01 0.00000E+00
 -1      2703 5.26500E+01 3.96080E+01 0.00000E+00
 -1      2704 5.64000E+01 4.09070E+01 0.00000E+00
 -1      2705 5.79000E+01 4.09070E+01 0.00000E+00
 -1      2706 5.56500E+01 3.96080E+01 0.00000E+00
 -1      2707 5.94000E+01 4.09070E+01 0.00000E+00
 -1      2708 6.09000E+01 4.09070E+01 0.00000E+00
 -1      2709 5.86500E+01 3.96080E+01 0.00000E+00
 -1      2710 6.24000E+01 4.09070E+01 0.00000E+00
 -1      2711 6.39000E+01 4.09070E+01 0.00000E+00
 -1      2712 6.16500E+01 3.96080E+01 0.00000E+00
 -1      2713 6.54000E+01 4.09070E+01 0.00000E+00
 -1      2714 6.69000E+01 4.09070E+01 0.00000E+00
 -1      2715 6.46500E+01 3.96080E+01 0.00000E+00
 -1      2716 6.84000E+01 4.09070E+01 0.00000E+00
 -1      2717 6.99000E+01 4.09070E+01 0.00000E+00
 -1      2718 6.76500E+01 3.96080E+01 0.00000E+00
 -1      2719 7.14000E+01 4.09070E+01 0.00000E+00
 -1      2720 7.29000E+01 4.09070E+01 0.00000E+00
 -1      2721 7.06500E+01 3.96080E+01 0.00000E+00
 -1      2722 7.44000E+01 4.09070E+01 0.00000E+00
 -1      2723 7.59000E+01 4.09070E+01 0.00000E+00
 -1      2724 7.36500E+01 3.96080E+01 0.00000E+00
 -1      2725 7.74000E+01 4.09070E+01 0.00000E+00
 -1      2726 7.89000E+01 4.09070E+01 0.00000E+00
 -1      2727 7.66500E+01 3.96080E+01 0.00000E+00
 -1      2728 8.04000E+01 4.09070E+01 0.00000E+00
 -1      2729 8.19000E+01 4.09070E+01 0.00000E+00
 -1      2730 7.96500E+01 3.96080E+01 0.00000E+00
 -1      2731 8.34000E+01 4.09070E+01 0.00000E+00
 -1      2732 8.49000E+01 4.09070E+01 0.00000E+00
 -1      2733 8.26500E+01 3.96080E+01 0.00000E+00
 -1      2734 8.64000E+01 4.09070E+01 0.00000E+00
 -1      2735 8.79000E+01 4.09070E+01 0.00000E+00
 -1      2736 8.56500E+01 3.96080E+01 0.00000E+00
 -1      2737 8.94000E+01 4.09070E+01 0.00000E+00
 -1      2738 9.09000E+01 4.09070E+01 0.00000E+00
 -1      2739 8.86500E+01 3.96080E+01 0.00000E+00
 -1      2740 9.24000E+01 4.09070E+01 0.00000E+00
 -1      2741 9.39000E+01 4.09070E+01 0.00000E+00
 -1      2742 9.16500E+01 3.96080E+01 0.00000E+00
 -1      2743 9.54000E+01 4.09070E+01 0.00000E+00
 -1      2744 9.69000E+01 4.09070E+01 0.00000E+00
 -1      2745 9.46500E+01 3.96080E+01 0.00000E+00
 -1      2746 9.84000E+01 4.09070E+01 0.00000E+00
 -1      2747 9.99000E+01 4.09070E+01 0.00000E+00
 -1      2748 9.76500E+01 3.96080E+01 0.00000E+00
 -1      2749 1.01400E+02 4.09070E+01 0.00000E+00
 -1      2750 1.02900E+02 4.09070E+01 0.00000E+00
 -1      2751 1.00650E+02 3.96080E+01 0.00000E+00
 -1      2752 1.04400E+02 4.09070E+01 0.00000E+00
 -1      2753 1.05900E+02 4.09070E+01 0.00000E+00
 -1      2754 1.03650E+02 3.96080E+01 0.00000E+00
 -1      2755 1.07400E+02 4.09070E+01 0.00000E+00
 -1      2756 1.08900E+02 4.09070E+01 0.00000E+00
 -1      2757 1.06650E+02 3.96080E+01 0.00000E+00
 -1      2758 1.10400E+02 4.09070E+01 0.00000E+00
 -1      2759 1.11900E+02 4.09070E+01 0.00000E+00
 -1      2760 1.09650E+02 3.96080E+01 0.00000E+00
 -1      2761 1.13400E+02 4.09070E+01 0.00000E+00
 -1      2762 1.14900E+02 4.09070E+01 0.00000E+00
 -1      2763 1.12650E+02 3.96080E+01 0.00000E+00
 -1      2764 1.16400E+02 4.09070E+01 0.00000E+00
 -1      2765 1.17900E+02 4.09070E+01 0.00000E+00
 -1      2766 1.15650E+02 3.96080E+01 0.00000E+00
 -1      2767 1.19400E+02 4.09070E+01 0.00000E+00
 -1      2768 1.20900E+02 4.09070E+01 0.00000E+00
 -1      2769 1.18650E+02 3.96080E+01 0.00000E+00
 -1      2770 1.22400E+02 4.09070E+01 0.00000E+00
 -1      2771 1.23900E+02 4.09070E+01 0.00000E+00
 -1      2772 1.21650E+02 3.96080E+01 0.00000E+00
 -1      2773 1.25400E+02 4.09070E+01 0.00000E+00
 -1      2774 1.26900E+02 4.09070E+01 0.00000E+00
 -1      2775 1.24650E+02 3.96080E+01 0.00000E+00
 -1      2776 1.28400E+02 4.09070E+01 0.00000E+00
 -1      2777 1.29900E+02 4.09070E+01 0.00000E+00
 -1      2778 1.27650E+02 3.96080E+01 0.00000E+00
 -1      2779 1.31400E+02 4.09070E+01 0.00000E+00
 -1      2780 1.32900E+02 4.09070E+01 0.00000E+00
 -1      2781 1.30650E+02 3.96080E+01 0.00000E+00
 -1      2782 1.34400E+02 4.09070E+01 0.00000E+00
 -1      2783 1.35900E+02 4.09070E+01 0.00000E+00
 -1      2784 1.33650E+02 3.96080E+01 0.00000E+00
 -1      2785 1.37400E+02 4.09070E+01 0.00000E+00
 -1      2786 1.38900E+02 4.09070E+01 0.00000E+00
 -1      2787 1.36650E+02 3.96080E+01 0.00000E+00
 -1      2788 2.42850E+01 7.90325E+00 0.00000E+00
 -1      2789 2.27850E+01 7.90325E+00 0.00000E+00
 -1      2790 6.48661E+01 2.55051E+01 0.00000E+00
 -1      2791 6.46780E+01 2.67021E+01 0.00000E+00
 -1      2792 5.90727E+01 1.03269E+01 0.00000E+00
 -1      2793 6.01318E+01 1.07189E+01 0.00000E+00
 -1      2794 2.12850E+01 7.90325E+00 0.00000E+00
 -1      2795 1.97850E+01 7.90325E+00 0.00000E+00
 -1      2796 2.20350E+01 9.20225E+00 0.00000E+00
 -1      2797 3.02850E+01 7.90325E+00 0.00000E+00
 -1      2798 2.87850E+01 7.90325E+00 0.00000E+00
 -1      2799 3.32850E+01 7.90325E+00 0.00000E+00
 -1      2800 3.17850E+01 7.90325E+00 0.00000E+00
 -1      2801 3.10350E+01 9.20225E+00 0.00000E+00
 -1      2802 3.62850E+01 7.90325E+00 0.00000E+00
 -1      2803 3.47850E+01 7.90325E+00 0.00000E+00
 -1      2804 3.40350E+01 9.20225E+00 0.00000E+00
 -1      2805 3.92850E+01 7.90325E+00 0.00000E+00
 -1      2806 3.77850E+01 7.90325E+00 0.00000E+00
 -1      2807 3.70350E+01 9.20225E+00 0.00000E+00
 -1      2808 4.22850E+01 7.90325E+00 0.00000E+00
 -1      2809 4.07850E+01 7.90325E+00 0.00000E+00
 -1      2810 4.00350E+01 9.20225E+00 0.00000E+00
 -1      2811 4.52850E+01 7.90325E+00 0.00000E+00
 -1      2812 4.37850E+01 7.90325E+00 0.00000E+00
 -1      2813 4.30350E+01 9.20225E+00 0.00000E+00
 -1      2814 4.90511E+01 8.00904E+00 0.00000E+00
 -1      2815 4.75511E+01 8.00904E+00 0.00000E+00
 -1      2816 5.05511E+01 8.00904E+00 0.00000E+00
 -1      2817 6.04675E+01 8.16145E+00 0.00000E+00
 -1      2818 5.89675E+01 8.16145E+00 0.00000E+00
 -1      2819 6.62850E+01 7.90325E+00 0.00000E+00
 -1      2820 6.47850E+01 7.90325E+00 0.00000E+00
 -1      2821 6.92850E+01 7.90325E+00 0.00000E+00
 -1      2822 6.77850E+01 7.90325E+00 0.00000E+00
 -1      2823 6.70350E+01 9.20225E+00 0.00000E+00
 -1      2824 7.22850E+01 7.90325E+00 0.00000E+00
 -1      2825 7.07850E+01 7.90325E+00 0.00000E+00
 -1      2826 7.00350E+01 9.20225E+00 0.00000E+00
 -1      2827 7.52850E+01 7.90325E+00 0.00000E+00
 -1      2828 7.37850E+01 7.90325E+00 0.00000E+00
 -1      2829 7.30350E+01 9.20225E+00 0.00000E+00
 -1      2830 7.82850E+01 7.90325E+00 0.00000E+00
 -1      2831 7.67850E+01 7.90325E+00 0.00000E+00
 -1      2832 7.60350E+01 9.20225E+00 0.00000E+00
 -1      2833 8.12850E+01 7.90325E+00 0.00000E+00
 -1      2834 7.97850E+01 7.90325E+00 0.00000E+00
 -1      2835 7.90350E+01 9.20225E+00 0.00000E+00
 -1      2836 8.42850E+01 7.90325E+00 0.00000E+00
 -1      2837 8.27850E+01 7.90325E+00 0.00000E+00
 -1      2838 8.20350E+01 9.20225E+00 0.00000E+00
 -1      2839 8.72850E+01 7.90325E+00 0.00000E+00
 -1      2840 8.57850E+01 7.90325E+00 0.00000E+00
 -1      2841 8.50350E+01 9.20225E+00 0.00000E+00
 -1      2842 9.02850E+01 7.90325E+00 0.00000E+00
 -1      2843 8.87850E+01 7.90325E+00 0.00000E+00
 -1      2844 8.80350E+01 9.20225E+00 0.00000E+00
 -1      2845 9.32850E+01 7.90325E+00 0.00000E+00
 -1      2846 9.17850E+01 7.90325E+00 0.00000E+00
 -1      2847 9.10350E+01 9.20225E+00 0.00000E+00
 -1      2848 9.62850E+01 7.90325E+00 0.00000E+00
 -1      2849 9.47850E+01 7.90325E+00 0.00000E+00
 -1      2850 9.40350E+01 9.20225E+00 0.00000E+00
 -1      2851 9.92850E+01 7.90325E+00 0.00000E+00
 -1      2852 9.77850E+01 7.90325E+00 0.00000E+00
 -1      2853 9.70350E+01 9.20225E+00 0.00000E+00
 -1      2854 1.02285E+02 7.90325E+00 0.00000E+00
 -1      2855 1.00785E+02 7.90325E+00 0.00000E+00
 -1      2856 1.00035E+02 9.20225E+00 0.00000E+00
 -1      2857 1.05285E+02 7.90325E+00 0.00000E+00
 -1      2858 1.03785E+02 7.90325E+00 0.00000E+00
 -1      2859 1.03035E+02 9.20225E+00 0.00000E+00
 -1      2860 1.08285E+02 7.90325E+00 0.00000E+00
 -1      2861 1.06785E+02 7.90325E+00 0.00000E+00
 -1      2862 1.06035E+02 9.20225E+00 0.00000E+00
 -1      2863 1.11285E+02 7.90325E+00 0.00000E+00
 -1      2864 1.09785E+02 7.90325E+00 0.00000E+00
 -1      2865 1.09035E+02 9.20225E+00 0.00000E+00
 -1      2866 1.14285E+02 7.90325E+00 0.00000E+00
 -1      2867 1.12785E+02 7.90325E+00 0.00000E+00
 -1      2868 1.12035E+02 9.20225E+00 0.00000E+00
 -1      2869 1.17285E+02 7.90325E+00 0.00000E+00
 -1      2870 1.15785E+02 7.90325E+00 0.00000E+00
 -1      2871 1.15035E+02 9.20225E+00 0.00000E+00
 -1      2872 1.20285E+02 7.90325E+00 0.00000E+00
 -1      2873 1.18785E+02 7.90325E+00 0.00000E+00
 -1      2874 1.18035E+02 9.20225E+00 0.00000E+00
 -1      2875 1.23285E+02 7.90325E+00 0.00000E+00
 -1      2876 1.21785E+02 7.90325E+00 0.00000E+00
 -1      2877 1.21035E+02 9.20225E+00 0.00000E+00
 -1      2878 1.26285E+02 7.90325E+00 0.00000E+00
 -1      2879 1.24785E+02 7.90325E+00 0.00000E+00
 -1      2880 1.24035E+02 9.20225E+00 0.00000E+00
 -1      2881 1.29285E+02 7.90325E+00 0.00000E+00
 -1      2882 1.27785E+02 7.90325E+00 0.00000E+00
 -1      2883 1.27035E+02 9.20225E+00 0.00000E+00
 -1      2884 1.32285E+02 7.90325E+00 0.00000E+00
 -1      2885 1.30785E+02 7.90325E+00 0.00000E+00
 -1      2886 1.30035E+02 9.20225E+00 0.00000E+00
 -1      2887 1.35285E+02 7.90325E+00 0.00000E+00
 -1      2888 1.33785E+02 7.90325E+00 0.00000E+00
 -1      2889 1.33035E+02 9.20225E+00 0.00000E+00
 -1      2890 1.37953E+02 8.18394E+00 0.00000E+00
 -1      2891 1.36453E+02 8.18394E+00 0.00000E+00
 -1      2892 1.35703E+02 9.48294E+00 0.00000E+00
 -1      2893 1.38038E+02 1.00443E+01 0.00000E+00
 -1      2894 1.08743E+01 7.88444E+00 0.00000E+00
 -1      2895 9.75375E+00 9.70731E+00 0.00000E+00
 -1      2896 1.10527E+01 1.04448E+01 0.00000E+00
 -1      2897 1.23743E+01 7.88444E+00 0.00000E+00
 -1      2898 1.40907E+02 2.42875E+01 0.00000E+00
 -1      2899 1.40907E+02 2.28125E+01 0.00000E+00
 -1      2900 1.39914E+02 4.09362E+01 0.00000E+00
 -1      2901 1.40928E+02 4.09655E+01 0.00000E+00
 -1      2902 1.39164E+02 3.96372E+01 0.00000E+00
 -1      2903 1.40907E+02 1.83875E+01 0.00000E+00
 -1      2904 1.40907E+02 1.69125E+01 0.00000E+00
 -1      2905 1.40907E+02 2.72375E+01 0.00000E+00
 -1      2906 1.40907E+02 2.57625E+01 0.00000E+00
 -1      2907 1.39608E+02 2.50250E+01 0.00000E+00
 -1      2908 1.40907E+02 2.13375E+01 0.00000E+00
 -1      2909 1.40907E+02 1.98625E+01 0.00000E+00
 -1      2910 1.39608E+02 1.91250E+01 0.00000E+00
 -1      2911 1.39608E+02 2.20750E+01 0.00000E+00
 -1      2912 6.14605E+01 1.13439E+01 0.00000E+00
 -1      2913 6.25632E+01 1.21279E+01 0.00000E+00
 -1      2914 1.40907E+02 3.01375E+01 0.00000E+00
 -1      2915 1.40907E+02 2.86875E+01 0.00000E+00
 -1      2916 1.39608E+02 2.79500E+01 0.00000E+00
 -1      2917 1.40907E+02 3.30875E+01 0.00000E+00
 -1      2918 1.40907E+02 3.16125E+01 0.00000E+00
 -1      2919 1.39608E+02 3.08750E+01 0.00000E+00
 -1      2920 1.40907E+02 3.60375E+01 0.00000E+00
 -1      2921 1.40907E+02 3.45625E+01 0.00000E+00
 -1      2922 1.39608E+02 3.38250E+01 0.00000E+00
 -1      2923 4.99524E+01 3.28205E+01 0.00000E+00
 -1      2924 4.88883E+01 3.24489E+01 0.00000E+00
 -1      2925 8.85168E+00 4.05347E+01 0.00000E+00
 -1      2926 1.02152E+01 4.07987E+01 0.00000E+00
 -1      2927 6.58649E+01 2.08831E+01 0.00000E+00
 -1      2928 6.57617E+01 2.18361E+01 0.00000E+00
 -1      2929 6.47085E+01 1.59735E+01 0.00000E+00
 -1      2930 6.51525E+01 1.70105E+01 0.00000E+00
 -1      2931 4.19420E+01 2.07270E+01 0.00000E+00
 -1      2932 4.20382E+01 1.95800E+01 0.00000E+00
 -1      2933 5.48742E+01 3.36433E+01 0.00000E+00
 -1      2934 5.36140E+01 3.35562E+01 0.00000E+00
 -1      2935 4.22674E+01 2.33552E+01 0.00000E+00
 -1      2936 4.19543E+01 2.21942E+01 0.00000E+00
 -1      2937 1.82850E+01 7.90325E+00 0.00000E+00
 -1      2938 1.67850E+01 7.90325E+00 0.00000E+00
 -1      2939 1.90350E+01 9.20225E+00 0.00000E+00
 -1      2940 2.72850E+01 7.90325E+00 0.00000E+00
 -1      2941 2.57850E+01 7.90325E+00 0.00000E+00
 -1      2942 2.50350E+01 9.20225E+00 0.00000E+00
 -1      2943 2.80350E+01 9.20225E+00 0.00000E+00
 -1      2944 1.15576E+01 4.08528E+01 0.00000E+00
 -1      2945 1.30576E+01 4.08528E+01 0.00000E+00
 -1      2946 1.38076E+01 3.95538E+01 0.00000E+00
 -1      2947 1.11228E+01 3.94455E+01 0.00000E+00
 -1      2948 4.29540E+01 1.57155E+01 0.00000E+00
 -1      2949 4.35718E+01 1.46954E+01 0.00000E+00
 -1      2950 6.36374E+01 1.35451E+01 0.00000E+00
 -1      2951 6.42212E+01 1.47896E+01 0.00000E+00
 -1      2952 4.74338E+01 3.19123E+01 0.00000E+00
 -1      2953 4.64028E+01 3.10934E+01 0.00000E+00
 -1      2954 9.09300E+00 1.68813E+01 0.00000E+00
 -1      2955 9.09300E+00 1.83563E+01 0.00000E+00
 -1      2956 1.03920E+01 1.90812E+01 0.00000E+00
 -1      2957 1.03920E+01 1.61437E+01 0.00000E+00
 -1      2958 4.60324E+01 1.14956E+01 0.00000E+00
 -1      2959 4.69462E+01 1.05384E+01 0.00000E+00
 -1      2960 9.09300E+00 3.15875E+01 0.00000E+00
 -1      2961 9.09300E+00 3.30625E+01 0.00000E+00
 -1      2962 5.44097E+01 9.27981E+00 0.00000E+00
 -1      2963 5.54949E+01 9.35429E+00 0.00000E+00
 -1      2964 7.48818E+00 3.88019E+01 0.00000E+00
 -1      2965 5.22868E+01 3.34107E+01 0.00000E+00
 -1      2966 5.11503E+01 3.31596E+01 0.00000E+00
 -1      2967 4.42681E+01 1.34679E+01 0.00000E+00
 -1      2968 4.51194E+01 1.24942E+01 0.00000E+00
 -1      2969 1.41192E+02 3.96958E+01 0.00000E+00
 -1      2970 4.25570E+01 2.59580E+01 0.00000E+00
 -1      2971 4.24122E+01 2.46566E+01 0.00000E+00
 -1      2972 4.13468E+01 2.43212E+01 0.00000E+00
 -1      2973 1.53296E+01 7.89384E+00 0.00000E+00
 -1      2974 1.38296E+01 7.89384E+00 0.00000E+00
 -1      2975 1.31689E+01 9.17403E+00 0.00000E+00
 -1      2976 1.60796E+01 9.19284E+00 0.00000E+00
 -1      2977 5.68107E+01 9.57153E+00 0.00000E+00
 -1      2978 5.79426E+01 9.93642E+00 0.00000E+00
 -1      2979 4.20136E+01 1.82730E+01 0.00000E+00
 -1      2980 4.22534E+01 1.70706E+01 0.00000E+00
 -1      2981 6.56612E+01 1.83009E+01 0.00000E+00
 -1      2982 6.58808E+01 1.95330E+01 0.00000E+00
 -1      2983 6.05160E+01 3.18069E+01 0.00000E+00
 -1      2984 5.97351E+01 3.23785E+01 0.00000E+00
 -1      2985 6.39402E+01 2.81562E+01 0.00000E+00
 -1      2986 6.30402E+01 2.90464E+01 0.00000E+00
 -1      2987 6.33264E+01 3.00480E+01 0.00000E+00
 -1      2988 9.09300E+00 3.45313E+01 0.00000E+00
 -1      2989 9.09300E+00 3.60000E+01 0.00000E+00
 -1      2990 1.03920E+01 3.37938E+01 0.00000E+00
 -1      2991 1.03920E+01 2.49750E+01 0.00000E+00
 -1      2992 9.09300E+00 2.57000E+01 0.00000E+00
 -1      2993 9.09300E+00 2.71750E+01 0.00000E+00
 -1      2994 1.40706E+02 1.17875E+01 0.00000E+00
 -1      2995 4.18288E+01 1.61163E+01 0.00000E+00
 -1      2996 6.36256E+01 1.12267E+01 0.00000E+00
 -1      2997 6.36315E+01 1.23859E+01 0.00000E+00
 -1      2998 6.46998E+01 1.26439E+01 0.00000E+00
 -1      2999 6.61350E+01 2.26516E+01 0.00000E+00
 -1      3000 6.49642E+01 2.77038E+01 0.00000E+00
 -1      3001 6.52504E+01 2.87055E+01 0.00000E+00
 -1      3002 6.59882E+01 2.72514E+01 0.00000E+00
 -1      3003 1.39608E+02 1.61875E+01 0.00000E+00
 -1      3004 1.40907E+02 1.54500E+01 0.00000E+00
 -1      3005 1.40907E+02 1.39875E+01 0.00000E+00
 -1      3006 6.12286E+01 1.03437E+01 0.00000E+00
 -1      3007 5.15285E+01 8.50150E+00 0.00000E+00
 -1      3008 6.17962E+01 8.78647E+00 0.00000E+00
 -1      3009 5.50216E+01 7.55378E+00 0.00000E+00
 -1      3010 5.35216E+01 7.55378E+00 0.00000E+00
 -1      3011 5.72850E+01 7.71316E+00 0.00000E+00
 -1      3012 5.57850E+01 7.71316E+00 0.00000E+00
 -1      3013 6.32962E+01 8.78647E+00 0.00000E+00
 -1      3014 6.15540E+01 3.18952E+01 0.00000E+00
 -1      3015 5.29231E+01 8.33028E+00 0.00000E+00
 -1      3016 5.91483E+01 3.32450E+01 0.00000E+00
 -1      3017 5.85615E+01 3.41116E+01 0.00000E+00
 -1      3018 6.00947E+01 3.37188E+01 0.00000E+00
 -1      3019 6.61890E+01 1.74614E+01 0.00000E+00
 -1      3020 4.76831E+01 3.29077E+01 0.00000E+00
 -1      3021 5.03356E+01 3.37834E+01 0.00000E+00
 -1      3022 1.41192E+02 3.82207E+01 0.00000E+00
 -1      3023 4.32257E+01 1.35338E+01 0.00000E+00
 -1      3024 6.56530E+01 2.50505E+01 0.00000E+00
 -1      3025 4.54865E+01 2.99803E+01 0.00000E+00
 -1      3026 4.47478E+01 2.90998E+01 0.00000E+00
 -1      3027 5.69287E+01 3.44080E+01 0.00000E+00
 -1      3028 5.59014E+01 3.40256E+01 0.00000E+00
 -1      3029 5.52151E+01 3.47958E+01 0.00000E+00
 -1      3030 4.11527E+01 1.87783E+01 0.00000E+00
 -1      3031 5.28607E+01 3.42680E+01 0.00000E+00
 -1      3032 4.11896E+01 2.15525E+01 0.00000E+00
 -1      3033 6.51930E+01 1.49871E+01 0.00000E+00
 -1      3034 6.66818E+01 2.01019E+01 0.00000E+00
 -1      3035 1.39529E+02 3.85602E+01 0.00000E+00
 -1      3036 1.40542E+02 3.71145E+01 0.00000E+00
 -1      3037 1.39243E+02 3.63770E+01 0.00000E+00
 -1      3038 1.38514E+02 3.85310E+01 0.00000E+00
 -1      3039 5.87699E+01 9.32821E+00 0.00000E+00
 -1      3040 9.09300E+00 2.86437E+01 0.00000E+00
 -1      3041 9.09300E+00 3.01187E+01 0.00000E+00
 -1      3042 1.03920E+01 3.08563E+01 0.00000E+00
 -1      3043 1.03920E+01 2.79188E+01 0.00000E+00
 -1      3044 8.78718E+00 3.80644E+01 0.00000E+00
 -1      3045 4.53123E+01 3.12581E+01 0.00000E+00
 -1      3046 4.48349E+01 1.13077E+01 0.00000E+00
 -1      3047 4.28322E+01 2.69437E+01 0.00000E+00
 -1      3048 4.17668E+01 2.66083E+01 0.00000E+00
 -1      3049 4.41594E+01 2.84620E+01 0.00000E+00
 -1      3050 4.34207E+01 2.75815E+01 0.00000E+00
 -1      3051 4.26305E+01 2.82317E+01 0.00000E+00
 -1      3052 4.38075E+01 2.95073E+01 0.00000E+00
 -1      3053 1.25081E+01 1.04542E+01 0.00000E+00
 -1      3054 1.18474E+01 1.17344E+01 0.00000E+00
 -1      3055 1.39635E+01 1.04636E+01 0.00000E+00
 -1      3056 1.18474E+01 1.32094E+01 0.00000E+00
 -1      3057 1.89000E+01 3.83090E+01 0.00000E+00
 -1      3058 2.04000E+01 3.83090E+01 0.00000E+00
 -1      3059 2.19000E+01 3.83090E+01 0.00000E+00
 -1      3060 2.34000E+01 3.83090E+01 0.00000E+00
 -1      3061 2.11500E+01 3.70100E+01 0.00000E+00
 -1      3062 2.49000E+01 3.83090E+01 0.00000E+00
 -1      3063 2.64000E+01 3.83090E+01 0.00000E+00
 -1      3064 2.41500E+01 3.70100E+01 0.00000E+00
 -1      3065 2.79000E+01 3.83090E+01 0.00000E+00
 -1      3066 2.94000E+01 3.83090E+01 0.00000E+00
 -1      3067 2.71500E+01 3.70100E+01 0.00000E+00
 -1      3068 3.09000E+01 3.83090E+01 0.00000E+00
 -1      3069 3.24000E+01 3.83090E+01 0.00000E+00
 -1      3070 3.01500E+01 3.70100E+01 0.00000E+00
 -1      3071 3.39000E+01 3.83090E+01 0.00000E+00
 -1      3072 3.54000E+01 3.83090E+01 0.00000E+00
 -1      3073 3.31500E+01 3.70100E+01 0.00000E+00
 -1      3074 3.69000E+01 3.83090E+01 0.00000E+00
 -1      3075 3.84000E+01 3.83090E+01 0.00000E+00
 -1      3076 3.61500E+01 3.70100E+01 0.00000E+00
 -1      3077 3.99000E+01 3.83090E+01 0.00000E+00
 -1      3078 4.14000E+01 3.83090E+01 0.00000E+00
 -1      3079 3.91500E+01 3.70100E+01 0.00000E+00
 -1      3080 4.29000E+01 3.83090E+01 0.00000E+00
 -1      3081 4.44000E+01 3.83090E+01 0.00000E+00
 -1      3082 4.21500E+01 3.70100E+01 0.00000E+00
 -1      3083 4.59000E+01 3.83090E+01 0.00000E+00
 -1      3084 4.74000E+01 3.83090E+01 0.00000E+00
 -1      3085 4.51500E+01 3.70100E+01 0.00000E+00
 -1      3086 4.89000E+01 3.83090E+01 0.00000E+00
 -1      3087 5.04000E+01 3.83090E+01 0.00000E+00
 -1      3088 4.81500E+01 3.70100E+01 0.00000E+00
 -1      3089 5.19000E+01 3.83090E+01 0.00000E+00
 -1      3090 5.34000E+01 3.83090E+01 0.00000E+00
 -1      3091 5.11500E+01 3.70100E+01 0.00000E+00
 -1      3092 5.51962E+01 3.73931E+01 0.00000E+00
 -1      3093 5.66962E+01 3.73931E+01 0.00000E+00
 -1      3094 6.09000E+01 3.83090E+01 0.00000E+00
 -1      3095 6.24000E+01 3.83090E+01 0.00000E+00
 -1      3096 6.39000E+01 3.83090E+01 0.00000E+00
 -1      3097 6.54000E+01 3.83090E+01 0.00000E+00
 -1      3098 6.31500E+01 3.70100E+01 0.00000E+00
 -1      3099 6.69000E+01 3.83090E+01 0.00000E+00
 -1      3100 6.84000E+01 3.83090E+01 0.00000E+00
 -1      3101 6.61500E+01 3.70100E+01 0.00000E+00
 -1      3102 6.99000E+01 3.83090E+01 0.00000E+00
 -1      3103 7.14000E+01 3.83090E+01 0.00000E+00
 -1      3104 6.91500E+01 3.70100E+01 0.00000E+00
 -1      3105 7.29000E+01 3.83090E+01 0.00000E+00
 -1      3106 7.44000E+01 3.83090E+01 0.00000E+00
 -1      3107 7.21500E+01 3.70100E+01 0.00000E+00
 -1      3108 7.59000E+01 3.83090E+01 0.00000E+00
 -1      3109 7.74000E+01 3.83090E+01 0.00000E+00
 -1      3110 7.51500E+01 3.70100E+01 0.00000E+00
 -1      3111 7.89000E+01 3.83090E+01 0.00000E+00
 -1      3112 8.04000E+01 3.83090E+01 0.00000E+00
 -1      3113 7.81500E+01 3.70100E+01 0.00000E+00
 -1      3114 8.19000E+01 3.83090E+01 0.00000E+00
 -1      3115 8.34000E+01 3.83090E+01 0.00000E+00
 -1      3116 8.11500E+01 3.70100E+01 0.00000E+00
 -1      3117 8.49000E+01 3.83090E+01 0.00000E+00
 -1      3118 8.64000E+01 3.83090E+01 0.00000E+00
 -1      3119 8.41500E+01 3.70100E+01 0.00000E+00
 -1      3120 8.79000E+01 3.83090E+01 0.00000E+00
 -1      3121 8.94000E+01 3.83090E+01 0.00000E+00
 -1      3122 8.71500E+01 3.70100E+01 0.00000E+00
 -1      3123 9.09000E+01 3.83090E+01 0.00000E+00
 -1      3124 9.24000E+01 3.83090E+01 0.00000E+00
 -1      3125 9.01500E+01 3.70100E+01 0.00000E+00
 -1      3126 9.39000E+01 3.83090E+01 0.00000E+00
 -1      3127 9.54000E+01 3.83090E+01 0.00000E+00
 -1      3128 9.31500E+01 3.70100E+01 0.00000E+00
 -1      3129 9.69000E+01 3.83090E+01 0.00000E+00
 -1      3130 9.84000E+01 3.83090E+01 0.00000E+00
 -1      3131 9.61500E+01 3.70100E+01 0.00000E+00
 -1      3132 9.99000E+01 3.83090E+01 0.00000E+00
 -1      3133 1.01400E+02 3.83090E+01 0.00000E+00
 -1      3134 9.91500E+01 3.70100E+01 0.00000E+00
 -1      3135 1.02900E+02 3.83090E+01 0.00000E+00
 -1      3136 1.04400E+02 3.83090E+01 0.00000E+00
 -1      3137 1.02150E+02 3.70100E+01 0.00000E+00
 -1      3138 1.05900E+02 3.83090E+01 0.00000E+00
 -1      3139 1.07400E+02 3.83090E+01 0.00000E+00
 -1      3140 1.05150E+02 3.70100E+01 0.00000E+00
 -1      3141 1.08900E+02 3.83090E+01 0.00000E+00
 -1      3142 1.10400E+02 3.83090E+01 0.00000E+00
 -1      3143 1.08150E+02 3.70100E+01 0.00000E+00
 -1      3144 1.11900E+02 3.83090E+01 0.00000E+00
 -1      3145 1.13400E+02 3.83090E+01 0.00000E+00
 -1      3146 1.11150E+02 3.70100E+01 0.00000E+00
 -1      3147 1.14900E+02 3.83090E+01 0.00000E+00
 -1      3148 1.16400E+02 3.83090E+01 0.00000E+00
 -1      3149 1.14150E+02 3.70100E+01 0.00000E+00
 -1      3150 1.17900E+02 3.83090E+01 0.00000E+00
 -1      3151 1.19400E+02 3.83090E+01 0.00000E+00
 -1      3152 1.17150E+02 3.70100E+01 0.00000E+00
 -1      3153 1.20900E+02 3.83090E+01 0.00000E+00
 -1      3154 1.22400E+02 3.83090E+01 0.00000E+00
 -1      3155 1.20150E+02 3.70100E+01 0.00000E+00
 -1      3156 1.23900E+02 3.83090E+01 0.00000E+00
 -1      3157 1.25400E+02 3.83090E+01 0.00000E+00
 -1      3158 1.23150E+02 3.70100E+01 0.00000E+00
 -1      3159 1.26900E+02 3.83090E+01 0.00000E+00
 -1      3160 1.28400E+02 3.83090E+01 0.00000E+00
 -1      3161 1.26150E+02 3.70100E+01 0.00000E+00
 -1      3162 1.29900E+02 3.83090E+01 0.00000E+00
 -1      3163 1.31400E+02 3.83090E+01 0.00000E+00
 -1      3164 1.29150E+02 3.70100E+01 0.00000E+00
 -1      3165 1.32900E+02 3.83090E+01 0.00000E+00
 -1      3166 1.34400E+02 3.83090E+01 0.00000E+00
 -1      3167 1.32150E+02 3.70100E+01 0.00000E+00
 -1      3168 1.35707E+02 3.84200E+01 0.00000E+00
 -1      3169 1.37207E+02 3.84200E+01 0.00000E+00
 -1      3170 1.37572E+02 3.73430E+01 0.00000E+00
 -1      3171 1.34957E+02 3.71210E+01 0.00000E+00
 -1      3172 3.47850E+01 1.05013E+01 0.00000E+00
 -1      3173 3.32850E+01 1.05013E+01 0.00000E+00
 -1      3174 3.17850E+01 1.05013E+01 0.00000E+00
 -1      3175 3.02850E+01 1.05013E+01 0.00000E+00
 -1      3176 3.25350E+01 1.18003E+01 0.00000E+00
 -1      3177 4.07850E+01 1.05013E+01 0.00000E+00
 -1      3178 3.92850E+01 1.05013E+01 0.00000E+00
 -1      3179 4.68011E+01 9.30804E+00 0.00000E+00
 -1      3180 5.57716E+01 8.66269E+00 0.00000E+00
 -1      3181 6.40462E+01 1.00855E+01 0.00000E+00
 -1      3182 7.67850E+01 1.05013E+01 0.00000E+00
 -1      3183 7.52850E+01 1.05013E+01 0.00000E+00
 -1      3184 7.97850E+01 1.05013E+01 0.00000E+00
 -1      3185 7.82850E+01 1.05013E+01 0.00000E+00
 -1      3186 7.75350E+01 1.18003E+01 0.00000E+00
 -1      3187 8.27850E+01 1.05013E+01 0.00000E+00
 -1      3188 8.12850E+01 1.05013E+01 0.00000E+00
 -1      3189 8.05350E+01 1.18003E+01 0.00000E+00
 -1      3190 8.57850E+01 1.05013E+01 0.00000E+00
 -1      3191 8.42850E+01 1.05013E+01 0.00000E+00
 -1      3192 8.35350E+01 1.18003E+01 0.00000E+00
 -1      3193 8.87850E+01 1.05013E+01 0.00000E+00
 -1      3194 8.72850E+01 1.05013E+01 0.00000E+00
 -1      3195 8.65350E+01 1.18003E+01 0.00000E+00
 -1      3196 9.17850E+01 1.05013E+01 0.00000E+00
 -1      3197 9.02850E+01 1.05013E+01 0.00000E+00
 -1      3198 8.95350E+01 1.18003E+01 0.00000E+00
 -1      3199 9.47850E+01 1.05013E+01 0.00000E+00
 -1      3200 9.32850E+01 1.05013E+01 0.00000E+00
 -1      3201 9.25350E+01 1.18003E+01 0.00000E+00
 -1      3202 9.77850E+01 1.05013E+01 0.00000E+00
 -1      3203 9.62850E+01 1.05013E+01 0.00000E+00
 -1      3204 9.55350E+01 1.18003E+01 0.00000E+00
 -1      3205 1.00785E+02 1.05013E+01 0.00000E+00
 -1      3206 9.92850E+01 1.05013E+01 0.00000E+00
 -1      3207 9.85350E+01 1.18003E+01 0.00000E+00
 -1      3208 1.03785E+02 1.05013E+01 0.00000E+00
 -1      3209 1.02285E+02 1.05013E+01 0.00000E+00
 -1      3210 1.01535E+02 1.18003E+01 0.00000E+00
 -1      3211 1.06785E+02 1.05013E+01 0.00000E+00
 -1      3212 1.05285E+02 1.05013E+01 0.00000E+00
 -1      3213 1.04535E+02 1.18003E+01 0.00000E+00
 -1      3214 1.09785E+02 1.05013E+01 0.00000E+00
 -1      3215 1.08285E+02 1.05013E+01 0.00000E+00
 -1      3216 1.07535E+02 1.18003E+01 0.00000E+00
 -1      3217 1.12785E+02 1.05013E+01 0.00000E+00
 -1      3218 1.11285E+02 1.05013E+01 0.00000E+00
 -1      3219 1.10535E+02 1.18003E+01 0.00000E+00
 -1      3220 1.15785E+02 1.05013E+01 0.00000E+00
 -1      3221 1.14285E+02 1.05013E+01 0.00000E+00
 -1      3222 1.13535E+02 1.18003E+01 0.00000E+00
 -1      3223 1.18785E+02 1.05013E+01 0.00000E+00
 -1      3224 1.17285E+02 1.05013E+01 0.00000E+00
 -1      3225 1.16535E+02 1.18003E+01 0.00000E+00
 -1      3226 1.21785E+02 1.05013E+01 0.00000E+00
 -1      3227 1.20285E+02 1.05013E+01 0.00000E+00
 -1      3228 1.19535E+02 1.18003E+01 0.00000E+00
 -1      3229 1.24785E+02 1.05013E+01 0.00000E+00
 -1      3230 1.23285E+02 1.05013E+01 0.00000E+00
 -1      3231 1.22535E+02 1.18003E+01 0.00000E+00
 -1      3232 1.27785E+02 1.05013E+01 0.00000E+00
 -1      3233 1.26285E+02 1.05013E+01 0.00000E+00
 -1      3234 1.25535E+02 1.18003E+01 0.00000E+00
 -1      3235 1.30785E+02 1.05013E+01 0.00000E+00
 -1      3236 1.29285E+02 1.05013E+01 0.00000E+00
 -1      3237 1.28535E+02 1.18003E+01 0.00000E+00
 -1      3238 1.33785E+02 1.05013E+01 0.00000E+00
 -1      3239 1.32285E+02 1.05013E+01 0.00000E+00
 -1      3240 1.31535E+02 1.18003E+01 0.00000E+00
 -1      3241 5.62583E+01 9.51367E+00 0.00000E+00
 -1      3242 5.70874E+01 8.87993E+00 0.00000E+00
 -1      3243 1.38309E+02 3.16125E+01 0.00000E+00
 -1      3244 1.38309E+02 3.01375E+01 0.00000E+00
 -1      3245 1.16910E+01 2.12875E+01 0.00000E+00
 -1      3246 1.16910E+01 2.27625E+01 0.00000E+00
 -1      3247 4.04837E+01 2.50760E+01 0.00000E+00
 -1      3248 4.03388E+01 2.37746E+01 0.00000E+00
 -1      3249 1.38309E+02 2.57625E+01 0.00000E+00
 -1      3250 1.38309E+02 2.42875E+01 0.00000E+00
 -1      3251 4.06423E+01 1.63615E+01 0.00000E+00
 -1      3252 4.13429E+01 1.50064E+01 0.00000E+00
 -1      3253 1.38309E+02 3.45625E+01 0.00000E+00
 -1      3254 1.38309E+02 3.30875E+01 0.00000E+00
 -1      3255 1.37010E+02 3.23500E+01 0.00000E+00
 -1      3256 1.38309E+02 2.86750E+01 0.00000E+00
 -1      3257 1.38309E+02 2.72250E+01 0.00000E+00
 -1      3258 1.37010E+02 2.64875E+01 0.00000E+00
 -1      3259 1.37010E+02 2.94125E+01 0.00000E+00
 -1      3260 6.66528E+01 2.44091E+01 0.00000E+00
 -1      3261 6.67018E+01 2.56083E+01 0.00000E+00
 -1      3262 1.97850E+01 1.05013E+01 0.00000E+00
 -1      3263 1.82850E+01 1.05013E+01 0.00000E+00
 -1      3264 4.79975E+01 3.42950E+01 0.00000E+00
 -1      3265 4.65430E+01 3.37584E+01 0.00000E+00
 -1      3266 4.00563E+01 1.94527E+01 0.00000E+00
 -1      3267 4.00317E+01 1.81457E+01 0.00000E+00
 -1      3268 6.58198E+01 1.40368E+01 0.00000E+00
 -1      3269 6.63072E+01 1.52207E+01 0.00000E+00
 -1      3270 1.39407E+02 1.25250E+01 0.00000E+00
 -1      3271 5.06781E+01 3.48587E+01 0.00000E+00
 -1      3272 4.94802E+01 3.45196E+01 0.00000E+00
 -1      3273 6.77146E+01 2.20097E+01 0.00000E+00
 -1      3274 6.71837E+01 2.32094E+01 0.00000E+00
 -1      3275 6.82325E+01 2.37672E+01 0.00000E+00
 -1      3276 7.37850E+01 1.05013E+01 0.00000E+00
 -1      3277 7.22850E+01 1.05013E+01 0.00000E+00
 -1      3278 7.45350E+01 1.18003E+01 0.00000E+00
 -1      3279 6.77465E+01 1.93096E+01 0.00000E+00
 -1      3280 6.77306E+01 2.06596E+01 0.00000E+00
 -1      3281 6.87793E+01 2.12174E+01 0.00000E+00
 -1      3282 7.07850E+01 1.05013E+01 0.00000E+00
 -1      3283 6.92850E+01 1.05013E+01 0.00000E+00
 -1      3284 7.15350E+01 1.18003E+01 0.00000E+00
 -1      3285 1.00862E+01 3.73269E+01 0.00000E+00
 -1      3286 3.77850E+01 1.05013E+01 0.00000E+00
 -1      3287 3.62850E+01 1.05013E+01 0.00000E+00
 -1      3288 3.55350E+01 1.18003E+01 0.00000E+00
 -1      3289 3.85350E+01 1.18003E+01 0.00000E+00
 -1      3290 4.48496E+01 3.25727E+01 0.00000E+00
 -1      3291 4.39333E+01 3.14596E+01 0.00000E+00
 -1      3292 6.27477E+01 3.21074E+01 0.00000E+00
 -1      3293 6.18753E+01 3.30644E+01 0.00000E+00
 -1      3294 4.00810E+01 2.23871E+01 0.00000E+00
 -1      3295 4.00686E+01 2.09199E+01 0.00000E+00
 -1      3296 3.89477E+01 2.02873E+01 0.00000E+00
 -1      3297 2.27850E+01 1.05013E+01 0.00000E+00
 -1      3298 2.12850E+01 1.05013E+01 0.00000E+00
 -1      3299 2.05350E+01 1.18003E+01 0.00000E+00
 -1      3300 4.12822E+01 1.32807E+01 0.00000E+00
 -1      3301 4.19785E+01 1.20533E+01 0.00000E+00
 -1      3302 4.09977E+01 2.73542E+01 0.00000E+00
 -1      3303 4.07226E+01 2.63686E+01 0.00000E+00
 -1      3304 5.34189E+01 3.57117E+01 0.00000E+00
 -1      3305 5.20918E+01 3.55663E+01 0.00000E+00
 -1      3306 6.68159E+01 1.65111E+01 0.00000E+00
 -1      3307 6.73246E+01 1.78015E+01 0.00000E+00
 -1      3308 6.74427E+01 1.55608E+01 0.00000E+00
 -1      3309 6.45478E+01 3.03270E+01 0.00000E+00
 -1      3310 6.36478E+01 3.12172E+01 0.00000E+00
 -1      3311 6.39691E+01 3.23863E+01 0.00000E+00
 -1      3312 1.59000E+01 3.83090E+01 0.00000E+00
 -1      3313 1.74000E+01 3.83090E+01 0.00000E+00
 -1      3314 1.81500E+01 3.70100E+01 0.00000E+00
 -1      3315 6.51144E+01 1.03435E+01 0.00000E+00
 -1      3316 1.16910E+01 2.42375E+01 0.00000E+00
 -1      3317 1.16910E+01 2.57125E+01 0.00000E+00
 -1      3318 1.29900E+01 2.35000E+01 0.00000E+00
 -1      3319 6.60777E+01 1.03525E+01 0.00000E+00
 -1      3320 6.56571E+01 1.14937E+01 0.00000E+00
 -1      3321 6.56630E+01 1.26529E+01 0.00000E+00
 -1      3322 6.75777E+01 1.03525E+01 0.00000E+00
 -1      3323 4.74075E+01 9.86145E+00 0.00000E+00
 -1      3324 1.32152E+01 3.82007E+01 0.00000E+00
 -1      3325 1.45576E+01 3.82548E+01 0.00000E+00
 -1      3326 1.53076E+01 3.69558E+01 0.00000E+00
 -1      3327 6.69880E+01 2.66100E+01 0.00000E+00
 -1      3328 6.72741E+01 2.76117E+01 0.00000E+00
 -1      3329 6.79877E+01 2.59686E+01 0.00000E+00
 -1      3330 1.38309E+02 1.69188E+01 0.00000E+00
 -1      3331 1.38309E+02 1.54563E+01 0.00000E+00
 -1      3332 3.92179E+01 2.31420E+01 0.00000E+00
 -1      3333 5.79000E+01 3.83090E+01 0.00000E+00
 -1      3334 5.94000E+01 3.83090E+01 0.00000E+00
 -1      3335 1.14286E+01 3.73811E+01 0.00000E+00
 -1      3336 4.83401E+01 3.53703E+01 0.00000E+00
 -1      3337 2.57850E+01 1.05013E+01 0.00000E+00
 -1      3338 2.42850E+01 1.05013E+01 0.00000E+00
 -1      3339 2.35350E+01 1.18003E+01 0.00000E+00
 -1      3340 2.95350E+01 1.18003E+01 0.00000E+00
 -1      3341 2.87850E+01 1.05013E+01 0.00000E+00
 -1      3342 2.72850E+01 1.05013E+01 0.00000E+00
 -1      3343 4.27285E+01 1.07543E+01 0.00000E+00
 -1      3344 4.42285E+01 1.07543E+01 0.00000E+00
 -1      3345 4.51641E+01 3.39599E+01 0.00000E+00
 -1      3346 5.78374E+01 7.77101E+00 0.00000E+00
 -1      3347 6.83277E+01 1.16515E+01 0.00000E+00
 -1      3348 1.38309E+02 1.83937E+01 0.00000E+00
 -1      3349 1.37010E+02 1.76625E+01 0.00000E+00
 -1      3350 1.38309E+02 1.98687E+01 0.00000E+00
 -1      3351 5.74462E+01 3.60941E+01 0.00000E+00
 -1      3352 1.34953E+02 1.07819E+01 0.00000E+00
 -1      3353 1.34203E+02 1.20809E+01 0.00000E+00
 -1      3354 1.36120E+02 1.10626E+01 0.00000E+00
 -1      3355 4.28821E+01 3.21364E+01 0.00000E+00
 -1      3356 4.33448E+01 3.08218E+01 0.00000E+00
 -1      3357 4.27563E+01 3.01841E+01 0.00000E+00
 -1      3358 6.67772E+01 1.28866E+01 0.00000E+00
 -1      3359 6.01500E+01 3.70100E+01 0.00000E+00
 -1      3360 4.00957E+01 1.35259E+01 0.00000E+00
 -1      3361 1.38309E+02 2.28156E+01 0.00000E+00
 -1      3362 1.38309E+02 2.13406E+01 0.00000E+00
 -1      3363 1.37010E+02 2.06094E+01 0.00000E+00
 -1      3364 1.37010E+02 2.35531E+01 0.00000E+00
 -1      3365 5.81325E+01 3.53239E+01 0.00000E+00
 -1      3366 6.65957E+01 2.94222E+01 0.00000E+00
 -1      3367 6.55717E+01 2.98746E+01 0.00000E+00
 -1      3368 6.58931E+01 3.10437E+01 0.00000E+00
 -1      3369 1.16910E+01 1.54094E+01 0.00000E+00
 -1      3370 1.16910E+01 1.68781E+01 0.00000E+00
 -1      3371 3.84494E+01 1.77101E+01 0.00000E+00
 -1      3372 3.95458E+01 1.70358E+01 0.00000E+00
 -1      3373 3.90599E+01 1.59260E+01 0.00000E+00
 -1      3374 1.31464E+01 1.39438E+01 0.00000E+00
 -1      3375 1.38274E+02 1.38503E+01 0.00000E+00
 -1      3376 1.38073E+02 1.16503E+01 0.00000E+00
 -1      3377 1.36905E+02 1.13696E+01 0.00000E+00
 -1      3378 1.36975E+02 1.45815E+01 0.00000E+00
 -1      3379 6.83733E+01 1.83593E+01 0.00000E+00
 -1      3380 1.16910E+01 1.83469E+01 0.00000E+00
 -1      3381 1.16910E+01 1.98156E+01 0.00000E+00
 -1      3382 1.29900E+01 1.76125E+01 0.00000E+00
 -1      3383 5.90790E+01 3.57977E+01 0.00000E+00
 -1      3384 6.23596E+01 3.51432E+01 0.00000E+00
 -1      3385 6.11658E+01 3.49311E+01 0.00000E+00
 -1      3386 1.29900E+01 2.05531E+01 0.00000E+00
 -1      3387 3.97146E+01 2.58220E+01 0.00000E+00
 -1      3388 4.21713E+01 2.90880E+01 0.00000E+00
 -1      3389 4.15828E+01 2.84503E+01 0.00000E+00
 -1      3390 4.05385E+01 2.82105E+01 0.00000E+00
 -1      3391 4.17086E+01 3.04026E+01 0.00000E+00
 -1      3392 1.68519E+01 1.04871E+01 0.00000E+00
 -1      3393 1.53966E+01 1.04777E+01 0.00000E+00
 -1      3394 1.47358E+01 1.17579E+01 0.00000E+00
 -1      3395 1.76019E+01 1.17861E+01 0.00000E+00
 -1      3396 1.16910E+01 3.01219E+01 0.00000E+00
 -1      3397 1.16910E+01 3.15906E+01 0.00000E+00
 -1      3398 1.37758E+02 3.64912E+01 0.00000E+00
 -1      3399 1.38123E+02 3.54142E+01 0.00000E+00
 -1      3400 1.36824E+02 3.46768E+01 0.00000E+00
 -1      3401 1.36451E+02 3.63802E+01 0.00000E+00
 -1      3402 1.16910E+01 3.30594E+01 0.00000E+00
 -1      3403 1.16910E+01 3.45281E+01 0.00000E+00
 -1      3404 1.29900E+01 3.23250E+01 0.00000E+00
 -1      3405 2.04000E+01 3.57110E+01 0.00000E+00
 -1      3406 2.19000E+01 3.57110E+01 0.00000E+00
 -1      3407 3.84213E+01 2.40077E+01 0.00000E+00
 -1      3408 3.81634E+01 2.26202E+01 0.00000E+00
 -1      3409 5.44462E+01 3.60941E+01 0.00000E+00
 -1      3410 2.34000E+01 3.57110E+01 0.00000E+00
 -1      3411 2.49000E+01 3.57110E+01 0.00000E+00
 -1      3412 2.26500E+01 3.44120E+01 0.00000E+00
 -1      3413 2.64000E+01 3.57110E+01 0.00000E+00
 -1      3414 2.79000E+01 3.57110E+01 0.00000E+00
 -1      3415 2.56500E+01 3.44120E+01 0.00000E+00
 -1      3416 2.94000E+01 3.57110E+01 0.00000E+00
 -1      3417 3.09000E+01 3.57110E+01 0.00000E+00
 -1      3418 2.86500E+01 3.44120E+01 0.00000E+00
 -1      3419 3.24000E+01 3.57110E+01 0.00000E+00
 -1      3420 3.39000E+01 3.57110E+01 0.00000E+00
 -1      3421 3.16500E+01 3.44120E+01 0.00000E+00
 -1      3422 3.54000E+01 3.57110E+01 0.00000E+00
 -1      3423 3.69000E+01 3.57110E+01 0.00000E+00
 -1      3424 3.46500E+01 3.44120E+01 0.00000E+00
 -1      3425 3.84000E+01 3.57110E+01 0.00000E+00
 -1      3426 3.99000E+01 3.57110E+01 0.00000E+00
 -1      3427 3.76500E+01 3.44120E+01 0.00000E+00
 -1      3428 4.67538E+01 3.60779E+01 0.00000E+00
 -1      3429 4.82538E+01 3.60779E+01 0.00000E+00
 -1      3430 1.21786E+01 3.60821E+01 0.00000E+00
 -1      3431 6.54000E+01 3.57110E+01 0.00000E+00
 -1      3432 6.69000E+01 3.57110E+01 0.00000E+00
 -1      3433 6.84000E+01 3.57110E+01 0.00000E+00
 -1      3434 6.99000E+01 3.57110E+01 0.00000E+00
 -1      3435 6.76500E+01 3.44120E+01 0.00000E+00
 -1      3436 7.14000E+01 3.57110E+01 0.00000E+00
 -1      3437 7.29000E+01 3.57110E+01 0.00000E+00
 -1      3438 7.06500E+01 3.44120E+01 0.00000E+00
 -1      3439 7.44000E+01 3.57110E+01 0.00000E+00
 -1      3440 7.59000E+01 3.57110E+01 0.00000E+00
 -1      3441 7.36500E+01 3.44120E+01 0.00000E+00
 -1      3442 7.74000E+01 3.57110E+01 0.00000E+00
 -1      3443 7.89000E+01 3.57110E+01 0.00000E+00
 -1      3444 7.66500E+01 3.44120E+01 0.00000E+00
 -1      3445 8.04000E+01 3.57110E+01 0.00000E+00
 -1      3446 8.19000E+01 3.57110E+01 0.00000E+00
 -1      3447 7.96500E+01 3.44120E+01 0.00000E+00
 -1      3448 8.34000E+01 3.57110E+01 0.00000E+00
 -1      3449 8.49000E+01 3.57110E+01 0.00000E+00
 -1      3450 8.26500E+01 3.44120E+01 0.00000E+00
 -1      3451 8.64000E+01 3.57110E+01 0.00000E+00
 -1      3452 8.79000E+01 3.57110E+01 0.00000E+00
 -1      3453 8.56500E+01 3.44120E+01 0.00000E+00
 -1      3454 8.94000E+01 3.57110E+01 0.00000E+00
 -1      3455 9.09000E+01 3.57110E+01 0.00000E+00
 -1      3456 8.86500E+01 3.44120E+01 0.00000E+00
 -1      3457 9.24000E+01 3.57110E+01 0.00000E+00
 -1      3458 9.39000E+01 3.57110E+01 0.00000E+00
 -1      3459 9.16500E+01 3.44120E+01 0.00000E+00
 -1      3460 9.54000E+01 3.57110E+01 0.00000E+00
 -1      3461 9.69000E+01 3.57110E+01 0.00000E+00
 -1      3462 9.46500E+01 3.44120E+01 0.00000E+00
 -1      3463 9.84000E+01 3.57110E+01 0.00000E+00
 -1      3464 9.99000E+01 3.57110E+01 0.00000E+00
 -1      3465 9.76500E+01 3.44120E+01 0.00000E+00
 -1      3466 1.01400E+02 3.57110E+01 0.00000E+00
 -1      3467 1.02900E+02 3.57110E+01 0.00000E+00
 -1      3468 1.00650E+02 3.44120E+01 0.00000E+00
 -1      3469 1.04400E+02 3.57110E+01 0.00000E+00
 -1      3470 1.05900E+02 3.57110E+01 0.00000E+00
 -1      3471 1.03650E+02 3.44120E+01 0.00000E+00
 -1      3472 1.07400E+02 3.57110E+01 0.00000E+00
 -1      3473 1.08900E+02 3.57110E+01 0.00000E+00
 -1      3474 1.06650E+02 3.44120E+01 0.00000E+00
 -1      3475 1.10400E+02 3.57110E+01 0.00000E+00
 -1      3476 1.11900E+02 3.57110E+01 0.00000E+00
 -1      3477 1.09650E+02 3.44120E+01 0.00000E+00
 -1      3478 1.13400E+02 3.57110E+01 0.00000E+00
 -1      3479 1.14900E+02 3.57110E+01 0.00000E+00
 -1      3480 1.12650E+02 3.44120E+01 0.00000E+00
 -1      3481 1.16400E+02 3.57110E+01 0.00000E+00
 -1      3482 1.17900E+02 3.57110E+01 0.00000E+00
 -1      3483 1.15650E+02 3.44120E+01 0.00000E+00
 -1      3484 1.19400E+02 3.57110E+01 0.00000E+00
 -1      3485 1.20900E+02 3.57110E+01 0.00000E+00
 -1      3486 1.18650E+02 3.44120E+01 0.00000E+00
 -1      3487 1.22400E+02 3.57110E+01 0.00000E+00
 -1      3488 1.23900E+02 3.57110E+01 0.00000E+00
 -1      3489 1.21650E+02 3.44120E+01 0.00000E+00
 -1      3490 1.25400E+02 3.57110E+01 0.00000E+00
 -1      3491 1.26900E+02 3.57110E+01 0.00000E+00
 -1      3492 1.24650E+02 3.44120E+01 0.00000E+00
 -1      3493 1.28400E+02 3.57110E+01 0.00000E+00
 -1      3494 1.29900E+02 3.57110E+01 0.00000E+00
 -1      3495 1.27650E+02 3.44120E+01 0.00000E+00
 -1      3496 1.31400E+02 3.57110E+01 0.00000E+00
 -1      3497 1.32900E+02 3.57110E+01 0.00000E+00
 -1      3498 1.30650E+02 3.44120E+01 0.00000E+00
 -1      3499 3.32850E+01 1.30992E+01 0.00000E+00
 -1      3500 3.17850E+01 1.30992E+01 0.00000E+00
 -1      3501 8.42850E+01 1.30992E+01 0.00000E+00
 -1      3502 8.27850E+01 1.30992E+01 0.00000E+00
 -1      3503 8.12850E+01 1.30992E+01 0.00000E+00
 -1      3504 7.97850E+01 1.30992E+01 0.00000E+00
 -1      3505 8.20350E+01 1.43982E+01 0.00000E+00
 -1      3506 7.00637E+01 2.05574E+01 0.00000E+00
 -1      3507 7.00478E+01 2.19075E+01 0.00000E+00
 -1      3508 7.82850E+01 1.30992E+01 0.00000E+00
 -1      3509 7.67850E+01 1.30992E+01 0.00000E+00
 -1      3510 7.90350E+01 1.43982E+01 0.00000E+00
 -1      3511 8.72850E+01 1.30992E+01 0.00000E+00
 -1      3512 8.57850E+01 1.30992E+01 0.00000E+00
 -1      3513 8.50350E+01 1.43982E+01 0.00000E+00
 -1      3514 9.02850E+01 1.30992E+01 0.00000E+00
 -1      3515 8.87850E+01 1.30992E+01 0.00000E+00
 -1      3516 8.80350E+01 1.43982E+01 0.00000E+00
 -1      3517 9.32850E+01 1.30992E+01 0.00000E+00
 -1      3518 9.17850E+01 1.30992E+01 0.00000E+00
 -1      3519 9.10350E+01 1.43982E+01 0.00000E+00
 -1      3520 9.62850E+01 1.30992E+01 0.00000E+00
 -1      3521 9.47850E+01 1.30992E+01 0.00000E+00
 -1      3522 9.40350E+01 1.43982E+01 0.00000E+00
 -1      3523 9.92850E+01 1.30992E+01 0.00000E+00
 -1      3524 9.77850E+01 1.30992E+01 0.00000E+00
 -1      3525 9.70350E+01 1.43982E+01 0.00000E+00
 -1      3526 1.02285E+02 1.30992E+01 0.00000E+00
 -1      3527 1.00785E+02 1.30992E+01 0.00000E+00
 -1      3528 1.00035E+02 1.43982E+01 0.00000E+00
 -1      3529 1.05285E+02 1.30992E+01 0.00000E+00
 -1      3530 1.03785E+02 1.30992E+01 0.00000E+00
 -1      3531 1.03035E+02 1.43982E+01 0.00000E+00
 -1      3532 1.08285E+02 1.30992E+01 0.00000E+00
 -1      3533 1.06785E+02 1.30992E+01 0.00000E+00
 -1      3534 1.06035E+02 1.43982E+01 0.00000E+00
 -1      3535 1.11285E+02 1.30992E+01 0.00000E+00
 -1      3536 1.09785E+02 1.30992E+01 0.00000E+00
 -1      3537 1.09035E+02 1.43982E+01 0.00000E+00
 -1      3538 1.14285E+02 1.30992E+01 0.00000E+00
 -1      3539 1.12785E+02 1.30992E+01 0.00000E+00
 -1      3540 1.12035E+02 1.43982E+01 0.00000E+00
 -1      3541 1.17285E+02 1.30992E+01 0.00000E+00
 -1      3542 1.15785E+02 1.30992E+01 0.00000E+00
 -1      3543 1.15035E+02 1.43982E+01 0.00000E+00
 -1      3544 1.20285E+02 1.30992E+01 0.00000E+00
 -1      3545 1.18785E+02 1.30992E+01 0.00000E+00
 -1      3546 1.18035E+02 1.43982E+01 0.00000E+00
 -1      3547 1.23285E+02 1.30992E+01 0.00000E+00
 -1      3548 1.21785E+02 1.30992E+01 0.00000E+00
 -1      3549 1.21035E+02 1.43982E+01 0.00000E+00
 -1      3550 1.26285E+02 1.30992E+01 0.00000E+00
 -1      3551 1.24785E+02 1.30992E+01 0.00000E+00
 -1      3552 1.24035E+02 1.43982E+01 0.00000E+00
 -1      3553 1.29285E+02 1.30992E+01 0.00000E+00
 -1      3554 1.27785E+02 1.30992E+01 0.00000E+00
 -1      3555 1.27035E+02 1.43982E+01 0.00000E+00
 -1      3556 1.32285E+02 1.30992E+01 0.00000E+00
 -1      3557 1.30785E+02 1.30992E+01 0.00000E+00
 -1      3558 1.30035E+02 1.43982E+01 0.00000E+00
 -1      3559 6.84845E+01 1.30353E+01 0.00000E+00
 -1      3560 6.92303E+01 1.73065E+01 0.00000E+00
 -1      3561 6.96522E+01 1.88145E+01 0.00000E+00
 -1      3562 6.05790E+01 3.57977E+01 0.00000E+00
 -1      3563 1.35711E+02 3.30875E+01 0.00000E+00
 -1      3564 1.35711E+02 3.16125E+01 0.00000E+00
 -1      3565 4.51414E+01 9.75565E+00 0.00000E+00
 -1      3566 6.55096E+01 3.29540E+01 0.00000E+00
 -1      3567 6.46096E+01 3.38442E+01 0.00000E+00
 -1      3568 2.12850E+01 1.30992E+01 0.00000E+00
 -1      3569 1.97850E+01 1.30992E+01 0.00000E+00
 -1      3570 1.16910E+01 2.71844E+01 0.00000E+00
 -1      3571 1.16910E+01 2.86531E+01 0.00000E+00
 -1      3572 1.29900E+01 2.93875E+01 0.00000E+00
 -1      3573 5.12364E+01 3.63024E+01 0.00000E+00
 -1      3574 6.95886E+01 2.36500E+01 0.00000E+00
 -1      3575 6.90577E+01 2.48497E+01 0.00000E+00
 -1      3576 7.52850E+01 1.30992E+01 0.00000E+00
 -1      3577 7.37850E+01 1.30992E+01 0.00000E+00
 -1      3578 7.60350E+01 1.43982E+01 0.00000E+00
 -1      3579 1.42890E+01 1.68781E+01 0.00000E+00
 -1      3580 1.42890E+01 1.83469E+01 0.00000E+00
 -1      3581 7.22850E+01 1.30992E+01 0.00000E+00
 -1      3582 7.07850E+01 1.30992E+01 0.00000E+00
 -1      3583 7.30350E+01 1.43982E+01 0.00000E+00
 -1      3584 6.38596E+01 3.51432E+01 0.00000E+00
 -1      3585 1.45906E+01 1.32180E+01 0.00000E+00
 -1      3586 1.44342E+01 1.54180E+01 0.00000E+00
 -1      3587 1.57332E+01 1.61524E+01 0.00000E+00
 -1      3588 1.60237E+01 1.32321E+01 0.00000E+00
 -1      3589 1.74000E+01 3.57110E+01 0.00000E+00
 -1      3590 1.89000E+01 3.57110E+01 0.00000E+00
 -1      3591 1.96500E+01 3.44120E+01 0.00000E+00
 -1      3592 1.42890E+01 1.98188E+01 0.00000E+00
 -1      3593 1.42890E+01 2.12906E+01 0.00000E+00
 -1      3594 1.55880E+01 1.90844E+01 0.00000E+00
 -1      3595 3.76774E+01 2.10316E+01 0.00000E+00
 -1      3596 3.76650E+01 1.95644E+01 0.00000E+00
 -1      3597 3.88260E+01 2.66545E+01 0.00000E+00
 -1      3598 3.85871E+01 2.53620E+01 0.00000E+00
 -1      3599 3.88278E+01 1.47260E+01 0.00000E+00
 -1      3600 3.87671E+01 1.30003E+01 0.00000E+00
 -1      3601 3.72671E+01 1.30003E+01 0.00000E+00
 -1      3602 3.77314E+01 1.54003E+01 0.00000E+00
 -1      3603 4.52538E+01 3.60779E+01 0.00000E+00
 -1      3604 4.53575E+01 3.51457E+01 0.00000E+00
 -1      3605 4.37538E+01 3.60779E+01 0.00000E+00
 -1      3606 6.92345E+01 1.43343E+01 0.00000E+00
 -1      3607 3.71791E+01 1.84545E+01 0.00000E+00
 -1      3608 3.66932E+01 1.73446E+01 0.00000E+00
 -1      3609 3.59089E+01 1.91989E+01 0.00000E+00
 -1      3610 3.68808E+01 2.18974E+01 0.00000E+00
 -1      3611 1.29900E+01 2.64469E+01 0.00000E+00
 -1      3612 3.60261E+01 1.30498E+01 0.00000E+00
 -1      3613 3.45261E+01 1.30498E+01 0.00000E+00
 -1      3614 3.37761E+01 1.43488E+01 0.00000E+00
 -1      3615 3.62582E+01 1.42498E+01 0.00000E+00
 -1      3616 6.93439E+01 2.58514E+01 0.00000E+00
 -1      3617 6.65335E+01 3.25017E+01 0.00000E+00
 -1      3618 4.14000E+01 3.57110E+01 0.00000E+00
 -1      3619 4.29000E+01 3.57110E+01 0.00000E+00
 -1      3620 6.97432E+01 1.56247E+01 0.00000E+00
 -1      3621 1.34776E+01 3.53477E+01 0.00000E+00
 -1      3622 4.97364E+01 3.63024E+01 0.00000E+00
 -1      3623 1.36155E+02 1.26686E+01 0.00000E+00
 -1      3624 4.06500E+01 3.44120E+01 0.00000E+00
 -1      3625 7.10221E+01 1.60800E+01 0.00000E+00
 -1      3626 3.10350E+01 1.43982E+01 0.00000E+00
 -1      3627 3.02850E+01 1.30992E+01 0.00000E+00
 -1      3628 2.87850E+01 1.30992E+01 0.00000E+00
 -1      3629 1.34022E+02 3.59901E+01 0.00000E+00
 -1      3630 1.35329E+02 3.61011E+01 0.00000E+00
 -1      3631 1.35515E+02 3.52494E+01 0.00000E+00
 -1      3632 1.33272E+02 3.46911E+01 0.00000E+00
 -1      3633 7.08730E+01 2.29900E+01 0.00000E+00
 -1      3634 2.65350E+01 1.18003E+01 0.00000E+00
 -1      3635 1.35711E+02 2.72188E+01 0.00000E+00
 -1      3636 1.35711E+02 2.57563E+01 0.00000E+00
 -1      3637 1.42890E+01 2.27656E+01 0.00000E+00
 -1      3638 1.42890E+01 2.42406E+01 0.00000E+00
 -1      3639 1.55880E+01 2.20313E+01 0.00000E+00
 -1      3640 7.09206E+01 1.95046E+01 0.00000E+00
 -1      3641 1.33453E+02 1.33799E+01 0.00000E+00
 -1      3642 1.32703E+02 1.46789E+01 0.00000E+00
 -1      3643 1.34620E+02 1.36606E+01 0.00000E+00
 -1      3644 4.28103E+01 3.35931E+01 0.00000E+00
 -1      3645 4.22218E+01 3.29553E+01 0.00000E+00
 -1      3646 1.34412E+02 3.08875E+01 0.00000E+00
 -1      3647 1.35711E+02 3.01500E+01 0.00000E+00
 -1      3648 1.35711E+02 2.86875E+01 0.00000E+00
 -1      3649 1.35711E+02 2.42844E+01 0.00000E+00
 -1      3650 1.35711E+02 2.28125E+01 0.00000E+00
 -1      3651 1.34412E+02 2.50156E+01 0.00000E+00
 -1      3652 2.42850E+01 1.30992E+01 0.00000E+00
 -1      3653 2.27850E+01 1.30992E+01 0.00000E+00
 -1      3654 2.20350E+01 1.43982E+01 0.00000E+00
 -1      3655 6.75955E+01 2.87808E+01 0.00000E+00
 -1      3656 6.79169E+01 2.99499E+01 0.00000E+00
 -1      3657 6.85953E+01 2.81394E+01 0.00000E+00
 -1      3658 1.35711E+02 1.84000E+01 0.00000E+00
 -1      3659 1.35711E+02 1.69250E+01 0.00000E+00
 -1      3660 1.86209E+01 1.31728E+01 0.00000E+00
 -1      3661 1.71878E+01 1.31586E+01 0.00000E+00
 -1      3662 1.70426E+01 1.46188E+01 0.00000E+00
 -1      3663 1.93709E+01 1.44718E+01 0.00000E+00
 -1      3664 1.42890E+01 2.86531E+01 0.00000E+00
 -1      3665 1.42890E+01 3.01219E+01 0.00000E+00
 -1      3666 1.47676E+01 3.55023E+01 0.00000E+00
 -1      3667 1.61100E+01 3.55564E+01 0.00000E+00
 -1      3668 1.68600E+01 3.42574E+01 0.00000E+00
 -1      3669 1.42800E+01 3.39483E+01 0.00000E+00
 -1      3670 4.36641E+01 3.39599E+01 0.00000E+00
 -1      3671 1.42845E+01 3.13007E+01 0.00000E+00
 -1      3672 1.42845E+01 3.27695E+01 0.00000E+00
 -1      3673 1.55745E+01 3.29240E+01 0.00000E+00
 -1      3674 1.55835E+01 3.05663E+01 0.00000E+00
 -1      3675 3.89709E+01 2.79113E+01 0.00000E+00
 -1      3676 3.78434E+01 2.74513E+01 0.00000E+00
 -1      3677 3.75327E+01 2.48403E+01 0.00000E+00
 -1      3678 3.95559E+01 2.90073E+01 0.00000E+00
 -1      3679 1.35702E+02 3.43976E+01 0.00000E+00
 -1      3680 1.34141E+02 1.63111E+01 0.00000E+00
 -1      3681 1.35440E+02 1.55736E+01 0.00000E+00
 -1      3682 1.34403E+02 3.36601E+01 0.00000E+00
 -1      3683 7.23587E+01 2.24498E+01 0.00000E+00
 -1      3684 7.18995E+01 2.41922E+01 0.00000E+00
 -1      3685 2.19000E+01 3.31130E+01 0.00000E+00
 -1      3686 2.34000E+01 3.31130E+01 0.00000E+00
 -1      3687 2.49000E+01 3.31130E+01 0.00000E+00
 -1      3688 2.64000E+01 3.31130E+01 0.00000E+00
 -1      3689 2.41500E+01 3.18140E+01 0.00000E+00
 -1      3690 2.79000E+01 3.31130E+01 0.00000E+00
 -1      3691 2.94000E+01 3.31130E+01 0.00000E+00
 -1      3692 2.71500E+01 3.18140E+01 0.00000E+00
 -1      3693 3.09000E+01 3.31130E+01 0.00000E+00
 -1      3694 3.24000E+01 3.31130E+01 0.00000E+00
 -1      3695 3.01500E+01 3.18140E+01 0.00000E+00
 -1      3696 3.39000E+01 3.31130E+01 0.00000E+00
 -1      3697 3.54000E+01 3.31130E+01 0.00000E+00
 -1      3698 3.31500E+01 3.18140E+01 0.00000E+00
 -1      3699 3.69000E+01 3.31130E+01 0.00000E+00
 -1      3700 3.84000E+01 3.31130E+01 0.00000E+00
 -1      3701 3.61500E+01 3.18140E+01 0.00000E+00
 -1      3702 1.33281E+02 3.33810E+01 0.00000E+00
 -1      3703 6.99000E+01 3.31130E+01 0.00000E+00
 -1      3704 7.14000E+01 3.31130E+01 0.00000E+00
 -1      3705 7.29000E+01 3.31130E+01 0.00000E+00
 -1      3706 7.44000E+01 3.31130E+01 0.00000E+00
 -1      3707 7.21500E+01 3.18140E+01 0.00000E+00
 -1      3708 7.59000E+01 3.31130E+01 0.00000E+00
 -1      3709 7.74000E+01 3.31130E+01 0.00000E+00
 -1      3710 7.51500E+01 3.18140E+01 0.00000E+00
 -1      3711 7.89000E+01 3.31130E+01 0.00000E+00
 -1      3712 8.04000E+01 3.31130E+01 0.00000E+00
 -1      3713 7.81500E+01 3.18140E+01 0.00000E+00
 -1      3714 8.19000E+01 3.31130E+01 0.00000E+00
 -1      3715 8.34000E+01 3.31130E+01 0.00000E+00
 -1      3716 8.11500E+01 3.18140E+01 0.00000E+00
 -1      3717 8.49000E+01 3.31130E+01 0.00000E+00
 -1      3718 8.64000E+01 3.31130E+01 0.00000E+00
 -1      3719 8.41500E+01 3.18140E+01 0.00000E+00
 -1      3720 8.79000E+01 3.31130E+01 0.00000E+00
 -1      3721 8.94000E+01 3.31130E+01 0.00000E+00
 -1      3722 8.71500E+01 3.18140E+01 0.00000E+00
 -1      3723 9.09000E+01 3.31130E+01 0.00000E+00
 -1      3724 9.24000E+01 3.31130E+01 0.00000E+00
 -1      3725 9.01500E+01 3.18140E+01 0.00000E+00
 -1      3726 9.39000E+01 3.31130E+01 0.00000E+00
 -1      3727 9.54000E+01 3.31130E+01 0.00000E+00
 -1      3728 9.31500E+01 3.18140E+01 0.00000E+00
 -1      3729 9.69000E+01 3.31130E+01 0.00000E+00
 -1      3730 9.84000E+01 3.31130E+01 0.00000E+00
 -1      3731 9.61500E+01 3.18140E+01 0.00000E+00
 -1      3732 9.99000E+01 3.31130E+01 0.00000E+00
 -1      3733 1.01400E+02 3.31130E+01 0.00000E+00
 -1      3734 9.91500E+01 3.18140E+01 0.00000E+00
 -1      3735 1.02900E+02 3.31130E+01 0.00000E+00
 -1      3736 1.04400E+02 3.31130E+01 0.00000E+00
 -1      3737 1.02150E+02 3.18140E+01 0.00000E+00
 -1      3738 1.05900E+02 3.31130E+01 0.00000E+00
 -1      3739 1.07400E+02 3.31130E+01 0.00000E+00
 -1      3740 1.05150E+02 3.18140E+01 0.00000E+00
 -1      3741 1.08900E+02 3.31130E+01 0.00000E+00
 -1      3742 1.10400E+02 3.31130E+01 0.00000E+00
 -1      3743 1.08150E+02 3.18140E+01 0.00000E+00
 -1      3744 1.11900E+02 3.31130E+01 0.00000E+00
 -1      3745 1.13400E+02 3.31130E+01 0.00000E+00
 -1      3746 1.11150E+02 3.18140E+01 0.00000E+00
 -1      3747 1.14900E+02 3.31130E+01 0.00000E+00
 -1      3748 1.16400E+02 3.31130E+01 0.00000E+00
 -1      3749 1.14150E+02 3.18140E+01 0.00000E+00
 -1      3750 1.17900E+02 3.31130E+01 0.00000E+00
 -1      3751 1.19400E+02 3.31130E+01 0.00000E+00
 -1      3752 1.17150E+02 3.18140E+01 0.00000E+00
 -1      3753 1.20900E+02 3.31130E+01 0.00000E+00
 -1      3754 1.22400E+02 3.31130E+01 0.00000E+00
 -1      3755 1.20150E+02 3.18140E+01 0.00000E+00
 -1      3756 1.23900E+02 3.31130E+01 0.00000E+00
 -1      3757 1.25400E+02 3.31130E+01 0.00000E+00
 -1      3758 1.23150E+02 3.18140E+01 0.00000E+00
 -1      3759 1.26900E+02 3.31130E+01 0.00000E+00
 -1      3760 1.28400E+02 3.31130E+01 0.00000E+00
 -1      3761 1.26150E+02 3.18140E+01 0.00000E+00
 -1      3762 1.29900E+02 3.31130E+01 0.00000E+00
 -1      3763 1.31400E+02 3.31130E+01 0.00000E+00
 -1      3764 1.29150E+02 3.18140E+01 0.00000E+00
 -1      3765 1.35405E+02 1.39676E+01 0.00000E+00
 -1      3766 8.57850E+01 1.56973E+01 0.00000E+00
 -1      3767 8.42850E+01 1.56973E+01 0.00000E+00
 -1      3768 3.59833E+01 2.30406E+01 0.00000E+00
 -1      3769 3.54973E+01 2.14520E+01 0.00000E+00
 -1      3770 1.34412E+02 2.79562E+01 0.00000E+00
 -1      3771 9.17850E+01 1.56973E+01 0.00000E+00
 -1      3772 9.02850E+01 1.56973E+01 0.00000E+00
 -1      3773 9.47850E+01 1.56973E+01 0.00000E+00
 -1      3774 9.32850E+01 1.56973E+01 0.00000E+00
 -1      3775 9.25350E+01 1.69963E+01 0.00000E+00
 -1      3776 9.77850E+01 1.56973E+01 0.00000E+00
 -1      3777 9.62850E+01 1.56973E+01 0.00000E+00
 -1      3778 9.55350E+01 1.69963E+01 0.00000E+00
 -1      3779 1.00785E+02 1.56973E+01 0.00000E+00
 -1      3780 9.92850E+01 1.56973E+01 0.00000E+00
 -1      3781 9.85350E+01 1.69963E+01 0.00000E+00
 -1      3782 1.03785E+02 1.56973E+01 0.00000E+00
 -1      3783 1.02285E+02 1.56973E+01 0.00000E+00
 -1      3784 1.01535E+02 1.69963E+01 0.00000E+00
 -1      3785 1.06785E+02 1.56973E+01 0.00000E+00
 -1      3786 1.05285E+02 1.56973E+01 0.00000E+00
 -1      3787 1.04535E+02 1.69963E+01 0.00000E+00
 -1      3788 1.09785E+02 1.56973E+01 0.00000E+00
 -1      3789 1.08285E+02 1.56973E+01 0.00000E+00
 -1      3790 1.07535E+02 1.69963E+01 0.00000E+00
 -1      3791 1.12785E+02 1.56973E+01 0.00000E+00
 -1      3792 1.11285E+02 1.56973E+01 0.00000E+00
 -1      3793 1.10535E+02 1.69963E+01 0.00000E+00
 -1      3794 1.15785E+02 1.56973E+01 0.00000E+00
 -1      3795 1.14285E+02 1.56973E+01 0.00000E+00
 -1      3796 1.13535E+02 1.69963E+01 0.00000E+00
 -1      3797 1.18785E+02 1.56973E+01 0.00000E+00
 -1      3798 1.17285E+02 1.56973E+01 0.00000E+00
 -1      3799 1.16535E+02 1.69963E+01 0.00000E+00
 -1      3800 1.21785E+02 1.56973E+01 0.00000E+00
 -1      3801 1.20285E+02 1.56973E+01 0.00000E+00
 -1      3802 1.19535E+02 1.69963E+01 0.00000E+00
 -1      3803 1.24785E+02 1.56973E+01 0.00000E+00
 -1      3804 1.23285E+02 1.56973E+01 0.00000E+00
 -1      3805 1.22535E+02 1.69963E+01 0.00000E+00
 -1      3806 1.27785E+02 1.56973E+01 0.00000E+00
 -1      3807 1.26285E+02 1.56973E+01 0.00000E+00
 -1      3808 1.25535E+02 1.69963E+01 0.00000E+00
 -1      3809 1.30785E+02 1.56973E+01 0.00000E+00
 -1      3810 1.29285E+02 1.56973E+01 0.00000E+00
 -1      3811 1.28535E+02 1.69963E+01 0.00000E+00
 -1      3812 4.30038E+01 3.47789E+01 0.00000E+00
 -1      3813 1.89000E+01 3.31130E+01 0.00000E+00
 -1      3814 2.04000E+01 3.31130E+01 0.00000E+00
 -1      3815 2.11500E+01 3.18140E+01 0.00000E+00
 -1      3816 3.66254E+01 2.82285E+01 0.00000E+00
 -1      3817 3.64805E+01 2.69717E+01 0.00000E+00
 -1      3818 7.97850E+01 1.56973E+01 0.00000E+00
 -1      3819 7.82850E+01 1.56973E+01 0.00000E+00
 -1      3820 7.25221E+01 1.60800E+01 0.00000E+00
 -1      3821 7.20091E+01 1.77617E+01 0.00000E+00
 -1      3822 7.40221E+01 1.60800E+01 0.00000E+00
 -1      3823 3.95609E+01 3.30342E+01 0.00000E+00
 -1      3824 4.10609E+01 3.30342E+01 0.00000E+00
 -1      3825 4.11327E+01 3.15775E+01 0.00000E+00
 -1      3826 3.88109E+01 3.17352E+01 0.00000E+00
 -1      3827 7.69035E+01 1.58886E+01 0.00000E+00
 -1      3828 7.54035E+01 1.58886E+01 0.00000E+00
 -1      3829 7.48906E+01 1.75703E+01 0.00000E+00
 -1      3830 7.76535E+01 1.71876E+01 0.00000E+00
 -1      3831 2.72850E+01 1.30992E+01 0.00000E+00
 -1      3832 2.57850E+01 1.30992E+01 0.00000E+00
 -1      3833 2.80350E+01 1.43982E+01 0.00000E+00
 -1      3834 1.33047E+02 1.61445E+01 0.00000E+00
 -1      3835 1.31879E+02 1.58638E+01 0.00000E+00
 -1      3836 1.31129E+02 1.71628E+01 0.00000E+00
 -1      3837 1.33318E+02 1.74959E+01 0.00000E+00
 -1      3838 8.27850E+01 1.56973E+01 0.00000E+00
 -1      3839 8.12850E+01 1.56973E+01 0.00000E+00
 -1      3840 8.35350E+01 1.69963E+01 0.00000E+00
 -1      3841 3.63148E+01 2.56833E+01 0.00000E+00
 -1      3842 3.61490E+01 2.43290E+01 0.00000E+00
 -1      3843 3.47655E+01 2.38837E+01 0.00000E+00
 -1      3844 3.50968E+01 2.64605E+01 0.00000E+00
 -1      3845 1.68870E+01 1.83484E+01 0.00000E+00
 -1      3846 1.68870E+01 1.98203E+01 0.00000E+00
 -1      3847 1.42890E+01 2.57109E+01 0.00000E+00
 -1      3848 1.42890E+01 2.71828E+01 0.00000E+00
 -1      3849 1.55880E+01 2.79172E+01 0.00000E+00
 -1      3850 1.55880E+01 2.49766E+01 0.00000E+00
 -1      3851 1.35711E+02 2.13422E+01 0.00000E+00
 -1      3852 1.35711E+02 1.98703E+01 0.00000E+00
 -1      3853 1.34412E+02 1.91328E+01 0.00000E+00
 -1      3854 1.34412E+02 2.20734E+01 0.00000E+00
 -1      3855 8.87850E+01 1.56973E+01 0.00000E+00
 -1      3856 8.72850E+01 1.56973E+01 0.00000E+00
 -1      3857 8.95350E+01 1.69963E+01 0.00000E+00
 -1      3858 4.05477E+01 3.04814E+01 0.00000E+00
 -1      3859 6.80335E+01 3.25017E+01 0.00000E+00
 -1      3860 7.07352E+01 2.59016E+01 0.00000E+00
 -1      3861 6.96653E+01 2.70205E+01 0.00000E+00
 -1      3862 6.99866E+01 2.81896E+01 0.00000E+00
 -1      3863 3.89800E+01 3.01822E+01 0.00000E+00
 -1      3864 7.24206E+01 1.95046E+01 0.00000E+00
 -1      3865 1.32531E+02 3.20820E+01 0.00000E+00
 -1      3866 6.87835E+01 3.12027E+01 0.00000E+00
 -1      3867 3.17850E+01 1.56973E+01 0.00000E+00
 -1      3868 3.02850E+01 1.56973E+01 0.00000E+00
 -1      3869 8.65350E+01 1.69963E+01 0.00000E+00
 -1      3870 1.68870E+01 2.12953E+01 0.00000E+00
 -1      3871 1.68870E+01 2.27703E+01 0.00000E+00
 -1      3872 1.81860E+01 2.05594E+01 0.00000E+00
 -1      3873 1.33318E+02 2.04366E+01 0.00000E+00
 -1      3874 1.33318E+02 1.89662E+01 0.00000E+00
 -1      3875 1.32223E+02 1.87997E+01 0.00000E+00
 -1      3876 3.41139E+01 2.14854E+01 0.00000E+00
 -1      3877 3.50114E+01 2.03421E+01 0.00000E+00
 -1      3878 3.45255E+01 1.92323E+01 0.00000E+00
 -1      3879 1.32531E+02 3.06195E+01 0.00000E+00
 -1      3880 1.32531E+02 2.91507E+01 0.00000E+00
 -1      3881 1.32531E+02 2.76820E+01 0.00000E+00
 -1      3882 1.30650E+02 3.03452E+01 0.00000E+00
 -1      3883 8.05350E+01 1.69963E+01 0.00000E+00
 -1      3884 7.41689E+01 1.91386E+01 0.00000E+00
 -1      3885 7.30804E+01 2.08815E+01 0.00000E+00
 -1      3886 7.41069E+01 2.20837E+01 0.00000E+00
 -1      3887 7.55504E+01 1.89472E+01 0.00000E+00
 -1      3888 3.63191E+01 3.02610E+01 0.00000E+00
 -1      3889 3.49562E+01 2.97814E+01 0.00000E+00
 -1      3890 2.50350E+01 1.43982E+01 0.00000E+00
 -1      3891 1.30894E+02 2.71827E+01 0.00000E+00
 -1      3892 1.32775E+02 2.59882E+01 0.00000E+00
 -1      3893 7.37066E+01 2.48211E+01 0.00000E+00
 -1      3894 7.22209E+01 2.53614E+01 0.00000E+00
 -1      3895 7.25423E+01 2.65305E+01 0.00000E+00
 -1      3896 1.32775E+02 2.45163E+01 0.00000E+00
 -1      3897 2.27850E+01 1.56973E+01 0.00000E+00
 -1      3898 2.12850E+01 1.56973E+01 0.00000E+00
 -1      3899 3.39790E+01 1.62436E+01 0.00000E+00
 -1      3900 3.32290E+01 1.75426E+01 0.00000E+00
 -1      3901 1.65923E+01 3.29412E+01 0.00000E+00
 -1      3902 1.78822E+01 3.30958E+01 0.00000E+00
 -1      3903 1.86322E+01 3.17968E+01 0.00000E+00
 -1      3904 1.65968E+01 3.17624E+01 0.00000E+00
 -1      3905 1.66057E+01 2.94047E+01 0.00000E+00
 -1      3906 1.66012E+01 3.05835E+01 0.00000E+00
 -1      3907 1.76190E+01 3.06007E+01 0.00000E+00
 -1      3908 3.64903E+01 1.54498E+01 0.00000E+00
 -1      3909 1.70374E+01 1.57535E+01 0.00000E+00
 -1      3910 1.68922E+01 1.72137E+01 0.00000E+00
 -1      3911 1.81912E+01 1.79496E+01 0.00000E+00
 -1      3912 1.82015E+01 1.56800E+01 0.00000E+00
 -1      3913 1.66057E+01 2.64641E+01 0.00000E+00
 -1      3914 1.66057E+01 2.79344E+01 0.00000E+00
 -1      3915 1.76235E+01 2.79516E+01 0.00000E+00
 -1      3916 1.93657E+01 1.56065E+01 0.00000E+00
 -1      3917 6.97833E+01 3.05612E+01 0.00000E+00
 -1      3918 3.52201E+01 1.61941E+01 0.00000E+00
 -1      3919 2.01157E+01 1.69055E+01 0.00000E+00
 -1      3920 2.01105E+01 1.80403E+01 0.00000E+00
 -1      3921 2.87850E+01 1.56973E+01 0.00000E+00
 -1      3922 2.72850E+01 1.56973E+01 0.00000E+00
 -1      3923 2.95350E+01 1.69963E+01 0.00000E+00
 -1      3924 3.34562E+01 2.97814E+01 0.00000E+00
 -1      3925 3.37625E+01 2.77489E+01 0.00000E+00
 -1      3926 3.19562E+01 2.97814E+01 0.00000E+00
 -1      3927 2.64000E+01 3.05150E+01 0.00000E+00
 -1      3928 2.79000E+01 3.05150E+01 0.00000E+00
 -1      3929 2.91781E+01 3.01482E+01 0.00000E+00
 -1      3930 3.06781E+01 3.01482E+01 0.00000E+00
 -1      3931 3.09844E+01 2.81156E+01 0.00000E+00
 -1      3932 2.84281E+01 2.88492E+01 0.00000E+00
 -1      3933 9.92850E+01 1.82952E+01 0.00000E+00
 -1      3934 9.77850E+01 1.82952E+01 0.00000E+00
 -1      3935 7.44000E+01 3.05150E+01 0.00000E+00
 -1      3936 7.59000E+01 3.05150E+01 0.00000E+00
 -1      3937 7.74000E+01 3.05150E+01 0.00000E+00
 -1      3938 7.89000E+01 3.05150E+01 0.00000E+00
 -1      3939 7.66500E+01 2.92160E+01 0.00000E+00
 -1      3940 8.04000E+01 3.05150E+01 0.00000E+00
 -1      3941 8.19000E+01 3.05150E+01 0.00000E+00
 -1      3942 7.96500E+01 2.92160E+01 0.00000E+00
 -1      3943 8.34000E+01 3.05150E+01 0.00000E+00
 -1      3944 8.49000E+01 3.05150E+01 0.00000E+00
 -1      3945 8.26500E+01 2.92160E+01 0.00000E+00
 -1      3946 8.64000E+01 3.05150E+01 0.00000E+00
 -1      3947 8.79000E+01 3.05150E+01 0.00000E+00
 -1      3948 8.56500E+01 2.92160E+01 0.00000E+00
 -1      3949 8.94000E+01 3.05150E+01 0.00000E+00
 -1      3950 9.09000E+01 3.05150E+01 0.00000E+00
 -1      3951 8.86500E+01 2.92160E+01 0.00000E+00
 -1      3952 9.24000E+01 3.05150E+01 0.00000E+00
 -1      3953 9.39000E+01 3.05150E+01 0.00000E+00
 -1      3954 9.16500E+01 2.92160E+01 0.00000E+00
 -1      3955 9.54000E+01 3.05150E+01 0.00000E+00
 -1      3956 9.69000E+01 3.05150E+01 0.00000E+00
 -1      3957 9.46500E+01 2.92160E+01 0.00000E+00
 -1      3958 9.84000E+01 3.05150E+01 0.00000E+00
 -1      3959 9.99000E+01 3.05150E+01 0.00000E+00
 -1      3960 9.76500E+01 2.92160E+01 0.00000E+00
 -1      3961 1.01400E+02 3.05150E+01 0.00000E+00
 -1      3962 1.02900E+02 3.05150E+01 0.00000E+00
 -1      3963 1.00650E+02 2.92160E+01 0.00000E+00
 -1      3964 1.04400E+02 3.05150E+01 0.00000E+00
 -1      3965 1.05900E+02 3.05150E+01 0.00000E+00
 -1      3966 1.03650E+02 2.92160E+01 0.00000E+00
 -1      3967 1.07400E+02 3.05150E+01 0.00000E+00
 -1      3968 1.08900E+02 3.05150E+01 0.00000E+00
 -1      3969 1.06650E+02 2.92160E+01 0.00000E+00
 -1      3970 1.10400E+02 3.05150E+01 0.00000E+00
 -1      3971 1.11900E+02 3.05150E+01 0.00000E+00
 -1      3972 1.09650E+02 2.92160E+01 0.00000E+00
 -1      3973 1.13400E+02 3.05150E+01 0.00000E+00
 -1      3974 1.14900E+02 3.05150E+01 0.00000E+00
 -1      3975 1.12650E+02 2.92160E+01 0.00000E+00
 -1      3976 1.16400E+02 3.05150E+01 0.00000E+00
 -1      3977 1.17900E+02 3.05150E+01 0.00000E+00
 -1      3978 1.15650E+02 2.92160E+01 0.00000E+00
 -1      3979 1.19400E+02 3.05150E+01 0.00000E+00
 -1      3980 1.20900E+02 3.05150E+01 0.00000E+00
 -1      3981 1.18650E+02 2.92160E+01 0.00000E+00
 -1      3982 1.22400E+02 3.05150E+01 0.00000E+00
 -1      3983 1.23900E+02 3.05150E+01 0.00000E+00
 -1      3984 1.21650E+02 2.92160E+01 0.00000E+00
 -1      3985 1.25400E+02 3.05150E+01 0.00000E+00
 -1      3986 1.26900E+02 3.05150E+01 0.00000E+00
 -1      3987 1.24650E+02 2.92160E+01 0.00000E+00
 -1      3988 1.28025E+02 3.04301E+01 0.00000E+00
 -1      3989 1.29525E+02 3.04301E+01 0.00000E+00
 -1      3990 1.29525E+02 2.89614E+01 0.00000E+00
 -1      3991 1.27275E+02 2.91311E+01 0.00000E+00
 -1      3992 9.62850E+01 1.82952E+01 0.00000E+00
 -1      3993 9.47850E+01 1.82952E+01 0.00000E+00
 -1      3994 9.70350E+01 1.95942E+01 0.00000E+00
 -1      3995 9.32850E+01 1.82952E+01 0.00000E+00
 -1      3996 9.17850E+01 1.82952E+01 0.00000E+00
 -1      3997 9.40350E+01 1.95942E+01 0.00000E+00
 -1      3998 1.02285E+02 1.82952E+01 0.00000E+00
 -1      3999 1.00785E+02 1.82952E+01 0.00000E+00
 -1      4000 1.00035E+02 1.95942E+01 0.00000E+00
 -1      4001 1.05285E+02 1.82952E+01 0.00000E+00
 -1      4002 1.03785E+02 1.82952E+01 0.00000E+00
 -1      4003 1.03035E+02 1.95942E+01 0.00000E+00
 -1      4004 1.08285E+02 1.82952E+01 0.00000E+00
 -1      4005 1.06785E+02 1.82952E+01 0.00000E+00
 -1      4006 1.06035E+02 1.95942E+01 0.00000E+00
 -1      4007 1.11285E+02 1.82952E+01 0.00000E+00
 -1      4008 1.09785E+02 1.82952E+01 0.00000E+00
 -1      4009 1.09035E+02 1.95942E+01 0.00000E+00
 -1      4010 1.14285E+02 1.82952E+01 0.00000E+00
 -1      4011 1.12785E+02 1.82952E+01 0.00000E+00
 -1      4012 1.12035E+02 1.95942E+01 0.00000E+00
 -1      4013 1.17285E+02 1.82952E+01 0.00000E+00
 -1      4014 1.15785E+02 1.82952E+01 0.00000E+00
 -1      4015 1.15035E+02 1.95942E+01 0.00000E+00
 -1      4016 1.20285E+02 1.82952E+01 0.00000E+00
 -1      4017 1.18785E+02 1.82952E+01 0.00000E+00
 -1      4018 1.18035E+02 1.95942E+01 0.00000E+00
 -1      4019 1.23285E+02 1.82952E+01 0.00000E+00
 -1      4020 1.21785E+02 1.82952E+01 0.00000E+00
 -1      4021 1.21035E+02 1.95942E+01 0.00000E+00
 -1      4022 1.26285E+02 1.82952E+01 0.00000E+00
 -1      4023 1.24785E+02 1.82952E+01 0.00000E+00
 -1      4024 1.24035E+02 1.95942E+01 0.00000E+00
 -1      4025 1.29285E+02 1.82952E+01 0.00000E+00
 -1      4026 1.27785E+02 1.82952E+01 0.00000E+00
 -1      4027 1.27035E+02 1.95942E+01 0.00000E+00
 -1      4028 8.42850E+01 1.82952E+01 0.00000E+00
 -1      4029 8.27850E+01 1.82952E+01 0.00000E+00
 -1      4030 1.31301E+02 1.86308E+01 0.00000E+00
 -1      4031 1.30207E+02 1.84642E+01 0.00000E+00
 -1      4032 1.29457E+02 1.97632E+01 0.00000E+00
 -1      4033 1.31301E+02 2.01011E+01 0.00000E+00
 -1      4034 2.57850E+01 1.56973E+01 0.00000E+00
 -1      4035 2.42850E+01 1.56973E+01 0.00000E+00
 -1      4036 2.35350E+01 1.69963E+01 0.00000E+00
 -1      4037 1.29769E+02 2.72675E+01 0.00000E+00
 -1      4038 1.30013E+02 2.55737E+01 0.00000E+00
 -1      4039 1.28644E+02 2.73524E+01 0.00000E+00
 -1      4040 2.16922E+01 1.86601E+01 0.00000E+00
 -1      4041 1.97677E+01 1.97041E+01 0.00000E+00
 -1      4042 3.23315E+01 1.86859E+01 0.00000E+00
 -1      4043 3.78191E+01 3.02610E+01 0.00000E+00
 -1      4044 9.02850E+01 1.82952E+01 0.00000E+00
 -1      4045 8.87850E+01 1.82952E+01 0.00000E+00
 -1      4046 9.10350E+01 1.95942E+01 0.00000E+00
 -1      4047 8.72850E+01 1.82952E+01 0.00000E+00
 -1      4048 8.57850E+01 1.82952E+01 0.00000E+00
 -1      4049 8.50350E+01 1.95942E+01 0.00000E+00
 -1      4050 7.13417E+01 3.05381E+01 0.00000E+00
 -1      4051 7.28417E+01 3.05381E+01 0.00000E+00
 -1      4052 7.35917E+01 2.92391E+01 0.00000E+00
 -1      4053 7.04750E+01 2.92854E+01 0.00000E+00
 -1      4054 2.04000E+01 3.05150E+01 0.00000E+00
 -1      4055 2.19000E+01 3.05150E+01 0.00000E+00
 -1      4056 1.33046E+02 2.32116E+01 0.00000E+00
 -1      4057 1.33046E+02 2.17413E+01 0.00000E+00
 -1      4058 1.31952E+02 2.15747E+01 0.00000E+00
 -1      4059 1.31410E+02 2.41841E+01 0.00000E+00
 -1      4060 1.66057E+01 2.49938E+01 0.00000E+00
 -1      4061 8.12850E+01 1.82952E+01 0.00000E+00
 -1      4062 7.97850E+01 1.82952E+01 0.00000E+00
 -1      4063 8.20350E+01 1.95942E+01 0.00000E+00
 -1      4064 2.34000E+01 3.05150E+01 0.00000E+00
 -1      4065 2.49000E+01 3.05150E+01 0.00000E+00
 -1      4066 2.26500E+01 2.92160E+01 0.00000E+00
 -1      4067 7.15450E+01 2.81665E+01 0.00000E+00
 -1      4068 3.02850E+01 1.82952E+01 0.00000E+00
 -1      4069 2.87850E+01 1.82952E+01 0.00000E+00
 -1      4070 2.56500E+01 2.92160E+01 0.00000E+00
 -1      4071 2.65350E+01 1.69963E+01 0.00000E+00
 -1      4072 3.35968E+01 2.64605E+01 0.00000E+00
 -1      4073 1.97677E+01 2.11791E+01 0.00000E+00
 -1      4074 3.32643E+01 2.25186E+01 0.00000E+00
 -1      4075 3.27784E+01 2.14088E+01 0.00000E+00
 -1      4076 2.46922E+01 1.86601E+01 0.00000E+00
 -1      4077 2.31922E+01 1.86601E+01 0.00000E+00
 -1      4078 2.28494E+01 2.03239E+01 0.00000E+00
 -1      4079 7.47985E+01 2.38922E+01 0.00000E+00
 -1      4080 7.51198E+01 2.50613E+01 0.00000E+00
 -1      4081 7.30307E+01 2.76262E+01 0.00000E+00
 -1      4082 1.29160E+02 2.43539E+01 0.00000E+00
 -1      4083 1.30285E+02 2.42690E+01 0.00000E+00
 -1      4084 1.30556E+02 2.29643E+01 0.00000E+00
 -1      4085 3.15815E+01 1.99849E+01 0.00000E+00
 -1      4086 1.79048E+01 2.42578E+01 0.00000E+00
 -1      4087 8.80350E+01 1.95942E+01 0.00000E+00
 -1      4088 7.84035E+01 1.84866E+01 0.00000E+00
 -1      4089 7.70221E+01 1.86780E+01 0.00000E+00
 -1      4090 7.91535E+01 1.97856E+01 0.00000E+00
 -1      4091 1.86367E+01 3.06180E+01 0.00000E+00
 -1      4092 3.34312E+01 2.51721E+01 0.00000E+00
 -1      4093 3.32655E+01 2.38837E+01 0.00000E+00
 -1      4094 3.20968E+01 2.64605E+01 0.00000E+00
 -1      4095 3.19300E+01 2.38070E+01 0.00000E+00
 -1      4096 1.89225E+01 2.72164E+01 0.00000E+00
 -1      4097 1.89225E+01 2.86868E+01 0.00000E+00
 -1      4098 7.55202E+01 2.23240E+01 0.00000E+00
 -1      4099 1.93867E+01 2.93190E+01 0.00000E+00
 -1      4100 2.49000E+01 2.79170E+01 0.00000E+00
 -1      4101 2.64000E+01 2.79170E+01 0.00000E+00
 -1      4102 1.03785E+02 2.08932E+01 0.00000E+00
 -1      4103 1.02285E+02 2.08932E+01 0.00000E+00
 -1      4104 8.57850E+01 2.08932E+01 0.00000E+00
 -1      4105 8.42850E+01 2.08932E+01 0.00000E+00
 -1      4106 1.00785E+02 2.08932E+01 0.00000E+00
 -1      4107 9.92850E+01 2.08932E+01 0.00000E+00
 -1      4108 1.01535E+02 2.21922E+01 0.00000E+00
 -1      4109 7.89000E+01 2.79170E+01 0.00000E+00
 -1      4110 8.04000E+01 2.79170E+01 0.00000E+00
 -1      4111 8.19000E+01 2.79170E+01 0.00000E+00
 -1      4112 8.34000E+01 2.79170E+01 0.00000E+00
 -1      4113 8.11500E+01 2.66180E+01 0.00000E+00
 -1      4114 8.49000E+01 2.79170E+01 0.00000E+00
 -1      4115 8.64000E+01 2.79170E+01 0.00000E+00
 -1      4116 8.41500E+01 2.66180E+01 0.00000E+00
 -1      4117 8.79000E+01 2.79170E+01 0.00000E+00
 -1      4118 8.94000E+01 2.79170E+01 0.00000E+00
 -1      4119 8.71500E+01 2.66180E+01 0.00000E+00
 -1      4120 9.09000E+01 2.79170E+01 0.00000E+00
 -1      4121 9.24000E+01 2.79170E+01 0.00000E+00
 -1      4122 9.01500E+01 2.66180E+01 0.00000E+00
 -1      4123 9.39000E+01 2.79170E+01 0.00000E+00
 -1      4124 9.54000E+01 2.79170E+01 0.00000E+00
 -1      4125 9.31500E+01 2.66180E+01 0.00000E+00
 -1      4126 9.69000E+01 2.79170E+01 0.00000E+00
 -1      4127 9.84000E+01 2.79170E+01 0.00000E+00
 -1      4128 9.61500E+01 2.66180E+01 0.00000E+00
 -1      4129 9.99000E+01 2.79170E+01 0.00000E+00
 -1      4130 1.01400E+02 2.79170E+01 0.00000E+00
 -1      4131 9.91500E+01 2.66180E+01 0.00000E+00
 -1      4132 1.02900E+02 2.79170E+01 0.00000E+00
 -1      4133 1.04400E+02 2.79170E+01 0.00000E+00
 -1      4134 1.02150E+02 2.66180E+01 0.00000E+00
 -1      4135 1.05900E+02 2.79170E+01 0.00000E+00
 -1      4136 1.07400E+02 2.79170E+01 0.00000E+00
 -1      4137 1.05150E+02 2.66180E+01 0.00000E+00
 -1      4138 1.08900E+02 2.79170E+01 0.00000E+00
 -1      4139 1.10400E+02 2.79170E+01 0.00000E+00
 -1      4140 1.08150E+02 2.66180E+01 0.00000E+00
 -1      4141 1.11900E+02 2.79170E+01 0.00000E+00
 -1      4142 1.13400E+02 2.79170E+01 0.00000E+00
 -1      4143 1.11150E+02 2.66180E+01 0.00000E+00
 -1      4144 1.14900E+02 2.79170E+01 0.00000E+00
 -1      4145 1.16400E+02 2.79170E+01 0.00000E+00
 -1      4146 1.14150E+02 2.66180E+01 0.00000E+00
 -1      4147 1.17900E+02 2.79170E+01 0.00000E+00
 -1      4148 1.19400E+02 2.79170E+01 0.00000E+00
 -1      4149 1.17150E+02 2.66180E+01 0.00000E+00
 -1      4150 1.20900E+02 2.79170E+01 0.00000E+00
 -1      4151 1.22400E+02 2.79170E+01 0.00000E+00
 -1      4152 1.20150E+02 2.66180E+01 0.00000E+00
 -1      4153 1.23900E+02 2.79170E+01 0.00000E+00
 -1      4154 1.25400E+02 2.79170E+01 0.00000E+00
 -1      4155 1.23150E+02 2.66180E+01 0.00000E+00
 -1      4156 1.26460E+02 2.76771E+01 0.00000E+00
 -1      4157 1.27585E+02 2.75923E+01 0.00000E+00
 -1      4158 1.27829E+02 2.58984E+01 0.00000E+00
 -1      4159 1.25710E+02 2.63781E+01 0.00000E+00
 -1      4160 9.77850E+01 2.08932E+01 0.00000E+00
 -1      4161 9.62850E+01 2.08932E+01 0.00000E+00
 -1      4162 9.85350E+01 2.21922E+01 0.00000E+00
 -1      4163 9.47850E+01 2.08932E+01 0.00000E+00
 -1      4164 9.32850E+01 2.08932E+01 0.00000E+00
 -1      4165 9.55350E+01 2.21922E+01 0.00000E+00
 -1      4166 1.06785E+02 2.08932E+01 0.00000E+00
 -1      4167 1.05285E+02 2.08932E+01 0.00000E+00
 -1      4168 1.04535E+02 2.21922E+01 0.00000E+00
 -1      4169 1.09785E+02 2.08932E+01 0.00000E+00
 -1      4170 1.08285E+02 2.08932E+01 0.00000E+00
 -1      4171 1.07535E+02 2.21922E+01 0.00000E+00
 -1      4172 1.12785E+02 2.08932E+01 0.00000E+00
 -1      4173 1.11285E+02 2.08932E+01 0.00000E+00
 -1      4174 1.10535E+02 2.21922E+01 0.00000E+00
 -1      4175 1.15785E+02 2.08932E+01 0.00000E+00
 -1      4176 1.14285E+02 2.08932E+01 0.00000E+00
 -1      4177 1.13535E+02 2.21922E+01 0.00000E+00
 -1      4178 1.18785E+02 2.08932E+01 0.00000E+00
 -1      4179 1.17285E+02 2.08932E+01 0.00000E+00
 -1      4180 1.16535E+02 2.21922E+01 0.00000E+00
 -1      4181 1.21785E+02 2.08932E+01 0.00000E+00
 -1      4182 1.20285E+02 2.08932E+01 0.00000E+00
 -1      4183 1.19535E+02 2.21922E+01 0.00000E+00
 -1      4184 1.24785E+02 2.08932E+01 0.00000E+00
 -1      4185 1.23285E+02 2.08932E+01 0.00000E+00
 -1      4186 1.22535E+02 2.21922E+01 0.00000E+00
 -1      4187 2.74886E+01 1.84777E+01 0.00000E+00
 -1      4188 2.59886E+01 1.84777E+01 0.00000E+00
 -1      4189 2.56458E+01 2.01415E+01 0.00000E+00
 -1      4190 2.82386E+01 1.97767E+01 0.00000E+00
 -1      4191 3.06316E+01 2.44907E+01 0.00000E+00
 -1      4192 3.06304E+01 2.31257E+01 0.00000E+00
 -1      4193 7.45890E+01 2.76031E+01 0.00000E+00
 -1      4194 7.63004E+01 2.02462E+01 0.00000E+00
 -1      4195 9.17850E+01 2.08932E+01 0.00000E+00
 -1      4196 9.02850E+01 2.08932E+01 0.00000E+00
 -1      4197 9.25350E+01 2.21922E+01 0.00000E+00
 -1      4198 3.08908E+01 2.69474E+01 0.00000E+00
 -1      4199 3.07251E+01 2.56590E+01 0.00000E+00
 -1      4200 2.94255E+01 2.49776E+01 0.00000E+00
 -1      4201 2.96127E+01 2.73141E+01 0.00000E+00
 -1      4202 7.69919E+01 2.20547E+01 0.00000E+00
 -1      4203 3.07319E+01 2.10181E+01 0.00000E+00
 -1      4204 1.31030E+02 2.14058E+01 0.00000E+00
 -1      4205 2.11764E+01 2.18942E+01 0.00000E+00
 -1      4206 1.95947E+01 2.27494E+01 0.00000E+00
 -1      4207 8.27850E+01 2.08932E+01 0.00000E+00
 -1      4208 8.12850E+01 2.08932E+01 0.00000E+00
 -1      4209 8.35350E+01 2.21922E+01 0.00000E+00
 -1      4210 2.19000E+01 2.79170E+01 0.00000E+00
 -1      4211 2.34000E+01 2.79170E+01 0.00000E+00
 -1      4212 2.41500E+01 2.66180E+01 0.00000E+00
 -1      4213 8.87850E+01 2.08932E+01 0.00000E+00
 -1      4214 8.72850E+01 2.08932E+01 0.00000E+00
 -1      4215 8.95350E+01 2.21922E+01 0.00000E+00
 -1      4216 1.93134E+01 2.49729E+01 0.00000E+00
 -1      4217 7.56044E+01 2.63322E+01 0.00000E+00
 -1      4218 7.61654E+01 2.79451E+01 0.00000E+00
 -1      4219 7.76654E+01 2.79451E+01 0.00000E+00
 -1      4220 7.66963E+01 2.54034E+01 0.00000E+00
 -1      4221 2.94335E+01 2.17018E+01 0.00000E+00
 -1      4222 1.27040E+02 2.48336E+01 0.00000E+00
 -1      4223 1.28100E+02 2.45937E+01 0.00000E+00
 -1      4224 1.28371E+02 2.32890E+01 0.00000E+00
 -1      4225 7.85981E+01 2.14725E+01 0.00000E+00
 -1      4226 7.78179E+01 2.35502E+01 0.00000E+00
 -1      4227 7.84154E+01 2.66461E+01 0.00000E+00
 -1      4228 2.06857E+01 2.85838E+01 0.00000E+00
 -1      4229 2.41764E+01 2.18942E+01 0.00000E+00
 -1      4230 2.26764E+01 2.18942E+01 0.00000E+00
 -1      4231 2.25034E+01 2.34645E+01 0.00000E+00
 -1      4232 1.26423E+02 2.15616E+01 0.00000E+00
 -1      4233 1.25673E+02 2.28606E+01 0.00000E+00
 -1      4234 2.81371E+01 2.18842E+01 0.00000E+00
 -1      4235 1.27923E+02 2.15616E+01 0.00000E+00
 -1      4236 1.29905E+02 2.14907E+01 0.00000E+00
 -1      4237 1.28983E+02 2.13217E+01 0.00000E+00
 -1      4238 2.73673E+01 2.77990E+01 0.00000E+00
 -1      4239 2.86454E+01 2.74322E+01 0.00000E+00
 -1      4240 2.85518E+01 2.62639E+01 0.00000E+00
 -1      4241 2.66173E+01 2.65000E+01 0.00000E+00
 -1      4242 7.83025E+01 2.48211E+01 0.00000E+00
 -1      4243 7.99795E+01 2.12811E+01 0.00000E+00
 -1      4244 8.65350E+01 2.21922E+01 0.00000E+00
 -1      4245 2.06124E+01 2.57080E+01 0.00000E+00
 -1      4246 8.07295E+01 2.25801E+01 0.00000E+00
 -1      4247 2.14357E+01 2.72848E+01 0.00000E+00
 -1      4248 2.18267E+01 2.50412E+01 0.00000E+00
 -1      4249 8.68425E+01 2.44051E+01 0.00000E+00
 -1      4250 8.53425E+01 2.44051E+01 0.00000E+00
 -1      4251 2.33267E+01 2.50412E+01 0.00000E+00
 -1      4252 2.48267E+01 2.50412E+01 0.00000E+00
 -1      4253 7.95370E+01 2.47930E+01 0.00000E+00
 -1      4254 1.04842E+02 2.44051E+01 0.00000E+00
 -1      4255 1.03342E+02 2.44051E+01 0.00000E+00
 -1      4256 8.38425E+01 2.44051E+01 0.00000E+00
 -1      4257 8.83425E+01 2.44051E+01 0.00000E+00
 -1      4258 8.98425E+01 2.44051E+01 0.00000E+00
 -1      4259 9.13425E+01 2.44051E+01 0.00000E+00
 -1      4260 9.28425E+01 2.44051E+01 0.00000E+00
 -1      4261 9.43425E+01 2.44051E+01 0.00000E+00
 -1      4262 9.58425E+01 2.44051E+01 0.00000E+00
 -1      4263 9.73425E+01 2.44051E+01 0.00000E+00
 -1      4264 9.88425E+01 2.44051E+01 0.00000E+00
 -1      4265 1.00342E+02 2.44051E+01 0.00000E+00
 -1      4266 1.01842E+02 2.44051E+01 0.00000E+00
 -1      4267 1.06342E+02 2.44051E+01 0.00000E+00
 -1      4268 1.07842E+02 2.44051E+01 0.00000E+00
 -1      4269 1.09342E+02 2.44051E+01 0.00000E+00
 -1      4270 1.10842E+02 2.44051E+01 0.00000E+00
 -1      4271 1.12342E+02 2.44051E+01 0.00000E+00
 -1      4272 1.13842E+02 2.44051E+01 0.00000E+00
 -1      4273 1.15342E+02 2.44051E+01 0.00000E+00
 -1      4274 1.16842E+02 2.44051E+01 0.00000E+00
 -1      4275 1.18342E+02 2.44051E+01 0.00000E+00
 -1      4276 1.19842E+02 2.44051E+01 0.00000E+00
 -1      4277 1.21342E+02 2.44051E+01 0.00000E+00
 -1      4278 1.22842E+02 2.44051E+01 0.00000E+00
 -1      4279 1.24342E+02 2.44051E+01 0.00000E+00
 -1      4280 2.68049E+01 2.17980E+01 0.00000E+00
 -1      4281 2.55085E+01 2.19804E+01 0.00000E+00
 -1      4282 2.53355E+01 2.35507E+01 0.00000E+00
 -1      4283 2.79998E+01 2.37231E+01 0.00000E+00
 -1      4284 8.08425E+01 2.44051E+01 0.00000E+00
 -1      4285 8.23425E+01 2.44051E+01 0.00000E+00
 -1      4286 2.61588E+01 2.51274E+01 0.00000E+00
 -1      4287 2.71261E+01 2.50094E+01 0.00000E+00
 -1      4288 2.84583E+01 2.50956E+01 0.00000E+00
 -1      4289 1.25981E+02 2.50734E+01 0.00000E+00
 -3
    3C                          2063                                     1
 -1       164    8    0    1
 -2         6         7        23      1114      1277      1131
 -1       165    8    0    1
 -2         7         8       164      1115      1278      1279
 -1       166    8    0    1
 -2         8         9       165      1116      1280      1281
 -1       167    8    0    1
 -2         8       165       164      1281      1282      1278
 -1       168    8    0    1
 -2         9        10       166      1117      1283      1284
 -1       169    8    0    1
 -2         9       166       165      1284      1285      1280
 -1       170    8    0    1
 -2        10        11       167      1118      1286      1287
 -1       171    8    0    1
 -2        10       167       166      1287      1288      1283
 -1       172    8    0    1
 -2        11        12       168      1119      1289      1290
 -1       173    8    0    1
 -2        11       168       167      1290      1291      1286
 -1       174    8    0    1
 -2        12        13       169      1120      1292      1293
 -1       175    8    0    1
 -2        12       169       168      1293      1294      1289
 -1       176    8    0    1
 -2        13        14       170      1121      1295      1296
 -1       177    8    0    1
 -2        13       170       169      1296      1297      1292
 -1       178    8    0    1
 -2        14        15       171      1122      1298      1299
 -1       179    8    0    1
 -2        14       171       170      1299      1300      1295
 -1       180    8    0    1
 -2        15        16       172      1123      1301      1302
 -1       181    8    0    1
 -2        15       172       171      1302      1303      1298
 -1       182    8    0    1
 -2        16        17       173      1124      1304      1305
 -1       183    8    0    1
 -2        16       173       172      1305      1306      1301
 -1       184    8    0    1
 -2        17        18       174      1125      1307      1308
 -1       185    8    0    1
 -2        17       174       173      1308      1309      1304
 -1       186    8    0    1
 -2        18        19       175      1126      1310      1311
 -1       187    8    0    1
 -2        18       175       174      1311      1312      1307
 -1       188    8    0    1
 -2        19        20       176      1127      1313      1314
 -1       189    8    0    1
 -2        19       176       175      1314      1315      1310
 -1       190    8    0    1
 -2        20        21       177      1128      1316      1317
 -1       191    8    0    1
 -2        20       177       176      1317      1318      1313
 -1       192    8    0    1
 -2        21        22       178      1129      1319      1320
 -1       193    8    0    1
 -2        21       178       177      1320      1321      1316
 -1       194    8    0    1
 -2        22         5       179      1130      1322      1323
 -1       195    8    0    1
 -2       178        22       179      1319      1323      1324
 -1       196    8    0    1
 -2         5        72       179      1181      1325      1322
 -1       197    8    0    1
 -2        24        23       180      1132      1326      1327
 -1       198    8    0    1
 -2        25        24       181      1133      1328      1329
 -1       199    8    0    1
 -2        24       180       181      1327      1330      1328
 -1       200    8    0    1
 -2        26        25       182      1134      1331      1332
 -1       201    8    0    1
 -2        25       181       182      1329      1333      1331
 -1       202    8    0    1
 -2        27        26       183      1135      1334      1335
 -1       203    8    0    1
 -2        26       182       183      1332      1336      1334
 -1       204    8    0    1
 -2        28        27       184      1136      1337      1338
 -1       205    8    0    1
 -2        27       183       184      1335      1339      1337
 -1       206    8    0    1
 -2        29        28       185      1137      1340      1341
 -1       207    8    0    1
 -2        28       184       185      1338      1342      1340
 -1       208    8    0    1
 -2        30        29       186      1138      1343      1344
 -1       209    8    0    1
 -2        29       185       186      1341      1345      1343
 -1       210    8    0    1
 -2        31        30       187      1139      1346      1347
 -1       211    8    0    1
 -2        30       186       187      1344      1348      1346
 -1       212    8    0    1
 -2        32        31       188      1140      1349      1350
 -1       213    8    0    1
 -2        31       187       188      1347      1351      1349
 -1       214    8    0    1
 -2        33        32       189      1141      1352      1353
 -1       215    8    0    1
 -2        32       188       189      1350      1354      1352
 -1       216    8    0    1
 -2        34        33       190      1142      1355      1356
 -1       217    8    0    1
 -2        33       189       190      1353      1357      1355
 -1       218    8    0    1
 -2        35        34       191      1143      1358      1359
 -1       219    8    0    1
 -2        34       190       191      1356      1360      1358
 -1       220    8    0    1
 -2        36        35       192      1144      1361      1362
 -1       221    8    0    1
 -2        35       191       192      1359      1363      1361
 -1       222    8    0    1
 -2        37        36       193      1145      1364      1365
 -1       223    8    0    1
 -2        36       192       193      1362      1366      1364
 -1       224    8    0    1
 -2        38        37       194      1146      1367      1368
 -1       225    8    0    1
 -2        37       193       194      1365      1369      1367
 -1       226    8    0    1
 -2        39        38       195      1147      1370      1371
 -1       227    8    0    1
 -2        38       194       195      1368      1372      1370
 -1       228    8    0    1
 -2        40        39       196      1148      1373      1374
 -1       229    8    0    1
 -2        39       195       196      1371      1375      1373
 -1       230    8    0    1
 -2        41        40       197      1149      1376      1377
 -1       231    8    0    1
 -2        40       196       197      1374      1378      1376
 -1       232    8    0    1
 -2        42        41       198      1150      1379      1380
 -1       233    8    0    1
 -2        41       197       198      1377      1381      1379
 -1       234    8    0    1
 -2        43        42       199      1151      1382      1383
 -1       235    8    0    1
 -2        42       198       199      1380      1384      1382
 -1       236    8    0    1
 -2        44        43       200      1152      1385      1386
 -1       237    8    0    1
 -2        43       199       200      1383      1387      1385
 -1       238    8    0    1
 -2        45        44       201      1153      1388      1389
 -1       239    8    0    1
 -2        44       200       201      1386      1390      1388
 -1       240    8    0    1
 -2        46        45       202      1154      1391      1392
 -1       241    8    0    1
 -2        45       201       202      1389      1393      1391
 -1       242    8    0    1
 -2        47        46       203      1155      1394      1395
 -1       243    8    0    1
 -2        46       202       203      1392      1396      1394
 -1       244    8    0    1
 -2        48        47       204      1156      1397      1398
 -1       245    8    0    1
 -2        47       203       204      1395      1399      1397
 -1       246    8    0    1
 -2        49        48       205      1157      1400      1401
 -1       247    8    0    1
 -2        48       204       205      1398      1402      1400
 -1       248    8    0    1
 -2        50        49       206      1158      1403      1404
 -1       249    8    0    1
 -2        49       205       206      1401      1405      1403
 -1       250    8    0    1
 -2        51        50       207      1159      1406      1407
 -1       251    8    0    1
 -2        50       206       207      1404      1408      1406
 -1       252    8    0    1
 -2        52        51       208      1160      1409      1410
 -1       253    8    0    1
 -2        51       207       208      1407      1411      1409
 -1       254    8    0    1
 -2        53        52       209      1161      1412      1413
 -1       255    8    0    1
 -2        52       208       209      1410      1414      1412
 -1       256    8    0    1
 -2        54        53       210      1162      1415      1416
 -1       257    8    0    1
 -2        53       209       210      1413      1417      1415
 -1       258    8    0    1
 -2        55        54       211      1163      1418      1419
 -1       259    8    0    1
 -2        54       210       211      1416      1420      1418
 -1       260    8    0    1
 -2        56        55       212      1164      1421      1422
 -1       261    8    0    1
 -2        55       211       212      1419      1423      1421
 -1       262    8    0    1
 -2        57        56       213      1165      1424      1425
 -1       263    8    0    1
 -2        56       212       213      1422      1426      1424
 -1       264    8    0    1
 -2        58        57       214      1166      1427      1428
 -1       265    8    0    1
 -2        57       213       214      1425      1429      1427
 -1       266    8    0    1
 -2        59        58       215      1167      1430      1431
 -1       267    8    0    1
 -2        58       214       215      1428      1432      1430
 -1       268    8    0    1
 -2        60        59       216      1168      1433      1434
 -1       269    8    0    1
 -2        59       215       216      1431      1435      1433
 -1       270    8    0    1
 -2        61        60       217      1169      1436      1437
 -1       271    8    0    1
 -2        60       216       217      1434      1438      1436
 -1       272    8    0    1
 -2        62        61       218      1170      1439      1440
 -1       273    8    0    1
 -2        61       217       218      1437      1441      1439
 -1       274    8    0    1
 -2        63        62       219      1171      1442      1443
 -1       275    8    0    1
 -2        62       218       219      1440      1444      1442
 -1       276    8    0    1
 -2        64        63       220      1172      1445      1446
 -1       277    8    0    1
 -2        63       219       220      1443      1447      1445
 -1       278    8    0    1
 -2        65        64       221      1173      1448      1449
 -1       279    8    0    1
 -2        64       220       221      1446      1450      1448
 -1       280    8    0    1
 -2        66        65       222      1174      1451      1452
 -1       281    8    0    1
 -2        65       221       222      1449      1453      1451
 -1       282    8    0    1
 -2        67        66       223      1175      1454      1455
 -1       283    8    0    1
 -2        66       222       223      1452      1456      1454
 -1       284    8    0    1
 -2        68        67       224      1176      1457      1458
 -1       285    8    0    1
 -2        67       223       224      1455      1459      1457
 -1       286    8    0    1
 -2        69        68       225      1177      1460      1461
 -1       287    8    0    1
 -2        68       224       225      1458      1462      1460
 -1       288    8    0    1
 -2        70        69       226      1178      1463      1464
 -1       289    8    0    1
 -2        69       225       226      1461      1465      1463
 -1       290    8    0    1
 -2        71        70       227      1179      1466      1467
 -1       291    8    0    1
 -2        70       226       227      1464      1468      1466
 -1       292    8    0    1
 -2         4        71       136      1180      1469      1247
 -1       293    8    0    1
 -2       136        71       227      1469      1467      1470
 -1       294    8    0    1
 -2        72        73       228      1182      1471      1472
 -1       295    8    0    1
 -2        72       228       179      1472      1473      1325
 -1       296    8    0    1
 -2        73        74       229      1183      1474      1475
 -1       297    8    0    1
 -2        73       229       228      1475      1476      1471
 -1       298    8    0    1
 -2        74        75       230      1184      1477      1478
 -1       299    8    0    1
 -2        74       230       229      1478      1479      1474
 -1       300    8    0    1
 -2        75        76       231      1185      1480      1481
 -1       301    8    0    1
 -2        75       231       230      1481      1482      1477
 -1       302    8    0    1
 -2        76        77       232      1186      1483      1484
 -1       303    8    0    1
 -2        76       232       231      1484      1485      1480
 -1       304    8    0    1
 -2        77        78       233      1187      1486      1487
 -1       305    8    0    1
 -2        77       233       232      1487      1488      1483
 -1       306    8    0    1
 -2        78        79       234      1188      1489      1490
 -1       307    8    0    1
 -2        78       234       233      1490      1491      1486
 -1       308    8    0    1
 -2        79        80       235      1189      1492      1493
 -1       309    8    0    1
 -2        79       235       234      1493      1494      1489
 -1       310    8    0    1
 -2        80        81       236      1190      1495      1496
 -1       311    8    0    1
 -2        80       236       235      1496      1497      1492
 -1       312    8    0    1
 -2        81        82       237      1191      1498      1499
 -1       313    8    0    1
 -2        81       237       236      1499      1500      1495
 -1       314    8    0    1
 -2        82        83       238      1192      1501      1502
 -1       315    8    0    1
 -2        82       238       237      1502      1503      1498
 -1       316    8    0    1
 -2        83        84       239      1193      1504      1505
 -1       317    8    0    1
 -2        83       239       238      1505      1506      1501
 -1       318    8    0    1
 -2        84        85       240      1194      1507      1508
 -1       319    8    0    1
 -2        84       240       239      1508      1509      1504
 -1       320    8    0    1
 -2        85        86       241      1195      1510      1511
 -1       321    8    0    1
 -2        85       241       240      1511      1512      1507
 -1       322    8    0    1
 -2        86        87       242      1196      1513      1514
 -1       323    8    0    1
 -2        86       242       241      1514      1515      1510
 -1       324    8    0    1
 -2        87        88       243      1197      1516      1517
 -1       325    8    0    1
 -2        87       243       242      1517      1518      1513
 -1       326    8    0    1
 -2        88        89       244      1198      1519      1520
 -1       327    8    0    1
 -2        88       244       243      1520      1521      1516
 -1       328    8    0    1
 -2        89        90       245      1199      1522      1523
 -1       329    8    0    1
 -2        89       245       244      1523      1524      1519
 -1       330    8    0    1
 -2        90        91       246      1200      1525      1526
 -1       331    8    0    1
 -2        90       246       245      1526      1527      1522
 -1       332    8    0    1
 -2        91        92       247      1201      1528      1529
 -1       333    8    0    1
 -2        91       247       246      1529      1530      1525
 -1       334    8    0    1
 -2        92        93       248      1202      1531      1532
 -1       335    8    0    1
 -2        92       248       247      1532      1533      1528
 -1       336    8    0    1
 -2        93        94       249      1203      1534      1535
 -1       337    8    0    1
 -2        93       249       248      1535      1536      1531
 -1       338    8    0    1
 -2        94        95       250      1204      1537      1538
 -1       339    8    0    1
 -2        94       250       249      1538      1539      1534
 -1       340    8    0    1
 -2        95        96       251      1205      1540      1541
 -1       341    8    0    1
 -2        95       251       250      1541      1542      1537
 -1       342    8    0    1
 -2        96        97       252      1206      1543      1544
 -1       343    8    0    1
 -2        96       252       251      1544      1545      1540
 -1       344    8    0    1
 -2        97        98       253      1207      1546      1547
 -1       345    8    0    1
 -2        97       253       252      1547      1548      1543
 -1       346    8    0    1
 -2        98        99       254      1208      1549      1550
 -1       347    8    0    1
 -2        98       254       253      1550      1551      1546
 -1       348    8    0    1
 -2        99       100       255      1209      1552      1553
 -1       349    8    0    1
 -2        99       255       254      1553      1554      1549
 -1       350    8    0    1
 -2       100       101       256      1210      1555      1556
 -1       351    8    0    1
 -2       100       256       255      1556      1557      1552
 -1       352    8    0    1
 -2       101       102       257      1211      1558      1559
 -1       353    8    0    1
 -2       101       257       256      1559      1560      1555
 -1       354    8    0    1
 -2       102       103       258      1212      1561      1562
 -1       355    8    0    1
 -2       102       258       257      1562      1563      1558
 -1       356    8    0    1
 -2       103       104       259      1213      1564      1565
 -1       357    8    0    1
 -2       103       259       258      1565      1566      1561
 -1       358    8    0    1
 -2       104       105       260      1214      1567      1568
 -1       359    8    0    1
 -2       104       260       259      1568      1569      1564
 -1       360    8    0    1
 -2       105       106       261      1215      1570      1571
 -1       361    8    0    1
 -2       105       261       260      1571      1572      1567
 -1       362    8    0    1
 -2       106       107       262      1216      1573      1574
 -1       363    8    0    1
 -2       106       262       261      1574      1575      1570
 -1       364    8    0    1
 -2       107       108       263      1217      1576      1577
 -1       365    8    0    1
 -2       107       263       262      1577      1578      1573
 -1       366    8    0    1
 -2       108       109       264      1218      1579      1580
 -1       367    8    0    1
 -2       108       264       263      1580      1581      1576
 -1       368    8    0    1
 -2       109       110       265      1219      1582      1583
 -1       369    8    0    1
 -2       109       265       264      1583      1584      1579
 -1       370    8    0    1
 -2       110       111       266      1220      1585      1586
 -1       371    8    0    1
 -2       110       266       265      1586      1587      1582
 -1       372    8    0    1
 -2       111       112       267      1221      1588      1589
 -1       373    8    0    1
 -2       111       267       266      1589      1590      1585
 -1       374    8    0    1
 -2       112       113       268      1222      1591      1592
 -1       375    8    0    1
 -2       112       268       267      1592      1593      1588
 -1       376    8    0    1
 -2       113       114       269      1223      1594      1595
 -1       377    8    0    1
 -2       113       269       268      1595      1596      1591
 -1       378    8    0    1
 -2       114       115       270      1224      1597      1598
 -1       379    8    0    1
 -2       114       270       269      1598      1599      1594
 -1       380    8    0    1
 -2       115       116       271      1225      1600      1601
 -1       381    8    0    1
 -2       115       271       270      1601      1602      1597
 -1       382    8    0    1
 -2       116       117       272      1226      1603      1604
 -1       383    8    0    1
 -2       116       272       271      1604      1605      1600
 -1       384    8    0    1
 -2       117       118       273      1227      1606      1607
 -1       385    8    0    1
 -2       117       273       272      1607      1608      1603
 -1       386    8    0    1
 -2       118       119       274      1228      1609      1610
 -1       387    8    0    1
 -2       118       274       273      1610      1611      1606
 -1       388    8    0    1
 -2       119       120       275      1229      1612      1613
 -1       389    8    0    1
 -2       119       275       274      1613      1614      1609
 -1       390    8    0    1
 -2       120         3       121      1230      1231      1615
 -1       391    8    0    1
 -2       121       122       276      1232      1616      1617
 -1       392    8    0    1
 -2       122       123       277      1233      1618      1619
 -1       393    8    0    1
 -2       122       277       276      1619      1620      1616
 -1       394    8    0    1
 -2       123       124       278      1234      1621      1622
 -1       395    8    0    1
 -2       123       278       277      1622      1623      1618
 -1       396    8    0    1
 -2       124       125       279      1235      1624      1625
 -1       397    8    0    1
 -2       124       279       278      1625      1626      1621
 -1       398    8    0    1
 -2       125       126       280      1236      1627      1628
 -1       399    8    0    1
 -2       125       280       279      1628      1629      1624
 -1       400    8    0    1
 -2       126       127       281      1237      1630      1631
 -1       401    8    0    1
 -2       126       281       280      1631      1632      1627
 -1       402    8    0    1
 -2       127       128       282      1238      1633      1634
 -1       403    8    0    1
 -2       127       282       281      1634      1635      1630
 -1       404    8    0    1
 -2       128       129       283      1239      1636      1637
 -1       405    8    0    1
 -2       128       283       282      1637      1638      1633
 -1       406    8    0    1
 -2       129       130       284      1240      1639      1640
 -1       407    8    0    1
 -2       129       284       283      1640      1641      1636
 -1       408    8    0    1
 -2       130       131       285      1241      1642      1643
 -1       409    8    0    1
 -2       130       285       284      1643      1644      1639
 -1       410    8    0    1
 -2       131       132       286      1242      1645      1646
 -1       411    8    0    1
 -2       131       286       285      1646      1647      1642
 -1       412    8    0    1
 -2       132       133       287      1243      1648      1649
 -1       413    8    0    1
 -2       132       287       286      1649      1650      1645
 -1       414    8    0    1
 -2       133       134       288      1244      1651      1652
 -1       415    8    0    1
 -2       133       288       287      1652      1653      1648
 -1       416    8    0    1
 -2       134       135       289      1245      1654      1655
 -1       417    8    0    1
 -2       134       289       288      1655      1656      1651
 -1       418    8    0    1
 -2       135       136       290      1246      1657      1658
 -1       419    8    0    1
 -2       289       135       290      1654      1658      1659
 -1       420    8    0    1
 -2       136       227       290      1470      1660      1657
 -1       421    8    0    1
 -2         2       137       291      1248      1661      1662
 -1       422    8    0    1
 -2       137       138       292      1249      1663      1664
 -1       423    8    0    1
 -2       138       139       293      1250      1665      1666
 -1       424    8    0    1
 -2       139       140       294      1251      1667      1668
 -1       425    8    0    1
 -2       140       141       295      1252      1669      1670
 -1       426    8    0    1
 -2       141       142       296      1253      1671      1672
 -1       427    8    0    1
 -2       142       143       297      1254      1673      1674
 -1       428    8    0    1
 -2       143       144       298      1255      1675      1676
 -1       429    8    0    1
 -2       144       145       299      1256      1677      1678
 -1       430    8    0    1
 -2       145       146       300      1257      1679      1680
 -1       431    8    0    1
 -2       146       147       301      1258      1681      1682
 -1       432    8    0    1
 -2       147       148       302      1259      1683      1684
 -1       433    8    0    1
 -2       148       149       303      1260      1685      1686
 -1       434    8    0    1
 -2       149       150       304      1261      1687      1688
 -1       435    8    0    1
 -2       150       151       305      1262      1689      1690
 -1       436    8    0    1
 -2       151       152       306      1263      1691      1692
 -1       437    8    0    1
 -2       152       153       307      1264      1693      1694
 -1       438    8    0    1
 -2       153       154       308      1265      1695      1696
 -1       439    8    0    1
 -2       154       155       309      1266      1697      1698
 -1       440    8    0    1
 -2       155       156       310      1267      1699      1700
 -1       441    8    0    1
 -2       156       157       311      1268      1701      1702
 -1       442    8    0    1
 -2       157       158       312      1269      1703      1704
 -1       443    8    0    1
 -2       158       159       313      1270      1705      1706
 -1       444    8    0    1
 -2       159         1       314      1271      1707      1708
 -1       445    8    0    1
 -2         1       160       315      1272      1709      1710
 -1       446    8    0    1
 -2       160       161       316      1273      1711      1712
 -1       447    8    0    1
 -2       161       162       317      1274      1713      1714
 -1       448    8    0    1
 -2       162       163       318      1275      1715      1716
 -1       449    8    0    1
 -2       163         2       319      1276      1717      1718
 -1       450    8    0    1
 -2       294       140       295      1667      1670      1719
 -1       451    8    0    1
 -2       293       139       294      1665      1668      1720
 -1       452    8    0    1
 -2       120       121       275      1615      1721      1612
 -1       453    8    0    1
 -2       121       276       275      1617      1722      1721
 -1       454    8    0    1
 -2       291       137       292      1661      1664      1723
 -1       455    8    0    1
 -2       292       138       293      1663      1666      1724
 -1       456    8    0    1
 -2         2       291       319      1662      1725      1717
 -1       457    8    0    1
 -2       141       296       295      1672      1726      1669
 -1       458    8    0    1
 -2       142       297       296      1674      1727      1671
 -1       459    8    0    1
 -2       143       298       297      1676      1728      1673
 -1       460    8    0    1
 -2       144       299       298      1678      1729      1675
 -1       461    8    0    1
 -2       145       300       299      1680      1730      1677
 -1       462    8    0    1
 -2       146       301       300      1682      1731      1679
 -1       463    8    0    1
 -2       147       302       301      1684      1732      1681
 -1       464    8    0    1
 -2       148       303       302      1686      1733      1683
 -1       465    8    0    1
 -2       149       304       303      1688      1734      1685
 -1       466    8    0    1
 -2       150       305       304      1690      1735      1687
 -1       467    8    0    1
 -2       151       306       305      1692      1736      1689
 -1       468    8    0    1
 -2       152       307       306      1694      1737      1691
 -1       469    8    0    1
 -2       153       308       307      1696      1738      1693
 -1       470    8    0    1
 -2       154       309       308      1698      1739      1695
 -1       471    8    0    1
 -2       155       310       309      1700      1740      1697
 -1       472    8    0    1
 -2       156       311       310      1702      1741      1699
 -1       473    8    0    1
 -2       157       312       311      1704      1742      1701
 -1       474    8    0    1
 -2       158       313       312      1706      1743      1703
 -1       475    8    0    1
 -2       159       314       313      1708      1744      1705
 -1       476    8    0    1
 -2         1       315       314      1710      1745      1707
 -1       477    8    0    1
 -2       160       316       315      1712      1746      1709
 -1       478    8    0    1
 -2       161       317       316      1714      1747      1711
 -1       479    8    0    1
 -2       162       318       317      1716      1748      1713
 -1       480    8    0    1
 -2       163       319       318      1718      1749      1715
 -1       481    8    0    1
 -2        23         7       164      1277      1279      1750
 -1       482    8    0    1
 -2       165       166       320      1285      1751      1752
 -1       483    8    0    1
 -2       164       165       321      1282      1753      1754
 -1       484    8    0    1
 -2       165       320       321      1752      1755      1753
 -1       485    8    0    1
 -2       167       168       322      1291      1756      1757
 -1       486    8    0    1
 -2       168       169       323      1294      1758      1759
 -1       487    8    0    1
 -2       168       323       322      1759      1760      1756
 -1       488    8    0    1
 -2       169       170       324      1297      1761      1762
 -1       489    8    0    1
 -2       169       324       323      1762      1763      1758
 -1       490    8    0    1
 -2       170       171       325      1300      1764      1765
 -1       491    8    0    1
 -2       170       325       324      1765      1766      1761
 -1       492    8    0    1
 -2       171       172       326      1303      1767      1768
 -1       493    8    0    1
 -2       171       326       325      1768      1769      1764
 -1       494    8    0    1
 -2       172       173       327      1306      1770      1771
 -1       495    8    0    1
 -2       172       327       326      1771      1772      1767
 -1       496    8    0    1
 -2       173       174       328      1309      1773      1774
 -1       497    8    0    1
 -2       173       328       327      1774      1775      1770
 -1       498    8    0    1
 -2       174       175       329      1312      1776      1777
 -1       499    8    0    1
 -2       174       329       328      1777      1778      1773
 -1       500    8    0    1
 -2       175       176       330      1315      1779      1780
 -1       501    8    0    1
 -2       175       330       329      1780      1781      1776
 -1       502    8    0    1
 -2       176       177       331      1318      1782      1783
 -1       503    8    0    1
 -2       176       331       330      1783      1784      1779
 -1       504    8    0    1
 -2       177       178       332      1321      1785      1786
 -1       505    8    0    1
 -2       177       332       331      1786      1787      1782
 -1       506    8    0    1
 -2       178       179       333      1324      1788      1789
 -1       507    8    0    1
 -2       332       178       333      1785      1789      1790
 -1       508    8    0    1
 -2       179       228       333      1473      1791      1788
 -1       509    8    0    1
 -2       180        23       164      1326      1750      1792
 -1       510    8    0    1
 -2       228       229       334      1476      1793      1794
 -1       511    8    0    1
 -2       228       334       333      1794      1795      1791
 -1       512    8    0    1
 -2       180       164       321      1792      1754      1796
 -1       513    8    0    1
 -2       182       181       335      1333      1797      1798
 -1       514    8    0    1
 -2       183       182       336      1336      1799      1800
 -1       515    8    0    1
 -2       182       335       336      1798      1801      1799
 -1       516    8    0    1
 -2       184       183       337      1339      1802      1803
 -1       517    8    0    1
 -2       183       336       337      1800      1804      1802
 -1       518    8    0    1
 -2       185       184       338      1342      1805      1806
 -1       519    8    0    1
 -2       184       337       338      1803      1807      1805
 -1       520    8    0    1
 -2       186       185       339      1345      1808      1809
 -1       521    8    0    1
 -2       185       338       339      1806      1810      1808
 -1       522    8    0    1
 -2       187       186       340      1348      1811      1812
 -1       523    8    0    1
 -2       186       339       340      1809      1813      1811
 -1       524    8    0    1
 -2       188       187       341      1351      1814      1815
 -1       525    8    0    1
 -2       187       340       341      1812      1816      1814
 -1       526    8    0    1
 -2       189       188       342      1354      1817      1818
 -1       527    8    0    1
 -2       188       341       342      1815      1819      1817
 -1       528    8    0    1
 -2       190       189       343      1357      1820      1821
 -1       529    8    0    1
 -2       189       342       343      1818      1822      1820
 -1       530    8    0    1
 -2       191       190       344      1360      1823      1824
 -1       531    8    0    1
 -2       190       343       344      1821      1825      1823
 -1       532    8    0    1
 -2       192       191       345      1363      1826      1827
 -1       533    8    0    1
 -2       191       344       345      1824      1828      1826
 -1       534    8    0    1
 -2       193       192       346      1366      1829      1830
 -1       535    8    0    1
 -2       192       345       346      1827      1831      1829
 -1       536    8    0    1
 -2       194       193       347      1369      1832      1833
 -1       537    8    0    1
 -2       193       346       347      1830      1834      1832
 -1       538    8    0    1
 -2       195       194       348      1372      1835      1836
 -1       539    8    0    1
 -2       194       347       348      1833      1837      1835
 -1       540    8    0    1
 -2       196       195       349      1375      1838      1839
 -1       541    8    0    1
 -2       195       348       349      1836      1840      1838
 -1       542    8    0    1
 -2       197       196       350      1378      1841      1842
 -1       543    8    0    1
 -2       196       349       350      1839      1843      1841
 -1       544    8    0    1
 -2       198       197       351      1381      1844      1845
 -1       545    8    0    1
 -2       197       350       351      1842      1846      1844
 -1       546    8    0    1
 -2       199       198       352      1384      1847      1848
 -1       547    8    0    1
 -2       198       351       352      1845      1849      1847
 -1       548    8    0    1
 -2       200       199       353      1387      1850      1851
 -1       549    8    0    1
 -2       199       352       353      1848      1852      1850
 -1       550    8    0    1
 -2       201       200       354      1390      1853      1854
 -1       551    8    0    1
 -2       200       353       354      1851      1855      1853
 -1       552    8    0    1
 -2       202       201       355      1393      1856      1857
 -1       553    8    0    1
 -2       201       354       355      1854      1858      1856
 -1       554    8    0    1
 -2       203       202       356      1396      1859      1860
 -1       555    8    0    1
 -2       202       355       356      1857      1861      1859
 -1       556    8    0    1
 -2       204       203       357      1399      1862      1863
 -1       557    8    0    1
 -2       203       356       357      1860      1864      1862
 -1       558    8    0    1
 -2       205       204       358      1402      1865      1866
 -1       559    8    0    1
 -2       204       357       358      1863      1867      1865
 -1       560    8    0    1
 -2       206       205       359      1405      1868      1869
 -1       561    8    0    1
 -2       205       358       359      1866      1870      1868
 -1       562    8    0    1
 -2       207       206       360      1408      1871      1872
 -1       563    8    0    1
 -2       206       359       360      1869      1873      1871
 -1       564    8    0    1
 -2       208       207       361      1411      1874      1875
 -1       565    8    0    1
 -2       207       360       361      1872      1876      1874
 -1       566    8    0    1
 -2       209       208       362      1414      1877      1878
 -1       567    8    0    1
 -2       208       361       362      1875      1879      1877
 -1       568    8    0    1
 -2       210       209       363      1417      1880      1881
 -1       569    8    0    1
 -2       209       362       363      1878      1882      1880
 -1       570    8    0    1
 -2       211       210       364      1420      1883      1884
 -1       571    8    0    1
 -2       210       363       364      1881      1885      1883
 -1       572    8    0    1
 -2       212       211       365      1423      1886      1887
 -1       573    8    0    1
 -2       211       364       365      1884      1888      1886
 -1       574    8    0    1
 -2       213       212       366      1426      1889      1890
 -1       575    8    0    1
 -2       212       365       366      1887      1891      1889
 -1       576    8    0    1
 -2       214       213       367      1429      1892      1893
 -1       577    8    0    1
 -2       213       366       367      1890      1894      1892
 -1       578    8    0    1
 -2       215       214       368      1432      1895      1896
 -1       579    8    0    1
 -2       214       367       368      1893      1897      1895
 -1       580    8    0    1
 -2       216       215       369      1435      1898      1899
 -1       581    8    0    1
 -2       215       368       369      1896      1900      1898
 -1       582    8    0    1
 -2       217       216       370      1438      1901      1902
 -1       583    8    0    1
 -2       216       369       370      1899      1903      1901
 -1       584    8    0    1
 -2       218       217       371      1441      1904      1905
 -1       585    8    0    1
 -2       217       370       371      1902      1906      1904
 -1       586    8    0    1
 -2       219       218       372      1444      1907      1908
 -1       587    8    0    1
 -2       218       371       372      1905      1909      1907
 -1       588    8    0    1
 -2       220       219       373      1447      1910      1911
 -1       589    8    0    1
 -2       219       372       373      1908      1912      1910
 -1       590    8    0    1
 -2       221       220       374      1450      1913      1914
 -1       591    8    0    1
 -2       220       373       374      1911      1915      1913
 -1       592    8    0    1
 -2       222       221       375      1453      1916      1917
 -1       593    8    0    1
 -2       221       374       375      1914      1918      1916
 -1       594    8    0    1
 -2       223       222       376      1456      1919      1920
 -1       595    8    0    1
 -2       222       375       376      1917      1921      1919
 -1       596    8    0    1
 -2       224       223       377      1459      1922      1923
 -1       597    8    0    1
 -2       223       376       377      1920      1924      1922
 -1       598    8    0    1
 -2       225       224       378      1462      1925      1926
 -1       599    8    0    1
 -2       224       377       378      1923      1927      1925
 -1       600    8    0    1
 -2       226       225       379      1465      1928      1929
 -1       601    8    0    1
 -2       225       378       379      1926      1930      1928
 -1       602    8    0    1
 -2       227       226       380      1468      1931      1932
 -1       603    8    0    1
 -2       290       227       380      1660      1932      1933
 -1       604    8    0    1
 -2       226       379       380      1929      1934      1931
 -1       605    8    0    1
 -2       229       230       381      1479      1935      1936
 -1       606    8    0    1
 -2       229       381       334      1936      1937      1793
 -1       607    8    0    1
 -2       230       231       382      1482      1938      1939
 -1       608    8    0    1
 -2       230       382       381      1939      1940      1935
 -1       609    8    0    1
 -2       231       232       383      1485      1941      1942
 -1       610    8    0    1
 -2       231       383       382      1942      1943      1938
 -1       611    8    0    1
 -2       232       233       384      1488      1944      1945
 -1       612    8    0    1
 -2       232       384       383      1945      1946      1941
 -1       613    8    0    1
 -2       233       234       385      1491      1947      1948
 -1       614    8    0    1
 -2       233       385       384      1948      1949      1944
 -1       615    8    0    1
 -2       234       235       386      1494      1950      1951
 -1       616    8    0    1
 -2       234       386       385      1951      1952      1947
 -1       617    8    0    1
 -2       235       236       387      1497      1953      1954
 -1       618    8    0    1
 -2       235       387       386      1954      1955      1950
 -1       619    8    0    1
 -2       236       237       388      1500      1956      1957
 -1       620    8    0    1
 -2       236       388       387      1957      1958      1953
 -1       621    8    0    1
 -2       237       238       389      1503      1959      1960
 -1       622    8    0    1
 -2       237       389       388      1960      1961      1956
 -1       623    8    0    1
 -2       238       239       390      1506      1962      1963
 -1       624    8    0    1
 -2       238       390       389      1963      1964      1959
 -1       625    8    0    1
 -2       239       240       391      1509      1965      1966
 -1       626    8    0    1
 -2       239       391       390      1966      1967      1962
 -1       627    8    0    1
 -2       240       241       392      1512      1968      1969
 -1       628    8    0    1
 -2       240       392       391      1969      1970      1965
 -1       629    8    0    1
 -2       241       242       393      1515      1971      1972
 -1       630    8    0    1
 -2       241       393       392      1972      1973      1968
 -1       631    8    0    1
 -2       242       243       394      1518      1974      1975
 -1       632    8    0    1
 -2       242       394       393      1975      1976      1971
 -1       633    8    0    1
 -2       243       244       395      1521      1977      1978
 -1       634    8    0    1
 -2       243       395       394      1978      1979      1974
 -1       635    8    0    1
 -2       244       245       396      1524      1980      1981
 -1       636    8    0    1
 -2       244       396       395      1981      1982      1977
 -1       637    8    0    1
 -2       245       246       397      1527      1983      1984
 -1       638    8    0    1
 -2       245       397       396      1984      1985      1980
 -1       639    8    0    1
 -2       246       247       398      1530      1986      1987
 -1       640    8    0    1
 -2       246       398       397      1987      1988      1983
 -1       641    8    0    1
 -2       247       248       399      1533      1989      1990
 -1       642    8    0    1
 -2       247       399       398      1990      1991      1986
 -1       643    8    0    1
 -2       248       249       400      1536      1992      1993
 -1       644    8    0    1
 -2       248       400       399      1993      1994      1989
 -1       645    8    0    1
 -2       249       250       401      1539      1995      1996
 -1       646    8    0    1
 -2       249       401       400      1996      1997      1992
 -1       647    8    0    1
 -2       250       251       402      1542      1998      1999
 -1       648    8    0    1
 -2       250       402       401      1999      2000      1995
 -1       649    8    0    1
 -2       251       252       403      1545      2001      2002
 -1       650    8    0    1
 -2       251       403       402      2002      2003      1998
 -1       651    8    0    1
 -2       252       253       404      1548      2004      2005
 -1       652    8    0    1
 -2       252       404       403      2005      2006      2001
 -1       653    8    0    1
 -2       253       254       405      1551      2007      2008
 -1       654    8    0    1
 -2       253       405       404      2008      2009      2004
 -1       655    8    0    1
 -2       254       255       406      1554      2010      2011
 -1       656    8    0    1
 -2       254       406       405      2011      2012      2007
 -1       657    8    0    1
 -2       255       256       407      1557      2013      2014
 -1       658    8    0    1
 -2       255       407       406      2014      2015      2010
 -1       659    8    0    1
 -2       256       257       408      1560      2016      2017
 -1       660    8    0    1
 -2       256       408       407      2017      2018      2013
 -1       661    8    0    1
 -2       257       258       409      1563      2019      2020
 -1       662    8    0    1
 -2       257       409       408      2020      2021      2016
 -1       663    8    0    1
 -2       258       259       410      1566      2022      2023
 -1       664    8    0    1
 -2       258       410       409      2023      2024      2019
 -1       665    8    0    1
 -2       259       260       411      1569      2025      2026
 -1       666    8    0    1
 -2       259       411       410      2026      2027      2022
 -1       667    8    0    1
 -2       260       261       412      1572      2028      2029
 -1       668    8    0    1
 -2       260       412       411      2029      2030      2025
 -1       669    8    0    1
 -2       261       262       413      1575      2031      2032
 -1       670    8    0    1
 -2       261       413       412      2032      2033      2028
 -1       671    8    0    1
 -2       262       263       414      1578      2034      2035
 -1       672    8    0    1
 -2       262       414       413      2035      2036      2031
 -1       673    8    0    1
 -2       263       264       415      1581      2037      2038
 -1       674    8    0    1
 -2       263       415       414      2038      2039      2034
 -1       675    8    0    1
 -2       264       265       416      1584      2040      2041
 -1       676    8    0    1
 -2       264       416       415      2041      2042      2037
 -1       677    8    0    1
 -2       265       266       417      1587      2043      2044
 -1       678    8    0    1
 -2       265       417       416      2044      2045      2040
 -1       679    8    0    1
 -2       266       267       418      1590      2046      2047
 -1       680    8    0    1
 -2       266       418       417      2047      2048      2043
 -1       681    8    0    1
 -2       267       268       419      1593      2049      2050
 -1       682    8    0    1
 -2       267       419       418      2050      2051      2046
 -1       683    8    0    1
 -2       268       269       420      1596      2052      2053
 -1       684    8    0    1
 -2       268       420       419      2053      2054      2049
 -1       685    8    0    1
 -2       269       270       421      1599      2055      2056
 -1       686    8    0    1
 -2       269       421       420      2056      2057      2052
 -1       687    8    0    1
 -2       270       271       422      1602      2058      2059
 -1       688    8    0    1
 -2       270       422       421      2059      2060      2055
 -1       689    8    0    1
 -2       271       272       423      1605      2061      2062
 -1       690    8    0    1
 -2       271       423       422      2062      2063      2058
 -1       691    8    0    1
 -2       272       273       424      1608      2064      2065
 -1       692    8    0    1
 -2       272       424       423      2065      2066      2061
 -1       693    8    0    1
 -2       273       274       425      1611      2067      2068
 -1       694    8    0    1
 -2       273       425       424      2068      2069      2064
 -1       695    8    0    1
 -2       274       275       426      1614      2070      2071
 -1       696    8    0    1
 -2       425       274       426      2067      2071      2072
 -1       697    8    0    1
 -2       275       276       426      1722      2073      2070
 -1       698    8    0    1
 -2       278       279       427      1626      2074      2075
 -1       699    8    0    1
 -2       277       278       428      1623      2076      2077
 -1       700    8    0    1
 -2       278       427       428      2075      2078      2076
 -1       701    8    0    1
 -2       276       277       429      1620      2079      2080
 -1       702    8    0    1
 -2       426       276       429      2073      2080      2081
 -1       703    8    0    1
 -2       277       428       429      2077      2082      2079
 -1       704    8    0    1
 -2       279       280       430      1629      2083      2084
 -1       705    8    0    1
 -2       279       430       427      2084      2085      2074
 -1       706    8    0    1
 -2       280       281       431      1632      2086      2087
 -1       707    8    0    1
 -2       280       431       430      2087      2088      2083
 -1       708    8    0    1
 -2       281       282       432      1635      2089      2090
 -1       709    8    0    1
 -2       281       432       431      2090      2091      2086
 -1       710    8    0    1
 -2       282       283       433      1638      2092      2093
 -1       711    8    0    1
 -2       282       433       432      2093      2094      2089
 -1       712    8    0    1
 -2       283       284       434      1641      2095      2096
 -1       713    8    0    1
 -2       283       434       433      2096      2097      2092
 -1       714    8    0    1
 -2       284       285       435      1644      2098      2099
 -1       715    8    0    1
 -2       284       435       434      2099      2100      2095
 -1       716    8    0    1
 -2       285       286       436      1647      2101      2102
 -1       717    8    0    1
 -2       285       436       435      2102      2103      2098
 -1       718    8    0    1
 -2       286       287       437      1650      2104      2105
 -1       719    8    0    1
 -2       286       437       436      2105      2106      2101
 -1       720    8    0    1
 -2       287       288       438      1653      2107      2108
 -1       721    8    0    1
 -2       287       438       437      2108      2109      2104
 -1       722    8    0    1
 -2       288       289       439      1656      2110      2111
 -1       723    8    0    1
 -2       288       439       438      2111      2112      2107
 -1       724    8    0    1
 -2       292       293       440      1724      2113      2114
 -1       725    8    0    1
 -2       319       291       441      1725      2115      2116
 -1       726    8    0    1
 -2       291       292       442      1723      2117      2118
 -1       727    8    0    1
 -2       293       294       443      1720      2119      2120
 -1       728    8    0    1
 -2       294       295       444      1719      2121      2122
 -1       729    8    0    1
 -2       166       167       445      1288      2123      2124
 -1       730    8    0    1
 -2       320       166       445      1751      2124      2125
 -1       731    8    0    1
 -2       167       322       445      1757      2126      2123
 -1       732    8    0    1
 -2       296       297       446      1727      2127      2128
 -1       733    8    0    1
 -2       297       298       447      1728      2129      2130
 -1       734    8    0    1
 -2       298       299       448      1729      2131      2132
 -1       735    8    0    1
 -2       298       448       447      2132      2133      2129
 -1       736    8    0    1
 -2       299       300       449      1730      2134      2135
 -1       737    8    0    1
 -2       300       301       450      1731      2136      2137
 -1       738    8    0    1
 -2       301       302       451      1732      2138      2139
 -1       739    8    0    1
 -2       302       303       452      1733      2140      2141
 -1       740    8    0    1
 -2       303       304       453      1734      2142      2143
 -1       741    8    0    1
 -2       303       453       452      2143      2144      2140
 -1       742    8    0    1
 -2       304       305       454      1735      2145      2146
 -1       743    8    0    1
 -2       305       306       455      1736      2147      2148
 -1       744    8    0    1
 -2       306       307       456      1737      2149      2150
 -1       745    8    0    1
 -2       307       308       457      1738      2151      2152
 -1       746    8    0    1
 -2       308       309       458      1739      2153      2154
 -1       747    8    0    1
 -2       309       310       459      1740      2155      2156
 -1       748    8    0    1
 -2       310       311       460      1741      2157      2158
 -1       749    8    0    1
 -2       310       460       459      2158      2159      2155
 -1       750    8    0    1
 -2       311       312       461      1742      2160      2161
 -1       751    8    0    1
 -2       312       313       462      1743      2162      2163
 -1       752    8    0    1
 -2       313       314       463      1744      2164      2165
 -1       753    8    0    1
 -2       314       315       464      1745      2166      2167
 -1       754    8    0    1
 -2       315       316       465      1746      2168      2169
 -1       755    8    0    1
 -2       316       317       466      1747      2170      2171
 -1       756    8    0    1
 -2       317       318       467      1748      2172      2173
 -1       757    8    0    1
 -2       317       467       466      2173      2174      2170
 -1       758    8    0    1
 -2       318       319       468      1749      2175      2176
 -1       759    8    0    1
 -2       295       296       469      1726      2177      2178
 -1       760    8    0    1
 -2       295       469       444      2178      2179      2121
 -1       761    8    0    1
 -2       443       294       444      2119      2122      2180
 -1       762    8    0    1
 -2       180       321       181      1796      2181      1330
 -1       763    8    0    1
 -2       296       446       469      2128      2182      2177
 -1       764    8    0    1
 -2       335       181       321      1797      2181      2183
 -1       765    8    0    1
 -2       442       292       440      2117      2114      2184
 -1       766    8    0    1
 -2       441       291       442      2115      2118      2185
 -1       767    8    0    1
 -2       439       289       290      2110      1659      2186
 -1       768    8    0    1
 -2       440       293       443      2113      2120      2187
 -1       769    8    0    1
 -2       319       441       468      2116      2188      2175
 -1       770    8    0    1
 -2       467       318       470      2172      2189      2190
 -1       771    8    0    1
 -2       318       468       470      2176      2191      2189
 -1       772    8    0    1
 -2       465       316       466      2168      2171      2192
 -1       773    8    0    1
 -2       464       315       465      2166      2169      2193
 -1       774    8    0    1
 -2       463       314       464      2164      2167      2194
 -1       775    8    0    1
 -2       462       313       463      2162      2165      2195
 -1       776    8    0    1
 -2       460       311       461      2157      2161      2196
 -1       777    8    0    1
 -2       458       309       459      2153      2156      2197
 -1       778    8    0    1
 -2       457       308       458      2151      2154      2198
 -1       779    8    0    1
 -2       456       307       457      2149      2152      2199
 -1       780    8    0    1
 -2       455       306       456      2147      2150      2200
 -1       781    8    0    1
 -2       453       304       454      2142      2146      2201
 -1       782    8    0    1
 -2       451       302       452      2138      2141      2202
 -1       783    8    0    1
 -2       450       301       451      2136      2139      2203
 -1       784    8    0    1
 -2       448       299       471      2131      2204      2205
 -1       785    8    0    1
 -2       299       449       471      2135      2206      2204
 -1       786    8    0    1
 -2       446       297       447      2127      2130      2207
 -1       787    8    0    1
 -2       449       300       450      2134      2137      2208
 -1       788    8    0    1
 -2       454       305       455      2145      2148      2209
 -1       789    8    0    1
 -2       461       312       462      2160      2163      2210
 -1       790    8    0    1
 -2       334       381       472      1937      2211      2212
 -1       791    8    0    1
 -2       323       324       473      1763      2213      2214
 -1       792    8    0    1
 -2       322       323       474      1760      2215      2216
 -1       793    8    0    1
 -2       323       473       474      2214      2217      2215
 -1       794    8    0    1
 -2       325       326       475      1769      2218      2219
 -1       795    8    0    1
 -2       326       327       476      1772      2220      2221
 -1       796    8    0    1
 -2       326       476       475      2221      2222      2218
 -1       797    8    0    1
 -2       327       328       477      1775      2223      2224
 -1       798    8    0    1
 -2       327       477       476      2224      2225      2220
 -1       799    8    0    1
 -2       328       329       478      1778      2226      2227
 -1       800    8    0    1
 -2       328       478       477      2227      2228      2223
 -1       801    8    0    1
 -2       329       330       479      1781      2229      2230
 -1       802    8    0    1
 -2       329       479       478      2230      2231      2226
 -1       803    8    0    1
 -2       330       331       480      1784      2232      2233
 -1       804    8    0    1
 -2       330       480       479      2233      2234      2229
 -1       805    8    0    1
 -2       443       444       481      2180      2235      2236
 -1       806    8    0    1
 -2       381       382       482      1940      2237      2238
 -1       807    8    0    1
 -2       381       482       472      2238      2239      2211
 -1       808    8    0    1
 -2       336       335       483      1801      2240      2241
 -1       809    8    0    1
 -2       469       446       484      2182      2242      2243
 -1       810    8    0    1
 -2       337       336       485      1804      2244      2245
 -1       811    8    0    1
 -2       336       483       485      2241      2246      2244
 -1       812    8    0    1
 -2       338       337       486      1807      2247      2248
 -1       813    8    0    1
 -2       337       485       486      2245      2249      2247
 -1       814    8    0    1
 -2       339       338       487      1810      2250      2251
 -1       815    8    0    1
 -2       338       486       487      2248      2252      2250
 -1       816    8    0    1
 -2       340       339       488      1813      2253      2254
 -1       817    8    0    1
 -2       339       487       488      2251      2255      2253
 -1       818    8    0    1
 -2       341       340       489      1816      2256      2257
 -1       819    8    0    1
 -2       340       488       489      2254      2258      2256
 -1       820    8    0    1
 -2       342       341       490      1819      2259      2260
 -1       821    8    0    1
 -2       341       489       490      2257      2261      2259
 -1       822    8    0    1
 -2       343       342       491      1822      2262      2263
 -1       823    8    0    1
 -2       342       490       491      2260      2264      2262
 -1       824    8    0    1
 -2       344       343       492      1825      2265      2266
 -1       825    8    0    1
 -2       343       491       492      2263      2267      2265
 -1       826    8    0    1
 -2       345       344       493      1828      2268      2269
 -1       827    8    0    1
 -2       344       492       493      2266      2270      2268
 -1       828    8    0    1
 -2       346       345       494      1831      2271      2272
 -1       829    8    0    1
 -2       345       493       494      2269      2273      2271
 -1       830    8    0    1
 -2       347       346       495      1834      2274      2275
 -1       831    8    0    1
 -2       346       494       495      2272      2276      2274
 -1       832    8    0    1
 -2       348       347       496      1837      2277      2278
 -1       833    8    0    1
 -2       347       495       496      2275      2279      2277
 -1       834    8    0    1
 -2       349       348       497      1840      2280      2281
 -1       835    8    0    1
 -2       348       496       497      2278      2282      2280
 -1       836    8    0    1
 -2       350       349       498      1843      2283      2284
 -1       837    8    0    1
 -2       349       497       498      2281      2285      2283
 -1       838    8    0    1
 -2       351       350       499      1846      2286      2287
 -1       839    8    0    1
 -2       350       498       499      2284      2288      2286
 -1       840    8    0    1
 -2       352       351       500      1849      2289      2290
 -1       841    8    0    1
 -2       351       499       500      2287      2291      2289
 -1       842    8    0    1
 -2       353       352       501      1852      2292      2293
 -1       843    8    0    1
 -2       352       500       501      2290      2294      2292
 -1       844    8    0    1
 -2       354       353       502      1855      2295      2296
 -1       845    8    0    1
 -2       353       501       502      2293      2297      2295
 -1       846    8    0    1
 -2       355       354       503      1858      2298      2299
 -1       847    8    0    1
 -2       354       502       503      2296      2300      2298
 -1       848    8    0    1
 -2       356       355       504      1861      2301      2302
 -1       849    8    0    1
 -2       355       503       504      2299      2303      2301
 -1       850    8    0    1
 -2       357       356       505      1864      2304      2305
 -1       851    8    0    1
 -2       356       504       505      2302      2306      2304
 -1       852    8    0    1
 -2       358       357       506      1867      2307      2308
 -1       853    8    0    1
 -2       357       505       506      2305      2309      2307
 -1       854    8    0    1
 -2       359       358       507      1870      2310      2311
 -1       855    8    0    1
 -2       358       506       507      2308      2312      2310
 -1       856    8    0    1
 -2       360       359       508      1873      2313      2314
 -1       857    8    0    1
 -2       359       507       508      2311      2315      2313
 -1       858    8    0    1
 -2       361       360       509      1876      2316      2317
 -1       859    8    0    1
 -2       360       508       509      2314      2318      2316
 -1       860    8    0    1
 -2       362       361       510      1879      2319      2320
 -1       861    8    0    1
 -2       361       509       510      2317      2321      2319
 -1       862    8    0    1
 -2       363       362       511      1882      2322      2323
 -1       863    8    0    1
 -2       362       510       511      2320      2324      2322
 -1       864    8    0    1
 -2       364       363       512      1885      2325      2326
 -1       865    8    0    1
 -2       363       511       512      2323      2327      2325
 -1       866    8    0    1
 -2       365       364       513      1888      2328      2329
 -1       867    8    0    1
 -2       364       512       513      2326      2330      2328
 -1       868    8    0    1
 -2       366       365       514      1891      2331      2332
 -1       869    8    0    1
 -2       365       513       514      2329      2333      2331
 -1       870    8    0    1
 -2       367       366       515      1894      2334      2335
 -1       871    8    0    1
 -2       366       514       515      2332      2336      2334
 -1       872    8    0    1
 -2       368       367       516      1897      2337      2338
 -1       873    8    0    1
 -2       367       515       516      2335      2339      2337
 -1       874    8    0    1
 -2       369       368       517      1900      2340      2341
 -1       875    8    0    1
 -2       368       516       517      2338      2342      2340
 -1       876    8    0    1
 -2       370       369       518      1903      2343      2344
 -1       877    8    0    1
 -2       369       517       518      2341      2345      2343
 -1       878    8    0    1
 -2       371       370       519      1906      2346      2347
 -1       879    8    0    1
 -2       370       518       519      2344      2348      2346
 -1       880    8    0    1
 -2       372       371       520      1909      2349      2350
 -1       881    8    0    1
 -2       371       519       520      2347      2351      2349
 -1       882    8    0    1
 -2       373       372       521      1912      2352      2353
 -1       883    8    0    1
 -2       372       520       521      2350      2354      2352
 -1       884    8    0    1
 -2       374       373       522      1915      2355      2356
 -1       885    8    0    1
 -2       373       521       522      2353      2357      2355
 -1       886    8    0    1
 -2       375       374       523      1918      2358      2359
 -1       887    8    0    1
 -2       374       522       523      2356      2360      2358
 -1       888    8    0    1
 -2       376       375       524      1921      2361      2362
 -1       889    8    0    1
 -2       375       523       524      2359      2363      2361
 -1       890    8    0    1
 -2       377       376       525      1924      2364      2365
 -1       891    8    0    1
 -2       376       524       525      2362      2366      2364
 -1       892    8    0    1
 -2       378       377       526      1927      2367      2368
 -1       893    8    0    1
 -2       377       525       526      2365      2369      2367
 -1       894    8    0    1
 -2       379       378       527      1930      2370      2371
 -1       895    8    0    1
 -2       378       526       527      2368      2372      2370
 -1       896    8    0    1
 -2       383       384       528      1946      2373      2374
 -1       897    8    0    1
 -2       384       385       529      1949      2375      2376
 -1       898    8    0    1
 -2       384       529       528      2376      2377      2373
 -1       899    8    0    1
 -2       385       386       530      1952      2378      2379
 -1       900    8    0    1
 -2       385       530       529      2379      2380      2375
 -1       901    8    0    1
 -2       386       387       531      1955      2381      2382
 -1       902    8    0    1
 -2       386       531       530      2382      2383      2378
 -1       903    8    0    1
 -2       387       388       532      1958      2384      2385
 -1       904    8    0    1
 -2       387       532       531      2385      2386      2381
 -1       905    8    0    1
 -2       388       389       533      1961      2387      2388
 -1       906    8    0    1
 -2       388       533       532      2388      2389      2384
 -1       907    8    0    1
 -2       389       390       534      1964      2390      2391
 -1       908    8    0    1
 -2       389       534       533      2391      2392      2387
 -1       909    8    0    1
 -2       390       391       535      1967      2393      2394
 -1       910    8    0    1
 -2       390       535       534      2394      2395      2390
 -1       911    8    0    1
 -2       391       392       536      1970      2396      2397
 -1       912    8    0    1
 -2       391       536       535      2397      2398      2393
 -1       913    8    0    1
 -2       392       393       537      1973      2399      2400
 -1       914    8    0    1
 -2       392       537       536      2400      2401      2396
 -1       915    8    0    1
 -2       393       394       538      1976      2402      2403
 -1       916    8    0    1
 -2       393       538       537      2403      2404      2399
 -1       917    8    0    1
 -2       394       395       539      1979      2405      2406
 -1       918    8    0    1
 -2       394       539       538      2406      2407      2402
 -1       919    8    0    1
 -2       395       396       540      1982      2408      2409
 -1       920    8    0    1
 -2       395       540       539      2409      2410      2405
 -1       921    8    0    1
 -2       396       397       541      1985      2411      2412
 -1       922    8    0    1
 -2       396       541       540      2412      2413      2408
 -1       923    8    0    1
 -2       397       398       542      1988      2414      2415
 -1       924    8    0    1
 -2       397       542       541      2415      2416      2411
 -1       925    8    0    1
 -2       398       399       543      1991      2417      2418
 -1       926    8    0    1
 -2       398       543       542      2418      2419      2414
 -1       927    8    0    1
 -2       399       400       544      1994      2420      2421
 -1       928    8    0    1
 -2       399       544       543      2421      2422      2417
 -1       929    8    0    1
 -2       400       401       545      1997      2423      2424
 -1       930    8    0    1
 -2       400       545       544      2424      2425      2420
 -1       931    8    0    1
 -2       401       402       546      2000      2426      2427
 -1       932    8    0    1
 -2       401       546       545      2427      2428      2423
 -1       933    8    0    1
 -2       402       403       547      2003      2429      2430
 -1       934    8    0    1
 -2       402       547       546      2430      2431      2426
 -1       935    8    0    1
 -2       403       404       548      2006      2432      2433
 -1       936    8    0    1
 -2       403       548       547      2433      2434      2429
 -1       937    8    0    1
 -2       404       405       549      2009      2435      2436
 -1       938    8    0    1
 -2       404       549       548      2436      2437      2432
 -1       939    8    0    1
 -2       405       406       550      2012      2438      2439
 -1       940    8    0    1
 -2       405       550       549      2439      2440      2435
 -1       941    8    0    1
 -2       406       407       551      2015      2441      2442
 -1       942    8    0    1
 -2       406       551       550      2442      2443      2438
 -1       943    8    0    1
 -2       407       408       552      2018      2444      2445
 -1       944    8    0    1
 -2       407       552       551      2445      2446      2441
 -1       945    8    0    1
 -2       408       409       553      2021      2447      2448
 -1       946    8    0    1
 -2       408       553       552      2448      2449      2444
 -1       947    8    0    1
 -2       409       410       554      2024      2450      2451
 -1       948    8    0    1
 -2       409       554       553      2451      2452      2447
 -1       949    8    0    1
 -2       410       411       555      2027      2453      2454
 -1       950    8    0    1
 -2       410       555       554      2454      2455      2450
 -1       951    8    0    1
 -2       411       412       556      2030      2456      2457
 -1       952    8    0    1
 -2       411       556       555      2457      2458      2453
 -1       953    8    0    1
 -2       412       413       557      2033      2459      2460
 -1       954    8    0    1
 -2       412       557       556      2460      2461      2456
 -1       955    8    0    1
 -2       413       414       558      2036      2462      2463
 -1       956    8    0    1
 -2       413       558       557      2463      2464      2459
 -1       957    8    0    1
 -2       414       415       559      2039      2465      2466
 -1       958    8    0    1
 -2       414       559       558      2466      2467      2462
 -1       959    8    0    1
 -2       415       416       560      2042      2468      2469
 -1       960    8    0    1
 -2       415       560       559      2469      2470      2465
 -1       961    8    0    1
 -2       416       417       561      2045      2471      2472
 -1       962    8    0    1
 -2       416       561       560      2472      2473      2468
 -1       963    8    0    1
 -2       417       418       562      2048      2474      2475
 -1       964    8    0    1
 -2       417       562       561      2475      2476      2471
 -1       965    8    0    1
 -2       418       419       563      2051      2477      2478
 -1       966    8    0    1
 -2       418       563       562      2478      2479      2474
 -1       967    8    0    1
 -2       419       420       564      2054      2480      2481
 -1       968    8    0    1
 -2       419       564       563      2481      2482      2477
 -1       969    8    0    1
 -2       420       421       565      2057      2483      2484
 -1       970    8    0    1
 -2       420       565       564      2484      2485      2480
 -1       971    8    0    1
 -2       421       422       566      2060      2486      2487
 -1       972    8    0    1
 -2       421       566       565      2487      2488      2483
 -1       973    8    0    1
 -2       422       423       567      2063      2489      2490
 -1       974    8    0    1
 -2       422       567       566      2490      2491      2486
 -1       975    8    0    1
 -2       423       424       568      2066      2492      2493
 -1       976    8    0    1
 -2       423       568       567      2493      2494      2489
 -1       977    8    0    1
 -2       424       425       569      2069      2495      2496
 -1       978    8    0    1
 -2       424       569       568      2496      2497      2492
 -1       979    8    0    1
 -2       425       426       429      2072      2081      2498
 -1       980    8    0    1
 -2       430       431       570      2088      2499      2500
 -1       981    8    0    1
 -2       431       432       571      2091      2501      2502
 -1       982    8    0    1
 -2       431       571       570      2502      2503      2499
 -1       983    8    0    1
 -2       428       427       572      2078      2504      2505
 -1       984    8    0    1
 -2       427       430       573      2085      2506      2507
 -1       985    8    0    1
 -2       572       427       573      2504      2507      2508
 -1       986    8    0    1
 -2       430       570       573      2500      2509      2506
 -1       987    8    0    1
 -2       432       433       574      2094      2510      2511
 -1       988    8    0    1
 -2       432       574       571      2511      2512      2501
 -1       989    8    0    1
 -2       433       434       575      2097      2513      2514
 -1       990    8    0    1
 -2       433       575       574      2514      2515      2510
 -1       991    8    0    1
 -2       434       435       576      2100      2516      2517
 -1       992    8    0    1
 -2       434       576       575      2517      2518      2513
 -1       993    8    0    1
 -2       435       436       577      2103      2519      2520
 -1       994    8    0    1
 -2       435       577       576      2520      2521      2516
 -1       995    8    0    1
 -2       436       437       578      2106      2522      2523
 -1       996    8    0    1
 -2       436       578       577      2523      2524      2519
 -1       997    8    0    1
 -2       437       438       579      2109      2525      2526
 -1       998    8    0    1
 -2       437       579       578      2526      2527      2522
 -1       999    8    0    1
 -2       438       439       580      2112      2528      2529
 -1      1000    8    0    1
 -2       438       580       579      2529      2530      2525
 -1      1001    8    0    1
 -2       441       442       581      2185      2531      2532
 -1      1002    8    0    1
 -2       440       443       582      2187      2533      2534
 -1      1003    8    0    1
 -2       382       383       583      1943      2535      2536
 -1      1004    8    0    1
 -2       383       528       583      2374      2537      2535
 -1      1005    8    0    1
 -2       439       290       380      2186      1933      2538
 -1      1006    8    0    1
 -2       468       441       584      2188      2539      2540
 -1      1007    8    0    1
 -2       441       581       584      2532      2541      2539
 -1      1008    8    0    1
 -2       442       440       585      2184      2542      2543
 -1      1009    8    0    1
 -2       440       582       585      2534      2544      2542
 -1      1010    8    0    1
 -2       335       321       586      2183      2545      2546
 -1      1011    8    0    1
 -2       483       335       586      2240      2546      2547
 -1      1012    8    0    1
 -2       321       320       586      1755      2548      2545
 -1      1013    8    0    1
 -2       465       466       587      2192      2549      2550
 -1      1014    8    0    1
 -2       458       459       588      2197      2551      2552
 -1      1015    8    0    1
 -2       451       452       589      2202      2553      2554
 -1      1016    8    0    1
 -2       324       325       590      1766      2555      2556
 -1      1017    8    0    1
 -2       473       324       590      2213      2556      2557
 -1      1018    8    0    1
 -2       325       475       590      2219      2558      2555
 -1      1019    8    0    1
 -2       446       447       591      2207      2559      2560
 -1      1020    8    0    1
 -2       449       450       592      2208      2561      2562
 -1      1021    8    0    1
 -2       447       448       593      2133      2563      2564
 -1      1022    8    0    1
 -2       454       455       594      2209      2565      2566
 -1      1023    8    0    1
 -2       450       451       595      2203      2567      2568
 -1      1024    8    0    1
 -2       452       453       596      2144      2569      2570
 -1      1025    8    0    1
 -2       461       462       597      2210      2571      2572
 -1      1026    8    0    1
 -2       453       454       598      2201      2573      2574
 -1      1027    8    0    1
 -2       454       594       598      2566      2575      2573
 -1      1028    8    0    1
 -2       455       456       599      2200      2576      2577
 -1      1029    8    0    1
 -2       456       457       600      2199      2578      2579
 -1      1030    8    0    1
 -2       457       458       601      2198      2580      2581
 -1      1031    8    0    1
 -2       600       457       601      2578      2581      2582
 -1      1032    8    0    1
 -2       458       588       601      2552      2583      2580
 -1      1033    8    0    1
 -2       459       460       602      2159      2584      2585
 -1      1034    8    0    1
 -2       460       461       603      2196      2586      2587
 -1      1035    8    0    1
 -2       462       463       604      2195      2588      2589
 -1      1036    8    0    1
 -2       463       464       605      2194      2590      2591
 -1      1037    8    0    1
 -2       464       465       606      2193      2592      2593
 -1      1038    8    0    1
 -2       464       606       605      2593      2594      2590
 -1      1039    8    0    1
 -2       466       467       607      2174      2595      2596
 -1      1040    8    0    1
 -2       444       469       608      2179      2597      2598
 -1      1041    8    0    1
 -2       333       334       609      1795      2599      2600
 -1      1042    8    0    1
 -2       332       333       609      1790      2600      2601
 -1      1043    8    0    1
 -2       334       472       609      2212      2602      2599
 -1      1044    8    0    1
 -2       446       591       484      2560      2603      2242
 -1      1045    8    0    1
 -2       322       474       610      2216      2604      2605
 -1      1046    8    0    1
 -2       322       610       445      2605      2606      2126
 -1      1047    8    0    1
 -2       443       481       582      2236      2607      2533
 -1      1048    8    0    1
 -2       481       444       608      2235      2598      2608
 -1      1049    8    0    1
 -2       331       332       609      1787      2601      2609
 -1      1050    8    0    1
 -2       587       466       607      2549      2596      2610
 -1      1051    8    0    1
 -2       469       484       608      2243      2611      2597
 -1      1052    8    0    1
 -2       606       465       587      2592      2550      2612
 -1      1053    8    0    1
 -2       468       584       611      2540      2613      2614
 -1      1054    8    0    1
 -2       468       611       470      2614      2615      2191
 -1      1055    8    0    1
 -2       425       429       569      2498      2616      2495
 -1      1056    8    0    1
 -2       429       428       569      2082      2617      2616
 -1      1057    8    0    1
 -2       604       463       612      2588      2618      2619
 -1      1058    8    0    1
 -2       463       605       612      2591      2620      2618
 -1      1059    8    0    1
 -2       442       585       581      2543      2621      2531
 -1      1060    8    0    1
 -2       602       460       603      2584      2587      2622
 -1      1061    8    0    1
 -2       382       583       482      2536      2623      2237
 -1      1062    8    0    1
 -2       589       452       596      2553      2570      2624
 -1      1063    8    0    1
 -2       586       320       445      2548      2125      2625
 -1      1064    8    0    1
 -2       588       459       602      2551      2585      2626
 -1      1065    8    0    1
 -2       597       462       604      2571      2589      2627
 -1      1066    8    0    1
 -2       596       453       598      2569      2574      2628
 -1      1067    8    0    1
 -2       595       451       589      2567      2554      2629
 -1      1068    8    0    1
 -2       594       455       599      2565      2577      2630
 -1      1069    8    0    1
 -2       593       448       471      2563      2205      2631
 -1      1070    8    0    1
 -2       471       449       613      2206      2632      2633
 -1      1071    8    0    1
 -2       449       592       613      2562      2634      2632
 -1      1072    8    0    1
 -2       592       450       595      2561      2568      2635
 -1      1073    8    0    1
 -2       447       593       591      2564      2636      2559
 -1      1074    8    0    1
 -2       461       597       603      2572      2637      2586
 -1      1075    8    0    1
 -2       599       456       600      2576      2579      2638
 -1      1076    8    0    1
 -2       439       380       614      2538      2639      2640
 -1      1077    8    0    1
 -2       580       439       614      2528      2640      2641
 -1      1078    8    0    1
 -2       380       379       614      1934      2642      2639
 -1      1079    8    0    1
 -2       607       467       470      2595      2190      2643
 -1      1080    8    0    1
 -2       331       609       480      2609      2644      2232
 -1      1081    8    0    1
 -2       569       428       572      2617      2505      2645
 -1      1082    8    0    1
 -2       614       379       527      2642      2371      2646
 -1      1083    8    0    1
 -2       476       477       615      2225      2647      2648
 -1      1084    8    0    1
 -2       475       476       616      2222      2649      2650
 -1      1085    8    0    1
 -2       476       615       616      2648      2651      2649
 -1      1086    8    0    1
 -2       478       479       617      2231      2652      2653
 -1      1087    8    0    1
 -2       479       480       618      2234      2654      2655
 -1      1088    8    0    1
 -2       479       618       617      2655      2656      2652
 -1      1089    8    0    1
 -2       569       572       619      2645      2657      2658
 -1      1090    8    0    1
 -2       569       619       568      2658      2659      2497
 -1      1091    8    0    1
 -2       609       472       480      2602      2660      2644
 -1      1092    8    0    1
 -2       606       587       620      2612      2661      2662
 -1      1093    8    0    1
 -2       486       485       621      2249      2663      2664
 -1      1094    8    0    1
 -2       487       486       622      2252      2665      2666
 -1      1095    8    0    1
 -2       486       621       622      2664      2667      2665
 -1      1096    8    0    1
 -2       488       487       623      2255      2668      2669
 -1      1097    8    0    1
 -2       487       622       623      2666      2670      2668
 -1      1098    8    0    1
 -2       489       488       624      2258      2671      2672
 -1      1099    8    0    1
 -2       488       623       624      2669      2673      2671
 -1      1100    8    0    1
 -2       490       489       625      2261      2674      2675
 -1      1101    8    0    1
 -2       489       624       625      2672      2676      2674
 -1      1102    8    0    1
 -2       491       490       626      2264      2677      2678
 -1      1103    8    0    1
 -2       490       625       626      2675      2679      2677
 -1      1104    8    0    1
 -2       492       491       627      2267      2680      2681
 -1      1105    8    0    1
 -2       491       626       627      2678      2682      2680
 -1      1106    8    0    1
 -2       493       492       628      2270      2683      2684
 -1      1107    8    0    1
 -2       492       627       628      2681      2685      2683
 -1      1108    8    0    1
 -2       494       493       629      2273      2686      2687
 -1      1109    8    0    1
 -2       493       628       629      2684      2688      2686
 -1      1110    8    0    1
 -2       495       494       630      2276      2689      2690
 -1      1111    8    0    1
 -2       494       629       630      2687      2691      2689
 -1      1112    8    0    1
 -2       496       495       631      2279      2692      2693
 -1      1113    8    0    1
 -2       495       630       631      2690      2694      2692
 -1      1114    8    0    1
 -2       497       496       632      2282      2695      2696
 -1      1115    8    0    1
 -2       496       631       632      2693      2697      2695
 -1      1116    8    0    1
 -2       498       497       633      2285      2698      2699
 -1      1117    8    0    1
 -2       497       632       633      2696      2700      2698
 -1      1118    8    0    1
 -2       499       498       634      2288      2701      2702
 -1      1119    8    0    1
 -2       498       633       634      2699      2703      2701
 -1      1120    8    0    1
 -2       500       499       635      2291      2704      2705
 -1      1121    8    0    1
 -2       499       634       635      2702      2706      2704
 -1      1122    8    0    1
 -2       501       500       636      2294      2707      2708
 -1      1123    8    0    1
 -2       500       635       636      2705      2709      2707
 -1      1124    8    0    1
 -2       502       501       637      2297      2710      2711
 -1      1125    8    0    1
 -2       501       636       637      2708      2712      2710
 -1      1126    8    0    1
 -2       503       502       638      2300      2713      2714
 -1      1127    8    0    1
 -2       502       637       638      2711      2715      2713
 -1      1128    8    0    1
 -2       504       503       639      2303      2716      2717
 -1      1129    8    0    1
 -2       503       638       639      2714      2718      2716
 -1      1130    8    0    1
 -2       505       504       640      2306      2719      2720
 -1      1131    8    0    1
 -2       504       639       640      2717      2721      2719
 -1      1132    8    0    1
 -2       506       505       641      2309      2722      2723
 -1      1133    8    0    1
 -2       505       640       641      2720      2724      2722
 -1      1134    8    0    1
 -2       507       506       642      2312      2725      2726
 -1      1135    8    0    1
 -2       506       641       642      2723      2727      2725
 -1      1136    8    0    1
 -2       508       507       643      2315      2728      2729
 -1      1137    8    0    1
 -2       507       642       643      2726      2730      2728
 -1      1138    8    0    1
 -2       509       508       644      2318      2731      2732
 -1      1139    8    0    1
 -2       508       643       644      2729      2733      2731
 -1      1140    8    0    1
 -2       510       509       645      2321      2734      2735
 -1      1141    8    0    1
 -2       509       644       645      2732      2736      2734
 -1      1142    8    0    1
 -2       511       510       646      2324      2737      2738
 -1      1143    8    0    1
 -2       510       645       646      2735      2739      2737
 -1      1144    8    0    1
 -2       512       511       647      2327      2740      2741
 -1      1145    8    0    1
 -2       511       646       647      2738      2742      2740
 -1      1146    8    0    1
 -2       513       512       648      2330      2743      2744
 -1      1147    8    0    1
 -2       512       647       648      2741      2745      2743
 -1      1148    8    0    1
 -2       514       513       649      2333      2746      2747
 -1      1149    8    0    1
 -2       513       648       649      2744      2748      2746
 -1      1150    8    0    1
 -2       515       514       650      2336      2749      2750
 -1      1151    8    0    1
 -2       514       649       650      2747      2751      2749
 -1      1152    8    0    1
 -2       516       515       651      2339      2752      2753
 -1      1153    8    0    1
 -2       515       650       651      2750      2754      2752
 -1      1154    8    0    1
 -2       517       516       652      2342      2755      2756
 -1      1155    8    0    1
 -2       516       651       652      2753      2757      2755
 -1      1156    8    0    1
 -2       518       517       653      2345      2758      2759
 -1      1157    8    0    1
 -2       517       652       653      2756      2760      2758
 -1      1158    8    0    1
 -2       519       518       654      2348      2761      2762
 -1      1159    8    0    1
 -2       518       653       654      2759      2763      2761
 -1      1160    8    0    1
 -2       520       519       655      2351      2764      2765
 -1      1161    8    0    1
 -2       519       654       655      2762      2766      2764
 -1      1162    8    0    1
 -2       521       520       656      2354      2767      2768
 -1      1163    8    0    1
 -2       520       655       656      2765      2769      2767
 -1      1164    8    0    1
 -2       522       521       657      2357      2770      2771
 -1      1165    8    0    1
 -2       521       656       657      2768      2772      2770
 -1      1166    8    0    1
 -2       523       522       658      2360      2773      2774
 -1      1167    8    0    1
 -2       522       657       658      2771      2775      2773
 -1      1168    8    0    1
 -2       524       523       659      2363      2776      2777
 -1      1169    8    0    1
 -2       523       658       659      2774      2778      2776
 -1      1170    8    0    1
 -2       525       524       660      2366      2779      2780
 -1      1171    8    0    1
 -2       524       659       660      2777      2781      2779
 -1      1172    8    0    1
 -2       526       525       661      2369      2782      2783
 -1      1173    8    0    1
 -2       525       660       661      2780      2784      2782
 -1      1174    8    0    1
 -2       527       526       662      2372      2785      2786
 -1      1175    8    0    1
 -2       526       661       662      2783      2787      2785
 -1      1176    8    0    1
 -2       529       530       663      2380      2788      2789
 -1      1177    8    0    1
 -2       607       470       664      2643      2790      2791
 -1      1178    8    0    1
 -2       608       484       665      2611      2792      2793
 -1      1179    8    0    1
 -2       528       529       666      2377      2794      2795
 -1      1180    8    0    1
 -2       529       663       666      2789      2796      2794
 -1      1181    8    0    1
 -2       531       532       667      2386      2797      2798
 -1      1182    8    0    1
 -2       532       533       668      2389      2799      2800
 -1      1183    8    0    1
 -2       532       668       667      2800      2801      2797
 -1      1184    8    0    1
 -2       533       534       669      2392      2802      2803
 -1      1185    8    0    1
 -2       533       669       668      2803      2804      2799
 -1      1186    8    0    1
 -2       534       535       670      2395      2805      2806
 -1      1187    8    0    1
 -2       534       670       669      2806      2807      2802
 -1      1188    8    0    1
 -2       535       536       671      2398      2808      2809
 -1      1189    8    0    1
 -2       535       671       670      2809      2810      2805
 -1      1190    8    0    1
 -2       536       537       672      2401      2811      2812
 -1      1191    8    0    1
 -2       536       672       671      2812      2813      2808
 -1      1192    8    0    1
 -2       537       538       613      2404      2814      2815
 -1      1193    8    0    1
 -2       538       539       613      2407      2816      2814
 -1      1194    8    0    1
 -2       541       542       665      2416      2817      2818
 -1      1195    8    0    1
 -2       543       544       673      2422      2819      2820
 -1      1196    8    0    1
 -2       544       545       674      2425      2821      2822
 -1      1197    8    0    1
 -2       544       674       673      2822      2823      2819
 -1      1198    8    0    1
 -2       545       546       675      2428      2824      2825
 -1      1199    8    0    1
 -2       545       675       674      2825      2826      2821
 -1      1200    8    0    1
 -2       546       547       676      2431      2827      2828
 -1      1201    8    0    1
 -2       546       676       675      2828      2829      2824
 -1      1202    8    0    1
 -2       547       548       677      2434      2830      2831
 -1      1203    8    0    1
 -2       547       677       676      2831      2832      2827
 -1      1204    8    0    1
 -2       548       549       678      2437      2833      2834
 -1      1205    8    0    1
 -2       548       678       677      2834      2835      2830
 -1      1206    8    0    1
 -2       549       550       679      2440      2836      2837
 -1      1207    8    0    1
 -2       549       679       678      2837      2838      2833
 -1      1208    8    0    1
 -2       550       551       680      2443      2839      2840
 -1      1209    8    0    1
 -2       550       680       679      2840      2841      2836
 -1      1210    8    0    1
 -2       551       552       681      2446      2842      2843
 -1      1211    8    0    1
 -2       551       681       680      2843      2844      2839
 -1      1212    8    0    1
 -2       552       553       682      2449      2845      2846
 -1      1213    8    0    1
 -2       552       682       681      2846      2847      2842
 -1      1214    8    0    1
 -2       553       554       683      2452      2848      2849
 -1      1215    8    0    1
 -2       553       683       682      2849      2850      2845
 -1      1216    8    0    1
 -2       554       555       684      2455      2851      2852
 -1      1217    8    0    1
 -2       554       684       683      2852      2853      2848
 -1      1218    8    0    1
 -2       555       556       685      2458      2854      2855
 -1      1219    8    0    1
 -2       555       685       684      2855      2856      2851
 -1      1220    8    0    1
 -2       556       557       686      2461      2857      2858
 -1      1221    8    0    1
 -2       556       686       685      2858      2859      2854
 -1      1222    8    0    1
 -2       557       558       687      2464      2860      2861
 -1      1223    8    0    1
 -2       557       687       686      2861      2862      2857
 -1      1224    8    0    1
 -2       558       559       688      2467      2863      2864
 -1      1225    8    0    1
 -2       558       688       687      2864      2865      2860
 -1      1226    8    0    1
 -2       559       560       689      2470      2866      2867
 -1      1227    8    0    1
 -2       559       689       688      2867      2868      2863
 -1      1228    8    0    1
 -2       560       561       690      2473      2869      2870
 -1      1229    8    0    1
 -2       560       690       689      2870      2871      2866
 -1      1230    8    0    1
 -2       561       562       691      2476      2872      2873
 -1      1231    8    0    1
 -2       561       691       690      2873      2874      2869
 -1      1232    8    0    1
 -2       562       563       692      2479      2875      2876
 -1      1233    8    0    1
 -2       562       692       691      2876      2877      2872
 -1      1234    8    0    1
 -2       563       564       693      2482      2878      2879
 -1      1235    8    0    1
 -2       563       693       692      2879      2880      2875
 -1      1236    8    0    1
 -2       564       565       694      2485      2881      2882
 -1      1237    8    0    1
 -2       564       694       693      2882      2883      2878
 -1      1238    8    0    1
 -2       565       566       695      2488      2884      2885
 -1      1239    8    0    1
 -2       565       695       694      2885      2886      2881
 -1      1240    8    0    1
 -2       566       567       696      2491      2887      2888
 -1      1241    8    0    1
 -2       566       696       695      2888      2889      2884
 -1      1242    8    0    1
 -2       567       568       697      2494      2890      2891
 -1      1243    8    0    1
 -2       696       567       697      2887      2891      2892
 -1      1244    8    0    1
 -2       568       619       697      2659      2893      2890
 -1      1245    8    0    1
 -2       480       472       698      2660      2894      2895
 -1      1246    8    0    1
 -2       618       480       698      2654      2895      2896
 -1      1247    8    0    1
 -2       472       482       698      2239      2897      2894
 -1      1248    8    0    1
 -2       574       575       699      2515      2898      2899
 -1      1249    8    0    1
 -2       614       527       700      2646      2900      2901
 -1      1250    8    0    1
 -2       527       662       700      2786      2902      2900
 -1      1251    8    0    1
 -2       570       571       701      2503      2903      2904
 -1      1252    8    0    1
 -2       575       576       702      2518      2905      2906
 -1      1253    8    0    1
 -2       575       702       699      2906      2907      2898
 -1      1254    8    0    1
 -2       571       574       703      2512      2908      2909
 -1      1255    8    0    1
 -2       701       571       703      2903      2909      2910
 -1      1256    8    0    1
 -2       574       699       703      2899      2911      2908
 -1      1257    8    0    1
 -2       481       608       704      2608      2912      2913
 -1      1258    8    0    1
 -2       576       577       705      2521      2914      2915
 -1      1259    8    0    1
 -2       576       705       702      2915      2916      2905
 -1      1260    8    0    1
 -2       577       578       706      2524      2917      2918
 -1      1261    8    0    1
 -2       577       706       705      2918      2919      2914
 -1      1262    8    0    1
 -2       578       579       707      2527      2920      2921
 -1      1263    8    0    1
 -2       578       707       706      2921      2922      2917
 -1      1264    8    0    1
 -2       602       603       708      2622      2923      2924
 -1      1265    8    0    1
 -2       483       586       709      2547      2925      2926
 -1      1266    8    0    1
 -2       584       581       710      2541      2927      2928
 -1      1267    8    0    1
 -2       585       582       711      2544      2929      2930
 -1      1268    8    0    1
 -2       598       594       712      2575      2931      2932
 -1      1269    8    0    1
 -2       597       604       713      2627      2933      2934
 -1      1270    8    0    1
 -2       594       599       714      2630      2935      2936
 -1      1271    8    0    1
 -2       583       528       715      2537      2937      2938
 -1      1272    8    0    1
 -2       528       666       715      2795      2939      2937
 -1      1273    8    0    1
 -2       530       531       716      2383      2940      2941
 -1      1274    8    0    1
 -2       663       530       716      2788      2941      2942
 -1      1275    8    0    1
 -2       531       667       716      2798      2943      2940
 -1      1276    8    0    1
 -2       485       483       717      2246      2944      2945
 -1      1277    8    0    1
 -2       621       485       717      2663      2945      2946
 -1      1278    8    0    1
 -2       483       709       717      2926      2947      2944
 -1      1279    8    0    1
 -2       589       596       718      2624      2948      2949
 -1      1280    8    0    1
 -2       582       481       719      2607      2950      2951
 -1      1281    8    0    1
 -2       588       602       720      2626      2952      2953
 -1      1282    8    0    1
 -2       477       478       721      2228      2954      2955
 -1      1283    8    0    1
 -2       615       477       721      2647      2955      2956
 -1      1284    8    0    1
 -2       478       617       721      2653      2957      2954
 -1      1285    8    0    1
 -2       592       595       722      2635      2958      2959
 -1      1286    8    0    1
 -2       474       473       723      2217      2960      2961
 -1      1287    8    0    1
 -2       591       593       724      2636      2962      2963
 -1      1288    8    0    1
 -2       586       445       709      2625      2964      2925
 -1      1289    8    0    1
 -2       603       597       725      2637      2965      2966
 -1      1290    8    0    1
 -2       595       589       726      2629      2967      2968
 -1      1291    8    0    1
 -2       580       614       700      2641      2901      2969
 -1      1292    8    0    1
 -2       599       600       727      2638      2970      2971
 -1      1293    8    0    1
 -2       599       727       714      2971      2972      2935
 -1      1294    8    0    1
 -2       482       583       728      2623      2973      2974
 -1      1295    8    0    1
 -2       698       482       728      2897      2974      2975
 -1      1296    8    0    1
 -2       583       715       728      2938      2976      2973
 -1      1297    8    0    1
 -2       484       591       729      2603      2977      2978
 -1      1298    8    0    1
 -2       596       598       730      2628      2979      2980
 -1      1299    8    0    1
 -2       581       585       731      2621      2981      2982
 -1      1300    8    0    1
 -2       605       606       732      2594      2983      2984
 -1      1301    8    0    1
 -2       587       607       733      2610      2985      2986
 -1      1302    8    0    1
 -2       587       733       620      2986      2987      2661
 -1      1303    8    0    1
 -2       610       474       734      2604      2988      2989
 -1      1304    8    0    1
 -2       474       723       734      2961      2990      2988
 -1      1305    8    0    1
 -2       475       616       735      2650      2991      2992
 -1      1306    8    0    1
 -2       475       735       590      2992      2993      2558
 -1      1307    8    0    1
 -2       619       572       573      2657      2508      2994
 -1      1308    8    0    1
 -2       718       596       730      2948      2980      2995
 -1      1309    8    0    1
 -2       481       704       736      2913      2996      2997
 -1      1310    8    0    1
 -2       481       736       719      2997      2998      2950
 -1      1311    8    0    1
 -2       611       584       710      2613      2928      2999
 -1      1312    8    0    1
 -2       733       607       737      2985      3000      3001
 -1      1313    8    0    1
 -2       607       664       737      2791      3002      3000
 -1      1314    8    0    1
 -2       570       701       738      2904      3003      3004
 -1      1315    8    0    1
 -2       570       738       573      3004      3005      2509
 -1      1316    8    0    1
 -2       608       665       704      2793      3006      2912
 -1      1317    8    0    1
 -2       613       539       471      2816      3007      2633
 -1      1318    8    0    1
 -2       665       542       704      2817      3008      3006
 -1      1319    8    0    1
 -2       539       540       724      2410      3009      3010
 -1      1320    8    0    1
 -2       540       541       739      2413      3011      3012
 -1      1321    8    0    1
 -2       542       543       704      2419      3013      3008
 -1      1322    8    0    1
 -2       732       606       620      2983      2662      3014
 -1      1323    8    0    1
 -2       471       539       593      3007      3015      2631
 -1      1324    8    0    1
 -2       612       605       740      2620      3016      3017
 -1      1325    8    0    1
 -2       605       732       740      2984      3018      3016
 -1      1326    8    0    1
 -2       731       585       711      2981      2930      3019
 -1      1327    8    0    1
 -2       602       708       720      2924      3020      2952
 -1      1328    8    0    1
 -2       708       603       725      2923      2966      3021
 -1      1329    8    0    1
 -2       579       580       700      2530      2969      3022
 -1      1330    8    0    1
 -2       726       589       718      2967      2949      3023
 -1      1331    8    0    1
 -2       664       470       611      2790      2615      3024
 -1      1332    8    0    1
 -2       601       588       741      2583      3025      3026
 -1      1333    8    0    1
 -2       604       612       742      2619      3027      3028
 -1      1334    8    0    1
 -2       604       742       713      3028      3029      2933
 -1      1335    8    0    1
 -2       598       712       730      2932      3030      2979
 -1      1336    8    0    1
 -2       597       713       725      2934      3031      2965
 -1      1337    8    0    1
 -2       594       714       712      2936      3032      2931
 -1      1338    8    0    1
 -2       711       582       719      2929      2951      3033
 -1      1339    8    0    1
 -2       710       581       731      2927      2982      3034
 -1      1340    8    0    1
 -2       579       700       743      3022      3035      3036
 -1      1341    8    0    1
 -2       707       579       743      2920      3036      3037
 -1      1342    8    0    1
 -2       700       662       743      2902      3038      3035
 -1      1343    8    0    1
 -2       484       729       665      2978      3039      2792
 -1      1344    8    0    1
 -2       473       590       744      2557      3040      3041
 -1      1345    8    0    1
 -2       723       473       744      2960      3041      3042
 -1      1346    8    0    1
 -2       590       735       744      2993      3043      3040
 -1      1347    8    0    1
 -2       445       610       709      2606      3044      2964
 -1      1348    8    0    1
 -2       588       720       741      2953      3045      3025
 -1      1349    8    0    1
 -2       595       726       722      2968      3046      2958
 -1      1350    8    0    1
 -2       727       600       745      2970      3047      3048
 -1      1351    8    0    1
 -2       600       601       746      2582      3049      3050
 -1      1352    8    0    1
 -2       745       600       746      3047      3050      3051
 -1      1353    8    0    1
 -2       601       741       746      3026      3052      3049
 -1      1354    8    0    1
 -2       593       539       724      3015      3010      2962
 -1      1355    8    0    1
 -2       618       698       747      2896      3053      3054
 -1      1356    8    0    1
 -2       698       728       747      2975      3055      3053
 -1      1357    8    0    1
 -2       617       618       747      2656      3054      3056
 -1      1358    8    0    1
 -2       623       622       748      2670      3057      3058
 -1      1359    8    0    1
 -2       624       623       749      2673      3059      3060
 -1      1360    8    0    1
 -2       623       748       749      3058      3061      3059
 -1      1361    8    0    1
 -2       625       624       750      2676      3062      3063
 -1      1362    8    0    1
 -2       624       749       750      3060      3064      3062
 -1      1363    8    0    1
 -2       626       625       751      2679      3065      3066
 -1      1364    8    0    1
 -2       625       750       751      3063      3067      3065
 -1      1365    8    0    1
 -2       627       626       752      2682      3068      3069
 -1      1366    8    0    1
 -2       626       751       752      3066      3070      3068
 -1      1367    8    0    1
 -2       628       627       753      2685      3071      3072
 -1      1368    8    0    1
 -2       627       752       753      3069      3073      3071
 -1      1369    8    0    1
 -2       629       628       754      2688      3074      3075
 -1      1370    8    0    1
 -2       628       753       754      3072      3076      3074
 -1      1371    8    0    1
 -2       630       629       755      2691      3077      3078
 -1      1372    8    0    1
 -2       629       754       755      3075      3079      3077
 -1      1373    8    0    1
 -2       631       630       756      2694      3080      3081
 -1      1374    8    0    1
 -2       630       755       756      3078      3082      3080
 -1      1375    8    0    1
 -2       632       631       757      2697      3083      3084
 -1      1376    8    0    1
 -2       631       756       757      3081      3085      3083
 -1      1377    8    0    1
 -2       633       632       758      2700      3086      3087
 -1      1378    8    0    1
 -2       632       757       758      3084      3088      3086
 -1      1379    8    0    1
 -2       634       633       759      2703      3089      3090
 -1      1380    8    0    1
 -2       633       758       759      3087      3091      3089
 -1      1381    8    0    1
 -2       635       634       742      2706      3092      3093
 -1      1382    8    0    1
 -2       637       636       760      2712      3094      3095
 -1      1383    8    0    1
 -2       638       637       761      2715      3096      3097
 -1      1384    8    0    1
 -2       637       760       761      3095      3098      3096
 -1      1385    8    0    1
 -2       639       638       762      2718      3099      3100
 -1      1386    8    0    1
 -2       638       761       762      3097      3101      3099
 -1      1387    8    0    1
 -2       640       639       763      2721      3102      3103
 -1      1388    8    0    1
 -2       639       762       763      3100      3104      3102
 -1      1389    8    0    1
 -2       641       640       764      2724      3105      3106
 -1      1390    8    0    1
 -2       640       763       764      3103      3107      3105
 -1      1391    8    0    1
 -2       642       641       765      2727      3108      3109
 -1      1392    8    0    1
 -2       641       764       765      3106      3110      3108
 -1      1393    8    0    1
 -2       643       642       766      2730      3111      3112
 -1      1394    8    0    1
 -2       642       765       766      3109      3113      3111
 -1      1395    8    0    1
 -2       644       643       767      2733      3114      3115
 -1      1396    8    0    1
 -2       643       766       767      3112      3116      3114
 -1      1397    8    0    1
 -2       645       644       768      2736      3117      3118
 -1      1398    8    0    1
 -2       644       767       768      3115      3119      3117
 -1      1399    8    0    1
 -2       646       645       769      2739      3120      3121
 -1      1400    8    0    1
 -2       645       768       769      3118      3122      3120
 -1      1401    8    0    1
 -2       647       646       770      2742      3123      3124
 -1      1402    8    0    1
 -2       646       769       770      3121      3125      3123
 -1      1403    8    0    1
 -2       648       647       771      2745      3126      3127
 -1      1404    8    0    1
 -2       647       770       771      3124      3128      3126
 -1      1405    8    0    1
 -2       649       648       772      2748      3129      3130
 -1      1406    8    0    1
 -2       648       771       772      3127      3131      3129
 -1      1407    8    0    1
 -2       650       649       773      2751      3132      3133
 -1      1408    8    0    1
 -2       649       772       773      3130      3134      3132
 -1      1409    8    0    1
 -2       651       650       774      2754      3135      3136
 -1      1410    8    0    1
 -2       650       773       774      3133      3137      3135
 -1      1411    8    0    1
 -2       652       651       775      2757      3138      3139
 -1      1412    8    0    1
 -2       651       774       775      3136      3140      3138
 -1      1413    8    0    1
 -2       653       652       776      2760      3141      3142
 -1      1414    8    0    1
 -2       652       775       776      3139      3143      3141
 -1      1415    8    0    1
 -2       654       653       777      2763      3144      3145
 -1      1416    8    0    1
 -2       653       776       777      3142      3146      3144
 -1      1417    8    0    1
 -2       655       654       778      2766      3147      3148
 -1      1418    8    0    1
 -2       654       777       778      3145      3149      3147
 -1      1419    8    0    1
 -2       656       655       779      2769      3150      3151
 -1      1420    8    0    1
 -2       655       778       779      3148      3152      3150
 -1      1421    8    0    1
 -2       657       656       780      2772      3153      3154
 -1      1422    8    0    1
 -2       656       779       780      3151      3155      3153
 -1      1423    8    0    1
 -2       658       657       781      2775      3156      3157
 -1      1424    8    0    1
 -2       657       780       781      3154      3158      3156
 -1      1425    8    0    1
 -2       659       658       782      2778      3159      3160
 -1      1426    8    0    1
 -2       658       781       782      3157      3161      3159
 -1      1427    8    0    1
 -2       660       659       783      2781      3162      3163
 -1      1428    8    0    1
 -2       659       782       783      3160      3164      3162
 -1      1429    8    0    1
 -2       661       660       784      2784      3165      3166
 -1      1430    8    0    1
 -2       660       783       784      3163      3167      3165
 -1      1431    8    0    1
 -2       662       661       785      2787      3168      3169
 -1      1432    8    0    1
 -2       743       662       785      3038      3169      3170
 -1      1433    8    0    1
 -2       661       784       785      3166      3171      3168
 -1      1434    8    0    1
 -2       668       669       786      2804      3172      3173
 -1      1435    8    0    1
 -2       667       668       787      2801      3174      3175
 -1      1436    8    0    1
 -2       668       786       787      3173      3176      3174
 -1      1437    8    0    1
 -2       670       671       788      2810      3177      3178
 -1      1438    8    0    1
 -2       537       613       672      2815      3179      2811
 -1      1439    8    0    1
 -2       724       540       739      3009      3012      3180
 -1      1440    8    0    1
 -2       704       543       673      3013      2820      3181
 -1      1441    8    0    1
 -2       676       677       789      2832      3182      3183
 -1      1442    8    0    1
 -2       677       678       790      2835      3184      3185
 -1      1443    8    0    1
 -2       677       790       789      3185      3186      3182
 -1      1444    8    0    1
 -2       678       679       791      2838      3187      3188
 -1      1445    8    0    1
 -2       678       791       790      3188      3189      3184
 -1      1446    8    0    1
 -2       679       680       792      2841      3190      3191
 -1      1447    8    0    1
 -2       679       792       791      3191      3192      3187
 -1      1448    8    0    1
 -2       680       681       793      2844      3193      3194
 -1      1449    8    0    1
 -2       680       793       792      3194      3195      3190
 -1      1450    8    0    1
 -2       681       682       794      2847      3196      3197
 -1      1451    8    0    1
 -2       681       794       793      3197      3198      3193
 -1      1452    8    0    1
 -2       682       683       795      2850      3199      3200
 -1      1453    8    0    1
 -2       682       795       794      3200      3201      3196
 -1      1454    8    0    1
 -2       683       684       796      2853      3202      3203
 -1      1455    8    0    1
 -2       683       796       795      3203      3204      3199
 -1      1456    8    0    1
 -2       684       685       797      2856      3205      3206
 -1      1457    8    0    1
 -2       684       797       796      3206      3207      3202
 -1      1458    8    0    1
 -2       685       686       798      2859      3208      3209
 -1      1459    8    0    1
 -2       685       798       797      3209      3210      3205
 -1      1460    8    0    1
 -2       686       687       799      2862      3211      3212
 -1      1461    8    0    1
 -2       686       799       798      3212      3213      3208
 -1      1462    8    0    1
 -2       687       688       800      2865      3214      3215
 -1      1463    8    0    1
 -2       687       800       799      3215      3216      3211
 -1      1464    8    0    1
 -2       688       689       801      2868      3217      3218
 -1      1465    8    0    1
 -2       688       801       800      3218      3219      3214
 -1      1466    8    0    1
 -2       689       690       802      2871      3220      3221
 -1      1467    8    0    1
 -2       689       802       801      3221      3222      3217
 -1      1468    8    0    1
 -2       690       691       803      2874      3223      3224
 -1      1469    8    0    1
 -2       690       803       802      3224      3225      3220
 -1      1470    8    0    1
 -2       691       692       804      2877      3226      3227
 -1      1471    8    0    1
 -2       691       804       803      3227      3228      3223
 -1      1472    8    0    1
 -2       692       693       805      2880      3229      3230
 -1      1473    8    0    1
 -2       692       805       804      3230      3231      3226
 -1      1474    8    0    1
 -2       693       694       806      2883      3232      3233
 -1      1475    8    0    1
 -2       693       806       805      3233      3234      3229
 -1      1476    8    0    1
 -2       694       695       807      2886      3235      3236
 -1      1477    8    0    1
 -2       694       807       806      3236      3237      3232
 -1      1478    8    0    1
 -2       695       696       808      2889      3238      3239
 -1      1479    8    0    1
 -2       695       808       807      3239      3240      3235
 -1      1480    8    0    1
 -2       729       591       739      2977      3241      3242
 -1      1481    8    0    1
 -2       705       706       809      2919      3243      3244
 -1      1482    8    0    1
 -2       616       615       810      2651      3245      3246
 -1      1483    8    0    1
 -2       714       727       811      2972      3247      3248
 -1      1484    8    0    1
 -2       699       702       812      2907      3249      3250
 -1      1485    8    0    1
 -2       718       730       813      2995      3251      3252
 -1      1486    8    0    1
 -2       706       707       814      2922      3253      3254
 -1      1487    8    0    1
 -2       706       814       809      3254      3255      3243
 -1      1488    8    0    1
 -2       702       705       815      2916      3256      3257
 -1      1489    8    0    1
 -2       812       702       815      3249      3257      3258
 -1      1490    8    0    1
 -2       705       809       815      3244      3259      3256
 -1      1491    8    0    1
 -2       664       611       816      3024      3260      3261
 -1      1492    8    0    1
 -2       715       666       817      2939      3262      3263
 -1      1493    8    0    1
 -2       720       708       818      3020      3264      3265
 -1      1494    8    0    1
 -2       730       712       819      3030      3266      3267
 -1      1495    8    0    1
 -2       711       719       820      3033      3268      3269
 -1      1496    8    0    1
 -2       619       573       738      2994      3005      3270
 -1      1497    8    0    1
 -2       708       725       821      3021      3271      3272
 -1      1498    8    0    1
 -2       611       710       822      2999      3273      3274
 -1      1499    8    0    1
 -2       611       822       816      3274      3275      3260
 -1      1500    8    0    1
 -2       675       676       823      2829      3276      3277
 -1      1501    8    0    1
 -2       676       789       823      3183      3278      3276
 -1      1502    8    0    1
 -2       710       731       824      3034      3279      3280
 -1      1503    8    0    1
 -2       710       824       822      3280      3281      3273
 -1      1504    8    0    1
 -2       674       675       825      2826      3282      3283
 -1      1505    8    0    1
 -2       675       823       825      3277      3284      3282
 -1      1506    8    0    1
 -2       709       610       734      3044      2989      3285
 -1      1507    8    0    1
 -2       669       670       826      2807      3286      3287
 -1      1508    8    0    1
 -2       786       669       826      3172      3287      3288
 -1      1509    8    0    1
 -2       670       788       826      3178      3289      3286
 -1      1510    8    0    1
 -2       591       724       739      2963      3180      3241
 -1      1511    8    0    1
 -2       741       720       827      3045      3290      3291
 -1      1512    8    0    1
 -2       732       620       828      3014      3292      3293
 -1      1513    8    0    1
 -2       712       714       829      3032      3294      3295
 -1      1514    8    0    1
 -2       712       829       819      3295      3296      3266
 -1      1515    8    0    1
 -2       666       663       830      2796      3297      3298
 -1      1516    8    0    1
 -2       666       830       817      3298      3299      3262
 -1      1517    8    0    1
 -2       726       718       788      3023      3300      3301
 -1      1518    8    0    1
 -2       727       745       831      3048      3302      3303
 -1      1519    8    0    1
 -2       725       713       759      3031      3304      3305
 -1      1520    8    0    1
 -2       731       711       832      3019      3306      3307
 -1      1521    8    0    1
 -2       711       820       832      3269      3308      3306
 -1      1522    8    0    1
 -2       620       733       833      2987      3309      3310
 -1      1523    8    0    1
 -2       620       833       828      3310      3311      3292
 -1      1524    8    0    1
 -2       622       621       834      2667      3312      3313
 -1      1525    8    0    1
 -2       622       834       748      3313      3314      3057
 -1      1526    8    0    1
 -2       704       673       736      3181      3315      2996
 -1      1527    8    0    1
 -2       735       616       835      2991      3316      3317
 -1      1528    8    0    1
 -2       616       810       835      3246      3318      3316
 -1      1529    8    0    1
 -2       736       673       836      3315      3319      3320
 -1      1530    8    0    1
 -2       719       736       836      2998      3320      3321
 -1      1531    8    0    1
 -2       673       674       836      2823      3322      3319
 -1      1532    8    0    1
 -2       592       722       613      2959      3323      2634
 -1      1533    8    0    1
 -2       621       717       837      2946      3324      3325
 -1      1534    8    0    1
 -2       621       837       834      3325      3326      3312
 -1      1535    8    0    1
 -2       737       664       838      3002      3327      3328
 -1      1536    8    0    1
 -2       664       816       838      3261      3329      3327
 -1      1537    8    0    1
 -2       738       701       839      3003      3330      3331
 -1      1538    8    0    1
 -2       829       714       811      3294      3248      3332
 -1      1539    8    0    1
 -2       636       635       840      2709      3333      3334
 -1      1540    8    0    1
 -2       717       709       734      2947      3285      3335
 -1      1541    8    0    1
 -2       708       821       818      3272      3336      3264
 -1      1542    8    0    1
 -2       663       716       841      2942      3337      3338
 -1      1543    8    0    1
 -2       663       841       830      3338      3339      3297
 -1      1544    8    0    1
 -2       667       787       842      3175      3340      3341
 -1      1545    8    0    1
 -2       667       842       716      3341      3342      2943
 -1      1546    8    0    1
 -2       788       671       726      3177      3343      3301
 -1      1547    8    0    1
 -2       671       672       726      2813      3344      3343
 -1      1548    8    0    1
 -2       827       720       818      3290      3265      3345
 -1      1549    8    0    1
 -2       541       665       729      2818      3039      3346
 -1      1550    8    0    1
 -2       739       541       729      3011      3346      3242
 -1      1551    8    0    1
 -2       836       674       825      3322      3283      3347
 -1      1552    8    0    1
 -2       839       701       843      3330      3348      3349
 -1      1553    8    0    1
 -2       701       703       843      2910      3350      3348
 -1      1554    8    0    1
 -2       840       635       742      3333      3093      3351
 -1      1555    8    0    1
 -2       808       696       844      3238      3352      3353
 -1      1556    8    0    1
 -2       696       697       844      2892      3354      3352
 -1      1557    8    0    1
 -2       741       827       845      3291      3355      3356
 -1      1558    8    0    1
 -2       741       845       746      3356      3357      3052
 -1      1559    8    0    1
 -2       719       836       820      3321      3358      3268
 -1      1560    8    0    1
 -2       636       840       760      3334      3359      3094
 -1      1561    8    0    1
 -2       718       813       788      3252      3360      3300
 -1      1562    8    0    1
 -2       703       699       846      2911      3361      3362
 -1      1563    8    0    1
 -2       843       703       846      3350      3362      3363
 -1      1564    8    0    1
 -2       699       812       846      3250      3364      3361
 -1      1565    8    0    1
 -2       742       612       840      3027      3365      3351
 -1      1566    8    0    1
 -2       733       737       847      3001      3366      3367
 -1      1567    8    0    1
 -2       733       847       833      3367      3368      3309
 -1      1568    8    0    1
 -2       721       617       848      2957      3369      3370
 -1      1569    8    0    1
 -2       730       819       849      3267      3371      3372
 -1      1570    8    0    1
 -2       730       849       813      3372      3373      3251
 -1      1571    8    0    1
 -2       617       747       848      3056      3374      3369
 -1      1572    8    0    1
 -2       619       738       850      3270      3375      3376
 -1      1573    8    0    1
 -2       697       619       850      2893      3376      3377
 -1      1574    8    0    1
 -2       738       839       850      3331      3378      3375
 -1      1575    8    0    1
 -2       824       731       832      3279      3307      3379
 -1      1576    8    0    1
 -2       615       721       851      2956      3380      3381
 -1      1577    8    0    1
 -2       721       848       851      3370      3382      3380
 -1      1578    8    0    1
 -2       612       740       840      3017      3383      3365
 -1      1579    8    0    1
 -2       732       828       760      3293      3384      3385
 -1      1580    8    0    1
 -2       810       615       851      3245      3381      3386
 -1      1581    8    0    1
 -2       727       831       811      3303      3387      3247
 -1      1582    8    0    1
 -2       745       746       852      3051      3388      3389
 -1      1583    8    0    1
 -2       831       745       852      3302      3389      3390
 -1      1584    8    0    1
 -2       746       845       852      3357      3391      3388
 -1      1585    8    0    1
 -2       728       715       853      2976      3392      3393
 -1      1586    8    0    1
 -2       747       728       853      3055      3393      3394
 -1      1587    8    0    1
 -2       715       817       853      3263      3395      3392
 -1      1588    8    0    1
 -2       723       744       854      3042      3396      3397
 -1      1589    8    0    1
 -2       707       743       855      3037      3398      3399
 -1      1590    8    0    1
 -2       814       707       855      3253      3399      3400
 -1      1591    8    0    1
 -2       743       785       855      3170      3401      3398
 -1      1592    8    0    1
 -2       734       723       856      2990      3402      3403
 -1      1593    8    0    1
 -2       723       854       856      3397      3404      3402
 -1      1594    8    0    1
 -2       749       748       857      3061      3405      3406
 -1      1595    8    0    1
 -2       829       811       858      3332      3407      3408
 -1      1596    8    0    1
 -2       634       759       742      3090      3409      3092
 -1      1597    8    0    1
 -2       750       749       859      3064      3410      3411
 -1      1598    8    0    1
 -2       749       857       859      3406      3412      3410
 -1      1599    8    0    1
 -2       751       750       860      3067      3413      3414
 -1      1600    8    0    1
 -2       750       859       860      3411      3415      3413
 -1      1601    8    0    1
 -2       752       751       861      3070      3416      3417
 -1      1602    8    0    1
 -2       751       860       861      3414      3418      3416
 -1      1603    8    0    1
 -2       753       752       862      3073      3419      3420
 -1      1604    8    0    1
 -2       752       861       862      3417      3421      3419
 -1      1605    8    0    1
 -2       754       753       863      3076      3422      3423
 -1      1606    8    0    1
 -2       753       862       863      3420      3424      3422
 -1      1607    8    0    1
 -2       755       754       864      3079      3425      3426
 -1      1608    8    0    1
 -2       754       863       864      3423      3427      3425
 -1      1609    8    0    1
 -2       758       757       818      3088      3428      3429
 -1      1610    8    0    1
 -2       717       734       837      3335      3430      3324
 -1      1611    8    0    1
 -2       762       761       865      3101      3431      3432
 -1      1612    8    0    1
 -2       763       762       866      3104      3433      3434
 -1      1613    8    0    1
 -2       762       865       866      3432      3435      3433
 -1      1614    8    0    1
 -2       764       763       867      3107      3436      3437
 -1      1615    8    0    1
 -2       763       866       867      3434      3438      3436
 -1      1616    8    0    1
 -2       765       764       868      3110      3439      3440
 -1      1617    8    0    1
 -2       764       867       868      3437      3441      3439
 -1      1618    8    0    1
 -2       766       765       869      3113      3442      3443
 -1      1619    8    0    1
 -2       765       868       869      3440      3444      3442
 -1      1620    8    0    1
 -2       767       766       870      3116      3445      3446
 -1      1621    8    0    1
 -2       766       869       870      3443      3447      3445
 -1      1622    8    0    1
 -2       768       767       871      3119      3448      3449
 -1      1623    8    0    1
 -2       767       870       871      3446      3450      3448
 -1      1624    8    0    1
 -2       769       768       872      3122      3451      3452
 -1      1625    8    0    1
 -2       768       871       872      3449      3453      3451
 -1      1626    8    0    1
 -2       770       769       873      3125      3454      3455
 -1      1627    8    0    1
 -2       769       872       873      3452      3456      3454
 -1      1628    8    0    1
 -2       771       770       874      3128      3457      3458
 -1      1629    8    0    1
 -2       770       873       874      3455      3459      3457
 -1      1630    8    0    1
 -2       772       771       875      3131      3460      3461
 -1      1631    8    0    1
 -2       771       874       875      3458      3462      3460
 -1      1632    8    0    1
 -2       773       772       876      3134      3463      3464
 -1      1633    8    0    1
 -2       772       875       876      3461      3465      3463
 -1      1634    8    0    1
 -2       774       773       877      3137      3466      3467
 -1      1635    8    0    1
 -2       773       876       877      3464      3468      3466
 -1      1636    8    0    1
 -2       775       774       878      3140      3469      3470
 -1      1637    8    0    1
 -2       774       877       878      3467      3471      3469
 -1      1638    8    0    1
 -2       776       775       879      3143      3472      3473
 -1      1639    8    0    1
 -2       775       878       879      3470      3474      3472
 -1      1640    8    0    1
 -2       777       776       880      3146      3475      3476
 -1      1641    8    0    1
 -2       776       879       880      3473      3477      3475
 -1      1642    8    0    1
 -2       778       777       881      3149      3478      3479
 -1      1643    8    0    1
 -2       777       880       881      3476      3480      3478
 -1      1644    8    0    1
 -2       779       778       882      3152      3481      3482
 -1      1645    8    0    1
 -2       778       881       882      3479      3483      3481
 -1      1646    8    0    1
 -2       780       779       883      3155      3484      3485
 -1      1647    8    0    1
 -2       779       882       883      3482      3486      3484
 -1      1648    8    0    1
 -2       781       780       884      3158      3487      3488
 -1      1649    8    0    1
 -2       780       883       884      3485      3489      3487
 -1      1650    8    0    1
 -2       782       781       885      3161      3490      3491
 -1      1651    8    0    1
 -2       781       884       885      3488      3492      3490
 -1      1652    8    0    1
 -2       783       782       886      3164      3493      3494
 -1      1653    8    0    1
 -2       782       885       886      3491      3495      3493
 -1      1654    8    0    1
 -2       784       783       887      3167      3496      3497
 -1      1655    8    0    1
 -2       783       886       887      3494      3498      3496
 -1      1656    8    0    1
 -2       787       786       888      3176      3499      3500
 -1      1657    8    0    1
 -2       791       792       889      3192      3501      3502
 -1      1658    8    0    1
 -2       790       791       890      3189      3503      3504
 -1      1659    8    0    1
 -2       791       889       890      3502      3505      3503
 -1      1660    8    0    1
 -2       822       824       891      3281      3506      3507
 -1      1661    8    0    1
 -2       789       790       892      3186      3508      3509
 -1      1662    8    0    1
 -2       790       890       892      3504      3510      3508
 -1      1663    8    0    1
 -2       792       793       893      3195      3511      3512
 -1      1664    8    0    1
 -2       792       893       889      3512      3513      3501
 -1      1665    8    0    1
 -2       793       794       894      3198      3514      3515
 -1      1666    8    0    1
 -2       793       894       893      3515      3516      3511
 -1      1667    8    0    1
 -2       794       795       895      3201      3517      3518
 -1      1668    8    0    1
 -2       794       895       894      3518      3519      3514
 -1      1669    8    0    1
 -2       795       796       896      3204      3520      3521
 -1      1670    8    0    1
 -2       795       896       895      3521      3522      3517
 -1      1671    8    0    1
 -2       796       797       897      3207      3523      3524
 -1      1672    8    0    1
 -2       796       897       896      3524      3525      3520
 -1      1673    8    0    1
 -2       797       798       898      3210      3526      3527
 -1      1674    8    0    1
 -2       797       898       897      3527      3528      3523
 -1      1675    8    0    1
 -2       798       799       899      3213      3529      3530
 -1      1676    8    0    1
 -2       798       899       898      3530      3531      3526
 -1      1677    8    0    1
 -2       799       800       900      3216      3532      3533
 -1      1678    8    0    1
 -2       799       900       899      3533      3534      3529
 -1      1679    8    0    1
 -2       800       801       901      3219      3535      3536
 -1      1680    8    0    1
 -2       800       901       900      3536      3537      3532
 -1      1681    8    0    1
 -2       801       802       902      3222      3538      3539
 -1      1682    8    0    1
 -2       801       902       901      3539      3540      3535
 -1      1683    8    0    1
 -2       802       803       903      3225      3541      3542
 -1      1684    8    0    1
 -2       802       903       902      3542      3543      3538
 -1      1685    8    0    1
 -2       803       804       904      3228      3544      3545
 -1      1686    8    0    1
 -2       803       904       903      3545      3546      3541
 -1      1687    8    0    1
 -2       804       805       905      3231      3547      3548
 -1      1688    8    0    1
 -2       804       905       904      3548      3549      3544
 -1      1689    8    0    1
 -2       805       806       906      3234      3550      3551
 -1      1690    8    0    1
 -2       805       906       905      3551      3552      3547
 -1      1691    8    0    1
 -2       806       807       907      3237      3553      3554
 -1      1692    8    0    1
 -2       806       907       906      3554      3555      3550
 -1      1693    8    0    1
 -2       807       808       908      3240      3556      3557
 -1      1694    8    0    1
 -2       807       908       907      3557      3558      3553
 -1      1695    8    0    1
 -2       836       825       820      3347      3559      3358
 -1      1696    8    0    1
 -2       824       832       909      3379      3560      3561
 -1      1697    8    0    1
 -2       732       760       740      3385      3562      3018
 -1      1698    8    0    1
 -2       809       814       910      3255      3563      3564
 -1      1699    8    0    1
 -2       726       672       722      3344      3565      3046
 -1      1700    8    0    1
 -2       713       742       759      3029      3409      3304
 -1      1701    8    0    1
 -2       828       833       865      3311      3566      3567
 -1      1702    8    0    1
 -2       760       840       740      3359      3383      3562
 -1      1703    8    0    1
 -2       817       830       911      3299      3568      3569
 -1      1704    8    0    1
 -2       744       735       912      3043      3570      3571
 -1      1705    8    0    1
 -2       744       912       854      3571      3572      3396
 -1      1706    8    0    1
 -2       821       725       759      3271      3305      3573
 -1      1707    8    0    1
 -2       816       822       913      3275      3574      3575
 -1      1708    8    0    1
 -2       823       789       914      3278      3576      3577
 -1      1709    8    0    1
 -2       789       892       914      3509      3578      3576
 -1      1710    8    0    1
 -2       851       848       915      3382      3579      3580
 -1      1711    8    0    1
 -2       825       823       916      3284      3581      3582
 -1      1712    8    0    1
 -2       823       914       916      3577      3583      3581
 -1      1713    8    0    1
 -2       761       760       828      3098      3384      3584
 -1      1714    8    0    1
 -2       848       747       917      3374      3585      3586
 -1      1715    8    0    1
 -2       915       848       917      3579      3586      3587
 -1      1716    8    0    1
 -2       747       853       917      3394      3588      3585
 -1      1717    8    0    1
 -2       748       834       918      3314      3589      3590
 -1      1718    8    0    1
 -2       748       918       857      3590      3591      3405
 -1      1719    8    0    1
 -2       810       851       919      3386      3592      3593
 -1      1720    8    0    1
 -2       851       915       919      3580      3594      3592
 -1      1721    8    0    1
 -2       819       829       920      3296      3595      3596
 -1      1722    8    0    1
 -2       811       831       921      3387      3597      3598
 -1      1723    8    0    1
 -2       788       813       922      3360      3599      3600
 -1      1724    8    0    1
 -2       826       788       922      3289      3600      3601
 -1      1725    8    0    1
 -2       813       849       922      3373      3602      3599
 -1      1726    8    0    1
 -2       818       757       923      3428      3603      3604
 -1      1727    8    0    1
 -2       757       756       923      3085      3605      3603
 -1      1728    8    0    1
 -2       820       825       916      3559      3582      3606
 -1      1729    8    0    1
 -2       761       828       865      3584      3567      3431
 -1      1730    8    0    1
 -2       849       819       924      3371      3607      3608
 -1      1731    8    0    1
 -2       819       920       924      3596      3609      3607
 -1      1732    8    0    1
 -2       829       858       920      3408      3610      3595
 -1      1733    8    0    1
 -2       735       835       912      3317      3611      3570
 -1      1734    8    0    1
 -2       786       826       925      3288      3612      3613
 -1      1735    8    0    1
 -2       888       786       925      3499      3613      3614
 -1      1736    8    0    1
 -2       826       922       925      3601      3615      3612
 -1      1737    8    0    1
 -2       838       816       913      3329      3575      3616
 -1      1738    8    0    1
 -2       865       833       847      3566      3368      3617
 -1      1739    8    0    1
 -2       756       755       926      3082      3618      3619
 -1      1740    8    0    1
 -2       820       916       832      3606      3620      3308
 -1      1741    8    0    1
 -2       837       734       856      3430      3403      3621
 -1      1742    8    0    1
 -2       759       758       821      3091      3622      3573
 -1      1743    8    0    1
 -2       844       697       850      3354      3377      3623
 -1      1744    8    0    1
 -2       926       755       864      3618      3426      3624
 -1      1745    8    0    1
 -2       832       916       909      3620      3625      3560
 -1      1746    8    0    1
 -2       787       888       927      3500      3626      3627
 -1      1747    8    0    1
 -2       787       927       842      3627      3628      3340
 -1      1748    8    0    1
 -2       785       784       928      3171      3629      3630
 -1      1749    8    0    1
 -2       855       785       928      3401      3630      3631
 -1      1750    8    0    1
 -2       784       887       928      3497      3632      3629
 -1      1751    8    0    1
 -2       822       891       913      3507      3633      3574
 -1      1752    8    0    1
 -2       841       716       842      3337      3342      3634
 -1      1753    8    0    1
 -2       672       613       722      3179      3323      3565
 -1      1754    8    0    1
 -2       812       815       929      3258      3635      3636
 -1      1755    8    0    1
 -2       835       810       930      3318      3637      3638
 -1      1756    8    0    1
 -2       810       919       930      3593      3639      3637
 -1      1757    8    0    1
 -2       891       824       909      3506      3561      3640
 -1      1758    8    0    1
 -2       908       808       931      3556      3641      3642
 -1      1759    8    0    1
 -2       808       844       931      3353      3643      3641
 -1      1760    8    0    1
 -2       845       827       926      3355      3644      3645
 -1      1761    8    0    1
 -2       809       910       932      3564      3646      3647
 -1      1762    8    0    1
 -2       809       932       815      3647      3648      3259
 -1      1763    8    0    1
 -2       846       812       933      3364      3649      3650
 -1      1764    8    0    1
 -2       812       929       933      3636      3651      3649
 -1      1765    8    0    1
 -2       830       841       934      3339      3652      3653
 -1      1766    8    0    1
 -2       830       934       911      3653      3654      3568
 -1      1767    8    0    1
 -2       847       737       935      3366      3655      3656
 -1      1768    8    0    1
 -2       737       838       935      3328      3657      3655
 -1      1769    8    0    1
 -2       839       843       936      3349      3658      3659
 -1      1770    8    0    1
 -2       853       817       937      3395      3660      3661
 -1      1771    8    0    1
 -2       917       853       937      3588      3661      3662
 -1      1772    8    0    1
 -2       817       911       937      3569      3663      3660
 -1      1773    8    0    1
 -2       854       912       938      3572      3664      3665
 -1      1774    8    0    1
 -2       834       837       939      3326      3666      3667
 -1      1775    8    0    1
 -2       918       834       939      3589      3667      3668
 -1      1776    8    0    1
 -2       837       856       939      3621      3669      3666
 -1      1777    8    0    1
 -2       827       818       923      3345      3604      3670
 -1      1778    8    0    1
 -2       856       854       940      3404      3671      3672
 -1      1779    8    0    1
 -2       939       856       940      3669      3672      3673
 -1      1780    8    0    1
 -2       854       938       940      3665      3674      3671
 -1      1781    8    0    1
 -2       921       831       941      3597      3675      3676
 -1      1782    8    0    1
 -2       811       921       858      3598      3677      3407
 -1      1783    8    0    1
 -2       831       852       941      3390      3678      3675
 -1      1784    8    0    1
 -2       814       855       928      3400      3631      3679
 -1      1785    8    0    1
 -2       839       936       931      3659      3680      3681
 -1      1786    8    0    1
 -2       814       928       910      3679      3682      3563
 -1      1787    8    0    1
 -2       913       891       942      3633      3683      3684
 -1      1788    8    0    1
 -2       859       857       943      3412      3685      3686
 -1      1789    8    0    1
 -2       860       859       944      3415      3687      3688
 -1      1790    8    0    1
 -2       859       943       944      3686      3689      3687
 -1      1791    8    0    1
 -2       861       860       945      3418      3690      3691
 -1      1792    8    0    1
 -2       860       944       945      3688      3692      3690
 -1      1793    8    0    1
 -2       862       861       946      3421      3693      3694
 -1      1794    8    0    1
 -2       861       945       946      3691      3695      3693
 -1      1795    8    0    1
 -2       863       862       947      3424      3696      3697
 -1      1796    8    0    1
 -2       862       946       947      3694      3698      3696
 -1      1797    8    0    1
 -2       864       863       948      3427      3699      3700
 -1      1798    8    0    1
 -2       863       947       948      3697      3701      3699
 -1      1799    8    0    1
 -2       758       818       821      3429      3336      3622
 -1      1800    8    0    1
 -2       928       887       910      3632      3702      3682
 -1      1801    8    0    1
 -2       867       866       949      3438      3703      3704
 -1      1802    8    0    1
 -2       868       867       950      3441      3705      3706
 -1      1803    8    0    1
 -2       867       949       950      3704      3707      3705
 -1      1804    8    0    1
 -2       869       868       951      3444      3708      3709
 -1      1805    8    0    1
 -2       868       950       951      3706      3710      3708
 -1      1806    8    0    1
 -2       870       869       952      3447      3711      3712
 -1      1807    8    0    1
 -2       869       951       952      3709      3713      3711
 -1      1808    8    0    1
 -2       871       870       953      3450      3714      3715
 -1      1809    8    0    1
 -2       870       952       953      3712      3716      3714
 -1      1810    8    0    1
 -2       872       871       954      3453      3717      3718
 -1      1811    8    0    1
 -2       871       953       954      3715      3719      3717
 -1      1812    8    0    1
 -2       873       872       955      3456      3720      3721
 -1      1813    8    0    1
 -2       872       954       955      3718      3722      3720
 -1      1814    8    0    1
 -2       874       873       956      3459      3723      3724
 -1      1815    8    0    1
 -2       873       955       956      3721      3725      3723
 -1      1816    8    0    1
 -2       875       874       957      3462      3726      3727
 -1      1817    8    0    1
 -2       874       956       957      3724      3728      3726
 -1      1818    8    0    1
 -2       876       875       958      3465      3729      3730
 -1      1819    8    0    1
 -2       875       957       958      3727      3731      3729
 -1      1820    8    0    1
 -2       877       876       959      3468      3732      3733
 -1      1821    8    0    1
 -2       876       958       959      3730      3734      3732
 -1      1822    8    0    1
 -2       878       877       960      3471      3735      3736
 -1      1823    8    0    1
 -2       877       959       960      3733      3737      3735
 -1      1824    8    0    1
 -2       879       878       961      3474      3738      3739
 -1      1825    8    0    1
 -2       878       960       961      3736      3740      3738
 -1      1826    8    0    1
 -2       880       879       962      3477      3741      3742
 -1      1827    8    0    1
 -2       879       961       962      3739      3743      3741
 -1      1828    8    0    1
 -2       881       880       963      3480      3744      3745
 -1      1829    8    0    1
 -2       880       962       963      3742      3746      3744
 -1      1830    8    0    1
 -2       882       881       964      3483      3747      3748
 -1      1831    8    0    1
 -2       881       963       964      3745      3749      3747
 -1      1832    8    0    1
 -2       883       882       965      3486      3750      3751
 -1      1833    8    0    1
 -2       882       964       965      3748      3752      3750
 -1      1834    8    0    1
 -2       884       883       966      3489      3753      3754
 -1      1835    8    0    1
 -2       883       965       966      3751      3755      3753
 -1      1836    8    0    1
 -2       885       884       967      3492      3756      3757
 -1      1837    8    0    1
 -2       884       966       967      3754      3758      3756
 -1      1838    8    0    1
 -2       886       885       968      3495      3759      3760
 -1      1839    8    0    1
 -2       885       967       968      3757      3761      3759
 -1      1840    8    0    1
 -2       887       886       969      3498      3762      3763
 -1      1841    8    0    1
 -2       886       968       969      3760      3764      3762
 -1      1842    8    0    1
 -2       839       931       850      3681      3765      3378
 -1      1843    8    0    1
 -2       889       893       970      3513      3766      3767
 -1      1844    8    0    1
 -2       920       858       971      3610      3768      3769
 -1      1845    8    0    1
 -2       929       815       932      3635      3648      3770
 -1      1846    8    0    1
 -2       894       895       972      3519      3771      3772
 -1      1847    8    0    1
 -2       895       896       973      3522      3773      3774
 -1      1848    8    0    1
 -2       895       973       972      3774      3775      3771
 -1      1849    8    0    1
 -2       896       897       974      3525      3776      3777
 -1      1850    8    0    1
 -2       896       974       973      3777      3778      3773
 -1      1851    8    0    1
 -2       897       898       975      3528      3779      3780
 -1      1852    8    0    1
 -2       897       975       974      3780      3781      3776
 -1      1853    8    0    1
 -2       898       899       976      3531      3782      3783
 -1      1854    8    0    1
 -2       898       976       975      3783      3784      3779
 -1      1855    8    0    1
 -2       899       900       977      3534      3785      3786
 -1      1856    8    0    1
 -2       899       977       976      3786      3787      3782
 -1      1857    8    0    1
 -2       900       901       978      3537      3788      3789
 -1      1858    8    0    1
 -2       900       978       977      3789      3790      3785
 -1      1859    8    0    1
 -2       901       902       979      3540      3791      3792
 -1      1860    8    0    1
 -2       901       979       978      3792      3793      3788
 -1      1861    8    0    1
 -2       902       903       980      3543      3794      3795
 -1      1862    8    0    1
 -2       902       980       979      3795      3796      3791
 -1      1863    8    0    1
 -2       903       904       981      3546      3797      3798
 -1      1864    8    0    1
 -2       903       981       980      3798      3799      3794
 -1      1865    8    0    1
 -2       904       905       982      3549      3800      3801
 -1      1866    8    0    1
 -2       904       982       981      3801      3802      3797
 -1      1867    8    0    1
 -2       905       906       983      3552      3803      3804
 -1      1868    8    0    1
 -2       905       983       982      3804      3805      3800
 -1      1869    8    0    1
 -2       906       907       984      3555      3806      3807
 -1      1870    8    0    1
 -2       906       984       983      3807      3808      3803
 -1      1871    8    0    1
 -2       907       908       985      3558      3809      3810
 -1      1872    8    0    1
 -2       907       985       984      3810      3811      3806
 -1      1873    8    0    1
 -2       926       827       923      3644      3670      3812
 -1      1874    8    0    1
 -2       857       918       986      3591      3813      3814
 -1      1875    8    0    1
 -2       857       986       943      3814      3815      3685
 -1      1876    8    0    1
 -2       921       941       987      3676      3816      3817
 -1      1877    8    0    1
 -2       892       890       988      3510      3818      3819
 -1      1878    8    0    1
 -2       909       916       989      3625      3820      3821
 -1      1879    8    0    1
 -2       916       914       989      3583      3822      3820
 -1      1880    8    0    1
 -2       926       864       990      3624      3823      3824
 -1      1881    8    0    1
 -2       845       926       990      3645      3824      3825
 -1      1882    8    0    1
 -2       864       948       990      3700      3826      3823
 -1      1883    8    0    1
 -2       914       892       991      3578      3827      3828
 -1      1884    8    0    1
 -2       989       914       991      3822      3828      3829
 -1      1885    8    0    1
 -2       892       988       991      3819      3830      3827
 -1      1886    8    0    1
 -2       841       842       992      3634      3831      3832
 -1      1887    8    0    1
 -2       842       927       992      3628      3833      3831
 -1      1888    8    0    1
 -2       908       931       993      3642      3834      3835
 -1      1889    8    0    1
 -2       985       908       993      3809      3835      3836
 -1      1890    8    0    1
 -2       931       936       993      3680      3837      3834
 -1      1891    8    0    1
 -2       890       889       994      3505      3838      3839
 -1      1892    8    0    1
 -2       889       970       994      3767      3840      3838
 -1      1893    8    0    1
 -2       858       921       995      3677      3841      3842
 -1      1894    8    0    1
 -2       971       858       995      3768      3842      3843
 -1      1895    8    0    1
 -2       921       987       995      3817      3844      3841
 -1      1896    8    0    1
 -2       923       756       926      3605      3619      3812
 -1      1897    8    0    1
 -2       919       915       996      3594      3845      3846
 -1      1898    8    0    1
 -2       912       835       997      3611      3847      3848
 -1      1899    8    0    1
 -2       938       912       997      3664      3848      3849
 -1      1900    8    0    1
 -2       835       930       997      3638      3850      3847
 -1      1901    8    0    1
 -2       843       846       998      3363      3851      3852
 -1      1902    8    0    1
 -2       936       843       998      3658      3852      3853
 -1      1903    8    0    1
 -2       846       933       998      3650      3854      3851
 -1      1904    8    0    1
 -2       893       894       999      3516      3855      3856
 -1      1905    8    0    1
 -2       894       972       999      3772      3857      3855
 -1      1906    8    0    1
 -2       852       845       990      3391      3825      3858
 -1      1907    8    0    1
 -2       865       847       866      3617      3859      3435
 -1      1908    8    0    1
 -2       838       913      1000      3616      3860      3861
 -1      1909    8    0    1
 -2       838      1000       935      3861      3862      3657
 -1      1910    8    0    1
 -2       941       852       990      3678      3858      3863
 -1      1911    8    0    1
 -2       891       909       989      3640      3821      3864
 -1      1912    8    0    1
 -2       910       887       969      3702      3763      3865
 -1      1913    8    0    1
 -2       866       847       949      3859      3866      3703
 -1      1914    8    0    1
 -2       927       888      1001      3626      3867      3868
 -1      1915    8    0    1
 -2       850       931       844      3765      3643      3623
 -1      1916    8    0    1
 -2       970       893       999      3766      3856      3869
 -1      1917    8    0    1
 -2       930       919      1002      3639      3870      3871
 -1      1918    8    0    1
 -2       919       996      1002      3846      3872      3870
 -1      1919    8    0    1
 -2       936       998      1003      3853      3873      3874
 -1      1920    8    0    1
 -2       936      1003       993      3874      3875      3837
 -1      1921    8    0    1
 -2       920       971      1004      3769      3876      3877
 -1      1922    8    0    1
 -2       920      1004       924      3877      3878      3609
 -1      1923    8    0    1
 -2       932       910       969      3646      3865      3879
 -1      1924    8    0    1
 -2       929       932      1005      3770      3880      3881
 -1      1925    8    0    1
 -2       932       969      1005      3879      3882      3880
 -1      1926    8    0    1
 -2       988       890       994      3818      3839      3883
 -1      1927    8    0    1
 -2       891       989      1006      3864      3884      3885
 -1      1928    8    0    1
 -2       942       891      1006      3683      3885      3886
 -1      1929    8    0    1
 -2       989       991      1006      3829      3887      3884
 -1      1930    8    0    1
 -2       987       941       947      3816      3888      3889
 -1      1931    8    0    1
 -2       841       992       934      3832      3890      3652
 -1      1932    8    0    1
 -2       929      1005      1007      3881      3891      3892
 -1      1933    8    0    1
 -2       913       942      1008      3684      3893      3894
 -1      1934    8    0    1
 -2       913      1008      1000      3894      3895      3860
 -1      1935    8    0    1
 -2       933       929      1007      3651      3892      3896
 -1      1936    8    0    1
 -2       911       934      1009      3654      3897      3898
 -1      1937    8    0    1
 -2      1001       888       924      3867      3899      3900
 -1      1938    8    0    1
 -2       918       939      1010      3668      3901      3902
 -1      1939    8    0    1
 -2       986       918      1010      3813      3902      3903
 -1      1940    8    0    1
 -2       939       940      1010      3673      3904      3901
 -1      1941    8    0    1
 -2       940       938      1011      3674      3905      3906
 -1      1942    8    0    1
 -2       940      1011      1010      3906      3907      3904
 -1      1943    8    0    1
 -2       922       849       925      3602      3908      3615
 -1      1944    8    0    1
 -2       915       917      1012      3587      3909      3910
 -1      1945    8    0    1
 -2       996       915      1012      3845      3910      3911
 -1      1946    8    0    1
 -2       917       937      1012      3662      3912      3909
 -1      1947    8    0    1
 -2       938       997      1013      3849      3913      3914
 -1      1948    8    0    1
 -2       938      1013      1011      3914      3915      3905
 -1      1949    8    0    1
 -2       937       911      1012      3663      3916      3912
 -1      1950    8    0    1
 -2       847       935       949      3656      3917      3866
 -1      1951    8    0    1
 -2       925       849       924      3908      3608      3918
 -1      1952    8    0    1
 -2      1012       911      1009      3916      3898      3919
 -1      1953    8    0    1
 -2       996      1012      1009      3911      3919      3920
 -1      1954    8    0    1
 -2       992       927      1014      3833      3921      3922
 -1      1955    8    0    1
 -2       927      1001      1014      3868      3923      3921
 -1      1956    8    0    1
 -2       987       947      1015      3889      3924      3925
 -1      1957    8    0    1
 -2       947       946      1015      3698      3926      3924
 -1      1958    8    0    1
 -2       945       944      1016      3692      3927      3928
 -1      1959    8    0    1
 -2       946       945      1017      3695      3929      3930
 -1      1960    8    0    1
 -2      1015       946      1017      3926      3930      3931
 -1      1961    8    0    1
 -2       945      1016      1017      3928      3932      3929
 -1      1962    8    0    1
 -2       974       975      1018      3781      3933      3934
 -1      1963    8    0    1
 -2       951       950      1019      3710      3935      3936
 -1      1964    8    0    1
 -2       952       951      1020      3713      3937      3938
 -1      1965    8    0    1
 -2       951      1019      1020      3936      3939      3937
 -1      1966    8    0    1
 -2       953       952      1021      3716      3940      3941
 -1      1967    8    0    1
 -2       952      1020      1021      3938      3942      3940
 -1      1968    8    0    1
 -2       954       953      1022      3719      3943      3944
 -1      1969    8    0    1
 -2       953      1021      1022      3941      3945      3943
 -1      1970    8    0    1
 -2       955       954      1023      3722      3946      3947
 -1      1971    8    0    1
 -2       954      1022      1023      3944      3948      3946
 -1      1972    8    0    1
 -2       956       955      1024      3725      3949      3950
 -1      1973    8    0    1
 -2       955      1023      1024      3947      3951      3949
 -1      1974    8    0    1
 -2       957       956      1025      3728      3952      3953
 -1      1975    8    0    1
 -2       956      1024      1025      3950      3954      3952
 -1      1976    8    0    1
 -2       958       957      1026      3731      3955      3956
 -1      1977    8    0    1
 -2       957      1025      1026      3953      3957      3955
 -1      1978    8    0    1
 -2       959       958      1027      3734      3958      3959
 -1      1979    8    0    1
 -2       958      1026      1027      3956      3960      3958
 -1      1980    8    0    1
 -2       960       959      1028      3737      3961      3962
 -1      1981    8    0    1
 -2       959      1027      1028      3959      3963      3961
 -1      1982    8    0    1
 -2       961       960      1029      3740      3964      3965
 -1      1983    8    0    1
 -2       960      1028      1029      3962      3966      3964
 -1      1984    8    0    1
 -2       962       961      1030      3743      3967      3968
 -1      1985    8    0    1
 -2       961      1029      1030      3965      3969      3967
 -1      1986    8    0    1
 -2       963       962      1031      3746      3970      3971
 -1      1987    8    0    1
 -2       962      1030      1031      3968      3972      3970
 -1      1988    8    0    1
 -2       964       963      1032      3749      3973      3974
 -1      1989    8    0    1
 -2       963      1031      1032      3971      3975      3973
 -1      1990    8    0    1
 -2       965       964      1033      3752      3976      3977
 -1      1991    8    0    1
 -2       964      1032      1033      3974      3978      3976
 -1      1992    8    0    1
 -2       966       965      1034      3755      3979      3980
 -1      1993    8    0    1
 -2       965      1033      1034      3977      3981      3979
 -1      1994    8    0    1
 -2       967       966      1035      3758      3982      3983
 -1      1995    8    0    1
 -2       966      1034      1035      3980      3984      3982
 -1      1996    8    0    1
 -2       968       967      1036      3761      3985      3986
 -1      1997    8    0    1
 -2       967      1035      1036      3983      3987      3985
 -1      1998    8    0    1
 -2       969       968      1037      3764      3988      3989
 -1      1999    8    0    1
 -2      1005       969      1037      3882      3989      3990
 -1      2000    8    0    1
 -2       968      1036      1037      3986      3991      3988
 -1      2001    8    0    1
 -2       973       974      1038      3778      3992      3993
 -1      2002    8    0    1
 -2       974      1018      1038      3934      3994      3992
 -1      2003    8    0    1
 -2       972       973      1039      3775      3995      3996
 -1      2004    8    0    1
 -2       973      1038      1039      3993      3997      3995
 -1      2005    8    0    1
 -2       975       976      1040      3784      3998      3999
 -1      2006    8    0    1
 -2       975      1040      1018      3999      4000      3933
 -1      2007    8    0    1
 -2       976       977      1041      3787      4001      4002
 -1      2008    8    0    1
 -2       976      1041      1040      4002      4003      3998
 -1      2009    8    0    1
 -2       977       978      1042      3790      4004      4005
 -1      2010    8    0    1
 -2       977      1042      1041      4005      4006      4001
 -1      2011    8    0    1
 -2       978       979      1043      3793      4007      4008
 -1      2012    8    0    1
 -2       978      1043      1042      4008      4009      4004
 -1      2013    8    0    1
 -2       979       980      1044      3796      4010      4011
 -1      2014    8    0    1
 -2       979      1044      1043      4011      4012      4007
 -1      2015    8    0    1
 -2       980       981      1045      3799      4013      4014
 -1      2016    8    0    1
 -2       980      1045      1044      4014      4015      4010
 -1      2017    8    0    1
 -2       981       982      1046      3802      4016      4017
 -1      2018    8    0    1
 -2       981      1046      1045      4017      4018      4013
 -1      2019    8    0    1
 -2       982       983      1047      3805      4019      4020
 -1      2020    8    0    1
 -2       982      1047      1046      4020      4021      4016
 -1      2021    8    0    1
 -2       983       984      1048      3808      4022      4023
 -1      2022    8    0    1
 -2       983      1048      1047      4023      4024      4019
 -1      2023    8    0    1
 -2       984       985      1049      3811      4025      4026
 -1      2024    8    0    1
 -2       984      1049      1048      4026      4027      4022
 -1      2025    8    0    1
 -2       994       970      1050      3840      4028      4029
 -1      2026    8    0    1
 -2       985       993      1051      3836      4030      4031
 -1      2027    8    0    1
 -2      1049       985      1051      4025      4031      4032
 -1      2028    8    0    1
 -2       993      1003      1051      3875      4033      4030
 -1      2029    8    0    1
 -2       934       992      1052      3890      4034      4035
 -1      2030    8    0    1
 -2       934      1052      1009      4035      4036      3897
 -1      2031    8    0    1
 -2      1007      1005      1053      3891      4037      4038
 -1      2032    8    0    1
 -2      1005      1037      1053      3990      4039      4037
 -1      2033    8    0    1
 -2       924       888       925      3899      3614      3918
 -1      2034    8    0    1
 -2       996      1009      1054      3920      4040      4041
 -1      2035    8    0    1
 -2      1001       924      1004      3900      3878      4042
 -1      2036    8    0    1
 -2       941       990       948      3863      3826      4043
 -1      2037    8    0    1
 -2       999       972      1055      3857      4044      4045
 -1      2038    8    0    1
 -2       972      1039      1055      3996      4046      4044
 -1      2039    8    0    1
 -2       947       941       948      3888      4043      3701
 -1      2040    8    0    1
 -2       970       999      1056      3869      4047      4048
 -1      2041    8    0    1
 -2       970      1056      1050      4048      4049      4028
 -1      2042    8    0    1
 -2       950       949      1057      3707      4050      4051
 -1      2043    8    0    1
 -2      1019       950      1057      3935      4051      4052
 -1      2044    8    0    1
 -2       949       935      1057      3917      4053      4050
 -1      2045    8    0    1
 -2       943       986      1058      3815      4054      4055
 -1      2046    8    0    1
 -2       998       933      1059      3854      4056      4057
 -1      2047    8    0    1
 -2      1003       998      1059      3873      4057      4058
 -1      2048    8    0    1
 -2       933      1007      1059      3896      4059      4056
 -1      2049    8    0    1
 -2       997       930      1013      3850      4060      3913
 -1      2050    8    0    1
 -2       988       994      1060      3883      4061      4062
 -1      2051    8    0    1
 -2       994      1050      1060      4029      4063      4061
 -1      2052    8    0    1
 -2       944       943      1061      3689      4064      4065
 -1      2053    8    0    1
 -2       943      1058      1061      4055      4066      4064
 -1      2054    8    0    1
 -2       935      1000      1057      3862      4067      4053
 -1      2055    8    0    1
 -2      1014      1001      1062      3923      4068      4069
 -1      2056    8    0    1
 -2      1016       944      1061      3927      4065      4070
 -1      2057    8    0    1
 -2       992      1014      1052      3922      4071      4034
 -1      2058    8    0    1
 -2       987      1015       995      3925      4072      3844
 -1      2059    8    0    1
 -2      1002       996      1054      3872      4041      4073
 -1      2060    8    0    1
 -2      1004       971      1063      3876      4074      4075
 -1      2061    8    0    1
 -2      1009      1052      1064      4036      4076      4077
 -1      2062    8    0    1
 -2      1009      1064      1054      4077      4078      4040
 -1      2063    8    0    1
 -2      1008       942      1065      3893      4079      4080
 -1      2064    8    0    1
 -2      1000      1008      1057      3895      4081      4067
 -1      2065    8    0    1
 -2      1007      1053      1066      4038      4082      4083
 -1      2066    8    0    1
 -2      1007      1066      1059      4083      4084      4059
 -1      2067    8    0    1
 -2      1001      1004      1062      4042      4085      4068
 -1      2068    8    0    1
 -2       930      1002      1013      3871      4086      4060
 -1      2069    8    0    1
 -2       999      1055      1056      4045      4087      4047
 -1      2070    8    0    1
 -2       991       988      1067      3830      4088      4089
 -1      2071    8    0    1
 -2       988      1060      1067      4062      4090      4088
 -1      2072    8    0    1
 -2      1010      1011       986      3907      4091      3903
 -1      2073    8    0    1
 -2       971       995      1068      3843      4092      4093
 -1      2074    8    0    1
 -2       995      1015      1068      4072      4094      4092
 -1      2075    8    0    1
 -2       971      1068      1063      4093      4095      4074
 -1      2076    8    0    1
 -2      1011      1013      1069      3915      4096      4097
 -1      2077    8    0    1
 -2       942      1006      1065      3886      4098      4079
 -1      2078    8    0    1
 -2       986      1011      1058      4091      4099      4054
 -1      2079    8    0    1
 -2      1016      1061      1070      4070      4100      4101
 -1      2080    8    0    1
 -2      1040      1041      1071      4003      4102      4103
 -1      2081    8    0    1
 -2      1050      1056      1072      4049      4104      4105
 -1      2082    8    0    1
 -2      1018      1040      1073      4000      4106      4107
 -1      2083    8    0    1
 -2      1040      1071      1073      4103      4108      4106
 -1      2084    8    0    1
 -2      1021      1020      1074      3942      4109      4110
 -1      2085    8    0    1
 -2      1022      1021      1075      3945      4111      4112
 -1      2086    8    0    1
 -2      1021      1074      1075      4110      4113      4111
 -1      2087    8    0    1
 -2      1023      1022      1076      3948      4114      4115
 -1      2088    8    0    1
 -2      1022      1075      1076      4112      4116      4114
 -1      2089    8    0    1
 -2      1024      1023      1077      3951      4117      4118
 -1      2090    8    0    1
 -2      1023      1076      1077      4115      4119      4117
 -1      2091    8    0    1
 -2      1025      1024      1078      3954      4120      4121
 -1      2092    8    0    1
 -2      1024      1077      1078      4118      4122      4120
 -1      2093    8    0    1
 -2      1026      1025      1079      3957      4123      4124
 -1      2094    8    0    1
 -2      1025      1078      1079      4121      4125      4123
 -1      2095    8    0    1
 -2      1027      1026      1080      3960      4126      4127
 -1      2096    8    0    1
 -2      1026      1079      1080      4124      4128      4126
 -1      2097    8    0    1
 -2      1028      1027      1081      3963      4129      4130
 -1      2098    8    0    1
 -2      1027      1080      1081      4127      4131      4129
 -1      2099    8    0    1
 -2      1029      1028      1082      3966      4132      4133
 -1      2100    8    0    1
 -2      1028      1081      1082      4130      4134      4132
 -1      2101    8    0    1
 -2      1030      1029      1083      3969      4135      4136
 -1      2102    8    0    1
 -2      1029      1082      1083      4133      4137      4135
 -1      2103    8    0    1
 -2      1031      1030      1084      3972      4138      4139
 -1      2104    8    0    1
 -2      1030      1083      1084      4136      4140      4138
 -1      2105    8    0    1
 -2      1032      1031      1085      3975      4141      4142
 -1      2106    8    0    1
 -2      1031      1084      1085      4139      4143      4141
 -1      2107    8    0    1
 -2      1033      1032      1086      3978      4144      4145
 -1      2108    8    0    1
 -2      1032      1085      1086      4142      4146      4144
 -1      2109    8    0    1
 -2      1034      1033      1087      3981      4147      4148
 -1      2110    8    0    1
 -2      1033      1086      1087      4145      4149      4147
 -1      2111    8    0    1
 -2      1035      1034      1088      3984      4150      4151
 -1      2112    8    0    1
 -2      1034      1087      1088      4148      4152      4150
 -1      2113    8    0    1
 -2      1036      1035      1089      3987      4153      4154
 -1      2114    8    0    1
 -2      1035      1088      1089      4151      4155      4153
 -1      2115    8    0    1
 -2      1037      1036      1090      3991      4156      4157
 -1      2116    8    0    1
 -2      1053      1037      1090      4039      4157      4158
 -1      2117    8    0    1
 -2      1036      1089      1090      4154      4159      4156
 -1      2118    8    0    1
 -2      1038      1018      1091      3994      4160      4161
 -1      2119    8    0    1
 -2      1018      1073      1091      4107      4162      4160
 -1      2120    8    0    1
 -2      1039      1038      1092      3997      4163      4164
 -1      2121    8    0    1
 -2      1038      1091      1092      4161      4165      4163
 -1      2122    8    0    1
 -2      1041      1042      1093      4006      4166      4167
 -1      2123    8    0    1
 -2      1041      1093      1071      4167      4168      4102
 -1      2124    8    0    1
 -2      1042      1043      1094      4009      4169      4170
 -1      2125    8    0    1
 -2      1042      1094      1093      4170      4171      4166
 -1      2126    8    0    1
 -2      1043      1044      1095      4012      4172      4173
 -1      2127    8    0    1
 -2      1043      1095      1094      4173      4174      4169
 -1      2128    8    0    1
 -2      1044      1045      1096      4015      4175      4176
 -1      2129    8    0    1
 -2      1044      1096      1095      4176      4177      4172
 -1      2130    8    0    1
 -2      1045      1046      1097      4018      4178      4179
 -1      2131    8    0    1
 -2      1045      1097      1096      4179      4180      4175
 -1      2132    8    0    1
 -2      1046      1047      1098      4021      4181      4182
 -1      2133    8    0    1
 -2      1046      1098      1097      4182      4183      4178
 -1      2134    8    0    1
 -2      1047      1048      1099      4024      4184      4185
 -1      2135    8    0    1
 -2      1047      1099      1098      4185      4186      4181
 -1      2136    8    0    1
 -2      1052      1014      1100      4071      4187      4188
 -1      2137    8    0    1
 -2      1064      1052      1100      4076      4188      4189
 -1      2138    8    0    1
 -2      1014      1062      1100      4069      4190      4187
 -1      2139    8    0    1
 -2      1063      1068      1101      4095      4191      4192
 -1      2140    8    0    1
 -2      1019      1057      1008      4052      4081      4193
 -1      2141    8    0    1
 -2      1006       991      1067      3887      4089      4194
 -1      2142    8    0    1
 -2      1055      1039      1102      4046      4195      4196
 -1      2143    8    0    1
 -2      1039      1092      1102      4164      4197      4195
 -1      2144    8    0    1
 -2      1068      1015      1103      4094      4198      4199
 -1      2145    8    0    1
 -2      1101      1068      1103      4191      4199      4200
 -1      2146    8    0    1
 -2      1015      1017      1103      3931      4201      4198
 -1      2147    8    0    1
 -2      1065      1006      1067      4098      4194      4202
 -1      2148    8    0    1
 -2      1062      1004      1063      4085      4075      4203
 -1      2149    8    0    1
 -2      1003      1059      1051      4058      4204      4033
 -1      2150    8    0    1
 -2      1002      1054      1104      4073      4205      4206
 -1      2151    8    0    1
 -2      1060      1050      1105      4063      4207      4208
 -1      2152    8    0    1
 -2      1050      1072      1105      4105      4209      4207
 -1      2153    8    0    1
 -2      1061      1058      1106      4066      4210      4211
 -1      2154    8    0    1
 -2      1061      1106      1070      4211      4212      4100
 -1      2155    8    0    1
 -2      1056      1055      1107      4087      4213      4214
 -1      2156    8    0    1
 -2      1055      1102      1107      4196      4215      4213
 -1      2157    8    0    1
 -2      1013      1002      1104      4086      4206      4216
 -1      2158    8    0    1
 -2      1019      1008      1108      4193      4217      4218
 -1      2159    8    0    1
 -2      1020      1019      1108      3939      4218      4219
 -1      2160    8    0    1
 -2      1008      1065      1108      4080      4220      4217
 -1      2161    8    0    1
 -2      1062      1063      1101      4203      4192      4221
 -1      2162    8    0    1
 -2      1053      1090      1109      4158      4222      4223
 -1      2163    8    0    1
 -2      1053      1109      1066      4223      4224      4082
 -1      2164    8    0    1
 -2      1065      1067      1110      4202      4225      4226
 -1      2165    8    0    1
 -2      1074      1020      1108      4109      4219      4227
 -1      2166    8    0    1
 -2      1011      1069      1058      4097      4228      4099
 -1      2167    8    0    1
 -2      1054      1064      1111      4078      4229      4230
 -1      2168    8    0    1
 -2      1054      1111      1104      4230      4231      4205
 -1      2169    8    0    1
 -2      1099      1048      1109      4184      4232      4233
 -1      2170    8    0    1
 -2      1100      1062      1101      4190      4221      4234
 -1      2171    8    0    1
 -2      1048      1049      1109      4027      4235      4232
 -1      2172    8    0    1
 -2      1049      1051      1066      4032      4236      4237
 -1      2173    8    0    1
 -2      1017      1016      1112      3932      4238      4239
 -1      2174    8    0    1
 -2      1103      1017      1112      4201      4239      4240
 -1      2175    8    0    1
 -2      1016      1070      1112      4101      4241      4238
 -1      2176    8    0    1
 -2      1065      1110      1108      4226      4242      4220
 -1      2177    8    0    1
 -2      1067      1060      1110      4090      4243      4225
 -1      2178    8    0    1
 -2      1072      1056      1107      4104      4214      4244
 -1      2179    8    0    1
 -2      1069      1013      1104      4096      4216      4245
 -1      2180    8    0    1
 -2      1109      1049      1066      4235      4237      4224
 -1      2181    8    0    1
 -2      1059      1066      1051      4084      4236      4204
 -1      2182    8    0    1
 -2      1060      1105      1110      4208      4246      4243
 -1      2183    8    0    1
 -2      1106      1058      1069      4210      4228      4247
 -1      2184    8    0    1
 -2      1106      1069      1104      4247      4245      4248
 -1      2185    8    0    1
 -2      1072      1107      1076      4244      4249      4250
 -1      2186    8    0    1
 -2      1070      1106      1111      4212      4251      4252
 -1      2187    8    0    1
 -2      1074      1108      1110      4227      4242      4253
 -1      2188    8    0    1
 -2      1071      1093      1082      4168      4254      4255
 -1      2189    8    0    1
 -2      1076      1075      1072      4116      4256      4250
 -1      2190    8    0    1
 -2      1077      1076      1107      4119      4249      4257
 -1      2191    8    0    1
 -2      1078      1077      1102      4122      4258      4259
 -1      2192    8    0    1
 -2      1079      1078      1092      4125      4260      4261
 -1      2193    8    0    1
 -2      1080      1079      1091      4128      4262      4263
 -1      2194    8    0    1
 -2      1081      1080      1073      4131      4264      4265
 -1      2195    8    0    1
 -2      1082      1081      1071      4134      4266      4255
 -1      2196    8    0    1
 -2      1083      1082      1093      4137      4254      4267
 -1      2197    8    0    1
 -2      1084      1083      1094      4140      4268      4269
 -1      2198    8    0    1
 -2      1085      1084      1095      4143      4270      4271
 -1      2199    8    0    1
 -2      1086      1085      1096      4146      4272      4273
 -1      2200    8    0    1
 -2      1087      1086      1097      4149      4274      4275
 -1      2201    8    0    1
 -2      1088      1087      1098      4152      4276      4277
 -1      2202    8    0    1
 -2      1089      1088      1099      4155      4278      4279
 -1      2203    8    0    1
 -2      1106      1104      1111      4248      4231      4251
 -1      2204    8    0    1
 -2      1098      1087      1097      4276      4275      4183
 -1      2205    8    0    1
 -2      1092      1091      1079      4165      4262      4261
 -1      2206    8    0    1
 -2      1094      1095      1084      4174      4270      4269
 -1      2207    8    0    1
 -2      1095      1096      1085      4177      4272      4271
 -1      2208    8    0    1
 -2      1096      1097      1086      4180      4274      4273
 -1      2209    8    0    1
 -2      1098      1099      1088      4186      4278      4277
 -1      2210    8    0    1
 -2      1064      1100      1113      4189      4280      4281
 -1      2211    8    0    1
 -2      1111      1064      1113      4229      4281      4282
 -1      2212    8    0    1
 -2      1100      1101      1113      4234      4283      4280
 -1      2213    8    0    1
 -2      1073      1080      1091      4264      4263      4162
 -1      2214    8    0    1
 -2      1102      1092      1078      4197      4260      4259
 -1      2215    8    0    1
 -2      1075      1074      1105      4113      4284      4285
 -1      2216    8    0    1
 -2      1073      1071      1081      4108      4266      4265
 -1      2217    8    0    1
 -2      1105      1072      1075      4209      4256      4285
 -1      2218    8    0    1
 -2      1107      1102      1077      4215      4258      4257
 -1      2219    8    0    1
 -2      1093      1094      1083      4171      4268      4267
 -1      2220    8    0    1
 -2      1070      1111      1113      4252      4282      4286
 -1      2221    8    0    1
 -2      1074      1110      1105      4253      4246      4284
 -1      2222    8    0    1
 -2      1070      1113      1112      4286      4287      4241
 -1      2223    8    0    1
 -2      1101      1103      1112      4200      4240      4288
 -1      2224    8    0    1
 -2      1089      1099      1109      4279      4233      4289
 -1      2225    8    0    1
 -2      1101      1112      1113      4288      4287      4283
 -1      2226    8    0    1
 -2      1090      1089      1109      4159      4289      4222
 -3
    1PSTEP                         1           1           1          
  100CL  101 1.000000000        4289                     0    1           1
 -4  DISP        4    1
 -5  D1          1    2    1    0
 -5  D2          1    2    2    0
 -5  D3          1    2    3    0
 -5  ALL         1    2    0    0    1ALL
 -1         1 6.56543E-03-4.11711E-04-2.70529E-14
 -1         2 7.81897E-03 3.53501E-04-3.04786E-14
 -1         3 1.56559E-02 2.42920E-03-1.58269E-13
 -1         4 1.47623E-02 9.98076E-04-1.60906E-13
 -1         5 0.00000E+00 0.00000E+00 0.00000E+00
 -1         6 0.00000E+00 0.00000E+00 0.00000E+00
 -1         7 0.00000E+00 0.00000E+00 0.00000E+00
 -1         8 0.00000E+00 0.00000E+00 0.00000E+00
 -1         9 0.00000E+00 0.00000E+00 0.00000E+00
 -1        10 0.00000E+00 0.00000E+00 0.00000E+00
 -1        11 0.00000E+00 0.00000E+00 0.00000E+00
 -1        12 0.00000E+00 0.00000E+00 0.00000E+00
 -1        13 0.00000E+00 0.00000E+00 0.00000E+00
 -1        14 0.00000E+00 0.00000E+00 0.00000E+00
 -1        15 0.00000E+00 0.00000E+00 0.00000E+00
 -1        16 0.00000E+00 0.00000E+00 0.00000E+00
 -1        17 0.00000E+00 0.00000E+00 0.00000E+00
 -1        18 0.00000E+00 0.00000E+00 0.00000E+00
 -1        19 0.00000E+00 0.00000E+00 0.00000E+00
 -1        20 0.00000E+00 0.00000E+00 0.00000E+00
 -1        21 0.00000E+00 0.00000E+00 0.00000E+00
 -1        22 0.00000E+00 0.00000E+00 0.00000E+00
 -1        23 4.09237E-04-2.52743E-04 4.64716E-17
 -1        24 7.04142E-04-3.83463E-04-8.56045E-17
 -1        25 9.80935E-04-4.71352E-04-3.90757E-16
 -1        26 1.25555E-03-5.31417E-04-8.66542E-16
 -1        27 1.53294E-03-5.73370E-04-1.50896E-15
 -1        28 1.81576E-03-6.03407E-04-2.31600E-15
 -1        29 2.10562E-03-6.26417E-04-3.28355E-15
 -1        30 2.40340E-03-6.46709E-04-4.40930E-15
 -1        31 2.70923E-03-6.68323E-04-5.69636E-15
 -1        32 3.02236E-03-6.95036E-04-7.14371E-15
 -1        33 3.34077E-03-7.30077E-04-8.74581E-15
 -1        34 3.66100E-03-7.75467E-04-1.04930E-14
 -1        35 3.97807E-03-8.31021E-04-1.23923E-14
 -1        36 4.28608E-03-8.93201E-04-1.44432E-14
 -1        37 4.57960E-03-9.54377E-04-1.66442E-14
 -1        38 4.85578E-03-1.00331E-03-1.89984E-14
 -1        39 5.11624E-03-1.02753E-03-2.15013E-14
 -1        40 5.36768E-03-1.01719E-03-2.41600E-14
 -1        41 5.62005E-03-9.68837E-04-2.69679E-14
 -1        42 5.88314E-03-8.86859E-04-2.99186E-14
 -1        43 6.16319E-03-7.81701E-04-3.30079E-14
 -1        44 6.46140E-03-6.66031E-04-3.62348E-14
 -1        45 6.77469E-03-5.50984E-04-3.96011E-14
 -1        46 7.09771E-03-4.44056E-04-4.30976E-14
 -1        47 7.42488E-03-3.48829E-04-4.67119E-14
 -1        48 7.75162E-03-2.65834E-04-5.04380E-14
 -1        49 8.07489E-03-1.93742E-04-5.42618E-14
 -1        50 8.39304E-03-1.30392E-04-5.81873E-14
 -1        51 8.70551E-03-7.34822E-05-6.22125E-14
 -1        52 9.01249E-03-2.09477E-05-6.63264E-14
 -1        53 9.31452E-03 2.88853E-05-7.05190E-14
 -1        54 9.61237E-03 7.72773E-05-7.47824E-14
 -1        55 9.90681E-03 1.25119E-04-7.91139E-14
 -1        56 1.01986E-02 1.73000E-04-8.35070E-14
 -1        57 1.04883E-02 2.21280E-04-8.79706E-14
 -1        58 1.07765E-02 2.70152E-04-9.24926E-14
 -1        59 1.10636E-02 3.19693E-04-9.70781E-14
 -1        60 1.13500E-02 3.69905E-04-1.01721E-13
 -1        61 1.16359E-02 4.20744E-04-1.06413E-13
 -1        62 1.19215E-02 4.72141E-04-1.11174E-13
 -1        63 1.22069E-02 5.24018E-04-1.16004E-13
 -1        64 1.24923E-02 5.76292E-04-1.20884E-13
 -1        65 1.27776E-02 6.28885E-04-1.25816E-13
 -1        66 1.30630E-02 6.81724E-04-1.30794E-13
 -1        67 1.33484E-02 7.34744E-04-1.35798E-13
 -1        68 1.36339E-02 7.87886E-04-1.40822E-13
 -1        69 1.39195E-02 8.41098E-04-1.45874E-13
 -1        70 1.42052E-02 8.94331E-04-1.50942E-13
 -1        71 1.44909E-02 9.47548E-04-1.56037E-13
 -1        72 4.11087E-04 2.52680E-04 7.03512E-17
 -1        73 7.03627E-04 3.84334E-04-2.35035E-17
 -1        74 9.81520E-04 4.69957E-04-2.76502E-16
 -1        75 1.25736E-03 5.28137E-04-6.89898E-16
 -1        76 1.53675E-03 5.67716E-04-1.26480E-15
 -1        77 1.82314E-03 5.94762E-04-1.99880E-15
 -1        78 2.11924E-03 6.14266E-04-2.88724E-15
 -1        79 2.42752E-03 6.31056E-04-3.92813E-15
 -1        80 2.75032E-03 6.50436E-04-5.11607E-15
 -1        81 3.08959E-03 6.78685E-04-6.45373E-15
 -1        82 3.44620E-03 7.23325E-04-7.93334E-15
 -1        83 3.81861E-03 7.92777E-04-9.55399E-15
 -1        84 4.20101E-03 8.94694E-04-1.13152E-14
 -1        85 4.58173E-03 1.03208E-03-1.32223E-14
 -1        86 4.94378E-03 1.19720E-03-1.52865E-14
 -1        87 5.27036E-03 1.36611E-03-1.75170E-14
 -1        88 5.55548E-03 1.50073E-03-1.99225E-14
 -1        89 5.81292E-03 1.56401E-03-2.25047E-14
 -1        90 6.07270E-03 1.54161E-03-2.52647E-14
 -1        91 6.36386E-03 1.45175E-03-2.81878E-14
 -1        92 6.69782E-03 1.33306E-03-3.12656E-14
 -1        93 7.06670E-03 1.22262E-03-3.44883E-14
 -1        94 7.45316E-03 1.14254E-03-3.78517E-14
 -1        95 7.84080E-03 1.09920E-03-4.13344E-14
 -1        96 8.21891E-03 1.08917E-03-4.49269E-14
 -1        97 8.58258E-03 1.10513E-03-4.86255E-14
 -1        98 8.93093E-03 1.13952E-03-5.24327E-14
 -1        99 9.26523E-03 1.18607E-03-5.63313E-14
 -1       100 9.58762E-03 1.24013E-03-6.03239E-14
 -1       101 9.90041E-03 1.29845E-03-6.43995E-14
 -1       102 1.02057E-02 1.35888E-03-6.85423E-14
 -1       103 1.05052E-02 1.42006E-03-7.27507E-14
 -1       104 1.08005E-02 1.48116E-03-7.70190E-14
 -1       105 1.10926E-02 1.54170E-03-8.13604E-14
 -1       106 1.13824E-02 1.60146E-03-8.57849E-14
 -1       107 1.16706E-02 1.66035E-03-9.02954E-14
 -1       108 1.19576E-02 1.71838E-03-9.48743E-14
 -1       109 1.22439E-02 1.77561E-03-9.95185E-14
 -1       110 1.25297E-02 1.83213E-03-1.04218E-13
 -1       111 1.28153E-02 1.88804E-03-1.08965E-13
 -1       112 1.31007E-02 1.94344E-03-1.13767E-13
 -1       113 1.33860E-02 1.99843E-03-1.18639E-13
 -1       114 1.36713E-02 2.05308E-03-1.23565E-13
 -1       115 1.39567E-02 2.10748E-03-1.28521E-13
 -1       116 1.42421E-02 2.16170E-03-1.33488E-13
 -1       117 1.45276E-02 2.21580E-03-1.38479E-13
 -1       118 1.48132E-02 2.26982E-03-1.43489E-13
 -1       119 1.50988E-02 2.32383E-03-1.48507E-13
 -1       120 1.53845E-02 2.37785E-03-1.53523E-13
 -1       121 1.56028E-02 2.34491E-03-1.58430E-13
 -1       122 1.55496E-02 2.26061E-03-1.58610E-13
 -1       123 1.54964E-02 2.17626E-03-1.58770E-13
 -1       124 1.54432E-02 2.09185E-03-1.58925E-13
 -1       125 1.53901E-02 2.00739E-03-1.59082E-13
 -1       126 1.53379E-02 1.92431E-03-1.59254E-13
 -1       127 1.52850E-02 1.83976E-03-1.59398E-13
 -1       128 1.52321E-02 1.75520E-03-1.59528E-13
 -1       129 1.51794E-02 1.67063E-03-1.59657E-13
 -1       130 1.51268E-02 1.58606E-03-1.59789E-13
 -1       131 1.50743E-02 1.50152E-03-1.59943E-13
 -1       132 1.50228E-02 1.41845E-03-1.60146E-13
 -1       133 1.49705E-02 1.33399E-03-1.60346E-13
 -1       134 1.49182E-02 1.24958E-03-1.60515E-13
 -1       135 1.48660E-02 1.16523E-03-1.60667E-13
 -1       136 1.48137E-02 1.08093E-03-1.60796E-13
 -1       137 7.79319E-03 5.24271E-04-3.02686E-14
 -1       138 7.66644E-03 6.95092E-04-2.97302E-14
 -1       139 7.44766E-03 8.51166E-04-2.89186E-14
 -1       140 7.12982E-03 9.92527E-04-2.78311E-14
 -1       141 6.75284E-03 1.10025E-03-2.66233E-14
 -1       142 6.32480E-03 1.17195E-03-2.53322E-14
 -1       143 5.82396E-03 1.20232E-03-2.38996E-14
 -1       144 5.35541E-03 1.18357E-03-2.26341E-14
 -1       145 4.82910E-03 1.10604E-03-2.12542E-14
 -1       146 4.36612E-03 9.85698E-04-2.01040E-14
 -1       147 3.97690E-03 8.31884E-04-1.91754E-14
 -1       148 3.68233E-03 6.61154E-04-1.85084E-14
 -1       149 3.50177E-03 4.97748E-04-1.81279E-14
 -1       150 3.39690E-03 3.11499E-04-1.79502E-14
 -1       151 3.39695E-03 1.38426E-04-1.80276E-14
 -1       152 3.49836E-03-3.43814E-05-1.83579E-14
 -1       153 3.69178E-03-1.87723E-04-1.89147E-14
 -1       154 3.96594E-03-3.19171E-04-1.96786E-14
 -1       155 4.33731E-03-4.30690E-04-2.07106E-14
 -1       156 4.72730E-03-5.00060E-04-2.17958E-14
 -1       157 5.16615E-03-5.37120E-04-2.30298E-14
 -1       158 5.62645E-03-5.36171E-04-2.43383E-14
 -1       159 6.11926E-03-4.92175E-04-2.57574E-14
 -1       160 6.95809E-03-3.02079E-04-2.81937E-14
 -1       161 7.30597E-03-1.60258E-04-2.91978E-14
 -1       162 7.57329E-03 2.44941E-06-2.99444E-14
 -1       163 7.75105E-03 1.82115E-04-3.03874E-14
 -1       164 2.43027E-04-1.17802E-04-3.30444E-17
 -1       165 2.27863E-04-8.57372E-05-5.75135E-17
 -1       166 2.21176E-04-6.33897E-05-7.07577E-17
 -1       167 2.17066E-04-4.60330E-05-7.78152E-17
 -1       168 2.14211E-04-3.20337E-05-8.13728E-17
 -1       169 2.12158E-04-1.99120E-05-8.26907E-17
 -1       170 2.10882E-04-9.19255E-06-8.32227E-17
 -1       171 2.10401E-04 7.76543E-07-8.29347E-17
 -1       172 2.10751E-04 1.06469E-05-8.15930E-17
 -1       173 2.11959E-04 2.11041E-05-7.94754E-17
 -1       174 2.14004E-04 3.26810E-05-7.58874E-17
 -1       175 2.17041E-04 4.66303E-05-7.00733E-17
 -1       176 2.21369E-04 6.39143E-05-6.04714E-17
 -1       177 2.28200E-04 8.64846E-05-4.45675E-17
 -1       178 2.42165E-04 1.19222E-04-1.71406E-17
 -1       179 2.99466E-04 1.77105E-04 1.22752E-17
 -1       180 4.72784E-04-2.49798E-04-8.96872E-17
 -1       181 7.76035E-04-3.58107E-04-3.42743E-16
 -1       182 1.06744E-03-4.31089E-04-7.57935E-16
 -1       183 1.35519E-03-4.80930E-04-1.33558E-15
 -1       184 1.64335E-03-5.15286E-04-2.07369E-15
 -1       185 1.93444E-03-5.39817E-04-2.97066E-15
 -1       186 2.23000E-03-5.59249E-04-4.02438E-15
 -1       187 2.53081E-03-5.77916E-04-5.23443E-15
 -1       188 2.83699E-03-5.99951E-04-6.60167E-15
 -1       189 3.14785E-03-6.29185E-04-8.12286E-15
 -1       190 3.46181E-03-6.68676E-04-9.79209E-15
 -1       191 3.77631E-03-7.19831E-04-1.16098E-14
 -1       192 4.08801E-03-7.81173E-04-1.35779E-14
 -1       193 4.39331E-03-8.47118E-04-1.56951E-14
 -1       194 4.68943E-03-9.07551E-04-1.79642E-14
 -1       195 4.97567E-03-9.49179E-04-2.03843E-14
 -1       196 5.25439E-03-9.59097E-04-2.29570E-14
 -1       197 5.53067E-03-9.29471E-04-2.56817E-14
 -1       198 5.81065E-03-8.60834E-04-2.85554E-14
 -1       199 6.09920E-03-7.61885E-04-3.15706E-14
 -1       200 6.39838E-03-6.45922E-04-3.47264E-14
 -1       201 6.70730E-03-5.26191E-04-3.80194E-14
 -1       202 7.02316E-03-4.12589E-04-4.14466E-14
 -1       203 7.34248E-03-3.10588E-04-4.49982E-14
 -1       204 7.66209E-03-2.21833E-04-4.86618E-14
 -1       205 7.97966E-03-1.45438E-04-5.24293E-14
 -1       206 8.29373E-03-7.92418E-05-5.62953E-14
 -1       207 8.60363E-03-2.07213E-05-6.02627E-14
 -1       208 8.90924E-03 3.24866E-05-6.43226E-14
 -1       209 9.21082E-03 8.23435E-05-6.84695E-14
 -1       210 9.50884E-03 1.30350E-04-7.26909E-14
 -1       211 9.80383E-03 1.77581E-04-7.69805E-14
 -1       212 1.00963E-02 2.24756E-04-8.13334E-14
 -1       213 1.03869E-02 2.72320E-04-8.57522E-14
 -1       214 1.06759E-02 3.20519E-04-9.02385E-14
 -1       215 1.09638E-02 3.69459E-04-9.47884E-14
 -1       216 1.12509E-02 4.19154E-04-9.93929E-14
 -1       217 1.15374E-02 4.69563E-04-1.04053E-13
 -1       218 1.18235E-02 5.20611E-04-1.08772E-13
 -1       219 1.21093E-02 5.72212E-04-1.13557E-13
 -1       220 1.23949E-02 6.24274E-04-1.18403E-13
 -1       221 1.26805E-02 6.76709E-04-1.23300E-13
 -1       222 1.29660E-02 7.29438E-04-1.28242E-13
 -1       223 1.32516E-02 7.82385E-04-1.33220E-13
 -1       224 1.35371E-02 8.35488E-04-1.38225E-13
 -1       225 1.38228E-02 8.88686E-04-1.43254E-13
 -1       226 1.41084E-02 9.41928E-04-1.48309E-13
 -1       227 1.43941E-02 9.95168E-04-1.53391E-13
 -1       228 6.10221E-04 3.11531E-04-1.05852E-16
 -1       229 9.05974E-04 4.01621E-04-3.73653E-16
 -1       230 1.19477E-03 4.62000E-04-7.96103E-16
 -1       231 1.48294E-03 5.02244E-04-1.37566E-15
 -1       232 1.77444E-03 5.28802E-04-2.11091E-15
 -1       233 2.07215E-03 5.46821E-04-2.99948E-15
 -1       234 2.37834E-03 5.61165E-04-4.03902E-15
 -1       235 2.69498E-03 5.77117E-04-5.22493E-15
 -1       236 3.02358E-03 6.00960E-04-6.55591E-15
 -1       237 3.36488E-03 6.40363E-04-8.02826E-15
 -1       238 3.71817E-03 7.04237E-04-9.64086E-15
 -1       239 4.08039E-03 8.01331E-04-1.13930E-14
 -1       240 4.44528E-03 9.36512E-04-1.32917E-14
 -1       241 4.80348E-03 1.10425E-03-1.53430E-14
 -1       242 5.14506E-03 1.28172E-03-1.75576E-14
 -1       243 5.46503E-03 1.42874E-03-1.99462E-14
 -1       244 5.76916E-03 1.50282E-03-2.25121E-14
 -1       245 6.07313E-03 1.48454E-03-2.52553E-14
 -1       246 6.39306E-03 1.39164E-03-2.81632E-14
 -1       247 6.73539E-03 1.26622E-03-3.12280E-14
 -1       248 7.09566E-03 1.14923E-03-3.44394E-14
 -1       249 7.46413E-03 1.06477E-03-3.77858E-14
 -1       250 7.83140E-03 1.01946E-03-4.12515E-14
 -1       251 8.19115E-03 1.00930E-03-4.48324E-14
 -1       252 8.54026E-03 1.02623E-03-4.85209E-14
 -1       253 8.87803E-03 1.06212E-03-5.23130E-14
 -1       254 9.20513E-03 1.11032E-03-5.61992E-14
 -1       255 9.52293E-03 1.16596E-03-6.01774E-14
 -1       256 9.83300E-03 1.22568E-03-6.42413E-14
 -1       257 1.01368E-02 1.28731E-03-6.83769E-14
 -1       258 1.04358E-02 1.34947E-03-7.25759E-14
 -1       259 1.07309E-02 1.41135E-03-7.68419E-14
 -1       260 1.10233E-02 1.47252E-03-8.11805E-14
 -1       261 1.13135E-02 1.53276E-03-8.55968E-14
 -1       262 1.16021E-02 1.59202E-03-9.00943E-14
 -1       263 1.18897E-02 1.65033E-03-9.46610E-14
 -1       264 1.21764E-02 1.70776E-03-9.92899E-14
 -1       265 1.24626E-02 1.76443E-03-1.03975E-13
 -1       266 1.27485E-02 1.82045E-03-1.08715E-13
 -1       267 1.30342E-02 1.87592E-03-1.13512E-13
 -1       268 1.33198E-02 1.93095E-03-1.18369E-13
 -1       269 1.36053E-02 1.98563E-03-1.23274E-13
 -1       270 1.38908E-02 2.04005E-03-1.28213E-13
 -1       271 1.41763E-02 2.09427E-03-1.33173E-13
 -1       272 1.44619E-02 2.14836E-03-1.38151E-13
 -1       273 1.47475E-02 2.20237E-03-1.43151E-13
 -1       274 1.50331E-02 2.25637E-03-1.48164E-13
 -1       275 1.53188E-02 2.31038E-03-1.53175E-13
 -1       276 1.53288E-02 2.25595E-03-1.54181E-13
 -1       277 1.52755E-02 2.17162E-03-1.54341E-13
 -1       278 1.52223E-02 2.08726E-03-1.54498E-13
 -1       279 1.51692E-02 2.00287E-03-1.54660E-13
 -1       280 1.51169E-02 1.91988E-03-1.54815E-13
 -1       281 1.50639E-02 1.83543E-03-1.54966E-13
 -1       282 1.50110E-02 1.75096E-03-1.55113E-13
 -1       283 1.49582E-02 1.66648E-03-1.55256E-13
 -1       284 1.49056E-02 1.58200E-03-1.55392E-13
 -1       285 1.48530E-02 1.49754E-03-1.55542E-13
 -1       286 1.48015E-02 1.41452E-03-1.55701E-13
 -1       287 1.47492E-02 1.33010E-03-1.55863E-13
 -1       288 1.46969E-02 1.24571E-03-1.56023E-13
 -1       289 1.46446E-02 1.16135E-03-1.56169E-13
 -1       290 1.45194E-02 1.07825E-03-1.54786E-13
 -1       291 7.84176E-03 4.14402E-04-3.16837E-14
 -1       292 7.73052E-03 5.09696E-04-3.13939E-14
 -1       293 7.49410E-03 6.42294E-04-3.04790E-14
 -1       294 7.15414E-03 7.97162E-04-2.94386E-14
 -1       295 6.79124E-03 9.89320E-04-2.78734E-14
 -1       296 6.40613E-03 1.14795E-03-2.63763E-14
 -1       297 6.00554E-03 1.25833E-03-2.47636E-14
 -1       298 5.61747E-03 1.27408E-03-2.31649E-14
 -1       299 5.23568E-03 1.20001E-03-2.14940E-14
 -1       300 4.79007E-03 1.00979E-03-2.00380E-14
 -1       301 4.35324E-03 7.85923E-04-1.88278E-14
 -1       302 3.94777E-03 5.77797E-04-1.79149E-14
 -1       303 3.62950E-03 4.39022E-04-1.74861E-14
 -1       304 3.42744E-03 3.12663E-04-1.70660E-14
 -1       305 3.35694E-03 2.22094E-04-1.71245E-14
 -1       306 3.42942E-03 1.30640E-04-1.72954E-14
 -1       307 3.63641E-03 1.77940E-05-1.77948E-14
 -1       308 3.92735E-03-1.33182E-04-1.86343E-14
 -1       309 4.30301E-03-2.90516E-04-1.95661E-14
 -1       310 4.67281E-03-4.51717E-04-2.08462E-14
 -1       311 5.04619E-03-5.66695E-04-2.21637E-14
 -1       312 5.41412E-03-6.17495E-04-2.36573E-14
 -1       313 5.79423E-03-5.86097E-04-2.52939E-14
 -1       314 6.19461E-03-4.64752E-04-2.69124E-14
 -1       315 6.59842E-03-2.99036E-04-2.83429E-14
 -1       316 6.98772E-03-1.07700E-04-2.97064E-14
 -1       317 7.36196E-03 6.36181E-05-3.07046E-14
 -1       318 7.65034E-03 2.21238E-04-3.16054E-14
 -1       319 7.81672E-03 3.21567E-04-3.17574E-14
 -1       320 4.60034E-04-1.46639E-04-2.40300E-16
 -1       321 4.80480E-04-1.95734E-04-2.00469E-16
 -1       322 4.39074E-04-7.77158E-05-2.77983E-16
 -1       323 4.33012E-04-5.16353E-05-2.85159E-16
 -1       324 4.28915E-04-2.88936E-05-2.88303E-16
 -1       325 4.26733E-04-8.19350E-06-2.88452E-16
 -1       326 4.26543E-04 1.16945E-05-2.86277E-16
 -1       327 4.28433E-04 3.20308E-05-2.81073E-16
 -1       328 4.32384E-04 5.37700E-05-2.72535E-16
 -1       329 4.38664E-04 7.91503E-05-2.59345E-16
 -1       330 4.47653E-04 1.09658E-04-2.39548E-16
 -1       331 4.60720E-04 1.47871E-04-2.08970E-16
 -1       332 4.82511E-04 1.98277E-04-1.62024E-16
 -1       333 5.38990E-04 2.50777E-04-1.42623E-16
 -1       334 8.37505E-04 3.42508E-04-4.17889E-16
 -1       335 8.76562E-04-3.26663E-04-6.30616E-16
 -1       336 1.17005E-03-3.85486E-04-1.14859E-15
 -1       337 1.46207E-03-4.25776E-04-1.82293E-15
 -1       338 1.75457E-03-4.53454E-04-2.65293E-15
 -1       339 2.04911E-03-4.73486E-04-3.63727E-15
 -1       340 2.34687E-03-4.90354E-04-4.77433E-15
 -1       341 2.64866E-03-5.08340E-04-6.06524E-15
 -1       342 2.95486E-03-5.31590E-04-7.50791E-15
 -1       343 3.26538E-03-5.63885E-04-9.10004E-15
 -1       344 3.57943E-03-6.08029E-04-1.08383E-14
 -1       345 3.89536E-03-6.64753E-04-1.27238E-14
 -1       346 4.21054E-03-7.31242E-04-1.47578E-14
 -1       347 4.52176E-03-7.99768E-04-1.69426E-14
 -1       348 4.82627E-03-8.57516E-04-1.92778E-14
 -1       349 5.12351E-03-8.88971E-04-2.17648E-14
 -1       350 5.41616E-03-8.81158E-04-2.44063E-14
 -1       351 5.70932E-03-8.29374E-04-2.71995E-14
 -1       352 6.00797E-03-7.39512E-04-3.01393E-14
 -1       353 6.31444E-03-6.25253E-04-3.32236E-14
 -1       354 6.62787E-03-5.02147E-04-3.64456E-14
 -1       355 6.94548E-03-3.82702E-04-3.98056E-14
 -1       356 7.26412E-03-2.74375E-04-4.32920E-14
 -1       357 7.58132E-03-1.79977E-04-4.68957E-14
 -1       358 7.89554E-03-9.91337E-05-5.06058E-14
 -1       359 8.20605E-03-2.97801E-05-5.44153E-14
 -1       360 8.51268E-03 3.07379E-05-5.83251E-14
 -1       361 8.81557E-03 8.50070E-05-6.23321E-14
 -1       362 9.11509E-03 1.35230E-04-6.64302E-14
 -1       363 9.41166E-03 1.83128E-04-7.06068E-14
 -1       364 9.70574E-03 2.29954E-04-7.48539E-14
 -1       365 9.99776E-03 2.76564E-04-7.91708E-14
 -1       366 1.02881E-02 3.23500E-04-8.35500E-14
 -1       367 1.05772E-02 3.71074E-04-8.79968E-14
 -1       368 1.08652E-02 4.19431E-04-9.25070E-14
 -1       369 1.11525E-02 4.68608E-04-9.70748E-14
 -1       370 1.14393E-02 5.18571E-04-1.01700E-13
 -1       371 1.17256E-02 5.69249E-04-1.06382E-13
 -1       372 1.20117E-02 6.20548E-04-1.11128E-13
 -1       373 1.22975E-02 6.72372E-04-1.15934E-13
 -1       374 1.25833E-02 7.24625E-04-1.20796E-13
 -1       375 1.28689E-02 7.77218E-04-1.25708E-13
 -1       376 1.31546E-02 8.30072E-04-1.30659E-13
 -1       377 1.34402E-02 8.83114E-04-1.35641E-13
 -1       378 1.37259E-02 9.36284E-04-1.40647E-13
 -1       379 1.40115E-02 9.89523E-04-1.45681E-13
 -1       380 1.42654E-02 1.03389E-03-1.50220E-13
 -1       381 1.13136E-03 4.05009E-04-8.42933E-16
 -1       382 1.42346E-03 4.46574E-04-1.42179E-15
 -1       383 1.71686E-03 4.73558E-04-2.15374E-15
 -1       384 2.01400E-03 4.91129E-04-3.03803E-15
 -1       385 2.31689E-03 5.04118E-04-4.07156E-15
 -1       386 2.62725E-03 5.17696E-04-5.25040E-15
 -1       387 2.94658E-03 5.37962E-04-6.57231E-15
 -1       388 3.27609E-03 5.72402E-04-8.03445E-15
 -1       389 3.61648E-03 6.29939E-04-9.63559E-15
 -1       390 3.96743E-03 7.19946E-04-1.13744E-14
 -1       391 4.32662E-03 8.49163E-04-1.32579E-14
 -1       392 4.68856E-03 1.01549E-03-1.52925E-14
 -1       393 5.04463E-03 1.19953E-03-1.74877E-14
 -1       394 5.38682E-03 1.36088E-03-1.98541E-14
 -1       395 5.71562E-03 1.45002E-03-2.23997E-14
 -1       396 6.04263E-03 1.43908E-03-2.51243E-14
 -1       397 6.38139E-03 1.34434E-03-2.80167E-14
 -1       398 6.73562E-03 1.21281E-03-3.10658E-14
 -1       399 7.09900E-03 1.09026E-03-3.42636E-14
 -1       400 7.46250E-03 1.00228E-03-3.75943E-14
 -1       401 7.81972E-03 9.55262E-04-4.10444E-14
 -1       402 8.16761E-03 9.44548E-04-4.46110E-14
 -1       403 8.50546E-03 9.61608E-04-4.82860E-14
 -1       404 8.83375E-03 9.98000E-04-5.20630E-14
 -1       405 9.15350E-03 1.04689E-03-5.59362E-14
 -1       406 9.46593E-03 1.10329E-03-5.99003E-14
 -1       407 9.77225E-03 1.16377E-03-6.39523E-14
 -1       408 1.00736E-02 1.22610E-03-6.80783E-14
 -1       409 1.03710E-02 1.28889E-03-7.22707E-14
 -1       410 1.06652E-02 1.35131E-03-7.65278E-14
 -1       411 1.09571E-02 1.41293E-03-8.08591E-14
 -1       412 1.12471E-02 1.47354E-03-8.52665E-14
 -1       413 1.15357E-02 1.53310E-03-8.97504E-14
 -1       414 1.18234E-02 1.59164E-03-9.43058E-14
 -1       415 1.21103E-02 1.64926E-03-9.89243E-14
 -1       416 1.23967E-02 1.70607E-03-1.03596E-13
 -1       417 1.26827E-02 1.76219E-03-1.08329E-13
 -1       418 1.29686E-02 1.81774E-03-1.13119E-13
 -1       419 1.32543E-02 1.87282E-03-1.17961E-13
 -1       420 1.35399E-02 1.92754E-03-1.22852E-13
 -1       421 1.38255E-02 1.98198E-03-1.27774E-13
 -1       422 1.41111E-02 2.03621E-03-1.32724E-13
 -1       423 1.43967E-02 2.09031E-03-1.37694E-13
 -1       424 1.46824E-02 2.14432E-03-1.42688E-13
 -1       425 1.49680E-02 2.19830E-03-1.47695E-13
 -1       426 1.51484E-02 2.22712E-03-1.50938E-13
 -1       427 1.49483E-02 1.99835E-03-1.50234E-13
 -1       428 1.50015E-02 2.08270E-03-1.50075E-13
 -1       429 1.50749E-02 2.15491E-03-1.50505E-13
 -1       430 1.48960E-02 1.91542E-03-1.50388E-13
 -1       431 1.48430E-02 1.83104E-03-1.50540E-13
 -1       432 1.47900E-02 1.74664E-03-1.50691E-13
 -1       433 1.47371E-02 1.66225E-03-1.50839E-13
 -1       434 1.46844E-02 1.57785E-03-1.50985E-13
 -1       435 1.46318E-02 1.49345E-03-1.51128E-13
 -1       436 1.45802E-02 1.41049E-03-1.51275E-13
 -1       437 1.45278E-02 1.32611E-03-1.51417E-13
 -1       438 1.44756E-02 1.24175E-03-1.51558E-13
 -1       439 1.44233E-02 1.15740E-03-1.51697E-13
 -1       440 7.60893E-03 5.29031E-04-3.21468E-14
 -1       441 7.86311E-03 3.81796E-04-3.32273E-14
 -1       442 7.82478E-03 4.32939E-04-3.32008E-14
 -1       443 7.32155E-03 6.51008E-04-3.13061E-14
 -1       444 6.87656E-03 8.74629E-04-2.95382E-14
 -1       445 4.47548E-04-1.08495E-04-2.64176E-16
 -1       446 6.17402E-03 1.22758E-03-2.59237E-14
 -1       447 5.80048E-03 1.31477E-03-2.39232E-14
 -1       448 5.48590E-03 1.28592E-03-2.22146E-14
 -1       449 5.05649E-03 1.09999E-03-2.00717E-14
 -1       450 4.64280E-03 8.62164E-04-1.86553E-14
 -1       451 4.19789E-03 6.17359E-04-1.75401E-14
 -1       452 3.77474E-03 4.14467E-04-1.66778E-14
 -1       453 3.52975E-03 3.13722E-04-1.62723E-14
 -1       454 3.35543E-03 2.38646E-04-1.62252E-14
 -1       455 3.35750E-03 1.88386E-04-1.62869E-14
 -1       456 3.51858E-03 1.14677E-04-1.67199E-14
 -1       457 3.81918E-03-1.04323E-05-1.75091E-14
 -1       458 4.13920E-03-1.51938E-04-1.82896E-14
 -1       459 4.57843E-03-3.65042E-04-1.96217E-14
 -1       460 4.87423E-03-5.06036E-04-2.08793E-14
 -1       461 5.25099E-03-6.30991E-04-2.27374E-14
 -1       462 5.57019E-03-6.48535E-04-2.45357E-14
 -1       463 5.93663E-03-5.45019E-04-2.67614E-14
 -1       464 6.32606E-03-3.60906E-04-2.84049E-14
 -1       465 6.70485E-03-1.59540E-04-2.99254E-14
 -1       466 7.13469E-03 6.59103E-05-3.15795E-14
 -1       467 7.45771E-03 2.06702E-04-3.24934E-14
 -1       468 7.76474E-03 3.24002E-04-3.30885E-14
 -1       469 6.56429E-03 1.04438E-03-2.79857E-14
 -1       470 7.63155E-03 2.96983E-04-3.39771E-14
 -1       471 5.27996E-03 1.21506E-03-2.07496E-14
 -1       472 9.45611E-04 3.08007E-04-7.16387E-16
 -1       473 6.55123E-04-5.87270E-05-6.10494E-16
 -1       474 6.63954E-04-9.41772E-05-6.00611E-16
 -1       475 6.47417E-04 2.84871E-06-6.11412E-16
 -1       476 6.48809E-04 3.23143E-05-6.04090E-16
 -1       477 6.53784E-04 6.26936E-05-5.91205E-16
 -1       478 6.62641E-04 9.69219E-05-5.71188E-16
 -1       479 6.75625E-04 1.36602E-04-5.41674E-16
 -1       480 6.93668E-04 1.84144E-04-4.98831E-16
 -1       481 7.13993E-03 7.42424E-04-3.18509E-14
 -1       482 1.23813E-03 3.56634E-04-1.24401E-15
 -1       483 9.89113E-04-2.91927E-04-9.51658E-16
 -1       484 6.34477E-03 1.16597E-03-2.73107E-14
 -1       485 1.28037E-03-3.37112E-04-1.56550E-15
 -1       486 1.57221E-03-3.68261E-04-2.33165E-15
 -1       487 1.86511E-03-3.89699E-04-3.24931E-15
 -1       488 2.15996E-03-4.05635E-04-4.31733E-15
 -1       489 2.45778E-03-4.20184E-04-5.53534E-15
 -1       490 2.75961E-03-4.37463E-04-6.90259E-15
 -1       491 3.06648E-03-4.61574E-04-8.41705E-15
 -1       492 3.37912E-03-4.96335E-04-1.00781E-14
 -1       493 3.69760E-03-5.44583E-04-1.18845E-14
 -1       494 4.02063E-03-6.06830E-04-1.38351E-14
 -1       495 4.34513E-03-6.79235E-04-1.59334E-14
 -1       496 4.66650E-03-7.51571E-04-1.81819E-14
 -1       497 4.98071E-03-8.06897E-04-2.05829E-14
 -1       498 5.28740E-03-8.25894E-04-2.31385E-14
 -1       499 5.59116E-03-7.95651E-04-2.58521E-14
 -1       500 5.89876E-03-7.16917E-04-2.87153E-14
 -1       501 6.21437E-03-6.04044E-04-3.17262E-14
 -1       502 6.53702E-03-4.76519E-04-3.48793E-14
 -1       503 6.86252E-03-3.50766E-04-3.81726E-14
 -1       504 7.18639E-03-2.36487E-04-4.15944E-14
 -1       505 7.50578E-03-1.37305E-04-4.51388E-14
 -1       506 7.81957E-03-5.29161E-05-4.87911E-14
 -1       507 8.12787E-03 1.89191E-05-5.25448E-14
 -1       508 8.43138E-03 8.10600E-05-5.63984E-14
 -1       509 8.73092E-03 1.36277E-04-6.03516E-14
 -1       510 9.02729E-03 1.86933E-04-6.43988E-14
 -1       511 9.32115E-03 2.34887E-04-6.85318E-14
 -1       512 9.61305E-03 2.81511E-04-7.27369E-14
 -1       513 9.90341E-03 3.27757E-04-7.70150E-14
 -1       514 1.01926E-02 3.74245E-04-8.13588E-14
 -1       515 1.04808E-02 4.21341E-04-8.57624E-14
 -1       516 1.07683E-02 4.69229E-04-9.02380E-14
 -1       517 1.10553E-02 5.17971E-04-9.47702E-14
 -1       518 1.13419E-02 5.67547E-04-9.93583E-14
 -1       519 1.16282E-02 6.17891E-04-1.04005E-13
 -1       520 1.19143E-02 6.68911E-04-1.08710E-13
 -1       521 1.22002E-02 7.20508E-04-1.13477E-13
 -1       522 1.24861E-02 7.72580E-04-1.18305E-13
 -1       523 1.27718E-02 8.25035E-04-1.23184E-13
 -1       524 1.30576E-02 8.77787E-04-1.28108E-13
 -1       525 1.33433E-02 9.30762E-04-1.33067E-13
 -1       526 1.36290E-02 9.83893E-04-1.38053E-13
 -1       527 1.39147E-02 1.03712E-03-1.43061E-13
 -1       528 1.82427E-03 4.09227E-04-2.74977E-15
 -1       529 2.12003E-03 4.22467E-04-3.72591E-15
 -1       530 2.41924E-03 4.33145E-04-4.84635E-15
 -1       531 2.72328E-03 4.46471E-04-6.10858E-15
 -1       532 3.03384E-03 4.68715E-04-7.51105E-15
 -1       533 3.35326E-03 5.07624E-04-9.05018E-15
 -1       534 3.68462E-03 5.72514E-04-1.07257E-14
 -1       535 4.03133E-03 6.73411E-04-1.25388E-14
 -1       536 4.39496E-03 8.17847E-04-1.44964E-14
 -1       537 4.77067E-03 1.00266E-03-1.66072E-14
 -1       538 5.14786E-03 1.20043E-03-1.88824E-14
 -1       539 5.51095E-03 1.35143E-03-2.13343E-14
 -1       540 5.86496E-03 1.39477E-03-2.39722E-14
 -1       541 6.22521E-03 1.31975E-03-2.67891E-14
 -1       542 6.59943E-03 1.17917E-03-2.97673E-14
 -1       543 6.97854E-03 1.03821E-03-3.28978E-14
 -1       544 7.34781E-03 9.32968E-04-3.61660E-14
 -1       545 7.70128E-03 8.73101E-04-3.95584E-14
 -1       546 8.03902E-03 8.53112E-04-4.30655E-14
 -1       547 8.36423E-03 8.63619E-04-4.66862E-14
 -1       548 8.68018E-03 8.95596E-04-5.04096E-14
 -1       549 8.98934E-03 9.41759E-04-5.42323E-14
 -1       550 9.29338E-03 9.96705E-04-5.81454E-14
 -1       551 9.59343E-03 1.05664E-03-6.21496E-14
 -1       552 9.89030E-03 1.11904E-03-6.62404E-14
 -1       553 1.01846E-02 1.18225E-03-7.03994E-14
 -1       554 1.04769E-02 1.24530E-03-7.46228E-14
 -1       555 1.07675E-02 1.30761E-03-7.89185E-14
 -1       556 1.10568E-02 1.36892E-03-8.32837E-14
 -1       557 1.13451E-02 1.42912E-03-8.77261E-14
 -1       558 1.16326E-02 1.48824E-03-9.22438E-14
 -1       559 1.19195E-02 1.54636E-03-9.68242E-14
 -1       560 1.22060E-02 1.60359E-03-1.01467E-13
 -1       561 1.24923E-02 1.66005E-03-1.06168E-13
 -1       562 1.27783E-02 1.71588E-03-1.10925E-13
 -1       563 1.30641E-02 1.77118E-03-1.15732E-13
 -1       564 1.33499E-02 1.82606E-03-1.20586E-13
 -1       565 1.36356E-02 1.88061E-03-1.25481E-13
 -1       566 1.39213E-02 1.93493E-03-1.30403E-13
 -1       567 1.42069E-02 1.98907E-03-1.35355E-13
 -1       568 1.44926E-02 2.04310E-03-1.40336E-13
 -1       569 1.47783E-02 2.09708E-03-1.45332E-13
 -1       570 1.46220E-02 1.82660E-03-1.46126E-13
 -1       571 1.45690E-02 1.74227E-03-1.46273E-13
 -1       572 1.47274E-02 1.99382E-03-1.45819E-13
 -1       573 1.46747E-02 1.91021E-03-1.45973E-13
 -1       574 1.45161E-02 1.65794E-03-1.46426E-13
 -1       575 1.44633E-02 1.57361E-03-1.46575E-13
 -1       576 1.44106E-02 1.48929E-03-1.46717E-13
 -1       577 1.43590E-02 1.40639E-03-1.46856E-13
 -1       578 1.43066E-02 1.32206E-03-1.46991E-13
 -1       579 1.42542E-02 1.23774E-03-1.47121E-13
 -1       580 1.42020E-02 1.15342E-03-1.47249E-13
 -1       581 7.89353E-03 4.10705E-04-3.49163E-14
 -1       582 7.52228E-03 5.59097E-04-3.32390E-14
 -1       583 1.53070E-03 3.88791E-04-1.92183E-15
 -1       584 7.85936E-03 3.77721E-04-3.47756E-14
 -1       585 7.76932E-03 4.64977E-04-3.43117E-14
 -1       586 7.20808E-04-2.24258E-04-5.36934E-16
 -1       587 6.88959E-03-2.30806E-05-3.18131E-14
 -1       588 4.32770E-03-2.40530E-04-1.81066E-14
 -1       589 3.96782E-03 4.72680E-04-1.61214E-14
 -1       590 6.49581E-04-2.69372E-05-6.13733E-16
 -1       591 5.99243E-03 1.30880E-03-2.51021E-14
 -1       592 4.84158E-03 9.67313E-04-1.84841E-14
 -1       593 5.68550E-03 1.33770E-03-2.31181E-14
 -1       594 3.30564E-03 2.00338E-04-1.51172E-14
 -1       595 4.40754E-03 7.04878E-04-1.72289E-14
 -1       596 3.62036E-03 3.24102E-04-1.53763E-14
 -1       597 5.37895E-03-6.68519E-04-2.34350E-14
 -1       598 3.38555E-03 2.42445E-04-1.51580E-14
 -1       599 3.39725E-03 1.58128E-04-1.56138E-14
 -1       600 3.63577E-03 6.72749E-05-1.58954E-14
 -1       601 3.96299E-03-6.31670E-05-1.69789E-14
 -1       602 4.73719E-03-4.53553E-04-1.97332E-14
 -1       603 5.06550E-03-5.96877E-04-2.14784E-14
 -1       604 5.70679E-03-6.33130E-04-2.57165E-14
 -1       605 6.18469E-03-4.17152E-04-2.87869E-14
 -1       606 6.48960E-03-2.42051E-04-3.03211E-14
 -1       607 7.31373E-03 1.82598E-04-3.36651E-14
 -1       608 6.70348E-03 9.75281E-04-2.94706E-14
 -1       609 7.14199E-04 2.62530E-04-3.88758E-16
 -1       610 6.76271E-04-1.34904E-04-5.82081E-16
 -1       611 7.78856E-03 3.57069E-04-3.56718E-14
 -1       612 5.94904E-03-5.46656E-04-2.76863E-14
 -1       613 5.05022E-03 1.10270E-03-1.91145E-14
 -1       614 1.41068E-02 1.07146E-03-1.46467E-13
 -1       615 8.77500E-04 6.10609E-05-1.02923E-15
 -1       616 8.72877E-04 2.27250E-05-1.04511E-15
 -1       617 9.03421E-04 1.47542E-04-9.66827E-16
 -1       618 9.25284E-04 2.00579E-04-9.14223E-16
 -1       619 1.44417E-02 1.93988E-03-1.40826E-13
 -1       620 6.75402E-03-9.87214E-05-3.24805E-14
 -1       621 1.39335E-03-2.86644E-04-2.00956E-15
 -1       622 1.68282E-03-3.09296E-04-2.86264E-15
 -1       623 1.97379E-03-3.24763E-04-3.86349E-15
 -1       624 2.26692E-03-3.36548E-04-5.01179E-15
 -1       625 2.56335E-03-3.48322E-04-6.30617E-15
 -1       626 2.86468E-03-3.63981E-04-7.74568E-15
 -1       627 3.17278E-03-3.87681E-04-9.32962E-15
 -1       628 3.48950E-03-4.23674E-04-1.10574E-14
 -1       629 3.81576E-03-4.75625E-04-1.29278E-14
 -1       630 4.15021E-03-5.44798E-04-1.49413E-14
 -1       631 4.48816E-03-6.26592E-04-1.71025E-14
 -1       632 4.82211E-03-7.06773E-04-1.94134E-14
 -1       633 5.14619E-03-7.60231E-04-2.18811E-14
 -1       634 5.46217E-03-7.60972E-04-2.45097E-14
 -1       635 5.77821E-03-6.98600E-04-2.72970E-14
 -1       636 6.10368E-03-5.86128E-04-3.02342E-14
 -1       637 6.43845E-03-4.50253E-04-3.33196E-14
 -1       638 6.77635E-03-3.15090E-04-3.65460E-14
 -1       639 7.11007E-03-1.93929E-04-3.99043E-14
 -1       640 7.43531E-03-9.07479E-05-4.33870E-14
 -1       641 7.75103E-03-4.34894E-06-4.69826E-14
 -1       642 8.05829E-03 6.84313E-05-5.06807E-14
 -1       643 8.35890E-03 1.31020E-04-5.44815E-14
 -1       644 8.65466E-03 1.86454E-04-5.83804E-14
 -1       645 8.94706E-03 2.37193E-04-6.23768E-14
 -1       646 9.23720E-03 2.85128E-04-6.64633E-14
 -1       647 9.52585E-03 3.31645E-04-7.06285E-14
 -1       648 9.81352E-03 3.77712E-04-7.48642E-14
 -1       649 1.01006E-02 4.23968E-04-7.91695E-14
 -1       650 1.03872E-02 4.70800E-04-8.35374E-14
 -1       651 1.06735E-02 5.18413E-04-8.79746E-14
 -1       652 1.09597E-02 5.66883E-04-9.24744E-14
 -1       653 1.12457E-02 6.16205E-04-9.70305E-14
 -1       654 1.15316E-02 6.66317E-04-1.01640E-13
 -1       655 1.18175E-02 7.17135E-04-1.06308E-13
 -1       656 1.21033E-02 7.68559E-04-1.11035E-13
 -1       657 1.23891E-02 8.20488E-04-1.15826E-13
 -1       658 1.26748E-02 8.72829E-04-1.20676E-13
 -1       659 1.29606E-02 9.25494E-04-1.25567E-13
 -1       660 1.32463E-02 9.78407E-04-1.30503E-13
 -1       661 1.35320E-02 1.03150E-03-1.35466E-13
 -1       662 1.38178E-02 1.08471E-03-1.40454E-13
 -1       663 2.21521E-03 3.56133E-04-4.43479E-15
 -1       664 7.58381E-03 2.88388E-04-3.58711E-14
 -1       665 6.53072E-03 1.10744E-03-2.88695E-14
 -1       666 1.92548E-03 3.46045E-04-3.37067E-15
 -1       667 2.79956E-03 3.78936E-04-6.98256E-15
 -1       668 3.09778E-03 4.02348E-04-8.46236E-15
 -1       669 3.40491E-03 4.43151E-04-1.00763E-14
 -1       670 3.72741E-03 5.11103E-04-1.18255E-14
 -1       671 4.07353E-03 6.18676E-04-1.37098E-14
 -1       672 4.44956E-03 7.78310E-04-1.57379E-14
 -1       673 7.25379E-03 8.54879E-04-3.47401E-14
 -1       674 7.60835E-03 7.86300E-04-3.80764E-14
 -1       675 7.93741E-03 7.62005E-04-4.15279E-14
 -1       676 8.24887E-03 7.69429E-04-4.50909E-14
 -1       677 8.54992E-03 7.98581E-04-4.87627E-14
 -1       678 8.84526E-03 8.42232E-04-5.25336E-14
 -1       679 9.13754E-03 8.95186E-04-5.63972E-14
 -1       680 9.42813E-03 9.53735E-04-6.03536E-14
 -1       681 9.71770E-03 1.01530E-03-6.44001E-14
 -1       682 1.00065E-02 1.07814E-03-6.85253E-14
 -1       683 1.02948E-02 1.14114E-03-7.27184E-14
 -1       684 1.05826E-02 1.20362E-03-7.69796E-14
 -1       685 1.08699E-02 1.26522E-03-8.13080E-14
 -1       686 1.11569E-02 1.32577E-03-8.57100E-14
 -1       687 1.14436E-02 1.38526E-03-9.01862E-14
 -1       688 1.17300E-02 1.44372E-03-9.47300E-14
 -1       689 1.20162E-02 1.50126E-03-9.93380E-14
 -1       690 1.23023E-02 1.55800E-03-1.04008E-13
 -1       691 1.25882E-02 1.61405E-03-1.08736E-13
 -1       692 1.28741E-02 1.66953E-03-1.13512E-13
 -1       693 1.31599E-02 1.72456E-03-1.18330E-13
 -1       694 1.34457E-02 1.77923E-03-1.23193E-13
 -1       695 1.37314E-02 1.83363E-03-1.28090E-13
 -1       696 1.40171E-02 1.88783E-03-1.33025E-13
 -1       697 1.42294E-02 1.91388E-03-1.36921E-13
 -1       698 1.07635E-03 2.74259E-04-1.08473E-15
 -1       699 1.42422E-02 1.56931E-03-1.42174E-13
 -1       700 1.40099E-02 1.11906E-03-1.43845E-13
 -1       701 1.43480E-02 1.73783E-03-1.41873E-13
 -1       702 1.41895E-02 1.48505E-03-1.42316E-13
 -1       703 1.42951E-02 1.65357E-03-1.42023E-13
 -1       704 6.95852E-03 8.81444E-04-3.16871E-14
 -1       705 1.41378E-02 1.40222E-03-1.42448E-13
 -1       706 1.40853E-02 1.31796E-03-1.42583E-13
 -1       707 1.40329E-02 1.23369E-03-1.42712E-13
 -1       708 4.88086E-03-5.54105E-04-2.01789E-14
 -1       709 8.77941E-04-2.13828E-04-8.59471E-16
 -1       710 7.93738E-03 4.08158E-04-3.67517E-14
 -1       711 7.71046E-03 5.14214E-04-3.53847E-14
 -1       712 3.27634E-03 2.04248E-04-1.40781E-14
 -1       713 5.51318E-03-6.81794E-04-2.45003E-14
 -1       714 3.28083E-03 1.63857E-04-1.41939E-14
 -1       715 1.63628E-03 3.31011E-04-2.45082E-15
 -1       716 2.50614E-03 3.65484E-04-5.63897E-15
 -1       717 1.13444E-03-2.55059E-04-1.37507E-15
 -1       718 3.74720E-03 3.79139E-04-1.47185E-14
 -1       719 7.43230E-03 6.34906E-04-3.41733E-14
 -1       720 4.45620E-03-3.60321E-04-1.79065E-14
 -1       721 8.87659E-04 1.01875E-04-1.00383E-15
 -1       722 4.53877E-03 8.01182E-04-1.66767E-14
 -1       723 8.90302E-04-9.68462E-05-1.04216E-15
 -1       724 5.85438E-03 1.35980E-03-2.40926E-14
 -1       725 5.19396E-03-6.60319E-04-2.21714E-14
 -1       726 4.13722E-03 5.68365E-04-1.55181E-14
 -1       727 3.42765E-03 1.04559E-04-1.44542E-14
 -1       728 1.35618E-03 3.08487E-04-1.69801E-15
 -1       729 6.20010E-03 1.26796E-03-2.65904E-14
 -1       730 3.40698E-03 2.53560E-04-1.39395E-14
 -1       731 7.91440E-03 4.46935E-04-3.66573E-14
 -1       732 6.38490E-03-3.16283E-04-3.07172E-14
 -1       733 7.14483E-03 1.02702E-04-3.43508E-14
 -1       734 9.05619E-04-1.44514E-04-1.02139E-15
 -1       735 8.73686E-04-1.51057E-05-1.05249E-15
 -1       736 7.26481E-03 7.61453E-04-3.40029E-14
 -1       737 7.44366E-03 2.20288E-04-3.65672E-14
 -1       738 1.44007E-02 1.82139E-03-1.41722E-13
 -1       739 6.05195E-03 1.31801E-03-2.55297E-14
 -1       740 6.15553E-03-4.61024E-04-2.95666E-14
 -1       741 4.07587E-03-1.56145E-04-1.65319E-14
 -1       742 5.74374E-03-6.40724E-04-2.64085E-14
 -1       743 1.39253E-02 1.15919E-03-1.41585E-13
 -1       744 8.79605E-04-5.42882E-05-1.05179E-15
 -1       745 3.61659E-03 2.88031E-05-1.48619E-14
 -1       746 3.83704E-03-5.06250E-05-1.56847E-14
 -1       747 1.19862E-03 2.35460E-04-1.48413E-15
 -1       748 1.79237E-03-2.49190E-04-3.41550E-15
 -1       749 2.07981E-03-2.58826E-04-4.49561E-15
 -1       750 2.36955E-03-2.66046E-04-5.72002E-15
 -1       751 2.66310E-03-2.74031E-04-7.08709E-15
 -1       752 2.96278E-03-2.86473E-04-8.59593E-15
 -1       753 3.27167E-03-3.07836E-04-1.02461E-14
 -1       754 3.59309E-03-3.43560E-04-1.20374E-14
 -1       755 3.92930E-03-3.99566E-04-1.39679E-14
 -1       756 4.27883E-03-4.79618E-04-1.60416E-14
 -1       757 4.63460E-03-5.78350E-04-1.82616E-14
 -1       758 4.98407E-03-6.72119E-04-2.06374E-14
 -1       759 5.31999E-03-7.20525E-04-2.31749E-14
 -1       760 6.33773E-03-4.27460E-04-3.17641E-14
 -1       761 6.69232E-03-2.76056E-04-3.49266E-14
 -1       762 7.03981E-03-1.44731E-04-3.82217E-14
 -1       763 7.37331E-03-3.77214E-05-4.16431E-14
 -1       764 7.69194E-03 4.88434E-05-4.51826E-14
 -1       765 7.99817E-03 1.20382E-04-4.88276E-14
 -1       766 8.29536E-03 1.81569E-04-5.25743E-14
 -1       767 8.58653E-03 2.35920E-04-5.64227E-14
 -1       768 8.87402E-03 2.85975E-04-6.03663E-14
 -1       769 9.15945E-03 3.33542E-04-6.44033E-14
 -1       770 9.44388E-03 3.79891E-04-6.85254E-14
 -1       771 9.72796E-03 4.25896E-04-7.27208E-14
 -1       772 1.00120E-02 4.72131E-04-7.69878E-14
 -1       773 1.02963E-02 5.18948E-04-8.13204E-14
 -1       774 1.05808E-02 5.66534E-04-8.57149E-14
 -1       775 1.08656E-02 6.14961E-04-9.01810E-14
 -1       776 1.11506E-02 6.64225E-04-9.47082E-14
 -1       777 1.14359E-02 7.14271E-04-9.92881E-14
 -1       778 1.17212E-02 7.65018E-04-1.03918E-13
 -1       779 1.20068E-02 8.16371E-04-1.08611E-13
 -1       780 1.22923E-02 8.68234E-04-1.13361E-13
 -1       781 1.25780E-02 9.20516E-04-1.18176E-13
 -1       782 1.28637E-02 9.73133E-04-1.23043E-13
 -1       783 1.31494E-02 1.02601E-03-1.27948E-13
 -1       784 1.34351E-02 1.07908E-03-1.32889E-13
 -1       785 1.36802E-02 1.11910E-03-1.37226E-13
 -1       786 3.13960E-03 3.38183E-04-9.42816E-15
 -1       787 2.85850E-03 3.15684E-04-7.87235E-15
 -1       788 3.73503E-03 4.41803E-04-1.29337E-14
 -1       789 8.44074E-03 7.06894E-04-4.71226E-14
 -1       790 8.71872E-03 7.49116E-04-5.08438E-14
 -1       791 8.99627E-03 8.00018E-04-5.46591E-14
 -1       792 9.27484E-03 8.56515E-04-5.85655E-14
 -1       793 9.55486E-03 9.16352E-04-6.25643E-14
 -1       794 9.83629E-03 9.77897E-04-6.66497E-14
 -1       795 1.01189E-02 1.04001E-03-7.08103E-14
 -1       796 1.04025E-02 1.10195E-03-7.50378E-14
 -1       797 1.06867E-02 1.16326E-03-7.93361E-14
 -1       798 1.09715E-02 1.22371E-03-8.36994E-14
 -1       799 1.12566E-02 1.28320E-03-8.81343E-14
 -1       800 1.15419E-02 1.34174E-03-9.26435E-14
 -1       801 1.18274E-02 1.39939E-03-9.72169E-14
 -1       802 1.21130E-02 1.45625E-03-1.01853E-13
 -1       803 1.23987E-02 1.51243E-03-1.06550E-13
 -1       804 1.26844E-02 1.56802E-03-1.11293E-13
 -1       805 1.29701E-02 1.62315E-03-1.16079E-13
 -1       806 1.32558E-02 1.67790E-03-1.20913E-13
 -1       807 1.35416E-02 1.73236E-03-1.25788E-13
 -1       808 1.38273E-02 1.78660E-03-1.30702E-13
 -1       809 1.38641E-02 1.31382E-03-1.38196E-13
 -1       810 1.10304E-03 5.02382E-05-1.58327E-15
 -1       811 3.24307E-03 1.21848E-04-1.31386E-14
 -1       812 1.39684E-02 1.48075E-03-1.37930E-13
 -1       813 3.49737E-03 3.06037E-04-1.32142E-14
 -1       814 1.38117E-02 1.22961E-03-1.38324E-13
 -1       815 1.39162E-02 1.39729E-03-1.38062E-13
 -1       816 7.82232E-03 3.58396E-04-3.80584E-14
 -1       817 1.73867E-03 2.74827E-04-3.00905E-15
 -1       818 4.62943E-03-5.14890E-04-1.84162E-14
 -1       819 3.20993E-03 2.05082E-04-1.26225E-14
 -1       820 7.68691E-03 5.81717E-04-3.66596E-14
 -1       821 4.99705E-03-6.41711E-04-2.07693E-14
 -1       822 7.99939E-03 4.12770E-04-3.91696E-14
 -1       823 8.15910E-03 6.77686E-04-4.35056E-14
 -1       824 8.03664E-03 4.48515E-04-3.90819E-14
 -1       825 7.86702E-03 6.68500E-04-3.99945E-14
 -1       826 3.42846E-03 3.76540E-04-1.11158E-14
 -1       827 4.12130E-03-2.70063E-04-1.59156E-14
 -1       828 6.67094E-03-1.84460E-04-3.32082E-14
 -1       829 3.15771E-03 1.63374E-04-1.27425E-14
 -1       830 2.02047E-03 2.85819E-04-4.01628E-15
 -1       831 3.40524E-03 5.28037E-05-1.34925E-14
 -1       832 7.90978E-03 4.96529E-04-3.79604E-14
 -1       833 7.01462E-03 4.53112E-06-3.51050E-14
 -1       834 1.50654E-03-2.34302E-04-2.48060E-15
 -1       835 1.10076E-03 5.58323E-06-1.59930E-15
 -1       836 7.49200E-03 7.11800E-04-3.61158E-14
 -1       837 1.25114E-03-2.12062E-04-1.76933E-15
 -1       838 7.72159E-03 3.09775E-04-3.87707E-14
 -1       839 1.41269E-02 1.73295E-03-1.37495E-13
 -1       840 5.98719E-03-5.78275E-04-2.87465E-14
 -1       841 2.30078E-03 2.93872E-04-5.16473E-15
 -1       842 2.57977E-03 3.02499E-04-6.45067E-15
 -1       843 1.40738E-02 1.64875E-03-1.37642E-13
 -1       844 1.40396E-02 1.81268E-03-1.34583E-13
 -1       845 3.91379E-03-1.70301E-04-1.50907E-14
 -1       846 1.40211E-02 1.56474E-03-1.37787E-13
 -1       847 7.31619E-03 1.29602E-04-3.73376E-14
 -1       848 1.13003E-03 1.45984E-04-1.51260E-15
 -1       849 3.24641E-03 2.41881E-04-1.19352E-14
 -1       850 1.41781E-02 1.82341E-03-1.37212E-13
 -1       851 1.11281E-03 9.62709E-05-1.55485E-15
 -1       852 3.64980E-03-4.06022E-05-1.42829E-14
 -1       853 1.46880E-03 2.59267E-04-2.17998E-15
 -1       854 1.11721E-03-8.78888E-05-1.59783E-15
 -1       855 1.37459E-02 1.17436E-03-1.37777E-13
 -1       856 1.13472E-03-1.40641E-04-1.57814E-15
 -1       857 1.90023E-03-1.88137E-04-3.99035E-15
 -1       858 3.08529E-03 1.24076E-04-1.18238E-14
 -1       859 2.18260E-03-1.91999E-04-5.14512E-15
 -1       860 2.46701E-03-1.94030E-04-6.44203E-15
 -1       861 2.75532E-03-1.96868E-04-7.87821E-15
 -1       862 3.05070E-03-2.04028E-04-9.45371E-15
 -1       863 3.35772E-03-2.20585E-04-1.11670E-14
 -1       864 3.68198E-03-2.54350E-04-1.30171E-14
 -1       865 6.98516E-03-8.76329E-05-3.65464E-14
 -1       866 7.32752E-03 2.35787E-05-3.99078E-14
 -1       867 7.64732E-03 1.08273E-04-4.33895E-14
 -1       868 7.95035E-03 1.75869E-04-4.69819E-14
 -1       869 8.24199E-03 2.33322E-04-5.06758E-14
 -1       870 8.52677E-03 2.84908E-04-5.44727E-14
 -1       871 8.80788E-03 3.33222E-04-5.83682E-14
 -1       872 9.08740E-03 3.79867E-04-6.23550E-14
 -1       873 9.36662E-03 4.25859E-04-6.64310E-14
 -1       874 9.64626E-03 4.71853E-04-7.05858E-14
 -1       875 9.92667E-03 5.18260E-04-7.48129E-14
 -1       876 1.02080E-02 5.65324E-04-7.91101E-14
 -1       877 1.04902E-02 6.13168E-04-8.34682E-14
 -1       878 1.07732E-02 6.61830E-04-8.78950E-14
 -1       879 1.10568E-02 7.11288E-04-9.23894E-14
 -1       880 1.13411E-02 7.61485E-04-9.69394E-14
 -1       881 1.16257E-02 8.12342E-04-1.01539E-13
 -1       882 1.19107E-02 8.63771E-04-1.06199E-13
 -1       883 1.21960E-02 9.15684E-04-1.10918E-13
 -1       884 1.24814E-02 9.67996E-04-1.15694E-13
 -1       885 1.27670E-02 1.02063E-03-1.20527E-13
 -1       886 1.30526E-02 1.07351E-03-1.25405E-13
 -1       887 1.33383E-02 1.12659E-03-1.30320E-13
 -1       888 2.90282E-03 2.57926E-04-8.77799E-15
 -1       889 9.13065E-03 7.66059E-04-5.67854E-14
 -1       890 8.86607E-03 7.12201E-04-5.29285E-14
 -1       891 8.17026E-03 4.56566E-04-4.20750E-14
 -1       892 8.60609E-03 6.63318E-04-4.91613E-14
 -1       893 9.39960E-03 8.23300E-04-6.07351E-14
 -1       894 9.67233E-03 8.82598E-04-6.47752E-14
 -1       895 9.94820E-03 9.42916E-04-6.88993E-14
 -1       896 1.02266E-02 1.00349E-03-7.30967E-14
 -1       897 1.05069E-02 1.06382E-03-7.73619E-14
 -1       898 1.07887E-02 1.12358E-03-8.16929E-14
 -1       899 1.10716E-02 1.18261E-03-8.60938E-14
 -1       900 1.13554E-02 1.24085E-03-9.05626E-14
 -1       901 1.16397E-02 1.29833E-03-9.51004E-14
 -1       902 1.19246E-02 1.35509E-03-9.97022E-14
 -1       903 1.22097E-02 1.41122E-03-1.04366E-13
 -1       904 1.24951E-02 1.46680E-03-1.09078E-13
 -1       905 1.27806E-02 1.52193E-03-1.13835E-13
 -1       906 1.30662E-02 1.57670E-03-1.18638E-13
 -1       907 1.33519E-02 1.63117E-03-1.23491E-13
 -1       908 1.36376E-02 1.68542E-03-1.28386E-13
 -1       909 8.10813E-03 5.00919E-04-4.09393E-14
 -1       910 1.35904E-02 1.22552E-03-1.33962E-13
 -1       911 1.83846E-03 2.21271E-04-3.59517E-15
 -1       912 1.10569E-03-3.97751E-05-1.60443E-15
 -1       913 8.00876E-03 3.91916E-04-4.11487E-14
 -1       914 8.35019E-03 6.21421E-04-4.54898E-14
 -1       915 1.35460E-03 1.35226E-04-2.17584E-15
 -1       916 8.09609E-03 5.89786E-04-4.19236E-14
 -1       917 1.40713E-03 1.93694E-04-2.18970E-15
 -1       918 1.61908E-03-1.80301E-04-2.97737E-15
 -1       919 1.33771E-03 8.28320E-05-2.22060E-15
 -1       920 3.02244E-03 1.64564E-04-1.11589E-14
 -1       921 3.18579E-03 6.93168E-05-1.20772E-14
 -1       922 3.33908E-03 3.03231E-04-1.15343E-14
 -1       923 4.25868E-03-4.02275E-04-1.61988E-14
 -1       924 3.00745E-03 1.94875E-04-1.05185E-14
 -1       925 3.11965E-03 2.76399E-04-1.01120E-14
 -1       926 4.02869E-03-3.15746E-04-1.50041E-14
 -1       927 2.64343E-03 2.45371E-04-7.28009E-15
 -1       928 1.35421E-02 1.15046E-03-1.34039E-13
 -1       929 1.36948E-02 1.39263E-03-1.33699E-13
 -1       930 1.33048E-03 3.27030E-05-2.24966E-15
 -1       931 1.38499E-02 1.71152E-03-1.32250E-13
 -1       932 1.36425E-02 1.30891E-03-1.33833E-13
 -1       933 1.37474E-02 1.47652E-03-1.33563E-13
 -1       934 2.11098E-03 2.29745E-04-4.68630E-15
 -1       935 7.61082E-03 2.36613E-04-3.95633E-14
 -1       936 1.38529E-02 1.64418E-03-1.33278E-13
 -1       937 1.62304E-03 2.09075E-04-2.85017E-15
 -1       938 1.34387E-03-6.94800E-05-2.26355E-15
 -1       939 1.37555E-03-1.62386E-04-2.22482E-15
 -1       940 1.35755E-03-1.14251E-04-2.24976E-15
 -1       941 3.31835E-03-6.43663E-06-1.22841E-14
 -1       942 8.24920E-03 4.41789E-04-4.46055E-14
 -1       943 2.00643E-03-1.26531E-04-4.58411E-15
 -1       944 2.28190E-03-1.24743E-04-5.81089E-15
 -1       945 2.55820E-03-1.20980E-04-7.17607E-15
 -1       946 2.83732E-03-1.17202E-04-8.67820E-15
 -1       947 3.12318E-03-1.16909E-04-1.03171E-14
 -1       948 3.42166E-03-1.25505E-04-1.20885E-14
 -1       949 7.62563E-03 1.74395E-04-4.16044E-14
 -1       950 7.91951E-03 2.34819E-04-4.51420E-14
 -1       951 8.20091E-03 2.86010E-04-4.87854E-14
 -1       952 8.47592E-03 3.33083E-04-5.25298E-14
 -1       953 8.74832E-03 3.78573E-04-5.63755E-14
 -1       954 9.02034E-03 4.23725E-04-6.03136E-14
 -1       955 9.29325E-03 4.69152E-04-6.43426E-14
 -1       956 9.56765E-03 5.15170E-04-6.84564E-14
 -1       957 9.84379E-03 5.61940E-04-7.26446E-14
 -1       958 1.01217E-02 6.09528E-04-7.69030E-14
 -1       959 1.04011E-02 6.57942E-04-8.12272E-14
 -1       960 1.06820E-02 7.07151E-04-8.56169E-14
 -1       961 1.09640E-02 7.57097E-04-9.00718E-14
 -1       962 1.12471E-02 8.07705E-04-9.45915E-14
 -1       963 1.15308E-02 8.58896E-04-9.91663E-14
 -1       964 1.18152E-02 9.10587E-04-1.03792E-13
 -1       965 1.21000E-02 9.62699E-04-1.08478E-13
 -1       966 1.23852E-02 1.01516E-03-1.13224E-13
 -1       967 1.26705E-02 1.06790E-03-1.18022E-13
 -1       968 1.29560E-02 1.12086E-03-1.22873E-13
 -1       969 1.32417E-02 1.17400E-03-1.27760E-13
 -1       970 9.24840E-03 7.36748E-04-5.89128E-14
 -1       971 2.89562E-03 1.17618E-04-1.02007E-14
 -1       972 9.78075E-03 8.50490E-04-6.69915E-14
 -1       973 1.00535E-02 9.08874E-04-7.11545E-14
 -1       974 1.03295E-02 9.67474E-04-7.53891E-14
 -1       975 1.06079E-02 1.02591E-03-7.96903E-14
 -1       976 1.08883E-02 1.08394E-03-8.40557E-14
 -1       977 1.11701E-02 1.14145E-03-8.84879E-14
 -1       978 1.14531E-02 1.19839E-03-9.29886E-14
 -1       979 1.17369E-02 1.25477E-03-9.75558E-14
 -1       980 1.20214E-02 1.31063E-03-1.02188E-13
 -1       981 1.23062E-02 1.36603E-03-1.06870E-13
 -1       982 1.25914E-02 1.42103E-03-1.11598E-13
 -1       983 1.28768E-02 1.47572E-03-1.16372E-13
 -1       984 1.31624E-02 1.53014E-03-1.21197E-13
 -1       985 1.34480E-02 1.58435E-03-1.26071E-13
 -1       986 1.73106E-03-1.24968E-04-3.49765E-15
 -1       987 3.04588E-03 1.26151E-05-1.06597E-14
 -1       988 8.74139E-03 6.32616E-04-5.12000E-14
 -1       989 8.31559E-03 5.37062E-04-4.44694E-14
 -1       990 3.65974E-03-1.38653E-04-1.35507E-14
 -1       991 8.52123E-03 5.82647E-04-4.77934E-14
 -1       992 2.37953E-03 2.36904E-04-5.91577E-15
 -1       993 1.36504E-02 1.61430E-03-1.29667E-13
 -1       994 8.99106E-03 6.83006E-04-5.50119E-14
 -1       995 2.95127E-03 7.26662E-05-1.04393E-14
 -1       996 1.57671E-03 1.18391E-04-2.95299E-15
 -1       997 1.33280E-03-1.72416E-05-2.26354E-15
 -1       998 1.38001E-02 1.56034E-03-1.33423E-13
 -1       999 9.51204E-03 7.92871E-04-6.29075E-14
 -1      1000 7.93505E-03 3.43635E-04-4.19719E-14
 -1      1001 2.70298E-03 1.95581E-04-8.12792E-15
 -1      1002 1.56237E-03 6.42767E-05-2.99828E-15
 -1      1003 1.35977E-02 1.53055E-03-1.29808E-13
 -1      1004 2.83689E-03 1.47078E-04-9.60372E-15
 -1      1005 1.32940E-02 1.25756E-03-1.27632E-13
 -1      1006 8.40756E-03 5.08954E-04-4.62024E-14
 -1      1007 1.34009E-02 1.36261E-03-1.28276E-13
 -1      1008 8.21540E-03 4.03330E-04-4.54605E-14
 -1      1009 1.93801E-03 1.70993E-04-4.20857E-15
 -1      1010 1.54407E-03-1.20738E-04-2.84131E-15
 -1      1011 1.52747E-03-7.28657E-05-2.85657E-15
 -1      1012 1.59672E-03 1.62246E-04-2.90830E-15
 -1      1013 1.51366E-03-1.70605E-05-2.85628E-15
 -1      1014 2.45613E-03 1.86173E-04-6.68723E-15
 -1      1015 2.79460E-03-2.74133E-06-9.00353E-15
 -1      1016 2.37817E-03-5.81757E-05-6.48995E-15
 -1      1017 2.59046E-03-3.20347E-05-7.69930E-15
 -1      1018 1.04281E-02 9.31017E-04-7.76837E-14
 -1      1019 8.17407E-03 3.37945E-04-4.69034E-14
 -1      1020 8.43404E-03 3.79190E-04-5.05951E-14
 -1      1021 8.69449E-03 4.21133E-04-5.43887E-14
 -1      1022 8.95707E-03 4.64477E-04-5.82795E-14
 -1      1023 9.22250E-03 5.09282E-04-6.22606E-14
 -1      1024 9.49096E-03 5.55446E-04-6.63304E-14
 -1      1025 9.76237E-03 6.02816E-04-7.04780E-14
 -1      1026 1.00365E-02 6.51235E-04-7.46980E-14
 -1      1027 1.03130E-02 7.00556E-04-7.89863E-14
 -1      1028 1.05916E-02 7.50651E-04-8.33410E-14
 -1      1029 1.08719E-02 8.01404E-04-8.77600E-14
 -1      1030 1.11536E-02 8.52715E-04-9.22440E-14
 -1      1031 1.14364E-02 9.04494E-04-9.67894E-14
 -1      1032 1.17201E-02 9.56662E-04-1.01390E-13
 -1      1033 1.20043E-02 1.00915E-03-1.06047E-13
 -1      1034 1.22891E-02 1.06190E-03-1.10761E-13
 -1      1035 1.25742E-02 1.11486E-03-1.15530E-13
 -1      1036 1.28596E-02 1.16799E-03-1.20343E-13
 -1      1037 1.30768E-02 1.21274E-03-1.23978E-13
 -1      1038 1.01530E-02 8.74520E-04-7.34160E-14
 -1      1039 9.88130E-03 8.18328E-04-6.92158E-14
 -1      1040 1.07059E-02 9.87516E-04-8.20192E-14
 -1      1041 1.09858E-02 1.04383E-03-8.64179E-14
 -1      1042 1.12672E-02 1.09984E-03-9.08812E-14
 -1      1043 1.15499E-02 1.15552E-03-9.54139E-14
 -1      1044 1.18335E-02 1.21085E-03-1.00015E-13
 -1      1045 1.21178E-02 1.26586E-03-1.04670E-13
 -1      1046 1.24026E-02 1.32058E-03-1.09371E-13
 -1      1047 1.26877E-02 1.37506E-03-1.14116E-13
 -1      1048 1.29731E-02 1.42933E-03-1.18915E-13
 -1      1049 1.32586E-02 1.48344E-03-1.23757E-13
 -1      1050 9.09639E-03 6.56615E-04-5.70998E-14
 -1      1051 1.34281E-02 1.50702E-03-1.26775E-13
 -1      1052 2.20054E-03 1.78544E-04-5.37980E-15
 -1      1053 1.31837E-02 1.31760E-03-1.24620E-13
 -1      1054 1.84712E-03 1.04244E-04-4.03803E-15
 -1      1055 9.61384E-03 7.62875E-04-6.50883E-14
 -1      1056 9.35174E-03 7.08738E-04-6.10466E-14
 -1      1057 7.89847E-03 2.91843E-04-4.31737E-14
 -1      1058 1.84341E-03-6.89288E-05-4.03829E-15
 -1      1059 1.34993E-02 1.44654E-03-1.29041E-13
 -1      1060 8.84951E-03 6.07330E-04-5.32413E-14
 -1      1061 2.11175E-03-6.51525E-05-5.19545E-15
 -1      1062 2.53809E-03 1.42105E-04-7.47891E-15
 -1      1063 2.70381E-03 1.03636E-04-8.75382E-15
 -1      1064 2.10514E-03 1.12288E-04-5.18961E-15
 -1      1065 8.44029E-03 4.65286E-04-4.80451E-14
 -1      1066 1.32820E-02 1.40140E-03-1.25378E-13
 -1      1067 8.62879E-03 5.58313E-04-4.97879E-14
 -1      1068 2.72264E-03 5.29393E-05-8.80384E-15
 -1      1069 1.75138E-03-4.35238E-05-3.70950E-15
 -1      1070 2.21825E-03-5.19469E-06-5.82085E-15
 -1      1071 1.08016E-02 9.48118E-04-8.43471E-14
 -1      1072 9.18681E-03 6.29327E-04-5.91931E-14
 -1      1073 1.05235E-02 8.93425E-04-7.99799E-14
 -1      1074 8.64409E-03 4.59470E-04-5.24101E-14
 -1      1075 8.89533E-03 5.01304E-04-5.62478E-14
 -1      1076 9.15235E-03 5.45750E-04-6.01798E-14
 -1      1077 9.41445E-03 5.92347E-04-6.42054E-14
 -1      1078 9.68099E-03 6.40638E-04-6.83125E-14
 -1      1079 9.95136E-03 6.90234E-04-7.24940E-14
 -1      1080 1.02250E-02 7.40820E-04-7.67474E-14
 -1      1081 1.05014E-02 7.92153E-04-8.10642E-14
 -1      1082 1.07799E-02 8.44047E-04-8.54479E-14
 -1      1083 1.10603E-02 8.96364E-04-8.98966E-14
 -1      1084 1.13422E-02 9.49000E-04-9.44097E-14
 -1      1085 1.16251E-02 1.00188E-03-9.89848E-14
 -1      1086 1.19089E-02 1.05494E-03-1.03617E-13
 -1      1087 1.21933E-02 1.10814E-03-1.08300E-13
 -1      1088 1.24781E-02 1.16145E-03-1.13039E-13
 -1      1089 1.27633E-02 1.21483E-03-1.17825E-13
 -1      1090 1.29735E-02 1.26618E-03-1.21212E-13
 -1      1091 1.02481E-02 8.38919E-04-7.56770E-14
 -1      1092 9.97576E-03 7.84845E-04-7.14403E-14
 -1      1093 1.10816E-02 1.00284E-03-8.87809E-14
 -1      1094 1.13632E-02 1.05749E-03-9.32745E-14
 -1      1095 1.16459E-02 1.11203E-03-9.78432E-14
 -1      1096 1.19296E-02 1.16642E-03-1.02470E-13
 -1      1097 1.22139E-02 1.22068E-03-1.07145E-13
 -1      1098 1.24987E-02 1.27480E-03-1.11868E-13
 -1      1099 1.27839E-02 1.32882E-03-1.16639E-13
 -1      1100 2.32498E-03 1.26664E-04-6.28571E-15
 -1      1101 2.50632E-03 6.53615E-05-7.47516E-15
 -1      1102 9.70744E-03 7.31552E-04-6.72763E-14
 -1      1103 2.54014E-03 1.98163E-05-7.59479E-15
 -1      1104 1.80672E-03 4.45067E-05-3.96081E-15
 -1      1105 8.93731E-03 5.81698E-04-5.52840E-14
 -1      1106 1.95795E-03-1.29625E-05-4.59700E-15
 -1      1107 9.44406E-03 6.79513E-04-6.31913E-14
 -1      1108 8.44019E-03 4.26202E-04-4.93244E-14
 -1      1109 1.30717E-02 1.34982E-03-1.21971E-13
 -1      1110 8.71408E-03 5.28728E-04-5.19930E-14
 -1      1111 2.06506E-03 5.22034E-05-5.10412E-15
 -1      1112 2.38100E-03 6.51611E-06-6.68070E-15
 -1      1113 2.28909E-03 5.75689E-05-6.23657E-15
 -1      1114 0.00000E+00 0.00000E+00 0.00000E+00
 -1      1115 0.00000E+00 0.00000E+00 0.00000E+00
 -1      1116 0.00000E+00 0.00000E+00 0.00000E+00
 -1      1117 0.00000E+00 0.00000E+00 0.00000E+00
 -1      1118 0.00000E+00 0.00000E+00 0.00000E+00
 -1      1119 0.00000E+00 0.00000E+00 0.00000E+00
 -1      1120 0.00000E+00 0.00000E+00 0.00000E+00
 -1      1121 0.00000E+00 0.00000E+00 0.00000E+00
 -1      1122 0.00000E+00 0.00000E+00 0.00000E+00
 -1      1123 0.00000E+00 0.00000E+00 0.00000E+00
 -1      1124 0.00000E+00 0.00000E+00 0.00000E+00
 -1      1125 0.00000E+00 0.00000E+00 0.00000E+00
 -1      1126 0.00000E+00 0.00000E+00 0.00000E+00
 -1      1127 0.00000E+00 0.00000E+00 0.00000E+00
 -1      1128 0.00000E+00 0.00000E+00 0.00000E+00
 -1      1129 0.00000E+00 0.00000E+00 0.00000E+00
 -1      1130 0.00000E+00 0.00000E+00 0.00000E+00
 -1      1131 2.10208E-04-1.45082E-04 2.00984E-17
 -1      1132 5.51088E-04-3.25085E-04-4.35036E-17
 -1      1133 8.37947E-04-4.36569E-04-2.58433E-16
 -1      1134 1.11601E-03-5.08820E-04-6.49898E-16
 -1      1135 1.39344E-03-5.57734E-04-1.21009E-15
 -1      1136 1.67428E-03-5.91814E-04-1.93531E-15
 -1      1137 1.96097E-03-6.16665E-04-2.82298E-15
 -1      1138 2.25493E-03-6.36805E-04-3.86980E-15
 -1      1139 2.55674E-03-6.56389E-04-5.07522E-15
 -1      1140 2.86611E-03-6.79401E-04-6.44242E-15
 -1      1141 3.18170E-03-7.09522E-04-7.96737E-15
 -1      1142 3.50082E-03-7.49652E-04-9.64186E-15
 -1      1143 3.81930E-03-8.01026E-04-1.14651E-14
 -1      1144 4.13177E-03-8.62013E-04-1.34403E-14
 -1      1145 4.43260E-03-9.26969E-04-1.55652E-14
 -1      1146 4.71758E-03-9.85936E-04-1.78434E-14
 -1      1147 4.98602E-03-1.02607E-03-2.02719E-14
 -1      1148 5.24201E-03-1.03508E-03-2.28526E-14
 -1      1149 5.49391E-03-1.00558E-03-2.55848E-14
 -1      1150 5.75170E-03-9.38075E-04-2.84647E-14
 -1      1151 6.02339E-03-8.40791E-04-3.14853E-14
 -1      1152 6.31266E-03-7.26411E-04-3.46427E-14
 -1      1153 6.61847E-03-6.07768E-04-3.79378E-14
 -1      1154 6.93656E-03-4.94635E-04-4.13681E-14
 -1      1155 7.26148E-03-3.92554E-04-4.49216E-14
 -1      1156 7.58822E-03-3.03320E-04-4.85908E-14
 -1      1157 7.91303E-03-2.26195E-04-5.23655E-14
 -1      1158 8.23360E-03-1.59146E-04-5.62381E-14
 -1      1159 8.54883E-03-9.97410E-05-6.02160E-14
 -1      1160 8.85853E-03-4.56808E-05-6.42823E-14
 -1      1161 9.16305E-03 4.95502E-06-6.84315E-14
 -1      1162 9.46304E-03 5.36454E-05-7.26616E-14
 -1      1163 9.75924E-03 1.01456E-04-7.69574E-14
 -1      1164 1.00524E-02 1.49109E-04-8.13202E-14
 -1      1165 1.03432E-02 1.97057E-04-8.57501E-14
 -1      1166 1.06322E-02 2.45557E-04-9.02416E-14
 -1      1167 1.09199E-02 2.94727E-04-9.47937E-14
 -1      1168 1.12067E-02 3.44594E-04-9.94099E-14
 -1      1169 1.14929E-02 3.95128E-04-1.04081E-13
 -1      1170 1.17787E-02 4.46265E-04-1.08805E-13
 -1      1171 1.20642E-02 4.97925E-04-1.13598E-13
 -1      1172 1.23496E-02 5.50026E-04-1.18452E-13
 -1      1173 1.26349E-02 6.02484E-04-1.23356E-13
 -1      1174 1.29203E-02 6.55224E-04-1.28313E-13
 -1      1175 1.32057E-02 7.08176E-04-1.33303E-13
 -1      1176 1.34912E-02 7.61278E-04-1.38316E-13
 -1      1177 1.37767E-02 8.14473E-04-1.43354E-13
 -1      1178 1.40623E-02 8.67710E-04-1.48414E-13
 -1      1179 1.43480E-02 9.20945E-04-1.53493E-13
 -1      1180 1.46266E-02 9.72819E-04-1.58475E-13
 -1      1181 2.26481E-04 1.56960E-04 3.61581E-17
 -1      1182 5.52862E-04 3.28423E-04 5.00088E-18
 -1      1183 8.38795E-04 4.36340E-04-1.68756E-16
 -1      1184 1.11754E-03 5.06551E-04-5.03761E-16
 -1      1185 1.39645E-03 5.53319E-04-9.98862E-16
 -1      1186 1.68013E-03 5.84640E-04-1.65371E-15
 -1      1187 1.97185E-03 6.06005E-04-2.46515E-15
 -1      1188 2.27433E-03 6.22155E-04-3.42905E-15
 -1      1189 2.59001E-03 6.38002E-04-4.54357E-15
 -1      1190 2.92101E-03 6.59278E-04-5.80559E-15
 -1      1191 3.26873E-03 6.93011E-04-7.21478E-15
 -1      1192 3.63287E-03 7.47654E-04-8.76451E-15
 -1      1193 4.00993E-03 8.32262E-04-1.04560E-14
 -1      1194 4.39149E-03 9.53704E-04-1.22920E-14
 -1      1195 4.76344E-03 1.11110E-03-1.42768E-14
 -1      1196 5.10861E-03 1.28865E-03-1.64268E-14
 -1      1197 5.41470E-03 1.45252E-03-1.87456E-14
 -1      1198 5.68499E-03 1.55958E-03-2.12377E-14
 -1      1199 5.94202E-03 1.57935E-03-2.39094E-14
 -1      1200 6.21667E-03 1.51403E-03-2.67507E-14
 -1      1201 6.52956E-03 1.39726E-03-2.97499E-14
 -1      1202 6.88176E-03 1.27240E-03-3.28979E-14
 -1      1203 7.25990E-03 1.17159E-03-3.61873E-14
 -1      1204 7.64690E-03 1.10864E-03-3.96099E-14
 -1      1205 8.02944E-03 1.08325E-03-4.31485E-14
 -1      1206 8.39999E-03 1.08852E-03-4.67925E-14
 -1      1207 8.75579E-03 1.11606E-03-5.05448E-14
 -1      1208 9.09705E-03 1.15853E-03-5.43973E-14
 -1      1209 9.42544E-03 1.21036E-03-5.83403E-14
 -1      1210 9.74314E-03 1.26765E-03-6.23717E-14
 -1      1211 1.00523E-02 1.32778E-03-6.64816E-14
 -1      1212 1.03549E-02 1.38908E-03-7.06590E-14
 -1      1213 1.06524E-02 1.45053E-03-7.48972E-14
 -1      1214 1.09462E-02 1.51153E-03-7.91992E-14
 -1      1215 1.12372E-02 1.57179E-03-8.35793E-14
 -1      1216 1.15262E-02 1.63115E-03-8.80452E-14
 -1      1217 1.18139E-02 1.68962E-03-9.25889E-14
 -1      1218 1.21007E-02 1.74724E-03-9.72045E-14
 -1      1219 1.23868E-02 1.80410E-03-1.01878E-13
 -1      1220 1.26725E-02 1.86028E-03-1.06602E-13
 -1      1221 1.29579E-02 1.91591E-03-1.11375E-13
 -1      1222 1.32433E-02 1.97107E-03-1.16207E-13
 -1      1223 1.35286E-02 2.02586E-03-1.21109E-13
 -1      1224 1.38140E-02 2.08036E-03-1.26049E-13
 -1      1225 1.40994E-02 2.13465E-03-1.31003E-13
 -1      1226 1.43848E-02 2.18879E-03-1.35983E-13
 -1      1227 1.46704E-02 2.24283E-03-1.40990E-13
 -1      1228 1.49560E-02 2.29683E-03-1.45999E-13
 -1      1229 1.52417E-02 2.35083E-03-1.51013E-13
 -1      1230 1.55202E-02 2.40351E-03-1.55897E-13
 -1      1231 1.56294E-02 2.38705E-03-1.58347E-13
 -1      1232 1.55762E-02 2.30276E-03-1.58522E-13
 -1      1233 1.55230E-02 2.21843E-03-1.58697E-13
 -1      1234 1.54698E-02 2.13405E-03-1.58848E-13
 -1      1235 1.54166E-02 2.04962E-03-1.58999E-13
 -1      1236 1.53640E-02 1.96584E-03-1.59168E-13
 -1      1237 1.53114E-02 1.88203E-03-1.59335E-13
 -1      1238 1.52585E-02 1.79748E-03-1.59466E-13
 -1      1239 1.52057E-02 1.71291E-03-1.59595E-13
 -1      1240 1.51530E-02 1.62835E-03-1.59720E-13
 -1      1241 1.51005E-02 1.54379E-03-1.59859E-13
 -1      1242 1.50485E-02 1.45999E-03-1.60039E-13
 -1      1243 1.49966E-02 1.37622E-03-1.60250E-13
 -1      1244 1.49443E-02 1.29179E-03-1.60434E-13
 -1      1245 1.48921E-02 1.20741E-03-1.60591E-13
 -1      1246 1.48398E-02 1.12309E-03-1.60736E-13
 -1      1247 1.47880E-02 1.03951E-03-1.60860E-13
 -1      1248 7.85796E-03 4.26616E-04-3.04200E-14
 -1      1249 7.76702E-03 5.76077E-04-3.00541E-14
 -1      1250 7.56829E-03 7.31348E-04-2.93787E-14
 -1      1251 7.27337E-03 8.89478E-04-2.84342E-14
 -1      1252 6.90780E-03 1.03787E-03-2.72881E-14
 -1      1253 6.50405E-03 1.15582E-03-2.60440E-14
 -1      1254 6.05537E-03 1.22973E-03-2.46850E-14
 -1      1255 5.59537E-03 1.24162E-03-2.33318E-14
 -1      1256 5.11951E-03 1.18010E-03-2.19956E-14
 -1      1257 4.63343E-03 1.05252E-03-2.07165E-14
 -1      1258 4.19708E-03 8.85752E-04-1.96574E-14
 -1      1259 3.83064E-03 7.05954E-04-1.88405E-14
 -1      1260 3.56735E-03 5.39233E-04-1.83094E-14
 -1      1261 3.40158E-03 3.80679E-04-1.80145E-14
 -1      1262 3.34337E-03 2.26439E-04-1.79665E-14
 -1      1263 3.40349E-03 7.75333E-05-1.81728E-14
 -1      1264 3.57511E-03-7.20330E-05-1.86287E-14
 -1      1265 3.83595E-03-2.17140E-04-1.93060E-14
 -1      1266 4.17937E-03-3.57166E-04-2.02202E-14
 -1      1267 4.56882E-03-4.73706E-04-2.12997E-14
 -1      1268 4.97414E-03-5.50624E-04-2.24698E-14
 -1      1269 5.40328E-03-5.81428E-04-2.37511E-14
 -1      1270 5.85611E-03-5.55317E-04-2.51193E-14
 -1      1271 6.30900E-03-4.73548E-04-2.64765E-14
 -1      1272 6.72677E-03-3.52150E-04-2.76913E-14
 -1      1273 7.11255E-03-2.02667E-04-2.87596E-14
 -1      1274 7.44710E-03-3.90748E-05-2.96301E-14
 -1      1275 7.69795E-03 1.26128E-04-3.02227E-14
 -1      1276 7.83633E-03 2.81369E-04-3.04767E-14
 -1      1277 1.67115E-04-1.07049E-04-4.91957E-18
 -1      1278 1.13898E-04-5.31443E-05-3.45183E-17
 -1      1279 1.18802E-04-6.41970E-05-2.63055E-17
 -1      1280 1.09621E-04-3.88634E-05-4.78946E-17
 -1      1281 1.11599E-04-4.52704E-05-4.38018E-17
 -1      1282 2.29263E-04-9.92937E-05-1.03013E-16
 -1      1283 1.07565E-04-2.86583E-05-5.51452E-17
 -1      1284 1.08668E-04-3.34425E-05-5.30852E-17
 -1      1285 2.21400E-04-7.30530E-05-1.26906E-16
 -1      1286 1.06184E-04-2.05905E-05-5.93872E-17
 -1      1287 1.06926E-04-2.44472E-05-5.83165E-17
 -1      1288 2.16993E-04-5.36424E-05-1.40811E-16
 -1      1289 1.05186E-04-1.40093E-05-6.17182E-17
 -1      1290 1.05713E-04-1.71844E-05-6.13523E-17
 -1      1291 2.13983E-04-3.82458E-05-1.48983E-16
 -1      1292 1.04461E-04-8.28216E-06-6.26669E-17
 -1      1293 1.04824E-04-1.10761E-05-6.25585E-17
 -1      1294 2.11776E-04-2.53914E-05-1.53171E-16
 -1      1295 1.04037E-04-3.18992E-06-6.31819E-17
 -1      1296 1.04229E-04-5.71244E-06-6.31819E-17
 -1      1297 2.10246E-04-1.41869E-05-1.55014E-16
 -1      1298 1.03936E-04 1.59453E-06-6.29108E-17
 -1      1299 1.03949E-04-8.18746E-07-6.30870E-17
 -1      1300 2.09427E-04-4.07352E-06-1.55542E-16
 -1      1301 1.04174E-04 6.41051E-06-6.18537E-17
 -1      1302 1.04002E-04 3.93762E-06-6.21248E-17
 -1      1303 2.09361E-04 5.60263E-06-1.54282E-16
 -1      1304 1.04759E-04 1.16193E-05-6.03223E-17
 -1      1305 1.04398E-04 8.90634E-06-6.07966E-17
 -1      1306 2.10083E-04 1.55194E-05-1.51341E-16
 -1      1307 1.05670E-04 1.75014E-05-5.74492E-17
 -1      1308 1.05124E-04 1.44112E-05-5.83572E-17
 -1      1309 2.11583E-04 2.63030E-05-1.46557E-16
 -1      1310 1.06966E-04 2.47019E-05-5.31530E-17
 -1      1311 1.06184E-04 2.08927E-05-5.46438E-17
 -1      1312 2.13878E-04 3.88184E-05-1.39035E-16
 -1      1313 1.08774E-04 3.37268E-05-4.63496E-17
 -1      1314 1.07632E-04 2.89217E-05-4.89653E-17
 -1      1315 2.17089E-04 5.41638E-05-1.27746E-16
 -1      1316 1.11687E-04 4.56938E-05-3.54399E-17
 -1      1317 1.09719E-04 3.92213E-05-4.01290E-17
 -1      1318 2.21646E-04 7.36894E-05-1.10304E-16
 -1      1319 1.18197E-04 6.40111E-05-1.74285E-17
 -1      1320 1.13656E-04 5.36632E-05-2.61428E-17
 -1      1321 2.29475E-04 1.00468E-04-8.37546E-17
 -1      1322 1.57601E-04 1.06695E-04 1.09911E-17
 -1      1323 1.36767E-04 8.25493E-05-6.84403E-18
 -1      1324 2.58941E-04 1.44009E-04-5.16351E-17
 -1      1325 3.35761E-04 2.12682E-04-4.72983E-18
 -1      1326 4.23373E-04-2.51378E-04-6.32903E-17
 -1      1327 5.78372E-04-3.21224E-04-1.35349E-16
 -1      1328 7.28159E-04-3.76631E-04-2.53337E-16
 -1      1329 8.74622E-04-4.20831E-04-4.13786E-16
 -1      1330 6.19150E-04-3.11991E-04-2.40720E-16
 -1      1331 1.01870E-03-4.56981E-04-6.15109E-16
 -1      1332 1.16137E-03-4.86291E-04-8.58132E-16
 -1      1333 9.18790E-04-4.02224E-04-5.74356E-16
 -1      1334 1.30351E-03-5.10656E-04-1.14217E-15
 -1      1335 1.44569E-03-5.30657E-04-1.46777E-15
 -1      1336 1.21021E-03-4.61918E-04-1.07095E-15
 -1      1337 1.58840E-03-5.47424E-04-1.83347E-15
 -1      1338 1.73195E-03-5.61431E-04-2.23932E-15
 -1      1339 1.49913E-03-5.02194E-04-1.72869E-15
 -1      1340 1.87665E-03-5.73438E-04-2.68519E-15
 -1      1341 2.02267E-03-5.83920E-04-3.17097E-15
 -1      1342 1.78923E-03-5.29984E-04-2.54624E-15
 -1      1343 2.17017E-03-5.93492E-04-3.69613E-15
 -1      1344 2.31921E-03-6.02627E-04-4.26081E-15
 -1      1345 2.08276E-03-5.50452E-04-3.52176E-15
 -1      1346 2.46986E-03-6.11900E-04-4.86479E-15
 -1      1347 2.62208E-03-6.21766E-04-5.50788E-15
 -1      1348 2.38099E-03-5.68100E-04-4.65323E-15
 -1      1349 2.77582E-03-6.32795E-04-6.19147E-15
 -1      1350 2.93094E-03-6.45393E-04-6.91453E-15
 -1      1351 2.68441E-03-5.87197E-04-5.94177E-15
 -1      1352 3.08724E-03-6.60099E-04-7.67485E-15
 -1      1353 3.24446E-03-6.77209E-04-8.47389E-15
 -1      1354 2.99273E-03-6.11849E-04-7.38502E-15
 -1      1355 3.40227E-03-6.97142E-04-9.30991E-15
 -1      1356 3.56024E-03-7.19982E-04-1.01827E-14
 -1      1357 3.30486E-03-6.45727E-04-8.97977E-15
 -1      1358 3.71791E-03-7.45865E-04-1.10935E-14
 -1      1359 3.87475E-03-7.74531E-04-1.20418E-14
 -1      1360 3.61878E-03-6.91373E-04-1.07237E-14
 -1      1361 4.03022E-03-8.05627E-04-1.30275E-14
 -1      1362 4.18378E-03-8.38417E-04-1.40506E-14
 -1      1363 3.93163E-03-7.49067E-04-1.26171E-14
 -1      1364 4.33491E-03-8.71894E-04-1.51118E-14
 -1      1365 4.48323E-03-9.04811E-04-1.62099E-14
 -1      1366 4.24003E-03-8.15431E-04-1.46600E-14
 -1      1367 4.62846E-03-9.35528E-04-1.73464E-14
 -1      1368 4.77055E-03-9.62454E-04-1.85214E-14
 -1      1369 4.54080E-03-8.82376E-04-1.68528E-14
 -1      1370 4.90964E-03-9.83665E-04-1.97332E-14
 -1      1371 5.04613E-03-9.97639E-04-2.09835E-14
 -1      1372 4.83217E-03-9.37421E-04-1.91968E-14
 -1      1373 5.18061E-03-1.00281E-03-2.22719E-14
 -1      1374 5.31391E-03-9.98272E-04-2.35975E-14
 -1      1375 5.11488E-03-9.66281E-04-2.16928E-14
 -1      1376 5.44690E-03-9.83455E-04-2.49622E-14
 -1      1377 5.58058E-03-9.58430E-04-2.63640E-14
 -1      1378 5.39259E-03-9.57493E-04-2.43421E-14
 -1      1379 5.71579E-03-9.23889E-04-2.78014E-14
 -1      1380 5.85335E-03-8.80862E-04-2.92750E-14
 -1      1381 5.67094E-03-9.06985E-04-2.71405E-14
 -1      1382 5.99379E-03-8.30993E-04-3.07836E-14
 -1      1383 6.13748E-03-7.75859E-04-3.23277E-14
 -1      1384 5.95543E-03-8.19883E-04-3.00846E-14
 -1      1385 6.28452E-03-7.17384E-04-3.39062E-14
 -1      1386 6.43482E-03-6.57172E-04-3.55176E-14
 -1      1387 6.24949E-03-7.08317E-04-3.31696E-14
 -1      1388 6.58810E-03-5.96818E-04-3.71652E-14
 -1      1389 6.74395E-03-5.37555E-04-3.88463E-14
 -1      1390 6.55361E-03-5.86702E-04-3.63943E-14
 -1      1391 6.90188E-03-4.80344E-04-4.05601E-14
 -1      1392 7.06137E-03-4.25921E-04-4.23054E-14
 -1      1393 6.86589E-03-4.67315E-04-3.97542E-14
 -1      1394 7.22188E-03-3.74621E-04-4.40802E-14
 -1      1395 7.38294E-03-3.26737E-04-4.58849E-14
 -1      1396 7.18323E-03-3.58015E-04-4.32416E-14
 -1      1397 7.54410E-03-2.82160E-04-4.77176E-14
 -1      1398 7.70499E-03-2.40877E-04-4.95767E-14
 -1      1399 7.50240E-03-2.62164E-04-4.68468E-14
 -1      1400 7.86530E-03-2.02551E-04-5.14613E-14
 -1      1401 8.02480E-03-1.66997E-04-5.33714E-14
 -1      1402 7.82071E-03-1.79807E-04-5.05612E-14
 -1      1403 8.18332E-03-1.33811E-04-5.53069E-14
 -1      1404 8.34073E-03-1.02740E-04-5.72679E-14
 -1      1405 8.13633E-03-1.09097E-04-5.43779E-14
 -1      1406 8.49698E-03-7.34090E-05-5.92530E-14
 -1      1407 8.65202E-03-4.55602E-05-6.12629E-14
 -1      1408 8.44819E-03-4.74523E-05-5.82942E-14
 -1      1409 8.80588E-03-1.88900E-05-6.32943E-14
 -1      1410 8.95859E-03 6.83093E-06-6.53446E-14
 -1      1411 8.75590E-03 7.71847E-06-6.23063E-14
 -1      1412 9.11019E-03 3.18258E-05-6.74188E-14
 -1      1413 9.26074E-03 5.62830E-05-6.95125E-14
 -1      1414 9.05950E-03 5.86528E-05-6.64087E-14
 -1      1415 9.41033E-03 8.03534E-05-7.16253E-14
 -1      1416 9.55903E-03 1.04182E-04-7.37551E-14
 -1      1417 9.35935E-03 1.07108E-04-7.05915E-14
 -1      1418 9.70693E-03 1.27863E-04-7.59009E-14
 -1      1419 9.85409E-03 1.51503E-04-7.80623E-14
 -1      1420 9.65592E-03 1.54371E-04-7.48460E-14
 -1      1421 1.00006E-02 1.75152E-04-8.02428E-14
 -1      1422 1.01465E-02 1.98885E-04-8.24398E-14
 -1      1423 9.94974E-03 2.01322E-04-7.91685E-14
 -1      1424 1.02919E-02 2.22724E-04-8.46522E-14
 -1      1425 1.04369E-02 2.46716E-04-8.68807E-14
 -1      1426 1.02413E-02 2.48525E-04-8.35563E-14
 -1      1427 1.05815E-02 2.70866E-04-8.91227E-14
 -1      1428 1.07257E-02 2.95201E-04-9.13823E-14
 -1      1429 1.05312E-02 2.96304E-04-8.80082E-14
 -1      1430 1.08697E-02 3.19714E-04-9.36580E-14
 -1      1431 1.10134E-02 3.44419E-04-9.59470E-14
 -1      1432 1.08197E-02 3.44818E-04-9.25231E-14
 -1      1433 1.11569E-02 3.69302E-04-9.82508E-14
 -1      1434 1.13003E-02 3.94369E-04-1.00573E-13
 -1      1435 1.11073E-02 3.94113E-04-9.70992E-14
 -1      1436 1.14434E-02 4.19603E-04-1.02906E-13
 -1      1437 1.15865E-02 4.45002E-04-1.05252E-13
 -1      1438 1.13941E-02 4.44165E-04-1.01732E-13
 -1      1439 1.17295E-02 4.70550E-04-1.07615E-13
 -1      1440 1.18724E-02 4.96241E-04-1.09992E-13
 -1      1441 1.16804E-02 4.94906E-04-1.06425E-13
 -1      1442 1.20153E-02 5.22059E-04-1.12382E-13
 -1      1443 1.21581E-02 5.47999E-04-1.14793E-13
 -1      1444 1.19663E-02 5.46250E-04-1.11175E-13
 -1      1445 1.23009E-02 5.74044E-04-1.17221E-13
 -1      1446 1.24436E-02 6.00187E-04-1.19657E-13
 -1      1447 1.22521E-02 5.98105E-04-1.15989E-13
 -1      1448 1.25864E-02 6.26415E-04-1.22107E-13
 -1      1449 1.27291E-02 6.52721E-04-1.24570E-13
 -1      1450 1.25377E-02 6.50379E-04-1.20861E-13
 -1      1451 1.28718E-02 6.79093E-04-1.27043E-13
 -1      1452 1.30145E-02 7.05523E-04-1.29527E-13
 -1      1453 1.28233E-02 7.02984E-04-1.25778E-13
 -1      1454 1.31573E-02 7.32003E-04-1.32018E-13
 -1      1455 1.33000E-02 7.58524E-04-1.34515E-13
 -1      1456 1.31088E-02 7.55845E-04-1.30737E-13
 -1      1457 1.34428E-02 7.85080E-04-1.37021E-13
 -1      1458 1.35856E-02 8.11662E-04-1.39529E-13
 -1      1459 1.33944E-02 8.08890E-04-1.35729E-13
 -1      1460 1.37284E-02 8.38264E-04-1.42046E-13
 -1      1461 1.38712E-02 8.64880E-04-1.44571E-13
 -1      1462 1.36800E-02 8.62059E-04-1.40744E-13
 -1      1463 1.40140E-02 8.91504E-04-1.47102E-13
 -1      1464 1.41568E-02 9.18129E-04-1.49634E-13
 -1      1465 1.39656E-02 9.15296E-04-1.45787E-13
 -1      1466 1.42996E-02 9.44750E-04-1.52174E-13
 -1      1467 1.44425E-02 9.71363E-04-1.54722E-13
 -1      1468 1.42512E-02 9.68550E-04-1.50854E-13
 -1      1469 1.46523E-02 1.01425E-03-1.58422E-13
 -1      1470 1.46039E-02 1.03807E-03-1.57093E-13
 -1      1471 6.47452E-04 3.52672E-04-1.07621E-16
 -1      1472 4.95080E-04 2.90077E-04-3.59684E-17
 -1      1473 4.48895E-04 2.52297E-04-7.07306E-17
 -1      1474 9.40090E-04 4.41133E-04-3.69645E-16
 -1      1475 7.95271E-04 4.01372E-04-2.19063E-16
 -1      1476 7.54209E-04 3.65373E-04-2.61035E-16
 -1      1477 1.22574E-03 4.99327E-04-7.89069E-16
 -1      1478 1.08320E-03 4.73192E-04-5.59245E-16
 -1      1479 1.04865E-03 4.39045E-04-6.07113E-16
 -1      1480 1.51146E-03 5.37888E-04-1.36584E-15
 -1      1481 1.36821E-03 5.20615E-04-1.05768E-15
 -1      1482 1.33854E-03 4.87418E-04-1.10861E-15
 -1      1483 1.80169E-03 5.63341E-04-2.10011E-15
 -1      1484 1.65576E-03 5.51914E-04-1.71326E-15
 -1      1485 1.62916E-03 5.18951E-04-1.76604E-15
 -1      1486 2.09954E-03 5.80721E-04-2.98763E-15
 -1      1487 1.94948E-03 5.72716E-04-2.52493E-15
 -1      1488 1.92424E-03 5.39416E-04-2.57776E-15
 -1      1489 2.40751E-03 5.94785E-04-4.02655E-15
 -1      1490 2.25211E-03 5.87815E-04-3.48819E-15
 -1      1491 2.22649E-03 5.53683E-04-3.54119E-15
 -1      1492 2.72769E-03 6.10772E-04-5.21332E-15
 -1      1493 2.56594E-03 6.02132E-04-4.60153E-15
 -1      1494 2.53809E-03 5.66690E-04-4.65348E-15
 -1      1495 3.06163E-03 6.35008E-04-6.54651E-15
 -1      1496 2.89285E-03 6.21390E-04-5.86178E-15
 -1      1497 2.86072E-03 5.84153E-04-5.91145E-15
 -1      1498 3.40984E-03 6.75318E-04-8.02235E-15
 -1      1499 3.23395E-03 6.52645E-04-7.26678E-15
 -1      1500 3.19545E-03 6.13132E-04-7.31323E-15
 -1      1501 3.77090E-03 7.40890E-04-9.63806E-15
 -1      1502 3.58892E-03 7.04487E-04-8.81273E-15
 -1      1503 3.54228E-03 6.62301E-04-8.85530E-15
 -1      1504 4.14031E-03 8.40786E-04-1.13984E-14
 -1      1505 3.95498E-03 7.86347E-04-1.05005E-14
 -1      1506 3.89939E-03 7.41371E-04-1.05389E-14
 -1      1507 4.50963E-03 9.79922E-04-1.33020E-14
 -1      1508 4.32571E-03 9.05861E-04-1.23314E-14
 -1      1509 4.26242E-03 8.58616E-04-1.23654E-14
 -1      1510 4.86698E-03 1.15213E-03-1.53619E-14
 -1      1511 4.69070E-03 1.06330E-03-1.43118E-14
 -1      1512 4.62389E-03 1.01539E-03-1.43398E-14
 -1      1513 5.20075E-03 1.33293E-03-1.75891E-14
 -1      1514 5.03746E-03 1.24388E-03-1.64541E-14
 -1      1515 4.97426E-03 1.19808E-03-1.64753E-14
 -1      1516 5.50631E-03 1.48067E-03-1.99851E-14
 -1      1517 5.35685E-03 1.41367E-03-1.87652E-14
 -1      1518 5.30554E-03 1.37298E-03-1.87770E-14
 -1      1519 5.79244E-03 1.55211E-03-2.25601E-14
 -1      1520 5.65060E-03 1.52738E-03-2.12503E-14
 -1      1521 5.61743E-03 1.49304E-03-2.12549E-14
 -1      1522 6.07932E-03 1.52883E-03-2.53086E-14
 -1      1523 5.93424E-03 1.55141E-03-2.39127E-14
 -1      1524 5.92087E-03 1.52155E-03-2.39094E-14
 -1      1525 6.38692E-03 1.43040E-03-2.82219E-14
 -1      1526 6.22959E-03 1.48629E-03-2.67452E-14
 -1      1527 6.23271E-03 1.45713E-03-2.67344E-14
 -1      1528 6.72362E-03 1.30053E-03-3.12908E-14
 -1      1529 6.55167E-03 1.36651E-03-2.97372E-14
 -1      1530 6.56436E-03 1.33510E-03-2.97190E-14
 -1      1531 7.08468E-03 1.18094E-03-3.45034E-14
 -1      1532 6.90180E-03 1.23764E-03-3.28796E-14
 -1      1533 6.91617E-03 1.20303E-03-3.28555E-14
 -1      1534 7.45838E-03 1.09590E-03-3.78533E-14
 -1      1535 7.27078E-03 1.13359E-03-3.61621E-14
 -1      1536 7.28049E-03 1.09631E-03-3.61319E-14
 -1      1537 7.83303E-03 1.05122E-03-4.13268E-14
 -1      1538 7.64625E-03 1.06877E-03-3.95762E-14
 -1      1539 7.64782E-03 1.02990E-03-3.95373E-14
 -1      1540 8.20044E-03 1.04214E-03-4.49137E-14
 -1      1541 8.01804E-03 1.04279E-03-4.31059E-14
 -1      1542 8.01069E-03 1.00331E-03-4.30609E-14
 -1      1543 8.55638E-03 1.06011E-03-4.86039E-14
 -1      1544 8.38001E-03 1.04831E-03-4.67454E-14
 -1      1545 8.36465E-03 1.00892E-03-4.66939E-14
 -1      1546 8.89967E-03 1.09676E-03-5.24022E-14
 -1      1547 8.72962E-03 1.07656E-03-5.04900E-14
 -1      1548 8.70787E-03 1.03767E-03-5.04332E-14
 -1      1549 9.23096E-03 1.14540E-03-5.62930E-14
 -1      1550 9.06674E-03 1.11991E-03-5.43362E-14
 -1      1551 9.04028E-03 1.08173E-03-5.42715E-14
 -1      1552 9.55176E-03 1.20122E-03-6.02751E-14
 -1      1553 9.39256E-03 1.17264E-03-5.82734E-14
 -1      1554 9.36284E-03 1.13520E-03-5.82024E-14
 -1      1555 9.86388E-03 1.26095E-03-6.43390E-14
 -1      1556 9.70879E-03 1.23075E-03-6.22968E-14
 -1      1557 9.67694E-03 1.19401E-03-6.22208E-14
 -1      1558 1.01691E-02 1.32247E-03-6.84799E-14
 -1      1559 1.00172E-02 1.29158E-03-6.64009E-14
 -1      1560 9.98408E-03 1.25547E-03-6.63187E-14
 -1      1561 1.04688E-02 1.38447E-03-7.26832E-14
 -1      1562 1.03195E-02 1.35347E-03-7.05734E-14
 -1      1563 1.02856E-02 1.31789E-03-7.04863E-14
 -1      1564 1.07644E-02 1.44617E-03-7.69529E-14
 -1      1565 1.06171E-02 1.41539E-03-7.48100E-14
 -1      1566 1.05828E-02 1.38025E-03-7.47199E-14
 -1      1567 1.10570E-02 1.50715E-03-8.12918E-14
 -1      1568 1.09110E-02 1.47676E-03-7.91130E-14
 -1      1569 1.08767E-02 1.44198E-03-7.90219E-14
 -1      1570 1.13472E-02 1.56722E-03-8.57123E-14
 -1      1571 1.12023E-02 1.53730E-03-8.34923E-14
 -1      1572 1.11681E-02 1.50280E-03-8.33994E-14
 -1      1573 1.16358E-02 1.62633E-03-9.02109E-14
 -1      1574 1.14917E-02 1.59690E-03-8.79517E-14
 -1      1575 1.14576E-02 1.56261E-03-8.78544E-14
 -1      1576 1.19233E-02 1.68451E-03-9.47829E-14
 -1      1577 1.17797E-02 1.65553E-03-9.24881E-14
 -1      1578 1.17457E-02 1.62141E-03-9.23848E-14
 -1      1579 1.22099E-02 1.74184E-03-9.94206E-14
 -1      1580 1.20667E-02 1.71327E-03-9.70941E-14
 -1      1581 1.20329E-02 1.67928E-03-9.69831E-14
 -1      1582 1.24961E-02 1.79842E-03-1.04115E-13
 -1      1583 1.23530E-02 1.77022E-03-1.01761E-13
 -1      1584 1.23194E-02 1.73632E-03-1.01640E-13
 -1      1585 1.27818E-02 1.85437E-03-1.08859E-13
 -1      1586 1.26390E-02 1.82647E-03-1.06480E-13
 -1      1587 1.26055E-02 1.79263E-03-1.06356E-13
 -1      1588 1.30674E-02 1.90978E-03-1.13657E-13
 -1      1589 1.29246E-02 1.88214E-03-1.11251E-13
 -1      1590 1.28913E-02 1.84835E-03-1.11124E-13
 -1      1591 1.33529E-02 1.96477E-03-1.18516E-13
 -1      1592 1.32101E-02 1.93733E-03-1.16079E-13
 -1      1593 1.31770E-02 1.90357E-03-1.15947E-13
 -1      1594 1.36383E-02 2.01942E-03-1.23431E-13
 -1      1595 1.34956E-02 1.99214E-03-1.20967E-13
 -1      1596 1.34625E-02 1.95840E-03-1.20826E-13
 -1      1597 1.39237E-02 2.07381E-03-1.28369E-13
 -1      1598 1.37810E-02 2.04665E-03-1.25898E-13
 -1      1599 1.37480E-02 2.01292E-03-1.25746E-13
 -1      1600 1.42092E-02 2.12802E-03-1.33331E-13
 -1      1601 1.40665E-02 2.10094E-03-1.30850E-13
 -1      1602 1.40335E-02 2.06722E-03-1.30692E-13
 -1      1603 1.44947E-02 2.18210E-03-1.38323E-13
 -1      1604 1.43520E-02 2.15507E-03-1.35823E-13
 -1      1605 1.43191E-02 2.12135E-03-1.35663E-13
 -1      1606 1.47803E-02 2.23611E-03-1.43325E-13
 -1      1607 1.46375E-02 2.20911E-03-1.40822E-13
 -1      1608 1.46047E-02 2.17539E-03-1.40655E-13
 -1      1609 1.50660E-02 2.29010E-03-1.48334E-13
 -1      1610 1.49232E-02 2.26310E-03-1.45829E-13
 -1      1611 1.48903E-02 2.22938E-03-1.45659E-13
 -1      1612 1.53517E-02 2.34411E-03-1.53345E-13
 -1      1613 1.52088E-02 2.31710E-03-1.50840E-13
 -1      1614 1.51760E-02 2.28337E-03-1.50669E-13
 -1      1615 1.54937E-02 2.36137E-03-1.55974E-13
 -1      1616 1.54392E-02 2.25826E-03-1.56391E-13
 -1      1617 1.54658E-02 2.30042E-03-1.56307E-13
 -1      1618 1.53860E-02 2.17393E-03-1.56557E-13
 -1      1619 1.54126E-02 2.21610E-03-1.56477E-13
 -1      1620 1.53021E-02 2.21378E-03-1.54260E-13
 -1      1621 1.53327E-02 2.08954E-03-1.56711E-13
 -1      1622 1.53593E-02 2.13174E-03-1.56635E-13
 -1      1623 1.52489E-02 2.12944E-03-1.54420E-13
 -1      1624 1.52796E-02 2.00512E-03-1.56868E-13
 -1      1625 1.53062E-02 2.04734E-03-1.56790E-13
 -1      1626 1.51957E-02 2.04506E-03-1.54579E-13
 -1      1627 1.52274E-02 1.92209E-03-1.57033E-13
 -1      1628 1.52535E-02 1.96361E-03-1.56949E-13
 -1      1629 1.51430E-02 1.96137E-03-1.54737E-13
 -1      1630 1.51744E-02 1.83760E-03-1.57185E-13
 -1      1631 1.52009E-02 1.87985E-03-1.57112E-13
 -1      1632 1.50904E-02 1.87765E-03-1.54894E-13
 -1      1633 1.51215E-02 1.75309E-03-1.57322E-13
 -1      1634 1.51480E-02 1.79534E-03-1.57254E-13
 -1      1635 1.50374E-02 1.79319E-03-1.55041E-13
 -1      1636 1.50688E-02 1.66857E-03-1.57457E-13
 -1      1637 1.50951E-02 1.71083E-03-1.57389E-13
 -1      1638 1.49846E-02 1.70872E-03-1.55183E-13
 -1      1639 1.50162E-02 1.58405E-03-1.57588E-13
 -1      1640 1.50425E-02 1.62631E-03-1.57523E-13
 -1      1641 1.49319E-02 1.62424E-03-1.55320E-13
 -1      1642 1.49636E-02 1.49955E-03-1.57739E-13
 -1      1643 1.49899E-02 1.54180E-03-1.57661E-13
 -1      1644 1.48793E-02 1.53977E-03-1.55461E-13
 -1      1645 1.49121E-02 1.41651E-03-1.57914E-13
 -1      1646 1.49379E-02 1.45802E-03-1.57823E-13
 -1      1647 1.48272E-02 1.45603E-03-1.55614E-13
 -1      1648 1.48598E-02 1.33206E-03-1.58100E-13
 -1      1649 1.48859E-02 1.37428E-03-1.58009E-13
 -1      1650 1.47753E-02 1.37231E-03-1.55781E-13
 -1      1651 1.48075E-02 1.24766E-03-1.58266E-13
 -1      1652 1.48337E-02 1.28986E-03-1.58187E-13
 -1      1653 1.47230E-02 1.28791E-03-1.55946E-13
 -1      1654 1.47553E-02 1.16331E-03-1.58415E-13
 -1      1655 1.47814E-02 1.20548E-03-1.58341E-13
 -1      1656 1.46707E-02 1.20353E-03-1.56100E-13
 -1      1657 1.46665E-02 1.07960E-03-1.57791E-13
 -1      1658 1.46927E-02 1.12176E-03-1.57727E-13
 -1      1659 1.45820E-02 1.11980E-03-1.55481E-13
 -1      1660 1.44567E-02 1.03671E-03-1.54096E-13
 -1      1661 7.85902E-03 4.33306E-04-3.09868E-14
 -1      1662 7.87922E-03 3.88131E-04-3.10908E-14
 -1      1663 7.71414E-03 5.40578E-04-3.05774E-14
 -1      1664 7.79817E-03 4.86858E-04-3.08502E-14
 -1      1665 7.45463E-03 6.84660E-04-2.97201E-14
 -1      1666 7.58683E-03 6.16237E-04-3.01282E-14
 -1      1667 7.09456E-03 8.51615E-04-2.86659E-14
 -1      1668 7.26619E-03 7.67114E-04-2.92134E-14
 -1      1669 6.72085E-03 1.04041E-03-2.72905E-14
 -1      1670 6.90056E-03 9.59791E-04-2.78952E-14
 -1      1671 6.32814E-03 1.19013E-03-2.59121E-14
 -1      1672 6.50922E-03 1.12602E-03-2.65556E-14
 -1      1673 5.91337E-03 1.28344E-03-2.43972E-14
 -1      1674 6.10578E-03 1.25017E-03-2.51150E-14
 -1      1675 5.52246E-03 1.27975E-03-2.29702E-14
 -1      1676 5.69796E-03 1.29217E-03-2.36015E-14
 -1      1677 5.11247E-03 1.17689E-03-2.14433E-14
 -1      1678 5.31191E-03 1.24428E-03-2.21277E-14
 -1      1679 4.65649E-03 9.79961E-04-2.01328E-14
 -1      1680 4.85757E-03 1.07571E-03-2.07019E-14
 -1      1681 4.21826E-03 7.58317E-04-1.90493E-14
 -1      1682 4.41441E-03 8.59374E-04-1.95087E-14
 -1      1683 3.82810E-03 5.59126E-04-1.82436E-14
 -1      1684 3.99663E-03 6.44799E-04-1.85725E-14
 -1      1685 3.54156E-03 4.25266E-04-1.78265E-14
 -1      1686 3.65344E-03 4.86117E-04-1.80141E-14
 -1      1687 3.36568E-03 3.00641E-04-1.75199E-14
 -1      1688 3.43347E-03 3.51443E-04-1.76081E-14
 -1      1689 3.32992E-03 2.05011E-04-1.75845E-14
 -1      1690 3.32843E-03 2.48238E-04-1.75465E-14
 -1      1691 3.43761E-03 1.03177E-04-1.78395E-14
 -1      1692 3.36969E-03 1.52210E-04-1.76763E-14
 -1      1693 3.67037E-03-2.08724E-05-1.83754E-14
 -1      1694 3.55061E-03 3.88398E-05-1.80997E-14
 -1      1695 3.97984E-03-1.78270E-04-1.91897E-14
 -1      1696 3.82641E-03-1.06971E-04-1.88093E-14
 -1      1697 4.37175E-03-3.42202E-04-2.01855E-14
 -1      1698 4.18788E-03-2.61130E-04-1.96731E-14
 -1      1699 4.74394E-03-4.93150E-04-2.13791E-14
 -1      1700 4.57233E-03-4.30890E-04-2.08407E-14
 -1      1701 5.12521E-03-5.95409E-04-2.26611E-14
 -1      1702 4.95127E-03-5.54588E-04-2.20467E-14
 -1      1703 5.50251E-03-6.28866E-04-2.40659E-14
 -1      1704 5.32951E-03-6.23346E-04-2.34126E-14
 -1      1705 5.90133E-03-5.76181E-04-2.55912E-14
 -1      1706 5.71435E-03-6.13041E-04-2.48818E-14
 -1      1707 6.31095E-03-4.44510E-04-2.70419E-14
 -1      1708 6.12553E-03-5.12097E-04-2.63914E-14
 -1      1709 6.71705E-03-2.74369E-04-2.83166E-14
 -1      1710 6.53335E-03-3.56527E-04-2.77448E-14
 -1      1711 7.11034E-03-8.32324E-05-2.94881E-14
 -1      1712 6.92752E-03-1.70809E-04-2.89844E-14
 -1      1713 7.47013E-03 8.41473E-05-3.03502E-14
 -1      1714 7.31451E-03 8.14361E-06-2.99746E-14
 -1      1715 7.73579E-03 2.33841E-04-3.10115E-14
 -1      1716 7.62480E-03 1.73681E-04-3.07903E-14
 -1      1717 7.86636E-03 3.35341E-04-3.11252E-14
 -1      1718 7.82445E-03 2.89215E-04-3.10798E-14
 -1      1719 6.94248E-03 8.66234E-04-2.86880E-14
 -1      1720 7.31719E-03 6.74887E-04-2.99855E-14
 -1      1721 1.54608E-02 2.32763E-03-1.55803E-13
 -1      1722 1.53238E-02 2.28316E-03-1.53674E-13
 -1      1723 7.83179E-03 4.37428E-04-3.15533E-14
 -1      1724 7.63550E-03 5.30953E-04-3.09555E-14
 -1      1725 7.88250E-03 3.68285E-04-3.17293E-14
 -1      1726 6.55671E-03 1.07057E-03-2.71688E-14
 -1      1727 6.17097E-03 1.23391E-03-2.56240E-14
 -1      1728 5.80347E-03 1.31464E-03-2.40241E-14
 -1      1729 5.43480E-03 1.28431E-03-2.23871E-14
 -1      1730 5.05504E-03 1.12647E-03-2.08192E-14
 -1      1731 4.61032E-03 8.85305E-04-1.94773E-14
 -1      1732 4.16909E-03 6.42769E-04-1.84035E-14
 -1      1733 3.77924E-03 4.62418E-04-1.77234E-14
 -1      1734 3.49205E-03 3.37264E-04-1.72889E-14
 -1      1735 3.33922E-03 2.57171E-04-1.71047E-14
 -1      1736 3.34235E-03 1.91890E-04-1.72208E-14
 -1      1737 3.50118E-03 1.12719E-04-1.75614E-14
 -1      1738 3.77872E-03-1.16683E-05-1.82381E-14
 -1      1739 4.13969E-03-1.77650E-04-1.91374E-14
 -1      1740 4.52593E-03-3.62542E-04-2.02527E-14
 -1      1741 4.89919E-03-5.27327E-04-2.15609E-14
 -1      1742 5.25088E-03-6.31153E-04-2.29692E-14
 -1      1743 5.60009E-03-6.46887E-04-2.45337E-14
 -1      1744 5.96310E-03-5.57052E-04-2.61570E-14
 -1      1745 6.35505E-03-3.87718E-04-2.76746E-14
 -1      1746 6.76008E-03-1.81721E-04-2.90609E-14
 -1      1747 7.16391E-03 1.91643E-05-3.02331E-14
 -1      1748 7.52647E-03 1.87546E-04-3.11734E-14
 -1      1749 7.77870E-03 2.96760E-04-3.16927E-14
 -1      1750 2.87385E-04-1.68909E-04-5.86689E-17
 -1      1751 3.35308E-04-1.02710E-04-2.01960E-16
 -1      1752 3.40264E-04-1.19291E-04-1.88800E-16
 -1      1753 3.46745E-04-1.38840E-04-1.72835E-16
 -1      1754 3.56487E-04-1.61617E-04-1.50555E-16
 -1      1755 4.64286E-04-1.70074E-04-2.73842E-16
 -1      1756 3.23374E-04-5.29639E-05-2.29851E-16
 -1      1757 3.25624E-04-6.33943E-05-2.25406E-16
 -1      1758 3.19820E-04-3.40929E-05-2.35014E-16
 -1      1759 3.21453E-04-4.31339E-05-2.32941E-16
 -1      1760 4.33683E-04-6.39745E-05-3.41578E-16
 -1      1761 3.17482E-04-1.75886E-05-2.37223E-16
 -1      1762 3.18505E-04-2.55887E-05-2.36343E-16
 -1      1763 4.28854E-04-3.97527E-05-3.47717E-16
 -1      1764 3.16387E-04-2.45101E-06-2.36952E-16
 -1      1765 3.16777E-04-9.89311E-06-2.37318E-16
 -1      1766 4.25830E-04-1.82622E-05-3.49818E-16
 -1      1767 3.16603E-04 1.22906E-05-2.34337E-16
 -1      1768 3.16327E-04 4.92326E-06-2.36044E-16
 -1      1769 4.24673E-04 1.77234E-06-3.48503E-16
 -1      1770 3.18180E-04 2.76459E-05-2.29593E-16
 -1      1771 3.17216E-04 1.98440E-05-2.32399E-16
 -1      1772 4.25480E-04 2.16131E-05-3.44166E-16
 -1      1773 3.21086E-04 4.43970E-05-2.21475E-16
 -1      1774 3.19456E-04 3.57716E-05-2.26097E-16
 -1      1775 4.28290E-04 4.24009E-05-3.36130E-16
 -1      1776 3.25490E-04 6.43507E-05-2.09387E-16
 -1      1777 3.23081E-04 5.39624E-05-2.16231E-16
 -1      1778 4.33153E-04 6.57216E-05-3.23675E-16
 -1      1779 3.31666E-04 8.88425E-05-1.90914E-16
 -1      1780 3.28300E-04 7.59806E-05-2.01431E-16
 -1      1781 4.40311E-04 9.34834E-05-3.04973E-16
 -1      1782 3.40774E-04 1.20395E-04-1.62603E-16
 -1      1783 3.35670E-04 1.03663E-04-1.78527E-16
 -1      1784 4.50349E-04 1.27732E-04-2.76851E-16
 -1      1785 3.57370E-04 1.64170E-04-1.19506E-16
 -1      1786 3.47672E-04 1.40550E-04-1.43792E-16
 -1      1787 4.65643E-04 1.72014E-04-2.34987E-16
 -1      1788 4.12473E-04 2.20250E-04-8.97177E-17
 -1      1789 3.83273E-04 1.89099E-04-1.09450E-16
 -1      1790 5.03338E-04 2.24943E-04-1.97352E-16
 -1      1791 5.65809E-04 2.83188E-04-1.67225E-16
 -1      1792 3.44068E-04-1.80406E-04-1.07173E-16
 -1      1793 8.67388E-04 3.75810E-04-4.40403E-16
 -1      1794 7.17396E-04 3.34084E-04-2.85091E-16
 -1      1795 6.83840E-04 3.03616E-04-3.04254E-16
 -1      1796 4.65170E-04-2.21255E-04-1.94804E-16
 -1      1797 8.19693E-04-3.46425E-04-5.28359E-16
 -1      1798 9.68493E-04-3.82408E-04-7.42123E-16
 -1      1799 1.11542E-03-4.12094E-04-9.95311E-16
 -1      1800 1.26178E-03-4.36227E-04-1.28860E-15
 -1      1801 1.02116E-03-3.61637E-04-9.16490E-16
 -1      1802 1.40753E-03-4.56272E-04-1.62152E-15
 -1      1803 1.55330E-03-4.72610E-04-1.99398E-15
 -1      1804 1.31505E-03-4.09868E-04-1.51200E-15
 -1      1805 1.69929E-03-4.86289E-04-2.40559E-15
 -1      1806 1.84580E-03-4.97679E-04-2.85641E-15
 -1      1807 1.60796E-03-4.42439E-04-2.26357E-15
 -1      1808 1.99303E-03-5.07590E-04-3.34612E-15
 -1      1809 2.14112E-03-5.16402E-04-3.87471E-15
 -1      1810 1.90182E-03-4.64912E-04-3.17007E-15
 -1      1811 2.29023E-03-5.24824E-04-4.44213E-15
 -1      1812 2.44037E-03-5.33252E-04-5.04794E-15
 -1      1813 2.19812E-03-4.82038E-04-4.23067E-15
 -1      1814 2.59170E-03-5.42353E-04-5.69274E-15
 -1      1815 2.74408E-03-5.52528E-04-6.37596E-15
 -1      1816 2.49791E-03-4.98230E-04-5.44485E-15
 -1      1817 2.89768E-03-5.64404E-04-7.09749E-15
 -1      1818 3.05217E-03-5.78358E-04-7.85635E-15
 -1      1819 2.80183E-03-5.17782E-04-6.81111E-15
 -1      1820 3.20774E-03-5.94914E-04-8.65273E-15
 -1      1821 3.36385E-03-6.14352E-04-9.48593E-15
 -1      1822 3.11007E-03-5.44817E-04-8.32800E-15
 -1      1823 3.52073E-03-6.36968E-04-1.03566E-14
 -1      1824 3.67760E-03-6.62818E-04-1.12649E-14
 -1      1825 3.42229E-03-5.82884E-04-9.99237E-15
 -1      1826 3.83469E-03-6.91776E-04-1.22095E-14
 -1      1827 3.99105E-03-7.23502E-04-1.31912E-14
 -1      1828 3.73734E-03-6.34073E-04-1.18052E-14
 -1      1829 4.14688E-03-7.57251E-04-1.42105E-14
 -1      1830 4.30126E-03-7.92110E-04-1.52676E-14
 -1      1831 4.05317E-03-6.97644E-04-1.37646E-14
 -1      1832 4.45424E-03-8.26630E-04-1.63620E-14
 -1      1833 4.60529E-03-8.59294E-04-1.74937E-14
 -1      1834 4.36680E-03-7.68395E-04-1.58736E-14
 -1      1835 4.75428E-03-8.88129E-04-1.86629E-14
 -1      1836 4.90143E-03-9.11298E-04-1.98707E-14
 -1      1837 4.67501E-03-8.35633E-04-1.81329E-14
 -1      1838 5.04644E-03-9.26839E-04-2.11179E-14
 -1      1839 5.19044E-03-9.33213E-04-2.24018E-14
 -1      1840 4.97584E-03-8.84151E-04-2.05437E-14
 -1      1841 5.33305E-03-9.29209E-04-2.37236E-14
 -1      1842 5.47600E-03-9.14281E-04-2.50839E-14
 -1      1843 5.27022E-03-8.98325E-04-2.31081E-14
 -1      1844 5.61891E-03-8.88497E-04-2.64824E-14
 -1      1845 5.76345E-03-8.52565E-04-2.79166E-14
 -1      1846 5.56236E-03-8.68346E-04-2.58251E-14
 -1      1847 5.90926E-03-8.07828E-04-2.93871E-14
 -1      1848 6.05738E-03-7.55888E-04-3.08938E-14
 -1      1849 5.85776E-03-7.94880E-04-2.86922E-14
 -1      1850 6.20754E-03-6.98759E-04-3.24354E-14
 -1      1851 6.35986E-03-6.38293E-04-3.40125E-14
 -1      1852 6.16032E-03-6.88757E-04-3.17029E-14
 -1      1853 6.51423E-03-5.76443E-04-3.56250E-14
 -1      1854 6.67009E-03-5.14685E-04-3.72711E-14
 -1      1855 6.47065E-03-5.65943E-04-3.48564E-14
 -1      1856 6.82750E-03-4.54424E-04-3.89501E-14
 -1      1857 6.98555E-03-3.96543E-04-4.06620E-14
 -1      1858 6.78659E-03-4.41443E-04-3.81472E-14
 -1      1859 7.14444E-03-3.41761E-04-4.24039E-14
 -1      1860 7.30326E-03-2.90413E-04-4.41760E-14
 -1      1861 7.10497E-03-3.25577E-04-4.15687E-14
 -1      1862 7.46223E-03-2.42648E-04-4.59777E-14
 -1      1863 7.62064E-03-1.98442E-04-4.78068E-14
 -1      1864 7.42292E-03-2.23363E-04-4.51109E-14
 -1      1865 7.77867E-03-1.57578E-04-4.96629E-14
 -1      1866 7.93585E-03-1.19846E-04-5.15431E-14
 -1      1867 7.73853E-03-1.35695E-04-4.87662E-14
 -1      1868 8.09231E-03-8.48603E-05-5.34505E-14
 -1      1869 8.24779E-03-5.23486E-05-5.53830E-14
 -1      1870 8.05074E-03-6.10210E-05-5.25256E-14
 -1      1871 8.40237E-03-2.18916E-05-5.73391E-14
 -1      1872 8.55597E-03 6.77652E-06-5.93192E-14
 -1      1873 8.35917E-03 3.28094E-06-5.63857E-14
 -1      1874 8.70862E-03 3.40302E-05-6.13242E-14
 -1      1875 8.86034E-03 6.00987E-05-6.33509E-14
 -1      1876 8.66383E-03 6.00030E-05-6.03438E-14
 -1      1877 9.01114E-03 8.52799E-05-6.54001E-14
 -1      1878 9.16111E-03 1.09757E-04-6.74701E-14
 -1      1879 8.96498E-03 1.11637E-04-6.43937E-14
 -1      1880 9.31025E-03 1.33747E-04-6.95597E-14
 -1      1881 9.45867E-03 1.57388E-04-7.16676E-14
 -1      1882 9.26301E-03 1.60187E-04-6.85303E-14
 -1      1883 9.60638E-03 1.80827E-04-7.37941E-14
 -1      1884 9.75349E-03 2.04164E-04-7.59358E-14
 -1      1885 9.55835E-03 2.07151E-04-7.27421E-14
 -1      1886 9.90000E-03 2.27488E-04-7.80933E-14
 -1      1887 1.00460E-02 2.50868E-04-8.02705E-14
 -1      1888 9.85143E-03 2.53575E-04-7.70232E-14
 -1      1889 1.01916E-02 2.74353E-04-8.24628E-14
 -1      1890 1.03367E-02 2.97986E-04-8.46706E-14
 -1      1891 1.01427E-02 3.00143E-04-8.13721E-14
 -1      1892 1.04815E-02 3.21788E-04-8.68960E-14
 -1      1893 1.06260E-02 3.45785E-04-8.91352E-14
 -1      1894 1.04324E-02 3.47263E-04-8.57841E-14
 -1      1895 1.07702E-02 3.69977E-04-9.13914E-14
 -1      1896 1.09141E-02 3.94380E-04-9.36633E-14
 -1      1897 1.07210E-02 3.95147E-04-9.02634E-14
 -1      1898 1.10578E-02 4.18981E-04-9.59494E-14
 -1      1899 1.12014E-02 4.43787E-04-9.82494E-14
 -1      1900 1.10087E-02 4.43870E-04-9.48020E-14
 -1      1901 1.13448E-02 4.68780E-04-1.00563E-13
 -1      1902 1.14881E-02 4.93962E-04-1.02893E-13
 -1      1903 1.12958E-02 4.93424E-04-9.93981E-14
 -1      1904 1.16313E-02 5.19311E-04-1.05237E-13
 -1      1905 1.17744E-02 5.44825E-04-1.07597E-13
 -1      1906 1.15824E-02 5.43745E-04-1.04053E-13
 -1      1907 1.19174E-02 5.70484E-04-1.09970E-13
 -1      1908 1.20604E-02 5.96282E-04-1.12357E-13
 -1      1909 1.18686E-02 5.94746E-04-1.08765E-13
 -1      1910 1.22033E-02 6.22202E-04-1.14762E-13
 -1      1911 1.23462E-02 6.48237E-04-1.17183E-13
 -1      1912 1.21545E-02 6.46325E-04-1.13541E-13
 -1      1913 1.24890E-02 6.74370E-04-1.19616E-13
 -1      1914 1.26319E-02 7.00595E-04-1.22061E-13
 -1      1915 1.24404E-02 6.98384E-04-1.18375E-13
 -1      1916 1.27747E-02 7.26897E-04-1.24518E-13
 -1      1917 1.29175E-02 7.53270E-04-1.26985E-13
 -1      1918 1.27261E-02 7.50828E-04-1.23261E-13
 -1      1919 1.30603E-02 7.79702E-04-1.29463E-13
 -1      1920 1.32031E-02 8.06185E-04-1.31948E-13
 -1      1921 1.30118E-02 8.03572E-04-1.28191E-13
 -1      1922 1.33459E-02 8.32710E-04-1.34441E-13
 -1      1923 1.34887E-02 8.59271E-04-1.36941E-13
 -1      1924 1.32974E-02 8.56540E-04-1.33157E-13
 -1      1925 1.36315E-02 8.85859E-04-1.39446E-13
 -1      1926 1.37743E-02 9.12468E-04-1.41958E-13
 -1      1927 1.35831E-02 9.09664E-04-1.38150E-13
 -1      1928 1.39172E-02 9.39089E-04-1.44477E-13
 -1      1929 1.40600E-02 9.65719E-04-1.47004E-13
 -1      1930 1.38687E-02 9.62885E-04-1.43171E-13
 -1      1931 1.41869E-02 9.87906E-04-1.49274E-13
 -1      1932 1.43298E-02 1.01453E-03-1.51813E-13
 -1      1933 1.43924E-02 1.05608E-03-1.52507E-13
 -1      1934 1.41385E-02 1.01170E-03-1.47957E-13
 -1      1935 1.16179E-03 4.36870E-04-8.64909E-16
 -1      1936 1.01496E-03 4.09540E-04-6.33120E-16
 -1      1937 9.82218E-04 3.80058E-04-6.54560E-16
 -1      1938 1.45378E-03 4.76812E-04-1.44386E-15
 -1      1939 1.30769E-03 4.59051E-04-1.13486E-15
 -1      1940 1.27665E-03 4.30654E-04-1.15636E-15
 -1      1941 1.74739E-03 5.02446E-04-2.17683E-15
 -1      1942 1.60012E-03 4.91104E-04-1.79114E-15
 -1      1943 1.57024E-03 4.63325E-04-1.81162E-15
 -1      1944 2.04562E-03 5.19000E-04-3.06255E-15
 -1      1945 1.89574E-03 5.11577E-04-2.60073E-15
 -1      1946 1.86601E-03 4.83930E-04-2.61935E-15
 -1      1947 2.35073E-03 5.31291E-04-4.09748E-15
 -1      1948 2.19715E-03 5.25383E-04-3.56147E-15
 -1      1949 2.16633E-03 4.97409E-04-3.57750E-15
 -1      1950 2.66457E-03 5.44525E-04-5.27908E-15
 -1      1951 2.50642E-03 5.37448E-04-4.67009E-15
 -1      1952 2.47310E-03 5.08661E-04-4.68274E-15
 -1      1953 2.98854E-03 5.64948E-04-6.60453E-15
 -1      1954 2.82518E-03 5.53425E-04-5.92369E-15
 -1      1955 2.78791E-03 5.23254E-04-5.93220E-15
 -1      1956 3.32350E-03 6.00344E-04-8.07190E-15
 -1      1957 3.15461E-03 5.80285E-04-7.32098E-15
 -1      1958 3.11208E-03 5.48029E-04-7.32431E-15
 -1      1959 3.66935E-03 6.60079E-04-9.67770E-15
 -1      1960 3.49518E-03 6.26645E-04-8.85719E-15
 -1      1961 3.44657E-03 5.91489E-04-8.85589E-15
 -1      1962 4.02453E-03 7.53966E-04-1.14270E-14
 -1      1963 3.84614E-03 7.02354E-04-1.05346E-14
 -1      1964 3.79176E-03 6.63542E-04-1.05267E-14
 -1      1965 4.38515E-03 8.88681E-04-1.33185E-14
 -1      1966 4.20484E-03 8.16276E-04-1.23544E-14
 -1      1967 4.14674E-03 7.73628E-04-1.23391E-14
 -1      1968 4.74442E-03 1.06097E-03-1.53635E-14
 -1      1969 4.56592E-03 9.71195E-04-1.43210E-14
 -1      1970 4.50817E-03 9.25986E-04-1.42982E-14
 -1      1971 5.09343E-03 1.24870E-03-1.75720E-14
 -1      1972 4.92099E-03 1.15517E-03-1.64470E-14
 -1      1973 4.86888E-03 1.11091E-03-1.64147E-14
 -1      1974 5.42554E-03 1.40953E-03-1.99509E-14
 -1      1975 5.26160E-03 1.33559E-03-1.87396E-14
 -1      1976 5.21927E-03 1.29696E-03-1.86964E-14
 -1      1977 5.74312E-03 1.49396E-03-2.25078E-14
 -1      1978 5.58483E-03 1.46320E-03-2.12069E-14
 -1      1979 5.55347E-03 1.43307E-03-2.11541E-14
 -1      1980 6.05971E-03 1.47692E-03-2.52382E-14
 -1      1981 5.89975E-03 1.49738E-03-2.38507E-14
 -1      1982 5.87796E-03 1.47364E-03-2.37880E-14
 -1      1983 6.38984E-03 1.37692E-03-2.81353E-14
 -1      1984 6.22212E-03 1.43445E-03-2.66664E-14
 -1      1985 6.20866E-03 1.41185E-03-2.65951E-14
 -1      1986 6.73800E-03 1.24140E-03-3.11908E-14
 -1      1987 6.56187E-03 1.31064E-03-2.96444E-14
 -1      1988 6.55573E-03 1.28552E-03-2.95649E-14
 -1      1989 7.09861E-03 1.11596E-03-3.43902E-14
 -1      1990 6.91755E-03 1.17564E-03-3.27725E-14
 -1      1991 6.91639E-03 1.14739E-03-3.26869E-14
 -1      1992 7.46278E-03 1.02683E-03-3.77244E-14
 -1      1993 7.28105E-03 1.06647E-03-3.60419E-14
 -1      1994 7.28101E-03 1.03600E-03-3.59485E-14
 -1      1995 7.82339E-03 9.79950E-04-4.11826E-14
 -1      1996 7.64411E-03 9.98441E-04-3.94395E-14
 -1      1997 7.64151E-03 9.66864E-04-3.93385E-14
 -1      1998 8.17615E-03 9.70153E-04-4.47554E-14
 -1      1999 8.00107E-03 9.70995E-04-4.29543E-14
 -1      2000 7.99365E-03 9.38961E-04-4.28465E-14
 -1      2001 8.51921E-03 9.88388E-04-4.84335E-14
 -1      2002 8.34902E-03 9.76316E-04-4.65805E-14
 -1      2003 8.33603E-03 9.44187E-04-4.64661E-14
 -1      2004 8.85229E-03 1.02586E-03-5.22167E-14
 -1      2005 8.68700E-03 1.00515E-03-5.03130E-14
 -1      2006 8.66875E-03 9.73130E-04-5.01898E-14
 -1      2007 9.17607E-03 1.07559E-03-5.60949E-14
 -1      2008 9.01527E-03 1.04950E-03-5.41450E-14
 -1      2009 8.99263E-03 1.01772E-03-5.40157E-14
 -1      2010 9.49166E-03 1.13256E-03-6.00653E-14
 -1      2011 9.33478E-03 1.10337E-03-5.80689E-14
 -1      2012 9.30873E-03 1.07191E-03-5.79328E-14
 -1      2013 9.80034E-03 1.19338E-03-6.41159E-14
 -1      2014 9.64676E-03 1.16262E-03-6.20802E-14
 -1      2015 9.61819E-03 1.13150E-03-6.19382E-14
 -1      2016 1.01034E-02 1.25588E-03-6.82464E-14
 -1      2017 9.95247E-03 1.22450E-03-6.61723E-14
 -1      2018 9.92215E-03 1.19372E-03-6.60248E-14
 -1      2019 1.04019E-02 1.31871E-03-7.24420E-14
 -1      2020 1.02531E-02 1.28729E-03-7.03360E-14
 -1      2021 1.02216E-02 1.25684E-03-7.01836E-14
 -1      2022 1.06970E-02 1.38111E-03-7.67056E-14
 -1      2023 1.05498E-02 1.34999E-03-7.45649E-14
 -1      2024 1.05176E-02 1.31982E-03-7.44089E-14
 -1      2025 1.09893E-02 1.44265E-03-8.10412E-14
 -1      2026 1.08434E-02 1.41200E-03-7.88651E-14
 -1      2027 1.08107E-02 1.38207E-03-7.87044E-14
 -1      2028 1.12797E-02 1.50318E-03-8.54547E-14
 -1      2029 1.11347E-02 1.47305E-03-8.32390E-14
 -1      2030 1.11018E-02 1.44333E-03-8.30751E-14
 -1      2031 1.15685E-02 1.56264E-03-8.99411E-14
 -1      2032 1.14242E-02 1.53304E-03-8.76882E-14
 -1      2033 1.13912E-02 1.50349E-03-8.75191E-14
 -1      2034 1.18562E-02 1.62109E-03-9.44985E-14
 -1      2035 1.17124E-02 1.59199E-03-9.22105E-14
 -1      2036 1.16794E-02 1.56257E-03-9.20366E-14
 -1      2037 1.21431E-02 1.67863E-03-9.91215E-14
 -1      2038 1.19997E-02 1.64997E-03-9.68034E-14
 -1      2039 1.19667E-02 1.62066E-03-9.66217E-14
 -1      2040 1.24295E-02 1.73537E-03-1.03803E-13
 -1      2041 1.22864E-02 1.70709E-03-1.01454E-13
 -1      2042 1.22534E-02 1.67786E-03-1.01268E-13
 -1      2043 1.27155E-02 1.79142E-03-1.08540E-13
 -1      2044 1.25726E-02 1.76347E-03-1.06164E-13
 -1      2045 1.25397E-02 1.73431E-03-1.05973E-13
 -1      2046 1.30013E-02 1.84692E-03-1.13330E-13
 -1      2047 1.28585E-02 1.81924E-03-1.10928E-13
 -1      2048 1.28256E-02 1.79012E-03-1.10732E-13
 -1      2049 1.32870E-02 1.90196E-03-1.18177E-13
 -1      2050 1.31442E-02 1.87449E-03-1.15748E-13
 -1      2051 1.31114E-02 1.84541E-03-1.15546E-13
 -1      2052 1.35726E-02 1.95665E-03-1.23070E-13
 -1      2053 1.34298E-02 1.92934E-03-1.20617E-13
 -1      2054 1.33971E-02 1.90029E-03-1.20409E-13
 -1      2055 1.38582E-02 2.01106E-03-1.27996E-13
 -1      2056 1.37154E-02 1.98388E-03-1.25530E-13
 -1      2057 1.36827E-02 1.95484E-03-1.25314E-13
 -1      2058 1.41437E-02 2.06527E-03-1.32949E-13
 -1      2059 1.40009E-02 2.03819E-03-1.30472E-13
 -1      2060 1.39683E-02 2.00916E-03-1.30249E-13
 -1      2061 1.44293E-02 2.11935E-03-1.37929E-13
 -1      2062 1.42865E-02 2.09233E-03-1.35435E-13
 -1      2063 1.42539E-02 2.06330E-03-1.35209E-13
 -1      2064 1.47149E-02 2.17336E-03-1.42926E-13
 -1      2065 1.45721E-02 2.14636E-03-1.40427E-13
 -1      2066 1.45396E-02 2.11734E-03-1.40195E-13
 -1      2067 1.50006E-02 2.22734E-03-1.47930E-13
 -1      2068 1.48578E-02 2.20035E-03-1.45427E-13
 -1      2069 1.48252E-02 2.17132E-03-1.45195E-13
 -1      2070 1.52336E-02 2.26874E-03-1.52055E-13
 -1      2071 1.50908E-02 2.24174E-03-1.49550E-13
 -1      2072 1.50582E-02 2.21271E-03-1.49316E-13
 -1      2073 1.52386E-02 2.24153E-03-1.52558E-13
 -1      2074 1.50587E-02 2.00061E-03-1.52448E-13
 -1      2075 1.50853E-02 2.04280E-03-1.52370E-13
 -1      2076 1.51119E-02 2.08498E-03-1.52288E-13
 -1      2077 1.51385E-02 2.12715E-03-1.52209E-13
 -1      2078 1.49749E-02 2.04053E-03-1.50158E-13
 -1      2079 1.51752E-02 2.16326E-03-1.52423E-13
 -1      2080 1.52019E-02 2.20542E-03-1.52343E-13
 -1      2081 1.51117E-02 2.19102E-03-1.50721E-13
 -1      2082 1.50382E-02 2.11881E-03-1.50291E-13
 -1      2083 1.50065E-02 1.91765E-03-1.52604E-13
 -1      2084 1.50326E-02 1.95913E-03-1.52524E-13
 -1      2085 1.49221E-02 1.95688E-03-1.50316E-13
 -1      2086 1.49534E-02 1.83323E-03-1.52757E-13
 -1      2087 1.49799E-02 1.87544E-03-1.52681E-13
 -1      2088 1.48695E-02 1.87323E-03-1.50468E-13
 -1      2089 1.49005E-02 1.74881E-03-1.52904E-13
 -1      2090 1.49269E-02 1.79102E-03-1.52831E-13
 -1      2091 1.48164E-02 1.78884E-03-1.50620E-13
 -1      2092 1.48477E-02 1.66437E-03-1.53047E-13
 -1      2093 1.48741E-02 1.70659E-03-1.52974E-13
 -1      2094 1.47635E-02 1.70445E-03-1.50767E-13
 -1      2095 1.47950E-02 1.57994E-03-1.53188E-13
 -1      2096 1.48213E-02 1.62216E-03-1.53118E-13
 -1      2097 1.47107E-02 1.62005E-03-1.50911E-13
 -1      2098 1.47424E-02 1.49551E-03-1.53333E-13
 -1      2099 1.47687E-02 1.53772E-03-1.53259E-13
 -1      2100 1.46581E-02 1.53565E-03-1.51054E-13
 -1      2101 1.46908E-02 1.41252E-03-1.53485E-13
 -1      2102 1.47166E-02 1.45401E-03-1.53407E-13
 -1      2103 1.46060E-02 1.45197E-03-1.51200E-13
 -1      2104 1.46385E-02 1.32812E-03-1.53640E-13
 -1      2105 1.46646E-02 1.37032E-03-1.53561E-13
 -1      2106 1.45540E-02 1.36830E-03-1.51347E-13
 -1      2107 1.45862E-02 1.24374E-03-1.53791E-13
 -1      2108 1.46123E-02 1.28593E-03-1.53715E-13
 -1      2109 1.45017E-02 1.28393E-03-1.51491E-13
 -1      2110 1.45340E-02 1.15939E-03-1.53931E-13
 -1      2111 1.45601E-02 1.20156E-03-1.53864E-13
 -1      2112 1.44494E-02 1.19958E-03-1.51632E-13
 -1      2113 7.55325E-03 5.31451E-04-3.13343E-14
 -1      2114 7.68439E-03 4.79932E-04-3.17951E-14
 -1      2115 7.89153E-03 3.84140E-04-3.24694E-14
 -1      2116 7.87885E-03 3.66695E-04-3.25052E-14
 -1      2117 7.80507E-03 4.30546E-04-3.23148E-14
 -1      2118 7.86693E-03 4.08117E-04-3.24602E-14
 -1      2119 7.21452E-03 6.74495E-04-3.03997E-14
 -1      2120 7.38984E-03 5.96282E-04-3.09232E-14
 -1      2121 6.78488E-03 9.05160E-04-2.87419E-14
 -1      2122 6.96705E-03 7.98813E-04-2.95286E-14
 -1      2123 3.28233E-04-7.51166E-05-2.19551E-16
 -1      2124 3.31393E-04-8.80328E-05-2.11663E-16
 -1      2125 4.49848E-04-1.26589E-04-3.08090E-16
 -1      2126 4.40424E-04-9.22742E-05-3.29110E-16
 -1      2127 6.06739E-03 1.27548E-03-2.54007E-14
 -1      2128 6.23307E-03 1.20509E-03-2.62081E-14
 -1      2129 5.71846E-03 1.33920E-03-2.36092E-14
 -1      2130 5.87122E-03 1.32625E-03-2.44069E-14
 -1      2131 5.39715E-03 1.27588E-03-2.19173E-14
 -1      2132 5.55094E-03 1.32292E-03-2.27542E-14
 -1      2133 5.64311E-03 1.34469E-03-2.31213E-14
 -1      2134 4.98585E-03 1.05958E-03-2.01158E-14
 -1      2135 5.17545E-03 1.17243E-03-2.08364E-14
 -1      2136 4.55426E-03 7.98100E-04-1.87927E-14
 -1      2137 4.75989E-03 9.25955E-04-1.93929E-14
 -1      2138 4.10296E-03 5.52616E-04-1.77662E-14
 -1      2139 4.30922E-03 6.62269E-04-1.82195E-14
 -1      2140 3.70259E-03 3.79115E-04-1.71084E-14
 -1      2141 3.86857E-03 4.42049E-04-1.73193E-14
 -1      2142 3.45263E-03 2.84435E-04-1.66887E-14
 -1      2143 3.56524E-03 3.25333E-04-1.68968E-14
 -1      2144 3.63381E-03 3.24744E-04-1.64998E-14
 -1      2145 3.31727E-03 2.32044E-04-1.66892E-14
 -1      2146 3.35516E-03 2.50146E-04-1.66603E-14
 -1      2147 3.36024E-03 1.90178E-04-1.68068E-14
 -1      2148 3.31937E-03 2.09182E-04-1.67218E-14
 -1      2149 3.56606E-03 1.16091E-04-1.72775E-14
 -1      2150 3.45117E-03 1.54860E-04-1.70298E-14
 -1      2151 3.89094E-03-1.99099E-05-1.80999E-14
 -1      2152 3.73240E-03 4.96273E-05-1.76818E-14
 -1      2153 4.25694E-03-1.85952E-04-1.89651E-14
 -1      2154 4.07020E-03-9.76050E-05-1.85025E-14
 -1      2155 4.67344E-03-4.01864E-04-2.02840E-14
 -1      2156 4.50012E-03-3.05308E-04-1.96475E-14
 -1      2157 4.99164E-03-5.57192E-04-2.15750E-14
 -1      2158 4.83522E-03-4.83137E-04-2.09228E-14
 -1      2159 4.76393E-03-4.38090E-04-2.02964E-14
 -1      2160 5.33768E-03-6.63591E-04-2.32583E-14
 -1      2161 5.19293E-03-6.28704E-04-2.25134E-14
 -1      2162 5.65293E-03-6.56355E-04-2.49768E-14
 -1      2163 5.50817E-03-6.74908E-04-2.41593E-14
 -1      2164 6.00607E-03-5.25356E-04-2.68961E-14
 -1      2165 5.84818E-03-5.99000E-04-2.60830E-14
 -1      2166 6.40045E-03-3.21409E-04-2.84257E-14
 -1      2167 6.22153E-03-4.22452E-04-2.77077E-14
 -1      2168 6.79876E-03-9.98506E-05-2.98571E-14
 -1      2169 6.60750E-03-2.08863E-04-2.91732E-14
 -1      2170 7.22533E-03 1.13931E-04-3.11743E-14
 -1      2171 7.03263E-03 2.54828E-05-3.06710E-14
 -1      2172 7.56533E-03 2.54480E-04-3.20726E-14
 -1      2173 7.40429E-03 1.90095E-04-3.16216E-14
 -1      2174 7.29529E-03 1.78037E-04-3.20629E-14
 -1      2175 7.82444E-03 3.39267E-04-3.24384E-14
 -1      2176 7.73442E-03 3.12213E-04-3.23639E-14
 -1      2177 6.44189E-03 1.10059E-03-2.72254E-14
 -1      2178 6.61373E-03 1.00286E-03-2.79752E-14
 -1      2179 6.68467E-03 9.46401E-04-2.87975E-14
 -1      2180 7.08046E-03 7.26973E-04-3.04516E-14
 -1      2181 6.16553E-04-2.77235E-04-3.18661E-16
 -1      2182 6.33377E-03 1.15183E-03-2.69938E-14
 -1      2183 6.73476E-04-2.68143E-04-4.32637E-16
 -1      2184 7.75358E-03 4.43853E-04-3.26965E-14
 -1      2185 7.88928E-03 3.96663E-04-3.32347E-14
 -1      2186 1.44713E-02 1.11783E-03-1.53244E-13
 -1      2187 7.46974E-03 5.47188E-04-3.17552E-14
 -1      2188 7.85962E-03 3.65978E-04-3.31775E-14
 -1      2189 7.64853E-03 3.04228E-04-3.28109E-14
 -1      2190 7.55672E-03 2.91388E-04-3.32573E-14
 -1      2191 7.71934E-03 3.36885E-04-3.35567E-14
 -1      2192 6.89822E-03-1.40511E-05-3.07816E-14
 -1      2193 6.47614E-03-2.51595E-04-2.92045E-14
 -1      2194 6.08731E-03-4.71998E-04-2.76286E-14
 -1      2195 5.74016E-03-6.36826E-04-2.56911E-14
 -1      2196 5.09254E-03-5.98133E-04-2.18531E-14
 -1      2197 4.39308E-03-2.38016E-04-1.89928E-14
 -1      2198 3.99334E-03-4.24704E-05-1.79314E-14
 -1      2199 3.65174E-03 9.55029E-05-1.71386E-14
 -1      2200 3.39711E-03 1.79432E-04-1.65245E-14
 -1      2201 3.39640E-03 2.53122E-04-1.62696E-14
 -1      2202 3.98881E-03 4.72770E-04-1.71384E-14
 -1      2203 4.45032E-03 7.14852E-04-1.81354E-14
 -1      2204 5.29680E-03 1.23167E-03-2.11854E-14
 -1      2205 5.39580E-03 1.27874E-03-2.15345E-14
 -1      2206 5.20286E-03 1.17669E-03-2.04659E-14
 -1      2207 5.96538E-03 1.31269E-03-2.49709E-14
 -1      2208 4.88889E-03 9.84772E-04-1.94065E-14
 -1      2209 3.30918E-03 2.15582E-04-1.62755E-14
 -1      2210 5.42135E-03-6.81074E-04-2.36861E-14
 -1      2211 1.03541E-03 3.58670E-04-8.26433E-16
 -1      2212 8.87246E-04 3.28392E-04-6.06733E-16
 -1      2213 5.39013E-04-4.25408E-05-4.94938E-16
 -1      2214 5.41714E-04-5.65965E-05-4.92174E-16
 -1      2215 5.45062E-04-7.16171E-05-4.87864E-16
 -1      2216 5.49008E-04-8.77084E-05-4.81901E-16
 -1      2217 6.56978E-04-7.58702E-05-6.63965E-16
 -1      2218 5.34504E-04 8.42220E-06-4.93583E-16
 -1      2219 5.34647E-04-3.87273E-06-4.95657E-16
 -1      2220 5.36275E-04 3.33401E-05-4.86427E-16
 -1      2221 5.35046E-04 2.07838E-05-4.90547E-16
 -1      2222 6.45707E-04 1.74823E-05-6.66540E-16
 -1      2223 5.40771E-04 5.95385E-05-4.74244E-16
 -1      2224 5.38188E-04 4.61471E-05-4.81142E-16
 -1      2225 6.48836E-04 4.71485E-05-6.55793E-16
 -1      2226 5.48238E-04 8.96799E-05-4.55677E-16
 -1      2227 5.44148E-04 7.40801E-05-4.65868E-16
 -1      2228 6.55595E-04 7.92164E-05-6.38121E-16
 -1      2229 5.58955E-04 1.25403E-04-4.28057E-16
 -1      2230 5.53185E-04 1.06739E-04-4.43168E-16
 -1      2231 6.66225E-04 1.16032E-04-6.11802E-16
 -1      2232 5.73985E-04 1.69378E-04-3.87711E-16
 -1      2233 5.65894E-04 1.46215E-04-4.09937E-16
 -1      2234 6.81188E-04 1.59667E-04-5.73529E-16
 -1      2235 6.98527E-03 7.76514E-04-3.07235E-14
 -1      2236 7.20234E-03 6.62770E-04-3.16169E-14
 -1      2237 1.32993E-03 4.03500E-04-1.37897E-15
 -1      2238 1.18275E-03 3.83586E-04-1.08359E-15
 -1      2239 1.08996E-03 3.36734E-04-1.00664E-15
 -1      2240 9.29300E-04-3.12073E-04-8.34944E-16
 -1      2241 1.07645E-03-3.40253E-04-1.09841E-15
 -1      2242 6.23096E-03 1.21151E-03-2.66645E-14
 -1      2243 6.40779E-03 1.11053E-03-2.76939E-14
 -1      2244 1.22312E-03-3.63706E-04-1.40031E-15
 -1      2245 1.36980E-03-3.82888E-04-1.74130E-15
 -1      2246 1.13275E-03-3.18241E-04-1.28750E-15
 -1      2247 1.51632E-03-3.98767E-04-2.12023E-15
 -1      2248 1.66301E-03-4.11719E-04-2.53783E-15
 -1      2249 1.42513E-03-3.55517E-04-1.97611E-15
 -1      2250 1.80995E-03-4.22575E-04-2.99358E-15
 -1      2251 1.95732E-03-4.31699E-04-3.48770E-15
 -1      2252 1.71799E-03-3.80711E-04-2.81691E-15
 -1      2253 2.10527E-03-4.39815E-04-4.01949E-15
 -1      2254 2.25392E-03-4.47312E-04-4.58973E-15
 -1      2255 2.01211E-03-3.98244E-04-3.80910E-15
 -1      2256 2.40344E-03-4.54852E-04-5.19765E-15
 -1      2257 2.55384E-03-4.62862E-04-5.84346E-15
 -1      2258 2.30854E-03-4.12337E-04-4.95158E-15
 -1      2259 2.70537E-03-4.71959E-04-6.52654E-15
 -1      2260 2.85792E-03-4.82607E-04-7.24712E-15
 -1      2261 2.60835E-03-4.27162E-04-6.24387E-15
 -1      2262 3.01178E-03-4.95355E-04-8.00487E-15
 -1      2263 3.16670E-03-5.10666E-04-8.79949E-15
 -1      2264 2.91267E-03-4.46926E-04-7.68420E-15
 -1      2265 3.32303E-03-5.28948E-04-9.63026E-15
 -1      2266 3.48029E-03-5.50570E-04-1.04987E-14
 -1      2267 3.22247E-03-4.75768E-04-9.27149E-15
 -1      2268 3.63884E-03-5.75666E-04-1.14031E-14
 -1      2269 3.79794E-03-6.04315E-04-1.23440E-14
 -1      2270 3.53832E-03-5.17304E-04-1.10044E-14
 -1      2271 3.95787E-03-6.36198E-04-1.33222E-14
 -1      2272 4.11765E-03-6.70822E-04-1.43371E-14
 -1      2273 3.85973E-03-5.73602E-04-1.28832E-14
 -1      2274 4.27739E-03-7.07241E-04-1.53886E-14
 -1      2275 4.43607E-03-7.44074E-04-1.64783E-14
 -1      2276 4.18453E-03-6.43407E-04-1.49078E-14
 -1      2277 4.59354E-03-7.79709E-04-1.76055E-14
 -1      2278 4.74924E-03-8.11855E-04-1.87697E-14
 -1      2279 4.50853E-03-7.19806E-04-1.70809E-14
 -1      2280 4.90277E-03-8.38499E-04-1.99729E-14
 -1      2281 5.05464E-03-8.57031E-04-2.12154E-14
 -1      2282 4.82667E-03-7.88578E-04-1.94053E-14
 -1      2283 5.20438E-03-8.65722E-04-2.24963E-14
 -1      2284 5.35363E-03-8.62833E-04-2.38143E-14
 -1      2285 5.13611E-03-8.29942E-04-2.18847E-14
 -1      2286 5.50195E-03-8.47706E-04-2.51697E-14
 -1      2287 5.65145E-03-8.20509E-04-2.65659E-14
 -1      2288 5.43922E-03-8.25793E-04-2.45184E-14
 -1      2289 5.80168E-03-7.82052E-04-2.79989E-14
 -1      2290 5.95422E-03-7.34163E-04-2.94671E-14
 -1      2291 5.74281E-03-7.69382E-04-2.73059E-14
 -1      2292 6.10859E-03-6.78685E-04-3.09730E-14
 -1      2293 6.26513E-03-6.18270E-04-3.25140E-14
 -1      2294 6.05356E-03-6.69165E-04-3.02439E-14
 -1      2295 6.42345E-03-5.54931E-04-3.40900E-14
 -1      2296 6.58298E-03-4.90874E-04-3.57021E-14
 -1      2297 6.37316E-03-5.43999E-04-3.33263E-14
 -1      2298 6.74354E-03-4.27665E-04-3.73476E-14
 -1      2299 6.90415E-03-3.66617E-04-3.90259E-14
 -1      2300 6.69831E-03-4.13393E-04-3.65486E-14
 -1      2301 7.06492E-03-3.08641E-04-4.07364E-14
 -1      2302 7.22490E-03-2.54185E-04-4.24766E-14
 -1      2303 7.02398E-03-2.90937E-04-3.99047E-14
 -1      2304 7.38437E-03-2.03578E-04-4.42463E-14
 -1      2305 7.54266E-03-1.56750E-04-4.60458E-14
 -1      2306 7.34620E-03-1.83117E-04-4.33846E-14
 -1      2307 7.70009E-03-1.13626E-04-4.78735E-14
 -1      2308 7.85624E-03-7.38922E-05-4.97259E-14
 -1      2309 7.66300E-03-9.11596E-05-4.69812E-14
 -1      2310 8.01141E-03-3.72575E-05-5.16039E-14
 -1      2311 8.16538E-03-3.34662E-06-5.35077E-14
 -1      2312 7.97402E-03-1.33998E-05-5.06848E-14
 -1      2313 8.31837E-03 2.82092E-05-5.54359E-14
 -1      2314 8.47032E-03 5.77558E-05-5.73885E-14
 -1      2315 8.27979E-03 5.29970E-05-5.44882E-14
 -1      2316 8.62138E-03 8.56537E-05-5.93661E-14
 -1      2317 8.77156E-03 1.12186E-04-6.13674E-14
 -1      2318 8.58117E-03 1.11024E-04-5.83901E-14
 -1      2319 8.92095E-03 1.37661E-04-6.33921E-14
 -1      2320 9.06962E-03 1.62295E-04-6.54374E-14
 -1      2321 8.87900E-03 1.63348E-04-6.23906E-14
 -1      2322 9.21760E-03 1.86326E-04-6.75030E-14
 -1      2323 9.36501E-03 2.09912E-04-6.95892E-14
 -1      2324 9.17403E-03 2.12127E-04-6.64794E-14
 -1      2325 9.51183E-03 2.33224E-04-7.16926E-14
 -1      2326 9.65819E-03 2.56371E-04-7.38151E-14
 -1      2327 9.46687E-03 2.58993E-04-7.06461E-14
 -1      2328 9.80408E-03 2.79467E-04-7.59545E-14
 -1      2329 9.94959E-03 3.02584E-04-7.81098E-14
 -1      2330 9.75799E-03 3.05106E-04-7.48858E-14
 -1      2331 1.00947E-02 3.25790E-04-8.02829E-14
 -1      2332 1.02395E-02 3.49131E-04-8.24724E-14
 -1      2333 1.00478E-02 3.51238E-04-7.91962E-14
 -1      2334 1.03841E-02 3.72640E-04-8.46770E-14
 -1      2335 1.05284E-02 3.96344E-04-8.68982E-14
 -1      2336 1.03365E-02 3.97868E-04-8.35707E-14
 -1      2337 1.06724E-02 4.20254E-04-8.91359E-14
 -1      2338 1.08163E-02 4.44382E-04-9.13884E-14
 -1      2339 1.06244E-02 4.45254E-04-8.80108E-14
 -1      2340 1.09600E-02 4.68725E-04-9.36575E-14
 -1      2341 1.11036E-02 4.93286E-04-9.59394E-14
 -1      2342 1.09117E-02 4.93506E-04-9.25146E-14
 -1      2343 1.12470E-02 5.18052E-04-9.82345E-14
 -1      2344 1.13903E-02 5.43021E-04-1.00545E-13
 -1      2345 1.11985E-02 5.42633E-04-9.70746E-14
 -1      2346 1.15336E-02 5.68177E-04-1.02870E-13
 -1      2347 1.16767E-02 5.93514E-04-1.05211E-13
 -1      2348 1.14850E-02 5.92581E-04-1.01692E-13
 -1      2349 1.18198E-02 6.19012E-04-1.07568E-13
 -1      2350 1.19629E-02 6.44666E-04-1.09938E-13
 -1      2351 1.17712E-02 6.43265E-04-1.06370E-13
 -1      2352 1.21058E-02 6.70457E-04-1.12321E-13
 -1      2353 1.22488E-02 6.96377E-04-1.14721E-13
 -1      2354 1.20572E-02 6.94584E-04-1.11107E-13
 -1      2355 1.23917E-02 7.22408E-04-1.17136E-13
 -1      2356 1.25346E-02 7.48545E-04-1.19565E-13
 -1      2357 1.23431E-02 7.46434E-04-1.15901E-13
 -1      2358 1.26775E-02 7.74770E-04-1.22007E-13
 -1      2359 1.28204E-02 8.01077E-04-1.24459E-13
 -1      2360 1.26289E-02 7.98715E-04-1.20755E-13
 -1      2361 1.29632E-02 8.27452E-04-1.26920E-13
 -1      2362 1.31061E-02 8.53889E-04-1.29393E-13
 -1      2363 1.29147E-02 8.51337E-04-1.25653E-13
 -1      2364 1.32489E-02 8.80377E-04-1.31874E-13
 -1      2365 1.33917E-02 9.06908E-04-1.34362E-13
 -1      2366 1.32004E-02 9.04218E-04-1.30593E-13
 -1      2367 1.35346E-02 9.33474E-04-1.36855E-13
 -1      2368 1.36774E-02 9.60069E-04-1.39356E-13
 -1      2369 1.34861E-02 9.57288E-04-1.35563E-13
 -1      2370 1.38203E-02 9.86683E-04-1.41865E-13
 -1      2371 1.39631E-02 1.01331E-03-1.44380E-13
 -1      2372 1.37718E-02 1.01048E-03-1.40562E-13
 -1      2373 1.92025E-03 4.49998E-04-2.93792E-15
 -1      2374 1.77185E-03 4.42194E-04-2.49150E-15
 -1      2375 2.21990E-03 4.61698E-04-3.94099E-15
 -1      2376 2.06949E-03 4.56354E-04-3.42108E-15
 -1      2377 1.97231E-03 4.16265E-04-3.26193E-15
 -1      2378 2.52470E-03 4.72186E-04-5.08919E-15
 -1      2379 2.37153E-03 4.66795E-04-4.49705E-15
 -1      2380 2.26995E-03 4.26485E-04-4.30935E-15
 -1      2381 2.83615E-03 4.87154E-04-6.38003E-15
 -1      2382 2.67948E-03 4.78738E-04-5.71692E-15
 -1      2383 2.57154E-03 4.36484E-04-5.49964E-15
 -1      2384 3.15579E-03 5.13640E-04-7.81191E-15
 -1      2385 2.99486E-03 4.98475E-04-7.07802E-15
 -1      2386 2.87859E-03 4.51972E-04-6.83130E-15
 -1      2387 3.48538E-03 5.60377E-04-9.38132E-15
 -1      2388 3.31933E-03 5.33862E-04-8.57987E-15
 -1      2389 3.19314E-03 4.80034E-04-8.30201E-15
 -1      2390 3.82678E-03 6.37487E-04-1.10896E-14
 -1      2391 3.65475E-03 5.94411E-04-1.02174E-14
 -1      2392 3.51812E-03 5.29488E-04-9.90942E-15
 -1      2393 4.18117E-03 7.54611E-04-1.29391E-14
 -1      2394 4.00282E-03 6.90458E-04-1.19967E-14
 -1      2395 3.85727E-03 6.10791E-04-1.16543E-14
 -1      2396 4.54684E-03 9.15709E-04-1.49370E-14
 -1      2397 4.36349E-03 8.29706E-04-1.39193E-14
 -1      2398 4.21393E-03 7.34295E-04-1.35414E-14
 -1      2399 4.91633E-03 1.10919E-03-1.70929E-14
 -1      2400 4.73248E-03 1.01017E-03-1.59947E-14
 -1      2401 4.58746E-03 9.04981E-04-1.55769E-14
 -1      2402 5.27646E-03 1.29772E-03-1.94157E-14
 -1      2403 5.09821E-03 1.20776E-03-1.82328E-14
 -1      2404 4.96763E-03 1.10864E-03-1.77711E-14
 -1      2405 5.61974E-03 1.42228E-03-2.19184E-14
 -1      2406 5.44916E-03 1.37243E-03-2.06453E-14
 -1      2407 5.33745E-03 1.30112E-03-2.01362E-14
 -1      2408 5.95510E-03 1.43490E-03-2.45967E-14
 -1      2409 5.78565E-03 1.44367E-03-2.32349E-14
 -1      2410 5.68916E-03 1.40916E-03-2.26818E-14
 -1      2411 6.30126E-03 1.34229E-03-2.74466E-14
 -1      2412 6.12499E-03 1.39845E-03-2.60008E-14
 -1      2413 6.03810E-03 1.38675E-03-2.54068E-14
 -1      2414 6.66491E-03 1.19872E-03-3.04593E-14
 -1      2415 6.48136E-03 1.27254E-03-2.89333E-14
 -1      2416 6.40288E-03 1.26198E-03-2.83023E-14
 -1      2417 7.03647E-03 1.06122E-03-3.36188E-14
 -1      2418 6.85157E-03 1.12658E-03-3.20218E-14
 -1      2419 6.78354E-03 1.10562E-03-3.13559E-14
 -1      2420 7.40215E-03 9.61546E-04-3.69144E-14
 -1      2421 7.22095E-03 1.00588E-03-3.52504E-14
 -1      2422 7.16184E-03 9.74826E-04-3.45535E-14
 -1      2423 7.75661E-03 9.06880E-04-4.03345E-14
 -1      2424 7.58130E-03 9.28855E-04-3.86090E-14
 -1      2425 7.52512E-03 8.90290E-04-3.78825E-14
 -1      2426 8.09878E-03 8.91695E-04-4.38704E-14
 -1      2427 7.92937E-03 8.94965E-04-4.20879E-14
 -1      2428 7.87110E-03 8.51299E-04-4.13311E-14
 -1      2429 8.43008E-03 9.06407E-04-4.75140E-14
 -1      2430 8.26575E-03 8.95918E-04-4.56787E-14
 -1      2431 8.20221E-03 8.48663E-04-4.48935E-14
 -1      2432 8.75237E-03 9.41798E-04-5.12637E-14
 -1      2433 8.59225E-03 9.22001E-04-4.93763E-14
 -1      2434 8.52228E-03 8.72177E-04-4.85642E-14
 -1      2435 9.06727E-03 9.90521E-04-5.51092E-14
 -1      2436 8.91063E-03 9.64850E-04-5.31745E-14
 -1      2437 8.83446E-03 9.13265E-04-5.23369E-14
 -1      2438 9.37609E-03 1.04723E-03-5.90486E-14
 -1      2439 9.22233E-03 1.01813E-03-5.70678E-14
 -1      2440 9.14084E-03 9.65456E-04-5.62040E-14
 -1      2441 9.67988E-03 1.10828E-03-6.30718E-14
 -1      2442 9.52851E-03 1.07739E-03-6.10500E-14
 -1      2443 9.44280E-03 1.02415E-03-6.01621E-14
 -1      2444 9.97956E-03 1.17128E-03-6.71769E-14
 -1      2445 9.83015E-03 1.13965E-03-6.51145E-14
 -1      2446 9.74127E-03 1.08623E-03-6.42064E-14
 -1      2447 1.02759E-02 1.23475E-03-7.13516E-14
 -1      2448 1.01281E-02 1.20303E-03-6.92548E-14
 -1      2449 1.00369E-02 1.14969E-03-6.83281E-14
 -1      2450 1.05696E-02 1.29782E-03-7.55937E-14
 -1      2451 1.04230E-02 1.26638E-03-7.34648E-14
 -1      2452 1.03303E-02 1.21326E-03-7.25198E-14
 -1      2453 1.08612E-02 1.36001E-03-7.99083E-14
 -1      2454 1.07156E-02 1.32905E-03-7.77422E-14
 -1      2455 1.06218E-02 1.27623E-03-7.67812E-14
 -1      2456 1.11511E-02 1.42112E-03-8.42969E-14
 -1      2457 1.10063E-02 1.39071E-03-8.20934E-14
 -1      2458 1.09118E-02 1.33823E-03-8.11132E-14
 -1      2459 1.14398E-02 1.48110E-03-8.87579E-14
 -1      2460 1.12956E-02 1.45126E-03-8.65184E-14
 -1      2461 1.12007E-02 1.39910E-03-8.55188E-14
 -1      2462 1.17275E-02 1.53999E-03-9.32894E-14
 -1      2463 1.15838E-02 1.51068E-03-9.10153E-14
 -1      2464 1.14886E-02 1.45882E-03-8.99962E-14
 -1      2465 1.20146E-02 1.59789E-03-9.78895E-14
 -1      2466 1.18711E-02 1.56906E-03-9.55815E-14
 -1      2467 1.17759E-02 1.51747E-03-9.45428E-14
 -1      2468 1.23012E-02 1.65492E-03-1.02548E-13
 -1      2469 1.21579E-02 1.62651E-03-1.00211E-13
 -1      2470 1.20627E-02 1.57515E-03-9.91551E-14
 -1      2471 1.25874E-02 1.71121E-03-1.07264E-13
 -1      2472 1.24443E-02 1.68315E-03-1.04897E-13
 -1      2473 1.23491E-02 1.63199E-03-1.03825E-13
 -1      2474 1.28733E-02 1.76689E-03-1.12033E-13
 -1      2475 1.27304E-02 1.73912E-03-1.09641E-13
 -1      2476 1.26352E-02 1.68811E-03-1.08553E-13
 -1      2477 1.31592E-02 1.82207E-03-1.16856E-13
 -1      2478 1.30163E-02 1.79454E-03-1.14438E-13
 -1      2479 1.29211E-02 1.74365E-03-1.13333E-13
 -1      2480 1.34449E-02 1.87686E-03-1.21724E-13
 -1      2481 1.33020E-02 1.84951E-03-1.19285E-13
 -1      2482 1.32070E-02 1.79872E-03-1.18162E-13
 -1      2483 1.37306E-02 1.93135E-03-1.26630E-13
 -1      2484 1.35877E-02 1.90414E-03-1.24175E-13
 -1      2485 1.34927E-02 1.85342E-03-1.23036E-13
 -1      2486 1.40162E-02 1.98561E-03-1.31568E-13
 -1      2487 1.38734E-02 1.95850E-03-1.29096E-13
 -1      2488 1.37784E-02 1.90784E-03-1.27946E-13
 -1      2489 1.43018E-02 2.03971E-03-1.36531E-13
 -1      2490 1.41590E-02 2.01268E-03-1.34045E-13
 -1      2491 1.40641E-02 1.96205E-03-1.32883E-13
 -1      2492 1.45875E-02 2.09372E-03-1.41518E-13
 -1      2493 1.44447E-02 2.06673E-03-1.39019E-13
 -1      2494 1.43498E-02 2.01612E-03-1.37850E-13
 -1      2495 1.48732E-02 2.14770E-03-1.46516E-13
 -1      2496 1.47303E-02 2.12071E-03-1.44017E-13
 -1      2497 1.46355E-02 2.07011E-03-1.42837E-13
 -1      2498 1.50215E-02 2.17661E-03-1.49100E-13
 -1      2499 1.47325E-02 1.82882E-03-1.48336E-13
 -1      2500 1.47590E-02 1.87100E-03-1.48260E-13
 -1      2501 1.46795E-02 1.74446E-03-1.48489E-13
 -1      2502 1.47059E-02 1.78664E-03-1.48412E-13
 -1      2503 1.45955E-02 1.78444E-03-1.46208E-13
 -1      2504 1.48378E-02 1.99609E-03-1.48031E-13
 -1      2505 1.48645E-02 2.03826E-03-1.47950E-13
 -1      2506 1.47853E-02 1.91282E-03-1.48183E-13
 -1      2507 1.48115E-02 1.95428E-03-1.48108E-13
 -1      2508 1.47010E-02 1.95202E-03-1.45903E-13
 -1      2509 1.46483E-02 1.86841E-03-1.46056E-13
 -1      2510 1.46266E-02 1.66010E-03-1.48634E-13
 -1      2511 1.46530E-02 1.70228E-03-1.48561E-13
 -1      2512 1.45425E-02 1.70011E-03-1.46356E-13
 -1      2513 1.45738E-02 1.57574E-03-1.48779E-13
 -1      2514 1.46002E-02 1.61792E-03-1.48707E-13
 -1      2515 1.44896E-02 1.61578E-03-1.46504E-13
 -1      2516 1.45212E-02 1.49138E-03-1.48923E-13
 -1      2517 1.45475E-02 1.53356E-03-1.48850E-13
 -1      2518 1.44369E-02 1.53145E-03-1.46649E-13
 -1      2519 1.44696E-02 1.40845E-03-1.49065E-13
 -1      2520 1.44954E-02 1.44991E-03-1.48994E-13
 -1      2521 1.43848E-02 1.44784E-03-1.46789E-13
 -1      2522 1.44172E-02 1.32409E-03-1.49206E-13
 -1      2523 1.44434E-02 1.36627E-03-1.49136E-13
 -1      2524 1.43327E-02 1.36422E-03-1.46929E-13
 -1      2525 1.43649E-02 1.23975E-03-1.49344E-13
 -1      2526 1.43910E-02 1.28192E-03-1.49276E-13
 -1      2527 1.42804E-02 1.27990E-03-1.47065E-13
 -1      2528 1.43126E-02 1.15541E-03-1.49475E-13
 -1      2529 1.43388E-02 1.19758E-03-1.49410E-13
 -1      2530 1.42281E-02 1.19557E-03-1.47196E-13
 -1      2531 7.88973E-03 4.02907E-04-3.40796E-14
 -1      2532 7.90786E-03 3.94412E-04-3.40915E-14
 -1      2533 7.41868E-03 5.62386E-04-3.22992E-14
 -1      2534 7.56293E-03 5.05882E-04-3.27234E-14
 -1      2535 1.62419E-03 4.32179E-04-2.08296E-15
 -1      2536 1.47692E-03 4.19576E-04-1.71190E-15
 -1      2537 1.67728E-03 4.00966E-04-2.36069E-15
 -1      2538 1.43444E-02 1.09564E-03-1.50966E-13
 -1      2539 7.89128E-03 3.82357E-04-3.40215E-14
 -1      2540 7.84148E-03 3.71471E-04-3.39521E-14
 -1      2541 7.91477E-03 3.95084E-04-3.48714E-14
 -1      2542 7.70551E-03 4.56050E-04-3.32506E-14
 -1      2543 7.81794E-03 4.25387E-04-3.37820E-14
 -1      2544 7.66573E-03 4.77351E-04-3.38047E-14
 -1      2545 5.96453E-04-2.15247E-04-4.00220E-16
 -1      2546 7.92671E-04-2.75168E-04-6.36400E-16
 -1      2547 8.51428E-04-2.61043E-04-7.79148E-16
 -1      2548 5.85544E-04-1.87081E-04-4.25658E-16
 -1      2549 6.98292E-03 5.34290E-05-3.17331E-14
 -1      2550 6.76823E-03-6.27501E-05-3.09022E-14
 -1      2551 4.48274E-03-2.84572E-04-1.89036E-14
 -1      2552 4.27342E-03-1.70193E-04-1.82441E-14
 -1      2553 3.88341E-03 4.06529E-04-1.64353E-14
 -1      2554 4.09620E-03 5.05049E-04-1.68612E-14
 -1      2555 5.35460E-04-1.63624E-05-4.96429E-16
 -1      2556 5.36914E-04-2.91651E-05-4.96266E-16
 -1      2557 6.49926E-04-4.24273E-05-6.71175E-16
 -1      2558 6.46112E-04-1.18752E-05-6.71731E-16
 -1      2559 5.89012E-03 1.34526E-03-2.45676E-14
 -1      2560 6.04685E-03 1.29511E-03-2.55678E-14
 -1      2561 4.78793E-03 9.08832E-04-1.86231E-14
 -1      2562 4.97709E-03 1.03622E-03-1.93224E-14
 -1      2563 5.60214E-03 1.34568E-03-2.27246E-14
 -1      2564 5.73377E-03 1.36107E-03-2.35813E-14
 -1      2565 3.30091E-03 2.05790E-04-1.57225E-14
 -1      2566 3.30014E-03 2.12456E-04-1.56918E-14
 -1      2567 4.33770E-03 6.33634E-04-1.74306E-14
 -1      2568 4.55325E-03 7.62299E-04-1.79811E-14
 -1      2569 3.56633E-03 2.87491E-04-1.58518E-14
 -1      2570 3.69195E-03 3.28605E-04-1.60508E-14
 -1      2571 5.46958E-03-6.90688E-04-2.40405E-14
 -1      2572 5.33684E-03-6.79302E-04-2.31444E-14
 -1      2573 3.34306E-03 2.28174E-04-1.57134E-14
 -1      2574 3.43176E-03 2.47662E-04-1.57360E-14
 -1      2575 3.30358E-03 2.12097E-04-1.51653E-14
 -1      2576 3.43639E-03 1.69574E-04-1.61895E-14
 -1      2577 3.35069E-03 1.89917E-04-1.59754E-14
 -1      2578 3.72953E-03 7.42521E-05-1.67265E-14
 -1      2579 3.57474E-03 1.25881E-04-1.63396E-14
 -1      2580 4.07132E-03-7.05203E-05-1.76664E-14
 -1      2581 3.91234E-03 9.01855E-07-1.72811E-14
 -1      2582 3.79614E-03 3.78410E-05-1.64674E-14
 -1      2583 4.16482E-03-1.25881E-04-1.75786E-14
 -1      2584 4.83888E-03-4.82995E-04-2.03560E-14
 -1      2585 4.70270E-03-4.06145E-04-1.97308E-14
 -1      2586 5.17519E-03-6.37821E-04-2.21596E-14
 -1      2587 5.01232E-03-5.68173E-04-2.12333E-14
 -1      2588 5.79354E-03-6.16554E-04-2.62909E-14
 -1      2589 5.63648E-03-6.70402E-04-2.51806E-14
 -1      2590 6.20789E-03-3.92218E-04-2.86473E-14
 -1      2591 6.03787E-03-4.95294E-04-2.78153E-14
 -1      2592 6.54821E-03-1.85147E-04-3.01681E-14
 -1      2593 6.37293E-03-2.93685E-04-2.94033E-14
 -1      2594 6.30592E-03-3.32088E-04-2.95930E-14
 -1      2595 7.37706E-03 2.31780E-04-3.31076E-14
 -1      2596 7.21379E-03 1.65296E-04-3.26468E-14
 -1      2597 6.59815E-03 1.00002E-03-2.87663E-14
 -1      2598 6.74805E-03 9.09425E-04-2.95462E-14
 -1      2599 7.70474E-04 3.04194E-04-4.50242E-16
 -1      2600 6.21084E-04 2.60905E-04-2.97979E-16
 -1      2601 5.93715E-04 2.34376E-04-3.07819E-16
 -1      2602 8.26677E-04 2.89325E-04-5.85185E-16
 -1      2603 6.14238E-03 1.26523E-03-2.62427E-14
 -1      2604 6.67227E-04-1.13861E-04-6.48651E-16
 -1      2605 5.53658E-04-1.05141E-04-4.73932E-16
 -1      2606 5.59029E-04-1.24112E-04-4.63144E-16
 -1      2607 7.32589E-03 6.15694E-04-3.25783E-14
 -1      2608 6.90043E-03 8.38049E-04-3.06886E-14
 -1      2609 5.80073E-04 2.03696E-04-3.41876E-16
 -1      2610 7.09491E-03 1.13857E-04-3.27651E-14
 -1      2611 6.49466E-03 1.07339E-03-2.84233E-14
 -1      2612 6.65874E-03-1.17351E-04-3.11024E-14
 -1      2613 7.84952E-03 3.80220E-04-3.52484E-14
 -1      2614 7.79113E-03 3.63922E-04-3.43982E-14
 -1      2615 7.73071E-03 3.53304E-04-3.48456E-14
 -1      2616 1.49266E-02 2.12600E-03-1.47920E-13
 -1      2617 1.48899E-02 2.08990E-03-1.47706E-13
 -1      2618 5.91677E-03-5.61125E-04-2.72768E-14
 -1      2619 5.81629E-03-6.12141E-04-2.67420E-14
 -1      2620 6.03841E-03-4.97403E-04-2.82811E-14
 -1      2621 7.87225E-03 4.17229E-04-3.46411E-14
 -1      2622 4.92986E-03-5.40530E-04-2.06462E-14
 -1      2623 1.38358E-03 3.76046E-04-1.60874E-15
 -1      2624 3.78396E-03 3.61954E-04-1.57808E-14
 -1      2625 5.76562E-04-1.62154E-04-4.45905E-16
 -1      2626 4.56500E-03-3.41774E-04-1.89570E-14
 -1      2627 5.54203E-03-6.88545E-04-2.46142E-14
 -1      2628 3.47244E-03 2.55507E-04-1.52968E-14
 -1      2629 4.20049E-03 5.57686E-04-1.67107E-14
 -1      2630 3.30864E-03 1.93833E-04-1.53925E-14
 -1      2631 5.49719E-03 1.32000E-03-2.19698E-14
 -1      2632 5.08820E-03 1.10843E-03-1.96484E-14
 -1      2633 5.18350E-03 1.17345E-03-1.99768E-14
 -1      2634 4.97350E-03 1.04102E-03-1.88486E-14
 -1      2635 4.65681E-03 8.28148E-04-1.78975E-14
 -1      2636 5.83197E-03 1.36274E-03-2.41534E-14
 -1      2637 5.23992E-03-6.64554E-04-2.24975E-14
 -1      2638 3.49198E-03 1.42975E-04-1.57869E-14
 -1      2639 1.41861E-02 1.05268E-03-1.48350E-13
 -1      2640 1.42650E-02 1.11443E-03-1.49084E-13
 -1      2641 1.41544E-02 1.11243E-03-1.46867E-13
 -1      2642 1.40591E-02 1.03048E-03-1.46085E-13
 -1      2643 7.48317E-03 2.73743E-04-3.38492E-14
 -1      2644 6.98116E-04 2.21970E-04-4.96321E-16
 -1      2645 1.47529E-02 2.04546E-03-1.45582E-13
 -1      2646 1.40107E-02 1.05428E-03-1.44771E-13
 -1      2647 7.63344E-04 6.30625E-05-8.51261E-16
 -1      2648 7.60333E-04 4.57313E-05-8.59962E-16
 -1      2649 7.58383E-04 2.85967E-05-8.66603E-16
 -1      2650 7.57576E-04 1.17488E-05-8.71631E-16
 -1      2651 8.72466E-04 4.16782E-05-1.09327E-15
 -1      2652 7.87287E-04 1.44075E-04-7.91169E-16
 -1      2653 7.79515E-04 1.21631E-04-8.10631E-16
 -1      2654 8.07072E-04 1.95183E-04-7.40591E-16
 -1      2655 7.96518E-04 1.68512E-04-7.68252E-16
 -1      2656 9.11333E-04 1.73433E-04-9.93319E-16
 -1      2657 1.45846E-02 1.96686E-03-1.43327E-13
 -1      2658 1.46100E-02 2.01849E-03-1.43082E-13
 -1      2659 1.44671E-02 1.99151E-03-1.40587E-13
 -1      2660 8.12782E-04 2.44251E-04-6.56498E-16
 -1      2661 6.79112E-03-4.28029E-05-3.21867E-14
 -1      2662 6.60060E-03-1.56093E-04-3.14327E-14
 -1      2663 1.33533E-03-3.13326E-04-1.83164E-15
 -1      2664 1.48097E-03-3.27778E-04-2.21718E-15
 -1      2665 1.62676E-03-3.39692E-04-2.64021E-15
 -1      2666 1.77287E-03-3.49405E-04-3.10102E-15
 -1      2667 1.53676E-03-2.99711E-04-2.46438E-15
 -1      2668 1.91931E-03-3.57554E-04-3.59910E-15
 -1      2669 2.06624E-03-3.64501E-04-4.13437E-15
 -1      2670 1.82733E-03-3.17887E-04-3.39021E-15
 -1      2671 2.21376E-03-3.70843E-04-4.70698E-15
 -1      2672 2.36202E-03-3.76994E-04-5.31681E-15
 -1      2673 2.11953E-03-3.30528E-04-4.46394E-15
 -1      2674 2.51122E-03-3.83514E-04-5.96296E-15
 -1      2675 2.66145E-03-3.90891E-04-6.64627E-15
 -1      2676 2.41433E-03-3.41277E-04-5.68434E-15
 -1      2677 2.81303E-03-3.99642E-04-7.36713E-15
 -1      2678 2.96598E-03-4.10344E-04-8.12318E-15
 -1      2679 2.71318E-03-3.53969E-04-7.05157E-15
 -1      2680 3.12070E-03-4.23437E-04-8.91576E-15
 -1      2681 3.27708E-03-4.39560E-04-9.74444E-15
 -1      2682 3.01793E-03-3.72714E-04-8.56304E-15
 -1      2683 3.43559E-03-4.59014E-04-1.06092E-14
 -1      2684 3.59582E-03-4.82385E-04-1.15106E-14
 -1      2685 3.33063E-03-4.01893E-04-1.02180E-14
 -1      2686 3.75825E-03-5.09724E-04-1.24477E-14
 -1      2687 3.92201E-03-5.41232E-04-1.34216E-14
 -1      2688 3.65292E-03-4.45831E-04-1.20167E-14
 -1      2689 4.08740E-03-5.76514E-04-1.44317E-14
 -1      2690 4.25309E-03-6.14901E-04-1.54777E-14
 -1      2691 3.98479E-03-5.07607E-04-1.39585E-14
 -1      2692 4.41907E-03-6.55333E-04-1.65610E-14
 -1      2693 4.58379E-03-6.95621E-04-1.76821E-14
 -1      2694 4.32308E-03-5.86327E-04-1.60458E-14
 -1      2695 4.74677E-03-7.33984E-04-1.88420E-14
 -1      2696 4.90736E-03-7.66559E-04-2.00399E-14
 -1      2697 4.66081E-03-6.73051E-04-1.82821E-14
 -1      2698 5.06493E-03-7.91192E-04-2.12769E-14
 -1      2699 5.22061E-03-8.04039E-04-2.25533E-14
 -1      2700 4.98954E-03-7.46707E-04-2.06728E-14
 -1      2701 5.37399E-03-8.03499E-04-2.38686E-14
 -1      2702 5.52763E-03-7.88098E-04-2.52226E-14
 -1      2703 5.30651E-03-7.78496E-04-2.32194E-14
 -1      2704 5.68082E-03-7.58133E-04-2.66149E-14
 -1      2705 5.83703E-03-7.15100E-04-2.80467E-14
 -1      2706 5.61779E-03-7.47715E-04-2.59264E-14
 -1      2707 5.99534E-03-6.60844E-04-2.95158E-14
 -1      2708 6.15664E-03-5.99468E-04-3.10216E-14
 -1      2709 5.93558E-03-6.54796E-04-2.87888E-14
 -1      2710 6.32024E-03-5.33151E-04-3.25624E-14
 -1      2711 6.48539E-03-4.65441E-04-3.41392E-14
 -1      2712 6.26565E-03-5.23725E-04-3.18001E-14
 -1      2713 6.65164E-03-3.98075E-04-3.57518E-14
 -1      2714 6.81748E-03-3.33186E-04-3.73976E-14
 -1      2715 6.60380E-03-3.82683E-04-3.49562E-14
 -1      2716 6.98289E-03-2.71747E-04-3.90752E-14
 -1      2717 7.14661E-03-2.14318E-04-4.07842E-14
 -1      2718 6.94163E-03-2.51375E-04-3.82475E-14
 -1      2719 7.30894E-03-1.61291E-04-4.25246E-14
 -1      2720 7.46911E-03-1.12435E-04-4.42926E-14
 -1      2721 7.27250E-03-1.38029E-04-4.16648E-14
 -1      2722 7.62756E-03-6.77532E-05-4.60898E-14
 -1      2723 7.78393E-03-2.67027E-05-4.79152E-14
 -1      2724 7.59366E-03-4.31882E-05-4.52024E-14
 -1      2725 7.93869E-03 1.09192E-05-4.97670E-14
 -1      2726 8.09173E-03 4.56737E-05-5.16423E-14
 -1      2727 7.90532E-03 3.59198E-05-4.88498E-14
 -1      2728 8.24342E-03 7.78509E-05-5.35433E-14
 -1      2729 8.39379E-03 1.07923E-04-5.54685E-14
 -1      2730 8.20917E-03 1.02936E-04-5.25998E-14
 -1      2731 8.54311E-03 1.36193E-04-5.74182E-14
 -1      2732 8.69148E-03 1.63022E-04-5.93922E-14
 -1      2733 8.50716E-03 1.61260E-04-5.64485E-14
 -1      2734 8.83905E-03 1.88686E-04-6.13916E-14
 -1      2735 8.98593E-03 2.13445E-04-6.34136E-14
 -1      2736 8.80105E-03 2.13720E-04-6.03953E-14
 -1      2737 9.13223E-03 2.37526E-04-6.54573E-14
 -1      2738 9.27804E-03 2.61109E-04-6.75200E-14
 -1      2739 9.09217E-03 2.62523E-04-6.44365E-14
 -1      2740 9.42341E-03 2.84366E-04-6.96008E-14
 -1      2741 9.56844E-03 3.07419E-04-7.17015E-14
 -1      2742 9.38145E-03 3.09317E-04-6.85595E-14
 -1      2743 9.71314E-03 3.30388E-04-7.38208E-14
 -1      2744 9.85759E-03 3.53350E-04-7.59571E-14
 -1      2745 9.66954E-03 3.55273E-04-7.27577E-14
 -1      2746 1.00018E-02 3.76385E-04-7.81103E-14
 -1      2747 1.01458E-02 3.99537E-04-8.02802E-14
 -1      2748 9.95686E-03 4.01183E-04-7.70275E-14
 -1      2749 1.02897E-02 4.22852E-04-8.24673E-14
 -1      2750 1.04334E-02 4.46355E-04-8.46699E-14
 -1      2751 1.02437E-02 4.47548E-04-8.13644E-14
 -1      2752 1.05770E-02 4.70067E-04-8.68875E-14
 -1      2753 1.07204E-02 4.93996E-04-8.91221E-14
 -1      2754 1.05302E-02 4.94648E-04-8.57659E-14
 -1      2755 1.08638E-02 5.18148E-04-9.13724E-14
 -1      2756 1.10071E-02 5.42523E-04-9.36387E-14
 -1      2757 1.08164E-02 5.42611E-04-9.02335E-14
 -1      2758 1.11503E-02 5.67114E-04-9.59165E-14
 -1      2759 1.12935E-02 5.91916E-04-9.82094E-14
 -1      2760 1.11025E-02 5.91461E-04-9.47607E-14
 -1      2761 1.14366E-02 6.16916E-04-1.00517E-13
 -1      2762 1.15797E-02 6.42108E-04-1.02837E-13
 -1      2763 1.13885E-02 6.41155E-04-9.93444E-14
 -1      2764 1.17227E-02 6.67473E-04-1.05174E-13
 -1      2765 1.18657E-02 6.93004E-04-1.07528E-13
 -1      2766 1.16744E-02 6.91613E-04-1.03983E-13
 -1      2767 1.20087E-02 7.18683E-04-1.09896E-13
 -1      2768 1.21516E-02 7.44502E-04-1.12274E-13
 -1      2769 1.19603E-02 7.42737E-04-1.08685E-13
 -1      2770 1.22946E-02 7.70443E-04-1.14671E-13
 -1      2771 1.24375E-02 7.96499E-04-1.17083E-13
 -1      2772 1.22461E-02 7.94423E-04-1.13444E-13
 -1      2773 1.25804E-02 8.22652E-04-1.19506E-13
 -1      2774 1.27233E-02 8.48897E-04-1.21942E-13
 -1      2775 1.25319E-02 8.46572E-04-1.18261E-13
 -1      2776 1.28662E-02 8.75218E-04-1.24391E-13
 -1      2777 1.30090E-02 9.01609E-04-1.26848E-13
 -1      2778 1.28177E-02 8.99089E-04-1.23129E-13
 -1      2779 1.31519E-02 9.28059E-04-1.29316E-13
 -1      2780 1.32948E-02 9.54559E-04-1.31792E-13
 -1      2781 1.31034E-02 9.51894E-04-1.28044E-13
 -1      2782 1.34376E-02 9.81101E-04-1.34277E-13
 -1      2783 1.35805E-02 1.00768E-03-1.36766E-13
 -1      2784 1.33891E-02 1.00491E-03-1.32991E-13
 -1      2785 1.37233E-02 1.03428E-03-1.39262E-13
 -1      2786 1.38662E-02 1.06091E-03-1.41766E-13
 -1      2787 1.36749E-02 1.05808E-03-1.37967E-13
 -1      2788 2.31677E-03 3.92060E-04-4.68199E-15
 -1      2789 2.16922E-03 3.87805E-04-4.11891E-15
 -1      2790 7.60994E-03 3.19808E-04-3.49495E-14
 -1      2791 7.45763E-03 2.67831E-04-3.47894E-14
 -1      2792 6.41410E-03 1.13994E-03-2.81297E-14
 -1      2793 6.58420E-03 1.04113E-03-2.92121E-14
 -1      2794 2.02229E-03 3.83024E-04-3.59185E-15
 -1      2795 1.87569E-03 3.77303E-04-3.10034E-15
 -1      2796 2.07003E-03 3.50524E-04-3.92698E-15
 -1      2797 2.91564E-03 4.17716E-04-7.28650E-15
 -1      2798 2.76412E-03 4.08570E-04-6.58329E-15
 -1      2799 3.22432E-03 4.46854E-04-8.79526E-15
 -1      2800 3.06889E-03 4.30093E-04-8.02352E-15
 -1      2801 2.94755E-03 3.84271E-04-7.74493E-15
 -1      2802 3.54426E-03 4.97946E-04-1.04395E-14
 -1      2803 3.38264E-03 4.68889E-04-9.60049E-15
 -1      2804 3.24962E-03 4.13728E-04-9.29133E-15
 -1      2805 3.88136E-03 5.81808E-04-1.22218E-14
 -1      2806 3.71049E-03 5.34708E-04-1.13132E-14
 -1      2807 3.56413E-03 4.65077E-04-1.09734E-14
 -1      2808 4.24169E-03 7.10464E-04-1.41445E-14
 -1      2809 4.05896E-03 6.39491E-04-1.31651E-14
 -1      2810 3.89951E-03 5.50129E-04-1.27909E-14
 -1      2811 4.62691E-03 8.90787E-04-1.62164E-14
 -1      2812 4.43264E-03 7.93169E-04-1.51611E-14
 -1      2813 4.26534E-03 6.83131E-04-1.47486E-14
 -1      2814 5.11842E-03 1.16204E-03-1.90540E-14
 -1      2815 4.92231E-03 1.05138E-03-1.78957E-14
 -1      2816 5.31096E-03 1.26208E-03-2.02580E-14
 -1      2817 6.54562E-03 1.14649E-03-2.93646E-14
 -1      2818 6.34816E-03 1.23304E-03-2.78682E-14
 -1      2819 7.29310E-03 8.87529E-04-3.54895E-14
 -1      2820 7.10614E-03 9.40098E-04-3.38553E-14
 -1      2821 7.64983E-03 8.22217E-04-3.88504E-14
 -1      2822 7.47513E-03 8.49175E-04-3.71554E-14
 -1      2823 7.43095E-03 8.05258E-04-3.64291E-14
 -1      2824 7.98436E-03 8.00196E-04-4.23300E-14
 -1      2825 7.81970E-03 8.06783E-04-4.05761E-14
 -1      2826 7.77482E-03 7.60766E-04-3.98217E-14
 -1      2827 8.30315E-03 8.09972E-04-4.59180E-14
 -1      2828 8.14539E-03 8.01924E-04-4.41107E-14
 -1      2829 8.09502E-03 7.55153E-04-4.33288E-14
 -1      2830 8.61188E-03 8.41593E-04-4.96139E-14
 -1      2831 8.45848E-03 8.23608E-04-4.77520E-14
 -1      2832 8.40062E-03 7.76022E-04-4.69438E-14
 -1      2833 8.91435E-03 8.87603E-04-5.34086E-14
 -1      2834 8.76369E-03 8.63179E-04-5.14990E-14
 -1      2835 8.69816E-03 8.14518E-04-5.06635E-14
 -1      2836 9.21279E-03 9.42573E-04-5.72976E-14
 -1      2837 9.06393E-03 9.14225E-04-5.53414E-14
 -1      2838 8.99149E-03 8.64481E-04-5.44810E-14
 -1      2839 9.50844E-03 1.00269E-03-6.12764E-14
 -1      2840 9.36086E-03 9.72160E-04-5.92770E-14
 -1      2841 9.28263E-03 9.21517E-04-5.83907E-14
 -1      2842 9.80200E-03 1.06537E-03-6.53399E-14
 -1      2843 9.65541E-03 1.03382E-03-6.32979E-14
 -1      2844 9.57256E-03 9.82539E-04-6.23902E-14
 -1      2845 1.00939E-02 1.12894E-03-6.94790E-14
 -1      2846 9.94811E-03 1.09712E-03-6.74008E-14
 -1      2847 9.86172E-03 1.04545E-03-6.64734E-14
 -1      2848 1.03845E-02 1.19238E-03-7.36892E-14
 -1      2849 1.02393E-02 1.16072E-03-7.15753E-14
 -1      2850 1.01503E-02 1.10887E-03-7.06318E-14
 -1      2851 1.06740E-02 1.25507E-03-7.79678E-14
 -1      2852 1.05293E-02 1.22384E-03-7.58188E-14
 -1      2853 1.04383E-02 1.17196E-03-7.48580E-14
 -1      2854 1.09625E-02 1.31674E-03-8.23164E-14
 -1      2855 1.08183E-02 1.28605E-03-8.01333E-14
 -1      2856 1.07259E-02 1.23424E-03-7.91545E-14
 -1      2857 1.12503E-02 1.37726E-03-8.67405E-14
 -1      2858 1.11065E-02 1.34715E-03-8.45200E-14
 -1      2859 1.10131E-02 1.29546E-03-8.35205E-14
 -1      2860 1.15376E-02 1.43667E-03-9.12310E-14
 -1      2861 1.13940E-02 1.40710E-03-8.89765E-14
 -1      2862 1.13000E-02 1.35557E-03-8.79590E-14
 -1      2863 1.18244E-02 1.49502E-03-9.57935E-14
 -1      2864 1.16810E-02 1.46597E-03-9.35052E-14
 -1      2865 1.15866E-02 1.41460E-03-9.24678E-14
 -1      2866 1.21109E-02 1.55244E-03-1.00420E-13
 -1      2867 1.19677E-02 1.52384E-03-9.80990E-14
 -1      2868 1.18730E-02 1.47262E-03-9.70440E-14
 -1      2869 1.23971E-02 1.60906E-03-1.05101E-13
 -1      2870 1.22540E-02 1.58085E-03-1.02753E-13
 -1      2871 1.21591E-02 1.52977E-03-1.01682E-13
 -1      2872 1.26831E-02 1.66501E-03-1.09840E-13
 -1      2873 1.25401E-02 1.63712E-03-1.07464E-13
 -1      2874 1.24452E-02 1.58615E-03-1.06377E-13
 -1      2875 1.29690E-02 1.72041E-03-1.14630E-13
 -1      2876 1.28261E-02 1.69277E-03-1.12230E-13
 -1      2877 1.27311E-02 1.64191E-03-1.11127E-13
 -1      2878 1.32548E-02 1.77536E-03-1.19466E-13
 -1      2879 1.31119E-02 1.74793E-03-1.17043E-13
 -1      2880 1.30169E-02 1.69715E-03-1.15924E-13
 -1      2881 1.35406E-02 1.82997E-03-1.24342E-13
 -1      2882 1.33977E-02 1.80270E-03-1.21900E-13
 -1      2883 1.33027E-02 1.75198E-03-1.20765E-13
 -1      2884 1.38263E-02 1.88431E-03-1.29256E-13
 -1      2885 1.36835E-02 1.85717E-03-1.26796E-13
 -1      2886 1.35885E-02 1.80650E-03-1.25648E-13
 -1      2887 1.41120E-02 1.93847E-03-1.34199E-13
 -1      2888 1.39692E-02 1.91141E-03-1.31723E-13
 -1      2889 1.38742E-02 1.86078E-03-1.30564E-13
 -1      2890 1.43610E-02 1.97851E-03-1.38630E-13
 -1      2891 1.42182E-02 1.95150E-03-1.36144E-13
 -1      2892 1.41232E-02 1.90089E-03-1.34977E-13
 -1      2893 1.43355E-02 1.92690E-03-1.38877E-13
 -1      2894 1.00853E-03 2.93376E-04-9.40559E-16
 -1      2895 8.80801E-04 2.32193E-04-8.12596E-16
 -1      2896 9.97226E-04 2.36971E-04-1.04880E-15
 -1      2897 1.15458E-03 3.16201E-04-1.21229E-15
 -1      2898 1.43527E-02 1.57147E-03-1.44376E-13
 -1      2899 1.43791E-02 1.61362E-03-1.44303E-13
 -1      2900 1.39622E-02 1.07808E-03-1.43464E-13
 -1      2901 1.40583E-02 1.09525E-03-1.45164E-13
 -1      2902 1.39138E-02 1.10187E-03-1.42159E-13
 -1      2903 1.44585E-02 1.74006E-03-1.44080E-13
 -1      2904 1.44850E-02 1.78221E-03-1.44004E-13
 -1      2905 1.43000E-02 1.48718E-03-1.44517E-13
 -1      2906 1.43264E-02 1.52932E-03-1.44448E-13
 -1      2907 1.42158E-02 1.52718E-03-1.42251E-13
 -1      2908 1.44055E-02 1.65576E-03-1.44228E-13
 -1      2909 1.44320E-02 1.69791E-03-1.44155E-13
 -1      2910 1.43215E-02 1.69570E-03-1.41956E-13
 -1      2911 1.42686E-02 1.61144E-03-1.42106E-13
 -1      2912 6.81039E-03 9.13179E-04-3.06112E-14
 -1      2913 7.02233E-03 7.95951E-04-3.18115E-14
 -1      2914 1.42484E-02 1.40431E-03-1.44655E-13
 -1      2915 1.42742E-02 1.44574E-03-1.44586E-13
 -1      2916 1.41636E-02 1.44364E-03-1.42388E-13
 -1      2917 1.41959E-02 1.32001E-03-1.44791E-13
 -1      2918 1.42221E-02 1.36216E-03-1.44724E-13
 -1      2919 1.41115E-02 1.36009E-03-1.42523E-13
 -1      2920 1.41436E-02 1.23571E-03-1.44923E-13
 -1      2921 1.41697E-02 1.27786E-03-1.44857E-13
 -1      2922 1.40591E-02 1.27582E-03-1.42655E-13
 -1      2923 4.99257E-03-5.86817E-04-2.08758E-14
 -1      2924 4.84079E-03-5.12114E-04-2.00084E-14
 -1      2925 7.96482E-04-2.21479E-04-7.41499E-16
 -1      2926 9.29611E-04-2.52595E-04-9.58259E-16
 -1      2927 7.94126E-03 4.05264E-04-3.58571E-14
 -1      2928 7.92151E-03 3.99116E-04-3.57859E-14
 -1      2929 7.62404E-03 5.04334E-04-3.43357E-14
 -1      2930 7.74852E-03 4.64866E-04-3.48762E-14
 -1      2931 3.26594E-03 2.00537E-04-1.46233E-14
 -1      2932 3.30642E-03 2.09957E-04-1.46430E-14
 -1      2933 5.59973E-03-6.83028E-04-2.51586E-14
 -1      2934 5.45322E-03-6.99980E-04-2.40203E-14
 -1      2935 3.31814E-03 1.78268E-04-1.49271E-14
 -1      2936 3.26752E-03 1.87199E-04-1.46833E-14
 -1      2937 1.72948E-03 3.69937E-04-2.64522E-15
 -1      2938 1.58336E-03 3.60574E-04-2.22710E-15
 -1      2939 1.78037E-03 3.39355E-04-2.93659E-15
 -1      2940 2.61401E-03 4.01765E-04-5.91440E-15
 -1      2941 2.46492E-03 3.96536E-04-5.28088E-15
 -1      2942 2.36034E-03 3.58616E-04-5.06009E-15
 -1      2943 2.65224E-03 3.68100E-04-6.33383E-15
 -1      2944 1.05947E-03-2.75635E-04-1.20580E-15
 -1      2945 1.20462E-03-2.96337E-04-1.52011E-15
 -1      2946 1.26200E-03-2.72880E-04-1.72595E-15
 -1      2947 1.00352E-03-2.36583E-04-1.15276E-15
 -1      2948 3.68344E-03 3.25288E-04-1.50823E-14
 -1      2949 3.85779E-03 3.94276E-04-1.54494E-14
 -1      2950 7.28166E-03 6.57691E-04-3.30384E-14
 -1      2951 7.46670E-03 5.68358E-04-3.37402E-14
 -1      2952 4.61854E-03-4.00200E-04-1.88578E-14
 -1      2953 4.42752E-03-2.91040E-04-1.80570E-14
 -1      2954 7.72933E-04 1.00884E-04-8.26636E-16
 -1      2955 7.67568E-04 8.14168E-05-8.40108E-16
 -1      2956 8.79812E-04 8.10054E-05-1.07175E-15
 -1      2957 8.92704E-04 1.24078E-04-1.03934E-15
 -1      2958 4.50452E-03 7.40827E-04-1.70033E-14
 -1      2959 4.70868E-03 8.75789E-04-1.76167E-14
 -1      2960 7.69481E-04-7.69075E-05-8.69422E-16
 -1      2961 7.74844E-04-9.71613E-05-8.62605E-16
 -1      2962 5.77246E-03 1.37740E-03-2.36592E-14
 -1      2963 5.90769E-03 1.36147E-03-2.46492E-14
 -1      2964 6.56461E-04-1.62412E-04-5.74112E-16
 -1      2965 5.29282E-03-6.87199E-04-2.28523E-14
 -1      2966 5.15263E-03-6.48788E-04-2.18766E-14
 -1      2967 4.07249E-03 4.96387E-04-1.58628E-14
 -1      2968 4.28620E-03 6.10613E-04-1.64063E-14
 -1      2969 1.41059E-02 1.13623E-03-1.45555E-13
 -1      2970 3.51982E-03 1.14397E-04-1.52011E-14
 -1      2971 3.40371E-03 1.52597E-04-1.50647E-14
 -1      2972 3.32712E-03 1.52015E-04-1.43586E-14
 -1      2973 1.44195E-03 3.49148E-04-1.85668E-15
 -1      2974 1.29594E-03 3.34126E-04-1.51172E-15
 -1      2975 1.21465E-03 2.94132E-04-1.42068E-15
 -1      2976 1.49530E-03 3.21655E-04-2.10265E-15
 -1      2977 6.08308E-03 1.30874E-03-2.58912E-14
 -1      2978 6.24217E-03 1.23211E-03-2.69981E-14
 -1      2979 3.38260E-03 2.30416E-04-1.45753E-14
 -1      2980 3.49659E-03 2.61464E-04-1.46811E-14
 -1      2981 7.86338E-03 4.33218E-04-3.55052E-14
 -1      2982 7.92554E-03 4.18345E-04-3.58100E-14
 -1      2983 6.40535E-03-2.76402E-04-3.05634E-14
 -1      2984 6.26354E-03-3.66947E-04-2.97894E-14
 -1      2985 7.21470E-03 1.67961E-04-3.40405E-14
 -1      2986 7.00404E-03 6.95136E-05-3.31080E-14
 -1      2987 6.93604E-03 2.27274E-05-3.34451E-14
 -1      2988 7.81222E-04-1.18712E-04-8.53389E-16
 -1      2989 7.88548E-04-1.41812E-04-8.41029E-16
 -1      2990 8.95228E-04-1.20105E-04-1.08743E-15
 -1      2991 8.70600E-04 3.87385E-06-1.10514E-15
 -1      2992 7.57872E-04-5.10491E-06-8.74734E-16
 -1      2993 7.59240E-04-2.21648E-05-8.76279E-16
 -1      2994 1.45582E-02 1.92507E-03-1.43404E-13
 -1      2995 3.55416E-03 2.87327E-04-1.43622E-14
 -1      2996 7.10266E-03 8.03307E-04-3.28751E-14
 -1      2997 7.18305E-03 7.29345E-04-3.29604E-14
 -1      2998 7.33672E-03 6.78642E-04-3.41261E-14
 -1      2999 7.89987E-03 3.94489E-04-3.62368E-14
 -1      3000 7.37082E-03 2.29578E-04-3.51384E-14
 -1      3001 7.29520E-03 1.85810E-04-3.54845E-14
 -1      3002 7.51367E-03 2.75088E-04-3.62503E-14
 -1      3003 1.43743E-02 1.77962E-03-1.41807E-13
 -1      3004 1.45113E-02 1.82401E-03-1.43929E-13
 -1      3005 1.45376E-02 1.86580E-03-1.43853E-13
 -1      3006 6.72454E-03 9.88291E-04-3.03038E-14
 -1      3007 5.42336E-03 1.30810E-03-2.11043E-14
 -1      3008 6.74316E-03 1.03695E-03-3.07730E-14
 -1      3009 5.85523E-03 1.39787E-03-2.40863E-14
 -1      3010 5.67605E-03 1.39204E-03-2.27449E-14
 -1      3011 6.12951E-03 1.33431E-03-2.62052E-14
 -1      3012 5.94523E-03 1.38205E-03-2.47976E-14
 -1      3013 6.94264E-03 9.57300E-04-3.23401E-14
 -1      3014 6.54398E-03-2.03164E-04-3.16320E-14
 -1      3015 5.59647E-03 1.36934E-03-2.22818E-14
 -1      3016 6.14267E-03-4.44563E-04-2.92249E-14
 -1      3017 6.03761E-03-5.13669E-04-2.86638E-14
 -1      3018 6.24781E-03-3.95572E-04-3.01806E-14
 -1      3019 7.84149E-03 4.56115E-04-3.60464E-14
 -1      3020 4.69122E-03-4.61915E-04-1.90708E-14
 -1      3021 5.05598E-03-6.28372E-04-2.12119E-14
 -1      3022 1.41320E-02 1.17838E-03-1.45495E-13
 -1      3023 3.94351E-03 4.46674E-04-1.51560E-14
 -1      3024 7.70478E-03 3.45396E-04-3.57993E-14
 -1      3025 4.21926E-03-1.75571E-04-1.73542E-14
 -1      3026 4.04352E-03-8.67277E-05-1.67978E-14
 -1      3027 5.83029E-03-6.13552E-04-2.70915E-14
 -1      3028 5.71588E-03-6.54595E-04-2.61157E-14
 -1      3029 5.62565E-03-6.84424E-04-2.54952E-14
 -1      3030 3.31167E-03 2.14658E-04-1.40424E-14
 -1      3031 5.36031E-03-7.02096E-04-2.33702E-14
 -1      3032 3.23737E-03 1.86260E-04-1.41694E-14
 -1      3033 7.57924E-03 5.45102E-04-3.48087E-14
 -1      3034 7.96289E-03 4.20218E-04-3.67319E-14
 -1      3035 1.39676E-02 1.13912E-03-1.42725E-13
 -1      3036 1.40898E-02 1.19845E-03-1.44360E-13
 -1      3037 1.39791E-02 1.19643E-03-1.42157E-13
 -1      3038 1.38715E-02 1.12194E-03-1.41031E-13
 -1      3039 6.34455E-03 1.20154E-03-2.77619E-14
 -1      3040 7.61655E-04-3.96337E-05-8.75940E-16
 -1      3041 7.65068E-04-5.78417E-05-8.73664E-16
 -1      3042 8.82305E-04-7.50693E-05-1.10326E-15
 -1      3043 8.74001E-04-3.43817E-05-1.10862E-15
 -1      3044 7.72451E-04-1.72601E-04-7.69689E-16
 -1      3045 4.28831E-03-2.46785E-04-1.72561E-14
 -1      3046 4.35320E-03 6.68377E-04-1.61361E-14
 -1      3047 3.62949E-03 7.32779E-05-1.54138E-14
 -1      3048 3.51165E-03 8.89796E-05-1.46951E-14
 -1      3049 3.91257E-03-2.90283E-05-1.63658E-14
 -1      3050 3.74489E-03 3.48424E-05-1.58304E-14
 -1      3051 3.72551E-03 1.19659E-05-1.53097E-14
 -1      3052 3.96556E-03-8.26892E-05-1.61463E-14
 -1      3053 1.13577E-03 2.56032E-04-1.32658E-15
 -1      3054 1.05964E-03 2.19952E-04-1.23073E-15
 -1      3055 1.27472E-03 2.71804E-04-1.63934E-15
 -1      3056 1.04625E-03 1.90270E-04-1.26528E-15
 -1      3057 1.73676E-03-2.79557E-04-3.18249E-15
 -1      3058 1.88139E-03-2.86151E-04-3.68430E-15
 -1      3059 2.02641E-03-2.91608E-04-4.22275E-15
 -1      3060 2.17199E-03-2.96282E-04-4.79757E-15
 -1      3061 1.93483E-03-2.54202E-04-3.98358E-15
 -1      3062 2.31825E-03-3.00631E-04-5.40837E-15
 -1      3063 2.46539E-03-3.05090E-04-6.05531E-15
 -1      3064 2.22346E-03-2.61751E-04-5.13469E-15
 -1      3065 2.61365E-03-3.10094E-04-6.73894E-15
 -1      3066 2.76327E-03-3.16213E-04-7.45909E-15
 -1      3067 2.51506E-03-2.68364E-04-6.43002E-15
 -1      3068 2.91465E-03-3.23839E-04-8.21378E-15
 -1      3069 3.06799E-03-3.33736E-04-9.00414E-15
 -1      3070 2.81161E-03-2.77480E-04-7.86784E-15
 -1      3071 3.22383E-03-3.46244E-04-9.83068E-15
 -1      3072 3.38224E-03-3.62319E-04-1.06924E-14
 -1      3073 3.11600E-03-2.93210E-04-9.44706E-15
 -1      3074 3.54388E-03-3.82215E-04-1.15891E-14
 -1      3075 3.70838E-03-4.06996E-04-1.25217E-14
 -1      3076 3.43174E-03-3.20656E-04-1.11668E-14
 -1      3077 3.87645E-03-4.36734E-04-1.34902E-14
 -1      3078 4.04682E-03-4.71998E-04-1.44946E-14
 -1      3079 3.76210E-03-3.66015E-04-1.30271E-14
 -1      3080 4.21999E-03-5.12345E-04-1.55353E-14
 -1      3081 4.39366E-03-5.56926E-04-1.66122E-14
 -1      3082 4.10789E-03-4.35181E-04-1.50294E-14
 -1      3083 4.56787E-03-6.04980E-04-1.77269E-14
 -1      3084 4.73979E-03-6.52000E-04-1.88801E-14
 -1      3085 4.46398E-03-5.28863E-04-1.71771E-14
 -1      3086 4.90884E-03-6.95876E-04-2.00715E-14
 -1      3087 5.07439E-03-7.29814E-04-2.13031E-14
 -1      3088 4.81876E-03-6.34980E-04-1.94746E-14
 -1      3089 5.23501E-03-7.51381E-04-2.25755E-14
 -1      3090 5.39456E-03-7.54589E-04-2.38869E-14
 -1      3091 5.15883E-03-7.16881E-04-2.19326E-14
 -1      3092 5.59166E-03-7.18337E-04-2.55086E-14
 -1      3093 5.75493E-03-6.77522E-04-2.69086E-14
 -1      3094 6.20932E-03-5.15664E-04-3.10401E-14
 -1      3095 6.38162E-03-4.41090E-04-3.25829E-14
 -1      3096 6.55589E-03-3.66452E-04-3.41611E-14
 -1      3097 6.72918E-03-2.95451E-04-3.57749E-14
 -1      3098 6.50828E-03-3.51316E-04-3.33683E-14
 -1      3099 6.90155E-03-2.29094E-04-3.74224E-14
 -1      3100 7.07108E-03-1.68088E-04-3.90996E-14
 -1      3101 6.86292E-03-2.05586E-04-3.65963E-14
 -1      3102 7.23810E-03-1.12715E-04-4.08084E-14
 -1      3103 7.40159E-03-6.23785E-05-4.25478E-14
 -1      3104 7.20590E-03-8.53884E-05-3.99536E-14
 -1      3105 7.56218E-03-1.70326E-05-4.43158E-14
 -1      3106 7.71958E-03 2.43302E-05-4.61111E-14
 -1      3107 7.53326E-03 1.09571E-05-4.34315E-14
 -1      3108 7.87442E-03 6.18803E-05-4.79352E-14
 -1      3109 8.02682E-03 9.65012E-05-4.97847E-14
 -1      3110 7.84611E-03 8.90630E-05-4.70230E-14
 -1      3111 8.17727E-03 1.28409E-04-5.16571E-14
 -1      3112 8.32599E-03 1.58263E-04-5.35569E-14
 -1      3113 8.14778E-03 1.54472E-04-5.07182E-14
 -1      3114 8.47336E-03 1.86291E-04-5.54813E-14
 -1      3115 8.61961E-03 2.12946E-04-5.74289E-14
 -1      3116 8.44174E-03 2.11412E-04-5.45156E-14
 -1      3117 8.76497E-03 2.38446E-04-5.94010E-14
 -1      3118 8.90965E-03 2.63091E-04-6.13978E-14
 -1      3119 8.73080E-03 2.62931E-04-5.84102E-14
 -1      3120 9.05377E-03 2.87071E-04-6.34174E-14
 -1      3121 9.19750E-03 3.10579E-04-6.54583E-14
 -1      3122 9.01703E-03 3.11190E-04-6.24005E-14
 -1      3123 9.34091E-03 3.33769E-04-6.75186E-14
 -1      3124 9.48411E-03 3.56761E-04-6.95972E-14
 -1      3125 9.30177E-03 3.57713E-04-6.64787E-14
 -1      3126 9.62713E-03 3.79671E-04-7.16954E-14
 -1      3127 9.77006E-03 4.02571E-04-7.38119E-14
 -1      3128 9.58590E-03 4.03555E-04-7.06359E-14
 -1      3129 9.91290E-03 4.25542E-04-7.59459E-14
 -1      3130 1.00557E-02 4.48623E-04-7.80965E-14
 -1      3131 9.86989E-03 4.49423E-04-7.48651E-14
 -1      3132 1.01985E-02 4.71866E-04-8.02632E-14
 -1      3133 1.03412E-02 4.95288E-04-8.24468E-14
 -1      3134 1.01540E-02 4.95766E-04-7.91654E-14
 -1      3135 1.04840E-02 5.18919E-04-8.46467E-14
 -1      3136 1.06267E-02 5.42761E-04-8.68627E-14
 -1      3137 1.04384E-02 5.42838E-04-8.35278E-14
 -1      3138 1.07695E-02 5.66827E-04-8.90947E-14
 -1      3139 1.09123E-02 5.91113E-04-9.13436E-14
 -1      3140 1.07231E-02 5.90759E-04-8.79584E-14
 -1      3141 1.10551E-02 6.15618E-04-9.36067E-14
 -1      3142 1.11979E-02 6.40333E-04-9.58837E-14
 -1      3143 1.10080E-02 6.39550E-04-9.24532E-14
 -1      3144 1.13407E-02 6.65251E-04-9.81731E-14
 -1      3145 1.14835E-02 6.90360E-04-1.00477E-13
 -1      3146 1.12931E-02 6.89175E-04-9.70056E-14
 -1      3147 1.16263E-02 7.15649E-04-1.02797E-13
 -1      3148 1.17692E-02 7.41106E-04-1.05130E-13
 -1      3149 1.15784E-02 7.39557E-04-1.01611E-13
 -1      3150 1.19120E-02 7.66717E-04-1.07479E-13
 -1      3151 1.20549E-02 7.92471E-04-1.09842E-13
 -1      3152 1.18639E-02 7.90604E-04-1.06276E-13
 -1      3153 1.21977E-02 8.18353E-04-1.12220E-13
 -1      3154 1.23406E-02 8.44353E-04-1.14612E-13
 -1      3155 1.21495E-02 8.42216E-04-1.11000E-13
 -1      3156 1.24835E-02 8.70458E-04-1.17019E-13
 -1      3157 1.26263E-02 8.96657E-04-1.19439E-13
 -1      3158 1.24351E-02 8.94298E-04-1.15781E-13
 -1      3159 1.27692E-02 9.22939E-04-1.21871E-13
 -1      3160 1.29121E-02 9.49296E-04-1.24316E-13
 -1      3161 1.27208E-02 9.46758E-04-1.20617E-13
 -1      3162 1.30549E-02 9.75715E-04-1.26771E-13
 -1      3163 1.31978E-02 1.00219E-03-1.29234E-13
 -1      3164 1.30065E-02 9.99517E-04-1.25500E-13
 -1      3165 1.33407E-02 1.02871E-03-1.31706E-13
 -1      3166 1.34836E-02 1.05528E-03-1.34185E-13
 -1      3167 1.32922E-02 1.05250E-03-1.30423E-13
 -1      3168 1.36061E-02 1.07528E-03-1.36355E-13
 -1      3169 1.37490E-02 1.10190E-03-1.38848E-13
 -1      3170 1.38028E-02 1.13913E-03-1.39412E-13
 -1      3171 1.35577E-02 1.09907E-03-1.35061E-13
 -1      3172 3.26848E-03 3.80743E-04-9.79087E-15
 -1      3173 3.12032E-03 3.64075E-04-8.98218E-15
 -1      3174 2.97453E-03 3.51789E-04-8.20642E-15
 -1      3175 2.83009E-03 3.42525E-04-7.46494E-15
 -1      3176 2.99668E-03 3.20071E-04-8.67248E-15
 -1      3177 3.90698E-03 5.14972E-04-1.33606E-14
 -1      3178 3.73753E-03 4.66963E-04-1.24178E-14
 -1      3179 4.76073E-03 9.32026E-04-1.74266E-14
 -1      3180 5.94332E-03 1.36519E-03-2.48557E-14
 -1      3181 7.09566E-03 8.52810E-04-3.32394E-14
 -1      3182 8.49370E-03 7.46793E-04-4.79708E-14
 -1      3183 8.34862E-03 7.29582E-04-4.61363E-14
 -1      3184 8.78049E-03 7.90879E-04-5.17143E-14
 -1      3185 8.63742E-03 7.67487E-04-4.98300E-14
 -1      3186 8.58128E-03 7.21949E-04-4.89996E-14
 -1      3187 9.06544E-03 8.43820E-04-5.55529E-14
 -1      3188 8.92302E-03 8.16469E-04-5.36223E-14
 -1      3189 8.85830E-03 7.70173E-04-5.27660E-14
 -1      3190 9.35006E-03 9.02215E-04-5.94857E-14
 -1      3191 9.20769E-03 8.72487E-04-5.75077E-14
 -1      3192 9.13585E-03 8.25120E-04-5.66266E-14
 -1      3193 9.63494E-03 9.63638E-04-6.35056E-14
 -1      3194 9.49242E-03 9.32649E-04-6.14859E-14
 -1      3195 9.41482E-03 8.84234E-04-6.05804E-14
 -1      3196 9.92021E-03 1.02641E-03-6.76058E-14
 -1      3197 9.77750E-03 9.94924E-04-6.55452E-14
 -1      3198 9.69537E-03 9.45636E-04-6.46200E-14
 -1      3199 1.02058E-02 1.08942E-03-7.17825E-14
 -1      3200 1.00630E-02 1.05793E-03-6.96852E-14
 -1      3201 9.97732E-03 1.00799E-03-6.87391E-14
 -1      3202 1.04916E-02 1.15198E-03-7.60275E-14
 -1      3203 1.03487E-02 1.12078E-03-7.38965E-14
 -1      3204 1.02604E-02 1.07040E-03-7.29339E-14
 -1      3205 1.07776E-02 1.21370E-03-8.03414E-14
 -1      3206 1.06346E-02 1.18296E-03-7.81763E-14
 -1      3207 1.05443E-02 1.13229E-03-7.71979E-14
 -1      3208 1.10636E-02 1.27439E-03-8.47248E-14
 -1      3209 1.09206E-02 1.24417E-03-8.25227E-14
 -1      3210 1.08288E-02 1.19334E-03-8.15277E-14
 -1      3211 1.13496E-02 1.33401E-03-8.91778E-14
 -1      3212 1.12066E-02 1.30433E-03-8.69443E-14
 -1      3213 1.11138E-02 1.25343E-03-8.59281E-14
 -1      3214 1.16356E-02 1.39261E-03-9.37044E-14
 -1      3215 1.14926E-02 1.36343E-03-9.14312E-14
 -1      3216 1.13990E-02 1.31252E-03-9.03996E-14
 -1      3217 1.19215E-02 1.45027E-03-9.82940E-14
 -1      3218 1.17786E-02 1.42155E-03-9.59915E-14
 -1      3219 1.16845E-02 1.37065E-03-9.49398E-14
 -1      3220 1.22074E-02 1.50710E-03-1.02945E-13
 -1      3221 1.20645E-02 1.47878E-03-1.00613E-13
 -1      3222 1.19701E-02 1.42792E-03-9.95438E-14
 -1      3223 1.24933E-02 1.56324E-03-1.07653E-13
 -1      3224 1.23504E-02 1.53525E-03-1.05292E-13
 -1      3225 1.22557E-02 1.48444E-03-1.04208E-13
 -1      3226 1.27791E-02 1.61880E-03-1.12410E-13
 -1      3227 1.26362E-02 1.59109E-03-1.10024E-13
 -1      3228 1.25414E-02 1.54033E-03-1.08925E-13
 -1      3229 1.30649E-02 1.67388E-03-1.17213E-13
 -1      3230 1.29220E-02 1.64639E-03-1.14806E-13
 -1      3231 1.28272E-02 1.59568E-03-1.13689E-13
 -1      3232 1.33507E-02 1.72859E-03-1.22061E-13
 -1      3233 1.32078E-02 1.70128E-03-1.19634E-13
 -1      3234 1.31129E-02 1.65060E-03-1.18500E-13
 -1      3235 1.36364E-02 1.78302E-03-1.26951E-13
 -1      3236 1.34936E-02 1.75584E-03-1.24501E-13
 -1      3237 1.33987E-02 1.70519E-03-1.23358E-13
 -1      3238 1.39222E-02 1.83723E-03-1.31874E-13
 -1      3239 1.37793E-02 1.81015E-03-1.29407E-13
 -1      3240 1.36844E-02 1.75953E-03-1.28253E-13
 -1      3241 6.00832E-03 1.33465E-03-2.53675E-14
 -1      3242 6.11199E-03 1.31209E-03-2.61047E-14
 -1      3243 1.39747E-02 1.31589E-03-1.40394E-13
 -1      3244 1.40009E-02 1.35800E-03-1.40329E-13
 -1      3245 9.87997E-04 5.66026E-05-1.34570E-15
 -1      3246 9.85347E-04 3.56757E-05-1.35548E-15
 -1      3247 3.31901E-03 1.29608E-04-1.38241E-14
 -1      3248 3.24878E-03 1.52835E-04-1.36969E-14
 -1      3249 1.40789E-02 1.48291E-03-1.40126E-13
 -1      3250 1.41053E-02 1.52502E-03-1.40056E-13
 -1      3251 3.44489E-03 2.62630E-04-1.36109E-14
 -1      3252 3.61442E-03 3.19203E-04-1.39924E-14
 -1      3253 1.39223E-02 1.23164E-03-1.40523E-13
 -1      3254 1.39484E-02 1.27377E-03-1.40459E-13
 -1      3255 1.38378E-02 1.27171E-03-1.38271E-13
 -1      3256 1.40269E-02 1.39976E-03-1.40261E-13
 -1      3257 1.40528E-02 1.44116E-03-1.40194E-13
 -1      3258 1.39422E-02 1.43901E-03-1.38004E-13
 -1      3259 1.38901E-02 1.35555E-03-1.38139E-13
 -1      3260 7.81457E-03 3.73100E-04-3.68868E-14
 -1      3261 7.72034E-03 3.45041E-04-3.69870E-14
 -1      3262 1.83016E-03 3.09429E-04-3.23430E-15
 -1      3263 1.68703E-03 3.02688E-04-2.77111E-15
 -1      3264 4.77023E-03-5.36388E-04-1.93385E-14
 -1      3265 4.56858E-03-4.40891E-04-1.82103E-14
 -1      3266 3.22976E-03 1.96990E-04-1.33749E-14
 -1      3267 3.28859E-03 2.14797E-04-1.33069E-14
 -1      3268 7.56381E-03 5.82900E-04-3.54397E-14
 -1      3269 7.69806E-03 5.27525E-04-3.60503E-14
 -1      3270 1.44211E-02 1.88065E-03-1.41283E-13
 -1      3271 5.10535E-03-6.64828E-04-2.15146E-14
 -1      3272 4.95943E-03-6.10851E-04-2.05242E-14
 -1      3273 7.98444E-03 4.13314E-04-3.79829E-14
 -1      3274 7.91403E-03 3.97979E-04-3.74350E-14
 -1      3275 7.93630E-03 3.97289E-04-3.86428E-14
 -1      3276 8.20180E-03 7.16303E-04-4.43298E-14
 -1      3277 8.05204E-03 7.08469E-04-4.25490E-14
 -1      3278 8.30244E-03 6.83924E-04-4.53318E-14
 -1      3279 7.99466E-03 4.37655E-04-3.78905E-14
 -1      3280 8.00562E-03 4.26079E-04-3.79390E-14
 -1      3281 8.04582E-03 4.30252E-04-3.91567E-14
 -1      3282 7.89848E-03 7.06461E-04-4.07951E-14
 -1      3283 7.73959E-03 7.13048E-04-3.90681E-14
 -1      3284 8.01666E-03 6.61111E-04-4.17696E-14
 -1      3285 8.88434E-04-1.78539E-04-9.95514E-16
 -1      3286 3.57561E-03 4.30970E-04-1.15091E-14
 -1      3287 3.41975E-03 4.02227E-04-1.06331E-14
 -1      3288 3.28083E-03 3.47491E-04-1.02940E-14
 -1      3289 3.57833E-03 3.94604E-04-1.20471E-14
 -1      3290 4.30046E-03-3.03571E-04-1.69414E-14
 -1      3291 4.12122E-03-2.02317E-04-1.62698E-14
 -1      3292 6.68859E-03-1.34091E-04-3.28853E-14
 -1      3293 6.51334E-03-2.44108E-04-3.19919E-14
 -1      3294 3.20010E-03 1.69069E-04-1.34928E-14
 -1      3295 3.19646E-03 1.81207E-04-1.34367E-14
 -1      3296 3.15517E-03 1.79873E-04-1.27190E-14
 -1      3297 2.11587E-03 3.18995E-04-4.26802E-15
 -1      3298 1.97305E-03 3.14762E-04-3.73345E-15
 -1      3299 1.87873E-03 2.80281E-04-3.53854E-15
 -1      3300 3.75576E-03 3.93137E-04-1.38582E-14
 -1      3301 3.93538E-03 4.78580E-04-1.42384E-14
 -1      3302 3.50350E-03 6.00845E-05-1.42077E-14
 -1      3303 3.41278E-03 9.47130E-05-1.40077E-14
 -1      3304 5.41461E-03-7.19526E-04-2.38876E-14
 -1      3305 5.26910E-03-7.09115E-04-2.27238E-14
 -1      3306 7.82341E-03 4.83703E-04-3.66927E-14
 -1      3307 7.92534E-03 4.57307E-04-3.73353E-14
 -1      3308 7.81356E-03 5.17844E-04-3.73392E-14
 -1      3309 7.06167E-03 6.86153E-05-3.47657E-14
 -1      3310 6.87280E-03-2.97418E-05-3.38212E-14
 -1      3311 6.82929E-03-7.99793E-05-3.41893E-14
 -1      3312 1.44861E-03-2.61251E-04-2.28965E-15
 -1      3313 1.59254E-03-2.71357E-04-2.71769E-15
 -1      3314 1.64799E-03-2.42690E-04-2.97692E-15
 -1      3315 7.24682E-03 7.97750E-04-3.44107E-14
 -1      3316 9.84299E-04 1.49988E-05-1.36264E-15
 -1      3317 9.84842E-04-5.70450E-06-1.36711E-15
 -1      3318 1.09893E-03 2.78655E-05-1.64574E-15
 -1      3319 7.36652E-03 7.70231E-04-3.54618E-14
 -1      3320 7.37519E-03 7.19335E-04-3.50880E-14
 -1      3321 7.44921E-03 6.55310E-04-3.51750E-14
 -1      3322 7.54302E-03 7.38592E-04-3.71255E-14
 -1      3323 4.81416E-03 9.51355E-04-1.79182E-14
 -1      3324 1.19096E-03-2.34674E-04-1.61794E-15
 -1      3325 1.31960E-03-2.48945E-04-1.93912E-15
 -1      3326 1.37701E-03-2.24391E-04-2.15923E-15
 -1      3327 7.65513E-03 3.17753E-04-3.73429E-14
 -1      3328 7.59229E-03 2.84594E-04-3.76951E-14
 -1      3329 7.78110E-03 3.48556E-04-3.84460E-14
 -1      3330 1.42374E-02 1.73541E-03-1.39689E-13
 -1      3331 1.42637E-02 1.77718E-03-1.39613E-13
 -1      3332 3.17347E-03 1.50755E-04-1.29766E-14
 -1      3333 5.87326E-03-6.51514E-04-2.80623E-14
 -1      3334 6.03950E-03-5.87855E-04-2.95329E-14
 -1      3335 1.01461E-03-1.96806E-04-1.24872E-15
 -1      3336 4.82817E-03-5.89084E-04-1.96188E-14
 -1      3337 2.40112E-03 3.26378E-04-5.44329E-15
 -1      3338 2.25848E-03 3.22751E-04-4.83789E-15
 -1      3339 2.15982E-03 2.88573E-04-4.61506E-15
 -1      3340 2.71755E-03 3.04523E-04-7.18437E-15
 -1      3341 2.68671E-03 3.35697E-04-6.75717E-15
 -1      3342 2.54374E-03 3.30536E-04-6.08293E-15
 -1      3343 4.12404E-03 5.80851E-04-1.46519E-14
 -1      3344 4.31552E-03 6.62466E-04-1.56755E-14
 -1      3345 4.39526E-03-3.90425E-04-1.71846E-14
 -1      3346 6.19835E-03 1.30734E-03-2.67387E-14
 -1      3347 7.68484E-03 6.70786E-04-3.80699E-14
 -1      3348 1.42109E-02 1.69329E-03-1.39763E-13
 -1      3349 1.41003E-02 1.69085E-03-1.37575E-13
 -1      3350 1.41844E-02 1.65117E-03-1.39837E-13
 -1      3351 5.85911E-03-6.22287E-04-2.76133E-14
 -1      3352 1.40283E-02 1.85027E-03-1.33813E-13
 -1      3353 1.39335E-02 1.79967E-03-1.32650E-13
 -1      3354 1.41345E-02 1.86330E-03-1.35755E-13
 -1      3355 4.02682E-03-2.09793E-04-1.55426E-14
 -1      3356 4.00749E-03-1.47024E-04-1.58479E-14
 -1      3357 3.89195E-03-9.56766E-05-1.54314E-14
 -1      3358 7.58695E-03 6.28821E-04-3.64208E-14
 -1      3359 6.15293E-03-5.11231E-04-3.02788E-14
 -1      3360 3.61720E-03 3.55783E-04-1.31161E-14
 -1      3361 1.41316E-02 1.56704E-03-1.39985E-13
 -1      3362 1.41580E-02 1.60915E-03-1.39912E-13
 -1      3363 1.40474E-02 1.60675E-03-1.37722E-13
 -1      3364 1.39947E-02 1.52274E-03-1.37867E-13
 -1      3365 5.95286E-03-5.71135E-04-2.82663E-14
 -1      3366 7.37244E-03 1.89656E-04-3.69880E-14
 -1      3367 7.22058E-03 1.34940E-04-3.58699E-14
 -1      3368 7.16180E-03 8.24241E-05-3.62507E-14
 -1      3369 1.01488E-03 1.48282E-04-1.27565E-15
 -1      3370 1.00575E-03 1.23549E-04-1.29824E-15
 -1      3371 3.21527E-03 2.13346E-04-1.23132E-14
 -1      3372 3.32242E-03 2.33673E-04-1.29552E-14
 -1      3373 3.35847E-03 2.57913E-04-1.26027E-14
 -1      3374 1.16023E-03 1.88762E-04-1.55369E-15
 -1      3375 1.42893E-02 1.82242E-03-1.39471E-13
 -1      3376 1.43099E-02 1.88165E-03-1.39023E-13
 -1      3377 1.42037E-02 1.86866E-03-1.37071E-13
 -1      3378 1.41524E-02 1.77819E-03-1.37359E-13
 -1      3379 8.00235E-03 4.58506E-04-3.85516E-14
 -1      3380 9.98186E-04 1.00227E-04-1.31705E-15
 -1      3381 9.92298E-04 7.80243E-05-1.33288E-15
 -1      3382 1.11849E-03 1.20560E-04-1.58632E-15
 -1      3383 6.05433E-03-5.30866E-04-2.91996E-14
 -1      3384 6.47840E-03-3.12468E-04-3.25283E-14
 -1      3385 6.33586E-03-3.75480E-04-3.12910E-14
 -1      3386 1.10495E-03 7.29149E-05-1.62277E-15
 -1      3387 3.30747E-03 1.03234E-04-1.33534E-14
 -1      3388 3.74676E-03-2.62912E-05-1.50165E-14
 -1      3389 3.63679E-03 1.10599E-05-1.46129E-14
 -1      3390 3.52047E-03 2.44435E-05-1.39247E-14
 -1      3391 3.78598E-03-8.96477E-05-1.47257E-14
 -1      3392 1.55044E-03 2.94742E-04-2.36192E-15
 -1      3393 1.41145E-03 2.84425E-04-1.98080E-15
 -1      3394 1.33216E-03 2.48924E-04-1.86252E-15
 -1      3395 1.60265E-03 2.67914E-04-2.62346E-15
 -1      3396 9.95421E-04-7.04323E-05-1.36567E-15
 -1      3397 1.00169E-03-9.37468E-05-1.35971E-15
 -1      3398 1.38356E-02 1.16677E-03-1.39689E-13
 -1      3399 1.38894E-02 1.20400E-03-1.40250E-13
 -1      3400 1.37788E-02 1.20197E-03-1.38062E-13
 -1      3401 1.37131E-02 1.14672E-03-1.37511E-13
 -1      3402 1.00932E-03-1.18314E-04-1.35075E-15
 -1      3403 1.01816E-03-1.44345E-04-1.33808E-15
 -1      3404 1.12325E-03-1.13690E-04-1.64217E-15
 -1      3405 1.84526E-03-2.18522E-04-3.74643E-15
 -1      3406 1.98770E-03-2.22083E-04-4.28719E-15
 -1      3407 3.15050E-03 1.30306E-04-1.25084E-14
 -1      3408 3.10761E-03 1.47215E-04-1.23149E-14
 -1      3409 5.52405E-03-7.13442E-04-2.48119E-14
 -1      3410 2.13052E-03-2.24793E-04-4.86402E-15
 -1      3411 2.27392E-03-2.26968E-04-5.47590E-15
 -1      3412 2.03988E-03-1.89786E-04-4.59551E-15
 -1      3413 2.41801E-03-2.28932E-04-6.12330E-15
 -1      3414 2.56313E-03-2.31129E-04-6.80700E-15
 -1      3415 2.32320E-03-1.91905E-04-5.82076E-15
 -1      3416 2.70953E-03-2.33858E-04-7.52507E-15
 -1      3417 2.85765E-03-2.37785E-04-8.27864E-15
 -1      3418 2.60941E-03-1.93295E-04-7.18624E-15
 -1      3419 3.00795E-03-2.43168E-04-9.06756E-15
 -1      3420 3.16094E-03-2.51068E-04-9.89085E-15
 -1      3421 2.90112E-03-1.96928E-04-8.69163E-15
 -1      3422 3.31734E-03-2.61734E-04-1.07493E-14
 -1      3423 3.47748E-03-2.76682E-04-1.16416E-14
 -1      3424 3.20246E-03-2.07040E-04-1.03359E-14
 -1      3425 3.64239E-03-2.96124E-04-1.25685E-14
 -1      3426 3.81177E-03-3.22222E-04-1.35315E-14
 -1      3427 3.51910E-03-2.30052E-04-1.21170E-14
 -1      3428 4.64446E-03-5.50691E-04-1.83866E-14
 -1      3429 4.82476E-03-6.08360E-04-1.95550E-14
 -1      3430 1.07450E-03-1.78604E-04-1.42311E-15
 -1      3431 6.82739E-03-1.79652E-04-3.57730E-14
 -1      3432 7.00462E-03-1.13386E-04-3.74220E-14
 -1      3433 7.17810E-03-5.54618E-05-3.91013E-14
 -1      3434 7.34553E-03-4.00112E-06-4.08102E-14
 -1      3435 7.15474E-03-2.27719E-05-3.82493E-14
 -1      3436 7.50848E-03 4.09985E-05-4.25495E-14
 -1      3437 7.66676E-03 8.14279E-05-4.43168E-14
 -1      3438 7.48825E-03 7.33918E-05-4.16691E-14
 -1      3439 7.82134E-03 1.17516E-04-4.61117E-14
 -1      3440 7.97260E-03 1.50692E-04-4.79348E-14
 -1      3441 7.80041E-03 1.47570E-04-4.52037E-14
 -1      3442 8.12120E-03 1.81105E-04-4.97828E-14
 -1      3443 8.26768E-03 2.09687E-04-5.16546E-14
 -1      3444 8.09773E-03 2.08538E-04-4.88471E-14
 -1      3445 8.41246E-03 2.36580E-04-5.35528E-14
 -1      3446 8.55600E-03 2.62344E-04-5.54763E-14
 -1      3447 8.38564E-03 2.61928E-04-5.25922E-14
 -1      3448 8.69854E-03 2.87117E-04-5.74221E-14
 -1      3449 8.84044E-03 3.11230E-04-5.93925E-14
 -1      3450 8.66822E-03 3.11070E-04-5.64362E-14
 -1      3451 8.98184E-03 3.34813E-04-6.13874E-14
 -1      3452 9.12298E-03 3.58057E-04-6.34049E-14
 -1      3453 8.94821E-03 3.57962E-04-6.03765E-14
 -1      3454 9.26392E-03 3.81075E-04-6.54422E-14
 -1      3455 9.40483E-03 4.03973E-04-6.75003E-14
 -1      3456 9.22732E-03 4.03848E-04-6.44081E-14
 -1      3457 9.54572E-03 4.26845E-04-6.95772E-14
 -1      3458 9.68670E-03 4.49746E-04-7.16727E-14
 -1      3459 9.50656E-03 4.49518E-04-6.85209E-14
 -1      3460 9.82776E-03 4.72747E-04-7.37875E-14
 -1      3461 9.96896E-03 4.95872E-04-7.59189E-14
 -1      3462 9.78645E-03 4.95480E-04-7.27108E-14
 -1      3463 1.01103E-02 5.19170E-04-7.80672E-14
 -1      3464 1.02518E-02 5.42648E-04-8.02326E-14
 -1      3465 1.00672E-02 5.42042E-04-7.69724E-14
 -1      3466 1.03934E-02 5.66336E-04-8.24136E-14
 -1      3467 1.05352E-02 5.90228E-04-8.46111E-14
 -1      3468 1.03489E-02 5.89373E-04-8.13004E-14
 -1      3469 1.06771E-02 6.14342E-04-8.68249E-14
 -1      3470 1.08191E-02 6.38666E-04-8.90550E-14
 -1      3471 1.06315E-02 6.37542E-04-8.56927E-14
 -1      3472 1.09612E-02 6.63204E-04-9.13001E-14
 -1      3473 1.11035E-02 6.87944E-04-9.35630E-14
 -1      3474 1.09148E-02 6.86547E-04-9.01508E-14
 -1      3475 1.12458E-02 7.12881E-04-9.58376E-14
 -1      3476 1.13882E-02 7.38002E-04-9.81252E-14
 -1      3477 1.11988E-02 7.36341E-04-9.46706E-14
 -1      3478 1.15307E-02 7.63299E-04-1.00429E-13
 -1      3479 1.16733E-02 7.88757E-04-1.02746E-13
 -1      3480 1.14833E-02 7.86850E-04-9.92469E-14
 -1      3481 1.18159E-02 8.14367E-04-1.05077E-13
 -1      3482 1.19586E-02 8.40115E-04-1.07423E-13
 -1      3483 1.17681E-02 8.37986E-04-1.03879E-13
 -1      3484 1.21013E-02 8.65990E-04-1.09783E-13
 -1      3485 1.22441E-02 8.91980E-04-1.12160E-13
 -1      3486 1.20533E-02 8.89658E-04-1.08570E-13
 -1      3487 1.23868E-02 9.18075E-04-1.14548E-13
 -1      3488 1.25296E-02 9.44263E-04-1.16950E-13
 -1      3489 1.23386E-02 9.41775E-04-1.13318E-13
 -1      3490 1.26724E-02 9.70534E-04-1.19368E-13
 -1      3491 1.28153E-02 9.96879E-04-1.21797E-13
 -1      3492 1.26242E-02 9.94255E-04-1.18121E-13
 -1      3493 1.29581E-02 1.02329E-03-1.24234E-13
 -1      3494 1.31010E-02 1.04976E-03-1.26684E-13
 -1      3495 1.29098E-02 1.04702E-03-1.22973E-13
 -1      3496 1.32438E-02 1.07627E-03-1.29144E-13
 -1      3497 1.33867E-02 1.10283E-03-1.31611E-13
 -1      3498 1.31955E-02 1.10002E-03-1.27867E-13
 -1      3499 3.01428E-03 2.89728E-04-9.14230E-15
 -1      3500 2.87968E-03 2.81311E-04-8.36217E-15
 -1      3501 9.20254E-03 8.08194E-04-5.77007E-14
 -1      3502 9.06646E-03 7.79633E-04-5.57474E-14
 -1      3503 8.93125E-03 7.52147E-04-5.38182E-14
 -1      3504 8.79663E-03 7.25868E-04-5.19121E-14
 -1      3505 8.99919E-03 7.36050E-04-5.48708E-14
 -1      3506 8.11685E-03 4.49632E-04-4.06003E-14
 -1      3507 8.09796E-03 4.35824E-04-4.06441E-14
 -1      3508 8.66279E-03 7.01179E-04-5.00279E-14
 -1      3509 8.52916E-03 6.78344E-04-4.81686E-14
 -1      3510 8.73766E-03 6.83549E-04-5.10585E-14
 -1      3511 9.47681E-03 8.67439E-04-6.16748E-14
 -1      3512 9.33927E-03 8.37487E-04-5.96765E-14
 -1      3513 9.26547E-03 7.92454E-04-5.87746E-14
 -1      3514 9.75378E-03 9.28433E-04-6.57337E-14
 -1      3515 9.61495E-03 8.97769E-04-6.36955E-14
 -1      3516 9.53601E-03 8.51379E-04-6.27692E-14
 -1      3517 1.00330E-02 9.90109E-04-6.98746E-14
 -1      3518 9.89310E-03 9.59221E-04-6.77944E-14
 -1      3519 9.81014E-03 9.11686E-04-6.68508E-14
 -1      3520 1.03140E-02 1.05173E-03-7.40866E-14
 -1      3521 1.01733E-02 1.02095E-03-7.19706E-14
 -1      3522 1.00872E-02 9.72507E-04-7.10098E-14
 -1      3523 1.05963E-02 1.11283E-03-7.83672E-14
 -1      3524 1.04550E-02 1.08236E-03-7.62182E-14
 -1      3525 1.03665E-02 1.03323E-03-7.52394E-14
 -1      3526 1.08796E-02 1.17315E-03-8.27161E-14
 -1      3527 1.07378E-02 1.14309E-03-8.05332E-14
 -1      3528 1.06475E-02 1.09347E-03-7.95378E-14
 -1      3529 1.11637E-02 1.23256E-03-8.71323E-14
 -1      3530 1.10216E-02 1.20297E-03-8.49148E-14
 -1      3531 1.09299E-02 1.15299E-03-8.39037E-14
 -1      3532 1.14483E-02 1.29107E-03-9.16194E-14
 -1      3533 1.13059E-02 1.26193E-03-8.93685E-14
 -1      3534 1.12133E-02 1.21171E-03-8.83373E-14
 -1      3535 1.17333E-02 1.34872E-03-9.61763E-14
 -1      3536 1.15908E-02 1.32000E-03-9.38901E-14
 -1      3537 1.14974E-02 1.26963E-03-9.28415E-14
 -1      3538 1.20186E-02 1.40559E-03-1.00794E-13
 -1      3539 1.18759E-02 1.37724E-03-9.84773E-14
 -1      3540 1.17820E-02 1.32677E-03-9.74117E-14
 -1      3541 1.23040E-02 1.46178E-03-1.05468E-13
 -1      3542 1.21613E-02 1.43376E-03-1.03124E-13
 -1      3543 1.20670E-02 1.38323E-03-1.02042E-13
 -1      3544 1.25896E-02 1.51740E-03-1.10194E-13
 -1      3545 1.24468E-02 1.48965E-03-1.07827E-13
 -1      3546 1.23523E-02 1.43909E-03-1.06728E-13
 -1      3547 1.28752E-02 1.57254E-03-1.14966E-13
 -1      3548 1.27324E-02 1.54502E-03-1.12574E-13
 -1      3549 1.26377E-02 1.49444E-03-1.11462E-13
 -1      3550 1.31609E-02 1.62731E-03-1.19788E-13
 -1      3551 1.30181E-02 1.59997E-03-1.17371E-13
 -1      3552 1.29233E-02 1.54938E-03-1.16243E-13
 -1      3553 1.34467E-02 1.68178E-03-1.24651E-13
 -1      3554 1.33038E-02 1.65457E-03-1.22214E-13
 -1      3555 1.32090E-02 1.60399E-03-1.21072E-13
 -1      3556 1.37324E-02 1.73602E-03-1.29553E-13
 -1      3557 1.35895E-02 1.70892E-03-1.27097E-13
 -1      3558 1.34947E-02 1.65834E-03-1.25944E-13
 -1      3559 7.76882E-03 6.11086E-04-3.83482E-14
 -1      3560 8.02188E-03 4.86339E-04-3.94699E-14
 -1      3561 8.08475E-03 4.66997E-04-4.00376E-14
 -1      3562 6.23475E-03-4.45874E-04-3.07027E-14
 -1      3563 1.37010E-02 1.22756E-03-1.36150E-13
 -1      3564 1.37272E-02 1.26964E-03-1.36086E-13
 -1      3565 4.50802E-03 7.81414E-04-1.62515E-14
 -1      3566 6.98420E-03-3.50505E-05-3.58650E-14
 -1      3567 6.82069E-03-1.25777E-04-3.49002E-14
 -1      3568 1.92650E-03 2.52077E-04-3.84965E-15
 -1      3569 1.78748E-03 2.47224E-04-3.34356E-15
 -1      3570 9.86926E-04-2.66707E-05-1.36928E-15
 -1      3571 9.90454E-04-4.81478E-05-1.36894E-15
 -1      3572 1.10866E-03-6.33660E-05-1.65573E-15
 -1      3573 5.17080E-03-7.04949E-04-2.20012E-14
 -1      3574 8.01707E-03 4.08847E-04-4.01878E-14
 -1      3575 7.92532E-03 3.85435E-04-3.96231E-14
 -1      3576 8.39593E-03 6.57695E-04-4.63360E-14
 -1      3577 8.26195E-03 6.39888E-04-4.45285E-14
 -1      3578 8.48076E-03 6.36592E-04-4.73407E-14
 -1      3579 1.24063E-03 1.41571E-04-1.87937E-15
 -1      3580 1.23092E-03 1.15397E-04-1.90405E-15
 -1      3581 8.12743E-03 6.25078E-04-4.27470E-14
 -1      3582 7.99023E-03 6.14502E-04-4.09923E-14
 -1      3583 8.22715E-03 5.97183E-04-4.37256E-14
 -1      3584 6.66420E-03-2.28819E-04-3.41096E-14
 -1      3585 1.30170E-03 2.15729E-04-1.87068E-15
 -1      3586 1.26566E-03 1.69904E-04-1.88612E-15
 -1      3587 1.37780E-03 1.63626E-04-2.23419E-15
 -1      3588 1.43538E-03 2.25648E-04-2.23542E-15
 -1      3589 1.56143E-03-2.07601E-04-2.77335E-15
 -1      3590 1.70321E-03-2.13780E-04-3.24190E-15
 -1      3591 1.75804E-03-1.84596E-04-3.51269E-15
 -1      3592 1.22326E-03 9.03072E-05-1.92436E-15
 -1      3593 1.21778E-03 6.59946E-05-1.94124E-15
 -1      3594 1.34296E-03 1.08506E-04-2.24999E-15
 -1      3595 3.07814E-03 1.62767E-04-1.19748E-14
 -1      3596 3.10176E-03 1.79352E-04-1.19161E-14
 -1      3597 3.28476E-03 7.38357E-05-1.28131E-14
 -1      3598 3.20780E-03 1.04975E-04-1.26409E-14
 -1      3599 3.41689E-03 2.91228E-04-1.23981E-14
 -1      3600 3.52492E-03 3.52519E-04-1.22632E-14
 -1      3601 3.38181E-03 3.29717E-04-1.13646E-14
 -1      3602 3.28487E-03 2.61166E-04-1.17726E-14
 -1      3603 4.46040E-03-4.92642E-04-1.72572E-14
 -1      3604 4.45388E-03-4.55266E-04-1.73337E-14
 -1      3605 4.27842E-03-4.40288E-04-1.61655E-14
 -1      3606 7.89991E-03 5.64970E-04-3.92908E-14
 -1      3607 3.10453E-03 1.92851E-04-1.15850E-14
 -1      3608 3.11418E-03 2.09616E-04-1.12537E-14
 -1      3609 3.00280E-03 1.75292E-04-1.08752E-14
 -1      3610 3.03101E-03 1.45949E-04-1.15283E-14
 -1      3611 1.10033E-03-1.68472E-05-1.65659E-15
 -1      3612 3.26456E-03 3.13769E-04-1.06488E-14
 -1      3613 3.12782E-03 2.99959E-04-9.80912E-15
 -1      3614 3.00720E-03 2.60419E-04-9.47254E-15
 -1      3615 3.22403E-03 2.80158E-04-1.08496E-14
 -1      3616 7.88378E-03 3.64970E-04-3.99867E-14
 -1      3617 7.13584E-03 2.98874E-05-3.69834E-14
 -1      3618 3.98685E-03-3.55154E-04-1.45293E-14
 -1      3619 4.16566E-03-3.96292E-04-1.55627E-14
 -1      3620 7.99830E-03 5.30654E-04-3.99571E-14
 -1      3621 1.18971E-03-1.75179E-04-1.72609E-15
 -1      3622 5.00057E-03-6.67063E-04-2.07511E-14
 -1      3623 1.41088E-02 1.81806E-03-1.35902E-13
 -1      3624 3.85712E-03-2.75859E-04-1.40350E-14
 -1      3625 8.11040E-03 5.33766E-04-4.14667E-14
 -1      3626 2.77056E-03 2.46950E-04-8.05217E-15
 -1      3627 2.74542E-03 2.74969E-04-7.61580E-15
 -1      3628 2.61059E-03 2.70029E-04-6.90326E-15
 -1      3629 1.34886E-02 1.11475E-03-1.33472E-13
 -1      3630 1.36111E-02 1.13477E-03-1.35638E-13
 -1      3631 1.36440E-02 1.16239E-03-1.35915E-13
 -1      3632 1.34402E-02 1.13850E-03-1.32185E-13
 -1      3633 8.11479E-03 4.29542E-04-4.16476E-14
 -1      3634 2.43923E-03 2.95436E-04-5.83119E-15
 -1      3635 1.38055E-02 1.39497E-03-1.35889E-13
 -1      3636 1.38316E-02 1.43667E-03-1.35822E-13
 -1      3637 1.21444E-03 4.21483E-05-1.95440E-15
 -1      3638 1.21325E-03 1.84700E-05-1.96396E-15
 -1      3639 1.33082E-03 5.75977E-05-2.28753E-15
 -1      3640 8.16415E-03 4.72493E-04-4.15417E-14
 -1      3641 1.38386E-02 1.74908E-03-1.31489E-13
 -1      3642 1.37437E-02 1.69850E-03-1.30325E-13
 -1      3643 1.39448E-02 1.76211E-03-1.33423E-13
 -1      3644 4.08528E-03-2.86732E-04-1.55018E-14
 -1      3645 3.98528E-03-2.36591E-04-1.50936E-14
 -1      3646 1.36164E-02 1.26721E-03-1.33908E-13
 -1      3647 1.37532E-02 1.31136E-03-1.36023E-13
 -1      3648 1.37793E-02 1.35308E-03-1.35955E-13
 -1      3649 1.38579E-02 1.47865E-03-1.35751E-13
 -1      3650 1.38842E-02 1.52062E-03-1.35683E-13
 -1      3651 1.37211E-02 1.43458E-03-1.33643E-13
 -1      3652 2.20244E-03 2.59437E-04-4.96762E-15
 -1      3653 2.06478E-03 2.56088E-04-4.39111E-15
 -1      3654 1.97355E-03 2.24905E-04-4.16721E-15
 -1      3655 7.52529E-03 2.43396E-04-3.80893E-14
 -1      3656 7.46682E-03 1.97940E-04-3.84803E-14
 -1      3657 7.66760E-03 2.86220E-04-3.92028E-14
 -1      3658 1.39633E-02 1.64649E-03-1.35466E-13
 -1      3659 1.39898E-02 1.68857E-03-1.35392E-13
 -1      3660 1.67823E-03 2.40877E-04-2.97788E-15
 -1      3661 1.54487E-03 2.34197E-04-2.55326E-15
 -1      3662 1.51346E-03 2.01699E-04-2.55671E-15
 -1      3663 1.72929E-03 2.15071E-04-3.25786E-15
 -1      3664 1.22198E-03-5.40762E-05-1.97276E-15
 -1      3665 1.22862E-03-7.97113E-05-1.96898E-15
 -1      3666 1.31165E-03-1.87892E-04-2.04276E-15
 -1      3667 1.43825E-03-1.97393E-04-2.40252E-15
 -1      3668 1.49539E-03-1.71819E-04-2.63635E-15
 -1      3669 1.25289E-03-1.52119E-04-1.93903E-15
 -1      3670 4.20570E-03-3.33264E-04-1.61022E-14
 -1      3671 1.23482E-03-1.01049E-04-1.96209E-15
 -1      3672 1.24443E-03-1.28833E-04-1.95158E-15
 -1      3673 1.36423E-03-1.37909E-04-2.28870E-15
 -1      3674 1.34819E-03-9.14506E-05-2.30847E-15
 -1      3675 3.36148E-03 3.41394E-05-1.29227E-14
 -1      3676 3.24369E-03 4.28195E-05-1.22208E-14
 -1      3677 3.11897E-03 1.05643E-04-1.19886E-14
 -1      3678 3.47709E-03-7.17480E-06-1.33057E-14
 -1      3679 1.36769E-02 1.19001E-03-1.36189E-13
 -1      3680 1.38514E-02 1.67786E-03-1.32774E-13
 -1      3681 1.39884E-02 1.72227E-03-1.34877E-13
 -1      3682 1.35662E-02 1.18798E-03-1.34010E-13
 -1      3683 8.22067E-03 4.50866E-04-4.33678E-14
 -1      3684 8.13807E-03 4.20778E-04-4.28966E-14
 -1      3685 1.95194E-03-1.56819E-04-4.33067E-15
 -1      3686 2.09145E-03-1.57439E-04-4.90852E-15
 -1      3687 2.23114E-03-1.57327E-04-5.52112E-15
 -1      3688 2.37129E-03-1.56738E-04-6.16861E-15
 -1      3689 2.14236E-03-1.25054E-04-5.22516E-15
 -1      3690 2.51195E-03-1.55864E-04-6.85151E-15
 -1      3691 2.65362E-03-1.55135E-04-7.56858E-15
 -1      3692 2.41807E-03-1.21475E-04-6.52034E-15
 -1      3693 2.79646E-03-1.54669E-04-8.31991E-15
 -1      3694 2.94129E-03-1.55319E-04-9.10672E-15
 -1      3695 2.69552E-03-1.16590E-04-7.95303E-15
 -1      3696 3.08838E-03-1.57097E-04-9.92714E-15
 -1      3697 3.23892E-03-1.61501E-04-1.07817E-14
 -1      3698 2.97770E-03-1.12725E-04-9.52289E-15
 -1      3699 3.39374E-03-1.68591E-04-1.16698E-14
 -1      3700 3.55383E-03-1.81109E-04-1.25913E-14
 -1      3701 3.26991E-03-1.14030E-04-1.12279E-14
 -1      3702 1.34643E-02 1.17602E-03-1.32149E-13
 -1      3703 7.47501E-03 1.07944E-04-4.07910E-14
 -1      3704 7.63252E-03 1.45909E-04-4.25299E-14
 -1      3705 7.78480E-03 1.78831E-04-4.42967E-14
 -1      3706 7.93309E-03 2.08964E-04-4.60918E-14
 -1      3707 7.77507E-03 2.11718E-04-4.33924E-14
 -1      3708 8.07805E-03 2.36409E-04-4.79138E-14
 -1      3709 8.22072E-03 2.62472E-04-4.97609E-14
 -1      3710 8.06249E-03 2.64990E-04-4.69832E-14
 -1      3711 8.36151E-03 2.87196E-04-5.16324E-14
 -1      3712 8.50114E-03 3.11222E-04-5.35299E-14
 -1      3713 8.34022E-03 3.12494E-04-5.06749E-14
 -1      3714 8.63984E-03 3.34611E-04-5.54515E-14
 -1      3715 8.77809E-03 3.57685E-04-5.73972E-14
 -1      3716 8.61342E-03 3.57778E-04-5.44684E-14
 -1      3717 8.91601E-03 3.80509E-04-5.93669E-14
 -1      3718 9.05390E-03 4.03236E-04-6.13596E-14
 -1      3719 8.88520E-03 4.02457E-04-5.83591E-14
 -1      3720 9.19181E-03 4.25934E-04-6.33735E-14
 -1      3721 9.32993E-03 4.48665E-04-6.54089E-14
 -1      3722 9.15732E-03 4.47317E-04-6.23410E-14
 -1      3723 9.46825E-03 4.71493E-04-6.74664E-14
 -1      3724 9.60689E-03 4.94437E-04-6.95403E-14
 -1      3725 9.43071E-03 4.92744E-04-6.64111E-14
 -1      3726 9.74582E-03 5.17551E-04-7.16359E-14
 -1      3727 9.88511E-03 5.40830E-04-7.37489E-14
 -1      3728 9.70580E-03 5.38929E-04-7.05619E-14
 -1      3729 1.00247E-02 5.64317E-04-7.58766E-14
 -1      3730 1.01647E-02 5.87994E-04-7.80227E-14
 -1      3731 9.98268E-03 5.85960E-04-7.47842E-14
 -1      3732 1.03049E-02 6.11892E-04-8.01861E-14
 -1      3733 1.04455E-02 6.35989E-04-8.23666E-14
 -1      3734 1.02613E-02 6.33857E-04-7.90733E-14
 -1      3735 1.05863E-02 6.60304E-04-8.45617E-14
 -1      3736 1.07274E-02 6.84815E-04-8.67734E-14
 -1      3737 1.05414E-02 6.82597E-04-8.34317E-14
 -1      3738 1.08687E-02 7.09531E-04-8.90027E-14
 -1      3739 1.10103E-02 7.34430E-04-9.12465E-14
 -1      3740 1.08229E-02 7.32127E-04-8.78540E-14
 -1      3741 1.11520E-02 7.59514E-04-9.35046E-14
 -1      3742 1.12939E-02 7.84764E-04-9.57775E-14
 -1      3743 1.11054E-02 7.82374E-04-9.23395E-14
 -1      3744 1.14359E-02 8.10178E-04-9.80652E-14
 -1      3745 1.15781E-02 8.35736E-04-1.00367E-13
 -1      3746 1.13888E-02 8.33257E-04-9.68849E-14
 -1      3747 1.17204E-02 8.61434E-04-1.02683E-13
 -1      3748 1.18628E-02 8.87257E-04-1.05013E-13
 -1      3749 1.16729E-02 8.84691E-04-1.01488E-13
 -1      3750 1.20053E-02 9.13197E-04-1.07357E-13
 -1      3751 1.21479E-02 9.39241E-04-1.09718E-13
 -1      3752 1.19575E-02 9.36591E-04-1.06146E-13
 -1      3753 1.22905E-02 9.65381E-04-1.12089E-13
 -1      3754 1.24332E-02 9.91606E-04-1.14473E-13
 -1      3755 1.22425E-02 9.88879E-04-1.10862E-13
 -1      3756 1.25759E-02 1.01791E-03-1.16875E-13
 -1      3757 1.27187E-02 1.04428E-03-1.19289E-13
 -1      3758 1.25278E-02 1.04148E-03-1.15631E-13
 -1      3759 1.28615E-02 1.07071E-03-1.21715E-13
 -1      3760 1.30043E-02 1.09719E-03-1.24148E-13
 -1      3761 1.28132E-02 1.09434E-03-1.20455E-13
 -1      3762 1.31471E-02 1.12373E-03-1.26591E-13
 -1      3763 1.32900E-02 1.15030E-03-1.29047E-13
 -1      3764 1.30988E-02 1.14740E-03-1.25321E-13
 -1      3765 1.40140E-02 1.76748E-03-1.34734E-13
 -1      3766 9.32473E-03 7.77681E-04-5.98502E-14
 -1      3767 9.19270E-03 7.49240E-04-5.78761E-14
 -1      3768 2.98209E-03 1.22631E-04-1.10353E-14
 -1      3769 2.94621E-03 1.40986E-04-1.07144E-14
 -1      3770 1.36686E-02 1.35077E-03-1.33780E-13
 -1      3771 9.86451E-03 8.95291E-04-6.79676E-14
 -1      3772 9.72801E-03 8.65478E-04-6.59065E-14
 -1      3773 1.01399E-02 9.55109E-04-7.21446E-14
 -1      3774 1.00018E-02 9.25164E-04-7.00465E-14
 -1      3775 9.91703E-03 8.78953E-04-6.90854E-14
 -1      3776 1.04180E-02 1.01484E-03-7.63934E-14
 -1      3777 1.02786E-02 9.84998E-04-7.42609E-14
 -1      3778 1.01913E-02 9.37695E-04-7.32816E-14
 -1      3779 1.06980E-02 1.07415E-03-8.07107E-14
 -1      3780 1.05578E-02 1.04456E-03-7.85432E-14
 -1      3781 1.04685E-02 9.96398E-04-7.75488E-14
 -1      3782 1.09797E-02 1.13285E-03-8.50925E-14
 -1      3783 1.08387E-02 1.10358E-03-8.28936E-14
 -1      3784 1.07479E-02 1.05476E-03-8.18831E-14
 -1      3785 1.12625E-02 1.19085E-03-8.95433E-14
 -1      3786 1.11210E-02 1.16194E-03-8.73083E-14
 -1      3787 1.10290E-02 1.11263E-03-8.62822E-14
 -1      3788 1.15462E-02 1.24815E-03-9.40632E-14
 -1      3789 1.14043E-02 1.21959E-03-9.17947E-14
 -1      3790 1.13114E-02 1.16991E-03-9.07485E-14
 -1      3791 1.18306E-02 1.30479E-03-9.86473E-14
 -1      3792 1.16883E-02 1.27655E-03-9.63465E-14
 -1      3793 1.15949E-02 1.22660E-03-9.52827E-14
 -1      3794 1.21154E-02 1.36083E-03-1.03289E-13
 -1      3795 1.19729E-02 1.33288E-03-1.00962E-13
 -1      3796 1.18790E-02 1.28274E-03-9.98814E-14
 -1      3797 1.24005E-02 1.41636E-03-1.07985E-13
 -1      3798 1.22579E-02 1.38866E-03-1.05631E-13
 -1      3799 1.21637E-02 1.33838E-03-1.04536E-13
 -1      3800 1.26859E-02 1.47145E-03-1.12728E-13
 -1      3801 1.25432E-02 1.44396E-03-1.10351E-13
 -1      3802 1.24487E-02 1.39359E-03-1.09241E-13
 -1      3803 1.29714E-02 1.52619E-03-1.17520E-13
 -1      3804 1.28286E-02 1.49886E-03-1.15118E-13
 -1      3805 1.27340E-02 1.44843E-03-1.13995E-13
 -1      3806 1.32571E-02 1.58065E-03-1.22358E-13
 -1      3807 1.31142E-02 1.55345E-03-1.19933E-13
 -1      3808 1.30195E-02 1.50297E-03-1.18795E-13
 -1      3809 1.35428E-02 1.63488E-03-1.27238E-13
 -1      3810 1.33999E-02 1.60779E-03-1.24793E-13
 -1      3811 1.33051E-02 1.55728E-03-1.23643E-13
 -1      3812 4.15164E-03-3.54228E-04-1.56381E-14
 -1      3813 1.67345E-03-1.52580E-04-3.28173E-15
 -1      3814 1.81265E-03-1.55248E-04-3.78830E-15
 -1      3815 1.86698E-03-1.25762E-04-4.06942E-15
 -1      3816 3.17430E-03 1.23701E-05-1.14979E-14
 -1      3817 3.11385E-03 4.75281E-05-1.13983E-14
 -1      3818 8.80588E-03 6.68579E-04-5.20886E-14
 -1      3819 8.68029E-03 6.43544E-04-5.02048E-14
 -1      3820 8.22374E-03 5.51794E-04-4.32276E-14
 -1      3821 8.21759E-03 5.12391E-04-4.27216E-14
 -1      3822 8.34011E-03 5.71804E-04-4.50138E-14
 -1      3823 3.67871E-03-1.90526E-04-1.33281E-14
 -1      3824 3.85029E-03-2.15758E-04-1.43103E-14
 -1      3825 3.78942E-03-1.41853E-04-1.43522E-14
 -1      3826 3.54053E-03-1.22752E-04-1.28510E-14
 -1      3827 8.56786E-03 6.17833E-04-4.85039E-14
 -1      3828 8.44664E-03 5.95147E-04-4.66696E-14
 -1      3829 8.42194E-03 5.55469E-04-4.61487E-14
 -1      3830 8.63354E-03 6.04157E-04-4.95120E-14
 -1      3831 2.47534E-03 2.66023E-04-6.22408E-15
 -1      3832 2.33921E-03 2.62676E-04-5.57849E-15
 -1      3833 2.50971E-03 2.38205E-04-6.62172E-15
 -1      3834 1.37501E-02 1.66292E-03-1.30966E-13
 -1      3835 1.36440E-02 1.64988E-03-1.29035E-13
 -1      3836 1.35492E-02 1.59935E-03-1.27875E-13
 -1      3837 1.37516E-02 1.62926E-03-1.31477E-13
 -1      3838 9.06218E-03 7.21544E-04-5.59227E-14
 -1      3839 8.93312E-03 6.94534E-04-5.39945E-14
 -1      3840 9.12050E-03 7.07856E-04-5.69775E-14
 -1      3841 3.05889E-03 7.76264E-05-1.12827E-14
 -1      3842 3.01257E-03 1.02754E-04-1.11603E-14
 -1      3843 2.91073E-03 9.89055E-05-1.03605E-14
 -1      3844 2.98897E-03 4.95642E-05-1.05906E-14
 -1      3845 1.46397E-03 1.27230E-04-2.59879E-15
 -1      3846 1.45463E-03 1.00227E-04-2.62399E-15
 -1      3847 1.21417E-03-5.20808E-06-1.97004E-15
 -1      3848 1.21711E-03-2.93380E-05-1.97310E-15
 -1      3849 1.33526E-03-4.29027E-05-2.31625E-15
 -1      3850 1.32836E-03 7.91324E-06-2.30942E-15
 -1      3851 1.39105E-02 1.56256E-03-1.35610E-13
 -1      3852 1.39369E-02 1.60454E-03-1.35538E-13
 -1      3853 1.38265E-02 1.60226E-03-1.33360E-13
 -1      3854 1.37737E-02 1.51843E-03-1.33502E-13
 -1      3855 9.59250E-03 8.35906E-04-6.38668E-14
 -1      3856 9.45800E-03 8.06560E-04-6.18474E-14
 -1      3857 9.64646E-03 8.20621E-04-6.49650E-14
 -1      3858 3.66238E-03-7.85199E-05-1.39590E-14
 -1      3859 7.30661E-03 8.25341E-05-3.86579E-14
 -1      3860 7.98083E-03 3.76102E-04-4.15952E-14
 -1      3861 7.83384E-03 3.37176E-04-4.03934E-14
 -1      3862 7.78459E-03 3.04088E-04-4.07978E-14
 -1      3863 3.48310E-03-5.59079E-05-1.29513E-14
 -1      3864 8.25768E-03 4.91866E-04-4.33016E-14
 -1      3865 1.34160E-02 1.19973E-03-1.30861E-13
 -1      3866 7.46969E-03 1.63340E-04-3.94855E-14
 -1      3867 2.79411E-03 2.21227E-04-8.49280E-15
 -1      3868 2.66962E-03 2.16471E-04-7.74184E-15
 -1      3869 9.38056E-03 7.63326E-04-6.09267E-14
 -1      3870 1.44794E-03 7.39514E-05-2.64475E-15
 -1      3871 1.44410E-03 4.80752E-05-2.66140E-15
 -1      3872 1.56594E-03 9.09260E-05-3.02587E-15
 -1      3873 1.36989E-02 1.54546E-03-1.31624E-13
 -1      3874 1.37252E-02 1.58735E-03-1.31553E-13
 -1      3875 1.36240E-02 1.57243E-03-1.29748E-13
 -1      3876 2.85488E-03 1.31904E-04-9.94054E-15
 -1      3877 2.92370E-03 1.53618E-04-1.04053E-14
 -1      3878 2.90964E-03 1.67325E-04-1.00968E-14
 -1      3879 1.34420E-02 1.24140E-03-1.30800E-13
 -1      3880 1.34682E-02 1.28323E-03-1.30739E-13
 -1      3881 1.34944E-02 1.32505E-03-1.30672E-13
 -1      3882 1.32678E-02 1.21578E-03-1.27708E-13
 -1      3883 8.86767E-03 6.55098E-04-5.31186E-14
 -1      3884 8.37474E-03 5.19382E-04-4.53669E-14
 -1      3885 8.29330E-03 4.80492E-04-4.41522E-14
 -1      3886 8.34228E-03 4.75608E-04-4.54359E-14
 -1      3887 8.47359E-03 5.41962E-04-4.70276E-14
 -1      3888 3.22670E-03-5.63444E-05-1.13279E-14
 -1      3889 3.08271E-03-4.36368E-05-1.05349E-14
 -1      3890 2.24393E-03 2.31664E-04-5.32579E-15
 -1      3891 1.33474E-02 1.31008E-03-1.27971E-13
 -1      3892 1.35478E-02 1.37763E-03-1.30998E-13
 -1      3893 8.24047E-03 4.26610E-04-4.50656E-14
 -1      3894 8.11350E-03 4.02047E-04-4.33160E-14
 -1      3895 8.08379E-03 3.79750E-04-4.37359E-14
 -1      3896 1.35741E-02 1.41954E-03-1.30927E-13
 -1      3897 2.02054E-03 1.98826E-04-4.49081E-15
 -1      3898 1.88624E-03 1.95052E-04-3.94341E-15
 -1      3899 2.95273E-03 2.18927E-04-9.67514E-15
 -1      3900 2.85524E-03 1.90293E-04-9.32675E-15
 -1      3901 1.45823E-03-1.42217E-04-2.57444E-15
 -1      3902 1.57898E-03-1.49656E-04-2.95886E-15
 -1      3903 1.63573E-03-1.22905E-04-3.20871E-15
 -1      3904 1.44888E-03-1.17709E-04-2.58657E-15
 -1      3905 1.43366E-03-7.12772E-05-2.60169E-15
 -1      3906 1.44063E-03-9.41073E-05-2.59546E-15
 -1      3907 1.53322E-03-9.62420E-05-2.89897E-15
 -1      3908 3.18289E-03 2.50125E-04-1.10463E-14
 -1      3909 1.50052E-03 1.78262E-04-2.58543E-15
 -1      3910 1.47347E-03 1.48720E-04-2.57764E-15
 -1      3911 1.58392E-03 1.39741E-04-2.97960E-15
 -1      3912 1.60741E-03 1.84943E-04-2.92781E-15
 -1      3913 1.42115E-03-1.72001E-05-2.60188E-15
 -1      3914 1.42628E-03-4.38036E-05-2.60375E-15
 -1      3915 1.51737E-03-4.43408E-05-2.90741E-15
 -1      3916 1.71408E-03 1.90869E-04-3.29133E-15
 -1      3917 7.61376E-03 2.13307E-04-4.06174E-14
 -1      3918 3.05122E-03 2.25934E-04-1.03589E-14
 -1      3919 1.76628E-03 1.66690E-04-3.57531E-15
 -1      3920 1.75413E-03 1.44150E-04-3.60214E-15
 -1      3921 2.54339E-03 2.12243E-04-7.02413E-15
 -1      3922 2.41506E-03 2.08707E-04-6.33979E-15
 -1      3923 2.57700E-03 1.88179E-04-7.43169E-15
 -1      3924 2.94718E-03-4.89541E-05-9.69571E-15
 -1      3925 2.91620E-03 9.34653E-06-9.85587E-15
 -1      3926 2.81243E-03-5.44258E-05-8.88905E-15
 -1      3927 2.32817E-03-8.99951E-05-6.19285E-15
 -1      3928 2.46358E-03-8.64968E-05-6.87453E-15
 -1      3929 2.57176E-03-7.35810E-05-7.48394E-15
 -1      3930 2.70654E-03-6.88771E-05-8.22817E-15
 -1      3931 2.69016E-03-1.51810E-05-8.38250E-15
 -1      3932 2.48232E-03-4.38049E-05-7.12654E-15
 -1      3933 1.05181E-02 9.77852E-04-7.87056E-14
 -1      3934 1.03794E-02 9.49030E-04-7.65544E-14
 -1      3935 8.05167E-03 2.93339E-04-4.60524E-14
 -1      3936 8.18759E-03 3.15653E-04-4.78738E-14
 -1      3937 8.32187E-03 3.37237E-04-4.97206E-14
 -1      3938 8.45563E-03 3.58773E-04-5.15912E-14
 -1      3939 8.30653E-03 3.61481E-04-4.87661E-14
 -1      3940 8.58884E-03 3.80218E-04-5.34882E-14
 -1      3941 8.72216E-03 4.01817E-04-5.54079E-14
 -1      3942 8.56603E-03 4.01913E-04-5.25085E-14
 -1      3943 8.85556E-03 4.23592E-04-5.73526E-14
 -1      3944 8.98939E-03 4.45597E-04-5.93209E-14
 -1      3945 8.82696E-03 4.43884E-04-5.63480E-14
 -1      3946 9.12360E-03 4.67867E-04-6.13127E-14
 -1      3947 9.25840E-03 4.90383E-04-6.33253E-14
 -1      3948 9.09053E-03 4.87548E-04-6.02831E-14
 -1      3949 9.39372E-03 5.13183E-04-6.53585E-14
 -1      3950 9.52967E-03 5.36227E-04-6.74130E-14
 -1      3951 9.35714E-03 5.32779E-04-6.43080E-14
 -1      3952 9.66618E-03 5.59550E-04-6.94877E-14
 -1      3953 9.80330E-03 5.83104E-04-7.15810E-14
 -1      3954 9.62685E-03 5.79383E-04-6.84144E-14
 -1      3955 9.94097E-03 6.06921E-04-7.36908E-14
 -1      3956 1.00792E-02 6.30953E-04-7.58164E-14
 -1      3957 9.89946E-03 6.27171E-04-7.25972E-14
 -1      3958 1.02179E-02 6.55226E-04-7.79620E-14
 -1      3959 1.03571E-02 6.79696E-04-8.01241E-14
 -1      3960 1.01747E-02 6.75970E-04-7.68505E-14
 -1      3961 1.04967E-02 7.04382E-04-8.23017E-14
 -1      3962 1.06368E-02 7.29246E-04-8.44960E-14
 -1      3963 1.04522E-02 7.25632E-04-8.11717E-14
 -1      3964 1.07772E-02 7.54300E-04-8.67061E-14
 -1      3965 1.09179E-02 7.79513E-04-8.89331E-14
 -1      3966 1.07316E-02 7.76026E-04-8.55584E-14
 -1      3967 1.10589E-02 8.04890E-04-9.11752E-14
 -1      3968 1.12002E-02 8.30406E-04-9.34305E-14
 -1      3969 1.10126E-02 8.27040E-04-9.00088E-14
 -1      3970 1.13418E-02 8.56063E-04-9.57044E-14
 -1      3971 1.14835E-02 8.81839E-04-9.79912E-14
 -1      3972 1.12949E-02 8.78574E-04-9.45240E-14
 -1      3973 1.16254E-02 9.07733E-04-1.00292E-13
 -1      3974 1.17675E-02 9.33728E-04-1.02608E-13
 -1      3975 1.15781E-02 9.30543E-04-9.90981E-14
 -1      3976 1.19097E-02 9.59820E-04-1.04937E-13
 -1      3977 1.20521E-02 9.85997E-04-1.07280E-13
 -1      3978 1.18621E-02 9.82871E-04-1.03727E-13
 -1      3979 1.21945E-02 1.01225E-03-1.09636E-13
 -1      3980 1.23370E-02 1.03858E-03-1.12006E-13
 -1      3981 1.21466E-02 1.03549E-03-1.08411E-13
 -1      3982 1.24796E-02 1.06497E-03-1.14390E-13
 -1      3983 1.26223E-02 1.09141E-03-1.16788E-13
 -1      3984 1.24316E-02 1.08835E-03-1.13152E-13
 -1      3985 1.27650E-02 1.11791E-03-1.19197E-13
 -1      3986 1.29078E-02 1.14444E-03-1.21617E-13
 -1      3987 1.27168E-02 1.14140E-03-1.17941E-13
 -1      3988 1.30164E-02 1.16678E-03-1.23438E-13
 -1      3989 1.31592E-02 1.19339E-03-1.25875E-13
 -1      3990 1.31853E-02 1.23513E-03-1.25814E-13
 -1      3991 1.29681E-02 1.19034E-03-1.22168E-13
 -1      3992 1.02414E-02 9.20203E-04-7.44197E-14
 -1      3993 1.01042E-02 8.91350E-04-7.23035E-14
 -1      3994 1.02904E-02 9.02463E-04-7.55597E-14
 -1      3995 9.96782E-03 8.62584E-04-7.02055E-14
 -1      3996 9.83239E-03 8.33882E-04-6.81250E-14
 -1      3997 1.00171E-02 8.45962E-04-7.13276E-14
 -1      3998 1.07970E-02 1.03527E-03-8.30538E-14
 -1      3999 1.06573E-02 1.00659E-03-8.08709E-14
 -1      4000 1.05668E-02 9.59079E-04-7.98591E-14
 -1      4001 1.10778E-02 1.09230E-03-8.74712E-14
 -1      4002 1.09372E-02 1.06383E-03-8.52556E-14
 -1      4003 1.08456E-02 1.01557E-03-8.42266E-14
 -1      4004 1.13600E-02 1.14887E-03-9.19549E-14
 -1      4005 1.12188E-02 1.12064E-03-8.97049E-14
 -1      4006 1.11263E-02 1.07179E-03-8.86619E-14
 -1      4007 1.16433E-02 1.20497E-03-9.65044E-14
 -1      4008 1.15015E-02 1.17697E-03-9.42216E-14
 -1      4009 1.14084E-02 1.12767E-03-9.31601E-14
 -1      4010 1.19273E-02 1.26061E-03-1.01116E-13
 -1      4011 1.17852E-02 1.23284E-03-9.88017E-14
 -1      4012 1.16915E-02 1.18320E-03-9.77239E-14
 -1      4013 1.22119E-02 1.31586E-03-1.05780E-13
 -1      4014 1.20695E-02 1.28828E-03-1.03441E-13
 -1      4015 1.19755E-02 1.23838E-03-1.02348E-13
 -1      4016 1.24969E-02 1.37075E-03-1.10497E-13
 -1      4017 1.23543E-02 1.34335E-03-1.08134E-13
 -1      4018 1.22600E-02 1.29325E-03-1.07027E-13
 -1      4019 1.27822E-02 1.42535E-03-1.15259E-13
 -1      4020 1.26395E-02 1.39809E-03-1.12871E-13
 -1      4021 1.25450E-02 1.34785E-03-1.11751E-13
 -1      4022 1.30676E-02 1.47971E-03-1.20071E-13
 -1      4023 1.29249E-02 1.45256E-03-1.17659E-13
 -1      4024 1.28303E-02 1.40222E-03-1.16525E-13
 -1      4025 1.33532E-02 1.53388E-03-1.24927E-13
 -1      4026 1.32104E-02 1.50682E-03-1.22494E-13
 -1      4027 1.31158E-02 1.45641E-03-1.21347E-13
 -1      4028 9.17448E-03 6.94702E-04-5.80327E-14
 -1      4029 9.04788E-03 6.68261E-04-5.60805E-14
 -1      4030 1.35392E-02 1.56065E-03-1.28229E-13
 -1      4031 1.34380E-02 1.54569E-03-1.26436E-13
 -1      4032 1.33433E-02 1.49525E-03-1.25280E-13
 -1      4033 1.35128E-02 1.51880E-03-1.28303E-13
 -1      4034 2.28514E-03 2.05390E-04-5.68911E-15
 -1      4035 2.15350E-03 2.02253E-04-5.07274E-15
 -1      4036 2.06777E-03 1.73877E-04-4.82030E-15
 -1      4037 1.32388E-02 1.28761E-03-1.26140E-13
 -1      4038 1.32923E-02 1.34010E-03-1.26463E-13
 -1      4039 1.31302E-02 1.26516E-03-1.24314E-13
 -1      4040 1.88757E-03 1.36558E-04-4.17219E-15
 -1      4041 1.71033E-03 1.11367E-04-3.52242E-15
 -1      4042 2.76220E-03 1.67023E-04-8.89581E-15
 -1      4043 3.37129E-03-5.68260E-05-1.22305E-14
 -1      4044 9.69807E-03 8.05400E-04-6.60633E-14
 -1      4045 9.56494E-03 7.77103E-04-6.40228E-14
 -1      4046 9.74763E-03 7.89939E-04-6.71649E-14
 -1      4047 9.43320E-03 7.49206E-04-6.20039E-14
 -1      4048 9.30296E-03 7.21644E-04-6.00065E-14
 -1      4049 9.22473E-03 6.81471E-04-5.90887E-14
 -1      4050 7.76625E-03 2.43086E-04-4.24220E-14
 -1      4051 7.90757E-03 2.68610E-04-4.41890E-14
 -1      4052 8.03974E-03 3.20159E-04-4.50564E-14
 -1      4053 7.75897E-03 2.74108E-04-4.13881E-14
 -1      4054 1.78519E-03-9.66423E-05-3.81200E-15
 -1      4055 1.92131E-03-9.62872E-05-4.35546E-15
 -1      4056 1.36233E-02 1.46155E-03-1.31311E-13
 -1      4057 1.36496E-02 1.50342E-03-1.31243E-13
 -1      4058 1.35484E-02 1.48854E-03-1.29441E-13
 -1      4059 1.34500E-02 1.40457E-03-1.28678E-13
 -1      4060 1.41846E-03 8.76995E-06-2.59620E-15
 -1      4061 8.92351E-03 6.42698E-04-5.41507E-14
 -1      4062 8.80154E-03 6.17744E-04-5.22442E-14
 -1      4063 8.97420E-03 6.30394E-04-5.51850E-14
 -1      4064 2.05713E-03-9.50164E-05-4.93307E-15
 -1      4065 2.19281E-03-9.28719E-05-5.54542E-15
 -1      4066 1.97567E-03-6.68824E-05-4.64512E-15
 -1      4067 7.91946E-03 3.25089E-04-4.26075E-14
 -1      4068 2.61199E-03 1.66217E-04-7.84366E-15
 -1      4069 2.49205E-03 1.61669E-04-7.12155E-15
 -1      4070 2.24284E-03-6.09501E-05-5.86967E-15
 -1      4071 2.32650E-03 1.80635E-04-6.05810E-15
 -1      4072 2.87071E-03 3.89355E-05-9.75262E-15
 -1      4073 1.70217E-03 8.38260E-05-3.54794E-15
 -1      4074 2.79484E-03 1.10539E-04-9.50401E-15
 -1      4075 2.76176E-03 1.24930E-04-9.21613E-15
 -1      4076 2.14679E-03 1.44005E-04-5.33129E-15
 -1      4077 2.01800E-03 1.40403E-04-4.73434E-15
 -1      4078 1.97437E-03 1.07818E-04-4.64132E-15
 -1      4079 8.34830E-03 4.54686E-04-4.63448E-14
 -1      4080 8.33612E-03 4.37252E-04-4.67771E-14
 -1      4081 8.07009E-03 3.57589E-04-4.43467E-14
 -1      4082 1.32328E-02 1.35949E-03-1.25017E-13
 -1      4083 1.33414E-02 1.38203E-03-1.26844E-13
 -1      4084 1.33906E-02 1.42398E-03-1.27225E-13
 -1      4085 2.68605E-03 1.41956E-04-8.54967E-15
 -1      4086 1.53278E-03 2.36992E-05-2.98065E-15
 -1      4087 9.48309E-03 7.34896E-04-6.30831E-14
 -1      4088 8.69103E-03 5.92363E-04-5.05202E-14
 -1      4089 8.58369E-03 5.67656E-04-4.88158E-14
 -1      4090 8.74136E-03 5.80946E-04-5.15294E-14
 -1      4091 1.62589E-03-9.78544E-05-3.21854E-15
 -1      4092 2.83272E-03 6.50687E-05-9.64531E-15
 -1      4093 2.80320E-03 8.74904E-05-9.53344E-15
 -1      4094 2.75113E-03 2.90256E-05-8.94742E-15
 -1      4095 2.70358E-03 8.02023E-05-8.82314E-15
 -1      4096 1.62976E-03-2.98028E-05-3.31821E-15
 -1      4097 1.63766E-03-5.85984E-05-3.31834E-15
 -1      4098 8.43632E-03 4.88379E-04-4.71559E-14
 -1      4099 1.68366E-03-7.13314E-05-3.47073E-15
 -1      4100 2.16216E-03-3.41414E-05-5.55051E-15
 -1      4101 2.29295E-03-2.96199E-05-6.19697E-15
 -1      4102 1.08937E-02 9.95638E-04-8.54015E-14
 -1      4103 1.07540E-02 9.67846E-04-8.31993E-14
 -1      4104 9.27167E-03 6.67978E-04-6.01468E-14
 -1      4105 9.14496E-03 6.42574E-04-5.81714E-14
 -1      4106 1.06149E-02 9.40044E-04-8.10145E-14
 -1      4107 1.04763E-02 9.12219E-04-7.88490E-14
 -1      4108 1.06624E-02 9.20668E-04-8.21727E-14
 -1      4109 8.54452E-03 4.22337E-04-5.15307E-14
 -1      4110 8.67132E-03 4.42351E-04-5.34259E-14
 -1      4111 8.79894E-03 4.63042E-04-5.53458E-14
 -1      4112 8.92784E-03 4.84328E-04-5.72884E-14
 -1      4113 8.77123E-03 4.80962E-04-5.43445E-14
 -1      4114 9.05767E-03 5.06205E-04-5.92547E-14
 -1      4115 9.18868E-03 5.28580E-04-6.12449E-14
 -1      4116 9.02480E-03 5.23763E-04-5.82287E-14
 -1      4117 9.32062E-03 5.51446E-04-6.32567E-14
 -1      4118 9.45362E-03 5.74712E-04-6.52886E-14
 -1      4119 9.28395E-03 5.69127E-04-6.22050E-14
 -1      4120 9.58751E-03 5.98380E-04-6.73411E-14
 -1      4121 9.72233E-03 6.22366E-04-6.94143E-14
 -1      4122 9.54799E-03 6.16497E-04-6.62697E-14
 -1      4123 9.85794E-03 6.46678E-04-7.15057E-14
 -1      4124 9.99436E-03 6.71241E-04-7.36141E-14
 -1      4125 9.81626E-03 6.65408E-04-7.04122E-14
 -1      4126 1.01315E-02 6.96067E-04-7.57406E-14
 -1      4127 1.02693E-02 7.21092E-04-7.78838E-14
 -1      4128 1.00881E-02 7.15488E-04-7.46312E-14
 -1      4129 1.04077E-02 7.46328E-04-8.00443E-14
 -1      4130 1.05466E-02 7.71723E-04-8.22195E-14
 -1      4131 1.03631E-02 7.66447E-04-7.89157E-14
 -1      4132 1.06861E-02 7.97288E-04-8.44119E-14
 -1      4133 1.08260E-02 8.22979E-04-8.66209E-14
 -1      4134 1.06405E-02 8.18063E-04-8.32661E-14
 -1      4135 1.09663E-02 8.48807E-04-8.88446E-14
 -1      4136 1.11070E-02 8.74737E-04-9.10852E-14
 -1      4137 1.09200E-02 8.70173E-04-8.76809E-14
 -1      4138 1.12480E-02 9.00777E-04-9.33441E-14
 -1      4139 1.13892E-02 9.26899E-04-9.56165E-14
 -1      4140 1.12011E-02 9.22654E-04-9.21631E-14
 -1      4141 1.15308E-02 9.53108E-04-9.79015E-14
 -1      4142 1.16725E-02 9.79385E-04-1.00203E-13
 -1      4143 1.14835E-02 9.75414E-04-9.67064E-14
 -1      4144 1.18144E-02 1.00573E-03-1.02518E-13
 -1      4145 1.19565E-02 1.03213E-03-1.04846E-13
 -1      4146 1.17668E-02 1.02839E-03-1.01308E-13
 -1      4147 1.20988E-02 1.05858E-03-1.07189E-13
 -1      4148 1.22411E-02 1.08508E-03-1.09544E-13
 -1      4149 1.20509E-02 1.08152E-03-1.05966E-13
 -1      4150 1.23836E-02 1.11162E-03-1.11913E-13
 -1      4151 1.25261E-02 1.13820E-03-1.14295E-13
 -1      4152 1.23356E-02 1.13478E-03-1.10677E-13
 -1      4153 1.26687E-02 1.16481E-03-1.16689E-13
 -1      4154 1.28114E-02 1.19144E-03-1.19094E-13
 -1      4155 1.26206E-02 1.18813E-03-1.15437E-13
 -1      4156 1.29165E-02 1.21707E-03-1.20791E-13
 -1      4157 1.30251E-02 1.23949E-03-1.22605E-13
 -1      4158 1.30785E-02 1.29188E-03-1.22928E-13
 -1      4159 1.28683E-02 1.24049E-03-1.19528E-13
 -1      4160 1.03384E-02 8.84433E-04-7.66978E-14
 -1      4161 1.02013E-02 8.56672E-04-7.45634E-14
 -1      4162 1.03856E-02 8.66009E-04-7.78363E-14
 -1      4163 1.00650E-02 8.29026E-04-7.24479E-14
 -1      4164 9.92966E-03 8.01477E-04-7.03488E-14
 -1      4165 1.01118E-02 8.11642E-04-7.35683E-14
 -1      4166 1.11744E-02 1.05108E-03-8.98500E-14
 -1      4167 1.10339E-02 1.02338E-03-8.76175E-14
 -1      4168 1.09414E-02 9.75419E-04-8.65742E-14
 -1      4169 1.14565E-02 1.10631E-03-9.43652E-14
 -1      4170 1.13153E-02 1.07872E-03-9.20991E-14
 -1      4171 1.12222E-02 1.03014E-03-9.10389E-14
 -1      4172 1.17396E-02 1.16129E-03-9.89448E-14
 -1      4173 1.15979E-02 1.13383E-03-9.66486E-14
 -1      4174 1.15044E-02 1.08475E-03-9.55708E-14
 -1      4175 1.20236E-02 1.21604E-03-1.03581E-13
 -1      4176 1.18815E-02 1.18869E-03-1.01258E-13
 -1      4177 1.17876E-02 1.13923E-03-1.00166E-13
 -1      4178 1.23082E-02 1.27055E-03-1.08270E-13
 -1      4179 1.21658E-02 1.24332E-03-1.05919E-13
 -1      4180 1.20716E-02 1.19356E-03-1.04815E-13
 -1      4181 1.25931E-02 1.32488E-03-1.13004E-13
 -1      4182 1.24506E-02 1.29774E-03-1.10631E-13
 -1      4183 1.23562E-02 1.24775E-03-1.09512E-13
 -1      4184 1.28784E-02 1.37904E-03-1.17792E-13
 -1      4185 1.27357E-02 1.35198E-03-1.15391E-13
 -1      4186 1.26412E-02 1.30182E-03-1.14259E-13
 -1      4187 2.38356E-03 1.54567E-04-6.53000E-15
 -1      4188 2.25861E-03 1.50759E-04-5.86965E-15
 -1      4189 2.21269E-03 1.18705E-04-5.76786E-15
 -1      4190 2.42859E-03 1.33159E-04-6.91144E-15
 -1      4191 2.60893E-03 6.02125E-05-8.16839E-15
 -1      4192 2.60109E-03 8.47787E-05-8.14465E-15
 -1      4193 8.19871E-03 3.76111E-04-4.62136E-14
 -1      4194 8.52150E-03 5.31571E-04-4.80114E-14
 -1      4195 9.79538E-03 7.74153E-04-6.82671E-14
 -1      4196 9.66228E-03 7.47024E-04-6.62044E-14
 -1      4197 9.84166E-03 7.57864E-04-6.93694E-14
 -1      4198 2.66105E-03 1.14731E-05-8.32735E-15
 -1      4199 2.62847E-03 3.78266E-05-8.23120E-15
 -1      4200 2.51700E-03 4.43441E-05-7.57876E-15
 -1      4201 2.56008E-03-3.42291E-06-7.69221E-15
 -1      4202 8.54832E-03 5.11784E-04-4.89466E-14
 -1      4203 2.61307E-03 1.21217E-04-8.14820E-15
 -1      4204 1.34636E-02 1.47681E-03-1.27924E-13
 -1      4205 1.82219E-03 7.41852E-05-4.04902E-15
 -1      4206 1.68219E-03 5.45638E-05-3.51139E-15
 -1      4207 9.02040E-03 6.17971E-04-5.62193E-14
 -1      4208 8.89826E-03 5.93946E-04-5.42874E-14
 -1      4209 9.06308E-03 6.04879E-04-5.72531E-14
 -1      4210 1.89798E-03-4.05112E-05-4.36192E-15
 -1      4211 2.03053E-03-3.77175E-05-4.93906E-15
 -1      4212 2.08610E-03-8.92355E-06-5.23671E-15
 -1      4213 9.53053E-03 7.20271E-04-6.41639E-14
 -1      4214 9.40025E-03 6.93840E-04-6.21446E-14
 -1      4215 9.57601E-03 7.05091E-04-6.52457E-14
 -1      4216 1.65738E-03 1.29578E-05-3.43817E-15
 -1      4217 8.32996E-03 4.17093E-04-4.74082E-14
 -1      4218 8.31482E-03 3.86943E-04-4.81394E-14
 -1      4219 8.44016E-03 4.05758E-04-4.99900E-14
 -1      4220 8.44567E-03 4.48496E-04-4.87149E-14
 -1      4221 2.50972E-03 1.03781E-04-7.52522E-15
 -1      4222 1.30225E-02 1.30798E-03-1.21604E-13
 -1      4223 1.31277E-02 1.33373E-03-1.23308E-13
 -1      4224 1.31768E-02 1.37561E-03-1.23686E-13
 -1      4225 8.67881E-03 5.43356E-04-5.09160E-14
 -1      4226 8.58080E-03 4.96895E-04-5.00333E-14
 -1      4227 8.54471E-03 4.44151E-04-5.08869E-14
 -1      4228 1.79485E-03-5.56659E-05-3.91947E-15
 -1      4229 2.07938E-03 8.20946E-05-5.19451E-15
 -1      4230 1.95160E-03 7.80778E-05-4.60472E-15
 -1      4231 1.93398E-03 4.81698E-05-4.56127E-15
 -1      4232 1.30223E-02 1.38962E-03-1.20457E-13
 -1      4233 1.29277E-02 1.33936E-03-1.19310E-13
 -1      4234 2.40630E-03 9.55198E-05-6.91533E-15
 -1      4235 1.31651E-02 1.41659E-03-1.22879E-13
 -1      4236 1.33550E-02 1.45420E-03-1.26091E-13
 -1      4237 1.32702E-02 1.44244E-03-1.24586E-13
 -1      4238 2.37522E-03-2.36873E-05-6.63114E-15
 -1      4239 2.47994E-03-1.03461E-05-7.22592E-15
 -1      4240 2.45762E-03 1.42795E-05-7.17356E-15
 -1      4241 2.29706E-03 1.38191E-06-6.28718E-15
 -1      4242 8.58724E-03 4.79548E-04-5.06847E-14
 -1      4243 8.78897E-03 5.67053E-04-5.26452E-14
 -1      4244 9.31601E-03 6.53870E-04-6.12055E-14
 -1      4245 1.77318E-03 1.25923E-06-3.88731E-15
 -1      4246 8.82800E-03 5.54648E-04-5.36561E-14
 -1      4247 1.85274E-03-2.83235E-05-4.18924E-15
 -1      4248 1.87743E-03 1.65657E-05-4.32263E-15
 -1      4249 9.30304E-03 6.12400E-04-6.17128E-14
 -1      4250 9.17465E-03 5.88594E-04-5.97184E-14
 -1      4251 2.00717E-03 2.01642E-05-4.89628E-15
 -1      4252 2.13560E-03 2.45554E-05-5.50439E-15
 -1      4253 8.68604E-03 4.96154E-04-5.22333E-14
 -1      4254 1.09312E-02 9.22951E-04-8.71335E-14
 -1      4255 1.07914E-02 8.96220E-04-8.49207E-14
 -1      4256 9.04791E-03 5.65580E-04-5.77479E-14
 -1      4257 9.43300E-03 6.36636E-04-6.37279E-14
 -1      4258 9.56434E-03 6.61451E-04-6.57644E-14
 -1      4259 9.69696E-03 6.86579E-04-6.78204E-14
 -1      4260 9.83072E-03 7.12121E-04-6.98970E-14
 -1      4261 9.96554E-03 7.37879E-04-7.19925E-14
 -1      4262 1.01013E-02 7.63927E-04-7.41051E-14
 -1      4263 1.02379E-02 7.90115E-04-7.62351E-14
 -1      4264 1.03753E-02 8.16499E-04-7.83816E-14
 -1      4265 1.05134E-02 8.42971E-04-8.05456E-14
 -1      4266 1.06521E-02 8.69571E-04-8.27259E-14
 -1      4267 1.10714E-02 9.49707E-04-8.93607E-14
 -1      4268 1.12120E-02 9.76513E-04-9.16055E-14
 -1      4269 1.13529E-02 1.00333E-03-9.38669E-14
 -1      4270 1.14941E-02 1.03017E-03-9.61434E-14
 -1      4271 1.16356E-02 1.05702E-03-9.84350E-14
 -1      4272 1.17774E-02 1.08387E-03-1.00741E-13
 -1      4273 1.19193E-02 1.11073E-03-1.03063E-13
 -1      4274 1.20614E-02 1.13759E-03-1.05395E-13
 -1      4275 1.22036E-02 1.16445E-03-1.07740E-13
 -1      4276 1.23459E-02 1.19130E-03-1.10098E-13
 -1      4277 1.24884E-02 1.21816E-03-1.12468E-13
 -1      4278 1.26309E-02 1.24501E-03-1.14853E-13
 -1      4279 1.27736E-02 1.27185E-03-1.17248E-13
 -1      4280 2.29859E-03 9.20809E-05-6.30878E-15
 -1      4281 2.19090E-03 8.45916E-05-5.74877E-15
 -1      4282 2.17471E-03 5.47516E-05-5.70126E-15
 -1      4283 2.39488E-03 6.14339E-05-6.88509E-15
 -1      4284 8.80023E-03 5.21744E-04-5.38753E-14
 -1      4285 8.92309E-03 5.43121E-04-5.57998E-14
 -1      4286 2.24864E-03 2.72566E-05-6.07386E-15
 -1      4287 2.32890E-03 3.33066E-05-6.50242E-15
 -1      4288 2.43926E-03 3.73091E-05-7.11750E-15
 -1      4289 1.29174E-02 1.28225E-03-1.19907E-13
 -3
    1PSTEP                         2           1           1          
  100CL  101 1.000000000        4289                     0    1           1
 -4  STRESS      6    1
 -5  SXX         1    4    1    1
 -5  SYY         1    4    2    2
 -5  SZZ         1    4    3    3
 -5  SXY         1    4    1    2
 -5  SYZ         1    4    2    3
 -5  SZX         1    4    3    1
 -1         1 3.71120E+01 9.69532E+00 1.95911E+00-1.83811E+01-1.55850E-12 2.88425E-12
 -1         2-6.42922E-01-2.48036E+01-3.36953E+00-3.14298E-02 4.07424E-13 1.66769E-13
 -1         3 2.00000E+01 2.17021E-04-1.25004E-04 2.10669E-04-4.64426E-13-4.80855E-13
 -1         4 2.00000E+01 1.81984E-04-1.44417E-04-1.80099E-04 1.47542E-13 6.03757E-14
 -1         5 3.24216E+01 6.08536E+00 2.64540E+00 6.12012E+00-4.95923E-14 3.53118E-12
 -1         6 3.53419E+01 1.20959E+01 4.97769E+00-8.49520E+00-2.07098E-13 3.34149E-12
 -1         7 2.09989E+01 6.14373E+00-9.61331E-02-4.54690E+00-3.12944E-14 6.10855E-13
 -1         8 1.98889E+01 5.99526E+00 6.68813E-02-3.02378E+00-3.95864E-14-2.37780E-13
 -1         9 1.93196E+01 5.82376E+00 5.71026E-02-2.22991E+00-3.50969E-14-6.94638E-13
 -1        10 1.89956E+01 5.72031E+00 5.22327E-02-1.64216E+00-2.67304E-14-9.04287E-13
 -1        11 1.87732E+01 5.64979E+00 4.56808E-02-1.16742E+00-1.54000E-14-1.01012E-12
 -1        12 1.86134E+01 5.59952E+00 3.93651E-02-7.76372E-01-9.60083E-15-1.04244E-12
 -1        13 1.85020E+01 5.56487E+00 3.42683E-02-4.32995E-01-1.63324E-15-1.04871E-12
 -1        14 1.84429E+01 5.54656E+00 3.11956E-02-1.23838E-01 1.62847E-16-1.05197E-12
 -1        15 1.84392E+01 5.54540E+00 3.06128E-02 1.71461E-01 4.98072E-15-1.03145E-12
 -1        16 1.84930E+01 5.56200E+00 3.27430E-02 4.74270E-01 1.22905E-14-1.00626E-12
 -1        17 1.86046E+01 5.59645E+00 3.75258E-02 8.07470E-01 1.58996E-14-9.65811E-13
 -1        18 1.87707E+01 5.64851E+00 4.42758E-02 1.18811E+00 2.10743E-14-8.74592E-13
 -1        19 1.90047E+01 5.72245E+00 5.16812E-02 1.65756E+00 3.59834E-14-7.29580E-13
 -1        20 1.93385E+01 5.82971E+00 5.71110E-02 2.24808E+00 4.19630E-14-4.57326E-13
 -1        21 1.99017E+01 6.01353E+00 6.35563E-02 3.04003E+00 4.73580E-14 6.96661E-14
 -1        22 2.13504E+01 6.41298E+00 1.58103E-01 4.33491E+00 7.18869E-15 1.13566E-12
 -1        23 2.30843E+01-1.38807E+00-9.45701E-01-6.61774E-01-1.41335E-13 2.60168E-12
 -1        24 1.97177E+01-9.95573E-02-3.04755E-01 6.96684E-02-2.92899E-14 1.97742E-12
 -1        25 1.92674E+01-5.73137E-02-6.78814E-02 6.36281E-02-1.67681E-14 1.37462E-12
 -1        26 1.93104E+01-2.41966E-02-8.97735E-03 3.65571E-02 1.20498E-15 9.02530E-13
 -1        27 1.96011E+01-1.43156E-02-2.39468E-03 2.77969E-02-1.65866E-14 5.97408E-13
 -1        28 2.00390E+01-8.41805E-03-2.29693E-03 2.36224E-02-4.61670E-15 3.55720E-13
 -1        29 2.05648E+01-3.99907E-03-1.03395E-03 2.17239E-02 1.29015E-15 2.35899E-13
 -1        30 2.11287E+01 2.88083E-04 2.36378E-03 2.05467E-02-7.72840E-15 1.40482E-13
 -1        31 2.16740E+01 5.13126E-03 8.18927E-03 1.86460E-02-1.39279E-15-5.06054E-14
 -1        32 2.21259E+01 1.06648E-02 1.65610E-02 1.43159E-02-1.44484E-14-2.47189E-13
 -1        33 2.23888E+01 1.62907E-02 2.66792E-02 5.62203E-03 2.92715E-14-2.72152E-13
 -1        34 2.23549E+01 2.04559E-02 3.58588E-02-8.94648E-03-1.23757E-14-3.16163E-13
 -1        35 2.19327E+01 2.07549E-02 3.91297E-02-2.90307E-02 4.53934E-15-4.33821E-13
 -1        36 2.10977E+01 1.47880E-02 3.04799E-02-5.05397E-02-1.12021E-14-3.83421E-13
 -1        37 1.99505E+01 1.91393E-03 6.74271E-03-6.49444E-02-3.45488E-14-5.11476E-13
 -1        38 1.87443E+01-1.49533E-02-2.73620E-02-6.21356E-02-3.27043E-14-6.97799E-13
 -1        39 1.78333E+01-2.94447E-02-5.81255E-02-3.73801E-02-3.24502E-15-7.46347E-13
 -1        40 1.75329E+01-3.48262E-02-6.97466E-02 2.59649E-03-2.38416E-15-7.77316E-13
 -1        41 1.79616E+01-2.84040E-02-5.57505E-02 4.16575E-02-1.06811E-14-8.45315E-13
 -1        42 1.89768E+01-1.34824E-02-2.40904E-02 6.42143E-02 4.35270E-14-7.54678E-13
 -1        43 2.02536E+01 3.02326E-03 9.14644E-03 6.49843E-02-4.54205E-14-6.03802E-13
 -1        44 2.14471E+01 1.50297E-02 3.09193E-02 4.97354E-02 5.24616E-14-6.11466E-13
 -1        45 2.23239E+01 2.01254E-02 3.77124E-02 2.86934E-02-6.06592E-14-6.81210E-13
 -1        46 2.28023E+01 1.92721E-02 3.32597E-02 9.94386E-03-1.77779E-14-7.64967E-13
 -1        47 2.29187E+01 1.49872E-02 2.36317E-02-2.89016E-03-5.33488E-14-6.42243E-13
 -1        48 2.27683E+01 9.66020E-03 1.35675E-02-9.69708E-03 3.52862E-14-6.98989E-13
 -1        49 2.24564E+01 4.82895E-03 5.51454E-03-1.19995E-02 6.23791E-14-6.51481E-13
 -1        50 2.20714E+01 1.16116E-03 1.04459E-04-1.15773E-02-7.28225E-14-7.02225E-13
 -1        51 2.16762E+01-1.25512E-03-2.98700E-03-9.83704E-03 1.71417E-15-5.86131E-13
 -1        52 2.13089E+01-2.61612E-03-4.39443E-03-7.68534E-03 4.87415E-14-3.07726E-13
 -1        53 2.09891E+01-3.20323E-03-4.72742E-03-5.61855E-03-5.74941E-14-6.66579E-13
 -1        54 2.07237E+01-3.28074E-03-4.45284E-03-3.85931E-03 3.85264E-14-7.74377E-13
 -1        55 2.05115E+01-3.05759E-03-3.88615E-03-2.47100E-03-2.82027E-14-9.52794E-13
 -1        56 2.03473E+01-2.68261E-03-3.22187E-03-1.43567E-03 1.88331E-14-9.64446E-13
 -1        57 2.02240E+01-2.25363E-03-2.56991E-03-7.00810E-04 4.00143E-14-7.44863E-13
 -1        58 2.01343E+01-1.83001E-03-1.98556E-03-2.04841E-04 5.66803E-14-4.65264E-13
 -1        59 2.00710E+01-1.44427E-03-1.49092E-03 1.10471E-04-3.55071E-14-7.93342E-13
 -1        60 2.00282E+01-1.11120E-03-1.08915E-03 2.94882E-04-2.44098E-14-6.35458E-13
 -1        61 2.00008E+01-8.34597E-04-7.73442E-04 3.88401E-04 8.67766E-14-5.32418E-13
 -1        62 1.99846E+01-6.11856E-04-5.32430E-04 4.21856E-04-9.36496E-14-3.34931E-13
 -1        63 1.99764E+01-4.36967E-04-3.53328E-04 4.18193E-04 2.51864E-15-5.99959E-13
 -1        64 1.99737E+01-3.02422E-04-2.23566E-04 3.93950E-04-5.68257E-14-4.16764E-13
 -1        65 1.99746E+01-2.00299E-04-1.31478E-04 3.60605E-04-7.54176E-14-6.82366E-13
 -1        66 1.99779E+01-1.22805E-04-6.62100E-05 3.25617E-04 6.17372E-14-5.33467E-13
 -1        67 1.99826E+01-6.24639E-05-1.68181E-05 2.92985E-04 1.00635E-13-1.18395E-13
 -1        68 1.99877E+01-1.21101E-05 2.96250E-05 2.62896E-04 8.94826E-14 1.28913E-13
 -1        69 1.99928E+01 3.37629E-05 8.85312E-05 2.28082E-04-6.90334E-14 4.62072E-13
 -1        70 1.99971E+01 6.36198E-05 1.54797E-04 1.53638E-04 4.66305E-14 7.27430E-13
 -1        71 1.99996E+01-1.36406E-05 1.25767E-04 2.23349E-05-5.14365E-14 5.53104E-13
 -1        72 2.11178E+01-4.03456E-01-9.82841E-01-3.23853E-01 5.50324E-14 3.20376E-12
 -1        73 1.97021E+01-6.67409E-02-2.86503E-01-5.61935E-02 3.44625E-14 2.41829E-12
 -1        74 1.93221E+01-2.30968E-02-6.49691E-02-1.99483E-02 1.34100E-14 1.81219E-12
 -1        75 1.94142E+01-1.37954E-02-1.46601E-02-1.42504E-02 1.24124E-14 1.44604E-12
 -1        76 1.97924E+01-1.01935E-02-8.16775E-03-1.17067E-02 1.75536E-14 1.10378E-12
 -1        77 2.03784E+01-8.43468E-03-1.00676E-02-1.12490E-02-8.16317E-15 8.71614E-13
 -1        78 2.11448E+01-7.09225E-03-1.23393E-02-1.30074E-02 4.48773E-15 7.70547E-13
 -1        79 2.20820E+01-5.05589E-03-1.31234E-02-1.74429E-02-3.05712E-15 6.87212E-13
 -1        80 2.31751E+01-1.10341E-03-1.03913E-02-2.51677E-02 7.25873E-17 5.43275E-13
 -1        81 2.43769E+01 6.05647E-03-3.89265E-04-3.61694E-02 1.60800E-14 4.41210E-13
 -1        82 2.55702E+01 1.70915E-02 2.20015E-02-4.80866E-02 1.02824E-14 3.81247E-13
 -1        83 2.65231E+01 3.02530E-02 5.98642E-02-5.33260E-02 5.33666E-15 3.23395E-13
 -1        84 2.68660E+01 3.89721E-02 1.05755E-01-3.68242E-02 3.01426E-14 2.93399E-13
 -1        85 2.61636E+01 3.21060E-02 1.30733E-01 1.89008E-02-8.31583E-15 3.32148E-13
 -1        86 2.41750E+01 2.67829E-03 8.99201E-02 1.12252E-01 3.12083E-14 6.99926E-14
 -1        87 2.12664E+01-3.77054E-02-3.74846E-02 1.96869E-01-3.46103E-14 7.11237E-15
 -1        88 1.86230E+01-6.03424E-02-1.86807E-01 1.90302E-01-3.76396E-14 3.02744E-14
 -1        89 1.77028E+01-4.77693E-02-2.43671E-01 6.40322E-02 7.13661E-14-3.42879E-13
 -1        90 1.91017E+01-1.41402E-02-1.55486E-01-1.00058E-01-4.22097E-14-5.68691E-13
 -1        91 2.19890E+01 1.76407E-02 5.46153E-04-1.85333E-01-2.45008E-15-4.79929E-13
 -1        92 2.48712E+01 3.30790E-02 1.09202E-01-1.66556E-01-6.00535E-14-3.38542E-13
 -1        93 2.67021E+01 3.22597E-02 1.28744E-01-9.60729E-02-1.52883E-14-4.24639E-13
 -1        94 2.72652E+01 2.27915E-02 9.50365E-02-2.96964E-02 4.32911E-14-6.33620E-13
 -1        95 2.68743E+01 1.16056E-02 4.90937E-02 1.08442E-02-5.12991E-14-5.57413E-13
 -1        96 2.59681E+01 2.89549E-03 1.39620E-02 2.80039E-02 3.80998E-14-1.90922E-13
 -1        97 2.48922E+01-2.41894E-03-5.76612E-03 3.09638E-02 3.76001E-14-2.55391E-13
 -1        98 2.38523E+01-4.96665E-03-1.39426E-02 2.74619E-02-5.54141E-14-2.79823E-13
 -1        99 2.29441E+01-5.72724E-03-1.55607E-02 2.19996E-02-4.92729E-15-2.37920E-13
 -1       100 2.21965E+01-5.51401E-03-1.41893E-02 1.66534E-02-3.58950E-14-2.01956E-13
 -1       101 2.16039E+01-4.86007E-03-1.18183E-02 1.21654E-02 7.59183E-14-4.07300E-13
 -1       102 2.11466E+01-4.06950E-03-9.38032E-03 8.66207E-03-6.84040E-14-4.80899E-13
 -1       103 2.08008E+01-3.29656E-03-7.23570E-03 6.03420E-03-4.09500E-14-1.05983E-13
 -1       104 2.05441E+01-2.60871E-03-5.47656E-03 4.11022E-03 2.08466E-14 1.70224E-13
 -1       105 2.03567E+01-2.02733E-03-4.08513E-03 2.72534E-03 1.63168E-14 1.38743E-14
 -1       106 2.02226E+01-1.55139E-03-3.00747E-03 1.74278E-03-4.18626E-14-3.57843E-13
 -1       107 2.01286E+01-1.17027E-03-2.18438E-03 1.05599E-03-2.73686E-14-5.54026E-13
 -1       108 2.00645E+01-8.70177E-04-1.56266E-03 5.84394E-04-1.94325E-14-1.16259E-12
 -1       109 2.00223E+01-6.37250E-04-1.09804E-03 2.67878E-04-5.97961E-14-9.06641E-13
 -1       110 1.99960E+01-4.58831E-04-7.54869E-04 6.18597E-05 3.28077E-14-7.13521E-13
 -1       111 1.99810E+01-3.23886E-04-5.04848E-04-6.66760E-05-3.53017E-14-4.38056E-13
 -1       112 1.99739E+01-2.23008E-04-3.25609E-04-1.42170E-04-7.14234E-14-1.61004E-13
 -1       113 1.99720E+01-1.48246E-04-1.99414E-04-1.82733E-04 1.35910E-13-7.68218E-13
 -1       114 1.99736E+01-9.28377E-05-1.11972E-04-2.01823E-04-2.05189E-13-9.17742E-13
 -1       115 1.99773E+01-5.08190E-05-5.10304E-05-2.09511E-04 8.37109E-14-6.79898E-13
 -1       116 1.99822E+01-1.70445E-05-4.56853E-06-2.12991E-04 7.37723E-14-1.18304E-12
 -1       117 1.99876E+01 1.32672E-05 4.10018E-05-2.16251E-04-5.08118E-14-1.60852E-12
 -1       118 1.99929E+01 4.30270E-05 1.00839E-04-2.19229E-04-1.47123E-13-9.59104E-13
 -1       119 1.99972E+01 6.91302E-05 1.74013E-04-2.00876E-04 1.06346E-13-8.47210E-13
 -1       120 1.99996E+01-4.80106E-05 9.92517E-05-7.13778E-05 2.58620E-13-9.85040E-13
 -1       121 1.99998E+01-3.20081E-04 8.64523E-05-4.05652E-05-1.15327E-12 1.20497E-13
 -1       122 1.99999E+01-2.72211E-03 1.26578E-04-1.62146E-04-9.19726E-13 1.14582E-13
 -1       123 1.99998E+01-6.59801E-03 2.75402E-05-1.92315E-04 1.55606E-13 2.61473E-13
 -1       124 1.99998E+01-1.07366E-02-4.28320E-05-1.70402E-04-3.82124E-14-2.81691E-13
 -1       125 1.99998E+01-1.44420E-02-7.69436E-05-1.30407E-04-5.66993E-13-4.55981E-14
 -1       126 1.99997E+01-1.73143E-02-9.03836E-05-9.01542E-05-7.83947E-13 1.30121E-13
 -1       127 1.99997E+01-1.92796E-02-9.18914E-05-5.07125E-05 6.42946E-13 2.67512E-13
 -1       128 1.99997E+01-2.02350E-02-9.04772E-05-1.48429E-05 6.29751E-13-5.09978E-14
 -1       129 1.99997E+01-2.01794E-02-8.94449E-05 1.91935E-05 7.39681E-13 1.87533E-14
 -1       130 1.99997E+01-1.91237E-02-8.90535E-05 5.39558E-05 1.79187E-13-4.86393E-14
 -1       131 1.99998E+01-1.70900E-02-8.56285E-05 9.28238E-05-1.05427E-12-5.71718E-15
 -1       132 1.99998E+01-1.41937E-02-7.33597E-05 1.30293E-04-2.29712E-12 3.06235E-13
 -1       133 1.99998E+01-1.05048E-02-3.95699E-05 1.67997E-04-1.42496E-12 1.76406E-13
 -1       134 1.99998E+01-6.41484E-03 3.42803E-05 1.99053E-04-8.95465E-13 5.31587E-14
 -1       135 1.99999E+01-2.69564E-03 1.05259E-04 2.21444E-04-9.95359E-13-1.66827E-13
 -1       136 1.99999E+01-3.87833E-04 7.67409E-05 3.27636E-07-6.03656E-13 1.85560E-14
 -1       137-1.48672E+00-2.07583E+01-3.18211E+00-4.04795E+00 1.77786E-12 2.56281E-13
 -1       138-1.76991E+00-9.67299E+00-2.45129E+00-3.42307E+00 2.19480E-12 1.05729E-12
 -1       139 2.69132E+00 2.55239E+00-1.24790E+00 3.01516E+00 2.30210E-12 1.64468E-12
 -1       140 1.56164E+01 9.98787E+00 2.50250E-01 1.24626E+01 1.96482E-12 2.21123E-12
 -1       141 3.51258E+01 9.97576E+00 1.80211E+00 1.82532E+01 1.35958E-12 2.45964E-12
 -1       142 5.52300E+01 5.24673E+00 3.09633E+00 1.57413E+01 7.50761E-13 2.20124E-12
 -1       143 6.77322E+01 1.14049E+00 3.82334E+00 4.44981E+00 8.56711E-14 7.07170E-13
 -1       144 6.49813E+01 2.34915E+00 3.67589E+00-9.12204E+00 3.23732E-13-1.20057E-12
 -1       145 4.77246E+01 7.44113E+00 2.63348E+00-1.73669E+01 1.32405E-12-2.95575E-12
 -1       146 2.52613E+01 1.06549E+01 1.07624E+00-1.59861E+01 2.71266E-12-3.81029E-12
 -1       147 7.65352E+00 6.56475E+00-5.90350E-01-7.30378E+00 3.68028E-12-3.40572E-12
 -1       148-7.06207E-01-4.29271E+00-1.98482E+00 1.30249E+00 3.49554E-12-2.02946E-12
 -1       149-1.82963E+00-1.61573E+01-2.90311E+00 4.30824E+00 2.48973E-12-8.55177E-13
 -1       150-9.92836E-01-2.41978E+01-3.37727E+00 2.09433E+00 4.36179E-13-1.39368E-13
 -1       151-1.01349E+00-2.31615E+01-3.28344E+00-2.49239E+00-1.53100E-12-2.39604E-13
 -1       152-1.73262E+00-1.34379E+01-2.62181E+00-3.85442E+00-2.86549E-12-1.03124E-12
 -1       153 5.55239E-01-7.34500E-01-1.53494E+00 6.00724E-01-3.62421E-12-2.25597E-12
 -1       154 9.68970E+00 8.79573E+00-1.32659E-01 9.25794E+00-3.43031E-12-3.26911E-12
 -1       155 2.72633E+01 1.12022E+01 1.33977E+00 1.71011E+01-2.42534E-12-3.52951E-12
 -1       156 4.64934E+01 7.44088E+00 2.51974E+00 1.77337E+01-1.20171E-12-2.84939E-12
 -1       157 6.15269E+01 2.55398E+00 3.29715E+00 1.02422E+01-2.80208E-13-1.55917E-12
 -1       158 6.56083E+01 1.03186E+00 3.49328E+00-2.54864E+00-8.21010E-14 4.15910E-13
 -1       159 5.58142E+01 4.53001E+00 3.00754E+00-1.43722E+01-5.15615E-13 1.95371E-12
 -1       160 1.78874E+01 1.10851E+01 6.05788E-01-1.39335E+01-2.56228E-12 2.99705E-12
 -1       161 4.09337E+00 5.01366E+00-8.49001E-01-4.72911E+00-2.81669E-12 2.25131E-12
 -1       162-1.32812E+00-7.36735E+00-2.13871E+00 2.49340E+00-2.33447E-12 1.05504E-12
 -1       163-1.39667E+00-1.96632E+01-3.02094E+00 3.79589E+00-1.41170E-12 3.88144E-13
 -1       164 2.12736E+01 3.65943E+00-5.40873E-02-3.35387E+00-4.85671E-13 1.63848E-13
 -1       165 2.02321E+01 4.21054E+00-4.36195E-02-2.51576E+00-4.52097E-13-3.56028E-13
 -1       166 1.96592E+01 4.51263E+00-3.05336E-02-1.88364E+00-3.69174E-13-6.51723E-13
 -1       167 1.92990E+01 4.67621E+00-2.27073E-02-1.37291E+00-2.73678E-13-7.96110E-13
 -1       168 1.90429E+01 4.78158E+00-1.81144E-02-9.54331E-01-1.89866E-13-8.47919E-13
 -1       169 1.88577E+01 4.85152E+00-1.56100E-02-5.91053E-01-1.04197E-13-8.73461E-13
 -1       170 1.87420E+01 4.89417E+00-1.42908E-02-2.70579E-01-1.37935E-14-8.78234E-13
 -1       171 1.86980E+01 4.91196E+00-1.38489E-02 2.61855E-02 5.35914E-14-8.74946E-13
 -1       172 1.87293E+01 4.90437E+00-1.42078E-02 3.19146E-01 1.19634E-13-8.53000E-13
 -1       173 1.88384E+01 4.86872E+00-1.54539E-02 6.29450E-01 1.91706E-13-8.25816E-13
 -1       174 1.90230E+01 4.80134E+00-1.79348E-02 9.73362E-01 2.61716E-13-7.58928E-13
 -1       175 1.92955E+01 4.68978E+00-2.25238E-02 1.38720E+00 3.63901E-13-6.44691E-13
 -1       176 1.96791E+01 4.51066E+00-3.12600E-02 1.89528E+00 4.46199E-13-4.65471E-13
 -1       177 2.02702E+01 4.19464E+00-4.45839E-02 2.53001E+00 5.10242E-13-1.14957E-13
 -1       178 2.14063E+01 3.43423E+00-5.61442E-02 3.26655E+00 4.87070E-13 5.19911E-13
 -1       179 2.26235E+01 1.11255E+00-3.30591E-01 2.81660E+00 3.65178E-13 1.38253E-12
 -1       180 2.22470E+01 8.39395E-01 1.10026E-03-1.76836E+00-4.22794E-13 7.99166E-13
 -1       181 2.08868E+01 1.88626E-01-8.92756E-03-5.77912E-01-3.56166E-13 5.81615E-13
 -1       182 2.02986E+01 1.09331E-01 1.41634E-02-8.88302E-02-2.81304E-13 3.89344E-13
 -1       183 2.01694E+01 5.96483E-02 1.03892E-02 1.55491E-01-2.05559E-13 2.17878E-13
 -1       184 2.02795E+01 3.62477E-02 5.41257E-03 2.96155E-01-1.59929E-13 1.31252E-13
 -1       185 2.05346E+01 2.03666E-02 2.39271E-03 3.79579E-01-6.84849E-14 5.41019E-14
 -1       186 2.08720E+01 4.77417E-03 5.85713E-04 4.18465E-01-6.56981E-14-6.75642E-15
 -1       187 2.12405E+01-1.45921E-02-7.52604E-04 4.10330E-01-9.47433E-14-2.22196E-14
 -1       188 2.15879E+01-3.99906E-02-1.88819E-03 3.44292E-01-9.74654E-14-1.62199E-14
 -1       189 2.18559E+01-7.10549E-02-2.75867E-03 2.06951E-01-4.80267E-14-2.98599E-14
 -1       190 2.19802E+01-1.02760E-01-3.12124E-03-8.56511E-03-5.77279E-14-2.07609E-13
 -1       191 2.19010E+01-1.23470E-01-2.73071E-03-2.88904E-01-3.45089E-14-2.11764E-13
 -1       192 2.15835E+01-1.15815E-01-1.51355E-03-5.85540E-01-2.10385E-14-1.86499E-13
 -1       193 2.10472E+01-6.41028E-02 2.14046E-04-8.09621E-01-7.69289E-14-2.05868E-13
 -1       194 2.03911E+01 3.10630E-02 1.82683E-03-8.53217E-01-1.18674E-13-1.30463E-13
 -1       195 1.97913E+01 1.40133E-01 2.83082E-03-6.44528E-01-3.68724E-14-2.28683E-13
 -1       196 1.94473E+01 2.12277E-01 3.15118E-03-2.10957E-01-5.96398E-14-3.89276E-13
 -1       197 1.94911E+01 2.08210E-01 3.08974E-03 3.07301E-01-3.29402E-14-4.10686E-13
 -1       198 1.99153E+01 1.30362E-01 2.72629E-03 7.23796E-01-6.48856E-14-4.46352E-13
 -1       199 2.05782E+01 2.15864E-02 1.81456E-03 9.08757E-01 1.46348E-14-6.04559E-13
 -1       200 2.12808E+01-6.85180E-02 1.87501E-04 8.48179E-01 1.86335E-14-6.19754E-13
 -1       201 2.18561E+01-1.14006E-01-1.49627E-03 6.21040E-01-7.31329E-14-6.35211E-13
 -1       202 2.22157E+01-1.17040E-01-2.66370E-03 3.34495E-01 6.12899E-14-4.68629E-13
 -1       203 2.23479E+01-9.41867E-02-3.01365E-03 7.22595E-02 1.24510E-13-3.54934E-13
 -1       204 2.22902E+01-6.25213E-02-2.68196E-03-1.23042E-01 5.20591E-15-1.76033E-13
 -1       205 2.21002E+01-3.31169E-02-1.96009E-03-2.42997E-01-1.32956E-14-2.31240E-13
 -1       206 2.18353E+01-1.07593E-02-1.14126E-03-2.98623E-01 6.65747E-14-4.83882E-13
 -1       207 2.15418E+01 3.89891E-03-4.20495E-04-3.07794E-01-1.89806E-14-3.48481E-13
 -1       208 2.12525E+01 1.21374E-02 1.14915E-04-2.87856E-01 1.62435E-15-5.14779E-13
 -1       209 2.09876E+01 1.57569E-02 4.55359E-04-2.52550E-01-1.31577E-13-7.40409E-13
 -1       210 2.07573E+01 1.64004E-02 6.31877E-04-2.11461E-01-5.04151E-14-6.02299E-13
 -1       211 2.05649E+01 1.53281E-02 6.88750E-04-1.70608E-01-8.98949E-14-6.81567E-13
 -1       212 2.04095E+01 1.34103E-02 6.68056E-04-1.33348E-01 7.40502E-14-5.43220E-13
 -1       213 2.02875E+01 1.12018E-02 6.03324E-04-1.01229E-01 9.39803E-14-2.28036E-13
 -1       214 2.01943E+01 9.02904E-03 5.18455E-04-7.46580E-02 1.03283E-13-4.54989E-13
 -1       215 2.01249E+01 7.06429E-03 4.29022E-04-5.33862E-02-1.70170E-14-3.35136E-13
 -1       216 2.00748E+01 5.38209E-03 3.44256E-04-3.68269E-02-7.34458E-14-3.09471E-13
 -1       217 2.00398E+01 3.99812E-03 2.68947E-04-2.42605E-02 5.36024E-14-2.16356E-13
 -1       218 2.00163E+01 2.89519E-03 2.04968E-04-1.49562E-02-5.28781E-14-2.98297E-13
 -1       219 2.00014E+01 2.03972E-03 1.52387E-04-8.23930E-03-3.07755E-14-3.83780E-13
 -1       220 1.99928E+01 1.39169E-03 1.10232E-04-3.52347E-03-5.24067E-14-3.90599E-13
 -1       221 1.99887E+01 9.10185E-04 7.69931E-05-3.23083E-04-1.16959E-13-2.61980E-13
 -1       222 1.99876E+01 5.55953E-04 5.09411E-05 1.74630E-03 1.66614E-13 1.80630E-13
 -1       223 1.99885E+01 2.91833E-04 3.04225E-05 2.97195E-03 2.91266E-13 6.68782E-14
 -1       224 1.99906E+01 8.15439E-05 1.42606E-05 3.54821E-03 1.62627E-13 7.96315E-14
 -1       225 1.99932E+01-1.14577E-04 2.82566E-06 3.57793E-03 2.19051E-13-2.29540E-14
 -1       226 1.99958E+01-3.45956E-04-3.22279E-06 3.07015E-03 1.02134E-13 7.14608E-14
 -1       227 1.99981E+01-6.44790E-04 6.04580E-08 1.98947E-03-1.05338E-13 2.21822E-13
 -1       228 2.13305E+01 2.72259E-01-4.85762E-02 9.86652E-01 3.92467E-13 1.17037E-12
 -1       229 2.04481E+01 1.32626E-01 9.48487E-03 2.59049E-01 2.89962E-13 8.89467E-13
 -1       230 2.01922E+01 7.22873E-02 1.33168E-02-6.71145E-02 2.11288E-13 6.29493E-13
 -1       231 2.02905E+01 4.92233E-02 8.10845E-03-2.62160E-01 1.67543E-13 4.71464E-13
 -1       232 2.06263E+01 4.10551E-02 4.20983E-03-4.06923E-01 1.16388E-13 3.73395E-13
 -1       233 2.11425E+01 3.83014E-02 1.99990E-03-5.31487E-01 4.76930E-14 2.97703E-13
 -1       234 2.18077E+01 3.57867E-02 4.96421E-04-6.44677E-01 5.45821E-14 2.26729E-13
 -1       235 2.25942E+01 2.81150E-02-8.34414E-04-7.39362E-01 7.33352E-14 1.67413E-13
 -1       236 2.34590E+01 7.75977E-03-1.87950E-03-7.89554E-01 6.49586E-14 1.33417E-13
 -1       237 2.43231E+01-3.50503E-02-1.87557E-03-7.45070E-01 2.44201E-14 1.24317E-13
 -1       238 2.50521E+01-1.08077E-01 4.50705E-04-5.32227E-01-1.08420E-17 1.20186E-13
 -1       239 2.54508E+01-2.04045E-01 5.55155E-03-7.81706E-02 2.28602E-14 2.15945E-13
 -1       240 2.52987E+01-2.77992E-01 1.08619E-02 6.17253E-01 3.12970E-14 1.96355E-13
 -1       241 2.44637E+01-2.40198E-01 8.41757E-03 1.36398E+00 1.21887E-13 1.17786E-13
 -1       242 2.30954E+01-1.69256E-02-8.41131E-03 1.73798E+00 3.15060E-14 7.68535E-14
 -1       243 2.17537E+01 3.17941E-01-3.11224E-02 1.29240E+00 9.96807E-14-1.81423E-13
 -1       244 2.12093E+01 5.09970E-01-4.00506E-02 7.61048E-02 2.43125E-13-3.71040E-13
 -1       245 2.18451E+01 3.71613E-01-2.49077E-02-1.20552E+00 6.55188E-14-4.88857E-13
 -1       246 2.32680E+01 4.59341E-02 8.69184E-04-1.77607E+00-1.23710E-13-4.61513E-13
 -1       247 2.47009E+01-2.05914E-01 1.46160E-02-1.49934E+00-7.18748E-14-3.88656E-13
 -1       248 2.55828E+01-2.73830E-01 1.08600E-02-7.80792E-01 9.19542E-14-3.05597E-13
 -1       249 2.57845E+01-2.15386E-01 3.17929E-03-7.00917E-02 3.72003E-14-3.52630E-13
 -1       250 2.54483E+01-1.22074E-01-2.27830E-03 4.11662E-01-7.38303E-14-3.61230E-13
 -1       251 2.47967E+01-4.51289E-02-3.99725E-03 6.46008E-01-1.37049E-13-3.08903E-13
 -1       252 2.40219E+01 2.40813E-03-3.28009E-03 7.01432E-01-4.71940E-14 1.13464E-14
 -1       253 2.32516E+01 2.56357E-02-1.82399E-03 6.55387E-01-7.34171E-14 1.01589E-13
 -1       254 2.25554E+01 3.35604E-02-5.48589E-04 5.64594E-01 5.41723E-14 1.97202E-13
 -1       255 2.19620E+01 3.33874E-02 2.79832E-04 4.62718E-01-1.11225E-13 1.42557E-13
 -1       256 2.14760E+01 2.96300E-02 7.05068E-04 3.66752E-01 1.40949E-13 8.14616E-14
 -1       257 2.10890E+01 2.47459E-02 8.55891E-04 2.83674E-01-6.79269E-14 7.20439E-14
 -1       258 2.07878E+01 1.99227E-02 8.49403E-04 2.15148E-01-1.31734E-13 3.88968E-14
 -1       259 2.05576E+01 1.56519E-02 7.66262E-04 1.60341E-01 6.60256E-14-8.94978E-14
 -1       260 2.03848E+01 1.20757E-02 6.54471E-04 1.17448E-01 8.48388E-14-1.28881E-13
 -1       261 2.02572E+01 9.17779E-03 5.39690E-04 8.44387E-02 1.40403E-13-8.91456E-14
 -1       262 2.01647E+01 6.87930E-03 4.34143E-04 5.94056E-02 1.35898E-13-2.11728E-13
 -1       263 2.00991E+01 5.08486E-03 3.42609E-04 4.06841E-02 2.73688E-13-3.07278E-13
 -1       264 2.00538E+01 3.70246E-03 2.66015E-04 2.68824E-02-7.25587E-14-6.51314E-13
 -1       265 2.00235E+01 2.65079E-03 2.03445E-04 1.68651E-02-8.94678E-14-5.96846E-13
 -1       266 2.00043E+01 1.86090E-03 1.53211E-04 9.72207E-03-3.12118E-13-1.21510E-13
 -1       267 1.99929E+01 1.27556E-03 1.13388E-04 4.73389E-03 1.92879E-14 2.58743E-14
 -1       268 1.99872E+01 8.47579E-04 8.20654E-05 1.34042E-03 3.87636E-13-6.02205E-14
 -1       269 1.99852E+01 5.37988E-04 5.74659E-05-8.86335E-04-1.97815E-13-5.76915E-14
 -1       270 1.99858E+01 3.13922E-04 3.80744E-05-2.26373E-03 2.28026E-13-2.36450E-13
 -1       271 1.99879E+01 1.45550E-04 2.30912E-05-3.01369E-03 2.83253E-13-5.52223E-13
 -1       272 1.99908E+01 5.37932E-06 1.32394E-05-3.26955E-03 6.08161E-15-4.24658E-13
 -1       273 1.99940E+01-1.34413E-04 1.10689E-05-3.08465E-03-2.03136E-13-5.76452E-13
 -1       274 1.99967E+01-3.24298E-04 1.28258E-05-2.42419E-03 2.93117E-14-6.87535E-13
 -1       275 1.99988E+01-5.38511E-04 1.14155E-05-1.24229E-03-1.55774E-13-5.81806E-13
 -1       276 1.99992E+01-1.86039E-03-3.51512E-06-2.00385E-03-8.91467E-14 1.30233E-13
 -1       277 1.99996E+01-4.01202E-03-3.14166E-06-2.86643E-03-8.83752E-14 4.46382E-13
 -1       278 1.99998E+01-6.45098E-03-1.95285E-06-3.04779E-03-2.45914E-13-3.28533E-14
 -1       279 2.00000E+01-8.81884E-03 2.52312E-06-2.74657E-03-1.82955E-13-2.73467E-13
 -1       280 2.00001E+01-1.08068E-02 7.05874E-06-2.17801E-03-2.75987E-13-2.16557E-13
 -1       281 2.00001E+01-1.23159E-02 1.04787E-05-1.46975E-03-1.08875E-13 6.78550E-13
 -1       282 2.00001E+01-1.32228E-02 1.22953E-05-7.16133E-04-6.54303E-14 7.73180E-14
 -1       283 2.00001E+01-1.35013E-02 1.27876E-05 4.25130E-05 9.12481E-14 3.99786E-14
 -1       284 2.00001E+01-1.31502E-02 1.21132E-05 7.92803E-04-2.24056E-14-3.70455E-13
 -1       285 2.00001E+01-1.21840E-02 1.01179E-05 1.52358E-03-3.60496E-13-4.44237E-13
 -1       286 2.00001E+01-1.06719E-02 6.61714E-06 2.18961E-03-2.22884E-13-5.35824E-13
 -1       287 2.00000E+01-8.64587E-03 2.15917E-06 2.73384E-03-3.31054E-13 2.89879E-13
 -1       288 1.99998E+01-6.30207E-03-3.22195E-06 3.00990E-03-5.51920E-13 4.41394E-13
 -1       289 1.99995E+01-3.88616E-03-6.28105E-06 2.76196E-03-3.72337E-13-1.79288E-13
 -1       290 1.99990E+01-2.10002E-03-1.15159E-05 2.77306E-03-2.14254E-13 1.64904E-13
 -1       291-1.02031E+00-1.10829E+01-1.00691E+00 7.15354E-01 1.01689E-13 6.64857E-13
 -1       292 2.67463E+00-8.50221E+00-7.24513E-01 3.44026E+00 3.71259E-13 4.88790E-13
 -1       293 9.34087E+00-5.57586E+00-5.15399E-01 5.38205E+00 6.58723E-13 4.68223E-13
 -1       294 1.98060E+01-2.55141E+00-1.31645E-01 6.65755E+00 5.59885E-13 6.38267E-13
 -1       295 2.95220E+01 1.96665E+00 2.91551E-01 7.24612E+00 7.16316E-13 1.09335E-12
 -1       296 3.94074E+01 4.67790E+00 7.49951E-01 6.03688E+00 7.34825E-13 1.04744E-12
 -1       297 4.57592E+01 6.38848E+00 9.99636E-01 2.76788E+00 8.62380E-13 4.54387E-13
 -1       298 4.80107E+01 6.79034E+00 1.11847E+00-6.95344E-01 9.19154E-13-3.34247E-14
 -1       299 4.06165E+01 5.92173E+00 4.59167E-01-1.90745E+00 1.09869E-12-1.16296E-13
 -1       300 3.48294E+01 2.57497E+00 3.39551E-01-4.97004E+00 1.19156E-12-6.70242E-13
 -1       301 2.50219E+01-1.22865E+00 2.76493E-02-6.49229E+00 1.08505E-12-1.00603E-12
 -1       302 1.45900E+01-4.60545E+00-2.68637E-01-6.54860E+00 9.30256E-13-1.28164E-12
 -1       303 5.29273E+00-7.43696E+00-6.48946E-01-4.40022E+00 9.31200E-13-1.24062E-12
 -1       304 4.95694E-01-9.12894E+00-7.16746E-01-2.39166E+00 3.32470E-13-1.18870E-12
 -1       305-1.23329E+00-1.07554E+01-9.10426E-01 4.15616E-01-1.45776E-13-9.42135E-13
 -1       306 1.11647E+00-9.10187E+00-7.42582E-01 3.02923E+00-6.77791E-13-9.60412E-13
 -1       307 6.95470E+00-6.43804E+00-5.32216E-01 5.26931E+00-1.09612E-12-1.09550E-12
 -1       308 1.44868E+01-2.37935E+00-2.61945E-01 6.74334E+00-1.42586E-12-1.40887E-12
 -1       309 2.53840E+01 7.38182E-01 1.52590E-01 7.28787E+00-1.27484E-12-1.28872E-12
 -1       310 3.49280E+01 4.25290E+00 5.63788E-01 7.14740E+00-1.32231E-12-1.17112E-12
 -1       311 4.20622E+01 6.00894E+00 8.03058E-01 4.49933E+00-9.87391E-13-6.62082E-13
 -1       312 4.57184E+01 6.84608E+00 9.19329E-01 1.15774E+00-9.05748E-13-1.21181E-13
 -1       313 4.40109E+01 6.78983E+00 8.15954E-01-2.28723E+00-8.05314E-13 3.98209E-13
 -1       314 3.90949E+01 5.17106E+00 6.84271E-01-5.63661E+00-9.17887E-13 7.02938E-13
 -1       315 3.01269E+01 3.11841E+00 3.84355E-01-7.76471E+00-1.08102E-12 1.03029E-12
 -1       316 1.99592E+01-5.52219E-01-4.17692E-02-7.34904E+00-9.78106E-13 1.09937E-12
 -1       317 9.88363E+00-4.38423E+00-4.63443E-01-5.78345E+00-8.92897E-13 1.12362E-12
 -1       318 3.35405E+00-7.91870E+00-6.37964E-01-4.18561E+00-4.43479E-13 8.21537E-13
 -1       319-8.42975E-01-1.09413E+01-9.88874E-01-1.34220E+00-2.28303E-13 7.54161E-13
 -1       320 2.03637E+01 3.04956E+00-1.78718E-02-1.76734E+00-4.76335E-13-3.61319E-13
 -1       321 2.10616E+01 2.20080E+00-1.69594E-02-2.05863E+00-5.20466E-13-3.57735E-14
 -1       322 1.95150E+01 3.83880E+00-1.46546E-02-9.96576E-01-2.81030E-13-6.19989E-13
 -1       323 1.92471E+01 4.04949E+00-1.21513E-02-6.57738E-01-1.86924E-13-6.65972E-13
 -1       324 1.90616E+01 4.18582E+00-1.07080E-02-3.60076E-01-7.13110E-14-6.82434E-13
 -1       325 1.89612E+01 4.25830E+00-1.00098E-02-9.19791E-02 2.63092E-14-6.96455E-13
 -1       326 1.89509E+01 4.26909E+00-9.96109E-03 1.61756E-01 1.11597E-13-6.76291E-13
 -1       327 1.90353E+01 4.21481E+00-1.05721E-02 4.18576E-01 1.87959E-13-6.55340E-13
 -1       328 1.92126E+01 4.09043E+00-1.19667E-02 6.91992E-01 2.75852E-13-6.13616E-13
 -1       329 1.94909E+01 3.87676E+00-1.44085E-02 1.00711E+00 3.77981E-13-4.93175E-13
 -1       330 1.98780E+01 3.54197E+00-1.81245E-02 1.36716E+00 4.76862E-13-3.81136E-13
 -1       331 2.04075E+01 3.01688E+00-2.20130E-02 1.75062E+00 5.57169E-13-1.74537E-13
 -1       332 2.10777E+01 2.13491E+00-2.90816E-02 1.98880E+00 5.62819E-13 2.20334E-13
 -1       333 2.14556E+01 1.17933E+00-2.28436E-02 1.64753E+00 5.11832E-13 5.87296E-13
 -1       334 2.09002E+01 5.11877E-01 9.44146E-03 6.23693E-01 4.16777E-13 4.64350E-13
 -1       335 2.09034E+01 6.99523E-01 1.30154E-02-7.02909E-01-4.16147E-13 1.12044E-14
 -1       336 2.06195E+01 3.81015E-01 7.58461E-03-9.22664E-02-3.32811E-13-3.13588E-14
 -1       337 2.05299E+01 2.29546E-01 4.56419E-03 2.72106E-01-2.32866E-13-5.50131E-14
 -1       338 2.05859E+01 1.39492E-01 2.19597E-03 5.00138E-01-1.68122E-13-9.85876E-14
 -1       339 2.07469E+01 6.89720E-02 7.67415E-04 6.34892E-01-1.00054E-13-1.02477E-13
 -1       340 2.09778E+01-4.27291E-03-3.15509E-04 6.88245E-01-6.48990E-14-9.36447E-14
 -1       341 2.12472E+01-9.32551E-02-1.38499E-03 6.53545E-01-6.91616E-14-1.00574E-13
 -1       342 2.15232E+01-2.02621E-01-2.49104E-03 5.13997E-01-1.12569E-13-1.02432E-13
 -1       343 2.17686E+01-3.23843E-01-3.46723E-03 2.52963E-01-9.62769E-14-1.64347E-13
 -1       344 2.19385E+01-4.27730E-01-3.93930E-03-1.29646E-01-3.27292E-14-8.17636E-14
 -1       345 2.19817E+01-4.60983E-01-3.51162E-03-5.94019E-01-4.40628E-14-7.21632E-14
 -1       346 2.18547E+01-3.58871E-01-1.86216E-03-1.03848E+00-5.78109E-14-6.25429E-14
 -1       347 2.15522E+01-8.48447E-02 6.60355E-04-1.30056E+00-8.51162E-14-1.66496E-14
 -1       348 2.11469E+01 3.11584E-01 3.10938E-03-1.21066E+00-1.55509E-13-1.03203E-13
 -1       349 2.07977E+01 6.72467E-01 4.66247E-03-7.04626E-01-1.75885E-13-1.87000E-13
 -1       350 2.06785E+01 8.09206E-01 4.62716E-03 8.20937E-02-1.44625E-13-2.86976E-13
 -1       351 2.08604E+01 6.44517E-01 4.06745E-03 8.53614E-01-8.55915E-14-3.01563E-13
 -1       352 2.12582E+01 2.73338E-01 3.09350E-03 1.32202E+00-1.12183E-13-3.62288E-13
 -1       353 2.16928E+01-1.11197E-01 6.40830E-04 1.37660E+00-5.66016E-14-4.29019E-13
 -1       354 2.20155E+01-3.62912E-01-1.79503E-03 1.09947E+00 6.51783E-14-5.38649E-13
 -1       355 2.21642E+01-4.44942E-01-3.40323E-03 6.62443E-01 3.84016E-14-3.88345E-13
 -1       356 2.21497E+01-4.00145E-01-3.73578E-03 2.20900E-01 1.07897E-13-3.46827E-13
 -1       357 2.20160E+01-2.94006E-01-3.21041E-03-1.33604E-01 1.50935E-13-3.79515E-13
 -1       358 2.18102E+01-1.78147E-01-2.27537E-03-3.70350E-01 7.61164E-16-3.50620E-13
 -1       359 2.15707E+01-8.06496E-02-1.30400E-03-4.97167E-01-5.41252E-14-4.36124E-13
 -1       360 2.13246E+01-1.07826E-02-4.99733E-04-5.38757E-01 2.63009E-14-4.16923E-13
 -1       361 2.10894E+01 3.28037E-02 6.98399E-05-5.22730E-01-8.98236E-14-5.20614E-13
 -1       362 2.08757E+01 5.57257E-02 4.17816E-04-4.72846E-01-1.49016E-13-4.05173E-13
 -1       363 2.06887E+01 6.42525E-02 5.91051E-04-4.06884E-01-1.51494E-13-4.77963E-13
 -1       364 2.05301E+01 6.37262E-02 6.42615E-04-3.36840E-01-8.40176E-14-4.62799E-13
 -1       365 2.03991E+01 5.81304E-02 6.18490E-04-2.70039E-01 1.14913E-13-2.55048E-13
 -1       366 2.02936E+01 5.01832E-02 5.53282E-04-2.10413E-01 1.21540E-13-4.36752E-13
 -1       367 2.02105E+01 4.16046E-02 4.70617E-04-1.59602E-01 5.91903E-14-3.95029E-13
 -1       368 2.01465E+01 3.33973E-02 3.85305E-04-1.17818E-01 1.92424E-13-1.58001E-13
 -1       369 2.00983E+01 2.60796E-02 3.05766E-04-8.44506E-02-2.14965E-14-1.06642E-13
 -1       370 2.00628E+01 1.98608E-02 2.36122E-04-5.84796E-02 1.06849E-13 9.15864E-14
 -1       371 2.00375E+01 1.47638E-02 1.77776E-04-3.87419E-02-1.80632E-13 8.84542E-14
 -1       372 2.00200E+01 1.07070E-02 1.30516E-04-2.40881E-02-4.89416E-14 1.68496E-13
 -1       373 2.00084E+01 7.55737E-03 9.32484E-05-1.34707E-02 4.38677E-15 6.53770E-14
 -1       374 2.00012E+01 5.16228E-03 6.44581E-05-5.98705E-03-7.24985E-15 2.53156E-13
 -1       375 1.99972E+01 3.36714E-03 4.24889E-05-8.94557E-04 1.01489E-13 3.39162E-13
 -1       376 1.99954E+01 2.02363E-03 2.56856E-05 2.39027E-03 2.14473E-13 3.56214E-13
 -1       377 1.99951E+01 9.90804E-04 1.25167E-05 4.29936E-03 1.82014E-13 1.61385E-13
 -1       378 1.99957E+01 1.34200E-04 2.39404E-06 5.12233E-03-1.26458E-15 3.45852E-13
 -1       379 1.99968E+01-6.84051E-04-7.47822E-06 5.03623E-03 2.73443E-13 3.47121E-13
 -1       380 1.99978E+01-1.39698E-03-1.69139E-05 4.20646E-03 7.47803E-14 2.80309E-13
 -1       381 2.05906E+01 2.77387E-01 1.17328E-02 3.61490E-02 3.33088E-13 3.35990E-13
 -1       382 2.05432E+01 1.87437E-01 7.46530E-03-3.32498E-01 2.40071E-13 2.44533E-13
 -1       383 2.07075E+01 1.50233E-01 4.36620E-03-6.00413E-01 1.67799E-13 1.43857E-13
 -1       384 2.10345E+01 1.34120E-01 2.81682E-03-8.20810E-01 8.30389E-14 9.64278E-14
 -1       385 2.14926E+01 1.20640E-01 1.77400E-03-1.01312E+00 8.20018E-14 7.62671E-14
 -1       386 2.20582E+01 9.20564E-02 4.97379E-04-1.17148E+00 7.82643E-14 1.02897E-13
 -1       387 2.27072E+01 2.55370E-02-1.38237E-03-1.26291E+00 9.90641E-14 7.68992E-14
 -1       388 2.34058E+01-1.06972E-01-3.86678E-03-1.22154E+00 1.66337E-14 9.81732E-14
 -1       389 2.41003E+01-3.27033E-01-6.49265E-03-9.49073E-01 5.27703E-15 1.06313E-13
 -1       390 2.47027E+01-6.14330E-01-7.93114E-03-3.41721E-01-3.44438E-14 1.16696E-13
 -1       391 2.50726E+01-8.46057E-01-8.12338E-03 6.23577E-01 9.70227E-14 1.67499E-13
 -1       392 2.50316E+01-7.65701E-01-7.25599E-03 1.73087E+00 1.64251E-13 1.13513E-13
 -1       393 2.44662E+01-1.34685E-01-1.68318E-02 2.40938E+00 1.15529E-13 5.03235E-14
 -1       394 2.36219E+01 8.95502E-01-2.30899E-02 1.94794E+00 2.67180E-13-1.61704E-13
 -1       395 2.31267E+01 1.56224E+00-2.50165E-02 2.81840E-01 3.44641E-13-4.00935E-13
 -1       396 2.34799E+01 1.20169E+00-1.96485E-02-1.61567E+00 1.66818E-13-4.07009E-13
 -1       397 2.43664E+01 1.92981E-01-9.55308E-03-2.49743E+00-9.55095E-14-5.03840E-13
 -1       398 2.51076E+01-6.26795E-01-3.27563E-03-2.10688E+00-1.47798E-13-4.70227E-13
 -1       399 2.53263E+01-8.66320E-01-9.53446E-03-1.05716E+00-1.06872E-14-2.51682E-13
 -1       400 2.50867E+01-6.97437E-01-1.04333E-02-1.45951E-02 1.26047E-13-2.19457E-13
 -1       401 2.45724E+01-4.05783E-01-8.91307E-03 6.95909E-01-8.25061E-14-3.35109E-13
 -1       402 2.39414E+01-1.57016E-01-5.72665E-03 1.04720E+00-1.94760E-13-1.71839E-13
 -1       403 2.32938E+01 1.24052E-03-2.42080E-03 1.13489E+00-1.85977E-13-1.23270E-13
 -1       404 2.26844E+01 8.14986E-02-5.95774E-05 1.06871E+00 8.42642E-15 9.62033E-14
 -1       405 2.21410E+01 1.11026E-01 1.25996E-03 9.30931E-01-4.39340E-15 2.17567E-13
 -1       406 2.16748E+01 1.12740E-01 1.80589E-03 7.72224E-01 1.37924E-14 2.89884E-13
 -1       407 2.12867E+01 1.01529E-01 1.88332E-03 6.19554E-01 1.78333E-13 2.75554E-13
 -1       408 2.09714E+01 8.57905E-02 1.72303E-03 4.84967E-01 6.78852E-15 2.94548E-13
 -1       409 2.07204E+01 6.97505E-02 1.46945E-03 3.72162E-01-1.15854E-13 1.15736E-13
 -1       410 2.05242E+01 5.52674E-02 1.20083E-03 2.80641E-01 1.68230E-13-1.09140E-13
 -1       411 2.03735E+01 4.29673E-02 9.53815E-04 2.08077E-01 2.81380E-14-1.38538E-13
 -1       412 2.02595E+01 3.28887E-02 7.42063E-04 1.51561E-01 1.25970E-13 6.32003E-14
 -1       413 2.01749E+01 2.48210E-02 5.67756E-04 1.08209E-01 2.83943E-13 2.93481E-13
 -1       414 2.01132E+01 1.84724E-02 4.27974E-04 7.54233E-02 3.79981E-13 2.18203E-13
 -1       415 2.00692E+01 1.35462E-02 3.17958E-04 5.09785E-02 1.31604E-13-7.37238E-14
 -1       416 2.00387E+01 9.77296E-03 2.32654E-04 3.30248E-02-2.07407E-13-1.09505E-13
 -1       417 2.00182E+01 6.91950E-03 1.67367E-04 2.00563E-02-4.41525E-13-1.07848E-13
 -1       418 2.00051E+01 4.78954E-03 1.17981E-04 1.08676E-02-6.08065E-14-2.56263E-13
 -1       419 1.99973E+01 3.21959E-03 8.09717E-05 4.50891E-03 1.47122E-13 4.59722E-14
 -1       420 1.99934E+01 2.07357E-03 5.33276E-05 2.46587E-04-6.09650E-14 2.16504E-13
 -1       421 1.99920E+01 1.23681E-03 3.24212E-05-2.47096E-03 1.57047E-13 8.08048E-14
 -1       422 1.99923E+01 6.07599E-04 1.64742E-05-4.04049E-03 2.75333E-13-2.02203E-13
 -1       423 1.99936E+01 9.38646E-05 4.99190E-06-4.71524E-03 1.24767E-13-2.50808E-13
 -1       424 1.99953E+01-3.87098E-04-3.02415E-06-4.63096E-03-1.19897E-13 1.07273E-15
 -1       425 1.99972E+01-9.33100E-04-7.47163E-06-3.83267E-03 1.98860E-16 1.87202E-13
 -1       426 1.99983E+01-1.40746E-03-1.07852E-05-3.04656E-03-1.38051E-13 4.27305E-13
 -1       427 2.00003E+01-4.93335E-03 1.94082E-06-4.52976E-03 3.98428E-14-2.77564E-13
 -1       428 1.99996E+01-3.59679E-03-6.83413E-06-4.71671E-03-1.25690E-13 1.91392E-13
 -1       429 1.99989E+01-2.57167E-03-1.50147E-05-4.17356E-03-9.82797E-14 6.33615E-13
 -1       430 2.00007E+01-6.03645E-03 6.88515E-06-3.81379E-03-2.48431E-13-5.17052E-13
 -1       431 2.00009E+01-6.87806E-03 1.08092E-05-2.80213E-03-6.56974E-14 5.59832E-13
 -1       432 2.00010E+01-7.42251E-03 1.24148E-05-1.66941E-03-2.32641E-13 3.84713E-13
 -1       433 2.00010E+01-7.67427E-03 1.29800E-05-5.07625E-04-3.07508E-13 4.10548E-14
 -1       434 2.00009E+01-7.64445E-03 1.28463E-05 6.47714E-04-3.12802E-13-3.80117E-15
 -1       435 2.00009E+01-7.33826E-03 1.19838E-05 1.78330E-03-2.31271E-13-5.51345E-13
 -1       436 2.00008E+01-6.76606E-03 1.00743E-05 2.85168E-03 1.14572E-14-4.51916E-13
 -1       437 2.00007E+01-5.91080E-03 6.73499E-06 3.80996E-03 3.15595E-13 1.70433E-13
 -1       438 2.00002E+01-4.79513E-03 1.39923E-06 4.48752E-03 3.37332E-14 1.39211E-13
 -1       439 1.99996E+01-3.50630E-03-9.52720E-06 4.69099E-03-1.76372E-13 1.18908E-13
 -1       440 1.00915E+01-5.78383E+00-6.26214E-02 6.53729E+00-5.65936E-14 3.15643E-13
 -1       441 9.65641E-01-4.68945E+00-9.42511E-02-4.01004E-01-1.21054E-13 7.86732E-13
 -1       442 3.42184E+00-4.47320E+00-2.80050E-02 3.75642E+00-2.09131E-13 6.11011E-13
 -1       443 1.88856E+01-5.90661E+00-2.53864E-02 6.47606E+00 1.63480E-14 2.45682E-13
 -1       444 2.82163E+01-3.86099E+00 1.25231E-02 3.24894E+00 1.15567E-13 3.13888E-13
 -1       445 1.98865E+01 3.52077E+00-1.71268E-02-1.38947E+00-3.87291E-13-5.42572E-13
 -1       446 3.60487E+01 4.79406E+00 7.35698E-02-3.08248E-01 6.99191E-13 8.18651E-14
 -1       447 3.72021E+01 7.75086E+00 1.13278E-01-2.91500E-01 9.80660E-13 1.76689E-13
 -1       448 3.54837E+01 7.35465E+00 2.14278E-02 4.20262E-01 9.47686E-13 1.84283E-13
 -1       449 3.31776E+01 2.13518E+00-9.79225E-02 1.01978E+00 8.08846E-13 5.21971E-13
 -1       450 3.04228E+01-2.45917E+00-2.95544E-02-1.81264E+00 4.16438E-13 2.91336E-13
 -1       451 2.34077E+01-5.40881E+00-5.36163E-03-5.43966E+00 4.99600E-14-2.08514E-13
 -1       452 1.37789E+01-5.88733E+00-1.32398E-02-7.02237E+00-1.29341E-13-7.45261E-13
 -1       453 7.04368E+00-4.91226E+00 2.29141E-02-5.85416E+00-8.11157E-14-1.03025E-12
 -1       454 1.43643E+00-4.63543E+00-7.42409E-02-1.49197E+00 6.66828E-15-1.18491E-12
 -1       455 2.02437E+00-4.58534E+00-6.06976E-02 2.81747E+00-3.67276E-14-1.09118E-12
 -1       456 7.22921E+00-5.39414E+00-6.59962E-02 6.33722E+00-1.28578E-13-9.12603E-13
 -1       457 1.56584E+01-5.55828E+00-3.08231E-02 7.25204E+00-2.78333E-13-6.54992E-13
 -1       458 2.34453E+01-4.46036E+00-1.53167E-02 5.75990E+00-2.69923E-13-4.42452E-13
 -1       459 3.04509E+01-8.91241E-01 9.41666E-03 2.11276E+00-5.44557E-13 1.67949E-13
 -1       460 3.30412E+01 2.94333E+00-3.31942E-02 4.22079E-01-8.55878E-13 5.33046E-14
 -1       461 3.48279E+01 7.09022E+00-7.27571E-03-2.70133E-01-9.88723E-13-3.90868E-14
 -1       462 3.40829E+01 8.13480E+00-6.74333E-02 2.03000E-01-1.05010E-12-6.31960E-14
 -1       463 3.25245E+01 5.33492E+00-1.24024E-01 1.05029E+00-7.25170E-13-4.77951E-14
 -1       464 3.22515E+01 1.33534E+00 1.35415E-03-1.57448E+00-5.87998E-13 1.05568E-13
 -1       465 2.75012E+01-2.42246E+00 1.57185E-02-4.27687E+00-3.15116E-13 1.15852E-13
 -1       466 1.95661E+01-5.23165E+00-2.49499E-02-6.69408E+00-2.53547E-14 3.71397E-13
 -1       467 1.18678E+01-5.37232E+00-1.01914E-02-7.16197E+00 1.31839E-14 7.63618E-13
 -1       468 3.35167E+00-4.87569E+00-6.85374E-02-4.38037E+00 2.27596E-15 6.20476E-13
 -1       469 3.22560E+01-3.41809E-01-3.21061E-02 9.62545E-01 2.09865E-13 2.75516E-13
 -1       470 9.76851E+00-3.96969E+00 1.05769E-01-6.72693E+00 8.85958E-14 7.09058E-13
 -1       471 3.10932E+01 4.19528E+00-1.57192E-01 2.25941E+00 7.84386E-13 5.08871E-13
 -1       472 2.08174E+01 9.32635E-01 4.27406E-03 5.06208E-01 4.28968E-13 3.28808E-14
 -1       473 1.93783E+01 3.43777E+00-4.57014E-03-3.55790E-01-1.26489E-13-5.84101E-13
 -1       474 1.96344E+01 3.18996E+00-5.17414E-03-5.93053E-01-2.25315E-13-5.66390E-13
 -1       475 1.91414E+01 3.65418E+00-4.00920E-03 4.82299E-02 5.04985E-14-6.22788E-13
 -1       476 1.91785E+01 3.62561E+00-4.11392E-03 2.30292E-01 1.48782E-13-6.11416E-13
 -1       477 1.93223E+01 3.50076E+00-4.55126E-03 4.13603E-01 2.21828E-13-5.74762E-13
 -1       478 1.95760E+01 3.26316E+00-5.29855E-03 6.15910E-01 3.33086E-13-4.71770E-13
 -1       479 1.99298E+01 2.89428E+00-6.19504E-03 8.32687E-01 3.96303E-13-3.75038E-13
 -1       480 2.03826E+01 2.35302E+00-5.26755E-03 1.04675E+00 4.88506E-13-2.42499E-13
 -1       481 2.49623E+01-5.69679E+00 2.06595E-02 3.73017E+00-2.08264E-13 2.58373E-13
 -1       482 2.06836E+01 6.09209E-01 5.80071E-03-1.09703E-01 3.36911E-13 2.64429E-14
 -1       483 2.07046E+01 1.05646E+00 2.87529E-03-5.04770E-01-3.91582E-13-2.06864E-13
 -1       484 3.14523E+01 1.45124E+00-1.12570E-01-2.05401E+00 2.52083E-13-1.68393E-13
 -1       485 2.06257E+01 6.53620E-01 2.54645E-03 4.16090E-02-3.04679E-13-2.01054E-13
 -1       486 2.05974E+01 4.16439E-01 1.29570E-03 4.23831E-01-2.26368E-13-1.76300E-13
 -1       487 2.06448E+01 2.50872E-01 5.61299E-04 6.81759E-01-1.50222E-13-1.86158E-13
 -1       488 2.07673E+01 1.02701E-01 6.33017E-05 8.38152E-01-7.30415E-14-2.25005E-13
 -1       489 2.09598E+01-6.12635E-02-3.95542E-04 8.95603E-01-7.35875E-14-2.10276E-13
 -1       490 2.12168E+01-2.60511E-01-9.15035E-04 8.40728E-01-7.68605E-14-2.14808E-13
 -1       491 2.15297E+01-4.96279E-01-1.46124E-03 6.50021E-01-1.20883E-13-1.52048E-13
 -1       492 2.18776E+01-7.38852E-01-1.90812E-03 3.00905E-01-5.10554E-14-1.56304E-13
 -1       493 2.22141E+01-9.11936E-01-1.96080E-03-2.06577E-01 2.34618E-14-1.37066E-13
 -1       494 2.24584E+01-8.91317E-01-1.64222E-03-8.13459E-01 1.69547E-14-2.94242E-14
 -1       495 2.25141E+01-5.47747E-01-7.35883E-04-1.36461E+00-3.89406E-14 5.64734E-16
 -1       496 2.23264E+01 1.50919E-01 5.60642E-05-1.60945E+00-1.97894E-13 1.26930E-14
 -1       497 2.19842E+01 9.99255E-01-4.88680E-05-1.30469E+00-2.63300E-13-4.20793E-14
 -1       498 2.17192E+01 1.58275E+00-1.20000E-03-4.39409E-01-2.85361E-13-1.32271E-13
 -1       499 2.17444E+01 1.55256E+00-2.61460E-03 6.48627E-01-1.30049E-13-2.82737E-13
 -1       500 2.20528E+01 9.20397E-01 1.80276E-04 1.46832E+00-2.05668E-13-3.77753E-13
 -1       501 2.24053E+01 7.89298E-02 5.72160E-04 1.71289E+00-1.11929E-13-3.53229E-13
 -1       502 2.25852E+01-5.76543E-01-1.62916E-04 1.43547E+00-3.62235E-14-3.92677E-13
 -1       503 2.25246E+01-8.75110E-01-1.55297E-03 8.84651E-01 6.32856E-14-3.59675E-13
 -1       504 2.22854E+01-8.65523E-01-1.91363E-03 3.01961E-01 9.10866E-14-4.29620E-13
 -1       505 2.19636E+01-6.82695E-01-1.78476E-03-1.72974E-01 6.56340E-14-4.52955E-13
 -1       506 2.16329E+01-4.47611E-01-1.33218E-03-4.94087E-01 7.20040E-15-5.66926E-13
 -1       507 2.13320E+01-2.33566E-01-8.16239E-04-6.70931E-01-4.00226E-14-5.56888E-13
 -1       508 2.10740E+01-7.05647E-02-3.77304E-04-7.35357E-01 6.30221E-14-4.50860E-13
 -1       509 2.08586E+01 3.78713E-02-6.23656E-05-7.22514E-01-9.13433E-14-4.94214E-13
 -1       510 2.06809E+01 1.00413E-01 1.35877E-04-6.62670E-01-6.66766E-14-3.67231E-13
 -1       511 2.05351E+01 1.29176E-01 2.41674E-04-5.78798E-01-1.48154E-13-2.48337E-13
 -1       512 2.04161E+01 1.35459E-01 2.82230E-04-4.86836E-01-5.26241E-14-9.82671E-14
 -1       513 2.03195E+01 1.28205E-01 2.81318E-04-3.96947E-01 3.95295E-15-6.47447E-14
 -1       514 2.02419E+01 1.13831E-01 2.56978E-04-3.14968E-01 2.28128E-14-1.71276E-13
 -1       515 2.01801E+01 9.66106E-02 2.21683E-04-2.43702E-01 8.54141E-14-1.84474E-13
 -1       516 2.01316E+01 7.91892E-02 1.83381E-04-1.83965E-01 1.28459E-13-3.44815E-13
 -1       517 2.00941E+01 6.30630E-02 1.46715E-04-1.35352E-01 1.81236E-13-6.95137E-14
 -1       518 2.00655E+01 4.89599E-02 1.14078E-04-9.67904E-02 2.13849E-13 1.37707E-16
 -1       519 2.00442E+01 3.71206E-02 8.64228E-05-6.69025E-02 8.75263E-14 6.33772E-14
 -1       520 2.00286E+01 2.74948E-02 6.38377E-05-4.42449E-02 1.18165E-14 4.09648E-13
 -1       521 2.00175E+01 1.98734E-02 4.59282E-05-2.74471E-02-9.86001E-14 4.89487E-13
 -1       522 2.00099E+01 1.39720E-02 3.20506E-05-1.52881E-02 8.61747E-15 2.88238E-13
 -1       523 2.00048E+01 9.48170E-03 2.14546E-05-6.73146E-03 2.32551E-14 1.79201E-13
 -1       524 2.00017E+01 6.09703E-03 1.34442E-05-9.33893E-04 6.53831E-14 1.76604E-13
 -1       525 1.99999E+01 3.52902E-03 7.32903E-06 2.76161E-03 4.24540E-14 2.49141E-13
 -1       526 1.99990E+01 1.50471E-03 2.90765E-06 4.83708E-03 1.33465E-13 4.10123E-13
 -1       527 1.99988E+01-2.27480E-04-6.75551E-07 5.62153E-03 1.46964E-13 2.80015E-13
 -1       528 2.07390E+01 3.76385E-01 2.07803E-03-9.16969E-01 1.77678E-13-2.03511E-14
 -1       529 2.09179E+01 3.32345E-01 1.44278E-03-1.21966E+00 9.06524E-14-5.76352E-14
 -1       530 2.11846E+01 2.79454E-01 8.44663E-04-1.48135E+00 7.34604E-14-4.04887E-14
 -1       531 2.15397E+01 1.73267E-01-8.61846E-05-1.68869E+00 7.61447E-14-7.26779E-15
 -1       532 2.20008E+01-4.22225E-02-1.50525E-03-1.79687E+00 4.03395E-14 3.33600E-14
 -1       533 2.26055E+01-4.27101E-01-3.35206E-03-1.72162E+00 3.97599E-14 1.47807E-14
 -1       534 2.34019E+01-1.00446E+00-5.64358E-03-1.33730E+00-1.17471E-14 1.63642E-14
 -1       535 2.44026E+01-1.66154E+00-6.83270E-03-5.03694E-01-7.94662E-14 5.33689E-14
 -1       536 2.54731E+01-2.00189E+00-1.10268E-02 8.20044E-01 6.45118E-14 1.80998E-13
 -1       537 2.61566E+01-1.37889E+00-2.32542E-02 2.24513E+00 1.75593E-13 3.16942E-13
 -1       538 2.62098E+01 7.27666E-01-4.63107E-02 2.93378E+00 3.32194E-13 1.96839E-13
 -1       539 2.55710E+01 3.13687E+00-1.09799E-01 1.68735E+00 5.94878E-13-5.16575E-14
 -1       540 2.56186E+01 3.34207E+00-1.03973E-01-1.01940E+00 3.34514E-13-1.76492E-13
 -1       541 2.60026E+01 1.46605E+00-9.78345E-02-2.88241E+00 2.23675E-14-2.53773E-13
 -1       542 2.63598E+01-8.40344E-01-5.18943E-02-2.78594E+00-1.60275E-13-2.46619E-13
 -1       543 2.58662E+01-1.91990E+00-1.33613E-02-1.42640E+00-1.16890E-13-2.93611E-13
 -1       544 2.48424E+01-1.80182E+00-7.76259E-03 4.20859E-02-1.52942E-14-1.76870E-13
 -1       545 2.38240E+01-1.17539E+00-6.50661E-03 1.01110E+00 4.64890E-14-3.45954E-14
 -1       546 2.29946E+01-5.51391E-01-4.67141E-03 1.49594E+00-1.66850E-13-2.62744E-14
 -1       547 2.23670E+01-1.12094E-01-2.14475E-03 1.63185E+00-1.32862E-13-1.58822E-13
 -1       548 2.18919E+01 1.36392E-01-2.95020E-04 1.56055E+00-1.67633E-13-3.15936E-13
 -1       549 2.15191E+01 2.47865E-01 7.45204E-04 1.38614E+00-1.70225E-13-1.22398E-13
 -1       550 2.12163E+01 2.76987E-01 1.19586E-03 1.17429E+00-3.44985E-14-8.64044E-14
 -1       551 2.09657E+01 2.63156E-01 1.29033E-03 9.62413E-01-6.41197E-16 3.43664E-15
 -1       552 2.07574E+01 2.30618E-01 1.19871E-03 7.69355E-01 6.27697E-14 2.04961E-13
 -1       553 2.05855E+01 1.92748E-01 1.03010E-03 6.02750E-01 1.24283E-13 1.72658E-13
 -1       554 2.04455E+01 1.56190E-01 8.44984E-04 4.64003E-01 1.02624E-13-9.87841E-14
 -1       555 2.03330E+01 1.23795E-01 6.72321E-04 3.51358E-01-9.48466E-14 9.83680E-14
 -1       556 2.02443E+01 9.64285E-02 5.23355E-04 2.61688E-01 5.17313E-14 1.95352E-13
 -1       557 2.01754E+01 7.39928E-02 4.00389E-04 1.91474E-01 1.02094E-13 3.77853E-13
 -1       558 2.01228E+01 5.59824E-02 3.01685E-04 1.37304E-01 2.58800E-13 2.33219E-13
 -1       559 2.00834E+01 4.17588E-02 2.23999E-04 9.61065E-02 4.32218E-13 4.24432E-13
 -1       560 2.00545E+01 3.06830E-02 1.63797E-04 6.52250E-02-7.48187E-15 6.13469E-13
 -1       561 2.00339E+01 2.21715E-02 1.17767E-04 4.24296E-02-2.09691E-13 5.59287E-13
 -1       562 2.00195E+01 1.57148E-02 8.30112E-05 2.58868E-02-2.73927E-13 2.36332E-13
 -1       563 2.00098E+01 1.08780E-02 5.70596E-05 1.41165E-02-6.26097E-14 2.84711E-13
 -1       564 2.00036E+01 7.29421E-03 3.78117E-05 5.94659E-03 1.18086E-14 2.94926E-13
 -1       565 2.00000E+01 4.65310E-03 2.34160E-05 4.69175E-04 1.85218E-13 2.54944E-13
 -1       566 1.99981E+01 2.69015E-03 1.32540E-05-2.99410E-03 5.24065E-13 1.65856E-13
 -1       567 1.99975E+01 1.17558E-03 5.60219E-06-4.94405E-03-6.85964E-14 3.61247E-13
 -1       568 1.99976E+01-1.53541E-04-6.80466E-06-5.72849E-03-3.48453E-13 6.68695E-13
 -1       569 1.99981E+01-1.36612E-03-6.09390E-06-5.46763E-03-6.37592E-14 8.65361E-13
 -1       570 2.00018E+01-2.51899E-03 4.25559E-06-3.70172E-03 2.70097E-13 5.35631E-14
 -1       571 2.00020E+01-2.46352E-03 5.61938E-06-2.44531E-03-1.76418E-14 2.83694E-13
 -1       572 2.00002E+01-2.13648E-03-6.05852E-06-5.52735E-03-6.17551E-14 2.55067E-15
 -1       573 2.00013E+01-2.42116E-03 5.75268E-07-4.77572E-03 5.93180E-14-5.13976E-13
 -1       574 2.00021E+01-2.37542E-03 5.79171E-06-1.16418E-03-1.98593E-13 2.26675E-13
 -1       575 2.00020E+01-2.31835E-03 5.76391E-06 9.73346E-05-1.45208E-13 1.08034E-13
 -1       576 2.00020E+01-2.32006E-03 5.51110E-06 1.34087E-03-1.37663E-13-6.07122E-14
 -1       577 2.00019E+01-2.36096E-03 4.79973E-06 2.55270E-03 7.88026E-14-2.47723E-13
 -1       578 2.00017E+01-2.38546E-03 3.30880E-06 3.73828E-03 2.61210E-13-1.81369E-13
 -1       579 2.00012E+01-2.28868E-03 1.08631E-06 4.76794E-03 2.21769E-13-1.01052E-13
 -1       580 2.00002E+01-1.99866E-03-1.98709E-06 5.38594E-03 1.26811E-13 1.73857E-13
 -1       581 4.67594E+00-1.55930E+00 1.63051E-01 1.53148E+00-1.62538E-13 5.95593E-13
 -1       582 1.64261E+01-5.19612E+00 8.47446E-02 6.57858E+00-1.98064E-13 1.62950E-13
 -1       583 2.06574E+01 4.51557E-01 3.36339E-03-5.60178E-01 2.51765E-13-4.55652E-15
 -1       584 4.51567E+00-1.85326E+00 1.53072E-01-2.49436E+00 3.67935E-14 6.86465E-13
 -1       585 9.27390E+00-3.17812E+00 1.49676E-01 5.65185E+00-1.85296E-13 3.37619E-13
 -1       586 2.06705E+01 1.81502E+00-6.09731E-03-1.14830E+00-4.51791E-13-2.82305E-13
 -1       587 2.50566E+01-4.95912E+00 6.81322E-03-4.21367E+00 1.52080E-13-4.23481E-14
 -1       588 2.71773E+01-4.22222E+00-4.01717E-02 2.54045E+00 3.10342E-14 3.90472E-13
 -1       589 2.06538E+01-5.75503E+00 5.64021E-02-5.82740E+00-3.94990E-13-1.03580E-13
 -1       590 1.92108E+01 3.59068E+00-4.16540E-03-1.43372E-01-2.91693E-14-6.15302E-13
 -1       591 3.11496E+01 5.48964E+00-1.77274E-01-1.87536E+00 6.53200E-13-1.72459E-13
 -1       592 2.98904E+01-1.33638E+00-7.86903E-02 1.42569E+00 3.05967E-13 7.44405E-13
 -1       593 3.10094E+01 6.86783E+00-1.72985E-01 8.88906E-02 8.88414E-13 1.59095E-13
 -1       594 4.70121E+00-1.29448E+00 1.79929E-01 6.16308E-01 5.91612E-14-1.05269E-12
 -1       595 2.73771E+01-5.00415E+00-1.92524E-02-2.34187E+00-1.05783E-13 4.62512E-13
 -1       596 1.32832E+01-3.99989E+00 1.35636E-01-6.50440E+00-4.20615E-13-5.95475E-13
 -1       597 2.93737E+01 7.03902E+00-1.74350E-01-6.86925E-01-8.68347E-13 8.89826E-14
 -1       598 6.71091E+00-2.06812E+00 1.66596E-01-3.93905E+00-2.38018E-13-1.01917E-12
 -1       599 7.04298E+00-2.82606E+00 1.42670E-01 5.20743E+00 2.02914E-13-9.19612E-13
 -1       600 1.51802E+01-4.52463E+00 1.33006E-01 7.06090E+00 3.24261E-13-3.59646E-13
 -1       601 2.17449E+01-5.63690E+00 3.84284E-02 5.79211E+00 2.64490E-13-5.80230E-14
 -1       602 2.96996E+01-5.75344E-03-9.44611E-02-8.55724E-01-3.62585E-13 4.74537E-13
 -1       603 2.99597E+01 4.31988E+00-1.56177E-01-1.71889E+00-6.61318E-13 2.92141E-13
 -1       604 2.88792E+01 6.39470E+00-1.86924E-01 1.20064E+00-9.47561E-13-1.76869E-13
 -1       605 2.94612E+01 1.23384E+00-1.26363E-01 1.57219E+00-4.54609E-13-1.80370E-13
 -1       606 2.89057E+01-2.17168E+00-6.32988E-02-4.62553E-01-1.48692E-13-6.43999E-14
 -1       607 1.81647E+01-5.23459E+00 8.75949E-02-6.75175E+00 4.09964E-13 1.79103E-13
 -1       608 2.96742E+01-2.98667E+00-7.13246E-02-1.02930E-01-3.80460E-14-1.37820E-13
 -1       609 2.09697E+01 1.35323E+00-4.93401E-04 1.15933E+00 5.10941E-13 1.07221E-13
 -1       610 1.99603E+01 2.82906E+00-8.88096E-03-8.39646E-01-3.12684E-13-5.16259E-13
 -1       611 8.61700E+00-1.74846E+00 1.54105E-01-4.86990E+00 9.88272E-14 6.73836E-13
 -1       612 2.75255E+01 3.35406E+00-1.36624E-01 2.18173E+00-5.65076E-13-2.11609E-13
 -1       613 2.90658E+01 4.47792E-01-9.94174E-02 2.80947E+00 4.83599E-13 5.17152E-13
 -1       614 1.99988E+01-1.33846E-03-4.65728E-06 5.53929E-03 6.37683E-14 3.58028E-13
 -1       615 1.93583E+01 3.00889E+00-1.27529E-03 1.99573E-01 1.69991E-13-5.21517E-13
 -1       616 1.92670E+01 3.09409E+00-1.18995E-03 1.13643E-01 9.43236E-14-5.49370E-13
 -1       617 1.98806E+01 2.46303E+00-9.70737E-04 3.80005E-01 3.11959E-13-3.79735E-13
 -1       618 2.02558E+01 1.98500E+00-1.33248E-03 4.56798E-01 3.68018E-13-2.44127E-13
 -1       619 2.00009E+01 3.16057E-04 1.49821E-06-5.42789E-03-2.28145E-13-1.57361E-14
 -1       620 2.63975E+01-4.18306E+00-2.71005E-02-1.66764E+00 1.72464E-13-7.33823E-14
 -1       621 2.04896E+01 8.68762E-01 6.97217E-04 2.34069E-01-2.48721E-13-2.83213E-13
 -1       622 2.04941E+01 5.75832E-01 2.80861E-04 5.94611E-01-1.66144E-13-2.54445E-13
 -1       623 2.05413E+01 3.38978E-01 9.48250E-05 8.57111E-01-1.03342E-13-2.27025E-13
 -1       624 2.06540E+01 1.02608E-01-4.14497E-05 1.02878E+00-7.32146E-14-2.51919E-13
 -1       625 2.08532E+01-1.72970E-01-2.02899E-04 1.10357E+00-5.68176E-14-2.51129E-13
 -1       626 2.11604E+01-5.10520E-01-4.59656E-04 1.06002E+00-5.73803E-14-1.88853E-13
 -1       627 2.15913E+01-9.02707E-01-7.12691E-04 8.61879E-01-7.43626E-14-7.61802E-14
 -1       628 2.21377E+01-1.28691E+00-9.47184E-04 4.65970E-01-2.42931E-14-8.97248E-14
 -1       629 2.27369E+01-1.51408E+00-9.34929E-04-1.50467E-01 2.27871E-14-1.27851E-13
 -1       630 2.32419E+01-1.34838E+00-2.42865E-03-9.23268E-01-2.11831E-14-1.08064E-13
 -1       631 2.34681E+01-5.79241E-01-5.60069E-03-1.62509E+00-7.25040E-14-4.64008E-14
 -1       632 2.32895E+01 7.97480E-01-8.04951E-03-1.82989E+00-2.14689E-13-9.93084E-14
 -1       633 2.29034E+01 2.19386E+00-1.28676E-02-1.19164E+00-3.05640E-13-6.47772E-14
 -1       634 2.26788E+01 2.77552E+00-1.76861E-02 1.36309E-01-3.68857E-13-2.61314E-14
 -1       635 2.29558E+01 2.04034E+00-4.54431E-03 1.41531E+00-2.51702E-13-2.89579E-13
 -1       636 2.33348E+01 6.50390E-01-6.81082E-03 1.95615E+00-1.16970E-13-3.07428E-13
 -1       637 2.34744E+01-6.57250E-01-2.40980E-03 1.68340E+00-6.07895E-14-2.61501E-13
 -1       638 2.32106E+01-1.34943E+00-2.36157E-03 9.74768E-01 1.54741E-14-2.63451E-13
 -1       639 2.26862E+01-1.45283E+00-1.12565E-03 2.29779E-01 5.89576E-14-2.58833E-13
 -1       640 2.20874E+01-1.20232E+00-9.41387E-04-3.46594E-01 4.10209E-14-2.07134E-13
 -1       641 2.15466E+01-8.24737E-01-6.82895E-04-7.09719E-01-7.29047E-14-3.35776E-13
 -1       642 2.11173E+01-4.62460E-01-4.01013E-04-8.91689E-01-5.21898E-14-3.44804E-13
 -1       643 2.08004E+01-1.76421E-01-1.78499E-04-9.43658E-01 1.08934E-13-1.91749E-13
 -1       644 2.05758E+01 2.12666E-02-4.08497E-05-9.11520E-01 5.47293E-14-2.07731E-13
 -1       645 2.04193E+01 1.41516E-01 3.86273E-05-8.30433E-01 7.97887E-14-1.10642E-13
 -1       646 2.03101E+01 2.02755E-01 7.95681E-05-7.25314E-01-8.35077E-14 5.49744E-14
 -1       647 2.02328E+01 2.23231E-01 9.54261E-05-6.12881E-01 1.98286E-14 2.94936E-13
 -1       648 2.01769E+01 2.17979E-01 9.60790E-05-5.03709E-01-8.45398E-15 1.04477E-13
 -1       649 2.01354E+01 1.98183E-01 8.82655E-05-4.03941E-01-1.72839E-15 3.57324E-13
 -1       650 2.01038E+01 1.71574E-01 7.64577E-05-3.16626E-01-1.13530E-13 2.72826E-13
 -1       651 2.00795E+01 1.43152E-01 6.34705E-05-2.42729E-01-6.15305E-14 1.93834E-13
 -1       652 2.00605E+01 1.15912E-01 5.09473E-05-1.81899E-01 1.43678E-13-1.32066E-13
 -1       653 2.00456E+01 9.14628E-02 3.97431E-05-1.33020E-01 2.48553E-13-2.11478E-13
 -1       654 2.00340E+01 7.04942E-02 3.02098E-05-9.45961E-02 2.38709E-13-1.64421E-13
 -1       655 2.00249E+01 5.31228E-02 2.23961E-05-6.50117E-02 1.59804E-13-1.04549E-13
 -1       656 2.00180E+01 3.91303E-02 1.61795E-05-4.26974E-02-1.30118E-13-1.56071E-13
 -1       657 2.00127E+01 2.81224E-02 1.13553E-05-2.62233E-02-2.22977E-13-1.74916E-13
 -1       658 2.00087E+01 1.96299E-02 7.64426E-06-1.43482E-02-4.67325E-14-1.37424E-13
 -1       659 2.00058E+01 1.31683E-02 4.71066E-06-6.03702E-03 2.12455E-13-1.43719E-14
 -1       660 2.00036E+01 8.27083E-03 2.48940E-06-4.59819E-04 2.15130E-13 1.86838E-13
 -1       661 2.00021E+01 4.50365E-03 3.53213E-06 3.02961E-03 2.82927E-14 1.01608E-13
 -1       662 2.00011E+01 1.45843E-03-1.18911E-06 4.87839E-03 8.70503E-14 1.62813E-13
 -1       663 2.04846E+01 5.65039E-01 4.89502E-04-1.49195E+00 1.12226E-13-1.50905E-13
 -1       664 1.47115E+01-3.21906E+00 1.23453E-01-6.21413E+00 3.30430E-13 1.52513E-13
 -1       665 2.90931E+01-9.66847E-01-5.97515E-02-2.38856E+00-1.49832E-13-5.78815E-13
 -1       666 2.04566E+01 6.42431E-01 6.70118E-04-1.15141E+00 1.81149E-13-1.19360E-13
 -1       667 2.07367E+01 2.31990E-01-1.71970E-04-2.06388E+00 2.66251E-14-1.13002E-13
 -1       668 2.10678E+01-1.88938E-01-4.49326E-04-2.25521E+00 4.29503E-14-1.03113E-13
 -1       669 2.16891E+01-9.03839E-01 4.41410E-04-2.29549E+00-2.23602E-14-1.58391E-15
 -1       670 2.27707E+01-1.92846E+00 8.19964E-04-2.03035E+00-1.20457E-13 9.29345E-14
 -1       671 2.44705E+01-3.04706E+00-1.63413E-03-1.19544E+00-1.76800E-13 1.96514E-13
 -1       672 2.65149E+01-3.35899E+00-2.95313E-02 3.96794E-01-2.25410E-14 4.62112E-13
 -1       673 2.50253E+01-3.18300E+00 8.10399E-03 7.56339E-01-2.05240E-13-4.75289E-13
 -1       674 2.32369E+01-2.22756E+00 3.42116E-03 1.72688E+00-8.55117E-14-3.18266E-13
 -1       675 2.19969E+01-1.13393E+00-1.61804E-03 2.09835E+00-2.02831E-14-1.09200E-13
 -1       676 2.12696E+01-3.27087E-01-8.85320E-04 2.11211E+00-1.09708E-13-6.44841E-14
 -1       677 2.08715E+01 1.53880E-01-1.96374E-04 1.94988E+00-1.74895E-13 4.58501E-14
 -1       678 2.06548E+01 3.90741E-01 2.16116E-04 1.71419E+00-2.48590E-13 9.66263E-14
 -1       679 2.05270E+01 4.73616E-01 3.96593E-04 1.45755E+00-4.37487E-14-2.70242E-14
 -1       680 2.04393E+01 4.70471E-01 4.52293E-04 1.20824E+00-6.14352E-14 1.20651E-15
 -1       681 2.03690E+01 4.25484E-01 4.32665E-04 9.80903E-01 5.28106E-14 5.62076E-15
 -1       682 2.03074E+01 3.64569E-01 3.77772E-04 7.82026E-01 7.58974E-14 4.36306E-14
 -1       683 2.02521E+01 3.01659E-01 3.13202E-04 6.13238E-01 2.23121E-13 8.94739E-14
 -1       684 2.02028E+01 2.43512E-01 2.51384E-04 4.73339E-01 5.29730E-14 3.71064E-14
 -1       685 2.01598E+01 1.92862E-01 1.97277E-04 3.59630E-01-1.61314E-13-2.90832E-13
 -1       686 2.01234E+01 1.50324E-01 1.52145E-04 2.68764E-01-7.54419E-14 1.12211E-13
 -1       687 2.00933E+01 1.15478E-01 1.15592E-04 1.97266E-01 3.66060E-13 1.81421E-13
 -1       688 2.00691E+01 8.74655E-02 8.65868E-05 1.41831E-01 1.87132E-13 1.52015E-13
 -1       689 2.00499E+01 6.52961E-02 6.39303E-05 9.94717E-02-2.55661E-15 5.43886E-13
 -1       690 2.00352E+01 4.79959E-02 4.64730E-05 6.75864E-02-2.64880E-14 7.42172E-13
 -1       691 2.00241E+01 3.46748E-02 3.31943E-05 4.39651E-02-1.16477E-13 6.21986E-13
 -1       692 2.00159E+01 2.45493E-02 2.32082E-05 2.67730E-02-1.28322E-13 5.82475E-13
 -1       693 2.00100E+01 1.69440E-02 1.57562E-05 1.45183E-02 1.44084E-13 2.74532E-13
 -1       694 2.00060E+01 1.12828E-02 1.01296E-05 6.01252E-03 2.84647E-13 4.22800E-14
 -1       695 2.00032E+01 7.07192E-03 6.65491E-06 3.35076E-04 2.16315E-13 1.79978E-14
 -1       696 2.00015E+01 3.89356E-03 6.95333E-06-3.19763E-03-7.68634E-14 4.68636E-13
 -1       697 2.00011E+01 2.13581E-03 1.48953E-06-4.65938E-03-1.70318E-13 2.37395E-13
 -1       698 2.05785E+01 1.23632E+00 2.46981E-03 2.09728E-01 3.56463E-13-1.53276E-13
 -1       699 2.00031E+01 3.09351E-03 1.72823E-06-4.02369E-04-4.09748E-14 3.00197E-13
 -1       700 2.00005E+01-3.37062E-04-5.93051E-06 5.38325E-03 2.51829E-13 1.65775E-13
 -1       701 2.00031E+01 1.94620E-03 1.80443E-06-2.69991E-03 3.50357E-13 3.78955E-14
 -1       702 2.00030E+01 3.12331E-03 1.49185E-06 6.42665E-04 4.41541E-14 1.19972E-13
 -1       703 2.00031E+01 2.67007E-03 1.85944E-06-1.50434E-03-9.67582E-14 1.11546E-14
 -1       704 2.71721E+01-4.22516E+00-3.50023E-02 4.19948E-01-2.04852E-13-4.76482E-13
 -1       705 2.00030E+01 2.76327E-03 1.09558E-06 1.68418E-03 7.18158E-14-1.50891E-13
 -1       706 2.00029E+01 2.08474E-03 4.90832E-08 2.80387E-03 1.70921E-13-1.40182E-13
 -1       707 2.00024E+01 1.24610E-03-5.66872E-07 3.94401E-03 1.67575E-13-9.59148E-14
 -1       708 2.77774E+01 1.52197E+00-1.03374E-01-2.10426E+00-3.70110E-13 2.98737E-13
 -1       709 2.04369E+01 1.82287E+00-7.99663E-05-6.79940E-01-3.59010E-13-3.73061E-13
 -1       710 7.28208E+00-6.81546E-02 1.76770E-01-6.90634E-01-1.02633E-13 4.50653E-13
 -1       711 1.46667E+01-3.17547E+00 1.11281E-01 5.78851E+00-1.85935E-13 1.80533E-13
 -1       712 7.97383E+00-2.15537E-01 1.51515E-01-1.61464E+00-7.82985E-14-8.43652E-13
 -1       713 2.64769E+01 6.02978E+00-1.31774E-01 2.37669E-01-7.83040E-13-2.02364E-14
 -1       714 8.69705E+00-5.39629E-01 1.54417E-01 3.17208E+00 2.20098E-13-8.56371E-13
 -1       715 2.04696E+01 7.44493E-01 8.93224E-04-7.66232E-01 2.27690E-13-7.85221E-14
 -1       716 2.05665E+01 4.52664E-01 2.89175E-04-1.79866E+00 4.13586E-14-1.54314E-13
 -1       717 2.04845E+01 1.25452E+00-7.05475E-05-1.81883E-01-3.20181E-13-3.07389E-13
 -1       718 1.85558E+01-4.20150E+00 7.75359E-02-5.58657E+00-4.30690E-13-2.40490E-13
 -1       719 2.11791E+01-4.80270E+00 7.61106E-02 4.75781E+00-2.06505E-13 2.46013E-13
 -1       720 2.72019E+01-2.79950E+00-5.52057E-02-1.82619E-01-5.28423E-14 3.31464E-13
 -1       721 1.95671E+01 2.80200E+00-1.34980E-03 2.85822E-01 2.45716E-13-4.64521E-13
 -1       722 2.76847E+01-3.86840E+00-7.78291E-02 2.82284E-01 5.81930E-14 4.17399E-13
 -1       723 1.96659E+01 2.69047E+00-1.36934E-03-2.33033E-01-1.65673E-13-4.99306E-13
 -1       724 2.78629E+01 5.10716E+00-1.62031E-01-1.07808E+00 4.75633E-13-7.03188E-14
 -1       725 2.69575E+01 4.80444E+00-1.39814E-01-1.71197E+00-6.33771E-13 1.84207E-13
 -1       726 2.45649E+01-5.00479E+00 3.73280E-02-3.09376E+00-2.58803E-13 1.95394E-13
 -1       727 1.34046E+01-2.34751E+00 1.17614E-01 5.69279E+00 3.90684E-13-4.19852E-13
 -1       728 2.05154E+01 9.18520E-01 1.07855E-03-3.26970E-01 2.83639E-13-9.72099E-14
 -1       729 2.87616E+01 2.43461E+00-1.13493E-01-2.84366E+00 1.91257E-13-3.99947E-13
 -1       730 1.21618E+01-1.49954E+00 1.27394E-01-4.74808E+00-3.77167E-13-6.11518E-13
 -1       731 9.39092E+00-7.30353E-01 1.50890E-01 3.46144E+00-2.71620E-13 4.16771E-13
 -1       732 2.75377E+01-1.26286E+00-6.17059E-02 1.23999E+00-1.23616E-14-4.12309E-13
 -1       733 2.22690E+01-5.02498E+00 2.97652E-02-4.63910E+00 2.71422E-13 8.27528E-14
 -1       734 1.99723E+01 2.35017E+00-1.09161E-03-3.88935E-01-2.44222E-13-4.77907E-13
 -1       735 1.92958E+01 3.06455E+00-1.19504E-03 1.84095E-02-2.88830E-15-5.51584E-13
 -1       736 2.45320E+01-4.42408E+00 1.95361E-02 2.28541E+00-2.67894E-13-1.29028E-13
 -1       737 1.89166E+01-3.76829E+00 5.77450E-02-5.24660E+00 3.42488E-13 1.07183E-13
 -1       738 2.00026E+01 1.10746E-03-1.88137E-07-3.93965E-03 3.36273E-13-1.22481E-13
 -1       739 2.85416E+01 3.87583E+00-1.25365E-01-2.24563E+00 3.27148E-13-1.55674E-13
 -1       740 2.64520E+01 8.54136E-01-7.32518E-02 2.16019E+00-1.61940E-13-3.90275E-13
 -1       741 2.45787E+01-4.97912E+00-3.70122E-03 3.29345E+00 2.66011E-13 2.81062E-13
 -1       742 2.56329E+01 4.45491E+00-9.88468E-02 1.54299E+00-7.09564E-13-2.57486E-13
 -1       743 2.00020E+01 1.50455E-03-1.37011E-06 4.48332E-03-6.10880E-14-2.02418E-13
 -1       744 1.94346E+01 2.92838E+00-1.28042E-03-9.60547E-02-8.33416E-14-5.09683E-13
 -1       745 1.79448E+01-3.86974E+00 7.43070E-02 5.75670E+00 4.56999E-13-1.10230E-13
 -1       746 2.14212E+01-4.88928E+00 4.83851E-02 5.06716E+00 3.47548E-13 1.40064E-13
 -1       747 2.02648E+01 1.49556E+00-2.16422E-04-5.59667E-02 2.73673E-13-2.16646E-13
 -1       748 2.02765E+01 6.99006E-01 2.00938E-05 7.64204E-01-9.85968E-14-2.80113E-13
 -1       749 2.03132E+01 4.00542E-01 1.59608E-05 1.03195E+00-7.92725E-14-2.45732E-13
 -1       750 2.04203E+01 7.64671E-02 4.75698E-05 1.23515E+00-5.06160E-14-1.99498E-13
 -1       751 2.06421E+01-3.18862E-01 8.39077E-06 1.36307E+00 4.48861E-15-1.94846E-13
 -1       752 2.10294E+01-8.12633E-01-2.34414E-04 1.38561E+00 3.61874E-14-1.08330E-13
 -1       753 2.16311E+01-1.39049E+00-1.64175E-04 1.24417E+00 1.10908E-14 2.26346E-14
 -1       754 2.24631E+01-1.95153E+00-2.60359E-04 8.48743E-01 1.85469E-15 1.23383E-13
 -1       755 2.34456E+01-2.23796E+00-6.97805E-04 1.12498E-01 2.13239E-14 9.47989E-14
 -1       756 2.43235E+01-1.79605E+00-4.91839E-03-9.05787E-01 5.55953E-14 1.53830E-13
 -1       757 2.47928E+01-3.25904E-01-1.63507E-02-1.89255E+00-2.50442E-13 1.95675E-13
 -1       758 2.45830E+01 2.05666E+00-5.01254E-02-2.00671E+00-3.55728E-13 1.03754E-13
 -1       759 2.40942E+01 3.99719E+00-7.82472E-02-8.37686E-01-4.35622E-13-8.53709E-14
 -1       760 2.46937E+01-4.92483E-01-2.69885E-02 1.95808E+00 6.33647E-14-4.88567E-13
 -1       761 2.42280E+01-1.86451E+00-8.11563E-03 9.51971E-01 1.07888E-13-4.29177E-13
 -1       762 2.32881E+01-2.16768E+00-1.13099E-03-6.82484E-02 7.02242E-14-2.12752E-13
 -1       763 2.22973E+01-1.83587E+00-5.19010E-04-7.48494E-01 1.41455E-13-1.70400E-13
 -1       764 2.14691E+01-1.27751E+00-4.05939E-04-1.10276E+00 9.03140E-17-1.12947E-13
 -1       765 2.08689E+01-7.36177E-01-1.87710E-04-1.22427E+00-4.16819E-14 7.71851E-14
 -1       766 2.04715E+01-3.05639E-01-2.80321E-05-1.20700E+00 9.13582E-15 3.26326E-14
 -1       767 2.02279E+01-4.12299E-03 2.63525E-05-1.11486E+00 1.41349E-13-1.24393E-13
 -1       768 2.00897E+01 1.83968E-01 4.06833E-05-9.87441E-01 1.78950E-13-5.99239E-14
 -1       769 2.00186E+01 2.84737E-01 4.20660E-05-8.48185E-01 5.82998E-14 1.37864E-13
 -1       770 1.99873E+01 3.24061E-01 3.81811E-05-7.10711E-01-1.32200E-14 3.06294E-13
 -1       771 1.99781E+01 3.23485E-01 3.28934E-05-5.82744E-01-1.02018E-13 2.31247E-13
 -1       772 1.99797E+01 2.99335E-01 2.74160E-05-4.68353E-01-5.41061E-15 3.28444E-13
 -1       773 1.99856E+01 2.63180E-01 2.22364E-05-3.69249E-01-1.38532E-14 2.53117E-13
 -1       774 1.99925E+01 2.22742E-01 1.76021E-05-2.85598E-01-6.59385E-14 3.57388E-13
 -1       775 1.99986E+01 1.82847E-01 1.36249E-05-2.16586E-01-1.38354E-13 3.03929E-13
 -1       776 2.00032E+01 1.46245E-01 1.03230E-05-1.60820E-01 8.16011E-14 3.13059E-13
 -1       777 2.00063E+01 1.14277E-01 7.65674E-06-1.16624E-01 9.82793E-14-3.37568E-14
 -1       778 2.00080E+01 8.73614E-02 5.55465E-06-8.22468E-02 1.93976E-13-3.85136E-13
 -1       779 2.00086E+01 6.53558E-02 3.92649E-06-5.60007E-02 9.52517E-14-3.68763E-13
 -1       780 2.00085E+01 4.78017E-02 2.67555E-06-3.63439E-02 1.41449E-13-1.27773E-14
 -1       781 2.00077E+01 3.40873E-02 1.72506E-06-2.19259E-02-8.43900E-15 4.03324E-13
 -1       782 2.00067E+01 2.35489E-02 9.53512E-07-1.16040E-02 4.97711E-14 1.44564E-13
 -1       783 2.00055E+01 1.55290E-02 3.57176E-07-4.44348E-03 2.09805E-13-4.28563E-14
 -1       784 2.00042E+01 9.40530E-03 2.31548E-06 2.72322E-04 6.00334E-15-1.51741E-13
 -1       785 2.00031E+01 5.00428E-03-1.71572E-06 2.95412E-03-1.01942E-14-8.72452E-14
 -1       786 1.97630E+01-3.15737E-01 9.48236E-04-2.71753E+00-6.91463E-14-1.58171E-13
 -1       787 1.96307E+01 2.99863E-01-9.87463E-05-2.33023E+00 5.03989E-14-1.41997E-13
 -1       788 2.16648E+01-2.89293E+00 2.53720E-02-3.32300E+00-2.68947E-13 4.87306E-14
 -1       789 1.95783E+01 1.87709E-01 7.03607E-04 2.26877E+00-2.58751E-13 3.79165E-13
 -1       790 1.95689E+01 5.46804E-01 3.02010E-04 1.91272E+00-2.36575E-13 2.71696E-13
 -1       791 1.96499E+01 6.87450E-01 1.67432E-04 1.59966E+00-1.25577E-13 7.17407E-14
 -1       792 1.97512E+01 7.00999E-01 1.55720E-04 1.32539E+00 1.28877E-14-8.91904E-14
 -1       793 1.98420E+01 6.48492E-01 1.45862E-04 1.08570E+00-2.09365E-14 2.49047E-15
 -1       794 1.99122E+01 5.67120E-01 1.23249E-04 8.77859E-01 1.80590E-13-1.22700E-13
 -1       795 1.99614E+01 4.78080E-01 9.86777E-05 6.99986E-01 3.73357E-14-2.13537E-13
 -1       796 1.99932E+01 3.92588E-01 7.71022E-05 5.50113E-01 4.73863E-14-1.89689E-14
 -1       797 2.00119E+01 3.15915E-01 5.94891E-05 4.25868E-01 2.02124E-13 1.22021E-13
 -1       798 2.00215E+01 2.49959E-01 4.54641E-05 3.24515E-01-2.19449E-13-8.67284E-14
 -1       799 2.00252E+01 1.94810E-01 3.44107E-05 2.43125E-01 1.78562E-14-3.45111E-13
 -1       800 2.00252E+01 1.49668E-01 2.57633E-05 1.78762E-01 6.42011E-15 1.34440E-13
 -1       801 2.00232E+01 1.13352E-01 1.90508E-05 1.28630E-01-1.49833E-13 4.31411E-13
 -1       802 2.00203E+01 8.45773E-02 1.38861E-05 9.01758E-02-1.40123E-13 3.96735E-13
 -1       803 2.00171E+01 6.20980E-02 9.95109E-06 6.11424E-02-8.11145E-14 7.09513E-13
 -1       804 2.00139E+01 4.47729E-02 6.99397E-06 3.95885E-02-3.65996E-14 2.95195E-13
 -1       805 2.00110E+01 3.15893E-02 4.74607E-06 2.38856E-02 2.43137E-13-7.12933E-14
 -1       806 2.00084E+01 2.16679E-02 2.95479E-06 1.26997E-02 2.06330E-13-1.14200E-13
 -1       807 2.00063E+01 1.42499E-02 2.68688E-06 4.96475E-03 2.64574E-14 2.32632E-13
 -1       808 2.00045E+01 8.70147E-03 4.84027E-06-1.26592E-04-1.11289E-14 5.39529E-13
 -1       809 2.00038E+01 7.80885E-03-1.91114E-06 1.32516E-03 3.12802E-14-1.75055E-13
 -1       810 1.93254E+01 2.59395E+00-1.89734E-04 8.35839E-02 1.17654E-13-4.60597E-13
 -1       811 1.25387E+01-5.58572E-01 7.40327E-02 3.83210E+00 2.89519E-13-5.46913E-13
 -1       812 2.00038E+01 9.25901E-03-1.96166E-07 1.50903E-04 9.29986E-14 2.52708E-13
 -1       813 1.67020E+01-2.12501E+00 4.01341E-02-4.71283E+00-3.75674E-13-3.50338E-13
 -1       814 2.00037E+01 6.17316E-03 2.55326E-06 2.22019E-03-6.14445E-14-1.93155E-13
 -1       815 2.00038E+01 8.89680E-03-1.39275E-06 6.65138E-04 1.62113E-13 2.03314E-13
 -1       816 1.25838E+01-1.08778E+00 9.38984E-02-4.51680E+00 2.94589E-13 1.08219E-13
 -1       817 2.00840E+01 1.02641E+00 3.40228E-04-9.04105E-01 2.04101E-13-1.91530E-13
 -1       818 2.60202E+01-7.46315E-01-3.30638E-02-1.79678E+00-2.38060E-13 1.95483E-13
 -1       819 1.19752E+01 2.65052E-01 7.52001E-02-2.42771E+00-1.73256E-13-5.99519E-13
 -1       820 1.86261E+01-3.02306E+00 5.56960E-02 4.66528E+00-2.44719E-13 1.74753E-13
 -1       821 2.55999E+01 2.47859E+00-7.51201E-02-2.13231E+00-3.82340E-13 2.90455E-13
 -1       822 1.06243E+01 5.23623E-01 9.18221E-02-1.88975E+00-1.49438E-14 4.58876E-13
 -1       823 1.98110E+01-5.14689E-01 4.95635E-04 2.66750E+00-1.53916E-13 2.60402E-13
 -1       824 1.06264E+01 5.95525E-01 8.30370E-02 1.35434E+00-1.78160E-13 3.49880E-13
 -1       825 2.05575E+01-1.70236E+00 4.64841E-03 3.00254E+00-2.79184E-13 9.09780E-14
 -1       826 2.02901E+01-1.36339E+00 5.39468E-03-3.10987E+00-1.87357E-13-1.16351E-13
 -1       827 2.50867E+01-3.83341E+00-1.42414E-02 1.14434E+00 1.60236E-13 1.38846E-13
 -1       828 2.59087E+01-2.97829E+00-1.87695E-02 6.91903E-02 2.40772E-13-4.70035E-13
 -1       829 1.06916E+01 6.46558E-01 8.15194E-02 8.38164E-01 6.93434E-14-6.97300E-13
 -1       830 1.99486E+01 9.09055E-01 1.32318E-04-1.27468E+00 1.56391E-13-1.94631E-13
 -1       831 1.64741E+01-2.28549E+00 4.78654E-02 4.96319E+00 4.05084E-13-1.83502E-13
 -1       832 1.37757E+01-1.09871E+00 8.25078E-02 4.23832E+00-3.12075E-13 3.09294E-13
 -1       833 2.41066E+01-4.20563E+00 6.37051E-03-2.31033E+00 3.83611E-13-2.12037E-13
 -1       834 2.02709E+01 1.02805E+00 4.20234E-05 4.31094E-01-1.76717E-13-3.21396E-13
 -1       835 1.93052E+01 2.61131E+00-3.62490E-04 1.00662E-01 3.63344E-14-4.80196E-13
 -1       836 2.27777E+01-3.53480E+00 9.17443E-03 2.82314E+00-2.48763E-13-1.17295E-13
 -1       837 2.02505E+01 1.41322E+00 8.36855E-05 7.48949E-02-2.56506E-13-3.53395E-13
 -1       838 1.60447E+01-1.93892E+00 4.56552E-02-4.77447E+00 3.32531E-13 7.20292E-14
 -1       839 2.00040E+01 5.99062E-03-2.44077E-06-2.15024E-03 1.46424E-13 3.01909E-14
 -1       840 2.45241E+01 1.77428E+00-3.77569E-02 2.15568E+00-2.36353E-13-5.09158E-13
 -1       841 1.98055E+01 8.02295E-01 1.36950E-04-1.62362E+00 7.55903E-14-1.97822E-13
 -1       842 1.96804E+01 6.31455E-01 1.64485E-04-1.96992E+00 2.28391E-14-1.86849E-13
 -1       843 2.00041E+01 7.67200E-03 3.49887E-07-1.13156E-03 1.89055E-13-2.69041E-13
 -1       844 2.00036E+01 5.71177E-03-1.74303E-05-2.45804E-03 3.84429E-14 3.78502E-13
 -1       845 2.35694E+01-4.12496E+00 1.48940E-02 2.72182E+00 1.85582E-13 1.78023E-13
 -1       846 2.00039E+01 8.83138E-03 4.34372E-07-3.97296E-04-5.58428E-14 4.07129E-13
 -1       847 2.17298E+01-3.75570E+00 1.62188E-02-3.51258E+00 4.36360E-13-8.73299E-14
 -1       848 1.97388E+01 2.17575E+00-1.02439E-03 2.97291E-02 2.33674E-13-3.77105E-13
 -1       849 1.51542E+01-3.45608E-01 3.65918E-02-3.45177E+00-1.76189E-13-4.02245E-13
 -1       850 2.00032E+01 4.00300E-03 6.25744E-06-3.40090E-03 9.09758E-14 2.54765E-13
 -1       851 1.94745E+01 2.44907E+00-3.06938E-04 5.62976E-02 1.75897E-13-4.53111E-13
 -1       852 2.03326E+01-3.75390E+00 3.54490E-02 4.54624E+00 3.32288E-13-3.64899E-14
 -1       853 2.01955E+01 1.20247E+00 8.27951E-04-5.11053E-01 2.33509E-13-2.02672E-13
 -1       854 1.96221E+01 2.29783E+00-4.62610E-04 5.98671E-02-1.35590E-13-4.34849E-13
 -1       855 2.00035E+01 5.75275E-03 1.76077E-05 2.55979E-03-1.60134E-13-2.47563E-13
 -1       856 1.99035E+01 1.99126E+00-8.67416E-04 3.31513E-03-1.93722E-13-4.31533E-13
 -1       857 1.99616E+01 7.97384E-01-3.22784E-05 9.13298E-01-3.95095E-14-3.49373E-13
 -1       858 1.31140E+01 4.92348E-01 3.37617E-02 2.11804E+00 2.07827E-13-5.18216E-13
 -1       859 1.99602E+01 4.54202E-01 5.61129E-05 1.20243E+00-8.71521E-15-2.70808E-13
 -1       860 2.00364E+01 5.56194E-02 3.06951E-04 1.46890E+00 1.31778E-14-1.98765E-13
 -1       861 2.02570E+01-4.52696E-01 5.90980E-04 1.70399E+00 4.24447E-14-1.61619E-13
 -1       862 2.07057E+01-1.10910E+00 2.39984E-04 1.87141E+00 7.85212E-14-1.40832E-13
 -1       863 2.14978E+01-1.91677E+00 1.74229E-03 1.88507E+00 8.80963E-14-1.06709E-13
 -1       864 2.26988E+01-2.71691E+00 3.44692E-03 1.57002E+00 4.47101E-14-2.82347E-14
 -1       865 2.40031E+01-3.03569E+00 2.60988E-03-7.23875E-01 2.50019E-13-3.08440E-13
 -1       866 2.24417E+01-2.57055E+00-2.01454E-03-1.47532E+00 1.89946E-13-4.84275E-14
 -1       867 2.12434E+01-1.75804E+00 7.59465E-04-1.75058E+00 6.89534E-14-3.03988E-14
 -1       868 2.04674E+01-1.00128E+00 9.73338E-05-1.71615E+00 2.37140E-14-4.90722E-14
 -1       869 2.00096E+01-4.13794E-01 1.44654E-04-1.55151E+00-5.93156E-14 3.17370E-14
 -1       870 1.97716E+01-7.84352E-03 1.05266E-04-1.34513E+00-1.77976E-14 2.37906E-14
 -1       871 1.96727E+01 2.45442E-01 6.32819E-05-1.13775E+00 2.70823E-13 6.22430E-15
 -1       872 1.96557E+01 3.83270E-01 4.12611E-05-9.45968E-01 2.08275E-13-4.73725E-14
 -1       873 1.96824E+01 4.39916E-01 2.59924E-05-7.75406E-01 1.54368E-13 1.27673E-13
 -1       874 1.97291E+01 4.43193E-01 1.65585E-05-6.27103E-01-8.32990E-14 6.05322E-14
 -1       875 1.97815E+01 4.14125E-01 1.07581E-05-5.00303E-01 4.79588E-14 9.24256E-14
 -1       876 1.98317E+01 3.67801E-01 7.03394E-06-3.93517E-01-9.59703E-14-1.96369E-14
 -1       877 1.98757E+01 3.14524E-01 4.55100E-06-3.04908E-01 4.21874E-14 3.06614E-14
 -1       878 1.99122E+01 2.60931E-01 2.87002E-06-2.32470E-01-5.11789E-14 3.56579E-14
 -1       879 1.99409E+01 2.10974E-01 1.73615E-06-1.74138E-01-6.13085E-14 1.69664E-13
 -1       880 1.99628E+01 1.66721E-01 9.84982E-07-1.27874E-01-1.30686E-13-3.29622E-14
 -1       881 1.99787E+01 1.28974E-01 5.04095E-07-9.17452E-02-6.36692E-14-1.08915E-13
 -1       882 1.99898E+01 9.77277E-02 2.09421E-07-6.39779E-02 2.05028E-13-7.76974E-14
 -1       883 1.99971E+01 7.25049E-02 9.49712E-09-4.29909E-02 3.45110E-13-1.81222E-13
 -1       884 2.00016E+01 5.25783E-02-1.47763E-07-2.74143E-02 1.75592E-13 4.01054E-14
 -1       885 2.00040E+01 3.71206E-02-6.69583E-07-1.60902E-02 4.94490E-14 5.59480E-14
 -1       886 2.00050E+01 2.52709E-02-1.02282E-06-8.06417E-03 5.78362E-14 2.18167E-13
 -1       887 2.00049E+01 1.62053E-02-1.24548E-05-2.56543E-03 1.19312E-13 6.17168E-15
 -1       888 1.81424E+01 4.48955E-01-3.38592E-03-2.43975E+00-9.45381E-15-2.87342E-13
 -1       889 1.89451E+01 9.35679E-01-3.09693E-05 1.28106E+00-6.57825E-14 2.40036E-14
 -1       890 1.86125E+01 9.16352E-01-7.87697E-05 1.56147E+00-7.86701E-14 3.40674E-14
 -1       891 1.27248E+01 1.12103E+00 3.25338E-02-1.89009E-01-7.09909E-14 2.51087E-13
 -1       892 1.82370E+01 7.48813E-01 1.56382E-04 1.93384E+00-2.07013E-13 7.21951E-14
 -1       893 1.92189E+01 8.75824E-01 5.28150E-06 1.05466E+00 3.10752E-14-6.51481E-14
 -1       894 1.94351E+01 7.77735E-01 1.77112E-05 8.64037E-01 1.43048E-13-1.51784E-13
 -1       895 1.96003E+01 6.66351E-01 1.47412E-05 7.00944E-01 1.98608E-13 1.20244E-14
 -1       896 1.97236E+01 5.56052E-01 9.79402E-06 5.61454E-01-6.17149E-14-1.48777E-14
 -1       897 1.98135E+01 4.54434E-01 6.18341E-06 4.43276E-01 5.31807E-14-1.49981E-13
 -1       898 1.98780E+01 3.64916E-01 3.94748E-06 3.44547E-01-8.59978E-15 1.24147E-13
 -1       899 1.99233E+01 2.88471E-01 2.59815E-06 2.63368E-01-7.52350E-14 7.70002E-14
 -1       900 1.99546E+01 2.24703E-01 1.76402E-06 1.97710E-01-1.10267E-13 3.89413E-14
 -1       901 1.99756E+01 1.72518E-01 1.22726E-06 1.45475E-01-1.64385E-13 1.18051E-13
 -1       902 1.99894E+01 1.30516E-01 8.68633E-07 1.04599E-01-2.17264E-13 1.61245E-13
 -1       903 1.99980E+01 9.72198E-02 6.23277E-07 7.31374E-02-2.36500E-13 3.85379E-14
 -1       904 2.00030E+01 7.12014E-02 4.49588E-07 4.93331E-02 2.03761E-13 8.61017E-14
 -1       905 2.00056E+01 5.11474E-02 3.18448E-07 3.16462E-02 2.25478E-13 5.25396E-14
 -1       906 2.00066E+01 3.58776E-02-2.54547E-07 1.87710E-02 1.41840E-13-3.74949E-15
 -1       907 2.00065E+01 2.43738E-02 2.20204E-07 9.62937E-03 1.45137E-14-4.56345E-14
 -1       908 2.00058E+01 1.57484E-02 3.53885E-06 3.37335E-03-8.33472E-14-2.15448E-13
 -1       909 1.38782E+01 3.33134E-01 2.88521E-02 2.60756E+00-2.54220E-13 3.08193E-13
 -1       910 2.00044E+01 1.29415E-02 9.34320E-06-1.22426E-04-1.46005E-13-2.13088E-13
 -1       911 1.95722E+01 1.26778E+00-4.80602E-04-9.22164E-01 1.59835E-13-2.66849E-13
 -1       912 1.94124E+01 2.50796E+00-3.31336E-04 9.45262E-02-4.61270E-14-4.74199E-13
 -1       913 1.38066E+01 7.76928E-02 4.33397E-02-3.02926E+00 2.46260E-13-3.34854E-14
 -1       914 1.78668E+01 3.31147E-01 1.48124E-03 2.45789E+00-1.48097E-13 3.10769E-13
 -1       915 1.95212E+01 1.97352E+00-2.01658E-04-1.96583E-01 1.74071E-13-3.84647E-13
 -1       916 1.76735E+01-4.52983E-01 1.57076E-02 3.19732E+00-2.86425E-13 1.70580E-13
 -1       917 1.98329E+01 1.62880E+00-4.07000E-04-3.62297E-01 2.14976E-13-2.98341E-13
 -1       918 1.99884E+01 1.14557E+00 7.88082E-05 5.98647E-01-9.19615E-14-3.66095E-13
 -1       919 1.93070E+01 2.17058E+00 8.20486E-05-5.11133E-02 1.22260E-13-4.22552E-13
 -1       920 1.32993E+01 1.03842E+00 3.18007E-02-6.27085E-01-1.43003E-14-4.64915E-13
 -1       921 1.54927E+01-7.31053E-01 2.69145E-02 3.71490E+00 3.07305E-13-2.55618E-13
 -1       922 1.80551E+01-1.07402E+00 2.36739E-02-3.66774E+00-1.99714E-13-2.74566E-13
 -1       923 2.49691E+01-2.47198E+00-9.29754E-03-4.14065E-01 6.27423E-14 1.26505E-13
 -1       924 1.50265E+01 7.65114E-01 1.17568E-02-1.97657E+00-8.11894E-14-4.49955E-13
 -1       925 1.79837E+01-1.36130E-01 4.80283E-03-2.98847E+00-1.08086E-13-2.51567E-13
 -1       926 2.43057E+01-3.15442E+00-5.92547E-03 7.19803E-01 6.98280E-14 7.24288E-14
 -1       927 1.85356E+01 8.38303E-01 9.53406E-05-1.95218E+00 1.96176E-15-3.33554E-13
 -1       928 2.00044E+01 1.03537E-02-4.81246E-07 4.01076E-04 3.98225E-14-2.01845E-13
 -1       929 2.00039E+01 1.63233E-02 3.44707E-07 4.23100E-05 2.75364E-13 2.93657E-13
 -1       930 1.92331E+01 2.23392E+00 1.79708E-05 8.57865E-02 7.10119E-14-4.00498E-13
 -1       931 2.00050E+01 1.11137E-02 3.39264E-06 2.04448E-04-3.03078E-14-2.26021E-13
 -1       932 2.00041E+01 1.51262E-02 1.63580E-06-2.14859E-04 8.44267E-14-3.23102E-13
 -1       933 2.00039E+01 1.63007E-02-4.52746E-06 4.26309E-04 3.79902E-13 4.69279E-13
 -1       934 1.92872E+01 1.15177E+00-1.07608E-04-1.24849E+00 1.22161E-13-2.53837E-13
 -1       935 1.91231E+01-2.52214E+00 2.27340E-02-3.99730E+00 3.64405E-13 4.19211E-14
 -1       936 2.00048E+01 1.27473E-02-3.77949E-07 3.78112E-04-1.33356E-13 2.67224E-13
 -1       937 1.97266E+01 1.41903E+00 6.74857E-04-6.50104E-01 1.90400E-13-2.83871E-13
 -1       938 1.94997E+01 1.99075E+00 1.40189E-04 2.76902E-01-8.44564E-14-3.53615E-13
 -1       939 1.99662E+01 1.52883E+00 2.66523E-04 3.04148E-01-1.90271E-13-3.77623E-13
 -1       940 1.97188E+01 1.78214E+00 1.70318E-04 3.02557E-01-1.46053E-13-3.73463E-13
 -1       941 1.83995E+01-1.93470E+00 2.45705E-02 3.94466E+00 2.86208E-13-1.76609E-13
 -1       942 1.47050E+01 8.87343E-01 5.85731E-03-1.51079E+00 7.69335E-14-7.98519E-14
 -1       943 1.95443E+01 8.93161E-01 5.76895E-05 1.01739E+00 3.67118E-14-3.32482E-13
 -1       944 1.94549E+01 5.32856E-01-3.22175E-05 1.34596E+00 3.88739E-14-3.26297E-13
 -1       945 1.94328E+01 8.93550E-02-7.89160E-05 1.71498E+00 5.63232E-14-3.00967E-13
 -1       946 1.95604E+01-5.13074E-01-1.66184E-03 2.13705E+00 9.00230E-14-2.45375E-13
 -1       947 2.00304E+01-1.33583E+00 3.15627E-03 2.55563E+00 1.16703E-13-1.99946E-13
 -1       948 2.08501E+01-2.40117E+00-9.37399E-03 2.86579E+00 1.43124E-13-1.00209E-13
 -1       949 2.05863E+01-2.17317E+00 7.79305E-03-2.72996E+00 2.12560E-13-2.18999E-14
 -1       950 1.97099E+01-1.17238E+00 6.68428E-04-2.37936E+00 1.05211E-13 1.18241E-13
 -1       951 1.92895E+01-4.34429E-01 5.99005E-04-1.96687E+00 3.18880E-15 1.68053E-13
 -1       952 1.91374E+01 5.42466E-02 1.49830E-04-1.58654E+00 7.02120E-14 2.27283E-13
 -1       953 1.91347E+01 3.52573E-01-1.44018E-05-1.26641E+00 4.80908E-14 1.72527E-13
 -1       954 1.92094E+01 5.12256E-01-1.49731E-05-1.00604E+00 2.12010E-13-4.36574E-15
 -1       955 1.93182E+01 5.76272E-01-1.53177E-05-7.96324E-01 2.99246E-13-1.55216E-13
 -1       956 1.94362E+01 5.77454E-01-1.42730E-05-6.27492E-01 4.46536E-14-1.13942E-13
 -1       957 1.95493E+01 5.40095E-01-1.23243E-05-4.91421E-01-8.00106E-14 1.97947E-13
 -1       958 1.96505E+01 4.81704E-01-1.02588E-05-3.81799E-01-1.19779E-13 5.26179E-14
 -1       959 1.97367E+01 4.14438E-01-8.41085E-06-2.93737E-01-1.81998E-14 1.40888E-13
 -1       960 1.98074E+01 3.46324E-01-6.83790E-06-2.23370E-01-2.47495E-14 1.06653E-13
 -1       961 1.98636E+01 2.82297E-01-5.51135E-06-1.67561E-01-2.96319E-14 2.23497E-14
 -1       962 1.99070E+01 2.25062E-01-4.39182E-06-1.23705E-01-1.65233E-13 1.00093E-14
 -1       963 1.99395E+01 1.75777E-01-3.44385E-06-8.96094E-02-2.67638E-13-2.35456E-13
 -1       964 1.99631E+01 1.34590E-01-2.63622E-06-6.34198E-02 6.33290E-14-2.59115E-13
 -1       965 1.99797E+01 1.01021E-01-1.96000E-06-4.35700E-02 2.96207E-13 7.27805E-15
 -1       966 1.99909E+01 7.42482E-02-1.37085E-06-2.87498E-02 3.39282E-13 2.60637E-14
 -1       967 1.99980E+01 5.32955E-02-2.10929E-06-1.78749E-02 1.14209E-13-8.87414E-14
 -1       968 2.00020E+01 3.71592E-02-6.79224E-07-1.00883E-02 4.99596E-15 1.24507E-13
 -1       969 2.00040E+01 2.47421E-02-8.57663E-07-4.55582E-03-1.19219E-13-2.72814E-13
 -1       970 1.85578E+01 1.07947E+00-2.12106E-04 8.60539E-01 4.65576E-14-3.42172E-13
 -1       971 1.46487E+01 1.03251E+00 1.21922E-02 9.09229E-01 1.06397E-13-3.76597E-13
 -1       972 1.92074E+01 8.43463E-01-7.25537E-05 5.99138E-01-4.53525E-14 7.44090E-14
 -1       973 1.94231E+01 7.15042E-01-5.22649E-05 4.92566E-01-5.22513E-14 3.64306E-13
 -1       974 1.95861E+01 5.93588E-01-3.96752E-05 3.98865E-01 1.21857E-13 3.31610E-13
 -1       975 1.97081E+01 4.83904E-01-3.03587E-05 3.17586E-01-8.95996E-15 3.17537E-13
 -1       976 1.97983E+01 3.88082E-01-2.30604E-05 2.48385E-01-3.64481E-15 4.05928E-13
 -1       977 1.98642E+01 3.06495E-01-1.72866E-05 1.90641E-01 4.70303E-15 1.56390E-13
 -1       978 1.99117E+01 2.38482E-01-1.27473E-05 1.43415E-01-9.56680E-14-3.55791E-14
 -1       979 1.99453E+01 1.82819E-01-9.21978E-06 1.05538E-01-1.13246E-13-2.52413E-13
 -1       980 1.99685E+01 1.38014E-01-6.50973E-06 7.57282E-02-1.14760E-13-1.43277E-13
 -1       981 1.99841E+01 1.02504E-01-4.41968E-06 5.27023E-02-1.37394E-13-2.11829E-13
 -1       982 1.99942E+01 7.47713E-02-2.44718E-06 3.52534E-02 1.96547E-13-7.97177E-14
 -1       983 2.00003E+01 5.34212E-02-1.78382E-06 2.22873E-02 1.62271E-13-1.15252E-13
 -1       984 2.00036E+01 3.71432E-02-3.38226E-06 1.28856E-02 5.47717E-14 1.83066E-13
 -1       985 2.00050E+01 2.49234E-02 1.03477E-06 6.27184E-03 1.05607E-13 2.76609E-13
 -1       986 1.96436E+01 1.23600E+00-1.85801E-04 7.08971E-01-4.77271E-14-3.18735E-13
 -1       987 1.73728E+01-5.70068E-01 1.75712E-04 3.04106E+00 1.99338E-13-2.79634E-13
 -1       988 1.74729E+01 1.14445E+00 5.18963E-05 1.26965E+00-1.15959E-13-3.35647E-13
 -1       989 1.53736E+01 9.18621E-01 1.20987E-02 1.82618E+00-7.35166E-14 1.04759E-13
 -1       990 2.19948E+01-3.36962E+00 9.07958E-03 2.98814E+00 1.82401E-13 2.42989E-14
 -1       991 1.65961E+01 1.08240E+00 3.60160E-03 1.48182E+00 3.33305E-14 4.60575E-15
 -1       992 1.89367E+01 1.03305E+00-6.27624E-05-1.57658E+00 5.60770E-14-2.99026E-13
 -1       993 2.00050E+01 1.83476E-02-8.34396E-07 2.82026E-03 1.45382E-13 4.17932E-13
 -1       994 1.80833E+01 1.14931E+00-6.16669E-04 1.03308E+00-4.56586E-14-2.88396E-13
 -1       995 1.56340E+01 3.80114E-01 1.29594E-02 2.28407E+00 1.86727E-13-3.13070E-13
 -1       996 1.92213E+01 1.82528E+00 2.14994E-04-2.85903E-01 1.35949E-13-3.81315E-13
 -1       997 1.93061E+01 2.17086E+00 1.11764E-03 2.01945E-01-1.87826E-15-4.25447E-13
 -1       998 2.00043E+01 1.50488E-02-6.86832E-06 6.50726E-04 3.19167E-13 2.31203E-15
 -1       999 1.89248E+01 9.69920E-01-1.16447E-04 7.20185E-01 1.74522E-14-7.81203E-14
 -1      1000 1.63344E+01-7.69039E-01 9.57845E-03-3.51733E+00 1.54203E-13 1.87187E-13
 -1      1001 1.72190E+01 1.07484E+00 2.02755E-03-1.63514E+00 2.61467E-14-3.30702E-13
 -1      1002 1.90699E+01 1.93712E+00-7.53467E-04-2.11132E-02 6.65671E-14-3.67029E-13
 -1      1003 2.00041E+01 2.17020E-02 2.58936E-06 2.36637E-03 3.19817E-13 1.23517E-13
 -1      1004 1.51515E+01 1.22173E+00 8.83762E-03-4.75511E-01 1.32508E-14-3.80727E-13
 -1      1005 2.00027E+01 2.84383E-02 8.05705E-09-2.94249E-03-2.36877E-13-1.26432E-13
 -1      1006 1.50813E+01 1.27942E+00 5.99184E-04 2.95697E-01 9.06165E-14 1.46087E-13
 -1      1007 2.00024E+01 2.81980E-02 1.16752E-06-1.63083E-04 5.17354E-14 1.50013E-13
 -1      1008 1.61607E+01 3.50473E-01 3.00761E-03-2.25429E+00 4.21267E-15 1.48547E-13
 -1      1009 1.90060E+01 1.45277E+00-5.21964E-04-7.89572E-01 1.33732E-13-2.80922E-13
 -1      1010 1.96943E+01 1.49358E+00 4.52618E-04 5.04236E-01-9.14796E-14-3.11549E-13
 -1      1011 1.94480E+01 1.70622E+00-2.08981E-04 4.38134E-01-7.68724E-14-3.10435E-13
 -1      1012 1.94411E+01 1.65339E+00 8.24600E-04-4.80637E-01 1.74219E-13-3.06987E-13
 -1      1013 1.92070E+01 1.90793E+00-9.09621E-04 3.04475E-01 1.84841E-14-3.57920E-13
 -1      1014 1.79484E+01 1.23782E+00-1.28157E-03-1.28472E+00 3.81895E-14-2.89260E-13
 -1      1015 1.77059E+01 1.58733E-01-2.13180E-04 2.21458E+00 1.38861E-13-2.21165E-13
 -1      1016 1.87682E+01 6.65618E-01-8.85609E-04 1.40981E+00 7.99853E-14-3.16779E-13
 -1      1017 1.83134E+01 4.30084E-01-8.78203E-04 1.75182E+00 1.30487E-13-2.49698E-13
 -1      1018 1.95331E+01 5.93241E-01-1.06698E-04 2.37107E-01 2.62440E-14 9.41258E-14
 -1      1019 1.81388E+01-2.86165E-01 2.62192E-04-2.37216E+00 8.06761E-14-6.74224E-14
 -1      1020 1.82406E+01 2.30575E-01-7.66157E-04-1.77356E+00 5.17390E-14 9.26370E-14
 -1      1021 1.84405E+01 5.33556E-01-3.79684E-04-1.32619E+00 2.98120E-15 1.06022E-13
 -1      1022 1.86699E+01 6.85849E-01-1.93070E-04-9.97182E-01 9.37463E-14 1.82592E-13
 -1      1023 1.88978E+01 7.38586E-01-1.07037E-04-7.52802E-01 1.27740E-14 6.02623E-14
 -1      1024 1.91082E+01 7.26547E-01-8.03489E-05-5.69810E-01 1.55022E-13-1.97022E-13
 -1      1025 1.92943E+01 6.74584E-01-6.77054E-05-4.31537E-01 1.40562E-13-1.79440E-13
 -1      1026 1.94534E+01 6.00743E-01-5.89722E-05-3.26297E-01 6.60108E-15 1.14943E-13
 -1      1027 1.95858E+01 5.17805E-01-5.14003E-05-2.45785E-01-7.52809E-14 3.01507E-13
 -1      1028 1.96932E+01 4.34409E-01-4.42790E-05-1.84017E-01-9.23111E-14 2.36669E-13
 -1      1029 1.97785E+01 3.56000E-01-3.75241E-05-1.36611E-01-1.95422E-13 1.33221E-13
 -1      1030 1.98446E+01 2.85653E-01-3.12289E-05-1.00301E-01-2.12094E-13 3.87121E-14
 -1      1031 1.98947E+01 2.24746E-01-2.55060E-05-7.26067E-02-3.27377E-13-2.32897E-13
 -1      1032 1.99317E+01 1.73513E-01-2.04278E-05-5.16178E-02-5.96985E-14 1.20725E-13
 -1      1033 1.99584E+01 1.31457E-01-1.60127E-05-3.58430E-02 3.15513E-13 3.94389E-13
 -1      1034 1.99769E+01 9.76667E-02-1.25770E-05-2.41083E-02 2.73427E-13 3.33106E-13
 -1      1035 1.99893E+01 7.10124E-02-9.40195E-06-1.54837E-02 1.00093E-13 2.36308E-13
 -1      1036 1.99970E+01 5.04467E-02-6.79390E-06-9.31667E-03 9.50197E-14 1.15962E-13
 -1      1037 2.00005E+01 3.84107E-02-1.80555E-06-5.73858E-03-2.75306E-13 8.22574E-14
 -1      1038 1.93584E+01 7.15973E-01-1.35769E-04 2.85897E-01-5.14884E-14-1.56892E-13
 -1      1039 1.91300E+01 8.47804E-01-1.76285E-04 3.36430E-01-1.95291E-13-5.85717E-14
 -1      1040 1.96657E+01 4.83068E-01-8.43378E-05 1.92024E-01 1.42277E-14-1.52037E-14
 -1      1041 1.97653E+01 3.86995E-01-6.64663E-05 1.51949E-01 1.60271E-13-1.06194E-13
 -1      1042 1.98392E+01 3.05211E-01-5.19602E-05 1.17503E-01 1.11104E-13 8.90929E-14
 -1      1043 1.98933E+01 2.37027E-01-4.01713E-05 8.87496E-02-1.14652E-13 2.91912E-13
 -1      1044 1.99322E+01 1.81234E-01-3.06490E-05 6.53641E-02-2.21081E-13 3.39609E-13
 -1      1045 1.99595E+01 1.36356E-01-2.30168E-05 4.67899E-02 2.02995E-14 2.38054E-13
 -1      1046 1.99782E+01 1.00833E-01-1.72187E-05 3.23578E-02 3.76368E-14 1.54220E-13
 -1      1047 1.99904E+01 7.31114E-02-9.96740E-06 2.13889E-02 4.32902E-14 2.99405E-13
 -1      1048 1.99979E+01 5.19086E-02-1.04309E-05 1.32364E-02-1.65536E-13 5.25368E-13
 -1      1049 2.00022E+01 3.57790E-02 8.00823E-06 7.43154E-03 1.03705E-13 4.42675E-13
 -1      1050 1.79427E+01 1.21932E+00-6.94186E-04 4.83374E-01-7.42017E-14-4.10890E-13
 -1      1051 2.00034E+01 2.82410E-02 2.45937E-06 4.54966E-03 1.47483E-13 3.39389E-13
 -1      1052 1.85445E+01 1.35000E+00-2.98976E-04-1.03017E+00 9.75649E-14-2.99877E-13
 -1      1053 1.99999E+01 3.85347E-02-5.58247E-06-7.69704E-04-2.01160E-14-3.80274E-13
 -1      1054 1.87714E+01 1.67094E+00 8.80710E-04-2.90893E-01 8.38721E-14-3.19434E-13
 -1      1055 1.88328E+01 9.82706E-01-2.39365E-04 3.86463E-01-1.10043E-13-5.45120E-14
 -1      1056 1.84464E+01 1.11138E+00-3.64874E-04 4.34654E-01-2.57387E-13-1.76346E-13
 -1      1057 1.83190E+01-1.17406E+00 6.22578E-03-3.15939E+00 1.42678E-13 2.74429E-14
 -1      1058 1.92403E+01 1.31712E+00-5.54388E-04 7.32247E-01-2.77389E-14-2.85318E-13
 -1      1059 2.00031E+01 2.55431E-02 3.45738E-06 1.53141E-03 2.03156E-13 2.70229E-13
 -1      1060 1.72745E+01 1.29304E+00-3.97286E-05 5.37457E-01 4.73267E-15-2.45455E-13
 -1      1061 1.90150E+01 1.00869E+00-4.48689E-04 1.03688E+00 1.22362E-14-3.31195E-13
 -1      1062 1.69836E+01 1.37477E+00-9.96440E-04-6.75027E-01 6.25638E-14-3.52045E-13
 -1      1063 1.59740E+01 1.21742E+00 1.79247E-03 4.87877E-01 6.45181E-14-2.60362E-13
 -1      1064 1.82509E+01 1.54599E+00 1.07546E-04-3.67204E-01 8.63587E-14-2.82392E-13
 -1      1065 1.60186E+01 1.01914E+00 1.03362E-03-1.16728E+00 9.42023E-14 1.47053E-13
 -1      1066 2.00011E+01 3.53932E-02 8.66491E-06 2.61894E-03 1.48304E-13 2.50302E-13
 -1      1067 1.63780E+01 1.33298E+00 1.74792E-03 4.83195E-01 1.20203E-13 1.02006E-13
 -1      1068 1.66654E+01 7.99879E-01 4.34251E-03 1.53837E+00 1.25477E-13-3.16767E-13
 -1      1069 1.91542E+01 1.52816E+00 1.06641E-04 5.64692E-01-1.71452E-14-2.66544E-13
 -1      1070 1.83771E+01 1.16001E+00 9.72515E-04 9.08361E-01 4.92787E-14-2.56793E-13
 -1      1071 1.96693E+01 4.58819E-01 5.12979E-05 8.08463E-02 9.73039E-14-3.88320E-13
 -1      1072 1.80690E+01 1.16654E+00 2.23765E-05 1.13743E-02-6.65478E-14-4.43927E-14
 -1      1073 1.95409E+01 5.63888E-01 5.79823E-05 9.43557E-02 9.39288E-14-4.71439E-13
 -1      1074 1.75668E+01 8.02876E-01 2.69886E-04-1.22477E+00 1.04630E-13 1.05219E-13
 -1      1075 1.80311E+01 9.08166E-01-2.68369E-04-8.69326E-01 1.79726E-13 1.32404E-13
 -1      1076 1.84243E+01 9.27126E-01-1.50633E-04-6.15424E-01 8.40598E-14 1.61676E-13
 -1      1077 1.87533E+01 8.88549E-01-1.11096E-04-4.35851E-01-3.68224E-14 2.93831E-13
 -1      1078 1.90263E+01 8.14344E-01-9.04742E-05-3.08846E-01 9.09063E-14 5.49042E-14
 -1      1079 1.92506E+01 7.20977E-01-7.40659E-05-2.18917E-01-9.33959E-16-4.45989E-14
 -1      1080 1.94326E+01 6.20459E-01-5.80530E-05-1.55139E-01-1.12515E-14-1.65180E-13
 -1      1081 1.95781E+01 5.21122E-01-4.29343E-05-1.09828E-01-4.61802E-17 2.86237E-14
 -1      1082 1.96927E+01 4.28342E-01-2.97041E-05-7.75733E-02-1.74435E-13 2.93200E-13
 -1      1083 1.97814E+01 3.45200E-01-1.88862E-05-5.45659E-02-1.72399E-13 1.69150E-13
 -1      1084 1.98489E+01 2.73083E-01-1.05412E-05-3.81252E-02-5.28638E-13 2.62474E-13
 -1      1085 1.98991E+01 2.12194E-01-4.45836E-06-2.63643E-02-1.74297E-13 2.62775E-13
 -1      1086 1.99357E+01 1.61969E-01-3.64380E-07-1.79531E-02 2.93132E-13 3.06420E-13
 -1      1087 1.99617E+01 1.21384E-01 1.74144E-06-1.19531E-02 2.26067E-13 1.68865E-13
 -1      1088 1.99795E+01 8.91962E-02 6.07454E-06-7.71486E-03 2.00292E-13 8.61038E-14
 -1      1089 1.99912E+01 6.40235E-02 1.97282E-05-4.70317E-03-1.75034E-13-3.28437E-14
 -1      1090 1.99965E+01 5.02022E-02 5.60603E-05-2.29565E-03-1.60074E-13-4.82484E-13
 -1      1091 1.93737E+01 6.80707E-01 6.14112E-05 1.04498E-01-7.73069E-14-3.41942E-13
 -1      1092 1.91580E+01 8.06008E-01 5.85998E-05 1.07532E-01-5.87899E-14-3.90395E-13
 -1      1093 1.97668E+01 3.67050E-01 4.33038E-05 6.64662E-02-4.85416E-14-1.02849E-13
 -1      1094 1.98397E+01 2.88864E-01 3.51996E-05 5.27499E-02-1.37363E-13 2.01627E-13
 -1      1095 1.98934E+01 2.23682E-01 2.76655E-05 4.05311E-02-7.08233E-14 2.98647E-13
 -1      1096 1.99322E+01 1.70393E-01 2.10271E-05 3.01642E-02-2.49319E-14 3.14284E-13
 -1      1097 1.99595E+01 1.27604E-01 1.55006E-05 2.16999E-02-1.06434E-14 4.12886E-13
 -1      1098 1.99782E+01 9.38283E-02 1.17067E-05 1.50159E-02 4.75018E-14 2.09435E-13
 -1      1099 1.99903E+01 6.75244E-02-1.28789E-05 9.79103E-03-7.61330E-14-1.23194E-14
 -1      1100 1.76788E+01 1.46508E+00 3.20853E-04-4.96516E-01 7.76568E-14-3.11229E-13
 -1      1101 1.70673E+01 1.23078E+00-1.70920E-03 7.13607E-01 9.29227E-14-2.08247E-13
 -1      1102 1.88811E+01 9.34360E-01 4.56215E-05 9.81862E-02-1.06466E-13-4.49549E-13
 -1      1103 1.75907E+01 8.67944E-01 2.86869E-03 1.33394E+00 1.04956E-13-2.61599E-13
 -1      1104 1.87666E+01 1.69863E+00 7.80574E-05 1.54884E-01 2.28713E-14-3.14814E-13
 -1      1105 1.74657E+01 1.25233E+00 8.27720E-04-8.67623E-02 1.77445E-13 1.86640E-13
 -1      1106 1.87877E+01 1.40211E+00 1.43153E-03 6.31032E-01-7.17655E-15-2.85468E-13
 -1      1107 1.85263E+01 1.05788E+00 2.19007E-05 6.93325E-02-1.44229E-13-4.24705E-13
 -1      1108 1.71553E+01 6.00234E-01-1.19143E-03-1.65368E+00 1.05855E-13 1.22432E-13
 -1      1109 1.99976E+01 4.68278E-02-1.78977E-05 3.17935E-03-6.67182E-14 1.32027E-13
 -1      1110 1.68374E+01 1.22619E+00-5.44653E-04-4.33313E-01 1.21716E-13 1.23472E-13
 -1      1111 1.83036E+01 1.51459E+00 9.94347E-05 2.46055E-01 7.35660E-14-2.39989E-13
 -1      1112 1.80159E+01 1.02253E+00 1.71148E-03 1.10600E+00 1.10917E-13-2.71214E-13
 -1      1113 1.77678E+01 1.36829E+00-1.49618E-04 4.32516E-01 9.19139E-14-2.16094E-13
 -1      1114 2.78736E+01 9.04743E+00 2.28432E+00-6.54478E+00-5.78426E-14 1.93820E-12
 -1      1115 2.07347E+01 6.28923E+00 2.29382E-01-3.68647E+00-3.15303E-14 2.74461E-13
 -1      1116 1.96366E+01 5.91789E+00 8.96418E-02-2.61204E+00-2.16910E-14-4.45170E-13
 -1      1117 1.91690E+01 5.77059E+00 6.63039E-02-1.93026E+00-1.56125E-14-7.81142E-13
 -1      1118 1.88900E+01 5.68384E+00 5.60569E-02-1.40080E+00-1.09704E-14-9.35140E-13
 -1      1119 1.86971E+01 5.62349E+00 4.78062E-02-9.68878E-01-6.32133E-15-1.00998E-12
 -1      1120 1.85606E+01 5.58053E+00 4.11269E-02-6.02560E-01-3.35149E-15-1.02586E-12
 -1      1121 1.84749E+01 5.55339E+00 3.64036E-02-2.77229E-01-1.28023E-15-1.03313E-12
 -1      1122 1.84434E+01 5.54333E+00 3.43640E-02 2.39882E-02 7.85830E-16-1.02301E-12
 -1      1123 1.84687E+01 5.55121E+00 3.53545E-02 3.21960E-01 3.67675E-15-1.00102E-12
 -1      1124 1.85519E+01 5.57741E+00 3.94596E-02 6.38788E-01 5.67255E-15-9.67212E-13
 -1      1125 1.86924E+01 5.62170E+00 4.65705E-02 9.94716E-01 1.02210E-14-9.02197E-13
 -1      1126 1.88943E+01 5.68496E+00 5.55571E-02 1.41846E+00 1.40374E-14-7.79176E-13
 -1      1127 1.91832E+01 5.77481E+00 6.61375E-02 1.94682E+00 1.91722E-14-5.74507E-13
 -1      1128 1.96492E+01 5.92027E+00 8.50292E-02 2.63359E+00 2.48690E-14-1.74796E-13
 -1      1129 2.06530E+01 6.24878E+00 1.76267E-01 3.64808E+00 2.79776E-14 6.10643E-13
 -1      1130 2.51766E+01 7.97517E+00 1.40717E+00 5.68592E+00 6.08402E-14 2.23616E-12
 -1      1131 2.86239E+01 3.53091E+00 1.19527E+00-4.11582E+00-2.36450E-13 2.98933E-12
 -1      1132 2.04307E+01-1.81154E-01-6.18679E-01-8.90466E-02-7.61197E-14 2.43146E-12
 -1      1133 1.93041E+01-9.78836E-02-2.33807E-01 6.72031E-02-2.36165E-14 1.67655E-12
 -1      1134 1.92063E+01-5.12771E-02-6.21894E-02 4.40292E-02-1.48085E-14 1.13990E-12
 -1      1135 1.94108E+01-2.90912E-02-2.09409E-02 3.13889E-02-1.28118E-14 7.45695E-13
 -1      1136 1.97935E+01-1.77192E-02-1.16410E-02 2.54767E-02-1.48553E-14 4.80106E-13
 -1      1137 2.02874E+01-1.00846E-02-6.88636E-03 2.26503E-02-1.08367E-14 2.82566E-13
 -1      1138 2.08433E+01-3.29244E-03-9.00132E-04 2.11289E-02-7.32782E-15 2.06998E-13
 -1      1139 2.14109E+01 4.25147E-03 7.84897E-03 1.94923E-02-4.13016E-15 6.12427E-14
 -1      1140 2.19259E+01 1.33564E-02 2.00396E-02 1.62124E-02-4.78155E-15-1.80087E-13
 -1      1141 2.23025E+01 2.38472E-02 3.52471E-02 9.52280E-03-7.55038E-15-3.04024E-13
 -1      1142 2.24358E+01 3.40286E-02 5.07643E-02-2.22989E-03 1.35031E-14-2.37224E-13
 -1      1143 2.22187E+01 4.01971E-02 6.06172E-02-1.95590E-02-1.14743E-14-4.21503E-13
 -1      1144 2.15834E+01 3.70839E-02 5.62177E-02-4.02269E-02-7.46452E-15-4.18818E-13
 -1      1145 2.05598E+01 2.01506E-02 3.02720E-02-5.79906E-02-1.43672E-14-3.89286E-13
 -1      1146 1.93265E+01-1.00612E-02-1.61688E-02-6.36307E-02-2.60688E-14-6.40113E-13
 -1      1147 1.82049E+01-4.42379E-02-6.84691E-02-4.97657E-02-2.90826E-15-7.16024E-13
 -1      1148 1.75581E+01-6.67465E-02-1.02753E-01-1.73727E-02 1.41996E-14-7.49506E-13
 -1      1149 1.76246E+01-6.55098E-02-1.00836E-01 2.21585E-02-1.75250E-14-8.37688E-13
 -1      1150 1.83907E+01-4.12811E-02-6.39165E-02 5.30069E-02 2.02234E-14-8.09595E-13
 -1      1151 1.95996E+01-7.14089E-03-1.16252E-02 6.47608E-02-3.59749E-15-6.90697E-13
 -1      1152 2.08886E+01 2.15060E-02 3.24911E-02 5.76951E-02-1.21214E-14-5.95149E-13
 -1      1153 2.19528E+01 3.65468E-02 5.54129E-02 3.97475E-02 5.95314E-15-6.36713E-13
 -1      1154 2.26343E+01 3.82437E-02 5.74608E-02 1.99764E-02-5.41902E-14-7.79703E-13
 -1      1155 2.29193E+01 3.14770E-02 4.64276E-02 4.17378E-03-2.02850E-14-6.78889E-13
 -1      1156 2.28836E+01 2.14728E-02 3.07832E-02-5.77373E-03-3.09828E-14-7.17968E-13
 -1      1157 2.26344E+01 1.18191E-02 1.61883E-02-1.05112E-02 6.88564E-14-6.58239E-13
 -1      1158 2.22718E+01 4.21098E-03 5.13627E-03-1.16305E-02-3.65136E-14-6.68771E-13
 -1      1159 2.18721E+01-9.74339E-04-2.02919E-03-1.06905E-02-1.60713E-14-6.96245E-13
 -1      1160 2.14853E+01-4.03505E-03-5.97792E-03-8.83738E-03 5.49992E-14-4.55656E-13
 -1      1161 2.11392E+01-5.49869E-03-7.64463E-03-6.77777E-03-6.19883E-14-4.34562E-13
 -1      1162 2.08460E+01-5.88704E-03-7.86951E-03-4.88218E-03 9.76346E-15-7.21549E-13
 -1      1163 2.06077E+01-5.62272E-03-7.28464E-03-3.30503E-03-1.25927E-14-9.37442E-13
 -1      1164 2.04207E+01-5.01171E-03-6.31723E-03-2.07830E-03 3.30380E-14-9.22506E-13
 -1      1165 2.02783E+01-4.25813E-03-5.23304E-03-1.17329E-03 2.71120E-14-9.78655E-13
 -1      1166 2.01732E+01-3.48819E-03-4.18394E-03-5.37107E-04 5.01758E-14-5.42290E-13
 -1      1167 2.00979E+01-2.77308E-03-3.24707E-03-1.12168E-04-4.52211E-14-6.40858E-13
 -1      1168 2.00460E+01-2.14743E-03-2.45324E-03 1.54402E-04 3.78166E-14-7.73886E-13
 -1      1169 2.00118E+01-1.62283E-03-1.80622E-03 3.07136E-04-5.15114E-14-5.60834E-13
 -1      1170 1.99907E+01-1.19725E-03-1.29513E-03 3.81538E-04 3.40490E-14-3.80277E-13
 -1      1171 1.99791E+01-8.61269E-04-9.02246E-04 4.04801E-04-8.10776E-14-5.75860E-13
 -1      1172 1.99740E+01-6.02002E-04-6.07451E-04 3.97052E-04 3.34011E-14-3.64825E-13
 -1      1173 1.99735E+01-4.05459E-04-3.90700E-04 3.72681E-04-7.06333E-14-6.69564E-13
 -1      1174 1.99759E+01-2.57774E-04-2.32955E-04 3.41488E-04-3.31174E-14-5.95345E-13
 -1      1175 1.99800E+01-1.45685E-04-1.15918E-04 3.09452E-04 8.47142E-14-3.10529E-13
 -1      1176 1.99851E+01-5.65937E-05-2.06287E-05 2.78819E-04 5.99024E-15 7.06872E-14
 -1      1177 1.99904E+01 2.13118E-05 7.41052E-05 2.46506E-04-1.02639E-14 1.19770E-13
 -1      1178 1.99952E+01 9.68208E-05 1.82277E-04 1.95546E-04 2.04500E-14 7.54029E-13
 -1      1179 1.99987E+01 1.76055E-04 2.65682E-04 8.91854E-05-5.96281E-15 5.53139E-13
 -1      1180 1.99999E+01-2.69364E-05-1.65113E-05-4.40846E-05 6.29544E-14 3.50989E-13
 -1      1181 2.75914E+01 5.15989E-01 3.15508E-01 1.93159E+00-3.86427E-14 3.58019E-12
 -1      1182 2.03068E+01-7.00233E-02-5.74169E-01 1.21936E-01 2.77972E-14 2.84534E-12
 -1      1183 1.94041E+01-4.58506E-02-1.94137E-01 1.86942E-02 2.36113E-14 2.12903E-12
 -1      1184 1.92983E+01-2.91516E-02-5.79012E-02 3.53719E-03 1.39580E-14 1.63489E-12
 -1      1185 1.95520E+01-2.27964E-02-2.65262E-02-8.05531E-04 1.55269E-14 1.30333E-12
 -1      1186 2.00408E+01-2.03905E-02-2.28630E-02-2.26244E-03 2.59168E-15 9.88824E-13
 -1      1187 2.07183E+01-1.93731E-02-2.46188E-02-3.80586E-03 4.55387E-15 8.42815E-13
 -1      1188 2.15696E+01-1.79097E-02-2.59953E-02-6.86199E-03 6.37945E-16 7.31058E-13
 -1      1189 2.25864E+01-1.37381E-02-2.38529E-02-1.26714E-02-3.32373E-15 6.67473E-13
 -1      1190 2.37436E+01-3.76367E-03-1.34923E-02-2.23898E-02 1.35575E-14 4.69430E-13
 -1      1191 2.49673E+01 1.54717E-02 1.19346E-02-3.61870E-02 1.33205E-14 4.26423E-13
 -1      1192 2.60918E+01 4.54386E-02 5.87105E-02-5.10120E-02 2.10231E-14 3.42316E-13
 -1      1193 2.68178E+01 8.01199E-02 1.23990E-01-5.73034E-02 1.74678E-14 3.21396E-13
 -1      1194 2.67218E+01 9.98758E-02 1.81649E-01-3.80472E-02-2.33442E-14 3.46119E-13
 -1      1195 2.54096E+01 7.51101E-02 1.77437E-01 2.15844E-02 8.17749E-15 2.14148E-13
 -1      1196 2.28772E+01-6.48877E-03 6.07273E-02 1.10228E-01-5.12611E-15-4.45199E-14
 -1      1197 1.98960E+01-1.02361E-01-1.40089E-01 1.74833E-01-4.41201E-14 3.39173E-14
 -1      1198 1.79059E+01-1.39234E-01-2.95732E-01 1.50462E-01 2.03622E-14-1.69982E-13
 -1      1199 1.80873E+01-8.91655E-02-2.83097E-01 3.68079E-02 1.50401E-14-4.76834E-13
 -1      1200 2.03491E+01-8.05064E-03-1.19931E-01-8.84080E-02 8.60423E-16-5.44620E-13
 -1      1201 2.34049E+01 4.51458E-02 5.78981E-02-1.47863E-01-2.10682E-14-4.20275E-13
 -1      1202 2.58715E+01 5.67370E-02 1.45306E-01-1.32380E-01-2.12478E-14-3.15192E-13
 -1      1203 2.70957E+01 4.50827E-02 1.40711E-01-7.99689E-02 2.24829E-14-5.80078E-13
 -1      1204 2.71605E+01 2.71530E-02 9.36854E-02-2.93367E-02-1.41562E-14-6.20233E-13
 -1      1205 2.64780E+01 1.20139E-02 4.43706E-02 3.89867E-03-1.54629E-15-3.86920E-13
 -1      1206 2.54580E+01 2.00342E-03 1.00694E-02 1.99386E-02 3.51686E-14-1.75776E-13
 -1      1207 2.43809E+01-3.55458E-03-8.30743E-03 2.45654E-02 2.00460E-14-3.35794E-13
 -1      1208 2.33961E+01-6.06204E-03-1.56865E-02 2.32945E-02-4.27722E-14-2.49606E-13
 -1      1209 2.25630E+01-6.75014E-03-1.70002E-02 1.96945E-02-1.12404E-14-1.94733E-13
 -1      1210 2.18911E+01-6.47338E-03-1.55466E-02 1.56402E-02 2.67028E-14-2.69822E-13
 -1      1211 2.13661E+01-5.75596E-03-1.31361E-02 1.19519E-02 3.23987E-14-5.26530E-13
 -1      1212 2.09653E+01-4.89259E-03-1.06296E-02 8.89654E-03-1.13495E-14-2.77406E-13
 -1      1213 2.06652E+01-4.03612E-03-8.37734E-03 6.48879E-03-2.77869E-14 2.72915E-14
 -1      1214 2.04443E+01-3.25781E-03-6.48396E-03 4.64699E-03-1.84049E-14 1.44096E-13
 -1      1215 2.02847E+01-2.58446E-03-4.94802E-03 3.26565E-03-3.07531E-14-1.62501E-13
 -1      1216 2.01716E+01-2.02002E-03-3.72855E-03 2.24513E-03-8.76437E-15-4.81165E-13
 -1      1217 2.00934E+01-1.55744E-03-2.77470E-03 1.50126E-03 6.28165E-15-8.30333E-13
 -1      1218 2.00409E+01-1.18510E-03-2.03768E-03 9.66504E-04-1.98584E-14-1.04857E-12
 -1      1219 2.00073E+01-8.90024E-04-1.47477E-03 5.88061E-04 4.40254E-15-9.03511E-13
 -1      1220 1.99871E+01-6.59526E-04-1.05005E-03 3.25139E-04-6.10845E-15-5.73754E-13
 -1      1221 1.99763E+01-4.81853E-04-7.33833E-04 1.46415E-04-9.33960E-14-2.26923E-13
 -1      1222 1.99721E+01-3.46400E-04-5.01678E-04 2.78710E-05 1.78474E-14-4.07313E-13
 -1      1223 1.99722E+01-2.43612E-04-3.33310E-04-4.89657E-05 3.17228E-14-1.01048E-12
 -1      1224 1.99750E+01-1.64642E-04-2.11261E-04-9.84486E-05-7.00427E-14-7.29872E-13
 -1      1225 1.99795E+01-1.00622E-04-1.18945E-04-1.31794E-04 1.68088E-14-7.87826E-13
 -1      1226 1.99847E+01-4.28343E-05-3.86866E-05-1.57427E-04 5.87975E-14-1.49233E-12
 -1      1227 1.99902E+01 1.88050E-05 4.98596E-05-1.80944E-04-5.82267E-14-1.38296E-12
 -1      1228 1.99951E+01 9.21088E-05 1.62454E-04-1.98696E-04-2.48660E-14-8.68006E-13
 -1      1229 1.99987E+01 1.50686E-04 2.48547E-04-1.69905E-04 1.25207E-13-1.02514E-12
 -1      1230 1.99999E+01-3.14257E-05-2.32223E-05 3.56039E-05-5.58239E-15-7.51817E-13
 -1      1231 1.99998E+01 8.81595E-05-2.79321E-05 2.12147E-05-8.35819E-13-6.08857E-14
 -1      1232 1.99999E+01-1.16142E-03 2.20841E-04-7.59620E-05-1.29915E-12 5.55149E-14
 -1      1233 1.99999E+01-4.52365E-03 1.14721E-04-1.78070E-04-2.28568E-13 1.74529E-13
 -1      1234 1.99998E+01-8.68696E-03-1.56637E-05-1.82166E-04 1.22333E-13-1.59573E-13
 -1      1235 1.99997E+01-1.27081E-02-9.69057E-05-1.51826E-04-1.91766E-13-1.30353E-13
 -1      1236 1.99997E+01-1.60465E-02-1.36620E-04-1.10416E-04-9.98912E-13 5.84289E-14
 -1      1237 1.99997E+01-1.84863E-02-1.49415E-04-7.16817E-05 5.40609E-14 1.81577E-13
 -1      1238 1.99997E+01-1.99525E-02-1.51388E-04-3.34638E-05 6.92201E-13 9.63041E-15
 -1      1239 1.99997E+01-2.04017E-02-1.49911E-04 2.15922E-06 6.30742E-13-1.05246E-13
 -1      1240 1.99997E+01-1.98427E-02-1.48120E-04 3.73136E-05 6.62385E-13-3.44258E-14
 -1      1241 1.99997E+01-1.82888E-02-1.43363E-04 7.41640E-05-2.54866E-13 7.27778E-14
 -1      1242 1.99997E+01-1.57989E-02-1.28785E-04 1.13115E-04-2.06181E-12-8.14017E-14
 -1      1243 1.99997E+01-1.24596E-02-9.09172E-05 1.50628E-04-1.96484E-12 1.58714E-13
 -1      1244 1.99998E+01-8.47249E-03-9.31910E-06 1.81762E-04-1.10348E-12 9.28217E-14
 -1      1245 1.99999E+01-4.32297E-03 1.39654E-04 2.07070E-04-1.03525E-12-5.69467E-14
 -1      1246 2.00000E+01-1.15959E-03 2.24629E-04 7.51617E-05-6.83801E-13-1.24076E-13
 -1      1247 1.99997E+01 8.17038E-05-3.98207E-05-1.22425E-05-2.71892E-13 4.20327E-14
 -1      1248-1.05593E+00-2.45583E+01-3.75449E+00-2.31954E+00 1.31517E-12 2.25382E-13
 -1      1249-1.98737E+00-1.63866E+01-3.22295E+00-4.38965E+00 2.06524E-12 7.30749E-13
 -1      1250-1.58954E-01-3.89221E+00-2.09986E+00-8.94016E-01 2.31015E-12 1.40610E-12
 -1      1251 8.59866E+00 6.77616E+00-5.05511E-01 7.62504E+00 2.24776E-12 2.04392E-12
 -1      1252 2.54412E+01 1.07368E+01 1.24890E+00 1.59446E+01 1.69798E-12 2.34590E-12
 -1      1253 4.63968E+01 8.22294E+00 2.96535E+00 1.78875E+01 1.08036E-12 2.55218E-12
 -1      1254 6.37505E+01 3.39615E+00 4.12783E+00 1.06931E+01 3.93505E-13 1.52045E-12
 -1      1255 6.94959E+01 1.73845E+00 4.63389E+00-2.52450E+00 1.56854E-13-2.05724E-13
 -1      1256 5.85245E+01 5.52854E+00 3.90581E+00-1.40852E+01 7.75963E-13-2.24809E-12
 -1      1257 3.76563E+01 1.01169E+01 2.48935E+00-1.78079E+01 2.05791E-12-3.58913E-12
 -1      1258 1.61387E+01 9.54566E+00 4.25851E-01-1.19395E+01 3.38418E-12-3.83027E-12
 -1      1259 2.77912E+00 1.28819E+00-1.41123E+00-2.51899E+00 3.71525E-12-2.82963E-12
 -1      1260-1.78564E+00-1.12013E+01-2.85836E+00 3.61317E+00 3.14060E-12-1.50391E-12
 -1      1261-1.64899E+00-2.17995E+01-3.63340E+00 3.71740E+00 1.54277E-12-5.28133E-13
 -1      1262-1.00308E+00-2.57805E+01-3.90869E+00-2.54748E-01-5.88071E-13-1.74770E-13
 -1      1263-1.59629E+00-1.98329E+01-3.42121E+00-3.76530E+00-2.31026E-12-6.76514E-13
 -1      1264-1.13327E+00-7.70754E+00-2.39744E+00-2.29055E+00-3.32645E-12-1.72851E-12
 -1      1265 4.54732E+00 4.31900E+00-9.03062E-01 4.60946E+00-3.63376E-12-2.86837E-12
 -1      1266 1.83870E+01 1.08182E+01 8.08435E-01 1.35402E+01-3.04778E-12-3.60867E-12
 -1      1267 3.77602E+01 1.00135E+01 2.36950E+00 1.82723E+01-1.82099E-12-3.28582E-12
 -1      1268 5.58178E+01 5.44545E+00 3.53820E+00 1.47227E+01-7.06213E-13-2.29783E-12
 -1      1269 6.61324E+01 1.93005E+00 4.15023E+00 4.09522E+00-1.57832E-13-6.35464E-13
 -1      1270 6.30880E+01 3.02042E+00 3.96636E+00-8.97382E+00-2.58231E-13 1.30818E-12
 -1      1271 4.79152E+01 7.71759E+00 3.06149E+00-1.72496E+01-1.03245E-12 2.46203E-12
 -1      1272 2.78554E+01 1.11800E+01 1.60372E+00-1.68395E+01-2.12519E-12 3.19456E-12
 -1      1273 1.06023E+01 8.67241E+00-5.16539E-02-9.39534E+00-2.79776E-12 2.71450E-12
 -1      1274 7.95666E-01-1.30071E+00-1.68246E+00-5.24238E-01-2.59370E-12 1.73550E-12
 -1      1275-1.66975E+00-1.45756E+01-2.93291E+00 3.79455E+00-1.97309E-12 7.62501E-13
 -1      1276-1.01782E+00-2.39662E+01-3.66272E+00 2.17656E+00-6.42875E-13 2.59116E-13
 -1      1277 2.23703E+01 1.84711E+00-7.15195E-01-2.67532E+00-9.02334E-14 1.57580E-12
 -1      1278 2.05900E+01 4.69676E+00-4.28576E-02-3.06280E+00-2.49870E-13-6.57252E-14
 -1      1279 2.10825E+01 4.80317E+00-1.01582E-01-3.93749E+00-3.19023E-13 3.16858E-13
 -1      1280 1.97385E+01 5.01504E+00-1.74988E-02-2.36236E+00-2.50418E-13-5.96339E-13
 -1      1281 2.00609E+01 5.11729E+00 8.65862E-03-2.77185E+00-2.82725E-13-3.68858E-13
 -1      1282 2.07777E+01 3.94497E+00-2.19120E-02-2.80435E+00-4.38028E-13-5.44426E-14
 -1      1283 1.93059E+01 5.11254E+00-4.49006E-03-1.76202E+00-2.05759E-13-8.51728E-13
 -1      1284 1.95030E+01 5.18134E+00 1.58044E-02-2.05898E+00-2.30913E-13-7.39811E-13
 -1      1285 1.99515E+01 4.38886E+00-2.18406E-02-2.18606E+00-3.92741E-13-4.92252E-13
 -1      1286 1.90207E+01 5.15939E+00 2.24787E-04-1.27012E+00-1.46199E-13-9.74961E-13
 -1      1287 1.91561E+01 5.20585E+00 1.52913E-02-1.50926E+00-1.70929E-13-9.18272E-13
 -1      1288 1.94837E+01 4.60498E+00-1.85142E-02-1.62423E+00-3.08879E-13-7.16507E-13
 -1      1289 1.88174E+01 5.18779E+00 2.04509E-03-8.65457E-01-1.01887E-13-1.02124E-12
 -1      1290 1.89146E+01 5.22051E+00 1.33451E-02-1.06236E+00-1.17104E-13-9.99102E-13
 -1      1291 1.91741E+01 4.73479E+00-1.49448E-02-1.16012E+00-2.19834E-13-8.10657E-13
 -1      1292 1.86725E+01 5.20670E+00 2.82222E-03-5.11822E-01-4.94223E-14-1.03206E-12
 -1      1293 1.87397E+01 5.22888E+00 1.07269E-02-6.84994E-01-6.80341E-14-1.02823E-12
 -1      1294 1.89524E+01 4.81985E+00-1.28511E-02-7.70407E-01-1.43240E-13-8.58178E-13
 -1      1295 1.85881E+01 5.22031E+00 3.70666E-03-1.96692E-01-3.21574E-15-1.04018E-12
 -1      1296 1.86239E+01 5.23200E+00 8.09826E-03-3.52966E-01-1.30824E-14-1.03565E-12
 -1      1297 1.88014E+01 4.87487E+00-1.16727E-02-4.29370E-01-5.25335E-14-8.66014E-13
 -1      1298 1.85671E+01 5.22994E+00 5.10965E-03 9.96306E-02 3.55809E-14-1.02899E-12
 -1      1299 1.85699E+01 5.23081E+00 5.77100E-03-4.98278E-02 2.17604E-14-1.03766E-12
 -1      1300 1.87213E+01 4.90452E+00-1.11091E-02-1.21602E-01 1.72490E-14-8.70528E-13
 -1      1301 1.86125E+01 5.23561E+00 7.20566E-03 3.97747E-01 7.91580E-14-1.00019E-12
 -1      1302 1.85808E+01 5.22526E+00 3.90509E-03 2.44588E-01 5.84318E-14-1.01577E-12
 -1      1303 1.87149E+01 4.90970E+00-1.10287E-02 1.72365E-01 7.55278E-14-8.58397E-13
 -1      1304 1.87254E+01 5.23601E+00 9.88560E-03 7.19618E-01 1.18645E-13-9.66546E-13
 -1      1305 1.86588E+01 5.21431E+00 2.50937E-03 5.51511E-01 1.06053E-13-9.89157E-13
 -1      1306 1.87854E+01 4.88887E+00-1.14486E-02 4.73030E-01 1.52422E-13-8.33354E-13
 -1      1307 1.89036E+01 5.22981E+00 1.29437E-02 1.08206E+00 1.59458E-13-8.83958E-13
 -1      1308 1.88031E+01 5.19603E+00 1.27194E-03 8.90534E-01 1.43144E-13-9.32514E-13
 -1      1309 1.89333E+01 4.83892E+00-1.23828E-02 7.99204E-01 2.14683E-13-7.86253E-13
 -1      1310 1.91603E+01 5.21404E+00 1.56045E-02 1.52401E+00 2.25396E-13-7.52974E-13
 -1      1311 1.90170E+01 5.16503E+00-7.51533E-04 1.28785E+00 1.95908E-13-8.29479E-13
 -1      1312 1.91626E+01 4.75228E+00-1.44222E-02 1.17671E+00 2.96018E-13-6.92203E-13
 -1      1313 1.95229E+01 5.18504E+00 1.60962E-02 2.07377E+00 2.79943E-13-5.18734E-13
 -1      1314 1.93178E+01 5.11251E+00-5.90514E-03 1.77549E+00 2.49870E-13-6.61138E-13
 -1      1315 1.94928E+01 4.61274E+00-1.78793E-02 1.63569E+00 3.84305E-13-5.46372E-13
 -1      1316 2.01028E+01 5.13132E+00 1.53897E-02 2.78933E+00 3.19328E-13-8.20247E-14
 -1      1317 1.97639E+01 5.01094E+00-1.83870E-02 2.38347E+00 2.85126E-13-3.46431E-13
 -1      1318 1.99820E+01 4.38193E+00-2.14982E-02 2.20284E+00 4.58116E-13-2.78354E-13
 -1      1319 2.13168E+01 4.89710E+00 1.68908E-02 3.82176E+00 2.74586E-13 7.50566E-13
 -1      1320 2.05828E+01 4.73960E+00-4.13730E-02 3.15132E+00 2.69049E-13 2.40134E-13
 -1      1321 2.08326E+01 3.91353E+00-1.75056E-02 2.88412E+00 4.79859E-13 2.16285E-13
 -1      1322 2.71509E+01 3.16333E+00 8.91557E-01 4.43193E+00 1.35378E-13 2.35606E-12
 -1      1323 2.21831E+01 3.51049E+00-1.74598E-01 3.69651E+00 1.37806E-13 1.24256E-12
 -1      1324 2.23480E+01 2.53903E+00-2.70062E-02 3.21536E+00 4.46195E-13 9.77163E-13
 -1      1325 2.15782E+01 3.48404E-01-7.56447E-01 1.07337E+00 2.45325E-13 2.26075E-12
 -1      1326 2.21930E+01 1.23993E-01-3.97572E-01-1.17087E+00-2.62054E-13 1.67080E-12
 -1      1327 2.09957E+01 2.98639E-01-1.59489E-01-7.08149E-01-2.40363E-13 1.37074E-12
 -1      1328 2.04765E+01 1.52814E-01-7.13028E-02-3.06359E-01-1.83090E-13 1.24233E-12
 -1      1329 2.01251E+01 9.19301E-02-1.28541E-02-2.35646E-01-1.78742E-13 9.70717E-13
 -1      1330 2.13273E+01 3.59999E-01-1.03455E-01-1.08557E+00-4.18103E-13 7.05925E-13
 -1      1331 1.98628E+01 6.77982E-02 3.69710E-03-3.63385E-02-1.54578E-13 8.66363E-13
 -1      1332 1.98313E+01 4.54637E-02 1.38815E-02-1.64037E-02-1.34703E-13 6.51354E-13
 -1      1333 2.04501E+01 1.35079E-01-3.61609E-02-3.13519E-01-3.25438E-13 5.01182E-13
 -1      1334 1.97781E+01 3.73781E-02 1.29451E-02 8.40828E-02-1.01091E-13 5.45161E-13
 -1      1335 1.98971E+01 2.52258E-02 1.10880E-02 9.68104E-02-1.03189E-13 3.99979E-13
 -1      1336 2.01705E+01 6.30532E-02-1.01564E-02 3.96368E-02-2.48607E-13 3.11369E-13
 -1      1337 1.99632E+01 2.28823E-02 8.03779E-03 1.54292E-01-9.01080E-14 3.51767E-13
 -1      1338 2.01644E+01 1.48850E-02 6.12749E-03 1.62624E-01-7.92400E-14 2.47257E-13
 -1      1339 2.01861E+01 3.46543E-02-5.56839E-03 2.28903E-01-1.81060E-13 1.68586E-13
 -1      1340 2.03016E+01 1.39415E-02 3.67284E-03 1.96561E-01-3.86700E-14 1.94199E-13
 -1      1341 2.05497E+01 7.23054E-03 3.04803E-03 2.01523E-01-2.94094E-14 1.34996E-13
 -1      1342 2.03842E+01 1.98437E-02-4.22824E-03 3.40141E-01-1.18402E-13 9.90995E-14
 -1      1343 2.07271E+01 6.10914E-03 1.31650E-03 2.17091E-01-2.20426E-14 1.12615E-13
 -1      1344 2.09948E+01-6.88716E-04 1.39337E-03 2.18462E-01-3.84049E-14 6.47642E-14
 -1      1345 2.06918E+01 7.93123E-03-2.70869E-03 4.01239E-01-6.29813E-14 2.19191E-14
 -1      1346 2.11870E+01-2.94930E-03 3.47877E-04 2.14500E-01-5.56361E-14 5.78235E-14
 -1      1347 2.14449E+01-1.05221E-02 5.99860E-04 2.11165E-01-5.26186E-14-2.28463E-14
 -1      1348 2.10551E+01-5.71955E-03-5.54044E-04 4.17004E-01-8.90194E-14-3.10125E-15
 -1      1349 2.16255E+01-1.46240E-02 4.12015E-04 1.83033E-01-5.30793E-14-4.32397E-14
 -1      1350 2.18368E+01-2.29760E-02 5.35062E-04 1.73288E-01-5.32096E-14-1.20968E-13
 -1      1351 2.14244E+01-2.36377E-02 2.37714E-03 3.80540E-01-9.34615E-14-3.23088E-14
 -1      1352 2.19754E+01-2.91902E-02 1.47223E-03 1.15338E-01-4.31512E-14-1.36656E-13
 -1      1353 2.20944E+01-3.73049E-02 1.25389E-03 9.74737E-02-1.22164E-14-1.61553E-13
 -1      1354 2.17448E+01-4.65019E-02 6.18391E-03 2.79394E-01-8.05155E-14-4.02768E-14
 -1      1355 2.21577E+01-4.49617E-02 3.44697E-03 6.87086E-03-5.45917E-15-2.23662E-13
 -1      1356 2.21348E+01-5.03908E-02 2.65382E-03-1.96393E-02-3.62575E-14-2.74583E-13
 -1      1357 2.19539E+01-7.19307E-02 1.06422E-02 1.02880E-01-3.61907E-14-9.86995E-14
 -1      1358 2.20907E+01-5.72802E-02 5.79563E-03-1.37149E-01-4.30532E-14-2.69127E-13
 -1      1359 2.18864E+01-5.61664E-02 4.15062E-03-1.69820E-01-2.77434E-14-3.25915E-13
 -1      1360 2.19864E+01-9.28317E-02 1.48134E-02-1.46545E-01-6.58171E-14-2.47321E-13
 -1      1361 2.17161E+01-5.84446E-02 7.29721E-03-2.93699E-01 6.10016E-15-2.93841E-13
 -1      1362 2.13235E+01-4.67512E-02 4.55517E-03-3.25243E-01-1.51068E-14-2.90757E-13
 -1      1363 2.17898E+01-9.71581E-02 1.67718E-02-4.38635E-01-2.01323E-14-2.07856E-13
 -1      1364 2.10367E+01-4.03322E-02 6.30695E-03-4.18195E-01-3.76062E-14-2.84991E-13
 -1      1365 2.05064E+01-1.67365E-02 2.52009E-03-4.36619E-01-5.60411E-14-3.54588E-13
 -1      1366 2.13507E+01-7.15595E-02 1.39605E-02-7.04521E-01-5.33592E-14-1.99996E-13
 -1      1367 2.01554E+01-5.92760E-04 1.89293E-03-4.53778E-01-8.06666E-14-3.47097E-13
 -1      1368 1.96049E+01 3.00977E-02-2.27996E-03-4.46656E-01-1.03184E-13-4.23286E-13
 -1      1369 2.07260E+01-1.07735E-02 4.57173E-03-8.43830E-01-9.19306E-14-1.78638E-13
 -1      1370 1.92835E+01 5.05758E-02-4.73195E-03-3.58669E-01-2.57693E-14-4.74901E-13
 -1      1371 1.88716E+01 7.70005E-02-8.05266E-03-3.21476E-01-1.98244E-14-4.97519E-13
 -1      1372 2.00592E+01 7.18838E-02-9.98348E-03-7.63024E-01-9.24850E-14-1.77853E-13
 -1      1373 1.86869E+01 9.11577E-02-1.02338E-02-1.40233E-01-2.58699E-14-5.62035E-13
 -1      1374 1.85525E+01 1.00925E-01-1.13816E-02-8.28838E-02-1.84592E-14-5.79969E-13
 -1      1375 1.95528E+01 1.44134E-01-2.37301E-02-4.37097E-01-4.66086E-14-2.86746E-13
 -1      1376 1.85753E+01 1.00201E-01-1.13325E-02 1.33405E-01-2.16216E-14-6.02727E-13
 -1      1377 1.87701E+01 8.82876E-02-9.78658E-03 1.89613E-01-2.57476E-14-6.16236E-13
 -1      1378 1.93897E+01 1.71035E-01-2.91041E-02 4.87119E-02-4.85480E-14-4.21319E-13
 -1      1379 1.89966E+01 7.31824E-02-7.59934E-03 3.63798E-01-2.17439E-14-6.28012E-13
 -1      1380 1.94585E+01 4.57325E-02-3.98601E-03 3.98230E-01 9.29552E-15-6.21888E-13
 -1      1381 1.96392E+01 1.38585E-01-2.27580E-02 5.25692E-01-5.87169E-14-4.04365E-13
 -1      1382 1.98124E+01 2.56432E-02-1.76465E-03 4.76379E-01 3.36185E-14-6.72459E-13
 -1      1383 2.03984E+01-4.60421E-03 2.60730E-03 4.80867E-01-1.28516E-14-6.33514E-13
 -1      1384 2.02182E+01 6.42648E-02-8.51802E-03 8.30444E-01-2.67390E-14-5.30144E-13
 -1      1385 2.07728E+01-1.93772E-02 2.76240E-03 4.56605E-01-1.81500E-14-5.78045E-13
 -1      1386 2.13278E+01-4.17042E-02 6.61855E-03 4.36998E-01 4.12474E-14-5.90441E-13
 -1      1387 2.09389E+01-1.64949E-02 5.56462E-03 8.90286E-01 3.39269E-15-6.40543E-13
 -1      1388 2.16340E+01-4.65798E-02 4.40201E-03 3.42721E-01-7.45931E-16-6.26277E-13
 -1      1389 2.20492E+01-5.70443E-02 7.21005E-03 3.11711E-01-6.50157E-14-6.75560E-13
 -1      1390 2.16042E+01-7.27304E-02 1.41108E-02 7.40826E-01-1.41146E-14-6.13312E-13
 -1      1391 2.22406E+01-5.36103E-02 3.69655E-03 1.92028E-01-1.75918E-14-6.17237E-13
 -1      1392 2.24737E+01-5.40693E-02 5.44560E-03 1.61111E-01 3.38271E-17-6.29063E-13
 -1      1393 2.20819E+01-9.38462E-02 1.61884E-02 4.78667E-01-3.37404E-16-5.88354E-13
 -1      1394 2.25448E+01-4.65047E-02 2.01231E-03 5.12031E-02 6.77418E-14-5.62845E-13
 -1      1395 2.26084E+01-4.11393E-02 2.96794E-03 2.69798E-02 5.30847E-14-4.69936E-13
 -1      1396 2.23250E+01-8.66007E-02 1.38546E-02 2.00994E-01 8.56875E-14-4.08409E-13
 -1      1397 2.25797E+01-3.31457E-02 4.64498E-04-5.50701E-02-3.80004E-14-4.06765E-13
 -1      1398 2.25150E+01-2.57602E-02 8.82000E-04-7.06804E-02 2.33975E-14-4.24671E-13
 -1      1399 2.23523E+01-6.46425E-02 9.66835E-03-2.89880E-02 4.42381E-14-2.75524E-13
 -1      1400 2.24173E+01-1.93766E-02-4.70121E-04-1.21188E-01 3.12309E-14-4.71104E-13
 -1      1401 2.22729E+01-1.23618E-02-4.02970E-04-1.29101E-01 3.51574E-14-4.96631E-13
 -1      1402 2.22164E+01-3.96751E-02 5.46080E-03-1.86482E-01 1.82853E-14-1.75912E-13
 -1      1403 2.21364E+01-8.17893E-03-7.91333E-04-1.52617E-01 5.26631E-14-6.02513E-13
 -1      1404 2.19540E+01-2.60002E-03-9.55199E-04-1.54850E-01-3.41467E-14-5.95376E-13
 -1      1405 2.19782E+01-1.84172E-02 2.11274E-03-2.73534E-01 2.55102E-14-3.90345E-13
 -1      1406 2.18030E+01-3.84335E-04-7.09349E-04-1.58860E-01-3.45718E-14-5.30371E-13
 -1      1407 2.16131E+01 3.54747E-03-1.02128E-03-1.57473E-01-3.62584E-15-4.64140E-13
 -1      1408 2.16908E+01-3.21394E-03-1.71162E-04-3.05078E-01 5.54309E-15-4.31581E-13
 -1      1409 2.14647E+01 4.32521E-03-4.46855E-04-1.49260E-01-8.23647E-15-5.37292E-13
 -1      1410 2.12865E+01 6.81431E-03-8.41416E-04-1.45909E-01 7.80225E-14-4.82816E-13
 -1      1411 2.13940E+01 6.16625E-03-1.52288E-03-2.98957E-01-3.33705E-14-3.79287E-13
 -1      1412 2.11510E+01 6.68528E-03-1.57892E-04-1.31245E-01-8.57480E-14-5.28739E-13
 -1      1413 2.09946E+01 8.07157E-03-5.81755E-04-1.27086E-01-1.34767E-13-6.61293E-13
 -1      1414 2.11138E+01 1.10013E-02-2.18135E-03-2.70786E-01-3.10756E-14-6.98301E-13
 -1      1415 2.08771E+01 7.45326E-03 7.91370E-05-1.09995E-01-3.27918E-14-6.02118E-13
 -1      1416 2.07464E+01 8.07067E-03-3.33565E-04-1.05756E-01 8.05345E-16-6.06651E-13
 -1      1417 2.08648E+01 1.27244E-02-2.37788E-03-2.32219E-01-8.56313E-14-6.70665E-13
 -1      1418 2.06485E+01 7.24873E-03 2.39440E-04-8.87620E-02-1.64701E-14-7.25639E-13
 -1      1419 2.05434E+01 7.37056E-03-1.35198E-04-8.48498E-02-4.07364E-14-7.91083E-13
 -1      1420 2.06533E+01 1.25394E-02-2.29526E-03-1.91021E-01-7.54027E-14-6.72616E-13
 -1      1421 2.04646E+01 6.52033E-03 3.27372E-04-6.93569E-02 1.16952E-14-7.43270E-13
 -1      1422 2.03827E+01 6.34914E-03 5.33913E-06-6.59643E-02 2.07038E-14-7.70184E-13
 -1      1423 2.04799E+01 1.13240E-02-2.06315E-03-1.51839E-01 8.66722E-15-5.98697E-13
 -1      1424 2.03210E+01 5.56638E-03 3.58954E-04-5.26178E-02 2.76779E-14-6.13411E-13
 -1      1425 2.02592E+01 5.24243E-03 9.43476E-05-4.98029E-02 8.46143E-14-5.31607E-13
 -1      1426 2.03420E+01 9.66066E-03-1.76693E-03-1.17092E-01 3.59448E-14-4.06242E-13
 -1      1427 2.02123E+01 4.57081E-03 3.52051E-04-3.87711E-02 6.35597E-14-4.95481E-13
 -1      1428 2.01670E+01 4.18577E-03 1.43051E-04-3.65146E-02 7.35746E-14-4.49174E-13
 -1      1429 2.02354E+01 7.90557E-03-1.45924E-03-8.77318E-02 1.37014E-13-2.77392E-13
 -1      1430 2.01322E+01 3.63741E-03 3.22004E-04-2.76911E-02 2.31333E-14-4.25458E-13
 -1      1431 2.01000E+01 3.24767E-03 1.62897E-04-2.59340E-02-3.20920E-14-5.14612E-13
 -1      1432 2.01551E+01 6.25759E-03-1.17008E-03-6.38196E-02 3.70994E-14-4.99318E-13
 -1      1433 2.00750E+01 2.81722E-03 2.80326E-04-1.90722E-02-1.12147E-14-5.12027E-13
 -1      1434 2.00531E+01 2.45471E-03 1.63610E-04-1.77393E-02-1.61131E-14-4.89847E-13
 -1      1435 2.00963E+01 4.81303E-03-9.14496E-04-4.49257E-02-5.33331E-14-2.57922E-13
 -1      1436 2.00356E+01 2.12829E-03 2.34872E-04-1.25381E-02 1.64972E-15-4.85457E-13
 -1      1437 2.00214E+01 1.80873E-03 1.52671E-04-1.15520E-02 8.50853E-14-4.08876E-13
 -1      1438 2.00546E+01 3.60518E-03-6.98110E-04-3.03894E-02-1.66408E-14-3.85291E-13
 -1      1439 2.00098E+01 1.56936E-03 1.90534E-04-7.70592E-03 8.23040E-14-4.34375E-13
 -1      1440 2.00012E+01 1.29805E-03 1.35447E-04-6.99495E-03-4.01700E-14-3.09903E-13
 -1      1441 2.00260E+01 2.63103E-03-5.20896E-04-1.94813E-02 1.76782E-14-2.32362E-13
 -1      1442 1.99939E+01 1.12867E-03 1.50017E-04-4.22241E-03-7.30709E-14-3.67202E-13
 -1      1443 1.99894E+01 9.04642E-04 1.15543E-04-3.72381E-03-3.94662E-14-5.01041E-13
 -1      1444 2.00073E+01 1.86844E-03-3.79687E-04-1.14960E-02-3.04956E-14-3.53963E-13
 -1      1445 1.99852E+01 7.89629E-04 1.14518E-04-1.78059E-03-1.77486E-14-5.33054E-13
 -1      1446 1.99835E+01 6.08257E-04 9.52076E-05-1.44212E-03-2.05233E-14-4.27687E-13
 -1      1447 1.99960E+01 1.28676E-03-2.69790E-04-5.80159E-03-4.98023E-14-3.70466E-13
 -1      1448 1.99816E+01 5.34026E-04 8.42768E-05-1.26093E-04-1.12269E-13-4.34185E-13
 -1      1449 1.99818E+01 3.88772E-04 7.57158E-05 9.39967E-05-8.15109E-14-5.00229E-13
 -1      1450 1.99900E+01 8.52883E-04-1.85961E-04-1.86173E-03-9.57587E-14-3.98136E-13
 -1      1451 1.99814E+01 3.43749E-04 5.90101E-05 9.42603E-04-3.73702E-15-2.35025E-13
 -1      1452 1.99828E+01 2.27147E-04 5.77719E-05 1.07615E-03 1.20063E-13-2.05787E-13
 -1      1453 1.99876E+01 5.34380E-04-1.22957E-04 7.58809E-04 8.53062E-15 8.80341E-15
 -1      1454 1.99834E+01 2.01344E-04 3.83980E-05 1.57648E-03 1.55807E-13-1.95510E-13
 -1      1455 1.99855E+01 1.05503E-04 4.20998E-05 1.64600E-03 1.89170E-13-6.42625E-14
 -1      1456 1.99877E+01 3.00431E-04-7.57434E-05 2.39584E-03 2.61038E-13 1.49395E-13
 -1      1457 1.99867E+01 8.97519E-05 2.28241E-05 1.87830E-03 1.36794E-13-3.51653E-14
 -1      1458 1.99891E+01 6.47816E-06 3.03770E-05 1.89720E-03 1.27176E-13 1.54924E-13
 -1      1459 1.99894E+01 1.21343E-04-3.93686E-05 3.29015E-03 2.13029E-13-4.26731E-15
 -1      1460 1.99905E+01-8.80574E-06 1.47068E-05 1.90312E-03 2.00457E-13 8.31318E-14
 -1      1461 1.99929E+01-8.79427E-05 2.64154E-05 1.87448E-03 8.45594E-14 2.28659E-13
 -1      1462 1.99919E+01-3.37554E-05-8.63827E-06 3.59080E-03 1.93668E-13 2.84666E-14
 -1      1463 1.99943E+01-1.15059E-04 1.89080E-05 1.65641E-03 1.79761E-14 3.06504E-13
 -1      1464 1.99963E+01-1.96576E-04 2.98619E-05 1.56930E-03 5.57647E-14 4.31398E-13
 -1      1465 1.99946E+01-2.01604E-04 2.06222E-05 3.35166E-03 1.27128E-13 1.91717E-16
 -1      1466 1.99975E+01-2.53470E-04 3.26916E-05 1.09284E-03-6.04327E-14 4.47601E-13
 -1      1467 1.99987E+01-2.99859E-04 3.13081E-05 9.49293E-04-1.11030E-13 3.72672E-13
 -1      1468 1.99971E+01-4.32255E-04 4.71681E-05 2.55365E-03 1.77549E-14 2.10514E-13
 -1      1469 1.99997E+01-2.10516E-04 5.75885E-05 1.01304E-04-3.08717E-13 3.46885E-13
 -1      1470 1.99992E+01-6.76206E-04 4.67146E-05 9.88042E-04-3.32020E-13 1.21660E-13
 -1      1471 2.06304E+01 7.45289E-02-1.47007E-01 3.91754E-01 2.23509E-13 1.77237E-12
 -1      1472 2.17587E+01 2.16944E-01-2.27373E-01 6.23116E-01 1.93887E-13 2.11386E-12
 -1      1473 2.19941E+01 8.58047E-01-8.89845E-02 1.87888E+00 3.81264E-13 1.37612E-12
 -1      1474 1.99409E+01 3.52987E-02-1.96510E-02 9.11480E-02 1.59300E-13 1.33710E-12
 -1      1475 2.02301E+01 1.17243E-01-5.93537E-02 1.44989E-01 1.60479E-13 1.60265E-12
 -1      1476 2.07679E+01 1.84456E-01-5.64166E-02 6.07576E-01 3.36953E-13 1.05293E-12
 -1      1477 1.98338E+01 2.09041E-02 5.14019E-03-5.88879E-02 1.12427E-13 1.02065E-12
 -1      1478 1.98250E+01 5.99614E-02 2.76621E-03-2.69106E-02 1.07143E-13 1.19191E-12
 -1      1479 2.02526E+01 7.81488E-02-1.46135E-02 1.00566E-01 2.48789E-13 7.80013E-13
 -1      1480 2.00629E+01 1.54034E-02 5.20547E-03-1.51063E-01 9.51201E-14 7.79151E-13
 -1      1481 1.98950E+01 3.87594E-02 1.19558E-02-1.27651E-01 9.10539E-14 9.38971E-13
 -1      1482 2.01932E+01 4.41446E-02-6.32826E-03-1.59054E-01 1.88408E-13 5.57505E-13
 -1      1483 2.05201E+01 1.36434E-02 2.11262E-03-2.21589E-01 5.02445E-14 6.03651E-13
 -1      1484 2.02425E+01 3.10799E-02 9.00590E-03-2.01175E-01 6.54520E-14 7.08673E-13
 -1      1485 2.04193E+01 3.19190E-02-6.89332E-03-3.29235E-01 1.43391E-13 4.34245E-13
 -1      1486 2.11597E+01 1.30390E-02-1.52921E-04-2.84117E-01 3.51854E-14 5.22310E-13
 -1      1487 2.07907E+01 2.84637E-02 5.57738E-03-2.64187E-01 2.94782E-14 5.69602E-13
 -1      1488 2.08492E+01 2.77342E-02-8.38908E-03-4.64092E-01 7.97413E-14 3.43474E-13
 -1      1489 2.19594E+01 1.19254E-02-1.45727E-03-3.42150E-01 2.49930E-14 4.44457E-13
 -1      1490 2.15065E+01 2.71154E-02 3.25773E-03-3.22034E-01 2.63687E-14 4.84765E-13
 -1      1491 2.14418E+01 2.57993E-02-9.51273E-03-5.83245E-01 5.31788E-14 2.81455E-13
 -1      1492 2.28958E+01 8.33768E-03-1.55663E-03-3.91095E-01 4.39906E-14 3.46879E-13
 -1      1493 2.23691E+01 2.37311E-02 1.66848E-03-3.72123E-01 3.09008E-14 4.17551E-13
 -1      1494 2.21703E+01 2.19685E-02-9.85444E-03-6.87994E-01 5.30825E-14 2.07206E-13
 -1      1495 2.39211E+01-4.94080E-04 7.40692E-04-4.16171E-01 3.57711E-14 2.85785E-13
 -1      1496 2.33464E+01 1.39746E-02 7.63617E-04-4.02733E-01 3.18085E-14 3.23120E-13
 -1      1497 2.30028E+01 1.11498E-02-8.37985E-03-7.62489E-01 7.49647E-14 1.71922E-13
 -1      1498 2.49345E+01-1.78873E-02 7.55882E-03-3.89130E-01 2.43278E-14 2.73576E-13
 -1      1499 2.43709E+01-7.91327E-03 1.27363E-03-3.90150E-01 2.32332E-14 2.93050E-13
 -1      1500 2.38828E+01-1.36056E-02-3.15790E-03-7.69513E-01 4.17032E-14 1.09949E-13
 -1      1501 2.57518E+01-4.56533E-02 2.08293E-02-2.68555E-01 6.34562E-15 2.21233E-13
 -1      1502 2.53109E+01-4.73164E-02 4.61811E-03-2.98004E-01 1.46445E-14 2.53707E-13
 -1      1503 2.47080E+01-5.97432E-02 8.13292E-03-6.47644E-01 3.40335E-14 1.35548E-13
 -1      1504 2.60955E+01-7.87754E-02 3.87629E-02-1.39416E-02 5.85122E-14 2.47974E-13
 -1      1505 2.59476E+01-1.02975E-01 1.17688E-02-8.68748E-02 1.64955E-14 2.49314E-13
 -1      1506 2.53144E+01-1.28366E-01 2.62368E-02-3.22351E-01-5.48693E-15 1.66325E-13
 -1      1507 2.56529E+01-9.78261E-02 5.01617E-02 3.72602E-01 1.36453E-14 2.56815E-13
 -1      1508 2.59892E+01-1.55383E-01 2.03362E-02 2.53590E-01-2.25688E-15 2.49675E-13
 -1      1509 2.54841E+01-2.00306E-01 4.57489E-02 2.47527E-01 1.20494E-14 2.50212E-13
 -1      1510 2.42593E+01-7.05676E-02 3.41498E-02 7.80465E-01 9.51877E-14 1.21458E-13
 -1      1511 2.51731E+01-1.60168E-01 2.10557E-02 6.47718E-01 6.75328E-14 2.17104E-13
 -1      1512 2.50150E+01-2.19744E-01 5.25165E-02 9.75549E-01 7.65950E-14 1.64018E-13
 -1      1513 2.21802E+01 2.00201E-02-2.36584E-02 9.69604E-01-1.00328E-14 2.55074E-14
 -1      1514 2.34926E+01-7.08686E-02 1.37894E-03 8.96893E-01 4.00075E-14 4.14668E-14
 -1      1515 2.38834E+01-1.15182E-01 2.81074E-02 1.55606E+00 9.93485E-14 9.00530E-14
 -1      1516 2.02621E+01 1.32560E-01-9.59097E-02 6.97945E-01 2.89543E-14-6.61693E-14
 -1      1517 2.14388E+01 9.99514E-02-3.81259E-02 7.60856E-01 9.02403E-15-4.56579E-14
 -1      1518 2.24378E+01 1.32719E-01-2.26129E-02 1.54346E+00 2.16042E-14-3.14818E-14
 -1      1519 1.95660E+01 1.75087E-01-1.25173E-01 7.52855E-03 1.39434E-13-3.29744E-13
 -1      1520 1.99677E+01 2.41526E-01-7.05202E-02 1.93891E-01 1.09326E-13-1.77552E-13
 -1      1521 2.13949E+01 3.82252E-01-6.75260E-02 7.11401E-01 1.92513E-13-3.13364E-13
 -1      1522 2.05563E+01 1.05411E-01-7.74028E-02-6.99814E-01-2.65638E-14-5.21611E-13
 -1      1523 1.99244E+01 2.38421E-01-6.45918E-02-5.04461E-01 6.73663E-14-4.21618E-13
 -1      1524 2.13962E+01 4.23256E-01-7.15593E-02-5.63127E-01 1.76283E-13-4.22631E-13
 -1      1525 2.26494E+01-8.58858E-03 7.89719E-03-9.96754E-01-6.53024E-14-4.49404E-13
 -1      1526 2.13498E+01 1.02502E-01-2.12572E-02-9.05333E-01-6.53280E-14-5.02140E-13
 -1      1527 2.24499E+01 1.98419E-01-4.15836E-02-1.50662E+00-2.02893E-14-4.84342E-13
 -1      1528 2.47557E+01-8.21016E-02 6.49463E-02-8.23728E-01-7.33372E-14-3.58075E-13
 -1      1529 2.34479E+01-4.54682E-02 2.46614E-02-8.50346E-01-4.21711E-14-4.15001E-13
 -1      1530 2.39340E+01-8.92295E-02-5.90101E-03-1.65083E+00-1.02670E-13-3.92977E-13
 -1      1531 2.60921E+01-9.27456E-02 6.99317E-02-4.17574E-01 4.65496E-14-3.52503E-13
 -1      1532 2.52493E+01-1.19240E-01 4.26285E-02-5.03793E-01 1.97620E-14-3.28015E-13
 -1      1533 2.51412E+01-2.47144E-01 1.24070E-02-1.14252E+00 1.08143E-14-3.65430E-13
 -1      1534 2.64792E+01-6.66530E-02 4.71394E-02-2.89329E-02 3.91831E-14-4.97819E-13
 -1      1535 2.62113E+01-1.17972E-01 3.43726E-02-1.14810E-01 1.24692E-14-4.11230E-13
 -1      1536 2.57121E+01-2.44534E-01 1.57709E-02-4.21828E-01 8.62192E-14-2.95764E-13
 -1      1537 2.61308E+01-3.44068E-02 2.05385E-02 2.26642E-01-6.32827E-14-4.57653E-13
 -1      1538 2.63068E+01-8.10004E-02 1.77499E-02 1.67983E-01-2.79117E-15-4.82820E-13
 -1      1539 2.56532E+01-1.62959E-01 1.23470E-02 1.74598E-01-1.74184E-14-3.60331E-13
 -1      1540 2.53673E+01-1.01440E-02 2.18715E-03 3.45869E-01-5.78895E-14-2.66894E-13
 -1      1541 2.57907E+01-4.11037E-02 3.79200E-03 3.16037E-01-9.71688E-14-4.17912E-13
 -1      1542 2.51545E+01-7.62073E-02 7.35078E-03 5.30918E-01-8.43492E-14-3.37834E-13
 -1      1543 2.44530E+01 3.84100E-03-6.73473E-03 3.69841E-01-3.35809E-14-1.40988E-13
 -1      1544 2.49637E+01-1.19886E-02-3.73070E-03 3.60505E-01-1.56275E-14-1.30722E-13
 -1      1545 2.44314E+01-1.51959E-02 3.52172E-03 6.74248E-01-9.58433E-14-1.38995E-13
 -1      1546 2.35545E+01 1.01072E-02-9.38195E-03 3.41660E-01-7.00000E-14-3.84172E-14
 -1      1547 2.40536E+01 4.90393E-03-6.08208E-03 3.43924E-01-2.16932E-14-6.28872E-14
 -1      1548 2.36490E+01 1.79323E-02 1.23765E-03 6.78169E-01-5.78601E-14 8.54742E-14
 -1      1549 2.27555E+01 1.18074E-02-8.92680E-03 2.91651E-01 2.28706E-14-2.34431E-14
 -1      1550 2.31952E+01 1.27584E-02-5.69407E-03 2.99217E-01 3.25217E-15-4.35017E-14
 -1      1551 2.29082E+01 3.14227E-02 4.78535E-05 6.09581E-01-1.93847E-14 1.29122E-13
 -1      1552 2.20860E+01 1.12297E-02-7.36046E-03 2.37201E-01-7.48616E-14-2.24265E-14
 -1      1553 2.24505E+01 1.51498E-02-4.34671E-03 2.46395E-01-4.28936E-14-4.88099E-14
 -1      1554 2.22585E+01 3.38016E-02-5.13299E-04 5.13358E-01-2.94010E-14 1.94606E-13
 -1      1555 2.15466E+01 9.72785E-03-5.65165E-03 1.86763E-01 9.22476E-14-1.40575E-13
 -1      1556 2.18372E+01 1.46925E-02-2.95018E-03 1.95722E-01 4.55341E-14-3.14141E-14
 -1      1557 2.17160E+01 3.09254E-02-7.48394E-04 4.14620E-01 1.10918E-14 1.47171E-13
 -1      1558 2.11237E+01 8.00415E-03-4.16951E-03 1.43597E-01-1.17414E-13-2.06625E-13
 -1      1559 2.13491E+01 1.29838E-02-1.83316E-03 1.51523E-01 2.96907E-14-2.26188E-13
 -1      1560 2.12783E+01 2.61368E-02-8.19223E-04 3.25259E-01 7.52458E-14 4.70110E-15
 -1      1561 2.07993E+01 6.37984E-03-2.99980E-03 1.08301E-01-5.04167E-14-2.84803E-14
 -1      1562 2.09705E+01 1.08929E-02-1.04171E-03 1.14954E-01-8.98301E-14-2.12240E-13
 -1      1563 2.09339E+01 2.11072E-02-8.05685E-04 2.49567E-01-1.51974E-13 4.20931E-15
 -1      1564 2.05550E+01 4.97582E-03-2.11841E-03 8.02707E-02 2.36273E-14-3.46554E-15
 -1      1565 2.06826E+01 8.84545E-03-5.20228E-04 8.56776E-02-2.69127E-14-1.16189E-13
 -1      1566 2.06683E+01 1.65583E-02-7.48068E-04 1.87960E-01-8.82584E-15 4.97216E-14
 -1      1567 2.03741E+01 3.81690E-03-1.47052E-03 5.84641E-02 7.14123E-14-8.63230E-14
 -1      1568 2.04676E+01 7.02243E-03-1.94672E-04 6.27625E-02 6.81645E-14-6.89954E-15
 -1      1569 2.04672E+01 1.27264E-02-6.68638E-04 1.39132E-01 6.38161E-14-1.01201E-13
 -1      1570 2.02425E+01 2.88647E-03-1.00131E-03 4.17730E-02 3.88431E-14-1.96822E-13
 -1      1571 2.03098E+01 5.47963E-03-1.89420E-06 4.51336E-02 6.41288E-14-7.56467E-14
 -1      1572 2.03175E+01 9.62399E-03-5.80856E-04 1.01178E-01 7.49431E-14-1.12296E-13
 -1      1573 2.01487E+01 2.15337E-03-6.65243E-04 2.91787E-02 6.99511E-15-4.02714E-13
 -1      1574 2.01960E+01 4.21374E-03 1.04534E-04 3.17693E-02 3.87157E-14-3.02189E-13
 -1      1575 2.02080E+01 7.17322E-03-4.93163E-04 7.21391E-02 1.75859E-13-1.21405E-13
 -1      1576 2.00833E+01 1.58400E-03-4.27138E-04 1.98065E-02 1.11918E-13-7.64525E-13
 -1      1577 2.01158E+01 3.19678E-03 1.56463E-04 2.17779E-02 1.36089E-13-4.78820E-13
 -1      1578 2.01295E+01 5.27015E-03-4.10739E-04 5.02369E-02 2.11058E-13-2.60058E-13
 -1      1579 2.00392E+01 1.14734E-03-2.60639E-04 1.29325E-02-8.49248E-14-7.80939E-13
 -1      1580 2.00608E+01 2.39296E-03 1.74968E-04 1.44137E-02-4.92696E-14-8.76227E-13
 -1      1581 2.00745E+01 3.81243E-03-3.36507E-04 3.39479E-02 1.16379E-13-4.49459E-13
 -1      1582 2.00107E+01 8.16584E-04-1.46233E-04 7.97087E-03-5.28362E-14-6.69882E-13
 -1      1583 2.00242E+01 1.76643E-03 1.73717E-04 9.06912E-03-9.12167E-14-7.73608E-13
 -1      1584 2.00371E+01 2.70962E-03-2.71824E-04 2.20117E-02-6.76009E-14-7.26388E-13
 -1      1585 1.99933E+01 5.69244E-04-6.95145E-05 4.45458E-03-1.44566E-13-3.02246E-13
 -1      1586 2.00012E+01 1.28453E-03 1.61448E-04 5.25772E-03-1.38541E-13-4.01107E-13
 -1      1587 2.00127E+01 1.88572E-03-2.16985E-04 1.34071E-02-2.24343E-13-3.84961E-13
 -1      1588 1.99839E+01 3.86752E-04-1.98366E-05 2.01659E-03-2.52886E-15-1.14378E-13
 -1      1589 1.99878E+01 9.18702E-04 1.43662E-04 2.59531E-03-2.93800E-14-1.88906E-13
 -1      1590 1.99977E+01 1.27841E-03-1.71585E-04 7.31999E-03-1.75880E-13 2.71139E-14
 -1      1591 1.99799E+01 2.53823E-04 1.06927E-05 3.72426E-04 2.65266E-13-3.63687E-13
 -1      1592 1.99812E+01 6.44521E-04 1.23736E-04 7.82780E-04 1.47501E-13-1.01029E-13
 -1      1593 1.99893E+01 8.37147E-04-1.34775E-04 3.11084E-03 1.78638E-13-7.27230E-14
 -1      1594 1.99796E+01 1.57797E-04 2.79857E-05-6.94220E-04-2.24257E-13-4.74829E-13
 -1      1595 1.99791E+01 4.41157E-04 1.03650E-04-4.08723E-04 1.16929E-14-3.93705E-13
 -1      1596 1.99857E+01 5.21017E-04-1.05411E-04 2.85281E-04 1.78721E-13-6.21070E-14
 -1      1597 1.99817E+01 8.78883E-05 3.67451E-05-1.34274E-03 1.92277E-13-4.51936E-13
 -1      1598 1.99801E+01 2.90567E-04 8.45253E-05-1.14955E-03-7.09605E-15-4.61033E-13
 -1      1599 1.99851E+01 2.96589E-04-8.20632E-05-1.52995E-03-6.77298E-14-7.65528E-14
 -1      1600 1.99852E+01 3.41405E-05 4.16157E-05-1.68316E-03 1.42629E-13-8.75582E-13
 -1      1601 1.99829E+01 1.76181E-04 6.72750E-05-1.56003E-03 1.91286E-13-6.73999E-13
 -1      1602 1.99866E+01 1.35597E-04-6.26628E-05-2.60543E-03 3.20733E-13-4.26818E-13
 -1      1603 1.99893E+01-1.25631E-05 4.81842E-05-1.77956E-03-5.56270E-14-9.35654E-13
 -1      1604 1.99868E+01 8.18679E-05 5.35058E-05-1.71470E-03 6.25397E-14-8.66674E-13
 -1      1605 1.99892E+01 1.21858E-05-4.39022E-05-3.12012E-03 1.43533E-13-5.59734E-13
 -1      1606 1.99934E+01-6.24790E-05 6.23235E-05-1.65316E-03-1.96860E-13-7.52831E-13
 -1      1607 1.99909E+01-9.12213E-06 4.60267E-05-1.64616E-03-1.36372E-13-1.03932E-12
 -1      1608 1.99923E+01-9.84110E-05-2.11706E-05-3.16916E-03-1.34045E-13-5.00839E-13
 -1      1609 1.99969E+01-1.28516E-04 8.11300E-05-1.27367E-03 5.18803E-14-6.98026E-13
 -1      1610 1.99949E+01-1.18548E-04 4.68520E-05-1.34372E-03-8.50975E-14-7.48287E-13
 -1      1611 1.99953E+01-2.26446E-04 9.58367E-06-2.76479E-03-1.26292E-13-6.14334E-13
 -1      1612 1.99991E+01-2.23864E-04 4.32033E-05-6.18030E-04 3.28884E-14-7.84261E-13
 -1      1613 1.99979E+01-2.48842E-04 4.76789E-05-7.68268E-04 3.07705E-14-6.73252E-13
 -1      1614 1.99978E+01-4.13887E-04 4.07930E-05-1.85505E-03-8.41544E-15-6.13841E-13
 -1      1615 1.99996E+01-2.41855E-04 4.34977E-05-1.31981E-04-3.75319E-13-3.42047E-13
 -1      1616 1.99996E+01-2.36996E-03 3.35947E-05-1.11088E-03-5.35011E-13 1.72500E-13
 -1      1617 1.99995E+01-1.19671E-03 1.36972E-05-9.34717E-04-6.52227E-13 5.88623E-15
 -1      1618 1.99997E+01-5.30359E-03 2.80605E-06-1.52929E-03-2.83783E-14 2.72643E-13
 -1      1619 1.99997E+01-3.50127E-03 1.97739E-05-1.47944E-03-4.48533E-13 3.13761E-13
 -1      1620 1.99994E+01-2.83491E-03 3.30737E-05-2.46766E-03-9.50833E-14 5.19520E-13
 -1      1621 1.99999E+01-8.52826E-03-1.28246E-05-1.58909E-03-2.09173E-13-3.05790E-13
 -1      1622 1.99998E+01-6.58608E-03 3.10614E-06-1.60603E-03-4.88517E-14 7.89229E-14
 -1      1623 1.99997E+01-5.20712E-03 5.27873E-06-2.98854E-03-1.10054E-13 1.09283E-13
 -1      1624 1.99999E+01-1.15336E-02-1.59215E-05-1.40972E-03-2.95669E-13-8.51525E-14
 -1      1625 1.99999E+01-9.77441E-03-4.92174E-06-1.46382E-03-1.03156E-13-1.24258E-13
 -1      1626 1.99999E+01-7.67878E-03-1.83174E-05-2.91769E-03-2.48237E-13-1.92276E-13
 -1      1627 1.99999E+01-1.39514E-02-1.35560E-05-1.10188E-03-4.74394E-13 8.29304E-14
 -1      1628 1.99999E+01-1.25747E-02-5.12316E-06-1.17108E-03-3.95347E-13-5.53974E-14
 -1      1629 2.00000E+01-9.90593E-03-3.24666E-05-2.47232E-03-3.03119E-13-3.19814E-13
 -1      1630 1.99999E+01-1.56904E-02-9.38481E-06-7.27932E-04 1.91704E-13 4.78937E-13
 -1      1631 1.99999E+01-1.47424E-02-4.20973E-06-8.04229E-04-3.81685E-13 4.18870E-13
 -1      1632 2.00000E+01-1.16811E-02-3.70119E-05-1.82911E-03-1.36799E-13 3.11028E-13
 -1      1633 1.99999E+01-1.66276E-02-5.60285E-06-3.34673E-04 2.93028E-13-2.65924E-14
 -1      1634 1.99999E+01-1.61643E-02-2.99317E-06-4.11075E-04 2.16194E-13 2.17190E-13
 -1      1635 2.00001E+01-1.28999E-02-3.80755E-05-1.09455E-03-1.50561E-13 4.12020E-13
 -1      1636 1.99999E+01-1.67470E-02-3.28780E-06 5.97608E-05 3.96536E-13-1.61635E-14
 -1      1637 1.99999E+01-1.67730E-02-3.36827E-06-1.56121E-05 3.24641E-13 5.47060E-14
 -1      1638 2.00001E+01-1.34954E-02-3.75872E-05-3.36831E-04 2.22179E-14 3.76238E-14
 -1      1639 1.99999E+01-1.60535E-02-2.65799E-06 4.49964E-04 2.31321E-14-2.92763E-13
 -1      1640 1.99999E+01-1.65638E-02-5.49597E-06 3.75349E-04 3.68787E-13-1.17474E-13
 -1      1641 2.00001E+01-1.34577E-02-3.71134E-05 4.18563E-04 1.78310E-13-8.25517E-14
 -1      1642 1.99999E+01-1.45686E-02-3.54380E-06 8.30217E-04-5.58791E-13-1.92486E-13
 -1      1643 1.99999E+01-1.55489E-02-9.31749E-06 7.57224E-04-1.52785E-13-2.24281E-13
 -1      1644 2.00000E+01-1.27938E-02-3.66877E-05 1.16050E-03-2.21749E-13-4.49289E-13
 -1      1645 1.99999E+01-1.23901E-02-5.16572E-06 1.17594E-03-1.08957E-12-6.15583E-14
 -1      1646 1.99999E+01-1.37773E-02-1.34116E-05 1.11093E-03-7.06575E-13-3.63628E-13
 -1      1647 2.00000E+01-1.15397E-02-3.51475E-05 1.86171E-03-4.25780E-13-5.60724E-13
 -1      1648 1.99999E+01-9.57433E-03-4.48071E-06 1.45509E-03-8.68403E-13 2.35382E-13
 -1      1649 1.99999E+01-1.13272E-02-1.59617E-05 1.40445E-03-1.23413E-12 3.80167E-13
 -1      1650 2.00000E+01-9.74582E-03-2.98292E-05 2.47252E-03-2.77877E-13 7.00781E-15
 -1      1651 1.99998E+01-6.42927E-03 9.51849E-07 1.58959E-03-7.57099E-13 2.52173E-13
 -1      1652 1.99998E+01-8.34131E-03-1.27712E-05 1.56994E-03-1.02332E-12 3.32316E-13
 -1      1653 1.99999E+01-7.51199E-03-1.67575E-05 2.89046E-03-5.25034E-13 3.41921E-13
 -1      1654 1.99997E+01-3.45263E-03 1.72577E-06 1.44212E-03-7.44971E-13-1.33217E-13
 -1      1655 1.99997E+01-5.17394E-03-3.34538E-07 1.48962E-03-6.34238E-13-3.46969E-14
 -1      1656 1.99997E+01-5.06183E-03 4.39916E-06 2.93922E-03-4.24316E-13 7.58405E-14
 -1      1657 1.99994E+01-1.40305E-03-1.47146E-05 1.26466E-03-3.89553E-13 1.08543E-13
 -1      1658 1.99995E+01-2.53548E-03-1.35769E-06 1.52115E-03-5.64118E-13 5.90075E-14
 -1      1659 1.99994E+01-2.85397E-03 6.12325E-05 2.76615E-03-3.44433E-13 2.63162E-14
 -1      1660 1.99986E+01-1.27516E-03 2.42644E-05 2.38166E-03-8.98428E-14 1.48376E-13
 -1      1661-7.66640E-01-1.53697E+01-1.76696E+00-1.34207E+00 9.15046E-13 3.60850E-13
 -1      1662-6.77292E-01-1.72177E+01-1.92393E+00 6.35627E-02 3.24879E-13 4.12392E-13
 -1      1663 1.18151E+00-8.87334E+00-1.26536E+00 1.99054E-01 1.23790E-12 7.38937E-13
 -1      1664 5.07641E-01-1.36990E+01-1.72689E+00-2.64310E-01 1.01785E-12 4.30628E-13
 -1      1665 6.45885E+00-1.42318E+00-6.70462E-01 4.01187E+00 1.45661E-12 1.01741E-12
 -1      1666 3.55706E+00-6.97773E+00-1.39424E+00 1.26580E+00 1.37490E-12 7.44460E-13
 -1      1667 1.78750E+01 3.63878E+00 1.55525E-01 9.06695E+00 1.26599E-12 1.32827E-12
 -1      1668 1.13377E+01-2.76657E-02-7.36122E-01 5.37293E+00 1.35492E-12 1.10090E-12
 -1      1669 3.17364E+01 6.31702E+00 1.01370E+00 1.24731E+01 1.07392E-12 1.71996E-12
 -1      1670 2.23867E+01 5.59956E+00 4.76057E-02 1.01716E+01 1.27565E-12 1.59672E-12
 -1      1671 4.61929E+01 5.07348E+00 1.65257E+00 1.08677E+01 7.95225E-13 1.58029E-12
 -1      1672 3.70438E+01 6.45260E+00 9.02298E-01 1.20579E+01 9.89098E-13 1.77969E-12
 -1      1673 5.55141E+01 3.63085E+00 2.01345E+00 3.94440E+00 4.76591E-13 5.89029E-13
 -1      1674 4.99723E+01 5.01413E+00 1.61624E+00 8.77971E+00 7.31359E-13 1.23013E-12
 -1      1675 5.54078E+01 3.91588E+00 1.86657E+00-4.47272E+00 6.27443E-13-4.94660E-13
 -1      1676 5.68385E+01 3.60569E+00 2.04760E+00 1.38188E+00 4.98601E-13 2.90462E-13
 -1      1677 4.37903E+01 5.62465E+00 1.03181E+00-9.09353E+00 1.11039E-12-1.41565E-12
 -1      1678 5.11762E+01 4.19272E+00 1.60434E+00-5.54271E+00 7.59864E-13-6.98663E-13
 -1      1679 2.98535E+01 5.72561E+00 3.17361E-01-1.05266E+01 1.81299E-12-2.17604E-12
 -1      1680 3.98615E+01 5.02600E+00 1.12353E+00-1.08370E+01 1.32327E-12-1.74971E-12
 -1      1681 1.63582E+01 2.37484E+00-4.30926E-01-7.35251E+00 2.24687E-12-2.19291E-12
 -1      1682 2.46915E+01 4.68049E+00 4.80263E-01-1.06592E+01 1.92824E-12-2.31926E-12
 -1      1683 6.93312E+00-4.09498E+00-1.07921E+00-3.16764E+00 2.11220E-12-1.67866E-12
 -1      1684 1.15116E+01 8.04603E-01-2.90705E-01-6.56623E+00 2.27995E-12-2.20568E-12
 -1      1685 1.54475E+00-1.09140E+01-1.59590E+00-1.47657E-01 1.65956E-12-1.06207E-12
 -1      1686 2.86970E+00-5.64001E+00-1.03532E+00-1.52523E+00 2.18736E-12-1.55959E-12
 -1      1687-1.84847E-01-1.56122E+01-1.72447E+00-4.01861E-02 4.14835E-13-6.97831E-13
 -1      1688-1.31174E-02-1.21750E+01-1.43906E+00 5.95632E-01 1.33615E-12-9.88196E-13
 -1      1689-7.60898E-01-1.62000E+01-1.75100E+00-6.94046E-01-7.85289E-13-5.49172E-13
 -1      1690-7.90070E-01-1.66453E+01-1.79378E+00 9.25464E-01 1.11106E-13-5.20833E-13
 -1      1691 3.35535E-01-1.09156E+01-1.34762E+00-1.41443E-01-1.72007E-12-9.11854E-13
 -1      1692 3.60752E-02-1.51364E+01-1.73744E+00 1.78310E-01-1.09746E-12-6.13981E-13
 -1      1693 4.43535E+00-3.56023E+00-7.73120E-01 2.90992E+00-2.31326E-12-1.57990E-12
 -1      1694 2.52900E+00-9.11983E+00-1.40034E+00 9.90533E-01-1.92646E-12-1.10018E-12
 -1      1695 1.21701E+01 3.31763E+00-9.00411E-02 7.63963E+00-2.43672E-12-2.23344E-12
 -1      1696 7.27156E+00-1.24320E+00-9.19824E-01 4.01848E+00-2.47269E-12-1.81866E-12
 -1      1697 2.59329E+01 6.01931E+00 7.03782E-01 1.17164E+01-1.88449E-12-2.34568E-12
 -1      1698 1.75777E+01 4.31161E+00-1.75551E-01 8.66111E+00-2.25009E-12-2.25997E-12
 -1      1699 3.97984E+01 6.07010E+00 1.36402E+00 1.23156E+01-1.29674E-12-1.98264E-12
 -1      1700 3.08511E+01 7.01916E+00 6.17518E-01 1.21952E+01-1.77292E-12-2.31970E-12
 -1      1701 5.05936E+01 4.22108E+00 1.69187E+00 7.53436E+00-6.63719E-13-1.13165E-12
 -1      1702 4.38920E+01 5.83145E+00 1.24087E+00 1.07885E+01-1.04068E-12-1.70408E-12
 -1      1703 5.45392E+01 3.52780E+00 1.74376E+00-2.00447E-01-4.98990E-13 5.98167E-14
 -1      1704 5.27934E+01 4.08514E+00 1.65844E+00 5.23573E+00-5.95746E-13-7.79377E-13
 -1      1705 4.92752E+01 4.81958E+00 1.43406E+00-7.79052E+00-6.12010E-13 1.10756E-12
 -1      1706 5.36531E+01 3.65762E+00 1.73366E+00-2.79938E+00-4.57939E-13 4.41536E-13
 -1      1707 3.78463E+01 6.57278E+00 9.44714E-01-1.19272E+01-1.14431E-12 1.69420E-12
 -1      1708 4.61539E+01 4.94710E+00 1.51817E+00-1.00992E+01-7.66318E-13 1.32627E-12
 -1      1709 2.38586E+01 6.54582E+00 2.36413E-01-1.10657E+01-1.71496E-12 2.00240E-12
 -1      1710 3.28647E+01 6.60182E+00 1.04608E+00-1.27807E+01-1.37701E-12 1.96754E-12
 -1      1711 1.19379E+01 2.10917E+00-5.66944E-01-6.46558E+00-1.86007E-12 1.67311E-12
 -1      1712 1.88574E+01 5.29461E+00 3.25286E-01-1.01850E+01-1.79745E-12 1.95743E-12
 -1      1713 3.97906E+00-5.30507E+00-1.25747E+00-1.87144E+00-1.58362E-12 1.10700E-12
 -1      1714 7.34817E+00 4.29540E-01-4.63781E-01-4.99688E+00-1.84919E-12 1.62670E-12
 -1      1715 8.24821E-01-1.28839E+01-1.61879E+00-1.97219E-01-9.27924E-13 6.09551E-13
 -1      1716 1.67721E+00-7.56685E+00-1.10483E+00-9.32161E-01-1.39400E-12 8.62754E-13
 -1      1717-6.16912E-01-1.70957E+01-1.91300E+00-4.05474E-01 4.03844E-14 4.52194E-13
 -1      1718-6.41791E-01-1.47915E+01-1.69194E+00 9.27618E-01-7.70661E-13 5.09454E-13
 -1      1719 2.46803E+01-2.36563E-01 1.25930E-01 6.81254E+00 6.87894E-13 8.67972E-13
 -1      1720 1.45365E+01-4.12696E+00-3.57377E-01 6.14925E+00 6.22169E-13 6.72962E-13
 -1      1721 1.99994E+01-5.39829E-04 6.31061E-05-6.32770E-04-5.79832E-13-2.94663E-13
 -1      1722 1.99990E+01-1.13839E-03 3.39167E-05-1.61289E-03-2.31453E-13-3.04942E-13
 -1      1723 3.26449E-01-1.04999E+01-1.19466E+00 2.02946E+00 2.68952E-13 5.74041E-13
 -1      1724 5.62233E+00-7.66291E+00-8.76982E-01 4.26685E+00 5.53557E-13 4.89504E-13
 -1      1725-1.41962E+00-1.19588E+01-1.38043E+00-3.20206E-01-2.46886E-14 8.44991E-13
 -1      1726 3.51991E+01 3.82747E+00 8.64320E-01 6.86674E+00 7.25142E-13 1.21858E-12
 -1      1727 4.38752E+01 6.13472E+00 1.38761E+00 4.56988E+00 8.22120E-13 7.70828E-13
 -1      1728 4.83612E+01 7.30911E+00 1.66244E+00 1.11026E+00 8.65585E-13 2.13662E-13
 -1      1729 4.53437E+01 7.15633E+00 1.28774E+00-1.50998E+00 1.07603E-12-1.58373E-13
 -1      1730 3.92363E+01 4.92497E+00 9.73396E-01-3.66132E+00 1.16124E-12-4.10783E-13
 -1      1731 3.05954E+01 1.09165E+00 4.95691E-01-5.87711E+00 1.19749E-12-9.56235E-13
 -1      1732 1.98923E+01-2.94503E+00-8.86977E-02-6.55683E+00 1.06992E-12-1.21159E-12
 -1      1733 9.66319E+00-6.23195E+00-6.05014E-01-5.55831E+00 1.01374E-12-1.35045E-12
 -1      1734 2.42750E+00-9.15883E+00-1.03400E+00-3.25918E+00 6.30163E-13-1.23457E-12
 -1      1735-9.04896E-01-1.08460E+01-1.20104E+00-9.44008E-01 1.23485E-13-1.11167E-12
 -1      1736-5.99817E-01-1.07885E+01-1.20512E+00 1.68178E+00-4.41480E-13-9.95037E-13
 -1      1737 3.64401E+00-8.41374E+00-9.14962E-01 4.08977E+00-9.32809E-13-1.09351E-12
 -1      1738 1.04428E+01-4.83417E+00-5.66815E-01 5.83828E+00-1.30829E-12-1.26490E-12
 -1      1739 2.01824E+01-6.32573E-01 5.67852E-02 7.23326E+00-1.39389E-12-1.43074E-12
 -1      1740 3.05821E+01 2.90955E+00 6.08796E-01 7.24042E+00-1.37124E-12-1.32183E-12
 -1      1741 3.96299E+01 5.76002E+00 1.16951E+00 6.08059E+00-1.17249E-12-9.47797E-13
 -1      1742 4.53191E+01 7.13233E+00 1.45546E+00 2.94370E+00-9.47242E-13-4.18887E-13
 -1      1743 4.64112E+01 7.59112E+00 1.50829E+00-6.45694E-01-8.57259E-13 1.52545E-13
 -1      1744 4.28543E+01 6.73777E+00 1.31936E+00-4.03940E+00-8.72524E-13 6.39266E-13
 -1      1745 3.56123E+01 4.67620E+00 9.58528E-01-6.97832E+00-1.06867E-12 9.11493E-13
 -1      1746 2.53081E+01 1.53699E+00 3.28244E-01-7.60562E+00-1.02324E-12 1.15197E-12
 -1      1747 1.48967E+01-2.49065E+00-2.66838E-01-6.65411E+00-9.53349E-13 1.19049E-12
 -1      1748 6.17373E+00-6.89492E+00-8.39676E-01-4.74995E+00-7.22644E-13 9.91394E-13
 -1      1749 7.69570E-01-1.00532E+01-1.09694E+00-2.68507E+00-4.05898E-13 7.95725E-13
 -1      1750 2.30210E+01 1.96011E+00-2.61253E-02-2.55728E+00-3.17722E-13 1.28206E-12
 -1      1751 2.00047E+01 3.74654E+00-3.65196E-02-1.82693E+00-4.10673E-13-4.44991E-13
 -1      1752 2.02919E+01 3.58191E+00-3.75086E-02-2.12638E+00-4.73148E-13-3.01221E-13
 -1      1753 2.06329E+01 3.17577E+00-4.59161E-02-2.28962E+00-4.72627E-13-1.20542E-13
 -1      1754 2.08776E+01 2.79172E+00-1.36891E-01-2.57575E+00-5.03349E-13 1.21042E-13
 -1      1755 2.06911E+01 2.70751E+00-3.05539E-03-1.90229E+00-4.99442E-13-1.92818E-13
 -1      1756 1.92698E+01 4.30321E+00-2.09279E-02-9.78352E-01-2.33823E-13-6.63079E-13
 -1      1757 1.94128E+01 4.25469E+00-1.49757E-02-1.18396E+00-2.84731E-13-6.37271E-13
 -1      1758 1.90457E+01 4.44574E+00-1.68668E-02-6.26666E-01-1.44180E-13-6.98728E-13
 -1      1759 1.91505E+01 4.41521E+00-1.15053E-02-8.06023E-01-1.94186E-13-6.83471E-13
 -1      1760 1.93861E+01 3.95680E+00-7.84161E-03-8.24959E-01-2.34672E-13-6.44682E-13
 -1      1761 1.88976E+01 4.53683E+00-1.41328E-02-3.16854E-01-4.16494E-14-7.06081E-13
 -1      1762 1.89636E+01 4.51878E+00-1.04566E-02-4.75577E-01-9.09815E-14-7.05816E-13
 -1      1763 1.91579E+01 4.12670E+00-7.26770E-03-5.07286E-01-1.23764E-13-6.80044E-13
 -1      1764 1.88279E+01 4.58322E+00-1.22696E-02-3.38405E-02 4.26673E-14-7.06969E-13
 -1      1765 1.88534E+01 4.57590E+00-1.06379E-02-1.80996E-01 1.42020E-15-7.11750E-13
 -1      1766 1.90144E+01 4.22946E+00-6.73708E-03-2.25043E-01-2.56771E-14-6.90093E-13
 -1      1767 1.88410E+01 4.58577E+00-1.11305E-02 2.39948E-01 1.17047E-13-6.91659E-13
 -1      1768 1.88237E+01 4.58915E+00-1.17623E-02 9.48027E-02 8.38082E-14-7.02166E-13
 -1      1769 1.89591E+01 4.27088E+00-6.39213E-03 3.51350E-02 7.12618E-14-6.93655E-13
 -1      1770 1.89401E+01 4.54121E+00-1.08255E-02 5.23799E-01 1.91372E-13-6.65593E-13
 -1      1771 1.88787E+01 4.55676E+00-1.37544E-02 3.70474E-01 1.59659E-13-6.83124E-13
 -1      1772 1.89963E+01 4.25010E+00-6.34088E-03 2.89615E-01 1.48190E-13-6.68320E-13
 -1      1773 1.91231E+01 4.44506E+00-1.16399E-02 8.32424E-01 2.73062E-13-6.17447E-13
 -1      1774 1.90190E+01 4.47450E+00-1.67737E-02 6.63267E-01 2.32139E-13-6.48218E-13
 -1      1775 1.91283E+01 4.16283E+00-6.49210E-03 5.53944E-01 2.27133E-13-6.36793E-13
 -1      1776 1.93999E+01 4.28001E+00-1.45129E-02 1.19642E+00 3.78287E-13-5.00237E-13
 -1      1777 1.92469E+01 4.33128E+00-2.12643E-02 9.93978E-01 3.19703E-13-5.60418E-13
 -1      1778 1.93569E+01 3.99821E+00-7.00664E-03 8.47473E-01 3.20141E-13-5.59447E-13
 -1      1779 1.97837E+01 4.01369E+00-2.22577E-02 1.62842E+00 4.63019E-13-3.69392E-13
 -1      1780 1.95732E+01 4.10281E+00-2.83368E-02 1.38260E+00 4.22045E-13-4.48527E-13
 -1      1781 1.96921E+01 3.73277E+00-7.09540E-03 1.18463E+00 4.25929E-13-4.30418E-13
 -1      1782 2.03226E+01 3.55951E+00-4.17548E-02 2.12584E+00 5.40129E-13-9.75955E-14
 -1      1783 2.00226E+01 3.73604E+00-4.07507E-02 1.83091E+00 4.93278E-13-2.60632E-13
 -1      1784 2.01532E+01 3.32159E+00-4.32841E-03 1.55850E+00 5.04282E-13-2.72520E-13
 -1      1785 2.12243E+01 2.67169E+00-5.40028E-02 2.55734E+00 5.25601E-13 4.09367E-13
 -1      1786 2.07016E+01 3.10206E+00-5.00388E-02 2.29181E+00 5.23996E-13 1.07046E-13
 -1      1787 2.07938E+01 2.64426E+00 3.36324E-03 1.88837E+00 5.54018E-13 2.50147E-14
 -1      1788 2.20144E+01 1.19723E+00-1.18906E-01 2.09837E+00 4.46969E-13 1.03610E-12
 -1      1789 2.15778E+01 2.24166E+00-3.35307E-04 2.47029E+00 4.91138E-13 6.23210E-13
 -1      1790 2.12869E+01 1.68650E+00-1.91553E-02 1.83401E+00 5.42339E-13 4.00027E-13
 -1      1791 2.13228E+01 7.73639E-01-5.76668E-02 1.29339E+00 4.61700E-13 8.87382E-13
 -1      1792 2.20519E+01 2.42545E+00 8.79323E-02-2.81870E+00-4.29662E-13 5.54765E-13
 -1      1793 2.06524E+01 3.14624E-01-5.12837E-03 4.10053E-01 3.51750E-13 6.86161E-13
 -1      1794 2.10958E+01 4.49010E-01-1.02405E-02 7.96706E-01 3.91367E-13 8.06654E-13
 -1      1795 2.11693E+01 8.49358E-01 3.67778E-04 1.12815E+00 4.64250E-13 5.29051E-13
 -1      1796 2.17966E+01 1.72737E+00 7.80676E-02-2.08425E+00-4.61707E-13 3.76497E-13
 -1      1797 2.09670E+01 5.10494E-01 3.30742E-02-6.68771E-01-3.71099E-13 2.93649E-13
 -1      1798 2.06305E+01 3.70988E-01 1.06070E-02-3.69194E-01-3.38368E-13 1.82043E-13
 -1      1799 2.05027E+01 2.82343E-01 2.76140E-02-1.11108E-01-3.11045E-13 1.70911E-13
 -1      1800 2.04179E+01 2.08654E-01 1.28882E-02 4.27660E-02-2.70292E-13 9.49518E-14
 -1      1801 2.07082E+01 5.15603E-01-7.56712E-03-3.79701E-01-3.83731E-13-1.37052E-14
 -1      1802 2.03773E+01 1.65718E-01 1.69506E-02 2.00989E-01-2.20510E-13 9.63439E-14
 -1      1803 2.04195E+01 1.27522E-01 9.04623E-03 2.91297E-01-1.87298E-13 4.12374E-14
 -1      1804 2.05339E+01 2.90318E-01-7.27914E-03 9.72622E-02-2.86210E-13-3.79423E-14
 -1      1805 2.04499E+01 1.01313E-01 9.11187E-03 3.90220E-01-1.70300E-13 3.29324E-14
 -1      1806 2.05688E+01 7.58462E-02 5.35052E-03 4.44220E-01-1.15418E-13-1.72327E-14
 -1      1807 2.05295E+01 1.74004E-01-6.16822E-03 3.90660E-01-2.10090E-13-7.55260E-14
 -1      1808 2.06512E+01 5.47702E-02 4.62269E-03 5.02337E-01-9.67666E-14-2.22112E-14
 -1      1809 2.08128E+01 3.15408E-02 2.12959E-03 5.28581E-01-8.29749E-14-6.26714E-14
 -1      1810 2.06478E+01 9.72418E-02-4.92573E-03 5.71080E-01-1.38287E-13-1.09016E-13
 -1      1811 2.09305E+01 9.33881E-03 2.01114E-03 5.50732E-01-7.22613E-14-3.90167E-14
 -1      1812 2.11072E+01-1.76388E-02-1.27036E-03 5.48641E-01-7.11111E-14-6.31196E-14
 -1      1813 2.08517E+01 2.82365E-02-3.56463E-03 6.65182E-01-8.35357E-14-8.40392E-14
 -1      1814 2.12451E+01-4.46473E-02 2.94591E-04 5.31408E-01-7.40215E-14-4.84842E-14
 -1      1815 2.14101E+01-7.86460E-02-5.15095E-03 4.95417E-01-7.24158E-14-6.01069E-14
 -1      1816 2.11091E+01-5.01372E-02-2.15935E-03 6.75187E-01-7.33110E-14-9.80435E-14
 -1      1817 2.15526E+01-1.11727E-01-1.02322E-03 4.30865E-01-1.00897E-13-4.73395E-14
 -1      1818 2.16762E+01-1.52460E-01-9.26540E-03 3.53870E-01-7.40770E-14-5.87685E-14
 -1      1819 2.13891E+01-1.46388E-01-5.96965E-04 5.89018E-01-9.05580E-14-1.09332E-13
 -1      1820 2.18048E+01-1.88951E-01-2.22527E-03 2.34261E-01-7.26207E-14-8.99931E-14
 -1      1821 2.18563E+01-2.30208E-01-1.26933E-02 1.12685E-01-7.17174E-14-1.43443E-13
 -1      1822 2.16574E+01-2.58400E-01 1.36114E-03 3.89401E-01-1.13730E-13-1.52002E-13
 -1      1823 2.19473E+01-2.61186E-01-3.52323E-03-6.19140E-02-6.59950E-14-1.35624E-13
 -1      1824 2.18997E+01-2.88522E-01-1.38348E-02-2.20541E-01-1.28413E-14-1.43270E-13
 -1      1825 2.18729E+01-3.67358E-01 3.93431E-03 6.70286E-02-7.05096E-14-1.20298E-13
 -1      1826 2.19253E+01-2.97685E-01-5.05037E-03-4.31525E-01-2.17187E-14-1.27399E-13
 -1      1827 2.17662E+01-2.89524E-01-1.08873E-02-6.00202E-01-4.37679E-14-1.28546E-13
 -1      1828 2.19860E+01-4.32456E-01 6.98663E-03-3.59517E-01-2.72490E-14-8.36107E-14
 -1      1829 2.17013E+01-2.56981E-01-6.46159E-03-8.00653E-01-5.07879E-14-1.45458E-13
 -1      1830 2.14452E+01-1.93655E-01-3.06794E-03-9.29635E-01-7.33532E-14-1.32871E-13
 -1      1831 2.19462E+01-3.96178E-01 9.44478E-03-8.20416E-01-5.44608E-14-7.18132E-14
 -1      1832 2.12850E+01-1.08095E-01-6.65182E-03-1.04556E+00-6.44573E-14-1.21344E-13
 -1      1833 2.09820E+01 1.00577E-02 7.59562E-03-1.07340E+00-6.78504E-14-6.31535E-14
 -1      1834 2.17248E+01-2.10099E-01 9.18933E-03-1.18280E+00-6.90626E-14-5.70637E-14
 -1      1835 2.07643E+01 1.33374E-01-3.78598E-03-1.02936E+00-1.26496E-13-1.16332E-13
 -1      1836 2.04945E+01 2.69690E-01 1.60175E-02-9.13720E-01-1.00387E-13-1.53090E-13
 -1      1837 2.13522E+01 1.16258E-01 3.61433E-03-1.27639E+00-1.33373E-13-8.51732E-14
 -1      1838 2.03053E+01 3.81870E-01 3.14959E-03-6.82891E-01-1.07936E-13-1.93530E-13
 -1      1839 2.01538E+01 4.72417E-01 1.72930E-02-4.37916E-01-1.22838E-13-2.73515E-13
 -1      1840 2.09492E+01 4.80744E-01-6.26225E-03-9.77494E-01-1.47958E-13-1.41511E-13
 -1      1841 2.00885E+01 5.14943E-01 1.17437E-02-8.20571E-02-1.21271E-13-3.47790E-13
 -1      1842 2.01093E+01 5.09950E-01 1.10961E-02 2.11821E-01-8.20281E-14-3.46076E-13
 -1      1843 2.06960E+01 7.18322E-01-1.45159E-02-3.18884E-01-1.75083E-13-2.59968E-13
 -1      1844 2.02071E+01 4.58631E-01 1.71393E-02 5.60788E-01-4.89296E-14-3.67848E-13
 -1      1845 2.03972E+01 3.61069E-01 2.34330E-03 7.95882E-01-8.70267E-14-3.74503E-13
 -1      1846 2.07282E+01 7.04425E-01-1.45710E-02 4.77110E-01-9.53525E-14-2.93754E-13
 -1      1847 2.06109E+01 2.45566E-01 1.52323E-02 1.01004E+00-1.20203E-13-3.99555E-13
 -1      1848 2.09126E+01 1.09823E-01-3.68243E-03 1.11209E+00-6.33207E-14-4.54563E-13
 -1      1849 2.10388E+01 4.49560E-01-5.20038E-03 1.10826E+00-1.24132E-13-3.17325E-13
 -1      1850 2.11443E+01-9.98248E-03 6.41121E-03 1.14018E+00-1.61945E-14-5.06859E-13
 -1      1851 2.14722E+01-1.21582E-01-6.00031E-03 1.10284E+00-5.19528E-15-5.62047E-13
 -1      1852 2.14803E+01 8.49777E-02 4.54207E-03 1.36933E+00-9.63349E-14-4.05729E-13
 -1      1853 2.16413E+01-2.00375E-01-4.09258E-03 9.79894E-01 2.49813E-14-5.73775E-13
 -1      1854 2.19188E+01-2.55839E-01-5.52842E-03 8.49358E-01-3.02111E-14-5.42367E-13
 -1      1855 2.18760E+01-2.25135E-01 9.43327E-03 1.25014E+00 2.75452E-14-4.75912E-13
 -1      1856 2.19934E+01-2.82348E-01-1.14436E-02 6.52138E-01-4.01883E-14-4.73347E-13
 -1      1857 2.21749E+01-2.84746E-01-4.11800E-03 4.89202E-01 8.25902E-14-4.02761E-13
 -1      1858 2.21172E+01-3.90623E-01 9.19797E-03 8.84163E-01 1.80611E-14-4.77320E-13
 -1      1859 2.21631E+01-2.72182E-01-1.39552E-02 2.88584E-01 8.59382E-14-3.42741E-13
 -1      1860 2.22376E+01-2.42301E-01-2.69972E-03 1.40000E-01 1.14226E-13-3.68556E-13
 -1      1861 2.21818E+01-4.11301E-01 6.60010E-03 4.38880E-01 7.94816E-14-3.22296E-13
 -1      1862 2.21645E+01-2.10773E-01-1.26156E-02-2.16253E-02 1.04625E-13-3.36294E-13
 -1      1863 2.21460E+01-1.69881E-01-1.61650E-03-1.32266E-01 6.53700E-14-2.51566E-13
 -1      1864 2.21015E+01-3.39146E-01 3.74686E-03 3.82739E-02 1.49011E-13-3.86861E-13
 -1      1865 2.20373E+01-1.35155E-01-9.30304E-03-2.40405E-01 2.88962E-15-2.61934E-13
 -1      1866 2.19517E+01-9.71127E-02-8.09370E-04-3.08471E-01-1.27537E-14-2.40855E-13
 -1      1867 2.19249E+01-2.31365E-01 1.53441E-03-2.57541E-01 6.76178E-14-4.01882E-13
 -1      1868 2.18277E+01-6.77467E-02-5.58806E-03-3.66517E-01-7.17093E-14-3.46745E-13
 -1      1869 2.17023E+01-3.86470E-02-1.90107E-04-3.98128E-01 2.30150E-14-4.44924E-13
 -1      1870 2.16963E+01-1.27337E-01 7.80269E-05-4.38330E-01-6.24949E-14-3.70754E-13
 -1      1871 2.15765E+01-1.74778E-02-2.38576E-03-4.17353E-01 5.08263E-14-4.36492E-13
 -1      1872 2.14343E+01 1.74025E-03 2.84133E-04-4.22475E-01-1.05859E-14-4.00500E-13
 -1      1873 2.14488E+01-4.56276E-02-8.01347E-04-5.21210E-01 2.09207E-14-4.30784E-13
 -1      1874 2.13154E+01 1.50843E-02-4.14800E-05-4.15512E-01-5.63893E-14-4.15483E-13
 -1      1875 2.11733E+01 2.59533E-02 6.24070E-04-4.03891E-01-6.90020E-14-4.80533E-13
 -1      1876 2.12049E+01 9.76698E-03-1.29318E-03-5.32773E-01-4.26042E-14-4.68996E-13
 -1      1877 2.10660E+01 3.31279E-02 1.44525E-03-3.81593E-01-9.78972E-14-4.56023E-13
 -1      1878 2.09345E+01 3.79035E-02 8.37253E-04-3.61017E-01-9.90434E-14-5.42379E-13
 -1      1879 2.09783E+01 4.22300E-02-1.53087E-03-4.98870E-01-1.11606E-13-4.83990E-13
 -1      1880 2.08412E+01 4.07629E-02 2.23227E-03-3.31476E-01-1.07498E-13-5.58700E-13
 -1      1881 2.07260E+01 4.15541E-02 9.39462E-04-3.07439E-01-9.76142E-14-5.29693E-13
 -1      1882 2.07768E+01 5.75816E-02-1.60008E-03-4.40285E-01-1.39773E-13-4.24717E-13
 -1      1883 2.06473E+01 4.16797E-02 2.51704E-03-2.76088E-01-1.05892E-13-5.67603E-13
 -1      1884 2.05504E+01 4.01374E-02 9.54019E-04-2.52079E-01-1.07541E-13-5.38042E-13
 -1      1885 2.06037E+01 6.15073E-02-1.55751E-03-3.71861E-01-1.32941E-13-5.47244E-13
 -1      1886 2.04856E+01 3.87101E-02 2.47826E-03-2.22220E-01-3.18091E-14-4.67617E-13
 -1      1887 2.04070E+01 3.59970E-02 9.06652E-04-2.00219E-01 1.40850E-13-4.06270E-13
 -1      1888 2.04591E+01 5.85665E-02-1.44345E-03-3.03198E-01 1.41633E-14-2.90201E-13
 -1      1889 2.03549E+01 3.38254E-02 2.25489E-03-1.73608E-01 1.28945E-13-4.27235E-13
 -1      1890 2.02929E+01 3.06966E-02 8.20980E-04-1.54552E-01 9.50041E-14-3.06192E-13
 -1      1891 2.03413E+01 5.20282E-02-1.28813E-03-2.39869E-01 1.41387E-13-3.23955E-13
 -1      1892 2.02519E+01 2.82953E-02 1.94478E-03-1.31915E-01 8.17184E-14-3.15496E-13
 -1      1893 2.02043E+01 2.52039E-02 7.16119E-04-1.16074E-01 1.05984E-13-4.33898E-13
 -1      1894 2.02476E+01 4.40516E-02-1.11431E-03-1.84615E-01 6.92367E-14-4.65241E-13
 -1      1895 2.01729E+01 2.28760E-02 1.61137E-03-9.74912E-02 1.45264E-13-3.78070E-13
 -1      1896 2.01373E+01 2.00667E-02 6.06060E-04-8.47473E-02 9.72150E-14-2.19086E-13
 -1      1897 2.01747E+01 3.59570E-02-9.38526E-04-1.38330E-01 1.36499E-13-2.33309E-13
 -1      1898 2.01136E+01 1.79723E-02 1.29235E-03-6.99344E-02-3.38172E-14-1.99807E-13
 -1      1899 2.00878E+01 1.55547E-02 5.00106E-04-5.99627E-02-9.65991E-14-1.61175E-13
 -1      1900 2.01192E+01 2.84790E-02-7.71943E-04-1.00791E-01 1.17830E-13-1.48224E-13
 -1      1901 2.00705E+01 1.37620E-02 1.00753E-03-4.84558E-02 1.34300E-14-1.20814E-13
 -1      1902 2.00523E+01 1.17629E-02 4.03761E-04-4.08474E-02 6.93687E-14 1.70610E-14
 -1      1903 2.00780E+01 2.19672E-02-6.21311E-04-7.11702E-02 1.97442E-14-1.81557E-14
 -1      1904 2.00399E+01 1.02842E-02 7.65037E-04-3.21202E-02-5.82891E-14 1.50767E-14
 -1      1905 2.00276E+01 8.68279E-03 3.19681E-04-2.64536E-02-1.31944E-13-4.74727E-14
 -1      1906 2.00482E+01 1.65308E-02-4.89960E-04-4.83667E-02-5.71539E-14 7.30409E-14
 -1      1907 2.00191E+01 7.49869E-03 5.65836E-04-1.99886E-02-6.28547E-14 2.02724E-15
 -1      1908 2.00113E+01 6.25002E-03 2.48521E-04-1.58710E-02 2.88824E-14-3.96121E-14
 -1      1909 2.00272E+01 1.21393E-02-3.78741E-04-3.12188E-02-1.05640E-13 1.06274E-13
 -1      1910 2.00056E+01 5.32492E-03 4.06857E-04-1.11983E-02 3.49544E-15-1.90084E-13
 -1      1911 2.00010E+01 4.37375E-03 1.89583E-04-8.28572E-03 7.47904E-15-7.42255E-14
 -1      1912 2.00131E+01 8.68733E-03-2.86842E-04-1.86254E-02-3.00297E-14 1.00162E-13
 -1      1913 1.99975E+01 3.66543E-03 2.83025E-04-5.00143E-03-9.37776E-14-5.65399E-14
 -1      1914 1.99952E+01 2.95454E-03 1.41301E-04-3.00720E-03-5.11720E-14 5.63855E-14
 -1      1915 2.00040E+01 6.03572E-03-2.12442E-04-9.61039E-03-5.92923E-16 9.66084E-14
 -1      1916 1.99933E+01 2.41949E-03 1.88564E-04-7.79718E-04 1.94558E-14 8.74881E-14
 -1      1917 1.99926E+01 1.89371E-03 1.01566E-04 5.24475E-04 2.08596E-13 2.67269E-13
 -1      1918 1.99986E+01 4.03547E-03-1.53202E-04-3.35091E-03 4.32074E-14 3.33031E-13
 -1      1919 1.99918E+01 1.48965E-03 1.17794E-04 1.95497E-03 2.06585E-13 3.48486E-13
 -1      1920 1.99921E+01 1.09704E-03 6.79677E-05 2.74112E-03 2.72197E-13 2.91005E-13
 -1      1921 1.99959E+01 2.54000E-03-1.06622E-04 8.15939E-04 1.98833E-13 3.63340E-13
 -1      1922 1.99920E+01 7.83246E-04 6.57326E-05 3.56610E-03 2.51209E-13 1.68819E-13
 -1      1923 1.99929E+01 4.74552E-04 3.81343E-05 3.95245E-03 1.74054E-13 1.69482E-13
 -1      1924 1.99950E+01 1.40920E-03-7.03848E-05 3.39748E-03 1.72365E-13 2.87542E-13
 -1      1925 1.99932E+01 2.11562E-04 2.85914E-05 4.29965E-03 5.53204E-14 2.26996E-13
 -1      1926 1.99945E+01-5.84921E-05 1.25199E-05 4.35208E-03 1.02028E-13 1.61528E-13
 -1      1927 1.99953E+01 5.09993E-04-4.21111E-05 4.75490E-03 1.00193E-13 1.62427E-13
 -1      1928 1.99950E+01-3.20026E-04 2.24689E-06 4.30123E-03 2.31426E-13-1.35983E-14
 -1      1929 1.99963E+01-5.92195E-04-9.02652E-06 4.03150E-03 2.15876E-13 1.44241E-13
 -1      1930 1.99962E+01-2.77123E-04-2.02625E-05 5.11706E-03 1.34477E-13 3.05608E-13
 -1      1931 1.99968E+01-8.19766E-04-6.56084E-06 3.63408E-03 1.20745E-13 1.31180E-13
 -1      1932 1.99979E+01-1.11783E-03-2.82799E-05 3.05410E-03 1.68359E-14 2.64285E-13
 -1      1933 1.99984E+01-1.70709E-03-4.16347E-06 3.51965E-03-7.47662E-14 1.93757E-13
 -1      1934 1.99973E+01-1.05605E-03-8.26033E-06 4.64327E-03 1.90782E-13 3.59004E-13
 -1      1935 2.03914E+01 1.76294E-01 1.12593E-02-3.39410E-02 2.81365E-13 4.84125E-13
 -1      1936 2.05354E+01 2.31882E-01 1.82642E-02 1.62647E-01 3.03844E-13 6.11193E-13
 -1      1937 2.06991E+01 3.83291E-01-3.33958E-03 3.23760E-01 3.74419E-13 4.17220E-13
 -1      1938 2.04247E+01 1.21583E-01 1.06721E-02-3.10795E-01 2.02743E-13 3.53660E-13
 -1      1939 2.03829E+01 1.46245E-01 1.62823E-02-1.85675E-01 2.19346E-13 4.35823E-13
 -1      1940 2.05220E+01 2.21865E-01-4.13711E-03-1.49346E-01 2.85960E-13 2.99083E-13
 -1      1941 2.06777E+01 9.93401E-02 8.63619E-03-5.14772E-01 1.41254E-13 2.62955E-13
 -1      1942 2.05126E+01 1.11263E-01 1.08499E-02-4.18820E-01 1.61141E-13 3.21066E-13
 -1      1943 2.05900E+01 1.58378E-01-5.37632E-03-4.65686E-01 2.10102E-13 2.01762E-13
 -1      1944 2.11008E+01 8.95227E-02 7.28559E-03-6.86179E-01 6.03033E-14 2.01183E-13
 -1      1945 2.08435E+01 9.67024E-02 7.14076E-03-6.02246E-01 1.02312E-13 2.49187E-13
 -1      1946 2.08420E+01 1.32457E-01-5.91536E-03-7.08851E-01 1.24296E-13 1.07547E-13
 -1      1947 2.16624E+01 8.01848E-02 5.87101E-03-8.38225E-01 6.49194E-14 1.52089E-13
 -1      1948 2.13307E+01 8.79088E-02 4.80856E-03-7.61029E-01 4.95901E-14 1.95333E-13
 -1      1949 2.12388E+01 1.18259E-01-6.04983E-03-9.15037E-01 8.60180E-14 9.42107E-14
 -1      1950 2.23359E+01 5.92777E-02 3.42689E-03-9.63532E-01 6.52403E-14 1.29012E-13
 -1      1951 2.19459E+01 7.31064E-02 2.83079E-03-8.97246E-01 5.97326E-14 1.54370E-13
 -1      1952 2.17545E+01 9.78762E-02-6.22198E-03-1.09119E+00 7.62730E-14 9.48807E-14
 -1      1953 2.30859E+01 1.11033E-02-7.78518E-04-1.03151E+00 7.41690E-14 9.39353E-14
 -1      1954 2.26619E+01 3.80118E-02 5.26842E-04-9.91734E-01 8.14403E-14 1.23668E-13
 -1      1955 2.23668E+01 5.15325E-02-6.47108E-03-1.21843E+00 9.40124E-14 9.52376E-14
 -1      1956 2.38544E+01-8.30666E-02-6.84312E-03-9.82739E-01 4.15640E-15 9.64740E-14
 -1      1957 2.34384E+01-3.57190E-02-2.33407E-03-9.99902E-01 4.34808E-14 8.91171E-14
 -1      1958 2.30483E+01-4.55013E-02-6.39902E-03-1.24803E+00 6.32372E-14 8.42174E-14
 -1      1959 2.45479E+01-2.35556E-01-1.33426E-02-7.30007E-01 5.54244E-16 8.36102E-14
 -1      1960 2.42069E+01-1.65762E-01-5.51569E-03-8.49301E-01 1.13052E-14 9.51036E-14
 -1      1961 2.37568E+01-2.17076E-01-5.07364E-03-1.09818E+00 2.66141E-14 1.16082E-13
 -1      1962 2.50311E+01-4.26247E-01-1.64483E-02-1.85262E-01 2.71658E-15 1.61239E-13
 -1      1963 2.48553E+01-3.50819E-01-8.20424E-03-4.52772E-01-2.55698E-14 9.74784E-14
 -1      1964 2.44221E+01-4.63273E-01-1.03223E-03-6.66233E-01-3.90209E-14 1.09311E-13
 -1      1965 2.51385E+01-5.62763E-01-1.15900E-02 6.58639E-01 9.24174E-14 1.78919E-13
 -1      1966 2.52187E+01-5.33990E-01-1.03121E-02 2.38576E-01 4.72053E-14 2.03228E-13
 -1      1967 2.49291E+01-7.11442E-01 6.88177E-03 1.17547E-01 4.31547E-14 1.56208E-13
 -1      1968 2.47248E+01-4.69958E-01 1.82785E-04 1.58615E+00 1.36642E-13 9.63431E-14
 -1      1969 2.51061E+01-5.66664E-01-1.20368E-02 1.12537E+00 9.61627E-14 1.42657E-13
 -1      1970 2.51098E+01-7.72854E-01 1.59738E-02 1.16837E+00 1.19864E-13 1.66460E-13
 -1      1971 2.38039E+01-2.02788E-02 2.12434E-03 2.09145E+00 7.30986E-14 7.91658E-14
 -1      1972 2.44168E+01-2.70748E-01-1.63283E-02 1.84349E+00 1.13424E-13 4.38434E-14
 -1      1973 2.48070E+01-4.17369E-01 1.23465E-02 2.10021E+00 1.73563E-13 3.44742E-14
 -1      1974 2.27258E+01 6.42661E-01-1.58995E-02 1.60192E+00 1.76976E-13-1.58235E-13
 -1      1975 2.33452E+01 3.64382E-01-1.62819E-02 1.84284E+00 1.12708E-13-3.32789E-14
 -1      1976 2.40667E+01 3.86047E-01-1.43558E-02 2.24341E+00 1.39170E-13-3.58949E-14
 -1      1977 2.21806E+01 1.00648E+00-4.45221E-02 1.38686E-01 2.61423E-13-4.08984E-13
 -1      1978 2.24781E+01 9.32885E-01-9.32480E-03 8.26937E-01 2.52451E-13-3.17859E-13
 -1      1979 2.33552E+01 1.19764E+00-3.90272E-02 1.16303E+00 3.42972E-13-2.66439E-13
 -1      1980 2.26416E+01 7.19891E-01-4.83379E-02-1.44170E+00 1.16109E-13-4.39180E-13
 -1      1981 2.24077E+01 9.42711E-01 3.61881E-04-7.31429E-01 2.25195E-13-3.97760E-13
 -1      1982 2.32757E+01 1.35444E+00-3.85369E-02-6.94856E-01 2.46053E-13-4.18676E-13
 -1      1983 2.38009E+01 7.23582E-02-1.74534E-02-2.14934E+00-1.30947E-13-5.19647E-13
 -1      1984 2.31574E+01 3.81237E-01-1.09300E-03-1.83907E+00-3.27516E-15-5.03375E-13
 -1      1985 2.39163E+01 6.98153E-01-1.50518E-02-2.11987E+00 4.54602E-14-4.45236E-13
 -1      1986 2.49181E+01-4.21478E-01 1.62308E-02-1.80348E+00-1.02024E-13-4.73295E-13
 -1      1987 2.42104E+01-2.43053E-01-7.73656E-03-1.94521E+00-1.34858E-13-4.97016E-13
 -1      1988 2.47445E+01-1.91904E-01 4.43139E-03-2.34241E+00-1.18604E-13-5.14208E-13
 -1      1989 2.54886E+01-5.50596E-01 2.44246E-02-9.11231E-01 2.40467E-14-3.19939E-13
 -1      1990 2.50132E+01-5.44516E-01-1.63223E-02-1.27818E+00-4.70041E-14-3.57334E-13
 -1      1991 2.52186E+01-7.34553E-01-1.50416E-03-1.58199E+00-9.47280E-14-3.47462E-13
 -1      1992 2.54684E+01-4.33258E-01 1.81878E-02-3.22729E-02 7.54119E-14-2.92454E-13
 -1      1993 2.53233E+01-5.18845E-01-1.88204E-02-3.95639E-01 1.07633E-13-2.28605E-13
 -1      1994 2.52067E+01-7.77783E-01-8.88122E-03-5.18067E-01 9.78662E-14-2.42993E-13
 -1      1995 2.50300E+01-2.46950E-01 7.55093E-03 5.63313E-01-1.07745E-13-3.64896E-13
 -1      1996 2.51649E+01-3.42285E-01-1.50173E-02 3.13550E-01-2.37119E-14-3.37265E-13
 -1      1997 2.48310E+01-5.54707E-01-1.09147E-02 3.58086E-01 4.03323E-15-2.74487E-13
 -1      1998 2.43755E+01-9.17910E-02-1.15352E-04 8.53489E-01-1.59403E-13-2.23564E-13
 -1      1999 2.46833E+01-1.61083E-01-9.40724E-03 7.27845E-01-1.44713E-13-2.61059E-13
 -1      2000 2.42601E+01-2.85594E-01-8.50154E-03 8.83225E-01-1.39475E-13-3.08190E-13
 -1      2001 2.36556E+01 5.62046E-03-3.53655E-03 9.21947E-01-7.83385E-14-1.03442E-14
 -1      2002 2.40369E+01-3.32417E-02-3.98255E-03 8.87665E-01-1.84366E-13-1.78341E-13
 -1      2003 2.36209E+01-8.12664E-02-4.78231E-03 1.09692E+00-2.10498E-13-1.10981E-13
 -1      2004 2.29616E+01 5.43720E-02-4.18943E-03 8.63256E-01-5.19051E-15 4.75436E-14
 -1      2005 2.33478E+01 3.80038E-02 1.03220E-04 8.82367E-01 1.62730E-14 7.77052E-14
 -1      2006 2.29904E+01 3.87829E-02-1.97510E-03 1.10383E+00-4.98173E-14-2.05478E-15
 -1      2007 2.23408E+01 7.17997E-02-3.59092E-03 7.47232E-01 1.59408E-14 2.38909E-13
 -1      2008 2.26933E+01 6.87768E-02 2.60016E-03 7.91244E-01-6.09139E-14 9.63700E-14
 -1      2009 2.24113E+01 9.40607E-02-5.18780E-04 9.99786E-01-1.25594E-14 1.45158E-13
 -1      2010 2.18116E+01 7.21855E-02-2.65469E-03 6.15967E-01-8.54486E-14 2.02057E-13
 -1      2011 2.21138E+01 7.58359E-02 3.78667E-03 6.67424E-01 1.19978E-14 2.19589E-13
 -1      2012 2.19042E+01 1.09808E-01-7.59942E-06 8.50638E-01 4.35676E-15 2.24860E-13
 -1      2013 2.13757E+01 6.47286E-02-1.78753E-03 4.91229E-01 1.71867E-13 2.02558E-13
 -1      2014 2.16242E+01 7.10250E-02 4.08205E-03 5.40925E-01 6.23720E-15 2.19249E-13
 -1      2015 2.14756E+01 1.05109E-01 2.37413E-05 6.94682E-01 6.27298E-14 3.10106E-13
 -1      2016 2.10258E+01 5.45876E-02-1.11408E-03 3.82324E-01-2.13312E-14 1.79515E-13
 -1      2017 2.12242E+01 6.13899E-02 3.86215E-03 4.26182E-01 7.78401E-14 1.20637E-13
 -1      2018 2.11233E+01 9.17059E-02-1.17118E-04 5.51093E-01 1.27963E-13 2.90923E-13
 -1      2019 2.07508E+01 4.43461E-02-6.36175E-04 2.91779E-01-1.62495E-13 4.01428E-14
 -1      2020 2.09055E+01 5.06536E-02 3.39688E-03 3.28553E-01-1.02942E-13 1.35404E-13
 -1      2021 2.08401E+01 7.59433E-02-2.73100E-04 4.27557E-01-6.34126E-14 1.72479E-13
 -1      2022 2.05386E+01 3.51315E-02-3.16177E-04 2.18828E-01 1.75651E-13-1.14259E-13
 -1      2023 2.06570E+01 4.05638E-02 2.85334E-03 2.48675E-01 4.94743E-15 1.76585E-14
 -1      2024 2.06170E+01 6.08569E-02-3.83817E-04 3.25584E-01 1.54713E-14 5.72433E-14
 -1      2025 2.03775E+01 2.73165E-02-1.11919E-04 1.61343E-01 7.53767E-14-1.11340E-13
 -1      2026 2.04665E+01 3.18021E-02 2.32258E-03 1.85022E-01 8.89573E-14-1.16690E-13
 -1      2027 2.04441E+01 4.76688E-02-4.38621E-04 2.43719E-01 1.27673E-13-1.53832E-13
 -1      2028 2.02572E+01 2.09154E-02 1.19070E-05 1.16821E-01 8.81604E-14 3.11366E-14
 -1      2029 2.03231E+01 2.45209E-02 1.84723E-03 1.35280E-01 2.72404E-14-1.28078E-14
 -1      2030 2.03125E+01 3.66914E-02-4.47054E-04 1.79329E-01 5.57742E-14-9.10038E-14
 -1      2031 2.01691E+01 1.57909E-02 8.17968E-05 8.28490E-02 2.10306E-13 4.22699E-14
 -1      2032 2.02168E+01 1.86342E-02 1.44224E-03 9.70253E-02 2.20396E-13 7.19016E-14
 -1      2033 2.02139E+01 2.78232E-02-4.23727E-04 1.29517E-01 2.15077E-13 2.21489E-13
 -1      2034 2.01057E+01 1.17570E-02 1.16587E-04 5.72878E-02 3.32457E-13-5.50835E-14
 -1      2035 2.01397E+01 1.39655E-02 1.10816E-03 6.80257E-02 2.45764E-13 4.06878E-14
 -1      2036 2.01413E+01 2.08031E-02-3.81965E-04 9.15442E-02 3.03716E-13 3.38464E-13
 -1      2037 2.00612E+01 8.62576E-03 1.29258E-04 3.83274E-02-1.67870E-14-3.67299E-13
 -1      2038 2.00847E+01 1.03182E-02 8.38777E-04 4.63494E-02 2.16616E-13-1.78436E-13
 -1      2039 2.00890E+01 1.53317E-02-3.31857E-04 6.30028E-02 3.44052E-13 2.89428E-14
 -1      2040 2.00310E+01 6.22639E-03 1.28560E-04 2.44767E-02-9.25811E-14-2.50828E-13
 -1      2041 2.00467E+01 7.50652E-03 6.25386E-04 3.03833E-02-1.64876E-13-3.32804E-13
 -1      2042 2.00522E+01 1.11242E-02-2.80228E-04 4.18599E-02-1.38557E-13-1.34198E-13
 -1      2043 2.00112E+01 4.41125E-03 1.20258E-04 1.45303E-02-3.66045E-13-1.10035E-13
 -1      2044 2.00212E+01 5.36657E-03 4.58844E-04 1.88110E-02-2.57718E-13-2.79167E-13
 -1      2045 2.00271E+01 7.92954E-03-2.31254E-04 2.64412E-02-3.22697E-13-7.63851E-14
 -1      2046 1.99990E+01 3.05581E-03 1.08025E-04 7.52916E-03-1.23849E-14-1.01601E-13
 -1      2047 2.00050E+01 3.75877E-03 3.30571E-04 1.05762E-02-2.13654E-13-1.84560E-13
 -1      2048 2.00106E+01 5.53499E-03-1.87181E-04 1.53941E-02-2.47131E-13-2.17741E-13
 -1      2049 1.99923E+01 2.05608E-03 9.40393E-05 2.72185E-03 2.42658E-13-8.05626E-14
 -1      2050 1.99954E+01 2.56615E-03 2.32914E-04 4.84465E-03 1.07646E-13-5.11127E-14
 -1      2051 2.00004E+01 3.76322E-03-1.48947E-04 7.64344E-03 8.61421E-14-1.01711E-13
 -1      2052 1.99894E+01 1.32523E-03 7.93845E-05-4.68963E-04-1.53940E-13-8.19754E-15
 -1      2053 1.99905E+01 1.69112E-03 1.59224E-04 9.68554E-04 1.53744E-13 8.62340E-14
 -1      2054 1.99948E+01 2.46735E-03-1.16669E-04 2.34928E-03 5.78715E-14 1.66286E-13
 -1      2055 1.99890E+01 7.89521E-04 6.43105E-05-2.47431E-03 2.05719E-13-1.62237E-13
 -1      2056 1.99888E+01 1.05171E-03 1.03796E-04-1.54318E-03-3.42845E-14-3.19874E-14
 -1      2057 1.99923E+01 1.52509E-03-8.99552E-05-1.12974E-03-2.18758E-16 1.52957E-13
 -1      2058 1.99902E+01 3.83130E-04 4.88245E-05-3.60025E-03 2.52286E-13-2.98444E-13
 -1      2059 1.99892E+01 5.76789E-04 6.18744E-05-3.04912E-03 2.82237E-13-2.68270E-13
 -1      2060 1.99919E+01 8.32408E-04-6.79174E-05-3.26710E-03 3.22099E-13-7.36795E-14
 -1      2061 1.99923E+01 4.53803E-05 3.37647E-05-4.03671E-03 8.79584E-14-3.10812E-13
 -1      2062 1.99908E+01 2.00152E-04 3.02501E-05-3.78972E-03 1.69387E-13-2.80584E-13
 -1      2063 1.99928E+01 2.93275E-04-4.90113E-05-4.38696E-03 1.40423E-13-2.30980E-13
 -1      2064 1.99947E+01-2.80942E-04 1.92871E-05-3.87592E-03-1.52629E-13-3.42156E-13
 -1      2065 1.99932E+01-1.35387E-04 7.86002E-06-3.90190E-03-6.30868E-14-2.30608E-13
 -1      2066 1.99944E+01-1.76194E-04-3.10844E-05-4.68420E-03 2.68659E-14-2.13284E-13
 -1      2067 1.99970E+01-6.61516E-04 3.73115E-06-3.11012E-03 2.99796E-14-3.85228E-13
 -1      2068 1.99956E+01-4.89501E-04-3.70847E-06-3.44077E-03-8.13223E-14-2.88674E-13
 -1      2069 1.99962E+01-6.65179E-04-1.60721E-05-4.26013E-03-9.45682E-14 8.50970E-14
 -1      2070 1.99985E+01-1.03726E-03-1.36348E-05-2.10267E-03-1.97153E-13-1.22827E-13
 -1      2071 1.99975E+01-8.40533E-04-8.40630E-06-2.72819E-03 2.11555E-16-2.48853E-13
 -1      2072 1.99977E+01-1.12479E-03 3.07954E-06-3.44193E-03-4.06071E-14 3.68364E-13
 -1      2073 1.99988E+01-1.61971E-03 1.03748E-05-2.52493E-03-1.37940E-13 2.85154E-13
 -1      2074 2.00002E+01-6.84581E-03 6.57794E-06-3.61997E-03-4.51057E-14-4.31192E-13
 -1      2075 2.00000E+01-5.69468E-03 3.75880E-06-3.78946E-03-1.04981E-13-2.50009E-14
 -1      2076 1.99998E+01-4.99875E-03 3.66662E-06-3.88082E-03-1.63171E-13 9.34888E-14
 -1      2077 1.99995E+01-3.83234E-03-1.12105E-05-3.77686E-03-7.47069E-14 3.07377E-13
 -1      2078 1.99999E+01-4.27704E-03-8.44951E-06-4.66290E-03-7.26137E-14 6.71004E-15
 -1      2079 1.99993E+01-3.30298E-03 1.34935E-06-3.51167E-03-6.79135E-14 5.72976E-13
 -1      2080 1.99990E+01-2.25472E-03-1.90350E-05-3.04877E-03 1.69223E-14 3.81723E-13
 -1      2081 1.99986E+01-2.00904E-03-1.77199E-05-3.59870E-03-5.83196E-14 5.71632E-13
 -1      2082 1.99993E+01-3.11084E-03-1.05188E-05-4.47067E-03-1.86013E-13 4.84189E-13
 -1      2083 2.00004E+01-8.38184E-03 1.10230E-05-2.97388E-03-3.61180E-13-4.35429E-13
 -1      2084 2.00003E+01-7.40131E-03 2.13307E-05-3.29425E-03-2.50681E-13-4.28544E-13
 -1      2085 2.00005E+01-5.52443E-03-1.31327E-05-4.18984E-03-1.00453E-13-5.73076E-13
 -1      2086 2.00005E+01-9.55259E-03 1.65323E-05-2.11156E-03-9.90560E-15 5.13532E-13
 -1      2087 2.00005E+01-8.80304E-03 3.08376E-05-2.51308E-03-1.67215E-13 1.73091E-13
 -1      2088 2.00008E+01-6.51074E-03-1.30727E-05-3.31675E-03-1.34741E-13 1.22295E-13
 -1      2089 2.00006E+01-1.02751E-02 2.17627E-05-1.16757E-03-1.34622E-13 2.08943E-13
 -1      2090 2.00005E+01-9.82037E-03 3.39389E-05-1.59560E-03-1.49856E-13 6.07921E-13
 -1      2091 2.00009E+01-7.21081E-03-1.19805E-05-2.23848E-03-1.65457E-13 4.72409E-13
 -1      2092 2.00006E+01-1.05385E-02 2.68362E-05-2.06952E-04-1.94419E-13-9.68424E-14
 -1      2093 2.00006E+01-1.03975E-02 3.19390E-05-6.38421E-04-1.79822E-13 5.22194E-15
 -1      2094 2.00009E+01-7.61046E-03-1.07316E-05-1.08857E-03-2.15853E-13 1.04060E-13
 -1      2095 2.00005E+01-1.03479E-02 3.09977E-05 7.45998E-04-1.69347E-13-1.96990E-13
 -1      2096 2.00005E+01-1.05231E-02 2.72190E-05 3.19316E-04-1.11982E-13 7.54832E-14
 -1      2097 2.00009E+01-7.72092E-03-1.00223E-05 7.07204E-05-2.46938E-13 1.28611E-13
 -1      2098 2.00005E+01-9.71495E-03 3.26535E-05 1.67800E-03-3.30624E-13-5.27299E-13
 -1      2099 2.00005E+01-1.01973E-02 2.13215E-05 1.26333E-03-1.02863E-13-5.30994E-13
 -1      2100 2.00009E+01-7.55162E-03-1.02265E-05 1.21681E-03-2.51674E-13-3.34577E-13
 -1      2101 2.00005E+01-8.68086E-03 2.95181E-05 2.54117E-03-2.29924E-13-4.85701E-13
 -1      2102 2.00005E+01-9.43332E-03 1.53976E-05 2.16515E-03-2.30130E-13-3.20686E-13
 -1      2103 2.00009E+01-7.10802E-03-1.09543E-05 2.32078E-03-1.98992E-13-4.61772E-13
 -1      2104 2.00003E+01-7.25662E-03 1.99242E-05 3.28532E-03-8.81211E-15 1.48237E-13
 -1      2105 2.00004E+01-8.25411E-03 9.81265E-06 2.97861E-03 8.66474E-14-1.74707E-13
 -1      2106 2.00007E+01-6.38732E-03-1.16980E-05 3.33902E-03 2.10800E-13-2.12776E-13
 -1      2107 2.00000E+01-5.55022E-03 2.71098E-06 3.74610E-03-2.50532E-13 2.84131E-13
 -1      2108 2.00002E+01-6.69206E-03 5.17031E-06 3.59309E-03-6.96714E-14 1.33810E-13
 -1      2109 2.00004E+01-5.38761E-03-1.14258E-05 4.16698E-03 2.02967E-13 8.91004E-14
 -1      2110 1.99994E+01-3.72033E-03-1.98739E-05 3.75024E-03-2.48423E-13-6.95432E-14
 -1      2111 1.99998E+01-4.87112E-03 8.92510E-06 3.82401E-03-2.66935E-13 3.41990E-13
 -1      2112 1.99999E+01-4.14474E-03-4.11100E-06 4.59847E-03-1.45750E-13 2.89767E-13
 -1      2113 9.90260E+00-5.67549E+00-2.13557E-01 6.04336E+00 3.17635E-13 3.44454E-13
 -1      2114 6.29673E+00-6.92535E+00-3.96935E-01 4.88077E+00 1.32838E-13 3.74811E-13
 -1      2115 8.61446E-02-7.56465E+00-4.37725E-01 3.72639E-01-4.70596E-14 7.59837E-13
 -1      2116 1.60346E-01-7.54345E+00-4.42330E-01-1.09986E+00-1.99452E-13 7.70606E-13
 -1      2117 3.21931E+00-6.29514E+00-2.57917E-01 3.79483E+00 7.68829E-14 4.54137E-13
 -1      2118 1.25248E+00-7.41514E+00-4.46466E-01 2.10532E+00-1.05471E-13 5.95857E-13
 -1      2119 1.92193E+01-4.21555E+00-5.48869E-02 6.60999E+00 3.04423E-13 4.64545E-13
 -1      2120 1.41969E+01-5.76177E+00-3.15897E-01 5.93940E+00 3.16303E-13 3.58574E-13
 -1      2121 2.88700E+01-1.11999E+00 1.67360E-01 5.09015E+00 4.05731E-13 6.51146E-13
 -1      2122 2.40684E+01-3.29446E+00-1.49045E-01 4.89127E+00 3.31957E-13 4.90996E-13
 -1      2123 1.95780E+01 4.09068E+00-2.61017E-02-1.37615E+00-3.28189E-13-6.01096E-13
 -1      2124 1.97702E+01 4.00600E+00-2.24773E-02-1.62671E+00-3.87393E-13-5.27120E-13
 -1      2125 2.01164E+01 3.30028E+00-1.79799E-02-1.57913E+00-4.17214E-13-4.58857E-13
 -1      2126 1.97037E+01 3.70807E+00-5.87937E-03-1.18415E+00-3.25814E-13-5.82003E-13
 -1      2127 4.03018E+01 5.53334E+00 3.86165E-01 1.46530E+00 8.36275E-13 2.62790E-13
 -1      2128 3.75041E+01 4.40639E+00 2.30754E-01 2.51525E+00 6.99885E-13 4.97491E-13
 -1      2129 4.21455E+01 7.03990E+00 4.37154E-01-1.14306E-01 9.11438E-13 9.58261E-14
 -1      2130 4.10468E+01 6.87220E+00 3.70038E-01 8.67162E-01 9.28591E-13 2.89185E-13
 -1      2131 3.78899E+01 6.44164E+00 1.37524E-01-6.63353E-01 1.01835E-12 6.83342E-14
 -1      2132 4.16472E+01 7.14033E+00 5.97095E-01-4.55713E-01 9.52738E-13 3.18634E-14
 -1      2133 3.69736E+01 7.95768E+00 3.36021E-01 1.02000E-01 9.69058E-13 1.29209E-13
 -1      2134 3.40375E+01 2.16523E+00 1.82560E-02-1.62443E+00 9.39915E-13-3.18634E-14
 -1      2135 3.62207E+01 3.96156E+00 2.51156E-02-5.82062E-01 9.67115E-13 1.87017E-13
 -1      2136 2.77264E+01-2.03136E+00-1.15779E-01-3.99190E+00 7.14484E-13-3.65652E-13
 -1      2137 3.22098E+01-2.26872E-02 9.20962E-02-3.44302E+00 8.19164E-13-2.05447E-13
 -1      2138 1.89479E+01-5.01294E+00-2.10667E-01-5.86748E+00 4.61409E-13-7.15011E-13
 -1      2139 2.40482E+01-3.33525E+00 1.36373E-02-6.00521E+00 6.09124E-13-5.44342E-13
 -1      2140 9.59443E+00-6.57205E+00-3.51074E-01-5.70786E+00 3.80806E-13-9.93521E-13
 -1      2141 1.41262E+01-5.18793E+00-8.94671E-02-6.82750E+00 4.12670E-13-9.60988E-13
 -1      2142 3.79558E+00-6.73562E+00-3.01648E-01-4.03381E+00 1.24456E-13-1.07087E-12
 -1      2143 6.44667E+00-6.16573E+00-2.17391E-01-5.33040E+00 4.17222E-13-1.08083E-12
 -1      2144 1.03914E+01-5.58671E+00-5.10790E-02-6.43466E+00-9.05942E-14-9.22540E-13
 -1      2145 2.03126E-01-7.51937E+00-4.37954E-01-3.07392E-01-7.37049E-14-1.01974E-12
 -1      2146 1.05727E+00-6.69600E+00-3.14373E-01-2.08049E+00 1.81244E-13-1.14048E-12
 -1      2147 1.71109E+00-6.65948E+00-3.04611E-01 3.10621E+00-3.49831E-13-9.93650E-13
 -1      2148 4.75342E-01-7.43082E+00-4.28668E-01 1.41666E+00-7.78821E-14-9.93094E-13
 -1      2149 7.23235E+00-5.81610E+00-2.07827E-01 5.94201E+00-6.46150E-13-9.82631E-13
 -1      2150 4.18093E+00-7.04253E+00-3.85574E-01 4.55164E+00-4.00679E-13-9.59510E-13
 -1      2151 1.52431E+01-4.01634E+00-7.34763E-02 7.01820E+00-8.63642E-13-1.00223E-12
 -1      2152 1.11806E+01-5.85420E+00-3.26416E-01 6.16842E+00-6.80345E-13-8.66911E-13
 -1      2153 2.41638E+01-1.88028E+00 4.86558E-02 6.49729E+00-7.85372E-13-8.44214E-13
 -1      2154 1.90393E+01-3.61670E+00-2.31266E-01 6.23741E+00-7.71272E-13-9.37472E-13
 -1      2155 3.23626E+01 1.56714E+00 2.31037E-01 4.47179E+00-9.93150E-13-4.48863E-13
 -1      2156 2.79329E+01-3.85480E-01-7.11991E-02 4.52493E+00-8.72385E-13-5.32185E-13
 -1      2157 3.68648E+01 4.46251E+00 2.35040E-01 2.50554E+00-9.59649E-13-2.79776E-13
 -1      2158 3.37511E+01 3.12111E+00 4.38390E-02 3.44033E+00-1.04254E-12-4.84612E-13
 -1      2159 3.21247E+01 1.30115E+00 1.92712E-01 1.23557E+00-7.41872E-13 9.63118E-14
 -1      2160 3.95602E+01 6.84654E+00 2.48830E-01 6.59309E-01-9.50018E-13-8.37941E-14
 -1      2161 3.80160E+01 6.28302E+00 1.86021E-01 1.72570E+00-9.58456E-13-3.07754E-13
 -1      2162 3.83262E+01 7.24426E+00 1.10485E-01-7.07592E-01-9.16656E-13 1.22319E-13
 -1      2163 3.92765E+01 7.38045E+00 2.37388E-01 3.21626E-01-9.70890E-13-7.13388E-14
 -1      2164 3.55259E+01 4.88739E+00 6.46547E-02-1.73301E+00-7.68968E-13 2.80886E-13
 -1      2165 3.73684E+01 6.00231E+00 1.23723E-01-7.61295E-01-7.81708E-13 1.82493E-13
 -1      2166 3.11070E+01 1.83842E+00 1.36605E-02-4.41261E+00-7.98292E-13 4.76952E-13
 -1      2167 3.50354E+01 3.15603E+00 1.76242E-01-3.53362E+00-7.61821E-13 3.79807E-13
 -1      2168 2.36324E+01-1.65372E+00-1.41197E-01-5.76834E+00-6.13121E-13 5.88529E-13
 -1      2169 2.85862E+01 3.58383E-01 1.93213E-01-5.97853E+00-6.99552E-13 5.28244E-13
 -1      2170 1.48417E+01-4.83365E+00-2.92760E-01-6.31883E+00-3.82583E-13 7.91478E-13
 -1      2171 1.97838E+01-2.92201E+00 2.53946E-02-7.01714E+00-4.85445E-13 6.86562E-13
 -1      2172 7.59384E+00-6.25887E+00-2.73171E-01-5.77554E+00-2.41862E-13 7.98944E-13
 -1      2173 1.11329E+01-4.88263E+00-1.24773E-01-6.66623E+00-4.48419E-13 8.91211E-13
 -1      2174 1.57483E+01-5.47606E+00-4.64166E-02-6.98267E+00-4.82947E-15 6.47302E-13
 -1      2175 1.21194E+00-7.78584E+00-5.23696E-01-2.65309E+00-1.31894E-13 6.28997E-13
 -1      2176 3.35548E+00-6.44134E+00-3.44395E-01-4.34693E+00-1.85796E-13 6.73961E-13
 -1      2177 3.53143E+01 2.14430E+00 2.78857E-01 3.42944E+00 4.75779E-13 6.55698E-13
 -1      2178 3.08340E+01 3.46202E-01-6.25341E-02 3.86895E+00 4.30211E-13 6.93556E-13
 -1      2179 3.04756E+01-1.97235E+00 1.06083E-01 2.05293E+00 1.51643E-13 3.19689E-13
 -1      2180 2.38609E+01-5.02592E+00 3.86603E-02 4.98527E+00 7.81042E-14 3.38340E-13
 -1      2181 2.11060E+01 1.10396E+00-1.88728E-02-1.36275E+00-4.36429E-13 2.66450E-13
 -1      2182 3.46864E+01 2.49204E+00 2.37204E-01 3.20831E-01 4.49515E-13 1.84075E-13
 -1      2183 2.09903E+01 1.33888E+00-1.96151E-02-1.36310E+00-4.73781E-13 2.13995E-14
 -1      2184 6.53847E+00-5.46847E+00-1.38141E-01 5.18153E+00-1.29008E-13 4.39593E-13
 -1      2185 1.97511E+00-4.85828E+00-1.85614E-01 1.71469E+00-1.61440E-13 7.59837E-13
 -1      2186 1.99992E+01-2.87635E-03-1.69229E-05 3.75215E-03-2.36723E-13-1.19713E-14
 -1      2187 1.45532E+01-5.87691E+00-3.99819E-02 6.62292E+00 2.50355E-14 3.15050E-13
 -1      2188 1.87029E+00-5.15845E+00-2.16241E-01-2.41088E+00-2.00673E-14 7.68330E-13
 -1      2189 6.94887E+00-5.62110E+00-1.33600E-01-5.67577E+00-6.72795E-14 7.97307E-13
 -1      2190 1.04764E+01-4.95713E+00-1.18864E-01-6.94216E+00 9.57012E-14 7.35079E-13
 -1      2191 6.71249E+00-4.18469E+00 1.04026E-01-5.68773E+00-4.44089E-16 6.59195E-13
 -1      2192 2.36991E+01-3.89155E+00 4.84547E-02-5.52039E+00-1.97731E-13 2.65010E-13
 -1      2193 3.03627E+01-2.99121E-01 2.04664E-01-2.95532E+00-4.70346E-13 9.72555E-14
 -1      2194 3.31961E+01 3.72222E+00 2.13536E-01-3.15153E-01-6.66300E-13 6.11733E-14
 -1      2195 3.39513E+01 7.12504E+00 1.57557E-01 6.19280E-01-8.88511E-13-2.21489E-14
 -1      2196 3.46624E+01 5.38292E+00 2.46378E-01 1.11950E-01-9.18043E-13-4.90163E-14
 -1      2197 2.74028E+01-2.64287E+00 1.03083E-01 4.09551E+00-4.33847E-13-2.06779E-13
 -1      2198 1.96881E+01-5.00332E+00 1.53859E-02 6.56357E+00-2.75446E-13-5.67685E-13
 -1      2199 1.13697E+01-5.74666E+00-1.10253E-01 6.83518E+00-2.32370E-13-8.11434E-13
 -1      2200 4.42063E+00-5.26816E+00-1.51200E-01 4.61435E+00-9.37028E-14-1.03972E-12
 -1      2201 3.95786E+00-5.03435E+00-1.24283E-01-3.76426E+00-2.60070E-14-1.16829E-12
 -1      2202 1.86724E+01-5.77397E+00 8.78871E-03-6.35549E+00-3.50830E-14-5.18530E-13
 -1      2203 2.72929E+01-3.91218E+00 7.91486E-02-3.70471E+00 2.51077E-13-3.26406E-14
 -1      2204 3.53793E+01 4.91513E+00 8.40193E-02 3.37011E-01 9.23844E-13 2.33147E-13
 -1      2205 3.30487E+01 5.56772E+00-1.72008E-01 1.35062E+00 8.48377E-13 3.51580E-13
 -1      2206 3.24355E+01 3.35037E+00 1.93611E-02 1.53215E+00 8.12045E-13 4.93494E-13
 -1      2207 3.73489E+01 6.68231E+00 3.63784E-01-2.97504E-01 8.71581E-13 1.46660E-13
 -1      2208 3.24014E+01 1.26157E-01 1.46259E-01-3.66951E-01 6.34562E-13 4.10449E-13
 -1      2209 1.53053E+00-4.90749E+00-1.89088E-01 6.85671E-01-1.94289E-14-1.14253E-12
 -1      2210 3.51594E+01 8.07302E+00 2.69370E-01-3.91045E-02-1.02751E-12-3.57353E-14
 -1      2211 2.07257E+01 5.86504E-01 7.82493E-03 2.60461E-01 3.77689E-13 1.84295E-13
 -1      2212 2.08948E+01 7.59254E-01 2.05156E-02 5.85363E-01 4.20296E-13 2.50964E-13
 -1      2213 1.92144E+01 3.80454E+00-1.14521E-02-3.61127E-01-9.67908E-14-6.43379E-13
 -1      2214 1.93150E+01 3.73892E+00-8.11280E-03-5.04564E-01-1.55363E-13-6.36820E-13
 -1      2215 1.94342E+01 3.61005E+00-1.36033E-02-6.29465E-01-2.03520E-13-6.18866E-13
 -1      2216 1.95759E+01 3.50570E+00-1.04674E-02-7.91530E-01-2.57253E-13-5.96682E-13
 -1      2217 1.95120E+01 3.32991E+00 1.22886E-03-4.73183E-01-1.72597E-13-5.76194E-13
 -1      2218 1.90442E+01 3.95646E+00-8.83517E-03 1.02538E-01 8.57074E-14-6.53573E-13
 -1      2219 1.90513E+01 3.95208E+00-7.96104E-03-1.98190E-02 3.78589E-14-6.66972E-13
 -1      2220 1.91067E+01 3.91511E+00-8.38577E-03 3.21989E-01 1.73902E-13-6.39957E-13
 -1      2221 1.90625E+01 3.94190E+00-9.22801E-03 1.98661E-01 1.25292E-13-6.47328E-13
 -1      2222 1.91651E+01 3.65281E+00 1.38040E-03 1.39387E-01 1.00192E-13-6.20535E-13
 -1      2223 1.92686E+01 3.78968E+00-8.76352E-03 5.49903E-01 2.53221E-13-5.99510E-13
 -1      2224 1.91743E+01 3.85009E+00-1.11926E-02 4.19383E-01 1.99896E-13-6.23269E-13
 -1      2225 1.92566E+01 3.57783E+00 1.83599E-03 3.21430E-01 1.83595E-13-5.98350E-13
 -1      2226 1.95340E+01 3.56112E+00-1.07386E-02 8.07453E-01 3.59356E-13-4.92043E-13
 -1      2227 1.93876E+01 3.66649E+00-1.37940E-02 6.58385E-01 2.99950E-13-5.53191E-13
 -1      2228 1.94561E+01 3.40052E+00 2.35614E-03 5.13649E-01 2.74695E-13-5.25402E-13
 -1      2229 1.98999E+01 3.20124E+00-1.56698E-02 1.09299E+00 4.47948E-13-3.80094E-13
 -1      2230 1.97035E+01 3.37073E+00-1.69155E-02 9.26123E-01 3.83186E-13-4.38945E-13
 -1      2231 1.97620E+01 3.10351E+00 3.53411E-03 7.23654E-01 3.59277E-13-4.23850E-13
 -1      2232 2.03645E+01 2.65898E+00-2.57187E-02 1.37962E+00 5.32272E-13-2.16605E-13
 -1      2233 2.01208E+01 2.92884E+00-1.91774E-02 1.20989E+00 4.70935E-13-3.14408E-13
 -1      2234 2.01614E+01 2.66275E+00 6.63992E-03 9.36011E-01 4.32573E-13-3.05288E-13
 -1      2235 2.61827E+01-4.99601E+00-9.97545E-02 3.60855E+00-3.56937E-14 2.46025E-13
 -1      2236 2.22618E+01-5.65246E+00 7.69954E-02 4.98134E+00-1.21902E-13 2.44665E-13
 -1      2237 2.06340E+01 3.87288E-01 9.77282E-03-2.32346E-01 2.84732E-13 1.30688E-13
 -1      2238 2.06709E+01 4.67281E-01 2.01342E-02-2.55618E-02 3.25597E-13 1.79965E-13
 -1      2239 2.07128E+01 7.61225E-01-3.58249E-03 1.87539E-01 3.84030E-13 4.06220E-14
 -1      2240 2.08088E+01 9.09645E-01 1.42733E-02-6.21471E-01-3.97573E-13-9.93574E-14
 -1      2241 2.06649E+01 6.93324E-01-2.06287E-03-2.90037E-01-3.54706E-13-1.17715E-13
 -1      2242 3.34677E+01 2.95621E+00-9.79997E-02-1.06164E+00 4.66627E-13-4.94049E-15
 -1      2243 3.18847E+01 6.54609E-01-7.68982E-02-6.19779E-01 2.76626E-13 7.42739E-14
 -1      2244 2.06443E+01 5.45431E-01 1.62089E-02-3.84646E-02-3.14175E-13-1.08108E-13
 -1      2245 2.05868E+01 4.26831E-01 2.30651E-03 1.62824E-01-2.64789E-13-1.34607E-13
 -1      2246 2.06470E+01 8.43136E-01-2.58762E-03-2.22259E-01-3.57131E-13-1.97621E-13
 -1      2247 2.05821E+01 3.43238E-01 1.12065E-02 3.38302E-01-2.30849E-13-1.17142E-13
 -1      2248 2.05992E+01 2.68905E-01 2.35159E-03 4.65987E-01-1.91822E-13-1.42552E-13
 -1      2249 2.05896E+01 5.24866E-01-5.16022E-03 2.39138E-01-2.64500E-13-1.90413E-13
 -1      2250 2.06292E+01 2.10455E-01 7.25498E-03 5.83924E-01-1.51791E-13-1.41817E-13
 -1      2251 2.07009E+01 1.52072E-01 1.28065E-03 6.60808E-01-1.12325E-13-1.44712E-13
 -1      2252 2.06024E+01 3.26301E-01-5.31008E-03 5.57481E-01-1.93822E-13-1.76698E-13
 -1      2253 2.07676E+01 9.92103E-02 5.11618E-03 7.31234E-01-8.17356E-14-1.52509E-13
 -1      2254 2.08747E+01 4.00721E-02-5.42200E-04 7.64229E-01-5.99667E-14-1.56519E-13
 -1      2255 2.06910E+01 1.70980E-01-4.95895E-03 7.64111E-01-1.18354E-13-2.08228E-13
 -1      2256 2.09772E+01-1.90433E-02 4.23960E-03 7.87734E-01-6.83916E-14-1.54928E-13
 -1      2257 2.11024E+01-8.94105E-02-3.15208E-03 7.74161E-01-7.17715E-14-1.54662E-13
 -1      2258 2.08514E+01 1.60273E-02-4.63321E-03 8.71348E-01-7.24380E-14-2.17107E-13
 -1      2259 2.12392E+01-1.61496E-01 4.09910E-03 7.43678E-01-6.59641E-14-1.65418E-13
 -1      2260 2.13654E+01-2.47526E-01-6.45374E-03 6.75490E-01-8.21995E-14-1.57133E-13
 -1      2261 2.10783E+01-1.64811E-01-4.46439E-03 8.73572E-01-8.34044E-14-2.23452E-13
 -1      2262 2.15323E+01-3.32508E-01 4.14784E-03 5.79285E-01-1.23652E-13-1.36932E-13
 -1      2263 2.16409E+01-4.28982E-01-9.96017E-03 4.48168E-01-1.13134E-13-1.52794E-13
 -1      2264 2.13652E+01-3.81691E-01-4.20748E-03 7.52033E-01-9.44046E-14-1.78002E-13
 -1      2265 2.18266E+01-5.15366E-01 3.57573E-03 2.75559E-01-6.60145E-14-1.64949E-13
 -1      2266 2.18967E+01-6.01384E-01-1.24726E-02 8.09566E-02-2.41907E-14-1.26032E-13
 -1      2267 2.16989E+01-6.19841E-01-3.20368E-03 4.83064E-01-9.36585E-14-1.43661E-13
 -1      2268 2.20750E+01-6.60824E-01 1.32339E-03-1.66662E-01 8.09249E-16-1.20884E-13
 -1      2269 2.20858E+01-6.95805E-01-1.19544E-02-4.05816E-01-4.09395E-15-1.00427E-13
 -1      2270 2.20473E+01-8.25388E-01-4.99328E-04 5.41040E-02-1.17559E-14-1.63144E-13
 -1      2271 2.22107E+01-6.83333E-01-3.60948E-03-6.97451E-01-4.78090E-15-5.24730E-14
 -1      2272 2.21485E+01-6.14804E-01-6.28529E-03-9.30745E-01-2.44145E-14-4.94960E-15
 -1      2273 2.23478E+01-8.96901E-01 4.41314E-03-5.07478E-01 2.58001E-14-8.31504E-14
 -1      2274 2.21656E+01-4.85047E-01-1.04731E-02-1.18956E+00-4.17420E-14 1.82796E-16
 -1      2275 2.20357E+01-2.78065E-01 4.95878E-03-1.33381E+00-7.52813E-14 3.02991E-14
 -1      2276 2.25086E+01-7.09365E-01 9.77437E-03-1.09621E+00-2.20042E-14 1.15240E-15
 -1      2277 2.19156E+01-2.23698E-02-1.59831E-02-1.44013E+00-1.74279E-13 1.40001E-14
 -1      2278 2.17533E+01 2.90687E-01 1.67813E-02-1.40333E+00-2.02830E-13-2.88051E-14
 -1      2279 2.24466E+01-1.84010E-01 1.20599E-02-1.50863E+00-1.18132E-13 3.65566E-15
 -1      2280 2.15480E+01 5.97010E-01-1.43402E-02-1.24840E+00-1.91325E-13-7.46517E-14
 -1      2281 2.14151E+01 8.89360E-01 2.03697E-02-9.90754E-01-2.09465E-13-1.25213E-13
 -1      2282 2.21685E+01 5.82881E-01 4.79880E-03-1.48793E+00-2.12238E-13-9.18319E-15
 -1      2283 2.12593E+01 1.09799E+00-3.12331E-03-5.75699E-01-2.39925E-13-1.87652E-13
 -1      2284 2.12163E+01 1.20977E+00 1.05042E-02-1.65688E-01-2.10414E-13-2.14581E-13
 -1      2285 2.18430E+01 1.28408E+00-8.47676E-03-8.95926E-01-2.96249E-13-9.37776E-14
 -1      2286 2.12307E+01 1.19913E+00 1.13103E-02 3.51403E-01-1.21433E-13-2.96228E-13
 -1      2287 2.13001E+01 1.06399E+00-5.67200E-03 7.53793E-01-7.65412E-14-3.10009E-13
 -1      2288 2.17136E+01 1.55222E+00-1.56591E-02 1.06198E-01-2.06195E-13-2.12832E-13
 -1      2289 2.14809E+01 8.38042E-01 2.02031E-02 1.14826E+00-1.70045E-13-3.34545E-13
 -1      2290 2.16372E+01 5.37529E-01-1.44487E-02 1.38518E+00-1.46055E-13-3.50315E-13
 -1      2291 2.18931E+01 1.23558E+00-6.14029E-03 1.08503E+00-1.66974E-13-3.66949E-13
 -1      2292 2.18467E+01 2.33494E-01 1.56980E-02 1.51186E+00-8.00777E-14-3.97889E-13
 -1      2293 2.20257E+01-6.87404E-02-1.47557E-02 1.53017E+00-9.14225E-14-4.07317E-13
 -1      2294 2.22450E+01 5.07964E-01 6.34789E-03 1.62092E+00-1.47657E-13-3.93079E-13
 -1      2295 2.21400E+01-3.09310E-01 3.61278E-03 1.40769E+00-8.04745E-14-4.15366E-13
 -1      2296 2.22829E+01-4.98080E-01-8.81228E-03 1.25620E+00 3.16405E-14-5.28240E-13
 -1      2297 2.25214E+01-2.34394E-01 1.27905E-02 1.59393E+00-9.81948E-14-3.39085E-13
 -1      2298 2.22612E+01-6.11667E-01-7.27625E-03 9.97042E-01 9.61765E-14-5.03798E-13
 -1      2299 2.23362E+01-6.64672E-01-2.36341E-03 7.67973E-01 6.79957E-14-4.26450E-13
 -1      2300 2.25763E+01-7.16181E-01 9.66031E-03 1.16583E+00 2.36281E-14-4.11176E-13
 -1      2301 2.22125E+01-6.66072E-01-1.24276E-02 4.87605E-01 6.83186E-14-4.08053E-13
 -1      2302 2.22168E+01-6.22826E-01 2.07472E-03 2.60287E-01 9.28569E-14-3.85565E-13
 -1      2303 2.24155E+01-8.66281E-01 3.88433E-03 5.90018E-01 7.40204E-14-3.61228E-13
 -1      2304 2.20453E+01-5.59607E-01-1.25193E-02 2.85325E-02 1.08104E-13-4.34725E-13
 -1      2305 2.19930E+01-4.72810E-01 3.86392E-03-1.52087E-01 1.54073E-13-4.27130E-13
 -1      2306 2.21260E+01-7.74171E-01-5.94907E-04 5.75501E-02 8.55108E-14-4.32602E-13
 -1      2307 2.18160E+01-3.88872E-01-9.88907E-03-3.10500E-01 8.50440E-14-5.09352E-13
 -1      2308 2.17261E+01-2.97670E-01 3.92440E-03-4.30182E-01 2.39908E-14-4.44815E-13
 -1      2309 2.17948E+01-5.67025E-01-2.79308E-03-3.40693E-01 2.24178E-14-5.41644E-13
 -1      2310 2.15658E+01-2.20235E-01-6.46883E-03-5.18510E-01-1.25774E-14-4.49960E-13
 -1      2311 2.14558E+01-1.44856E-01 3.21075E-03-5.81924E-01-3.47351E-14-4.63651E-13
 -1      2312 2.14772E+01-3.42927E-01-3.28395E-03-5.88360E-01-3.04828E-14-5.51819E-13
 -1      2313 2.13198E+01-8.54116E-02-3.35731E-03-6.15219E-01 2.09273E-14-4.23577E-13
 -1      2314 2.12031E+01-3.19536E-02 2.33944E-03-6.35106E-01 3.77674E-14-4.06530E-13
 -1      2315 2.11976E+01-1.54363E-01-2.98089E-03-7.07335E-01 1.95804E-14-4.86099E-13
 -1      2316 2.10912E+01 7.86411E-03-9.70673E-04-6.30483E-01-3.01296E-14-4.47210E-13
 -1      2317 2.09771E+01 4.09299E-02 1.58966E-03-6.20898E-01-8.46592E-14-5.01293E-13
 -1      2318 2.09612E+01-1.84860E-02-2.46662E-03-7.31620E-01-1.42303E-14-5.00771E-13
 -1      2319 2.08863E+01 6.41135E-02 6.43748E-04-5.93208E-01-5.23380E-14-5.10941E-13
 -1      2320 2.07809E+01 8.12625E-02 1.03831E-03-5.66246E-01-7.07993E-14-4.26041E-13
 -1      2321 2.07651E+01 6.71537E-02-1.99569E-03-6.94095E-01-7.54882E-14-4.21063E-13
 -1      2322 2.07075E+01 9.21597E-02 1.60005E-03-5.26767E-01-1.43614E-13-3.81357E-13
 -1      2323 2.06141E+01 9.82335E-02 6.68115E-04-4.91519E-01-1.24263E-13-3.98500E-13
 -1      2324 2.06037E+01 1.12937E-01-1.63395E-03-6.21392E-01-1.20555E-13-2.96984E-13
 -1      2325 2.05549E+01 1.00935E-01 2.05995E-03-4.48045E-01-1.21988E-13-3.30651E-13
 -1      2326 2.04749E+01 1.00033E-01 4.33483E-04-4.10688E-01-4.87989E-14-2.50202E-13
 -1      2327 2.04716E+01 1.30589E-01-1.36925E-03-5.32917E-01-1.00123E-13-2.32765E-13
 -1      2328 2.04275E+01 9.77844E-02 2.17876E-03-3.68165E-01 1.40219E-14-2.98795E-13
 -1      2329 2.03609E+01 9.29698E-02 2.89973E-04-3.32505E-01 9.48139E-14-1.68299E-13
 -1      2330 2.03641E+01 1.30245E-01-1.16988E-03-4.41656E-01-1.21729E-14-4.90007E-14
 -1      2331 2.03232E+01 8.80994E-02 2.08395E-03-2.93750E-01 9.49931E-14-2.64766E-13
 -1      2332 2.02691E+01 8.14743E-02 2.03569E-04-2.61852E-01 1.02429E-13-3.12626E-13
 -1      2333 2.02773E+01 1.19590E-01-1.00865E-03-3.55544E-01-1.14178E-14-1.13238E-13
 -1      2334 2.02393E+01 7.55314E-02 1.87062E-03-2.28210E-01 7.66244E-14-3.16757E-13
 -1      2335 2.01964E+01 6.84364E-02 1.51208E-04-2.00954E-01 6.01690E-14-3.31844E-13
 -1      2336 2.02079E+01 1.03963E-01-8.68722E-04-2.78850E-01 4.75762E-14-1.31425E-13
 -1      2337 2.01732E+01 6.23798E-02 1.60470E-03-1.72803E-01 1.13477E-13-3.42811E-13
 -1      2338 2.01399E+01 5.56031E-02 1.18408E-04-1.50319E-01 2.08208E-13-2.81527E-13
 -1      2339 2.01532E+01 8.68175E-02-7.41935E-04-2.13345E-01 1.03068E-13-3.04144E-13
 -1      2340 2.01221E+01 4.99761E-02 1.32887E-03-1.27456E-01 1.74685E-13-2.00854E-13
 -1      2341 2.00969E+01 4.39292E-02 9.65842E-05-1.09441E-01 9.54336E-14-1.49283E-13
 -1      2342 2.01106E+01 7.02144E-02-6.25551E-04-1.59205E-01 1.94717E-13-2.02830E-13
 -1      2343 2.00834E+01 3.89975E-02 1.06853E-03-9.13434E-02 6.69747E-14-4.00516E-14
 -1      2344 2.00648E+01 3.38486E-02 8.08724E-05-7.72705E-02 1.13020E-13 4.35101E-14
 -1      2345 2.00779E+01 5.52592E-02-5.19443E-04-1.15672E-01 1.61235E-13-5.52679E-14
 -1      2346 2.00548E+01 2.97028E-02 8.37029E-04-6.32764E-02 1.27126E-13 5.19425E-14
 -1      2347 2.00413E+01 2.54714E-02 6.86118E-05-5.25391E-02-5.16093E-14 5.69024E-14
 -1      2348 2.00533E+01 4.24317E-02-4.24301E-04-8.15084E-02 1.65935E-13 1.66154E-14
 -1      2349 2.00340E+01 2.20975E-02 6.39755E-04-4.19568E-02-7.37011E-14 2.36757E-13
 -1      2350 2.00247E+01 1.87192E-02 5.83555E-05-3.39507E-02-2.89874E-14 2.57309E-13
 -1      2351 2.00352E+01 3.18248E-02-3.40695E-04-5.52963E-02 3.54274E-14 2.30095E-13
 -1      2352 2.00195E+01 1.60456E-02 4.77132E-04-2.61265E-02-1.47524E-13 2.72366E-13
 -1      2353 2.00133E+01 1.34136E-02 4.92551E-05-2.02979E-02-8.14826E-14 2.66791E-13
 -1      2354 2.00221E+01 2.33082E-02-2.68709E-04-3.56241E-02-8.72621E-14 5.39920E-13
 -1      2355 2.00097E+01 1.13417E-02 3.46744E-04-1.46515E-02-3.55199E-14 2.03050E-13
 -1      2356 2.00058E+01 9.33269E-03 4.06892E-05-1.05209E-02 5.13501E-14 2.39542E-13
 -1      2357 2.00130E+01 1.66360E-02-2.07911E-04-2.11939E-02-3.65642E-14 3.88067E-13
 -1      2358 2.00035E+01 7.75462E-03 2.44770E-04-6.56096E-03 1.53286E-14 3.04390E-13
 -1      2359 2.00012E+01 6.24323E-03 3.20786E-05-3.73174E-03 4.78256E-15 3.48639E-13
 -1      2360 2.00068E+01 1.15132E-02-1.57460E-04-1.08760E-02 6.34735E-14 2.46428E-13
 -1      2361 1.99998E+01 5.05187E-03 1.66945E-04-1.05985E-03 4.99487E-14 3.22394E-13
 -1      2362 1.99987E+01 3.91825E-03 2.28828E-05 7.80929E-04 1.51431E-13 2.30228E-13
 -1      2363 2.00028E+01 7.63475E-03-1.16254E-04-3.73067E-03 3.74909E-14 1.85679E-13
 -1      2364 1.99979E+01 3.01151E-03 1.09161E-04 2.47413E-03 1.07644E-13 1.12986E-13
 -1      2365 1.99976E+01 2.14289E-03 1.23410E-05 3.56031E-03 9.94205E-14 9.90729E-14
 -1      2366 2.00005E+01 4.70584E-03-8.30807E-05 9.91697E-04-1.73494E-16 1.94743E-13
 -1      2367 1.99972E+01 1.42331E-03 6.76908E-05 4.50053E-03 1.79401E-13 1.90589E-13
 -1      2368 1.99974E+01 7.18641E-04 2.28279E-06 4.99086E-03 1.08102E-13 3.55673E-13
 -1      2369 1.99992E+01 2.44647E-03-5.73325E-05 3.86173E-03 1.32595E-13 3.40161E-13
 -1      2370 1.99973E+01 7.89524E-05 3.44621E-05 5.33634E-03 7.76315E-14 3.59703E-13
 -1      2371 1.99978E+01-5.25154E-04-2.83623E-06 5.31752E-03 1.80110E-13 4.28257E-13
 -1      2372 1.99988E+01 6.13254E-04-3.63422E-05 5.28584E-03 1.03348E-13 2.97152E-13
 -1      2373 2.08984E+01 2.54875E-01 8.26410E-03-8.78096E-01 1.12402E-13 1.88959E-14
 -1      2374 2.07408E+01 2.72683E-01 7.52922E-03-7.53897E-01 1.69055E-13 6.42317E-14
 -1      2375 2.12135E+01 2.25869E-01 7.27859E-03-1.12459E+00 8.99207E-14 1.60831E-15
 -1      2376 2.09890E+01 2.40169E-01 4.52586E-03-1.01704E+00 8.21003E-14 2.23599E-14
 -1      2377 2.08084E+01 3.46658E-01-5.20549E-03-1.07012E+00 1.29086E-13-4.47815E-14
 -1      2378 2.16260E+01 1.81590E-01 5.24742E-03-1.33313E+00 7.38283E-14 3.25896E-14
 -1      2379 2.13481E+01 2.07559E-01 2.96194E-03-1.24492E+00 8.09795E-14 2.60999E-14
 -1      2380 2.10348E+01 2.99557E-01-4.89686E-03-1.35234E+00 8.83939E-14-5.08604E-14
 -1      2381 2.21236E+01 8.75933E-02 1.29882E-03-1.47999E+00 9.18406E-14 2.85533E-14
 -1      2382 2.18064E+01 1.44257E-01 2.50704E-03-1.42781E+00 9.49423E-14 5.27362E-14
 -1      2383 2.13475E+01 2.20792E-01-5.41658E-03-1.58811E+00 7.52444E-14-2.86182E-14
 -1      2384 2.26982E+01-9.88062E-02-5.34710E-03-1.50933E+00 2.37436E-14 5.66383E-14
 -1      2385 2.23604E+01 1.16113E-02 3.30819E-03-1.52638E+00 7.15160E-14 4.99390E-14
 -1      2386 2.17544E+01 5.97678E-02-7.35686E-03-1.74868E+00 5.97756E-14 1.55063E-14
 -1      2387 2.33417E+01-4.16866E-01-1.49220E-02-1.32956E+00 2.98424E-14 8.90507E-14
 -1      2388 2.30120E+01-2.34440E-01 5.63608E-03-1.46494E+00 2.92613E-14 7.79992E-14
 -1      2389 2.22819E+01-2.42309E-01-1.10505E-02-1.76999E+00 3.85208E-14 2.65916E-14
 -1      2390 2.40349E+01-8.60473E-01-2.57986E-02-8.26095E-01-3.50345E-14 6.32333E-14
 -1      2391 2.37573E+01-6.19604E-01 8.75759E-03-1.13159E+00 9.17669E-16 9.37774E-14
 -1      2392 2.29733E+01-7.27359E-01-1.59330E-02-1.54710E+00 2.72686E-14 1.12096E-14
 -1      2393 2.47145E+01-1.29213E+00-3.28976E-02 8.18989E-02 1.05055E-14 1.14175E-13
 -1      2394 2.45542E+01-1.08808E+00 9.91513E-03-4.07112E-01-5.74141E-14 8.23321E-14
 -1      2395 2.38647E+01-1.35066E+00-1.90701E-02-9.45561E-01-5.69445E-14 5.29199E-15
 -1      2396 2.52417E+01-1.34955E+00-2.21187E-02 1.30579E+00 1.18490E-13 1.49400E-13
 -1      2397 2.52546E+01-1.40325E+00-1.32727E-03 7.31243E-01 6.29861E-14 1.53861E-13
 -1      2398 2.49108E+01-1.84555E+00-1.34950E-02 1.32734E-01 1.70003E-16 1.41643E-13
 -1      2399 2.53508E+01-5.99018E-01-5.65621E-03 2.33542E+00 1.87178E-13 1.78328E-13
 -1      2400 2.55612E+01-1.10524E+00-3.30633E-02 1.97774E+00 1.90899E-13 2.22557E-13
 -1      2401 2.58332E+01-1.62834E+00-9.43340E-04 1.56817E+00 1.32493E-13 2.61857E-13
 -1      2402 2.49254E+01 1.00717E+00-4.25579E-03 2.41035E+00 2.97061E-13-1.17328E-14
 -1      2403 2.52932E+01 1.33589E-01-6.75257E-02 2.63614E+00 1.92957E-13 1.63956E-13
 -1      2404 2.62572E+01-4.70006E-01-2.92496E-02 2.63944E+00 2.39734E-13 2.52281E-13
 -1      2405 2.44155E+01 2.34023E+00-4.54433E-02 9.10452E-01 4.71977E-13-1.97080E-13
 -1      2406 2.46429E+01 1.79617E+00-8.44567E-02 1.74006E+00 4.70915E-13-1.16886E-13
 -1      2407 2.59712E+01 1.99478E+00-7.49244E-02 2.39465E+00 4.98643E-13 2.07057E-14
 -1      2408 2.45246E+01 2.14769E+00-7.78287E-02-1.31411E+00 2.11005E-13-3.15713E-13
 -1      2409 2.44196E+01 2.49935E+00-3.19355E-02-3.77945E-01 3.41262E-13-2.38247E-13
 -1      2410 2.57139E+01 3.34990E+00-6.82509E-02 2.68529E-01 4.74704E-13-7.36919E-14
 -1      2411 2.51714E+01 6.20838E-01-7.81696E-02-2.62278E+00-3.83200E-14-3.39935E-13
 -1      2412 2.48171E+01 1.47237E+00-8.44531E-03-2.21969E+00 1.18093E-13-3.11363E-13
 -1      2413 2.59063E+01 2.48417E+00-6.05146E-02-2.02353E+00 1.86282E-13-2.79460E-13
 -1      2414 2.56873E+01-8.40858E-01-2.73414E-02-2.38341E+00-1.82371E-13-3.06164E-13
 -1      2415 2.53426E+01-1.98466E-01-6.57316E-03-2.60993E+00-1.07112E-13-3.37461E-13
 -1      2416 2.63004E+01 3.69023E-01-1.74259E-02-2.92535E+00-6.84869E-14-2.79617E-13
 -1      2417 2.55337E+01-1.36709E+00-4.81432E-04-1.21107E+00-9.53894E-14-2.37823E-13
 -1      2418 2.54153E+01-1.22703E+00-2.24312E-02-1.72218E+00-1.65054E-13-2.96550E-13
 -1      2419 2.61374E+01-1.39746E+00-2.52532E-02-2.13056E+00-1.66967E-13-2.66700E-13
 -1      2420 2.49548E+01-1.18878E+00 1.21651E-02-6.91187E-04 5.79745E-14-1.95483E-13
 -1      2421 2.50358E+01-1.35530E+00-3.40173E-02-5.07499E-01 2.80817E-14-2.43466E-13
 -1      2422 2.52845E+01-1.89842E+00-2.98018E-02-6.70547E-01-4.58193E-14-3.01145E-13
 -1      2423 2.42041E+01-7.33369E-01 1.10741E-02 8.38657E-01-3.95049E-14-1.86174E-13
 -1      2424 2.44246E+01-9.75697E-01-2.77121E-02 4.96369E-01 7.03829E-14-1.41666E-13
 -1      2425 2.42921E+01-1.50790E+00-2.02019E-02 5.52575E-01 3.35860E-14-9.93591E-14
 -1      2426 2.34781E+01-3.14495E-01 6.50336E-03 1.26218E+00-1.93919E-13-1.51763E-13
 -1      2427 2.37694E+01-5.12284E-01-1.71066E-02 1.09448E+00-1.23676E-13-1.94407E-13
 -1      2428 2.33747E+01-8.77686E-01-1.85687E-02 1.27283E+00-7.79658E-14-2.97648E-14
 -1      2429 2.28411E+01-3.31246E-02 3.15963E-03 1.37861E+00-1.88147E-13-1.42517E-13
 -1      2430 2.31517E+01-1.56966E-01-7.38414E-03 1.33888E+00-1.95655E-13-1.51724E-13
 -1      2431 2.26577E+01-3.40165E-01-1.27437E-02 1.57580E+00-1.82546E-13-9.58879E-14
 -1      2432 2.22984E+01 1.19075E-01 1.38642E-03 1.31242E+00-1.34079E-13-9.34834E-14
 -1      2433 2.25974E+01 5.66409E-02-4.82759E-04 1.34819E+00-1.81894E-13-2.61420E-13
 -1      2434 2.21151E+01 6.96432E-03-7.38759E-03 1.60248E+00-1.10319E-13-2.32713E-13
 -1      2435 2.18397E+01 1.82404E-01 6.71826E-04 1.15734E+00-6.47344E-14 2.61191E-14
 -1      2436 2.21101E+01 1.59772E-01 3.52989E-03 1.22893E+00-1.17879E-13-2.47539E-14
 -1      2437 2.16956E+01 1.88293E-01-4.08932E-03 1.47609E+00-1.78340E-13-2.27506E-13
 -1      2438 2.14543E+01 1.94139E-01 4.86181E-04 9.72300E-01-2.52359E-14 7.86222E-14
 -1      2439 2.16887E+01 1.93603E-01 5.41066E-03 1.05478E+00-1.89519E-15 2.72103E-14
 -1      2440 2.13596E+01 2.59047E-01-2.44070E-03 1.28087E+00-6.37650E-14-9.42979E-14
 -1      2441 2.11339E+01 1.80037E-01 4.98668E-04 7.89997E-01 9.12532E-14 1.16733E-13
 -1      2442 2.13305E+01 1.89997E-01 5.92005E-03 8.69773E-01 3.92258E-14 2.08241E-13
 -1      2443 2.10835E+01 2.66854E-01-1.73960E-03 1.06790E+00-5.29042E-14-4.86502E-14
 -1      2444 2.08711E+01 1.55454E-01 5.47701E-04 6.26106E-01 1.85314E-14 3.50634E-13
 -1      2445 2.10317E+01 1.69225E-01 5.65055E-03 6.96903E-01 1.20785E-13 2.28240E-13
 -1      2446 2.08543E+01 2.43809E-01-1.47925E-03 8.64925E-01 3.41638E-14 6.32291E-14
 -1      2447 2.06586E+01 1.28603E-01 5.73844E-04 4.86381E-01-6.33304E-15 1.50842E-13
 -1      2448 2.07870E+01 1.42719E-01 5.00624E-03 5.46122E-01 3.01779E-14 2.94822E-13
 -1      2449 2.06646E+01 2.08814E-01-1.37380E-03 6.84930E-01 7.67799E-14 2.09045E-13
 -1      2450 2.04895E+01 1.03412E-01 5.65328E-04 3.71287E-01 1.21245E-13-8.09062E-14
 -1      2451 2.05902E+01 1.16281E-01 4.23378E-03 4.20073E-01 3.10372E-14 5.19112E-14
 -1      2452 2.05092E+01 1.71881E-01-1.29247E-03 5.32273E-01 1.32258E-13 3.91853E-14
 -1      2453 2.03570E+01 8.14539E-02 5.28308E-04 2.78767E-01-2.26748E-14 5.05604E-14
 -1      2454 2.04347E+01 9.24955E-02 3.46855E-03 3.17688E-01 4.60741E-14 4.25349E-15
 -1      2455 2.03837E+01 1.37730E-01-1.19127E-03 4.06682E-01-9.25545E-15-1.16514E-13
 -1      2456 2.02549E+01 6.31041E-02 4.73359E-04 2.05786E-01 9.71675E-14 2.16550E-14
 -1      2457 2.03138E+01 7.22402E-02 2.77580E-03 2.36276E-01 4.58466E-15 1.74637E-14
 -1      2458 2.02839E+01 1.08186E-01-1.06593E-03 3.05661E-01-1.00081E-14 2.45840E-13
 -1      2459 2.01774E+01 4.81793E-02 4.10171E-04 1.49124E-01 1.64746E-13 2.80853E-13
 -1      2460 2.02214E+01 5.55581E-02 2.18027E-03 1.72643E-01 1.34506E-13 1.68424E-13
 -1      2461 2.02058E+01 8.36093E-02-9.26113E-04 2.25860E-01 6.51325E-14 2.57957E-13
 -1      2462 2.01198E+01 3.62731E-02 3.45952E-04 1.05765E-01 2.87127E-13 2.66402E-13
 -1      2463 2.01519E+01 4.21268E-02 1.68507E-03 1.23650E-01 2.52755E-13 2.76963E-13
 -1      2464 2.01458E+01 6.36830E-02-7.83516E-04 1.63800E-01 1.62985E-13 2.55104E-13
 -1      2465 2.00777E+01 2.69205E-02 2.85374E-04 7.30541E-02 3.43577E-13 2.37549E-13
 -1      2466 2.01007E+01 3.14961E-02 1.28284E-03 8.64622E-02 4.24144E-13 3.22926E-13
 -1      2467 2.01004E+01 4.78272E-02-6.47457E-04 1.16232E-01 3.38436E-13 3.20680E-13
 -1      2468 2.00476E+01 1.96736E-02 2.31025E-04 4.87335E-02-1.66378E-13 2.18843E-13
 -1      2469 2.00637E+01 2.32023E-02 9.61998E-04 5.86375E-02 5.27880E-14 3.37981E-13
 -1      2470 2.00669E+01 3.54006E-02-5.23886E-04 8.02910E-02 2.67960E-13 5.09959E-13
 -1      2471 2.00267E+01 1.41308E-02 1.83965E-04 3.09345E-02-3.21357E-13 2.33715E-13
 -1      2472 2.00376E+01 1.68168E-02 7.09927E-04 3.81325E-02-1.81649E-13 1.88406E-13
 -1      2473 2.00426E+01 2.57930E-02-4.15783E-04 5.35348E-02-1.65133E-13 6.17166E-13
 -1      2474 2.00128E+01 9.94569E-03 1.44192E-04 1.81380E-02-1.67268E-13 6.93478E-14
 -1      2475 2.00198E+01 1.19637E-02 5.14596E-04 2.32730E-02-3.87616E-13 1.11258E-13
 -1      2476 2.00254E+01 1.84609E-02-3.23934E-04 3.39329E-02-2.76216E-13 4.06218E-13
 -1      2477 2.00039E+01 6.82454E-03 1.10992E-04 9.13031E-03 2.48292E-14 2.00589E-13
 -1      2478 2.00081E+01 8.32212E-03 3.65213E-04 1.27120E-02-3.30207E-14 8.29798E-14
 -1      2479 2.00137E+01 1.29362E-02-2.47688E-04 1.98302E-02-1.09841E-13 2.81279E-13
 -1      2480 1.99987E+01 4.52008E-03 8.31458E-05 2.96043E-03 2.52688E-14 2.96592E-13
 -1      2481 2.00010E+01 5.62117E-03 2.52434E-04 5.38465E-03 5.31796E-14 2.71572E-13
 -1      2482 2.00060E+01 8.82272E-03-1.85590E-04 9.90247E-03-7.47101E-14 2.99200E-13
 -1      2483 1.99961E+01 2.82300E-03 5.89396E-05-1.09914E-03 1.12113E-13 3.04747E-13
 -1      2484 1.99970E+01 3.63269E-03 1.68345E-04 4.66623E-04 1.07059E-13 3.01515E-13
 -1      2485 2.00013E+01 5.78617E-03-1.35851E-04 3.11120E-03 1.23169E-13 2.36230E-13
 -1      2486 1.99953E+01 1.55687E-03 3.92075E-05-3.58296E-03 4.65878E-13 1.89564E-14
 -1      2487 1.99953E+01 2.16246E-03 1.06251E-04-2.66076E-03 3.28988E-13 1.31093E-13
 -1      2488 1.99987E+01 3.54337E-03-9.63210E-05-1.33661E-03 3.35985E-13 2.11701E-13
 -1      2489 1.99956E+01 5.51611E-04 2.23092E-05-4.86838E-03 2.19694E-14-4.01489E-14
 -1      2490 1.99950E+01 1.03322E-03 5.73695E-05-4.45138E-03 1.32287E-13-2.61032E-15
 -1      2491 1.99976E+01 1.86524E-03-6.38642E-05-4.02179E-03 2.69772E-13 2.83773E-13
 -1      2492 1.99965E+01-3.39285E-04 3.03981E-06-5.17200E-03-2.21484E-13 3.45395E-13
 -1      2493 1.99956E+01 9.37312E-05 2.44132E-05-5.18095E-03-9.73056E-14 1.71511E-13
 -1      2494 1.99974E+01 4.55708E-04-4.79555E-05-5.38475E-03-2.27755E-13 5.05188E-13
 -1      2495 1.99976E+01-1.21381E-03-1.83893E-05-4.62826E-03-8.19687E-14 5.57508E-13
 -1      2496 1.99967E+01-7.54123E-04 1.32408E-05-5.00475E-03-1.09300E-13 5.68599E-13
 -1      2497 1.99978E+01-8.15756E-04-3.07574E-05-5.64125E-03-2.07649E-13 7.66330E-13
 -1      2498 1.99981E+01-1.67204E-03-4.37553E-07-4.00153E-03-5.40922E-14 5.26908E-13
 -1      2499 2.00014E+01-4.68385E-03 5.44561E-06-3.24201E-03 6.46294E-14 3.77830E-13
 -1      2500 2.00012E+01-4.26961E-03 1.57636E-05-3.76130E-03 1.37872E-16-1.48621E-13
 -1      2501 2.00015E+01-4.93331E-03 5.71455E-06-2.05058E-03-2.00458E-13 2.69279E-13
 -1      2502 2.00015E+01-4.65584E-03 2.15206E-05-2.62927E-03-9.70526E-14 4.86471E-13
 -1      2503 2.00019E+01-2.49100E-03 2.71700E-06-3.07569E-03 1.52120E-13 3.41706E-13
 -1      2504 2.00003E+01-3.52236E-03 8.48976E-06-4.99932E-03-2.25635E-14-2.27099E-14
 -1      2505 1.99998E+01-2.86017E-03-8.28810E-06-5.10061E-03-1.00173E-13 6.98975E-14
 -1      2506 2.00010E+01-4.21552E-03 8.69832E-06-4.28250E-03-5.22988E-14-6.21147E-13
 -1      2507 2.00007E+01-3.69132E-03 5.26567E-06-4.64993E-03 8.96084E-15-4.65457E-13
 -1      2508 2.00008E+01-2.32023E-03-1.10651E-05-5.16765E-03-3.14495E-14-2.29545E-13
 -1      2509 2.00015E+01-2.47936E-03-3.47640E-06-4.25861E-03 1.99581E-13-2.95275E-13
 -1      2510 2.00015E+01-5.01554E-03 8.80953E-06-8.30507E-04-2.56938E-13 1.65572E-13
 -1      2511 2.00015E+01-4.88414E-03 1.96220E-05-1.42293E-03-2.61177E-13 2.13428E-13
 -1      2512 2.00020E+01-2.41201E-03 7.37772E-06-1.80417E-03-1.29587E-13 1.31280E-13
 -1      2513 2.00015E+01-4.97043E-03 1.35917E-05 3.77595E-04-1.76184E-13 2.70697E-14
 -1      2514 2.00015E+01-4.98385E-03 1.48352E-05-2.10925E-04-1.85148E-13 1.76920E-13
 -1      2515 2.00021E+01-2.33450E-03 1.00880E-05-5.32228E-04-1.33635E-13 2.33172E-13
 -1      2516 2.00015E+01-4.81660E-03 1.80441E-05 1.56730E-03-1.86042E-13-2.84973E-13
 -1      2517 2.00015E+01-4.97207E-03 9.40402E-06 9.88695E-04-2.44490E-13-7.04710E-14
 -1      2518 2.00020E+01-2.30609E-03 1.02041E-05 7.19663E-04-9.21702E-14 2.76433E-14
 -1      2519 2.00014E+01-4.55071E-03 1.94323E-05 2.70631E-03 1.10446E-13-3.47099E-13
 -1      2520 2.00014E+01-4.84102E-03 5.28934E-06 2.16182E-03-5.87762E-14-3.23200E-13
 -1      2521 2.00020E+01-2.33077E-03 7.94659E-06 1.94714E-03-7.14083E-14-2.20809E-13
 -1      2522 2.00012E+01-4.13944E-03 1.53150E-05 3.77466E-03 2.91741E-13 8.88695E-14
 -1      2523 2.00013E+01-4.56232E-03 4.06706E-06 3.28540E-03 1.92402E-13-4.07013E-13
 -1      2524 2.00018E+01-2.36952E-03 3.25021E-06 3.14855E-03 1.58464E-13-2.57076E-13
 -1      2525 2.00007E+01-3.56065E-03 2.05919E-06 4.61587E-03 1.26046E-13 4.86481E-14
 -1      2526 2.00010E+01-4.08730E-03 7.25796E-06 4.26885E-03 2.25645E-13 1.73216E-13
 -1      2527 2.00014E+01-2.33748E-03 2.88197E-06 4.26457E-03 2.35319E-13-3.99182E-14
 -1      2528 1.99998E+01-2.76797E-03-1.02971E-05 5.00251E-03-7.25053E-14 2.26060E-13
 -1      2529 2.00003E+01-3.38950E-03 6.91996E-06 4.92776E-03 2.85698E-14 2.06610E-13
 -1      2530 2.00007E+01-2.17482E-03-8.66980E-06 5.08702E-03 2.11065E-13-5.86764E-14
 -1      2531 3.95915E+00-2.96340E+00 4.88735E-02 2.67948E+00-1.54890E-13 6.61304E-13
 -1      2532 2.94802E+00-3.03893E+00 6.03710E-02 4.82344E-01-1.51886E-13 6.52312E-13
 -1      2533 1.73117E+01-5.65590E+00-7.35778E-02 6.58974E+00-8.60978E-14 1.57596E-13
 -1      2534 1.34809E+01-5.37260E+00 6.19368E-02 6.44881E+00-1.12188E-13 2.54019E-13
 -1      2535 2.06979E+01 2.97395E-01 8.99861E-03-5.90505E-01 2.05175E-13 6.77787E-14
 -1      2536 2.06245E+01 3.34288E-01 1.27096E-02-4.39175E-01 2.45298E-13 1.19266E-13
 -1      2537 2.06731E+01 4.04094E-01-5.66365E-03-7.41395E-01 2.21155E-13-1.57322E-14
 -1      2538 1.99988E+01-2.35882E-03 6.07031E-06 4.47906E-03-5.77346E-14 8.75761E-14
 -1      2539 2.77908E+00-3.23095E+00 3.14301E-02-1.38906E+00-7.41074E-15 6.51590E-13
 -1      2540 3.87561E+00-3.35954E+00 3.34083E-02-3.48540E+00 4.33542E-14 6.94500E-13
 -1      2541 4.62081E+00-1.81268E+00 1.55082E-01-4.75272E-01-8.73399E-14 5.76317E-13
 -1      2542 9.53750E+00-4.56228E+00 2.61197E-03 6.17377E+00-9.49796E-14 3.25850E-13
 -1      2543 6.44778E+00-3.72073E+00 9.00462E-02 4.64766E+00-2.44083E-13 5.17919E-13
 -1      2544 1.28850E+01-4.22907E+00 1.45898E-01 6.17530E+00-1.20792E-13 2.72504E-13
 -1      2545 2.08436E+01 1.98246E+00-1.18627E-02-1.55345E+00-4.74629E-13-1.68721E-13
 -1      2546 2.07722E+01 1.25211E+00-6.95117E-03-9.29649E-01-4.43036E-13-1.28550E-13
 -1      2547 2.06914E+01 1.45224E+00 6.02781E-03-8.26432E-01-4.24858E-13-2.21632E-13
 -1      2548 2.05359E+01 2.44381E+00-7.83774E-04-1.47073E+00-4.62899E-13-3.20166E-13
 -1      2549 2.23779E+01-4.94401E+00 1.29872E-02-5.35412E+00 6.43929E-14 1.03195E-13
 -1      2550 2.60293E+01-3.84963E+00-6.92636E-02-4.29148E+00-8.49043E-14 6.79734E-14
 -1      2551 2.84362E+01-2.72746E+00-1.27714E-01 2.43971E+00-2.55816E-13 2.62623E-13
 -1      2552 2.55209E+01-4.24834E+00 1.45725E-02 4.04067E+00-1.16435E-13-2.03726E-14
 -1      2553 1.73972E+01-5.66928E+00 7.02812E-02-6.35988E+00-2.73365E-13-4.10894E-13
 -1      2554 2.16906E+01-5.75324E+00-7.46363E-02-5.73844E+00-1.60372E-13-1.49228E-13
 -1      2555 1.90821E+01 3.91858E+00-9.89371E-03-1.20373E-01 1.63511E-15-6.59471E-13
 -1      2556 1.91379E+01 3.88453E+00-7.48925E-03-2.49879E-01-5.26047E-14-6.50631E-13
 -1      2557 1.92995E+01 3.52721E+00 9.08268E-04-2.48431E-01-7.81507E-14-5.99229E-13
 -1      2558 1.91809E+01 3.63463E+00 1.04497E-03-4.68278E-02 7.32560E-15-6.21753E-13
 -1      2559 3.38545E+01 6.50547E+00-1.30306E-01-9.53296E-01 8.36720E-13 7.02077E-14
 -1      2560 3.35140E+01 5.17915E+00-8.42091E-02-1.30152E+00 6.87228E-13 2.49800E-15
 -1      2561 3.03328E+01-1.79066E+00-1.03605E-02 4.74039E-02 3.25136E-13 5.62411E-13
 -1      2562 3.11931E+01 2.79677E-01-1.65368E-01 1.17228E+00 5.61023E-13 6.37213E-13
 -1      2563 3.31685E+01 7.08150E+00-1.25621E-01 5.35711E-01 9.30922E-13 1.67213E-13
 -1      2564 3.39378E+01 7.19828E+00-8.30982E-02-2.56714E-01 9.48963E-13 1.72196E-13
 -1      2565 3.38269E+00-2.82009E+00 7.72530E-02 1.78158E+00-9.13158E-15-1.08630E-12
 -1      2566 3.10884E+00-2.83866E+00 6.44542E-02-5.09188E-01 4.91412E-14-1.10922E-12
 -1      2567 2.56225E+01-5.05917E+00 5.37820E-02-3.72303E+00-4.67404E-14 1.12188E-13
 -1      2568 2.84963E+01-3.93444E+00-1.56633E-01-2.19241E+00 1.70017E-13 4.02844E-13
 -1      2569 1.03606E+01-4.34681E+00 1.14650E-01-6.08040E+00-2.58765E-13-7.99000E-13
 -1      2570 1.33802E+01-4.97876E+00 1.19191E-02-6.82928E+00-2.49717E-13-6.33715E-13
 -1      2571 3.15272E+01 7.51328E+00-1.79172E-01-1.42894E-01-9.62508E-13 1.41710E-14
 -1      2572 3.19795E+01 7.01607E+00-1.16516E-01-6.39745E-01-9.29423E-13 8.99281E-15
 -1      2573 4.17355E+00-3.19999E+00 8.73007E-02-2.68002E+00-1.31728E-13-1.10062E-12
 -1      2574 6.68618E+00-3.51960E+00 4.76158E-02-4.92315E+00-1.61954E-13-1.00825E-12
 -1      2575 5.66255E+00-1.72731E+00 1.81243E-01-1.67289E+00-6.79595E-14-1.05183E-12
 -1      2576 7.00283E+00-4.12895E+00 2.61862E-03 5.84351E+00 3.05866E-14-8.97865E-13
 -1      2577 4.56088E+00-3.61626E+00 6.01494E-02 3.91963E+00 8.97338E-14-9.91818E-13
 -1      2578 1.53130E+01-5.14895E+00 3.43349E-02 7.26836E+00 1.79301E-14-4.90809E-13
 -1      2579 1.14502E+01-4.76299E+00 9.85705E-02 6.70896E+00 1.28841E-13-6.15313E-13
 -1      2580 2.23425E+01-5.13734E+00-4.62867E-02 5.86056E+00-1.61537E-14-2.20129E-13
 -1      2581 1.87957E+01-5.51964E+00 5.81323E-03 6.43801E+00 2.47025E-14-3.21174E-13
 -1      2582 1.84331E+01-5.22771E+00 7.72894E-02 6.45072E+00 2.71810E-13-1.93200E-13
 -1      2583 2.46690E+01-4.96674E+00 5.03809E-02 4.26556E+00 1.54501E-13 1.10648E-13
 -1      2584 3.11268E+01 1.29958E+00-1.35416E-01-9.55695E-02-6.25361E-13 2.77056E-13
 -1      2585 3.00879E+01-3.64809E-01-3.17070E-02 4.58057E-01-4.30260E-13 3.26850E-13
 -1      2586 3.21330E+01 5.58706E+00-1.51670E-01-8.81283E-01-8.25451E-13 9.03444E-14
 -1      2587 3.15131E+01 3.65520E+00-1.12477E-01-7.72671E-01-7.08267E-13 1.49908E-13
 -1      2588 3.06519E+01 5.92633E+00-1.66646E-01 1.14576E+00-8.51152E-13-1.08080E-13
 -1      2589 3.14480E+01 7.18674E+00-1.35907E-01 5.64259E-01-1.00742E-12-1.19099E-13
 -1      2590 3.09668E+01 1.22317E+00-5.85697E-02 1.66847E-01-5.49685E-13 2.49800E-15
 -1      2591 3.07348E+01 3.15483E+00-2.04282E-01 1.29941E+00-6.17006E-13-1.21791E-13
 -1      2592 2.83498E+01-2.30276E+00-3.13863E-02-2.17256E+00-2.30760E-13-2.06501E-14
 -1      2593 3.01908E+01-5.97104E-01-1.25667E-01-1.06432E+00-3.98324E-13 1.75138E-14
 -1      2594 2.94601E+01-3.74320E-01 1.68537E-04 5.48494E-01-3.17787E-13-6.88616E-14
 -1      2595 1.52737E+01-5.23049E+00 9.10627E-02-6.84823E+00 2.48579E-13 5.30284E-13
 -1      2596 1.86551E+01-5.34448E+00-2.88444E-02-6.81695E+00 1.64369E-13 2.62767E-13
 -1      2597 3.07871E+01-1.82576E+00-1.12000E-01 5.77483E-01 9.52363E-14 4.89608E-14
 -1      2598 2.89473E+01-3.26978E+00-1.45156E-02 1.41075E+00 5.75928E-14 7.05824E-14
 -1      2599 2.09433E+01 9.14374E-01-3.27601E-03 8.79336E-01 4.69399E-13 2.77838E-13
 -1      2600 2.12169E+01 1.27673E+00-4.70264E-03 1.39915E+00 5.00242E-13 3.28810E-13
 -1      2601 2.10006E+01 1.74242E+00-1.55152E-02 1.56215E+00 5.36567E-13 1.64833E-13
 -1      2602 2.08607E+01 1.13280E+00-9.68007E-03 8.15472E-01 4.81540E-13 7.65897E-14
 -1      2603 3.16502E+01 3.64766E+00-3.71989E-02-2.04443E+00 4.48558E-13-1.96676E-13
 -1      2604 1.98085E+01 3.03018E+00 1.68695E-03-7.17230E-01-2.66394E-13-5.41278E-13
 -1      2605 1.97356E+01 3.31722E+00-1.72698E-02-9.26466E-01-2.92217E-13-5.75109E-13
 -1      2606 1.99200E+01 3.14774E+00-1.73076E-02-1.10564E+00-3.51912E-13-5.36144E-13
 -1      2607 2.09461E+01-5.45545E+00 1.07538E-01 5.30683E+00-2.09971E-13 2.30954E-13
 -1      2608 2.74865E+01-4.51341E+00-1.15009E-02 1.84116E+00-1.01863E-13 5.11813E-14
 -1      2609 2.07239E+01 2.17029E+00-1.27892E-02 1.48921E+00 5.30604E-13-3.44724E-14
 -1      2610 2.16444E+01-5.27942E+00 4.39790E-02-5.52682E+00 2.77556E-13 3.44516E-14
 -1      2611 3.07496E+01-7.23196E-01-3.35144E-02-1.15621E+00 1.03278E-13-1.36363E-13
 -1      2612 2.72915E+01-3.55088E+00 2.19784E-02-2.37369E+00-1.17822E-14-2.56739E-14
 -1      2613 6.52460E+00-1.77871E+00 1.43523E-01-3.75197E+00 8.32390E-14 7.03382E-13
 -1      2614 6.37679E+00-3.18588E+00 1.21622E-01-4.69310E+00 3.63320E-14 6.10817E-13
 -1      2615 8.93591E+00-2.98849E+00 2.95502E-02-5.69639E+00 6.10068E-14 6.32744E-13
 -1      2616 1.99985E+01-1.92197E-03-2.01371E-05-4.83506E-03-1.52777E-13 7.49454E-13
 -1      2617 1.99990E+01-2.40298E-03 5.18686E-06-5.07478E-03-5.63717E-14 5.32269E-13
 -1      2618 2.99234E+01 4.18419E+00-1.31840E-01 1.62293E+00-6.75404E-13-1.80328E-13
 -1      2619 2.81997E+01 4.87769E+00-1.53688E-01 1.79309E+00-7.57172E-13-2.16938E-13
 -1      2620 2.86087E+01 2.42879E+00-8.58888E-02 1.81755E+00-5.26371E-13-2.09971E-13
 -1      2621 6.86578E+00-2.40886E+00 1.61260E-01 3.65790E+00-2.06474E-13 5.12479E-13
 -1      2622 3.00550E+01 2.24801E+00-5.45274E-02-1.35806E+00-4.94660E-13 3.53578E-13
 -1      2623 2.06405E+01 5.17806E-01-5.22000E-03-3.40009E-01 3.02987E-13 1.09574E-14
 -1      2624 1.70680E+01-4.92672E+00 1.35362E-01-6.22047E+00-4.05564E-13-3.72952E-13
 -1      2625 2.02953E+01 2.68984E+00-9.10576E-03-1.30425E+00-4.17140E-13-4.21689E-13
 -1      2626 2.87344E+01-2.15936E+00-1.98459E-02 8.52832E-01-1.85966E-13 4.19526E-13
 -1      2627 2.93706E+01 6.90418E+00-1.05878E-01 2.85023E-01-9.03971E-13-4.11893E-14
 -1      2628 9.98248E+00-3.09011E+00 1.59111E-01-5.35483E+00-3.19078E-13-8.48710E-13
 -1      2629 2.42481E+01-5.45291E+00 7.79684E-02-4.14751E+00-2.65454E-13 1.25469E-13
 -1      2630 5.73134E+00-2.11758E+00 1.60190E-01 2.88628E+00 1.38251E-13-1.01569E-12
 -1      2631 3.14103E+01 5.73410E+00-7.81599E-02 1.23593E+00 8.33805E-13 2.78916E-13
 -1      2632 3.10712E+01 1.14636E+00-1.12638E-01 1.93446E+00 5.90764E-13 5.32963E-13
 -1      2633 2.97840E+01 2.28267E+00-2.27422E-01 2.53800E+00 6.20504E-13 5.20486E-13
 -1      2634 2.96870E+01-1.86258E-01 4.04880E-02 2.17707E+00 3.91007E-13 6.60555E-13
 -1      2635 2.89705E+01-3.21508E+00-1.58694E-02-4.45431E-01 1.15102E-13 6.21836E-13
 -1      2636 3.13940E+01 6.38001E+00-6.36367E-02-9.01364E-01 7.76101E-13 3.76227E-14
 -1      2637 2.99233E+01 5.82651E+00-7.61147E-02-1.22288E+00-7.80098E-13 1.80106E-13
 -1      2638 1.11332E+01-3.70297E+00 1.49823E-01 6.31306E+00 2.50494E-13-6.94778E-13
 -1      2639 1.99983E+01-1.42651E-03-1.57482E-05 4.86253E-03 5.00409E-14 2.92313E-13
 -1      2640 1.99993E+01-2.39193E-03-6.45360E-06 5.15249E-03-7.09014E-14 2.32284E-13
 -1      2641 1.99995E+01-1.61765E-03 1.20578E-05 5.46649E-03 8.60697E-14 3.14229E-13
 -1      2642 1.99978E+01-9.44504E-04 8.92390E-06 5.25650E-03 1.17216E-13 4.07811E-13
 -1      2643 1.40139E+01-4.57733E+00 1.25072E-01-6.90070E+00 2.34451E-13 5.01155E-13
 -1      2644 2.07048E+01 1.91222E+00 1.18340E-02 1.13497E+00 4.98925E-13-7.14758E-14
 -1      2645 1.99992E+01-1.74184E-03 9.76900E-06-5.53535E-03-9.43020E-14 3.93170E-13
 -1      2646 1.99987E+01-8.26477E-04-2.93905E-05 5.58769E-03 1.39770E-13 3.19125E-13
 -1      2647 1.93382E+01 3.24627E+00-5.72560E-03 3.02602E-01 1.98140E-13-5.48509E-13
 -1      2648 1.92650E+01 3.30869E+00-6.27865E-03 2.18887E-01 1.58094E-13-5.66624E-13
 -1      2649 1.92194E+01 3.35194E+00-5.84390E-03 1.68106E-01 1.23570E-13-5.83499E-13
 -1      2650 1.92028E+01 3.36721E+00-5.05414E-03 8.42164E-02 7.19247E-14-5.86935E-13
 -1      2651 1.93195E+01 3.06869E+00 5.84401E-03 1.56743E-01 1.33620E-13-5.45309E-13
 -1      2652 1.98968E+01 2.66421E+00-8.94869E-03 5.97271E-01 3.59849E-13-3.77822E-13
 -1      2653 1.97212E+01 2.85003E+00-9.03711E-03 5.03180E-01 3.19177E-13-4.20694E-13
 -1      2654 2.03073E+01 2.14746E+00-8.47212E-03 7.35653E-01 4.28905E-13-2.48425E-13
 -1      2655 2.00959E+01 2.42417E+00-7.43204E-03 6.54276E-01 3.72619E-13-3.09367E-13
 -1      2656 2.00791E+01 2.24764E+00 7.64086E-03 4.21316E-01 3.34586E-13-3.09173E-13
 -1      2657 2.00005E+01-9.06826E-04-1.02970E-05-5.51657E-03-1.78726E-13-8.40983E-14
 -1      2658 1.99994E+01-6.93709E-04-2.16476E-06-5.52813E-03-1.61956E-13 3.00986E-13
 -1      2659 1.99993E+01 1.35451E-04 2.26524E-05-5.58728E-03-3.31815E-13 3.26864E-13
 -1      2660 2.06315E+01 1.63583E+00-6.16879E-04 7.99679E-01 4.62244E-13-1.07522E-13
 -1      2661 2.59297E+01-4.43172E+00 5.72335E-02-2.81475E+00 1.37744E-13-5.62744E-14
 -1      2662 2.73848E+01-3.31846E+00-1.37851E-01-1.13819E+00 3.78139E-14-7.36633E-14
 -1      2663 2.05690E+01 7.78168E-01 7.86100E-03 1.30588E-01-2.70547E-13-2.42315E-13
 -1      2664 2.05462E+01 6.30535E-01-1.23429E-03 3.31869E-01-2.32579E-13-2.39404E-13
 -1      2665 2.05582E+01 5.12269E-01 7.02347E-03 5.02597E-01-1.93128E-13-2.22147E-13
 -1      2666 2.05732E+01 4.03968E-01-3.18189E-04 6.40420E-01-1.55359E-13-2.32970E-13
 -1      2667 2.04802E+01 7.16388E-01-3.09186E-03 4.19358E-01-2.08647E-13-2.69243E-13
 -1      2668 2.06046E+01 3.09338E-01 5.89770E-03 7.63588E-01-1.30670E-13-2.08460E-13
 -1      2669 2.06579E+01 2.12050E-01-2.09457E-04 8.49491E-01-8.94543E-14-2.31003E-13
 -1      2670 2.05045E+01 4.52205E-01-4.24360E-03 7.29888E-01-1.40454E-13-2.29000E-13
 -1      2671 2.07220E+01 1.17223E-01 5.71884E-03 9.27872E-01-5.94278E-14-2.31057E-13
 -1      2672 2.08100E+01 1.05607E-02-9.71577E-04 9.63764E-01-6.37307E-14-2.29350E-13
 -1      2673 2.05832E+01 2.15291E-01-5.16084E-03 9.46851E-01-8.86386E-14-2.45482E-13
 -1      2674 2.09189E+01-1.00341E-01 6.54921E-03 9.93579E-01-6.52336E-14-2.17511E-13
 -1      2675 2.10372E+01-2.29851E-01-2.64955E-03 9.73563E-01-7.78074E-14-2.25126E-13
 -1      2676 2.07370E+01-4.15393E-02-6.34008E-03 1.07067E+00-7.02440E-14-2.48004E-13
 -1      2677 2.12027E+01-3.64944E-01 8.12407E-03 9.43394E-01-5.75947E-14-1.93897E-13
 -1      2678 2.13456E+01-5.20626E-01-5.28191E-03 8.56319E-01-7.06755E-14-1.71367E-13
 -1      2679 2.09867E+01-3.49626E-01-7.87798E-03 1.08759E+00-5.96541E-14-2.38411E-13
 -1      2680 2.15761E+01-6.74942E-01 9.81837E-03 7.47968E-01-9.77696E-14-1.21441E-13
 -1      2681 2.17323E+01-8.41676E-01-8.61444E-03 5.82315E-01-6.58386E-14-1.27896E-13
 -1      2682 2.13521E+01-7.16482E-01-9.29786E-03 9.68728E-01-7.29582E-14-1.11675E-13
 -1      2683 2.20219E+01-9.87512E-01 1.01464E-02 3.75756E-01-4.41274E-14-1.30914E-13
 -1      2684 2.21699E+01-1.11966E+00-1.14677E-02 1.29368E-01-8.90824E-15-1.56389E-13
 -1      2685 2.18400E+01-1.10591E+00-9.23609E-03 6.73906E-01-4.56185E-14-7.13765E-14
 -1      2686 2.24821E+01-1.19614E+00 6.78565E-03-1.82281E-01 3.40179E-14-1.15756E-13
 -1      2687 2.25886E+01-1.21072E+00-1.10846E-02-4.84647E-01 1.76244E-14-9.47715E-14
 -1      2688 2.24201E+01-1.41002E+00-5.63072E-03 1.68323E-01-2.50060E-15-1.24307E-13
 -1      2689 2.28413E+01-1.12751E+00-3.21632E-03-8.62444E-01 7.55196E-15-7.87105E-14
 -1      2690 2.28707E+01-9.27500E-01-4.93574E-03-1.14738E+00-2.73795E-14-6.39033E-14
 -1      2691 2.29915E+01-1.43184E+00 2.63033E-03-5.32093E-01-1.02576E-15-1.21769E-13
 -1      2692 2.29628E+01-6.09575E-01-1.84161E-02-1.47508E+00-4.36549E-14-7.78717E-14
 -1      2693 2.29010E+01-1.48558E-01 8.63673E-03-1.62007E+00-1.24392E-13-4.36519E-14
 -1      2694 2.33815E+01-9.56464E-01 8.82153E-03-1.28186E+00-4.34826E-14-6.10057E-14
 -1      2695 2.27678E+01 3.89297E-01-3.13052E-02-1.69552E+00-1.88912E-13-4.98304E-14
 -1      2696 2.26561E+01 9.83445E-01 1.93145E-02-1.56127E+00-2.44653E-13-4.24929E-14
 -1      2697 2.34199E+01 1.31285E-01 1.12299E-02-1.76384E+00-1.40544E-13-5.91489E-14
 -1      2698 2.24150E+01 1.51584E+00-2.93790E-02-1.23436E+00-3.06599E-13-4.78116E-14
 -1      2699 2.23289E+01 1.93745E+00 1.11181E-02-8.02901E-01-3.05087E-13-4.97276E-14
 -1      2700 2.31283E+01 1.51461E+00-1.31178E-03-1.55808E+00-2.74340E-13-1.09419E-13
 -1      2701 2.22228E+01 2.14562E+00-1.05700E-02-1.64067E-01-3.11664E-13-6.68849E-14
 -1      2702 2.22054E+01 2.12115E+00-2.33468E-02 3.80281E-01-2.55806E-13-8.89080E-14
 -1      2703 2.28353E+01 2.47343E+00-1.64559E-02-5.46221E-01-3.17905E-13-2.60772E-14
 -1      2704 2.23736E+01 1.87562E+00 1.45134E-02 1.03144E+00-2.06401E-13-2.45012E-13
 -1      2705 2.24737E+01 1.40718E+00-3.13993E-02 1.42850E+00-2.02532E-13-3.16271E-13
 -1      2706 2.28264E+01 2.43662E+00-6.77149E-03 8.21479E-01-3.22898E-13-1.52288E-13
 -1      2707 2.27113E+01 8.68281E-01 1.83598E-02 1.70611E+00-1.85793E-13-3.07295E-13
 -1      2708 2.28303E+01 2.82492E-01-2.97554E-02 1.80922E+00-1.22187E-13-3.01763E-13
 -1      2709 2.31838E+01 1.36919E+00 5.88888E-04 1.73025E+00-1.93295E-13-2.95786E-13
 -1      2710 2.29419E+01-2.29303E-01 8.03153E-03 1.70145E+00-1.29585E-13-2.45060E-13
 -1      2711 2.30021E+01-6.58275E-01-1.53357E-02 1.54219E+00-4.65422E-14-3.08702E-13
 -1      2712 2.34471E+01 2.14107E-02 1.50347E-02 1.85437E+00-7.48364E-14-2.86291E-13
 -1      2713 2.28902E+01-9.46439E-01-5.81753E-03 1.20948E+00 1.61781E-14-2.61710E-13
 -1      2714 2.28609E+01-1.11616E+00-1.48826E-03 9.25189E-01 3.30862E-14-3.01841E-13
 -1      2715 2.33663E+01-9.93805E-01 1.04427E-02 1.33586E+00-2.61575E-14-2.75758E-13
 -1      2716 2.25961E+01-1.17455E+00-1.18354E-02 5.59654E-01 4.11132E-14-2.49701E-13
 -1      2717 2.24934E+01-1.14116E+00 7.48549E-03 2.70114E-01 7.50480E-14-3.33503E-13
 -1      2718 2.29488E+01-1.40308E+00 1.46443E-03 5.95903E-01 3.66443E-14-3.25542E-13
 -1      2719 2.21804E+01-1.05428E+00-1.15107E-02-2.19768E-02 7.38908E-14-2.77631E-13
 -1      2720 2.20392E+01-9.17890E-01 1.01157E-02-2.52478E-01 4.14493E-14-2.75839E-13
 -1      2721 2.23697E+01-1.33705E+00-5.96628E-03-6.87290E-02 7.28681E-14-2.10465E-13
 -1      2722 2.17527E+01-7.73626E-01-8.47480E-03-4.42057E-01-1.16710E-14-3.89356E-13
 -1      2723 2.16036E+01-6.13824E-01 9.18777E-03-5.94882E-01-1.52585E-14-4.90078E-13
 -1      2724 2.17943E+01-1.02397E+00-8.83088E-03-5.37562E-01-4.33201E-14-2.44152E-13
 -1      2725 2.13749E+01-4.70455E-01-5.10561E-03-6.93776E-01-3.55248E-14-4.77477E-13
 -1      2726 2.12358E+01-3.30964E-01 6.92909E-03-7.75829E-01-7.06425E-14-4.73659E-13
 -1      2727 2.13114E+01-6.52209E-01-8.32293E-03-8.07580E-01-5.94119E-14-3.83268E-13
 -1      2728 2.10672E+01-2.15433E-01-2.42734E-03-8.08097E-01 1.57028E-14-3.94724E-13
 -1      2729 2.09452E+01-1.11869E-01 4.59992E-03-8.35644E-01 8.36435E-14-3.33546E-13
 -1      2730 2.09431E+01-3.25700E-01-6.52629E-03-9.22243E-01 1.09201E-14-2.36934E-13
 -1      2731 2.08264E+01-3.08491E-02-5.60960E-04-8.24157E-01 4.79776E-14-3.57902E-13
 -1      2732 2.07225E+01 3.67256E-02 2.70322E-03-8.14438E-01-3.36033E-14-3.86591E-13
 -1      2733 2.06771E+01-8.18224E-02-4.63490E-03-9.30372E-01 7.22013E-14-2.29903E-13
 -1      2734 2.06408E+01 8.67036E-02 6.34667E-04-7.77182E-01-1.02813E-14-3.03702E-13
 -1      2735 2.05534E+01 1.24828E-01 1.35043E-03-7.44869E-01 6.04014E-15-2.17125E-13
 -1      2736 2.04902E+01 7.85934E-02-3.11592E-03-8.72479E-01 7.64022E-14-1.54344E-13
 -1      2737 2.04975E+01 1.50843E-01 1.33461E-03-6.94743E-01-7.85087E-14-1.02335E-13
 -1      2738 2.04246E+01 1.67583E-01 4.74606E-04-6.50953E-01-1.09657E-13-1.80717E-14
 -1      2739 2.03598E+01 1.70274E-01-2.04599E-03-7.78502E-01 5.48624E-15-7.48101E-14
 -1      2740 2.03861E+01 1.76923E-01 1.68316E-03-5.96644E-01-7.02896E-14 6.65004E-14
 -1      2741 2.03257E+01 1.79536E-01-4.18654E-05-5.49116E-01 1.52661E-14 8.14055E-14
 -1      2742 2.02682E+01 2.11700E-01-1.35118E-03-6.69156E-01-3.60593E-14 1.68104E-13
 -1      2743 2.02986E+01 1.78296E-01 1.79113E-03-4.96111E-01-1.74054E-14 1.51705E-14
 -1      2744 2.02489E+01 1.72452E-01-3.11239E-04-4.49806E-01-3.98202E-15 2.26751E-14
 -1      2745 2.02025E+01 2.19647E-01-9.22475E-04-5.58007E-01 6.73222E-17 1.97157E-13
 -1      2746 2.02295E+01 1.65191E-01 1.74215E-03-4.01283E-01-4.81259E-14 1.29623E-13
 -1      2747 2.01891E+01 1.54945E-01-4.22501E-04-3.59070E-01-3.26305E-14 6.05585E-14
 -1      2748 2.01543E+01 2.07322E-01-6.64380E-04-4.53349E-01 1.09700E-14 1.96440E-13
 -1      2749 2.01747E+01 1.44821E-01 1.59853E-03-3.16602E-01-6.42276E-14 5.81539E-14
 -1      2750 2.01423E+01 1.32875E-01-4.39631E-04-2.79868E-01 1.61372E-14 3.57661E-14
 -1      2751 2.01181E+01 1.84246E-01-5.07944E-04-3.59727E-01-8.39214E-14 3.48658E-13
 -1      2752 2.01315E+01 1.21927E-01 1.40559E-03-2.43959E-01 5.46972E-14 1.49758E-14
 -1      2753 2.01058E+01 1.09961E-01-4.05746E-04-2.13111E-01 1.51770E-14-9.79919E-14
 -1      2754 2.00903E+01 1.56820E-01-4.08651E-04-2.79112E-01-3.12716E-14 2.68858E-13
 -1      2755 2.00975E+01 9.94135E-02 1.19501E-03-1.83597E-01 1.43566E-13-1.89778E-13
 -1      2756 2.00775E+01 8.83782E-02-3.48377E-04-1.58435E-01 2.26283E-13-4.78211E-14
 -1      2757 2.00688E+01 1.29062E-01-3.40056E-04-2.11783E-01 3.17593E-14 4.47925E-14
 -1      2758 2.00711E+01 7.88876E-02 9.87683E-04-1.34763E-01 2.11491E-13-7.78185E-14
 -1      2759 2.00557E+01 6.92456E-02-2.84148E-04-1.14750E-01 2.53758E-13-9.84065E-14
 -1      2760 2.00520E+01 1.03282E-01-2.87594E-04-1.56986E-01 1.86392E-13-2.62132E-13
 -1      2761 2.00508E+01 6.10975E-02 7.96244E-04-9.61807E-02 2.47308E-13-7.38031E-14
 -1      2762 2.00392E+01 5.29983E-02-2.22411E-04-8.06225E-02 1.03137E-13-6.69344E-14
 -1      2763 2.00389E+01 8.06327E-02-2.43863E-04-1.13401E-01 2.36441E-13-1.24638E-13
 -1      2764 2.00355E+01 4.62461E-02 6.27340E-04-6.63597E-02 1.12682E-13-7.08492E-17
 -1      2765 2.00269E+01 3.96512E-02-1.67876E-04-5.45261E-02 1.01512E-13 1.07543E-13
 -1      2766 2.00287E+01 6.15178E-02-2.05456E-04-7.94649E-02 2.36841E-13-1.29723E-13
 -1      2767 2.00240E+01 3.42133E-02 4.83477E-04-4.37965E-02-6.84158E-14 1.59414E-13
 -1      2768 2.00179E+01 2.89805E-02-1.22432E-04-3.49910E-02-1.25877E-13 1.91078E-13
 -1      2769 2.00208E+01 4.58863E-02-1.71013E-04-5.35794E-02-1.05475E-14-8.04656E-14
 -1      2770 2.00157E+01 2.47045E-02 3.64492E-04-2.70927E-02-1.40991E-13 8.40722E-14
 -1      2771 2.00114E+01 2.06421E-02-8.63847E-05-2.06927E-02-8.37226E-14-7.32691E-14
 -1      2772 2.00148E+01 3.34316E-02-1.40109E-04-3.42417E-02-2.15748E-13-1.10686E-13
 -1      2773 2.00097E+01 1.73451E-02 2.68645E-04-1.50179E-02-6.22342E-15 1.59492E-14
 -1      2774 2.00068E+01 1.42454E-02-5.92579E-05-1.04927E-02 2.93480E-14-9.30439E-14
 -1      2775 2.00103E+01 2.37215E-02-1.12705E-04-2.01152E-02-8.22687E-14-2.15616E-13
 -1      2776 2.00056E+01 1.17378E-02 1.93376E-04-6.53603E-03 4.71571E-14 1.76011E-14
 -1      2777 2.00038E+01 9.39571E-03-4.01810E-05-3.45227E-03 1.27247E-13 2.46689E-14
 -1      2778 2.00069E+01 1.62793E-02-8.88452E-05-1.00614E-02 5.61332E-14-3.87651E-14
 -1      2779 2.00029E+01 7.49450E-03 1.35931E-04-8.09644E-04 1.58433E-13 2.08347E-13
 -1      2780 2.00018E+01 5.71779E-03-2.76955E-05 1.17155E-03 1.38952E-13 4.13324E-13
 -1      2781 2.00045E+01 1.06296E-02-6.84329E-05-3.14781E-03 2.62064E-13 8.53057E-15
 -1      2782 2.00012E+01 4.25402E-03 9.41151E-05 2.81252E-03 1.10896E-13 4.16782E-13
 -1      2783 2.00006E+01 2.86210E-03-1.98220E-05 3.94589E-03 1.29400E-13 4.06626E-13
 -1      2784 2.00027E+01 6.32616E-03-5.10525E-05 1.36000E-03 1.00450E-13 1.97029E-13
 -1      2785 2.00002E+01 1.65753E-03 6.00058E-05 4.80434E-03 2.86339E-14 3.51980E-13
 -1      2786 1.99999E+01 5.39136E-04-6.12341E-06 5.25189E-03 6.09031E-14 2.23633E-13
 -1      2787 2.00014E+01 2.92031E-03-4.59671E-05 4.02638E-03 7.65124E-14 6.57756E-14
 -1      2788 2.08408E+01 4.20600E-01 4.98160E-03-1.48864E+00 8.64568E-14-9.27120E-14
 -1      2789 2.07088E+01 4.55300E-01 1.84154E-03-1.35176E+00 1.02789E-13-9.58337E-14
 -1      2790 1.25118E+01-3.50938E+00 1.88281E-01-6.39705E+00 1.99257E-13 4.38691E-13
 -1      2791 1.61353E+01-4.28533E+00 3.60504E-02-6.46396E+00 3.90299E-13 1.70336E-13
 -1      2792 3.00389E+01-3.51129E-02-1.77154E-01-2.08710E+00 2.51466E-14-4.19415E-13
 -1      2793 2.93953E+01-1.78657E+00-2.21032E-02-1.35269E+00-1.06623E-13-3.77642E-13
 -1      2794 2.06939E+01 4.85877E-01 4.80595E-03-1.18821E+00 1.31588E-13-8.06328E-14
 -1      2795 2.06073E+01 5.17841E-01 3.51392E-03-1.02890E+00 1.82053E-13-5.70056E-14
 -1      2796 2.04613E+01 6.00345E-01-2.65687E-03-1.32325E+00 1.50007E-13-1.37321E-13
 -1      2797 2.13776E+01 8.42694E-02 2.83065E-03-1.93282E+00 3.06809E-14-2.68886E-14
 -1      2798 2.11501E+01 2.16170E-01 3.57231E-03-1.87088E+00 5.31070E-14-5.10878E-14
 -1      2799 2.18501E+01-3.29970E-01-3.15487E-04-1.99350E+00 4.19077E-14-2.36010E-14
 -1      2800 2.15558E+01-9.04191E-02 8.64929E-03-2.01607E+00 4.83046E-14-5.55068E-15
 -1      2801 2.08752E+01 1.37864E-02-1.09298E-02-2.16368E+00 2.90891E-14-1.17094E-13
 -1      2802 2.25640E+01-9.93777E-01-6.37688E-03-1.82675E+00-1.33305E-14-5.83561E-15
 -1      2803 2.21846E+01-6.20977E-01 1.81333E-02-1.98960E+00 2.87862E-14 6.74374E-16
 -1      2804 2.13254E+01-5.63140E-01-1.97286E-02-2.28383E+00 1.76042E-14-4.58982E-14
 -1      2805 2.36053E+01-1.85546E+00-1.68442E-02-1.28566E+00-1.13225E-13 6.46479E-14
 -1      2806 2.31422E+01-1.39688E+00 3.02597E-02-1.65328E+00-7.39596E-14 5.41980E-14
 -1      2807 2.21386E+01-1.44889E+00-3.14052E-02-2.18019E+00-6.66767E-14 3.50271E-14
 -1      2808 2.49855E+01-2.55552E+00-2.09896E-02-2.14920E-01-4.51982E-14 2.05899E-13
 -1      2809 2.44878E+01-2.25521E+00 3.78868E-02-8.20913E-01-1.26452E-13 1.24387E-13
 -1      2810 2.34722E+01-2.54580E+00-4.94600E-02-1.65588E+00-1.48801E-13 1.26029E-13
 -1      2811 2.63966E+01-2.30018E+00-7.05701E-03 1.36961E+00 8.89219E-14 4.04636E-13
 -1      2812 2.60350E+01-2.69864E+00-1.56980E-02 6.08085E-01 5.31866E-15 3.29837E-13
 -1      2813 2.54031E+01-3.19265E+00-3.01869E-02-4.46360E-01-1.07286E-13 3.37751E-13
 -1      2814 2.75516E+01 7.56992E-01-6.94392E-02 2.82170E+00 4.52402E-13 3.25018E-13
 -1      2815 2.74496E+01-7.56981E-01-8.23189E-02 2.45298E+00 3.07740E-13 3.68518E-13
 -1      2816 2.74970E+01 2.22474E+00-6.75099E-02 2.31907E+00 5.72195E-13 1.80869E-13
 -1      2817 2.76170E+01-1.03472E+00-1.16351E-01-2.57790E+00-1.45248E-13-3.99313E-13
 -1      2818 2.75724E+01 4.76881E-01-8.51862E-02-2.68120E+00-6.13676E-14-3.71411E-13
 -1      2819 2.50384E+01-2.43401E+00 4.16812E-02 3.67621E-01-1.32574E-13-2.94891E-13
 -1      2820 2.55767E+01-2.61573E+00-3.12274E-03-3.50571E-01-1.15356E-13-3.61367E-13
 -1      2821 2.35957E+01-1.62385E+00 3.54012E-02 1.33266E+00-1.36759E-14-1.22054E-13
 -1      2822 2.40706E+01-2.06997E+00-1.43222E-02 8.93221E-01-6.03441E-14-1.77361E-13
 -1      2823 2.40172E+01-2.74396E+00-2.91911E-02 1.26573E+00-1.69813E-13-4.42320E-13
 -1      2824 2.25392E+01-7.90673E-01 2.08794E-02 1.77577E+00-9.82273E-14-5.74076E-14
 -1      2825 2.29294E+01-1.19908E+00-1.00407E-02 1.56658E+00 1.27311E-14-5.04909E-14
 -1      2826 2.25165E+01-1.72633E+00-3.71573E-02 1.93891E+00-3.70203E-14-2.07426E-13
 -1      2827 2.18424E+01-1.90818E-01 1.03340E-02 1.86066E+00-1.11201E-13-1.42548E-13
 -1      2828 2.21463E+01-4.64537E-01-2.51410E-03 1.81020E+00-1.17464E-13-4.70690E-14
 -1      2829 2.15714E+01-7.52369E-01-2.45232E-02 2.11602E+00-8.44460E-14-8.11300E-14
 -1      2830 2.13934E+01 1.58545E-01 3.90005E-03 1.74993E+00-1.54838E-13-1.09422E-13
 -1      2831 2.16284E+01 8.64819E-03 1.81544E-03 1.79336E+00-8.36230E-14-1.05102E-13
 -1      2832 2.10399E+01-9.53719E-02-1.25635E-02 2.03560E+00-1.22663E-13-4.48692E-14
 -1      2833 2.10918E+01 3.23897E-01 5.01641E-04 1.54782E+00-2.02445E-13-1.58806E-15
 -1      2834 2.12792E+01 2.59245E-01 3.90484E-03 1.63855E+00-1.71268E-13-9.87421E-14
 -1      2835 2.07504E+01 2.69015E-01-5.54908E-03 1.83378E+00-2.21804E-13 9.00700E-14
 -1      2836 2.08734E+01 3.75178E-01-1.02829E-03 1.31482E+00 5.30099E-15-6.70045E-14
 -1      2837 2.10275E+01 3.61136E-01 4.80600E-03 1.42284E+00-5.93487E-14-7.62842E-14
 -1      2838 2.05864E+01 4.31179E-01-2.02278E-03 1.58606E+00-1.19537E-13 2.89210E-14
 -1      2839 2.07030E+01 3.64446E-01-1.52380E-03 1.08467E+00-4.77406E-14 9.54692E-15
 -1      2840 2.08319E+01 3.76756E-01 5.01794E-03 1.19248E+00-2.33039E-14-2.17711E-14
 -1      2841 2.04817E+01 4.71739E-01-5.32522E-04 1.33223E+00-6.71940E-14-4.07194E-14
 -1      2842 2.05634E+01 3.24844E-01-1.51973E-03 8.74579E-01 7.79236E-14 9.96585E-14
 -1      2843 2.06714E+01 3.48606E-01 4.80854E-03 9.73121E-01 3.45529E-14-2.23598E-15
 -1      2844 2.04033E+01 4.47667E-01-8.64181E-05 1.09348E+00-5.20103E-15 1.81279E-16
 -1      2845 2.04467E+01 2.75353E-01-1.31223E-03 6.91850E-01 9.83817E-14 7.76218E-14
 -1      2846 2.05364E+01 3.02273E-01 4.36007E-03 7.77296E-01 1.01455E-13 8.65958E-14
 -1      2847 2.03371E+01 3.94514E-01-8.53581E-05 8.80212E-01 7.36493E-14 7.72461E-14
 -1      2848 2.03492E+01 2.25878E-01-1.05048E-03 5.38085E-01 1.48700E-13 3.48175E-15
 -1      2849 2.04226E+01 2.51760E-01 3.80046E-03 6.09614E-01 2.18099E-13 9.98000E-14
 -1      2850 2.02782E+01 3.32413E-01-2.18468E-04 6.96378E-01 1.33541E-13 6.73441E-14
 -1      2851 2.02684E+01 1.81010E-01-8.02412E-04 4.11835E-01-3.25571E-14-5.46552E-14
 -1      2852 2.03276E+01 2.04009E-01 3.21503E-03 4.70206E-01 8.45209E-14 5.29352E-15
 -1      2853 2.02256E+01 2.71772E-01-3.49481E-04 5.42123E-01 1.38106E-13 6.91007E-14
 -1      2854 2.02026E+01 1.42433E-01-5.93328E-04 3.10187E-01-3.02219E-14-2.21378E-14
 -1      2855 2.02495E+01 1.61963E-01 2.65589E-03 3.56880E-01-1.46534E-13-9.21343E-14
 -1      2856 2.01793E+01 2.17344E-01-4.32995E-04 4.15450E-01-5.05925E-14-1.06662E-13
 -1      2857 2.01499E+01 1.10352E-01-4.27878E-04 2.29702E-01 4.37568E-14 3.36572E-13
 -1      2858 2.01865E+01 1.26457E-01 2.15103E-03 2.66433E-01 3.33072E-15 1.18670E-13
 -1      2859 2.01397E+01 1.70782E-01-4.64799E-04 3.13309E-01-1.28042E-13-1.42227E-13
 -1      2860 2.01085E+01 8.42823E-02-3.01887E-04 1.66929E-01 3.01885E-13 2.00513E-13
 -1      2861 2.01365E+01 9.72866E-02 1.71229E-03 1.95391E-01 2.44925E-13 3.26825E-13
 -1      2862 2.01066E+01 1.32161E-01-4.55904E-04 2.32271E-01 1.61503E-13 2.44488E-13
 -1      2863 2.00767E+01 6.34692E-02-2.08351E-04 1.18673E-01 2.87501E-13 2.35316E-13
 -1      2864 2.00977E+01 7.37960E-02 1.34157E-03 1.40411E-01 2.78788E-13 2.28727E-13
 -1      2865 2.00796E+01 1.00824E-01-4.20369E-04 1.68938E-01 3.02310E-13 1.28705E-13
 -1      2866 2.00526E+01 4.70993E-02-1.40185E-04 8.21093E-02 4.92002E-14 5.66067E-13
 -1      2867 2.00681E+01 5.51821E-02 1.03514E-03 9.84720E-02 2.29164E-13 4.22382E-13
 -1      2868 2.00581E+01 7.58322E-02-3.70432E-04 1.20158E-01 7.40917E-14 2.73354E-13
 -1      2869 2.00348E+01 3.43990E-02-9.13002E-05 5.48189E-02-1.16202E-13 6.22095E-13
 -1      2870 2.00460E+01 4.06404E-02 7.86420E-04 6.69485E-02 6.09625E-15 6.91948E-13
 -1      2871 2.00414E+01 5.61933E-02-3.15130E-04 8.31374E-02-2.50331E-14 7.65681E-13
 -1      2872 2.00220E+01 2.46744E-02-5.68858E-05 3.47797E-02-1.58866E-13 4.06426E-13
 -1      2873 2.00299E+01 2.94310E-02 5.87800E-04 4.36214E-02-1.18740E-13 5.64457E-13
 -1      2874 2.00287E+01 4.09703E-02-2.60416E-04 5.54690E-02-7.08221E-14 6.21350E-13
 -1      2875 2.00130E+01 1.73223E-02-3.33328E-05 2.03345E-02-1.38092E-13 3.90437E-13
 -1      2876 2.00184E+01 2.09016E-02 4.31585E-04 2.66556E-02-2.08668E-13 3.28347E-13
 -1      2877 2.00192E+01 2.93239E-02-2.09806E-04 3.51320E-02-1.06616E-13 6.39138E-13
 -1      2878 2.00070E+01 1.18270E-02-1.80564E-05 1.01519E-02 3.75183E-14 2.09723E-13
 -1      2879 2.00104E+01 1.44907E-02 3.10575E-04 1.45631E-02 1.42325E-14 2.40986E-13
 -1      2880 2.00124E+01 2.05242E-02-1.65027E-04 2.04647E-02-2.28615E-14 4.69207E-13
 -1      2881 2.00031E+01 7.74942E-03-9.43598E-06 3.18485E-03 1.73375E-13 5.03616E-15
 -1      2882 2.00052E+01 9.71990E-03 2.18348E-04 6.16141E-03 1.56877E-13 6.88755E-14
 -1      2883 2.00076E+01 1.39457E-02-1.26752E-04 1.01287E-02 2.22217E-13 1.85091E-13
 -1      2884 2.00007E+01 4.71805E-03-3.90769E-06-1.36562E-03 3.93004E-13 5.10119E-14
 -1      2885 2.00019E+01 6.18151E-03 1.49308E-04 5.33116E-04 2.60159E-13 1.91778E-14
 -1      2886 2.00043E+01 9.05496E-03-9.46682E-05 3.06928E-03 2.36711E-13-3.13482E-15
 -1      2887 1.99995E+01 2.44691E-03 1.91181E-05-4.06291E-03-5.63082E-14 4.53449E-13
 -1      2888 2.00000E+01 3.50302E-03 9.26982E-05-3.01388E-03 2.44276E-13 3.44215E-13
 -1      2889 2.00021E+01 5.40563E-03-6.60216E-05-1.52038E-03 8.32379E-14 2.67705E-13
 -1      2890 1.99994E+01 9.14443E-04 1.85648E-05-5.21068E-03-2.52743E-13 4.75330E-13
 -1      2891 1.99994E+01 1.77419E-03 4.19984E-05-4.76329E-03-1.55331E-13 4.22497E-13
 -1      2892 2.00012E+01 2.95940E-03-5.21653E-05-3.96897E-03-1.36453E-13 3.95778E-13
 -1      2893 2.00010E+01 1.13589E-03-3.44276E-05-5.07050E-03-1.63315E-13 5.12297E-14
 -1      2894 2.07077E+01 1.09793E+00 8.44429E-03 3.62788E-01 3.84394E-13-5.90226E-14
 -1      2895 2.04869E+01 1.76342E+00-3.31309E-03 6.28090E-01 4.31087E-13-1.83436E-13
 -1      2896 2.04164E+01 1.61576E+00 1.08791E-03 3.36757E-01 3.69649E-13-1.99508E-13
 -1      2897 2.06299E+01 9.12061E-01-1.82730E-04 4.19380E-02 3.48503E-13-6.24491E-14
 -1      2898 2.00026E+01 3.60994E-04-7.66546E-06-1.67001E-04-1.33909E-13 2.58480E-13
 -1      2899 2.00026E+01 3.39559E-04 1.34140E-06-7.71042E-04-9.27206E-14 3.06742E-13
 -1      2900 1.99997E+01-2.02910E-04 3.15341E-05 5.46741E-03 2.04757E-13 2.93507E-13
 -1      2901 1.99997E+01-8.93299E-04-1.33437E-06 5.45317E-03 2.17697E-13 2.90584E-13
 -1      2902 2.00007E+01 4.93269E-04-4.13681E-05 5.16216E-03 8.69396E-14 1.60955E-13
 -1      2903 2.00025E+01-2.79168E-04-1.22683E-05-2.58095E-03 1.41697E-13 2.09315E-13
 -1      2904 2.00024E+01-2.95434E-04 1.04802E-05-3.19220E-03 4.01137E-13 8.91630E-15
 -1      2905 2.00025E+01 3.79637E-04-6.13020E-07 9.78805E-04 1.98418E-14 4.18284E-14
 -1      2906 2.00025E+01 3.77703E-04-6.26289E-06 3.83903E-04-5.54441E-14 1.09332E-13
 -1      2907 2.00031E+01 3.19643E-03 3.37818E-05 1.21394E-04-2.36066E-15 2.69548E-13
 -1      2908 2.00026E+01 1.20305E-04-1.23006E-05-1.34776E-03-1.27078E-13 1.09092E-13
 -1      2909 2.00026E+01 9.05959E-05 8.26426E-06-1.96527E-03 1.19099E-14 4.07534E-14
 -1      2910 2.00031E+01 2.37459E-03 2.39283E-05-2.09719E-03 7.39644E-14 7.05590E-14
 -1      2911 2.00032E+01 2.96396E-03 3.14514E-05-9.49290E-04-9.37612E-14 1.92179E-13
 -1      2912 2.81615E+01-3.85609E+00-1.48334E-01 3.60599E-01-1.19613E-13-2.39225E-13
 -1      2913 2.61562E+01-4.79379E+00 3.44434E-02 2.06379E+00-1.73014E-13-7.53703E-14
 -1      2914 2.00025E+01 1.86367E-04 5.94739E-06 2.10763E-03-2.97565E-15-2.78875E-13
 -1      2915 2.00025E+01 1.94320E-04-1.19378E-05 1.52534E-03-3.12869E-14-6.51699E-14
 -1      2916 2.00031E+01 3.02555E-03 3.14513E-05 1.16086E-03 9.51724E-14 5.14084E-14
 -1      2917 2.00023E+01-1.63146E-04 7.28407E-06 3.26206E-03 1.66932E-13-2.03561E-13
 -1      2918 2.00024E+01-1.58461E-04-1.31495E-05 2.68670E-03 8.94488E-14-1.89085E-13
 -1      2919 2.00030E+01 2.49254E-03 2.38607E-05 2.24012E-03 7.36891E-14-2.50811E-13
 -1      2920 2.00018E+01-5.74640E-04-5.14002E-06 4.34401E-03 2.42125E-13-5.61784E-14
 -1      2921 2.00021E+01-5.81048E-04-1.08621E-05 3.83301E-03 2.67368E-13-8.31957E-14
 -1      2922 2.00027E+01 1.73076E-03 1.80427E-05 3.37721E-03 1.51946E-13-6.91624E-14
 -1      2923 2.86878E+01 2.73241E+00-2.07146E-01-1.80862E+00-5.14588E-13 3.25934E-13
 -1      2924 2.87976E+01 9.65493E-01-3.41177E-02-1.59162E+00-3.38771E-13 3.87884E-13
 -1      2925 2.05386E+01 1.81187E+00-9.06953E-03-9.09638E-01-3.97805E-13-3.35297E-13
 -1      2926 2.05522E+01 1.44377E+00-4.66280E-03-5.85940E-01-3.80683E-13-3.00790E-13
 -1      2927 5.90808E+00-8.21417E-01 1.27739E-01 4.06813E-01-1.57797E-13 4.64018E-13
 -1      2928 6.01151E+00-9.71866E-01 1.84693E-01-1.64224E+00-4.86555E-14 5.78426E-13
 -1      2929 1.52346E+01-4.29676E+00-1.05153E-02 6.22370E+00-1.86851E-13 1.86462E-13
 -1      2930 1.21329E+01-3.09874E+00 1.65910E-01 5.64567E+00-1.53086E-13 2.43694E-13
 -1      2931 6.36982E+00-7.58486E-01 1.62979E-01-4.80938E-01-2.23216E-14-9.17599E-13
 -1      2932 7.22089E+00-1.20694E+00 9.47578E-02-2.79223E+00-1.37883E-13-9.13214E-13
 -1      2933 2.76394E+01 6.25093E+00-1.62050E-01 7.37158E-01-8.58952E-13-1.35940E-13
 -1      2934 2.79248E+01 6.52944E+00-1.44442E-01-2.72747E-01-8.02858E-13 2.69645E-14
 -1      2935 7.80293E+00-1.69928E+00 1.07898E-01 4.20848E+00 2.14620E-13-8.89150E-13
 -1      2936 6.63740E+00-9.18456E-01 1.37590E-01 1.90387E+00 1.47091E-13-9.27508E-13
 -1      2937 2.06114E+01 5.56608E-01 4.01776E-03-8.45188E-01 2.00645E-13-5.19460E-14
 -1      2938 2.05756E+01 6.10341E-01 6.28253E-03-6.55981E-01 2.34552E-13-2.99586E-14
 -1      2939 2.04517E+01 6.88537E-01-2.84671E-03-9.61222E-01 2.05719E-13-1.06047E-13
 -1      2940 2.10598E+01 3.08519E-01 4.41865E-03-1.74540E+00 5.02183E-14-8.14660E-14
 -1      2941 2.08834E+01 3.74002E-01 1.69134E-03-1.63613E+00 6.41690E-14-9.10904E-14
 -1      2942 2.05163E+01 5.05995E-01-3.20716E-03-1.64678E+00 7.82450E-14-1.51709E-13
 -1      2943 2.06377E+01 3.38436E-01-5.57105E-03-1.93351E+00 4.58628E-14-1.39052E-13
 -1      2944 2.05988E+01 1.16685E+00 5.07298E-03-3.46849E-01-3.47524E-13-2.72635E-13
 -1      2945 2.05526E+01 9.43923E-01-3.05220E-03-6.73950E-02-3.11420E-13-2.54013E-13
 -1      2946 2.04791E+01 1.06189E+00 1.94289E-05 3.03281E-02-2.92259E-13-2.80549E-13
 -1      2947 2.04526E+01 1.54575E+00 8.58258E-04-4.19633E-01-3.45674E-13-3.36838E-13
 -1      2948 1.60653E+01-3.99504E+00 1.58501E-01-5.96698E+00-4.40453E-13-3.96613E-13
 -1      2949 1.92683E+01-5.13255E+00-5.84109E-02-5.77141E+00-3.99278E-13-1.56965E-13
 -1      2950 2.27028E+01-5.35445E+00-4.76635E-02 4.29115E+00-2.05586E-13 2.18752E-13
 -1      2951 1.91041E+01-4.89424E+00 1.59583E-01 5.61374E+00-2.32619E-13 1.71672E-13
 -1      2952 2.81620E+01-1.65648E+00-1.83222E-01-4.28076E-01-2.01769E-13 4.20428E-13
 -1      2953 2.73824E+01-3.30669E+00 3.58064E-02 1.04144E+00-2.89005E-15 4.15154E-13
 -1      2954 1.95696E+01 3.02228E+00-6.26942E-03 4.45613E-01 2.95269E-13-4.64538E-13
 -1      2955 1.94396E+01 3.14072E+00-7.66040E-03 3.54805E-01 2.34935E-13-5.12998E-13
 -1      2956 1.94705E+01 2.92497E+00 6.52236E-03 2.42536E-01 2.03966E-13-4.95948E-13
 -1      2957 1.97340E+01 2.65684E+00 8.34908E-03 3.32333E-01 2.72804E-13-4.18626E-13
 -1      2958 2.77147E+01-4.20357E+00 3.91011E-02-8.50123E-01-1.52447E-14 4.70346E-13
 -1      2959 2.85572E+01-2.85083E+00-1.87533E-01 7.39160E-01 2.06994E-13 5.84061E-13
 -1      2960 1.95167E+01 3.05449E+00-7.50327E-03-2.98813E-01-1.42452E-13-5.42930E-13
 -1      2961 1.96487E+01 2.93196E+00-5.41161E-03-4.08803E-01-2.01217E-13-5.39065E-13
 -1      2962 2.92791E+01 5.98215E+00-1.87552E-01-4.93434E-01 6.84841E-13 7.24802E-14
 -1      2963 2.95043E+01 5.33741E+00-1.61861E-01-1.53832E+00 5.62550E-13-1.14422E-13
 -1      2964 2.01978E+01 2.64463E+00-3.00431E-03-1.05443E+00-3.77614E-13-4.46521E-13
 -1      2965 2.80669E+01 5.83885E+00-1.89674E-01-1.13466E+00-7.39853E-13 1.01356E-13
 -1      2966 2.84719E+01 4.62900E+00-1.23746E-01-1.76405E+00-6.53422E-13 2.60611E-13
 -1      2967 2.28559E+01-5.21711E+00 1.24544E-01-4.35977E+00-3.38091E-13 7.90375E-14
 -1      2968 2.55814E+01-5.18221E+00-1.02286E-01-2.82969E+00-1.94192E-13 3.13610E-13
 -1      2969 2.00003E+01-1.15735E-03-1.30223E-05 5.40145E-03 2.55045E-13 1.74011E-13
 -1      2970 1.39810E+01-3.48598E+00 4.18102E-02 6.35372E+00 3.68303E-13-4.11032E-13
 -1      2971 1.04746E+01-2.47725E+00 1.72983E-01 5.47887E+00 3.07782E-13-6.76709E-13
 -1      2972 1.11314E+01-1.44614E+00 1.73526E-01 4.53051E+00 2.95708E-13-6.68576E-13
 -1      2973 2.05931E+01 6.77537E-01 2.56201E-03-4.47743E-01 2.72371E-13-3.92026E-14
 -1      2974 2.06125E+01 7.80842E-01 9.31184E-03-2.09519E-01 3.15556E-13-2.95221E-14
 -1      2975 2.05330E+01 1.07456E+00-1.20136E-03-6.57837E-02 3.27102E-13-1.27913E-13
 -1      2976 2.04791E+01 8.25918E-01-2.94377E-03-5.49773E-01 2.55878E-13-7.80151E-14
 -1      2977 2.98347E+01 3.82606E+00-1.84307E-01-2.29909E+00 4.34180E-13-3.42032E-13
 -1      2978 3.01017E+01 2.09973E+00-8.98479E-02-2.56268E+00 2.09360E-13-3.60600E-13
 -1      2979 9.65794E+00-1.67806E+00 1.99962E-01-4.30972E+00-3.22894E-13-8.10879E-13
 -1      2980 1.24066E+01-2.82047E+00 3.94034E-02-5.66406E+00-4.05079E-13-6.01491E-13
 -1      2981 9.14506E+00-1.98862E+00 8.25414E-02 4.56035E+00-2.47025E-13 3.07032E-13
 -1      2982 7.11370E+00-1.08707E+00 1.70440E-01 2.49959E+00-1.83221E-13 5.18030E-13
 -1      2983 2.83112E+01-1.60244E+00-1.11791E-02 4.60736E-01-3.23769E-14-2.06335E-13
 -1      2984 2.82318E+01-1.13627E-01-1.69428E-01 1.33390E+00-2.25542E-13-2.68313E-13
 -1      2985 2.03118E+01-5.02817E+00 8.10949E-02-5.62223E+00 3.26780E-13 3.22763E-14
 -1      2986 2.34144E+01-5.14496E+00-4.55791E-02-4.53629E+00 2.07959E-13-6.36990E-15
 -1      2987 2.44891E+01-4.72017E+00 2.53484E-02-3.22112E+00 1.90507E-13 5.00572E-14
 -1      2988 1.97969E+01 2.76076E+00-7.21486E-03-4.93098E-01-2.32333E-13-5.19012E-13
 -1      2989 1.99596E+01 2.59450E+00-4.74512E-03-6.05079E-01-2.84534E-13-4.94200E-13
 -1      2990 1.98239E+01 2.53989E+00 5.93121E-03-3.08327E-01-2.07020E-13-4.83001E-13
 -1      2991 1.92878E+01 3.09513E+00 5.37765E-03 6.67521E-02 5.29467E-14-5.41011E-13
 -1      2992 1.92139E+01 3.35131E+00-6.35587E-03 2.94754E-02 2.47599E-14-5.80355E-13
 -1      2993 1.92534E+01 3.32152E+00-4.32678E-03-5.96321E-02-2.28809E-14-5.85500E-13
 -1      2994 2.00012E+01-9.26429E-04 1.16816E-05-5.07275E-03-1.72912E-13-1.48636E-13
 -1      2995 1.52479E+01-2.85735E+00 1.26371E-01-5.33693E+00-4.11268E-13-4.50459E-13
 -1      2996 2.58574E+01-4.36183E+00 2.17378E-02 1.39723E+00-2.19453E-13-2.95958E-13
 -1      2997 2.47896E+01-5.04740E+00 3.48964E-02 2.96678E+00-2.37942E-13 1.46265E-13
 -1      2998 2.29478E+01-4.60392E+00 5.29283E-02 3.57178E+00-2.02234E-13 1.12208E-13
 -1      2999 7.79172E+00-9.36073E-01 1.66213E-01-2.76533E+00 3.33969E-14 5.84449E-13
 -1      3000 1.86238E+01-4.49453E+00 8.53408E-02-5.95590E+00 3.58047E-13 1.16698E-13
 -1      3001 2.05439E+01-4.40945E+00 4.60748E-02-4.90893E+00 2.96707E-13 1.89883E-14
 -1      3002 1.68001E+01-3.50365E+00 6.77629E-02-5.77287E+00 3.37827E-13 1.29986E-13
 -1      3003 2.00029E+01 1.56811E-03 1.49283E-05-3.30881E-03 2.97002E-13-4.89884E-14
 -1      3004 2.00022E+01-7.25055E-04-3.51218E-06-3.81227E-03 2.77596E-13-2.65227E-13
 -1      3005 2.00019E+01-6.65937E-04-2.08336E-06-4.35884E-03 3.08254E-13-3.49090E-13
 -1      3006 2.83728E+01-2.66524E+00 5.72772E-03-1.07692E+00-2.00038E-13-5.30909E-13
 -1      3007 2.81772E+01 3.79357E+00-1.46375E-01 2.11970E+00 6.68687E-13 2.40682E-13
 -1      3008 2.70508E+01-2.41084E+00-3.88913E-02-1.37807E+00-1.94660E-13-4.10644E-13
 -1      3009 2.66547E+01 4.07976E+00-1.91499E-01-9.66490E-01 3.90771E-13-1.23903E-13
 -1      3010 2.67265E+01 4.19944E+00-1.01204E-01 3.79975E-01 5.26551E-13-6.39211E-14
 -1      3011 2.70996E+01 2.56152E+00-1.46781E-01-2.54628E+00 1.58012E-13-2.08205E-13
 -1      3012 2.70136E+01 3.77932E+00-9.99939E-02-1.65859E+00 3.63043E-13-1.93904E-13
 -1      3013 2.65816E+01-2.99945E+00-1.35170E-02-6.65461E-01-1.61912E-13-4.29583E-13
 -1      3014 2.71256E+01-2.75703E+00-4.13709E-02-2.38844E-01 1.25649E-13-2.42445E-13
 -1      3015 2.78628E+01 4.82392E+00-2.21614E-01 8.52003E-01 6.82732E-13 7.79064E-14
 -1      3016 2.80063E+01 1.03756E+00-6.97331E-02 1.88389E+00-2.59709E-13-2.76529E-13
 -1      3017 2.69097E+01 2.06031E+00-1.34878E-01 2.21304E+00-3.64847E-13-2.29920E-13
 -1      3018 2.71191E+01-1.64374E-01-3.21630E-02 1.70795E+00-9.43828E-14-3.79002E-13
 -1      3019 1.20061E+01-1.93127E+00 1.71732E-01 4.69982E+00-2.73573E-13 2.60528E-13
 -1      3020 2.76534E+01-6.77978E-01-4.58112E-02-1.24188E+00-2.02706E-13 2.64122E-13
 -1      3021 2.74682E+01 3.20719E+00-1.06377E-01-1.93391E+00-5.13770E-13 2.65607E-13
 -1      3022 2.00009E+01-1.17886E-03 2.44784E-05 5.05140E-03 2.88379E-13-1.10276E-13
 -1      3023 2.17492E+01-4.69272E+00 8.77037E-02-4.44483E+00-3.39645E-13-4.34687E-14
 -1      3024 1.17388E+01-2.55142E+00 1.47450E-01-5.71761E+00 1.74152E-13 4.27824E-13
 -1      3025 2.55879E+01-4.77753E+00-1.13736E-01 3.01906E+00 1.56791E-13 3.50317E-13
 -1      3026 2.32677E+01-5.18907E+00 4.83251E-02 4.46169E+00 2.93710E-13 1.20966E-13
 -1      3027 2.66538E+01 3.94802E+00-1.05383E-01 1.83260E+00-6.18561E-13-2.24820E-13
 -1      3028 2.72631E+01 5.19226E+00-1.69944E-01 1.36672E+00-7.86149E-13-1.62856E-13
 -1      3029 2.60823E+01 5.36640E+00-8.80194E-02 9.39845E-01-7.57214E-13-7.58456E-14
 -1      3030 1.01002E+01-8.44594E-01 1.69689E-01-3.27663E+00-2.08174E-13-7.42323E-13
 -1      3031 2.68196E+01 5.44576E+00-1.25485E-01-7.52401E-01-6.91391E-13 6.85563E-14
 -1      3032 8.18001E+00-2.93326E-01 1.86135E-01 7.90235E-01 7.24334E-14-8.54955E-13
 -1      3033 1.80832E+01-4.05315E+00 1.29989E-01 5.37474E+00-2.03171E-13 2.09902E-13
 -1      3034 8.29563E+00-3.40625E-01 1.99939E-01 1.40565E+00-1.46237E-13 5.10092E-13
 -1      3035 2.00013E+01 5.30941E-04-1.32152E-05 4.92711E-03 6.50416E-14-9.44234E-14
 -1      3036 2.00016E+01-3.83940E-04-1.41061E-05 4.68116E-03 1.14665E-13-1.49320E-13
 -1      3037 2.00023E+01 1.50017E-03 4.25118E-05 4.20605E-03 5.26329E-14-1.06750E-13
 -1      3038 2.00016E+01 1.64100E-03 5.96253E-05 4.61660E-03 2.22099E-14-1.23484E-13
 -1      3039 2.90970E+01 8.53877E-01-2.86870E-02-2.69837E+00-5.80092E-15-4.83807E-13
 -1      3040 1.93171E+01 3.25091E+00-6.97674E-03-1.23697E-01-5.25417E-14-5.59998E-13
 -1      3041 1.94068E+01 3.17666E+00-4.35983E-03-2.22895E-01-1.12870E-13-5.34788E-13
 -1      3042 1.95567E+01 2.82554E+00 4.99686E-03-1.63627E-01-1.27899E-13-5.01527E-13
 -1      3043 1.93713E+01 3.01175E+00 4.99379E-03-3.77535E-02-4.52415E-14-5.42115E-13
 -1      3044 2.02129E+01 2.33612E+00 7.32852E-04-7.75508E-01-3.32338E-13-4.39947E-13
 -1      3045 2.61171E+01-3.99166E+00-1.11623E-02 1.64244E+00 9.43065E-14 3.11709E-13
 -1      3046 2.63280E+01-4.39613E+00 3.50239E-02-1.37477E+00-1.01738E-13 2.94674E-13
 -1      3047 1.67254E+01-4.15635E+00 1.24861E-01 6.29405E+00 3.97321E-13-2.39933E-13
 -1      3048 1.57315E+01-3.17613E+00 1.04447E-01 5.81297E+00 4.20108E-13-2.78923E-13
 -1      3049 2.15014E+01-5.28306E+00 2.33551E-02 5.47882E+00 2.94847E-13 4.01476E-14
 -1      3050 1.84470E+01-4.71865E+00 8.26318E-02 6.06788E+00 3.20508E-13-7.61544E-14
 -1      3051 1.96589E+01-4.39309E+00 5.81259E-02 5.42399E+00 4.04787E-13 1.76630E-14
 -1      3052 2.30854E+01-4.89064E+00 6.88324E-02 4.13195E+00 3.20771E-13 1.75152E-13
 -1      3053 2.04234E+01 1.37352E+00 2.27193E-03 7.94727E-02 3.09090E-13-1.92503E-13
 -1      3054 2.02579E+01 1.73650E+00-1.12604E-03 1.98439E-01 3.28522E-13-2.28684E-13
 -1      3055 2.03891E+01 1.20047E+00-1.54145E-03-1.93365E-01 2.73365E-13-1.67735E-13
 -1      3056 2.00713E+01 1.97142E+00-2.75200E-03 1.77135E-01 2.95983E-13-2.97756E-13
 -1      3057 2.03938E+01 6.49047E-01 4.39298E-03 6.74948E-01-1.42096E-13-2.52838E-13
 -1      3058 2.04117E+01 5.11727E-01-3.47550E-04 8.12153E-01-1.09455E-13-2.55080E-13
 -1      3059 2.04373E+01 3.81638E-01 4.76739E-03 9.39579E-01-8.95345E-14-2.31152E-13
 -1      3060 2.04882E+01 2.44681E-01 4.66487E-04 1.03254E+00-8.64843E-14-2.49174E-13
 -1      3061 2.02843E+01 5.45824E-01-3.62158E-03 9.00849E-01-9.91417E-14-2.67965E-13
 -1      3062 2.05497E+01 1.03232E-01 5.93598E-03 1.12590E+00-6.50840E-14-2.21540E-13
 -1      3063 2.06432E+01-5.63424E-02 6.17920E-04 1.17248E+00-4.30418E-14-2.37859E-13
 -1      3064 2.03511E+01 2.32727E-01-5.76353E-03 1.13639E+00-6.58507E-14-2.09236E-13
 -1      3065 2.07643E+01-2.27996E-01 8.23468E-03 1.22522E+00-2.10170E-14-2.35149E-13
 -1      3066 2.09093E+01-4.26079E-01-2.74044E-04 1.21594E+00-4.03724E-14-2.04188E-13
 -1      3067 2.05082E+01-1.29766E-01-8.61202E-03 1.30270E+00-2.75977E-14-2.13536E-13
 -1      3068 2.11171E+01-6.36637E-01 1.16335E-02 1.21165E+00-1.78549E-14-1.43846E-13
 -1      3069 2.13190E+01-8.74926E-01-2.75466E-03 1.12955E+00-1.00613E-14-9.60151E-14
 -1      3070 2.08027E+01-5.78325E-01-1.23592E-02 1.37973E+00 1.32645E-14-1.50942E-13
 -1      3071 2.16387E+01-1.11271E+00 1.57542E-02 1.03829E+00-4.47355E-14-3.68401E-14
 -1      3072 2.18906E+01-1.36355E+00-7.16406E-03 8.61515E-01-1.87021E-14-9.73863E-15
 -1      3073 2.12857E+01-1.11990E+00-1.64123E-02 1.32372E+00 2.84852E-14-5.46395E-14
 -1      3074 2.23283E+01-1.57865E+00 1.80854E-02 6.41122E-01-1.30323E-14 4.17975E-14
 -1      3075 2.25993E+01-1.76118E+00-1.25934E-02 3.54010E-01 8.02635E-15-2.15286E-14
 -1      3076 2.19948E+01-1.69341E+00-1.80132E-02 1.06057E+00-7.19233E-15 8.48527E-14
 -1      3077 2.31086E+01-1.84343E+00 1.39746E-02-3.05151E-02 1.81153E-14-1.29131E-14
 -1      3078 2.33358E+01-1.80646E+00-1.51151E-02-4.07269E-01-8.68110E-15-3.44582E-14
 -1      3079 2.29093E+01-2.12016E+00-1.47767E-02 4.98691E-01 7.98173E-15 1.11462E-13
 -1      3080 2.37741E+01-1.57859E+00-2.08036E-03-9.13010E-01 1.33444E-14 4.43706E-14
 -1      3081 2.38733E+01-1.17534E+00-1.68215E-02-1.26048E+00-2.82187E-14 8.46775E-14
 -1      3082 2.38745E+01-2.03434E+00-1.43848E-03-3.93044E-01 5.77359E-14 1.15855E-13
 -1      3083 2.40896E+01-5.10499E-01-2.59301E-02-1.73728E+00-1.61522E-13 1.14317E-13
 -1      3084 2.40072E+01 3.52987E-01 7.55075E-04-1.85583E+00-2.49967E-13 4.72656E-14
 -1      3085 2.45673E+01-1.14801E+00-2.12191E-02-1.39292E+00-9.02603E-14 1.80553E-13
 -1      3086 2.38782E+01 1.29716E+00-5.80135E-02-1.87265E+00-2.77912E-13-9.41478E-15
 -1      3087 2.37270E+01 2.23971E+00-2.97112E-03-1.58900E+00-3.15380E-13-1.12909E-14
 -1      3088 2.47204E+01 8.94426E-01-1.72359E-02-1.97934E+00-3.36332E-13 1.34396E-13
 -1      3089 2.34741E+01 2.98641E+00-6.02604E-02-9.60226E-01-3.19952E-13-9.23009E-14
 -1      3090 2.33605E+01 3.41933E+00-3.42919E-02-3.24616E-01-3.94317E-13-8.19206E-14
 -1      3091 2.43949E+01 3.09958E+00-4.36388E-02-1.46199E+00-3.65263E-13 1.44190E-14
 -1      3092 2.40400E+01 3.68341E+00-5.40533E-02 8.11273E-01-5.79939E-13-2.35774E-13
 -1      3093 2.41657E+01 3.10340E+00-6.29019E-02 1.45946E+00-4.77101E-13-3.55204E-13
 -1      3094 2.40393E+01 1.76475E-01 7.81708E-03 1.92938E+00-3.78048E-14-3.93329E-13
 -1      3095 2.40547E+01-6.44875E-01-3.14797E-02 1.76515E+00 1.51758E-14-3.63013E-13
 -1      3096 2.38274E+01-1.22992E+00-1.15854E-02 1.30441E+00 1.22354E-14-3.62205E-13
 -1      3097 2.37017E+01-1.59842E+00-2.11635E-03 9.47437E-01 4.25072E-14-3.59292E-13
 -1      3098 2.44790E+01-1.18298E+00-1.36104E-02 1.47034E+00 7.27838E-14-4.75439E-13
 -1      3099 2.32381E+01-1.77611E+00-1.71396E-02 4.52571E-01 6.94204E-15-2.78831E-13
 -1      3100 2.30048E+01-1.77461E+00 1.48322E-02 9.24524E-02 5.42659E-14-2.71399E-13
 -1      3101 2.37247E+01-2.03924E+00-1.24825E-02 4.25163E-01 7.85220E-14-3.34441E-13
 -1      3102 2.24906E+01-1.67195E+00-1.26354E-02-2.64487E-01 8.44086E-14-2.09727E-13
 -1      3103 2.22193E+01-1.47934E+00 1.77215E-02-5.32143E-01 9.83948E-14-2.35602E-13
 -1      3104 2.27448E+01-2.02718E+00-1.61111E-02-4.25729E-01 1.16436E-13-1.70499E-13
 -1      3105 2.17843E+01-1.26344E+00-6.93465E-03-7.30927E-01 3.26074E-15-2.16714E-13
 -1      3106 2.15334E+01-1.02001E+00 1.46886E-02-8.92778E-01-5.81042E-14-1.84097E-13
 -1      3107 2.18325E+01-1.57851E+00-1.80505E-02-9.39324E-01 7.89003E-14-1.75033E-13
 -1      3108 2.12156E+01-7.95696E-01-2.45210E-03-9.72229E-01-7.04988E-14-1.41629E-13
 -1      3109 2.10123E+01-5.78056E-01 1.02746E-02-1.04839E+00-2.83189E-14-7.50853E-14
 -1      3110 2.11284E+01-1.02330E+00-1.52615E-02-1.17126E+00-2.72971E-14-3.84516E-14
 -1      3111 2.08014E+01-3.92821E-01 7.81040E-05-1.05312E+00-2.51046E-14-1.32211E-13
 -1      3112 2.06487E+01-2.27872E-01 6.37502E-03-1.06917E+00 5.97780E-14-7.17291E-14
 -1      3113 2.06415E+01-5.31950E-01-1.11107E-02-1.21991E+00-1.17931E-14 1.31958E-13
 -1      3114 2.05196E+01-9.46850E-02 1.27656E-03-1.03172E+00 1.28300E-13-1.88271E-13
 -1      3115 2.04096E+01 1.59342E-02 3.45118E-03-1.00955E+00 1.20293E-13-1.56521E-13
 -1      3116 2.03313E+01-1.61703E-01-7.33065E-03-1.16306E+00 6.30288E-14-5.70854E-14
 -1      3117 2.03367E+01 1.00966E-01 1.73802E-03-9.51025E-01 1.39320E-13-1.04038E-13
 -1      3118 2.02587E+01 1.66243E-01 1.47726E-03-9.06959E-01 1.01610E-13-7.23036E-14
 -1      3119 2.01480E+01 8.60110E-02-4.48953E-03-1.05203E+00 1.97815E-13-1.50909E-13
 -1      3120 2.02218E+01 2.13195E-01 1.85461E-03-8.40290E-01 4.60842E-14-6.06199E-15
 -1      3121 2.01663E+01 2.44794E-01 2.47979E-04-7.85791E-01-2.45545E-14 7.53245E-14
 -1      3122 2.00483E+01 2.32286E-01-2.55807E-03-9.17971E-01 8.78678E-14 4.86766E-14
 -1      3123 2.01509E+01 2.64526E-01 1.81643E-03-7.18689E-01-9.01005E-14 1.84373E-13
 -1      3124 2.01107E+01 2.73215E-01-4.53549E-04-6.61421E-01 1.52779E-14 2.79206E-13
 -1      3125 2.00001E+01 3.03417E-01-1.34016E-03-7.79187E-01 9.98888E-15 2.17804E-13
 -1      3126 2.01072E+01 2.75078E-01 1.70622E-03-5.98343E-01-1.11064E-13 2.62383E-13
 -1      3127 2.00774E+01 2.69479E-01-8.02507E-04-5.43161E-01-1.01534E-13 1.99987E-13
 -1      3128 1.99815E+01 3.23383E-01-6.21935E-04-6.46232E-01-2.59002E-14 2.78045E-13
 -1      3129 2.00797E+01 2.60669E-01 1.55874E-03-4.86497E-01-2.01796E-14 2.44815E-13
 -1      3130 2.00571E+01 2.47120E-01-9.27796E-04-4.36227E-01 2.18046E-14 3.56670E-13
 -1      3131 1.99785E+01 3.11313E-01-2.28269E-04-5.24937E-01-3.86018E-14 2.51379E-13
 -1      3132 2.00618E+01 2.32769E-01 1.39088E-03-3.87032E-01 4.65613E-15 3.41505E-13
 -1      3133 2.00442E+01 2.15631E-01-9.19403E-04-3.43070E-01-8.87029E-14 2.65047E-13
 -1      3134 1.99827E+01 2.81281E-01-3.32450E-05-4.18152E-01-1.62724E-14 2.88016E-13
 -1      3135 2.00493E+01 1.99174E-01 1.21401E-03-3.01528E-01-1.25493E-13 3.15283E-13
 -1      3136 2.00355E+01 1.81264E-01-8.37955E-04-2.64301E-01-1.07970E-13 2.52424E-13
 -1      3137 1.99892E+01 2.43015E-01 4.73971E-05-3.26790E-01-4.53066E-14 3.67187E-13
 -1      3138 2.00401E+01 1.64851E-01 1.03736E-03-2.30049E-01-1.37654E-13 2.19161E-13
 -1      3139 2.00291E+01 1.47854E-01-7.22877E-04-1.99362E-01-4.10356E-14 1.51813E-13
 -1      3140 1.99957E+01 2.02837E-01 6.70532E-05-2.50506E-01-8.43066E-14 3.01213E-13
 -1      3141 2.00328E+01 1.32717E-01 8.68431E-04-1.71720E-01 7.70908E-14 5.92907E-14
 -1      3142 2.00241E+01 1.17531E-01-5.98693E-04-1.47014E-01 1.93868E-13 2.30191E-14
 -1      3143 2.00010E+01 1.64563E-01 5.78632E-05-1.88182E-01-7.07899E-14 2.83911E-13
 -1      3144 2.00267E+01 1.04275E-01 7.12748E-04-1.25145E-01 1.90397E-13-8.65012E-14
 -1      3145 2.00199E+01 9.12765E-02-4.79720E-04-1.05677E-01 1.97994E-13-1.62203E-13
 -1      3146 2.00047E+01 1.30251E-01 3.80768E-05-1.38274E-01 9.93723E-14 2.06771E-13
 -1      3147 2.00217E+01 8.01021E-02 5.73798E-04-8.87045E-02 2.42727E-13-3.05923E-13
 -1      3148 2.00163E+01 6.93373E-02-3.73488E-04-7.36742E-02 1.75410E-13-3.54383E-13
 -1      3149 2.00071E+01 1.00788E-01 1.72703E-05-9.90596E-02 1.74680E-13-1.81882E-13
 -1      3150 2.00173E+01 6.01982E-02 4.53242E-04-6.07480E-02 7.13806E-14-3.18140E-13
 -1      3151 2.00132E+01 5.15220E-02-2.83180E-04-4.93764E-02-2.05415E-14-3.26043E-13
 -1      3152 2.00082E+01 7.63127E-02-1.49743E-07-6.88162E-02 1.61638E-13-4.30013E-13
 -1      3153 2.00137E+01 4.42332E-02 3.51282E-04-3.97226E-02-1.26766E-14-1.23327E-13
 -1      3154 2.00105E+01 3.73990E-02-2.09320E-04-3.12984E-02-8.69065E-14-1.98691E-15
 -1      3155 2.00084E+01 5.65255E-02-1.26915E-05-4.59257E-02 8.52733E-14-1.51224E-13
 -1      3156 2.00106E+01 3.17076E-02 2.67132E-04-2.42396E-02-1.37151E-13 1.66282E-13
 -1      3157 2.00082E+01 2.64261E-02-1.51024E-04-1.81436E-02-4.92858E-14 1.88355E-13
 -1      3158 2.00080E+01 4.08897E-02-2.04293E-05-2.89406E-02 6.40178E-14 1.74173E-13
 -1      3159 2.00080E+01 2.20555E-02 1.99352E-04-1.31084E-02-1.51070E-14 5.24976E-14
 -1      3160 2.00062E+01 1.80300E-02-1.06737E-04-8.82283E-03 1.72132E-13 4.17305E-14
 -1      3161 2.00071E+01 2.87655E-02-2.43249E-05-1.66142E-02 2.17208E-14 3.34224E-13
 -1      3162 2.00059E+01 1.47050E-02 1.45784E-04-5.34515E-03 2.05195E-13 7.21706E-14
 -1      3163 2.00045E+01 1.16510E-02-7.39712E-05-2.45338E-03 1.89062E-13-1.13456E-14
 -1      3164 2.00060E+01 1.94941E-02-2.44255E-05-7.90810E-03 1.19578E-13 6.48833E-14
 -1      3165 2.00041E+01 9.11233E-03 1.03687E-04-1.68410E-04 7.44399E-14-5.18105E-14
 -1      3166 2.00032E+01 6.78267E-03-4.36917E-05 1.64994E-03-2.52768E-14-7.78431E-14
 -1      3167 2.00048E+01 1.24433E-02-2.04528E-05-1.99389E-03 1.39917E-13-2.06341E-13
 -1      3168 2.00027E+01 4.96279E-03 7.76254E-05 2.92568E-03-4.53615E-14-1.04953E-13
 -1      3169 2.00020E+01 3.11219E-03-2.51785E-05 3.92898E-03 1.08518E-13 1.39227E-15
 -1      3170 2.00024E+01 3.14867E-03-5.11776E-05 3.76086E-03-1.18092E-14-2.27773E-13
 -1      3171 2.00035E+01 7.13036E-03-4.53955E-05 1.66868E-03-3.12429E-14-4.02946E-14
 -1      3172 2.07661E+01-6.14679E-01 1.52073E-02-2.51688E+00-8.23063E-14-8.95966E-14
 -1      3173 2.04475E+01-2.37805E-01 8.43559E-03-2.47402E+00-2.20484E-14-1.49251E-13
 -1      3174 2.03676E+01 5.65960E-02 1.00381E-02-2.29818E+00 3.64736E-14-1.53208E-13
 -1      3175 2.01960E+01 2.72465E-01 1.80295E-03-2.19253E+00 3.02910E-14-1.36848E-13
 -1      3176 1.96673E+01-1.40343E-02-1.18106E-02-2.52237E+00 4.37974E-15-1.59902E-13
 -1      3177 2.31360E+01-3.04514E+00 1.48224E-02-2.30843E+00-2.09246E-13 1.32019E-13
 -1      3178 2.23075E+01-2.30855E+00 5.82211E-02-2.61154E+00-1.76278E-13 8.91145E-14
 -1      3179 2.78314E+01-1.83148E+00-6.54351E-02 1.64168E+00 2.44749E-13 5.01897E-13
 -1      3180 2.83571E+01 4.59527E+00-8.76209E-02-1.78195E+00 4.02706E-13-1.10648E-13
 -1      3181 2.58657E+01-3.75638E+00-3.79660E-02 6.18899E-01-1.79738E-13-4.73026E-13
 -1      3182 2.02392E+01 1.76542E-01 2.69744E-03 2.10390E+00-2.22532E-13 2.30615E-13
 -1      3183 2.04466E+01-6.92454E-02 1.11302E-02 2.19720E+00-1.48376E-13 1.65348E-13
 -1      3184 2.01151E+01 4.68209E-01-1.51131E-03 1.81269E+00-2.39102E-13 1.83872E-13
 -1      3185 2.02302E+01 3.52857E-01 7.64507E-03 1.93314E+00-1.90628E-13 2.23110E-13
 -1      3186 1.95631E+01 3.66446E-01-4.37024E-03 2.08849E+00-2.59449E-13 4.03016E-13
 -1      3187 2.00868E+01 5.77193E-01-3.17151E-03 1.52966E+00-1.14921E-13 9.85974E-14
 -1      3188 2.01563E+01 5.42230E-01 5.47136E-03 1.65681E+00-1.80580E-13 1.20197E-13
 -1      3189 1.96113E+01 6.19252E-01-7.03885E-05 1.75444E+00-1.66027E-13 1.27987E-13
 -1      3190 2.00920E+01 5.81326E-01-3.53893E-03 1.26830E+00-6.02949E-14-1.17473E-13
 -1      3191 2.01405E+01 5.90786E-01 4.21428E-03 1.39083E+00-5.45932E-14-4.78433E-14
 -1      3192 1.97068E+01 6.97328E-01 1.77903E-03 1.46105E+00-6.46333E-14-2.41246E-14
 -1      3193 2.01021E+01 5.32367E-01-3.32861E-03 1.03465E+00-1.58567E-14-6.28823E-14
 -1      3194 2.01414E+01 5.63217E-01 3.49170E-03 1.14648E+00-1.92149E-14-5.81103E-14
 -1      3195 1.98034E+01 6.77589E-01 2.19535E-03 1.20422E+00 8.21870E-15-8.81178E-14
 -1      3196 2.01069E+01 4.61437E-01-2.89408E-03 8.30995E-01 1.39193E-13-7.38711E-14
 -1      3197 2.01414E+01 5.00181E-01 3.02660E-03 9.29236E-01 1.16722E-13-6.37907E-14
 -1      3198 1.98827E+01 6.10026E-01 1.96581E-03 9.80523E-01 6.49487E-14-7.98921E-15
 -1      3199 2.01045E+01 3.85887E-01-2.40251E-03 6.57359E-01 1.18568E-13-5.84266E-14
 -1      3200 2.01355E+01 4.25175E-01 2.66034E-03 7.41183E-01 6.08615E-14-9.13693E-14
 -1      3201 1.99409E+01 5.24159E-01 1.52101E-03 7.87726E-01 9.30635E-14-1.70922E-13
 -1      3202 2.00963E+01 3.14581E-01-1.93387E-03 5.12220E-01 8.38235E-14-1.63948E-15
 -1      3203 2.01240E+01 3.50779E-01 2.32603E-03 5.82082E-01 1.85965E-13 1.03949E-13
 -1      3204 1.99800E+01 4.36327E-01 1.06792E-03 6.23932E-01 5.79138E-14-1.04559E-13
 -1      3205 2.00847E+01 2.51447E-01-1.52243E-03 3.93053E-01 1.05508E-14-5.74439E-14
 -1      3206 2.01088E+01 2.83053E-01 2.00456E-03 4.50140E-01 1.00587E-13 8.35433E-14
 -1      3207 2.00041E+01 3.54816E-01 6.88864E-04 4.86975E-01 1.37682E-13-1.77343E-14
 -1      3208 2.00717E+01 1.97698E-01-1.17805E-03 2.96811E-01-1.82871E-13-4.35657E-14
 -1      3209 2.00921E+01 2.24364E-01 1.69698E-03 3.42659E-01-2.14859E-13-1.91606E-13
 -1      3210 2.00175E+01 2.83201E-01 4.03490E-04 3.74294E-01-1.18200E-14 1.33987E-13
 -1      3211 2.00588E+01 1.53150E-01-8.98430E-04 2.20279E-01 2.29510E-13-1.00320E-13
 -1      3212 2.00757E+01 1.75109E-01 1.41025E-03 2.56523E-01 1.94656E-14-1.21797E-13
 -1      3213 2.00236E+01 2.22452E-01 2.03948E-04 2.83045E-01-1.07756E-13-2.46836E-13
 -1      3214 2.00468E+01 1.16964E-01-6.76060E-04 1.60325E-01 9.03089E-14 1.57696E-13
 -1      3215 2.00605E+01 1.34710E-01 1.15093E-03 1.88550E-01 1.88207E-13 1.20372E-13
 -1      3216 2.00251E+01 1.72189E-01 7.31263E-05 2.10289E-01 9.40896E-15-1.73169E-13
 -1      3217 2.00364E+01 8.80540E-02-5.01936E-04 1.14047E-01-1.28418E-13 4.99404E-13
 -1      3218 2.00472E+01 1.02169E-01 9.22990E-04 1.35704E-01-2.62255E-15 3.60326E-13
 -1      3219 2.00240E+01 1.31396E-01-6.86463E-06 1.53154E-01-3.45363E-14 3.08626E-13
 -1      3220 2.00276E+01 6.52936E-02-3.67338E-04 7.88603E-02-8.99492E-14 5.58030E-13
 -1      3221 2.00360E+01 7.63609E-02 7.27661E-04 9.52294E-02-8.93278E-14 5.16890E-13
 -1      3222 2.00214E+01 9.88235E-02-5.13437E-05 1.08962E-01-1.93208E-13 4.39775E-13
 -1      3223 2.00205E+01 4.76201E-02-2.64550E-04 5.25255E-02-1.70005E-13 5.68892E-13
 -1      3224 2.00269E+01 5.61796E-02 5.64010E-04 6.47020E-02-1.09457E-13 6.34376E-13
 -1      3225 2.00183E+01 7.31917E-02-7.21864E-05 7.53067E-02-1.05762E-13 5.78906E-13
 -1      3226 2.00149E+01 3.40770E-02-1.87149E-04 3.31512E-02-4.07794E-14 4.03373E-13
 -1      3227 2.00196E+01 4.06105E-02 4.29686E-04 4.20512E-02-1.16117E-13 4.71589E-13
 -1      3228 2.00151E+01 5.32982E-02-7.80381E-05 5.00879E-02-5.48196E-14 5.70885E-13
 -1      3229 2.00105E+01 2.38262E-02-1.29854E-04 1.91749E-02 1.87213E-13 7.86303E-14
 -1      3230 2.00139E+01 2.87532E-02 3.21549E-04 2.55477E-02 8.54877E-14 2.74517E-13
 -1      3231 2.00121E+01 3.80593E-02-7.50716E-05 3.15215E-02 1.34923E-13 9.41208E-14
 -1      3232 2.00072E+01 1.61455E-02-8.86518E-05 9.33350E-03 2.34329E-13 6.06576E-15
 -1      3233 2.00096E+01 1.98264E-02 2.36136E-04 1.37794E-02 2.24649E-13 2.76815E-14
 -1      3234 2.00094E+01 2.65257E-02-6.72233E-05 1.81274E-02 2.12206E-13-1.76714E-13
 -1      3235 2.00047E+01 1.04179E-02-5.75022E-05 2.63169E-03 8.95058E-14 1.71977E-13
 -1      3236 2.00064E+01 1.31590E-02 1.70230E-04 5.61799E-03 2.31303E-13 1.11988E-13
 -1      3237 2.00071E+01 1.78742E-02-5.75058E-05 8.70487E-03 1.43085E-13 5.91122E-14
 -1      3238 2.00030E+01 6.15758E-03-1.36861E-05-1.67367E-03-7.11452E-14 5.00299E-13
 -1      3239 2.00040E+01 8.15318E-03 1.14276E-04 1.80912E-04 2.02975E-14 3.77631E-13
 -1      3240 2.00052E+01 1.14068E-02-4.80008E-05 2.30863E-03-6.83286E-14 3.99771E-13
 -1      3241 2.97443E+01 4.51290E+00-1.92721E-01-2.02086E+00 4.60965E-13-2.17229E-13
 -1      3242 2.87162E+01 3.07879E+00-1.04293E-01-2.45050E+00 2.54546E-13-2.56781E-13
 -1      3243 2.00034E+01 4.91170E-03 1.54681E-06 2.04241E-03 1.55378E-13-1.35166E-13
 -1      3244 2.00034E+01 5.22230E-03-3.36944E-05 1.53600E-03 1.25654E-13-1.76122E-13
 -1      3245 1.93377E+01 2.79164E+00-4.80098E-03 1.36856E-01 1.48882E-13-4.94494E-13
 -1      3246 1.92940E+01 2.83544E+00-3.89813E-03 1.02739E-01 9.59216E-14-5.05543E-13
 -1      3247 1.27390E+01-1.53640E+00 1.70583E-02 4.75468E+00 3.41643E-13-4.62685E-13
 -1      3248 1.07548E+01-5.42320E-01 1.28520E-01 3.48151E+00 2.57981E-13-6.99996E-13
 -1      3249 2.00034E+01 6.13086E-03-2.00102E-05 3.63294E-04 1.45064E-14 2.15618E-13
 -1      3250 2.00034E+01 6.11771E-03-1.80667E-05-9.34693E-05 4.40462E-14 2.66873E-13
 -1      3251 1.45323E+01-1.83658E+00 9.40193E-02-4.75176E+00-3.80578E-13-4.73371E-13
 -1      3252 1.74494E+01-3.18186E+00 1.75213E-02-5.17973E+00-3.99493E-13-2.95167E-13
 -1      3253 2.00030E+01 3.63177E-03-1.05141E-05 3.08356E-03 1.34851E-14-1.29886E-13
 -1      3254 2.00032E+01 4.07430E-03-3.16917E-05 2.53024E-03 1.34307E-13-5.59388E-14
 -1      3255 2.00038E+01 7.11395E-03 3.75185E-05 1.75988E-03 1.34614E-14-1.08577E-13
 -1      3256 2.00034E+01 5.78218E-03-7.98822E-06 1.14752E-03 9.82515E-14 2.56996E-14
 -1      3257 2.00034E+01 5.94343E-03-2.88583E-05 6.88829E-04 1.16047E-13 1.03544E-13
 -1      3258 2.00038E+01 9.24296E-03 6.13994E-05 4.05805E-04 1.98004E-13 2.59568E-13
 -1      3259 2.00039E+01 8.49647E-03 5.04973E-05 9.84488E-04 3.85104E-15-6.84820E-14
 -1      3260 1.07615E+01-1.35690E+00 1.53295E-01-4.65898E+00 1.91264E-13 4.15279E-13
 -1      3261 1.34405E+01-2.17349E+00 6.51689E-02-5.35669E+00 2.97672E-13 1.42150E-13
 -1      3262 2.02718E+01 8.30684E-01 1.72186E-03-1.02831E+00 1.89648E-13-1.61034E-13
 -1      3263 2.02804E+01 8.91716E-01 1.38703E-03-8.31608E-01 2.21054E-13-1.40434E-13
 -1      3264 2.67179E+01 1.60542E-01-1.41344E-01-1.84763E+00-2.97769E-13 2.07816E-13
 -1      3265 2.67332E+01-1.51278E+00 4.78888E-02-1.09667E+00-1.51872E-13 2.25084E-13
 -1      3266 1.01316E+01 7.00521E-02 1.44612E-01-2.03632E+00-1.33525E-13-7.20063E-13
 -1      3267 1.18632E+01-6.38137E-01 4.24655E-02-3.51130E+00-2.60680E-13-5.94344E-13
 -1      3268 1.96438E+01-4.06307E+00-2.72762E-02 4.74465E+00-2.27901E-13 2.09152E-13
 -1      3269 1.68803E+01-3.00867E+00 1.54185E-01 5.17155E+00-1.84019E-13 1.31603E-13
 -1      3270 2.00019E+01 7.73142E-04 5.64035E-06-4.68688E-03 1.77436E-13 7.76605E-14
 -1      3271 2.62029E+01 3.55653E+00-1.31074E-01-1.87054E+00-5.23762E-13 2.42705E-13
 -1      3272 2.66782E+01 2.14841E+00-4.82376E-02-2.16012E+00-4.05009E-13 3.20369E-13
 -1      3273 8.98701E+00 2.22081E-01 1.13813E-01-1.28523E+00-7.49097E-14 3.94768E-13
 -1      3274 9.47383E+00-5.16388E-01 1.03388E-01-3.29650E+00 2.49245E-14 5.77691E-13
 -1      3275 1.16076E+01-2.79991E-01 1.17864E-01-3.21880E+00 1.55445E-13 3.08836E-13
 -1      3276 2.05794E+01-3.99992E-01 1.23352E-02 2.37313E+00-1.90148E-13 1.30106E-13
 -1      3277 2.09436E+01-8.41238E-01 1.05175E-02 2.40304E+00-1.16624E-13 5.95865E-14
 -1      3278 1.96568E+01-1.70810E-01-1.35211E-02 2.46287E+00-1.95455E-13 3.21821E-13
 -1      3279 9.91041E+00-1.03288E-01 6.79852E-02 2.37973E+00-2.03487E-13 3.99958E-13
 -1      3280 8.95287E+00 2.57789E-01 1.03784E-01 3.47514E-01-1.21041E-13 4.27755E-13
 -1      3281 1.07310E+01 5.68166E-01 1.35141E-01-2.83851E-01-6.82831E-14 4.32474E-13
 -1      3282 2.13520E+01-1.34937E+00 3.72985E-02 2.51757E+00-1.28381E-13-5.13921E-14
 -1      3283 2.19140E+01-2.01109E+00 2.08859E-03 2.42241E+00-1.54174E-13-1.78054E-13
 -1      3284 2.00889E+01-1.16348E+00-3.69229E-02 2.84842E+00-1.99504E-13 1.57372E-13
 -1      3285 2.02031E+01 2.10407E+00 5.91176E-04-5.39553E-01-2.94071E-13-4.31580E-13
 -1      3286 2.16098E+01-1.67560E+00 1.80388E-02-2.58522E+00-1.43714E-13-7.97994E-15
 -1      3287 2.10618E+01-1.09792E+00 2.40836E-02-2.67100E+00-1.10427E-13-5.67289E-14
 -1      3288 1.99637E+01-8.45398E-01-1.75285E-02-2.91216E+00-1.37509E-13-1.54780E-13
 -1      3289 2.08326E+01-2.12704E+00-1.33500E-02-3.23102E+00-2.08382E-13-3.39624E-14
 -1      3290 2.59330E+01-3.54314E+00-1.32495E-01 5.86437E-01 5.35214E-14 2.44901E-13
 -1      3291 2.49510E+01-4.23636E+00 5.42984E-02 2.12586E+00 1.97067E-13 2.51733E-13
 -1      3292 2.62820E+01-3.45027E+00 3.84976E-02-7.30022E-01 2.68481E-13-3.03133E-13
 -1      3293 2.66129E+01-2.21397E+00-8.47727E-02 6.39268E-01 1.12580E-13-4.87263E-13
 -1      3294 9.61852E+00 4.96016E-02 8.49925E-02 1.97131E+00 1.35964E-13-7.60808E-13
 -1      3295 9.22505E+00 2.01446E-01 6.74220E-02-3.27941E-01 1.87871E-15-7.73992E-13
 -1      3296 1.13288E+01 4.95405E-01 1.16525E-01-8.57511E-01-5.80334E-14-6.51215E-13
 -1      3297 2.02188E+01 7.35404E-01 2.90633E-03-1.38356E+00 1.37818E-13-1.68870E-13
 -1      3298 2.02058E+01 7.79938E-01 7.90438E-05-1.21117E+00 1.72870E-13-1.55621E-13
 -1      3299 2.00170E+01 9.66842E-01 6.79529E-04-1.09105E+00 1.82378E-13-1.91234E-13
 -1      3300 2.04171E+01-3.44876E+00 1.09803E-01-4.28741E+00-3.76114E-13-9.58652E-14
 -1      3301 2.27295E+01-4.01050E+00-5.05378E-02-3.24110E+00-2.73425E-13 1.29098E-13
 -1      3302 1.70154E+01-3.17185E+00-1.17126E-02 5.39111E+00 4.36477E-13-1.53148E-13
 -1      3303 1.51328E+01-2.23349E+00 1.42570E-01 5.25513E+00 4.04218E-13-2.79235E-13
 -1      3304 2.52031E+01 4.89774E+00-1.42553E-01-2.79399E-01-6.35797E-13-4.59398E-14
 -1      3305 2.54542E+01 4.45548E+00-9.32950E-02-1.28456E+00-5.54959E-13 6.82475E-14
 -1      3306 1.39761E+01-2.24171E+00 6.26874E-03 5.03588E+00-2.20490E-13 2.35312E-13
 -1      3307 1.16352E+01-8.99311E-01 1.25031E-01 3.84107E+00-3.22652E-13 3.53412E-13
 -1      3308 1.62783E+01-2.11183E+00 9.26098E-02 4.55311E+00-2.35610E-13 2.11345E-13
 -1      3309 2.32557E+01-4.52024E+00 3.57514E-02-3.43846E+00 3.04295E-13 6.91461E-15
 -1      3310 2.50462E+01-4.31162E+00-7.00783E-02-2.08225E+00 2.55566E-13-1.37682E-13
 -1      3311 2.51462E+01-3.71737E+00 1.94220E-03-1.17380E+00 3.42011E-13-3.80994E-13
 -1      3312 2.03858E+01 9.58302E-01 3.56326E-03 3.28669E-01-2.11595E-13-3.02756E-13
 -1      3313 2.03832E+01 7.93430E-01-1.50402E-03 5.13911E-01-1.68197E-13-2.94176E-13
 -1      3314 2.02672E+01 8.60030E-01-1.90495E-03 6.00908E-01-1.29440E-13-2.88702E-13
 -1      3315 2.47815E+01-3.69534E+00 4.81676E-02 1.44696E+00-2.52856E-13-3.61969E-13
 -1      3316 1.92809E+01 2.84306E+00-5.13904E-03 1.02493E-01 7.02838E-14-5.08495E-13
 -1      3317 1.93002E+01 2.83063E+00-3.05618E-03 6.31894E-02 1.61193E-14-5.12808E-13
 -1      3318 1.93225E+01 2.62024E+00 7.08922E-03 9.27022E-02 7.64721E-14-4.72777E-13
 -1      3319 2.39452E+01-3.40839E+00 2.57611E-04 1.79922E+00-2.52298E-13-3.22328E-13
 -1      3320 2.34791E+01-4.05198E+00-5.53003E-02 2.54738E+00-2.60924E-13-1.24804E-13
 -1      3321 2.21860E+01-4.06408E+00 1.03782E-01 3.69737E+00-2.09544E-13 1.46061E-13
 -1      3322 2.30840E+01-2.78292E+00 5.69869E-02 2.22733E+00-1.89800E-13-3.21385E-13
 -1      3323 2.84679E+01-1.82055E+00-8.72530E-02 1.53289E+00 2.87270E-13 5.06553E-13
 -1      3324 2.03673E+01 1.33735E+00 1.76500E-04-5.65189E-02-2.89587E-13-3.38592E-13
 -1      3325 2.03668E+01 1.13566E+00-2.41809E-03 1.55996E-01-2.57454E-13-3.26350E-13
 -1      3326 2.02568E+01 1.22076E+00-9.65478E-05 2.56632E-01-2.21304E-13-3.35127E-13
 -1      3327 1.55243E+01-2.54322E+00 1.17744E-01-5.44701E+00 3.31936E-13 9.36057E-14
 -1      3328 1.74269E+01-2.85508E+00 5.07122E-02-4.98615E+00 3.85227E-13 1.37716E-13
 -1      3329 1.42185E+01-1.55834E+00 2.38146E-02-4.70726E+00 2.74027E-13 8.27394E-14
 -1      3330 2.00035E+01 3.92557E-03-3.01038E-05-2.43943E-03 2.92549E-13 7.00919E-14
 -1      3331 2.00033E+01 3.54071E-03 8.47862E-06-3.00741E-03 1.84934E-13 5.16892E-14
 -1      3332 1.16326E+01 1.11747E-01 1.26497E-01 2.36248E+00 1.70662E-13-6.51319E-13
 -1      3333 2.37382E+01 2.00483E+00 2.03090E-03 1.72873E+00-2.69324E-13-4.19489E-13
 -1      3334 2.38913E+01 1.10605E+00-5.94258E-02 2.01474E+00-1.60833E-13-4.33204E-13
 -1      3335 2.02364E+01 1.80231E+00-1.36833E-03-2.98551E-01-2.81644E-13-3.98555E-13
 -1      3336 2.58577E+01 8.76312E-01-3.44970E-02-2.02049E+00-3.26558E-13 2.66138E-13
 -1      3337 2.01901E+01 6.27344E-01 4.57384E-03-1.71143E+00 4.70264E-14-1.77966E-13
 -1      3338 2.01477E+01 6.86200E-01-8.82703E-04-1.55658E+00 9.68063E-14-1.69291E-13
 -1      3339 1.98784E+01 8.56841E-01 5.82780E-04-1.44985E+00 1.14711E-13-1.98570E-13
 -1      3340 1.96457E+01 4.64438E-01-4.27812E-03-2.14943E+00 3.61273E-14-1.50921E-13
 -1      3341 2.02171E+01 4.32322E-01 6.64766E-03-2.01865E+00 1.75449E-14-1.58527E-13
 -1      3342 2.01284E+01 5.44753E-01-6.13084E-04-1.88248E+00 3.17215E-14-1.77164E-13
 -1      3343 2.45743E+01-3.94226E+00 4.10556E-02-2.00805E+00-2.26164E-13 2.12847E-13
 -1      3344 2.57234E+01-4.10278E+00 1.38761E-02-1.31863E+00-1.25710E-13 3.04205E-13
 -1      3345 2.57070E+01-2.40859E+00-2.84300E-02-3.47418E-01-3.17350E-14 1.47472E-13
 -1      3346 2.71945E+01 1.83630E+00-1.83034E-01-2.82630E+00 8.01165E-14-2.80942E-13
 -1      3347 2.14567E+01-2.63920E+00-4.39943E-02 2.94095E+00-2.72320E-13-4.09551E-14
 -1      3348 2.00036E+01 4.77746E-03 4.91449E-06-1.89404E-03 2.03013E-13-9.66039E-14
 -1      3349 2.00041E+01 6.96140E-03 4.25774E-05-1.62854E-03 2.17411E-13-8.65297E-14
 -1      3350 2.00035E+01 5.10787E-03-3.35177E-05-1.34928E-03-1.97623E-14-8.19264E-14
 -1      3351 2.50717E+01 3.07060E+00-5.84188E-02 1.93088E+00-4.80352E-13-3.92290E-13
 -1      3352 2.00026E+01 4.97977E-03 4.62044E-05-2.76519E-03-8.35398E-14 4.31703E-13
 -1      3353 2.00039E+01 7.16752E-03-5.10371E-05-1.35654E-03 8.91303E-14 4.61047E-13
 -1      3354 2.00024E+01 3.92897E-03 1.41185E-05-3.49998E-03-9.32432E-14 3.23069E-13
 -1      3355 2.43522E+01-3.86752E+00 4.20866E-02 1.90355E+00 1.80513E-13 1.48659E-13
 -1      3356 2.38766E+01-4.57250E+00-4.85846E-02 3.04505E+00 2.33327E-13 2.27354E-13
 -1      3357 2.25999E+01-4.45673E+00 5.07990E-02 3.82570E+00 2.69895E-13 1.82531E-13
 -1      3358 2.08225E+01-3.36563E+00 3.02004E-02 3.81828E+00-2.57599E-13 8.86426E-14
 -1      3359 2.47234E+01 6.32161E-01-6.96094E-03 2.09376E+00-8.21322E-14-5.00332E-13
 -1      3360 1.93766E+01-2.61273E+00 3.23403E-02-4.11838E+00-3.21795E-13-1.72765E-13
 -1      3361 2.00035E+01 5.89545E-03-2.92182E-05-4.35049E-04-3.47230E-14 2.78974E-13
 -1      3362 2.00035E+01 5.70488E-03-5.22636E-06-9.22783E-04-7.90762E-14 2.01338E-13
 -1      3363 2.00040E+01 8.40128E-03 5.42076E-05-7.52084E-04 5.48868E-14 4.80167E-14
 -1      3364 2.00039E+01 9.21113E-03 6.14728E-05-1.18848E-04 2.77302E-14 2.69046E-13
 -1      3365 2.59390E+01 2.45196E+00-1.08221E-01 2.16551E+00-3.68330E-13-3.25562E-13
 -1      3366 2.03034E+01-3.72586E+00 3.07453E-02-4.39974E+00 3.63900E-13-1.95816E-14
 -1      3367 2.19800E+01-4.38614E+00 2.39962E-02-4.09157E+00 3.54591E-13 5.31849E-14
 -1      3368 2.28724E+01-4.02508E+00-5.18099E-03-2.92423E+00 4.25771E-13-1.43004E-13
 -1      3369 1.98076E+01 2.30800E+00-4.77852E-03 1.98341E-01 2.77201E-13-3.78596E-13
 -1      3370 1.96486E+01 2.47577E+00-5.78493E-03 1.62814E-01 2.32480E-13-4.18686E-13
 -1      3371 1.35368E+01-6.50757E-02 3.71963E-02-3.03309E+00-1.68860E-13-4.90503E-13
 -1      3372 1.38583E+01-8.78503E-01 1.07628E-01-4.02727E+00-2.70683E-13-4.88901E-13
 -1      3373 1.58312E+01-1.20656E+00 3.28622E-02-3.99639E+00-2.84558E-13-3.77469E-13
 -1      3374 2.00045E+01 1.86295E+00 5.46045E-03-1.07721E-02 2.57959E-13-2.94581E-13
 -1      3375 2.00029E+01 2.53138E-03-2.01651E-05-3.70975E-03 2.64067E-13 1.48675E-13
 -1      3376 2.00020E+01 2.11269E-03 5.27826E-06-4.38717E-03 2.85427E-14 1.32556E-13
 -1      3377 2.00022E+01 3.17130E-03 2.07591E-05-3.99209E-03-1.60416E-14 2.30291E-13
 -1      3378 2.00036E+01 5.08476E-03 2.64256E-05-2.77634E-03 7.95257E-14 1.24381E-13
 -1      3379 1.21333E+01-1.43607E-01 1.35904E-01 2.84902E+00-2.63879E-13 3.22839E-13
 -1      3380 1.95171E+01 2.61500E+00-4.85100E-03 1.66214E-01 2.16722E-13-4.60390E-13
 -1      3381 1.94127E+01 2.71893E+00-4.79865E-03 1.32915E-01 1.67396E-13-4.79738E-13
 -1      3382 1.96161E+01 2.33252E+00 7.96712E-03 4.27387E-02 2.05068E-13-4.20921E-13
 -1      3383 2.54939E+01 1.43540E+00-2.95675E-02 2.14301E+00-2.24515E-13-4.61695E-13
 -1      3384 2.53946E+01-1.65745E+00-2.32843E-02 1.08756E+00 1.30326E-13-4.38413E-13
 -1      3385 2.61161E+01-7.86717E-01-1.14248E-02 1.67213E+00 3.44551E-14-4.64795E-13
 -1      3386 1.94083E+01 2.54091E+00 7.82430E-03 7.01335E-02 1.45420E-13-4.59473E-13
 -1      3387 1.45276E+01-1.41560E+00 8.11890E-02 4.48152E+00 3.52506E-13-3.54952E-13
 -1      3388 2.07700E+01-4.37591E+00 4.99500E-03 4.79721E+00 3.45175E-13 7.59427E-14
 -1      3389 1.91825E+01-3.73009E+00 8.22028E-02 5.09341E+00 4.01790E-13-4.78922E-14
 -1      3390 1.83856E+01-3.07190E+00 3.47523E-02 4.82948E+00 3.66776E-13-1.48360E-13
 -1      3391 2.20934E+01-3.99288E+00 4.84325E-02 3.65763E+00 2.55580E-13 9.41181E-14
 -1      3392 2.03338E+01 9.68144E-01 7.52349E-04-6.38948E-01 2.37777E-13-1.51489E-13
 -1      3393 2.03582E+01 1.06836E+00 2.44138E-03-4.13624E-01 2.51835E-13-1.55042E-13
 -1      3394 2.02272E+01 1.34589E+00 1.15205E-04-2.87703E-01 2.50899E-13-1.95210E-13
 -1      3395 2.01383E+01 1.11128E+00 1.61325E-04-7.09297E-01 2.21888E-13-1.99698E-13
 -1      3396 1.95230E+01 2.60379E+00-5.09092E-03-2.26307E-02-1.00816E-13-4.71354E-13
 -1      3397 1.96433E+01 2.48630E+00-3.15839E-03-8.35406E-02-1.48782E-13-4.63344E-13
 -1      3398 2.00027E+01 3.48104E-03-1.98457E-05 3.52777E-03-8.67437E-14-1.94716E-13
 -1      3399 2.00029E+01 3.39649E-03-2.65991E-05 3.31097E-03-1.93308E-14-2.42472E-13
 -1      3400 2.00036E+01 6.07041E-03 4.15145E-05 2.38542E-03-1.69631E-13-2.82759E-13
 -1      3401 2.00033E+01 5.51460E-03 6.56539E-05 2.70989E-03-5.91469E-14-1.31169E-13
 -1      3402 1.97817E+01 2.33112E+00-4.53927E-03-1.20522E-01-1.79179E-13-4.57790E-13
 -1      3403 1.99339E+01 2.15706E+00-4.51121E-03-1.87690E-01-2.15503E-13-4.58762E-13
 -1      3404 1.97688E+01 2.15998E+00 5.12435E-03 3.24892E-02-1.73730E-13-4.30738E-13
 -1      3405 2.01246E+01 7.54811E-01 2.17576E-03 8.36040E-01-6.12097E-14-3.26132E-13
 -1      3406 2.01409E+01 5.95585E-01 1.04197E-03 9.74112E-01-6.05895E-14-2.96621E-13
 -1      3407 1.27455E+01-7.96475E-02 1.70040E-02 2.95978E+00 2.29471E-13-5.39159E-13
 -1      3408 1.18699E+01 5.27328E-01 3.12777E-02 1.48866E+00 1.47755E-13-6.14932E-13
 -1      3409 2.48867E+01 4.40772E+00-8.38273E-02 3.49049E-01-6.14550E-13-1.75568E-13
 -1      3410 2.01452E+01 4.34933E-01 3.15497E-03 1.11314E+00-4.71024E-14-2.66860E-13
 -1      3411 2.01975E+01 2.62874E-01 2.71933E-03 1.22180E+00-3.28520E-14-2.26634E-13
 -1      3412 1.99523E+01 6.22985E-01-3.02951E-03 1.05889E+00-3.47807E-14-2.99588E-13
 -1      3413 2.02415E+01 7.63172E-02 5.16965E-03 1.34569E+00-2.30039E-14-2.05474E-13
 -1      3414 2.03511E+01-1.34697E-01 4.07026E-03 1.42113E+00 1.04249E-14-1.92101E-13
 -1      3415 1.99816E+01 2.49193E-01-6.12311E-03 1.33657E+00 1.71724E-15-2.32973E-13
 -1      3416 2.04701E+01-3.69569E-01 8.75044E-03 1.52327E+00 2.87881E-14-1.58762E-13
 -1      3417 2.06603E+01-6.39524E-01 4.35935E-03 1.55285E+00 3.43953E-14-1.40660E-13
 -1      3418 2.01177E+01-2.08152E-01-1.02404E-02 1.58775E+00 3.06180E-14-1.63619E-13
 -1      3419 2.08996E+01-9.33986E-01 1.43883E-02 1.61256E+00 5.07908E-14-1.15804E-13
 -1      3420 2.11900E+01-1.26687E+00 2.00931E-03 1.57014E+00 6.98693E-14-5.82392E-14
 -1      3421 2.04355E+01-7.96772E-01-1.61348E-02 1.79039E+00 5.00440E-14-1.69143E-13
 -1      3422 2.16077E+01-1.60704E+00 2.32736E-02 1.54026E+00 6.12834E-14-3.60349E-14
 -1      3423 2.20014E+01-1.96483E+00-3.20639E-03 1.38097E+00 5.23886E-14 1.74901E-14
 -1      3424 2.10295E+01-1.54148E+00-2.50129E-02 1.88869E+00 8.72288E-14-1.33987E-13
 -1      3425 2.26283E+01-2.27315E+00 2.97313E-02 1.18002E+00 3.08950E-14 5.65994E-14
 -1      3426 2.30795E+01-2.53069E+00-1.58306E-02 8.58351E-01 2.93060E-14 5.50806E-14
 -1      3427 2.19988E+01-2.35334E+00-2.98915E-02 1.74413E+00 6.60817E-14-6.45213E-14
 -1      3428 2.54225E+01-4.42698E-01 8.20589E-03-1.85396E+00-2.25273E-13 2.20036E-13
 -1      3429 2.53297E+01 7.57812E-01-3.68530E-02-1.93890E+00-3.43656E-13 1.89026E-13
 -1      3430 2.01175E+01 1.87052E+00-2.67660E-04-1.61678E-01-2.49095E-13-4.11867E-13
 -1      3431 2.41326E+01-2.50167E+00-1.81669E-02 1.08524E-01 1.93285E-13-3.44209E-13
 -1      3432 2.37010E+01-2.54286E+00 3.56482E-02-3.71212E-01 1.77396E-13-2.60179E-13
 -1      3433 2.28771E+01-2.40677E+00-8.77404E-03-8.03927E-01 1.25428E-13-1.21178E-13
 -1      3434 2.24091E+01-2.13369E+00 3.07646E-02-1.09457E+00 1.75748E-13-1.13442E-13
 -1      3435 2.31246E+01-2.85937E+00-3.63944E-02-1.12276E+00 2.26885E-13-1.55917E-13
 -1      3436 2.17913E+01-1.82646E+00-3.17077E-03-1.26499E+00 1.19173E-13-9.87526E-14
 -1      3437 2.13978E+01-1.47535E+00 2.15103E-02-1.40463E+00 5.02460E-14-6.34645E-14
 -1      3438 2.17267E+01-2.20699E+00-3.70633E-02-1.63404E+00 1.55372E-13-1.42920E-14
 -1      3439 2.09879E+01-1.15308E+00 2.14340E-03-1.42041E+00 1.98934E-14-6.99349E-14
 -1      3440 2.06965E+01-8.44384E-01 1.29890E-02-1.45600E+00 1.96095E-14-3.68499E-14
 -1      3441 2.07888E+01-1.40644E+00-2.40553E-02-1.74129E+00 2.53329E-14-6.78606E-14
 -1      3442 2.04548E+01-5.79461E-01 4.37309E-03-1.39538E+00-3.05491E-14 4.69211E-14
 -1      3443 2.02578E+01-3.47387E-01 7.03165E-03-1.37101E+00-3.10299E-16 5.34577E-14
 -1      3444 2.01957E+01-7.23033E-01-1.59487E-02-1.63666E+00-4.14209E-15 1.87740E-14
 -1      3445 2.01324E+01-1.56798E-01 4.51562E-03-1.28069E+00-2.90159E-14-1.29996E-14
 -1      3446 2.00092E+01-7.01455E-04 3.17035E-03-1.22565E+00 5.57348E-14-2.73812E-14
 -1      3447 1.98657E+01-2.19556E-01-9.67956E-03-1.44875E+00-7.26357E-14 1.77883E-14
 -1      3448 1.99573E+01 1.22385E-01 3.85046E-03-1.12894E+00 2.24473E-13-6.56407E-14
 -1      3449 1.98857E+01 2.16067E-01 8.61369E-04-1.06063E+00 2.66604E-13-5.32613E-14
 -1      3450 1.97090E+01 1.14323E-01-5.42962E-03-1.24092E+00 1.56594E-13 2.46544E-14
 -1      3451 1.98769E+01 2.85940E-01 3.06938E-03-9.68090E-01 1.93234E-13-5.64002E-14
 -1      3452 1.98386E+01 3.33260E-01-4.30001E-04-8.96472E-01 1.56335E-13 1.09115E-14
 -1      3453 1.96583E+01 3.12465E-01-2.70559E-03-1.04100E+00 2.36431E-13-5.26518E-14
 -1      3454 1.98530E+01 3.64772E-01 2.40502E-03-8.12457E-01 1.21145E-13 1.05235E-13
 -1      3455 1.98347E+01 3.80172E-01-1.09351E-03-7.43182E-01 7.76864E-14 1.79339E-13
 -1      3456 1.96673E+01 4.11156E-01-1.06351E-03-8.59756E-01 1.81905E-13 7.20485E-14
 -1      3457 1.98597E+01 3.86026E-01 1.90040E-03-6.69191E-01-7.13237E-14 1.96807E-13
 -1      3458 1.98525E+01 3.81042E-01-1.37555E-03-6.05395E-01-5.17965E-14 1.57179E-13
 -1      3459 1.97062E+01 4.41873E-01-1.35239E-04-7.00341E-01 2.40335E-14 9.49318E-14
 -1      3460 1.98807E+01 3.71092E-01 1.52901E-03-5.41636E-01-2.44698E-14 1.20450E-13
 -1      3461 1.98792E+01 3.54300E-01-1.43039E-03-4.84926E-01 3.72121E-14 1.76027E-13
 -1      3462 1.97568E+01 4.29314E-01 3.43205E-04-5.62842E-01-3.42278E-14 6.30131E-14
 -1      3463 1.99063E+01 3.35704E-01 1.25105E-03-4.30990E-01-3.10298E-14 1.90597E-13
 -1      3464 1.99073E+01 3.13136E-01-1.35502E-03-3.81984E-01-2.96788E-14 9.32435E-14
 -1      3465 1.98084E+01 3.91712E-01 5.47793E-04-4.46119E-01-3.30789E-15 4.14908E-14
 -1      3466 1.99312E+01 2.90807E-01 1.03452E-03-3.37130E-01 6.94694E-15 1.31958E-13
 -1      3467 1.99328E+01 2.66473E-01-1.21132E-03-2.95796E-01 1.62836E-14 1.73073E-13
 -1      3468 1.98554E+01 3.41874E-01 5.93547E-04-3.48499E-01-1.60945E-14-1.72524E-14
 -1      3469 1.99528E+01 2.43589E-01 8.58329E-04-2.59104E-01-1.42405E-14 2.19707E-13
 -1      3470 1.99543E+01 2.19984E-01-1.03883E-03-2.24987E-01-7.53407E-14 1.77295E-13
 -1      3471 1.98955E+01 2.88341E-01 5.54184E-04-2.68060E-01-6.27851E-15 4.54340E-14
 -1      3472 1.99702E+01 1.98448E-01 7.10104E-04-1.95452E-01-6.40152E-14 2.13529E-13
 -1      3473 1.99712E+01 1.76981E-01-8.62259E-04-1.67848E-01 4.73543E-14 2.75931E-13
 -1      3474 1.99278E+01 2.36448E-01 4.75542E-04-2.02760E-01-6.11687E-14 8.37666E-14
 -1      3475 1.99834E+01 1.57804E-01 5.83081E-04-1.44453E-01-5.98532E-14 1.83122E-13
 -1      3476 1.99838E+01 1.39143E-01-6.96216E-04-1.22535E-01-7.92035E-14-9.07843E-15
 -1      3477 1.99528E+01 1.89227E-01 3.84888E-04-1.50544E-01-6.27714E-14 8.55897E-14
 -1      3478 1.99928E+01 1.22737E-01 4.73682E-04-1.04298E-01-2.23041E-14-5.34753E-14
 -1      3479 1.99928E+01 1.07064E-01-5.48480E-04-8.72108E-02 3.73622E-14-2.48148E-13
 -1      3480 1.99714E+01 1.48125E-01 2.97368E-04-1.09425E-01-1.12386E-13-5.49798E-15
 -1      3481 1.99992E+01 9.34632E-02 3.79905E-04-7.32268E-02 2.37233E-13-2.53650E-13
 -1      3482 1.99988E+01 8.06615E-02-4.22311E-04-6.01453E-02 2.54225E-13-1.69554E-13
 -1      3483 1.99847E+01 1.13544E-01 2.20450E-04-7.75468E-02 4.80031E-14-1.73256E-13
 -1      3484 2.00032E+01 6.96758E-02 3.00372E-04-4.96048E-02 2.24076E-13-2.39111E-13
 -1      3485 2.00025E+01 5.94642E-02-3.18084E-04-3.97773E-02 2.76276E-13 2.90305E-14
 -1      3486 1.99938E+01 8.52432E-02 1.56912E-04-5.32312E-02 3.05620E-13-2.00211E-13
 -1      3487 2.00053E+01 5.07848E-02 2.33880E-04-3.19785E-02 2.19955E-13 4.49512E-14
 -1      3488 2.00045E+01 4.28025E-02-2.34363E-04-2.47451E-02 1.44422E-13 2.23558E-13
 -1      3489 1.99996E+01 6.26194E-02 1.06885E-04-3.50021E-02 2.40587E-13 1.89774E-14
 -1      3490 2.00061E+01 3.60718E-02 1.79501E-04-1.90946E-02 6.92877E-14 2.12337E-13
 -1      3491 2.00052E+01 2.99320E-02-1.69710E-04-1.38953E-02 3.33050E-14 2.07099E-13
 -1      3492 2.00029E+01 4.48913E-02 6.86567E-05-2.15957E-02 1.36357E-13 5.50262E-15
 -1      3493 2.00060E+01 2.47783E-02 1.35807E-04-9.90570E-03-1.01598E-14 1.56124E-13
 -1      3494 2.00051E+01 2.01093E-02-1.17330E-04-6.28818E-03 1.44150E-13 8.18189E-14
 -1      3495 2.00045E+01 3.12097E-02 3.73226E-05-1.19489E-02-1.21017E-14 1.84062E-13
 -1      3496 2.00053E+01 1.61480E-02 8.99519E-05-3.55513E-03 1.97018E-13-9.14104E-14
 -1      3497 2.00046E+01 1.26358E-02-5.84423E-05-1.19039E-03 1.03565E-13-1.18891E-13
 -1      3498 2.00049E+01 2.07904E-02 2.34368E-05-5.21023E-03 9.02211E-14 1.57351E-13
 -1      3499 1.89696E+01 8.42468E-02 1.75089E-02-2.58459E+00-8.64012E-15-1.99620E-13
 -1      3500 1.88897E+01 3.64798E-01-5.30929E-03-2.37993E+00 3.17300E-14-1.84210E-13
 -1      3501 1.93399E+01 8.10158E-01-5.97568E-03 1.30733E+00-1.96478E-14 5.32332E-15
 -1      3502 1.92952E+01 8.16569E-01 3.70631E-03 1.43759E+00-9.47164E-14 2.34818E-14
 -1      3503 1.91235E+01 7.91163E-01-6.94023E-03 1.58495E+00-1.09820E-13 1.07733E-14
 -1      3504 1.90923E+01 7.40068E-01 6.82303E-03 1.73499E+00-1.71223E-13 1.05887E-13
 -1      3505 1.87978E+01 9.33755E-01 5.80735E-03 1.41841E+00-8.55134E-14 4.56005E-14
 -1      3506 1.16904E+01 8.56368E-01 4.52113E-02 5.49137E-01-1.27648E-13 3.20848E-13
 -1      3507 1.17109E+01 7.91167E-01 5.29241E-02-1.03251E+00-5.24121E-14 3.93179E-13
 -1      3508 1.89009E+01 6.33180E-01-7.37964E-03 1.92459E+00-2.21421E-13 1.64162E-13
 -1      3509 1.89220E+01 4.83818E-01 1.36261E-02 2.09772E+00-2.27528E-13 2.36342E-13
 -1      3510 1.84470E+01 8.42240E-01 6.46188E-03 1.74288E+00-1.22982E-13 3.31405E-14
 -1      3511 1.95231E+01 7.55558E-01-4.97932E-03 1.07358E+00-3.63117E-14 4.68342E-14
 -1      3512 1.94819E+01 7.91598E-01 2.23254E-03 1.18749E+00 1.09657E-14 7.70645E-15
 -1      3513 1.90983E+01 9.12221E-01 5.26618E-03 1.16621E+00-8.07004E-15-4.44367E-14
 -1      3514 1.96676E+01 6.66915E-01-4.10579E-03 8.73631E-01 1.68979E-13-7.80539E-14
 -1      3515 1.96358E+01 7.15683E-01 1.62147E-03 9.72890E-01 1.02746E-13-1.60635E-14
 -1      3516 1.93401E+01 8.31910E-01 4.42103E-03 9.58148E-01 7.86555E-14-1.26617E-13
 -1      3517 1.97761E+01 5.67528E-01-3.35523E-03 7.02509E-01 1.14972E-13-1.41250E-13
 -1      3518 1.97543E+01 6.19165E-01 1.36866E-03 7.88027E-01 1.89410E-13-6.06751E-14
 -1      3519 1.95278E+01 7.25953E-01 3.50945E-03 7.81484E-01 1.59722E-13-1.96981E-14
 -1      3520 1.98547E+01 4.70321E-01-2.71384E-03 5.57303E-01-3.29783E-14-6.02459E-14
 -1      3521 1.98414E+01 5.19475E-01 1.24884E-03 6.29868E-01 9.04797E-15-1.56567E-13
 -1      3522 1.96694E+01 6.14081E-01 2.67406E-03 6.30289E-01 5.10079E-14-3.60447E-14
 -1      3523 1.99100E+01 3.81782E-01-2.17125E-03 4.35681E-01 1.59209E-13-8.15742E-14
 -1      3524 1.99029E+01 4.25870E-01 1.16013E-03 4.96242E-01 6.27660E-15-8.64515E-14
 -1      3525 1.97739E+01 5.07305E-01 1.97586E-03 5.01524E-01-1.20889E-14-5.26035E-14
 -1      3526 1.99477E+01 3.04591E-01-1.71796E-03 3.35329E-01-7.12364E-14 4.37994E-14
 -1      3527 1.99449E+01 3.42654E-01 1.06368E-03 3.85036E-01 1.38451E-13 1.24160E-13
 -1      3528 1.98495E+01 4.11114E-01 1.42400E-03 3.93141E-01 4.39811E-14-1.33028E-14
 -1      3529 1.99727E+01 2.39282E-01-1.34406E-03 2.53812E-01-6.03055E-14-9.00591E-14
 -1      3530 1.99727E+01 2.71266E-01 9.51633E-04 2.93952E-01-1.11164E-13 2.64851E-15
 -1      3531 1.99032E+01 3.27672E-01 1.00379E-03 3.03266E-01-6.12925E-14 1.51416E-13
 -1      3532 1.99888E+01 1.85259E-01-1.03942E-03 1.88631E-01-7.95715E-14 6.59251E-14
 -1      3533 1.99903E+01 2.11577E-01 8.28863E-04 2.20535E-01-7.37560E-14-1.14214E-13
 -1      3534 1.99406E+01 2.57234E-01 6.92466E-04 2.29933E-01-4.51177E-14 4.21060E-15
 -1      3535 1.99987E+01 1.41384E-01-7.94126E-04 1.37324E-01-1.30421E-13 2.24271E-13
 -1      3536 2.00009E+01 1.62663E-01 7.03575E-04 1.62290E-01-8.11113E-14 1.19965E-13
 -1      3537 1.99662E+01 1.99023E-01 4.66815E-04 1.71074E-01-1.86436E-13 4.46995E-14
 -1      3538 2.00043E+01 1.06315E-01-5.98891E-04 9.75708E-02-1.70917E-13 2.22239E-13
 -1      3539 2.00068E+01 1.23256E-01 5.83149E-04 1.16805E-01-1.60727E-13 2.61210E-13
 -1      3540 1.99832E+01 1.51768E-01 3.06339E-04 1.24603E-01-1.73106E-13 1.85797E-13
 -1      3541 2.00072E+01 7.86946E-02-4.45353E-04 6.72609E-02-1.37898E-13 3.91905E-13
 -1      3542 2.00096E+01 9.19870E-02 4.72793E-04 8.18448E-02-1.82355E-13 2.30767E-13
 -1      3543 1.99941E+01 1.14010E-01 1.94263E-04 8.85116E-02-2.08065E-13 1.51819E-13
 -1      3544 2.00082E+01 5.72429E-02-3.26025E-04 4.45384E-02 1.05698E-13 2.34450E-13
 -1      3545 2.00104E+01 6.75286E-02 3.75462E-04 5.54108E-02 1.06515E-13 4.54939E-13
 -1      3546 2.00007E+01 8.42814E-02 1.17497E-04 6.09480E-02-2.88008E-14 7.99200E-14
 -1      3547 2.00081E+01 4.08007E-02-2.34857E-04 2.78137E-02 2.73961E-13-5.02127E-16
 -1      3548 2.00101E+01 4.86572E-02 2.92349E-04 3.57690E-02 1.45361E-13 1.45841E-13
 -1      3549 2.00044E+01 6.12007E-02 6.62835E-05 4.02625E-02 2.17382E-13 8.36829E-14
 -1      3550 2.00074E+01 2.83457E-02-1.66315E-04 1.57641E-02 1.38743E-13-3.20392E-14
 -1      3551 2.00091E+01 3.42783E-02 2.23253E-04 2.14566E-02 1.77227E-13-1.01315E-14
 -1      3552 2.00061E+01 4.35111E-02 3.22640E-05 2.50307E-02 2.22632E-13 1.99375E-14
 -1      3553 2.00063E+01 1.89950E-02-1.13476E-04 7.31075E-03 2.67905E-15 1.94017E-13
 -1      3554 2.00077E+01 2.34411E-02 1.67627E-04 1.12687E-02 1.25220E-13 3.16601E-14
 -1      3555 2.00065E+01 3.01096E-02 1.09664E-05 1.40628E-02 6.20684E-14-8.15792E-14
 -1      3556 2.00051E+01 1.20292E-02-5.07539E-05 1.62675E-03-1.08250E-13 9.11805E-14
 -1      3557 2.00062E+01 1.52987E-02 1.22648E-04 4.22949E-03-8.36118E-14 1.38308E-13
 -1      3558 2.00060E+01 2.00225E-02-8.30623E-06 6.38189E-03 2.55895E-16 3.01175E-14
 -1      3559 1.97245E+01-2.26341E+00 6.28777E-02 3.72275E+00-3.07159E-13 1.87982E-13
 -1      3560 1.37454E+01-3.70324E-01 2.91407E-02 3.40105E+00-3.10493E-13 3.20730E-13
 -1      3561 1.22273E+01 4.14678E-01 3.06450E-02 1.98090E+00-2.48856E-13 2.97540E-13
 -1      3562 2.53824E+01 7.45575E-02-1.07639E-01 2.00969E+00-2.85917E-14-4.89156E-13
 -1      3563 2.00041E+01 9.48707E-03 5.27452E-06 1.03436E-03-1.11461E-13-2.01475E-13
 -1      3564 2.00040E+01 1.02441E-02-6.05195E-05 6.32766E-04-8.28342E-14-1.39017E-13
 -1      3565 2.70565E+01-3.62768E+00-5.96740E-02 3.15042E-01 9.26342E-16 4.22655E-13
 -1      3566 2.42142E+01-3.52164E+00 6.49166E-02-1.46585E+00 3.26340E-13-2.79724E-13
 -1      3567 2.47566E+01-3.07761E+00-4.92322E-02-3.88992E-01 2.25816E-13-3.71893E-13
 -1      3568 1.97566E+01 1.08594E+00-2.83386E-04-1.09642E+00 1.57617E-13-2.28710E-13
 -1      3569 1.98269E+01 1.14819E+00-1.94910E-03-9.14097E-01 1.90029E-13-2.19782E-13
 -1      3570 1.93480E+01 2.77660E+00-5.38222E-03 5.20975E-02-2.44370E-14-5.16899E-13
 -1      3571 1.94236E+01 2.71121E+00-2.78246E-03 2.52841E-03-6.71015E-14-5.00518E-13
 -1      3572 1.95228E+01 2.41862E+00 5.70412E-03 7.84323E-02-9.30783E-14-4.50607E-13
 -1      3573 2.49130E+01 3.32908E+00-5.91526E-02-1.47124E+00-4.14349E-13 1.06970E-13
 -1      3574 1.21466E+01 2.61205E-01 3.17034E-02-2.50245E+00 1.74985E-13 2.24730E-13
 -1      3575 1.32648E+01-4.82696E-01 8.99502E-02-3.77785E+00 2.84488E-13 4.26117E-14
 -1      3576 1.87348E+01 2.39337E-01-6.91925E-03 2.35620E+00-2.56548E-13 3.21332E-13
 -1      3577 1.88840E+01-7.00190E-02 2.47108E-02 2.55400E+00-1.25877E-13 2.97543E-13
 -1      3578 1.80770E+01 5.59653E-01 1.00623E-02 2.18483E+00-2.00511E-13 2.20535E-13
 -1      3579 1.96264E+01 2.06189E+00-5.13486E-03-8.64325E-02 2.02511E-13-3.91691E-13
 -1      3580 1.94944E+01 2.20099E+00-3.91144E-03-6.48259E-02 1.70288E-13-4.27747E-13
 -1      3581 1.87617E+01-4.77697E-01 1.30720E-02 2.91517E+00-1.95325E-13 2.34575E-13
 -1      3582 1.91425E+01-1.11191E+00 2.19771E-02 3.14887E+00-3.02275E-13 1.83089E-13
 -1      3583 1.77705E+01-4.55848E-02 1.65669E-02 2.80241E+00-2.13026E-13 2.49701E-13
 -1      3584 2.50763E+01-2.36104E+00 1.67614E-03 5.57659E-01 1.74933E-13-3.95963E-13
 -1      3585 2.00470E+01 1.56082E+00-2.96454E-03-2.17882E-01 2.42949E-13-2.58390E-13
 -1      3586 1.97856E+01 1.89676E+00-1.52065E-03-1.58910E-01 2.18370E-13-3.29252E-13
 -1      3587 1.96839E+01 1.81638E+00 6.43328E-03-2.78813E-01 1.93237E-13-3.34735E-13
 -1      3588 2.00147E+01 1.42205E+00 1.70959E-03-4.38163E-01 2.27876E-13-2.48939E-13
 -1      3589 2.01321E+01 1.09121E+00 1.01813E-03 5.12615E-01-1.35820E-13-3.48261E-13
 -1      3590 2.01331E+01 9.17624E-01-3.58329E-04 6.81648E-01-8.22700E-14-3.33778E-13
 -1      3591 1.99720E+01 9.69682E-01-8.04724E-04 7.57623E-01-6.24718E-14-3.62414E-13
 -1      3592 1.93864E+01 2.29951E+00-4.57988E-03-2.31333E-03 1.52924E-13-4.37734E-13
 -1      3593 1.93143E+01 2.37348E+00-3.16903E-03 2.12600E-02 1.20316E-13-4.38961E-13
 -1      3594 1.94210E+01 2.09104E+00 7.64829E-03-1.24537E-01 1.49987E-13-4.07737E-13
 -1      3595 1.20581E+01 8.70173E-01 6.99868E-02 6.67625E-02 1.22135E-14-5.66366E-13
 -1      3596 1.25482E+01 6.19024E-01 1.49156E-02-1.48184E+00-8.92045E-14-5.39693E-13
 -1      3597 1.58115E+01-1.55875E+00-2.00913E-02 4.34226E+00 3.47739E-13-2.10817E-13
 -1      3598 1.41498E+01-6.02017E-01 8.47702E-02 3.75581E+00 2.98758E-13-3.79329E-13
 -1      3599 1.75062E+01-1.52196E+00 7.83878E-02-4.18021E+00-2.91673E-13-3.11414E-13
 -1      3600 1.97602E+01-2.00676E+00 1.50768E-02-3.55454E+00-2.44088E-13-1.33827E-13
 -1      3601 1.91435E+01-1.23186E+00 5.12668E-03-3.36769E+00-1.99603E-13-1.92388E-13
 -1      3602 1.66456E+01-7.57941E-01 2.81848E-02-3.60326E+00-1.80344E-13-3.34618E-13
 -1      3603 2.49079E+01-1.52240E+00-4.74420E-02-1.14082E+00-7.92233E-14 1.66428E-13
 -1      3604 2.54314E+01-1.76738E+00-6.45422E-02-1.05855E+00-8.59972E-14 1.51969E-13
 -1      3605 2.46828E+01-2.08158E+00 1.44261E-02-6.67093E-01 6.75363E-14 1.27576E-13
 -1      3606 1.79096E+01-1.68687E+00-1.58855E-02 3.88515E+00-2.66379E-13 1.64174E-13
 -1      3607 1.36910E+01 5.46111E-01 7.70126E-02-2.13023E+00-1.22528E-13-5.23238E-13
 -1      3608 1.49287E+01 1.86236E-01-1.99078E-02-2.68243E+00-1.24612E-13-4.38333E-13
 -1      3609 1.41282E+01 8.66699E-01 3.15938E-03-1.33298E+00-2.83601E-14-4.60470E-13
 -1      3610 1.31542E+01 8.25754E-01 5.84750E-02 7.10707E-01 9.34686E-14-4.97290E-13
 -1      3611 1.93651E+01 2.57579E+00 6.28032E-03 9.90957E-02-7.85832E-15-4.68834E-13
 -1      3612 1.91066E+01-7.16020E-01 2.17630E-02-3.06517E+00-1.60380E-13-2.08179E-13
 -1      3613 1.88590E+01-2.33546E-01-1.77503E-03-2.83354E+00-6.76373E-14-1.90080E-13
 -1      3614 1.80293E+01 1.12033E-01-2.15389E-02-2.71405E+00-5.07441E-14-2.73378E-13
 -1      3615 1.79449E+01-6.30207E-01-2.07462E-02-3.30504E+00-1.53856E-13-2.71259E-13
 -1      3616 1.48420E+01-9.26877E-01 4.86268E-02-3.91499E+00 2.71672E-13 6.90559E-14
 -1      3617 2.30569E+01-3.46021E+00 1.20755E-02-2.09326E+00 3.49989E-13-1.92613E-13
 -1      3618 2.38985E+01-2.62394E+00 2.72447E-02 3.77622E-01 4.21936E-14 9.64858E-14
 -1      3619 2.43383E+01-2.47390E+00-1.19357E-02-1.31063E-01 6.82913E-14 1.13244E-13
 -1      3620 1.59739E+01-7.17568E-01 8.03387E-02 3.62425E+00-2.99002E-13 1.86476E-13
 -1      3621 2.00820E+01 1.71095E+00 3.00236E-03 3.53181E-02-2.15272E-13-3.91899E-13
 -1      3622 2.50499E+01 2.21627E+00-9.49770E-02-2.05314E+00-3.49321E-13 1.93165E-13
 -1      3623 2.00033E+01 4.80687E-03-2.67623E-05-2.92440E-03 6.03551E-14 3.15185E-13
 -1      3624 2.33867E+01-2.99989E+00-3.43443E-02 1.19228E+00 4.69635E-14 2.25662E-14
 -1      3625 1.58234E+01-1.26216E-01 3.60788E-03 3.00069E+00-2.56187E-13 2.34630E-13
 -1      3626 1.83497E+01 6.56267E-01 5.13739E-03-2.18833E+00 2.87736E-15-3.22744E-13
 -1      3627 1.90928E+01 5.78732E-01 1.02686E-02-2.14155E+00 2.91808E-14-2.20703E-13
 -1      3628 1.91060E+01 7.25044E-01-5.98964E-03-1.96298E+00 1.77237E-14-2.30019E-13
 -1      3629 2.00044E+01 1.00491E-02 6.51644E-05 2.66177E-04 1.25747E-14-9.84508E-14
 -1      3630 2.00037E+01 7.55511E-03-1.73417E-05 1.66379E-03 1.50341E-14-8.76552E-14
 -1      3631 2.00039E+01 7.93462E-03-3.14831E-05 1.50493E-03-6.33500E-14-2.38166E-13
 -1      3632 2.00046E+01 1.33081E-02 1.93743E-06-1.09715E-03 1.16589E-13-8.47761E-14
 -1      3633 1.31615E+01 6.47448E-01 5.33740E-02-1.64816E+00 7.29213E-14 1.39801E-13
 -1      3634 1.97423E+01 7.17916E-01-5.82349E-04-1.79646E+00 5.56494E-14-2.02195E-13
 -1      3635 2.00038E+01 1.25528E-02-2.55439E-05 2.64857E-04 2.93956E-13 3.24139E-13
 -1      3636 2.00038E+01 1.27057E-02-4.58939E-05 1.23064E-04 2.17481E-13 2.44259E-13
 -1      3637 1.92751E+01 2.40201E+00-4.99913E-03 7.99412E-02 1.03509E-13-4.29200E-13
 -1      3638 1.92695E+01 2.41527E+00-2.30234E-03 9.59779E-02 5.39717E-14-4.51287E-13
 -1      3639 1.92829E+01 2.21952E+00 8.85290E-03 1.98470E-02 9.67246E-14-4.08255E-13
 -1      3640 1.32212E+01 7.79780E-01 5.07214E-02 1.19042E+00-1.41344E-13 2.70391E-13
 -1      3641 2.00048E+01 1.01571E-02 7.14168E-05 1.42249E-04 5.10137E-14 1.36111E-13
 -1      3642 2.00053E+01 1.33751E-02-5.02943E-05 1.73265E-03-4.72096E-14-3.32867E-13
 -1      3643 2.00043E+01 8.34522E-03-1.59903E-06-1.11545E-03 3.66467E-14 1.68441E-13
 -1      3644 2.45507E+01-3.52858E+00-6.32266E-02 9.88313E-01 1.12651E-13 7.00360E-14
 -1      3645 2.40411E+01-3.55750E+00 4.39252E-02 1.65782E+00 1.18819E-13 9.43559E-14
 -1      3646 2.00043E+01 1.42318E-02 5.79568E-05-1.91198E-04-1.53623E-14-1.47761E-13
 -1      3647 2.00040E+01 1.14398E-02 2.15222E-06 4.91708E-04-1.00793E-15-2.03256E-13
 -1      3648 2.00039E+01 1.18989E-02-5.96348E-05 2.46987E-04 7.71048E-14-1.68747E-14
 -1      3649 2.00038E+01 1.26934E-02-4.23299E-05 1.98832E-04 2.89020E-13 2.65369E-13
 -1      3650 2.00039E+01 1.24964E-02-2.41818E-05 3.43397E-05 1.38184E-13 4.80423E-13
 -1      3651 2.00041E+01 1.66345E-02 1.23805E-04 2.35671E-04 3.62030E-13 2.51994E-13
 -1      3652 1.95436E+01 9.77060E-01 1.86597E-03-1.43362E+00 1.01782E-13-2.31372E-13
 -1      3653 1.96141E+01 1.03006E+00-3.07730E-03-1.26340E+00 1.41827E-13-2.15229E-13
 -1      3654 1.94415E+01 1.21687E+00 4.69525E-03-1.08693E+00 1.42160E-13-2.59229E-13
 -1      3655 1.90554E+01-3.13205E+00 4.39318E-02-4.59680E+00 3.66936E-13 6.06442E-14
 -1      3656 2.04167E+01-3.12371E+00 3.75010E-02-3.75307E+00 4.22827E-13-9.13210E-14
 -1      3657 1.75674E+01-2.28184E+00 2.81149E-03-4.42434E+00 3.23767E-13 4.32501E-14
 -1      3658 2.00043E+01 1.01042E-02-5.71117E-05-4.45816E-04 8.95848E-14-1.06201E-13
 -1      3659 2.00044E+01 9.28029E-03-7.90089E-06-8.82235E-04 1.74041E-14 5.51983E-14
 -1      3660 1.99027E+01 1.22284E+00 1.93757E-04-7.77098E-01 2.02693E-13-2.47691E-13
 -1      3661 1.99603E+01 1.31004E+00-1.79569E-03-5.82074E-01 2.11615E-13-2.42575E-13
 -1      3662 1.97783E+01 1.52126E+00-9.06079E-04-5.05529E-01 2.04162E-13-2.85641E-13
 -1      3663 1.96537E+01 1.34241E+00 1.62496E-03-7.85707E-01 1.80306E-13-2.77308E-13
 -1      3664 1.94498E+01 2.24078E+00-4.12227E-03 1.80312E-01-5.83954E-14-4.18191E-13
 -1      3665 1.95613E+01 2.13632E+00-2.33888E-03 1.69329E-01-1.14073E-13-3.94900E-13
 -1      3666 2.01066E+01 1.47153E+00-1.22371E-03 1.89699E-01-2.19303E-13-3.62122E-13
 -1      3667 2.01179E+01 1.27682E+00-6.25613E-04 3.67059E-01-1.85328E-13-3.53261E-13
 -1      3668 1.99758E+01 1.33566E+00-6.36571E-05 4.51628E-01-1.42093E-13-3.60912E-13
 -1      3669 1.99341E+01 1.76015E+00-1.07994E-04 1.51675E-01-1.88688E-13-3.95774E-13
 -1      3670 2.51394E+01-3.04870E+00 3.65602E-02 3.28355E-01 9.72417E-14 1.27034E-13
 -1      3671 1.96676E+01 2.03248E+00-2.74377E-03 1.77435E-01-1.40536E-13-4.10910E-13
 -1      3672 1.98094E+01 1.88190E+00-2.37861E-03 1.57027E-01-1.79556E-13-4.06441E-13
 -1      3673 1.98456E+01 1.66274E+00 3.17613E-03 3.03555E-01-1.75308E-13-3.74777E-13
 -1      3674 1.96154E+01 1.89581E+00 4.70238E-03 2.89592E-01-1.11266E-13-3.56392E-13
 -1      3675 1.75452E+01-2.00450E+00 8.67903E-02 4.38206E+00 3.37844E-13-1.99746E-13
 -1      3676 1.69316E+01-1.34710E+00 2.06332E-02 3.87796E+00 2.93002E-13-2.32434E-13
 -1      3677 1.43428E+01-1.01523E-01 5.80936E-02 2.97566E+00 2.49217E-13-3.94382E-13
 -1      3678 1.91072E+01-2.88662E+00-3.35912E-02 4.29408E+00 3.06167E-13-1.44326E-13
 -1      3679 2.00040E+01 8.20734E-03-2.94606E-05 1.35399E-03-7.06172E-14-3.70763E-13
 -1      3680 2.00050E+01 1.21517E-02 7.32598E-05 3.21233E-04-6.83327E-14-3.78438E-14
 -1      3681 2.00044E+01 8.47283E-03-4.26156E-05-1.07483E-03-9.41664E-15-1.38590E-13
 -1      3682 2.00043E+01 1.17790E-02 2.02426E-05 1.28102E-04-7.02619E-14-2.73566E-13
 -1      3683 1.36486E+01 9.58447E-01-1.51462E-02-9.10705E-01-2.90414E-14 4.47142E-14
 -1      3684 1.42611E+01 4.99897E-01 2.59592E-02-2.22276E+00 1.71489E-13-1.01485E-13
 -1      3685 1.97549E+01 8.46157E-01-3.72604E-04 9.64485E-01-5.08584E-15-3.37641E-13
 -1      3686 1.97566E+01 6.75582E-01 3.11943E-03 1.11132E+00 2.33032E-14-3.06392E-13
 -1      3687 1.97132E+01 4.94154E-01 3.08388E-04 1.27178E+00 2.53623E-14-2.85840E-13
 -1      3688 1.97561E+01 2.98737E-01 6.17051E-03 1.41089E+00 2.66703E-14-2.61284E-13
 -1      3689 1.94957E+01 7.12063E-01-1.59557E-03 1.18041E+00 3.86082E-14-3.22762E-13
 -1      3690 1.97474E+01 7.38354E-02 1.92157E-03 1.58502E+00 4.73845E-14-2.44485E-13
 -1      3691 1.98674E+01-1.74882E-01 1.06074E-02 1.71243E+00 4.97971E-14-2.21758E-13
 -1      3692 1.94323E+01 3.09500E-01-4.20993E-03 1.52824E+00 4.72116E-14-3.19122E-13
 -1      3693 1.99333E+01-4.76218E-01 4.20787E-03 1.90264E+00 6.57115E-14-2.02141E-13
 -1      3694 2.01750E+01-8.06997E-01 1.35123E-02 2.00217E+00 8.79368E-14-2.02925E-13
 -1      3695 1.94754E+01-2.06929E-01-5.55865E-03 1.92130E+00 6.67270E-14-2.60642E-13
 -1      3696 2.03819E+01-1.18789E+00 1.37751E-02 2.18452E+00 1.02747E-13-1.86683E-13
 -1      3697 2.07852E+01-1.62622E+00 1.33691E-02 2.22965E+00 1.11089E-13-1.74128E-13
 -1      3698 1.97331E+01-9.21003E-01-9.80314E-03 2.34673E+00 1.02163E-13-2.34789E-13
 -1      3699 2.12596E+01-2.11665E+00 2.74207E-02 2.34156E+00 1.04014E-13-9.90818E-14
 -1      3700 2.18627E+01-2.59037E+00 1.26285E-02 2.22562E+00 8.49043E-14-8.54153E-14
 -1      3701 2.03366E+01-1.86367E+00-3.27627E-02 2.68539E+00 1.31594E-13-1.42482E-13
 -1      3702 2.00046E+01 1.46000E-02-1.15207E-05-1.34394E-03-2.32252E-14-1.75772E-13
 -1      3703 2.16039E+01-2.40182E+00 1.81958E-02-2.11258E+00 2.07172E-13-4.08237E-14
 -1      3704 2.09913E+01-1.91930E+00 3.39072E-02-2.20535E+00 1.45656E-13-2.74550E-14
 -1      3705 2.05163E+01-1.47437E+00 1.15338E-02-2.08314E+00 5.10841E-14 3.44549E-14
 -1      3706 2.01280E+01-1.06403E+00 1.44071E-02-2.02949E+00 3.84606E-14 8.18377E-15
 -1      3707 2.00564E+01-1.71383E+00-3.00964E-02-2.56145E+00 1.66405E-13 1.22177E-14
 -1      3708 1.99052E+01-7.14430E-01 1.12944E-02-1.85272E+00 1.70910E-14 6.09704E-14
 -1      3709 1.96695E+01-4.17563E-01 5.51875E-03-1.74992E+00-2.31503E-14 8.75241E-14
 -1      3710 1.94481E+01-8.19801E-01-1.81927E-02-2.17197E+00 4.41491E-14 1.27932E-13
 -1      3711 1.95902E+01-1.72454E-01 9.13278E-03-1.57532E+00-3.57271E-14 1.23217E-13
 -1      3712 1.94634E+01 2.28525E-02 1.00927E-03-1.46192E+00 1.30649E-14 1.66378E-13
 -1      3713 1.91876E+01-1.97950E-01-9.75657E-03-1.77351E+00 4.24844E-14 2.17048E-13
 -1      3714 1.94628E+01 1.79495E-01 6.64127E-03-1.30913E+00 6.42491E-14 1.63894E-13
 -1      3715 1.94065E+01 2.95771E-01-1.10731E-03-1.20102E+00 1.66292E-13 1.21417E-13
 -1      3716 1.91248E+01 2.00179E-01-4.88371E-03-1.42362E+00 5.21026E-14 2.18290E-13
 -1      3717 1.94463E+01 3.84725E-01 4.64235E-03-1.07342E+00 1.94004E-13 1.15689E-14
 -1      3718 1.94321E+01 4.43626E-01-1.97381E-03-9.76346E-01 1.96794E-13-2.19040E-14
 -1      3719 1.91691E+01 4.31888E-01-1.82555E-03-1.13381E+00 1.01230E-13 3.29531E-14
 -1      3720 1.94895E+01 4.84349E-01 3.18696E-03-8.71626E-01 1.93379E-13-3.08065E-14
 -1      3721 1.94984E+01 5.03905E-01-2.24351E-03-7.86850E-01 1.92372E-13 3.27574E-14
 -1      3722 1.92651E+01 5.45089E-01-1.21650E-04-8.99260E-01 2.59973E-13-3.97491E-14
 -1      3723 1.95604E+01 5.12236E-01 2.19413E-03-7.01388E-01 7.02427E-14 2.47774E-14
 -1      3724 1.95801E+01 5.06408E-01-2.22191E-03-6.28518E-01 2.91219E-15-2.52370E-15
 -1      3725 1.93804E+01 5.78309E-01 7.56944E-04-7.10391E-01 1.63540E-13-1.60941E-13
 -1      3726 1.96395E+01 4.94453E-01 1.53858E-03-5.58959E-01-5.87759E-14 1.11317E-13
 -1      3727 1.96628E+01 4.73587E-01-2.05846E-03-4.97099E-01 3.27343E-14 2.17003E-13
 -1      3728 1.94967E+01 5.60424E-01 1.15466E-03-5.58245E-01-3.39472E-15 4.96473E-14
 -1      3729 1.97159E+01 4.50193E-01 1.10877E-03-4.40677E-01 1.19278E-14 1.24469E-13
 -1      3730 1.97386E+01 4.21658E-01-1.82922E-03-3.88797E-01-1.35022E-13 2.40355E-14
 -1      3731 1.96038E+01 5.12515E-01 1.27059E-03-4.35629E-01-6.82342E-14 1.43606E-13
 -1      3732 1.97840E+01 3.93008E-01 8.24150E-04-3.43272E-01-1.03273E-13 5.15695E-14
 -1      3733 1.98040E+01 3.61815E-01-1.57617E-03-3.00311E-01 3.98415E-14 9.41196E-14
 -1      3734 1.96972E+01 4.49526E-01 1.22624E-03-3.36965E-01-9.80415E-14 8.45666E-14
 -1      3735 1.98413E+01 3.32010E-01 6.30869E-04-2.63844E-01 2.16444E-14 1.07112E-13
 -1      3736 1.98579E+01 3.01371E-01-1.32398E-03-2.28743E-01-3.85772E-14 1.72178E-14
 -1      3737 1.97751E+01 3.81623E-01 1.09817E-03-2.57892E-01-4.32212E-15 9.28729E-14
 -1      3738 1.98877E+01 2.72952E-01 4.94547E-04-1.99793E-01-3.89065E-14 1.55450E-14
 -1      3739 1.99008E+01 2.44759E-01-1.08744E-03-1.71512E-01-8.28549E-14 8.52258E-14
 -1      3740 1.98380E+01 3.15327E-01 9.34583E-04-1.94921E-01-2.32796E-14 5.51955E-14
 -1      3741 1.99238E+01 2.19144E-01 3.93993E-04-1.48768E-01-1.82946E-13 9.49255E-14
 -1      3742 1.99337E+01 1.94356E-01-8.74858E-04-1.26308E-01-1.15712E-13-7.95817E-15
 -1      3743 1.98873E+01 2.54483E-01 7.64898E-04-1.45186E-01-9.48864E-14 2.76598E-14
 -1      3744 1.99510E+01 1.72190E-01 3.16526E-04-1.08647E-01-1.64608E-13-1.22183E-13
 -1      3745 1.99582E+01 1.51139E-01-6.90106E-04-9.10727E-02-1.12371E-13-1.34490E-13
 -1      3746 1.99247E+01 2.01036E-01 6.05967E-04-1.06293E-01-2.15460E-13-1.15309E-13
 -1      3747 1.99709E+01 1.32559E-01 2.54721E-04-7.75340E-02 5.61744E-14-2.04995E-13
 -1      3748 1.99758E+01 1.15179E-01-5.34001E-04-6.39929E-02 9.24743E-14-1.50058E-13
 -1      3749 1.99524E+01 1.55642E-01 4.66319E-04-7.62207E-02-1.46002E-13-2.29213E-13
 -1      3750 1.99848E+01 1.00010E-01 2.04291E-04-5.37589E-02 1.71973E-13-6.93394E-14
 -1      3751 1.99879E+01 8.59985E-02-4.05452E-04-4.34937E-02 2.74499E-13-2.40811E-13
 -1      3752 1.99722E+01 1.18137E-01 3.49103E-04-5.32604E-02 2.28105E-13-8.65380E-14
 -1      3753 1.99941E+01 7.38895E-02 1.62737E-04-3.58777E-02 3.21326E-13-6.23299E-14
 -1      3754 1.99959E+01 6.28257E-02-3.02005E-04-2.82327E-02 2.19327E-13-5.11338E-15
 -1      3755 1.99859E+01 8.78663E-02 2.54037E-04-3.59747E-02 3.12795E-13 4.53437E-14
 -1      3756 1.99999E+01 5.33466E-02 1.28841E-04-2.26657E-02 1.02618E-13-2.40395E-14
 -1      3757 2.00007E+01 4.47575E-02-2.23225E-04-1.70837E-02 7.30034E-14-3.43898E-14
 -1      3758 1.99948E+01 6.39266E-02 1.78785E-04-2.31695E-02 2.01083E-13-1.54587E-14
 -1      3759 2.00031E+01 3.74894E-02 1.11481E-04-1.31096E-02 6.84505E-14 8.63104E-14
 -1      3760 2.00033E+01 3.08832E-02-1.61291E-04-9.10276E-03 1.05238E-13 2.31370E-13
 -1      3761 2.00002E+01 4.52918E-02 1.09821E-04-1.38683E-02 7.46554E-14-1.16841E-14
 -1      3762 2.00045E+01 2.53108E-02 8.71019E-05-6.37619E-03 5.46907E-14-2.28699E-14
 -1      3763 2.00044E+01 2.03369E-02-6.48812E-05-3.57545E-03-3.31512E-14-6.27194E-14
 -1      3764 2.00031E+01 3.09269E-02 2.47078E-05-7.25830E-03-6.39161E-14-3.68983E-14
 -1      3765 2.00041E+01 7.39148E-03-1.59923E-06-1.63796E-03-1.77319E-14 1.08715E-13
 -1      3766 1.88762E+01 9.69190E-01-6.66223E-03 9.63319E-01 6.34151E-14-2.01836E-13
 -1      3767 1.87425E+01 1.00947E+00 1.06952E-04 1.06567E+00-1.82834E-14-1.85943E-13
 -1      3768 1.39003E+01 7.95164E-01 2.99175E-02 1.47527E+00 1.53892E-13-4.49836E-13
 -1      3769 1.38927E+01 1.00316E+00-4.45127E-03 1.82853E-01 3.87299E-14-4.29295E-13
 -1      3770 2.00041E+01 1.60029E-02 1.05818E-04-1.06363E-04 1.45421E-13-3.24867E-14
 -1      3771 1.93967E+01 7.50009E-01-3.97943E-03 6.53334E-01 5.55922E-14 8.29832E-14
 -1      3772 1.93158E+01 8.11040E-01-2.53656E-04 7.28528E-01 2.43354E-14-5.88570E-14
 -1      3773 1.95678E+01 6.31516E-01-3.17273E-03 5.29497E-01-3.31679E-14 2.05078E-13
 -1      3774 1.95077E+01 6.91318E-01-8.95895E-05 5.94543E-01 8.40609E-14 2.25471E-13
 -1      3775 1.93275E+01 7.83947E-01 4.23869E-03 5.45331E-01-5.72048E-14 2.36207E-13
 -1      3776 1.96956E+01 5.20615E-01-2.54456E-03 4.22940E-01 6.47952E-14 9.63310E-14
 -1      3777 1.96521E+01 5.75697E-01 9.20176E-05 4.78623E-01 1.64852E-14 1.78099E-13
 -1      3778 1.95137E+01 6.57817E-01 3.21670E-03 4.45208E-01 5.69002E-14 2.87420E-13
 -1      3779 1.97898E+01 4.21534E-01-2.03794E-03 3.32464E-01-7.45082E-14 1.66280E-13
 -1      3780 1.97590E+01 4.70243E-01 2.34734E-04 3.79407E-01 2.23796E-14 1.15812E-14
 -1      3781 1.96538E+01 5.41333E-01 2.41860E-03 3.57719E-01 7.49681E-14 2.81775E-13
 -1      3782 1.98584E+01 3.35854E-01-1.62220E-03 2.56914E-01-6.57036E-14 2.46663E-13
 -1      3783 1.98370E+01 3.77672E-01 3.23107E-04 2.95815E-01-6.13186E-14 2.39144E-13
 -1      3784 1.97581E+01 4.37884E-01 1.80119E-03 2.82493E-01-6.95943E-14 4.15775E-13
 -1      3785 1.99076E+01 2.63582E-01-1.27951E-03 1.94939E-01-3.68402E-14 5.74259E-14
 -1      3786 1.98932E+01 2.98661E-01 3.61816E-04 2.26616E-01-4.05449E-14 6.51884E-14
 -1      3787 1.98348E+01 3.48654E-01 1.32789E-03 2.19051E-01 4.31642E-14 2.48348E-13
 -1      3788 1.99423E+01 2.03845E-01-9.98036E-04 1.45002E-01-1.71421E-13-2.27100E-14
 -1      3789 1.99328E+01 2.32706E-01 3.62850E-04 1.70353E-01-1.04773E-13-1.37815E-14
 -1      3790 1.98905E+01 2.73461E-01 9.68316E-04 1.66610E-01-3.15153E-14 6.03330E-14
 -1      3791 1.99664E+01 1.55330E-01-7.68735E-04 1.05469E-01-1.67807E-13-7.09932E-14
 -1      3792 1.99604E+01 1.78674E-01 3.38995E-04 1.25414E-01-9.98139E-14-5.97338E-14
 -1      3793 1.99302E+01 2.11333E-01 6.97591E-04 1.24110E-01-1.29649E-13-1.51209E-13
 -1      3794 1.99826E+01 1.16553E-01-5.83980E-04 7.47168E-02-1.54732E-13-1.23032E-13
 -1      3795 1.99790E+01 1.35140E-01 3.01100E-04 9.01447E-02-1.61627E-13 2.70061E-14
 -1      3796 1.99581E+01 1.60886E-01 4.95632E-04 9.03208E-02-1.27320E-13-1.55197E-13
 -1      3797 1.99931E+01 8.60190E-02-4.37185E-04 5.12155E-02 3.11090E-14-7.21339E-14
 -1      3798 1.99912E+01 1.00601E-01 2.57325E-04 6.29441E-02-1.44380E-13-1.40995E-13
 -1      3799 1.99771E+01 1.20575E-01 3.46411E-04 6.39562E-02-8.38282E-14-2.18238E-13
 -1      3800 1.99996E+01 6.23174E-02-3.21447E-04 3.35857E-02 1.70293E-13-8.83866E-15
 -1      3801 1.99988E+01 7.35958E-02 2.13204E-04 4.23398E-02 1.77616E-13 1.26062E-14
 -1      3802 1.99897E+01 8.88433E-02 2.37304E-04 4.37667E-02-1.04315E-14-9.12227E-14
 -1      3803 2.00032E+01 4.41542E-02-2.34213E-04 2.06188E-02 1.77245E-13-9.82430E-14
 -1      3804 2.00031E+01 5.27729E-02 1.72031E-04 2.70234E-02 2.13335E-13-7.97114E-14
 -1      3805 1.99976E+01 6.42253E-02 1.60024E-04 2.86063E-02 2.34059E-13-1.64636E-13
 -1      3806 2.00049E+01 3.03970E-02-1.65571E-04 1.13131E-02 4.68563E-14-5.21294E-14
 -1      3807 2.00052E+01 3.69051E-02 1.35385E-04 1.58826E-02 8.81725E-14 3.06815E-14
 -1      3808 2.00021E+01 4.53540E-02 1.00375E-04 1.74459E-02 5.66906E-14 5.32942E-14
 -1      3809 2.00053E+01 2.00979E-02-9.03083E-05 4.84185E-03 5.47346E-14-6.73062E-14
 -1      3810 2.00058E+01 2.49410E-02 1.09042E-04 7.97026E-03 6.82911E-14 2.81770E-15
 -1      3811 2.00044E+01 3.10434E-02 4.83186E-05 9.46267E-03 7.81283E-14 2.71692E-13
 -1      3812 2.46279E+01-2.77149E+00 1.60033E-03 1.27710E-01 7.17759E-14 1.21646E-13
 -1      3813 1.98173E+01 1.19137E+00-5.57971E-04 6.54872E-01-6.41281E-14-3.34540E-13
 -1      3814 1.98034E+01 1.01592E+00 7.08582E-04 8.10792E-01-4.28458E-14-3.42705E-13
 -1      3815 1.95956E+01 1.06615E+00 8.89286E-04 8.62887E-01-1.45898E-14-3.40300E-13
 -1      3816 1.77469E+01-1.24952E+00-2.50708E-02 3.47245E+00 2.41161E-13-2.01444E-13
 -1      3817 1.65423E+01-6.10171E-01 4.52957E-02 3.33616E+00 2.60129E-13-2.80648E-13
 -1      3818 1.80221E+01 1.01133E+00-1.28295E-02 1.42121E+00-6.73398E-14-1.40617E-13
 -1      3819 1.78311E+01 9.54458E-01-2.79259E-04 1.59388E+00-1.42564E-13-1.22025E-13
 -1      3820 1.64360E+01 2.24295E-01 1.16725E-02 2.52677E+00-2.06180E-13 1.99087E-13
 -1      3821 1.47350E+01 7.13532E-01 6.77943E-02 2.20115E+00-1.44492E-13 2.60469E-13
 -1      3822 1.65609E+01 5.54304E-01-2.84634E-02 2.17749E+00-1.14155E-13 1.97482E-13
 -1      3823 2.24507E+01-2.95179E+00 4.99542E-02 2.22255E+00 9.96928E-14-2.79507E-14
 -1      3824 2.32238E+01-3.31971E+00 5.94065E-03 1.88800E+00 1.20060E-13 2.67035E-14
 -1      3825 2.25971E+01-3.85743E+00-6.13394E-02 2.88700E+00 1.68940E-13 9.83935E-14
 -1      3826 2.13076E+01-2.92934E+00-3.82605E-02 2.95945E+00 1.59163E-13-5.40566E-14
 -1      3827 1.73792E+01 8.80901E-01-1.91168E-02 1.72227E+00-1.32795E-13 5.82806E-14
 -1      3828 1.71745E+01 7.25416E-01 5.45464E-04 1.96663E+00-4.31213E-14 2.22970E-13
 -1      3829 1.61256E+01 1.04463E+00 5.34235E-02 1.63785E+00-2.64634E-14 3.75908E-14
 -1      3830 1.71140E+01 1.13740E+00 2.69493E-02 1.36877E+00-2.01358E-14-2.02964E-13
 -1      3831 1.93093E+01 8.37061E-01 5.22717E-03-1.77118E+00 3.24700E-14-2.39025E-13
 -1      3832 1.93662E+01 9.12983E-01-4.89228E-03-1.60266E+00 6.21420E-14-2.39052E-13
 -1      3833 1.87529E+01 9.42600E-01 4.97683E-03-1.76023E+00 3.04903E-14-3.03763E-13
 -1      3834 2.00050E+01 1.46149E-02-3.90672E-05 1.55128E-03 4.68667E-14-7.34656E-14
 -1      3835 2.00055E+01 1.73126E-02 8.87229E-05 3.17245E-03 2.68342E-14-1.09445E-13
 -1      3836 2.00049E+01 2.15561E-02-3.54758E-05 4.45510E-03 1.01310E-13 3.58570E-13
 -1      3837 2.00048E+01 1.54083E-02-6.03351E-05 1.51827E-03 1.72590E-14 4.58487E-13
 -1      3838 1.84987E+01 1.02982E+00-9.14946E-03 1.16445E+00-6.00836E-14-1.40192E-13
 -1      3839 1.83371E+01 1.03753E+00 9.80600E-04 1.29091E+00-4.87852E-14-6.11703E-14
 -1      3840 1.83496E+01 1.12518E+00 9.20168E-03 9.44957E-01 1.05635E-14-3.85886E-13
 -1      3841 1.54499E+01-1.90958E-01-1.43700E-02 2.97260E+00 2.58810E-13-2.76994E-13
 -1      3842 1.44207E+01 4.35988E-01 2.13830E-02 2.20382E+00 2.08732E-13-4.09358E-13
 -1      3843 1.51840E+01 7.29151E-01 3.82460E-02 1.59593E+00 1.44973E-13-3.62080E-13
 -1      3844 1.65418E+01-8.71755E-02 2.72331E-02 2.68217E+00 1.89488E-13-3.08313E-13
 -1      3845 1.93679E+01 1.89236E+00-3.69562E-03-2.46660E-01 1.62485E-13-3.80537E-13
 -1      3846 1.92605E+01 1.98960E+00-3.22708E-03-1.64533E-01 1.17606E-13-4.00836E-13
 -1      3847 1.92986E+01 2.37931E+00-5.08343E-03 1.48095E-01 1.87059E-14-4.48227E-13
 -1      3848 1.93613E+01 2.33067E+00-1.76165E-03 1.50721E-01-2.56090E-14-4.56022E-13
 -1      3849 1.94038E+01 2.09202E+00 4.15792E-03 2.41617E-01-4.50177E-14-4.04521E-13
 -1      3850 1.92634E+01 2.21344E+00 2.41277E-03 1.43797E-01 3.74344E-14-4.10177E-13
 -1      3851 2.00040E+01 1.18412E-02-5.36718E-05 3.83733E-05 1.10101E-13 2.30740E-13
 -1      3852 2.00042E+01 1.12963E-02-6.90297E-06-2.27898E-04 2.74307E-13-2.03715E-13
 -1      3853 2.00047E+01 1.41283E-02 8.24492E-05 5.55848E-04 8.84243E-14 2.16843E-14
 -1      3854 2.00042E+01 1.59591E-02 9.54501E-05 5.58967E-04 3.21720E-13 3.27545E-13
 -1      3855 1.91706E+01 8.67599E-01-5.07350E-03 7.96451E-01 3.62271E-14-1.43099E-13
 -1      3856 1.90647E+01 9.23505E-01-2.80904E-04 8.83370E-01 5.35438E-14-1.45769E-13
 -1      3857 1.90824E+01 9.12934E-01 5.53188E-03 6.59050E-01-1.90973E-14 6.17898E-14
 -1      3858 2.13024E+01-3.48170E+00 7.19289E-02 3.70353E+00 2.69411E-13 2.62837E-14
 -1      3859 2.22225E+01-3.08301E+00 3.72026E-02-2.39243E+00 3.26258E-13-6.25264E-14
 -1      3860 1.50667E+01-4.05406E-01 2.42653E-03-3.32934E+00 1.72671E-13 6.99857E-14
 -1      3861 1.62163E+01-1.29920E+00 4.90251E-02-4.12728E+00 2.79096E-13 1.15349E-13
 -1      3862 1.77234E+01-1.61205E+00 4.34118E-02-3.79000E+00 2.42936E-13 1.41841E-13
 -1      3863 2.02034E+01-2.70290E+00 2.58043E-02 3.56374E+00 2.58314E-13-6.97297E-14
 -1      3864 1.39776E+01 9.82891E-01-8.88189E-03 9.26534E-01-5.04805E-15 1.70924E-13
 -1      3865 2.00043E+01 1.86454E-02 6.59203E-06-2.24145E-03-1.72016E-13-1.84676E-13
 -1      3866 2.10022E+01-2.94935E+00-1.91458E-02-3.12034E+00 2.98524E-13-7.40623E-14
 -1      3867 1.76586E+01 7.74099E-01 6.28483E-04-2.01292E+00-6.53991E-15-3.24089E-13
 -1      3868 1.78366E+01 9.26869E-01-1.66499E-02-1.78978E+00 6.84462E-15-3.38707E-13
 -1      3869 1.87630E+01 1.03290E+00 7.14336E-03 7.89494E-01 3.81741E-14-2.30807E-13
 -1      3870 1.91810E+01 2.04276E+00-6.26176E-03-4.33263E-02 9.62288E-14-3.98834E-13
 -1      3871 1.91577E+01 2.08668E+00 1.56846E-03 4.00968E-02 6.09125E-14-3.75317E-13
 -1      3872 1.91572E+01 1.89848E+00 8.38350E-03-1.56615E-01 9.13953E-14-3.85384E-13
 -1      3873 2.00041E+01 1.81590E-02-7.32629E-05 1.48620E-03 3.53253E-13 6.28171E-14
 -1      3874 2.00044E+01 1.70783E-02-2.92436E-05 1.44326E-03 4.66376E-14 2.24707E-13
 -1      3875 2.00047E+01 2.02333E-02 8.02528E-05 2.65685E-03 2.44250E-13 3.50869E-13
 -1      3876 1.48481E+01 1.12188E+00 2.50737E-03 1.91113E-01 5.31058E-14-3.73339E-13
 -1      3877 1.43633E+01 1.16551E+00 6.24238E-02-5.29513E-01 9.73614E-16-4.15669E-13
 -1      3878 1.49855E+01 9.85409E-01-1.01944E-02-1.16703E+00-3.51845E-14-4.15598E-13
 -1      3879 2.00039E+01 1.97753E-02-7.79244E-05-2.14853E-03-2.14512E-15-2.70130E-13
 -1      3880 2.00035E+01 2.15060E-02-1.80982E-05-1.54588E-03-7.39548E-14-3.47854E-13
 -1      3881 2.00032E+01 2.21337E-02-8.77941E-05-1.24779E-03-1.89734E-14 6.49968E-14
 -1      3882 2.00035E+01 2.69146E-02 1.12893E-04-3.81825E-03-1.43299E-13-2.07807E-13
 -1      3883 1.78218E+01 1.16146E+00 1.33837E-02 1.14703E+00-1.07005E-13-2.66144E-13
 -1      3884 1.51387E+01 1.08006E+00-2.07982E-02 1.03774E+00 1.60462E-14 8.87328E-14
 -1      3885 1.41200E+01 1.21795E+00 5.78771E-02 6.57060E-02 6.00024E-14 1.72291E-13
 -1      3886 1.48211E+01 1.10047E+00-4.71448E-03-5.67520E-01 8.99870E-14 9.98186E-14
 -1      3887 1.57744E+01 1.15060E+00-2.23990E-02 9.35334E-01 2.93441E-14 2.88560E-14
 -1      3888 1.93715E+01-1.62236E+00 3.04328E-02 3.15481E+00 1.85958E-13-1.59038E-13
 -1      3889 1.87386E+01-9.95124E-01-6.48592E-03 2.84969E+00 1.57256E-13-2.10507E-13
 -1      3890 1.91263E+01 1.09842E+00 4.76343E-03-1.41155E+00 8.92322E-14-2.77893E-13
 -1      3891 2.00026E+01 2.86980E-02 9.40665E-05-1.55620E-03-1.02335E-13-1.00465E-13
 -1      3892 2.00032E+01 2.19371E-02-6.75582E-05-9.50558E-05 1.12557E-13 1.94761E-13
 -1      3893 1.54705E+01 5.78822E-01-9.98230E-04-1.92133E+00 3.39347E-14-1.33927E-14
 -1      3894 1.51300E+01 2.22440E-01 3.25124E-02-2.56597E+00 7.32426E-14-5.45857E-14
 -1      3895 1.61749E+01-2.03298E-01-1.54227E-02-2.87080E+00 5.43096E-14 1.61390E-13
 -1      3896 2.00032E+01 2.19724E-02-7.32363E-05 2.25503E-04 1.85476E-13 3.39798E-13
 -1      3897 1.91389E+01 1.29890E+00-1.73788E-03-1.01347E+00 1.25220E-13-2.74603E-13
 -1      3898 1.92872E+01 1.36158E+00-1.92290E-03-8.59922E-01 1.41032E-13-2.79359E-13
 -1      3899 1.66492E+01 6.04613E-01 7.90610E-03-2.27879E+00-7.00009E-14-3.67488E-13
 -1      3900 1.62465E+01 9.42111E-01 2.86575E-02-1.80304E+00-2.92583E-14-3.90488E-13
 -1      3901 1.98297E+01 1.50855E+00-1.19014E-03 4.06243E-01-1.30634E-13-3.65606E-13
 -1      3902 1.98413E+01 1.32210E+00 9.18513E-04 5.51471E-01-8.52995E-14-3.39697E-13
 -1      3903 1.96703E+01 1.36696E+00 1.35804E-03 6.05928E-01-7.25780E-14-2.94156E-13
 -1      3904 1.97051E+01 1.63464E+00-1.03562E-03 4.02411E-01-1.18262E-13-3.35695E-13
 -1      3905 1.94746E+01 1.84580E+00-6.95944E-04 3.56123E-01-7.55437E-14-3.19393E-13
 -1      3906 1.95805E+01 1.74283E+00-1.89262E-03 3.73719E-01-9.64865E-14-3.37171E-13
 -1      3907 1.95667E+01 1.60467E+00 6.63570E-04 4.71264E-01-9.02998E-14-3.02008E-13
 -1      3908 1.67002E+01-2.06834E-01 4.85418E-02-3.19496E+00-1.46007E-13-3.26014E-13
 -1      3909 1.96325E+01 1.63812E+00-3.07246E-03-4.25701E-01 2.00228E-13-3.09460E-13
 -1      3910 1.94804E+01 1.80638E+00-1.96992E-03-3.36287E-01 1.70177E-13-3.42496E-13
 -1      3911 1.93401E+01 1.75018E+00 6.47235E-03-3.86768E-01 1.56929E-13-3.47374E-13
 -1      3912 1.95780E+01 1.54492E+00 2.26391E-03-5.64990E-01 1.83997E-13-2.87038E-13
 -1      3913 1.92615E+01 2.03960E+00 1.46603E-03 2.49311E-01 7.74881E-15-3.89012E-13
 -1      3914 1.93536E+01 1.94753E+00-1.54908E-03 2.99634E-01-4.10777E-14-3.70911E-13
 -1      3915 1.93324E+01 1.81592E+00 3.58862E-03 3.74904E-01-3.75040E-14-3.39733E-13
 -1      3916 1.94957E+01 1.45354E+00-3.20327E-03-6.95236E-01 1.65012E-13-2.85604E-13
 -1      3917 1.98625E+01-2.31738E+00 1.53580E-02-3.31036E+00 3.06040E-13 2.64688E-14
 -1      3918 1.65064E+01 3.11884E-01 2.03161E-02-2.56936E+00-9.69363E-14-3.55603E-13
 -1      3919 1.92421E+01 1.54174E+00 1.16108E-03-6.32161E-01 1.54561E-13-2.84456E-13
 -1      3920 1.91102E+01 1.63009E+00-2.16829E-03-5.26297E-01 1.32591E-13-3.24795E-13
 -1      3921 1.82319E+01 1.04746E+00 2.99843E-03-1.61122E+00 2.20348E-14-3.17301E-13
 -1      3922 1.84248E+01 1.12226E+00-1.11790E-02-1.43795E+00 6.63632E-14-2.95572E-13
 -1      3923 1.76290E+01 1.17380E+00 1.96235E-02-1.44867E+00 2.95104E-14-2.99478E-13
 -1      3924 1.88295E+01-5.98950E-01 7.20756E-03 2.47534E+00 1.49008E-13-2.01031E-13
 -1      3925 1.75202E+01-2.08861E-01-8.02027E-03 2.62089E+00 1.68537E-13-2.59766E-13
 -1      3926 1.86417E+01-2.15104E-01-8.44679E-03 2.21495E+00 1.22205E-13-2.30510E-13
 -1      3927 1.91094E+01 5.91621E-01-5.04180E-03 1.37530E+00 6.61461E-14-3.35951E-13
 -1      3928 1.91010E+01 3.89055E-01 4.87837E-03 1.56384E+00 6.90856E-14-3.21307E-13
 -1      3929 1.88743E+01 2.41202E-01-7.17063E-03 1.74249E+00 9.65684E-14-2.81238E-13
 -1      3930 1.89256E+01-2.62408E-02 5.44920E-03 1.96574E+00 1.11930E-13-2.51175E-13
 -1      3931 1.80477E+01 3.05422E-01 1.04578E-02 1.95908E+00 1.28313E-13-2.28172E-13
 -1      3932 1.85709E+01 5.54343E-01 6.92828E-03 1.57029E+00 1.00679E-13-2.84286E-13
 -1      3933 1.96165E+01 5.36014E-01-2.14235E-03 2.79213E-01 6.84780E-14 2.68127E-13
 -1      3934 1.95560E+01 5.92868E-01-7.95024E-04 3.16099E-01 7.08620E-14 2.84740E-13
 -1      3935 1.89674E+01-7.14499E-01 2.08790E-02-2.38261E+00 1.21593E-13 8.55893E-14
 -1      3936 1.87339E+01-3.72596E-01-1.71707E-03-2.16263E+00 2.44590E-14 9.61042E-14
 -1      3937 1.87874E+01-8.35867E-02 1.46734E-02-1.87383E+00 1.82273E-14 2.03045E-13
 -1      3938 1.86934E+01 1.29561E-01-5.04340E-03-1.67895E+00 8.79554E-14 2.22626E-13
 -1      3939 1.81895E+01-1.90508E-02 6.12872E-04-2.06155E+00 6.54651E-14 1.44828E-14
 -1      3940 1.87992E+01 3.07754E-01 9.31048E-03-1.45916E+00 3.87924E-14 1.26041E-13
 -1      3941 1.87852E+01 4.31667E-01-5.25342E-03-1.29782E+00 1.45240E-14 1.32822E-13
 -1      3942 1.83432E+01 3.85439E-01-6.18225E-04-1.54394E+00 3.38584E-15 1.02428E-13
 -1      3943 1.89070E+01 5.28791E-01 5.84706E-03-1.13253E+00 6.80680E-14 1.02555E-13
 -1      3944 1.89352E+01 5.89330E-01-4.79479E-03-1.00374E+00 1.78033E-13 1.28425E-13
 -1      3945 1.85623E+01 6.13430E-01 1.54247E-03-1.15729E+00 5.41075E-14 1.04811E-13
 -1      3946 1.90552E+01 6.32057E-01 3.66960E-03-8.79148E-01 1.49099E-13 3.81452E-14
 -1      3947 1.91030E+01 6.49572E-01-4.12505E-03-7.76877E-01 2.11933E-13-1.21386E-13
 -1      3948 1.87926E+01 7.16050E-01 2.43039E-03-8.71714E-01 6.43311E-14 2.04201E-13
 -1      3949 1.92132E+01 6.55987E-01 2.26787E-03-6.82328E-01 2.40378E-13-2.79834E-13
 -1      3950 1.92674E+01 6.45707E-01-3.47732E-03-6.00871E-01 1.08727E-13-2.38627E-13
 -1      3951 1.90117E+01 7.36207E-01 2.63755E-03-6.58977E-01 6.12983E-14-9.07325E-14
 -1      3952 1.93644E+01 6.29225E-01 1.38689E-03-5.28601E-01 1.17267E-13-1.92707E-13
 -1      3953 1.94175E+01 6.02295E-01-2.90229E-03-4.63482E-01 1.16793E-14-2.14044E-14
 -1      3954 1.92092E+01 7.03856E-01 2.55416E-03-4.98988E-01 1.62717E-13-1.71636E-13
 -1      3955 1.95002E+01 5.72719E-01 8.40043E-04-4.07939E-01-1.08725E-13 1.24886E-13
 -1      3956 1.95482E+01 5.37174E-01-2.40279E-03-3.55783E-01-1.19246E-13 8.65781E-14
 -1      3957 1.93808E+01 6.40530E-01 2.33120E-03-3.77679E-01 8.29959E-14-3.62281E-14
 -1      3958 1.96170E+01 5.01454E-01 5.06737E-04-3.12956E-01-1.11948E-13 1.79079E-13
 -1      3959 1.96581E+01 4.62871E-01-1.97167E-03-2.71217E-01-3.79395E-14 2.32335E-13
 -1      3960 1.95255E+01 5.61699E-01 2.04359E-03-2.85120E-01-5.21651E-14 2.34960E-13
 -1      3961 1.97139E+01 4.25718E-01 3.07961E-04-2.38166E-01-4.29343E-14 2.26505E-13
 -1      3962 1.97477E+01 3.87764E-01-1.60130E-03-2.04885E-01-4.13434E-14 1.84629E-13
 -1      3963 1.96444E+01 4.78105E-01 1.73556E-03-2.14208E-01-9.05541E-14 2.94191E-13
 -1      3964 1.97920E+01 3.52176E-01 1.92137E-04-1.79415E-01-9.95568E-14 1.55669E-13
 -1      3965 1.98190E+01 3.17075E-01-1.28536E-03-1.53038E-01-9.92968E-14 6.50719E-14
 -1      3966 1.97398E+01 3.96813E-01 1.43455E-03-1.59787E-01-1.23252E-13 1.59251E-13
 -1      3967 1.98534E+01 2.84787E-01 1.26096E-04-1.33484E-01-1.44644E-13 1.45445E-14
 -1      3968 1.98741E+01 2.53717E-01-1.01853E-03-1.12747E-01-1.39814E-13 4.37193E-14
 -1      3969 1.98147E+01 3.22092E-01 1.15714E-03-1.18052E-01-2.21072E-13 5.67358E-14
 -1      3970 1.99003E+01 2.25562E-01 8.89513E-05-9.78225E-02-2.54793E-13-1.55202E-13
 -1      3971 1.99158E+01 1.98975E-01-7.95966E-04-8.16785E-02-3.12605E-13-2.37293E-13
 -1      3972 1.98720E+01 2.56173E-01 9.12331E-04-8.61426E-02-2.52538E-13-1.21150E-13
 -1      3973 1.99352E+01 1.75182E-01 6.79042E-05-7.03749E-02-1.75033E-13-1.36486E-13
 -1      3974 1.99465E+01 1.53053E-01-6.12899E-04-5.79468E-02-1.75899E-14-5.76400E-14
 -1      3975 1.99150E+01 1.99862E-01 7.03690E-04-6.18723E-02-2.05464E-13-7.88143E-14
 -1      3976 1.99604E+01 1.33462E-01 5.53945E-05-4.94678E-02 2.14226E-13 1.76549E-15
 -1      3977 1.99683E+01 1.15473E-01-4.64451E-04-4.00210E-02 3.54901E-13 2.17771E-13
 -1      3978 1.99464E+01 1.53023E-01 5.31078E-04-4.35456E-02 1.42635E-13 3.08275E-13
 -1      3979 1.99781E+01 9.97012E-02 4.72381E-05-3.37329E-02 2.94455E-13 2.12049E-13
 -1      3980 1.99834E+01 8.53762E-02-3.46159E-04-2.66544E-02 3.09172E-13 1.79111E-13
 -1      3981 1.99686E+01 1.14948E-01 3.91830E-04-2.98341E-02 2.99164E-13 3.79560E-13
 -1      3982 1.99900E+01 7.29249E-02 4.21015E-05-2.20543E-02 2.78805E-13 6.13714E-14
 -1      3983 1.99933E+01 6.17151E-02-2.55948E-04-1.68380E-02 1.59120E-13 1.84018E-14
 -1      3984 1.99838E+01 8.46104E-02 2.80546E-04-1.96875E-02 1.80988E-13 2.61533E-13
 -1      3985 1.99975E+01 5.21013E-02 5.49830E-05-1.35402E-02 7.90667E-14-1.78236E-14
 -1      3986 1.99993E+01 4.34639E-02-1.82471E-04-9.79942E-03-3.19013E-14 5.37229E-15
 -1      3987 1.99937E+01 6.08313E-02 1.86754E-04-1.23110E-02 7.10588E-14 2.54091E-13
 -1      3988 2.00014E+01 3.80546E-02 9.45145E-05-7.94977E-03-1.72105E-13-1.21751E-15
 -1      3989 2.00022E+01 3.13345E-02-9.60631E-05-5.33235E-03-2.00071E-13-1.66591E-13
 -1      3990 2.00017E+01 3.33244E-02-6.57471E-06-4.30037E-03-2.77713E-13 1.22900E-13
 -1      3991 1.99990E+01 4.45176E-02 8.49523E-05-7.40883E-03-4.38421E-14 2.69624E-14
 -1      3992 1.94669E+01 6.51787E-01-2.64778E-03 3.44828E-01 4.25827E-14 1.30990E-13
 -1      3993 1.93857E+01 7.14319E-01-1.23511E-03 3.86614E-01-6.83438E-14 8.61330E-14
 -1      3994 1.94552E+01 6.58246E-01 3.29037E-03 2.61349E-01-2.89512E-14-6.88646E-14
 -1      3995 1.92696E+01 7.77832E-01-3.30621E-03 4.17716E-01-1.96090E-13 1.19942E-13
 -1      3996 1.91618E+01 8.43677E-01-1.79886E-03 4.64207E-01-1.53379E-13-1.30427E-14
 -1      3997 1.92568E+01 7.86705E-01 4.32086E-03 3.11111E-01-1.00262E-13-1.53232E-13
 -1      3998 1.97288E+01 4.33382E-01-1.73330E-03 2.21625E-01-2.69153E-14 2.37349E-13
 -1      3999 1.96843E+01 4.83411E-01-4.71164E-04 2.53468E-01 2.16214E-15 2.65916E-13
 -1      4000 1.96064E+01 5.40893E-01 2.50096E-03 2.14341E-01 5.78283E-14 1.00061E-13
 -1      4001 1.98123E+01 3.44882E-01-1.39313E-03 1.72370E-01 6.55134E-14 1.08235E-13
 -1      4002 1.97801E+01 3.87772E-01-2.45354E-04 1.99238E-01 1.19168E-13 1.60685E-13
 -1      4003 1.97207E+01 4.37079E-01 1.89118E-03 1.71725E-01 9.88450E-14-1.56386E-13
 -1      4004 1.98736E+01 2.70287E-01-1.10800E-03 1.31265E-01 3.79439E-14 5.15351E-14
 -1      4005 1.98506E+01 3.06263E-01-9.64468E-05 1.53441E-01 6.11257E-14 1.43676E-13
 -1      4006 1.98061E+01 3.47620E-01 1.41925E-03 1.34456E-01 1.23086E-13-1.86391E-14
 -1      4007 1.99179E+01 2.08641E-01-8.69937E-04 9.77419E-02-1.20375E-13-1.02746E-15
 -1      4008 1.99018E+01 2.38245E-01-4.50192E-06 1.15665E-01-5.96949E-14 1.06120E-13
 -1      4009 1.98691E+01 2.72230E-01 1.05492E-03 1.02867E-01 1.75718E-14 1.90167E-13
 -1      4010 1.99493E+01 1.58588E-01-6.73200E-04 7.09844E-02-2.07000E-13 1.49565E-13
 -1      4011 1.99383E+01 1.82529E-01 4.73086E-05 8.51853E-02-1.56998E-13 8.96113E-14
 -1      4012 1.99148E+01 2.09933E-01 7.75176E-04 7.68221E-02-1.79419E-13 3.57432E-13
 -1      4013 1.99711E+01 1.18609E-01-5.12608E-04 5.00622E-02-1.14777E-13 8.39882E-14
 -1      4014 1.99637E+01 1.37659E-01 7.22233E-05 6.10983E-02-7.78577E-14 1.28317E-13
 -1      4015 1.99473E+01 1.59366E-01 5.62051E-04 5.58730E-02-1.24343E-13 2.73271E-13
 -1      4016 1.99856E+01 8.71602E-02-3.84006E-04 3.40284E-02 9.88425E-14 5.49722E-14
 -1      4017 1.99810E+01 1.02092E-01 8.03209E-05 4.24405E-02-1.08710E-13-1.79723E-14
 -1      4018 1.99698E+01 1.18993E-01 4.01124E-04 3.94030E-02 4.21050E-14 1.86706E-13
 -1      4019 1.99950E+01 6.27781E-02-2.83660E-04 2.19997E-02 1.32162E-13 5.93349E-14
 -1      4020 1.99922E+01 7.43099E-02 7.93849E-05 2.82798E-02 1.96729E-13 8.42696E-14
 -1      4021 1.99849E+01 8.72474E-02 2.80354E-04 2.67291E-02 5.76635E-14 2.23052E-13
 -1      4022 2.00005E+01 4.40888E-02-2.28251E-04 1.31969E-02-1.09452E-13 3.92318E-13
 -1      4023 1.99991E+01 5.29303E-02 7.91968E-05 1.77745E-02-9.23366E-14 2.55365E-13
 -1      4024 1.99947E+01 6.26619E-02 2.19023E-04 1.72030E-02-1.10290E-13 3.84212E-13
 -1      4025 2.00035E+01 3.00946E-02-1.03751E-04 6.89423E-03 1.57958E-13 4.18115E-13
 -1      4026 2.00030E+01 3.66751E-02 7.87139E-05 1.01093E-02 1.26512E-13 3.95178E-13
 -1      4027 2.00003E+01 4.40159E-02 1.47708E-04 1.02230E-02-4.68215E-14 5.18217E-13
 -1      4028 1.82335E+01 1.14026E+00-7.92409E-03 6.79533E-01-3.87748E-14-3.52309E-13
 -1      4029 1.79951E+01 1.18055E+00-4.74542E-03 7.49584E-01-7.57300E-14-3.72173E-13
 -1      4030 2.00042E+01 2.31353E-02-3.49960E-05 3.76916E-03 1.88109E-13 4.43689E-13
 -1      4031 2.00043E+01 2.68028E-02 7.98021E-05 5.49208E-03 1.43714E-13 4.10885E-13
 -1      4032 2.00029E+01 3.20698E-02 6.10263E-05 5.89295E-03 1.36201E-13 3.97879E-13
 -1      4033 2.00037E+01 2.49650E-02 4.98175E-06 3.40354E-03 2.28260E-13 2.15706E-13
 -1      4034 1.87338E+01 1.19262E+00 8.35269E-04-1.29689E+00 8.34349E-14-3.00057E-13
 -1      4035 1.89034E+01 1.24377E+00-7.22316E-03-1.14270E+00 1.14108E-13-2.82757E-13
 -1      4036 1.88007E+01 1.41391E+00 9.31881E-03-9.12741E-01 1.29238E-13-2.95681E-13
 -1      4037 2.00012E+01 3.33815E-02-9.65180E-05-2.04771E-03-1.71921E-13-2.12043E-13
 -1      4038 2.00013E+01 3.34099E-02 4.54754E-05-4.18113E-04 3.03673E-14-4.63767E-14
 -1      4039 2.00002E+01 3.87447E-02 4.69094E-05-3.30883E-03-1.93861E-13-1.93793E-13
 -1      4040 1.88800E+01 1.56903E+00 1.48104E-03-5.34388E-01 1.10657E-13-3.05474E-13
 -1      4041 1.89992E+01 1.73116E+00-4.51375E-03-2.86010E-01 1.18092E-13-3.54364E-13
 -1      4042 1.61573E+01 1.13353E+00-1.19234E-02-1.12176E+00 3.13144E-14-3.61640E-13
 -1      4043 1.97585E+01-2.16411E+00 3.73250E-02 3.41854E+00 2.27011E-13-1.20549E-13
 -1      4044 1.90110E+01 9.08532E-01-4.23186E-03 4.97072E-01-4.65125E-14-1.11988E-14
 -1      4045 1.88694E+01 9.73610E-01-2.46832E-03 5.48498E-01-5.95873E-14-4.96314E-15
 -1      4046 1.89983E+01 9.21631E-01 5.68929E-03 3.61500E-01-1.24308E-13-4.77005E-14
 -1      4047 1.86734E+01 1.03438E+00-5.64087E-03 5.83178E-01-9.80920E-14-1.07339E-13
 -1      4048 1.84896E+01 1.09224E+00-3.20131E-03 6.41202E-01-5.56613E-14-2.25120E-13
 -1      4049 1.82257E+01 1.17718E+00 1.01222E-02 4.58756E-01-1.75326E-13-2.59434E-13
 -1      4050 1.95062E+01-1.67676E+00 2.47003E-02-2.96574E+00 1.86912E-13 3.57579E-14
 -1      4051 1.90574E+01-1.16421E+00 8.15002E-03-2.74517E+00 1.78155E-13 4.87914E-14
 -1      4052 1.81962E+01-7.30088E-01-7.40844E-03-2.75707E+00 1.31687E-13-9.62763E-14
 -1      4053 1.86389E+01-1.85782E+00-7.84382E-03-3.58089E+00 2.23484E-13 9.77751E-14
 -1      4054 1.94399E+01 1.27403E+00-2.21090E-03 7.22414E-01-4.02659E-14-3.14497E-13
 -1      4055 1.93900E+01 1.10928E+00 1.55800E-03 8.73175E-01 9.53790E-15-3.24046E-13
 -1      4056 2.00035E+01 2.06269E-02-7.79290E-05 9.53857E-04 2.90071E-13 4.51740E-13
 -1      4057 2.00037E+01 2.00831E-02-5.22106E-05 1.15672E-03 3.42661E-13 2.75640E-13
 -1      4058 2.00035E+01 2.37518E-02 2.14183E-05 1.97129E-03 3.17906E-13 2.49471E-13
 -1      4059 2.00028E+01 2.70987E-02 7.86664E-05 7.24018E-04 1.01104E-13 2.56258E-13
 -1      4060 1.92034E+01 2.06745E+00-5.73926E-03 1.83477E-01 4.45353E-14-3.74257E-13
 -1      4061 1.76569E+01 1.20752E+00-1.11904E-02 7.93100E-01-5.42005E-14-3.08354E-13
 -1      4062 1.73364E+01 1.21189E+00-1.01912E-02 8.91912E-01-1.04927E-13-2.82619E-13
 -1      4063 1.76602E+01 1.26961E+00 1.52191E-02 5.09697E-01-1.89730E-14-4.16840E-13
 -1      4064 1.92767E+01 9.44848E-01-3.85964E-03 1.02871E+00 2.55353E-14-3.34612E-13
 -1      4065 1.92377E+01 7.77472E-01 4.13413E-03 1.19217E+00 2.88947E-14-3.50748E-13
 -1      4066 1.91340E+01 1.17029E+00 3.18263E-03 8.82465E-01-2.05222E-15-3.01299E-13
 -1      4067 1.73295E+01-9.91929E-01 1.58318E-03-3.32705E+00 1.14207E-13 1.28618E-13
 -1      4068 1.70531E+01 1.21998E+00-9.20515E-03-1.14276E+00 5.09291E-14-3.29345E-13
 -1      4069 1.74129E+01 1.28081E+00-2.30653E-02-9.86197E-01 3.67589E-14-3.23633E-13
 -1      4070 1.89001E+01 8.40273E-01 1.80073E-03 1.21930E+00 4.96059E-14-3.37293E-13
 -1      4071 1.82819E+01 1.30717E+00 1.12552E-02-1.15656E+00 5.99114E-14-2.81038E-13
 -1      4072 1.67032E+01 2.75913E-01 4.98926E-03 2.24301E+00 1.43029E-13-2.76373E-13
 -1      4073 1.89256E+01 1.79260E+00-1.93984E-03-1.53341E-01 7.19559E-14-3.46804E-13
 -1      4074 1.53765E+01 1.12085E+00 1.88417E-02 7.01158E-01 8.51632E-14-2.95787E-13
 -1      4075 1.54982E+01 1.19498E+00-1.86704E-02 3.73870E-02 3.43163E-14-3.22035E-13
 -1      4076 1.83826E+01 1.44596E+00-2.81980E-03-6.91017E-01 9.15856E-14-3.02628E-13
 -1      4077 1.86152E+01 1.49492E+00-7.35044E-03-5.93200E-01 1.11233E-13-2.96525E-13
 -1      4078 1.85484E+01 1.62224E+00 1.34713E-02-3.34483E-01 8.44853E-14-2.93839E-13
 -1      4079 1.54902E+01 1.01298E+00 5.09468E-02-1.33299E+00 8.70244E-14 3.16656E-14
 -1      4080 1.60657E+01 6.73882E-01-7.44167E-03-1.67495E+00 1.63736E-14 2.05310E-13
 -1      4081 1.71799E+01-3.73732E-01 1.96150E-02-2.76348E+00 9.12161E-14 8.15888E-14
 -1      4082 2.00005E+01 3.70603E-02 2.70321E-05 9.43294E-04 5.77361E-14 1.29427E-13
 -1      4083 2.00016E+01 3.16807E-02-7.02626E-05 1.12363E-03 1.17885E-13 2.83935E-13
 -1      4084 2.00022E+01 3.05036E-02 6.80811E-05 2.06252E-03 1.41416E-13 1.66420E-13
 -1      4085 1.61897E+01 1.31296E+00 2.78790E-02-5.90221E-01 4.88548E-14-3.67808E-13
 -1      4086 1.91365E+01 1.94555E+00 6.11703E-03 1.48209E-01 4.26204E-14-3.53656E-13
 -1      4087 1.86625E+01 1.05555E+00 7.55009E-03 4.10642E-01-2.16431E-13-9.21834E-14
 -1      4088 1.68960E+01 1.21248E+00-1.51146E-02 8.95113E-01-4.29290E-15-1.28763E-13
 -1      4089 1.64200E+01 1.18276E+00-2.22524E-02 9.63158E-01 1.06981E-13 2.04656E-14
 -1      4090 1.69155E+01 1.33901E+00 2.92634E-02 5.10301E-01 6.12605E-14-2.49709E-14
 -1      4091 1.95405E+01 1.47180E+00-4.62293E-04 5.68858E-01-6.54437E-14-3.00419E-13
 -1      4092 1.61597E+01 5.62990E-01-2.01928E-03 1.90507E+00 1.44412E-13-3.08202E-13
 -1      4093 1.56693E+01 8.98720E-01-4.14232E-04 1.26376E+00 1.24355E-13-3.33304E-13
 -1      4094 1.71990E+01 4.82554E-01 8.71983E-03 1.87133E+00 1.24411E-13-2.69259E-13
 -1      4095 1.63305E+01 1.01544E+00 1.33293E-02 1.02345E+00 9.63309E-14-2.87594E-13
 -1      4096 1.91733E+01 1.70379E+00-6.37529E-03 4.32732E-01 8.55059E-15-3.04066E-13
 -1      4097 1.93085E+01 1.60835E+00-1.30528E-03 4.97761E-01-6.37310E-14-2.90789E-13
 -1      4098 1.54503E+01 1.10740E+00-3.05614E-02-4.93145E-01 1.17700E-13 1.42818E-13
 -1      4099 1.93549E+01 1.50626E+00 8.70135E-04 5.84068E-01-6.50669E-14-2.91700E-13
 -1      4100 1.86854E+01 1.06879E+00-8.86008E-03 9.77153E-01 3.05313E-14-2.86342E-13
 -1      4101 1.85627E+01 9.16085E-01 2.89023E-04 1.16163E+00 6.05912E-14-2.86943E-13
 -1      4102 1.97157E+01 4.20172E-01-1.54530E-03 1.17180E-01 1.43595E-13-2.33891E-13
 -1      4103 1.96663E+01 4.69005E-01-9.39899E-04 1.34127E-01 8.73803E-14-2.58463E-13
 -1      4104 1.82527E+01 1.12937E+00-5.75268E-03 2.31615E-01-2.36989E-13-1.76795E-13
 -1      4105 1.79933E+01 1.17814E+00-8.78267E-03 2.36087E-01-8.17609E-14-1.98133E-13
 -1      4106 1.96014E+01 5.20199E-01-1.88000E-03 1.44373E-01 7.90709E-14-2.10230E-13
 -1      4107 1.95352E+01 5.75635E-01-1.43043E-03 1.62680E-01 4.10505E-14-1.75899E-13
 -1      4108 1.96172E+01 5.16323E-01 4.64976E-03 8.81836E-02 1.11572E-13-4.10217E-13
 -1      4109 1.79164E+01 5.32680E-01 9.23287E-03-1.49962E+00 7.73551E-14 4.81476E-14
 -1      4110 1.79945E+01 6.39124E-01-1.48949E-02-1.28650E+00 7.34060E-14 1.23251E-13
 -1      4111 1.82479E+01 7.29064E-01 5.54866E-03-1.09064E+00 8.74012E-14 1.30977E-13
 -1      4112 1.83455E+01 7.74003E-01-1.10174E-02-9.38814E-01 8.89572E-14 1.54455E-13
 -1      4113 1.78514E+01 8.82137E-01 1.94083E-02-1.03614E+00 1.60870E-13 1.12718E-13
 -1      4114 1.85545E+01 8.11053E-01 3.18378E-03-8.00242E-01 2.82138E-14 1.19939E-13
 -1      4115 1.86569E+01 8.15661E-01-8.10257E-03-6.88783E-01-5.49883E-15 6.70850E-14
 -1      4116 1.82747E+01 9.40458E-01 1.73665E-02-7.34335E-01 1.19675E-13 1.78598E-13
 -1      4117 1.88297E+01 8.16045E-01 1.72067E-03-5.89815E-01-5.51842E-14 1.14387E-13
 -1      4118 1.89272E+01 7.94800E-01-6.03525E-03-5.06949E-01 7.09370E-14 5.54162E-14
 -1      4119 1.86252E+01 9.25168E-01 1.34818E-02-5.20054E-01 2.16192E-14 2.18948E-13
 -1      4120 1.90693E+01 7.71653E-01 7.89515E-04-4.35986E-01 1.53124E-13-2.32095E-14
 -1      4121 1.91572E+01 7.34957E-01-4.54583E-03-3.73750E-01 1.10638E-13-2.01632E-14
 -1      4122 1.89179E+01 8.64526E-01 1.03893E-02-3.68512E-01 3.47012E-14 2.07139E-13
 -1      4123 1.92732E+01 6.98222E-01 2.25514E-04-3.22755E-01 4.83527E-14-1.78742E-14
 -1      4124 1.93494E+01 6.53724E-01-3.44705E-03-2.75608E-01 6.40059E-14 3.08383E-14
 -1      4125 1.91602E+01 7.77548E-01 8.04355E-03-2.61279E-01 4.39358E-14 7.20414E-14
 -1      4126 1.94430E+01 6.10608E-01-9.25166E-05-2.38901E-01 6.97190E-14-1.56630E-14
 -1      4127 1.95071E+01 5.63753E-01-2.62115E-03-2.02937E-01-2.84198E-14 3.54363E-14
 -1      4128 1.93585E+01 6.78183E-01 6.24265E-03-1.85291E-01-9.67596E-15-1.66458E-13
 -1      4129 1.95816E+01 5.19252E-01-2.51326E-04-1.76484E-01-4.04064E-14 2.10485E-13
 -1      4130 1.96340E+01 4.73704E-01-1.99205E-03-1.48921E-01-5.95604E-14 1.41808E-13
 -1      4131 1.95184E+01 5.76396E-01 4.83686E-03-1.31348E-01-2.40539E-14-3.55424E-14
 -1      4132 1.96924E+01 4.31077E-01-3.10890E-04-1.29846E-01-1.56318E-13 2.47416E-13
 -1      4133 1.97342E+01 3.89107E-01-1.50876E-03-1.08673E-01-2.17176E-13 2.51523E-13
 -1      4134 1.96454E+01 4.78904E-01 3.72720E-03-9.29783E-02-7.13645E-14 1.41672E-13
 -1      4135 1.97794E+01 3.50294E-01-3.11965E-04-9.49216E-02-2.01515E-13 2.22865E-13
 -1      4136 1.98119E+01 3.13121E-01-1.13598E-03-7.86590E-02-1.72557E-13 1.38430E-13
 -1      4137 1.97447E+01 3.89840E-01 2.84761E-03-6.56265E-02-1.94895E-13 2.80307E-13
 -1      4138 1.98461E+01 2.79094E-01-2.81706E-04-6.87562E-02-3.90015E-13 1.91875E-13
 -1      4139 1.98709E+01 2.47188E-01-8.48357E-04-5.62971E-02-4.11256E-13 8.82583E-15
 -1      4140 1.98209E+01 3.11366E-01 2.15164E-03-4.60875E-02-3.24172E-13 1.79567E-13
 -1      4141 1.98964E+01 2.18247E-01-2.37611E-04-4.91831E-02-2.62591E-13 1.49256E-14
 -1      4142 1.99148E+01 1.91570E-01-6.27126E-04-3.96836E-02-1.47563E-13 1.77047E-13
 -1      4143 1.98782E+01 2.44222E-01 1.60439E-03-3.21062E-02-3.75448E-13 2.62265E-13
 -1      4144 1.99333E+01 1.67571E-01-1.90378E-04-3.45940E-02 1.25833E-13 2.04448E-13
 -1      4145 1.99466E+01 1.45766E-01-4.58053E-04-2.74013E-02 3.06947E-13 3.43383E-13
 -1      4146 1.99205E+01 1.88185E-01 1.17792E-03-2.20947E-02 4.50285E-14 2.20497E-13
 -1      4147 1.99597E+01 1.26303E-01-1.45973E-04-2.37833E-02 2.55098E-13 3.49389E-13
 -1      4148 1.99689E+01 1.08835E-01-3.30607E-04-1.83855E-02 2.54009E-13 2.58027E-13
 -1      4149 1.99509E+01 1.42424E-01 8.48289E-04-1.49338E-02 2.93952E-13 2.71191E-13
 -1      4150 1.99779E+01 9.33675E-02-1.05830E-04-1.58386E-02 2.37581E-13 1.92471E-13
 -1      4151 1.99841E+01 7.96264E-02-2.27620E-04-1.18284E-02 9.21688E-14 2.13364E-13
 -1      4152 1.99720E+01 1.05768E-01 5.90604E-04-9.83797E-03 2.02952E-13 7.17792E-14
 -1      4153 1.99900E+01 6.75356E-02-7.22546E-05-1.00135E-02-5.58660E-14 1.89844E-13
 -1      4154 1.99939E+01 5.69269E-02-1.49941E-04-7.13507E-03 2.88211E-14 5.06713E-14
 -1      4155 1.99862E+01 7.68996E-02 3.58503E-04-6.26176E-03 3.67881E-14 9.91188E-14
 -1      4156 1.99966E+01 5.05248E-02 1.36469E-05-5.87626E-03 3.09773E-15-1.32028E-13
 -1      4157 1.99982E+01 4.40939E-02-1.21782E-04-4.13932E-03-1.78716E-13-2.27164E-13
 -1      4158 1.99984E+01 4.43290E-02 7.59908E-05-1.44392E-03-8.88885E-14-6.50374E-13
 -1      4159 1.99942E+01 5.69951E-02 1.28385E-04-3.39500E-03-2.19462E-13-1.74200E-13
 -1      4160 1.94512E+01 6.33069E-01-2.27025E-03 1.72557E-01-3.05418E-14-1.68660E-13
 -1      4161 1.93634E+01 6.94054E-01-2.11985E-03 1.91198E-01-5.70350E-14-1.85618E-13
 -1      4162 1.94734E+01 6.28981E-01 6.12121E-03 1.00488E-01 1.01514E-14-4.50402E-13
 -1      4163 1.92557E+01 7.56319E-01-2.74548E-03 1.99282E-01-5.26863E-15-2.60020E-13
 -1      4164 1.91401E+01 8.20805E-01-3.07722E-03 2.16768E-01-2.66204E-15-2.23393E-13
 -1      4165 1.92872E+01 7.52310E-01 8.03881E-03 1.07767E-01-9.33930E-14-3.08634E-13
 -1      4166 1.98016E+01 3.33877E-01-1.25444E-03 9.24878E-02 2.88028E-16 3.72817E-14
 -1      4167 1.97653E+01 3.75789E-01-5.97080E-04 1.07482E-01 3.52820E-14-7.76828E-14
 -1      4168 1.97271E+01 4.16602E-01 3.51065E-03 7.39187E-02 1.81497E-14-3.04258E-13
 -1      4169 1.98654E+01 2.61118E-01-1.00298E-03 7.10604E-02-9.09321E-14 2.66560E-13
 -1      4170 1.98390E+01 2.96293E-01-3.62635E-04 8.38539E-02 1.57865E-14 2.06718E-13
 -1      4171 1.98099E+01 3.30637E-01 2.62695E-03 5.96669E-02-1.22557E-13 1.41247E-13
 -1      4172 1.99119E+01 2.01000E-01-7.88748E-04 5.31279E-02-1.64467E-13 1.95655E-13
 -1      4173 1.98931E+01 2.29940E-01-2.06309E-04 6.37166E-02-1.31172E-13 2.67047E-13
 -1      4174 1.98714E+01 2.58205E-01 1.94336E-03 4.65786E-02-6.22711E-14 2.09118E-13
 -1      4175 1.99451E+01 1.52233E-01-6.09671E-04 3.85710E-02-1.62520E-14 1.65163E-13
 -1      4176 1.99321E+01 1.75612E-01-1.05199E-04 4.71059E-02-1.15933E-13 2.28820E-13
 -1      4177 1.99163E+01 1.98409E-01 1.41793E-03 3.52218E-02-5.45476E-14 2.66475E-13
 -1      4178 1.99683E+01 1.13341E-01-4.62972E-04 2.70671E-02 2.75456E-14 3.50424E-13
 -1      4179 1.99594E+01 1.31913E-01-4.23316E-05 3.37851E-02 4.78333E-14 2.84326E-13
 -1      4180 1.99483E+01 1.49952E-01 1.01743E-03 2.57794E-02-3.76248E-14 3.32842E-13
 -1      4181 1.99839E+01 8.28175E-02-3.38954E-04 1.81898E-02-8.13506E-15 3.49288E-13
 -1      4182 1.99781E+01 9.73440E-02-4.93544E-06 2.33664E-02 4.52653E-14 3.39451E-13
 -1      4183 1.99705E+01 1.11355E-01 7.13063E-04 1.82007E-02 4.51329E-14 3.48997E-13
 -1      4184 1.99937E+01 5.91531E-02-2.89499E-04 1.14146E-02-6.11079E-14 2.60199E-13
 -1      4185 1.99904E+01 7.03757E-02 3.54509E-06 1.53724E-02-5.42224E-14 2.62285E-13
 -1      4186 1.99853E+01 8.10914E-02 4.52803E-04 1.23005E-02-3.71408E-14 7.68474E-14
 -1      4187 1.78004E+01 1.34899E+00-2.83912E-03-8.78645E-01 4.52223E-14-3.17259E-13
 -1      4188 1.80923E+01 1.38853E+00-1.33680E-02-7.71610E-01 7.40530E-14-3.22265E-13
 -1      4189 1.80203E+01 1.52834E+00 2.10981E-02-4.34261E-01 8.23746E-14-2.82964E-13
 -1      4190 1.73812E+01 1.44951E+00 2.31917E-02-5.78759E-01 6.15773E-14-3.25349E-13
 -1      4191 1.68434E+01 1.00879E+00-7.71344E-03 1.11387E+00 1.01042E-13-2.77308E-13
 -1      4192 1.65648E+01 1.24216E+00 1.56392E-02 6.01106E-01 7.46679E-14-2.56444E-13
 -1      4193 1.71308E+01-4.37201E-03-1.24793E-02-2.35573E+00 7.25171E-14 2.24996E-14
 -1      4194 1.58481E+01 1.36475E+00 4.70571E-02 3.94100E-01 7.96093E-14 1.04707E-13
 -1      4195 1.90027E+01 8.85379E-01-3.37262E-03 2.21050E-01-9.70696E-14-2.36678E-13
 -1      4196 1.88514E+01 9.50056E-01-4.40423E-03 2.35540E-01-8.61157E-14-2.66126E-13
 -1      4197 1.90479E+01 8.82171E-01 1.05802E-02 1.05579E-01-4.20825E-14-3.93989E-13
 -1      4198 1.76017E+01 5.20711E-01-7.35061E-03 1.74572E+00 1.16452E-13-2.39642E-13
 -1      4199 1.71591E+01 8.39193E-01 1.23882E-02 1.41842E+00 1.23687E-13-2.92007E-13
 -1      4200 1.73404E+01 1.03556E+00-3.45362E-04 1.03468E+00 9.78477E-14-2.28224E-13
 -1      4201 1.79096E+01 6.40058E-01-1.24205E-02 1.55402E+00 1.06854E-13-2.47016E-13
 -1      4202 1.61241E+01 1.18847E+00-3.97015E-03-3.20119E-01 1.00270E-13 1.24545E-13
 -1      4203 1.64265E+01 1.29547E+00-1.54857E-02-1.23224E-01 7.16697E-14-3.24280E-13
 -1      4204 2.00031E+01 2.69761E-02-2.71949E-05 3.00728E-03 1.27143E-13 2.41793E-13
 -1      4205 1.87605E+01 1.69360E+00 1.75010E-03-6.69577E-02 5.10784E-14-3.11906E-13
 -1      4206 1.89114E+01 1.79800E+00-8.77501E-03 6.56644E-02 5.52261E-14-3.31609E-13
 -1      4207 1.76965E+01 1.22178E+00-8.23545E-03 2.14079E-01 1.19059E-13-1.84149E-13
 -1      4208 1.73368E+01 1.24428E+00-1.78513E-02 2.17276E-01 1.58126E-13-2.83246E-14
 -1      4209 1.78378E+01 1.23590E+00 2.44505E-02-2.99023E-02 4.48915E-14 7.67613E-14
 -1      4210 1.90145E+01 1.35373E+00-1.93538E-03 6.88360E-01-2.20007E-14-2.72614E-13
 -1      4211 1.88981E+01 1.20944E+00 1.77820E-03 8.29367E-01 1.20140E-15-2.93193E-13
 -1      4212 1.86085E+01 1.29092E+00 1.01094E-02 7.62241E-01 2.20405E-14-2.65782E-13
 -1      4213 1.86760E+01 1.01306E+00-4.29100E-03 2.33411E-01-1.71695E-13-3.00284E-13
 -1      4214 1.84781E+01 1.07314E+00-6.26434E-03 2.43147E-01-2.29133E-13-3.62012E-13
 -1      4215 1.87417E+01 1.01222E+00 1.40277E-02 8.78258E-02-1.52588E-13-4.81591E-13
 -1      4216 1.89979E+01 1.80045E+00 9.65542E-04 2.40638E-01 1.44413E-14-3.40720E-13
 -1      4217 1.67451E+01 4.84689E-01 2.17158E-02-1.93256E+00 8.27553E-14 1.83798E-13
 -1      4218 1.76412E+01 1.75652E-01 7.53048E-03-2.01547E+00 8.18740E-14 2.74104E-14
 -1      4219 1.76652E+01 3.74178E-01-2.33194E-02-1.72968E+00 8.72877E-14 7.89771E-14
 -1      4220 1.65344E+01 7.61797E-01-3.22449E-02-1.42431E+00 1.03860E-13 1.71757E-13
 -1      4221 1.69610E+01 1.31393E+00-5.00305E-03 2.70688E-02 7.96251E-14-2.94459E-13
 -1      4222 1.99968E+01 4.86498E-02 6.85203E-06 5.38211E-04-1.64247E-13-1.29198E-13
 -1      4223 1.99986E+01 4.24820E-02-1.19201E-04 1.08742E-03-1.13612E-14 5.31610E-14
 -1      4224 1.99996E+01 4.12245E-02 1.11030E-04 2.91447E-03 6.36074E-14 3.20413E-13
 -1      4225 1.65415E+01 1.24235E+00-2.75573E-02 9.68487E-03 1.30813E-13 1.01464E-13
 -1      4226 1.65099E+01 1.16604E+00 3.23483E-02-7.81548E-01 9.38939E-14 1.37940E-13
 -1      4227 1.74179E+01 7.39601E-01 2.53256E-02-1.42241E+00 8.25116E-14 1.05602E-13
 -1      4228 1.91911E+01 1.41874E+00-3.44693E-03 6.42201E-01-3.22602E-14-2.67581E-13
 -1      4229 1.82442E+01 1.52099E+00-1.03120E-02-5.17056E-02 8.39510E-14-2.60764E-13
 -1      4230 1.85140E+01 1.59032E+00-7.40567E-03-3.89810E-02 7.17829E-14-2.77984E-13
 -1      4231 1.85697E+01 1.61708E+00 1.14143E-02 1.93372E-01 4.51634E-14-2.54985E-13
 -1      4232 1.99977E+01 4.97156E-02 6.15593E-05 8.06579E-03-8.75427E-15 2.21463E-13
 -1      4233 1.99945E+01 5.72968E-02 2.06614E-04 6.15086E-03-8.54221E-14 3.73935E-15
 -1      4234 1.73097E+01 1.34307E+00-1.51019E-02 8.08960E-02 9.48673E-14-2.56772E-13
 -1      4235 1.99997E+01 4.12237E-02-1.07144E-04 5.48850E-03 1.45885E-14 2.09730E-13
 -1      4236 2.00021E+01 3.17606E-02-7.41652E-05 3.63717E-03 1.54399E-13 1.99115E-13
 -1      4237 2.00014E+01 3.56719E-02-5.18312E-05 5.12731E-03 1.31177E-13 3.04757E-13
 -1      4238 1.83679E+01 8.27617E-01-1.09316E-02 1.26993E+00 1.03097E-13-2.80104E-13
 -1      4239 1.81372E+01 7.27205E-01-4.86102E-03 1.42338E+00 1.30251E-13-2.49275E-13
 -1      4240 1.78338E+01 9.54478E-01 1.28707E-02 1.21517E+00 1.04954E-13-2.50174E-13
 -1      4241 1.82268E+01 1.10905E+00 1.47874E-02 1.00211E+00 8.06911E-14-2.83814E-13
 -1      4242 1.69475E+01 9.34535E-01-1.17859E-03-1.04097E+00 8.03251E-14 1.33336E-13
 -1      4243 1.70357E+01 1.25955E+00-3.68232E-03 7.64164E-02 9.98821E-14 1.19529E-14
 -1      4244 1.83492E+01 1.13377E+00 1.87695E-02 4.63324E-02-1.21901E-13-2.46051E-13
 -1      4245 1.89507E+01 1.62698E+00 2.73165E-03 3.72825E-01 9.77267E-15-3.10669E-13
 -1      4246 1.72302E+01 1.28237E+00 3.23869E-02-2.46719E-01 1.65154E-13 1.95890E-13
 -1      4247 1.89905E+01 1.47655E+00 8.90096E-03 6.04078E-01-1.16646E-14-2.77345E-13
 -1      4248 1.87451E+01 1.54966E+00-7.39414E-03 3.83947E-01 1.60158E-14-3.10749E-13
 -1      4249 1.84255E+01 9.92862E-01-9.96244E-03-2.72522E-01 4.20374E-14-5.17774E-14
 -1      4250 1.81900E+01 1.03221E+00-1.54646E-02-3.16434E-01 8.58177E-14 7.80236E-14
 -1      4251 1.85198E+01 1.44429E+00-1.03028E-02 4.48471E-01 3.83379E-14-2.68134E-13
 -1      4252 1.83201E+01 1.34049E+00-2.38801E-03 5.73404E-01 6.13602E-14-2.48803E-13
 -1      4253 1.71213E+01 9.73402E-01-3.05482E-02-8.54109E-01 7.75521E-14 1.10489E-13
 -1      4254 1.97212E+01 3.96676E-01-2.33956E-03-3.46754E-03-5.96525E-14 3.25258E-14
 -1      4255 1.96709E+01 4.43068E-01-2.34845E-03 3.51519E-04-2.97259E-14-7.01507E-14
 -1      4256 1.79845E+01 1.03916E+00-1.21019E-02-4.30132E-01 1.30891E-13 6.39657E-14
 -1      4257 1.85971E+01 9.63423E-01-1.13461E-02-1.92912E-01-4.52551E-14-1.45385E-14
 -1      4258 1.87803E+01 9.11142E-01-7.78295E-03-1.67204E-01-1.06086E-13-4.02615E-14
 -1      4259 1.89218E+01 8.67921E-01-8.27378E-03-1.11900E-01-3.09516E-14-2.16162E-13
 -1      4260 1.90647E+01 8.09449E-01-6.10057E-03-9.84243E-02-4.91174E-14-2.16683E-13
 -1      4261 1.91804E+01 7.59436E-01-6.05000E-03-6.01567E-02-7.86779E-14-3.16241E-13
 -1      4262 1.92917E+01 6.99871E-01-4.81346E-03-5.47270E-02-6.35176E-14-2.60456E-13
 -1      4263 1.93852E+01 6.48188E-01-4.42810E-03-2.83239E-02-7.53383E-14-2.97400E-13
 -1      4264 1.94714E+01 5.91092E-01-3.80399E-03-2.79042E-02 2.04285E-14-2.88328E-13
 -1      4265 1.95460E+01 5.41245E-01-3.23350E-03-9.72355E-03 4.41205E-14-2.76085E-13
 -1      4266 1.96123E+01 4.88884E-01-2.99503E-03-1.21577E-02 3.82178E-14-1.85189E-13
 -1      4267 1.97666E+01 3.56079E-01-1.69175E-03 5.14528E-03-1.11555E-13 2.91434E-14
 -1      4268 1.98043E+01 3.16122E-01-1.80768E-03 8.88004E-04-2.24710E-13 1.21094E-13
 -1      4269 1.98388E+01 2.81198E-01-1.20549E-03 6.83052E-03-3.40995E-13 1.51644E-13
 -1      4270 1.98666E+01 2.47603E-01-1.37839E-03 2.70160E-03-2.79659E-13 3.19576E-13
 -1      4271 1.98923E+01 2.18299E-01-8.47186E-04 6.81456E-03-1.13413E-13 4.16432E-13
 -1      4272 1.99124E+01 1.90650E-01-1.03517E-03 3.11711E-03-5.04719E-14 3.69668E-13
 -1      4273 1.99312E+01 1.66591E-01-5.84860E-04 5.97336E-03 1.25372E-13 4.66812E-13
 -1      4274 1.99454E+01 1.44270E-01-7.63312E-04 2.83850E-03 1.42529E-13 4.09781E-13
 -1      4275 1.99587E+01 1.24901E-01-3.92848E-04 4.82566E-03 1.33010E-13 3.24888E-13
 -1      4276 1.99684E+01 1.07204E-01-5.45849E-04 2.28510E-03 1.49705E-13 1.09293E-13
 -1      4277 1.99776E+01 9.18870E-02-2.40141E-04 3.65856E-03 1.23717E-13 6.36790E-14
 -1      4278 1.99840E+01 7.80954E-02-3.54290E-04 1.70913E-03 3.67500E-14-7.73801E-14
 -1      4279 1.99902E+01 6.62902E-02-3.10418E-05 2.51249E-03-1.27544E-13-1.22677E-13
 -1      4280 1.76712E+01 1.41094E+00-1.20625E-02-2.34162E-02 9.71825E-14-2.70969E-13
 -1      4281 1.79657E+01 1.44956E+00-1.31861E-02 2.37568E-02 8.64588E-14-2.50053E-13
 -1      4282 1.80864E+01 1.46329E+00 1.91640E-02 3.32600E-01 7.74966E-14-2.26239E-13
 -1      4283 1.74786E+01 1.31988E+00 1.94373E-02 5.62038E-01 1.03409E-13-2.02308E-13
 -1      4284 1.74450E+01 1.03542E+00-8.79930E-03-6.59392E-01 1.07581E-13 1.94253E-13
 -1      4285 1.76805E+01 1.05835E+00-1.93168E-02-5.03108E-01 1.67179E-13 1.46724E-13
 -1      4286 1.80502E+01 1.24367E+00-1.18859E-02 6.84936E-01 7.00060E-14-2.28297E-13
 -1      4287 1.78821E+01 1.19411E+00-1.66162E-03 7.65340E-01 8.42305E-14-2.52261E-13
 -1      4288 1.75474E+01 1.10596E+00-7.51832E-03 9.31240E-01 9.24461E-14-2.16735E-13
 -1      4289 1.99940E+01 5.50972E-02-1.86424E-04-4.68215E-04-2.58445E-13-7.51681E-14
 -3
    1PSTEP                         3           1           1          
  100CL  101 1.000000000        4289                     0    1           1
 -4  TOSTRAIN    6    1
 -5  EXX         1    4    1    1
 -5  EYY         1    4    2    2
 -5  EZZ         1    4    3    3
 -5  EXY         1    4    1    2
 -5  EYZ         1    4    2    3
 -5  EZX         1    4    3    1
 -1         1 1.60075E-04-9.64775E-06-5.75386E-05-1.13788E-04-9.64813E-18 1.78563E-17
 -1         2 3.71857E-05-1.12380E-04 2.03068E-05-1.94565E-07 2.52201E-18 1.03243E-18
 -1         3 9.52380E-05-2.85702E-05-2.85723E-05 1.30414E-09-2.87502E-18-2.97672E-18
 -1         4 9.52379E-05-2.85703E-05-2.85723E-05-1.11490E-09 9.13353E-19 3.73755E-19
 -1         5 1.41916E-04-2.11178E-05-4.24128E-05 3.78864E-05-3.07208E-19 2.18601E-17
 -1         6 1.43904E-04 2.57852E-10-4.40650E-05-5.25893E-05-1.28188E-18 2.06858E-17
 -1         7 9.13552E-05-6.05186E-07-3.92329E-05-2.81475E-05-1.93865E-19 3.78131E-18
 -1         8 8.60486E-05 4.06605E-08-3.66588E-05-1.87186E-05-2.45084E-19-1.47198E-18
 -1         9 8.35970E-05 5.11469E-08-3.56472E-05-1.38042E-05-2.17304E-19-4.30013E-18
 -1        10 8.22086E-05 2.84156E-08-3.50597E-05-1.01657E-05-1.65449E-19-5.59798E-18
 -1        11 8.12599E-05 1.96083E-08-3.46725E-05-7.22686E-06-9.53508E-20-6.25312E-18
 -1        12 8.05797E-05 1.75648E-08-3.44024E-05-4.80611E-06-5.94445E-20-6.45323E-18
 -1        13 8.01058E-05 1.90478E-08-3.42180E-05-2.68045E-06-1.01247E-20-6.49200E-18
 -1        14 7.98550E-05 2.06566E-08-3.41221E-05-7.66615E-07 1.01412E-21-6.51220E-18
 -1        15 7.98399E-05 2.12363E-08-3.41179E-05 1.06143E-06 3.08265E-20-6.38515E-18
 -1        16 8.00692E-05 2.04334E-08-3.42083E-05 2.93596E-06 7.60741E-20-6.22922E-18
 -1        17 8.05449E-05 1.81319E-08-3.43943E-05 4.99862E-06 9.84146E-20-5.97882E-18
 -1        18 8.12519E-05 1.90849E-08-3.46738E-05 7.35499E-06 1.30443E-19-5.41415E-18
 -1        19 8.22497E-05 2.64084E-08-3.50784E-05 1.02611E-05 2.22743E-19-4.51644E-18
 -1        20 8.36783E-05 5.25264E-08-3.56826E-05 1.39167E-05 2.59827E-19-2.83106E-18
 -1        21 8.60884E-05 1.14052E-07-3.67191E-05 1.88192E-05 2.93312E-19 4.31280E-19
 -1        22 9.22812E-05-1.88400E-07-3.89091E-05 2.68352E-05 4.41516E-20 7.03021E-18
 -1        23 1.13259E-04-3.82364E-05-3.54979E-05-4.09669E-06-8.75012E-19 1.61058E-17
 -1        24 9.44715E-05-2.82069E-05-2.94772E-05 4.31281E-07-1.81288E-19 1.22412E-17
 -1        25 9.19285E-05-2.77008E-05-2.77662E-05 3.93888E-07-1.03805E-19 8.50956E-18
 -1        26 9.20015E-05-2.76886E-05-2.75944E-05 2.26306E-07 7.46117E-21 5.58710E-18
 -1        27 9.33625E-05-2.80663E-05-2.79925E-05 1.72076E-07-1.02676E-19 3.69824E-18
 -1        28 9.54393E-05-2.86640E-05-2.86261E-05 1.46234E-07-2.85783E-20 2.20204E-18
 -1        29 9.79346E-05-2.93958E-05-2.93774E-05 1.34481E-07 7.98684E-21 1.46031E-18
 -1        30 1.00609E-04-3.01859E-05-3.01730E-05 1.27194E-07-4.78432E-20 8.69632E-19
 -1        31 1.03190E-04-3.09501E-05-3.09312E-05 1.15427E-07-8.62150E-21-3.13276E-19
 -1        32 1.05323E-04-3.15814E-05-3.15449E-05 8.86223E-08-8.94439E-20-1.53023E-18
 -1        33 1.06552E-04-3.19446E-05-3.18803E-05 3.48031E-08 1.81204E-19-1.68475E-18
 -1        34 1.06371E-04-3.18894E-05-3.17940E-05-5.53830E-08-7.66126E-20-1.95720E-18
 -1        35 1.04356E-04-3.12894E-05-3.11757E-05-1.79714E-07 2.81068E-20-2.68554E-18
 -1        36 1.00401E-04-3.01127E-05-3.00155E-05-3.12865E-07-6.93459E-20-2.37347E-18
 -1        37 9.49901E-05-2.85013E-05-2.84714E-05-4.02037E-07-2.13875E-19-3.16624E-18
 -1        38 8.93190E-05-2.68097E-05-2.68865E-05-3.84649E-07-2.02457E-19-4.31980E-18
 -1        39 8.50456E-05-2.55333E-05-2.57109E-05-2.31401E-07-2.00889E-20-4.62026E-18
 -1        40 8.36393E-05-2.51132E-05-2.53293E-05 1.60735E-08-1.47619E-20-4.81195E-18
 -1        41 8.56517E-05-2.57151E-05-2.58844E-05 2.57880E-07-6.61182E-20-5.23292E-18
 -1        42 9.04193E-05-2.71395E-05-2.72051E-05 3.97517E-07 2.69453E-19-4.67178E-18
 -1        43 9.64283E-05-2.89324E-05-2.88945E-05 4.02284E-07-2.81174E-19-3.73777E-18
 -1        44 1.02063E-04-3.06113E-05-3.05129E-05 3.07886E-07 3.24759E-19-3.78526E-18
 -1        45 1.06221E-04-3.18493E-05-3.17404E-05 1.77626E-07-3.75510E-19-4.21702E-18
 -1        46 1.08507E-04-3.25304E-05-3.24438E-05 6.15572E-08-1.10052E-19-4.73550E-18
 -1        47 1.09081E-04-3.27034E-05-3.26499E-05-1.78914E-08-3.30250E-19-3.97579E-18
 -1        48 1.08387E-04-3.24995E-05-3.24753E-05-6.00295E-08 2.18436E-19-4.32708E-18
 -1        49 1.06920E-04-3.20654E-05-3.20612E-05-7.42826E-08 3.86155E-19-4.03297E-18
 -1        50 1.05100E-04-3.15253E-05-3.15318E-05-7.16688E-08-4.50806E-19-4.34711E-18
 -1        51 1.03226E-04-3.09677E-05-3.09784E-05-6.08959E-08 1.06119E-20-3.62844E-18
 -1        52 1.01481E-04-3.04474E-05-3.04584E-05-4.75759E-08 3.01733E-19-1.90497E-18
 -1        53 9.99595E-05-2.99930E-05-3.00024E-05-3.47815E-08-3.55916E-19-4.12644E-18
 -1        54 9.86952E-05-2.96145E-05-2.96218E-05-2.38910E-08 2.38497E-19-4.79376E-18
 -1        55 9.76837E-05-2.93111E-05-2.93163E-05-1.52967E-08-1.74589E-19-5.89825E-18
 -1        56 9.69003E-05-2.90757E-05-2.90791E-05-8.88746E-09 1.16586E-19-5.97038E-18
 -1        57 9.63118E-05-2.88985E-05-2.89005E-05-4.33835E-09 2.47708E-19-4.61106E-18
 -1        58 9.58828E-05-2.87691E-05-2.87701E-05-1.26806E-09 3.50878E-19-2.88021E-18
 -1        59 9.55805E-05-2.86776E-05-2.86779E-05 6.83870E-10-2.19806E-19-4.91116E-18
 -1        60 9.53757E-05-2.86155E-05-2.86154E-05 1.82546E-09-1.51108E-19-3.93379E-18
 -1        61 9.52442E-05-2.85754E-05-2.85751E-05 2.40439E-09 5.37188E-19-3.29592E-18
 -1        62 9.51663E-05-2.85516E-05-2.85511E-05 2.61149E-09-5.79736E-19-2.07338E-18
 -1        63 9.51266E-05-2.85392E-05-2.85387E-05 2.58881E-09 1.55916E-20-3.71403E-18
 -1        64 9.51134E-05-2.85349E-05-2.85344E-05 2.43874E-09-3.51778E-19-2.57997E-18
 -1        65 9.51178E-05-2.85360E-05-2.85355E-05 2.23231E-09-4.66871E-19-4.22417E-18
 -1        66 9.51333E-05-2.85404E-05-2.85401E-05 2.01572E-09 3.82182E-19-3.30241E-18
 -1        67 9.51552E-05-2.85468E-05-2.85465E-05 1.81371E-09 6.22980E-19-7.32921E-19
 -1        68 9.51797E-05-2.85540E-05-2.85538E-05 1.62745E-09 5.53940E-19 7.98031E-19
 -1        69 9.52038E-05-2.85611E-05-2.85608E-05 1.41194E-09-4.27350E-19 2.86045E-18
 -1        70 9.52239E-05-2.85672E-05-2.85666E-05 9.51095E-10 2.88665E-19 4.50314E-18
 -1        71 9.52362E-05-2.85712E-05-2.85703E-05 1.38264E-10-3.18416E-19 3.42398E-18
 -1        72 1.02541E-04-3.06854E-05-3.42721E-05-2.00481E-06 3.40640E-19 1.98326E-17
 -1        73 9.43244E-05-2.80545E-05-2.94149E-05-3.47865E-07 2.13340E-19 1.49704E-17
 -1        74 9.21358E-05-2.76202E-05-2.78794E-05-1.23489E-07 8.30109E-20 1.12183E-17
 -1        75 9.24893E-05-2.77794E-05-2.77847E-05-8.82166E-08 7.68401E-20 8.95170E-18
 -1        76 9.42758E-05-2.83117E-05-2.82992E-05-7.24700E-08 1.08665E-19 6.83291E-18
 -1        77 9.70662E-05-2.91377E-05-2.91478E-05-6.96370E-08-5.05300E-20 5.39570E-18
 -1        78 1.00717E-04-3.02230E-05-3.02555E-05-8.05217E-08 2.77804E-20 4.77007E-18
 -1        79 1.05178E-04-3.15510E-05-3.16009E-05-1.07980E-07-1.89259E-20 4.25414E-18
 -1        80 1.10374E-04-3.30976E-05-3.31551E-05-1.55800E-07 4.48952E-22 3.36312E-18
 -1        81 1.16072E-04-3.47947E-05-3.48346E-05-2.23906E-07 9.95440E-20 2.73131E-18
 -1        82 1.21707E-04-3.64789E-05-3.64485E-05-2.97679E-07 6.36540E-20 2.36011E-18
 -1        83 1.26172E-04-3.78315E-05-3.76482E-05-3.30113E-07 3.30392E-20 2.00198E-18
 -1        84 1.27726E-04-3.83455E-05-3.79320E-05-2.27959E-07 1.86605E-19 1.81629E-18
 -1        85 1.24356E-04-3.74104E-05-3.67999E-05 1.17005E-07-5.14837E-20 2.05623E-18
 -1        86 1.14987E-04-3.46515E-05-3.41114E-05 6.94892E-07 1.93196E-19 4.33257E-19
 -1        87 1.01376E-04-3.05066E-05-3.05052E-05 1.21872E-06-2.14262E-19 4.39398E-20
 -1        88 8.90342E-05-2.66248E-05-2.74077E-05 1.17806E-06-2.33007E-19 1.87433E-19
 -1        89 8.47155E-05-2.51691E-05-2.63818E-05 3.96390E-07 4.41784E-19-2.12263E-18
 -1        90 9.12026E-05-2.71333E-05-2.80083E-05-6.19408E-07-2.61300E-19-3.52043E-18
 -1        91 1.04683E-04-3.13296E-05-3.14354E-05-1.14730E-06-1.51639E-20-2.97113E-18
 -1        92 1.18231E-04-3.55288E-05-3.50576E-05-1.03106E-06-3.71755E-19-2.09567E-18
 -1        93 1.26923E-04-3.81762E-05-3.75789E-05-5.94737E-07-9.46344E-20-2.62877E-18
 -1        94 1.29666E-04-3.89775E-05-3.85303E-05-1.83835E-07 2.67992E-19-3.92239E-18
 -1        95 1.27886E-04-3.84067E-05-3.81747E-05 6.71310E-08-3.17561E-19-3.45065E-18
 -1        96 1.23634E-04-3.71035E-05-3.70350E-05 1.73357E-07 2.35856E-19-1.18190E-18
 -1        97 1.18546E-04-3.55636E-05-3.55843E-05 1.91681E-07 2.32762E-19-1.58097E-18
 -1        98 1.13609E-04-3.40784E-05-3.41340E-05 1.70002E-07-3.43041E-19-1.73228E-18
 -1        99 1.09288E-04-3.27823E-05-3.28432E-05 1.36188E-07-3.05017E-20-1.47287E-18
 -1       100 1.05726E-04-3.17152E-05-3.17690E-05 1.03093E-07-2.22207E-19-1.25022E-18
 -1       101 1.02900E-04-3.08690E-05-3.09120E-05 7.53094E-08 4.69972E-19-2.52140E-18
 -1       102 1.00717E-04-3.02153E-05-3.02482E-05 5.36223E-08-4.23454E-19-2.97700E-18
 -1       103 9.90665E-05-2.97208E-05-2.97452E-05 3.73546E-08-2.53500E-19-6.56080E-19
 -1       104 9.78405E-05-2.93533E-05-2.93710E-05 2.54442E-08 1.29051E-19 1.05376E-18
 -1       105 9.69456E-05-2.90849E-05-2.90976E-05 1.68712E-08 1.01009E-19 8.58882E-20
 -1       106 9.63046E-05-2.88925E-05-2.89015E-05 1.07887E-08-2.59149E-19-2.21522E-18
 -1       107 9.58552E-05-2.87576E-05-2.87639E-05 6.53710E-09-1.69424E-19-3.42969E-18
 -1       108 9.55486E-05-2.86655E-05-2.86697E-05 3.61768E-09-1.20297E-19-7.19699E-18
 -1       109 9.53469E-05-2.86048E-05-2.86076E-05 1.65829E-09-3.70166E-19-5.61254E-18
 -1       110 9.52210E-05-2.85669E-05-2.85687E-05 3.82941E-10 2.03095E-19-4.41704E-18
 -1       111 9.51490E-05-2.85452E-05-2.85463E-05-4.12756E-10-2.18534E-19-2.71178E-18
 -1       112 9.51144E-05-2.85347E-05-2.85353E-05-8.80103E-10-4.42145E-19-9.96692E-19
 -1       113 9.51051E-05-2.85318E-05-2.85321E-05-1.13120E-09 8.41348E-19-4.75564E-18
 -1       114 9.51125E-05-2.85340E-05-2.85341E-05-1.24938E-09-1.27022E-18-5.68126E-18
 -1       115 9.51302E-05-2.85392E-05-2.85392E-05-1.29697E-09 5.18210E-19-4.20889E-18
 -1       116 9.51536E-05-2.85461E-05-2.85461E-05-1.31852E-09 4.56686E-19-7.32359E-18
 -1       117 9.51791E-05-2.85538E-05-2.85536E-05-1.33870E-09-3.14550E-19-9.95748E-18
 -1       118 9.52039E-05-2.85612E-05-2.85608E-05-1.35713E-09-9.10762E-19-5.93731E-18
 -1       119 9.52243E-05-2.85673E-05-2.85667E-05-1.24352E-09 6.58334E-19-5.24463E-18
 -1       120 9.52362E-05-2.85713E-05-2.85703E-05-4.41863E-10 1.60098E-18-6.09786E-18
 -1       121 9.52376E-05-2.85728E-05-2.85703E-05-2.51118E-10-7.13929E-18 7.45931E-19
 -1       122 9.52412E-05-2.85844E-05-2.85667E-05-1.00376E-09-5.69354E-18 7.09317E-19
 -1       123 9.52466E-05-2.86026E-05-2.85616E-05-1.19052E-09 9.63273E-19 1.61864E-18
 -1       124 9.52525E-05-2.86222E-05-2.85560E-05-1.05487E-09-2.36553E-19-1.74380E-18
 -1       125 9.52577E-05-2.86397E-05-2.85508E-05-8.07283E-10-3.50996E-18-2.82274E-19
 -1       126 9.52617E-05-2.86534E-05-2.85468E-05-5.58098E-10-4.85300E-18 8.05510E-19
 -1       127 9.52645E-05-2.86627E-05-2.85440E-05-3.13935E-10 3.98014E-18 1.65603E-18
 -1       128 9.52659E-05-2.86673E-05-2.85426E-05-9.18844E-11 3.89846E-18-3.15701E-19
 -1       129 9.52658E-05-2.86670E-05-2.85427E-05 1.18817E-10 4.57898E-18 1.16092E-19
 -1       130 9.52643E-05-2.86620E-05-2.85442E-05 3.34012E-10 1.10925E-18-3.01100E-19
 -1       131 9.52614E-05-2.86523E-05-2.85471E-05 5.74624E-10-6.52640E-18-3.53921E-20
 -1       132 9.52573E-05-2.86386E-05-2.85512E-05 8.06576E-10-1.42203E-17 1.89574E-18
 -1       133 9.52521E-05-2.86211E-05-2.85563E-05 1.03998E-09-8.82118E-18 1.09204E-18
 -1       134 9.52464E-05-2.86018E-05-2.85619E-05 1.23223E-09-5.54336E-18 3.29078E-19
 -1       135 9.52411E-05-2.85842E-05-2.85669E-05 1.37085E-09-6.16174E-18-1.03274E-18
 -1       136 9.52379E-05-2.85732E-05-2.85703E-05 2.02822E-12-3.73692E-18 1.14871E-19
 -1       137 2.71209E-05-9.21791E-05 1.66256E-05-2.50587E-05 1.10063E-17 1.58652E-18
 -1       138 8.89224E-06-4.00316E-05 4.67418E-06-2.11905E-05 1.35873E-17 6.54502E-18
 -1       139 1.09522E-05 1.00922E-05-1.34334E-05 1.86653E-05 1.42479E-17 1.01805E-17
 -1       140 5.97378E-05 2.48947E-05-3.53858E-05 7.71494E-05 1.21638E-17 1.36906E-17
 -1       141 1.50440E-04-5.25053E-06-5.58493E-05 1.12996E-04 8.41570E-18 1.52254E-17
 -1       142 2.51082E-04-5.83390E-05-7.16509E-05 9.74463E-05 4.64735E-18 1.36258E-17
 -1       143 3.15443E-04-9.67913E-05-8.01832E-05 2.75464E-05 5.30243E-19 4.37757E-18
 -1       144 3.00827E-04-8.68953E-05-7.86821E-05-5.64698E-05 2.00405E-18-7.43250E-18
 -1       145 2.12868E-04-3.65061E-05-6.62678E-05-1.07510E-04 8.19695E-18-1.82985E-17
 -1       146 1.03533E-04 1.31127E-05-4.61839E-05-9.89617E-05 1.67924E-17-2.35865E-17
 -1       147 2.79105E-05 2.11705E-05-2.31230E-05-4.52139E-05 2.27831E-17-2.10839E-17
 -1       148 5.60500E-06-1.65971E-05-2.31021E-06 8.06301E-06 2.16408E-17-1.25634E-17
 -1       149 1.85167E-05-7.01787E-05 1.18713E-05 2.66701E-05 1.54118E-17-5.29406E-18
 -1       150 3.46652E-05-1.08985E-04 1.99044E-05 1.29649E-05 2.70024E-18-8.62756E-19
 -1       151 3.29523E-05-1.04154E-04 1.89002E-05-1.54291E-05-9.47724E-18-1.48325E-18
 -1       152 1.46918E-05-5.77692E-05 9.18733E-06-2.38607E-05-1.77386E-17-6.38388E-18
 -1       153 5.88605E-06-2.09805E-06-7.05314E-06 3.71876E-06-2.24349E-17-1.39648E-17
 -1       154 3.37656E-05 2.82315E-05-2.70395E-05 5.73111E-05-2.12360E-17-2.02390E-17
 -1       155 1.11908E-04 1.24821E-05-4.85708E-05 1.05864E-04-1.50128E-17-2.18501E-17
 -1       156 2.07168E-04-3.45860E-05-6.50502E-05 1.09780E-04-7.43928E-18-1.76382E-17
 -1       157 2.84626E-04-8.04439E-05-7.58434E-05 6.34042E-05-1.73462E-18-9.65194E-18
 -1       158 3.05956E-04-9.38029E-05-7.85655E-05-1.57773E-05-5.08511E-19 2.57461E-18
 -1       159 2.55014E-04-6.24595E-05-7.18843E-05-8.89710E-05-3.19199E-18 1.20952E-17
 -1       160 6.84771E-05 2.63671E-05-3.85046E-05-8.62550E-05-1.58607E-17 1.85568E-17
 -1       161 1.35427E-05 1.92397E-05-1.70529E-05-2.92755E-05-1.74370E-17 1.39371E-17
 -1       162 7.25570E-06-3.01300E-05 2.23778E-06 1.54353E-05-1.44533E-17 6.53147E-18
 -1       163 2.57551E-05-8.73235E-05 1.57002E-05 2.34983E-05-8.73905E-18 2.40271E-18
 -1       164 9.61522E-05-1.28877E-05-3.58761E-05-2.07620E-05-3.00657E-18 1.01430E-18
 -1       165 9.03907E-05-8.79052E-06-3.51258E-05-1.55737E-05-2.79870E-18-2.20405E-18
 -1       166 8.72121E-05-6.55221E-06-3.46765E-05-1.16606E-05-2.28537E-18-4.03448E-18
 -1       167 8.52521E-05-5.26990E-06-3.43584E-05-8.49898E-06-1.69419E-18-4.92830E-18
 -1       168 8.38757E-05-4.40889E-06-3.41213E-05-5.90776E-06-1.17536E-18-5.24902E-18
 -1       169 8.28904E-05-3.81486E-06-3.39447E-05-3.65890E-06-6.45026E-19-5.40714E-18
 -1       170 8.22765E-05-3.44835E-06-3.38341E-05-1.67502E-06-8.53899E-20-5.43669E-18
 -1       171 8.20408E-05-3.30138E-06-3.37945E-05 1.62101E-07 3.31756E-19-5.41634E-18
 -1       172 8.22013E-05-3.38171E-06-3.38301E-05 1.97567E-06 7.40588E-19-5.28047E-18
 -1       173 8.27737E-05-3.70563E-06-3.39410E-05 3.89659E-06 1.18676E-18-5.11217E-18
 -1       174 8.37524E-05-4.28659E-06-3.41202E-05 6.02557E-06 1.62014E-18-4.69812E-18
 -1       175 8.52158E-05-5.20054E-06-3.43719E-05 8.58741E-06 2.25271E-18-3.99095E-18
 -1       176 8.73110E-05-6.58906E-06-3.47057E-05 1.17327E-05 2.76218E-18-2.88151E-18
 -1       177 9.05959E-05-8.91919E-06-3.51620E-05 1.56620E-05 3.15864E-18-7.11653E-19
 -1       178 9.71087E-05-1.41467E-05-3.57538E-05 2.02215E-05 3.01524E-18 3.21849E-18
 -1       179 1.06614E-04-2.65492E-05-3.54829E-05 1.74361E-05 2.26068E-18 8.55853E-18
 -1       180 1.04738E-04-2.77859E-05-3.29754E-05-1.09470E-05-2.61736E-18 4.94718E-18
 -1       181 9.92045E-05-2.89274E-05-3.01503E-05-3.57755E-06-2.20484E-18 3.60046E-18
 -1       182 9.64835E-05-2.84976E-05-2.90867E-05-5.49901E-07-1.74141E-18 2.41023E-18
 -1       183 9.59446E-05-2.85442E-05-2.88491E-05 9.62561E-07-1.27250E-18 1.34877E-18
 -1       184 9.65094E-05-2.88058E-05-2.89967E-05 1.83334E-06-9.90036E-19 8.12521E-19
 -1       185 9.77514E-05-2.92416E-05-2.93529E-05 2.34978E-06-4.23956E-19 3.34914E-19
 -1       186 9.93830E-05-2.97953E-05-2.98212E-05 2.59050E-06-4.06703E-19-4.18231E-20
 -1       187 1.01167E-04-3.04120E-05-3.03263E-05 2.54014E-06-5.86506E-19-1.37550E-19
 -1       188 1.02860E-04-3.10277E-05-3.07918E-05 2.13133E-06-6.03358E-19-1.00411E-19
 -1       189 1.04181E-04-3.15571E-05-3.11343E-05 1.28112E-06-2.97307E-19-1.84848E-19
 -1       190 1.04819E-04-3.18852E-05-3.12684E-05-5.30221E-08-3.57365E-19-1.28520E-18
 -1       191 1.04471E-04-3.18712E-05-3.11238E-05-1.78845E-06-2.13626E-19-1.31092E-18
 -1       192 1.02946E-04-3.13829E-05-3.06753E-05-3.62477E-06-1.30233E-19-1.15452E-18
 -1       193 1.00316E-04-3.03729E-05-2.99748E-05-5.01194E-06-4.76223E-19-1.27443E-18
 -1       194 9.70536E-05-2.89849E-05-2.91658E-05-5.28182E-06-7.34650E-19-8.07646E-19
 -1       195 9.40401E-05-2.76100E-05-2.84600E-05-3.98994E-06-2.28257E-19-1.41565E-18
 -1       196 9.22986E-05-2.67756E-05-2.80702E-05-1.30592E-06-3.69200E-19-2.40981E-18
 -1       197 9.25127E-05-2.68573E-05-2.81271E-05 1.90234E-06-2.03913E-19-2.54235E-18
 -1       198 9.46446E-05-2.78335E-05-2.86237E-05 4.48064E-06-4.01672E-19-2.76314E-18
 -1       199 9.79582E-05-2.92973E-05-2.94197E-05 5.62564E-06 9.05961E-20-3.74251E-18
 -1       200 1.01435E-04-3.07277E-05-3.03024E-05 5.25063E-06 1.15354E-19-3.83657E-18
 -1       201 1.04242E-04-3.17637E-05-3.10672E-05 3.84453E-06-4.52726E-19-3.93227E-18
 -1       202 1.05960E-04-3.22903E-05-3.15822E-05 2.07068E-06 3.79418E-19-2.90104E-18
 -1       203 1.06557E-04-3.23698E-05-3.18054E-05 4.47321E-07 7.70778E-19-2.19721E-18
 -1       204 1.06237E-04-3.21370E-05-3.17666E-05-7.61686E-07 3.22253E-20-1.08973E-18
 -1       205 1.05289E-04-3.17267E-05-3.15338E-05-1.50427E-06-8.23061E-20-1.43149E-18
 -1       206 1.03995E-04-3.12429E-05-3.11833E-05-1.84862E-06 4.12129E-19-2.99546E-18
 -1       207 1.02575E-04-3.07548E-05-3.07816E-05-1.90539E-06-1.17499E-19-2.15726E-18
 -1       208 1.01185E-04-3.03031E-05-3.03775E-05-1.78197E-06 1.00554E-20-3.18673E-18
 -1       209 9.99177E-05-2.99079E-05-3.00026E-05-1.56341E-06-8.14524E-19-4.58348E-18
 -1       210 9.88198E-05-2.95760E-05-2.96736E-05-1.30905E-06-3.12093E-19-3.72852E-18
 -1       211 9.79052E-05-2.93064E-05-2.93970E-05-1.05615E-06-5.56492E-19-4.21922E-18
 -1       212 9.71679E-05-2.90935E-05-2.91724E-05-8.25490E-07 4.58407E-19-3.36279E-18
 -1       213 9.65901E-05-2.89296E-05-2.89952E-05-6.26654E-07 5.81783E-19-1.41165E-18
 -1       214 9.61495E-05-2.88067E-05-2.88594E-05-4.62168E-07 6.39370E-19-2.81660E-18
 -1       215 9.58223E-05-2.87169E-05-2.87579E-05-3.30486E-07-1.05343E-19-2.07465E-18
 -1       216 9.55862E-05-2.86532E-05-2.86844E-05-2.27976E-07-4.54665E-19-1.91577E-18
 -1       217 9.54214E-05-2.86096E-05-2.86327E-05-1.50184E-07 3.31825E-19-1.33934E-18
 -1       218 9.53112E-05-2.85812E-05-2.85978E-05-9.25863E-08-3.27341E-19-1.84660E-18
 -1       219 9.52416E-05-2.85639E-05-2.85756E-05-5.10052E-08-1.90515E-19-2.37578E-18
 -1       220 9.52016E-05-2.85547E-05-2.85626E-05-2.18120E-08-3.24422E-19-2.41799E-18
 -1       221 9.51827E-05-2.85510E-05-2.85562E-05-2.00004E-09-7.24034E-19-1.62178E-18
 -1       222 9.51781E-05-2.85511E-05-2.85542E-05 1.08104E-08 1.03142E-18 1.11818E-18
 -1       223 9.51829E-05-2.85537E-05-2.85553E-05 1.83978E-08 1.80308E-18 4.14008E-19
 -1       224 9.51932E-05-2.85576E-05-2.85581E-05 2.19651E-08 1.00674E-18 4.92957E-19
 -1       225 9.52060E-05-2.85623E-05-2.85616E-05 2.21491E-08 1.35603E-18-1.42096E-19
 -1       226 9.52188E-05-2.85671E-05-2.85650E-05 1.90057E-08 6.32256E-19 4.42376E-19
 -1       227 9.52299E-05-2.85718E-05-2.85678E-05 1.23157E-08-6.52092E-19 1.37319E-18
 -1       228 1.01254E-04-2.91063E-05-3.10924E-05 6.10785E-06 2.42954E-18 7.24513E-18
 -1       229 9.71690E-05-2.85936E-05-2.93559E-05 1.60364E-06 1.79501E-18 5.50621E-18
 -1       230 9.60312E-05-2.85208E-05-2.88859E-05-4.15471E-07 1.30797E-18 3.89687E-18
 -1       231 9.65397E-05-2.87637E-05-2.90182E-05-1.62290E-06 1.03717E-18 2.91859E-18
 -1       232 9.81556E-05-2.92766E-05-2.95047E-05-2.51905E-06 7.20499E-19 2.31150E-18
 -1       233 1.00621E-04-3.00240E-05-3.02487E-05-3.29015E-06 2.95243E-19 1.84293E-18
 -1       234 1.03794E-04-3.09841E-05-3.12026E-05-3.99086E-06 3.37886E-19 1.40356E-18
 -1       235 1.07553E-04-3.21424E-05-3.23216E-05-4.57701E-06 4.53979E-19 1.03636E-18
 -1       236 1.11701E-04-3.34733E-05-3.35329E-05-4.88771E-06 4.02127E-19 8.25903E-19
 -1       237 1.15877E-04-3.49115E-05-3.47061E-05-4.61234E-06 1.51172E-19 7.69586E-19
 -1       238 1.19450E-04-3.63041E-05-3.56322E-05-3.29474E-06-5.95570E-23 7.44006E-19
 -1       239 1.21478E-04-3.73378E-05-3.60403E-05-4.83913E-07 1.41514E-19 1.33681E-18
 -1       240 1.20852E-04-3.74803E-05-3.56922E-05 3.82109E-06 1.93739E-19 1.21555E-18
 -1       241 1.16825E-04-3.61040E-05-3.45649E-05 8.44370E-06 7.54538E-19 7.29137E-19
 -1       242 1.10014E-04-3.30620E-05-3.30093E-05 1.07589E-05 1.95029E-19 4.75781E-19
 -1       243 1.03179E-04-2.95183E-05-3.16791E-05 8.00059E-06 6.17064E-19-1.12310E-18
 -1       244 1.00326E-04-2.78134E-05-3.12183E-05 4.71125E-07 1.50507E-18-2.29693E-18
 -1       245 1.03529E-04-2.94021E-05-3.18568E-05-7.46276E-06 4.05610E-19-3.02625E-18
 -1       246 1.10733E-04-3.30225E-05-3.33015E-05-1.09947E-05-7.65823E-19-2.85698E-18
 -1       247 1.17897E-04-3.62885E-05-3.49233E-05-9.28164E-06-4.44931E-19-2.40592E-18
 -1       248 1.22199E-04-3.78664E-05-3.61040E-05-4.83347E-06 5.69252E-19-1.89179E-18
 -1       249 1.23086E-04-3.78652E-05-3.65121E-05-4.33901E-07 2.30297E-19-2.18295E-18
 -1       250 1.21360E-04-3.69327E-05-3.61911E-05 2.54839E-06-4.57050E-19-2.23618E-18
 -1       251 1.18150E-04-3.56331E-05-3.53785E-05 3.99909E-06-8.48397E-19-1.91226E-18
 -1       252 1.14391E-04-3.43008E-05-3.43361E-05 4.34220E-06-2.92153E-19 7.02442E-20
 -1       253 1.10688E-04-3.30919E-05-3.32619E-05 4.05716E-06-4.54484E-19 6.28882E-19
 -1       254 1.07359E-04-3.20613E-05-3.22725E-05 3.49511E-06 3.35350E-19 1.22078E-18
 -1       255 1.04533E-04-3.12157E-05-3.14207E-05 2.86445E-06-6.88534E-19 8.82494E-19
 -1       256 1.02223E-04-3.05399E-05-3.07189E-05 2.27037E-06 8.72539E-19 5.04286E-19
 -1       257 1.00387E-04-3.00106E-05-3.01585E-05 1.75608E-06-4.20501E-19 4.45987E-19
 -1       258 9.89599E-05-2.96032E-05-2.97213E-05 1.33187E-06-8.15495E-19 2.40790E-19
 -1       259 9.78701E-05-2.92946E-05-2.93868E-05 9.92589E-07 4.08733E-19-5.54034E-19
 -1       260 9.70522E-05-2.90645E-05-2.91352E-05 7.27056E-07 5.25191E-19-7.97832E-19
 -1       261 9.64489E-05-2.88959E-05-2.89494E-05 5.22716E-07 8.69159E-19-5.51853E-19
 -1       262 9.60120E-05-2.87746E-05-2.88145E-05 3.67749E-07 8.41271E-19-1.31070E-18
 -1       263 9.57023E-05-2.86893E-05-2.87187E-05 2.51854E-07 1.69426E-18-1.90219E-18
 -1       264 9.54886E-05-2.86310E-05-2.86523E-05 1.66415E-07-4.49172E-19-4.03194E-18
 -1       265 9.53460E-05-2.85927E-05-2.86078E-05 1.04403E-07-5.53849E-19-3.69476E-18
 -1       266 9.52555E-05-2.85689E-05-2.85795E-05 6.01842E-08-1.93216E-18-7.52206E-19
 -1       267 9.52024E-05-2.85554E-05-2.85626E-05 2.93051E-08 1.19401E-19 1.60175E-19
 -1       268 9.51757E-05-2.85492E-05-2.85539E-05 8.29787E-09 2.39965E-18-3.72793E-19
 -1       269 9.51669E-05-2.85478E-05-2.85508E-05-5.48684E-09-1.22457E-18-3.57138E-19
 -1       270 9.51700E-05-2.85497E-05-2.85514E-05-1.40136E-08 1.41159E-18-1.46374E-18
 -1       271 9.51804E-05-2.85535E-05-2.85543E-05-1.86562E-08 1.75347E-18-3.41852E-18
 -1       272 9.51945E-05-2.85583E-05-2.85583E-05-2.02401E-08 3.76481E-20-2.62884E-18
 -1       273 9.52095E-05-2.85635E-05-2.85626E-05-1.90954E-08-1.25751E-18-3.56851E-18
 -1       274 9.52230E-05-2.85683E-05-2.85662E-05-1.50069E-08 1.81453E-19-4.25617E-18
 -1       275 9.52331E-05-2.85723E-05-2.85689E-05-7.69037E-09-9.64317E-19-3.60166E-18
 -1       276 9.52370E-05-2.85792E-05-2.85677E-05-1.24048E-08-5.51860E-19 8.06201E-19
 -1       277 9.52418E-05-2.85899E-05-2.85651E-05-1.77446E-08-5.47084E-19 2.76332E-18
 -1       278 9.52466E-05-2.86019E-05-2.85620E-05-1.88673E-08-1.52232E-18-2.03377E-19
 -1       279 9.52507E-05-2.86134E-05-2.85588E-05-1.70026E-08-1.13258E-18-1.69289E-18
 -1       280 9.52539E-05-2.86230E-05-2.85561E-05-1.34829E-08-1.70849E-18-1.34059E-18
 -1       281 9.52562E-05-2.86302E-05-2.85539E-05-9.09844E-09-6.73987E-19 4.20055E-18
 -1       282 9.52575E-05-2.86346E-05-2.85526E-05-4.43320E-09-4.05045E-19 4.78635E-19
 -1       283 9.52579E-05-2.86359E-05-2.85522E-05 2.63176E-10 5.64869E-19 2.47487E-19
 -1       284 9.52574E-05-2.86342E-05-2.85527E-05 4.90783E-09-1.38701E-19-2.29329E-18
 -1       285 9.52559E-05-2.86296E-05-2.85541E-05 9.43167E-09-2.23164E-18-2.75004E-18
 -1       286 9.52536E-05-2.86223E-05-2.85562E-05 1.35547E-08-1.37976E-18-3.31701E-18
 -1       287 9.52504E-05-2.86126E-05-2.85591E-05 1.69238E-08-2.04938E-18 1.79449E-18
 -1       288 9.52464E-05-2.86012E-05-2.85622E-05 1.86327E-08-3.41665E-18 2.73244E-18
 -1       289 9.52415E-05-2.85893E-05-2.85653E-05 1.70978E-08-2.30494E-18-1.10988E-18
 -1       290 9.52364E-05-2.85800E-05-2.85671E-05 1.71665E-08-1.32634E-18 1.02083E-18
 -1       291 1.24126E-05-4.98799E-05 1.24956E-05 4.42838E-06 6.29504E-19 4.11605E-18
 -1       292 2.59174E-05-4.32726E-05 4.87505E-06 2.12969E-05 2.29779E-18 3.02581E-18
 -1       293 5.31821E-05-3.91595E-05-7.83286E-06 3.33174E-05 4.07783E-18 2.89855E-18
 -1       294 9.81472E-05-4.02558E-05-2.52763E-05 4.12134E-05 3.46669E-18 3.95141E-18
 -1       295 1.37355E-04-3.32258E-05-4.35954E-05 4.48569E-05 4.43411E-18 6.76779E-18
 -1       296 1.79900E-04-3.50919E-05-5.94078E-05 3.73711E-05 4.54894E-18 6.48425E-18
 -1       297 2.07346E-04-3.63769E-05-6.97364E-05 1.71345E-05 5.33864E-18 2.81247E-18
 -1       298 2.17324E-04-3.78496E-05-7.29611E-05-4.30451E-06 5.69005E-18-2.07020E-19
 -1       299 1.84296E-04-3.04808E-05-6.42967E-05-1.18080E-05 6.80157E-18-7.19660E-19
 -1       300 1.61691E-04-3.79797E-05-5.18179E-05-3.07669E-05 7.37607E-18-4.14919E-18
 -1       301 1.20868E-04-4.16357E-05-3.38587E-05-4.01904E-05 6.71655E-18-6.22845E-18
 -1       302 7.64394E-05-4.23899E-05-1.55429E-05-4.05390E-05 5.75919E-18-7.93437E-18
 -1       303 3.67548E-05-4.20481E-05-2.70288E-08-2.72395E-05 5.76491E-18-7.67993E-18
 -1       304 1.64257E-05-4.31554E-05 8.92013E-06-1.48055E-05 2.05818E-18-7.35870E-18
 -1       305 1.07926E-05-4.81537E-05 1.27913E-05 2.57286E-06-9.02368E-19-5.83193E-18
 -1       306 1.93800E-05-4.38764E-05 7.87160E-06 1.87524E-05-4.19620E-18-5.94554E-18
 -1       307 4.30751E-05-3.98323E-05-3.27244E-06 3.26195E-05-6.78516E-18-6.78169E-18
 -1       308 7.27581E-05-3.16515E-05-1.85437E-05 4.17445E-05-8.82651E-18-8.72190E-18
 -1       309 1.19604E-04-3.29656E-05-3.65907E-05 4.51154E-05-7.89202E-18-7.97799E-18
 -1       310 1.59443E-04-3.04507E-05-5.32881E-05 4.42458E-05-8.18578E-18-7.25039E-18
 -1       311 1.90565E-04-3.26221E-05-6.48490E-05 2.78530E-05-6.11251E-18-4.09879E-18
 -1       312 2.06613E-04-3.40249E-05-7.07143E-05 7.16694E-06-5.60715E-18-7.50206E-19
 -1       313 1.98711E-04-3.17059E-05-6.86870E-05-1.41590E-05-4.98532E-18 2.46465E-18
 -1       314 1.77801E-04-3.22032E-05-5.99786E-05-3.48933E-05-5.68211E-18 4.35163E-18
 -1       315 1.38458E-04-2.87380E-05-4.56631E-05-4.80673E-05-6.69220E-18 6.37731E-18
 -1       316 9.58926E-05-3.10832E-05-2.79232E-05-4.54941E-05-6.05502E-18 6.80527E-18
 -1       317 5.39902E-05-3.43347E-05-1.00632E-05-3.58023E-05-5.52668E-18 6.95594E-18
 -1       318 2.81954E-05-4.15882E-05 3.48301E-06-2.59109E-05-2.74502E-18 5.08564E-18
 -1       319 1.30290E-05-4.94846E-05 1.21258E-05-8.30883E-06-1.41338E-18 4.66906E-18
 -1       320 9.26391E-05-1.45438E-05-3.35326E-05-1.09407E-05-2.94874E-18-2.23671E-18
 -1       321 9.71734E-05-1.95837E-05-3.33127E-05-1.27439E-05-3.22194E-18-2.21453E-19
 -1       322 8.74655E-05-9.57763E-06-3.34323E-05-6.16928E-06-1.73971E-18-3.83804E-18
 -1       323 8.58851E-05-8.19517E-06-3.33387E-05-4.07171E-06-1.15715E-18-4.12267E-18
 -1       324 8.48051E-05-7.28310E-06-3.32616E-05-2.22904E-06-4.41448E-19-4.22458E-18
 -1       325 8.42225E-05-6.79553E-06-3.32184E-05-5.69395E-07 1.62866E-19-4.31139E-18
 -1       326 8.41581E-05-6.72955E-06-3.32189E-05 1.00135E-06 6.90837E-19-4.18656E-18
 -1       327 8.46383E-05-7.10768E-06-3.32648E-05 2.59119E-06 1.16356E-18-4.05686E-18
 -1       328 8.56622E-05-7.95123E-06-3.33470E-05 4.28376E-06 1.70766E-18-3.79857E-18
 -1       329 8.72960E-05-9.36274E-06-3.34509E-05 6.23450E-06 2.33988E-18-3.05298E-18
 -1       330 8.96230E-05-1.15047E-05-3.35434E-05 8.46338E-06 2.95200E-18-2.35942E-18
 -1       331 9.29002E-05-1.47560E-05-3.35682E-05 1.08372E-05 3.44914E-18-1.08048E-18
 -1       332 9.73618E-05-1.99032E-05-3.32994E-05 1.23116E-05 3.48412E-18 1.36398E-18
 -1       333 1.00517E-04-2.50023E-05-3.24443E-05 1.01990E-05 3.16854E-18 3.63568E-18
 -1       334 9.87798E-05-2.74333E-05-3.05437E-05 3.86095E-06 2.58004E-18 2.87456E-18
 -1       335 9.85220E-05-2.65495E-05-3.07993E-05-4.35134E-06-2.57615E-18 6.93620E-20
 -1       336 9.76329E-05-2.76529E-05-2.99646E-05-5.71173E-07-2.06026E-18-1.94127E-19
 -1       337 9.74272E-05-2.82419E-05-2.96347E-05 1.68447E-06-1.44155E-18-3.40557E-19
 -1       338 9.78256E-05-2.87473E-05-2.95972E-05 3.09609E-06-1.04075E-18-6.10303E-19
 -1       339 9.86950E-05-2.93110E-05-2.97333E-05 3.93029E-06-6.19384E-19-6.34383E-19
 -1       340 9.99008E-05-2.99882E-05-2.99637E-05 4.26057E-06-4.01756E-19-5.79706E-19
 -1       341 1.01312E-04-3.07953E-05-3.02265E-05 4.04575E-06-4.28144E-19-6.22604E-19
 -1       342 1.02784E-04-3.17087E-05-3.04698E-05 3.18189E-06-6.96855E-19-6.34104E-19
 -1       343 1.04128E-04-3.26352E-05-3.06519E-05 1.56596E-06-5.96000E-19-1.01739E-18
 -1       344 1.05086E-04-3.33719E-05-3.07484E-05-8.02571E-07-2.02610E-19-5.06156E-19
 -1       345 1.05338E-04-3.35926E-05-3.07606E-05-3.67726E-06-2.72773E-19-4.46725E-19
 -1       346 1.04585E-04-3.29272E-05-3.07172E-05-6.42866E-06-3.57875E-19-3.87170E-19
 -1       347 1.02750E-04-3.11938E-05-3.06645E-05-8.05108E-06-5.26907E-19-1.03072E-19
 -1       348 1.00250E-04-2.87306E-05-3.06402E-05-7.49458E-06-9.62671E-19-6.38874E-19
 -1       349 9.80695E-05-2.65155E-05-3.06495E-05-4.36197E-06-1.08881E-18-1.15762E-18
 -1       350 9.73065E-05-2.56940E-05-3.06747E-05 5.08199E-07-8.95301E-19-1.77652E-18
 -1       351 9.84088E-05-2.67373E-05-3.07020E-05 5.28428E-06-5.29852E-19-1.86682E-18
 -1       352 1.00835E-04-2.90717E-05-3.07446E-05 8.18395E-06-6.94465E-19-2.24274E-18
 -1       353 1.03457E-04-3.15201E-05-3.08278E-05 8.52178E-06-3.50390E-19-2.65583E-18
 -1       354 1.05357E-04-3.31763E-05-3.09409E-05 6.80626E-06 4.03485E-19-3.33449E-18
 -1       355 1.06184E-04-3.37770E-05-3.10437E-05 4.10083E-06 2.37725E-19-2.40404E-18
 -1       356 1.06052E-04-3.35426E-05-3.10886E-05 1.36748E-06 6.67935E-19-2.14702E-18
 -1       357 1.05263E-04-3.28469E-05-3.10467E-05-8.27075E-07 9.34360E-19-2.34938E-18
 -1       358 1.04116E-04-3.20026E-05-3.09138E-05-2.29264E-06 4.71328E-21-2.17051E-18
 -1       359 1.02835E-04-3.11975E-05-3.07063E-05-3.07770E-06-3.35060E-19-2.69982E-18
 -1       360 1.01562E-04-3.05143E-05-3.04507E-05-3.33517E-06 1.62815E-19-2.58095E-18
 -1       361 1.00379E-04-2.99716E-05-3.01743E-05-3.23595E-06-5.56051E-19-3.22285E-18
 -1       362 9.93278E-05-2.95576E-05-2.99000E-05-2.92714E-06-9.22480E-19-2.50822E-18
 -1       363 9.84248E-05-2.92501E-05-2.96442E-05-2.51881E-06-9.37821E-19-2.95882E-18
 -1       364 9.76703E-05-2.90261E-05-2.94166E-05-2.08520E-06-5.20109E-19-2.86495E-18
 -1       365 9.70547E-05-2.88657E-05-2.92217E-05-1.67167E-06 7.11367E-19-1.57887E-18
 -1       366 9.65637E-05-2.87527E-05-2.90599E-05-1.30255E-06 7.52387E-19-2.70370E-18
 -1       367 9.61803E-05-2.86747E-05-2.89293E-05-9.88014E-07 3.66416E-19-2.44542E-18
 -1       368 9.58873E-05-2.86222E-05-2.88265E-05-7.29352E-07 1.19120E-18-9.78100E-19
 -1       369 9.56683E-05-2.85880E-05-2.87476E-05-5.22789E-07-1.33073E-19-6.60166E-19
 -1       370 9.55086E-05-2.85669E-05-2.86884E-05-3.62016E-07 6.61443E-19 5.66963E-19
 -1       371 9.53954E-05-2.85550E-05-2.86453E-05-2.39831E-07-1.11820E-18 5.47574E-19
 -1       372 9.53179E-05-2.85492E-05-2.86147E-05-1.49117E-07-3.02972E-19 1.04307E-18
 -1       373 9.52673E-05-2.85476E-05-2.85938E-05-8.33898E-08 2.71561E-20 4.04715E-19
 -1       374 9.52366E-05-2.85487E-05-2.85803E-05-3.70627E-08-4.48800E-20 1.56716E-18
 -1       375 9.52200E-05-2.85515E-05-2.85721E-05-5.53773E-09 6.28268E-19 2.09958E-18
 -1       376 9.52135E-05-2.85553E-05-2.85677E-05 1.47969E-08 1.32769E-18 2.20513E-18
 -1       377 9.52134E-05-2.85598E-05-2.85658E-05 2.66151E-08 1.12676E-18 9.99050E-19
 -1       378 9.52175E-05-2.85647E-05-2.85655E-05 3.17097E-08-7.82838E-21 2.14099E-18
 -1       379 9.52237E-05-2.85701E-05-2.85659E-05 3.11767E-08 1.69274E-18 2.14885E-18
 -1       380 9.52297E-05-2.85749E-05-2.85664E-05 2.60400E-08 4.62926E-19 1.73525E-18
 -1       381 9.76373E-05-2.81110E-05-2.97555E-05 2.23779E-07 2.06198E-18 2.07994E-18
 -1       382 9.75465E-05-2.84656E-05-2.95797E-05-2.05832E-06 1.48616E-18 1.51378E-18
 -1       383 9.83864E-05-2.88730E-05-2.97760E-05-3.71684E-06 1.03875E-18 8.90546E-19
 -1       384 9.99687E-05-2.94147E-05-3.02275E-05-5.08121E-06 5.14052E-19 5.96934E-19
 -1       385 1.02171E-04-3.01317E-05-3.08676E-05-6.27167E-06 5.07631E-19 4.72128E-19
 -1       386 1.04907E-04-3.10741E-05-3.16409E-05-7.25201E-06 4.84494E-19 6.36982E-19
 -1       387 1.08095E-04-3.23153E-05-3.24820E-05-7.81802E-06 6.13254E-19 4.76047E-19
 -1       388 1.11615E-04-3.39408E-05-3.33025E-05-7.56192E-06 1.02972E-19 6.07741E-19
 -1       389 1.15240E-04-3.59770E-05-3.39927E-05-5.87522E-06 3.26753E-20 6.58126E-19
 -1       390 1.18521E-04-3.82036E-05-3.44497E-05-2.11542E-06-2.13221E-19 7.22404E-19
 -1       391 1.20614E-04-3.98353E-05-3.46481E-05 3.86024E-06 6.00599E-19 1.03690E-18
 -1       392 1.20302E-04-3.93952E-05-3.47001E-05 1.07149E-05 1.01679E-18 7.02710E-19
 -1       393 1.16722E-04-3.55690E-05-3.48395E-05 1.49152E-05 7.15184E-19 3.11523E-19
 -1       394 1.11239E-04-2.94483E-05-3.51348E-05 1.20587E-05 1.65396E-18-1.00103E-18
 -1       395 1.07931E-04-2.55631E-05-3.53890E-05 1.74472E-06 2.13348E-18-2.48198E-18
 -1       396 1.10120E-04-2.77923E-05-3.53530E-05-1.00018E-05 1.03268E-18-2.51960E-18
 -1       397 1.15768E-04-3.38765E-05-3.51303E-05-1.54603E-05-5.91249E-19-3.11902E-18
 -1       398 1.20460E-04-3.88481E-05-3.49882E-05-1.30426E-05-9.14948E-19-2.91092E-18
 -1       399 1.21853E-04-4.02921E-05-3.49882E-05-6.54434E-06-6.61480E-20-1.55803E-18
 -1       400 1.20471E-04-3.91443E-05-3.48914E-05-9.03506E-08 7.80296E-19-1.35855E-18
 -1       401 1.17604E-04-3.70230E-05-3.45662E-05 4.30801E-06-5.10748E-19-2.07448E-18
 -1       402 1.14239E-04-3.49416E-05-3.40050E-05 6.48267E-06-1.20566E-18-1.06377E-18
 -1       403 1.10925E-04-3.32675E-05-3.32902E-05 7.02553E-06-1.15129E-18-7.63100E-19
 -1       404 1.07905E-04-3.20181E-05-3.25230E-05 6.61585E-06 5.21628E-20 5.95545E-19
 -1       405 1.05273E-04-3.11031E-05-3.17826E-05 5.76291E-06-2.72002E-20 1.34684E-18
 -1       406 1.03050E-04-3.04298E-05-3.11165E-05 4.78043E-06 8.53824E-20 1.79452E-18
 -1       407 1.01218E-04-2.99288E-05-3.05457E-05 3.83533E-06 1.10397E-18 1.70581E-18
 -1       408 9.97387E-05-2.95530E-05-3.00735E-05 3.00218E-06 4.20257E-20 1.82339E-18
 -1       409 9.85667E-05-2.92705E-05-2.96932E-05 2.30386E-06-7.17192E-19 7.16463E-19
 -1       410 9.76536E-05-2.90588E-05-2.93935E-05 1.73730E-06 1.04142E-18-6.75629E-19
 -1       411 9.69537E-05-2.89017E-05-2.91618E-05 1.28810E-06 1.74188E-19-8.57615E-19
 -1       412 9.64259E-05-2.87866E-05-2.89856E-05 9.38235E-07 7.79813E-19 3.91240E-19
 -1       413 9.60347E-05-2.87039E-05-2.88540E-05 6.69866E-07 1.75774E-18 1.81679E-18
 -1       414 9.57502E-05-2.86458E-05-2.87575E-05 4.66906E-07 2.35227E-18 1.35078E-18
 -1       415 9.55479E-05-2.86063E-05-2.86881E-05 3.15581E-07 8.14691E-19-4.56386E-19
 -1       416 9.54079E-05-2.85805E-05-2.86395E-05 2.04439E-07-1.28395E-18-6.77887E-19
 -1       417 9.53145E-05-2.85647E-05-2.86065E-05 1.24158E-07-2.73325E-18-6.67632E-19
 -1       418 9.52553E-05-2.85560E-05-2.85850E-05 6.72755E-08-3.76421E-19-1.58639E-18
 -1       419 9.52207E-05-2.85524E-05-2.85718E-05 2.79123E-08 9.10757E-19 2.84590E-19
 -1       420 9.52035E-05-2.85522E-05-2.85647E-05 1.52649E-09-3.77403E-19 1.34026E-18
 -1       421 9.51981E-05-2.85541E-05-2.85616E-05-1.52964E-08 9.72195E-19 5.00220E-19
 -1       422 9.52005E-05-2.85575E-05-2.85612E-05-2.50125E-08 1.70445E-18-1.25173E-18
 -1       423 9.52074E-05-2.85618E-05-2.85624E-05-2.91896E-08 7.72364E-19-1.55262E-18
 -1       424 9.52165E-05-2.85666E-05-2.85642E-05-2.86678E-08-7.42221E-19 6.64070E-21
 -1       425 9.52260E-05-2.85718E-05-2.85661E-05-2.37260E-08 1.23103E-21 1.15887E-18
 -1       426 9.52320E-05-2.85757E-05-2.85670E-05-1.88596E-08-8.54600E-19 2.64522E-18
 -1       427 9.52465E-05-2.85953E-05-2.85648E-05-2.80414E-08 2.46646E-19-1.71825E-18
 -1       428 9.52413E-05-2.85880E-05-2.85658E-05-2.91987E-08-7.78082E-19 1.18481E-18
 -1       429 9.52365E-05-2.85821E-05-2.85662E-05-2.58363E-08-6.08398E-19 3.92238E-18
 -1       430 9.52500E-05-2.86012E-05-2.85638E-05-2.36092E-08-1.53791E-18-3.20080E-18
 -1       431 9.52522E-05-2.86055E-05-2.85628E-05-1.73465E-08-4.06698E-19 3.46562E-18
 -1       432 9.52532E-05-2.86082E-05-2.85621E-05-1.03344E-08-1.44016E-18 2.38155E-18
 -1       433 9.52536E-05-2.86094E-05-2.85618E-05-3.14244E-09-1.90362E-18 2.54149E-19
 -1       434 9.52535E-05-2.86092E-05-2.85618E-05 4.00966E-09-1.93639E-18-2.35310E-20
 -1       435 9.52530E-05-2.86077E-05-2.85622E-05 1.10395E-08-1.43168E-18-3.41309E-18
 -1       436 9.52518E-05-2.86049E-05-2.85629E-05 1.76532E-08 7.09253E-20-2.79758E-18
 -1       437 9.52496E-05-2.86005E-05-2.85639E-05 2.35855E-08 1.95369E-18 1.05506E-18
 -1       438 9.52461E-05-2.85946E-05-2.85649E-05 2.77799E-08 2.08825E-19 8.61782E-19
 -1       439 9.52410E-05-2.85875E-05-2.85658E-05 2.90394E-08-1.09183E-18 7.36099E-19
 -1       440 5.64067E-05-4.18690E-05-6.45198E-06 4.04689E-05-3.50566E-19 1.95421E-18
 -1       441 1.14321E-05-2.35756E-05 4.87091E-06-2.48240E-06-7.49406E-19 4.87033E-18
 -1       442 2.27248E-05-2.61493E-05 1.36858E-06 2.32540E-05-1.29506E-18 3.78264E-18
 -1       443 9.84056E-05-5.50698E-05-1.86623E-05 4.00899E-05 1.01115E-19 1.52087E-18
 -1       444 1.39861E-04-5.87126E-05-3.47337E-05 2.01125E-05 7.15478E-19 1.94320E-18
 -1       445 8.96923E-05-1.16192E-05-3.35205E-05-8.60151E-06-2.39752E-18-3.35878E-18
 -1       446 1.64707E-04-2.87744E-05-5.79964E-05-1.90820E-06 4.32844E-18 5.06843E-19
 -1       447 1.65919E-04-1.63989E-05-6.36791E-05-1.80452E-06 6.07047E-18 1.09389E-18
 -1       448 1.58433E-04-1.56995E-05-6.10956E-05 2.60162E-06 5.86666E-18 1.14079E-18
 -1       449 1.55078E-04-3.70891E-05-5.09131E-05 6.31294E-06 5.00718E-18 3.23164E-18
 -1       450 1.48426E-04-5.51293E-05-4.00888E-05-1.12211E-05 2.57794E-18 1.80376E-18
 -1       451 1.19200E-04-5.91882E-05-2.57382E-05-3.36741E-05 3.08955E-19-1.29098E-18
 -1       452 7.40431E-05-4.77001E-05-1.13367E-05-4.34718E-05-8.00234E-19-4.61360E-18
 -1       453 4.05261E-05-3.34868E-05-2.93577E-06-3.62400E-05-5.02185E-19-6.37752E-18
 -1       454 1.35683E-05-2.40195E-05 4.21647E-06-9.23600E-06 4.13193E-20-7.33467E-18
 -1       455 1.62771E-05-2.46402E-05 3.36949E-06 1.74415E-05-2.27217E-19-6.75509E-18
 -1       456 4.22250E-05-3.59195E-05-2.93580E-06 3.92304E-05-7.96317E-19-5.64971E-18
 -1       457 8.25484E-05-4.87932E-05-1.45756E-05 4.48936E-05-1.72244E-18-4.05472E-18
 -1       458 1.18038E-04-5.47113E-05-2.71943E-05 3.56566E-05-1.67109E-18-2.73893E-18
 -1       459 1.46264E-04-4.77588E-05-4.21833E-05 1.30790E-05-3.37104E-18 1.03984E-18
 -1       460 1.53182E-04-3.31384E-05-5.15645E-05 2.61287E-06-5.29840E-18 3.29919E-19
 -1       461 1.55729E-04-1.59809E-05-5.99177E-05-1.67225E-06-6.12077E-18-2.42040E-19
 -1       462 1.50775E-04-9.85635E-06-6.06321E-05 1.25667E-06-6.50055E-18-3.91157E-19
 -1       463 1.47434E-04-2.08820E-05-5.46755E-05 6.50177E-06-4.48927E-18-2.95720E-19
 -1       464 1.51669E-04-3.97167E-05-4.79747E-05-9.74679E-06-3.64004E-18 6.53274E-19
 -1       465 1.34396E-04-5.08454E-05-3.57519E-05-2.64758E-05-1.95088E-18 7.17225E-19
 -1       466 1.00681E-04-5.28286E-05-2.05966E-05-4.14396E-05-1.57125E-19 2.29909E-18
 -1       467 6.42028E-05-4.25220E-05-9.32784E-06-4.43360E-05 8.15269E-20 4.72716E-18
 -1       468 2.30235E-05-2.79077E-05 1.85080E-06-2.71166E-05 1.41349E-20 3.84108E-18
 -1       469 1.54134E-04-4.76617E-05-4.57445E-05 5.95861E-06 1.29916E-18 1.70561E-18
 -1       470 5.20366E-05-3.30094E-05-7.78037E-06-4.16429E-05 5.48348E-19 4.38932E-18
 -1       471 1.42294E-04-2.42167E-05-5.11606E-05 1.39868E-05 4.85556E-18 3.14996E-18
 -1       472 9.77920E-05-2.53041E-05-3.10511E-05 3.13367E-06 2.65552E-18 2.03552E-19
 -1       473 8.73731E-05-1.13064E-05-3.26161E-05-2.20251E-06-7.83025E-19-3.61587E-18
 -1       474 8.89473E-05-1.28514E-05-3.26308E-05-3.67128E-06-1.39481E-18-3.50623E-18
 -1       475 8.59351E-05-9.93830E-06-3.25842E-05 2.98566E-07 3.12610E-19-3.85536E-18
 -1       476 8.61527E-05-1.01272E-05-3.25969E-05 1.42562E-06 9.21032E-19-3.78496E-18
 -1       477 8.70164E-05-1.09265E-05-3.26261E-05 2.56040E-06 1.37322E-18-3.55805E-18
 -1       478 8.85648E-05-1.24192E-05-3.26525E-05 3.81278E-06 2.06196E-18-2.92048E-18
 -1       479 9.07779E-05-1.46800E-05-3.26353E-05 5.15473E-06 2.45330E-18-2.32167E-18
 -1       480 9.37060E-05-1.79056E-05-3.25045E-05 6.47987E-06 3.02409E-18-1.50118E-18
 -1       481 1.26977E-04-6.28175E-05-2.74237E-05 2.30915E-05-1.28918E-18 1.59952E-18
 -1       482 9.76147E-05-2.66553E-05-3.03907E-05-6.79116E-07 2.08564E-18 1.63692E-19
 -1       483 9.70799E-05-2.45513E-05-3.10735E-05-3.12477E-06-2.42408E-18-1.28059E-18
 -1       484 1.47860E-04-3.78603E-05-4.75411E-05-1.27153E-05 1.56061E-18-1.04233E-18
 -1       485 9.72801E-05-2.63564E-05-3.03868E-05 2.57580E-07-1.88611E-18-1.24462E-18
 -1       486 9.74860E-05-2.74436E-05-3.00136E-05 2.62372E-06-1.40132E-18-1.09138E-18
 -1       487 9.79496E-05-2.82988E-05-2.98484E-05 4.22041E-06-9.29945E-19-1.15240E-18
 -1       488 9.87453E-05-2.91787E-05-2.98140E-05 5.18856E-06-4.52162E-19-1.39289E-18
 -1       489 9.98966E-05-3.02337E-05-2.98569E-05 5.54421E-06-4.55542E-19-1.30171E-18
 -1       490 1.01406E-04-3.15489E-05-2.99419E-05 5.20451E-06-4.75803E-19-1.32976E-18
 -1       491 1.03233E-04-3.31178E-05-3.00546E-05 4.02394E-06-7.48322E-19-9.41250E-19
 -1       492 1.05237E-04-3.47693E-05-3.02072E-05 1.86275E-06-3.16057E-19-9.67600E-19
 -1       493 1.07087E-04-3.60742E-05-3.04410E-05-1.27881E-06 1.45238E-19-8.48506E-19
 -1       494 1.08221E-04-3.63255E-05-3.08180E-05-5.03570E-06 1.04956E-19-1.82150E-19
 -1       495 1.07993E-04-3.47702E-05-3.13839E-05-8.44757E-06-2.41061E-19 3.49649E-21
 -1       496 1.06101E-04-3.11763E-05-3.21102E-05-9.96324E-06-1.22506E-18 7.85739E-20
 -1       497 1.03259E-04-2.66476E-05-3.28338E-05-8.07662E-06-1.62995E-18-2.60495E-19
 -1       498 1.01166E-04-2.34889E-05-3.32943E-05-2.72015E-06-1.76652E-18-8.18821E-19
 -1       499 1.01331E-04-2.36666E-05-3.32939E-05 4.01531E-06-8.05060E-19-1.75028E-18
 -1       500 1.03698E-04-2.71215E-05-3.28180E-05 9.08962E-06-1.27318E-18-2.33847E-18
 -1       501 1.06578E-04-3.16325E-05-3.21176E-05 1.06036E-05-6.92891E-19-2.18665E-18
 -1       502 1.08372E-04-3.50098E-05-3.14417E-05 8.88624E-06-2.24241E-19-2.43085E-18
 -1       503 1.08512E-04-3.63429E-05-3.09352E-05 5.47641E-06 3.91769E-19-2.22656E-18
 -1       504 1.07360E-04-3.59551E-05-3.06090E-05 1.86928E-06 5.63870E-19-2.65955E-18
 -1       505 1.05566E-04-3.46250E-05-3.04098E-05-1.07079E-06 4.06305E-19-2.80401E-18
 -1       506 1.03655E-04-3.30337E-05-3.02710E-05-3.05863E-06 4.45746E-20-3.50954E-18
 -1       507 1.01916E-04-3.15853E-05-3.01445E-05-4.15338E-06-2.47759E-19-3.44740E-18
 -1       508 1.00454E-04-3.04411E-05-3.00066E-05-4.55221E-06 3.90137E-19-2.79104E-18
 -1       509 9.92726E-05-2.96176E-05-2.98524E-05-4.47271E-06-5.65459E-19-3.05942E-18
 -1       510 9.83369E-05-2.90662E-05-2.96870E-05-4.10225E-06-4.12760E-19-2.27333E-18
 -1       511 9.76015E-05-2.87211E-05-2.95193E-05-3.58303E-06-9.17145E-19-1.53732E-18
 -1       512 9.70256E-05-2.85212E-05-2.93580E-05-3.01375E-06-3.25768E-19-6.08320E-19
 -1       513 9.65761E-05-2.84178E-05-2.92097E-05-2.45729E-06 2.44706E-20-4.00801E-19
 -1       514 9.62268E-05-2.83752E-05-2.90783E-05-1.94980E-06 1.41222E-19-1.06028E-18
 -1       515 9.59572E-05-2.83689E-05-2.89656E-05-1.50863E-06 5.28754E-19-1.14198E-18
 -1       516 9.57512E-05-2.83826E-05-2.88716E-05-1.13883E-06 7.95221E-19-2.13457E-18
 -1       517 9.55957E-05-2.84057E-05-2.87952E-05-8.37895E-07 1.12194E-18-4.30323E-19
 -1       518 9.54800E-05-2.84320E-05-2.87344E-05-5.99178E-07 1.32383E-18 8.52471E-22
 -1       519 9.53955E-05-2.84579E-05-2.86872E-05-4.14158E-07 5.41829E-19 3.92335E-19
 -1       520 9.53351E-05-2.84815E-05-2.86513E-05-2.73897E-07 7.31497E-20 2.53592E-18
 -1       521 9.52932E-05-2.85019E-05-2.86247E-05-1.69910E-07-6.10381E-19 3.03016E-18
 -1       522 9.52652E-05-2.85191E-05-2.86054E-05-9.46406E-08 5.33463E-20 1.78433E-18
 -1       523 9.52475E-05-2.85332E-05-2.85918E-05-4.16709E-08 1.43960E-19 1.10934E-18
 -1       524 9.52373E-05-2.85448E-05-2.85825E-05-5.78125E-09 4.04752E-19 1.09327E-18
 -1       525 9.52324E-05-2.85544E-05-2.85762E-05 1.70957E-08 2.62811E-19 1.54230E-18
 -1       526 9.52312E-05-2.85628E-05-2.85721E-05 2.99439E-08 8.26210E-19 2.53885E-18
 -1       527 9.52326E-05-2.85708E-05-2.85694E-05 3.47999E-08 9.09779E-19 1.73343E-18
 -1       528 9.82164E-05-2.78378E-05-3.01549E-05-5.67647E-06 1.09991E-18-1.25982E-19
 -1       529 9.91323E-05-2.83022E-05-3.03507E-05-7.55027E-06 5.61181E-19-3.56789E-19
 -1       530 1.00478E-04-2.89341E-05-3.06589E-05-9.17025E-06 4.54755E-19-2.50645E-19
 -1       531 1.02323E-04-2.99459E-05-3.10190E-05-1.04538E-05 4.71372E-19-4.49910E-20
 -1       532 1.04828E-04-3.16286E-05-3.13766E-05-1.11235E-05 2.49721E-19 2.06514E-19
 -1       533 1.08260E-04-3.43226E-05-3.16994E-05-1.06576E-05 2.46132E-19 9.14978E-20
 -1       534 1.12880E-04-3.82063E-05-3.20232E-05-8.27854E-06-7.27203E-20 1.01300E-19
 -1       535 1.18586E-04-4.27632E-05-3.25198E-05-3.11810E-06-4.91936E-19 3.30378E-19
 -1       536 1.24176E-04-4.59072E-05-3.35828E-05 5.07646E-06 3.99357E-19 1.12048E-18
 -1       537 1.26558E-04-4.38995E-05-3.55074E-05 1.38984E-05 1.08702E-18 1.96204E-18
 -1       538 1.23835E-04-3.39113E-05-3.87026E-05 1.81615E-05 2.05641E-18 1.21855E-18
 -1       539 1.17442E-04-2.14357E-05-4.15341E-05 1.04455E-05 3.68253E-18-3.19785E-19
 -1       540 1.17367E-04-2.05348E-05-4.18675E-05-6.31060E-06 2.07081E-18-1.09258E-18
 -1       541 1.21867E-04-3.00256E-05-3.97068E-05-1.78435E-05 1.38516E-19-1.57098E-18
 -1       542 1.26798E-04-4.15844E-05-3.67035E-05-1.72463E-05-9.92200E-19-1.52669E-18
 -1       543 1.25934E-04-4.60750E-05-3.42727E-05-8.83012E-06-7.23611E-19-1.81760E-18
 -1       544 1.20882E-04-4.40582E-05-3.29521E-05 2.60532E-07-9.46791E-20-1.09491E-18
 -1       545 1.15136E-04-3.96220E-05-3.23861E-05 6.25917E-06 2.87789E-19-2.14161E-19
 -1       546 1.10292E-04-3.54684E-05-3.20840E-05 9.26061E-06-1.03288E-18-1.62651E-19
 -1       547 1.06673E-04-3.24836E-05-3.18030E-05 1.01019E-05-8.22479E-19-9.83181E-19
 -1       548 1.04053E-04-3.06242E-05-3.14703E-05 9.66055E-06-1.03773E-18-1.95579E-18
 -1       549 1.02117E-04-2.95623E-05-3.10921E-05 8.58085E-06-1.05377E-18-7.57705E-19
 -1       550 1.00633E-04-2.89918E-05-3.06990E-05 7.26940E-06-2.13563E-19-5.34884E-19
 -1       551 9.94588E-05-2.86997E-05-3.03208E-05 5.95780E-06-3.96964E-21 2.12745E-20
 -1       552 9.85137E-05-2.85570E-05-2.99772E-05 4.76267E-06 3.88576E-19 1.26881E-18
 -1       553 9.77496E-05-2.84915E-05-2.96784E-05 3.73131E-06 7.69373E-19 1.06883E-18
 -1       554 9.71350E-05-2.84653E-05-2.94269E-05 2.87240E-06 6.35293E-19-6.11520E-19
 -1       555 9.66462E-05-2.84587E-05-2.92209E-05 2.17508E-06-5.87146E-19 6.08945E-19
 -1       556 9.62628E-05-2.84620E-05-2.90556E-05 1.61997E-06 3.20241E-19 1.20932E-18
 -1       557 9.59668E-05-2.84702E-05-2.89257E-05 1.18531E-06 6.32011E-19 2.33909E-18
 -1       558 9.57424E-05-2.84807E-05-2.88254E-05 8.49979E-07 1.60210E-18 1.44374E-18
 -1       559 9.55754E-05-2.84921E-05-2.87492E-05 5.94945E-07 2.67564E-18 2.62743E-18
 -1       560 9.54538E-05-2.85035E-05-2.86924E-05 4.03774E-07-4.63162E-20 3.79767E-18
 -1       561 9.53675E-05-2.85144E-05-2.86509E-05 2.62660E-07-1.29808E-18 3.46225E-18
 -1       562 9.53082E-05-2.85245E-05-2.86213E-05 1.60252E-07-1.69574E-18 1.46301E-18
 -1       563 9.52691E-05-2.85337E-05-2.86007E-05 8.73881E-08-3.87584E-19 1.76250E-18
 -1       564 9.52449E-05-2.85419E-05-2.85869E-05 3.68122E-08 7.31006E-20 1.82573E-18
 -1       565 9.52314E-05-2.85493E-05-2.85780E-05 2.90442E-09 1.14659E-18 1.57823E-18
 -1       566 9.52254E-05-2.85560E-05-2.85725E-05-1.85349E-08 3.24421E-18 1.02673E-18
 -1       567 9.52244E-05-2.85622E-05-2.85695E-05-3.06060E-08-4.24644E-19 2.23629E-18
 -1       568 9.52267E-05-2.85687E-05-2.85677E-05-3.54621E-08-2.15709E-18 4.13954E-18
 -1       569 9.52312E-05-2.85753E-05-2.85668E-05-3.38473E-08-3.94700E-19 5.35700E-18
 -1       570 9.52503E-05-2.85860E-05-2.85704E-05-2.29154E-08 1.67203E-18 3.31581E-19
 -1       571 9.52512E-05-2.85860E-05-2.85708E-05-1.51376E-08-1.09211E-19 1.75620E-18
 -1       572 9.52422E-05-2.85819E-05-2.85687E-05-3.42169E-08-3.82294E-19 1.57898E-20
 -1       573 9.52477E-05-2.85848E-05-2.85698E-05-2.95640E-08 3.67207E-19-3.18176E-18
 -1       574 9.52513E-05-2.85857E-05-2.85709E-05-7.20685E-09-1.22938E-18 1.40323E-18
 -1       575 9.52511E-05-2.85854E-05-2.85710E-05 6.02548E-10-8.98904E-19 6.68784E-19
 -1       576 9.52509E-05-2.85853E-05-2.85709E-05 8.30060E-09-8.52200E-19-3.75837E-19
 -1       577 9.52506E-05-2.85854E-05-2.85708E-05 1.58024E-08 4.87826E-19-1.53353E-18
 -1       578 9.52496E-05-2.85852E-05-2.85704E-05 2.31417E-08 1.61701E-18-1.12276E-18
 -1       579 9.52470E-05-2.85840E-05-2.85698E-05 2.95158E-08 1.37286E-18-6.25560E-19
 -1       580 9.52417E-05-2.85812E-05-2.85688E-05 3.33415E-08 7.85023E-19 1.07626E-18
 -1       581 2.42610E-05-1.43381E-05-3.67591E-06 9.48059E-06-1.00625E-18 3.68671E-18
 -1       582 8.55213E-05-4.83303E-05-1.56392E-05 4.07246E-05-1.22629E-18 1.00874E-18
 -1       583 9.77186E-05-2.73651E-05-3.01396E-05-3.46777E-06 1.55854E-18-2.82060E-20
 -1       584 2.39320E-05-1.54947E-05-3.07453E-06-1.54413E-05 2.27746E-19 4.24946E-18
 -1       585 4.84878E-05-2.85961E-05-7.99552E-06 3.49877E-05-1.14709E-18 2.08995E-18
 -1       586 9.58469E-05-2.08777E-05-3.21512E-05-7.10851E-06-2.79681E-18-1.74761E-18
 -1       587 1.26392E-04-5.94197E-05-2.86782E-05-2.60846E-05 9.41477E-19-2.62024E-19
 -1       588 1.35505E-04-5.88732E-05-3.29843E-05 1.57266E-05 1.91985E-19 2.41733E-18
 -1       589 1.06492E-04-5.69909E-05-2.10154E-05-3.60744E-05-2.44517E-18-6.41244E-19
 -1       590 8.63565E-05-1.03396E-05-3.25934E-05-8.87538E-07-1.80572E-19-3.80901E-18
 -1       591 1.40743E-04-1.81051E-05-5.31860E-05-1.16094E-05 4.04363E-18-1.06774E-18
 -1       592 1.44357E-04-4.89518E-05-4.11661E-05 8.82568E-06 1.89407E-18 4.60831E-18
 -1       593 1.38100E-04-1.13480E-05-5.49340E-05 5.50275E-07 5.49978E-18 9.84848E-19
 -1       594 2.39789E-05-1.31373E-05-4.00994E-06 3.81524E-06 3.66237E-19-6.51665E-18
 -1       595 1.37543E-04-6.29119E-05-3.20530E-05-1.44973E-05-6.54942E-19 2.86300E-18
 -1       596 6.87736E-05-3.82168E-05-1.26159E-05-4.02653E-05-2.60357E-18-3.68613E-18
 -1       597 1.30068E-04-8.19427E-06-5.28484E-05-4.25239E-06-5.37548E-18 5.50823E-19
 -1       598 3.46732E-05-1.96732E-05-5.83924E-06-2.43846E-05-1.47344E-18-6.30902E-18
 -1       599 3.73714E-05-2.37226E-05-5.34480E-06 3.22365E-05 1.25594E-18-5.69280E-18
 -1       600 7.85603E-05-4.34218E-05-1.45889E-05 4.37103E-05 2.00720E-18-2.22643E-18
 -1       601 1.11545E-04-5.79615E-05-2.28284E-05 3.58559E-05 1.63726E-18-3.59182E-19
 -1       602 1.41570E-04-4.23205E-05-4.28696E-05-5.29734E-06-2.24456E-18 2.93762E-18
 -1       603 1.36717E-04-2.20056E-05-4.97145E-05-1.06408E-05-4.09413E-18 1.80852E-18
 -1       604 1.28652E-04-1.05380E-05-5.12815E-05 7.43256E-06-5.86591E-18-1.09494E-18
 -1       605 1.38709E-04-3.60315E-05-4.44518E-05 9.73262E-06-2.81443E-18-1.11660E-18
 -1       606 1.40839E-04-5.15448E-05-3.84929E-05-2.86343E-06-9.20453E-19-3.98688E-19
 -1       607 9.38516E-05-5.10014E-05-1.80545E-05-4.17965E-05 2.53776E-18 1.10869E-18
 -1       608 1.45674E-04-5.65120E-05-3.84647E-05-6.37186E-07-2.35545E-19-8.53121E-19
 -1       609 9.79230E-05-2.35120E-05-3.18922E-05 7.17683E-06 3.16298E-18 6.63746E-19
 -1       610 9.10200E-05-1.50303E-05-3.25985E-05-5.19781E-06-1.93566E-18-3.19589E-18
 -1       611 4.33110E-05-2.08561E-05-9.07837E-06-3.01470E-05 6.11690E-19 4.17153E-18
 -1       612 1.26477E-04-2.31552E-05-4.47642E-05 1.35059E-05-3.49798E-18-1.31002E-18
 -1       613 1.37911E-04-3.92482E-05-4.26357E-05 1.73919E-05 2.99373E-18 3.20147E-18
 -1       614 9.52345E-05-2.85761E-05-2.85679E-05 3.42908E-08 3.94756E-19 2.21636E-18
 -1       615 8.78856E-05-1.33248E-05-3.19592E-05 1.23545E-06 1.05233E-18-3.22844E-18
 -1       616 8.73291E-05-1.27888E-05-3.19501E-05 7.03504E-07 5.83908E-19-3.40086E-18
 -1       617 9.11525E-05-1.66708E-05-3.19241E-05 2.35241E-06 1.93117E-18-2.35074E-18
 -1       618 9.36224E-05-1.94826E-05-3.17789E-05 2.82780E-06 2.27821E-18-1.51126E-18
 -1       619 9.52419E-05-2.85712E-05-2.85732E-05-3.36012E-08-1.41233E-18-9.74137E-20
 -1       620 1.31717E-04-5.75914E-05-3.18640E-05-1.03235E-05 1.06765E-18-4.54327E-19
 -1       621 9.63274E-05-2.51349E-05-3.05086E-05 1.44900E-06-1.53970E-18-1.75322E-18
 -1       622 9.67680E-05-2.65357E-05-3.00986E-05 3.68092E-06-1.02851E-18-1.57513E-18
 -1       623 9.73312E-05-2.77306E-05-2.98285E-05 5.30592E-06-6.39734E-19-1.40539E-18
 -1       624 9.82058E-05-2.90170E-05-2.96525E-05 6.36865E-06-4.53234E-19-1.55950E-18
 -1       625 9.95486E-05-3.06137E-05-2.95442E-05 6.83165E-06-3.51727E-19-1.55461E-18
 -1       626 1.01494E-04-3.26595E-05-2.95020E-05 6.56204E-06-3.55212E-19-1.16909E-18
 -1       627 1.04106E-04-3.51422E-05-2.95585E-05 5.33544E-06-4.60339E-19-4.71592E-19
 -1       628 1.07258E-04-3.77521E-05-2.97914E-05 2.88457E-06-1.50385E-19-5.55439E-19
 -1       629 1.10435E-04-3.96898E-05-3.03227E-05-9.31460E-07 1.41063E-19-7.91456E-19
 -1       630 1.12606E-04-3.96202E-05-3.12881E-05-5.71547E-06-1.31133E-19-6.68968E-19
 -1       631 1.12588E-04-3.62761E-05-3.27250E-05-1.00601E-05-4.48836E-19-2.87243E-19
 -1       632 1.09775E-04-2.94618E-05-3.44484E-05-1.13279E-05-1.32903E-18-6.14771E-19
 -1       633 1.05948E-04-2.22538E-05-3.59145E-05-7.37683E-06-1.89207E-18-4.01001E-19
 -1       634 1.04054E-04-1.91562E-05-3.64475E-05 8.43818E-07-2.28339E-18-1.61777E-19
 -1       635 1.06405E-04-2.30716E-05-3.57304E-05 8.76146E-06-1.55816E-18-1.79263E-18
 -1       636 1.10199E-04-3.02286E-05-3.42970E-05 1.21095E-05-7.24106E-19-1.90312E-18
 -1       637 1.12725E-04-3.66612E-05-3.26075E-05 1.04211E-05-3.76316E-19-1.61881E-18
 -1       638 1.12458E-04-3.95805E-05-3.12415E-05 6.03428E-06 9.57908E-20-1.63089E-18
 -1       639 1.10107E-04-3.93255E-05-3.03388E-05 1.42244E-06 3.64976E-19-1.60230E-18
 -1       640 1.06897E-04-3.72774E-05-2.98403E-05-2.14558E-06 2.53937E-19-1.28226E-18
 -1       641 1.03782E-04-3.47073E-05-2.96060E-05-4.39350E-06-4.51315E-19-2.07861E-18
 -1       642 1.01220E-04-3.23691E-05-2.95088E-05-5.51998E-06-3.23080E-19-2.13450E-18
 -1       643 9.93016E-05-3.05546E-05-2.94636E-05-5.84169E-06 6.74353E-19-1.18702E-18
 -1       644 9.79495E-05-2.92926E-05-2.94245E-05-5.64274E-06 3.38800E-19-1.28595E-18
 -1       645 9.70323E-05-2.84965E-05-2.93723E-05-5.14077E-06 4.93930E-19-6.84926E-19
 -1       646 9.64250E-05-2.80490E-05-2.93037E-05-4.49004E-06-5.16952E-19 3.40318E-19
 -1       647 9.60278E-05-2.78412E-05-2.92225E-05-3.79402E-06 1.22748E-19 1.82580E-18
 -1       648 9.57689E-05-2.77863E-05-2.91351E-05-3.11820E-06-5.23343E-20 6.46762E-19
 -1       649 9.55995E-05-2.78212E-05-2.90475E-05-2.50059E-06-1.06995E-20 2.21201E-18
 -1       650 9.54874E-05-2.79029E-05-2.89645E-05-1.96006E-06-7.02805E-19 1.68892E-18
 -1       651 9.54120E-05-2.80034E-05-2.88892E-05-1.50261E-06-3.80903E-19 1.19993E-18
 -1       652 9.53605E-05-2.81060E-05-2.88232E-05-1.12604E-06 8.89433E-19-8.17549E-19
 -1       653 9.53246E-05-2.82011E-05-2.87671E-05-8.23459E-07 1.53866E-18-1.30915E-18
 -1       654 9.52991E-05-2.82843E-05-2.87205E-05-5.85595E-07 1.47773E-18-1.01784E-18
 -1       655 9.52809E-05-2.83541E-05-2.86828E-05-4.02454E-07 9.89263E-19-6.47209E-19
 -1       656 9.52678E-05-2.84108E-05-2.86529E-05-2.64317E-07-8.05492E-19-9.66154E-19
 -1       657 9.52583E-05-2.84556E-05-2.86297E-05-1.62334E-07-1.38033E-18-1.08282E-18
 -1       658 9.52515E-05-2.84904E-05-2.86119E-05-8.88221E-08-2.89296E-19-8.50721E-19
 -1       659 9.52467E-05-2.85170E-05-2.85984E-05-3.73720E-08 1.31520E-18-8.89689E-20
 -1       660 9.52435E-05-2.85372E-05-2.85884E-05-2.84650E-09 1.33176E-18 1.15662E-18
 -1       661 9.52417E-05-2.85530E-05-2.85809E-05 1.87547E-08 1.75146E-19 6.29003E-19
 -1       662 9.52410E-05-2.85660E-05-2.85750E-05 3.01996E-08 5.38883E-19 1.00789E-18
 -1       663 9.67377E-05-2.65737E-05-3.00685E-05-9.23589E-06 6.94732E-19-9.34174E-19
 -1       664 7.44770E-05-3.65216E-05-1.58299E-05-3.84684E-05 2.04553E-18 9.44177E-19
 -1       665 1.40005E-04-4.60802E-05-4.04648E-05-1.47863E-05-9.27514E-19-3.58316E-18
 -1       666 9.64938E-05-2.61655E-05-3.01383E-05-7.12776E-06 1.12140E-18-7.38893E-19
 -1       667 9.84148E-05-2.85188E-05-2.99560E-05-1.27764E-05 1.64822E-19-6.99533E-19
 -1       668 1.00593E-04-3.09959E-05-2.98291E-05-1.39608E-05 2.65881E-19-6.38321E-19
 -1       669 1.04572E-04-3.52891E-05-2.96912E-05-1.42102E-05-1.38416E-19-9.80002E-21
 -1       670 1.11186E-04-4.17139E-05-2.97708E-05-1.25688E-05-7.45688E-19 5.75315E-19
 -1       671 1.20881E-04-4.94653E-05-3.06126E-05-7.40035E-06-1.09447E-18 1.21652E-18
 -1       672 1.31102E-04-5.38315E-05-3.32205E-05 2.45634E-06-1.39535E-19 2.86069E-18
 -1       673 1.23704E-04-5.09191E-05-3.11647E-05 4.68210E-06-1.27053E-18-2.94227E-18
 -1       674 1.13829E-04-4.38079E-05-2.99971E-05 1.06902E-05-5.29358E-19-1.97022E-18
 -1       675 1.06369E-04-3.68214E-05-2.98119E-05 1.29898E-05-1.25562E-19-6.76000E-19
 -1       676 1.01752E-04-3.19414E-05-2.99220E-05 1.30750E-05-6.79146E-19-3.99188E-19
 -1       677 9.91688E-05-2.90835E-05-3.00373E-05 1.20707E-05-1.08268E-18 2.83834E-19
 -1       678 9.77979E-05-2.76466E-05-3.00641E-05 1.06117E-05-1.53889E-18 5.98163E-19
 -1       679 9.70704E-05-2.70695E-05-2.99990E-05 9.02292E-06-2.70825E-19-1.67292E-19
 -1       680 9.66570E-05-2.69592E-05-2.98689E-05 7.47959E-06-3.80313E-19 7.46929E-21
 -1       681 9.63867E-05-2.70730E-05-2.97043E-05 6.07226E-06 3.26923E-19 3.47952E-20
 -1       682 9.61806E-05-2.72751E-05-2.95296E-05 4.84111E-06 4.69841E-19 2.70094E-19
 -1       683 9.60070E-05-2.74955E-05-2.93610E-05 3.79623E-06 1.38122E-18 5.53886E-19
 -1       684 9.58554E-05-2.77019E-05-2.92078E-05 2.93019E-06 3.27928E-19 2.29706E-19
 -1       685 9.57234E-05-2.78816E-05-2.90743E-05 2.22628E-06-9.98609E-19-1.80039E-18
 -1       686 9.56108E-05-2.80321E-05-2.89618E-05 1.66378E-06-4.67021E-19 6.94639E-19
 -1       687 9.55174E-05-2.81550E-05-2.88692E-05 1.22117E-06 2.26608E-18 1.12308E-18
 -1       688 9.54419E-05-2.82537E-05-2.87946E-05 8.77999E-07 1.15843E-18 9.41045E-19
 -1       689 9.53825E-05-2.83319E-05-2.87357E-05 6.15777E-07-1.58267E-20 3.36691E-18
 -1       690 9.53370E-05-2.83932E-05-2.86900E-05 4.18392E-07-1.63973E-19 4.59440E-18
 -1       691 9.53032E-05-2.84408E-05-2.86552E-05 2.72165E-07-7.21048E-19 3.85039E-18
 -1       692 9.52787E-05-2.84773E-05-2.86291E-05 1.65738E-07-7.94372E-19 3.60580E-18
 -1       693 9.52617E-05-2.85051E-05-2.86099E-05 8.98753E-08 8.91949E-19 1.69949E-18
 -1       694 9.52503E-05-2.85262E-05-2.85960E-05 3.72203E-08 1.76210E-18 2.61733E-19
 -1       695 9.52433E-05-2.85423E-05-2.85861E-05 2.07428E-09 1.33909E-18 1.11415E-19
 -1       696 9.52395E-05-2.85550E-05-2.85791E-05-1.97949E-08-4.75821E-19 2.90108E-18
 -1       697 9.52405E-05-2.85629E-05-2.85761E-05-2.88438E-08-1.05435E-18 1.46959E-18
 -1       698 9.62232E-05-2.35142E-05-3.11523E-05 1.29831E-06 2.20668E-18-9.48849E-19
 -1       699 9.52484E-05-2.85611E-05-2.85803E-05-2.49086E-09-2.53654E-19 1.85836E-18
 -1       700 9.52411E-05-2.85738E-05-2.85717E-05 3.33249E-08 1.55894E-18 1.02622E-18
 -1       701 9.52499E-05-2.85665E-05-2.85786E-05-1.67137E-08 2.16888E-18 2.34591E-19
 -1       702 9.52481E-05-2.85609E-05-2.85802E-05 3.97840E-09 2.73335E-19 7.42682E-19
 -1       703 9.52492E-05-2.85632E-05-2.85797E-05-9.31255E-09-5.98980E-19 6.90524E-20
 -1       704 1.35477E-04-5.88872E-05-3.29481E-05 2.59968E-06-1.26816E-18-2.94962E-18
 -1       705 9.52485E-05-2.85626E-05-2.85797E-05 1.04259E-08 4.44574E-19-9.34087E-19
 -1       706 9.52488E-05-2.85656E-05-2.85785E-05 1.73573E-08 1.05808E-18-8.67792E-19
 -1       707 9.52478E-05-2.85689E-05-2.85767E-05 2.44153E-08 1.03737E-18-5.93759E-19
 -1       708 1.30247E-04-3.22869E-05-4.23486E-05-1.30264E-05-2.29120E-18 1.84936E-18
 -1       709 9.47146E-05-2.05152E-05-3.18001E-05-4.20915E-06-2.22245E-18-2.30942E-18
 -1       710 3.45214E-05-1.09801E-05-9.46385E-06-4.27535E-06-6.35324E-19 2.78976E-18
 -1       711 7.42187E-05-3.62326E-05-1.58861E-05 3.58336E-05-1.15112E-18 1.11761E-18
 -1       712 3.80621E-05-1.26340E-05-1.03618E-05-9.99537E-06-4.84688E-19-5.22270E-18
 -1       713 1.17655E-04-8.92268E-06-4.70656E-05 1.47128E-06-4.84725E-18-1.25281E-19
 -1       714 4.19648E-05-1.52146E-05-1.09181E-05 1.96367E-05 1.36260E-18-5.30137E-18
 -1       715 9.64095E-05-2.56984E-05-3.03016E-05-4.74334E-06 1.40951E-18-4.86089E-19
 -1       716 9.72889E-05-2.72257E-05-3.00261E-05-1.11346E-05 2.56029E-19-9.55278E-19
 -1       717 9.57531E-05-2.32896E-05-3.10561E-05-1.12594E-06-1.98207E-18-1.90288E-18
 -1       718 9.42521E-05-4.66261E-05-2.01369E-05-3.45835E-05-2.66609E-18-1.48877E-18
 -1       719 1.07605E-04-5.32346E-05-2.30324E-05 2.94531E-05-1.27836E-18 1.52291E-18
 -1       720 1.33611E-04-5.21119E-05-3.51234E-05-1.13050E-06-3.27140E-19 2.05194E-18
 -1       721 8.91757E-05-1.46082E-05-3.19623E-05 1.76938E-06 1.52110E-18-2.87561E-18
 -1       722 1.37469E-04-5.78594E-05-3.43939E-05 1.74747E-06 3.60267E-19 2.58382E-18
 -1       723 8.98057E-05-1.52805E-05-3.19442E-05-1.44258E-06-1.02559E-18-3.09094E-18
 -1       724 1.25616E-04-1.52529E-05-4.78717E-05-6.67380E-06 2.94429E-18-4.35307E-19
 -1       725 1.21705E-04-1.54326E-05-4.60399E-05-1.05979E-05-3.92340E-18 1.14033E-18
 -1       726 1.24072E-04-5.89784E-05-2.77653E-05-1.91519E-05-1.60211E-18 1.20957E-18
 -1       727 6.70171E-05-3.04961E-05-1.52358E-05 3.52411E-05 2.41861E-18-2.59899E-18
 -1       728 9.63786E-05-2.49353E-05-3.06147E-05-2.02410E-06 1.75586E-18-6.01775E-19
 -1       729 1.33644E-04-2.93325E-05-4.51064E-05-1.76036E-05 1.18383E-18-2.47596E-18
 -1       730 5.98735E-05-2.46966E-05-1.46251E-05-2.93928E-05-2.33485E-18-3.78547E-18
 -1       731 4.55465E-05-1.71090E-05-1.16537E-05 2.14280E-05-1.68147E-18 2.58006E-18
 -1       732 1.33024E-04-4.52650E-05-3.78293E-05 7.67614E-06-7.65241E-20-2.55243E-18
 -1       733 1.13179E-04-5.57839E-05-2.44926E-05-2.87183E-05 1.68025E-18 5.12266E-19
 -1       734 9.17502E-05-1.73390E-05-3.18944E-05-2.40770E-06-1.51185E-18-2.95847E-18
 -1       735 8.75086E-05-1.29706E-05-3.19491E-05 1.13964E-07-1.78800E-20-3.41457E-18
 -1       736 1.23111E-04-5.61406E-05-2.86325E-05 1.41478E-05-1.65835E-18-7.98740E-19
 -1       737 9.53797E-05-4.50504E-05-2.13654E-05-3.24789E-05 2.12015E-18 6.63544E-19
 -1       738 9.52491E-05-2.85699E-05-2.85768E-05-2.43883E-08 2.08169E-18-7.58216E-19
 -1       739 1.30554E-04-2.21382E-05-4.69076E-05-1.39015E-05 2.02520E-18-9.63646E-19
 -1       740 1.24846E-04-3.36166E-05-3.93576E-05 1.33726E-05-1.00241E-18-2.41600E-18
 -1       741 1.24160E-04-5.88173E-05-2.80171E-05 2.03880E-05 1.64670E-18 1.73988E-18
 -1       742 1.15838E-04-1.52634E-05-4.34533E-05 9.55185E-06-4.39250E-18-1.59399E-18
 -1       743 9.52454E-05-2.85671E-05-2.85764E-05 2.77539E-08-3.78164E-19-1.25307E-18
 -1       744 8.83644E-05-1.38173E-05-3.19533E-05-5.94625E-07-5.15925E-19-3.15518E-18
 -1       745 9.08735E-05-4.41689E-05-1.97534E-05 3.56367E-05 2.82905E-18-6.82378E-19
 -1       746 1.08921E-04-5.39531E-05-2.33866E-05 3.13681E-05 2.15144E-18 8.67057E-19
 -1       747 9.43629E-05-2.18277E-05-3.10873E-05-3.46461E-07 1.69416E-18-1.34114E-18
 -1       748 9.55563E-05-2.56379E-05-2.99650E-05 4.73079E-06-6.10361E-19-1.73403E-18
 -1       749 9.61573E-05-2.71115E-05-2.95910E-05 6.38824E-06-4.90734E-19-1.52120E-18
 -1       750 9.71300E-05-2.88077E-05-2.92808E-05 7.64614E-06-3.13337E-19-1.23499E-18
 -1       751 9.87513E-05-3.10071E-05-2.90332E-05 8.43805E-06 2.77871E-20-1.20619E-18
 -1       752 1.01301E-04-3.39114E-05-2.88823E-05 8.57757E-06 2.24018E-19-6.70617E-19
 -1       753 1.04992E-04-3.75227E-05-2.89159E-05 7.70203E-06 6.86579E-20 1.40118E-19
 -1       754 1.09755E-04-4.13827E-05-2.93035E-05 5.25412E-06 1.14802E-20 7.63799E-19
 -1       755 1.14844E-04-4.41497E-05-3.03000E-05 6.96415E-07 1.32003E-19 5.86849E-19
 -1       756 1.18399E-04-4.32934E-05-3.22055E-05-5.60725E-06 3.44163E-19 9.52281E-19
 -1       757 1.18550E-04-3.69469E-05-3.50306E-05-1.17158E-05-1.55036E-18 1.21132E-18
 -1       758 1.14196E-04-2.52534E-05-3.82954E-05-1.24225E-05-2.20211E-18 6.42289E-19
 -1       759 1.09136E-04-1.52742E-05-4.05031E-05-5.18567E-06-2.69670E-18-5.28496E-19
 -1       760 1.18331E-04-3.75833E-05-3.47016E-05 1.21215E-05 3.92256E-19-3.02446E-18
 -1       761 1.18047E-04-4.34785E-05-3.19866E-05 5.89315E-06 6.67874E-19-2.65681E-18
 -1       762 1.13994E-04-4.35893E-05-3.01774E-05-4.22490E-07 4.34724E-19-1.31704E-18
 -1       763 1.08801E-04-4.05947E-05-2.92330E-05-4.63354E-06 8.75675E-19-1.05485E-18
 -1       764 1.04059E-04-3.67529E-05-2.88470E-05-6.82659E-06 5.58140E-22-6.99192E-19
 -1       765 1.00428E-04-3.33180E-05-2.87619E-05-7.57882E-06-2.58031E-19 4.77813E-19
 -1       766 9.79198E-05-3.07003E-05-2.88084E-05-7.47193E-06 5.65555E-20 2.02011E-19
 -1       767 9.63290E-05-2.89166E-05-2.88909E-05-6.90150E-06 8.75020E-19-7.70050E-19
 -1       768 9.54024E-05-2.78236E-05-2.89622E-05-6.11273E-06 1.10779E-18-3.70957E-19
 -1       769 9.49198E-05-2.72422E-05-2.90046E-05-5.25067E-06 3.60904E-19 8.53443E-19
 -1       770 9.47148E-05-2.70103E-05-2.90161E-05-4.39964E-06-8.18378E-20 1.89611E-18
 -1       771 9.46714E-05-2.69997E-05-2.90020E-05-3.60746E-06-6.31541E-19 1.43153E-18
 -1       772 9.47135E-05-2.71170E-05-2.89698E-05-2.89933E-06-3.34942E-20 2.03322E-18
 -1       773 9.47937E-05-2.72977E-05-2.89268E-05-2.28583E-06-8.57581E-20 1.56691E-18
 -1       774 9.48843E-05-2.75001E-05-2.88789E-05-1.76799E-06-4.08191E-19 2.21240E-18
 -1       775 9.49703E-05-2.76988E-05-2.88306E-05-1.34077E-06-8.56477E-19 1.88146E-18
 -1       776 9.50446E-05-2.78797E-05-2.87849E-05-9.95553E-07 5.05150E-19 1.93798E-18
 -1       777 9.51049E-05-2.80363E-05-2.87437E-05-7.21957E-07 6.08396E-19-2.08971E-19
 -1       778 9.51515E-05-2.81669E-05-2.87077E-05-5.09147E-07 1.20080E-18-2.38417E-18
 -1       779 9.51858E-05-2.82726E-05-2.86771E-05-3.46671E-07 5.89653E-19-2.28282E-18
 -1       780 9.52101E-05-2.83559E-05-2.86518E-05-2.24986E-07 8.75636E-19-7.90976E-20
 -1       781 9.52263E-05-2.84202E-05-2.86312E-05-1.35732E-07-5.22415E-20 2.49677E-18
 -1       782 9.52364E-05-2.84689E-05-2.86146E-05-7.18340E-08 3.08107E-19 8.94921E-19
 -1       783 9.52421E-05-2.85053E-05-2.86015E-05-2.75073E-08 1.29879E-18-2.65301E-19
 -1       784 9.52449E-05-2.85327E-05-2.85909E-05 1.68580E-09 3.71636E-20-9.39346E-19
 -1       785 9.52455E-05-2.85520E-05-2.85830E-05 1.82874E-08-6.31070E-20-5.40089E-19
 -1       786 9.45592E-05-2.97377E-05-2.77773E-05-1.68228E-05-4.28048E-19-9.79154E-19
 -1       787 9.30511E-05-2.66157E-05-2.84727E-05-1.44253E-05 3.11994E-19-8.79029E-19
 -1       788 1.07262E-04-4.47618E-05-2.66961E-05-2.05710E-05-1.66493E-18 3.01650E-19
 -1       789 9.29608E-05-2.70762E-05-2.82338E-05 1.40447E-05-1.60179E-18 2.34721E-18
 -1       790 9.24038E-05-2.53522E-05-2.87353E-05 1.18407E-05-1.46451E-18 1.68193E-18
 -1       791 9.25885E-05-2.47979E-05-2.90525E-05 9.90264E-06-7.77379E-19 4.44109E-19
 -1       792 9.30519E-05-2.48782E-05-2.92167E-05 8.20479E-06 7.97807E-20-5.52131E-19
 -1       793 9.35591E-05-2.52579E-05-2.92714E-05 6.72098E-06-1.29607E-19 1.54174E-20
 -1       794 9.40095E-05-2.57455E-05-2.92555E-05 5.43436E-06 1.11794E-18-7.59574E-19
 -1       795 9.43712E-05-2.62399E-05-2.91988E-05 4.33325E-06 2.31126E-19-1.32189E-18
 -1       796 9.46447E-05-2.66924E-05-2.91222E-05 3.40546E-06 2.93344E-19-1.17426E-19
 -1       797 9.48434E-05-2.70842E-05-2.90395E-05 2.63632E-06 1.25124E-18 7.55371E-19
 -1       798 9.49834E-05-2.74119E-05-2.89590E-05 2.00890E-06-1.35849E-18-5.36890E-19
 -1       799 9.50796E-05-2.76798E-05-2.88855E-05 1.50506E-06 1.10539E-19-2.13640E-18
 -1       800 9.51443E-05-2.78948E-05-2.88211E-05 1.10662E-06 3.97436E-20 8.32246E-19
 -1       801 9.51868E-05-2.80649E-05-2.87665E-05 7.96280E-07-9.27537E-19 2.67064E-18
 -1       802 9.52139E-05-2.81977E-05-2.87212E-05 5.58231E-07-8.67426E-19 2.45598E-18
 -1       803 9.52306E-05-2.83001E-05-2.86845E-05 3.78501E-07-5.02137E-19 4.39222E-18
 -1       804 9.52402E-05-2.83781E-05-2.86552E-05 2.45071E-07-2.26569E-19 1.82740E-18
 -1       805 9.52453E-05-2.84367E-05-2.86322E-05 1.47863E-07 1.50513E-18-4.41340E-19
 -1       806 9.52473E-05-2.84803E-05-2.86144E-05 7.86171E-08 1.27728E-18-7.06952E-19
 -1       807 9.52476E-05-2.85125E-05-2.86007E-05 3.07342E-08 1.63784E-19 1.44010E-18
 -1       808 9.52469E-05-2.85364E-05-2.85902E-05-7.83662E-10-6.88929E-20 3.33994E-18
 -1       809 9.52451E-05-2.85397E-05-2.85881E-05 8.20334E-09 1.93639E-19-1.08367E-18
 -1       810 8.83203E-05-1.52553E-05-3.13143E-05 5.17424E-07 7.28332E-19-2.85131E-18
 -1       811 6.04005E-05-2.06781E-05-1.67620E-05 2.37225E-05 1.79225E-18-3.38570E-18
 -1       812 9.52428E-05-2.85327E-05-2.85900E-05 9.34164E-10 5.75705E-19 1.56439E-18
 -1       813 8.25115E-05-3.40364E-05-2.06331E-05-2.91747E-05-2.32560E-18-2.16875E-18
 -1       814 9.52468E-05-2.85473E-05-2.85855E-05 1.37440E-08-3.80371E-19-1.19572E-18
 -1       815 9.52433E-05-2.85344E-05-2.85895E-05 4.11752E-09 1.00356E-18 1.25861E-18
 -1       816 6.13427E-05-2.32909E-05-1.59757E-05-2.79612E-05 1.82364E-18 6.69950E-19
 -1       817 9.41713E-05-2.38043E-05-3.01561E-05-5.59684E-06 1.26348E-18-1.18566E-18
 -1       818 1.25019E-04-4.06783E-05-3.62630E-05-1.11229E-05-1.47372E-18 1.21014E-18
 -1       819 5.65385E-05-1.59526E-05-1.71279E-05-1.50287E-05-1.07253E-18-3.71131E-18
 -1       820 9.29349E-05-4.10838E-05-2.20249E-05 2.88803E-05-1.51498E-18 1.08181E-18
 -1       821 1.18471E-04-2.46611E-05-4.04698E-05-1.32000E-05-2.36694E-18 1.79806E-18
 -1       822 4.97126E-05-1.28153E-05-1.54883E-05-1.16984E-05-9.25119E-20 2.84060E-18
 -1       823 9.50728E-05-3.07531E-05-2.75638E-05 1.65131E-05-9.52814E-19 1.61201E-18
 -1       824 4.96327E-05-1.24634E-05-1.56360E-05 8.38403E-06-1.10290E-18 2.16586E-18
 -1       825 1.00318E-04-3.74810E-05-2.69139E-05 1.85871E-05-1.72830E-18 5.63198E-19
 -1       826 9.85596E-05-3.54859E-05-2.70125E-05-1.92516E-05-1.15983E-18-7.20272E-19
 -1       827 1.24957E-04-5.40722E-05-3.04297E-05 7.08400E-06 9.91939E-19 8.59523E-19
 -1       828 1.27656E-04-5.11680E-05-3.28472E-05 4.28321E-07 1.49049E-18-2.90976E-18
 -1       829 4.98721E-05-1.23113E-05-1.58091E-05 5.18863E-06 4.29280E-19-4.31667E-18
 -1       830 9.36945E-05-2.41694E-05-2.97960E-05-7.89085E-06 9.68137E-19-1.20486E-18
 -1       831 8.16445E-05-3.44860E-05-2.00414E-05 3.07245E-05 2.50766E-18-1.13596E-18
 -1       832 6.70503E-05-2.50294E-05-1.77171E-05 2.62372E-05-1.93191E-18 1.91472E-18
 -1       833 1.20792E-04-5.44739E-05-2.83996E-05-1.43020E-05 2.37475E-18-1.31264E-18
 -1       834 9.50595E-05-2.40630E-05-3.04269E-05 2.66868E-06-1.09396E-18-1.98960E-18
 -1       835 8.81994E-05-1.51435E-05-3.13110E-05 6.23148E-07 2.24927E-19-2.97264E-18
 -1       836 1.13502E-04-4.93850E-05-2.74461E-05 1.74766E-05-1.53998E-18-7.26112E-19
 -1       837 9.44120E-05-2.21998E-05-3.09478E-05 4.63635E-07-1.58789E-18-2.18768E-18
 -1       838 7.91078E-05-3.22191E-05-1.99337E-05-2.95562E-05 2.05852E-18 4.45897E-19
 -1       839 9.52484E-05-2.85485E-05-2.85856E-05-1.33110E-08 9.06432E-19 1.86896E-19
 -1       840 1.14301E-04-2.65315E-05-3.77489E-05 1.33447E-05-1.46314E-18-3.15192E-18
 -1       841 9.31657E-05-2.44734E-05-2.94391E-05-1.00510E-05 4.67941E-19-1.22461E-18
 -1       842 9.28139E-05-2.51082E-05-2.90161E-05-1.21947E-05 1.41386E-19-1.15669E-18
 -1       843 9.52464E-05-2.85407E-05-2.85882E-05-7.00487E-09 1.17034E-18-1.66549E-18
 -1       844 9.52470E-05-2.85493E-05-2.85848E-05-1.52164E-08 2.37980E-19 2.34311E-18
 -1       845 1.18107E-04-5.33345E-05-2.77069E-05 1.68493E-05 1.14885E-18 1.10204E-18
 -1       846 9.52441E-05-2.85349E-05-2.85896E-05-2.45945E-09-3.45694E-19 2.52032E-18
 -1       847 1.08817E-04-4.89500E-05-2.56000E-05-2.17445E-05 2.70127E-18-5.40615E-19
 -1       848 9.08873E-05-1.78361E-05-3.13113E-05 1.84037E-07 1.44655E-18-2.33446E-18
 -1       849 7.26045E-05-2.33470E-05-2.09810E-05-2.13681E-05-1.09070E-18-2.49010E-18
 -1       850 9.52476E-05-2.85569E-05-2.85817E-05-2.10532E-08 5.63184E-19 1.57712E-18
 -1       851 8.92377E-05-1.61581E-05-3.13209E-05 3.48509E-07 1.08889E-18-2.80497E-18
 -1       852 1.02134E-04-4.69729E-05-2.35150E-05 2.81434E-05 2.05700E-18-2.25900E-19
 -1       853 9.44499E-05-2.31258E-05-3.05645E-05-3.16366E-06 1.44553E-18-1.25464E-18
 -1       854 9.01566E-05-1.70889E-05-3.13164E-05 3.70606E-07-8.39367E-19-2.69192E-18
 -1       855 9.52464E-05-2.85490E-05-2.85845E-05 1.58463E-08-9.91304E-19-1.53253E-18
 -1       856 9.19352E-05-1.89502E-05-3.12824E-05 2.05222E-08-1.19923E-18-2.67139E-18
 -1       857 9.39160E-05-2.47194E-05-2.96558E-05 5.65375E-06-2.44583E-19-2.16278E-18
 -1       858 6.16962E-05-1.64380E-05-1.92769E-05 1.31117E-05 1.28655E-18-3.20799E-18
 -1       859 9.43996E-05-2.63518E-05-2.91632E-05 7.44359E-06-5.39510E-20-1.67643E-18
 -1       860 9.53317E-05-2.83591E-05-2.87015E-05 9.09322E-06 8.15772E-20-1.23045E-18
 -1       861 9.71079E-05-3.10952E-05-2.82891E-05 1.05485E-05 2.62753E-19-1.00050E-18
 -1       862 1.00183E-04-3.48614E-05-2.79941E-05 1.15849E-05 4.86084E-19-8.71816E-19
 -1       863 1.05106E-04-3.98411E-05-2.79646E-05 1.16695E-05 5.45356E-19-6.60581E-19
 -1       864 1.11966E-04-4.53695E-05-2.85292E-05 9.71916E-06 2.76773E-19-1.74787E-19
 -1       865 1.18633E-04-4.87495E-05-2.99410E-05-4.48113E-06 1.54774E-18-1.90938E-18
 -1       866 1.10540E-04-4.42974E-05-2.83969E-05-9.13293E-06 1.17585E-18-2.99788E-19
 -1       867 1.03669E-04-3.87204E-05-2.78326E-05-1.08369E-05 4.26856E-19-1.88181E-19
 -1       868 9.88942E-05-3.40073E-05-2.78083E-05-1.06238E-05 1.46801E-19-3.03778E-19
 -1       869 9.58746E-05-3.05558E-05-2.79933E-05-9.60461E-06-3.67190E-19 1.96467E-19
 -1       870 9.41616E-05-2.82827E-05-2.82335E-05-8.32700E-06-1.10176E-19 1.47275E-19
 -1       871 9.33290E-05-2.69352E-05-2.84543E-05-7.04321E-06 1.67652E-18 3.85311E-20
 -1       872 9.30509E-05-2.62545E-05-2.86269E-05-5.85599E-06 1.28932E-18-2.93259E-19
 -1       873 9.30974E-05-2.60230E-05-2.87461E-05-4.80013E-06 9.55613E-19 7.90354E-19
 -1       874 9.33151E-05-2.60741E-05-2.88175E-05-3.88206E-06-5.15660E-19 3.74723E-19
 -1       875 9.36062E-05-2.62873E-05-2.88509E-05-3.09712E-06 2.96888E-19 5.72158E-19
 -1       876 9.39113E-05-2.65796E-05-2.88564E-05-2.43606E-06-5.94102E-19-1.21562E-19
 -1       877 9.41971E-05-2.68962E-05-2.88432E-05-1.88753E-06 2.61160E-19 1.89809E-19
 -1       878 9.44471E-05-2.72034E-05-2.88187E-05-1.43910E-06-3.16822E-19 2.20739E-19
 -1       879 9.46555E-05-2.74824E-05-2.87884E-05-1.07800E-06-3.79529E-19 1.05030E-18
 -1       880 9.48226E-05-2.77243E-05-2.87564E-05-7.91598E-07-8.09010E-19-2.04052E-19
 -1       881 9.49523E-05-2.79268E-05-2.87252E-05-5.67946E-07-3.94143E-19-6.74238E-19
 -1       882 9.50499E-05-2.80915E-05-2.86965E-05-3.96054E-07 1.26922E-18-4.80984E-19
 -1       883 9.51209E-05-2.82221E-05-2.86709E-05-2.66134E-07 2.13639E-18-1.12185E-18
 -1       884 9.51708E-05-2.83234E-05-2.86489E-05-1.69707E-07 1.08700E-18 2.48272E-19
 -1       885 9.52043E-05-2.84004E-05-2.86302E-05-9.96060E-08 3.06113E-19 3.46345E-19
 -1       886 9.52257E-05-2.84582E-05-2.86147E-05-4.99211E-08 3.58034E-19 1.35056E-18
 -1       887 9.52384E-05-2.85013E-05-2.86017E-05-1.58812E-08 7.38597E-19 3.82056E-20
 -1       888 8.57559E-05-2.37750E-05-2.65752E-05-1.51032E-05-5.85230E-20-1.77879E-18
 -1       889 8.88780E-05-2.26087E-05-2.84012E-05 7.93039E-06-4.07225E-19 1.48594E-19
 -1       890 8.73222E-05-2.22257E-05-2.78988E-05 9.66626E-06-4.87005E-19 2.10894E-19
 -1       891 5.89463E-05-1.28865E-05-1.96248E-05-1.17006E-06-4.39466E-19 1.55435E-18
 -1       892 8.57727E-05-2.24872E-05-2.71218E-05 1.19714E-05-1.28151E-18 4.46922E-19
 -1       893 9.02673E-05-2.32850E-05-2.87067E-05 6.52888E-06 1.92370E-19-4.03297E-19
 -1       894 9.14368E-05-2.40609E-05-2.88753E-05 5.34880E-06 8.85533E-19-9.39612E-19
 -1       895 9.23830E-05-2.48274E-05-2.89523E-05 4.33918E-06 1.22948E-18 7.44371E-20
 -1       896 9.31274E-05-2.55287E-05-2.89708E-05 3.47567E-06-3.82045E-19-9.21001E-20
 -1       897 9.37009E-05-2.61411E-05-2.89542E-05 2.74409E-06 3.29214E-19-9.28452E-19
 -1       898 9.41357E-05-2.66594E-05-2.89184E-05 2.13291E-06-5.32367E-20 7.68531E-19
 -1       899 9.44608E-05-2.70882E-05-2.88740E-05 1.63037E-06-4.65740E-19 4.76668E-19
 -1       900 9.47008E-05-2.74365E-05-2.88275E-05 1.22392E-06-6.82603E-19 2.41065E-19
 -1       901 9.48756E-05-2.77151E-05-2.87831E-05 9.00560E-07-1.01762E-18 7.30791E-19
 -1       902 9.50012E-05-2.79348E-05-2.87427E-05 6.47516E-07-1.34497E-18 9.98185E-19
 -1       903 9.50897E-05-2.81056E-05-2.87075E-05 4.52755E-07-1.46405E-18 2.38568E-19
 -1       904 9.51508E-05-2.82367E-05-2.86775E-05 3.05395E-07 1.26138E-18 5.33010E-19
 -1       905 9.51918E-05-2.83359E-05-2.86525E-05 1.95905E-07 1.39582E-18 3.25245E-19
 -1       906 9.52182E-05-2.84100E-05-2.86321E-05 1.16202E-07 8.78055E-19-2.32111E-20
 -1       907 9.52342E-05-2.84646E-05-2.86155E-05 5.96104E-08 8.98470E-20-2.82499E-19
 -1       908 9.52430E-05-2.85047E-05-2.86021E-05 2.08826E-08-5.15959E-19-1.33373E-18
 -1       909 6.55694E-05-1.82808E-05-2.01645E-05 1.61421E-05-1.57374E-18 1.90782E-18
 -1       910 9.52405E-05-2.85161E-05-2.85961E-05-7.57877E-10-9.03838E-19-1.31912E-18
 -1       911 9.13907E-05-2.19226E-05-2.97737E-05-5.70864E-06 9.89456E-19-1.65192E-18
 -1       912 8.88579E-05-1.57889E-05-3.13164E-05 5.85162E-07-2.85548E-19-2.93551E-18
 -1       913 6.55730E-05-1.94157E-05-1.96284E-05-1.87526E-05 1.52447E-18-2.07291E-19
 -1       914 8.46050E-05-2.39493E-05-2.59901E-05 1.52155E-05-9.16796E-19 1.92381E-18
 -1       915 9.01392E-05-1.84895E-05-3.07077E-05-1.21694E-06 1.07758E-18-2.38115E-18
 -1       916 8.47844E-05-2.74274E-05-2.45260E-05 1.97929E-05-1.77311E-18 1.05597E-18
 -1       917 9.21162E-05-2.05760E-05-3.06616E-05-2.24279E-06 1.33080E-18-1.84687E-18
 -1       918 9.35460E-05-2.30998E-05-3.01909E-05 3.70591E-06-5.69285E-19-2.26630E-18
 -1       919 8.88373E-05-1.72455E-05-3.06819E-05-3.16416E-07 7.56848E-19-2.61580E-18
 -1       920 6.18011E-05-1.40996E-05-2.03310E-05-3.88196E-06-8.85257E-20-2.87804E-18
 -1       921 7.47805E-05-2.56520E-05-2.09599E-05 2.29970E-05 1.90236E-18-1.58240E-18
 -1       922 8.74771E-05-3.09412E-05-2.41459E-05-2.27051E-05-1.23633E-18-1.69969E-18
 -1       923 1.22445E-04-4.74281E-05-3.21830E-05-2.56326E-06 3.88391E-19 7.83128E-19
 -1       924 7.04450E-05-1.78399E-05-2.25035E-05-1.22359E-05-5.02601E-19-2.78543E-18
 -1       925 8.58243E-05-2.63461E-05-2.54737E-05-1.85000E-05-6.69109E-19-1.55732E-18
 -1       926 1.20256E-04-4.97351E-05-3.02444E-05 4.45592E-06 4.32274E-19 4.48373E-19
 -1       927 8.70668E-05-2.24876E-05-2.76765E-05-1.20849E-05 1.21451E-20-2.06486E-18
 -1       928 9.52440E-05-2.85283E-05-2.85924E-05 2.48285E-09 2.46520E-19-1.24952E-18
 -1       929 9.52332E-05-2.84992E-05-2.86003E-05 2.61919E-10 1.70464E-18 1.81787E-18
 -1       930 8.83949E-05-1.68382E-05-3.06671E-05 5.31059E-07 4.39598E-19-2.47927E-18
 -1       931 9.52460E-05-2.85257E-05-2.85944E-05 1.26563E-09-1.87620E-19-1.39918E-18
 -1       932 9.52360E-05-2.85053E-05-2.85989E-05-1.33008E-09 5.22641E-19-2.00016E-18
 -1       933 9.52336E-05-2.84994E-05-2.86004E-05 2.63905E-09 2.35178E-18 2.90506E-18
 -1       934 9.01983E-05-2.20683E-05-2.91990E-05-7.72875E-06 7.56236E-19-1.57137E-18
 -1       935 9.46328E-05-3.93613E-05-2.36074E-05-2.47452E-05 2.25584E-18 2.59510E-19
 -1       936 9.52426E-05-2.85175E-05-2.85964E-05 2.34069E-09-8.25536E-19 1.65424E-18
 -1       937 9.19079E-05-2.14245E-05-3.02048E-05-4.02445E-06 1.17867E-18-1.75730E-18
 -1       938 9.00116E-05-1.83771E-05-3.07000E-05 1.71416E-06-5.22826E-19-2.18904E-18
 -1       939 9.28926E-05-2.12434E-05-3.07059E-05 1.88282E-06-1.17787E-18-2.33767E-18
 -1       940 9.13529E-05-1.96836E-05-3.07148E-05 1.87297E-06-9.04140E-19-2.31191E-18
 -1       941 9.03455E-05-3.55330E-05-2.34042E-05 2.44193E-05 1.77177E-18-1.09330E-18
 -1       942 6.87476E-05-1.67900E-05-2.22468E-05-9.35249E-06 4.76254E-19-4.94320E-19
 -1       943 9.17922E-05-2.36674E-05-2.91961E-05 6.29814E-06 2.27264E-19-2.05822E-18
 -1       944 9.18814E-05-2.52553E-05-2.85542E-05 8.33215E-06 2.40648E-19-2.01994E-18
 -1       945 9.24098E-05-2.73356E-05-2.78892E-05 1.06165E-05 3.48667E-19-1.86313E-18
 -1       946 9.38803E-05-3.03843E-05-2.72184E-05 1.32294E-05 5.57286E-19-1.51899E-18
 -1       947 9.72866E-05-3.49805E-05-2.66915E-05 1.58206E-05 7.22445E-19-1.23776E-18
 -1       948 1.02730E-04-4.12066E-05-2.64002E-05 1.77406E-05 8.86005E-19-6.20339E-19
 -1       949 1.01123E-04-3.97685E-05-2.62674E-05-1.68998E-05 1.31584E-18-1.35568E-19
 -1       950 9.55306E-05-3.37407E-05-2.64790E-05-1.47294E-05 6.51303E-19 7.31971E-19
 -1       951 9.24747E-05-2.96260E-05-2.69330E-05-1.21759E-05 1.97396E-20 1.04033E-18
 -1       952 9.10530E-05-2.70811E-05-2.74160E-05-9.82146E-06 4.34646E-19 1.40699E-18
 -1       953 9.06138E-05-2.56563E-05-2.78390E-05-7.83967E-06 2.97705E-19 1.06802E-18
 -1       954 9.07416E-05-2.50027E-05-2.81739E-05-6.22787E-06 1.31244E-18-2.70262E-20
 -1       955 9.11683E-05-2.48533E-05-2.84208E-05-4.92962E-06 1.85248E-18-9.60862E-19
 -1       956 9.17283E-05-2.50162E-05-2.85910E-05-3.88447E-06 2.76427E-19-7.05355E-19
 -1       957 9.23204E-05-2.53557E-05-2.86992E-05-3.04213E-06-4.95304E-19 1.22539E-18
 -1       958 9.28857E-05-2.57783E-05-2.87604E-05-2.36352E-06-7.41488E-19 3.25730E-19
 -1       959 9.33923E-05-2.62218E-05-2.87874E-05-1.81837E-06-1.12665E-19 8.72163E-19
 -1       960 9.38263E-05-2.66472E-05-2.87911E-05-1.38277E-06-1.53211E-19 6.60234E-19
 -1       961 9.41854E-05-2.70323E-05-2.87799E-05-1.03728E-06-1.83436E-19 1.38355E-19
 -1       962 9.44736E-05-2.73668E-05-2.87601E-05-7.65791E-07-1.02287E-18 6.19624E-20
 -1       963 9.46988E-05-2.76479E-05-2.87361E-05-5.54725E-07-1.65681E-18-1.45759E-18
 -1       964 9.48702E-05-2.78778E-05-2.87110E-05-3.92599E-07 3.92037E-19-1.60405E-18
 -1       965 9.49972E-05-2.80614E-05-2.86868E-05-2.69719E-07 1.83366E-18 4.50546E-20
 -1       966 9.50886E-05-2.82048E-05-2.86645E-05-1.77975E-07 2.10032E-18 1.61347E-19
 -1       967 9.51522E-05-2.83147E-05-2.86446E-05-1.10654E-07 7.07008E-19-5.49352E-19
 -1       968 9.51946E-05-2.83974E-05-2.86274E-05-6.24516E-08 3.09273E-20 7.70757E-19
 -1       969 9.52217E-05-2.84593E-05-2.86125E-05-2.82027E-08-7.38023E-19-1.68885E-18
 -1       970 8.68287E-05-2.13705E-05-2.80542E-05 5.32715E-06 2.88213E-19-2.11821E-18
 -1       971 6.82635E-05-1.60275E-05-2.23437E-05 5.62856E-06 6.58644E-19-2.33132E-18
 -1       972 9.02590E-05-2.34225E-05-2.86444E-05 3.70895E-06-2.80754E-19 4.60627E-19
 -1       973 9.14694E-05-2.43422E-05-2.87690E-05 3.04922E-06-3.23460E-19 2.25523E-18
 -1       974 9.24192E-05-2.51535E-05-2.88283E-05 2.46916E-06 7.54351E-19 2.05282E-18
 -1       975 9.31567E-05-2.58500E-05-2.88458E-05 1.96601E-06-5.54665E-20 1.96571E-18
 -1       976 9.37233E-05-2.64353E-05-2.88378E-05 1.53762E-06-2.25631E-20 2.51289E-18
 -1       977 9.41538E-05-2.69180E-05-2.88154E-05 1.18016E-06 2.91140E-20 9.68128E-19
 -1       978 9.44770E-05-2.73096E-05-2.87860E-05 8.87809E-07-5.92231E-19-2.20252E-19
 -1       979 9.47164E-05-2.76227E-05-2.87545E-05 6.53329E-07-7.01048E-19-1.56256E-18
 -1       980 9.48911E-05-2.78692E-05-2.87237E-05 4.68794E-07-7.10421E-19-8.86956E-19
 -1       981 9.50162E-05-2.80607E-05-2.86952E-05 3.26252E-07-8.50532E-19-1.31132E-18
 -1       982 9.51038E-05-2.82071E-05-2.86700E-05 2.18235E-07 1.21672E-18-4.93490E-19
 -1       983 9.51632E-05-2.83175E-05-2.86482E-05 1.37969E-07 1.00453E-18-7.13462E-19
 -1       984 9.52022E-05-2.83997E-05-2.86297E-05 7.97680E-08 3.39063E-19 1.13326E-18
 -1       985 9.52261E-05-2.84598E-05-2.86141E-05 3.88257E-08 6.53756E-19 1.71234E-18
 -1       986 9.17756E-05-2.21763E-05-2.98289E-05 4.38887E-06-2.95453E-19-1.97312E-18
 -1       987 8.35416E-05-2.75331E-05-2.40030E-05 1.88256E-05 1.23400E-18-1.73107E-18
 -1       988 8.15693E-05-1.95116E-05-2.65960E-05 7.85974E-06-7.17838E-19-2.07782E-18
 -1       989 7.18779E-05-1.76051E-05-2.32169E-05 1.13049E-05-4.55100E-19 6.48511E-19
 -1       990 1.09538E-04-4.74800E-05-2.65642E-05 1.84980E-05 1.12916E-18 1.50418E-19
 -1       991 7.74774E-05-1.85595E-05-2.52378E-05 9.17318E-06 2.06332E-19 2.85113E-20
 -1       992 8.86992E-05-2.21331E-05-2.85286E-05-9.75980E-06 3.47144E-19-1.85111E-18
 -1       993 9.52359E-05-2.84913E-05-2.86048E-05 1.74587E-08 8.99985E-19 2.58720E-18
 -1       994 8.44700E-05-2.03595E-05-2.74781E-05 6.39526E-06-2.82649E-19-1.78531E-18
 -1       995 7.38863E-05-2.05428E-05-2.28157E-05 1.41395E-05 1.15593E-18-1.93805E-18
 -1       996 8.89221E-05-1.87675E-05-3.00655E-05-1.76987E-06 8.41589E-19-2.36052E-18
 -1       997 8.88310E-05-1.72443E-05-3.06761E-05 1.25014E-06-1.16273E-20-2.63372E-18
 -1       998 9.52371E-05-2.85059E-05-2.85991E-05 4.02830E-09 1.97580E-18 1.43126E-20
 -1       999 8.87326E-05-2.24166E-05-2.84216E-05 4.45829E-06 1.08037E-19-4.83602E-19
 -1      1000 7.88678E-05-2.70106E-05-2.21906E-05-2.17740E-05 9.54586E-19 1.15877E-18
 -1      1001 8.04566E-05-1.94831E-05-2.61243E-05-1.01223E-05 1.61856E-19-2.04720E-18
 -1      1002 8.80430E-05-1.80173E-05-3.00137E-05-1.30701E-07 4.12083E-19-2.27208E-18
 -1      1003 9.52265E-05-2.84739E-05-2.86082E-05 1.46490E-08 1.97982E-18 7.64627E-19
 -1      1004 7.03921E-05-1.58399E-05-2.33483E-05-2.94364E-06 8.20321E-20-2.35688E-18
 -1      1005 9.52103E-05-2.84399E-05-2.86159E-05-1.82154E-08-1.46638E-18-7.82675E-19
 -1      1006 6.99873E-05-1.54531E-05-2.33696E-05 1.83051E-06 5.60956E-19 9.04346E-19
 -1      1007 9.52093E-05-2.84406E-05-2.86152E-05-1.00956E-09 3.20266E-19 9.28649E-19
 -1      1008 7.64507E-05-2.14221E-05-2.35731E-05-1.39551E-05 2.60818E-20 9.19576E-19
 -1      1009 8.84303E-05-2.02328E-05-2.92294E-05-4.88783E-06 8.27866E-19-1.73904E-18
 -1      1010 9.16479E-05-2.10230E-05-3.02662E-05 3.12146E-06-5.66302E-19-1.92863E-18
 -1      1011 9.01724E-05-1.96577E-05-3.02213E-05 2.71226E-06-4.75877E-19-1.92174E-18
 -1      1012 9.02133E-05-1.99008E-05-3.01310E-05-2.97537E-06 1.07850E-18-1.90040E-18
 -1      1013 8.87376E-05-1.83519E-05-3.01685E-05 1.88485E-06 1.14425E-19-2.21570E-18
 -1      1014 8.37020E-05-1.97443E-05-2.74150E-05-7.95304E-06 2.36412E-19-1.79066E-18
 -1      1015 8.40874E-05-2.45380E-05-2.55219E-05 1.37093E-05 8.59616E-19-1.36911E-18
 -1      1016 8.84229E-05-2.36409E-05-2.77669E-05 8.72742E-06 4.95146E-19-1.96101E-18
 -1      1017 8.65934E-05-2.41127E-05-2.67805E-05 1.08446E-05 8.07775E-19-1.54575E-18
 -1      1018 9.21672E-05-2.50793E-05-2.87524E-05 1.46781E-06 1.62463E-19 5.82683E-19
 -1      1019 8.67836E-05-2.72756E-05-2.55025E-05-1.46848E-05 4.99424E-19-4.17375E-19
 -1      1020 8.65315E-05-2.49589E-05-2.63910E-05-1.09792E-05 3.20290E-19 5.73467E-19
 -1      1021 8.70503E-05-2.38023E-05-2.71076E-05-8.20978E-06 1.84550E-20 6.56325E-19
 -1      1022 8.79250E-05-2.34051E-05-2.76521E-05-6.17303E-06 5.80334E-19 1.13033E-18
 -1      1023 8.89345E-05-2.34796E-05-2.80525E-05-4.66020E-06 7.90769E-20 3.73053E-19
 -1      1024 8.99538E-05-2.38376E-05-2.83358E-05-3.52740E-06 9.59659E-19-1.21966E-18
 -1      1025 9.09139E-05-2.43508E-05-2.85273E-05-2.67142E-06 8.70148E-19-1.11082E-18
 -1      1026 9.17771E-05-2.49298E-05-2.86491E-05-2.01994E-06 4.08640E-20 7.11552E-19
 -1      1027 9.25260E-05-2.55139E-05-2.87197E-05-1.52153E-06-4.66025E-19 1.86647E-18
 -1      1028 9.31569E-05-2.60645E-05-2.87540E-05-1.13915E-06-5.71450E-19 1.46510E-18
 -1      1029 9.36747E-05-2.65597E-05-2.87637E-05-8.45688E-07-1.20975E-18 8.24701E-19
 -1      1030 9.40899E-05-2.69891E-05-2.87576E-05-6.20910E-07-1.31296E-18 2.39646E-19
 -1      1031 9.44155E-05-2.73507E-05-2.87421E-05-4.49470E-07-2.02662E-18-1.44175E-18
 -1      1032 9.46650E-05-2.76476E-05-2.87218E-05-3.19539E-07-3.69562E-19 7.47347E-19
 -1      1033 9.48520E-05-2.78859E-05-2.86998E-05-2.21885E-07 1.95318E-18 2.44145E-18
 -1      1034 9.49887E-05-2.80734E-05-2.86780E-05-1.49242E-07 1.69264E-18 2.06209E-18
 -1      1035 9.50858E-05-2.82180E-05-2.86577E-05-9.58512E-08 6.19624E-19 1.46286E-18
 -1      1036 9.51519E-05-2.83270E-05-2.86393E-05-5.76746E-08 5.88217E-19 7.17862E-19
 -1      1037 9.51858E-05-2.83893E-05-2.86271E-05-3.55245E-08-1.70427E-18 5.09212E-19
 -1      1038 9.11601E-05-2.42452E-05-2.86783E-05 1.76984E-06-3.18738E-19-9.71234E-19
 -1      1039 8.98844E-05-2.32912E-05-2.85406E-05 2.08266E-06-1.20895E-18-3.62587E-19
 -1      1040 9.29560E-05-2.57933E-05-2.87843E-05 1.18872E-06 8.80764E-20-9.41185E-20
 -1      1041 9.35677E-05-2.63932E-05-2.87893E-05 9.40639E-07 9.92153E-19-6.57394E-19
 -1      1042 9.40367E-05-2.68883E-05-2.87780E-05 7.27401E-07 6.87786E-19 5.51528E-19
 -1      1043 9.43917E-05-2.72903E-05-2.87579E-05 5.49402E-07-7.09750E-19 1.80708E-18
 -1      1044 9.46564E-05-2.76115E-05-2.87336E-05 4.04635E-07-1.36860E-18 2.10234E-18
 -1      1045 9.48505E-05-2.78642E-05-2.87085E-05 2.89651E-07 1.25663E-19 1.47367E-18
 -1      1046 9.49900E-05-2.80600E-05-2.86843E-05 2.00310E-07 2.32990E-19 9.54694E-19
 -1      1047 9.50880E-05-2.82096E-05-2.86622E-05 1.32407E-07 2.67987E-19 1.85346E-18
 -1      1048 9.51540E-05-2.83212E-05-2.86426E-05 8.19399E-08-1.02475E-18 3.25228E-18
 -1      1049 9.51974E-05-2.84042E-05-2.86256E-05 4.60048E-08 6.41986E-19 2.74037E-18
 -1      1050 8.37005E-05-1.98251E-05-2.73776E-05 2.99232E-06-4.59344E-19-2.54360E-18
 -1      1051 9.52139E-05-2.84418E-05-2.86166E-05 2.81646E-08 9.12990E-19 2.10098E-18
 -1      1052 8.63791E-05-2.00632E-05-2.84222E-05-6.37722E-06 6.03972E-19-1.85638E-18
 -1      1053 9.51828E-05-2.83878E-05-2.86264E-05-4.76483E-09-1.24528E-19-2.35408E-18
 -1      1054 8.69991E-05-1.88606E-05-2.91991E-05-1.80077E-06 5.19208E-19-1.97745E-18
 -1      1055 8.82767E-05-2.22242E-05-2.83091E-05 2.39239E-06-6.81221E-19-3.37455E-19
 -1      1056 8.62528E-05-2.10592E-05-2.79414E-05 2.69071E-06-1.59335E-18-1.09167E-18
 -1      1057 8.89017E-05-3.17697E-05-2.44632E-05-1.95582E-05 8.83239E-19 1.69886E-19
 -1      1058 8.97398E-05-2.12134E-05-2.93704E-05 4.53296E-06-1.71717E-19-1.76626E-18
 -1      1059 9.52163E-05-2.84542E-05-2.86123E-05 9.48015E-09 1.25763E-18 1.67285E-18
 -1      1060 8.04124E-05-1.85205E-05-2.65252E-05 3.32711E-06 2.93007E-20-1.51949E-18
 -1      1061 8.91072E-05-2.23603E-05-2.86074E-05 6.41879E-06 7.57481E-20-2.05025E-18
 -1      1062 7.89115E-05-1.77143E-05-2.62309E-05-4.17874E-06 3.87302E-19-2.17932E-18
 -1      1063 7.43252E-05-1.70254E-05-2.45507E-05 3.02019E-06 3.99398E-19-1.61176E-18
 -1      1064 8.47001E-05-1.87109E-05-2.82807E-05-2.27317E-06 5.34600E-19-1.74814E-18
 -1      1065 7.48216E-05-1.80321E-05-2.43347E-05-7.22604E-06 5.83158E-19 9.10330E-19
 -1      1066 9.51926E-05-2.84044E-05-2.86235E-05 1.62125E-08 9.18072E-19 1.54949E-18
 -1      1067 7.60840E-05-1.70522E-05-2.52931E-05 2.99121E-06 7.44111E-19 6.31463E-19
 -1      1068 7.82100E-05-2.00049E-05-2.49297E-05 9.52325E-06 7.76760E-19-1.96094E-18
 -1      1069 8.90273E-05-2.00864E-05-2.95458E-05 3.49571E-06-1.06136E-19-1.65004E-18
 -1      1070 8.58515E-05-2.07305E-05-2.79055E-05 5.62318E-06 3.05060E-19-1.58967E-18
 -1      1071 9.30078E-05-2.59142E-05-2.87542E-05 5.00477E-07 6.02358E-19-2.40388E-18
 -1      1072 8.43762E-05-2.02579E-05-2.74792E-05 7.04120E-08-4.11964E-19-2.74811E-19
 -1      1073 9.22464E-05-2.52305E-05-2.87209E-05 5.84107E-07 5.81464E-19-2.91843E-18
 -1      1074 8.25041E-05-2.12726E-05-2.62411E-05-7.58189E-06 6.47712E-19 6.51354E-19
 -1      1075 8.45652E-05-2.14337E-05-2.70573E-05-5.38154E-06 1.11259E-18 8.19640E-19
 -1      1076 8.64106E-05-2.19053E-05-2.76456E-05-3.80977E-06 5.20368E-19 1.00085E-18
 -1      1077 8.80320E-05-2.25590E-05-2.80603E-05-2.69812E-06-2.27948E-19 1.81895E-18
 -1      1078 8.94383E-05-2.33025E-05-2.83442E-05-1.91190E-06 5.62753E-19 3.39884E-19
 -1      1079 9.06398E-05-2.40676E-05-2.85312E-05-1.35520E-06-5.78199E-21-2.76088E-19
 -1      1080 9.16500E-05-2.48062E-05-2.86475E-05-9.60385E-07-6.96517E-20-1.02254E-18
 -1      1081 9.24849E-05-2.54872E-05-2.87134E-05-6.79888E-07-2.86153E-22 1.77195E-19
 -1      1082 9.31630E-05-2.60927E-05-2.87445E-05-4.80216E-07-1.07984E-18 1.81505E-18
 -1      1083 9.37042E-05-2.66154E-05-2.87524E-05-3.37789E-07-1.06723E-18 1.04712E-18
 -1      1084 9.41283E-05-2.70551E-05-2.87457E-05-2.36013E-07-3.27252E-18 1.62484E-18
 -1      1085 9.44546E-05-2.74169E-05-2.87305E-05-1.63207E-07-1.07898E-18 1.62670E-18
 -1      1086 9.47006E-05-2.77083E-05-2.87110E-05-1.11138E-07 1.81462E-18 1.89688E-18
 -1      1087 9.48821E-05-2.79386E-05-2.86900E-05-7.39955E-08 1.39946E-18 1.04536E-18
 -1      1088 9.50128E-05-2.81173E-05-2.86695E-05-4.77587E-08 1.23990E-18 5.33024E-19
 -1      1089 9.51046E-05-2.82540E-05-2.86502E-05-2.91149E-08-1.08354E-18-2.03318E-19
 -1      1090 9.51495E-05-2.83274E-05-2.86378E-05-1.42111E-08-9.90935E-19-2.98680E-18
 -1      1091 9.12833E-05-2.44354E-05-2.86489E-05 6.46894E-07-4.78566E-19-2.11678E-18
 -1      1092 9.00769E-05-2.35305E-05-2.85197E-05 6.65677E-07-3.63937E-19-2.41673E-18
 -1      1093 9.36030E-05-2.64904E-05-2.87624E-05 4.11457E-07-3.00495E-19-6.36684E-19
 -1      1094 9.40620E-05-2.69669E-05-2.87549E-05 3.26547E-07-8.50342E-19 1.24817E-18
 -1      1095 9.44109E-05-2.73540E-05-2.87386E-05 2.50907E-07-4.38430E-19 1.84877E-18
 -1      1096 9.46717E-05-2.76632E-05-2.87179E-05 1.86731E-07-1.54340E-19 1.94557E-18
 -1      1097 9.48629E-05-2.79060E-05-2.86958E-05 1.34333E-07-6.58876E-20 2.55596E-18
 -1      1098 9.50000E-05-2.80934E-05-2.86742E-05 9.29558E-08 2.94059E-19 1.29650E-18
 -1      1099 9.50955E-05-2.82360E-05-2.86541E-05 6.06111E-08-4.71300E-19-7.62630E-20
 -1      1100 8.20914E-05-1.82793E-05-2.73469E-05-3.07367E-06 4.80735E-19-1.92666E-18
 -1      1101 7.95170E-05-1.85186E-05-2.61482E-05 4.41757E-06 5.75237E-19-1.28915E-18
 -1      1102 8.85751E-05-2.25237E-05-2.83076E-05 6.07819E-07-6.59074E-19-2.78292E-18
 -1      1103 8.25210E-05-2.10005E-05-2.63558E-05 8.25775E-06 6.49729E-19-1.61942E-18
 -1      1104 8.69382E-05-1.87209E-05-2.92357E-05 9.58803E-07 1.41584E-19-1.94885E-18
 -1      1105 8.13796E-05-1.89886E-05-2.67360E-05-5.37100E-07 1.09847E-18 1.15539E-18
 -1      1106 8.74602E-05-2.01649E-05-2.88358E-05 3.90639E-06-4.44262E-20-1.76718E-18
 -1      1107 8.67092E-05-2.14286E-05-2.79773E-05 4.29201E-07-8.92847E-19-2.62913E-18
 -1      1108 8.08359E-05-2.16475E-05-2.53707E-05-1.02371E-05 6.55295E-19 7.57917E-19
 -1      1109 9.51596E-05-2.83449E-05-2.86349E-05 1.96817E-08-4.13017E-19 8.17309E-19
 -1      1110 7.84271E-05-1.82136E-05-2.58077E-05-2.68242E-06 7.53479E-19 7.64346E-19
 -1      1111 8.49963E-05-1.89359E-05-2.83113E-05 1.52320E-06 4.55409E-19-1.48565E-18
 -1      1112 8.43268E-05-2.08703E-05-2.71896E-05 6.84666E-06 6.86631E-19-1.67894E-18
 -1      1113 8.26543E-05-1.88668E-05-2.73380E-05 2.67748E-06 5.68991E-19-1.33772E-18
 -1      1114 1.16543E-04 2.57852E-10-4.18666E-05-4.05153E-05-3.58295E-19 1.19984E-17
 -1      1115 8.94242E-05 7.49335E-11-3.75133E-05-2.28210E-05-1.95029E-19 1.69894E-18
 -1      1116 8.49256E-05 4.34369E-11-3.60796E-05-1.61698E-05-1.34255E-19-2.75585E-18
 -1      1117 8.29424E-05 3.24350E-11-3.53122E-05-1.19492E-05-9.66676E-20-4.83565E-18
 -1      1118 8.17528E-05 2.61471E-11-3.48386E-05-8.67164E-06-6.79215E-20-5.78897E-18
 -1      1119 8.09321E-05 2.18974E-11-3.45161E-05-5.99782E-06-3.91488E-20-6.25224E-18
 -1      1120 8.03529E-05 1.89422E-11-3.42915E-05-3.73014E-06-2.07920E-20-6.35055E-18
 -1      1121 7.99902E-05 1.71018E-11-3.41527E-05-1.71618E-06-7.92770E-21-6.39557E-18
 -1      1122 7.98575E-05 1.63612E-11-3.41031E-05 1.48499E-07 4.87044E-21-6.33290E-18
 -1      1123 7.99653E-05 1.67654E-11-3.41458E-05 1.99309E-06 2.27508E-20-6.19678E-18
 -1      1124 8.03183E-05 1.83930E-11-3.42826E-05 3.95440E-06 3.51122E-20-5.98750E-18
 -1      1125 8.09140E-05 2.13116E-11-3.45127E-05 6.15777E-06 6.32760E-20-5.58502E-18
 -1      1126 8.17720E-05 2.58247E-11-3.48486E-05 8.78092E-06 8.68738E-20-4.82346E-18
 -1      1127 8.30043E-05 3.25772E-11-3.53393E-05 1.20517E-05 1.18743E-19-3.55645E-18
 -1      1128 8.49885E-05 4.38810E-11-3.61229E-05 1.63032E-05 1.53948E-19-1.08206E-18
 -1      1129 8.91688E-05 7.01555E-11-3.75917E-05 2.25833E-05 1.73006E-19 3.78018E-18
 -1      1130 1.06485E-04 1.66524E-10-4.06589E-05 3.51986E-05 3.76718E-19 1.38428E-17
 -1      1131 1.29553E-04-2.57850E-05-4.02437E-05-2.54789E-05-1.46378E-18 1.85056E-17
 -1      1132 9.84315E-05-2.91655E-05-3.18740E-05-5.51241E-07-4.71189E-19 1.50521E-17
 -1      1133 9.23981E-05-2.77094E-05-2.85508E-05 4.16019E-07-1.46193E-19 1.03786E-17
 -1      1134 9.16206E-05-2.75929E-05-2.76604E-05 2.72562E-07-9.16715E-20 7.05663E-18
 -1      1135 9.25037E-05-2.78383E-05-2.77878E-05 1.94312E-07-7.93068E-20 4.61625E-18
 -1      1136 9.42969E-05-2.83442E-05-2.83066E-05 1.57713E-07-9.19610E-20 2.97205E-18
 -1      1137 9.66307E-05-2.90201E-05-2.90003E-05 1.40216E-07-6.70843E-20 1.74923E-18
 -1      1138 9.92596E-05-2.97905E-05-2.97757E-05 1.30798E-07-4.53634E-20 1.28140E-18
 -1      1139 1.01939E-04-3.05780E-05-3.05557E-05 1.20667E-07-2.55677E-20 3.79087E-19
 -1      1140 1.04361E-04-3.12877E-05-3.12463E-05 1.00362E-07-2.95973E-20-1.11483E-18
 -1      1141 1.06118E-04-3.17976E-05-3.17270E-05 5.89507E-08-4.67407E-20-1.88207E-18
 -1      1142 1.06716E-04-3.19616E-05-3.18580E-05-1.38041E-08 8.35949E-20-1.46853E-18
 -1      1143 1.05659E-04-3.16362E-05-3.15098E-05-1.21080E-07-7.10317E-20-2.60932E-18
 -1      1144 1.02645E-04-3.07372E-05-3.06188E-05-2.49024E-07-4.62030E-20-2.59266E-18
 -1      1145 9.78317E-05-2.93184E-05-2.92558E-05-3.58989E-07-8.89418E-20-2.40976E-18
 -1      1146 9.20682E-05-2.76340E-05-2.76718E-05-3.93904E-07-1.61377E-19-3.96268E-18
 -1      1147 8.68509E-05-2.61198E-05-2.62698E-05-3.08073E-07-1.80094E-20-4.43258E-18
 -1      1148 8.38524E-05-2.52541E-05-2.54770E-05-1.07545E-07 8.78995E-20-4.63981E-18
 -1      1149 8.41641E-05-2.53459E-05-2.55645E-05 1.37172E-07-1.08480E-19-5.18569E-18
 -1      1150 8.77251E-05-2.63777E-05-2.65178E-05 3.28138E-07 1.25189E-19-5.01174E-18
 -1      1151 9.33584E-05-2.80169E-05-2.80446E-05 4.00900E-07-2.22694E-20-4.27572E-18
 -1      1152 9.93926E-05-2.97849E-05-2.97169E-05 3.57160E-07-7.50352E-20-3.68417E-18
 -1      1153 1.04406E-04-3.12662E-05-3.11494E-05 2.46056E-07 3.68459E-20-3.94161E-18
 -1      1154 1.07646E-04-3.22347E-05-3.21157E-05 1.23664E-07-3.35465E-19-4.82671E-18
 -1      1155 1.09028E-04-3.26583E-05-3.25658E-05 2.58377E-08-1.25568E-19-4.20264E-18
 -1      1156 1.08895E-04-3.26326E-05-3.25749E-05-3.57421E-08-1.91800E-19-4.44457E-18
 -1      1157 1.07743E-04-3.23017E-05-3.22746E-05-6.50693E-08 4.26254E-19-4.07481E-18
 -1      1158 1.06043E-04-3.18041E-05-3.17984E-05-7.19985E-08-2.26037E-19-4.14002E-18
 -1      1159 1.04157E-04-3.12477E-05-3.12542E-05-6.61790E-08-9.94891E-20-4.31009E-18
 -1      1160 1.02325E-04-3.07040E-05-3.07160E-05-5.47076E-08 3.40471E-19-2.82073E-18
 -1      1161 1.00682E-04-3.02141E-05-3.02274E-05-4.19576E-08-3.83737E-19-2.69014E-18
 -1      1162 9.92863E-05-2.97968E-05-2.98090E-05-3.02230E-08 6.04408E-20-4.46674E-18
 -1      1163 9.81504E-05-2.94560E-05-2.94663E-05-2.04597E-08-7.79543E-20-5.80321E-18
 -1      1164 9.72575E-05-2.91872E-05-2.91953E-05-1.28657E-08 2.04520E-19-5.71076E-18
 -1      1165 9.65770E-05-2.89818E-05-2.89879E-05-7.26325E-09 1.67837E-19-6.05834E-18
 -1      1166 9.60737E-05-2.88295E-05-2.88338E-05-3.32495E-09 3.10612E-19-3.35703E-18
 -1      1167 9.57131E-05-2.87199E-05-2.87228E-05-6.94373E-10-2.79940E-19-3.96721E-18
 -1      1168 9.54638E-05-2.86439E-05-2.86458E-05 9.55823E-10 2.34103E-19-4.79072E-18
 -1      1169 9.52993E-05-2.85935E-05-2.85946E-05 1.90132E-09-3.18880E-19-3.47183E-18
 -1      1170 9.51975E-05-2.85620E-05-2.85626E-05 2.36190E-09 2.10780E-19-2.35410E-18
 -1      1171 9.51410E-05-2.85443E-05-2.85446E-05 2.50591E-09-5.01909E-19-3.56485E-18
 -1      1172 9.51162E-05-2.85363E-05-2.85364E-05 2.45794E-09 2.06769E-19-2.25844E-18
 -1      1173 9.51131E-05-2.85350E-05-2.85349E-05 2.30707E-09-4.37254E-19-4.14492E-18
 -1      1174 9.51240E-05-2.85379E-05-2.85377E-05 2.11397E-09-2.05012E-19-3.68547E-18
 -1      1175 9.51434E-05-2.85434E-05-2.85433E-05 1.91566E-09 5.24421E-19-1.92232E-18
 -1      1176 9.51672E-05-2.85504E-05-2.85501E-05 1.72603E-09 3.70824E-20 4.37588E-19
 -1      1177 9.51920E-05-2.85577E-05-2.85573E-05 1.52599E-09-6.35382E-20 7.41434E-19
 -1      1178 9.52147E-05-2.85643E-05-2.85638E-05 1.21052E-09 1.26595E-19 4.66780E-18
 -1      1179 9.52313E-05-2.85691E-05-2.85686E-05 5.52100E-10-3.69127E-20 3.42419E-18
 -1      1180 9.52377E-05-2.85714E-05-2.85713E-05-2.72904E-10 3.89718E-19 2.17279E-18
 -1      1181 1.30200E-04-3.74099E-05-3.86510E-05 1.19575E-05-2.39393E-19 2.21630E-17
 -1      1182 9.76193E-05-2.85229E-05-3.16438E-05 7.54841E-07 1.72054E-19 1.76139E-17
 -1      1183 9.27434E-05-2.76612E-05-2.85791E-05 1.15726E-07 1.46160E-19 1.31797E-17
 -1      1184 9.20208E-05-2.76250E-05-2.78030E-05 2.18969E-08 8.64073E-20 1.01208E-17
 -1      1185 9.31751E-05-2.80021E-05-2.80251E-05-4.98662E-09 9.61118E-20 8.06820E-18
 -1      1186 9.54942E-05-2.86942E-05-2.87095E-05-1.40056E-08 1.60456E-20 6.12130E-18
 -1      1187 9.87212E-05-2.96546E-05-2.96871E-05-2.35601E-08 2.81936E-20 5.21741E-18
 -1      1188 1.02775E-04-3.08618E-05-3.09119E-05-4.24790E-08 3.95227E-21 4.52562E-18
 -1      1189 1.07608E-04-3.22977E-05-3.23603E-05-7.84419E-08-2.05753E-20 4.13193E-18
 -1      1190 1.13090E-04-3.39181E-05-3.39784E-05-1.38603E-07 8.39266E-20 2.90601E-18
 -1      1191 1.18853E-04-3.56110E-05-3.56329E-05-2.24015E-07 8.24608E-20 2.63980E-18
 -1      1192 1.24098E-04-3.71414E-05-3.70593E-05-3.15788E-07 1.30145E-19 2.11906E-18
 -1      1193 1.27412E-04-3.81067E-05-3.78352E-05-3.54736E-07 1.08142E-19 1.98957E-18
 -1      1194 1.26845E-04-3.79579E-05-3.74517E-05-2.35530E-07-1.44525E-19 2.14278E-18
 -1      1195 1.20637E-04-3.61952E-05-3.55618E-05 1.33618E-07 5.06168E-20 1.32561E-18
 -1      1196 1.08862E-04-3.27994E-05-3.23833E-05 6.82365E-07-3.17240E-20-2.75921E-19
 -1      1197 9.50890E-05-2.87101E-05-2.89437E-05 1.08230E-06-2.73135E-19 2.09747E-19
 -1      1198 8.58878E-05-2.58205E-05-2.67893E-05 9.31429E-07 1.26036E-19-1.05223E-18
 -1      1199 8.66619E-05-2.58592E-05-2.70597E-05 2.27859E-07 9.31074E-20-2.95180E-18
 -1      1200 9.70832E-05-2.89371E-05-2.96297E-05-5.47287E-07 5.32043E-21-3.37140E-18
 -1      1201 1.11305E-04-3.33033E-05-3.32243E-05-9.15344E-07-1.30420E-19-2.60145E-18
 -1      1202 1.22909E-04-3.68966E-05-3.63483E-05-8.19495E-07-1.31528E-19-1.95114E-18
 -1      1203 1.28762E-04-3.86944E-05-3.81024E-05-4.95046E-07 1.39178E-19-3.59094E-18
 -1      1204 1.29163E-04-3.88052E-05-3.83934E-05-1.81608E-07-8.76414E-20-3.83952E-18
 -1      1205 1.26005E-04-3.78318E-05-3.76315E-05 2.41346E-08-9.56552E-21-2.39525E-18
 -1      1206 1.21211E-04-3.63735E-05-3.63235E-05 1.23429E-07 2.17711E-19-1.08809E-18
 -1      1207 1.16117E-04-3.48350E-05-3.48644E-05 1.52072E-07 1.24094E-19-2.07872E-18
 -1      1208 1.11441E-04-3.34294E-05-3.34890E-05 1.44204E-07-2.64782E-19-1.54525E-18
 -1      1209 1.07477E-04-3.22408E-05-3.23042E-05 1.21918E-07-6.95833E-20-1.20553E-18
 -1      1210 1.04275E-04-3.12816E-05-3.13378E-05 9.68204E-08 1.65303E-19-1.67034E-18
 -1      1211 1.01770E-04-3.05316E-05-3.05773E-05 7.39879E-08 2.00564E-19-3.25948E-18
 -1      1212 9.98570E-05-2.99586E-05-2.99941E-05 5.50738E-08-7.02591E-20-1.71727E-18
 -1      1213 9.84234E-05-2.95290E-05-2.95558E-05 4.01687E-08-1.72013E-19 1.68950E-19
 -1      1214 9.73679E-05-2.92124E-05-2.92324E-05 2.87671E-08-1.13935E-19 8.92022E-19
 -1      1215 9.66046E-05-2.89834E-05-2.89980E-05 2.02159E-08-1.90376E-19-1.00596E-18
 -1      1216 9.60634E-05-2.88209E-05-2.88314E-05 1.38984E-08-5.42552E-20-2.97864E-18
 -1      1217 9.56889E-05-2.87083E-05-2.87158E-05 9.29349E-09 3.88866E-20-5.14016E-18
 -1      1218 9.54376E-05-2.86326E-05-2.86379E-05 5.98312E-09-1.22933E-19-6.49116E-18
 -1      1219 9.52761E-05-2.85840E-05-2.85876E-05 3.64038E-09 2.72537E-20-5.59316E-18
 -1      1220 9.51790E-05-2.85546E-05-2.85570E-05 2.01277E-09-3.78141E-20-3.55181E-18
 -1      1221 9.51272E-05-2.85389E-05-2.85404E-05 9.06382E-10-5.78166E-19-1.40476E-18
 -1      1222 9.51064E-05-2.85325E-05-2.85335E-05 1.72535E-10 1.10484E-19-2.52146E-18
 -1      1223 9.51064E-05-2.85323E-05-2.85329E-05-3.03121E-10 1.96379E-19-6.25533E-18
 -1      1224 9.51196E-05-2.85362E-05-2.85365E-05-6.09444E-10-4.33598E-19-4.51826E-18
 -1      1225 9.51406E-05-2.85424E-05-2.85425E-05-8.15869E-10 1.04055E-19-4.87702E-18
 -1      1226 9.51655E-05-2.85498E-05-2.85497E-05-9.74551E-10 3.63985E-19-9.23823E-18
 -1      1227 9.51911E-05-2.85573E-05-2.85572E-05-1.12013E-09-3.60451E-19-8.56120E-18
 -1      1228 9.52143E-05-2.85642E-05-2.85638E-05-1.23002E-09-1.53933E-19-5.37337E-18
 -1      1229 9.52313E-05-2.85692E-05-2.85686E-05-1.05179E-09 7.75092E-19-6.34609E-18
 -1      1230 9.52377E-05-2.85714E-05-2.85713E-05 2.20405E-10-3.45577E-20-4.65410E-18
 -1      1231 9.52369E-05-2.85706E-05-2.85713E-05 1.31329E-10-5.17412E-18-3.76912E-19
 -1      1232 9.52391E-05-2.85772E-05-2.85686E-05-4.70241E-10-8.04235E-18 3.43664E-19
 -1      1233 9.52437E-05-2.85929E-05-2.85642E-05-1.10234E-09-1.41495E-18 1.08041E-18
 -1      1234 9.52495E-05-2.86125E-05-2.85588E-05-1.12769E-09 7.57302E-19-9.87835E-19
 -1      1235 9.52551E-05-2.86314E-05-2.85534E-05-9.39877E-10-1.18713E-18-8.06945E-19
 -1      1236 9.52598E-05-2.86472E-05-2.85487E-05-6.83527E-10-6.18374E-18 3.61703E-19
 -1      1237 9.52633E-05-2.86588E-05-2.85453E-05-4.43744E-10 3.34662E-19 1.12405E-18
 -1      1238 9.52654E-05-2.86658E-05-2.85432E-05-2.07157E-10 4.28506E-18 5.96169E-20
 -1      1239 9.52660E-05-2.86679E-05-2.85426E-05 1.33666E-11 3.90459E-18-6.51523E-19
 -1      1240 9.52652E-05-2.86653E-05-2.85434E-05 2.30989E-10 4.10048E-18-2.13112E-19
 -1      1241 9.52630E-05-2.86579E-05-2.85456E-05 4.59111E-10-1.57774E-18 4.50529E-19
 -1      1242 9.52595E-05-2.86461E-05-2.85491E-05 7.00238E-10-1.27636E-17-5.03916E-19
 -1      1243 9.52548E-05-2.86303E-05-2.85537E-05 9.32462E-10-1.21633E-17 9.82514E-19
 -1      1244 9.52492E-05-2.86115E-05-2.85591E-05 1.12519E-09-6.83107E-18 5.74610E-19
 -1      1245 9.52435E-05-2.85921E-05-2.85644E-05 1.28186E-09-6.40868E-18-3.52527E-19
 -1      1246 9.52393E-05-2.85772E-05-2.85687E-05 4.65286E-10-4.23306E-18-7.68087E-19
 -1      1247 9.52368E-05-2.85706E-05-2.85714E-05-7.57871E-11-1.68314E-18 2.60203E-19
 -1      1248 3.54186E-05-1.10072E-04 1.87132E-05-1.43590E-05 8.14168E-18 1.39525E-18
 -1      1249 1.85499E-05-7.05880E-05 1.09011E-05-2.71740E-05 1.27851E-17 4.52443E-18
 -1      1250 7.80318E-06-1.53075E-05-4.21194E-06-5.53438E-06 1.42979E-17 8.70411E-18
 -1      1251 3.19879E-05 2.07058E-05-2.43712E-05 4.72026E-05 1.39134E-17 1.26513E-17
 -1      1252 1.04026E-04 1.29988E-05-4.57357E-05 9.87048E-05 1.05100E-17 1.45249E-17
 -1      1253 2.04954E-04-3.13605E-05-6.39075E-05 1.10732E-04 6.68817E-18 1.57989E-17
 -1      1254 2.92825E-04-8.07968E-05-7.62674E-05 6.61954E-05 2.43596E-18 9.41223E-18
 -1      1255 3.21829E-04-9.76213E-05-7.96972E-05-1.56279E-05 9.71017E-19-1.27320E-18
 -1      1256 2.65210E-04-6.28597E-05-7.29052E-05-8.71941E-05 4.80352E-18-1.39176E-17
 -1      1257 1.61307E-04-9.17513E-06-5.63935E-05-1.10240E-04 1.27394E-17-2.22194E-17
 -1      1258 6.26062E-05 2.17918E-05-3.46641E-05-7.39112E-05 2.09505E-17-2.37118E-17
 -1      1259 1.34097E-05 4.18012E-06-1.25306E-05-1.55938E-05 2.29986E-17-1.75183E-17
 -1      1260 1.15822E-05-4.67053E-05 4.94153E-06 2.23672E-05 1.94428E-17-9.31059E-18
 -1      1261 2.84804E-05-9.62610E-05 1.61960E-05 2.30125E-05 9.55030E-18-3.26923E-18
 -1      1262 3.76366E-05-1.15748E-04 1.96495E-05-1.57701E-06-3.64012E-18-1.08182E-18
 -1      1263 2.56187E-05-8.72744E-05 1.43216E-05-2.33090E-05-1.43022E-17-4.18784E-18
 -1      1264 9.03914E-06-3.16587E-05 1.21336E-06-1.41796E-05-2.05948E-17-1.07001E-17
 -1      1265 1.67740E-05 1.53606E-05-1.69665E-05 2.85347E-05-2.24938E-17-1.77572E-17
 -1      1266 7.09477E-05 2.40932E-05-3.78720E-05 8.38201E-05-1.88677E-17-2.23380E-17
 -1      1267 1.62121E-04-9.64494E-06-5.69648E-05 1.13114E-04-1.12732E-17-2.03390E-17
 -1      1268 2.52965E-04-5.88636E-05-7.06704E-05 9.11407E-05-4.37175E-18-1.42259E-17
 -1      1269 3.06230E-04-9.12131E-05-7.74691E-05 2.53514E-05-9.77158E-19-3.93362E-18
 -1      1270 2.90438E-04-8.14090E-05-7.55532E-05-5.55522E-05-1.59872E-18 8.09806E-18
 -1      1271 2.12769E-04-3.60734E-05-6.48969E-05-1.06783E-04-6.39256E-18 1.52424E-17
 -1      1272 1.14382E-04 1.11534E-05-4.81280E-05-1.04244E-04-1.31553E-17 1.97782E-17
 -1      1273 3.81719E-05 2.62248E-05-2.77813E-05-5.81617E-05-1.73201E-17 1.68051E-17
 -1      1274 8.05055E-06-4.92700E-06-7.29022E-06-3.24529E-06-1.60564E-17 1.07438E-17
 -1      1275 1.70609E-05-6.28323E-05 9.24137E-06 2.34901E-05-1.22159E-17 4.72094E-18
 -1      1276 3.46231E-05-1.07438E-04 1.82499E-05 1.34739E-05-3.98021E-18 1.60399E-18
 -1      1277 1.04908E-04-2.21401E-05-3.80019E-05-1.65615E-05-5.58936E-19 9.75528E-18
 -1      1278 9.13993E-05-6.98757E-06-3.63281E-05-1.89602E-05-1.54684E-18-4.06893E-19
 -1      1279 9.36764E-05-7.10052E-06-3.74633E-05-2.43749E-05-1.97496E-18 1.96146E-18
 -1      1280 8.68535E-05-4.29171E-06-3.54455E-05-1.46241E-05-1.55023E-18-3.69166E-18
 -1      1281 8.82055E-05-4.30280E-06-3.59277E-05-1.71591E-05-1.75029E-18-2.28342E-18
 -1      1282 9.33371E-05-1.08656E-05-3.54225E-05-1.73603E-05-2.71159E-18-3.36907E-19
 -1      1283 8.46356E-05-3.22799E-06-3.49048E-05-1.09078E-05-1.27373E-18-5.27259E-18
 -1      1284 8.54471E-05-3.21099E-06-3.51881E-05-1.27461E-05-1.42950E-18-4.57980E-18
 -1      1285 8.87684E-05-7.57157E-06-3.48759E-05-1.35328E-05-2.43125E-18-3.04733E-18
 -1      1286 8.32041E-05-2.60430E-06-3.45420E-05-7.86267E-06-9.05041E-19-6.03549E-18
 -1      1287 8.37609E-05-2.59797E-06-3.47300E-05-9.34301E-06-1.05813E-18-5.68452E-18
 -1      1288 8.62272E-05-5.87890E-06-3.45005E-05-1.00548E-05-1.91210E-18-4.43549E-18
 -1      1289 8.21926E-05-2.18115E-06-3.42834E-05-5.35759E-06-6.30722E-19-6.32199E-18
 -1      1290 8.25926E-05-2.18034E-06-3.44152E-05-6.57654E-06-7.24928E-19-6.18492E-18
 -1      1291 8.45626E-05-4.82360E-06-3.42267E-05-7.18169E-06-1.36087E-18-5.01835E-18
 -1      1292 8.14743E-05-1.88515E-06-3.40997E-05-3.16842E-06-3.05958E-19-6.38896E-18
 -1      1293 8.17516E-05-1.88693E-06-3.41898E-05-4.24044E-06-4.21161E-19-6.36521E-18
 -1      1294 8.33825E-05-4.10484E-06-3.40216E-05-4.76918E-06-8.86718E-19-5.31255E-18
 -1      1295 8.10520E-05-1.70115E-06-3.39944E-05-1.21762E-06-1.99053E-20-6.43922E-18
 -1      1296 8.11995E-05-1.70290E-06-3.40413E-05-2.18503E-06-8.10041E-20-6.41117E-18
 -1      1297 8.25831E-05-3.62881E-06-3.38789E-05-2.65801E-06-3.25208E-19-5.36104E-18
 -1      1298 8.09363E-05-1.62731E-06-3.39715E-05 6.16761E-07 2.20262E-19-6.36990E-18
 -1      1299 8.09471E-05-1.62800E-06-3.39735E-05-3.08458E-07 1.34710E-19-6.42361E-18
 -1      1300 8.21582E-05-3.37394E-06-3.38040E-05-7.52777E-07 1.06779E-19-5.38897E-18
 -1      1301 8.11411E-05-1.66804E-06-3.40344E-05 2.46224E-06 4.90022E-19-6.19164E-18
 -1      1302 8.10097E-05-1.66734E-06-3.39900E-05 1.51411E-06 3.61713E-19-6.28808E-18
 -1      1303 8.21205E-05-3.34032E-06-3.38020E-05 1.06702E-06 4.67553E-19-5.31389E-18
 -1      1304 8.16747E-05-1.83139E-06-3.41836E-05 4.45478E-06 7.34457E-19-5.98337E-18
 -1      1305 8.13990E-05-1.82902E-06-3.40926E-05 3.41412E-06 6.56517E-19-6.12332E-18
 -1      1306 8.24864E-05-3.53955E-06-3.38749E-05 2.92828E-06 9.43568E-19-5.15887E-18
 -1      1307 8.25277E-05-2.11982E-06-3.44147E-05 6.69848E-06 9.87111E-19-5.47214E-18
 -1      1308 8.21138E-05-2.12038E-06-3.42784E-05 5.51283E-06 8.86129E-19-5.77271E-18
 -1      1309 8.32636E-05-3.98743E-06-3.40193E-05 4.94745E-06 1.32899E-18-4.86728E-18
 -1      1310 8.37684E-05-2.56536E-06-3.47461E-05 9.43435E-06 1.39530E-18-4.66128E-18
 -1      1311 8.31798E-05-2.57072E-06-3.45494E-05 7.97241E-06 1.21274E-18-5.13490E-18
 -1      1312 8.44823E-05-4.72467E-06-3.42328E-05 7.28438E-06 1.83249E-18-4.28509E-18
 -1      1313 8.55359E-05-3.22218E-06-3.52204E-05 1.28376E-05 1.73300E-18-3.21118E-18
 -1      1314 8.46942E-05-3.24308E-06-3.49285E-05 1.09911E-05 1.54679E-18-4.09274E-18
 -1      1315 8.62587E-05-5.85586E-06-3.45216E-05 1.01257E-05 2.37904E-18-3.38231E-18
 -1      1316 8.83751E-05-4.30540E-06-3.59754E-05 1.72673E-05 1.97687E-18-5.07796E-19
 -1      1317 8.69817E-05-4.34629E-06-3.54802E-05 1.47548E-05 1.76503E-18-2.14456E-18
 -1      1318 8.89230E-05-7.64861E-06-3.49079E-05 1.36367E-05 2.83597E-18-1.72313E-18
 -1      1319 9.44885E-05-7.15713E-06-3.73680E-05 2.36585E-05 1.69978E-18 4.64635E-18
 -1      1320 9.13017E-05-6.77541E-06-3.63719E-05 1.95081E-05 1.66564E-18 1.48654E-18
 -1      1321 9.36373E-05-1.11000E-05-3.54350E-05 1.78541E-05 2.97054E-18 1.33884E-18
 -1      1322 1.23497E-04-2.49972E-05-3.90605E-05 2.74358E-05 8.37927E-19 1.45855E-17
 -1      1323 1.00868E-04-1.47242E-05-3.75366E-05 2.28831E-05 8.53068E-19 7.69233E-18
 -1      1324 1.02830E-04-1.97965E-05-3.56815E-05 1.99046E-05 2.76219E-18 6.04909E-18
 -1      1325 1.03336E-04-2.80863E-05-3.49259E-05 6.64469E-06 1.51865E-18 1.39949E-17
 -1      1326 1.06072E-04-3.05458E-05-3.37746E-05-7.24821E-06-1.62217E-18 1.03432E-17
 -1      1327 9.97806E-05-2.83439E-05-3.11799E-05-4.38378E-06-1.48803E-18 8.48558E-18
 -1      1328 9.73908E-05-2.84226E-05-2.98100E-05-1.89651E-06-1.13346E-18 7.69061E-18
 -1      1329 9.57206E-05-2.82940E-05-2.89426E-05-1.45876E-06-1.10649E-18 6.00914E-18
 -1      1330 1.01192E-04-2.86056E-05-3.14746E-05-6.72020E-06-2.58832E-18 4.36998E-18
 -1      1331 9.44825E-05-2.80578E-05-2.84546E-05-2.24953E-07-9.56922E-19 5.36325E-18
 -1      1332 9.43500E-05-2.81338E-05-2.83293E-05-1.01547E-07-8.33891E-19 4.03217E-18
 -1      1333 9.72403E-05-2.85196E-05-2.95796E-05-1.94083E-06-2.01459E-18 3.10256E-18
 -1      1334 9.41095E-05-2.80949E-05-2.82462E-05 5.20513E-07-6.25802E-19 3.37484E-18
 -1      1335 9.46964E-05-2.83202E-05-2.84077E-05 5.99302E-07-6.38795E-19 2.47604E-18
 -1      1336 9.59744E-05-2.85002E-05-2.89534E-05 2.45371E-07-1.53900E-18 1.92750E-18
 -1      1337 9.50186E-05-2.84214E-05-2.85133E-05 9.55144E-07-5.57814E-19 2.17760E-18
 -1      1338 9.59911E-05-2.87442E-05-2.87984E-05 1.00672E-06-4.90530E-19 1.53063E-18
 -1      1339 9.60827E-05-2.86643E-05-2.89133E-05 1.41702E-06-1.12085E-18 1.04364E-18
 -1      1340 9.66493E-05-2.89412E-05-2.90048E-05 1.21681E-06-2.39388E-19 1.20219E-18
 -1      1341 9.78409E-05-2.93266E-05-2.93525E-05 1.24752E-06-1.82059E-19 8.35704E-19
 -1      1342 9.70453E-05-2.90197E-05-2.91688E-05 2.10563E-06-7.32961E-19 6.13474E-19
 -1      1343 9.86900E-05-2.95830E-05-2.96126E-05 1.34390E-06-1.36454E-19 6.97148E-19
 -1      1344 9.99743E-05-2.99978E-05-2.99850E-05 1.35238E-06-2.37746E-19 4.00911E-19
 -1      1345 9.85247E-05-2.95180E-05-2.95839E-05 2.48386E-06-3.89885E-19 1.35684E-19
 -1      1346 1.00894E-04-3.02817E-05-3.02613E-05 1.32786E-06-3.44415E-19 3.57951E-19
 -1      1347 1.02133E-04-3.06866E-05-3.06177E-05 1.30721E-06-3.25735E-19-1.41448E-19
 -1      1348 1.00272E-04-3.01052E-05-3.00732E-05 2.58145E-06-5.51072E-19-1.91972E-20
 -1      1349 1.02999E-04-3.09638E-05-3.08707E-05 1.13306E-06-3.28586E-19-2.67669E-19
 -1      1350 1.04017E-04-3.13055E-05-3.11600E-05 1.07273E-06-3.29392E-19-7.48857E-19
 -1      1351 1.02052E-04-3.07223E-05-3.05613E-05 2.35573E-06-5.78573E-19-2.00012E-19
 -1      1352 1.04685E-04-3.15346E-05-3.13448E-05 7.13995E-07-2.67133E-19-8.45974E-19
 -1      1353 1.05263E-04-3.17429E-05-3.15042E-05 6.03408E-07-7.56242E-20-1.00010E-18
 -1      1354 1.03604E-04-3.12943E-05-3.09682E-05 1.72958E-06-4.98433E-19-2.49332E-19
 -1      1355 1.05572E-04-3.18728E-05-3.15731E-05 4.25339E-08-3.37920E-20-1.38457E-18
 -1      1356 1.05472E-04-3.18648E-05-3.15365E-05-1.21576E-07-2.24454E-19-1.69980E-18
 -1      1357 1.04630E-04-3.17204E-05-3.12093E-05 6.36876E-07-2.24030E-19-6.10997E-19
 -1      1358 1.05268E-04-3.18392E-05-3.14488E-05-8.49017E-07-2.66518E-19-1.66601E-18
 -1      1359 1.04295E-04-3.15396E-05-3.11662E-05-1.05127E-06-1.71736E-19-2.01757E-18
 -1      1360 1.04809E-04-3.18723E-05-3.12060E-05-9.07184E-07-4.07443E-19-1.53103E-18
 -1      1361 1.03483E-04-3.13118E-05-3.09048E-05-1.81814E-06 3.77658E-20-1.81899E-18
 -1      1362 1.01601E-04-3.06912E-05-3.03736E-05-2.01341E-06-9.35243E-20-1.79989E-18
 -1      1363 1.03876E-04-3.16148E-05-3.09096E-05-2.71536E-06-1.24633E-19-1.28673E-18
 -1      1364 1.00223E-04-3.02535E-05-2.99648E-05-2.58883E-06-2.32800E-19-1.76418E-18
 -1      1365 9.76699E-05-2.93782E-05-2.92590E-05-2.70288E-06-3.46920E-19-2.19501E-18
 -1      1366 1.01752E-04-3.08616E-05-3.03322E-05-4.36132E-06-3.30316E-19-1.23809E-18
 -1      1367 9.59763E-05-2.87990E-05-2.87836E-05-2.80910E-06-4.99367E-19-2.14874E-18
 -1      1368 9.33170E-05-2.78604E-05-2.80609E-05-2.76501E-06-6.38759E-19-2.62043E-18
 -1      1369 9.87043E-05-2.96665E-05-2.95715E-05-5.22371E-06-5.69092E-19-1.10583E-18
 -1      1370 9.17607E-05-2.73003E-05-2.76426E-05-2.22033E-06-1.59533E-19-2.93992E-18
 -1      1371 8.97665E-05-2.65813E-05-2.71078E-05-1.99009E-06-1.22721E-19-3.07986E-18
 -1      1372 9.54314E-05-2.82994E-05-2.88062E-05-4.72348E-06-5.72525E-19-1.10099E-18
 -1      1373 8.88696E-05-2.62468E-05-2.68745E-05-8.68111E-07-1.60142E-19-3.47928E-18
 -1      1374 8.82173E-05-2.60067E-05-2.67019E-05-5.13090E-07-1.14270E-19-3.59028E-18
 -1      1375 9.29366E-05-2.72123E-05-2.82515E-05-2.70584E-06-2.88521E-19-1.77510E-18
 -1      1376 8.83267E-05-2.60428E-05-2.67332E-05 8.25842E-07-1.33858E-19-3.73116E-18
 -1      1377 8.92695E-05-2.63801E-05-2.69872E-05 1.17379E-06-1.59388E-19-3.81478E-18
 -1      1378 9.21292E-05-2.68435E-05-2.80825E-05 3.01550E-07-3.00538E-19-2.60816E-18
 -1      1379 9.03664E-05-2.67787E-05-2.72788E-05 2.25209E-06-1.34605E-19-3.88772E-18
 -1      1380 9.26000E-05-2.75744E-05-2.78822E-05 2.46523E-06 5.75453E-20-3.84976E-18
 -1      1381 9.33545E-05-2.73635E-05-2.83623E-05 3.25428E-06-3.63483E-19-2.50322E-18
 -1      1382 9.43105E-05-2.81787E-05-2.83484E-05 2.94901E-06 2.08115E-19-4.16285E-18
 -1      1383 9.71379E-05-2.91662E-05-2.91215E-05 2.97680E-06-7.95599E-20-3.92176E-18
 -1      1384 9.61977E-05-2.85650E-05-2.90156E-05 5.14085E-06-1.65522E-19-3.28186E-18
 -1      1385 9.89419E-05-2.97717E-05-2.96346E-05 2.82660E-06-1.12354E-19-3.57837E-18
 -1      1386 1.01611E-04-3.06764E-05-3.03772E-05 2.70523E-06 2.55341E-19-3.65511E-18
 -1      1387 9.97247E-05-2.99992E-05-2.98627E-05 5.51129E-06 2.10013E-20-3.96527E-18
 -1      1388 1.03079E-04-3.11338E-05-3.08182E-05 2.12160E-06-4.62559E-21-3.87700E-18
 -1      1389 1.05067E-04-3.17807E-05-3.13830E-05 1.92964E-06-4.02476E-19-4.18208E-18
 -1      1390 1.02961E-04-3.12296E-05-3.06921E-05 4.58607E-06-8.73701E-20-3.79671E-18
 -1      1391 1.05979E-04-3.20328E-05-3.16781E-05 1.18875E-06-1.08897E-19-3.82099E-18
 -1      1392 1.07087E-04-3.23706E-05-3.20022E-05 9.97356E-07 2.11758E-22-3.89419E-18
 -1      1393 1.05263E-04-3.20156E-05-3.13345E-05 2.96317E-06-2.09111E-21-3.64219E-18
 -1      1394 1.07420E-04-3.24312E-05-3.21309E-05 3.16972E-07 4.19351E-19-3.48428E-18
 -1      1395 1.07713E-04-3.24978E-05-3.22248E-05 1.67018E-07 3.28622E-19-2.90913E-18
 -1      1396 1.06414E-04-3.23251E-05-3.17032E-05 1.24425E-06 5.30454E-19-2.52825E-18
 -1      1397 1.07569E-04-3.24152E-05-3.22071E-05-3.40910E-07-2.35240E-19-2.51807E-18
 -1      1398 1.07250E-04-3.22883E-05-3.21233E-05-4.37545E-07 1.44839E-19-2.62892E-18
 -1      1399 1.06518E-04-3.22534E-05-3.17934E-05-1.79449E-07 2.73853E-19-1.70563E-18
 -1      1400 1.06777E-04-3.21163E-05-3.19993E-05-7.50213E-07 1.93332E-19-2.91635E-18
 -1      1401 1.06079E-04-3.18767E-05-3.18026E-05-7.99197E-07 2.17641E-19-3.07437E-18
 -1      1402 1.05842E-04-3.19345E-05-3.16551E-05-1.15441E-06 1.13191E-19-1.08898E-18
 -1      1403 1.05424E-04-3.16612E-05-3.16155E-05-9.44775E-07 3.26009E-19-3.72984E-18
 -1      1404 1.04548E-04-3.13738E-05-3.13636E-05-9.58596E-07-2.11384E-19-3.68567E-18
 -1      1405 1.04682E-04-3.14882E-05-3.13611E-05-1.69331E-06 1.57922E-19-2.41642E-18
 -1      1406 1.03825E-04-3.11480E-05-3.11500E-05-9.83417E-07-2.14016E-19-3.28325E-18
 -1      1407 1.02916E-04-3.08575E-05-3.08858E-05-9.74834E-07-2.24456E-20-2.87325E-18
 -1      1408 1.03294E-04-3.10020E-05-3.09831E-05-1.88858E-06 3.43139E-20-2.67169E-18
 -1      1409 1.02207E-04-3.06426E-05-3.06722E-05-9.23991E-07-5.09874E-20-3.32610E-18
 -1      1410 1.01356E-04-3.03756E-05-3.04230E-05-9.03245E-07 4.82997E-19-2.98886E-18
 -1      1411 1.01870E-04-3.05313E-05-3.05789E-05-1.85069E-06-2.06579E-19-2.34797E-18
 -1      1412 1.00710E-04-3.01836E-05-3.02260E-05-8.12468E-07-5.30822E-19-3.27315E-18
 -1      1413 9.99635E-05-2.99530E-05-3.00066E-05-7.86722E-07-8.34272E-19-4.09372E-18
 -1      1414 1.00529E-04-3.01071E-05-3.01887E-05-1.67629E-06-1.92372E-19-4.32282E-18
 -1      1415 9.94039E-05-2.97890E-05-2.98347E-05-6.80924E-07-2.02997E-19-3.72739E-18
 -1      1416 9.87812E-05-2.95988E-05-2.96508E-05-6.54680E-07 4.98542E-21-3.75545E-18
 -1      1417 9.93415E-05-2.97429E-05-2.98364E-05-1.43755E-06-5.30099E-19-4.15174E-18
 -1      1418 9.83156E-05-2.94637E-05-2.95071E-05-5.49479E-07-1.01957E-19-4.49205E-18
 -1      1419 9.78153E-05-2.93124E-05-2.93589E-05-5.25260E-07-2.52177E-19-4.89718E-18
 -1      1420 9.83343E-05-2.94417E-05-2.95335E-05-1.18251E-06-4.66779E-19-4.16382E-18
 -1      1421 9.74405E-05-2.92045E-05-2.92428E-05-4.29352E-07 7.23990E-20-4.60119E-18
 -1      1422 9.70516E-05-2.90880E-05-2.91272E-05-4.08351E-07 1.28167E-19-4.76780E-18
 -1      1423 9.75100E-05-2.92001E-05-2.92830E-05-9.39959E-07 5.36551E-20-3.70622E-18
 -1      1424 9.67584E-05-2.90041E-05-2.90363E-05-3.25729E-07 1.71340E-19-3.79730E-18
 -1      1425 9.64650E-05-2.89170E-05-2.89488E-05-3.08304E-07 5.23803E-19-3.29090E-18
 -1      1426 9.68555E-05-2.90115E-05-2.90822E-05-7.24857E-07 2.22516E-19-2.51483E-18
 -1      1427 9.62418E-05-2.88534E-05-2.88795E-05-2.40012E-07 3.93465E-19-3.06726E-18
 -1      1428 9.60271E-05-2.87902E-05-2.88153E-05-2.26043E-07 4.55462E-19-2.78060E-18
 -1      1429 9.63499E-05-2.88680E-05-2.89260E-05-5.43101E-07 8.48183E-19-1.71719E-18
 -1      1430 9.58618E-05-2.87434E-05-2.87639E-05-1.71421E-07 1.43206E-19-2.63379E-18
 -1      1431 9.57096E-05-2.86991E-05-2.87182E-05-1.60544E-07-1.98665E-19-3.18570E-18
 -1      1432 9.59696E-05-2.87616E-05-2.88076E-05-3.95074E-07 2.29664E-19-3.09102E-18
 -1      1433 9.55907E-05-2.86655E-05-2.86812E-05-1.18066E-07-6.94246E-20-3.16969E-18
 -1      1434 9.54870E-05-2.86358E-05-2.86499E-05-1.09815E-07-9.97481E-20-3.03239E-18
 -1      1435 9.56912E-05-2.86848E-05-2.87203E-05-2.78111E-07-3.30158E-19-1.59666E-18
 -1      1436 9.54043E-05-2.86125E-05-2.86242E-05-7.76166E-08 1.02126E-20-3.00521E-18
 -1      1437 9.53371E-05-2.85936E-05-2.86038E-05-7.15126E-08 5.26718E-19-2.53114E-18
 -1      1438 9.54937E-05-2.86312E-05-2.86578E-05-1.88125E-07-1.03014E-19-2.38514E-18
 -1      1439 9.52821E-05-2.85782E-05-2.85867E-05-4.77033E-08 5.09501E-19-2.68899E-18
 -1      1440 9.52417E-05-2.85671E-05-2.85743E-05-4.33021E-08-2.48671E-19-1.91844E-18
 -1      1441 9.53587E-05-2.85952E-05-2.86147E-05-1.20599E-07 1.09437E-19-1.43843E-18
 -1      1442 9.52072E-05-2.85575E-05-2.85636E-05-2.61388E-08-4.52344E-19-2.27315E-18
 -1      1443 9.51861E-05-2.85521E-05-2.85570E-05-2.30522E-08-2.44314E-19-3.10168E-18
 -1      1444 9.52707E-05-2.85724E-05-2.85863E-05-7.11655E-08-1.88782E-19-2.19120E-18
 -1      1445 9.51665E-05-2.85467E-05-2.85509E-05-1.10227E-08-1.09872E-19-3.29986E-18
 -1      1446 9.51587E-05-2.85452E-05-2.85483E-05-8.92742E-09-1.27049E-19-2.64759E-18
 -1      1447 9.52175E-05-2.85592E-05-2.85688E-05-3.59146E-08-3.08300E-19-2.29336E-18
 -1      1448 9.51497E-05-2.85428E-05-2.85455E-05-7.80574E-10-6.95000E-19-2.68781E-18
 -1      1449 9.51509E-05-2.85437E-05-2.85457E-05 5.81884E-10-5.04591E-19-3.09666E-18
 -1      1450 9.51893E-05-2.85527E-05-2.85592E-05-1.15250E-08-5.92792E-19-2.46465E-18
 -1      1451 9.51491E-05-2.85434E-05-2.85451E-05 5.83516E-09-2.31339E-20-1.45492E-18
 -1      1452 9.51560E-05-2.85459E-05-2.85470E-05 6.66188E-09 7.43246E-19-1.27392E-18
 -1      1453 9.51785E-05-2.85510E-05-2.85551E-05 4.69739E-09 5.28085E-20 5.44973E-20
 -1      1454 9.51589E-05-2.85469E-05-2.85479E-05 9.75917E-09 9.64519E-19-1.21030E-18
 -1      1455 9.51691E-05-2.85503E-05-2.85507E-05 1.01895E-08 1.17105E-18-3.97816E-19
 -1      1456 9.51793E-05-2.85524E-05-2.85547E-05 1.48314E-08 1.61595E-18 9.24826E-19
 -1      1457 9.51747E-05-2.85521E-05-2.85525E-05 1.16276E-08 8.46820E-19-2.17690E-19
 -1      1458 9.51863E-05-2.85559E-05-2.85558E-05 1.17446E-08 7.87279E-19 9.59051E-19
 -1      1459 9.51874E-05-2.85556E-05-2.85566E-05 2.03676E-08 1.31875E-18-2.64167E-20
 -1      1460 9.51930E-05-2.85580E-05-2.85578E-05 1.17812E-08 1.24093E-18 5.14626E-19
 -1      1461 9.52045E-05-2.85618E-05-2.85611E-05 1.16039E-08 5.23463E-19 1.41551E-18
 -1      1462 9.51994E-05-2.85600E-05-2.85598E-05 2.22287E-08 1.19890E-18 1.76222E-19
 -1      1463 9.52112E-05-2.85639E-05-2.85630E-05 1.02540E-08 1.11281E-19 1.89741E-18
 -1      1464 9.52207E-05-2.85671E-05-2.85657E-05 9.71473E-09 3.45210E-19 2.67056E-18
 -1      1465 9.52126E-05-2.85647E-05-2.85633E-05 2.07484E-08 7.86982E-19 1.18680E-21
 -1      1466 9.52263E-05-2.85691E-05-2.85673E-05 6.76520E-09-3.74107E-19 2.77086E-18
 -1      1467 9.52324E-05-2.85711E-05-2.85690E-05 5.87658E-09-6.87330E-19 2.30701E-18
 -1      1468 9.52248E-05-2.85694E-05-2.85664E-05 1.58083E-08 1.09911E-19 1.30318E-18
 -1      1469 9.52367E-05-2.85720E-05-2.85704E-05 6.27120E-10-1.91110E-18 2.14738E-18
 -1      1470 9.52351E-05-2.85735E-05-2.85691E-05 6.11645E-09-2.05536E-18 7.53136E-19
 -1      1471 9.83437E-05-2.89071E-05-3.02786E-05 2.42514E-06 1.38365E-18 1.09718E-17
 -1      1472 1.03628E-04-2.97260E-05-3.24765E-05 3.85738E-06 1.20035E-18 1.30858E-17
 -1      1473 1.03635E-04-2.72071E-05-3.30697E-05 1.16311E-05 2.36031E-18 8.51893E-18
 -1      1474 9.49342E-05-2.82908E-05-2.86310E-05 5.64249E-07 9.86145E-19 8.27736E-18
 -1      1475 9.62513E-05-2.82571E-05-2.93503E-05 8.97548E-07 9.93437E-19 9.92118E-18
 -1      1476 9.87120E-05-2.87095E-05-3.02006E-05 3.76119E-06 2.08598E-18 6.51810E-18
 -1      1477 9.44097E-05-2.82419E-05-2.83394E-05-3.64544E-07 6.95983E-19 6.31834E-18
 -1      1478 9.43151E-05-2.80398E-05-2.83939E-05-1.66590E-07 6.63260E-19 7.37850E-18
 -1      1479 9.63502E-05-2.85393E-05-2.91135E-05 6.22555E-07 1.54013E-18 4.82864E-18
 -1      1480 9.55083E-05-2.85954E-05-2.86586E-05-9.35151E-07 5.88847E-19 4.82332E-18
 -1      1481 9.46655E-05-2.82539E-05-2.84198E-05-7.90218E-07 5.63671E-19 5.81266E-18
 -1      1482 9.61039E-05-2.86281E-05-2.89406E-05-9.84617E-07 1.16634E-18 3.45124E-18
 -1      1483 9.76920E-05-2.92524E-05-2.93238E-05-1.37174E-06 3.11040E-19 3.73688E-18
 -1      1484 9.63356E-05-2.87827E-05-2.89194E-05-1.24537E-06 4.05186E-19 4.38702E-18
 -1      1485 9.71989E-05-2.90086E-05-2.92488E-05-2.03812E-06 8.87664E-19 2.68818E-18
 -1      1486 1.00742E-04-3.01659E-05-3.02476E-05-1.75882E-06 2.17815E-19 3.23335E-18
 -1      1487 9.89546E-05-2.95734E-05-2.97151E-05-1.63544E-06 1.82489E-19 3.52609E-18
 -1      1488 9.92545E-05-2.96406E-05-2.98642E-05-2.87295E-06 4.93635E-19 2.12628E-18
 -1      1489 1.04554E-04-3.13117E-05-3.13946E-05-2.11807E-06 1.54721E-19 2.75141E-18
 -1      1490 1.02369E-04-3.05992E-05-3.07469E-05-1.99354E-06 1.63236E-19 3.00095E-18
 -1      1491 1.02081E-04-3.04947E-05-3.07133E-05-3.61057E-06 3.29201E-19 1.74235E-18
 -1      1492 1.09018E-04-3.26663E-05-3.27276E-05-2.42107E-06 2.72321E-19 2.14731E-18
 -1      1493 1.06483E-04-3.18452E-05-3.19818E-05-2.30362E-06 1.91290E-19 2.58484E-18
 -1      1494 1.05556E-04-3.15532E-05-3.17502E-05-4.25901E-06 3.28604E-19 1.28269E-18
 -1      1495 1.13910E-04-3.41764E-05-3.41688E-05-2.57629E-06 2.21441E-19 1.76913E-18
 -1      1496 1.11152E-04-3.32865E-05-3.33683E-05-2.49311E-06 1.96910E-19 2.00022E-18
 -1      1497 1.09533E-04-3.27961E-05-3.29170E-05-4.72017E-06 4.64067E-19 1.06427E-18
 -1      1498 1.18750E-04-3.57167E-05-3.55592E-05-2.40890E-06 1.50598E-19 1.69359E-18
 -1      1499 1.16061E-04-3.48551E-05-3.47982E-05-2.41522E-06 1.43820E-19 1.81416E-18
 -1      1500 1.13752E-04-3.41786E-05-3.41139E-05-4.76365E-06 2.58163E-19 6.80644E-19
 -1      1501 1.22663E-04-3.70354E-05-3.66238E-05-1.66248E-06 3.92944E-20 1.36953E-18
 -1      1502 1.20589E-04-3.63903E-05-3.60688E-05-1.84479E-06 9.06590E-20 1.57053E-18
 -1      1503 1.17731E-04-3.55933E-05-3.51731E-05-4.00923E-06 2.10680E-19 8.39105E-19
 -1      1504 1.24322E-04-3.77098E-05-3.69822E-05-8.63053E-08 3.62226E-19 1.53506E-18
 -1      1505 1.23690E-04-3.75752E-05-3.68649E-05-5.37796E-07 1.02120E-19 1.54337E-18
 -1      1506 1.20691E-04-3.68122E-05-3.58552E-05-1.99551E-06-3.39343E-20 1.02963E-18
 -1      1507 1.22225E-04-3.71845E-05-3.62684E-05 2.30658E-06 8.44717E-20 1.58988E-18
 -1      1508 1.23951E-04-3.78964E-05-3.68087E-05 1.56984E-06-1.39893E-20 1.54565E-18
 -1      1509 1.21574E-04-3.74251E-05-3.59019E-05 1.53231E-06 7.46051E-20 1.54895E-18
 -1      1510 1.15573E-04-3.50410E-05-3.43928E-05 4.83145E-06 5.89257E-19 7.51742E-19
 -1      1511 1.20071E-04-3.67544E-05-3.56325E-05 4.00968E-06 4.18064E-19 1.34403E-18
 -1      1512 1.19358E-04-3.68572E-05-3.51717E-05 6.03911E-06 4.74153E-19 1.01538E-18
 -1      1513 1.05625E-04-3.15569E-05-3.18273E-05 6.00231E-06-6.21080E-20 1.57760E-19
 -1      1514 1.11969E-04-3.39002E-05-3.34530E-05 5.55219E-06 2.47670E-19 2.56757E-19
 -1      1515 1.13855E-04-3.47078E-05-3.38208E-05 9.63277E-06 6.15015E-19 5.57559E-19
 -1      1516 9.64340E-05-2.81777E-05-2.95920E-05 4.32061E-06 1.79253E-19-4.09699E-19
 -1      1517 1.02001E-04-3.00965E-05-3.09512E-05 4.71006E-06 5.58645E-20-2.82591E-19
 -1      1518 1.06689E-04-3.13896E-05-3.23512E-05 9.55477E-06 1.33699E-19-1.94950E-19
 -1      1519 9.31003E-05-2.69389E-05-2.87977E-05 4.66053E-08 8.63127E-19-2.04133E-18
 -1      1520 9.48402E-05-2.72745E-05-2.92062E-05 1.20028E-06 6.76779E-19-1.09908E-18
 -1      1521 1.01431E-04-2.86474E-05-3.14318E-05 4.40391E-06 1.19178E-18-1.93986E-18
 -1      1522 9.78472E-05-2.87536E-05-2.98853E-05-4.33218E-06-1.64430E-19-3.22910E-18
 -1      1523 9.46298E-05-2.72358E-05-2.91116E-05-3.12285E-06 4.17031E-19-2.61003E-18
 -1      1524 1.01384E-04-2.84483E-05-3.15114E-05-3.48602E-06 1.09135E-18-2.61629E-18
 -1      1525 1.07855E-04-3.24085E-05-3.23065E-05-6.17038E-06-4.04255E-19-2.78208E-18
 -1      1526 1.01550E-04-2.99812E-05-3.07473E-05-5.60444E-06-4.04405E-19-3.10861E-18
 -1      1527 1.06680E-04-3.10671E-05-3.25528E-05-9.32670E-06-1.25586E-19-2.99831E-18
 -1      1528 1.17909E-04-3.58490E-05-3.49387E-05-5.09927E-06-4.53990E-19-2.21647E-18
 -1      1529 1.11686E-04-3.37488E-05-3.33146E-05-5.26405E-06-2.61071E-19-2.56895E-18
 -1      1530 1.14107E-04-3.46079E-05-3.40921E-05-1.02194E-05-6.35592E-19-2.43271E-18
 -1      1531 1.24281E-04-3.78160E-05-3.68089E-05-2.58498E-06 2.88176E-19-2.18222E-18
 -1      1532 1.20344E-04-3.66991E-05-3.56971E-05-3.11872E-06 1.22370E-19-2.03060E-18
 -1      1533 1.20055E-04-3.71106E-05-3.55038E-05-7.07276E-06 6.69950E-20-2.26213E-18
 -1      1534 1.26119E-04-3.82121E-05-3.75077E-05-1.79109E-07 2.42556E-19-3.08174E-18
 -1      1535 1.24935E-04-3.80556E-05-3.71125E-05-7.10726E-07 7.71991E-20-2.54576E-18
 -1      1536 1.22765E-04-3.79185E-05-3.63071E-05-2.61132E-06 5.33750E-19-1.83091E-18
 -1      1537 1.24452E-04-3.75229E-05-3.71828E-05 1.40302E-06-3.91753E-19-2.83309E-18
 -1      1538 1.25361E-04-3.79922E-05-3.73809E-05 1.03990E-06-1.72914E-20-2.98888E-18
 -1      1539 1.22373E-04-3.74411E-05-3.63558E-05 1.08084E-06-1.07838E-19-2.23061E-18
 -1      1540 1.20808E-04-3.62904E-05-3.62141E-05 2.14109E-06-3.58361E-19-1.65222E-18
 -1      1541 1.22866E-04-3.70451E-05-3.67671E-05 1.95642E-06-6.01519E-19-2.58712E-18
 -1      1542 1.19882E-04-3.63084E-05-3.57911E-05 3.28663E-06-5.22156E-19-2.09136E-18
 -1      1543 1.16447E-04-3.49050E-05-3.49704E-05 2.28949E-06-2.07881E-19-8.72788E-19
 -1      1544 1.18897E-04-3.57141E-05-3.56630E-05 2.23170E-06-9.67425E-20-8.09234E-19
 -1      1545 1.16357E-04-3.49794E-05-3.48635E-05 4.17392E-06-5.93313E-19-8.60440E-19
 -1      1546 1.12163E-04-3.35878E-05-3.37084E-05 2.11504E-06-4.33333E-19-2.37857E-19
 -1      1547 1.14543E-04-3.43302E-05-3.43983E-05 2.12905E-06-1.34291E-19-3.89304E-19
 -1      1548 1.12587E-04-3.37006E-05-3.38040E-05 4.19819E-06-3.58182E-19 5.29111E-19
 -1      1549 1.08355E-04-3.24389E-05-3.25672E-05 1.80546E-06 1.41579E-19-1.45107E-19
 -1      1550 1.10443E-04-3.30671E-05-3.31813E-05 1.85229E-06 2.01303E-20-2.69330E-19
 -1      1551 1.09042E-04-3.25764E-05-3.27706E-05 3.77359E-06-1.20002E-19 7.99331E-19
 -1      1552 1.05166E-04-3.14875E-05-3.16026E-05 1.46839E-06-4.63428E-19-1.38821E-19
 -1      1553 1.06892E-04-3.19939E-05-3.21146E-05 1.52530E-06-2.65530E-19-3.02179E-19
 -1      1554 1.05945E-04-3.16361E-05-3.18486E-05 3.17793E-06-1.82006E-19 1.20471E-18
 -1      1555 1.02597E-04-3.07264E-05-3.08216E-05 1.15615E-06 5.71057E-19-8.70234E-19
 -1      1556 1.03970E-04-3.11218E-05-3.12310E-05 1.21161E-06 2.81875E-19-1.94460E-19
 -1      1557 1.03367E-04-3.08746E-05-3.10707E-05 2.56670E-06 6.86560E-20 9.11060E-19
 -1      1558 1.00584E-04-3.01327E-05-3.02080E-05 8.88933E-07-7.26847E-19-1.27911E-18
 -1      1559 1.01647E-04-3.04343E-05-3.05260E-05 9.38001E-07 1.83803E-19-1.40021E-18
 -1      1560 1.01289E-04-3.02719E-05-3.04388E-05 2.01351E-06 4.65810E-19 2.91019E-20
 -1      1561 9.90396E-05-2.96787E-05-2.97367E-05 6.70437E-07-3.12104E-19-1.76304E-19
 -1      1562 9.98454E-05-2.99045E-05-2.99784E-05 7.11623E-07-5.56092E-19-1.31386E-18
 -1      1563 9.96561E-05-2.98039E-05-2.99395E-05 1.54494E-06-9.40792E-19 2.60583E-20
 -1      1564 9.78768E-05-2.93375E-05-2.93815E-05 4.96914E-07 1.46265E-19-2.14529E-20
 -1      1565 9.84767E-05-2.95037E-05-2.95617E-05 5.30385E-07-1.66600E-19-7.19263E-19
 -1      1566 9.83980E-05-2.94463E-05-2.95534E-05 1.16356E-06-5.46353E-20 3.07800E-19
 -1      1567 9.70160E-05-2.90855E-05-2.91183E-05 3.61921E-07 4.42076E-19-5.34381E-19
 -1      1568 9.74549E-05-2.92057E-05-2.92504E-05 3.88530E-07 4.21970E-19-4.27140E-20
 -1      1569 9.74458E-05-2.91774E-05-2.92603E-05 8.61294E-07 3.95053E-19-6.26480E-19
 -1      1570 9.63901E-05-2.89027E-05-2.89267E-05 2.58595E-07 2.40458E-19-1.21842E-18
 -1      1571 9.67053E-05-2.89878E-05-2.90218E-05 2.79398E-07 3.96989E-19-4.68290E-19
 -1      1572 9.67373E-05-2.89784E-05-2.90416E-05 6.26338E-07 4.63933E-19-6.95165E-19
 -1      1573 9.59439E-05-2.87726E-05-2.87901E-05 1.80630E-07 4.33033E-20-2.49299E-18
 -1      1574 9.61654E-05-2.88316E-05-2.88570E-05 1.96667E-07 2.39668E-19-1.87069E-18
 -1      1575 9.62193E-05-2.88338E-05-2.88812E-05 4.46575E-07 1.08865E-18-7.51556E-19
 -1      1576 9.56333E-05-2.86823E-05-2.86948E-05 1.22612E-07 6.92822E-19-4.73278E-18
 -1      1577 9.57850E-05-2.87219E-05-2.87407E-05 1.34816E-07 8.42454E-19-2.96412E-18
 -1      1578 9.58480E-05-2.87308E-05-2.87660E-05 3.10990E-07 1.30655E-18-1.60988E-18
 -1      1579 9.54236E-05-2.86216E-05-2.86303E-05 8.00586E-08-5.25725E-19-4.83439E-18
 -1      1580 9.55238E-05-2.86471E-05-2.86608E-05 8.92276E-08-3.05002E-19-5.42426E-18
 -1      1581 9.55880E-05-2.86593E-05-2.86849E-05 2.10154E-07 7.20443E-19-2.78236E-18
 -1      1582 9.52879E-05-2.85826E-05-2.85885E-05 4.93435E-08-3.27081E-19-4.14689E-18
 -1      1583 9.53508E-05-2.85979E-05-2.86078E-05 5.61422E-08-5.64675E-19-4.78900E-18
 -1      1584 9.54114E-05-2.86112E-05-2.86296E-05 1.36263E-07-4.18481E-19-4.49669E-18
 -1      1585 9.52054E-05-2.85590E-05-2.85630E-05 2.75760E-08-8.94931E-19-1.87105E-18
 -1      1586 9.52418E-05-2.85673E-05-2.85742E-05 3.25478E-08-8.57635E-19-2.48304E-18
 -1      1587 9.52961E-05-2.85803E-05-2.85933E-05 8.29961E-08-1.38879E-18-2.38309E-18
 -1      1588 9.51607E-05-2.85465E-05-2.85490E-05 1.24837E-08-1.56549E-20-7.08055E-19
 -1      1589 9.51785E-05-2.85498E-05-2.85546E-05 1.60662E-08-1.81876E-19-1.16942E-18
 -1      1590 9.52254E-05-2.85618E-05-2.85707E-05 4.53142E-08-1.08878E-18 1.67848E-19
 -1      1591 9.51420E-05-2.85415E-05-2.85430E-05 2.30550E-09 1.64212E-18-2.25140E-18
 -1      1592 9.51473E-05-2.85416E-05-2.85448E-05 4.84578E-09 9.13103E-19-6.25417E-19
 -1      1593 9.51863E-05-2.85520E-05-2.85580E-05 1.92576E-08 1.10586E-18-4.50190E-19
 -1      1594 9.51408E-05-2.85416E-05-2.85424E-05-4.29756E-09-1.38826E-18-2.93942E-18
 -1      1595 9.51378E-05-2.85396E-05-2.85417E-05-2.53019E-09 7.23846E-20-2.43722E-18
 -1      1596 9.51692E-05-2.85483E-05-2.85522E-05 1.76602E-09 1.10637E-18-3.84472E-19
 -1      1597 9.51508E-05-2.85449E-05-2.85452E-05-8.31222E-09 1.19029E-18-2.79770E-18
 -1      1598 9.51427E-05-2.85417E-05-2.85430E-05-7.11624E-09-4.39279E-20-2.85402E-18
 -1      1599 9.51669E-05-2.85486E-05-2.85510E-05-9.47114E-09-4.19280E-19-4.73898E-19
 -1      1600 9.51674E-05-2.85501E-05-2.85501E-05-1.04196E-08 8.82940E-19-5.42027E-18
 -1      1601 9.51564E-05-2.85463E-05-2.85469E-05-9.65731E-09 1.18415E-18-4.17238E-18
 -1      1602 9.51740E-05-2.85515E-05-2.85527E-05-1.61289E-08 1.98549E-18-2.64221E-18
 -1      1603 9.51870E-05-2.85562E-05-2.85559E-05-1.10163E-08-3.44358E-19-5.79214E-18
 -1      1604 9.51749E-05-2.85522E-05-2.85524E-05-1.06148E-08 3.87151E-19-5.36513E-18
 -1      1605 9.51866E-05-2.85559E-05-2.85562E-05-1.93150E-08 8.88535E-19-3.46502E-18
 -1      1606 9.52066E-05-2.85624E-05-2.85616E-05-1.02338E-08-1.21866E-18-4.66038E-18
 -1      1607 9.51949E-05-2.85586E-05-2.85583E-05-1.01905E-08-8.44210E-19-6.43391E-18
 -1      1608 9.52015E-05-2.85609E-05-2.85604E-05-1.96186E-08-8.29804E-19-3.10043E-18
 -1      1609 9.52233E-05-2.85677E-05-2.85664E-05-7.88464E-09 3.21164E-19-4.32112E-18
 -1      1610 9.52138E-05-2.85647E-05-2.85637E-05-8.31827E-09-5.26794E-19-4.63225E-18
 -1      1611 9.52162E-05-2.85659E-05-2.85644E-05-1.71153E-08-7.81807E-19-3.80302E-18
 -1      1612 9.52340E-05-2.85713E-05-2.85696E-05-3.82590E-09 2.03595E-19-4.85495E-18
 -1      1613 9.52286E-05-2.85697E-05-2.85679E-05-4.75594E-09 1.90484E-19-4.16775E-18
 -1      1614 9.52284E-05-2.85704E-05-2.85676E-05-1.14837E-08-5.20956E-20-3.79997E-18
 -1      1615 9.52366E-05-2.85721E-05-2.85703E-05-8.17023E-10-2.32340E-18-2.11743E-18
 -1      1616 9.52395E-05-2.85822E-05-2.85673E-05-6.87688E-09-3.31197E-18 1.06786E-18
 -1      1617 9.52375E-05-2.85765E-05-2.85690E-05-5.78634E-09-4.03760E-18 3.64385E-20
 -1      1618 9.52445E-05-2.85963E-05-2.85635E-05-9.46703E-09-1.75675E-19 1.68779E-18
 -1      1619 9.52414E-05-2.85876E-05-2.85658E-05-9.15841E-09-2.77664E-18 1.94233E-18
 -1      1620 9.52394E-05-2.85842E-05-2.85664E-05-1.52760E-08-5.88611E-19 3.21608E-18
 -1      1621 9.52496E-05-2.86118E-05-2.85591E-05-9.83721E-09-1.29488E-18-1.89298E-18
 -1      1622 9.52465E-05-2.86025E-05-2.85617E-05-9.94210E-09-3.02415E-19 4.88570E-19
 -1      1623 9.52442E-05-2.85958E-05-2.85636E-05-1.85005E-08-6.81284E-19 6.76513E-19
 -1      1624 9.52542E-05-2.86262E-05-2.85549E-05-8.72683E-09-1.83033E-18-5.27135E-19
 -1      1625 9.52514E-05-2.86178E-05-2.85573E-05-9.06174E-09-6.38585E-19-7.69217E-19
 -1      1626 9.52486E-05-2.86078E-05-2.85604E-05-1.80619E-08-1.53670E-18-1.19028E-18
 -1      1627 9.52578E-05-2.86378E-05-2.85515E-05-6.82114E-09-2.93672E-18 5.13378E-19
 -1      1628 9.52557E-05-2.86312E-05-2.85534E-05-7.24957E-09-2.44739E-18-3.42936E-19
 -1      1629 9.52523E-05-2.86185E-05-2.85574E-05-1.53048E-08-1.87645E-18-1.97980E-18
 -1      1630 9.52603E-05-2.86461E-05-2.85490E-05-4.50624E-09 1.18674E-18 2.96485E-18
 -1      1631 9.52589E-05-2.86415E-05-2.85503E-05-4.97856E-09-2.36281E-18 2.59300E-18
 -1      1632 9.52550E-05-2.86271E-05-2.85550E-05-1.13231E-08-8.46850E-19 1.92541E-18
 -1      1633 9.52616E-05-2.86505E-05-2.85476E-05-2.07178E-09 1.81398E-18-1.64619E-19
 -1      1634 9.52609E-05-2.86483E-05-2.85483E-05-2.54475E-09 1.33834E-18 1.34451E-18
 -1      1635 9.52568E-05-2.86329E-05-2.85533E-05-6.77582E-09-9.32044E-19 2.55060E-18
 -1      1636 9.52618E-05-2.86511E-05-2.85474E-05 3.69948E-10 2.45475E-18-1.00060E-19
 -1      1637 9.52618E-05-2.86512E-05-2.85474E-05-9.66465E-11 2.00968E-18 3.38656E-19
 -1      1638 9.52577E-05-2.86357E-05-2.85524E-05-2.08514E-09 1.37539E-19 2.32909E-19
 -1      1639 9.52607E-05-2.86478E-05-2.85484E-05 2.78549E-09 1.43199E-19-1.81234E-18
 -1      1640 9.52615E-05-2.86502E-05-2.85477E-05 2.32359E-09 2.28297E-18-7.27221E-19
 -1      1641 9.52576E-05-2.86355E-05-2.85525E-05 2.59110E-09 1.10382E-18-5.11034E-19
 -1      1642 9.52586E-05-2.86407E-05-2.85505E-05 5.13944E-09-3.45918E-18-1.19158E-18
 -1      1643 9.52600E-05-2.86454E-05-2.85492E-05 4.68758E-09-9.45813E-19-1.38841E-18
 -1      1644 9.52566E-05-2.86324E-05-2.85534E-05 7.18407E-09-1.37273E-18-2.78132E-18
 -1      1645 9.52554E-05-2.86303E-05-2.85536E-05 7.27966E-09-6.74497E-18-3.81075E-19
 -1      1646 9.52575E-05-2.86369E-05-2.85517E-05 6.87720E-09-4.37404E-18-2.25103E-18
 -1      1647 9.52548E-05-2.86264E-05-2.85552E-05 1.15249E-08-2.63578E-18-3.47115E-18
 -1      1648 9.52511E-05-2.86168E-05-2.85576E-05 9.00769E-09-5.37583E-18 1.45713E-18
 -1      1649 9.52538E-05-2.86252E-05-2.85552E-05 8.69421E-09-7.63985E-18 2.35341E-18
 -1      1650 9.52520E-05-2.86178E-05-2.85576E-05 1.53061E-08-1.72019E-18 4.33817E-20
 -1      1651 9.52462E-05-2.86017E-05-2.85619E-05 9.84030E-09-4.68680E-18 1.56107E-18
 -1      1652 9.52493E-05-2.86109E-05-2.85594E-05 9.71865E-09-6.33487E-18 2.05719E-18
 -1      1653 9.52483E-05-2.86070E-05-2.85606E-05 1.78933E-08-3.25021E-18 2.11665E-18
 -1      1654 9.52414E-05-2.85874E-05-2.85660E-05 8.92743E-09-4.61172E-18-8.24674E-19
 -1      1655 9.52443E-05-2.85957E-05-2.85637E-05 9.22147E-09-3.92624E-18-2.14790E-19
 -1      1656 9.52439E-05-2.85951E-05-2.85638E-05 1.81952E-08-2.62672E-18 4.69489E-19
 -1      1657 9.52372E-05-2.85772E-05-2.85686E-05 7.82883E-09-2.41152E-18 6.71933E-19
 -1      1658 9.52392E-05-2.85827E-05-2.85671E-05 9.41662E-09-3.49216E-18 3.65284E-19
 -1      1659 9.52392E-05-2.85842E-05-2.85662E-05 1.71238E-08-2.13221E-18 1.62910E-19
 -1      1660 9.52330E-05-2.85755E-05-2.85674E-05 1.47436E-08-5.56169E-19 9.18519E-19
 -1      1661 2.08303E-05-6.95697E-05 1.46378E-05-8.30808E-06 5.66496E-18 2.23405E-18
 -1      1662 2.41200E-05-7.82729E-05 1.64027E-05 3.93483E-07 2.01117E-18 2.55338E-18
 -1      1663 2.01101E-05-4.21342E-05 4.96281E-06 1.23224E-06 7.66226E-18 4.57451E-18
 -1      1664 2.44544E-05-6.34918E-05 1.06216E-05-1.63621E-06 6.30065E-18 2.66582E-18
 -1      1665 3.37473E-05-1.50462E-05-1.03865E-05 2.48354E-05 9.01497E-18 6.29727E-18
 -1      1666 2.88983E-05-3.63170E-05-1.75257E-06 7.83593E-06 8.51099E-18 4.60786E-18
 -1      1667 7.96987E-05-8.43040E-06-2.99934E-05 5.61287E-05 7.83760E-18 8.22384E-18
 -1      1668 5.50800E-05-1.52768E-05-1.96625E-05 3.32610E-05 8.38563E-18 6.81523E-18
 -1      1669 1.40653E-04-1.67048E-05-4.95349E-05 7.72142E-05 6.64709E-18 1.06455E-17
 -1      1670 9.85361E-05-5.38448E-06-3.97537E-05 6.29673E-05 7.89604E-18 9.88487E-18
 -1      1671 2.10357E-04-4.41912E-05-6.53683E-05 6.72763E-05 4.92274E-18 9.78323E-18
 -1      1672 1.65892E-04-2.34821E-05-5.78411E-05 7.46442E-05 6.12320E-18 1.10174E-17
 -1      1673 2.56290E-04-6.48924E-05-7.49049E-05 2.44177E-05 2.95064E-18 3.64605E-18
 -1      1674 2.28491E-04-4.98211E-05-7.08556E-05 5.43506E-05 4.52739E-18 7.61483E-18
 -1      1675 2.55586E-04-6.31735E-05-7.58597E-05-2.76883E-05 3.88449E-18-3.06202E-18
 -1      1676 2.62583E-04-6.69530E-05-7.65983E-05 8.55451E-06 3.08680E-18 1.79793E-18
 -1      1677 1.99016E-04-3.72476E-05-6.56794E-05-5.62933E-05 6.87399E-18-8.76340E-18
 -1      1678 2.35414E-04-5.54354E-05-7.14587E-05-3.43120E-05 4.70400E-18-4.32537E-18
 -1      1679 1.33527E-04-1.58364E-05-4.93161E-05-6.51648E-05 1.12219E-17-1.34712E-17
 -1      1680 1.81031E-04-3.46166E-05-5.87748E-05-6.70859E-05 8.19187E-18-1.08319E-17
 -1      1681 7.51193E-05-1.14445E-05-2.88135E-05-4.55155E-05 1.39091E-17-1.35754E-17
 -1      1682 1.10206E-04-1.36716E-05-3.96730E-05-6.59856E-05 1.19364E-17-1.43564E-17
 -1      1683 4.04066E-05-2.78626E-05-9.19359E-06-1.96092E-05 1.30756E-17-1.03918E-17
 -1      1684 5.40831E-05-1.21984E-05-1.89789E-05-4.06481E-05 1.41150E-17-1.36533E-17
 -1      1685 2.52272E-05-5.18984E-05 5.78512E-06-9.14066E-07 1.02728E-17-6.57467E-18
 -1      1686 2.32014E-05-2.94777E-05-9.72507E-07-9.44189E-06 1.35398E-17-9.65427E-18
 -1      1687 2.38864E-05-7.16161E-05 1.43554E-05-2.48771E-07 2.56820E-18-4.32008E-18
 -1      1688 1.93862E-05-5.59016E-05 1.05589E-05 3.68724E-06 8.27128E-18-6.11706E-18
 -1      1689 2.20210E-05-7.35545E-05 1.58918E-05-4.29648E-06-4.86091E-18-3.39957E-18
 -1      1690 2.25794E-05-7.55723E-05 1.63659E-05 5.72906E-06 6.87579E-19-3.22381E-18
 -1      1691 1.91167E-05-5.05333E-05 8.69715E-06-8.75602E-07-1.06481E-17-5.64484E-18
 -1      1692 2.42773E-05-6.96478E-05 1.32984E-05 1.10382E-06-6.79405E-18-3.80095E-18
 -1      1693 2.73112E-05-2.21852E-05-4.93170E-06 1.80138E-05-1.43182E-17-9.78069E-18
 -1      1694 2.70717E-05-4.50401E-05 2.74719E-06 6.13187E-06-1.19228E-17-6.81078E-18
 -1      1695 5.33422E-05-1.45907E-06-2.25542E-05 4.72929E-05-1.50831E-17-1.38270E-17
 -1      1696 3.77165E-05-1.49939E-05-1.29921E-05 2.48763E-05-1.53076E-17-1.12588E-17
 -1      1697 1.13885E-04-9.38899E-06-4.22946E-05 7.25300E-05-1.16645E-17-1.45215E-17
 -1      1698 7.77947E-05-4.32873E-06-3.21064E-05 5.36164E-05-1.39286E-17-1.39913E-17
 -1      1699 1.78896E-04-2.98982E-05-5.90311E-05 7.62393E-05-8.02775E-18-1.22735E-17
 -1      1700 1.36001E-04-1.15306E-05-5.11598E-05 7.54941E-05-1.09750E-17-1.43606E-17
 -1      1701 2.32475E-04-5.45932E-05-7.02502E-05 4.66413E-05-4.10875E-18-7.00666E-18
 -1      1702 1.98906E-04-3.67067E-05-6.51246E-05 6.67857E-05-6.44232E-18-1.05498E-17
 -1      1703 2.52180E-04-6.36052E-05-7.46493E-05-1.24086E-06-3.08892E-18 3.70339E-19
 -1      1704 2.43192E-04-5.83353E-05-7.33578E-05 3.24117E-05-3.68798E-18-4.82428E-18
 -1      1705 2.25710E-04-4.94914E-05-7.04494E-05-4.82270E-05-3.78846E-18 6.85588E-18
 -1      1706 2.47789E-04-6.17068E-05-7.36170E-05-1.73295E-05-2.83502E-18 2.73274E-18
 -1      1707 1.69481E-04-2.41168E-05-5.89572E-05-7.38349E-05-7.08458E-18 1.04897E-17
 -1      1708 2.10544E-04-4.45453E-05-6.57721E-05-6.25191E-05-4.74381E-18 8.21029E-18
 -1      1709 1.03924E-04-3.25092E-06-4.23092E-05-6.85019E-05-1.06159E-17 1.23989E-17
 -1      1710 1.45573E-04-1.70067E-05-5.13993E-05-7.91188E-05-8.52412E-18 1.21820E-17
 -1      1711 5.46440E-05-6.20058E-06-2.27670E-05-4.00250E-05-1.15146E-17 1.03575E-17
 -1      1712 8.17687E-05-2.19141E-06-3.29539E-05-6.30498E-05-1.11258E-17 1.21202E-17
 -1      1713 2.83230E-05-2.91502E-05-4.09368E-06-1.15851E-05-9.80356E-18 6.85292E-18
 -1      1714 3.50402E-05-7.78941E-06-1.33195E-05-3.09331E-05-1.14451E-17 1.00712E-17
 -1      1715 2.46459E-05-6.02179E-05 9.51878E-06-1.22088E-06-5.74373E-18 3.77335E-18
 -1      1716 2.03748E-05-3.68503E-05 3.15269E-06-5.77052E-06-8.63127E-18 5.34075E-18
 -1      1717 2.42176E-05-7.77939E-05 1.61942E-05-2.51008E-06 2.49875E-19 2.79987E-18
 -1      1718 2.04916E-05-6.71016E-05 1.39906E-05 5.74240E-06-4.77134E-18 3.15393E-18
 -1      1719 1.17684E-04-3.65640E-05-3.43200E-05 4.21729E-05 4.25846E-18 5.37188E-18
 -1      1720 7.56275E-05-3.99080E-05-1.65725E-05 3.80668E-05 3.85146E-18 4.16656E-18
 -1      1721 9.52361E-05-2.85733E-05-2.85696E-05-3.91714E-09-3.58944E-18-1.82410E-18
 -1      1722 9.52350E-05-2.85755E-05-2.85682E-05-9.98457E-09-1.43280E-18-1.88774E-18
 -1      1723 1.82610E-05-4.87590E-05 8.84456E-06 1.25633E-05 1.66442E-18 3.55373E-18
 -1      1724 3.89729E-05-4.32691E-05-1.26099E-06 2.64139E-05 3.42710E-18 3.03010E-18
 -1      1725 1.22960E-05-5.29466E-05 1.25385E-05-1.98223E-06-1.52889E-19 5.23085E-18
 -1      1726 1.60912E-04-3.32932E-05-5.16364E-05 4.25084E-05 4.48906E-18 7.54198E-18
 -1      1727 1.98183E-04-3.54482E-05-6.48350E-05 2.82897E-05 5.08897E-18 4.77218E-18
 -1      1728 2.17475E-04-3.66570E-05-7.16126E-05 6.87306E-06 5.35833E-18 1.32264E-18
 -1      1729 2.03860E-04-3.25386E-05-6.88680E-05-9.34749E-06 6.66149E-18-9.80441E-19
 -1      1730 1.78413E-04-3.39902E-05-5.84523E-05-2.26653E-05 7.18856E-18-2.54195E-18
 -1      1731 1.43425E-04-3.92175E-05-4.29068E-05-3.63821E-05 7.41239E-18-5.91907E-18
 -1      1732 9.90592E-05-4.23148E-05-2.46328E-05-4.05899E-05 6.62210E-18-7.50005E-18
 -1      1733 5.57823E-05-4.26162E-05-7.78279E-06-3.44086E-05 6.27651E-18-8.36032E-18
 -1      1734 2.61207E-05-4.56042E-05 4.69236E-06-2.01759E-05 3.90228E-18-7.64257E-18
 -1      1735 1.29011E-05-4.86393E-05 1.10678E-05-5.84386E-06 7.64235E-19-6.88214E-18
 -1      1736 1.42775E-05-4.87954E-05 1.05304E-05 1.04110E-05-2.73316E-18-6.15878E-18
 -1      1737 3.06791E-05-4.39641E-05 2.45694E-06 2.53176E-05-5.77549E-18-6.76949E-18
 -1      1738 5.74432E-05-3.71284E-05-1.07114E-05 3.61418E-05-8.09763E-18-7.83040E-18
 -1      1739 9.69294E-05-3.19254E-05-2.76580E-05 4.47773E-05-8.62830E-18-8.85742E-18
 -1      1740 1.40603E-04-3.07033E-05-4.49461E-05 4.48217E-05-8.48939E-18-8.18319E-18
 -1      1741 1.78814E-04-3.08562E-05-5.92736E-05 3.76418E-05-7.25860E-18-5.86824E-18
 -1      1742 2.03537E-04-3.28574E-05-6.79999E-05 1.82229E-05-5.86443E-18-2.59319E-18
 -1      1743 2.08007E-04-3.23083E-05-6.99639E-05-3.99715E-06-5.30666E-18 9.44336E-19
 -1      1744 1.92558E-04-3.10206E-05-6.45631E-05-2.50058E-05-5.40132E-18 3.95734E-18
 -1      1745 1.61533E-04-2.99764E-05-5.29906E-05-4.31991E-05-6.61586E-18 5.64209E-18
 -1      1746 1.17850E-04-2.93044E-05-3.67871E-05-4.70824E-05-6.33411E-18 7.13117E-18
 -1      1747 7.48761E-05-3.27601E-05-1.89936E-05-4.11921E-05-5.90213E-18 7.36919E-18
 -1      1748 4.04481E-05-4.04530E-05-2.96819E-06-2.94044E-05-4.47318E-18 6.13728E-18
 -1      1749 1.95934E-05-4.74047E-05 8.03882E-06-1.66219E-05-2.51230E-18 4.92592E-18
 -1      1750 1.06861E-04-2.35159E-05-3.58117E-05-1.58308E-05-1.96684E-18 7.93628E-18
 -1      1751 8.99606E-05-1.06854E-05-3.41043E-05-1.13096E-05-2.54227E-18-2.75471E-18
 -1      1752 9.15649E-05-1.18782E-05-3.42841E-05-1.31633E-05-2.92902E-18-1.86474E-18
 -1      1753 9.37809E-05-1.42873E-05-3.42311E-05-1.41738E-05-2.92579E-18-7.46236E-19
 -1      1754 9.56246E-05-1.63357E-05-3.44652E-05-1.59451E-05-3.11598E-18 7.49359E-19
 -1      1755 9.46654E-05-1.66614E-05-3.34411E-05-1.17761E-05-3.09179E-18-1.19360E-18
 -1      1756 8.56436E-05-7.00697E-06-3.37754E-05-6.05646E-06-1.44748E-18-4.10479E-18
 -1      1757 8.63850E-05-7.45070E-06-3.38820E-05-7.32927E-06-1.76262E-18-3.94502E-18
 -1      1758 8.43669E-05-6.01387E-06-3.36395E-05-3.87936E-06-8.92546E-19-4.32545E-18
 -1      1759 8.49018E-05-6.31661E-06-3.37201E-05-4.98966E-06-1.20211E-18-4.23100E-18
 -1      1760 8.66734E-05-8.84134E-06-3.33844E-05-5.10689E-06-1.45273E-18-3.99089E-18
 -1      1761 8.35278E-05-5.37249E-06-3.35451E-05-1.96148E-06-2.57830E-19-4.37099E-18
 -1      1762 8.38624E-05-5.55792E-06-3.35961E-05-2.94405E-06-5.63217E-19-4.36933E-18
 -1      1763 8.53431E-05-7.70708E-06-3.32983E-05-3.14034E-06-7.66159E-19-4.20977E-18
 -1      1764 8.31268E-05-5.05463E-06-3.35029E-05-2.09489E-07 2.64131E-19-4.37647E-18
 -1      1765 8.32564E-05-5.12827E-06-3.35211E-05-1.12045E-06 8.79293E-21-4.40607E-18
 -1      1766 8.45124E-05-7.01358E-06-3.32376E-05-1.39312E-06-1.58954E-19-4.27200E-18
 -1      1767 8.31836E-05-5.06276E-06-3.35197E-05 1.48539E-06 7.24575E-19-4.28170E-18
 -1      1768 8.30977E-05-5.02115E-06-3.35030E-05 5.86874E-07 5.18813E-19-4.34673E-18
 -1      1769 8.41891E-05-6.73773E-06-3.32161E-05 2.17503E-07 4.41145E-19-4.29406E-18
 -1      1770 8.37188E-05-5.41696E-06-3.35962E-05 3.24257E-06 1.18468E-18-4.12035E-18
 -1      1771 8.34087E-05-5.25112E-06-3.35448E-05 2.29341E-06 9.88365E-19-4.22886E-18
 -1      1772 8.43963E-05-6.88999E-06-3.32394E-05 1.79286E-06 9.17364E-19-4.13721E-18
 -1      1773 8.47288E-05-6.13511E-06-3.37242E-05 5.15310E-06 1.69038E-18-3.82226E-18
 -1      1774 8.41984E-05-5.83885E-06-3.36420E-05 4.10594E-06 1.43705E-18-4.01277E-18
 -1      1775 8.51496E-05-7.49391E-06-3.33040E-05 3.42917E-06 1.40606E-18-3.94203E-18
 -1      1776 8.62871E-05-7.31249E-06-3.38976E-05 7.40638E-06 2.34177E-18-3.09669E-18
 -1      1777 8.54946E-05-6.84002E-06-3.37843E-05 6.15319E-06 1.97911E-18-3.46925E-18
 -1      1778 8.64742E-05-8.60368E-06-3.33979E-05 5.24626E-06 1.98183E-18-3.46323E-18
 -1      1779 8.85060E-05-9.11781E-06-3.41022E-05 1.00807E-05 2.86632E-18-2.28671E-18
 -1      1780 8.73849E-05-8.38398E-06-3.39578E-05 8.55895E-06 2.61266E-18-2.77661E-18
 -1      1781 8.84495E-05-1.03463E-05-3.34979E-05 7.33343E-06 2.63670E-18-2.66450E-18
 -1      1782 9.17487E-05-1.20226E-05-3.43161E-05 1.31600E-05 3.34365E-18-6.04199E-19
 -1      1783 9.00666E-05-1.07548E-05-3.41349E-05 1.13342E-05 3.05363E-18-1.61344E-18
 -1      1784 9.12286E-05-1.29670E-05-3.35560E-05 9.64784E-06 3.12174E-18-1.68702E-18
 -1      1785 9.73284E-05-1.75209E-05-3.43942E-05 1.58312E-05 3.25373E-18 2.53427E-18
 -1      1786 9.42190E-05-1.47305E-05-3.42435E-05 1.41874E-05 3.24378E-18 6.62671E-19
 -1      1787 9.52358E-05-1.71185E-05-3.34670E-05 1.16899E-05 3.42963E-18 1.54848E-19
 -1      1788 1.03290E-04-2.55782E-05-3.37257E-05 1.29899E-05 2.76699E-18 6.41405E-18
 -1      1789 9.95496E-05-2.01504E-05-3.40294E-05 1.52923E-05 3.04037E-18 3.85808E-18
 -1      1790 9.89844E-05-2.23516E-05-3.29104E-05 1.13534E-05 3.35735E-18 2.47635E-18
 -1      1791 1.00514E-04-2.66947E-05-3.18409E-05 8.00667E-06 2.85821E-18 5.49334E-18
 -1      1792 1.01419E-04-2.00786E-05-3.45490E-05-1.74491E-05-2.65983E-18 3.43408E-18
 -1      1793 9.79027E-05-2.79979E-05-2.99773E-05 2.53842E-06 2.17751E-18 4.24766E-18
 -1      1794 9.98295E-05-2.79841E-05-3.08271E-05 4.93199E-06 2.42278E-18 4.99358E-18
 -1      1795 9.95925E-05-2.61979E-05-3.14535E-05 6.98377E-06 2.87393E-18 3.27507E-18
 -1      1796 1.01214E-04-2.30240E-05-3.32339E-05-1.29025E-05-2.85821E-18 2.33072E-18
 -1      1797 9.90664E-05-2.75692E-05-3.05247E-05-4.14001E-06-2.29726E-18 1.81783E-18
 -1      1798 9.76953E-05-2.77207E-05-2.99516E-05-2.28549E-06-2.09466E-18 1.12692E-18
 -1      1799 9.71890E-05-2.79845E-05-2.95614E-05-6.87810E-07-1.92550E-18 1.05801E-18
 -1      1800 9.69117E-05-2.81933E-05-2.94052E-05 2.64742E-07-1.67323E-18 5.87798E-19
 -1      1801 9.78849E-05-2.71171E-05-3.03558E-05-2.35053E-06-2.37549E-18-8.48390E-20
 -1      1802 9.67736E-05-2.83455E-05-2.92664E-05 1.24422E-06-1.36506E-18 5.96417E-19
 -1      1803 9.70404E-05-2.85763E-05-2.93098E-05 1.80327E-06-1.15946E-18 2.55281E-19
 -1      1804 9.73761E-05-2.79413E-05-2.97835E-05 6.02099E-07-1.77178E-18-2.34883E-19
 -1      1805 9.72225E-05-2.87447E-05-2.93154E-05 2.41565E-06-1.05423E-18 2.03865E-19
 -1      1806 9.78307E-05-2.90305E-05-2.94669E-05 2.74993E-06-7.14490E-19-1.06680E-19
 -1      1807 9.75200E-05-2.84905E-05-2.96059E-05 2.41837E-06-1.30055E-18-4.67542E-19
 -1      1808 9.82543E-05-2.92475E-05-2.95580E-05 3.10971E-06-5.99033E-19-1.37499E-19
 -1      1809 9.90604E-05-2.95854E-05-2.97675E-05 3.27217E-06-5.13654E-19-3.87966E-19
 -1      1810 9.81910E-05-2.90268E-05-2.96592E-05 3.53526E-06-8.56063E-19-6.74862E-19
 -1      1811 9.96527E-05-2.98591E-05-2.99044E-05 3.40929E-06-4.47332E-19-2.41532E-19
 -1      1812 1.00538E-04-3.02354E-05-3.01340E-05 3.39635E-06-4.40212E-19-3.90742E-19
 -1      1813 9.92586E-05-2.96486E-05-2.98455E-05 4.11779E-06-5.17126E-19-5.20243E-19
 -1      1814 1.01231E-04-3.05632E-05-3.02850E-05 3.28967E-06-4.58228E-19-3.00144E-19
 -1      1815 1.02072E-04-3.09529E-05-3.04980E-05 3.06687E-06-4.48287E-19-3.72091E-19
 -1      1816 1.00594E-04-3.03915E-05-3.00945E-05 4.17973E-06-4.53830E-19-6.06937E-19
 -1      1817 1.02792E-04-3.13200E-05-3.06347E-05 2.66726E-06-6.24599E-19-2.93057E-19
 -1      1818 1.03451E-04-3.16788E-05-3.07924E-05 2.19062E-06-4.58572E-19-3.63804E-19
 -1      1819 1.02063E-04-3.12520E-05-3.03495E-05 3.64630E-06-5.60595E-19-6.76814E-19
 -1      1820 1.04105E-04-3.20463E-05-3.08904E-05 1.45019E-06-4.49550E-19-5.57098E-19
 -1      1821 1.04424E-04-3.23013E-05-3.09548E-05 6.97577E-07-4.43964E-19-8.87982E-19
 -1      1822 1.03498E-04-3.21716E-05-3.05636E-05 2.41058E-06-7.04047E-19-9.40962E-19
 -1      1823 1.04889E-04-3.25920E-05-3.09969E-05-3.83277E-07-4.08538E-19-8.39578E-19
 -1      1824 1.04716E-04-3.26395E-05-3.09390E-05-1.36526E-06-7.94987E-20-8.86909E-19
 -1      1825 1.04676E-04-3.30020E-05-3.07035E-05 4.14939E-07-4.36493E-19-7.44704E-19
 -1      1826 1.04839E-04-3.27321E-05-3.09206E-05-2.67135E-06-1.34447E-19-7.88662E-19
 -1      1827 1.04078E-04-3.24577E-05-3.07328E-05-3.71554E-06-2.70945E-19-7.95758E-19
 -1      1828 1.05303E-04-3.34779E-05-3.07575E-05-2.22558E-06-1.68682E-19-5.17589E-19
 -1      1829 1.03716E-04-3.22164E-05-3.06655E-05-4.95642E-06-3.14401E-19-9.00452E-19
 -1      1830 1.02401E-04-3.15537E-05-3.03739E-05-5.75488E-06-4.54082E-19-8.22538E-19
 -1      1831 1.05058E-04-3.32518E-05-3.07408E-05-5.07877E-06-3.37142E-19-4.44557E-19
 -1      1832 1.01521E-04-3.09124E-05-3.02844E-05-6.47254E-06-3.99019E-19-7.51179E-19
 -1      1833 9.98890E-05-2.99372E-05-2.99525E-05-6.64488E-06-4.20025E-19-3.90952E-19
 -1      1834 1.03738E-04-3.20490E-05-3.06915E-05-7.32212E-06-4.27533E-19-3.53252E-19
 -1      1835 9.86924E-05-2.90227E-05-2.98718E-05-6.37223E-06-7.83069E-19-7.20157E-19
 -1      1836 9.71849E-05-2.80165E-05-2.95869E-05-5.65636E-06-6.21434E-19-9.47704E-19
 -1      1837 1.01506E-04-2.99548E-05-3.06521E-05-7.90147E-06-8.25636E-19-5.27268E-19
 -1      1838 9.61420E-05-2.71937E-05-2.95381E-05-4.22742E-06-6.68177E-19-1.19804E-18
 -1      1839 9.52710E-05-2.65663E-05-2.93837E-05-2.71091E-06-7.60437E-19-1.69318E-18
 -1      1840 9.90803E-05-2.76292E-05-3.06440E-05-6.05116E-06-9.15934E-19-8.76019E-19
 -1      1841 9.49071E-05-2.62625E-05-2.93776E-05-5.07972E-07-7.50723E-19-2.15299E-18
 -1      1842 9.50141E-05-2.63151E-05-2.94032E-05 1.31127E-06-5.07790E-19-2.14237E-18
 -1      1843 9.75469E-05-2.61244E-05-3.06610E-05-1.97404E-06-1.08384E-18-1.60932E-18
 -1      1844 9.55446E-05-2.67078E-05-2.94408E-05 3.47154E-06-3.02907E-19-2.27715E-18
 -1      1845 9.66103E-05-2.74228E-05-2.96435E-05 4.92689E-06-5.38733E-19-2.31835E-18
 -1      1846 9.77202E-05-2.62365E-05-3.06874E-05 2.95354E-06-5.90276E-19-1.81848E-18
 -1      1847 9.77747E-05-2.82966E-05-2.97224E-05 6.25262E-06-7.44115E-19-2.47343E-18
 -1      1848 9.94323E-05-2.93470E-05-3.00496E-05 6.88438E-06-3.91986E-19-2.81395E-18
 -1      1849 9.95498E-05-2.79072E-05-3.07224E-05 6.86063E-06-7.68431E-19-1.96440E-18
 -1      1850 1.00692E-04-3.02628E-05-3.01613E-05 7.05827E-06-1.00251E-19-3.13770E-18
 -1      1851 1.02431E-04-3.12449E-05-3.05294E-05 6.82708E-06-3.21624E-20-3.47933E-18
 -1      1852 1.02159E-04-3.02879E-05-3.07858E-05 8.47678E-06-5.96362E-19-2.51165E-18
 -1      1853 1.03346E-04-3.18645E-05-3.06494E-05 6.06601E-06 1.54643E-19-3.55193E-18
 -1      1854 1.04749E-04-3.25229E-05-3.09734E-05 5.25793E-06-1.87016E-19-3.35752E-18
 -1      1855 1.04480E-04-3.23370E-05-3.08849E-05 7.73894E-06 1.70518E-19-2.94612E-18
 -1      1856 1.05150E-04-3.27474E-05-3.10704E-05 4.03704E-06-2.48783E-19-2.93024E-18
 -1      1857 1.06007E-04-3.30285E-05-3.12913E-05 3.02839E-06 5.11270E-19-2.49328E-18
 -1      1858 1.05865E-04-3.34693E-05-3.09942E-05 5.47339E-06 1.11808E-19-2.95484E-18
 -1      1859 1.05947E-04-3.29378E-05-3.13392E-05 1.78647E-06 5.31993E-19-2.12173E-18
 -1      1860 1.06244E-04-3.29180E-05-3.14348E-05 8.66665E-07 7.07120E-19-2.28154E-18
 -1      1861 1.06206E-04-3.36562E-05-3.10692E-05 2.71687E-06 4.92020E-19-1.99517E-18
 -1      1862 1.05864E-04-3.26492E-05-3.14225E-05-1.33871E-07 6.47679E-19-2.08182E-18
 -1      1863 1.05702E-04-3.24438E-05-3.14022E-05-8.18789E-07 4.04670E-19-1.55731E-18
 -1      1864 1.05724E-04-3.31939E-05-3.10712E-05 2.36934E-07 9.22445E-19-2.39485E-18
 -1      1865 1.05146E-04-3.21122E-05-3.13331E-05-1.48822E-06 1.78886E-20-1.62149E-18
 -1      1866 1.04672E-04-3.18209E-05-3.12247E-05-1.90958E-06-7.89511E-20-1.49101E-18
 -1      1867 1.04733E-04-3.24252E-05-3.09835E-05-1.59430E-06 4.18586E-19-2.48784E-18
 -1      1868 1.04046E-04-3.14970E-05-3.11122E-05-2.26892E-06-4.43918E-19-2.14652E-18
 -1      1869 1.03400E-04-3.11870E-05-3.09489E-05-2.46460E-06 1.42474E-19-2.75429E-18
 -1      1870 1.03498E-04-3.16012E-05-3.08124E-05-2.71347E-06-3.86874E-19-2.29514E-18
 -1      1871 1.02773E-04-3.09033E-05-3.08099E-05-2.58361E-06 3.14639E-19-2.70209E-18
 -1      1872 1.02065E-04-3.06126E-05-3.06216E-05-2.61532E-06-6.55324E-20-2.47929E-18
 -1      1873 1.02204E-04-3.08573E-05-3.05798E-05-3.22654E-06 1.29510E-19-2.66676E-18
 -1      1874 1.01480E-04-3.03787E-05-3.04723E-05-2.57222E-06-3.49076E-19-2.57204E-18
 -1      1875 1.00787E-04-3.01248E-05-3.02816E-05-2.50028E-06-4.27155E-19-2.97473E-18
 -1      1876 1.00963E-04-3.02443E-05-3.03128E-05-3.29812E-06-2.63740E-19-2.90331E-18
 -1      1877 1.00265E-04-2.99386E-05-3.01347E-05-2.36225E-06-6.06030E-19-2.82300E-18
 -1      1878 9.96329E-05-2.97272E-05-2.99566E-05-2.23487E-06-6.13126E-19-3.35759E-18
 -1      1879 9.98386E-05-2.97657E-05-3.00366E-05-3.08824E-06-6.90893E-19-2.99613E-18
 -1      1880 9.91825E-05-2.95823E-05-2.98208E-05-2.05200E-06-6.65463E-19-3.45862E-18
 -1      1881 9.86347E-05-2.94121E-05-2.96635E-05-1.90319E-06-6.04279E-19-3.27905E-18
 -1      1882 9.88574E-05-2.94047E-05-2.97711E-05-2.72557E-06-8.65260E-19-2.62920E-18
 -1      1883 9.82571E-05-2.93012E-05-2.95436E-05-1.70911E-06-6.55520E-19-3.51373E-18
 -1      1884 9.78006E-05-2.91680E-05-2.94106E-05-1.56049E-06-6.65730E-19-3.33073E-18
 -1      1885 9.80271E-05-2.91387E-05-2.95291E-05-2.30200E-06-8.22966E-19-3.38770E-18
 -1      1886 9.74918E-05-2.90844E-05-2.93087E-05-1.37565E-06-1.96914E-19-2.89477E-18
 -1      1887 9.71234E-05-2.89827E-05-2.91999E-05-1.23945E-06 8.71931E-19-2.51501E-18
 -1      1888 9.73424E-05-2.89463E-05-2.93178E-05-1.87694E-06 8.76770E-20-1.79648E-18
 -1      1889 9.68765E-05-2.89206E-05-2.91160E-05-1.07472E-06 7.98232E-19-2.64479E-18
 -1      1890 9.65877E-05-2.88448E-05-2.90298E-05-9.56753E-07 5.88120E-19-1.89547E-18
 -1      1891 9.67907E-05-2.88094E-05-2.91394E-05-1.48490E-06 8.75253E-19-2.00544E-18
 -1      1892 9.63946E-05-2.87994E-05-2.89625E-05-8.16615E-07 5.05876E-19-1.95307E-18
 -1      1893 9.61741E-05-2.87443E-05-2.88959E-05-7.18555E-07 6.56091E-19-2.68603E-18
 -1      1894 9.63557E-05-2.87138E-05-2.89934E-05-1.14285E-06 4.28609E-19-2.88006E-18
 -1      1895 9.60262E-05-2.87117E-05-2.88434E-05-6.03517E-07 8.99251E-19-2.34043E-18
 -1      1896 9.58624E-05-2.86729E-05-2.87933E-05-5.24626E-07 6.01808E-19-1.35625E-18
 -1      1897 9.60199E-05-2.86484E-05-2.88768E-05-8.56326E-07 8.44997E-19-1.44429E-18
 -1      1898 9.57517E-05-2.86500E-05-2.87533E-05-4.32927E-07-2.09344E-19-1.23690E-18
 -1      1899 9.56333E-05-2.86235E-05-2.87167E-05-3.71198E-07-5.97994E-19-9.97752E-19
 -1      1900 9.57663E-05-2.86051E-05-2.87861E-05-6.23945E-07 7.29425E-19-9.17578E-19
 -1      1901 9.55525E-05-2.86080E-05-2.86869E-05-2.99964E-07 8.31381E-20-7.47897E-19
 -1      1902 9.54698E-05-2.85907E-05-2.86610E-05-2.52865E-07 4.29425E-19 1.05616E-19
 -1      1903 9.55792E-05-2.85774E-05-2.87172E-05-4.40578E-07 1.22226E-19-1.12392E-19
 -1      1904 9.54124E-05-2.85806E-05-2.86395E-05-1.98839E-07-3.60838E-19 9.33320E-20
 -1      1905 9.53569E-05-2.85700E-05-2.86218E-05-1.63760E-07-8.16796E-19-2.93878E-19
 -1      1906 9.54447E-05-2.85609E-05-2.86662E-05-2.99413E-07-3.53810E-19 4.52158E-19
 -1      1907 9.53175E-05-2.85638E-05-2.86067E-05-1.23739E-07-3.89101E-19 1.25496E-20
 -1      1908 9.52824E-05-2.85581E-05-2.85953E-05-9.82490E-08 1.78796E-19-2.45218E-19
 -1      1909 9.53510E-05-2.85520E-05-2.86295E-05-1.93259E-07-6.53962E-19 6.57887E-19
 -1      1910 9.52567E-05-2.85547E-05-2.85851E-05-6.93229E-08 2.16382E-20-1.17671E-18
 -1      1911 9.52364E-05-2.85523E-05-2.85782E-05-5.12925E-08 4.62987E-20-4.59491E-19
 -1      1912 9.52883E-05-2.85483E-05-2.86039E-05-1.15300E-07-1.85898E-19 6.20049E-19
 -1      1913 9.52207E-05-2.85509E-05-2.85718E-05-3.09613E-08-5.80528E-19-3.50009E-19
 -1      1914 9.52110E-05-2.85508E-05-2.85682E-05-1.86160E-08-3.16779E-19 3.49053E-19
 -1      1915 9.52488E-05-2.85481E-05-2.85868E-05-5.94929E-08-3.67051E-21 5.98052E-19
 -1      1916 9.52025E-05-2.85506E-05-2.85644E-05-4.82682E-09 1.20441E-19 5.41593E-19
 -1      1917 9.52000E-05-2.85520E-05-2.85631E-05 3.24675E-09 1.29131E-18 1.65452E-18
 -1      1918 9.52261E-05-2.85501E-05-2.85760E-05-2.07437E-08 2.67475E-19 2.06162E-18
 -1      1919 9.51965E-05-2.85527E-05-2.85612E-05 1.21022E-08 1.27886E-18 2.15730E-18
 -1      1920 9.51988E-05-2.85550E-05-2.85614E-05 1.69688E-08 1.68503E-18 1.80146E-18
 -1      1921 9.52152E-05-2.85534E-05-2.85697E-05 5.05105E-09 1.23087E-18 2.24925E-18
 -1      1922 9.51986E-05-2.85563E-05-2.85608E-05 2.20759E-08 1.55510E-18 1.04507E-18
 -1      1923 9.52037E-05-2.85591E-05-2.85618E-05 2.44676E-08 1.07748E-18 1.04918E-18
 -1      1924 9.52125E-05-2.85575E-05-2.85667E-05 2.10320E-08 1.06702E-18 1.78002E-18
 -1      1925 9.52056E-05-2.85608E-05-2.85619E-05 2.66169E-08 3.42459E-19 1.40521E-18
 -1      1926 9.52119E-05-2.85638E-05-2.85634E-05 2.69415E-08 6.31601E-19 9.99936E-19
 -1      1927 9.52149E-05-2.85622E-05-2.85656E-05 2.94351E-08 6.20243E-19 1.00550E-18
 -1      1928 9.52149E-05-2.85659E-05-2.85639E-05 2.66267E-08 1.43264E-18-8.41802E-20
 -1      1929 9.52213E-05-2.85689E-05-2.85653E-05 2.49569E-08 1.33637E-18 8.92921E-19
 -1      1930 9.52204E-05-2.85673E-05-2.85657E-05 3.16770E-08 8.32475E-19 1.89186E-18
 -1      1931 9.52242E-05-2.85708E-05-2.85658E-05 2.24967E-08 7.47468E-19 8.12066E-19
 -1      1932 9.52298E-05-2.85737E-05-2.85670E-05 1.89063E-08 1.04222E-19 1.63605E-18
 -1      1933 9.52329E-05-2.85773E-05-2.85667E-05 2.17883E-08-4.62838E-19 1.19945E-18
 -1      1934 9.52268E-05-2.85726E-05-2.85661E-05 2.87441E-08 1.18103E-18 2.22240E-18
 -1      1935 9.68341E-05-2.83072E-05-2.93289E-05-2.10111E-07 1.74177E-18 2.99697E-18
 -1      1936 9.74304E-05-2.82582E-05-2.95806E-05 1.00686E-06 1.88096E-18 3.78356E-18
 -1      1937 9.80244E-05-2.77402E-05-3.01336E-05 2.00423E-06 2.31785E-18 2.58280E-18
 -1      1938 9.70713E-05-2.86144E-05-2.93010E-05-1.92397E-06 1.25508E-18 2.18932E-18
 -1      1939 9.68292E-05-2.84453E-05-2.92498E-05-1.14942E-06 1.35786E-18 2.69796E-18
 -1      1940 9.74128E-05-2.82548E-05-2.96538E-05-9.24524E-07 1.77024E-18 1.85147E-18
 -1      1941 9.83112E-05-2.90789E-05-2.96404E-05-3.18668E-06 8.74429E-19 1.62782E-18
 -1      1942 9.75047E-05-2.87894E-05-2.94110E-05-2.59270E-06 9.97543E-19 1.98755E-18
 -1      1943 9.78291E-05-2.86524E-05-2.96661E-05-2.88282E-06 1.30063E-18 1.24900E-18
 -1      1944 1.00342E-04-2.97281E-05-3.02372E-05-4.24777E-06 3.73303E-19 1.24543E-18
 -1      1945 9.91064E-05-2.93261E-05-2.98806E-05-3.72819E-06 6.33356E-19 1.54259E-18
 -1      1946 9.90667E-05-2.91350E-05-2.99916E-05-4.38812E-06 7.69457E-19 6.65766E-19
 -1      1947 1.03031E-04-3.05728E-05-3.10328E-05-5.18901E-06 4.01881E-19 9.41504E-19
 -1      1948 1.01442E-04-3.00606E-05-3.05751E-05-4.71113E-06 3.06987E-19 1.20921E-18
 -1      1949 1.00977E-04-2.97693E-05-3.05389E-05-5.66451E-06 5.32493E-19 5.83207E-19
 -1      1950 1.06272E-04-3.16310E-05-3.19767E-05-5.96472E-06 4.03868E-19 7.98646E-19
 -1      1951 1.04396E-04-3.10071E-05-3.14422E-05-5.55438E-06 3.69770E-19 9.55632E-19
 -1      1952 1.03462E-04-3.06029E-05-3.12473E-05-6.75501E-06 4.72166E-19 5.87358E-19
 -1      1953 1.09918E-04-3.29258E-05-3.29994E-05-6.38551E-06 4.59141E-19 5.81508E-19
 -1      1954 1.07859E-04-3.21938E-05-3.24259E-05-6.13931E-06 5.04154E-19 7.65552E-19
 -1      1955 1.06444E-04-3.16979E-05-3.20570E-05-7.54268E-06 5.81981E-19 5.89568E-19
 -1      1956 1.13721E-04-3.44635E-05-3.39916E-05-6.08362E-06 2.57352E-20 5.97231E-19
 -1      1957 1.11666E-04-3.36502E-05-3.34435E-05-6.18987E-06 2.69168E-19 5.51677E-19
 -1      1958 1.09828E-04-3.31337E-05-3.28916E-05-7.72589E-06 3.91468E-19 5.21352E-19
 -1      1959 1.17251E-04-3.61711E-05-3.47955E-05-4.51909E-06 3.42122E-21 5.17590E-19
 -1      1960 1.15516E-04-3.53628E-05-3.43708E-05-5.25758E-06 6.99861E-20 5.88741E-19
 -1      1961 1.13445E-04-3.49647E-05-3.36523E-05-6.79826E-06 1.64758E-19 7.18608E-19
 -1      1962 1.19828E-04-3.77650E-05-3.52282E-05-1.14686E-06 1.68215E-20 9.98146E-19
 -1      1963 1.18871E-04-3.71664E-05-3.50455E-05-2.80287E-06-1.58276E-19 6.03448E-19
 -1      1964 1.16959E-04-3.70933E-05-3.42318E-05-4.12430E-06-2.41543E-19 6.76687E-19
 -1      1965 1.20527E-04-3.85753E-05-3.51633E-05 4.07729E-06 5.72118E-19 1.10759E-18
 -1      1966 1.20867E-04-3.85549E-05-3.53130E-05 1.47690E-06 2.92226E-19 1.25808E-18
 -1      1967 1.19717E-04-3.90107E-05-3.45639E-05 7.27673E-07 2.67133E-19 9.67004E-19
 -1      1968 1.18408E-04-3.75592E-05-3.46488E-05 9.81904E-06 8.45882E-19 5.96391E-19
 -1      1969 1.20380E-04-3.85470E-05-3.51136E-05 6.96661E-06 5.95292E-19 8.83098E-19
 -1      1970 1.20652E-04-3.95743E-05-3.46911E-05 7.23277E-06 7.42014E-19 1.03047E-18
 -1      1971 1.13378E-04-3.41051E-05-3.39664E-05 1.29471E-05 4.52514E-19 4.90061E-19
 -1      1972 1.16681E-04-3.61471E-05-3.45721E-05 1.14121E-05 7.02154E-19 2.71395E-19
 -1      1973 1.18707E-04-3.74437E-05-3.47836E-05 1.30013E-05 1.07443E-18 2.13413E-19
 -1      1974 1.07323E-04-2.93824E-05-3.34592E-05 9.91668E-06 1.09553E-18-9.79580E-19
 -1      1975 1.10670E-04-3.15919E-05-3.39483E-05 1.14081E-05 6.97704E-19-2.06041E-19
 -1      1976 1.14072E-04-3.25221E-05-3.50008E-05 1.38878E-05 8.61538E-19-2.22214E-19
 -1      1977 1.04248E-04-2.68301E-05-3.33364E-05 8.58535E-07 1.61831E-18-2.53182E-18
 -1      1978 1.05719E-04-2.76559E-05-3.34887E-05 5.11913E-06 1.56275E-18-1.96771E-18
 -1      1979 1.09560E-04-2.76057E-05-3.52613E-05 7.19972E-06 2.12319E-18-1.64939E-18
 -1      1980 1.06858E-04-2.88480E-05-3.36037E-05-8.92483E-06 7.18760E-19-2.71874E-18
 -1      1981 1.05356E-04-2.75224E-05-3.33560E-05-4.52789E-06 1.39406E-18-2.46234E-18
 -1      1982 1.08957E-04-2.67462E-05-3.53694E-05-4.30149E-06 1.52318E-18-2.59181E-18
 -1      1983 1.13259E-04-3.36318E-05-3.41878E-05-1.33054E-05-8.10637E-19-3.21687E-18
 -1      1984 1.09730E-04-3.12650E-05-3.36318E-05-1.13847E-05-2.02759E-20-3.11613E-18
 -1      1985 1.12911E-04-3.08201E-05-3.52352E-05-1.31230E-05 2.81400E-19-2.75622E-18
 -1      1986 1.19236E-04-3.76275E-05-3.49179E-05-1.11644E-05-6.31582E-19-2.92993E-18
 -1      1987 1.15646E-04-3.57327E-05-3.42760E-05-1.20418E-05-8.34844E-19-3.07679E-18
 -1      1988 1.18099E-04-3.62695E-05-3.50541E-05-1.45006E-05-7.34225E-19-3.18319E-18
 -1      1989 1.22126E-04-3.90690E-05-3.55094E-05-5.64096E-06 1.48866E-19-1.98057E-18
 -1      1990 1.19912E-04-3.83028E-05-3.50330E-05-7.91257E-06-2.90956E-19-2.21203E-18
 -1      1991 1.21140E-04-3.95223E-05-3.49844E-05-9.79330E-06-5.86398E-19-2.15095E-18
 -1      1992 1.21871E-04-3.84726E-05-3.56779E-05-1.99785E-07 4.66834E-19-1.81043E-18
 -1      1993 1.21355E-04-3.86199E-05-3.55245E-05-2.44919E-06 6.66311E-19-1.41518E-18
 -1      1994 1.21156E-04-3.97006E-05-3.49408E-05-3.20708E-06 6.05840E-19-1.50424E-18
 -1      1995 1.19533E-04-3.69439E-05-3.53685E-05 3.48718E-06-6.66992E-19-2.25888E-18
 -1      1996 1.20343E-04-3.75584E-05-3.55324E-05 1.94102E-06-1.46801E-19-2.08782E-18
 -1      1997 1.19051E-04-3.80988E-05-3.47324E-05 2.21673E-06 2.49610E-20-1.69921E-18
 -1      1998 1.16205E-04-3.52591E-05-3.46916E-05 5.28350E-06-9.86783E-19-1.38397E-18
 -1      1999 1.17783E-04-3.60155E-05-3.50766E-05 4.50571E-06-8.95843E-19-1.61609E-18
 -1      2000 1.15945E-04-3.60052E-05-3.42898E-05 5.46759E-06-8.63418E-19-1.90785E-18
 -1      2001 1.12643E-04-3.37619E-05-3.38186E-05 5.70729E-06-4.84950E-19-6.40304E-20
 -1      2002 1.14515E-04-3.44910E-05-3.43099E-05 5.49507E-06-1.14131E-18-1.10403E-18
 -1      2003 1.12603E-04-3.41243E-05-3.36508E-05 6.79043E-06-1.30308E-18-6.87023E-19
 -1      2004 1.09269E-04-3.25374E-05-3.28999E-05 5.34396E-06-3.21310E-20 2.94314E-19
 -1      2005 1.11125E-04-3.31731E-05-3.34078E-05 5.46227E-06 1.00737E-19 4.81029E-19
 -1      2006 1.09425E-04-3.26559E-05-3.29082E-05 6.83320E-06-3.08392E-19-1.27187E-20
 -1      2007 1.06287E-04-3.15684E-05-3.20351E-05 4.62572E-06 9.86793E-20 1.47896E-18
 -1      2008 1.07961E-04-3.20952E-05-3.25049E-05 4.89818E-06-3.77085E-19 5.96576E-19
 -1      2009 1.06587E-04-3.15674E-05-3.21529E-05 6.18915E-06-7.77484E-20 8.98598E-19
 -1      2010 1.03765E-04-3.08119E-05-3.12752E-05 3.81313E-06-5.28964E-19 1.25083E-18
 -1      2011 1.05190E-04-3.12355E-05-3.16815E-05 4.13167E-06 7.42709E-20 1.35936E-18
 -1      2012 1.04149E-04-3.07688E-05-3.14486E-05 5.26585E-06 2.69694E-20 1.39199E-18
 -1      2013 1.01699E-04-3.02259E-05-3.06377E-05 3.04094E-06 1.06394E-18 1.25393E-18
 -1      2014 1.02865E-04-3.05593E-05-3.09737E-05 3.34858E-06 3.86128E-20 1.35726E-18
 -1      2015 1.02115E-04-3.01789E-05-3.08295E-05 4.30041E-06 3.88328E-19 1.91970E-18
 -1      2016 1.00047E-04-2.97754E-05-3.01202E-05 2.36677E-06-1.32049E-19 1.11128E-18
 -1      2017 1.00974E-04-3.00334E-05-3.03895E-05 2.63827E-06 4.81867E-19 7.46804E-19
 -1      2018 1.00456E-04-2.97393E-05-3.03077E-05 3.41153E-06 7.92153E-19 1.80095E-18
 -1      2019 9.87511E-05-2.94320E-05-2.97104E-05 1.80625E-06-1.00592E-18 2.48503E-19
 -1      2020 9.94730E-05-2.96287E-05-2.99212E-05 2.03390E-06-6.37262E-19 8.38215E-19
 -1      2021 9.91306E-05-2.94096E-05-2.98814E-05 2.64678E-06-3.92557E-19 1.06773E-18
 -1      2022 9.77530E-05-2.91731E-05-2.93925E-05 1.35465E-06 1.08736E-18-7.07321E-19
 -1      2023 9.83045E-05-2.93209E-05-2.95543E-05 1.53942E-06 3.06272E-20 1.09314E-19
 -1      2024 9.80896E-05-2.91625E-05-2.95416E-05 2.01552E-06 9.57743E-20 3.54364E-19
 -1      2025 9.69968E-05-2.89805E-05-2.91502E-05 9.98792E-07 4.66617E-19-6.89246E-19
 -1      2026 9.74108E-05-2.90898E-05-2.92722E-05 1.14537E-06 5.50689E-19-7.22367E-19
 -1      2027 9.72855E-05-2.89783E-05-2.92761E-05 1.50873E-06 7.90361E-19-9.52293E-19
 -1      2028 9.64332E-05-2.88393E-05-2.89687E-05 7.23180E-07 5.45754E-19 1.92750E-19
 -1      2029 9.67388E-05-2.89188E-05-2.90592E-05 8.37446E-07 1.68631E-19-7.92861E-20
 -1      2030 9.66742E-05-2.88424E-05-2.90723E-05 1.11013E-06 3.45267E-19-5.63357E-19
 -1      2031 9.60206E-05-2.87379E-05-2.88351E-05 5.12875E-07 1.30189E-18 2.61670E-19
 -1      2032 9.62420E-05-2.87945E-05-2.89010E-05 6.00633E-07 1.36436E-18 4.45105E-19
 -1      2033 9.62173E-05-2.87438E-05-2.89187E-05 8.01773E-07 1.33143E-18 1.37112E-18
 -1      2034 9.57245E-05-2.86666E-05-2.87387E-05 3.54639E-07 2.05807E-18-3.40993E-19
 -1      2035 9.58816E-05-2.87060E-05-2.87856E-05 4.21112E-07 1.52140E-18 2.51877E-19
 -1      2036 9.58819E-05-2.86737E-05-2.88049E-05 5.66702E-07 1.88015E-18 2.09525E-18
 -1      2037 9.55172E-05-2.86180E-05-2.86706E-05 2.37265E-07-1.03919E-19-2.27375E-18
 -1      2038 9.56257E-05-2.86446E-05-2.87032E-05 2.86925E-07 1.34096E-18-1.10460E-18
 -1      2039 9.56406E-05-2.86251E-05-2.87221E-05 3.90018E-07 2.12985E-18 1.79170E-19
 -1      2040 9.53764E-05-2.85862E-05-2.86239E-05 1.51523E-07-5.73121E-19-1.55275E-18
 -1      2041 9.54489E-05-2.86033E-05-2.86459E-05 1.88087E-07-1.02066E-18-2.06021E-18
 -1      2042 9.54713E-05-2.85927E-05-2.86632E-05 2.59132E-07-8.57736E-19-8.30748E-19
 -1      2043 9.52848E-05-2.85666E-05-2.85931E-05 8.99496E-08-2.26600E-18-6.81171E-19
 -1      2044 9.53309E-05-2.85769E-05-2.86072E-05 1.16449E-07-1.59539E-18-1.72818E-18
 -1      2045 9.53560E-05-2.85720E-05-2.86225E-05 1.63683E-07-1.99765E-18-4.72860E-19
 -1      2046 9.52289E-05-2.85556E-05-2.85739E-05 4.66091E-08-7.66687E-20-6.28959E-19
 -1      2047 9.52560E-05-2.85611E-05-2.85823E-05 6.54719E-08-1.32262E-18-1.14251E-18
 -1      2048 9.52809E-05-2.85599E-05-2.85954E-05 9.52968E-08-1.52986E-18-1.34792E-18
 -1      2049 9.51983E-05-2.85508E-05-2.85629E-05 1.68495E-08 1.50217E-18-4.98721E-19
 -1      2050 9.52121E-05-2.85529E-05-2.85674E-05 2.99907E-08 6.66382E-19-3.16412E-19
 -1      2051 9.52350E-05-2.85539E-05-2.85781E-05 4.73165E-08 5.33260E-19-6.29638E-19
 -1      2052 9.51854E-05-2.85500E-05-2.85577E-05-2.90310E-09-9.52961E-19-5.07468E-20
 -1      2053 9.51901E-05-2.85500E-05-2.85595E-05 5.99581E-09 9.51746E-19 5.33829E-19
 -1      2054 9.52099E-05-2.85521E-05-2.85681E-05 1.45432E-08 3.58252E-19 1.02939E-18
 -1      2055 9.51843E-05-2.85520E-05-2.85565E-05-1.53171E-08 1.27350E-18-1.00433E-18
 -1      2056 9.51829E-05-2.85505E-05-2.85564E-05-9.55304E-09-2.12237E-19-1.98017E-19
 -1      2057 9.51992E-05-2.85530E-05-2.85630E-05-6.99365E-09-1.35415E-21 9.46877E-19
 -1      2058 9.51907E-05-2.85556E-05-2.85577E-05-2.22873E-08 1.56177E-18-1.84751E-18
 -1      2059 9.51856E-05-2.85533E-05-2.85565E-05-1.88755E-08 1.74718E-18-1.66072E-18
 -1      2060 9.51982E-05-2.85557E-05-2.85613E-05-2.02249E-08 1.99395E-18-4.56111E-19
 -1      2061 9.52012E-05-2.85602E-05-2.85603E-05-2.49891E-08 5.44504E-19-1.92408E-18
 -1      2062 9.51942E-05-2.85574E-05-2.85585E-05-2.34602E-08 1.04859E-18-1.73695E-18
 -1      2063 9.52033E-05-2.85596E-05-2.85617E-05-2.71574E-08 8.69284E-19-1.42987E-18
 -1      2064 9.52132E-05-2.85652E-05-2.85633E-05-2.39938E-08-9.44849E-19-2.11811E-18
 -1      2065 9.52057E-05-2.85623E-05-2.85614E-05-2.41546E-08-3.90537E-19-1.42757E-18
 -1      2066 9.52116E-05-2.85642E-05-2.85633E-05-2.89975E-08 1.66313E-19-1.32033E-18
 -1      2067 9.52245E-05-2.85702E-05-2.85661E-05-1.92531E-08 1.85588E-19-2.38475E-18
 -1      2068 9.52178E-05-2.85675E-05-2.85645E-05-2.13000E-08-5.03424E-19-1.78703E-18
 -1      2069 9.52211E-05-2.85692E-05-2.85652E-05-2.63722E-08-5.85422E-19 5.26791E-19
 -1      2070 9.52325E-05-2.85742E-05-2.85679E-05-1.30165E-08-1.22047E-18-7.60359E-19
 -1      2071 9.52273E-05-2.85718E-05-2.85667E-05-1.68888E-08 1.30962E-21-1.54052E-18
 -1      2072 9.52290E-05-2.85736E-05-2.85666E-05-2.13072E-08-2.51378E-19 2.28035E-18
 -1      2073 9.52345E-05-2.85774E-05-2.85673E-05-1.56305E-08-8.53915E-19 1.76524E-18
 -1      2074 9.52488E-05-2.86043E-05-2.85619E-05-2.24094E-08-2.79226E-19-2.66928E-18
 -1      2075 9.52463E-05-2.85986E-05-2.85633E-05-2.34586E-08-6.49883E-19-1.54767E-19
 -1      2076 9.52442E-05-2.85949E-05-2.85640E-05-2.40241E-08-1.01011E-18 5.78740E-19
 -1      2077 9.52412E-05-2.85890E-05-2.85653E-05-2.33806E-08-4.62471E-19 1.90281E-18
 -1      2078 9.52439E-05-2.85917E-05-2.85653E-05-2.88655E-08-4.49513E-19 4.15383E-20
 -1      2079 9.52394E-05-2.85861E-05-2.85657E-05-2.17389E-08-4.20417E-19 3.54699E-18
 -1      2080 9.52364E-05-2.85807E-05-2.85668E-05-1.88733E-08 1.04757E-19 2.36304E-18
 -1      2081 9.52342E-05-2.85789E-05-2.85666E-05-2.22776E-08-3.61026E-19 3.53868E-18
 -1      2082 9.52391E-05-2.85852E-05-2.85660E-05-2.76756E-08-1.15151E-18 2.99736E-18
 -1      2083 9.52521E-05-2.86120E-05-2.85600E-05-1.84097E-08-2.23588E-18-2.69551E-18
 -1      2084 9.52502E-05-2.86072E-05-2.85612E-05-2.03930E-08-1.55183E-18-2.65289E-18
 -1      2085 9.52483E-05-2.85984E-05-2.85643E-05-2.59371E-08-6.21850E-19-3.54761E-18
 -1      2086 9.52542E-05-2.86177E-05-2.85585E-05-1.30716E-08-6.13204E-20 3.17901E-18
 -1      2087 9.52530E-05-2.86141E-05-2.85594E-05-1.55572E-08-1.03514E-18 1.07151E-18
 -1      2088 9.52511E-05-2.86035E-05-2.85633E-05-2.05322E-08-8.34110E-19 7.57063E-19
 -1      2089 9.52554E-05-2.86212E-05-2.85574E-05-7.22779E-09-8.33372E-19 1.29345E-18
 -1      2090 9.52547E-05-2.86190E-05-2.85580E-05-9.87750E-09-9.27679E-19 3.76332E-18
 -1      2091 9.52527E-05-2.86070E-05-2.85625E-05-1.38572E-08-1.02426E-18 2.92444E-18
 -1      2092 9.52557E-05-2.86224E-05-2.85570E-05-1.28113E-09-1.20355E-18-5.99500E-19
 -1      2093 9.52555E-05-2.86218E-05-2.85572E-05-3.95213E-09-1.11318E-18 3.23263E-20
 -1      2094 9.52534E-05-2.86090E-05-2.85619E-05-6.73879E-09-1.33623E-18 6.44182E-19
 -1      2095 9.52554E-05-2.86215E-05-2.85573E-05 4.61808E-09-1.04834E-18-1.21946E-18
 -1      2096 9.52557E-05-2.86224E-05-2.85570E-05 1.97672E-09-6.93219E-19 4.67277E-19
 -1      2097 9.52536E-05-2.86095E-05-2.85618E-05 4.37793E-10-1.52866E-18 7.96166E-19
 -1      2098 9.52544E-05-2.86185E-05-2.85581E-05 1.03876E-08-2.04672E-18-3.26423E-18
 -1      2099 9.52552E-05-2.86208E-05-2.85575E-05 7.82059E-09-6.36773E-19-3.28710E-18
 -1      2100 9.52532E-05-2.86087E-05-2.85620E-05 7.53263E-09-1.55798E-18-2.07119E-18
 -1      2101 9.52526E-05-2.86135E-05-2.85595E-05 1.57311E-08-1.42334E-18-3.00672E-18
 -1      2102 9.52539E-05-2.86171E-05-2.85586E-05 1.34033E-08-1.42462E-18-1.98520E-18
 -1      2103 9.52524E-05-2.86065E-05-2.85626E-05 1.43668E-08-1.23186E-18-2.85859E-18
 -1      2104 9.52499E-05-2.86064E-05-2.85614E-05 2.03377E-08-5.45511E-20 9.17660E-19
 -1      2105 9.52517E-05-2.86113E-05-2.85601E-05 1.84390E-08 5.36388E-19-1.08152E-18
 -1      2106 9.52507E-05-2.86029E-05-2.85634E-05 2.06701E-08 1.30495E-18-1.31718E-18
 -1      2107 9.52460E-05-2.85979E-05-2.85635E-05 2.31901E-08-1.55091E-18 1.75891E-18
 -1      2108 9.52484E-05-2.86035E-05-2.85621E-05 2.22430E-08-4.31299E-19 8.28348E-19
 -1      2109 9.52479E-05-2.85977E-05-2.85644E-05 2.57956E-08 1.25646E-18 5.51574E-19
 -1      2110 9.52408E-05-2.85883E-05-2.85654E-05 2.32157E-08-1.53786E-18-4.30506E-19
 -1      2111 9.52441E-05-2.85943E-05-2.85641E-05 2.36724E-08-1.65245E-18 2.11708E-18
 -1      2112 9.52436E-05-2.85910E-05-2.85654E-05 2.84667E-08-9.02263E-19 1.79380E-18
 -1      2113 5.55682E-05-4.08676E-05-7.05567E-06 3.74113E-05 1.96681E-18 2.13225E-18
 -1      2114 4.04448E-05-4.14062E-05-9.92130E-07 3.02143E-05 8.21622E-19 2.32045E-18
 -1      2115 1.18422E-05-3.55199E-05 8.59918E-06 2.30681E-06-2.91379E-19 4.70357E-18
 -1      2116 1.21718E-05-3.55184E-05 8.44096E-06-6.80864E-06-1.23455E-18 4.77007E-18
 -1      2117 2.46916E-05-3.42074E-05 3.16587E-06 2.34918E-05 4.75185E-19 2.81151E-18
 -1      2118 1.71950E-05-3.64616E-05 6.67778E-06 1.30329E-05-6.53062E-19 3.68883E-18
 -1      2119 9.76212E-05-4.74518E-05-2.16953E-05 4.09190E-05 1.88422E-18 2.87610E-18
 -1      2120 7.62865E-05-4.72669E-05-1.35544E-05 3.67677E-05 1.95749E-18 2.21965E-18
 -1      2121 1.38837E-04-4.68152E-05-3.88459E-05 3.15104E-05 2.51103E-18 4.03018E-18
 -1      2122 1.19531E-04-4.98584E-05-3.03868E-05 3.02793E-05 2.05533E-18 3.03958E-18
 -1      2123 8.74220E-05-8.45184E-06-3.39367E-05-8.51904E-06-2.03164E-18-3.72104E-18
 -1      2124 8.84528E-05-9.13477E-06-3.40730E-05-1.00701E-05-2.39816E-18-3.26315E-18
 -1      2125 9.11033E-05-1.29964E-05-3.35380E-05-9.77556E-06-2.58276E-18-2.84054E-18
 -1      2126 8.85384E-05-1.04823E-05-3.34734E-05-7.33043E-06-2.01694E-18-3.60288E-18
 -1      2127 1.83457E-04-3.17764E-05-6.36399E-05 9.07092E-06 5.17622E-18 1.62715E-18
 -1      2128 1.71966E-04-3.29241E-05-5.87732E-05 1.55706E-05 4.33257E-18 3.08066E-18
 -1      2129 1.90011E-04-2.73090E-05-6.81832E-05-7.07607E-07 5.64251E-18 5.93241E-19
 -1      2130 1.85115E-04-2.64422E-05-6.66936E-05 5.36815E-06 5.74797E-18 1.78999E-18
 -1      2131 1.71029E-04-2.36505E-05-6.26759E-05-4.10647E-06 6.30447E-18 4.23305E-19
 -1      2132 1.87266E-04-2.63474E-05-6.68531E-05-2.82108E-06 5.89789E-18 1.97041E-19
 -1      2133 1.64217E-04-1.54058E-05-6.25875E-05 6.31430E-07 5.99911E-18 7.99917E-19
 -1      2134 1.58964E-04-3.83404E-05-5.16312E-05-1.00560E-05 5.81864E-18-1.96088E-19
 -1      2135 1.66784E-04-3.29152E-05-5.72837E-05-3.60324E-06 5.98704E-18 1.15789E-18
 -1      2136 1.35098E-04-4.91169E-05-3.72586E-05-2.47118E-05 4.42278E-18-2.26370E-18
 -1      2137 1.53281E-04-4.62536E-05-4.55430E-05-2.13139E-05 5.07097E-18-1.27182E-18
 -1      2138 9.76906E-05-5.06387E-05-2.09103E-05-3.63225E-05 2.85620E-18-4.42659E-18
 -1      2139 1.19261E-04-5.02563E-05-2.95250E-05-3.71751E-05 3.77057E-18-3.36950E-18
 -1      2140 5.55779E-05-4.45003E-05-5.98947E-06-3.53344E-05 2.35772E-18-6.15041E-18
 -1      2141 7.48066E-05-4.47568E-05-1.31949E-05-4.22655E-05 2.55550E-18-5.94924E-18
 -1      2142 2.81274E-05-3.70657E-05 2.76362E-06-2.49712E-05 7.70376E-19-6.62930E-18
 -1      2143 3.98172E-05-3.82596E-05-1.43654E-06-3.29977E-05 2.58260E-18-6.69071E-18
 -1      2144 5.75369E-05-4.13753E-05-7.10711E-06-3.98336E-05-5.60736E-19-5.71112E-18
 -1      2145 1.23349E-05-3.54711E-05 8.36628E-06-1.90290E-06-4.56207E-19-6.31251E-18
 -1      2146 1.50494E-05-3.29470E-05 6.55833E-06-1.28792E-05 1.12147E-18-7.06002E-18
 -1      2147 1.80967E-05-3.37211E-05 5.61860E-06 1.92289E-05-2.16502E-18-6.15073E-18
 -1      2148 1.34914E-05-3.54515E-05 7.89512E-06 8.76980E-06-4.82068E-19-6.14734E-18
 -1      2149 4.30454E-05-3.77308E-05-3.01287E-06 3.67839E-05-3.99969E-18-6.08286E-18
 -1      2150 3.05208E-05-3.89578E-05 2.25193E-06 2.81768E-05-2.48011E-18-5.94024E-18
 -1      2151 7.84286E-05-4.07962E-05-1.63881E-05 4.34460E-05-5.34605E-18-6.20430E-18
 -1      2152 6.20705E-05-4.33831E-05-9.16354E-06 3.81855E-05-4.21060E-18-5.36659E-18
 -1      2153 1.17682E-04-4.35429E-05-3.16019E-05 4.02213E-05-4.86197E-18-5.22577E-18
 -1      2154 9.61603E-05-4.40909E-05-2.31335E-05 3.86125E-05-4.77472E-18-5.80429E-18
 -1      2155 1.51539E-04-3.90998E-05-4.73709E-05 2.76825E-05-6.14798E-18-2.77784E-18
 -1      2156 1.33666E-04-4.16381E-05-3.96925E-05 2.80114E-05-5.40026E-18-3.29496E-18
 -1      2157 1.68836E-04-3.17498E-05-5.79198E-05 1.55105E-05-5.94088E-18-1.73218E-18
 -1      2158 1.56198E-04-3.34160E-05-5.24658E-05 2.12973E-05-6.45384E-18-3.00019E-18
 -1      2159 1.50840E-04-3.99717E-05-4.68335E-05 7.64879E-06-4.59251E-18 5.96735E-19
 -1      2160 1.78246E-04-2.42675E-05-6.51104E-05 4.08144E-06-5.88180E-18-5.18596E-19
 -1      2161 1.71787E-04-2.46551E-05-6.23985E-05 1.06829E-05-5.93304E-18-1.90540E-18
 -1      2162 1.71999E-04-2.04130E-05-6.45745E-05-4.38033E-06-5.67512E-18 7.57036E-19
 -1      2163 1.76149E-04-2.13035E-05-6.55224E-05 1.99102E-06-6.01055E-18-4.41569E-19
 -1      2164 1.62096E-04-2.75703E-05-5.74253E-05-1.07282E-05-4.76011E-18 1.73854E-18
 -1      2165 1.69193E-04-2.49778E-05-6.13691E-05-4.71278E-06-4.83952E-18 1.12952E-18
 -1      2166 1.45483E-04-3.57038E-05-4.69999E-05-2.73162E-05-4.94191E-18 2.95149E-18
 -1      2167 1.62075E-04-3.52737E-05-5.37200E-05-2.18748E-05-4.71617E-18 2.35136E-18
 -1      2168 1.15100E-04-4.14338E-05-3.20705E-05-3.57087E-05-3.79640E-18 3.64309E-18
 -1      2169 1.35337E-04-3.94069E-05-4.04294E-05-3.70099E-05-4.33046E-18 3.26955E-18
 -1      2170 7.79982E-05-4.38016E-05-1.56913E-05-3.91166E-05-2.36830E-18 4.89966E-18
 -1      2171 9.83465E-05-4.22132E-05-2.39673E-05-4.34394E-05-3.00527E-18 4.25041E-18
 -1      2172 4.54926E-05-4.02622E-05-3.20791E-06-3.57533E-05-1.49671E-18 4.94583E-18
 -1      2173 6.01674E-05-3.89765E-05-9.52316E-06-4.12671E-05-2.77700E-18 5.51715E-18
 -1      2174 8.28814E-05-4.85078E-05-1.48957E-05-4.32261E-05-2.96462E-20 4.00702E-18
 -1      2175 1.76419E-05-3.80586E-05 6.89749E-06-1.64239E-05-8.16328E-19 3.89339E-18
 -1      2176 2.56724E-05-3.49746E-05 2.76839E-06-2.69095E-05-1.14942E-18 4.17227E-18
 -1      2177 1.64702E-04-4.06364E-05-5.21844E-05 2.12299E-05 2.94529E-18 4.05856E-18
 -1      2178 1.46424E-04-4.23107E-05-4.48410E-05 2.39506E-05 2.66328E-18 4.29319E-18
 -1      2179 1.47788E-04-5.30803E-05-4.02138E-05 1.27086E-05 9.38830E-19 1.97909E-18
 -1      2180 1.20748E-04-5.80752E-05-2.67230E-05 3.08612E-05 4.83656E-19 2.09471E-18
 -1      2181 9.89545E-05-2.48675E-05-3.18183E-05-8.43609E-06-2.70177E-18 1.64946E-18
 -1      2182 1.61274E-04-3.80240E-05-5.19825E-05 1.98610E-06 2.78293E-18 1.14011E-18
 -1      2183 9.80692E-05-2.35825E-05-3.19923E-05-8.43825E-06-2.93293E-18 1.32468E-19
 -1      2184 3.91450E-05-3.51837E-05-2.18638E-06 3.20761E-05-7.99176E-19 2.72152E-18
 -1      2185 1.66108E-05-2.56911E-05 3.23493E-06 1.06148E-05-9.99499E-19 4.70400E-18
 -1      2186 9.52385E-05-2.85840E-05-2.85663E-05 2.32276E-08-1.46543E-18-7.41079E-20
 -1      2187 7.77535E-05-4.87184E-05-1.25850E-05 4.09990E-05 1.55007E-19 1.95027E-18
 -1      2188 1.65843E-05-2.69270E-05 3.66766E-06-1.49245E-05-1.24090E-19 4.75694E-18
 -1      2189 4.13109E-05-3.65032E-05-2.53301E-06-3.51357E-05-4.16740E-19 4.93587E-18
 -1      2190 5.71393E-05-3.84019E-05-8.45076E-06-4.29753E-05 5.91653E-19 4.55037E-18
 -1      2191 3.77938E-05-2.96650E-05-3.11579E-06-3.52097E-05-2.54110E-21 4.08100E-18
 -1      2192 1.18343E-04-5.24563E-05-2.80658E-05-3.41739E-05-1.22396E-18 1.64091E-18
 -1      2193 1.44719E-04-4.50920E-05-4.19734E-05-1.82948E-05-2.91168E-18 6.02240E-19
 -1      2194 1.52454E-04-3.00032E-05-5.17236E-05-1.95095E-06-4.12463E-18 3.78835E-19
 -1      2195 1.51269E-04-1.47983E-05-5.79303E-05 3.83364E-06-5.50063E-18-1.36902E-19
 -1      2196 1.57017E-04-2.42367E-05-5.60344E-05 6.93025E-07-5.68317E-18-3.03238E-19
 -1      2197 1.34118E-04-5.18793E-05-3.48805E-05 2.53532E-05-2.68552E-18-1.28029E-18
 -1      2198 1.00879E-04-5.19732E-05-2.09050E-05 4.06316E-05-1.70508E-18-3.51434E-18
 -1      2199 6.25083E-05-4.34499E-05-8.55787E-06 4.23130E-05-1.43911E-18-5.02312E-18
 -1      2200 2.87926E-05-3.11857E-05 4.90761E-07 2.85650E-05-5.79794E-19-6.43660E-18
 -1      2201 2.62164E-05-2.94496E-05 9.46024E-07-2.33026E-05-1.60936E-19-7.23197E-18
 -1      2202 9.71524E-05-5.41826E-05-1.83845E-05-3.93435E-05-2.17264E-19-3.21004E-18
 -1      2203 1.35442E-04-5.77324E-05-3.30242E-05-2.29339E-05 1.55452E-18-2.02653E-19
 -1      2204 1.61331E-04-2.72566E-05-5.71634E-05 2.08626E-06 5.71917E-18 1.44377E-18
 -1      2205 1.49667E-04-2.04538E-05-5.59855E-05 8.36095E-06 5.25160E-18 2.17666E-18
 -1      2206 1.49641E-04-3.04100E-05-5.10305E-05 9.48475E-06 5.02672E-18 3.05504E-18
 -1      2207 1.67786E-04-2.20547E-05-6.11694E-05-1.84169E-06 5.39475E-18 9.08019E-19
 -1      2208 1.53903E-04-4.58960E-05-4.57715E-05-2.27160E-06 3.92835E-18 2.54110E-18
 -1      2209 1.45690E-05-2.52853E-05 3.92381E-06 4.24463E-06-1.20199E-19-7.07273E-18
 -1      2210 1.55508E-04-1.21696E-05-6.04779E-05-2.42076E-07-6.36037E-18-2.21129E-19
 -1      2211 9.78445E-05-2.68264E-05-3.04087E-05 1.61238E-06 2.33808E-18 1.14087E-18
 -1      2212 9.83849E-05-2.62635E-05-3.08366E-05 3.62368E-06 2.60186E-18 1.55358E-18
 -1      2213 8.60787E-05-9.31601E-06-3.29388E-05-2.23555E-06-5.99182E-19-3.98282E-18
 -1      2214 8.66463E-05-9.77683E-06-3.29727E-05-3.12349E-06-9.61773E-19-3.94222E-18
 -1      2215 8.74059E-05-1.05530E-05-3.29851E-05-3.89669E-06-1.25988E-18-3.83108E-18
 -1      2216 8.82253E-05-1.12568E-05-3.30235E-05-4.89994E-06-1.59252E-18-3.69375E-18
 -1      2217 8.81553E-05-1.20193E-05-3.26254E-05-2.92923E-06-1.06846E-18-3.56693E-18
 -1      2218 8.50473E-05-8.35313E-06-3.29002E-05 6.34756E-07 5.30570E-19-4.04592E-18
 -1      2219 8.50860E-05-8.38534E-06-3.28999E-05-1.22689E-07 2.34365E-19-4.12886E-18
 -1      2220 8.54033E-05-8.63995E-06-3.29283E-05 1.99327E-06 1.07654E-18-3.96164E-18
 -1      2221 8.51555E-05-8.44798E-06-3.29073E-05 1.22981E-06 7.75618E-19-4.00728E-18
 -1      2222 8.60420E-05-9.98634E-06-3.25904E-05 8.62875E-07 6.20238E-19-3.84140E-18
 -1      2223 8.63538E-05-9.46793E-06-3.29821E-05 3.40416E-06 1.56756E-18-3.71125E-18
 -1      2224 8.58221E-05-9.04214E-06-3.29453E-05 2.59618E-06 1.23745E-18-3.85833E-18
 -1      2225 8.65843E-05-1.04748E-05-3.26119E-05 1.98981E-06 1.13654E-18-3.70407E-18
 -1      2226 8.79471E-05-1.09327E-05-3.30442E-05 4.99852E-06 2.22458E-18-3.04598E-18
 -1      2227 8.71038E-05-1.02174E-05-3.30001E-05 4.07572E-06 1.85683E-18-3.42451E-18
 -1      2228 8.77868E-05-1.16048E-05-3.26411E-05 3.17973E-06 1.70050E-18-3.25249E-18
 -1      2229 9.02104E-05-1.31620E-05-3.30762E-05 6.76611E-06 2.77301E-18-2.35295E-18
 -1      2230 8.90350E-05-1.20726E-05-3.30437E-05 5.73314E-06 2.37210E-18-2.71727E-18
 -1      2231 8.96663E-05-1.34579E-05-3.26482E-05 4.47976E-06 2.22409E-18-2.62384E-18
 -1      2232 9.32119E-05-1.63936E-05-3.30131E-05 8.54050E-06 3.29502E-18-1.34090E-18
 -1      2233 9.16566E-05-1.47697E-05-3.30193E-05 7.48982E-06 2.91531E-18-1.94634E-18
 -1      2234 9.21934E-05-1.61318E-05-3.25744E-05 5.79435E-06 2.67783E-18-1.88988E-18
 -1      2235 1.31959E-04-6.10518E-05-3.07417E-05 2.23386E-05-2.20864E-19 1.52286E-18
 -1      2236 1.13974E-04-5.88291E-05-2.33610E-05 3.08369E-05-7.54495E-19 1.51449E-18
 -1      2237 9.76897E-05-2.76468E-05-2.99838E-05-1.43833E-06 1.76263E-18 8.09022E-19
 -1      2238 9.77366E-05-2.73335E-05-3.01015E-05-1.58240E-07 2.01561E-18 1.11407E-18
 -1      2239 9.75502E-05-2.59598E-05-3.06943E-05 1.16096E-06 2.37732E-18 2.51473E-19
 -1      2240 9.77695E-05-2.54156E-05-3.09583E-05-3.84720E-06-2.46117E-18-6.15067E-19
 -1      2241 9.74167E-05-2.62168E-05-3.05216E-05-1.79547E-06-2.19580E-18-7.28711E-19
 -1      2242 1.55287E-04-3.35938E-05-5.25008E-05-6.57205E-06 2.88881E-18-3.07049E-20
 -1      2243 1.51007E-04-4.23226E-05-4.68509E-05-3.83673E-06 1.71228E-18 4.59304E-19
 -1      2244 9.75039E-05-2.69177E-05-3.01939E-05-2.38114E-07-1.94489E-18-6.69245E-19
 -1      2245 9.74191E-05-2.73804E-05-3.00084E-05 1.00796E-06-1.63917E-18-8.33282E-19
 -1      2246 9.71183E-05-2.54771E-05-3.07125E-05-1.37589E-06-2.21081E-18-1.22337E-18
 -1      2247 9.75036E-05-2.77845E-05-2.98400E-05 2.09425E-06-1.42906E-18-7.25167E-19
 -1      2248 9.77040E-05-2.81503E-05-2.98004E-05 2.88468E-06-1.18747E-18-8.82464E-19
 -1      2249 9.73032E-05-2.69070E-05-3.01881E-05 1.48038E-06-1.63738E-18-1.17875E-18
 -1      2250 9.79234E-05-2.84785E-05-2.97364E-05 3.61477E-06-9.39660E-19-8.77917E-19
 -1      2251 9.83566E-05-2.88504E-05-2.97838E-05 4.09072E-06-6.95346E-19-8.95840E-19
 -1      2252 9.76479E-05-2.78705E-05-2.99234E-05 3.45107E-06-1.19985E-18-1.09385E-18
 -1      2253 9.87445E-05-2.92029E-05-2.97854E-05 4.52669E-06-5.05982E-19-9.44100E-19
 -1      2254 9.93468E-05-2.96294E-05-2.98808E-05 4.73094E-06-3.71222E-19-9.68927E-19
 -1      2255 9.82913E-05-2.87373E-05-2.98264E-05 4.73021E-06-7.32668E-19-1.28903E-18
 -1      2256 9.99127E-05-3.00642E-05-2.99201E-05 4.87645E-06-4.23377E-19-9.59076E-19
 -1      2257 1.00620E-04-3.05676E-05-3.00336E-05 4.79243E-06-4.44299E-19-9.57433E-19
 -1      2258 9.92760E-05-2.97047E-05-2.98326E-05 5.39406E-06-4.48426E-19-1.34399E-18
 -1      2259 1.01364E-04-3.11165E-05-3.00914E-05 4.60372E-06-4.08348E-19-1.02402E-18
 -1      2260 1.02103E-04-3.16914E-05-3.01991E-05 4.18160E-06-5.08854E-19-9.72728E-19
 -1      2261 1.00615E-04-3.08903E-05-2.98976E-05 5.40783E-06-5.16312E-19-1.38327E-18
 -1      2262 1.03004E-04-3.23498E-05-3.02657E-05 3.58605E-06-7.65461E-19-8.47672E-19
 -1      2263 1.03679E-04-3.29441E-05-3.03501E-05 2.77437E-06-7.00352E-19-9.45869E-19
 -1      2264 1.02291E-04-3.23333E-05-2.99965E-05 4.65544E-06-5.84409E-19-1.10191E-18
 -1      2265 1.04667E-04-3.36401E-05-3.04276E-05 1.70584E-06-4.08659E-19-1.02111E-18
 -1      2266 1.05147E-04-3.41269E-05-3.04813E-05 5.01160E-07-1.49751E-19-7.80197E-19
 -1      2267 1.04218E-04-3.39454E-05-3.01281E-05 2.99040E-06-5.79789E-19-8.89331E-19
 -1      2268 1.06061E-04-3.46844E-05-3.05853E-05-1.03172E-06 5.00941E-21-7.48328E-19
 -1      2269 1.06181E-04-3.48474E-05-3.06140E-05-2.51219E-06-2.53498E-20-6.21688E-19
 -1      2270 1.06167E-04-3.54258E-05-3.03194E-05 3.34929E-07-7.27762E-20-1.00994E-18
 -1      2271 1.06746E-04-3.49784E-05-3.07705E-05-4.31756E-06-2.95982E-20-3.24832E-19
 -1      2272 1.06356E-04-3.45594E-05-3.07923E-05-5.76175E-06-1.51137E-19-3.06396E-20
 -1      2273 1.07693E-04-3.62026E-05-3.06231E-05-3.14153E-06 1.59714E-19-5.14740E-19
 -1      2274 1.06258E-04-3.39599E-05-3.10221E-05-7.36395E-06-2.58403E-19 1.13076E-21
 -1      2275 1.05322E-04-3.28108E-05-3.10587E-05-8.25695E-06-4.66025E-19 1.87567E-19
 -1      2276 1.08183E-04-3.55470E-05-3.10952E-05-6.78605E-06-1.36217E-19 7.13505E-21
 -1      2277 1.04415E-04-3.13917E-05-3.13522E-05-8.91511E-06-1.07887E-18 8.66703E-20
 -1      2278 1.03148E-04-2.97159E-05-3.14115E-05-8.68728E-06-1.25561E-18-1.78319E-19
 -1      2279 1.07134E-04-3.29601E-05-3.17463E-05-9.33913E-06-7.31295E-19 2.26310E-20
 -1      2280 1.01777E-04-2.79194E-05-3.17040E-05-7.72819E-06-1.18439E-18-4.62126E-19
 -1      2281 1.00677E-04-2.63871E-05-3.17665E-05-6.13324E-06-1.29669E-18-7.75128E-19
 -1      2282 1.04725E-04-2.89006E-05-3.24792E-05-9.21102E-06-1.31385E-18-5.68492E-20
 -1      2283 9.96704E-05-2.51374E-05-3.19538E-05-3.56385E-06-1.48525E-18-1.16165E-18
 -1      2284 9.92867E-05-2.45632E-05-3.19872E-05-1.02569E-06-1.30257E-18-1.32836E-18
 -1      2285 1.02192E-04-2.50775E-05-3.30791E-05-5.54621E-06-1.83392E-18-5.80528E-19
 -1      2286 9.93695E-05-2.46356E-05-3.19888E-05 2.17535E-06-7.51729E-19-1.83379E-18
 -1      2287 9.99174E-05-2.53541E-05-3.19758E-05 4.66634E-06-4.73829E-19-1.91910E-18
 -1      2288 1.01203E-04-2.36056E-05-3.33115E-05 6.57416E-07-1.27645E-18-1.31753E-18
 -1      2289 1.01064E-04-2.67251E-05-3.17879E-05 7.10826E-06-1.05266E-18-2.07100E-18
 -1      2290 1.02287E-04-2.83300E-05-3.17470E-05 8.57492E-06-9.04151E-19-2.16862E-18
 -1      2291 1.02496E-04-2.53834E-05-3.30702E-05 6.71683E-06-1.03365E-18-2.27159E-18
 -1      2292 1.03676E-04-3.01202E-05-3.14685E-05 9.35911E-06-4.95720E-19-2.46312E-18
 -1      2293 1.05004E-04-3.17716E-05-3.14374E-05 9.47246E-06-5.65948E-19-2.52149E-18
 -1      2294 1.05194E-04-2.93688E-05-3.24741E-05 1.00343E-05-9.14068E-19-2.43335E-18
 -1      2295 1.05865E-04-3.31066E-05-3.11694E-05 8.71428E-06-4.98176E-19-2.57131E-18
 -1      2296 1.06833E-04-3.41920E-05-3.11632E-05 7.77648E-06 1.95870E-19-3.27005E-18
 -1      2297 1.07562E-04-3.33079E-05-3.17777E-05 9.86719E-06-6.07870E-19-2.09910E-18
 -1      2298 1.06890E-04-3.47040E-05-3.09626E-05 6.17216E-06 5.95380E-19-3.11875E-18
 -1      2299 1.07316E-04-3.50706E-05-3.09706E-05 4.75412E-06 4.20929E-19-2.63993E-18
 -1      2300 1.08515E-04-3.56760E-05-3.11827E-05 7.21702E-06 1.46269E-19-2.54537E-18
 -1      2301 1.06743E-04-3.48861E-05-3.08397E-05 3.01851E-06 4.22919E-19-2.52605E-18
 -1      2302 1.06681E-04-3.47071E-05-3.08387E-05 1.61130E-06 5.74829E-19-2.38683E-18
 -1      2303 1.07973E-04-3.61529E-05-3.07661E-05 3.65249E-06 4.58222E-19-2.23617E-18
 -1      2304 1.05795E-04-3.41402E-05-3.07535E-05 1.76629E-07 6.69216E-19-2.69115E-18
 -1      2305 1.05398E-04-3.36756E-05-3.07247E-05-9.41492E-07 9.53781E-19-2.64414E-18
 -1      2306 1.06469E-04-3.52942E-05-3.05054E-05 3.56263E-07 5.29354E-19-2.67801E-18
 -1      2307 1.04455E-04-3.30033E-05-3.06572E-05-1.92214E-06 5.26462E-19-3.15313E-18
 -1      2308 1.03877E-04-3.24603E-05-3.05933E-05-2.66303E-06 1.48515E-19-2.75361E-18
 -1      2309 1.04599E-04-3.38315E-05-3.03387E-05-2.10905E-06 1.38777E-19-3.35304E-18
 -1      2310 1.03018E-04-3.18478E-05-3.05245E-05-3.20983E-06-7.78584E-20-2.78547E-18
 -1      2311 1.02373E-04-3.13455E-05-3.04289E-05-3.60238E-06-2.15026E-19-2.87022E-18
 -1      2312 1.02767E-04-3.23101E-05-3.02075E-05-3.64223E-06-1.88703E-19-3.41602E-18
 -1      2313 1.01650E-04-3.08588E-05-3.03508E-05-3.80850E-06 1.29551E-19-2.62214E-18
 -1      2314 1.01009E-04-3.04456E-05-3.02333E-05-3.93161E-06 2.33799E-19-2.51661E-18
 -1      2315 1.01166E-04-3.10131E-05-3.00760E-05-4.37874E-06 1.21212E-19-3.00918E-18
 -1      2316 1.00424E-04-3.00914E-05-3.01461E-05-3.90299E-06-1.86516E-19-2.76845E-18
 -1      2317 9.98304E-05-2.97747E-05-3.00182E-05-3.84365E-06-5.24081E-19-3.10324E-18
 -1      2318 9.98453E-05-3.00291E-05-2.99299E-05-4.52908E-06-8.80926E-20-3.10001E-18
 -1      2319 9.93659E-05-2.95331E-05-2.99260E-05-3.67224E-06-3.23997E-19-3.16297E-18
 -1      2320 9.88391E-05-2.93015E-05-2.97981E-05-3.50533E-06-4.38281E-19-2.63740E-18
 -1      2321 9.87882E-05-2.93418E-05-2.97698E-05-4.29678E-06-4.67308E-19-2.60658E-18
 -1      2322 9.84730E-05-2.91455E-05-2.97061E-05-3.26094E-06-8.89041E-19-2.36078E-18
 -1      2323 9.80210E-05-2.89819E-05-2.95858E-05-3.04273E-06-7.69250E-19-2.46690E-18
 -1      2324 9.79537E-05-2.88937E-05-2.96029E-05-3.84671E-06-7.46294E-19-1.83847E-18
 -1      2325 9.77336E-05-2.88865E-05-2.94986E-05-2.77361E-06-7.55163E-19-2.04688E-18
 -1      2326 9.73561E-05-2.87742E-05-2.93907E-05-2.54236E-06-3.02089E-19-1.54887E-18
 -1      2327 9.72990E-05-2.86213E-05-2.94382E-05-3.29901E-06-6.19806E-19-1.44093E-18
 -1      2328 9.71311E-05-2.87197E-05-2.93115E-05-2.27911E-06 8.68023E-20-1.84969E-18
 -1      2329 9.68234E-05-2.86447E-05-2.92184E-05-2.05836E-06 5.86943E-19-1.04185E-18
 -1      2330 9.67873E-05-2.84696E-05-2.92831E-05-2.73406E-06-7.53562E-20-3.03338E-19
 -1      2331 9.66481E-05-2.86165E-05-2.91490E-05-1.81846E-06 5.88052E-19-1.63903E-18
 -1      2332 9.64026E-05-2.85681E-05-2.90712E-05-1.62099E-06 6.34085E-19-1.93530E-18
 -1      2333 9.63890E-05-2.83966E-05-2.91432E-05-2.20099E-06-7.06817E-20-7.00994E-19
 -1      2334 9.62670E-05-2.85563E-05-2.90123E-05-1.41273E-06 4.74342E-19-1.96088E-18
 -1      2335 9.60753E-05-2.85263E-05-2.89490E-05-1.24400E-06 3.72475E-19-2.05427E-18
 -1      2336 9.60809E-05-2.83722E-05-2.90211E-05-1.72622E-06 2.94520E-19-8.13582E-19
 -1      2337 9.59714E-05-2.85241E-05-2.89003E-05-1.06973E-06 7.02476E-19-2.12216E-18
 -1      2338 9.58249E-05-2.85067E-05-2.88502E-05-9.30548E-07 1.28891E-18-1.74278E-18
 -1      2339 9.58445E-05-2.83758E-05-2.89178E-05-1.32071E-06 6.38041E-19-1.88279E-18
 -1      2340 9.57463E-05-2.85098E-05-2.88109E-05-7.89015E-07 1.08138E-18-1.24338E-18
 -1      2341 9.56367E-05-2.85008E-05-2.87722E-05-6.77490E-07 5.90779E-19-9.24131E-19
 -1      2342 9.56652E-05-2.83941E-05-2.88327E-05-9.85552E-07 1.20539E-18-1.25561E-18
 -1      2343 9.55781E-05-2.85064E-05-2.87412E-05-5.65459E-07 4.14606E-19-2.47938E-19
 -1      2344 9.54981E-05-2.85029E-05-2.87119E-05-4.78341E-07 6.99647E-19 2.69348E-19
 -1      2345 9.55309E-05-2.84188E-05-2.87641E-05-7.16064E-07 9.98120E-19-3.42135E-19
 -1      2346 9.54552E-05-2.85094E-05-2.86881E-05-3.91711E-07 7.86968E-19 3.21549E-19
 -1      2347 9.53985E-05-2.85093E-05-2.86666E-05-3.25242E-07-3.19486E-19 3.52253E-19
 -1      2348 9.54320E-05-2.84450E-05-2.87103E-05-5.04576E-07 1.02722E-18 1.02857E-19
 -1      2349 9.53678E-05-2.85158E-05-2.86486E-05-2.59732E-07-4.56245E-19 1.46564E-18
 -1      2350 9.53289E-05-2.85177E-05-2.86332E-05-2.10171E-07-1.79446E-19 1.59287E-18
 -1      2351 9.53607E-05-2.84697E-05-2.86688E-05-3.42311E-07 2.19312E-19 1.42440E-18
 -1      2352 9.53075E-05-2.85236E-05-2.86200E-05-1.61736E-07-9.13242E-19 1.68607E-18
 -1      2353 9.52821E-05-2.85266E-05-2.86093E-05-1.25654E-07-5.04416E-19 1.65156E-18
 -1      2354 9.53106E-05-2.84917E-05-2.86376E-05-2.20530E-07-5.40194E-19 3.34236E-18
 -1      2355 9.52677E-05-2.85318E-05-2.85999E-05-9.07000E-08-2.19885E-19 1.25698E-18
 -1      2356 9.52522E-05-2.85353E-05-2.85928E-05-6.51292E-08 3.17881E-19 1.48288E-18
 -1      2357 9.52764E-05-2.85105E-05-2.86147E-05-1.31200E-07-2.26350E-19 2.40232E-18
 -1      2358 9.52431E-05-2.85398E-05-2.85863E-05-4.06155E-08 9.48914E-20 1.88432E-18
 -1      2359 9.52348E-05-2.85434E-05-2.85819E-05-2.31012E-08 2.96063E-20 2.15824E-18
 -1      2360 9.52543E-05-2.85261E-05-2.85983E-05-6.73279E-08 3.92931E-19 1.52551E-18
 -1      2361 9.52295E-05-2.85473E-05-2.85775E-05-6.56095E-09 3.09206E-19 1.99577E-18
 -1      2362 9.52261E-05-2.85509E-05-2.85750E-05 4.83432E-09 9.37433E-19 1.42522E-18
 -1      2363 9.52409E-05-2.85390E-05-2.85869E-05-2.30946E-08 2.32086E-19 1.14944E-18
 -1      2364 9.52234E-05-2.85542E-05-2.85722E-05 1.53160E-08 6.66365E-19 6.99440E-19
 -1      2365 9.52234E-05-2.85577E-05-2.85709E-05 2.20400E-08 6.15460E-19 6.13308E-19
 -1      2366 9.52338E-05-2.85496E-05-2.85792E-05 6.13908E-09-1.07403E-21 1.20555E-18
 -1      2367 9.52227E-05-2.85608E-05-2.85691E-05 2.78604E-08 1.11058E-18 1.17984E-18
 -1      2368 9.52246E-05-2.85643E-05-2.85687E-05 3.08958E-08 6.69203E-19 2.20178E-18
 -1      2369 9.52311E-05-2.85586E-05-2.85741E-05 2.39059E-08 8.20825E-19 2.10576E-18
 -1      2370 9.52253E-05-2.85673E-05-2.85676E-05 3.30345E-08 4.80576E-19 2.22673E-18
 -1      2371 9.52283E-05-2.85708E-05-2.85675E-05 3.29180E-08 1.11497E-18 2.65112E-18
 -1      2372 9.52314E-05-2.85667E-05-2.85707E-05 3.27219E-08 6.39773E-19 1.83951E-18
 -1      2373 9.91402E-05-2.86530E-05-3.01796E-05-5.43583E-06 6.95826E-19 1.16975E-19
 -1      2374 9.83652E-05-2.83419E-05-2.99833E-05-4.66698E-06 1.04653E-18 3.97625E-19
 -1      2375 1.00684E-04-2.92398E-05-3.05930E-05-6.96175E-06 5.56651E-19 9.95636E-21
 -1      2376 9.95981E-05-2.88471E-05-3.03058E-05-6.29599E-06 5.08240E-19 1.38419E-19
 -1      2377 9.85996E-05-2.80680E-05-3.02462E-05-6.62454E-06 7.99105E-19-2.77219E-19
 -1      2378 1.02714E-04-3.00370E-05-3.11287E-05-8.25270E-06 4.57034E-19 2.01746E-19
 -1      2379 1.01357E-04-2.95132E-05-3.07797E-05-7.70662E-06 5.01300E-19 1.61570E-19
 -1      2380 9.97449E-05-2.86163E-05-3.05010E-05-8.37161E-06 5.47200E-19-3.14850E-19
 -1      2381 1.05224E-04-3.11899E-05-3.17241E-05-9.16187E-06 5.68537E-19 1.76760E-19
 -1      2382 1.03631E-04-3.04687E-05-3.13462E-05-8.83884E-06 5.87739E-19 3.26463E-19
 -1      2383 1.01347E-04-2.94373E-05-3.08376E-05-9.83115E-06 4.65798E-19-1.77161E-19
 -1      2384 1.08235E-04-3.28888E-05-3.23102E-05-9.34348E-06 1.46985E-19 3.50619E-19
 -1      2385 1.06457E-04-3.18929E-05-3.19443E-05-9.44899E-06 4.42719E-19 3.09147E-19
 -1      2386 1.03517E-04-3.07826E-05-3.11981E-05-1.08251E-05 3.70040E-19 9.59918E-20
 -1      2387 1.11768E-04-3.53090E-05-3.28208E-05-8.23061E-06 1.84743E-19 5.51266E-19
 -1      2388 1.09908E-04-3.39988E-05-3.25126E-05-9.06869E-06 1.81139E-19 4.82852E-19
 -1      2389 1.06466E-04-3.29693E-05-3.15377E-05-1.09571E-05 2.38461E-19 1.64613E-19
 -1      2390 1.15718E-04-3.83962E-05-3.32291E-05-5.11392E-06-2.16880E-19 3.91450E-19
 -1      2391 1.14003E-04-3.69020E-05-3.30122E-05-7.00511E-06 5.68439E-21 5.80522E-19
 -1      2392 1.10458E-04-3.62598E-05-3.18557E-05-9.57728E-06 1.68804E-19 6.93947E-20
 -1      2393 1.19581E-04-4.14124E-05-3.36171E-05 5.06993E-07 6.50296E-20 7.06797E-19
 -1      2394 1.18465E-04-4.02729E-05-3.34758E-05-2.52022E-06-3.55416E-19 5.09676E-19
 -1      2395 1.15598E-04-4.04969E-05-3.22537E-05-5.85347E-06-3.52511E-19 3.27613E-20
 -1      2396 1.22158E-04-4.24544E-05-3.42370E-05 8.08348E-06 7.33504E-19 9.24862E-19
 -1      2397 1.22267E-04-4.27583E-05-3.40797E-05 4.52674E-06 3.89906E-19 9.52469E-19
 -1      2398 1.21278E-04-4.43559E-05-3.30146E-05 8.21685E-07 1.05879E-21 8.76840E-19
 -1      2399 1.21582E-04-3.90598E-05-3.53866E-05 1.44574E-05 1.15872E-18 1.10394E-18
 -1      2400 1.23346E-04-4.17318E-05-3.50945E-05 1.22432E-05 1.18176E-18 1.37774E-18
 -1      2401 1.25343E-04-4.46573E-05-3.45829E-05 9.70772E-06 8.20199E-19 1.62102E-18
 -1      2402 1.17259E-04-3.08056E-05-3.70667E-05 1.49212E-05 1.83891E-18-7.26463E-20
 -1      2403 1.20349E-04-3.54005E-05-3.66455E-05 1.63190E-05 1.19453E-18 1.01497E-18
 -1      2404 1.25748E-04-3.97067E-05-3.69782E-05 1.63394E-05 1.48411E-18 1.56177E-18
 -1      2405 1.12986E-04-2.36705E-05-3.84389E-05 5.63613E-06 2.92173E-18-1.22002E-18
 -1      2406 1.14902E-04-2.65303E-05-3.81723E-05 1.07718E-05 2.91528E-18-7.23571E-19
 -1      2407 1.20930E-04-2.74958E-05-4.03082E-05 1.48240E-05 3.08680E-18 1.28140E-19
 -1      2408 1.13827E-04-2.46969E-05-3.84739E-05-8.13495E-06 1.30623E-18-1.95442E-18
 -1      2409 1.12759E-04-2.29379E-05-3.86077E-05-2.33966E-06 2.11255E-18-1.47487E-18
 -1      2410 1.17759E-04-2.06848E-05-4.18448E-05 1.66232E-06 2.93867E-18-4.56174E-19
 -1      2411 1.19089E-04-3.28912E-05-3.72184E-05-1.62363E-05-2.37249E-19-2.10435E-18
 -1      2412 1.16085E-04-2.84296E-05-3.75966E-05-1.37409E-05 7.31095E-19-1.92748E-18
 -1      2413 1.19901E-04-2.50932E-05-4.08460E-05-1.25266E-05 1.15324E-18-1.73004E-18
 -1      2414 1.23561E-04-4.06611E-05-3.56250E-05-1.47544E-05-1.12897E-18-1.89529E-18
 -1      2415 1.20972E-04-3.71395E-05-3.59515E-05-1.61567E-05-6.63068E-19-2.08903E-18
 -1      2416 1.24738E-04-3.57899E-05-3.81822E-05-1.81093E-05-4.23993E-19-1.73096E-18
 -1      2417 1.23543E-04-4.29859E-05-3.45260E-05-7.49707E-06-5.90511E-19-1.47224E-18
 -1      2418 1.22810E-04-4.21185E-05-3.46615E-05-1.06611E-05-1.02176E-18-1.83580E-18
 -1      2419 1.26496E-04-4.39576E-05-3.54630E-05-1.31892E-05-1.03362E-18-1.65101E-18
 -1      2420 1.20513E-04-4.13280E-05-3.38936E-05-4.27878E-09 3.58884E-19-1.21014E-18
 -1      2421 1.21203E-04-4.21707E-05-3.39913E-05-3.14166E-06 1.73834E-19-1.50717E-18
 -1      2422 1.23157E-04-4.51182E-05-3.35505E-05-4.15101E-06-2.83644E-19-1.86421E-18
 -1      2423 1.16290E-04-3.80854E-05-3.34769E-05 5.19169E-06-2.44554E-19-1.15250E-18
 -1      2424 1.17741E-04-3.94989E-05-3.36304E-05 3.07276E-06 4.35706E-19-8.76980E-19
 -1      2425 1.17860E-04-4.18547E-05-3.26451E-05 3.42070E-06 2.07914E-19-6.15079E-19
 -1      2426 1.12240E-04-3.50470E-05-3.30598E-05 7.81351E-06-1.20045E-18-9.39485E-19
 -1      2427 1.13944E-04-3.63712E-05-3.33059E-05 6.77533E-06-7.65615E-19-1.20347E-18
 -1      2428 1.12589E-04-3.75454E-05-3.22270E-05 7.87944E-06-4.82647E-19-1.84258E-19
 -1      2429 1.08810E-04-3.27924E-05-3.25678E-05 8.53428E-06-1.16472E-18-8.82253E-19
 -1      2430 1.10481E-04-3.38107E-05-3.28847E-05 8.28832E-06-1.21120E-18-9.39247E-19
 -1      2431 1.08398E-04-3.39697E-05-3.19428E-05 9.75495E-06-1.13005E-18-5.93593E-19
 -1      2432 1.06011E-04-3.12899E-05-3.20184E-05 8.12453E-06-8.30012E-19-5.78705E-19
 -1      2433 1.07526E-04-3.20115E-05-3.23652E-05 8.34593E-06-1.12601E-18-1.61832E-18
 -1      2434 1.05311E-04-3.15493E-05-3.16381E-05 9.92013E-06-6.82929E-19-1.44060E-18
 -1      2435 1.03737E-04-3.03319E-05-3.14569E-05 7.16446E-06-4.00736E-19 1.61691E-19
 -1      2436 1.05053E-04-3.08301E-05-3.17973E-05 7.60764E-06-7.29726E-19-1.53239E-19
 -1      2437 1.03049E-04-3.00913E-05-3.12822E-05 9.13767E-06-1.10401E-18-1.40837E-18
 -1      2438 1.01885E-04-2.97253E-05-3.09241E-05 6.01900E-06-1.56225E-19 4.86708E-19
 -1      2439 1.02995E-04-3.00697E-05-3.12347E-05 6.52959E-06-1.17360E-20 1.68445E-19
 -1      2440 1.01346E-04-2.92767E-05-3.08954E-05 7.92920E-06-3.94736E-19-5.83749E-19
 -1      2441 1.00380E-04-2.93347E-05-3.04462E-05 4.89046E-06 5.64900E-19 7.22633E-19
 -1      2442 1.01294E-04-2.95759E-05-3.07154E-05 5.38431E-06 2.42825E-19 1.28911E-18
 -1      2443 1.00019E-04-2.88460E-05-3.05088E-05 6.61081E-06-3.27502E-19-3.01167E-19
 -1      2444 9.91632E-05-2.90763E-05-3.00353E-05 3.87589E-06 1.14718E-19 2.17059E-18
 -1      2445 9.99011E-05-2.92475E-05-3.02601E-05 4.31416E-06 7.47715E-19 1.41292E-18
 -1      2446 9.89600E-05-2.86288E-05-3.01472E-05 5.35430E-06 2.11489E-19 3.91418E-19
 -1      2447 9.81896E-05-2.89007E-05-2.96932E-05 3.01093E-06-3.92042E-20 9.33786E-19
 -1      2448 9.87747E-05-2.90233E-05-2.98758E-05 3.38076E-06 1.86816E-19 1.82509E-18
 -1      2449 9.81066E-05-2.85246E-05-2.98257E-05 4.24004E-06 4.75305E-19 1.29409E-18
 -1      2450 9.74203E-05-2.87790E-05-2.94157E-05 2.29844E-06 7.50568E-19-5.00848E-19
 -1      2451 9.78766E-05-2.88669E-05-2.95606E-05 2.60045E-06 1.92135E-19 3.21355E-19
 -1      2452 9.74193E-05-2.84786E-05-2.95506E-05 3.29502E-06 8.18738E-19 2.42576E-19
 -1      2453 9.68209E-05-2.86943E-05-2.91953E-05 1.72570E-06-1.40368E-19 3.12993E-19
 -1      2454 9.71710E-05-2.87569E-05-2.93080E-05 1.96664E-06 2.85223E-19 2.63309E-20
 -1      2455 9.68701E-05-2.84620E-05-2.93220E-05 2.51755E-06-5.72955E-20-7.21279E-19
 -1      2456 9.63609E-05-2.86357E-05-2.90234E-05 1.27391E-06 6.01512E-19 1.34055E-19
 -1      2457 9.66252E-05-2.86797E-05-2.91097E-05 1.46266E-06 2.83814E-20 1.08108E-19
 -1      2458 9.64368E-05-2.84602E-05-2.91366E-05 1.89219E-06-6.19550E-20 1.52187E-18
 -1      2459 9.60136E-05-2.85961E-05-2.88918E-05 9.23148E-07 1.01986E-18 1.73861E-18
 -1      2460 9.62097E-05-2.86262E-05-2.89566E-05 1.06874E-06 8.32658E-19 1.04262E-18
 -1      2461 9.60999E-05-2.84659E-05-2.89893E-05 1.39818E-06 4.03202E-19 1.59688E-18
 -1      2462 9.57561E-05-2.85703E-05-2.87927E-05 6.54739E-07 1.77745E-18 1.64915E-18
 -1      2463 9.58989E-05-2.85902E-05-2.88406E-05 7.65453E-07 1.56467E-18 1.71453E-18
 -1      2464 9.58423E-05-2.84753E-05-2.88744E-05 1.01400E-06 1.00896E-18 1.57921E-18
 -1      2465 9.55691E-05-2.85546E-05-2.87195E-05 4.52240E-07 2.12691E-18 1.47054E-18
 -1      2466 9.56707E-05-2.85671E-05-2.87542E-05 5.35242E-07 2.62566E-18 1.99906E-18
 -1      2467 9.56489E-05-2.84862E-05-2.87863E-05 7.19530E-07 2.09508E-18 1.98516E-18
 -1      2468 9.54364E-05-2.85461E-05-2.86664E-05 3.01684E-07-1.02996E-18 1.35474E-18
 -1      2469 9.55068E-05-2.85533E-05-2.86910E-05 3.62994E-07 3.26783E-19 2.09226E-18
 -1      2470 9.55067E-05-2.84976E-05-2.87200E-05 4.97039E-07 1.65880E-18 3.15689E-18
 -1      2471 9.53450E-05-2.85426E-05-2.86289E-05 1.91500E-07-1.98935E-18 1.44681E-18
 -1      2472 9.53921E-05-2.85461E-05-2.86458E-05 2.36058E-07-1.12449E-18 1.16632E-18
 -1      2473 9.54045E-05-2.85088E-05-2.86711E-05 3.31406E-07-1.02225E-18 3.82055E-18
 -1      2474 9.52846E-05-2.85425E-05-2.86032E-05 1.12283E-07-1.03547E-18 4.29296E-19
 -1      2475 9.53146E-05-2.85435E-05-2.86144E-05 1.44071E-07-2.39953E-18 6.88737E-19
 -1      2476 9.53332E-05-2.85193E-05-2.86356E-05 2.10061E-07-1.70991E-18 2.51469E-18
 -1      2477 9.52469E-05-2.85447E-05-2.85863E-05 5.65210E-08 1.53705E-19 1.24174E-18
 -1      2478 9.52645E-05-2.85440E-05-2.85932E-05 7.86934E-08-2.04414E-19 5.13684E-19
 -1      2479 9.52851E-05-2.85290E-05-2.86106E-05 1.22759E-07-6.79966E-19 1.74125E-18
 -1      2480 9.52255E-05-2.85482E-05-2.85757E-05 1.83265E-08 1.56426E-19 1.83605E-18
 -1      2481 9.52344E-05-2.85464E-05-2.85797E-05 3.33336E-08 3.29207E-19 1.68116E-18
 -1      2482 9.52544E-05-2.85377E-05-2.85935E-05 6.13010E-08-4.62491E-19 1.85219E-18
 -1      2483 9.52156E-05-2.85526E-05-2.85697E-05-6.80420E-09 6.94032E-19 1.88653E-18
 -1      2484 9.52185E-05-2.85501E-05-2.85716E-05 2.88862E-09 6.62745E-19 1.86652E-18
 -1      2485 9.52363E-05-2.85456E-05-2.85822E-05 1.92598E-08 7.62474E-19 1.46238E-18
 -1      2486 9.52134E-05-2.85573E-05-2.85667E-05-2.21803E-08 2.88401E-18 1.17349E-19
 -1      2487 9.52124E-05-2.85545E-05-2.85673E-05-1.64714E-08 2.03659E-18 8.11525E-19
 -1      2488 9.52271E-05-2.85526E-05-2.85751E-05-8.27425E-09 2.07991E-18 1.31053E-18
 -1      2489 9.52162E-05-2.85625E-05-2.85658E-05-3.01376E-08 1.36001E-19-2.48541E-19
 -1      2490 9.52128E-05-2.85595E-05-2.85655E-05-2.75562E-08 8.18921E-19-1.61591E-20
 -1      2491 9.52239E-05-2.85590E-05-2.85709E-05-2.48968E-08 1.67001E-18 1.75669E-18
 -1      2492 9.52217E-05-2.85680E-05-2.85659E-05-3.20172E-08-1.37109E-18 2.13816E-18
 -1      2493 9.52171E-05-2.85648E-05-2.85652E-05-3.20726E-08-6.02368E-19 1.06174E-18
 -1      2494 9.52250E-05-2.85654E-05-2.85686E-05-3.33342E-08-1.40991E-18 3.12736E-18
 -1      2495 9.52284E-05-2.85738E-05-2.85664E-05-2.86512E-08-5.07425E-19 3.45124E-18
 -1      2496 9.52237E-05-2.85704E-05-2.85656E-05-3.09818E-08-6.76616E-19 3.51990E-18
 -1      2497 9.52288E-05-2.85721E-05-2.85672E-05-3.49220E-08-1.28545E-18 4.74394E-18
 -1      2498 9.52312E-05-2.85766E-05-2.85663E-05-2.47714E-08-3.34856E-19 3.26181E-18
 -1      2499 9.52513E-05-2.85957E-05-2.85667E-05-2.00696E-08 4.00087E-19 2.33894E-18
 -1      2500 9.52501E-05-2.85935E-05-2.85670E-05-2.32843E-08 8.53486E-22-9.20033E-19
 -1      2501 9.52523E-05-2.85971E-05-2.85665E-05-1.26941E-08-1.24093E-18 1.66697E-18
 -1      2502 9.52517E-05-2.85957E-05-2.85668E-05-1.62764E-08-6.00801E-19 3.01149E-18
 -1      2503 9.52508E-05-2.85860E-05-2.85706E-05-1.90400E-08 9.41693E-19 2.11532E-18
 -1      2504 9.52447E-05-2.85887E-05-2.85668E-05-3.09482E-08-1.39679E-19-1.40585E-19
 -1      2505 9.52414E-05-2.85848E-05-2.85672E-05-3.15752E-08-6.20119E-19 4.32699E-19
 -1      2506 9.52490E-05-2.85930E-05-2.85668E-05-2.65107E-08-3.23754E-19-3.84520E-18
 -1      2507 9.52469E-05-2.85901E-05-2.85672E-05-2.87853E-08 5.54719E-20-2.88140E-18
 -1      2508 9.52453E-05-2.85836E-05-2.85693E-05-3.19902E-08-1.94687E-19-1.42099E-18
 -1      2509 9.52489E-05-2.85854E-05-2.85701E-05-2.63628E-08 1.23550E-18-1.82789E-18
 -1      2510 9.52524E-05-2.85975E-05-2.85664E-05-5.14123E-09-1.59057E-18 1.02497E-18
 -1      2511 9.52523E-05-2.85969E-05-2.85665E-05-8.80861E-09-1.61681E-18 1.32122E-18
 -1      2512 9.52512E-05-2.85858E-05-2.85709E-05-1.11687E-08-8.02204E-19 8.12689E-19
 -1      2513 9.52523E-05-2.85973E-05-2.85664E-05 2.33749E-09-1.09066E-18 1.67574E-19
 -1      2514 9.52524E-05-2.85973E-05-2.85664E-05-1.30573E-09-1.14615E-18 1.09522E-18
 -1      2515 9.52512E-05-2.85855E-05-2.85710E-05-3.29474E-09-8.27265E-19 1.44345E-18
 -1      2516 9.52519E-05-2.85965E-05-2.85666E-05 9.70235E-09-1.15169E-18-1.76412E-18
 -1      2517 9.52522E-05-2.85972E-05-2.85664E-05 6.12049E-09-1.51351E-18-4.36249E-19
 -1      2518 9.52510E-05-2.85853E-05-2.85710E-05 4.45506E-09-5.70577E-19 1.71125E-19
 -1      2519 9.52512E-05-2.85951E-05-2.85668E-05 1.67534E-08 6.83711E-19-2.14871E-18
 -1      2520 9.52518E-05-2.85965E-05-2.85665E-05 1.33827E-08-3.63853E-19-2.00076E-18
 -1      2521 9.52508E-05-2.85853E-05-2.85709E-05 1.20537E-08-4.42052E-19-1.36691E-18
 -1      2522 9.52495E-05-2.85928E-05-2.85671E-05 2.33670E-08 1.80601E-18 5.50145E-19
 -1      2523 9.52508E-05-2.85950E-05-2.85667E-05 2.03382E-08 1.19106E-18-2.51961E-18
 -1      2524 9.52501E-05-2.85853E-05-2.85706E-05 1.94910E-08 9.80967E-19-1.59142E-18
 -1      2525 9.52463E-05-2.85893E-05-2.85673E-05 2.85744E-08 7.80282E-19 3.01155E-19
 -1      2526 9.52485E-05-2.85923E-05-2.85669E-05 2.64262E-08 1.39685E-18 1.07229E-18
 -1      2527 9.52483E-05-2.85846E-05-2.85701E-05 2.63997E-08 1.45674E-18-2.47113E-19
 -1      2528 9.52411E-05-2.85843E-05-2.85672E-05 3.09679E-08-4.48842E-19 1.39942E-18
 -1      2529 9.52442E-05-2.85880E-05-2.85669E-05 3.05052E-08 1.76861E-19 1.27901E-18
 -1      2530 9.52446E-05-2.85828E-05-2.85694E-05 3.14911E-08 1.30659E-18-3.63235E-19
 -1      2531 2.30167E-05-1.98372E-05-1.18977E-06 1.65873E-05-9.58841E-19 4.09371E-18
 -1      2532 1.82933E-05-1.87688E-05 4.17341E-07 2.98594E-06-9.40233E-19 4.03781E-18
 -1      2533 9.06217E-05-5.15588E-05-1.70015E-05 4.07936E-05-5.33419E-19 9.75544E-19
 -1      2534 7.17815E-05-4.49308E-05-1.12884E-05 3.99212E-05-6.94779E-19 1.57230E-18
 -1      2535 9.81235E-05-2.81650E-05-2.99504E-05-3.65551E-06 1.27013E-18 4.19582E-19
 -1      2536 9.77163E-05-2.78899E-05-2.98806E-05-2.71870E-06 1.51851E-18 7.38312E-19
 -1      2537 9.78740E-05-2.76006E-05-3.01372E-05-4.58958E-06 1.36905E-18-9.73881E-20
 -1      2538 9.52355E-05-2.85809E-05-2.85662E-05 2.77275E-08-3.57404E-19 5.42138E-19
 -1      2539 1.78045E-05-1.94005E-05 7.95196E-07-8.59891E-06-4.59515E-20 4.03357E-18
 -1      2540 2.32069E-05-2.15821E-05-5.78165E-07-2.15763E-05 2.68509E-19 4.29912E-18
 -1      2541 2.43719E-05-1.54545E-05-3.27314E-06-2.94216E-06-5.40698E-19 3.56791E-18
 -1      2542 5.19305E-05-3.53539E-05-7.09503E-06 3.82186E-05-5.88053E-19 2.01721E-18
 -1      2543 3.58904E-05-2.70575E-05-3.46699E-06 2.87712E-05-1.51090E-18 3.20623E-18
 -1      2544 6.71902E-05-3.87540E-05-1.16708E-05 3.82280E-05-7.48354E-19 1.68729E-18
 -1      2545 9.64399E-05-2.03193E-05-3.26651E-05-9.61659E-06-2.93820E-18-1.04446E-18
 -1      2546 9.71365E-05-2.37022E-05-3.14964E-05-5.75497E-06-2.74261E-18-7.95787E-19
 -1      2547 9.64472E-05-2.26523E-05-3.16050E-05-5.11601E-06-2.63007E-18-1.37200E-18
 -1      2548 9.42998E-05-1.76986E-05-3.28318E-05-9.10452E-06-2.86557E-18-1.98196E-18
 -1      2549 1.13606E-04-5.55299E-05-2.48437E-05-3.31446E-05 3.98741E-19 6.38875E-19
 -1      2550 1.29548E-04-5.54174E-05-3.20151E-05-2.65663E-05-5.25372E-19 4.20764E-19
 -1      2551 1.39489E-04-5.34286E-05-3.73349E-05 1.51030E-05-1.58358E-18 1.62567E-18
 -1      2552 1.27576E-04-5.67094E-05-3.03199E-05 2.50137E-05-7.20931E-19-1.25996E-19
 -1      2553 9.08426E-05-5.19502E-05-1.64195E-05-3.93707E-05-1.69216E-18-2.54367E-18
 -1      2554 1.11614E-04-5.82764E-05-2.31231E-05-3.55237E-05-9.92934E-19-9.23795E-19
 -1      2555 8.52835E-05-8.58615E-06-3.29053E-05-7.45167E-07 1.01218E-20-4.08243E-18
 -1      2556 8.55940E-05-8.83133E-06-3.29248E-05-1.54687E-06-3.25648E-19-4.02771E-18
 -1      2557 8.68622E-05-1.07758E-05-3.26053E-05-1.53790E-06-4.83790E-19-3.70951E-18
 -1      2558 8.61439E-05-1.00951E-05-3.25887E-05-2.89886E-07 4.53490E-20-3.84895E-18
 -1      2559 1.52105E-04-1.71990E-05-5.82776E-05-5.90135E-06 5.17961E-18 4.34528E-19
 -1      2560 1.52312E-04-2.30942E-05-5.56769E-05-8.05702E-06 4.25465E-18 1.54584E-20
 -1      2561 1.47015E-04-5.18448E-05-4.08238E-05 2.93452E-07 2.01274E-18 3.48194E-18
 -1      2562 1.48375E-04-4.29935E-05-4.57485E-05 7.25696E-06 3.47294E-18 3.94484E-18
 -1      2563 1.48008E-04-1.34826E-05-5.80982E-05 3.31630E-06 5.76279E-18 1.03518E-18
 -1      2564 1.51444E-04-1.40863E-05-5.91615E-05-1.58918E-06 5.87417E-18 1.06604E-18
 -1      2565 2.00264E-05-1.83718E-05-4.35852E-07 1.10288E-05-5.66453E-20-6.72502E-18
 -1      2566 1.87672E-05-1.80507E-05-7.90586E-08-3.15212E-06 3.04191E-19-6.86647E-18
 -1      2567 1.29163E-04-6.07717E-05-2.91201E-05-2.30473E-05-2.89474E-19 6.94355E-19
 -1      2568 1.41541E-04-5.92206E-05-3.58342E-05-1.35720E-05 1.05254E-18 2.49409E-18
 -1      2569 5.53820E-05-3.56637E-05-8.04514E-06-3.76406E-05-1.60174E-18-4.94583E-18
 -1      2570 7.08108E-05-4.28400E-05-1.19453E-05-4.22765E-05-1.54541E-18-3.92282E-18
 -1      2571 1.39652E-04-9.00538E-06-5.66253E-05-8.84582E-07-5.95761E-18 8.77208E-20
 -1      2572 1.42427E-04-1.21087E-05-5.62628E-05-3.96032E-06-5.75305E-18 5.55865E-20
 -1      2573 2.43207E-05-2.13250E-05-9.75083E-07-1.65906E-05-8.15375E-19-6.81311E-18
 -1      2574 3.67989E-05-2.63797E-05-4.29694E-06-3.04766E-05-1.00246E-18-6.24157E-18
 -1      2575 2.91732E-05-1.65735E-05-4.75870E-06-1.03560E-05-4.20658E-19-6.51157E-18
 -1      2576 3.92416E-05-2.96695E-05-4.09308E-06 3.61741E-05 1.89100E-19-5.55823E-18
 -1      2577 2.67987E-05-2.38218E-05-1.06303E-06 2.42644E-05 5.55442E-19-6.14014E-18
 -1      2578 8.02256E-05-4.64436E-05-1.43566E-05 4.49946E-05 1.10538E-19-3.03852E-18
 -1      2579 6.11884E-05-3.91792E-05-9.08381E-06 4.15316E-05 7.97905E-19-3.80911E-18
 -1      2580 1.13798E-04-5.63152E-05-2.47992E-05 3.62796E-05-1.00373E-19-1.36256E-18
 -1      2581 9.73801E-05-5.31433E-05-1.89381E-05 3.98544E-05 1.52889E-19-1.98820E-18
 -1      2582 9.51343E-05-5.13373E-05-1.84968E-05 3.99330E-05 1.68284E-18-1.19598E-18
 -1      2583 1.24495E-04-5.89645E-05-2.79061E-05 2.64059E-05 9.56300E-19 6.85038E-19
 -1      2584 1.46560E-04-3.80849E-05-4.69682E-05-5.91621E-07-3.87136E-18 1.71503E-18
 -1      2585 1.43842E-04-4.46746E-05-4.26125E-05 2.83559E-06-2.66355E-18 2.02314E-18
 -1      2586 1.45249E-04-1.90826E-05-5.46081E-05-5.45556E-06-5.11015E-18 5.59042E-19
 -1      2587 1.45002E-04-2.74524E-05-5.07761E-05-4.78320E-06-4.38467E-18 9.27925E-19
 -1      2588 1.37733E-04-1.53297E-05-5.30481E-05 7.09281E-06-5.26897E-18-6.69262E-19
 -1      2589 1.39680E-04-1.05091E-05-5.58397E-05 3.49303E-06-6.23607E-18-7.37342E-19
 -1      2590 1.45797E-04-3.83301E-05-4.62646E-05 1.03286E-06-3.40274E-18 1.54584E-20
 -1      2591 1.42141E-04-2.85920E-05-4.93865E-05 8.04395E-06-3.81927E-18-7.53859E-19
 -1      2592 1.38333E-04-5.14204E-05-3.73595E-05-1.34492E-05-1.42857E-18-1.27478E-19
 -1      2593 1.44798E-04-4.57935E-05-4.28751E-05-6.58865E-06-2.46582E-18 1.08420E-19
 -1      2594 1.40821E-04-4.38686E-05-4.15503E-05 3.39544E-06-1.96729E-18-4.26269E-19
 -1      2595 8.00740E-05-4.68568E-05-1.39138E-05-4.23938E-05 1.53864E-18 3.28268E-18
 -1      2596 9.65099E-05-5.20588E-05-1.91525E-05-4.22002E-05 1.01771E-18 1.62662E-18
 -1      2597 1.49373E-04-5.25156E-05-4.19067E-05 3.57489E-06 5.89535E-19 3.02603E-19
 -1      2598 1.42536E-04-5.69030E-05-3.67513E-05 8.73319E-06 3.56442E-19 4.36857E-19
 -1      2599 9.84287E-05-2.55602E-05-3.12409E-05 5.44351E-06 2.90583E-18 1.71995E-18
 -1      2600 9.92156E-05-2.42235E-05-3.21561E-05 8.66138E-06 3.09675E-18 2.03547E-18
 -1      2601 9.75359E-05-2.16814E-05-3.25639E-05 9.67047E-06 3.32160E-18 1.02040E-18
 -1      2602 9.77323E-05-2.43929E-05-3.14654E-05 5.04816E-06 2.98097E-18 4.74133E-19
 -1      2603 1.45557E-04-2.77916E-05-5.06026E-05-1.26560E-05 2.77679E-18-1.21761E-18
 -1      2604 8.99951E-05-1.38709E-05-3.26187E-05-4.43999E-06-1.64910E-18-3.35077E-18
 -1      2605 8.92649E-05-1.23728E-05-3.30149E-05-5.73527E-06-1.80896E-18-3.56021E-18
 -1      2606 9.03852E-05-1.34432E-05-3.30363E-05-6.84446E-06-2.17850E-18-3.31899E-18
 -1      2607 1.07383E-04-5.60549E-05-2.16174E-05 3.28518E-05-1.29998E-18 1.42963E-18
 -1      2608 1.37352E-04-6.07424E-05-3.28734E-05 1.13977E-05-6.30404E-19 3.16896E-19
 -1      2609 9.56030E-05-1.92526E-05-3.27669E-05 9.21891E-06 3.28468E-18-2.13413E-19
 -1      2610 1.10548E-04-5.61235E-05-2.31691E-05-3.42136E-05 1.71863E-18 2.13346E-19
 -1      2611 1.47508E-04-4.73240E-05-4.30545E-05-7.15746E-06 6.39298E-19-8.44280E-19
 -1      2612 1.35001E-04-5.59282E-05-3.38105E-05-1.46942E-05-7.28978E-20-1.58713E-19
 -1      2613 3.34055E-05-1.79959E-05-6.09640E-06-2.32265E-05 5.15314E-19 4.35438E-18
 -1      2614 3.47432E-05-2.44543E-05-3.97928E-06-2.90525E-05 2.24887E-19 3.78137E-18
 -1      2615 4.67790E-05-2.70387E-05-8.35560E-06-3.52634E-05 3.77565E-19 3.91710E-18
 -1      2616 9.52335E-05-2.85783E-05-2.85666E-05-2.99313E-08-9.45764E-19 4.63947E-18
 -1      2617 9.52368E-05-2.85814E-05-2.85665E-05-3.14153E-08-3.48968E-19 3.29500E-18
 -1      2618 1.36703E-04-2.26347E-05-4.93530E-05 1.00467E-05-4.18095E-18-1.11639E-18
 -1      2619 1.27536E-04-1.68386E-05-4.79852E-05 1.11001E-05-4.68685E-18-1.34297E-18
 -1      2620 1.32885E-04-2.91811E-05-4.47482E-05 1.12515E-05-3.25843E-18-1.29977E-18
 -1      2621 3.59050E-05-2.15094E-05-5.59911E-06 2.26441E-05-1.27817E-18 3.17299E-18
 -1      2622 1.39985E-04-3.21530E-05-4.64068E-05-8.40704E-06-3.06192E-18 2.18863E-18
 -1      2623 9.75558E-05-2.70132E-05-3.02510E-05-2.10482E-06 1.87563E-18 6.78305E-20
 -1      2624 8.81211E-05-4.80369E-05-1.67001E-05-3.85077E-05-2.51103E-18-2.30869E-18
 -1      2625 9.28147E-05-1.61715E-05-3.28793E-05-8.07391E-06-2.58229E-18-2.61045E-18
 -1      2626 1.39943E-04-5.13034E-05-3.80588E-05 5.27944E-06-1.15125E-18 2.59700E-18
 -1      2627 1.30148E-04-8.92966E-06-5.23253E-05 1.76443E-06-5.59613E-18-2.55023E-19
 -1      2628 5.17227E-05-2.92028E-05-9.08857E-06-3.31490E-05-1.97539E-18-5.25372E-18
 -1      2629 1.23146E-04-6.07178E-05-2.64790E-05-2.56750E-05-1.64324E-18 7.76570E-19
 -1      2630 3.00884E-05-1.85002E-05-4.39971E-06 1.78675E-05 8.55821E-19-6.28753E-18
 -1      2631 1.41493E-04-1.74549E-05-5.34356E-05 7.65098E-06 5.16140E-18 1.72625E-18
 -1      2632 1.46481E-04-3.87676E-05-4.65614E-05 1.19752E-05 3.65706E-18 3.29919E-18
 -1      2633 1.38893E-04-3.13539E-05-4.68926E-05 1.57114E-05 3.84108E-18 3.22222E-18
 -1      2634 1.41575E-04-4.33548E-05-4.19512E-05 1.34771E-05 2.42071E-18 4.08916E-18
 -1      2635 1.42570E-04-5.66736E-05-3.68690E-05-2.75743E-06 7.12540E-19 3.84945E-18
 -1      2636 1.40472E-04-1.43766E-05-5.42659E-05-5.57987E-06 4.80458E-18 2.32722E-19
 -1      2637 1.34277E-04-1.48935E-05-5.14336E-05-7.57022E-06-4.82936E-18 1.11491E-18
 -1      2638 5.80914E-05-3.37518E-05-9.90123E-06 3.90809E-05 1.55049E-18-4.30092E-18
 -1      2639 9.52319E-05-2.85757E-05-2.85670E-05 3.01014E-08 3.09777E-19 1.80956E-18
 -1      2640 9.52380E-05-2.85817E-05-2.85670E-05 3.18964E-08-4.38914E-19 1.43795E-18
 -1      2641 9.52382E-05-2.85785E-05-2.85684E-05 3.38402E-08 5.32812E-19 1.94523E-18
 -1      2642 9.52290E-05-2.85728E-05-2.85669E-05 3.25402E-08 7.25623E-19 2.52454E-18
 -1      2643 7.30933E-05-4.19954E-05-1.28853E-05-4.27186E-05 1.45118E-18 3.10236E-18
 -1      2644 9.58457E-05-2.04894E-05-3.22537E-05 7.02598E-06 3.08859E-18-4.42462E-19
 -1      2645 9.52369E-05-2.85786E-05-2.85678E-05-3.42664E-08-5.83774E-19 2.43391E-18
 -1      2646 9.52334E-05-2.85735E-05-2.85686E-05 3.45905E-08 8.65240E-19 1.97554E-18
 -1      2647 8.74574E-05-1.21594E-05-3.22908E-05 1.87325E-06 1.22658E-18-3.39553E-18
 -1      2648 8.70205E-05-1.17569E-05-3.22781E-05 1.35501E-06 9.78681E-19-3.50767E-18
 -1      2649 8.67409E-05-1.14863E-05-3.22726E-05 1.04065E-06 7.64956E-19-3.61213E-18
 -1      2650 8.66389E-05-1.13910E-05-3.22670E-05 5.21340E-07 4.45248E-19-3.63340E-18
 -1      2651 8.76054E-05-1.29948E-05-3.19553E-05 9.70314E-07 8.27169E-19-3.37572E-18
 -1      2652 9.09536E-05-1.57245E-05-3.22727E-05 3.69739E-06 2.22764E-18-2.33889E-18
 -1      2653 8.98521E-05-1.45887E-05-3.22877E-05 3.11493E-06 1.97586E-18-2.60430E-18
 -1      2654 9.36455E-05-1.87722E-05-3.21185E-05 4.55405E-06 2.65512E-18-1.53787E-18
 -1      2655 9.22421E-05-1.71541E-05-3.22069E-05 4.05028E-06 2.30669E-18-1.91512E-18
 -1      2656 9.23927E-05-1.79922E-05-3.18589E-05 2.60815E-06 2.07125E-18-1.91393E-18
 -1      2657 9.52418E-05-2.85764E-05-2.85709E-05-3.41502E-08-1.10640E-18-5.20608E-19
 -1      2658 9.52363E-05-2.85739E-05-2.85696E-05-3.42217E-08-1.00258E-18 1.86324E-18
 -1      2659 9.52344E-05-2.85698E-05-2.85705E-05-3.45879E-08-2.05410E-18 2.02344E-18
 -1      2660 9.59093E-05-2.16831E-05-3.18134E-05 4.95039E-06 2.86151E-18-6.65606E-19
 -1      2661 1.29724E-04-5.82276E-05-3.04389E-05-1.74247E-05 8.52592E-19-3.48342E-19
 -1      2662 1.35341E-04-5.47264E-05-3.50369E-05-7.04595E-06 2.34089E-19-4.55915E-19
 -1      2663 9.68248E-05-2.56900E-05-3.04585E-05 8.08404E-07-1.67482E-18-1.50004E-18
 -1      2664 9.69400E-05-2.63474E-05-3.02583E-05 2.05442E-06-1.43978E-18-1.48203E-18
 -1      2665 9.71541E-05-2.69394E-05-3.00672E-05 3.11131E-06-1.19555E-18-1.37520E-18
 -1      2666 9.73912E-05-2.74662E-05-2.99690E-05 3.96450E-06-9.61749E-19-1.44220E-18
 -1      2667 9.65056E-05-2.58416E-05-3.02955E-05 2.59603E-06-1.29163E-18-1.66674E-18
 -1      2668 9.76669E-05-2.79706E-05-2.98490E-05 4.72697E-06-8.08909E-19-1.29047E-18
 -1      2669 9.80685E-05-2.85013E-05-2.98153E-05 5.25875E-06-5.53765E-19-1.43002E-18
 -1      2670 9.70003E-05-2.71327E-05-2.99583E-05 4.51835E-06-8.69478E-19-1.41762E-18
 -1      2671 9.85008E-05-2.90529E-05-2.97432E-05 5.74397E-06-3.67886E-19-1.43035E-18
 -1      2672 9.90813E-05-2.96768E-05-2.97482E-05 5.96616E-06-3.94523E-19-1.41979E-18
 -1      2673 9.77151E-05-2.83720E-05-2.97367E-05 5.86146E-06-5.48715E-19-1.51965E-18
 -1      2674 9.97476E-05-3.03713E-05-2.97095E-05 6.15073E-06-4.03828E-19-1.34649E-18
 -1      2675 1.00509E-04-3.11438E-05-2.97373E-05 6.02682E-06-4.81665E-19-1.39364E-18
 -1      2676 9.88160E-05-2.98130E-05-2.95951E-05 6.62795E-06-4.34844E-19-1.53526E-18
 -1      2677 1.01475E-04-3.20391E-05-2.97296E-05 5.84006E-06-3.56538E-19-1.20032E-18
 -1      2678 1.02397E-04-3.29654E-05-2.97751E-05 5.30103E-06-4.37514E-19-1.06084E-18
 -1      2679 1.00448E-04-3.16347E-05-2.95191E-05 6.73272E-06-3.69287E-19-1.47588E-18
 -1      2680 1.03693E-04-3.40510E-05-2.98120E-05 4.63028E-06-6.05241E-19-7.51778E-19
 -1      2681 1.04702E-04-3.50418E-05-2.98848E-05 3.60481E-06-4.07572E-19-7.91739E-19
 -1      2682 1.02714E-04-3.39015E-05-2.95237E-05 5.99689E-06-4.51647E-19-6.91320E-19
 -1      2683 1.06262E-04-3.61768E-05-3.00008E-05 2.32611E-06-2.73169E-19-8.10419E-19
 -1      2684 1.07187E-04-3.69866E-05-3.01264E-05 8.00849E-07-5.51481E-20-9.68122E-19
 -1      2685 1.05593E-04-3.64531E-05-2.96641E-05 4.17180E-06-2.82399E-19-4.41855E-19
 -1      2686 1.08757E-04-3.78229E-05-3.03763E-05-1.12841E-06 2.10587E-19-7.16584E-19
 -1      2687 1.09310E-04-3.80189E-05-3.05926E-05-3.00020E-06 1.09103E-19-5.86682E-19
 -1      2688 1.08785E-04-3.87351E-05-3.00413E-05 1.04200E-06-1.54799E-20-7.69518E-19
 -1      2689 1.10383E-04-3.79949E-05-3.10350E-05-5.33894E-06 4.67502E-20-4.87256E-19
 -1      2690 1.10240E-04-3.70821E-05-3.13710E-05-7.10281E-06-1.69492E-19-3.95592E-19
 -1      2691 1.11525E-04-3.96670E-05-3.07870E-05-3.29391E-06-6.35109E-21-7.53810E-19
 -1      2692 1.10244E-04-3.56804E-05-3.20209E-05-9.13144E-06-2.70246E-19-4.82065E-19
 -1      2693 1.09252E-04-3.34355E-05-3.24624E-05-1.00290E-05-7.70052E-19-2.70227E-19
 -1      2694 1.12694E-04-3.79693E-05-3.19937E-05-7.93533E-06-2.69178E-19-3.77656E-19
 -1      2695 1.07907E-04-3.06269E-05-3.32307E-05-1.04961E-05-1.16946E-18-3.08479E-19
 -1      2696 1.06454E-04-2.77104E-05-3.36788E-05-9.66503E-06-1.51451E-18-2.63057E-19
 -1      2697 1.11320E-04-3.28478E-05-3.35910E-05-1.09190E-05-8.70042E-19-3.66166E-19
 -1      2698 1.04615E-04-2.47612E-05-3.43269E-05-7.64127E-06-1.89800E-18-2.95985E-19
 -1      2699 1.03544E-04-2.26883E-05-3.46133E-05-4.97034E-06-1.88863E-18-3.07837E-19
 -1      2700 1.07973E-04-2.58261E-05-3.52104E-05-9.64529E-06-1.69830E-18-6.77358E-19
 -1      2701 1.02773E-04-2.15145E-05-3.48623E-05-1.01566E-06-1.92934E-18-4.14040E-19
 -1      2702 1.02743E-04-2.15879E-05-3.48633E-05 2.35412E-06-1.58355E-18-5.50399E-19
 -1      2703 1.05230E-04-2.08201E-05-3.62337E-05-3.38137E-06-1.96798E-18-1.61433E-19
 -1      2704 1.03841E-04-2.30515E-05-3.45726E-05 6.38509E-06-1.27772E-18-1.51674E-18
 -1      2705 1.05052E-04-2.53595E-05-3.42650E-05 8.84312E-06-1.25377E-18-1.95787E-18
 -1      2706 1.05226E-04-2.09965E-05-3.61222E-05 5.08535E-06-1.99890E-18-9.42748E-19
 -1      2707 1.06882E-04-2.83363E-05-3.35977E-05 1.05616E-05-1.15015E-18-1.90230E-18
 -1      2708 1.08355E-04-3.12271E-05-3.31600E-05 1.11999E-05-7.56391E-19-1.86805E-18
 -1      2709 1.08442E-04-2.66006E-05-3.50729E-05 1.07110E-05-1.19660E-18-1.83105E-18
 -1      2710 1.09563E-04-3.38775E-05-3.24083E-05 1.05328E-05-8.02191E-19-1.51704E-18
 -1      2711 1.10496E-04-3.59729E-05-3.19928E-05 9.54691E-06-2.88120E-19-1.91101E-18
 -1      2712 1.11601E-04-3.34153E-05-3.34548E-05 1.14794E-05-4.63272E-19-1.77228E-18
 -1      2713 1.10362E-04-3.71989E-05-3.13760E-05 7.48723E-06 1.00147E-19-1.62011E-18
 -1      2714 1.10458E-04-3.79713E-05-3.10710E-05 5.72736E-06 2.04818E-19-1.86854E-18
 -1      2715 1.12673E-04-3.81278E-05-3.19110E-05 8.26961E-06-1.61927E-19-1.70708E-18
 -1      2716 1.09295E-04-3.78563E-05-3.06586E-05 3.46452E-06 2.54511E-19-1.54577E-18
 -1      2717 1.08731E-04-3.75782E-05-3.04676E-05 1.67213E-06 4.64583E-19-2.06454E-18
 -1      2718 1.11282E-04-3.94674E-05-3.07726E-05 3.68893E-06 2.26846E-19-2.01526E-18
 -1      2719 1.07143E-04-3.66902E-05-3.02350E-05-1.36047E-07 4.57419E-19-1.71867E-18
 -1      2720 1.06245E-04-3.58699E-05-3.01251E-05-1.56296E-06 2.56590E-19-1.70757E-18
 -1      2721 1.08441E-04-3.83151E-05-3.00750E-05-4.25465E-07 4.51087E-19-1.30288E-18
 -1      2722 1.04702E-04-3.47471E-05-3.00104E-05-2.73654E-06-7.22501E-20-2.41030E-18
 -1      2723 1.03738E-04-3.37983E-05-2.99416E-05-3.68260E-06-9.44576E-20-3.03381E-18
 -1      2724 1.05258E-04-3.59981E-05-2.97139E-05-3.32777E-06-2.68173E-19-1.51141E-18
 -1      2725 1.02465E-04-3.27686E-05-2.98878E-05-4.29480E-06-2.19914E-19-2.95581E-18
 -1      2726 1.01586E-04-3.19228E-05-2.98311E-05-4.80275E-06-4.37311E-19-2.93217E-18
 -1      2727 1.02426E-04-3.35387E-05-2.95527E-05-4.99931E-06-3.67789E-19-2.37261E-18
 -1      2728 1.00631E-04-3.11184E-05-2.97998E-05-5.00250E-06 9.72082E-20-2.44353E-18
 -1      2729 9.98921E-05-3.04609E-05-2.97399E-05-5.17303E-06 5.17793E-19-2.06481E-18
 -1      2730 1.00204E-04-3.14603E-05-2.94845E-05-5.70912E-06 6.76013E-20-1.46673E-18
 -1      2731 9.92182E-05-2.98981E-05-2.97106E-05-5.10192E-06 2.97004E-19-2.21558E-18
 -1      2732 9.86221E-05-2.94325E-05-2.96431E-05-5.04176E-06-2.08021E-19-2.39318E-18
 -1      2733 9.85859E-05-2.99217E-05-2.94439E-05-5.75945E-06 4.46960E-19-1.42321E-18
 -1      2734 9.81645E-05-2.90748E-05-2.96076E-05-4.81113E-06-6.36461E-20-1.88006E-18
 -1      2735 9.76931E-05-2.87695E-05-2.95339E-05-4.61109E-06 3.73914E-20-1.34411E-18
 -1      2736 9.74646E-05-2.88930E-05-2.93988E-05-5.40106E-06 4.72966E-19-9.55466E-19
 -1      2737 9.73897E-05-2.85657E-05-2.94913E-05-4.30079E-06-4.86006E-19-6.33504E-19
 -1      2738 9.70200E-05-2.83807E-05-2.94152E-05-4.02971E-06-6.78829E-19-1.11872E-19
 -1      2739 9.67113E-05-2.82717E-05-2.93385E-05-4.81930E-06 3.39625E-20-4.63110E-19
 -1      2740 9.68214E-05-2.82829E-05-2.93677E-05-3.69351E-06-4.35126E-19 4.11669E-19
 -1      2741 9.65325E-05-2.81817E-05-2.92933E-05-3.39929E-06 9.45049E-20 5.03939E-19
 -1      2742 9.62146E-05-2.79445E-05-2.92634E-05-4.14240E-06-2.23224E-19 1.04065E-18
 -1      2743 9.64027E-05-2.81515E-05-2.92442E-05-3.07116E-06-1.07748E-19 9.39128E-20
 -1      2744 9.61776E-05-2.81054E-05-2.91749E-05-2.78451E-06-2.46506E-20 1.40370E-19
 -1      2745 9.58898E-05-2.78134E-05-2.91788E-05-3.45433E-06 4.16666E-22 1.22050E-18
 -1      2746 9.60923E-05-2.81151E-05-2.91269E-05-2.48414E-06-2.97922E-19 8.02431E-19
 -1      2747 9.59177E-05-2.81031E-05-2.90649E-05-2.22281E-06-2.01998E-19 3.74886E-19
 -1      2748 9.56775E-05-2.78036E-05-2.90911E-05-2.80645E-06 6.79093E-20 1.21606E-18
 -1      2749 9.58610E-05-2.81337E-05-2.90203E-05-1.95992E-06-3.97599E-19 3.60001E-19
 -1      2750 9.57263E-05-2.81413E-05-2.89666E-05-1.73251E-06 9.98967E-20 2.21410E-19
 -1      2751 9.55378E-05-2.78620E-05-2.90057E-05-2.22688E-06-5.19514E-19 2.15836E-18
 -1      2752 9.56881E-05-2.81807E-05-2.89268E-05-1.51022E-06 3.38601E-19 9.27072E-20
 -1      2753 9.55852E-05-2.81983E-05-2.88815E-05-1.31926E-06 9.39527E-20-6.06617E-19
 -1      2754 9.54448E-05-2.79531E-05-2.89265E-05-1.72783E-06-1.93586E-19 1.66436E-18
 -1      2755 9.55588E-05-2.82391E-05-2.88471E-05-1.13655E-06 8.88740E-19-1.17482E-18
 -1      2756 9.54812E-05-2.82607E-05-2.88100E-05-9.80787E-07 1.40080E-18-2.96035E-19
 -1      2757 9.53820E-05-2.80547E-05-2.88558E-05-1.31103E-06 1.96605E-19 2.77287E-19
 -1      2758 9.54627E-05-2.82988E-05-2.87810E-05-8.34247E-07 1.30923E-18-4.81734E-19
 -1      2759 9.54049E-05-2.83209E-05-2.87513E-05-7.10355E-07 1.57088E-18-6.09183E-19
 -1      2760 9.53388E-05-2.81535E-05-2.87947E-05-9.71816E-07 1.15385E-18-1.62272E-18
 -1      2761 9.53917E-05-2.83542E-05-2.87275E-05-5.95405E-07 1.53095E-18-4.56876E-19
 -1      2762 9.53495E-05-2.83748E-05-2.87042E-05-4.99092E-07 6.38470E-19-4.14356E-19
 -1      2763 9.53086E-05-2.82427E-05-2.87434E-05-7.02007E-07 1.46368E-18-7.71566E-19
 -1      2764 9.53400E-05-2.84028E-05-2.86852E-05-4.10798E-07 6.97553E-19-4.38587E-22
 -1      2765 9.53098E-05-2.84208E-05-2.86673E-05-3.37542E-07 6.28409E-19 6.65741E-19
 -1      2766 9.52873E-05-2.83192E-05-2.87013E-05-4.91926E-07 1.46616E-18-8.03048E-19
 -1      2767 9.53029E-05-2.84435E-05-2.86523E-05-2.71121E-07-4.23527E-19 9.86851E-19
 -1      2768 9.52819E-05-2.84588E-05-2.86389E-05-2.16611E-07-7.79241E-19 1.18287E-18
 -1      2769 9.52720E-05-2.83824E-05-2.86676E-05-3.31682E-07-6.52938E-20-4.98121E-19
 -1      2770 9.52769E-05-2.84767E-05-2.86274E-05-1.67717E-07-8.72803E-19 5.20447E-19
 -1      2771 9.52629E-05-2.84893E-05-2.86176E-05-1.28097E-07-5.18283E-19-4.53571E-19
 -1      2772 9.52611E-05-2.84332E-05-2.86410E-05-2.11973E-07-1.33558E-18-6.85197E-19
 -1      2773 9.52592E-05-2.85031E-05-2.86088E-05-9.29680E-08-3.85259E-20 9.87331E-20
 -1      2774 9.52504E-05-2.85133E-05-2.86018E-05-6.49547E-08 1.81678E-19-5.75986E-19
 -1      2775 9.52533E-05-2.84730E-05-2.86205E-05-1.24523E-07-5.09282E-19-1.33477E-18
 -1      2776 9.52478E-05-2.85238E-05-2.85953E-05-4.04612E-08 2.91925E-19 1.08959E-19
 -1      2777 9.52426E-05-2.85320E-05-2.85904E-05-2.13712E-08 7.87722E-19 1.52712E-19
 -1      2778 9.52479E-05-2.85037E-05-2.86050E-05-6.22847E-08 3.47491E-19-2.39975E-19
 -1      2779 9.52409E-05-2.85400E-05-2.85856E-05-5.01208E-09 9.80773E-19 1.28977E-18
 -1      2780 9.52384E-05-2.85467E-05-2.85823E-05 7.25245E-09 8.60177E-19 2.55867E-18
 -1      2781 9.52442E-05-2.85271E-05-2.85933E-05-1.94864E-08 1.62230E-18 5.28083E-20
 -1      2782 9.52374E-05-2.85530E-05-2.85787E-05 1.74108E-08 6.86497E-19 2.58008E-18
 -1      2783 9.52368E-05-2.85586E-05-2.85764E-05 2.44270E-08 8.01049E-19 2.51721E-18
 -1      2784 9.52419E-05-2.85451E-05-2.85845E-05 8.41903E-09 6.21832E-19 1.21970E-18
 -1      2785 9.52364E-05-2.85638E-05-2.85737E-05 2.97412E-08 1.77257E-19 2.17892E-18
 -1      2786 9.52370E-05-2.85687E-05-2.85721E-05 3.25117E-08 3.77019E-19 1.38440E-18
 -1      2787 9.52409E-05-2.85595E-05-2.85779E-05 2.49252E-08 4.73648E-19 4.07182E-19
 -1      2788 9.86337E-05-2.77768E-05-3.03497E-05-9.21539E-06 5.35208E-19-5.73931E-19
 -1      2789 9.79603E-05-2.74185E-05-3.02257E-05-8.36802E-06 6.36311E-19-5.93256E-19
 -1      2790 6.43245E-05-3.48543E-05-1.19640E-05-3.96008E-05 1.23328E-18 2.71559E-18
 -1      2791 8.29053E-05-4.35083E-05-1.67569E-05-4.00150E-05 2.41606E-18 1.05434E-18
 -1      2792 1.43346E-04-4.28268E-05-4.37061E-05-1.29201E-05 1.55854E-19-2.59658E-18
 -1      2793 1.42561E-04-5.04691E-05-3.95462E-05-8.37378E-06-6.60156E-19-2.33760E-18
 -1      2794 9.78416E-05-2.72559E-05-3.02340E-05-7.35558E-06 8.14594E-19-4.99156E-19
 -1      2795 9.73851E-05-2.69781E-05-3.01620E-05-6.36939E-06 1.12699E-18-3.52892E-19
 -1      2796 9.65809E-05-2.63678E-05-3.01007E-05-8.19157E-06 9.28615E-19-8.50085E-19
 -1      2797 1.01674E-04-3.01422E-05-3.06463E-05-1.19651E-05 1.89930E-19-1.66453E-19
 -1      2798 1.00401E-04-2.91902E-05-3.05063E-05-1.15817E-05 3.28758E-19-3.16257E-19
 -1      2799 1.04520E-04-3.27853E-05-3.07446E-05-1.23407E-05 2.59425E-19-1.46106E-19
 -1      2800 1.02764E-04-3.12370E-05-3.06237E-05-1.24804E-05 2.99030E-19-3.43617E-20
 -1      2801 9.94015E-05-2.97404E-05-2.98934E-05-1.33942E-05 1.80076E-19-7.24865E-19
 -1      2802 1.08876E-04-3.69574E-05-3.08450E-05-1.13085E-05-8.25195E-20-3.61238E-20
 -1      2803 1.06502E-04-3.46753E-05-3.07189E-05-1.23166E-05 1.78199E-19 4.17313E-21
 -1      2804 1.02382E-04-3.31183E-05-2.97543E-05-1.41380E-05 1.08975E-19-2.84133E-19
 -1      2805 1.15081E-04-4.25334E-05-3.11515E-05-7.95883E-06-7.00913E-19 4.00197E-19
 -1      2806 1.12153E-04-3.97554E-05-3.09207E-05-1.02346E-05-4.57844E-19 3.35504E-19
 -1      2807 1.07536E-04-3.84812E-05-2.97062E-05-1.34964E-05-4.12757E-19 2.16840E-19
 -1      2808 1.22659E-04-4.78328E-05-3.21428E-05-1.33046E-06-2.79799E-19 1.27461E-18
 -1      2809 1.19776E-04-4.57758E-05-3.15804E-05-5.08184E-06-7.82797E-19 7.70019E-19
 -1      2810 1.15480E-04-4.55839E-05-3.01303E-05-1.02507E-05-9.21148E-19 7.80184E-19
 -1      2811 1.28994E-04-4.86526E-05-3.44571E-05 8.47856E-06 5.50466E-19 2.50491E-18
 -1      2812 1.27854E-04-5.00211E-05-3.34124E-05 3.76434E-06 3.29284E-20 2.04187E-18
 -1      2813 1.25571E-04-5.14501E-05-3.18730E-05-2.76318E-06-6.64140E-19 2.09084E-18
 -1      2814 1.30216E-04-3.56554E-05-4.07714E-05 1.74677E-05 2.80050E-18 2.01207E-18
 -1      2815 1.31912E-04-4.27008E-05-3.85243E-05 1.51851E-05 1.90510E-18 2.28130E-18
 -1      2816 1.27856E-04-2.85910E-05-4.27811E-05 1.43561E-05 3.54219E-18 1.11968E-18
 -1      2817 1.33154E-04-4.42138E-05-3.85287E-05-1.59584E-05-8.99205E-19-2.47201E-18
 -1      2818 1.30738E-04-3.69966E-05-4.04761E-05-1.65979E-05-3.79841E-19-2.29919E-18
 -1      2819 1.22648E-04-4.74192E-05-3.20935E-05 2.27575E-06-8.20696E-19-1.82552E-18
 -1      2820 1.25535E-04-4.89895E-05-3.28162E-05-2.17020E-06-7.14115E-19-2.23700E-18
 -1      2821 1.14630E-04-4.14913E-05-3.12197E-05 8.24980E-06-8.46636E-20-7.55575E-19
 -1      2822 1.17599E-04-4.42230E-05-3.14976E-05 5.52947E-06-3.73561E-19-1.09796E-18
 -1      2823 1.18329E-04-4.73351E-05-3.05294E-05 7.83544E-06-1.05121E-18-2.73815E-18
 -1      2824 1.08429E-04-3.59938E-05-3.09699E-05 1.09929E-05-6.08075E-19-3.55382E-19
 -1      2825 1.10915E-04-3.84518E-05-3.10912E-05 9.69786E-06 7.88072E-20-3.12563E-19
 -1      2826 1.09740E-04-4.03339E-05-2.98771E-05 1.20028E-05-2.29175E-19-1.28408E-18
 -1      2827 1.04269E-04-3.21268E-05-3.08816E-05 1.15184E-05-6.88384E-19-8.82441E-19
 -1      2828 1.06126E-04-3.38460E-05-3.09859E-05 1.12060E-05-7.27161E-19-2.91382E-19
 -1      2829 1.03831E-04-3.43639E-05-2.98582E-05 1.30992E-05-5.22762E-19-5.02233E-19
 -1      2830 1.01641E-04-2.98126E-05-3.07699E-05 1.08329E-05-9.58523E-19-6.77376E-19
 -1      2831 1.02978E-04-3.08592E-05-3.09015E-05 1.11018E-05-5.17665E-19-6.50629E-19
 -1      2832 1.00344E-04-3.04932E-05-2.99805E-05 1.26013E-05-7.59340E-19-2.77762E-19
 -1      2833 9.99739E-05-2.85896E-05-3.05915E-05 9.58172E-06-1.25323E-18-9.83125E-21
 -1      2834 1.00954E-04-2.91700E-05-3.07507E-05 1.01434E-05-1.06023E-18-6.11262E-19
 -1      2835 9.84352E-05-2.83545E-05-3.00542E-05 1.13520E-05-1.37307E-18 5.57576E-19
 -1      2836 9.88626E-05-2.80311E-05-3.03600E-05 8.13934E-06 3.28151E-20-4.14790E-19
 -1      2837 9.96084E-05-2.83265E-05-3.05324E-05 8.80806E-06-3.67396E-19-4.72236E-19
 -1      2838 9.74175E-05-2.73531E-05-3.00348E-05 9.81847E-06-7.39990E-19 1.79035E-19
 -1      2839 9.80672E-05-2.78381E-05-3.01036E-05 6.71460E-06-2.95538E-19 5.91000E-20
 -1      2840 9.86541E-05-2.79729E-05-3.02742E-05 7.38200E-06-1.44263E-19-1.34773E-19
 -1      2841 9.68587E-05-2.70124E-05-2.99360E-05 8.24712E-06-4.15963E-19-2.52073E-19
 -1      2842 9.74592E-05-2.78273E-05-2.98476E-05 5.41406E-06 4.82384E-19 6.16934E-19
 -1      2843 9.79302E-05-2.78774E-05-3.00056E-05 6.02408E-06 2.13899E-19-1.38416E-20
 -1      2844 9.65192E-05-2.70157E-05-2.97875E-05 6.76917E-06-3.21972E-20 1.12228E-21
 -1      2845 9.69740E-05-2.78966E-05-2.96092E-05 4.28288E-06 6.09030E-19 4.80515E-19
 -1      2846 9.73542E-05-2.79045E-05-2.97487E-05 4.81183E-06 6.28054E-19 5.36069E-19
 -1      2847 9.62799E-05-2.71743E-05-2.96170E-05 5.44893E-06 4.55924E-19 4.78190E-19
 -1      2848 9.65796E-05-2.79931E-05-2.93979E-05 3.33100E-06 9.20524E-19 2.15540E-20
 -1      2849 9.68852E-05-2.79817E-05-2.95167E-05 3.77380E-06 1.35013E-18 6.17809E-19
 -1      2850 9.60883E-05-2.73856E-05-2.94448E-05 4.31091E-06 8.26681E-19 4.16892E-19
 -1      2851 9.62587E-05-2.80917E-05-2.92172E-05 2.54945E-06-2.01544E-19-3.38341E-19
 -1      2852 9.65019E-05-2.80725E-05-2.93155E-05 2.91080E-06 5.23225E-19 3.27695E-20
 -1      2853 9.59244E-05-2.75990E-05-2.92836E-05 3.35600E-06 8.54940E-19 4.27766E-19
 -1      2854 9.60001E-05-2.81817E-05-2.90671E-05 1.92020E-06-1.87088E-19-1.37044E-19
 -1      2855 9.61910E-05-2.81604E-05-2.91466E-05 2.20926E-06-9.07117E-19-5.70355E-19
 -1      2856 9.57821E-05-2.77920E-05-2.91401E-05 2.57184E-06-3.13191E-19-6.60287E-19
 -1      2857 9.57949E-05-2.82595E-05-2.89453E-05 1.42196E-06 2.70875E-19 2.08354E-18
 -1      2858 9.59423E-05-2.82387E-05-2.90082E-05 1.64935E-06 2.06185E-20 7.34626E-19
 -1      2859 9.56599E-05-2.79570E-05-2.90171E-05 1.93953E-06-7.92639E-19-8.80455E-19
 -1      2860 9.56349E-05-2.83247E-05-2.88483E-05 1.03337E-06 1.86881E-18 1.24127E-18
 -1      2861 9.57469E-05-2.83057E-05-2.88973E-05 1.20956E-06 1.51620E-18 2.02320E-18
 -1      2862 9.55574E-05-2.80937E-05-2.89146E-05 1.43787E-06 9.99780E-19 1.51350E-18
 -1      2863 9.55128E-05-2.83784E-05-2.87726E-05 7.34643E-07 1.77977E-18 1.45672E-18
 -1      2864 9.55961E-05-2.83615E-05-2.88101E-05 8.69211E-07 1.72583E-18 1.41593E-18
 -1      2865 9.54736E-05-2.82044E-05-2.88311E-05 1.04580E-06 1.87144E-18 7.96748E-19
 -1      2866 9.54215E-05-2.84221E-05-2.87145E-05 5.08296E-07 3.04572E-19 3.50423E-18
 -1      2867 9.54822E-05-2.84075E-05-2.87427E-05 6.09589E-07 1.41863E-18 2.61475E-18
 -1      2868 9.54070E-05-2.82928E-05-2.87645E-05 7.43837E-07 4.58663E-19 1.69219E-18
 -1      2869 9.53549E-05-2.84572E-05-2.86708E-05 3.39355E-07-7.19343E-19 3.85106E-18
 -1      2870 9.53981E-05-2.84448E-05-2.86915E-05 4.14443E-07 3.77388E-20 4.28349E-18
 -1      2871 9.53555E-05-2.83625E-05-2.87124E-05 5.14660E-07-1.54967E-19 4.73993E-18
 -1      2872 9.53077E-05-2.84853E-05-2.86384E-05 2.15303E-07-9.83455E-19 2.51597E-18
 -1      2873 9.53375E-05-2.84748E-05-2.86533E-05 2.70037E-07-7.35057E-19 3.49425E-18
 -1      2874 9.53166E-05-2.84170E-05-2.86722E-05 3.43379E-07-4.38423E-19 3.84645E-18
 -1      2875 9.52755E-05-2.85075E-05-2.86150E-05 1.25880E-07-8.54854E-19 2.41699E-18
 -1      2876 9.52951E-05-2.84988E-05-2.86255E-05 1.65011E-07-1.29176E-18 2.03262E-18
 -1      2877 9.52882E-05-2.84590E-05-2.86418E-05 2.17484E-07-6.60003E-19 3.95657E-18
 -1      2878 9.52544E-05-2.85250E-05-2.85984E-05 6.28452E-08 2.32256E-19 1.29829E-18
 -1      2879 9.52666E-05-2.85178E-05-2.86056E-05 9.01526E-08 8.81061E-20 1.49182E-18
 -1      2880 9.52680E-05-2.84912E-05-2.86192E-05 1.26686E-07-1.41523E-19 2.90461E-18
 -1      2881 9.52417E-05-2.85389E-05-2.85869E-05 1.97157E-08 1.07327E-18 3.11762E-20
 -1      2882 9.52485E-05-2.85328E-05-2.85917E-05 3.81421E-08 9.71143E-19 4.26372E-19
 -1      2883 9.52543E-05-2.85156E-05-2.86027E-05 6.27012E-08 1.37563E-18 1.14580E-18
 -1      2884 9.52349E-05-2.85500E-05-2.85792E-05-8.45386E-09 2.43288E-18 3.15788E-19
 -1      2885 9.52380E-05-2.85449E-05-2.85822E-05 3.30024E-09 1.61051E-18 1.18720E-19
 -1      2886 9.52456E-05-2.85343E-05-2.85909E-05 1.90003E-08 1.46535E-18-1.94060E-20
 -1      2887 9.52324E-05-2.85592E-05-2.85742E-05-2.51514E-08-3.48575E-19 2.80707E-18
 -1      2888 9.52329E-05-2.85549E-05-2.85760E-05-1.86574E-08 1.51219E-18 2.13085E-18
 -1      2889 9.52404E-05-2.85486E-05-2.85824E-05-9.41186E-09 5.15282E-19 1.65722E-18
 -1      2890 9.52337E-05-2.85662E-05-2.85717E-05-3.22566E-08-1.56460E-18 2.94252E-18
 -1      2891 9.52327E-05-2.85622E-05-2.85729E-05-2.94871E-08-9.61570E-19 2.61546E-18
 -1      2892 9.52396E-05-2.85590E-05-2.85776E-05-2.45698E-08-8.44708E-19 2.45005E-18
 -1      2893 9.52411E-05-2.85674E-05-2.85746E-05-3.13888E-08-1.01100E-18 3.17136E-19
 -1      2894 9.70278E-05-2.43663E-05-3.11108E-05 2.24583E-06 2.37959E-18-3.65377E-19
 -1      2895 9.50423E-05-2.08651E-05-3.18020E-05 3.88818E-06 2.66863E-18-1.13555E-18
 -1      2896 9.49112E-05-2.14738E-05-3.14693E-05 2.08469E-06 2.28831E-18-1.23505E-18
 -1      2897 9.69348E-05-2.51278E-05-3.07751E-05 2.59616E-07 2.15740E-18-3.86590E-19
 -1      2898 9.52497E-05-2.85733E-05-2.85756E-05-1.03381E-09-8.28960E-19 1.60011E-18
 -1      2899 9.52499E-05-2.85735E-05-2.85756E-05-4.77312E-09-5.73985E-19 1.89888E-18
 -1      2900 9.52370E-05-2.85720E-05-2.85706E-05 3.38458E-08 1.26755E-18 1.81695E-18
 -1      2901 9.52379E-05-2.85752E-05-2.85697E-05 3.37577E-08 1.34765E-18 1.79885E-18
 -1      2902 9.52408E-05-2.85700E-05-2.85733E-05 3.19562E-08 5.38197E-19 9.96387E-19
 -1      2903 9.52505E-05-2.85763E-05-2.85747E-05-1.59773E-08 8.77175E-19 1.29576E-18
 -1      2904 9.52500E-05-2.85763E-05-2.85744E-05-1.97612E-08 2.48323E-18 5.51961E-20
 -1      2905 9.52495E-05-2.85732E-05-2.85756E-05 6.05927E-09 1.22830E-19 2.58938E-19
 -1      2906 9.52496E-05-2.85732E-05-2.85756E-05 2.37654E-09-3.43226E-19 6.76816E-19
 -1      2907 9.52483E-05-2.85607E-05-2.85803E-05 7.51489E-10-1.46136E-20 1.66863E-18
 -1      2908 9.52502E-05-2.85745E-05-2.85753E-05-8.34327E-09-7.86671E-19 6.75334E-19
 -1      2909 9.52502E-05-2.85747E-05-2.85752E-05-1.21660E-08 7.37278E-20 2.52283E-19
 -1      2910 9.52495E-05-2.85646E-05-2.85792E-05-1.29826E-08 4.57875E-19 4.36794E-19
 -1      2911 9.52488E-05-2.85619E-05-2.85800E-05-5.87656E-09-5.80427E-19 1.18968E-18
 -1      2912 1.39823E-04-5.83811E-05-3.54283E-05 2.23228E-06-7.40571E-19-1.48088E-18
 -1      2913 1.31352E-04-6.02427E-05-3.03537E-05 1.27758E-05-1.07091E-18-4.66556E-19
 -1      2914 9.52496E-05-2.85741E-05-2.85752E-05 1.30473E-08-1.84207E-20-1.72637E-18
 -1      2915 9.52497E-05-2.85741E-05-2.85753E-05 9.44257E-09-1.93681E-19-4.03433E-19
 -1      2916 9.52483E-05-2.85614E-05-2.85800E-05 7.18627E-09 5.89163E-19 3.18243E-19
 -1      2917 9.52492E-05-2.85755E-05-2.85744E-05 2.01937E-08 1.03339E-18-1.26014E-18
 -1      2918 9.52497E-05-2.85756E-05-2.85747E-05 1.66320E-08 5.53730E-19-1.17053E-18
 -1      2919 9.52487E-05-2.85638E-05-2.85791E-05 1.38674E-08 4.56171E-19-1.55264E-18
 -1      2920 9.52473E-05-2.85767E-05-2.85732E-05 2.68915E-08 1.49887E-18-3.47771E-19
 -1      2921 9.52488E-05-2.85771E-05-2.85736E-05 2.37282E-08 1.65513E-18-5.15021E-19
 -1      2922 9.52483E-05-2.85670E-05-2.85776E-05 2.09066E-08 9.40621E-19-4.28148E-19
 -1      2923 1.33001E-04-2.76752E-05-4.58724E-05-1.11962E-05-3.18548E-18 2.01763E-18
 -1      2924 1.35801E-04-3.64931E-05-4.26812E-05-9.85287E-06-2.09704E-18 2.40134E-18
 -1      2925 9.52276E-05-2.07000E-05-3.19725E-05-5.63110E-06-2.46261E-18-2.07565E-18
 -1      2926 9.58119E-05-2.24786E-05-3.14450E-05-3.62724E-06-2.35661E-18-1.86203E-18
 -1      2927 2.91247E-05-1.25341E-05-6.65839E-06 2.51837E-06-9.76867E-19 2.87250E-18
 -1      2928 2.97508E-05-1.34797E-05-6.32000E-06-1.01663E-05-3.01147E-19 3.58083E-18
 -1      2929 7.86990E-05-4.22095E-05-1.56756E-05 3.85276E-05-1.15673E-18 1.15429E-18
 -1      2930 6.19656E-05-3.23257E-05-1.21159E-05 3.49494E-05-9.47724E-19 1.50867E-18
 -1      2931 3.11832E-05-1.29444E-05-7.24010E-06-2.97723E-06-1.38166E-19-5.68041E-18
 -1      2932 3.59740E-05-1.61983E-05-8.14013E-06-1.72852E-05-8.53492E-19-5.65331E-18
 -1      2933 1.22918E-04-9.48696E-06-4.91864E-05 4.56336E-06-5.31746E-18-8.41554E-19
 -1      2934 1.23854E-04-8.59364E-06-4.99081E-05-1.68843E-06-4.97018E-18 1.66892E-19
 -1      2935 3.94302E-05-1.93930E-05-8.20569E-06 2.60525E-05 1.32868E-18-5.50402E-18
 -1      2936 3.27222E-05-1.40522E-05-7.51473E-06 1.17858E-05 9.10534E-19-5.74161E-18
 -1      2937 9.73487E-05-2.68001E-05-3.02209E-05-5.23212E-06 1.24209E-18-3.21571E-19
 -1      2938 9.70982E-05-2.64963E-05-3.02357E-05-4.06084E-06 1.45199E-18-1.85458E-19
 -1      2939 9.64093E-05-2.59339E-05-3.02138E-05-5.95042E-06 1.27350E-18-6.56480E-19
 -1      2940 9.98375E-05-2.86225E-05-3.05051E-05-1.08049E-05 3.10875E-19-5.04313E-19
 -1      2941 9.89081E-05-2.80549E-05-3.03597E-05-1.01284E-05 3.97237E-19-5.63893E-19
 -1      2942 9.69785E-05-2.68949E-05-3.00471E-05-1.01943E-05 4.84373E-19-9.39151E-19
 -1      2943 9.77995E-05-2.78629E-05-2.99925E-05-1.19693E-05 2.83912E-19-8.60795E-19
 -1      2944 9.64151E-05-2.38776E-05-3.10696E-05-2.14716E-06-2.15134E-18-1.68774E-18
 -1      2945 9.65254E-05-2.48616E-05-3.07238E-05-4.17207E-07-1.92784E-18-1.57246E-18
 -1      2946 9.60025E-05-2.41993E-05-3.07728E-05 1.87745E-07-1.80922E-18-1.73674E-18
 -1      2947 9.51837E-05-2.18585E-05-3.14221E-05-2.59773E-06-2.13989E-18-2.08519E-18
 -1      2948 8.19823E-05-4.22009E-05-1.64885E-05-3.69384E-05-2.72670E-18-2.45512E-18
 -1      2949 9.91695E-05-5.18834E-05-2.04721E-05-3.57278E-05-2.47196E-18-9.71759E-19
 -1      2950 1.15826E-04-5.78619E-05-2.50104E-05 2.65643E-05-1.27277E-18 1.35414E-18
 -1      2951 9.77355E-05-5.08254E-05-1.95398E-05 3.47517E-05-1.43996E-18 1.06271E-18
 -1      2952 1.36733E-04-4.78577E-05-3.87375E-05-2.65000E-06-1.24908E-18 2.60272E-18
 -1      2953 1.35065E-04-5.49151E-05-3.42234E-05 6.44703E-06-1.79399E-20 2.57000E-18
 -1      2954 8.88798E-05-1.35557E-05-3.23039E-05 2.75856E-06 1.82786E-18-2.87571E-18
 -1      2955 8.80938E-05-1.28041E-05-3.22941E-05 2.19641E-06 1.45436E-18-3.17570E-18
 -1      2956 8.85290E-05-1.38960E-05-3.19625E-05 1.50141E-06 1.26265E-18-3.07015E-18
 -1      2957 9.01641E-05-1.55518E-05-3.19472E-05 2.05730E-06 1.68879E-18-2.59150E-18
 -1      2958 1.37924E-04-5.96652E-05-3.34011E-05-5.26267E-06-9.43648E-20 2.91157E-18
 -1      2959 1.40327E-04-5.41034E-05-3.76163E-05 4.57575E-06 1.28139E-18 3.61577E-18
 -1      2960 8.85836E-05-1.33250E-05-3.22802E-05-1.84980E-06-8.81846E-19-3.36100E-18
 -1      2961 8.93843E-05-1.41001E-05-3.22838E-05-2.53069E-06-1.24563E-18-3.33707E-18
 -1      2962 1.31146E-04-1.30729E-05-5.12663E-05-3.05459E-06 4.23898E-18 4.48716E-19
 -1      2963 1.33103E-04-1.65016E-05-5.05447E-05-9.52291E-06 3.48258E-18-7.08437E-19
 -1      2964 9.24061E-05-1.62562E-05-3.26463E-05-6.52745E-06-2.33761E-18-2.76418E-18
 -1      2965 1.25581E-04-1.20205E-05-4.93399E-05-7.02406E-06-4.58033E-18 6.27387E-19
 -1      2966 1.29144E-04-1.84545E-05-4.78763E-05-1.09203E-05-4.04501E-18 1.61339E-18
 -1      2967 1.16113E-04-5.76725E-05-2.46052E-05-2.69890E-05-2.09302E-18 4.89281E-19
 -1      2968 1.29366E-04-6.10759E-05-2.96288E-05-1.75171E-05-1.20215E-18 1.94135E-18
 -1      2969 9.52412E-05-2.85774E-05-2.85703E-05 3.34376E-08 1.57885E-18 1.07721E-18
 -1      2970 7.14967E-05-3.66326E-05-1.47939E-05 3.93326E-05 2.27990E-18-2.54449E-18
 -1      2971 5.31708E-05-2.70073E-05-1.06010E-05 3.39168E-05 1.90529E-18-4.18921E-18
 -1      2972 5.48248E-05-2.30363E-05-1.30098E-05 2.80460E-05 1.83076E-18-4.13850E-18
 -1      2973 9.70909E-05-2.61960E-05-3.03745E-05-2.77174E-06 1.68611E-18-2.42683E-19
 -1      2974 9.70258E-05-2.57414E-05-3.05175E-05-1.29702E-06 1.95344E-18-1.82758E-19
 -1      2975 9.62426E-05-2.42141E-05-3.08736E-05-4.07232E-07 2.02491E-18-7.91842E-19
 -1      2976 9.63436E-05-2.53186E-05-3.04497E-05-3.40336E-06 1.58401E-18-4.82950E-19
 -1      2977 1.36868E-04-2.41384E-05-4.89645E-05-1.42325E-05 2.68785E-18-2.11758E-18
 -1      2978 1.40470E-04-3.28754E-05-4.64299E-05-1.58642E-05 1.29596E-18-2.23236E-18
 -1      2979 4.81017E-05-2.20735E-05-1.04476E-05-2.66792E-05-1.99884E-18-5.01931E-18
 -1      2980 6.30521E-05-3.12108E-05-1.35069E-05-3.50633E-05-2.50764E-18-3.72366E-18
 -1      2981 4.62709E-05-2.26519E-05-9.83042E-06 2.82307E-05-1.52921E-18 1.90074E-18
 -1      2982 3.51842E-05-1.55825E-05-7.79784E-06 1.54736E-05-1.13428E-18 3.20687E-18
 -1      2983 1.37121E-04-4.80593E-05-3.82087E-05 2.85218E-06-2.00535E-19-1.27733E-18
 -1      2984 1.34841E-04-4.06301E-05-4.09756E-05 8.25746E-06-1.39628E-18-1.66093E-18
 -1      2985 1.03790E-04-5.30764E-05-2.14477E-05-3.48043E-05 2.02293E-18 1.99781E-19
 -1      2986 1.18912E-04-5.78838E-05-2.63162E-05-2.80818E-05 1.28728E-18-3.94135E-20
 -1      2987 1.23321E-04-5.74976E-05-2.81206E-05-1.99402E-05 1.17939E-18 3.09855E-19
 -1      2988 9.03371E-05-1.51244E-05-3.22595E-05-3.05251E-06-1.43825E-18-3.21293E-18
 -1      2989 9.13461E-05-1.61522E-05-3.22428E-05-3.74573E-06-1.76140E-18-3.05933E-18
 -1      2990 9.07625E-05-1.62336E-05-3.19200E-05-1.90869E-06-1.28155E-18-2.99001E-18
 -1      2991 8.74174E-05-1.28230E-05-3.19500E-05 4.13227E-07 3.27766E-19-3.34911E-18
 -1      2992 8.67163E-05-1.14807E-05-3.22663E-05 1.82467E-07 1.53275E-19-3.59268E-18
 -1      2993 8.69439E-05-1.16819E-05-3.22705E-05-3.69151E-07-1.41644E-19-3.62452E-18
 -1      2994 9.52452E-05-2.85776E-05-2.85718E-05-3.14028E-08-1.07041E-18-9.20127E-19
 -1      2995 7.65104E-05-3.55697E-05-1.70990E-05-3.30381E-05-2.54586E-18-2.78854E-18
 -1      2996 1.29331E-04-5.77408E-05-3.06044E-05 8.64949E-06-1.35853E-18-1.83208E-18
 -1      2997 1.25207E-04-5.94988E-05-2.80370E-05 1.83658E-05-1.47288E-18 9.05452E-19
 -1      2998 1.15777E-04-5.47817E-05-2.59536E-05 2.21110E-05-1.25181E-18 6.94620E-19
 -1      2999 3.82032E-05-1.58260E-05-9.00229E-06-1.71187E-05 2.06623E-19 3.61789E-18
 -1      3000 9.49837E-05-4.81299E-05-1.97783E-05-3.68699E-05 2.21637E-18 7.22413E-19
 -1      3001 1.04062E-04-5.04116E-05-2.28298E-05-3.03886E-05 1.83679E-18 1.17566E-19
 -1      3002 8.49088E-05-4.07810E-05-1.86722E-05-3.57368E-05 2.09138E-18 8.04734E-19
 -1      3003 9.52494E-05-2.85681E-05-2.85777E-05-2.04831E-08 1.83858E-18-3.03261E-19
 -1      3004 9.52498E-05-2.85781E-05-2.85736E-05-2.35997E-08 1.71845E-18-1.64188E-18
 -1      3005 9.52482E-05-2.85773E-05-2.85732E-05-2.69833E-08 1.90824E-18-2.16103E-18
 -1      3006 1.38908E-04-5.32324E-05-3.66978E-05-6.66663E-06-1.23842E-18-3.28649E-18
 -1      3007 1.28967E-04-2.19794E-05-4.63695E-05 1.31220E-05 4.13956E-18 1.48988E-18
 -1      3008 1.32313E-04-5.00686E-05-3.53852E-05-8.53090E-06-1.20504E-18-2.54203E-18
 -1      3009 1.21372E-04-1.83771E-05-4.48182E-05-5.98303E-06 2.41902E-18-7.67015E-19
 -1      3010 1.21415E-04-1.80388E-05-4.46619E-05 2.35222E-06 3.25949E-18-3.95670E-19
 -1      3011 1.25596E-04-2.63062E-05-4.30719E-05-1.57627E-05 9.78111E-19-1.28892E-18
 -1      3012 1.23380E-04-2.04512E-05-4.44660E-05-1.02675E-05 2.24739E-18-1.20035E-18
 -1      3013 1.30883E-04-5.22376E-05-3.37532E-05-4.11952E-06-1.00232E-18-2.65931E-18
 -1      3014 1.33167E-04-5.18205E-05-3.50092E-05-1.47856E-06 7.77808E-19-1.50084E-18
 -1      3015 1.26105E-04-1.65163E-05-4.77505E-05 5.27430E-06 4.22648E-18 4.82273E-19
 -1      3016 1.31981E-04-3.49686E-05-4.18233E-05 1.16622E-05-1.60767E-18-1.71196E-18
 -1      3017 1.25391E-04-2.84387E-05-4.20280E-05 1.36998E-05-2.25851E-18-1.42323E-18
 -1      3018 1.29420E-04-3.94784E-05-3.86600E-05 1.05730E-05-5.84294E-19-2.34618E-18
 -1      3019 5.96855E-05-2.65934E-05-1.35748E-05 2.90941E-05-1.69354E-18 1.61286E-18
 -1      3020 1.32717E-04-4.26679E-05-3.87545E-05-7.68784E-06-1.25485E-18 1.63499E-18
 -1      3021 1.26371E-04-2.38159E-05-4.43285E-05-1.19718E-05-3.18040E-18 1.64430E-18
 -1      3022 9.52443E-05-2.85784E-05-2.85710E-05 3.12706E-08 1.78520E-18-6.82661E-19
 -1      3023 1.10146E-04-5.35419E-05-2.39488E-05-2.75156E-05-2.10244E-18-2.69108E-19
 -1      3024 5.93331E-05-2.91299E-05-1.24226E-05-3.53947E-05 1.07806E-18 2.64835E-18
 -1      3025 1.28835E-04-5.91418E-05-3.02707E-05 1.86894E-05 9.70541E-19 2.16872E-18
 -1      3026 1.18142E-04-5.80184E-05-2.55965E-05 2.76200E-05 1.81800E-18 7.48777E-19
 -1      3027 1.21433E-04-1.91262E-05-4.42187E-05 1.13446E-05-3.82912E-18-1.39183E-18
 -1      3028 1.22649E-04-1.39794E-05-4.71740E-05 8.46066E-06-4.86652E-18-1.00813E-18
 -1      3029 1.16661E-04-1.15804E-05-4.53459E-05 5.81809E-06-4.68737E-18-4.69521E-19
 -1      3030 4.90605E-05-1.86932E-05-1.24143E-05-2.02839E-05-1.28860E-18-4.59526E-18
 -1      3031 1.20112E-04-1.22023E-05-4.66910E-05-4.65772E-06-4.27995E-18 4.24390E-19
 -1      3032 3.91055E-05-1.33484E-05-1.03803E-05 4.89193E-06 4.48451E-19-5.29279E-18
 -1      3033 9.17152E-05-4.53196E-05-1.94240E-05 3.32722E-05-1.25774E-18 1.29930E-18
 -1      3034 3.97040E-05-1.37586E-05-1.04122E-05 8.70163E-06-9.05319E-19 3.15784E-18
 -1      3035 9.52434E-05-2.85707E-05-2.85741E-05 3.05012E-08 4.02638E-19-5.84526E-19
 -1      3036 9.52461E-05-2.85755E-05-2.85732E-05 2.89786E-08 7.09831E-19-9.24363E-19
 -1      3037 9.52467E-05-2.85676E-05-2.85766E-05 2.60375E-08 3.25823E-19-6.60832E-19
 -1      3038 9.52433E-05-2.85660E-05-2.85758E-05 2.85789E-08 1.37490E-19-7.64423E-19
 -1      3039 1.37378E-04-3.74601E-05-4.29236E-05-1.67042E-05-3.61048E-20-2.99511E-18
 -1      3040 8.73521E-05-1.21054E-05-3.22732E-05-7.65745E-07-3.25258E-19-3.46665E-18
 -1      3041 8.78813E-05-1.25908E-05-3.22828E-05-1.37982E-06-6.98721E-19-3.31059E-18
 -1      3042 8.90833E-05-1.44903E-05-3.19508E-05-1.01293E-06-7.91756E-19-3.10469E-18
 -1      3043 8.79347E-05-1.33388E-05-3.19520E-05-2.33712E-07-2.80066E-19-3.35595E-18
 -1      3044 9.29137E-05-1.77523E-05-3.22095E-05-4.80077E-06-2.05733E-18-2.72348E-18
 -1      3045 1.30086E-04-5.63021E-05-3.16610E-05 1.01675E-05 5.83791E-19 1.92959E-18
 -1      3046 1.31601E-04-5.85954E-05-3.11644E-05-8.51048E-06-6.29875E-19 1.82414E-18
 -1      3047 8.54040E-05-4.38640E-05-1.73612E-05 3.89632E-05 2.45936E-18-1.48533E-18
 -1      3048 7.93000E-05-3.77472E-05-1.74389E-05 3.59850E-05 2.60066E-18-1.72668E-18
 -1      3049 1.09901E-04-5.59070E-05-2.30578E-05 3.39165E-05 1.82536E-18 2.48518E-19
 -1      3050 9.44658E-05-4.89407E-05-1.92185E-05 3.75631E-05 1.98396E-18-4.71374E-19
 -1      3051 9.98065E-05-4.90866E-05-2.15315E-05 3.35770E-05 2.50574E-18 1.09333E-19
 -1      3052 1.16819E-04-5.63663E-05-2.56648E-05 2.55787E-05 1.98571E-18 1.08427E-18
 -1      3053 9.52887E-05-2.26389E-05-3.11276E-05 4.91974E-07 1.91342E-18-1.19168E-18
 -1      3054 9.39871E-05-2.06692E-05-3.14259E-05 1.22843E-06 2.03371E-18-1.41567E-18
 -1      3055 9.53780E-05-2.34085E-05-3.08495E-05-1.19702E-06 1.69226E-18-1.03836E-18
 -1      3056 9.27654E-05-1.92817E-05-3.15028E-05 1.09655E-06 1.83228E-18-1.84325E-18
 -1      3057 9.61797E-05-2.60495E-05-3.00403E-05 4.17825E-06-8.79639E-19-1.56519E-18
 -1      3058 9.64681E-05-2.67223E-05-2.98923E-05 5.02761E-06-6.77576E-19-1.57906E-18
 -1      3059 9.67683E-05-2.73856E-05-2.97186E-05 5.81644E-06-5.54261E-19-1.43094E-18
 -1      3060 9.72127E-05-2.81044E-05-2.96162E-05 6.39190E-06-5.35379E-19-1.54251E-18
 -1      3061 9.58174E-05-2.63732E-05-2.97746E-05 5.57669E-06-6.13734E-19-1.65883E-18
 -1      3062 9.76996E-05-2.88736E-05-2.94759E-05 6.96988E-06-4.02901E-19-1.37144E-18
 -1      3063 9.83804E-05-2.97594E-05-2.94068E-05 7.25818E-06-2.66449E-19-1.47246E-18
 -1      3064 9.65856E-05-2.79565E-05-2.94329E-05 7.03477E-06-4.07647E-19-1.29527E-18
 -1      3065 9.91917E-05-3.07608E-05-2.92984E-05 7.58467E-06-1.30104E-19-1.45568E-18
 -1      3066 1.00177E-04-3.18990E-05-2.92630E-05 7.52727E-06-2.49924E-19-1.26402E-18
 -1      3067 9.78557E-05-2.99030E-05-2.91530E-05 8.06436E-06-1.70842E-19-1.32189E-18
 -1      3068 1.01451E-04-3.32155E-05-2.92024E-05 7.50070E-06-1.10531E-19-8.90472E-19
 -1      3069 1.02773E-04-3.46180E-05-2.92189E-05 6.99247E-06-6.22838E-20-5.94379E-19
 -1      3070 9.99045E-05-3.24545E-05-2.89509E-05 8.54121E-06 8.21142E-20-9.34401E-19
 -1      3071 1.04609E-04-3.62336E-05-2.92478E-05 6.42751E-06-2.76933E-19-2.28057E-19
 -1      3072 1.06199E-04-3.77551E-05-2.93584E-05 5.33319E-06-1.15773E-19-6.02874E-20
 -1      3073 1.02984E-04-3.57176E-05-2.88865E-05 8.19447E-06 1.76338E-19-3.38246E-19
 -1      3074 1.08555E-04-3.94408E-05-2.95563E-05 3.96885E-06-8.06749E-20 2.58747E-19
 -1      3075 1.10150E-04-4.06533E-05-2.98287E-05 2.19149E-06 4.96863E-20-1.33270E-19
 -1      3076 1.07182E-04-3.94593E-05-2.90877E-05 6.56544E-06-4.45230E-20 5.25278E-19
 -1      3077 1.12655E-04-4.18105E-05-3.03123E-05-1.88903E-07 1.12142E-19-7.99346E-20
 -1      3078 1.13725E-04-4.19174E-05-3.08281E-05-2.52119E-06-5.37411E-20-2.13313E-19
 -1      3079 1.12142E-04-4.28025E-05-2.97691E-05 3.08713E-06 4.94065E-20 6.90004E-19
 -1      3080 1.15468E-04-4.14771E-05-3.17178E-05-5.65197E-06 8.26056E-20 2.74675E-19
 -1      3081 1.15386E-04-3.96776E-05-3.25058E-05-7.80294E-06-1.74681E-19 5.24188E-19
 -1      3082 1.16597E-04-4.37918E-05-3.12071E-05-2.43313E-06 3.57408E-19 7.17197E-19
 -1      3083 1.15479E-04-3.68076E-05-3.38079E-05-1.07546E-05-9.99899E-19 7.07683E-19
 -1      3084 1.13815E-04-3.26162E-05-3.47967E-05-1.14885E-05-1.54744E-18 2.92593E-19
 -1      3085 1.18658E-04-4.05326E-05-3.35572E-05-8.62286E-06-5.58741E-19 1.11772E-18
 -1      3086 1.11935E-04-2.78518E-05-3.62410E-05-1.15926E-05-1.72040E-18-5.82914E-20
 -1      3087 1.09790E-04-2.32261E-05-3.71094E-05-9.83668E-06-1.95236E-18-6.99034E-20
 -1      3088 1.16463E-04-3.10310E-05-3.66746E-05-1.22531E-05-2.08205E-18 8.31998E-19
 -1      3089 1.07601E-04-1.92273E-05-3.80877E-05-5.94426E-06-1.98071E-18-5.71391E-19
 -1      3090 1.06405E-04-1.70407E-05-3.84203E-05-2.00953E-06-2.44099E-18-5.07128E-19
 -1      3091 1.11801E-04-2.00276E-05-3.94856E-05-9.05044E-06-2.26110E-18 8.92296E-20
 -1      3092 1.09291E-04-1.67256E-05-3.98623E-05 5.02216E-06-3.59004E-18-1.45955E-18
 -1      3093 1.10731E-04-1.96544E-05-3.92553E-05 9.03477E-06-2.95347E-18-2.19890E-18
 -1      3094 1.14210E-04-3.35127E-05-3.45568E-05 1.19438E-05-2.34033E-19-2.43490E-18
 -1      3095 1.15512E-04-3.73897E-05-3.35925E-05 1.09271E-05 9.39446E-20-2.24722E-18
 -1      3096 1.15237E-04-3.98793E-05-3.23373E-05 8.07494E-06 7.57367E-20-2.24222E-18
 -1      3097 1.15152E-04-4.14680E-05-3.15861E-05 5.86508E-06 2.63141E-19-2.22419E-18
 -1      3098 1.18276E-04-4.05838E-05-3.33448E-05 9.10209E-06 4.50569E-19-2.94319E-18
 -1      3099 1.13219E-04-4.16304E-05-3.07416E-05 2.80163E-06 4.29753E-20-1.72610E-18
 -1      3100 1.12061E-04-4.13357E-05-3.02582E-05 5.72324E-07 3.35931E-19-1.68008E-18
 -1      3101 1.15906E-04-4.35853E-05-3.10387E-05 2.63196E-06 4.86093E-19-2.07034E-18
 -1      3102 1.09505E-04-4.00731E-05-2.98011E-05-1.63730E-06 5.22528E-19-1.29831E-18
 -1      3103 1.07894E-04-3.88117E-05-2.95442E-05-3.29422E-06 6.09109E-19-1.45849E-18
 -1      3104 1.11228E-04-4.21228E-05-2.96733E-05-2.63546E-06 7.20799E-19-1.05547E-18
 -1      3105 1.05549E-04-3.71268E-05-2.93485E-05-4.52479E-06 2.01849E-20-1.34156E-18
 -1      3106 1.03976E-04-3.56402E-05-2.92349E-05-5.52672E-06-3.59692E-19-1.13964E-18
 -1      3107 1.06245E-04-3.86802E-05-2.90202E-05-5.81486E-06 4.88431E-19-1.08354E-18
 -1      3108 1.02167E-04-3.40935E-05-2.91830E-05-6.01856E-06-4.36421E-19-8.76750E-19
 -1      3109 1.00870E-04-3.27849E-05-2.91428E-05-6.49003E-06-1.75308E-19-4.64814E-19
 -1      3110 1.02095E-04-3.50344E-05-2.87942E-05-7.25066E-06-1.68982E-19-2.38033E-19
 -1      3111 9.96155E-05-3.15870E-05-2.91548E-05-6.51931E-06-1.55409E-19-8.18447E-19
 -1      3112 9.86437E-05-3.05924E-05-2.91423E-05-6.61868E-06 3.70055E-19-4.44037E-19
 -1      3113 9.90686E-05-3.20051E-05-2.87808E-05-7.55180E-06-7.30041E-20 8.16885E-19
 -1      3114 9.78458E-05-2.97664E-05-2.91724E-05-6.38687E-06 7.94239E-19-1.16549E-18
 -1      3115 9.71607E-05-2.90856E-05-2.91629E-05-6.24958E-06 7.44671E-19-9.68937E-19
 -1      3116 9.70573E-05-2.98043E-05-2.88487E-05-7.19988E-06 3.90179E-19-3.53386E-19
 -1      3117 9.66947E-05-2.85741E-05-2.91884E-05-5.88730E-06 8.62458E-19-6.44042E-19
 -1      3118 9.62304E-05-2.81515E-05-2.91715E-05-5.61451E-06 6.29012E-19-4.47594E-19
 -1      3119 9.58264E-05-2.83669E-05-2.89271E-05-6.51257E-06 1.22457E-18-9.34195E-19
 -1      3120 9.59870E-05-2.78757E-05-2.91840E-05-5.20179E-06 2.85283E-19-3.75267E-20
 -1      3121 9.56800E-05-2.76437E-05-2.91575E-05-4.86442E-06-1.52004E-19 4.66294E-19
 -1      3122 9.51400E-05-2.75307E-05-2.89845E-05-5.68268E-06 5.43943E-19 3.01331E-19
 -1      3123 9.55760E-05-2.75299E-05-2.91562E-05-4.44903E-06-5.57765E-19 1.14136E-18
 -1      3124 9.53757E-05-2.74279E-05-2.91221E-05-4.09451E-06 9.45777E-20 1.72842E-18
 -1      3125 9.48071E-05-2.71248E-05-2.90114E-05-4.82354E-06 6.18359E-20 1.34831E-18
 -1      3126 9.53530E-05-2.74171E-05-2.91094E-05-3.70403E-06-6.87539E-19 1.62428E-18
 -1      3127 9.52228E-05-2.73976E-05-2.90708E-05-3.36243E-06-6.28541E-19 1.23802E-18
 -1      3128 9.46890E-05-2.70042E-05-2.90100E-05-4.00048E-06-1.60335E-19 1.72123E-18
 -1      3129 9.52431E-05-2.74463E-05-2.90503E-05-3.01165E-06-1.24921E-19 1.51552E-18
 -1      3130 9.51583E-05-2.74749E-05-2.90104E-05-2.70046E-06 1.34981E-19 2.20796E-18
 -1      3131 9.46913E-05-2.70580E-05-2.89865E-05-3.24961E-06-2.38963E-19 1.55616E-18
 -1      3132 9.51978E-05-2.75533E-05-2.89856E-05-2.39591E-06 2.88237E-20 2.11408E-18
 -1      3133 9.51419E-05-2.76065E-05-2.89470E-05-2.12377E-06-5.49113E-19 1.64077E-18
 -1      3134 9.47537E-05-2.72072E-05-2.89486E-05-2.58856E-06-1.00734E-19 1.78296E-18
 -1      3135 9.51868E-05-2.76952E-05-2.89207E-05-1.86660E-06-7.76862E-19 1.95175E-18
 -1      3136 9.51494E-05-2.77578E-05-2.88851E-05-1.63615E-06-6.68388E-19 1.56262E-18
 -1      3137 9.48395E-05-2.73989E-05-2.89029E-05-2.02298E-06-2.80469E-19 2.27306E-18
 -1      3138 9.51920E-05-2.78452E-05-2.88592E-05-1.42411E-06-8.52142E-19 1.35671E-18
 -1      3139 9.51665E-05-2.79079E-05-2.88277E-05-1.23415E-06-2.54030E-19 9.39795E-19
 -1      3140 9.49276E-05-2.75994E-05-2.88547E-05-1.55075E-06-5.21898E-19 1.86465E-18
 -1      3141 9.52033E-05-2.79875E-05-2.88037E-05-1.06303E-06 4.77229E-19 3.67038E-19
 -1      3142 9.51856E-05-2.80453E-05-2.87765E-05-9.10084E-07 1.20013E-18 1.42499E-19
 -1      3143 9.50075E-05-2.77893E-05-2.88076E-05-1.16494E-06-4.38223E-19 1.75754E-18
 -1      3144 9.52155E-05-2.81141E-05-2.87552E-05-7.74710E-07 1.17865E-18-5.35484E-19
 -1      3145 9.52030E-05-2.81645E-05-2.87325E-05-6.54193E-07 1.22568E-18-1.00412E-18
 -1      3146 9.50745E-05-2.79580E-05-2.87641E-05-8.55979E-07 6.15162E-19 1.28001E-18
 -1      3147 9.52260E-05-2.82218E-05-2.87141E-05-5.49123E-07 1.50259E-18-1.89381E-18
 -1      3148 9.52171E-05-2.82640E-05-2.86955E-05-4.56078E-07 1.08587E-18-2.19380E-18
 -1      3149 9.51278E-05-2.81016E-05-2.87254E-05-6.13226E-07 1.08135E-18-1.12594E-18
 -1      3150 9.52340E-05-2.83102E-05-2.86800E-05-3.76059E-07 4.41880E-19-1.96944E-18
 -1      3151 9.52276E-05-2.83445E-05-2.86652E-05-3.05664E-07-1.27161E-19-2.01836E-18
 -1      3152 9.51681E-05-2.82197E-05-2.86922E-05-4.26005E-07 1.00061E-18-2.66198E-18
 -1      3153 9.52395E-05-2.83808E-05-2.86525E-05-2.45902E-07-7.84741E-20-7.63452E-19
 -1      3154 9.52348E-05-2.84080E-05-2.86408E-05-1.93752E-07-5.37993E-19-1.22999E-20
 -1      3155 9.51974E-05-2.83142E-05-2.86642E-05-2.84302E-07 5.27882E-19-9.36149E-19
 -1      3156 9.52428E-05-2.84359E-05-2.86306E-05-1.50055E-07-8.49029E-19 1.02936E-18
 -1      3157 9.52394E-05-2.84570E-05-2.86216E-05-1.12318E-07-3.05103E-19 1.16600E-18
 -1      3158 9.52176E-05-2.83881E-05-2.86413E-05-1.79156E-07 3.96301E-19 1.07821E-18
 -1      3159 9.52444E-05-2.84781E-05-2.86134E-05-8.11474E-08-9.35198E-20 3.24985E-19
 -1      3160 9.52420E-05-2.84943E-05-2.86065E-05-5.46175E-08 1.06558E-18 2.58332E-19
 -1      3161 9.52308E-05-2.84445E-05-2.86228E-05-1.02850E-07 1.34462E-19 2.06901E-18
 -1      3162 9.52447E-05-2.85100E-05-2.86001E-05-3.30890E-08 1.27025E-18 4.46770E-19
 -1      3163 9.52432E-05-2.85223E-05-2.85949E-05-1.51876E-08 1.17038E-18-7.02345E-20
 -1      3164 9.52387E-05-2.84871E-05-2.86079E-05-4.89549E-08 7.40247E-19 4.01658E-19
 -1      3165 9.52444E-05-2.85340E-05-2.85898E-05-1.04254E-09 4.60818E-19-3.20732E-19
 -1      3166 9.52435E-05-2.85436E-05-2.85858E-05 1.02139E-08-1.56475E-19-4.81886E-19
 -1      3167 9.52430E-05-2.85190E-05-2.85961E-05-1.23431E-08 8.66151E-19-1.27735E-18
 -1      3168 9.52438E-05-2.85518E-05-2.85820E-05 1.81113E-08-2.80809E-19-6.49711E-19
 -1      3169 9.52434E-05-2.85595E-05-2.85789E-05 2.43223E-08 6.71780E-19 8.61879E-21
 -1      3170 9.52452E-05-2.85598E-05-2.85796E-05 2.32815E-08-7.31046E-20-1.41002E-18
 -1      3171 9.52448E-05-2.85425E-05-2.85869E-05 1.03299E-08-1.93408E-19-2.49443E-19
 -1      3172 9.97427E-05-3.26146E-05-2.87154E-05-1.55807E-05-5.09513E-19-5.54644E-19
 -1      3173 9.76968E-05-3.03552E-05-2.88309E-05-1.53154E-05-1.36492E-19-9.23931E-19
 -1      3174 9.68934E-05-2.88414E-05-2.91296E-05-1.42268E-05 2.25789E-19-9.48431E-19
 -1      3175 9.57796E-05-2.75565E-05-2.92321E-05-1.35728E-05 1.87516E-19-8.47152E-19
 -1      3176 9.36906E-05-2.81461E-05-2.81323E-05-1.56147E-05 2.71125E-20-9.89874E-19
 -1      3177 1.14501E-04-4.75733E-05-2.86307E-05-1.42903E-05-1.29534E-18 8.17269E-19
 -1      3178 1.09441E-04-4.29441E-05-2.82927E-05-1.61667E-05-1.09124E-18 5.51671E-19
 -1      3179 1.35241E-04-4.83871E-05-3.74544E-05 1.01628E-05 1.51513E-18 3.10702E-18
 -1      3180 1.28594E-04-1.85028E-05-4.74921E-05-1.10311E-05 2.49282E-18-6.84932E-19
 -1      3181 1.28591E-04-5.47843E-05-3.17656E-05 3.83128E-06-1.11267E-18-2.92827E-18
 -1      3182 9.61209E-05-2.80763E-05-2.91524E-05 1.30242E-05-1.37758E-18 1.42761E-18
 -1      3183 9.74479E-05-2.95551E-05-2.90575E-05 1.36017E-05-9.18520E-19 1.02358E-18
 -1      3184 9.51195E-05-2.65041E-05-2.94119E-05 1.12214E-05-1.48016E-18 1.13826E-18
 -1      3185 9.58193E-05-2.72309E-05-2.93680E-05 1.19670E-05-1.18008E-18 1.38116E-18
 -1      3186 9.26403E-05-2.61961E-05-2.84916E-05 1.29288E-05-1.60612E-18 2.49486E-18
 -1      3187 9.48313E-05-2.59423E-05-2.95351E-05 9.46933E-06-7.11418E-19 6.10365E-19
 -1      3188 9.51997E-05-2.62204E-05-2.95432E-05 1.02565E-05-1.11787E-18 7.44077E-19
 -1      3189 9.25024E-05-2.50672E-05-2.89011E-05 1.08608E-05-1.02778E-18 7.92299E-19
 -1      3190 9.48507E-05-2.59295E-05-2.95501E-05 7.85137E-06-3.73254E-19-7.27211E-19
 -1      3191 9.50574E-05-2.59650E-05-2.95961E-05 8.60991E-06-3.37958E-19-2.96173E-19
 -1      3192 9.28432E-05-2.48345E-05-2.91403E-05 9.04460E-06-4.00111E-19-1.49343E-19
 -1      3193 9.49686E-05-2.61775E-05-2.94937E-05 6.40499E-06-9.81607E-20-3.89272E-19
 -1      3194 9.51018E-05-2.60964E-05-2.95614E-05 7.09727E-06-1.18949E-19-3.59730E-19
 -1      3195 9.33305E-05-2.50670E-05-2.92480E-05 7.45470E-06 5.08775E-20-5.45491E-19
 -1      3196 9.50921E-05-2.65227E-05-2.93971E-05 5.14426E-06 8.61671E-19-4.57297E-19
 -1      3197 9.51927E-05-2.63960E-05-2.94736E-05 5.75241E-06 7.22563E-19-3.94894E-19
 -1      3198 9.38052E-05-2.55018E-05-2.92659E-05 6.06990E-06 4.02064E-19-4.94567E-20
 -1      3199 9.51879E-05-2.68797E-05-2.92834E-05 4.06937E-06 7.33994E-19-3.61688E-19
 -1      3200 9.52723E-05-2.67442E-05-2.93598E-05 4.58828E-06 3.76762E-19-5.65619E-19
 -1      3201 9.42056E-05-2.59931E-05-2.92285E-05 4.87640E-06 5.76108E-19-1.05809E-18
 -1      3202 9.52502E-05-2.72083E-05-2.91677E-05 3.17088E-06 5.18908E-19-1.01494E-20
 -1      3203 9.53241E-05-2.70815E-05-2.92386E-05 3.60336E-06 1.15121E-18 6.43496E-19
 -1      3204 9.45180E-05-2.64666E-05-2.91611E-05 3.86244E-06 3.58514E-19-6.47271E-19
 -1      3205 9.52845E-05-2.74929E-05-2.90589E-05 2.43318E-06 6.53149E-20-3.55605E-19
 -1      3206 9.53490E-05-2.73819E-05-2.91217E-05 2.78658E-06 6.22679E-19 5.17173E-19
 -1      3207 9.47499E-05-2.68887E-05-2.90809E-05 3.01461E-06 8.52314E-19-1.09784E-19
 -1      3208 9.52988E-05-2.77307E-05-2.89619E-05 1.83740E-06-1.13206E-18-2.69692E-19
 -1      3209 9.53539E-05-2.76371E-05-2.90155E-05 2.12122E-06-1.33008E-18-1.18613E-18
 -1      3210 9.49162E-05-2.72484E-05-2.89991E-05 2.31706E-06-7.31714E-20 8.29442E-19
 -1      3211 9.53004E-05-2.79248E-05-2.88784E-05 1.36363E-06 1.42078E-18-6.21028E-19
 -1      3212 9.53463E-05-2.78477E-05-2.89230E-05 1.58800E-06 1.20502E-19-7.53983E-19
 -1      3213 9.50323E-05-2.75461E-05-2.89219E-05 1.75219E-06-6.67063E-19-1.52803E-18
 -1      3214 9.52949E-05-2.80804E-05-2.88086E-05 9.92487E-07 5.59055E-19 9.76216E-19
 -1      3215 9.53322E-05-2.80180E-05-2.88448E-05 1.16721E-06 1.16509E-18 7.45158E-19
 -1      3216 9.51116E-05-2.77875E-05-2.88529E-05 1.30179E-06 5.82460E-20-1.07200E-18
 -1      3217 9.52864E-05-2.82034E-05-2.87516E-05 7.06006E-07-7.94969E-19 3.09155E-18
 -1      3218 9.53157E-05-2.81537E-05-2.87805E-05 8.40075E-07-1.62348E-20 2.23059E-18
 -1      3219 9.51645E-05-2.79799E-05-2.87934E-05 9.48097E-07-2.13796E-19 1.91054E-18
 -1      3220 9.52770E-05-2.82995E-05-2.87060E-05 4.88183E-07-5.56828E-19 3.45447E-18
 -1      3221 9.52995E-05-2.82603E-05-2.87285E-05 5.89515E-07-5.52982E-19 3.19979E-18
 -1      3222 9.51990E-05-2.81314E-05-2.87434E-05 6.74529E-07-1.19605E-18 2.72242E-18
 -1      3223 9.52682E-05-2.83736E-05-2.86700E-05 3.25158E-07-1.05241E-18 3.52171E-18
 -1      3224 9.52850E-05-2.83431E-05-2.86874E-05 4.00536E-07-6.77588E-19 3.92709E-18
 -1      3225 9.52208E-05-2.82489E-05-2.87025E-05 4.66185E-07-6.54715E-19 3.58370E-18
 -1      3226 9.52606E-05-2.84302E-05-2.86423E-05 2.05222E-07-2.52444E-19 2.49707E-18
 -1      3227 9.52727E-05-2.84066E-05-2.86554E-05 2.60317E-07-7.18818E-19 2.91936E-18
 -1      3228 9.52340E-05-2.83391E-05-2.86695E-05 3.10068E-07-3.39359E-19 3.53405E-18
 -1      3229 9.52543E-05-2.84728E-05-2.86211E-05 1.18702E-07 1.15894E-18 4.86759E-19
 -1      3230 9.52628E-05-2.84548E-05-2.86309E-05 1.58153E-07 5.29209E-19 1.69939E-18
 -1      3231 9.52415E-05-2.84074E-05-2.86435E-05 1.95133E-07 8.35238E-19 5.82653E-19
 -1      3232 9.52495E-05-2.85047E-05-2.86052E-05 5.77788E-08 1.45061E-18 3.75499E-20
 -1      3233 9.52552E-05-2.84911E-05-2.86123E-05 8.53008E-08 1.39068E-18 1.71362E-19
 -1      3234 9.52452E-05-2.84585E-05-2.86231E-05 1.12217E-07 1.31366E-18-1.09394E-18
 -1      3235 9.52459E-05-2.85285E-05-2.85934E-05 1.62914E-08 5.54084E-19 1.06462E-18
 -1      3236 9.52495E-05-2.85181E-05-2.85985E-05 3.47780E-08 1.43187E-18 6.93262E-19
 -1      3237 9.52466E-05-2.84964E-05-2.86074E-05 5.38873E-08 8.85762E-19 3.65932E-19
 -1      3238 9.52436E-05-2.85464E-05-2.85846E-05-1.03608E-08-4.40422E-19 3.09709E-18
 -1      3239 9.52455E-05-2.85385E-05-2.85883E-05 1.11993E-09 1.25651E-19 2.33772E-18
 -1      3240 9.52465E-05-2.85244E-05-2.85953E-05 1.42915E-08-4.22987E-19 2.47477E-18
 -1      3241 1.35468E-04-2.07266E-05-4.98566E-05-1.25101E-05 2.85344E-18-1.34445E-18
 -1      3242 1.32495E-04-2.62132E-05-4.59180E-05-1.51698E-05 1.57580E-18-1.58967E-18
 -1      3243 9.52470E-05-2.85528E-05-2.85832E-05 1.26435E-08 9.61863E-19-8.36743E-19
 -1      3244 9.52468E-05-2.85513E-05-2.85839E-05 9.50858E-09 7.77858E-19-1.09028E-18
 -1      3245 8.81029E-05-1.43248E-05-3.16362E-05 8.47202E-07 9.21654E-19-3.06116E-18
 -1      3246 8.78310E-05-1.40552E-05-3.16320E-05 6.36004E-07 5.93800E-19-3.12955E-18
 -1      3247 6.28326E-05-2.55392E-05-1.59225E-05 2.94337E-05 2.11494E-18-2.86424E-18
 -1      3248 5.18044E-05-1.81301E-05-1.39772E-05 2.15522E-05 1.59708E-18-4.33331E-18
 -1      3249 9.52455E-05-2.85470E-05-2.85851E-05 2.24896E-09 8.98016E-20 1.33478E-18
 -1      3250 9.52456E-05-2.85472E-05-2.85851E-05-5.78620E-10 2.72667E-19 1.65207E-18
 -1      3251 7.16909E-05-2.96404E-05-1.76890E-05-2.94156E-05-2.35597E-18-2.93047E-18
 -1      3252 8.76126E-05-4.01044E-05-2.02987E-05-3.20650E-05-2.47297E-18-1.82726E-18
 -1      3253 9.52473E-05-2.85584E-05-2.85810E-05 1.90887E-08 8.34793E-20-8.04055E-19
 -1      3254 9.52478E-05-2.85566E-05-2.85820E-05 1.56634E-08 8.31422E-19-3.46288E-19
 -1      3255 9.52459E-05-2.85430E-05-2.85868E-05 1.08945E-08 8.33322E-20-6.72141E-19
 -1      3256 9.52460E-05-2.85487E-05-2.85846E-05 7.10370E-09 6.08223E-19 1.59092E-19
 -1      3257 9.52457E-05-2.85479E-05-2.85849E-05 4.26418E-09 7.18387E-19 6.40986E-19
 -1      3258 9.52431E-05-2.85330E-05-2.85898E-05 2.51213E-09 1.22574E-18 1.60685E-18
 -1      3259 9.52443E-05-2.85366E-05-2.85888E-05 6.09445E-09 2.38398E-20-4.23936E-19
 -1      3260 5.29647E-05-2.20540E-05-1.27052E-05-2.88413E-05 1.18399E-18 2.57096E-18
 -1      3261 6.70143E-05-2.96438E-05-1.57854E-05-3.31605E-05 1.84267E-18 8.80067E-19
 -1      3262 9.53433E-05-2.50066E-05-3.01382E-05-6.36571E-06 1.17401E-18-9.96879E-19
 -1      3263 9.52973E-05-2.47277E-05-3.02392E-05-5.14805E-06 1.36843E-18-8.69351E-19
 -1      3264 1.27201E-04-3.72020E-05-3.90708E-05-1.14377E-05-1.84336E-18 1.28654E-18
 -1      3265 1.29394E-04-4.54624E-05-3.58011E-05-6.78888E-06-9.40154E-19 1.39342E-18
 -1      3266 4.79392E-05-1.43468E-05-1.38852E-05-1.26058E-05-8.26585E-19-4.45751E-18
 -1      3267 5.73423E-05-2.00468E-05-1.58336E-05-2.17366E-05-1.61373E-18-3.67919E-18
 -1      3268 9.93851E-05-4.73715E-05-2.23880E-05 2.93716E-05-1.41084E-18 1.29474E-18
 -1      3269 8.44602E-05-3.86620E-05-1.90824E-05 3.20143E-05-1.13921E-18 8.14634E-19
 -1      3270 9.52458E-05-2.85704E-05-2.85752E-05-2.90140E-08 1.09841E-18 4.80755E-19
 -1      3271 1.19882E-04-2.03096E-05-4.31376E-05-1.15796E-05-3.24244E-18 1.50248E-18
 -1      3272 1.24039E-04-2.78123E-05-4.14106E-05-1.33722E-05-2.50722E-18 1.98322E-18
 -1      3273 4.23155E-05-1.19437E-05-1.26139E-05-7.95618E-06-4.63731E-19 2.44369E-18
 -1      3274 4.57035E-05-1.61407E-05-1.23040E-05-2.04069E-05 1.54266E-19 3.57617E-18
 -1      3275 5.55058E-05-1.80839E-05-1.56210E-05-1.99259E-05 9.62243E-19 1.91191E-18
 -1      3276 9.85511E-05-3.13215E-05-2.87690E-05 1.46908E-05-1.17711E-18 8.05420E-19
 -1      3277 1.00918E-04-3.39403E-05-2.86675E-05 1.48759E-05-7.21960E-19 3.68867E-19
 -1      3278 9.38673E-05-2.88752E-05-2.79016E-05 1.52464E-05-1.20996E-18 1.99222E-18
 -1      3279 4.72429E-05-1.47467E-05-1.36864E-05 1.47317E-05-1.25967E-18 2.47588E-18
 -1      3280 4.21162E-05-1.17105E-05-1.26639E-05 2.15128E-06-7.49293E-19 2.64804E-18
 -1      3281 5.00953E-05-1.28175E-05-1.54982E-05-1.75717E-06-4.22703E-19 2.67721E-18
 -1      3282 1.03551E-04-3.69817E-05-2.83976E-05 1.55849E-05-7.94742E-19-3.18144E-19
 -1      3283 1.07222E-04-4.08853E-05-2.84227E-05 1.49959E-05-9.54414E-19-1.10224E-18
 -1      3284 9.73762E-05-3.41860E-05-2.72121E-05 1.76331E-05-1.23503E-18 9.74200E-19
 -1      3285 9.31985E-05-1.88430E-05-3.18645E-05-3.34009E-06-1.82044E-18-2.67169E-18
 -1      3286 1.05272E-04-3.88760E-05-2.83916E-05-1.60038E-05-8.89663E-19-4.93827E-20
 -1      3287 1.01828E-04-3.53509E-05-2.84052E-05-1.65347E-05-6.83595E-19-3.51178E-19
 -1      3288 9.62980E-05-3.25202E-05-2.73953E-05-1.80276E-05-8.51248E-19-9.58153E-19
 -1      3289 1.02260E-04-3.98705E-05-2.67857E-05-2.00015E-05-1.28999E-18-2.10236E-19
 -1      3290 1.28741E-04-5.37300E-05-3.26165E-05 3.63032E-06 3.31335E-19 1.51607E-18
 -1      3291 1.24789E-04-5.58950E-05-2.93338E-05 1.31601E-05 1.21994E-18 1.55833E-18
 -1      3292 1.30026E-04-5.40306E-05-3.24334E-05-4.51919E-06 1.66203E-18-1.87655E-18
 -1      3293 1.30012E-04-4.84400E-05-3.52593E-05 3.95737E-06 6.96896E-19-3.01642E-18
 -1      3294 4.56102E-05-1.36260E-05-1.34069E-05 1.22034E-05 8.41739E-19-4.70982E-18
 -1      3295 4.35447E-05-1.23157E-05-1.31454E-05-2.03011E-06 1.16335E-20-4.79145E-18
 -1      3296 5.30725E-05-1.39914E-05-1.63368E-05-5.30840E-06-3.59241E-19-4.03140E-18
 -1      3297 9.52251E-05-2.53862E-05-2.99207E-05-8.56487E-06 8.53162E-19-1.04539E-18
 -1      3298 9.51036E-05-2.51515E-05-2.99792E-05-7.49773E-06 1.07015E-18-9.63368E-19
 -1      3299 9.39369E-05-2.39927E-05-2.99737E-05-6.75410E-06 1.12900E-18-1.18383E-18
 -1      3300 1.01994E-04-4.57467E-05-2.37176E-05-2.65411E-05-2.32826E-18-5.93492E-19
 -1      3301 1.14037E-04-5.14961E-05-2.69820E-05-2.00639E-05-1.69265E-18 7.99176E-19
 -1      3302 8.55737E-05-3.93950E-05-1.98323E-05 3.33736E-05 2.70201E-18-9.48068E-19
 -1      3303 7.50481E-05-3.24577E-05-1.77487E-05 3.25318E-05 2.50229E-18-1.72869E-18
 -1      3304 1.13222E-04-1.24782E-05-4.36800E-05-1.72961E-06-3.93584E-18-2.84378E-19
 -1      3305 1.14979E-04-1.50134E-05-4.31724E-05-7.95202E-06-3.43546E-18 4.22484E-19
 -1      3306 6.97463E-05-3.06496E-05-1.67335E-05 3.11745E-05-1.36510E-18 1.45679E-18
 -1      3307 5.65119E-05-2.10828E-05-1.47416E-05 2.37781E-05-1.99733E-18 2.18767E-18
 -1      3308 8.04003E-05-3.34434E-05-1.97968E-05 2.81859E-05-1.45859E-18 1.30835E-18
 -1      3309 1.17148E-04-5.47984E-05-2.65947E-05-2.12857E-05 1.88372E-18 4.28049E-20
 -1      3310 1.25527E-04-5.62117E-05-2.99546E-05-1.28901E-05 1.58213E-18-8.52221E-19
 -1      3311 1.25052E-04-5.36277E-05-3.06033E-05-7.26636E-06 2.11721E-18-2.35859E-18
 -1      3312 9.57012E-05-2.45643E-05-3.04746E-05 2.03462E-06-1.30988E-18-1.87421E-18
 -1      3313 9.59315E-05-2.53385E-05-3.02595E-05 3.18135E-06-1.04122E-18-1.82109E-18
 -1      3314 9.52844E-05-2.48550E-05-3.01908E-05 3.71990E-06-8.01294E-19-1.78721E-18
 -1      3315 1.23218E-04-5.30679E-05-2.98938E-05 8.95737E-06-1.56530E-18-2.24078E-18
 -1      3316 8.77598E-05-1.39985E-05-3.16302E-05 6.34481E-07 4.35091E-19-3.14782E-18
 -1      3317 8.78665E-05-1.40882E-05-3.16301E-05 3.91172E-07 9.97866E-20-3.17453E-18
 -1      3318 8.82585E-05-1.51363E-05-3.13130E-05 5.73871E-07 4.73399E-19-2.92671E-18
 -1      3319 1.18893E-04-5.04382E-05-2.93371E-05 1.11380E-05-1.56188E-18-1.99536E-18
 -1      3320 1.17673E-04-5.27577E-05-2.80163E-05 1.57695E-05-1.61527E-18-7.72593E-19
 -1      3321 1.11305E-04-5.11953E-05-2.53943E-05 2.28885E-05-1.29713E-18 9.04185E-19
 -1      3322 1.13818E-04-4.63106E-05-2.87302E-05 1.37882E-05-1.17496E-18-1.98952E-18
 -1      3323 1.38287E-04-4.92131E-05-3.84832E-05 9.48931E-06 1.77835E-18 3.13582E-18
 -1      3324 9.50762E-05-2.27280E-05-3.10057E-05-3.49879E-07-1.79268E-18-2.09605E-18
 -1      3325 9.53658E-05-2.36840E-05-3.07293E-05 9.65689E-07-1.59376E-18-2.02026E-18
 -1      3326 9.47173E-05-2.31251E-05-3.06827E-05 1.58868E-06-1.36998E-18-2.07460E-18
 -1      3327 7.73903E-05-3.44564E-05-1.79838E-05-3.37196E-05 2.05485E-18 5.79529E-19
 -1      3328 8.69916E-05-3.85637E-05-2.05754E-05-3.08666E-05 2.38477E-18 8.52539E-19
 -1      3329 6.98993E-05-2.77668E-05-1.79725E-05-2.91402E-05 1.69634E-18 5.12190E-19
 -1      3330 9.52490E-05-2.85576E-05-2.85821E-05-1.51012E-08 1.81102E-18 4.33902E-19
 -1      3331 9.52486E-05-2.85593E-05-2.85811E-05-1.86173E-08 1.14483E-18 3.19980E-19
 -1      3332 5.50531E-05-1.62666E-05-1.61753E-05 1.46249E-05 1.05649E-18-4.03188E-18
 -1      3333 1.10172E-04-2.43678E-05-3.67661E-05 1.07017E-05-1.66725E-18-2.59683E-18
 -1      3334 1.12273E-04-2.87786E-05-3.59935E-05 1.24722E-05-9.95661E-19-2.68175E-18
 -1      3335 9.37912E-05-2.03248E-05-3.14904E-05-1.84818E-06-1.74351E-18-2.46725E-18
 -1      3336 1.21929E-04-3.27173E-05-3.83557E-05-1.25078E-05-2.02158E-18 1.64756E-18
 -1      3337 9.52406E-05-2.58622E-05-2.97174E-05-1.05946E-05 2.91115E-19-1.10169E-18
 -1      3338 9.49624E-05-2.55135E-05-2.97669E-05-9.63594E-06 5.99278E-19-1.04799E-18
 -1      3339 9.34342E-05-2.43183E-05-2.96190E-05-8.97525E-06 7.10117E-19-1.22924E-18
 -1      3340 9.28935E-05-2.58475E-05-2.87491E-05-1.33060E-05 2.23645E-19-9.34272E-19
 -1      3341 9.56450E-05-2.68325E-05-2.94676E-05-1.24964E-05 1.08612E-19-9.81358E-19
 -1      3342 9.50722E-05-2.61599E-05-2.95360E-05-1.16534E-05 1.96371E-19-1.09673E-18
 -1      3343 1.22594E-04-5.39375E-05-2.92789E-05-1.24308E-05-1.40006E-18 1.31763E-18
 -1      3344 1.28333E-04-5.63045E-05-3.08205E-05-8.16293E-06-7.78198E-19 1.88317E-18
 -1      3345 1.25896E-04-4.81531E-05-3.34188E-05-2.15069E-06-1.96459E-19 9.12969E-19
 -1      3346 1.27136E-04-2.98436E-05-4.23442E-05-1.74961E-05 4.95938E-19-1.73920E-18
 -1      3347 1.06008E-04-4.31572E-05-2.70917E-05 1.82059E-05-1.68581E-18-2.53541E-19
 -1      3348 9.52482E-05-2.85538E-05-2.85833E-05-1.17250E-08 1.25675E-18-5.98024E-19
 -1      3349 9.52474E-05-2.85441E-05-2.85870E-05-1.00814E-08 1.34588E-18-5.35660E-19
 -1      3350 9.52477E-05-2.85521E-05-2.85840E-05-8.35270E-09-1.22338E-19-5.07163E-19
 -1      3351 1.15086E-04-2.11114E-05-4.04815E-05 1.19530E-05-2.97351E-18-2.42847E-18
 -1      3352 9.52435E-05-2.85515E-05-2.85821E-05-1.71178E-08-5.17151E-19 2.67245E-18
 -1      3353 9.52465E-05-2.85428E-05-2.85875E-05-8.39762E-09 5.51759E-19 2.85410E-18
 -1      3354 9.52439E-05-2.85562E-05-2.85804E-05-2.16665E-08-5.77220E-19 1.99995E-18
 -1      3355 1.21428E-04-5.32658E-05-2.90634E-05 1.17839E-05 1.11745E-18 9.20275E-19
 -1      3356 1.20300E-04-5.58138E-05-2.78086E-05 1.88503E-05 1.44438E-18 1.40745E-18
 -1      3357 1.13913E-04-5.35807E-05-2.56769E-05 2.36829E-05 1.67080E-18 1.12996E-18
 -1      3358 1.03920E-04-4.58163E-05-2.47946E-05 2.36369E-05-1.59467E-18 5.48732E-19
 -1      3359 1.16837E-04-3.22989E-05-3.62554E-05 1.29614E-05-5.08458E-19-3.09731E-18
 -1      3360 9.59557E-05-4.01686E-05-2.37944E-05-2.54947E-05-1.99206E-18-1.06943E-18
 -1      3361 9.52462E-05-2.85483E-05-2.85849E-05-2.69316E-09-2.14952E-19 1.72698E-18
 -1      3362 9.52467E-05-2.85493E-05-2.85846E-05-5.71247E-09-4.89519E-19 1.24638E-18
 -1      3363 9.52453E-05-2.85373E-05-2.85889E-05-4.65576E-09 3.39776E-19 2.97246E-19
 -1      3364 9.52435E-05-2.85332E-05-2.85899E-05-7.35725E-10 1.71663E-19 1.66552E-18
 -1      3365 1.20171E-04-2.52251E-05-4.10739E-05 1.34056E-05-2.28011E-18-2.01536E-18
 -1      3366 1.01962E-04-4.67910E-05-2.35358E-05-2.72365E-05 2.25274E-18-1.21205E-19
 -1      3367 1.10898E-04-5.23206E-05-2.50198E-05-2.53287E-05 2.19503E-18 3.29231E-19
 -1      3368 1.14674E-04-5.18346E-05-2.69495E-05-1.81024E-05 2.63574E-18-8.85275E-19
 -1      3369 9.10316E-05-1.72993E-05-3.16165E-05 1.22783E-06 1.71601E-18-2.34369E-18
 -1      3370 9.00364E-05-1.62718E-05-3.16339E-05 1.00790E-06 1.43916E-18-2.59187E-18
 -1      3371 6.45008E-05-1.97013E-05-1.90682E-05-1.87763E-05-1.04530E-18-3.03645E-18
 -1      3372 6.70931E-05-2.41347E-05-1.80300E-05-2.49307E-05-1.67570E-18-3.02645E-18
 -1      3373 7.70635E-05-2.84085E-05-2.07359E-05-2.47395E-05-1.76157E-18-2.33670E-18
 -1      3374 9.25905E-05-1.97145E-05-3.12133E-05-6.66843E-08 1.59689E-18-1.82360E-18
 -1      3375 9.52485E-05-2.85635E-05-2.85793E-05-2.29651E-08 1.63470E-18 9.20371E-19
 -1      3376 9.52447E-05-2.85643E-05-2.85773E-05-2.71587E-08 1.76693E-19 8.20586E-19
 -1      3377 9.52439E-05-2.85595E-05-2.85790E-05-2.47130E-08-9.93051E-20 1.42561E-18
 -1      3378 9.52480E-05-2.85524E-05-2.85837E-05-1.71869E-08 4.92302E-19 7.69978E-19
 -1      3379 5.77888E-05-1.82113E-05-1.64810E-05 1.76368E-05-1.63354E-18 1.99857E-18
 -1      3380 8.92098E-05-1.54223E-05-3.16404E-05 1.02894E-06 1.34161E-18-2.85003E-18
 -1      3381 8.85641E-05-1.47783E-05-3.16394E-05 8.22805E-07 1.03626E-18-2.96980E-18
 -1      3382 9.00664E-05-1.69271E-05-3.13172E-05 2.64573E-07 1.26947E-18-2.60570E-18
 -1      3383 1.19391E-04-2.95424E-05-3.86112E-05 1.32663E-05-1.38982E-18-2.85812E-18
 -1      3384 1.23327E-04-4.41373E-05-3.40210E-05 6.73252E-06 8.06772E-19-2.71398E-18
 -1      3385 1.25503E-04-4.10387E-05-3.62393E-05 1.03513E-05 2.13267E-19-2.87729E-18
 -1      3386 8.87792E-05-1.56377E-05-3.13187E-05 4.34160E-07 9.00219E-19-2.84435E-18
 -1      3387 7.10853E-05-2.76106E-05-1.83448E-05 2.77427E-05 2.18217E-18-2.19736E-18
 -1      3388 1.05149E-04-5.05163E-05-2.33964E-05 2.96970E-05 2.13675E-18 4.70103E-19
 -1      3389 9.65563E-05-4.52833E-05-2.16834E-05 3.15306E-05 2.48729E-18-2.96488E-19
 -1      3390 9.18893E-05-4.09429E-05-2.17112E-05 2.98968E-05 2.27050E-18-9.18395E-19
 -1      3391 1.10841E-04-5.06449E-05-2.56272E-05 2.26425E-05 1.58215E-18 5.82649E-19
 -1      3392 9.54437E-05-2.44392E-05-3.04278E-05-3.95539E-06 1.47195E-18-9.37791E-19
 -1      3393 9.54143E-05-2.39993E-05-3.05978E-05-2.56053E-06 1.55898E-18-9.59784E-19
 -1      3394 9.43970E-05-2.24871E-05-3.08181E-05-1.78102E-06 1.55318E-18-1.20844E-18
 -1      3395 9.43088E-05-2.34774E-05-3.03558E-05-4.39089E-06 1.37359E-18-1.23623E-18
 -1      3396 8.92541E-05-1.54837E-05-3.16339E-05-1.40095E-07-6.24099E-19-2.91790E-18
 -1      3397 8.99924E-05-1.62179E-05-3.16288E-05-5.17156E-07-9.21031E-19-2.86832E-18
 -1      3398 9.52461E-05-2.85587E-05-2.85804E-05 2.18386E-08-5.36985E-19-1.20538E-18
 -1      3399 9.52471E-05-2.85594E-05-2.85806E-05 2.04965E-08-1.19667E-19-1.50102E-18
 -1      3400 9.52465E-05-2.85477E-05-2.85850E-05 1.47669E-08-1.05010E-18-1.75041E-18
 -1      3401 9.52461E-05-2.85500E-05-2.85838E-05 1.67755E-08-3.66147E-19-8.12001E-19
 -1      3402 9.08751E-05-1.71526E-05-3.16114E-05-7.46091E-07-1.10920E-18-2.83394E-18
 -1      3403 9.18483E-05-1.81988E-05-3.15800E-05-1.16189E-06-1.33406E-18-2.83996E-18
 -1      3404 9.10441E-05-1.79629E-05-3.13024E-05 2.01124E-07-1.07547E-18-2.66647E-18
 -1      3405 9.47499E-05-2.51582E-05-2.98173E-05 5.17548E-06-3.78918E-19-2.01891E-18
 -1      3406 9.50568E-05-2.59381E-05-2.96186E-05 6.03022E-06-3.75078E-19-1.83622E-18
 -1      3407 6.07824E-05-1.86114E-05-1.80131E-05 1.83224E-05 1.42053E-18-3.33768E-18
 -1      3408 5.57252E-05-1.44906E-05-1.75613E-05 9.21551E-06 9.14673E-19-3.80672E-18
 -1      3409 1.12331E-04-1.44435E-05-4.22483E-05 2.16078E-06-3.80424E-18-1.08681E-18
 -1      3410 9.53036E-05-2.67122E-05-2.93851E-05 6.89087E-06-2.91586E-19-1.65199E-18
 -1      3411 9.57990E-05-2.76056E-05-2.92161E-05 7.56355E-06-2.03369E-19-1.40297E-18
 -1      3412 9.41255E-05-2.55324E-05-2.94078E-05 6.55502E-06-2.15309E-19-1.85459E-18
 -1      3413 9.62718E-05-2.85604E-05-2.90009E-05 8.33045E-06-1.42404E-19-1.27198E-18
 -1      3414 9.70964E-05-2.97202E-05-2.88611E-05 8.79745E-06 6.45350E-20-1.18920E-18
 -1      3415 9.48032E-05-2.73498E-05-2.89303E-05 8.27402E-06 1.06310E-20-1.44221E-18
 -1      3416 9.79919E-05-3.10153E-05-2.86733E-05 9.42975E-06 1.78212E-19-9.82815E-19
 -1      3417 9.92899E-05-3.25663E-05-2.85804E-05 9.61286E-06 2.12923E-19-8.70752E-19
 -1      3418 9.61108E-05-2.97162E-05-2.84910E-05 9.82890E-06 1.89539E-19-1.01288E-18
 -1      3419 1.00836E-04-3.43247E-05-2.84538E-05 9.98250E-06 3.14420E-19-7.16882E-19
 -1      3420 1.02712E-04-3.63070E-05-2.84521E-05 9.71991E-06 4.32526E-19-3.60527E-19
 -1      3421 9.84734E-05-3.29647E-05-2.81322E-05 1.10834E-05 3.09797E-19-1.04708E-18
 -1      3422 1.05156E-04-3.85539E-05-2.84615E-05 9.53493E-06 3.79373E-19-2.23073E-19
 -1      3423 1.07580E-04-4.07823E-05-2.86389E-05 8.54889E-06 3.24311E-19 1.08271E-19
 -1      3424 1.02379E-04-3.73469E-05-2.79592E-05 1.16919E-05 5.39988E-19-8.29444E-19
 -1      3425 1.10959E-04-4.31932E-05-2.89372E-05 7.30489E-06 1.91251E-19 3.50376E-19
 -1      3426 1.13540E-04-4.49990E-05-2.94308E-05 5.31360E-06 1.81419E-19 3.40977E-19
 -1      3427 1.08161E-04-4.25905E-05-2.82072E-05 1.07970E-05 4.09077E-19-3.99419E-19
 -1      3428 1.21680E-04-3.84376E-05-3.56463E-05-1.14769E-05-1.39455E-18 1.36208E-18
 -1      3429 1.19588E-04-3.25240E-05-3.74434E-05-1.20027E-05-2.12740E-18 1.17015E-18
 -1      3430 9.31257E-05-1.98316E-05-3.14127E-05-1.00086E-06-1.54202E-18-2.54965E-18
 -1      3431 1.18517E-04-4.63619E-05-3.09878E-05 6.71813E-07 1.19653E-18-2.13081E-18
 -1      3432 1.16444E-04-4.60184E-05-3.00562E-05-2.29798E-06 1.09816E-18-1.61062E-18
 -1      3433 1.12389E-04-4.41299E-05-2.92851E-05-4.97669E-06 7.76465E-19-7.50152E-19
 -1      3434 1.09714E-04-4.22173E-05-2.88183E-05-6.77592E-06 1.08797E-18-7.02265E-19
 -1      3435 1.14254E-04-4.65992E-05-2.91237E-05-6.95044E-06 1.40451E-18-9.65187E-19
 -1      3436 1.06382E-04-3.98233E-05-2.85362E-05-7.83091E-06 7.37738E-19-6.11326E-19
 -1      3437 1.03971E-04-3.76244E-05-2.83582E-05-8.69531E-06 3.11045E-19-3.92874E-19
 -1      3438 1.06666E-04-4.14947E-05-2.80618E-05-1.01155E-05 9.61829E-19-8.84752E-20
 -1      3439 1.01586E-04-3.54766E-05-2.83252E-05-8.79303E-06 1.23151E-19-4.32928E-19
 -1      3440 9.97424E-05-3.36058E-05-2.82983E-05-9.01334E-06 1.21392E-19-2.28117E-19
 -1      3441 1.01038E-04-3.63613E-05-2.78037E-05-1.07794E-05 1.56824E-19-4.20087E-19
 -1      3442 9.82254E-05-3.19867E-05-2.83725E-05-8.63808E-06-1.89112E-19 2.90467E-19
 -1      3443 9.69521E-05-3.06040E-05-2.84100E-05-8.48721E-06-1.91989E-21 3.30929E-19
 -1      3444 9.72255E-05-3.22712E-05-2.78940E-05-1.01317E-05-2.56405E-20 1.16221E-19
 -1      3445 9.60861E-05-2.95137E-05-2.85151E-05-7.92807E-06-1.79623E-19-8.04728E-20
 -1      3446 9.52784E-05-2.85924E-05-2.85685E-05-7.58733E-06 3.45025E-19-1.69502E-19
 -1      3447 9.49259E-05-2.94112E-05-2.81120E-05-8.96843E-06-4.49649E-19 1.10118E-19
 -1      3448 9.48544E-05-2.79331E-05-2.86669E-05-6.98869E-06 1.38960E-18-4.06348E-19
 -1      3449 9.43837E-05-2.73804E-05-2.87126E-05-6.56578E-06 1.65040E-18-3.29713E-19
 -1      3450 9.36970E-05-2.76036E-05-2.83449E-05-7.68186E-06 9.69392E-19 1.52622E-19
 -1      3451 9.42392E-05-2.70384E-05-2.87895E-05-5.99294E-06 1.19621E-18-3.49144E-19
 -1      3452 9.39939E-05-2.67532E-05-2.88189E-05-5.54959E-06 9.67790E-19 6.75475E-20
 -1      3453 9.31684E-05-2.65915E-05-2.85425E-05-6.44431E-06 1.46362E-18-3.25939E-19
 -1      3454 9.40137E-05-2.66279E-05-2.88711E-05-5.02949E-06 7.49948E-19 6.51456E-19
 -1      3455 9.39092E-05-2.65233E-05-2.88835E-05-4.60065E-06 4.80916E-19 1.11019E-18
 -1      3456 9.30679E-05-2.61367E-05-2.86886E-05-5.32230E-06 1.12608E-18 4.46014E-19
 -1      3457 9.40160E-05-2.65355E-05-2.89135E-05-4.14261E-06-4.41527E-19 1.21833E-18
 -1      3458 9.39935E-05-2.65443E-05-2.89117E-05-3.74768E-06-3.20645E-19 9.73014E-19
 -1      3459 9.32081E-05-2.60474E-05-2.87836E-05-4.33544E-06 1.48779E-19 5.87673E-19
 -1      3460 9.41378E-05-2.66361E-05-2.89239E-05-3.35299E-06-1.51480E-19 7.45644E-19
 -1      3461 9.41588E-05-2.67097E-05-2.89118E-05-3.00192E-06 2.30361E-19 1.08969E-18
 -1      3462 9.34661E-05-2.61801E-05-2.88356E-05-3.48426E-06-2.11886E-19 3.90081E-19
 -1      3463 9.43106E-05-2.68408E-05-2.89112E-05-2.66803E-06-1.92089E-19 1.17989E-18
 -1      3464 9.43510E-05-2.69459E-05-2.88927E-05-2.36466E-06-1.83726E-19 5.77221E-19
 -1      3465 9.37653E-05-2.64332E-05-2.88547E-05-2.76169E-06-2.04775E-20 2.56848E-19
 -1      3466 9.44935E-05-2.70898E-05-2.88836E-05-2.08700E-06 4.30049E-20 8.16883E-19
 -1      3467 9.45393E-05-2.72048E-05-2.88619E-05-1.83112E-06 1.00803E-19 1.07141E-18
 -1      3468 9.40605E-05-2.67378E-05-2.88505E-05-2.15738E-06-9.96327E-20-1.06801E-19
 -1      3469 9.46640E-05-2.73453E-05-2.88479E-05-1.60398E-06-8.81552E-20 1.36009E-18
 -1      3470 9.47075E-05-2.74571E-05-2.88253E-05-1.39278E-06-4.66395E-19 1.09754E-18
 -1      3471 9.43276E-05-2.70498E-05-2.88314E-05-1.65942E-06-3.88670E-20 2.81258E-19
 -1      3472 9.48115E-05-2.75848E-05-2.88089E-05-1.20994E-06-3.96285E-19 1.32184E-18
 -1      3473 9.48492E-05-2.76862E-05-2.87872E-05-1.03906E-06 2.93146E-19 1.70814E-18
 -1      3474 9.45557E-05-2.73430E-05-2.88038E-05-1.25518E-06-3.78664E-19 5.18555E-19
 -1      3475 9.49326E-05-2.77971E-05-2.87703E-05-8.94231E-07-3.70520E-19 1.13361E-18
 -1      3476 9.49632E-05-2.78847E-05-2.87504E-05-7.58551E-07-4.90308E-19-5.61998E-20
 -1      3477 9.47424E-05-2.76034E-05-2.87725E-05-9.31936E-07-3.88585E-19 5.29841E-19
 -1      3478 9.50280E-05-2.79774E-05-2.87343E-05-6.45657E-07-1.38073E-19-3.31038E-19
 -1      3479 9.50516E-05-2.80505E-05-2.87167E-05-5.39876E-07 2.31290E-19-1.53615E-18
 -1      3480 9.48899E-05-2.78256E-05-2.87408E-05-6.77390E-07-6.95720E-19-3.40352E-20
 -1      3481 9.51003E-05-2.81258E-05-2.87020E-05-4.53309E-07 1.46859E-18-1.57022E-18
 -1      3482 9.51177E-05-2.81850E-05-2.86869E-05-3.72328E-07 1.57378E-18-1.04962E-18
 -1      3483 9.50027E-05-2.80092E-05-2.87107E-05-4.80051E-07 2.97162E-19-1.07254E-18
 -1      3484 9.51532E-05-2.82446E-05-2.86740E-05-3.07077E-07 1.38714E-18-1.48021E-18
 -1      3485 9.51655E-05-2.82914E-05-2.86615E-05-2.46241E-07 1.71028E-18 1.79713E-19
 -1      3486 9.50864E-05-2.81568E-05-2.86836E-05-3.29526E-07 1.89193E-18-1.23940E-18
 -1      3487 9.51904E-05-2.83375E-05-2.86504E-05-1.97962E-07 1.36163E-18 2.78270E-19
 -1      3488 9.51986E-05-2.83737E-05-2.86401E-05-1.53184E-07 8.94043E-19 1.38393E-18
 -1      3489 9.51464E-05-2.82728E-05-2.86598E-05-2.16680E-07 1.48935E-18 1.17479E-19
 -1      3490 9.52153E-05-2.84086E-05-2.86308E-05-1.18205E-07 4.28924E-19 1.31447E-18
 -1      3491 9.52205E-05-2.84361E-05-2.86225E-05-8.60188E-08 2.06174E-19 1.28204E-18
 -1      3492 9.51878E-05-2.83620E-05-2.86394E-05-1.33688E-07 8.44115E-19 3.40639E-20
 -1      3493 9.52311E-05-2.84622E-05-2.86148E-05-6.13210E-08-6.28942E-20 9.66482E-19
 -1      3494 9.52340E-05-2.84828E-05-2.86081E-05-3.89268E-08 8.92359E-19 5.06498E-19
 -1      3495 9.52151E-05-2.84294E-05-2.86223E-05-7.39691E-08-7.49153E-20 1.13943E-18
 -1      3496 9.52403E-05-2.85023E-05-2.86017E-05-2.20079E-08 1.21963E-18-5.65874E-19
 -1      3497 9.52419E-05-2.85177E-05-2.85963E-05-7.36911E-09 6.41114E-19-7.35992E-19
 -1      3498 9.52319E-05-2.84795E-05-2.86081E-05-3.22538E-08 5.58511E-19 9.74077E-19
 -1      3499 9.01859E-05-2.67232E-05-2.71363E-05-1.59998E-05-5.34872E-20-1.23574E-18
 -1      3500 8.94375E-05-2.52406E-05-2.75317E-05-1.47329E-05 1.96427E-19-1.14035E-18
 -1      3501 9.09457E-05-2.37619E-05-2.88142E-05 8.09299E-06-1.21629E-19 3.29545E-20
 -1      3502 9.07101E-05-2.36814E-05-2.87134E-05 8.89939E-06-5.86340E-19 1.45363E-19
 -1      3503 8.99439E-05-2.35419E-05-2.84826E-05 9.81158E-06-6.79837E-19 6.66919E-20
 -1      3504 8.98488E-05-2.37603E-05-2.82995E-05 1.07404E-05-1.05995E-18 6.55492E-19
 -1      3505 8.81711E-05-2.24158E-05-2.81603E-05 8.78063E-06-5.29369E-19 2.82289E-19
 -1      3506 5.43804E-05-1.26872E-05-1.77086E-05 3.39942E-06-7.90202E-19 1.98613E-18
 -1      3507 5.45602E-05-1.30380E-05-1.76080E-05-6.39170E-06-3.24460E-19 2.43395E-18
 -1      3508 8.91103E-05-2.39756E-05-2.79410E-05 1.19141E-05-1.37070E-18 1.01624E-18
 -1      3509 8.93941E-05-2.47470E-05-2.76577E-05 1.29859E-05-1.40851E-18 1.46307E-18
 -1      3510 8.66303E-05-2.23514E-05-2.75253E-05 1.07893E-05-7.61316E-19 2.05155E-19
 -1      3511 9.18951E-05-2.42852E-05-2.89933E-05 6.64599E-06-2.24787E-19 2.89926E-19
 -1      3512 9.16371E-05-2.40650E-05-2.89516E-05 7.35114E-06 6.78822E-20 4.77072E-20
 -1      3513 8.96334E-05-2.29468E-05-2.85613E-05 7.21941E-06-4.99580E-20-2.75083E-19
 -1      3514 9.27083E-05-2.49149E-05-2.90688E-05 5.40819E-06 1.04606E-18-4.83191E-19
 -1      3515 9.24792E-05-2.46455E-05-2.90659E-05 6.02265E-06 6.36049E-19-9.94407E-20
 -1      3516 9.09010E-05-2.36736E-05-2.87961E-05 5.93139E-06 4.86915E-19-7.83816E-19
 -1      3517 9.33660E-05-2.55443E-05-2.90783E-05 4.34886E-06 7.11733E-19-8.74402E-19
 -1      3518 9.31818E-05-2.52740E-05-2.90985E-05 4.87826E-06 1.17254E-18-3.75608E-19
 -1      3519 9.19475E-05-2.44450E-05-2.89172E-05 4.83776E-06 9.88755E-19-1.21941E-19
 -1      3520 9.38783E-05-2.61204E-05-2.90487E-05 3.44997E-06-2.04152E-19-3.72951E-19
 -1      3521 9.37387E-05-2.58729E-05-2.90810E-05 3.89918E-06 5.60114E-20-9.69222E-19
 -1      3522 9.27829E-05-2.51788E-05-2.89637E-05 3.90179E-06 3.15763E-19-2.23134E-19
 -1      3523 9.42670E-05-2.66217E-05-2.89985E-05 2.69707E-06 9.85579E-19-5.04983E-19
 -1      3524 9.41655E-05-2.64064E-05-2.90355E-05 3.07198E-06 3.88552E-20-5.35176E-19
 -1      3525 9.34340E-05-2.58356E-05-2.89638E-05 3.10467E-06-7.48365E-20-3.25641E-19
 -1      3526 9.45564E-05-2.70438E-05-2.89400E-05 2.07584E-06-4.40988E-19 2.71139E-19
 -1      3527 9.44847E-05-2.68626E-05-2.89772E-05 2.38356E-06 8.57077E-19 7.68613E-19
 -1      3528 9.39322E-05-2.64008E-05-2.89370E-05 2.43373E-06 2.72264E-19-8.23506E-20
 -1      3529 9.47684E-05-2.73911E-05-2.88807E-05 1.57122E-06-3.73320E-19-5.57508E-19
 -1      3530 9.47191E-05-2.72420E-05-2.89154E-05 1.81970E-06-6.88160E-19 1.63956E-20
 -1      3531 9.43077E-05-2.68742E-05-2.88965E-05 1.87736E-06-3.79430E-19 9.37337E-19
 -1      3532 9.49217E-05-2.76718E-05-2.88251E-05 1.16772E-06-4.92586E-19 4.08108E-19
 -1      3533 9.48884E-05-2.75512E-05-2.88559E-05 1.36522E-06-4.56585E-19-7.07036E-19
 -1      3534 9.45870E-05-2.72627E-05-2.88508E-05 1.42339E-06-2.79300E-19 2.60656E-20
 -1      3535 9.50309E-05-2.78951E-05-2.87753E-05 8.50104E-07-8.07367E-19 1.38835E-18
 -1      3536 9.50090E-05-2.77991E-05-2.88017E-05 1.00465E-06-5.02118E-19 7.42638E-19
 -1      3537 9.47921E-05-2.75761E-05-2.88052E-05 1.05903E-06-1.15412E-18 2.76711E-19
 -1      3538 9.51076E-05-2.80705E-05-2.87323E-05 6.04010E-07-1.05806E-18 1.37577E-18
 -1      3539 9.50936E-05-2.79950E-05-2.87544E-05 7.23080E-07-9.94976E-19 1.61701E-18
 -1      3540 9.49407E-05-2.78251E-05-2.87627E-05 7.71349E-07-1.07161E-18 1.15017E-18
 -1      3541 9.51604E-05-2.82063E-05-2.86962E-05 4.16377E-07-8.53655E-19 2.42608E-18
 -1      3542 9.51517E-05-2.81478E-05-2.87143E-05 5.06658E-07-1.12887E-18 1.42856E-18
 -1      3543 9.50467E-05-2.80203E-05-2.87249E-05 5.47929E-07-1.28802E-18 9.39831E-19
 -1      3544 9.51959E-05-2.83101E-05-2.86665E-05 2.75714E-07 6.54321E-19 1.45136E-18
 -1      3545 9.51908E-05-2.82653E-05-2.86810E-05 3.43019E-07 6.59379E-19 2.81629E-18
 -1      3546 9.51208E-05-2.81713E-05-2.86923E-05 3.77297E-07-1.78291E-19 4.94743E-19
 -1      3547 9.52189E-05-2.83884E-05-2.86425E-05 1.72180E-07 1.69595E-18-3.10842E-21
 -1      3548 9.52162E-05-2.83546E-05-2.86540E-05 2.21427E-07 8.99851E-19 9.02825E-19
 -1      3549 9.51715E-05-2.82864E-05-2.86648E-05 2.49244E-07 1.34570E-18 5.18037E-19
 -1      3550 9.52331E-05-2.84468E-05-2.86233E-05 9.75875E-08 8.58887E-19-1.98338E-19
 -1      3551 9.52320E-05-2.84215E-05-2.86323E-05 1.32827E-07 1.09712E-18-6.27189E-20
 -1      3552 9.52049E-05-2.83730E-05-2.86421E-05 1.54952E-07 1.37820E-18 1.23423E-19
 -1      3553 9.52412E-05-2.84898E-05-2.86081E-05 4.52570E-08 1.65846E-20 1.20106E-18
 -1      3554 9.52410E-05-2.84710E-05-2.86151E-05 6.97589E-08 7.75171E-19 1.95991E-19
 -1      3555 9.52260E-05-2.84373E-05-2.86237E-05 8.70551E-08 3.84233E-19-5.05014E-19
 -1      3556 9.52453E-05-2.85214E-05-2.85961E-05 1.00703E-08-6.70119E-19 5.64451E-19
 -1      3557 9.52455E-05-2.85076E-05-2.86015E-05 2.61826E-08-5.17597E-19 8.56194E-19
 -1      3558 9.52382E-05-2.84847E-05-2.86087E-05 3.95070E-08 1.58411E-21 1.86442E-19
 -1      3559 9.70696E-05-3.90458E-05-2.46449E-05 2.30456E-05-1.90146E-18 1.16368E-18
 -1      3560 6.59418E-05-2.14414E-05-1.89685E-05 2.10541E-05-1.92212E-18 1.98545E-18
 -1      3561 5.75891E-05-1.55367E-05-1.79141E-05 1.22627E-05-1.54054E-18 1.84187E-18
 -1      3562 1.20916E-04-3.57518E-05-3.68797E-05 1.24409E-05-1.76977E-19-3.02810E-18
 -1      3563 9.52438E-05-2.85320E-05-2.85907E-05 6.40317E-09-6.89996E-19-1.24723E-18
 -1      3564 9.52427E-05-2.85283E-05-2.85921E-05 3.91713E-09-5.12783E-19-8.60583E-19
 -1      3565 1.34108E-04-5.58416E-05-3.37539E-05 1.95026E-06 5.73071E-21 2.61627E-18
 -1      3566 1.20244E-04-5.14542E-05-2.92517E-05-9.07433E-06 2.02021E-18-1.73163E-18
 -1      3567 1.22356E-04-4.99515E-05-3.12045E-05-2.40805E-06 1.39792E-18-2.30218E-18
 -1      3568 9.25279E-05-2.30521E-05-2.97764E-05-6.78738E-06 9.75722E-19-1.41582E-18
 -1      3569 9.27763E-05-2.28538E-05-2.99737E-05-5.65870E-06 1.17637E-18-1.36056E-18
 -1      3570 8.81744E-05-1.44104E-05-3.16322E-05 3.22509E-07-1.51277E-19-3.19985E-18
 -1      3571 8.86241E-05-1.48335E-05-3.16344E-05 1.56521E-08-4.15391E-19-3.09844E-18
 -1      3572 8.95024E-05-1.63806E-05-3.13177E-05 4.85534E-07-5.76199E-19-2.78947E-18
 -1      3573 1.13962E-04-1.96527E-05-4.06275E-05-9.10768E-06-2.56513E-18 6.62168E-19
 -1      3574 5.74226E-05-1.61538E-05-1.75745E-05-1.54914E-05 1.08324E-18 1.39125E-18
 -1      3575 6.37268E-05-2.13768E-05-1.78318E-05-2.33867E-05 1.76109E-18 2.63745E-19
 -1      3576 8.88811E-05-2.56144E-05-2.71388E-05 1.45860E-05-1.58815E-18 1.98920E-18
 -1      3577 8.99888E-05-2.73459E-05-2.67595E-05 1.58105E-05-7.79239E-19 1.84193E-18
 -1      3578 8.52671E-05-2.31736E-05-2.65759E-05 1.35251E-05-1.24126E-18 1.36522E-18
 -1      3579 9.05210E-05-1.82119E-05-3.10078E-05-5.35058E-07 1.25364E-18-2.42476E-18
 -1      3580 8.96920E-05-1.73627E-05-3.10121E-05-4.01303E-07 1.05416E-18-2.64796E-18
 -1      3581 9.00054E-05-2.90959E-05-2.60578E-05 1.80463E-05-1.20915E-18 1.45213E-18
 -1      3582 9.27120E-05-3.26727E-05-2.56534E-05 1.94930E-05-1.87121E-18 1.13342E-18
 -1      3583 8.46629E-05-2.56272E-05-2.52424E-05 1.73483E-05-1.31873E-18 1.54577E-18
 -1      3584 1.22782E-04-4.70688E-05-3.24424E-05 3.45218E-06 1.08294E-18-2.45121E-18
 -1      3585 9.32364E-05-2.12018E-05-3.08824E-05-1.34879E-06 1.50397E-18-1.59956E-18
 -1      3586 9.15097E-05-1.92308E-05-3.09820E-05-9.83727E-07 1.35182E-18-2.03823E-18
 -1      3587 9.11289E-05-1.94796E-05-3.06841E-05-1.72599E-06 1.19623E-18-2.07217E-18
 -1      3588 9.32744E-05-2.18233E-05-3.06158E-05-2.71244E-06 1.41066E-18-1.54105E-18
 -1      3589 9.43066E-05-2.35653E-05-3.03141E-05 3.17333E-06-8.40788E-19-2.15590E-18
 -1      3590 9.45613E-05-2.43914E-05-3.00741E-05 4.21972E-06-5.09290E-19-2.06624E-18
 -1      3591 9.37207E-05-2.39128E-05-2.99205E-05 4.69005E-06-3.86731E-19-2.24351E-18
 -1      3592 8.90377E-05-1.67383E-05-3.10017E-05-1.43206E-08 9.46671E-19-2.70978E-18
 -1      3593 8.85867E-05-1.62850E-05-3.09976E-05 1.31609E-07 7.44815E-19-2.71738E-18
 -1      3594 8.94831E-05-1.77980E-05-3.06951E-05-7.70945E-07 9.28491E-19-2.52409E-18
 -1      3595 5.60765E-05-1.31822E-05-1.81357E-05 4.13292E-07 7.56060E-20-3.50605E-18
 -1      3596 5.88477E-05-1.49996E-05-1.87393E-05-9.17327E-06-5.52216E-19-3.34099E-18
 -1      3597 7.75482E-05-2.99817E-05-2.04567E-05 2.68806E-05 2.15265E-18-1.30504E-18
 -1      3598 6.81188E-05-2.32018E-05-1.89503E-05 2.32503E-05 1.84945E-18-2.34824E-18
 -1      3599 8.54251E-05-3.23683E-05-2.24613E-05-2.58775E-05-1.80561E-18-1.92777E-18
 -1      3600 9.69414E-05-3.78064E-05-2.52903E-05-2.20043E-05-1.51103E-18-8.28448E-19
 -1      3601 9.29121E-05-3.32212E-05-2.55637E-05-2.08476E-05-1.23564E-18-1.19099E-18
 -1      3602 8.03073E-05-2.74290E-05-2.25625E-05-2.23059E-05-1.11643E-18-2.07142E-18
 -1      3603 1.20852E-04-4.27645E-05-3.36338E-05-7.06224E-06-4.90434E-19 1.03028E-18
 -1      3604 1.23719E-04-4.46545E-05-3.41131E-05-6.55291E-06-5.32360E-19 9.40749E-19
 -1      3605 1.20490E-04-4.51940E-05-3.22187E-05-4.12963E-06 4.18077E-19 7.89762E-19
 -1      3606 8.77163E-05-3.35951E-05-2.32510E-05 2.40509E-05-1.64904E-18 1.01633E-18
 -1      3607 6.43049E-05-1.70680E-05-1.99720E-05-1.31871E-05-7.58505E-19-3.23909E-18
 -1      3608 7.08516E-05-2.04115E-05-2.16876E-05-1.66055E-05-7.71402E-19-2.71350E-18
 -1      3609 6.60345E-05-1.60605E-05-2.14062E-05-8.25180E-06-1.75567E-19-2.85050E-18
 -1      3610 6.13759E-05-1.49431E-05-1.96929E-05 4.39962E-06 5.78616E-19-3.07846E-18
 -1      3611 8.85262E-05-1.54078E-05-3.13143E-05 6.13450E-07-4.86463E-20-2.90231E-18
 -1      3612 9.19757E-05-3.07359E-05-2.61686E-05-1.89748E-05-9.92822E-19-1.28874E-18
 -1      3613 9.01410E-05-2.80511E-05-2.66163E-05-1.75410E-05-4.18708E-19-1.17669E-18
 -1      3614 8.57247E-05-2.51919E-05-2.60188E-05-1.68013E-05-3.14133E-19-1.69234E-18
 -1      3615 8.63818E-05-2.86069E-05-2.48341E-05-2.04598E-05-9.52446E-19-1.67923E-18
 -1      3616 7.19308E-05-2.56860E-05-1.96472E-05-2.42357E-05 1.68176E-18 4.27487E-19
 -1      3617 1.14721E-04-4.94329E-05-2.79378E-05-1.29583E-05 2.16659E-18-1.19236E-18
 -1      3618 1.17512E-04-4.66746E-05-3.02625E-05 2.33766E-06 2.61197E-19 5.97291E-19
 -1      3619 1.19448E-04-4.65324E-05-3.12917E-05-8.11342E-07 4.22749E-19 7.01026E-19
 -1      3620 7.69767E-05-2.63517E-05-2.14122E-05 2.24358E-05-1.85098E-18 1.15435E-18
 -1      3621 9.31799E-05-2.05454E-05-3.11184E-05 2.18636E-07-1.33264E-18-2.42604E-18
 -1      3622 1.16255E-04-2.50962E-05-3.94039E-05-1.27099E-05-2.16250E-18 1.19577E-18
 -1      3623 9.52471E-05-2.85533E-05-2.85832E-05-1.81034E-08 3.73627E-19 1.95115E-18
 -1      3624 1.15700E-04-4.76457E-05-2.92875E-05 7.38076E-06 2.90724E-19 1.39694E-19
 -1      3625 7.55248E-05-2.32111E-05-2.24074E-05 1.85757E-05-1.58594E-18 1.45246E-18
 -1      3626 8.64346E-05-2.30961E-05-2.71269E-05-1.35468E-05 1.78142E-20-1.99794E-18
 -1      3627 9.00765E-05-2.45342E-05-2.80532E-05-1.32572E-05 1.80643E-19-1.36626E-18
 -1      3628 8.99537E-05-2.38331E-05-2.83586E-05-1.21518E-05 1.09717E-19-1.42393E-18
 -1      3629 9.52445E-05-2.85299E-05-2.85917E-05 1.64776E-09 7.78436E-20-6.09457E-19
 -1      3630 9.52451E-05-2.85408E-05-2.85876E-05 1.02996E-08 9.30684E-20-5.42628E-19
 -1      3631 9.52452E-05-2.85391E-05-2.85884E-05 9.31624E-09-3.92167E-19-1.47436E-18
 -1      3632 9.52410E-05-2.85146E-05-2.85970E-05-6.79187E-09 7.21744E-19-5.24804E-19
 -1      3633 6.16729E-05-1.57954E-05-1.94730E-05-1.02029E-05 4.51416E-19 8.65482E-19
 -1      3634 9.29860E-05-2.47838E-05-2.92316E-05-1.11209E-05 3.44497E-19-1.25169E-18
 -1      3635 9.52382E-05-2.85170E-05-2.85949E-05 1.63959E-09 1.81973E-18 2.00657E-18
 -1      3636 9.52379E-05-2.85162E-05-2.85952E-05 7.61823E-10 1.34631E-18 1.51208E-18
 -1      3637 8.83620E-05-1.60906E-05-3.09911E-05 4.94874E-07 6.40769E-19-2.65695E-18
 -1      3638 8.83125E-05-1.60233E-05-3.09892E-05 5.94149E-07 3.34111E-19-2.79368E-18
 -1      3639 8.86400E-05-1.69905E-05-3.06756E-05 1.22862E-07 5.98771E-19-2.52730E-18
 -1      3640 6.17715E-05-1.52466E-05-1.97598E-05 7.36927E-06-8.74983E-19 1.67382E-18
 -1      3641 9.52465E-05-2.85301E-05-2.85925E-05 8.80587E-10 3.15799E-19 8.42593E-19
 -1      3642 9.52441E-05-2.85152E-05-2.85983E-05 1.07259E-08-2.92250E-19-2.06060E-18
 -1      3643 9.52468E-05-2.85379E-05-2.85895E-05-6.90519E-09 2.26861E-19 1.04273E-18
 -1      3644 1.22039E-04-5.17849E-05-3.03327E-05 6.11813E-06 6.97370E-19 4.33542E-19
 -1      3645 1.19501E-04-5.13476E-05-2.90530E-05 1.02627E-05 7.35552E-19 5.84095E-19
 -1      3646 9.52380E-05-2.85098E-05-2.85976E-05-1.18361E-09-9.50997E-20-9.14713E-19
 -1      3647 9.52407E-05-2.85226E-05-2.85934E-05 3.04390E-09-6.23958E-21-1.25825E-18
 -1      3648 9.52395E-05-2.85202E-05-2.85942E-05 1.52896E-09 4.77315E-19-1.04462E-19
 -1      3649 9.52381E-05-2.85164E-05-2.85952E-05 1.23087E-09 1.78917E-18 1.64276E-18
 -1      3650 9.52389E-05-2.85175E-05-2.85950E-05 2.12579E-10 8.55427E-19 2.97405E-18
 -1      3651 9.52335E-05-2.84982E-05-2.86004E-05 1.45892E-09 2.24114E-18 1.55996E-18
 -1      3652 9.16663E-05-2.32694E-05-2.93063E-05-8.87477E-06 6.30079E-19-1.43230E-18
 -1      3653 9.19335E-05-2.31107E-05-2.95063E-05-7.82108E-06 8.77975E-19-1.33237E-18
 -1      3654 9.08336E-05-2.19857E-05-2.94896E-05-6.72864E-06 8.80039E-19-1.60475E-18
 -1      3655 9.51515E-05-4.21993E-05-2.25384E-05-2.84564E-05 2.27156E-18 3.75421E-19
 -1      3656 1.01631E-04-4.40951E-05-2.45257E-05-2.32333E-05 2.61750E-18-5.65312E-19
 -1      3657 8.69100E-05-3.59662E-05-2.18231E-05-2.73888E-05 2.00428E-18 2.67742E-19
 -1      3658 9.52443E-05-2.85294E-05-2.85923E-05-2.75981E-09 5.54572E-19-6.57434E-19
 -1      3659 9.52456E-05-2.85335E-05-2.85910E-05-5.46145E-09 1.07740E-19 3.41704E-19
 -1      3660 9.30274E-05-2.26096E-05-3.01784E-05-4.81061E-06 1.25476E-18-1.53333E-18
 -1      3661 9.31803E-05-2.22739E-05-3.03948E-05-3.60332E-06 1.31000E-18-1.50165E-18
 -1      3662 9.20103E-05-2.10093E-05-3.04322E-05-3.12947E-06 1.26386E-18-1.76826E-18
 -1      3663 9.16692E-05-2.16867E-05-2.99868E-05-4.86390E-06 1.11618E-18-1.71667E-18
 -1      3664 8.94230E-05-1.71092E-05-3.10062E-05 1.11622E-06-3.61495E-19-2.58880E-18
 -1      3665 9.01005E-05-1.77684E-05-3.10077E-05 1.04823E-06-7.06167E-19-2.44462E-18
 -1      3666 9.36454E-05-2.17147E-05-3.08318E-05 1.17433E-06-1.35759E-18-2.24171E-18
 -1      3667 9.39766E-05-2.26589E-05-3.05669E-05 2.27227E-06-1.14727E-18-2.18685E-18
 -1      3668 9.32149E-05-2.21765E-05-3.04453E-05 2.79579E-06-8.79623E-19-2.23422E-18
 -1      3669 9.24097E-05-2.00954E-05-3.09922E-05 9.38938E-07-1.16807E-18-2.45003E-18
 -1      3670 1.24014E-04-5.04832E-05-3.13840E-05 2.03268E-06 6.01976E-19 7.86391E-19
 -1      3671 9.07554E-05-1.84141E-05-3.10131E-05 1.09841E-06-8.69988E-19-2.54373E-18
 -1      3672 9.16455E-05-1.93343E-05-3.09989E-05 9.72074E-07-1.11154E-18-2.51607E-18
 -1      3673 9.21231E-05-2.04376E-05-3.07111E-05 1.87915E-06-1.08524E-18-2.32004E-18
 -1      3674 9.06916E-05-1.90010E-05-3.07079E-05 1.79271E-06-6.88791E-19-2.20623E-18
 -1      3675 8.62879E-05-3.47337E-05-2.17877E-05 2.71270E-05 2.09142E-18-1.23652E-18
 -1      3676 8.25218E-05-3.06323E-05-2.21654E-05 2.40064E-05 1.81384E-18-1.43886E-18
 -1      3677 6.83609E-05-2.10561E-05-2.00680E-05 1.84208E-05 1.54278E-18-2.44143E-18
 -1      3678 9.51584E-05-4.09938E-05-2.33322E-05 2.65824E-05 1.89530E-18-8.93461E-19
 -1      3679 9.52453E-05-2.85380E-05-2.85890E-05 8.38187E-09-4.37154E-19-2.29520E-18
 -1      3680 9.52443E-05-2.85208E-05-2.85955E-05 1.98859E-09-4.23012E-19-2.34271E-19
 -1      3681 9.52470E-05-2.85373E-05-2.85900E-05-6.65372E-09-5.82935E-20-8.57936E-19
 -1      3682 9.52420E-05-2.85216E-05-2.85944E-05 7.93010E-10-4.34955E-19-1.69350E-18
 -1      3683 6.36458E-05-1.49123E-05-2.09393E-05-5.63770E-06-1.79783E-19 2.76808E-19
 -1      3684 6.71589E-05-1.80297E-05-2.09636E-05-1.37600E-05 1.06159E-18-6.28234E-19
 -1      3685 9.28626E-05-2.41914E-05-2.94318E-05 5.97062E-06-3.14836E-20-2.09016E-18
 -1      3686 9.31094E-05-2.50111E-05-2.91739E-05 6.87958E-06 1.44258E-19-1.89672E-18
 -1      3687 9.31662E-05-2.58091E-05-2.88662E-05 7.87293E-06 1.57004E-19-1.76948E-18
 -1      3688 9.36409E-05-2.68092E-05-2.86203E-05 8.73405E-06 1.65102E-19-1.61748E-18
 -1      3689 9.18217E-05-2.44579E-05-2.88758E-05 7.30730E-06 2.39003E-19-1.99805E-18
 -1      3690 9.39271E-05-2.78617E-05-2.83069E-05 9.81203E-06 2.93332E-19-1.51348E-18
 -1      3691 9.48412E-05-2.92299E-05-2.80816E-05 1.06008E-05 3.08269E-19-1.37279E-18
 -1      3692 9.20987E-05-2.62806E-05-2.82226E-05 9.46054E-06 2.92262E-19-1.97552E-18
 -1      3693 9.55947E-05-3.07498E-05-2.77758E-05 1.17783E-05 4.06786E-19-1.25135E-18
 -1      3694 9.72048E-05-3.26835E-05-2.76042E-05 1.23944E-05 5.44375E-19-1.25620E-18
 -1      3695 9.30435E-05-2.87994E-05-2.75528E-05 1.18937E-05 4.13071E-19-1.61350E-18
 -1      3696 9.87339E-05-3.47933E-05-2.73544E-05 1.35232E-05 6.36049E-19-1.15565E-18
 -1      3697 1.01281E-04-3.74561E-05-2.73063E-05 1.38026E-05 6.87693E-19-1.07794E-18
 -1      3698 9.52969E-05-3.25619E-05-2.69211E-05 1.45274E-05 6.32439E-19-1.45346E-18
 -1      3699 1.04221E-04-4.04893E-05-2.72165E-05 1.44954E-05 6.43901E-19-6.13361E-19
 -1      3700 1.07790E-04-4.35855E-05-2.74717E-05 1.37776E-05 5.25607E-19-5.28767E-19
 -1      3701 9.95503E-05-3.78802E-05-2.65460E-05 1.66239E-05 8.14621E-19-8.82019E-19
 -1      3702 9.52392E-05-2.85085E-05-2.85989E-05-8.31960E-09-1.43775E-19-1.08811E-18
 -1      3703 1.06281E-04-4.23260E-05-2.73449E-05-1.30779E-05 1.28248E-18-2.52720E-19
 -1      3704 1.02652E-04-3.91756E-05-2.70843E-05-1.36522E-05 9.01681E-19-1.69957E-19
 -1      3705 9.97863E-05-3.63463E-05-2.71478E-05-1.28956E-05 3.16233E-19 2.13295E-19
 -1      3706 9.73472E-05-3.38417E-05-2.71657E-05-1.25635E-05 2.38091E-19 5.06632E-20
 -1      3707 9.79980E-05-3.67701E-05-2.63470E-05-1.58566E-05 1.03012E-18 7.56374E-20
 -1      3708 9.57913E-05-3.18542E-05-2.73616E-05-1.14692E-05 1.05799E-19 3.77437E-19
 -1      3709 9.42530E-05-3.00956E-05-2.74765E-05-1.08329E-05-1.43311E-19 5.41814E-19
 -1      3710 9.38071E-05-3.16608E-05-2.66985E-05-1.34455E-05 2.73303E-19 7.91959E-19
 -1      3711 9.35199E-05-2.88202E-05-2.76961E-05-9.75199E-06-2.21168E-19 7.62774E-19
 -1      3712 9.26486E-05-2.76974E-05-2.78327E-05-9.05001E-06 8.08776E-20 1.02996E-18
 -1      3713 9.16661E-05-2.83395E-05-2.71745E-05-1.09789E-05 2.62998E-19 1.34363E-18
 -1      3714 9.24143E-05-2.69588E-05-2.80289E-05-8.10414E-06 3.97732E-19 1.01458E-18
 -1      3715 9.19909E-05-2.63135E-05-2.81514E-05-7.43489E-06 1.02943E-18 7.51626E-19
 -1      3716 9.07915E-05-2.63609E-05-2.76304E-05-8.81287E-06 3.22540E-19 1.35132E-18
 -1      3717 9.20454E-05-2.59551E-05-2.83080E-05-6.64496E-06 1.20098E-18 7.16173E-20
 -1      3718 9.19030E-05-2.56449E-05-2.84033E-05-6.04404E-06 1.21825E-18-1.35596E-19
 -1      3719 9.06669E-05-2.53252E-05-2.80101E-05-7.01882E-06 6.26665E-19 2.03995E-19
 -1      3720 9.21108E-05-2.55403E-05-2.85189E-05-5.39578E-06 1.19711E-18-1.90707E-19
 -1      3721 9.21328E-05-2.54521E-05-2.85854E-05-4.87098E-06 1.19087E-18 2.02784E-19
 -1      3722 9.09599E-05-2.49257E-05-2.83008E-05-5.56685E-06 1.60935E-18-2.46066E-19
 -1      3723 9.24096E-05-2.55073E-05-2.86647E-05-4.34193E-06 4.34836E-19 1.53384E-19
 -1      3724 9.25183E-05-2.55569E-05-2.87056E-05-3.89083E-06 1.80278E-20-1.56231E-20
 -1      3725 9.14604E-05-2.49335E-05-2.85088E-05-4.39766E-06 1.01239E-18-9.96299E-19
 -1      3726 9.28128E-05-2.57041E-05-2.87554E-05-3.46022E-06-3.63851E-19 6.89108E-19
 -1      3727 9.29587E-05-2.58316E-05-2.87760E-05-3.07728E-06 2.02641E-19 1.34335E-18
 -1      3728 9.20390E-05-2.51853E-05-2.86475E-05-3.45580E-06-2.10148E-20 3.07340E-19
 -1      3729 9.32405E-05-2.60234E-05-2.88034E-05-2.72800E-06 7.38389E-20 7.70521E-19
 -1      3730 9.33937E-05-2.61875E-05-2.88091E-05-2.40684E-06-8.35852E-19 1.48791E-19
 -1      3731 9.26176E-05-2.55667E-05-2.87316E-05-2.69675E-06-4.22402E-19 8.88988E-19
 -1      3732 9.36467E-05-2.63925E-05-2.88203E-05-2.12502E-06-6.39308E-19 3.19240E-19
 -1      3733 9.37903E-05-2.65663E-05-2.88159E-05-1.85907E-06 2.46638E-19 5.82645E-19
 -1      3734 9.31522E-05-2.60000E-05-2.87752E-05-2.08597E-06-6.06923E-19 5.23508E-19
 -1      3735 9.40073E-05-2.67646E-05-2.88160E-05-1.63332E-06 1.33989E-19 6.63074E-19
 -1      3736 9.41330E-05-2.69315E-05-2.88053E-05-1.41603E-06-2.38811E-19 1.06587E-19
 -1      3737 9.36205E-05-2.64345E-05-2.87901E-05-1.59648E-06-2.67560E-20 5.74927E-19
 -1      3738 9.43126E-05-2.71119E-05-2.87985E-05-1.23682E-06-2.40850E-19 9.62309E-20
 -1      3739 9.44175E-05-2.72626E-05-2.87845E-05-1.06174E-06-5.12911E-19 5.27588E-19
 -1      3740 9.40150E-05-2.68398E-05-2.87861E-05-1.20665E-06-1.44112E-19 3.41686E-19
 -1      3741 9.45617E-05-2.74196E-05-2.87738E-05-9.20945E-07-1.13253E-18 5.87634E-19
 -1      3742 9.46458E-05-2.75499E-05-2.87585E-05-7.81905E-07-7.16313E-19-4.92648E-20
 -1      3743 9.43367E-05-2.71997E-05-2.87703E-05-8.98768E-07-5.87392E-19 1.71227E-19
 -1      3744 9.47586E-05-2.76820E-05-2.87460E-05-6.72578E-07-1.01900E-18-7.56371E-19
 -1      3745 9.48239E-05-2.77910E-05-2.87308E-05-5.63783E-07-6.95633E-19-8.32556E-19
 -1      3746 9.45917E-05-2.75075E-05-2.87482E-05-6.58003E-07-1.33380E-18-7.13819E-19
 -1      3747 9.49097E-05-2.78990E-05-2.87180E-05-4.79973E-07 3.47746E-19-1.26901E-18
 -1      3748 9.49589E-05-2.79876E-05-2.87039E-05-3.96146E-07 5.72460E-19-9.28933E-19
 -1      3749 9.47886E-05-2.77630E-05-2.87236E-05-4.71842E-07-9.03822E-19-1.41893E-18
 -1      3750 9.50224E-05-2.80737E-05-2.86916E-05-3.32793E-07 1.06459E-18-4.29244E-19
 -1      3751 9.50583E-05-2.81441E-05-2.86789E-05-2.69247E-07 1.69928E-18-1.49074E-18
 -1      3752 9.49366E-05-2.79697E-05-2.86989E-05-3.29707E-07 1.41208E-18-5.35712E-19
 -1      3753 9.51040E-05-2.82113E-05-2.86677E-05-2.22100E-07 1.98916E-18-3.85852E-19
 -1      3754 9.51292E-05-2.82660E-05-2.86567E-05-1.74774E-07 1.35774E-18-3.16543E-20
 -1      3755 9.50449E-05-2.81332E-05-2.86756E-05-2.22700E-07 1.93635E-18 2.80699E-19
 -1      3756 9.51610E-05-2.83174E-05-2.86468E-05-1.40312E-07 6.35254E-19-1.48816E-19
 -1      3757 9.51780E-05-2.83590E-05-2.86375E-05-1.05756E-07 4.51926E-19-2.12889E-19
 -1      3758 9.51218E-05-2.82598E-05-2.86545E-05-1.43430E-07 1.24480E-18-9.56965E-20
 -1      3759 9.51992E-05-2.83975E-05-2.86289E-05-8.11546E-08 4.23741E-19 5.34303E-19
 -1      3760 9.52099E-05-2.84289E-05-2.86210E-05-5.63504E-08 6.51474E-19 1.43229E-18
 -1      3761 9.51743E-05-2.83562E-05-2.86359E-05-8.58511E-08 4.62152E-19-7.23302E-20
 -1      3762 9.52235E-05-2.84575E-05-2.86137E-05-3.94717E-08 3.38562E-19-1.41575E-19
 -1      3763 9.52300E-05-2.84808E-05-2.86071E-05-2.21338E-08-2.05222E-19-3.88263E-19
 -1      3764 9.52084E-05-2.84286E-05-2.86199E-05-4.49323E-08-3.95671E-19-2.28418E-19
 -1      3765 9.52470E-05-2.85421E-05-2.85878E-05-1.01397E-08-1.09769E-19 6.72999E-19
 -1      3766 8.85116E-05-2.23413E-05-2.83823E-05 5.96340E-06 3.92570E-19-1.24946E-18
 -1      3767 8.78077E-05-2.19682E-05-2.82166E-05 6.59700E-06-1.13182E-19-1.15107E-18
 -1      3768 6.50134E-05-1.61139E-05-2.08511E-05 9.13261E-06 9.52666E-19-2.78470E-18
 -1      3769 6.47291E-05-1.50635E-05-2.13010E-05 1.13195E-06 2.39757E-19-2.65754E-18
 -1      3770 9.52346E-05-2.85012E-05-2.85997E-05-6.58436E-10 9.00226E-19-2.01108E-19
 -1      3771 9.12994E-05-2.41324E-05-2.87999E-05 4.04445E-06 3.44142E-19 5.13706E-19
 -1      3772 9.08216E-05-2.37315E-05-2.87538E-05 4.50994E-06 1.50648E-19-3.64353E-19
 -1      3773 9.22824E-05-2.49423E-05-2.88713E-05 3.27784E-06-2.05325E-19 1.26953E-18
 -1      3774 9.19065E-05-2.45761E-05-2.88562E-05 3.68051E-06 5.20377E-19 1.39577E-18
 -1      3775 9.09097E-05-2.38837E-05-2.87104E-05 3.37586E-06-3.54125E-19 1.46223E-18
 -1      3776 9.30484E-05-2.56538E-05-2.88924E-05 2.61820E-06 4.01113E-19 5.96335E-19
 -1      3777 9.27588E-05-2.53331E-05-2.88964E-05 2.96290E-06 1.02052E-19 1.10252E-18
 -1      3778 9.19780E-05-2.47488E-05-2.88011E-05 2.75605E-06 3.52240E-19 1.77927E-18
 -1      3779 9.36379E-05-2.62609E-05-2.88831E-05 2.05811E-06-4.61241E-19 1.02935E-18
 -1      3780 9.34184E-05-2.59882E-05-2.88978E-05 2.34871E-06 1.38540E-19 7.16931E-20
 -1      3781 9.28127E-05-2.55025E-05-2.88386E-05 2.21445E-06 4.64088E-19 1.74432E-18
 -1      3782 9.40863E-05-2.67675E-05-2.88566E-05 1.59042E-06-4.06736E-19 1.52696E-18
 -1      3783 9.39221E-05-2.65406E-05-2.88766E-05 1.83124E-06-3.79591E-19 1.48041E-18
 -1      3784 9.34579E-05-2.61432E-05-2.88428E-05 1.74877E-06-4.30822E-19 2.57384E-18
 -1      3785 9.44233E-05-2.71824E-05-2.88221E-05 1.20677E-06-2.28058E-19 3.55493E-19
 -1      3786 9.43021E-05-2.69971E-05-2.88437E-05 1.40286E-06-2.50992E-19 4.03547E-19
 -1      3787 9.39514E-05-2.66770E-05-2.88272E-05 1.35603E-06 2.67207E-19 1.53739E-18
 -1      3788 9.46737E-05-2.75169E-05-2.87850E-05 8.97629E-07-1.06118E-18-1.40586E-19
 -1      3789 9.45853E-05-2.73679E-05-2.88062E-05 1.05457E-06-6.48596E-19-8.53139E-20
 -1      3790 9.43244E-05-2.71141E-05-2.88010E-05 1.03139E-06-1.95095E-19 3.73490E-19
 -1      3791 9.48571E-05-2.77826E-05-2.87489E-05 6.52901E-07-1.03881E-18-4.39482E-19
 -1      3792 9.47936E-05-2.76645E-05-2.87684E-05 7.76374E-07-6.17895E-19-3.69781E-19
 -1      3793 9.46030E-05-2.74664E-05-2.87703E-05 7.68299E-07-8.02587E-19-9.36058E-19
 -1      3794 9.49893E-05-2.79907E-05-2.87158E-05 4.62532E-07-9.57863E-19-7.61629E-19
 -1      3795 9.49446E-05-2.78983E-05-2.87330E-05 5.58039E-07-1.00055E-18 1.67181E-19
 -1      3796 9.48080E-05-2.77461E-05-2.87390E-05 5.59129E-07-7.88173E-19-9.60747E-19
 -1      3797 9.50829E-05-2.81513E-05-2.86865E-05 3.17048E-07 1.92580E-19-4.46543E-19
 -1      3798 9.50520E-05-2.80801E-05-2.87013E-05 3.89654E-07-8.93782E-19-8.72827E-19
 -1      3799 9.49564E-05-2.79651E-05-2.87094E-05 3.95919E-07-5.18937E-19-1.35100E-18
 -1      3800 9.51475E-05-2.82736E-05-2.86614E-05 2.07911E-07 1.05419E-18-5.47155E-20
 -1      3801 9.51267E-05-2.82195E-05-2.86738E-05 2.62104E-07 1.09953E-18 7.80383E-20
 -1      3802 9.50618E-05-2.81340E-05-2.86825E-05 2.70936E-07-6.45757E-20-5.64712E-19
 -1      3803 9.51906E-05-2.83654E-05-2.86402E-05 1.27640E-07 1.09723E-18-6.08171E-19
 -1      3804 9.51772E-05-2.83248E-05-2.86504E-05 1.67288E-07 1.32064E-18-4.93452E-19
 -1      3805 9.51346E-05-2.82624E-05-2.86590E-05 1.77086E-07 1.44893E-18-1.01918E-18
 -1      3806 9.52182E-05-2.84334E-05-2.86226E-05 7.00336E-08 2.90063E-19-3.22706E-19
 -1      3807 9.52101E-05-2.84033E-05-2.86310E-05 9.83206E-08 5.45830E-19 1.89933E-19
 -1      3808 9.51833E-05-2.83587E-05-2.86388E-05 1.07998E-07 3.50942E-19 3.29917E-19
 -1      3809 9.52346E-05-2.84831E-05-2.86081E-05 2.99733E-08 3.38833E-19-4.16658E-19
 -1      3810 9.52302E-05-2.84612E-05-2.86149E-05 4.93397E-08 4.22754E-19 1.74429E-20
 -1      3811 9.52144E-05-2.84299E-05-2.86218E-05 5.85784E-08 4.83651E-19 1.68190E-18
 -1      3812 1.21233E-04-4.83826E-05-3.12158E-05 7.90588E-07 4.44308E-19 7.53032E-19
 -1      3813 9.26669E-05-2.26364E-05-3.00150E-05 4.05397E-06-3.96984E-19-2.07096E-18
 -1      3814 9.28494E-05-2.34538E-05-2.97385E-05 5.01919E-06-2.65236E-19-2.12151E-18
 -1      3815 9.17880E-05-2.29181E-05-2.95125E-05 5.34168E-06-9.03178E-20-2.10662E-18
 -1      3816 8.63300E-05-3.12670E-05-2.36871E-05 2.14961E-05 1.49291E-18-1.24703E-18
 -1      3817 7.95801E-05-2.66022E-05-2.25446E-05 2.06524E-05 1.61032E-18-1.73735E-18
 -1      3818 8.43930E-05-2.09117E-05-2.72517E-05 8.79794E-06-4.16866E-19-8.70485E-19
 -1      3819 8.35467E-05-2.09275E-05-2.68378E-05 9.86688E-06-8.82539E-19-7.55394E-19
 -1      3820 7.79296E-05-2.24286E-05-2.37448E-05 1.56419E-05-1.27635E-18 1.23246E-18
 -1      3821 6.90504E-05-1.77490E-05-2.17465E-05 1.36262E-05-8.94480E-19 1.61241E-18
 -1      3822 7.81100E-05-2.09782E-05-2.45858E-05 1.34797E-05-7.06677E-19 1.22251E-18
 -1      3823 1.11053E-04-4.61999E-05-2.76177E-05 1.37586E-05 6.17136E-19-1.73036E-19
 -1      3824 1.15324E-04-4.89935E-05-2.84062E-05 1.16876E-05 7.43232E-19 1.65310E-19
 -1      3825 1.13203E-04-5.05626E-05-2.70630E-05 1.78719E-05 1.04582E-18 6.09096E-19
 -1      3826 1.05704E-04-4.43339E-05-2.64368E-05 1.83204E-05 9.85298E-19-3.34638E-19
 -1      3827 8.15271E-05-2.06054E-05-2.61769E-05 1.06616E-05-8.22069E-19 3.60786E-19
 -1      3828 8.07462E-05-2.10814E-05-2.55687E-05 1.21744E-05-2.66940E-19 1.38028E-18
 -1      3829 7.52197E-05-1.81384E-05-2.42744E-05 1.01391E-05-1.63821E-19 2.32704E-19
 -1      3830 7.98319E-05-1.90709E-05-2.59451E-05 8.47337E-06-1.24649E-19-1.25644E-18
 -1      3831 9.07456E-05-2.36061E-05-2.87556E-05-1.09644E-05 2.01005E-19-1.47968E-18
 -1      3832 9.09227E-05-2.33115E-05-2.89936E-05-9.92124E-06 3.84689E-19-1.47985E-18
 -1      3833 8.79459E-05-2.23084E-05-2.81127E-05-1.08967E-05 1.88750E-19-1.88044E-18
 -1      3834 9.52411E-05-2.85089E-05-2.85996E-05 9.60315E-09 2.90127E-19-4.54787E-19
 -1      3835 9.52394E-05-2.84970E-05-2.86036E-05 1.96390E-08 1.66117E-19-6.77518E-19
 -1      3836 9.52308E-05-2.84758E-05-2.86094E-05 2.75792E-08 6.27159E-19 2.21972E-18
 -1      3837 9.52391E-05-2.85048E-05-2.86006E-05 9.39879E-09 1.06841E-19 2.83825E-18
 -1      3838 8.66311E-05-2.15098E-05-2.79415E-05 7.20849E-06-3.71946E-19-8.67855E-19
 -1      3839 8.58357E-05-2.12566E-05-2.76733E-05 7.99136E-06-3.02004E-19-3.78673E-19
 -1      3840 8.57587E-05-2.08689E-05-2.77774E-05 5.84973E-06 6.53923E-20-2.38882E-18
 -1      3841 7.38642E-05-2.29601E-05-2.18669E-05 1.84018E-05 1.60215E-18-1.71474E-18
 -1      3842 6.80167E-05-1.85554E-05-2.11220E-05 1.36427E-05 1.29215E-18-2.53412E-18
 -1      3843 7.12085E-05-1.82739E-05-2.25510E-05 9.87956E-06 8.97446E-19-2.24145E-18
 -1      3844 7.88560E-05-2.40851E-05-2.33769E-05 1.66039E-05 1.17302E-18-1.90860E-18
 -1      3845 8.95301E-05-1.86519E-05-3.03894E-05-1.52694E-06 1.00586E-18-2.35570E-18
 -1      3846 8.88788E-05-1.80361E-05-3.03726E-05-1.01854E-06 7.28039E-19-2.48136E-18
 -1      3847 8.85063E-05-1.62321E-05-3.09926E-05 9.16779E-07 1.15799E-19-2.77474E-18
 -1      3848 8.88696E-05-1.65580E-05-3.09969E-05 9.33037E-07-1.58532E-19-2.82299E-18
 -1      3849 8.94047E-05-1.77637E-05-3.06886E-05 1.49573E-06-2.78681E-19-2.50418E-18
 -1      3850 8.85649E-05-1.69824E-05-3.06697E-05 8.90173E-07 2.31737E-19-2.53919E-18
 -1      3851 9.52405E-05-2.85207E-05-2.85944E-05 2.37549E-10 6.81575E-19 1.42839E-18
 -1      3852 9.52420E-05-2.85236E-05-2.85936E-05-1.41080E-09 1.69809E-18-1.26109E-18
 -1      3853 9.52399E-05-2.85109E-05-2.85979E-05 3.44097E-09 5.47389E-19 1.34236E-19
 -1      3854 9.52353E-05-2.85016E-05-2.85998E-05 3.46027E-09 1.99160E-18 2.02766E-18
 -1      3855 9.00564E-05-2.32479E-05-2.86502E-05 4.93041E-06 2.24263E-19-8.85852E-19
 -1      3856 8.94652E-05-2.28372E-05-2.85559E-05 5.46848E-06 3.31461E-19-9.02382E-19
 -1      3857 8.95567E-05-2.29212E-05-2.85385E-05 4.07983E-06-1.18222E-19 3.82508E-19
 -1      3858 1.06311E-04-4.71143E-05-2.51157E-05 2.29266E-05 1.66778E-18 1.62693E-19
 -1      3859 1.10173E-04-4.64806E-05-2.71650E-05-1.48103E-05 2.01968E-18-3.87066E-19
 -1      3860 7.23220E-05-2.34579E-05-2.09332E-05-2.06102E-05 1.06890E-18 4.33257E-19
 -1      3861 7.90063E-05-2.94228E-05-2.10766E-05-2.55498E-05 1.72775E-18 7.14049E-19
 -1      3862 8.66380E-05-3.30576E-05-2.28095E-05-2.34619E-05 1.50389E-18 8.78056E-19
 -1      3863 1.00031E-04-4.17698E-05-2.48778E-05 2.20612E-05 1.59911E-18-4.31677E-19
 -1      3864 6.51684E-05-1.52748E-05-2.14144E-05 5.73569E-06-3.12542E-20 1.05810E-18
 -1      3865 9.52318E-05-2.84887E-05-2.86041E-05-1.38756E-08-1.06486E-18-1.14323E-18
 -1      3866 1.04251E-04-4.40203E-05-2.58810E-05-1.93164E-05 1.84800E-18-4.58483E-19
 -1      3867 8.29817E-05-2.15412E-05-2.63294E-05-1.24609E-05-4.04855E-20-2.00627E-18
 -1      3868 8.36359E-05-2.10434E-05-2.68842E-05-1.10796E-05 4.23707E-20-2.09676E-18
 -1      3869 8.78616E-05-2.18959E-05-2.82458E-05 4.88735E-06 2.36315E-19-1.42880E-18
 -1      3870 8.84290E-05-1.76651E-05-3.03495E-05-2.68211E-07 5.95702E-19-2.46897E-18
 -1      3871 8.82438E-05-1.74337E-05-3.03416E-05 2.48218E-07 3.77078E-19-2.32339E-18
 -1      3872 8.85009E-05-1.83391E-05-3.00397E-05-9.69519E-07 5.65782E-19-2.38571E-18
 -1      3873 9.52320E-05-2.84908E-05-2.86036E-05 9.20029E-09 2.18681E-18 3.88868E-19
 -1      3874 9.52349E-05-2.84964E-05-2.86023E-05 8.93448E-09 2.88709E-19 1.39104E-18
 -1      3875 9.52313E-05-2.84819E-05-2.86066E-05 1.64472E-08 1.51203E-18 2.17205E-18
 -1      3876 6.90991E-05-1.58729E-05-2.28023E-05 1.18308E-06 3.28750E-19-2.31114E-18
 -1      3877 6.66426E-05-1.50582E-05-2.18868E-05-3.27794E-06 6.03180E-21-2.57318E-18
 -1      3878 6.99661E-05-1.67008E-05-2.28641E-05-7.22447E-06-2.17810E-19-2.57274E-18
 -1      3879 9.52286E-05-2.84827E-05-2.86057E-05-1.33004E-08-1.32793E-20-1.67224E-18
 -1      3880 9.52240E-05-2.84740E-05-2.86072E-05-9.56976E-09-4.57816E-19-2.15338E-18
 -1      3881 9.52217E-05-2.84704E-05-2.86080E-05-7.72444E-09-1.17454E-19 4.02361E-19
 -1      3882 9.52159E-05-2.84484E-05-2.86143E-05-2.36368E-08-8.87090E-19-1.28643E-18
 -1      3883 8.31872E-05-1.99480E-05-2.70551E-05 7.10068E-06-6.62412E-19-1.64756E-18
 -1      3884 7.05759E-05-1.64539E-05-2.32687E-05 6.42413E-06 9.93278E-20 5.49294E-19
 -1      3885 6.54156E-05-1.44544E-05-2.16358E-05 4.06751E-07 3.71435E-19 1.06656E-18
 -1      3886 6.90113E-05-1.59259E-05-2.27676E-05-3.51322E-06 5.57060E-19 6.17911E-19
 -1      3887 7.35044E-05-1.70238E-05-2.42852E-05 5.79016E-06 1.81657E-19 1.78633E-19
 -1      3888 9.45193E-05-3.54426E-05-2.52110E-05 1.95297E-05 1.15116E-18-9.84530E-19
 -1      3889 9.06623E-05-3.14989E-05-2.53787E-05 1.76410E-05 9.73486E-19-1.30314E-18
 -1      3890 8.95018E-05-2.20996E-05-2.88698E-05-8.73819E-06 5.52389E-19-1.72029E-18
 -1      3891 9.52092E-05-2.84386E-05-2.86157E-05-9.63364E-09-6.33505E-19-6.21928E-19
 -1      3892 9.52219E-05-2.84714E-05-2.86076E-05-5.88441E-10 6.96780E-19 1.20566E-18
 -1      3893 7.28436E-05-1.93430E-05-2.29324E-05-1.18940E-05 2.10064E-19-8.29067E-20
 -1      3894 7.16834E-05-2.06015E-05-2.17772E-05-1.58846E-05 4.53411E-19-3.37903E-19
 -1      3895 7.73356E-05-2.40530E-05-2.28900E-05-1.77716E-05 3.36206E-19 9.99082E-19
 -1      3896 9.52218E-05-2.84712E-05-2.86077E-05 1.39597E-09 1.14818E-18 2.10351E-18
 -1      3897 8.92844E-05-2.11535E-05-2.92051E-05-6.27388E-06 7.75174E-19-1.69992E-18
 -1      3898 8.99015E-05-2.10667E-05-2.95074E-05-5.32333E-06 8.73054E-19-1.72937E-18
 -1      3899 7.84067E-05-2.09167E-05-2.46106E-05-1.41068E-05-4.33335E-19-2.27492E-18
 -1      3900 7.59775E-05-1.87640E-05-2.44187E-05-1.11617E-05-1.81133E-19-2.41730E-18
 -1      3901 9.22737E-05-2.11429E-05-3.04889E-05 2.51484E-06-8.08688E-19-2.26328E-18
 -1      3902 9.25924E-05-2.20503E-05-3.02290E-05 3.41387E-06-5.28044E-19-2.10289E-18
 -1      3903 9.17133E-05-2.15930E-05-3.00467E-05 3.75098E-06-4.49292E-19-1.82097E-18
 -1      3904 9.15002E-05-2.03647E-05-3.04903E-05 2.49112E-06-7.32098E-19-2.07811E-18
 -1      3905 9.01005E-05-1.90304E-05-3.04611E-05 2.20457E-06-4.67651E-19-1.97719E-18
 -1      3906 9.07536E-05-1.96703E-05-3.04710E-05 2.31350E-06-5.97297E-19-2.08725E-18
 -1      3907 9.08816E-05-2.03121E-05-3.02417E-05 2.91735E-06-5.58999E-19-1.86957E-18
 -1      3908 7.97509E-05-2.49117E-05-2.33308E-05-1.97783E-05-9.03857E-19-2.01820E-18
 -1      3909 9.11524E-05-2.02415E-05-3.04013E-05-2.63529E-06 1.23951E-18-1.91571E-18
 -1      3910 9.01860E-05-1.92245E-05-3.04190E-05-2.08177E-06 1.05348E-18-2.12021E-18
 -1      3911 8.95861E-05-1.93037E-05-3.00981E-05-2.39428E-06 9.71467E-19-2.15041E-18
 -1      3912 9.10185E-05-2.06151E-05-3.01649E-05-3.49756E-06 1.13903E-18-1.77690E-18
 -1      3913 8.88056E-05-1.78062E-05-3.04232E-05 1.54335E-06 4.79689E-20-2.40817E-18
 -1      3914 8.93801E-05-1.83718E-05-3.04376E-05 1.85488E-06-2.54291E-19-2.29612E-18
 -1      3915 8.94596E-05-1.89756E-05-3.01948E-05 2.32084E-06-2.32167E-19-2.10311E-18
 -1      3916 9.07647E-05-2.09248E-05-2.99427E-05-4.30384E-06 1.02150E-18-1.76802E-18
 -1      3917 9.78719E-05-3.94321E-05-2.49913E-05-2.04927E-05 1.89452E-18 1.63861E-19
 -1      3918 7.81273E-05-2.21244E-05-2.39294E-05-1.59056E-05-6.00083E-19-2.20136E-18
 -1      3919 8.94251E-05-2.01488E-05-2.96857E-05-3.91338E-06 9.56809E-19-1.76092E-18
 -1      3920 8.86753E-05-1.95348E-05-2.96393E-05-3.25803E-06 8.20801E-19-2.01063E-18
 -1      3921 8.53177E-05-2.10619E-05-2.75276E-05-9.97425E-06 1.36406E-19-1.96425E-18
 -1      3922 8.61500E-05-2.09611E-05-2.79776E-05-8.90162E-06 4.10820E-19-1.82973E-18
 -1      3923 8.22427E-05-1.96228E-05-2.67677E-05-8.96798E-06 1.82684E-19-1.85391E-18
 -1      3924 9.05095E-05-2.97617E-05-2.60093E-05 1.53235E-05 9.22432E-19-1.24448E-18
 -1      3925 8.37395E-05-2.60120E-05-2.47687E-05 1.62245E-05 1.04332E-18-1.60808E-18
 -1      3926 8.90892E-05-2.76432E-05-2.63639E-05 1.37116E-05 7.56508E-19-1.42697E-18
 -1      3927 9.01592E-05-2.44747E-05-2.81683E-05 8.51374E-06 4.09475E-19-2.07970E-18
 -1      3928 9.03942E-05-2.54414E-05-2.78196E-05 9.68093E-06 4.27673E-19-1.98904E-18
 -1      3929 8.95433E-05-2.58045E-05-2.73420E-05 1.07868E-05 5.97803E-19-1.74100E-18
 -1      3930 9.01518E-05-2.71694E-05-2.69732E-05 1.21689E-05 6.92902E-19-1.55489E-18
 -1      3931 8.54901E-05-2.43430E-05-2.61689E-05 1.21276E-05 7.94315E-19-1.41249E-18
 -1      3932 8.76310E-05-2.39000E-05-2.72888E-05 9.72082E-06 6.23247E-19-1.75986E-18
 -1      3933 9.26491E-05-2.54680E-05-2.87995E-05 1.72846E-06 4.23912E-19 1.65983E-18
 -1      3934 9.22779E-05-2.51128E-05-2.87879E-05 1.95680E-06 4.38669E-19 1.76268E-18
 -1      3935 9.13118E-05-3.05285E-05-2.59761E-05-1.47495E-05 7.52716E-19 5.29840E-19
 -1      3936 8.97436E-05-2.85345E-05-2.62386E-05-1.33877E-05 1.51414E-19 5.94929E-19
 -1      3937 8.95625E-05-2.72582E-05-2.66499E-05-1.15999E-05 1.12836E-19 1.25695E-18
 -1      3938 8.88384E-05-2.60807E-05-2.69140E-05-1.03935E-05 5.44486E-19 1.37816E-18
 -1      3939 8.66428E-05-2.60765E-05-2.59548E-05-1.27620E-05 4.05261E-19 8.96556E-20
 -1      3940 8.90669E-05-2.54037E-05-2.72513E-05-9.03288E-06 2.40144E-19 7.80257E-19
 -1      3941 8.88440E-05-2.47729E-05-2.74776E-05-8.03413E-06 8.99099E-20 8.22232E-19
 -1      3942 8.67989E-05-2.43683E-05-2.67582E-05-9.55772E-06 2.09603E-20 6.34080E-19
 -1      3943 8.92697E-05-2.45003E-05-2.77376E-05-7.01088E-06 4.21373E-19 6.34867E-19
 -1      3944 8.93328E-05-2.42372E-05-2.79151E-05-6.21365E-06 1.10211E-18 7.95012E-19
 -1      3945 8.75134E-05-2.35987E-05-2.73866E-05-7.16416E-06 3.34951E-19 6.48833E-19
 -1      3946 8.98310E-05-2.42172E-05-2.81072E-05-5.44234E-06 9.22991E-19 2.36137E-19
 -1      3947 9.00448E-05-2.41910E-05-2.82377E-05-4.80924E-06 1.31197E-18-7.51435E-19
 -1      3948 8.84622E-05-2.34403E-05-2.78579E-05-5.39632E-06 3.98240E-19 1.26410E-18
 -1      3949 9.05512E-05-2.43270E-05-2.83738E-05-4.22394E-06 1.48805E-18-1.73231E-18
 -1      3950 9.08321E-05-2.44451E-05-2.84639E-05-3.71968E-06 6.73071E-19-1.47721E-18
 -1      3951 8.94763E-05-2.36576E-05-2.81987E-05-4.07938E-06 3.79466E-19-5.61678E-19
 -1      3952 9.13107E-05-2.46691E-05-2.85558E-05-3.27229E-06 7.25936E-19-1.19295E-18
 -1      3953 9.16079E-05-2.48670E-05-2.86135E-05-2.86917E-06 7.23002E-20-1.32503E-19
 -1      3954 9.04633E-05-2.40937E-05-2.84351E-05-3.08897E-06 1.00730E-18-1.06251E-18
 -1      3955 9.20390E-05-2.51315E-05-2.86717E-05-2.52534E-06-6.73062E-19 7.73101E-19
 -1      3956 9.23227E-05-2.53646E-05-2.87048E-05-2.20246E-06-7.38188E-19 5.35960E-19
 -1      3957 9.13713E-05-2.46401E-05-2.85909E-05-2.33801E-06 5.13784E-19-2.24269E-19
 -1      3958 9.26971E-05-2.56371E-05-2.87382E-05-1.93735E-06-6.93010E-19 1.10858E-18
 -1      3959 9.29516E-05-2.58760E-05-2.87536E-05-1.67896E-06-2.34863E-19 1.43826E-18
 -1      3960 9.21735E-05-2.52218E-05-2.86863E-05-1.76503E-06-3.22927E-19 1.45452E-18
 -1      3961 9.32672E-05-2.61359E-05-2.87694E-05-1.47436E-06-2.65784E-19 1.40217E-18
 -1      3962 9.34852E-05-2.63623E-05-2.87726E-05-1.26833E-06-2.55936E-19 1.14294E-18
 -1      3963 9.28595E-05-2.57893E-05-2.87382E-05-1.32605E-06-5.60573E-19 1.82118E-18
 -1      3964 9.37444E-05-2.65976E-05-2.87765E-05-1.11066E-06-6.16304E-19 9.63665E-19
 -1      3965 9.39249E-05-2.68011E-05-2.87719E-05-9.47377E-07-6.14694E-19 4.02826E-19
 -1      3966 9.34303E-05-2.63122E-05-2.87598E-05-9.89155E-07-7.62986E-19 9.85841E-19
 -1      3967 9.41328E-05-2.70060E-05-2.87682E-05-8.26330E-07-8.95415E-19 9.00371E-20
 -1      3968 9.42777E-05-2.71820E-05-2.87589E-05-6.97960E-07-8.65513E-19 2.70643E-19
 -1      3969 9.38938E-05-2.67745E-05-2.87613E-05-7.30796E-07-1.36854E-18 3.51222E-19
 -1      3970 9.44408E-05-2.73550E-05-2.87507E-05-6.05568E-07-1.57729E-18-9.60775E-19
 -1      3971 9.45540E-05-2.75025E-05-2.87392E-05-5.05629E-07-1.93517E-18-1.46896E-18
 -1      3972 9.42615E-05-2.71701E-05-2.87502E-05-5.33263E-07-1.56333E-18-7.49978E-19
 -1      3973 9.46791E-05-2.76447E-05-2.87288E-05-4.35654E-07-1.08354E-18-8.44912E-19
 -1      3974 9.47653E-05-2.77652E-05-2.87165E-05-3.58718E-07-1.08890E-19-3.56819E-19
 -1      3975 9.45468E-05-2.74993E-05-2.87322E-05-3.83019E-07-1.27192E-18-4.87898E-19
 -1      3976 9.48590E-05-2.78795E-05-2.87053E-05-3.06229E-07 1.32616E-18 1.09292E-20
 -1      3977 9.49230E-05-2.79756E-05-2.86934E-05-2.47749E-07 2.19700E-18 1.34811E-18
 -1      3978 9.47634E-05-2.77669E-05-2.87109E-05-2.69568E-07 8.82975E-19 1.90837E-18
 -1      3979 9.49914E-05-2.80655E-05-2.86824E-05-2.08823E-07 1.82282E-18 1.31268E-18
 -1      3980 9.50375E-05-2.81406E-05-2.86713E-05-1.65004E-07 1.91392E-18 1.10878E-18
 -1      3981 9.49238E-05-2.79798E-05-2.86889E-05-1.84687E-07 1.85197E-18 2.34965E-18
 -1      3982 9.50862E-05-2.82099E-05-2.86611E-05-1.36527E-07 1.72594E-18 3.79918E-19
 -1      3983 9.51182E-05-2.82676E-05-2.86512E-05-1.04235E-07 9.85031E-19 1.13916E-19
 -1      3984 9.50396E-05-2.81458E-05-2.86678E-05-1.21875E-07 1.12040E-18 1.61902E-18
 -1      3985 9.51516E-05-2.83198E-05-2.86420E-05-8.38200E-08 4.89461E-19-1.10336E-19
 -1      3986 9.51728E-05-2.83632E-05-2.86334E-05-6.06631E-08-1.97484E-19 3.32571E-20
 -1      3987 9.51207E-05-2.82730E-05-2.86484E-05-7.62110E-08 4.39888E-19 1.57294E-18
 -1      3988 9.51901E-05-2.83923E-05-2.86273E-05-4.92129E-08-1.06541E-18-7.53697E-21
 -1      3989 9.52038E-05-2.84252E-05-2.86198E-05-3.30098E-08-1.23854E-18-1.03128E-18
 -1      3990 9.51984E-05-2.84151E-05-2.86214E-05-2.66213E-08-1.71918E-18 7.60812E-19
 -1      3991 9.51694E-05-2.83581E-05-2.86331E-05-4.58642E-08-2.71404E-19 1.66910E-19
 -1      3992 9.17723E-05-2.47024E-05-2.87536E-05 2.13465E-06 2.63607E-19 8.10893E-19
 -1      3993 9.12942E-05-2.42906E-05-2.87202E-05 2.39332E-06-4.23080E-19 5.33204E-19
 -1      3994 9.16986E-05-2.46633E-05-2.87178E-05 1.61787E-06-1.79221E-19-4.26305E-19
 -1      3995 9.06536E-05-2.38193E-05-2.86549E-05 2.58586E-06-1.21389E-18 7.42501E-19
 -1      3996 9.00439E-05-2.33539E-05-2.85878E-05 2.87366E-06-9.49491E-19-8.07412E-20
 -1      3997 9.05691E-05-2.37697E-05-2.86130E-05 1.92592E-06-6.20667E-19-9.48578E-19
 -1      3998 9.33301E-05-2.61178E-05-2.88114E-05 1.37196E-06-1.66619E-19 1.46931E-18
 -1      3999 9.30450E-05-2.58179E-05-2.88133E-05 1.56909E-06 1.33850E-20 1.64615E-18
 -1      4000 9.25876E-05-2.54370E-05-2.87699E-05 1.32687E-06 3.57985E-19 6.19424E-19
 -1      4001 9.38538E-05-2.66591E-05-2.88027E-05 1.06705E-06 4.05559E-19 6.70025E-19
 -1      4002 9.36372E-05-2.64104E-05-2.88124E-05 1.23338E-06 7.37709E-19 9.94716E-19
 -1      4003 9.32810E-05-2.60938E-05-2.87878E-05 1.06306E-06 6.11898E-19-9.68104E-19
 -1      4004 9.42518E-05-2.71022E-05-2.87823E-05 8.12595E-07 2.34891E-19 3.19027E-19
 -1      4005 9.40892E-05-2.68994E-05-2.87960E-05 9.49872E-07 3.78397E-19 8.89425E-19
 -1      4006 9.38162E-05-2.66412E-05-2.87843E-05 8.32344E-07 7.61963E-19-1.15385E-19
 -1      4007 9.45505E-05-2.74594E-05-2.87564E-05 6.05069E-07-7.45176E-19-6.36055E-21
 -1      4008 9.44300E-05-2.72966E-05-2.87715E-05 7.16024E-07-3.69540E-19 6.56934E-19
 -1      4009 9.42243E-05-2.70896E-05-2.87683E-05 6.36797E-07 1.08778E-19 1.17722E-18
 -1      4010 9.47712E-05-2.77429E-05-2.87288E-05 4.39427E-07-1.28143E-18 9.25878E-19
 -1      4011 9.46833E-05-2.76141E-05-2.87438E-05 5.27338E-07-9.71891E-19 5.54737E-19
 -1      4012 9.45313E-05-2.74511E-05-2.87459E-05 4.75565E-07-1.11069E-18 2.21268E-18
 -1      4013 9.49316E-05-2.79646E-05-2.87020E-05 3.09909E-07-7.10526E-19 5.19927E-19
 -1      4014 9.48687E-05-2.78642E-05-2.87159E-05 3.78227E-07-4.81976E-19 7.94341E-19
 -1      4015 9.47586E-05-2.77380E-05-2.87211E-05 3.45881E-07-7.69743E-19 1.69168E-18
 -1      4016 9.50458E-05-2.81353E-05-2.86773E-05 2.10652E-07 6.11882E-19 3.40304E-19
 -1      4017 9.50017E-05-2.80582E-05-2.86897E-05 2.62727E-07-6.72967E-19-1.11257E-19
 -1      4018 9.49238E-05-2.79622E-05-2.86964E-05 2.43924E-07 2.60650E-19 1.15580E-18
 -1      4019 9.51249E-05-2.82649E-05-2.86553E-05 1.36188E-07 8.18147E-19 3.67311E-19
 -1      4020 9.50949E-05-2.82066E-05-2.86661E-05 1.75066E-07 1.21784E-18 5.21669E-19
 -1      4021 9.50413E-05-2.81348E-05-2.86732E-05 1.65466E-07 3.56965E-19 1.38080E-18
 -1      4022 9.51777E-05-2.83618E-05-2.86362E-05 8.16953E-08-6.77563E-19 2.42863E-18
 -1      4023 9.51583E-05-2.83183E-05-2.86454E-05 1.10033E-07-5.71607E-19 1.58083E-18
 -1      4024 9.51230E-05-2.82658E-05-2.86523E-05 1.06495E-07-6.82750E-19 2.37846E-18
 -1      4025 9.52117E-05-2.84329E-05-2.86198E-05 4.26786E-08 9.77837E-19 2.58833E-18
 -1      4026 9.51996E-05-2.84011E-05-2.86277E-05 6.25817E-08 7.83168E-19 2.44634E-18
 -1      4027 9.51765E-05-2.83625E-05-2.86340E-05 6.32853E-08-2.89848E-19 3.20801E-18
 -1      4028 8.52085E-05-2.06067E-05-2.77145E-05 4.20663E-06-2.40035E-19-2.18096E-18
 -1      4029 8.40111E-05-2.00788E-05-2.74163E-05 4.64029E-06-4.68804E-19-2.30393E-18
 -1      4030 9.52253E-05-2.84673E-05-2.86107E-05 2.33329E-08 1.16448E-18 2.74665E-18
 -1      4031 9.52200E-05-2.84500E-05-2.86154E-05 3.39986E-08 8.89655E-19 2.54357E-18
 -1      4032 9.52059E-05-2.84229E-05-2.86211E-05 3.64802E-08 8.43148E-19 2.46306E-18
 -1      4033 9.52201E-05-2.84579E-05-2.86124E-05 2.10696E-08 1.41304E-18 1.33532E-18
 -1      4034 8.75035E-05-2.10846E-05-2.84623E-05-8.02836E-06 5.16500E-19-1.85750E-18
 -1      4035 8.82496E-05-2.10718E-05-2.88160E-05-7.07386E-06 7.06380E-19-1.75040E-18
 -1      4036 8.74939E-05-2.01385E-05-2.88336E-05-5.65030E-06 8.00050E-19-1.83040E-18
 -1      4037 9.51961E-05-2.84140E-05-2.86212E-05-1.26763E-08-1.06427E-18-1.31264E-18
 -1      4038 9.51964E-05-2.84142E-05-2.86208E-05-2.58832E-09 1.87988E-19-2.87094E-19
 -1      4039 9.51837E-05-2.83873E-05-2.86269E-05-2.04832E-08-1.20009E-18-1.19967E-18
 -1      4040 8.76612E-05-1.95020E-05-2.92059E-05-3.30812E-06 6.85019E-19-1.89103E-18
 -1      4041 8.80056E-05-1.88916E-05-2.96362E-05-1.77054E-06 7.31045E-19-2.19368E-18
 -1      4042 7.53370E-05-1.76670E-05-2.47579E-05-6.94422E-06 1.93845E-19-2.23872E-18
 -1      4043 9.71264E-05-3.85850E-05-2.49571E-05 2.11624E-05 1.40531E-18-7.46269E-19
 -1      4044 8.92366E-05-2.28262E-05-2.84766E-05 3.07711E-06-2.87935E-19-6.93260E-20
 -1      4045 8.84671E-05-2.23166E-05-2.83590E-05 3.39546E-06-3.68875E-19-3.07240E-20
 -1      4046 8.91436E-05-2.27599E-05-2.84300E-05 2.23786E-06-7.69525E-19-2.95289E-19
 -1      4047 8.74512E-05-2.17426E-05-2.81808E-05 3.61015E-06-6.07236E-19-6.64480E-19
 -1      4048 8.64899E-05-2.12080E-05-2.79893E-05 3.96935E-06-3.44570E-19-1.39360E-18
 -1      4049 8.50928E-05-2.04455E-05-2.76702E-05 2.83992E-06-1.08535E-18-1.60602E-18
 -1      4050 9.52465E-05-3.58858E-05-2.53529E-05-1.83593E-05 1.15707E-18 2.21358E-19
 -1      4051 9.24008E-05-3.27803E-05-2.55228E-05-1.69939E-05 1.10287E-18 3.02040E-19
 -1      4052 8.77019E-05-2.94605E-05-2.49868E-05-1.70676E-05 8.15203E-19-5.95997E-19
 -1      4053 9.14219E-05-3.54626E-05-2.40103E-05-2.21674E-05 1.38347E-18 6.05284E-19
 -1      4054 9.07541E-05-2.17013E-05-2.96019E-05 4.47209E-06-2.49265E-19-1.94689E-18
 -1      4055 9.07466E-05-2.24200E-05-2.92773E-05 5.40537E-06 5.90441E-20-2.00600E-18
 -1      4056 9.52254E-05-2.84781E-05-2.86063E-05 5.90483E-09 1.79568E-18 2.79649E-18
 -1      4057 9.52271E-05-2.84810E-05-2.86056E-05 7.16063E-09 2.12123E-18 1.70634E-18
 -1      4058 9.52210E-05-2.84634E-05-2.86103E-05 1.22032E-08 1.96799E-18 1.54435E-18
 -1      4059 9.52127E-05-2.84465E-05-2.86138E-05 4.48201E-09 6.25885E-19 1.58636E-18
 -1      4060 8.84996E-05-1.75803E-05-3.04143E-05 1.13581E-06 2.75694E-19-2.31683E-18
 -1      4061 8.23714E-05-1.94580E-05-2.70025E-05 4.90966E-06-3.35527E-19-1.90886E-18
 -1      4062 8.08373E-05-1.89807E-05-2.65460E-05 5.52136E-06-6.49545E-19-1.74955E-18
 -1      4063 8.22607E-05-1.92048E-05-2.69701E-05 3.15527E-06-1.17451E-19-2.58044E-18
 -1      4064 9.04493E-05-2.30333E-05-2.89062E-05 6.36823E-06 1.58076E-19-2.07141E-18
 -1      4065 9.04914E-05-2.37860E-05-2.85734E-05 7.38009E-06 1.78872E-19-2.17130E-18
 -1      4066 8.94380E-05-2.17661E-05-2.89910E-05 5.46288E-06-1.27042E-20-1.86519E-18
 -1      4067 8.39364E-05-2.94822E-05-2.33319E-05-2.05960E-05 7.06995E-19 7.96211E-19
 -1      4068 7.94755E-05-1.85390E-05-2.61482E-05-7.07424E-06 3.15280E-19-2.03880E-18
 -1      4069 8.11216E-05-1.87435E-05-2.68151E-05-6.10503E-06 2.27556E-19-2.00344E-18
 -1      4070 8.87976E-05-2.30014E-05-2.81920E-05 7.54806E-06 3.07085E-19-2.08800E-18
 -1      4071 8.51733E-05-1.99085E-05-2.79308E-05-7.15967E-06 3.70878E-19-1.73976E-18
 -1      4072 7.91376E-05-2.25549E-05-2.42321E-05 1.38853E-05 8.85413E-19-1.71088E-18
 -1      4073 8.75639E-05-1.84977E-05-2.96067E-05-9.49257E-07 4.45442E-19-2.14688E-18
 -1      4074 7.15932E-05-1.66559E-05-2.34779E-05 4.34050E-06 5.27202E-19-1.83106E-18
 -1      4075 7.21205E-05-1.64232E-05-2.39363E-05 2.31443E-07 2.12433E-19-1.99354E-18
 -1      4076 8.54748E-05-1.93714E-05-2.83400E-05-4.27773E-06 5.66959E-19-1.87342E-18
 -1      4077 8.65187E-05-1.94640E-05-2.87637E-05-3.67219E-06 6.88587E-19-1.83563E-18
 -1      4078 8.59892E-05-1.87921E-05-2.87511E-05-2.07061E-06 5.23002E-19-1.81901E-18
 -1      4079 7.22429E-05-1.73779E-05-2.33333E-05-8.25187E-06 5.38725E-19 1.96020E-19
 -1      4080 7.55512E-05-1.97314E-05-2.39491E-05-1.03687E-05 1.01359E-19 1.27097E-18
 -1      4081 8.23150E-05-2.63504E-05-2.39154E-05-1.71072E-05 5.64670E-19 5.05072E-19
 -1      4082 9.51875E-05-2.83957E-05-2.86249E-05 5.83944E-09 3.57414E-19 8.01212E-19
 -1      4083 9.52006E-05-2.84228E-05-2.86193E-05 6.95579E-09 7.29766E-19 1.75769E-18
 -1      4084 9.52050E-05-2.84294E-05-2.86178E-05 1.27680E-08 8.75430E-19 1.03022E-18
 -1      4085 7.51784E-05-1.69158E-05-2.48711E-05-3.65375E-06 3.02442E-19-2.27691E-18
 -1      4086 8.83380E-05-1.80821E-05-3.00881E-05 9.17481E-07 2.63841E-19-2.18930E-18
 -1      4087 8.73505E-05-2.16451E-05-2.81327E-05 2.54207E-06-1.33981E-18-5.70659E-19
 -1      4088 7.87465E-05-1.83418E-05-2.59412E-05 5.54117E-06-2.65732E-20-7.97103E-19
 -1      4089 7.65324E-05-1.77931E-05-2.52527E-05 5.96240E-06 6.62261E-19 1.26688E-19
 -1      4090 7.85955E-05-1.78306E-05-2.59386E-05 3.15901E-06 3.79234E-19-1.54584E-19
 -1      4091 9.09480E-05-2.09057E-05-3.00198E-05 3.52150E-06-4.05127E-19-1.85973E-18
 -1      4092 7.61497E-05-2.04015E-05-2.38992E-05 1.17933E-05 8.93982E-19-1.90792E-18
 -1      4093 7.33323E-05-1.81045E-05-2.36705E-05 7.82325E-06 7.69817E-19-2.06331E-18
 -1      4094 8.11981E-05-2.22846E-05-2.52178E-05 1.15844E-05 7.70164E-19-1.66684E-18
 -1      4095 7.62946E-05-1.85129E-05-2.47164E-05 6.33566E-06 5.96338E-19-1.78034E-18
 -1      4096 8.88764E-05-1.92680E-05-2.98547E-05 2.67882E-06 5.29317E-20-1.88231E-18
 -1      4097 8.96496E-05-1.99230E-05-2.98875E-05 3.08137E-06-3.94525E-19-1.80013E-18
 -1      4098 7.20347E-05-1.67549E-05-2.37994E-05-3.05280E-06 7.28617E-19 8.84107E-19
 -1      4099 9.00131E-05-2.04784E-05-2.97975E-05 3.61566E-06-4.02795E-19-1.80576E-18
 -1      4100 8.74639E-05-2.15913E-05-2.82625E-05 6.04904E-06 1.89003E-19-1.77259E-18
 -1      4101 8.70845E-05-2.21562E-05-2.78254E-05 7.19107E-06 3.75089E-19-1.77631E-18
 -1      4102 9.32861E-05-2.61622E-05-2.87729E-05 7.25402E-07 8.88923E-19-1.44790E-18
 -1      4103 9.29804E-05-2.58600E-05-2.87692E-05 8.30311E-07 5.40926E-19-1.60001E-18
 -1      4104 8.53122E-05-2.06891E-05-2.77160E-05 1.43381E-06-1.46707E-18-1.09445E-18
 -1      4105 8.40121E-05-2.00821E-05-2.74297E-05 1.46149E-06-5.06139E-19-1.22654E-18
 -1      4106 9.25995E-05-2.55222E-05-2.87541E-05 8.93739E-07 4.89486E-19-1.30142E-18
 -1      4107 9.22045E-05-2.51643E-05-2.87366E-05 1.00707E-06 2.54122E-19-1.08890E-18
 -1      4108 9.26711E-05-2.55726E-05-2.87401E-05 5.45898E-07 6.90682E-19-2.53944E-18
 -1      4109 8.45423E-05-2.30715E-05-2.63119E-05-9.28333E-06 4.78866E-19 2.98058E-19
 -1      4110 8.47963E-05-2.26417E-05-2.66904E-05-7.96407E-06 4.54419E-19 7.62986E-19
 -1      4111 8.58454E-05-2.26047E-05-2.70836E-05-6.75157E-06 5.41056E-19 8.10810E-19
 -1      4112 8.62697E-05-2.25064E-05-2.73661E-05-5.81171E-06 5.50687E-19 9.56150E-19
 -1      4113 8.37188E-05-2.13291E-05-2.66698E-05-6.41422E-06 9.95860E-19 6.97780E-19
 -1      4114 8.71917E-05-2.26489E-05-2.76499E-05-4.95388E-06 1.74657E-19 7.42476E-19
 -1      4115 8.76889E-05-2.27571E-05-2.78566E-05-4.26390E-06-3.40403E-20 4.15288E-19
 -1      4116 8.56543E-05-2.16532E-05-2.73676E-05-4.54588E-06 7.40844E-19 1.10561E-18
 -1      4117 8.84970E-05-2.30161E-05-2.80572E-05-3.65124E-06-3.41616E-19 7.08111E-19
 -1      4118 8.90025E-05-2.32454E-05-2.82030E-05-3.13826E-06 4.39134E-19 3.43053E-19
 -1      4119 8.73507E-05-2.22212E-05-2.78650E-05-3.21938E-06 1.33834E-19 1.35539E-18
 -1      4120 8.97029E-05-2.35685E-05-2.83405E-05-2.69896E-06 9.47913E-19-1.43677E-19
 -1      4121 9.01814E-05-2.38612E-05-2.84390E-05-2.31369E-06 6.84902E-19-1.24820E-19
 -1      4122 8.88353E-05-2.29236E-05-2.82111E-05-2.28127E-06 2.14817E-19 1.28229E-18
 -1      4123 9.07795E-05-2.42086E-05-2.85296E-05-1.99801E-06 2.99326E-19-1.10650E-19
 -1      4124 9.12112E-05-2.45241E-05-2.85923E-05-1.70614E-06 3.96227E-19 1.90904E-19
 -1      4125 9.01169E-05-2.36806E-05-2.84442E-05-1.61744E-06 2.71984E-19 4.45972E-19
 -1      4126 9.17137E-05-2.48680E-05-2.86485E-05-1.47891E-06 4.31594E-19-9.69608E-20
 -1      4127 9.20892E-05-2.51790E-05-2.86851E-05-1.25628E-06-1.75932E-19 2.19367E-19
 -1      4128 9.12055E-05-2.44345E-05-2.85941E-05-1.14704E-06-5.98995E-20-1.03045E-18
 -1      4129 9.25042E-05-2.55007E-05-2.87167E-05-1.09252E-06-2.50135E-19 1.30300E-18
 -1      4130 9.28212E-05-2.57900E-05-2.87347E-05-9.21890E-07-3.68707E-19 8.77859E-19
 -1      4131 9.21145E-05-2.51456E-05-2.86838E-05-8.13107E-07-1.48906E-19-2.20024E-19
 -1      4132 9.31581E-05-2.60788E-05-2.87493E-05-8.03811E-07-9.67683E-19 1.53162E-18
 -1      4133 9.34188E-05-2.63367E-05-2.87548E-05-6.72738E-07-1.34442E-18 1.55705E-18
 -1      4134 9.28602E-05-2.57897E-05-2.87313E-05-5.75580E-07-4.41780E-19 8.77015E-19
 -1      4135 9.36874E-05-2.65877E-05-2.87581E-05-5.87610E-07-1.24748E-18 1.37964E-18
 -1      4136 9.38968E-05-2.68101E-05-2.87555E-05-4.86937E-07-1.06821E-18 8.56946E-19
 -1      4137 9.34613E-05-2.63544E-05-2.87500E-05-4.06260E-07-1.20649E-18 1.73523E-18
 -1      4138 9.41071E-05-2.70222E-05-2.87517E-05-4.25634E-07-2.41438E-18 1.18780E-18
 -1      4139 9.42716E-05-2.72088E-05-2.87442E-05-3.48506E-07-2.54587E-18 5.46361E-20
 -1      4140 9.39372E-05-2.68359E-05-2.87501E-05-2.85304E-07-2.00678E-18 1.11161E-18
 -1      4141 9.44332E-05-2.73838E-05-2.87363E-05-3.04467E-07-1.62556E-18 9.23968E-20
 -1      4142 9.45595E-05-2.75366E-05-2.87263E-05-2.45660E-07-9.13483E-19 1.09600E-18
 -1      4143 9.43070E-05-2.72368E-05-2.87387E-05-1.98753E-07-2.32420E-18 1.62354E-18
 -1      4144 9.46813E-05-2.76779E-05-2.87164E-05-2.14153E-07 7.78964E-19 1.26563E-18
 -1      4145 9.47760E-05-2.78003E-05-2.87055E-05-1.69627E-07 1.90015E-18 2.12570E-18
 -1      4146 9.45889E-05-2.75634E-05-2.87211E-05-1.36777E-07 2.78748E-19 1.36498E-18
 -1      4147 9.48658E-05-2.79122E-05-2.86949E-05-1.47230E-07 1.57918E-18 2.16289E-18
 -1      4148 9.49352E-05-2.80083E-05-2.86841E-05-1.13815E-07 1.57244E-18 1.59731E-18
 -1      4149 9.47994E-05-2.78242E-05-2.87007E-05-9.24472E-08 1.81970E-18 1.67880E-18
 -1      4150 9.49997E-05-2.80951E-05-2.86738E-05-9.80486E-08 1.47074E-18 1.19148E-18
 -1      4151 9.50491E-05-2.81692E-05-2.86636E-05-7.32233E-08 5.70569E-19 1.32082E-18
 -1      4152 9.49531E-05-2.80287E-05-2.86798E-05-6.09017E-08 1.25637E-18 4.44347E-19
 -1      4153 9.50940E-05-2.82354E-05-2.86539E-05-6.19886E-08-3.45837E-19 1.17523E-18
 -1      4154 9.51279E-05-2.82914E-05-2.86448E-05-4.41695E-08 1.78416E-19 3.13679E-19
 -1      4155 9.50618E-05-2.81860E-05-2.86598E-05-3.87633E-08 2.27736E-19 6.13592E-19
 -1      4156 9.51496E-05-2.83260E-05-2.86387E-05-3.63769E-08 1.91764E-20-8.17315E-19
 -1      4157 9.51669E-05-2.83588E-05-2.86325E-05-2.56243E-08-1.10634E-18-1.40625E-18
 -1      4158 9.51669E-05-2.83581E-05-2.86321E-05-8.93857E-09-5.50262E-19-4.02613E-18
 -1      4159 9.51289E-05-2.82919E-05-2.86440E-05-2.10167E-08-1.35858E-18-1.07838E-18
 -1      4160 9.17237E-05-2.47696E-05-2.87027E-05 1.06821E-06-1.89068E-19-1.04409E-18
 -1      4161 9.12182E-05-2.43540E-05-2.86636E-05 1.18361E-06-3.53074E-19-1.14906E-18
 -1      4162 9.18233E-05-2.48328E-05-2.86886E-05 6.22071E-07 6.28422E-20-2.78820E-18
 -1      4163 9.06172E-05-2.39027E-05-2.86017E-05 1.23365E-06-3.26154E-20-1.60965E-18
 -1      4164 8.99753E-05-2.34300E-05-2.85303E-05 1.34190E-06-1.64791E-20-1.38291E-18
 -1      4165 9.07576E-05-2.39822E-05-2.85896E-05 6.67126E-07-5.78147E-19-1.91059E-18
 -1      4166 9.38183E-05-2.66964E-05-2.87710E-05 5.72544E-07 1.78312E-21 2.30791E-19
 -1      4167 9.35843E-05-2.64458E-05-2.87758E-05 6.65365E-07 2.18412E-19-4.80894E-19
 -1      4168 9.33383E-05-2.62027E-05-2.87600E-05 4.57592E-07 1.12355E-19-1.88350E-18
 -1      4169 9.42255E-05-2.71343E-05-2.87569E-05 4.39898E-07-5.62913E-19 1.65013E-18
 -1      4170 9.40487E-05-2.69300E-05-2.87664E-05 5.19095E-07 9.77258E-20 1.27968E-18
 -1      4171 9.38568E-05-2.67292E-05-2.87597E-05 3.69367E-07-7.58684E-19 8.74388E-19
 -1      4172 9.45325E-05-2.74873E-05-2.87365E-05 3.28887E-07-1.01813E-18 1.21120E-18
 -1      4173 9.44009E-05-2.73235E-05-2.87482E-05 3.94436E-07-8.12018E-19 1.65315E-18
 -1      4174 9.42543E-05-2.71610E-05-2.87474E-05 2.88344E-07-3.85488E-19 1.29454E-18
 -1      4175 9.47602E-05-2.77672E-05-2.87134E-05 2.38773E-07-1.00608E-19 1.02244E-18
 -1      4176 9.46638E-05-2.76380E-05-2.87257E-05 2.91608E-07-7.17678E-19 1.41651E-18
 -1      4177 9.45541E-05-2.75091E-05-2.87286E-05 2.18040E-07-3.37675E-19 1.64961E-18
 -1      4178 9.49257E-05-2.79857E-05-2.86902E-05 1.67558E-07 1.70520E-19 2.16929E-18
 -1      4179 9.48566E-05-2.78853E-05-2.87021E-05 2.09146E-07 2.96111E-19 1.76011E-18
 -1      4180 9.47764E-05-2.77850E-05-2.87070E-05 1.59587E-07-2.32915E-19 2.06045E-18
 -1      4181 9.50434E-05-2.81535E-05-2.86683E-05 1.12603E-07-5.03599E-20 2.16226E-18
 -1      4182 9.49949E-05-2.80766E-05-2.86793E-05 1.44649E-07 2.80214E-19 2.10136E-18
 -1      4183 9.49377E-05-2.80001E-05-2.86850E-05 1.12671E-07 2.79394E-19 2.16046E-18
 -1      4184 9.51242E-05-2.82804E-05-2.86484E-05 7.06617E-08-3.78287E-19 1.61075E-18
 -1      4185 9.50916E-05-2.82225E-05-2.86582E-05 9.51627E-08-3.35663E-19 1.62367E-18
 -1      4186 9.50516E-05-2.81649E-05-2.86641E-05 7.61462E-08-2.29919E-19 4.75722E-19
 -1      4187 8.28407E-05-1.90013E-05-2.73698E-05-5.43923E-06 2.79948E-19-1.96398E-18
 -1      4188 8.41893E-05-1.92150E-05-2.78934E-05-4.77663E-06 4.58422E-19-1.99498E-18
 -1      4189 8.35977E-05-1.84957E-05-2.78262E-05-2.68828E-06 5.09935E-19-1.75168E-18
 -1      4190 8.06637E-05-1.79610E-05-2.67906E-05-3.58279E-06 3.81197E-19-2.01407E-18
 -1      4191 7.87765E-05-1.92472E-05-2.55398E-05 6.89540E-06 6.25500E-19-1.71667E-18
 -1      4192 7.70834E-05-1.77714E-05-2.53641E-05 3.72113E-06 4.62235E-19-1.58751E-18
 -1      4193 8.15993E-05-2.44756E-05-2.45258E-05-1.45831E-05 4.48916E-19 1.39282E-19
 -1      4194 7.34504E-05-1.62086E-05-2.43658E-05 2.43967E-06 4.92816E-19 6.48185E-19
 -1      4195 8.92289E-05-2.29258E-05-2.84276E-05 1.36840E-06-6.00907E-19-1.46515E-18
 -1      4196 8.84176E-05-2.24002E-05-2.83087E-05 1.45810E-06-5.33096E-19-1.64745E-18
 -1      4197 8.94289E-05-2.30256E-05-2.84212E-05 6.53585E-07-2.60511E-19-2.43898E-18
 -1      4198 8.30840E-05-2.26551E-05-2.59241E-05 1.08069E-05 7.20895E-19-1.48350E-18
 -1      4199 8.04934E-05-2.05345E-05-2.56528E-05 8.78068E-06 7.65685E-19-1.80766E-18
 -1      4200 8.10942E-05-1.98402E-05-2.62529E-05 6.40516E-06 6.05723E-19-1.41281E-18
 -1      4201 8.43870E-05-2.25195E-05-2.65586E-05 9.62010E-06 6.61480E-19-1.52914E-18
 -1      4202 7.50892E-05-1.73694E-05-2.47511E-05-1.98169E-06 6.20720E-19 7.70995E-19
 -1      4203 7.63928E-05-1.72754E-05-2.53908E-05-7.62815E-07 4.43677E-19-2.00745E-18
 -1      4204 9.52144E-05-2.84474E-05-2.86145E-05 1.86165E-08 7.87078E-19 1.49682E-18
 -1      4205 8.69140E-05-1.87385E-05-2.92119E-05-4.14500E-07 3.16200E-19-1.93085E-18
 -1      4206 8.74984E-05-1.84419E-05-2.96267E-05 4.06494E-07 3.41876E-19-2.05282E-18
 -1      4207 8.25355E-05-1.94510E-05-2.70654E-05 1.32525E-06 7.37028E-19-1.13997E-18
 -1      4208 8.08043E-05-1.88163E-05-2.66295E-05 1.34504E-06 9.78878E-19-1.75343E-19
 -1      4209 8.31414E-05-1.96323E-05-2.71317E-05-1.85110E-07 2.77900E-19 4.75192E-19
 -1      4210 8.86141E-05-2.07145E-05-2.91067E-05 4.26128E-06-1.36195E-19-1.68761E-18
 -1      4211 8.82607E-05-2.12406E-05-2.87166E-05 5.13417E-06 7.43677E-21-1.81501E-18
 -1      4212 8.67534E-05-2.04508E-05-2.83796E-05 4.71864E-06 1.36441E-19-1.64532E-18
 -1      4213 8.74923E-05-2.18498E-05-2.81477E-05 1.44492E-06-1.06287E-18-1.85890E-18
 -1      4214 8.64671E-05-2.12782E-05-2.79602E-05 1.50520E-06-1.41844E-18-2.24102E-18
 -1      4215 8.77802E-05-2.19738E-05-2.81531E-05 5.43683E-07-9.44590E-19-2.98127E-18
 -1      4216 8.78928E-05-1.85677E-05-2.97073E-05 1.48966E-06 8.93988E-20-2.10922E-18
 -1      4217 7.90153E-05-2.16446E-05-2.45106E-05-1.19635E-05 5.12296E-19 1.13781E-18
 -1      4218 8.37442E-05-2.43761E-05-2.54168E-05-1.24767E-05 5.06840E-19 1.69685E-19
 -1      4219 8.36188E-05-2.34209E-05-2.58816E-05-1.07076E-05 5.40352E-19 4.88907E-19
 -1      4220 7.76932E-05-1.99469E-05-2.48624E-05-8.81713E-06 6.42941E-19 1.06326E-18
 -1      4221 7.88966E-05-1.79660E-05-2.61308E-05 1.67569E-07 4.92917E-19-1.82284E-18
 -1      4222 9.51535E-05-2.83352E-05-2.86364E-05 3.33178E-09-1.01677E-18-7.99794E-19
 -1      4223 9.51707E-05-2.83669E-05-2.86306E-05 6.73165E-09-7.03314E-20 3.29092E-19
 -1      4224 9.51769E-05-2.83746E-05-2.86292E-05 1.80420E-08 3.93760E-19 1.98351E-18
 -1      4225 7.70335E-05-1.76754E-05-2.55367E-05 5.99539E-08 8.09790E-19 6.28108E-19
 -1      4226 7.69066E-05-1.80792E-05-2.50973E-05-4.83816E-06 5.81246E-19 8.53918E-19
 -1      4227 8.18498E-05-2.13970E-05-2.58187E-05-8.80538E-06 5.10784E-19 6.53724E-19
 -1      4228 8.93645E-05-2.06551E-05-2.94591E-05 3.97553E-06-1.99706E-19-1.65646E-18
 -1      4229 8.47190E-05-1.88056E-05-2.82851E-05-3.20082E-07 5.19698E-19-1.61425E-18
 -1      4230 8.59007E-05-1.88651E-05-2.87558E-05-2.41311E-07 4.44369E-19-1.72085E-18
 -1      4231 8.61005E-05-1.88440E-05-2.87838E-05 1.19707E-06 2.79584E-19-1.57848E-18
 -1      4232 9.51563E-05-2.83316E-05-2.86389E-05 4.99311E-08-5.41931E-20 1.37096E-18
 -1      4233 9.51296E-05-2.82910E-05-2.86444E-05 3.80768E-08-5.28804E-19 2.31484E-20
 -1      4234 8.05299E-05-1.83110E-05-2.67187E-05 5.00785E-07 5.87277E-19-1.58954E-18
 -1      4235 9.51781E-05-2.83746E-05-2.86304E-05 3.39764E-08 9.03096E-20 1.29833E-18
 -1      4236 9.52026E-05-2.84230E-05-2.86201E-05 2.25158E-08 9.55803E-19 1.23262E-18
 -1      4237 9.51940E-05-2.84035E-05-2.86247E-05 3.17405E-08 8.12047E-19 1.88659E-18
 -1      4238 8.62994E-05-2.22832E-05-2.74742E-05 7.86149E-06 6.38222E-19-1.73398E-18
 -1      4239 8.53359E-05-2.24405E-05-2.69724E-05 8.81139E-06 8.06315E-19-1.54313E-18
 -1      4240 8.35408E-05-2.09501E-05-2.67791E-05 7.52247E-06 6.49712E-19-1.54870E-18
 -1      4241 8.51889E-05-2.07783E-05-2.75523E-05 6.20356E-06 4.99519E-19-1.75694E-18
 -1      4242 7.93688E-05-1.97588E-05-2.55513E-05-6.44410E-06 4.97251E-19 8.25415E-19
 -1      4243 7.93281E-05-1.83335E-05-2.61536E-05 4.73054E-07 6.18320E-19 7.39913E-20
 -1      4244 8.57307E-05-2.08411E-05-2.77435E-05 2.86819E-07-7.54626E-19-1.52317E-18
 -1      4245 8.79132E-05-1.93288E-05-2.93837E-05 2.30796E-06 6.04971E-20-1.92319E-18
 -1      4246 8.01702E-05-1.85543E-05-2.62923E-05-1.52731E-06 1.02238E-18 1.21265E-18
 -1      4247 8.83087E-05-2.01108E-05-2.91962E-05 3.73953E-06-7.22089E-20-1.71690E-18
 -1      4248 8.70592E-05-1.93889E-05-2.90277E-05 2.37682E-06 9.91458E-20-1.92369E-18
 -1      4249 8.63362E-05-2.15800E-05-2.77879E-05-1.68704E-06 2.60233E-19-3.20528E-19
 -1      4250 8.51666E-05-2.10484E-05-2.75340E-05-1.95887E-06 5.31248E-19 4.83003E-19
 -1      4251 8.61409E-05-1.95646E-05-2.85692E-05 2.77625E-06 2.37330E-19-1.65987E-18
 -1      4252 8.53270E-05-1.97848E-05-2.80979E-05 3.54964E-06 3.79848E-19-1.54021E-18
 -1      4253 8.01833E-05-1.97802E-05-2.59951E-05-5.28734E-06 4.80084E-19 6.83980E-19
 -1      4254 9.33473E-05-2.62809E-05-2.87510E-05-2.14657E-08-3.69278E-19 2.01350E-19
 -1      4255 9.30415E-05-2.59881E-05-2.87455E-05 2.17607E-09-1.84017E-19-4.34267E-19
 -1      4256 8.41733E-05-2.07265E-05-2.72343E-05-2.66272E-06 8.10279E-19 3.95977E-19
 -1      4257 8.71977E-05-2.19634E-05-2.79977E-05-1.19421E-06-2.80151E-19-9.00014E-20
 -1      4258 8.81394E-05-2.24791E-05-2.81677E-05-1.03507E-06-6.56726E-19-2.49238E-19
 -1      4259 8.88759E-05-2.28864E-05-2.83105E-05-6.92714E-07-1.91606E-19-1.33814E-18
 -1      4260 8.96367E-05-2.33721E-05-2.84207E-05-6.09293E-07-3.04061E-19-1.34137E-18
 -1      4261 9.02588E-05-2.37755E-05-2.85142E-05-3.72398E-07-4.87054E-19-1.95768E-18
 -1      4262 9.08722E-05-2.42199E-05-2.85823E-05-3.38786E-07-3.93205E-19-1.61235E-18
 -1      4263 9.13907E-05-2.46002E-05-2.86402E-05-1.75338E-07-4.66380E-19-1.84105E-18
 -1      4264 9.18820E-05-2.49961E-05-2.86788E-05-1.72740E-07 1.26462E-19-1.78489E-18
 -1      4265 9.23077E-05-2.53409E-05-2.87115E-05-6.01934E-08 2.73127E-19-1.70910E-18
 -1      4266 9.26976E-05-2.56852E-05-2.87302E-05-7.52618E-08 2.36586E-19-1.14641E-18
 -1      4267 9.36206E-05-2.65400E-05-2.87548E-05 3.18517E-08-6.90576E-19 1.80412E-19
 -1      4268 9.38573E-05-2.67840E-05-2.87521E-05 5.49717E-09-1.39106E-18 7.49631E-19
 -1      4269 9.40707E-05-2.70004E-05-2.87487E-05 4.22842E-08-2.11092E-18 9.38751E-19
 -1      4270 9.42512E-05-2.71998E-05-2.87412E-05 1.67242E-08-1.73122E-18 1.97833E-18
 -1      4271 9.44148E-05-2.73769E-05-2.87335E-05 4.21854E-08-7.02078E-19 2.57791E-18
 -1      4272 9.45502E-05-2.75370E-05-2.87236E-05 1.92964E-08-3.12445E-19 2.28842E-18
 -1      4273 9.46732E-05-2.76790E-05-2.87139E-05 3.69779E-08 7.76112E-19 2.88979E-18
 -1      4274 9.47729E-05-2.78053E-05-2.87031E-05 1.75717E-08 8.82320E-19 2.53674E-18
 -1      4275 9.48635E-05-2.79171E-05-2.86927E-05 2.98732E-08 8.23393E-19 2.01121E-18
 -1      4276 9.49353E-05-2.80150E-05-2.86820E-05 1.41459E-08 9.26744E-19 6.76576E-19
 -1      4277 9.50004E-05-2.81015E-05-2.86718E-05 2.26483E-08 7.65869E-19 3.94203E-19
 -1      4278 9.50509E-05-2.81762E-05-2.86618E-05 1.05803E-08 2.27500E-19-4.79020E-19
 -1      4279 9.50967E-05-2.82417E-05-2.86523E-05 1.55535E-08-7.89557E-19-7.59428E-19
 -1      4280 8.21502E-05-1.85086E-05-2.73176E-05-1.44957E-07 6.01605E-19-1.67743E-18
 -1      4281 8.34988E-05-1.87437E-05-2.77988E-05 1.47066E-07 5.35219E-19-1.54795E-18
 -1      4282 8.40081E-05-1.88971E-05-2.78369E-05 2.05895E-06 4.79741E-19-1.40053E-18
 -1      4283 8.13181E-05-1.87120E-05-2.67624E-05 3.47928E-06 6.40149E-19-1.25238E-18
 -1      4284 8.16049E-05-1.99783E-05-2.64425E-05-4.08195E-06 6.65978E-19 1.20252E-18
 -1      4285 8.27085E-05-2.01905E-05-2.68618E-05-3.11448E-06 1.03492E-18 9.08288E-19
 -1      4286 8.41935E-05-1.98468E-05-2.76192E-05 4.24008E-06 4.33372E-19-1.41327E-18
 -1      4287 8.34491E-05-1.98572E-05-2.72596E-05 4.73782E-06 5.21427E-19-1.56161E-18
 -1      4288 8.19898E-05-1.97905E-05-2.66834E-05 5.76482E-06 5.72284E-19-1.34170E-18
 -1      4289 9.51312E-05-2.83003E-05-2.86425E-05-2.89848E-09-1.59990E-18-4.65326E-19
 -3
    1PSTEP                         4           1           1          
  100CL  101 1.000000000        4289                     0    1           1
 -4  ERROR       1    1
 -5  STR(%)      1    1    0    0
 -1         1 1.22972E+01
 -1         2 2.38671E+01
 -1         3 6.66935E-04
 -1         4 6.87021E-04
 -1         5 1.37111E+01
 -1         6 1.28340E+01
 -1         7 1.28340E+01
 -1         8 3.54451E+00
 -1         9 1.83185E+00
 -1        10 1.33447E+00
 -1        11 1.07118E+00
 -1        12 8.87453E-01
 -1        13 7.50475E-01
 -1        14 6.48528E-01
 -1        15 6.34814E-01
 -1        16 7.34100E-01
 -1        17 8.66318E-01
 -1        18 1.06362E+00
 -1        19 1.34527E+00
 -1        20 1.84002E+00
 -1        21 3.37328E+00
 -1        22 8.30700E+00
 -1        23 1.28340E+01
 -1        24 4.20855E+00
 -1        25 3.10865E+00
 -1        26 1.85824E+00
 -1        27 1.33337E+00
 -1        28 9.55786E-01
 -1        29 6.46332E-01
 -1        30 6.02141E-01
 -1        31 6.87642E-01
 -1        32 7.74635E-01
 -1        33 7.74635E-01
 -1        34 7.95464E-01
 -1        35 9.33759E-01
 -1        36 1.23745E+00
 -1        37 2.01799E+00
 -1        38 2.77110E+00
 -1        39 2.97842E+00
 -1        40 3.01244E+00
 -1        41 3.01244E+00
 -1        42 2.72350E+00
 -1        43 1.92293E+00
 -1        44 1.27048E+00
 -1        45 9.58920E-01
 -1        46 8.97698E-01
 -1        47 8.43863E-01
 -1        48 8.36316E-01
 -1        49 7.93176E-01
 -1        50 6.81957E-01
 -1        51 5.45712E-01
 -1        52 4.34496E-01
 -1        53 3.56328E-01
 -1        54 3.06674E-01
 -1        55 2.52937E-01
 -1        56 2.01257E-01
 -1        57 1.55046E-01
 -1        58 1.15796E-01
 -1        59 8.94303E-02
 -1        60 7.51896E-02
 -1        61 6.14377E-02
 -1        62 4.88946E-02
 -1        63 3.78856E-02
 -1        64 2.84775E-02
 -1        65 2.12349E-02
 -1        66 1.73399E-02
 -1        67 1.34383E-02
 -1        68 9.60505E-03
 -1        69 6.03873E-03
 -1        70 5.01948E-03
 -1        71 3.25740E-03
 -1        72 1.37111E+01
 -1        73 3.37396E+00
 -1        74 2.33036E+00
 -1        75 1.61001E+00
 -1        76 1.39549E+00
 -1        77 1.22170E+00
 -1        78 1.07077E+00
 -1        79 1.09378E+00
 -1        80 1.10394E+00
 -1        81 1.13863E+00
 -1        82 1.51902E+00
 -1        83 1.73788E+00
 -1        84 2.02345E+00
 -1        85 2.13413E+00
 -1        86 2.59072E+00
 -1        87 3.74126E+00
 -1        88 5.08435E+00
 -1        89 5.79139E+00
 -1        90 5.79139E+00
 -1        91 4.94730E+00
 -1        92 2.64325E+00
 -1        93 1.69502E+00
 -1        94 1.93335E+00
 -1        95 2.03530E+00
 -1        96 2.03530E+00
 -1        97 1.84502E+00
 -1        98 1.54722E+00
 -1        99 1.28065E+00
 -1       100 1.01198E+00
 -1       101 7.70498E-01
 -1       102 5.68035E-01
 -1       103 4.14658E-01
 -1       104 3.17546E-01
 -1       105 2.38048E-01
 -1       106 1.74789E-01
 -1       107 1.25566E-01
 -1       108 8.79885E-02
 -1       109 5.97993E-02
 -1       110 4.69881E-02
 -1       111 3.83771E-02
 -1       112 3.06502E-02
 -1       113 2.38865E-02
 -1       114 1.92570E-02
 -1       115 1.67763E-02
 -1       116 1.39000E-02
 -1       117 1.07566E-02
 -1       118 7.52025E-03
 -1       119 5.05554E-03
 -1       120 3.19483E-03
 -1       121 1.49377E-03
 -1       122 1.15439E-03
 -1       123 4.89499E-04
 -1       124 4.68262E-04
 -1       125 6.19810E-04
 -1       126 6.73931E-04
 -1       127 6.76784E-04
 -1       128 6.76784E-04
 -1       129 6.66333E-04
 -1       130 6.63197E-04
 -1       131 6.42869E-04
 -1       132 5.88907E-04
 -1       133 4.39949E-04
 -1       134 5.29489E-04
 -1       135 1.49542E-03
 -1       136 2.24228E-03
 -1       137 2.52967E+01
 -1       138 4.90311E+01
 -1       139 4.90311E+01
 -1       140 2.22091E+01
 -1       141 1.19478E+01
 -1       142 1.24904E+01
 -1       143 1.24904E+01
 -1       144 1.42950E+01
 -1       145 1.42950E+01
 -1       146 1.51567E+01
 -1       147 4.00041E+01
 -1       148 4.00041E+01
 -1       149 2.62913E+01
 -1       150 2.62913E+01
 -1       151 2.55889E+01
 -1       152 2.76347E+01
 -1       153 3.08956E+01
 -1       154 3.08956E+01
 -1       155 1.33276E+01
 -1       156 1.23694E+01
 -1       157 1.23694E+01
 -1       158 1.26655E+01
 -1       159 1.26655E+01
 -1       160 1.85173E+01
 -1       161 4.69237E+01
 -1       162 4.69237E+01
 -1       163 2.47882E+01
 -1       164 5.86165E+00
 -1       165 2.31593E+00
 -1       166 1.56937E+00
 -1       167 1.20181E+00
 -1       168 9.78329E-01
 -1       169 8.21261E-01
 -1       170 7.02888E-01
 -1       171 6.18084E-01
 -1       172 6.88170E-01
 -1       173 8.02770E-01
 -1       174 9.70157E-01
 -1       175 1.20720E+00
 -1       176 1.58568E+00
 -1       177 2.30177E+00
 -1       178 3.79507E+00
 -1       179 1.37111E+01
 -1       180 4.20855E+00
 -1       181 3.10865E+00
 -1       182 1.85824E+00
 -1       183 1.33337E+00
 -1       184 9.55786E-01
 -1       185 6.46332E-01
 -1       186 6.02141E-01
 -1       187 5.84120E-01
 -1       188 6.87642E-01
 -1       189 7.74635E-01
 -1       190 7.19413E-01
 -1       191 7.95464E-01
 -1       192 9.33759E-01
 -1       193 1.33539E+00
 -1       194 2.01799E+00
 -1       195 2.77110E+00
 -1       196 2.97842E+00
 -1       197 3.01244E+00
 -1       198 2.72350E+00
 -1       199 1.92293E+00
 -1       200 1.27048E+00
 -1       201 9.58920E-01
 -1       202 8.97698E-01
 -1       203 8.43863E-01
 -1       204 8.36316E-01
 -1       205 7.93176E-01
 -1       206 6.81957E-01
 -1       207 5.61870E-01
 -1       208 4.75524E-01
 -1       209 4.01817E-01
 -1       210 3.22692E-01
 -1       211 2.52937E-01
 -1       212 2.01257E-01
 -1       213 1.57499E-01
 -1       214 1.22272E-01
 -1       215 9.22750E-02
 -1       216 7.51896E-02
 -1       217 6.14377E-02
 -1       218 4.88946E-02
 -1       219 3.78856E-02
 -1       220 2.84775E-02
 -1       221 2.14755E-02
 -1       222 1.73399E-02
 -1       223 1.34383E-02
 -1       224 9.60505E-03
 -1       225 6.53701E-03
 -1       226 5.01948E-03
 -1       227 3.25740E-03
 -1       228 3.37396E+00
 -1       229 2.33036E+00
 -1       230 1.61001E+00
 -1       231 1.39549E+00
 -1       232 1.22170E+00
 -1       233 1.07077E+00
 -1       234 1.01297E+00
 -1       235 1.09378E+00
 -1       236 1.10394E+00
 -1       237 1.22059E+00
 -1       238 1.51902E+00
 -1       239 1.73788E+00
 -1       240 2.02345E+00
 -1       241 2.13413E+00
 -1       242 2.59072E+00
 -1       243 3.74126E+00
 -1       244 5.08435E+00
 -1       245 5.79139E+00
 -1       246 4.94730E+00
 -1       247 2.64325E+00
 -1       248 1.63616E+00
 -1       249 1.69502E+00
 -1       250 1.93335E+00
 -1       251 2.03530E+00
 -1       252 1.84502E+00
 -1       253 1.54722E+00
 -1       254 1.28097E+00
 -1       255 1.04306E+00
 -1       256 8.16129E-01
 -1       257 6.17849E-01
 -1       258 4.54223E-01
 -1       259 3.27680E-01
 -1       260 2.38048E-01
 -1       261 1.74789E-01
 -1       262 1.27346E-01
 -1       263 9.15557E-02
 -1       264 6.42281E-02
 -1       265 4.69881E-02
 -1       266 3.83771E-02
 -1       267 3.06502E-02
 -1       268 2.38865E-02
 -1       269 1.92570E-02
 -1       270 1.67763E-02
 -1       271 1.39000E-02
 -1       272 1.07566E-02
 -1       273 7.52025E-03
 -1       274 5.05554E-03
 -1       275 3.19483E-03
 -1       276 1.18748E-03
 -1       277 9.83764E-04
 -1       278 7.69770E-04
 -1       279 1.04411E-03
 -1       280 1.16253E-03
 -1       281 1.17430E-03
 -1       282 1.17430E-03
 -1       283 1.16716E-03
 -1       284 1.15435E-03
 -1       285 1.13937E-03
 -1       286 1.10826E-03
 -1       287 9.97790E-04
 -1       288 7.23065E-04
 -1       289 7.23065E-04
 -1       290 2.07831E-03
 -1       291 2.91863E+01
 -1       292 2.98501E+01
 -1       293 4.90311E+01
 -1       294 2.47592E+01
 -1       295 1.16831E+01
 -1       296 1.19478E+01
 -1       297 1.24904E+01
 -1       298 1.19877E+01
 -1       299 1.42950E+01
 -1       300 1.29260E+01
 -1       301 1.53334E+01
 -1       302 4.00041E+01
 -1       303 3.59299E+01
 -1       304 2.78943E+01
 -1       305 2.78943E+01
 -1       306 2.55889E+01
 -1       307 3.04740E+01
 -1       308 3.08956E+01
 -1       309 1.33276E+01
 -1       310 1.14198E+01
 -1       311 1.23694E+01
 -1       312 1.21399E+01
 -1       313 1.26655E+01
 -1       314 1.22972E+01
 -1       315 1.06178E+01
 -1       316 2.00294E+01
 -1       317 4.69237E+01
 -1       318 2.83930E+01
 -1       319 2.91863E+01
 -1       320 1.10323E+00
 -1       321 2.39544E+00
 -1       322 8.37403E-01
 -1       323 7.04537E-01
 -1       324 6.03688E-01
 -1       325 5.19470E-01
 -1       326 5.06535E-01
 -1       327 5.87344E-01
 -1       328 6.96492E-01
 -1       329 8.29033E-01
 -1       330 9.91087E-01
 -1       331 1.21810E+00
 -1       332 1.34089E+00
 -1       333 1.99725E+00
 -1       334 1.64484E+00
 -1       335 1.49034E+00
 -1       336 9.61622E-01
 -1       337 6.70974E-01
 -1       338 5.00190E-01
 -1       339 4.08307E-01
 -1       340 4.08329E-01
 -1       341 4.11237E-01
 -1       342 4.72032E-01
 -1       343 4.19513E-01
 -1       344 4.36830E-01
 -1       345 6.35400E-01
 -1       346 1.00506E+00
 -1       347 1.37523E+00
 -1       348 1.74832E+00
 -1       349 1.93389E+00
 -1       350 1.85544E+00
 -1       351 1.94464E+00
 -1       352 1.71446E+00
 -1       353 1.33080E+00
 -1       354 9.24423E-01
 -1       355 5.10464E-01
 -1       356 4.36137E-01
 -1       357 5.22769E-01
 -1       358 6.11902E-01
 -1       359 6.08082E-01
 -1       360 5.48786E-01
 -1       361 4.88591E-01
 -1       362 4.32249E-01
 -1       363 3.67538E-01
 -1       364 2.98836E-01
 -1       365 2.33650E-01
 -1       366 1.76113E-01
 -1       367 1.27938E-01
 -1       368 9.22750E-02
 -1       369 6.76523E-02
 -1       370 4.87476E-02
 -1       371 3.73144E-02
 -1       372 3.09424E-02
 -1       373 2.48567E-02
 -1       374 1.92816E-02
 -1       375 1.43141E-02
 -1       376 1.11054E-02
 -1       377 8.72996E-03
 -1       378 6.22110E-03
 -1       379 4.27363E-03
 -1       380 2.87661E-03
 -1       381 9.96972E-01
 -1       382 7.44668E-01
 -1       383 7.26586E-01
 -1       384 6.75855E-01
 -1       385 8.71188E-01
 -1       386 1.11502E+00
 -1       387 1.30851E+00
 -1       388 1.42456E+00
 -1       389 1.44860E+00
 -1       390 1.34769E+00
 -1       391 1.32647E+00
 -1       392 1.51595E+00
 -1       393 2.39079E+00
 -1       394 2.83128E+00
 -1       395 3.34273E+00
 -1       396 3.31836E+00
 -1       397 2.97706E+00
 -1       398 1.95058E+00
 -1       399 1.26254E+00
 -1       400 1.32910E+00
 -1       401 1.53530E+00
 -1       402 1.52029E+00
 -1       403 1.48886E+00
 -1       404 1.33950E+00
 -1       405 1.16831E+00
 -1       406 9.70601E-01
 -1       407 7.74765E-01
 -1       408 5.97873E-01
 -1       409 4.48406E-01
 -1       410 3.27680E-01
 -1       411 2.33335E-01
 -1       412 1.73420E-01
 -1       413 1.27346E-01
 -1       414 9.15557E-02
 -1       415 6.42281E-02
 -1       416 4.37009E-02
 -1       417 2.87329E-02
 -1       418 2.43715E-02
 -1       419 1.99764E-02
 -1       420 1.57744E-02
 -1       421 1.19042E-02
 -1       422 9.07956E-03
 -1       423 7.48546E-03
 -1       424 5.66969E-03
 -1       425 4.18686E-03
 -1       426 2.84681E-03
 -1       427 1.41623E-03
 -1       428 1.97025E-03
 -1       429 2.22216E-03
 -1       430 1.51001E-03
 -1       431 1.51001E-03
 -1       432 1.45168E-03
 -1       433 1.37948E-03
 -1       434 1.36227E-03
 -1       435 1.39593E-03
 -1       436 1.42058E-03
 -1       437 1.42058E-03
 -1       438 1.36358E-03
 -1       439 2.38946E-03
 -1       440 2.98501E+01
 -1       441 3.28388E+01
 -1       442 3.28388E+01
 -1       443 1.73444E+01
 -1       444 1.03025E+01
 -1       445 9.73186E-01
 -1       446 9.50165E+00
 -1       447 1.06043E+01
 -1       448 1.08524E+01
 -1       449 8.07225E+00
 -1       450 7.47587E+00
 -1       451 1.30760E+01
 -1       452 2.26374E+01
 -1       453 2.78400E+01
 -1       454 3.74857E+01
 -1       455 3.74857E+01
 -1       456 2.57256E+01
 -1       457 2.05235E+01
 -1       458 1.20537E+01
 -1       459 7.31516E+00
 -1       460 9.44560E+00
 -1       461 1.08767E+01
 -1       462 1.16107E+01
 -1       463 1.11368E+01
 -1       464 8.09644E+00
 -1       465 8.85632E+00
 -1       466 1.62554E+01
 -1       467 2.83930E+01
 -1       468 2.85091E+01
 -1       469 7.56630E+00
 -1       470 2.46428E+01
 -1       471 8.62127E+00
 -1       472 7.54179E-01
 -1       473 5.01410E-01
 -1       474 5.66567E-01
 -1       475 3.56093E-01
 -1       476 4.00733E-01
 -1       477 4.76788E-01
 -1       478 5.46625E-01
 -1       479 5.85125E-01
 -1       480 8.36350E-01
 -1       481 1.08239E+01
 -1       482 4.95316E-01
 -1       483 6.14387E-01
 -1       484 4.90024E+00
 -1       485 3.69579E-01
 -1       486 2.46636E-01
 -1       487 2.68598E-01
 -1       488 3.32360E-01
 -1       489 4.04914E-01
 -1       490 4.63370E-01
 -1       491 5.22950E-01
 -1       492 6.73735E-01
 -1       493 7.85767E-01
 -1       494 9.93532E-01
 -1       495 1.22237E+00
 -1       496 1.37704E+00
 -1       497 1.66703E+00
 -1       498 1.67887E+00
 -1       499 1.86135E+00
 -1       500 1.62319E+00
 -1       501 1.32655E+00
 -1       502 1.15138E+00
 -1       503 8.88167E-01
 -1       504 7.79740E-01
 -1       505 6.59546E-01
 -1       506 6.18409E-01
 -1       507 6.12752E-01
 -1       508 5.65756E-01
 -1       509 5.11838E-01
 -1       510 4.59550E-01
 -1       511 3.99584E-01
 -1       512 3.33312E-01
 -1       513 2.68414E-01
 -1       514 2.09447E-01
 -1       515 1.58629E-01
 -1       516 1.16591E-01
 -1       517 8.29820E-02
 -1       518 5.69216E-02
 -1       519 3.72991E-02
 -1       520 2.48578E-02
 -1       521 1.73849E-02
 -1       522 1.50103E-02
 -1       523 1.23438E-02
 -1       524 9.62860E-03
 -1       525 7.03070E-03
 -1       526 5.29405E-03
 -1       527 3.85216E-03
 -1       528 5.27409E-01
 -1       529 7.63371E-01
 -1       530 1.00790E+00
 -1       531 1.22556E+00
 -1       532 1.36940E+00
 -1       533 1.65315E+00
 -1       534 1.90941E+00
 -1       535 2.08529E+00
 -1       536 2.57977E+00
 -1       537 3.00693E+00
 -1       538 3.01315E+00
 -1       539 7.30689E+00
 -1       540 4.37757E+00
 -1       541 3.33446E+00
 -1       542 3.12441E+00
 -1       543 2.14171E+00
 -1       544 2.21582E+00
 -1       545 2.09102E+00
 -1       546 1.84723E+00
 -1       547 1.57398E+00
 -1       548 1.42851E+00
 -1       549 1.25930E+00
 -1       550 1.05619E+00
 -1       551 8.53100E-01
 -1       552 6.68915E-01
 -1       553 5.11700E-01
 -1       554 3.82923E-01
 -1       555 2.80581E-01
 -1       556 2.01165E-01
 -1       557 1.40786E-01
 -1       558 9.57415E-02
 -1       559 6.27748E-02
 -1       560 4.21782E-02
 -1       561 2.99545E-02
 -1       562 2.43715E-02
 -1       563 1.99764E-02
 -1       564 1.57744E-02
 -1       565 1.19042E-02
 -1       566 8.77671E-03
 -1       567 6.90838E-03
 -1       568 4.94405E-03
 -1       569 3.96102E-03
 -1       570 1.99679E-03
 -1       571 1.63654E-03
 -1       572 3.14297E-03
 -1       573 1.99679E-03
 -1       574 1.41871E-03
 -1       575 1.36062E-03
 -1       576 1.37831E-03
 -1       577 1.54828E-03
 -1       578 1.70285E-03
 -1       579 1.73180E-03
 -1       580 1.87031E-03
 -1       581 3.28388E+01
 -1       582 1.35112E+01
 -1       583 3.81535E-01
 -1       584 2.94164E+01
 -1       585 2.18548E+01
 -1       586 9.33828E-01
 -1       587 8.22220E+00
 -1       588 6.63119E+00
 -1       589 1.11916E+01
 -1       590 4.29182E-01
 -1       591 7.56451E+00
 -1       592 4.33136E+00
 -1       593 8.25291E+00
 -1       594 3.74857E+01
 -1       595 7.99127E+00
 -1       596 1.62070E+01
 -1       597 7.90425E+00
 -1       598 2.78400E+01
 -1       599 2.57256E+01
 -1       600 1.67387E+01
 -1       601 9.42000E+00
 -1       602 3.82483E+00
 -1       603 6.33432E+00
 -1       604 7.13781E+00
 -1       605 4.64736E+00
 -1       606 5.04795E+00
 -1       607 1.46496E+01
 -1       608 5.76294E+00
 -1       609 1.13160E+00
 -1       610 6.33690E-01
 -1       611 1.84192E+01
 -1       612 5.12855E+00
 -1       613 4.99005E+00
 -1       614 2.51443E-03
 -1       615 3.12514E-01
 -1       616 2.48073E-01
 -1       617 6.25672E-01
 -1       618 5.35023E-01
 -1       619 4.31732E-03
 -1       620 5.16128E+00
 -1       621 3.52110E-01
 -1       622 3.22619E-01
 -1       623 3.72574E-01
 -1       624 4.56769E-01
 -1       625 5.62817E-01
 -1       626 6.71537E-01
 -1       627 7.57037E-01
 -1       628 1.02008E+00
 -1       629 1.27480E+00
 -1       630 1.37360E+00
 -1       631 1.66608E+00
 -1       632 1.66703E+00
 -1       633 2.43911E+00
 -1       634 3.94369E+00
 -1       635 2.83274E+00
 -1       636 1.62319E+00
 -1       637 1.59469E+00
 -1       638 1.27101E+00
 -1       639 1.25987E+00
 -1       640 1.00762E+00
 -1       641 8.61427E-01
 -1       642 7.82850E-01
 -1       643 6.76630E-01
 -1       644 5.74906E-01
 -1       645 5.06788E-01
 -1       646 4.33827E-01
 -1       647 3.59756E-01
 -1       648 2.90348E-01
 -1       649 2.28673E-01
 -1       650 1.75978E-01
 -1       651 1.32347E-01
 -1       652 9.71803E-02
 -1       653 6.95183E-02
 -1       654 4.82639E-02
 -1       655 3.23183E-02
 -1       656 2.06607E-02
 -1       657 1.23880E-02
 -1       658 8.07007E-03
 -1       659 7.35453E-03
 -1       660 6.18777E-03
 -1       661 4.80634E-03
 -1       662 3.40733E-03
 -1       663 8.86104E-01
 -1       664 1.34123E+01
 -1       665 3.12441E+00
 -1       666 6.54271E-01
 -1       667 1.46739E+00
 -1       668 1.78137E+00
 -1       669 2.20306E+00
 -1       670 2.88730E+00
 -1       671 3.75886E+00
 -1       672 3.00693E+00
 -1       673 3.20368E+00
 -1       674 3.33808E+00
 -1       675 2.48927E+00
 -1       676 1.97796E+00
 -1       677 1.69433E+00
 -1       678 1.40163E+00
 -1       679 1.13450E+00
 -1       680 9.02762E-01
 -1       681 7.07772E-01
 -1       682 5.47091E-01
 -1       683 4.16905E-01
 -1       684 3.13032E-01
 -1       685 2.31350E-01
 -1       686 1.68024E-01
 -1       687 1.19631E-01
 -1       688 8.31992E-02
 -1       689 5.62155E-02
 -1       690 3.65938E-02
 -1       691 2.26324E-02
 -1       692 1.44657E-02
 -1       693 1.17582E-02
 -1       694 9.98075E-03
 -1       695 7.97318E-03
 -1       696 5.97822E-03
 -1       697 4.92083E-03
 -1       698 5.09862E-01
 -1       699 1.33048E-03
 -1       700 2.53651E-03
 -1       701 1.80277E-03
 -1       702 1.30395E-03
 -1       703 1.41871E-03
 -1       704 4.15459E+00
 -1       705 1.37831E-03
 -1       706 1.67757E-03
 -1       707 1.96973E-03
 -1       708 3.00681E+00
 -1       709 6.97230E-01
 -1       710 1.52153E+01
 -1       711 1.16062E+01
 -1       712 1.44625E+01
 -1       713 5.03451E+00
 -1       714 1.69775E+01
 -1       715 4.77859E-01
 -1       716 1.16151E+00
 -1       717 6.41738E-01
 -1       718 9.98426E+00
 -1       719 9.14077E+00
 -1       720 4.01399E+00
 -1       721 3.95162E-01
 -1       722 4.45918E+00
 -1       723 4.00398E-01
 -1       724 5.65202E+00
 -1       725 4.76879E+00
 -1       726 7.47118E+00
 -1       727 1.32332E+01
 -1       728 4.38121E-01
 -1       729 3.92393E+00
 -1       730 1.35091E+01
 -1       731 1.68538E+01
 -1       732 3.13606E+00
 -1       733 7.08250E+00
 -1       734 6.41738E-01
 -1       735 2.90148E-01
 -1       736 5.18616E+00
 -1       737 7.14918E+00
 -1       738 3.04439E-03
 -1       739 4.37757E+00
 -1       740 3.51293E+00
 -1       741 4.69143E+00
 -1       742 3.95063E+00
 -1       743 2.54726E-03
 -1       744 3.55230E-01
 -1       745 7.76431E+00
 -1       746 8.44233E+00
 -1       747 6.25672E-01
 -1       748 4.04803E-01
 -1       749 4.91677E-01
 -1       750 6.01307E-01
 -1       751 7.74926E-01
 -1       752 9.88395E-01
 -1       753 1.21904E+00
 -1       754 1.45569E+00
 -1       755 2.00041E+00
 -1       756 1.66608E+00
 -1       757 1.84474E+00
 -1       758 2.43911E+00
 -1       759 4.35715E+00
 -1       760 3.13606E+00
 -1       761 2.21707E+00
 -1       762 2.02259E+00
 -1       763 1.46474E+00
 -1       764 1.28417E+00
 -1       765 1.06392E+00
 -1       766 8.48942E-01
 -1       767 7.06380E-01
 -1       768 5.89574E-01
 -1       769 4.85102E-01
 -1       770 3.90142E-01
 -1       771 3.06789E-01
 -1       772 2.36514E-01
 -1       773 1.83245E-01
 -1       774 1.39138E-01
 -1       775 1.02441E-01
 -1       776 7.36454E-02
 -1       777 5.19124E-02
 -1       778 3.61140E-02
 -1       779 2.43930E-02
 -1       780 1.58841E-02
 -1       781 9.86841E-03
 -1       782 5.75652E-03
 -1       783 4.00264E-03
 -1       784 3.79906E-03
 -1       785 3.26587E-03
 -1       786 2.68469E+00
 -1       787 1.89082E+00
 -1       788 6.37271E+00
 -1       789 2.20765E+00
 -1       790 1.62607E+00
 -1       791 1.25455E+00
 -1       792 9.93361E-01
 -1       793 7.77240E-01
 -1       794 5.95025E-01
 -1       795 4.47092E-01
 -1       796 3.30026E-01
 -1       797 2.39215E-01
 -1       798 1.71410E-01
 -1       799 1.25741E-01
 -1       800 9.06269E-02
 -1       801 6.39695E-02
 -1       802 4.40348E-02
 -1       803 2.93880E-02
 -1       804 1.88503E-02
 -1       805 1.14633E-02
 -1       806 6.83848E-03
 -1       807 5.78985E-03
 -1       808 5.06922E-03
 -1       809 1.42377E-03
 -1       810 2.31136E-01
 -1       811 9.01220E+00
 -1       812 1.18650E-03
 -1       813 8.55781E+00
 -1       814 1.96973E-03
 -1       815 1.20876E-03
 -1       816 9.27492E+00
 -1       817 6.27962E-01
 -1       818 2.51134E+00
 -1       819 1.02576E+01
 -1       820 7.43525E+00
 -1       821 3.00681E+00
 -1       822 1.00256E+01
 -1       823 2.99591E+00
 -1       824 1.00256E+01
 -1       825 3.90309E+00
 -1       826 4.01284E+00
 -1       827 2.51134E+00
 -1       828 2.91389E+00
 -1       829 1.02576E+01
 -1       830 7.97177E-01
 -1       831 7.28448E+00
 -1       832 9.91673E+00
 -1       833 3.61757E+00
 -1       834 3.91013E-01
 -1       835 1.57133E-01
 -1       836 5.62082E+00
 -1       837 5.73056E-01
 -1       838 6.71312E+00
 -1       839 2.34073E-03
 -1       840 3.57390E+00
 -1       841 1.02917E+00
 -1       842 1.37799E+00
 -1       843 1.51858E-03
 -1       844 3.70653E-03
 -1       845 4.10447E+00
 -1       846 1.27267E-03
 -1       847 4.58983E+00
 -1       848 6.25672E-01
 -1       849 6.41143E+00
 -1       850 3.15819E-03
 -1       851 3.21728E-01
 -1       852 5.22101E+00
 -1       853 5.75106E-01
 -1       854 3.36573E-01
 -1       855 2.54726E-03
 -1       856 4.48628E-01
 -1       857 4.99564E-01
 -1       858 5.95809E+00
 -1       859 6.56081E-01
 -1       860 8.69129E-01
 -1       861 1.11106E+00
 -1       862 1.36704E+00
 -1       863 1.95332E+00
 -1       864 2.30445E+00
 -1       865 3.17614E+00
 -1       866 2.45330E+00
 -1       867 1.92615E+00
 -1       868 1.46225E+00
 -1       869 1.17286E+00
 -1       870 9.28686E-01
 -1       871 7.12120E-01
 -1       872 5.55263E-01
 -1       873 4.48217E-01
 -1       874 3.66664E-01
 -1       875 2.97007E-01
 -1       876 2.34504E-01
 -1       877 1.80809E-01
 -1       878 1.36181E-01
 -1       879 1.00097E-01
 -1       880 7.16332E-02
 -1       881 4.98130E-02
 -1       882 3.42844E-02
 -1       883 2.27101E-02
 -1       884 1.42965E-02
 -1       885 8.35937E-03
 -1       886 4.37366E-03
 -1       887 2.63028E-03
 -1       888 3.98142E+00
 -1       889 1.25455E+00
 -1       890 1.62783E+00
 -1       891 6.92713E+00
 -1       892 2.42763E+00
 -1       893 9.58684E-01
 -1       894 7.29774E-01
 -1       895 5.52214E-01
 -1       896 4.14435E-01
 -1       897 3.07823E-01
 -1       898 2.25761E-01
 -1       899 1.63066E-01
 -1       900 1.15624E-01
 -1       901 8.04022E-02
 -1       902 5.55927E-02
 -1       903 3.73076E-02
 -1       904 2.40732E-02
 -1       905 1.48538E-02
 -1       906 8.47972E-03
 -1       907 5.11857E-03
 -1       908 3.42816E-03
 -1       909 6.92713E+00
 -1       910 1.55671E-03
 -1       911 7.53260E-01
 -1       912 2.60732E-01
 -1       913 6.69140E+00
 -1       914 3.75514E+00
 -1       915 4.56451E-01
 -1       916 5.94618E+00
 -1       917 6.02338E-01
 -1       918 4.12062E-01
 -1       919 3.83888E-01
 -1       920 5.95809E+00
 -1       921 5.24493E+00
 -1       922 4.80303E+00
 -1       923 1.84474E+00
 -1       924 5.29204E+00
 -1       925 5.13585E+00
 -1       926 2.99003E+00
 -1       927 1.88317E+00
 -1       928 2.55859E-03
 -1       929 2.90767E-03
 -1       930 3.39679E-01
 -1       931 2.68313E-03
 -1       932 2.84702E-03
 -1       933 2.90767E-03
 -1       934 1.02248E+00
 -1       935 4.52324E+00
 -1       936 1.82716E-03
 -1       937 5.75106E-01
 -1       938 3.43820E-01
 -1       939 4.03703E-01
 -1       940 3.36573E-01
 -1       941 4.61634E+00
 -1       942 4.43776E+00
 -1       943 6.36739E-01
 -1       944 8.53386E-01
 -1       945 1.58587E+00
 -1       946 2.72841E+00
 -1       947 3.61244E+00
 -1       948 3.50510E+00
 -1       949 3.05370E+00
 -1       950 2.25510E+00
 -1       951 1.72773E+00
 -1       952 1.23664E+00
 -1       953 8.94974E-01
 -1       954 6.89065E-01
 -1       955 5.55263E-01
 -1       956 4.48217E-01
 -1       957 3.55670E-01
 -1       958 2.77841E-01
 -1       959 2.13676E-01
 -1       960 1.61656E-01
 -1       961 1.20140E-01
 -1       962 8.75247E-02
 -1       963 6.23149E-02
 -1       964 4.31649E-02
 -1       965 2.93185E-02
 -1       966 1.95417E-02
 -1       967 1.24358E-02
 -1       968 7.42991E-03
 -1       969 4.97733E-03
 -1       970 1.08130E+00
 -1       971 4.55206E+00
 -1       972 6.06867E-01
 -1       973 4.58498E-01
 -1       974 3.45528E-01
 -1       975 2.58592E-01
 -1       976 1.91499E-01
 -1       977 1.39872E-01
 -1       978 1.00430E-01
 -1       979 7.06093E-02
 -1       980 4.84515E-02
 -1       981 3.31105E-02
 -1       982 2.18530E-02
 -1       983 1.37529E-02
 -1       984 8.10520E-03
 -1       985 4.27805E-03
 -1       986 5.00154E-01
 -1       987 3.61244E+00
 -1       988 2.09357E+00
 -1       989 5.45785E+00
 -1       990 4.61634E+00
 -1       991 3.17800E+00
 -1       992 1.37799E+00
 -1       993 2.90427E-03
 -1       994 1.46325E+00
 -1       995 4.55206E+00
 -1       996 5.97569E-01
 -1       997 3.40573E-01
 -1       998 2.25633E-03
 -1       999 8.05557E-01
 -1      1000 4.64314E+00
 -1      1001 3.98142E+00
 -1      1002 6.08757E-01
 -1      1003 2.90427E-03
 -1      1004 3.91909E+00
 -1      1005 4.97733E-03
 -1      1006 4.43776E+00
 -1      1007 3.51070E-03
 -1      1008 3.61428E+00
 -1      1009 1.10803E+00
 -1      1010 3.93061E-01
 -1      1011 4.44565E-01
 -1      1012 6.15522E-01
 -1      1013 6.08757E-01
 -1      1014 1.72057E+00
 -1      1015 3.02848E+00
 -1      1016 1.29848E+00
 -1      1017 2.08087E+00
 -1      1018 2.58299E-01
 -1      1019 3.06480E+00
 -1      1020 1.53505E+00
 -1      1021 1.16123E+00
 -1      1022 8.94974E-01
 -1      1023 6.89065E-01
 -1      1024 5.28836E-01
 -1      1025 4.04673E-01
 -1      1026 3.08256E-01
 -1      1027 2.33268E-01
 -1      1028 1.74963E-01
 -1      1029 1.29755E-01
 -1      1030 9.48894E-02
 -1      1031 6.82141E-02
 -1      1032 4.80161E-02
 -1      1033 3.29185E-02
 -1      1034 2.20911E-02
 -1      1035 1.51593E-02
 -1      1036 9.96619E-03
 -1      1037 6.04876E-03
 -1      1038 3.38055E-01
 -1      1039 4.41031E-01
 -1      1040 1.95739E-01
 -1      1041 1.46571E-01
 -1      1042 1.08115E-01
 -1      1043 7.83124E-02
 -1      1044 5.55000E-02
 -1      1045 3.82959E-02
 -1      1046 2.60606E-02
 -1      1047 1.74097E-02
 -1      1048 1.10250E-02
 -1      1049 7.12099E-03
 -1      1050 1.02822E+00
 -1      1051 3.97394E-03
 -1      1052 1.35513E+00
 -1      1053 4.92684E-03
 -1      1054 8.85482E-01
 -1      1055 5.78012E-01
 -1      1056 7.69297E-01
 -1      1057 3.69278E+00
 -1      1058 6.36739E-01
 -1      1059 2.80159E-03
 -1      1060 1.37811E+00
 -1      1061 8.44179E-01
 -1      1062 2.98387E+00
 -1      1063 3.22475E+00
 -1      1064 1.10803E+00
 -1      1065 2.59346E+00
 -1      1066 4.91793E-03
 -1      1067 2.24551E+00
 -1      1068 3.22475E+00
 -1      1069 6.71555E-01
 -1      1070 9.98751E-01
 -1      1071 1.76103E-01
 -1      1072 8.42846E-01
 -1      1073 2.22079E-01
 -1      1074 1.56487E+00
 -1      1075 1.24927E+00
 -1      1076 8.42846E-01
 -1      1077 5.89491E-01
 -1      1078 4.29930E-01
 -1      1079 3.15343E-01
 -1      1080 2.38847E-01
 -1      1081 1.86562E-01
 -1      1082 1.43677E-01
 -1      1083 1.08928E-01
 -1      1084 8.11466E-02
 -1      1085 5.92519E-02
 -1      1086 4.22553E-02
 -1      1087 2.92714E-02
 -1      1088 1.99410E-02
 -1      1089 1.31771E-02
 -1      1090 6.43302E-03
 -1      1091 2.74018E-01
 -1      1092 3.55650E-01
 -1      1093 1.36713E-01
 -1      1094 1.03888E-01
 -1      1095 7.71984E-02
 -1      1096 5.59838E-02
 -1      1097 3.99103E-02
 -1      1098 2.79381E-02
 -1      1099 1.83421E-02
 -1      1100 1.36168E+00
 -1      1101 1.88474E+00
 -1      1102 4.66207E-01
 -1      1103 1.40914E+00
 -1      1104 6.71555E-01
 -1      1105 1.24927E+00
 -1      1106 7.85964E-01
 -1      1107 6.15790E-01
 -1      1108 2.43388E+00
 -1      1109 1.02849E-02
 -1      1110 1.59014E+00
 -1      1111 7.80892E-01
 -1      1112 1.37943E+00
 -1      1113 1.27780E+00
 -1      1114 1.28340E+01
 -1      1115 8.18928E+00
 -1      1116 2.68818E+00
 -1      1117 1.58316E+00
 -1      1118 1.20283E+00
 -1      1119 9.79319E-01
 -1      1120 8.18964E-01
 -1      1121 6.99501E-01
 -1      1122 6.41671E-01
 -1      1123 6.84457E-01
 -1      1124 8.00209E-01
 -1      1125 9.64968E-01
 -1      1126 1.20444E+00
 -1      1127 1.59264E+00
 -1      1128 2.60665E+00
 -1      1129 5.84014E+00
 -1      1130 1.10090E+01
 -1      1131 1.28340E+01
 -1      1132 8.52130E+00
 -1      1133 3.65860E+00
 -1      1134 2.48345E+00
 -1      1135 1.59581E+00
 -1      1136 1.14458E+00
 -1      1137 8.01059E-01
 -1      1138 6.24236E-01
 -1      1139 6.44891E-01
 -1      1140 7.31138E-01
 -1      1141 7.74635E-01
 -1      1142 7.85049E-01
 -1      1143 8.64611E-01
 -1      1144 1.08560E+00
 -1      1145 1.62772E+00
 -1      1146 2.39455E+00
 -1      1147 2.87476E+00
 -1      1148 2.99543E+00
 -1      1149 3.01244E+00
 -1      1150 2.86797E+00
 -1      1151 2.32321E+00
 -1      1152 1.59670E+00
 -1      1153 1.11470E+00
 -1      1154 9.28309E-01
 -1      1155 8.70781E-01
 -1      1156 8.40090E-01
 -1      1157 8.14746E-01
 -1      1158 7.37566E-01
 -1      1159 6.13835E-01
 -1      1160 4.90104E-01
 -1      1161 3.95412E-01
 -1      1162 3.31501E-01
 -1      1163 2.79806E-01
 -1      1164 2.27097E-01
 -1      1165 1.78152E-01
 -1      1166 1.35421E-01
 -1      1167 1.02613E-01
 -1      1168 8.23100E-02
 -1      1169 6.83137E-02
 -1      1170 5.51662E-02
 -1      1171 4.33901E-02
 -1      1172 3.31815E-02
 -1      1173 2.48562E-02
 -1      1174 1.92874E-02
 -1      1175 1.53891E-02
 -1      1176 1.15217E-02
 -1      1177 7.82189E-03
 -1      1178 5.52911E-03
 -1      1179 4.13844E-03
 -1      1180 1.97221E-03
 -1      1181 1.37111E+01
 -1      1182 8.54252E+00
 -1      1183 2.85216E+00
 -1      1184 1.97019E+00
 -1      1185 1.50275E+00
 -1      1186 1.30859E+00
 -1      1187 1.14624E+00
 -1      1188 1.08228E+00
 -1      1189 1.09886E+00
 -1      1190 1.12129E+00
 -1      1191 1.32883E+00
 -1      1192 1.62845E+00
 -1      1193 1.88066E+00
 -1      1194 2.07879E+00
 -1      1195 2.36243E+00
 -1      1196 3.16599E+00
 -1      1197 4.41281E+00
 -1      1198 5.43787E+00
 -1      1199 5.79139E+00
 -1      1200 5.36934E+00
 -1      1201 3.79527E+00
 -1      1202 2.16913E+00
 -1      1203 1.81419E+00
 -1      1204 1.98433E+00
 -1      1205 2.03530E+00
 -1      1206 1.94016E+00
 -1      1207 1.69612E+00
 -1      1208 1.41394E+00
 -1      1209 1.14631E+00
 -1      1210 8.91238E-01
 -1      1211 6.69267E-01
 -1      1212 4.91347E-01
 -1      1213 3.66102E-01
 -1      1214 2.77797E-01
 -1      1215 2.06418E-01
 -1      1216 1.50178E-01
 -1      1217 1.06777E-01
 -1      1218 7.38939E-02
 -1      1219 5.33937E-02
 -1      1220 4.26826E-02
 -1      1221 3.45137E-02
 -1      1222 2.72684E-02
 -1      1223 2.15718E-02
 -1      1224 1.80166E-02
 -1      1225 1.53381E-02
 -1      1226 1.23283E-02
 -1      1227 9.13844E-03
 -1      1228 6.28790E-03
 -1      1229 4.12519E-03
 -1      1230 1.93088E-03
 -1      1231 1.08035E-03
 -1      1232 1.32408E-03
 -1      1233 8.21944E-04
 -1      1234 4.78880E-04
 -1      1235 5.44036E-04
 -1      1236 6.46870E-04
 -1      1237 6.75357E-04
 -1      1238 6.76784E-04
 -1      1239 6.71559E-04
 -1      1240 6.64765E-04
 -1      1241 6.53033E-04
 -1      1242 6.15888E-04
 -1      1243 5.14428E-04
 -1      1244 4.84719E-04
 -1      1245 1.01246E-03
 -1      1246 1.86885E-03
 -1      1247 1.46465E-03
 -1      1248 2.45819E+01
 -1      1249 3.71639E+01
 -1      1250 4.90311E+01
 -1      1251 3.56201E+01
 -1      1252 1.70785E+01
 -1      1253 1.22191E+01
 -1      1254 1.24904E+01
 -1      1255 1.33927E+01
 -1      1256 1.42950E+01
 -1      1257 1.47259E+01
 -1      1258 2.75804E+01
 -1      1259 4.00041E+01
 -1      1260 3.31477E+01
 -1      1261 2.62913E+01
 -1      1262 2.59401E+01
 -1      1263 2.66118E+01
 -1      1264 2.92652E+01
 -1      1265 3.08956E+01
 -1      1266 2.21116E+01
 -1      1267 1.28485E+01
 -1      1268 1.23694E+01
 -1      1269 1.25175E+01
 -1      1270 1.26655E+01
 -1      1271 1.24814E+01
 -1      1272 1.54073E+01
 -1      1273 3.27205E+01
 -1      1274 4.69237E+01
 -1      1275 3.58559E+01
 -1      1276 2.43277E+01
 -1      1277 1.28340E+01
 -1      1278 4.70308E+00
 -1      1279 9.34785E+00
 -1      1280 2.07389E+00
 -1      1281 2.93022E+00
 -1      1282 4.08879E+00
 -1      1283 1.45192E+00
 -1      1284 1.70061E+00
 -1      1285 1.94265E+00
 -1      1286 1.13650E+00
 -1      1287 1.26814E+00
 -1      1288 1.38559E+00
 -1      1289 9.32891E-01
 -1      1290 1.02476E+00
 -1      1291 1.09007E+00
 -1      1292 7.85868E-01
 -1      1293 8.54357E-01
 -1      1294 8.99795E-01
 -1      1295 6.75708E-01
 -1      1296 7.26682E-01
 -1      1297 7.62075E-01
 -1      1298 6.26449E-01
 -1      1299 6.33306E-01
 -1      1300 6.60486E-01
 -1      1301 7.11135E-01
 -1      1302 6.61492E-01
 -1      1303 6.53127E-01
 -1      1304 8.34544E-01
 -1      1305 7.68435E-01
 -1      1306 7.45470E-01
 -1      1307 1.01689E+00
 -1      1308 9.18238E-01
 -1      1309 8.86463E-01
 -1      1310 1.27623E+00
 -1      1311 1.13541E+00
 -1      1312 1.08868E+00
 -1      1313 1.71285E+00
 -1      1314 1.46547E+00
 -1      1315 1.39644E+00
 -1      1316 2.83753E+00
 -1      1317 2.07090E+00
 -1      1318 1.94373E+00
 -1      1319 6.05103E+00
 -1      1320 3.58418E+00
 -1      1321 3.04842E+00
 -1      1322 1.37111E+01
 -1      1323 1.10090E+01
 -1      1324 8.75307E+00
 -1      1325 1.37111E+01
 -1      1326 8.52130E+00
 -1      1327 4.20855E+00
 -1      1328 3.65860E+00
 -1      1329 3.10865E+00
 -1      1330 3.65860E+00
 -1      1331 2.48345E+00
 -1      1332 1.85824E+00
 -1      1333 2.48345E+00
 -1      1334 1.59581E+00
 -1      1335 1.33337E+00
 -1      1336 1.59581E+00
 -1      1337 1.14458E+00
 -1      1338 9.55786E-01
 -1      1339 1.14458E+00
 -1      1340 8.01059E-01
 -1      1341 6.46332E-01
 -1      1342 8.01059E-01
 -1      1343 6.24236E-01
 -1      1344 6.02141E-01
 -1      1345 6.24236E-01
 -1      1346 5.93130E-01
 -1      1347 6.35881E-01
 -1      1348 5.93130E-01
 -1      1349 6.87642E-01
 -1      1350 7.31138E-01
 -1      1351 6.35881E-01
 -1      1352 7.74635E-01
 -1      1353 7.74635E-01
 -1      1354 7.31138E-01
 -1      1355 7.47024E-01
 -1      1356 7.57438E-01
 -1      1357 7.47024E-01
 -1      1358 7.95464E-01
 -1      1359 8.64611E-01
 -1      1360 7.57438E-01
 -1      1361 9.33759E-01
 -1      1362 1.08560E+00
 -1      1363 8.64611E-01
 -1      1364 1.28642E+00
 -1      1365 1.67669E+00
 -1      1366 1.13457E+00
 -1      1367 2.01799E+00
 -1      1368 2.39455E+00
 -1      1369 1.67669E+00
 -1      1370 2.77110E+00
 -1      1371 2.87476E+00
 -1      1372 2.39455E+00
 -1      1373 2.97842E+00
 -1      1374 2.99543E+00
 -1      1375 2.87476E+00
 -1      1376 3.01244E+00
 -1      1377 3.01244E+00
 -1      1378 2.99543E+00
 -1      1379 2.86797E+00
 -1      1380 2.72350E+00
 -1      1381 2.86797E+00
 -1      1382 2.32321E+00
 -1      1383 1.92293E+00
 -1      1384 2.32321E+00
 -1      1385 1.59670E+00
 -1      1386 1.27048E+00
 -1      1387 1.59670E+00
 -1      1388 1.11470E+00
 -1      1389 9.58920E-01
 -1      1390 1.11470E+00
 -1      1391 9.28309E-01
 -1      1392 8.97698E-01
 -1      1393 9.28309E-01
 -1      1394 8.70781E-01
 -1      1395 8.43863E-01
 -1      1396 8.70781E-01
 -1      1397 8.40090E-01
 -1      1398 8.36316E-01
 -1      1399 8.40090E-01
 -1      1400 8.14746E-01
 -1      1401 7.93176E-01
 -1      1402 8.14746E-01
 -1      1403 7.37566E-01
 -1      1404 6.81957E-01
 -1      1405 7.37566E-01
 -1      1406 6.21914E-01
 -1      1407 5.53791E-01
 -1      1408 6.21914E-01
 -1      1409 5.10618E-01
 -1      1410 4.55010E-01
 -1      1411 5.18697E-01
 -1      1412 4.18156E-01
 -1      1413 3.79073E-01
 -1      1414 4.38670E-01
 -1      1415 3.39510E-01
 -1      1416 3.14683E-01
 -1      1417 3.62255E-01
 -1      1418 2.79806E-01
 -1      1419 2.52937E-01
 -1      1420 2.87815E-01
 -1      1421 2.27097E-01
 -1      1422 2.01257E-01
 -1      1423 2.27097E-01
 -1      1424 1.79378E-01
 -1      1425 1.56273E-01
 -1      1426 1.79378E-01
 -1      1427 1.38659E-01
 -1      1428 1.19034E-01
 -1      1429 1.39886E-01
 -1      1430 1.04036E-01
 -1      1431 9.08527E-02
 -1      1432 1.07273E-01
 -1      1433 8.23100E-02
 -1      1434 7.51896E-02
 -1      1435 8.37323E-02
 -1      1436 6.83137E-02
 -1      1437 6.14377E-02
 -1      1438 6.83137E-02
 -1      1439 5.51662E-02
 -1      1440 4.88946E-02
 -1      1441 5.51662E-02
 -1      1442 4.33901E-02
 -1      1443 3.78856E-02
 -1      1444 4.33901E-02
 -1      1445 3.31815E-02
 -1      1446 2.84775E-02
 -1      1447 3.31815E-02
 -1      1448 2.49765E-02
 -1      1449 2.13552E-02
 -1      1450 2.49765E-02
 -1      1451 1.92874E-02
 -1      1452 1.73399E-02
 -1      1453 1.94077E-02
 -1      1454 1.53891E-02
 -1      1455 1.34383E-02
 -1      1456 1.53891E-02
 -1      1457 1.15217E-02
 -1      1458 9.60505E-03
 -1      1459 1.15217E-02
 -1      1460 8.07103E-03
 -1      1461 6.28787E-03
 -1      1462 8.07103E-03
 -1      1463 5.52911E-03
 -1      1464 5.01948E-03
 -1      1465 5.77825E-03
 -1      1466 4.13844E-03
 -1      1467 3.25740E-03
 -1      1468 4.13844E-03
 -1      1469 2.74984E-03
 -1      1470 2.74984E-03
 -1      1471 3.37396E+00
 -1      1472 8.54252E+00
 -1      1473 8.54252E+00
 -1      1474 2.33036E+00
 -1      1475 2.85216E+00
 -1      1476 2.85216E+00
 -1      1477 1.61001E+00
 -1      1478 1.97019E+00
 -1      1479 1.97019E+00
 -1      1480 1.39549E+00
 -1      1481 1.50275E+00
 -1      1482 1.50275E+00
 -1      1483 1.22170E+00
 -1      1484 1.30859E+00
 -1      1485 1.30859E+00
 -1      1486 1.07077E+00
 -1      1487 1.14624E+00
 -1      1488 1.14624E+00
 -1      1489 1.05338E+00
 -1      1490 1.04187E+00
 -1      1491 1.04187E+00
 -1      1492 1.09886E+00
 -1      1493 1.09378E+00
 -1      1494 1.05338E+00
 -1      1495 1.12129E+00
 -1      1496 1.10394E+00
 -1      1497 1.09886E+00
 -1      1498 1.36981E+00
 -1      1499 1.17961E+00
 -1      1500 1.16227E+00
 -1      1501 1.62845E+00
 -1      1502 1.51902E+00
 -1      1503 1.36981E+00
 -1      1504 1.88066E+00
 -1      1505 1.73788E+00
 -1      1506 1.62845E+00
 -1      1507 2.07879E+00
 -1      1508 2.02345E+00
 -1      1509 1.88066E+00
 -1      1510 2.36243E+00
 -1      1511 2.13413E+00
 -1      1512 2.07879E+00
 -1      1513 3.16599E+00
 -1      1514 2.59072E+00
 -1      1515 2.36243E+00
 -1      1516 4.41281E+00
 -1      1517 3.74126E+00
 -1      1518 3.16599E+00
 -1      1519 5.43787E+00
 -1      1520 5.08435E+00
 -1      1521 4.41281E+00
 -1      1522 5.79139E+00
 -1      1523 5.79139E+00
 -1      1524 5.43787E+00
 -1      1525 4.94730E+00
 -1      1526 5.36934E+00
 -1      1527 5.36934E+00
 -1      1528 2.64325E+00
 -1      1529 3.79527E+00
 -1      1530 3.79527E+00
 -1      1531 1.66559E+00
 -1      1532 2.13970E+00
 -1      1533 2.13970E+00
 -1      1534 1.81419E+00
 -1      1535 1.69502E+00
 -1      1536 1.66559E+00
 -1      1537 1.98433E+00
 -1      1538 1.93335E+00
 -1      1539 1.81419E+00
 -1      1540 2.03530E+00
 -1      1541 2.03530E+00
 -1      1542 1.98433E+00
 -1      1543 1.84502E+00
 -1      1544 1.94016E+00
 -1      1545 1.94016E+00
 -1      1546 1.54722E+00
 -1      1547 1.69612E+00
 -1      1548 1.69612E+00
 -1      1549 1.28081E+00
 -1      1550 1.41410E+00
 -1      1551 1.41410E+00
 -1      1552 1.02752E+00
 -1      1553 1.16185E+00
 -1      1554 1.16202E+00
 -1      1555 7.93313E-01
 -1      1556 9.14054E-01
 -1      1557 9.29594E-01
 -1      1558 5.92942E-01
 -1      1559 6.94174E-01
 -1      1560 7.16989E-01
 -1      1561 4.34440E-01
 -1      1562 5.11129E-01
 -1      1563 5.36036E-01
 -1      1564 3.22613E-01
 -1      1565 3.71169E-01
 -1      1566 3.90951E-01
 -1      1567 2.38048E-01
 -1      1568 2.77797E-01
 -1      1569 2.82864E-01
 -1      1570 1.74789E-01
 -1      1571 2.06418E-01
 -1      1572 2.06418E-01
 -1      1573 1.26456E-01
 -1      1574 1.51068E-01
 -1      1575 1.51068E-01
 -1      1576 8.97721E-02
 -1      1577 1.08561E-01
 -1      1578 1.09451E-01
 -1      1579 6.20137E-02
 -1      1580 7.61083E-02
 -1      1581 7.78919E-02
 -1      1582 4.69881E-02
 -1      1583 5.33937E-02
 -1      1584 5.56081E-02
 -1      1585 3.83771E-02
 -1      1586 4.26826E-02
 -1      1587 4.26826E-02
 -1      1588 3.06502E-02
 -1      1589 3.45137E-02
 -1      1590 3.45137E-02
 -1      1591 2.38865E-02
 -1      1592 2.72684E-02
 -1      1593 2.72684E-02
 -1      1594 1.92570E-02
 -1      1595 2.15718E-02
 -1      1596 2.15718E-02
 -1      1597 1.67763E-02
 -1      1598 1.80166E-02
 -1      1599 1.80166E-02
 -1      1600 1.39000E-02
 -1      1601 1.53381E-02
 -1      1602 1.53381E-02
 -1      1603 1.07566E-02
 -1      1604 1.23283E-02
 -1      1605 1.23283E-02
 -1      1606 7.52025E-03
 -1      1607 9.13844E-03
 -1      1608 9.13844E-03
 -1      1609 5.05554E-03
 -1      1610 6.28790E-03
 -1      1611 6.28790E-03
 -1      1612 3.19483E-03
 -1      1613 4.12519E-03
 -1      1614 4.12519E-03
 -1      1615 2.34430E-03
 -1      1616 1.17094E-03
 -1      1617 1.34062E-03
 -1      1618 7.36631E-04
 -1      1619 1.06908E-03
 -1      1620 1.08562E-03
 -1      1621 6.19016E-04
 -1      1622 6.29634E-04
 -1      1623 8.76767E-04
 -1      1624 8.31959E-04
 -1      1625 7.56186E-04
 -1      1626 9.06939E-04
 -1      1627 9.18228E-04
 -1      1628 8.91168E-04
 -1      1629 1.10332E-03
 -1      1630 9.25541E-04
 -1      1631 9.24114E-04
 -1      1632 1.16841E-03
 -1      1633 9.25541E-04
 -1      1634 9.25541E-04
 -1      1635 1.17430E-03
 -1      1636 9.16745E-04
 -1      1637 9.21970E-04
 -1      1638 1.17073E-03
 -1      1639 9.08774E-04
 -1      1640 9.10342E-04
 -1      1641 1.16075E-03
 -1      1642 8.91121E-04
 -1      1643 9.01285E-04
 -1      1644 1.14686E-03
 -1      1645 8.48582E-04
 -1      1646 8.75563E-04
 -1      1647 1.12381E-03
 -1      1648 7.18869E-04
 -1      1649 7.93348E-04
 -1      1650 1.05302E-03
 -1      1651 6.26277E-04
 -1      1652 5.81507E-04
 -1      1653 8.60428E-04
 -1      1654 1.10924E-03
 -1      1655 6.26277E-04
 -1      1656 7.23065E-04
 -1      1657 2.16029E-03
 -1      1658 1.78686E-03
 -1      1659 1.40069E-03
 -1      1660 2.66785E-03
 -1      1661 2.72415E+01
 -1      1662 2.65267E+01
 -1      1663 3.94406E+01
 -1      1664 2.75734E+01
 -1      1665 4.90311E+01
 -1      1666 4.90311E+01
 -1      1667 2.34842E+01
 -1      1668 3.68952E+01
 -1      1669 1.18155E+01
 -1      1670 1.69461E+01
 -1      1671 1.22191E+01
 -1      1672 1.19478E+01
 -1      1673 1.24904E+01
 -1      1674 1.24904E+01
 -1      1675 1.31414E+01
 -1      1676 1.22391E+01
 -1      1677 1.42950E+01
 -1      1678 1.42950E+01
 -1      1679 1.40413E+01
 -1      1680 1.36105E+01
 -1      1681 2.76688E+01
 -1      1682 1.52450E+01
 -1      1683 4.00041E+01
 -1      1684 4.00041E+01
 -1      1685 3.11106E+01
 -1      1686 3.79670E+01
 -1      1687 2.70928E+01
 -1      1688 2.70928E+01
 -1      1689 2.67416E+01
 -1      1690 2.70928E+01
 -1      1691 2.66118E+01
 -1      1692 2.55889E+01
 -1      1693 3.06848E+01
 -1      1694 2.90544E+01
 -1      1695 3.08956E+01
 -1      1696 3.08956E+01
 -1      1697 1.33276E+01
 -1      1698 2.21116E+01
 -1      1699 1.18946E+01
 -1      1700 1.23737E+01
 -1      1701 1.23694E+01
 -1      1702 1.23694E+01
 -1      1703 1.24027E+01
 -1      1704 1.22546E+01
 -1      1705 1.26655E+01
 -1      1706 1.26655E+01
 -1      1707 1.22972E+01
 -1      1708 1.24814E+01
 -1      1709 1.45676E+01
 -1      1710 1.14575E+01
 -1      1711 3.34765E+01
 -1      1712 1.92734E+01
 -1      1713 4.69237E+01
 -1      1714 4.69237E+01
 -1      1715 2.65906E+01
 -1      1716 3.76583E+01
 -1      1717 2.65267E+01
 -1      1718 2.69872E+01
 -1      1719 1.82212E+01
 -1      1720 3.68952E+01
 -1      1721 2.34430E-03
 -1      1722 2.19116E-03
 -1      1723 2.95182E+01
 -1      1724 3.94406E+01
 -1      1725 2.91863E+01
 -1      1726 1.18155E+01
 -1      1727 1.22191E+01
 -1      1728 1.22391E+01
 -1      1729 1.31414E+01
 -1      1730 1.36105E+01
 -1      1731 1.41297E+01
 -1      1732 2.76688E+01
 -1      1733 3.79670E+01
 -1      1734 3.19121E+01
 -1      1735 2.78943E+01
 -1      1736 2.67416E+01
 -1      1737 2.80315E+01
 -1      1738 3.06848E+01
 -1      1739 2.21116E+01
 -1      1740 1.23737E+01
 -1      1741 1.18946E+01
 -1      1742 1.22546E+01
 -1      1743 1.24027E+01
 -1      1744 1.24814E+01
 -1      1745 1.14575E+01
 -1      1746 1.53236E+01
 -1      1747 3.34765E+01
 -1      1748 3.76583E+01
 -1      1749 2.87896E+01
 -1      1750 9.34785E+00
 -1      1751 1.33630E+00
 -1      1752 1.70958E+00
 -1      1753 2.35568E+00
 -1      1754 4.12855E+00
 -1      1755 1.74934E+00
 -1      1756 9.07866E-01
 -1      1757 1.01961E+00
 -1      1758 7.62899E-01
 -1      1759 8.41433E-01
 -1      1760 7.70970E-01
 -1      1761 6.53288E-01
 -1      1762 7.12474E-01
 -1      1763 6.54113E-01
 -1      1764 5.68777E-01
 -1      1765 6.11179E-01
 -1      1766 5.61579E-01
 -1      1767 5.97352E-01
 -1      1768 5.62310E-01
 -1      1769 5.13003E-01
 -1      1770 6.95057E-01
 -1      1771 6.37757E-01
 -1      1772 5.46939E-01
 -1      1773 8.33325E-01
 -1      1774 7.49631E-01
 -1      1775 6.41918E-01
 -1      1776 1.01812E+00
 -1      1777 8.99595E-01
 -1      1778 7.62763E-01
 -1      1779 1.28838E+00
 -1      1780 1.09914E+00
 -1      1781 9.10060E-01
 -1      1782 1.75994E+00
 -1      1783 1.40189E+00
 -1      1784 1.10459E+00
 -1      1785 2.56798E+00
 -1      1786 1.82133E+00
 -1      1787 1.27949E+00
 -1      1788 7.85416E+00
 -1      1789 2.89616E+00
 -1      1790 1.66907E+00
 -1      1791 2.68560E+00
 -1      1792 5.03510E+00
 -1      1793 1.98760E+00
 -1      1794 2.50940E+00
 -1      1795 1.82105E+00
 -1      1796 3.30199E+00
 -1      1797 2.29949E+00
 -1      1798 1.67429E+00
 -1      1799 1.40993E+00
 -1      1800 1.14749E+00
 -1      1801 1.22598E+00
 -1      1802 1.00217E+00
 -1      1803 8.13380E-01
 -1      1804 8.16298E-01
 -1      1805 7.27988E-01
 -1      1806 5.73261E-01
 -1      1807 5.85582E-01
 -1      1808 5.27319E-01
 -1      1809 5.05224E-01
 -1      1810 4.54248E-01
 -1      1811 5.05235E-01
 -1      1812 4.96224E-01
 -1      1813 4.08318E-01
 -1      1814 4.97678E-01
 -1      1815 5.49439E-01
 -1      1816 4.09783E-01
 -1      1817 5.79837E-01
 -1      1818 6.23334E-01
 -1      1819 4.41634E-01
 -1      1820 5.97074E-01
 -1      1821 5.69463E-01
 -1      1822 4.45772E-01
 -1      1823 5.78122E-01
 -1      1824 6.16147E-01
 -1      1825 4.28171E-01
 -1      1826 7.15432E-01
 -1      1827 7.84579E-01
 -1      1828 5.36115E-01
 -1      1829 9.69411E-01
 -1      1830 1.17023E+00
 -1      1831 8.20232E-01
 -1      1832 1.35531E+00
 -1      1833 1.69661E+00
 -1      1834 1.19015E+00
 -1      1835 1.88316E+00
 -1      1836 2.25971E+00
 -1      1837 1.56178E+00
 -1      1838 2.35249E+00
 -1      1839 2.45615E+00
 -1      1840 1.84110E+00
 -1      1841 2.41693E+00
 -1      1842 2.43394E+00
 -1      1843 1.89467E+00
 -1      1844 2.47854E+00
 -1      1845 2.33407E+00
 -1      1846 1.90004E+00
 -1      1847 2.21898E+00
 -1      1848 1.81869E+00
 -1      1849 1.82955E+00
 -1      1850 1.62686E+00
 -1      1851 1.30064E+00
 -1      1852 1.52263E+00
 -1      1853 1.09745E+00
 -1      1854 9.41671E-01
 -1      1855 1.12761E+00
 -1      1856 7.34692E-01
 -1      1857 7.04081E-01
 -1      1858 7.17444E-01
 -1      1859 6.66918E-01
 -1      1860 6.40000E-01
 -1      1861 4.73301E-01
 -1      1862 6.83316E-01
 -1      1863 6.79543E-01
 -1      1864 4.79453E-01
 -1      1865 7.24109E-01
 -1      1866 7.02539E-01
 -1      1867 5.67336E-01
 -1      1868 7.00629E-01
 -1      1869 6.45020E-01
 -1      1870 6.09992E-01
 -1      1871 6.15372E-01
 -1      1872 5.55328E-01
 -1      1873 5.78434E-01
 -1      1874 5.25230E-01
 -1      1875 4.82057E-01
 -1      1876 5.18688E-01
 -1      1877 4.53886E-01
 -1      1878 4.17033E-01
 -1      1879 4.60420E-01
 -1      1880 3.84678E-01
 -1      1881 3.45115E-01
 -1      1882 3.99894E-01
 -1      1883 3.10764E-01
 -1      1884 2.75887E-01
 -1      1885 3.33187E-01
 -1      1886 2.43294E-01
 -1      1887 2.17454E-01
 -1      1888 2.66243E-01
 -1      1889 1.88685E-01
 -1      1890 1.66806E-01
 -1      1891 2.04882E-01
 -1      1892 1.42719E-01
 -1      1893 1.25105E-01
 -1      1894 1.52026E-01
 -1      1895 1.07273E-01
 -1      1896 9.22750E-02
 -1      1897 1.10107E-01
 -1      1898 7.99637E-02
 -1      1899 7.14209E-02
 -1      1900 7.99637E-02
 -1      1901 6.19686E-02
 -1      1902 5.50927E-02
 -1      1903 5.81999E-02
 -1      1904 4.93761E-02
 -1      1905 4.31045E-02
 -1      1906 4.30310E-02
 -1      1907 3.99185E-02
 -1      1908 3.44140E-02
 -1      1909 3.41284E-02
 -1      1910 3.13711E-02
 -1      1911 2.66671E-02
 -1      1912 2.78996E-02
 -1      1913 2.38795E-02
 -1      1914 2.03785E-02
 -1      1915 2.20691E-02
 -1      1916 1.78948E-02
 -1      1917 1.58270E-02
 -1      1918 1.67978E-02
 -1      1919 1.42226E-02
 -1      1920 1.22718E-02
 -1      1921 1.27097E-02
 -1      1922 1.10841E-02
 -1      1923 9.16751E-03
 -1      1924 9.91766E-03
 -1      1925 7.91307E-03
 -1      1926 6.37905E-03
 -1      1927 7.47553E-03
 -1      1928 5.40532E-03
 -1      1929 4.64656E-03
 -1      1930 5.24736E-03
 -1      1931 3.94805E-03
 -1      1932 3.06700E-03
 -1      1933 2.47746E-03
 -1      1934 3.57512E-03
 -1      1935 1.30349E+00
 -1      1936 1.66367E+00
 -1      1937 1.32091E+00
 -1      1938 1.07008E+00
 -1      1939 1.17734E+00
 -1      1940 8.70820E-01
 -1      1941 9.74142E-01
 -1      1942 1.06104E+00
 -1      1943 7.35627E-01
 -1      1944 8.73314E-01
 -1      1945 9.48777E-01
 -1      1946 7.01221E-01
 -1      1947 9.42081E-01
 -1      1948 9.70980E-01
 -1      1949 7.73522E-01
 -1      1950 1.10440E+00
 -1      1951 1.06400E+00
 -1      1952 9.93106E-01
 -1      1953 1.20623E+00
 -1      1954 1.20115E+00
 -1      1955 1.21177E+00
 -1      1956 1.32258E+00
 -1      1957 1.26425E+00
 -1      1958 1.36653E+00
 -1      1959 1.48381E+00
 -1      1960 1.33460E+00
 -1      1961 1.43658E+00
 -1      1962 1.54278E+00
 -1      1963 1.43335E+00
 -1      1964 1.39815E+00
 -1      1965 1.67496E+00
 -1      1966 1.53218E+00
 -1      1967 1.33708E+00
 -1      1968 1.82504E+00
 -1      1969 1.76970E+00
 -1      1970 1.42121E+00
 -1      1971 2.49076E+00
 -1      1972 2.26246E+00
 -1      1973 1.95337E+00
 -1      1974 3.28627E+00
 -1      1975 2.71100E+00
 -1      1976 2.61104E+00
 -1      1977 4.21354E+00
 -1      1978 3.54199E+00
 -1      1979 3.08700E+00
 -1      1980 4.55487E+00
 -1      1981 4.20136E+00
 -1      1982 3.33054E+00
 -1      1983 3.96218E+00
 -1      1984 4.38422E+00
 -1      1985 3.14771E+00
 -1      1986 2.29691E+00
 -1      1987 3.44894E+00
 -1      1988 2.46382E+00
 -1      1989 1.44935E+00
 -1      1990 1.95289E+00
 -1      1991 1.60656E+00
 -1      1992 1.51206E+00
 -1      1993 1.48263E+00
 -1      1994 1.29582E+00
 -1      1995 1.73433E+00
 -1      1996 1.61516E+00
 -1      1997 1.43220E+00
 -1      1998 1.77780E+00
 -1      1999 1.72682E+00
 -1      2000 1.52779E+00
 -1      2001 1.66694E+00
 -1      2002 1.76208E+00
 -1      2003 1.50458E+00
 -1      2004 1.44336E+00
 -1      2005 1.59226E+00
 -1      2006 1.41418E+00
 -1      2007 1.22464E+00
 -1      2008 1.35777E+00
 -1      2009 1.25391E+00
 -1      2010 1.00683E+00
 -1      2011 1.12579E+00
 -1      2012 1.06946E+00
 -1      2013 7.95447E-01
 -1      2014 9.08912E-01
 -1      2015 8.72683E-01
 -1      2016 6.07861E-01
 -1      2017 7.07001E-01
 -1      2018 6.86319E-01
 -1      2019 4.51314E-01
 -1      2020 5.33128E-01
 -1      2021 5.23139E-01
 -1      2022 3.27680E-01
 -1      2023 3.90951E-01
 -1      2024 3.88043E-01
 -1      2025 2.35691E-01
 -1      2026 2.80508E-01
 -1      2027 2.80508E-01
 -1      2028 1.74105E-01
 -1      2029 2.05734E-01
 -1      2030 2.03378E-01
 -1      2031 1.27346E-01
 -1      2032 1.51068E-01
 -1      2033 1.50383E-01
 -1      2034 9.15557E-02
 -1      2035 1.09451E-01
 -1      2036 1.09451E-01
 -1      2037 6.42281E-02
 -1      2038 7.78919E-02
 -1      2039 7.78919E-02
 -1      2040 4.53445E-02
 -1      2041 5.39645E-02
 -1      2042 5.39645E-02
 -1      2043 3.35550E-02
 -1      2044 3.78605E-02
 -1      2045 3.62169E-02
 -1      2046 2.75109E-02
 -1      2047 3.13743E-02
 -1      2048 2.65522E-02
 -1      2049 2.19315E-02
 -1      2050 2.53133E-02
 -1      2051 2.21739E-02
 -1      2052 1.75157E-02
 -1      2053 1.98304E-02
 -1      2054 1.78754E-02
 -1      2055 1.43402E-02
 -1      2056 1.55806E-02
 -1      2057 1.38393E-02
 -1      2058 1.14898E-02
 -1      2059 1.29279E-02
 -1      2060 1.04919E-02
 -1      2061 9.12105E-03
 -1      2062 1.06927E-02
 -1      2063 8.28251E-03
 -1      2064 6.59497E-03
 -1      2065 8.21317E-03
 -1      2066 6.57758E-03
 -1      2067 4.62120E-03
 -1      2068 5.85355E-03
 -1      2069 4.92828E-03
 -1      2070 3.02082E-03
 -1      2071 3.95118E-03
 -1      2072 3.51684E-03
 -1      2073 2.01715E-03
 -1      2074 1.23017E-03
 -1      2075 1.09300E-03
 -1      2076 1.37001E-03
 -1      2077 1.47701E-03
 -1      2078 1.69324E-03
 -1      2079 1.60296E-03
 -1      2080 1.70482E-03
 -1      2081 2.53448E-03
 -1      2082 2.09621E-03
 -1      2083 1.33627E-03
 -1      2084 1.27706E-03
 -1      2085 1.46312E-03
 -1      2086 1.34215E-03
 -1      2087 1.33627E-03
 -1      2088 1.51001E-03
 -1      2089 1.31299E-03
 -1      2090 1.31299E-03
 -1      2091 1.48085E-03
 -1      2092 1.27332E-03
 -1      2093 1.27689E-03
 -1      2094 1.41558E-03
 -1      2095 1.25831E-03
 -1      2096 1.26471E-03
 -1      2097 1.37087E-03
 -1      2098 1.26765E-03
 -1      2099 1.27514E-03
 -1      2100 1.37910E-03
 -1      2101 1.26442E-03
 -1      2102 1.27997E-03
 -1      2103 1.40825E-03
 -1      2104 1.20918E-03
 -1      2105 1.26442E-03
 -1      2106 1.42058E-03
 -1      2107 1.04332E-03
 -1      2108 1.18069E-03
 -1      2109 1.39208E-03
 -1      2110 1.55626E-03
 -1      2111 1.55626E-03
 -1      2112 1.87652E-03
 -1      2113 3.94406E+01
 -1      2114 2.98501E+01
 -1      2115 3.10125E+01
 -1      2116 3.10125E+01
 -1      2117 3.13444E+01
 -1      2118 3.10125E+01
 -1      2119 2.10518E+01
 -1      2120 3.31878E+01
 -1      2121 1.09928E+01
 -1      2122 1.75309E+01
 -1      2123 1.08750E+00
 -1      2124 1.27128E+00
 -1      2125 1.03821E+00
 -1      2126 9.05295E-01
 -1      2127 1.09960E+01
 -1      2128 1.07247E+01
 -1      2129 1.12960E+01
 -1      2130 1.15474E+01
 -1      2131 1.25737E+01
 -1      2132 1.14201E+01
 -1      2133 1.07284E+01
 -1      2134 1.04991E+01
 -1      2135 1.11836E+01
 -1      2136 1.14046E+01
 -1      2137 1.02009E+01
 -1      2138 2.65401E+01
 -1      2139 1.42047E+01
 -1      2140 2.92837E+01
 -1      2141 3.13208E+01
 -1      2142 2.78671E+01
 -1      2143 3.18850E+01
 -1      2144 2.52387E+01
 -1      2145 3.26900E+01
 -1      2146 3.26900E+01
 -1      2147 3.15373E+01
 -1      2148 3.26900E+01
 -1      2149 2.80998E+01
 -1      2150 2.56573E+01
 -1      2151 2.57096E+01
 -1      2152 2.54988E+01
 -1      2153 1.26907E+01
 -1      2154 2.14747E+01
 -1      2155 9.36750E+00
 -1      2156 1.03214E+01
 -1      2157 1.09075E+01
 -1      2158 1.04327E+01
 -1      2159 8.38038E+00
 -1      2160 1.15083E+01
 -1      2161 1.16231E+01
 -1      2162 1.21381E+01
 -1      2163 1.18753E+01
 -1      2164 1.17170E+01
 -1      2165 1.19011E+01
 -1      2166 9.35712E+00
 -1      2167 1.01968E+01
 -1      2168 1.44428E+01
 -1      2169 9.73707E+00
 -1      2170 3.15895E+01
 -1      2171 1.81424E+01
 -1      2172 2.83930E+01
 -1      2173 3.76583E+01
 -1      2174 2.23242E+01
 -1      2175 2.88477E+01
 -1      2176 2.84511E+01
 -1      2177 9.75705E+00
 -1      2178 9.62470E+00
 -1      2179 8.93443E+00
 -1      2180 1.38235E+01
 -1      2181 2.75204E+00
 -1      2182 8.53398E+00
 -1      2183 1.94289E+00
 -1      2184 3.13444E+01
 -1      2185 3.28388E+01
 -1      2186 2.23388E-03
 -1      2187 2.35973E+01
 -1      2188 3.06740E+01
 -1      2189 2.65179E+01
 -1      2190 2.65179E+01
 -1      2191 2.65760E+01
 -1      2192 1.25558E+01
 -1      2193 8.47638E+00
 -1      2194 9.61660E+00
 -1      2195 1.13737E+01
 -1      2196 1.01612E+01
 -1      2197 9.68444E+00
 -1      2198 1.62886E+01
 -1      2199 2.31246E+01
 -1      2200 3.16057E+01
 -1      2201 3.26629E+01
 -1      2202 1.78567E+01
 -1      2203 1.02759E+01
 -1      2204 1.14582E+01
 -1      2205 9.73683E+00
 -1      2206 8.34676E+00
 -1      2207 1.00530E+01
 -1      2208 7.77406E+00
 -1      2209 3.74857E+01
 -1      2210 1.12437E+01
 -1      2211 8.75575E-01
 -1      2212 1.19951E+00
 -1      2213 5.52549E-01
 -1      2214 6.02973E-01
 -1      2215 6.35552E-01
 -1      2216 7.01985E-01
 -1      2217 5.33988E-01
 -1      2218 4.31314E-01
 -1      2219 4.37782E-01
 -1      2220 4.94038E-01
 -1      2221 4.53634E-01
 -1      2222 3.78413E-01
 -1      2223 5.86640E-01
 -1      2224 5.32066E-01
 -1      2225 4.38760E-01
 -1      2226 6.87829E-01
 -1      2227 6.21559E-01
 -1      2228 5.11706E-01
 -1      2229 7.88106E-01
 -1      2230 7.07079E-01
 -1      2231 5.65875E-01
 -1      2232 1.02722E+00
 -1      2233 9.13718E-01
 -1      2234 7.10738E-01
 -1      2235 1.05632E+01
 -1      2236 1.40842E+01
 -1      2237 6.19992E-01
 -1      2238 7.46144E-01
 -1      2239 6.24747E-01
 -1      2240 1.05236E+00
 -1      2241 7.88005E-01
 -1      2242 7.20094E+00
 -1      2243 6.23327E+00
 -1      2244 6.65601E-01
 -1      2245 5.20276E-01
 -1      2246 4.91983E-01
 -1      2247 4.58805E-01
 -1      2248 3.73413E-01
 -1      2249 3.08107E-01
 -1      2250 3.84394E-01
 -1      2251 3.38453E-01
 -1      2252 2.57617E-01
 -1      2253 3.70333E-01
 -1      2254 3.70344E-01
 -1      2255 3.00479E-01
 -1      2256 4.06622E-01
 -1      2257 4.08076E-01
 -1      2258 3.68637E-01
 -1      2259 4.37303E-01
 -1      2260 4.67701E-01
 -1      2261 4.34142E-01
 -1      2262 4.97491E-01
 -1      2263 4.71231E-01
 -1      2264 4.93160E-01
 -1      2265 5.46624E-01
 -1      2266 5.55283E-01
 -1      2267 5.98343E-01
 -1      2268 6.11299E-01
 -1      2269 7.10583E-01
 -1      2270 7.29751E-01
 -1      2271 8.14466E-01
 -1      2272 9.99298E-01
 -1      2273 8.89649E-01
 -1      2274 1.11372E+00
 -1      2275 1.29880E+00
 -1      2276 1.10795E+00
 -1      2277 1.37614E+00
 -1      2278 1.56268E+00
 -1      2279 1.29971E+00
 -1      2280 1.70767E+00
 -1      2281 1.80046E+00
 -1      2282 1.52203E+00
 -1      2283 1.80638E+00
 -1      2284 1.76716E+00
 -1      2285 1.67295E+00
 -1      2286 1.85840E+00
 -1      2287 1.90299E+00
 -1      2288 1.77011E+00
 -1      2289 1.78391E+00
 -1      2290 1.66882E+00
 -1      2291 1.74227E+00
 -1      2292 1.52050E+00
 -1      2293 1.32868E+00
 -1      2294 1.47487E+00
 -1      2295 1.24109E+00
 -1      2296 1.03790E+00
 -1      2297 1.23896E+00
 -1      2298 9.06295E-01
 -1      2299 6.99316E-01
 -1      2300 1.01977E+00
 -1      2301 6.45102E-01
 -1      2302 6.07938E-01
 -1      2303 8.33953E-01
 -1      2304 5.47842E-01
 -1      2305 5.91158E-01
 -1      2306 7.19643E-01
 -1      2307 5.70589E-01
 -1      2308 6.15156E-01
 -1      2309 6.38977E-01
 -1      2310 6.12327E-01
 -1      2311 6.10417E-01
 -1      2312 6.15581E-01
 -1      2313 5.86919E-01
 -1      2314 5.57271E-01
 -1      2315 5.89254E-01
 -1      2316 5.30312E-01
 -1      2317 5.00214E-01
 -1      2318 5.38797E-01
 -1      2319 4.74070E-01
 -1      2320 4.45899E-01
 -1      2321 4.85694E-01
 -1      2322 4.15916E-01
 -1      2323 3.83561E-01
 -1      2324 4.29567E-01
 -1      2325 3.50425E-01
 -1      2326 3.16074E-01
 -1      2327 3.66448E-01
 -1      2328 2.83625E-01
 -1      2329 2.51032E-01
 -1      2330 3.00863E-01
 -1      2331 2.21549E-01
 -1      2332 1.92780E-01
 -1      2333 2.38931E-01
 -1      2334 1.67371E-01
 -1      2335 1.43284E-01
 -1      2336 1.84038E-01
 -1      2337 1.22264E-01
 -1      2338 1.04433E-01
 -1      2339 1.37610E-01
 -1      2340 8.76285E-02
 -1      2341 7.53171E-02
 -1      2342 9.97863E-02
 -1      2343 6.22870E-02
 -1      2344 5.28346E-02
 -1      2345 6.99518E-02
 -1      2346 4.30233E-02
 -1      2347 3.73067E-02
 -1      2348 4.71103E-02
 -1      2349 3.10861E-02
 -1      2350 2.79001E-02
 -1      2351 3.10784E-02
 -1      2352 2.41637E-02
 -1      2353 2.11208E-02
 -1      2354 2.11213E-02
 -1      2355 1.99335E-02
 -1      2356 1.71459E-02
 -1      2357 1.61976E-02
 -1      2358 1.58127E-02
 -1      2359 1.33290E-02
 -1      2360 1.36771E-02
 -1      2361 1.19713E-02
 -1      2362 1.03670E-02
 -1      2363 1.09862E-02
 -1      2364 9.06803E-03
 -1      2365 7.88033E-03
 -1      2366 8.32965E-03
 -1      2367 7.01201E-03
 -1      2368 5.75757E-03
 -1      2369 6.16237E-03
 -1      2370 5.03663E-03
 -1      2371 4.06289E-03
 -1      2372 4.57310E-03
 -1      2373 6.01632E-01
 -1      2374 6.26997E-01
 -1      2375 8.17280E-01
 -1      2376 7.19613E-01
 -1      2377 6.45390E-01
 -1      2378 1.06146E+00
 -1      2379 9.39546E-01
 -1      2380 8.85638E-01
 -1      2381 1.26704E+00
 -1      2382 1.17029E+00
 -1      2383 1.11673E+00
 -1      2384 1.39698E+00
 -1      2385 1.33895E+00
 -1      2386 1.29748E+00
 -1      2387 1.55088E+00
 -1      2388 1.53886E+00
 -1      2389 1.51128E+00
 -1      2390 1.62855E+00
 -1      2391 1.67901E+00
 -1      2392 1.78128E+00
 -1      2393 1.70588E+00
 -1      2394 1.71649E+00
 -1      2395 1.99735E+00
 -1      2396 2.04786E+00
 -1      2397 1.95312E+00
 -1      2398 2.33253E+00
 -1      2399 2.69886E+00
 -1      2400 2.26144E+00
 -1      2401 2.79335E+00
 -1      2402 2.92222E+00
 -1      2403 2.70197E+00
 -1      2404 3.01004E+00
 -1      2405 5.32481E+00
 -1      2406 5.06909E+00
 -1      2407 5.16002E+00
 -1      2408 3.84796E+00
 -1      2409 3.86015E+00
 -1      2410 5.84223E+00
 -1      2411 3.15576E+00
 -1      2412 3.32641E+00
 -1      2413 3.85601E+00
 -1      2414 2.53750E+00
 -1      2415 3.05074E+00
 -1      2416 3.22944E+00
 -1      2417 1.70212E+00
 -1      2418 2.04615E+00
 -1      2419 2.63306E+00
 -1      2420 1.77246E+00
 -1      2421 1.73918E+00
 -1      2422 2.17876E+00
 -1      2423 1.81316E+00
 -1      2424 1.71006E+00
 -1      2425 2.15342E+00
 -1      2426 1.68376E+00
 -1      2427 1.69127E+00
 -1      2428 1.96913E+00
 -1      2429 1.53142E+00
 -1      2430 1.54714E+00
 -1      2431 1.71061E+00
 -1      2432 1.38401E+00
 -1      2433 1.45869E+00
 -1      2434 1.50125E+00
 -1      2435 1.21381E+00
 -1      2436 1.29940E+00
 -1      2437 1.34391E+00
 -1      2438 1.01340E+00
 -1      2439 1.11225E+00
 -1      2440 1.15775E+00
 -1      2441 8.13933E-01
 -1      2442 9.11850E-01
 -1      2443 9.54645E-01
 -1      2444 6.33394E-01
 -1      2445 7.21840E-01
 -1      2446 7.61007E-01
 -1      2447 4.80053E-01
 -1      2448 5.54786E-01
 -1      2449 5.90307E-01
 -1      2450 3.55302E-01
 -1      2451 4.15665E-01
 -1      2452 4.47312E-01
 -1      2453 2.56958E-01
 -1      2454 3.04131E-01
 -1      2455 3.31752E-01
 -1      2456 1.87293E-01
 -1      2457 2.17250E-01
 -1      2458 2.40873E-01
 -1      2459 1.34066E-01
 -1      2460 1.57103E-01
 -1      2461 1.70975E-01
 -1      2462 9.36486E-02
 -1      2463 1.11544E-01
 -1      2464 1.18264E-01
 -1      2465 6.35015E-02
 -1      2466 7.71652E-02
 -1      2467 7.92582E-02
 -1      2468 4.29395E-02
 -1      2469 5.32032E-02
 -1      2470 5.24765E-02
 -1      2471 2.93437E-02
 -1      2472 3.68277E-02
 -1      2473 3.60663E-02
 -1      2474 2.43715E-02
 -1      2475 2.65522E-02
 -1      2476 2.71630E-02
 -1      2477 1.99764E-02
 -1      2478 2.21739E-02
 -1      2479 2.21739E-02
 -1      2480 1.57744E-02
 -1      2481 1.78754E-02
 -1      2482 1.78754E-02
 -1      2483 1.19042E-02
 -1      2484 1.38393E-02
 -1      2485 1.38393E-02
 -1      2486 8.92814E-03
 -1      2487 1.03405E-02
 -1      2488 1.03405E-02
 -1      2489 7.19692E-03
 -1      2490 7.99397E-03
 -1      2491 7.84255E-03
 -1      2492 5.30687E-03
 -1      2493 6.21476E-03
 -1      2494 5.92622E-03
 -1      2495 4.07394E-03
 -1      2496 4.81535E-03
 -1      2497 4.45254E-03
 -1      2498 3.20451E-03
 -1      2499 1.75340E-03
 -1      2500 1.75340E-03
 -1      2501 1.54411E-03
 -1      2502 1.57327E-03
 -1      2503 1.81666E-03
 -1      2504 2.27960E-03
 -1      2505 2.55661E-03
 -1      2506 1.75340E-03
 -1      2507 1.70651E-03
 -1      2508 2.56988E-03
 -1      2509 1.99679E-03
 -1      2510 1.39909E-03
 -1      2511 1.43520E-03
 -1      2512 1.52763E-03
 -1      2513 1.36144E-03
 -1      2514 1.37005E-03
 -1      2515 1.38967E-03
 -1      2516 1.38712E-03
 -1      2517 1.37029E-03
 -1      2518 1.36946E-03
 -1      2519 1.48443E-03
 -1      2520 1.47210E-03
 -1      2521 1.46329E-03
 -1      2522 1.56171E-03
 -1      2523 1.56171E-03
 -1      2524 1.62556E-03
 -1      2525 1.54769E-03
 -1      2526 1.57619E-03
 -1      2527 1.71733E-03
 -1      2528 2.12988E-03
 -1      2529 1.61695E-03
 -1      2530 1.80106E-03
 -1      2531 3.28388E+01
 -1      2532 3.28388E+01
 -1      2533 1.54278E+01
 -1      2534 2.16806E+01
 -1      2535 5.54060E-01
 -1      2536 5.63101E-01
 -1      2537 4.54472E-01
 -1      2538 2.63304E-03
 -1      2539 3.11276E+01
 -1      2540 2.89628E+01
 -1      2541 3.11276E+01
 -1      2542 2.58524E+01
 -1      2543 2.73468E+01
 -1      2544 1.76830E+01
 -1      2545 1.66463E+00
 -1      2546 1.21208E+00
 -1      2547 7.74108E-01
 -1      2548 1.01853E+00
 -1      2549 1.22388E+01
 -1      2550 8.53926E+00
 -1      2551 6.97317E+00
 -1      2552 9.34245E+00
 -1      2553 1.69145E+01
 -1      2554 1.21338E+01
 -1      2555 4.74326E-01
 -1      2556 5.16435E-01
 -1      2557 4.65296E-01
 -1      2558 3.92638E-01
 -1      2559 9.08443E+00
 -1      2560 8.53308E+00
 -1      2561 5.90361E+00
 -1      2562 6.20180E+00
 -1      2563 9.55265E+00
 -1      2564 9.42863E+00
 -1      2565 3.74857E+01
 -1      2566 3.74857E+01
 -1      2567 1.05336E+01
 -1      2568 7.73357E+00
 -1      2569 2.20235E+01
 -1      2570 1.94222E+01
 -1      2571 9.75746E+00
 -1      2572 9.39049E+00
 -1      2573 3.26629E+01
 -1      2574 2.78400E+01
 -1      2575 3.26629E+01
 -1      2576 2.57256E+01
 -1      2577 3.16057E+01
 -1      2578 1.86311E+01
 -1      2579 2.12322E+01
 -1      2580 1.07369E+01
 -1      2581 1.49717E+01
 -1      2582 1.30793E+01
 -1      2583 8.02559E+00
 -1      2584 6.63521E+00
 -1      2585 5.56999E+00
 -1      2586 8.60553E+00
 -1      2587 7.88996E+00
 -1      2588 9.13728E+00
 -1      2589 9.37424E+00
 -1      2590 6.37190E+00
 -1      2591 7.89206E+00
 -1      2592 6.95214E+00
 -1      2593 6.57220E+00
 -1      2594 4.84766E+00
 -1      2595 2.15213E+01
 -1      2596 1.54525E+01
 -1      2597 6.66462E+00
 -1      2598 8.03274E+00
 -1      2599 1.38822E+00
 -1      2600 1.56442E+00
 -1      2601 1.23625E+00
 -1      2602 9.42890E-01
 -1      2603 6.23238E+00
 -1      2604 6.00128E-01
 -1      2605 7.35546E-01
 -1      2606 8.03438E-01
 -1      2607 1.21675E+01
 -1      2608 8.29342E+00
 -1      2609 1.17485E+00
 -1      2610 1.14359E+01
 -1      2611 5.33159E+00
 -1      2612 6.63508E+00
 -1      2613 2.39178E+01
 -1      2614 2.34642E+01
 -1      2615 2.15310E+01
 -1      2616 3.09159E-03
 -1      2617 2.96564E-03
 -1      2618 8.13265E+00
 -1      2619 6.13318E+00
 -1      2620 4.88795E+00
 -1      2621 2.73468E+01
 -1      2622 5.07957E+00
 -1      2623 4.38425E-01
 -1      2624 1.36993E+01
 -1      2625 9.53507E-01
 -1      2626 5.22801E+00
 -1      2627 7.52103E+00
 -1      2628 2.20235E+01
 -1      2629 9.59145E+00
 -1      2630 3.16057E+01
 -1      2631 8.43709E+00
 -1      2632 6.53115E+00
 -1      2633 6.80566E+00
 -1      2634 4.66070E+00
 -1      2635 6.16131E+00
 -1      2636 7.90871E+00
 -1      2637 7.11928E+00
 -1      2638 2.12322E+01
 -1      2639 2.69552E-03
 -1      2640 2.45195E-03
 -1      2641 2.19237E-03
 -1      2642 3.39403E-03
 -1      2643 1.96462E+01
 -1      2644 9.83975E-01
 -1      2645 3.55200E-03
 -1      2646 3.18330E-03
 -1      2647 3.94651E-01
 -1      2648 3.56623E-01
 -1      2649 3.24403E-01
 -1      2650 3.02083E-01
 -1      2651 2.80293E-01
 -1      2652 6.05399E-01
 -1      2653 5.86149E-01
 -1      2654 6.85687E-01
 -1      2655 5.60074E-01
 -1      2656 5.80348E-01
 -1      2657 3.73015E-03
 -1      2658 4.13917E-03
 -1      2659 4.63069E-03
 -1      2660 7.95264E-01
 -1      2661 6.69174E+00
 -1      2662 5.10461E+00
 -1      2663 3.60845E-01
 -1      2664 2.99373E-01
 -1      2665 2.84627E-01
 -1      2666 2.95608E-01
 -1      2667 3.37364E-01
 -1      2668 3.20586E-01
 -1      2669 3.52467E-01
 -1      2670 3.47596E-01
 -1      2671 3.94564E-01
 -1      2672 4.30842E-01
 -1      2673 4.14671E-01
 -1      2674 4.83866E-01
 -1      2675 5.13094E-01
 -1      2676 5.09793E-01
 -1      2677 5.67454E-01
 -1      2678 5.97244E-01
 -1      2679 6.17177E-01
 -1      2680 6.39993E-01
 -1      2681 7.15386E-01
 -1      2682 7.14287E-01
 -1      2683 8.46905E-01
 -1      2684 9.02921E-01
 -1      2685 8.88556E-01
 -1      2686 1.03028E+00
 -1      2687 1.13417E+00
 -1      2688 1.14744E+00
 -1      2689 1.18357E+00
 -1      2690 1.29798E+00
 -1      2691 1.32420E+00
 -1      2692 1.44422E+00
 -1      2693 1.52156E+00
 -1      2694 1.51984E+00
 -1      2695 1.52203E+00
 -1      2696 1.66703E+00
 -1      2697 1.66655E+00
 -1      2698 2.05307E+00
 -1      2699 2.05899E+00
 -1      2700 2.05307E+00
 -1      2701 2.81128E+00
 -1      2702 2.90252E+00
 -1      2703 3.19140E+00
 -1      2704 2.34704E+00
 -1      2705 2.22797E+00
 -1      2706 3.38822E+00
 -1      2707 1.62319E+00
 -1      2708 1.47487E+00
 -1      2709 2.22797E+00
 -1      2710 1.46062E+00
 -1      2711 1.37303E+00
 -1      2712 1.60894E+00
 -1      2713 1.21119E+00
 -1      2714 1.07959E+00
 -1      2715 1.43285E+00
 -1      2716 1.07402E+00
 -1      2717 1.01981E+00
 -1      2718 1.26544E+00
 -1      2719 8.93680E-01
 -1      2720 8.33583E-01
 -1      2721 1.13375E+00
 -1      2722 7.60486E-01
 -1      2723 7.39918E-01
 -1      2724 9.34524E-01
 -1      2725 7.00629E-01
 -1      2726 6.97801E-01
 -1      2727 8.22138E-01
 -1      2728 6.44691E-01
 -1      2729 6.21193E-01
 -1      2730 7.29740E-01
 -1      2731 5.70331E-01
 -1      2732 5.43372E-01
 -1      2733 6.25768E-01
 -1      2734 5.09313E-01
 -1      2735 4.83169E-01
 -1      2736 5.40847E-01
 -1      2737 4.46689E-01
 -1      2738 4.16705E-01
 -1      2739 4.70307E-01
 -1      2740 3.79670E-01
 -1      2741 3.46534E-01
 -1      2742 3.96792E-01
 -1      2743 3.11830E-01
 -1      2744 2.79381E-01
 -1      2745 3.25052E-01
 -1      2746 2.48543E-01
 -1      2747 2.19060E-01
 -1      2748 2.59510E-01
 -1      2749 1.92713E-01
 -1      2750 1.67303E-01
 -1      2751 2.02325E-01
 -1      2752 1.45488E-01
 -1      2753 1.24469E-01
 -1      2754 1.54162E-01
 -1      2755 1.06885E-01
 -1      2756 9.00812E-02
 -1      2757 1.14764E-01
 -1      2758 7.62501E-02
 -1      2759 6.32199E-02
 -1      2760 8.33493E-02
 -1      2761 5.25928E-02
 -1      2762 4.27815E-02
 -1      2763 5.88911E-02
 -1      2764 3.48087E-02
 -1      2765 2.85881E-02
 -1      2766 4.02911E-02
 -1      2767 2.27592E-02
 -1      2768 1.90228E-02
 -1      2769 2.64895E-02
 -1      2770 1.48865E-02
 -1      2771 1.36992E-02
 -1      2772 1.65244E-02
 -1      2773 1.15402E-02
 -1      2774 1.02069E-02
 -1      2775 1.02291E-02
 -1      2776 9.84918E-03
 -1      2777 8.49157E-03
 -1      2778 7.71230E-03
 -1      2779 7.90819E-03
 -1      2780 6.60924E-03
 -1      2781 6.77115E-03
 -1      2782 5.91852E-03
 -1      2783 5.05020E-03
 -1      2784 5.49706E-03
 -1      2785 4.35069E-03
 -1      2786 3.62974E-03
 -1      2787 4.10683E-03
 -1      2788 9.47004E-01
 -1      2789 8.24738E-01
 -1      2790 1.90276E+01
 -1      2791 1.40310E+01
 -1      2792 4.01233E+00
 -1      2793 4.44368E+00
 -1      2794 7.08821E-01
 -1      2795 5.90840E-01
 -1      2796 7.70187E-01
 -1      2797 1.41840E+00
 -1      2798 1.34648E+00
 -1      2799 1.71726E+00
 -1      2800 1.57539E+00
 -1      2801 1.62438E+00
 -1      2802 2.05624E+00
 -1      2803 1.92810E+00
 -1      2804 1.99222E+00
 -1      2805 2.48630E+00
 -1      2806 2.39836E+00
 -1      2807 2.54518E+00
 -1      2808 3.16932E+00
 -1      2809 2.92208E+00
 -1      2810 3.32308E+00
 -1      2811 3.00693E+00
 -1      2812 2.79335E+00
 -1      2813 3.38290E+00
 -1      2814 4.00160E+00
 -1      2815 3.99849E+00
 -1      2816 6.14847E+00
 -1      2817 3.12441E+00
 -1      2818 3.22944E+00
 -1      2819 2.70975E+00
 -1      2820 2.67270E+00
 -1      2821 2.71455E+00
 -1      2822 2.77695E+00
 -1      2823 3.27088E+00
 -1      2824 2.16825E+00
 -1      2825 2.29015E+00
 -1      2826 2.91367E+00
 -1      2827 1.77597E+00
 -1      2828 1.91260E+00
 -1      2829 2.23362E+00
 -1      2830 1.56142E+00
 -1      2831 1.63416E+00
 -1      2832 1.83615E+00
 -1      2833 1.33047E+00
 -1      2834 1.41507E+00
 -1      2835 1.54798E+00
 -1      2836 1.09535E+00
 -1      2837 1.19690E+00
 -1      2838 1.26806E+00
 -1      2839 8.77931E-01
 -1      2840 9.79477E-01
 -1      2841 1.01863E+00
 -1      2842 6.88343E-01
 -1      2843 7.80436E-01
 -1      2844 8.05267E-01
 -1      2845 5.29395E-01
 -1      2846 6.08003E-01
 -1      2847 6.27431E-01
 -1      2848 3.99914E-01
 -1      2849 4.64302E-01
 -1      2850 4.81998E-01
 -1      2851 2.96806E-01
 -1      2852 3.47978E-01
 -1      2853 3.64968E-01
 -1      2854 2.16257E-01
 -1      2855 2.55965E-01
 -1      2856 2.72191E-01
 -1      2857 1.54405E-01
 -1      2858 1.84595E-01
 -1      2859 1.99687E-01
 -1      2860 1.07686E-01
 -1      2861 1.30208E-01
 -1      2862 1.43828E-01
 -1      2863 7.29870E-02
 -1      2864 8.94704E-02
 -1      2865 1.01415E-01
 -1      2866 4.91968E-02
 -1      2867 5.94952E-02
 -1      2868 6.97074E-02
 -1      2869 3.32742E-02
 -1      2870 3.93860E-02
 -1      2871 4.64047E-02
 -1      2872 2.35019E-02
 -1      2873 2.62934E-02
 -1      2874 2.96131E-02
 -1      2875 1.72211E-02
 -1      2876 1.94186E-02
 -1      2877 1.85490E-02
 -1      2878 1.37663E-02
 -1      2879 1.58673E-02
 -1      2880 1.31120E-02
 -1      2881 1.09425E-02
 -1      2882 1.28776E-02
 -1      2883 1.08695E-02
 -1      2884 8.37494E-03
 -1      2885 9.93869E-03
 -1      2886 8.97697E-03
 -1      2887 6.44330E-03
 -1      2888 7.37747E-03
 -1      2889 6.97570E-03
 -1      2890 4.93244E-03
 -1      2891 5.91461E-03
 -1      2892 5.44953E-03
 -1      2893 4.61908E-03
 -1      2894 6.32020E-01
 -1      2895 6.73106E-01
 -1      2896 5.22443E-01
 -1      2897 5.02589E-01
 -1      2898 1.34555E-03
 -1      2899 1.37460E-03
 -1      2900 3.19434E-03
 -1      2901 2.52547E-03
 -1      2902 2.97192E-03
 -1      2903 1.71965E-03
 -1      2904 1.89978E-03
 -1      2905 1.34113E-03
 -1      2906 1.33228E-03
 -1      2907 1.31721E-03
 -1      2908 1.41871E-03
 -1      2909 1.52763E-03
 -1      2910 1.61074E-03
 -1      2911 1.37460E-03
 -1      2912 4.95877E+00
 -1      2913 7.48925E+00
 -1      2914 1.46329E-03
 -1      2915 1.37831E-03
 -1      2916 1.34113E-03
 -1      2917 1.69021E-03
 -1      2918 1.61292E-03
 -1      2919 1.52794E-03
 -1      2920 1.85077E-03
 -1      2921 1.83629E-03
 -1      2922 1.82365E-03
 -1      2923 4.67057E+00
 -1      2924 3.41582E+00
 -1      2925 8.15529E-01
 -1      2926 6.55809E-01
 -1      2927 2.40270E+01
 -1      2928 2.23158E+01
 -1      2929 1.25587E+01
 -1      2930 1.67305E+01
 -1      2931 2.59741E+01
 -1      2932 2.11512E+01
 -1      2933 6.08616E+00
 -1      2934 6.46938E+00
 -1      2935 2.13516E+01
 -1      2936 2.72316E+01
 -1      2937 5.02634E-01
 -1      2938 4.29697E-01
 -1      2939 5.66065E-01
 -1      2940 1.19354E+00
 -1      2941 1.08471E+00
 -1      2942 1.02381E+00
 -1      2943 1.31445E+00
 -1      2944 6.28062E-01
 -1      2945 5.05658E-01
 -1      2946 4.96924E-01
 -1      2947 6.69484E-01
 -1      2948 1.30957E+01
 -1      2949 1.05879E+01
 -1      2950 9.98234E+00
 -1      2951 1.13260E+01
 -1      2952 3.91941E+00
 -1      2953 5.32259E+00
 -1      2954 4.70893E-01
 -1      2955 4.35975E-01
 -1      2956 3.53838E-01
 -1      2957 5.10417E-01
 -1      2958 6.22522E+00
 -1      2959 4.39527E+00
 -1      2960 4.50904E-01
 -1      2961 4.83482E-01
 -1      2962 6.95246E+00
 -1      2963 6.60827E+00
 -1      2964 8.35208E-01
 -1      2965 6.33652E+00
 -1      2966 5.55155E+00
 -1      2967 9.33141E+00
 -1      2968 7.73123E+00
 -1      2969 2.20341E-03
 -1      2970 1.49859E+01
 -1      2971 1.94794E+01
 -1      2972 1.51053E+01
 -1      2973 4.09828E-01
 -1      2974 4.66718E-01
 -1      2975 4.73991E-01
 -1      2976 4.57990E-01
 -1      2977 5.74422E+00
 -1      2978 4.41208E+00
 -1      2979 2.06745E+01
 -1      2980 1.48581E+01
 -1      2981 1.93543E+01
 -1      2982 2.48463E+01
 -1      2983 4.09201E+00
 -1      2984 3.89171E+00
 -1      2985 1.08661E+01
 -1      2986 7.65235E+00
 -1      2987 6.12189E+00
 -1      2988 6.04152E-01
 -1      2989 6.37714E-01
 -1      2990 5.21068E-01
 -1      2991 2.69110E-01
 -1      2992 3.23121E-01
 -1      2993 3.59665E-01
 -1      2994 3.15705E-03
 -1      2995 1.17467E+01
 -1      2996 4.67038E+00
 -1      2997 8.00504E+00
 -1      2998 7.16347E+00
 -1      2999 1.68172E+01
 -1      3000 1.08994E+01
 -1      3001 7.11584E+00
 -1      3002 1.02807E+01
 -1      3003 2.42358E-03
 -1      3004 2.52059E-03
 -1      3005 2.52059E-03
 -1      3006 3.63950E+00
 -1      3007 7.96408E+00
 -1      3008 3.63950E+00
 -1      3009 5.01479E+00
 -1      3010 6.47946E+00
 -1      3011 3.85601E+00
 -1      3012 4.37757E+00
 -1      3013 3.14815E+00
 -1      3014 4.14867E+00
 -1      3015 7.77990E+00
 -1      3016 4.08015E+00
 -1      3017 4.32074E+00
 -1      3018 3.32450E+00
 -1      3019 1.42300E+01
 -1      3020 3.51040E+00
 -1      3021 3.88780E+00
 -1      3022 2.13416E-03
 -1      3023 8.72772E+00
 -1      3024 1.59158E+01
 -1      3025 5.66131E+00
 -1      3026 7.05572E+00
 -1      3027 4.53959E+00
 -1      3028 5.54422E+00
 -1      3029 4.49257E+00
 -1      3030 1.39858E+01
 -1      3031 4.90165E+00
 -1      3032 1.57200E+01
 -1      3033 1.03735E+01
 -1      3034 1.60345E+01
 -1      3035 2.54189E-03
 -1      3036 2.13953E-03
 -1      3037 2.25849E-03
 -1      3038 2.97729E-03
 -1      3039 3.52417E+00
 -1      3040 3.92206E-01
 -1      3041 4.28320E-01
 -1      3042 3.77814E-01
 -1      3043 3.22689E-01
 -1      3044 6.65460E-01
 -1      3045 4.35271E+00
 -1      3046 5.96518E+00
 -1      3047 1.22515E+01
 -1      3048 1.04987E+01
 -1      3049 8.93116E+00
 -1      3050 1.25905E+01
 -1      3051 8.10332E+00
 -1      3052 6.56688E+00
 -1      3053 5.67767E-01
 -1      3054 5.80348E-01
 -1      3055 5.31896E-01
 -1      3056 6.25672E-01
 -1      3057 3.63711E-01
 -1      3058 3.88689E-01
 -1      3059 4.32125E-01
 -1      3060 4.74223E-01
 -1      3061 4.48240E-01
 -1      3062 5.29038E-01
 -1      3063 5.82062E-01
 -1      3064 5.46492E-01
 -1      3065 6.68871E-01
 -1      3066 7.23231E-01
 -1      3067 6.88116E-01
 -1      3068 8.29966E-01
 -1      3069 8.72716E-01
 -1      3070 8.81660E-01
 -1      3071 9.88039E-01
 -1      3072 1.11956E+00
 -1      3073 1.10372E+00
 -1      3074 1.23788E+00
 -1      3075 1.36525E+00
 -1      3076 1.33737E+00
 -1      3077 1.63760E+00
 -1      3078 1.68700E+00
 -1      3079 1.72805E+00
 -1      3080 1.51984E+00
 -1      3081 1.66608E+00
 -1      3082 1.83324E+00
 -1      3083 1.75541E+00
 -1      3084 1.75588E+00
 -1      3085 1.75541E+00
 -1      3086 2.05307E+00
 -1      3087 2.43911E+00
 -1      3088 2.14192E+00
 -1      3089 3.39813E+00
 -1      3090 4.15042E+00
 -1      3091 3.39813E+00
 -1      3092 3.94716E+00
 -1      3093 3.39169E+00
 -1      3094 2.37963E+00
 -1      3095 2.36538E+00
 -1      3096 1.90588E+00
 -1      3097 1.74404E+00
 -1      3098 2.67657E+00
 -1      3099 1.64680E+00
 -1      3100 1.64123E+00
 -1      3101 2.11983E+00
 -1      3102 1.36231E+00
 -1      3103 1.23618E+00
 -1      3104 1.74367E+00
 -1      3105 1.14589E+00
 -1      3106 1.07280E+00
 -1      3107 1.37445E+00
 -1      3108 9.62674E-01
 -1      3109 9.23386E-01
 -1      3110 1.17404E+00
 -1      3111 8.15896E-01
 -1      3112 7.62786E-01
 -1      3113 9.56432E-01
 -1      3114 6.91505E-01
 -1      3115 6.40643E-01
 -1      3116 7.77661E-01
 -1      3117 5.82240E-01
 -1      3118 5.48181E-01
 -1      3119 6.47977E-01
 -1      3120 4.95945E-01
 -1      3121 4.59465E-01
 -1      3122 5.37338E-01
 -1      3123 4.11984E-01
 -1      3124 3.74949E-01
 -1      3125 4.37622E-01
 -1      3126 3.33273E-01
 -1      3127 2.98568E-01
 -1      3128 3.48465E-01
 -1      3129 2.63431E-01
 -1      3130 2.32593E-01
 -1      3131 2.71652E-01
 -1      3132 2.05959E-01
 -1      3133 1.79611E-01
 -1      3134 2.09880E-01
 -1      3135 1.57558E-01
 -1      3136 1.35743E-01
 -1      3137 1.61191E-01
 -1      3138 1.17394E-01
 -1      3139 9.98109E-02
 -1      3140 1.20790E-01
 -1      3141 8.54129E-02
 -1      3142 7.15818E-02
 -1      3143 8.80434E-02
 -1      3144 6.07153E-02
 -1      3145 5.00881E-02
 -1      3146 6.27789E-02
 -1      3147 4.21890E-02
 -1      3148 3.42162E-02
 -1      3149 4.40132E-02
 -1      3150 2.83557E-02
 -1      3151 2.25268E-02
 -1      3152 3.02535E-02
 -1      3153 1.82724E-02
 -1      3154 1.41361E-02
 -1      3155 2.01385E-02
 -1      3156 1.11282E-02
 -1      3157 8.96924E-03
 -1      3158 1.28762E-02
 -1      3159 6.91329E-03
 -1      3160 6.55553E-03
 -1      3161 7.81246E-03
 -1      3162 5.67859E-03
 -1      3163 5.09521E-03
 -1      3164 4.87958E-03
 -1      3165 4.99341E-03
 -1      3166 4.30270E-03
 -1      3167 3.90085E-03
 -1      3168 4.03611E-03
 -1      3169 3.33660E-03
 -1      3170 2.90656E-03
 -1      3171 3.53246E-03
 -1      3172 2.44387E+00
 -1      3173 2.23303E+00
 -1      3174 1.83610E+00
 -1      3175 1.67910E+00
 -1      3176 2.28775E+00
 -1      3177 5.06579E+00
 -1      3178 4.63001E+00
 -1      3179 3.99849E+00
 -1      3180 5.01479E+00
 -1      3181 3.67914E+00
 -1      3182 1.95099E+00
 -1      3183 2.09281E+00
 -1      3184 1.51385E+00
 -1      3185 1.66020E+00
 -1      3186 1.91686E+00
 -1      3187 1.19453E+00
 -1      3188 1.32809E+00
 -1      3189 1.44031E+00
 -1      3190 9.48061E-01
 -1      3191 1.06393E+00
 -1      3192 1.12396E+00
 -1      3193 7.42506E-01
 -1      3194 8.40001E-01
 -1      3195 8.85301E-01
 -1      3196 5.71058E-01
 -1      3197 6.51398E-01
 -1      3198 6.86133E-01
 -1      3199 4.31999E-01
 -1      3200 4.97092E-01
 -1      3201 5.21059E-01
 -1      3202 3.21529E-01
 -1      3203 3.73465E-01
 -1      3204 3.88559E-01
 -1      3205 2.35282E-01
 -1      3206 2.76123E-01
 -1      3207 2.84620E-01
 -1      3208 1.69717E-01
 -1      3209 2.01380E-01
 -1      3210 2.05312E-01
 -1      3211 1.22686E-01
 -1      3212 1.46883E-01
 -1      3213 1.48575E-01
 -1      3214 8.69130E-02
 -1      3215 1.05129E-01
 -1      3216 1.08184E-01
 -1      3217 6.00925E-02
 -1      3218 7.35843E-02
 -1      3219 7.72982E-02
 -1      3220 4.03143E-02
 -1      3221 5.01251E-02
 -1      3222 5.40021E-02
 -1      3223 2.60102E-02
 -1      3224 3.29909E-02
 -1      3225 3.67114E-02
 -1      3226 1.66580E-02
 -1      3227 2.07414E-02
 -1      3228 2.41192E-02
 -1      3229 1.16107E-02
 -1      3230 1.29645E-02
 -1      3231 1.51568E-02
 -1      3232 8.40962E-03
 -1      3233 9.29835E-03
 -1      3234 9.15087E-03
 -1      3235 6.88151E-03
 -1      3236 7.88530E-03
 -1      3237 6.31417E-03
 -1      3238 5.52372E-03
 -1      3239 6.52120E-03
 -1      3240 5.42954E-03
 -1      3241 5.97104E+00
 -1      3242 4.15075E+00
 -1      3243 1.55067E-03
 -1      3244 1.40104E-03
 -1      3245 2.71825E-01
 -1      3246 2.39604E-01
 -1      3247 1.11227E+01
 -1      3248 1.29949E+01
 -1      3249 1.24523E-03
 -1      3250 1.25849E-03
 -1      3251 1.10334E+01
 -1      3252 9.27104E+00
 -1      3253 1.96973E-03
 -1      3254 1.82365E-03
 -1      3255 1.69675E-03
 -1      3256 1.29353E-03
 -1      3257 1.25635E-03
 -1      3258 1.19763E-03
 -1      3259 1.31626E-03
 -1      3260 1.38471E+01
 -1      3261 1.13436E+01
 -1      3262 6.41116E-01
 -1      3263 5.52910E-01
 -1      3264 2.75908E+00
 -1      3265 3.26267E+00
 -1      3266 1.23600E+01
 -1      3267 1.18833E+01
 -1      3268 8.28801E+00
 -1      3269 9.52073E+00
 -1      3270 3.68086E-03
 -1      3271 3.88780E+00
 -1      3272 3.00681E+00
 -1      3273 1.26204E+01
 -1      3274 1.42224E+01
 -1      3275 9.65025E+00
 -1      3276 2.48694E+00
 -1      3277 2.74259E+00
 -1      3278 2.60178E+00
 -1      3279 1.34397E+01
 -1      3280 1.26204E+01
 -1      3281 1.00256E+01
 -1      3282 3.19618E+00
 -1      3283 3.62058E+00
 -1      3284 3.44950E+00
 -1      3285 6.69484E-01
 -1      3286 3.45007E+00
 -1      3287 3.10795E+00
 -1      3288 3.34877E+00
 -1      3289 5.19278E+00
 -1      3290 3.26267E+00
 -1      3291 3.60139E+00
 -1      3292 4.03758E+00
 -1      3293 3.02497E+00
 -1      3294 1.36175E+01
 -1      3295 1.23600E+01
 -1      3296 1.02576E+01
 -1      3297 8.41640E-01
 -1      3298 7.25724E-01
 -1      3299 7.12569E-01
 -1      3300 8.17849E+00
 -1      3301 6.92195E+00
 -1      3302 7.52439E+00
 -1      3303 1.02588E+01
 -1      3304 4.69583E+00
 -1      3305 4.56297E+00
 -1      3306 1.07615E+01
 -1      3307 1.33853E+01
 -1      3308 8.67599E+00
 -1      3309 5.35004E+00
 -1      3310 4.38943E+00
 -1      3311 3.26573E+00
 -1      3312 3.71562E-01
 -1      3313 3.56816E-01
 -1      3314 3.97908E-01
 -1      3315 4.19492E+00
 -1      3316 2.02603E-01
 -1      3317 2.23641E-01
 -1      3318 1.94135E-01
 -1      3319 4.41225E+00
 -1      3320 5.40349E+00
 -1      3321 7.38080E+00
 -1      3322 4.47945E+00
 -1      3323 4.72461E+00
 -1      3324 6.07397E-01
 -1      3325 4.62583E-01
 -1      3326 4.82035E-01
 -1      3327 1.00627E+01
 -1      3328 6.93115E+00
 -1      3329 7.99402E+00
 -1      3330 2.07175E-03
 -1      3331 2.69256E-03
 -1      3332 9.63489E+00
 -1      3333 3.20332E+00
 -1      3334 2.59855E+00
 -1      3335 6.41738E-01
 -1      3336 2.75908E+00
 -1      3337 1.09534E+00
 -1      3338 9.57635E-01
 -1      3339 9.13172E-01
 -1      3340 1.63440E+00
 -1      3341 1.42269E+00
 -1      3342 1.26975E+00
 -1      3343 5.61502E+00
 -1      3344 5.23906E+00
 -1      3345 2.51134E+00
 -1      3346 3.62920E+00
 -1      3347 4.76195E+00
 -1      3348 1.66067E-03
 -1      3349 1.92965E-03
 -1      3350 1.46865E-03
 -1      3351 3.76227E+00
 -1      3352 4.84238E-03
 -1      3353 4.38788E-03
 -1      3354 4.31368E-03
 -1      3355 3.30791E+00
 -1      3356 4.39795E+00
 -1      3357 6.27340E+00
 -1      3358 6.52803E+00
 -1      3359 3.35498E+00
 -1      3360 7.46526E+00
 -1      3361 1.30158E-03
 -1      3362 1.34569E-03
 -1      3363 1.39563E-03
 -1      3364 1.22959E-03
 -1      3365 4.35123E+00
 -1      3366 5.86951E+00
 -1      3367 5.83617E+00
 -1      3368 4.10370E+00
 -1      3369 6.25672E-01
 -1      3370 5.10417E-01
 -1      3371 8.33451E+00
 -1      3372 9.96025E+00
 -1      3373 7.48462E+00
 -1      3374 6.25672E-01
 -1      3375 3.10129E-03
 -1      3376 3.73775E-03
 -1      3377 4.03951E-03
 -1      3378 2.74946E-03
 -1      3379 9.97115E+00
 -1      3380 3.58445E-01
 -1      3381 3.17121E-01
 -1      3382 4.73700E-01
 -1      3383 3.54342E+00
 -1      3384 3.02497E+00
 -1      3385 3.13606E+00
 -1      3386 2.76432E-01
 -1      3387 8.14834E+00
 -1      3388 6.83167E+00
 -1      3389 6.49266E+00
 -1      3390 6.25275E+00
 -1      3391 4.66274E+00
 -1      3392 5.26482E-01
 -1      3393 5.06613E-01
 -1      3394 6.00389E-01
 -1      3395 6.01534E-01
 -1      3396 3.45901E-01
 -1      3397 3.68485E-01
 -1      3398 2.54726E-03
 -1      3399 2.25849E-03
 -1      3400 2.25849E-03
 -1      3401 2.90656E-03
 -1      3402 4.24513E-01
 -1      3403 5.45183E-01
 -1      3404 3.92600E-01
 -1      3405 4.52183E-01
 -1      3406 4.95620E-01
 -1      3407 7.48515E+00
 -1      3408 8.10784E+00
 -1      3409 4.15389E+00
 -1      3410 5.73879E-01
 -1      3411 6.28694E-01
 -1      3412 5.77823E-01
 -1      3413 7.35218E-01
 -1      3414 8.22028E-01
 -1      3415 7.62605E-01
 -1      3416 9.42995E-01
 -1      3417 1.04973E+00
 -1      3418 9.90097E-01
 -1      3419 1.17772E+00
 -1      3420 1.29304E+00
 -1      3421 1.23905E+00
 -1      3422 1.58618E+00
 -1      3423 1.70450E+00
 -1      3424 1.66018E+00
 -1      3425 1.88007E+00
 -1      3426 2.15243E+00
 -1      3427 2.12888E+00
 -1      3428 2.17804E+00
 -1      3429 2.47522E+00
 -1      3430 6.07397E-01
 -1      3431 2.69661E+00
 -1      3432 2.59937E+00
 -1      3433 2.23794E+00
 -1      3434 1.95902E+00
 -1      3435 2.81472E+00
 -1      3436 1.69544E+00
 -1      3437 1.60516E+00
 -1      3438 2.18972E+00
 -1      3439 1.37321E+00
 -1      3440 1.26309E+00
 -1      3441 1.69420E+00
 -1      3442 1.11839E+00
 -1      3443 1.01090E+00
 -1      3444 1.31755E+00
 -1      3445 8.88814E-01
 -1      3446 8.17533E-01
 -1      3447 1.05077E+00
 -1      3448 7.09250E-01
 -1      3449 6.50847E-01
 -1      3450 8.20403E-01
 -1      3451 5.72418E-01
 -1      3452 5.20183E-01
 -1      3453 6.33691E-01
 -1      3454 4.66660E-01
 -1      3455 4.19179E-01
 -1      3456 5.01740E-01
 -1      3457 3.78403E-01
 -1      3458 3.36727E-01
 -1      3459 4.07440E-01
 -1      3460 3.01898E-01
 -1      3461 2.66761E-01
 -1      3462 3.31835E-01
 -1      3463 2.35509E-01
 -1      3464 2.08874E-01
 -1      3465 2.65755E-01
 -1      3466 1.82027E-01
 -1      3467 1.59974E-01
 -1      3468 2.07656E-01
 -1      3469 1.37660E-01
 -1      3470 1.19311E-01
 -1      3471 1.58495E-01
 -1      3472 1.01269E-01
 -1      3473 8.68711E-02
 -1      3474 1.18139E-01
 -1      3475 7.26393E-02
 -1      3476 6.17728E-02
 -1      3477 8.58650E-02
 -1      3478 5.08627E-02
 -1      3479 4.29635E-02
 -1      3480 6.07231E-02
 -1      3481 3.51992E-02
 -1      3482 2.93387E-02
 -1      3483 4.20487E-02
 -1      3484 2.35515E-02
 -1      3485 1.92971E-02
 -1      3486 2.84972E-02
 -1      3487 1.50903E-02
 -1      3488 1.20825E-02
 -1      3489 1.85033E-02
 -1      3490 9.11389E-03
 -1      3491 7.05795E-03
 -1      3492 1.13279E-02
 -1      3493 5.06509E-03
 -1      3494 4.18815E-03
 -1      3495 6.36652E-03
 -1      3496 3.31646E-03
 -1      3497 3.21467E-03
 -1      3498 3.50197E-03
 -1      3499 3.33306E+00
 -1      3500 2.93612E+00
 -1      3501 1.12396E+00
 -1      3502 1.25455E+00
 -1      3503 1.44119E+00
 -1      3504 1.62695E+00
 -1      3505 1.44119E+00
 -1      3506 8.47635E+00
 -1      3507 8.47635E+00
 -1      3508 2.02685E+00
 -1      3509 2.31764E+00
 -1      3510 2.02773E+00
 -1      3511 8.67962E-01
 -1      3512 9.76022E-01
 -1      3513 1.10662E+00
 -1      3514 6.62399E-01
 -1      3515 7.53507E-01
 -1      3516 8.44229E-01
 -1      3517 4.99653E-01
 -1      3518 5.73620E-01
 -1      3519 6.40994E-01
 -1      3520 3.72230E-01
 -1      3521 4.30763E-01
 -1      3522 4.83324E-01
 -1      3523 2.73519E-01
 -1      3524 3.18925E-01
 -1      3525 3.61129E-01
 -1      3526 1.98585E-01
 -1      3527 2.32488E-01
 -1      3528 2.66792E-01
 -1      3529 1.44404E-01
 -1      3530 1.67238E-01
 -1      3531 1.94414E-01
 -1      3532 1.03126E-01
 -1      3533 1.20683E-01
 -1      3534 1.39345E-01
 -1      3535 7.21858E-02
 -1      3536 8.55145E-02
 -1      3537 9.80133E-02
 -1      3538 4.98137E-02
 -1      3539 5.97811E-02
 -1      3540 6.79974E-02
 -1      3541 3.33478E-02
 -1      3542 4.06712E-02
 -1      3543 4.64501E-02
 -1      3544 2.14617E-02
 -1      3545 2.67306E-02
 -1      3546 3.06904E-02
 -1      3547 1.31585E-02
 -1      3548 1.68520E-02
 -1      3549 1.94635E-02
 -1      3550 7.65910E-03
 -1      3551 9.97149E-03
 -1      3552 1.16667E-02
 -1      3553 5.45421E-03
 -1      3554 5.97852E-03
 -1      3555 6.79914E-03
 -1      3556 4.24869E-03
 -1      3557 4.60901E-03
 -1      3558 4.27336E-03
 -1      3559 5.66917E+00
 -1      3560 8.42193E+00
 -1      3561 8.47635E+00
 -1      3562 3.32450E+00
 -1      3563 1.76322E-03
 -1      3564 1.49024E-03
 -1      3565 3.73305E+00
 -1      3566 3.39686E+00
 -1      3567 3.04501E+00
 -1      3568 7.75218E-01
 -1      3569 6.90611E-01
 -1      3570 2.75440E-01
 -1      3571 3.07981E-01
 -1      3572 2.98653E-01
 -1      3573 3.68198E+00
 -1      3574 8.35849E+00
 -1      3575 7.98316E+00
 -1      3576 2.98139E+00
 -1      3577 3.37553E+00
 -1      3578 3.09138E+00
 -1      3579 5.41061E-01
 -1      3580 3.89089E-01
 -1      3581 4.47105E+00
 -1      3582 4.92463E+00
 -1      3583 4.85066E+00
 -1      3584 2.56548E+00
 -1      3585 6.14005E-01
 -1      3586 6.14005E-01
 -1      3587 5.29394E-01
 -1      3588 5.88722E-01
 -1      3589 4.01538E-01
 -1      3590 4.08433E-01
 -1      3591 4.55813E-01
 -1      3592 3.52808E-01
 -1      3593 3.07512E-01
 -1      3594 4.20170E-01
 -1      3595 8.10784E+00
 -1      3596 8.10784E+00
 -1      3597 6.26470E+00
 -1      3598 7.12856E+00
 -1      3599 6.68042E+00
 -1      3600 5.58787E+00
 -1      3601 4.40794E+00
 -1      3602 5.60723E+00
 -1      3603 1.84474E+00
 -1      3604 2.17804E+00
 -1      3605 1.75541E+00
 -1      3606 6.69072E+00
 -1      3607 7.77481E+00
 -1      3608 5.85174E+00
 -1      3609 5.62506E+00
 -1      3610 5.95809E+00
 -1      3611 2.08933E-01
 -1      3612 4.57435E+00
 -1      3613 3.91027E+00
 -1      3614 4.55864E+00
 -1      3615 4.96944E+00
 -1      3616 6.70226E+00
 -1      3617 3.88299E+00
 -1      3618 2.49522E+00
 -1      3619 2.32806E+00
 -1      3620 7.93146E+00
 -1      3621 5.10842E-01
 -1      3622 2.72296E+00
 -1      3623 3.43236E-03
 -1      3624 2.64724E+00
 -1      3625 6.43666E+00
 -1      3626 2.93230E+00
 -1      3627 1.88699E+00
 -1      3628 1.63058E+00
 -1      3629 3.17882E-03
 -1      3630 2.91223E-03
 -1      3631 2.55292E-03
 -1      3632 2.59443E-03
 -1      3633 6.80927E+00
 -1      3634 1.20358E+00
 -1      3635 2.05821E-03
 -1      3636 2.04709E-03
 -1      3637 2.85407E-01
 -1      3638 2.48406E-01
 -1      3639 3.61784E-01
 -1      3640 6.92713E+00
 -1      3641 3.87617E-03
 -1      3642 3.05564E-03
 -1      3643 3.19483E-03
 -1      3644 2.75069E+00
 -1      3645 3.54725E+00
 -1      3646 2.20186E-03
 -1      3647 2.13539E-03
 -1      3648 2.02789E-03
 -1      3649 2.04709E-03
 -1      3650 2.09017E-03
 -1      3651 2.90767E-03
 -1      3652 1.02582E+00
 -1      3653 9.09827E-01
 -1      3654 8.87868E-01
 -1      3655 5.83621E+00
 -1      3656 4.55654E+00
 -1      3657 5.61818E+00
 -1      3658 1.67287E-03
 -1      3659 2.08394E-03
 -1      3660 6.01534E-01
 -1      3661 5.75106E-01
 -1      3662 5.88722E-01
 -1      3663 6.64183E-01
 -1      3664 3.02276E-01
 -1      3665 3.40196E-01
 -1      3666 4.88380E-01
 -1      3667 3.97358E-01
 -1      3668 4.07883E-01
 -1      3669 4.26165E-01
 -1      3670 2.17804E+00
 -1      3671 3.36573E-01
 -1      3672 3.92600E-01
 -1      3673 3.70138E-01
 -1      3674 3.40196E-01
 -1      3675 5.95041E+00
 -1      3676 4.93063E+00
 -1      3677 5.60151E+00
 -1      3678 4.91868E+00
 -1      3679 2.26416E-03
 -1      3680 2.25514E-03
 -1      3681 2.51193E-03
 -1      3682 2.05765E-03
 -1      3683 5.68244E+00
 -1      3684 5.56458E+00
 -1      3685 5.68151E-01
 -1      3686 6.46410E-01
 -1      3687 7.54734E-01
 -1      3688 8.61258E-01
 -1      3689 7.45062E-01
 -1      3690 1.22750E+00
 -1      3691 1.34847E+00
 -1      3692 1.21963E+00
 -1      3693 1.91974E+00
 -1      3694 2.04773E+00
 -1      3695 2.15714E+00
 -1      3696 2.48974E+00
 -1      3697 2.78288E+00
 -1      3698 3.17042E+00
 -1      3699 2.72921E+00
 -1      3700 2.90477E+00
 -1      3701 3.55877E+00
 -1      3702 2.09349E-03
 -1      3703 2.75350E+00
 -1      3704 2.48993E+00
 -1      3705 2.09062E+00
 -1      3706 1.85867E+00
 -1      3707 2.65440E+00
 -1      3708 1.59499E+00
 -1      3709 1.45029E+00
 -1      3710 1.99141E+00
 -1      3711 1.20475E+00
 -1      3712 1.08266E+00
 -1      3713 1.48218E+00
 -1      3714 9.11830E-01
 -1      3715 8.03547E-01
 -1      3716 1.06581E+00
 -1      3717 7.00592E-01
 -1      3718 6.22164E-01
 -1      3719 7.92020E-01
 -1      3720 5.55263E-01
 -1      3721 5.01740E-01
 -1      3722 6.22164E-01
 -1      3723 4.48217E-01
 -1      3724 4.07440E-01
 -1      3725 5.01740E-01
 -1      3726 3.61167E-01
 -1      3727 3.26338E-01
 -1      3728 4.01943E-01
 -1      3729 2.87424E-01
 -1      3730 2.56173E-01
 -1      3731 3.16756E-01
 -1      3732 2.24090E-01
 -1      3733 1.97242E-01
 -1      3734 2.45759E-01
 -1      3735 1.71232E-01
 -1      3736 1.48918E-01
 -1      3737 1.87666E-01
 -1      3738 1.28161E-01
 -1      3739 1.10119E-01
 -1      3740 1.40898E-01
 -1      3741 9.38108E-02
 -1      3742 7.95790E-02
 -1      3743 1.03833E-01
 -1      3744 6.69740E-02
 -1      3745 5.60640E-02
 -1      3746 7.49198E-02
 -1      3747 4.64890E-02
 -1      3748 3.87247E-02
 -1      3749 5.27399E-02
 -1      3750 3.18014E-02
 -1      3751 2.60143E-02
 -1      3752 3.62417E-02
 -1      3753 2.11259E-02
 -1      3754 1.69191E-02
 -1      3755 2.44301E-02
 -1      3756 1.33662E-02
 -1      3757 1.03976E-02
 -1      3758 1.59888E-02
 -1      3759 7.89464E-03
 -1      3760 5.90179E-03
 -1      3761 9.93285E-03
 -1      3762 4.67549E-03
 -1      3763 3.80380E-03
 -1      3764 6.20362E-03
 -1      3765 2.92066E-03
 -1      3766 1.01999E+00
 -1      3767 1.16793E+00
 -1      3768 5.25508E+00
 -1      3769 5.25508E+00
 -1      3770 2.87734E-03
 -1      3771 5.79541E-01
 -1      3772 6.68320E-01
 -1      3773 4.36466E-01
 -1      3774 5.05356E-01
 -1      3775 5.32682E-01
 -1      3776 3.26676E-01
 -1      3777 3.79981E-01
 -1      3778 4.02013E-01
 -1      3779 2.42176E-01
 -1      3780 2.83208E-01
 -1      3781 3.02060E-01
 -1      3782 1.77282E-01
 -1      3783 2.08630E-01
 -1      3784 2.25045E-01
 -1      3785 1.27748E-01
 -1      3786 1.51469E-01
 -1      3787 1.65685E-01
 -1      3788 9.04163E-02
 -1      3789 1.08027E-01
 -1      3790 1.20151E-01
 -1      3791 6.31010E-02
 -1      3792 7.55057E-02
 -1      3793 8.55199E-02
 -1      3794 4.28795E-02
 -1      3795 5.20221E-02
 -1      3796 5.95304E-02
 -1      3797 2.85918E-02
 -1      3798 3.52090E-02
 -1      3799 4.07810E-02
 -1      3800 1.83534E-02
 -1      3801 2.29631E-02
 -1      3802 2.74818E-02
 -1      3803 1.11163E-02
 -1      3804 1.43033E-02
 -1      3805 1.78030E-02
 -1      3806 6.61188E-03
 -1      3807 8.29246E-03
 -1      3808 1.09291E-02
 -1      3809 3.85311E-03
 -1      3810 4.69831E-03
 -1      3811 6.19163E-03
 -1      3812 2.41739E+00
 -1      3813 4.56108E-01
 -1      3814 4.99859E-01
 -1      3815 5.68446E-01
 -1      3816 4.11439E+00
 -1      3817 4.42868E+00
 -1      3818 1.86070E+00
 -1      3819 2.26060E+00
 -1      3820 5.70202E+00
 -1      3821 6.19249E+00
 -1      3822 4.60650E+00
 -1      3823 3.46039E+00
 -1      3824 3.80319E+00
 -1      3825 4.36041E+00
 -1      3826 4.06072E+00
 -1      3827 2.80281E+00
 -1      3828 3.46657E+00
 -1      3829 4.31793E+00
 -1      3830 2.63579E+00
 -1      3831 1.37799E+00
 -1      3832 1.20358E+00
 -1      3833 1.63058E+00
 -1      3834 2.79370E-03
 -1      3835 3.16622E-03
 -1      3836 3.59116E-03
 -1      3837 2.36571E-03
 -1      3838 1.35890E+00
 -1      3839 1.54554E+00
 -1      3840 1.27227E+00
 -1      3841 4.89850E+00
 -1      3842 5.25508E+00
 -1      3843 4.55206E+00
 -1      3844 4.08225E+00
 -1      3845 5.27010E-01
 -1      3846 4.90729E-01
 -1      3847 2.48853E-01
 -1      3848 3.00652E-01
 -1      3849 3.42196E-01
 -1      3850 3.40126E-01
 -1      3851 1.76450E-03
 -1      3852 1.88745E-03
 -1      3853 2.04174E-03
 -1      3854 2.58200E-03
 -1      3855 7.67666E-01
 -1      3856 8.82121E-01
 -1      3857 7.06212E-01
 -1      3858 4.91868E+00
 -1      3859 3.52156E+00
 -1      3860 5.66727E+00
 -1      3861 5.67813E+00
 -1      3862 4.58319E+00
 -1      3863 4.61634E+00
 -1      3864 6.19249E+00
 -1      3865 3.26702E-03
 -1      3866 3.82177E+00
 -1      3867 3.98142E+00
 -1      3868 2.93230E+00
 -1      3869 9.43428E-01
 -1      3870 4.96323E-01
 -1      3871 4.74218E-01
 -1      3872 6.03163E-01
 -1      3873 2.58030E-03
 -1      3874 2.36571E-03
 -1      3875 2.90427E-03
 -1      3876 4.23558E+00
 -1      3877 4.93859E+00
 -1      3878 4.60556E+00
 -1      3879 3.91217E-03
 -1      3880 3.91217E-03
 -1      3881 3.94250E-03
 -1      3882 4.97733E-03
 -1      3883 1.77841E+00
 -1      3884 4.94781E+00
 -1      3885 5.68244E+00
 -1      3886 4.43776E+00
 -1      3887 3.80788E+00
 -1      3888 4.11439E+00
 -1      3889 3.61244E+00
 -1      3890 1.20023E+00
 -1      3891 4.24401E-03
 -1      3892 3.20918E-03
 -1      3893 4.02602E+00
 -1      3894 5.15284E+00
 -1      3895 4.12871E+00
 -1      3896 3.20918E-03
 -1      3897 1.06525E+00
 -1      3898 9.30645E-01
 -1      3899 4.63673E+00
 -1      3900 4.63673E+00
 -1      3901 3.98382E-01
 -1      3902 4.02561E-01
 -1      3903 4.46607E-01
 -1      3904 3.64817E-01
 -1      3905 3.94193E-01
 -1      3906 3.90569E-01
 -1      3907 4.18813E-01
 -1      3908 5.77364E+00
 -1      3909 6.08930E-01
 -1      3910 5.35986E-01
 -1      3911 6.06546E-01
 -1      3912 5.95314E-01
 -1      3913 4.74665E-01
 -1      3914 4.76289E-01
 -1      3915 5.26661E-01
 -1      3916 6.84391E-01
 -1      3917 3.78847E+00
 -1      3918 5.21394E+00
 -1      3919 8.61776E-01
 -1      3920 8.52799E-01
 -1      3921 1.80187E+00
 -1      3922 1.54928E+00
 -1      3923 2.85100E+00
 -1      3924 3.32046E+00
 -1      3925 3.32046E+00
 -1      3926 2.87845E+00
 -1      3927 1.07593E+00
 -1      3928 1.44217E+00
 -1      3929 1.83337E+00
 -1      3930 2.40464E+00
 -1      3931 2.55468E+00
 -1      3932 1.68967E+00
 -1      3933 2.58446E-01
 -1      3934 3.01914E-01
 -1      3935 2.65995E+00
 -1      3936 2.39626E+00
 -1      3937 1.63139E+00
 -1      3938 1.38584E+00
 -1      3939 2.29992E+00
 -1      3940 1.19893E+00
 -1      3941 1.02810E+00
 -1      3942 1.34814E+00
 -1      3943 8.94974E-01
 -1      3944 7.92020E-01
 -1      3945 1.02810E+00
 -1      3946 6.89065E-01
 -1      3947 6.22164E-01
 -1      3948 7.92020E-01
 -1      3949 5.42049E-01
 -1      3950 4.88526E-01
 -1      3951 6.08950E-01
 -1      3952 4.26445E-01
 -1      3953 3.80172E-01
 -1      3954 4.66754E-01
 -1      3955 3.31963E-01
 -1      3956 2.93049E-01
 -1      3957 3.56465E-01
 -1      3958 2.55555E-01
 -1      3959 2.23472E-01
 -1      3960 2.70762E-01
 -1      3961 1.94320E-01
 -1      3962 1.68310E-01
 -1      3963 2.04116E-01
 -1      3964 1.45705E-01
 -1      3965 1.24948E-01
 -1      3966 1.52359E-01
 -1      3967 1.07515E-01
 -1      3968 9.12071E-02
 -1      3969 1.12322E-01
 -1      3970 7.78694E-02
 -1      3971 6.52645E-02
 -1      3972 8.15517E-02
 -1      3973 5.51655E-02
 -1      3974 4.55905E-02
 -1      3975 5.81151E-02
 -1      3976 3.80417E-02
 -1      3977 3.11185E-02
 -1      3978 4.04673E-02
 -1      3979 2.57048E-02
 -1      3980 2.08164E-02
 -1      3981 2.75048E-02
 -1      3982 1.73505E-02
 -1      3983 1.37976E-02
 -1      3984 1.86252E-02
 -1      3985 1.12010E-02
 -1      3986 8.69805E-03
 -1      3987 1.25628E-02
 -1      3988 6.73934E-03
 -1      3989 5.51305E-03
 -1      3990 5.51305E-03
 -1      3991 8.00748E-03
 -1      3992 3.41791E-01
 -1      3993 3.98276E-01
 -1      3994 2.98177E-01
 -1      3995 4.49765E-01
 -1      3996 5.23949E-01
 -1      3997 3.89543E-01
 -1      3998 1.93619E-01
 -1      3999 2.27165E-01
 -1      4000 2.27019E-01
 -1      4001 1.43222E-01
 -1      4002 1.69035E-01
 -1      4003 1.71155E-01
 -1      4004 1.04273E-01
 -1      4005 1.23993E-01
 -1      4006 1.27343E-01
 -1      4007 7.44609E-02
 -1      4008 8.93715E-02
 -1      4009 9.32136E-02
 -1      4010 5.19758E-02
 -1      4011 6.30547E-02
 -1      4012 6.69062E-02
 -1      4013 3.57032E-02
 -1      4014 4.33737E-02
 -1      4015 4.68980E-02
 -1      4016 2.39568E-02
 -1      4017 2.95855E-02
 -1      4018 3.21782E-02
 -1      4019 1.55813E-02
 -1      4020 1.96313E-02
 -1      4021 2.17351E-02
 -1      4022 9.56510E-03
 -1      4023 1.23890E-02
 -1      4024 1.42173E-02
 -1      4025 5.69952E-03
 -1      4026 7.61309E-03
 -1      4027 9.07299E-03
 -1      4028 1.05476E+00
 -1      4029 1.24573E+00
 -1      4030 3.43911E-03
 -1      4031 4.12600E-03
 -1      4032 5.54746E-03
 -1      4033 3.43911E-03
 -1      4034 1.36656E+00
 -1      4035 1.18880E+00
 -1      4036 1.23158E+00
 -1      4037 4.95208E-03
 -1      4038 4.21877E-03
 -1      4039 5.48780E-03
 -1      4040 9.96756E-01
 -1      4041 7.41526E-01
 -1      4042 3.95026E+00
 -1      4043 4.06072E+00
 -1      4044 5.92440E-01
 -1      4045 6.91785E-01
 -1      4046 5.09522E-01
 -1      4047 7.87427E-01
 -1      4048 9.25298E-01
 -1      4049 8.98756E-01
 -1      4050 3.37324E+00
 -1      4051 2.97394E+00
 -1      4052 3.37879E+00
 -1      4053 4.10801E+00
 -1      4054 5.68446E-01
 -1      4055 6.36739E-01
 -1      4056 2.85463E-03
 -1      4057 2.52896E-03
 -1      4058 2.85293E-03
 -1      4059 3.15614E-03
 -1      4060 4.74218E-01
 -1      4061 1.42068E+00
 -1      4062 1.73584E+00
 -1      4063 1.20316E+00
 -1      4064 7.40459E-01
 -1      4065 8.48783E-01
 -1      4066 7.40459E-01
 -1      4067 4.16796E+00
 -1      4068 3.48265E+00
 -1      4069 2.35222E+00
 -1      4070 1.07133E+00
 -1      4071 1.53785E+00
 -1      4072 3.79027E+00
 -1      4073 7.47120E-01
 -1      4074 3.88841E+00
 -1      4075 3.57192E+00
 -1      4076 1.23158E+00
 -1      4077 1.10803E+00
 -1      4078 9.96756E-01
 -1      4079 3.51561E+00
 -1      4080 3.10387E+00
 -1      4081 3.65353E+00
 -1      4082 4.92239E-03
 -1      4083 4.21431E-03
 -1      4084 3.85976E-03
 -1      4085 3.45148E+00
 -1      4086 6.08757E-01
 -1      4087 6.73654E-01
 -1      4088 2.16954E+00
 -1      4089 2.71175E+00
 -1      4090 1.81181E+00
 -1      4091 4.72360E-01
 -1      4092 3.88841E+00
 -1      4093 3.88841E+00
 -1      4094 3.12662E+00
 -1      4095 3.22475E+00
 -1      4096 6.40156E-01
 -1      4097 5.58060E-01
 -1      4098 3.51561E+00
 -1      4099 5.40652E-01
 -1      4100 9.21465E-01
 -1      4101 1.14861E+00
 -1      4102 1.61337E-01
 -1      4103 1.85921E-01
 -1      4104 8.06072E-01
 -1      4105 9.35531E-01
 -1      4106 2.08909E-01
 -1      4107 2.40189E-01
 -1      4108 1.99091E-01
 -1      4109 1.54996E+00
 -1      4110 1.36305E+00
 -1      4111 1.20525E+00
 -1      4112 1.07212E+00
 -1      4113 1.40707E+00
 -1      4114 8.68910E-01
 -1      4115 7.65956E-01
 -1      4116 1.04606E+00
 -1      4117 6.39278E-01
 -1      4118 5.59163E-01
 -1      4119 7.16169E-01
 -1      4120 4.79383E-01
 -1      4121 4.17302E-01
 -1      4122 5.09710E-01
 -1      4123 3.60008E-01
 -1      4124 3.11800E-01
 -1      4125 3.72636E-01
 -1      4126 2.73551E-01
 -1      4127 2.36058E-01
 -1      4128 2.77095E-01
 -1      4129 2.09915E-01
 -1      4130 1.80763E-01
 -1      4131 2.12705E-01
 -1      4132 1.59320E-01
 -1      4133 1.36716E-01
 -1      4134 1.65119E-01
 -1      4135 1.19341E-01
 -1      4136 1.01909E-01
 -1      4137 1.26302E-01
 -1      4138 8.80180E-02
 -1      4139 7.46803E-02
 -1      4140 9.50371E-02
 -1      4141 6.37330E-02
 -1      4142 5.36340E-02
 -1      4143 7.01992E-02
 -1      4144 4.51357E-02
 -1      4145 3.75869E-02
 -1      4146 5.07536E-02
 -1      4147 3.10950E-02
 -1      4148 2.56813E-02
 -1      4149 3.57634E-02
 -1      4150 2.10161E-02
 -1      4151 1.75502E-02
 -1      4152 2.46062E-02
 -1      4153 1.41682E-02
 -1      4154 1.15716E-02
 -1      4155 1.65590E-02
 -1      4156 8.19961E-03
 -1      4157 6.24089E-03
 -1      4158 5.67993E-03
 -1      4159 9.80504E-03
 -1      4160 2.66159E-01
 -1      4161 3.06036E-01
 -1      4162 2.48049E-01
 -1      4163 3.46852E-01
 -1      4164 3.98340E-01
 -1      4165 3.14834E-01
 -1      4166 1.22414E-01
 -1      4167 1.41642E-01
 -1      4168 1.56408E-01
 -1      4169 9.11002E-02
 -1      4170 1.06001E-01
 -1      4171 1.20300E-01
 -1      4172 6.63492E-02
 -1      4173 7.77554E-02
 -1      4174 9.05432E-02
 -1      4175 4.71399E-02
 -1      4176 5.57419E-02
 -1      4177 6.65911E-02
 -1      4178 3.29854E-02
 -1      4179 3.91031E-02
 -1      4180 4.79471E-02
 -1      4181 2.26739E-02
 -1      4182 2.69993E-02
 -1      4183 3.39242E-02
 -1      4184 1.46835E-02
 -1      4185 1.78759E-02
 -1      4186 2.31401E-02
 -1      4187 1.54113E+00
 -1      4188 1.35841E+00
 -1      4189 1.23486E+00
 -1      4190 2.17278E+00
 -1      4191 2.55475E+00
 -1      4192 2.55475E+00
 -1      4193 3.33954E+00
 -1      4194 3.34163E+00
 -1      4195 4.53619E-01
 -1      4196 5.22110E-01
 -1      4197 4.10928E-01
 -1      4198 2.21881E+00
 -1      4199 2.31695E+00
 -1      4200 1.64694E+00
 -1      4201 1.74501E+00
 -1      4202 2.41948E+00
 -1      4203 3.10431E+00
 -1      4204 3.38777E-03
 -1      4205 7.78519E-01
 -1      4206 6.40156E-01
 -1      4207 1.13874E+00
 -1      4208 1.31369E+00
 -1      4209 1.04606E+00
 -1      4210 7.11351E-01
 -1      4211 8.15072E-01
 -1      4212 8.92358E-01
 -1      4213 5.96901E-01
 -1      4214 6.92543E-01
 -1      4215 5.40998E-01
 -1      4216 6.40156E-01
 -1      4217 3.02408E+00
 -1      4218 2.74934E+00
 -1      4219 1.98447E+00
 -1      4220 2.51367E+00
 -1      4221 2.43431E+00
 -1      4222 8.35895E-03
 -1      4223 7.60586E-03
 -1      4224 7.60141E-03
 -1      4225 1.91782E+00
 -1      4226 2.09180E+00
 -1      4227 1.99938E+00
 -1      4228 6.54147E-01
 -1      4229 9.44461E-01
 -1      4230 8.33187E-01
 -1      4231 7.26224E-01
 -1      4232 1.06549E-02
 -1      4233 1.43135E-02
 -1      4234 1.62321E+00
 -1      4235 8.70293E-03
 -1      4236 4.44594E-03
 -1      4237 6.01946E-03
 -1      4238 1.33895E+00
 -1      4239 1.73015E+00
 -1      4240 1.39429E+00
 -1      4241 1.18909E+00
 -1      4242 2.01201E+00
 -1      4243 1.48412E+00
 -1      4244 7.29318E-01
 -1      4245 6.71555E-01
 -1      4246 1.41970E+00
 -1      4247 7.28760E-01
 -1      4248 7.28760E-01
 -1      4249 7.29318E-01
 -1      4250 8.42846E-01
 -1      4251 7.83428E-01
 -1      4252 8.89822E-01
 -1      4253 1.57751E+00
 -1      4254 1.40195E-01
 -1      4255 1.59890E-01
 -1      4256 1.04606E+00
 -1      4257 6.02640E-01
 -1      4258 5.27849E-01
 -1      4259 4.48068E-01
 -1      4260 3.92790E-01
 -1      4261 3.35496E-01
 -1      4262 2.94681E-01
 -1      4263 2.56433E-01
 -1      4264 2.30463E-01
 -1      4265 2.04320E-01
 -1      4266 1.81332E-01
 -1      4267 1.22820E-01
 -1      4268 1.06408E-01
 -1      4269 9.25172E-02
 -1      4270 7.91725E-02
 -1      4271 6.82252E-02
 -1      4272 5.76179E-02
 -1      4273 4.91196E-02
 -1      4274 4.10828E-02
 -1      4275 3.45909E-02
 -1      4276 2.86047E-02
 -1      4277 2.39395E-02
 -1      4278 1.91415E-02
 -1      4279 1.57596E-02
 -1      4280 1.31974E+00
 -1      4281 1.19291E+00
 -1      4282 1.02935E+00
 -1      4283 1.58127E+00
 -1      4284 1.40707E+00
 -1      4285 1.24927E+00
 -1      4286 1.13827E+00
 -1      4287 1.32862E+00
 -1      4288 1.63209E+00
 -1      4289 1.17310E-02
 -3
 9999
